    1C
    1UUSER                                                              
    1UDATE              11.october.2022                                 
    1UTIME              19:07:05                                        
    1UHOST                                                              
    1UPGM               CalculiX                                        
    1UVERSION           Version 2.20                             
    1UCOMPILETIME       Sun Jul 31 18:08:37 CEST 2022                    
    1UDIR                                                               
    1UDBN                                                               
    1UMAT    1MESH_MATERIAL                                             
    2C                           409                                     1
 -1         1 0.00000E+00 0.00000E+00 0.00000E+00
 -1         2 1.66667E-02 0.00000E+00 0.00000E+00
 -1         3 3.33333E-02 0.00000E+00 0.00000E+00
 -1         5 6.66667E-02 0.00000E+00 0.00000E+00
 -1         8 0.00000E+00 6.25000E-03 0.00000E+00
 -1         9 1.66667E-02 6.25000E-03 0.00000E+00
 -1        10 3.33333E-02 6.25000E-03 0.00000E+00
 -1        12 6.66667E-02 6.25000E-03 0.00000E+00
 -1        15 0.00000E+00 1.25000E-02 0.00000E+00
 -1        16 1.66667E-02 1.25000E-02 0.00000E+00
 -1        17 3.33333E-02 1.25000E-02 0.00000E+00
 -1        18 5.00000E-02 1.25000E-02 0.00000E+00
 -1        19 6.66667E-02 1.25000E-02 0.00000E+00
 -1        20 8.33333E-02 1.25000E-02 0.00000E+00
 -1        21 1.00000E-01 1.25000E-02 0.00000E+00
 -1        24 3.33333E-02 1.87500E-02 0.00000E+00
 -1        25 5.00000E-02 1.87500E-02 0.00000E+00
 -1        26 6.66667E-02 1.87500E-02 0.00000E+00
 -1        27 8.33333E-02 1.87500E-02 0.00000E+00
 -1        28 1.00000E-01 1.87500E-02 0.00000E+00
 -1        32 5.00000E-02 2.50000E-02 0.00000E+00
 -1        33 6.66667E-02 2.50000E-02 0.00000E+00
 -1        34 8.33333E-02 2.50000E-02 0.00000E+00
 -1        35 1.00000E-01 2.50000E-02 0.00000E+00
 -1        51 0.00000E+00 1.04167E-03 0.00000E+00
 -1        52 0.00000E+00 2.08333E-03 0.00000E+00
 -1        53 0.00000E+00 3.12500E-03 0.00000E+00
 -1        54 0.00000E+00 4.16667E-03 0.00000E+00
 -1        55 0.00000E+00 5.20833E-03 0.00000E+00
 -1        56 1.04167E-03 3.90630E-04 0.00000E+00
 -1        57 2.08333E-03 7.81250E-04 0.00000E+00
 -1        58 3.12500E-03 1.17188E-03 0.00000E+00
 -1        59 4.16667E-03 1.56250E-03 0.00000E+00
 -1        60 5.20833E-03 1.95312E-03 0.00000E+00
 -1        61 6.25000E-03 2.34375E-03 0.00000E+00
 -1        62 7.29167E-03 2.73438E-03 0.00000E+00
 -1        63 8.33333E-03 3.12500E-03 0.00000E+00
 -1        64 9.37500E-03 3.51563E-03 0.00000E+00
 -1        65 1.04167E-02 3.90625E-03 0.00000E+00
 -1        66 1.14583E-02 4.29688E-03 0.00000E+00
 -1        67 1.25000E-02 4.68750E-03 0.00000E+00
 -1        68 1.35417E-02 5.07813E-03 0.00000E+00
 -1        69 1.45833E-02 5.46875E-03 0.00000E+00
 -1        70 1.56250E-02 5.85938E-03 0.00000E+00
 -1        86 1.66667E-02 1.04167E-03 0.00000E+00
 -1        87 1.66667E-02 2.08333E-03 0.00000E+00
 -1        88 1.66667E-02 3.12500E-03 0.00000E+00
 -1        89 1.66667E-02 4.16667E-03 0.00000E+00
 -1        90 1.66667E-02 5.20833E-03 0.00000E+00
 -1       121 3.33333E-02 1.04167E-03 0.00000E+00
 -1       122 3.33333E-02 2.08333E-03 0.00000E+00
 -1       123 3.33333E-02 3.12500E-03 0.00000E+00
 -1       124 3.33333E-02 4.16667E-03 0.00000E+00
 -1       125 3.33333E-02 5.20833E-03 0.00000E+00
 -1       191 6.66667E-02 1.04167E-03 0.00000E+00
 -1       192 6.66667E-02 2.08333E-03 0.00000E+00
 -1       193 6.66667E-02 3.12500E-03 0.00000E+00
 -1       194 6.66667E-02 4.16667E-03 0.00000E+00
 -1       195 6.66667E-02 5.20833E-03 0.00000E+00
 -1       251 1.04167E-03 6.25000E-03 0.00000E+00
 -1       252 2.08333E-03 6.25000E-03 0.00000E+00
 -1       253 3.12500E-03 6.25000E-03 0.00000E+00
 -1       254 4.16667E-03 6.25000E-03 0.00000E+00
 -1       255 5.20833E-03 6.25000E-03 0.00000E+00
 -1       256 6.25000E-03 6.25000E-03 0.00000E+00
 -1       257 7.29167E-03 6.25000E-03 0.00000E+00
 -1       258 8.33333E-03 6.25000E-03 0.00000E+00
 -1       259 9.37500E-03 6.25000E-03 0.00000E+00
 -1       260 1.04167E-02 6.25000E-03 0.00000E+00
 -1       261 1.14583E-02 6.25000E-03 0.00000E+00
 -1       262 1.25000E-02 6.25000E-03 0.00000E+00
 -1       263 1.35417E-02 6.25000E-03 0.00000E+00
 -1       264 1.45833E-02 6.25000E-03 0.00000E+00
 -1       265 1.56250E-02 6.25000E-03 0.00000E+00
 -1       266 0.00000E+00 7.29167E-03 0.00000E+00
 -1       267 0.00000E+00 8.33333E-03 0.00000E+00
 -1       268 0.00000E+00 9.37500E-03 0.00000E+00
 -1       269 0.00000E+00 1.04167E-02 0.00000E+00
 -1       270 0.00000E+00 1.14583E-02 0.00000E+00
 -1       271 1.04167E-03 6.64063E-03 0.00000E+00
 -1       272 2.08333E-03 7.03125E-03 0.00000E+00
 -1       273 3.12500E-03 7.42188E-03 0.00000E+00
 -1       274 4.16667E-03 7.81250E-03 0.00000E+00
 -1       275 5.20833E-03 8.20313E-03 0.00000E+00
 -1       276 6.25000E-03 8.59375E-03 0.00000E+00
 -1       277 7.29167E-03 8.98438E-03 0.00000E+00
 -1       278 8.33333E-03 9.37500E-03 0.00000E+00
 -1       279 9.37500E-03 9.76562E-03 0.00000E+00
 -1       280 1.04167E-02 1.01562E-02 0.00000E+00
 -1       281 1.14583E-02 1.05469E-02 0.00000E+00
 -1       282 1.25000E-02 1.09375E-02 0.00000E+00
 -1       283 1.35417E-02 1.13281E-02 0.00000E+00
 -1       284 1.45833E-02 1.17188E-02 0.00000E+00
 -1       285 1.56250E-02 1.21094E-02 0.00000E+00
 -1       301 1.66667E-02 7.29167E-03 0.00000E+00
 -1       302 1.66667E-02 8.33333E-03 0.00000E+00
 -1       303 1.66667E-02 9.37500E-03 0.00000E+00
 -1       304 1.66667E-02 1.04167E-02 0.00000E+00
 -1       305 1.66667E-02 1.14583E-02 0.00000E+00
 -1       306 1.77083E-02 6.64063E-03 0.00000E+00
 -1       307 1.87500E-02 7.03125E-03 0.00000E+00
 -1       308 1.97917E-02 7.42188E-03 0.00000E+00
 -1       309 2.08333E-02 7.81250E-03 0.00000E+00
 -1       310 2.18750E-02 8.20313E-03 0.00000E+00
 -1       311 2.29167E-02 8.59375E-03 0.00000E+00
 -1       312 2.39583E-02 8.98438E-03 0.00000E+00
 -1       313 2.50000E-02 9.37500E-03 0.00000E+00
 -1       314 2.60417E-02 9.76562E-03 0.00000E+00
 -1       315 2.70833E-02 1.01562E-02 0.00000E+00
 -1       316 2.81250E-02 1.05469E-02 0.00000E+00
 -1       317 2.91667E-02 1.09375E-02 0.00000E+00
 -1       318 3.02083E-02 1.13281E-02 0.00000E+00
 -1       319 3.12500E-02 1.17188E-02 0.00000E+00
 -1       320 3.22917E-02 1.21094E-02 0.00000E+00
 -1       336 3.33333E-02 7.29167E-03 0.00000E+00
 -1       337 3.33333E-02 8.33333E-03 0.00000E+00
 -1       338 3.33333E-02 9.37500E-03 0.00000E+00
 -1       339 3.33333E-02 1.04167E-02 0.00000E+00
 -1       340 3.33333E-02 1.14583E-02 0.00000E+00
 -1       406 6.66667E-02 7.29167E-03 0.00000E+00
 -1       407 6.66667E-02 8.33333E-03 0.00000E+00
 -1       408 6.66667E-02 9.37500E-03 0.00000E+00
 -1       409 6.66667E-02 1.04167E-02 0.00000E+00
 -1       410 6.66667E-02 1.14583E-02 0.00000E+00
 -1       521 1.77083E-02 1.28906E-02 0.00000E+00
 -1       522 1.87500E-02 1.32813E-02 0.00000E+00
 -1       523 1.97917E-02 1.36719E-02 0.00000E+00
 -1       524 2.08333E-02 1.40625E-02 0.00000E+00
 -1       525 2.18750E-02 1.44531E-02 0.00000E+00
 -1       526 2.29167E-02 1.48437E-02 0.00000E+00
 -1       527 2.39583E-02 1.52344E-02 0.00000E+00
 -1       528 2.50000E-02 1.56250E-02 0.00000E+00
 -1       529 2.60417E-02 1.60156E-02 0.00000E+00
 -1       530 2.70833E-02 1.64062E-02 0.00000E+00
 -1       531 2.81250E-02 1.67969E-02 0.00000E+00
 -1       532 2.91667E-02 1.71875E-02 0.00000E+00
 -1       533 3.02083E-02 1.75781E-02 0.00000E+00
 -1       534 3.12500E-02 1.79687E-02 0.00000E+00
 -1       535 3.22917E-02 1.83594E-02 0.00000E+00
 -1       536 3.43750E-02 1.25000E-02 0.00000E+00
 -1       537 3.54167E-02 1.25000E-02 0.00000E+00
 -1       538 3.64583E-02 1.25000E-02 0.00000E+00
 -1       539 3.75000E-02 1.25000E-02 0.00000E+00
 -1       540 3.85417E-02 1.25000E-02 0.00000E+00
 -1       541 3.95833E-02 1.25000E-02 0.00000E+00
 -1       542 4.06250E-02 1.25000E-02 0.00000E+00
 -1       543 4.16667E-02 1.25000E-02 0.00000E+00
 -1       544 4.27083E-02 1.25000E-02 0.00000E+00
 -1       545 4.37500E-02 1.25000E-02 0.00000E+00
 -1       546 4.47917E-02 1.25000E-02 0.00000E+00
 -1       547 4.58333E-02 1.25000E-02 0.00000E+00
 -1       548 4.68750E-02 1.25000E-02 0.00000E+00
 -1       549 4.79167E-02 1.25000E-02 0.00000E+00
 -1       550 4.89583E-02 1.25000E-02 0.00000E+00
 -1       551 3.33333E-02 1.35417E-02 0.00000E+00
 -1       552 3.33333E-02 1.45833E-02 0.00000E+00
 -1       553 3.33333E-02 1.56250E-02 0.00000E+00
 -1       554 3.33333E-02 1.66667E-02 0.00000E+00
 -1       555 3.33333E-02 1.77083E-02 0.00000E+00
 -1       556 3.43750E-02 1.28906E-02 0.00000E+00
 -1       557 3.54167E-02 1.32813E-02 0.00000E+00
 -1       558 3.64583E-02 1.36719E-02 0.00000E+00
 -1       559 3.75000E-02 1.40625E-02 0.00000E+00
 -1       560 3.85417E-02 1.44531E-02 0.00000E+00
 -1       561 3.95833E-02 1.48437E-02 0.00000E+00
 -1       562 4.06250E-02 1.52344E-02 0.00000E+00
 -1       563 4.16667E-02 1.56250E-02 0.00000E+00
 -1       564 4.27083E-02 1.60156E-02 0.00000E+00
 -1       565 4.37500E-02 1.64062E-02 0.00000E+00
 -1       566 4.47917E-02 1.67969E-02 0.00000E+00
 -1       567 4.58333E-02 1.71875E-02 0.00000E+00
 -1       568 4.68750E-02 1.75781E-02 0.00000E+00
 -1       569 4.79167E-02 1.79687E-02 0.00000E+00
 -1       570 4.89583E-02 1.83594E-02 0.00000E+00
 -1       571 5.10417E-02 1.25000E-02 0.00000E+00
 -1       572 5.20833E-02 1.25000E-02 0.00000E+00
 -1       573 5.31250E-02 1.25000E-02 0.00000E+00
 -1       574 5.41667E-02 1.25000E-02 0.00000E+00
 -1       575 5.52083E-02 1.25000E-02 0.00000E+00
 -1       576 5.62500E-02 1.25000E-02 0.00000E+00
 -1       577 5.72917E-02 1.25000E-02 0.00000E+00
 -1       578 5.83333E-02 1.25000E-02 0.00000E+00
 -1       579 5.93750E-02 1.25000E-02 0.00000E+00
 -1       580 6.04167E-02 1.25000E-02 0.00000E+00
 -1       581 6.14583E-02 1.25000E-02 0.00000E+00
 -1       582 6.25000E-02 1.25000E-02 0.00000E+00
 -1       583 6.35417E-02 1.25000E-02 0.00000E+00
 -1       584 6.45833E-02 1.25000E-02 0.00000E+00
 -1       585 6.56250E-02 1.25000E-02 0.00000E+00
 -1       586 5.00000E-02 1.35417E-02 0.00000E+00
 -1       587 5.00000E-02 1.45833E-02 0.00000E+00
 -1       588 5.00000E-02 1.56250E-02 0.00000E+00
 -1       589 5.00000E-02 1.66667E-02 0.00000E+00
 -1       590 5.00000E-02 1.77083E-02 0.00000E+00
 -1       591 5.10417E-02 1.28906E-02 0.00000E+00
 -1       592 5.20833E-02 1.32813E-02 0.00000E+00
 -1       593 5.31250E-02 1.36719E-02 0.00000E+00
 -1       594 5.41667E-02 1.40625E-02 0.00000E+00
 -1       595 5.52083E-02 1.44531E-02 0.00000E+00
 -1       596 5.62500E-02 1.48437E-02 0.00000E+00
 -1       597 5.72917E-02 1.52344E-02 0.00000E+00
 -1       598 5.83333E-02 1.56250E-02 0.00000E+00
 -1       599 5.93750E-02 1.60156E-02 0.00000E+00
 -1       600 6.04167E-02 1.64062E-02 0.00000E+00
 -1       601 6.14583E-02 1.67969E-02 0.00000E+00
 -1       602 6.25000E-02 1.71875E-02 0.00000E+00
 -1       603 6.35417E-02 1.75781E-02 0.00000E+00
 -1       604 6.45833E-02 1.79687E-02 0.00000E+00
 -1       605 6.56250E-02 1.83594E-02 0.00000E+00
 -1       606 6.77083E-02 1.25000E-02 0.00000E+00
 -1       607 6.87500E-02 1.25000E-02 0.00000E+00
 -1       608 6.97917E-02 1.25000E-02 0.00000E+00
 -1       609 7.08333E-02 1.25000E-02 0.00000E+00
 -1       610 7.18750E-02 1.25000E-02 0.00000E+00
 -1       611 7.29167E-02 1.25000E-02 0.00000E+00
 -1       612 7.39583E-02 1.25000E-02 0.00000E+00
 -1       613 7.50000E-02 1.25000E-02 0.00000E+00
 -1       614 7.60417E-02 1.25000E-02 0.00000E+00
 -1       615 7.70833E-02 1.25000E-02 0.00000E+00
 -1       616 7.81250E-02 1.25000E-02 0.00000E+00
 -1       617 7.91667E-02 1.25000E-02 0.00000E+00
 -1       618 8.02083E-02 1.25000E-02 0.00000E+00
 -1       619 8.12500E-02 1.25000E-02 0.00000E+00
 -1       620 8.22917E-02 1.25000E-02 0.00000E+00
 -1       621 6.66667E-02 1.35417E-02 0.00000E+00
 -1       622 6.66667E-02 1.45833E-02 0.00000E+00
 -1       623 6.66667E-02 1.56250E-02 0.00000E+00
 -1       624 6.66667E-02 1.66667E-02 0.00000E+00
 -1       625 6.66667E-02 1.77083E-02 0.00000E+00
 -1       626 6.77083E-02 1.28906E-02 0.00000E+00
 -1       627 6.87500E-02 1.32813E-02 0.00000E+00
 -1       628 6.97917E-02 1.36719E-02 0.00000E+00
 -1       629 7.08333E-02 1.40625E-02 0.00000E+00
 -1       630 7.18750E-02 1.44531E-02 0.00000E+00
 -1       631 7.29167E-02 1.48437E-02 0.00000E+00
 -1       632 7.39583E-02 1.52344E-02 0.00000E+00
 -1       633 7.50000E-02 1.56250E-02 0.00000E+00
 -1       634 7.60417E-02 1.60156E-02 0.00000E+00
 -1       635 7.70833E-02 1.64062E-02 0.00000E+00
 -1       636 7.81250E-02 1.67969E-02 0.00000E+00
 -1       637 7.91667E-02 1.71875E-02 0.00000E+00
 -1       638 8.02083E-02 1.75781E-02 0.00000E+00
 -1       639 8.12500E-02 1.79687E-02 0.00000E+00
 -1       640 8.22917E-02 1.83594E-02 0.00000E+00
 -1       656 8.33333E-02 1.35417E-02 0.00000E+00
 -1       657 8.33333E-02 1.45833E-02 0.00000E+00
 -1       658 8.33333E-02 1.56250E-02 0.00000E+00
 -1       659 8.33333E-02 1.66667E-02 0.00000E+00
 -1       660 8.33333E-02 1.77083E-02 0.00000E+00
 -1       661 8.43750E-02 1.28906E-02 0.00000E+00
 -1       662 8.54167E-02 1.32813E-02 0.00000E+00
 -1       663 8.64583E-02 1.36719E-02 0.00000E+00
 -1       664 8.75000E-02 1.40625E-02 0.00000E+00
 -1       665 8.85417E-02 1.44531E-02 0.00000E+00
 -1       666 8.95833E-02 1.48437E-02 0.00000E+00
 -1       667 9.06250E-02 1.52344E-02 0.00000E+00
 -1       668 9.16667E-02 1.56250E-02 0.00000E+00
 -1       669 9.27083E-02 1.60156E-02 0.00000E+00
 -1       670 9.37500E-02 1.64062E-02 0.00000E+00
 -1       671 9.47917E-02 1.67969E-02 0.00000E+00
 -1       672 9.58333E-02 1.71875E-02 0.00000E+00
 -1       673 9.68750E-02 1.75781E-02 0.00000E+00
 -1       674 9.79167E-02 1.79687E-02 0.00000E+00
 -1       675 9.89583E-02 1.83594E-02 0.00000E+00
 -1       676 1.00000E-01 1.35417E-02 0.00000E+00
 -1       677 1.00000E-01 1.45833E-02 0.00000E+00
 -1       678 1.00000E-01 1.56250E-02 0.00000E+00
 -1       679 1.00000E-01 1.66667E-02 0.00000E+00
 -1       680 1.00000E-01 1.77083E-02 0.00000E+00
 -1       771 3.43750E-02 1.91406E-02 0.00000E+00
 -1       772 3.54167E-02 1.95312E-02 0.00000E+00
 -1       773 3.64583E-02 1.99219E-02 0.00000E+00
 -1       774 3.75000E-02 2.03125E-02 0.00000E+00
 -1       775 3.85417E-02 2.07031E-02 0.00000E+00
 -1       776 3.95833E-02 2.10938E-02 0.00000E+00
 -1       777 4.06250E-02 2.14844E-02 0.00000E+00
 -1       778 4.16667E-02 2.18750E-02 0.00000E+00
 -1       779 4.27083E-02 2.22656E-02 0.00000E+00
 -1       780 4.37500E-02 2.26563E-02 0.00000E+00
 -1       781 4.47917E-02 2.30469E-02 0.00000E+00
 -1       782 4.58333E-02 2.34375E-02 0.00000E+00
 -1       783 4.68750E-02 2.38281E-02 0.00000E+00
 -1       784 4.79167E-02 2.42187E-02 0.00000E+00
 -1       785 4.89583E-02 2.46094E-02 0.00000E+00
 -1       786 5.10417E-02 1.87500E-02 0.00000E+00
 -1       787 5.20833E-02 1.87500E-02 0.00000E+00
 -1       788 5.31250E-02 1.87500E-02 0.00000E+00
 -1       789 5.41667E-02 1.87500E-02 0.00000E+00
 -1       790 5.52083E-02 1.87500E-02 0.00000E+00
 -1       791 5.62500E-02 1.87500E-02 0.00000E+00
 -1       792 5.72917E-02 1.87500E-02 0.00000E+00
 -1       793 5.83333E-02 1.87500E-02 0.00000E+00
 -1       794 5.93750E-02 1.87500E-02 0.00000E+00
 -1       795 6.04167E-02 1.87500E-02 0.00000E+00
 -1       796 6.14583E-02 1.87500E-02 0.00000E+00
 -1       797 6.25000E-02 1.87500E-02 0.00000E+00
 -1       798 6.35417E-02 1.87500E-02 0.00000E+00
 -1       799 6.45833E-02 1.87500E-02 0.00000E+00
 -1       800 6.56250E-02 1.87500E-02 0.00000E+00
 -1       801 5.00000E-02 1.97917E-02 0.00000E+00
 -1       802 5.00000E-02 2.08333E-02 0.00000E+00
 -1       803 5.00000E-02 2.18750E-02 0.00000E+00
 -1       804 5.00000E-02 2.29167E-02 0.00000E+00
 -1       805 5.00000E-02 2.39583E-02 0.00000E+00
 -1       806 5.10417E-02 1.91406E-02 0.00000E+00
 -1       807 5.20833E-02 1.95312E-02 0.00000E+00
 -1       808 5.31250E-02 1.99219E-02 0.00000E+00
 -1       809 5.41667E-02 2.03125E-02 0.00000E+00
 -1       810 5.52083E-02 2.07031E-02 0.00000E+00
 -1       811 5.62500E-02 2.10938E-02 0.00000E+00
 -1       812 5.72917E-02 2.14844E-02 0.00000E+00
 -1       813 5.83333E-02 2.18750E-02 0.00000E+00
 -1       814 5.93750E-02 2.22656E-02 0.00000E+00
 -1       815 6.04167E-02 2.26563E-02 0.00000E+00
 -1       816 6.14583E-02 2.30469E-02 0.00000E+00
 -1       817 6.25000E-02 2.34375E-02 0.00000E+00
 -1       818 6.35417E-02 2.38281E-02 0.00000E+00
 -1       819 6.45833E-02 2.42187E-02 0.00000E+00
 -1       820 6.56250E-02 2.46094E-02 0.00000E+00
 -1       821 6.77083E-02 1.87500E-02 0.00000E+00
 -1       822 6.87500E-02 1.87500E-02 0.00000E+00
 -1       823 6.97917E-02 1.87500E-02 0.00000E+00
 -1       824 7.08333E-02 1.87500E-02 0.00000E+00
 -1       825 7.18750E-02 1.87500E-02 0.00000E+00
 -1       826 7.29167E-02 1.87500E-02 0.00000E+00
 -1       827 7.39583E-02 1.87500E-02 0.00000E+00
 -1       828 7.50000E-02 1.87500E-02 0.00000E+00
 -1       829 7.60417E-02 1.87500E-02 0.00000E+00
 -1       830 7.70833E-02 1.87500E-02 0.00000E+00
 -1       831 7.81250E-02 1.87500E-02 0.00000E+00
 -1       832 7.91667E-02 1.87500E-02 0.00000E+00
 -1       833 8.02083E-02 1.87500E-02 0.00000E+00
 -1       834 8.12500E-02 1.87500E-02 0.00000E+00
 -1       835 8.22917E-02 1.87500E-02 0.00000E+00
 -1       836 6.66667E-02 1.97917E-02 0.00000E+00
 -1       837 6.66667E-02 2.08333E-02 0.00000E+00
 -1       838 6.66667E-02 2.18750E-02 0.00000E+00
 -1       839 6.66667E-02 2.29167E-02 0.00000E+00
 -1       840 6.66667E-02 2.39583E-02 0.00000E+00
 -1       856 8.43750E-02 1.87500E-02 0.00000E+00
 -1       857 8.54167E-02 1.87500E-02 0.00000E+00
 -1       858 8.64583E-02 1.87500E-02 0.00000E+00
 -1       859 8.75000E-02 1.87500E-02 0.00000E+00
 -1       860 8.85417E-02 1.87500E-02 0.00000E+00
 -1       861 8.95833E-02 1.87500E-02 0.00000E+00
 -1       862 9.06250E-02 1.87500E-02 0.00000E+00
 -1       863 9.16667E-02 1.87500E-02 0.00000E+00
 -1       864 9.27083E-02 1.87500E-02 0.00000E+00
 -1       865 9.37500E-02 1.87500E-02 0.00000E+00
 -1       866 9.47917E-02 1.87500E-02 0.00000E+00
 -1       867 9.58333E-02 1.87500E-02 0.00000E+00
 -1       868 9.68750E-02 1.87500E-02 0.00000E+00
 -1       869 9.79167E-02 1.87500E-02 0.00000E+00
 -1       870 9.89583E-02 1.87500E-02 0.00000E+00
 -1       871 8.33333E-02 1.97917E-02 0.00000E+00
 -1       872 8.33333E-02 2.08333E-02 0.00000E+00
 -1       873 8.33333E-02 2.18750E-02 0.00000E+00
 -1       874 8.33333E-02 2.29167E-02 0.00000E+00
 -1       875 8.33333E-02 2.39583E-02 0.00000E+00
 -1       876 8.43750E-02 1.91406E-02 0.00000E+00
 -1       877 8.54167E-02 1.95312E-02 0.00000E+00
 -1       878 8.64583E-02 1.99219E-02 0.00000E+00
 -1       879 8.75000E-02 2.03125E-02 0.00000E+00
 -1       880 8.85417E-02 2.07031E-02 0.00000E+00
 -1       881 8.95833E-02 2.10938E-02 0.00000E+00
 -1       882 9.06250E-02 2.14844E-02 0.00000E+00
 -1       883 9.16667E-02 2.18750E-02 0.00000E+00
 -1       884 9.27083E-02 2.22656E-02 0.00000E+00
 -1       885 9.37500E-02 2.26563E-02 0.00000E+00
 -1       886 9.47917E-02 2.30469E-02 0.00000E+00
 -1       887 9.58333E-02 2.34375E-02 0.00000E+00
 -1       888 9.68750E-02 2.38281E-02 0.00000E+00
 -1       889 9.79167E-02 2.42187E-02 0.00000E+00
 -1       890 9.89583E-02 2.46094E-02 0.00000E+00
 -1       891 1.00000E-01 1.97917E-02 0.00000E+00
 -1       892 1.00000E-01 2.08333E-02 0.00000E+00
 -1       893 1.00000E-01 2.18750E-02 0.00000E+00
 -1       894 1.00000E-01 2.29167E-02 0.00000E+00
 -1       895 1.00000E-01 2.39583E-02 0.00000E+00
 -1       956 6.77083E-02 2.50000E-02 0.00000E+00
 -1       957 6.87500E-02 2.50000E-02 0.00000E+00
 -1       958 6.97917E-02 2.50000E-02 0.00000E+00
 -1       959 7.08333E-02 2.50000E-02 0.00000E+00
 -1       960 7.18750E-02 2.50000E-02 0.00000E+00
 -1       961 7.29167E-02 2.50000E-02 0.00000E+00
 -1       962 7.39583E-02 2.50000E-02 0.00000E+00
 -1       963 7.50000E-02 2.50000E-02 0.00000E+00
 -1       964 7.60417E-02 2.50000E-02 0.00000E+00
 -1       965 7.70833E-02 2.50000E-02 0.00000E+00
 -1       966 7.81250E-02 2.50000E-02 0.00000E+00
 -1       967 7.91667E-02 2.50000E-02 0.00000E+00
 -1       968 8.02083E-02 2.50000E-02 0.00000E+00
 -1       969 8.12500E-02 2.50000E-02 0.00000E+00
 -1       970 8.22917E-02 2.50000E-02 0.00000E+00
 -1       971 8.43750E-02 2.50000E-02 0.00000E+00
 -1       972 8.54167E-02 2.50000E-02 0.00000E+00
 -1       973 8.64583E-02 2.50000E-02 0.00000E+00
 -1       974 8.75000E-02 2.50000E-02 0.00000E+00
 -1       975 8.85417E-02 2.50000E-02 0.00000E+00
 -1       976 8.95833E-02 2.50000E-02 0.00000E+00
 -1       977 9.06250E-02 2.50000E-02 0.00000E+00
 -1       978 9.16667E-02 2.50000E-02 0.00000E+00
 -1       979 9.27083E-02 2.50000E-02 0.00000E+00
 -1       980 9.37500E-02 2.50000E-02 0.00000E+00
 -1       981 9.47917E-02 2.50000E-02 0.00000E+00
 -1       982 9.58333E-02 2.50000E-02 0.00000E+00
 -1       983 9.68750E-02 2.50000E-02 0.00000E+00
 -1       984 9.79167E-02 2.50000E-02 0.00000E+00
 -1       985 9.89583E-02 2.50000E-02 0.00000E+00
 -3
    3C                           211                                     1
 -1         1   12    0    1
 -2         1        52        51
 -1         2   12    0    1
 -2        52        54        53
 -1         3   12    0    1
 -2        54         8        55
 -1         4   12    0    1
 -2         1        57        56
 -1         5   12    0    1
 -2        57        59        58
 -1         6   12    0    1
 -2        59        61        60
 -1         7   12    0    1
 -2        61        63        62
 -1         8   12    0    1
 -2        63        65        64
 -1         9   12    0    1
 -2        65        67        66
 -1        10   12    0    1
 -2        67        69        68
 -1        11   12    0    1
 -2        69         9        70
 -1        12   12    0    1
 -2         2        87        86
 -1        13   12    0    1
 -2        87        89        88
 -1        14   12    0    1
 -2        89         9        90
 -1        15   12    0    1
 -2         3       122       121
 -1        16   12    0    1
 -2       122       124       123
 -1        17   12    0    1
 -2       124        10       125
 -1        18   12    0    1
 -2         5       192       191
 -1        19   12    0    1
 -2       192       194       193
 -1        20   12    0    1
 -2       194        12       195
 -1        21   12    0    1
 -2         8       252       251
 -1        22   12    0    1
 -2       252       254       253
 -1        23   12    0    1
 -2       254       256       255
 -1        24   12    0    1
 -2       256       258       257
 -1        25   12    0    1
 -2       258       260       259
 -1        26   12    0    1
 -2       260       262       261
 -1        27   12    0    1
 -2       262       264       263
 -1        28   12    0    1
 -2       264         9       265
 -1        29   12    0    1
 -2         8       267       266
 -1        30   12    0    1
 -2       267       269       268
 -1        31   12    0    1
 -2       269        15       270
 -1        32   12    0    1
 -2         8       272       271
 -1        33   12    0    1
 -2       272       274       273
 -1        34   12    0    1
 -2       274       276       275
 -1        35   12    0    1
 -2       276       278       277
 -1        36   12    0    1
 -2       278       280       279
 -1        37   12    0    1
 -2       280       282       281
 -1        38   12    0    1
 -2       282       284       283
 -1        39   12    0    1
 -2       284        16       285
 -1        40   12    0    1
 -2         9       302       301
 -1        41   12    0    1
 -2       302       304       303
 -1        42   12    0    1
 -2       304        16       305
 -1        43   12    0    1
 -2         9       307       306
 -1        44   12    0    1
 -2       307       309       308
 -1        45   12    0    1
 -2       309       311       310
 -1        46   12    0    1
 -2       311       313       312
 -1        47   12    0    1
 -2       313       315       314
 -1        48   12    0    1
 -2       315       317       316
 -1        49   12    0    1
 -2       317       319       318
 -1        50   12    0    1
 -2       319        17       320
 -1        51   12    0    1
 -2        10       337       336
 -1        52   12    0    1
 -2       337       339       338
 -1        53   12    0    1
 -2       339        17       340
 -1        54   12    0    1
 -2        12       407       406
 -1        55   12    0    1
 -2       407       409       408
 -1        56   12    0    1
 -2       409        19       410
 -1        57   12    0    1
 -2        16       522       521
 -1        58   12    0    1
 -2       522       524       523
 -1        59   12    0    1
 -2       524       526       525
 -1        60   12    0    1
 -2       526       528       527
 -1        61   12    0    1
 -2       528       530       529
 -1        62   12    0    1
 -2       530       532       531
 -1        63   12    0    1
 -2       532       534       533
 -1        64   12    0    1
 -2       534        24       535
 -1        65   12    0    1
 -2        17       537       536
 -1        66   12    0    1
 -2       537       539       538
 -1        67   12    0    1
 -2       539       541       540
 -1        68   12    0    1
 -2       541       543       542
 -1        69   12    0    1
 -2       543       545       544
 -1        70   12    0    1
 -2       545       547       546
 -1        71   12    0    1
 -2       547       549       548
 -1        72   12    0    1
 -2       549        18       550
 -1        73   12    0    1
 -2        17       552       551
 -1        74   12    0    1
 -2       552       554       553
 -1        75   12    0    1
 -2       554        24       555
 -1        76   12    0    1
 -2        17       557       556
 -1        77   12    0    1
 -2       557       559       558
 -1        78   12    0    1
 -2       559       561       560
 -1        79   12    0    1
 -2       561       563       562
 -1        80   12    0    1
 -2       563       565       564
 -1        81   12    0    1
 -2       565       567       566
 -1        82   12    0    1
 -2       567       569       568
 -1        83   12    0    1
 -2       569        25       570
 -1        84   12    0    1
 -2        18       572       571
 -1        85   12    0    1
 -2       572       574       573
 -1        86   12    0    1
 -2       574       576       575
 -1        87   12    0    1
 -2       576       578       577
 -1        88   12    0    1
 -2       578       580       579
 -1        89   12    0    1
 -2       580       582       581
 -1        90   12    0    1
 -2       582       584       583
 -1        91   12    0    1
 -2       584        19       585
 -1        92   12    0    1
 -2        18       587       586
 -1        93   12    0    1
 -2       587       589       588
 -1        94   12    0    1
 -2       589        25       590
 -1        95   12    0    1
 -2        18       592       591
 -1        96   12    0    1
 -2       592       594       593
 -1        97   12    0    1
 -2       594       596       595
 -1        98   12    0    1
 -2       596       598       597
 -1        99   12    0    1
 -2       598       600       599
 -1       100   12    0    1
 -2       600       602       601
 -1       101   12    0    1
 -2       602       604       603
 -1       102   12    0    1
 -2       604        26       605
 -1       103   12    0    1
 -2        19       607       606
 -1       104   12    0    1
 -2       607       609       608
 -1       105   12    0    1
 -2       609       611       610
 -1       106   12    0    1
 -2       611       613       612
 -1       107   12    0    1
 -2       613       615       614
 -1       108   12    0    1
 -2       615       617       616
 -1       109   12    0    1
 -2       617       619       618
 -1       110   12    0    1
 -2       619        20       620
 -1       111   12    0    1
 -2        19       622       621
 -1       112   12    0    1
 -2       622       624       623
 -1       113   12    0    1
 -2       624        26       625
 -1       114   12    0    1
 -2        19       627       626
 -1       115   12    0    1
 -2       627       629       628
 -1       116   12    0    1
 -2       629       631       630
 -1       117   12    0    1
 -2       631       633       632
 -1       118   12    0    1
 -2       633       635       634
 -1       119   12    0    1
 -2       635       637       636
 -1       120   12    0    1
 -2       637       639       638
 -1       121   12    0    1
 -2       639        27       640
 -1       122   12    0    1
 -2        20       657       656
 -1       123   12    0    1
 -2       657       659       658
 -1       124   12    0    1
 -2       659        27       660
 -1       125   12    0    1
 -2        20       662       661
 -1       126   12    0    1
 -2       662       664       663
 -1       127   12    0    1
 -2       664       666       665
 -1       128   12    0    1
 -2       666       668       667
 -1       129   12    0    1
 -2       668       670       669
 -1       130   12    0    1
 -2       670       672       671
 -1       131   12    0    1
 -2       672       674       673
 -1       132   12    0    1
 -2       674        28       675
 -1       133   12    0    1
 -2        21       677       676
 -1       134   12    0    1
 -2       677       679       678
 -1       135   12    0    1
 -2       679        28       680
 -1       136   12    0    1
 -2        24       772       771
 -1       137   12    0    1
 -2       772       774       773
 -1       138   12    0    1
 -2       774       776       775
 -1       139   12    0    1
 -2       776       778       777
 -1       140   12    0    1
 -2       778       780       779
 -1       141   12    0    1
 -2       780       782       781
 -1       142   12    0    1
 -2       782       784       783
 -1       143   12    0    1
 -2       784        32       785
 -1       144   12    0    1
 -2        25       787       786
 -1       145   12    0    1
 -2       787       789       788
 -1       146   12    0    1
 -2       789       791       790
 -1       147   12    0    1
 -2       791       793       792
 -1       148   12    0    1
 -2       793       795       794
 -1       149   12    0    1
 -2       795       797       796
 -1       150   12    0    1
 -2       797       799       798
 -1       151   12    0    1
 -2       799        26       800
 -1       152   12    0    1
 -2        25       802       801
 -1       153   12    0    1
 -2       802       804       803
 -1       154   12    0    1
 -2       804        32       805
 -1       155   12    0    1
 -2        25       807       806
 -1       156   12    0    1
 -2       807       809       808
 -1       157   12    0    1
 -2       809       811       810
 -1       158   12    0    1
 -2       811       813       812
 -1       159   12    0    1
 -2       813       815       814
 -1       160   12    0    1
 -2       815       817       816
 -1       161   12    0    1
 -2       817       819       818
 -1       162   12    0    1
 -2       819        33       820
 -1       163   12    0    1
 -2        26       822       821
 -1       164   12    0    1
 -2       822       824       823
 -1       165   12    0    1
 -2       824       826       825
 -1       166   12    0    1
 -2       826       828       827
 -1       167   12    0    1
 -2       828       830       829
 -1       168   12    0    1
 -2       830       832       831
 -1       169   12    0    1
 -2       832       834       833
 -1       170   12    0    1
 -2       834        27       835
 -1       171   12    0    1
 -2        26       837       836
 -1       172   12    0    1
 -2       837       839       838
 -1       173   12    0    1
 -2       839        33       840
 -1       174   12    0    1
 -2        27       857       856
 -1       175   12    0    1
 -2       857       859       858
 -1       176   12    0    1
 -2       859       861       860
 -1       177   12    0    1
 -2       861       863       862
 -1       178   12    0    1
 -2       863       865       864
 -1       179   12    0    1
 -2       865       867       866
 -1       180   12    0    1
 -2       867       869       868
 -1       181   12    0    1
 -2       869        28       870
 -1       182   12    0    1
 -2        27       872       871
 -1       183   12    0    1
 -2       872       874       873
 -1       184   12    0    1
 -2       874        34       875
 -1       185   12    0    1
 -2        27       877       876
 -1       186   12    0    1
 -2       877       879       878
 -1       187   12    0    1
 -2       879       881       880
 -1       188   12    0    1
 -2       881       883       882
 -1       189   12    0    1
 -2       883       885       884
 -1       190   12    0    1
 -2       885       887       886
 -1       191   12    0    1
 -2       887       889       888
 -1       192   12    0    1
 -2       889        35       890
 -1       193   12    0    1
 -2        28       892       891
 -1       194   12    0    1
 -2       892       894       893
 -1       195   12    0    1
 -2       894        35       895
 -1       196   12    0    1
 -2        33       957       956
 -1       197   12    0    1
 -2       957       959       958
 -1       198   12    0    1
 -2       959       961       960
 -1       199   12    0    1
 -2       961       963       962
 -1       200   12    0    1
 -2       963       965       964
 -1       201   12    0    1
 -2       965       967       966
 -1       202   12    0    1
 -2       967       969       968
 -1       203   12    0    1
 -2       969        34       970
 -1       204   12    0    1
 -2        34       972       971
 -1       205   12    0    1
 -2       972       974       973
 -1       206   12    0    1
 -2       974       976       975
 -1       207   12    0    1
 -2       976       978       977
 -1       208   12    0    1
 -2       978       980       979
 -1       209   12    0    1
 -2       980       982       981
 -1       210   12    0    1
 -2       982       984       983
 -1       211   12    0    1
 -2       984        35       985
 -3
    1PSTEP                         1           1           1          
  100CL  101 2.50000E-01         409                     0    1           1
 -4  DISP        4    1
 -5  D1          1    2    1    0
 -5  D2          1    2    2    0
 -5  D3          1    2    3    0
 -5  ALL         1    2    0    0    1ALL
 -1         1 6.52370E-05 0.00000E+00 0.00000E+00
 -1         2 6.02759E-05 2.01385E-29 0.00000E+00
 -1         3 5.54715E-05-2.78059E-27 3.30872E-24
 -1         5 4.00376E-05 4.97716E-26 0.00000E+00
 -1         8 5.20708E-05-4.68833E-07 0.00000E+00
 -1         9 5.28954E-05 3.09526E-07 0.00000E+00
 -1        10 5.14314E-05-7.59724E-07-1.65436E-24
 -1        12 3.97510E-05 2.72222E-07 0.00000E+00
 -1        15 3.64081E-05-5.01453E-07 0.00000E+00
 -1        16 3.76680E-05 2.48464E-07 0.00000E+00
 -1        17 3.83750E-05-1.59170E-06 0.00000E+00
 -1        18 3.83645E-05 7.32927E-08 0.00000E+00
 -1        19 3.88912E-05 5.42971E-07 0.00000E+00
 -1        20 3.89632E-05 8.10307E-06 0.00000E+00
 -1        21 3.86924E-05 1.53273E-05 0.00000E+00
 -1        24 9.81933E-06-2.11654E-06 0.00000E+00
 -1        25 3.74484E-05 1.35547E-07 0.00000E+00
 -1        26 3.79437E-05 7.56579E-07 0.00000E+00
 -1        27 3.71913E-05 6.89231E-06 0.00000E+00
 -1        28 3.69479E-05 1.50945E-05 0.00000E+00
 -1        32 0.00000E+00 0.00000E+00 0.00000E+00
 -1        33 3.63463E-05 1.01477E-06 0.00000E+00
 -1        34 3.56184E-05 6.88162E-06 0.00000E+00
 -1        35 3.49269E-05 1.49718E-05 0.00000E+00
 -1        51 6.43803E-05-7.81406E-08 0.00000E+00
 -1        52 6.27927E-05-1.53926E-07 0.00000E+00
 -1        53 6.06183E-05-2.29956E-07 0.00000E+00
 -1        54 5.80065E-05-3.06942E-07 0.00000E+00
 -1        55 5.51073E-05-3.85412E-07 1.96455E-24
 -1        56 6.46346E-05-3.64571E-07 1.32349E-23
 -1        57 6.40920E-05-9.56402E-07-6.61744E-24
 -1        58 6.36112E-05-1.70911E-06-1.32349E-23
 -1        59 6.31643E-05-2.56432E-06-1.32349E-23
 -1        60 6.27315E-05-3.45711E-06 2.64698E-23
 -1        61 6.22879E-05-4.32359E-06-1.32349E-23
 -1        62 6.18107E-05-5.10035E-06 0.00000E+00
 -1        63 6.12767E-05-5.72567E-06 0.00000E+00
 -1        64 6.06645E-05-6.14259E-06 2.64698E-23
 -1        65 5.99542E-05-6.29745E-06 0.00000E+00
 -1        66 5.91287E-05-6.14505E-06 2.64698E-23
 -1        67 5.81732E-05-5.64482E-06-1.32349E-23
 -1        68 5.70762E-05-4.76775E-06 1.32349E-23
 -1        69 5.58319E-05-3.48935E-06 6.61744E-24
 -1        70 5.44318E-05-1.80087E-06 0.00000E+00
 -1        86 6.00794E-05 5.52013E-08 0.00000E+00
 -1        87 5.94893E-05 1.09957E-07 0.00000E+00
 -1        88 5.84936E-05 1.64360E-07 0.00000E+00
 -1        89 5.70796E-05 2.16418E-07 1.03398E-25
 -1        90 5.52222E-05 2.68406E-07-1.65436E-24
 -1       121 5.53590E-05-1.26286E-07 0.00000E+00
 -1       122 5.50216E-05-2.52624E-07 1.65436E-24
 -1       123 5.44595E-05-3.79064E-07 0.00000E+00
 -1       124 5.36733E-05-5.05677E-07 0.00000E+00
 -1       125 5.26636E-05-6.32479E-07 0.00000E+00
 -1       191 4.00297E-05 4.53734E-08 0.00000E+00
 -1       192 4.00058E-05 9.07461E-08 0.00000E+00
 -1       193 3.99660E-05 1.36118E-07-1.65436E-24
 -1       194 3.99102E-05 1.81489E-07 0.00000E+00
 -1       195 3.98386E-05 2.26858E-07 1.65436E-24
 -1       251 5.21115E-05 1.69853E-06-1.65436E-24
 -1       252 5.21632E-05 2.99356E-06 5.16988E-26
 -1       253 5.22150E-05 3.55924E-06 8.27181E-25
 -1       254 5.22687E-05 3.53681E-06 0.00000E+00
 -1       255 5.23223E-05 3.05089E-06-1.65436E-24
 -1       256 5.23761E-05 2.22504E-06-8.27181E-25
 -1       257 5.24298E-05 1.17313E-06 0.00000E+00
 -1       258 5.24834E-05 8.54348E-09 0.00000E+00
 -1       259 5.25370E-05-1.15861E-06 0.00000E+00
 -1       260 5.25906E-05-2.21818E-06 0.00000E+00
 -1       261 5.26444E-05-3.05694E-06 1.65436E-24
 -1       262 5.26980E-05-3.56121E-06-8.27181E-25
 -1       263 5.27517E-05-3.60774E-06-8.27181E-25
 -1       264 5.28034E-05-3.07225E-06 1.03398E-25
 -1       265 5.28550E-05-1.81397E-06 1.65436E-24
 -1       266 4.94603E-05-4.80760E-07 0.00000E+00
 -1       267 4.68499E-05-4.85406E-07 8.27181E-25
 -1       268 4.42395E-05-4.90513E-07 8.27181E-25
 -1       269 4.16290E-05-4.94253E-07 0.00000E+00
 -1       270 3.90186E-05-4.97962E-07 0.00000E+00
 -1       271 5.04864E-05 1.47112E-06 0.00000E+00
 -1       272 4.91437E-05 2.69423E-06 0.00000E+00
 -1       273 4.80361E-05 3.29511E-06 0.00000E+00
 -1       274 4.71242E-05 3.36332E-06 1.32349E-23
 -1       275 4.63750E-05 2.99696E-06-2.64698E-23
 -1       276 4.57500E-05 2.29696E-06 0.00000E+00
 -1       277 4.52106E-05 1.36806E-06 0.00000E+00
 -1       278 4.47168E-05 3.17071E-07-1.32349E-23
 -1       279 4.42282E-05-7.47916E-07 0.00000E+00
 -1       280 4.37044E-05-1.71864E-06 1.32349E-23
 -1       281 4.31053E-05-2.48789E-06 0.00000E+00
 -1       282 4.23917E-05-2.95036E-06 1.32349E-23
 -1       283 4.15251E-05-3.00409E-06 2.64698E-23
 -1       284 4.04708E-05-2.55018E-06-1.32349E-23
 -1       285 3.91903E-05-1.49700E-06 1.32349E-23
 -1       301 5.03145E-05 2.96180E-07-3.30872E-24
 -1       302 4.77340E-05 2.90765E-07-8.27181E-25
 -1       303 4.51664E-05 2.85544E-07 0.00000E+00
 -1       304 4.26245E-05 2.79439E-07 0.00000E+00
 -1       305 4.01209E-05 2.72168E-07 0.00000E+00
 -1       306 5.12649E-05 2.19042E-06 0.00000E+00
 -1       307 4.98915E-05 3.30840E-06-1.32349E-23
 -1       308 4.87898E-05 3.70913E-06-2.64698E-23
 -1       309 4.79330E-05 3.44333E-06-1.32349E-23
 -1       310 4.72855E-05 2.61869E-06-2.64698E-23
 -1       311 4.68014E-05 1.35496E-06-1.32349E-23
 -1       312 4.64232E-05-1.92523E-07 2.64698E-23
 -1       313 4.60903E-05-1.86166E-06 0.00000E+00
 -1       314 4.57386E-05-3.48034E-06 2.64698E-23
 -1       315 4.53044E-05-4.87767E-06 1.32349E-23
 -1       316 4.47303E-05-5.90096E-06 0.00000E+00
 -1       317 4.39635E-05-6.40646E-06-1.32349E-23
 -1       318 4.29642E-05-6.29225E-06 0.00000E+00
 -1       319 4.17049E-05-5.46965E-06 1.32349E-23
 -1       320 4.01661E-05-3.91083E-06 1.32349E-23
 -1       336 4.99481E-05-8.97273E-07 0.00000E+00
 -1       337 4.81850E-05-1.03545E-06 1.65436E-24
 -1       338 4.61438E-05-1.17409E-06 0.00000E+00
 -1       339 4.38266E-05-1.31312E-06 0.00000E+00
 -1       340 4.12361E-05-1.45282E-06 3.30872E-24
 -1       406 3.96474E-05 3.17580E-07 1.65436E-24
 -1       407 3.95280E-05 3.62921E-07 0.00000E+00
 -1       408 3.93926E-05 4.08233E-07-1.65436E-24
 -1       409 3.92413E-05 4.53459E-07 0.00000E+00
 -1       410 3.90741E-05 4.98511E-07 0.00000E+00
 -1       521 3.54042E-05 1.63898E-06 0.00000E+00
 -1       522 3.34278E-05 2.11663E-06 0.00000E+00
 -1       523 3.17735E-05 1.74571E-06 0.00000E+00
 -1       524 3.03985E-05 6.03610E-07 0.00000E+00
 -1       525 2.92469E-05-1.13625E-06-5.29396E-23
 -1       526 2.82436E-05-3.27804E-06-2.64698E-23
 -1       527 2.72993E-05-5.57839E-06 5.29396E-23
 -1       528 2.63208E-05-7.78773E-06 0.00000E+00
 -1       529 2.52189E-05-9.66675E-06 5.29396E-23
 -1       530 2.39096E-05-1.09905E-05 0.00000E+00
 -1       531 2.23325E-05-1.15987E-05 5.29396E-23
 -1       532 2.04397E-05-1.13613E-05 2.64698E-23
 -1       533 1.82171E-05-1.02471E-05-5.29396E-23
 -1       534 1.56747E-05-8.25945E-06 2.64698E-23
 -1       535 1.28405E-05-5.50923E-06-2.64698E-23
 -1       536 3.83670E-05 1.07185E-06 0.00000E+00
 -1       537 3.83646E-05 3.07457E-06-4.13590E-25
 -1       538 3.83628E-05 4.48518E-06 4.13590E-25
 -1       539 3.83625E-05 5.37240E-06 0.00000E+00
 -1       540 3.83624E-05 5.80477E-06-1.03398E-25
 -1       541 3.83626E-05 5.85082E-06 0.00000E+00
 -1       542 3.83628E-05 5.57887E-06 1.29247E-26
 -1       543 3.83629E-05 5.05724E-06 0.00000E+00
 -1       544 3.83629E-05 4.35410E-06 0.00000E+00
 -1       545 3.83629E-05 3.53763E-06 6.46235E-27
 -1       546 3.83628E-05 2.67592E-06 2.58494E-26
 -1       547 3.83628E-05 1.83709E-06 0.00000E+00
 -1       548 3.83628E-05 1.08925E-06 5.16988E-26
 -1       549 3.83631E-05 5.00518E-07-5.16988E-26
 -1       550 3.83634E-05 1.39127E-07 2.06795E-25
 -1       551 3.45859E-05-1.67261E-06-3.30872E-24
 -1       552 3.00530E-05-1.75521E-06-8.27181E-25
 -1       553 2.50413E-05-1.84014E-06-1.65436E-24
 -1       554 1.98197E-05-1.92739E-06 0.00000E+00
 -1       555 1.46568E-05-2.01580E-06 0.00000E+00
 -1       556 3.73841E-05 9.81305E-07 0.00000E+00
 -1       557 3.66273E-05 2.94609E-06 0.00000E+00
 -1       558 3.60792E-05 4.35890E-06 0.00000E+00
 -1       559 3.57164E-05 5.28038E-06 0.00000E+00
 -1       560 3.55158E-05 5.77101E-06-6.61744E-24
 -1       561 3.54541E-05 5.89157E-06 0.00000E+00
 -1       562 3.55085E-05 5.70289E-06 0.00000E+00
 -1       563 3.56561E-05 5.26583E-06-1.65436E-24
 -1       564 3.58738E-05 4.64131E-06 0.00000E+00
 -1       565 3.61389E-05 3.89021E-06 0.00000E+00
 -1       566 3.64287E-05 3.07347E-06 4.13590E-25
 -1       567 3.67201E-05 2.25202E-06-2.06795E-25
 -1       568 3.69906E-05 1.48677E-06 0.00000E+00
 -1       569 3.72172E-05 8.38584E-07 0.00000E+00
 -1       570 3.73772E-05 3.68335E-07 0.00000E+00
 -1       571 3.83964E-05 1.23541E-07-6.20385E-25
 -1       572 3.84291E-05 1.52084E-07-4.13590E-25
 -1       573 3.84620E-05 1.62783E-07 4.13590E-25
 -1       574 3.84950E-05 1.59707E-07 2.06795E-25
 -1       575 3.85280E-05 1.46940E-07 8.27181E-25
 -1       576 3.85610E-05 1.28593E-07 4.13590E-25
 -1       577 3.85940E-05 1.08782E-07-8.27181E-25
 -1       578 3.86271E-05 9.16245E-08 0.00000E+00
 -1       579 3.86601E-05 8.12385E-08 0.00000E+00
 -1       580 3.86932E-05 8.17424E-08 0.00000E+00
 -1       581 3.87262E-05 9.72542E-08 0.00000E+00
 -1       582 3.87592E-05 1.31887E-07 0.00000E+00
 -1       583 3.87923E-05 1.89749E-07 1.65436E-24
 -1       584 3.88253E-05 2.74907E-07 0.00000E+00
 -1       585 3.88583E-05 3.91405E-07 0.00000E+00
 -1       586 3.82004E-05 8.43208E-08-8.27181E-25
 -1       587 3.80225E-05 9.50683E-08-1.03398E-25
 -1       588 3.78444E-05 1.05696E-07 0.00000E+00
 -1       589 3.76801E-05 1.16153E-07 0.00000E+00
 -1       590 3.75436E-05 1.26324E-07 0.00000E+00
 -1       591 3.83304E-05 1.40234E-07 0.00000E+00
 -1       592 3.83018E-05 1.89189E-07 0.00000E+00
 -1       593 3.82785E-05 2.23581E-07 2.06795E-25
 -1       594 3.82594E-05 2.46494E-07 0.00000E+00
 -1       595 3.82434E-05 2.61052E-07 4.13590E-25
 -1       596 3.82293E-05 2.70358E-07 0.00000E+00
 -1       597 3.82161E-05 2.77510E-07 2.06795E-25
 -1       598 3.82025E-05 2.85606E-07 0.00000E+00
 -1       599 3.81873E-05 2.97743E-07 0.00000E+00
 -1       600 3.81695E-05 3.17019E-07 0.00000E+00
 -1       601 3.81479E-05 3.46530E-07-2.06795E-25
 -1       602 3.81213E-05 3.89377E-07 0.00000E+00
 -1       603 3.80885E-05 4.48660E-07 2.06795E-25
 -1       604 3.80486E-05 5.27506E-07 0.00000E+00
 -1       605 3.80003E-05 6.28998E-07 0.00000E+00
 -1       606 3.88974E-05 7.69620E-07 0.00000E+00
 -1       607 3.89023E-05 1.04348E-06-8.27181E-25
 -1       608 3.89070E-05 1.36179E-06 0.00000E+00
 -1       609 3.89115E-05 1.72142E-06 0.00000E+00
 -1       610 3.89159E-05 2.11923E-06 0.00000E+00
 -1       611 3.89203E-05 2.55203E-06-8.27181E-25
 -1       612 3.89247E-05 3.01663E-06 0.00000E+00
 -1       613 3.89291E-05 3.50986E-06 0.00000E+00
 -1       614 3.89334E-05 4.02852E-06 0.00000E+00
 -1       615 3.89377E-05 4.56941E-06 4.13590E-25
 -1       616 3.89421E-05 5.12935E-06 0.00000E+00
 -1       617 3.89464E-05 5.70515E-06 0.00000E+00
 -1       618 3.89507E-05 6.29361E-06-4.13590E-25
 -1       619 3.89549E-05 6.89154E-06 0.00000E+00
 -1       620 3.89591E-05 7.49576E-06 0.00000E+00
 -1       621 3.87108E-05 5.78598E-07 8.27181E-25
 -1       622 3.85429E-05 6.14398E-07-4.13590E-25
 -1       623 3.83849E-05 6.50192E-07 8.27181E-25
 -1       624 3.82342E-05 6.85929E-07 4.13590E-25
 -1       625 3.80880E-05 7.21605E-07 8.27181E-25
 -1       626 3.88444E-05 7.80828E-07 0.00000E+00
 -1       627 3.87832E-05 1.05780E-06 0.00000E+00
 -1       628 3.87087E-05 1.37025E-06 0.00000E+00
 -1       629 3.86224E-05 1.71433E-06-1.65436E-24
 -1       630 3.85256E-05 2.08615E-06 0.00000E+00
 -1       631 3.84200E-05 2.48183E-06 0.00000E+00
 -1       632 3.83068E-05 2.89746E-06 1.65436E-24
 -1       633 3.81876E-05 3.32914E-06 0.00000E+00
 -1       634 3.80639E-05 3.77297E-06 0.00000E+00
 -1       635 3.79370E-05 4.22505E-06 0.00000E+00
 -1       636 3.78086E-05 4.68149E-06 0.00000E+00
 -1       637 3.76799E-05 5.13837E-06 0.00000E+00
 -1       638 3.75525E-05 5.59180E-06 0.00000E+00
 -1       639 3.74278E-05 6.03788E-06 4.13590E-25
 -1       640 3.73071E-05 6.47270E-06 8.27181E-25
 -1       656 3.84587E-05 7.90612E-06 0.00000E+00
 -1       657 3.81320E-05 7.70125E-06 0.00000E+00
 -1       658 3.79139E-05 7.49701E-06-3.30872E-24
 -1       659 3.77339E-05 7.29293E-06 0.00000E+00
 -1       660 3.75177E-05 7.08821E-06 0.00000E+00
 -1       661 3.87764E-05 8.69835E-06 0.00000E+00
 -1       662 3.86006E-05 9.26850E-06 4.13590E-25
 -1       663 3.84340E-05 9.81403E-06 0.00000E+00
 -1       664 3.82764E-05 1.03361E-05 0.00000E+00
 -1       665 3.81274E-05 1.08356E-05 8.27181E-25
 -1       666 3.79865E-05 1.13134E-05 0.00000E+00
 -1       667 3.78533E-05 1.17706E-05 8.27181E-25
 -1       668 3.77276E-05 1.22079E-05 4.13590E-25
 -1       669 3.76090E-05 1.26264E-05 0.00000E+00
 -1       670 3.74972E-05 1.30268E-05-4.13590E-25
 -1       671 3.73918E-05 1.34100E-05-8.27181E-25
 -1       672 3.72925E-05 1.37768E-05 4.13590E-25
 -1       673 3.71991E-05 1.41280E-05 8.27181E-25
 -1       674 3.71108E-05 1.44642E-05 0.00000E+00
 -1       675 3.70280E-05 1.47864E-05 0.00000E+00
 -1       676 3.84013E-05 1.52883E-05 0.00000E+00
 -1       677 3.81102E-05 1.52493E-05 0.00000E+00
 -1       678 3.78193E-05 1.52103E-05-8.27181E-25
 -1       679 3.75285E-05 1.51714E-05 4.13590E-25
 -1       680 3.72381E-05 1.51325E-05 0.00000E+00
 -1       771 7.87683E-06 1.55768E-06 1.32349E-23
 -1       772 6.18439E-06 4.55754E-06 0.00000E+00
 -1       773 4.73120E-06 6.92366E-06 2.64698E-23
 -1       774 3.50074E-06 8.69835E-06-1.32349E-23
 -1       775 2.47689E-06 9.92440E-06 0.00000E+00
 -1       776 1.64302E-06 1.06454E-05 0.00000E+00
 -1       777 9.82367E-07 1.09054E-05 0.00000E+00
 -1       778 4.77953E-07 1.07491E-05 0.00000E+00
 -1       779 1.12730E-07 1.02215E-05 0.00000E+00
 -1       780-1.30525E-07 9.36817E-06 0.00000E+00
 -1       781-2.69065E-07 8.23506E-06 1.32349E-23
 -1       782-3.20276E-07 6.86844E-06 6.61744E-24
 -1       783-3.01559E-07 5.31476E-06 0.00000E+00
 -1       784-2.30369E-07 3.62081E-06-6.61744E-24
 -1       785-1.24222E-07 1.83348E-06 1.32349E-23
 -1       786 3.74776E-05 1.36222E-07 0.00000E+00
 -1       787 3.75084E-05 1.37461E-07 0.00000E+00
 -1       788 3.75392E-05 1.39877E-07 0.00000E+00
 -1       789 3.75703E-05 1.44088E-07-4.13590E-25
 -1       790 3.76014E-05 1.50837E-07-8.27181E-25
 -1       791 3.76326E-05 1.60870E-07-4.13590E-25
 -1       792 3.76638E-05 1.75164E-07-8.27181E-25
 -1       793 3.76950E-05 1.94702E-07 0.00000E+00
 -1       794 3.77261E-05 2.20839E-07 8.27181E-25
 -1       795 3.77573E-05 2.54935E-07 0.00000E+00
 -1       796 3.77885E-05 2.98914E-07 0.00000E+00
 -1       797 3.78197E-05 3.54711E-07-4.13590E-25
 -1       798 3.78509E-05 4.25096E-07-8.27181E-25
 -1       799 3.78820E-05 5.12855E-07-4.13590E-25
 -1       800 3.79131E-05 6.22002E-07 0.00000E+00
 -1       801 3.49195E-05 1.38354E-07 4.13590E-25
 -1       802 2.73977E-05 1.17082E-07 0.00000E+00
 -1       803 1.75148E-05 7.69726E-08 1.65436E-24
 -1       804 7.90213E-06 3.58014E-08 0.00000E+00
 -1       805 1.18718E-06 1.72468E-08 0.00000E+00
 -1       806 3.74096E-05 1.15330E-07 0.00000E+00
 -1       807 3.73691E-05 9.53419E-08-4.13590E-25
 -1       808 3.73273E-05 7.80038E-08 0.00000E+00
 -1       809 3.72836E-05 6.53652E-08-4.13590E-25
 -1       810 3.72373E-05 5.94722E-08-8.27181E-25
 -1       811 3.71877E-05 6.23406E-08-8.27181E-25
 -1       812 3.71341E-05 7.59840E-08 0.00000E+00
 -1       813 3.70756E-05 1.02411E-07-8.27181E-25
 -1       814 3.70116E-05 1.43631E-07-8.27181E-25
 -1       815 3.69413E-05 2.01650E-07 0.00000E+00
 -1       816 3.68640E-05 2.78475E-07 8.27181E-25
 -1       817 3.67788E-05 3.76111E-07 8.27181E-25
 -1       818 3.66851E-05 4.96565E-07-8.27181E-25
 -1       819 3.65822E-05 6.41834E-07 4.13590E-25
 -1       820 3.64693E-05 8.13918E-07 0.00000E+00
 -1       821 3.78994E-05 9.20503E-07 4.13590E-25
 -1       822 3.78523E-05 1.11777E-06 0.00000E+00
 -1       823 3.78054E-05 1.35313E-06 0.00000E+00
 -1       824 3.77580E-05 1.63128E-06 0.00000E+00
 -1       825 3.77105E-05 1.95257E-06 1.65436E-24
 -1       826 3.76629E-05 2.31724E-06-8.27181E-25
 -1       827 3.76153E-05 2.72116E-06 1.65436E-24
 -1       828 3.75677E-05 3.16010E-06-8.27181E-25
 -1       829 3.75200E-05 3.62629E-06 0.00000E+00
 -1       830 3.74724E-05 4.11189E-06 0.00000E+00
 -1       831 3.74248E-05 4.60711E-06 0.00000E+00
 -1       832 3.73772E-05 5.10212E-06 0.00000E+00
 -1       833 3.73297E-05 5.58711E-06 1.65436E-24
 -1       834 3.72828E-05 6.05232E-06 4.13590E-25
 -1       835 3.72356E-05 6.48996E-06 0.00000E+00
 -1       836 3.77495E-05 7.99555E-07 0.00000E+00
 -1       837 3.74986E-05 8.43486E-07 0.00000E+00
 -1       838 3.72119E-05 8.87338E-07 8.27181E-25
 -1       839 3.69103E-05 9.30913E-07-4.13590E-25
 -1       840 3.66148E-05 9.74418E-07 0.00000E+00
 -1       856 3.71778E-05 7.30472E-06 1.03398E-25
 -1       857 3.71627E-05 7.76904E-06 1.03398E-25
 -1       858 3.71477E-05 8.27703E-06 0.00000E+00
 -1       859 3.71325E-05 8.82049E-06 0.00000E+00
 -1       860 3.71171E-05 9.39112E-06 0.00000E+00
 -1       861 3.71018E-05 9.98067E-06 2.06795E-25
 -1       862 3.70864E-05 1.05809E-05 4.13590E-25
 -1       863 3.70710E-05 1.11834E-05 0.00000E+00
 -1       864 3.70556E-05 1.17799E-05 4.13590E-25
 -1       865 3.70402E-05 1.23623E-05-2.06795E-25
 -1       866 3.70248E-05 1.29221E-05 0.00000E+00
 -1       867 3.70094E-05 1.34511E-05 2.06795E-25
 -1       868 3.69941E-05 1.39410E-05 0.00000E+00
 -1       869 3.69787E-05 1.43837E-05 2.06795E-25
 -1       870 3.69634E-05 1.47709E-05-4.13590E-25
 -1       871 3.68764E-05 6.89194E-06-2.06795E-25
 -1       872 3.66113E-05 6.89053E-06 0.00000E+00
 -1       873 3.63746E-05 6.88893E-06 0.00000E+00
 -1       874 3.61446E-05 6.88708E-06 0.00000E+00
 -1       875 3.58997E-05 6.88501E-06 2.06795E-25
 -1       876 3.70820E-05 7.30898E-06 0.00000E+00
 -1       877 3.69643E-05 7.75089E-06 8.27181E-25
 -1       878 3.68383E-05 8.21498E-06 0.00000E+00
 -1       879 3.67052E-05 8.69842E-06 8.27181E-25
 -1       880 3.65659E-05 9.19835E-06-1.65436E-24
 -1       881 3.64216E-05 9.71190E-06 8.27181E-25
 -1       882 3.62732E-05 1.02363E-05 1.65436E-24
 -1       883 3.61218E-05 1.07686E-05 8.27181E-25
 -1       884 3.59684E-05 1.13060E-05 0.00000E+00
 -1       885 3.58142E-05 1.18457E-05 0.00000E+00
 -1       886 3.56602E-05 1.23849E-05-1.65436E-24
 -1       887 3.55075E-05 1.29206E-05-4.13590E-25
 -1       888 3.53570E-05 1.34501E-05 8.27181E-25
 -1       889 3.52096E-05 1.39705E-05-4.13590E-25
 -1       890 3.50666E-05 1.44789E-05 8.27181E-25
 -1       891 3.66677E-05 1.50740E-05-4.13590E-25
 -1       892 3.63785E-05 1.50534E-05 0.00000E+00
 -1       893 3.60701E-05 1.50328E-05 0.00000E+00
 -1       894 3.57321E-05 1.50122E-05 0.00000E+00
 -1       895 3.53544E-05 1.49917E-05-1.03398E-25
 -1       956 3.63017E-05 1.27441E-06 8.27181E-25
 -1       957 3.62563E-05 1.56321E-06 8.27181E-25
 -1       958 3.62108E-05 1.87812E-06 0.00000E+00
 -1       959 3.61652E-05 2.21595E-06 4.13590E-25
 -1       960 3.61195E-05 2.57348E-06-1.65436E-24
 -1       961 3.60738E-05 2.94747E-06 4.13590E-25
 -1       962 3.60282E-05 3.33470E-06-8.27181E-25
 -1       963 3.59825E-05 3.73192E-06 0.00000E+00
 -1       964 3.59368E-05 4.13591E-06 0.00000E+00
 -1       965 3.58911E-05 4.54342E-06 0.00000E+00
 -1       966 3.58454E-05 4.95123E-06 1.65436E-24
 -1       967 3.57998E-05 5.35609E-06 0.00000E+00
 -1       968 3.57542E-05 5.75477E-06 0.00000E+00
 -1       969 3.57086E-05 6.14406E-06 8.27181E-25
 -1       970 3.56632E-05 6.52071E-06-1.65436E-24
 -1       971 3.55757E-05 7.25236E-06-8.27181E-25
 -1       972 3.55324E-05 7.66164E-06-4.13590E-25
 -1       973 3.54891E-05 8.10519E-06 0.00000E+00
 -1       974 3.54457E-05 8.57859E-06-8.27181E-25
 -1       975 3.54022E-05 9.07739E-06 0.00000E+00
 -1       976 3.53587E-05 9.59717E-06 4.13590E-25
 -1       977 3.53152E-05 1.01335E-05 0.00000E+00
 -1       978 3.52717E-05 1.06819E-05 0.00000E+00
 -1       979 3.52282E-05 1.12380E-05 0.00000E+00
 -1       980 3.51848E-05 1.17973E-05 8.27181E-25
 -1       981 3.51413E-05 1.23553E-05 1.65436E-24
 -1       982 3.50978E-05 1.29077E-05 0.00000E+00
 -1       983 3.50545E-05 1.34499E-05-1.65436E-24
 -1       984 3.50113E-05 1.39777E-05 0.00000E+00
 -1       985 3.49683E-05 1.44864E-05 8.27181E-25
 -3
    1PSTEP                         2           1           1          
  100CL  101 2.50000E-01         409                     0    1           1
 -4  STRESS      6    1
 -5  SXX         1    4    1    1
 -5  SYY         1    4    2    2
 -5  SZZ         1    4    3    3
 -5  SXY         1    4    1    2
 -5  SYZ         1    4    2    3
 -5  SZX         1    4    3    1
 -1         1-8.63891E+05-3.98584E+05-1.75231E+05-5.58310E+05 7.09406E-11 2.13186E-09
 -1         2 1.46312E+03 1.59818E+05 4.76648E+03 2.67295E+02-8.84057E-11 1.21192E-08
 -1         3-1.82486E+01-3.60999E+05 8.30006E+01-6.58679E+01-8.03446E-11 1.13505E-09
 -1         5-2.14363E+00 1.29817E+05 3.39830E+00-5.15250E-02 5.45492E-11-2.71348E-09
 -1         8-4.06997E+05-1.77318E+05-1.38728E+04-3.08504E+05 4.54747E-12-3.17232E-09
 -1         9-6.97292E+05-1.81252E+05-6.70819E+04-2.43131E+05 1.41299E-09 4.18804E-09
 -1        10-2.67811E+02-3.76089E+05-4.78159E+02-4.36359E+02-1.84446E-09-3.85677E-09
 -1        12-7.48623E-01 1.29824E+05 1.10152E+02-1.07181E-01 1.42348E-10 5.95492E-10
 -1        15 1.07552E+03 5.91054E+02 3.47660E+03 1.21409E+00-1.32079E-08-5.27048E-06
 -1        16-1.96022E+06-6.30053E+05-3.00580E+05-6.45175E+05 5.54913E-09-3.89991E-09
 -1        17-4.32448E+05-2.68035E+05-8.31165E+04-2.53407E+05-2.95840E-09 2.48256E-09
 -1        18 1.65382E+04 1.70451E+03-5.84169E+03-3.05398E+04 3.64537E-10 8.58108E-10
 -1        19 4.06949E+04 4.85203E+04-2.24204E+02 7.97860E+03-3.45790E-10-3.63070E-10
 -1        20-1.68652E+04-1.92380E+05-4.24156E+04 1.43392E+04 1.83422E-09-1.43458E-09
 -1        21-1.82290E+01-1.11628E+05-3.60554E+02-2.22914E+01-2.82143E-09-2.72063E-09
 -1        24-1.72164E+06-6.03015E+05-2.45939E+05-7.35740E+05-7.87259E-09-3.87323E-09
 -1        25 1.47457E+04-3.62306E+03 8.70027E+03-5.51257E+04 2.06319E-10 2.10857E-09
 -1        26-9.43654E+03 3.31549E+04-6.58722E+03-4.72678E+03 8.27458E-10 1.57619E-09
 -1        27-3.07991E+04-1.05565E+05-3.96011E+04 2.37916E+04 2.85672E-09 4.85215E-10
 -1        28 8.62006E+03-3.08399E+04 6.29993E+03 9.89381E+03 2.64238E-09-1.26929E-09
 -1        32-4.12959E+05-6.50298E+04 1.76721E+05-2.77039E+05-8.12724E-09 7.68337E-09
 -1        33-6.03991E+04 3.10496E+04 1.10087E+04-1.80143E+04 5.42324E-10-2.45639E-09
 -1        34-7.83997E+04-7.80331E+03 1.86274E+02 2.41083E+04 1.88487E-09 3.57894E-09
 -1        35-8.77235E+03-1.22692E+04-4.77808E+02 1.94405E+04 1.30838E-09-3.38605E-09
 -1        51 8.24118E+03-2.04637E+05 1.98527E+04-5.03532E+05-8.00355E-11 3.38332E-09
 -1        52 3.99430E+03-2.02587E+05 1.30352E+04-5.87273E+05 2.83762E-10-6.79574E-09
 -1        53 2.40205E+03-2.07354E+05 1.13524E+04-5.01829E+05 4.25644E-10-4.07454E-09
 -1        54 7.88670E+03-2.05263E+05 1.82959E+04-5.89091E+05 3.52884E-10-1.01209E-08
 -1        55 1.81379E+04-2.11863E+05 3.29161E+04-5.01620E+05 4.14730E-10-4.64570E-09
 -1        56-1.65947E+06-1.87752E+05-1.29606E+05-6.40144E+05 4.27463E-10-2.43017E-09
 -1        57-1.71214E+06-3.04319E+05-8.73485E+04-6.34466E+05-3.18323E-10 5.60067E-09
 -1        58-1.68524E+06-2.29052E+05-3.05149E+04-6.32345E+05 6.04814E-11-4.31100E-09
 -1        59-1.68234E+06-2.55902E+05-1.82168E+04-6.43839E+05 7.03722E-11-1.34969E-09
 -1        60-1.68903E+06-2.34788E+05-7.13330E+03-6.31268E+05-1.08651E-09 8.73342E-10
 -1        61-1.67824E+06-2.48908E+05-4.05642E+03-6.44769E+05-9.93055E-11-3.30081E-09
 -1        62-1.68930E+06-2.35872E+05-1.95293E+03-6.31470E+05 4.18140E-10 3.88675E-09
 -1        63-1.67856E+06-2.47163E+05-1.60666E+03-6.43824E+05-7.63976E-10-2.72772E-09
 -1        64-1.68868E+06-2.36528E+05-1.83725E+03-6.32204E+05-6.53586E-10 1.69280E-09
 -1        65-1.68057E+06-2.46310E+05-3.68354E+03-6.41869E+05-8.82551E-10 2.08013E-09
 -1        66-1.68726E+06-2.36762E+05-6.46896E+03-6.33398E+05-1.65983E-11 3.87263E-09
 -1        67-1.68648E+06-2.50358E+05-1.64278E+04-6.38411E+05-1.08594E-09 3.96085E-09
 -1        68-1.68278E+06-2.32657E+05-2.75634E+04-6.35589E+05 1.46088E-09-2.58115E-09
 -1        69-1.71529E+06-2.92129E+05-7.88096E+04-6.27764E+05-7.73070E-10-4.26826E-09
 -1        70-1.65867E+06-1.96237E+05-1.16991E+05-6.43592E+05-1.85537E-10 1.72440E-09
 -1        86-7.32990E+02 1.58403E+05 5.11758E+03-1.33655E+02 6.54609E-10 1.34165E-09
 -1        87 4.86761E+03 1.61475E+05 1.06617E+04 5.46984E+02 1.09958E-09-5.50335E-09
 -1        88-4.12744E+03 1.56747E+05 1.63396E+04-4.13343E+02 1.62436E-09 1.61316E-09
 -1        89 3.07620E+04 1.73522E+05 4.40410E+04 1.16629E+03 2.48610E-09-6.38408E-10
 -1        90-2.65424E+04 1.46361E+05 6.22336E+04-7.52777E+02 2.77578E-09-1.81274E-09
 -1       121-3.46450E+01-3.61116E+05 8.29762E+01 3.29146E+01 1.77739E-10 4.28827E-09
 -1       122 9.03238E+00-3.60980E+05 1.81867E+02-1.31884E+02-7.02613E-10-1.41881E-09
 -1       123-5.46929E+01-3.61135E+05 2.99044E+02 9.88556E+01 5.69145E-10-2.56478E-09
 -1       124 3.44657E+02-3.60773E+05 7.64464E+02-3.26948E+02-1.22384E-09-5.99425E-09
 -1       125-2.73402E+02-3.61325E+05 1.17696E+03 2.28001E+02 8.75616E-10-2.88856E-09
 -1       191-2.36330E+00 1.29828E+05 4.07791E+00 2.56024E-02 8.12124E-11-1.79125E-09
 -1       192-2.45551E+00 1.29818E+05 7.19493E+00 1.57131E-01 1.23168E-10-1.74418E-09
 -1       193-3.19285E+00 1.29828E+05 1.33966E+01-1.83858E-01 1.41200E-10 1.72304E-09
 -1       194-3.45938E+00 1.29819E+05 2.72147E+01 4.94969E-01 6.96114E-11 5.45879E-09
 -1       195-4.78748E+00 1.29827E+05 5.32505E+01-3.14248E-01 2.36533E-10 4.20323E-09
 -1       251 1.43176E+05-2.53728E+04 5.93202E+04 2.15120E+03-7.93534E-11-2.45200E-09
 -1       252 1.69741E+05 2.93700E+04 4.20105E+04-7.51400E+03-4.47983E-10-1.36788E-09
 -1       253 1.53286E+05-3.92992E+03 1.53570E+04 1.62248E+03-2.32149E-10-2.66937E-09
 -1       254 1.57873E+05 4.54360E+03 9.68578E+03-6.67398E+03-7.07757E-10 4.54418E-09
 -1       255 1.55011E+05-6.07619E+02 3.96888E+03 1.31130E+03-3.09228E-11 3.18710E-09
 -1       256 1.55822E+05 7.20107E+02 2.40973E+03-6.21276E+03 1.05402E-10 5.20561E-09
 -1       257 1.55320E+05-1.06760E+02 1.24457E+03 1.16124E+03-3.77511E-11 3.39898E-09
 -1       258 1.55510E+05 2.24764E+02 1.10810E+03-6.06093E+03-2.54114E-10 3.92897E-09
 -1       259 1.55319E+05-1.10068E+02 1.27580E+03 1.15948E+03-6.72529E-11 4.01883E-11
 -1       260 1.55836E+05 7.49032E+02 2.49899E+03-6.20621E+03 1.63425E-10-1.46747E-09
 -1       261 1.54999E+05-6.33001E+02 4.13134E+03 1.30653E+03 9.76684E-10 1.48248E-09
 -1       262 1.57963E+05 4.73494E+03 1.00879E+04-6.65988E+03 1.78389E-10-3.22780E-09
 -1       263 1.53207E+05-4.09496E+03 1.60040E+04 1.61316E+03-4.16435E-10 6.79847E-09
 -1       264 1.70311E+05 3.06054E+04 4.37709E+04-7.49204E+03-1.51192E-09 4.19277E-09
 -1       265 1.42684E+05-2.64380E+04 6.18216E+04 2.13855E+03-8.22865E-10-8.03993E-10
 -1       266-1.94707E+04-9.10512E+03 4.56808E+04-2.59767E+01-2.07583E-08-8.30155E-06
 -1       267 2.25717E+04 1.06112E+04 3.22880E+04 2.99736E+01-4.10350E-08-1.63912E-05
 -1       268-3.02683E+03-1.50290E+03 1.20012E+04-3.81903E+00-3.29201E-08-1.31470E-05
 -1       269 3.57379E+03 1.79859E+03 7.80068E+03 4.44871E+00-2.47677E-08-9.90450E-06
 -1       270-5.36430E+02-2.95525E+02 3.76550E+03-6.03698E-01-1.82731E-08-7.29933E-06
 -1       271-1.91284E+06-2.37680E+05-1.47082E+05-7.43906E+05-1.09139E-11 1.38243E-10
 -1       272-1.95261E+06-3.58138E+05-9.45808E+04-7.57781E+05 3.98359E-10 4.54747E-09
 -1       273-1.94050E+06-2.74334E+05-3.47398E+04-7.37400E+05-7.22366E-10-5.25688E-10
 -1       274-1.92045E+06-3.13072E+05-1.94644E+04-7.67690E+05 1.58934E-09 2.48428E-09
 -1       275-1.94459E+06-2.77861E+05-8.08037E+03-7.35968E+05-3.34694E-10 2.62071E-09
 -1       276-1.91565E+06-3.08886E+05-4.30072E+03-7.69980E+05 4.09273E-11-9.49854E-10
 -1       277-1.94544E+06-2.77906E+05-2.09977E+03-7.35440E+05-5.39785E-10-2.65516E-10
 -1       278-1.91482E+06-3.08756E+05-1.52217E+03-7.70614E+05 2.05091E-10 2.38595E-09
 -1       279-1.94549E+06-2.77897E+05-1.62367E+03-7.35409E+05-7.37373E-10 1.72076E-09
 -1       280-1.91537E+06-3.08757E+05-2.96682E+03-7.70134E+05 7.41238E-10 2.36582E-10
 -1       281-1.94483E+06-2.77972E+05-5.41419E+03-7.35863E+05-3.65617E-10-3.84034E-09
 -1       282-1.91883E+06-3.11213E+05-1.29354E+04-7.68207E+05 4.87717E-10 1.28148E-09
 -1       283-1.94188E+06-2.75887E+05-2.30717E+04-7.37074E+05-2.94222E-10-1.84446E-09
 -1       284-1.94067E+06-3.40515E+05-6.27405E+04-7.60883E+05-6.59043E-10-5.03496E-09
 -1       285-1.92316E+06-2.51977E+05-9.76260E+04-7.41808E+05 5.77529E-10-3.57613E-09
 -1       301 6.70691E+03-4.78973E+03 5.82176E+04-1.44688E+04 1.27329E-10-1.20271E-08
 -1       302 8.17598E+03 1.01869E+04 4.22187E+04-2.15915E+04-1.00135E-09-1.89611E-08
 -1       303 2.79231E+02 4.98644E+02 3.88065E+04-1.44888E+04 2.31012E-10-8.49809E-09
 -1       304 1.54066E+04 1.68135E+04 6.53898E+04-2.15348E+04-6.90306E-10 4.52474E-10
 -1       305 1.34760E+04-1.13846E+04 1.09233E+05-1.44964E+04 2.58296E-10 1.47929E-09
 -1       306-2.06404E+06-2.36352E+05-1.56446E+05-8.03029E+05 5.56611E-10-1.68802E-09
 -1       307-2.13846E+06-3.74942E+05-1.06693E+05-7.83266E+05 5.27052E-10 5.91535E-09
 -1       308-2.09868E+06-2.85818E+05-3.68023E+04-7.89355E+05 4.41560E-10-1.49157E-10
 -1       309-2.09627E+06-3.19474E+05-2.23258E+04-8.01788E+05 2.84587E-10-2.40425E-09
 -1       310-2.10607E+06-2.90868E+05-8.63537E+03-7.84856E+05 3.99142E-10-4.16867E-09
 -1       311-2.08690E+06-3.14523E+05-5.01970E+03-8.08158E+05 1.77891E-09 2.46791E-09
 -1       312-2.10809E+06-2.90592E+05-2.45413E+03-7.83075E+05 1.11527E-10 3.41527E-09
 -1       313-2.08514E+06-3.14541E+05-2.21788E+03-8.09671E+05-1.04072E-09 3.37585E-09
 -1       314-2.10784E+06-2.90819E+05-2.66603E+03-7.83365E+05-1.34366E-09-2.96905E-09
 -1       315-2.08791E+06-3.13804E+05-5.63792E+03-8.07032E+05-5.70253E-10-1.29887E-09
 -1       316-2.10528E+06-2.91376E+05-9.80017E+03-7.85678E+05 1.23432E-09 4.14047E-09
 -1       317-2.09879E+06-3.19270E+05-2.53867E+04-7.99600E+05 9.40673E-10-4.34147E-09
 -1       318-2.09693E+06-2.85549E+05-4.18633E+04-7.90699E+05-9.46784E-10 1.30058E-09
 -1       319-2.14641E+06-3.82840E+05-1.21404E+05-7.79088E+05-2.08638E-09-2.29011E-09
 -1       320-2.05786E+06-2.28871E+05-1.77970E+05-8.05807E+05 4.53292E-09-2.61934E-09
 -1       336 2.93863E+02-3.90932E+05-2.06917E+03 2.08184E+02-3.46722E-09 4.47744E-09
 -1       337-7.41719E+02-3.91533E+05-2.26771E+03-5.87320E+02-6.30968E-09 2.05591E-09
 -1       338 1.94788E+02-3.90994E+05-2.84157E+03 3.78329E+02-4.55464E-09 4.49381E-09
 -1       339-2.93727E+03-3.92873E+05-6.22815E+03-9.25198E+02-8.32097E-09 2.76941E-10
 -1       340 2.00986E+03-3.89602E+05-9.58735E+03 5.44333E+02-5.65205E-09 6.85759E-09
 -1       406 7.67843E+00 1.29822E+05 2.17490E+02 4.16815E-01 3.29720E-10 1.34241E-09
 -1       407 7.50743E+01 1.29863E+05 4.62226E+02-5.65764E+00 5.59908E-11 5.02428E-09
 -1       408 2.37186E+02 1.29789E+05 9.23202E+02 5.28966E+00 3.81647E-10 9.89530E-10
 -1       409 9.97529E+02 1.30158E+05 2.07845E+03-4.74666E+01-3.14913E-11-4.72528E-09
 -1       410 2.86743E+03 1.29527E+05 4.24314E+03 4.30879E+01 3.72438E-10-1.32536E-09
 -1       521-3.88802E+06-4.48249E+05-2.89420E+05-1.51022E+06 2.36832E-09-5.48607E-09
 -1       522-4.02656E+06-6.99219E+05-1.96731E+05-1.47291E+06 8.00355E-11-3.88536E-09
 -1       523-3.95245E+06-5.37770E+05-6.80446E+04-1.48455E+06 1.66983E-09-2.53931E-09
 -1       524-3.94815E+06-5.98582E+05-4.10734E+04-1.50755E+06 2.14368E-09 2.13595E-09
 -1       525-3.96594E+06-5.46694E+05-1.59034E+04-1.47632E+06 1.22884E-09-9.58607E-10
 -1       526-3.93211E+06-5.88639E+05-9.17543E+03-1.51780E+06-7.54298E-10-1.94632E-10
 -1       527-3.96849E+06-5.47336E+05-4.40732E+03-1.47447E+06 2.37520E-09 3.48439E-09
 -1       528-3.93219E+06-5.85162E+05-3.78491E+03-1.51640E+06 1.07917E-09 2.69424E-09
 -1       529-3.96581E+06-5.50160E+05-4.44052E+03-1.47770E+06-7.55108E-10 1.99725E-09
 -1       530-3.94190E+06-5.78374E+05-9.08253E+03-1.50578E+06-1.03410E-09-3.81760E-10
 -1       531-3.95864E+06-5.54265E+05-1.59358E+04-1.48497E+06 3.64139E-10 2.30921E-09
 -1       532-3.96511E+06-5.81164E+05-4.09086E+04-1.48749E+06 8.86757E-10-3.78168E-09
 -1       533-3.94263E+06-5.47726E+05-6.78860E+04-1.49584E+06 9.64064E-10-4.54020E-09
 -1       534-4.04567E+06-6.79738E+05-1.96242E+05-1.45125E+06 1.19690E-09 4.45289E-09
 -1       535-3.87878E+06-4.57730E+05-2.88598E+05-1.52062E+06-5.61704E-09 4.80213E-09
 -1       536-4.55677E+03-1.10547E+04 2.54849E+04 2.64150E+02-8.31676E-10 1.02955E-09
 -1       537 7.09053E+03 1.27922E+04 1.81315E+04-1.00657E+03-3.75416E-09 1.37038E-09
 -1       538-2.05470E+02-1.73241E+03 6.57839E+03 2.41828E+02-2.55739E-10 2.52248E-09
 -1       539 1.97008E+03 2.00069E+03 4.18461E+03-9.80931E+02 1.44072E-09-1.27568E-09
 -1       540 5.59230E+02-2.69660E+02 1.66382E+03 2.38513E+02 4.75673E-10-8.69704E-11
 -1       541 1.04199E+03 3.09039E+02 9.86208E+02-9.76285E+02 2.63512E-10 3.41022E-09
 -1       542 7.19977E+02-4.01667E+01 4.01352E+02 2.37177E+02-2.01272E-10 2.21894E-09
 -1       543 8.32126E+02 3.93386E+01 2.02402E+02-9.74266E+02 3.74383E-10-2.13235E-09
 -1       544 7.67415E+02 1.06718E+00 3.68020E+01 2.36494E+02 8.28493E-12-6.50324E-10
 -1       545 7.55213E+02-4.36182E+01-1.00485E+02-9.73443E+02-3.84621E-10 9.97833E-10
 -1       546 7.96132E+02 4.32878E+01-2.45100E+02 2.36354E+02 1.29909E-10 2.04138E-09
 -1       547 6.24150E+02-3.22173E+02-6.54426E+02-9.73659E+02-1.00598E-09-1.53037E-09
 -1       548 8.98637E+02 2.79310E+02-1.06314E+03 2.36709E+02-1.12914E-09-2.89674E-10
 -1       549-1.35850E+02-2.05974E+03-2.90372E+03-9.74354E+02-6.85644E-10 1.47566E-09
 -1       550 1.55724E+03 1.77871E+03-4.13278E+03 2.37050E+02 1.49285E-11 2.80579E-10
 -1       551 2.97865E+03-2.06465E+05 1.16043E+04-3.54340E+05-1.52704E-08 1.60799E-09
 -1       552 5.83908E+03-2.05800E+05 1.48392E+04-5.04118E+05-1.25037E-08 5.49153E-09
 -1       553 3.57794E+03-2.08518E+05 2.31333E+04-3.53231E+05-1.89866E-08 4.18368E-10
 -1       554 1.69035E+04-1.97810E+05 4.91086E+04-5.04598E+05-1.19690E-08 3.17459E-09
 -1       555 1.78837E+04-2.17992E+05 8.83658E+04-3.53739E+05-1.87065E-08-2.58296E-09
 -1       556 2.80295E+04-6.54599E+04 2.29927E+04-8.83036E+04-3.21961E-09 3.85626E-10
 -1       557 5.46739E+04-8.79831E+04 1.20065E+04-1.10210E+05 3.67436E-10 2.03681E-09
 -1       558 2.85039E+04-6.88463E+04 4.95493E+03-8.53535E+04-2.75031E-09-2.00998E-10
 -1       559 5.17155E+04-9.13361E+04 2.48136E+03-1.11358E+05-2.17551E-09-7.47241E-09
 -1       560 2.81497E+04-6.85922E+04 1.07796E+03-8.55379E+04 3.45608E-10 5.31008E-09
 -1       561 5.10052E+04-9.12486E+04 5.49038E+02-1.11797E+05-5.98448E-10 3.02816E-09
 -1       562 2.78309E+04-6.83631E+04 2.30447E+02-8.57725E+04-1.29148E-09-9.86347E-10
 -1       563 5.06129E+04-9.10831E+04 1.27138E+02-1.12047E+05 2.16460E-09 5.25904E-09
 -1       564 2.76315E+04-6.82298E+04 4.80313E+01-8.59167E+04 1.68438E-09-2.85490E-09
 -1       565 5.04119E+04-9.09992E+04 2.00713E+01-1.12172E+05 8.22638E-10 3.07637E-09
 -1       566 2.75645E+04-6.81824E+04-1.78837E+01-8.59672E+04 1.12777E-10-4.03816E-10
 -1       567 5.03795E+04-9.09828E+04-6.78758E+01-1.12159E+05 1.17204E-08 9.84301E-09
 -1       568 2.76473E+04-6.82387E+04-1.69138E+02-8.59400E+04 6.24823E-10 1.98816E-09
 -1       569 5.01767E+04-9.08709E+04-4.01044E+02-1.11720E+05-9.00400E-10 4.52565E-09
 -1       570 2.81613E+04-6.87585E+04-8.13955E+02-8.60321E+04 1.34605E-09 1.32422E-09
 -1       571 9.41920E+04 3.41565E+03 5.05806E+03-2.36065E+04 1.68711E-10 2.08206E-09
 -1       572 9.49464E+04 1.18830E+03 2.47788E+03-2.58769E+04-8.68113E-10-2.60252E-09
 -1       573 9.44987E+04 2.83346E+02 1.10075E+03-2.35450E+04-1.14551E-09 3.19892E-09
 -1       574 9.45892E+04 9.13948E+01 5.51343E+02-2.59461E+04-6.54154E-10-1.28807E-09
 -1       575 9.45350E+04 1.17182E+01 2.59811E+02-2.35368E+04 1.06388E-09 6.37328E-10
 -1       576 9.45416E+04 2.14184E+00 1.32149E+02-2.59554E+04 1.29467E-09-1.47156E-09
 -1       577 9.45403E+04-2.93078E+00 6.50467E+01-2.35357E+04 1.10534E-08 8.03311E-10
 -1       578 9.45358E+04-1.76569E+00 3.53547E+01-2.59564E+04 1.88213E-08 2.37037E-09
 -1       579 9.45437E+04-2.61560E+00 2.15776E+01-2.35357E+04 8.57972E-09 1.18371E-09
 -1       580 9.45394E+04-2.58106E+00 1.99669E+01-2.59549E+04-4.92946E-10-3.75599E-09
 -1       581 9.45487E+04-3.36934E+00 2.71445E+01-2.35372E+04 5.94355E-10-1.05638E-09
 -1       582 9.45507E+04 1.99868E+00 5.14730E+01-2.59408E+04 1.19599E-09 3.12139E-09
 -1       583 9.45533E+04 1.67268E+01 9.91430E+01-2.35499E+04 1.60026E-09-9.84528E-11
 -1       584 9.45925E+04 9.54410E+01 2.21920E+02-2.58355E+04 5.39330E-10 3.19477E-09
 -1       585 9.45351E+04 2.92677E+02 4.51345E+02-2.36425E+04 2.09184E-11 1.62072E-09
 -1       586-1.18420E+03 3.06278E+04-1.55455E+03-8.05424E+04 2.48974E-10-3.11502E-11
 -1       587-2.71391E+02 3.04223E+04-1.90743E+02-8.86305E+04 4.50200E-10-3.40631E-09
 -1       588 3.05584E+02 3.04612E+04 1.06563E+03-8.04934E+04 2.51021E-10 6.07088E-10
 -1       589 1.58678E+03 3.10410E+04 3.12674E+03-8.85570E+04 3.91992E-10-4.41310E-09
 -1       590 4.58938E+03 3.00585E+04 6.70609E+03-8.06161E+04 1.93040E-10 3.77440E-11
 -1       591-2.04318E+04-5.87253E+03-6.83358E+03-1.06202E+04-6.67598E-10-6.81666E-10
 -1       592-2.10697E+04-7.55307E+03-3.70135E+03-1.24048E+04-4.66571E-10-1.20281E-10
 -1       593-2.11225E+04-5.36912E+03-1.54089E+03-1.11134E+04-2.29591E-10 8.62769E-10
 -1       594-2.01169E+04-6.56000E+03-7.68540E+02-1.24519E+04 3.38048E-10 2.61736E-09
 -1       595-2.11752E+04-5.36699E+03-3.53195E+02-1.11359E+04-2.94619E-10 1.32140E-09
 -1       596-2.00523E+04-6.51456E+03-1.80057E+02-1.24450E+04 9.99449E-10 2.34590E-09
 -1       597-2.11818E+04-5.37141E+03-9.91243E+01-1.11368E+04 1.02282E-09 1.32803E-09
 -1       598-2.00462E+04-6.51281E+03-8.16593E+01-1.24432E+04 1.68399E-11-1.86333E-09
 -1       599-2.11814E+04-5.37134E+03-1.06740E+02-1.11367E+04 1.03967E-10-4.66611E-09
 -1       600-2.00533E+04-6.51506E+03-2.00282E+02-1.24451E+04-4.11660E-10-1.35941E-09
 -1       601-2.11733E+04-5.36637E+03-3.96070E+02-1.11355E+04-9.26661E-10-9.41327E-10
 -1       602-2.01262E+04-6.56598E+03-8.63856E+02-1.24523E+04-1.93040E-10-3.73620E-09
 -1       603-2.11137E+04-5.36942E+03-1.73257E+03-1.11104E+04 2.76373E-10 2.58183E-10
 -1       604-2.12012E+04-7.67873E+03-4.16215E+03-1.23945E+04-1.16188E-10 2.79056E-09
 -1       605-2.03326E+04-5.93875E+03-7.68414E+03-1.05598E+04-1.39153E-09 3.55658E-09
 -1       606 1.34716E+04-4.53069E+03-8.16357E+03 1.31956E+04-2.08865E-09-2.67164E-09
 -1       607 1.20738E+04-1.46126E+03-4.06524E+03 1.48128E+04-1.79170E-09-8.42550E-09
 -1       608 1.28725E+04-2.45389E+02-1.81987E+03 1.30902E+04 8.70386E-09-2.78862E-09
 -1       609 1.27166E+04-6.60111E+01-9.19412E+02 1.49293E+04 1.75442E-08 1.03228E-10
 -1       610 1.28050E+04 9.63495E+00-4.38747E+02 1.30785E+04-1.86810E-09 6.50402E-10
 -1       611 1.27776E+04 1.26063E+01-2.21448E+02 1.49421E+04-2.12451E-08 2.49361E-09
 -1       612 1.27904E+04 1.38218E+01-1.05704E+02 1.30773E+04-9.44328E-09 4.15753E-10
 -1       613 1.27815E+04 1.37711E+01-4.83092E+01 1.49437E+04-1.98906E-09-2.99576E-09
 -1       614 1.27837E+04 1.17228E+01-1.33892E+01 1.30769E+04 2.65118E-10 9.48148E-11
 -1       615 1.27799E+04 1.41502E+01 1.49212E+01 1.49440E+04 2.80761E-09 3.61956E-09
 -1       616 1.27785E+04 1.25875E+01 4.97234E+01 1.30770E+04-2.87514E-09 2.19416E-10
 -1       617 1.27857E+04 2.50649E+01 1.15205E+02 1.49437E+04-7.84894E-10-4.54804E-09
 -1       618 1.27682E+04 4.60416E+01 2.32968E+02 1.30771E+04-2.69665E-10 2.03158E-09
 -1       619 1.28678E+04 2.05485E+02 5.23583E+02 1.49435E+04-6.65523E-10 1.58889E-09
 -1       620 1.26906E+04 5.99117E+02 1.05256E+03 1.30769E+04 5.32964E-10 2.56932E-10
 -1       621 1.64510E+02 1.02541E+05 1.41738E+03 3.23315E+03-1.74257E-10 3.81453E-09
 -1       622 1.88006E+02 1.02892E+05 1.20237E+03 4.71737E+03-1.10106E-10 5.50585E-10
 -1       623 8.39291E+00 1.02642E+05 1.38201E+03 3.21782E+03-1.63595E-10-2.30568E-09
 -1       624 6.25802E+02 1.03294E+05 2.62376E+03 4.73249E+03-1.20622E-10-1.20394E-09
 -1       625 6.27955E+02 1.02137E+05 4.56099E+03 3.21813E+03-6.84395E-11-4.10211E-10
 -1       626 8.46291E+04 2.34860E+04 1.69275E+03 4.57990E+04-8.93351E-10 3.70164E-10
 -1       627 8.34671E+04 2.43412E+04 8.15296E+02 4.76571E+04 1.93268E-11-6.17405E-09
 -1       628 8.46975E+04 2.26833E+04 3.44677E+02 4.60560E+04 2.88719E-09 2.55568E-10
 -1       629 8.32271E+04 2.41476E+04 1.68752E+02 4.77720E+04 3.07773E-09-8.45034E-10
 -1       630 8.47053E+04 2.26434E+04 7.81956E+01 4.60650E+04 2.42107E-09 9.09012E-10
 -1       631 8.32008E+04 2.41420E+04 4.19349E+01 4.77757E+04 2.58228E-09 1.21516E-08
 -1       632 8.47038E+04 2.26449E+04 2.77452E+01 4.60628E+04 9.68157E-09 1.54989E-09
 -1       633 8.31968E+04 2.41436E+04 3.08821E+01 4.77741E+04 9.60642E-09-2.59651E-08
 -1       634 8.47006E+04 2.26444E+04 5.00443E+01 4.60616E+04 1.16488E-08-2.98212E-09
 -1       635 8.31999E+04 2.41440E+04 1.01464E+02 4.77747E+04 4.05458E-09 3.64980E-09
 -1       636 8.46957E+04 2.26438E+04 2.05023E+02 4.60604E+04 7.20939E-09-3.99700E-09
 -1       637 8.32417E+04 2.41767E+04 4.50654E+02 4.77725E+04 2.04169E-08 2.09729E-09
 -1       638 8.46773E+04 2.27446E+04 9.26333E+02 4.60137E+04 8.07330E-09-3.43607E-09
 -1       639 8.37249E+04 2.48549E+04 2.19150E+03 4.76277E+04-1.14863E-09-1.89698E-09
 -1       640 8.46105E+04 2.47631E+04 4.54819E+03 4.51567E+04 3.97108E-10-1.47168E-09
 -1       656 2.29459E+04-5.80840E+05-5.54080E+04-4.99104E+02 3.85626E-10 9.84741E-10
 -1       657-3.03183E+04-6.05874E+05-4.58220E+04 3.81003E+03 4.96584E-10 7.56870E-10
 -1       658 7.27408E+03-5.87987E+05-2.81212E+04-7.81667E+02 5.03405E-10 2.09656E-10
 -1       659-3.25021E+04-6.06899E+05-4.86899E+04 3.99537E+03 1.27329E-10-1.28901E-10
 -1       660 2.51235E+04-5.79816E+05-6.03479E+04-6.84436E+02-1.01863E-10-8.00156E-10
 -1       661 8.26499E+04 8.96646E+03 7.91986E+03 3.22517E+04 1.37993E-09-2.72848E-11
 -1       662 8.67432E+04 1.52096E+04 5.33663E+03 3.09097E+04-4.56225E-10 2.31410E-10
 -1       663 8.41981E+04 1.15141E+04 1.86680E+03 3.18083E+04-8.51571E-10 8.89827E-10
 -1       664 8.49543E+04 1.22247E+04 1.11600E+03 3.14459E+04 4.07226E-10 9.03754E-10
 -1       665 8.44271E+04 1.18677E+04 4.40282E+02 3.17470E+04-1.19127E-09-1.65171E-09
 -1       666 8.46881E+04 1.18154E+04 2.56649E+02 3.15220E+04-3.91717E-09-4.48614E-09
 -1       667 8.44628E+04 1.19128E+04 1.35360E+02 3.17362E+04-8.32017E-10-1.75091E-09
 -1       668 8.46526E+04 1.17764E+04 1.35468E+02 3.15360E+04 1.29965E-09 2.57250E-09
 -1       669 8.44625E+04 1.19057E+04 1.81571E+02 3.17334E+04-1.96223E-10 2.01338E-09
 -1       670 8.47036E+04 1.18671E+04 3.93462E+02 3.15296E+04 4.04400E-09-7.48315E-10
 -1       671 8.44120E+04 1.18240E+04 6.98123E+02 3.17418E+04-2.14992E-09-6.86498E-10
 -1       672 8.51156E+04 1.25411E+04 1.78563E+03 3.14255E+04-5.16734E-09-3.68684E-09
 -1       673 8.40527E+04 1.12488E+04 2.99231E+03 3.18310E+04-2.38180E-09-2.65686E-10
 -1       674 8.79693E+04 1.73438E+04 8.55775E+03 3.05829E+04-8.60609E-10 2.79783E-10
 -1       675 8.15770E+04 7.15567E+03 1.27019E+04 3.25339E+04 1.18916E-09 1.67984E-09
 -1       676 9.35342E+00-1.11598E+05-4.34557E+02 1.11459E+01-1.00651E-09 1.51596E-09
 -1       677-1.15352E+02-1.11703E+05-7.95248E+02-2.22908E+01-2.01477E-09 2.41388E-09
 -1       678 7.70084E+01-1.11523E+05-1.40577E+03 1.11372E+01-5.68662E-10 3.57516E-09
 -1       679-1.40589E+03-1.12551E+05-3.33922E+03-2.22481E+01-9.57982E-10 7.70747E-10
 -1       680 8.38943E+02-1.10749E+05-5.38176E+03 1.09751E+01 6.22322E-10 4.56516E-09
 -1       771-1.20096E+06-2.08276E+05-2.90874E+04-4.96864E+05-4.59113E-09-3.60160E-09
 -1       772-1.19330E+06-2.24805E+05-1.56586E+04-5.15266E+05-3.01225E-09 2.36150E-09
 -1       773-1.20469E+06-2.05396E+05-6.66736E+03-4.98492E+05-1.02955E-09 2.00635E-09
 -1       774-1.18901E+06-2.21229E+05-3.27111E+03-5.16620E+05 3.81442E-09-1.01409E-09
 -1       775-1.20534E+06-2.05026E+05-1.59353E+03-4.98584E+05 2.95040E-09-1.25510E-09
 -1       776-1.18884E+06-2.21171E+05-7.50791E+02-5.17184E+05 9.66429E-09 3.17232E-09
 -1       777-1.20573E+06-2.04765E+05-4.27301E+02-4.98616E+05 4.43106E-09-6.80302E-10
 -1       778-1.18892E+06-2.21241E+05-2.01324E+02-5.17644E+05 4.31100E-10 1.75896E-09
 -1       779-1.20603E+06-2.04541E+05-1.78398E+02-4.98641E+05-9.71340E-10-1.51476E-09
 -1       780-1.18902E+06-2.21307E+05-1.56538E+02-5.18018E+05-3.71983E-10-1.65301E-10
 -1       781-1.20624E+06-2.04358E+05-2.73479E+02-4.98657E+05-4.26917E-09-6.84395E-10
 -1       782-1.18913E+06-2.21384E+05-5.21422E+02-5.18293E+05-5.66706E-09-1.41677E-09
 -1       783-1.20636E+06-2.04242E+05-1.04073E+03-4.98656E+05-9.72250E-10-2.00049E-09
 -1       784-1.18980E+06-2.22082E+05-2.47509E+03-5.18434E+05-2.78669E-09-3.01270E-11
 -1       785-1.20598E+06-2.04511E+05-4.57393E+03-4.98326E+05-4.97585E-09 5.49335E-10
 -1       786 8.71132E+04-4.65889E+03 1.07776E+04 2.10446E+00 4.24537E-08 1.67165E-09
 -1       787 9.17835E+04 5.39350E+03 7.62515E+03-8.71214E+00 8.40300E-08 3.40503E-09
 -1       788 8.89151E+04-7.30329E+02 2.78949E+03 2.59508E+00 1.35500E-07 1.84991E-09
 -1       789 8.96845E+04 8.45031E+02 1.75267E+03-1.02590E+01 1.87456E-07 1.11314E-09
 -1       790 8.92125E+04-1.14088E+02 7.13135E+02 3.65133E+00 2.68760E-07-6.76192E-09
 -1       791 8.93375E+04 1.32555E+02 4.18707E+02-1.30859E+01 3.50615E-07 1.26381E-09
 -1       792 8.92622E+04-1.83869E+01 1.91100E+02 5.42209E+00 5.01657E-07-6.39486E-09
 -1       793 8.92814E+04 2.58275E+01 1.25244E+02-1.76014E+01 6.53816E-07 1.87656E-09
 -1       794 8.92686E+04-7.43018E+00 9.28058E+01 8.16689E+00 9.59299E-07-8.64509E-09
 -1       795 8.92869E+04 3.83502E+01 1.34288E+02-2.44589E+01 1.26296E-06 5.13246E-09
 -1       796 8.92567E+04-3.09009E+01 2.01189E+02 1.22796E+01 6.31603E-07-3.93909E-09
 -1       797 8.93781E+04 2.26514E+02 4.74391E+02-3.46431E+01 1.80917E-09 3.81765E-09
 -1       798 8.91773E+04-1.95456E+02 7.48858E+02 1.83513E+01-3.43898E-11 2.14931E-09
 -1       799 8.99396E+04 1.44313E+03 2.04147E+03-4.97170E+01-2.04838E-10-2.30381E-09
 -1       800 8.86951E+04-1.24654E+03 2.88390E+03 2.73537E+01-1.11005E-10-8.58563E-10
 -1       801-4.62028E+03 9.39621E+03 8.36996E+03 9.21285E+03 5.11386E-09-4.05373E-09
 -1       802 1.28779E+04 4.04462E+04 2.46956E+04-3.79334E+04 1.37152E-08-2.23213E-09
 -1       803-8.00505E+03 1.93413E+04 3.26036E+04 8.87224E+03 1.07975E-08 8.36876E-09
 -1       804 6.29224E+04 6.63078E+04 9.01834E+04-3.82596E+04 1.27548E-08 1.05125E-08
 -1       805-5.46687E+04-1.63745E+04 1.19476E+05 9.53846E+03 4.48927E-09 1.29913E-08
 -1       806-1.02715E+05-2.19906E+04-8.72065E+03-4.27579E+04-4.35648E-10-3.29692E-10
 -1       807-1.03230E+05-2.07405E+04-4.28423E+03-4.50689E+04 5.33021E-10 1.72651E-09
 -1       808-1.02963E+05-1.88401E+04-1.81744E+03-4.42375E+04-7.74207E-10 1.87475E-09
 -1       809-1.02316E+05-1.95509E+04-8.88516E+02-4.51925E+04-2.76259E-10 1.85804E-09
 -1       810-1.03002E+05-1.87287E+04-4.06829E+02-4.43030E+04 2.57023E-09 8.17238E-09
 -1       811-1.02246E+05-1.95037E+04-2.01773E+02-4.51826E+04 1.08116E-10-3.19460E-11
 -1       812-1.03009E+05-1.87366E+04-1.00639E+02-4.43031E+04-4.02997E-09 1.28614E-09
 -1       813-1.02238E+05-1.95048E+04-6.35065E+01-4.51778E+04-1.06743E-08-4.69709E-09
 -1       814-1.03009E+05-1.87392E+04-5.94637E+01-4.43021E+04-5.34919E-09-1.57615E-09
 -1       815-1.02239E+05-1.95056E+04-9.32003E+01-4.51771E+04-1.73554E-09 2.55523E-09
 -1       816-1.03004E+05-1.87378E+04-1.74525E+02-4.43014E+04-3.06227E-09 1.85923E-09
 -1       817-1.02270E+05-1.95221E+04-3.74468E+02-4.51750E+04-1.65755E-10-1.79114E-09
 -1       818-1.02983E+05-1.87896E+04-7.63019E+02-4.42770E+04-5.95901E-09 9.03083E-09
 -1       819-1.02693E+05-1.99799E+04-1.79625E+03-4.50742E+04-1.61635E-08 1.52754E-08
 -1       820-1.02839E+05-2.01475E+04-3.65543E+03-4.36987E+04-9.38780E-09 6.61788E-09
 -1       821-1.32653E+05 7.36524E+03-1.70358E+04-7.09917E-01-3.80143E-10 2.05546E-10
 -1       822-1.40034E+05-8.52650E+03-1.20545E+04-9.44163E+01-1.32521E-09 2.32217E-09
 -1       823-1.35501E+05 1.15461E+03-4.41233E+03-2.45653E+01 1.31263E-09 1.37493E-09
 -1       824-1.36716E+05-1.33641E+03-2.77682E+03-4.33163E+01-5.95388E-10 6.71946E-10
 -1       825-1.35971E+05 1.80800E+02-1.14061E+03-5.18116E+01-1.51633E-09-1.37277E-09
 -1       826-1.36169E+05-2.13237E+02-6.90108E+02 8.76624E+00-3.36006E-09 2.32611E-09
 -1       827-1.36047E+05 3.22611E+01-3.55874E+02-7.66490E+01-3.51310E-09-4.40366E-10
 -1       828-1.36094E+05-6.51965E+01-3.16120E+02 5.08708E+01 2.83881E-08 6.63539E-10
 -1       829-1.36046E+05 3.28739E+01-3.61253E+02-9.39170E+01 9.46773E-06-7.05535E-09
 -1       830-1.36174E+05-2.18452E+02-7.06181E+02 7.42578E+01 1.88452E-05-7.58268E-09
 -1       831-1.35967E+05 1.85424E+02-1.16888E+03-1.00036E+02-1.20829E-06-2.18898E-09
 -1       832-1.36734E+05-1.37073E+03-2.84819E+03 7.42447E+01-2.12539E-05 1.00804E-08
 -1       833-1.35486E+05 1.18432E+03-4.52559E+03-9.39035E+01-1.06760E-05 1.12734E-08
 -1       834-1.40137E+05-8.74598E+03-1.23650E+04 5.16916E+01-3.48074E-08 1.72781E-09
 -1       835-1.32565E+05 7.55485E+03-1.74745E+04-7.74808E+01 1.96688E-09 6.56655E-10
 -1       836-4.42692E+02 1.25827E+05 7.57448E+03-1.10254E+04 9.54287E-10 3.00952E-09
 -1       837 1.66154E+03 1.28175E+05 6.46373E+03-2.21646E+04 1.34446E-09 4.18328E-09
 -1       838-1.65885E+02 1.26483E+05 6.66282E+03-1.09865E+04 1.20622E-09 9.05402E-10
 -1       839 4.26901E+03 1.30125E+05 1.26803E+04-2.21794E+04 1.53932E-09 7.98693E-10
 -1       840-1.28902E+03 1.23868E+05 2.02514E+04-1.10102E+04 1.06866E-09-1.71667E-11
 -1       856-4.17769E+04 3.56270E+03-9.38742E+03-1.96638E+02-1.61106E-09 8.43102E-10
 -1       857-4.56558E+04-4.17946E+03-6.46344E+03 2.15941E+03-1.38448E-09-9.55538E-10
 -1       858-4.33094E+04 4.99423E+02-2.43626E+03-2.02432E+02-1.76570E-09 1.58298E-09
 -1       859-4.38948E+04-5.82040E+02-1.47165E+03 2.16839E+03-6.08985E-10 2.02905E-09
 -1       860-4.35388E+04 6.96236E+01-6.18779E+02-2.05660E+02-1.05857E-10-2.55190E-09
 -1       861-4.36302E+04-7.85728E+01-3.44830E+02 2.17273E+03-1.84709E-09-1.30603E-09
 -1       862-4.35745E+04 9.38527E+00-1.52143E+02-2.06780E+02 2.28458E-09-2.11572E-09
 -1       863-4.35879E+04-7.60692E+00-7.53988E+01 2.17324E+03 5.14714E-09-3.28929E-09
 -1       864-4.35810E+04 1.78960E-01-2.39729E+01-2.06167E+02 2.66655E-09-3.88653E-10
 -1       865-4.35763E+04 8.63805E+00 1.31874E+01 2.17002E+03 2.19239E-09-9.03739E-11
 -1       866-4.35858E+04-6.85383E+00 4.99272E+01-2.03565E+02-1.35755E-09-3.58445E-09
 -1       867-4.35481E+04 5.81459E+01 1.37233E+02 2.16300E+03-3.72329E-09-1.75336E-09
 -1       868-4.36085E+04-4.86104E+01 2.32243E+02-1.99149E+02-1.31598E-09-2.51751E-09
 -1       869-4.33756E+04 4.04841E+02 6.22654E+02 2.15067E+03-9.01437E-10-6.43188E-09
 -1       870-4.37571E+04-3.44370E+02 9.04104E+02-1.91238E+02 1.21668E-09-1.99628E-09
 -1       871-1.92255E+03-4.01664E+03-6.30045E+03 4.13191E+04 1.53250E-09 5.50699E-10
 -1       872-8.29579E+02-5.42255E+03-2.56575E+03 5.35660E+04 3.13025E-09 2.51566E-09
 -1       873-9.84198E+00-4.75400E+03 3.76712E+02 4.12270E+04 1.41472E-09 2.93454E-09
 -1       874 9.85144E+02-3.83688E+03 3.59807E+03 5.35856E+04 1.80364E-09 4.46352E-09
 -1       875 2.32175E+03-5.61515E+03 7.97503E+03 4.13018E+04 5.85715E-10-6.25050E-10
 -1       876 1.03546E+05 1.78276E+04 5.55281E+03 4.19894E+04-1.54600E-09 1.55933E-09
 -1       877 1.03862E+05 1.90473E+04 2.96522E+03 4.36340E+04-2.55648E-09 3.79987E-09
 -1       878 1.04066E+05 1.72120E+04 1.24237E+03 4.24450E+04 1.17097E-09 7.43626E-10
 -1       879 1.03107E+05 1.82954E+04 6.18804E+02 4.36749E+04-2.04636E-11 3.99177E-09
 -1       880 1.04105E+05 1.72045E+04 2.88129E+02 4.24636E+04-6.96446E-10-1.95030E-09
 -1       881 1.03057E+05 1.82637E+04 1.53389E+02 4.36682E+04 1.91108E-09-9.18291E-10
 -1       882 1.04109E+05 1.72085E+04 9.74019E+01 4.24641E+04 3.52122E-09 1.96585E-09
 -1       883 1.03054E+05 1.82623E+04 1.03483E+02 4.36665E+04 3.40461E-09 6.29171E-09
 -1       884 1.04108E+05 1.72072E+04 1.63548E+02 4.24642E+04-7.52834E-10 9.46926E-10
 -1       885 1.03067E+05 1.82647E+04 3.28162E+02 4.36708E+04-2.89764E-09-3.43209E-09
 -1       886 1.04095E+05 1.71976E+04 6.61126E+02 4.24629E+04 2.75606E-09-4.65604E-10
 -1       887 1.03183E+05 1.83408E+04 1.44409E+03 4.36873E+04 7.55165E-10 1.36845E-09
 -1       888 1.04003E+05 1.72140E+04 2.90997E+03 4.24168E+04 5.09175E-10 2.15891E-09
 -1       889 1.04917E+05 2.01411E+04 6.95203E+03 4.36315E+04 9.35657E-10-5.08408E-10
 -1       890 1.02816E+05 1.86232E+04 1.30202E+04 4.13077E+04 2.90970E-09-1.28603E-09
 -1       891-6.07219E+01-5.89033E+04-6.92536E+02 1.12055E+04 4.40025E-10-1.38198E-09
 -1       892-1.06024E+02-5.90724E+04-7.54766E+02 1.69622E+04-8.08086E-10-1.58434E-09
 -1       893-1.27645E+01-5.89274E+04-1.07942E+03 1.12074E+04 6.00153E-10-6.29370E-10
 -1       894-5.81506E+02-5.94936E+04-2.24275E+03 1.69026E+04-6.37669E-10-4.35659E-09
 -1       895-4.51999E+02-5.84661E+04-3.95130E+03 1.12646E+04-2.15266E-10-1.70485E-09
 -1       956-1.30022E+05-1.87586E+03-4.72171E+03 8.59156E+03-1.61731E-09 4.64922E-10
 -1       957-1.30954E+05-6.34305E+02-2.42415E+03 1.03399E+04-9.89303E-10-3.29419E-09
 -1       958-1.30438E+05-5.18670E+01-1.09196E+03 8.53605E+03 9.06311E-10-2.87548E-09
 -1       959-1.30511E+05-1.19048E+01-5.57858E+02 1.04000E+04-7.20206E-10 2.84933E-09
 -1       960-1.30473E+05 1.27553E+01-2.71816E+02 8.53106E+03-1.74168E-09 2.81034E-09
 -1       961-1.30477E+05 1.02522E+01-1.44180E+02 1.04055E+04-2.48508E-09-2.40334E-10
 -1       962-1.30479E+05 9.81105E+00-8.22856E+01 8.53048E+03-1.38039E-09 1.79443E-09
 -1       963-1.30474E+05 1.00456E+01-6.57063E+01 1.04063E+04-2.80369E-09 2.05523E-09
 -1       964-1.30480E+05 1.02342E+01-7.92401E+01 8.53027E+03-1.12988E-09-2.65402E-10
 -1       965-1.30478E+05 1.12459E+01-1.36492E+02 1.04062E+04 1.70218E-09-1.22060E-09
 -1       966-1.30476E+05 1.39760E+01-2.55889E+02 8.53052E+03-1.07991E-09 1.24504E-09
 -1       967-1.30513E+05-8.55046E+00-5.24664E+02 1.04032E+04-7.43171E-10 4.17697E-09
 -1       968-1.30445E+05-4.58025E+01-1.02653E+03 8.53340E+03-3.39014E-10 3.81857E-09
 -1       969-1.30931E+05-5.92818E+02-2.27916E+03 1.03681E+04 6.82121E-13 2.72897E-09
 -1       970-1.30055E+05-1.76008E+03-4.43906E+03 8.56627E+03 9.76911E-10 1.91039E-09
 -1       971-1.23606E+05-6.54558E+02-3.63952E+03 6.10458E+03-2.62730E-09 1.19587E-09
 -1       972-1.24491E+05-4.71659E+02-1.98242E+03 8.51315E+03-2.56807E-09 2.53908E-09
 -1       973-1.24008E+05-5.80941E+00-8.87301E+02 6.05516E+03-1.55137E-09 3.48962E-09
 -1       974-1.24068E+05-8.42403E+00-4.59822E+02 8.56601E+03 2.16914E-09-1.74569E-09
 -1       975-1.24037E+05 9.57762E+00-2.29100E+02 6.05138E+03 3.46517E-10 1.72088E-09
 -1       976-1.24040E+05 9.15494E+00-1.31259E+02 8.57029E+03-2.09099E-09-3.44698E-10
 -1       977-1.24042E+05 8.38597E+00-9.33563E+01 6.05086E+03 1.41915E-09-1.20031E-09
 -1       978-1.24040E+05 1.04098E+01-1.06797E+02 8.57101E+03 7.02883E-09-2.41869E-10
 -1       979-1.24041E+05 1.07544E+01-1.69351E+02 6.05066E+03 3.09930E-09 1.32547E-09
 -1       980-1.24052E+05 1.12235E+01-3.25595E+02 8.57105E+03 4.16998E-09 2.29562E-09
 -1       981-1.24031E+05 1.89324E+01-6.29765E+02 6.05081E+03-3.47256E-10 2.67858E-09
 -1       982-1.24139E+05-3.48469E+01-1.30123E+03 8.56886E+03-2.22911E-09 2.68552E-09
 -1       983-1.23952E+05-2.06711E+01-2.52788E+03 6.05290E+03 2.72735E-09 8.90850E-10
 -1       984-1.25357E+05-1.35379E+03-5.66063E+03 8.53532E+03-1.61128E-09-2.82580E-09
 -1       985-1.22809E+05-1.86963E+03-1.03947E+04 6.08573E+03 1.34855E-09-1.87811E-09
 -3
    1PSTEP                         3           2           1          
  100CL  102 3.12500E-01         409                     0    2           1
 -4  DISP        4    1
 -5  D1          1    2    1    0
 -5  D2          1    2    2    0
 -5  D3          1    2    3    0
 -5  ALL         1    2    0    0    1ALL
 -1         1 8.16637E-05 0.00000E+00 0.00000E+00
 -1         2 7.53978E-05 1.36600E-29-1.65436E-24
 -1         3 6.96218E-05-2.94988E-27 0.00000E+00
 -1         5 5.01407E-05 3.53773E-26 0.00000E+00
 -1         8 6.51900E-05-5.91531E-07 0.00000E+00
 -1         9 6.62420E-05 3.93142E-07 0.00000E+00
 -1        10 6.45270E-05-9.52213E-07-3.30872E-24
 -1        12 4.97857E-05 3.40515E-07 0.00000E+00
 -1        15 4.55891E-05-6.38513E-07 0.00000E+00
 -1        16 4.71612E-05 3.11305E-07 0.00000E+00
 -1        17 4.81108E-05-1.99900E-06 0.00000E+00
 -1        18 4.80622E-05 1.34076E-07 0.00000E+00
 -1        19 4.87208E-05 6.79171E-07 0.00000E+00
 -1        20 4.88103E-05 1.00921E-05 0.00000E+00
 -1        21 4.84735E-05 1.90836E-05 0.00000E+00
 -1        24 1.22977E-05-2.67563E-06 0.00000E+00
 -1        25 4.69303E-05 2.12072E-07 0.00000E+00
 -1        26 4.75513E-05 9.46331E-07 0.00000E+00
 -1        27 4.66097E-05 8.57816E-06 0.00000E+00
 -1        28 4.63052E-05 1.87925E-05 0.00000E+00
 -1        32 0.00000E+00 0.00000E+00 0.00000E+00
 -1        33 4.55684E-05 1.26913E-06 0.00000E+00
 -1        34 4.46581E-05 8.56471E-06 0.00000E+00
 -1        35 4.37931E-05 1.86390E-05 0.00000E+00
 -1        51 8.05920E-05-9.81341E-08 0.00000E+00
 -1        52 7.86059E-05-1.93463E-07 0.00000E+00
 -1        53 7.58853E-05-2.89315E-07 0.00000E+00
 -1        54 7.26174E-05-3.86599E-07 0.00000E+00
 -1        55 6.89896E-05-4.85919E-07 1.44757E-24
 -1        56 8.09151E-05-4.65506E-07-1.32349E-23
 -1        57 8.02483E-05-1.23412E-06 0.00000E+00
 -1        58 7.96643E-05-2.21870E-06 2.64698E-23
 -1        59 7.91263E-05-3.34101E-06-1.32349E-23
 -1        60 7.86069E-05-4.51324E-06 0.00000E+00
 -1        61 7.80727E-05-5.64862E-06 0.00000E+00
 -1        62 7.74925E-05-6.66143E-06 0.00000E+00
 -1        63 7.68352E-05-7.46867E-06 1.32349E-23
 -1        64 7.60728E-05-7.99551E-06 2.64698E-23
 -1        65 7.51795E-05-8.17259E-06 0.00000E+00
 -1        66 7.41341E-05-7.94464E-06 0.00000E+00
 -1        67 7.29196E-05-7.26413E-06-1.32349E-23
 -1        68 7.15240E-05-6.10209E-06 0.00000E+00
 -1        69 6.99438E-05-4.43727E-06 0.00000E+00
 -1        70 6.81732E-05-2.27208E-06 1.32349E-23
 -1        86 7.51567E-05 7.03371E-08-1.65436E-24
 -1        87 7.44329E-05 1.40079E-07 8.27181E-25
 -1        88 7.32076E-05 2.09295E-07-8.27181E-25
 -1        89 7.14607E-05 2.75434E-07 0.00000E+00
 -1        90 6.91525E-05 3.41263E-07 0.00000E+00
 -1       121 6.94798E-05-1.58188E-07-3.30872E-24
 -1       122 6.90541E-05-3.16458E-07-1.65436E-24
 -1       123 6.83450E-05-4.74888E-07 0.00000E+00
 -1       124 6.73534E-05-6.33585E-07-3.30872E-24
 -1       125 6.60802E-05-7.92581E-07-3.30872E-24
 -1       191 5.01309E-05 5.67567E-08-3.30872E-24
 -1       192 5.01013E-05 1.13512E-07-3.30872E-24
 -1       193 5.00520E-05 1.70267E-07 0.00000E+00
 -1       194 4.99829E-05 2.27021E-07 0.00000E+00
 -1       195 4.98942E-05 2.83770E-07 0.00000E+00
 -1       251 6.52417E-05 2.11591E-06 0.00000E+00
 -1       252 6.53075E-05 3.72297E-06-5.16988E-26
 -1       253 6.53737E-05 4.41614E-06 0.00000E+00
 -1       254 6.54424E-05 4.37918E-06 0.00000E+00
 -1       255 6.55109E-05 3.76936E-06-1.65436E-24
 -1       256 6.55796E-05 2.74230E-06 8.27181E-25
 -1       257 6.56480E-05 1.43837E-06 0.00000E+00
 -1       258 6.57164E-05-2.82282E-09 0.00000E+00
 -1       259 6.57847E-05-1.44676E-06 0.00000E+00
 -1       260 6.58531E-05-2.75889E-06 0.00000E+00
 -1       261 6.59217E-05-3.79981E-06 0.00000E+00
 -1       262 6.59903E-05-4.42940E-06 8.27181E-25
 -1       263 6.60589E-05-4.49249E-06 0.00000E+00
 -1       264 6.61250E-05-3.83225E-06 0.00000E+00
 -1       265 6.61908E-05-2.26562E-06 0.00000E+00
 -1       266 6.19232E-05-6.07476E-07 3.30872E-24
 -1       267 5.86564E-05-6.14317E-07 8.27181E-25
 -1       268 5.53896E-05-6.21735E-07 0.00000E+00
 -1       269 5.21227E-05-6.27445E-07 0.00000E+00
 -1       270 4.88559E-05-6.33115E-07-2.06795E-25
 -1       271 6.32047E-05 1.84078E-06 0.00000E+00
 -1       272 6.15204E-05 3.38092E-06-1.32349E-23
 -1       273 6.01307E-05 4.14208E-06 0.00000E+00
 -1       274 5.89875E-05 4.23299E-06-1.32349E-23
 -1       275 5.80498E-05 3.77489E-06 0.00000E+00
 -1       276 5.72695E-05 2.89395E-06 0.00000E+00
 -1       277 5.65979E-05 1.72229E-06-2.64698E-23
 -1       278 5.59843E-05 3.95348E-07 0.00000E+00
 -1       279 5.53772E-05-9.49369E-07 0.00000E+00
 -1       280 5.47254E-05-2.17411E-06 0.00000E+00
 -1       281 5.39779E-05-3.14280E-06 0.00000E+00
 -1       282 5.30852E-05-3.72237E-06 1.32349E-23
 -1       283 5.19989E-05-3.78502E-06-2.64698E-23
 -1       284 5.06761E-05-3.20816E-06-1.32349E-23
 -1       285 4.90695E-05-1.87995E-06 0.00000E+00
 -1       301 6.30064E-05 3.75524E-07-3.30872E-24
 -1       302 5.97722E-05 3.67806E-07 1.65436E-24
 -1       303 5.65549E-05 3.60342E-07-3.30872E-24
 -1       304 5.33702E-05 3.51790E-07 1.65436E-24
 -1       305 5.02339E-05 3.41809E-07-6.61744E-24
 -1       306 6.41942E-05 2.77104E-06 0.00000E+00
 -1       307 6.24602E-05 4.21648E-06 0.00000E+00
 -1       308 6.10699E-05 4.75573E-06 0.00000E+00
 -1       309 5.99987E-05 4.42722E-06 0.00000E+00
 -1       310 5.92041E-05 3.36003E-06-2.64698E-23
 -1       311 5.86286E-05 1.70389E-06 0.00000E+00
 -1       312 5.81949E-05-3.32390E-07-2.64698E-23
 -1       313 5.78207E-05-2.52857E-06 1.32349E-23
 -1       314 5.74179E-05-4.64813E-06 2.64698E-23
 -1       315 5.68994E-05-6.45695E-06 0.00000E+00
 -1       316 5.61891E-05-7.75235E-06-2.64698E-23
 -1       317 5.52178E-05-8.34719E-06 0.00000E+00
 -1       318 5.39399E-05-8.12437E-06 0.00000E+00
 -1       319 5.23266E-05-6.98954E-06 0.00000E+00
 -1       320 5.03670E-05-4.94397E-06 0.00000E+00
 -1       336 6.26582E-05-1.12486E-06 6.61744E-24
 -1       337 6.04382E-05-1.29844E-06-3.30872E-24
 -1       338 5.78698E-05-1.47277E-06 3.30872E-24
 -1       339 5.49563E-05-1.64776E-06-1.65436E-24
 -1       340 5.17018E-05-1.82379E-06 3.30872E-24
 -1       406 4.96575E-05 3.97250E-07-3.30872E-24
 -1       407 4.95095E-05 4.53965E-07 1.65436E-24
 -1       408 4.93418E-05 5.10642E-07 0.00000E+00
 -1       409 4.91544E-05 5.67211E-07 0.00000E+00
 -1       410 4.89474E-05 6.23561E-07 1.65436E-24
 -1       521 4.43481E-05 1.99713E-06-5.29396E-23
 -1       522 4.19434E-05 2.41135E-06-2.64698E-23
 -1       523 3.99947E-05 1.62318E-06 5.29396E-23
 -1       524 3.84446E-05-2.62545E-07 2.64698E-23
 -1       525 3.72028E-05-2.97492E-06-5.29396E-23
 -1       526 3.61507E-05-6.20254E-06 0.00000E+00
 -1       527 3.51462E-05-9.55862E-06 0.00000E+00
 -1       528 3.40429E-05-1.26502E-05-2.64698E-23
 -1       529 3.27086E-05-1.51223E-05 0.00000E+00
 -1       530 3.10230E-05-1.66532E-05 0.00000E+00
 -1       531 2.89154E-05-1.70574E-05 5.29396E-23
 -1       532 2.63390E-05-1.62093E-05-2.64698E-23
 -1       533 2.33114E-05-1.41646E-05 0.00000E+00
 -1       534 1.98869E-05-1.10390E-05 0.00000E+00
 -1       535 1.61537E-05-7.11194E-06 0.00000E+00
 -1       536 4.80977E-05 1.34805E-06-1.65436E-24
 -1       537 4.80920E-05 3.87721E-06-4.13590E-25
 -1       538 4.80875E-05 5.66905E-06 0.00000E+00
 -1       539 4.80848E-05 6.80423E-06 0.00000E+00
 -1       540 4.80827E-05 7.36607E-06 0.00000E+00
 -1       541 4.80809E-05 7.43791E-06-5.16988E-26
 -1       542 4.80790E-05 7.10497E-06 0.00000E+00
 -1       543 4.80771E-05 6.45252E-06 0.00000E+00
 -1       544 4.80750E-05 5.56704E-06 0.00000E+00
 -1       545 4.80728E-05 4.53499E-06 0.00000E+00
 -1       546 4.80705E-05 3.44342E-06 0.00000E+00
 -1       547 4.80683E-05 2.37938E-06-6.46235E-27
 -1       548 4.80662E-05 1.42978E-06 2.58494E-26
 -1       549 4.80645E-05 6.81576E-07 0.00000E+00
 -1       550 4.80628E-05 2.20956E-07 0.00000E+00
 -1       551 4.33605E-05-2.10239E-06 0.00000E+00
 -1       552 3.76784E-05-2.20873E-06-1.65436E-24
 -1       553 3.13956E-05-2.31860E-06-1.65436E-24
 -1       554 2.48478E-05-2.43169E-06-3.30872E-24
 -1       555 1.83707E-05-2.54617E-06 0.00000E+00
 -1       556 4.68664E-05 1.22932E-06 0.00000E+00
 -1       557 4.59157E-05 3.69587E-06 0.00000E+00
 -1       558 4.52267E-05 5.47097E-06 0.00000E+00
 -1       559 4.47702E-05 6.63050E-06 0.00000E+00
 -1       560 4.45169E-05 7.25009E-06 0.00000E+00
 -1       561 4.44380E-05 7.40582E-06 0.00000E+00
 -1       562 4.45046E-05 7.17380E-06 0.00000E+00
 -1       563 4.46880E-05 6.63020E-06 0.00000E+00
 -1       564 4.49596E-05 5.85126E-06 0.00000E+00
 -1       565 4.52907E-05 4.91320E-06 0.00000E+00
 -1       566 4.56528E-05 3.89230E-06 0.00000E+00
 -1       567 4.60173E-05 2.86484E-06 2.06795E-25
 -1       568 4.63558E-05 1.90706E-06 0.00000E+00
 -1       569 4.66397E-05 1.09516E-06 0.00000E+00
 -1       570 4.68405E-05 5.05324E-07 0.00000E+00
 -1       571 4.81022E-05 1.94346E-07-6.20385E-25
 -1       572 4.81430E-05 2.27415E-07 2.06795E-25
 -1       573 4.81841E-05 2.38125E-07 1.24077E-24
 -1       574 4.82254E-05 2.31570E-07-4.13590E-25
 -1       575 4.82666E-05 2.12870E-07 8.27181E-25
 -1       576 4.83079E-05 1.87176E-07 8.27181E-25
 -1       577 4.83493E-05 1.59643E-07-1.65436E-24
 -1       578 4.83906E-05 1.35433E-07 8.27181E-25
 -1       579 4.84319E-05 1.19704E-07 0.00000E+00
 -1       580 4.84732E-05 1.17617E-07-8.27181E-25
 -1       581 4.85145E-05 1.34332E-07 1.65436E-24
 -1       582 4.85558E-05 1.75002E-07-3.30872E-24
 -1       583 4.85971E-05 2.44777E-07 0.00000E+00
 -1       584 4.86384E-05 3.48751E-07 3.30872E-24
 -1       585 4.86797E-05 4.91991E-07 0.00000E+00
 -1       586 4.78595E-05 1.47889E-07 0.00000E+00
 -1       587 4.76393E-05 1.61352E-07-2.06795E-25
 -1       588 4.74189E-05 1.74666E-07 0.00000E+00
 -1       589 4.72157E-05 1.87768E-07 0.00000E+00
 -1       590 4.70472E-05 2.00512E-07 0.00000E+00
 -1       591 4.80205E-05 2.15270E-07-1.03398E-25
 -1       592 4.79856E-05 2.73940E-07 0.00000E+00
 -1       593 4.79575E-05 3.14368E-07 4.13590E-25
 -1       594 4.79345E-05 3.40415E-07 2.06795E-25
 -1       595 4.79154E-05 3.55992E-07 0.00000E+00
 -1       596 4.78988E-05 3.64981E-07 0.00000E+00
 -1       597 4.78832E-05 3.71262E-07 0.00000E+00
 -1       598 4.78671E-05 3.78713E-07 0.00000E+00
 -1       599 4.78492E-05 3.91210E-07 2.06795E-25
 -1       600 4.78279E-05 4.12630E-07-1.03398E-25
 -1       601 4.78018E-05 4.46850E-07 4.13590E-25
 -1       602 4.77695E-05 4.97750E-07 0.00000E+00
 -1       603 4.77295E-05 5.69212E-07 5.16988E-26
 -1       604 4.76806E-05 6.65149E-07 0.00000E+00
 -1       605 4.76211E-05 7.89419E-07 0.00000E+00
 -1       606 4.87285E-05 9.60304E-07-1.65436E-24
 -1       607 4.87347E-05 1.30043E-06 0.00000E+00
 -1       608 4.87405E-05 1.69608E-06 0.00000E+00
 -1       609 4.87461E-05 2.14336E-06 0.00000E+00
 -1       610 4.87516E-05 2.63834E-06 0.00000E+00
 -1       611 4.87571E-05 3.17705E-06 0.00000E+00
 -1       612 4.87625E-05 3.75549E-06 0.00000E+00
 -1       613 4.87680E-05 4.36969E-06-8.27181E-25
 -1       614 4.87733E-05 5.01566E-06 0.00000E+00
 -1       615 4.87787E-05 5.68941E-06 0.00000E+00
 -1       616 4.87841E-05 6.38696E-06 0.00000E+00
 -1       617 4.87894E-05 7.10433E-06 4.13590E-25
 -1       618 4.87947E-05 7.83750E-06 0.00000E+00
 -1       619 4.88000E-05 8.58253E-06-4.13590E-25
 -1       620 4.88052E-05 9.33540E-06 0.00000E+00
 -1       621 4.84975E-05 7.23728E-07-1.65436E-24
 -1       622 4.82900E-05 7.68503E-07 0.00000E+00
 -1       623 4.80951E-05 8.13271E-07 1.65436E-24
 -1       624 4.79092E-05 8.57968E-07 8.27181E-25
 -1       625 4.77291E-05 9.02588E-07 8.27181E-25
 -1       626 4.86631E-05 9.74316E-07 0.00000E+00
 -1       627 4.85874E-05 1.31832E-06-3.30872E-24
 -1       628 4.84951E-05 1.70664E-06 0.00000E+00
 -1       629 4.83880E-05 2.13447E-06 0.00000E+00
 -1       630 4.82680E-05 2.59695E-06 0.00000E+00
 -1       631 4.81368E-05 3.08922E-06 8.27181E-25
 -1       632 4.79962E-05 3.60640E-06-1.65436E-24
 -1       633 4.78481E-05 4.14363E-06 8.27181E-25
 -1       634 4.76943E-05 4.69603E-06 0.00000E+00
 -1       635 4.75366E-05 5.25872E-06 8.27181E-25
 -1       636 4.73768E-05 5.82684E-06-1.65436E-24
 -1       637 4.72169E-05 6.39552E-06 8.27181E-25
 -1       638 4.70585E-05 6.95987E-06 0.00000E+00
 -1       639 4.69035E-05 7.51502E-06 8.27181E-25
 -1       640 4.67536E-05 8.05610E-06-8.27181E-25
 -1       656 4.81816E-05 9.84583E-06 0.00000E+00
 -1       657 4.77749E-05 9.58966E-06 0.00000E+00
 -1       658 4.75042E-05 9.33428E-06-6.61744E-24
 -1       659 4.72822E-05 9.07911E-06-3.30872E-24
 -1       660 4.70151E-05 8.82312E-06-3.30872E-24
 -1       661 4.85777E-05 1.08337E-05 8.27181E-25
 -1       662 4.83588E-05 1.15438E-05 0.00000E+00
 -1       663 4.81515E-05 1.22231E-05 0.00000E+00
 -1       664 4.79555E-05 1.28729E-05 8.27181E-25
 -1       665 4.77701E-05 1.34946E-05-1.65436E-24
 -1       666 4.75949E-05 1.40893E-05 0.00000E+00
 -1       667 4.74295E-05 1.46581E-05-1.65436E-24
 -1       668 4.72732E-05 1.52023E-05 0.00000E+00
 -1       669 4.71259E-05 1.57230E-05-1.65436E-24
 -1       670 4.69869E-05 1.62212E-05-8.27181E-25
 -1       671 4.68560E-05 1.66979E-05 0.00000E+00
 -1       672 4.67327E-05 1.71542E-05 0.00000E+00
 -1       673 4.66167E-05 1.75909E-05 0.00000E+00
 -1       674 4.65072E-05 1.80091E-05-4.13590E-25
 -1       675 4.64044E-05 1.84097E-05-4.13590E-25
 -1       676 4.81115E-05 1.90348E-05 0.00000E+00
 -1       677 4.77496E-05 1.89860E-05-8.27181E-25
 -1       678 4.73879E-05 1.89373E-05 1.65436E-24
 -1       679 4.70266E-05 1.88887E-05-8.27181E-25
 -1       680 4.66656E-05 1.88401E-05-8.27181E-25
 -1       771 9.85627E-06 1.94468E-06 0.00000E+00
 -1       772 7.72882E-06 5.72063E-06 0.00000E+00
 -1       773 5.90203E-06 8.70189E-06 0.00000E+00
 -1       774 4.35540E-06 1.09406E-05 0.00000E+00
 -1       775 3.06888E-06 1.24895E-05-2.64698E-23
 -1       776 2.02169E-06 1.34027E-05 1.32349E-23
 -1       777 1.19287E-06 1.37351E-05 2.64698E-23
 -1       778 5.61140E-07 1.35424E-05 1.32349E-23
 -1       779 1.05083E-07 1.28812E-05 0.00000E+00
 -1       780-1.96968E-07 1.18085E-05 1.32349E-23
 -1       781-3.66738E-07 1.03822E-05 2.64698E-23
 -1       782-4.26157E-07 8.66057E-06 0.00000E+00
 -1       783-3.97184E-07 6.70228E-06 0.00000E+00
 -1       784-3.01875E-07 4.56648E-06 0.00000E+00
 -1       785-1.62363E-07 2.31245E-06 0.00000E+00
 -1       786 4.69669E-05 2.11027E-07 0.00000E+00
 -1       787 4.70056E-05 2.11338E-07-4.13590E-25
 -1       788 4.70442E-05 2.13517E-07-8.27181E-25
 -1       789 4.70831E-05 2.18080E-07 0.00000E+00
 -1       790 4.71221E-05 2.25754E-07-8.27181E-25
 -1       791 4.71612E-05 2.37270E-07 4.13590E-25
 -1       792 4.72003E-05 2.53703E-07 0.00000E+00
 -1       793 4.72394E-05 2.76135E-07 8.27181E-25
 -1       794 4.72785E-05 3.06181E-07 1.65436E-24
 -1       795 4.73176E-05 3.45469E-07 8.27181E-25
 -1       796 4.73567E-05 3.96447E-07-8.27181E-25
 -1       797 4.73958E-05 4.61587E-07 0.00000E+00
 -1       798 4.74349E-05 5.44614E-07 8.27181E-25
 -1       799 4.74739E-05 6.49285E-07 0.00000E+00
 -1       800 4.75129E-05 7.81282E-07 0.00000E+00
 -1       801 4.37608E-05 2.15051E-07-4.13590E-25
 -1       802 3.43300E-05 1.80245E-07 0.00000E+00
 -1       803 2.19397E-05 1.15894E-07 1.65436E-24
 -1       804 9.89047E-06 5.10619E-08-1.65436E-24
 -1       805 1.47749E-06 2.13965E-08 6.61744E-24
 -1       806 4.68826E-05 1.84507E-07 0.00000E+00
 -1       807 4.68329E-05 1.57138E-07 8.27181E-25
 -1       808 4.67816E-05 1.32998E-07-1.65436E-24
 -1       809 4.67279E-05 1.14662E-07 0.00000E+00
 -1       810 4.66711E-05 1.04698E-07 1.65436E-24
 -1       811 4.66100E-05 1.05635E-07-8.27181E-25
 -1       812 4.65440E-05 1.20001E-07 0.00000E+00
 -1       813 4.64719E-05 1.50318E-07 4.13590E-25
 -1       814 4.63930E-05 1.99106E-07-1.65436E-24
 -1       815 4.63061E-05 2.68883E-07-8.27181E-25
 -1       816 4.62105E-05 3.62167E-07 0.00000E+00
 -1       817 4.61050E-05 4.81476E-07-4.13590E-25
 -1       818 4.59890E-05 6.29325E-07 0.00000E+00
 -1       819 4.58613E-05 8.08220E-07 0.00000E+00
 -1       820 4.57212E-05 1.02067E-06 0.00000E+00
 -1       821 4.74958E-05 1.14372E-06 0.00000E+00
 -1       822 4.74369E-05 1.37292E-06 0.00000E+00
 -1       823 4.73783E-05 1.64431E-06 0.00000E+00
 -1       824 4.73189E-05 1.96817E-06 0.00000E+00
 -1       825 4.72595E-05 2.34818E-06 0.00000E+00
 -1       826 4.72000E-05 2.78787E-06 0.00000E+00
 -1       827 4.71405E-05 3.28326E-06 1.65436E-24
 -1       828 4.70808E-05 3.83025E-06 0.00000E+00
 -1       829 4.70212E-05 4.41821E-06 0.00000E+00
 -1       830 4.69616E-05 5.03643E-06 0.00000E+00
 -1       831 4.69020E-05 5.67039E-06 0.00000E+00
 -1       832 4.68425E-05 6.30553E-06 0.00000E+00
 -1       833 4.67830E-05 6.92712E-06 0.00000E+00
 -1       834 4.67242E-05 7.52050E-06-4.13590E-25
 -1       835 4.66652E-05 8.07453E-06-4.13590E-25
 -1       836 4.73109E-05 1.00006E-06 0.00000E+00
 -1       837 4.69996E-05 1.05499E-06 0.00000E+00
 -1       838 4.66434E-05 1.10981E-06 0.00000E+00
 -1       839 4.62687E-05 1.16429E-06 0.00000E+00
 -1       840 4.59016E-05 1.21868E-06 0.00000E+00
 -1       856 4.65928E-05 9.09124E-06 0.00000E+00
 -1       857 4.65740E-05 9.66919E-06 0.00000E+00
 -1       858 4.65552E-05 1.03017E-05 0.00000E+00
 -1       859 4.65361E-05 1.09786E-05-2.06795E-25
 -1       860 4.65170E-05 1.16895E-05 0.00000E+00
 -1       861 4.64977E-05 1.24241E-05-2.06795E-25
 -1       862 4.64784E-05 1.31719E-05 0.00000E+00
 -1       863 4.64592E-05 1.39227E-05 2.06795E-25
 -1       864 4.64399E-05 1.46661E-05 0.00000E+00
 -1       865 4.64206E-05 1.53916E-05-2.06795E-25
 -1       866 4.64013E-05 1.60889E-05 0.00000E+00
 -1       867 4.63821E-05 1.67478E-05 0.00000E+00
 -1       868 4.63629E-05 1.73578E-05 0.00000E+00
 -1       869 4.63437E-05 1.79088E-05 0.00000E+00
 -1       870 4.63245E-05 1.83904E-05-8.27181E-25
 -1       871 4.62185E-05 8.57768E-06-2.06795E-25
 -1       872 4.58896E-05 8.57590E-06 0.00000E+00
 -1       873 4.55961E-05 8.57389E-06 0.00000E+00
 -1       874 4.53111E-05 8.57157E-06 5.16988E-26
 -1       875 4.50073E-05 8.56896E-06 2.06795E-25
 -1       876 4.64740E-05 9.09658E-06 0.00000E+00
 -1       877 4.63277E-05 9.64655E-06 0.00000E+00
 -1       878 4.61712E-05 1.02243E-05 0.00000E+00
 -1       879 4.60056E-05 1.08261E-05 8.27181E-25
 -1       880 4.58324E-05 1.14486E-05 0.00000E+00
 -1       881 4.56528E-05 1.20882E-05 0.00000E+00
 -1       882 4.54682E-05 1.27412E-05 1.65436E-24
 -1       883 4.52798E-05 1.34042E-05 8.27181E-25
 -1       884 4.50890E-05 1.40736E-05 0.00000E+00
 -1       885 4.48971E-05 1.47458E-05 0.00000E+00
 -1       886 4.47054E-05 1.54174E-05 0.00000E+00
 -1       887 4.45153E-05 1.60846E-05 0.00000E+00
 -1       888 4.43281E-05 1.67441E-05-1.65436E-24
 -1       889 4.41448E-05 1.73922E-05 4.13590E-25
 -1       890 4.39668E-05 1.80253E-05 0.00000E+00
 -1       891 4.59572E-05 1.87668E-05 0.00000E+00
 -1       892 4.55981E-05 1.87411E-05 2.06795E-25
 -1       893 4.52149E-05 1.87153E-05-4.13590E-25
 -1       894 4.47948E-05 1.86896E-05 2.06795E-25
 -1       895 4.43251E-05 1.86639E-05 0.00000E+00
 -1       956 4.55126E-05 1.59114E-06 0.00000E+00
 -1       957 4.54558E-05 1.94963E-06-4.13590E-25
 -1       958 4.53989E-05 2.34081E-06-8.27181E-25
 -1       959 4.53419E-05 2.76067E-06 0.00000E+00
 -1       960 4.52848E-05 3.20518E-06-1.65436E-24
 -1       961 4.52277E-05 3.67029E-06 0.00000E+00
 -1       962 4.51706E-05 4.15197E-06-1.65436E-24
 -1       963 4.51134E-05 4.64617E-06-8.27181E-25
 -1       964 4.50563E-05 5.14883E-06 0.00000E+00
 -1       965 4.49992E-05 5.65591E-06 0.00000E+00
 -1       966 4.49421E-05 6.16336E-06 1.65436E-24
 -1       967 4.48849E-05 6.66713E-06 0.00000E+00
 -1       968 4.48279E-05 7.16316E-06 1.65436E-24
 -1       969 4.47709E-05 7.64744E-06 8.27181E-25
 -1       970 4.47141E-05 8.11593E-06-1.65436E-24
 -1       971 4.46047E-05 9.02576E-06 0.00000E+00
 -1       972 4.45506E-05 9.53496E-06 0.00000E+00
 -1       973 4.44964E-05 1.00870E-05 0.00000E+00
 -1       974 4.44421E-05 1.06763E-05 0.00000E+00
 -1       975 4.43877E-05 1.12974E-05 0.00000E+00
 -1       976 4.43333E-05 1.19448E-05 0.00000E+00
 -1       977 4.42789E-05 1.26128E-05 1.65436E-24
 -1       978 4.42245E-05 1.32959E-05-8.27181E-25
 -1       979 4.41701E-05 1.39885E-05-1.65436E-24
 -1       980 4.41157E-05 1.46852E-05 0.00000E+00
 -1       981 4.40613E-05 1.53804E-05 1.65436E-24
 -1       982 4.40069E-05 1.60685E-05-8.27181E-25
 -1       983 4.39526E-05 1.67439E-05 1.65436E-24
 -1       984 4.38986E-05 1.74011E-05 0.00000E+00
 -1       985 4.38448E-05 1.80347E-05 0.00000E+00
 -3
    1PSTEP                         4           2           1          
  100CL  102 3.12500E-01         409                     0    2           1
 -4  STRESS      6    1
 -5  SXX         1    4    1    1
 -5  SYY         1    4    2    2
 -5  SZZ         1    4    3    3
 -5  SXY         1    4    1    2
 -5  SYZ         1    4    2    3
 -5  SZX         1    4    3    1
 -1         1-1.07897E+06-4.96988E+05-2.19386E+05-6.97928E+05 3.27418E-11-3.15777E-09
 -1         2 1.83301E+03 2.03662E+05 5.98268E+03 4.17862E+02-1.01721E-10 3.37280E-10
 -1         3-3.09564E+01-4.52114E+05 1.04481E+02-1.03273E+02-7.28768E-11 1.45610E-09
 -1         5-3.18810E+00 1.62391E+05 4.25275E+00-2.28890E-02 8.43137E-11 1.72395E-08
 -1         8-5.08067E+05-2.21416E+05-1.71860E+04-3.85551E+05 9.82254E-11 2.88856E-09
 -1         9-8.70654E+05-2.23998E+05-8.34490E+04-3.01981E+05 1.89611E-09 1.50176E-09
 -1        10-3.43450E+02-4.71010E+05-6.01890E+02-6.89840E+02-2.04022E-09-7.84523E-09
 -1        12-1.44290E+00 1.62400E+05 1.37876E+02 1.11331E-01 1.38627E-10 1.07502E-09
 -1        15 1.34460E+03 7.38929E+02 4.34640E+03 1.89950E+00-2.06535E-09-6.68297E-07
 -1        16-2.45353E+06-7.86274E+05-3.76181E+05-8.04315E+05 6.99947E-09-1.13505E-09
 -1        17-5.41693E+05-3.34208E+05-1.04228E+05-3.15211E+05-3.88609E-09 2.97587E-09
 -1        18 1.91600E+04 1.76829E+03-7.67952E+03-3.82297E+04 4.64524E-10 1.96633E-09
 -1        19 5.08870E+04 6.06868E+04-2.81473E+02 9.96967E+03-4.21733E-10 3.06391E-09
 -1        20-2.11019E+04-2.40522E+05-5.30351E+04 1.78807E+04 2.51104E-09-2.28344E-09
 -1        21-2.27746E+01-1.39534E+05-4.50712E+02-3.46441E+01-5.59969E-09-4.11361E-09
 -1        24-2.15777E+06-7.49236E+05-3.07973E+05-9.13402E+05-9.92562E-09-3.35664E-09
 -1        25 1.90985E+04-2.42310E+03 1.13887E+04-6.90484E+04 2.67801E-10 2.14841E-09
 -1        26-1.17624E+04 4.14751E+04-8.22321E+03-5.93598E+03 1.02882E-09-3.93015E-10
 -1        27-3.85202E+04-1.31980E+05-4.95134E+04 2.97429E+04 3.63336E-09-2.54507E-10
 -1        28 1.07838E+04-3.85441E+04 7.87678E+03 1.23676E+04 2.65079E-09-6.88807E-10
 -1        32-5.14548E+05-7.51889E+04 2.22442E+05-3.46910E+05-1.02809E-08 9.52066E-09
 -1        33-7.54887E+04 3.88223E+04 1.37629E+04-2.25512E+04 7.67841E-10 1.75730E-09
 -1        34-9.80106E+04-9.75359E+03 2.31715E+02 3.01319E+04 2.65429E-09-6.60596E-10
 -1        35-1.09716E+04-1.53297E+04-5.98049E+02 2.43022E+04 4.04181E-09 5.52973E-10
 -1        51 9.89722E+03-2.54339E+05 2.43955E+04-6.29743E+05 4.36557E-11 2.39379E-09
 -1        52 5.22742E+03-2.52390E+05 1.61618E+04-7.34481E+05 6.51198E-10 2.38651E-09
 -1        53 3.43633E+03-2.59015E+05 1.41182E+04-6.27597E+05 5.12955E-10 3.25963E-09
 -1        54 1.07532E+04-2.56913E+05 2.28851E+04-7.36756E+05 2.91038E-11-7.87622E-09
 -1        55 2.35491E+04-2.65317E+05 4.11779E+04-6.27311E+05 4.43833E-10 3.68163E-09
 -1        56-2.07234E+06-2.34240E+05-1.61932E+05-7.99190E+05 1.78261E-10 8.03266E-09
 -1        57-2.13738E+06-3.80679E+05-1.09140E+05-7.92957E+05-1.52340E-10 1.04465E-08
 -1        58-2.10474E+06-2.85644E+05-3.81188E+04-7.89193E+05 7.82165E-10-1.54614E-09
 -1        59-2.09989E+06-3.20423E+05-2.27557E+04-8.04974E+05 1.71212E-10-2.77169E-09
 -1        60-2.10952E+06-2.92765E+05-8.90805E+03-7.87792E+05-6.74618E-10-1.61253E-09
 -1        61-2.09483E+06-3.11604E+05-5.06464E+03-8.06043E+05-4.60204E-10 4.23211E-09
 -1        62-2.10973E+06-2.94247E+05-2.43970E+03-7.88189E+05-3.93811E-10-2.98643E-09
 -1        63-2.09562E+06-3.09024E+05-2.00198E+03-8.04391E+05-1.59162E-11-1.47290E-09
 -1        64-2.10869E+06-2.95346E+05-2.29850E+03-7.89423E+05-5.61613E-11-7.17137E-10
 -1        65-2.09875E+06-3.07310E+05-4.59278E+03-8.01193E+05 6.51085E-10-3.30328E-09
 -1        66-2.10655E+06-2.96014E+05-8.08562E+03-7.91344E+05-6.33918E-10 3.87899E-09
 -1        67-2.10690E+06-3.11593E+05-2.05120E+04-7.95982E+05-3.06429E-09-4.77303E-09
 -1        68-2.10055E+06-2.91288E+05-3.44365E+04-7.94541E+05 1.44792E-09-3.04863E-09
 -1        69-2.14369E+06-3.63033E+05-9.84613E+04-7.81823E+05 1.41699E-09 2.37924E-09
 -1        70-2.07006E+06-2.46127E+05-1.46164E+05-8.04950E+05-9.93168E-10 4.19095E-09
 -1        86-9.19105E+02 2.01833E+05 6.41239E+03-2.08943E+02 8.03311E-10 4.29770E-09
 -1        87 6.10074E+03 2.05746E+05 1.33747E+04 8.58486E+02 1.33900E-09 7.10455E-09
 -1        88-5.17468E+03 1.99750E+05 2.04801E+04-6.49571E+02 2.00362E-09 2.57251E-09
 -1        89 3.85646E+04 2.20876E+05 5.52268E+04 1.84565E+03 3.08319E-09 1.75538E-09
 -1        90-3.32775E+04 1.86712E+05 7.80159E+04-1.19583E+03 3.47063E-09 2.61480E-10
 -1       121-5.42426E+01-4.52286E+05 9.90232E+01 5.15977E+01 2.63704E-10 2.03727E-09
 -1       122 3.39877E+00-4.52091E+05 2.28211E+02-2.06670E+02-8.22913E-10-3.42470E-09
 -1       123-7.91723E+01-4.52310E+05 3.69488E+02 1.54843E+02 7.05285E-10-8.10360E-10
 -1       124 4.24280E+02-4.51833E+05 9.57384E+02-4.92397E+02-1.62174E-09 6.56155E-09
 -1       125-3.52759E+02-4.52548E+05 1.46828E+03 3.37313E+02 1.08230E-09 7.69433E-09
 -1       191-3.48795E+00 1.62405E+05 5.07764E+00 1.11594E-02 1.02743E-10 9.44783E-09
 -1       192-3.57867E+00 1.62391E+05 9.00512E+00 2.76285E-01 1.50989E-10 5.50608E-09
 -1       193-4.52664E+00 1.62405E+05 1.67420E+01-2.89406E-01 1.73083E-10 3.03817E-09
 -1       194-4.83573E+00 1.62393E+05 3.40642E+01 7.76249E-01 8.99165E-11-3.02589E-09
 -1       195-6.52314E+00 1.62404E+05 6.66272E+01-4.92143E-01 3.10209E-10-3.06545E-09
 -1       251 1.83134E+05-3.18965E+04 7.45215E+04 2.93352E+03 4.20641E-12-4.00178E-09
 -1       252 2.16820E+05 3.69114E+04 5.28280E+04-9.77576E+03-4.08590E-10-1.46701E-09
 -1       253 1.95916E+05-4.93929E+03 1.92895E+04 2.08784E+03-3.08205E-10 1.90175E-09
 -1       254 2.01785E+05 5.70831E+03 1.21829E+04-8.43842E+03-2.56932E-11 4.78167E-10
 -1       255 1.98117E+05-7.63255E+02 4.98510E+03 1.59633E+03 4.97948E-11 3.49951E-09
 -1       256 1.99160E+05 9.05611E+02 3.03029E+03-7.71190E+03 2.37719E-10 8.51247E-09
 -1       257 1.98517E+05-1.33840E+02 1.56348E+03 1.36130E+03-1.89061E-10 4.73369E-09
 -1       258 1.98753E+05 2.83816E+02 1.39132E+03-7.47446E+03 5.31631E-11-1.31385E-09
 -1       259 1.98516E+05-1.37818E+02 1.60103E+03 1.35890E+03-5.21084E-10 4.37808E-10
 -1       260 1.99175E+05 9.40397E+02 3.13749E+03-7.70286E+03 5.46599E-10 2.58132E-09
 -1       261 1.98102E+05-7.93761E+02 5.18036E+03 1.58971E+03 5.53655E-10 1.45496E-09
 -1       262 2.01892E+05 5.93829E+03 1.26659E+04-8.41889E+03 9.12223E-10-1.00749E-09
 -1       263 1.95822E+05-5.13760E+03 2.00672E+04 2.07494E+03-8.03936E-10 3.10138E-09
 -1       264 2.17503E+05 3.83958E+04 5.49428E+04-9.74529E+03-1.47764E-09 7.24231E-09
 -1       265 1.82545E+05-3.31762E+04 7.75280E+04 2.91593E+03-7.05199E-10 1.61890E-09
 -1       266-2.43417E+04-1.13822E+04 5.71123E+04-4.06435E+01-3.25599E-09-1.05563E-06
 -1       267 2.82188E+04 1.32661E+04 4.03662E+04 4.68945E+01-6.48970E-09-2.07839E-06
 -1       268-3.78408E+03-1.87885E+03 1.50039E+04-5.97517E+00-5.19958E-09-1.66456E-06
 -1       269 4.46789E+03 2.24858E+03 9.75232E+03 6.96018E+00-3.76770E-09-1.24817E-06
 -1       270-6.70636E+02-3.69461E+02 4.70758E+03-9.44543E-01-2.81079E-09-9.24230E-07
 -1       271-2.39230E+06-2.97892E+05-1.84094E+05-9.31220E+05 6.65750E-10-3.20142E-09
 -1       272-2.44335E+06-4.47215E+05-1.18359E+05-9.46856E+05-1.83036E-10-5.16593E-09
 -1       273-2.42728E+06-3.43384E+05-4.34840E+04-9.22648E+05-1.13914E-10 3.66708E-09
 -1       274-2.40252E+06-3.91430E+05-2.43457E+04-9.60051E+05-2.66027E-10-2.58296E-10
 -1       275-2.43267E+06-3.47510E+05-1.01138E+04-9.20552E+05-9.66338E-10 3.14367E-09
 -1       276-2.39616E+06-3.86590E+05-5.37570E+03-9.63436E+05-8.54925E-10 7.39669E-09
 -1       277-2.43389E+06-3.47407E+05-2.62520E+03-9.19728E+05-2.48292E-10 4.17117E-09
 -1       278-2.39500E+06-3.86576E+05-1.90167E+03-9.64424E+05 6.87095E-10 1.05896E-08
 -1       279-2.43396E+06-3.47387E+05-2.02945E+03-9.19679E+05-7.52152E-10 3.53816E-09
 -1       280-2.39579E+06-3.86462E+05-3.70792E+03-9.63673E+05 8.67658E-10 2.01135E-09
 -1       281-2.43300E+06-3.47620E+05-6.77812E+03-9.20391E+05-1.61890E-10 3.14776E-09
 -1       282-2.40044E+06-3.89168E+05-1.61786E+04-9.60780E+05-2.26009E-10 1.55251E-09
 -1       283-2.42906E+06-3.45285E+05-2.88860E+04-9.22194E+05-7.10315E-10-3.99268E-09
 -1       284-2.42832E+06-4.25249E+05-7.85158E+04-9.50854E+05 1.31877E-10-5.93536E-09
 -1       285-2.40527E+06-3.15736E+05-1.22218E+05-9.28531E+05 5.67525E-10-4.65661E-09
 -1       301 8.39286E+03-5.78536E+03 7.26762E+04-1.78738E+04 2.21917E-10-1.63971E-09
 -1       302 1.02377E+04 1.28986E+04 5.27294E+04-2.66905E+04-1.07889E-09-6.27483E-09
 -1       303 3.69823E+02 8.12135E+02 4.85105E+04-1.79090E+04 7.82165E-11 6.55973E-10
 -1       304 1.93038E+04 2.12114E+04 8.17871E+04-2.66171E+04-9.82254E-10 4.83396E-09
 -1       305 1.68821E+04-1.40483E+04 1.36661E+05-1.79014E+04 4.43833E-10 4.99858E-09
 -1       306-2.57477E+06-2.96639E+05-1.95357E+05-1.00427E+06 8.62201E-10-7.18137E-09
 -1       307-2.67191E+06-4.65295E+05-1.33203E+05-9.74477E+05 9.46329E-10-1.38243E-10
 -1       308-2.61921E+06-3.57268E+05-4.59657E+04-9.85868E+05 1.28557E-09 6.88851E-09
 -1       309-2.61698E+06-3.98264E+05-2.78439E+04-1.00019E+06-1.95701E-09 7.63430E-09
 -1       310-2.62948E+06-3.62476E+05-1.07885E+04-9.78990E+05-3.62832E-10 3.82215E-09
 -1       311-2.60371E+06-3.93747E+05-6.25477E+03-1.01011E+06 4.03637E-09-1.38380E-09
 -1       312-2.63255E+06-3.61539E+05-3.06048E+03-9.76085E+05 6.88431E-10 3.02566E-09
 -1       313-2.60114E+06-3.94191E+05-2.76368E+03-1.01250E+06-3.74358E-09 3.61847E-09
 -1       314-2.63209E+06-3.61983E+05-3.32813E+03-9.76632E+05-1.51255E-09-1.52988E-09
 -1       315-2.60551E+06-3.92273E+05-7.01795E+03-1.00802E+06 1.36941E-09 6.37749E-09
 -1       316-2.62810E+06-3.63535E+05-1.22458E+04-9.80502E+05 8.51074E-10-5.16593E-10
 -1       317-2.62105E+06-3.97059E+05-3.16533E+04-9.96357E+05-3.01134E-09 3.63798E-11
 -1       318-2.61650E+06-3.57465E+05-5.22725E+04-9.88152E+05-1.88402E-09 4.20187E-09
 -1       319-2.68285E+06-4.74159E+05-1.51544E+05-9.68162E+05-1.77351E-11 5.90080E-09
 -1       320-2.56659E+06-2.87756E+05-2.22170E+05-1.00824E+06 5.61340E-09 1.14960E-09
 -1       336 3.54573E+02-4.89628E+05-2.60525E+03 3.52084E+02-4.27599E-09 1.02136E-09
 -1       337-9.38908E+02-4.90350E+05-2.85403E+03-9.49584E+02-8.18272E-09 1.04092E-09
 -1       338 2.33417E+02-4.89705E+05-3.59236E+03 5.95979E+02-5.75221E-09 5.18048E-09
 -1       339-3.71431E+03-4.92051E+05-7.86624E+03-1.43300E+03-1.04501E-08 7.90169E-09
 -1       340 2.52782E+03-4.87947E+05-1.21195E+04 8.32724E+02-6.98265E-09 9.55242E-09
 -1       406 9.08097E+00 1.62397E+05 2.72202E+02 3.72999E-01 3.75962E-10-7.17137E-10
 -1       407 9.34670E+01 1.62448E+05 5.78555E+02-6.68390E+00 4.01315E-11-7.97718E-09
 -1       408 2.96359E+02 1.62356E+05 1.15550E+03 6.38570E+00 4.63729E-10 9.65883E-10
 -1       409 1.24810E+03 1.62817E+05 2.60147E+03-5.83747E+01 2.53522E-11 2.17915E-09
 -1       410 3.58859E+03 1.62027E+05 5.31084E+03 5.34002E+01 4.48381E-10 3.13366E-09
 -1       521-4.86066E+06-5.62125E+05-3.62107E+05-1.89055E+06 4.59841E-09-5.68980E-09
 -1       522-5.03563E+06-8.73866E+05-2.46049E+05-1.84102E+06-1.24146E-09-8.04357E-09
 -1       523-4.94496E+06-6.70428E+05-8.51375E+04-1.85410E+06 3.46517E-10-2.92493E-09
 -1       524-4.93164E+06-7.54001E+05-5.13143E+04-1.89155E+06-6.96900E-11-8.36735E-10
 -1       525-4.96406E+06-6.79165E+05-1.98747E+04-1.84100E+06 5.80030E-10 1.59071E-09
 -1       526-4.90974E+06-7.43596E+05-1.14568E+04-1.90686E+06-2.41866E-09 2.42244E-09
 -1       527-4.96691E+06-6.80291E+05-5.50451E+03-1.83905E+06 9.74637E-10 2.45541E-09
 -1       528-4.91293E+06-7.35906E+05-4.68153E+03-1.90113E+06 2.56819E-10-2.27487E-10
 -1       529-4.96070E+06-6.86910E+05-5.60884E+03-1.84663E+06 5.95264E-10 2.82034E-09
 -1       530-4.93205E+06-7.20085E+05-1.12523E+04-1.87924E+06-4.64388E-09 3.78577E-09
 -1       531-4.94748E+06-6.96388E+05-2.00053E+04-1.86068E+06-6.48697E-10 3.54885E-09
 -1       532-4.96898E+06-7.15877E+05-5.10876E+04-1.84767E+06-7.54625E-10-6.56109E-09
 -1       533-4.92391E+06-6.91525E+05-8.49222E+04-1.87808E+06 1.10231E-09-5.65342E-09
 -1       534-5.07425E+06-8.35449E+05-2.45580E+05-1.79826E+06-4.29281E-10 4.48199E-09
 -1       535-4.84341E+06-5.79224E+05-3.61034E+05-1.90955E+06-7.01402E-09 6.35919E-09
 -1       536-1.14920E+04-1.35852E+04 3.12924E+04 2.96260E+02-1.29864E-09 8.33097E-10
 -1       537 2.99290E+03 1.57189E+04 2.22952E+04-1.20110E+03-5.35476E-09 6.34827E-10
 -1       538-6.12739E+03-2.12913E+03 8.07164E+03 2.82152E+02 1.73017E-10 3.81760E-09
 -1       539-3.33611E+03 2.45777E+03 5.15411E+03-1.19742E+03 1.78190E-09 2.89782E-09
 -1       540-5.16972E+03-3.31347E+02 2.03788E+03 2.92589E+02 1.16552E-09 3.08387E-09
 -1       541-4.51038E+03 3.79014E+02 1.21752E+03-1.21680E+03-4.36700E-11 2.68062E-09
 -1       542-4.95726E+03-4.90365E+01 4.88162E+02 3.01524E+02-7.60508E-10-4.10580E-10
 -1       543-4.79374E+03 4.68225E+01 2.45703E+02-1.23099E+03-1.06204E-09-8.14078E-09
 -1       544-4.88906E+03 2.55865E+00 3.46767E+01 3.06776E+02-7.05924E-11-2.60042E-09
 -1       545-4.90392E+03-6.12119E+01-1.46356E+02-1.23763E+03-4.97337E-10-3.14420E-09
 -1       546-4.84832E+03 5.98298E+01-3.40971E+02 3.08162E+02 8.85119E-11-3.82221E-09
 -1       547-5.08252E+03-4.43262E+02-9.01717E+02-1.23646E+03-1.05710E-09 2.61998E-09
 -1       548-4.71022E+03 3.84161E+02-1.46375E+03 3.05610E+02-1.70329E-09-1.69393E-11
 -1       549-6.11775E+03-2.83202E+03-3.99175E+03-1.22653E+03-6.21348E-10-9.40304E-10
 -1       550-3.81133E+03 2.44548E+03-5.68653E+03 2.98233E+02 3.71188E-11-4.77939E-10
 -1       551 4.25109E+03-2.57751E+05 1.43334E+04-4.42314E+05-1.93613E-08-3.05590E-09
 -1       552 8.66948E+03-2.57654E+05 1.85559E+04-6.29381E+05-1.47484E-08 6.32099E-09
 -1       553 5.52917E+03-2.61040E+05 2.89323E+04-4.40906E+05-2.33777E-08 6.24277E-09
 -1       554 2.27651E+04-2.48160E+05 6.14498E+04-6.29983E+05-1.44355E-08 9.46102E-10
 -1       555 2.33770E+04-2.72820E+05 1.10492E+05-4.41512E+05-2.39233E-08-1.45701E-09
 -1       556 3.57897E+04-8.22121E+04 2.85985E+04-1.10110E+05-4.34011E-09 1.32422E-09
 -1       557 6.91899E+04-1.10304E+05 1.49593E+04-1.37521E+05-2.53203E-09-7.17182E-09
 -1       558 3.61958E+04-8.63207E+04 6.13775E+03-1.06542E+05-1.03319E-09 9.90440E-09
 -1       559 6.52605E+04-1.14403E+05 3.08574E+03-1.39111E+05 1.76806E-09 1.74168E-09
 -1       560 3.56047E+04-8.59107E+04 1.32202E+03-1.06877E+05-2.76486E-10 4.37831E-09
 -1       561 6.41958E+04-1.14217E+05 6.81576E+02-1.39775E+05-1.09503E-09-1.32513E-09
 -1       562 3.50987E+04-8.55573E+04 2.78520E+02-1.07246E+05-1.56797E-09 1.07639E-09
 -1       563 6.35859E+04-1.13957E+05 1.59506E+02-1.40164E+05-3.47791E-09-7.18887E-09
 -1       564 3.47836E+04-8.53497E+04 5.92103E+01-1.07472E+05 1.43336E-09 1.27329E-10
 -1       565 6.32730E+04-1.13825E+05 2.79902E+01-1.40359E+05 1.88948E-09 4.30191E-10
 -1       566 3.46763E+04-8.52757E+04-2.02862E+01-1.07552E+05-1.84173E-09 8.68749E-09
 -1       567 6.32290E+04-1.13803E+05-8.20981E+01-1.40346E+05-2.84103E-09 2.85945E-09
 -1       568 3.47982E+04-8.53575E+04-2.12588E+02-1.07505E+05-8.35189E-09 6.27551E-10
 -1       569 6.30320E+04-1.13685E+05-5.01789E+02-1.39762E+05-2.39015E-09 3.31420E-09
 -1       570 3.54979E+04-8.60424E+04-1.03246E+03-1.07580E+05 1.62254E-09-4.14275E-09
 -1       571 1.17775E+05 4.26992E+03 6.32479E+03-2.95803E+04 7.37600E-10 3.40606E-10
 -1       572 1.18717E+05 1.48521E+03 3.09852E+03-3.24251E+04-7.55790E-10-2.92630E-09
 -1       573 1.18156E+05 3.53970E+02 1.37646E+03-2.95031E+04-1.99270E-09 2.18984E-09
 -1       574 1.18269E+05 1.14395E+02 6.89498E+02-3.25117E+04-1.74896E-09 5.15320E-09
 -1       575 1.18201E+05 1.49251E+01 3.24922E+02-2.94928E+04 1.34833E-10 2.36446E-09
 -1       576 1.18209E+05 3.15583E+00 1.65297E+02-3.25233E+04 6.32895E-10 5.83782E-09
 -1       577 1.18207E+05-3.29742E+00 8.13666E+01-2.94914E+04 2.42295E-09 5.18776E-09
 -1       578 1.18202E+05-1.91357E+00 4.42415E+01-3.25247E+04 2.42949E-10 7.97172E-10
 -1       579 1.18212E+05-3.36052E+00 2.69693E+01-2.94914E+04-4.12911E-10-3.15003E-09
 -1       580 1.18208E+05-3.68218E+00 2.49461E+01-3.25229E+04-8.96762E-10 7.71024E-10
 -1       581 1.18220E+05-5.32075E+00 3.37928E+01-2.94933E+04-7.19865E-10-1.52340E-11
 -1       582 1.18224E+05 7.07218E-01 6.41143E+01-3.25052E+04-5.95264E-10 6.57337E-09
 -1       583 1.18229E+05 1.81535E+01 1.23272E+02-2.95091E+04 5.33873E-10 4.98517E-10
 -1       584 1.18280E+05 1.15326E+02 2.76069E+02-3.23734E+04-5.53428E-10-4.65832E-09
 -1       585 1.18209E+05 3.60020E+02 5.61164E+02-2.96252E+04-9.95897E-11-2.60206E-09
 -1       586-1.46631E+03 3.83784E+04-1.93378E+03-1.00776E+05 3.11502E-10-1.88084E-09
 -1       587-3.27623E+02 3.81211E+04-2.33619E+02-1.10896E+05 5.35692E-10 2.24418E-09
 -1       588 3.89613E+02 3.81709E+04 1.33362E+03-1.00715E+05 2.88310E-10 1.97724E-09
 -1       589 1.98948E+03 3.88992E+04 3.90811E+03-1.10804E+05 4.21096E-10-6.73458E-09
 -1       590 5.73682E+03 3.76774E+04 8.37899E+03-1.00868E+05 2.48747E-10 3.48336E-10
 -1       591-2.56290E+04-7.35854E+03-8.55257E+03-1.33139E+04-2.66880E-10-4.65934E-09
 -1       592-2.64271E+04-9.46194E+03-4.63243E+03-1.55476E+04 1.65346E-09 4.41236E-09
 -1       593-2.64935E+04-6.72842E+03-1.92851E+03-1.39312E+04 4.76916E-10 1.01420E-09
 -1       594-2.52348E+04-8.21902E+03-9.61859E+02-1.56067E+04-1.47924E-09-4.77849E-09
 -1       595-2.65595E+04-6.72569E+03-4.42037E+02-1.39595E+04 6.09361E-11 6.49426E-09
 -1       596-2.51540E+04-8.16212E+03-2.25341E+02-1.55981E+04 3.10712E-09 8.26083E-09
 -1       597-2.65679E+04-6.73120E+03-1.24050E+02-1.39606E+04 1.95833E-10 1.20488E-09
 -1       598-2.51464E+04-8.15994E+03-1.02187E+02-1.55958E+04-4.59153E-10 1.93768E-09
 -1       599-2.65674E+04-6.73115E+03-1.33578E+02-1.39604E+04-3.38218E-10 1.73674E-09
 -1       600-2.51552E+04-8.16279E+03-2.50630E+02-1.55982E+04 1.26914E-09-9.32823E-09
 -1       601-2.65571E+04-6.72501E+03-4.95660E+02-1.39588E+04-1.22225E-09-7.56950E-09
 -1       602-2.52462E+04-8.22656E+03-1.08103E+03-1.56069E+04-4.77428E-10 1.46798E-09
 -1       603-2.64822E+04-6.72899E+03-2.16817E+03-1.39273E+04-8.84825E-10 1.26215E-09
 -1       604-2.65912E+04-9.61914E+03-5.20850E+03-1.55343E+04 2.20837E-10 6.95422E-10
 -1       605-2.55046E+04-7.44154E+03-9.61594E+03-1.32381E+04-4.61853E-10-2.90038E-09
 -1       606 1.68486E+04-5.66772E+03-1.02106E+04 1.64888E+04-3.39787E-09 6.47105E-10
 -1       607 1.51002E+04-1.82797E+03-5.08453E+03 1.85095E+04-7.09406E-11-4.59431E-09
 -1       608 1.60971E+04-3.07220E+02-2.27641E+03 1.63572E+04-1.49203E-08-1.53523E-09
 -1       609 1.59013E+04-8.15810E+01-1.14997E+03 1.86550E+04-3.71747E-08 9.59517E-11
 -1       610 1.60105E+04 1.31165E+01-5.48938E+02 1.63425E+04-1.30221E-08-1.00044E-10
 -1       611 1.59751E+04 1.80697E+01-2.77009E+02 1.86710E+04 9.80208E-09-8.64702E-10
 -1       612 1.59903E+04 1.95406E+01-1.32335E+02 1.63410E+04 2.37560E-09-7.29642E-10
 -1       613 1.59781E+04 2.06224E+01-6.04442E+01 1.86729E+04-4.05089E-09 2.66766E-09
 -1       614 1.59803E+04 1.78670E+01-1.68219E+01 1.63405E+04 1.15097E-09 1.21133E-09
 -1       615 1.59746E+04 2.19489E+01 1.86535E+01 1.86732E+04 5.30235E-09 1.73338E-09
 -1       616 1.59727E+04 1.96616E+01 6.21503E+01 1.63407E+04-2.08320E-09 6.41649E-10
 -1       617 1.59807E+04 3.62062E+01 1.44080E+02 1.86730E+04-3.29237E-10-2.28556E-09
 -1       618 1.59591E+04 6.19727E+01 2.91338E+02 1.63408E+04 1.12095E-10-4.42014E-10
 -1       619 1.60828E+04 2.62197E+02 6.54788E+02 1.86726E+04-2.52953E-10-3.45835E-10
 -1       620 1.58616E+04 7.53867E+02 1.31630E+03 1.63403E+04 1.53250E-09 1.18939E-09
 -1       621 2.05654E+02 1.28261E+05 1.77525E+03 4.07604E+03-1.48511E-10 1.18143E-09
 -1       622 2.34980E+02 1.28701E+05 1.50562E+03 5.94939E+03-1.65983E-10-3.17186E-10
 -1       623 1.01822E+01 1.28388E+05 1.73010E+03 4.05679E+03-1.25851E-10 5.33475E-10
 -1       624 7.82853E+02 1.29204E+05 3.28417E+03 5.96831E+03-9.28253E-11-2.06245E-09
 -1       625 7.85741E+02 1.27756E+05 5.70881E+03 4.05729E+03-1.51658E-10-3.37610E-09
 -1       626 1.05802E+05 2.93609E+04 2.11179E+03 5.72591E+04-1.58252E-09 2.04091E-09
 -1       627 1.04349E+05 3.04314E+04 1.01725E+03 5.95801E+04-2.91493E-10-3.81272E-09
 -1       628 1.05886E+05 2.83600E+04 4.29934E+02 5.75788E+04 2.33013E-09 4.66571E-10
 -1       629 1.04048E+05 3.01905E+04 2.10569E+02 5.97222E+04 1.74259E-09 3.09228E-10
 -1       630 1.05894E+05 2.83109E+04 9.75088E+01 5.75891E+04 1.21418E-10 4.54520E-10
 -1       631 1.04013E+05 3.01841E+04 5.23480E+01 5.97258E+04-3.08864E-09-3.47744E-09
 -1       632 1.05891E+05 2.83134E+04 3.46246E+01 5.75857E+04-4.64206E-09 1.14852E-10
 -1       633 1.04008E+05 3.01865E+04 3.86097E+01 5.97231E+04-2.46393E-09-1.74120E-09
 -1       634 1.05886E+05 2.83132E+04 6.25671E+01 5.75838E+04-5.35056E-09 6.99617E-09
 -1       635 1.04011E+05 3.01871E+04 1.26879E+02 5.97235E+04-8.77628E-09 2.79683E-08
 -1       636 1.05880E+05 2.83125E+04 2.56350E+02 5.75822E+04-1.03414E-08 7.04449E-09
 -1       637 1.04063E+05 3.02280E+04 5.63460E+02 5.97208E+04-2.45563E-09-7.06916E-09
 -1       638 1.05857E+05 2.84385E+04 1.15816E+03 5.75239E+04-1.36987E-09-1.93950E-10
 -1       639 1.04668E+05 3.10758E+04 2.73991E+03 5.95400E+04-4.04862E-09-5.15593E-09
 -1       640 1.05774E+05 3.09616E+04 5.68627E+03 5.64525E+04-1.24737E-09-1.08753E-09
 -1       656 2.86908E+04-7.26192E+05-6.92747E+04-5.11066E+02 2.61934E-10-4.25453E-09
 -1       657-3.79095E+04-7.57482E+05-5.72892E+04 4.75259E+03 1.75078E-10-6.12197E-09
 -1       658 9.09554E+03-7.35123E+05-3.51571E+04-9.53661E+02-4.68617E-10-1.36335E-09
 -1       659-4.06399E+04-7.58767E+05-6.08751E+04 5.04394E+03-7.34417E-10 2.10128E-09
 -1       660 3.14137E+04-7.24909E+05-7.54489E+04-8.02402E+02 3.63798E-11-2.00799E-09
 -1       661 1.03296E+05 1.12192E+04 9.89950E+03 4.03260E+04 1.39289E-09 2.37242E-09
 -1       662 1.08423E+05 1.90120E+04 6.67057E+03 3.86364E+04 5.08862E-10 2.79522E-09
 -1       663 1.05232E+05 1.44022E+04 2.33343E+03 3.97702E+04-6.30223E-10 3.33443E-10
 -1       664 1.06184E+05 1.52834E+04 1.39499E+03 3.93094E+04 3.47868E-10-5.44453E-09
 -1       665 1.05519E+05 1.48431E+04 5.50328E+02 3.96923E+04-2.00291E-09-4.00594E-09
 -1       666 1.05850E+05 1.47740E+04 3.20829E+02 3.94069E+04-4.34053E-09 6.89693E-09
 -1       667 1.05565E+05 1.48984E+04 1.69185E+02 3.96776E+04-2.36854E-09 4.39922E-09
 -1       668 1.05803E+05 1.47271E+04 1.69350E+02 3.94266E+04 2.32347E-12-1.96839E-09
 -1       669 1.05566E+05 1.48887E+04 2.26948E+02 3.96731E+04 3.11417E-10 4.69583E-10
 -1       670 1.05865E+05 1.48422E+04 4.91825E+02 3.94206E+04 5.97476E-09 2.29114E-09
 -1       671 1.05503E+05 1.47857E+04 8.72616E+02 3.96827E+04 6.87816E-10 3.45443E-09
 -1       672 1.06379E+05 1.56862E+04 2.23195E+03 3.92922E+04-4.49685E-09-3.49178E-09
 -1       673 1.05055E+05 1.40661E+04 3.74022E+03 3.97934E+04-2.60906E-09-2.21803E-09
 -1       674 1.09944E+05 2.16904E+04 1.06966E+04 3.82405E+04 2.21917E-10-7.77959E-10
 -1       675 1.01961E+05 8.94948E+03 1.58766E+04 4.06713E+04-1.16097E-09-6.14818E-10
 -1       676 1.16947E+01-1.39497E+05-5.43221E+02 1.73225E+01-6.40597E-10-4.29798E-09
 -1       677-1.44191E+02-1.39628E+05-9.94118E+02-3.46394E+01-3.70267E-09-4.40341E-09
 -1       678 9.62741E+01-1.39403E+05-1.75732E+03 1.73049E+01-1.60412E-09-3.76025E-09
 -1       679-1.75753E+03-1.40689E+05-4.17434E+03-3.45614E+01-2.25344E-09-7.39770E-09
 -1       680 1.04881E+03-1.38436E+05-6.72769E+03 1.70455E+01-4.92491E-10-1.37527E-09
 -1       771-1.50056E+06-2.60806E+05-3.64852E+04-6.21054E+05-5.53337E-09-3.60887E-09
 -1       772-1.49117E+06-2.81055E+05-1.96143E+04-6.43603E+05-4.38013E-09 1.80535E-09
 -1       773-1.50535E+06-2.57102E+05-8.39946E+03-6.23098E+05-3.38332E-09 2.72303E-09
 -1       774-1.48583E+06-2.76636E+05-4.10724E+03-6.45497E+05 2.88128E-09 3.27418E-10
 -1       775-1.50629E+06-2.56536E+05-2.03472E+03-6.23219E+05-5.33691E-09 2.19734E-09
 -1       776-1.48566E+06-2.76602E+05-9.49085E+02-6.46384E+05-6.22640E-09 8.94579E-09
 -1       777-1.50689E+06-2.56118E+05-5.62505E+02-6.23267E+05-3.03407E-09 2.42471E-09
 -1       778-1.48579E+06-2.76716E+05-2.57735E+02-6.47114E+05 1.61526E-09 2.95222E-09
 -1       779-1.50735E+06-2.55761E+05-2.40157E+02-6.23308E+05-3.34694E-10-1.48430E-09
 -1       780-1.48595E+06-2.76818E+05-1.98686E+02-6.47705E+05-1.82445E-09 4.04725E-11
 -1       781-1.50769E+06-2.55473E+05-3.50757E+02-6.23335E+05-4.44015E-09-1.02273E-09
 -1       782-1.48612E+06-2.76928E+05-6.53598E+02-6.48140E+05-6.74754E-09-1.83366E-09
 -1       783-1.50789E+06-2.55288E+05-1.30630E+03-6.23339E+05-4.59295E-09-7.39067E-09
 -1       784-1.48698E+06-2.77809E+05-3.10061E+03-6.48370E+05-4.22870E-09 2.51816E-10
 -1       785-1.50744E+06-2.55605E+05-5.73149E+03-6.22930E+05-5.65433E-09 7.23048E-10
 -1       786 1.09220E+05-5.83159E+03 1.34908E+04 1.47690E+00 9.42988E-08 2.59115E-09
 -1       787 1.15066E+05 6.75113E+03 9.54463E+03-7.27101E+00 1.87211E-07 2.23281E-09
 -1       788 1.11476E+05-9.14164E+02 3.49174E+03 2.46108E+00 2.67223E-07 7.85576E-10
 -1       789 1.12439E+05 1.05774E+03 2.19390E+03-9.87892E+00 3.47790E-07 8.67183E-09
 -1       790 1.11848E+05-1.42807E+02 8.92697E+02 4.08483E+00 4.74250E-07-1.88669E-09
 -1       791 1.12005E+05 1.65928E+02 5.24173E+02-1.40646E+01 6.01646E-07 4.87720E-09
 -1       792 1.11910E+05-2.30209E+01 2.39312E+02 6.64687E+00 8.40116E-07-2.24475E-09
 -1       793 1.11934E+05 3.23723E+01 1.56995E+02-2.05978E+01 1.07709E-06 3.31536E-09
 -1       794 1.11918E+05-9.33958E+00 1.16564E+02 1.06181E+01 5.38608E-07-4.98199E-09
 -1       795 1.11941E+05 4.82902E+01 1.69003E+02-3.06688E+01 1.92693E-09 6.22492E-10
 -1       796 1.11903E+05-3.89268E+01 2.53395E+02 1.67181E+01-1.76459E-10 1.48134E-09
 -1       797 1.12056E+05 2.85381E+02 5.97665E+02-4.61053E+01-8.86589E-11 2.77340E-09
 -1       798 1.11803E+05-2.46255E+02 9.43484E+02 2.60548E+01-8.29634E-11-1.80682E-09
 -1       799 1.12764E+05 1.81822E+03 2.57212E+03-6.98593E+01-4.71621E-10-5.62341E-09
 -1       800 1.11196E+05-1.57053E+03 3.63347E+03 4.04722E+01-6.43974E-11-5.01473E-09
 -1       801-6.31864E+03 1.02830E+04 9.84867E+03 1.16006E+04 6.42535E-09-1.87197E-09
 -1       802 1.65572E+04 5.68494E+04 3.18409E+04-4.77756E+04 1.72449E-08-3.09555E-10
 -1       803-9.84097E+03 2.68060E+04 4.09207E+04 1.10111E+04 1.35187E-08 1.13888E-08
 -1       804 7.92052E+04 9.01243E+04 1.13913E+05-4.82957E+04 1.60289E-08 1.39728E-08
 -1       805-6.89862E+04-2.28485E+04 1.48573E+05 1.21197E+04 5.68252E-09 1.51139E-08
 -1       806-1.28373E+05-2.75118E+04-1.09126E+04-5.34671E+04-4.95447E-10 1.22691E-09
 -1       807-1.29014E+05-2.59503E+04-5.36109E+03-5.63620E+04-2.04705E-09-6.24874E-09
 -1       808-1.28683E+05-2.35693E+04-2.27423E+03-5.53184E+04 5.72982E-11 5.73600E-10
 -1       809-1.27870E+05-2.44617E+04-1.11182E+03-5.65168E+04 8.95966E-10 2.53965E-09
 -1       810-1.28731E+05-2.34300E+04-5.09081E+02-5.54002E+04 7.37600E-10-2.07137E-10
 -1       811-1.27783E+05-2.44028E+04-2.52478E+02-5.65041E+04-8.97785E-10 2.61275E-09
 -1       812-1.28740E+05-2.34401E+04-1.25944E+02-5.54002E+04 4.88058E-09-3.33716E-09
 -1       813-1.27772E+05-2.44042E+04-7.94522E+01-5.64978E+04 1.20198E-08-2.21075E-09
 -1       814-1.28740E+05-2.34435E+04-7.44074E+01-5.53988E+04 4.33374E-09 4.50200E-11
 -1       815-1.27774E+05-2.44053E+04-1.16542E+02-5.64966E+04-4.06089E-10 1.55023E-09
 -1       816-1.28733E+05-2.34421E+04-2.18259E+02-5.53977E+04-7.45786E-10 4.43129E-09
 -1       817-1.27812E+05-2.44260E+04-4.68172E+02-5.64935E+04 1.79716E-09-8.35371E-10
 -1       818-1.28706E+05-2.35072E+04-9.54009E+02-5.53670E+04-2.72667E-09-5.68139E-09
 -1       819-1.28340E+05-2.49984E+04-2.24568E+03-5.63668E+04-2.37674E-09-8.65043E-10
 -1       820-1.28525E+05-2.52049E+04-4.57014E+03-5.46438E+04 3.07909E-09 1.99668E-09
 -1       821-1.65924E+05 9.21135E+03-2.13050E+04 9.49739E+00-2.06367E-10 2.27374E-11
 -1       822-1.75156E+05-1.06637E+04-1.50757E+04-1.85293E+02-1.45014E-09-1.14414E-09
 -1       823-1.69487E+05 1.44400E+03-5.51810E+03-2.34146E+01 8.40181E-10 2.35582E-09
 -1       824-1.71005E+05-1.67138E+03-3.47254E+03-1.08006E+02-1.06091E-10 6.20821E-09
 -1       825-1.70075E+05 2.26088E+02-1.42654E+03-6.77924E+01-2.66134E-09 2.26805E-11
 -1       826-1.70321E+05-2.66664E+02-8.62807E+02-1.95317E+01-4.14423E-09-3.22761E-09
 -1       827-1.70170E+05 4.03075E+01-4.45147E+02-1.11890E+02-3.36283E-09-1.23539E-09
 -1       828-1.70227E+05-8.15026E+01-3.95174E+02 5.70405E+01-3.80342E-09 2.28566E-09
 -1       829-1.70169E+05 4.10769E+01-4.51798E+02-1.44366E+02-9.54063E-11 2.61677E-09
 -1       830-1.70328E+05-2.73162E+02-8.83080E+02 1.02032E+02 1.60991E-09 4.04623E-09
 -1       831-1.70070E+05 2.31864E+02-1.46173E+03-1.56883E+02-1.35361E-09-2.23224E-09
 -1       832-1.71029E+05-1.71421E+03-3.56184E+03 1.04150E+02-6.43399E-10-2.27402E-09
 -1       833-1.69468E+05 1.48108E+03-5.65959E+03-1.46484E+02-8.72863E-10 3.86763E-10
 -1       834-1.75284E+05-1.09378E+04-1.54635E+04 6.41478E+01 4.76849E-10 8.11337E-09
 -1       835-1.65815E+05 9.44815E+03-2.18532E+04-1.16876E+02 3.11428E-09 2.85763E-09
 -1       836-5.53267E+02 1.57343E+05 9.47253E+03-1.38255E+04 1.22236E-09-5.67070E-10
 -1       837 2.08122E+03 1.60278E+05 8.08320E+03-2.77847E+04 1.77454E-09 6.83826E-10
 -1       838-2.05565E+02 1.58162E+05 8.33113E+03-1.37773E+04 1.57866E-09 2.48463E-09
 -1       839 5.34122E+03 1.62714E+05 1.58542E+04-2.78025E+04 1.99520E-09-9.22455E-10
 -1       840-1.60975E+03 1.54893E+05 2.53198E+04-1.38069E+04 1.28966E-09-1.45133E-09
 -1       856-5.21673E+04 4.45154E+03-1.17299E+04-2.51111E+02-2.01663E-09-1.14596E-10
 -1       857-5.70137E+04-5.22177E+03-8.07613E+03 2.68983E+03-1.38978E-09-8.43647E-09
 -1       858-5.40820E+04 6.23937E+02-3.04420E+03-2.59663E+02-2.52970E-09 1.10879E-09
 -1       859-5.48139E+04-7.26592E+02-1.83882E+03 2.70325E+03 2.62759E-10 1.54392E-09
 -1       860-5.43685E+04 8.69180E+01-7.73178E+02-2.64590E+02 1.32928E-10-1.18069E-09
 -1       861-5.44835E+04-9.74290E+01-4.30851E+02 2.70992E+03-2.78997E-09-7.03628E-09
 -1       862-5.44131E+04 1.16585E+01-1.90079E+02-2.66346E+02 1.46636E-09-2.01275E-09
 -1       863-5.44307E+04-8.74180E+00-9.41633E+01 2.71071E+03 3.95222E-09 6.98943E-10
 -1       864-5.44213E+04 1.44701E-01-2.98769E+01-2.65379E+02 1.35233E-09 2.61133E-09
 -1       865-5.44160E+04 1.15432E+01 1.66869E+01 2.70573E+03 1.44357E-09 1.97109E-09
 -1       866-5.44273E+04-8.69701E+00 6.26727E+01-2.61364E+02-1.30359E-09-7.23838E-09
 -1       867-5.43801E+04 7.35667E+01 1.72323E+02 2.69487E+03-1.60713E-09-3.74388E-09
 -1       868-5.44560E+04-6.11425E+01 2.91372E+02-2.54524E+02-1.20383E-09-3.92876E-09
 -1       869-5.41630E+04 5.08549E+02 7.81565E+02 2.67627E+03-5.13472E-09-9.94953E-09
 -1       870-5.46426E+04-4.32409E+02 1.13442E+03-2.42758E+02-1.00187E-09 6.15103E-10
 -1       871-2.41291E+03-5.02635E+03-7.87889E+03 5.16559E+04 1.24419E-09 2.30557E-09
 -1       872-1.04528E+03-6.78525E+03-3.20837E+03 6.69671E+04 3.03862E-09 2.99951E-09
 -1       873-1.80048E+01-5.95328E+03 4.70313E+02 5.15412E+04 1.00522E-09 4.92309E-09
 -1       874 1.22419E+03-4.80460E+03 4.49726E+03 6.69915E+04 2.74292E-09-6.80870E-10
 -1       875 2.89462E+03-7.02704E+03 9.96768E+03 5.16350E+04 2.11821E-09-2.59433E-09
 -1       876 1.29428E+05 2.22978E+04 6.94102E+03 5.25027E+04-3.73427E-09-7.80346E-10
 -1       877 1.29822E+05 2.38237E+04 3.70656E+03 5.45594E+04-3.02782E-09-4.41293E-09
 -1       878 1.30078E+05 2.15286E+04 1.55295E+03 5.30724E+04 1.37675E-09-2.40902E-10
 -1       879 1.28878E+05 2.28837E+04 7.73523E+02 5.46100E+04-1.06752E-10 2.82577E-09
 -1       880 1.30126E+05 2.15194E+04 3.60152E+02 5.30956E+04 1.72815E-09 7.34161E-10
 -1       881 1.28816E+05 2.28440E+04 1.91747E+02 5.46012E+04 2.31239E-09 9.05295E-10
 -1       882 1.30131E+05 2.15246E+04 1.21756E+02 5.30963E+04 4.56453E-10-1.45549E-09
 -1       883 1.28811E+05 2.28423E+04 1.29369E+02 5.45989E+04-1.22952E-09-1.85086E-09
 -1       884 1.30129E+05 2.15230E+04 2.04456E+02 5.30964E+04-9.61137E-09 2.26726E-09
 -1       885 1.28827E+05 2.28452E+04 4.10240E+02 5.46042E+04-1.14547E-08 1.20139E-08
 -1       886 1.30113E+05 2.15110E+04 8.26468E+02 5.30948E+04-6.47132E-09 1.04353E-09
 -1       887 1.28973E+05 2.29404E+04 1.80523E+03 5.46249E+04-3.83616E-09 6.94627E-10
 -1       888 1.29999E+05 2.15314E+04 3.63765E+03 5.30370E+04-2.71754E-09-3.62888E-10
 -1       889 1.31141E+05 2.51908E+04 8.69038E+03 5.45554E+04 7.34939E-10 3.48746E-09
 -1       890 1.28515E+05 2.32927E+04 1.62761E+04 5.16503E+04 2.74304E-09 2.77305E-09
 -1       891-7.78652E+01-7.36275E+04-8.66186E+02 1.40165E+04-7.90351E-10 6.89215E-09
 -1       892-1.35700E+02-7.38375E+04-9.43735E+02 2.12147E+04 1.98384E-10-1.25192E-09
 -1       893-1.85695E+01-7.36567E+04-1.34957E+03 1.40190E+04 1.97792E-09 1.04228E-09
 -1       894-7.31119E+02-7.43616E+04-2.80368E+03 2.11399E+04-2.50111E-10 4.60705E-09
 -1       895-5.69042E+02-7.30782E+04-4.93991E+03 1.40906E+04-3.17044E-10 3.40833E-09
 -1       956-1.62539E+05-2.34517E+03-5.90452E+03 1.07359E+04-1.85946E-09-2.27249E-09
 -1       957-1.63705E+05-7.92047E+02-3.03134E+03 1.29228E+04-1.38857E-09-3.39742E-09
 -1       958-1.63061E+05-6.38576E+01-1.36553E+03 1.06662E+04 1.24464E-09-1.82808E-10
 -1       959-1.63152E+05-1.31879E+01-6.97581E+02 1.29981E+04-1.01477E-09 3.25826E-09
 -1       960-1.63105E+05 1.74476E+01-3.39927E+02 1.06599E+04-3.18641E-09 2.09377E-09
 -1       961-1.63110E+05 1.49582E+01-1.80281E+02 1.30052E+04-4.05544E-09 8.30255E-10
 -1       962-1.63113E+05 1.41077E+01-1.02892E+02 1.06591E+04-1.11822E-09-6.99208E-09
 -1       963-1.63107E+05 1.49686E+01-8.21340E+01 1.30063E+04-2.86627E-09-3.93572E-09
 -1       964-1.63115E+05 1.48113E+01-9.90473E+01 1.06588E+04-7.59826E-10-1.10958E-10
 -1       965-1.63113E+05 1.65640E+01-1.70603E+02 1.30063E+04 2.04203E-09 7.42489E-10
 -1       966-1.63110E+05 1.94968E+01-3.19858E+02 1.06591E+04-1.81302E-09-3.36172E-10
 -1       967-1.63156E+05-8.26077E+00-6.55834E+02 1.30024E+04-5.74062E-10 3.03459E-09
 -1       968-1.63070E+05-5.53829E+01-1.28322E+03 1.06627E+04-4.78849E-10 1.89397E-09
 -1       969-1.63678E+05-7.38872E+02-2.84908E+03 1.29585E+04 1.25362E-09-1.70175E-10
 -1       970-1.62582E+05-2.19856E+03-5.54915E+03 1.07041E+04 1.41472E-09 1.99543E-09
 -1       971-1.54515E+05-8.17724E+02-4.54960E+03 7.61109E+03-9.66793E-10-8.27214E-10
 -1       972-1.55622E+05-5.88096E+02-2.47803E+03 1.06199E+04-2.40743E-09-3.62843E-09
 -1       973-1.55019E+05-6.24667E+00-1.10924E+03 7.54896E+03 1.79398E-09-1.65062E-09
 -1       974-1.55094E+05-8.46419E+00-5.74781E+02 1.06864E+04 8.92499E-09-1.39858E-09
 -1       975-1.55056E+05 1.34769E+01-2.86427E+02 7.54400E+03 3.87126E-09 4.25757E-10
 -1       976-1.55061E+05 1.39491E+01-1.64067E+02 1.06921E+04-2.26964E-09-3.25895E-09
 -1       977-1.55062E+05 1.23098E+01-1.16704E+02 7.54319E+03 1.02909E-09-1.39352E-09
 -1       978-1.55061E+05 1.57723E+01-1.33482E+02 1.06933E+04 6.54444E-09 1.39403E-09
 -1       979-1.55061E+05 1.54199E+01-2.11683E+02 7.54287E+03 4.73210E-09 1.85702E-09
 -1       980-1.55076E+05 1.68568E+01-4.06991E+02 1.06934E+04 2.77210E-09 5.08805E-10
 -1       981-1.55048E+05 2.56192E+01-7.87237E+02 7.54308E+03-1.35077E-09 2.68528E-10
 -1       982-1.55185E+05-4.08570E+01-1.62663E+03 1.06905E+04-2.75804E-09-4.97815E-09
 -1       983-1.54950E+05-2.40812E+01-3.16007E+03 7.54580E+03 1.35924E-09-5.79348E-10
 -1       984-1.56706E+05-1.69000E+03-7.07634E+03 1.06484E+04-2.97291E-10 4.92571E-09
 -1       985-1.53521E+05-2.33567E+03-1.29944E+04 7.58735E+03 2.33831E-09 4.66116E-09
 -3
    1PSTEP                         5           3           1          
  100CL  103 3.75000E-01         409                     0    3           1
 -4  DISP        4    1
 -5  D1          1    2    1    0
 -5  D2          1    2    2    0
 -5  D3          1    2    3    0
 -5  ALL         1    2    0    0    1ALL
 -1         1 9.81731E-05 0.00000E+00 0.00000E+00
 -1         2 9.05683E-05 1.01330E-29 0.00000E+00
 -1         3 8.39398E-05 2.12610E-27 6.61744E-24
 -1         5 6.03115E-05 2.71436E-26 0.00000E+00
 -1         8 7.83885E-05-7.16242E-07 0.00000E+00
 -1         9 7.96673E-05 4.78771E-07 0.00000E+00
 -1        10 7.77675E-05-1.14676E-06 3.30872E-24
 -1        12 5.98897E-05 4.08912E-07 0.00000E+00
 -1        15 5.48436E-05-7.80085E-07 2.06795E-25
 -1        16 5.67297E-05 3.73567E-07 0.00000E+00
 -1        17 5.79392E-05-2.41234E-06 0.00000E+00
 -1        18 5.78341E-05 2.16291E-07 0.00000E+00
 -1        19 5.86246E-05 8.15574E-07 0.00000E+00
 -1        20 5.87313E-05 1.20625E-05 0.00000E+00
 -1        21 5.83292E-05 2.28011E-05 0.00000E+00
 -1        24 1.47874E-05-3.24976E-06 0.00000E+00
 -1        25 5.64933E-05 3.10111E-07 0.00000E+00
 -1        26 5.72406E-05 1.13635E-06 0.00000E+00
 -1        27 5.61095E-05 1.02450E-05 0.00000E+00
 -1        28 5.57437E-05 2.24518E-05 0.00000E+00
 -1        32 0.00000E+00 0.00000E+00 0.00000E+00
 -1        33 5.48796E-05 1.52378E-06 0.00000E+00
 -1        34 5.37867E-05 1.02288E-05 0.00000E+00
 -1        35 5.27478E-05 2.22674E-05 0.00000E+00
 -1        51 9.68863E-05-1.18281E-07 0.00000E+00
 -1        52 9.45012E-05-2.33362E-07 0.00000E+00
 -1        53 9.12340E-05-3.49332E-07 0.00000E+00
 -1        54 8.73093E-05-4.67302E-07 0.00000E+00
 -1        55 8.29522E-05-5.87935E-07 5.79026E-24
 -1        56 9.72801E-05-5.71685E-07 0.00000E+00
 -1        57 9.64948E-05-1.53229E-06 0.00000E+00
 -1        58 9.58160E-05-2.77172E-06 0.00000E+00
 -1        59 9.51972E-05-4.18905E-06 0.00000E+00
 -1        60 9.46020E-05-5.67001E-06 0.00000E+00
 -1        61 9.39871E-05-7.10122E-06 0.00000E+00
 -1        62 9.33117E-05-8.37120E-06 0.00000E+00
 -1        63 9.25356E-05-9.37264E-06 0.00000E+00
 -1        64 9.16236E-05-1.00110E-05 0.00000E+00
 -1        65 9.05433E-05-1.02004E-05 0.00000E+00
 -1        66 8.92704E-05-9.87640E-06-2.64698E-23
 -1        67 8.77858E-05-8.98650E-06 0.00000E+00
 -1        68 8.60787E-05-7.50587E-06 0.00000E+00
 -1        69 8.41497E-05-5.42146E-06 1.32349E-23
 -1        70 8.19982E-05-2.75340E-06-2.64698E-23
 -1        86 9.02847E-05 8.59199E-08-1.65436E-24
 -1        87 8.94329E-05 1.71083E-07 0.00000E+00
 -1        88 8.79860E-05 2.55520E-07 0.00000E+00
 -1        89 8.59147E-05 3.36095E-07 0.00000E+00
 -1        90 8.31618E-05 4.16032E-07 0.00000E+00
 -1       121 8.37677E-05-1.90391E-07 0.00000E+00
 -1       122 8.32516E-05-3.80900E-07-3.30872E-24
 -1       123 8.23922E-05-5.71643E-07 6.61744E-24
 -1       124 8.11906E-05-7.62768E-07 0.00000E+00
 -1       125 7.96483E-05-9.54333E-07-6.61744E-24
 -1       191 6.02998E-05 6.81576E-08 3.30872E-24
 -1       192 6.02646E-05 1.36314E-07 0.00000E+00
 -1       193 6.02061E-05 2.04469E-07 0.00000E+00
 -1       194 6.01240E-05 2.72622E-07 0.00000E+00
 -1       195 6.00186E-05 3.40770E-07 0.00000E+00
 -1       251 7.84508E-05 2.53021E-06-3.30872E-24
 -1       252 7.85308E-05 4.44458E-06 0.00000E+00
 -1       253 7.86114E-05 5.25988E-06-1.65436E-24
 -1       254 7.86950E-05 5.20505E-06 8.27181E-25
 -1       255 7.87785E-05 4.47055E-06 0.00000E+00
 -1       256 7.88621E-05 3.24440E-06 0.00000E+00
 -1       257 7.89452E-05 1.69274E-06 0.00000E+00
 -1       258 7.90283E-05-1.94570E-08-1.65436E-24
 -1       259 7.91113E-05-1.73442E-06 0.00000E+00
 -1       260 7.91944E-05-3.29436E-06 0.00000E+00
 -1       261 7.92780E-05-4.53452E-06 0.00000E+00
 -1       262 7.93614E-05-5.28912E-06 0.00000E+00
 -1       263 7.94450E-05-5.37064E-06 1.65436E-24
 -1       264 7.95255E-05-4.58922E-06 0.00000E+00
 -1       265 7.96054E-05-2.71676E-06 0.00000E+00
 -1       266 7.44644E-05-7.36620E-07 0.00000E+00
 -1       267 7.05402E-05-7.46074E-07-8.27181E-25
 -1       268 6.66161E-05-7.56219E-07 0.00000E+00
 -1       269 6.26919E-05-7.64315E-07 0.00000E+00
 -1       270 5.87678E-05-7.72363E-07 4.13590E-25
 -1       271 7.60006E-05 2.21158E-06-2.64698E-23
 -1       272 7.39722E-05 4.07455E-06-1.32349E-23
 -1       273 7.22980E-05 5.00206E-06 0.00000E+00
 -1       274 7.09214E-05 5.12048E-06 1.32349E-23
 -1       275 6.97941E-05 4.57334E-06-2.64698E-23
 -1       276 6.88583E-05 3.51183E-06 1.32349E-23
 -1       277 6.80549E-05 2.09566E-06 0.00000E+00
 -1       278 6.73224E-05 4.89559E-07 0.00000E+00
 -1       279 6.65982E-05-1.13879E-06 2.64698E-23
 -1       280 6.58196E-05-2.62132E-06 0.00000E+00
 -1       281 6.49246E-05-3.79236E-06 0.00000E+00
 -1       282 6.38534E-05-4.49071E-06 0.00000E+00
 -1       283 6.25476E-05-4.56279E-06 0.00000E+00
 -1       284 6.09560E-05-3.86285E-06 0.00000E+00
 -1       285 5.90233E-05-2.26018E-06-2.64698E-23
 -1       301 7.57731E-05 4.56428E-07 0.00000E+00
 -1       302 7.18822E-05 4.45954E-07 1.65436E-24
 -1       303 6.80134E-05 4.35802E-07 0.00000E+00
 -1       304 6.41858E-05 4.24371E-07 0.00000E+00
 -1       305 6.04183E-05 4.11266E-07-6.61744E-24
 -1       306 7.71988E-05 3.36360E-06 0.00000E+00
 -1       307 7.50987E-05 5.15332E-06 1.32349E-23
 -1       308 7.34169E-05 5.84063E-06 0.00000E+00
 -1       309 7.21358E-05 5.44008E-06-1.32349E-23
 -1       310 7.12064E-05 4.10023E-06-2.64698E-23
 -1       311 7.05589E-05 2.00179E-06 0.00000E+00
 -1       312 7.00931E-05-5.83961E-07 0.00000E+00
 -1       313 6.97009E-05-3.36808E-06 0.00000E+00
 -1       314 6.92661E-05-6.03764E-06 0.00000E+00
 -1       315 6.86738E-05-8.28404E-06 2.64698E-23
 -1       316 6.78273E-05-9.84943E-06 0.00000E+00
 -1       317 6.66403E-05-1.05009E-05-1.32349E-23
 -1       318 6.50639E-05-1.01141E-05 0.00000E+00
 -1       319 6.30722E-05-8.60044E-06 1.32349E-23
 -1       320 6.06706E-05-6.01029E-06 0.00000E+00
 -1       336 7.55057E-05-1.35499E-06 0.00000E+00
 -1       337 7.28204E-05-1.56452E-06 3.30872E-24
 -1       338 6.97157E-05-1.77514E-06-6.61744E-24
 -1       339 6.61967E-05-1.98679E-06 0.00000E+00
 -1       340 6.22690E-05-2.19993E-06 0.00000E+00
 -1       406 5.97374E-05 4.77043E-07 0.00000E+00
 -1       407 5.95616E-05 5.45148E-07 3.30872E-24
 -1       408 5.93624E-05 6.13207E-07 0.00000E+00
 -1       409 5.91398E-05 6.81135E-07 0.00000E+00
 -1       410 5.88938E-05 7.48800E-07 0.00000E+00
 -1       521 5.34301E-05 2.18379E-06 0.00000E+00
 -1       522 5.07829E-05 2.03729E-06 0.00000E+00
 -1       523 4.88244E-05 6.69838E-08 5.29396E-23
 -1       524 4.74506E-05-3.51066E-06 0.00000E+00
 -1       525 4.64872E-05-8.19375E-06 0.00000E+00
 -1       526 4.57200E-05-1.34134E-05 0.00000E+00
 -1       527 4.49058E-05-1.85070E-05-5.29396E-23
 -1       528 4.38022E-05-2.28214E-05 0.00000E+00
 -1       529 4.22153E-05-2.58370E-05 0.00000E+00
 -1       530 3.99811E-05-2.71189E-05 2.64698E-23
 -1       531 3.70445E-05-2.65302E-05 0.00000E+00
 -1       532 3.33980E-05-2.40545E-05 0.00000E+00
 -1       533 2.91526E-05-1.99999E-05 0.00000E+00
 -1       534 2.44746E-05-1.47707E-05-2.64698E-23
 -1       535 1.95778E-05-8.98246E-06-5.29396E-23
 -1       536 5.79195E-05 1.63153E-06-1.65436E-24
 -1       537 5.79091E-05 4.71018E-06-8.27181E-25
 -1       538 5.79005E-05 6.91023E-06 0.00000E+00
 -1       539 5.78944E-05 8.31851E-06 0.00000E+00
 -1       540 5.78891E-05 9.03038E-06 2.06795E-25
 -1       541 5.78842E-05 9.14134E-06-1.03398E-25
 -1       542 5.78793E-05 8.75322E-06-2.06795E-25
 -1       543 5.78742E-05 7.96795E-06 0.00000E+00
 -1       544 5.78689E-05 6.89163E-06-1.03398E-25
 -1       545 5.78634E-05 5.63040E-06-5.16988E-26
 -1       546 5.78578E-05 4.29235E-06 0.00000E+00
 -1       547 5.78523E-05 2.98560E-06 5.16988E-26
 -1       548 5.78470E-05 1.81788E-06-2.58494E-26
 -1       549 5.78421E-05 8.96974E-07 0.00000E+00
 -1       550 5.78374E-05 3.28075E-07 4.13590E-25
 -1       551 5.22189E-05-2.53918E-06 0.00000E+00
 -1       552 4.53772E-05-2.67060E-06-8.27181E-25
 -1       553 3.78110E-05-2.80703E-06-4.96308E-24
 -1       554 2.99228E-05-2.94771E-06-3.30872E-24
 -1       555 2.21151E-05-3.08999E-06 0.00000E+00
 -1       556 5.64379E-05 1.47878E-06 0.00000E+00
 -1       557 5.52906E-05 4.45349E-06 0.00000E+00
 -1       558 5.44585E-05 6.59626E-06 0.00000E+00
 -1       559 5.39066E-05 7.99823E-06 0.00000E+00
 -1       560 5.35994E-05 8.75028E-06 0.00000E+00
 -1       561 5.35022E-05 8.94383E-06 0.00000E+00
 -1       562 5.35804E-05 8.67035E-06 0.00000E+00
 -1       563 5.37992E-05 8.02141E-06 0.00000E+00
 -1       564 5.41243E-05 7.08865E-06 3.30872E-24
 -1       565 5.45213E-05 5.96370E-06 8.27181E-25
 -1       566 5.49559E-05 4.73826E-06 8.27181E-25
 -1       567 5.53937E-05 3.50404E-06 0.00000E+00
 -1       568 5.58006E-05 2.35273E-06 0.00000E+00
 -1       569 5.61422E-05 1.37590E-06 0.00000E+00
 -1       570 5.63843E-05 6.65168E-07 0.00000E+00
 -1       571 5.78821E-05 2.85275E-07-8.27181E-25
 -1       572 5.79311E-05 3.21535E-07 4.13590E-25
 -1       573 5.79804E-05 3.30894E-07 8.27181E-25
 -1       574 5.80299E-05 3.19483E-07 4.13590E-25
 -1       575 5.80795E-05 2.93460E-07 8.27181E-25
 -1       576 5.81291E-05 2.59021E-07 0.00000E+00
 -1       577 5.81786E-05 2.22371E-07 0.00000E+00
 -1       578 5.82282E-05 1.89715E-07 0.00000E+00
 -1       579 5.82778E-05 1.67262E-07-1.65436E-24
 -1       580 5.83274E-05 1.61219E-07 3.30872E-24
 -1       581 5.83770E-05 1.77795E-07 0.00000E+00
 -1       582 5.84266E-05 2.23188E-07 0.00000E+00
 -1       583 5.84762E-05 3.03593E-07 0.00000E+00
 -1       584 5.85257E-05 4.25141E-07 0.00000E+00
 -1       585 5.85752E-05 5.93927E-07 0.00000E+00
 -1       586 5.75939E-05 2.32902E-07-8.27181E-25
 -1       587 5.73326E-05 2.49095E-07 0.00000E+00
 -1       588 5.70710E-05 2.65109E-07-4.13590E-25
 -1       589 5.68301E-05 2.80869E-07 0.00000E+00
 -1       590 5.66307E-05 2.96201E-07 0.00000E+00
 -1       591 5.77852E-05 3.10462E-07 1.03398E-25
 -1       592 5.77445E-05 3.77555E-07 0.00000E+00
 -1       593 5.77120E-05 4.22715E-07 0.00000E+00
 -1       594 5.76856E-05 4.50581E-07 0.00000E+00
 -1       595 5.76640E-05 4.65853E-07 0.00000E+00
 -1       596 5.76453E-05 4.73195E-07-2.06795E-25
 -1       597 5.76278E-05 4.77268E-07 0.00000E+00
 -1       598 5.76098E-05 4.82734E-07 0.00000E+00
 -1       599 5.75895E-05 4.94248E-07 0.00000E+00
 -1       600 5.75652E-05 5.16471E-07 0.00000E+00
 -1       601 5.75351E-05 5.54058E-07 0.00000E+00
 -1       602 5.74976E-05 6.11675E-07 2.06795E-25
 -1       603 5.74509E-05 6.93984E-07-5.16988E-26
 -1       604 5.73934E-05 8.05685E-07 5.16988E-26
 -1       605 5.73232E-05 9.51416E-07 0.00000E+00
 -1       606 5.86338E-05 1.15009E-06 0.00000E+00
 -1       607 5.86413E-05 1.55536E-06 0.00000E+00
 -1       608 5.86482E-05 2.02723E-06 0.00000E+00
 -1       609 5.86549E-05 2.56102E-06 0.00000E+00
 -1       610 5.86615E-05 3.15202E-06 0.00000E+00
 -1       611 5.86681E-05 3.79545E-06 0.00000E+00
 -1       612 5.86745E-05 4.48655E-06 0.00000E+00
 -1       613 5.86810E-05 5.22053E-06 8.27181E-25
 -1       614 5.86874E-05 5.99262E-06-1.65436E-24
 -1       615 5.86938E-05 6.79802E-06 0.00000E+00
 -1       616 5.87002E-05 7.63197E-06 0.00000E+00
 -1       617 5.87065E-05 8.48968E-06 0.00000E+00
 -1       618 5.87128E-05 9.36635E-06 0.00000E+00
 -1       619 5.87191E-05 1.02572E-05-2.06795E-25
 -1       620 5.87253E-05 1.11575E-05 0.00000E+00
 -1       621 5.83596E-05 8.69072E-07 1.65436E-24
 -1       622 5.81138E-05 9.22833E-07 8.27181E-25
 -1       623 5.78831E-05 9.76586E-07 0.00000E+00
 -1       624 5.76634E-05 1.03025E-06-8.27181E-25
 -1       625 5.74506E-05 1.08383E-06 0.00000E+00
 -1       626 5.85564E-05 1.16691E-06-3.30872E-24
 -1       627 5.84666E-05 1.57683E-06 0.00000E+00
 -1       628 5.83570E-05 2.03989E-06 0.00000E+00
 -1       629 5.82296E-05 2.55031E-06 0.00000E+00
 -1       630 5.80867E-05 3.10228E-06 0.00000E+00
 -1       631 5.79303E-05 3.68996E-06-1.65436E-24
 -1       632 5.77628E-05 4.30750E-06 0.00000E+00
 -1       633 5.75862E-05 4.94907E-06-8.27181E-25
 -1       634 5.74027E-05 5.60882E-06-1.65436E-24
 -1       635 5.72147E-05 6.28089E-06 0.00000E+00
 -1       636 5.70242E-05 6.95947E-06 0.00000E+00
 -1       637 5.68334E-05 7.63869E-06 8.27181E-25
 -1       638 5.66445E-05 8.31271E-06 0.00000E+00
 -1       639 5.64597E-05 8.97569E-06 8.27181E-25
 -1       640 5.62809E-05 9.62178E-06-8.27181E-25
 -1       656 5.79796E-05 1.17668E-05 3.30872E-24
 -1       657 5.74937E-05 1.14592E-05 3.30872E-24
 -1       658 5.71716E-05 1.11527E-05 0.00000E+00
 -1       659 5.69089E-05 1.08464E-05 0.00000E+00
 -1       660 5.65924E-05 1.05391E-05 0.00000E+00
 -1       661 5.84533E-05 1.29491E-05 8.27181E-25
 -1       662 5.81920E-05 1.37978E-05 0.00000E+00
 -1       663 5.79444E-05 1.46094E-05-1.65436E-24
 -1       664 5.77105E-05 1.53858E-05 0.00000E+00
 -1       665 5.74893E-05 1.61283E-05 0.00000E+00
 -1       666 5.72803E-05 1.68384E-05 0.00000E+00
 -1       667 5.70829E-05 1.75177E-05 1.65436E-24
 -1       668 5.68967E-05 1.81675E-05 0.00000E+00
 -1       669 5.67210E-05 1.87891E-05 1.65436E-24
 -1       670 5.65554E-05 1.93838E-05-8.27181E-25
 -1       671 5.63994E-05 1.99528E-05 0.00000E+00
 -1       672 5.62525E-05 2.04974E-05-8.27181E-25
 -1       673 5.61143E-05 2.10187E-05-1.65436E-24
 -1       674 5.59840E-05 2.15175E-05-4.13590E-25
 -1       675 5.58617E-05 2.19953E-05 0.00000E+00
 -1       676 5.78974E-05 2.27425E-05-1.65436E-24
 -1       677 5.74658E-05 2.26840E-05-8.27181E-25
 -1       678 5.70345E-05 2.26255E-05 0.00000E+00
 -1       679 5.66036E-05 2.25671E-05-8.27181E-25
 -1       680 5.61733E-05 2.25088E-05-1.65436E-24
 -1       771 1.18385E-05 2.33606E-06 2.64698E-23
 -1       772 9.26855E-06 6.90548E-06-1.32349E-23
 -1       773 7.06189E-06 1.05169E-05 2.64698E-23
 -1       774 5.19404E-06 1.32318E-05 0.00000E+00
 -1       775 3.64102E-06 1.51130E-05 0.00000E+00
 -1       776 2.37790E-06 1.62250E-05 1.32349E-23
 -1       777 1.37946E-06 1.66333E-05 2.64698E-23
 -1       778 6.20044E-07 1.64051E-05 0.00000E+00
 -1       779 7.38085E-08 1.56081E-05 0.00000E+00
 -1       780-2.85465E-07 1.43116E-05 0.00000E+00
 -1       781-4.84078E-07 1.25853E-05 0.00000E+00
 -1       782-5.48626E-07 1.04999E-05 0.00000E+00
 -1       783-5.05754E-07 8.12668E-06-2.64698E-23
 -1       784-3.82252E-07 5.53743E-06-1.32349E-23
 -1       785-2.05011E-07 2.80428E-06 0.00000E+00
 -1       786 5.65373E-05 3.06233E-07 0.00000E+00
 -1       787 5.65839E-05 3.04705E-07 0.00000E+00
 -1       788 5.66303E-05 3.05854E-07-1.65436E-24
 -1       789 5.66772E-05 3.10013E-07 0.00000E+00
 -1       790 5.67242E-05 3.17837E-07 1.65436E-24
 -1       791 5.67712E-05 3.29991E-07-8.27181E-25
 -1       792 5.68183E-05 3.47603E-07 1.65436E-24
 -1       793 5.68653E-05 3.71814E-07 0.00000E+00
 -1       794 5.69124E-05 4.04475E-07 0.00000E+00
 -1       795 5.69594E-05 4.47453E-07 8.27181E-25
 -1       796 5.70065E-05 5.03725E-07 0.00000E+00
 -1       797 5.70535E-05 5.76297E-07 0.00000E+00
 -1       798 5.71006E-05 6.69925E-07 0.00000E+00
 -1       799 5.71475E-05 7.89411E-07 0.00000E+00
 -1       800 5.71944E-05 9.42337E-07-8.27181E-25
 -1       801 5.26775E-05 3.12469E-07 0.00000E+00
 -1       802 4.13186E-05 2.60049E-07 0.00000E+00
 -1       803 2.63961E-05 1.64843E-07-3.30872E-24
 -1       804 1.18880E-05 7.01190E-08 0.00000E+00
 -1       805 1.76399E-06 2.60414E-08 1.32349E-23
 -1       806 5.64372E-05 2.73960E-07-1.65436E-24
 -1       807 5.63788E-05 2.37942E-07 0.00000E+00
 -1       808 5.63184E-05 2.05710E-07-1.65436E-24
 -1       809 5.62553E-05 1.80365E-07 0.00000E+00
 -1       810 5.61883E-05 1.65000E-07 1.65436E-24
 -1       811 5.61164E-05 1.62663E-07 8.27181E-25
 -1       812 5.60384E-05 1.76399E-07 1.65436E-24
 -1       813 5.59533E-05 2.09245E-07 0.00000E+00
 -1       814 5.58599E-05 2.64238E-07 0.00000E+00
 -1       815 5.57570E-05 3.44411E-07 0.00000E+00
 -1       816 5.56435E-05 4.52796E-07-8.27181E-25
 -1       817 5.55183E-05 5.92424E-07-8.27181E-25
 -1       818 5.53803E-05 7.66325E-07 0.00000E+00
 -1       819 5.52285E-05 9.77516E-07 4.13590E-25
 -1       820 5.50616E-05 1.22902E-06-8.27181E-25
 -1       821 5.71740E-05 1.36232E-06-8.27181E-25
 -1       822 5.71033E-05 1.61145E-06 0.00000E+00
 -1       823 5.70329E-05 1.90255E-06 0.00000E+00
 -1       824 5.69616E-05 2.25433E-06 0.00000E+00
 -1       825 5.68903E-05 2.67639E-06 0.00000E+00
 -1       826 5.68188E-05 3.17812E-06 0.00000E+00
 -1       827 5.67473E-05 3.75695E-06-1.65436E-24
 -1       828 5.66756E-05 4.41011E-06-8.27181E-25
 -1       829 5.66040E-05 5.12368E-06 1.65436E-24
 -1       830 5.65323E-05 5.88352E-06 0.00000E+00
 -1       831 5.64607E-05 6.66861E-06 1.65436E-24
 -1       832 5.63892E-05 7.45781E-06 8.27181E-25
 -1       833 5.63177E-05 8.22937E-06 0.00000E+00
 -1       834 5.62470E-05 8.96161E-06 8.27181E-25
 -1       835 5.61762E-05 9.63872E-06-8.27181E-25
 -1       836 5.69553E-05 1.20085E-06 1.65436E-24
 -1       837 5.65848E-05 1.26677E-06 0.00000E+00
 -1       838 5.61603E-05 1.33257E-06 0.00000E+00
 -1       839 5.57136E-05 1.39795E-06 0.00000E+00
 -1       840 5.52762E-05 1.46323E-06 0.00000E+00
 -1       856 5.60892E-05 1.08575E-05 0.00000E+00
 -1       857 5.60666E-05 1.15478E-05-1.03398E-25
 -1       858 5.60441E-05 1.23037E-05 0.00000E+00
 -1       859 5.60211E-05 1.31128E-05 4.13590E-25
 -1       860 5.59981E-05 1.39627E-05 8.27181E-25
 -1       861 5.59750E-05 1.48410E-05 0.00000E+00
 -1       862 5.59518E-05 1.57353E-05-8.27181E-25
 -1       863 5.59286E-05 1.66331E-05-4.13590E-25
 -1       864 5.59054E-05 1.75220E-05-8.27181E-25
 -1       865 5.58823E-05 1.83895E-05 0.00000E+00
 -1       866 5.58591E-05 1.92232E-05 0.00000E+00
 -1       867 5.58360E-05 2.00106E-05 0.00000E+00
 -1       868 5.58130E-05 2.07395E-05-8.27181E-25
 -1       869 5.57899E-05 2.13975E-05 0.00000E+00
 -1       870 5.57669E-05 2.19723E-05 0.00000E+00
 -1       871 5.56433E-05 1.02444E-05 0.00000E+00
 -1       872 5.52517E-05 1.02423E-05 0.00000E+00
 -1       873 5.49028E-05 1.02399E-05 0.00000E+00
 -1       874 5.45639E-05 1.02371E-05-5.16988E-26
 -1       875 5.42026E-05 1.02339E-05 8.27181E-25
 -1       876 5.59478E-05 1.08640E-05 0.00000E+00
 -1       877 5.57734E-05 1.15207E-05 8.27181E-25
 -1       878 5.55867E-05 1.22108E-05 1.65436E-24
 -1       879 5.53892E-05 1.29299E-05 8.27181E-25
 -1       880 5.51825E-05 1.36737E-05-1.65436E-24
 -1       881 5.49682E-05 1.44380E-05 0.00000E+00
 -1       882 5.47477E-05 1.52185E-05 1.65436E-24
 -1       883 5.45228E-05 1.60109E-05 8.27181E-25
 -1       884 5.42949E-05 1.68110E-05 1.65436E-24
 -1       885 5.40658E-05 1.76145E-05-8.27181E-25
 -1       886 5.38370E-05 1.84172E-05 0.00000E+00
 -1       887 5.36100E-05 1.92148E-05 8.27181E-25
 -1       888 5.33864E-05 2.00030E-05 1.65436E-24
 -1       889 5.31676E-05 2.07775E-05 0.00000E+00
 -1       890 5.29552E-05 2.15341E-05 8.27181E-25
 -1       891 5.53292E-05 2.24209E-05 0.00000E+00
 -1       892 5.49013E-05 2.23900E-05 0.00000E+00
 -1       893 5.44446E-05 2.23590E-05 4.13590E-25
 -1       894 5.39437E-05 2.23282E-05 0.00000E+00
 -1       895 5.33831E-05 2.22974E-05 4.13590E-25
 -1       956 5.48125E-05 1.90690E-06-8.27181E-25
 -1       957 5.47444E-05 2.33383E-06-4.13590E-25
 -1       958 5.46761E-05 2.80004E-06-1.65436E-24
 -1       959 5.46076E-05 3.30070E-06 0.00000E+00
 -1       960 5.45391E-05 3.83097E-06 0.00000E+00
 -1       961 5.44705E-05 4.38601E-06-8.27181E-25
 -1       962 5.44019E-05 4.96095E-06 1.65436E-24
 -1       963 5.43333E-05 5.55093E-06 8.27181E-25
 -1       964 5.42647E-05 6.15108E-06 1.65436E-24
 -1       965 5.41962E-05 6.75654E-06 0.00000E+00
 -1       966 5.41276E-05 7.36245E-06 0.00000E+00
 -1       967 5.40590E-05 7.96394E-06 0.00000E+00
 -1       968 5.39905E-05 8.55615E-06 1.65436E-24
 -1       969 5.39221E-05 9.13423E-06 0.00000E+00
 -1       970 5.38539E-05 9.69334E-06 1.65436E-24
 -1       971 5.37226E-05 1.07789E-05-1.65436E-24
 -1       972 5.36576E-05 1.13868E-05 0.00000E+00
 -1       973 5.35925E-05 1.20461E-05 1.65436E-24
 -1       974 5.35273E-05 1.27501E-05-8.27181E-25
 -1       975 5.34620E-05 1.34923E-05 1.65436E-24
 -1       976 5.33967E-05 1.42659E-05 0.00000E+00
 -1       977 5.33313E-05 1.50643E-05 1.65436E-24
 -1       978 5.32660E-05 1.58809E-05 0.00000E+00
 -1       979 5.32006E-05 1.67090E-05 0.00000E+00
 -1       980 5.31353E-05 1.75419E-05 0.00000E+00
 -1       981 5.30699E-05 1.83729E-05 0.00000E+00
 -1       982 5.30046E-05 1.91954E-05 0.00000E+00
 -1       983 5.29395E-05 2.00028E-05-1.65436E-24
 -1       984 5.28746E-05 2.07883E-05 8.27181E-25
 -1       985 5.28100E-05 2.15453E-05 1.65436E-24
 -3
    1PSTEP                         6           3           1          
  100CL  103 3.75000E-01         409                     0    3           1
 -4  STRESS      6    1
 -5  SXX         1    4    1    1
 -5  SYY         1    4    2    2
 -5  SZZ         1    4    3    3
 -5  SXY         1    4    1    2
 -5  SYZ         1    4    2    3
 -5  SZX         1    4    3    1
 -1         1-1.29408E+06-5.95022E+05-2.63782E+05-8.37625E+05 8.00355E-11 1.93540E-09
 -1         2 2.20428E+03 2.48806E+05 7.20769E+03 6.00780E+02-1.09111E-10 3.07546E-09
 -1         3-4.73483E+01-5.44052E+05 1.26359E+02-1.49855E+02-1.55676E-10-7.51152E-09
 -1         5-4.40596E+00 1.95018E+05 5.10937E+00 2.15011E-02 9.65535E-11 1.01604E-08
 -1         8-6.09120E+05-2.65425E+05-2.05223E+04-4.62444E+05-7.27596E-11 8.69477E-10
 -1         9-1.04400E+06-2.65780E+05-9.96969E+04-3.60133E+05 2.20462E-09 2.77360E-09
 -1        10-4.22860E+02-5.66788E+05-7.28902E+02-1.00611E+03-2.49520E-09-1.01158E-08
 -1        12-2.31034E+00 1.95028E+05 1.65679E+02 4.22573E-01 1.37252E-10 2.07979E-09
 -1        15 1.61340E+03 8.86654E+02 5.21531E+03 2.73786E+00-2.63014E-10-7.08999E-08
 -1        16-2.94652E+06-9.43135E+05-4.51901E+05-9.64100E+05 8.37220E-09 2.71636E-10
 -1        17-6.51447E+05-4.00051E+05-1.25473E+05-3.76216E+05-4.08982E-09 3.84753E-09
 -1        18 2.09926E+04 1.64257E+03-9.71397E+03-4.59480E+04 5.74346E-10 5.04861E-09
 -1        19 6.10882E+04 7.28688E+04-3.39328E+02 1.19593E+04-4.96038E-10 2.74958E-09
 -1        20-2.53515E+04-2.88692E+05-6.36630E+04 2.14028E+04 3.28707E-09-1.85628E-09
 -1        21-2.73119E+01-1.67440E+05-5.40873E+02-4.95872E+01-3.45744E-09-4.00891E-09
 -1        24-2.59867E+06-8.91556E+05-3.70287E+05-1.08614E+06-1.21169E-08-7.72707E-09
 -1        25 2.36511E+04-6.93451E+02 1.42082E+04-8.30563E+04 2.74940E-10 3.45699E-09
 -1        26-1.40776E+04 4.98078E+04-9.85536E+03-7.15570E+03 1.15506E-09 2.89186E-09
 -1        27-4.62484E+04-1.58408E+05-5.94315E+04 3.56971E+04 4.33427E-09-2.30102E-10
 -1        28 1.29509E+04-4.62465E+04 9.45438E+03 1.48409E+04 5.23187E-10 8.78902E-10
 -1        32-6.15611E+05-8.36758E+04 2.68619E+05-4.17130E+05-1.24128E-08 1.23994E-08
 -1        33-9.05772E+04 4.65998E+04 1.65182E+04-2.70996E+04 1.05276E-09 1.22221E-09
 -1        34-1.17628E+05-1.17042E+04 2.76734E+02 3.61558E+04 3.33906E-09 4.79182E-09
 -1        35-1.31732E+04-1.83877E+04-7.18616E+02 2.91645E+04 3.70131E-09-4.78940E-09
 -1        51 1.13954E+04-3.03358E+05 2.87803E+04-7.55959E+05 0.00000E+00-2.22644E-09
 -1        52 6.55561E+03-3.01757E+05 1.92399E+04-8.81696E+05 4.07454E-10-4.59841E-09
 -1        53 4.64425E+03-3.10509E+05 1.68556E+04-7.53363E+05 5.96629E-10 1.76078E-09
 -1        54 1.39776E+04-3.08602E+05 2.74777E+04-8.84430E+05-8.73115E-11-2.86309E-09
 -1        55 2.93085E+04-3.18870E+05 4.94456E+04-7.52989E+05-5.82077E-11 4.43833E-10
 -1        56-2.48522E+06-2.80611E+05-1.94305E+05-9.58120E+05 7.85803E-10-2.83762E-10
 -1        57-2.56225E+06-4.57366E+05-1.30964E+05-9.51773E+05 1.71212E-09-6.31553E-09
 -1        58-2.52437E+06-3.42018E+05-4.57309E+04-9.45781E+05 9.64064E-11-1.17507E-09
 -1        59-2.51692E+06-3.85390E+05-2.72991E+04-9.66609E+05-2.08092E-09-1.71485E-09
 -1        60-2.53016E+06-3.50503E+05-1.06835E+04-9.44025E+05 1.34469E-09 7.68978E-09
 -1        61-2.51095E+06-3.74690E+05-6.07249E+03-9.67756E+05-1.08582E-09 6.97048E-09
 -1        62-2.53025E+06-3.52461E+05-2.92767E+03-9.44706E+05 1.14801E-09 2.13217E-09
 -1        63-2.51242E+06-3.71041E+05-2.39439E+03-9.65121E+05-1.32331E-09 1.10754E-09
 -1        64-2.52863E+06-3.54162E+05-2.76306E+03-9.46623E+05-7.99218E-10-2.93744E-09
 -1        65-2.51702E+06-3.68113E+05-5.49758E+03-9.60266E+05 1.55956E-09 8.01492E-11
 -1        66-2.52557E+06-3.55465E+05-9.70680E+03-9.49498E+05 1.91221E-09 4.79031E-09
 -1        67-2.52780E+06-3.72252E+05-2.45946E+04-9.52871E+05-4.51109E-10 7.77072E-09
 -1        68-2.51787E+06-3.50296E+05-4.13164E+04-9.53907E+05 2.28147E-09-3.72165E-09
 -1        69-2.57289E+06-4.33083E+05-1.18134E+05-9.34879E+05 2.05182E-09-5.71163E-09
 -1        70-2.48088E+06-2.96484E+05-1.75364E+05-9.66848E+05-5.78439E-10 2.71393E-09
 -1        86-1.10614E+03 2.46545E+05 7.71358E+03-3.00408E+02 9.32005E-10-4.14542E-09
 -1        87 7.33977E+03 2.51326E+05 1.61059E+04 1.23947E+03 1.55455E-09-1.12303E-08
 -1        88-6.22763E+03 2.44028E+05 2.46422E+04-9.39104E+02 2.37651E-09 3.77617E-09
 -1        89 4.64102E+04 2.69574E+05 6.64818E+04 2.68759E+03 3.62070E-09-4.62717E-09
 -1        90-4.00515E+04 2.28312E+05 9.38840E+04-1.74815E+03 4.16912E-09-6.03842E-09
 -1       121-7.88010E+01-5.44290E+05 1.13021E+02 7.48583E+01 2.83059E-10 7.77618E-10
 -1       122-5.72045E+00-5.44025E+05 2.75108E+02-2.99770E+02-1.02450E-09 1.28207E-08
 -1       123-1.08529E+02-5.44319E+05 4.38265E+02 2.24503E+02 8.08939E-10 8.18636E-09
 -1       124 5.01578E+02-5.43716E+05 1.15182E+03-6.94475E+02-2.03863E-09 5.00268E-09
 -1       125-4.37247E+02-5.44606E+05 1.75937E+03 4.69476E+02 1.35151E-09 3.40424E-09
 -1       191-4.79461E+00 1.95034E+05 6.07125E+00-1.12067E-02 1.31625E-10 3.18732E-09
 -1       192-4.87557E+00 1.95018E+05 1.08202E+01 4.25351E-01 1.90401E-10 3.92311E-09
 -1       193-6.04328E+00 1.95034E+05 2.00881E+01-4.17238E-01 1.92114E-10 5.27280E-09
 -1       194-6.38687E+00 1.95020E+05 4.09331E+01 1.11626E+00 1.09004E-10-3.42970E-09
 -1       195-8.44316E+00 1.95033E+05 8.00333E+01-7.07181E-01 3.59613E-10 1.28239E-10
 -1       251 2.23123E+05-3.84234E+04 8.97080E+04 3.81195E+03-2.81830E-10-2.68119E-09
 -1       252 2.64061E+05 4.44520E+04 6.36577E+04-1.21848E+04-7.42347E-10-4.04543E-09
 -1       253 2.38614E+05-5.94838E+03 2.32178E+04 2.57415E+03 1.26988E-10 1.41063E-09
 -1       254 2.45803E+05 6.87185E+03 1.46833E+04-1.02366E+04 4.77485E-12 3.59455E-09
 -1       255 2.41303E+05-9.18582E+02 6.00038E+03 1.86390E+03 1.00698E-10 4.01769E-09
 -1       256 2.42585E+05 1.09121E+03 3.65134E+03-9.18962E+03 5.01075E-10 8.53106E-10
 -1       257 2.41798E+05-1.60746E+02 1.88231E+03 1.52717E+03-1.38385E-10-3.16862E-09
 -1       258 2.42081E+05 3.43339E+02 1.67434E+03-8.84993E+03-2.35067E-10 2.46023E-09
 -1       259 2.41796E+05-1.65376E+02 1.92598E+03 1.52422E+03-4.96328E-10 4.23108E-09
 -1       260 2.42603E+05 1.13169E+03 3.77603E+03-9.17845E+03 9.99023E-10-2.77464E-09
 -1       261 2.41286E+05-9.54077E+02 6.22754E+03 1.85568E+03 2.45876E-10 2.20302E-09
 -1       262 2.45927E+05 7.13942E+03 1.52451E+04-1.02123E+04-4.51649E-10-3.34489E-09
 -1       263 2.38505E+05-6.17905E+03 2.41225E+04 2.55810E+03-8.67658E-10-2.99224E-09
 -1       264 2.64853E+05 4.61786E+04 6.61173E+04-1.21469E+04-2.04992E-09 6.93944E-10
 -1       265 2.22438E+05-3.99119E+04 9.32060E+04 3.79008E+03-1.47929E-09 3.20870E-09
 -1       266-2.92076E+04-1.36565E+04 6.85334E+04-5.85849E+01-4.00178E-10-1.28542E-07
 -1       267 3.38601E+04 1.59183E+04 4.84363E+04 6.75913E+01-9.70431E-10-2.68361E-07
 -1       268-4.54055E+03-2.25441E+03 1.80037E+04-8.61253E+00-7.58519E-10-2.11709E-07
 -1       269 5.36108E+03 2.69813E+03 1.17020E+04 1.00321E+01-5.27166E-10-1.58612E-07
 -1       270-8.04705E+02-4.43320E+02 5.64871E+03-1.36143E+00-4.40195E-10-1.11786E-07
 -1       271-2.87146E+06-3.58322E+05-2.21137E+05-1.11876E+06 1.28421E-09-2.11003E-09
 -1       272-2.93438E+06-5.35890E+05-1.42150E+05-1.13539E+06-2.06228E-10-4.55475E-09
 -1       273-2.91393E+06-4.12510E+05-5.22370E+04-1.10795E+06 7.47150E-10-4.29281E-10
 -1       274-2.88464E+06-4.69632E+05-2.92243E+04-1.15219E+06 1.13550E-09-1.43518E-09
 -1       275-2.92073E+06-4.17112E+05-1.21495E+04-1.10506E+06 7.31234E-10-2.12822E-09
 -1       276-2.87658E+06-4.64307E+05-6.44849E+03-1.15690E+06-1.00113E-09 3.96153E-09
 -1       277-2.92238E+06-4.16793E+05-3.14988E+03-1.10387E+06 8.75389E-11 2.82432E-09
 -1       278-2.87503E+06-4.64474E+05-2.27978E+03-1.15833E+06 2.27033E-10 8.77230E-09
 -1       279-2.92247E+06-4.16754E+05-2.43400E+03-1.10380E+06-2.00021E-09 1.41245E-09
 -1       280-2.87609E+06-4.64201E+05-4.44641E+03-1.15724E+06-1.59616E-09-4.82032E-10
 -1       281-2.92116E+06-4.17205E+05-8.14224E+03-1.10483E+06-1.26374E-09-7.31688E-09
 -1       282-2.88206E+06-4.67003E+05-1.94152E+04-1.15319E+06-2.54659E-11-1.60435E-09
 -1       283-2.91611E+06-4.14734E+05-3.47010E+04-1.10734E+06-7.92625E-10-1.50976E-09
 -1       284-2.91620E+06-5.09617E+05-9.42779E+04-1.14036E+06 2.01601E-09-5.26234E-09
 -1       285-2.88712E+06-3.79695E+05-1.46806E+05-1.11544E+06-4.98403E-10-4.11092E-09
 -1       301 1.00860E+04-6.88418E+03 8.70995E+04-2.16684E+04 8.36735E-11 5.57208E-09
 -1       302 1.23115E+04 1.54919E+04 6.32224E+04-3.23781E+04-1.20349E-09 2.57239E-09
 -1       303 4.71418E+02 1.01834E+03 5.82116E+04-2.17232E+04 6.74845E-10-3.54839E-09
 -1       304 2.32201E+04 2.55008E+04 9.81936E+04-3.22842E+04-7.27596E-10-6.64295E-09
 -1       305 2.03025E+04-1.68185E+04 1.64116E+05-2.16965E+04 1.96451E-10 1.26602E-09
 -1       306-3.08240E+06-3.57374E+05-2.34076E+05-1.20541E+06 8.51287E-10-4.00178E-09
 -1       307-3.20407E+06-5.53954E+05-1.59570E+05-1.16333E+06 1.84764E-09-1.45519E-10
 -1       308-3.13714E+06-4.28609E+05-5.50940E+04-1.18171E+06 4.47017E-10 3.34694E-09
 -1       309-3.13532E+06-4.76511E+05-3.33144E+04-1.19745E+06-2.12765E-10 4.55111E-09
 -1       310-3.15084E+06-4.33385E+05-1.29372E+04-1.17179E+06 1.62743E-10-5.63068E-09
 -1       311-3.11735E+06-4.73316E+05-7.47577E+03-1.21196E+06 5.05179E-09 4.06817E-09
 -1       312-3.15523E+06-4.31474E+05-3.66182E+03-1.16740E+06 2.28056E-10 6.07656E-09
 -1       313-3.11382E+06-4.74345E+05-3.30305E+03-1.21543E+06-2.65007E-09 5.39649E-09
 -1       314-3.15443E+06-4.32286E+05-3.98926E+03-1.16838E+06-3.51406E-09-2.83876E-09
 -1       315-3.12041E+06-4.70566E+05-8.37611E+03-1.20829E+06-9.52014E-10-1.75305E-10
 -1       316-3.14851E+06-4.35376E+05-1.46920E+04-1.17443E+06 2.18944E-09 2.95859E-09
 -1       317-3.14172E+06-4.73494E+05-3.78664E+04-1.19104E+06-4.50228E-10-1.63345E-09
 -1       318-3.13302E+06-4.29708E+05-6.26401E+04-1.18543E+06-4.29554E-09 8.61473E-09
 -1       319-3.21875E+06-5.63058E+05-1.81536E+05-1.15408E+06-5.11955E-09 2.13913E-09
 -1       320-3.07191E+06-3.47371E+05-2.66150E+05-1.21088E+06 5.65342E-09 1.54250E-09
 -1       336 4.10314E+02-5.89227E+05-3.15368E+03 5.35738E+02-5.17321E-09-6.08816E-09
 -1       337-1.14193E+03-5.90061E+05-3.45531E+03-1.40489E+03-9.63234E-09-4.26280E-09
 -1       338 2.68877E+02-5.89318E+05-4.37074E+03 8.66583E+02-6.85475E-09-2.16824E-09
 -1       339-4.51988E+03-5.92141E+05-9.56381E+03-2.05939E+03-1.21468E-08 1.71576E-09
 -1       340 3.06137E+03-5.87181E+05-1.47479E+04 1.18612E+03-8.61655E-09 7.13590E-09
 -1       406 1.03081E+01 1.95025E+05 3.27059E+02 2.72566E-01 4.52019E-10 4.94310E-10
 -1       407 1.11741E+02 1.95086E+05 6.95209E+02-7.55552E+00 7.35980E-11 6.80984E-10
 -1       408 3.55522E+02 1.94975E+05 1.38844E+03 7.38854E+00 5.09203E-10 1.01863E-09
 -1       409 1.49920E+03 1.95529E+05 3.12593E+03-6.88529E+01-5.18412E-11 4.06385E-09
 -1       410 4.31160E+03 1.94580E+05 6.38147E+03 6.34774E+01 5.06589E-10 2.15459E-09
 -1       521-5.83676E+06-6.74928E+05-4.35171E+05-2.27001E+06 4.23461E-09-7.88714E-09
 -1       522-6.03851E+06-1.05553E+06-2.95322E+05-2.21722E+06-3.85626E-09-7.74889E-09
 -1       523-5.94557E+06-7.97141E+05-1.02354E+05-2.21708E+06-9.89530E-10-4.27826E-09
 -1       524-5.90337E+06-9.22705E+05-6.15181E+04-2.29149E+06 2.78033E-09-5.79621E-09
 -1       525-5.97149E+06-8.04048E+05-2.38203E+04-2.19719E+06 3.28100E-09-3.73802E-10
 -1       526-5.87721E+06-9.10413E+05-1.37109E+04-2.31038E+06 2.02169E-09-1.54660E-09
 -1       527-5.97192E+06-8.08673E+05-6.65080E+03-2.19860E+06 2.27601E-09 4.22773E-10
 -1       528-5.89154E+06-8.89522E+05-5.41026E+03-2.28943E+06-2.81398E-09-7.53266E-09
 -1       529-5.95648E+06-8.25327E+05-6.97921E+03-2.21768E+06-2.06273E-09-2.35787E-09
 -1       530-5.93172E+06-8.52646E+05-1.31983E+04-2.24227E+06-3.61365E-09 2.38811E-09
 -1       531-5.93111E+06-8.46075E+05-2.42250E+04-2.24524E+06-1.70485E-09 2.09729E-09
 -1       532-5.99157E+06-8.33256E+05-6.12088E+04-2.18873E+06 3.71313E-09-9.74615E-09
 -1       533-5.89728E+06-8.44894E+05-1.01949E+05-2.27142E+06 1.82263E-09-8.58563E-09
 -1       534-6.12114E+06-9.75108E+05-2.95091E+05-2.12798E+06-7.21229E-10 4.88944E-09
 -1       535-5.80356E+06-7.06800E+05-4.33648E+05-2.30575E+06-7.68341E-09 6.28643E-09
 -1       536-2.14429E+04-1.59963E+04 3.68181E+04 2.87040E+02-1.42589E-09 7.93261E-09
 -1       537-4.19311E+03 1.85075E+04 2.62684E+04-1.32773E+03-6.44142E-09-7.95353E-10
 -1       538-1.51155E+04-2.50764E+03 9.48892E+03 2.99290E+02-2.54971E-10 2.47474E-09
 -1       539-1.16767E+04 2.89351E+03 6.08466E+03-1.38039E+03 3.14986E-09 7.71979E-09
 -1       540-1.39685E+04-3.90376E+02 2.39041E+03 3.39689E+02 4.88782E-10-3.21563E-09
 -1       541-1.30994E+04 4.45594E+02 1.44183E+03-1.45205E+03-1.04639E-09 7.20888E-10
 -1       542-1.36987E+04-5.74196E+01 5.67731E+02 3.70935E+02-2.78291E-10 3.14643E-09
 -1       543-1.34679E+04 5.31851E+01 2.85718E+02-1.50165E+03 3.78439E-10 4.21094E-09
 -1       544-1.36041E+04 4.67521E+00 2.65568E+01 3.89292E+02-4.30305E-10 1.13079E-09
 -1       545-1.36204E+04-8.23043E+01-2.02956E+02-1.52491E+03 1.06957E-10 1.10952E-09
 -1       546-1.35482E+04 7.93798E+01-4.54899E+02 3.94199E+02 4.21559E-10 1.41458E-09
 -1       547-1.38546E+04-5.85538E+02-1.19272E+03-1.52110E+03-1.65645E-09-1.82058E-09
 -1       548-1.33695E+04 5.07305E+02-1.93487E+03 3.85481E+02-1.77691E-09 2.75475E-09
 -1       549-1.52090E+04-3.73878E+03-5.26891E+03-1.48874E+03-1.06775E-09 4.80003E-09
 -1       550-1.21911E+04 3.22829E+03-7.51247E+03 3.61838E+02-7.53033E-11-4.07272E-09
 -1       551 5.73221E+03-3.08992E+05 1.69872E+04-5.29888E+05-2.29702E-08-4.36557E-11
 -1       552 1.20528E+04-3.09760E+05 2.22729E+04-7.54112E+05-1.76296E-08 4.26007E-09
 -1       553 7.90881E+03-3.13814E+05 3.47370E+04-5.28168E+05-2.86309E-08 4.92946E-09
 -1       554 2.92973E+04-2.98978E+05 7.38192E+04-7.54836E+05-1.73604E-08 1.93268E-09
 -1       555 2.92981E+04-3.27894E+05 1.32641E+05-5.28859E+05-2.80052E-08-5.82440E-09
 -1       556 4.39006E+04-9.91643E+04 3.41510E+04-1.31849E+05-5.18048E-09 2.83762E-10
 -1       557 8.41115E+04-1.32812E+05 1.78948E+04-1.64792E+05-5.02405E-09-4.42287E-09
 -1       558 4.41615E+04-1.03945E+05 7.29846E+03-1.27712E+05-2.44472E-09 7.35417E-09
 -1       559 7.91150E+04-1.37620E+05 3.68406E+03-1.66889E+05 3.21597E-09 2.47383E-10
 -1       560 4.32721E+04-1.03341E+05 1.55566E+03-1.28243E+05 7.49424E-10 4.66389E-09
 -1       561 7.76225E+04-1.37304E+05 8.12235E+02-1.67826E+05-9.74978E-10 3.56113E-09
 -1       562 4.25339E+04-1.02835E+05 3.22575E+02-1.28778E+05-2.27374E-09-8.30596E-10
 -1       563 7.67448E+04-1.36929E+05 1.92109E+02-1.68387E+05-1.73895E-09 1.95149E-09
 -1       564 4.20755E+04-1.02536E+05 6.99957E+01-1.29105E+05 6.04814E-09 4.66844E-09
 -1       565 7.62938E+04-1.36738E+05 3.71208E+01-1.68669E+05 3.79623E-09 2.46564E-09
 -1       566 4.19174E+04-1.02429E+05-2.17905E+01-1.29221E+05 2.51293E-09 4.46835E-09
 -1       567 7.62360E+04-1.36709E+05-9.50756E+01-1.68656E+05 5.98948E-09-1.20781E-09
 -1       568 4.20855E+04-1.02541E+05-2.56249E+02-1.29150E+05-4.80941E-09-4.72028E-09
 -1       569 7.60672E+04-1.36594E+05-6.02229E+02-1.67914E+05-2.77760E-09-2.55750E-09
 -1       570 4.29942E+04-1.03405E+05-1.25608E+03-1.29192E+05 2.09184E-09-5.25642E-09
 -1       571 1.41377E+05 5.12482E+03 7.59301E+03-3.55878E+04-3.62888E-10 4.18527E-09
 -1       572 1.42507E+05 1.78229E+03 3.71993E+03-3.90101E+04 9.23137E-10-7.84667E-10
 -1       573 1.41833E+05 4.24631E+02 1.65252E+03-3.54947E+04 3.53157E-09 5.59794E-09
 -1       574 1.41967E+05 1.37570E+02 8.27846E+02-3.91143E+04 1.04455E-09-2.84217E-10
 -1       575 1.41885E+05 1.83403E+01 3.90127E+02-3.54824E+04-4.21323E-10-3.45608E-10
 -1       576 1.41894E+05 4.46945E+00 1.98506E+02-3.91282E+04 1.16125E-09 5.40695E-09
 -1       577 1.41892E+05-3.42119E+00 9.77186E+01-3.54807E+04 2.96745E-09 3.00633E-09
 -1       578 1.41886E+05-1.83912E+00 5.31533E+01-3.91299E+04 1.15290E-09 7.32189E-09
 -1       579 1.41899E+05-4.05170E+00 3.23647E+01-3.54807E+04-1.60435E-09 3.42607E-09
 -1       580 1.41895E+05-4.87073E+00 2.99274E+01-3.91277E+04-1.91062E-09 3.25144E-10
 -1       581 1.41911E+05-7.63871E+00 4.03971E+01-3.54829E+04-6.69388E-10 2.18506E-10
 -1       582 1.41917E+05-1.21956E+00 7.66888E+01-3.91065E+04 7.27596E-12 9.63837E-10
 -1       583 1.41924E+05 1.85463E+01 1.47183E+02-3.55019E+04 2.96495E-10 2.02033E-09
 -1       584 1.41988E+05 1.33725E+02 3.29789E+02-3.89481E+04-1.95951E-09-2.89549E-09
 -1       585 1.41905E+05 4.25211E+02 6.69983E+02-3.56415E+04-9.99535E-10-1.74350E-09
 -1       586-1.74271E+03 4.61719E+04-2.30863E+03-1.21067E+05 3.78122E-10-2.25452E-09
 -1       587-3.79310E+02 4.58626E+04-2.74136E+02-1.33224E+05 6.62112E-10-3.52838E-09
 -1       588 4.76576E+02 4.59236E+04 1.60269E+03-1.20993E+05 3.90173E-10-2.36378E-09
 -1       589 2.39469E+03 4.68021E+04 4.69016E+03-1.33114E+05 5.29326E-10-4.60204E-09
 -1       590 6.88505E+03 4.53433E+04 1.00520E+04-1.21178E+05 2.80579E-10 1.50703E-09
 -1       591-3.08645E+04-8.85177E+03-1.02760E+04-1.60236E+04 9.49228E-10 4.09136E-09
 -1       592-3.18234E+04-1.13790E+04-5.56593E+03-1.87074E+04 1.23975E-09-1.29717E-10
 -1       593-3.19035E+04-8.09459E+03-2.31714E+03-1.67654E+04 4.26508E-09 2.63265E-09
 -1       594-3.03911E+04-9.88555E+03-1.15568E+03-1.87786E+04 4.77712E-09-7.94853E-09
 -1       595-3.19829E+04-8.09121E+03-5.31109E+02-1.67994E+04 2.66300E-09-2.41635E-09
 -1       596-3.02941E+04-9.81716E+03-2.70738E+02-1.87684E+04 1.45477E-09-2.10051E-09
 -1       597-3.19930E+04-8.09781E+03-1.49037E+02-1.68008E+04 4.05109E-10-4.80358E-09
 -1       598-3.02849E+04-9.81454E+03-1.22762E+02-1.87656E+04 1.11120E-09 2.81540E-09
 -1       599-3.19923E+04-8.09779E+03-1.60481E+02-1.68006E+04 1.26192E-10-3.43636E-09
 -1       600-3.02954E+04-9.81801E+03-3.01094E+02-1.87683E+04-2.50338E-10 4.47494E-09
 -1       601-3.19798E+04-8.09053E+03-5.95490E+02-1.67986E+04 1.68336E-09 7.28505E-09
 -1       602-3.04045E+04-9.89469E+03-1.29870E+03-1.87786E+04 2.58746E-09 4.48523E-09
 -1       603-3.18897E+04-8.09549E+03-2.60481E+03-1.67606E+04-1.69257E-09-2.06319E-09
 -1       604-3.20199E+04-1.15678E+04-6.25730E+03-1.86911E+04-1.25681E-09 4.46062E-09
 -1       605-3.07149E+04-8.95162E+03-1.15523E+04-1.59323E+04 4.60091E-10 8.98126E-10
 -1       606 2.02281E+04-6.80681E+03-1.22607E+04 1.97783E+04-6.81939E-09-1.51249E-09
 -1       607 1.81284E+04-2.19537E+03-6.10525E+03 2.22022E+04-2.48110E-09-8.83904E-09
 -1       608 1.93231E+04-3.69295E+02-2.73368E+03 1.96205E+04-1.49685E-08-4.73256E-09
 -1       609 1.90869E+04-9.68285E+01-1.38085E+03 2.23765E+04-3.73202E-08-1.66528E-09
 -1       610 1.92164E+04 1.69861E+01-6.59357E+02 1.96028E+04-3.14758E-08-8.36735E-10
 -1       611 1.91727E+04 2.44071E+01-3.32661E+02 2.23956E+04-2.48569E-08 3.21506E-09
 -1       612 1.91898E+04 2.61196E+01-1.59054E+02 1.96011E+04-2.19861E-08 5.46379E-10
 -1       613 1.91739E+04 2.87827E+01-7.26047E+01 2.23979E+04-2.90238E-08-7.76640E-09
 -1       614 1.91760E+04 2.52483E+01-2.02883E+01 1.96005E+04-1.75164E-08 5.22709E-09
 -1       615 1.91678E+04 3.13946E+01 2.23895E+01 2.23983E+04 1.52363E-09 2.14914E-09
 -1       616 1.91655E+04 2.82556E+01 7.45828E+01 1.96007E+04-2.24145E-09 3.17232E-09
 -1       617 1.91739E+04 4.92394E+01 1.72999E+02 2.23979E+04 1.35378E-09 3.97085E-09
 -1       618 1.91482E+04 7.96237E+01 3.49789E+02 1.96008E+04 2.38060E-10 7.94671E-10
 -1       619 1.92957E+04 3.21009E+02 7.86185E+02 2.23974E+04-1.10765E-09 2.27806E-09
 -1       620 1.90308E+04 9.10629E+02 1.58042E+03 1.96002E+04 1.72270E-09-7.78073E-10
 -1       621 2.46774E+02 1.54016E+05 2.13434E+03 4.93711E+03-2.87145E-10-5.71322E-09
 -1       622 2.81920E+02 1.54545E+05 1.80985E+03 7.20871E+03-2.40391E-10-9.29396E-09
 -1       623 1.18506E+01 1.54169E+05 2.07921E+03 4.91388E+03-2.00089E-10-2.63378E-09
 -1       624 9.40174E+02 1.55149E+05 3.94644E+03 7.23145E+03-2.46303E-10-3.81485E-09
 -1       625 9.43875E+02 1.53409E+05 6.85982E+03 4.91460E+03-9.59517E-11-4.28719E-09
 -1       626 1.26986E+05 3.52370E+04 2.52931E+03 6.87241E+04-1.05274E-09 1.53887E-09
 -1       627 1.25242E+05 3.65233E+04 1.21853E+03 7.15073E+04-2.51021E-09-3.36581E-09
 -1       628 1.27084E+05 3.40387E+04 5.14852E+02 6.91059E+04 2.00544E-09-2.34422E-10
 -1       629 1.24878E+05 3.62356E+04 2.52251E+02 7.16760E+04 2.22235E-09-2.41289E-09
 -1       630 1.27092E+05 3.39809E+04 1.16734E+02 6.91171E+04 7.90351E-10 1.14738E-09
 -1       631 1.24836E+05 3.62286E+04 6.27361E+01 7.16790E+04-2.22508E-09-7.86308E-10
 -1       632 1.27088E+05 3.39846E+04 4.14833E+01 6.91123E+04-5.65433E-09-1.54438E-09
 -1       633 1.24828E+05 3.62319E+04 4.63420E+01 7.16750E+04-4.89308E-09 3.70201E-09
 -1       634 1.27081E+05 3.39848E+04 7.50972E+01 6.91095E+04-4.23620E-09 6.21162E-09
 -1       635 1.24831E+05 3.62329E+04 1.52317E+02 7.16750E+04-2.88878E-09 2.52217E-08
 -1       636 1.27073E+05 3.39841E+04 3.07715E+02 6.91073E+04-1.62830E-08 9.93032E-09
 -1       637 1.24894E+05 3.62820E+04 6.76344E+02 7.16718E+04-2.35726E-08-2.68642E-09
 -1       638 1.27046E+05 3.41352E+04 1.39012E+03 6.90375E+04-7.52573E-09 9.82254E-09
 -1       639 1.25620E+05 3.72993E+04 3.28865E+03 7.14551E+04-4.45510E-09 1.69030E-09
 -1       640 1.26948E+05 3.71631E+04 6.82497E+03 6.77516E+04-3.44789E-09-7.13396E-09
 -1       656 3.44397E+04-8.71620E+05-8.31488E+04-4.78366E+02 9.27685E-10 1.32218E-10
 -1       657-4.55063E+04-9.09166E+05-6.87626E+04 5.68952E+03-5.97083E-10-6.54388E-09
 -1       658 1.09184E+04-8.82334E+05-4.21961E+04-1.11732E+03-2.32149E-10 1.11493E-09
 -1       659-4.87837E+04-9.10713E+05-7.30670E+04 6.11166E+03-6.51198E-10-4.56256E-09
 -1       660 3.77085E+04-8.70077E+05-9.05574E+04-9.00501E+02-6.58474E-10 1.19636E-09
 -1       661 1.23926E+05 1.34752E+04 1.18784E+04 4.84014E+04 1.58298E-09-1.52977E-09
 -1       662 1.30092E+05 2.28127E+04 8.00404E+03 4.63595E+04 1.78829E-09-1.68257E-09
 -1       663 1.26252E+05 1.72929E+04 2.79988E+03 4.77327E+04-1.51215E-09-2.72689E-09
 -1       664 1.27403E+05 1.83419E+04 1.67389E+03 4.71705E+04-1.04568E-09-8.19256E-11
 -1       665 1.26598E+05 1.78206E+04 6.60332E+02 4.76378E+04-1.16179E-09-1.86876E-09
 -1       666 1.26999E+05 1.77331E+04 3.84996E+02 4.72903E+04-4.07343E-09 1.98524E-09
 -1       667 1.26654E+05 1.78858E+04 2.02995E+02 4.76188E+04-1.43663E-09-1.18692E-09
 -1       668 1.26941E+05 1.76792E+04 2.03229E+02 4.73165E+04 1.97148E-09-3.27168E-09
 -1       669 1.26655E+05 1.78731E+04 2.72308E+02 4.76122E+04-4.03517E-10 5.57003E-09
 -1       670 1.27013E+05 1.78193E+04 5.90165E+02 4.73116E+04 5.62682E-09 7.59749E-09
 -1       671 1.26582E+05 1.77485E+04 1.04705E+03 4.76225E+04-3.66445E-10-4.18368E-09
 -1       672 1.27627E+05 1.88338E+04 2.67812E+03 4.71597E+04-1.00588E-09-7.16909E-09
 -1       673 1.26045E+05 1.68841E+04 4.48788E+03 4.77543E+04-3.61683E-09-5.83373E-09
 -1       674 1.31904E+05 2.60396E+04 1.28346E+04 4.58995E+04-1.13761E-09-8.45148E-10
 -1       675 1.22333E+05 1.07442E+04 1.90503E+04 4.88069E+04-8.07177E-10 1.90812E-09
 -1       676 1.40375E+01-1.67395E+05-6.51889E+02 2.47942E+01-2.28550E-09-5.13530E-09
 -1       677-1.73027E+02-1.67553E+05-1.19300E+03-4.95749E+01-4.70931E-09-4.72293E-09
 -1       678 1.15545E+02-1.67283E+05-2.10889E+03 2.47635E+01-7.44762E-10-3.07749E-09
 -1       679-2.10920E+03-1.68826E+05-5.00954E+03-4.94467E+01-4.51155E-09-2.24237E-09
 -1       680 1.25872E+03-1.66123E+05-8.07375E+03 2.43815E+01-6.99401E-10 1.46192E-09
 -1       771-1.79985E+06-3.13602E+05-4.39274E+04-7.45322E+05-6.98856E-09-6.10453E-09
 -1       772-1.78878E+06-3.37428E+05-2.35827E+04-7.71861E+05-4.91855E-09 3.07955E-09
 -1       773-1.80575E+06-3.09033E+05-1.01583E+04-7.47781E+05-1.82627E-09 2.82671E-09
 -1       774-1.78241E+06-3.32193E+05-4.95066E+03-7.74379E+05 6.62112E-09-1.33878E-09
 -1       775-1.80703E+06-3.08227E+05-2.49492E+03-7.47935E+05 2.29920E-09-1.16052E-09
 -1       776-1.78225E+06-3.32198E+05-1.15213E+03-7.75668E+05 7.85803E-09 3.25599E-09
 -1       777-1.80789E+06-3.07613E+05-7.10789E+02-7.48003E+05 4.07454E-09-5.20231E-10
 -1       778-1.78245E+06-3.32368E+05-3.16995E+02-7.76736E+05 1.73895E-09 2.71757E-09
 -1       779-1.80857E+06-3.07090E+05-3.09935E+02-7.48064E+05-7.63976E-10-2.36014E-09
 -1       780-1.78268E+06-3.32514E+05-2.42165E+02-7.77599E+05-1.99907E-09-1.70530E-10
 -1       781-1.80908E+06-3.06670E+05-4.31991E+02-7.48107E+05-6.30826E-09-1.14869E-09
 -1       782-1.78292E+06-3.32661E+05-7.86016E+02-7.78235E+05-8.94852E-09-1.84286E-09
 -1       783-1.80938E+06-3.06397E+05-1.57313E+03-7.48120E+05-5.46061E-09-7.82211E-09
 -1       784-1.78398E+06-3.33728E+05-3.72614E+03-7.78580E+05-4.42560E-09 1.02773E-10
 -1       785-1.80887E+06-3.06753E+05-6.88979E+03-7.47632E+05-7.10224E-09 7.47605E-10
 -1       786 1.31450E+05-7.00747E+03 1.62114E+04 2.93203E-01 1.83701E-07 3.28509E-09
 -1       787 1.38474E+05 8.11245E+03 1.14694E+04-4.76062E+00 3.65226E-07 5.60249E-09
 -1       788 1.34160E+05-1.09850E+03 4.19592E+03 2.00139E+00 4.74132E-07 1.88288E-09
 -1       789 1.35317E+05 1.27103E+03 2.63636E+03-8.77259E+00 5.82997E-07 1.14680E-08
 -1       790 1.34607E+05-1.71605E+02 1.07277E+03 4.30520E+00 7.59840E-07-4.94379E-09
 -1       791 1.34795E+05 1.99395E+02 6.29951E+02-1.45002E+01 9.37745E-07 6.74124E-09
 -1       792 1.34682E+05-2.76696E+01 2.87696E+02 7.72914E+00 1.28203E-06-9.53072E-09
 -1       793 1.34711E+05 3.89512E+01 1.88913E+02-2.32279E+01 1.62361E-06 2.36516E-09
 -1       794 1.34692E+05-1.12674E+01 1.40533E+02 1.30331E+01 8.12467E-07-2.14679E-10
 -1       795 1.34720E+05 5.83613E+01 2.04144E+02-3.68797E+01 3.03860E-09 1.10417E-08
 -1       796 1.34673E+05-4.70655E+01 3.06313E+02 2.13812E+01 7.16995E-11-1.77526E-09
 -1       797 1.34859E+05 3.45079E+02 7.22679E+02-5.84575E+01-3.29119E-10 4.84697E-09
 -1       798 1.34552E+05-2.97773E+02 1.14087E+03 3.46112E+01-1.83737E-10-7.09406E-11
 -1       799 1.35715E+05 2.19864E+03 3.11032E+03-9.29179E+01-9.05623E-10 1.42273E-09
 -1       800 1.33817E+05-1.89913E+03 4.39366E+03 5.58418E+01-1.54872E-10 3.73416E-09
 -1       801-8.18159E+03 8.85795E+03 1.09083E+04 1.40476E+04 7.72525E-09-4.22529E-09
 -1       802 2.03456E+04 7.41662E+04 3.92706E+04-5.78181E+04 2.07128E-08-2.02817E-10
 -1       803-1.15854E+04 3.36770E+04 4.92334E+04 1.31425E+04 1.62709E-08 1.41837E-08
 -1       804 9.56411E+04 1.15274E+05 1.38024E+05-5.85768E+04 1.92031E-08 1.76459E-08
 -1       805-8.35187E+04-3.20411E+04 1.77187E+05 1.48044E+04 6.75209E-09 1.93211E-08
 -1       806-1.54027E+05-3.30415E+04-1.31088E+04-6.41842E+04 2.94335E-09-8.43102E-10
 -1       807-1.54794E+05-3.11688E+04-6.44006E+03-6.76652E+04 7.84672E-09-2.81960E-09
 -1       808-1.54399E+05-2.83055E+04-2.73191E+03-6.64078E+04 3.61501E-09 1.78464E-09
 -1       809-1.53420E+05-2.93808E+04-1.33556E+03-6.78511E+04-5.95719E-11-3.86535E-12
 -1       810-1.54458E+05-2.81382E+04-6.11531E+02-6.65060E+04 1.18030E-09-9.42919E-10
 -1       811-1.53315E+05-2.93101E+04-3.03277E+02-6.78357E+04-6.82348E-10 1.66449E-09
 -1       812-1.54468E+05-2.81505E+04-1.51302E+02-6.65059E+04 4.42560E-09-2.01908E-09
 -1       813-1.53301E+05-2.93118E+04-9.54238E+01-6.78278E+04 1.18039E-08-5.03712E-09
 -1       814-1.54467E+05-2.81549E+04-8.93821E+01-6.65040E+04 3.93220E-09-3.88445E-09
 -1       815-1.53303E+05-2.93133E+04-1.39903E+02-6.78259E+04-8.41737E-10 1.05956E-09
 -1       816-1.54458E+05-2.81535E+04-2.62039E+02-6.65024E+04-1.14323E-09-2.77191E-09
 -1       817-1.53349E+05-2.93382E+04-5.61922E+02-6.78216E+04 1.78352E-09 2.17221E-09
 -1       818-1.54425E+05-2.82321E+04-1.14511E+03-6.64653E+04-2.97541E-09-2.36423E-09
 -1       819-1.53981E+05-3.00253E+04-2.69530E+03-6.76688E+04-2.15528E-09 1.20690E-09
 -1       820-1.54208E+05-3.02699E+04-5.48528E+03-6.55970E+04 8.64475E-10-1.61742E-09
 -1       821-1.99240E+05 1.10594E+04-2.55784E+04 2.76275E+01-7.51219E-10-1.57161E-09
 -1       822-2.10324E+05-1.28031E+04-1.80999E+04-3.14403E+02-1.78260E-09-2.41175E-09
 -1       823-2.03518E+05 1.73373E+03-6.62495E+03-1.14232E+01 1.00136E-09 2.37515E-09
 -1       824-2.05339E+05-2.00674E+03-4.16884E+03-2.08638E+02 1.70179E-10 2.11230E-10
 -1       825-2.04225E+05 2.71407E+02-1.71285E+03-7.81412E+01-2.74821E-09-2.27499E-09
 -1       826-2.04518E+05-3.20128E+02-1.03542E+03-6.86177E+01-4.88427E-09-3.34876E-09
 -1       827-2.04339E+05 4.83226E+01-5.34638E+02-1.51447E+02-3.48076E-09 1.35415E-10
 -1       828-2.04405E+05-9.77881E+01-4.74098E+02 6.21543E+01-3.97853E-09-7.00554E-09
 -1       829-2.04337E+05 4.92569E+01-5.42490E+02-2.08916E+02-4.23155E-11 4.26780E-10
 -1       830-2.04527E+05-3.27896E+02-1.06009E+03 1.43700E+02 1.24748E-09 4.43347E-09
 -1       831-2.04218E+05 2.78330E+02-1.75487E+03-2.32993E+02-2.07523E-09-1.22657E-09
 -1       832-2.05369E+05-2.05802E+03-4.27618E+03 1.51480E+02-9.40856E-10-7.55051E-10
 -1       833-2.03495E+05 1.77813E+03-6.79474E+03-2.16696E+02 2.09557E-11 1.14505E-09
 -1       834-2.10477E+05-1.31318E+04-1.85649E+04 8.48920E+01-1.02876E-09 2.05478E-09
 -1       835-1.99111E+05 1.13434E+04-2.62365E+04-1.66399E+02 4.06951E-09-3.74530E-09
 -1       836-6.63851E+02 1.88884E+05 1.13725E+04-1.66411E+04 1.39380E-09 2.87400E-10
 -1       837 2.50260E+03 1.92406E+05 9.70424E+03-3.34327E+04 1.95678E-09-8.38725E-09
 -1       838-2.44558E+02 1.89866E+05 1.00006E+04-1.65840E+04 1.75669E-09-1.34492E-10
 -1       839 6.41545E+03 1.95327E+05 1.90298E+04-3.34533E+04 2.15186E-09 2.81551E-09
 -1       840-1.92993E+03 1.85942E+05 3.03910E+04-1.66195E+04 1.61344E-09-5.76620E-10
 -1       856-6.25287E+04 5.33948E+03-1.40701E+04-3.07609E+02-2.21968E-09 4.18368E-11
 -1       857-6.83417E+04-6.26287E+03-9.68725E+03 3.21657E+03-2.67428E-09-2.63390E-09
 -1       858-6.48253E+04 7.48289E+02-3.65158E+03-3.19441E+02-1.71974E-09-2.39220E-09
 -1       859-6.57036E+04-8.70742E+02-2.20561E+03 3.23530E+03-2.74042E-10 5.71845E-10
 -1       860-6.51688E+04 1.04163E+02-9.27430E+02-3.26422E+02-9.52724E-10-2.83933E-10
 -1       861-6.53076E+04-1.15976E+02-5.16779E+02 3.24480E+03-4.49342E-09-3.37207E-09
 -1       862-6.52223E+04 1.38999E+01-2.27965E+02-3.28957E+02 3.87968E-09-1.48820E-09
 -1       863-6.52444E+04-9.57756E+00-1.12883E+02 3.24592E+03 6.90648E-09-5.09995E-09
 -1       864-6.52321E+04 7.61944E-02-3.57311E+01-3.27555E+02 4.36421E-09-5.05854E-09
 -1       865-6.52264E+04 1.47435E+01 2.02956E+01 3.23879E+03 6.64667E-09 7.88903E-10
 -1       866-6.52394E+04-1.05990E+01 7.55726E+01-3.21824E+02 1.24800E-10-2.36849E-09
 -1       867-6.51826E+04 8.93763E+01 2.07841E+02 3.22328E+03-1.63141E-10 3.18329E-09
 -1       868-6.52742E+04-7.38662E+01 3.51119E+02-3.12036E+02-1.92057E-09-4.02011E-10
 -1       869-6.49201E+04 6.13571E+02 9.42281E+02 3.19712E+03-2.11671E-10-3.92527E-09
 -1       870-6.54994E+04-5.21504E+02 1.36718E+03-2.95674E+02 5.91172E-10-1.55865E-09
 -1       871-2.90711E+03-6.03950E+03-9.45900E+03 6.19983E+04 2.41107E-09 3.44244E-10
 -1       872-1.26417E+03-8.15212E+03-3.85163E+03 8.03755E+04 2.37060E-09-1.26624E-09
 -1       873-2.83042E+01-7.15814E+03 5.63638E+02 6.18610E+04 1.83832E-09 4.62592E-09
 -1       874 1.46055E+03-5.77698E+03 5.39638E+03 8.04047E+04 4.55793E-09 4.13547E-09
 -1       875 3.46464E+03-8.44344E+03 1.19600E+04 6.19741E+04 2.57296E-09 1.09549E-09
 -1       876 1.55311E+05 2.67734E+04 8.32927E+03 6.30232E+04-4.12683E-09-1.68802E-09
 -1       877 1.55783E+05 2.86061E+04 4.44794E+03 6.54922E+04-5.10670E-09-1.86441E-09
 -1       878 1.56090E+05 2.58508E+04 1.86353E+03 6.37069E+04 1.58798E-09-1.00624E-09
 -1       879 1.54649E+05 2.74781E+04 9.28254E+02 6.55523E+04-2.46246E-10 2.32467E-09
 -1       880 1.56148E+05 2.58401E+04 4.32174E+02 6.37348E+04 1.46133E-09-6.43706E-09
 -1       881 1.54574E+05 2.74303E+04 2.30111E+02 6.55414E+04 4.88194E-09-2.63103E-09
 -1       882 1.56154E+05 2.58465E+04 1.46112E+02 6.37356E+04 6.56269E-09-6.72259E-10
 -1       883 1.54569E+05 2.74282E+04 1.55264E+02 6.55384E+04 1.54074E-09 8.54904E-10
 -1       884 1.56151E+05 2.58447E+04 2.45376E+02 6.37357E+04 1.45405E-09 7.22471E-09
 -1       885 1.54588E+05 2.74317E+04 4.92340E+02 6.55447E+04 1.37904E-09-4.22386E-09
 -1       886 1.56132E+05 2.58303E+04 9.91849E+02 6.37338E+04 4.79906E-09-2.24190E-10
 -1       887 1.54763E+05 2.75459E+04 2.16644E+03 6.55696E+04-1.51186E-09-1.99691E-09
 -1       888 1.55995E+05 2.58546E+04 4.36547E+03 6.36645E+04 1.37140E-09 8.69932E-10
 -1       889 1.57365E+05 3.02465E+04 1.04290E+04 6.54864E+04 2.22206E-09-1.66528E-09
 -1       890 1.54215E+05 2.79679E+04 1.95325E+04 6.19998E+04 3.96381E-09-5.25688E-10
 -1       891-9.57576E+01-8.83519E+04-1.04006E+03 1.68309E+04-6.78483E-10 5.17502E-10
 -1       892-1.66588E+02-8.86022E+04-1.13283E+03 2.54714E+04-1.05842E-10-5.22687E-09
 -1       893-2.53818E+01-8.83859E+04-1.61986E+03 1.68339E+04-1.21190E-09 5.84396E-09
 -1       894-8.82381E+02-8.92285E+04-3.36475E+03 2.53813E+04-3.03135E-09 1.19826E-10
 -1       895-6.87672E+02-8.76895E+04-5.92891E+03 1.69199E+04-1.32263E-09-6.02768E-09
 -1       956-1.95066E+05-2.81469E+03-7.08837E+03 1.28799E+04-3.76986E-09-7.61020E-10
 -1       957-1.96465E+05-9.49505E+02-3.63904E+03 1.55059E+04-1.41563E-09 2.50145E-09
 -1       958-1.95692E+05-7.54909E+01-1.63935E+03 1.27959E+04 2.64481E-09-3.52816E-09
 -1       959-1.95803E+05-1.38301E+01-8.37418E+02 1.55967E+04-1.51431E-09 1.53079E-09
 -1       960-1.95747E+05 2.27120E+01-4.08105E+02 1.27881E+04-2.96859E-09-5.09033E-09
 -1       961-1.95754E+05 2.04880E+01-2.16407E+02 1.56054E+04-6.16160E-09 4.09273E-11
 -1       962-1.95757E+05 1.91144E+01-1.23515E+02 1.27870E+04-2.24327E-09 1.25112E-09
 -1       963-1.95750E+05 2.08244E+01-9.85638E+01 1.56068E+04-2.55113E-09 1.09139E-09
 -1       964-1.95759E+05 2.01694E+01-1.18856E+02 1.27866E+04-1.48276E-09 3.29692E-12
 -1       965-1.95758E+05 2.28534E+01-2.04715E+02 1.56068E+04 2.36921E-09-2.21030E-09
 -1       966-1.95753E+05 2.58020E+01-3.83836E+02 1.27870E+04-7.06507E-10 7.91829E-10
 -1       967-1.95809E+05-7.03261E+00-7.87027E+02 1.56021E+04 2.27999E-10 4.26189E-09
 -1       968-1.95705E+05-6.42447E+01-1.53996E+03 1.27914E+04 1.33446E-09 2.71930E-09
 -1       969-1.96435E+05-8.84123E+02-3.41914E+03 1.55493E+04-2.21689E-11-1.94787E-09
 -1       970-1.95119E+05-2.63652E+03-6.65952E+03 1.28414E+04 5.58202E-10 3.06864E-09
 -1       971-1.85430E+05-9.80720E+02-5.45972E+03 9.10983E+03-5.12637E-09-2.68463E-09
 -1       972-1.86758E+05-7.03972E+02-2.97362E+03 1.27179E+04-3.44517E-09-1.00138E-08
 -1       973-1.86035E+05-6.30497E+00-1.33121E+03 9.03483E+03-5.53155E-09 7.35213E-10
 -1       974-1.86127E+05-7.71502E+00-6.89738E+02 1.27984E+04-5.01382E-09-1.56820E-09
 -1       975-1.86080E+05 1.79503E+01-3.43772E+02 9.02860E+03-3.69596E-09-1.12652E-09
 -1       976-1.86087E+05 1.97081E+01-1.96872E+02 1.28057E+04-4.02281E-09-3.82772E-09
 -1       977-1.86088E+05 1.69364E+01-1.40057E+02 9.02745E+03-8.25366E-11 4.67651E-10
 -1       978-1.86088E+05 2.22015E+01-1.60162E+02 1.28073E+04 7.73662E-09 5.19140E-09
 -1       979-1.86088E+05 2.08482E+01-2.54015E+02 9.02698E+03 3.38849E-09 5.17559E-09
 -1       980-1.86106E+05 2.35840E+01-4.88394E+02 1.28075E+04 4.32627E-09-7.21940E-09
 -1       981-1.86072E+05 3.30597E+01-9.44734E+02 9.02724E+03-1.01113E-09-3.34467E-09
 -1       982-1.86237E+05-4.58247E+01-1.95208E+03 1.28040E+04-3.41106E-09 9.87569E-10
 -1       983-1.85954E+05-2.68169E+01-3.79242E+03 9.03065E+03 2.75736E-09 2.84069E-09
 -1       984-1.88062E+05-2.02538E+03-8.49240E+03 1.27532E+04 8.89486E-10 5.87067E-09
 -1       985-1.84238E+05-2.80124E+03-1.55947E+04 9.08112E+03 3.14731E-09-1.46974E-09
 -3
    1PSTEP                         7           4           1          
  100CL  104 4.68750E-01         409                     0    4           1
 -4  DISP        4    1
 -5  D1          1    2    1    0
 -5  D2          1    2    2    0
 -5  D3          1    2    3    0
 -5  ALL         1    2    0    0    1ALL
 -1         1 1.27133E-04 0.00000E+00 0.00000E+00
 -1         2 1.16581E-04 5.13901E-30 0.00000E+00
 -1         3 1.10176E-04-1.66248E-27 6.61744E-24
 -1         5 7.80091E-05 1.44388E-26 0.00000E+00
 -1         8 1.02728E-04-8.85861E-07 0.00000E+00
 -1         9 1.03416E-04 4.50299E-07 0.00000E+00
 -1        10 1.01948E-04-1.50280E-06 0.00000E+00
 -1        12 7.75213E-05 5.12310E-07 1.65436E-24
 -1        15 7.36636E-05-9.77359E-07 4.13590E-25
 -1        16 7.63097E-05 2.94213E-07 0.00000E+00
 -1        17 7.56598E-05-3.17368E-06 0.00000E+00
 -1        18 7.50665E-05 7.85684E-07 0.00000E+00
 -1        19 7.60581E-05 1.02179E-06 0.00000E+00
 -1        20 7.61899E-05 1.46072E-05 0.00000E+00
 -1        21 7.56889E-05 2.75096E-05 0.00000E+00
 -1        24 1.86451E-05-4.32139E-06 0.00000E+00
 -1        25 7.35871E-05 9.04093E-07 0.00000E+00
 -1        26 7.45149E-05 1.42304E-06 0.00000E+00
 -1        27 7.30965E-05 1.23301E-05 0.00000E+00
 -1        28 7.26436E-05 2.70729E-05 0.00000E+00
 -1        32 0.00000E+00 0.00000E+00 0.00000E+00
 -1        33 7.17592E-05 1.90745E-06 0.00000E+00
 -1        34 7.03899E-05 1.23095E-05 0.00000E+00
 -1        35 6.90889E-05 2.68421E-05 0.00000E+00
 -1        51 1.25547E-04-1.45625E-07 0.00000E+00
 -1        52 1.22606E-04-2.87334E-07 0.00000E+00
 -1        53 1.18576E-04-4.30531E-07 0.00000E+00
 -1        54 1.13735E-04-5.76652E-07 3.30872E-24
 -1        55 1.08359E-04-7.26424E-07-1.24077E-24
 -1        56 1.25990E-04-7.44281E-07 0.00000E+00
 -1        57 1.24993E-04-2.00873E-06 1.32349E-23
 -1        58 1.24138E-04-3.64727E-06 0.00000E+00
 -1        59 1.23364E-04-5.52288E-06-2.64698E-23
 -1        60 1.22618E-04-7.47772E-06 0.00000E+00
 -1        61 1.21843E-04-9.35471E-06 0.00000E+00
 -1        62 1.20980E-04-1.10009E-05 0.00000E+00
 -1        63 1.19977E-04-1.22708E-05 0.00000E+00
 -1        64 1.18787E-04-1.30420E-05 0.00000E+00
 -1        65 1.17370E-04-1.32071E-05-2.64698E-23
 -1        66 1.15700E-04-1.26961E-05 0.00000E+00
 -1        67 1.13757E-04-1.14591E-05 0.00000E+00
 -1        68 1.11538E-04-9.49137E-06 2.64698E-23
 -1        69 1.09057E-04-6.80766E-06 0.00000E+00
 -1        70 1.06326E-04-3.47201E-06 0.00000E+00
 -1        86 1.16237E-04 8.30349E-08 1.65436E-24
 -1        87 1.15207E-04 1.65069E-07 0.00000E+00
 -1        88 1.13457E-04 2.46060E-07 0.00000E+00
 -1        89 1.10954E-04 3.22079E-07-4.13590E-25
 -1        90 1.07630E-04 3.96953E-07-3.30872E-24
 -1       121 1.09947E-04-2.49197E-07 0.00000E+00
 -1       122 1.09258E-04-4.98601E-07-3.30872E-24
 -1       123 1.08111E-04-7.48419E-07-6.61744E-24
 -1       124 1.06509E-04-9.98895E-07 0.00000E+00
 -1       125 1.04453E-04-1.25016E-06 0.00000E+00
 -1       191 7.79955E-05 8.53922E-08 0.00000E+00
 -1       192 7.79549E-05 1.70783E-07 1.65436E-24
 -1       193 7.78871E-05 2.56172E-07 3.30872E-24
 -1       194 7.77923E-05 3.41558E-07 0.00000E+00
 -1       195 7.76704E-05 4.26938E-07-3.30872E-24
 -1       251 1.02750E-04 3.14199E-06 0.00000E+00
 -1       252 1.02793E-04 5.56262E-06 0.00000E+00
 -1       253 1.02837E-04 6.63536E-06-5.16988E-26
 -1       254 1.02885E-04 6.61659E-06 4.13590E-25
 -1       255 1.02932E-04 5.73521E-06 8.27181E-25
 -1       256 1.02980E-04 4.21836E-06 0.00000E+00
 -1       257 1.03026E-04 2.27697E-06 1.65436E-24
 -1       258 1.03073E-04 1.21133E-07 8.27181E-25
 -1       259 1.03119E-04-2.04461E-06 1.65436E-24
 -1       260 1.03166E-04-4.01567E-06 8.27181E-25
 -1       261 1.03213E-04-5.58249E-06 0.00000E+00
 -1       262 1.03260E-04-6.53474E-06-4.13590E-25
 -1       263 1.03308E-04-6.64638E-06-1.03398E-25
 -1       264 1.03352E-04-5.68965E-06 8.27181E-25
 -1       265 1.03395E-04-3.40992E-06 0.00000E+00
 -1       266 9.78836E-05-9.13058E-07-6.61744E-24
 -1       267 9.30396E-05-9.26852E-07 1.65436E-24
 -1       268 8.81956E-05-9.41494E-07-1.65436E-24
 -1       269 8.33516E-05-9.53621E-07-4.13590E-25
 -1       270 7.85076E-05-9.65690E-07 4.13590E-25
 -1       271 9.97787E-05 2.76830E-06 2.64698E-23
 -1       272 9.72547E-05 5.16178E-06 1.32349E-23
 -1       273 9.51562E-05 6.43347E-06 0.00000E+00
 -1       274 9.34198E-05 6.72189E-06 0.00000E+00
 -1       275 9.19908E-05 6.18983E-06 0.00000E+00
 -1       276 9.08023E-05 5.01218E-06 0.00000E+00
 -1       277 8.97848E-05 3.37685E-06 0.00000E+00
 -1       278 8.88649E-05 1.47961E-06 0.00000E+00
 -1       279 8.79677E-05-4.78679E-07 0.00000E+00
 -1       280 8.70181E-05-2.29603E-06 0.00000E+00
 -1       281 8.59415E-05-3.77329E-06 0.00000E+00
 -1       282 8.46661E-05-4.71727E-06 0.00000E+00
 -1       283 8.31228E-05-4.94527E-06 0.00000E+00
 -1       284 8.12512E-05-4.28578E-06 0.00000E+00
 -1       285 7.89869E-05-2.58781E-06-2.64698E-23
 -1       301 9.87078E-05 4.17136E-07 0.00000E+00
 -1       302 9.40226E-05 3.99399E-07 0.00000E+00
 -1       303 8.94004E-05 3.82307E-07 0.00000E+00
 -1       304 8.48810E-05 3.63992E-07 0.00000E+00
 -1       305 8.05044E-05 3.43984E-07-1.32349E-23
 -1       306 1.00368E-04 3.85953E-06 0.00000E+00
 -1       307 9.77987E-05 5.85221E-06-2.64698E-23
 -1       308 9.57884E-05 6.37084E-06 0.00000E+00
 -1       309 9.43258E-05 5.40347E-06 0.00000E+00
 -1       310 9.33377E-05 3.16681E-06-5.29396E-23
 -1       311 9.27189E-05-6.56911E-08-2.64698E-23
 -1       312 9.23128E-05-3.87060E-06 5.29396E-23
 -1       313 9.19518E-05-7.79789E-06-2.64698E-23
 -1       314 9.14620E-05-1.13786E-05 0.00000E+00
 -1       315 9.06752E-05-1.41603E-05 0.00000E+00
 -1       316 8.94665E-05-1.58111E-05 0.00000E+00
 -1       317 8.77317E-05-1.60521E-05 0.00000E+00
 -1       318 8.54414E-05-1.48160E-05 0.00000E+00
 -1       319 8.26042E-05-1.21012E-05 2.64698E-23
 -1       320 7.92879E-05-8.13449E-06-2.64698E-23
 -1       336 9.89382E-05-1.77648E-06 0.00000E+00
 -1       337 9.53686E-05-2.05229E-06 0.00000E+00
 -1       338 9.12466E-05-2.33006E-06 6.61744E-24
 -1       339 8.65810E-05-2.60971E-06 0.00000E+00
 -1       340 8.13816E-05-2.89193E-06 6.61744E-24
 -1       406 7.73451E-05 5.97668E-07-3.30872E-24
 -1       407 7.71418E-05 6.82992E-07 0.00000E+00
 -1       408 7.69115E-05 7.68259E-07-3.30872E-24
 -1       409 7.66540E-05 8.53362E-07 0.00000E+00
 -1       410 7.63694E-05 9.38135E-07 0.00000E+00
 -1       521 7.45157E-05-3.61656E-06-5.29396E-23
 -1       522 7.75193E-05-2.09708E-05 2.64698E-23
 -1       523 8.42392E-05-4.88465E-05 0.00000E+00
 -1       524 9.32554E-05-8.34787E-05 5.29396E-23
 -1       525 1.02793E-04-1.19646E-04 0.00000E+00
 -1       526 1.11033E-04-1.52003E-04 0.00000E+00
 -1       527 1.16381E-04-1.76024E-04 0.00000E+00
 -1       528 1.17389E-04-1.87882E-04 0.00000E+00
 -1       529 1.13429E-04-1.86338E-04 0.00000E+00
 -1       530 1.04245E-04-1.71241E-04 0.00000E+00
 -1       531 9.07310E-05-1.45266E-04 0.00000E+00
 -1       532 7.42077E-05-1.11929E-04 0.00000E+00
 -1       533 5.67201E-05-7.62583E-05 0.00000E+00
 -1       534 4.04376E-05-4.34506E-05 2.64698E-23
 -1       535 2.72017E-05-1.81368E-05 0.00000E+00
 -1       536 7.56038E-05 2.31747E-06-3.30872E-24
 -1       537 7.55590E-05 6.83471E-06-8.27181E-25
 -1       538 7.55177E-05 1.03440E-05 0.00000E+00
 -1       539 7.54806E-05 1.28131E-05 0.00000E+00
 -1       540 7.54454E-05 1.42853E-05 0.00000E+00
 -1       541 7.54114E-05 1.48055E-05 0.00000E+00
 -1       542 7.53775E-05 1.44879E-05 0.00000E+00
 -1       543 7.53431E-05 1.34478E-05 4.13590E-25
 -1       544 7.53081E-05 1.18532E-05 0.00000E+00
 -1       545 7.52725E-05 9.87279E-06 4.13590E-25
 -1       546 7.52366E-05 7.70330E-06 0.00000E+00
 -1       547 7.52007E-05 5.54184E-06 4.13590E-25
 -1       548 7.51653E-05 3.58486E-06 0.00000E+00
 -1       549 7.51310E-05 2.02853E-06 2.06795E-25
 -1       550 7.50973E-05 1.04005E-06 0.00000E+00
 -1       551 6.81397E-05-3.34471E-06 0.00000E+00
 -1       552 5.91469E-05-3.52430E-06-1.65436E-24
 -1       553 4.91876E-05-3.71241E-06 1.65436E-24
 -1       554 3.87755E-05-3.90713E-06-3.30872E-24
 -1       555 2.84247E-05-4.10396E-06 0.00000E+00
 -1       556 7.36722E-05 1.97307E-06 1.32349E-23
 -1       557 7.21483E-05 5.92295E-06 0.00000E+00
 -1       558 7.10376E-05 8.78530E-06 0.00000E+00
 -1       559 7.02941E-05 1.06782E-05 0.00000E+00
 -1       560 6.98720E-05 1.17193E-05-1.32349E-23
 -1       561 6.97257E-05 1.20271E-05 0.00000E+00
 -1       562 6.98102E-05 1.17203E-05 0.00000E+00
 -1       563 7.00805E-05 1.09175E-05 0.00000E+00
 -1       564 7.04920E-05 9.73764E-06 0.00000E+00
 -1       565 7.10000E-05 8.29948E-06 0.00000E+00
 -1       566 7.15601E-05 6.72201E-06-8.27181E-25
 -1       567 7.21278E-05 5.12419E-06 2.06795E-25
 -1       568 7.26587E-05 3.62492E-06 0.00000E+00
 -1       569 7.31084E-05 2.34304E-06 0.00000E+00
 -1       570 7.34324E-05 1.39736E-06 0.00000E+00
 -1       571 7.51267E-05 8.38164E-07-1.65436E-24
 -1       572 7.51882E-05 8.49542E-07 2.06795E-25
 -1       573 7.52501E-05 8.27185E-07 0.00000E+00
 -1       574 7.53122E-05 7.78848E-07 4.13590E-25
 -1       575 7.53744E-05 7.12318E-07 0.00000E+00
 -1       576 7.54365E-05 6.35433E-07 0.00000E+00
 -1       577 7.54987E-05 5.56038E-07 0.00000E+00
 -1       578 7.55609E-05 4.81983E-07 0.00000E+00
 -1       579 7.56231E-05 4.21117E-07 0.00000E+00
 -1       580 7.56853E-05 3.81293E-07 0.00000E+00
 -1       581 7.57475E-05 3.70361E-07 0.00000E+00
 -1       582 7.58097E-05 3.96161E-07 0.00000E+00
 -1       583 7.58719E-05 4.66528E-07 3.30872E-24
 -1       584 7.59340E-05 5.89216E-07 0.00000E+00
 -1       585 7.59961E-05 7.71934E-07 0.00000E+00
 -1       586 7.47977E-05 8.06636E-07 8.27181E-25
 -1       587 7.45026E-05 8.27074E-07 2.06795E-25
 -1       588 7.42075E-05 8.47290E-07 0.00000E+00
 -1       589 7.39390E-05 8.67186E-07 0.00000E+00
 -1       590 7.37236E-05 8.86540E-07 0.00000E+00
 -1       591 7.50177E-05 8.70415E-07 0.00000E+00
 -1       592 7.49790E-05 9.21625E-07 0.00000E+00
 -1       593 7.49503E-05 9.45706E-07 0.00000E+00
 -1       594 7.49293E-05 9.48412E-07 2.06795E-25
 -1       595 7.49140E-05 9.35574E-07 0.00000E+00
 -1       596 7.49024E-05 9.12977E-07 0.00000E+00
 -1       597 7.48923E-05 8.86406E-07 4.13590E-25
 -1       598 7.48815E-05 8.61642E-07 0.00000E+00
 -1       599 7.48678E-05 8.44463E-07-4.13590E-25
 -1       600 7.48491E-05 8.40648E-07 0.00000E+00
 -1       601 7.48233E-05 8.55975E-07 0.00000E+00
 -1       602 7.47882E-05 8.96231E-07 1.03398E-25
 -1       603 7.47416E-05 9.67198E-07 0.00000E+00
 -1       604 7.46816E-05 1.07471E-06 0.00000E+00
 -1       605 7.46060E-05 1.22451E-06 0.00000E+00
 -1       606 7.60696E-05 1.41333E-06 0.00000E+00
 -1       607 7.60788E-05 1.89274E-06 1.65436E-24
 -1       608 7.60874E-05 2.45486E-06 3.30872E-24
 -1       609 7.60957E-05 3.09388E-06 0.00000E+00
 -1       610 7.61039E-05 3.80396E-06 0.00000E+00
 -1       611 7.61120E-05 4.57916E-06 0.00000E+00
 -1       612 7.61200E-05 5.41355E-06 0.00000E+00
 -1       613 7.61280E-05 6.30121E-06 0.00000E+00
 -1       614 7.61359E-05 7.23619E-06 0.00000E+00
 -1       615 7.61438E-05 8.21254E-06 0.00000E+00
 -1       616 7.61516E-05 9.22435E-06-1.65436E-24
 -1       617 7.61594E-05 1.02657E-05 0.00000E+00
 -1       618 7.61672E-05 1.13305E-05-8.27181E-25
 -1       619 7.61749E-05 1.24130E-05 0.00000E+00
 -1       620 7.61826E-05 1.35072E-05-4.13590E-25
 -1       621 7.57546E-05 1.08871E-06 1.65436E-24
 -1       622 7.54769E-05 1.15596E-06 0.00000E+00
 -1       623 7.52196E-05 1.22320E-06 0.00000E+00
 -1       624 7.49772E-05 1.29033E-06-8.27181E-25
 -1       625 7.47441E-05 1.35735E-06 1.65436E-24
 -1       626 7.59830E-05 1.43446E-06 0.00000E+00
 -1       627 7.58811E-05 1.91978E-06 3.30872E-24
 -1       628 7.57546E-05 2.47096E-06 0.00000E+00
 -1       629 7.56062E-05 3.08080E-06 3.30872E-24
 -1       630 7.54384E-05 3.74208E-06 0.00000E+00
 -1       631 7.52541E-05 4.44752E-06-1.65436E-24
 -1       632 7.50559E-05 5.18983E-06-3.30872E-24
 -1       633 7.48466E-05 5.96176E-06 1.65436E-24
 -1       634 7.46289E-05 6.75602E-06 0.00000E+00
 -1       635 7.44056E-05 7.56534E-06 0.00000E+00
 -1       636 7.41793E-05 8.38245E-06 0.00000E+00
 -1       637 7.39527E-05 9.20009E-06 8.27181E-25
 -1       638 7.37287E-05 1.00110E-05-1.65436E-24
 -1       639 7.35098E-05 1.08078E-05 8.27181E-25
 -1       640 7.32985E-05 1.15833E-05 8.27181E-25
 -1       656 7.52802E-05 1.42367E-05 0.00000E+00
 -1       657 7.47012E-05 1.38514E-05 3.30872E-24
 -1       658 7.43275E-05 1.34673E-05 0.00000E+00
 -1       659 7.40308E-05 1.30835E-05-3.30872E-24
 -1       660 7.36678E-05 1.26986E-05-6.61744E-24
 -1       661 7.58538E-05 1.56839E-05 8.27181E-25
 -1       662 7.55386E-05 1.67126E-05 0.00000E+00
 -1       663 7.52409E-05 1.76944E-05 0.00000E+00
 -1       664 7.49604E-05 1.86319E-05 0.00000E+00
 -1       665 7.46959E-05 1.95268E-05-1.65436E-24
 -1       666 7.44467E-05 2.03812E-05 0.00000E+00
 -1       667 7.42121E-05 2.11971E-05 1.65436E-24
 -1       668 7.39912E-05 2.19761E-05-8.27181E-25
 -1       669 7.37836E-05 2.27201E-05-1.65436E-24
 -1       670 7.35884E-05 2.34306E-05 8.27181E-25
 -1       671 7.34053E-05 2.41093E-05 0.00000E+00
 -1       672 7.32334E-05 2.47576E-05 8.27181E-25
 -1       673 7.30723E-05 2.53770E-05 0.00000E+00
 -1       674 7.29209E-05 2.59685E-05 8.27181E-25
 -1       675 7.27796E-05 2.65340E-05 4.13590E-25
 -1       676 7.51801E-05 2.74364E-05 0.00000E+00
 -1       677 7.46716E-05 2.73632E-05 8.27181E-25
 -1       678 7.41634E-05 2.72901E-05 0.00000E+00
 -1       679 7.36559E-05 2.72171E-05 8.27181E-25
 -1       680 7.31492E-05 2.71442E-05 0.00000E+00
 -1       771 1.47357E-05 3.22289E-06 2.64698E-23
 -1       772 1.13386E-05 9.40264E-06 1.32349E-23
 -1       773 8.43276E-06 1.42930E-05 2.64698E-23
 -1       774 5.98549E-06 1.79744E-05-1.32349E-23
 -1       775 3.96485E-06 2.05291E-05 0.00000E+00
 -1       776 2.33737E-06 2.20425E-05 0.00000E+00
 -1       777 1.06920E-06 2.26019E-05 0.00000E+00
 -1       778 1.25732E-07 2.22968E-05 1.32349E-23
 -1       779-5.27924E-07 2.12184E-05 0.00000E+00
 -1       780-9.27280E-07 1.94600E-05 1.32349E-23
 -1       781-1.10798E-06 1.71160E-05-2.64698E-23
 -1       782-1.10616E-06 1.42822E-05 0.00000E+00
 -1       783-9.58027E-07 1.10556E-05 0.00000E+00
 -1       784-7.00060E-07 7.53393E-06 0.00000E+00
 -1       785-3.68858E-07 3.81564E-06 0.00000E+00
 -1       786 7.36417E-05 8.63017E-07-4.13590E-25
 -1       787 7.36995E-05 8.27969E-07-4.13590E-25
 -1       788 7.37572E-05 7.98483E-07-1.65436E-24
 -1       789 7.38154E-05 7.74109E-07 8.27181E-25
 -1       790 7.38737E-05 7.55082E-07 0.00000E+00
 -1       791 7.39321E-05 7.41651E-07 0.00000E+00
 -1       792 7.39905E-05 7.34821E-07 1.65436E-24
 -1       793 7.40489E-05 7.35611E-07 8.27181E-25
 -1       794 7.41073E-05 7.46067E-07 0.00000E+00
 -1       795 7.41658E-05 7.68263E-07-8.27181E-25
 -1       796 7.42242E-05 8.05848E-07 1.65436E-24
 -1       797 7.42826E-05 8.62516E-07-8.27181E-25
 -1       798 7.43410E-05 9.44526E-07 0.00000E+00
 -1       799 7.43992E-05 1.05821E-06 0.00000E+00
 -1       800 7.44575E-05 1.21415E-06 0.00000E+00
 -1       801 6.86159E-05 8.43778E-07-1.65436E-24
 -1       802 5.37319E-05 6.86948E-07 0.00000E+00
 -1       803 3.41958E-05 4.57305E-07 0.00000E+00
 -1       804 1.52783E-05 2.32358E-07-3.30872E-24
 -1       805 2.15623E-06 9.34578E-08 1.32349E-23
 -1       806 7.35308E-05 8.21736E-07 0.00000E+00
 -1       807 7.34710E-05 7.40537E-07 8.27181E-25
 -1       808 7.34086E-05 6.65000E-07 1.65436E-24
 -1       809 7.33423E-05 5.98932E-07-8.27181E-25
 -1       810 7.32710E-05 5.46133E-07 0.00000E+00
 -1       811 7.31932E-05 5.10344E-07 8.27181E-25
 -1       812 7.31077E-05 4.95300E-07-3.30872E-24
 -1       813 7.30129E-05 5.04731E-07-8.27181E-25
 -1       814 7.29075E-05 5.42360E-07 3.30872E-24
 -1       815 7.27902E-05 6.11909E-07 8.27181E-25
 -1       816 7.26596E-05 7.17097E-07-3.30872E-24
 -1       817 7.25141E-05 8.61642E-07-1.65436E-24
 -1       818 7.23526E-05 1.04926E-06 0.00000E+00
 -1       819 7.21736E-05 1.28364E-06 0.00000E+00
 -1       820 7.19760E-05 1.56850E-06 8.27181E-25
 -1       821 7.44314E-05 1.65208E-06 0.00000E+00
 -1       822 7.43428E-05 1.86916E-06 8.27181E-25
 -1       823 7.42545E-05 2.11402E-06-1.65436E-24
 -1       824 7.41652E-05 2.42632E-06 0.00000E+00
 -1       825 7.40759E-05 2.83320E-06 0.00000E+00
 -1       826 7.39863E-05 3.36140E-06 1.65436E-24
 -1       827 7.38967E-05 4.01520E-06 0.00000E+00
 -1       828 7.38069E-05 4.79837E-06 1.65436E-24
 -1       829 7.37170E-05 5.69070E-06 3.30872E-24
 -1       830 7.36271E-05 6.67152E-06 0.00000E+00
 -1       831 7.35371E-05 7.70381E-06 0.00000E+00
 -1       832 7.34474E-05 8.75030E-06 0.00000E+00
 -1       833 7.33576E-05 9.77108E-06-1.65436E-24
 -1       834 7.32690E-05 1.07264E-05-8.27181E-25
 -1       835 7.31801E-05 1.15885E-05 8.27181E-25
 -1       836 7.41915E-05 1.50369E-06 0.00000E+00
 -1       837 7.37618E-05 1.58612E-06 0.00000E+00
 -1       838 7.32647E-05 1.66839E-06-1.65436E-24
 -1       839 7.27391E-05 1.75013E-06 8.27181E-25
 -1       840 7.22243E-05 1.83174E-06-2.06795E-25
 -1       856 7.30714E-05 1.30634E-05 0.00000E+00
 -1       857 7.30435E-05 1.38939E-05 0.00000E+00
 -1       858 7.30156E-05 1.48062E-05 0.00000E+00
 -1       859 7.29871E-05 1.57851E-05 0.00000E+00
 -1       860 7.29586E-05 1.68151E-05 0.00000E+00
 -1       861 7.29299E-05 1.78806E-05-4.13590E-25
 -1       862 7.29013E-05 1.89662E-05 8.27181E-25
 -1       863 7.28725E-05 2.00561E-05 0.00000E+00
 -1       864 7.28438E-05 2.11349E-05-8.27181E-25
 -1       865 7.28151E-05 2.21871E-05 0.00000E+00
 -1       866 7.27865E-05 2.31969E-05 8.27181E-25
 -1       867 7.27578E-05 2.41490E-05 0.00000E+00
 -1       868 7.27293E-05 2.50280E-05-8.27181E-25
 -1       869 7.27007E-05 2.58185E-05 0.00000E+00
 -1       870 7.26723E-05 2.65051E-05 0.00000E+00
 -1       871 7.25465E-05 1.23293E-05 0.00000E+00
 -1       872 7.20900E-05 1.23266E-05 0.00000E+00
 -1       873 7.16869E-05 1.23235E-05 0.00000E+00
 -1       874 7.12963E-05 1.23199E-05-1.03398E-25
 -1       875 7.08775E-05 1.23159E-05-2.06795E-25
 -1       876 7.29066E-05 1.30715E-05 0.00000E+00
 -1       877 7.27008E-05 1.38602E-05 0.00000E+00
 -1       878 7.24796E-05 1.46905E-05 0.00000E+00
 -1       879 7.22449E-05 1.55571E-05 0.00000E+00
 -1       880 7.19987E-05 1.64546E-05-3.30872E-24
 -1       881 7.17429E-05 1.73776E-05 1.65436E-24
 -1       882 7.14795E-05 1.83209E-05 0.00000E+00
 -1       883 7.12105E-05 1.92791E-05 0.00000E+00
 -1       884 7.09379E-05 2.02469E-05 3.30872E-24
 -1       885 7.06637E-05 2.12190E-05 0.00000E+00
 -1       886 7.03898E-05 2.21901E-05 1.65436E-24
 -1       887 7.01182E-05 2.31549E-05 0.00000E+00
 -1       888 6.98508E-05 2.41079E-05 0.00000E+00
 -1       889 6.95894E-05 2.50439E-05 8.27181E-25
 -1       890 6.93360E-05 2.59575E-05-8.27181E-25
 -1       891 7.21570E-05 2.70343E-05 8.27181E-25
 -1       892 7.16537E-05 2.69956E-05 0.00000E+00
 -1       893 7.11144E-05 2.69568E-05 0.00000E+00
 -1       894 7.05199E-05 2.69182E-05 4.13590E-25
 -1       895 6.98511E-05 2.68796E-05 4.13590E-25
 -1       956 7.16752E-05 2.35682E-06-1.65436E-24
 -1       957 7.15899E-05 2.86107E-06 8.27181E-25
 -1       958 7.15043E-05 3.41447E-06 0.00000E+00
 -1       959 7.14185E-05 4.01096E-06 0.00000E+00
 -1       960 7.13327E-05 4.64448E-06-3.30872E-24
 -1       961 7.12468E-05 5.30892E-06 8.27181E-25
 -1       962 7.11608E-05 5.99816E-06-1.65436E-24
 -1       963 7.10749E-05 6.70611E-06 8.27181E-25
 -1       964 7.09889E-05 7.42665E-06 3.30872E-24
 -1       965 7.09030E-05 8.15364E-06-1.65436E-24
 -1       966 7.08170E-05 8.88100E-06-3.30872E-24
 -1       967 7.07311E-05 9.60259E-06-1.65436E-24
 -1       968 7.06453E-05 1.03123E-05-3.30872E-24
 -1       969 7.05596E-05 1.10041E-05 1.65436E-24
 -1       970 7.04741E-05 1.16717E-05-3.30872E-24
 -1       971 7.03097E-05 1.29652E-05 0.00000E+00
 -1       972 7.02283E-05 1.36931E-05-8.27181E-25
 -1       973 7.01468E-05 1.44851E-05 1.65436E-24
 -1       974 7.00652E-05 1.53329E-05-8.27181E-25
 -1       975 6.99834E-05 1.62284E-05 0.00000E+00
 -1       976 6.99016E-05 1.71631E-05 0.00000E+00
 -1       977 6.98198E-05 1.81289E-05 0.00000E+00
 -1       978 6.97379E-05 1.91172E-05 1.65436E-24
 -1       979 6.96560E-05 2.01200E-05-3.30872E-24
 -1       980 6.95742E-05 2.11287E-05-1.65436E-24
 -1       981 6.94923E-05 2.21352E-05-3.30872E-24
 -1       982 6.94106E-05 2.31310E-05 0.00000E+00
 -1       983 6.93289E-05 2.41079E-05 0.00000E+00
 -1       984 6.92477E-05 2.50576E-05 0.00000E+00
 -1       985 6.91667E-05 2.59717E-05 0.00000E+00
 -3
    1PSTEP                         8           4           1          
  100CL  104 4.68750E-01         409                     0    4           1
 -4  STRESS      6    1
 -5  SXX         1    4    1    1
 -5  SYY         1    4    2    2
 -5  SZZ         1    4    3    3
 -5  SXY         1    4    1    2
 -5  SYZ         1    4    2    3
 -5  SZX         1    4    3    1
 -1         1-1.66260E+06-7.54218E+05-3.41887E+05-1.05177E+06 1.63709E-10-3.43425E-09
 -1         2 2.69307E+03 2.41327E+05 8.82458E+03 7.04188E+02-1.31053E-10 1.20755E-08
 -1         3-8.82879E+01-7.11841E+05 1.66394E+02-2.60098E+02-1.98719E-10 3.41788E-09
 -1         5-5.84764E+00 2.44340E+05 6.40121E+00 1.09988E-01 1.16066E-10 3.40515E-09
 -1         8-7.84408E+05-3.32657E+05-3.40719E+04-5.65176E+05 1.54614E-10-4.98403E-09
 -1         9-1.37491E+06-3.61089E+05-1.36421E+05-4.62586E+05 2.45054E-09 3.95230E-09
 -1        10-5.78026E+02-7.41588E+05-9.84476E+02-1.75504E+03-3.33011E-09-7.32425E-09
 -1        12-3.22462E+00 2.44353E+05 2.07574E+02 9.96516E-01 1.30779E-10 1.00033E-08
 -1        15 1.97956E+03 1.08788E+03 6.39891E+03 4.14663E+00 4.90559E-11-8.37315E-09
 -1        16-3.51675E+06-1.20544E+06-5.46976E+05-1.24421E+06 1.02542E-08-2.59994E-09
 -1        17-8.49333E+05-5.15220E+05-1.64527E+05-4.75721E+05-5.79021E-09 2.55241E-09
 -1        18 5.81985E+03-2.90703E+03-1.72185E+04-5.81683E+04 8.04562E-10-3.39469E-09
 -1        19 7.65714E+04 9.12156E+04-4.39644E+02 1.49591E+04-6.36101E-10-2.91038E-12
 -1        20-3.22336E+04-3.61766E+05-7.98188E+04 2.64909E+04 3.78956E-09 4.08454E-09
 -1        21-3.40894E+01-2.09299E+05-6.75684E+02-7.30429E+01-3.16980E-10 2.81145E-09
 -1        24-3.25387E+06-1.02175E+06-4.49621E+05-1.25891E+06-2.07462E-08-9.40539E-09
 -1        25 2.28120E+04-3.31382E+04 1.00818E+04-1.05034E+05 3.19687E-10 6.69406E-09
 -1        26-1.80218E+04 6.22132E+04-1.23992E+04-8.77782E+03 1.47811E-09-5.32805E-10
 -1        27-5.77660E+04-1.98429E+05-7.44240E+04 4.47167E+04 5.04800E-09-3.27145E-09
 -1        28 1.62003E+04-5.78460E+04 1.18249E+04 1.84723E+04 2.21385E-09 2.64067E-09
 -1        32-7.84858E+05-1.82615E+05 3.18802E+05-5.24306E+05-1.63564E-08 1.47463E-08
 -1        33-1.13544E+05 5.83027E+04 2.06725E+04-3.37041E+04 1.09911E-09 4.55035E-09
 -1        34-1.47278E+05-1.46741E+04 3.46534E+02 4.53361E+04 3.23939E-09 1.52037E-09
 -1        35-1.64750E+04-2.29893E+04-9.01036E+02 3.64589E+04 3.93424E-09-1.67650E-09
 -1        51 1.40539E+04-3.66817E+05 3.63730E+04-9.31376E+05-2.91038E-11 3.21597E-09
 -1        52 8.82706E+03-3.65783E+05 2.43274E+04-1.08629E+06 1.00408E-09-4.56930E-09
 -1        53 6.64491E+03-3.78130E+05 2.10132E+04-9.28138E+05 6.40284E-10-1.23546E-08
 -1        54 1.90725E+04-3.76809E+05 3.40737E+04-1.08966E+06 3.20142E-10-9.85892E-10
 -1        55 3.79128E+04-3.89801E+05 6.10531E+04-9.27619E+05 8.14907E-10-9.32778E-09
 -1        56-3.19066E+06-3.59241E+05-2.51226E+05-1.22988E+06-1.82263E-09 4.20550E-09
 -1        57-3.28966E+06-5.88454E+05-1.69344E+05-1.22231E+06 1.48066E-09-4.53838E-09
 -1        58-3.24181E+06-4.38126E+05-5.91081E+04-1.21326E+06 3.94721E-10 4.36194E-09
 -1        59-3.23042E+06-4.95974E+05-3.52830E+04-1.24225E+06 2.62162E-10 1.82035E-09
 -1        60-3.24938E+06-4.49012E+05-1.37999E+04-1.21089E+06-1.25442E-09-9.37689E-10
 -1        61-3.22299E+06-4.81819E+05-7.83720E+03-1.24336E+06 1.22361E-09 4.93310E-09
 -1        62-3.24910E+06-4.51953E+05-3.77907E+03-1.21223E+06-1.64528E-09-5.14945E-10
 -1        63-3.22599E+06-4.75921E+05-3.06273E+03-1.23856E+06 1.20872E-09-1.76544E-08
 -1        64-3.24624E+06-4.54947E+05-3.55026E+03-1.21561E+06-1.40858E-09 1.96815E-09
 -1        65-3.23361E+06-4.70399E+05-7.00661E+03-1.23030E+06-4.29736E-10 1.68575E-09
 -1        66-3.24137E+06-4.57587E+05-1.24147E+04-1.22040E+06-5.09772E-10 7.95717E-09
 -1        67-3.24926E+06-4.73870E+05-3.14112E+04-1.21880E+06-1.34969E-09 7.69433E-09
 -1        68-3.23066E+06-4.51812E+05-5.27933E+04-1.22699E+06 2.16187E-09-1.34241E-09
 -1        69-3.30833E+06-5.50366E+05-1.51002E+05-1.19441E+06-1.35969E-10-5.21322E-09
 -1        70-3.18292E+06-3.83420E+05-2.24111E+05-1.24403E+06-9.13133E-10 2.15368E-09
 -1        86-1.35306E+03 2.38445E+05 9.42152E+03-3.52121E+02 1.14142E-09 5.44571E-09
 -1        87 8.97066E+03 2.44413E+05 1.97031E+04 1.45389E+03 1.91903E-09-6.49152E-10
 -1        88-7.61392E+03 2.35362E+05 3.01143E+04-1.10185E+03 2.84672E-09-2.01868E-09
 -1        89 5.67333E+04 2.66745E+05 8.12887E+04 3.17351E+03 4.37103E-09-3.76167E-09
 -1        90-4.89633E+04 2.16138E+05 1.14762E+05-2.07121E+03 5.01313E-09 8.37360E-09
 -1       121-1.38393E+02-7.12235E+05 1.31157E+02 1.29886E+02 3.92006E-10 2.34832E-09
 -1       122-3.29127E+01-7.11808E+05 3.60007E+02-5.20023E+02-1.28687E-09 1.18298E-08
 -1       123-1.76403E+02-7.12274E+05 5.54633E+02 3.89167E+02 1.15415E-09-6.89215E-09
 -1       124 6.33388E+02-7.11410E+05 1.50178E+03-1.16426E+03-2.60582E-09-7.16773E-09
 -1       125-6.04746E+02-7.12650E+05 2.27366E+03 7.73730E+02 1.61845E-09-5.32964E-10
 -1       191-6.35079E+00 2.44360E+05 7.58964E+00-5.56877E-02 1.47526E-10 5.16684E-09
 -1       192-6.43641E+00 2.44340E+05 1.35565E+01 6.61816E-01 2.09072E-10-1.55478E-09
 -1       193-7.91594E+00 2.44360E+05 2.51515E+01-6.10807E-01 2.34774E-10 1.31367E-08
 -1       194-8.33097E+00 2.44342E+05 5.12845E+01 1.63050E+00 1.28047E-10 1.26768E-08
 -1       195-1.09238E+01 2.44358E+05 1.00255E+02-1.03190E+00 3.35064E-10 1.06511E-08
 -1       251 1.18939E+05-4.12267E+04 9.60937E+04 3.89997E+03-5.80940E-11 7.37055E-09
 -1       252 1.63702E+05 4.76688E+04 6.83449E+04-1.37125E+04 5.05281E-10-1.98543E-09
 -1       253 1.35694E+05-6.38448E+03 2.48514E+04 2.96561E+03-8.84825E-10 7.27505E-09
 -1       254 1.43839E+05 7.36663E+03 1.57898E+04-1.22547E+04 4.17003E-10-2.28920E-09
 -1       255 1.38687E+05-9.86387E+02 6.42411E+03 2.44221E+03-6.17206E-10-2.98110E-09
 -1       256 1.40201E+05 1.17603E+03 3.93940E+03-1.14783E+04 5.98050E-10 3.99814E-09
 -1       257 1.39277E+05-1.73597E+02 2.04067E+03 2.18923E+03 4.45084E-11 4.83783E-09
 -1       258 1.39598E+05 3.86261E+02 1.84797E+03-1.12193E+04-4.71179E-10 7.02298E-09
 -1       259 1.39273E+05-1.86201E+02 2.16006E+03 2.18319E+03-2.95927E-10-7.70012E-09
 -1       260 1.40243E+05 1.28678E+03 4.27812E+03-1.14550E+04 8.17465E-10-9.24865E-09
 -1       261 1.38647E+05-1.08307E+03 7.04449E+03 2.42496E+03 1.49805E-09-2.67801E-09
 -1       262 1.44164E+05 8.09687E+03 1.73190E+04-1.22061E+04-6.98179E-10-3.33057E-09
 -1       263 1.35406E+05-7.01324E+03 2.73198E+04 2.93430E+03-1.63584E-09 3.95630E-09
 -1       264 1.65843E+05 5.23767E+04 7.50484E+04-1.36439E+04-2.05461E-09 1.16852E-08
 -1       265 1.17083E+05-4.52846E+04 1.05634E+05 3.86257E+03-2.11401E-09 4.66389E-09
 -1       266-3.58355E+04-1.67541E+04 8.40925E+04-8.87363E+01-2.54659E-11-1.04169E-08
 -1       267 4.15443E+04 1.95312E+04 5.94291E+04 1.02370E+02 3.27418E-11-1.23936E-08
 -1       268-5.57097E+03-2.76595E+03 2.20899E+04-1.30445E+01-8.18545E-11-1.34382E-08
 -1       269 6.57774E+03 3.31049E+03 1.43577E+04 1.51941E+01-4.45652E-11-7.04753E-09
 -1       270-9.87326E+02-5.43929E+02 6.93069E+03-2.06198E+00 1.68257E-11-4.20332E-09
 -1       271-3.50674E+06-4.38745E+05-2.69877E+05-1.36766E+06 9.53150E-10-1.60071E-09
 -1       272-3.58859E+06-6.50166E+05-1.73458E+05-1.38173E+06 1.23669E-09 6.05723E-10
 -1       273-3.55921E+06-5.04232E+05-6.37571E+04-1.35370E+06 7.71252E-10-3.80533E-09
 -1       274-3.52674E+06-5.70466E+05-3.56363E+04-1.40366E+06 1.45246E-09-5.51154E-09
 -1       275-3.56805E+06-5.09282E+05-1.48325E+04-1.34956E+06 2.30102E-09 2.72303E-09
 -1       276-3.51611E+06-5.64837E+05-7.85379E+03-1.41050E+06-3.28509E-09-6.84167E-10
 -1       277-3.57042E+06-5.08509E+05-3.83903E+03-1.34770E+06 3.09683E-10-6.34702E-09
 -1       278-3.51381E+06-5.65514E+05-2.76843E+03-1.41286E+06 1.69337E-09-1.89470E-09
 -1       279-3.57067E+06-5.08317E+05-2.94799E+03-1.34746E+06-9.81117E-11-1.29739E-09
 -1       280-3.51508E+06-5.65209E+05-5.38467E+03-1.41158E+06 1.15983E-09-3.96813E-09
 -1       281-3.56898E+06-5.08978E+05-9.86288E+03-1.34883E+06 4.47017E-10 3.59341E-09
 -1       282-3.52268E+06-5.68188E+05-2.35168E+04-1.40613E+06-3.91537E-10-7.26823E-09
 -1       283-3.56254E+06-5.06326E+05-4.20535E+04-1.35225E+06 1.47520E-09-5.67525E-09
 -1       284-3.56482E+06-6.19053E+05-1.14254E+05-1.38960E+06-7.18387E-10-7.52152E-09
 -1       285-3.52692E+06-4.64350E+05-1.77939E+05-1.36264E+06 8.29459E-10-1.02518E-08
 -1       301 1.32089E+04-1.79855E+04 1.11803E+05-4.55236E+04 5.27507E-10 8.03311E-10
 -1       302 1.61067E+04 1.06563E+04 8.02953E+04-6.80309E+04-1.55933E-09 3.22621E-09
 -1       303 7.72103E+02-7.69167E+03 7.26124E+04-4.56224E+04 4.34738E-10 1.22236E-09
 -1       304 2.87833E+04 2.24048E+04 1.21062E+05-6.77973E+04-9.02219E-10 6.89397E-09
 -1       305 2.50516E+04-2.94604E+04 2.01587E+05-4.56868E+04 3.92902E-10 2.00362E-09
 -1       306-3.92582E+06-4.58866E+05-2.96708E+05-1.53925E+06 3.48518E-09-1.30822E-08
 -1       307-4.08643E+06-7.00928E+05-2.02155E+05-1.47761E+06 4.15457E-09-8.59291E-09
 -1       308-3.99881E+06-5.45703E+05-6.98835E+04-1.50520E+06 1.29057E-09 1.87720E-09
 -1       309-3.99278E+06-6.09310E+05-4.21217E+04-1.52846E+06-9.37987E-10 8.57835E-09
 -1       310-4.01906E+06-5.48637E+05-1.64096E+04-1.48903E+06 1.51113E-09-1.39971E-09
 -1       311-3.96656E+06-6.09104E+05-9.45143E+03-1.55151E+06 3.54930E-09-3.20051E-09
 -1       312-4.02529E+06-5.45388E+05-4.62521E+03-1.48250E+06 7.96661E-11 4.88728E-09
 -1       313-3.96336E+06-6.09062E+05-4.16084E+03-1.55432E+06-1.41330E-09-1.18689E-10
 -1       314-4.02232E+06-5.48607E+05-5.11490E+03-1.48626E+06-2.18802E-09-1.86105E-09
 -1       315-3.97747E+06-5.97988E+05-1.05371E+04-1.53776E+06 4.10751E-10-7.48673E-09
 -1       316-4.01084E+06-5.56745E+05-1.88045E+04-1.49879E+06 1.89004E-09-8.98035E-09
 -1       317-4.01275E+06-5.93505E+05-4.80676E+04-1.50635E+06 1.89380E-09-7.83621E-09
 -1       318-3.98691E+06-5.53563E+05-7.97977E+04-1.51740E+06-5.62432E-09 6.65023E-09
 -1       319-4.11738E+06-7.01837E+05-2.31168E+05-1.45308E+06-3.54976E-09 6.24277E-09
 -1       320-3.90705E+06-4.50245E+05-3.38823E+05-1.55163E+06 7.79255E-09 1.96451E-09
 -1       336 4.96622E+02-7.71035E+05-4.21104E+03 9.78911E+02-6.82167E-09 7.80710E-09
 -1       337-1.53862E+03-7.72052E+05-4.65684E+03-2.48895E+03-1.30796E-08-1.77442E-09
 -1       338 3.34653E+02-7.71140E+05-5.98947E+03 1.50436E+03-9.40781E-09 8.11269E-10
 -1       339-6.21194E+03-7.74960E+05-1.31301E+04-3.52493E+03-1.66574E-08 9.20772E-09
 -1       340 4.18193E+03-7.68204E+05-2.02898E+04 2.00736E+03-1.11258E-08 1.04319E-08
 -1       406 1.25692E+01 2.44349E+05 4.09739E+02 1.73377E-02 5.14859E-10 4.66935E-09
 -1       407 1.39667E+02 2.44425E+05 8.70981E+02-8.06525E+00 7.79039E-11 2.57432E-09
 -1       408 4.45074E+02 2.44286E+05 1.73945E+03 8.20010E+00 5.91399E-10 4.83215E-09
 -1       409 1.87790E+03 2.44981E+05 3.91615E+03-7.87662E+01-8.34461E-11-5.44787E-09
 -1       410 5.40131E+03 2.43791E+05 7.99462E+03 7.34822E+01 6.35737E-10 8.12634E-10
 -1       521-7.36781E+06-7.75488E+05-5.64478E+05-2.71952E+06 2.54659E-09 4.65661E-10
 -1       522-7.07728E+06-1.58109E+06-3.47591E+05-3.07741E+06-2.93730E-08-9.76434E-09
 -1       523-7.58049E+06-7.76301E+05-1.30900E+05-2.48194E+06 7.61247E-10-1.80080E-08
 -1       524-6.87641E+06-1.54806E+06-7.19666E+04-3.37929E+06 3.36254E-08-2.63171E-08
 -1       525-7.60684E+06-7.75708E+05-2.92584E+04-2.44661E+06 2.63062E-08-2.27069E-08
 -1       526-6.89633E+06-1.42121E+06-3.97485E+03-3.23302E+06-6.46105E-09-1.13832E-08
 -1       527-7.53553E+06-9.20702E+05-2.68273E+04-2.61110E+06 1.17871E-09-4.14730E-09
 -1       528-7.12081E+06-1.09168E+06 2.05665E+04-2.79335E+06 1.50067E-08-1.43973E-09
 -1       529-7.34210E+06-1.13406E+06-3.23634E+04-2.85575E+06 2.80124E-09 1.03682E-10
 -1       530-7.56396E+06-7.07019E+05 2.97174E+03-2.38602E+06-2.52257E-08 2.00398E-08
 -1       531-7.11481E+06-1.28887E+06-3.49702E+04-3.03341E+06-3.62343E-08 2.63753E-09
 -1       532-7.90415E+06-5.17053E+05-7.10293E+04-2.20097E+06 1.32727E-08-3.47318E-08
 -1       533-7.04295E+06-1.29563E+06-1.24855E+05-3.07328E+06 2.93585E-09-4.88071E-08
 -1       534-7.89314E+06-8.09080E+05-3.51956E+05-2.23036E+06-1.57597E-08 4.00614E-08
 -1       535-7.10945E+06-1.01364E+06-5.54560E+05-2.98819E+06-1.00699E-08 2.64845E-08
 -1       536-1.05112E+05-1.75092E+04 4.03168E+04-6.45200E+02-9.00542E-10 8.79845E-09
 -1       537-8.61202E+04 2.02686E+04 2.87859E+04 2.19843E+01-8.95372E-09 3.87263E-09
 -1       538-9.84174E+04-2.75592E+03 1.03472E+04-2.50771E+02 6.13852E-10 5.66342E-09
 -1       539-9.40191E+04 3.18171E+03 6.74431E+03-8.14981E+02 4.82371E-09 1.15911E-08
 -1       540-9.72180E+04-4.36357E+02 2.55894E+03 1.91781E+02 1.11962E-09 8.83074E-09
 -1       541-9.56012E+04 4.93700E+02 1.64207E+03-1.63394E+03-2.04517E-09 7.18052E-09
 -1       542-9.68429E+04-6.47669E+01 5.54205E+02 5.68145E+02-9.98142E-10 1.67745E-09
 -1       543-9.62115E+04 4.44592E+01 2.79692E+02-2.25947E+03-6.16751E-12 1.64442E-09
 -1       544-9.66173E+04 1.96011E+01-1.16880E+02 8.17315E+02 8.13984E-10-6.74837E-09
 -1       545-9.65975E+04-1.92004E+02-5.28025E+02-2.59369E+03-5.88546E-10-3.65817E-09
 -1       546-9.64635E+04 1.76383E+02-1.03679E+03 9.02380E+02 6.50569E-10-2.06722E-09
 -1       547-9.71260E+04-1.28324E+03-2.63062E+03-2.58717E+03-2.90420E-09-6.37505E-09
 -1       548-9.60887E+04 1.10993E+03-4.24726E+03 8.10791E+02-3.10203E-09-3.69596E-09
 -1       549-1.00045E+05-8.17871E+03-1.15255E+04-2.23571E+03-1.62949E-09 1.24669E-09
 -1       550-9.35379E+04 7.06149E+03-1.64518E+04 5.50903E+02 2.85212E-11 1.03137E-09
 -1       551 8.69955E+03-3.98758E+05 2.08167E+04-6.75445E+05-3.04099E-08-2.81580E-09
 -1       552 1.91916E+04-4.01882E+05 2.77885E+04-9.61465E+05-2.32903E-08 5.73345E-09
 -1       553 1.30887E+04-4.07082E+05 4.31591E+04-6.73127E+05-3.72602E-08 5.98448E-09
 -1       554 4.15468E+04-3.90498E+05 9.17191E+04-9.62466E+05-2.26573E-08 1.10136E-08
 -1       555 3.97648E+04-4.24722E+05 1.64553E+05-6.73875E+05-3.80096E-08-2.92493E-09
 -1       556 6.10937E+04-1.29150E+05 4.37122E+04-1.68986E+05-8.30914E-09-1.49739E-08
 -1       557 1.13384E+05-1.72489E+05 2.29801E+04-2.11671E+05-4.17640E-09-1.34683E-08
 -1       558 6.08900E+04-1.34965E+05 9.26446E+03-1.63978E+05-4.04543E-09 6.83576E-09
 -1       559 1.06269E+05-1.78447E+05 4.71237E+03-2.14839E+05 6.46105E-09-3.71892E-09
 -1       560 5.93115E+04-1.33918E+05 1.93231E+03-1.64971E+05 1.09867E-09 4.07090E-09
 -1       561 1.03825E+05-1.77816E+05 1.03424E+03-2.16386E+05-2.48474E-09-2.13231E-09
 -1       562 5.80410E+04-1.33068E+05 3.85941E+02-1.65886E+05-1.44792E-09 4.51314E-09
 -1       563 1.02334E+05-1.77174E+05 2.49333E+02-2.17341E+05-4.55475E-09-8.25457E-09
 -1       564 5.72478E+04-1.32556E+05 8.72957E+01-1.66450E+05 2.44472E-09-1.21008E-09
 -1       565 1.01554E+05-1.76841E+05 5.89809E+01-2.17831E+05 1.11595E-09 3.20506E-09
 -1       566 5.69599E+04-1.32365E+05-1.56002E+01-1.66658E+05-2.30193E-09-2.17915E-09
 -1       567 1.01447E+05-1.76788E+05-9.96830E+01-2.17836E+05 7.16841E-09-1.08448E-08
 -1       568 5.72097E+04-1.32530E+05-3.01490E+02-1.66542E+05-5.16593E-09-2.09930E-08
 -1       569 1.01385E+05-1.76679E+05-7.05478E+02-2.16804E+05-2.35832E-09-1.69348E-09
 -1       570 5.85112E+04-1.33703E+05-1.51920E+03-1.66506E+05 1.72804E-09 2.72667E-09
 -1       571 1.77335E+05 6.45101E+03 9.55769E+03-4.50146E+04 5.14774E-10-2.56819E-09
 -1       572 1.78757E+05 2.24494E+03 4.68267E+03-4.93446E+04-1.29194E-09-1.11572E-09
 -1       573 1.77905E+05 5.36516E+02 2.08022E+03-4.48975E+04-2.09639E-09 5.92627E-09
 -1       574 1.78073E+05 1.76480E+02 1.04224E+03-4.94755E+04-2.38106E-09-3.38514E-09
 -1       575 1.77968E+05 2.64583E+01 4.91197E+02-4.48821E+04 3.46290E-10 1.26738E-09
 -1       576 1.77979E+05 9.70768E+00 2.50031E+02-4.94930E+04 2.73647E-09-2.09229E-09
 -1       577 1.77978E+05-8.25401E-01 1.23145E+02-4.48800E+04 4.50814E-09-1.47611E-09
 -1       578 1.77970E+05 1.19789E+00 6.71319E+01-4.94951E+04 1.51954E-09 2.68574E-09
 -1       579 1.77988E+05-2.85294E+00 4.09936E+01-4.48800E+04-9.73159E-10-2.78897E-09
 -1       580 1.77985E+05-4.53758E+00 3.82159E+01-4.94924E+04-2.07046E-09-5.13774E-09
 -1       581 1.78007E+05-9.88319E+00 5.16571E+01-4.48826E+04-9.88621E-10 2.57978E-09
 -1       582 1.78019E+05-2.88996E+00 9.84302E+01-4.94657E+04-1.19917E-09-2.61934E-10
 -1       583 1.78030E+05 2.01995E+01 1.88553E+02-4.49067E+04-9.86802E-10 2.53499E-09
 -1       584 1.78118E+05 1.66465E+02 4.22902E+02-4.92648E+04-1.09321E-09 6.00903E-09
 -1       585 1.78013E+05 5.38539E+02 8.58486E+02-4.50839E+04-2.24645E-10-7.26686E-09
 -1       586-2.12572E+03 5.82923E+04-2.81641E+03-1.53308E+05 3.53793E-10 3.69755E-09
 -1       587-4.43392E+02 5.79138E+04-2.94667E+02-1.68704E+05 6.63931E-10 5.36238E-09
 -1       588 6.16238E+02 5.79858E+04 2.05059E+03-1.53216E+05 3.70164E-10 4.84124E-09
 -1       589 3.03603E+03 5.91101E+04 5.94520E+03-1.68563E+05 5.79348E-10 8.68567E-11
 -1       590 8.70565E+03 5.72770E+04 1.27194E+04-1.53451E+05 2.60115E-10 5.33510E-09
 -1       591-3.89082E+04-1.10783E+04-1.28754E+04-2.01042E+04-3.00190E-10-8.87667E-10
 -1       592-4.01304E+04-1.42239E+04-6.97388E+03-2.34433E+04-1.45309E-09 2.10412E-09
 -1       593-4.02100E+04-1.01297E+04-2.90329E+03-2.10342E+04-1.19053E-09 6.40512E-10
 -1       594-3.83365E+04-1.23522E+04-1.44800E+03-2.35325E+04 1.07968E-09 4.55542E-09
 -1       595-4.03098E+04-1.01253E+04-6.65443E+02-2.10769E+04-4.47358E-10 5.85604E-09
 -1       596-3.82151E+04-1.22665E+04-3.39195E+02-2.35199E+04-2.02971E-09-2.17544E-09
 -1       597-4.03225E+04-1.01336E+04-1.86700E+02-2.10786E+04 1.56859E-10-3.51974E-09
 -1       598-3.82035E+04-1.22632E+04-1.53748E+02-2.35163E+04 2.45262E-09 1.14359E-08
 -1       599-4.03215E+04-1.01336E+04-2.00970E+02-2.10783E+04 7.64203E-10-5.10488E-09
 -1       600-3.82164E+04-1.22676E+04-3.77011E+02-2.35194E+04 1.03319E-09-8.61661E-09
 -1       601-4.03056E+04-1.01248E+04-7.45677E+02-2.10757E+04-4.20414E-10-7.53266E-09
 -1       602-3.83526E+04-1.23638E+04-1.62615E+03-2.35319E+04 2.14220E-09-1.25056E-10
 -1       603-4.01922E+04-1.01313E+04-3.26166E+03-2.10280E+04-1.39221E-09 8.06494E-10
 -1       604-4.03744E+04-1.44592E+04-7.83497E+03-2.34221E+04-9.64405E-10 1.44018E-08
 -1       605-3.87211E+04-1.12032E+04-1.44650E+04-1.99901E+04 1.36049E-09 1.21213E-08
 -1       606 2.51762E+04-8.54337E+03-1.53832E+04 2.45684E+04-7.28505E-10 2.29556E-09
 -1       607 2.25415E+04-2.75628E+03-7.65994E+03 2.75794E+04 1.13323E-09-5.62852E-09
 -1       608 2.40360E+04-4.65007E+02-3.43030E+03 2.43725E+04 3.56340E-09 1.29376E-10
 -1       609 2.37381E+04-1.20626E+02-1.73254E+03 2.77957E+04-1.58434E-09 2.08593E-09
 -1       610 2.38975E+04 2.24944E+01-8.27636E+02 2.43506E+04 1.88993E-09 4.91605E-09
 -1       611 2.38408E+04 3.42332E+01-4.17433E+02 2.78193E+04 8.06676E-09-3.21074E-09
 -1       612 2.38602E+04 3.64258E+01-1.99794E+02 2.43485E+04-1.46883E-09-2.73189E-09
 -1       613 2.38383E+04 4.20034E+01-9.10809E+01 2.78221E+04-1.99761E-08-2.79374E-09
 -1       614 2.38397E+04 3.73102E+01-2.54962E+01 2.43477E+04 3.22052E-09 5.13478E-09
 -1       615 2.38274E+04 4.70532E+01 2.83103E+01 2.78225E+04 2.28574E-08 2.58547E-09
 -1       616 2.38241E+04 4.25688E+01 9.39595E+01 2.43480E+04 1.67665E-09-6.81416E-09
 -1       617 2.38329E+04 7.07836E+01 2.18011E+02 2.78220E+04-3.00292E-09-1.24830E-08
 -1       618 2.38007E+04 1.08262E+02 4.40714E+02 2.43481E+04 2.07638E-09-6.96446E-10
 -1       619 2.39850E+04 4.13937E+02 9.90565E+02 2.78214E+04 2.00907E-09 7.96763E-09
 -1       620 2.36520E+04 1.15575E+03 1.99122E+03 2.43471E+04 3.20972E-09 8.79163E-09
 -1       621 3.03802E+02 1.92662E+05 2.64306E+03 6.64427E+03-3.09768E-10 1.11088E-08
 -1       622 3.47903E+02 1.93317E+05 2.25065E+03 9.70231E+03-1.93779E-10 1.29348E-08
 -1       623 1.41497E+01 1.92849E+05 2.59781E+03 6.61314E+03-1.28011E-10 8.63861E-09
 -1       624 1.17717E+03 1.94077E+05 4.94139E+03 9.73272E+03-2.01567E-10 4.64252E-09
 -1       625 1.18238E+03 1.91896E+05 8.59429E+03 6.61416E+03-1.99179E-10 5.34610E-09
 -1       626 1.59273E+05 4.40620E+04 3.17453E+03 8.60176E+04-3.39696E-09-1.36006E-08
 -1       627 1.57102E+05 4.56588E+04 1.52965E+03 8.94883E+04 7.59428E-11-5.97288E-09
 -1       628 1.59392E+05 4.25606E+04 6.46060E+02 8.64966E+04 3.45608E-11-3.01225E-09
 -1       629 1.56644E+05 4.52974E+04 3.16683E+02 8.96956E+04 4.37649E-09 5.86431E-09
 -1       630 1.59398E+05 4.24898E+04 1.46412E+02 8.65090E+04-5.37057E-09-6.48572E-09
 -1       631 1.56588E+05 4.52896E+04 7.87802E+01 8.96971E+04-3.54430E-09 1.20094E-08
 -1       632 1.59390E+05 4.24957E+04 5.20133E+01 8.65017E+04-6.16501E-09-8.55300E-09
 -1       633 1.56576E+05 4.52944E+04 5.81728E+01 8.96906E+04 3.31056E-10 2.23804E-09
 -1       634 1.59381E+05 4.24966E+04 9.41946E+01 8.64974E+04 4.63433E-09-1.41188E-09
 -1       635 1.56579E+05 4.52960E+04 1.91046E+02 8.96899E+04-6.24595E-10 2.74486E-09
 -1       636 1.59370E+05 4.24960E+04 3.85876E+02 8.64944E+04-1.02543E-08 2.12185E-09
 -1       637 1.56658E+05 4.53576E+04 8.48100E+02 8.96859E+04-1.10444E-08 2.22908E-08
 -1       638 1.59337E+05 4.26852E+04 1.74301E+03 8.64071E+04-6.86339E-09 5.23733E-09
 -1       639 1.57569E+05 4.66326E+04 4.12344E+03 8.94148E+04-2.93767E-09 4.31760E-09
 -1       640 1.59215E+05 4.64808E+04 8.55720E+03 8.47953E+04-2.98473E-09 5.97788E-09
 -1       656 4.31375E+04-1.09186E+06-1.04136E+05-3.66178E+02 1.08412E-09 5.02865E-09
 -1       657-5.70019E+04-1.13886E+06-8.61217E+04 7.03818E+03 9.53150E-10 1.19944E-09
 -1       658 1.36784E+04-1.10527E+06-5.28499E+04-1.36907E+03-1.53022E-10 1.67213E-09
 -1       659-6.11199E+04-1.14081E+06-9.15304E+04 7.70727E+03-1.29512E-09 2.61165E-10
 -1       660 4.72454E+04-1.08991E+06-1.13440E+05-1.03525E+03-3.34694E-10-7.36364E-10
 -1       661 1.54016E+05 1.67659E+04 1.47860E+04 6.01925E+04 2.10821E-09 1.70985E-09
 -1       662 1.61726E+05 2.83545E+04 9.96329E+03 5.76123E+04 3.35876E-09 1.63254E-10
 -1       663 1.56914E+05 2.15149E+04 3.48524E+03 5.93566E+04 6.73367E-10 1.25294E-09
 -1       664 1.58373E+05 2.27951E+04 2.08373E+03 5.86281E+04-1.45292E-09 3.70858E-09
 -1       665 1.57347E+05 2.21692E+04 8.21964E+02 5.92357E+04-2.04903E-09 4.01258E-09
 -1       666 1.57865E+05 2.20421E+04 4.79329E+02 5.87826E+04-8.95353E-09 6.51296E-09
 -1       667 1.57419E+05 2.22481E+04 2.52719E+02 5.92095E+04-1.59068E-09-1.33238E-09
 -1       668 1.57789E+05 2.19792E+04 2.53156E+02 5.88199E+04 4.63380E-10-9.54671E-09
 -1       669 1.57423E+05 2.22303E+04 3.39198E+02 5.91990E+04 1.82389E-09-2.17794E-09
 -1       670 1.57875E+05 2.21575E+04 7.35268E+02 5.88181E+04 7.46269E-09 2.26606E-09
 -1       671 1.57333E+05 2.20734E+04 1.30443E+03 5.92099E+04-8.40672E-10-8.62894E-09
 -1       672 1.58637E+05 2.34247E+04 3.33648E+03 5.86327E+04-4.48788E-09-3.84671E-09
 -1       673 1.56665E+05 2.09950E+04 5.59109E+03 5.93723E+04-8.96762E-10-5.20686E-10
 -1       674 1.63961E+05 3.24044E+04 1.59894E+04 5.70659E+04-3.71392E-09 1.17893E-09
 -1       675 1.52043E+05 1.33448E+04 2.37332E+04 6.06820E+04 7.83984E-10-3.52338E-09
 -1       676 1.75420E+01-2.09243E+05-8.14373E+02 3.65224E+01-6.19025E-11-4.10392E-09
 -1       677-2.16141E+02-2.09440E+05-1.49038E+03-7.30125E+01-6.79324E-09 7.50812E-09
 -1       678 1.44365E+02-2.09103E+05-2.63460E+03 3.64649E+01 8.68795E-10-1.77190E-09
 -1       679-2.63510E+03-2.11030E+05-6.25845E+03-7.27867E+01-6.93831E-10 3.96492E-10
 -1       680 1.57265E+03-2.07653E+05-1.00865E+04 3.58786E+01 1.46065E-09 4.38372E-09
 -1       771-2.24589E+06-3.98101E+05-5.57130E+04-9.36945E+05-8.96398E-09-8.00355E-09
 -1       772-2.23049E+06-4.28632E+05-2.98063E+04-9.71057E+05-4.21642E-09 6.85486E-09
 -1       773-2.25380E+06-3.91940E+05-1.30305E+04-9.40045E+05-2.77214E-09 3.93993E-09
 -1       774-2.22262E+06-4.22242E+05-6.29789E+03-9.74978E+05 6.92671E-09-7.00311E-10
 -1       775-2.25587E+06-3.90563E+05-3.30840E+03-9.40307E+05-7.42875E-09 2.99042E-09
 -1       776-2.22262E+06-4.22326E+05-1.49118E+03-9.77229E+05-1.62654E-08-1.23691E-10
 -1       777-2.25737E+06-3.89467E+05-1.00708E+03-9.40466E+05-7.05040E-09 4.48017E-09
 -1       778-2.22308E+06-4.22586E+05-4.19924E+02-9.79112E+05-7.30506E-09 6.69024E-09
 -1       779-2.25857E+06-3.88534E+05-4.52598E+02-9.40609E+05-6.86850E-09-8.80391E-10
 -1       780-2.22356E+06-4.22796E+05-3.01423E+02-9.80636E+05-2.60297E-09 2.79215E-10
 -1       781-2.25949E+06-3.87791E+05-5.47866E+02-9.40719E+05-7.80346E-09-1.25965E-09
 -1       782-2.22400E+06-4.22990E+05-9.25827E+02-9.81757E+05-9.81709E-09-2.55363E-09
 -1       783-2.26006E+06-3.87299E+05-1.85915E+03-9.40778E+05-5.11136E-09-8.90259E-09
 -1       784-2.22534E+06-4.24254E+05-4.37256E+03-9.82391E+05-6.32190E-09 2.00089E-11
 -1       785-2.25957E+06-3.87630E+05-8.09226E+03-9.40230E+05-9.95442E-09 9.79526E-10
 -1       786 1.63167E+05-8.74849E+03 2.02397E+04-9.25751E+00 9.56728E-07 9.11768E-09
 -1       787 1.71937E+05 1.01280E+04 1.43192E+04 1.76028E+00 1.90604E-06 9.67793E-09
 -1       788 1.66551E+05-1.37143E+03 5.23857E+03-4.71098E+00 2.01290E-06-7.87850E-10
 -1       789 1.67996E+05 1.58682E+03 3.29143E+03-6.97771E+00 2.11636E-06 1.44907E-08
 -1       790 1.67109E+05-2.14238E+02 1.33928E+03-5.19718E-01 2.34939E-06-7.07468E-09
 -1       791 1.67344E+05 2.48911E+02 7.86309E+02-1.63120E+01 2.58488E-06 1.00450E-08
 -1       792 1.67203E+05-3.45222E+01 3.58831E+02 4.62349E+00 3.16479E-06-1.67225E-08
 -1       793 1.67239E+05 4.84619E+01 2.35056E+02-2.89893E+01 3.73877E-06 2.90355E-09
 -1       794 1.67215E+05-1.39218E+01 1.73994E+02 1.21577E+01 1.87105E-06-1.06706E-08
 -1       795 1.67249E+05 7.17798E+01 2.51502E+02-4.85210E+01 6.20483E-09 9.51785E-09
 -1       796 1.67192E+05-5.78230E+01 3.76615E+02 2.41555E+01 9.29963E-11-6.84989E-09
 -1       797 1.67420E+05 4.23886E+02 8.87926E+02-8.02859E+01-6.04031E-10 1.04384E-09
 -1       798 1.67044E+05-3.65769E+02 1.40150E+03 4.39232E+01 3.77964E-11-1.73719E-09
 -1       799 1.68471E+05 2.70073E+03 3.82076E+03-1.33327E+02-7.16181E-10-7.49651E-09
 -1       800 1.66140E+05-2.33284E+03 5.39698E+03 7.71967E+01 7.77378E-11 8.12861E-10
 -1       801-4.88932E+03-1.75830E+05-5.46293E+03 1.88759E+04 1.00308E-08-2.92835E-09
 -1       802 1.76415E+04-7.56318E+04 3.85135E+04-7.27742E+04 2.70666E-08-1.56308E-09
 -1       803-1.18903E+04-1.33238E+05 5.39617E+04 2.11850E+04 2.13040E-08 1.76427E-08
 -1       804 1.12304E+05-2.11636E+04 1.62971E+05-7.30747E+04 2.50729E-08 2.14720E-08
 -1       805-9.96728E+04-2.29935E+05 2.02481E+05 1.91725E+04 9.05129E-09 2.47380E-08
 -1       806-1.93123E+05-4.12178E+04-1.63515E+04-8.02531E+04 3.60546E-09 5.27052E-10
 -1       807-1.94100E+05-3.88615E+04-8.03315E+03-8.45717E+04 7.38362E-09-5.30838E-09
 -1       808-1.93586E+05-3.53116E+04-3.40765E+03-8.30277E+04 3.44198E-09-5.18587E-09
 -1       809-1.92387E+05-3.66299E+04-1.66591E+03-8.48017E+04-2.11378E-09-6.19843E-09
 -1       810-1.93658E+05-3.51034E+04-7.62819E+02-8.31501E+04 1.24260E-09-1.88800E-09
 -1       811-1.92255E+05-3.65416E+04-3.78327E+02-8.47817E+04 5.92991E-10-5.38034E-09
 -1       812-1.93670E+05-3.51190E+04-1.88856E+02-8.31497E+04-1.48248E-10 6.73867E-09
 -1       813-1.92238E+05-3.65439E+04-1.19183E+02-8.47712E+04 5.22050E-09 1.18284E-08
 -1       814-1.93668E+05-3.51250E+04-1.11880E+02-8.31470E+04-6.20275E-10-7.98764E-10
 -1       815-1.92240E+05-3.65459E+04-1.75145E+02-8.47679E+04-6.78483E-10 4.15412E-09
 -1       816-1.93656E+05-3.51239E+04-3.28232E+02-8.31446E+04 2.38697E-09 6.39466E-09
 -1       817-1.92296E+05-3.65774E+04-7.03623E+02-8.47615E+04 6.53472E-10 2.09275E-09
 -1       818-1.93614E+05-3.52229E+04-1.43404E+03-8.30977E+04 5.91353E-09 1.05833E-08
 -1       819-1.93087E+05-3.74381E+04-3.37493E+03-8.45693E+04-2.57091E-09 2.05091E-10
 -1       820-1.93341E+05-3.77747E+04-6.86865E+03-8.20096E+04-5.58157E-09-1.00032E-08
 -1       821-2.49691E+05 1.38469E+04-3.20233E+04 8.65278E+01-2.85340E-10-2.88128E-09
 -1       822-2.63569E+05-1.60301E+04-2.26611E+04-6.07485E+02-1.85497E-09 2.81943E-09
 -1       823-2.55047E+05 2.17083E+03-8.29414E+03 5.50997E+01 7.67452E-10 4.02906E-10
 -1       824-2.57324E+05-2.51266E+03-5.21864E+03-4.63470E+02-5.25251E-10 4.12496E-09
 -1       825-2.55935E+05 3.39728E+02-2.14505E+03-5.74908E+01-2.82825E-09 6.81587E-09
 -1       826-2.56290E+05-4.00679E+02-1.29473E+03-2.01253E+02-5.62533E-09 8.44364E-09
 -1       827-2.56080E+05 6.02598E+01-6.70388E+02-2.07123E+02-4.01553E-09-1.95475E-09
 -1       828-2.56151E+05-1.22226E+02-5.92362E+02 7.84929E+01-3.84782E-09 4.35018E-09
 -1       829-2.56074E+05 6.15310E+01-6.80119E+02-3.37241E+02-3.04752E-10 3.30033E-09
 -1       830-2.56308E+05-4.10695E+02-1.32785E+03 2.70044E+02 2.09891E-09 6.27648E-09
 -1       831-2.55922E+05 3.48703E+02-2.19893E+03-3.98678E+02-2.56884E-09-2.04966E-09
 -1       832-2.57365E+05-2.57881E+03-5.35832E+03 3.01595E+02-1.08677E-09 4.59659E-09
 -1       833-2.55018E+05 2.22812E+03-8.51471E+03-3.68792E+02-1.90904E-09 2.70711E-09
 -1       834-2.63762E+05-1.64557E+04-2.32633E+04 1.63459E+02 1.87462E-10 6.81757E-09
 -1       835-2.49527E+05 1.42148E+04-3.28781E+04-2.60532E+02 4.84085E-09 2.76123E-09
 -1       836-8.31315E+02 2.36203E+05 1.42329E+04-2.06106E+04 1.67256E-09 1.67029E-09
 -1       837 3.13656E+03 2.40608E+05 1.21461E+04-4.13918E+04 2.33945E-09-1.11932E-08
 -1       838-3.03438E+02 2.37429E+05 1.25170E+04-2.05410E+04 2.12276E-09 3.23939E-09
 -1       839 8.03511E+03 2.44261E+05 2.38177E+04-4.14167E+04 2.86809E-09 1.11835E-08
 -1       840-2.41253E+03 2.32518E+05 3.80376E+04-2.05842E+04 1.86083E-09 4.52837E-09
 -1       856-7.72109E+04 6.65083E+03-1.75266E+04-3.93096E+02-2.36042E-09 1.89448E-09
 -1       857-8.44510E+04-7.80032E+03-1.20667E+04 3.99961E+03-4.95452E-09 2.94608E-09
 -1       858-8.00713E+04 9.31887E+02-4.54866E+03-4.10725E+02-2.40220E-09-2.13913E-09
 -1       859-8.11660E+04-1.08334E+03-2.74727E+03 4.02774E+03-2.25431E-09 6.60236E-10
 -1       860-8.04990E+04 1.29586E+02-1.15517E+03-4.21356E+02 1.11994E-09-8.59632E-09
 -1       861-8.06733E+04-1.42991E+02-6.43489E+02 4.04227E+03-5.12040E-09-8.65516E-09
 -1       862-8.05655E+04 1.71607E+01-2.83546E+02-4.25286E+02 6.17151E-09-3.80825E-09
 -1       863-8.05946E+04-1.03358E+01-1.39735E+02 4.04402E+03 1.13238E-08-1.05193E-08
 -1       864-8.05779E+04-1.58502E-01-4.29000E+01-4.23112E+02 6.60512E-09-2.83294E-09
 -1       865-8.05713E+04 2.05712E+01 2.89397E+01 4.03308E+03 3.74753E-09 3.20371E-09
 -1       866-8.05876E+04-1.41299E+01 1.00481E+02-4.14340E+02 1.29222E-09-4.28565E-09
 -1       867-8.05130E+04 1.18525E+02 2.74339E+02 4.00929E+03 3.43459E-09-8.11355E-10
 -1       868-8.06335E+04-9.74957E+01 4.62422E+02-3.99317E+02 2.81500E-09-3.11684E-09
 -1       869-8.01661E+04 8.08557E+02 1.24115E+03 3.96985E+03-3.15595E-09-3.13673E-09
 -1       870-8.09304E+04-6.87099E+02 1.79995E+03-3.74911E+02 2.02010E-09-4.03134E-10
 -1       871-3.66185E+03-7.65679E+03-1.18667E+04 7.78055E+04 2.44199E-09 1.76715E-09
 -1       872-1.59771E+03-1.03104E+04-4.83412E+03 1.00870E+05 4.07226E-09 5.86715E-09
 -1       873-4.39514E+01-9.07091E+03 6.99137E+02 7.76342E+04 8.24230E-10 1.00307E-08
 -1       874 1.81724E+03-7.33878E+03 6.75043E+03 1.00906E+05 4.29100E-09-1.36379E-09
 -1       875 4.32320E+03-1.06733E+04 1.49644E+04 7.77770E+04 2.11094E-09 4.43879E-09
 -1       876 1.94400E+05 3.35255E+04 1.04148E+04 7.89043E+04-3.92242E-09 2.79488E-09
 -1       877 1.94990E+05 3.58175E+04 5.56172E+03 8.19906E+04-5.09624E-09-3.25463E-09
 -1       878 1.95374E+05 3.23727E+04 2.33011E+03 7.97595E+04-5.00677E-10 1.48634E-09
 -1       879 1.93573E+05 3.44068E+04 1.16072E+03 8.20647E+04 1.96906E-10-6.03308E-10
 -1       880 1.95445E+05 3.23597E+04 5.40377E+02 7.97944E+04 2.34195E-09 4.73085E-09
 -1       881 1.93479E+05 3.43469E+04 2.87778E+02 8.20502E+04 4.09966E-09 1.11946E-10
 -1       882 1.95452E+05 3.23682E+04 1.82759E+02 7.97953E+04 6.13591E-09-1.51736E-09
 -1       883 1.93472E+05 3.43441E+04 1.94294E+02 8.20460E+04 1.87970E-09 2.32119E-09
 -1       884 1.95448E+05 3.23660E+04 3.07107E+02 7.97955E+04-1.28398E-09 8.48780E-09
 -1       885 1.93496E+05 3.43485E+04 6.16226E+02 8.20538E+04 5.48576E-09 1.27927E-08
 -1       886 1.95424E+05 3.23480E+04 1.24141E+03 7.97930E+04 1.77411E-09-7.24549E-09
 -1       887 1.93714E+05 3.44914E+04 2.71150E+03 8.20851E+04-4.20627E-09-6.29370E-09
 -1       888 1.95253E+05 3.23782E+04 5.46372E+03 7.97062E+04-7.56103E-10 4.51291E-09
 -1       889 1.96971E+05 3.78714E+04 1.30525E+04 8.19816E+04 5.81110E-10 6.77892E-09
 -1       890 1.93026E+05 3.50225E+04 2.44462E+04 7.76220E+04 9.00627E-10 3.71983E-09
 -1       891-1.23105E+02-1.10529E+05-1.30351E+03 2.10245E+04 1.70894E-09 5.58839E-09
 -1       892-2.13837E+02-1.10840E+05-1.41869E+03 3.18137E+04-1.58821E-09 2.49884E-09
 -1       893-3.63779E+01-1.10570E+05-2.02791E+03 2.10286E+04 6.18684E-10 1.05456E-09
 -1       894-1.11180E+03-1.11619E+05-4.21117E+03 3.17007E+04 1.17780E-10 5.38171E-09
 -1       895-8.68291E+02-1.09694E+05-7.42100E+03 2.11360E+04 9.27059E-10-1.46974E-09
 -1       956-2.44316E+05-3.52165E+03-8.87011E+03 1.61633E+04-2.95950E-09 5.22959E-09
 -1       957-2.46067E+05-1.18652E+03-4.55361E+03 1.94633E+04-1.01136E-09 1.42791E-10
 -1       958-2.45102E+05-9.29780E+01-2.05149E+03 1.60577E+04 2.72667E-09 3.16595E-09
 -1       959-2.45242E+05-1.44029E+01-1.04787E+03 1.95774E+04-1.06593E-09 4.18822E-09
 -1       960-2.45172E+05 3.10439E+01-5.10739E+02 1.60477E+04-3.39196E-09-9.64974E-10
 -1       961-2.45181E+05 2.95417E+01-2.70788E+02 1.95888E+04-6.39989E-09 3.32648E-09
 -1       962-2.45186E+05 2.73166E+01-1.54594E+02 1.60462E+04-3.56863E-09 1.14835E-09
 -1       963-2.45178E+05 3.05644E+01-1.23366E+02 1.95908E+04-4.45152E-09-1.03751E-09
 -1       964-2.45189E+05 2.90218E+01-1.48834E+02 1.60457E+04-6.92580E-10 1.99884E-09
 -1       965-2.45188E+05 3.32977E+01-2.56401E+02 1.95909E+04 4.32217E-09-3.28396E-09
 -1       966-2.45181E+05 3.60665E+01-4.80829E+02 1.60461E+04-1.99680E-09-2.68381E-09
 -1       967-2.45251E+05-4.36061E+00-9.85950E+02 1.95848E+04 1.15426E-09 4.87194E-09
 -1       968-2.45121E+05-7.71383E+01-1.92930E+03 1.60518E+04-3.18551E-10 8.47194E-10
 -1       969-2.46035E+05-1.10381E+03-4.28361E+03 1.95179E+04-6.91671E-10 1.48503E-09
 -1       970-2.44386E+05-3.30036E+03-8.34344E+03 1.61155E+04 1.12868E-09-5.65706E-10
 -1       971-2.32054E+05-1.22495E+03-6.82207E+03 1.13356E+04-2.64936E-09-4.37066E-09
 -1       972-2.33714E+05-8.77190E+02-3.71538E+03 1.58359E+04-3.28123E-09-5.14615E-09
 -1       973-2.32812E+05-6.26909E+00-1.66353E+03 1.12412E+04-1.74941E-09-8.43215E-10
 -1       974-2.32928E+05-5.95637E+00-8.61813E+02 1.59375E+04 8.15362E-10 2.36946E-09
 -1       975-2.32870E+05 2.51265E+01-4.29669E+02 1.12329E+04-1.41972E-09-1.05649E-09
 -1       976-2.32880E+05 2.92868E+01-2.46026E+02 1.59475E+04-4.79758E-09 4.73017E-09
 -1       977-2.32881E+05 2.45799E+01-1.75134E+02 1.12311E+04 2.27465E-09 2.29625E-09
 -1       978-2.32882E+05 3.29724E+01-2.00328E+02 1.59500E+04 1.14683E-08-4.49631E-09
 -1       979-2.32880E+05 2.98101E+01-3.17847E+02 1.12304E+04 6.43837E-09 1.11481E-09
 -1       980-2.32906E+05 3.48535E+01-6.11206E+02 1.59504E+04 1.30694E-09-1.58150E-09
 -1       981-2.32861E+05 4.50432E+01-1.18241E+03 1.12307E+04-4.68572E-09 4.00087E-09
 -1       982-2.33068E+05-5.22905E+01-2.44325E+03 1.59457E+04-2.61127E-09 1.61170E-09
 -1       983-2.32712E+05-3.03261E+01-4.74678E+03 1.12352E+04 1.32513E-09 5.03030E-09
 -1       984-2.35351E+05-2.53075E+03-1.06296E+04 1.58818E+04-2.19916E-09 2.62889E-09
 -1       985-2.30564E+05-3.50342E+03-1.95194E+04 1.12993E+04 2.26601E-09-4.54747E-10
 -3
    1PSTEP                         9           5           1          
  100CL  105 5.03906E-01         409                     0    5           1
 -4  DISP        4    1
 -5  D1          1    2    1    0
 -5  D2          1    2    2    0
 -5  D3          1    2    3    0
 -5  ALL         1    2    0    0    1ALL
 -1         1 1.53037E-04 0.00000E+00 0.00000E+00
 -1         2 1.38029E-04-1.92693E-30 4.13590E-25
 -1         3 1.35517E-04-3.21865E-28 0.00000E+00
 -1         5 9.22574E-05-6.23031E-27 0.00000E+00
 -1         8 1.28052E-04-8.82515E-07 0.00000E+00
 -1         9 1.25498E-04-6.96511E-08 0.00000E+00
 -1        10 1.25049E-04-1.83289E-06-6.61744E-24
 -1        12 9.18624E-05 5.52923E-07 0.00000E+00
 -1        15 9.82673E-05-9.77646E-07 0.00000E+00
 -1        16 1.02069E-04-2.49155E-07 0.00000E+00
 -1        17 9.17758E-05-3.88952E-06 0.00000E+00
 -1        18 8.95991E-05 2.53728E-06 0.00000E+00
 -1        19 9.06773E-05 1.10287E-06 0.00000E+00
 -1        20 9.08168E-05 1.41277E-05 0.00000E+00
 -1        21 9.02709E-05 2.62340E-05 1.65436E-24
 -1        24 2.04422E-05-5.37015E-06 0.00000E+00
 -1        25 8.86934E-05 2.66705E-06 0.00000E+00
 -1        26 8.96383E-05 1.53375E-06 0.00000E+00
 -1        27 8.81067E-05 1.16624E-05 0.00000E+00
 -1        28 8.76406E-05 2.57647E-05 0.00000E+00
 -1        32 0.00000E+00 0.00000E+00 0.00000E+00
 -1        33 8.73481E-05 2.05453E-06 0.00000E+00
 -1        34 8.58661E-05 1.16396E-05 0.00000E+00
 -1        35 8.44627E-05 2.55161E-05 0.00000E+00
 -1        51 1.51415E-04-1.45864E-07 0.00000E+00
 -1        52 1.48405E-04-2.86835E-07 0.00000E+00
 -1        53 1.44280E-04-4.29187E-07 0.00000E+00
 -1        54 1.39324E-04-5.74489E-07-3.30872E-24
 -1        55 1.33820E-04-7.23547E-07 1.49926E-24
 -1        56 1.51675E-04-8.03921E-07 2.64698E-23
 -1        57 1.50435E-04-2.09382E-06 1.32349E-23
 -1        58 1.49327E-04-3.72436E-06 0.00000E+00
 -1        59 1.48286E-04-5.56248E-06 0.00000E+00
 -1        60 1.47264E-04-7.45281E-06 5.29396E-23
 -1        61 1.46203E-04-9.24187E-06 0.00000E+00
 -1        62 1.45048E-04-1.07827E-05 0.00000E+00
 -1        63 1.43749E-04-1.19377E-05-2.64698E-23
 -1        64 1.42264E-04-1.25969E-05 5.29396E-23
 -1        65 1.40559E-04-1.26677E-05 0.00000E+00
 -1        66 1.38614E-04-1.21001E-05 5.29396E-23
 -1        67 1.36419E-04-1.08660E-05 0.00000E+00
 -1        68 1.33981E-04-8.98609E-06-5.29396E-23
 -1        69 1.31323E-04-6.50060E-06 2.64698E-23
 -1        70 1.28466E-04-3.49948E-06-2.64698E-23
 -1        86 1.37680E-04-4.02524E-09 0.00000E+00
 -1        87 1.36633E-04-9.06266E-09 0.00000E+00
 -1        88 1.34889E-04-1.51131E-08-1.65436E-24
 -1        89 1.32450E-04-2.59812E-08 1.65436E-24
 -1        90 1.29319E-04-3.75450E-08 0.00000E+00
 -1       121 1.35224E-04-3.03469E-07-6.61744E-24
 -1       122 1.34347E-04-6.07272E-07 3.30872E-24
 -1       123 1.32888E-04-9.11741E-07 0.00000E+00
 -1       124 1.30849E-04-1.21725E-06 0.00000E+00
 -1       125 1.28234E-04-1.52403E-06-6.61744E-24
 -1       191 9.22464E-05 9.21599E-08 0.00000E+00
 -1       192 9.22135E-05 1.84318E-07 0.00000E+00
 -1       193 9.21586E-05 2.76476E-07 0.00000E+00
 -1       194 9.20818E-05 3.68631E-07 0.00000E+00
 -1       195 9.19831E-05 4.60781E-07 0.00000E+00
 -1       251 1.27879E-04 3.39820E-06 0.00000E+00
 -1       252 1.27718E-04 6.31429E-06 3.30872E-24
 -1       253 1.27560E-04 7.93534E-06 6.61744E-24
 -1       254 1.27404E-04 8.33904E-06 0.00000E+00
 -1       255 1.27249E-04 7.69925E-06 0.00000E+00
 -1       256 1.27092E-04 6.19643E-06 0.00000E+00
 -1       257 1.26935E-04 4.07916E-06 0.00000E+00
 -1       258 1.26777E-04 1.59988E-06 0.00000E+00
 -1       259 1.26619E-04-9.60444E-07-6.61744E-24
 -1       260 1.26461E-04-3.32030E-06-3.30872E-24
 -1       261 1.26304E-04-5.21395E-06-6.61744E-24
 -1       262 1.26147E-04-6.37871E-06-3.30872E-24
 -1       263 1.25991E-04-6.60935E-06 6.61744E-24
 -1       264 1.25833E-04-5.70654E-06-3.30872E-24
 -1       265 1.25673E-04-3.56061E-06-6.61744E-24
 -1       266 1.23088E-04-9.10439E-07-6.61744E-24
 -1       267 1.18124E-04-9.24823E-07 1.65436E-24
 -1       268 1.13160E-04-9.40064E-07 0.00000E+00
 -1       269 1.08195E-04-9.52766E-07 4.13590E-25
 -1       270 1.03231E-04-9.65408E-07 0.00000E+00
 -1       271 1.25053E-04 2.93812E-06 0.00000E+00
 -1       272 1.22454E-04 5.56707E-06 0.00000E+00
 -1       273 1.20263E-04 7.12275E-06-5.29396E-23
 -1       274 1.18424E-04 7.72244E-06 2.64698E-23
 -1       275 1.16890E-04 7.50688E-06 0.00000E+00
 -1       276 1.15604E-04 6.62874E-06 2.64698E-23
 -1       277 1.14503E-04 5.25387E-06 0.00000E+00
 -1       278 1.13523E-04 3.55661E-06-2.64698E-23
 -1       279 1.12596E-04 1.71750E-06 0.00000E+00
 -1       280 1.11653E-04-8.03710E-08 0.00000E+00
 -1       281 1.10627E-04-1.65484E-06 5.29396E-23
 -1       282 1.09452E-04-2.82755E-06 2.64698E-23
 -1       283 1.08063E-04-3.42803E-06 0.00000E+00
 -1       284 1.06403E-04-3.29437E-06 0.00000E+00
 -1       285 1.04412E-04-2.28205E-06 0.00000E+00
 -1       301 1.21261E-04-1.10563E-07 0.00000E+00
 -1       302 1.17070E-04-1.32451E-07-3.30872E-24
 -1       303 1.12990E-04-1.53211E-07-6.61744E-24
 -1       304 1.09086E-04-1.74568E-07-3.30872E-24
 -1       305 1.05425E-04-1.97224E-07-1.32349E-23
 -1       306 1.22500E-04 2.25591E-06 0.00000E+00
 -1       307 1.20315E-04 2.24273E-06 2.64698E-23
 -1       308 1.18957E-04 3.41783E-08-5.29396E-23
 -1       309 1.18314E-04-4.12928E-06-2.64698E-23
 -1       310 1.18174E-04-9.65050E-06 0.00000E+00
 -1       311 1.18286E-04-1.58585E-05 0.00000E+00
 -1       312 1.18358E-04-2.19582E-05 0.00000E+00
 -1       313 1.18098E-04-2.71618E-05-2.64698E-23
 -1       314 1.17272E-04-3.08410E-05 5.29396E-23
 -1       315 1.15677E-04-3.24553E-05 0.00000E+00
 -1       316 1.13243E-04-3.18338E-05 0.00000E+00
 -1       317 1.09951E-04-2.89324E-05-2.64698E-23
 -1       318 1.05930E-04-2.41138E-05 0.00000E+00
 -1       319 1.01369E-04-1.78438E-05 2.64698E-23
 -1       320 9.65284E-05-1.08560E-05-2.64698E-23
 -1       336 1.21226E-04-2.16788E-06 0.00000E+00
 -1       337 1.16697E-04-2.50614E-06 0.00000E+00
 -1       338 1.11473E-04-2.84756E-06 1.32349E-23
 -1       339 1.05568E-04-3.19209E-06 0.00000E+00
 -1       340 9.89961E-05-3.54067E-06-6.61744E-24
 -1       406 9.17197E-05 6.45052E-07 3.30872E-24
 -1       407 9.15551E-05 7.37148E-07-1.65436E-24
 -1       408 9.13685E-05 8.29184E-07 3.30872E-24
 -1       409 9.11599E-05 9.21047E-07 0.00000E+00
 -1       410 9.09295E-05 1.01256E-06 0.00000E+00
 -1       521 1.03622E-04-1.35374E-05-5.29396E-23
 -1       522 1.15341E-04-5.65031E-05 0.00000E+00
 -1       523 1.34293E-04-1.22021E-04 1.05879E-22
 -1       524 1.57261E-04-2.00985E-04 0.00000E+00
 -1       525 1.80627E-04-2.81299E-04 1.05879E-22
 -1       526 2.00759E-04-3.50746E-04 0.00000E+00
 -1       527 2.14371E-04-3.99538E-04 0.00000E+00
 -1       528 2.18278E-04-4.19723E-04 0.00000E+00
 -1       529 2.10921E-04-4.09548E-04 1.05879E-22
 -1       530 1.91613E-04-3.69794E-04 0.00000E+00
 -1       531 1.62514E-04-3.07362E-04 1.05879E-22
 -1       532 1.27002E-04-2.30841E-04 5.29396E-23
 -1       533 9.02510E-05-1.51639E-04 0.00000E+00
 -1       534 5.76284E-05-8.13379E-05 5.29396E-23
 -1       535 3.32997E-05-2.97768E-05 0.00000E+00
 -1       536 9.16262E-05 4.54559E-06-6.61744E-24
 -1       537 9.14657E-05 1.47558E-05 0.00000E+00
 -1       538 9.12988E-05 2.55740E-05 0.00000E+00
 -1       539 9.11386E-05 3.58308E-05 1.65436E-24
 -1       540 9.09927E-05 4.44813E-05-3.30872E-24
 -1       541 9.08657E-05 5.04887E-05 0.00000E+00
 -1       542 9.07516E-05 5.34071E-05 0.00000E+00
 -1       543 9.06415E-05 5.28053E-05 0.00000E+00
 -1       544 9.05250E-05 4.90377E-05 0.00000E+00
 -1       545 9.03946E-05 4.24744E-05 1.65436E-24
 -1       546 9.02518E-05 3.41100E-05 0.00000E+00
 -1       547 9.01024E-05 2.49479E-05 0.00000E+00
 -1       548 8.99562E-05 1.61702E-05 3.30872E-24
 -1       549 8.98232E-05 8.95703E-06 8.27181E-25
 -1       550 8.97034E-05 4.13974E-06 0.00000E+00
 -1       551 8.23632E-05-4.10775E-06 0.00000E+00
 -1       552 7.11405E-05-4.33974E-06 0.00000E+00
 -1       553 5.87179E-05-4.58460E-06 6.61744E-24
 -1       554 4.57149E-05-4.83855E-06 3.30872E-24
 -1       555 3.27512E-05-5.09478E-06 0.00000E+00
 -1       556 8.92581E-05 2.63006E-06 0.00000E+00
 -1       557 8.73121E-05 7.67917E-06 0.00000E+00
 -1       558 8.58763E-05 1.13892E-05 0.00000E+00
 -1       559 8.48951E-05 1.39023E-05 0.00000E+00
 -1       560 8.43125E-05 1.53602E-05 0.00000E+00
 -1       561 8.40735E-05 1.59056E-05 6.61744E-24
 -1       562 8.41237E-05 1.56815E-05 0.00000E+00
 -1       563 8.44087E-05 1.48309E-05 0.00000E+00
 -1       564 8.48746E-05 1.34970E-05 6.61744E-24
 -1       565 8.54675E-05 1.18232E-05 0.00000E+00
 -1       566 8.61338E-05 9.95276E-06 0.00000E+00
 -1       567 8.68200E-05 8.02919E-06-2.06795E-25
 -1       568 8.74724E-05 6.19587E-06 0.00000E+00
 -1       569 8.80377E-05 4.59605E-06 0.00000E+00
 -1       570 8.84622E-05 3.37304E-06 0.00000E+00
 -1       571 8.96645E-05 2.47962E-06-4.13590E-25
 -1       572 8.97314E-05 2.37784E-06 8.27181E-25
 -1       573 8.97987E-05 2.24008E-06-1.65436E-24
 -1       574 8.98662E-05 2.07492E-06 8.27181E-25
 -1       575 8.99338E-05 1.89097E-06-1.65436E-24
 -1       576 9.00014E-05 1.69687E-06 0.00000E+00
 -1       577 9.00690E-05 1.50129E-06 0.00000E+00
 -1       578 9.01366E-05 1.31290E-06-1.65436E-24
 -1       579 9.02043E-05 1.14037E-06 3.30872E-24
 -1       580 9.02719E-05 9.92373E-07 1.65436E-24
 -1       581 9.03395E-05 8.77582E-07 0.00000E+00
 -1       582 9.04072E-05 8.04655E-07 0.00000E+00
 -1       583 9.04748E-05 7.82244E-07 0.00000E+00
 -1       584 9.05424E-05 8.18915E-07 0.00000E+00
 -1       585 9.06100E-05 9.23177E-07 0.00000E+00
 -1       586 8.94179E-05 2.56024E-06 8.27181E-25
 -1       587 8.92095E-05 2.58266E-06 0.00000E+00
 -1       588 8.90034E-05 2.60484E-06 0.00000E+00
 -1       589 8.88291E-05 2.62667E-06 0.00000E+00
 -1       590 8.87162E-05 2.64788E-06 0.00000E+00
 -1       591 8.95884E-05 2.51683E-06 2.06795E-25
 -1       592 8.95878E-05 2.46235E-06 0.00000E+00
 -1       593 8.95972E-05 2.38047E-06 0.00000E+00
 -1       594 8.96145E-05 2.27711E-06 0.00000E+00
 -1       595 8.96374E-05 2.15828E-06 0.00000E+00
 -1       596 8.96639E-05 2.02993E-06 0.00000E+00
 -1       597 8.96917E-05 1.89802E-06 0.00000E+00
 -1       598 8.97186E-05 1.76851E-06 0.00000E+00
 -1       599 8.97423E-05 1.64734E-06 0.00000E+00
 -1       600 8.97607E-05 1.54047E-06 2.06795E-25
 -1       601 8.97716E-05 1.45384E-06 0.00000E+00
 -1       602 8.97726E-05 1.39341E-06 2.06795E-25
 -1       603 8.97617E-05 1.36515E-06-1.03398E-25
 -1       604 8.97368E-05 1.37505E-06 5.16988E-26
 -1       605 8.96956E-05 1.42903E-06 0.00000E+00
 -1       606 9.06895E-05 1.43611E-06 0.00000E+00
 -1       607 9.06993E-05 1.86170E-06 0.00000E+00
 -1       608 9.07084E-05 2.37420E-06 0.00000E+00
 -1       609 9.07172E-05 2.96752E-06 0.00000E+00
 -1       610 9.07258E-05 3.63550E-06 0.00000E+00
 -1       611 9.07344E-05 4.37192E-06 0.00000E+00
 -1       612 9.07429E-05 5.17054E-06 0.00000E+00
 -1       613 9.07513E-05 6.02513E-06 0.00000E+00
 -1       614 9.07597E-05 6.92945E-06 0.00000E+00
 -1       615 9.07680E-05 7.87724E-06 0.00000E+00
 -1       616 9.07763E-05 8.86228E-06 0.00000E+00
 -1       617 9.07846E-05 9.87832E-06 0.00000E+00
 -1       618 9.07928E-05 1.09191E-05 0.00000E+00
 -1       619 9.08010E-05 1.19784E-05 0.00000E+00
 -1       620 9.08090E-05 1.30500E-05 0.00000E+00
 -1       621 9.04423E-05 1.17476E-06 1.65436E-24
 -1       622 9.02415E-05 1.24697E-06-8.27181E-25
 -1       623 9.00680E-05 1.31917E-06 1.65436E-24
 -1       624 8.99145E-05 1.39126E-06 0.00000E+00
 -1       625 8.97737E-05 1.46322E-06 1.65436E-24
 -1       626 9.06301E-05 1.45929E-06 0.00000E+00
 -1       627 9.05550E-05 1.89166E-06-3.30872E-24
 -1       628 9.04541E-05 2.39280E-06 0.00000E+00
 -1       629 9.03305E-05 2.95502E-06 0.00000E+00
 -1       630 9.01867E-05 3.57068E-06 3.30872E-24
 -1       631 9.00258E-05 4.23206E-06 0.00000E+00
 -1       632 8.98507E-05 4.93143E-06 0.00000E+00
 -1       633 8.96641E-05 5.66109E-06 1.65436E-24
 -1       634 8.94691E-05 6.41331E-06 0.00000E+00
 -1       635 8.92685E-05 7.18037E-06 0.00000E+00
 -1       636 8.90652E-05 7.95458E-06 0.00000E+00
 -1       637 8.88621E-05 8.72820E-06 0.00000E+00
 -1       638 8.86620E-05 9.49352E-06 1.65436E-24
 -1       639 8.84678E-05 1.02428E-05 0.00000E+00
 -1       640 8.82822E-05 1.09684E-05-1.65436E-24
 -1       656 8.99416E-05 1.37265E-05 0.00000E+00
 -1       657 8.94190E-05 1.33094E-05 0.00000E+00
 -1       658 8.91169E-05 1.28935E-05 0.00000E+00
 -1       659 8.88995E-05 1.24781E-05 0.00000E+00
 -1       660 8.86135E-05 1.20612E-05 0.00000E+00
 -1       661 9.04936E-05 1.51795E-05 8.27181E-25
 -1       662 9.01935E-05 1.61780E-05-8.27181E-25
 -1       663 8.99126E-05 1.71249E-05 0.00000E+00
 -1       664 8.96506E-05 1.80228E-05-8.27181E-25
 -1       665 8.94062E-05 1.88742E-05 1.65436E-24
 -1       666 8.91785E-05 1.96814E-05 8.27181E-25
 -1       667 8.89666E-05 2.04465E-05 0.00000E+00
 -1       668 8.87697E-05 2.11718E-05 8.27181E-25
 -1       669 8.85870E-05 2.18593E-05-1.65436E-24
 -1       670 8.84177E-05 2.25109E-05 0.00000E+00
 -1       671 8.82612E-05 2.31285E-05 0.00000E+00
 -1       672 8.81166E-05 2.37139E-05 0.00000E+00
 -1       673 8.79835E-05 2.42688E-05 0.00000E+00
 -1       674 8.78604E-05 2.47947E-05 0.00000E+00
 -1       675 8.77479E-05 2.52933E-05 4.13590E-25
 -1       676 8.98314E-05 2.61553E-05 0.00000E+00
 -1       677 8.93920E-05 2.60767E-05 0.00000E+00
 -1       678 8.89531E-05 2.59981E-05 1.65436E-24
 -1       679 8.85147E-05 2.59197E-05 0.00000E+00
 -1       680 8.80772E-05 2.58413E-05 0.00000E+00
 -1       771 1.56517E-05 4.24899E-06 0.00000E+00
 -1       772 1.15183E-05 1.21321E-05 0.00000E+00
 -1       773 8.01367E-06 1.83727E-05 0.00000E+00
 -1       774 5.09606E-06 2.30718E-05 0.00000E+00
 -1       775 2.72441E-06 2.63330E-05 0.00000E+00
 -1       776 8.55856E-07 2.82644E-05 2.64698E-23
 -1       777-5.52972E-07 2.89763E-05 0.00000E+00
 -1       778-1.54640E-06 2.85826E-05-2.64698E-23
 -1       779-2.16908E-06 2.71993E-05 2.64698E-23
 -1       780-2.46645E-06 2.49453E-05 1.32349E-23
 -1       781-2.48412E-06 2.19409E-05 2.64698E-23
 -1       782-2.26833E-06 1.83090E-05 0.00000E+00
 -1       783-1.86537E-06 1.41732E-05-2.64698E-23
 -1       784-1.32193E-06 9.65893E-06 0.00000E+00
 -1       785-6.84787E-07 4.89219E-06 0.00000E+00
 -1       786 8.87488E-05 2.49486E-06-4.13590E-25
 -1       787 8.88077E-05 2.33734E-06 0.00000E+00
 -1       788 8.88664E-05 2.19223E-06 0.00000E+00
 -1       789 8.89257E-05 2.05733E-06 0.00000E+00
 -1       790 8.89850E-05 1.93180E-06 1.65436E-24
 -1       791 8.90445E-05 1.81485E-06-8.27181E-25
 -1       792 8.91040E-05 1.70685E-06 0.00000E+00
 -1       793 8.91635E-05 1.60822E-06 0.00000E+00
 -1       794 8.92230E-05 1.52064E-06 0.00000E+00
 -1       795 8.92825E-05 1.44583E-06-8.27181E-25
 -1       796 8.93421E-05 1.38726E-06 0.00000E+00
 -1       797 8.94016E-05 1.34845E-06 8.27181E-25
 -1       798 8.94610E-05 1.33561E-06 0.00000E+00
 -1       799 8.95204E-05 1.35505E-06-8.27181E-25
 -1       800 8.95798E-05 1.41748E-06 0.00000E+00
 -1       801 8.26876E-05 2.35706E-06 6.61744E-24
 -1       802 6.43940E-05 1.89210E-06 0.00000E+00
 -1       803 4.04938E-05 1.32055E-06 0.00000E+00
 -1       804 1.77456E-05 7.67495E-07 0.00000E+00
 -1       805 2.24596E-06 3.41579E-07 0.00000E+00
 -1       806 8.86802E-05 2.44953E-06 0.00000E+00
 -1       807 8.86616E-05 2.23811E-06 8.27181E-25
 -1       808 8.86384E-05 2.03727E-06 0.00000E+00
 -1       809 8.86096E-05 1.85073E-06 8.27181E-25
 -1       810 8.85739E-05 1.68220E-06-3.30872E-24
 -1       811 8.85300E-05 1.53531E-06-1.65436E-24
 -1       812 8.84767E-05 1.41372E-06-1.65436E-24
 -1       813 8.84124E-05 1.32104E-06 1.65436E-24
 -1       814 8.83360E-05 1.26089E-06 1.65436E-24
 -1       815 8.82461E-05 1.23691E-06 0.00000E+00
 -1       816 8.81412E-05 1.25270E-06 1.65436E-24
 -1       817 8.80200E-05 1.31189E-06-8.27181E-25
 -1       818 8.78813E-05 1.41807E-06 0.00000E+00
 -1       819 8.77237E-05 1.57486E-06 0.00000E+00
 -1       820 8.75461E-05 1.78584E-06 0.00000E+00
 -1       821 8.95482E-05 1.65813E-06 0.00000E+00
 -1       822 8.94525E-05 1.74582E-06-8.27181E-25
 -1       823 8.93571E-05 1.84938E-06 0.00000E+00
 -1       824 8.92607E-05 2.02132E-06 0.00000E+00
 -1       825 8.91643E-05 2.30050E-06 0.00000E+00
 -1       826 8.90676E-05 2.72530E-06 0.00000E+00
 -1       827 8.89708E-05 3.30511E-06 0.00000E+00
 -1       828 8.88739E-05 4.04864E-06 1.65436E-24
 -1       829 8.87768E-05 4.93197E-06-3.30872E-24
 -1       830 8.86797E-05 5.93059E-06 0.00000E+00
 -1       831 8.85826E-05 6.99703E-06 0.00000E+00
 -1       832 8.84856E-05 8.08350E-06 0.00000E+00
 -1       833 8.83887E-05 9.13822E-06-3.30872E-24
 -1       834 8.82929E-05 1.01096E-05 0.00000E+00
 -1       835 8.81969E-05 1.09625E-05 8.27181E-25
 -1       836 8.94041E-05 1.62045E-06 0.00000E+00
 -1       837 8.90583E-05 1.70907E-06 0.00000E+00
 -1       838 8.86403E-05 1.79753E-06 0.00000E+00
 -1       839 8.81895E-05 1.88542E-06-8.27181E-25
 -1       840 8.77457E-05 1.97316E-06 0.00000E+00
 -1       856 8.80810E-05 1.23414E-05 0.00000E+00
 -1       857 8.80523E-05 1.31246E-05-2.06795E-25
 -1       858 8.80236E-05 1.39958E-05 0.00000E+00
 -1       859 8.79943E-05 1.49383E-05 0.00000E+00
 -1       860 8.79650E-05 1.59356E-05 8.27181E-25
 -1       861 8.79355E-05 1.69712E-05-4.13590E-25
 -1       862 8.79059E-05 1.80283E-05 0.00000E+00
 -1       863 8.78764E-05 1.90903E-05 4.13590E-25
 -1       864 8.78468E-05 2.01404E-05 8.27181E-25
 -1       865 8.78173E-05 2.11620E-05-4.13590E-25
 -1       866 8.77878E-05 2.21384E-05 8.27181E-25
 -1       867 8.77583E-05 2.30530E-05 4.13590E-25
 -1       868 8.77289E-05 2.38894E-05-8.27181E-25
 -1       869 8.76995E-05 2.46310E-05 0.00000E+00
 -1       870 8.76702E-05 2.52615E-05 0.00000E+00
 -1       871 8.76264E-05 1.16614E-05 4.13590E-25
 -1       872 8.72478E-05 1.16584E-05 0.00000E+00
 -1       873 8.69269E-05 1.16550E-05 0.00000E+00
 -1       874 8.66193E-05 1.16510E-05 0.00000E+00
 -1       875 8.62803E-05 1.16466E-05 2.06795E-25
 -1       876 8.79440E-05 1.23503E-05 0.00000E+00
 -1       877 8.77643E-05 1.30890E-05 0.00000E+00
 -1       878 8.75680E-05 1.38724E-05 3.30872E-24
 -1       879 8.73573E-05 1.46946E-05-1.65436E-24
 -1       880 8.71342E-05 1.55500E-05-3.30872E-24
 -1       881 8.69009E-05 1.64328E-05 1.65436E-24
 -1       882 8.66593E-05 1.73375E-05-3.30872E-24
 -1       883 8.64118E-05 1.82581E-05 0.00000E+00
 -1       884 8.61603E-05 1.91891E-05-3.30872E-24
 -1       885 8.59070E-05 2.01248E-05 0.00000E+00
 -1       886 8.56542E-05 2.10595E-05 0.00000E+00
 -1       887 8.54037E-05 2.19875E-05 1.65436E-24
 -1       888 8.51578E-05 2.29030E-05-1.65436E-24
 -1       889 8.49182E-05 2.38003E-05 0.00000E+00
 -1       890 8.46871E-05 2.46737E-05 0.00000E+00
 -1       891 8.72242E-05 2.57231E-05 1.65436E-24
 -1       892 8.67899E-05 2.56814E-05 0.00000E+00
 -1       893 8.63171E-05 2.56397E-05 0.00000E+00
 -1       894 8.57852E-05 2.55981E-05 4.13590E-25
 -1       895 8.51738E-05 2.55565E-05 0.00000E+00
 -1       956 8.72572E-05 2.44119E-06 0.00000E+00
 -1       957 8.71648E-05 2.88685E-06 0.00000E+00
 -1       958 8.70721E-05 3.38529E-06-1.65436E-24
 -1       959 8.69793E-05 3.92986E-06 0.00000E+00
 -1       960 8.68864E-05 4.51396E-06-3.30872E-24
 -1       961 8.67934E-05 5.13092E-06 8.27181E-25
 -1       962 8.67004E-05 5.77405E-06 0.00000E+00
 -1       963 8.66074E-05 6.43670E-06-1.65436E-24
 -1       964 8.65144E-05 7.11219E-06 3.30872E-24
 -1       965 8.64213E-05 7.79382E-06 0.00000E+00
 -1       966 8.63283E-05 8.47495E-06-3.30872E-24
 -1       967 8.62354E-05 9.14887E-06 1.65436E-24
 -1       968 8.61424E-05 9.80892E-06 0.00000E+00
 -1       969 8.60497E-05 1.04485E-05 0.00000E+00
 -1       970 8.59572E-05 1.10608E-05-3.30872E-24
 -1       971 8.57795E-05 1.22365E-05 0.00000E+00
 -1       972 8.56918E-05 1.29105E-05 1.65436E-24
 -1       973 8.56038E-05 1.36533E-05 0.00000E+00
 -1       974 8.55157E-05 1.44558E-05-8.27181E-25
 -1       975 8.54275E-05 1.53093E-05 1.65436E-24
 -1       976 8.53393E-05 1.62048E-05-8.27181E-25
 -1       977 8.52510E-05 1.71335E-05 0.00000E+00
 -1       978 8.51627E-05 1.80865E-05 0.00000E+00
 -1       979 8.50744E-05 1.90548E-05-3.30872E-24
 -1       980 8.49861E-05 2.00296E-05 0.00000E+00
 -1       981 8.48978E-05 2.10020E-05-3.30872E-24
 -1       982 8.48096E-05 2.19630E-05-1.65436E-24
 -1       983 8.47216E-05 2.29038E-05 3.30872E-24
 -1       984 8.46339E-05 2.38155E-05 1.65436E-24
 -1       985 8.45466E-05 2.46892E-05 1.65436E-24
 -3
    1PSTEP                        10           5           1          
  100CL  105 5.03906E-01         409                     0    5           1
 -4  STRESS      6    1
 -5  SXX         1    4    1    1
 -5  SYY         1    4    2    2
 -5  SZZ         1    4    3    3
 -5  SXY         1    4    1    2
 -5  SYZ         1    4    2    3
 -5  SZX         1    4    3    1
 -1         1-1.94921E+06-8.55182E+05-4.06994E+05-1.14611E+06 2.32831E-10-3.36149E-09
 -1         2 2.68964E+03-7.74904E+03 8.79393E+03-2.77919E+01-1.21446E-10-2.57405E-08
 -1         3-1.47586E+02-8.66519E+05 2.04905E+02-4.01855E+02-1.02226E-10 5.36784E-09
 -1         5-4.11495E+00 2.63699E+05 6.88027E+00 1.16145E-01 5.96155E-11 1.01622E-08
 -1         8-9.26783E+05-3.63387E+05-6.67682E+04-5.64285E+05 6.05723E-10 2.27010E-09
 -1         9-1.76793E+06-5.19882E+05-1.98218E+05-5.57718E+05 3.09374E-09-2.49711E-09
 -1        10-7.37448E+02-9.02731E+05-1.21993E+03-2.71722E+03-4.20459E-09-2.29756E-08
 -1        12-1.29433E+00 2.63713E+05 2.22949E+02 9.69687E-01 1.23283E-10 1.63418E-08
 -1        15 1.99961E+03 1.09891E+03 6.46373E+03 4.29245E+00 1.30171E-11 6.82583E-09
 -1        16-3.20794E+06-1.24631E+06-5.07413E+05-1.30889E+06 1.14475E-08-7.17894E-10
 -1        17-1.06794E+06-6.25851E+05-2.08954E+05-5.62041E+05-5.39731E-09 6.70843E-09
 -1        18-4.49221E+04-1.55725E+04-3.12853E+04-6.54945E+04 2.48519E-09-7.81711E-10
 -1        19 8.30142E+04 9.82098E+04-5.25932E+02 1.61823E+04-5.59885E-10-3.29092E-09
 -1        20-3.67416E+04-3.92219E+05-8.66655E+04 2.77585E+04 2.70741E-09 4.01633E-09
 -1        21-3.65866E+01-2.24996E+05-7.24497E+02-6.78325E+01-4.87078E-09 4.50639E-09
 -1        24-3.22476E+06-9.05344E+05-4.08733E+05-1.18605E+06-2.99090E-08-1.76175E-08
 -1        25-8.16075E+03-1.78904E+05-2.34339E+04-1.14243E+05 3.31966E-10 1.85626E-08
 -1        26-2.16610E+04 6.63458E+04-1.38301E+04-8.42010E+03 1.64546E-09 2.37153E-09
 -1        27-6.16553E+04-2.14814E+05-8.04437E+04 4.84240E+04 5.77878E-09-6.31189E-10
 -1        28 1.73913E+04-6.23911E+04 1.27252E+04 1.95256E+04-2.27004E-10-5.86193E-09
 -1        32-9.20022E+05-5.50714E+05 2.62832E+05-5.58597E+05-2.01326E-08 7.43353E-09
 -1        33-1.23513E+05 6.28157E+04 2.23134E+04-3.51544E+04 9.39337E-10 1.21569E-09
 -1        34-1.59246E+05-1.59578E+04 3.84657E+02 4.93510E+04 2.83579E-09-1.54296E-09
 -1        35-1.76944E+04-2.47908E+04-9.73456E+02 3.91942E+04 5.27869E-09-1.40487E-09
 -1        51 1.72863E+04-3.62418E+05 4.34023E+04-9.52153E+05 2.61934E-10 1.79280E-08
 -1        52 1.00474E+04-3.60355E+05 2.80299E+04-1.11049E+06 7.71252E-10-2.32103E-09
 -1        53 7.02298E+03-3.73824E+05 2.29003E+04-9.48822E+05 8.44011E-10-2.16969E-08
 -1        54 1.97822E+04-3.72492E+05 3.55806E+04-1.11395E+06-6.54836E-11-1.81644E-08
 -1        55 3.90423E+04-3.85912E+05 6.28047E+04-9.48281E+05 1.00408E-09-6.98492E-10
 -1        56-3.73328E+06-4.18930E+05-2.99282E+05-1.44053E+06-2.91038E-11-9.73523E-09
 -1        57-3.85685E+06-6.86655E+05-2.01786E+05-1.42519E+06-1.85173E-09-1.43973E-08
 -1        58-3.79396E+06-5.13252E+05-7.03983E+04-1.42105E+06 3.40151E-10-3.68891E-09
 -1        59-3.78665E+06-5.75947E+05-4.20246E+04-1.44837E+06 2.43199E-09-9.65883E-09
 -1        60-3.80278E+06-5.26428E+05-1.64262E+04-1.41844E+06 8.98581E-10 2.48474E-09
 -1        61-3.77807E+06-5.58786E+05-9.31789E+03-1.44937E+06 1.08344E-10 5.22334E-09
 -1        62-3.80235E+06-5.30022E+05-4.46796E+03-1.42015E+06-6.01631E-10 4.21124E-09
 -1        63-3.78171E+06-5.51734E+05-3.58826E+03-1.44367E+06 6.19366E-10 5.33998E-09
 -1        64-3.79902E+06-5.33504E+05-4.08951E+03-1.42407E+06-9.28594E-10 2.62207E-09
 -1        65-3.79041E+06-5.45502E+05-8.06324E+03-1.43439E+06 4.79884E-09-8.67931E-09
 -1        66-3.79357E+06-5.36353E+05-1.42135E+04-1.42936E+06 7.91260E-10 6.63931E-11
 -1        67-3.80778E+06-5.50142E+05-3.60442E+04-1.42200E+06-1.41364E-09 1.37138E-08
 -1        68-3.78177E+06-5.29224E+05-6.04947E+04-1.43636E+06 1.45974E-09-1.07684E-09
 -1        69-3.87421E+06-6.39282E+05-1.73210E+05-1.39559E+06 1.70348E-09-7.83075E-09
 -1        70-3.72791E+06-4.49876E+05-2.56967E+05-1.45492E+06 2.51021E-10-1.25583E-08
 -1        86-1.35176E+03-1.06674E+04 9.38136E+03 1.38743E+01 1.16734E-09 8.20637E-09
 -1        87 8.94779E+03-4.72633E+03 1.96220E+04-4.41335E+01 1.94018E-09-1.21929E-09
 -1        88-7.58990E+03-1.36891E+04 3.00057E+04 3.02107E+01 2.82671E-09-8.21080E-09
 -1        89 5.65362E+04 1.73427E+04 8.09452E+04 2.26083E+01 4.32101E-09-4.70632E-09
 -1        90-4.87772E+04-3.27168E+04 1.14370E+05-5.23555E+01 4.54747E-09-1.49993E-08
 -1       121-2.22227E+02-8.67123E+05 1.35099E+02 2.00591E+02 5.24253E-10-1.45519E-11
 -1       122-7.86011E+01-8.66481E+05 4.39901E+02-8.03177E+02-1.70843E-09 1.59325E-08
 -1       123-2.66993E+02-8.67172E+05 6.49600E+02 6.00583E+02 1.44934E-09 6.32281E-09
 -1       124 7.37005E+02-8.66007E+05 1.82615E+03-1.76117E+03-3.33125E-09 3.18687E-09
 -1       125-7.85527E+02-8.67632E+05 2.73669E+03 1.15753E+03 2.11912E-09 1.74623E-09
 -1       191-4.54872E+00 2.63722E+05 8.26742E+00-5.85039E-02 1.15628E-10 5.12773E-09
 -1       192-4.74676E+00 2.63699E+05 1.45654E+01 5.90386E-01 1.63259E-10-1.48270E-09
 -1       193-6.22872E+00 2.63721E+05 2.71298E+01-5.34914E-01 1.80808E-10-5.17366E-09
 -1       194-6.78005E+00 2.63702E+05 5.50873E+01 1.42922E+00 9.79137E-11-1.40983E-08
 -1       195-9.45736E+00 2.63720E+05 1.07795E+02-9.02843E-01 2.90044E-10-4.03452E-09
 -1       251-4.53554E+05-1.95613E+04 4.53992E+04-1.27418E+03-2.05432E-10 5.17684E-09
 -1       252-4.31271E+05 2.26031E+04 3.24967E+04-4.91995E+03-2.15948E-10 2.76850E-09
 -1       253-4.45768E+05-3.05474E+03 1.16685E+04 1.11974E+03 9.99876E-10 4.13274E-09
 -1       254-4.40715E+05 3.50272E+03 7.62295E+03-9.28516E+03 3.58142E-10-2.01499E-09
 -1       255-4.44178E+05-4.83336E+02 3.01004E+03 3.09086E+03 3.64253E-10-5.82486E-09
 -1       256-4.42866E+05 5.82094E+02 1.97838E+03-1.24202E+04 3.81647E-10 2.31768E-09
 -1       257-4.43687E+05-9.29500E+01 1.06374E+03 4.25475E+03 6.20446E-11 2.12552E-09
 -1       258-4.43413E+05 2.55592E+02 1.11516E+03-1.37371E+04-2.65036E-10 3.22309E-09
 -1       259-4.43667E+05-1.31610E+02 1.44997E+03 4.40785E+03-2.38373E-10-4.52968E-09
 -1       260-4.42837E+05 9.36670E+02 3.03551E+03-1.30084E+04-4.63729E-10-6.09214E-09
 -1       261-4.44242E+05-7.87055E+02 4.99575E+03 3.52601E+03 1.68814E-09-3.40515E-09
 -1       262-4.39771E+05 5.82496E+03 1.24675E+04-1.03631E+04 6.47162E-11-4.06089E-09
 -1       263-4.46667E+05-5.05106E+03 1.95202E+04 1.76249E+03 4.46789E-11-3.91992E-10
 -1       264-4.24357E+05 3.75762E+04 5.38338E+04-6.33282E+03-3.55408E-09 3.64525E-09
 -1       265-4.59569E+05-3.24783E+04 7.57059E+04-5.04287E+02-1.29864E-09 9.90258E-09
 -1       266-3.61984E+04-1.69237E+04 8.49446E+04-9.18570E+01 3.63798E-12 3.70909E-09
 -1       267 4.19652E+04 1.97291E+04 6.00311E+04 1.05970E+02 1.20963E-10-3.74024E-09
 -1       268-5.62740E+03-2.79396E+03 2.23137E+04-1.35032E+01-5.18412E-11-3.00282E-10
 -1       269 6.64437E+03 3.34403E+03 1.45032E+04 1.57283E+01-5.68434E-12 4.16302E-09
 -1       270-9.97327E+02-5.49440E+02 7.00090E+03-2.13448E+00-3.77440E-11 1.50924E-08
 -1       271-3.47659E+06-4.34960E+05-2.65923E+05-1.35522E+06 7.93079E-10 2.11003E-09
 -1       272-3.56265E+06-6.38083E+05-1.70948E+05-1.36309E+06 1.45701E-09 7.97445E-09
 -1       273-3.52816E+06-4.99682E+05-6.28244E+04-1.34161E+06-4.92946E-10 1.18234E-09
 -1       274-3.50169E+06-5.59424E+05-3.51206E+04-1.38446E+06 5.22959E-10-2.61934E-10
 -1       275-3.53687E+06-5.04682E+05-1.46247E+04-1.33753E+06 3.15958E-09 3.44608E-09
 -1       276-3.49101E+06-5.54037E+05-7.73691E+03-1.39132E+06-2.13277E-09-1.22623E-09
 -1       277-3.53934E+06-5.03778E+05-3.79027E+03-1.33553E+06-1.82354E-10 9.45761E-09
 -1       278-3.48836E+06-5.55120E+05-2.72271E+03-1.39416E+06 2.27828E-09 4.45857E-09
 -1       279-3.53987E+06-5.03291E+05-2.89018E+03-1.33498E+06-5.41718E-11 1.26115E-08
 -1       280-3.48906E+06-5.55459E+05-5.28423E+03-1.39374E+06-8.51287E-10 1.50546E-08
 -1       281-3.53861E+06-5.03515E+05-9.63923E+03-1.33590E+06 1.00454E-09 7.05040E-09
 -1       282-3.49582E+06-5.59196E+05-2.30514E+04-1.38948E+06-1.78125E-09-2.18279E-11
 -1       283-3.53277E+06-5.00405E+05-4.11412E+04-1.33873E+06 1.58525E-09 9.14952E-10
 -1       284-3.53626E+06-6.10000E+05-1.11933E+05-1.37453E+06-1.92544E-09-4.14184E-09
 -1       285-3.49842E+06-4.58712E+05-1.74202E+05-1.34831E+06 4.94765E-10-2.53931E-09
 -1       301 1.62217E+04-3.60523E+04 1.34154E+05-7.47345E+04 4.07454E-10 8.17545E-09
 -1       302 1.95186E+04-1.68109E+03 9.25670E+04-1.11633E+05-1.06274E-09 5.64614E-09
 -1       303 9.34052E+02-2.30964E+04 7.78198E+04-7.48529E+04 2.20098E-10 1.00463E-08
 -1       304 2.89590E+04 7.37614E+03 1.23255E+05-1.11236E+05-9.91349E-10-5.26688E-09
 -1       305 2.49448E+04-4.44304E+04 2.01715E+05-7.51270E+04 4.07454E-10 9.56788E-09
 -1       306-4.73238E+06-5.45980E+05-3.55006E+05-1.84366E+06 1.79716E-09-1.06666E-08
 -1       307-4.89438E+06-8.61556E+05-2.41255E+05-1.79974E+06-2.28010E-09 2.34286E-09
 -1       308-4.82688E+06-6.41523E+05-8.36267E+04-1.79340E+06 7.83075E-10 3.61251E-09
 -1       309-4.77561E+06-7.60975E+05-5.02963E+04-1.87204E+06 5.81139E-10 7.59246E-09
 -1       310-4.85128E+06-6.43854E+05-1.94757E+04-1.77261E+06-9.97375E-10-1.38516E-09
 -1       311-4.75107E+06-7.54175E+05-1.13019E+04-1.89227E+06 1.00522E-08 1.75407E-09
 -1       312-4.85180E+06-6.47632E+05-5.60174E+03-1.77363E+06 1.81126E-09 2.47837E-10
 -1       313-4.76530E+06-7.33668E+05-4.61478E+03-1.87086E+06-3.66390E-09 1.52545E-09
 -1       314-4.83632E+06-6.64826E+05-6.58181E+03-1.79350E+06-4.44197E-09 4.75211E-10
 -1       315-4.80639E+06-6.95072E+05-1.21105E+04-1.82137E+06 9.79753E-10 3.59250E-09
 -1       316-4.80992E+06-6.86844E+05-2.29582E+04-1.82250E+06-1.03864E-09-3.94175E-09
 -1       317-4.86849E+06-6.72319E+05-5.76275E+04-1.76510E+06 3.13651E-09-1.33286E-08
 -1       318-4.77483E+06-6.87632E+05-9.58960E+04-1.85002E+06-1.23591E-08 5.65342E-09
 -1       319-4.99582E+06-8.03627E+05-2.78362E+05-1.70330E+06-4.40832E-09-1.51340E-09
 -1       320-4.68445E+06-5.57224E+05-4.07525E+05-1.88436E+06 1.10522E-08-1.40717E-08
 -1       336 5.42635E+02-9.38709E+05-5.20450E+03 1.55437E+03-8.57926E-09 8.99490E-09
 -1       337-1.91483E+03-9.39824E+05-5.76517E+03-3.88478E+03-1.63229E-08 2.24009E-09
 -1       338 3.66485E+02-9.38829E+05-7.50238E+03 2.31939E+03-1.15128E-08-2.91220E-09
 -1       339-7.77591E+03-9.43521E+05-1.64306E+04-5.38815E+03-2.12895E-08 7.20411E-09
 -1       340 5.19484E+03-9.35158E+05-2.54365E+04 3.04576E+03-1.39125E-08 1.87119E-08
 -1       406 1.57760E+01 2.63710E+05 4.40200E+02-7.94229E-02 4.22631E-10 1.29835E-08
 -1       407 1.52166E+02 2.63791E+05 9.35484E+02-6.31635E+00 2.67448E-11-6.76300E-09
 -1       408 4.80279E+02 2.63642E+05 1.86840E+03 6.53228E+00 4.71232E-10-4.49609E-09
 -1       409 2.01895E+03 2.64387E+05 4.20621E+03-6.35155E+01-2.59206E-11 3.69255E-10
 -1       410 5.80311E+03 2.63111E+05 8.58684E+03 5.95248E+01 5.18412E-10-2.97496E-09
 -1       521-7.80688E+06-7.59215E+05-6.69757E+05-2.62800E+06-5.16229E-09-3.14321E-09
 -1       522-6.37436E+06-1.92369E+06-2.82346E+05-3.59911E+06-6.61239E-08-2.69138E-08
 -1       523-7.96624E+06-5.11944E+05-1.43418E+05-2.10554E+06-3.76895E-09-3.55212E-08
 -1       524-6.39327E+06-2.03076E+06-5.58849E+04-4.27756E+06 6.14345E-08-6.63595E-08
 -1       525-7.97566E+06-5.10600E+05-3.48509E+04-2.07080E+06 5.67052E-08-2.27164E-08
 -1       526-6.25173E+06-1.76284E+06 5.74049E+04-3.75831E+06 4.92109E-08 6.36646E-09
 -1       527-7.94843E+06-8.95422E+05-1.11520E+05-2.52491E+06-1.16706E-08 7.77800E-09
 -1       528-6.54519E+06-1.01084E+06 1.34073E+05-2.59292E+06-1.17070E-08 9.29867E-09
 -1       529-7.50103E+06-1.39032E+06-1.24664E+05-3.09165E+06 9.24047E-09 4.64206E-09
 -1       530-7.79001E+06-1.14035E+05 7.40280E+04-1.80408E+06-6.30098E-08 3.05299E-08
 -1       531-6.85344E+06-1.68286E+06-4.80362E+04-3.40882E+06-8.63292E-08 3.33239E-09
 -1       532-8.72633E+06 3.09082E+05-5.30601E+04-1.60952E+06 9.09204E-08-6.60675E-08
 -1       533-6.74491E+06-1.68938E+06-1.27337E+05-3.44346E+06 4.33574E-08-1.09823E-07
 -1       534-8.23199E+06-1.65769E+05-2.88636E+05-1.68081E+06-2.65027E-08 7.76108E-08
 -1       535-7.22807E+06-1.29501E+06-6.40640E+05-3.22784E+06-1.12341E-08 5.08444E-08
 -1       536-3.20603E+05-1.37514E+04 3.09336E+04-6.41826E+03 3.82926E-10 7.09042E-09
 -1       537-3.04204E+05 1.58972E+04 2.24157E+04 1.29914E+04-2.26872E-08 4.85602E-09
 -1       538-3.13890E+05-2.05890E+03 8.08552E+03-7.31506E+03 2.26881E-09 1.27616E-08
 -1       539-3.08446E+05 2.54363E+03 5.68698E+03 1.15811E+04 2.35304E-08 1.36442E-08
 -1       540-3.16313E+05-4.46222E+02 1.36134E+03-5.00720E+03 2.82824E-09 5.05167E-09
 -1       541-3.03340E+05 6.74767E+02 2.97444E+03 4.76473E+03-3.70309E-09-4.27059E-09
 -1       542-3.18840E+05-3.20267E+02-8.37485E+02-4.97707E+02 5.09641E-09 2.04466E-09
 -1       543-3.03113E+05 2.91409E+02 1.89828E+03-4.37682E+03 6.29939E-10-6.14678E-09
 -1       544-3.16532E+05-7.44572E+01-1.21356E+03 4.13291E+03-4.88990E-09-9.37925E-09
 -1       545-3.09288E+05-3.86245E+02-5.76160E+02-1.16165E+04-9.14849E-09-1.17172E-08
 -1       546-3.12817E+05 4.82339E+02-2.36545E+03 6.74222E+03 2.04204E-09-1.37023E-08
 -1       547-3.13156E+05-2.84895E+03-5.65166E+03-1.36739E+04-1.13144E-08-1.28949E-08
 -1       548-3.12733E+05 2.44560E+03-9.54984E+03 6.19110E+03-1.42039E-08-1.43009E-08
 -1       549-3.15143E+05-1.75526E+04-2.42569E+04-9.60090E+03-9.04929E-09-1.06920E-08
 -1       550-3.10708E+05 1.50707E+04-3.71990E+04 2.66802E+03 4.10012E-10-7.58519E-10
 -1       551 1.22633E+04-4.85935E+05 2.25452E+04-8.13232E+05-3.83225E-08 2.35741E-09
 -1       552 2.77236E+04-4.92654E+05 2.97454E+04-1.15789E+06-2.89874E-08 1.07320E-08
 -1       553 1.94339E+04-4.98364E+05 4.49483E+04-8.10296E+05-4.82760E-08 1.34169E-08
 -1       554 5.21605E+04-4.84440E+05 9.49113E+04-1.15915E+06-3.00424E-08 7.94353E-09
 -1       555 4.70543E+04-5.16710E+05 1.69540E+05-8.11113E+05-4.71555E-08-5.11500E-09
 -1       556 8.23119E+04-1.55763E+05 5.28970E+04-1.99991E+05-1.05720E-08-1.78479E-08
 -1       557 1.45735E+05-2.07676E+05 2.78959E+04-2.51232E+05 3.25963E-09 1.21881E-08
 -1       558 8.14750E+04-1.62475E+05 1.11113E+04-1.94258E+05-5.29690E-09 7.58155E-09
 -1       559 1.36303E+05-2.14664E+05 5.69418E+03-2.55609E+05 3.08501E-09-1.11540E-08
 -1       560 7.90633E+04-1.60895E+05 2.25774E+03-1.95824E+05 1.42609E-09 1.13323E-08
 -1       561 1.32722E+05-2.13635E+05 1.24011E+03-2.57888E+05-9.64064E-10 1.73877E-08
 -1       562 7.71376E+04-1.59625E+05 4.25145E+02-1.97209E+05-2.48110E-09 7.09952E-09
 -1       563 1.30461E+05-2.12659E+05 3.02660E+02-2.59334E+05-2.16096E-09-1.62253E-08
 -1       564 7.59093E+04-1.58839E+05 9.84253E+01-1.98080E+05 3.92538E-09 1.58980E-09
 -1       565 1.29231E+05-2.12129E+05 8.89367E+01-2.60109E+05 2.31739E-09 9.96033E-09
 -1       566 7.54151E+04-1.58517E+05 8.14469E+00-1.98432E+05 4.60022E-09 4.96584E-09
 -1       567 1.28991E+05-2.12014E+05-6.32168E+01-2.60191E+05 6.69763E-09-5.34783E-10
 -1       568 7.56903E+04-1.58699E+05-2.62359E+02-1.98309E+05-2.24827E-09-4.53838E-09
 -1       569 1.29057E+05-2.11876E+05-6.19746E+02-2.58944E+05 5.92991E-09 7.76708E-10
 -1       570 7.73017E+04-1.60068E+05-1.41617E+03-1.98216E+05 7.82893E-09 6.18820E-09
 -1       571 1.92849E+05 7.09196E+03 1.04922E+04-4.97355E+04 2.07001E-09 2.45245E-09
 -1       572 1.94408E+05 2.47621E+03 5.14060E+03-5.45258E+04 1.41017E-09-1.02609E-08
 -1       573 1.93473E+05 5.99964E+02 2.28370E+03-4.96098E+04-4.54747E-12-5.24369E-09
 -1       574 1.93656E+05 2.06155E+02 1.14427E+03-5.46672E+04 1.24055E-09 1.86901E-09
 -1       575 1.93542E+05 4.03081E+01 5.39366E+02-4.95932E+04-3.04681E-10-1.84718E-09
 -1       576 1.93553E+05 2.29871E+01 2.74710E+02-5.46860E+04-3.60387E-10-1.67270E-08
 -1       577 1.93553E+05 9.87603E+00 1.35543E+02-4.95910E+04 1.14937E-09-3.19369E-09
 -1       578 1.93545E+05 1.27638E+01 7.44037E+01-5.46883E+04-2.81398E-09-1.52932E-09
 -1       579 1.93567E+05 6.38292E+00 4.62677E+01-4.95909E+04-4.68117E-09 2.54295E-09
 -1       580 1.93564E+05 4.89101E+00 4.46233E+01-5.46854E+04-4.81668E-09-2.68847E-09
 -1       581 1.93591E+05-3.03263E+00 6.17937E+01-4.95939E+04 1.09321E-09 9.70886E-10
 -1       582 1.93607E+05 6.10406E+00 1.19041E+02-5.46555E+04 2.20462E-09 2.53613E-09
 -1       583 1.93620E+05 3.27602E+01 2.28576E+02-4.96208E+04 2.29193E-09 3.60569E-09
 -1       584 1.93728E+05 2.11003E+02 5.13169E+02-5.44303E+04-1.25146E-09-9.80003E-09
 -1       585 1.93599E+05 6.61557E+02 1.04179E+03-4.98195E+04-2.55568E-10-4.11274E-09
 -1       586-2.23266E+03 6.39422E+04-2.88946E+03-1.70889E+05 1.00499E-10 3.17505E-09
 -1       587-4.65245E+02 6.35629E+04-1.92948E+02-1.88063E+05 4.83851E-10 2.99053E-09
 -1       588 6.77441E+02 6.36199E+04 2.37102E+03-1.70791E+05 1.89175E-10-1.72986E-09
 -1       589 3.38607E+03 6.49046E+04 6.72675E+03-1.87894E+05 1.10958E-10 5.64341E-10
 -1       590 9.76571E+03 6.28420E+04 1.43383E+04-1.71062E+05 1.01863E-10-1.28694E-09
 -1       591-4.21378E+04-1.17463E+04-1.38739E+04-2.14504E+04 1.27216E-10-8.20364E-09
 -1       592-4.35539E+04-1.50369E+04-7.51474E+03-2.49360E+04-1.58036E-09-4.12558E-09
 -1       593-4.35391E+04-1.07257E+04-3.12843E+03-2.24541E+04-2.23724E-09-9.78071E-09
 -1       594-4.16225E+04-1.30184E+04-1.56029E+03-2.50301E+04 1.49498E-09-4.42299E-10
 -1       595-4.36465E+04-1.07210E+04-7.17008E+02-2.25002E+04-9.24103E-10 2.23449E-09
 -1       596-4.14917E+04-1.29260E+04-3.65437E+02-2.50163E+04 3.89946E-11 4.37947E-09
 -1       597-4.36601E+04-1.07300E+04-2.01043E+02-2.25020E+04-9.74509E-11-1.74202E-09
 -1       598-4.14792E+04-1.29224E+04-1.65378E+02-2.50125E+04 1.27102E-10 1.35515E-09
 -1       599-4.36590E+04-1.07301E+04-2.15956E+02-2.25017E+04 3.29123E-10-1.80751E-09
 -1       600-4.14930E+04-1.29272E+04-4.04942E+02-2.50158E+04 1.74214E-09-6.10703E-09
 -1       601-4.36419E+04-1.07205E+04-8.00843E+02-2.24989E+04-3.40606E-10-4.97357E-09
 -1       602-4.16391E+04-1.30305E+04-1.74638E+03-2.50292E+04-2.30102E-10-2.90970E-09
 -1       603-4.35202E+04-1.07275E+04-3.50280E+03-2.24475E+04-2.58592E-09-3.25076E-09
 -1       604-4.38091E+04-1.52821E+04-8.41422E+03-2.49127E+04 9.97261E-10 3.84534E-09
 -1       605-4.19414E+04-1.18777E+04-1.55344E+04-2.13318E+04 8.71523E-10 2.35650E-09
 -1       606 2.65313E+04-9.28567E+03-1.67125E+04 2.58193E+04-2.24463E-09-3.83443E-09
 -1       607 2.36694E+04-2.99888E+03-8.32183E+03 2.89847E+04 1.86810E-09 4.84306E-11
 -1       608 2.52921E+04-5.09105E+02-3.72676E+03 2.56142E+04 4.49836E-09 8.57540E-09
 -1       609 2.49689E+04-1.35250E+02-1.88224E+03 2.92119E+04-9.24047E-10 6.45946E-09
 -1       610 2.51411E+04 2.07992E+01-8.99159E+02 2.55912E+04 4.88399E-09 2.48406E-09
 -1       611 2.50799E+04 3.32500E+01-4.53448E+02 2.92367E+04 1.19935E-08 2.20734E-09
 -1       612 2.51002E+04 3.61663E+01-2.16959E+02 2.55890E+04 4.33556E-09-3.68414E-09
 -1       613 2.50768E+04 4.19015E+01-9.87019E+01 2.92397E+04-6.92080E-09-8.69977E-09
 -1       614 2.50776E+04 3.72970E+01-2.72157E+01 2.55882E+04 9.28048E-09 1.52795E-09
 -1       615 2.50648E+04 4.75484E+01 3.17775E+01 2.92401E+04 2.61684E-08 6.12886E-09
 -1       616 2.50604E+04 4.31548E+01 1.04083E+02 2.55884E+04 8.67931E-09 8.07972E-09
 -1       617 2.50708E+04 7.37912E+01 2.41062E+02 2.92396E+04-1.97997E-09 4.75188E-09
 -1       618 2.50346E+04 1.15766E+02 4.87126E+02 2.55886E+04 6.60748E-10-6.05678E-09
 -1       619 2.52389E+04 4.53037E+02 1.09478E+03 2.92389E+04 1.42245E-09 1.60617E-09
 -1       620 2.48703E+04 1.27342E+03 2.20065E+03 2.55875E+04 2.27340E-09 3.60160E-09
 -1       621 3.06808E+02 2.06836E+05 2.70339E+03 8.73276E+03-2.18279E-10-5.52973E-10
 -1       622 3.55388E+02 2.07505E+05 2.34392E+03 1.27383E+04-1.53932E-10-6.92228E-09
 -1       623 1.53546E+01 2.07021E+05 2.75985E+03 8.69167E+03-1.31152E-10-9.65224E-09
 -1       624 1.26614E+03 2.08338E+05 5.29688E+03 1.27789E+04-2.24389E-10-5.69116E-09
 -1       625 1.27234E+03 2.05995E+05 9.23483E+03 8.69225E+03-1.48702E-10-2.76555E-09
 -1       626 1.73328E+05 4.74131E+04 3.51172E+03 9.28514E+04-1.47202E-09-1.49303E-08
 -1       627 1.71039E+05 4.90683E+04 1.69221E+03 9.65640E+04-2.99224E-09-8.30380E-09
 -1       628 1.73453E+05 4.57592E+04 7.14734E+02 9.33889E+04-6.23368E-09-2.65914E-09
 -1       629 1.70539E+05 4.86609E+04 3.50293E+02 9.67847E+04 1.46565E-09 8.59086E-09
 -1       630 1.73460E+05 4.56815E+04 1.61909E+02 9.34034E+04 6.88033E-09 1.21640E-08
 -1       631 1.70478E+05 4.86515E+04 8.70101E+01 9.67856E+04-9.35415E-10-9.68696E-09
 -1       632 1.73450E+05 4.56880E+04 5.71608E+01 9.33955E+04-2.05637E-09 4.74836E-09
 -1       633 1.70465E+05 4.86567E+04 6.35427E+01 9.67785E+04-1.52045E-09-4.57800E-09
 -1       634 1.73441E+05 4.56890E+04 1.02517E+02 9.33910E+04 5.82531E-10-1.24351E-08
 -1       635 1.70469E+05 4.86584E+04 2.07660E+02 9.67779E+04 7.18273E-10 1.75933E-08
 -1       636 1.73429E+05 4.56882E+04 4.19303E+02 9.33879E+04-6.63954E-09 8.38668E-09
 -1       637 1.70554E+05 4.87251E+04 9.21518E+02 9.67738E+04-2.53976E-10 5.29326E-09
 -1       638 1.73394E+05 4.58935E+04 1.89380E+03 9.32934E+04 2.26976E-09-5.55247E-09
 -1       639 1.71546E+05 5.01099E+04 4.48017E+03 9.64794E+04-1.91301E-09 8.97671E-10
 -1       640 1.73261E+05 5.00177E+04 9.29741E+03 9.15430E+04 2.03431E-09 9.02492E-09
 -1       656 4.66646E+04-1.18218E+06-1.12649E+05-3.83965E+02 1.38243E-10-7.17171E-09
 -1       657-6.16701E+04-1.23303E+06-9.31768E+04 7.35644E+03-1.89175E-10-7.14019E-09
 -1       658 1.48051E+04-1.19668E+06-5.71990E+04-1.54762E+03 8.64702E-10 3.24219E-09
 -1       659-6.61804E+04-1.23517E+06-9.91008E+04 8.14714E+03 4.51109E-10-7.22111E-09
 -1       660 5.11641E+04-1.18005E+06-1.22838E+05-1.17464E+03-6.47560E-10-9.44588E-09
 -1       661 1.61988E+05 1.76043E+04 1.56386E+04 6.33219E+04 2.74576E-09-3.91174E-09
 -1       662 1.70195E+05 2.98088E+04 1.05379E+04 6.05331E+04 3.65105E-10-4.80634E-09
 -1       663 1.65054E+05 2.26259E+04 3.68620E+03 6.24363E+04-1.73543E-09-3.41493E-09
 -1       664 1.66647E+05 2.39312E+04 2.20397E+03 6.16102E+04 1.33468E-10-2.48588E-09
 -1       665 1.65514E+05 2.33168E+04 8.69398E+02 6.23071E+04-6.36686E-09-4.45328E-09
 -1       666 1.66107E+05 2.31370E+04 5.07132E+02 6.17760E+04-1.25034E-08 4.53720E-09
 -1       667 1.65591E+05 2.33993E+04 2.67518E+02 6.22783E+04-4.02292E-09-1.71041E-09
 -1       668 1.66024E+05 2.30723E+04 2.68341E+02 6.18175E+04 1.49373E-09-1.05843E-08
 -1       669 1.65596E+05 2.33796E+04 3.59816E+02 6.22663E+04 3.79364E-09-3.43523E-09
 -1       670 1.66115E+05 2.32629E+04 7.80252E+02 6.18170E+04 4.01707E-09 1.76388E-09
 -1       671 1.65501E+05 2.32125E+04 1.38431E+03 6.22772E+04-9.92991E-10 6.78369E-10
 -1       672 1.66922E+05 2.46087E+04 3.54087E+03 6.16213E+04-3.13209E-09 7.07678E-09
 -1       673 1.64793E+05 2.20676E+04 5.93360E+03 6.24491E+04-1.97554E-09-6.30257E-09
 -1       674 1.72572E+05 3.41392E+04 1.69688E+04 5.99595E+04-1.34492E-09-4.95675E-09
 -1       675 1.59887E+05 1.39485E+04 2.51871E+04 6.38385E+04 1.04956E-09-8.34007E-10
 -1       676 1.88060E+01-2.24936E+05-8.73205E+02 3.39171E+01 1.74134E-09 4.21475E-09
 -1       677-2.31797E+02-2.25147E+05-1.59807E+03-6.77998E+01-1.76607E-09 2.95525E-09
 -1       678 1.54797E+02-2.24785E+05-2.82496E+03 3.38594E+01-6.35055E-10 1.39463E-08
 -1       679-2.82558E+03-2.26852E+05-6.71069E+03-6.75764E+01-3.94937E-09 7.58906E-09
 -1       680 1.68633E+03-2.23231E+05-1.08154E+04 3.33067E+01-8.74479E-10 4.33612E-09
 -1       771-2.40607E+06-4.43712E+05-6.32048E+04-1.02264E+06-1.17579E-08-1.06375E-08
 -1       772-2.38409E+06-4.81124E+05-3.36428E+04-1.06471E+06-7.77800E-09 3.52156E-09
 -1       773-2.41569E+06-4.36160E+05-1.50234E+04-1.02620E+06-4.90400E-09 4.11455E-09
 -1       774-2.37568E+06-4.74130E+05-7.17582E+03-1.07019E+06 8.72387E-09-1.08776E-09
 -1       775-2.41868E+06-4.34106E+05-3.98585E+03-1.02672E+06-3.68163E-09 1.49885E-09
 -1       776-2.37620E+06-4.74178E+05-1.73805E+03-1.07355E+06-1.42609E-09 6.16456E-09
 -1       777-2.42096E+06-4.32429E+05-1.30815E+03-1.02712E+06-2.51021E-09 2.83035E-09
 -1       778-2.37721E+06-4.74395E+05-4.95744E+02-1.07638E+06 6.83940E-10 4.96948E-09
 -1       779-2.42282E+06-4.31003E+05-5.90255E+02-1.02746E+06-7.58882E-09-1.75714E-09
 -1       780-2.37815E+06-4.74559E+05-2.92619E+02-1.07867E+06-5.98084E-09 7.09497E-09
 -1       781-2.42425E+06-4.29870E+05-5.39439E+02-1.02773E+06-1.39116E-08 3.37423E-10
 -1       782-2.37894E+06-4.74699E+05-7.56080E+02-1.08035E+06-1.56506E-08-2.84535E-09
 -1       783-2.42518E+06-4.29112E+05-1.52847E+03-1.02791E+06 4.43833E-10-7.96263E-10
 -1       784-2.38029E+06-4.75699E+05-3.52031E+03-1.08133E+06-7.63976E-09 1.53932E-10
 -1       785-2.42503E+06-4.29197E+05-6.53061E+03-1.02754E+06-1.41408E-08 2.17551E-09
 -1       786 1.66066E+05-9.23331E+03 2.13615E+04-3.87764E+01 5.75565E-06 2.18979E-08
 -1       787 1.75323E+05 1.06893E+04 1.51127E+04 8.84516E+00 1.14669E-05 2.48135E-08
 -1       788 1.69637E+05-1.44742E+03 5.52872E+03-2.80807E+01 1.05984E-05-6.47128E-09
 -1       789 1.71163E+05 1.67473E+03 3.47348E+03-9.39828E+00 9.70507E-06 2.56412E-08
 -1       790 1.70227E+05-2.26082E+02 1.41277E+03-2.05342E+01 9.14383E-06-2.55075E-08
 -1       791 1.70475E+05 2.62505E+02 8.28341E+02-2.40655E+01 8.57520E-06 1.95251E-08
 -1       792 1.70326E+05-3.62608E+01 3.75804E+02-1.34135E+01 4.29144E-06-4.83429E-09
 -1       793 1.70363E+05 4.98321E+01 2.41681E+02-3.99613E+01 1.32966E-08-6.64327E-09
 -1       794 1.70339E+05-1.35476E+01 1.72023E+02-4.63813E+00 1.04468E-09-1.03652E-09
 -1       795 1.70370E+05 6.72286E+01 2.38710E+02-6.16312E+01-9.91319E-10 3.31282E-09
 -1       796 1.70319E+05-5.36412E+01 3.51442E+02 8.25693E+00 8.73969E-10 4.94845E-09
 -1       797 1.70528E+05 3.92617E+02 8.23598E+02-9.51525E+01-2.42882E-10-4.35142E-09
 -1       798 1.70181E+05-3.38698E+02 1.29835E+03 2.88837E+01 2.47367E-11 4.88126E-09
 -1       799 1.71502E+05 2.50075E+03 3.53815E+03-1.50143E+02-4.47139E-10 9.94783E-09
 -1       800 1.69345E+05-2.16008E+03 4.99734E+03 6.32478E+01-1.79320E-10 1.17482E-08
 -1       801 1.99302E+04-9.14348E+05-7.64084E+04 2.48019E+04 1.22127E-08-2.86491E-09
 -1       802-1.52213E+04-7.92403E+05-7.61527E+03-7.16554E+04 3.33566E-08-6.53995E-09
 -1       803-4.22277E+03-8.54337E+05 2.67383E+04 4.65248E+04 2.64081E-08 1.77263E-08
 -1       804 8.73980E+04-7.32638E+05 1.27609E+05-6.62876E+04 2.99697E-08 2.72896E-08
 -1       805-8.30037E+04-9.73590E+05 1.49205E+05 1.94284E+04 1.08339E-08 2.06187E-08
 -1       806-2.10325E+05-4.37598E+04-1.73161E+04-8.62277E+04 4.64979E-09-4.79758E-09
 -1       807-2.11467E+05-4.11568E+04-8.50709E+03-9.06777E+04 9.53241E-09-4.15042E-09
 -1       808-2.10809E+05-3.75113E+04-3.60872E+03-8.91722E+04 4.03770E-09 8.74036E-09
 -1       809-2.09659E+05-3.87865E+04-1.76429E+03-9.09125E+04-1.30785E-09 1.98589E-08
 -1       810-2.10884E+05-3.72917E+04-8.07963E+02-8.93022E+04 9.37462E-10 2.56296E-09
 -1       811-2.09520E+05-3.86924E+04-4.00885E+02-9.08901E+04 3.42334E-09 7.10384E-09
 -1       812-2.10897E+05-3.73087E+04-2.00499E+02-8.93018E+04 2.66027E-09 4.18322E-09
 -1       813-2.09502E+05-3.86947E+04-1.27073E+02-9.08784E+04 2.44768E-09-2.07285E-09
 -1       814-2.10894E+05-3.73151E+04-1.20271E+02-8.92989E+04 1.09276E-09-7.25618E-09
 -1       815-2.09504E+05-3.86967E+04-1.89134E+02-9.08747E+04-4.89308E-10-1.96906E-09
 -1       816-2.10881E+05-3.73140E+04-3.55060E+02-8.92964E+04-1.43109E-09 8.32233E-09
 -1       817-2.09565E+05-3.87307E+04-7.61281E+02-9.08678E+04-1.99634E-09-3.11206E-09
 -1       818-2.10836E+05-3.74210E+04-1.55172E+03-8.92457E+04-1.45519E-11 2.01180E-09
 -1       819-2.10419E+05-3.96634E+04-3.65177E+03-9.06617E+04 1.59389E-09 7.24663E-09
 -1       820-2.10542E+05-4.01806E+04-7.43216E+03-8.80670E+04 3.30510E-09 5.64557E-09
 -1       821-2.69730E+05 1.49242E+04-3.45145E+04 1.52384E+02 1.76803E-10 9.54969E-09
 -1       822-2.84686E+05-1.72773E+04-2.44241E+04-7.53543E+02-1.37370E-09-6.37192E-09
 -1       823-2.75502E+05 2.33986E+03-8.93928E+03 1.33509E+02 6.96899E-10-4.27917E-10
 -1       824-2.77953E+05-2.70818E+03-5.62421E+03-5.96630E+02-7.04283E-10 2.01817E-09
 -1       825-2.76461E+05 3.66122E+02-2.31252E+03-4.53278E+00-2.07313E-09 4.64820E-09
 -1       826-2.76835E+05-4.31706E+02-1.39434E+03-2.59101E+02-4.97492E-09 7.23617E-10
 -1       827-2.76619E+05 6.48059E+01-7.23892E+02-2.04026E+02-3.28400E-09-1.91193E-09
 -1       828-2.76685E+05-1.31748E+02-6.38260E+02 1.20390E+02-5.33316E-09 7.06248E-09
 -1       829-2.76611E+05 6.64458E+01-7.35532E+02-3.84031E+02-2.04855E-10 4.61807E-09
 -1       830-2.76860E+05-4.44081E+02-1.43546E+03 3.87799E+02 1.55291E-09 3.91589E-09
 -1       831-2.76444E+05 3.77201E+02-2.37814E+03-4.71440E+02-2.53319E-09 6.27301E-09
 -1       832-2.78004E+05-2.78914E+03-5.79518E+03 4.35119E+02-1.55026E-09 6.32645E-09
 -1       833-2.75468E+05 2.40988E+03-9.20945E+03-4.31350E+02-2.04034E-09 2.66618E-09
 -1       834-2.84919E+05-1.77980E+04-2.51602E+04 2.44765E+02-3.76257E-10-2.53340E-09
 -1       835-2.69531E+05 1.53743E+04-3.55609E+04-2.81075E+02 5.98892E-09 1.10322E-08
 -1       836-8.99961E+02 2.53855E+05 1.53316E+04-2.08487E+04 1.31604E-09 7.65158E-09
 -1       837 3.36967E+03 2.58605E+05 1.30914E+04-4.18778E+04 1.92972E-09-3.25542E-09
 -1       838-3.31917E+02 2.55174E+05 1.35020E+04-2.07770E+04 1.80989E-09-2.52771E-09
 -1       839 8.66303E+03 2.62550E+05 2.57024E+04-4.19062E+04 2.39424E-09 5.48244E-09
 -1       840-2.60703E+03 2.49872E+05 4.10529E+04-2.08190E+04 1.66619E-09-1.92040E-09
 -1       856-7.94893E+04 7.06706E+03-1.86237E+04-4.14313E+02-2.60417E-09-7.98536E-10
 -1       857-8.71815E+04-8.28891E+03-1.28219E+04 4.29034E+03-2.04432E-09-9.84505E-09
 -1       858-8.25286E+04 9.90203E+02-4.83334E+03-4.33963E+02-2.25725E-09-1.02389E-08
 -1       859-8.36914E+04-1.15138E+03-2.91900E+03 4.32164E+03-6.47120E-10 2.56250E-09
 -1       860-8.29830E+04 1.37706E+02-1.22710E+03-4.45737E+02 1.35896E-09-2.22735E-09
 -1       861-8.31681E+04-1.52062E+02-6.82965E+02 4.33775E+03-5.49816E-09-5.33339E-09
 -1       862-8.30537E+04 1.82098E+01-2.99769E+02-4.50106E+02 6.00685E-09-4.94582E-09
 -1       863-8.30842E+04-1.07169E+01-1.45222E+02 4.33973E+03 9.07893E-09-4.86292E-09
 -1       864-8.30670E+04-5.25717E-01-3.95072E+01-4.47722E+02 4.93870E-09-1.01796E-09
 -1       865-8.30577E+04 2.48119E+01 4.43035E+01 4.32769E+03 6.81565E-09 7.88800E-09
 -1       866-8.30788E+04-1.77412E+01 1.30908E+02-4.38063E+02-1.65559E-09-6.50797E-09
 -1       867-8.29849E+04 1.48434E+02 3.49009E+02 4.30147E+03 8.51060E-10-1.03923E-08
 -1       868-8.31367E+04-1.23139E+02 5.86310E+02-4.21497E+02-1.65875E-09-2.48980E-09
 -1       869-8.25469E+04 1.02188E+03 1.57113E+03 4.25808E+03-3.48439E-09-2.86491E-11
 -1       870-8.35121E+04-8.69249E+02 2.27860E+03-3.94682E+02 1.54665E-09-9.64769E-09
 -1       871-3.97132E+03-8.61794E+03-1.29067E+04 8.48648E+04 1.90903E-09 7.05768E-09
 -1       872-1.72091E+03-1.15107E+04-5.26786E+03 1.10023E+05 1.65073E-09 4.77576E-09
 -1       873-3.53358E+01-1.01598E+04 7.34307E+02 8.46783E+04 1.13550E-09-4.63388E-10
 -1       874 1.97887E+03-8.29313E+03 7.28069E+03 1.10061E+05 4.24734E-09 2.28363E-09
 -1       875 4.67941E+03-1.18872E+04 1.61573E+04 8.48343E+04 2.05182E-09-4.02451E-10
 -1       876 2.10108E+05 3.61729E+04 1.12088E+04 8.52096E+04-3.35592E-09-8.25185E-09
 -1       877 2.10753E+05 3.86297E+04 5.98579E+03 8.85203E+04-7.79346E-09-1.00933E-08
 -1       878 2.11155E+05 3.49324E+04 2.50776E+03 8.61301E+04 6.74390E-10-2.28420E-09
 -1       879 2.09228E+05 3.71111E+04 1.24926E+03 8.85994E+04 2.82409E-09-4.63189E-09
 -1       880 2.11232E+05 3.49187E+04 5.81622E+02 8.61676E+04 4.17958E-09 2.03033E-09
 -1       881 2.09127E+05 3.70466E+04 3.09842E+02 8.85835E+04 3.70744E-09 5.03087E-09
 -1       882 2.11239E+05 3.49279E+04 1.96930E+02 8.61687E+04 7.07564E-09-3.58185E-09
 -1       883 2.09119E+05 3.70435E+04 2.09623E+02 8.85788E+04 1.93381E-10-4.41833E-09
 -1       884 2.11235E+05 3.49256E+04 3.31570E+02 8.61688E+04 1.88624E-09 3.40634E-09
 -1       885 2.09146E+05 3.70483E+04 6.65462E+02 8.85872E+04 2.13390E-10-6.96787E-10
 -1       886 2.11209E+05 3.49061E+04 1.34066E+03 8.61662E+04 3.07648E-09-1.84934E-09
 -1       887 2.09381E+05 3.72027E+04 2.92830E+03 8.86211E+04-3.64298E-09-4.41105E-10
 -1       888 2.11024E+05 3.49387E+04 5.90056E+03 8.60725E+04 1.94655E-09 3.46199E-09
 -1       889 2.12897E+05 4.08532E+04 1.40960E+04 8.85097E+04 1.10500E-10-1.34901E-09
 -1       890 2.08620E+05 3.77944E+04 2.64006E+04 8.38215E+04 5.08794E-09 2.45200E-09
 -1       891-1.30175E+02-1.19205E+05-1.41129E+03 2.24620E+04 1.39096E-09 1.59400E-09
 -1       892-2.26779E+02-1.19543E+05-1.53380E+03 3.39927E+04-7.22594E-10-1.04765E-08
 -1       893-3.66070E+01-1.19249E+05-2.19033E+03 2.24665E+04 2.46860E-09-8.03539E-10
 -1       894-1.19644E+03-1.20382E+05-4.54676E+03 3.38716E+04 3.65435E-09 2.54363E-09
 -1       895-9.35674E+02-1.18303E+05-8.01202E+03 2.25816E+04 1.94984E-09 9.87893E-09
 -1       956-2.64558E+05-3.79488E+03-9.55199E+03 1.76591E+04-2.51521E-09 2.04420E-09
 -1       957-2.66444E+05-1.28030E+03-4.90360E+03 2.12654E+04-1.50612E-09 2.00021E-09
 -1       958-2.65406E+05-1.02147E+02-2.20922E+03 1.75455E+04 1.17689E-09-8.25139E-10
 -1       959-2.65556E+05-1.75276E+01-1.12841E+03 2.13886E+04-2.63503E-09 1.08402E-08
 -1       960-2.65482E+05 3.19063E+01-5.50050E+02 1.75347E+04-1.05138E-09 3.27418E-10
 -1       961-2.65492E+05 3.02066E+01-2.91687E+02 2.14009E+04-3.32170E-09-1.51385E-09
 -1       962-2.65497E+05 2.81900E+01-1.66674E+02 1.75330E+04-2.06796E-09-4.74438E-09
 -1       963-2.65489E+05 3.15060E+01-1.33262E+02 2.14032E+04-4.51428E-09 4.16571E-09
 -1       964-2.65501E+05 3.01267E+01-1.61117E+02 1.75324E+04-2.79977E-09 5.35408E-09
 -1       965-2.65499E+05 3.44342E+01-2.77855E+02 2.14032E+04 2.21003E-09-4.38104E-09
 -1       966-2.65492E+05 3.76261E+01-5.21260E+02 1.75330E+04-3.08660E-10-3.81658E-09
 -1       967-2.65568E+05-6.64956E+00-1.06895E+03 2.13964E+04-1.28989E-09 3.82704E-09
 -1       968-2.65426E+05-8.54564E+01-2.09182E+03 1.75394E+04-1.41176E-09 7.59007E-09
 -1       969-2.66416E+05-1.19914E+03-4.64444E+03 2.13215E+04 7.08496E-10-1.26280E-09
 -1       970-2.64628E+05-3.58061E+03-9.04637E+03 1.76102E+04 1.86901E-09-2.34195E-09
 -1       971-2.50505E+05-1.31673E+03-7.32167E+03 1.21363E+04-4.53338E-09 3.56661E-09
 -1       972-2.52285E+05-9.43691E+02-3.98740E+03 1.69501E+04-9.11086E-10-1.29148E-10
 -1       973-2.51318E+05-8.37936E+00-1.78543E+03 1.20351E+04-2.87309E-09-1.50567E-09
 -1       974-2.51442E+05-8.22133E+00-9.24969E+02 1.70593E+04-1.90084E-10-1.93040E-09
 -1       975-2.51381E+05 2.57147E+01-4.61290E+02 1.20260E+04 2.85490E-09 1.75351E-09
 -1       976-2.51392E+05 2.99596E+01-2.64284E+02 1.70704E+04-2.84763E-09 9.98170E-10
 -1       977-2.51393E+05 2.54003E+01-1.88460E+02 1.20240E+04 2.23895E-09 1.03705E-09
 -1       978-2.51395E+05 3.41323E+01-2.15999E+02 1.70732E+04 8.31579E-09-4.30975E-09
 -1       979-2.51393E+05 3.11743E+01-3.43113E+02 1.20231E+04 4.40116E-09-9.97034E-11
 -1       980-2.51420E+05 3.62196E+01-6.60047E+02 1.70737E+04 2.65406E-09-7.06746E-09
 -1       981-2.51372E+05 4.76162E+01-1.27705E+03 1.20235E+04 4.61955E-09-2.03420E-09
 -1       982-2.51595E+05-5.79888E+01-2.63889E+03 1.70686E+04 1.92119E-09-3.75799E-09
 -1       983-2.51212E+05-3.39265E+01-5.12696E+03 1.20284E+04 3.45858E-09 3.50917E-09
 -1       984-2.54061E+05-2.73521E+03-1.14810E+04 1.70001E+04 1.78898E-09 4.83476E-09
 -1       985-2.48891E+05-3.78535E+03-2.10829E+04 1.20967E+04 3.93948E-09 7.61884E-09
 -3
    1PSTEP                        11           6           1          
  100CL  106 5.39062E-01         409                     0    6           1
 -4  DISP        4    1
 -5  D1          1    2    1    0
 -5  D2          1    2    2    0
 -5  D3          1    2    3    0
 -5  ALL         1    2    0    0    1ALL
 -1         1 1.83192E-04 0.00000E+00 0.00000E+00
 -1         2 1.62786E-04-7.63992E-31-3.30872E-24
 -1         3 1.63655E-04 2.95441E-27 1.32349E-23
 -1         5 1.07208E-04-4.81862E-27 0.00000E+00
 -1         8 1.57780E-04-8.70895E-07 0.00000E+00
 -1         9 1.51586E-04-6.48268E-07 0.00000E+00
 -1        10 1.50590E-04-2.19965E-06 0.00000E+00
 -1        12 1.06945E-04 5.92390E-07 0.00000E+00
 -1        15 1.27458E-04-9.68673E-07 0.00000E+00
 -1        16 1.32509E-04-8.50571E-07 0.00000E+00
 -1        17 1.09290E-04-4.69450E-06 0.00000E+00
 -1        18 1.04986E-04 4.79948E-06 0.00000E+00
 -1        19 1.06156E-04 1.18169E-06 0.00000E+00
 -1        20 1.06302E-04 1.31317E-05 0.00000E+00
 -1        21 1.05706E-04 2.38372E-05 0.00000E+00
 -1        24 2.23279E-05-6.57281E-06 0.00000E+00
 -1        25 1.04915E-04 4.93938E-06 0.00000E+00
 -1        26 1.05816E-04 1.64107E-06 0.00000E+00
 -1        27 1.04179E-04 1.04701E-05 0.00000E+00
 -1        28 1.03710E-04 2.33354E-05 0.00000E+00
 -1        32 0.00000E+00 0.00000E+00 0.00000E+00
 -1        33 1.04235E-04 2.19865E-06 0.00000E+00
 -1        34 1.02635E-04 1.04449E-05 0.00000E+00
 -1        35 1.01127E-04 2.30686E-05 0.00000E+00
 -1        51 1.81543E-04-1.44880E-07 0.00000E+00
 -1        52 1.78483E-04-2.83795E-07 0.00000E+00
 -1        53 1.74289E-04-4.23939E-07 0.00000E+00
 -1        54 1.69248E-04-5.67014E-07 0.00000E+00
 -1        55 1.63649E-04-7.13910E-07 1.86116E-24
 -1        56 1.81588E-04-8.49746E-07-2.64698E-23
 -1        57 1.80072E-04-2.11493E-06 2.64698E-23
 -1        58 1.78662E-04-3.65674E-06 0.00000E+00
 -1        59 1.77299E-04-5.35366E-06 2.64698E-23
 -1        60 1.75941E-04-7.06270E-06-5.29396E-23
 -1        61 1.74532E-04-8.64473E-06 0.00000E+00
 -1        62 1.73027E-04-9.97029E-06 0.00000E+00
 -1        63 1.71382E-04-1.09211E-05 0.00000E+00
 -1        64 1.69563E-04-1.14096E-05-5.29396E-23
 -1        65 1.67546E-04-1.13673E-05-2.64698E-23
 -1        66 1.65319E-04-1.07695E-05-5.29396E-23
 -1        67 1.62884E-04-9.61405E-06-2.64698E-23
 -1        68 1.60256E-04-7.94544E-06 0.00000E+00
 -1        69 1.57468E-04-5.82570E-06 2.64698E-23
 -1        70 1.54545E-04-3.36121E-06-2.64698E-23
 -1        86 1.62450E-04-1.01137E-07-3.30872E-24
 -1        87 1.61444E-04-2.03245E-07 0.00000E+00
 -1        88 1.59803E-04-3.06233E-07 6.61744E-24
 -1        89 1.57566E-04-4.13717E-07 0.00000E+00
 -1        90 1.54804E-04-5.21313E-07 0.00000E+00
 -1       121 1.63290E-04-3.63520E-07-1.32349E-23
 -1       122 1.62194E-04-7.27560E-07 0.00000E+00
 -1       123 1.60371E-04-1.09263E-06-1.32349E-23
 -1       124 1.57824E-04-1.45930E-06 0.00000E+00
 -1       125 1.54561E-04-1.82795E-06 0.00000E+00
 -1       191 1.07201E-04 9.87364E-08 0.00000E+00
 -1       192 1.07179E-04 1.97471E-07 0.00000E+00
 -1       193 1.07142E-04 2.96206E-07 3.30872E-24
 -1       194 1.07091E-04 3.94939E-07-1.65436E-24
 -1       195 1.07025E-04 4.93668E-07 0.00000E+00
 -1       251 1.57388E-04 3.85977E-06 1.32349E-23
 -1       252 1.56997E-04 7.91259E-06 6.61744E-24
 -1       253 1.56610E-04 1.09882E-05 0.00000E+00
 -1       254 1.56225E-04 1.28025E-05-6.61744E-24
 -1       255 1.55842E-04 1.33083E-05 1.32349E-23
 -1       256 1.55458E-04 1.24787E-05-6.61744E-24
 -1       257 1.55073E-04 1.05378E-05 1.32349E-23
 -1       258 1.54686E-04 7.72720E-06 0.00000E+00
 -1       259 1.54298E-04 4.45146E-06 0.00000E+00
 -1       260 1.53909E-04 1.12276E-06 0.00000E+00
 -1       261 1.53522E-04-1.83686E-06 1.32349E-23
 -1       262 1.53136E-04-4.01120E-06 0.00000E+00
 -1       263 1.52751E-04-5.13152E-06 1.32349E-23
 -1       264 1.52366E-04-4.94558E-06-6.61744E-24
 -1       265 1.51981E-04-3.44658E-06 0.00000E+00
 -1       266 1.52726E-04-8.99293E-07-6.61744E-24
 -1       267 1.47673E-04-9.14115E-07 0.00000E+00
 -1       268 1.42619E-04-9.29796E-07-1.65436E-24
 -1       269 1.37566E-04-9.42930E-07-4.13590E-25
 -1       270 1.32512E-04-9.56004E-07-4.13590E-25
 -1       271 1.54756E-04 3.09061E-06 0.00000E+00
 -1       272 1.52108E-04 5.93021E-06 1.32349E-23
 -1       273 1.49848E-04 7.74679E-06-5.29396E-23
 -1       274 1.47930E-04 8.63724E-06-2.64698E-23
 -1       275 1.46314E-04 8.72094E-06 0.00000E+00
 -1       276 1.44951E-04 8.12880E-06 0.00000E+00
 -1       277 1.43787E-04 7.00488E-06 0.00000E+00
 -1       278 1.42764E-04 5.50221E-06 0.00000E+00
 -1       279 1.41823E-04 3.78091E-06 0.00000E+00
 -1       280 1.40903E-04 2.00496E-06 0.00000E+00
 -1       281 1.39941E-04 3.39235E-07-5.29396E-23
 -1       282 1.38878E-04-1.05318E-06 0.00000E+00
 -1       283 1.37654E-04-2.01452E-06 0.00000E+00
 -1       284 1.36217E-04-2.39294E-06 1.32349E-23
 -1       285 1.34508E-04-2.05087E-06 0.00000E+00
 -1       301 1.48031E-04-6.96705E-07-6.61744E-24
 -1       302 1.44507E-04-7.22356E-07 3.30872E-24
 -1       303 1.41103E-04-7.46550E-07 0.00000E+00
 -1       304 1.37909E-04-7.70879E-07 0.00000E+00
 -1       305 1.35015E-04-7.96345E-07 0.00000E+00
 -1       306 1.49658E-04-2.23449E-06 0.00000E+00
 -1       307 1.50702E-04-1.20775E-05-2.64698E-23
 -1       308 1.54138E-04-2.85141E-05 5.29396E-23
 -1       309 1.59161E-04-4.94530E-05 0.00000E+00
 -1       310 1.64696E-04-7.18419E-05 0.00000E+00
 -1       311 1.69629E-04-9.25304E-05 0.00000E+00
 -1       312 1.72961E-04-1.08730E-04 0.00000E+00
 -1       313 1.73771E-04-1.17965E-04 0.00000E+00
 -1       314 1.71630E-04-1.19234E-04-5.29396E-23
 -1       315 1.66295E-04-1.12077E-04 0.00000E+00
 -1       316 1.58201E-04-9.77999E-05 0.00000E+00
 -1       317 1.48001E-04-7.81754E-05-2.64698E-23
 -1       318 1.36818E-04-5.60862E-05 0.00000E+00
 -1       319 1.25881E-04-3.45665E-05 0.00000E+00
 -1       320 1.16329E-04-1.65497E-05-5.29396E-23
 -1       336 1.45826E-04-2.60340E-06 0.00000E+00
 -1       337 1.40189E-04-3.01205E-06-6.61744E-24
 -1       338 1.33695E-04-3.42555E-06-1.32349E-23
 -1       339 1.26365E-04-3.84396E-06 0.00000E+00
 -1       340 1.18222E-04-4.26846E-06-6.61744E-24
 -1       406 1.06850E-04 6.91099E-07 0.00000E+00
 -1       407 1.06740E-04 7.89776E-07 0.00000E+00
 -1       408 1.06616E-04 8.88391E-07-3.30872E-24
 -1       409 1.06477E-04 9.86825E-07 1.65436E-24
 -1       410 1.06324E-04 1.08489E-06 3.30872E-24
 -1       521 1.36525E-04-2.12134E-05 0.00000E+00
 -1       522 1.54246E-04-8.31133E-05 0.00000E+00
 -1       523 1.81298E-04-1.76374E-04 1.05879E-22
 -1       524 2.13269E-04-2.87947E-04 5.29396E-23
 -1       525 2.45535E-04-4.00638E-04 1.05879E-22
 -1       526 2.73470E-04-4.97148E-04 0.00000E+00
 -1       527 2.92661E-04-5.63861E-04-1.05879E-22
 -1       528 2.98559E-04-5.89903E-04 5.29396E-23
 -1       529 2.88597E-04-5.73246E-04 0.00000E+00
 -1       530 2.61462E-04-5.15500E-04 5.29396E-23
 -1       531 2.20109E-04-4.26647E-04 1.05879E-22
 -1       532 1.69494E-04-3.18903E-04 0.00000E+00
 -1       533 1.17376E-04-2.08150E-04 0.00000E+00
 -1       534 7.17739E-05-1.10447E-04 0.00000E+00
 -1       535 3.86789E-05-3.93672E-05 0.00000E+00
 -1       536 1.09077E-04 7.99116E-06-6.61744E-24
 -1       537 1.08767E-04 2.73746E-05 0.00000E+00
 -1       538 1.08380E-04 5.06316E-05 0.00000E+00
 -1       539 1.07970E-04 7.49174E-05 0.00000E+00
 -1       540 1.07605E-04 9.71182E-05 0.00000E+00
 -1       541 1.07339E-04 1.14132E-04 0.00000E+00
 -1       542 1.07161E-04 1.24187E-04 0.00000E+00
 -1       543 1.07031E-04 1.25552E-04 1.65436E-24
 -1       544 1.06879E-04 1.18696E-04 0.00000E+00
 -1       545 1.06649E-04 1.04133E-04 0.00000E+00
 -1       546 1.06334E-04 8.43399E-05 3.30872E-24
 -1       547 1.05965E-04 6.18207E-05 0.00000E+00
 -1       548 1.05605E-04 3.97836E-05 0.00000E+00
 -1       549 1.05318E-04 2.14344E-05-1.65436E-24
 -1       550 1.05117E-04 9.03186E-06-1.65436E-24
 -1       551 9.77449E-05-4.96862E-06-6.61744E-24
 -1       552 8.40459E-05-5.26336E-06 1.65436E-24
 -1       553 6.89184E-05-5.57649E-06-4.96308E-24
 -1       554 5.30992E-05-5.90167E-06-6.61744E-24
 -1       555 3.73251E-05-6.22899E-06 2.64698E-23
 -1       556 1.06161E-04 3.39454E-06 0.00000E+00
 -1       557 1.03725E-04 9.70863E-06 0.00000E+00
 -1       558 1.01908E-04 1.44031E-05 0.00000E+00
 -1       559 1.00644E-04 1.76461E-05 0.00000E+00
 -1       560 9.98659E-05 1.96056E-05 0.00000E+00
 -1       561 9.95079E-05 2.04506E-05 0.00000E+00
 -1       562 9.95053E-05 2.03505E-05 0.00000E+00
 -1       563 9.97935E-05 1.94749E-05 0.00000E+00
 -1       564 1.00308E-04 1.79935E-05 0.00000E+00
 -1       565 1.00986E-04 1.60762E-05 0.00000E+00
 -1       566 1.01763E-04 1.38932E-05 1.65436E-24
 -1       567 1.02575E-04 1.16145E-05 5.16988E-26
 -1       568 1.03360E-04 9.41014E-06 0.00000E+00
 -1       569 1.04054E-04 7.45013E-06 0.00000E+00
 -1       570 1.04593E-04 5.90439E-06 0.00000E+00
 -1       571 1.05057E-04 4.59262E-06 1.65436E-24
 -1       572 1.05130E-04 4.33971E-06-2.06795E-25
 -1       573 1.05203E-04 4.04964E-06 0.00000E+00
 -1       574 1.05276E-04 3.73178E-06 0.00000E+00
 -1       575 1.05349E-04 3.39551E-06-1.65436E-24
 -1       576 1.05423E-04 3.05026E-06 8.27181E-25
 -1       577 1.05496E-04 2.70549E-06 0.00000E+00
 -1       578 1.05569E-04 2.37065E-06 0.00000E+00
 -1       579 1.05643E-04 2.05519E-06 3.30872E-24
 -1       580 1.05716E-04 1.76859E-06 0.00000E+00
 -1       581 1.05790E-04 1.52028E-06 0.00000E+00
 -1       582 1.05863E-04 1.31972E-06 0.00000E+00
 -1       583 1.05936E-04 1.17634E-06 0.00000E+00
 -1       584 1.06010E-04 1.09948E-06 0.00000E+00
 -1       585 1.06083E-04 1.09842E-06 0.00000E+00
 -1       586 1.04935E-04 4.82430E-06 0.00000E+00
 -1       587 1.04856E-04 4.84852E-06-1.03398E-25
 -1       588 1.04783E-04 4.87248E-06 8.27181E-25
 -1       589 1.04747E-04 4.89603E-06 0.00000E+00
 -1       590 1.04780E-04 4.91887E-06 0.00000E+00
 -1       591 1.05029E-04 4.63552E-06 0.00000E+00
 -1       592 1.05080E-04 4.43898E-06 0.00000E+00
 -1       593 1.05141E-04 4.21648E-06 0.00000E+00
 -1       594 1.05210E-04 3.97388E-06 0.00000E+00
 -1       595 1.05283E-04 3.71711E-06 0.00000E+00
 -1       596 1.05360E-04 3.45205E-06 0.00000E+00
 -1       597 1.05437E-04 3.18461E-06 0.00000E+00
 -1       598 1.05513E-04 2.92064E-06 4.13590E-25
 -1       599 1.05586E-04 2.66604E-06-8.27181E-25
 -1       600 1.05653E-04 2.42669E-06 0.00000E+00
 -1       601 1.05712E-04 2.20846E-06 4.13590E-25
 -1       602 1.05761E-04 2.01723E-06-1.03398E-25
 -1       603 1.05798E-04 1.85890E-06 0.00000E+00
 -1       604 1.05821E-04 1.73940E-06 5.16988E-26
 -1       605 1.05827E-04 1.66458E-06 0.00000E+00
 -1       606 1.06169E-04 1.42973E-06 0.00000E+00
 -1       607 1.06179E-04 1.77358E-06 1.65436E-24
 -1       608 1.06189E-04 2.20761E-06 0.00000E+00
 -1       609 1.06198E-04 2.72549E-06 1.65436E-24
 -1       610 1.06207E-04 3.32084E-06 0.00000E+00
 -1       611 1.06216E-04 3.98719E-06 1.65436E-24
 -1       612 1.06225E-04 4.71807E-06 0.00000E+00
 -1       613 1.06233E-04 5.50702E-06 0.00000E+00
 -1       614 1.06242E-04 6.34756E-06 0.00000E+00
 -1       615 1.06251E-04 7.23320E-06 0.00000E+00
 -1       616 1.06260E-04 8.15748E-06 0.00000E+00
 -1       617 1.06268E-04 9.11392E-06 0.00000E+00
 -1       618 1.06277E-04 1.00960E-05 8.27181E-25
 -1       619 1.06285E-04 1.10974E-05 0.00000E+00
 -1       620 1.06294E-04 1.21114E-05 0.00000E+00
 -1       621 1.06017E-04 1.25836E-06 0.00000E+00
 -1       622 1.05924E-04 1.33535E-06 8.27181E-25
 -1       623 1.05866E-04 1.41233E-06 1.65436E-24
 -1       624 1.05836E-04 1.48917E-06 0.00000E+00
 -1       625 1.05822E-04 1.56588E-06-1.65436E-24
 -1       626 1.06147E-04 1.45518E-06 0.00000E+00
 -1       627 1.06109E-04 1.80694E-06 0.00000E+00
 -1       628 1.06045E-04 2.22938E-06 3.30872E-24
 -1       629 1.05958E-04 2.71444E-06 0.00000E+00
 -1       630 1.05850E-04 3.25407E-06-3.30872E-24
 -1       631 1.05725E-04 3.84014E-06 1.65436E-24
 -1       632 1.05585E-04 4.46453E-06-3.30872E-24
 -1       633 1.05434E-04 5.11915E-06-4.96308E-24
 -1       634 1.05275E-04 5.79587E-06 3.30872E-24
 -1       635 1.05110E-04 6.48657E-06 0.00000E+00
 -1       636 1.04943E-04 7.18316E-06 0.00000E+00
 -1       637 1.04777E-04 7.87752E-06 8.27181E-25
 -1       638 1.04615E-04 8.56152E-06 3.30872E-24
 -1       639 1.04459E-04 9.22706E-06-8.27181E-25
 -1       640 1.04314E-04 9.86600E-06 1.65436E-24
 -1       656 1.05495E-04 1.26986E-05-6.61744E-24
 -1       657 1.05062E-04 1.22483E-05 0.00000E+00
 -1       658 1.04864E-04 1.17993E-05 0.00000E+00
 -1       659 1.04759E-04 1.13507E-05 0.00000E+00
 -1       660 1.04585E-04 1.09007E-05 6.61744E-24
 -1       661 1.06004E-04 1.41232E-05-8.27181E-25
 -1       662 1.05732E-04 1.50554E-05 0.00000E+00
 -1       663 1.05481E-04 1.59303E-05 0.00000E+00
 -1       664 1.05251E-04 1.67514E-05 0.00000E+00
 -1       665 1.05040E-04 1.75213E-05 1.65436E-24
 -1       666 1.04847E-04 1.82428E-05 0.00000E+00
 -1       667 1.04672E-04 1.89187E-05 0.00000E+00
 -1       668 1.04512E-04 1.95515E-05 8.27181E-25
 -1       669 1.04368E-04 2.01436E-05 1.65436E-24
 -1       670 1.04239E-04 2.06975E-05 8.27181E-25
 -1       671 1.04123E-04 2.12153E-05 0.00000E+00
 -1       672 1.04019E-04 2.16993E-05 0.00000E+00
 -1       673 1.03927E-04 2.21515E-05 0.00000E+00
 -1       674 1.03846E-04 2.25737E-05 0.00000E+00
 -1       675 1.03775E-04 2.29683E-05 4.13590E-25
 -1       676 1.05373E-04 2.37530E-05 0.00000E+00
 -1       677 1.05039E-04 2.36689E-05-1.65436E-24
 -1       678 1.04706E-04 2.35849E-05 0.00000E+00
 -1       679 1.04373E-04 2.35011E-05 0.00000E+00
 -1       680 1.04041E-04 2.34173E-05 0.00000E+00
 -1       771 1.66083E-05 5.23100E-06 0.00000E+00
 -1       772 1.16986E-05 1.49109E-05 0.00000E+00
 -1       773 7.56292E-06 2.25789E-05-5.29396E-23
 -1       774 4.14980E-06 2.83570E-05 0.00000E+00
 -1       775 1.40861E-06 3.23706E-05 5.29396E-23
 -1       776-7.13506E-07 3.47509E-05 0.00000E+00
 -1       777-2.26994E-06 3.56324E-05 0.00000E+00
 -1       778-3.31533E-06 3.51542E-05-2.64698E-23
 -1       779-3.90460E-06 3.34581E-05 0.00000E+00
 -1       780-4.09373E-06 3.06898E-05 0.00000E+00
 -1       781-3.93879E-06 2.69971E-05 0.00000E+00
 -1       782-3.49667E-06 2.25308E-05 0.00000E+00
 -1       783-2.82430E-06 1.74432E-05 0.00000E+00
 -1       784-1.97914E-06 1.18884E-05 1.32349E-23
 -1       785-1.01864E-06 6.02196E-06 0.00000E+00
 -1       786 1.04968E-04 4.59550E-06 4.13590E-25
 -1       787 1.05024E-04 4.27743E-06 0.00000E+00
 -1       788 1.05080E-04 3.98074E-06 0.00000E+00
 -1       789 1.05136E-04 3.70108E-06 0.00000E+00
 -1       790 1.05193E-04 3.43629E-06 0.00000E+00
 -1       791 1.05249E-04 3.18427E-06-8.27181E-25
 -1       792 1.05306E-04 2.94458E-06 0.00000E+00
 -1       793 1.05363E-04 2.71680E-06 8.27181E-25
 -1       794 1.05420E-04 2.50210E-06 0.00000E+00
 -1       795 1.05477E-04 2.30164E-06-8.27181E-25
 -1       796 1.05533E-04 2.11848E-06 0.00000E+00
 -1       797 1.05590E-04 1.95571E-06 0.00000E+00
 -1       798 1.05647E-04 1.81908E-06 1.65436E-24
 -1       799 1.05704E-04 1.71441E-06 0.00000E+00
 -1       800 1.05760E-04 1.65171E-06 1.65436E-24
 -1       801 9.76539E-05 4.30663E-06 0.00000E+00
 -1       802 7.51689E-05 3.43252E-06 6.61744E-24
 -1       803 4.61984E-05 2.40936E-06-1.32349E-23
 -1       804 1.96674E-05 1.44323E-06 1.32349E-23
 -1       805 2.15666E-06 6.58838E-07-2.64698E-23
 -1       806 1.04959E-04 4.54615E-06 1.65436E-24
 -1       807 1.04996E-04 4.16594E-06-8.27181E-25
 -1       808 1.05025E-04 3.80302E-06 0.00000E+00
 -1       809 1.05046E-04 3.46086E-06 8.27181E-25
 -1       810 1.05058E-04 3.14290E-06-1.65436E-24
 -1       811 1.05060E-04 2.85248E-06 8.27181E-25
 -1       812 1.05050E-04 2.59297E-06 0.00000E+00
 -1       813 1.05027E-04 2.36771E-06-8.27181E-25
 -1       814 1.04990E-04 2.18005E-06-3.30872E-24
 -1       815 1.04938E-04 2.03332E-06 1.65436E-24
 -1       816 1.04869E-04 1.93085E-06 1.65436E-24
 -1       817 1.04782E-04 1.87596E-06 0.00000E+00
 -1       818 1.04677E-04 1.87200E-06 0.00000E+00
 -1       819 1.04551E-04 1.92227E-06 0.00000E+00
 -1       820 1.04403E-04 2.03007E-06 1.65436E-24
 -1       821 1.05720E-04 1.62072E-06 0.00000E+00
 -1       822 1.05618E-04 1.53007E-06-8.27181E-25
 -1       823 1.05516E-04 1.43777E-06-3.30872E-24
 -1       824 1.05413E-04 1.41246E-06 0.00000E+00
 -1       825 1.05310E-04 1.50855E-06 0.00000E+00
 -1       826 1.05206E-04 1.77988E-06 0.00000E+00
 -1       827 1.05103E-04 2.24311E-06 0.00000E+00
 -1       828 1.04999E-04 2.91405E-06 0.00000E+00
 -1       829 1.04895E-04 3.76440E-06-3.30872E-24
 -1       830 1.04792E-04 4.76507E-06 1.65436E-24
 -1       831 1.04688E-04 5.85508E-06 0.00000E+00
 -1       832 1.04584E-04 6.97302E-06 0.00000E+00
 -1       833 1.04480E-04 8.05155E-06 3.30872E-24
 -1       834 1.04378E-04 9.02354E-06-8.27181E-25
 -1       835 1.04275E-04 9.84436E-06 0.00000E+00
 -1       836 1.05711E-04 1.73388E-06 1.65436E-24
 -1       837 1.05491E-04 1.82878E-06 0.00000E+00
 -1       838 1.05196E-04 1.92350E-06 1.65436E-24
 -1       839 1.04863E-04 2.01761E-06-8.27181E-25
 -1       840 1.04530E-04 2.11157E-06 0.00000E+00
 -1       856 1.04153E-04 1.10576E-05 2.06795E-25
 -1       857 1.04124E-04 1.17562E-05 2.06795E-25
 -1       858 1.04095E-04 1.25486E-05 0.00000E+00
 -1       859 1.04066E-04 1.34172E-05 4.13590E-25
 -1       860 1.04036E-04 1.43443E-05 8.27181E-25
 -1       861 1.04007E-04 1.53122E-05-4.13590E-25
 -1       862 1.03977E-04 1.63032E-05 0.00000E+00
 -1       863 1.03947E-04 1.72995E-05-4.13590E-25
 -1       864 1.03918E-04 1.82833E-05 0.00000E+00
 -1       865 1.03888E-04 1.92369E-05 4.13590E-25
 -1       866 1.03858E-04 2.01426E-05 8.27181E-25
 -1       867 1.03829E-04 2.09826E-05-4.13590E-25
 -1       868 1.03799E-04 2.17393E-05 0.00000E+00
 -1       869 1.03769E-04 2.23953E-05 4.13590E-25
 -1       870 1.03740E-04 2.29331E-05 0.00000E+00
 -1       871 1.03807E-04 1.04690E-05-4.13590E-25
 -1       872 1.03544E-04 1.04656E-05 0.00000E+00
 -1       873 1.03345E-04 1.04618E-05 0.00000E+00
 -1       874 1.03159E-04 1.04575E-05 0.00000E+00
 -1       875 1.02938E-04 1.04526E-05-4.13590E-25
 -1       876 1.04058E-04 1.10675E-05 0.00000E+00
 -1       877 1.03918E-04 1.17190E-05 3.30872E-24
 -1       878 1.03761E-04 1.24180E-05 3.30872E-24
 -1       879 1.03589E-04 1.31585E-05 0.00000E+00
 -1       880 1.03403E-04 1.39345E-05 3.30872E-24
 -1       881 1.03206E-04 1.47397E-05-1.65436E-24
 -1       882 1.03001E-04 1.55682E-05 0.00000E+00
 -1       883 1.02789E-04 1.64138E-05-1.65436E-24
 -1       884 1.02573E-04 1.72706E-05 0.00000E+00
 -1       885 1.02355E-04 1.81325E-05-1.65436E-24
 -1       886 1.02138E-04 1.89934E-05 0.00000E+00
 -1       887 1.01923E-04 1.98472E-05 0.00000E+00
 -1       888 1.01712E-04 2.06879E-05 0.00000E+00
 -1       889 1.01509E-04 2.15093E-05 8.27181E-25
 -1       890 1.01314E-04 2.23054E-05-1.65436E-24
 -1       891 1.03400E-04 2.32907E-05 0.00000E+00
 -1       892 1.03071E-04 2.32460E-05 4.13590E-25
 -1       893 1.02700E-04 2.32012E-05 8.27181E-25
 -1       894 1.02268E-04 2.31565E-05 4.13590E-25
 -1       895 1.01750E-04 2.31119E-05-2.06795E-25
 -1       956 1.04137E-04 2.49219E-06 1.65436E-24
 -1       957 1.04037E-04 2.84877E-06-8.27181E-25
 -1       958 1.03937E-04 3.26159E-06 0.00000E+00
 -1       959 1.03837E-04 3.72342E-06 0.00000E+00
 -1       960 1.03736E-04 4.22704E-06 1.65436E-24
 -1       961 1.03636E-04 4.76519E-06 0.00000E+00
 -1       962 1.03536E-04 5.33058E-06-3.30872E-24
 -1       963 1.03435E-04 5.91595E-06 0.00000E+00
 -1       964 1.03335E-04 6.51401E-06 0.00000E+00
 -1       965 1.03234E-04 7.11748E-06 1.65436E-24
 -1       966 1.03134E-04 7.71909E-06 0.00000E+00
 -1       967 1.03034E-04 8.31155E-06 0.00000E+00
 -1       968 1.02933E-04 8.88758E-06-3.30872E-24
 -1       969 1.02833E-04 9.43994E-06-3.30872E-24
 -1       970 1.02733E-04 9.96137E-06 0.00000E+00
 -1       971 1.02542E-04 1.09461E-05 0.00000E+00
 -1       972 1.02448E-04 1.15294E-05 8.27181E-25
 -1       973 1.02353E-04 1.21857E-05 1.65436E-24
 -1       974 1.02258E-04 1.29057E-05-1.65436E-24
 -1       975 1.02164E-04 1.36799E-05-3.30872E-24
 -1       976 1.02069E-04 1.44988E-05 0.00000E+00
 -1       977 1.01974E-04 1.53531E-05-3.30872E-24
 -1       978 1.01879E-04 1.62331E-05 0.00000E+00
 -1       979 1.01784E-04 1.71296E-05 0.00000E+00
 -1       980 1.01689E-04 1.80330E-05 0.00000E+00
 -1       981 1.01594E-04 1.89338E-05-3.30872E-24
 -1       982 1.01500E-04 1.98226E-05-1.65436E-24
 -1       983 1.01405E-04 2.06899E-05 0.00000E+00
 -1       984 1.01311E-04 2.15263E-05 0.00000E+00
 -1       985 1.01217E-04 2.23223E-05-1.65436E-24
 -3
    1PSTEP                        12           6           1          
  100CL  106 5.39062E-01         409                     0    6           1
 -4  STRESS      6    1
 -5  SXX         1    4    1    1
 -5  SYY         1    4    2    2
 -5  SZZ         1    4    3    3
 -5  SXY         1    4    1    2
 -5  SYZ         1    4    2    3
 -5  SZX         1    4    3    1
 -1         1-2.25502E+06-9.61447E+05-4.76710E+05-1.24206E+06 1.74623E-10-1.84809E-09
 -1         2 2.66765E+03-2.85588E+05 8.69484E+03-8.23752E+02-1.07320E-10-1.16158E-08
 -1         3-2.35259E+02-1.03749E+06 2.48973E+02-5.99827E+02-1.92681E-10 1.05138E-09
 -1         5-2.26693E+00 2.82511E+05 7.29605E+00 9.48482E-02 3.37161E-11-1.98897E-08
 -1         8-1.07871E+06-3.95178E+05-1.02996E+05-5.57504E+05 3.61979E-10 9.96079E-09
 -1         9-2.17260E+06-7.06744E+05-2.64644E+05-6.74449E+05 4.42669E-09 7.53207E-09
 -1        10-9.27017E+02-1.08085E+06-1.48317E+03-4.05904E+03-5.25142E-09-2.12567E-08
 -1        12 7.26342E-01 2.82527E+05 2.36270E+02 7.50966E-01 1.90173E-10 1.23709E-08
 -1        15 2.00504E+03 1.10189E+03 6.48128E+03 4.38168E+00-1.42677E-10-1.15927E-08
 -1        16-2.83896E+06-1.24213E+06-4.54190E+05-1.32609E+06 1.02931E-08 1.22818E-08
 -1        17-1.27190E+06-7.17200E+05-2.45278E+05-6.36762E+05-6.39266E-09-2.25846E-09
 -1        18-4.02850E+04-1.46575E+04-3.18587E+04-7.35227E+04 5.14979E-09-5.75619E-09
 -1        19 8.97199E+04 1.05029E+05-6.32912E+02 1.75538E+04-3.81078E-10-2.27519E-09
 -1        20-4.22657E+04-4.24213E+05-9.39136E+04 2.86853E+04 1.44034E-09 5.75286E-09
 -1        21-3.90490E+01-2.40693E+05-7.72368E+02-5.50921E+01-3.04444E-09-7.00967E-09
 -1        24-3.10054E+06-7.87928E+05-3.53163E+05-1.12230E+06-3.87178E-08-1.69578E-08
 -1        25-5.13968E+04-3.63164E+05-6.64237E+04-1.20032E+05 1.75442E-10 9.18408E-10
 -1        26-2.71496E+04 7.00225E+04-1.57536E+04-7.35232E+03 1.42209E-09 6.28282E-09
 -1        27-6.49752E+04-2.31803E+05-8.65845E+04 5.23087E+04 5.44583E-09-3.78168E-09
 -1        28 1.85671E+04-6.70417E+04 1.36315E+04 2.04121E+04 2.50259E-09-4.70025E-09
 -1        32-1.07975E+06-1.02321E+06 1.82529E+05-5.74644E+05-2.41453E-08 6.01318E-10
 -1        33-1.34266E+05 6.74558E+04 2.40189E+04-3.57978E+04 4.47187E-10-3.97995E-09
 -1        34-1.71670E+05-1.73247E+04 4.29224E+02 5.36669E+04 2.35851E-09 4.65616E-09
 -1        35-1.89031E+04-2.66343E+04-1.04804E+03 4.19297E+04 2.07530E-09 8.85242E-11
 -1        51 2.08128E+04-3.54627E+05 5.09737E+04-9.67154E+05 1.89175E-10 1.35624E-08
 -1        52 1.13126E+04-3.51367E+05 3.19640E+04-1.12795E+06 5.38421E-10-8.96398E-09
 -1        53 7.34759E+03-3.65918E+05 2.48305E+04-9.63750E+05 9.74978E-10 4.40923E-09
 -1        54 2.03241E+04-3.64535E+05 3.69635E+04-1.13147E+06 3.78350E-10-2.16678E-08
 -1        55 3.98890E+04-3.78304E+05 6.42224E+04-9.63192E+05 1.14960E-09-4.83124E-09
 -1        56-4.31133E+06-4.82625E+05-3.50747E+05-1.66530E+06-6.76664E-10-4.10364E-09
 -1        57-4.46233E+06-7.90583E+05-2.36546E+05-1.64039E+06 2.70848E-09-1.90994E-09
 -1        58-4.38192E+06-5.93803E+05-8.24844E+04-1.64308E+06-1.35697E-09 5.91172E-09
 -1        59-4.38080E+06-6.59884E+05-4.92423E+04-1.66653E+06-1.68075E-09-6.45286E-09
 -1        60-4.39195E+06-6.09584E+05-1.92361E+04-1.64040E+06 3.24690E-10-5.97538E-09
 -1        61-4.37111E+06-6.39397E+05-1.09023E+04-1.66729E+06 4.01553E-09-1.37119E-08
 -1        62-4.39139E+06-6.13828E+05-5.20096E+03-1.64243E+06 9.82254E-10-7.64413E-09
 -1        63-4.37515E+06-6.31403E+05-4.15126E+03-1.66099E+06-1.41699E-09 8.36957E-09
 -1        64-4.38779E+06-6.17579E+05-4.65388E+03-1.64664E+06 2.43881E-09 1.78557E-09
 -1        65-4.38434E+06-6.25088E+05-9.18532E+03-1.65139E+06 1.29501E-09-1.48857E-08
 -1        66-4.38216E+06-6.20222E+05-1.61045E+04-1.65198E+06 1.02676E-09 7.43057E-10
 -1        67-4.40257E+06-6.31916E+05-4.09389E+04-1.63913E+06 3.98870E-10 5.84987E-09
 -1        68-4.36975E+06-6.11138E+05-6.86225E+04-1.65881E+06-7.72161E-10 1.60508E-08
 -1        69-4.47566E+06-7.35479E+05-1.96665E+05-1.61176E+06-6.91216E-11 4.02906E-09
 -1        70-4.30998E+06-5.19698E+05-2.91677E+05-1.67841E+06 5.38421E-10 1.16997E-08
 -1        86-1.34010E+03-2.88455E+05 9.28288E+03 4.11863E+02 1.13414E-09 2.38163E-09
 -1        87 8.86309E+03-2.82645E+05 1.94002E+04-1.59156E+03 1.84991E-09-1.98725E-09
 -1        88-7.51244E+03-2.91399E+05 2.96998E+04 1.17969E+03 2.64845E-09-4.86347E-09
 -1        89 5.59574E+04-2.60932E+05 8.00598E+04-2.91849E+03 3.96903E-09-8.91156E-09
 -1        90-4.82648E+04-3.10149E+05 1.13205E+05 1.73923E+03 3.81988E-09-5.03769E-09
 -1       121-3.44577E+02-1.03839E+06 1.26174E+02 2.99258E+02 6.39304E-10-9.58607E-09
 -1       122-1.49888E+02-1.03745E+06 5.29625E+02-1.19853E+03-2.10496E-09 7.15227E-09
 -1       123-3.95546E+02-1.03845E+06 7.41655E+02 8.95362E+02 1.77567E-09-8.03448E-09
 -1       124 8.34669E+02-1.03690E+06 2.18569E+03-2.58525E+03-4.31351E-09 2.15587E-08
 -1       125-1.01139E+03-1.03901E+06 3.23603E+03 1.68360E+03 2.74667E-09-2.51384E-09
 -1       191-2.62349E+00 2.82536E+05 8.87308E+00-4.76172E-02 6.70979E-11-1.06911E-08
 -1       192-2.93584E+00 2.82512E+05 1.54402E+01 4.28317E-01 9.56877E-11-5.64091E-09
 -1       193-4.40261E+00 2.82536E+05 2.88622E+01-3.82171E-01 9.86660E-11-9.42964E-09
 -1       194-5.08873E+00 2.82514E+05 5.83823E+01 1.02202E+00 8.02842E-11-1.74086E-08
 -1       195-7.82181E+00 2.82534E+05 1.14346E+02-6.44533E-01 2.19380E-10-6.38374E-09
 -1       251-1.09333E+06 5.01814E+03-1.19543E+04-9.25766E+03-7.73980E-10 2.54568E-09
 -1       252-1.09730E+06-5.77746E+03-8.20364E+03 1.13832E+04-2.16829E-10 1.10260E-08
 -1       253-1.09588E+06 7.19292E+02-3.23279E+03-4.68484E+03-6.93831E-10-8.85154E-09
 -1       254-1.09425E+06-8.56022E+02-1.58287E+03 7.00660E+02 1.27329E-11 9.82686E-09
 -1       255-1.09630E+06 5.95621E+01-9.22808E+02 1.42495E+03 1.02773E-09 1.90715E-08
 -1       256-1.09431E+06-7.95671E+01-1.24866E+02-1.05976E+04 3.42129E-09-1.08720E-08
 -1       257-1.09586E+06-2.15516E+01-9.71060E+01 6.61331E+03 2.51646E-10-1.72054E-09
 -1       258-1.09518E+06 1.25355E+02 3.27773E+02-1.79547E+04-2.37488E-09-1.47239E-09
 -1       259-1.09553E+06-7.28645E+01 6.47948E+02 8.78231E+03 1.85867E-10-1.21759E-10
 -1       260-1.09502E+06 5.61487E+02 1.59820E+03-1.84023E+04-7.78613E-11-6.77073E-09
 -1       261-1.09602E+06-4.50342E+02 2.66494E+03 7.06100E+03 1.76880E-09-5.91160E-09
 -1       262-1.09276E+06 3.23726E+03 6.92808E+03-1.17641E+04-9.76286E-11-6.67865E-09
 -1       263-1.09769E+06-2.80939E+03 1.05685E+04 2.14378E+03-1.27204E-09 6.12908E-09
 -1       264-1.08411E+06 2.06335E+04 2.96322E+04-7.59626E+02-1.08798E-09 1.95223E-09
 -1       265-1.10460E+06-1.78324E+04 4.13634E+04-3.94339E+03-2.52976E-09 3.98904E-09
 -1       266-3.62967E+04-1.69696E+04 8.51754E+04-9.37667E+01-1.09139E-10-4.02080E-08
 -1       267 4.20791E+04 1.97827E+04 6.01941E+04 1.08173E+02-2.03727E-10-6.03064E-08
 -1       268-5.64268E+03-2.80155E+03 2.23743E+04-1.37839E+01-3.09228E-10-5.92978E-08
 -1       269 6.66241E+03 3.35311E+03 1.45425E+04 1.60553E+01-2.17597E-10-4.19101E-08
 -1       270-1.00003E+03-5.50930E+02 7.01991E+03-2.17886E+00-2.17597E-10-1.50696E-08
 -1       271-3.41228E+06-4.26971E+05-2.59148E+05-1.32944E+06-2.77578E-09 7.65431E-09
 -1       272-3.50101E+06-6.20227E+05-1.66617E+05-1.33173E+06-2.57455E-09 6.39739E-09
 -1       273-3.46239E+06-4.90228E+05-6.12259E+04-1.31634E+06-1.21008E-09 4.79122E-09
 -1       274-3.44162E+06-5.43437E+05-3.42315E+04-1.35230E+06 2.58842E-09 2.58478E-09
 -1       275-3.47087E+06-4.95131E+05-1.42618E+04-1.31236E+06-4.88399E-10 8.74661E-09
 -1       276-3.43102E+06-5.38325E+05-7.53785E+03-1.35910E+06-2.04818E-09 4.66275E-09
 -1       277-3.47342E+06-4.94123E+05-3.70289E+03-1.31026E+06-2.40198E-09 1.55615E-08
 -1       278-3.42806E+06-5.39771E+05-2.64848E+03-1.36232E+06 3.61979E-10-8.07802E-10
 -1       279-3.47420E+06-4.93371E+05-2.80902E+03-1.30943E+06-1.68598E-09-1.20232E-08
 -1       280-3.42821E+06-5.40713E+05-5.13296E+03-1.36271E+06 4.65917E-10-7.78346E-09
 -1       281-3.47335E+06-4.93186E+05-9.33658E+03-1.30990E+06-4.92037E-10-6.12727E-09
 -1       282-3.43409E+06-5.45137E+05-2.23747E+04-1.35962E+06-3.00133E-09 1.12532E-08
 -1       283-3.46815E+06-4.89673E+05-3.98713E+04-1.31213E+06 6.29825E-11-2.67573E-09
 -1       284-3.47248E+06-5.95381E+05-1.08599E+05-1.34632E+06-1.60287E-09-5.66070E-09
 -1       285-3.43535E+06-4.48667E+05-1.68917E+05-1.32086E+06 9.54969E-10-1.70985E-09
 -1       301 1.93922E+04-5.39882E+04 1.58406E+05-1.02721E+05 5.89353E-10 2.40389E-08
 -1       302 2.30654E+04-1.33719E+04 1.05692E+05-1.53281E+05-8.29914E-10 1.86246E-08
 -1       303 1.01395E+03-3.81443E+04 8.30076E+04-1.02806E+05 3.01952E-10-2.81943E-09
 -1       304 2.87193E+04-7.51551E+03 1.24533E+05-1.52807E+05-6.36646E-10-1.11622E-08
 -1       305 2.44778E+04-5.87701E+04 1.99841E+05-1.03239E+05 1.74623E-10 9.06766E-09
 -1       306-5.67948E+06-6.13568E+05-4.27684E+05-2.14135E+06 2.00816E-09-6.89761E-09
 -1       307-5.63121E+06-1.15279E+06-2.78187E+05-2.29035E+06-2.48947E-08 2.05546E-09
 -1       308-5.82874E+06-6.63483E+05-1.00303E+05-2.00933E+06-6.16939E-09 1.08994E-08
 -1       309-5.46938E+06-1.09106E+06-5.81345E+04-2.45962E+06 1.08407E-08 3.59432E-09
 -1       310-5.85278E+06-6.63890E+05-2.26416E+04-1.98169E+06 4.90490E-09 1.07193E-08
 -1       311-5.47714E+06-1.02859E+06-9.29137E+03-2.41025E+06 2.64627E-08 2.16128E-08
 -1       312-5.81527E+06-7.29549E+05-1.23019E+04-2.05485E+06 9.74615E-09 6.88215E-09
 -1       313-5.59650E+06-8.65277E+05 4.34527E+03-2.20411E+06-1.31668E-08-1.02737E-08
 -1       314-5.72035E+06-8.36484E+05-1.60843E+04-2.17812E+06 1.67420E-08-3.58250E-09
 -1       315-5.80990E+06-6.68644E+05-6.72758E+03-1.98149E+06-6.71025E-09-9.69931E-09
 -1       316-5.60578E+06-9.23395E+05-2.96454E+04-2.27995E+06-2.26100E-08-6.53927E-09
 -1       317-5.99752E+06-5.66503E+05-6.68372E+04-1.85256E+06 2.57252E-08-8.98490E-09
 -1       318-5.54631E+06-9.29566E+05-1.12903E+05-2.31730E+06-2.74085E-08 1.18816E-08
 -1       319-6.08936E+06-7.70602E+05-3.27092E+05-1.83041E+06-5.94628E-09 1.26602E-09
 -1       320-5.51329E+06-7.23380E+05-4.88778E+05-2.29992E+06 1.78989E-08-4.88944E-09
 -1       336 5.61818E+02-1.12412E+06-6.32655E+03 2.36467E+03-1.08798E-08-1.86701E-08
 -1       337-2.33688E+03-1.12528E+06-7.00428E+03-5.83444E+03-2.03318E-08-1.18562E-08
 -1       338 3.78191E+02-1.12426E+06-9.21751E+03 3.44951E+03-1.38730E-08-1.90266E-09
 -1       339-9.52608E+03-1.12990E+06-2.01503E+04-7.95808E+03-2.62626E-08 1.21327E-08
 -1       340 6.31976E+03-1.11976E+06-3.12520E+04 4.47019E+03-1.72577E-08 6.09180E-09
 -1       406 1.89198E+01 2.82523E+05 4.66605E+02-1.13303E-01 2.57188E-10 5.85351E-09
 -1       407 1.63340E+02 2.82608E+05 9.91360E+02-4.06616E+00-9.32232E-12 3.08819E-09
 -1       408 5.11137E+02 2.82452E+05 1.98013E+03 4.27845E+00 3.31397E-10 3.27759E-09
 -1       409 2.14145E+03 2.83241E+05 4.45747E+03-4.21143E+01-1.09139E-11 5.60578E-09
 -1       410 6.15145E+03 2.81889E+05 9.09986E+03 3.96324E+01 1.85537E-10 8.45307E-09
 -1       521-8.17520E+06-7.91538E+05-7.88024E+05-2.55207E+06-1.17143E-08 1.88011E-08
 -1       522-5.66459E+06-2.09904E+06-2.00711E+05-3.95375E+06-8.27422E-08-2.70629E-08
 -1       523-8.17275E+06-3.37757E+05-1.54980E+05-1.79563E+06 4.67844E-09-4.01997E-08
 -1       524-6.03530E+06-2.27777E+06-3.51447E+04-4.96037E+06 9.36641E-08-8.21160E-08
 -1       525-8.17275E+06-3.37477E+05-4.31299E+04-1.76507E+06 6.85832E-08-5.61795E-08
 -1       526-5.57931E+06-1.94400E+06 1.34282E+05-4.09943E+06 1.11468E-08-1.86265E-08
 -1       527-8.29411E+06-9.17391E+05-2.15885E+05-2.46065E+06 4.33793E-08-1.66183E-08
 -1       528-5.75447E+06-8.96859E+05 2.71777E+05-2.31111E+06-6.91798E-08 1.48502E-08
 -1       529-7.65594E+06-1.62436E+06-2.34877E+05-3.26890E+06-2.41562E-08-1.75351E-09
 -1       530-7.76653E+06 4.03972E+05 1.58602E+05-1.31998E+06-4.06581E-08 7.99846E-08
 -1       531-6.59663E+06-1.98673E+06-6.20802E+04-3.64329E+06-1.37377E-07 1.82081E-08
 -1       532-9.30279E+06 1.00032E+06-3.02132E+04-1.23091E+06 4.99858E-08-8.75953E-08
 -1       533-6.45472E+06-1.99231E+06-1.30211E+05-3.67125E+06 1.75569E-08-1.50400E-07
 -1       534-8.30999E+06 4.05598E+05-2.05956E+05-1.23279E+06-4.56857E-08 1.13286E-07
 -1       535-7.34809E+06-1.55985E+06-7.40034E+05-3.40681E+06-7.33417E-09 7.32834E-08
 -1       536-3.90485E+05-1.90952E+04 3.32470E+04-1.33863E+04-2.97393E-09 2.25573E-08
 -1       537-3.31336E+05 2.14137E+04 3.13474E+04 3.20959E+04-3.81430E-08 2.85913E-08
 -1       538-3.61740E+05-2.06821E+03 9.96037E+03-1.95734E+04 3.28230E-09 2.80115E-08
 -1       539-3.48663E+05 3.04854E+03 8.21239E+03 3.50043E+04 4.70059E-08 3.46806E-08
 -1       540-3.73394E+05-5.39057E+02 3.53789E+01-1.63016E+04-4.71357E-09 2.24410E-08
 -1       541-3.12124E+05 1.99101E+03 1.10652E+04 2.00247E+04-3.42430E-09 1.05887E-08
 -1       542-3.97295E+05-1.82678E+03-6.90297E+03-4.57391E+03 7.52721E-09 1.02086E-08
 -1       543-2.95832E+05 2.22689E+03 1.30326E+04-5.98441E+03 2.70143E-09 1.88763E-10
 -1       544-3.89265E+05-1.13862E+03-6.24589E+03 9.68829E+03 4.56930E-09-2.40648E-08
 -1       545-3.30668E+05 1.15568E+02 4.52301E+03-2.88493E+04-8.30460E-09-3.89330E-08
 -1       546-3.63359E+05 1.02955E+03-3.10524E+03 1.82871E+04 4.53088E-09-2.66643E-08
 -1       547-3.55135E+05-3.39600E+03-5.29443E+03-3.66783E+04-3.70130E-08-2.38712E-08
 -1       548-3.65398E+05 2.87988E+03-1.17498E+04 1.75323E+04-3.60227E-08-3.51592E-08
 -1       549-3.32113E+05-1.72167E+04-2.09264E+04-2.59556E+04-1.74157E-08-2.34336E-08
 -1       550-3.85603E+05 1.41875E+04-4.80553E+04 7.54648E+03 6.49834E-10-1.19890E-08
 -1       551 1.72686E+04-5.80334E+05 2.43848E+04-9.65562E+05-4.74101E-08-3.34694E-10
 -1       552 3.92169E+04-5.91955E+05 3.18104E+04-1.37526E+06-3.52011E-08 2.47601E-08
 -1       553 2.79515E+04-5.97910E+05 4.65788E+04-9.61925E+05-5.86879E-08 5.92991E-09
 -1       554 6.58596E+04-5.87726E+05 9.75866E+04-1.37670E+06-3.63361E-08-1.44382E-10
 -1       555 5.61289E+04-6.16559E+05 1.73330E+05-9.62870E+05-5.78220E-08-6.15182E-09
 -1       556 1.00548E+05-1.86179E+05 6.21473E+04-2.35294E+05-1.20781E-08-4.87489E-09
 -1       557 1.76117E+05-2.47252E+05 3.28980E+04-2.95858E+05-1.79716E-09 4.26280E-09
 -1       558 9.87254E+04-1.93596E+05 1.29101E+04-2.29001E+05-9.89530E-09 2.25555E-09
 -1       559 1.63904E+05-2.55175E+05 6.67661E+03-3.01789E+05 1.04628E-08 7.76890E-09
 -1       560 9.51853E+04-1.91300E+05 2.53442E+03-2.31354E+05-5.70435E-09 9.66611E-09
 -1       561 1.58819E+05-2.53597E+05 1.43836E+03-3.05048E+05-1.50612E-08 1.08794E-08
 -1       562 9.23719E+04-1.89467E+05 4.35014E+02-2.33375E+05-5.71890E-09 1.52613E-09
 -1       563 1.55515E+05-2.52167E+05 3.52080E+02-3.07166E+05-4.22006E-09-1.73062E-08
 -1       564 9.05430E+04-1.88303E+05 9.57375E+01-2.34669E+05 5.55883E-09 4.11956E-09
 -1       565 1.53653E+05-2.51362E+05 1.13569E+02-3.08343E+05 4.15821E-09 5.50153E-09
 -1       566 8.97462E+04-1.87788E+05 1.61905E+01-2.35234E+05-4.25462E-09-4.06726E-09
 -1       567 1.53190E+05-2.51148E+05-5.91049E+01-3.08556E+05 1.37697E-08-5.26052E-09
 -1       568 9.00220E+04-1.87972E+05-2.95950E+02-2.35119E+05-1.12959E-09-4.41287E-09
 -1       569 1.53353E+05-2.51028E+05-7.11869E+02-3.07084E+05-3.17414E-09 1.26238E-09
 -1       570 9.20099E+04-1.89629E+05-1.67015E+03-2.34904E+05 4.51109E-09 6.34827E-10
 -1       571 2.09269E+05 7.70828E+03 1.13807E+04-5.42632E+04 6.10726E-10 4.95811E-09
 -1       572 2.10957E+05 2.70356E+03 5.57605E+03-5.95003E+04 1.04774E-09 1.10949E-08
 -1       573 2.09945E+05 6.66982E+02 2.47721E+03-5.41321E+04 4.16549E-10 3.23962E-09
 -1       574 2.10141E+05 2.41510E+02 1.24133E+03-5.96492E+04-1.67643E-09-9.50877E-10
 -1       575 2.10019E+05 5.97508E+01 5.85250E+02-5.41147E+04 9.60199E-10 7.29415E-10
 -1       576 2.10031E+05 4.22543E+01 2.98324E+02-5.96690E+04 3.52856E-10 4.58158E-09
 -1       577 2.10033E+05 2.57511E+01 1.47600E+02-5.41124E+04 1.72645E-09 2.26282E-09
 -1       578 2.10024E+05 2.97452E+01 8.18800E+01-5.96715E+04 1.16870E-10 4.71846E-09
 -1       579 2.10051E+05 2.01366E+01 5.23440E+01-5.41123E+04 8.06995E-09 4.55429E-09
 -1       580 2.10049E+05 1.91187E+01 5.29634E+01-5.96683E+04 1.22564E-08-6.57883E-09
 -1       581 2.10081E+05 7.87611E+00 7.58017E+01-5.41156E+04 7.38237E-09-6.65204E-09
 -1       582 2.10103E+05 2.05534E+01 1.48029E+02-5.96351E+04 1.26147E-09 5.33373E-09
 -1       583 2.10117E+05 5.28293E+01 2.85255E+02-5.41455E+04 2.45382E-09 2.54863E-09
 -1       584 2.10253E+05 2.77050E+02 6.41082E+02-5.93841E+04 1.19326E-09-3.65162E-10
 -1       585 2.10090E+05 8.39362E+02 1.30183E+03-5.43670E+04 1.38425E-09-3.06682E-09
 -1       586-2.49647E+03 6.90838E+04-3.15162E+03-1.86559E+05-3.11502E-10-9.02253E-09
 -1       587-5.52943E+02 6.86806E+04-1.56450E+02-2.05325E+05-1.98270E-10 1.01022E-08
 -1       588 7.22843E+02 6.87333E+04 2.71797E+03-1.86461E+05-1.43700E-10-1.34878E-08
 -1       589 3.78343E+03 7.02075E+04 7.64661E+03-2.05126E+05-2.58296E-10-3.38514E-08
 -1       590 1.10215E+04 6.78668E+04 1.62747E+04-1.86765E+05-3.54703E-10-6.92944E-09
 -1       591-4.44973E+04-1.21011E+04-1.48867E+04-2.22147E+04 3.01270E-11-2.74758E-09
 -1       592-4.61979E+04-1.54515E+04-8.06336E+03-2.57490E+04-3.36468E-09 1.26356E-08
 -1       593-4.59981E+04-1.10089E+04-3.35675E+03-2.32946E+04-4.97835E-10 4.69072E-09
 -1       594-4.41283E+04-1.32826E+04-1.67417E+03-2.58461E+04 3.08768E-09 5.68792E-09
 -1       595-4.61130E+04-1.10042E+04-7.69240E+02-2.33441E+04-1.58082E-10 9.16675E-09
 -1       596-4.39878E+04-1.31833E+04-3.91926E+02-2.58310E+04 2.86508E-09 1.76126E-09
 -1       597-4.61275E+04-1.10138E+04-2.15311E+02-2.33460E+04-2.53380E-10 9.43538E-09
 -1       598-4.39743E+04-1.31795E+04-1.76565E+02-2.58267E+04-8.67885E-10 4.20471E-09
 -1       599-4.61264E+04-1.10140E+04-2.29892E+02-2.33456E+04 3.06954E-10-3.45642E-09
 -1       600-4.39889E+04-1.31845E+04-4.30540E+02-2.58302E+04-1.35373E-09 8.49354E-10
 -1       601-4.61082E+04-1.10039E+04-8.51193E+02-2.33427E+04 2.48315E-09-1.39494E-09
 -1       602-4.41443E+04-1.32943E+04-1.85602E+03-2.58446E+04 2.19063E-09-9.15020E-09
 -1       603-4.59791E+04-1.10111E+04-3.72263E+03-2.32881E+04 2.72257E-09-3.14321E-09
 -1       604-4.64485E+04-1.56894E+04-8.94229E+03-2.57235E+04 3.07239E-09 7.27596E-11
 -1       605-4.43032E+04-1.22316E+04-1.65093E+04-2.21005E+04 4.43924E-09 7.84166E-09
 -1       606 2.76121E+04-1.00564E+04-1.80908E+04 2.67898E+04 8.19091E-09-7.76708E-10
 -1       607 2.45149E+04-3.25181E+03-9.00819E+03 3.00757E+04 1.68257E-08-9.45420E-09
 -1       608 2.62709E+04-5.56028E+02-4.03410E+03 2.65781E+04 3.60633E-08-1.02209E-08
 -1       609 2.59219E+04-1.52127E+02-2.03746E+03 3.03115E+04 5.24133E-08-3.00111E-09
 -1       610 2.61076E+04 1.74859E+01-9.73259E+02 2.65543E+04 1.85210E-08 7.24935E-09
 -1       611 2.60422E+04 3.01662E+01-4.90748E+02 3.03372E+04-1.61053E-08 2.79488E-09
 -1       612 2.60634E+04 3.40246E+01-2.34654E+02 2.65519E+04-3.40697E-09 5.07271E-09
 -1       613 2.60390E+04 3.94363E+01-1.06455E+02 3.03403E+04-4.33010E-09-1.38743E-09
 -1       614 2.60391E+04 3.51473E+01-2.86961E+01 2.65511E+04 4.39013E-09 1.20599E-09
 -1       615 2.60262E+04 4.54716E+01 3.59543E+01 3.03407E+04 2.15514E-08 7.17068E-09
 -1       616 2.60205E+04 4.14391E+01 1.15730E+02 2.65514E+04 7.80483E-09-1.81080E-09
 -1       617 2.60333E+04 7.43522E+01 2.67355E+02 3.03402E+04 3.44107E-09-2.28761E-09
 -1       618 2.59922E+04 1.21750E+02 5.39984E+02 2.65515E+04 1.20190E-09-5.67752E-10
 -1       619 2.62198E+04 4.94544E+02 1.21341E+03 3.03394E+04-1.05956E-09 2.92926E-09
 -1       620 2.58102E+04 1.40472E+03 2.43906E+03 2.65504E+04 2.62298E-09 3.05454E-09
 -1       621 3.00209E+02 2.20476E+05 2.68833E+03 1.13137E+04-2.29534E-10 5.87670E-09
 -1       622 3.54047E+02 2.21138E+05 2.38935E+03 1.64863E+04-1.25056E-10-7.73980E-09
 -1       623 1.73907E+01 2.20649E+05 2.88775E+03 1.12599E+04-6.38920E-11-1.23941E-09
 -1       624 1.34724E+03 2.22043E+05 5.60589E+03 1.65404E+04-2.51475E-10 5.14297E-09
 -1       625 1.35415E+03 2.19556E+05 9.80314E+03 1.12595E+04 2.81943E-11 1.73168E-09
 -1       626 1.88386E+05 5.08089E+04 3.93079E+03 9.98683E+04-3.99450E-09 6.21731E-09
 -1       627 1.86003E+05 5.24839E+04 1.89422E+03 1.03822E+05-3.95539E-09-1.36437E-08
 -1       628 1.88517E+05 4.89680E+04 8.00130E+02 1.00482E+05 2.55295E-09 3.37468E-09
 -1       629 1.85455E+05 5.20160E+04 3.92020E+02 1.04056E+05 1.79898E-09-3.79191E-09
 -1       630 1.88524E+05 4.88816E+04 1.81134E+02 1.00500E+05-3.43880E-09-6.71309E-09
 -1       631 1.85389E+05 5.20041E+04 9.70959E+01 1.04057E+05-1.92949E-09 5.13542E-09
 -1       632 1.88514E+05 4.88886E+04 6.32560E+01 1.00492E+05-2.68710E-09-5.03104E-09
 -1       633 1.85375E+05 5.20095E+04 6.95428E+01 1.04049E+05-8.79481E-10 9.54003E-10
 -1       634 1.88504E+05 4.88896E+04 1.11488E+02 1.00487E+05 1.09312E-08 9.17566E-09
 -1       635 1.85380E+05 5.20110E+04 2.25328E+02 1.04049E+05 4.86375E-09 4.37171E-09
 -1       636 1.88493E+05 4.88883E+04 4.54746E+02 1.00484E+05-3.37786E-09-7.66659E-09
 -1       637 1.85474E+05 5.20831E+04 9.99320E+02 1.04045E+05-1.43200E-09-1.04919E-08
 -1       638 1.88454E+05 4.91107E+04 2.05354E+03 1.00382E+05-1.38107E-09 1.50521E-09
 -1       639 1.86550E+05 5.35840E+04 4.85811E+03 1.03726E+05-1.48248E-09 1.31095E-08
 -1       640 1.88310E+05 5.35834E+04 1.00816E+04 9.84855E+04-9.83164E-10-3.67118E-09
 -1       656 5.03237E+04-1.27638E+06-1.21480E+05-4.34105E+02-7.71252E-10 8.84427E-10
 -1       657-6.65163E+04-1.33122E+06-1.00504E+05 7.57253E+03-7.20320E-10 9.14746E-10
 -1       658 1.59778E+04-1.29201E+06-6.17257E+04-1.77239E+03 8.07404E-10-4.29046E-09
 -1       659-7.14605E+04-1.33356E+06-1.06998E+05 8.50331E+03-4.72937E-10-7.08476E-09
 -1       660 5.52563E+04-1.27404E+06-1.32648E+05-1.36487E+03-1.38243E-10 1.91747E-10
 -1       661 1.68169E+05 1.82297E+04 1.63620E+04 6.57533E+04 3.54157E-09 2.38197E-09
 -1       662 1.76830E+05 3.09262E+04 1.10255E+04 6.27526E+04 3.24991E-09-1.10276E-08
 -1       663 1.71379E+05 2.34821E+04 3.85669E+03 6.48251E+04 9.70999E-10 1.45792E-09
 -1       664 1.73114E+05 2.47795E+04 2.30603E+03 6.38826E+04 2.82290E-09-9.01338E-09
 -1       665 1.71861E+05 2.42037E+04 9.09663E+02 6.46884E+04-1.25965E-10-4.77047E-09
 -1       666 1.72547E+05 2.39509E+04 5.30819E+02 6.40587E+04-5.35141E-09-4.24813E-09
 -1       667 1.71942E+05 2.42890E+04 2.80227E+02 6.46571E+04 9.06567E-10-3.60229E-09
 -1       668 1.72459E+05 2.38852E+04 2.81609E+02 6.41041E+04 1.22878E-09-9.50444E-09
 -1       669 1.71948E+05 2.42675E+04 3.78018E+02 6.46437E+04 1.49046E-09 6.42427E-09
 -1       670 1.72552E+05 2.40869E+04 8.20138E+02 6.41050E+04 5.13872E-09-3.42197E-11
 -1       671 1.71849E+05 2.40913E+04 1.45519E+03 6.46546E+04-2.45826E-09 1.96462E-09
 -1       672 1.73400E+05 2.55025E+04 3.72228E+03 6.39002E+04-4.32487E-09 6.71707E-09
 -1       673 1.71105E+05 2.28875E+04 6.23764E+03 6.48349E+04-4.46448E-10-2.96814E-09
 -1       674 1.79339E+05 3.55220E+04 1.78382E+04 6.21541E+04 7.02642E-10 7.16454E-10
 -1       675 1.65949E+05 1.43520E+04 2.64777E+04 6.62950E+04 3.18960E-09-7.97991E-09
 -1       676 2.00448E+01-2.40629E+05-9.30903E+02 2.75467E+01 8.06750E-10-3.72410E-09
 -1       677-2.47165E+02-2.40854E+05-1.70367E+03-5.50620E+01-2.15985E-09-1.35576E-08
 -1       678 1.65028E+02-2.40468E+05-3.01165E+03 2.74964E+01-1.82683E-09-6.34915E-09
 -1       679-3.01242E+03-2.42671E+05-7.15423E+03-5.48691E+01-4.70607E-09 7.11411E-09
 -1       680 1.79783E+03-2.38811E+05-1.15302E+04 2.70408E+01-6.41194E-10 6.06860E-09
 -1       771-2.56520E+06-4.90876E+05-7.15306E+04-1.10888E+06-1.61235E-08-1.35478E-08
 -1       772-2.53627E+06-5.35169E+05-3.78667E+04-1.15895E+06-9.02219E-09 5.09317E-09
 -1       773-2.57681E+06-4.81730E+05-1.73000E+04-1.11305E+06-3.82715E-09 6.12636E-09
 -1       774-2.52745E+06-5.27476E+05-8.16125E+03-1.16630E+06 9.42964E-09-1.03864E-09
 -1       775-2.58094E+06-4.78841E+05-4.79982E+03-1.11394E+06 1.45519E-09 9.50604E-09
 -1       776-2.52872E+06-5.27432E+05-2.02569E+03-1.17105E+06-3.08501E-09 1.70985E-09
 -1       777-2.58420E+06-4.76434E+05-1.68738E+03-1.11468E+06 1.49885E-09 1.66619E-09
 -1       778-2.53049E+06-5.27548E+05-5.87321E+02-1.17505E+06 2.50293E-09 4.00723E-09
 -1       779-2.58690E+06-4.74384E+05-7.66798E+02-1.11532E+06-3.71074E-09-5.47334E-09
 -1       780-2.53209E+06-5.27609E+05-2.76285E+02-1.17830E+06-8.73115E-10-7.31779E-09
 -1       781-2.58898E+06-4.72755E+05-5.21142E+02-1.11582E+06-8.49832E-09-2.82671E-09
 -1       782-2.53336E+06-5.27646E+05-5.16650E+02-1.18068E+06-1.56360E-08-4.52542E-09
 -1       783-2.59039E+06-4.71657E+05-1.06150E+03-1.11617E+06-5.03132E-09-1.23057E-08
 -1       784-2.53473E+06-5.28259E+05-2.32166E+03-1.18210E+06-7.95626E-09-3.29692E-11
 -1       785-2.59068E+06-4.71409E+05-4.33286E+03-1.11604E+06-1.54669E-08 2.33285E-09
 -1       786 1.58217E+05-9.43930E+03 2.18379E+04-7.39806E+01 1.80082E-09 3.17686E-09
 -1       787 1.67682E+05 1.09278E+04 1.54497E+04 1.80346E+01 2.48238E-09 1.14319E-08
 -1       788 1.61869E+05-1.47969E+03 5.65164E+03-5.60953E+01 1.05242E-09 5.78916E-09
 -1       789 1.63429E+05 1.71202E+03 3.55017E+03-1.13352E+01-8.69429E-11-5.18969E-09
 -1       790 1.62471E+05-2.31058E+02 1.44272E+03-4.46132E+01 1.06521E-11-1.92375E-09
 -1       791 1.62726E+05 2.67933E+02 8.43519E+02-3.21791E+01-1.16345E-09 8.18396E-09
 -1       792 1.62572E+05-3.66876E+01 3.77985E+02-3.52515E+01-3.93581E-10 2.61522E-09
 -1       793 1.62610E+05 4.81419E+01 2.33447E+02-5.14463E+01 6.71591E-10 5.21489E-09
 -1       794 1.62587E+05-1.14093E+01 1.51148E+02-2.53456E+01 2.99750E-10-2.37205E-09
 -1       795 1.62609E+05 5.05747E+01 1.87160E+02-7.44586E+01-2.89457E-12-1.77987E-09
 -1       796 1.62573E+05-3.91153E+01 2.61311E+02-1.22388E+01 2.04760E-10-1.01674E-08
 -1       797 1.62722E+05 2.84856E+02 6.00402E+02-1.07358E+02 8.69877E-10-3.15336E-09
 -1       798 1.62474E+05-2.45521E+02 9.42611E+02 7.55477E+00-7.65024E-11-6.46742E-09
 -1       799 1.63428E+05 1.81259E+03 2.56525E+03-1.59023E+02 6.43963E-11-7.17384E-09
 -1       800 1.61867E+05-1.56563E+03 3.62218E+03 3.94269E+01-4.87042E-11 3.28146E-09
 -1       801 5.11263E+04-1.86973E+06-1.69136E+05 3.42087E+04 1.49157E-08-1.74687E-08
 -1       802-5.69741E+04-1.70547E+06-6.58414E+04-6.16951E+04 4.07545E-08-6.71116E-09
 -1       803 5.18250E+03-1.78201E+06-9.86462E+03 8.72711E+04 3.17559E-08 2.81547E-08
 -1       804 5.21062E+04-1.65170E+06 7.78036E+04-4.17820E+04 3.43643E-08 3.45504E-08
 -1       805-5.86749E+04-1.92289E+06 7.68798E+04 1.42877E+04 1.29730E-08 1.85385E-08
 -1       806-2.29140E+05-4.60516E+04-1.80711E+04-9.23108E+04-4.28372E-09-3.13230E-09
 -1       807-2.30479E+05-4.31868E+04-8.87806E+03-9.67849E+04 2.64833E-09 6.75917E-09
 -1       808-2.29636E+05-3.95390E+04-3.76617E+03-9.53922E+04-3.78350E-10-2.52101E-11
 -1       809-2.28602E+05-4.07035E+04-1.84138E+03-9.70181E+04-8.69250E-10 5.55883E-09
 -1       810-2.29713E+05-3.93109E+04-8.43452E+02-9.55286E+04-6.60339E-09-4.56566E-10
 -1       811-2.28457E+05-4.06043E+04-4.18781E+02-9.69931E+04-6.79711E-09 2.63674E-09
 -1       812-2.29726E+05-3.93290E+04-2.10104E+02-9.55283E+04-3.82897E-10 3.81760E-10
 -1       813-2.28438E+05-4.06063E+04-1.34140E+02-9.69804E+04-2.29852E-09-9.87222E-09
 -1       814-2.29723E+05-3.93358E+04-1.28675E+02-9.55254E+04-1.06547E-09-1.12429E-08
 -1       815-2.28441E+05-4.06082E+04-2.03910E+02-9.69764E+04-3.27645E-10-1.12370E-08
 -1       816-2.29709E+05-3.93344E+04-3.83873E+02-9.55229E+04-6.37556E-10 7.25868E-09
 -1       817-2.28507E+05-4.06448E+04-8.23429E+02-9.69693E+04-1.10958E-09 9.59062E-09
 -1       818-2.29661E+05-3.94497E+04-1.67866E+03-9.54683E+04-3.29601E-09-1.43755E-08
 -1       819-2.29429E+05-4.16565E+04-3.95050E+03-9.67502E+04 2.89083E-09 1.67820E-08
 -1       820-2.29346E+05-4.24322E+04-8.04020E+03-9.41908E+04 4.74756E-10-9.97727E-09
 -1       821-2.88482E+05 1.59576E+04-3.69045E+04 2.43522E+02 1.18797E-09 9.16771E-09
 -1       822-3.04472E+05-1.84736E+04-2.61150E+04-9.24686E+02-1.40215E-09 1.50794E-08
 -1       823-2.94652E+05 2.50207E+03-9.55811E+03 2.47066E+02-1.32003E-10 5.74119E-09
 -1       824-2.97270E+05-2.89571E+03-6.01304E+03-7.60919E+02 1.74854E-10-1.39618E-08
 -1       825-2.95682E+05 3.91404E+02-2.47352E+03 7.97527E+01-1.53719E-09-1.29296E-09
 -1       826-2.96067E+05-4.61315E+02-1.48903E+03-3.29438E+02-3.56846E-09 3.63298E-09
 -1       827-2.95854E+05 6.90365E+01-7.76050E+02-1.84423E+02-2.53917E-09-1.89225E-08
 -1       828-2.95906E+05-1.40800E+02-6.81652E+02 1.81776E+02-4.60223E-09 4.35276E-09
 -1       829-2.95842E+05 7.11873E+01-7.89802E+02-4.31470E+02 9.13758E-12-3.47003E-09
 -1       830-2.96102E+05-4.76638E+02-1.54000E+03 5.51920E+02 1.71189E-09 1.02182E-08
 -1       831-2.95659E+05 4.05089E+02-2.55293E+03-5.54574E+02-3.03301E-09 3.55567E-09
 -1       832-2.97333E+05-2.99437E+03-6.22124E+03 6.21546E+02-1.08418E-10 4.86989E-09
 -1       833-2.94613E+05 2.58722E+03-9.88742E+03-5.01096E+02-1.95435E-09-7.22275E-09
 -1       834-3.04750E+05-1.91073E+04-2.70101E+04 3.61072E+02-1.17915E-09-9.83073E-09
 -1       835-2.88243E+05 1.65053E+04-3.81790E+04-2.94088E+02 5.69048E-09-4.78758E-09
 -1       836-9.70289E+02 2.71716E+05 1.64408E+04-1.99655E+04 6.27551E-10 2.12503E-09
 -1       837 3.60045E+03 2.76817E+05 1.40537E+04-4.01164E+04 1.32763E-09 9.37007E-10
 -1       838-3.63745E+02 2.73129E+05 1.45163E+04-1.98943E+04 1.25783E-09 2.57432E-09
 -1       839 9.30933E+03 2.81071E+05 2.76542E+04-4.01488E+04 1.83945E-09-3.18086E-09
 -1       840-2.81056E+03 2.67420E+05 4.41808E+04-1.99318E+04 1.00044E-09 5.79848E-09
 -1       856-8.00233E+04 7.44280E+03-1.96141E+04-4.30442E+02-1.05746E-09-3.85808E-09
 -1       857-8.81232E+04-8.73034E+03-1.35035E+04 4.57848E+03 3.59819E-10-8.62656E-09
 -1       858-8.32241E+04 1.04287E+03-5.09028E+03-4.51889E+02-5.87988E-10 4.17299E-09
 -1       859-8.44480E+04-1.21316E+03-3.07390E+03 4.61254E+03-9.80094E-10 4.80679E-09
 -1       860-8.37025E+04 1.45067E+02-1.29182E+03-4.64602E+02 9.38456E-10 1.52810E-08
 -1       861-8.38971E+04-1.60565E+02-7.18127E+02 4.62995E+03-5.31367E-09 1.00152E-08
 -1       862-8.37770E+04 1.91650E+01-3.13510E+02-4.69329E+02 1.68942E-09-8.68792E-09
 -1       863-8.38084E+04-1.11491E+01-1.48241E+02 4.63214E+03 9.76314E-09-8.87870E-09
 -1       864-8.37915E+04-1.04449E+00-3.28312E+01-4.66797E+02 3.76365E-09-6.85066E-09
 -1       865-8.37779E+04 3.01668E+01 6.62165E+01 4.61926E+03 3.05522E-09 5.45769E-09
 -1       866-8.38059E+04-2.25891E+01 1.72731E+02-4.56452E+02-6.19167E-10-5.31449E-09
 -1       867-8.36859E+04 1.88604E+02 4.50556E+02 4.59115E+03 3.03984E-09-1.00044E-08
 -1       868-8.38800E+04-1.57852E+02 7.54597E+02-4.38687E+02 7.04290E-11 9.46471E-10
 -1       869-8.31246E+04 1.31098E+03 2.01887E+03 4.54466E+03-9.27628E-10-4.07857E-09
 -1       870-8.43619E+04-1.11628E+03 2.92825E+03-4.09967E+02 9.94305E-10-1.57183E-09
 -1       871-4.29386E+03-9.73982E+03-1.40185E+04 9.25347E+04 1.03410E-09 2.46837E-09
 -1       872-1.84180E+03-1.28913E+04-5.73546E+03 1.19968E+05 2.98473E-09-4.18913E-09
 -1       873-1.80831E+01-1.14186E+04 7.62045E+02 9.23316E+04 1.04865E-09 5.32384E-09
 -1       874 2.15685E+03-9.41573E+03 7.82448E+03 1.20008E+05 1.30990E-09 4.23461E-09
 -1       875 5.05534E+03-1.32745E+04 1.73881E+04 9.25020E+04 4.12911E-10 1.41472E-09
 -1       876 2.26384E+05 3.88806E+04 1.20084E+04 9.17018E+04-2.93892E-09 2.37196E-09
 -1       877 2.27090E+05 4.14975E+04 6.41280E+03 9.52321E+04-5.78075E-09-3.42982E-09
 -1       878 2.27506E+05 3.75518E+04 2.68665E+03 9.26880E+04 2.06705E-09-5.93241E-09
 -1       879 2.25457E+05 3.98702E+04 1.33843E+03 9.53161E+04 2.60570E-09 4.19368E-09
 -1       880 2.27588E+05 3.75374E+04 6.23180E+02 9.27282E+04-5.11591E-10 9.20068E-10
 -1       881 2.25348E+05 3.98010E+04 3.32119E+02 9.52987E+04 4.70345E-09-8.72049E-10
 -1       882 2.27595E+05 3.75474E+04 2.11320E+02 9.27294E+04 8.76776E-09 1.30422E-08
 -1       883 2.25341E+05 3.97976E+04 2.25320E+02 9.52935E+04 3.49428E-09 9.00884E-09
 -1       884 2.27591E+05 3.75449E+04 3.56742E+02 9.27295E+04-1.58309E-10 2.41226E-09
 -1       885 2.25369E+05 3.98027E+04 7.16197E+02 9.53024E+04 2.36759E-09 7.64999E-09
 -1       886 2.27563E+05 3.75240E+04 1.44297E+03 9.27267E+04 6.33690E-10 4.29543E-09
 -1       887 2.25622E+05 3.99689E+04 3.15179E+03 9.53390E+04-1.16484E-09-7.58632E-09
 -1       888 2.27364E+05 3.75590E+04 6.35091E+03 9.26258E+04 1.23185E-09-1.70439E-09
 -1       889 2.29406E+05 4.38984E+04 1.51717E+04 9.52198E+04-1.77535E-09 1.10958E-09
 -1       890 2.24777E+05 4.06327E+04 2.84155E+04 9.02029E+04-2.43745E-09-2.65572E-09
 -1       891-1.35610E+02-1.28076E+05-1.52393E+03 2.38263E+04 1.92165E-09-2.07285E-09
 -1       892-2.37264E+02-1.28444E+05-1.65319E+03 3.60638E+04-1.28762E-09 2.95540E-09
 -1       893-3.48033E+01-1.28123E+05-2.35783E+03 2.38312E+04-2.28511E-10-3.17686E-09
 -1       894-1.28043E+03-1.29343E+05-4.89216E+03 3.59348E+04-5.14774E-10-7.15772E-09
 -1       895-1.00291E+03-1.27104E+05-8.62001E+03 2.39538E+04-5.06986E-10-1.75987E-09
 -1       956-2.85759E+05-4.06884E+03-1.02321E+04 1.92749E+04-7.07587E-10 2.60900E-09
 -1       957-2.87779E+05-1.37551E+03-5.25265E+03 2.32122E+04 6.13454E-10 3.68573E-09
 -1       958-2.86669E+05-1.12633E+02-2.36652E+03 1.91537E+04 2.56478E-09-4.85420E-09
 -1       959-2.86829E+05-2.22250E+01-1.20875E+03 2.33442E+04 6.69388E-10-6.51198E-09
 -1       960-2.86751E+05 3.15024E+01-5.89279E+02 1.91420E+04-2.54886E-09-4.94356E-09
 -1       961-2.86761E+05 2.93356E+01-3.12592E+02 2.33576E+04-5.89989E-09 8.77435E-09
 -1       962-2.86768E+05 2.78154E+01-1.78853E+02 1.91402E+04-2.88037E-09 2.53408E-09
 -1       963-2.86758E+05 3.08983E+01-1.43418E+02 2.33600E+04-3.69084E-09 1.60478E-08
 -1       964-2.86771E+05 2.99515E+01-1.73943E+02 1.91396E+04-2.34252E-09 1.86424E-09
 -1       965-2.86769E+05 3.39511E+01-3.00441E+02 2.33600E+04 4.15722E-09-6.70889E-09
 -1       966-2.86762E+05 3.78306E+01-5.63937E+02 1.91402E+04-9.77002E-09-7.38544E-09
 -1       967-2.86842E+05-1.08797E+01-1.15661E+03 2.33522E+04-1.81378E-08 2.46257E-09
 -1       968-2.86690E+05-9.58310E+01-2.26350E+03 1.91475E+04-5.65615E-09-1.50291E-09
 -1       969-2.87760E+05-1.30181E+03-5.02561E+03 2.32680E+04 1.06054E-08-7.02897E-10
 -1       970-2.85825E+05-3.87840E+03-9.78895E+03 1.92265E+04 4.29509E-09-1.40335E-09
 -1       971-2.69477E+05-1.40876E+03-7.81622E+03 1.29215E+04-2.02681E-09 2.29264E-09
 -1       972-2.71377E+05-1.01112E+03-4.25666E+03 1.80385E+04-2.38197E-09-2.47496E-09
 -1       973-2.70347E+05-1.16063E+01-1.90612E+03 1.28138E+04-4.16003E-09-1.02955E-09
 -1       974-2.70478E+05-1.20291E+01-9.87515E+02 1.81552E+04 2.37833E-10 6.79154E-09
 -1       975-2.70415E+05 2.51965E+01-4.92654E+02 1.28039E+04 1.53022E-09-3.55271E-10
 -1       976-2.70425E+05 2.90925E+01-2.82480E+02 1.81673E+04-2.11003E-09-1.25578E-08
 -1       977-2.70428E+05 2.51414E+01-2.01896E+02 1.28015E+04-4.95675E-10 1.67506E-09
 -1       978-2.70428E+05 3.37719E+01-2.32006E+02 1.81706E+04 9.02128E-09-5.53678E-09
 -1       979-2.70428E+05 3.14845E+01-3.69101E+02 1.28006E+04 6.61385E-09-1.91676E-10
 -1       980-2.70456E+05 3.60757E+01-7.10394E+02 1.81712E+04 4.46084E-09 3.31204E-09
 -1       981-2.70405E+05 4.91772E+01-1.37466E+03 1.28010E+04 2.63412E-10 5.18361E-09
 -1       982-2.70644E+05-6.54184E+01-2.84072E+03 1.81657E+04-5.60249E-10 9.56197E-09
 -1       983-2.70232E+05-3.87323E+01-5.51918E+03 1.28063E+04 6.63772E-09 3.43243E-09
 -1       984-2.73298E+05-2.94769E+03-1.23594E+04 1.80926E+04 8.77117E-09-2.83239E-09
 -1       985-2.67734E+05-4.07729E+03-2.26959E+04 1.28786E+04 9.62837E-09 1.01754E-08
 -3
    1PSTEP                        13           7           1          
  100CL  107 5.56641E-01         409                     0    7           1
 -4  DISP        4    1
 -5  D1          1    2    1    0
 -5  D2          1    2    2    0
 -5  D3          1    2    3    0
 -5  ALL         1    2    0    0    1ALL
 -1         1 2.44346E-04 0.00000E+00 0.00000E+00
 -1         2 2.17760E-04-6.09444E-32-6.61744E-24
 -1         3 1.84005E-04 2.26845E-28 1.32349E-23
 -1         5 1.16699E-04-3.08692E-27 3.30872E-24
 -1         8 2.19348E-04-8.34664E-07 0.00000E+00
 -1         9 2.09644E-04-1.14590E-06 0.00000E+00
 -1        10 1.68857E-04-2.46515E-06 6.61744E-24
 -1        12 1.16569E-04 6.12231E-07 1.65436E-24
 -1        15 1.89484E-04-9.29567E-07 4.13590E-25
 -1        16 1.95414E-04-1.41244E-06 0.00000E+00
 -1        17 1.21167E-04-5.28600E-06 0.00000E+00
 -1        18 1.14960E-04 6.81844E-06 0.00000E+00
 -1        19 1.16182E-04 1.22133E-06 0.00000E+00
 -1        20 1.16330E-04 1.17842E-05 0.00000E+00
 -1        21 1.15703E-04 2.08228E-05 0.00000E+00
 -1        24 2.34211E-05-7.42359E-06 0.00000E+00
 -1        25 1.15695E-04 6.96350E-06 0.00000E+00
 -1        26 1.16522E-04 1.69406E-06 0.00000E+00
 -1        27 1.14833E-04 9.01372E-06 0.00000E+00
 -1        28 1.14376E-04 2.03048E-05 0.00000E+00
 -1        32 0.00000E+00 0.00000E+00 0.00000E+00
 -1        33 1.15671E-04 2.27018E-06 0.00000E+00
 -1        34 1.14005E-04 8.98683E-06 0.00000E+00
 -1        35 1.12441E-04 2.00286E-05 0.00000E+00
 -1        51 2.42725E-04-1.39988E-07 0.00000E+00
 -1        52 2.39717E-04-2.73075E-07 0.00000E+00
 -1        53 2.35593E-04-4.07112E-07 0.00000E+00
 -1        54 2.30634E-04-5.43872E-07 3.30872E-24
 -1        55 2.25125E-04-6.84323E-07-6.20385E-24
 -1        56 2.42536E-04-8.28141E-07 0.00000E+00
 -1        57 2.40745E-04-1.91025E-06 0.00000E+00
 -1        58 2.39011E-04-3.13336E-06 0.00000E+00
 -1        59 2.37284E-04-4.41015E-06 0.00000E+00
 -1        60 2.35538E-04-5.63880E-06 0.00000E+00
 -1        61 2.33737E-04-6.72450E-06-2.64698E-23
 -1        62 2.31851E-04-7.58455E-06 0.00000E+00
 -1        63 2.29853E-04-8.14714E-06 2.64698E-23
 -1        64 2.27726E-04-8.36735E-06-5.29396E-23
 -1        65 2.25460E-04-8.21566E-06 2.64698E-23
 -1        66 2.23056E-04-7.69656E-06 0.00000E+00
 -1        67 2.20523E-04-6.83053E-06 0.00000E+00
 -1        68 2.17880E-04-5.67059E-06 0.00000E+00
 -1        69 2.15160E-04-4.27906E-06 0.00000E+00
 -1        70 2.12384E-04-2.74720E-06 5.29396E-23
 -1        86 2.17500E-04-1.85402E-07-6.61744E-24
 -1        87 2.16724E-04-3.71564E-07 0.00000E+00
 -1        88 2.15480E-04-5.58250E-07 0.00000E+00
 -1        89 2.13824E-04-7.48687E-07 0.00000E+00
 -1        90 2.11847E-04-9.38604E-07 0.00000E+00
 -1       121 1.83581E-04-4.06744E-07-1.32349E-23
 -1       122 1.82309E-04-8.14186E-07-6.61744E-24
 -1       123 1.80194E-04-1.22301E-06 0.00000E+00
 -1       124 1.77241E-04-1.63397E-06 0.00000E+00
 -1       125 1.73458E-04-2.04759E-06-1.32349E-23
 -1       191 1.16695E-04 1.02042E-07-3.30872E-24
 -1       192 1.16684E-04 2.04083E-07-1.65436E-24
 -1       193 1.16666E-04 3.06125E-07-3.30872E-24
 -1       194 1.16641E-04 4.08164E-07 1.65436E-24
 -1       195 1.16609E-04 5.10200E-07-3.30872E-24
 -1       251 2.18787E-04 6.65708E-06 0.00000E+00
 -1       252 2.18171E-04 1.90605E-05 6.61744E-24
 -1       253 2.17518E-04 3.43544E-05 1.32349E-23
 -1       254 2.16852E-04 5.04527E-05 6.61744E-24
 -1       255 2.16206E-04 6.50609E-05 1.32349E-23
 -1       256 2.15606E-04 7.59181E-05 0.00000E+00
 -1       257 2.15045E-04 8.17369E-05 0.00000E+00
 -1       258 2.14501E-04 8.13418E-05 0.00000E+00
 -1       259 2.13939E-04 7.51684E-05 1.32349E-23
 -1       260 2.13332E-04 6.37805E-05-6.61744E-24
 -1       261 2.12686E-04 4.90952E-05 1.32349E-23
 -1       262 2.12020E-04 3.31020E-05-6.61744E-24
 -1       263 2.11369E-04 1.81307E-05 0.00000E+00
 -1       264 2.10760E-04 6.48856E-06-6.61744E-24
 -1       265 2.10192E-04-3.82500E-07 0.00000E+00
 -1       266 2.14371E-04-8.62247E-07 0.00000E+00
 -1       267 2.09393E-04-8.76630E-07-1.65436E-24
 -1       268 2.04416E-04-8.91849E-07-1.65436E-24
 -1       269 1.99439E-04-9.04592E-07-4.13590E-25
 -1       270 1.94462E-04-9.17277E-07-4.13590E-25
 -1       271 2.16390E-04 3.13287E-06-2.64698E-23
 -1       272 2.13769E-04 6.08369E-06-1.32349E-23
 -1       273 2.11505E-04 8.09555E-06 0.00000E+00
 -1       274 2.09560E-04 9.24295E-06-2.64698E-23
 -1       275 2.07904E-04 9.62071E-06 0.00000E+00
 -1       276 2.06496E-04 9.33412E-06-2.64698E-23
 -1       277 2.05293E-04 8.50077E-06 5.29396E-23
 -1       278 2.04247E-04 7.24707E-06 2.64698E-23
 -1       279 2.03308E-04 5.70695E-06 0.00000E+00
 -1       280 2.02425E-04 4.01916E-06 2.64698E-23
 -1       281 2.01544E-04 2.32494E-06-5.29396E-23
 -1       282 2.00613E-04 7.65786E-07 2.64698E-23
 -1       283 1.99580E-04-5.19432E-07 0.00000E+00
 -1       284 1.98399E-04-1.39491E-06 1.32349E-23
 -1       285 1.97016E-04-1.73534E-06 0.00000E+00
 -1       301 2.07057E-04-1.20653E-06-1.32349E-23
 -1       302 2.04352E-04-1.24279E-06-3.30872E-24
 -1       303 2.01682E-04-1.27767E-06 6.61744E-24
 -1       304 1.99201E-04-1.31256E-06 0.00000E+00
 -1       305 1.97062E-04-1.34859E-06-2.64698E-23
 -1       306 2.13329E-04-1.88090E-05-5.29396E-23
 -1       307 2.29452E-04-7.35926E-05 0.00000E+00
 -1       308 2.54107E-04-1.56266E-04 0.00000E+00
 -1       309 2.83353E-04-2.55333E-04-2.64698E-23
 -1       310 3.12883E-04-3.55436E-04-5.29396E-23
 -1       311 3.38394E-04-4.41130E-04 0.00000E+00
 -1       312 3.55915E-04-5.00381E-04 0.00000E+00
 -1       313 3.61377E-04-5.23318E-04 0.00000E+00
 -1       314 3.52725E-04-5.08308E-04 0.00000E+00
 -1       315 3.28892E-04-4.56570E-04-2.64698E-23
 -1       316 2.92683E-04-3.77208E-04-5.29396E-23
 -1       317 2.48472E-04-2.81075E-04 2.64698E-23
 -1       318 2.03076E-04-1.82498E-04 0.00000E+00
 -1       319 1.63499E-04-9.59255E-05-2.64698E-23
 -1       320 1.34924E-04-3.33660E-05 5.29396E-23
 -1       336 1.63340E-04-2.91931E-06-1.32349E-23
 -1       337 1.56819E-04-3.37985E-06-6.61744E-24
 -1       338 1.49313E-04-3.84687E-06 0.00000E+00
 -1       339 1.40849E-04-4.32042E-06 0.00000E+00
 -1       340 1.31456E-04-4.80201E-06 0.00000E+00
 -1       406 1.16523E-04 7.14249E-07 3.30872E-24
 -1       407 1.16469E-04 8.16234E-07 1.65436E-24
 -1       408 1.16408E-04 9.18158E-07 0.00000E+00
 -1       409 1.16340E-04 1.01990E-06-1.65436E-24
 -1       410 1.16265E-04 1.12126E-06 3.30872E-24
 -1       521 2.02891E-04-3.21817E-05 0.00000E+00
 -1       522 2.28912E-04-1.22637E-04 0.00000E+00
 -1       523 2.66751E-04-2.57974E-04-1.05879E-22
 -1       524 3.10351E-04-4.19021E-04 0.00000E+00
 -1       525 3.54068E-04-5.80605E-04 0.00000E+00
 -1       526 3.92256E-04-7.17497E-04 0.00000E+00
 -1       527 4.18905E-04-8.10258E-04 0.00000E+00
 -1       528 4.27203E-04-8.43739E-04 0.00000E+00
 -1       529 4.12539E-04-8.15777E-04 0.00000E+00
 -1       530 3.72238E-04-7.29689E-04 0.00000E+00
 -1       531 3.10412E-04-6.00363E-04 0.00000E+00
 -1       532 2.34698E-04-4.45622E-04 0.00000E+00
 -1       533 1.57371E-04-2.87992E-04 0.00000E+00
 -1       534 9.10216E-05-1.50141E-04 0.00000E+00
 -1       535 4.45141E-05-5.11253E-05-5.29396E-23
 -1       536 1.20910E-04 1.02357E-05-6.61744E-24
 -1       537 1.20474E-04 3.52987E-05 0.00000E+00
 -1       538 1.19887E-04 6.61184E-05 0.00000E+00
 -1       539 1.19242E-04 9.88797E-05 0.00000E+00
 -1       540 1.18668E-04 1.29244E-04 3.30872E-24
 -1       541 1.18269E-04 1.52887E-04 1.65436E-24
 -1       542 1.18034E-04 1.67255E-04-3.30872E-24
 -1       543 1.17896E-04 1.69850E-04 1.65436E-24
 -1       544 1.17727E-04 1.61198E-04 0.00000E+00
 -1       545 1.17414E-04 1.41891E-04 0.00000E+00
 -1       546 1.16944E-04 1.15277E-04-3.30872E-24
 -1       547 1.16367E-04 8.47493E-05 0.00000E+00
 -1       548 1.15805E-04 5.47381E-05-3.30872E-24
 -1       549 1.15375E-04 2.96732E-05-1.65436E-24
 -1       550 1.15103E-04 1.26757E-05 0.00000E+00
 -1       551 1.08056E-04-5.59582E-06 0.00000E+00
 -1       552 9.26321E-05-5.93128E-06 3.30872E-24
 -1       553 7.56694E-05-6.28896E-06 1.65436E-24
 -1       554 5.79558E-05-6.66078E-06 0.00000E+00
 -1       555 4.02789E-05-7.03481E-06 0.00000E+00
 -1       556 1.17552E-04 4.04942E-06 0.00000E+00
 -1       557 1.14723E-04 1.13740E-05 0.00000E+00
 -1       558 1.12599E-04 1.68613E-05 0.00000E+00
 -1       559 1.11104E-04 2.06992E-05 0.00000E+00
 -1       560 1.10163E-04 2.30754E-05 0.00000E+00
 -1       561 1.09703E-04 2.41787E-05 0.00000E+00
 -1       562 1.09650E-04 2.41987E-05 0.00000E+00
 -1       563 1.09932E-04 2.33247E-05 0.00000E+00
 -1       564 1.10478E-04 2.17469E-05 0.00000E+00
 -1       565 1.11216E-04 1.96551E-05 0.00000E+00
 -1       566 1.12075E-04 1.72398E-05 0.00000E+00
 -1       567 1.12983E-04 1.46911E-05 2.06795E-25
 -1       568 1.13870E-04 1.21993E-05 0.00000E+00
 -1       569 1.14665E-04 9.95466E-06 0.00000E+00
 -1       570 1.15297E-04 8.14727E-06 0.00000E+00
 -1       571 1.15034E-04 6.47454E-06 8.27181E-25
 -1       572 1.15110E-04 6.08424E-06 0.00000E+00
 -1       573 1.15186E-04 5.65691E-06 0.00000E+00
 -1       574 1.15263E-04 5.20234E-06 0.00000E+00
 -1       575 1.15339E-04 4.73038E-06 0.00000E+00
 -1       576 1.15416E-04 4.25092E-06-1.65436E-24
 -1       577 1.15493E-04 3.77387E-06 3.30872E-24
 -1       578 1.15569E-04 3.30913E-06 1.65436E-24
 -1       579 1.15646E-04 2.86662E-06-3.30872E-24
 -1       580 1.15723E-04 2.45625E-06 0.00000E+00
 -1       581 1.15799E-04 2.08793E-06 0.00000E+00
 -1       582 1.15876E-04 1.77157E-06 0.00000E+00
 -1       583 1.15953E-04 1.51704E-06-6.61744E-24
 -1       584 1.16029E-04 1.33415E-06 0.00000E+00
 -1       585 1.16106E-04 1.23260E-06 0.00000E+00
 -1       586 1.15035E-04 6.84424E-06 8.27181E-25
 -1       587 1.15084E-04 6.86941E-06 0.00000E+00
 -1       588 1.15141E-04 6.89429E-06-8.27181E-25
 -1       589 1.15240E-04 6.91873E-06 0.00000E+00
 -1       590 1.15413E-04 6.94239E-06 0.00000E+00
 -1       591 1.15052E-04 6.52158E-06 1.80946E-25
 -1       592 1.15152E-04 6.19470E-06 0.00000E+00
 -1       593 1.15261E-04 5.84416E-06 0.00000E+00
 -1       594 1.15376E-04 5.47556E-06-4.13590E-25
 -1       595 1.15496E-04 5.09458E-06 8.27181E-25
 -1       596 1.15618E-04 4.70684E-06 0.00000E+00
 -1       597 1.15741E-04 4.31795E-06 4.13590E-25
 -1       598 1.15862E-04 3.93354E-06 2.06795E-25
 -1       599 1.15979E-04 3.55921E-06 4.13590E-25
 -1       600 1.16090E-04 3.20058E-06 2.06795E-25
 -1       601 1.16194E-04 2.86327E-06 0.00000E+00
 -1       602 1.16287E-04 2.55288E-06-1.03398E-25
 -1       603 1.16368E-04 2.27505E-06-2.06795E-25
 -1       604 1.16436E-04 2.03545E-06-1.03398E-25
 -1       605 1.16487E-04 1.83965E-06 0.00000E+00
 -1       606 1.16195E-04 1.38052E-06-3.30872E-24
 -1       607 1.16206E-04 1.63594E-06 0.00000E+00
 -1       608 1.16215E-04 1.98194E-06 0.00000E+00
 -1       609 1.16225E-04 2.41215E-06 0.00000E+00
 -1       610 1.16234E-04 2.92016E-06 0.00000E+00
 -1       611 1.16243E-04 3.49948E-06 0.00000E+00
 -1       612 1.16252E-04 4.14361E-06 0.00000E+00
 -1       613 1.16261E-04 4.84605E-06 0.00000E+00
 -1       614 1.16269E-04 5.60031E-06 0.00000E+00
 -1       615 1.16278E-04 6.39985E-06 0.00000E+00
 -1       616 1.16287E-04 7.23820E-06 1.65436E-24
 -1       617 1.16296E-04 8.10884E-06 0.00000E+00
 -1       618 1.16305E-04 9.00525E-06 8.27181E-25
 -1       619 1.16313E-04 9.92095E-06 0.00000E+00
 -1       620 1.16322E-04 1.08494E-05 0.00000E+00
 -1       621 1.16140E-04 1.30027E-06 0.00000E+00
 -1       622 1.16152E-04 1.37950E-06 0.00000E+00
 -1       623 1.16207E-04 1.45870E-06 1.65436E-24
 -1       624 1.16295E-04 1.53777E-06 0.00000E+00
 -1       625 1.16404E-04 1.61669E-06 0.00000E+00
 -1       626 1.16210E-04 1.40740E-06-3.30872E-24
 -1       627 1.16210E-04 1.67159E-06 0.00000E+00
 -1       628 1.16183E-04 2.00614E-06 0.00000E+00
 -1       629 1.16133E-04 2.40287E-06 0.00000E+00
 -1       630 1.16062E-04 2.85358E-06-3.30872E-24
 -1       631 1.15975E-04 3.35001E-06 0.00000E+00
 -1       632 1.15873E-04 3.88390E-06 0.00000E+00
 -1       633 1.15761E-04 4.44702E-06 0.00000E+00
 -1       634 1.15640E-04 5.03111E-06 0.00000E+00
 -1       635 1.15515E-04 5.62792E-06-1.65436E-24
 -1       636 1.15388E-04 6.22920E-06-3.30872E-24
 -1       637 1.15263E-04 6.82671E-06 0.00000E+00
 -1       638 1.15142E-04 7.41218E-06 0.00000E+00
 -1       639 1.15028E-04 7.97736E-06 8.27181E-25
 -1       640 1.14925E-04 8.51400E-06-1.65436E-24
 -1       656 1.15613E-04 1.13334E-05 0.00000E+00
 -1       657 1.15279E-04 1.08647E-05-6.61744E-24
 -1       658 1.15187E-04 1.03973E-05-1.32349E-23
 -1       659 1.15193E-04 9.93035E-06 0.00000E+00
 -1       660 1.15130E-04 9.46192E-06 6.61744E-24
 -1       661 1.16066E-04 1.26880E-05 8.27181E-25
 -1       662 1.15828E-04 1.35287E-05-8.27181E-25
 -1       663 1.15613E-04 1.43085E-05-1.65436E-24
 -1       664 1.15420E-04 1.50311E-05 8.27181E-25
 -1       665 1.15248E-04 1.56997E-05 0.00000E+00
 -1       666 1.15095E-04 1.63175E-05 0.00000E+00
 -1       667 1.14959E-04 1.68874E-05-1.65436E-24
 -1       668 1.14841E-04 1.74123E-05-8.27181E-25
 -1       669 1.14738E-04 1.78950E-05 0.00000E+00
 -1       670 1.14651E-04 1.83382E-05-8.27181E-25
 -1       671 1.14577E-04 1.87445E-05 0.00000E+00
 -1       672 1.14516E-04 1.91164E-05 8.27181E-25
 -1       673 1.14467E-04 1.94563E-05 0.00000E+00
 -1       674 1.14428E-04 1.97663E-05 0.00000E+00
 -1       675 1.14399E-04 2.00490E-05 4.13590E-25
 -1       676 1.15482E-04 2.07359E-05-3.30872E-24
 -1       677 1.15260E-04 2.06491E-05 0.00000E+00
 -1       678 1.15038E-04 2.05624E-05 3.30872E-24
 -1       679 1.14817E-04 2.04759E-05-8.27181E-25
 -1       680 1.14596E-04 2.03894E-05 0.00000E+00
 -1       771 1.70439E-05 5.95826E-06 0.00000E+00
 -1       772 1.15883E-05 1.69363E-05 2.64698E-23
 -1       773 7.01236E-06 2.56355E-05 0.00000E+00
 -1       774 3.25757E-06 3.21931E-05 2.64698E-23
 -1       775 2.66190E-07 3.67503E-05 5.29396E-23
 -1       776-2.02201E-06 3.94548E-05 0.00000E+00
 -1       777-3.66778E-06 4.04585E-05 0.00000E+00
 -1       778-4.73328E-06 3.99187E-05-2.64698E-23
 -1       779-5.28092E-06 3.79957E-05 0.00000E+00
 -1       780-5.37434E-06 3.48547E-05 0.00000E+00
 -1       781-5.07720E-06 3.06631E-05 0.00000E+00
 -1       782-4.45410E-06 2.55922E-05 0.00000E+00
 -1       783-3.56961E-06 1.98146E-05 5.29396E-23
 -1       784-2.48899E-06 1.35056E-05 0.00000E+00
 -1       785-1.27735E-06 6.84157E-06-2.64698E-23
 -1       786 1.15743E-04 6.46493E-06-2.06795E-25
 -1       787 1.15795E-04 6.00159E-06 0.00000E+00
 -1       788 1.15846E-04 5.56740E-06 0.00000E+00
 -1       789 1.15898E-04 5.15638E-06 0.00000E+00
 -1       790 1.15950E-04 4.76530E-06 0.00000E+00
 -1       791 1.16002E-04 4.39096E-06 0.00000E+00
 -1       792 1.16054E-04 4.03217E-06 0.00000E+00
 -1       793 1.16106E-04 3.68781E-06-8.27181E-25
 -1       794 1.16158E-04 3.35843E-06 1.65436E-24
 -1       795 1.16210E-04 3.04464E-06 0.00000E+00
 -1       796 1.16262E-04 2.74893E-06 0.00000E+00
 -1       797 1.16314E-04 2.47380E-06 0.00000E+00
 -1       798 1.16366E-04 2.22424E-06 0.00000E+00
 -1       799 1.16419E-04 2.00528E-06-8.27181E-25
 -1       800 1.16471E-04 1.82563E-06 0.00000E+00
 -1       801 1.07116E-04 6.03540E-06 0.00000E+00
 -1       802 8.02937E-05 4.76229E-06 0.00000E+00
 -1       803 4.68786E-05 3.31392E-06 0.00000E+00
 -1       804 1.87994E-05 2.01452E-06 0.00000E+00
 -1       805 1.50360E-06 9.40955E-07-2.64698E-23
 -1       806 1.15794E-04 6.41353E-06 0.00000E+00
 -1       807 1.15882E-04 5.88293E-06 0.00000E+00
 -1       808 1.15960E-04 5.37566E-06 1.65436E-24
 -1       809 1.16029E-04 4.89481E-06 0.00000E+00
 -1       810 1.16086E-04 4.44343E-06 3.30872E-24
 -1       811 1.16131E-04 4.02449E-06 0.00000E+00
 -1       812 1.16163E-04 3.64097E-06-3.30872E-24
 -1       813 1.16180E-04 3.29584E-06-1.65436E-24
 -1       814 1.16182E-04 2.99204E-06-3.30872E-24
 -1       815 1.16167E-04 2.73253E-06-1.65436E-24
 -1       816 1.16134E-04 2.52026E-06-1.65436E-24
 -1       817 1.16083E-04 2.35816E-06 8.27181E-25
 -1       818 1.16012E-04 2.24919E-06-1.65436E-24
 -1       819 1.15920E-04 2.19627E-06 0.00000E+00
 -1       820 1.15806E-04 2.20231E-06 1.65436E-24
 -1       821 1.16423E-04 1.54024E-06 8.27181E-25
 -1       822 1.16317E-04 1.29525E-06-8.27181E-25
 -1       823 1.16212E-04 1.03769E-06 3.30872E-24
 -1       824 1.16106E-04 8.46262E-07 0.00000E+00
 -1       825 1.15999E-04 7.85157E-07 0.00000E+00
 -1       826 1.15893E-04 9.17958E-07 0.00000E+00
 -1       827 1.15786E-04 1.26590E-06 3.30872E-24
 -1       828 1.15679E-04 1.84921E-06 1.65436E-24
 -1       829 1.15572E-04 2.63670E-06-3.30872E-24
 -1       830 1.15465E-04 3.59620E-06-1.65436E-24
 -1       831 1.15358E-04 4.65803E-06 3.30872E-24
 -1       832 1.15251E-04 5.75197E-06 0.00000E+00
 -1       833 1.15144E-04 6.80079E-06 0.00000E+00
 -1       834 1.15039E-04 7.72750E-06-8.27181E-25
 -1       835 1.14933E-04 8.48167E-06-8.27181E-25
 -1       836 1.16543E-04 1.78994E-06 0.00000E+00
 -1       837 1.16452E-04 1.88800E-06 0.00000E+00
 -1       838 1.16284E-04 1.98588E-06 1.65436E-24
 -1       839 1.16075E-04 2.08314E-06 8.27181E-25
 -1       840 1.15859E-04 2.18023E-06-4.13590E-25
 -1       856 1.14809E-04 9.49569E-06-4.13590E-25
 -1       857 1.14780E-04 1.00921E-05 0.00000E+00
 -1       858 1.14752E-04 1.07851E-05 0.00000E+00
 -1       859 1.14724E-04 1.15566E-05 0.00000E+00
 -1       860 1.14695E-04 1.23883E-05-8.27181E-25
 -1       861 1.14666E-04 1.32622E-05 0.00000E+00
 -1       862 1.14637E-04 1.41599E-05-8.27181E-25
 -1       863 1.14608E-04 1.50633E-05 0.00000E+00
 -1       864 1.14579E-04 1.59539E-05 0.00000E+00
 -1       865 1.14550E-04 1.68136E-05 0.00000E+00
 -1       866 1.14521E-04 1.76240E-05 0.00000E+00
 -1       867 1.14492E-04 1.83671E-05 0.00000E+00
 -1       868 1.14463E-04 1.90247E-05-8.27181E-25
 -1       869 1.14434E-04 1.95788E-05-4.13590E-25
 -1       870 1.14405E-04 2.00114E-05 0.00000E+00
 -1       871 1.14576E-04 9.01250E-06 0.00000E+00
 -1       872 1.14433E-04 9.00886E-06 0.00000E+00
 -1       873 1.14356E-04 9.00478E-06 0.00000E+00
 -1       874 1.14293E-04 9.00013E-06 1.55096E-25
 -1       875 1.14193E-04 8.99496E-06 6.20385E-25
 -1       876 1.14755E-04 9.50617E-06 0.00000E+00
 -1       877 1.14659E-04 1.00543E-05 1.65436E-24
 -1       878 1.14544E-04 1.06514E-05 3.30872E-24
 -1       879 1.14414E-04 1.12913E-05 0.00000E+00
 -1       880 1.14270E-04 1.19676E-05 3.30872E-24
 -1       881 1.14114E-04 1.26741E-05-1.65436E-24
 -1       882 1.13950E-04 1.34046E-05-3.30872E-24
 -1       883 1.13779E-04 1.41529E-05 0.00000E+00
 -1       884 1.13603E-04 1.49126E-05-3.30872E-24
 -1       885 1.13426E-04 1.56777E-05 0.00000E+00
 -1       886 1.13249E-04 1.64419E-05 3.30872E-24
 -1       887 1.13074E-04 1.71989E-05-1.65436E-24
 -1       888 1.12904E-04 1.79425E-05 0.00000E+00
 -1       889 1.12742E-04 1.86664E-05-8.27181E-25
 -1       890 1.12588E-04 1.93643E-05 1.65436E-24
 -1       891 1.14177E-04 2.02586E-05 1.65436E-24
 -1       892 1.13959E-04 2.02122E-05 8.27181E-25
 -1       893 1.13698E-04 2.01658E-05 8.27181E-25
 -1       894 1.13373E-04 2.01196E-05 0.00000E+00
 -1       895 1.12962E-04 2.00734E-05 4.13590E-25
 -1       956 1.15568E-04 2.46590E-06 0.00000E+00
 -1       957 1.15465E-04 2.72664E-06 8.27181E-25
 -1       958 1.15360E-04 3.04522E-06-1.65436E-24
 -1       959 1.15256E-04 3.41407E-06-8.27181E-25
 -1       960 1.15152E-04 3.82562E-06 0.00000E+00
 -1       961 1.15047E-04 4.27222E-06-1.65436E-24
 -1       962 1.14943E-04 4.74625E-06 3.30872E-24
 -1       963 1.14838E-04 5.24008E-06 0.00000E+00
 -1       964 1.14734E-04 5.74605E-06 0.00000E+00
 -1       965 1.14629E-04 6.25653E-06-1.65436E-24
 -1       966 1.14525E-04 6.76388E-06-3.30872E-24
 -1       967 1.14420E-04 7.26045E-06 0.00000E+00
 -1       968 1.14316E-04 7.73861E-06-3.30872E-24
 -1       969 1.14212E-04 8.19075E-06-1.65436E-24
 -1       970 1.14108E-04 8.60927E-06 3.30872E-24
 -1       971 1.13909E-04 9.38112E-06-1.65436E-24
 -1       972 1.13811E-04 9.85977E-06 8.27181E-25
 -1       973 1.13713E-04 1.04135E-05-1.65436E-24
 -1       974 1.13615E-04 1.10326E-05-1.65436E-24
 -1       975 1.13516E-04 1.17073E-05 3.30872E-24
 -1       976 1.13418E-04 1.24281E-05 0.00000E+00
 -1       977 1.13320E-04 1.31852E-05 0.00000E+00
 -1       978 1.13221E-04 1.39689E-05-1.65436E-24
 -1       979 1.13123E-04 1.47694E-05 0.00000E+00
 -1       980 1.13025E-04 1.55770E-05-1.65436E-24
 -1       981 1.12926E-04 1.63821E-05 0.00000E+00
 -1       982 1.12828E-04 1.71748E-05-1.65436E-24
 -1       983 1.12730E-04 1.79455E-05-3.30872E-24
 -1       984 1.12632E-04 1.86845E-05-1.65436E-24
 -1       985 1.12535E-04 1.93820E-05 0.00000E+00
 -3
    1PSTEP                        14           7           1          
  100CL  107 5.56641E-01         409                     0    7           1
 -4  STRESS      6    1
 -5  SXX         1    4    1    1
 -5  SYY         1    4    2    2
 -5  SZZ         1    4    3    3
 -5  SXY         1    4    1    2
 -5  SYZ         1    4    2    3
 -5  SZX         1    4    3    1
 -1         1-2.49084E+06-1.03828E+06-5.31059E+05-1.29711E+06 6.54836E-11 4.67116E-09
 -1         2 2.50315E+03-5.26968E+05 8.12294E+03-1.17033E+03-3.86535E-12-1.53326E-08
 -1         3-3.20323E+02-1.16038E+06 2.79437E+02-7.77566E+02-2.69292E-10-1.51376E-08
 -1         5-1.14103E+00 2.91968E+05 7.46589E+00 5.08602E-02 3.06886E-11 5.49494E-09
 -1         8-1.15476E+06-4.05294E+05-1.25616E+05-5.26472E+05 3.45608E-11-1.62399E-08
 -1         9-2.08445E+06-8.43812E+05-2.56136E+05-7.90358E+05 7.22939E-09 4.47035E-09
 -1        10-1.08401E+03-1.20891E+06-1.76629E+03-5.26172E+03-6.13454E-09-4.64362E-08
 -1        12 1.92341E+00 2.91983E+05 2.41684E+02 3.94503E-01 3.97833E-11 9.01764E-10
 -1        15 1.94943E+03 1.07133E+03 6.30153E+03 4.19590E+00-1.24118E-10 1.50865E-08
 -1        16-2.09359E+06-1.20389E+06-3.43743E+05-1.33280E+06 1.04192E-08 4.63721E-09
 -1        17-1.20442E+06-6.10497E+05-2.13034E+05-5.09880E+05-4.79049E-09 2.77651E-09
 -1        18-2.62227E+04-1.12815E+04-2.93930E+04-7.82858E+04 6.61714E-09 1.36879E-10
 -1        19 9.34678E+04 1.08389E+05-7.17076E+02 1.83575E+04-1.68984E-10 1.16124E-09
 -1        20-4.63444E+04-4.42255E+05-9.80675E+04 2.87127E+04 2.97481E-09 5.98569E-09
 -1        21-4.02340E+01-2.48541E+05-7.95096E+02-3.78265E+01-4.89714E-09-1.14510E-08
 -1        24-2.70551E+06-5.10435E+05-2.46718E+05-8.58897E+05-5.01459E-08-2.41659E-08
 -1        25-9.02911E+04-5.22926E+05-1.04224E+05-1.22695E+05-3.40333E-10 8.23602E-09
 -1        26-3.17540E+04 7.14044E+04-1.71717E+04-6.04555E+03 1.42936E-09 6.58039E-09
 -1        27-6.61577E+04-2.41173E+05-8.98788E+04 5.44740E+04 5.20913E-09-3.11168E-09
 -1        28 1.91340E+04-6.95027E+04 1.40922E+04 2.06418E+04 1.29810E-09-4.03465E-09
 -1        32-1.20567E+06-1.46297E+06 9.54736E+04-5.56182E+05-2.68301E-08-1.49564E-09
 -1        33-1.40607E+05 6.98924E+04 2.49393E+04-3.52717E+04 2.88139E-10 1.56391E-08
 -1        34-1.78466E+05-1.81216E+04 4.59850E+02 5.62168E+04 2.24521E-09-3.59675E-09
 -1        35-1.94931E+04-2.76101E+04-1.08801E+03 4.32971E+04 2.51324E-09-2.90553E-09
 -1        51 2.38317E+04-3.38672E+05 5.70760E+04-9.49691E+05 5.82077E-11 1.61526E-09
 -1        52 1.21170E+04-3.34073E+05 3.49152E+04-1.10754E+06 1.08412E-09 5.74801E-10
 -1        53 7.25746E+03-3.48973E+05 2.59696E+04-9.46332E+05 1.20781E-09 9.12405E-09
 -1        54 1.98369E+04-3.47390E+05 3.71010E+04-1.11102E+06 1.30967E-10 4.11419E-08
 -1        55 3.90531E+04-3.60989E+05 6.34605E+04-9.45784E+05 6.83940E-10 1.74150E-08
 -1        56-4.75401E+06-5.31814E+05-3.91017E+05-1.83855E+06-1.65892E-09-9.22591E-09
 -1        57-4.93037E+06-8.67456E+05-2.63763E+05-1.80172E+06 6.63022E-10 5.93718E-09
 -1        58-4.83152E+06-6.57059E+05-9.19400E+04-1.81517E+06-2.76850E-09 1.55487E-08
 -1        59-4.84111E+06-7.19933E+05-5.48909E+04-1.82883E+06 3.64344E-09 1.25183E-08
 -1        60-4.84217E+06-6.75192E+05-2.14358E+04-1.81278E+06-9.94532E-10-8.84211E-09
 -1        61-4.83055E+06-6.96845E+05-1.21487E+04-1.82942E+06 4.87717E-11-2.34559E-09
 -1        62-4.84182E+06-6.79621E+05-5.77618E+03-1.81469E+06-2.91197E-09 3.48473E-09
 -1        63-4.83377E+06-6.89309E+05-4.62101E+03-1.82405E+06-3.36070E-09 1.28725E-08
 -1        64-4.83887E+06-6.82692E+05-5.11851E+03-1.81812E+06 6.08679E-10 1.27609E-08
 -1        65-4.84129E+06-6.85043E+05-1.01647E+04-1.81662E+06-6.19480E-10-2.87262E-08
 -1        66-4.83431E+06-6.83942E+05-1.77317E+04-1.82212E+06-1.58161E-09-1.22036E-08
 -1        67-4.85780E+06-6.96189E+05-4.51916E+04-1.80719E+06 1.41517E-09-3.27964E-08
 -1        68-4.82258E+06-6.71975E+05-7.56749E+04-1.82745E+06-1.01591E-09 4.13274E-09
 -1        69-4.93458E+06-8.14314E+05-2.17024E+05-1.78125E+06-6.76664E-10 2.06310E-08
 -1        70-4.75853E+06-5.69208E+05-3.21810E+05-1.84700E+06 2.19734E-09 1.25146E-08
 -1        86-1.25423E+03-5.29459E+05 8.71688E+03 5.85164E+02 8.69022E-10-3.78921E-09
 -1        87 8.31217E+03-5.24213E+05 1.81594E+04-2.21583E+03 1.42131E-09 2.42305E-09
 -1        88-7.04119E+03-5.32214E+05 2.78612E+04 1.63069E+03 2.01544E-09 6.94763E-09
 -1        89 5.24705E+04-5.03845E+05 7.50398E+04-3.93209E+03 3.07955E-09-5.24523E-10
 -1        90-4.52540E+04-5.49799E+05 1.06164E+05 2.30171E+03 2.72121E-09 5.84416E-09
 -1       121-4.62060E+02-1.16157E+06 1.03198E+02 3.87760E+02 7.39973E-10 1.10049E-09
 -1       122-2.21891E+02-1.16034E+06 5.89719E+02-1.55346E+03-2.44580E-09 8.97944E-09
 -1       123-5.16157E+02-1.16164E+06 7.84029E+02 1.15960E+03 2.02397E-09 8.27276E-09
 -1       124 8.87380E+02-1.15974E+06 2.42282E+03-3.32041E+03-5.04110E-09 8.25094E-09
 -1       125-1.19898E+03-1.16226E+06 3.53917E+03 2.15074E+03 3.20870E-09-1.96815E-09
 -1       191-1.44774E+00 2.91993E+05 9.13925E+00-2.54964E-02 5.04965E-11-4.79668E-09
 -1       192-1.82488E+00 2.91968E+05 1.57966E+01 2.18865E-01 7.47509E-11-6.03109E-10
 -1       193-3.26688E+00 2.91993E+05 2.95863E+01-1.93922E-01 9.88720E-12 4.61000E-09
 -1       194-4.02597E+00 2.91970E+05 5.97223E+01 5.18870E-01 2.84111E-11 2.21037E-08
 -1       195-6.76301E+00 2.91991E+05 1.17028E+02-3.26932E-01 7.42091E-11 3.10501E-09
 -1       251-1.55138E+06 2.12967E+04-5.72929E+04-3.29528E+04 1.50067E-10-3.89628E-09
 -1       252-1.55418E+06-2.40875E+04-3.61548E+04 8.46051E+04 7.63578E-10-4.50154E-09
 -1       253-1.54836E+06 3.08350E+03-1.40166E+04-5.19681E+04 3.66072E-11 9.69158E-09
 -1       254-1.54955E+06-2.03329E+03-7.73766E+03 9.38323E+04 5.16593E-09-1.34668E-08
 -1       255-1.55653E+06-2.47782E+02-4.89455E+03-4.21909E+04-4.45425E-10 3.42538E-09
 -1       256-1.52675E+06 8.32049E+02 2.88903E+03 5.07945E+04-7.68523E-09 9.98534E-09
 -1       257-1.56909E+06-1.42976E+03-4.82179E+03-8.90523E+03 4.72937E-10 7.17608E-09
 -1       258-1.51915E+06 1.19070E+03 5.91324E+03-2.07817E+04 2.86309E-09 1.20751E-08
 -1       259-1.56342E+06-1.17812E+03-2.70793E+03 2.93572E+04-9.60426E-09 5.60010E-09
 -1       260-1.53952E+06 1.95170E+03 2.96663E+03-8.07115E+04 2.67346E-09-5.90859E-10
 -1       261-1.55072E+06-5.78457E+02 9.91084E+02 5.10278E+04 1.31680E-08 4.49577E-09
 -1       262-1.54791E+06 3.33733E+03 3.36441E+03-9.56684E+04-4.13078E-09-8.78458E-09
 -1       263-1.55590E+06-1.85652E+03 2.96013E+03 4.43301E+04 1.57115E-09 7.23799E-09
 -1       264-1.52471E+06 1.02856E+04 1.57128E+04-5.75525E+04 1.70890E-08 2.55951E-08
 -1       265-1.57198E+06-9.05632E+03 1.13565E+04 1.28855E+04 3.91401E-09 2.24145E-08
 -1       266-3.52902E+04-1.64993E+04 8.28124E+04-8.97900E+01 0.00000E+00 1.93276E-08
 -1       267 4.09121E+04 1.92340E+04 5.85247E+04 1.03586E+02 7.00311E-11 5.65700E-09
 -1       268-5.48619E+03-2.72387E+03 2.17537E+04-1.31995E+01 9.09495E-13 4.78094E-09
 -1       269 6.47764E+03 3.26012E+03 1.41392E+04 1.53746E+01 1.18234E-11 1.50695E-08
 -1       270-9.72301E+02-5.35653E+02 6.82522E+03-2.08647E+00-8.45830E-11 9.79866E-09
 -1       271-3.26290E+06-4.07883E+05-2.46332E+05-1.27013E+06-7.71252E-10-1.41590E-08
 -1       272-3.35208E+06-5.86954E+05-1.58408E+05-1.26702E+06 6.98606E-11-9.60426E-09
 -1       273-3.31028E+06-4.68308E+05-5.81962E+04-1.25795E+06 1.95087E-09-1.38316E-08
 -1       274-3.29586E+06-5.13622E+05-3.25483E+04-1.28608E+06 2.26009E-10-1.17507E-08
 -1       275-3.31824E+06-4.73100E+05-1.35612E+04-1.25428E+06 1.03500E-09 3.40697E-09
 -1       276-3.28573E+06-5.08738E+05-7.16089E+03-1.29244E+06 6.50743E-10 3.65023E-08
 -1       277-3.32072E+06-4.72094E+05-3.52045E+03-1.25222E+06-4.82032E-10-1.06343E-08
 -1       278-3.28263E+06-5.10397E+05-2.49293E+03-1.29582E+06-3.35217E-09 1.03728E-09
 -1       279-3.32168E+06-4.71149E+05-2.62807E+03-1.25117E+06-1.34651E-09 1.58411E-09
 -1       280-3.28223E+06-5.11857E+05-4.77224E+03-1.29692E+06-2.78192E-10-8.80277E-09
 -1       281-3.32126E+06-4.70588E+05-8.65528E+03-1.25120E+06 1.38954E-10 1.90357E-09
 -1       282-3.28699E+06-5.16763E+05-2.07637E+04-1.29509E+06 3.02725E-09 9.99989E-10
 -1       283-3.31691E+06-4.66826E+05-3.69498E+04-1.25275E+06 3.76673E-10-1.84245E-08
 -1       284-3.32172E+06-5.64354E+05-1.00732E+05-1.28401E+06 6.91637E-09-2.25118E-08
 -1       285-3.28705E+06-4.28209E+05-1.56599E+05-1.26022E+06 2.45200E-09-8.62201E-09
 -1       301 2.11107E+04-9.15480E+04 1.70362E+05-1.75285E+05 3.49246E-10-1.43245E-10
 -1       302 2.51253E+04-4.80397E+04 1.11696E+05-2.60896E+05-1.08480E-09 2.10343E-09
 -1       303 1.24801E+03-7.43177E+04 8.43643E+04-1.75124E+05 2.49202E-10 4.90945E-09
 -1       304 2.80872E+04-4.42909E+04 1.22290E+05-2.60469E+05-6.54836E-11-8.00355E-10
 -1       305 2.35511E+04-9.36794E+04 1.93592E+05-1.75771E+05-1.89175E-10 1.62800E-08
 -1       306-6.70156E+06-6.37964E+05-6.22584E+05-2.12084E+06-6.77392E-09-1.45519E-08
 -1       307-4.68259E+06-1.70234E+06-1.58476E+05-3.17333E+06-1.29679E-07-1.46974E-09
 -1       308-6.68404E+06-2.87061E+05-1.24441E+05-1.50989E+06-1.46538E-08 3.46336E-08
 -1       309-4.93771E+06-1.87522E+06-3.03664E+04-3.95570E+06 6.29861E-08 1.71576E-09
 -1       310-6.68301E+06-2.87145E+05-3.50467E+04-1.48396E+06-1.87756E-08-1.27875E-09
 -1       311-4.61035E+06-1.57984E+06 1.09754E+05-3.29158E+06 9.46202E-08-3.53339E-08
 -1       312-6.79735E+06-7.40592E+05-1.64973E+05-2.04468E+06 9.31323E-09 2.35632E-08
 -1       313-4.77964E+06-7.25553E+05 2.24243E+05-1.90894E+06-2.19879E-08 1.71567E-08
 -1       314-6.29322E+06-1.29796E+06-1.79589E+05-2.68423E+06 3.86935E-08-8.00355E-10
 -1       315-6.34175E+06 2.70001E+05 1.26398E+05-1.11267E+06-5.64796E-08 7.98900E-09
 -1       316-5.43796E+06-1.58629E+06-5.34432E+04-2.96818E+06-1.33470E-07-7.21484E-08
 -1       317-7.52255E+06 7.06260E+05-4.01217E+04-1.00724E+06 1.00950E-07-1.01064E-07
 -1       318-5.32919E+06-1.58412E+06-1.28437E+05-2.98829E+06-1.28202E-07-1.33150E-08
 -1       319-6.76089E+06 2.02572E+05-2.27589E+05-1.03090E+06-2.71539E-08 1.19962E-08
 -1       320-6.03844E+06-1.19724E+06-6.81415E+05-2.79145E+06 3.06172E-08-2.95404E-09
 -1       336 5.50202E+02-1.25746E+06-7.33569E+03 3.09390E+03-1.27411E-08-1.73022E-08
 -1       337-2.72655E+03-1.25867E+06-8.30486E+03-7.58186E+03-2.39029E-08-1.94905E-08
 -1       338 4.22712E+02-1.25757E+06-1.12089E+04 4.45751E+03-1.62941E-08-4.01997E-09
 -1       339-1.16454E+04-1.26446E+06-2.46562E+04-1.02459E+04-2.97696E-08-2.04182E-09
 -1       340 7.73118E+03-1.25205E+06-3.83273E+04 5.73269E+03-1.99034E-08 1.77042E-08
 -1       406 2.05920E+01 2.91980E+05 4.77358E+02-7.04660E-02 1.63169E-10-3.23394E-09
 -1       407 1.68255E+02 2.92067E+05 1.01407E+03-1.96073E+00 3.50298E-11-1.06718E-09
 -1       408 5.24069E+02 2.91907E+05 2.02557E+03 2.08161E+00 1.47679E-10-6.83212E-09
 -1       409 2.19158E+03 2.92714E+05 4.55961E+03-2.06215E+01-4.26326E-11-5.63546E-09
 -1       410 6.29335E+03 2.91332E+05 9.30841E+03 1.94425E+01 1.58707E-10 7.18330E-09
 -1       521-8.94222E+06-9.24812E+05-1.04566E+06-2.47003E+06-1.65892E-08 4.22006E-08
 -1       522-4.39483E+06-2.27856E+06-2.95822E+04-4.51506E+06-1.25903E-07 2.71393E-09
 -1       523-8.49931E+06-1.16485E+05-1.78514E+05-1.31217E+06 1.31113E-08-7.04022E-08
 -1       524-5.60404E+06-2.50731E+06 1.03656E+04-6.09504E+06 1.56646E-07-1.52206E-07
 -1       525-8.49692E+06-1.22442E+05-6.49353E+04-1.29579E+06 1.34562E-07-1.14405E-07
 -1       526-4.33383E+06-2.13950E+06 3.04967E+05-4.60352E+06 7.79983E-09-6.25951E-08
 -1       527-9.02867E+06-1.03699E+06-4.46118E+05-2.41318E+06-9.69158E-09-7.77072E-09
 -1       528-4.10714E+06-6.34305E+05 5.68713E+05-1.69256E+06 3.93047E-08 4.77412E-08
 -1       529-8.05925E+06-2.09007E+06-4.69219E+05-3.61104E+06-1.80444E-08 2.83471E-08
 -1       530-7.62829E+06 1.35117E+06 3.34661E+05-5.19485E+05-1.26718E-07 1.15397E-07
 -1       531-6.20644E+06-2.50264E+06-8.80875E+04-3.99195E+06-1.52795E-07 3.49246E-10
 -1       532-1.02819E+07 2.18250E+06 1.64743E+04-7.86857E+05 1.61529E-07-1.41282E-07
 -1       533-6.03777E+06-2.49923E+06-1.47408E+05-4.00184E+06 3.74857E-08-2.34989E-07
 -1       534-8.24432E+06 1.40049E+06-3.46333E+04-5.08555E+05-6.31844E-08 1.71578E-07
 -1       535-7.73945E+06-2.05835E+06-9.85506E+05-3.72779E+06-1.30967E-09 1.02300E-07
 -1       536-4.21955E+05-2.36669E+04 3.28112E+04-1.77770E+04-5.16866E-09 3.22962E-08
 -1       537-3.15621E+05 2.59853E+04 3.93288E+04 4.36136E+04-5.17450E-08 4.57208E-08
 -1       538-3.70301E+05-1.98378E+03 1.10482E+04-2.68729E+04 1.31865E-08 3.49887E-08
 -1       539-3.48744E+05 3.34252E+03 1.03716E+04 4.90583E+04 5.85373E-08 4.18853E-08
 -1       540-3.89456E+05-5.41975E+02-1.26626E+03-2.32459E+04-1.35515E-10 3.56483E-08
 -1       541-2.81691E+05 3.20986E+03 1.88793E+04 2.95317E+04-2.06978E-09 2.59028E-08
 -1       542-4.35547E+05-3.32212E+03-1.29841E+04-7.29528E+03 2.24152E-08 2.25155E-08
 -1       543-2.47141E+05 4.22254E+03 2.44332E+04-6.95153E+03 5.16684E-09-1.74527E-08
 -1       544-4.23090E+05-2.29851E+03-1.14841E+04 1.31918E+04 4.44993E-09-1.91070E-08
 -1       545-3.10064E+05 7.37154E+02 1.01260E+04-3.95432E+04-1.16713E-08-1.70670E-08
 -1       546-3.74278E+05 1.50445E+03-3.70356E+03 2.52831E+04 1.16324E-08-3.12747E-08
 -1       547-3.56489E+05-3.65687E+03-4.25934E+03-5.08123E+04-5.28821E-08-3.69984E-08
 -1       548-3.77861E+05 3.06445E+03-1.29256E+04 2.45003E+04-4.10481E-08-3.02184E-08
 -1       549-3.07754E+05-1.49260E+04-1.48201E+04-3.63794E+04-2.57551E-08-2.72066E-08
 -1       550-4.21557E+05 1.15795E+04-5.51686E+04 1.08052E+04 1.94541E-09-1.00245E-08
 -1       551 2.08442E+04-6.28651E+05 2.48308E+04-1.03082E+06-5.37475E-08-1.10595E-09
 -1       552 4.65910E+04-6.43341E+05 3.25418E+04-1.46858E+06-3.94648E-08 1.84154E-08
 -1       553 3.34030E+04-6.48915E+05 4.71639E+04-1.02681E+06-6.13290E-08 1.40062E-08
 -1       554 7.44222E+04-6.41293E+05 9.86059E+04-1.47009E+06-3.91374E-08 1.10092E-08
 -1       555 6.18957E+04-6.67823E+05 1.74738E+05-1.02776E+06-6.57310E-08-3.38696E-09
 -1       556 1.14559E+05-2.10325E+05 6.55270E+04-2.61427E+05-1.69675E-08-3.52156E-09
 -1       557 1.98720E+05-2.78045E+05 3.48356E+04-3.29420E+05-1.92304E-08 5.28507E-09
 -1       558 1.11572E+05-2.17519E+05 1.34424E+04-2.55238E+05-1.57015E-08-3.52156E-09
 -1       559 1.84586E+05-2.86147E+05 7.02493E+03-3.36711E+05 1.58252E-08-3.76895E-09
 -1       560 1.07000E+05-2.14573E+05 2.53361E+03-2.58319E+05 2.93949E-09-7.93989E-09
 -1       561 1.78192E+05-2.84053E+05 1.49499E+03-3.40840E+05 1.39698E-09-5.28598E-09
 -1       562 1.03383E+05-2.12236E+05 3.82855E+02-2.60916E+05 2.67755E-09-2.49565E-09
 -1       563 1.73946E+05-2.82212E+05 3.66930E+02-3.43567E+05 9.60063E-09-4.60602E-09
 -1       564 1.01002E+05-2.10728E+05 7.61930E+01-2.62598E+05 7.09406E-09-4.22278E-09
 -1       565 1.71497E+05-2.81150E+05 1.27484E+02-3.45118E+05 6.97401E-09 3.72711E-09
 -1       566 9.99138E+04-2.10028E+05 1.79005E+01-2.63366E+05-3.48518E-09 1.57888E-09
 -1       567 1.70803E+05-2.80835E+05-5.87667E+01-3.45470E+05 1.24246E-08-6.33008E-10
 -1       568 1.00161E+05-2.10195E+05-3.27877E+02-2.63278E+05 1.48793E-09 1.04592E-08
 -1       569 1.71024E+05-2.80732E+05-8.00305E+02-3.43844E+05-5.25324E-09 2.16660E-08
 -1       570 1.02438E+05-2.12076E+05-1.90284E+03-2.62958E+05 2.02999E-09 1.42745E-08
 -1       571 2.18775E+05 8.06155E+03 1.18795E+04-5.68986E+04 1.93772E-08 4.44220E-09
 -1       572 2.20536E+05 2.83910E+03 5.82048E+03-6.23998E+04 3.96158E-08-5.50517E-09
 -1       573 2.19481E+05 7.11719E+02 2.58587E+03-5.67666E+04 2.15391E-08 2.61025E-09
 -1       574 2.19684E+05 2.68970E+02 1.29584E+03-6.25510E+04 2.30580E-09-2.93949E-09
 -1       575 2.19559E+05 7.73792E+01 6.11068E+02-5.67491E+04 2.79942E-09 7.58882E-09
 -1       576 2.19570E+05 6.02242E+01 3.11697E+02-6.25712E+04 4.12456E-10 2.25236E-09
 -1       577 2.19575E+05 4.08673E+01 1.54584E+02-5.67468E+04 4.91355E-10 2.18324E-09
 -1       578 2.19566E+05 4.58682E+01 8.65351E+01-6.25737E+04-1.60321E-09 5.35920E-09
 -1       579 2.19596E+05 3.34545E+01 5.66223E+01-5.67467E+04 6.29370E-10-4.69345E-09
 -1       580 2.19595E+05 3.31078E+01 5.94893E+01-6.25704E+04-1.58252E-09 1.11777E-09
 -1       581 2.19631E+05 1.91418E+01 8.72523E+01-5.67501E+04 3.35604E-09 7.11907E-09
 -1       582 2.19657E+05 3.52211E+01 1.72017E+02-6.25350E+04 1.92813E-09-1.29921E-09
 -1       583 2.19671E+05 7.23515E+01 3.32379E+02-5.67821E+04 1.05847E-08 2.05364E-09
 -1       584 2.19829E+05 3.35362E+02 7.47474E+02-6.22670E+04 1.91967E-08-1.62049E-09
 -1       585 2.19637E+05 9.90826E+02 1.51830E+03-5.70186E+04 9.20227E-09 1.05083E-08
 -1       586-2.70144E+03 7.18246E+04-3.33769E+03-1.95569E+05-1.43609E-09 1.12619E-08
 -1       587-6.35468E+02 7.14079E+04-1.30389E+02-2.15255E+05-6.96673E-10 2.47785E-08
 -1       588 7.36511E+02 7.14564E+04 2.96486E+03-1.95473E+05-4.83851E-10 1.25465E-08
 -1       589 4.04554E+03 7.30675E+04 8.30115E+03-2.15035E+05-7.89441E-10 4.63933E-09
 -1       590 1.18968E+04 7.05264E+04 1.76528E+04-1.95800E+05-2.45564E-10 1.03410E-08
 -1       591-4.52897E+04-1.20432E+04-1.54096E+04-2.22091E+04-1.28978E-09-2.35286E-09
 -1       592-4.72188E+04-1.53430E+04-8.34667E+03-2.56754E+04-2.68636E-09-9.03458E-09
 -1       593-4.68404E+04-1.09153E+04-3.47462E+03-2.33296E+04-1.30910E-09-2.39106E-09
 -1       594-4.50790E+04-1.30951E+04-1.73296E+03-2.57723E+04-2.92943E-09 2.69759E-09
 -1       595-4.69590E+04-1.09107E+04-7.96161E+02-2.33808E+04-5.92507E-09 2.44368E-09
 -1       596-4.49335E+04-1.29922E+04-4.05516E+02-2.57563E+04-1.90403E-09 8.55437E-09
 -1       597-4.69739E+04-1.09209E+04-2.22485E+02-2.33828E+04-2.07282E-09 1.11069E-08
 -1       598-4.49194E+04-1.29882E+04-1.81918E+02-2.57518E+04-1.73145E-10 5.13822E-09
 -1       599-4.69728E+04-1.09210E+04-2.36207E+02-2.33824E+04 3.13776E-09 3.54396E-09
 -1       600-4.49345E+04-1.29933E+04-4.41852E+02-2.57554E+04 1.39227E-09-3.80794E-10
 -1       601-4.69543E+04-1.09106E+04-8.73281E+02-2.33794E+04-1.65619E-09 6.21185E-10
 -1       602-4.50939E+04-1.31060E+04-1.90404E+03-2.57705E+04-2.66573E-09-1.10322E-09
 -1       603-4.68221E+04-1.09178E+04-3.81886E+03-2.33234E+04-5.69116E-10-8.69477E-09
 -1       604-4.74560E+04-1.55649E+04-9.17349E+03-2.56488E+04 1.65983E-10 1.04205E-09
 -1       605-4.51048E+04-1.21680E+04-1.69360E+04-2.21035E+04 3.83102E-09 9.47512E-09
 -1       606 2.78032E+04-1.04931E+04-1.88694E+04 2.69065E+04 1.04219E-08 3.77895E-09
 -1       607 2.45733E+04-3.39648E+03-9.39596E+03 3.02082E+04 2.13913E-08-4.53474E-09
 -1       608 2.64052E+04-5.84090E+02-4.20763E+03 2.66949E+04 9.48421E-09 1.01597E-08
 -1       609 2.60422E+04-1.63986E+02-2.12513E+03 3.04451E+04-3.56522E-10 2.55841E-09
 -1       610 2.62359E+04 1.34913E+01-1.01503E+03 2.66710E+04 7.31234E-10-1.14323E-09
 -1       611 2.61688E+04 2.55457E+01-5.11770E+02 3.04709E+04-6.17683E-09-4.05112E-09
 -1       612 2.61907E+04 3.01931E+01-2.44525E+02 2.66687E+04 2.54568E-09-1.64846E-09
 -1       613 2.61664E+04 3.47027E+01-1.10676E+02 3.04740E+04 1.03155E-08-1.75987E-10
 -1       614 2.61659E+04 3.09019E+01-2.92061E+01 2.66679E+04-1.46701E-09-5.11864E-09
 -1       615 2.61538E+04 4.05961E+01 3.89226E+01 3.04745E+04-1.10522E-08 2.07433E-09
 -1       616 2.61470E+04 3.71430E+01 1.23518E+02 2.66682E+04-1.71353E-08-2.30261E-09
 -1       617 2.61621E+04 7.09158E+01 2.84708E+02 3.04739E+04-1.76349E-08 3.41379E-09
 -1       618 2.61175E+04 1.22288E+02 5.74799E+02 2.66683E+04-1.15142E-08-7.60792E-10
 -1       619 2.63611E+04 5.17874E+02 1.29148E+03 3.04731E+04-3.57431E-09 3.18255E-09
 -1       620 2.59241E+04 1.48761E+03 2.59595E+03 2.66672E+04-6.36078E-10 7.05904E-09
 -1       621 2.84862E+02 2.26874E+05 2.58757E+03 1.34465E+04-5.28644E-11-3.70801E-09
 -1       622 3.42726E+02 2.27509E+05 2.35724E+03 1.95807E+04 1.00044E-10-1.20135E-08
 -1       623 1.97397E+01 2.27030E+05 2.92016E+03 1.33822E+04 4.52758E-11-8.35757E-09
 -1       624 1.38478E+03 2.28454E+05 5.72811E+03 1.96460E+04 2.77964E-11-7.81017E-09
 -1       625 1.39169E+03 2.25907E+05 1.00441E+04 1.33807E+04 7.82165E-11 1.43871E-09
 -1       626 1.97234E+05 5.25462E+04 4.22265E+03 1.03613E+05-2.72348E-09-9.80799E-09
 -1       627 1.94833E+05 5.41871E+04 2.03487E+03 1.07680E+05-1.89721E-09-4.68322E-09
 -1       628 1.97367E+05 5.05776E+04 8.59657E+02 1.04284E+05 6.69388E-10 3.14185E-09
 -1       629 1.94256E+05 5.36737E+04 4.21042E+02 1.07922E+05 3.56158E-09 6.74925E-09
 -1       630 1.97375E+05 5.04849E+04 1.94510E+02 1.04305E+05-1.30876E-09-1.26778E-08
 -1       631 1.94188E+05 5.36595E+04 1.04023E+02 1.07922E+05 1.18462E-09 1.42732E-09
 -1       632 1.97365E+05 5.04919E+04 6.72939E+01 1.04297E+05-4.88262E-09-5.72140E-09
 -1       633 1.94174E+05 5.36647E+04 7.32521E+01 1.07914E+05-2.53749E-09 5.10857E-09
 -1       634 1.97355E+05 5.04928E+04 1.16781E+02 1.04292E+05 3.73029E-09 1.05933E-09
 -1       635 1.94180E+05 5.36659E+04 2.35560E+02 1.07914E+05 1.85150E-09 1.36924E-09
 -1       636 1.97344E+05 5.04911E+04 4.75191E+02 1.04289E+05-6.73708E-10-8.16135E-09
 -1       637 1.94278E+05 5.37410E+04 1.04417E+03 1.07911E+05-1.65983E-10 3.53793E-09
 -1       638 1.97304E+05 5.07232E+04 2.14560E+03 1.04183E+05-4.22278E-09-4.05726E-09
 -1       639 1.95403E+05 5.53087E+04 5.07593E+03 1.07577E+05-4.86352E-10-2.91470E-09
 -1       640 1.97154E+05 5.53972E+04 1.05336E+04 1.02203E+05 1.46883E-09 1.13314E-08
 -1       656 5.23296E+04-1.32864E+06-1.26322E+05-5.18896E+02-3.56522E-10-5.79871E-09
 -1       657-6.91770E+04-1.38567E+06-1.04530E+05 7.54642E+03 4.22006E-10-8.40311E-09
 -1       658 1.66253E+04-1.34489E+06-6.42256E+04-1.95125E+03 9.02219E-10 9.02810E-09
 -1       659-7.43913E+04-1.38815E+06-1.11379E+05 8.56238E+03-4.56566E-10-7.29374E-09
 -1       660 5.75318E+04-1.32618E+06-1.38100E+05-1.53483E+03-1.49885E-09 2.26112E-09
 -1       661 1.68972E+05 1.82685E+04 1.65589E+04 6.60750E+04 1.46656E-09 7.15318E-09
 -1       662 1.77801E+05 3.10544E+04 1.11583E+04 6.29655E+04 6.25846E-10 8.56244E-09
 -1       663 1.72220E+05 2.35834E+04 3.90310E+03 6.51348E+04-1.49498E-10-9.12905E-10
 -1       664 1.74039E+05 2.48352E+04 2.33389E+03 6.41108E+04 1.04592E-10 9.81936E-09
 -1       665 1.72709E+05 2.43130E+04 9.20663E+02 6.49956E+04-2.70825E-09-1.74370E-09
 -1       666 1.73463E+05 2.39980E+04 5.37414E+02 6.42906E+04-4.23830E-09 2.26705E-09
 -1       667 1.72793E+05 2.43987E+04 2.83917E+02 6.49632E+04-3.47396E-09-3.83934E-09
 -1       668 1.73373E+05 2.39326E+04 2.85793E+02 6.43376E+04 4.98760E-09-1.75987E-09
 -1       669 1.72799E+05 2.43764E+04 3.84032E+02 6.49492E+04 1.22057E-09 1.18199E-08
 -1       670 1.73468E+05 2.41382E+04 8.33561E+02 6.43390E+04 3.60863E-09 8.95868E-09
 -1       671 1.72698E+05 2.41972E+04 1.47913E+03 6.49601E+04-1.87633E-09 5.35340E-09
 -1       672 1.74329E+05 2.55773E+04 3.78362E+03 6.41310E+04-1.52937E-09 5.74573E-10
 -1       673 1.71942E+05 2.29735E+04 6.34046E+03 6.51433E+04-1.86208E-09 1.97201E-09
 -1       674 1.80366E+05 3.57622E+04 1.81323E+04 6.23563E+04 8.93465E-10 9.51513E-09
 -1       675 1.66701E+05 1.42972E+04 2.69143E+04 6.66274E+04-1.11504E-09-5.85351E-09
 -1       676 2.06303E+01-2.48475E+05-9.58297E+02 1.89137E+01-1.15452E-09 2.43666E-09
 -1       677-2.54478E+02-2.48706E+05-1.75381E+03-3.78046E+01-2.21746E-09 5.17665E-09
 -1       678 1.69884E+02-2.48310E+05-3.10028E+03 1.88780E+01-4.01315E-10-1.52822E-09
 -1       679-3.10114E+03-2.50578E+05-7.36481E+03-3.76680E+01-5.14319E-10 3.24764E-09
 -1       680 1.85077E+03-2.46604E+05-1.18696E+04 1.85629E+01 2.96495E-10 7.47946E-09
 -1       771-2.64196E+06-5.19828E+05-7.68415E+04-1.15665E+06-1.89175E-08-1.58325E-08
 -1       772-2.60757E+06-5.68933E+05-4.05018E+04-1.21237E+06-1.14960E-08 5.42786E-09
 -1       773-2.65501E+06-5.09529E+05-1.88382E+04-1.16128E+06-6.73754E-09 6.64295E-09
 -1       774-2.59874E+06-5.60811E+05-8.80188E+03-1.22118E+06 1.55051E-08 3.21597E-09
 -1       775-2.66005E+06-5.05969E+05-5.40241E+03-1.16252E+06-1.20781E-09 2.25918E-09
 -1       776-2.60072E+06-5.60644E+05-2.22634E+03-1.22704E+06-4.62023E-09 2.46291E-09
 -1       777-2.66412E+06-5.02970E+05-1.98909E+03-1.16358E+06-1.16415E-09 3.54339E-09
 -1       778-2.60318E+06-5.60626E+05-6.53661E+02-1.23200E+06-6.70843E-09 7.02858E-09
 -1       779-2.66750E+06-5.00412E+05-9.08363E+02-1.16450E+06-8.22911E-09-2.52658E-09
 -1       780-2.60538E+06-5.60561E+05-2.50882E+02-1.23601E+06-3.65617E-09 6.87578E-10
 -1       781-2.67013E+06-4.98379E+05-4.85335E+02-1.16522E+06-1.23982E-08-9.29504E-10
 -1       782-2.60709E+06-5.60478E+05-2.69356E+02-1.23896E+06-1.72695E-08-3.55794E-09
 -1       783-2.67193E+06-4.97001E+05-5.77255E+02-1.16572E+06 1.52795E-09-2.26373E-09
 -1       784-2.60844E+06-5.60687E+05-1.09238E+03-1.24074E+06-9.34597E-09 2.01908E-10
 -1       785-2.67265E+06-4.96447E+05-2.07605E+03-1.16583E+06-1.88993E-08 3.88718E-09
 -1       786 1.44910E+05-9.32193E+03 2.15661E+04-9.90118E+01 1.13947E-09 8.06085E-09
 -1       787 1.54259E+05 1.07919E+04 1.52574E+04 2.62965E+01 2.42753E-09 1.29735E-08
 -1       788 1.48516E+05-1.46126E+03 5.58089E+03-7.63502E+01 1.11761E-09 8.66748E-10
 -1       789 1.50058E+05 1.69066E+03 3.50521E+03-1.05316E+01-7.68596E-10 5.62341E-09
 -1       790 1.49111E+05-2.28115E+02 1.42321E+03-6.21871E+01-4.54592E-10 1.23379E-09
 -1       791 1.49363E+05 2.64171E+02 8.29743E+02-3.55477E+01-1.56408E-09-3.29742E-09
 -1       792 1.49211E+05-3.58500E+01 3.67111E+02-5.13342E+01-7.17626E-10-1.72312E-09
 -1       793 1.49247E+05 4.47543E+01 2.16997E+02-5.68282E+01-2.76026E-10-1.37454E-08
 -1       794 1.49227E+05-8.83848E+00 1.24698E+02-4.09063E+01 8.65743E-10-7.85355E-09
 -1       795 1.49238E+05 3.18959E+01 1.28291E+02-7.98232E+01-7.67363E-10 3.91494E-10
 -1       796 1.49220E+05-2.29958E+01 1.60665E+02-2.83388E+01 3.20640E-10-4.06755E-09
 -1       797 1.49303E+05 1.65474E+02 3.52781E+02-1.10149E+02 7.87619E-10-9.15996E-11
 -1       798 1.49163E+05-1.42320E+02 5.48442E+02-1.05799E+01 1.90020E-10-1.22168E-09
 -1       799 1.49711E+05 1.05045E+03 1.48768E+03-1.55229E+02 3.52909E-10-1.18039E-08
 -1       800 1.48811E+05-9.07270E+02 2.09925E+03 1.67423E+01 7.42908E-11 8.55800E-09
 -1       801 7.78165E+04-2.74435E+06-2.56126E+05 4.96103E+04 1.81753E-08-2.06546E-09
 -1       802-9.27093E+04-2.50584E+06-1.14500E+05-5.23938E+04 4.92273E-08-6.25596E-09
 -1       803 1.27327E+04-2.62658E+06-4.65620E+04 1.28958E+05 3.57431E-08 2.96485E-08
 -1       804 1.47759E+04-2.49243E+06 2.55317E+04-1.81469E+03 3.41570E-08 2.99534E-08
 -1       805-3.11238E+04-2.75740E+06 9.05614E+03-9.76102E+02 1.29985E-08 1.94714E-08
 -1       806-2.40432E+05-4.68535E+04-1.82429E+04-9.53843E+04-7.46240E-09-1.28989E-08
 -1       807-2.41923E+05-4.38214E+04-8.96248E+03-9.97403E+04-6.63749E-09-1.40171E-08
 -1       808-2.40926E+05-4.02868E+04-3.80211E+03-9.85031E+04-8.76707E-09 6.19974E-09
 -1       809-2.40037E+05-4.13055E+04-1.85905E+03-9.99648E+04-1.25481E-08 4.15525E-09
 -1       810-2.41002E+05-4.00574E+04-8.51739E+02-9.86416E+04-3.65162E-09 7.79301E-09
 -1       811-2.39892E+05-4.12042E+04-4.23164E+02-9.99383E+04 9.32232E-10-9.96977E-09
 -1       812-2.41015E+05-4.00760E+04-2.12924E+02-9.86416E+04-1.06047E-09 9.21500E-09
 -1       813-2.39873E+05-4.12058E+04-1.36864E+02-9.99252E+04 8.21046E-10-2.58387E-09
 -1       814-2.41012E+05-4.00827E+04-1.32883E+02-9.86389E+04-2.14141E-09-9.85574E-09
 -1       815-2.39877E+05-4.12074E+04-2.12035E+02-9.99212E+04-8.54925E-10 3.54794E-09
 -1       816-2.40998E+05-4.00809E+04-4.00139E+02-9.86367E+04-1.48430E-09 4.40605E-09
 -1       817-2.39946E+05-4.12454E+04-8.58709E+02-9.99144E+04-4.22688E-09-4.52292E-09
 -1       818-2.40948E+05-4.02007E+04-1.75081E+03-9.85800E+04-3.21961E-10-7.57746E-09
 -1       819-2.40906E+05-4.23030E+04-4.12035E+03-9.96897E+04 2.74486E-09-3.74030E-10
 -1       820-2.40623E+05-4.33086E+04-8.38590E+03-9.72456E+04 1.88720E-09 5.03883E-09
 -1       821-2.97622E+05 1.64635E+04-3.80753E+04 3.15465E+02 1.60249E-09 8.59654E-09
 -1       822-3.14116E+05-1.90593E+04-2.69431E+04-1.01561E+03-1.50244E-09 1.99620E-08
 -1       823-3.03985E+05 2.58152E+03-9.86120E+03 3.34035E+02-3.25535E-10 3.89855E-09
 -1       824-3.06684E+05-2.98746E+03-6.20333E+03-8.48728E+02-2.40537E-10 6.06860E-10
 -1       825-3.05051E+05 4.03741E+02-2.55266E+03 1.48581E+02-6.87052E-10 1.45690E-09
 -1       826-3.05438E+05-4.75695E+02-1.53494E+03-3.57725E+02-2.15078E-09-5.44648E-09
 -1       827-3.05231E+05 7.10402E+01-8.02297E+02-1.56977E+02-2.49130E-09-1.26120E-08
 -1       828-3.05272E+05-1.45279E+02-7.02891E+02 2.37857E+02-4.53309E-09-1.18119E-08
 -1       829-3.05217E+05 7.36289E+01-8.17757E+02-4.47011E+02-4.83713E-10-7.29139E-09
 -1       830-3.05479E+05-4.93484E+02-1.59363E+03 6.73308E+02 1.74190E-09-1.75973E-09
 -1       831-3.05024E+05 4.19578E+02-2.64307E+03-5.92437E+02-2.88890E-09-2.78305E-10
 -1       832-3.06755E+05-3.10037E+03-6.44100E+03 7.55358E+02-1.70106E-09 3.45540E-09
 -1       833-3.03942E+05 2.67879E+03-1.02374E+04-5.29062E+02-2.53818E-09 5.95037E-09
 -1       834-3.14430E+05-1.97829E+04-2.79644E+04 4.46893E+02-1.46378E-09 1.72090E-08
 -1       835-2.97351E+05 1.70888E+04-3.95306E+04-2.83959E+02 5.41576E-09 7.14317E-09
 -1       836-1.00777E+03 2.80713E+05 1.70109E+04-1.84173E+04 3.05590E-10 2.67391E-09
 -1       837 3.71421E+03 2.85999E+05 1.45554E+04-3.70225E+04 7.56245E-10-9.92986E-09
 -1       838-3.83301E+02 2.82174E+05 1.50554E+04-1.83487E+04 4.78394E-10-6.00426E-09
 -1       839 9.65180E+03 2.90423E+05 2.87014E+04-3.70582E+04 1.12868E-09-7.85485E-09
 -1       840-2.92212E+03 2.76246E+05 4.58637E+04-1.83806E+04 4.92946E-10-1.73691E-09
 -1       856-7.80681E+04 7.57893E+03-1.99728E+04-4.31623E+02-2.87321E-09 5.32418E-09
 -1       857-8.63149E+04-8.89085E+03-1.37504E+04 4.72041E+03-5.72726E-10 1.01763E-08
 -1       858-8.13274E+04 1.06199E+03-5.18329E+03-4.53613E+02-1.99179E-09-2.71939E-10
 -1       859-8.25728E+04-1.23615E+03-3.12984E+03 4.75518E+03-3.82300E-10 2.35440E-09
 -1       860-8.18145E+04 1.47786E+02-1.31496E+03-4.66476E+02 1.74276E-09 3.68624E-09
 -1       861-8.20119E+04-1.64199E+02-7.30198E+02 4.77279E+03-7.31400E-09-1.29014E-08
 -1       862-8.18904E+04 1.95294E+01-3.17211E+02-4.71256E+02 6.12286E-09-2.23730E-09
 -1       863-8.19213E+04-1.15397E+01-1.46601E+02 4.77505E+03 8.65602E-09 5.64132E-10
 -1       864-8.19054E+04-1.48963E+00-2.53063E+01-4.68738E+02 3.68524E-09 4.60826E-09
 -1       865-8.18880E+04 3.41599E+01 8.55194E+01 4.76216E+03 2.12789E-09 2.89604E-09
 -1       866-8.19220E+04-2.65796E+01 2.08174E+02-4.58358E+02-1.97392E-09-1.04031E-08
 -1       867-8.17802E+04 2.21677E+02 5.35584E+02 4.73394E+03 1.02000E-09-4.42796E-09
 -1       868-8.20095E+04-1.86756E+02 8.95351E+02-4.40517E+02 1.33207E-09 5.61681E-09
 -1       869-8.11164E+04 1.55205E+03 2.39284E+03 4.68719E+03-2.39470E-09-1.16565E-08
 -1       870-8.25802E+04-1.32248E+03 3.47107E+03-4.11614E+02 2.65618E-09-5.76165E-09
 -1       871-4.47044E+03-1.05298E+04-1.46677E+04 9.71501E+04 5.39330E-10-3.34876E-09
 -1       872-1.89766E+03-1.38359E+04-6.01348E+03 1.25953E+05 9.98625E-10-6.55291E-10
 -1       873 2.90200E+00-1.22883E+04 7.65719E+02 9.69371E+04 4.59067E-10 1.62959E-09
 -1       874 2.26825E+03-1.02158E+04 8.11268E+03 1.25993E+05 2.00271E-09 1.12323E-09
 -1       875 5.26967E+03-1.42128E+04 1.80505E+04 9.71159E+04 7.95808E-10-4.83760E-09
 -1       876 2.35250E+05 4.03108E+04 1.24159E+04 9.51859E+04-4.26041E-10 1.39516E-09
 -1       877 2.35994E+05 4.30021E+04 6.63046E+03 9.88205E+04-5.81372E-09-6.54245E-09
 -1       878 2.36410E+05 3.89371E+04 2.77784E+03 9.62056E+04 8.89031E-10-4.51564E-10
 -1       879 2.34305E+05 4.13193E+04 1.38390E+03 9.89069E+04 3.34614E-09 9.88211E-09
 -1       880 2.36493E+05 3.89222E+04 6.44398E+02 9.62472E+04-6.13909E-12-4.57328E-09
 -1       881 2.34193E+05 4.12476E+04 3.43547E+02 9.88887E+04 1.83684E-09 2.23056E-09
 -1       882 2.36502E+05 3.89327E+04 2.18805E+02 9.62484E+04 1.55978E-10-2.81275E-10
 -1       883 2.34185E+05 4.12441E+04 2.33642E+02 9.88832E+04 2.33445E-09-7.10394E-09
 -1       884 2.36497E+05 3.89302E+04 3.70233E+02 9.62485E+04 1.21088E-09-1.41890E-08
 -1       885 2.34215E+05 4.12494E+04 7.43479E+02 9.88924E+04 4.19601E-09-9.25422E-09
 -1       886 2.36468E+05 3.89084E+04 1.49803E+03 9.62456E+04 7.28929E-09-5.08999E-09
 -1       887 2.34478E+05 4.14220E+04 3.27210E+03 9.89304E+04 1.78272E-09-1.17484E-08
 -1       888 2.36261E+05 3.89448E+04 6.59334E+03 9.61408E+04 6.21012E-09-9.88166E-10
 -1       889 2.38406E+05 4.55018E+04 1.57507E+04 9.88072E+04 4.80543E-09 8.58881E-09
 -1       890 2.33575E+05 4.21359E+04 2.95002E+04 9.36256E+04 2.09207E-09 1.55705E-09
 -1       891-1.35904E+02-1.32760E+05-1.58637E+03 2.44132E+04 2.22053E-09-1.58198E-08
 -1       892-2.38842E+02-1.33146E+05-1.71832E+03 3.69593E+04 6.95309E-10-1.08032E-08
 -1       893-3.09069E+01-1.32810E+05-2.44804E+03 2.44183E+04 1.53887E-09 4.42833E-09
 -1       894-1.32096E+03-1.34078E+05-5.07740E+03 3.68267E+04 8.46740E-10 1.01663E-08
 -1       895-1.03579E+03-1.31752E+05-8.94567E+03 2.45443E+04 1.22782E-11 2.50111E-10
 -1       956-2.97584E+05-4.20967E+03-1.05764E+04 2.02551E+04-1.73350E-09-4.87194E-09
 -1       957-2.99671E+05-1.42620E+03-5.42938E+03 2.43923E+04-3.12502E-09 1.97815E-09
 -1       958-2.98525E+05-1.19948E+02-2.44617E+03 2.01303E+04 1.30149E-09-4.23074E-09
 -1       959-2.98690E+05-2.70321E+01-1.24943E+03 2.45289E+04-3.90173E-10-1.25738E-10
 -1       960-2.98610E+05 2.93318E+01-6.09164E+02 2.01182E+04-3.39696E-09-4.80736E-09
 -1       961-2.98620E+05 2.64765E+01-3.23247E+02 2.45428E+04-4.00883E-09-2.27851E-09
 -1       962-2.98628E+05 2.56469E+01-1.85164E+02 2.01163E+04-3.01429E-09 1.08685E-10
 -1       963-2.98617E+05 2.81312E+01-1.48875E+02 2.45452E+04-4.32021E-09 1.04947E-08
 -1       964-2.98631E+05 2.78297E+01-1.81067E+02 2.01157E+04-1.44553E-09-4.04498E-10
 -1       965-2.98628E+05 3.11567E+01-3.13174E+02 2.45451E+04 2.11227E-09-3.02953E-09
 -1       966-2.98621E+05 3.58127E+01-5.88111E+02 2.01164E+04-8.76298E-10 2.67403E-09
 -1       967-2.98704E+05-1.59326E+01-1.20631E+03 2.45367E+04 1.34241E-09 8.34507E-09
 -1       968-2.98545E+05-1.03994E+02-2.36089E+03 2.01242E+04-1.72713E-09 6.78398E-10
 -1       969-2.99660E+05-1.36284E+03-5.24179E+03 2.44460E+04-7.39965E-09-1.12512E-08
 -1       970-2.97643E+05-4.04972E+03-1.02102E+04 2.02086E+04-3.87627E-09 6.09543E-09
 -1       971-2.79631E+05-1.45508E+03-8.05624E+03 1.32954E+04-3.81351E-09-5.03985E-09
 -1       972-2.81587E+05-1.04616E+03-4.38735E+03 1.85502E+04-2.35377E-09-5.57975E-10
 -1       973-2.80527E+05-1.48248E+01-1.96471E+03 1.31848E+04-1.40153E-09-5.54564E-10
 -1       974-2.80661E+05-1.62236E+01-1.01791E+03 1.86704E+04-1.97815E-10-1.66929E-08
 -1       975-2.80597E+05 2.32893E+01-5.07955E+02 1.31745E+04-3.96994E-10 5.45958E-09
 -1       976-2.80607E+05 2.63206E+01-2.91475E+02 1.86831E+04-4.04361E-09 6.38124E-09
 -1       977-2.80611E+05 2.33636E+01-2.08741E+02 1.31720E+04-2.96041E-10 6.36328E-09
 -1       978-2.80610E+05 3.12500E+01-2.40437E+02 1.86866E+04 1.04933E-08 1.38924E-08
 -1       979-2.80611E+05 3.00074E+01-3.83016E+02 1.31710E+04 5.89000E-09 8.55835E-09
 -1       980-2.80639E+05 3.36673E+01-7.37493E+02 1.86872E+04 3.97881E-09 3.42300E-09
 -1       981-2.80587E+05 4.83810E+01-1.42727E+03 1.31714E+04 3.98586E-10-1.96155E-09
 -1       982-2.80835E+05-7.17393E+01-2.94954E+03 1.86815E+04-1.11504E-09-9.82121E-09
 -1       983-2.80408E+05-4.29385E+01-5.73067E+03 1.31769E+04 1.15369E-09-3.61297E-10
 -1       984-2.83590E+05-3.06455E+03-1.28331E+04 1.86064E+04-1.12959E-09-2.43369E-09
 -1       985-2.77813E+05-4.23629E+03-2.35657E+04 1.32505E+04 2.78078E-09-7.15954E-09
 -3
    1PSTEP                        15           8           1          
  100CL  108 5.74219E-01         409                     0    8           1
 -4  DISP        4    1
 -5  D1          1    2    1    0
 -5  D2          1    2    2    0
 -5  D3          1    2    3    0
 -5  ALL         1    2    0    0    1ALL
 -1         1 5.35207E-04 0.00000E+00 0.00000E+00
 -1         2 4.93203E-04 5.78448E-29 1.32349E-23
 -1         3 2.15310E-04-1.48256E-27 0.00000E+00
 -1         5 1.29558E-04-5.29847E-26 3.30872E-24
 -1         8 5.12487E-04-7.41538E-07 0.00000E+00
 -1         9 4.94090E-04-1.82723E-06 0.00000E+00
 -1        10 1.96812E-04-2.81496E-06 0.00000E+00
 -1        12 1.29731E-04 6.38384E-07 0.00000E+00
 -1        15 4.85248E-04-8.22054E-07 0.00000E+00
 -1        16 4.91508E-04-2.27975E-06 0.00000E+00
 -1        17 1.38887E-04-6.08713E-06 0.00000E+00
 -1        18 1.28962E-04 1.10449E-05 0.00000E+00
 -1        19 1.30250E-04 1.27353E-06 0.00000E+00
 -1        20 1.30397E-04 8.42224E-06 0.00000E+00
 -1        21 1.29729E-04 1.35731E-05 0.00000E+00
 -1        24 2.47587E-05-8.58812E-06 0.00000E+00
 -1        25 1.31346E-04 1.11997E-05 0.00000E+00
 -1        26 1.32066E-04 1.76425E-06 0.00000E+00
 -1        27 1.30312E-04 5.52114E-06 0.00000E+00
 -1        28 1.29887E-04 1.30389E-05 0.00000E+00
 -1        32 0.00000E+00 0.00000E+00 0.00000E+00
 -1        33 1.32781E-04 2.36454E-06 0.00000E+00
 -1        34 1.31039E-04 5.49100E-06 0.00000E+00
 -1        35 1.29415E-04 1.27524E-05 0.00000E+00
 -1        51 5.33738E-04-1.27530E-07 0.00000E+00
 -1        52 5.31009E-04-2.46083E-07 0.00000E+00
 -1        53 5.27264E-04-3.64734E-07 0.00000E+00
 -1        54 5.22758E-04-4.85337E-07 0.00000E+00
 -1        55 5.17747E-04-6.09028E-07-5.37667E-24
 -1        56 5.32952E-04-7.13776E-07-5.29396E-23
 -1        57 5.30526E-04-1.21626E-06 2.64698E-23
 -1        58 5.28011E-04-1.47037E-06 0.00000E+00
 -1        59 5.25393E-04-1.49152E-06-2.64698E-23
 -1        60 5.22698E-04-1.30853E-06-5.29396E-23
 -1        61 5.19941E-04-9.67027E-07 0.00000E+00
 -1        62 5.17146E-04-5.28638E-07 0.00000E+00
 -1        63 5.14340E-04-6.10533E-08 2.64698E-23
 -1        64 5.11550E-04 3.65212E-07 5.29396E-23
 -1        65 5.08801E-04 6.81857E-07 0.00000E+00
 -1        66 5.06115E-04 8.32298E-07 0.00000E+00
 -1        67 5.03512E-04 7.69519E-07 2.64698E-23
 -1        68 5.00999E-04 4.68381E-07-5.29396E-23
 -1        69 4.98591E-04-7.86102E-08 0.00000E+00
 -1        70 4.96268E-04-8.62138E-07-5.29396E-23
 -1        86 4.93234E-04-3.00665E-07 0.00000E+00
 -1        87 4.93327E-04-6.01762E-07 6.61744E-24
 -1        88 4.93472E-04-9.02932E-07 1.32349E-23
 -1        89 4.93658E-04-1.20682E-06 0.00000E+00
 -1        90 4.93870E-04-1.50979E-06 0.00000E+00
 -1       121 2.14791E-04-4.63093E-07 0.00000E+00
 -1       122 2.13237E-04-9.27225E-07 0.00000E+00
 -1       123 2.10653E-04-1.39342E-06 0.00000E+00
 -1       124 2.07046E-04-1.86275E-06-6.61744E-24
 -1       125 2.02427E-04-2.33604E-06 1.32349E-23
 -1       191 1.29563E-04 1.06402E-07-3.30872E-24
 -1       192 1.29578E-04 2.12802E-07 0.00000E+00
 -1       193 1.29602E-04 3.19202E-07 0.00000E+00
 -1       194 1.29635E-04 4.25601E-07 1.65436E-24
 -1       195 1.29678E-04 5.31996E-07 0.00000E+00
 -1       251 5.11843E-04 1.25699E-05 1.32349E-23
 -1       252 5.10824E-04 4.31605E-05 6.61744E-24
 -1       253 5.09403E-04 8.56017E-05 0.00000E+00
 -1       254 5.07711E-04 1.34192E-04-6.61744E-24
 -1       255 5.06072E-04 1.81579E-04-1.32349E-23
 -1       256 5.04787E-04 2.20439E-04 0.00000E+00
 -1       257 5.03907E-04 2.45733E-04 0.00000E+00
 -1       258 5.03311E-04 2.52735E-04 6.61744E-24
 -1       259 5.02679E-04 2.41545E-04 1.32349E-23
 -1       260 5.01707E-04 2.12685E-04-6.61744E-24
 -1       261 5.00328E-04 1.71350E-04 0.00000E+00
 -1       262 4.98646E-04 1.23016E-04 0.00000E+00
 -1       263 4.96980E-04 7.50399E-05-1.32349E-23
 -1       264 4.95640E-04 3.47719E-05 0.00000E+00
 -1       265 4.94710E-04 7.48867E-06-1.32349E-23
 -1       266 5.07948E-04-7.65525E-07 0.00000E+00
 -1       267 5.03408E-04-7.77657E-07 0.00000E+00
 -1       268 4.98868E-04-7.90538E-07 0.00000E+00
 -1       269 4.94328E-04-8.01196E-07 0.00000E+00
 -1       270 4.89788E-04-8.11802E-07 0.00000E+00
 -1       271 5.09761E-04 3.03164E-06-2.64698E-23
 -1       272 5.07249E-04 6.12504E-06-1.32349E-23
 -1       273 5.04989E-04 8.55644E-06 0.00000E+00
 -1       274 5.02969E-04 1.03364E-05-1.32349E-23
 -1       275 5.01184E-04 1.14902E-05 2.64698E-23
 -1       276 4.99622E-04 1.20504E-05 0.00000E+00
 -1       277 4.98266E-04 1.20592E-05 2.64698E-23
 -1       278 4.97099E-04 1.15669E-05-1.32349E-23
 -1       279 4.96097E-04 1.06315E-05 2.64698E-23
 -1       280 4.95237E-04 9.31790E-06 1.32349E-23
 -1       281 4.94493E-04 7.69665E-06 0.00000E+00
 -1       282 4.93835E-04 5.84305E-06 1.32349E-23
 -1       283 4.93236E-04 3.83590E-06 2.64698E-23
 -1       284 4.92667E-04 1.75758E-06 1.32349E-23
 -1       285 4.92093E-04-3.11241E-07-2.64698E-23
 -1       301 4.93663E-04-1.92017E-06-1.32349E-23
 -1       302 4.92821E-04-1.98754E-06 0.00000E+00
 -1       303 4.91874E-04-2.05345E-06 6.61744E-24
 -1       304 4.91133E-04-2.11925E-06-1.32349E-23
 -1       305 4.90908E-04-2.18656E-06-1.32349E-23
 -1       306 5.08517E-04-5.31083E-05 0.00000E+00
 -1       307 5.49422E-04-2.01760E-04 0.00000E+00
 -1       308 6.04560E-04-4.23202E-04 5.29396E-23
 -1       309 6.65263E-04-6.85602E-04 2.64698E-23
 -1       310 7.25759E-04-9.46385E-04 0.00000E+00
 -1       311 7.80130E-04-1.16312E-03 0.00000E+00
 -1       312 8.19426E-04-1.30489E-03 0.00000E+00
 -1       313 8.31212E-04-1.34827E-03 2.64698E-23
 -1       314 8.04848E-04-1.29224E-03 0.00000E+00
 -1       315 7.33229E-04-1.14488E-03 2.64698E-23
 -1       316 6.22924E-04-9.32094E-04-5.29396E-23
 -1       317 4.88087E-04-6.82960E-04 0.00000E+00
 -1       318 3.52692E-04-4.33018E-04-5.29396E-23
 -1       319 2.40849E-04-2.17811E-04-2.64698E-23
 -1       320 1.67202E-04-6.67279E-05 0.00000E+00
 -1       336 1.90088E-04-3.33706E-06 0.00000E+00
 -1       337 1.82146E-04-3.86833E-06 0.00000E+00
 -1       338 1.73016E-04-4.40911E-06 0.00000E+00
 -1       339 1.62736E-04-4.95947E-06 0.00000E+00
 -1       340 1.51344E-04-5.52146E-06 0.00000E+00
 -1       406 1.29794E-04 7.44760E-07 0.00000E+00
 -1       407 1.29866E-04 8.51101E-07-1.65436E-24
 -1       408 1.29947E-04 9.57380E-07 0.00000E+00
 -1       409 1.30039E-04 1.06347E-06 1.65436E-24
 -1       410 1.30140E-04 1.16916E-06-3.30872E-24
 -1       521 5.07944E-04-6.26631E-05 1.05879E-22
 -1       522 5.52951E-04-2.34515E-04 0.00000E+00
 -1       523 6.12187E-04-4.90066E-04-1.05879E-22
 -1       524 6.76189E-04-7.92101E-04 0.00000E+00
 -1       525 7.39967E-04-1.09175E-03 0.00000E+00
 -1       526 7.98282E-04-1.34039E-03 0.00000E+00
 -1       527 8.41131E-04-1.50213E-03 1.05879E-22
 -1       528 8.53778E-04-1.55093E-03 0.00000E+00
 -1       529 8.22208E-04-1.48533E-03-1.05879E-22
 -1       530 7.37190E-04-1.31614E-03 0.00000E+00
 -1       531 6.05534E-04-1.07271E-03 0.00000E+00
 -1       532 4.44153E-04-7.88511E-04 5.29396E-23
 -1       533 2.81870E-04-5.03103E-04 0.00000E+00
 -1       534 1.47728E-04-2.56064E-04 0.00000E+00
 -1       535 5.94470E-05-8.12150E-05-1.05879E-22
 -1       536 1.38550E-04 1.37269E-05 0.00000E+00
 -1       537 1.37873E-04 4.71503E-05 0.00000E+00
 -1       538 1.36898E-04 8.90253E-05 0.00000E+00
 -1       539 1.35788E-04 1.34149E-04-1.65436E-24
 -1       540 1.34795E-04 1.76412E-04 3.30872E-24
 -1       541 1.34128E-04 2.09719E-04 0.00000E+00
 -1       542 1.33779E-04 2.30408E-04 0.00000E+00
 -1       543 1.33627E-04 2.34891E-04 0.00000E+00
 -1       544 1.33427E-04 2.23763E-04 0.00000E+00
 -1       545 1.32960E-04 1.97719E-04 0.00000E+00
 -1       546 1.32193E-04 1.61347E-04-3.30872E-24
 -1       547 1.31211E-04 1.19296E-04 0.00000E+00
 -1       548 1.30251E-04 7.77757E-05 0.00000E+00
 -1       549 1.29538E-04 4.29951E-05 0.00000E+00
 -1       550 1.29129E-04 1.93190E-05 0.00000E+00
 -1       551 1.23394E-04-6.44397E-06 0.00000E+00
 -1       552 1.05409E-04-6.83490E-06-3.30872E-24
 -1       553 8.57358E-05-7.25437E-06-3.30872E-24
 -1       554 6.51922E-05-7.69210E-06 0.00000E+00
 -1       555 4.45957E-05-8.13354E-06 0.00000E+00
 -1       556 1.34487E-04 5.25496E-06 0.00000E+00
 -1       557 1.31016E-04 1.42302E-05 0.00000E+00
 -1       558 1.28379E-04 2.10381E-05 0.00000E+00
 -1       559 1.26489E-04 2.58947E-05 0.00000E+00
 -1       560 1.25259E-04 2.90157E-05 2.64698E-23
 -1       561 1.24603E-04 3.06184E-05 0.00000E+00
 -1       562 1.24437E-04 3.09206E-05 0.00000E+00
 -1       563 1.24677E-04 3.01405E-05 0.00000E+00
 -1       564 1.25240E-04 2.84967E-05 0.00000E+00
 -1       565 1.26044E-04 2.62080E-05 0.00000E+00
 -1       566 1.27007E-04 2.34935E-05 0.00000E+00
 -1       567 1.28047E-04 2.05724E-05 8.27181E-25
 -1       568 1.29083E-04 1.76638E-05 1.65436E-24
 -1       569 1.30032E-04 1.49868E-05 0.00000E+00
 -1       570 1.30813E-04 1.27605E-05 0.00000E+00
 -1       571 1.29040E-04 1.04190E-05-1.65436E-24
 -1       572 1.29120E-04 9.74557E-06-4.13590E-25
 -1       573 1.29201E-04 9.03489E-06 0.00000E+00
 -1       574 1.29281E-04 8.29756E-06-8.27181E-25
 -1       575 1.29362E-04 7.54427E-06 3.30872E-24
 -1       576 1.29442E-04 6.78575E-06 0.00000E+00
 -1       577 1.29523E-04 6.03272E-06 0.00000E+00
 -1       578 1.29604E-04 5.29595E-06 1.65436E-24
 -1       579 1.29685E-04 4.58618E-06 0.00000E+00
 -1       580 1.29765E-04 3.91415E-06 0.00000E+00
 -1       581 1.29846E-04 3.29061E-06 0.00000E+00
 -1       582 1.29927E-04 2.72631E-06 0.00000E+00
 -1       583 1.30008E-04 2.23195E-06 0.00000E+00
 -1       584 1.30089E-04 1.81816E-06 0.00000E+00
 -1       585 1.30170E-04 1.49547E-06 6.61744E-24
 -1       586 1.29305E-04 1.10725E-05-1.65436E-24
 -1       587 1.29622E-04 1.10994E-05-2.06795E-25
 -1       588 1.29949E-04 1.11260E-05 0.00000E+00
 -1       589 1.30321E-04 1.11521E-05 0.00000E+00
 -1       590 1.30775E-04 1.11773E-05 0.00000E+00
 -1       591 1.29156E-04 1.04734E-05 5.16988E-26
 -1       592 1.29357E-04 9.87586E-06 0.00000E+00
 -1       593 1.29564E-04 9.25838E-06 0.00000E+00
 -1       594 1.29777E-04 8.62606E-06-4.13590E-25
 -1       595 1.29994E-04 7.98414E-06 0.00000E+00
 -1       596 1.30212E-04 7.33776E-06 0.00000E+00
 -1       597 1.30430E-04 6.69208E-06-4.13590E-25
 -1       598 1.30646E-04 6.05227E-06-4.13590E-25
 -1       599 1.30857E-04 5.42347E-06 0.00000E+00
 -1       600 1.31063E-04 4.81083E-06 0.00000E+00
 -1       601 1.31260E-04 4.21951E-06-4.13590E-25
 -1       602 1.31448E-04 3.65466E-06 0.00000E+00
 -1       603 1.31624E-04 3.12145E-06-2.06795E-25
 -1       604 1.31786E-04 2.62509E-06 1.03398E-25
 -1       605 1.31933E-04 2.17070E-06 0.00000E+00
 -1       606 1.30263E-04 1.23011E-06 0.00000E+00
 -1       607 1.30273E-04 1.28087E-06 0.00000E+00
 -1       608 1.30283E-04 1.42026E-06 0.00000E+00
 -1       609 1.30292E-04 1.64206E-06 1.65436E-24
 -1       610 1.30301E-04 1.93998E-06 0.00000E+00
 -1       611 1.30310E-04 2.30769E-06 0.00000E+00
 -1       612 1.30319E-04 2.73881E-06 0.00000E+00
 -1       613 1.30328E-04 3.22699E-06 0.00000E+00
 -1       614 1.30337E-04 3.76585E-06 0.00000E+00
 -1       615 1.30346E-04 4.34903E-06 0.00000E+00
 -1       616 1.30354E-04 4.97016E-06-1.65436E-24
 -1       617 1.30363E-04 5.62288E-06 0.00000E+00
 -1       618 1.30372E-04 6.30080E-06 0.00000E+00
 -1       619 1.30381E-04 6.99759E-06 0.00000E+00
 -1       620 1.30389E-04 7.70686E-06 0.00000E+00
 -1       621 1.30422E-04 1.35552E-06 1.65436E-24
 -1       622 1.30666E-04 1.43778E-06 0.00000E+00
 -1       623 1.30967E-04 1.52000E-06 1.65436E-24
 -1       624 1.31310E-04 1.60206E-06-8.27181E-25
 -1       625 1.31681E-04 1.68397E-06 1.65436E-24
 -1       626 1.30358E-04 1.25881E-06-3.30872E-24
 -1       627 1.30439E-04 1.31947E-06-1.65436E-24
 -1       628 1.30495E-04 1.44774E-06-3.30872E-24
 -1       629 1.30528E-04 1.63541E-06 0.00000E+00
 -1       630 1.30542E-04 1.87429E-06 0.00000E+00
 -1       631 1.30540E-04 2.15611E-06 0.00000E+00
 -1       632 1.30525E-04 2.47262E-06-3.30872E-24
 -1       633 1.30501E-04 2.81558E-06 0.00000E+00
 -1       634 1.30469E-04 3.17674E-06 3.30872E-24
 -1       635 1.30434E-04 3.54784E-06 0.00000E+00
 -1       636 1.30397E-04 3.92065E-06 0.00000E+00
 -1       637 1.30364E-04 4.28690E-06 8.27181E-25
 -1       638 1.30336E-04 4.63834E-06 0.00000E+00
 -1       639 1.30316E-04 4.96672E-06 1.65436E-24
 -1       640 1.30308E-04 5.26378E-06 0.00000E+00
 -1       656 1.29902E-04 7.95031E-06 6.61744E-24
 -1       657 1.29795E-04 7.45946E-06 6.61744E-24
 -1       658 1.29937E-04 6.97004E-06 1.32349E-23
 -1       659 1.30183E-04 6.48101E-06-6.61744E-24
 -1       660 1.30364E-04 5.99045E-06 0.00000E+00
 -1       661 1.30215E-04 9.10399E-06 0.00000E+00
 -1       662 1.30062E-04 9.71711E-06 0.00000E+00
 -1       663 1.29933E-04 1.02645E-05 1.65436E-24
 -1       664 1.29828E-04 1.07506E-05 0.00000E+00
 -1       665 1.29744E-04 1.11788E-05-1.65436E-24
 -1       666 1.29681E-04 1.15528E-05 8.27181E-25
 -1       667 1.29637E-04 1.18763E-05-1.65436E-24
 -1       668 1.29610E-04 1.21527E-05 0.00000E+00
 -1       669 1.29600E-04 1.23851E-05 0.00000E+00
 -1       670 1.29606E-04 1.25769E-05 8.27181E-25
 -1       671 1.29625E-04 1.27311E-05 1.65436E-24
 -1       672 1.29657E-04 1.28508E-05 8.27181E-25
 -1       673 1.29701E-04 1.29388E-05 1.65436E-24
 -1       674 1.29755E-04 1.29977E-05 0.00000E+00
 -1       675 1.29819E-04 1.30308E-05 0.00000E+00
 -1       676 1.29755E-04 1.34836E-05 0.00000E+00
 -1       677 1.29782E-04 1.33940E-05 0.00000E+00
 -1       678 1.29808E-04 1.33046E-05 0.00000E+00
 -1       679 1.29835E-04 1.32154E-05 1.65436E-24
 -1       680 1.29861E-04 1.31262E-05 1.65436E-24
 -1       771 1.72938E-05 7.45386E-06-5.29396E-23
 -1       772 1.09412E-05 2.06177E-05-2.64698E-23
 -1       773 5.64901E-06 3.10507E-05-5.29396E-23
 -1       774 1.34608E-06 3.89156E-05 0.00000E+00
 -1       775-2.03763E-06 4.43798E-05 0.00000E+00
 -1       776-4.57508E-06 4.76196E-05 0.00000E+00
 -1       777-6.33966E-06 4.88158E-05-5.29396E-23
 -1       778-7.40642E-06 4.81563E-05-2.64698E-23
 -1       779-7.85058E-06 4.58330E-05 5.29396E-23
 -1       780-7.74873E-06 4.20435E-05 0.00000E+00
 -1       781-7.17741E-06 3.69887E-05 5.29396E-23
 -1       782-6.21422E-06 3.08738E-05 2.64698E-23
 -1       783-4.93663E-06 2.39063E-05 0.00000E+00
 -1       784-3.42292E-06 1.62967E-05 0.00000E+00
 -1       785-1.75111E-06 8.25685E-06 2.64698E-23
 -1       786 1.31387E-04 1.04045E-05 1.03398E-25
 -1       787 1.31431E-04 9.65463E-06 0.00000E+00
 -1       788 1.31476E-04 8.94264E-06 0.00000E+00
 -1       789 1.31521E-04 8.26099E-06 8.27181E-25
 -1       790 1.31566E-04 7.60535E-06 1.65436E-24
 -1       791 1.31612E-04 6.97141E-06 8.27181E-25
 -1       792 1.31657E-04 6.35712E-06 0.00000E+00
 -1       793 1.31702E-04 5.76050E-06-8.27181E-25
 -1       794 1.31748E-04 5.18136E-06 0.00000E+00
 -1       795 1.31793E-04 4.61959E-06-8.27181E-25
 -1       796 1.31839E-04 4.07686E-06 0.00000E+00
 -1       797 1.31884E-04 3.55487E-06 0.00000E+00
 -1       798 1.31929E-04 3.05750E-06 1.65436E-24
 -1       799 1.31975E-04 2.58868E-06 8.27181E-25
 -1       800 1.32020E-04 2.15527E-06 0.00000E+00
 -1       801 1.13735E-04 9.72244E-06-2.64698E-23
 -1       802 5.95966E-05 6.94459E-06 1.32349E-23
 -1       803 5.79792E-06 4.18355E-06-2.64698E-23
 -1       804-1.07847E-05 2.66800E-06 1.32349E-23
 -1       805-6.75970E-06 1.34184E-06 0.00000E+00
 -1       806 1.31550E-04 1.03507E-05 0.00000E+00
 -1       807 1.31742E-04 9.52825E-06 8.27181E-25
 -1       808 1.31921E-04 8.73591E-06 3.30872E-24
 -1       809 1.32088E-04 7.97642E-06 8.27181E-25
 -1       810 1.32242E-04 7.25242E-06-1.65436E-24
 -1       811 1.32381E-04 6.56651E-06-8.27181E-25
 -1       812 1.32505E-04 5.92125E-06-1.65436E-24
 -1       813 1.32613E-04 5.31922E-06 0.00000E+00
 -1       814 1.32703E-04 4.76296E-06 0.00000E+00
 -1       815 1.32776E-04 4.25502E-06 0.00000E+00
 -1       816 1.32829E-04 3.79797E-06-1.65436E-24
 -1       817 1.32863E-04 3.39434E-06-8.27181E-25
 -1       818 1.32875E-04 3.04666E-06-3.30872E-24
 -1       819 1.32866E-04 2.75746E-06 8.27181E-25
 -1       820 1.32835E-04 2.52927E-06 1.65436E-24
 -1       821 1.31962E-04 1.33190E-06 0.00000E+00
 -1       822 1.31853E-04 7.76165E-07 8.27181E-25
 -1       823 1.31743E-04 1.90644E-07 3.30872E-24
 -1       824 1.31633E-04-3.30893E-07 0.00000E+00
 -1       825 1.31522E-04-7.09223E-07-3.30872E-24
 -1       826 1.31411E-04-8.65818E-07 0.00000E+00
 -1       827 1.31300E-04-7.72312E-07 0.00000E+00
 -1       828 1.31190E-04-4.01583E-07 0.00000E+00
 -1       829 1.31079E-04 2.10784E-07 3.30872E-24
 -1       830 1.30967E-04 1.02800E-06 1.65436E-24
 -1       831 1.30856E-04 1.96697E-06 3.30872E-24
 -1       832 1.30745E-04 2.94395E-06 0.00000E+00
 -1       833 1.30635E-04 3.86660E-06 0.00000E+00
 -1       834 1.30525E-04 4.64288E-06 0.00000E+00
 -1       835 1.30415E-04 5.21373E-06 0.00000E+00
 -1       836 1.32354E-04 1.86412E-06 3.30872E-24
 -1       837 1.32533E-04 1.96628E-06-1.65436E-24
 -1       838 1.32634E-04 2.06828E-06 3.30872E-24
 -1       839 1.32689E-04 2.16964E-06-8.27181E-25
 -1       840 1.32727E-04 2.27083E-06 0.00000E+00
 -1       856 1.30289E-04 5.75949E-06 4.13590E-25
 -1       857 1.30263E-04 6.11554E-06 0.00000E+00
 -1       858 1.30237E-04 6.57086E-06 4.13590E-25
 -1       859 1.30210E-04 7.10692E-06 4.13590E-25
 -1       860 1.30184E-04 7.70512E-06 0.00000E+00
 -1       861 1.30157E-04 8.34677E-06 4.13590E-25
 -1       862 1.30130E-04 9.01317E-06 0.00000E+00
 -1       863 1.30103E-04 9.68558E-06 0.00000E+00
 -1       864 1.30076E-04 1.03452E-05 0.00000E+00
 -1       865 1.30049E-04 1.09734E-05 0.00000E+00
 -1       866 1.30022E-04 1.15515E-05 8.27181E-25
 -1       867 1.29996E-04 1.20606E-05-4.13590E-25
 -1       868 1.29969E-04 1.24824E-05 8.27181E-25
 -1       869 1.29942E-04 1.27983E-05 4.13590E-25
 -1       870 1.29915E-04 1.29899E-05-8.27181E-25
 -1       871 1.30309E-04 5.51958E-06-4.13590E-25
 -1       872 1.30427E-04 5.51544E-06 0.00000E+00
 -1       873 1.30614E-04 5.51081E-06 0.00000E+00
 -1       874 1.30813E-04 5.50559E-06 5.16988E-26
 -1       875 1.30973E-04 5.49982E-06 6.20385E-25
 -1       876 1.30330E-04 5.77076E-06 0.00000E+00
 -1       877 1.30328E-04 6.07770E-06 1.65436E-24
 -1       878 1.30308E-04 6.43504E-06 0.00000E+00
 -1       879 1.30272E-04 6.83638E-06 1.65436E-24
 -1       880 1.30222E-04 7.27529E-06 0.00000E+00
 -1       881 1.30160E-04 7.74534E-06-1.65436E-24
 -1       882 1.30089E-04 8.24016E-06 0.00000E+00
 -1       883 1.30010E-04 8.75336E-06 0.00000E+00
 -1       884 1.29928E-04 9.27856E-06-3.30872E-24
 -1       885 1.29843E-04 9.80938E-06 0.00000E+00
 -1       886 1.29758E-04 1.03395E-05-3.30872E-24
 -1       887 1.29676E-04 1.08624E-05 0.00000E+00
 -1       888 1.29599E-04 1.13717E-05 3.30872E-24
 -1       889 1.29529E-04 1.18610E-05 8.27181E-25
 -1       890 1.29468E-04 1.23239E-05 0.00000E+00
 -1       891 1.29935E-04 1.29909E-05 0.00000E+00
 -1       892 1.29963E-04 1.29428E-05 4.13590E-25
 -1       893 1.29947E-04 1.28947E-05 1.65436E-24
 -1       894 1.29866E-04 1.28467E-05 0.00000E+00
 -1       895 1.29696E-04 1.27989E-05-4.13590E-25
 -1       956 1.32674E-04 2.33218E-06 0.00000E+00
 -1       957 1.32565E-04 2.36788E-06-1.65436E-24
 -1       958 1.32456E-04 2.46394E-06 0.00000E+00
 -1       959 1.32347E-04 2.61225E-06-1.65436E-24
 -1       960 1.32238E-04 2.80467E-06-3.30872E-24
 -1       961 1.32129E-04 3.03302E-06 1.65436E-24
 -1       962 1.32019E-04 3.28910E-06-3.30872E-24
 -1       963 1.31910E-04 3.56474E-06 1.65436E-24
 -1       964 1.31801E-04 3.85173E-06 0.00000E+00
 -1       965 1.31691E-04 4.14188E-06-1.65436E-24
 -1       966 1.31582E-04 4.42700E-06 0.00000E+00
 -1       967 1.31473E-04 4.69889E-06 0.00000E+00
 -1       968 1.31364E-04 4.94936E-06 3.30872E-24
 -1       969 1.31255E-04 5.17026E-06 1.65436E-24
 -1       970 1.31146E-04 5.35342E-06 0.00000E+00
 -1       971 1.30939E-04 5.64272E-06 0.00000E+00
 -1       972 1.30837E-04 5.88056E-06 0.00000E+00
 -1       973 1.30735E-04 6.19501E-06 3.30872E-24
 -1       974 1.30633E-04 6.57621E-06 0.00000E+00
 -1       975 1.30531E-04 7.01430E-06 3.30872E-24
 -1       976 1.30429E-04 7.49935E-06 1.65436E-24
 -1       977 1.30327E-04 8.02148E-06 3.30872E-24
 -1       978 1.30225E-04 8.57077E-06 0.00000E+00
 -1       979 1.30123E-04 9.13729E-06 0.00000E+00
 -1       980 1.30020E-04 9.71113E-06 0.00000E+00
 -1       981 1.29918E-04 1.02824E-05 0.00000E+00
 -1       982 1.29816E-04 1.08410E-05 0.00000E+00
 -1       983 1.29714E-04 1.13773E-05 0.00000E+00
 -1       984 1.29613E-04 1.18812E-05-1.65436E-24
 -1       985 1.29512E-04 1.23428E-05 0.00000E+00
 -3
    1PSTEP                        16           8           1          
  100CL  108 5.74219E-01         409                     0    8           1
 -4  STRESS      6    1
 -5  SXX         1    4    1    1
 -5  SYY         1    4    2    2
 -5  SZZ         1    4    3    3
 -5  SXY         1    4    1    2
 -5  SYZ         1    4    2    3
 -5  SZX         1    4    3    1
 -1         1-2.96924E+06-1.19270E+06-6.41391E+05-1.37540E+06 1.08412E-09 2.81289E-08
 -1         2 2.13465E+03-8.57206E+05 6.89203E+03 2.26684E+02 1.40318E-10 8.17633E-08
 -1         3-4.84856E+02-1.32020E+06 3.16936E+02-1.08044E+03-4.45432E-10 5.35510E-09
 -1         5-1.45645E+00 3.04444E+05 7.72377E+00-7.57861E-02-8.11405E-11 1.47477E-08
 -1         8-1.01832E+06-3.52846E+05-1.07548E+05-4.44501E+05-1.83718E-10-8.85848E-09
 -1         9-4.98640E+05-8.09609E+05 1.44456E+04-8.41407E+05 1.32830E-08-9.16189E-09
 -1        10-1.33841E+03-1.37547E+06-2.33674E+03-7.30812E+03-7.38964E-09-2.76731E-08
 -1        12 1.71355E+00 3.04460E+05 2.50046E+02-5.74215E-01-5.84777E-11 1.67329E-08
 -1        15 1.75091E+03 9.62227E+02 5.65981E+03 3.43742E+00 9.42748E-11 1.07850E-07
 -1        16 1.20206E+06-9.34896E+05 1.56320E+05-1.21581E+06 1.26408E-08 3.06560E-08
 -1        17 4.39494E+02 9.11357E+04 8.41117E+04 2.09653E+05-2.12458E-09 1.18802E-08
 -1        18 2.30070E+03-4.02041E+03-2.36695E+04-8.52187E+04 9.93862E-09-1.46701E-09
 -1        19 9.81518E+04 1.12721E+05-8.12369E+02 1.91887E+04 2.36469E-12 2.99042E-10
 -1        20-5.27391E+04-4.64331E+05-1.03247E+05 2.79753E+04 2.72227E-09-3.96540E-10
 -1        21-4.13117E+01-2.56389E+05-8.15829E+02 4.66594E+00-3.49748E-06-3.73619E-09
 -1        24-5.19017E+05 8.23632E+05 2.65708E+05 4.88503E+05-7.30603E-08-3.24508E-08
 -1        25-1.02454E+05-5.76882E+05-1.15615E+05-1.83834E+05-9.38235E-10 4.33101E-10
 -1        26-3.82004E+04 7.32352E+04-1.90277E+04-3.91332E+03 1.21072E-09-4.01690E-10
 -1        27-6.71313E+04-2.52503E+05-9.37321E+04 5.69802E+04 5.52738E-09-1.89933E-09
 -1        28 1.96573E+04-7.21876E+04 1.45633E+04 2.05251E+04 1.82010E-09 3.23176E-09
 -1        32-1.39757E+06-2.21203E+06-6.32141E+04-3.82421E+05-2.85072E-08-6.88429E-09
 -1        33-1.47976E+05 7.31076E+04 2.60805E+04-3.43220E+04-1.63254E-10-4.13820E-09
 -1        34-1.86226E+05-1.92053E+04 5.03404E+02 5.95120E+04 1.17265E-09-4.14002E-09
 -1        35-2.00591E+04-2.86704E+04-1.13235E+03 4.46597E+04 2.45948E-09 3.68285E-09
 -1        51 3.04359E+04-3.02430E+05 6.97871E+04-8.58663E+05 2.03727E-10 2.32103E-08
 -1        52 1.34388E+04-2.94411E+05 4.06516E+04-1.00130E+06 3.27418E-10 2.26792E-08
 -1        53 6.47530E+03-3.09143E+05 2.75414E+04-8.55598E+05 2.91038E-10-3.71656E-08
 -1        54 1.71968E+04-3.06920E+05 3.55100E+04-1.00448E+06 1.89175E-10-4.23788E-08
 -1        55 3.45291E+04-3.19309E+05 5.82010E+04-8.55114E+05 2.98314E-10 7.28251E-08
 -1        56-5.65031E+06-6.32480E+05-4.73063E+05-2.19107E+06-6.03904E-10-9.51695E-09
 -1        57-5.88240E+06-1.02029E+06-3.19191E+05-2.12507E+06 2.18643E-09 1.48248E-08
 -1        58-5.74001E+06-7.88256E+05-1.11202E+05-2.16742E+06 6.43740E-09-2.15805E-08
 -1        59-5.78001E+06-8.35933E+05-6.63875E+04-2.15133E+06-1.45565E-09-4.21614E-08
 -1        60-5.75125E+06-8.11821E+05-2.59160E+04-2.16636E+06-2.08638E-09-3.43107E-08
 -1        61-5.76754E+06-8.07734E+05-1.47032E+04-2.15185E+06 4.51291E-09-1.59671E-08
 -1        62-5.75217E+06-8.15780E+05-6.98549E+03-2.16708E+06-3.23337E-09-5.95719E-11
 -1        63-5.76608E+06-8.04070E+05-5.65399E+03-2.15165E+06 1.63867E-09 7.34417E-09
 -1        64-5.75267E+06-8.15408E+05-6.26214E+03-2.16657E+06 2.76509E-09-1.98747E-08
 -1        65-5.76549E+06-8.08695E+05-1.25464E+04-2.15375E+06-4.50984E-09-1.37511E-08
 -1        66-5.75279E+06-8.11225E+05-2.18621E+04-2.16496E+06-3.74257E-10 1.75996E-08
 -1        67-5.77437E+06-8.33932E+05-5.58049E+04-2.15511E+06-9.05857E-09-9.63246E-09
 -1        68-5.74404E+06-7.90739E+05-9.34381E+04-2.16506E+06-1.80080E-10-1.73895E-08
 -1        69-5.85938E+06-9.89792E+05-2.68126E+05-2.13422E+06-6.25732E-10 3.82715E-09
 -1        70-5.66904E+06-6.59590E+05-3.97507E+05-2.18457E+06-4.11819E-09 7.50879E-09
 -1        86-1.06477E+03-8.59047E+05 7.46328E+03-1.13343E+02-7.63976E-11 3.76513E-08
 -1        87 7.09308E+03-8.54809E+05 1.54696E+04 4.16344E+02-2.49202E-10-4.09000E-08
 -1        88-6.00743E+03-8.61438E+05 2.38014E+04-3.03009E+02-1.20053E-10-1.99760E-08
 -1        89 4.47994E+04-8.37314E+05 6.40609E+04 6.94990E+02-1.30058E-10-2.85629E-08
 -1        90-3.86431E+04-8.76500E+05 9.06570E+04-3.92012E+02-1.49157E-10 2.10302E-08
 -1       121-6.87076E+02-1.32193E+06 3.38505E+01 5.38356E+02 8.42036E-10-4.17640E-09
 -1       122-3.66468E+02-1.32017E+06 6.58891E+02-2.15848E+03-3.10695E-09 1.05119E-08
 -1       123-7.42163E+02-1.32201E+06 7.84185E+02 1.60902E+03 2.55920E-09 4.93674E-09
 -1       124 9.12577E+02-1.31953E+06 2.68577E+03-4.56939E+03-6.08134E-09 5.60067E-09
 -1       125-1.50528E+03-1.32273E+06 3.80972E+03 2.94149E+03 3.79805E-09 9.12405E-09
 -1       191-1.78737E+00 3.04471E+05 9.44095E+00 3.79946E-02-5.05247E-11 7.26118E-09
 -1       192-2.16406E+00 3.04444E+05 1.63428E+01-3.08520E-01-4.02756E-11-2.58145E-08
 -1       193-3.66965E+00 3.04470E+05 3.05957E+01 2.71352E-01-1.34934E-10-1.27955E-08
 -1       194-4.44160E+00 3.04447E+05 6.17887E+01-7.25751E-01-4.90701E-11-2.14750E-08
 -1       195-7.28702E+00 3.04468E+05 1.21063E+02 4.57268E-01-1.46066E-10-6.86441E-10
 -1       251-1.71748E+06 6.63697E+03-9.95415E+04-7.72136E+04-3.08864E-09 2.58951E-08
 -1       252-1.45846E+06-5.97617E+03-1.38498E+04 2.33392E+05 2.51703E-09-2.88856E-09
 -1       253-1.59429E+06-1.53343E+03-1.95972E+04-1.55646E+05-9.75388E-09-9.89712E-09
 -1       254-1.57510E+06 1.57845E+04-3.40783E+03 3.03599E+05-4.81492E-09 2.32521E-08
 -1       255-1.61310E+06-5.10824E+03-1.02087E+04-1.48059E+05 1.44819E-08 2.24759E-08
 -1       256-1.40840E+06 1.45489E+04 3.48657E+04 2.05880E+05-2.06419E-08 3.43198E-08
 -1       257-1.74480E+06-1.33816E+04-3.53288E+04-5.71771E+04-3.68163E-09 8.81346E-09
 -1       258-1.27484E+06 1.17349E+04 6.14462E+04-1.33118E+04 1.01554E-08 2.67139E-08
 -1       259-1.73361E+06-1.28591E+04-3.17440E+04 7.05837E+04 4.31464E-09 9.49156E-09
 -1       260-1.43354E+06 1.62818E+04 3.34408E+04-2.24170E+05 8.64020E-11 2.80882E-08
 -1       261-1.60167E+06-5.32455E+03-1.64336E+03 1.53332E+05 4.74197E-08-7.43174E-09
 -1       262-1.57279E+06 2.29115E+04 1.12375E+04-3.03943E+05-1.82495E-08-9.83317E-09
 -1       263-1.60812E+06-8.32898E+03 1.87812E+03 1.51048E+05 3.22552E-09 5.12664E-08
 -1       264-1.41152E+06 3.90889E+04 5.59055E+04-2.16120E+05 6.85013E-08 1.57229E-08
 -1       265-1.74801E+06-3.35142E+04-9.95678E+03 6.47846E+04 2.38342E-08 3.49155E-08
 -1       266-3.16967E+04-1.48199E+04 7.43763E+04-7.35562E+01-7.27596E-12-1.17747E-08
 -1       267 3.67458E+04 1.72752E+04 5.25646E+04 8.48617E+01 7.09406E-11-3.15155E-08
 -1       268-4.92752E+03-2.44652E+03 1.95382E+04-1.08133E+01-1.90994E-11-6.05328E-08
 -1       269 5.81799E+03 2.92810E+03 1.26993E+04 1.25954E+01 6.91216E-11-1.15412E-08
 -1       270-8.73287E+02-4.81105E+02 6.13015E+03-1.70930E+00 1.01636E-10 3.68944E-08
 -1       271-2.91403E+06-3.61545E+05-2.19189E+05-1.13062E+06 7.27596E-11 2.64408E-08
 -1       272-3.00876E+06-5.06197E+05-1.41048E+05-1.11114E+06-9.95738E-09-2.60843E-08
 -1       273-2.95539E+06-4.16229E+05-5.17658E+04-1.12070E+06-2.45495E-09-1.64000E-08
 -1       274-2.95961E+06-4.39758E+05-2.89937E+04-1.12651E+06 5.86260E-09 1.97583E-08
 -1       275-2.96206E+06-4.20975E+05-1.20664E+04-1.11787E+06 3.11411E-09 1.15233E-09
 -1       276-2.95071E+06-4.35087E+05-6.36590E+03-1.13157E+06 6.97082E-09-3.85444E-09
 -1       277-2.96429E+06-4.20107E+05-3.13584E+03-1.11599E+06 2.35195E-09-1.75978E-08
 -1       278-2.94733E+06-4.37070E+05-2.16225E+03-1.13505E+06 5.35329E-09-3.99496E-09
 -1       279-2.96560E+06-4.18822E+05-2.26745E+03-1.11453E+06-5.57657E-09 2.49281E-08
 -1       280-2.94566E+06-4.39647E+05-4.01148E+03-1.13758E+06 4.74006E-09-1.31190E-08
 -1       281-2.96614E+06-4.17455E+05-7.27346E+03-1.11357E+06 1.25465E-09 1.72597E-08
 -1       282-2.94779E+06-4.45767E+05-1.74056E+04-1.13853E+06 4.48199E-09 6.19104E-08
 -1       283-2.96368E+06-4.13049E+05-3.09321E+04-1.11352E+06 6.08634E-09-1.22855E-08
 -1       284-2.97453E+06-4.88248E+05-8.44019E+04-1.13250E+06-3.27418E-10-3.61342E-09
 -1       285-2.94015E+06-3.79140E+05-1.31098E+05-1.11811E+06 2.73030E-09 3.39060E-09
 -1       301 2.10693E+04-1.88658E+05 1.74859E+05-3.56858E+05 4.51109E-10-4.62023E-10
 -1       302 2.54599E+04-1.44240E+05 1.12403E+05-5.30250E+05-1.41881E-10 2.39854E-08
 -1       303 9.05772E+02-1.71194E+05 8.07269E+04-3.56144E+05-2.91038E-11-2.58351E-08
 -1       304 2.44277E+04-1.42887E+05 1.11541E+05-5.29777E+05 4.07454E-10 1.23473E-08
 -1       305 1.93434E+04-1.86456E+05 1.72716E+05-3.57396E+05-6.03904E-10-6.41012E-09
 -1       306-9.97092E+06-1.29982E+06-1.65121E+06-2.03410E+06-2.44472E-08 2.36614E-08
 -1       307 2.04573E+05-1.88011E+06 6.23818E+05-4.79655E+06-3.20077E-07 1.17747E-07
 -1       308-7.60222E+06 2.27696E+05-2.12158E+05-1.79204E+04-6.49306E-08 1.15440E-07
 -1       309-3.73587E+06-2.08977E+06 1.75049E+05-7.45774E+06 1.54309E-07-1.01863E-08
 -1       310-7.68914E+06 1.98077E+05-1.49142E+05-6.21421E+04-5.31727E-08-1.36897E-08
 -1       311 4.18514E+05-1.88763E+06 8.97325E+05-4.58628E+06 2.22237E-07-4.21842E-08
 -1       312-9.99768E+06-1.33866E+06-1.13960E+06-2.14382E+06 5.27652E-08 7.94098E-08
 -1       313 2.21200E+06 5.27196E+05 1.56257E+06 7.84319E+05 5.57775E-08-4.19604E-08
 -1       314-8.23752E+06-3.07900E+06-1.13505E+06-4.08007E+06 1.75089E-07-1.06229E-09
 -1       315-5.23666E+06 3.71648E+06 8.87180E+05 1.62787E+06-1.54709E-07 2.35159E-08
 -1       316-4.21005E+06-3.25464E+06-1.47177E+05-3.90968E+06-4.20987E-07-2.05429E-07
 -1       317-1.04211E+07 4.58503E+06 1.62663E+05-1.29011E+04 2.59539E-07-2.36234E-07
 -1       318-4.14517E+06-3.24559E+06-2.38717E+05-3.89569E+06-2.82293E-07-9.61154E-09
 -1       319-5.44926E+06 3.76275E+06 5.73019E+05 1.57589E+06-5.77711E-08 5.53555E-08
 -1       320-8.13714E+06-3.10208E+06-1.74359E+06-4.09097E+06 6.81030E-08-2.69938E-08
 -1       336 4.69827E+02-1.43104E+06-9.09033E+03 4.33501E+03-1.51731E-08-1.22818E-08
 -1       337-3.42400E+03-1.43230E+06-1.08796E+04-1.05526E+04-2.86282E-08-2.15787E-08
 -1       338 5.48993E+02-1.43102E+06-1.54401E+04 6.16457E+03-2.01876E-08-7.18137E-09
 -1       339-1.62620E+04-1.44073E+06-3.44681E+04-1.41230E+04-3.68159E-08-2.51930E-09
 -1       340 1.08587E+04-1.42326E+06-5.37795E+04 7.86348E+03-2.44581E-08 7.45058E-09
 -1       406 2.10150E+01 3.04457E+05 4.93859E+02 1.21137E-01-1.13104E-10 6.46492E-09
 -1       407 1.73802E+02 3.04547E+05 1.04915E+03 2.56703E+00-1.07661E-10 1.31678E-08
 -1       408 5.41915E+02 3.04382E+05 2.09561E+03-2.75783E+00-2.27999E-10-1.07843E-09
 -1       409 2.26713E+03 3.05216E+05 4.71730E+03 2.75568E+01-6.79847E-11-9.79890E-09
 -1       410 6.51079E+03 3.03786E+05 9.63031E+03-2.60501E+01-4.51564E-10-6.82121E-10
 -1       521-1.21945E+07-1.76906E+06-2.24276E+06-2.27770E+06-4.49945E-08 1.01281E-08
 -1       522 6.89315E+05-2.20070E+06 7.69162E+05-6.31121E+06-1.82030E-07-1.82448E-07
 -1       523-9.18264E+06 2.40902E+05-2.71430E+05 2.16368E+05-6.18456E-09-1.90910E-07
 -1       524-4.88479E+06-2.06386E+06 2.44410E+05-9.73978E+06 2.89455E-07-2.81128E-07
 -1       525-9.32380E+06 1.87531E+05-2.00331E+05 1.48817E+05 1.02940E-07-1.47613E-07
 -1       526 1.08933E+06-2.22548E+06 1.14794E+06-5.95841E+06-6.03031E-08 4.06108E-08
 -1       527-1.22438E+07-1.84918E+06-1.56876E+06-2.45150E+06 1.78756E-07 5.84987E-09
 -1       528 3.68720E+06 7.33466E+05 1.97035E+06 1.38312E+06 1.62312E-07-6.98710E-08
 -1       529-9.95527E+06-4.10477E+06-1.55890E+06-4.93850E+06-3.43425E-09-7.17991E-08
 -1       530-6.43996E+06 5.22359E+06 1.13749E+06 2.21226E+06-1.61075E-07 2.23168E-07
 -1       531-4.85911E+06-4.23920E+06-1.87097E+05-4.74041E+06-3.77317E-07 5.81931E-08
 -1       532-1.33065E+07 6.36034E+06 2.50474E+05-4.39300E+05 1.86184E-07-2.39897E-07
 -1       533-4.75572E+06-4.22669E+06-2.71031E+05-4.71579E+06 4.11528E-08-4.16869E-07
 -1       534-6.77463E+06 5.37682E+06 8.11789E+05 2.08959E+06-7.98027E-08 3.01538E-07
 -1       535-9.82270E+06-4.20415E+06-2.20739E+06-4.94922E+06 9.72068E-09 1.89011E-07
 -1       536-4.74355E+05-2.91530E+04 2.30827E+04-2.48137E+04-6.81553E-09 2.59897E-08
 -1       537-2.74873E+05 3.09183E+04 4.95054E+04 6.10299E+04-6.14722E-08 4.69495E-08
 -1       538-3.78070E+05-1.27561E+03 1.08494E+04-3.75912E+04 1.43791E-08 5.36388E-08
 -1       539-3.39613E+05 3.32197E+03 1.32817E+04 6.98475E+04 8.03680E-08 4.95423E-08
 -1       540-4.11039E+05-4.18531E+02-4.28125E+03-3.37068E+04-1.93268E-11 4.18009E-08
 -1       541-2.13015E+05 5.49599E+03 3.38112E+04 4.41399E+04 9.88530E-09 4.35813E-08
 -1       542-5.01275E+05-6.22769E+03-2.50692E+04-1.17470E+04 2.84037E-08 2.82933E-08
 -1       543-1.40761E+05 8.17426E+03 4.70240E+04-8.36863E+03-7.58655E-09 8.92737E-09
 -1       544-4.81377E+05-4.66017E+03-2.20523E+04 1.86870E+04-1.09746E-08-2.83699E-08
 -1       545-2.58183E+05 2.07644E+03 2.15593E+04-5.57507E+04-8.17408E-11-5.95929E-08
 -1       546-3.86956E+05 2.40124E+03-4.94752E+03 3.55913E+04 4.53838E-10-6.12611E-08
 -1       547-3.49238E+05-4.02171E+03-1.95689E+03-7.18189E+04-6.70920E-08-6.29252E-08
 -1       548-3.92709E+05 3.38823E+03-1.49041E+04 3.48626E+04-5.73903E-08-6.10644E-08
 -1       549-2.50244E+05-9.83204E+03-2.05119E+03-5.24698E+04-3.71198E-08-3.88645E-08
 -1       550-4.83193E+05 5.94784E+03-6.81041E+04 1.61241E+04 4.60795E-09-2.40016E-08
 -1       551 2.46771E+04-6.71289E+05 2.06280E+04-1.06806E+06-6.38029E-08-1.28057E-09
 -1       552 5.48396E+04-6.90441E+05 3.03323E+04-1.52206E+06-4.78612E-08 2.03145E-08
 -1       553 3.99278E+04-6.94847E+05 4.56502E+04-1.06363E+06-7.56045E-08 7.54517E-09
 -1       554 8.44459E+04-6.91594E+05 9.68864E+04-1.52375E+06-4.57949E-08 1.05210E-08
 -1       555 6.89747E+04-7.14819E+05 1.72095E+05-1.06435E+06-7.72270E-08-7.28323E-09
 -1       556 1.36333E+05-2.46876E+05 6.29956E+04-2.97037E+05-2.15223E-08-9.45874E-10
 -1       557 2.31560E+05-3.23526E+05 3.38437E+04-3.76376E+05-2.08383E-08 6.67842E-09
 -1       558 1.30891E+05-2.52248E+05 1.25155E+04-2.92040E+05-2.22935E-08-1.31549E-08
 -1       559 2.15124E+05-3.30840E+05 6.71623E+03-3.85947E+05 1.46392E-08-1.52122E-08
 -1       560 1.24514E+05-2.48173E+05 2.09983E+03-2.96413E+05-5.63159E-09 2.94676E-10
 -1       561 2.06550E+05-3.27822E+05 1.38219E+03-3.91565E+05-1.01718E-08 3.73620E-09
 -1       562 1.19498E+05-2.44973E+05 1.79725E+02-3.00012E+05-3.43425E-09-2.11821E-09
 -1       563 2.00660E+05-3.25260E+05 3.37629E+02-3.95361E+05-6.27188E-09 1.18316E-08
 -1       564 1.16130E+05-2.42851E+05 4.20528E+00-3.02389E+05 1.84082E-09 9.18544E-09
 -1       565 1.97132E+05-3.23727E+05 1.30414E+02-3.97599E+05 4.24188E-09 3.28146E-09
 -1       566 1.14476E+05-2.41794E+05-8.95596E-01-3.03552E+05-6.28643E-09-7.13408E-09
 -1       567 1.95935E+05-3.23194E+05-8.44943E+01-3.98261E+05 1.07611E-08-2.91038E-10
 -1       568 1.14585E+05-2.41876E+05-4.23520E+02-3.03568E+05 5.27507E-11 1.29621E-08
 -1       569 1.96125E+05-3.23123E+05-1.05498E+03-3.96498E+05 8.56744E-10 2.98314E-09
 -1       570 1.17229E+05-2.44081E+05-2.48124E+03-3.03079E+05 7.82165E-09-3.35967E-09
 -1       571 2.30856E+05 8.48849E+03 1.24571E+04-6.17450E+04 2.06410E-09 3.77895E-09
 -1       572 2.32698E+05 3.01612E+03 6.10359E+03-6.77284E+04-2.50111E-09-3.13594E-09
 -1       573 2.31595E+05 7.81937E+02 2.71175E+03-6.16108E+04-3.05499E-09 1.08034E-08
 -1       574 2.31804E+05 3.21231E+02 1.35905E+03-6.78852E+04 6.15501E-10 6.11089E-09
 -1       575 2.31678E+05 1.16236E+02 6.41038E+02-6.15929E+04-7.99253E-09 5.64341E-10
 -1       576 2.31687E+05 1.01180E+02 3.27300E+02-6.79061E+04-1.95116E-08-2.95086E-09
 -1       577 2.31697E+05 7.61388E+01 1.62803E+02-6.15905E+04-1.02168E-08-3.37423E-10
 -1       578 2.31687E+05 8.36306E+01 9.22014E+01-6.79088E+04-6.16137E-09-9.29367E-09
 -1       579 2.31725E+05 6.52385E+01 6.19847E+01-6.15903E+04-1.12404E-08-4.90718E-09
 -1       580 2.31725E+05 6.66389E+01 6.79805E+01-6.79052E+04-2.37815E-08-1.63800E-09
 -1       581 2.31768E+05 4.65424E+01 1.02153E+02-6.15941E+04-9.53150E-09-1.94586E-09
 -1       582 2.31801E+05 6.76563E+01 2.03506E+02-6.78660E+04-9.87711E-10 6.84577E-09
 -1       583 2.31817E+05 1.08418E+02 3.93982E+02-6.16296E+04-1.02555E-08 8.15135E-09
 -1       584 2.32007E+05 4.22762E+02 8.86882E+02-6.75678E+04-1.84300E-08-1.43668E-08
 -1       585 2.31778E+05 1.19819E+03 1.80154E+03-6.18926E+04-1.02827E-08-3.76895E-09
 -1       586-2.92516E+03 7.70501E+04-3.44678E+03-2.06273E+05-2.21644E-09-9.06880E-09
 -1       587-7.62288E+02 7.66394E+04-3.05529E+01-2.27050E+05-1.89357E-09-1.35001E-08
 -1       588 7.17037E+02 7.66644E+04 3.31702E+03-2.06177E+05-2.17369E-09-2.08447E-08
 -1       589 4.34247E+03 7.84597E+04 9.17193E+03-2.26809E+05-2.73940E-09-4.01033E-08
 -1       590 1.29998E+04 7.56490E+04 1.94626E+04-2.06533E+05-1.73895E-09-1.36333E-08
 -1       591-4.76808E+04-1.20783E+04-1.62618E+04-2.25790E+04-1.55023E-09-1.22227E-08
 -1       592-4.99930E+04-1.52849E+04-8.80840E+03-2.59225E+04 1.62885E-10-9.10063E-09
 -1       593-4.93132E+04-1.08921E+04-3.66674E+03-2.37655E+04 2.29255E-09 2.25987E-09
 -1       594-4.77390E+04-1.29081E+04-1.82878E+03-2.60190E+04-8.73598E-10 3.81894E-09
 -1       595-4.94379E+04-1.08876E+04-8.40022E+02-2.38196E+04 5.37199E-10 2.69430E-08
 -1       596-4.75854E+04-1.27994E+04-4.27616E+02-2.60017E+04 1.65526E-09 1.28187E-08
 -1       597-4.94535E+04-1.08985E+04-2.34078E+02-2.38216E+04-3.49306E-09-5.96117E-10
 -1       598-4.75703E+04-1.27952E+04-1.90427E+02-2.59968E+04-1.95774E-09 3.47467E-09
 -1       599-4.94524E+04-1.08987E+04-2.46058E+02-2.38213E+04 2.70904E-09-9.90678E-09
 -1       600-4.75861E+04-1.28004E+04-4.59340E+02-2.60006E+04-8.97160E-10 7.26118E-09
 -1       601-4.94334E+04-1.08878E+04-9.07339E+02-2.38183E+04 4.63388E-10-1.87697E-10
 -1       602-4.77519E+04-1.29175E+04-1.97806E+03-2.60167E+04-8.47422E-10-4.54634E-09
 -1       603-4.92965E+04-1.08949E+04-3.96714E+03-2.37602E+04 3.66072E-11 6.31189E-10
 -1       604-5.02028E+04-1.54752E+04-9.52979E+03-2.58946E+04-1.03773E-09 1.52206E-08
 -1       605-4.75156E+04-1.21908E+04-1.75936E+04-2.24902E+04-2.77555E-09 1.09176E-08
 -1       606 2.74322E+04-1.10818E+04-1.99146E+04 2.63281E+04 1.03610E-08 6.65705E-09
 -1       607 2.40248E+04-3.59397E+03-9.91665E+03 2.95622E+04 1.92158E-08-1.11304E-08
 -1       608 2.59594E+04-6.24616E+02-4.44048E+03 2.61235E+04 1.16270E-08 2.96836E-09
 -1       609 2.55789E+04-1.84115E+02-2.24283E+03 2.97943E+04 1.09867E-09 1.49594E-08
 -1       610 2.57837E+04 4.29546E+00-1.07097E+03 2.61003E+04-2.27010E-09 3.69437E-09
 -1       611 2.57157E+04 1.41784E+01-5.39948E+02 2.98196E+04-4.78030E-09-1.19801E-08
 -1       612 2.57385E+04 2.03558E+01-2.57640E+02 2.60980E+04-2.18706E-08-3.97222E-09
 -1       613 2.57157E+04 2.23874E+01-1.16233E+02 2.98226E+04-4.33029E-08-2.11026E-09
 -1       614 2.57144E+04 1.98132E+01-2.96512E+01 2.60972E+04-2.40198E-09 9.42919E-09
 -1       615 2.57044E+04 2.74704E+01 4.32939E+01 2.98231E+04 3.99714E-08-8.71569E-09
 -1       616 2.56958E+04 2.54712E+01 1.34750E+02 2.60975E+04 2.03718E-08 3.51133E-09
 -1       617 2.57153E+04 5.94105E+01 3.09580E+02 2.98225E+04 3.44107E-09 2.29898E-09
 -1       618 2.56650E+04 1.17193E+02 6.24667E+02 2.60976E+04 6.78028E-10-3.81556E-09
 -1       619 2.59327E+04 5.44429E+02 1.40328E+03 2.98217E+04-3.66072E-11 1.10231E-09
 -1       620 2.54556E+04 1.60026E+03 2.82061E+03 2.60968E+04 2.70154E-09 1.69575E-09
 -1       621 2.78027E+02 2.35642E+05 2.53360E+03 1.76743E+04 8.70841E-11-8.88849E-09
 -1       622 3.45144E+02 2.36258E+05 2.36577E+03 2.57132E+04 3.09001E-10-1.28839E-08
 -1       623 2.77737E+01 2.35781E+05 2.99953E+03 1.75901E+04 3.10223E-10 1.30972E-08
 -1       624 1.45313E+03 2.37254E+05 5.94021E+03 2.57991E+04 2.66084E-10 7.17534E-09
 -1       625 1.45740E+03 2.34609E+05 1.04414E+04 1.75874E+04 2.94676E-10-4.54520E-09
 -1       626 2.08348E+05 5.42014E+04 4.53693E+03 1.07663E+05 3.02725E-09 4.96038E-09
 -1       627 2.05978E+05 5.57562E+04 2.18629E+03 1.11798E+05-6.91216E-10-1.30283E-08
 -1       628 2.08482E+05 5.20986E+04 9.23866E+02 1.08400E+05 9.38599E-09 7.58473E-09
 -1       629 2.05376E+05 5.51890E+04 4.52299E+02 1.12043E+05 2.19752E-08 2.41670E-09
 -1       630 2.08491E+05 5.19990E+04 2.09019E+02 1.08425E+05 7.50697E-09-1.08142E-08
 -1       631 2.05307E+05 5.51715E+04 1.11595E+02 1.12044E+05 4.88944E-09 4.25274E-09
 -1       632 2.08483E+05 5.20055E+04 7.18443E+01 1.08418E+05 1.90448E-09 8.39566E-09
 -1       633 2.05294E+05 5.51760E+04 7.76373E+01 1.12037E+05 8.95852E-10 8.94016E-09
 -1       634 2.08474E+05 5.20057E+04 1.23286E+02 1.08414E+05 1.65596E-09 5.93900E-09
 -1       635 2.05301E+05 5.51768E+04 2.48277E+02 1.12038E+05 2.28442E-09-9.86597E-09
 -1       636 2.08463E+05 5.20034E+04 5.00702E+02 1.08412E+05 1.51564E-09 3.22034E-08
 -1       637 2.05406E+05 5.52555E+04 1.10022E+03 1.12035E+05-2.05492E-08 1.23009E-08
 -1       638 2.08422E+05 5.22476E+04 2.26065E+03 1.08301E+05-9.86211E-09 1.75764E-08
 -1       639 2.06592E+05 5.69067E+04 5.34821E+03 1.11683E+05-2.70097E-09 1.30922E-08
 -1       640 2.08262E+05 5.71736E+04 1.10986E+04 1.06216E+05-3.61570E-09-1.12409E-08
 -1       656 5.46996E+04-1.39135E+06-1.32046E+05-7.63231E+02 6.54836E-10-1.10086E-08
 -1       657-7.23245E+04-1.45097E+06-1.09299E+05 7.23395E+03-1.09139E-10-5.33113E-10
 -1       658 1.73950E+04-1.40832E+06-6.71996E+04-2.29639E+03 7.23730E-10-7.30910E-09
 -1       659-7.78929E+04-1.45361E+06-1.16614E+05 8.35876E+03-9.83164E-10-9.62099E-09
 -1       660 6.02551E+04-1.38871E+06-1.44623E+05-1.88803E+03-8.00355E-10-3.18718E-09
 -1       661 1.66050E+05 1.78546E+04 1.64930E+04 6.49358E+04 2.06683E-09 2.24554E-09
 -1       662 1.74953E+05 3.04826E+04 1.11141E+04 6.17155E+04-7.77959E-10-1.36706E-08
 -1       663 1.69287E+05 2.31477E+04 3.88754E+03 6.39984E+04-1.17427E-09-1.89175E-10
 -1       664 1.71204E+05 2.42897E+04 2.32476E+03 6.28580E+04 1.13414E-09-3.66157E-10
 -1       665 1.69774E+05 2.38736E+04 9.17085E+02 6.38588E+04-1.85736E-09-6.20281E-09
 -1       666 1.70629E+05 2.34573E+04 5.35623E+02 6.30387E+04-6.27347E-09-5.67831E-09
 -1       667 1.69858E+05 2.39583E+04 2.83339E+02 6.38258E+04 6.14790E-10 3.10261E-09
 -1       668 1.70538E+05 2.33934E+04 2.86025E+02 6.30865E+04 1.00351E-09-1.07042E-08
 -1       669 1.69865E+05 2.39356E+04 3.85040E+02 6.38115E+04-3.80140E-10-6.69900E-10
 -1       670 1.70633E+05 2.36001E+04 8.36383E+02 6.30882E+04 3.54525E-09 4.35256E-09
 -1       671 1.69763E+05 2.37558E+04 1.48437E+03 6.38225E+04-1.31038E-09 2.54352E-09
 -1       672 1.71498E+05 2.50441E+04 3.79717E+03 6.28791E+04-1.76601E-09 8.15430E-09
 -1       673 1.69004E+05 2.25279E+04 6.36324E+03 6.40066E+04-1.81853E-09 6.14818E-10
 -1       674 1.77556E+05 3.52656E+04 1.81975E+04 6.10980E+04-1.96860E-09-1.82058E-09
 -1       675 1.63745E+05 1.38203E+04 2.70111E+04 6.54959E+04-8.68567E-10-5.48062E-09
 -1       676 2.11656E+01-2.56321E+05-9.83287E+02-2.33301E+00 6.92637E-11 1.03481E-09
 -1       677-2.61146E+02-2.56559E+05-1.79955E+03 4.66308E+00 1.08633E-09-9.96708E-09
 -1       678 1.74315E+02-2.56152E+05-3.18114E+03-2.32847E+00-6.23118E-10-6.09734E-09
 -1       679-3.18209E+03-2.58479E+05-7.55694E+03 4.64564E+00 7.01789E-10-5.22007E-09
 -1       680 1.89908E+03-2.54402E+05-1.21792E+04-2.28932E+00-2.41016E-11-1.00406E-08
 -1       771-2.71146E+06-5.61000E+05-8.80564E+04-1.21414E+06-2.03145E-08-1.41154E-08
 -1       772-2.66782E+06-6.18307E+05-4.60997E+04-1.27954E+06-1.44937E-08 6.61203E-09
 -1       773-2.72727E+06-5.48512E+05-2.20428E+04-1.21991E+06-9.56061E-09 7.08678E-09
 -1       774-2.65906E+06-6.09057E+05-1.01503E+04-1.29103E+06 1.51922E-08 1.49157E-10
 -1       775-2.73406E+06-5.43701E+05-6.63401E+03-1.22193E+06-6.62112E-09 2.80852E-09
 -1       776-2.66253E+06-6.08533E+05-2.64351E+03-1.29896E+06-4.14730E-09 3.13230E-09
 -1       777-2.73966E+06-5.39588E+05-2.59986E+03-1.22369E+06 6.12636E-09 7.42148E-09
 -1       778-2.66645E+06-6.08162E+05-7.96950E+02-1.30569E+06 4.51109E-09 4.33465E-09
 -1       779-2.74437E+06-5.36066E+05-1.20653E+03-1.22520E+06-3.34694E-10 5.51518E-09
 -1       780-2.66991E+06-6.07773E+05-2.32707E+02-1.31115E+06-3.45244E-09 3.49246E-09
 -1       781-2.74804E+06-5.33263E+05-4.78844E+02-1.22639E+06-1.93686E-08 3.37604E-09
 -1       782-2.67256E+06-6.07405E+05 8.28504E+01-1.31517E+06-2.34868E-08-4.68572E-09
 -1       783-2.75059E+06-5.31349E+05 1.05586E+02-1.22722E+06-6.61385E-09-3.11684E-09
 -1       784-2.67407E+06-6.06961E+05 6.80459E+02-1.31762E+06-2.33758E-08 1.58252E-09
 -1       785-2.75201E+06-5.30281E+05 1.17207E+03-1.22774E+06-2.86745E-08 5.67616E-09
 -1       786 1.26187E+05-9.05530E+03 2.09490E+04-1.34286E+02 1.43826E-09-2.69210E-09
 -1       787 1.35271E+05 1.04832E+04 1.48208E+04 2.23332E+01 3.33634E-09 1.82081E-09
 -1       788 1.29690E+05-1.41941E+03 5.42063E+03-1.07704E+02 2.27389E-09 3.15413E-09
 -1       789 1.31190E+05 1.64220E+03 3.40386E+03-2.05191E+01-5.20871E-10 4.70664E-10
 -1       790 1.30268E+05-2.21474E+02 1.38035E+03-9.14391E+01-8.51362E-10 1.05817E-08
 -1       791 1.30514E+05 2.56034E+02 8.01530E+02-4.87823E+01-2.17576E-09 1.89773E-09
 -1       792 1.30366E+05-3.42858E+01 3.48181E+02-7.94416E+01-1.47988E-09 1.01453E-09
 -1       793 1.30400E+05 3.96755E+01 1.92295E+02-7.14164E+01 4.41571E-10-6.13528E-09
 -1       794 1.30383E+05-5.25264E+00 8.75808E+01-6.88047E+01 1.13466E-09 1.09213E-09
 -1       795 1.30380E+05 6.34856E+00 4.74151E+01-9.36212E+01-1.93673E-09 1.24805E-08
 -1       796 1.30386E+05-9.75347E-01 2.30759E+01-5.72365E+01 1.21110E-09 8.18450E-09
 -1       797 1.30377E+05 2.57072E+00 1.47558E+01-1.20135E+02 9.98584E-10 4.25906E-09
 -1       798 1.30386E+05-1.47909E+00 1.05197E+01-4.22902E+01 9.60265E-10 4.02998E-09
 -1       799 1.30381E+05 1.04613E+01 1.72380E+01-1.56602E+02 1.32692E-09 8.70185E-09
 -1       800 1.30382E+05-8.86998E+00 2.11046E+01-2.07688E+01 1.17405E-10 1.01323E-08
 -1       801 7.56061E+04-4.35533E+06-4.62697E+05 2.23033E+05 3.53175E-08-2.46055E-08
 -1       802-5.25456E+04-2.55269E+06 4.12185E+04-2.10271E+05 1.00026E-07-6.44377E-10
 -1       803-2.52767E+04-4.42574E+06-2.30618E+05 2.21776E+05 4.52565E-08 3.03025E-08
 -1       804-2.47728E+04-3.14432E+06 5.21350E+04 1.72458E+05-6.92398E-09-1.58877E-09
 -1       805 3.85848E+04-3.76897E+06-5.61152E+04-1.59470E+05-3.35604E-09-4.22702E-09
 -1       806-2.53807E+05-4.79113E+04-1.84869E+04-9.91424E+04-5.31963E-09-9.76797E-10
 -1       807-2.55464E+05-4.46910E+04-9.08240E+03-1.03388E+05-2.86127E-09 1.69202E-08
 -1       808-2.54299E+05-4.12646E+04-3.85315E+03-1.02311E+05-6.57519E-09-1.42128E-08
 -1       809-2.53563E+05-4.21313E+04-1.88412E+03-1.03603E+05 8.85848E-09 1.90721E-08
 -1       810-2.54376E+05-4.10329E+04-8.63479E+02-1.02452E+05 7.20456E-09 2.11458E-09
 -1       811-2.53417E+05-4.20275E+04-4.29313E+02-1.03575E+05-2.45177E-09-1.38693E-08
 -1       812-2.54389E+05-4.10521E+04-2.16783E+02-1.02453E+05-2.86127E-09-1.31820E-08
 -1       813-2.53399E+05-4.20286E+04-1.40457E+02-1.03561E+05 4.64024E-09 5.97311E-09
 -1       814-2.54386E+05-4.10587E+04-1.38301E+02-1.02450E+05 8.20364E-10-4.36557E-10
 -1       815-2.53404E+05-4.20298E+04-2.22396E+02-1.03558E+05 2.97041E-09 6.71662E-09
 -1       816-2.54372E+05-4.10566E+04-4.20850E+02-1.02449E+05 1.55887E-09 1.53386E-09
 -1       817-2.53477E+05-4.20695E+04-9.03592E+02-1.03551E+05-1.26329E-09 5.52677E-09
 -1       818-2.54320E+05-4.11820E+04-1.84260E+03-1.02389E+05 7.91442E-09-2.72212E-09
 -1       819-2.54486E+05-4.31850E+04-4.33641E+03-1.03318E+05 6.62294E-09-1.57443E-08
 -1       820-2.53981E+05-4.44504E+04-8.82567E+03-1.00983E+05 5.04224E-09-1.32076E-08
 -1       821-3.09188E+05 1.70947E+04-3.95364E+04 4.51292E+02 4.34547E-07-2.58460E-08
 -1       822-3.26311E+05-1.97898E+04-2.79761E+04-1.12435E+03 8.73374E-07 8.37645E-09
 -1       823-3.15793E+05 2.68059E+03-1.02393E+04 4.94522E+02 4.33707E-07 2.60616E-09
 -1       824-3.18592E+05-3.10170E+03-6.44054E+03-9.55574E+02 6.46533E-10-3.91401E-09
 -1       825-3.16904E+05 4.19021E+02-2.65165E+03 2.82518E+02 1.12717E-09-3.16720E-09
 -1       826-3.17287E+05-4.93394E+02-1.59129E+03-3.74551E+02-1.19156E-09 2.77484E-09
 -1       827-3.17096E+05 7.33990E+01-8.35555E+02-8.65116E+01-1.21296E-09-5.23255E-09
 -1       828-3.17114E+05-1.50747E+02-7.28235E+02 3.51029E+02-4.14767E-09 3.20930E-09
 -1       829-3.17077E+05 7.66787E+01-8.52599E+02-4.43074E+02 1.61830E-10 1.28117E-08
 -1       830-3.17340E+05-5.14422E+02-1.65934E+03 8.87278E+02 2.18318E-09 1.98643E-08
 -1       831-3.16871E+05 4.37621E+02-2.75400E+03-6.22771E+02-2.77807E-09 2.62833E-09
 -1       832-3.18672E+05-3.23105E+03-6.71129E+03 9.87312E+02-8.71918E-10-6.33372E-09
 -1       833-3.15746E+05 2.79157E+03-1.06684E+04-5.43108E+02-9.08067E-10-6.27460E-09
 -1       834-3.26661E+05-2.06142E+04-2.91379E+04 6.01992E+02-1.54907E-09-1.01904E-08
 -1       835-3.08884E+05 1.78068E+04-4.11946E+04-2.37438E+02 5.35044E-09 1.10958E-10
 -1       836-1.06124E+03 2.92511E+05 1.77915E+04-1.62277E+04-8.62201E-10 4.07726E-09
 -1       837 3.86575E+03 2.98049E+05 1.52208E+04-3.26767E+04-7.18046E-10-1.26190E-08
 -1       838-4.10519E+02 2.94042E+05 1.57414E+04-1.61629E+04-4.87489E-10 2.26532E-09
 -1       839 1.00715E+04 3.02675E+05 3.00071E+04-3.27168E+04-5.32054E-11-2.19052E-09
 -1       840-3.06299E+03 2.87842E+05 4.79502E+04-1.61874E+04-3.85626E-10 7.62611E-10
 -1       856-7.25378E+04 7.62777E+03-2.01014E+04-4.20471E+02-1.15807E-09 1.00590E-09
 -1       857-8.08351E+04-8.95016E+03-1.38387E+04 4.86552E+03 5.15740E-10-2.00557E-08
 -1       858-7.58179E+04 1.06898E+03-5.21648E+03-4.42526E+02-2.46661E-09-6.05314E-09
 -1       859-7.70693E+04-1.24616E+03-3.14950E+03 4.90004E+03 6.85404E-10-5.64410E-09
 -1       860-7.63082E+04 1.48910E+02-1.32253E+03-4.55028E+02 8.05926E-10-2.25668E-11
 -1       861-7.65049E+04-1.67152E+02-7.33004E+02 4.91715E+03-1.17918E-09 5.55588E-09
 -1       862-7.63846E+04 1.97344E+01-3.15630E+02-4.59658E+02 2.74402E-09-4.65774E-09
 -1       863-7.64131E+04-1.26029E+01-1.39790E+02 4.91943E+03 6.67307E-09 1.21467E-10
 -1       864-7.64002E+04-2.20181E+00-1.09844E+01-4.57309E+02 1.78581E-09-1.61269E-08
 -1       865-7.63756E+04 3.98761E+01 1.18307E+02 4.90719E+03-1.10663E-09-1.52000E-09
 -1       866-7.64204E+04-3.30629E+01 2.67069E+02-4.47411E+02 2.81148E-10 3.07237E-09
 -1       867-7.62422E+04 2.75302E+02 6.75867E+02 4.88026E+03 4.29532E-09 6.66755E-09
 -1       868-7.65298E+04-2.34252E+02 1.12742E+03-4.30382E+02 3.78105E-09-1.08788E-08
 -1       869-7.54099E+04 1.94841E+03 3.00892E+03 4.83550E+03-8.43812E-10-1.37561E-08
 -1       870-7.72467E+04-1.66200E+03 4.36552E+03-4.02644E+02 7.05995E-11 4.04361E-09
 -1       871-4.66797E+03-1.20430E+04-1.54905E+04 1.03050E+05 2.58296E-10 1.00390E-08
 -1       872-1.93622E+03-1.55525E+04-6.37723E+03 1.33606E+05 1.70985E-10-1.03187E-08
 -1       873 5.33003E+01-1.39009E+04 7.42478E+02 1.02825E+05 1.00499E-10-5.09863E-09
 -1       874 2.42545E+03-1.17621E+04 8.41291E+03 1.33645E+05-4.89308E-10 5.02132E-09
 -1       875 5.52978E+03-1.58989E+04 1.87654E+04 1.03014E+05-3.91083E-11 6.54745E-09
 -1       876 2.45301E+05 4.18726E+04 1.28492E+04 9.90654E+04-4.48813E-09 7.37236E-09
 -1       877 2.46093E+05 4.46352E+04 6.86184E+03 1.02803E+05-8.43215E-09-7.68898E-09
 -1       878 2.46501E+05 4.04509E+04 2.87479E+03 1.00120E+05-1.02273E-09-2.15118E-09
 -1       879 2.44346E+05 4.28932E+04 1.43225E+03 1.02892E+05 3.50633E-09 6.12545E-10
 -1       880 2.46588E+05 4.04356E+04 6.66988E+02 1.00164E+05 3.77668E-10-2.25555E-09
 -1       881 2.44230E+05 4.28190E+04 3.55769E+02 1.02873E+05 6.75527E-10 1.24525E-08
 -1       882 2.46596E+05 4.04464E+04 2.26910E+02 1.00165E+05 1.57615E-09 3.26403E-09
 -1       883 2.44222E+05 4.28153E+04 2.42810E+02 1.02867E+05 3.44892E-09 3.12338E-09
 -1       884 2.46591E+05 4.04439E+04 3.85235E+02 1.00165E+05-8.69704E-12 2.69898E-09
 -1       885 2.44252E+05 4.28207E+04 7.73904E+02 1.02877E+05 9.89075E-11-5.43616E-09
 -1       886 2.46561E+05 4.04212E+04 1.55948E+03 1.00162E+05 1.99277E-09-1.19491E-08
 -1       887 2.44527E+05 4.30005E+04 3.40638E+03 1.02917E+05-3.26816E-09 5.05634E-09
 -1       888 2.46346E+05 4.04591E+04 6.86393E+03 1.00053E+05-2.07581E-09 1.83363E-08
 -1       889 2.48615E+05 4.72484E+04 1.63971E+04 1.02789E+05-1.11503E-09-5.92445E-09
 -1       890 2.43549E+05 4.37819E+04 3.07109E+04 9.74351E+04 2.56568E-09 6.42831E-09
 -1       891-1.30331E+02-1.37852E+05-1.65834E+03 2.48355E+04 4.88853E-11-1.91676E-09
 -1       892-2.31547E+02-1.38260E+05-1.79207E+03 3.76155E+04 2.72621E-10-7.44353E-09
 -1       893-2.02367E+01-1.37904E+05-2.54874E+03 2.48410E+04 5.21595E-10 2.47383E-10
 -1       894-1.35630E+03-1.39230E+05-5.28319E+03 3.74799E+04 6.39830E-10-7.52334E-09
 -1       895-1.06557E+03-1.36803E+05-9.30692E+03 2.49701E+04 5.57293E-10-1.97088E-09
 -1       956-3.11404E+05-4.38334E+03-1.09880E+04 2.17874E+04 9.64974E-10-7.19217E-09
 -1       957-3.13570E+05-1.49299E+03-5.64060E+03 2.62319E+04-1.54614E-10-4.73847E-10
 -1       958-3.12382E+05-1.33759E+02-2.54138E+03 2.16576E+04 5.10317E-09-6.50357E-09
 -1       959-3.12552E+05-3.87479E+01-1.29805E+03 2.63755E+04 7.30370E-09 5.25438E-09
 -1       960-3.12472E+05 2.18977E+01-6.32920E+02 2.16448E+04 1.72076E-09 1.55978E-09
 -1       961-3.12480E+05 1.72600E+01-3.35948E+02 2.63901E+04 1.79080E-09 2.82239E-09
 -1       962-3.12490E+05 1.83251E+01-1.92656E+02 2.16429E+04 1.45565E-09-4.38854E-09
 -1       963-3.12478E+05 1.90759E+01-1.55302E+02 2.63927E+04-2.21360E-09 1.25549E-08
 -1       964-3.12494E+05 2.05512E+01-1.89409E+02 2.16422E+04 8.45034E-10-1.86060E-09
 -1       965-3.12488E+05 2.19957E+01-3.28050E+02 2.63924E+04 2.64242E-09 7.78982E-10
 -1       966-3.12483E+05 2.85218E+01-6.16352E+02 2.16431E+04 4.85898E-10-5.00131E-09
 -1       967-3.12567E+05-2.79303E+01-1.26434E+03 2.63829E+04-1.19940E-09-4.79997E-09
 -1       968-3.12402E+05-1.18717E+02-2.47464E+03 2.16518E+04 3.76986E-09 7.06933E-09
 -1       969-3.13567E+05-1.44049E+03-5.49425E+03 2.62823E+04 8.54016E-09 6.46872E-09
 -1       970-3.11455E+05-4.25529E+03-1.07021E+04 2.17440E+04 4.74665E-09 8.09905E-09
 -1       971-2.90866E+05-1.50076E+03-8.27275E+03 1.36291E+04-1.98270E-09-3.04955E-09
 -1       972-2.92872E+05-1.08329E+03-4.50526E+03 1.89910E+04-8.84029E-10-6.32554E-09
 -1       973-2.91787E+05-2.16417E+01-2.01759E+03 1.35167E+04-8.49923E-10 3.56067E-10
 -1       974-2.91921E+05-2.55961E+01-1.04541E+03 1.91140E+04 3.87718E-09 9.94987E-09
 -1       975-2.91859E+05 1.76202E+01-5.21927E+02 1.35060E+04-2.77851E-10-3.30544E-09
 -1       976-2.91866E+05 1.81948E+01-2.99945E+02 1.91272E+04-2.41016E-09-7.53084E-09
 -1       977-2.91873E+05 1.77989E+01-2.15616E+02 1.35034E+04 6.92125E-10 2.99087E-09
 -1       978-2.91870E+05 2.33412E+01-2.49475E+02 1.91310E+04 8.26424E-09 3.76292E-09
 -1       979-2.91873E+05 2.47548E+01-3.98388E+02 1.35023E+04 3.16368E-09-4.51928E-09
 -1       980-2.91899E+05 2.58713E+01-7.67708E+02 1.91316E+04 2.18925E-09-1.61782E-08
 -1       981-2.91848E+05 4.38997E+01-1.48607E+03 1.35027E+04 6.58918E-09 2.46064E-09
 -1       982-2.92103E+05-8.38787E+01-3.07123E+03 1.91258E+04 7.55392E-09-3.16024E-09
 -1       983-2.91661E+05-5.11836E+01-5.96718E+03 1.35083E+04 3.66549E-09-3.23644E-09
 -1       984-2.94973E+05-3.20022E+03-1.33628E+04 1.90489E+04-1.93722E-10 3.32966E-09
 -1       985-2.88960E+05-4.41760E+03-2.45385E+04 1.35820E+04 1.88948E-09 3.62706E-09
 -3
    1PSTEP                        17           9           1          
  100CL  109 5.91797E-01         409                     0    9           1
 -4  DISP        4    1
 -5  D1          1    2    1    0
 -5  D2          1    2    2    0
 -5  D3          1    2    3    0
 -5  ALL         1    2    0    0    1ALL
 -1         1 9.09811E-04 0.00000E+00 0.00000E+00
 -1         2 8.52282E-04-3.29886E-29 1.32349E-23
 -1         3 2.43694E-04-3.11110E-27 0.00000E+00
 -1         5 1.40058E-04-1.98581E-27-3.30872E-24
 -1         8 8.88910E-04-6.69164E-07 0.00000E+00
 -1         9 8.63158E-04-2.67493E-06 0.00000E+00
 -1        10 2.22151E-04-3.05650E-06-1.32349E-23
 -1        12 1.40598E-04 6.73440E-07 8.27181E-25
 -1        15 8.63771E-04-7.38978E-07-2.06795E-25
 -1        16 8.70358E-04-3.31564E-06 0.00000E+00
 -1        17 1.54929E-04-6.66920E-06 0.00000E+00
 -1        18 1.40864E-04 1.61382E-05 0.00000E+00
 -1        19 1.42218E-04 1.34326E-06 0.00000E+00
 -1        20 1.42365E-04 4.37126E-06 0.00000E+00
 -1        21 1.41653E-04 4.95265E-06-3.30872E-24
 -1        24 2.60046E-05-9.52235E-06 0.00000E+00
 -1        25 1.45092E-04 1.63087E-05 0.00000E+00
 -1        26 1.45797E-04 1.86118E-06 0.00000E+00
 -1        27 1.43954E-04 1.33568E-06 0.00000E+00
 -1        28 1.43558E-04 4.40179E-06 0.00000E+00
 -1        32 0.00000E+00 0.00000E+00 0.00000E+00
 -1        33 1.48305E-04 2.49366E-06 0.00000E+00
 -1        34 1.46489E-04 1.30087E-06 0.00000E+00
 -1        35 1.44804E-04 4.10476E-06 0.00000E+00
 -1        51 9.08464E-04-1.17988E-07 0.00000E+00
 -1        52 9.05956E-04-2.25233E-07 0.00000E+00
 -1        53 9.02514E-04-3.31897E-07 0.00000E+00
 -1        54 8.98369E-04-4.39914E-07 0.00000E+00
 -1        55 8.93756E-04-5.50552E-07 8.27181E-25
 -1        56 9.07145E-04-5.52939E-07 5.29396E-23
 -1        57 9.04095E-04-3.68484E-07-2.64698E-23
 -1        58 9.00794E-04 5.00382E-07 5.29396E-23
 -1        59 8.97269E-04 1.91339E-06 0.00000E+00
 -1        60 8.93611E-04 3.67729E-06 0.00000E+00
 -1        61 8.89901E-04 5.57076E-06-5.29396E-23
 -1        62 8.86231E-04 7.35782E-06 0.00000E+00
 -1        63 8.82687E-04 8.80796E-06 0.00000E+00
 -1        64 8.79342E-04 9.73236E-06 1.05879E-22
 -1        65 8.76254E-04 9.97415E-06 5.29396E-23
 -1        66 8.73451E-04 9.46005E-06 1.05879E-22
 -1        67 8.70944E-04 8.16359E-06 0.00000E+00
 -1        68 8.68704E-04 6.15309E-06-5.29396E-23
 -1        69 8.66704E-04 3.54612E-06 0.00000E+00
 -1        70 8.64853E-04 5.22270E-07 5.29396E-23
 -1        86 8.52705E-04-4.41327E-07 0.00000E+00
 -1        87 8.53968E-04-8.83638E-07-6.61744E-24
 -1        88 8.55883E-04-1.32697E-06 0.00000E+00
 -1        89 8.58251E-04-1.77316E-06 0.00000E+00
 -1        90 8.60776E-04-2.21906E-06 1.32349E-23
 -1       121 2.43090E-04-5.01246E-07-1.32349E-23
 -1       122 2.41279E-04-1.00390E-06 6.61744E-24
 -1       123 2.38267E-04-1.50935E-06 1.32349E-23
 -1       124 2.34065E-04-2.01902E-06 0.00000E+00
 -1       125 2.28687E-04-2.53406E-06-1.32349E-23
 -1       191 1.40073E-04 1.12249E-07 0.00000E+00
 -1       192 1.40118E-04 2.24496E-07-1.65436E-24
 -1       193 1.40193E-04 3.36741E-07 3.30872E-24
 -1       194 1.40298E-04 4.48983E-07-8.27181E-25
 -1       195 1.40433E-04 5.61216E-07-3.30872E-24
 -1       251 8.88216E-04 1.53332E-05 1.32349E-23
 -1       252 8.86893E-04 5.46222E-05 6.61744E-24
 -1       253 8.84853E-04 1.10167E-04-1.32349E-23
 -1       254 8.82299E-04 1.74564E-04-6.61744E-24
 -1       255 8.79802E-04 2.38006E-04-1.32349E-23
 -1       256 8.77905E-04 2.90712E-04-6.61744E-24
 -1       257 8.76728E-04 3.25804E-04-1.32349E-23
 -1       258 8.76085E-04 3.36812E-04-6.61744E-24
 -1       259 8.75418E-04 3.23595E-04 1.32349E-23
 -1       260 8.74175E-04 2.86594E-04-6.61744E-24
 -1       261 8.72208E-04 2.32506E-04 1.32349E-23
 -1       262 8.69671E-04 1.68422E-04-6.61744E-24
 -1       263 8.67122E-04 1.04140E-04 0.00000E+00
 -1       264 8.65123E-04 4.94648E-05-6.61744E-24
 -1       265 8.63849E-04 1.15890E-05-2.64698E-23
 -1       266 8.84720E-04-6.90418E-07-3.30872E-24
 -1       267 8.80531E-04-7.00881E-07 0.00000E+00
 -1       268 8.76341E-04-7.12028E-07 8.27181E-25
 -1       269 8.72151E-04-7.21150E-07-2.06795E-25
 -1       270 8.67961E-04-7.30225E-07 0.00000E+00
 -1       271 8.86364E-04 2.95300E-06 2.64698E-23
 -1       272 8.83931E-04 6.17277E-06-1.32349E-23
 -1       273 8.81665E-04 8.95652E-06-2.64698E-23
 -1       274 8.79575E-04 1.12608E-05-1.32349E-23
 -1       275 8.77677E-04 1.30532E-05-2.64698E-23
 -1       276 8.75981E-04 1.43062E-05-1.32349E-23
 -1       277 8.74496E-04 1.50002E-05 0.00000E+00
 -1       278 8.73225E-04 1.51231E-05-1.32349E-23
 -1       279 8.72170E-04 1.46707E-05 0.00000E+00
 -1       280 8.71329E-04 1.36468E-05 1.32349E-23
 -1       281 8.70698E-04 1.20629E-05 0.00000E+00
 -1       282 8.70269E-04 9.93849E-06 1.32349E-23
 -1       283 8.70033E-04 7.30030E-06 0.00000E+00
 -1       284 8.69977E-04 4.18324E-06 0.00000E+00
 -1       285 8.70085E-04 6.26501E-07 0.00000E+00
 -1       301 8.64501E-04-2.80063E-06 1.32349E-23
 -1       302 8.65197E-04-2.89927E-06 0.00000E+00
 -1       303 8.65688E-04-2.99600E-06-6.61744E-24
 -1       304 8.66416E-04-3.09260E-06 0.00000E+00
 -1       305 8.67827E-04-3.19158E-06 0.00000E+00
 -1       306 8.84629E-04-7.94280E-05 0.00000E+00
 -1       307 9.38192E-04-2.98247E-04 2.64698E-23
 -1       308 1.00426E-03-6.23559E-04 0.00000E+00
 -1       309 1.07231E-03-1.00780E-03 0.00000E+00
 -1       310 1.14023E-03-1.38688E-03 1.05879E-22
 -1       311 1.20522E-03-1.69720E-03 5.29396E-23
 -1       312 1.25499E-03-1.89411E-03 1.05879E-22
 -1       313 1.26875E-03-1.94607E-03-5.29396E-23
 -1       314 1.22470E-03-1.85350E-03 0.00000E+00
 -1       315 1.10801E-03-1.63315E-03 0.00000E+00
 -1       316 9.27231E-04-1.32368E-03 1.05879E-22
 -1       317 7.05879E-04-9.66958E-04-2.64698E-23
 -1       318 4.85666E-04-6.11520E-04 0.00000E+00
 -1       319 3.08024E-04-3.05952E-04-2.64698E-23
 -1       320 1.95337E-04-9.16513E-05 5.29396E-23
 -1       336 2.14328E-04-3.62744E-06 0.00000E+00
 -1       337 2.05095E-04-4.21054E-06-6.61744E-24
 -1       338 1.94491E-04-4.80641E-06 0.00000E+00
 -1       339 1.82560E-04-5.41516E-06 6.61744E-24
 -1       340 1.69354E-04-6.03940E-06 1.32349E-23
 -1       406 1.40793E-04 7.85645E-07 3.30872E-24
 -1       407 1.41018E-04 8.97809E-07 8.27181E-25
 -1       408 1.41273E-04 1.00990E-06-1.65436E-24
 -1       409 1.41558E-04 1.12178E-06 0.00000E+00
 -1       410 1.41873E-04 1.23324E-06 1.65436E-24
 -1       521 8.93333E-04-8.85634E-05 0.00000E+00
 -1       522 9.49024E-04-3.27851E-04 0.00000E+00
 -1       523 1.01582E-03-6.82931E-04 0.00000E+00
 -1       524 1.08297E-03-1.10106E-03-5.29396E-23
 -1       525 1.15015E-03-1.51300E-03 0.00000E+00
 -1       526 1.21610E-03-1.85016E-03-5.29396E-23
 -1       527 1.26767E-03-2.06317E-03 0.00000E+00
 -1       528 1.28154E-03-2.11870E-03-5.29396E-23
 -1       529 1.23176E-03-2.01665E-03 1.05879E-22
 -1       530 1.10110E-03-1.77726E-03 0.00000E+00
 -1       531 8.98072E-04-1.44227E-03-1.05879E-22
 -1       532 6.49255E-04-1.05732E-03 5.29396E-23
 -1       533 4.01314E-04-6.73283E-04 0.00000E+00
 -1       534 2.00680E-04-3.41093E-04 5.29396E-23
 -1       535 7.30675E-05-1.06060E-04-2.11758E-22
 -1       536 1.54507E-04 1.69391E-05 6.61744E-24
 -1       537 1.53565E-04 5.76468E-05-3.30872E-24
 -1       538 1.52157E-04 1.09130E-04 0.00000E+00
 -1       539 1.50524E-04 1.65006E-04 0.00000E+00
 -1       540 1.49055E-04 2.17629E-04 3.30872E-24
 -1       541 1.48081E-04 2.59370E-04-1.65436E-24
 -1       542 1.47600E-04 2.85625E-04 3.30872E-24
 -1       543 1.47432E-04 2.91885E-04-1.65436E-24
 -1       544 1.47202E-04 2.78788E-04-3.30872E-24
 -1       545 1.46572E-04 2.47104E-04 0.00000E+00
 -1       546 1.45481E-04 2.02459E-04 0.00000E+00
 -1       547 1.44052E-04 1.50558E-04 0.00000E+00
 -1       548 1.42648E-04 9.91582E-05 0.00000E+00
 -1       549 1.41621E-04 5.60140E-05 1.65436E-24
 -1       550 1.41058E-04 2.65580E-05 0.00000E+00
 -1       551 1.37275E-04-7.07089E-06 0.00000E+00
 -1       552 1.16969E-04-7.51540E-06 0.00000E+00
 -1       553 9.48442E-05-7.99475E-06-2.48154E-24
 -1       554 7.17454E-05-8.49654E-06 0.00000E+00
 -1       555 4.85186E-05-9.00366E-06 0.00000E+00
 -1       556 1.49808E-04 6.51271E-06 0.00000E+00
 -1       557 1.45735E-04 1.70306E-05 0.00000E+00
 -1       558 1.42607E-04 2.51039E-05 0.00000E+00
 -1       559 1.40325E-04 3.09696E-05 0.00000E+00
 -1       560 1.38795E-04 3.48651E-05 0.00000E+00
 -1       561 1.37922E-04 3.70290E-05 0.00000E+00
 -1       562 1.37611E-04 3.77009E-05 0.00000E+00
 -1       563 1.37770E-04 3.71207E-05 0.00000E+00
 -1       564 1.38309E-04 3.55291E-05 0.00000E+00
 -1       565 1.39135E-04 3.31667E-05 0.00000E+00
 -1       566 1.40158E-04 3.02746E-05-6.61744E-24
 -1       567 1.41289E-04 2.70942E-05 0.00000E+00
 -1       568 1.42438E-04 2.38666E-05 1.65436E-24
 -1       569 1.43514E-04 2.08331E-05 0.00000E+00
 -1       570 1.44428E-04 1.82348E-05 0.00000E+00
 -1       571 1.40946E-04 1.51838E-05 8.27181E-25
 -1       572 1.41030E-04 1.41783E-05-4.13590E-25
 -1       573 1.41115E-04 1.31330E-05-1.65436E-24
 -1       574 1.41199E-04 1.20598E-05 8.27181E-25
 -1       575 1.41284E-04 1.09704E-05-3.30872E-24
 -1       576 1.41369E-04 9.87694E-06 0.00000E+00
 -1       577 1.41454E-04 8.79129E-06-3.30872E-24
 -1       578 1.41538E-04 7.72544E-06 1.65436E-24
 -1       579 1.41623E-04 6.69132E-06 3.30872E-24
 -1       580 1.41708E-04 5.70092E-06-6.61744E-24
 -1       581 1.41793E-04 4.76622E-06 0.00000E+00
 -1       582 1.41878E-04 3.89913E-06-6.61744E-24
 -1       583 1.41963E-04 3.11162E-06 0.00000E+00
 -1       584 1.42048E-04 2.41549E-06 0.00000E+00
 -1       585 1.42133E-04 1.82246E-06 0.00000E+00
 -1       586 1.41517E-04 1.61684E-05 0.00000E+00
 -1       587 1.42140E-04 1.61981E-05-4.13590E-25
 -1       588 1.42773E-04 1.62274E-05 0.00000E+00
 -1       589 1.43451E-04 1.62562E-05 0.00000E+00
 -1       590 1.44212E-04 1.62840E-05 0.00000E+00
 -1       591 1.41175E-04 1.52467E-05 2.06795E-25
 -1       592 1.41493E-04 1.43310E-05 0.00000E+00
 -1       593 1.41816E-04 1.33968E-05 8.27181E-25
 -1       594 1.42145E-04 1.24492E-05 0.00000E+00
 -1       595 1.42476E-04 1.14933E-05 0.00000E+00
 -1       596 1.42809E-04 1.05340E-05 0.00000E+00
 -1       597 1.43141E-04 9.57639E-06 0.00000E+00
 -1       598 1.43470E-04 8.62551E-06 0.00000E+00
 -1       599 1.43795E-04 7.68631E-06 8.27181E-25
 -1       600 1.44114E-04 6.76381E-06 2.06795E-25
 -1       601 1.44425E-04 5.86302E-06-4.13590E-25
 -1       602 1.44726E-04 4.98895E-06 0.00000E+00
 -1       603 1.45015E-04 4.14660E-06 2.06795E-25
 -1       604 1.45290E-04 3.34106E-06 5.16988E-26
 -1       605 1.45551E-04 2.57728E-06 0.00000E+00
 -1       606 1.42231E-04 1.05388E-06 0.00000E+00
 -1       607 1.42241E-04 8.56441E-07 0.00000E+00
 -1       608 1.42251E-04 7.45558E-07 0.00000E+00
 -1       609 1.42260E-04 7.15140E-07-1.65436E-24
 -1       610 1.42269E-04 7.59060E-07 0.00000E+00
 -1       611 1.42278E-04 8.71112E-07 0.00000E+00
 -1       612 1.42287E-04 1.04509E-06 0.00000E+00
 -1       613 1.42295E-04 1.27476E-06 0.00000E+00
 -1       614 1.42304E-04 1.55393E-06 0.00000E+00
 -1       615 1.42313E-04 1.87635E-06 0.00000E+00
 -1       616 1.42322E-04 2.23583E-06 1.65436E-24
 -1       617 1.42331E-04 2.62614E-06-4.13590E-25
 -1       618 1.42339E-04 3.04105E-06 0.00000E+00
 -1       619 1.42348E-04 3.47435E-06 0.00000E+00
 -1       620 1.42356E-04 3.91983E-06 0.00000E+00
 -1       621 1.42650E-04 1.42984E-06-1.65436E-24
 -1       622 1.43173E-04 1.51669E-06 0.00000E+00
 -1       623 1.43767E-04 1.60347E-06-1.65436E-24
 -1       624 1.44415E-04 1.69007E-06 0.00000E+00
 -1       625 1.45098E-04 1.77649E-06 0.00000E+00
 -1       626 1.42423E-04 1.08417E-06 0.00000E+00
 -1       627 1.42601E-04 8.97431E-07 0.00000E+00
 -1       628 1.42755E-04 7.75278E-07 0.00000E+00
 -1       629 1.42889E-04 7.09553E-07-1.65436E-24
 -1       630 1.43004E-04 6.92078E-07 0.00000E+00
 -1       631 1.43104E-04 7.14642E-07-1.65436E-24
 -1       632 1.43192E-04 7.69034E-07 0.00000E+00
 -1       633 1.43272E-04 8.47041E-07 1.65436E-24
 -1       634 1.43346E-04 9.40453E-07 0.00000E+00
 -1       635 1.43417E-04 1.04106E-06 0.00000E+00
 -1       636 1.43488E-04 1.14065E-06 0.00000E+00
 -1       637 1.43563E-04 1.23101E-06 1.65436E-24
 -1       638 1.43644E-04 1.30393E-06-3.30872E-24
 -1       639 1.43735E-04 1.35118E-06 0.00000E+00
 -1       640 1.43838E-04 1.36454E-06 1.65436E-24
 -1       656 1.42136E-04 3.87755E-06-6.61744E-24
 -1       657 1.42300E-04 3.36399E-06 0.00000E+00
 -1       658 1.42720E-04 2.85184E-06 0.00000E+00
 -1       659 1.43250E-04 2.34007E-06-6.61744E-24
 -1       660 1.43718E-04 1.82673E-06 6.61744E-24
 -1       661 1.42281E-04 4.78666E-06 0.00000E+00
 -1       662 1.42229E-04 5.12847E-06 0.00000E+00
 -1       663 1.42202E-04 5.40016E-06 0.00000E+00
 -1       664 1.42201E-04 5.60647E-06-8.27181E-25
 -1       665 1.42223E-04 5.75147E-06 0.00000E+00
 -1       666 1.42266E-04 5.83939E-06 0.00000E+00
 -1       667 1.42329E-04 5.87418E-06 1.65436E-24
 -1       668 1.42411E-04 5.85976E-06 0.00000E+00
 -1       669 1.42509E-04 5.79989E-06 0.00000E+00
 -1       670 1.42623E-04 5.69822E-06-8.27181E-25
 -1       671 1.42752E-04 5.55833E-06 0.00000E+00
 -1       672 1.42893E-04 5.38364E-06 0.00000E+00
 -1       673 1.43047E-04 5.17759E-06 0.00000E+00
 -1       674 1.43210E-04 4.94322E-06 0.00000E+00
 -1       675 1.43382E-04 4.68416E-06 0.00000E+00
 -1       676 1.41971E-04 4.86029E-06 0.00000E+00
 -1       677 1.42290E-04 4.76798E-06 0.00000E+00
 -1       678 1.42608E-04 4.67572E-06-3.30872E-24
 -1       679 1.42925E-04 4.58374E-06-1.65436E-24
 -1       680 1.43242E-04 4.49176E-06 1.65436E-24
 -1       771 1.75550E-05 8.90260E-06 5.29396E-23
 -1       772 1.03901E-05 2.40251E-05 0.00000E+00
 -1       773 4.44899E-06 3.60121E-05 0.00000E+00
 -1       774-3.50829E-07 4.50483E-05 0.00000E+00
 -1       775-4.09063E-06 5.13246E-05 0.00000E+00
 -1       776-6.85497E-06 5.50420E-05 5.29396E-23
 -1       777-8.72872E-06 5.64071E-05 0.00000E+00
 -1       778-9.79867E-06 5.56352E-05 2.64698E-23
 -1       779-1.01516E-05 5.29463E-05 5.29396E-23
 -1       780-9.87586E-06 4.85670E-05 2.64698E-23
 -1       781-9.05958E-06 4.27283E-05 0.00000E+00
 -1       782-7.79208E-06 3.56661E-05 2.64698E-23
 -1       783-6.16244E-06 2.76189E-05 5.29396E-23
 -1       784-4.26065E-06 1.88293E-05 2.64698E-23
 -1       785-2.17629E-06 9.54112E-06 0.00000E+00
 -1       786 1.45132E-04 1.51938E-05-1.03398E-25
 -1       787 1.45176E-04 1.41257E-05 4.13590E-25
 -1       788 1.45219E-04 1.30967E-05 0.00000E+00
 -1       789 1.45264E-04 1.20991E-05 0.00000E+00
 -1       790 1.45308E-04 1.11284E-05-1.65436E-24
 -1       791 1.45352E-04 1.01803E-05 0.00000E+00
 -1       792 1.45396E-04 9.25255E-06 0.00000E+00
 -1       793 1.45441E-04 8.34309E-06 0.00000E+00
 -1       794 1.45485E-04 7.45168E-06 0.00000E+00
 -1       795 1.45530E-04 6.57815E-06 0.00000E+00
 -1       796 1.45574E-04 5.72414E-06 0.00000E+00
 -1       797 1.45618E-04 4.89132E-06 0.00000E+00
 -1       798 1.45663E-04 4.08353E-06-1.65436E-24
 -1       799 1.45707E-04 3.30467E-06-8.27181E-25
 -1       800 1.45752E-04 2.56158E-06-1.65436E-24
 -1       801 1.18404E-04 1.43623E-05 2.64698E-23
 -1       802 3.70812E-05 9.54949E-06 0.00000E+00
 -1       803-3.66539E-05 5.21836E-06 5.29396E-23
 -1       804-4.11092E-05 3.47337E-06 2.64698E-23
 -1       805-1.51575E-05 1.63586E-06 5.29396E-23
 -1       806 1.45412E-04 1.51370E-05 1.65436E-24
 -1       807 1.45719E-04 1.39922E-05-1.65436E-24
 -1       808 1.46014E-04 1.28781E-05-3.30872E-24
 -1       809 1.46295E-04 1.17978E-05 1.65436E-24
 -1       810 1.46563E-04 1.07541E-05 0.00000E+00
 -1       811 1.46816E-04 9.74986E-06 1.65436E-24
 -1       812 1.47053E-04 8.78788E-06-1.65436E-24
 -1       813 1.47273E-04 7.87100E-06 8.27181E-25
 -1       814 1.47475E-04 7.00200E-06 0.00000E+00
 -1       815 1.47659E-04 6.18367E-06 0.00000E+00
 -1       816 1.47822E-04 5.41881E-06 3.30872E-24
 -1       817 1.47964E-04 4.71020E-06 8.27181E-25
 -1       818 1.48085E-04 4.06063E-06 0.00000E+00
 -1       819 1.48182E-04 3.47285E-06-8.27181E-25
 -1       820 1.48256E-04 2.94963E-06-1.65436E-24
 -1       821 1.45688E-04 1.08777E-06-8.27181E-25
 -1       822 1.45572E-04 1.27633E-07-8.27181E-25
 -1       823 1.45457E-04-9.00566E-07 0.00000E+00
 -1       824 1.45341E-04-1.87776E-06 1.65436E-24
 -1       825 1.45224E-04-2.69708E-06 3.30872E-24
 -1       826 1.45108E-04-3.25243E-06 0.00000E+00
 -1       827 1.44991E-04-3.50021E-06 3.30872E-24
 -1       828 1.44875E-04-3.39841E-06 0.00000E+00
 -1       829 1.44759E-04-2.98777E-06-3.30872E-24
 -1       830 1.44642E-04-2.31059E-06 0.00000E+00
 -1       831 1.44525E-04-1.47227E-06 3.30872E-24
 -1       832 1.44409E-04-5.79050E-07 0.00000E+00
 -1       833 1.44293E-04 2.49819E-07 0.00000E+00
 -1       834 1.44178E-04 8.95449E-07 0.00000E+00
 -1       835 1.44063E-04 1.28217E-06 0.00000E+00
 -1       836 1.46392E-04 1.96632E-06-3.30872E-24
 -1       837 1.46876E-04 2.07393E-06-4.96308E-24
 -1       838 1.47279E-04 2.18141E-06 0.00000E+00
 -1       839 1.47631E-04 2.28822E-06 8.27181E-25
 -1       840 1.47963E-04 2.39487E-06 0.00000E+00
 -1       856 1.43933E-04 1.28704E-06 0.00000E+00
 -1       857 1.43909E-04 1.35963E-06 1.03398E-25
 -1       858 1.43885E-04 1.53452E-06 0.00000E+00
 -1       859 1.43860E-04 1.79266E-06 0.00000E+00
 -1       860 1.43835E-04 2.11495E-06 0.00000E+00
 -1       861 1.43810E-04 2.48219E-06 0.00000E+00
 -1       862 1.43785E-04 2.87518E-06 0.00000E+00
 -1       863 1.43760E-04 3.27467E-06-4.13590E-25
 -1       864 1.43735E-04 3.66142E-06 0.00000E+00
 -1       865 1.43710E-04 4.01617E-06 0.00000E+00
 -1       866 1.43684E-04 4.31974E-06 8.27181E-25
 -1       867 1.43659E-04 4.55295E-06 4.13590E-25
 -1       868 1.43634E-04 4.69673E-06 0.00000E+00
 -1       869 1.43609E-04 4.73204E-06 4.13590E-25
 -1       870 1.43584E-04 4.63999E-06 0.00000E+00
 -1       871 1.44249E-04 1.33354E-06 0.00000E+00
 -1       872 1.44671E-04 1.32865E-06 0.00000E+00
 -1       873 1.45162E-04 1.32324E-06 0.00000E+00
 -1       874 1.45667E-04 1.31719E-06 5.16988E-26
 -1       875 1.46128E-04 1.31060E-06-8.27181E-25
 -1       876 1.44084E-04 1.29906E-06 0.00000E+00
 -1       877 1.44194E-04 1.32163E-06 0.00000E+00
 -1       878 1.44284E-04 1.39628E-06 3.30872E-24
 -1       879 1.44358E-04 1.51641E-06 0.00000E+00
 -1       880 1.44417E-04 1.67540E-06 0.00000E+00
 -1       881 1.44464E-04 1.86664E-06 1.65436E-24
 -1       882 1.44502E-04 2.08356E-06-3.30872E-24
 -1       883 1.44533E-04 2.31958E-06 1.65436E-24
 -1       884 1.44558E-04 2.56814E-06 0.00000E+00
 -1       885 1.44582E-04 2.82267E-06-1.65436E-24
 -1       886 1.44605E-04 3.07662E-06 0.00000E+00
 -1       887 1.44632E-04 3.32338E-06-1.65436E-24
 -1       888 1.44663E-04 3.55639E-06 3.30872E-24
 -1       889 1.44701E-04 3.76893E-06 0.00000E+00
 -1       890 1.44749E-04 3.95446E-06 0.00000E+00
 -1       891 1.43895E-04 4.35200E-06-1.65436E-24
 -1       892 1.44211E-04 4.30206E-06 8.27181E-25
 -1       893 1.44483E-04 4.25217E-06-1.65436E-24
 -1       894 1.44688E-04 4.20244E-06 8.27181E-25
 -1       895 1.44803E-04 4.15284E-06 0.00000E+00
 -1       956 1.48194E-04 2.17861E-06 1.65436E-24
 -1       957 1.48080E-04 1.93646E-06 0.00000E+00
 -1       958 1.47967E-04 1.75888E-06 3.30872E-24
 -1       959 1.47853E-04 1.63706E-06 0.00000E+00
 -1       960 1.47739E-04 1.56219E-06 0.00000E+00
 -1       961 1.47625E-04 1.52541E-06 0.00000E+00
 -1       962 1.47511E-04 1.51785E-06 3.30872E-24
 -1       963 1.47397E-04 1.53064E-06 0.00000E+00
 -1       964 1.47283E-04 1.55489E-06 0.00000E+00
 -1       965 1.47169E-04 1.58173E-06 1.65436E-24
 -1       966 1.47055E-04 1.60229E-06 0.00000E+00
 -1       967 1.46941E-04 1.60768E-06 0.00000E+00
 -1       968 1.46827E-04 1.58904E-06 3.30872E-24
 -1       969 1.46714E-04 1.53752E-06 0.00000E+00
 -1       970 1.46600E-04 1.44430E-06 6.61744E-24
 -1       971 1.46384E-04 1.16851E-06 0.00000E+00
 -1       972 1.46279E-04 1.12384E-06 1.65436E-24
 -1       973 1.46173E-04 1.15718E-06 0.00000E+00
 -1       974 1.46067E-04 1.25848E-06 0.00000E+00
 -1       975 1.45961E-04 1.41770E-06 0.00000E+00
 -1       976 1.45856E-04 1.62475E-06-1.65436E-24
 -1       977 1.45750E-04 1.86955E-06 0.00000E+00
 -1       978 1.45644E-04 2.14199E-06 1.65436E-24
 -1       979 1.45538E-04 2.43198E-06 0.00000E+00
 -1       980 1.45432E-04 2.72941E-06 1.65436E-24
 -1       981 1.45326E-04 3.02418E-06 0.00000E+00
 -1       982 1.45220E-04 3.30617E-06 1.65436E-24
 -1       983 1.45114E-04 3.56529E-06 3.30872E-24
 -1       984 1.45009E-04 3.79144E-06 0.00000E+00
 -1       985 1.44905E-04 3.97455E-06-1.65436E-24
 -3
    1PSTEP                        18           9           1          
  100CL  109 5.91797E-01         409                     0    9           1
 -4  STRESS      6    1
 -5  SXX         1    4    1    1
 -5  SYY         1    4    2    2
 -5  SZZ         1    4    3    3
 -5  SXY         1    4    1    2
 -5  SYZ         1    4    2    3
 -5  SZX         1    4    3    1
 -1         1-3.38656E+06-1.32805E+06-7.37438E+05-1.44724E+06-4.94765E-10 4.28699E-08
 -1         2 1.54338E+03-1.25872E+06 5.04087E+03 4.54539E+03 3.34154E-10 2.29554E-07
 -1         3-6.64109E+02-1.42794E+06 3.44594E+02-1.36180E+03-3.81341E-10-2.13113E-08
 -1         5-7.20148E+00 3.21201E+05 8.20348E+00-2.68549E-01-1.40944E-10-6.30007E-09
 -1         8-8.97107E+05-3.07991E+05-9.00427E+04-3.85350E+05-4.11092E-10-1.54250E-09
 -1         9 1.56594E+06-7.30381E+05 3.53936E+05-8.46626E+05 1.96102E-08 6.34696E-08
 -1        10-1.56091E+03-1.48780E+06-2.80817E+03-9.20765E+03-9.05129E-09-3.71217E-08
 -1        12-3.84418E+00 3.21218E+05 2.65959E+02-1.97976E+00-2.07336E-10 8.72660E-10
 -1        15 1.59356E+03 8.75750E+02 5.15116E+03 2.88731E+00-2.55113E-10-3.92408E-08
 -1        16 5.23707E+06-6.27659E+05 7.58211E+05-1.10168E+06 1.65504E-08-1.83936E-08
 -1        17 1.60707E+06 1.05122E+06 4.77681E+05 1.15604E+06 5.90226E-09 3.47907E-08
 -1        18 3.38114E+04 4.38155E+03-1.72969E+04-9.27005E+04 1.03732E-08 3.78350E-10
 -1        19 1.03163E+05 1.18623E+05-8.40878E+02 1.97543E+04 3.87990E-10-4.04398E-09
 -1        20-5.90453E+04-4.86913E+05-1.08528E+05 2.72581E+04 1.09549E-09-4.32010E-09
 -1        21-4.23166E+01-2.64237E+05-8.36830E+02 5.77211E+01-4.33730E-07-1.18346E-08
 -1        24 2.26228E+06 2.58682E+06 9.18815E+05 2.23918E+06-9.65423E-08-3.93290E-08
 -1        25-5.26087E+04-3.88420E+05-6.77182E+04-2.82678E+05-9.33960E-10-1.56706E-09
 -1        26-4.24472E+04 7.69671E+04-2.03344E+04-2.61938E+03 1.09976E-09 3.72352E-09
 -1        27-6.90169E+04-2.64385E+05-9.78010E+04 5.93983E+04 4.90991E-09-2.37924E-09
 -1        28 2.01686E+04-7.48426E+04 1.50295E+04 2.04654E+04-3.58853E-10-6.89724E-09
 -1        32-1.47943E+06-2.50905E+06-1.14854E+05-1.88641E+05-3.05808E-08-1.24697E-09
 -1        33-1.54278E+05 7.71926E+04 2.73744E+04-3.50007E+04-5.19511E-10-7.45786E-11
 -1        34-1.93854E+05-2.04138E+04 5.43555E+02 6.28662E+04-4.61194E-10 6.09164E-09
 -1        35-2.06264E+04-2.97122E+04-1.17607E+03 4.60152E+04 7.96149E-10 4.34011E-09
 -1        51 3.60745E+04-2.73831E+05 8.07443E+04-7.86248E+05-1.01863E-10-2.30211E-08
 -1        52 1.46695E+04-2.63013E+05 4.56504E+04-9.16786E+05 5.02041E-10-2.61352E-08
 -1        53 5.93771E+03-2.77794E+05 2.89825E+04-7.83417E+05 6.25732E-10-4.97093E-08
 -1        54 1.52295E+04-2.75116E+05 3.43405E+04-9.19733E+05 1.30967E-10-3.73693E-08
 -1        55 3.10485E+04-2.86565E+05 5.40511E+04-7.82981E+05 3.92902E-10 1.05647E-08
 -1        56-6.43066E+06-7.21624E+05-5.44458E+05-2.49984E+06 3.04135E-09-2.91620E-08
 -1        57-6.71504E+06-1.15037E+06-3.67331E+05-2.40348E+06 1.08630E-08-8.26913E-09
 -1        58-6.52862E+06-9.06136E+05-1.27959E+05-2.47845E+06 6.97037E-09-6.55564E-09
 -1        59-6.60435E+06-9.31161E+05-7.63604E+04-2.42605E+06 9.07130E-09-2.98169E-08
 -1        60-6.53974E+06-9.34954E+05-2.97963E+04-2.47914E+06-7.35918E-09-8.35371E-08
 -1        61-6.58935E+06-8.99397E+05-1.69093E+04-2.42750E+06 7.51106E-09-7.04313E-08
 -1        62-6.54328E+06-9.37092E+05-8.06265E+03-2.47720E+06-4.05976E-10-7.94739E-08
 -1        63-6.57916E+06-9.03418E+05-6.50658E+03-2.43647E+06-4.52928E-10 4.05032E-08
 -1        64-6.54972E+06-9.30945E+05-7.36421E+03-2.47008E+06-7.93580E-09 4.13039E-08
 -1        65-6.56548E+06-9.21580E+05-1.45943E+04-2.45327E+06-7.92511E-09-5.76121E-08
 -1        66-6.55684E+06-9.19111E+05-2.56729E+04-2.46027E+06-9.81436E-09-6.21731E-09
 -1        67-6.56351E+06-9.63668E+05-6.53053E+04-2.46925E+06-8.49104E-09-3.70210E-08
 -1        68-6.55207E+06-8.89491E+05-1.09497E+05-2.45398E+06-1.15087E-08-6.08634E-08
 -1        69-6.65591E+06-1.15409E+06-3.14245E+05-2.45381E+06-6.17729E-09-7.40984E-08
 -1        70-6.46622E+06-7.33518E+05-4.65808E+05-2.47439E+06-8.49832E-09-5.37548E-08
 -1        86-7.85396E+02-1.26110E+06 5.24201E+03-2.27271E+03-1.32763E-09 1.25281E-07
 -1        87 5.08562E+03-1.25729E+06 1.11002E+04 8.03792E+03-2.39777E-09 2.96464E-08
 -1        88-4.29564E+03-1.26255E+06 1.69315E+04-5.76529E+03-2.65482E-09 4.42785E-08
 -1        89 3.19702E+04-1.24520E+06 4.56475E+04 1.23480E+04-4.14548E-09-7.14750E-08
 -1        90-2.75509E+04-1.27319E+06 6.45689E+04-6.58312E+03-2.75759E-09 4.69538E-08
 -1       121-9.30377E+02-1.43025E+06-5.66975E+01 6.77952E+02 9.44738E-10-1.40390E-08
 -1       122-5.28518E+02-1.42792E+06 7.04972E+02-2.72099E+03-3.65628E-09 1.81171E-09
 -1       123-9.82467E+02-1.43035E+06 7.34960E+02 2.02549E+03 2.86298E-09-7.66158E-09
 -1       124 8.75336E+02-1.42729E+06 2.84690E+03-5.72880E+03-7.04722E-09-3.91083E-10
 -1       125-1.79233E+03-1.43113E+06 3.91583E+03 3.67291E+03 4.51291E-09-1.03464E-08
 -1       191-7.83198E+00 3.21228E+05 9.74117E+00 1.35228E-01-1.68405E-10-5.86624E-10
 -1       192-7.95639E+00 3.21201E+05 1.73718E+01-1.02577E+00-2.33609E-10-2.72412E-08
 -1       193-9.83835E+00 3.21228E+05 3.22436E+01 8.96993E-01-3.27356E-10-3.24235E-09
 -1       194-1.03853E+01 3.21204E+05 6.57129E+01-2.39082E+00-1.51559E-10-7.17637E-09
 -1       195-1.36936E+01 3.21226E+05 1.28473E+02 1.51076E+00-4.75790E-10-8.31187E-09
 -1       251-1.83212E+06-7.72658E+03-1.33258E+05-1.00173E+05-4.34738E-10-1.74623E-08
 -1       252-1.33361E+06 1.12603E+04 9.46137E+03 3.07919E+05 1.78579E-09 3.36331E-09
 -1       253-1.60539E+06-6.10061E+03-2.44444E+04-2.06309E+05-1.85264E-09-5.94628E-08
 -1       254-1.56396E+06 3.16508E+04 9.73068E+02 4.06817E+05-9.86665E-09 3.38168E-08
 -1       255-1.62502E+06-9.18349E+03-1.37008E+04-2.00648E+05 5.80894E-09 2.52248E-08
 -1       256-1.28336E+06 2.67548E+04 6.07736E+04 2.86311E+05 9.06175E-09 6.33841E-08
 -1       257-1.85862E+06-2.34070E+04-6.05239E+04-8.40708E+04 1.07157E-08 2.42518E-08
 -1       258-1.03230E+06 2.08065E+04 1.09179E+05-6.51712E+03-3.49828E-08-3.44185E-08
 -1       259-1.85146E+06-2.31834E+04-5.76167E+04 9.10210E+04-3.08828E-08 5.58360E-08
 -1       260-1.29934E+06 2.85442E+04 6.16151E+04-2.94876E+05 1.77497E-08-5.16638E-09
 -1       261-1.61782E+06-9.87772E+03-4.99743E+03 2.03309E+05 5.72572E-08 3.98258E-08
 -1       262-1.56076E+06 4.01250E+04 1.83047E+04-4.06572E+05-3.93761E-08-4.69599E-08
 -1       263-1.61585E+06-1.37941E+04 2.05884E+03 2.04409E+05 1.85864E-08 3.70305E-08
 -1       264-1.29230E+06 6.46488E+04 8.89400E+04-2.99749E+05 9.37271E-08 6.91152E-08
 -1       265-1.86130E+06-5.45534E+04-2.64584E+04 9.48281E+04 3.22943E-08 9.69121E-08
 -1       266-2.88483E+04-1.34887E+04 6.76902E+04-6.17827E+01-1.23691E-10 1.23032E-08
 -1       267 3.34436E+04 1.57226E+04 4.78405E+04 7.12810E+01 1.72804E-11-2.61118E-08
 -1       268-4.48470E+03-2.22669E+03 1.77822E+04-9.08266E+00-1.60071E-10-5.93478E-08
 -1       269 5.29514E+03 2.66495E+03 1.15580E+04 1.05797E+01 1.43245E-11 1.33743E-08
 -1       270-7.94807E+02-4.37869E+02 5.57923E+03-1.43575E+00 1.20053E-10 5.50712E-08
 -1       271-2.64185E+06-3.25203E+05-1.98140E+05-1.02150E+06-2.38288E-09-4.74902E-08
 -1       272-2.74215E+06-4.41692E+05-1.27554E+05-9.87722E+05-3.32943E-09 4.50382E-09
 -1       273-2.67864E+06-3.75294E+05-4.67807E+04-1.01321E+06-9.54594E-09-2.81580E-09
 -1       274-2.69844E+06-3.80748E+05-2.62278E+04-1.00048E+06 6.91216E-10 3.26477E-08
 -1       275-2.68438E+06-3.79926E+05-1.09052E+04-1.01098E+06 3.67527E-09-1.46392E-08
 -1       276-2.69045E+06-3.76300E+05-5.74775E+03-1.00462E+06-4.86989E-09-3.04253E-08
 -1       277-2.68641E+06-3.79160E+05-2.84377E+03-1.00923E+06-1.62800E-10 7.17373E-08
 -1       278-2.68683E+06-3.78511E+05-1.91163E+03-1.00809E+06-1.32459E-08 5.10445E-08
 -1       279-2.68794E+06-3.77684E+05-2.03019E+03-1.00750E+06 6.18547E-09-4.71978E-08
 -1       280-2.68417E+06-3.81858E+05-3.46684E+03-1.01147E+06-1.49189E-08 3.59250E-10
 -1       281-2.68911E+06-3.75823E+05-6.36196E+03-1.00586E+06 7.40420E-09 6.11640E-08
 -1       282-2.68434E+06-3.88822E+05-1.50634E+04-1.01420E+06 6.51971E-09 2.21070E-08
 -1       283-2.68794E+06-3.71034E+05-2.68563E+04-1.00471E+06-8.24002E-10-6.42376E-08
 -1       284-2.70538E+06-4.27799E+05-7.31163E+04-1.01156E+06 8.73115E-10-4.26335E-08
 -1       285-2.66878E+06-3.40408E+05-1.13638E+05-1.00728E+06-1.31367E-08-8.61473E-09
 -1       301 1.94028E+04-2.76012E+05 1.75470E+05-5.09545E+05 2.40107E-10-1.77424E-08
 -1       302 2.39294E+04-2.31415E+05 1.11089E+05-7.56678E+05 1.60071E-10-5.69753E-08
 -1       303-3.45664E+02-2.59069E+05 7.63098E+04-5.08384E+05-2.54659E-10 1.97761E-08
 -1       304 1.94178E+04-2.31753E+05 1.00669E+05-7.56122E+05 7.56700E-10 5.26343E-08
 -1       305 1.39188E+04-2.69816E+05 1.52113E+05-5.10133E+05-1.30967E-09 7.05186E-08
 -1       306-1.38966E+07-2.26809E+06-2.96808E+06-1.98091E+06-4.97093E-08-2.64263E-08
 -1       307 5.70401E+06-1.36181E+06 1.60575E+06-6.38165E+06-4.43019E-07 4.08691E-08
 -1       308-8.02626E+06 2.83636E+05-3.11138E+05 1.27475E+06-1.06025E-07 1.51214E-07
 -1       309-3.29699E+06-9.62582E+05 4.76658E+05-1.05338E+07 9.81963E-08-2.21917E-09
 -1       310-8.46531E+06 1.98284E+05-3.48626E+05 1.14174E+06-1.70054E-07-2.36765E-08
 -1       311 6.70239E+06-1.65018E+06 1.96214E+06-5.55759E+06 3.98912E-07-1.43809E-08
 -1       312-1.39819E+07-2.26585E+06-2.43309E+06-2.44213E+06 4.49945E-08 8.50268E-08
 -1       313 1.11195E+07 2.33363E+06 3.27942E+06 4.44048E+06 4.67990E-08-4.99349E-08
 -1       314-1.05999E+07-5.33427E+06-2.35056E+06-5.69066E+06 2.22120E-07-1.45053E-07
 -1       315-3.60715E+06 7.88602E+06 1.83960E+06 4.27382E+06-1.17463E-07 5.87897E-08
 -1       316-3.04173E+06-4.83361E+06-2.51429E+05-4.30297E+06-4.46365E-07-2.42726E-07
 -1       317-1.27435E+07 8.45772E+06 4.60478E+05-3.42912E+05 4.19357E-07-3.85587E-07
 -1       318-3.20372E+06-4.90592E+06-4.32594E+05-4.34611E+06-4.81523E-07 1.83791E-08
 -1       319-3.02794E+06 8.07547E+06 1.65975E+06 4.37255E+06-1.18380E-07 7.13480E-08
 -1       320-1.09209E+07-5.51467E+06-3.15393E+06-5.61693E+06 7.50879E-08-6.86487E-09
 -1       336 3.20430E+02-1.54830E+06-1.05010E+04 5.48427E+03-1.81517E-08-1.86192E-08
 -1       337-3.98902E+03-1.54946E+06-1.29972E+04-1.33069E+04-3.29561E-08 3.57977E-09
 -1       338 6.08182E+02-1.54815E+06-1.90398E+04 7.74159E+03-2.33813E-08-8.72387E-09
 -1       339-2.01706E+04-1.56020E+06-4.28104E+04-1.77106E+04-4.27481E-08-6.81030E-09
 -1       340 1.34876E+04-1.53849E+06-6.69606E+04 9.82839E+03-2.79288E-08 1.10049E-08
 -1       406 1.64078E+01 3.21214E+05 5.24994E+02 4.94031E-01-5.69798E-10 5.10590E-09
 -1       407 1.79233E+02 3.21310E+05 1.11592E+03 7.76575E+00-2.04864E-10-8.65111E-09
 -1       408 5.70548E+02 3.21133E+05 2.22861E+03-8.47634E+00-7.31575E-10-7.84985E-09
 -1       409 2.40619E+03 3.22022E+05 5.01726E+03 8.57058E+01-1.17041E-10 1.58525E-08
 -1       410 6.92026E+03 3.20499E+05 1.02424E+04-8.13666E+01-1.04887E-09 1.05047E-08
 -1       521-1.60343E+07-2.90935E+06-3.72486E+06-2.07006E+06-5.19212E-08 9.17353E-08
 -1       522 6.37268E+06-1.50671E+06 1.74641E+06-8.26992E+06-3.39875E-07-1.94268E-07
 -1       523-9.43136E+06 2.11888E+05-3.69635E+05 1.61169E+06 8.32079E-08-3.57086E-07
 -1       524-4.87861E+06-3.61400E+05 5.72648E+05-1.31019E+07 4.85124E-07-3.32024E-07
 -1       525-9.97502E+06 7.69623E+04-4.21238E+05 1.45173E+06 2.32831E-07-1.01640E-07
 -1       526 7.82017E+06-1.89231E+06 2.24378E+06-7.18871E+06 4.46744E-08 4.48199E-08
 -1       527-1.61728E+07-2.98337E+06-3.01079E+06-2.63802E+06-7.32834E-08 1.11555E-07
 -1       528 1.32569E+07 2.66586E+06 3.70880E+06 5.43593E+06-3.85335E-08 7.58300E-08
 -1       529-1.21689E+07-6.62100E+06-2.90574E+06-6.45457E+06 1.77533E-08 3.02680E-09
 -1       530-4.99136E+06 1.00009E+07 2.11229E+06 4.88397E+06-1.98153E-07 3.43134E-07
 -1       531-3.50786E+06-5.94007E+06-2.91718E+05-5.00026E+06-4.91986E-07 2.36760E-08
 -1       532-1.58664E+07 1.06069E+07 5.76640E+05-1.38534E+06 2.68974E-07-3.91701E-07
 -1       533-3.64292E+06-6.00984E+06-4.77340E+05-5.02670E+06 1.94414E-08-5.94184E-07
 -1       534-4.44904E+06 1.02724E+07 1.91605E+06 4.95017E+06-8.92178E-08 3.96074E-07
 -1       535-1.24881E+07-6.87782E+06-3.78193E+06-6.36645E+06 2.57278E-08 2.56303E-07
 -1       536-5.29996E+05-3.42817E+04 9.41574E+03-3.17151E+04-5.34919E-09 3.95266E-08
 -1       537-2.25058E+05 3.52879E+04 5.93749E+04 7.70410E+04-8.18297E-08 7.44662E-08
 -1       538-3.83858E+05-3.71802E+02 9.84057E+03-4.70752E+04 2.28499E-08 8.02097E-08
 -1       539-3.26101E+05 3.19142E+03 1.61429E+04 8.84559E+04 9.75670E-08 7.42821E-08
 -1       540-4.31317E+05-2.68107E+02-7.73262E+03-4.32850E+04-1.28700E-08 7.24368E-08
 -1       541-1.34153E+05 8.00462E+03 5.01589E+04 5.79118E+04-2.71739E-08 6.88094E-08
 -1       542-5.70662E+05-9.41810E+03-3.84708E+04-1.62695E+04 2.50193E-08 4.10957E-08
 -1       543-1.86170E+04 1.25730E+04 7.22295E+04-9.52729E+03 2.90070E-08-1.05581E-08
 -1       544-5.43782E+05-7.35227E+03-3.39984E+04 2.39432E+04 1.16484E-08-2.04239E-08
 -1       545-1.95483E+05 3.67138E+03 3.46270E+04-7.06443E+04-4.17538E-09-5.10778E-08
 -1       546-3.98491E+05 3.33041E+03-6.47236E+03 4.47544E+04 1.04865E-09-5.31043E-08
 -1       547-3.37412E+05-4.33167E+03 7.46446E+02-9.06467E+04-8.55981E-08-6.51229E-08
 -1       548-4.05607E+05 3.73804E+03-1.69713E+04 4.41529E+04-7.09429E-08-7.63571E-08
 -1       549-1.83563E+05-4.02410E+03 1.22223E+04-6.75585E+04-4.13711E-08-4.13875E-08
 -1       550-5.48154E+05-4.26443E+02-8.21399E+04 2.14437E+04 4.04179E-09-1.77006E-08
 -1       551 2.80245E+04-7.04023E+05 1.42109E+04-1.10324E+06-7.10425E-08-1.60071E-10
 -1       552 6.24963E+04-7.28052E+05 2.67462E+04-1.57256E+06-5.14410E-08 1.99288E-08
 -1       553 4.61971E+04-7.30936E+05 4.32159E+04-1.09839E+06-8.64529E-08 2.48838E-08
 -1       554 9.38282E+04-7.32118E+05 9.39965E+04-1.57437E+06-5.53118E-08 1.48848E-08
 -1       555 7.54347E+04-7.51673E+05 1.67664E+05-1.09890E+06-8.74206E-08-1.16852E-08
 -1       556 1.54333E+05-2.76193E+05 5.78946E+04-3.23041E+05-1.85828E-08-1.75933E-08
 -1       557 2.57722E+05-3.59327E+05 3.15007E+04-4.11247E+05-3.49246E-09 3.08319E-09
 -1       558 1.46517E+05-2.79452E+05 1.10264E+04-3.19507E+05-1.53377E-08 6.18456E-09
 -1       559 2.39474E+05-3.65550E+05 6.12172E+03-4.22900E+05 1.55997E-08-9.16771E-09
 -1       560 1.38460E+05-2.74330E+05 1.52910E+03-3.25105E+05 9.25502E-09 2.79033E-09
 -1       561 2.28880E+05-3.61658E+05 1.19758E+03-4.29917E+05-3.53612E-09-4.21369E-09
 -1       562 1.32117E+05-2.70317E+05-7.00134E+01-3.29661E+05 1.10158E-08-9.02219E-09
 -1       563 2.21408E+05-3.58402E+05 2.81913E+02-4.34748E+05 2.42362E-08-1.61444E-08
 -1       564 1.27773E+05-2.67590E+05-9.56231E+01-3.32728E+05 1.98779E-08 1.57297E-09
 -1       565 2.16776E+05-3.56388E+05 1.13637E+02-4.37693E+05 3.15777E-09-6.77574E-10
 -1       566 1.25504E+05-2.66145E+05-4.71772E+01-3.34320E+05-8.11269E-10-1.14869E-08
 -1       567 2.14969E+05-3.55593E+05-1.47598E+02-4.38736E+05 1.03719E-08-6.32645E-09
 -1       568 1.25366E+05-2.66074E+05-5.79814E+02-3.34510E+05 1.44246E-09 6.81030E-09
 -1       569 2.14938E+05-3.55554E+05-1.45733E+03-4.37002E+05-1.14542E-08 1.48648E-08
 -1       570 1.28201E+05-2.68522E+05-3.31479E+03-3.33887E+05 1.60799E-09 2.23099E-09
 -1       571 2.43265E+05 8.89285E+03 1.29803E+04-6.87964E+04-2.09184E-11 1.01979E-08
 -1       572 2.45176E+05 3.19692E+03 6.36025E+03-7.54690E+04 3.17868E-10-4.10432E-09
 -1       573 2.44030E+05 8.64666E+02 2.82584E+03-6.86534E+04 3.60478E-09-1.27657E-08
 -1       574 2.44242E+05 3.90515E+02 1.41642E+03-7.56396E+04 2.23008E-09-4.47380E-09
 -1       575 2.44115E+05 1.71581E+02 6.68195E+02-6.86342E+04 2.03431E-09 9.64246E-09
 -1       576 2.44121E+05 1.60705E+02 3.41382E+02-7.56623E+04-2.76532E-09-8.84029E-09
 -1       577 2.44139E+05 1.28121E+02 1.69991E+02-6.86316E+04-1.43336E-09 1.52959E-08
 -1       578 2.44126E+05 1.39528E+02 9.67724E+01-7.56653E+04-4.19641E-09 6.57928E-09
 -1       579 2.44174E+05 1.12739E+02 6.55572E+01-6.86314E+04 8.84575E-09 2.32558E-09
 -1       580 2.44175E+05 1.16628E+02 7.30647E+01-7.56614E+04 1.29439E-08 1.91585E-08
 -1       581 2.44229E+05 8.71830E+01 1.10235E+02-6.86356E+04 1.28111E-08 6.12636E-09
 -1       582 2.44268E+05 1.11571E+02 2.20738E+02-7.56173E+04 7.23048E-10-1.86465E-08
 -1       583 2.44294E+05 1.47593E+02 4.26728E+02-6.86756E+04 1.81899E-12-6.66364E-09
 -1       584 2.44507E+05 4.89731E+02 9.61671E+02-7.52809E+04 3.37241E-09 3.78009E-09
 -1       585 2.44265E+05 1.32428E+03 1.95227E+03-6.89720E+04 1.55705E-09-3.35422E-09
 -1       586-3.01185E+03 8.54017E+04-3.32843E+03-2.15541E+05-3.59796E-09-5.33043E-09
 -1       587-8.66029E+02 8.50257E+04 1.44868E+02-2.37243E+05-4.10000E-09-4.56998E-09
 -1       588 6.66713E+02 8.50054E+04 3.63044E+03-2.15437E+05-2.02817E-09 1.27056E-08
 -1       589 4.52396E+03 8.69457E+04 9.86004E+03-2.37003E+05-3.76531E-09 1.19044E-08
 -1       590 1.38016E+04 8.39201E+04 2.08575E+04-2.15807E+05-2.32103E-09 1.27329E-11
 -1       591-5.33889E+04-1.28576E+04-1.75678E+04-2.44946E+04 3.53020E-09 3.23598E-09
 -1       592-5.60891E+04-1.61197E+04-9.51589E+03-2.78768E+04 2.88333E-09-4.74415E-09
 -1       593-5.51501E+04-1.15784E+04-3.96118E+03-2.57785E+04 1.14187E-09-3.35535E-09
 -1       594-5.36568E+04-1.35491E+04-1.97560E+03-2.79774E+04 2.76162E-09 7.18441E-09
 -1       595-5.52846E+04-1.15738E+04-9.07329E+02-2.58370E+04-4.62387E-09 1.48925E-08
 -1       596-5.34908E+04-1.34315E+04-4.61648E+02-2.79583E+04 1.07112E-09 9.87816E-09
 -1       597-5.53015E+04-1.15856E+04-2.52220E+02-2.58392E+04 1.17615E-09 5.72084E-09
 -1       598-5.34745E+04-1.34269E+04-2.04299E+02-2.79530E+04 3.27856E-09 8.86189E-10
 -1       599-5.53003E+04-1.15859E+04-2.62888E+02-2.58388E+04-1.01068E-09-3.42948E-09
 -1       600-5.34913E+04-1.34324E+04-4.89897E+02-2.79570E+04-4.60886E-10 7.85121E-10
 -1       601-5.52802E+04-1.15742E+04-9.67250E+02-2.58358E+04 2.75440E-09-1.90728E-08
 -1       602-5.36682E+04-1.35572E+04-2.10844E+03-2.79744E+04-1.85537E-09-7.16568E-09
 -1       603-5.51345E+04-1.15815E+04-4.22850E+03-2.57739E+04 9.46329E-10 1.56251E-09
 -1       604-5.62781E+04-1.62862E+04-1.01577E+04-2.78477E+04 4.63001E-09-6.63681E-09
 -1       605-5.32384E+04-1.29609E+04-1.87527E+04-2.44183E+04 3.53759E-09 1.35842E-08
 -1       606 2.71616E+04-1.17575E+04-2.11140E+04 2.57054E+04 2.33013E-09-6.30098E-09
 -1       607 2.35504E+04-3.82087E+03-1.05141E+04 2.88673E+04-2.17187E-09-9.65861E-09
 -1       608 2.56030E+04-6.71369E+02-4.70768E+03 2.55088E+04-1.42245E-09-3.07455E-09
 -1       609 2.52021E+04-2.07424E+02-2.37790E+03 2.90944E+04-3.46699E-09 6.79847E-11
 -1       610 2.54197E+04-6.42940E+00-1.13520E+03 2.54864E+04-2.36469E-11-1.19826E-09
 -1       611 2.53505E+04 9.98236E-01-5.72340E+02 2.91192E+04-1.99816E-09-4.55407E-09
 -1       612 2.53744E+04 8.96664E+00-2.72809E+02 2.54842E+04-1.86992E-09-2.61025E-10
 -1       613 2.53532E+04 8.18860E+00-1.22839E+02 2.91221E+04-2.74122E-09-8.81528E-10
 -1       614 2.53509E+04 7.05975E+00-3.06133E+01 2.54834E+04 5.02951E-10-3.43903E-09
 -1       615 2.53434E+04 1.23979E+01 4.73925E+01 2.91225E+04 3.23234E-09-6.67796E-10
 -1       616 2.53327E+04 1.20864E+01 1.45832E+02 2.54837E+04 1.76442E-10 5.67911E-09
 -1       617 2.53569E+04 4.59255E+01 3.34339E+02 2.91220E+04 3.86740E-09-3.34103E-09
 -1       618 2.53007E+04 1.10351E+02 6.74412E+02 2.54839E+04 1.46883E-09 3.73279E-09
 -1       619 2.55926E+04 5.68920E+02 1.51485E+03 2.91212E+04-1.30012E-09 1.35262E-08
 -1       620 2.50752E+04 1.71094E+03 3.04486E+03 2.54835E+04-1.57172E-09 4.05180E-09
 -1       621 3.18689E+02 2.49082E+05 2.80317E+03 2.27337E+04 4.33829E-10-7.78709E-09
 -1       622 4.00836E+02 2.49757E+05 2.58353E+03 3.30524E+04 4.19732E-10-8.14907E-10
 -1       623 4.33447E+01 2.49234E+05 3.23309E+03 2.26272E+04 4.08932E-10 9.80890E-10
 -1       624 1.57891E+03 2.50804E+05 6.37024E+03 3.31598E+04 3.59620E-10-2.14055E-08
 -1       625 1.57623E+03 2.47976E+05 1.11819E+04 2.26244E+04 5.78439E-10-1.08013E-08
 -1       626 2.19291E+05 5.56257E+04 4.66513E+03 1.11529E+05 1.57615E-09-6.18456E-11
 -1       627 2.16943E+05 5.71354E+04 2.24806E+03 1.15682E+05 1.69939E-09 1.32812E-08
 -1       628 2.19423E+05 5.34707E+04 9.50181E+02 1.12296E+05-6.81212E-10-5.21754E-09
 -1       629 2.16334E+05 5.65427E+04 4.65136E+02 1.15926E+05 5.40422E-09-1.13914E-09
 -1       630 2.19434E+05 5.33681E+04 2.15175E+02 1.12324E+05 1.48693E-08-1.96924E-08
 -1       631 2.16266E+05 5.65233E+04 1.15100E+02 1.15927E+05 3.83184E-08 1.99594E-09
 -1       632 2.19427E+05 5.33740E+04 7.45125E+01 1.12317E+05 1.55055E-08-1.17781E-08
 -1       633 2.16254E+05 5.65272E+04 8.11289E+01 1.15920E+05 1.08480E-09 7.77618E-11
 -1       634 2.19419E+05 5.33736E+04 1.29418E+02 1.12314E+05 1.25647E-09-1.69898E-08
 -1       635 2.16263E+05 5.65273E+04 2.60926E+02 1.15923E+05-1.33116E-09-1.63407E-08
 -1       636 2.19408E+05 5.33705E+04 5.26407E+02 1.12313E+05 6.63346E-09-1.15615E-08
 -1       637 2.16374E+05 5.66099E+04 1.15687E+03 1.15920E+05 9.86620E-09-4.01606E-08
 -1       638 2.19366E+05 5.36269E+04 2.37704E+03 1.12196E+05 1.16781E-08-1.39657E-08
 -1       639 2.17622E+05 5.83461E+04 5.62371E+03 1.15551E+05 4.69117E-09 5.83736E-09
 -1       640 2.19197E+05 5.88079E+04 1.16703E+04 1.10005E+05 1.68211E-09-5.83805E-09
 -1       656 5.71377E+04-1.45570E+06-1.37931E+05-1.09745E+03 1.23691E-10-3.32875E-10
 -1       657-7.55580E+04-1.51799E+06-1.14196E+05 6.82722E+03-4.11092E-10-1.31100E-08
 -1       658 1.81822E+04-1.47342E+06-7.02425E+04-2.73426E+03 3.38332E-10 1.60856E-09
 -1       659-8.14625E+04-1.52079E+06-1.21953E+05 8.06607E+03-8.25821E-10 2.59202E-09
 -1       660 6.30287E+04-1.45290E+06-1.51269E+05-2.33628E+03-1.20781E-09-2.09272E-09
 -1       661 1.63729E+05 1.75020E+04 1.64781E+04 6.40218E+04 8.37190E-10 2.22099E-09
 -1       662 1.72720E+05 3.00238E+04 1.11043E+04 6.06950E+04 2.28988E-09-6.78665E-09
 -1       663 1.66963E+05 2.27899E+04 3.88398E+03 6.30847E+04 2.14573E-09-1.68259E-08
 -1       664 1.68973E+05 2.38376E+04 2.32280E+03 6.18378E+04 1.54000E-09-1.29297E-08
 -1       665 1.67451E+05 2.35144E+04 9.16325E+02 6.29443E+04 1.60270E-09-8.51009E-09
 -1       666 1.68397E+05 2.30074E+04 5.35442E+02 6.20196E+04 1.96222E-09-1.59247E-09
 -1       667 1.67535E+05 2.35985E+04 2.83556E+02 6.29107E+04 1.10933E-09-4.18918E-09
 -1       668 1.68305E+05 2.29445E+04 2.86951E+02 6.20684E+04-5.01629E-10-1.38121E-08
 -1       669 1.67542E+05 2.35754E+04 3.86881E+02 6.28961E+04-2.42569E-09-3.28274E-09
 -1       670 1.68400E+05 2.31527E+04 8.40933E+02 6.20702E+04 3.48528E-10-1.33207E-09
 -1       671 1.67440E+05 2.33946E+04 1.49263E+03 6.29071E+04-1.55402E-09-9.04771E-09
 -1       672 1.69270E+05 2.46047E+04 3.81846E+03 6.18598E+04 2.04963E-10-1.03084E-08
 -1       673 1.66677E+05 2.21600E+04 6.39898E+03 6.30925E+04-1.58184E-09-7.45558E-09
 -1       674 1.75362E+05 3.48839E+04 1.82997E+04 6.00689E+04-9.59574E-10-9.64133E-09
 -1       675 1.61388E+05 1.34031E+04 2.71629E+04 6.45897E+04-1.20644E-09-1.65928E-08
 -1       676 2.17176E+01-2.64168E+05-1.00860E+03-2.88613E+01 2.23622E-10 8.89755E-09
 -1       677-2.67814E+02-2.64411E+05-1.84588E+03 5.76840E+01 1.66324E-09 8.39398E-09
 -1       678 1.78812E+02-2.63994E+05-3.26305E+03-2.88032E+01-6.76437E-11-4.07195E-09
 -1       679-3.26399E+03-2.66381E+05-7.75153E+03 5.74614E+01 2.16971E-09 3.88500E-09
 -1       680 1.94801E+03-2.62199E+05-1.24928E+04-2.83154E+01 2.21462E-10 4.47395E-09
 -1       771-2.78091E+06-5.99859E+05-1.01606E+05-1.26778E+06-2.30211E-08-2.19443E-08
 -1       772-2.72949E+06-6.64453E+05-5.29424E+04-1.34177E+06-1.75787E-08 6.87942E-09
 -1       773-2.79966E+06-5.85071E+05-2.58106E+04-1.27498E+06-1.40280E-08 8.14907E-09
 -1       774-2.72061E+06-6.53672E+05-1.17680E+04-1.35596E+06 1.68366E-08-7.56700E-10
 -1       775-2.80825E+06-5.78992E+05-8.02379E+03-1.27786E+06 2.13913E-09 6.49015E-09
 -1       776-2.72567E+06-6.52726E+05-3.13069E+03-1.36602E+06-3.84171E-09 2.67755E-09
 -1       777-2.81544E+06-5.73737E+05-3.27238E+03-1.28038E+06 8.44011E-10 2.18643E-09
 -1       778-2.73116E+06-6.51949E+05-9.72168E+02-1.37458E+06 8.44011E-10-1.44064E-09
 -1       779-2.82151E+06-5.69218E+05-1.55435E+03-1.28255E+06-1.06375E-08-6.51198E-09
 -1       780-2.73598E+06-6.51186E+05-2.74020E+02-1.38153E+06-7.68341E-09-5.02041E-10
 -1       781-2.82628E+06-5.65612E+05-5.92147E+02-1.28424E+06-1.56433E-08-8.36735E-10
 -1       782-2.73968E+06-6.50507E+05 1.95049E+02-1.38664E+06-2.38069E-08-2.70165E-09
 -1       783-2.82960E+06-5.63139E+05 3.05388E+02-1.28544E+06-7.37782E-09-5.81531E-09
 -1       784-2.74169E+06-6.49697E+05 1.30011E+03-1.38978E+06-1.65528E-08 1.11604E-08
 -1       785-2.83153E+06-5.61695E+05 2.28935E+03-1.28621E+06-2.95295E-08 6.32281E-09
 -1       786 1.23911E+05-9.15244E+03 2.11739E+04-1.74196E+02 3.82290E-09 6.85304E-09
 -1       787 1.33093E+05 1.05958E+04 1.49799E+04-1.06990E+01 2.30322E-09 4.52928E-09
 -1       788 1.27451E+05-1.43457E+03 5.47864E+03-1.45924E+02 2.62292E-09 1.36549E-08
 -1       789 1.28968E+05 1.65982E+03 3.44002E+03-5.57317E+01-3.17037E-10 4.56384E-09
 -1       790 1.28036E+05-2.23759E+02 1.39441E+03-1.29171E+02-9.93730E-10 2.54425E-09
 -1       791 1.28285E+05 2.58609E+02 8.08517E+02-8.47337E+01-3.88647E-09 1.55584E-08
 -1       792 1.28135E+05-3.44131E+01 3.48877E+02-1.16922E+02-2.28222E-09 6.17064E-09
 -1       793 1.28168E+05 3.87731E+01 1.87676E+02-1.07783E+02-2.31905E-10-2.08567E-08
 -1       794 1.28152E+05-4.06266E+00 7.63993E+01-1.06122E+02 1.32117E-09-8.10972E-09
 -1       795 1.28144E+05-2.43278E+00 2.00250E+01-1.30242E+02-2.47918E-09-4.43907E-09
 -1       796 1.28159E+05 6.77136E+00-2.47352E+01-9.44627E+01 1.90551E-09-9.18389E-09
 -1       797 1.28118E+05-5.44960E+01-1.03585E+02-1.56854E+02 1.43502E-09-4.31695E-09
 -1       798 1.28179E+05 4.79606E+01-1.78088E+02-7.95099E+01 1.00454E-09 7.81026E-09
 -1       799 1.27980E+05-3.54304E+02-4.98549E+02-1.93247E+02 2.14317E-09-8.07057E-09
 -1       800 1.28297E+05 3.06326E+02-7.07955E+02-5.80685E+01 1.40543E-10 3.43840E-09
 -1       801 2.94736E+04-5.68963E+06-6.78213E+05 4.75562E+05 5.32746E-08-3.09701E-08
 -1       802 1.11919E+05-7.12027E+05 5.11016E+05-5.15019E+05 1.51806E-07-1.32400E-08
 -1       803-1.40082E+05-6.63528E+06-5.95007E+05 3.39936E+05 5.41404E-08 2.46800E-08
 -1       804 3.27985E+04-2.05073E+06 3.58766E+05 3.17712E+05-4.86161E-08-4.02115E-08
 -1       805 8.64051E+04-4.36174E+06-1.00044E+05-3.55895E+05-2.04927E-08-2.12312E-08
 -1       806-2.65237E+05-5.02775E+04-1.93417E+04-1.03879E+05-1.01500E-09 8.81255E-09
 -1       807-2.66928E+05-4.69505E+04-9.50235E+03-1.08370E+05 7.16614E-09 1.45592E-08
 -1       808-2.65755E+05-4.33202E+04-4.03130E+03-1.07190E+05-6.20639E-09-1.61640E-09
 -1       809-2.64938E+05-4.42737E+04-1.97124E+03-1.08597E+05-2.84240E-09 6.83031E-10
 -1       810-2.65836E+05-4.30778E+04-9.03450E+02-1.07337E+05 5.91490E-09 1.27302E-08
 -1       811-2.64785E+05-4.41653E+04-4.49238E+02-1.08567E+05 2.94244E-09 3.16004E-09
 -1       812-2.65849E+05-4.30980E+04-2.26996E+02-1.07337E+05-3.46881E-09-6.75618E-09
 -1       813-2.64766E+05-4.41666E+04-1.47292E+02-1.08553E+05 1.32604E-09 3.38059E-09
 -1       814-2.65845E+05-4.31052E+04-1.45428E+02-1.07335E+05 1.13778E-09 4.64570E-09
 -1       815-2.64770E+05-4.41679E+04-2.34142E+02-1.08548E+05 5.44242E-09 1.75337E-08
 -1       816-2.65829E+05-4.31032E+04-4.43343E+02-1.07333E+05 6.06269E-09 1.87492E-09
 -1       817-2.64847E+05-4.42098E+04-9.51858E+02-1.08541E+05 4.36330E-09-1.34833E-09
 -1       818-2.65774E+05-4.32359E+04-1.94114E+03-1.07270E+05 2.86127E-09-1.55428E-08
 -1       819-2.65910E+05-4.53845E+04-4.56813E+03-1.08294E+05-2.54477E-09 8.54152E-09
 -1       820-2.65416E+05-4.66805E+04-9.29738E+03-1.05790E+05 1.99907E-09 2.59729E-09
 -1       821-3.24681E+05 1.79300E+04-4.14731E+04 6.44972E+02 4.65202E-09 5.73527E-09
 -1       822-3.42626E+05-2.07569E+04-2.93437E+04-1.32830E+03-6.18810E-10-9.88257E-09
 -1       823-3.31598E+05 2.81186E+03-1.07401E+04 7.48220E+02-3.30425E-09-1.09853E-08
 -1       824-3.34530E+05-3.25295E+03-6.75441E+03-1.18576E+03 3.27454E-11 1.37869E-08
 -1       825-3.32774E+05 4.39127E+02-2.78303E+03 5.02435E+02 3.17050E-09 3.02407E-10
 -1       826-3.33139E+05-5.16386E+02-1.66336E+03-4.63413E+02 3.29833E-09 1.98946E-09
 -1       827-3.32986E+05 7.59970E+01-8.80354E+02 2.58623E+01 8.97472E-10-3.98347E-09
 -1       828-3.32953E+05-1.57150E+02-7.56925E+02 4.91683E+02-2.78332E-09 7.18186E-09
 -1       829-3.32960E+05 8.01167E+01-8.96336E+02-4.52677E+02 3.22707E-10 7.63589E-09
 -1       830-3.33209E+05-5.39552E+02-1.73679E+03 1.21989E+03 7.70932E-10-2.31327E-09
 -1       831-3.32732E+05 4.59406E+02-2.88655E+03-7.02357E+02-2.13300E-09-3.40810E-09
 -1       832-3.34614E+05-3.38725E+03-7.03347E+03 1.37011E+03-1.55928E-09-4.13934E-10
 -1       833-3.31557E+05 2.92616E+03-1.11829E+04-6.02905E+02-1.64662E-09-5.63841E-09
 -1       834-3.42968E+05-2.16052E+04-3.05356E+04 8.63408E+02-1.13607E-09 1.61072E-08
 -1       835-3.24378E+05 1.86623E+04-4.31815E+04-1.95636E+02 5.20237E-09-7.35599E-09
 -1       836-1.13414E+03 3.08403E+05 1.88468E+04-1.60088E+04-2.43836E-09-3.87718E-09
 -1       837 4.07497E+03 3.14279E+05 1.60776E+04-3.23235E+04-2.12117E-09-8.15339E-09
 -1       838-4.41241E+02 3.10034E+05 1.65634E+04-1.59430E+04-1.88265E-09 4.16935E-09
 -1       839 1.05531E+04 3.19107E+05 3.15123E+04-3.23665E+04-1.76806E-09 5.70452E-09
 -1       840-3.22295E+03 3.03529E+05 5.03287E+04-1.59667E+04-1.70439E-09-1.03641E-08
 -1       856-6.76657E+04 7.68597E+03-2.02546E+04-4.09600E+02 5.18298E-10-2.19370E-09
 -1       857-7.60231E+04-9.02098E+03-1.39440E+04 5.02106E+03 1.55953E-09-1.06722E-08
 -1       858-7.09708E+04 1.07731E+03-5.25608E+03-4.32021E+02-1.34128E-09-8.14453E-09
 -1       859-7.22289E+04-1.25823E+03-3.17304E+03 5.05577E+03 1.28863E-09 1.03462E-08
 -1       860-7.14647E+04 1.50252E+02-1.33180E+03-4.44274E+02 2.09781E-10 9.32266E-09
 -1       861-7.16604E+04-1.70851E+02-7.36854E+02 5.07253E+03-3.58703E-09-1.29853E-09
 -1       862-7.15418E+04 2.00078E+01-3.14719E+02-4.48796E+02 2.93228E-09 2.23554E-09
 -1       863-7.15674E+04-1.42910E+01-1.33757E+02 5.07485E+03 1.64824E-09 6.10527E-10
 -1       864-7.15581E+04-2.81124E+00 2.18951E+00-4.46601E+02 2.80899E-09-9.25795E-10
 -1       865-7.15260E+04 4.45208E+01 1.48715E+02 5.06318E+03 1.33309E-09-7.29941E-09
 -1       866-7.15814E+04-3.90447E+01 3.21780E+02-4.37122E+02-3.07466E-10-4.56714E-09
 -1       867-7.13687E+04 3.24476E+02 8.06264E+02 5.03738E+03 4.06089E-10-3.22045E-09
 -1       868-7.17113E+04-2.78366E+02 1.34313E+03-4.20799E+02-2.03977E-09-1.29556E-08
 -1       869-7.03796E+04 2.31618E+03 3.58164E+03 4.99443E+03-2.37605E-10-1.69718E-08
 -1       870-7.25641E+04-1.97760E+03 5.19696E+03-3.94151E+02-2.02647E-09-4.96766E-09
 -1       871-4.85247E+03-1.40235E+04-1.63221E+04 1.08766E+05-9.09495E-10-8.39464E-10
 -1       872-1.95668E+03-1.77426E+04-6.74990E+03 1.41021E+05-2.65027E-09 1.71890E-08
 -1       873 1.17932E+02-1.59806E+04 7.06482E+02 1.08528E+05-1.48520E-09 2.50134E-08
 -1       874 2.59530E+03-1.37855E+04 8.68710E+03 1.41057E+05-2.95131E-09 2.37287E-08
 -1       875 5.79034E+03-1.80466E+04 1.94320E+04 1.08728E+05-1.10595E-09 3.50155E-10
 -1       876 2.55165E+05 4.34230E+04 1.33000E+04 1.02892E+05 1.46628E-09-2.23827E-09
 -1       877 2.56001E+05 4.62675E+04 7.10262E+03 1.06747E+05 3.73575E-09-2.64164E-08
 -1       878 2.56408E+05 4.19509E+04 2.97567E+03 1.03984E+05 4.12365E-09-1.69459E-08
 -1       879 2.54193E+05 4.44641E+04 1.48254E+03 1.06839E+05 5.55974E-09 7.85968E-09
 -1       880 2.56498E+05 4.19352E+04 6.90450E+02 1.04028E+05-2.06728E-09 1.62242E-09
 -1       881 2.54073E+05 4.43872E+04 3.68399E+02 1.06819E+05-2.20587E-09-6.36712E-09
 -1       882 2.56506E+05 4.19466E+04 2.35165E+02 1.04030E+05 1.49475E-09-6.98526E-09
 -1       883 2.54064E+05 4.43834E+04 2.51966E+02 1.06813E+05 8.95056E-10 2.36730E-09
 -1       884 2.56501E+05 4.19439E+04 4.00058E+02 1.04030E+05-1.52329E-09-1.44428E-09
 -1       885 2.54096E+05 4.43890E+04 8.03866E+02 1.06823E+05-3.63946E-09-5.06247E-10
 -1       886 2.56470E+05 4.19204E+04 1.61994E+03 1.04027E+05 9.35025E-10 1.08139E-08
 -1       887 2.54380E+05 4.45757E+04 3.53848E+03 1.06864E+05 9.30271E-10 5.99209E-09
 -1       888 2.56246E+05 4.19598E+04 7.13014E+03 1.03913E+05-3.93888E-09 1.98634E-09
 -1       889 2.58627E+05 4.89888E+04 1.70329E+04 1.06732E+05-2.13915E-09-5.40513E-09
 -1       890 2.53340E+05 4.54126E+04 3.19018E+04 1.01195E+05-1.03637E-09 1.23327E-09
 -1       891-1.22018E+02-1.42880E+05-1.72791E+03 2.52659E+04-1.07548E-10 2.20161E-08
 -1       892-2.20125E+02-1.43314E+05-1.86401E+03 3.82882E+04 7.38282E-10 2.04182E-08
 -1       893-7.09229E+00-1.42935E+05-2.64771E+03 2.52717E+04-2.16687E-10-1.98452E-09
 -1       894-1.38718E+03-1.44319E+05-5.48596E+03 3.81494E+04 8.15817E-10 1.80580E-09
 -1       895-1.09236E+03-1.41792E+05-9.66312E+03 2.54042E+04-1.48475E-10 6.90670E-09
 -1       956-3.24903E+05-4.59698E+03-1.14882E+04 2.36854E+04 2.73212E-09 9.04606E-09
 -1       957-3.27166E+05-1.57697E+03-5.89724E+03 2.85045E+04-2.74076E-09 8.38145E-09
 -1       958-3.25928E+05-1.52895E+02-2.65710E+03 2.35476E+04-1.88084E-09-8.31051E-10
 -1       959-3.26104E+05-5.55182E+01-1.35707E+03 2.86588E+04 7.35963E-09-5.37580E-09
 -1       960-3.26023E+05 1.08176E+01-6.61716E+02 2.35339E+04 3.57613E-09 2.55432E-09
 -1       961-3.26029E+05 3.81898E+00-3.51153E+02 2.86746E+04 3.81510E-09 1.02852E-08
 -1       962-3.26043E+05 7.63010E+00-2.01310E+02 2.35318E+04-1.84582E-09-9.74524E-10
 -1       963-3.26027E+05 6.05688E+00-1.62148E+02 2.86774E+04-4.71937E-09 9.43055E-09
 -1       964-3.26047E+05 1.00612E+01-1.97650E+02 2.35311E+04-4.12368E-09-3.39082E-09
 -1       965-3.26039E+05 8.99318E+00-3.42237E+02 2.86770E+04-2.78538E-09-1.40321E-08
 -1       966-3.26035E+05 1.80497E+01-6.43022E+02 2.35321E+04-1.60207E-09-1.61799E-09
 -1       967-3.26120E+05-4.36494E+01-1.31901E+03 2.86665E+04-1.81899E-11-2.13527E-09
 -1       968-3.25950E+05-1.36316E+02-2.58174E+03 2.35417E+04-1.28739E-09-3.49056E-09
 -1       969-3.27161E+05-1.51819E+03-5.73190E+03 2.85557E+04 5.84805E-10-8.29189E-09
 -1       970-3.24960E+05-4.45282E+03-1.11652E+04 2.36415E+04 4.18368E-11-5.99084E-09
 -1       971-3.01920E+05-1.54497E+03-8.47369E+03 1.39564E+04-1.69530E-09-3.49186E-09
 -1       972-3.03971E+05-1.12027E+03-4.61470E+03 1.94162E+04 1.65755E-09-4.06044E-09
 -1       973-3.02863E+05-2.97765E+01-2.06668E+03 1.38424E+04-2.41926E-10 6.89079E-09
 -1       974-3.02998E+05-3.68448E+01-1.07096E+03 1.95419E+04 6.72117E-10 9.57380E-09
 -1       975-3.02937E+05 1.05491E+01-5.34940E+02 1.38314E+04-6.82121E-11 2.13601E-08
 -1       976-3.02941E+05 8.09776E+00-3.07905E+02 1.95555E+04-5.72982E-11 1.33045E-08
 -1       977-3.02952E+05 1.08246E+01-2.22193E+02 1.38287E+04-3.27873E-10 1.64846E-10
 -1       978-3.02945E+05 1.34438E+01-2.58268E+02 1.95595E+04 3.52884E-10-2.57614E-09
 -1       979-3.02951E+05 1.80805E+01-4.13454E+02 1.38275E+04 2.39504E-09 8.44466E-09
 -1       980-3.02976E+05 1.60774E+01-7.97386E+02 1.95602E+04-8.05414E-10 9.37780E-09
 -1       981-3.02926E+05 3.79797E+01-1.54386E+03 1.38279E+04 2.13947E-09 1.95200E-09
 -1       982-3.03188E+05-9.79431E+01-3.19084E+03 1.95542E+04 4.81941E-09-2.12726E-08
 -1       983-3.02732E+05-6.08026E+01-6.19966E+03 1.38336E+04-1.18234E-11-6.66660E-09
 -1       984-3.06169E+05-3.33570E+03-1.38836E+04 1.94757E+04-1.10776E-09 7.45672E-09
 -1       985-2.99925E+05-4.59732E+03-2.54946E+04 1.39068E+04 5.98902E-10-3.95630E-09
 -3
    1PSTEP                        19          10           1          
  100CL  110 6.09375E-01         409                     0   10           1
 -4  DISP        4    1
 -5  D1          1    2    1    0
 -5  D2          1    2    2    0
 -5  D3          1    2    3    0
 -5  ALL         1    2    0    0    1ALL
 -1         1 1.30447E-03 0.00000E+00 0.00000E+00
 -1         2 1.22772E-03 7.34179E-29 1.32349E-23
 -1         3 2.69154E-04 4.24085E-27 0.00000E+00
 -1         5 1.49542E-04-9.13070E-27 3.30872E-24
 -1         8 1.28505E-03-6.10750E-07 0.00000E+00
 -1         9 1.25290E-03-3.65043E-06 0.00000E+00
 -1        10 2.44888E-04-3.24243E-06 0.00000E+00
 -1        12 1.50411E-04 7.07319E-07 8.27181E-25
 -1        15 1.26162E-03-6.72376E-07 0.00000E+00
 -1        16 1.26858E-03-4.47799E-06 0.00000E+00
 -1        17 1.69377E-04-7.13722E-06 0.00000E+00
 -1        18 1.51603E-04 2.07356E-05 0.00000E+00
 -1        19 1.53019E-04 1.41052E-06 0.00000E+00
 -1        20 1.53165E-04 7.76660E-07 0.00000E+00
 -1        21 1.52411E-04-2.70496E-06 0.00000E+00
 -1        24 2.71948E-05-1.03292E-05 0.00000E+00
 -1        25 1.57482E-04 2.09206E-05 0.00000E+00
 -1        26 1.58181E-04 1.95451E-06 0.00000E+00
 -1        27 1.56251E-04-2.38866E-06 0.00000E+00
 -1        28 1.55877E-04-3.27286E-06 0.00000E+00
 -1        32 0.00000E+00 0.00000E+00 0.00000E+00
 -1        33 1.62292E-04 2.61778E-06 0.00000E+00
 -1        34 1.60401E-04-2.42821E-06 0.00000E+00
 -1        35 1.58656E-04-3.58060E-06 0.00000E+00
 -1        51 1.30322E-03-1.10393E-07 0.00000E+00
 -1        52 1.30090E-03-2.08495E-07 0.00000E+00
 -1        53 1.29770E-03-3.05456E-07 0.00000E+00
 -1        54 1.29385E-03-4.03289E-07 0.00000E+00
 -1        55 1.28956E-03-5.03374E-07-5.79026E-24
 -1        56 1.30140E-03-3.14423E-07 0.00000E+00
 -1        57 1.29769E-03 7.62034E-07 2.64698E-23
 -1        58 1.29352E-03 3.05555E-06 0.00000E+00
 -1        59 1.28899E-03 6.25869E-06 0.00000E+00
 -1        60 1.28427E-03 9.95646E-06 1.05879E-22
 -1        61 1.27954E-03 1.36930E-05-5.29396E-23
 -1        62 1.27496E-03 1.70087E-05 0.00000E+00
 -1        63 1.27070E-03 1.94709E-05-5.29396E-23
 -1        64 1.26689E-03 2.07632E-05 1.05879E-22
 -1        65 1.26361E-03 2.06477E-05 0.00000E+00
 -1        66 1.26087E-03 1.90776E-05 0.00000E+00
 -1        67 1.25866E-03 1.61052E-05 0.00000E+00
 -1        68 1.25689E-03 1.19719E-05-1.05879E-22
 -1        69 1.25544E-03 7.00457E-06-2.64698E-23
 -1        70 1.25414E-03 1.63096E-06 0.00000E+00
 -1        86 1.22883E-03-5.98013E-07 0.00000E+00
 -1        87 1.23212E-03-1.20081E-06 6.61744E-24
 -1        88 1.23695E-03-1.80945E-06 1.32349E-23
 -1        89 1.24265E-03-2.42344E-06 0.00000E+00
 -1        90 1.24827E-03-3.03671E-06 0.00000E+00
 -1       121 2.68473E-04-5.30087E-07 1.32349E-23
 -1       122 2.66432E-04-1.06196E-06 6.61744E-24
 -1       123 2.63038E-04-1.59737E-06-1.32349E-23
 -1       124 2.58305E-04-2.13812E-06 6.61744E-24
 -1       125 2.52247E-04-2.68568E-06 0.00000E+00
 -1       191 1.49567E-04 1.17904E-07-1.65436E-24
 -1       192 1.49639E-04 2.35804E-07 0.00000E+00
 -1       193 1.49760E-04 3.53700E-07 0.00000E+00
 -1       194 1.49929E-04 4.71588E-07-8.27181E-25
 -1       195 1.50146E-04 5.89462E-07 1.65436E-24
 -1       251 1.28432E-03 1.72233E-05-1.32349E-23
 -1       252 1.28274E-03 6.25221E-05 6.61744E-24
 -1       253 1.28017E-03 1.27160E-04 0.00000E+00
 -1       254 1.27688E-03 2.02563E-04-6.61744E-24
 -1       255 1.27363E-03 2.77219E-04-1.32349E-23
 -1       256 1.27120E-03 3.39633E-04 0.00000E+00
 -1       257 1.26975E-03 3.81646E-04-1.32349E-23
 -1       258 1.26907E-03 3.95572E-04 0.00000E+00
 -1       259 1.26837E-03 3.81079E-04 1.32349E-23
 -1       260 1.26690E-03 3.38529E-04-6.61744E-24
 -1       261 1.26444E-03 2.75630E-04 0.00000E+00
 -1       262 1.26116E-03 2.00559E-04-6.61744E-24
 -1       263 1.25784E-03 1.24816E-04 0.00000E+00
 -1       264 1.25525E-03 5.99119E-05 6.61744E-24
 -1       265 1.25366E-03 1.43883E-05 2.64698E-23
 -1       266 1.28115E-03-6.29864E-07 3.30872E-24
 -1       267 1.27724E-03-6.39057E-07 0.00000E+00
 -1       268 1.27333E-03-6.48879E-07-8.27181E-25
 -1       269 1.26943E-03-6.56839E-07-2.06795E-25
 -1       270 1.26552E-03-6.64756E-07 0.00000E+00
 -1       271 1.28265E-03 2.89170E-06-2.64698E-23
 -1       272 1.28028E-03 6.22154E-06 0.00000E+00
 -1       273 1.27800E-03 9.30111E-06 0.00000E+00
 -1       274 1.27585E-03 1.20413E-05 0.00000E+00
 -1       275 1.27386E-03 1.43613E-05 0.00000E+00
 -1       276 1.27205E-03 1.61837E-05 0.00000E+00
 -1       277 1.27046E-03 1.74378E-05 0.00000E+00
 -1       278 1.26911E-03 1.80595E-05 0.00000E+00
 -1       279 1.26801E-03 1.79932E-05 0.00000E+00
 -1       280 1.26719E-03 1.71916E-05 0.00000E+00
 -1       281 1.26666E-03 1.56168E-05 0.00000E+00
 -1       282 1.26643E-03 1.32405E-05 0.00000E+00
 -1       283 1.26650E-03 1.00446E-05-2.64698E-23
 -1       284 1.26689E-03 6.02218E-06-1.32349E-23
 -1       285 1.26757E-03 1.17466E-06-2.64698E-23
 -1       301 1.25578E-03-3.80885E-06-1.32349E-23
 -1       302 1.25781E-03-3.93830E-06 3.30872E-24
 -1       303 1.25955E-03-4.06518E-06 0.00000E+00
 -1       304 1.26155E-03-4.19200E-06 0.00000E+00
 -1       305 1.26438E-03-4.32240E-06 0.00000E+00
 -1       306 1.27941E-03-1.01005E-04 0.00000E+00
 -1       307 1.33958E-03-3.75514E-04 0.00000E+00
 -1       308 1.40732E-03-7.83090E-04 1.05879E-22
 -1       309 1.47171E-03-1.26329E-03 0.00000E+00
 -1       310 1.53662E-03-1.73444E-03 0.00000E+00
 -1       311 1.60426E-03-2.11571E-03 0.00000E+00
 -1       312 1.65946E-03-2.35170E-03 1.05879E-22
 -1       313 1.67306E-03-2.40590E-03-5.29396E-23
 -1       314 1.61149E-03-2.28037E-03 0.00000E+00
 -1       315 1.45229E-03-2.00127E-03-5.29396E-23
 -1       316 1.20532E-03-1.61766E-03 1.05879E-22
 -1       317 9.03021E-04-1.18087E-03-5.29396E-23
 -1       318 6.04302E-04-7.47399E-04-1.05879E-22
 -1       319 3.67109E-04-3.74091E-04 0.00000E+00
 -1       320 2.20200E-04-1.11515E-04 0.00000E+00
 -1       336 2.36084E-04-3.85231E-06 0.00000E+00
 -1       337 2.25699E-04-4.47735E-06 6.61744E-24
 -1       338 2.13779E-04-5.11850E-06 0.00000E+00
 -1       339 2.00377E-04-5.77593E-06-6.61744E-24
 -1       340 1.85554E-04-6.45272E-06 1.32349E-23
 -1       406 1.50725E-04 8.25149E-07 3.30872E-24
 -1       407 1.51088E-04 9.42925E-07 8.27181E-25
 -1       408 1.51498E-04 1.06061E-06-3.30872E-24
 -1       409 1.51957E-04 1.17807E-06-1.65436E-24
 -1       410 1.52464E-04 1.29506E-06-1.65436E-24
 -1       521 1.29632E-03-1.10301E-04 0.00000E+00
 -1       522 1.35742E-03-4.04331E-04 0.00000E+00
 -1       523 1.42377E-03-8.39886E-04 1.05879E-22
 -1       524 1.48464E-03-1.35117E-03-5.29396E-23
 -1       525 1.54637E-03-1.85215E-03 0.00000E+00
 -1       526 1.61326E-03-2.25784E-03 0.00000E+00
 -1       527 1.66933E-03-2.50792E-03 0.00000E+00
 -1       528 1.68253E-03-2.56448E-03 0.00000E+00
 -1       529 1.61442E-03-2.42895E-03 0.00000E+00
 -1       530 1.44002E-03-2.13187E-03-5.29396E-23
 -1       531 1.16907E-03-1.72528E-03 0.00000E+00
 -1       532 8.37598E-04-1.26406E-03 5.29396E-23
 -1       533 5.09547E-04-8.05825E-04-1.05879E-22
 -1       534 2.47882E-04-4.08474E-04-5.29396E-23
 -1       535 8.51577E-05-1.26387E-04-1.05879E-22
 -1       536 1.68876E-04 1.95795E-05 0.00000E+00
 -1       537 1.67691E-04 6.59662E-05 0.00000E+00
 -1       538 1.65891E-04 1.24822E-04-3.30872E-24
 -1       539 1.63785E-04 1.88879E-04 0.00000E+00
 -1       540 1.61888E-04 2.49337E-04 0.00000E+00
 -1       541 1.60639E-04 2.97416E-04 0.00000E+00
 -1       542 1.60038E-04 3.27835E-04-3.30872E-24
 -1       543 1.59855E-04 3.35423E-04 0.00000E+00
 -1       544 1.59601E-04 3.20854E-04-3.30872E-24
 -1       545 1.58829E-04 2.84958E-04 0.00000E+00
 -1       546 1.57453E-04 2.34128E-04 3.30872E-24
 -1       547 1.55628E-04 1.74845E-04 0.00000E+00
 -1       548 1.53829E-04 1.16032E-04-3.30872E-24
 -1       549 1.52521E-04 6.66098E-05-1.65436E-24
 -1       550 1.51821E-04 3.28024E-05 1.65436E-24
 -1       551 1.49791E-04-7.58165E-06 0.00000E+00
 -1       552 1.27405E-04-8.07752E-06 0.00000E+00
 -1       553 1.03079E-04-8.61444E-06 5.41545E-24
 -1       554 7.76868E-05-9.17795E-06 0.00000E+00
 -1       555 5.21024E-05-9.74849E-06 0.00000E+00
 -1       556 1.63611E-04 7.68151E-06 0.00000E+00
 -1       557 1.59000E-04 1.95726E-05 0.00000E+00
 -1       558 1.55432E-04 2.87728E-05 0.00000E+00
 -1       559 1.52802E-04 3.55381E-05 0.00000E+00
 -1       560 1.51004E-04 4.01245E-05 0.00000E+00
 -1       561 1.49935E-04 4.27899E-05 0.00000E+00
 -1       562 1.49494E-04 4.37929E-05 0.00000E+00
 -1       563 1.49581E-04 4.33928E-05 0.00000E+00
 -1       564 1.50096E-04 4.18496E-05 0.00000E+00
 -1       565 1.50941E-04 3.94233E-05 0.00000E+00
 -1       566 1.52018E-04 3.63747E-05 0.00000E+00
 -1       567 1.53230E-04 3.29646E-05 0.00000E+00
 -1       568 1.54479E-04 2.94537E-05 1.24077E-24
 -1       569 1.55668E-04 2.61029E-05 0.00000E+00
 -1       570 1.56701E-04 2.31731E-05 0.00000E+00
 -1       571 1.51689E-04 1.94858E-05-8.27181E-25
 -1       572 1.51777E-04 1.81813E-05 1.65436E-24
 -1       573 1.51865E-04 1.68344E-05 0.00000E+00
 -1       574 1.51954E-04 1.54582E-05 8.27181E-25
 -1       575 1.52042E-04 1.40656E-05 3.30872E-24
 -1       576 1.52131E-04 1.26698E-05 1.65436E-24
 -1       577 1.52219E-04 1.12837E-05 0.00000E+00
 -1       578 1.52308E-04 9.92063E-06 0.00000E+00
 -1       579 1.52397E-04 8.59358E-06-6.61744E-24
 -1       580 1.52485E-04 7.31566E-06 0.00000E+00
 -1       581 1.52574E-04 6.10002E-06 6.61744E-24
 -1       582 1.52663E-04 4.95970E-06 3.30872E-24
 -1       583 1.52752E-04 3.90780E-06 0.00000E+00
 -1       584 1.52841E-04 2.95727E-06 6.61744E-24
 -1       585 1.52930E-04 2.12093E-06 0.00000E+00
 -1       586 1.52534E-04 2.07684E-05 0.00000E+00
 -1       587 1.53432E-04 2.08005E-05-2.06795E-25
 -1       588 1.54338E-04 2.08323E-05 0.00000E+00
 -1       589 1.55289E-04 2.08635E-05 0.00000E+00
 -1       590 1.56324E-04 2.08937E-05 0.00000E+00
 -1       591 1.52020E-04 1.95565E-05 0.00000E+00
 -1       592 1.52442E-04 1.83543E-05 0.00000E+00
 -1       593 1.52870E-04 1.71348E-05 0.00000E+00
 -1       594 1.53302E-04 1.59029E-05 0.00000E+00
 -1       595 1.53737E-04 1.46636E-05 8.27181E-25
 -1       596 1.54173E-04 1.34219E-05 4.13590E-25
 -1       597 1.54607E-04 1.21827E-05-8.27181E-25
 -1       598 1.55039E-04 1.09509E-05 4.13590E-25
 -1       599 1.55467E-04 9.73144E-06 8.27181E-25
 -1       600 1.55888E-04 8.52919E-06 2.06795E-25
 -1       601 1.56300E-04 7.34911E-06-4.13590E-25
 -1       602 1.56703E-04 6.19609E-06 2.06795E-25
 -1       603 1.57094E-04 5.07507E-06-2.06795E-25
 -1       604 1.57471E-04 3.99106E-06 7.75482E-26
 -1       605 1.57833E-04 2.94891E-06 0.00000E+00
 -1       606 1.53032E-04 9.00764E-07 0.00000E+00
 -1       607 1.53042E-04 4.81330E-07 0.00000E+00
 -1       608 1.53051E-04 1.46919E-07 0.00000E+00
 -1       609 1.53060E-04-1.08446E-07 1.65436E-24
 -1       610 1.53069E-04-2.90792E-07 3.30872E-24
 -1       611 1.53078E-04-4.06214E-07 0.00000E+00
 -1       612 1.53087E-04-4.60811E-07 0.00000E+00
 -1       613 1.53096E-04-4.60696E-07 0.00000E+00
 -1       614 1.53105E-04-4.11977E-07-1.65436E-24
 -1       615 1.53113E-04-3.20767E-07 8.27181E-25
 -1       616 1.53122E-04-1.93174E-07 0.00000E+00
 -1       617 1.53131E-04-3.53094E-08 0.00000E+00
 -1       618 1.53140E-04 1.46715E-07 0.00000E+00
 -1       619 1.53148E-04 3.46792E-07 2.06795E-25
 -1       620 1.53157E-04 5.58810E-07-4.13590E-25
 -1       621 1.53684E-04 1.50150E-06 1.65436E-24
 -1       622 1.54457E-04 1.59275E-06 0.00000E+00
 -1       623 1.55316E-04 1.68392E-06-3.30872E-24
 -1       624 1.56238E-04 1.77487E-06 0.00000E+00
 -1       625 1.57200E-04 1.86561E-06-1.65436E-24
 -1       626 1.53310E-04 9.32538E-07 0.00000E+00
 -1       627 1.53576E-04 5.24483E-07 1.65436E-24
 -1       628 1.53819E-04 1.78580E-07 6.61744E-24
 -1       629 1.54042E-04-1.13326E-07-1.65436E-24
 -1       630 1.54247E-04-3.59410E-07 0.00000E+00
 -1       631 1.54439E-04-5.67875E-07-1.65436E-24
 -1       632 1.54619E-04-7.46924E-07 0.00000E+00
 -1       633 1.54792E-04-9.04763E-07-1.65436E-24
 -1       634 1.54960E-04-1.04960E-06-3.30872E-24
 -1       635 1.55126E-04-1.18962E-06 0.00000E+00
 -1       636 1.55293E-04-1.33305E-06 0.00000E+00
 -1       637 1.55464E-04-1.48809E-06 1.65436E-24
 -1       638 1.55643E-04-1.66294E-06 1.65436E-24
 -1       639 1.55832E-04-1.86582E-06 0.00000E+00
 -1       640 1.56035E-04-2.10495E-06-1.65436E-24
 -1       656 1.53172E-04 2.61942E-07 0.00000E+00
 -1       657 1.53579E-04-2.73539E-07 0.00000E+00
 -1       658 1.54247E-04-8.07606E-07 0.00000E+00
 -1       659 1.55032E-04-1.34130E-06 6.61744E-24
 -1       660 1.55758E-04-1.87663E-06 0.00000E+00
 -1       661 1.53169E-04 9.56245E-07 8.27181E-25
 -1       662 1.53206E-04 1.05766E-06 0.00000E+00
 -1       663 1.53271E-04 1.08483E-06 1.65436E-24
 -1       664 1.53362E-04 1.04292E-06 8.27181E-25
 -1       665 1.53477E-04 9.36469E-07 0.00000E+00
 -1       666 1.53615E-04 7.70113E-07 0.00000E+00
 -1       667 1.53774E-04 5.48241E-07-1.65436E-24
 -1       668 1.53952E-04 2.75191E-07 0.00000E+00
 -1       669 1.54147E-04-4.48666E-08 0.00000E+00
 -1       670 1.54359E-04-4.07845E-07 8.27181E-25
 -1       671 1.54585E-04-8.09777E-07 0.00000E+00
 -1       672 1.54824E-04-1.24680E-06 0.00000E+00
 -1       673 1.55075E-04-1.71509E-06-1.65436E-24
 -1       674 1.55335E-04-2.21119E-06-8.27181E-25
 -1       675 1.55605E-04-2.73103E-06-4.13590E-25
 -1       676 1.52990E-04-2.80017E-06 0.00000E+00
 -1       677 1.53570E-04-2.89533E-06 0.00000E+00
 -1       678 1.54148E-04-2.99045E-06 0.00000E+00
 -1       679 1.54726E-04-3.08528E-06-1.65436E-24
 -1       680 1.55302E-04-3.18010E-06 0.00000E+00
 -1       771 1.78591E-05 1.02174E-05-5.29396E-23
 -1       772 9.96229E-06 2.70850E-05 5.29396E-23
 -1       773 3.43597E-06 4.04573E-05 0.00000E+00
 -1       774-1.81280E-06 5.05384E-05 0.00000E+00
 -1       775-5.87538E-06 5.75394E-05 0.00000E+00
 -1       776-8.84680E-06 6.16830E-05 0.00000E+00
 -1       777-1.08223E-05 6.31990E-05 0.00000E+00
 -1       778-1.18992E-05 6.23263E-05 0.00000E+00
 -1       779-1.21748E-05 5.93102E-05 5.29396E-23
 -1       780-1.17479E-05 5.44033E-05 0.00000E+00
 -1       781-1.07171E-05 4.78631E-05 0.00000E+00
 -1       782-9.18220E-06 3.99531E-05 0.00000E+00
 -1       783-7.24267E-06 3.09399E-05-5.29396E-23
 -1       784-4.99896E-06 2.10945E-05 0.00000E+00
 -1       785-2.55101E-06 1.06896E-05 0.00000E+00
 -1       786 1.57522E-04 1.95192E-05 0.00000E+00
 -1       787 1.57565E-04 1.81655E-05 0.00000E+00
 -1       788 1.57608E-04 1.68516E-05 8.27181E-25
 -1       789 1.57652E-04 1.55696E-05 0.00000E+00
 -1       790 1.57695E-04 1.43151E-05 0.00000E+00
 -1       791 1.57739E-04 1.30835E-05 8.27181E-25
 -1       792 1.57783E-04 1.18727E-05 0.00000E+00
 -1       793 1.57827E-04 1.06806E-05-8.27181E-25
 -1       794 1.57871E-04 9.50685E-06 1.65436E-24
 -1       795 1.57915E-04 8.35140E-06 8.27181E-25
 -1       796 1.57960E-04 7.21590E-06 0.00000E+00
 -1       797 1.58004E-04 6.10205E-06 0.00000E+00
 -1       798 1.58048E-04 5.01379E-06-1.65436E-24
 -1       799 1.58092E-04 3.95512E-06 0.00000E+00
 -1       800 1.58136E-04 2.93299E-06 0.00000E+00
 -1       801 1.24902E-04 1.85771E-05 0.00000E+00
 -1       802 2.59205E-05 1.20131E-05 1.32349E-23
 -1       803-6.12290E-05 6.34380E-06 0.00000E+00
 -1       804-5.93064E-05 4.30400E-06 2.64698E-23
 -1       805-2.04239E-05 1.90010E-06 0.00000E+00
 -1       806 1.57905E-04 1.94595E-05 0.00000E+00
 -1       807 1.58315E-04 1.80252E-05 0.00000E+00
 -1       808 1.58713E-04 1.66218E-05 0.00000E+00
 -1       809 1.59097E-04 1.52526E-05 0.00000E+00
 -1       810 1.59467E-04 1.39207E-05 0.00000E+00
 -1       811 1.59822E-04 1.26293E-05-8.27181E-25
 -1       812 1.60161E-04 1.13815E-05 1.65436E-24
 -1       813 1.60483E-04 1.01803E-05 0.00000E+00
 -1       814 1.60785E-04 9.02887E-06 3.30872E-24
 -1       815 1.61068E-04 7.93020E-06-1.65436E-24
 -1       816 1.61331E-04 6.88740E-06 1.65436E-24
 -1       817 1.61571E-04 5.90349E-06 0.00000E+00
 -1       818 1.61788E-04 4.98155E-06-1.65436E-24
 -1       819 1.61981E-04 4.12461E-06 8.27181E-25
 -1       820 1.62149E-04 3.33570E-06-3.30872E-24
 -1       821 1.58067E-04 8.55812E-07-8.27181E-25
 -1       822 1.57945E-04-5.24558E-07 0.00000E+00
 -1       823 1.57824E-04-2.03364E-06 0.00000E+00
 -1       824 1.57702E-04-3.51773E-06-1.65436E-24
 -1       825 1.57580E-04-4.82945E-06-3.30872E-24
 -1       826 1.57458E-04-5.82233E-06 1.65436E-24
 -1       827 1.57336E-04-6.42853E-06 0.00000E+00
 -1       828 1.57214E-04-6.58235E-06 1.65436E-24
 -1       829 1.57092E-04-6.32962E-06 0.00000E+00
 -1       830 1.56970E-04-5.71839E-06 0.00000E+00
 -1       831 1.56848E-04-4.88510E-06 3.30872E-24
 -1       832 1.56727E-04-3.96744E-06 1.65436E-24
 -1       833 1.56605E-04-3.12391E-06 0.00000E+00
 -1       834 1.56485E-04-2.51257E-06 8.27181E-25
 -1       835 1.56364E-04-2.23444E-06-8.27181E-25
 -1       836 1.59052E-04 2.06470E-06 3.30872E-24
 -1       837 1.59808E-04 2.17752E-06-1.65436E-24
 -1       838 1.60479E-04 2.29023E-06 0.00000E+00
 -1       839 1.61096E-04 2.40226E-06 0.00000E+00
 -1       840 1.61690E-04 2.51412E-06 0.00000E+00
 -1       856 1.56231E-04-2.69283E-06 0.00000E+00
 -1       857 1.56208E-04-2.87219E-06-5.16988E-26
 -1       858 1.56186E-04-2.94622E-06 0.00000E+00
 -1       859 1.56162E-04-2.93445E-06 0.00000E+00
 -1       860 1.56139E-04-2.85653E-06 0.00000E+00
 -1       861 1.56115E-04-2.73216E-06-4.13590E-25
 -1       862 1.56092E-04-2.58106E-06 0.00000E+00
 -1       863 1.56068E-04-2.42301E-06-4.13590E-25
 -1       864 1.56044E-04-2.27775E-06-8.27181E-25
 -1       865 1.56021E-04-2.16505E-06 4.13590E-25
 -1       866 1.55997E-04-2.10463E-06 0.00000E+00
 -1       867 1.55973E-04-2.11617E-06 0.00000E+00
 -1       868 1.55950E-04-2.21927E-06 0.00000E+00
 -1       869 1.55926E-04-2.43349E-06 0.00000E+00
 -1       870 1.55902E-04-2.77824E-06 0.00000E+00
 -1       871 1.56812E-04-2.39140E-06 4.13590E-25
 -1       872 1.57504E-04-2.39705E-06 0.00000E+00
 -1       873 1.58269E-04-2.40326E-06 4.13590E-25
 -1       874 1.59047E-04-2.41013E-06-3.10193E-25
 -1       875 1.59777E-04-2.41756E-06 2.06795E-25
 -1       876 1.56481E-04-2.68014E-06 0.00000E+00
 -1       877 1.56690E-04-2.91054E-06 0.00000E+00
 -1       878 1.56879E-04-3.08718E-06 0.00000E+00
 -1       879 1.57051E-04-3.21686E-06 0.00000E+00
 -1       880 1.57208E-04-3.30641E-06-3.30872E-24
 -1       881 1.57352E-04-3.36260E-06-1.65436E-24
 -1       882 1.57486E-04-3.39220E-06 0.00000E+00
 -1       883 1.57613E-04-3.40199E-06-1.65436E-24
 -1       884 1.57736E-04-3.39872E-06 3.30872E-24
 -1       885 1.57855E-04-3.38915E-06-1.65436E-24
 -1       886 1.57975E-04-3.38002E-06 3.30872E-24
 -1       887 1.58098E-04-3.37812E-06-1.65436E-24
 -1       888 1.58225E-04-3.39022E-06-3.30872E-24
 -1       889 1.58360E-04-3.42322E-06 0.00000E+00
 -1       890 1.58504E-04-3.48385E-06 0.00000E+00
 -1       891 1.56473E-04-3.32447E-06 0.00000E+00
 -1       892 1.57047E-04-3.37624E-06 0.00000E+00
 -1       893 1.57576E-04-3.42795E-06-8.27181E-25
 -1       894 1.58037E-04-3.47947E-06 4.13590E-25
 -1       895 1.58404E-04-3.53083E-06 4.13590E-25
 -1       956 1.62175E-04 2.04915E-06 1.65436E-24
 -1       957 1.62057E-04 1.55806E-06 1.65436E-24
 -1       958 1.61939E-04 1.13560E-06 1.65436E-24
 -1       959 1.61820E-04 7.72322E-07 0.00000E+00
 -1       960 1.61702E-04 4.58770E-07-3.30872E-24
 -1       961 1.61583E-04 1.85441E-07 0.00000E+00
 -1       962 1.61465E-04-5.71697E-08 0.00000E+00
 -1       963 1.61346E-04-2.78584E-07-1.65436E-24
 -1       964 1.61228E-04-4.88319E-07 0.00000E+00
 -1       965 1.61109E-04-6.95893E-07 0.00000E+00
 -1       966 1.60991E-04-9.10830E-07-3.30872E-24
 -1       967 1.60872E-04-1.14264E-06 0.00000E+00
 -1       968 1.60754E-04-1.40085E-06-3.30872E-24
 -1       969 1.60635E-04-1.69493E-06-1.65436E-24
 -1       970 1.60517E-04-2.03435E-06 6.61744E-24
 -1       971 1.60293E-04-2.81370E-06-1.65436E-24
 -1       972 1.60184E-04-3.10983E-06 1.65436E-24
 -1       973 1.60074E-04-3.32645E-06 3.30872E-24
 -1       974 1.59965E-04-3.47380E-06 0.00000E+00
 -1       975 1.59855E-04-3.56213E-06 0.00000E+00
 -1       976 1.59745E-04-3.60171E-06 1.65436E-24
 -1       977 1.59636E-04-3.60282E-06 0.00000E+00
 -1       978 1.59526E-04-3.57576E-06 0.00000E+00
 -1       979 1.59416E-04-3.53083E-06 3.30872E-24
 -1       980 1.59307E-04-3.47832E-06 0.00000E+00
 -1       981 1.59197E-04-3.42854E-06 3.30872E-24
 -1       982 1.59087E-04-3.39178E-06 1.65436E-24
 -1       983 1.58978E-04-3.37835E-06 0.00000E+00
 -1       984 1.58869E-04-3.39853E-06 0.00000E+00
 -1       985 1.58761E-04-3.46261E-06 0.00000E+00
 -3
    1PSTEP                        20          10           1          
  100CL  110 6.09375E-01         409                     0   10           1
 -4  STRESS      6    1
 -5  SXX         1    4    1    1
 -5  SYY         1    4    2    2
 -5  SZZ         1    4    3    3
 -5  SXY         1    4    1    2
 -5  SYZ         1    4    2    3
 -5  SZX         1    4    3    1
 -1         1-3.76023E+06-1.44847E+06-8.23111E+05-1.51329E+06-5.02041E-10 1.28523E-07
 -1         2 9.71148E+02-1.70097E+06 3.45048E+03 1.60716E+04 5.05295E-10 3.01754E-08
 -1         3-8.48020E+02-1.50905E+06 3.67526E+02-1.62209E+03-2.71484E-10 2.29338E-08
 -1         5-1.73448E+01 3.37424E+05 8.66122E+00-4.82002E-01-1.84654E-10-3.20897E-08
 -1         8-7.94752E+05-2.70387E+05-7.49070E+04-3.37731E+05-3.27418E-11-3.35385E-08
 -1         9 3.71397E+06-6.92362E+05 6.92428E+05-8.99548E+05 2.50409E-08 1.98139E-08
 -1        10-1.76143E+03-1.57238E+06-3.21056E+03-1.09641E+04-1.05210E-08-2.26057E-08
 -1        12-1.38194E+01 3.37443E+05 2.81462E+02-3.47308E+00-2.43546E-10-4.86034E-09
 -1        15 1.46528E+03 8.05256E+02 4.73650E+03 2.47449E+00-2.63057E-10 7.84907E-08
 -1        16 9.35708E+06-3.90303E+05 1.35311E+06-1.09619E+06 1.33296E-08-3.89991E-08
 -1        17 3.22647E+06 2.12187E+06 8.85460E+05 2.18919E+06 7.99191E-09 1.47556E-08
 -1        18 6.20178E+04 1.19200E+04-1.16678E+04-9.95180E+04 1.26045E-08 3.76940E-09
 -1        19 1.07964E+05 1.24360E+05-8.65017E+02 2.03012E+04 6.97946E-10-7.72852E-09
 -1        20-6.47949E+04-5.08543E+05-1.13566E+05 2.67141E+04 1.83718E-10 7.88835E-09
 -1        21-4.32593E+01-2.72086E+05-8.58303E+02 1.08154E+02 5.99741E-08-1.85096E-08
 -1        24 5.04507E+06 4.52690E+06 1.58985E+06 4.13147E+06-1.13883E-07-4.37528E-08
 -1        25-8.07615E+03-2.22239E+05-2.53443E+04-3.69556E+05-8.12543E-10 1.81262E-09
 -1        26-4.61172E+04 8.06806E+04-2.15040E+04-1.56869E+03 8.68022E-10-6.76870E-09
 -1        27-7.09529E+04-2.75810E+05-1.01736E+05 6.17365E+04 4.51549E-09-5.89049E-10
 -1        28 2.06854E+04-7.74439E+04 1.54923E+04 2.04903E+04-1.23603E-09 3.30537E-10
 -1        32-1.53453E+06-2.69166E+06-1.39427E+05-3.09159E+04-3.28109E-08-5.92968E-09
 -1        33-1.60290E+05 8.11292E+04 2.86218E+04-3.58453E+04-1.41214E-09 4.44440E-10
 -1        34-2.01240E+05-2.15617E+04 5.80314E+02 6.60478E+04-1.63416E-09-1.35363E-10
 -1        35-2.11975E+04-3.07345E+04-1.21876E+03 4.73705E+04-6.21441E-11-1.59101E-09
 -1        51 4.10250E+04-2.50373E+05 9.04478E+04-7.27317E+05 1.45519E-11 3.65253E-08
 -1        52 1.58232E+04-2.37185E+05 5.01214E+04-8.48014E+05 5.23869E-10-2.63833E-07
 -1        53 5.55973E+03-2.52153E+05 3.03334E+04-7.24676E+05 5.20231E-10-4.75848E-08
 -1        54 1.37187E+04-2.49136E+05 3.34801E+04-8.50768E+05 3.05590E-10-6.72953E-08
 -1        55 2.82980E+04-2.59839E+05 5.07122E+04-7.24277E+05 4.07454E-10 6.49015E-09
 -1        56-7.12635E+06-8.03296E+05-6.08250E+05-2.77781E+06-1.76078E-09-1.15833E-08
 -1        57-7.46380E+06-1.26095E+06-4.10156E+05-2.64592E+06-1.34678E-08-7.23849E-08
 -1        58-7.22845E+06-1.01632E+06-1.42925E+05-2.76174E+06-5.63887E-09-9.32778E-09
 -1        59-7.34988E+06-1.00706E+06-8.52205E+04-2.66155E+06-2.16746E-08 1.17600E-07
 -1        60-7.23881E+06-1.05031E+06-3.32353E+04-2.76455E+06 5.24005E-09-2.37378E-09
 -1        61-7.33076E+06-9.73865E+05-1.88330E+04-2.66576E+06 4.13877E-09-2.43417E-08
 -1        62-7.24712E+06-1.04863E+06-9.08852E+03-2.75773E+06-8.60746E-09 1.94655E-08
 -1        63-7.30577E+06-9.91085E+05-7.13982E+03-2.68960E+06 8.37190E-10 2.73478E-08
 -1        64-7.26306E+06-1.03343E+06-8.50952E+03-2.74024E+06-4.47380E-09-6.09596E-08
 -1        65-7.27253E+06-1.02902E+06-1.62746E+04-2.72816E+06-1.17971E-08-3.79430E-08
 -1        66-7.28003E+06-1.01106E+06-2.92039E+04-2.71886E+06-8.22001E-09 1.03195E-07
 -1        67-7.25649E+06-1.09117E+06-7.37458E+04-2.76343E+06 1.16279E-08-7.28969E-08
 -1        68-7.27994E+06-9.71750E+05-1.23885E+05-2.70514E+06 5.20959E-09 4.28990E-08
 -1        69-7.35657E+06-1.31208E+06-3.55600E+05-2.75274E+06 2.48347E-08 1.80808E-09
 -1        70-7.18250E+06-7.95314E+05-5.27027E+05-2.72843E+06 8.68022E-09 7.60192E-08
 -1        86-5.92164E+02-1.70864E+06 2.25315E+03-8.03554E+03-3.59358E-09-5.24824E-09
 -1        87 2.86116E+03-1.70234E+06 6.19425E+03 2.72399E+04-6.14318E-09-2.39424E-10
 -1        88-2.29451E+03-1.70749E+06 8.70353E+03-1.92041E+04-6.21958E-09-8.46550E-08
 -1        89 1.68920E+04-1.69796E+06 2.37172E+04 3.78939E+04-1.02937E-08-2.27875E-07
 -1        90-1.44061E+04-1.71319E+06 3.32542E+04-1.86910E+04-5.37511E-09 6.60646E-09
 -1       121-1.17920E+03-1.51195E+06-1.55738E+02 8.06825E+02 1.18172E-09-4.74029E-09
 -1       122-6.96537E+02-1.50905E+06 7.40175E+02-3.24178E+03-4.03567E-09-2.75322E-08
 -1       123-1.22619E+03-1.51206E+06 6.64392E+02 2.40987E+03 3.34057E-09-1.89175E-10
 -1       124 8.09513E+02-1.50843E+06 2.96021E+03-6.80009E+03-7.45831E-09-2.15459E-08
 -1       125-2.06562E+03-1.51289E+06 3.94832E+03 4.34626E+03 5.22050E-09-5.39512E-09
 -1       191-1.84913E+01 3.37451E+05 9.79174E+00 2.44330E-01-2.72166E-10-2.48165E-08
 -1       192-1.81479E+01 3.37425E+05 1.83651E+01-1.74696E+00-3.71204E-10-4.05671E-08
 -1       193-2.06225E+01 3.37450E+05 3.36081E+01 1.52387E+00-5.65198E-10-1.99725E-08
 -1       194-2.07304E+01 3.37428E+05 6.95292E+01-4.03986E+00-3.25834E-10 5.12455E-09
 -1       195-2.47168E+01 3.37448E+05 1.35453E+02 2.56537E+00-7.29429E-10 6.05269E-09
 -1       251-1.93041E+06-2.03941E+04-1.62091E+05-1.17204E+05 5.58612E-09 4.35030E-08
 -1       252-1.22178E+06 2.64258E+04 3.03609E+04 3.61577E+05-8.73479E-09 3.71197E-08
 -1       253-1.61463E+06-1.02333E+04-2.87984E+04-2.41949E+05-7.50697E-09-3.09228E-09
 -1       254-1.55256E+06 4.55906E+04 4.89589E+03 4.79540E+05 8.13458E-10 3.25235E-08
 -1       255-1.63257E+06-1.27134E+04-1.64581E+04-2.37768E+05 3.04681E-08 3.12507E-08
 -1       256-1.17673E+06 3.74780E+04 8.26341E+04 3.44806E+05-1.93832E-08 3.89898E-08
 -1       257-1.95372E+06-3.19875E+04-8.19375E+04-1.04448E+05-1.47156E-08 2.64870E-08
 -1       258-8.21499E+05 2.86318E+04 1.50354E+05-5.13657E+02-3.30720E-08-1.05333E-07
 -1       259-1.95292E+06-3.21813E+04-8.02419E+04 1.05793E+05-1.79898E-08 6.60452E-08
 -1       260-1.17809E+06 3.91742E+04 8.66647E+04-3.45172E+05 2.81461E-08-2.21032E-08
 -1       261-1.63218E+06-1.40614E+04-8.34797E+03 2.38498E+05 5.99020E-08 2.78772E-08
 -1       262-1.54832E+06 5.52605E+04 2.45705E+04-4.78746E+05-3.65149E-08-6.76118E-08
 -1       263-1.61924E+06-1.85209E+04 2.61776E+03 2.42153E+05 7.90715E-09 5.92927E-08
 -1       264-1.19220E+06 8.71074E+04 1.16824E+05-3.60977E+05 1.10575E-07 2.78792E-08
 -1       265-1.95513E+06-7.27297E+04-3.99648E+04 1.18101E+05 3.69746E-08 5.19212E-08
 -1       266-2.65262E+04-1.24033E+04 6.22397E+04-5.29478E+01 1.45519E-11-5.48504E-08
 -1       267 3.07514E+04 1.44569E+04 4.39893E+04 6.10895E+01-1.81899E-10-1.05214E-07
 -1       268-4.12370E+03-2.04746E+03 1.63507E+04-7.78396E+00-9.00400E-11-4.68912E-08
 -1       269 4.86889E+03 2.45042E+03 1.06276E+04 9.06705E+00-5.86624E-11-5.47343E-08
 -1       270-7.30823E+02-4.02618E+02 5.13011E+03-1.23047E+00 4.46789E-11 8.57330E-09
 -1       271-2.42053E+06-2.95581E+05-1.81061E+05-9.32619E+05 7.84348E-09 6.29807E-08
 -1       272-2.52589E+06-3.88503E+05-1.16580E+05-8.86490E+05 1.05979E-08-8.87430E-08
 -1       273-2.45368E+06-3.41829E+05-4.27367E+04-9.25580E+05-2.10161E-09-1.29785E-08
 -1       274-2.48656E+06-3.32139E+05-2.39761E+04-8.97322E+05-2.26464E-09 7.32234E-09
 -1       275-2.45871E+06-3.46307E+05-9.96103E+03-9.23777E+05 6.22595E-09 3.94775E-08
 -1       276-2.47929E+06-3.27920E+05-5.24349E+03-9.00793E+05-4.03238E-08 7.23303E-08
 -1       277-2.46059E+06-3.45623E+05-2.60844E+03-9.22136E+05 3.19960E-09-6.88983E-08
 -1       278-2.47547E+06-3.30291E+05-1.70624E+03-9.04186E+05-6.02813E-09-1.03129E-07
 -1       279-2.46226E+06-3.44048E+05-1.85600E+03-9.20219E+05 1.20053E-09-1.66017E-07
 -1       280-2.47200E+06-3.34174E+05-3.02936E+03-9.08058E+05-6.25732E-10 3.15231E-08
 -1       281-2.46385E+06-3.41896E+05-5.68526E+03-9.18110E+05-1.05538E-08 1.28103E-07
 -1       282-2.47061E+06-3.41690E+05-1.32207E+04-9.11908E+05-1.16497E-08-7.92140E-08
 -1       283-2.46360E+06-3.36933E+05-2.37481E+04-9.16172E+05-4.98039E-09-1.38480E-07
 -1       284-2.48721E+06-3.77803E+05-6.43180E+04-9.11626E+05 5.09317E-09-4.50473E-08
 -1       285-2.44775E+06-3.08999E+05-1.00172E+05-9.17238E+05 2.16824E-09 2.30284E-09
 -1       301 1.69512E+04-3.55855E+05 1.75425E+05-6.41709E+05 1.81899E-10-7.39310E-08
 -1       302 2.15046E+04-3.11095E+05 1.09645E+05-9.52567E+05 2.83762E-10-6.37165E-08
 -1       303-2.12892E+03-3.39746E+05 7.22249E+04-6.40162E+05-7.82165E-10 1.55514E-07
 -1       304 1.38720E+04-3.12764E+05 9.08517E+04-9.51937E+05 1.52795E-09 2.11330E-08
 -1       305 8.03633E+03-3.45976E+05 1.33461E+05-6.42308E+05-1.77533E-09-7.50442E-08
 -1       306-1.78693E+07-3.26024E+06-4.32380E+06-1.84621E+06-5.63450E-08-3.21015E-08
 -1       307 1.10202E+07-5.57478E+05 2.59773E+06-8.09646E+06-5.34288E-07-1.07713E-07
 -1       308-8.16749E+06 1.06699E+05-4.03687E+05 2.39011E+06-1.44180E-07 9.52932E-08
 -1       309-3.22458E+06 8.25914E+05 8.29270E+05-1.32170E+07 1.26502E-07 5.32073E-08
 -1       310-9.18615E+06-5.79664E+04-6.06759E+05 2.19821E+06 7.31670E-08-3.75840E-08
 -1       311 1.33439E+07-1.25621E+06 3.10036E+06-6.49981E+06 3.33996E-07-3.57541E-08
 -1       312-1.81132E+07-3.24356E+06-3.79470E+06-2.79551E+06-9.35397E-08 7.50297E-08
 -1       313 2.00487E+07 4.44093E+06 5.03581E+06 8.40263E+06 1.34052E-07 1.61352E-07
 -1       314-1.28086E+07-7.80349E+06-3.59633E+06-7.34038E+06 2.35334E-07-2.32831E-08
 -1       315-2.25042E+06 1.24305E+07 2.80272E+06 6.61859E+06-4.17182E-07-1.25729E-08
 -1       316-1.96948E+06-6.27227E+06-3.49552E+05-4.34896E+06-8.53805E-07-2.87066E-07
 -1       317-1.45353E+07 1.20892E+07 8.08586E+05-1.43624E+06 6.25401E-07-3.62979E-07
 -1       318-2.46606E+06-6.55193E+06-6.83203E+05-4.54723E+06-5.11267E-07 1.65310E-08
 -1       319-5.13967E+05 1.28130E+07 2.81985E+06 7.17607E+06-4.51400E-08 1.04730E-07
 -1       320-1.37416E+07-8.10612E+06-4.64292E+06-7.21094E+06 1.31375E-07-2.97296E-08
 -1       336 1.40293E+02-1.63674E+06-1.16963E+04 6.54535E+03-2.02044E-08-4.86398E-09
 -1       337-4.46485E+03-1.63772E+06-1.48005E+04-1.58520E+04-3.73693E-08-6.65568E-09
 -1       338 6.26870E+02-1.63648E+06-2.21671E+04 9.19369E+03-2.61607E-08 1.13250E-08
 -1       339-2.35404E+04-1.65052E+06-5.00412E+04-2.10179E+04-4.74174E-08 9.68430E-09
 -1       340 1.57454E+04-1.62517E+06-7.84100E+04 1.16341E+04-3.16104E-08 7.65431E-09
 -1       406 7.13416E+00 3.37436E+05 5.55092E+02 9.81184E-01-8.62428E-10-3.14685E-10
 -1       407 1.79990E+02 3.37540E+05 1.18098E+03 1.21203E+01-2.30109E-10-1.83536E-09
 -1       408 5.93729E+02 3.37350E+05 2.35789E+03-1.34295E+01-1.10526E-09 2.97860E-09
 -1       409 2.53749E+03 3.38293E+05 5.30935E+03 1.37461E+02-4.29452E-11 2.42976E-08
 -1       410 7.31533E+03 3.36678E+05 1.08383E+04-1.31031E+02-1.23146E-09 1.21127E-08
 -1       521-1.98669E+07-4.07804E+06-5.23566E+06-1.79544E+06-4.45871E-08 2.45636E-08
 -1       522 1.17906E+07-5.00073E+05 2.72444E+06-1.03595E+07-3.70201E-07-3.28786E-07
 -1       523-9.38404E+06-4.01229E+04-4.55600E+05 2.79717E+06 1.09663E-07-2.31365E-07
 -1       524-5.26191E+06 2.00064E+06 9.46818E+05-1.59835E+07 4.27055E-07-2.94616E-07
 -1       525-1.05487E+07-2.88253E+05-6.99916E+05 2.58095E+06 5.00615E-07-8.69768E-08
 -1       526 1.48827E+07-1.41810E+06 3.39923E+06-8.39824E+06 2.71044E-07-4.46744E-09
 -1       527-2.02010E+07-4.17026E+06-4.51727E+06-2.88780E+06 1.08848E-08-9.62027E-08
 -1       528 2.27441E+07 4.92597E+06 5.46730E+06 9.80626E+06-3.69910E-08-7.93516E-08
 -1       529-1.42111E+07-9.31793E+06-4.27440E+06-7.96929E+06 5.39585E-08-1.43540E-07
 -1       530-3.87242E+06 1.51516E+07 3.08649E+06 7.16409E+06-1.58790E-07 4.25149E-07
 -1       531-2.27948E+06-7.44921E+06-3.84598E+05-4.89455E+06-4.61849E-07 1.38854E-07
 -1       532-1.77701E+07 1.44594E+07 9.47506E+05-3.14890E+06 2.27177E-07-4.09353E-07
 -1       533-2.75743E+06-7.73051E+06-7.39247E+05-5.06449E+06-7.98318E-08-6.81728E-07
 -1       534-2.07668E+06 1.55979E+07 3.08033E+06 7.77922E+06-6.85686E-08 5.05446E-07
 -1       535-1.51759E+07-9.70106E+06-5.43248E+06-7.81655E+06 4.91273E-08 3.24508E-07
 -1       536-5.77479E+05-3.84024E+04-3.66786E+03-3.76568E+04-4.17640E-09 2.85218E-08
 -1       537-1.80056E+05 3.87041E+04 6.73570E+04 8.99524E+04-8.27788E-08 6.47806E-08
 -1       538-3.87540E+05 4.75678E+02 8.68566E+03-5.43807E+04 9.41384E-09 9.56366E-08
 -1       539-3.12367E+05 3.10962E+03 1.86167E+04 1.02890E+05 1.13168E-07 9.31516E-08
 -1       540-4.48349E+05-2.03665E+02-1.09596E+04-5.08338E+04 8.08222E-09 8.77403E-08
 -1       541-6.24963E+04 1.02715E+04 6.46950E+04 6.89638E+04 1.62196E-08 6.14735E-08
 -1       542-6.30708E+05-1.22271E+04-5.03505E+04-2.00599E+04 6.29348E-08 3.94817E-08
 -1       543 9.11022E+04 1.64498E+04 9.45719E+04-1.05250E+04-3.04481E-08-8.08905E-09
 -1       544-5.97856E+05-9.74632E+03-4.46197E+04 2.83435E+04-2.73303E-09-2.44447E-08
 -1       545-1.38030E+05 5.13352E+03 4.63159E+04-8.25799E+04 3.42220E-09-6.54263E-08
 -1       546-4.07677E+05 4.10799E+03-7.89455E+03 5.18475E+04 2.85559E-08-5.63597E-08
 -1       547-3.25276E+05-4.52362E+03 3.22211E+03-1.05279E+05-1.01050E-07-7.32416E-08
 -1       548-4.15589E+05 4.02723E+03-1.87725E+04 5.13556E+04-8.90138E-08-7.44808E-08
 -1       549-1.23471E+05 1.17287E+03 2.48518E+04-7.97153E+04-4.08472E-08-5.26366E-08
 -1       550-6.04041E+05-6.09061E+03-9.44340E+04 2.59523E+04 1.00131E-08-1.25165E-08
 -1       551 3.11294E+04-7.30298E+05 7.42201E+03-1.13866E+06-8.03702E-08 1.01136E-08
 -1       552 6.98319E+04-7.59215E+05 2.29522E+04-1.62335E+06-5.67088E-08 4.02506E-08
 -1       553 5.22607E+04-7.60575E+05 4.06785E+04-1.13339E+06-9.07312E-08 1.73750E-08
 -1       554 1.02880E+05-7.66060E+05 9.10279E+04-1.62524E+06-5.78293E-08-1.30240E-09
 -1       555 8.16106E+04-7.81979E+05 1.63136E+05-1.13374E+06-9.54315E-08-1.60398E-08
 -1       556 1.70989E+05-3.02755E+05 5.20050E+04-3.45445E+05-2.83180E-08-1.34751E-08
 -1       557 2.81518E+05-3.91495E+05 2.87433E+04-4.41627E+05-1.53086E-08-9.56788E-10
 -1       558 1.60842E+05-3.03834E+05 9.36608E+03-3.43492E+05-2.29338E-08 6.05360E-09
 -1       559 2.61587E+05-3.96519E+05 5.44043E+03-4.55294E+05 1.07248E-08 5.97902E-09
 -1       560 1.51142E+05-2.97692E+05 9.18232E+02-3.50301E+05 1.25146E-08-5.94810E-09
 -1       561 2.49025E+05-3.91769E+05 9.92163E+02-4.63685E+05 2.10275E-09 1.52177E-08
 -1       562 1.43497E+05-2.92883E+05-3.31962E+02-3.55802E+05-9.64792E-09 3.89082E-09
 -1       563 2.39996E+05-3.87832E+05 2.19743E+02-4.69539E+05-7.30506E-09-4.72028E-10
 -1       564 1.38189E+05-2.89558E+05-2.01305E+02-3.59552E+05 1.66037E-08-8.35826E-09
 -1       565 2.34268E+05-3.85340E+05 9.52152E+01-4.73186E+05 2.73976E-08 1.16406E-08
 -1       566 1.35303E+05-2.87725E+05-9.44219E+01-3.61574E+05 7.70524E-09-4.17458E-09
 -1       567 2.31840E+05-3.84278E+05-2.04152E+02-4.74618E+05 1.52831E-08-1.73022E-08
 -1       568 1.34904E+05-2.87491E+05-7.20756E+02-3.61949E+05 1.48066E-09-9.09495E-11
 -1       569 2.31574E+05-3.84252E+05-1.81786E+03-4.72934E+05 4.78212E-09 9.21864E-09
 -1       570 1.37895E+05-2.90149E+05-4.06380E+03-3.61214E+05 9.83709E-09-2.51839E-09
 -1       571 2.55066E+05 9.28514E+03 1.34814E+04-7.54140E+04 4.33829E-09 1.87206E-08
 -1       572 2.57044E+05 3.37579E+03 6.60605E+03-8.27320E+04 3.47882E-10 7.61247E-10
 -1       573 2.55856E+05 9.49175E+02 2.93510E+03-7.52624E+04 3.73075E-09 1.25242E-08
 -1       574 2.56070E+05 4.62790E+02 1.47137E+03-8.29160E+04 1.10776E-09 1.10786E-08
 -1       575 2.55944E+05 2.29961E+02 6.94204E+02-7.52419E+04-1.94984E-09 5.13501E-09
 -1       576 2.55944E+05 2.23628E+02 3.54864E+02-8.29405E+04-8.41669E-09-4.22278E-09
 -1       577 2.55970E+05 1.83169E+02 1.76837E+02-7.52392E+04-4.31419E-09 4.16003E-09
 -1       578 2.55955E+05 1.98753E+02 1.01071E+02-8.29437E+04-4.73256E-09 5.08953E-09
 -1       579 2.56014E+05 1.63164E+02 6.87860E+01-7.52389E+04 5.95901E-09 6.36101E-09
 -1       580 2.56016E+05 1.69732E+02 7.75558E+01-8.29396E+04-5.61704E-09 1.24182E-08
 -1       581 2.56082E+05 1.30441E+02 1.17171E+02-7.52436E+04 4.50564E-09-4.52928E-09
 -1       582 2.56127E+05 1.57916E+02 2.35589E+02-8.28910E+04 3.88718E-09-2.61298E-09
 -1       583 2.56163E+05 1.87878E+02 4.54686E+02-7.52878E+04 4.23825E-10 2.60184E-09
 -1       584 2.56397E+05 5.54023E+02 1.02573E+03-8.25194E+04 1.25510E-09 2.54636E-09
 -1       585 2.56145E+05 1.43765E+03 2.08105E+03-7.56151E+04-2.91038E-11-1.45119E-08
 -1       586-3.09926E+03 9.32947E+04-3.22073E+03-2.24303E+05-3.37332E-09-3.26509E-10
 -1       587-9.69184E+02 9.29504E+04 3.05000E+02-2.46880E+05-5.67707E-09 7.93045E-09
 -1       588 6.13290E+02 9.28878E+04 3.91672E+03-2.24191E+05-1.71167E-09 5.66524E-09
 -1       589 4.68162E+03 9.49613E+04 1.04887E+04-2.46642E+05-2.08820E-09 1.17234E-09
 -1       590 1.45264E+04 9.17389E+04 2.21317E+04-2.24576E+05-3.79805E-09 8.43647E-09
 -1       591-5.88465E+04-1.36427E+04-1.88140E+04-2.63793E+04-6.48220E-09-1.40953E-08
 -1       592-6.18979E+04-1.69766E+04-1.01910E+04-2.98199E+04 5.65763E-10-5.61261E-09
 -1       593-6.07311E+04-1.22743E+04-4.24214E+03-2.77559E+04-5.41547E-10 1.25110E-08
 -1       594-5.92952E+04-1.42213E+04-2.11571E+03-2.99248E+04-2.81375E-12 1.71642E-08
 -1       595-6.08749E+04-1.22695E+04-9.71567E+02-2.78185E+04-1.50864E-09 2.33830E-09
 -1       596-5.91174E+04-1.40953E+04-4.94143E+02-2.99042E+04 2.41533E-09 1.61259E-08
 -1       597-6.08929E+04-1.22822E+04-2.69579E+02-2.78209E+04-2.67454E-09 1.08417E-09
 -1       598-5.91000E+04-1.40904E+04-2.17638E+02-2.98984E+04-1.34207E-08 1.64283E-09
 -1       599-6.08918E+04-1.22826E+04-2.79161E+02-2.78205E+04-2.98985E-09 1.36914E-08
 -1       600-5.91178E+04-1.40961E+04-5.19514E+02-2.99027E+04 2.80733E-09-1.22604E-08
 -1       601-6.08705E+04-1.22702E+04-1.02536E+03-2.78173E+04 2.68574E-09 4.42469E-10
 -1       602-5.93054E+04-1.42285E+04-2.23492E+03-2.99213E+04-2.22610E-09-1.11756E-08
 -1       603-6.07163E+04-1.22778E+04-4.48206E+03-2.77517E+04-2.61866E-09 1.20590E-08
 -1       604-6.20698E+04-1.71233E+04-1.07668E+04-2.97897E+04 1.60514E-09 4.10523E-09
 -1       605-5.87080E+04-1.37384E+04-1.98772E+04-2.63135E+04 2.16147E-09-4.25280E-09
 -1       606 2.70273E+04-1.24004E+04-2.22562E+04 2.52476E+04 1.32241E-09 1.45719E-08
 -1       607 2.32219E+04-4.03604E+03-1.10831E+04 2.83576E+04-2.00725E-09 9.90940E-09
 -1       608 2.53866E+04-7.15100E+02-4.96216E+03 2.50579E+04 9.45874E-09 7.45717E-09
 -1       609 2.49662E+04-2.28534E+02-2.50654E+03 2.85812E+04 2.01335E-08 1.28284E-09
 -1       610 2.51958E+04-1.56621E+01-1.19640E+03 2.50361E+04 9.88166E-09 1.37748E-08
 -1       611 2.51252E+04-1.02822E+01-6.03200E+02 2.86054E+04 2.08183E-09-3.92038E-09
 -1       612 2.51501E+04-7.32432E-01-2.87290E+02 2.50339E+04-1.22782E-10-1.32040E-08
 -1       613 2.51302E+04-3.90770E+00-1.29170E+02 2.86083E+04-1.35515E-09-1.20615E-08
 -1       614 2.51270E+04-3.80290E+00-3.16137E+01 2.50332E+04 9.42237E-10 1.30385E-08
 -1       615 2.51216E+04-4.10314E-01 5.11431E+01 2.86088E+04 1.80808E-09-6.63931E-10
 -1       616 2.51091E+04 7.21490E-01 1.56082E+02 2.50334E+04 2.69438E-09-1.13903E-08
 -1       617 2.51374E+04 3.46631E+01 3.57291E+02 2.86082E+04 3.28714E-09-7.28824E-09
 -1       618 2.50759E+04 1.05113E+02 7.20541E+02 2.50336E+04 2.68665E-09-2.47292E-09
 -1       619 2.53900E+04 5.92924E+02 1.61833E+03 2.86075E+04-1.07502E-09-7.69683E-09
 -1       620 2.48355E+04 1.81473E+03 3.25283E+03 2.50337E+04-4.40878E-10 6.79165E-09
 -1       621 3.62269E+02 2.62146E+05 3.07442E+03 2.73312E+04 4.94083E-10-6.53563E-09
 -1       622 4.61267E+02 2.62881E+05 2.80008E+03 3.97189E+04 5.69798E-10-1.32040E-08
 -1       623 6.20337E+01 2.62312E+05 3.46155E+03 2.72046E+04 7.30893E-10 6.33690E-09
 -1       624 1.70639E+03 2.63973E+05 6.78748E+03 3.98455E+04 8.54072E-10-4.86966E-09
 -1       625 1.69518E+03 2.60971E+05 1.18987E+04 2.72018E+04 7.58519E-10-8.18181E-09
 -1       626 2.29683E+05 5.70562E+04 4.77973E+03 1.15309E+05 7.54380E-09 4.85670E-09
 -1       627 2.27345E+05 5.85350E+04 2.30329E+03 1.19490E+05 3.28509E-09-1.37709E-08
 -1       628 2.29814E+05 5.48541E+04 9.73696E+02 1.16102E+05-8.70114E-09-1.97583E-08
 -1       629 2.26730E+05 5.79202E+04 4.76624E+02 1.19732E+05 2.44881E-09 2.14719E-08
 -1       630 2.29826E+05 5.47488E+04 2.20686E+02 1.16132E+05 6.18002E-09 3.40274E-08
 -1       631 2.26662E+05 5.78991E+04 1.18269E+02 1.19733E+05-6.70298E-09-1.10776E-08
 -1       632 2.29820E+05 5.47542E+04 7.69690E+01 1.16126E+05-8.23093E-10-1.27109E-08
 -1       633 2.26651E+05 5.79024E+04 8.44158E+01 1.19728E+05 4.20846E-09-4.18913E-09
 -1       634 2.29813E+05 5.47532E+04 1.35235E+02 1.16124E+05-1.13891E-08 5.31145E-09
 -1       635 2.26661E+05 5.79021E+04 2.72965E+02 1.19730E+05-2.56898E-08-4.69322E-09
 -1       636 2.29802E+05 5.47494E+04 5.50883E+02 1.16123E+05-4.52985E-09 5.17502E-09
 -1       637 2.26778E+05 5.79882E+04 1.21083E+03 1.19728E+05 5.19594E-09-7.25822E-09
 -1       638 2.29758E+05 5.50175E+04 2.48789E+03 1.16001E+05 4.33829E-10 3.52611E-09
 -1       639 2.28085E+05 5.98055E+04 5.88609E+03 1.19342E+05 1.02523E-09-6.01108E-09
 -1       640 2.29580E+05 6.04414E+04 1.22147E+04 1.13710E+05-2.44063E-09-5.04315E-09
 -1       656 5.94907E+04-1.51759E+06-1.43610E+05-1.42498E+03 0.00000E+00-6.96255E-09
 -1       657-7.86779E+04-1.58246E+06-1.18919E+05 6.45170E+03-1.46429E-10 3.00736E-09
 -1       658 1.89405E+04-1.53604E+06-7.31736E+04-3.16774E+03 2.43745E-10 4.34554E-09
 -1       659-8.48976E+04-1.58542E+06-1.27091E+05 7.80515E+03-1.04046E-09-7.80603E-09
 -1       660 6.56963E+04-1.51465E+06-1.57661E+05-2.77842E+03-1.57161E-09-3.99874E-09
 -1       661 1.62318E+05 1.72600E+04 1.65278E+04 6.34651E+04 1.17143E-09 4.72755E-09
 -1       662 1.71420E+05 2.97371E+04 1.11379E+04 6.00327E+04 1.87140E-09-9.54162E-09
 -1       663 1.65563E+05 2.25635E+04 3.89566E+03 6.25245E+04-3.82670E-10-1.27397E-08
 -1       664 1.67660E+05 2.35333E+04 2.32994E+03 6.11802E+04-1.65244E-09 6.30280E-09
 -1       665 1.66053E+05 2.32895E+04 9.19148E+02 6.23830E+04 4.98062E-10 1.01010E-08
 -1       666 1.67081E+05 2.27018E+04 5.37326E+02 6.13639E+04-5.68093E-10-5.64423E-09
 -1       667 1.66138E+05 2.33733E+04 2.84822E+02 6.23487E+04 4.11745E-10 1.86580E-09
 -1       668 1.66989E+05 2.26397E+04 2.88848E+02 6.14138E+04-4.32631E-09-3.26378E-09
 -1       669 1.66145E+05 2.33497E+04 3.89951E+02 6.23336E+04-7.59172E-10 5.98814E-09
 -1       670 1.67084E+05 2.28501E+04 8.48081E+02 6.14159E+04-4.08949E-09 2.90999E-09
 -1       671 1.66042E+05 2.31673E+04 1.50548E+03 6.23447E+04 6.45528E-10-2.64299E-09
 -1       672 1.67962E+05 2.43146E+04 3.85146E+03 6.12035E+04-6.61601E-10-6.71389E-09
 -1       673 1.65272E+05 2.19221E+04 6.45433E+03 6.25318E+04 2.00521E-09-4.56703E-09
 -1       674 1.74106E+05 3.46830E+04 1.84580E+04 5.93975E+04-1.76408E-09-8.41897E-09
 -1       675 1.59938E+05 1.30891E+04 2.73980E+04 6.40416E+04-2.57205E-09-1.88265E-09
 -1       676 2.22931E+01-2.72014E+05-1.03448E+03-5.40784E+01 5.13126E-10 1.41757E-09
 -1       677-2.74548E+02-2.72264E+05-1.89326E+03 1.08081E+02 4.22494E-09-1.11350E-08
 -1       678 1.83422E+02-2.71836E+05-3.34679E+03-5.39662E+01 5.72186E-10-1.47133E-08
 -1       679-3.34765E+03-2.74284E+05-7.95050E+03 1.07651E+02 3.37411E-09-3.57242E-09
 -1       680 1.99806E+03-2.69995E+05-1.28135E+04-5.30457E+01 2.21917E-10-5.98425E-09
 -1       771-2.85118E+06-6.36350E+05-1.15656E+05-1.31833E+06-2.49274E-08-2.04018E-08
 -1       772-2.79306E+06-7.07303E+05-6.00566E+04-1.39983E+06-1.92085E-08 5.46424E-09
 -1       773-2.87285E+06-6.19308E+05-2.96982E+04-1.32705E+06-9.86620E-09 9.20409E-09
 -1       774-2.78403E+06-6.94876E+05-1.34448E+04-1.41665E+06 2.46218E-08-1.55705E-09
 -1       775-2.88321E+06-6.11985E+05-9.44779E+03-1.33082E+06-1.07684E-08 2.49565E-09
 -1       776-2.79068E+06-6.93488E+05-3.63359E+03-1.42882E+06-1.21072E-08 3.78350E-09
 -1       777-2.89198E+06-6.05598E+05-3.95880E+03-1.33414E+06-1.15106E-08 5.00950E-09
 -1       778-2.79777E+06-6.92285E+05-1.15445E+03-1.43920E+06-1.48430E-09 1.25328E-08
 -1       779-2.89943E+06-6.00084E+05-1.91250E+03-1.33697E+06-8.33825E-09-4.89308E-09
 -1       780-2.80400E+06-6.91124E+05-3.26025E+02-1.44764E+06-9.72796E-09 1.77533E-09
 -1       781-2.90529E+06-5.95673E+05-7.26556E+02-1.33919E+06-1.51631E-08-3.78350E-10
 -1       782-2.80877E+06-6.90116E+05 2.66913E+02-1.45385E+06-2.33813E-08-4.13183E-09
 -1       783-2.90939E+06-5.92637E+05 4.24102E+02-1.34075E+06 1.53523E-09-1.37495E-08
 -1       784-2.81136E+06-6.88978E+05 1.72680E+03-1.45767E+06-4.92582E-09-8.11269E-10
 -1       785-2.91180E+06-5.90841E+05 3.05005E+03-1.34177E+06-2.35596E-08 3.38332E-09
 -1       786 1.23612E+05-9.30051E+03 2.15167E+04-2.11091E+02 1.46275E-09 1.61890E-10
 -1       787 1.32943E+05 1.07673E+04 1.52223E+04-4.20498E+01 6.03440E-09 1.70378E-08
 -1       788 1.27210E+05-1.45771E+03 5.56720E+03-1.81196E+02 3.01171E-09 1.51358E-08
 -1       789 1.28752E+05 1.68671E+03 3.49543E+03-8.91605E+01 6.16602E-10 2.30920E-08
 -1       790 1.27804E+05-2.27283E+02 1.41643E+03-1.63990E+02-1.54696E-09 1.03548E-08
 -1       791 1.28057E+05 2.62697E+02 8.20431E+02-1.18859E+02-5.52418E-09 5.10110E-09
 -1       792 1.27905E+05-3.47651E+01 3.52320E+02-1.51499E+02-1.57817E-09 1.61306E-09
 -1       793 1.27938E+05 3.84670E+01 1.85863E+02-1.42360E+02 2.41779E-09-9.58383E-09
 -1       794 1.27923E+05-3.19464E+00 6.88380E+01-1.40489E+02 2.64090E-09-1.09574E-08
 -1       795 1.27911E+05-8.86299E+00 9.81940E-02-1.65266E+02-3.27499E-09-1.23412E-08
 -1       796 1.27932E+05 1.25395E+01-6.00205E+01-1.28593E+02 2.31807E-09-7.12721E-09
 -1       797 1.27867E+05-9.67861E+01-1.91276E+02-1.92440E+02 3.04213E-09 2.02968E-08
 -1       798 1.27967E+05 8.46618E+01-3.17962E+02-1.13314E+02 1.41054E-09 7.14624E-09
 -1       799 1.27624E+05-6.24856E+02-8.81150E+02-2.29720E+02 4.44296E-09 7.82281E-09
 -1       800 1.28176E+05 5.40172E+02-1.24880E+03-9.13120E+01 5.28000E-10-6.45741E-09
 -1       801-1.41650E+04-6.80490E+06-8.60943E+05 6.97908E+05 6.60366E-08-4.17931E-08
 -1       802 2.63960E+05 9.86609E+05 9.36460E+05-7.97535E+05 1.84893E-07-2.94986E-08
 -1       803-2.43730E+05-8.59950E+06-9.26456E+05 4.60877E+05 5.99321E-08 2.58187E-08
 -1       804 9.62298E+04-9.29002E+05 6.57709E+05 4.19427E+05-7.36982E-08-5.80199E-08
 -1       805 1.17882E+05-4.90284E+06-1.47072E+05-5.16580E+05-3.06754E-08-3.80332E-08
 -1       806-2.76091E+05-5.26335E+04-2.02041E+04-1.08489E+05-2.91584E-09-7.68205E-09
 -1       807-2.77807E+05-4.92085E+04-9.92607E+03-1.13240E+05 7.70729E-09-1.13639E-08
 -1       808-2.76636E+05-4.53624E+04-4.21103E+03-1.11943E+05-4.07272E-09 6.81666E-10
 -1       809-2.75726E+05-4.64143E+04-2.05912E+03-1.13479E+05-8.99308E-09 1.09872E-08
 -1       810-2.76719E+05-4.51091E+04-9.43753E+02-1.12097E+05 2.35605E-09 4.43742E-09
 -1       811-2.75566E+05-4.63014E+04-4.69303E+02-1.13448E+05 3.43448E-09-7.32609E-09
 -1       812-2.76733E+05-4.51304E+04-2.37224E+02-1.12097E+05-5.44787E-10-3.08955E-09
 -1       813-2.75545E+05-4.63029E+04-1.54052E+02-1.13432E+05-4.81123E-09-1.36556E-08
 -1       814-2.76728E+05-4.51382E+04-1.52343E+02-1.12094E+05-5.16593E-10 4.87944E-10
 -1       815-2.75549E+05-4.63044E+04-2.45413E+02-1.13427E+05 2.82535E-09 2.77123E-09
 -1       816-2.76711E+05-4.51364E+04-4.64858E+02-1.12091E+05 1.66710E-09 1.39789E-08
 -1       817-2.75630E+05-4.63484E+04-9.97979E+02-1.13419E+05-8.28368E-09 1.66378E-08
 -1       818-2.76653E+05-4.52759E+04-2.03529E+03-1.12026E+05 1.10140E-09 4.71573E-10
 -1       819-2.76744E+05-4.75795E+04-4.78950E+03-1.13159E+05 6.97128E-10-1.05708E-08
 -1       820-2.76275E+05-4.88892E+04-9.74805E+03-1.10476E+05 1.47429E-09 1.21324E-08
 -1       821-3.39589E+05 1.87356E+04-4.33472E+04 8.66944E+02 6.45742E-09 4.27463E-10
 -1       822-3.58305E+05-2.16898E+04-3.06627E+04-1.63745E+03 8.72982E-11 3.04908E-09
 -1       823-3.46795E+05 2.93882E+03-1.12237E+04 1.07243E+03-3.59269E-09 1.51535E-08
 -1       824-3.49852E+05-3.39889E+03-7.05691E+03-1.56197E+03 5.29718E-10 1.38255E-09
 -1       825-3.48039E+05 4.58354E+02-2.91105E+03 7.91469E+02 5.80890E-09-2.81568E-09
 -1       826-3.48357E+05-5.37673E+02-1.72815E+03-6.54419E+02 6.25615E-09-6.49874E-09
 -1       827-3.48285E+05 7.74794E+01-9.27375E+02 1.64869E+02 2.33472E-09-3.74706E-09
 -1       828-3.48149E+05-1.62228E+02-7.77951E+02 6.30927E+02-2.47668E-09-2.75651E-09
 -1       829-3.48247E+05 8.28706E+01-9.41253E+02-4.93898E+02-2.42522E-10 1.68577E-08
 -1       830-3.48454E+05-5.63724E+02-1.80838E+03 1.64944E+03-3.60160E-10 2.70976E-08
 -1       831-3.47983E+05 4.80819E+02-3.01404E+03-8.53659E+02-2.84312E-09-1.85446E-09
 -1       832-3.49938E+05-3.53779E+03-7.34234E+03 1.88914E+03-8.48397E-10-1.01146E-08
 -1       833-3.46765E+05 3.05560E+03-1.16780E+04-7.33603E+02-1.57809E-09 1.52613E-09
 -1       834-3.58627E+05-2.25560E+04-3.18743E+04 1.21900E+03-1.59604E-09 4.18231E-09
 -1       835-3.39295E+05 1.94826E+04-4.50946E+04-1.83501E+02 5.51770E-09-1.55160E-09
 -1       836-1.20401E+03 3.23799E+05 1.98630E+04-1.60189E+04-3.59614E-09 8.04903E-09
 -1       837 4.27750E+03 3.30000E+05 1.69030E+04-3.24315E+04-3.81840E-09 4.31760E-09
 -1       838-4.70275E+02 3.25526E+05 1.73561E+04-1.59518E+04-3.05454E-09 6.37328E-09
 -1       839 1.10187E+04 3.35024E+05 3.29641E+04-3.24769E+04-2.97996E-09 4.00422E-09
 -1       840-3.37673E+03 3.18727E+05 5.26230E+04-1.59755E+04-2.95404E-09-4.19055E-09
 -1       856-6.36898E+04 7.76589E+03-2.04651E+04-4.03484E+02 1.15705E-09-5.48971E-09
 -1       857-7.21308E+04-9.11714E+03-1.40886E+04 5.17489E+03 1.82737E-09-5.06975E-09
 -1       858-6.70291E+04 1.08866E+03-5.31057E+03-4.26359E+02-4.76405E-10 8.21819E-09
 -1       859-6.82977E+04-1.27371E+03-3.20561E+03 5.20994E+03 1.06445E-09 3.17499E-09
 -1       860-6.75281E+04 1.51995E+02-1.34494E+03-4.38452E+02-6.23857E-11-8.13941E-10
 -1       861-6.77234E+04-1.74895E+02-7.43008E+02 5.22648E+03-3.60409E-10 1.15629E-09
 -1       862-6.76060E+04 2.03276E+01-3.15123E+02-4.42897E+02 9.95918E-10 1.05322E-09
 -1       863-6.76290E+04-1.59860E+01-1.29013E+02 5.22884E+03 9.32772E-10-4.19448E-09
 -1       864-6.76229E+04-3.34734E+00 1.36687E+01-4.40821E+02 3.16120E-10-8.28548E-09
 -1       865-6.75839E+04 4.85592E+01 1.75761E+02 5.21760E+03 7.50134E-10-8.14794E-09
 -1       866-6.76491E+04-4.43982E+01 3.70639E+02-4.31656E+02-1.72804E-11 1.95286E-10
 -1       867-6.74052E+04 3.68342E+02 9.22876E+02 5.19265E+03 4.34824E-10 1.37846E-08
 -1       868-6.77973E+04-3.17836E+02 1.53606E+03-4.15872E+02-3.47143E-10-3.79998E-09
 -1       869-6.62759E+04 2.64501E+03 4.09395E+03 5.15114E+03 2.02829E-09-7.99054E-09
 -1       870-6.87718E+04-2.25992E+03 5.94065E+03-3.90111E+02-2.40777E-09 9.32573E-09
 -1       871-5.02589E+03-1.58552E+04-1.71123E+04 1.14167E+05-2.00998E-09 1.07375E-08
 -1       872-1.97304E+03-1.97745E+04-7.10236E+03 1.48026E+05-4.57476E-09 6.60975E-09
 -1       873 1.81869E+02-1.79073E+04 6.76418E+02 1.13917E+05-2.69574E-09-9.14611E-09
 -1       874 2.76213E+03-1.56569E+04 8.95734E+03 1.48061E+05-5.25779E-09 6.63113E-09
 -1       875 6.04535E+03-2.00394E+04 2.00839E+04 1.14127E+05-2.19188E-09 8.39009E-09
 -1       876 2.64743E+05 4.49378E+04 1.37455E+04 1.06619E+05 8.49468E-10-7.61520E-09
 -1       877 2.65619E+05 4.78654E+04 7.34059E+03 1.10591E+05 3.66708E-09-2.49770E-08
 -1       878 2.66028E+05 4.34161E+04 3.07536E+03 1.07746E+05-1.18916E-09 6.13909E-11
 -1       879 2.63750E+05 4.60014E+04 1.53224E+03 1.10686E+05 3.60751E-09 2.59134E-08
 -1       880 2.66121E+05 4.34000E+04 7.13629E+02 1.07792E+05 1.76601E-09 3.24314E-09
 -1       881 2.63626E+05 4.59218E+04 3.80862E+02 1.10665E+05-4.80247E-09-1.22629E-08
 -1       882 2.66129E+05 4.34118E+04 2.43280E+02 1.07794E+05 8.37872E-10-2.48327E-09
 -1       883 2.63618E+05 4.59178E+04 2.60922E+02 1.10658E+05-7.53062E-10 1.01636E-10
 -1       884 2.66123E+05 4.34091E+04 4.14514E+02 1.07794E+05 1.91778E-09-8.32500E-09
 -1       885 2.63651E+05 4.59236E+04 8.33061E+02 1.10669E+05 1.53781E-09-2.42073E-09
 -1       886 2.66091E+05 4.33848E+04 1.67884E+03 1.07791E+05 8.63537E-09 5.18685E-09
 -1       887 2.63946E+05 4.61171E+04 3.66716E+03 1.10711E+05 1.21543E-08-2.99906E-09
 -1       888 2.65860E+05 4.34256E+04 7.38943E+03 1.07673E+05-8.58336E-12 4.54338E-09
 -1       889 2.68346E+05 5.06911E+04 1.76522E+04 1.10575E+05-3.30902E-09 1.49194E-08
 -1       890 2.62846E+05 4.70050E+04 3.30619E+04 1.04857E+05 3.21279E-10 7.18865E-09
 -1       891-1.14451E+02-1.47810E+05-1.79493E+03 2.57315E+04-5.12500E-10 8.72114E-09
 -1       892-2.09832E+02-1.48267E+05-1.93374E+03 3.90134E+04 1.20667E-09-1.37311E-09
 -1       893 5.04282E+00-1.47868E+05-2.74409E+03 2.57377E+04-6.62794E-10 2.11730E-09
 -1       894-1.41837E+03-1.49307E+05-5.68372E+03 3.88712E+04 1.38061E-09 7.16864E-09
 -1       895-1.11929E+03-1.46684E+05-1.00107E+04 2.58737E+04-2.55795E-10-3.26600E-09
 -1       956-3.37909E+05-4.80626E+03-1.19762E+04 2.54726E+04 2.15459E-09-1.03955E-09
 -1       957-3.40266E+05-1.65989E+03-6.14758E+03 3.06437E+04 2.72848E-11-1.28366E-08
 -1       958-3.38979E+05-1.72382E+02-2.77000E+03 2.53272E+04 3.51156E-09 5.11409E-09
 -1       959-3.39160E+05-7.28051E+01-1.41465E+03 3.08082E+04 1.06397E-08 2.70143E-09
 -1       960-3.39080E+05-7.46281E-01-6.89804E+02 2.53126E+04 7.56245E-09-8.26049E-10
 -1       961-3.39085E+05-1.01648E+01-3.65972E+02 3.08251E+04 3.50519E-09-8.42829E-09
 -1       962-3.39102E+05-3.51533E+00-2.09729E+02 2.53103E+04 2.35855E-09 3.71119E-09
 -1       963-3.39083E+05-7.48294E+00-1.68775E+02 3.08281E+04 5.63318E-10-5.58657E-09
 -1       964-3.39106E+05-8.66200E-01-2.05594E+02 2.53096E+04-1.14909E-09 7.34190E-10
 -1       965-3.39094E+05-4.52274E+00-3.55880E+02 3.08277E+04-2.95267E-09-2.55500E-09
 -1       966-3.39093E+05 7.13182E+00-6.68657E+02 2.53108E+04 3.86081E-10-7.65112E-09
 -1       967-3.39178E+05-5.97985E+01-1.37154E+03 3.08162E+04 1.13459E-10-4.72323E-09
 -1       968-3.39003E+05-1.54121E+02-2.68467E+03 2.53211E+04-2.20780E-09 5.10317E-09
 -1       969-3.40259E+05-1.59395E+03-5.96030E+03 3.06960E+04-1.03355E-08 6.18132E-09
 -1       970-3.37972E+05-4.64360E+03-1.16104E+04 2.54279E+04-5.38103E-09 3.41879E-09
 -1       971-3.12706E+05-1.58959E+03-8.67958E+03 1.42984E+04-3.70164E-10-1.27765E-08
 -1       972-3.14804E+05-1.15719E+03-4.72683E+03 1.98631E+04 6.94854E-10-6.56291E-09
 -1       973-3.13672E+05-3.74231E+01-2.11698E+03 1.41826E+04-9.42237E-10 6.66410E-09
 -1       974-3.13807E+05-4.73583E+01-1.09712E+03 1.99916E+04 2.60388E-09 1.18378E-08
 -1       975-3.13748E+05 4.01034E+00-5.48231E+02 1.41713E+04-1.17984E-08-1.33548E-08
 -1       976-3.13749E+05-1.21908E+00-3.15969E+02 2.00058E+04-1.52743E-08-4.46744E-09
 -1       977-3.13763E+05 4.39411E+00-2.28751E+02 1.41684E+04-9.20363E-09-1.03142E-08
 -1       978-3.13753E+05 4.33791E+00-2.66904E+02 2.00099E+04-4.61068E-09-7.68523E-09
 -1       979-3.13763E+05 1.19493E+01-4.28156E+02 1.41672E+04 1.75174E-09 3.60080E-09
 -1       980-3.13785E+05 7.07600E+00-8.26292E+02 2.00107E+04 3.66440E-09-4.37410E-09
 -1       981-3.13736E+05 3.25801E+01-1.60011E+03 1.41676E+04 4.84761E-10-1.23123E-08
 -1       982-3.14005E+05-1.11111E+02-3.30727E+03 2.00046E+04-6.94058E-10-2.11635E-09
 -1       983-3.13535E+05-6.98170E+01-6.42597E+03 1.41734E+04 5.77529E-09 1.03462E-08
 -1       984-3.17095E+05-3.46709E+03-1.43905E+04 1.99243E+04 5.15752E-09-9.36529E-09
 -1       985-3.10626E+05-4.77193E+03-2.64255E+04 1.42462E+04 1.83718E-09-1.14014E-08
 -3
    1PSTEP                        21          11           1          
  100CL  111 6.26953E-01         409                     0   11           1
 -4  DISP        4    1
 -5  D1          1    2    1    0
 -5  D2          1    2    2    0
 -5  D3          1    2    3    0
 -5  ALL         1    2    0    0    1ALL
 -1         1 1.71046E-03 0.00000E+00 0.00000E+00
 -1         2 1.59919E-03-6.95581E-28 2.64698E-23
 -1         3 2.93047E-04-3.28438E-27-1.32349E-23
 -1         5 1.58518E-04 4.21626E-28 0.00000E+00
 -1         8 1.69236E-03-5.59147E-07 0.00000E+00
 -1         9 1.65428E-03-4.89950E-06 0.00000E+00
 -1        10 2.66234E-04-3.39232E-06 1.32349E-23
 -1        12 1.59694E-04 7.40304E-07 1.24077E-24
 -1        15 1.67045E-03-6.13870E-07 0.00000E+00
 -1        16 1.67789E-03-5.92032E-06 0.00000E+00
 -1        17 1.82976E-04-7.53380E-06 0.00000E+00
 -1        18 1.61747E-04 2.50358E-05 0.00000E+00
 -1        19 1.63221E-04 1.47590E-06 0.00000E+00
 -1        20 1.63366E-04-2.54719E-06 0.00000E+00
 -1        21 1.62569E-04-9.79358E-06-3.30872E-24
 -1        24 2.83594E-05-1.10628E-05 0.00000E+00
 -1        25 1.69163E-04 2.52344E-05 0.00000E+00
 -1        26 1.69859E-04 2.04497E-06 0.00000E+00
 -1        27 1.67843E-04-5.83960E-06 0.00000E+00
 -1        28 1.67487E-04-1.03788E-05 0.00000E+00
 -1        32 0.00000E+00 0.00000E+00 0.00000E+00
 -1        33 1.75459E-04 2.73795E-06 0.00000E+00
 -1        34 1.73496E-04-5.88401E-06 0.00000E+00
 -1        35 1.71691E-04-1.06975E-05 0.00000E+00
 -1        51 1.70930E-03-1.03743E-07 0.00000E+00
 -1        52 1.70714E-03-1.93757E-07 0.00000E+00
 -1        53 1.70416E-03-2.82131E-07 0.00000E+00
 -1        54 1.70057E-03-3.70953E-07 0.00000E+00
 -1        55 1.69657E-03-4.61707E-07 4.13590E-24
 -1        56 1.70695E-03 6.68493E-08 0.00000E+00
 -1        57 1.70244E-03 2.44018E-06-5.29396E-23
 -1        58 1.69720E-03 6.76166E-06 0.00000E+00
 -1        59 1.69140E-03 1.24723E-05 0.00000E+00
 -1        60 1.68536E-03 1.88259E-05 0.00000E+00
 -1        61 1.67937E-03 2.50211E-05 0.00000E+00
 -1        62 1.67374E-03 3.02813E-05-1.05879E-22
 -1        63 1.66874E-03 3.38967E-05 0.00000E+00
 -1        64 1.66453E-03 3.54011E-05 1.05879E-22
 -1        65 1.66124E-03 3.44828E-05 5.29396E-23
 -1        66 1.65884E-03 3.11888E-05 0.00000E+00
 -1        67 1.65724E-03 2.57425E-05 0.00000E+00
 -1        68 1.65624E-03 1.86856E-05 0.00000E+00
 -1        69 1.65561E-03 1.06865E-05 5.29396E-23
 -1        70 1.65502E-03 2.54040E-06 0.00000E+00
 -1        86 1.60196E-03-7.74882E-07 0.00000E+00
 -1        87 1.61020E-03-1.57866E-06 0.00000E+00
 -1        88 1.62186E-03-2.41383E-06 0.00000E+00
 -1        89 1.63482E-03-3.26433E-06 1.32349E-23
 -1        90 1.64648E-03-4.10004E-06 0.00000E+00
 -1       121 2.92294E-04-5.52833E-07 1.32349E-23
 -1       122 2.90038E-04-1.10784E-06 0.00000E+00
 -1       123 2.86287E-04-1.66718E-06 1.32349E-23
 -1       124 2.81056E-04-2.23300E-06-6.61744E-24
 -1       125 2.74363E-04-2.80714E-06 0.00000E+00
 -1       191 1.58551E-04 1.23412E-07-8.27181E-25
 -1       192 1.58649E-04 2.46819E-07-4.13590E-25
 -1       193 1.58812E-04 3.70218E-07 2.48154E-24
 -1       194 1.59041E-04 4.93603E-07 0.00000E+00
 -1       195 1.59335E-04 6.16967E-07-2.48154E-24
 -1       251 1.69159E-03 1.87223E-05 0.00000E+00
 -1       252 1.68978E-03 6.88245E-05-6.61744E-24
 -1       253 1.68674E-03 1.40751E-04-1.32349E-23
 -1       254 1.68276E-03 2.25002E-04 0.00000E+00
 -1       255 1.67882E-03 3.08689E-04 1.32349E-23
 -1       256 1.67589E-03 3.78939E-04 6.61744E-24
 -1       257 1.67419E-03 4.26564E-04 1.32349E-23
 -1       258 1.67346E-03 4.42900E-04 6.61744E-24
 -1       259 1.67274E-03 4.27446E-04 0.00000E+00
 -1       260 1.67108E-03 3.80488E-04 6.61744E-24
 -1       261 1.66816E-03 3.10526E-04 1.32349E-23
 -1       262 1.66420E-03 2.26590E-04 0.00000E+00
 -1       263 1.66016E-03 1.41542E-04 0.00000E+00
 -1       264 1.65701E-03 6.82678E-05-6.61744E-24
 -1       265 1.65512E-03 1.64028E-05-2.64698E-23
 -1       266 1.68871E-03-5.76421E-07 3.30872E-24
 -1       267 1.68506E-03-5.84548E-07 0.00000E+00
 -1       268 1.68140E-03-5.93254E-07 8.27181E-25
 -1       269 1.67775E-03-6.00243E-07 2.06795E-25
 -1       270 1.67410E-03-6.07193E-07-2.06795E-25
 -1       271 1.69009E-03 2.83553E-06 0.00000E+00
 -1       272 1.68777E-03 6.25959E-06 0.00000E+00
 -1       273 1.68549E-03 9.59544E-06-2.64698E-23
 -1       274 1.68329E-03 1.27131E-05 0.00000E+00
 -1       275 1.68122E-03 1.54885E-05 2.64698E-23
 -1       276 1.67932E-03 1.78003E-05-1.32349E-23
 -1       277 1.67764E-03 1.95324E-05 2.64698E-23
 -1       278 1.67622E-03 2.05752E-05 0.00000E+00
 -1       279 1.67509E-03 2.08273E-05 0.00000E+00
 -1       280 1.67430E-03 2.01962E-05 1.32349E-23
 -1       281 1.67387E-03 1.85995E-05-2.64698E-23
 -1       282 1.67383E-03 1.59661E-05 0.00000E+00
 -1       283 1.67419E-03 1.22366E-05 0.00000E+00
 -1       284 1.67498E-03 7.36527E-06 0.00000E+00
 -1       285 1.67621E-03 1.31750E-06 0.00000E+00
 -1       301 1.65861E-03-5.09201E-06-6.61744E-24
 -1       302 1.66189E-03-5.25315E-06-3.30872E-24
 -1       303 1.66480E-03-5.41087E-06 0.00000E+00
 -1       304 1.66799E-03-5.56863E-06 0.00000E+00
 -1       305 1.67214E-03-5.73146E-06 0.00000E+00
 -1       306 1.68470E-03-1.20182E-04 0.00000E+00
 -1       307 1.74816E-03-4.42130E-04 0.00000E+00
 -1       308 1.81253E-03-9.19437E-04 1.05879E-22
 -1       309 1.86735E-03-1.48038E-03-5.29396E-23
 -1       310 1.92383E-03-2.02809E-03 0.00000E+00
 -1       311 1.99022E-03-2.46698E-03 0.00000E+00
 -1       312 2.04834E-03-2.73244E-03-1.05879E-22
 -1       313 2.06050E-03-2.78495E-03-5.29396E-23
 -1       314 1.98096E-03-2.62823E-03-1.05879E-22
 -1       315 1.78009E-03-2.29863E-03 0.00000E+00
 -1       316 1.46883E-03-1.85425E-03-1.05879E-22
 -1       317 1.08849E-03-1.35392E-03 5.29396E-23
 -1       318 7.14810E-04-8.58796E-04 0.00000E+00
 -1       319 4.21643E-04-4.30883E-04 0.00000E+00
 -1       320 2.43301E-04-1.28547E-04-1.05879E-22
 -1       336 2.56512E-04-4.03488E-06 0.00000E+00
 -1       337 2.45050E-04-4.69573E-06-6.61744E-24
 -1       338 2.31900E-04-5.37614E-06 0.00000E+00
 -1       339 2.17123E-04-6.07639E-06 0.00000E+00
 -1       340 2.00790E-04-6.80000E-06 0.00000E+00
 -1       406 1.60118E-04 8.63602E-07 2.48154E-24
 -1       407 1.60608E-04 9.86831E-07-1.65436E-24
 -1       408 1.61164E-04 1.10995E-06 0.00000E+00
 -1       409 1.61784E-04 1.23281E-06 4.13590E-25
 -1       410 1.62470E-04 1.35517E-06 3.30872E-24
 -1       521 1.70933E-03-1.29817E-04 0.00000E+00
 -1       522 1.77281E-03-4.70924E-04 0.00000E+00
 -1       523 1.83412E-03-9.75242E-04 1.05879E-22
 -1       524 1.88346E-03-1.56539E-03-5.29396E-23
 -1       525 1.93501E-03-2.14086E-03 0.00000E+00
 -1       526 1.99945E-03-2.60262E-03-5.29396E-23
 -1       527 2.05782E-03-2.88079E-03 0.00000E+00
 -1       528 2.06913E-03-2.93460E-03 5.29396E-23
 -1       529 1.98207E-03-2.76718E-03 0.00000E+00
 -1       530 1.76445E-03-2.42005E-03 5.29396E-23
 -1       531 1.42718E-03-1.95446E-03-1.05879E-22
 -1       532 1.01579E-03-1.43258E-03 5.29396E-23
 -1       533 6.11004E-04-9.15520E-04 0.00000E+00
 -1       534 2.91638E-04-4.65289E-04 0.00000E+00
 -1       535 9.63816E-05-1.44057E-04 1.05879E-22
 -1       536 1.82397E-04 2.19274E-05-6.61744E-24
 -1       537 1.80982E-04 7.31434E-05 0.00000E+00
 -1       538 1.78813E-04 1.38188E-04 0.00000E+00
 -1       539 1.76263E-04 2.09063E-04 0.00000E+00
 -1       540 1.73966E-04 2.76017E-04-3.30872E-24
 -1       541 1.72461E-04 3.29319E-04 0.00000E+00
 -1       542 1.71749E-04 3.63154E-04-3.30872E-24
 -1       543 1.71553E-04 3.71825E-04 0.00000E+00
 -1       544 1.71277E-04 3.56040E-04 0.00000E+00
 -1       545 1.70374E-04 3.16683E-04 0.00000E+00
 -1       546 1.68736E-04 2.60767E-04 3.30872E-24
 -1       547 1.66545E-04 1.95403E-04 1.65436E-24
 -1       548 1.64382E-04 1.30481E-04 3.30872E-24
 -1       549 1.62814E-04 7.58853E-05 0.00000E+00
 -1       550 1.61986E-04 3.84839E-05 0.00000E+00
 -1       551 1.61581E-04-8.02043E-06 0.00000E+00
 -1       552 1.37243E-04-8.56720E-06-3.30872E-24
 -1       553 1.10851E-04-9.16134E-06-9.92617E-24
 -1       554 8.33050E-05-9.78633E-06 3.30872E-24
 -1       555 5.55087E-05-1.04202E-05 0.00000E+00
 -1       556 1.76606E-04 8.81212E-06 0.00000E+00
 -1       557 1.71491E-04 2.19838E-05 2.64698E-23
 -1       558 1.67512E-04 3.22345E-05 0.00000E+00
 -1       559 1.64555E-04 3.98377E-05 0.00000E+00
 -1       560 1.62507E-04 4.50669E-05 0.00000E+00
 -1       561 1.61257E-04 4.81979E-05 0.00000E+00
 -1       562 1.60696E-04 4.95073E-05 0.00000E+00
 -1       563 1.60716E-04 4.92726E-05 0.00000E+00
 -1       564 1.61211E-04 4.77716E-05 0.00000E+00
 -1       565 1.62074E-04 4.52830E-05 0.00000E+00
 -1       566 1.63202E-04 4.20856E-05 0.00000E+00
 -1       567 1.64490E-04 3.84585E-05-3.30872E-24
 -1       568 1.65833E-04 3.46811E-05-6.20385E-25
 -1       569 1.67129E-04 3.10325E-05 0.00000E+00
 -1       570 1.68273E-04 2.77920E-05 0.00000E+00
 -1       571 1.61836E-04 2.35102E-05 1.65436E-24
 -1       572 1.61927E-04 2.19262E-05-4.13590E-25
 -1       573 1.62019E-04 2.02974E-05 1.65436E-24
 -1       574 1.62111E-04 1.86378E-05-1.65436E-24
 -1       575 1.62203E-04 1.69615E-05 3.30872E-24
 -1       576 1.62296E-04 1.52828E-05 1.65436E-24
 -1       577 1.62388E-04 1.36157E-05-6.61744E-24
 -1       578 1.62480E-04 1.19745E-05 1.65436E-24
 -1       579 1.62572E-04 1.03734E-05 0.00000E+00
 -1       580 1.62665E-04 8.82651E-06 6.61744E-24
 -1       581 1.62757E-04 7.34812E-06-6.61744E-24
 -1       582 1.62850E-04 5.95236E-06 0.00000E+00
 -1       583 1.62942E-04 4.65341E-06 0.00000E+00
 -1       584 1.63035E-04 3.46529E-06 0.00000E+00
 -1       585 1.63128E-04 2.40188E-06 0.00000E+00
 -1       586 1.62936E-04 2.50709E-05 0.00000E+00
 -1       587 1.64091E-04 2.51054E-05-4.13590E-25
 -1       588 1.65250E-04 2.51395E-05 8.27181E-25
 -1       589 1.66456E-04 2.51730E-05 0.00000E+00
 -1       590 1.67747E-04 2.52054E-05 0.00000E+00
 -1       591 1.62262E-04 2.35881E-05 0.00000E+00
 -1       592 1.62781E-04 2.21183E-05-2.06795E-25
 -1       593 1.63306E-04 2.06321E-05 0.00000E+00
 -1       594 1.63835E-04 1.91344E-05 0.00000E+00
 -1       595 1.64367E-04 1.76302E-05 8.27181E-25
 -1       596 1.64899E-04 1.61244E-05 4.13590E-25
 -1       597 1.65429E-04 1.46218E-05 0.00000E+00
 -1       598 1.65957E-04 1.31272E-05 4.13590E-25
 -1       599 1.66480E-04 1.16455E-05 0.00000E+00
 -1       600 1.66996E-04 1.01817E-05 4.13590E-25
 -1       601 1.67504E-04 8.74041E-06-4.13590E-25
 -1       602 1.68001E-04 7.32664E-06 0.00000E+00
 -1       603 1.68487E-04 5.94521E-06 0.00000E+00
 -1       604 1.68959E-04 4.60109E-06-1.29247E-25
 -1       605 1.69416E-04 3.29904E-06 0.00000E+00
 -1       606 1.63234E-04 7.61078E-07-3.30872E-24
 -1       607 1.63244E-04 1.35290E-07 0.00000E+00
 -1       608 1.63253E-04-4.06692E-07 0.00000E+00
 -1       609 1.63262E-04-8.70759E-07 0.00000E+00
 -1       610 1.63271E-04-1.26286E-06 0.00000E+00
 -1       611 1.63280E-04-1.58899E-06 0.00000E+00
 -1       612 1.63288E-04-1.85518E-06 0.00000E+00
 -1       613 1.63297E-04-2.06744E-06 0.00000E+00
 -1       614 1.63306E-04-2.23181E-06 0.00000E+00
 -1       615 1.63314E-04-2.35430E-06 0.00000E+00
 -1       616 1.63323E-04-2.44093E-06-1.65436E-24
 -1       617 1.63332E-04-2.49774E-06 4.13590E-25
 -1       618 1.63340E-04-2.53075E-06 0.00000E+00
 -1       619 1.63349E-04-2.54598E-06 0.00000E+00
 -1       620 1.63358E-04-2.54946E-06 0.00000E+00
 -1       621 1.64103E-04 1.57112E-06-1.65436E-24
 -1       622 1.65110E-04 1.66662E-06 0.00000E+00
 -1       623 1.66215E-04 1.76200E-06 0.00000E+00
 -1       624 1.67392E-04 1.85713E-06 8.27181E-25
 -1       625 1.68615E-04 1.95203E-06 0.00000E+00
 -1       626 1.63593E-04 7.94265E-07 0.00000E+00
 -1       627 1.63940E-04 1.80488E-07 1.65436E-24
 -1       628 1.64266E-04-3.73244E-07 0.00000E+00
 -1       629 1.64572E-04-8.75099E-07 0.00000E+00
 -1       630 1.64861E-04-1.33327E-06-3.30872E-24
 -1       631 1.65138E-04-1.75596E-06 0.00000E+00
 -1       632 1.65404E-04-2.15140E-06 0.00000E+00
 -1       633 1.65663E-04-2.52779E-06 0.00000E+00
 -1       634 1.65918E-04-2.89336E-06 0.00000E+00
 -1       635 1.66172E-04-3.25631E-06 0.00000E+00
 -1       636 1.66428E-04-3.62487E-06 0.00000E+00
 -1       637 1.66689E-04-4.00725E-06 0.00000E+00
 -1       638 1.66959E-04-4.41167E-06 0.00000E+00
 -1       639 1.67239E-04-4.84636E-06 0.00000E+00
 -1       640 1.67534E-04-5.31956E-06 3.30872E-24
 -1       656 1.63591E-04-3.08249E-06 0.00000E+00
 -1       657 1.64223E-04-3.63944E-06 0.00000E+00
 -1       658 1.65123E-04-4.19498E-06-1.32349E-23
 -1       659 1.66145E-04-4.75015E-06 0.00000E+00
 -1       660 1.67111E-04-5.30701E-06 6.61744E-24
 -1       661 1.63451E-04-2.58536E-06-8.27181E-25
 -1       662 1.63571E-04-2.70608E-06 8.27181E-25
 -1       663 1.63720E-04-2.90501E-06 1.65436E-24
 -1       664 1.63897E-04-3.17657E-06 8.27181E-25
 -1       665 1.64099E-04-3.51580E-06 1.65436E-24
 -1       666 1.64325E-04-3.91766E-06-8.27181E-25
 -1       667 1.64572E-04-4.37735E-06 0.00000E+00
 -1       668 1.64839E-04-4.89016E-06 0.00000E+00
 -1       669 1.65125E-04-5.45150E-06 0.00000E+00
 -1       670 1.65427E-04-6.05690E-06-8.27181E-25
 -1       671 1.65743E-04-6.70202E-06 1.65436E-24
 -1       672 1.66073E-04-7.38259E-06 8.27181E-25
 -1       673 1.66415E-04-8.09441E-06 0.00000E+00
 -1       674 1.66766E-04-8.83364E-06 0.00000E+00
 -1       675 1.67125E-04-9.59582E-06 0.00000E+00
 -1       676 1.63392E-04-9.89169E-06 0.00000E+00
 -1       677 1.64213E-04-9.98976E-06 0.00000E+00
 -1       678 1.65035E-04-1.00878E-05 0.00000E+00
 -1       679 1.65854E-04-1.01855E-05 0.00000E+00
 -1       680 1.66672E-04-1.02832E-05-1.65436E-24
 -1       771 1.81887E-05 1.14654E-05 0.00000E+00
 -1       772 9.60198E-06 2.99641E-05 0.00000E+00
 -1       773 2.52361E-06 4.46322E-05 0.00000E+00
 -1       774-3.14915E-06 5.56913E-05 2.64698E-23
 -1       775-7.51721E-06 6.33710E-05 5.29396E-23
 -1       776-1.06855E-05 6.79142E-05-2.64698E-23
 -1       777-1.27590E-05 6.95717E-05 5.29396E-23
 -1       778-1.38451E-05 6.86049E-05 2.64698E-23
 -1       779-1.40508E-05 6.52821E-05 0.00000E+00
 -1       780-1.34849E-05 5.98804E-05 0.00000E+00
 -1       781-1.22557E-05 5.26822E-05 0.00000E+00
 -1       782-1.04730E-05 4.39768E-05 0.00000E+00
 -1       783-8.24591E-06 3.40570E-05 0.00000E+00
 -1       784-5.68474E-06 2.32205E-05 0.00000E+00
 -1       785-2.89909E-06 1.17676E-05 0.00000E+00
 -1       786 1.69202E-04 2.35655E-05 0.00000E+00
 -1       787 1.69245E-04 2.19451E-05 4.13590E-25
 -1       788 1.69288E-04 2.03649E-05 0.00000E+00
 -1       789 1.69332E-04 1.88173E-05 0.00000E+00
 -1       790 1.69375E-04 1.72974E-05-1.65436E-24
 -1       791 1.69419E-04 1.58008E-05-8.27181E-25
 -1       792 1.69463E-04 1.43253E-05 0.00000E+00
 -1       793 1.69507E-04 1.28688E-05 0.00000E+00
 -1       794 1.69550E-04 1.14310E-05 1.65436E-24
 -1       795 1.69594E-04 1.00119E-05 8.27181E-25
 -1       796 1.69638E-04 8.61304E-06-1.65436E-24
 -1       797 1.69682E-04 7.23635E-06 0.00000E+00
 -1       798 1.69726E-04 5.88585E-06 1.65436E-24
 -1       799 1.69770E-04 4.56564E-06 8.27181E-25
 -1       800 1.69814E-04 3.28292E-06-1.65436E-24
 -1       801 1.31933E-04 2.25254E-05-2.64698E-23
 -1       802 1.90308E-05 1.43403E-05 0.00000E+00
 -1       803-7.89474E-05 7.43023E-06-5.29396E-23
 -1       804-7.28346E-05 5.09672E-06 0.00000E+00
 -1       805-2.44787E-05 2.14672E-06 0.00000E+00
 -1       806 1.69682E-04 2.35029E-05-1.65436E-24
 -1       807 1.70188E-04 2.17980E-05 1.65436E-24
 -1       808 1.70682E-04 2.01241E-05 3.30872E-24
 -1       809 1.71162E-04 1.84848E-05-1.65436E-24
 -1       810 1.71628E-04 1.68835E-05 0.00000E+00
 -1       811 1.72078E-04 1.53235E-05 0.00000E+00
 -1       812 1.72512E-04 1.38084E-05 0.00000E+00
 -1       813 1.72927E-04 1.23413E-05-8.27181E-25
 -1       814 1.73324E-04 1.09258E-05-1.65436E-24
 -1       815 1.73700E-04 9.56501E-06 8.27181E-25
 -1       816 1.74054E-04 8.26242E-06-3.30872E-24
 -1       817 1.74385E-04 7.02130E-06-8.27181E-25
 -1       818 1.74693E-04 5.84500E-06 3.30872E-24
 -1       819 1.74974E-04 4.73682E-06-8.27181E-25
 -1       820 1.75230E-04 3.70006E-06 3.30872E-24
 -1       821 1.69740E-04 6.12328E-07 0.00000E+00
 -1       822 1.69612E-04-1.25151E-06 1.65436E-24
 -1       823 1.69485E-04-3.34332E-06 0.00000E+00
 -1       824 1.69357E-04-5.45852E-06 0.00000E+00
 -1       825 1.69229E-04-7.38679E-06-3.30872E-24
 -1       826 1.69101E-04-8.91881E-06 0.00000E+00
 -1       827 1.68974E-04-9.94673E-06 0.00000E+00
 -1       828 1.68847E-04-1.03656E-05 0.00000E+00
 -1       829 1.68720E-04-1.02264E-05 0.00000E+00
 -1       830 1.68593E-04-9.58316E-06 0.00000E+00
 -1       831 1.68466E-04-8.61911E-06-3.30872E-24
 -1       832 1.68339E-04-7.51918E-06 0.00000E+00
 -1       833 1.68212E-04-6.50319E-06 0.00000E+00
 -1       834 1.68087E-04-5.79042E-06 0.00000E+00
 -1       835 1.67961E-04-5.52278E-06-8.27181E-25
 -1       836 1.70987E-04 2.16003E-06 0.00000E+00
 -1       837 1.71996E-04 2.27788E-06 0.00000E+00
 -1       838 1.72916E-04 2.39563E-06 0.00000E+00
 -1       839 1.73779E-04 2.51270E-06 0.00000E+00
 -1       840 1.74617E-04 2.62960E-06 8.27181E-25
 -1       856 1.67825E-04-6.38074E-06-4.13590E-25
 -1       857 1.67803E-04-6.79349E-06-2.58494E-26
 -1       858 1.67781E-04-7.09785E-06 4.13590E-25
 -1       859 1.67759E-04-7.31388E-06-2.06795E-25
 -1       860 1.67737E-04-7.46176E-06-8.27181E-25
 -1       861 1.67714E-04-7.56169E-06-4.13590E-25
 -1       862 1.67692E-04-7.63395E-06-8.27181E-25
 -1       863 1.67669E-04-7.69880E-06 4.13590E-25
 -1       864 1.67647E-04-7.77653E-06 8.27181E-25
 -1       865 1.67625E-04-7.88742E-06 0.00000E+00
 -1       866 1.67602E-04-8.05171E-06-8.27181E-25
 -1       867 1.67580E-04-8.28961E-06 0.00000E+00
 -1       868 1.67557E-04-8.62126E-06 8.27181E-25
 -1       869 1.67534E-04-9.06673E-06-4.13590E-25
 -1       870 1.67511E-04-9.64596E-06 0.00000E+00
 -1       871 1.68651E-04-5.84296E-06-4.13590E-25
 -1       872 1.69595E-04-5.84939E-06 0.00000E+00
 -1       873 1.70615E-04-5.85642E-06 0.00000E+00
 -1       874 1.71646E-04-5.86415E-06-1.55096E-25
 -1       875 1.72627E-04-5.87243E-06 1.44757E-24
 -1       876 1.68165E-04-6.36743E-06 3.30872E-24
 -1       877 1.68467E-04-6.83229E-06 0.00000E+00
 -1       878 1.68747E-04-7.24174E-06-3.30872E-24
 -1       879 1.69010E-04-7.60274E-06 1.65436E-24
 -1       880 1.69258E-04-7.92233E-06 0.00000E+00
 -1       881 1.69492E-04-8.20747E-06 0.00000E+00
 -1       882 1.69716E-04-8.46513E-06 0.00000E+00
 -1       883 1.69933E-04-8.70228E-06 0.00000E+00
 -1       884 1.70145E-04-8.92585E-06-3.30872E-24
 -1       885 1.70354E-04-9.14280E-06 0.00000E+00
 -1       886 1.70563E-04-9.36007E-06 3.30872E-24
 -1       887 1.70774E-04-9.58462E-06 0.00000E+00
 -1       888 1.70991E-04-9.82343E-06-3.30872E-24
 -1       889 1.71215E-04-1.00836E-05 0.00000E+00
 -1       890 1.71450E-04-1.03720E-05 0.00000E+00
 -1       891 1.68324E-04-1.04323E-05 0.00000E+00
 -1       892 1.69138E-04-1.04859E-05 4.13590E-25
 -1       893 1.69906E-04-1.05395E-05 0.00000E+00
 -1       894 1.70604E-04-1.05928E-05 4.13590E-25
 -1       895 1.71207E-04-1.06460E-05 0.00000E+00
 -1       956 1.75339E-04 1.93328E-06 3.30872E-24
 -1       957 1.75216E-04 1.21066E-06-1.65436E-24
 -1       958 1.75093E-04 5.60602E-07-3.30872E-24
 -1       959 1.74970E-04-2.69557E-08 1.65436E-24
 -1       960 1.74847E-04-5.62086E-07 0.00000E+00
 -1       961 1.74724E-04-1.05490E-06-1.65436E-24
 -1       962 1.74601E-04-1.51552E-06-3.30872E-24
 -1       963 1.74477E-04-1.95410E-06 0.00000E+00
 -1       964 1.74354E-04-2.38075E-06 0.00000E+00
 -1       965 1.74231E-04-2.80561E-06 0.00000E+00
 -1       966 1.74108E-04-3.23883E-06 0.00000E+00
 -1       967 1.73985E-04-3.69054E-06 0.00000E+00
 -1       968 1.73862E-04-4.17086E-06 0.00000E+00
 -1       969 1.73739E-04-4.68989E-06 0.00000E+00
 -1       970 1.73617E-04-5.25772E-06 0.00000E+00
 -1       971 1.73384E-04-6.50442E-06-1.65436E-24
 -1       972 1.73271E-04-7.03372E-06 1.65436E-24
 -1       973 1.73158E-04-7.48195E-06-3.30872E-24
 -1       974 1.73044E-04-7.85956E-06 0.00000E+00
 -1       975 1.72931E-04-8.17700E-06 0.00000E+00
 -1       976 1.72817E-04-8.44473E-06 0.00000E+00
 -1       977 1.72704E-04-8.67325E-06-3.30872E-24
 -1       978 1.72591E-04-8.87305E-06-1.65436E-24
 -1       979 1.72477E-04-9.05463E-06 0.00000E+00
 -1       980 1.72364E-04-9.22850E-06-1.65436E-24
 -1       981 1.72250E-04-9.40516E-06 3.30872E-24
 -1       982 1.72137E-04-9.59511E-06-1.65436E-24
 -1       983 1.72024E-04-9.80886E-06 3.30872E-24
 -1       984 1.71911E-04-1.00569E-05-1.65436E-24
 -1       985 1.71799E-04-1.03497E-05 3.30872E-24
 -3
    1PSTEP                        22          11           1          
  100CL  111 6.26953E-01         409                     0   11           1
 -4  STRESS      6    1
 -5  SXX         1    4    1    1
 -5  SYY         1    4    2    2
 -5  SZZ         1    4    3    3
 -5  SXY         1    4    1    2
 -5  SYZ         1    4    2    3
 -5  SZX         1    4    3    1
 -1         1-4.11396E+06-1.55961E+06-9.03693E+05-1.57412E+06 8.73115E-10 1.16008E-07
 -1         2 1.24279E+03-2.17000E+06 5.56770E+03 5.19325E+04 1.19059E-09-3.33667E-07
 -1         3-1.04030E+03-1.57270E+06 3.87872E+02-1.86927E+03-4.31520E-10-7.30579E-08
 -1         5-3.10316E+01 3.53244E+05 9.09834E+00-7.17526E-01-3.29350E-10-1.93522E-08
 -1         8-7.01805E+05-2.36400E+05-6.10009E+04-2.95526E+05-1.67347E-10 6.10162E-08
 -1         9 5.88455E+06-7.05134E+05 1.02128E+06-1.01346E+06 2.66940E-08-2.13739E-08
 -1        10-1.95065E+03-1.63878E+06-3.56346E+03-1.26322E+04-1.05356E-08 8.82756E-09
 -1        12-2.73575E+01 3.53263E+05 2.96538E+02-5.06983E+00-4.54033E-10 2.57296E-09
 -1        15 1.35102E+03 7.42459E+02 4.36713E+03 2.13326E+00-4.35094E-10 2.53463E-07
 -1        16 1.34867E+07-2.31198E+05 1.92891E+06-1.21264E+06 1.75399E-08 5.08735E-08
 -1        17 4.80027E+06 3.27663E+06 1.29458E+06 3.28286E+06 1.23517E-08 3.27243E-08
 -1        18 8.81003E+04 1.89006E+04-6.52006E+03-1.05971E+05 1.41204E-08-4.81532E-09
 -1        19 1.12638E+05 1.29964E+05-8.88860E+02 2.08447E+04 9.57880E-10-6.02595E-09
 -1        20-7.02410E+04-5.29629E+05-1.18467E+05 2.62610E+04-6.57868E-11 5.28477E-09
 -1        21-4.41404E+01-2.79934E+05-8.80022E+02 1.57908E+02 2.24062E-08-1.34449E-08
 -1        24 7.74321E+06 6.60731E+06 2.26070E+06 6.12438E+06-1.30021E-07-4.51691E-08
 -1        25 3.36361E+04-6.80269E+04 1.40973E+04-4.53075E+05-1.42836E-09 1.50721E-08
 -1        26-4.94524E+04 8.43514E+04-2.25952E+04-6.43926E+02 7.04676E-10 1.42145E-08
 -1        27-7.28320E+04-2.86952E+05-1.05575E+05 6.40437E+04 4.19459E-09 7.30931E-10
 -1        28 2.12039E+04-8.00171E+04 1.59532E+04 2.05596E+04-1.82416E-09-5.80554E-09
 -1        32-1.58333E+06-2.84785E+06-1.57856E+05 1.16816E+05-3.55358E-08-5.41775E-09
 -1        33-1.66170E+05 8.49615E+04 2.98397E+04-3.67384E+04-1.72092E-09 1.07311E-08
 -1        34-2.08498E+05-2.26737E+04 6.15259E+02 6.91346E+04-2.69918E-09-3.05135E-09
 -1        35-2.17700E+04-3.17470E+04-1.26091E+03 4.87255E+04-1.99202E-09-4.43955E-09
 -1        51 4.56395E+04-2.29380E+05 9.95420E+04-6.74865E+05-7.27596E-11 7.20756E-08
 -1        52 1.69443E+04-2.14038E+05 5.43365E+04-7.86805E+05 2.47383E-10-1.68875E-08
 -1        53 5.26567E+03-2.29266E+05 3.16399E+04-6.72394E+05 3.38332E-10-4.51691E-08
 -1        54 1.24410E+04-2.25974E+05 3.27686E+04-7.89387E+05 2.54659E-10-1.18307E-07
 -1        55 2.59114E+04-2.36028E+05 4.77638E+04-6.72025E+05 2.18279E-10-1.32633E-07
 -1        56-7.77973E+06-8.83668E+05-6.68645E+05-3.04331E+06 1.51631E-08-8.20146E-08
 -1        57-8.17815E+06-1.35503E+06-4.50271E+05-2.86312E+06 1.50758E-08 1.76951E-07
 -1        58-7.88057E+06-1.12793E+06-1.57079E+05-3.03728E+06 2.00598E-08-1.82190E-08
 -1        59-8.06778E+06-1.06317E+06-9.35055E+04-2.86718E+06 2.41243E-08-3.15804E-08
 -1        60-7.88947E+06-1.16724E+06-3.64437E+04-3.04262E+06-2.30766E-08 1.24601E-08
 -1        61-8.04085E+06-1.03208E+06-2.05271E+04-2.87752E+06 3.67522E-08 1.54873E-08
 -1        62-7.90668E+06-1.15824E+06-1.02421E+04-3.02692E+06 1.07475E-08 2.91093E-08
 -1        63-7.99001E+06-1.07221E+06-7.43213E+03-2.92613E+06-2.72667E-09 1.36677E-08
 -1        64-7.93827E+06-1.12832E+06-9.94017E+03-2.99258E+06 6.33554E-09 1.94725E-08
 -1        65-7.92663E+06-1.14048E+06-1.75451E+04-2.99860E+06-1.73677E-08-1.07720E-07
 -1        66-7.96949E+06-1.09050E+06-3.26934E+04-2.95400E+06-7.11771E-09 2.52567E-08
 -1        67-7.89235E+06-1.22802E+06-8.15365E+04-3.06081E+06-1.99298E-08-4.74347E-08
 -1        68-7.97470E+06-1.04048E+06-1.37288E+05-2.93144E+06 7.26504E-09 9.65374E-08
 -1        69-8.00236E+06-1.47522E+06-3.94256E+05-3.05248E+06-1.52031E-08 1.41368E-07
 -1        70-7.86309E+06-8.48565E+05-5.84356E+05-2.96161E+06 4.51109E-09-4.30737E-08
 -1        86-1.30402E+03-2.21283E+06-3.23478E+03-2.59601E+04-8.97552E-09 1.61344E-09
 -1        87 1.52949E+03-2.18579E+06 2.47985E+03 8.39022E+04-1.55771E-08 4.78813E-08
 -1        88-2.11875E+02-2.19864E+06-5.09221E+02-5.79360E+04-1.50937E-08-5.00505E-08
 -1        89 1.59663E+03-2.19424E+06 5.23580E+01 1.03766E+05-2.44486E-08-5.18178E-09
 -1        90-6.42736E+02-2.20523E+06-3.65319E+03-4.58352E+04-9.71227E-09 1.03299E-07
 -1       121-1.43876E+03-1.57621E+06-2.63349E+02 9.28940E+02 1.17704E-09-6.68661E-09
 -1       122-8.73488E+02-1.57272E+06 7.68901E+02-3.73684E+03-4.62218E-09-1.14233E-08
 -1       123-1.47900E+03-1.57633E+06 5.77307E+02 2.77405E+03 3.65787E-09 2.79397E-09
 -1       124 7.20780E+02-1.57213E+06 3.04357E+03-7.81739E+03-9.00127E-09 3.49974E-08
 -1       125-2.33624E+03-1.57721E+06 3.93181E+03 4.98354E+03 5.84441E-09 1.04410E-08
 -1       191-3.28683E+01 3.53269E+05 9.63758E+00 3.66533E-01-3.26321E-10-2.27265E-08
 -1       192-3.18836E+01 3.53245E+05 1.93235E+01-2.48753E+00-5.27298E-10-4.47108E-08
 -1       193-3.51249E+01 3.53268E+05 3.47324E+01 2.16948E+00-7.50511E-10-2.29156E-08
 -1       194-3.46213E+01 3.53248E+05 7.32349E+01-5.71331E+00-2.77050E-10-1.00235E-08
 -1       195-3.94589E+01 3.53266E+05 1.42041E+02 3.65066E+00-9.10589E-10-9.62427E-09
 -1       251-2.02063E+06-3.21561E+04-1.88477E+05-1.31671E+05-2.64845E-09-4.93892E-08
 -1       252-1.11725E+06 4.05190E+04 4.99431E+04 4.06108E+05 2.84667E-08-1.33246E-07
 -1       253-1.62331E+06-1.41530E+04-3.29148E+04-2.70906E+05-2.89929E-08 8.74397E-08
 -1       254-1.54145E+06 5.85754E+04 8.58424E+03 5.38684E+05 1.12817E-08-1.05110E-07
 -1       255-1.63840E+06-1.59806E+04-1.88627E+04-2.67936E+05 2.32012E-09 9.03542E-08
 -1       256-1.07988E+06 4.74609E+04 1.02443E+05 3.93566E+05 7.56700E-09 2.17652E-07
 -1       257-2.03970E+06-3.98355E+04-1.01421E+05-1.21943E+05-6.93399E-09 7.73937E-08
 -1       258-6.27339E+05 3.58197E+04 1.88183E+05 5.15038E+03 1.56933E-08-8.08709E-08
 -1       259-2.04645E+06-4.05027E+04-1.01200E+05 1.18126E+05-5.88570E-08-5.93312E-08
 -1       260-1.06373E+06 4.90118E+04 1.10180E+05-3.86488E+05 4.68981E-08-1.29603E-09
 -1       261-1.64625E+06-1.81134E+04-1.17013E+04 2.67168E+05 5.68107E-08-1.33951E-08
 -1       262-1.53603E+06 6.94517E+04 3.05488E+04-5.37300E+05-4.48187E-08-9.50413E-08
 -1       263-1.62078E+06-2.29333E+04 3.53687E+03 2.72894E+05 2.67755E-09 1.08954E-07
 -1       264-1.10254E+06 1.08340E+05 1.42438E+05-4.12237E+05 1.17418E-07-7.32862E-08
 -1       265-2.03936E+06-8.97100E+04-5.13060E+04 1.38479E+05 4.76066E-08-1.76224E-08
 -1       266-2.44577E+04-1.14365E+04 5.73848E+04-4.56452E+01 2.18279E-11-1.97461E-08
 -1       267 2.83533E+04 1.33294E+04 4.05587E+04 5.26653E+01 2.45564E-10-5.04250E-08
 -1       268-3.80212E+03-1.88781E+03 1.50755E+04-6.71049E+00-1.70985E-10-1.04427E-07
 -1       269 4.48920E+03 2.25932E+03 9.79883E+03 7.81671E+00-1.43586E-10-9.08781E-08
 -1       270-6.73829E+02-3.71219E+02 4.73004E+03-1.06078E+00-1.64050E-10 1.68858E-07
 -1       271-2.22359E+06-2.69205E+05-1.65889E+05-8.53460E+05-1.60071E-08 2.23357E-07
 -1       272-2.33357E+06-3.40921E+05-1.06812E+05-7.96100E+05-8.76753E-10 1.07952E-07
 -1       273-2.25358E+06-3.11937E+05-3.91451E+04-8.47453E+05 4.18049E-09-8.30350E-08
 -1       274-2.29810E+06-2.88737E+05-2.19697E+04-8.05389E+05-2.52932E-08 7.36309E-08
 -1       275-2.25801E+06-3.16227E+05-9.12054E+03-8.45991E+05 2.51575E-08-3.01616E-08
 -1       276-2.29144E+06-2.84762E+05-4.79258E+03-8.08328E+05 4.07454E-10-1.59497E-07
 -1       277-2.25977E+06-3.15613E+05-2.39894E+03-8.44437E+05 4.11183E-09 7.40201E-08
 -1       278-2.28743E+06-2.87249E+05-1.51837E+03-8.11595E+05 2.47801E-08 9.56338E-08
 -1       279-2.26152E+06-3.14001E+05-1.70750E+03-8.42390E+05 2.09002E-09-6.92266E-08
 -1       280-2.28328E+06-2.91518E+05-2.62653E+03-8.15726E+05 2.03690E-08-1.06123E-07
 -1       281-2.26341E+06-3.11691E+05-5.09888E+03-8.39935E+05-5.77347E-09 9.01036E-09
 -1       282-2.28053E+06-2.99374E+05-1.15460E+04-8.20302E+05 1.70257E-09 1.47181E-07
 -1       283-2.26387E+06-3.06716E+05-2.09959E+04-8.37402E+05-1.42227E-08 6.23779E-08
 -1       284-2.29321E+06-3.32691E+05-5.63790E+04-8.21772E+05-7.24503E-09-1.57226E-07
 -1       285-2.25086E+06-2.81384E+05-8.81382E+04-8.37256E+05-2.04600E-08-8.29423E-08
 -1       301 1.38836E+04-4.33232E+05 1.75567E+05-7.64045E+05 1.23691E-10 5.41404E-08
 -1       302 1.84055E+04-3.88144E+05 1.08481E+05-1.13378E+06 9.24047E-10 8.79681E-08
 -1       303-4.36897E+03-4.18181E+05 6.85341E+04-7.62136E+05-7.49424E-10 5.22050E-08
 -1       304 7.82632E+03-3.91006E+05 8.18502E+04-1.13309E+06 1.70257E-09 6.30280E-08
 -1       305 1.71012E+03-4.19840E+05 1.16181E+05-7.64615E+05-2.54295E-09-1.03202E-07
 -1       306-2.18054E+07-4.23337E+06-5.68224E+06-1.60884E+06-8.14907E-08-6.79574E-08
 -1       307 1.60799E+07 4.38514E+05 3.57367E+06-9.98690E+06-7.18996E-07 1.76224E-07
 -1       308-8.11144E+06-2.11062E+05-4.86364E+05 3.38523E+06-1.63593E-07 3.11542E-07
 -1       309-3.34589E+06 3.04972E+06 1.22368E+06-1.56457E+07 1.03028E-07 1.18482E-07
 -1       310-9.91812E+06-4.85082E+05-9.17529E+05 3.18625E+06 1.93832E-08-1.70505E-07
 -1       311 2.02249E+07-7.99709E+05 4.27764E+06-7.49769E+06 5.18514E-07-6.54982E-08
 -1       312-2.22912E+07-4.22139E+06-5.18438E+06-3.18559E+06 2.10013E-07-3.34985E-08
 -1       313 2.86904E+07 6.84214E+06 6.78110E+06 1.25769E+07 6.93253E-08 1.73459E-07
 -1       314-1.47697E+07-1.04653E+07-4.84086E+06-8.99505E+06 1.61410E-07-6.88015E-08
 -1       315-1.28437E+06 1.73130E+07 3.75178E+06 8.63882E+06-3.58668E-07-1.12021E-07
 -1       316-9.67260E+05-7.59145E+06-4.38862E+05-4.13916E+06-8.28892E-07-3.30474E-07
 -1       317-1.58882E+07 1.55200E+07 1.19806E+06-3.07101E+06 5.10452E-07-4.36863E-07
 -1       318-1.86386E+06-8.23333E+06-9.84524E+05-4.58216E+06-6.58649E-07 5.59376E-08
 -1       319 1.86958E+06 1.79781E+07 4.01790E+06 9.96861E+06-7.00456E-08 1.27679E-07
 -1       320-1.64867E+07-1.08297E+07-6.16748E+06-8.84953E+06 1.51922E-07-3.62634E-08
 -1       336-6.82228E+01-1.70630E+06-1.27464E+04 7.55054E+03-2.18679E-08-1.66983E-09
 -1       337-4.88003E+03-1.70705E+06-1.63794E+04-1.82677E+04-4.11103E-08 8.52015E-09
 -1       338 6.09629E+02-1.70595E+06-2.49562E+04 1.05676E+04-2.86273E-08 2.40725E-08
 -1       339-2.65174E+04-1.72172E+06-5.64646E+04-2.41530E+04-5.22123E-08-1.84264E-09
 -1       340 1.77277E+04-1.69318E+06-8.86041E+04 1.33412E+04-3.51065E-08 2.34686E-08
 -1       406-5.91119E+00 3.53253E+05 5.84164E+02 1.57860E+00-1.25106E-09-2.80852E-09
 -1       407 1.76910E+02 3.53366E+05 1.24425E+03 1.59019E+01-3.86546E-10-2.22644E-09
 -1       408 6.12303E+02 3.53163E+05 2.48337E+03-1.78754E+01-1.51658E-09-5.25324E-09
 -1       409 2.66166E+03 3.54159E+05 5.59328E+03 1.85299E+02-1.60185E-10 3.17959E-09
 -1       410 7.69629E+03 3.52453E+05 1.14173E+04-1.77313E+02-1.86355E-09 9.77707E-10
 -1       521-2.36334E+07-5.23272E+06-6.74435E+06-1.43704E+06-8.16071E-08-5.64614E-08
 -1       522 1.68876E+07 7.29752E+05 3.68152E+06-1.26095E+07-5.07949E-07-4.07454E-10
 -1       523-9.13031E+06-4.24355E+05-5.26886E+05 3.82783E+06 1.14378E-08-1.62829E-07
 -1       524-5.85562E+06 4.79298E+06 1.35825E+06-1.85232E+07 9.33243E-07-3.83414E-07
 -1       525-1.11145E+07-8.24654E+05-1.03088E+06 3.61026E+06 5.53555E-07-3.06987E-07
 -1       526 2.21746E+07-8.89168E+05 4.58529E+06-9.65504E+06 8.31205E-08 1.22585E-07
 -1       527-2.42542E+07-5.36003E+06-6.05234E+06-3.18665E+06 2.07685E-07 2.25991E-07
 -1       528 3.18700E+07 7.51873E+06 7.20444E+06 1.44101E+07 8.09086E-08-1.37210E-07
 -1       529-1.60092E+07-1.21771E+07-5.63719E+06-9.45842E+06-1.88651E-07 1.52679E-07
 -1       530-3.16321E+06 2.06227E+07 4.04019E+06 9.02679E+06-3.11004E-07 3.65777E-07
 -1       531-1.15613E+06-8.78452E+06-4.63712E+05-4.51915E+06-6.03730E-07 1.18278E-07
 -1       532-1.90978E+07 1.79501E+07 1.35488E+06-5.49216E+06 2.63026E-07-4.42677E-07
 -1       533-2.04120E+06-9.43352E+06-1.05127E+06-4.91506E+06-1.90950E-07-7.66740E-07
 -1       534 1.46472E+05 2.13530E+07 4.27473E+06 1.05568E+07-9.12114E-08 5.78584E-07
 -1       535-1.77936E+07-1.26339E+07-7.12013E+06-9.28836E+06 4.31901E-08 3.65340E-07
 -1       536-6.20190E+05-4.19142E+04-1.63088E+04-4.31254E+04-7.83393E-09 6.61930E-08
 -1       537-1.38731E+05 4.15509E+04 7.41504E+04 1.01264E+05-9.34518E-08 1.01501E-07
 -1       538-3.90243E+05 1.28852E+03 7.47395E+03-6.05363E+04 2.91412E-08 1.04168E-07
 -1       539-2.98848E+05 3.07824E+03 2.08767E+04 1.15149E+05 1.52371E-07 9.40277E-08
 -1       540-4.63987E+05-2.15261E+02-1.40841E+04-5.73370E+04 1.20713E-08 9.59134E-08
 -1       541 4.55424E+03 1.24082E+04 7.81703E+04 7.86194E+04-7.17500E-09 7.57268E-08
 -1       542-6.85496E+05-1.48040E+04-6.13063E+04-2.34722E+04 1.73081E-08 4.87628E-08
 -1       543 1.92755E+05 2.00007E+04 1.15152E+05-1.14433E+04-3.32329E-08-2.17626E-08
 -1       544-6.47165E+05-1.19514E+04-5.44134E+04 3.23094E+04 4.41059E-09-4.94465E-08
 -1       545-8.43106E+04 6.51302E+03 5.71394E+04-9.29817E+04-2.21255E-08-7.11452E-08
 -1       546-4.15830E+05 4.78839E+03-9.25460E+03 5.78609E+04 1.24644E-08-8.01081E-08
 -1       547-3.13354E+05-4.63474E+03 5.55779E+03-1.17710E+05-9.79549E-08-7.78610E-08
 -1       548-4.24235E+05 4.27400E+03-2.04280E+04 5.74622E+04-9.46029E-08-7.11743E-08
 -1       549-6.78391E+04 5.98183E+03 3.64498E+04-9.03391E+04-6.78606E-08-7.10429E-08
 -1       550-6.54754E+05-1.13022E+04-1.05693E+05 3.00445E+04 2.77169E-09-4.13311E-08
 -1       551 3.42005E+04-7.51962E+05 5.62375E+02-1.17423E+06-8.95598E-08-2.08092E-09
 -1       552 7.71612E+04-7.85796E+05 1.91420E+04-1.67432E+06-6.21512E-08 1.15542E-08
 -1       553 5.83232E+04-7.85641E+05 3.81660E+04-1.16854E+06-1.03319E-07 1.24273E-08
 -1       554 1.11957E+05-7.95392E+05 8.81494E+04-1.67626E+06-6.35700E-08 2.05309E-08
 -1       555 8.77945E+04-8.07704E+05 1.58775E+05-1.16873E+06-1.02722E-07-9.47693E-09
 -1       556 1.87197E+05-3.28083E+05 4.56602E+04-3.65961E+05-1.87720E-08-3.92902E-09
 -1       557 3.04412E+05-4.21989E+05 2.57553E+04-4.69697E+05-1.30967E-10 1.42136E-08
 -1       558 1.74700E+05-3.26922E+05 7.59605E+03-3.65697E+05-1.17579E-08 3.60160E-09
 -1       559 2.82803E+05-4.25737E+05 4.70762E+03-4.85393E+05 9.44419E-09-1.87138E-08
 -1       560 1.63336E+05-3.19750E+05 2.74734E+02-3.73747E+05 8.64384E-09 1.17761E-08
 -1       561 2.68245E+05-4.20115E+05 7.72834E+02-4.95184E+05 4.13274E-09-1.23327E-09
 -1       562 1.54367E+05-3.14134E+05-6.06840E+02-3.80212E+05 2.83762E-09-3.29237E-09
 -1       563 2.57630E+05-4.15486E+05 1.52978E+02-5.02083E+05-2.91766E-09 1.59994E-08
 -1       564 1.48075E+05-3.10200E+05-3.13037E+02-3.84662E+05 6.38829E-09-6.31235E-09
 -1       565 2.50780E+05-4.12505E+05 7.60133E+01-5.06450E+05 1.62909E-08 1.76096E-08
 -1       566 1.44555E+05-3.07968E+05-1.42614E+02-3.87126E+05-1.33878E-09-1.08703E-08
 -1       567 2.47709E+05-4.11166E+05-2.55767E+02-5.08285E+05 1.89684E-08-1.13869E-09
 -1       568 1.43878E+05-3.07561E+05-8.51524E+02-3.87695E+05 5.11318E-09 1.02409E-08
 -1       569 2.47198E+05-4.11138E+05-2.15081E+03-5.06664E+05-3.21688E-09 1.66983E-08
 -1       570 1.47010E+05-3.10410E+05-4.75933E+03-3.86862E+05 4.03088E-09 1.27811E-08
 -1       571 2.66520E+05 9.67359E+03 1.39716E+04-8.17367E+04 3.71892E-09 1.30331E-08
 -1       572 2.68562E+05 3.55602E+03 6.84655E+03-8.96705E+04 4.57294E-09 9.18226E-09
 -1       573 2.67334E+05 1.03665E+03 3.04202E+03-8.15769E+04-5.26370E-09 4.33192E-09
 -1       574 2.67549E+05 5.38847E+02 1.52515E+03-8.98674E+04-1.58361E-08-4.52656E-09
 -1       575 2.67424E+05 2.91915E+02 7.19658E+02-8.15552E+04-1.11585E-08 6.94945E-09
 -1       576 2.67420E+05 2.90492E+02 3.68060E+02-8.98937E+04-8.27868E-09 8.36826E-09
 -1       577 2.67454E+05 2.41730E+02 1.83524E+02-8.15522E+04-5.33691E-09 9.52241E-09
 -1       578 2.67436E+05 2.61774E+02 1.05255E+02-8.98972E+04-5.15865E-09 1.79352E-09
 -1       579 2.67506E+05 2.16893E+02 7.18697E+01-8.15520E+04 4.47471E-09-1.11313E-08
 -1       580 2.67509E+05 2.26353E+02 8.18144E+01-8.98929E+04-7.68614E-09-1.01090E-08
 -1       581 2.67588E+05 1.76652E+02 1.23642E+02-8.15570E+04 5.98993E-09-6.08088E-09
 -1       582 2.67639E+05 2.07238E+02 2.49500E+02-8.98400E+04 1.50885E-09-9.42964E-09
 -1       583 2.67686E+05 2.30226E+02 4.80713E+02-8.16051E+04 6.12999E-10-2.61457E-09
 -1       584 2.67941E+05 6.18954E+02 1.08551E+03-8.94349E+04 5.50790E-09-8.87349E-09
 -1       585 2.67680E+05 1.54736E+03 2.20100E+03-8.19618E+04-1.71713E-09-7.88714E-09
 -1       586-3.19382E+03 1.00855E+05-3.12500E+03-2.32831E+05-5.50790E-09 1.86628E-09
 -1       587-1.07607E+03 1.00540E+05 4.54375E+02-2.56259E+05-7.31234E-09-1.37061E-08
 -1       588 5.55692E+02 1.00437E+05 4.18831E+03-2.32710E+05-5.46970E-09-3.62706E-09
 -1       589 4.82495E+03 1.02638E+05 1.10876E+04-2.56022E+05-5.97720E-09 3.57886E-09
 -1       590 1.52110E+04 9.92281E+04 2.33467E+04-2.33109E+05-3.30147E-09 2.29375E-08
 -1       591-6.40725E+04-1.44097E+04-2.00145E+04-2.82031E+04-7.66750E-09-1.46865E-08
 -1       592-6.74546E+04-1.78207E+04-1.08413E+04-3.17089E+04-1.02292E-08-2.17301E-08
 -1       593-6.60762E+04-1.29553E+04-4.51280E+03-2.96687E+04-3.17834E-09-1.17132E-08
 -1       594-6.46877E+04-1.48875E+04-2.25068E+03-3.18180E+04-1.73522E-09 5.44833E-09
 -1       595-6.62290E+04-1.29503E+04-1.03345E+03-2.97354E+04-2.36503E-09 1.81974E-08
 -1       596-6.44985E+04-1.47534E+04-5.25456E+02-3.17959E+04 4.18247E-09 1.35506E-09
 -1       597-6.62482E+04-1.29639E+04-2.86324E+02-2.97379E+04-2.27618E-09 4.28656E-10
 -1       598-6.44799E+04-1.47481E+04-2.30537E+02-3.17897E+04-6.93649E-09 7.89970E-09
 -1       599-6.62470E+04-1.29643E+04-2.94938E+02-2.97375E+04-3.73325E-09-7.60224E-10
 -1       600-6.44988E+04-1.47541E+04-5.48264E+02-3.17942E+04 3.02788E-09-2.05560E-08
 -1       601-6.62247E+04-1.29512E+04-1.08179E+03-2.97343E+04-4.90445E-10-8.91214E-09
 -1       602-6.46967E+04-1.48937E+04-2.35775E+03-3.18140E+04-2.71211E-09-1.33787E-09
 -1       603-6.60621E+04-1.29591E+04-4.72831E+03-2.96651E+04 2.90947E-09 2.12131E-08
 -1       604-6.76113E+04-1.79495E+04-1.13584E+04-3.16775E+04 3.94778E-10-3.12502E-09
 -1       605-6.39447E+04-1.44988E+04-2.09692E+04-2.81468E+04 2.73951E-09 1.23409E-08
 -1       606 2.69642E+04-1.30227E+04-2.33628E+04 2.48824E+04 3.28600E-09 5.92672E-09
 -1       607 2.29706E+04-4.24394E+03-1.16343E+04 2.79518E+04-9.52241E-10-1.23678E-08
 -1       608 2.52438E+04-7.56972E+02-5.20872E+03 2.46988E+04 4.27463E-10-1.39221E-08
 -1       609 2.48044E+04-2.48318E+02-2.63116E+03 2.81726E+04 2.17278E-09 9.60608E-09
 -1       610 2.50456E+04-2.40044E+01-1.25570E+03 2.46775E+04 1.59616E-09-2.03067E-09
 -1       611 2.49735E+04-2.04365E+01-6.33105E+02 2.81965E+04 2.84490E-09-1.40762E-08
 -1       612 2.49994E+04-9.43201E+00-3.01337E+02 2.46754E+04 1.89266E-09 2.80943E-09
 -1       613 2.49805E+04-1.47649E+01-1.35322E+02 2.81993E+04 7.63976E-10 1.16263E-08
 -1       614 2.49765E+04-1.35529E+01-3.26219E+01 2.46747E+04-6.41194E-10 1.41856E-08
 -1       615 2.49730E+04-1.18890E+01 5.47083E+01 2.81998E+04-8.90850E-10 2.74431E-08
 -1       616 2.49588E+04-9.45873E+00 1.65876E+02 2.46749E+04-8.52197E-10 2.21121E-09
 -1       617 2.49909E+04 2.47076E+01 3.79248E+02 2.81993E+04-3.61524E-11 1.30356E-08
 -1       618 2.49243E+04 1.00829E+02 7.64678E+02 2.46752E+04-1.60753E-09 3.05954E-09
 -1       619 2.52596E+04 6.16741E+02 1.71734E+03 2.81986E+04-1.53887E-09-7.82529E-09
 -1       620 2.46696E+04 1.91479E+03 3.45183E+03 2.46756E+04 3.48064E-09-6.76255E-09
 -1       621 4.07061E+02 2.74879E+05 3.33780E+03 3.16556E+04 6.30735E-10 1.51340E-09
 -1       622 5.24583E+02 2.75668E+05 3.01029E+03 4.59869E+04 7.89441E-10 2.27501E-08
 -1       623 8.34569E+01 2.75055E+05 3.68288E+03 3.15102E+04 9.04265E-10 7.59337E-09
 -1       624 1.83513E+03 2.76804E+05 7.19147E+03 4.61314E+04 9.57698E-10-2.04402E-08
 -1       625 1.81404E+03 2.73633E+05 1.25924E+04 3.15073E+04 9.26775E-10-3.09160E-09
 -1       626 2.39773E+05 5.84949E+04 4.89144E+03 1.19044E+05 2.98542E-09 1.81899E-09
 -1       627 2.37439E+05 5.99497E+04 2.35713E+03 1.23259E+05 2.78806E-09-4.24393E-09
 -1       628 2.39903E+05 5.62465E+04 9.96604E+02 1.19863E+05 5.90990E-09 6.44627E-09
 -1       629 2.36816E+05 5.93138E+04 4.87821E+02 1.23500E+05 2.49202E-09 2.99049E-09
 -1       630 2.39915E+05 5.61386E+04 2.26046E+02 1.19895E+05 4.70936E-09 5.04559E-09
 -1       631 2.36749E+05 5.92912E+04 1.21353E+02 1.23502E+05 1.07923E-08 1.59265E-08
 -1       632 2.39910E+05 5.61435E+04 7.93526E+01 1.19890E+05 1.15856E-08-7.90158E-09
 -1       633 2.36738E+05 5.92941E+04 8.76086E+01 1.23497E+05 2.05765E-08-1.39134E-08
 -1       634 2.39904E+05 5.61419E+04 1.40879E+02 1.19888E+05 1.43293E-08-1.63914E-09
 -1       635 2.36750E+05 5.92933E+04 2.84658E+02 1.23501E+05 5.46794E-09-1.70530E-10
 -1       636 2.39894E+05 5.61375E+04 5.74650E+02 1.19887E+05 1.60769E-08-7.05404E-09
 -1       637 2.36873E+05 5.93830E+04 1.26323E+03 1.23499E+05 2.28356E-08-1.30008E-08
 -1       638 2.39848E+05 5.64170E+04 2.59554E+03 1.19760E+05 1.77079E-08-3.73575E-09
 -1       639 2.38236E+05 6.12790E+04 6.14090E+03 1.23097E+05 1.03819E-08 2.33949E-08
 -1       640 2.39662E+05 6.20768E+04 1.27435E+04 1.17371E+05 4.01451E-09 6.66137E-09
 -1       656 6.17943E+04-1.57808E+06-1.49170E+05-1.75532E+03-1.09139E-10-4.09844E-09
 -1       657-8.17320E+04-1.64547E+06-1.23541E+05 6.08469E+03 8.64020E-11 1.46099E-09
 -1       658 1.96821E+04-1.59723E+06-7.60406E+04-3.60674E+03 2.20325E-10-1.62272E-08
 -1       659-8.82560E+04-1.64856E+06-1.32113E+05 7.55512E+03-1.36060E-09-2.51617E-10
 -1       660 6.83035E+04-1.57499E+06-1.63908E+05-3.22574E+03-1.25146E-09 1.89939E-09
 -1       661 1.61388E+05 1.70767E+04 1.66113E+04 6.30973E+04-1.31195E-09 1.70967E-08
 -1       662 1.70614E+05 2.95413E+04 1.11945E+04 5.95599E+04 1.52369E-09-6.81666E-09
 -1       663 1.64650E+05 2.24066E+04 3.91533E+03 6.21514E+04-1.93734E-09-1.59775E-09
 -1       664 1.66833E+05 2.33072E+04 2.34185E+03 6.07144E+04-1.20809E-09 8.03658E-09
 -1       665 1.65144E+05 2.31357E+04 9.23849E+02 6.20084E+04-6.71491E-10-1.10347E-09
 -1       666 1.66250E+05 2.24726E+04 5.40293E+02 6.09003E+04 3.20972E-09-1.62278E-08
 -1       667 1.65229E+05 2.32194E+04 2.86638E+02 6.19734E+04 7.90692E-11 1.30830E-08
 -1       668 1.66156E+05 2.24112E+04 2.91258E+02 6.09513E+04-3.52112E-09 1.80934E-08
 -1       669 1.65237E+05 2.31952E+04 3.93669E+02 6.19579E+04-3.24121E-10 2.32398E-08
 -1       670 1.66252E+05 2.26241E+04 8.56604E+02 6.09537E+04-4.50232E-09-9.57725E-09
 -1       671 1.65133E+05 2.30109E+04 1.52076E+03 6.19690E+04-9.60647E-10-8.11502E-09
 -1       672 1.67138E+05 2.41036E+04 3.89066E+03 6.07391E+04 5.11612E-09 3.78384E-09
 -1       673 1.64355E+05 2.17532E+04 6.52006E+03 6.21581E+04 3.15140E-10-1.00440E-08
 -1       674 1.73345E+05 3.45779E+04 1.86460E+04 5.89152E+04-2.38833E-09-5.38216E-09
 -1       675 1.58967E+05 1.28298E+04 2.76771E+04 6.36828E+04-1.77261E-09-5.16229E-09
 -1       676 2.28832E+01-2.79861E+05-1.06066E+03-7.89559E+01 9.99023E-11-1.21209E-08
 -1       677-2.81287E+02-2.80117E+05-1.94117E+03 1.57796E+02 5.72689E-09-8.37562E-09
 -1       678 1.88093E+02-2.79678E+05-3.43151E+03-7.87871E+01 8.16271E-10-1.02532E-08
 -1       679-3.43221E+03-2.82188E+05-8.15177E+03 1.57151E+02 5.00040E-09-2.97236E-09
 -1       680 2.04869E+03-2.77790E+05-1.31379E+04-7.74336E+01 8.77662E-10-1.07804E-08
 -1       771-2.92177E+06-6.71650E+05-1.29944E+05-1.36706E+06-2.35450E-08-1.10595E-08
 -1       772-2.85744E+06-7.48378E+05-6.72877E+04-1.45539E+06-2.16387E-08 1.11213E-08
 -1       773-2.94634E+06-6.52372E+05-3.36650E+04-1.37739E+06-1.31549E-08 1.07539E-08
 -1       774-2.84830E+06-7.34256E+05-1.51537E+04-1.47487E+06 2.04891E-08-1.26238E-09
 -1       775-2.95850E+06-6.43793E+05-1.09105E+04-1.38209E+06-9.42964E-09-2.83035E-09
 -1       776-2.85659E+06-7.32407E+05-4.14934E+03-1.48920E+06-6.47560E-09 6.89033E-09
 -1       777-2.96888E+06-6.36252E+05-4.66893E+03-1.38623E+06 1.01572E-08 7.61793E-09
 -1       778-2.86535E+06-7.30751E+05-1.34368E+03-1.50145E+06-5.09317E-11 7.38146E-09
 -1       779-2.97774E+06-6.29716E+05-2.28601E+03-1.38977E+06-1.00408E-09-6.74845E-09
 -1       780-2.87304E+06-7.29165E+05-3.83662E+02-1.51141E+06-6.51926E-09 2.18279E-11
 -1       781-2.98473E+06-6.24476E+05-8.73724E+02-1.39255E+06-2.63681E-08-6.53017E-10
 -1       782-2.87895E+06-7.27803E+05 3.25814E+02-1.51875E+06-2.74595E-08-5.16047E-09
 -1       783-2.98963E+06-6.20857E+05 5.15812E+02-1.39449E+06-4.64206E-09-6.25550E-09
 -1       784-2.88217E+06-7.26338E+05 2.09446E+03-1.52327E+06-2.59315E-08-3.82897E-10
 -1       785-2.99253E+06-6.18706E+05 3.70075E+03-1.39575E+06-3.54812E-08 8.40191E-09
 -1       786 1.23992E+05-9.46664E+03 2.19013E+04-2.46599E+02 1.48501E-09 1.89339E-08
 -1       787 1.33490E+05 1.09598E+04 1.54944E+04-7.20887E+01 2.81839E-09 6.43536E-09
 -1       788 1.27654E+05-1.48366E+03 5.66660E+03-2.15051E+02 4.75172E-10 8.83733E-09
 -1       789 1.29223E+05 1.71689E+03 3.55767E+03-1.21328E+02-8.53000E-10 1.29989E-08
 -1       790 1.28259E+05-2.31238E+02 1.44128E+03-1.97372E+02-3.12325E-09 1.71200E-08
 -1       791 1.28516E+05 2.67330E+02 8.34099E+02-1.51759E+02-5.06561E-09 1.12415E-08
 -1       792 1.28361E+05-3.51904E+01 3.56747E+02-1.84621E+02-2.78480E-09 7.73063E-09
 -1       793 1.28395E+05 3.83851E+01 1.85069E+02-1.75755E+02-2.36202E-11 1.72335E-08
 -1       794 1.28380E+05-2.43805E+00 6.26056E+01-1.73376E+02 3.40488E-09 4.42383E-09
 -1       795 1.28365E+05-1.44182E+01-1.70777E+01-1.99186E+02-3.66701E-09 7.93523E-09
 -1       796 1.28391E+05 1.75843E+01-9.06841E+01-1.61189E+02 3.51069E-09-1.17281E-09
 -1       797 1.28306E+05-1.33614E+02-2.67655E+02-2.27087E+02 2.16321E-09-2.37418E-09
 -1       798 1.28439E+05 1.16667E+02-4.39846E+02-1.45475E+02 1.68186E-09 9.46926E-10
 -1       799 1.27970E+05-8.60621E+02-1.21459E+03-2.65599E+02 3.84120E-09-8.34756E-09
 -1       800 1.28727E+05 7.43993E+02-1.72016E+03-1.22678E+02 7.23246E-10 2.96382E-10
 -1       801-5.89201E+04-7.82229E+06-1.02912E+06 9.12843E+05 7.47386E-08-4.11055E-08
 -1       802 4.09110E+05 2.56089E+06 1.33062E+06-1.07724E+06 2.09104E-07-3.58204E-08
 -1       803-3.38178E+05-1.04050E+07-1.23258E+06 5.86442E+05 6.51999E-08 1.63327E-08
 -1       804 1.56761E+05 1.25539E+05 9.37212E+05 5.05304E+05-9.10550E-08-7.66199E-08
 -1       805 1.42983E+05-5.40182E+06-1.91232E+05-6.66092E+05-3.73693E-08-4.98567E-08
 -1       806-2.86680E+05-5.49493E+04-2.10579E+04-1.13002E+05-1.01459E-08-9.81390E-09
 -1       807-2.88420E+05-5.14280E+04-1.03455E+04-1.18012E+05 6.70798E-09 1.92504E-08
 -1       808-2.87251E+05-4.73673E+04-4.38895E+03-1.16599E+05-2.24736E-09 1.08251E-08
 -1       809-2.86249E+05-4.85178E+04-2.14611E+03-1.18262E+05-6.53699E-09 1.79261E-09
 -1       810-2.87338E+05-4.71032E+04-9.83642E+02-1.16758E+05 8.63747E-09-5.31350E-09
 -1       811-2.86081E+05-4.84004E+04-4.89155E+02-1.18230E+05 2.77919E-09-4.34625E-10
 -1       812-2.87352E+05-4.71256E+04-2.47328E+02-1.16758E+05-4.19641E-09 4.98358E-09
 -1       813-2.86059E+05-4.84021E+04-1.60702E+02-1.18213E+05-7.66249E-09 1.34423E-09
 -1       814-2.87346E+05-4.71340E+04-1.59105E+02-1.16754E+05-5.88807E-09-9.01127E-09
 -1       815-2.86063E+05-4.84039E+04-2.56390E+02-1.18208E+05 5.21504E-09 1.81062E-08
 -1       816-2.87328E+05-4.71325E+04-4.85792E+02-1.16752E+05 4.92946E-09 2.97946E-08
 -1       817-2.86147E+05-4.84499E+04-1.04283E+03-1.18198E+05-1.15087E-08 2.01580E-08
 -1       818-2.87267E+05-4.72787E+04-2.12684E+03-1.16683E+05-2.39925E-09-1.43964E-08
 -1       819-2.87311E+05-4.97358E+04-5.00474E+03-1.17925E+05 4.30009E-09-1.05738E-08
 -1       820-2.86869E+05-5.10561E+04-1.01862E+04-1.15065E+05-1.08230E-10 2.17278E-09
 -1       821-3.53810E+05 1.95056E+04-4.51542E+04 1.14176E+03 8.60041E-09 1.00663E-08
 -1       822-3.73205E+05-2.25825E+04-3.19232E+04-2.12544E+03 1.21977E-09-2.49402E-08
 -1       823-3.61261E+05 3.06107E+03-1.16882E+04 1.52355E+03-6.22371E-09-3.00429E-08
 -1       824-3.64430E+05-3.53871E+03-7.34574E+03-2.18946E+03 8.55756E-10 1.08002E-10
 -1       825-3.62582E+05 4.76610E+02-3.03616E+03 1.20580E+03 8.40741E-09 5.83771E-09
 -1       826-3.62793E+05-5.56141E+02-1.77984E+03-1.02083E+03 1.04042E-08-6.01028E-09
 -1       827-3.62892E+05 7.66534E+01-9.81042E+02 3.54888E+02 4.78408E-09-9.95061E-09
 -1       828-3.62540E+05-1.64463E+02-7.82858E+02 7.72146E+02 1.95136E-10-5.72717E-09
 -1       829-3.62833E+05 8.41437E+01-9.91155E+02-5.87196E+02 8.52424E-10 6.17368E-09
 -1       830-3.62931E+05-5.86700E+02-1.87010E+03 2.25566E+03 1.51053E-09 2.08709E-09
 -1       831-3.62506E+05 5.02410E+02-3.13677E+03-1.12865E+03-3.71251E-09 4.40309E-10
 -1       832-3.64518E+05-3.68314E+03-7.63708E+03 2.65539E+03-1.48466E-09 5.29485E-09
 -1       833-3.61250E+05 3.18011E+03-1.21548E+04-9.86935E+02-2.66235E-09 7.37691E-09
 -1       834-3.73488E+05-2.34648E+04-3.31489E+04 1.74703E+03-2.29442E-09 1.20599E-08
 -1       835-3.53534E+05 2.02656E+04-4.69392E+04-2.20264E+02 5.21062E-09 9.90440E-09
 -1       836-1.27178E+03 3.38816E+05 2.08498E+04-1.61035E+04-4.69299E-09-7.47195E-09
 -1       837 4.47445E+03 3.45333E+05 1.77059E+04-3.26912E+04-4.89297E-09 1.19064E-08
 -1       838-4.98395E+02 3.40635E+05 1.81287E+04-1.60348E+04-4.06499E-09-6.69252E-09
 -1       839 1.14737E+04 3.50547E+05 3.43813E+04-3.27389E+04-4.01860E-09-5.64756E-09
 -1       840-3.52669E+03 3.33549E+05 5.48634E+04-1.60589E+04-3.79077E-09-5.91010E-09
 -1       856-6.01919E+04 7.85760E+03-2.07067E+04-4.00343E+02 1.75493E-09-2.09911E-09
 -1       857-6.87295E+04-9.22713E+03-1.42547E+04 5.32719E+03 4.89317E-09-6.80643E-09
 -1       858-6.35704E+04 1.10165E+03-5.37314E+03-4.23703E+02-5.58998E-10 9.64064E-11
 -1       859-6.48516E+04-1.29107E+03-3.24308E+03 5.36267E+03-2.65693E-09-3.09723E-09
 -1       860-6.40753E+04 1.53958E+02-1.36019E+03-4.35675E+02 7.52124E-10 4.45726E-09
 -1       861-6.42706E+04-1.79159E+02-7.50413E+02 5.37903E+03-1.43524E-09 3.77281E-09
 -1       862-6.41542E+04 2.06729E+01-3.16237E+02-4.40055E+02 1.69632E-09 1.25990E-08
 -1       863-6.41747E+04-1.77182E+01-1.24960E+02 5.38143E+03 2.05140E-09 2.31626E-09
 -1       864-6.41716E+04-3.84400E+00 2.42421E+01-4.38078E+02-1.15377E-09-1.29303E-09
 -1       865-6.41262E+04 5.22413E+01 2.01013E+02 5.37055E+03-1.00145E-09-1.90417E-08
 -1       866-6.42006E+04-4.94169E+01 4.16378E+02-4.29179E+02-1.75430E-09 4.54057E-09
 -1       867-6.39274E+04 4.09346E+02 1.03214E+03 5.34633E+03-5.16948E-09 2.53587E-08
 -1       868-6.43660E+04-3.54831E+02 1.71684E+03-4.13859E+02-1.15597E-09-1.96690E-09
 -1       869-6.26665E+04 2.95306E+03 4.57408E+03 5.30612E+03 1.59017E-09-1.36579E-08
 -1       870-6.54545E+04-2.52452E+03 6.63760E+03-3.88909E+02-3.87161E-09 7.26777E-09
 -1       871-5.19185E+03-1.75943E+04-1.78798E+04 1.19400E+05-2.55568E-09 2.09420E-08
 -1       872-1.98525E+03-2.17091E+04-7.44348E+03 1.54814E+05-6.23368E-09 1.10294E-08
 -1       873 2.46880E+02-1.97391E+04 6.49967E+02 1.19138E+05-3.22143E-09 2.10980E-09
 -1       874 2.92935E+03-1.74342E+04 9.22613E+03 1.54847E+05-6.49561E-09-8.10701E-09
 -1       875 6.29904E+03-2.19362E+04 2.07289E+04 1.19358E+05-2.97950E-09 2.31466E-09
 -1       876 2.74171E+05 4.64322E+04 1.41878E+04 1.10290E+05 9.70203E-10-1.16925E-08
 -1       877 2.75086E+05 4.94432E+04 7.57679E+03 1.14381E+05 7.92988E-09-1.89550E-09
 -1       878 2.75498E+05 4.48612E+04 3.17431E+03 1.11454E+05-2.22326E-09 6.17092E-10
 -1       879 2.73157E+05 4.75190E+04 1.58158E+03 1.14478E+05 4.91127E-10 1.75961E-08
 -1       880 2.75593E+05 4.48447E+04 7.36630E+02 1.11501E+05 5.15365E-09-6.92995E-09
 -1       881 2.73029E+05 4.74368E+04 3.93222E+02 1.14456E+05 9.44408E-09 1.18300E-09
 -1       882 2.75602E+05 4.48570E+04 2.51315E+02 1.11503E+05 1.33105E-09-1.52783E-08
 -1       883 2.73020E+05 4.74326E+04 2.69769E+02 1.14449E+05-1.26147E-09-3.89110E-09
 -1       884 2.75596E+05 4.48543E+04 4.28774E+02 1.11503E+05 1.47611E-09-2.39419E-09
 -1       885 2.73054E+05 4.74386E+04 8.61847E+02 1.14460E+05-8.14116E-09-6.60134E-09
 -1       886 2.75562E+05 4.48291E+04 1.73691E+03 1.11499E+05-7.05610E-09-7.34190E-09
 -1       887 2.73360E+05 4.76387E+04 3.79402E+03 1.14504E+05 3.23993E-09-4.74256E-09
 -1       888 2.75323E+05 4.48713E+04 7.64505E+03 1.11378E+05 3.32832E-09-1.15979E-08
 -1       889 2.77912E+05 5.23712E+04 1.82628E+04 1.14363E+05 9.25445E-09-1.72486E-08
 -1       890 2.72204E+05 4.85756E+04 3.42056E+04 1.08466E+05 4.42014E-09-1.40426E-08
 -1       891-1.07162E+02-1.52688E+05-1.86055E+03 2.62146E+04-9.61109E-10-3.82806E-09
 -1       892-1.99960E+02-1.53167E+05-2.00226E+03 3.97651E+04 1.86060E-09 1.32450E-08
 -1       893 1.67484E+01-1.52748E+05-2.83908E+03 2.62212E+04-1.82126E-10 7.27596E-09
 -1       894-1.44956E+03-1.54242E+05-5.87885E+03 3.96195E+04 2.56478E-09-1.80194E-08
 -1       895-1.14622E+03-1.51523E+05-1.03537E+04 2.63608E+04-2.39197E-10-4.96584E-10
 -1       956-3.50653E+05-5.01271E+03-1.24552E+04 2.71913E+04 5.47880E-09 1.56442E-08
 -1       957-3.53102E+05-1.74244E+03-6.39333E+03 3.27000E+04 1.11868E-09-5.53564E-09
 -1       958-3.51768E+05-1.92456E+02-2.88083E+03 2.70386E+04-1.62072E-09 1.28466E-09
 -1       959-3.51954E+05-9.08592E+01-1.47117E+03 3.28745E+04 7.95626E-09 6.77028E-09
 -1       960-3.51874E+05-1.29798E+01-7.17378E+02 2.70232E+04 1.07229E-08-3.00520E-09
 -1       961-3.51877E+05-2.49251E+01-3.80516E+02 3.28926E+04 9.91440E-09-1.93088E-08
 -1       962-3.51898E+05-1.53007E+01-2.17990E+02 2.70207E+04 1.87265E-09-1.14023E-08
 -1       963-3.51876E+05-2.17824E+01-1.75273E+02 3.28958E+04 3.18767E-09-1.06379E-08
 -1       964-3.51902E+05-1.24268E+01-2.13377E+02 2.70199E+04-1.30868E-09-7.47127E-09
 -1       965-3.51888E+05-1.88011E+01-3.69246E+02 3.28952E+04-5.46396E-09 6.29166E-09
 -1       966-3.51888E+05-4.43548E+00-6.93772E+02 2.70212E+04 9.90212E-10-1.03555E-08
 -1       967-3.51973E+05-7.66865E+01-1.42301E+03 3.28829E+04 4.61796E-10-7.33598E-09
 -1       968-3.51794E+05-1.72479E+02-2.78551E+03 2.70323E+04-7.32598E-10-4.91093E-09
 -1       969-3.53093E+05-1.66929E+03-6.18406E+03 3.27537E+04 4.61205E-09-5.12159E-11
 -1       970-3.50723E+05-4.83147E+03-1.20464E+04 2.71457E+04 2.33240E-09 1.53996E-08
 -1       971-3.23349E+05-1.63462E+03-8.88860E+03 1.46504E+04 3.43607E-09 5.15215E-09
 -1       972-3.25495E+05-1.19423E+03-4.84065E+03 2.03243E+04-2.18506E-09 2.98678E-09
 -1       973-3.24339E+05-4.48901E+01-2.16803E+03 1.45328E+04 1.61708E-09-1.06045E-08
 -1       974-3.24474E+05-5.75825E+01-1.12366E+03 2.04556E+04-3.10138E-10-3.27907E-09
 -1       975-3.24417E+05-2.31850E+00-5.61700E+02 1.45212E+04 3.83579E-09 8.93078E-09
 -1       976-3.24415E+05-1.02163E+01-3.24103E+02 2.04703E+04 1.32768E-08-1.94744E-08
 -1       977-3.24432E+05-1.81761E+00-2.35305E+02 1.45181E+04 3.46131E-09-1.41241E-08
 -1       978-3.24420E+05-4.43979E+00-2.75461E+02 2.04747E+04-1.89334E-09 8.31233E-09
 -1       979-3.24432E+05 6.03809E+00-4.42668E+02 1.45168E+04-1.03739E-09-8.81869E-10
 -1       980-3.24453E+05-1.59605E+00-8.54791E+02 2.04755E+04-1.15989E-09-2.44745E-09
 -1       981-3.24405E+05 2.73881E+01-1.65556E+03 1.45173E+04-4.25189E-10-8.51702E-09
 -1       982-3.24680E+05-1.23895E+02-3.42202E+03 2.04692E+04 2.54761E-09 1.55870E-08
 -1       983-3.24196E+05-7.85809E+01-6.64901E+03 1.45231E+04-3.20620E-09 5.96719E-09
 -1       984-3.27878E+05-3.59640E+03-1.48901E+04 2.03872E+04-1.08867E-09 3.39496E-08
 -1       985-3.21186E+05-4.94391E+03-2.73428E+04 1.45957E+04-2.51021E-10 1.09012E-08
 -3
    1PSTEP                        23          12           1          
  100CL  112 6.44531E-01         409                     0   12           1
 -4  DISP        4    1
 -5  D1          1    2    1    0
 -5  D2          1    2    2    0
 -5  D3          1    2    3    0
 -5  ALL         1    2    0    0    1ALL
 -1         1 2.12774E-03 0.00000E+00 0.00000E+00
 -1         2 1.86133E-03-6.13574E-28 0.00000E+00
 -1         3 3.16089E-04 1.39207E-27 0.00000E+00
 -1         5 1.67219E-04-2.19984E-26-1.03398E-25
 -1         8 2.11097E-03-5.09145E-07 0.00000E+00
 -1         9 2.06815E-03-9.90321E-06 0.00000E+00
 -1        10 2.86830E-04-3.51008E-06-6.61744E-24
 -1        12 1.68689E-04 7.72829E-07 5.16988E-26
 -1        15 2.09062E-03-5.57225E-07 0.00000E+00
 -1        16 2.09988E-03-1.11349E-05 0.00000E+00
 -1        17 1.96124E-04-7.86843E-06 0.00000E+00
 -1        18 1.71571E-04 2.91886E-05 0.00000E+00
 -1        19 1.73102E-04 1.54026E-06 0.00000E+00
 -1        20 1.73245E-04-5.73665E-06 0.00000E+00
 -1        21 1.72406E-04-1.66000E-05 0.00000E+00
 -1        24 2.95100E-05-1.17384E-05 0.00000E+00
 -1        25 1.80469E-04 2.94000E-05 0.00000E+00
 -1        26 1.81164E-04 2.13378E-06 0.00000E+00
 -1        27 1.79062E-04-9.15489E-06 0.00000E+00
 -1        28 1.78722E-04-1.72029E-05 0.00000E+00
 -1        32 0.00000E+00 0.00000E+00 0.00000E+00
 -1        33 1.88198E-04 2.85580E-06 0.00000E+00
 -1        34 1.86162E-04-9.20437E-06 0.00000E+00
 -1        35 1.84296E-04-1.75326E-05 0.00000E+00
 -1        51 2.12666E-03-9.73303E-08-6.61744E-24
 -1        52 2.12466E-03-1.79507E-07 0.00000E+00
 -1        53 2.12190E-03-2.59557E-07 0.00000E+00
 -1        54 2.11858E-03-3.39644E-07 0.00000E+00
 -1        55 2.11487E-03-4.21351E-07-1.65436E-24
 -1        56 2.12368E-03 7.44095E-07 5.29396E-23
 -1        57 2.11804E-03 5.26263E-06 0.00000E+00
 -1        58 2.11124E-03 1.28535E-05-1.05879E-22
 -1        59 2.10362E-03 2.25066E-05-5.29396E-23
 -1        60 2.09570E-03 3.29040E-05 0.00000E+00
 -1        61 2.08804E-03 4.26603E-05 0.00000E+00
 -1        62 2.08111E-03 5.04931E-05-1.05879E-22
 -1        63 2.07535E-03 5.52707E-05 0.00000E+00
 -1        64 2.07100E-03 5.63484E-05 1.05879E-22
 -1        65 2.06817E-03 5.33757E-05 0.00000E+00
 -1        66 2.06673E-03 4.66516E-05 1.05879E-22
 -1        67 2.06646E-03 3.67771E-05-5.29396E-23
 -1        68 2.06693E-03 2.48599E-05 1.05879E-22
 -1        69 2.06769E-03 1.21810E-05 0.00000E+00
 -1        70 2.06823E-03 1.30287E-07 0.00000E+00
 -1        86 1.87344E-03-1.06099E-06-2.64698E-23
 -1        87 1.90928E-03-2.66892E-06 0.00000E+00
 -1        88 1.95815E-03-4.78008E-06 0.00000E+00
 -1        89 2.00886E-03-6.97865E-06 0.00000E+00
 -1        90 2.04940E-03-8.75312E-06 0.00000E+00
 -1       121 3.15267E-04-5.70103E-07-1.32349E-23
 -1       122 3.12804E-04-1.14280E-06 0.00000E+00
 -1       123 3.08711E-04-1.72064E-06 0.00000E+00
 -1       124 3.03001E-04-2.30619E-06 0.00000E+00
 -1       125 2.95698E-04-2.90163E-06 1.32349E-23
 -1       191 1.67259E-04 1.28847E-07-1.75776E-24
 -1       192 1.67382E-04 2.57686E-07-1.18907E-24
 -1       193 1.67586E-04 3.86512E-07 1.24077E-24
 -1       194 1.67872E-04 5.15318E-07-1.08567E-24
 -1       195 1.68240E-04 6.44093E-07 1.24077E-24
 -1       251 2.11017E-03 1.97226E-05 0.00000E+00
 -1       252 2.10820E-03 7.31614E-05 0.00000E+00
 -1       253 2.10478E-03 1.50183E-04 0.00000E+00
 -1       254 2.10028E-03 2.40618E-04 0.00000E+00
 -1       255 2.09582E-03 3.30598E-04-1.32349E-23
 -1       256 2.09251E-03 4.06266E-04 6.61744E-24
 -1       257 2.09062E-03 4.57705E-04 0.00000E+00
 -1       258 2.08986E-03 4.75559E-04 0.00000E+00
 -1       259 2.08912E-03 4.59199E-04 0.00000E+00
 -1       260 2.08729E-03 4.08854E-04-6.61744E-24
 -1       261 2.08400E-03 3.33568E-04 0.00000E+00
 -1       262 2.07948E-03 2.42964E-04 0.00000E+00
 -1       263 2.07484E-03 1.50874E-04 0.00000E+00
 -1       264 2.07122E-03 7.11647E-05 6.61744E-24
 -1       265 2.06905E-03 1.42655E-05 0.00000E+00
 -1       266 2.10758E-03-5.24635E-07-3.30872E-24
 -1       267 2.10419E-03-5.31737E-07 8.27181E-25
 -1       268 2.10080E-03-5.39371E-07 0.00000E+00
 -1       269 2.09741E-03-5.45430E-07 2.06795E-25
 -1       270 2.09402E-03-5.51452E-07 2.06795E-25
 -1       271 2.10884E-03 2.72910E-06 1.32349E-23
 -1       272 2.10663E-03 6.12298E-06 1.32349E-23
 -1       273 2.10442E-03 9.52406E-06-2.64698E-23
 -1       274 2.10226E-03 1.27715E-05 1.32349E-23
 -1       275 2.10021E-03 1.57094E-05 2.64698E-23
 -1       276 2.09834E-03 1.81836E-05 0.00000E+00
 -1       277 2.09671E-03 2.00450E-05 2.64698E-23
 -1       278 2.09535E-03 2.11508E-05 1.32349E-23
 -1       279 2.09434E-03 2.13660E-05 2.64698E-23
 -1       280 2.09370E-03 2.05649E-05 0.00000E+00
 -1       281 2.09348E-03 1.86326E-05 0.00000E+00
 -1       282 2.09373E-03 1.54656E-05 0.00000E+00
 -1       283 2.09447E-03 1.09738E-05 0.00000E+00
 -1       284 2.09573E-03 5.08125E-06 0.00000E+00
 -1       285 2.09752E-03-2.27467E-06 0.00000E+00
 -1       301 2.07398E-03-1.01334E-05-6.61744E-24
 -1       302 2.07857E-03-1.03290E-05 3.30872E-24
 -1       303 2.08269E-03-1.05200E-05-1.32349E-23
 -1       304 2.08710E-03-1.07112E-05 0.00000E+00
 -1       305 2.09258E-03-1.09092E-05 0.00000E+00
 -1       306 2.10179E-03-1.41577E-04 1.05879E-22
 -1       307 2.16637E-03-5.05749E-04 1.58819E-22
 -1       308 2.22410E-03-1.04457E-03 0.00000E+00
 -1       309 2.26560E-03-1.67595E-03 0.00000E+00
 -1       310 2.31042E-03-2.28955E-03 1.05879E-22
 -1       311 2.37337E-03-2.77668E-03 5.29396E-23
 -1       312 2.43296E-03-3.06448E-03 0.00000E+00
 -1       313 2.44248E-03-3.11176E-03 0.00000E+00
 -1       314 2.34379E-03-2.92418E-03 1.05879E-22
 -1       315 2.10062E-03-2.54901E-03-5.29396E-23
 -1       316 1.72515E-03-2.05270E-03 0.00000E+00
 -1       317 1.26776E-03-1.50010E-03 5.29396E-23
 -1       318 8.20809E-04-9.54400E-04 0.00000E+00
 -1       319 4.73583E-04-4.80488E-04 0.00000E+00
 -1       320 2.65445E-04-1.43819E-04 0.00000E+00
 -1       336 2.76227E-04-4.17983E-06 0.00000E+00
 -1       337 2.63730E-04-4.87118E-06 6.61744E-24
 -1       338 2.49397E-04-5.58573E-06 0.00000E+00
 -1       339 2.33298E-04-6.32389E-06 0.00000E+00
 -1       340 2.15512E-04-7.08962E-06 0.00000E+00
 -1       406 1.69220E-04 9.01511E-07 2.99853E-24
 -1       407 1.69833E-04 1.03011E-06-1.55096E-24
 -1       408 1.70528E-04 1.15857E-06-2.48154E-24
 -1       409 1.71305E-04 1.28675E-06 8.27181E-25
 -1       410 1.72163E-04 1.41437E-06-3.30872E-24
 -1       521 2.13437E-03-1.51616E-04 1.05879E-22
 -1       522 2.19818E-03-5.34848E-04 0.00000E+00
 -1       523 2.25140E-03-1.10009E-03 0.00000E+00
 -1       524 2.28584E-03-1.75925E-03 0.00000E+00
 -1       525 2.32437E-03-2.39899E-03 0.00000E+00
 -1       526 2.38446E-03-2.90785E-03-5.29396E-23
 -1       527 2.44384E-03-3.20723E-03 1.05879E-22
 -1       528 2.45207E-03-3.25480E-03 0.00000E+00
 -1       529 2.34469E-03-3.05567E-03 1.05879E-22
 -1       530 2.08296E-03-2.66318E-03 0.00000E+00
 -1       531 1.67919E-03-2.14710E-03-1.05879E-22
 -1       532 1.18871E-03-1.57540E-03 0.00000E+00
 -1       533 7.08759E-04-1.01019E-03 0.00000E+00
 -1       534 3.33431E-04-5.15302E-04 5.29396E-23
 -1       535 1.07135E-04-1.60058E-04-1.05879E-22
 -1       536 1.95466E-04 2.41292E-05 0.00000E+00
 -1       537 1.93825E-04 7.96790E-05 0.00000E+00
 -1       538 1.91297E-04 1.50219E-04-3.30872E-24
 -1       539 1.88319E-04 2.27110E-04-1.65436E-24
 -1       540 1.85637E-04 2.99770E-04 0.00000E+00
 -1       541 1.83886E-04 3.57638E-04 0.00000E+00
 -1       542 1.83069E-04 3.94444E-04 0.00000E+00
 -1       543 1.82860E-04 4.04052E-04 1.65436E-24
 -1       544 1.82562E-04 3.87201E-04 0.00000E+00
 -1       545 1.81537E-04 3.44825E-04 0.00000E+00
 -1       546 1.79650E-04 2.84471E-04 0.00000E+00
 -1       547 1.77110E-04 2.13795E-04 1.65436E-24
 -1       548 1.74598E-04 1.43531E-04 0.00000E+00
 -1       549 1.72782E-04 8.44122E-05-1.65436E-24
 -1       550 1.71831E-04 4.38626E-05-1.65436E-24
 -1       551 1.72985E-04-8.39740E-06 0.00000E+00
 -1       552 1.46764E-04-8.99547E-06 0.00000E+00
 -1       553 1.18376E-04-9.64743E-06-4.96308E-24
 -1       554 8.87513E-05-1.03347E-05 0.00000E+00
 -1       555 5.88206E-05-1.10327E-05 2.64698E-23
 -1       556 1.89170E-04 9.94591E-06 0.00000E+00
 -1       557 1.83569E-04 2.43485E-05 0.00000E+00
 -1       558 1.79194E-04 3.56084E-05 0.00000E+00
 -1       559 1.75923E-04 4.40158E-05 0.00000E+00
 -1       560 1.73634E-04 4.98615E-05 0.00000E+00
 -1       561 1.72211E-04 5.34382E-05 0.00000E+00
 -1       562 1.71535E-04 5.50401E-05 0.00000E+00
 -1       563 1.71491E-04 5.49618E-05 0.00000E+00
 -1       564 1.71967E-04 5.34990E-05 0.00000E+00
 -1       565 1.72850E-04 5.09478E-05 0.00000E+00
 -1       566 1.74027E-04 4.76046E-05 0.00000E+00
 -1       567 1.75389E-04 4.37665E-05 0.00000E+00
 -1       568 1.76824E-04 3.97304E-05-8.27181E-25
 -1       569 1.78222E-04 3.57934E-05 0.00000E+00
 -1       570 1.79473E-04 3.22524E-05 0.00000E+00
 -1       571 1.71664E-04 2.73967E-05-8.27181E-25
 -1       572 1.71759E-04 2.55429E-05-4.13590E-25
 -1       573 1.71854E-04 2.36419E-05 0.00000E+00
 -1       574 1.71950E-04 2.17087E-05 0.00000E+00
 -1       575 1.72045E-04 1.97585E-05 0.00000E+00
 -1       576 1.72141E-04 1.78065E-05 1.65436E-24
 -1       577 1.72237E-04 1.58680E-05 0.00000E+00
 -1       578 1.72332E-04 1.39582E-05 0.00000E+00
 -1       579 1.72428E-04 1.20923E-05 0.00000E+00
 -1       580 1.72524E-04 1.02857E-05 0.00000E+00
 -1       581 1.72620E-04 8.55362E-06 0.00000E+00
 -1       582 1.72716E-04 6.91125E-06 0.00000E+00
 -1       583 1.72813E-04 5.37384E-06 0.00000E+00
 -1       584 1.72909E-04 3.95646E-06 0.00000E+00
 -1       585 1.73006E-04 2.67405E-06 6.61744E-24
 -1       586 1.73010E-04 2.92259E-05-1.65436E-24
 -1       587 1.74411E-04 2.92626E-05-2.06795E-25
 -1       588 1.75816E-04 2.92989E-05 0.00000E+00
 -1       589 1.77266E-04 2.93346E-05 0.00000E+00
 -1       590 1.78804E-04 2.93691E-05 0.00000E+00
 -1       591 1.72181E-04 2.74817E-05 1.03398E-25
 -1       592 1.72794E-04 2.57535E-05 2.06795E-25
 -1       593 1.73413E-04 2.40099E-05 0.00000E+00
 -1       594 1.74036E-04 2.22557E-05 0.00000E+00
 -1       595 1.74660E-04 2.04957E-05 8.27181E-25
 -1       596 1.75285E-04 1.87347E-05 4.13590E-25
 -1       597 1.75908E-04 1.69777E-05 0.00000E+00
 -1       598 1.76528E-04 1.52294E-05 0.00000E+00
 -1       599 1.77143E-04 1.34945E-05 0.00000E+00
 -1       600 1.77751E-04 1.17780E-05 4.13590E-25
 -1       601 1.78351E-04 1.00846E-05 0.00000E+00
 -1       602 1.78940E-04 8.41906E-06 2.06795E-25
 -1       603 1.79518E-04 6.78627E-06 4.13590E-25
 -1       604 1.80081E-04 5.19112E-06 1.03398E-25
 -1       605 1.80629E-04 3.63832E-06 0.00000E+00
 -1       606 1.73115E-04 6.27979E-07 3.30872E-24
 -1       607 1.73125E-04-1.96395E-07 1.65436E-24
 -1       608 1.73134E-04-9.38024E-07 3.30872E-24
 -1       609 1.73143E-04-1.60273E-06 1.65436E-24
 -1       610 1.73152E-04-2.19637E-06 0.00000E+00
 -1       611 1.73160E-04-2.72490E-06 0.00000E+00
 -1       612 1.73169E-04-3.19424E-06 0.00000E+00
 -1       613 1.73177E-04-3.61035E-06 0.00000E+00
 -1       614 1.73186E-04-3.97917E-06 0.00000E+00
 -1       615 1.73195E-04-4.30665E-06-8.27181E-25
 -1       616 1.73203E-04-4.59875E-06 0.00000E+00
 -1       617 1.73212E-04-4.86142E-06 0.00000E+00
 -1       618 1.73220E-04-5.10059E-06-8.27181E-25
 -1       619 1.73229E-04-5.32222E-06 0.00000E+00
 -1       620 1.73237E-04-5.53226E-06-2.06795E-25
 -1       621 1.74194E-04 1.63963E-06-1.65436E-24
 -1       622 1.75426E-04 1.73928E-06 8.27181E-25
 -1       623 1.76768E-04 1.83876E-06-3.30872E-24
 -1       624 1.78191E-04 1.93796E-06 8.27181E-25
 -1       625 1.79666E-04 2.03691E-06 0.00000E+00
 -1       626 1.73552E-04 6.62542E-07 0.00000E+00
 -1       627 1.73978E-04-1.49219E-07 0.00000E+00
 -1       628 1.74383E-04-9.02876E-07 0.00000E+00
 -1       629 1.74769E-04-1.60662E-06 0.00000E+00
 -1       630 1.75139E-04-2.26867E-06 3.30872E-24
 -1       631 1.75497E-04-2.89725E-06 1.65436E-24
 -1       632 1.75846E-04-3.50060E-06 0.00000E+00
 -1       633 1.76188E-04-4.08696E-06-1.65436E-24
 -1       634 1.76527E-04-4.66457E-06 3.30872E-24
 -1       635 1.76866E-04-5.24165E-06 1.65436E-24
 -1       636 1.77207E-04-5.82645E-06 3.30872E-24
 -1       637 1.77555E-04-6.42721E-06 0.00000E+00
 -1       638 1.77911E-04-7.05217E-06 1.65436E-24
 -1       639 1.78279E-04-7.70958E-06 0.00000E+00
 -1       640 1.78663E-04-8.40770E-06-1.65436E-24
 -1       656 1.73680E-04-6.29232E-06-6.61744E-24
 -1       657 1.74529E-04-6.87052E-06-6.61744E-24
 -1       658 1.75652E-04-7.44731E-06 0.00000E+00
 -1       659 1.76902E-04-8.02376E-06 0.00000E+00
 -1       660 1.78099E-04-8.60194E-06 6.61744E-24
 -1       661 1.73409E-04-5.98360E-06 0.00000E+00
 -1       662 1.73608E-04-6.31740E-06-8.27181E-25
 -1       663 1.73838E-04-6.73330E-06-1.65436E-24
 -1       664 1.74097E-04-7.22530E-06 0.00000E+00
 -1       665 1.74383E-04-7.78806E-06-1.65436E-24
 -1       666 1.74693E-04-8.41612E-06 8.27181E-25
 -1       667 1.75025E-04-9.10431E-06 0.00000E+00
 -1       668 1.75379E-04-9.84752E-06 0.00000E+00
 -1       669 1.75751E-04-1.06408E-05-1.65436E-24
 -1       670 1.76139E-04-1.14793E-05 0.00000E+00
 -1       671 1.76543E-04-1.23582E-05 0.00000E+00
 -1       672 1.76960E-04-1.32731E-05 8.27181E-25
 -1       673 1.77389E-04-1.42192E-05-1.65436E-24
 -1       674 1.77827E-04-1.51923E-05 0.00000E+00
 -1       675 1.78274E-04-1.61877E-05 0.00000E+00
 -1       676 1.73462E-04-1.67011E-05 0.00000E+00
 -1       677 1.74518E-04-1.68021E-05 0.00000E+00
 -1       678 1.75572E-04-1.69031E-05 0.00000E+00
 -1       679 1.76625E-04-1.70037E-05 0.00000E+00
 -1       680 1.77675E-04-1.71044E-05 0.00000E+00
 -1       771 1.85299E-05 1.26970E-05 0.00000E+00
 -1       772 9.27430E-06 3.27665E-05 0.00000E+00
 -1       773 1.66061E-06 4.86831E-05 5.29396E-23
 -1       774-4.42349E-06 6.06850E-05 2.64698E-23
 -1       775-9.08813E-06 6.90192E-05 0.00000E+00
 -1       776-1.24479E-05 7.39478E-05 0.00000E+00
 -1       777-1.46174E-05 7.57414E-05 0.00000E+00
 -1       778-1.57135E-05 7.46832E-05-2.64698E-23
 -1       779-1.58529E-05 7.10635E-05-5.29396E-23
 -1       780-1.51539E-05 6.51828E-05 0.00000E+00
 -1       781-1.37344E-05 5.73477E-05 0.00000E+00
 -1       782-1.17137E-05 4.78723E-05 0.00000E+00
 -1       783-9.21032E-06 3.70748E-05-5.29396E-23
 -1       784-6.34401E-06 2.52790E-05-2.64698E-23
 -1       785-3.23373E-06 1.28112E-05 0.00000E+00
 -1       786 1.80508E-04 2.74731E-05-5.16988E-26
 -1       787 1.80551E-04 2.55953E-05 0.00000E+00
 -1       788 1.80594E-04 2.37583E-05 0.00000E+00
 -1       789 1.80637E-04 2.19541E-05 0.00000E+00
 -1       790 1.80681E-04 2.01782E-05 0.00000E+00
 -1       791 1.80724E-04 1.84257E-05 0.00000E+00
 -1       792 1.80768E-04 1.66947E-05-1.65436E-24
 -1       793 1.80812E-04 1.49828E-05 8.27181E-25
 -1       794 1.80855E-04 1.32901E-05 0.00000E+00
 -1       795 1.80899E-04 1.16162E-05 8.27181E-25
 -1       796 1.80943E-04 9.96309E-06 0.00000E+00
 -1       797 1.80987E-04 8.33258E-06 8.27181E-25
 -1       798 1.81031E-04 6.72886E-06 0.00000E+00
 -1       799 1.81075E-04 5.15619E-06 0.00000E+00
 -1       800 1.81119E-04 3.62199E-06 0.00000E+00
 -1       801 1.39232E-04 2.63404E-05 0.00000E+00
 -1       802 1.43539E-05 1.65909E-05 0.00000E+00
 -1       803-9.31056E-05 8.47986E-06 0.00000E+00
 -1       804-8.39456E-05 5.85988E-06 0.00000E+00
 -1       805-2.79103E-05 2.38376E-06 0.00000E+00
 -1       806 1.81081E-04 2.74076E-05 3.30872E-24
 -1       807 1.81680E-04 2.54415E-05 0.00000E+00
 -1       808 1.82266E-04 2.35064E-05 0.00000E+00
 -1       809 1.82838E-04 2.16063E-05 0.00000E+00
 -1       810 1.83396E-04 1.97447E-05 3.30872E-24
 -1       811 1.83938E-04 1.79255E-05 1.65436E-24
 -1       812 1.84463E-04 1.61521E-05 0.00000E+00
 -1       813 1.84970E-04 1.44284E-05 0.00000E+00
 -1       814 1.85457E-04 1.27578E-05-1.65436E-24
 -1       815 1.85922E-04 1.11440E-05-1.65436E-24
 -1       816 1.86365E-04 9.59063E-06-1.65436E-24
 -1       817 1.86784E-04 8.10128E-06 0.00000E+00
 -1       818 1.87178E-04 6.67955E-06-1.65436E-24
 -1       819 1.87545E-04 5.32904E-06 0.00000E+00
 -1       820 1.87885E-04 4.05328E-06 3.30872E-24
 -1       821 1.81039E-04 3.25671E-07 0.00000E+00
 -1       822 1.80906E-04-2.16441E-06 1.65436E-24
 -1       823 1.80773E-04-5.05343E-06 0.00000E+00
 -1       824 1.80637E-04-8.05591E-06 1.65436E-24
 -1       825 1.80502E-04-1.08567E-05-3.30872E-24
 -1       826 1.80368E-04-1.31419E-05 0.00000E+00
 -1       827 1.80236E-04-1.47339E-05 0.00000E+00
 -1       828 1.80104E-04-1.54594E-05 0.00000E+00
 -1       829 1.79973E-04-1.53742E-05-3.30872E-24
 -1       830 1.79841E-04-1.45390E-05 0.00000E+00
 -1       831 1.79709E-04-1.32129E-05 0.00000E+00
 -1       832 1.79576E-04-1.16580E-05-1.65436E-24
 -1       833 1.79444E-04-1.01970E-05 0.00000E+00
 -1       834 1.79314E-04-9.15186E-06-1.65436E-24
 -1       835 1.79184E-04-8.73495E-06 8.27181E-25
 -1       836 1.82539E-04 2.25360E-06 0.00000E+00
 -1       837 1.83791E-04 2.37637E-06 1.65436E-24
 -1       838 1.84951E-04 2.49905E-06 0.00000E+00
 -1       839 1.86052E-04 2.62104E-06 0.00000E+00
 -1       840 1.87123E-04 2.74287E-06-8.27181E-25
 -1       856 1.79044E-04-9.92380E-06 0.00000E+00
 -1       857 1.79023E-04-1.05607E-05-6.46235E-27
 -1       858 1.79003E-04-1.10862E-05 4.13590E-25
 -1       859 1.78981E-04-1.15208E-05 0.00000E+00
 -1       860 1.78960E-04-1.18853E-05 0.00000E+00
 -1       861 1.78939E-04-1.22004E-05 0.00000E+00
 -1       862 1.78918E-04-1.24868E-05 8.27181E-25
 -1       863 1.78896E-04-1.27654E-05 0.00000E+00
 -1       864 1.78875E-04-1.30569E-05 0.00000E+00
 -1       865 1.78854E-04-1.33823E-05 0.00000E+00
 -1       866 1.78832E-04-1.37621E-05-8.27181E-25
 -1       867 1.78811E-04-1.42173E-05-4.13590E-25
 -1       868 1.78789E-04-1.47684E-05 8.27181E-25
 -1       869 1.78767E-04-1.54361E-05 0.00000E+00
 -1       870 1.78746E-04-1.62408E-05 0.00000E+00
 -1       871 1.80107E-04-9.15891E-06-8.27181E-25
 -1       872 1.81294E-04-9.16615E-06 0.00000E+00
 -1       873 1.82559E-04-9.17404E-06 0.00000E+00
 -1       874 1.83835E-04-9.18265E-06 2.06795E-25
 -1       875 1.85057E-04-9.19182E-06-8.27181E-25
 -1       876 1.79473E-04-9.90990E-06-3.30872E-24
 -1       877 1.79863E-04-1.06001E-05 1.65436E-24
 -1       878 1.80232E-04-1.12331E-05 3.30872E-24
 -1       879 1.80582E-04-1.18163E-05-1.65436E-24
 -1       880 1.80916E-04-1.23568E-05 0.00000E+00
 -1       881 1.81238E-04-1.28617E-05 0.00000E+00
 -1       882 1.81548E-04-1.33383E-05-3.30872E-24
 -1       883 1.81851E-04-1.37937E-05 1.65436E-24
 -1       884 1.82148E-04-1.42350E-05 3.30872E-24
 -1       885 1.82443E-04-1.46693E-05 0.00000E+00
 -1       886 1.82738E-04-1.51039E-05-3.30872E-24
 -1       887 1.83035E-04-1.55458E-05 0.00000E+00
 -1       888 1.83338E-04-1.60022E-05 0.00000E+00
 -1       889 1.83648E-04-1.64804E-05-1.65436E-24
 -1       890 1.83968E-04-1.69876E-05 0.00000E+00
 -1       891 1.79790E-04-1.72582E-05 0.00000E+00
 -1       892 1.80836E-04-1.73138E-05 0.00000E+00
 -1       893 1.81833E-04-1.73692E-05 8.27181E-25
 -1       894 1.82759E-04-1.74244E-05 0.00000E+00
 -1       895 1.83588E-04-1.74794E-05 0.00000E+00
 -1       956 1.88072E-04 1.82382E-06-1.65436E-24
 -1       957 1.87945E-04 8.78339E-07 8.27181E-25
 -1       958 1.87818E-04 9.27376E-09 0.00000E+00
 -1       959 1.87690E-04-7.94016E-07-1.65436E-24
 -1       960 1.87562E-04-1.54221E-06 3.30872E-24
 -1       961 1.87435E-04-2.24603E-06 0.00000E+00
 -1       962 1.87307E-04-2.91619E-06 0.00000E+00
 -1       963 1.87179E-04-3.56344E-06 0.00000E+00
 -1       964 1.87052E-04-4.19852E-06 3.30872E-24
 -1       965 1.86924E-04-4.83216E-06 1.65436E-24
 -1       966 1.86796E-04-5.47512E-06-3.30872E-24
 -1       967 1.86669E-04-6.13812E-06-1.65436E-24
 -1       968 1.86541E-04-6.83189E-06-3.30872E-24
 -1       969 1.86414E-04-7.56715E-06 1.65436E-24
 -1       970 1.86287E-04-8.35456E-06 0.00000E+00
 -1       971 1.86046E-04-1.00507E-05 0.00000E+00
 -1       972 1.85929E-04-1.08041E-05 0.00000E+00
 -1       973 1.85812E-04-1.14748E-05 0.00000E+00
 -1       974 1.85695E-04-1.20736E-05-1.65436E-24
 -1       975 1.85577E-04-1.26110E-05 3.30872E-24
 -1       976 1.85460E-04-1.30977E-05 0.00000E+00
 -1       977 1.85343E-04-1.35445E-05 3.30872E-24
 -1       978 1.85226E-04-1.39620E-05 0.00000E+00
 -1       979 1.85108E-04-1.43609E-05-3.30872E-24
 -1       980 1.84991E-04-1.47520E-05-1.65436E-24
 -1       981 1.84874E-04-1.51459E-05 0.00000E+00
 -1       982 1.84757E-04-1.55533E-05-1.65436E-24
 -1       983 1.84640E-04-1.59851E-05-3.30872E-24
 -1       984 1.84524E-04-1.64518E-05 1.65436E-24
 -1       985 1.84408E-04-1.69642E-05 3.30872E-24
 -3
    1PSTEP                        24          12           1          
  100CL  112 6.44531E-01         409                     0   12           1
 -4  STRESS      6    1
 -5  SXX         1    4    1    1
 -5  SYY         1    4    2    2
 -5  SZZ         1    4    3    3
 -5  SXY         1    4    1    2
 -5  SYZ         1    4    2    3
 -5  SZX         1    4    3    1
 -1         1-4.47042E+06-1.66229E+06-9.83461E+05-1.62539E+06 1.16415E-10-2.09548E-08
 -1         2 2.50239E+04-2.20724E+06 1.04716E+05 2.94254E+05 4.45652E-09 1.81057E-07
 -1         3-1.24335E+03-1.62065E+06 4.06171E+02-2.10360E+03-5.80972E-10-1.09831E-08
 -1         5-4.80821E+01 3.68866E+05 9.52188E+00-9.78613E-01-3.57365E-10-2.85418E-08
 -1         8-6.18940E+05-2.05804E+05-4.94586E+04-2.55974E+05 1.35515E-10 1.22825E-07
 -1         9 8.07535E+06-6.91426E+05 1.35629E+06-1.15924E+06 2.51574E-08 7.65780E-08
 -1        10-2.13344E+03-1.68882E+06-3.87119E+03-1.42148E+04-1.22291E-08-2.70757E-08
 -1        12-4.42775E+01 3.68886E+05 3.11401E+02-6.79573E+00-5.65720E-10 4.13456E-09
 -1        15 1.23900E+03 6.80898E+02 4.00505E+03 1.81666E+00-1.20139E-10 5.75833E-08
 -1        16 1.76239E+07-1.49507E+05 2.48471E+06-1.45776E+06 7.81923E-09 1.00505E-07
 -1        17 6.32415E+06 4.51274E+06 1.70387E+06 4.43154E+06 1.54832E-08 3.02331E-08
 -1        18 1.12931E+05 2.55594E+04-1.65937E+03-1.12243E+05 1.28616E-08-2.14050E-09
 -1        19 1.17248E+05 1.35501E+05-9.13028E+02 2.13877E+04 1.35478E-09 5.43114E-09
 -1        20-7.55414E+04-5.50438E+05-1.23298E+05 2.58470E+04-1.54720E-09 1.55305E-08
 -1        21-4.49535E+01-2.87782E+05-9.01852E+02 2.08512E+02 1.44560E-08 4.00469E-09
 -1        24 1.03555E+07 8.82946E+06 2.93100E+06 8.21342E+06-1.47925E-07-5.07959E-08
 -1        25 7.42948E+04 8.12039E+04 5.23500E+04-5.36592E+05-1.30995E-09 1.43333E-08
 -1        26-5.24243E+04 8.80482E+04-2.36026E+04 1.93459E+02 3.12866E-10 5.40876E-09
 -1        27-7.45168E+04-2.97910E+05-1.09326E+05 6.63589E+04 3.84580E-09 1.74926E-10
 -1        28 2.17213E+04-8.25778E+04 1.64128E+04 2.06492E+04-3.32005E-09 2.35951E-08
 -1        32-1.62986E+06-2.99642E+06-1.74499E+05 2.62806E+05-3.86353E-08-5.33623E-09
 -1        33-1.71991E+05 8.87439E+04 3.10434E+04-3.76562E+04-2.49804E-09 5.21444E-10
 -1        34-2.15695E+05-2.37697E+04 6.49325E+02 7.21789E+04-3.98848E-09 1.32556E-08
 -1        35-2.23423E+04-3.27556E+04-1.30283E+03 5.00799E+04-2.11276E-09-8.30551E-09
 -1        51 5.02141E+04-2.08938E+05 1.08565E+05-6.22814E+05 1.60071E-10 5.48607E-09
 -1        52 1.80827E+04-1.91493E+05 5.85247E+04-7.26076E+05 3.56522E-10-2.75228E-07
 -1        53 5.00759E+03-2.07015E+05 3.29426E+04-6.20516E+05 5.38421E-10-2.51108E-07
 -1        54 1.12328E+04-2.03474E+05 3.20768E+04-7.28479E+05 0.00000E+00-1.92773E-07
 -1        55 2.36045E+04-2.12888E+05 4.48623E+04-6.20179E+05 6.76664E-10 1.68842E-07
 -1        56-8.42544E+06-9.70738E+05-7.29635E+05-3.31454E+06 7.27596E-10-9.01055E-08
 -1        57-8.90918E+06-1.42449E+06-4.89642E+05-3.05270E+06 3.83297E-08 1.18038E-07
 -1        58-8.51534E+06-1.25344E+06-1.71281E+05-3.32713E+06-1.70585E-08 1.05021E-07
 -1        59-8.81373E+06-1.08677E+06-1.01610E+05-3.03847E+06-5.31236E-09 3.53248E-08
 -1        60-8.52282E+06-1.29756E+06-3.96022E+04-3.33446E+06-1.73477E-08-2.88681E-07
 -1        61-8.76754E+06-1.06723E+06-2.18126E+04-3.06399E+06 3.49119E-08-4.78262E-08
 -1        62-8.55919E+06-1.27310E+06-1.20440E+04-3.30051E+06-1.76042E-08-3.24480E-08
 -1        63-8.66540E+06-1.15195E+06-6.84130E+03-3.15906E+06 6.60293E-09-1.12688E-07
 -1        64-8.61949E+06-1.21638E+06-1.23264E+04-3.23542E+06-2.44108E-09-1.12433E-07
 -1        65-8.55186E+06-1.27181E+06-1.80710E+04-3.29088E+06-2.43335E-08-4.52291E-08
 -1        66-8.67261E+06-1.15350E+06-3.64569E+04-3.16862E+06-5.40058E-09-1.46887E-07
 -1        67-8.49454E+06-1.39372E+06-8.90174E+04-3.39406E+06-2.62271E-08-9.37016E-08
 -1        68-8.68272E+06-1.09172E+06-1.50305E+05-3.13599E+06-4.18913E-08 9.96515E-08
 -1        69-8.62180E+06-1.65894E+06-4.32049E+05-3.37909E+06-2.70484E-08 2.17478E-08
 -1        70-8.54991E+06-8.93702E+05-6.41188E+05-3.18321E+06 4.93310E-09 9.54606E-09
 -1        86-2.56762E+04-3.00872E+06-6.14047E+04-1.46583E+05-3.99898E-08 1.30896E-07
 -1        87 3.12350E+04-2.52361E+06 4.28480E+04 4.40383E+05-6.47392E-08-1.31360E-07
 -1        88-9.50590E+02-2.72556E+06-6.75029E+03-2.93419E+05-6.19730E-08 9.25922E-09
 -1        89 2.99065E+04-2.57539E+06 1.53274E+04 4.73728E+05-9.57771E-08-1.82239E-07
 -1        90-1.95000E+04-2.96233E+06-9.43080E+04-1.80165E+05-2.58369E-08 4.18895E-08
 -1       121-1.71234E+03-1.62480E+06-3.80555E+02 1.04440E+03 1.29462E-09 3.73657E-08
 -1       122-1.06172E+03-1.62069E+06 7.92104E+02-4.20678E+03-4.92406E-09 1.42591E-08
 -1       123-1.74434E+03-1.62493E+06 4.73543E+02 3.11837E+03 3.91685E-09 4.28554E-09
 -1       124 6.08184E+02-1.62014E+06 3.10043E+03-8.78332E+03-9.38462E-09 3.58323E-08
 -1       125-2.60878E+03-1.62585E+06 3.86967E+03 5.58671E+03 6.01722E-09 4.93310E-09
 -1       191-5.07748E+01 3.68888E+05 9.29642E+00 5.04111E-01-4.52257E-10-2.31921E-09
 -1       192-4.89845E+01 3.68866E+05 2.02613E+01-3.26376E+00-6.26229E-10 2.37414E-08
 -1       193-5.31592E+01 3.68888E+05 3.56525E+01 2.85101E+00-8.45708E-10 1.16452E-08
 -1       194-5.18817E+01 3.68869E+05 7.68829E+01-7.45090E+00-2.79369E-10 8.36735E-10
 -1       195-5.77373E+01 3.68885E+05 1.48350E+02 4.79563E+00-1.18666E-09-4.37467E-09
 -1       251-2.08895E+06-4.09975E+04-2.09877E+05-1.42485E+05 1.65892E-09-4.18368E-10
 -1       252-1.03379E+06 5.11305E+04 6.46804E+04 4.39579E+05 2.40143E-08-3.69619E-09
 -1       253-1.62810E+06-1.71013E+04-3.63298E+04-2.91483E+05-6.74117E-09 9.64092E-08
 -1       254-1.53058E+06 6.85997E+04 1.13693E+04 5.81691E+05 3.65262E-09-6.76891E-08
 -1       255-1.64117E+06-1.84664E+04-2.08241E+04-2.89209E+05 4.86398E-09-5.28294E-08
 -1       256-1.00180E+06 5.51839E+04 1.17959E+05 4.29523E+05-1.08921E-08 1.62338E-07
 -1       257-2.10507E+06-4.59275E+04-1.16681E+05-1.34560E+05-6.39557E-09 1.11238E-07
 -1       258-4.72355E+05 4.14535E+04 2.18000E+05 9.76999E+03 1.01873E-08 1.90235E-07
 -1       259-2.11851E+06-4.71326E+04-1.17762E+05 1.27667E+05-4.31464E-09 1.61865E-08
 -1       260-9.70108E+05 5.70184E+04 1.29132E+05-4.16230E+05-2.32831E-10 2.51887E-08
 -1       261-1.65631E+06-2.16258E+04-1.44278E+04 2.88203E+05 8.52497E-08 6.78494E-08
 -1       262-1.52444E+06 8.12658E+04 3.57300E+04-5.79034E+05-4.13497E-08-1.63285E-07
 -1       263-1.61889E+06-2.67251E+04 5.16046E+03 2.95478E+05 2.17724E-08 9.24356E-08
 -1       264-1.03264E+06 1.26778E+05 1.63929E+05-4.50272E+05 1.30433E-07 8.51287E-09
 -1       265-2.10238E+06-1.04228E+05-5.72101E+04 1.54951E+05 5.37984E-08 1.02966E-07
 -1       266-2.24301E+04-1.04886E+04 5.26260E+04-3.88701E+01-9.82254E-11 6.07183E-08
 -1       267 2.60026E+04 1.22243E+04 3.71960E+04 4.48493E+01 1.04137E-10-3.08327E-08
 -1       268-3.48691E+03-1.73132E+03 1.38255E+04-5.71453E+00-1.76442E-10-1.36349E-07
 -1       269 4.11701E+03 2.07199E+03 8.98642E+03 6.65663E+00 1.03000E-10-1.41022E-07
 -1       270-6.17968E+02-3.40446E+02 4.33787E+03-9.03349E-01 1.81217E-10 4.45202E-08
 -1       271-2.02881E+06-2.43431E+05-1.50883E+05-7.75551E+05-1.46865E-08 1.27671E-07
 -1       272-2.14079E+06-2.96680E+05-9.71385E+04-7.09899E+05-1.93522E-08-2.17704E-07
 -1       273-2.05589E+06-2.82479E+05-3.55982E+04-7.70337E+05 1.13596E-09-8.40409E-08
 -1       274-2.10881E+06-2.48953E+05-1.99790E+04-7.18034E+05 2.39779E-08 2.73697E-07
 -1       275-2.05985E+06-2.86460E+05-8.29416E+03-7.69077E+05 2.00248E-08 6.29516E-08
 -1       276-2.10262E+06-2.45373E+05-4.34198E+03-7.20641E+05 2.43881E-09 1.89571E-08
 -1       277-2.06151E+06-2.85872E+05-2.19324E+03-7.67565E+05-2.00998E-09 6.84322E-08
 -1       278-2.09846E+06-2.47967E+05-1.32534E+03-7.23790E+05 2.30866E-08-3.84073E-08
 -1       279-2.06330E+06-2.84267E+05-1.55363E+03-7.65439E+05-2.78214E-08-8.72387E-08
 -1       280-2.09378E+06-2.52446E+05-2.20408E+03-7.27990E+05 1.66883E-08-5.24487E-08
 -1       281-2.06537E+06-2.81929E+05-4.48081E+03-7.62782E+05 2.27064E-08-2.87455E-08
 -1       282-2.08997E+06-2.60292E+05-9.78550E+03-7.32910E+05-2.39534E-08 6.05057E-08
 -1       283-2.06635E+06-2.77171E+05-1.81031E+04-7.59879E+05-1.64018E-08-9.21151E-08
 -1       284-2.09904E+06-2.90146E+05-4.80331E+04-7.35593E+05-1.93177E-08-2.33647E-07
 -1       285-2.05602E+06-2.54892E+05-7.54991E+04-7.58806E+05 5.24233E-09-5.16593E-10
 -1       301 9.97839E+03-5.12385E+05 1.76150E+05-8.85580E+05 2.76486E-10-6.52653E-08
 -1       302 1.44276E+04-4.66730E+05 1.07694E+05-1.31367E+06 2.27737E-09 6.89615E-08
 -1       303-7.20754E+03-4.98736E+05 6.51513E+04-8.83300E+05-9.45874E-10 1.23600E-08
 -1       304 9.86278E+02-4.70870E+05 7.33264E+04-1.31294E+06 3.45608E-09 8.09705E-08
 -1       305-5.31877E+03-4.95647E+05 9.95840E+04-8.86067E+05-2.34650E-09 1.79134E-08
 -1       306-2.56883E+07-5.18125E+06-7.03635E+06-1.26210E+06-8.67294E-08 4.01924E-08
 -1       307 2.08577E+07 1.60484E+06 4.52678E+06-1.20663E+07-7.86822E-07 2.19297E-08
 -1       308-7.88481E+06-6.24466E+05-5.53832E+05 4.28482E+06-2.22935E-07 3.61746E-07
 -1       309-3.57781E+06 5.61167E+06 1.65726E+06-1.78977E+07 2.91606E-07 3.08864E-09
 -1       310-1.07030E+07-1.05084E+06-1.28357E+06 4.14478E+06-1.42551E-07-1.78028E-07
 -1       311 2.73680E+07-3.12784E+05 5.49184E+06-8.55152E+06 4.55184E-07 1.24186E-07
 -1       312-2.65045E+07-5.19664E+06-6.59899E+06-3.63388E+06 3.59491E-07 1.78494E-07
 -1       313 3.69479E+07 9.59603E+06 8.50875E+06 1.69730E+07 1.10304E-08-1.05647E-07
 -1       314-1.64445E+07-1.33407E+07-6.07926E+06-1.06347E+07 3.79514E-07-3.29339E-07
 -1       315-7.40637E+05 2.25264E+07 4.68089E+06 1.02803E+07-5.57440E-07-1.57917E-07
 -1       316-2.15860E+04-8.78826E+06-5.14774E+05-3.70601E+06-1.18332E-06-2.43948E-07
 -1       317-1.68277E+07 1.87624E+07 1.62640E+06-5.16800E+06 6.67627E-07-5.83488E-07
 -1       318-1.36736E+06-9.98756E+06-1.33876E+06-4.48056E+06-7.66653E-07 2.26719E-08
 -1       319 4.06970E+06 2.36123E+07 5.25148E+06 1.27403E+07-6.41448E-08 2.31405E-07
 -1       320-1.91408E+07-1.36861E+07-7.72458E+06-1.05309E+07 1.51806E-07-2.61934E-08
 -1       336-3.08298E+02-1.75891E+06-1.36681E+04 8.50012E+03-2.39052E-08 1.46210E-08
 -1       337-5.24422E+03-1.75933E+06-1.77541E+04-2.05580E+04-4.39452E-08-3.75876E-08
 -1       338 5.53858E+02-1.75846E+06-2.74405E+04 1.18666E+04-3.12230E-08 1.50831E-08
 -1       339-2.91396E+04-1.77571E+06-6.21519E+04-2.71266E+04-5.71072E-08 5.06116E-08
 -1       340 1.94527E+04-1.74441E+06-9.76579E+04 1.49565E+04-3.80569E-08 2.14350E-08
 -1       406-2.25226E+01 3.68871E+05 6.12641E+02 2.29271E+00-1.43861E-09-1.30276E-08
 -1       407 1.70318E+02 3.68994E+05 1.30663E+03 1.92957E+01-3.18305E-10-1.77715E-08
 -1       408 6.26917E+02 3.68777E+05 2.60686E+03-2.19970E+01-1.89289E-09-2.44090E-08
 -1       409 2.78078E+03 3.69826E+05 5.87309E+03 2.31055E+02-1.23009E-10 2.03363E-09
 -1       410 8.06883E+03 3.68029E+05 1.19878E+04-2.21922E+02-2.37560E-09-7.07041E-09
 -1       521-2.73307E+07-6.36732E+06-8.24844E+06-9.87065E+05-7.00820E-08-1.52620E-07
 -1       522 2.16559E+07 2.16124E+06 4.61363E+06-1.50342E+07-4.41592E-07-2.77651E-07
 -1       523-8.70266E+06-8.92915E+05-5.78758E+05 4.73314E+06-3.13157E-08-3.23416E-07
 -1       524-6.56541E+06 7.91444E+06 1.80555E+06-2.08144E+07 6.64470E-07-4.53208E-07
 -1       525-1.17188E+07-1.49910E+06-1.41798E+06 4.58117E+06 7.07223E-07-2.14961E-07
 -1       526 2.97431E+07-3.41144E+05 5.80293E+06-1.09567E+07 3.05008E-07 1.06404E-07
 -1       527-2.83353E+07-6.55116E+06-7.61707E+06-3.55493E+06 3.66825E-07 1.23007E-07
 -1       528 4.05522E+07 1.05194E+07 8.91842E+06 1.92692E+07 8.38190E-08-8.96107E-08
 -1       529-1.75314E+07-1.52255E+07-6.99238E+06-1.09075E+07 1.59780E-07-2.00584E-07
 -1       530-2.87936E+06 2.64073E+07 4.97052E+06 1.04153E+07-7.91188E-08 4.94067E-07
 -1       531-1.23224E+05-9.94661E+06-5.24655E+05-3.91322E+06-6.34376E-07 2.12429E-07
 -1       532-1.98733E+07 2.10964E+07 1.79752E+06-8.32135E+06 5.31669E-07-7.33304E-07
 -1       533-1.46602E+06-1.11591E+07-1.41687E+06-4.61319E+06-7.31379E-08-8.79983E-07
 -1       534 2.17653E+06 2.75915E+07 5.49996E+06 1.32776E+07-7.50006E-08 6.76344E-07
 -1       535-2.03328E+07-1.56860E+07-8.84640E+06-1.07870E+07 9.41800E-08 4.38566E-07
 -1       536-6.60076E+05-4.50151E+04-2.88134E+04-4.83729E+04-3.34740E-09 5.77711E-08
 -1       537-9.98147E+04 4.40054E+04 8.01239E+04 1.11700E+05-1.10199E-07 1.06043E-07
 -1       538-3.92383E+05 2.08984E+03 6.20508E+03-6.60238E+04 1.54596E-08 1.03942E-07
 -1       539-2.85430E+05 3.08989E+03 2.30144E+04 1.26175E+05 1.72962E-07 9.80158E-08
 -1       540-4.79054E+05-2.93700E+02-1.71951E+04-6.32661E+04 7.01471E-09 1.07559E-07
 -1       541 6.90873E+04 1.44869E+04 9.10727E+04 8.75254E+04-1.07138E-09 7.88476E-08
 -1       542-7.37363E+05-1.72465E+04-7.17401E+04-2.66915E+04 5.65246E-08 3.85368E-08
 -1       543 2.89728E+05 2.33591E+04 1.34722E+05-1.23194E+04-3.35804E-08-8.19227E-09
 -1       544-6.93792E+05-1.40464E+04-6.37302E+04 3.60524E+04-3.31465E-09-4.25318E-08
 -1       545-3.27748E+04 7.85178E+03 6.74719E+04-1.02537E+05 2.63417E-08-7.07057E-08
 -1       546-4.23496E+05 5.40403E+03-1.05891E+04 6.32601E+04 2.33786E-08-8.59570E-08
 -1       547-3.01572E+05-4.68267E+03 7.82500E+03-1.28887E+05-8.76746E-08-1.00979E-07
 -1       548-4.32194E+05 4.48986E+03-2.20060E+04 6.29419E+04-1.17532E-07-9.99908E-08
 -1       549-1.48631E+04 1.05707E+04 4.74462E+04-1.00117E+05-6.52171E-08-6.60534E-08
 -1       550-7.02524E+05-1.62495E+04-1.16358E+05 3.39275E+04 5.35874E-09-3.78950E-08
 -1       551 3.73336E+04-7.69178E+05-6.31737E+03-1.20990E+06-9.38016E-08-3.23053E-09
 -1       552 8.46418E+04-8.07997E+05 1.53491E+04-1.72538E+06-6.76373E-08 2.38797E-08
 -1       553 6.44965E+04-8.06326E+05 3.56978E+04-1.20378E+06-1.10027E-07 2.23663E-08
 -1       554 1.21244E+05-8.20376E+05 8.53852E+04-1.72734E+06-6.46105E-08 2.32521E-08
 -1       555 9.41308E+04-8.29081E+05 1.54618E+05-1.20381E+06-1.14858E-07-1.20635E-08
 -1       556 2.03388E+05-3.52902E+05 3.88633E+04-3.85320E+05-2.34286E-08-1.71713E-09
 -1       557 3.27070E+05-4.51717E+05 2.25442E+04-4.96406E+05-8.29459E-10 1.77624E-08
 -1       558 1.88480E+05-3.49417E+05 5.70972E+03-3.86868E+05-1.31258E-08 6.83940E-10
 -1       559 3.03738E+05-4.54106E+05 3.92285E+03-5.14191E+05 1.77097E-08-8.45102E-09
 -1       560 1.75395E+05-3.41185E+05-4.07368E+02-3.96211E+05 1.21654E-08 3.74712E-09
 -1       561 2.87116E+05-4.47582E+05 5.38556E+02-5.25438E+05 6.40284E-10 2.22644E-08
 -1       562 1.65055E+05-3.34732E+05-8.98165E+02-4.03680E+05-8.35280E-09-3.09592E-09
 -1       563 2.74854E+05-4.42235E+05 8.11995E+01-5.33426E+05-4.14002E-09-5.41331E-09
 -1       564 1.57739E+05-3.30165E+05-4.32286E+02-4.08859E+05-6.25732E-09 3.72393E-09
 -1       565 2.66832E+05-4.38743E+05 5.58185E+01-5.38545E+05-1.23509E-08-5.54655E-09
 -1       566 1.53554E+05-3.27514E+05-1.92628E+02-4.11788E+05-1.44573E-08-2.26391E-08
 -1       567 2.63085E+05-4.37111E+05-3.04270E+02-5.40804E+05 9.21500E-09-1.11868E-08
 -1       568 1.52581E+05-3.26923E+05-9.76451E+02-4.12565E+05-8.06085E-09 1.45774E-08
 -1       569 2.62312E+05-4.37071E+05-2.46761E+03-5.39258E+05 3.14685E-10 3.19124E-08
 -1       570 1.55842E+05-3.29952E+05-5.42464E+03-4.11642E+05 9.56061E-09-5.62159E-09
 -1       571 2.77796E+05 1.00626E+04 1.44560E+04-8.79160E+04 4.09545E-09 9.35052E-09
 -1       572 2.79901E+05 3.73990E+03 7.08424E+03-9.64510E+04 5.05315E-09-9.14952E-09
 -1       573 2.78633E+05 1.12840E+03 3.14769E+03-8.77481E+04 1.13960E-08-1.82627E-09
 -1       574 2.78849E+05 6.19915E+02 1.57831E+03-9.66607E+04 1.97108E-08-2.96677E-09
 -1       575 2.78725E+05 3.58481E+02 7.44821E+02-8.77253E+04-2.37770E-09 5.69798E-09
 -1       576 2.78716E+05 3.62420E+02 3.81113E+02-9.66886E+04-2.70238E-08 5.53518E-09
 -1       577 2.78760E+05 3.04789E+02 1.90129E+02-8.77221E+04-1.51686E-08 1.30422E-08
 -1       578 2.78739E+05 3.29647E+02 1.09387E+02-9.66925E+04-5.42241E-09 5.44787E-10
 -1       579 2.78820E+05 2.74825E+02 7.48772E+01-8.77218E+04 7.13953E-09 1.53368E-08
 -1       580 2.78824E+05 2.87440E+02 8.59640E+01-9.66879E+04-6.10908E-09 3.30510E-09
 -1       581 2.78916E+05 2.26595E+02 1.29868E+02-8.77273E+04 4.78212E-09 7.20775E-09
 -1       582 2.78974E+05 2.60406E+02 2.62945E+02-9.66310E+04 3.24690E-10 1.27184E-08
 -1       583 2.79033E+05 2.75476E+02 5.05730E+02-8.77793E+04 7.45786E-10-2.25077E-09
 -1       584 2.79308E+05 6.86145E+02 1.14309E+03-9.61934E+04 5.39694E-09 1.83591E-08
 -1       585 2.79041E+05 1.65676E+03 2.31636E+03-8.81645E+04-1.11140E-09 1.26602E-09
 -1       586-3.29593E+03 1.08250E+05-3.03572E+03-2.41247E+05-4.28236E-09 2.18267E-08
 -1       587-1.18890E+03 1.07964E+05 5.98109E+02-2.65516E+05-6.14455E-09 2.61801E-08
 -1       588 4.92338E+02 1.07821E+05 4.45233E+03-2.41118E+05-4.82760E-09 2.26137E-08
 -1       589 4.95697E+03 1.10148E+05 1.16713E+04-2.65280E+05-8.58199E-09 7.79255E-09
 -1       590 1.58715E+04 1.06554E+05 2.45314E+04-2.41532E+05-7.02767E-09 6.34100E-09
 -1       591-6.91645E+04-1.51636E+04-2.11901E+04-2.99880E+04-2.20825E-09 1.83354E-09
 -1       592-7.28666E+04-1.86537E+04-1.14782E+04-3.35617E+04 3.25512E-09 1.55580E-08
 -1       593-7.12849E+04-1.36248E+04-4.77786E+03-3.15406E+04 2.75786E-09 1.43432E-08
 -1       594-6.99389E+04-1.55465E+04-2.38285E+03-3.36750E+04-4.98051E-09 1.41306E-08
 -1       595-7.14466E+04-1.36197E+04-1.09406E+03-3.16112E+04-5.30161E-10 8.21169E-09
 -1       596-6.97386E+04-1.54043E+04-5.56129E+02-3.36514E+04 6.85685E-09-1.47133E-08
 -1       597-7.14669E+04-1.36341E+04-3.02739E+02-3.16138E+04 4.23574E-09 8.73229E-10
 -1       598-6.97189E+04-1.53988E+04-2.43204E+02-3.36448E+04-3.66981E-09-4.79088E-09
 -1       599-7.14657E+04-1.36345E+04-3.10461E+02-3.16135E+04 4.15810E-09-2.07771E-08
 -1       600-6.97388E+04-1.54050E+04-5.76573E+02-3.36495E+04 5.03599E-09-1.44305E-08
 -1       601-7.14422E+04-1.36208E+04-1.13737E+03-3.16101E+04 2.71575E-09 1.16302E-09
 -1       602-6.99469E+04-1.55518E+04-2.47872E+03-3.36704E+04-8.08086E-10 2.27919E-09
 -1       603-7.12714E+04-1.36290E+04-4.97084E+03-3.15374E+04 3.73007E-09-3.17641E-09
 -1       604-7.30094E+04-1.87661E+04-1.19411E+04-3.35291E+04 1.06598E-09 1.66301E-09
 -1       605-6.90464E+04-1.52466E+04-2.20448E+04-2.99404E+04 7.82342E-09-9.00218E-09
 -1       606 2.69333E+04-1.36348E+04-2.44517E+04 2.45633E+04 7.77527E-09-8.06176E-09
 -1       607 2.27544E+04-4.44815E+03-1.21767E+04 2.75977E+04 1.92813E-10-3.24508E-09
 -1       608 2.51343E+04-7.97853E+02-5.45135E+03 2.43856E+04 2.76123E-09 2.46428E-09
 -1       609 2.46760E+04-2.67363E+02-2.75379E+03 2.78162E+04 1.67774E-08-2.37924E-09
 -1       610 2.49287E+04-3.18357E+01-1.31407E+03 2.43647E+04 1.14469E-08-4.79668E-09
 -1       611 2.48550E+04-2.99523E+01-6.62535E+02 2.78398E+04 5.16593E-09-1.42154E-08
 -1       612 2.48819E+04-1.75658E+01-3.15169E+02 2.43626E+04 1.93359E-09 6.76164E-09
 -1       613 2.48640E+04-2.49268E+01-1.41385E+02 2.78426E+04 7.53062E-10 1.06738E-08
 -1       614 2.48593E+04-2.26804E+01-3.36336E+01 2.43619E+04 3.22871E-09 1.73927E-08
 -1       615 2.48574E+04-2.26269E+01 5.81830E+01 2.78431E+04 2.00134E-09 1.41029E-08
 -1       616 2.48416E+04-1.89801E+01 1.75447E+02 2.43622E+04 5.15820E-09 8.40350E-09
 -1       617 2.48773E+04 1.54827E+01 4.00719E+02 2.78426E+04-1.73895E-09-1.91562E-09
 -1       618 2.48059E+04 9.70933E+01 8.07842E+02 2.43625E+04-5.04588E-09 3.88081E-09
 -1       619 2.51618E+04 6.40560E+02 1.81418E+03 2.78419E+04-7.10497E-09 1.91142E-08
 -1       620 2.45372E+04 2.01311E+03 3.64646E+03 2.43634E+04 1.92927E-10 1.19794E-08
 -1       621 4.53525E+02 2.87440E+05 3.59681E+03 3.58532E+04 7.64885E-10-1.16233E-09
 -1       622 5.91434E+02 2.88283E+05 3.21695E+03 5.20688E+04 6.94399E-10 1.00081E-08
 -1       623 1.07766E+02 2.87627E+05 3.90004E+03 3.56897E+04 1.08446E-09 2.15632E-08
 -1       624 1.96668E+03 2.89459E+05 7.58759E+03 5.22304E+04 1.24095E-09-5.93718E-09
 -1       625 1.93429E+03 2.86125E+05 1.32725E+04 3.56868E+04 1.38652E-09 1.95769E-08
 -1       626 2.49705E+05 5.99362E+04 5.00124E+03 1.22755E+05 5.89625E-09-6.65750E-10
 -1       627 2.47372E+05 6.13708E+04 2.41005E+03 1.27006E+05 8.69477E-09 4.49063E-09
 -1       628 2.49835E+05 5.76420E+04 1.01911E+03 1.23598E+05-4.02997E-09 4.64956E-09
 -1       629 2.46742E+05 6.07144E+04 4.98828E+02 1.27248E+05 4.37922E-10 1.00272E-08
 -1       630 2.49848E+05 5.75316E+04 2.31309E+02 1.23632E+05-5.56611E-10-1.01692E-08
 -1       631 2.46675E+05 6.06903E+04 1.24382E+02 1.27249E+05 1.07852E-08-1.89004E-09
 -1       632 2.49843E+05 5.75361E+04 8.16901E+01 1.23627E+05 8.81619E-09-1.21058E-08
 -1       633 2.46665E+05 6.06928E+04 9.07451E+01 1.27245E+05 5.08862E-10 4.22324E-09
 -1       634 2.49838E+05 5.75340E+04 1.46421E+02 1.23626E+05 2.78078E-09 2.97632E-10
 -1       635 2.46678E+05 6.06916E+04 2.96151E+02 1.27249E+05 1.91060E-08-1.61142E-08
 -1       636 2.49828E+05 5.75290E+04 5.98007E+02 1.23625E+05 1.43857E-08-6.89579E-09
 -1       637 2.46807E+05 6.07847E+04 1.31474E+03 1.27248E+05 1.76490E-08-1.16095E-08
 -1       638 2.49781E+05 5.78196E+04 2.70134E+03 1.23494E+05 1.18553E-08-3.36786E-09
 -1       639 2.48226E+05 6.27582E+04 6.39134E+03 1.26830E+05 5.62864E-09 1.18689E-09
 -1       640 2.49586E+05 6.37113E+04 1.32632E+04 1.21009E+05 9.66565E-09-7.42671E-09
 -1       656 6.40722E+04-1.63784E+06-1.54667E+05-2.09747E+03-5.52973E-10-3.37423E-10
 -1       657-8.47523E+04-1.70772E+06-1.28111E+05 5.70877E+03 4.91127E-11 1.38106E-09
 -1       658 2.04150E+04-1.65769E+06-7.88745E+04-4.06048E+03 7.41011E-10 5.68505E-09
 -1       659-9.15753E+04-1.71096E+06-1.37077E+05 7.29981E+03-1.40699E-09-1.40076E-08
 -1       660 7.08800E+04-1.63461E+06-1.70082E+05-3.68849E+03-1.53523E-09 5.48798E-09
 -1       661 1.60680E+05 1.69206E+04 1.67104E+04 6.28167E+04-4.39286E-10-2.14823E-09
 -1       662 1.70034E+05 2.93876E+04 1.12614E+04 5.91747E+04-1.32218E-09 9.88734E-10
 -1       663 1.63962E+05 2.22819E+04 3.93864E+03 6.18646E+04-8.28777E-11-1.73191E-09
 -1       664 1.66229E+05 2.31174E+04 2.35594E+03 6.03372E+04-2.53729E-09 7.90473E-09
 -1       665 1.64459E+05 2.30147E+04 9.29404E+02 6.17200E+04 3.82391E-09-2.18796E-09
 -1       666 1.65641E+05 2.22789E+04 5.43755E+02 6.05255E+04 2.13032E-09-2.62369E-09
 -1       667 1.64546E+05 2.30984E+04 2.88704E+02 6.16842E+04 2.12566E-09 3.18657E-10
 -1       668 1.65546E+05 2.22182E+04 2.93902E+02 6.05776E+04-4.19051E-09-9.58059E-09
 -1       669 1.64554E+05 2.30737E+04 3.97684E+02 6.16682E+04 1.48319E-09 9.43962E-09
 -1       670 1.65643E+05 2.24337E+04 8.65761E+02 6.05804E+04-2.02940E-09 1.42820E-08
 -1       671 1.64449E+05 2.28873E+04 1.53715E+03 6.16795E+04-1.08997E-11-9.50763E-10
 -1       672 1.66539E+05 2.39292E+04 3.93272E+03 6.03635E+04 6.79792E-09-9.37860E-09
 -1       673 1.63662E+05 2.16160E+04 6.59059E+03 6.18706E+04 3.34421E-09 3.42743E-09
 -1       674 1.72812E+05 3.45173E+04 1.88477E+04 5.85202E+04-2.18995E-09-8.73547E-09
 -1       675 1.58216E+05 1.25957E+04 2.79765E+04 6.34114E+04-1.95496E-09-2.49565E-09
 -1       676 2.34829E+01-2.87707E+05-1.08697E+03-1.04259E+02 1.18592E-09 8.69740E-09
 -1       677-2.87988E+02-2.87970E+05-1.98933E+03 2.08358E+02 6.88715E-09-3.07304E-08
 -1       678 1.92793E+02-2.87520E+05-3.51664E+03-1.04030E+02 1.36652E-10-9.25284E-09
 -1       679-3.51712E+03-2.90093E+05-8.35405E+03 2.07483E+02 6.00210E-09 1.29979E-09
 -1       680 2.09959E+03-2.85585E+05-1.34639E+04-1.02230E+02 6.84850E-10 5.34895E-09
 -1       771-2.99231E+06-7.06439E+05-1.44506E+05-1.41462E+06-4.17058E-08-2.18279E-08
 -1       772-2.92201E+06-7.88557E+05-7.46462E+04-1.50937E+06-3.66126E-08 2.73576E-08
 -1       773-3.01981E+06-6.84909E+05-3.77333E+04-1.42666E+06-2.01399E-08 2.27301E-08
 -1       774-2.91280E+06-7.72702E+05-1.69009E+04-1.53158E+06 1.99216E-08-1.09867E-09
 -1       775-3.03383E+06-6.75040E+05-1.24275E+04-1.43235E+06-5.96629E-09 2.47383E-09
 -1       776-2.92283E+06-7.70366E+05-4.68180E+03-1.54815E+06-2.32831E-10-2.59024E-09
 -1       777-3.04590E+06-6.66300E+05-5.41320E+03-1.43737E+06 1.10304E-08 1.76806E-09
 -1       778-2.93334E+06-7.68226E+05-1.54183E+03-1.56235E+06 5.70435E-09 1.00990E-08
 -1       779-3.05622E+06-6.58698E+05-2.68070E+03-1.44166E+06-1.90776E-08-1.24455E-08
 -1       780-2.94259E+06-7.66180E+05-4.46477E+02-1.57391E+06-1.76660E-08 2.56478E-09
 -1       781-3.06441E+06-6.52587E+05-1.03374E+03-1.44502E+06-2.74013E-08 5.94810E-10
 -1       782-2.94970E+06-7.64434E+05 3.78540E+02-1.58244E+06-3.47354E-08-4.46653E-09
 -1       783-3.07016E+06-6.48355E+05 5.93571E+02-1.44738E+06-1.46392E-08-1.56788E-08
 -1       784-2.95362E+06-7.62626E+05 2.43726E+03-1.58769E+06-2.28611E-08 6.16637E-09
 -1       785-3.07355E+06-6.45836E+05 4.30406E+03-1.44888E+06-3.87809E-08 3.71801E-09
 -1       786 1.24725E+05-9.64218E+03 2.23077E+04-2.81867E+02 2.09734E-10-2.65663E-09
 -1       787 1.34399E+05 1.11632E+04 1.57819E+04-1.01786E+02 3.22211E-09 3.29715E-09
 -1       788 1.28455E+05-1.51108E+03 5.77166E+03-2.48617E+02 1.04250E-09 3.72734E-08
 -1       789 1.30053E+05 1.74879E+03 3.62347E+03-1.53225E+02-2.02596E-09 1.20899E-08
 -1       790 1.29071E+05-2.35414E+02 1.46761E+03-2.30443E+02-5.28437E-09 1.18854E-08
 -1       791 1.29333E+05 2.72253E+02 8.48678E+02-1.84423E+02-4.07207E-09 1.53535E-08
 -1       792 1.29175E+05-3.56478E+01 3.61679E+02-2.17421E+02-5.50991E-09 1.92212E-08
 -1       793 1.29209E+05 3.84224E+01 1.84790E+02-2.08940E+02-5.84448E-10 1.13377E-08
 -1       794 1.29195E+05-1.73111E+00 5.70337E+01-2.05926E+02 2.80252E-09-1.03146E-08
 -1       795 1.29176E+05-1.95346E+01-3.28931E+01-2.32942E+02-4.48066E-09 7.62096E-09
 -1       796 1.29208E+05 2.22772E+01-1.19065E+02-1.93419E+02 3.05541E-09-9.92885E-09
 -1       797 1.29103E+05-1.67736E+02-3.38447E+02-2.61659E+02 3.04039E-09-5.50126E-09
 -1       798 1.29268E+05 1.46359E+02-5.52846E+02-1.77208E+02 2.18883E-09-3.34666E-10
 -1       799 1.28682E+05-1.07920E+03-1.52374E+03-3.01599E+02 4.95819E-09 8.56039E-09
 -1       800 1.29629E+05 9.32989E+02-2.15720E+03-1.53480E+02 5.15051E-10 8.60746E-09
 -1       801-1.06348E+05-8.79084E+06-1.19063E+06 1.12900E+06 8.43720E-08-3.84425E-08
 -1       802 5.52536E+05 4.06512E+06 1.70791E+06-1.36325E+06 2.34177E-07-3.40133E-08
 -1       803-4.27010E+05-1.21197E+07-1.52405E+06 7.18849E+05 7.00747E-08 2.33613E-08
 -1       804 2.14772E+05 1.13142E+06 1.20376E+06 5.82762E+05-1.06153E-07-8.06353E-08
 -1       805 1.64574E+05-5.87230E+06-2.32689E+05-8.12395E+05-4.34811E-08-5.62059E-08
 -1       806-2.97146E+05-5.72439E+04-2.19085E+04-1.17468E+05-9.45920E-09 1.77415E-08
 -1       807-2.98910E+05-5.36269E+04-1.07634E+04-1.22735E+05 5.81190E-09 5.73900E-09
 -1       808-2.97744E+05-4.93520E+04-4.56621E+03-1.21205E+05-4.32465E-09-1.34221E-08
 -1       809-2.96649E+05-5.06010E+04-2.23277E+03-1.22997E+05-1.33612E-08 6.89761E-09
 -1       810-2.97834E+05-4.90772E+04-1.02338E+03-1.21370E+05 4.67799E-09 1.63300E-09
 -1       811-2.96474E+05-5.04792E+04-5.08927E+02-1.22964E+05 4.22870E-09-1.50560E-08
 -1       812-2.97848E+05-4.91007E+04-2.57385E+02-1.21370E+05-4.58567E-09 1.98770E-09
 -1       813-2.96451E+05-5.04811E+04-1.67306E+02-1.22946E+05 2.41016E-09-1.01295E-08
 -1       814-2.97842E+05-4.91097E+04-1.65797E+02-1.21366E+05 3.23507E-09-7.94307E-09
 -1       815-2.96455E+05-5.04831E+04-2.67226E+02-1.22939E+05-7.65340E-10-7.90010E-09
 -1       816-2.97823E+05-4.91085E+04-5.06446E+02-1.21363E+05 5.58884E-09 3.97449E-09
 -1       817-2.96541E+05-5.05313E+04-1.08705E+03-1.22929E+05-1.64218E-08 2.18392E-09
 -1       818-2.97757E+05-4.92614E+04-2.21713E+03-1.21291E+05-1.31804E-08-1.08625E-08
 -1       819-2.97755E+05-5.18711E+04-5.21698E+03-1.22643E+05-1.57161E-08-1.43880E-08
 -1       820-2.97341E+05-5.32007E+04-1.06183E+04-1.19606E+05-5.98084E-09 4.25712E-09
 -1       821-3.66983E+05 2.02204E+04-4.68747E+04 1.51500E+03 1.08694E-08-2.77487E-08
 -1       822-3.86843E+05-2.34136E+04-3.30912E+04-2.94282E+03 2.53683E-09-9.35552E-09
 -1       823-3.74581E+05 3.17698E+03-1.21261E+04 2.21190E+03-8.48159E-09 9.69976E-10
 -1       824-3.77829E+05-3.66979E+03-7.61320E+03-3.28391E+03 1.33608E-09-6.41739E-09
 -1       825-3.75996E+05 4.93782E+02-3.15878E+03 1.85614E+03 1.29300E-08 3.52532E-09
 -1       826-3.75950E+05-5.68837E+02-1.80224E+03-1.71512E+03 1.69299E-08 7.16270E-09
 -1       827-3.76449E+05 7.02263E+01-1.05338E+03 6.43051E+02 7.62626E-09 5.49196E-09
 -1       828-3.75586E+05-1.59462E+02-7.47296E+02 9.16965E+02-1.73524E-09-1.00933E-08
 -1       829-3.76356E+05 8.14561E+01-1.05655E+03-7.75978E+02 1.85845E-09 1.37193E-08
 -1       830-3.76159E+05-6.07168E+02-1.90888E+03 3.19482E+03-3.83125E-11 2.44271E-08
 -1       831-3.75885E+05 5.25235E+02-3.25364E+03-1.63484E+03-3.60645E-09-4.64729E-09
 -1       832-3.77916E+05-3.82189E+03-7.91002E+03 3.88946E+03-3.03734E-09 1.40451E-08
 -1       833-3.74606E+05 3.29811E+03-1.26074E+04-1.47063E+03-2.11045E-09 9.69430E-09
 -1       834-3.87054E+05-2.43106E+04-3.43224E+04 2.60329E+03-1.47915E-09 1.37834E-09
 -1       835-3.66742E+05 2.09914E+04-4.86976E+04-3.48631E+02 5.17622E-09-2.96131E-09
 -1       836-1.33857E+03 3.53650E+05 2.18209E+04-1.62254E+04-5.70526E-09-1.90767E-09
 -1       837 4.66812E+03 3.60477E+05 1.84969E+04-3.30302E+04-6.23959E-09-4.13456E-09
 -1       838-5.26183E+02 3.55560E+05 1.88915E+04-1.61552E+04-4.96129E-09 3.74712E-09
 -1       839 1.19234E+04 3.65881E+05 3.57817E+04-3.30801E+04-5.06998E-09-1.59974E-09
 -1       840-3.67493E+03 3.48190E+05 5.70780E+04-1.61798E+04-4.90400E-09-7.13170E-09
 -1       856-5.69216E+04 7.95499E+03-2.09633E+04-3.99206E+02 3.81920E-09 1.06866E-08
 -1       857-6.55619E+04-9.34381E+03-1.44312E+04 5.47823E+03 2.25495E-09 2.65914E-09
 -1       858-6.03419E+04 1.11544E+03-5.43961E+03-4.23054E+02 2.15653E-09-4.65252E-09
 -1       859-6.16363E+04-1.30940E+03-3.28291E+03 5.51413E+03-2.71132E-09 1.47670E-08
 -1       860-6.08529E+04 1.56027E+02-1.37644E+03-4.34908E+02 8.69449E-10 7.36389E-09
 -1       861-6.10484E+04-1.83587E+02-7.58419E+02 5.53030E+03 4.51365E-09-1.62972E-08
 -1       862-6.09328E+04 2.10312E+01-3.17692E+02-4.39219E+02-2.34010E-09-6.08640E-09
 -1       863-6.09509E+04-1.95242E+01-1.21238E+02 5.53273E+03-6.19731E-09-1.02404E-08
 -1       864-6.09509E+04-4.32128E+00 3.43849E+01-4.37335E+02-1.33537E-09-3.28087E-09
 -1       865-6.08990E+04 5.56980E+01 2.25415E+02 5.52220E+03-3.55017E-09-1.83810E-08
 -1       866-6.09825E+04-5.42765E+01 4.60640E+02-4.28686E+02-2.26044E-09-2.50321E-09
 -1       867-6.06807E+04 4.48936E+02 1.13793E+03 5.49868E+03-3.21620E-09-1.45707E-08
 -1       868-6.11646E+04-3.90655E+02 1.89187E+03-4.13814E+02-2.20427E-09-3.95573E-09
 -1       869-5.92924E+04 3.25121E+03 5.03897E+03 5.45975E+03 5.37486E-09-1.33109E-08
 -1       870-6.23634E+04-2.78072E+03 7.31242E+03-3.89687E+02-4.00144E-09 6.36783E-09
 -1       871-5.35217E+03-1.92905E+04-1.86365E+04 1.24557E+05-4.62205E-09 5.68980E-09
 -1       872-1.99264E+03-2.35992E+04-7.77919E+03 1.61503E+05-8.69568E-09 1.34310E-08
 -1       873 3.14602E+02-2.15271E+04 6.25282E+02 1.24283E+05-4.53747E-09 1.34763E-08
 -1       874 3.09963E+03-1.91687E+04 9.49438E+03 1.61535E+05-1.01827E-08-1.22920E-08
 -1       875 6.55424E+03-2.37884E+04 2.13710E+04 1.24512E+05-3.78350E-09 1.27420E-09
 -1       876 2.83532E+05 4.79155E+04 1.46286E+04 1.13935E+05 2.65345E-09 1.46429E-09
 -1       877 2.84485E+05 5.10099E+04 7.81220E+03 1.18144E+05 5.03474E-09 8.09257E-09
 -1       878 2.84899E+05 4.62955E+04 3.27293E+03 1.15134E+05-5.00040E-09 8.14589E-09
 -1       879 2.82497E+05 4.90256E+04 1.63074E+03 1.18243E+05 1.71713E-09-1.00923E-08
 -1       880 2.84998E+05 4.62786E+04 7.59551E+02 1.15183E+05-4.88353E-09 1.34035E-08
 -1       881 2.82365E+05 4.89408E+04 4.05536E+02 1.18220E+05-1.28373E-08 3.17950E-08
 -1       882 2.85006E+05 4.62914E+04 2.59312E+02 1.15184E+05-1.52550E-08 6.45279E-09
 -1       883 2.82355E+05 4.89365E+04 2.78564E+02 1.18213E+05-1.35976E-08 8.08856E-09
 -1       884 2.85000E+05 4.62886E+04 4.42943E+02 1.15185E+05-2.87059E-09 1.02947E-08
 -1       885 2.82390E+05 4.89426E+04 8.90445E+02 1.18224E+05-9.00272E-09-1.68757E-09
 -1       886 2.84966E+05 4.62626E+04 1.79460E+03 1.15181E+05-6.65759E-09 4.72824E-09
 -1       887 2.82706E+05 4.91494E+04 3.92004E+03 1.18270E+05 5.34760E-09 2.01641E-08
 -1       888 2.84718E+05 4.63062E+04 7.89899E+03 1.15056E+05-5.32728E-09 7.04676E-09
 -1       889 2.87409E+05 5.40394E+04 1.88693E+04 1.18125E+05 2.07759E-09-5.38739E-09
 -1       890 2.81495E+05 5.01346E+04 3.53417E+04 1.12048E+05 1.33832E-09 7.38328E-09
 -1       891-9.97939E+01-1.57542E+05-1.92546E+03 2.67042E+04-1.29194E-09-1.03535E-08
 -1       892-1.89964E+02-1.58044E+05-2.07018E+03 4.05268E+04 2.08161E-09 1.98224E-09
 -1       893 2.84479E+01-1.57604E+05-2.93343E+03 2.67111E+04-1.60776E-09 1.69985E-08
 -1       894-1.48045E+03-1.59153E+05-6.07275E+03 4.03777E+04 1.54705E-09 4.93810E-09
 -1       895-1.17295E+03-1.56338E+05-1.06947E+04 2.68543E+04 5.21823E-10 2.57842E-09
 -1       956-3.63276E+05-5.21862E+03-1.29302E+04 2.88794E+04 5.31054E-09-1.78120E-08
 -1       957-3.65816E+05-1.82565E+03-6.63702E+03 3.47189E+04 1.40426E-09-1.14828E-08
 -1       958-3.64435E+05-2.13471E+02-2.99073E+03 2.87195E+04-5.60794E-09-5.23187E-10
 -1       959-3.64627E+05-1.10043E+02-1.52721E+03 3.49032E+04 2.06091E-09-1.35451E-08
 -1       960-3.64547E+05-2.61524E+01-7.44722E+02 2.87032E+04 6.62840E-09 3.20938E-09
 -1       961-3.64548E+05-4.07873E+01-3.94935E+02 3.49224E+04 9.02514E-09 2.20341E-08
 -1       962-3.64573E+05-2.79895E+01-2.26179E+02 2.87006E+04 8.00355E-11 8.44693E-09
 -1       963-3.64548E+05-3.71626E+01-1.81711E+02 3.49258E+04-2.29375E-09 3.25826E-09
 -1       964-3.64578E+05-2.48836E+01-2.21088E+02 2.86998E+04-3.68007E-09-1.38987E-08
 -1       965-3.64560E+05-3.41667E+01-3.82486E+02 3.49252E+04-8.03709E-09-2.35536E-09
 -1       966-3.64563E+05-1.69204E+01-7.18655E+02 2.87012E+04-8.01992E-09-8.43079E-09
 -1       967-3.64647E+05-9.46750E+01-1.47400E+03 3.49119E+04-1.17097E-08-9.27798E-09
 -1       968-3.64464E+05-1.91743E+02-2.88543E+03 2.87130E+04-1.32827E-08 9.79674E-09
 -1       969-3.65806E+05-1.74525E+03-6.40575E+03 3.47740E+04-1.04337E-08-1.01545E-08
 -1       970-3.63353E+05-5.01876E+03-1.24785E+04 2.88328E+04-4.16458E-09 3.34603E-09
 -1       971-3.33926E+05-1.67996E+03-9.09908E+03 1.50095E+04 6.62931E-09-1.12263E-09
 -1       972-3.36120E+05-1.23151E+03-4.95527E+03 2.07945E+04 1.19112E-08 1.43609E-08
 -1       973-3.34940E+05-5.24062E+01-2.21943E+03 1.48900E+04-4.15184E-09 1.19583E-08
 -1       974-3.35075E+05-6.78463E+01-1.15038E+03 2.09288E+04-2.05928E-08 1.44162E-08
 -1       975-3.35020E+05-8.67804E+00-5.75252E+02 1.48780E+04-1.89898E-08-6.39545E-09
 -1       976-3.35015E+05-1.92355E+01-3.32269E+02 2.09440E+04-1.18625E-08-2.18668E-08
 -1       977-3.35036E+05-8.05303E+00-2.41858E+02 1.48747E+04-1.33869E-08-1.03574E-08
 -1       978-3.35020E+05-1.32335E+01-2.83981E+02 2.09486E+04-9.94316E-09 7.54653E-09
 -1       979-3.35036E+05 1.04993E-01-4.57091E+02 1.48734E+04-5.63620E-09 2.30671E-09
 -1       980-3.35054E+05-1.02830E+01-8.83101E+02 2.09495E+04-4.80145E-09 4.92503E-09
 -1       981-3.35007E+05 2.21683E+01-1.71063E+03 1.48739E+04 1.72224E-09 1.56566E-08
 -1       982-3.35289E+05-1.36670E+02-3.53599E+03 2.09431E+04 1.50408E-10-1.91913E-08
 -1       983-3.34792E+05-8.73543E+01-6.87053E+03 1.48798E+04 5.07498E-10 2.64322E-09
 -1       984-3.38594E+05-3.72492E+03-1.53862E+04 2.08592E+04 1.03591E-09 1.88553E-08
 -1       985-3.31681E+05-5.11479E+03-2.82539E+04 1.49522E+04-2.54386E-09-1.24910E-08
 -3
    1PSTEP                        25          13           1          
  100CL  113 6.53320E-01         409                     0   13           1
 -4  DISP        4    1
 -5  D1          1    2    1    0
 -5  D2          1    2    2    0
 -5  D3          1    2    3    0
 -5  ALL         1    2    0    0    1ALL
 -1         1 2.37078E-03 0.00000E+00 0.00000E+00
 -1         2 1.56494E-03 2.08880E-27 0.00000E+00
 -1         3 3.28109E-04-5.63715E-28-1.32349E-23
 -1         5 1.71719E-04-2.78893E-27 1.03398E-24
 -1         8 2.35565E-03-4.74663E-07 0.00000E+00
 -1         9 2.32747E-03-6.45167E-05 0.00000E+00
 -1        10 2.97607E-04-3.50429E-06-6.61744E-24
 -1        12 1.73352E-04 7.89656E-07-1.03398E-25
 -1        15 2.33754E-03-5.14857E-07-2.06795E-25
 -1        16 2.36627E-03-6.59115E-05 0.00000E+00
 -1        17 2.03024E-04-7.90688E-06 0.00000E+00
 -1        18 1.76695E-04 3.14699E-05 0.00000E+00
 -1        19 1.78255E-04 1.57348E-06 0.00000E+00
 -1        20 1.78397E-04-7.51836E-06 0.00000E+00
 -1        21 1.77533E-04-2.03966E-05 0.00000E+00
 -1        24 3.00529E-05-1.19452E-05 0.00000E+00
 -1        25 1.86412E-04 3.16879E-05 0.00000E+00
 -1        26 1.87102E-04 2.17946E-06 0.00000E+00
 -1        27 1.84955E-04-1.10017E-05 0.00000E+00
 -1        28 1.84626E-04-2.10085E-05 0.00000E+00
 -1        32 0.00000E+00 0.00000E+00 0.00000E+00
 -1        33 1.94931E-04 2.91631E-06 0.00000E+00
 -1        34 1.92857E-04-1.10541E-05 0.00000E+00
 -1        35 1.90960E-04-2.13441E-05 0.00000E+00
 -1        51 2.36980E-03-9.31678E-08 0.00000E+00
 -1        52 2.36798E-03-1.70123E-07 0.00000E+00
 -1        53 2.36549E-03-2.44517E-07 0.00000E+00
 -1        54 2.36249E-03-3.18544E-07 0.00000E+00
 -1        55 2.35915E-03-3.93850E-07 2.06795E-25
 -1        56 2.36625E-03 1.43940E-06 5.29396E-23
 -1        57 2.35964E-03 7.92919E-06-5.29396E-23
 -1        58 2.35163E-03 1.80706E-05 0.00000E+00
 -1        59 2.34287E-03 3.00916E-05 0.00000E+00
 -1        60 2.33418E-03 4.19295E-05-1.05879E-22
 -1        61 2.32635E-03 5.15264E-05-5.29396E-23
 -1        62 2.32003E-03 5.72002E-05 0.00000E+00
 -1        63 2.31572E-03 5.75924E-05 5.29396E-23
 -1        64 2.31356E-03 5.22324E-05 0.00000E+00
 -1        65 2.31350E-03 4.11332E-05 5.29396E-23
 -1        66 2.31517E-03 2.52809E-05 1.05879E-22
 -1        67 2.31804E-03 6.06805E-06 0.00000E+00
 -1        68 2.32141E-03-1.45402E-05 0.00000E+00
 -1        69 2.32456E-03-3.44509E-05-5.29396E-23
 -1        70 2.32675E-03-5.17039E-05-5.29396E-23
 -1        86 1.61218E-03-2.58777E-06 0.00000E+00
 -1        87 1.75097E-03-1.34054E-05-1.32349E-23
 -1        88 1.93783E-03-3.14170E-05 2.64698E-23
 -1        89 2.12717E-03-4.98911E-05-1.32349E-23
 -1        90 2.27208E-03-6.15174E-05-2.64698E-23
 -1       121 3.27253E-04-5.67864E-07 1.32349E-23
 -1       122 3.24686E-04-1.13855E-06 0.00000E+00
 -1       123 3.20418E-04-1.71481E-06 0.00000E+00
 -1       124 3.14466E-04-2.29945E-06-6.61744E-24
 -1       125 3.06852E-04-2.89485E-06 1.32349E-23
 -1       191 1.71764E-04 1.31660E-07-2.48154E-24
 -1       192 1.71900E-04 2.63311E-07-1.03398E-25
 -1       193 1.72127E-04 3.94946E-07 2.48154E-24
 -1       194 1.72445E-04 5.26556E-07 0.00000E+00
 -1       195 1.72853E-04 6.58129E-07 4.13590E-25
 -1       251 2.35498E-03 1.48242E-05 1.32349E-23
 -1       252 2.35366E-03 5.43017E-05-6.61744E-24
 -1       253 2.35160E-03 1.10461E-04 0.00000E+00
 -1       254 2.34903E-03 1.75427E-04-6.61744E-24
 -1       255 2.34654E-03 2.38983E-04 0.00000E+00
 -1       256 2.34469E-03 2.90942E-04 0.00000E+00
 -1       257 2.34358E-03 3.24197E-04 1.32349E-23
 -1       258 2.34298E-03 3.32061E-04 0.00000E+00
 -1       259 2.34225E-03 3.14374E-04 0.00000E+00
 -1       260 2.34080E-03 2.71575E-04 0.00000E+00
 -1       261 2.33846E-03 2.10562E-04 0.00000E+00
 -1       262 2.33542E-03 1.38637E-04 0.00000E+00
 -1       263 2.33234E-03 6.60022E-05 0.00000E+00
 -1       264 2.32987E-03 2.87571E-06-6.61744E-24
 -1       265 2.32828E-03-4.30649E-05-2.64698E-23
 -1       266 2.35263E-03-4.88321E-07 3.30872E-24
 -1       267 2.34961E-03-4.94172E-07 8.27181E-25
 -1       268 2.34659E-03-5.00517E-07-8.27181E-25
 -1       269 2.34357E-03-5.05398E-07 0.00000E+00
 -1       270 2.34055E-03-5.10244E-07 0.00000E+00
 -1       271 2.35392E-03 1.94430E-06 0.00000E+00
 -1       272 2.35242E-03 3.64621E-06 0.00000E+00
 -1       273 2.35122E-03 4.57922E-06 0.00000E+00
 -1       274 2.35033E-03 4.68817E-06-1.32349E-23
 -1       275 2.34975E-03 3.92885E-06 0.00000E+00
 -1       276 2.34952E-03 2.26383E-06 0.00000E+00
 -1       277 2.34964E-03-3.35060E-07 2.64698E-23
 -1       278 2.35011E-03-3.88736E-06 0.00000E+00
 -1       279 2.35093E-03-8.40323E-06-2.64698E-23
 -1       280 2.35212E-03-1.38837E-05 0.00000E+00
 -1       281 2.35365E-03-2.03202E-05-2.64698E-23
 -1       282 2.35553E-03-2.76954E-05 1.32349E-23
 -1       283 2.35775E-03-3.59823E-05 0.00000E+00
 -1       284 2.36029E-03-4.51450E-05 0.00000E+00
 -1       285 2.36313E-03-5.51402E-05 0.00000E+00
 -1       301 2.33459E-03-6.47758E-05 6.61744E-24
 -1       302 2.34032E-03-6.49978E-05 0.00000E+00
 -1       303 2.34550E-03-6.52141E-05 0.00000E+00
 -1       304 2.35099E-03-6.54308E-05 0.00000E+00
 -1       305 2.35763E-03-6.56562E-05 0.00000E+00
 -1       306 2.36277E-03-2.05159E-04-1.05879E-22
 -1       307 2.42730E-03-5.90966E-04-5.29396E-23
 -1       308 2.48050E-03-1.15999E-03 0.00000E+00
 -1       309 2.51419E-03-1.82420E-03 5.29396E-23
 -1       310 2.55264E-03-2.46627E-03 0.00000E+00
 -1       311 2.61372E-03-2.97088E-03 0.00000E+00
 -1       312 2.67304E-03-3.26131E-03-1.05879E-22
 -1       313 2.67813E-03-3.29696E-03 0.00000E+00
 -1       314 2.56391E-03-3.08559E-03-1.05879E-22
 -1       315 2.29141E-03-2.68150E-03 5.29396E-23
 -1       316 1.87471E-03-2.15570E-03 0.00000E+00
 -1       317 1.37034E-03-1.57557E-03-5.29396E-23
 -1       318 8.80216E-04-1.00396E-03 0.00000E+00
 -1       319 5.02007E-04-5.06283E-04 5.29396E-23
 -1       320 2.77303E-04-1.51773E-04-1.05879E-22
 -1       336 2.86552E-04-4.17628E-06-1.32349E-23
 -1       337 2.73522E-04-4.87168E-06-6.61744E-24
 -1       338 2.58577E-04-5.59235E-06 0.00000E+00
 -1       339 2.41791E-04-6.33881E-06 0.00000E+00
 -1       340 2.23243E-04-7.11527E-06 1.32349E-23
 -1       406 1.73942E-04 9.21119E-07-2.48154E-24
 -1       407 1.74623E-04 1.05248E-06-3.10193E-25
 -1       408 1.75395E-04 1.18371E-06-2.06795E-25
 -1       409 1.76258E-04 1.31461E-06-9.30578E-25
 -1       410 1.77211E-04 1.44494E-06 8.27181E-25
 -1       521 2.40233E-03-2.15567E-04 1.05879E-22
 -1       522 2.46568E-03-6.20593E-04 0.00000E+00
 -1       523 2.51365E-03-1.21598E-03 0.00000E+00
 -1       524 2.53952E-03-1.90749E-03 5.29396E-23
 -1       525 2.57109E-03-2.57508E-03 1.05879E-22
 -1       526 2.62901E-03-3.10094E-03 0.00000E+00
 -1       527 2.68798E-03-3.40231E-03 0.00000E+00
 -1       528 2.69144E-03-3.43750E-03 5.29396E-23
 -1       529 2.56756E-03-3.21388E-03-2.11758E-22
 -1       530 2.27499E-03-2.79242E-03 5.29396E-23
 -1       531 1.82816E-03-2.24756E-03 1.05879E-22
 -1       532 1.28907E-03-1.64959E-03 5.29396E-23
 -1       533 7.64463E-04-1.05964E-03 1.05879E-22
 -1       534 3.56756E-04-5.41537E-04 0.00000E+00
 -1       535 1.13024E-04-1.68456E-04 1.05879E-22
 -1       536 2.02323E-04 2.54065E-05 6.61744E-24
 -1       537 2.00560E-04 8.31662E-05 3.30872E-24
 -1       538 1.97839E-04 1.56491E-04 0.00000E+00
 -1       539 1.94632E-04 2.36418E-04 1.65436E-24
 -1       540 1.91744E-04 3.11948E-04 0.00000E+00
 -1       541 1.89862E-04 3.72104E-04-1.65436E-24
 -1       542 1.88989E-04 4.10392E-04 0.00000E+00
 -1       543 1.88773E-04 4.20464E-04 0.00000E+00
 -1       544 1.88464E-04 4.03073E-04-3.30872E-24
 -1       545 1.87373E-04 3.59181E-04 0.00000E+00
 -1       546 1.85354E-04 2.96598E-04-3.30872E-24
 -1       547 1.82629E-04 2.23251E-04-1.65436E-24
 -1       548 1.79931E-04 1.50300E-04 0.00000E+00
 -1       549 1.77983E-04 8.89065E-05-1.65436E-24
 -1       550 1.76967E-04 4.67702E-05 0.00000E+00
 -1       551 1.78962E-04-8.45580E-06 0.00000E+00
 -1       552 1.51744E-04-9.07877E-06 0.00000E+00
 -1       553 1.22301E-04-9.75928E-06 1.15805E-23
 -1       554 9.15751E-05-1.04776E-05 0.00000E+00
 -1       555 6.05125E-05-1.12078E-05 0.00000E+00
 -1       556 1.95760E-04 1.06856E-05 0.00000E+00
 -1       557 1.89901E-04 2.57398E-05 2.64698E-23
 -1       558 1.85316E-04 3.75331E-05 0.00000E+00
 -1       559 1.81878E-04 4.63648E-05 0.00000E+00
 -1       560 1.79464E-04 5.25346E-05 0.00000E+00
 -1       561 1.77949E-04 5.63446E-05 0.00000E+00
 -1       562 1.77213E-04 5.80979E-05 0.00000E+00
 -1       563 1.77138E-04 5.80986E-05 0.00000E+00
 -1       564 1.77605E-04 5.66517E-05 0.00000E+00
 -1       565 1.78499E-04 5.40626E-05 0.00000E+00
 -1       566 1.79705E-04 5.06372E-05 0.00000E+00
 -1       567 1.81107E-04 4.66820E-05-6.61744E-24
 -1       568 1.82593E-04 4.25034E-05-8.27181E-25
 -1       569 1.84048E-04 3.84080E-05 0.00000E+00
 -1       570 1.85358E-04 3.47022E-05 0.00000E+00
 -1       571 1.76789E-04 2.95314E-05-8.27181E-25
 -1       572 1.76886E-04 2.75292E-05 1.24077E-24
 -1       573 1.76983E-04 2.54785E-05-1.65436E-24
 -1       574 1.77080E-04 2.33950E-05 1.65436E-24
 -1       575 1.77178E-04 2.12943E-05 3.30872E-24
 -1       576 1.77275E-04 1.91922E-05 3.30872E-24
 -1       577 1.77373E-04 1.71046E-05 3.30872E-24
 -1       578 1.77470E-04 1.50473E-05 0.00000E+00
 -1       579 1.77568E-04 1.30360E-05-6.61744E-24
 -1       580 1.77666E-04 1.10867E-05 0.00000E+00
 -1       581 1.77763E-04 9.21522E-06-6.61744E-24
 -1       582 1.77861E-04 7.43727E-06-3.30872E-24
 -1       583 1.77960E-04 5.76868E-06 0.00000E+00
 -1       584 1.78058E-04 4.22508E-06-3.30872E-24
 -1       585 1.78156E-04 2.82196E-06 6.61744E-24
 -1       586 1.78272E-04 3.15083E-05 0.00000E+00
 -1       587 1.79809E-04 3.15462E-05 0.00000E+00
 -1       588 1.81350E-04 3.15837E-05-8.27181E-25
 -1       589 1.82935E-04 3.16205E-05 0.00000E+00
 -1       590 1.84609E-04 3.16561E-05 0.00000E+00
 -1       591 1.77357E-04 2.96203E-05 0.00000E+00
 -1       592 1.78022E-04 2.77499E-05-2.06795E-25
 -1       593 1.78692E-04 2.58646E-05 0.00000E+00
 -1       594 1.79366E-04 2.39693E-05-4.13590E-25
 -1       595 1.80042E-04 2.20687E-05-8.27181E-25
 -1       596 1.80718E-04 2.01676E-05 0.00000E+00
 -1       597 1.81392E-04 1.82707E-05 0.00000E+00
 -1       598 1.82063E-04 1.63830E-05-4.13590E-25
 -1       599 1.82729E-04 1.45090E-05 0.00000E+00
 -1       600 1.83388E-04 1.26536E-05 0.00000E+00
 -1       601 1.84038E-04 1.08216E-05 0.00000E+00
 -1       602 1.84677E-04 9.01762E-06-2.06795E-25
 -1       603 1.85305E-04 7.24651E-06 4.13590E-25
 -1       604 1.85919E-04 5.51313E-06 7.75482E-26
 -1       605 1.86517E-04 3.82215E-06-4.13590E-25
 -1       606 1.78268E-04 5.51922E-07 0.00000E+00
 -1       607 1.78278E-04-3.82530E-07 0.00000E+00
 -1       608 1.78287E-04-1.23498E-06 0.00000E+00
 -1       609 1.78295E-04-2.01121E-06 1.65436E-24
 -1       610 1.78304E-04-2.71702E-06-3.30872E-24
 -1       611 1.78312E-04-3.35830E-06 0.00000E+00
 -1       612 1.78321E-04-3.94092E-06 0.00000E+00
 -1       613 1.78329E-04-4.47081E-06 0.00000E+00
 -1       614 1.78338E-04-4.95384E-06 0.00000E+00
 -1       615 1.78346E-04-5.39590E-06 0.00000E+00
 -1       616 1.78355E-04-5.80291E-06 0.00000E+00
 -1       617 1.78364E-04-6.18075E-06 0.00000E+00
 -1       618 1.78372E-04-6.53532E-06 0.00000E+00
 -1       619 1.78381E-04-6.87252E-06-2.06795E-25
 -1       620 1.78389E-04-7.19824E-06 2.06795E-25
 -1       621 1.79463E-04 1.67498E-06 1.65436E-24
 -1       622 1.80819E-04 1.77674E-06 0.00000E+00
 -1       623 1.82292E-04 1.87832E-06-1.65436E-24
 -1       624 1.83851E-04 1.97959E-06 8.27181E-25
 -1       625 1.85465E-04 2.08059E-06 0.00000E+00
 -1       626 1.78748E-04 5.87201E-07-3.30872E-24
 -1       627 1.79217E-04-3.34316E-07 0.00000E+00
 -1       628 1.79666E-04-1.19893E-06 0.00000E+00
 -1       629 1.80096E-04-2.01482E-06 0.00000E+00
 -1       630 1.80511E-04-2.79021E-06-3.30872E-24
 -1       631 1.80914E-04-3.53333E-06 1.65436E-24
 -1       632 1.81308E-04-4.25241E-06-3.30872E-24
 -1       633 1.81697E-04-4.95569E-06 0.00000E+00
 -1       634 1.82082E-04-5.65141E-06 3.30872E-24
 -1       635 1.82468E-04-6.34779E-06 0.00000E+00
 -1       636 1.82857E-04-7.05308E-06 3.30872E-24
 -1       637 1.83252E-04-7.77551E-06 0.00000E+00
 -1       638 1.83657E-04-8.52331E-06-1.65436E-24
 -1       639 1.84074E-04-9.30476E-06-8.27181E-25
 -1       640 1.84506E-04-1.01281E-05 3.30872E-24
 -1       656 1.78949E-04-8.08457E-06 6.61744E-24
 -1       657 1.79917E-04-8.67376E-06 0.00000E+00
 -1       658 1.81163E-04-9.26154E-06 0.00000E+00
 -1       659 1.82540E-04-9.84898E-06 0.00000E+00
 -1       660 1.83864E-04-1.04382E-05 0.00000E+00
 -1       661 1.78604E-04-7.88219E-06 0.00000E+00
 -1       662 1.78847E-04-8.33517E-06-8.27181E-25
 -1       663 1.79122E-04-8.87230E-06 0.00000E+00
 -1       664 1.79427E-04-9.48737E-06 0.00000E+00
 -1       665 1.79759E-04-1.01748E-05 0.00000E+00
 -1       666 1.80116E-04-1.09290E-05-8.27181E-25
 -1       667 1.80496E-04-1.17445E-05-1.65436E-24
 -1       668 1.80897E-04-1.26160E-05 0.00000E+00
 -1       669 1.81317E-04-1.35383E-05-1.65436E-24
 -1       670 1.81754E-04-1.45065E-05-8.27181E-25
 -1       671 1.82206E-04-1.55155E-05-1.65436E-24
 -1       672 1.82671E-04-1.65605E-05 0.00000E+00
 -1       673 1.83148E-04-1.76367E-05 1.65436E-24
 -1       674 1.83635E-04-1.87398E-05-8.27181E-25
 -1       675 1.84129E-04-1.98646E-05 0.00000E+00
 -1       676 1.78719E-04-2.04992E-05-3.30872E-24
 -1       677 1.79905E-04-2.06017E-05 0.00000E+00
 -1       678 1.81089E-04-2.07042E-05 0.00000E+00
 -1       679 1.82271E-04-2.08064E-05 0.00000E+00
 -1       680 1.83450E-04-2.09085E-05 0.00000E+00
 -1       771 1.86416E-05 1.35056E-05 0.00000E+00
 -1       772 9.03048E-06 3.44099E-05 0.00000E+00
 -1       773 1.13342E-06 5.09884E-05-5.29396E-23
 -1       774-5.16717E-06 6.34878E-05 2.64698E-23
 -1       775-9.98646E-06 7.21646E-05 5.29396E-23
 -1       776-1.34443E-05 7.72910E-05 0.00000E+00
 -1       777-1.56604E-05 7.91485E-05 0.00000E+00
 -1       778-1.67569E-05 7.80316E-05-2.64698E-23
 -1       779-1.68556E-05 7.42427E-05 5.29396E-23
 -1       780-1.60802E-05 6.80948E-05 0.00000E+00
 -1       781-1.45535E-05 5.99073E-05 0.00000E+00
 -1       782-1.23999E-05 5.00079E-05 0.00000E+00
 -1       783-9.74315E-06 3.87284E-05 5.29396E-23
 -1       784-6.70799E-06 2.64065E-05-2.64698E-23
 -1       785-3.41840E-06 1.33828E-05 0.00000E+00
 -1       786 1.86451E-04 2.96188E-05-2.58494E-26
 -1       787 1.86493E-04 2.75992E-05 0.00000E+00
 -1       788 1.86536E-04 2.56208E-05-8.27181E-25
 -1       789 1.86579E-04 2.36755E-05-8.27181E-25
 -1       790 1.86622E-04 2.17587E-05 0.00000E+00
 -1       791 1.86665E-04 1.98656E-05 8.27181E-25
 -1       792 1.86709E-04 1.79941E-05 1.65436E-24
 -1       793 1.86752E-04 1.61421E-05-8.27181E-25
 -1       794 1.86796E-04 1.43092E-05 1.65436E-24
 -1       795 1.86839E-04 1.24955E-05 0.00000E+00
 -1       796 1.86883E-04 1.07027E-05 1.65436E-24
 -1       797 1.86926E-04 8.93276E-06 0.00000E+00
 -1       798 1.86970E-04 7.18988E-06 0.00000E+00
 -1       799 1.87014E-04 5.47836E-06 8.27181E-25
 -1       800 1.87058E-04 3.80568E-06 0.00000E+00
 -1       801 1.43129E-04 2.84364E-05 0.00000E+00
 -1       802 1.21472E-05 1.78287E-05 2.64698E-23
 -1       803-1.00169E-04 9.05955E-06 0.00000E+00
 -1       804-8.95554E-05 6.28150E-06-2.64698E-23
 -1       805-2.96733E-05 2.51445E-06-5.29396E-23
 -1       806 1.87075E-04 2.95518E-05 3.30872E-24
 -1       807 1.87725E-04 2.74419E-05 1.65436E-24
 -1       808 1.88362E-04 2.53632E-05 0.00000E+00
 -1       809 1.88985E-04 2.33195E-05 0.00000E+00
 -1       810 1.89594E-04 2.13149E-05 0.00000E+00
 -1       811 1.90187E-04 1.93531E-05-1.65436E-24
 -1       812 1.90762E-04 1.74379E-05 3.30872E-24
 -1       813 1.91319E-04 1.55730E-05 0.00000E+00
 -1       814 1.91855E-04 1.37623E-05 0.00000E+00
 -1       815 1.92370E-04 1.20094E-05-8.27181E-25
 -1       816 1.92862E-04 1.03181E-05-1.65436E-24
 -1       817 1.93329E-04 8.69214E-06 8.27181E-25
 -1       818 1.93771E-04 7.13529E-06-1.65436E-24
 -1       819 1.94186E-04 5.65126E-06 8.27181E-25
 -1       820 1.94572E-04 4.24372E-06 0.00000E+00
 -1       821 1.86975E-04 1.37587E-07 0.00000E+00
 -1       822 1.86839E-04-2.77753E-06 1.65436E-24
 -1       823 1.86702E-04-6.22364E-06-3.30872E-24
 -1       824 1.86562E-04-9.85519E-06 1.65436E-24
 -1       825 1.86423E-04-1.32773E-05-3.30872E-24
 -1       826 1.86286E-04-1.60964E-05 0.00000E+00
 -1       827 1.86151E-04-1.80805E-05 0.00000E+00
 -1       828 1.86017E-04-1.90033E-05 0.00000E+00
 -1       829 1.85883E-04-1.89228E-05-3.30872E-24
 -1       830 1.85749E-04-1.79036E-05 0.00000E+00
 -1       831 1.85614E-04-1.62620E-05-3.30872E-24
 -1       832 1.85479E-04-1.43181E-05 0.00000E+00
 -1       833 1.85344E-04-1.24734E-05 0.00000E+00
 -1       834 1.85212E-04-1.11285E-05 0.00000E+00
 -1       835 1.85079E-04-1.05505E-05-8.27181E-25
 -1       836 1.88614E-04 2.30170E-06 3.30872E-24
 -1       837 1.90001E-04 2.42698E-06 0.00000E+00
 -1       838 1.91295E-04 2.55219E-06 0.00000E+00
 -1       839 1.92526E-04 2.67669E-06 0.00000E+00
 -1       840 1.93728E-04 2.80104E-06 0.00000E+00
 -1       856 1.84938E-04-1.18973E-05 8.27181E-25
 -1       857 1.84918E-04-1.26592E-05 0.00000E+00
 -1       858 1.84898E-04-1.33080E-05 0.00000E+00
 -1       859 1.84877E-04-1.38648E-05 2.06795E-25
 -1       860 1.84857E-04-1.43504E-05-4.13590E-25
 -1       861 1.84836E-04-1.47859E-05 0.00000E+00
 -1       862 1.84815E-04-1.51922E-05 0.00000E+00
 -1       863 1.84795E-04-1.55905E-05 4.13590E-25
 -1       864 1.84774E-04-1.60018E-05 0.00000E+00
 -1       865 1.84753E-04-1.64471E-05 4.13590E-25
 -1       866 1.84733E-04-1.69476E-05 0.00000E+00
 -1       867 1.84712E-04-1.75241E-05 0.00000E+00
 -1       868 1.84691E-04-1.81977E-05 0.00000E+00
 -1       869 1.84670E-04-1.89891E-05 4.13590E-25
 -1       870 1.84648E-04-1.99191E-05 0.00000E+00
 -1       871 1.86132E-04-1.10061E-05 0.00000E+00
 -1       872 1.87454E-04-1.10138E-05 0.00000E+00
 -1       873 1.88854E-04-1.10222E-05 0.00000E+00
 -1       874 1.90265E-04-1.10313E-05-2.32645E-25
 -1       875 1.91622E-04-1.10410E-05 8.27181E-25
 -1       876 1.85416E-04-1.18831E-05 3.30872E-24
 -1       877 1.85855E-04-1.26987E-05 0.00000E+00
 -1       878 1.86272E-04-1.34565E-05 0.00000E+00
 -1       879 1.86671E-04-1.41635E-05 0.00000E+00
 -1       880 1.87054E-04-1.48273E-05 0.00000E+00
 -1       881 1.87424E-04-1.54550E-05 0.00000E+00
 -1       882 1.87782E-04-1.60538E-05 0.00000E+00
 -1       883 1.88133E-04-1.66311E-05 1.65436E-24
 -1       884 1.88478E-04-1.71941E-05 3.30872E-24
 -1       885 1.88820E-04-1.77499E-05 1.65436E-24
 -1       886 1.89163E-04-1.83059E-05 0.00000E+00
 -1       887 1.89508E-04-1.88693E-05-1.65436E-24
 -1       888 1.89858E-04-1.94473E-05 0.00000E+00
 -1       889 1.90216E-04-2.00473E-05 0.00000E+00
 -1       890 1.90584E-04-2.06765E-05 1.65436E-24
 -1       891 1.85822E-04-2.10649E-05-1.65436E-24
 -1       892 1.86995E-04-2.11214E-05 8.27181E-25
 -1       893 1.88121E-04-2.11778E-05 8.27181E-25
 -1       894 1.89173E-04-2.12340E-05 4.13590E-25
 -1       895 1.90128E-04-2.12899E-05 0.00000E+00
 -1       956 1.94803E-04 1.75862E-06-1.65436E-24
 -1       957 1.94673E-04 6.89731E-07-8.27181E-25
 -1       958 1.94544E-04-3.00720E-07 0.00000E+00
 -1       959 1.94414E-04-1.22369E-06-1.65436E-24
 -1       960 1.94284E-04-2.09020E-06-3.30872E-24
 -1       961 1.94153E-04-2.91126E-06-1.65436E-24
 -1       962 1.94023E-04-3.69792E-06-3.30872E-24
 -1       963 1.93893E-04-4.46125E-06 0.00000E+00
 -1       964 1.93763E-04-5.21231E-06 0.00000E+00
 -1       965 1.93633E-04-5.96215E-06 0.00000E+00
 -1       966 1.93503E-04-6.72184E-06 3.30872E-24
 -1       967 1.93373E-04-7.50244E-06 1.65436E-24
 -1       968 1.93243E-04-8.31499E-06 0.00000E+00
 -1       969 1.93114E-04-9.17052E-06-1.65436E-24
 -1       970 1.92984E-04-1.00800E-05 0.00000E+00
 -1       971 1.92739E-04-1.20259E-05 0.00000E+00
 -1       972 1.92620E-04-1.29040E-05 0.00000E+00
 -1       973 1.92501E-04-1.36988E-05-3.30872E-24
 -1       974 1.92382E-04-1.44208E-05 0.00000E+00
 -1       975 1.92263E-04-1.50810E-05 3.30872E-24
 -1       976 1.92143E-04-1.56900E-05 1.65436E-24
 -1       977 1.92024E-04-1.62587E-05 0.00000E+00
 -1       978 1.91905E-04-1.67979E-05 1.65436E-24
 -1       979 1.91786E-04-1.73183E-05-3.30872E-24
 -1       980 1.91667E-04-1.78308E-05-1.65436E-24
 -1       981 1.91548E-04-1.83461E-05 0.00000E+00
 -1       982 1.91429E-04-1.88752E-05 0.00000E+00
 -1       983 1.91310E-04-1.94288E-05 3.30872E-24
 -1       984 1.91192E-04-2.00176E-05-1.65436E-24
 -1       985 1.91074E-04-2.06526E-05 3.30872E-24
 -3
    1PSTEP                        26          13           1          
  100CL  113 6.53320E-01         409                     0   13           1
 -4  STRESS      6    1
 -5  SXX         1    4    1    1
 -5  SYY         1    4    2    2
 -5  SZZ         1    4    3    3
 -5  SXY         1    4    1    2
 -5  SYZ         1    4    2    3
 -5  SZX         1    4    3    1
 -1         1-4.75837E+06-1.69779E+06-1.03950E+06-1.61025E+06-1.45519E-11-1.80589E-07
 -1         2 4.13407E+05 4.95557E+06 1.60404E+06 1.94726E+06 1.43700E-08-3.31711E-08
 -1         3-1.35354E+03-1.61352E+06 4.09967E+02-2.18442E+03-3.58241E-10-2.09584E-08
 -1         5-5.91334E+01 3.76961E+05 9.73669E+00-1.13371E+00-4.20263E-10-1.93741E-08
 -1         8-6.91154E+05-2.25702E+05-7.46482E+04-2.51673E+05 2.83762E-10-3.10501E-08
 -1         9 9.47095E+06 6.59594E+05 1.82816E+06-9.66803E+05 1.27009E-08 2.56812E-08
 -1        10-2.21733E+03-1.68142E+06-3.95405E+03-1.47661E+04-1.25510E-08-3.70690E-08
 -1        12-5.52704E+01 3.76982E+05 3.19102E+02-7.80561E+00-6.87891E-10 2.43781E-08
 -1        15 1.15317E+03 6.33727E+02 3.72760E+03 1.50581E+00-1.33710E-10-3.70485E-08
 -1        16 1.99008E+07-1.84415E+05 2.77090E+06-1.72042E+06 6.67448E-09 2.90340E-07
 -1        17 7.20138E+06 5.25434E+06 1.94189E+06 5.10249E+06 1.64204E-08 2.93832E-08
 -1        18 1.26057E+05 2.90987E+04 9.18602E+02-1.15546E+05 1.34394E-08 4.69572E-09
 -1        19 1.19637E+05 1.38360E+05-9.26780E+02 2.16629E+04 1.47338E-09-5.82040E-09
 -1        20-7.84121E+04-5.61209E+05-1.25808E+05 2.55632E+04-1.53629E-09 1.30858E-08
 -1        21-4.52968E+01-2.91706E+05-9.12567E+02 2.37313E+02 1.45442E-08-1.36107E-09
 -1        24 1.18776E+07 1.01600E+07 3.32454E+06 9.44094E+06-1.50244E-07-4.53244E-08
 -1        25 9.65204E+04 1.62814E+05 7.32575E+04-5.83725E+05-9.72796E-10 1.34967E-08
 -1        26-5.38678E+04 8.99891E+04-2.40982E+04 6.68092E+02 3.13230E-10 1.23934E-08
 -1        27-7.51607E+04-3.03524E+05-1.11210E+05 6.75684E+04 4.14669E-09-1.37406E-08
 -1        28 2.19740E+04-8.38802E+04 1.66434E+04 2.06600E+04-3.04368E-09-6.23422E-09
 -1        32-1.65344E+06-3.07725E+06-1.84067E+05 3.46114E+05-4.05926E-08-7.06848E-09
 -1        33-1.75002E+05 9.07091E+04 3.16663E+04-3.80761E+04-2.74895E-09 3.24629E-09
 -1        34-2.19387E+05-2.43463E+04 6.67588E+02 7.37751E+04-4.28525E-09 1.07464E-08
 -1        35-2.26253E+04-3.32688E+04-1.32422E+03 5.07563E+04-1.86581E-09-1.16427E-08
 -1        51 5.36365E+04-1.96503E+05 1.15046E+05-5.72984E+05-1.45519E-11 4.28045E-08
 -1        52 1.89145E+04-1.77451E+05 6.14762E+04-6.68046E+05 1.45519E-10 1.19471E-08
 -1        53 4.78191E+03-1.92951E+05 3.37864E+04-5.70903E+05 7.82165E-10-7.38364E-08
 -1        54 1.01262E+04-1.89129E+05 3.13479E+04-6.70192E+05 3.85626E-10-1.74856E-07
 -1        55 2.15305E+04-1.97885E+05 4.23240E+04-5.70640E+05 6.03904E-10-2.46862E-07
 -1        56-8.87540E+06-1.04268E+06-7.73566E+05-3.51738E+06-4.66389E-08-7.22939E-08
 -1        57-9.50194E+06-1.39789E+06-5.17238E+05-3.10423E+06 8.38190E-09-1.89495E-07
 -1        58-8.95692E+06-1.34929E+06-1.80816E+05-3.54048E+06 1.07138E-08-2.39139E-07
 -1        59-9.39912E+06-1.04638E+06-1.07164E+05-3.09780E+06-6.70912E-08-2.18621E-07
 -1        60-8.98219E+06-1.38126E+06-4.23757E+04-3.53134E+06-1.41617E-08-3.42625E-08
 -1        61-9.28906E+06-1.07559E+06-2.13155E+04-3.17313E+06-9.60517E-09-1.84868E-07
 -1        62-9.05811E+06-1.32458E+06-1.53807E+04-3.45915E+06-4.55002E-08-1.74086E-07
 -1        63-9.10813E+06-1.23163E+06-4.68865E+03-3.34633E+06 2.37560E-08 1.84209E-08
 -1        64-9.15356E+06-1.23162E+06-1.53159E+04-3.35132E+06-1.17834E-08 1.52013E-08
 -1        65-8.95237E+06-1.40447E+06-1.80044E+04-3.54951E+06 1.97178E-09-1.39298E-07
 -1        66-9.21955E+06-1.14802E+06-3.87125E+04-3.26026E+06-2.65827E-08 1.36938E-07
 -1        67-8.89872E+06-1.53616E+06-9.47886E+04-3.67073E+06 9.99353E-09 2.28638E-07
 -1        68-9.21893E+06-1.09323E+06-1.59949E+05-3.23782E+06-1.86283E-08-2.26428E-08
 -1        69-9.06754E+06-1.77672E+06-4.59319E+05-3.59940E+06-2.52712E-08-1.65150E-07
 -1        70-9.05075E+06-9.16641E+05-6.85786E+05-3.32777E+06 1.58470E-08 2.50584E-08
 -1        86-4.19320E+05-6.96196E+06-8.74747E+05-9.40886E+05-1.50731E-07-5.35292E-08
 -1        87 5.85913E+05 1.55045E+05 7.25225E+05 2.22788E+06-2.62648E-07 4.87880E-08
 -1        88-7.48772E+04-2.70493E+06 5.32314E+04-1.26939E+06-2.28581E-07-1.28307E-07
 -1        89 7.99536E+05 1.85655E+04 7.12070E+05 2.29068E+06-3.41570E-07 7.90715E-08
 -1        90-6.06093E+05-6.85111E+06-9.64887E+05-1.00814E+06-7.95080E-08-3.69182E-08
 -1       121-1.85982E+03-1.61802E+06-4.51143E+02 1.08382E+03 1.44544E-09-2.25918E-09
 -1       122-1.16749E+03-1.61357E+06 7.90845E+02-4.36993E+03-5.11143E-09-3.06227E-08
 -1       123-1.88657E+03-1.61815E+06 3.93289E+02 3.23623E+03 4.10262E-09-2.46655E-09
 -1       124 5.09489E+02-1.61307E+06 3.07104E+03-9.12574E+03-9.87620E-09 4.33502E-08
 -1       125-2.73690E+03-1.61907E+06 3.74460E+03 5.80041E+03 6.22822E-09 2.20316E-08
 -1       191-6.23789E+01 3.76982E+05 9.00175E+00 5.86960E-01-5.19823E-10 1.85173E-09
 -1       192-6.00632E+01 3.76962E+05 2.07429E+01-3.71154E+00-6.46555E-10 1.97651E-08
 -1       193-6.48319E+01 3.76982E+05 3.60117E+01 3.24816E+00-9.63380E-10 1.81899E-11
 -1       194-6.30466E+01 3.76965E+05 7.87698E+01-8.44876E+00-5.26668E-10-1.20490E-08
 -1       195-6.95410E+01 3.76979E+05 1.51503E+02 5.46261E+00-1.37258E-09 3.92902E-10
 -1       251-1.81196E+06-4.09075E+03-1.53325E+05-1.04539E+05 2.68301E-09-5.15611E-08
 -1       252-1.28215E+06 6.94194E+03 2.63105E+03 3.34077E+05 3.45926E-09 8.63829E-08
 -1       253-1.56634E+06-4.59764E+03-2.80300E+04-2.10679E+05-6.34827E-10-2.95922E-08
 -1       254-1.52229E+06 3.17178E+04-3.00994E+02 4.30459E+05 3.38457E-08 9.58516E-08
 -1       255-1.59624E+06-8.96506E+03-1.63993E+04-2.02567E+05-1.63500E-08 2.65031E-07
 -1       256-1.20607E+06 2.73442E+04 6.79902E+04 3.02646E+05-2.47310E-08 4.04339E-07
 -1       257-1.85172E+06-2.52160E+04-6.72191E+04-8.09935E+04 1.61035E-08 1.32035E-07
 -1       258-9.31783E+05 2.29268E+04 1.21681E+05-2.46884E+03 2.87064E-08-7.05909E-08
 -1       259-1.84351E+06-2.64433E+04-6.37702E+04 1.00977E+05 2.28410E-08-1.35794E-07
 -1       260-1.22593E+06 3.41798E+04 7.06258E+04-3.01246E+05-2.60588E-08-4.02842E-07
 -1       261-1.58620E+06-1.32889E+04-4.56192E+03 2.16775E+05 4.50846E-08-2.92357E-09
 -1       262-1.52412E+06 5.02239E+04 2.47415E+04-4.18643E+05-2.68011E-08 1.00915E-07
 -1       263-1.57466E+06-1.86735E+04 1.11229E+04 2.20617E+05 1.38934E-08-1.23137E-07
 -1       264-1.23498E+06 8.92048E+04 1.16222E+05-3.17340E+05 9.39531E-08 4.57758E-08
 -1       265-1.84918E+06-7.32815E+04 1.98812E+03 1.13393E+05 4.09073E-08 8.38081E-08
 -1       266-2.08763E+04-9.76226E+03 4.89795E+04-3.22184E+01 7.27596E-11 1.67326E-07
 -1       267 2.42013E+04 1.13774E+04 3.46191E+04 3.71751E+01-2.41471E-10-1.58801E-07
 -1       268-3.24535E+03-1.61139E+03 1.28677E+04-4.73668E+00-1.03228E-10-1.81576E-08
 -1       269 3.83180E+03 1.92845E+03 8.36386E+03 5.51761E+00-2.63640E-10-9.56861E-08
 -1       270-5.75156E+02-3.16860E+02 4.03735E+03-7.48775E-01-2.14641E-10-9.00035E-08
 -1       271-1.85296E+06-2.24949E+05-1.37203E+05-7.11148E+05 1.31458E-08 1.71873E-07
 -1       272-1.92965E+06-2.97422E+05-8.81999E+04-6.78485E+05 2.89446E-08-5.85896E-08
 -1       273-1.87906E+06-2.58968E+05-3.24860E+04-7.04671E+05-6.10635E-09-8.31460E-08
 -1       274-1.89795E+06-2.56638E+05-1.80893E+04-6.88712E+05-2.73990E-08-2.85568E-08
 -1       275-1.88369E+06-2.61544E+05-7.66556E+03-7.02345E+05 8.15089E-09-3.77986E-09
 -1       276-1.89094E+06-2.54950E+05-3.88803E+03-6.93086E+05-2.29475E-08-1.52957E-07
 -1       277-1.88578E+06-2.60345E+05-2.05793E+03-7.00315E+05-1.21072E-08-1.06421E-07
 -1       278-1.88697E+06-2.57892E+05-1.14747E+03-6.97106E+05 3.26427E-08 1.52568E-08
 -1       279-1.88755E+06-2.58627E+05-1.33132E+03-6.98273E+05-1.51613E-08-2.09855E-07
 -1       280-1.88365E+06-2.61557E+05-1.84395E+03-7.01157E+05 7.77436E-09-1.60113E-07
 -1       281-1.88913E+06-2.56681E+05-3.61091E+03-6.96281E+05 6.17547E-09 8.98558E-08
 -1       282-1.88195E+06-2.67162E+05-8.09394E+03-7.04907E+05 2.38706E-08-1.19401E-08
 -1       283-1.88942E+06-2.53135E+05-1.46767E+04-6.94557E+05 1.28057E-08 1.68001E-07
 -1       284-1.89161E+06-2.90077E+05-3.95114E+04-7.05845E+05 1.01045E-09 2.19993E-07
 -1       285-1.88002E+06-2.35596E+05-6.16330E+04-6.94808E+05-2.16642E-09 1.15851E-07
 -1       301 5.85430E+03-5.66668E+05 1.74018E+05-9.78924E+05 3.62343E-09 1.89175E-07
 -1       302 1.00554E+04-5.21035E+05 1.05894E+05-1.45176E+06-2.75031E-09-7.45858E-08
 -1       303-1.00288E+04-5.54615E+05 6.24100E+04-9.76369E+05 8.00355E-11 6.96855E-09
 -1       304-4.97930E+03-5.25540E+05 6.75850E+04-1.45100E+06-1.76078E-09-5.43623E-08
 -1       305-1.12955E+04-5.47878E+05 8.86587E+04-9.79341E+05-7.09042E-09 3.69211E-07
 -1       306-2.77359E+07-5.66766E+06-7.75693E+06-9.97352E+05-9.59262E-08-5.53846E-08
 -1       307 2.31355E+07 2.29630E+06 5.00246E+06-1.33654E+07-8.05390E-07-1.44937E-08
 -1       308-7.59562E+06-8.29601E+05-5.44457E+05 4.72496E+06-1.62749E-07 3.30416E-07
 -1       309-3.55586E+06 7.02692E+06 1.92132E+06-1.91248E+07 2.75541E-07-1.88709E-07
 -1       310-1.13590E+07-1.41762E+06-1.56166E+06 4.63476E+06-2.26544E-07-1.26427E-07
 -1       311 3.18733E+07-1.19719E+05 6.23311E+06-8.87801E+06 3.60975E-07-1.95985E-07
 -1       312-2.88846E+07-5.82455E+06-7.42691E+06-4.10098E+06 2.53785E-08 1.18234E-07
 -1       313 4.10388E+07 1.16273E+07 9.46338E+06 1.97697E+07 1.70723E-07 2.57511E-07
 -1       314-1.70132E+07-1.51669E+07-6.73739E+06-1.15192E+07 4.36616E-07 1.02445E-07
 -1       315-9.53873E+05 2.56327E+07 5.14792E+06 1.07197E+07-3.38958E-07 1.57423E-07
 -1       316 5.74969E+05-9.34272E+06-5.11310E+05-3.28832E+06-1.03538E-06-2.07918E-07
 -1       317-1.71063E+07 2.04518E+07 1.88601E+06-6.63480E+06 6.80709E-07-7.84843E-07
 -1       318-1.18664E+06-1.11200E+07-1.60587E+06-4.39084E+06-8.67352E-07 1.23924E-07
 -1       319 5.39909E+06 2.70818E+07 6.00094E+06 1.43813E+07-1.37043E-07 2.60159E-07
 -1       320-2.06467E+07-1.53744E+07-8.63713E+06-1.15119E+07 1.58441E-07-8.52742E-08
 -1       336-4.78812E+02-1.75156E+06-1.39050E+04 8.81994E+03-2.51421E-08-1.93177E-09
 -1       337-5.36091E+03-1.75168E+06-1.81176E+04-2.13550E+04-4.71200E-08 2.87837E-08
 -1       338 4.64904E+02-1.75109E+06-2.82218E+04 1.23185E+04-3.30574E-08-5.78075E-09
 -1       339-2.99547E+04-1.76865E+06-6.38939E+04-2.81888E+04-5.93573E-08 8.56016E-09
 -1       340 1.99213E+04-1.73664E+06-1.00489E+05 1.55329E+04-3.88609E-08 1.50030E-08
 -1       406-3.34657E+01 3.76965E+05 6.27281E+02 2.73492E+00-1.78125E-09 3.70528E-09
 -1       407 1.64688E+02 3.77093E+05 1.33896E+03 2.10977E+01-2.65914E-10-2.46764E-08
 -1       408 6.32186E+02 3.76868E+05 2.67071E+03-2.42198E+01-2.18870E-09 1.35478E-08
 -1       409 2.84046E+03 3.77946E+05 6.01801E+03 2.56251E+02-4.09727E-10 9.63910E-08
 -1       410 8.25998E+03 3.76101E+05 1.22831E+04-2.46585E+02-2.51748E-09 3.23289E-08
 -1       521-2.92797E+07-6.95774E+06-9.05224E+06-6.70285E+05-7.90460E-08-2.96859E-08
 -1       522 2.39051E+07 3.02282E+06 5.08161E+06-1.65368E+07-5.40167E-07-1.21305E-07
 -1       523-8.30542E+06-1.11641E+06-5.55547E+05 5.16650E+06 1.05647E-07-3.35509E-07
 -1       524-6.77968E+06 9.62419E+06 2.07852E+06-2.20672E+07 6.55593E-07-5.96952E-07
 -1       525-1.22742E+07-1.93243E+06-1.71556E+06 5.06777E+06 4.91622E-07-6.27479E-08
 -1       526 3.45893E+07-1.56746E+05 6.54881E+06-1.13904E+07 8.09669E-08 2.79397E-07
 -1       527-3.06578E+07-7.31010E+06-8.54173E+06-3.98742E+06-4.73810E-08 2.71350E-07
 -1       528 4.48302E+07 1.27833E+07 9.86987E+06 2.23896E+07-5.87315E-08 2.61789E-07
 -1       529-1.80169E+07-1.71498E+07-7.71575E+06-1.16750E+07 1.57626E-07 1.82481E-07
 -1       530-3.24910E+06 2.98397E+07 5.44098E+06 1.06123E+07-1.04657E-07 5.76489E-07
 -1       531 5.13657E+05-1.04624E+07-5.07163E+05-3.39425E+06-6.51824E-07 1.87196E-07
 -1       532-1.99736E+07 2.26515E+07 2.06559E+06-1.02314E+07 3.25104E-07-5.23592E-07
 -1       533-1.25629E+06-1.22639E+07-1.69703E+06-4.39621E+06-2.64088E-07-9.66014E-07
 -1       534 3.42805E+06 3.14407E+07 6.24754E+06 1.48964E+07-1.14611E-07 6.48899E-07
 -1       535-2.17919E+07-1.74961E+07-9.86792E+06-1.16643E+07 8.80100E-08 4.28699E-07
 -1       536-6.80786E+05-4.61333E+04-3.66356E+04-5.11764E+04-3.80896E-09 4.27281E-08
 -1       537-7.95914E+04 4.47075E+04 8.23948E+04 1.17144E+05-1.08224E-07 8.97244E-08
 -1       538-3.93351E+05 2.59527E+03 5.22867E+03-6.88184E+04 3.96003E-08 9.78494E-08
 -1       539-2.78173E+05 3.03418E+03 2.39809E+04 1.31836E+05 1.79695E-07 9.52830E-08
 -1       540-4.87151E+05-3.50394E+02-1.89651E+04-6.63379E+04 4.91491E-09 9.80597E-08
 -1       541 1.03560E+05 1.55953E+04 9.79098E+04 9.21786E+04-5.35708E-08 6.86920E-08
 -1       542-7.64806E+05-1.85364E+04-7.72942E+04-2.83949E+04 5.16816E-08 3.68987E-08
 -1       543 3.41217E+05 2.51306E+04 1.45087E+05-1.27851E+04-8.18909E-09 1.00067E-08
 -1       544-7.18442E+05-1.51561E+04-6.86744E+04 3.80373E+04 1.94032E-08-2.48691E-08
 -1       545-5.31989E+03 8.57317E+03 7.29625E+04-1.07509E+05 2.77146E-08-6.26842E-08
 -1       546-4.27561E+05 5.71817E+03-1.13125E+04 6.60279E+04 4.59040E-08-8.44177E-08
 -1       547-2.95188E+05-4.68258E+03 9.04619E+03-1.34615E+05-1.18385E-07-1.17935E-07
 -1       548-4.36351E+05 4.59626E+03-2.28428E+04 6.57490E+04-1.02509E-07-9.02464E-08
 -1       549 1.32212E+04 1.30153E+04 5.32698E+04-1.05211E+05-6.14392E-08-4.36305E-08
 -1       550-7.27714E+05-1.88727E+04-1.21990E+05 3.59945E+04 8.91305E-09-1.69748E-08
 -1       551 3.89649E+04-7.68003E+05-1.03361E+04-1.22793E+06-9.81963E-08 2.93949E-09
 -1       552 8.86088E+04-8.09560E+05 1.31074E+04-1.75108E+06-7.11152E-08 2.96059E-08
 -1       553 6.78037E+04-8.07037E+05 3.42270E+04-1.22157E+06-1.15528E-07 3.51720E-08
 -1       554 1.26196E+05-8.23453E+05 8.37113E+04-1.75304E+06-6.83285E-08 1.69675E-08
 -1       555 9.75107E+04-8.30176E+05 1.52100E+05-1.22152E+06-1.17230E-07-1.64400E-08
 -1       556 2.12316E+05-3.66462E+05 3.39015E+04-3.95313E+05-2.96277E-08-1.65310E-08
 -1       557 3.39232E+05-4.67807E+05 2.01475E+04-5.10471E+05-3.25963E-09 8.00355E-11
 -1       558 1.95997E+05-3.61482E+05 4.39869E+03-3.98027E+05-1.92667E-08 1.49012E-08
 -1       559 3.15071E+05-4.69282E+05 3.35810E+03-5.29423E+05 2.04891E-08 1.77097E-08
 -1       560 1.81944E+05-3.52653E+05-8.48430E+02-4.08103E+05 9.02219E-09-2.08820E-09
 -1       561 2.97300E+05-4.62248E+05 3.78789E+02-5.41488E+05-2.08092E-09-1.37152E-09
 -1       562 1.70834E+05-3.45733E+05-1.07609E+03-4.16138E+05 2.19734E-09 5.15865E-09
 -1       563 2.84114E+05-4.56499E+05 3.40702E+01-5.50087E+05 8.78936E-09 2.46719E-08
 -1       564 1.62941E+05-3.40810E+05-5.03351E+02-4.21728E+05 7.56700E-09-9.92941E-09
 -1       565 2.75433E+05-4.52719E+05 4.29311E+01-5.55630E+05 1.18816E-08 7.77618E-10
 -1       566 1.58380E+05-3.37923E+05-2.21549E+02-4.24919E+05-5.23869E-09-6.74117E-09
 -1       567 2.71300E+05-4.50920E+05-3.30256E+02-5.58130E+05 2.92930E-08 1.00190E-08
 -1       568 1.57236E+05-3.37225E+05-1.04332E+03-4.25815E+05 3.81988E-09 2.78051E-08
 -1       569 2.70378E+05-4.50868E+05-2.63632E+03-5.56632E+05-7.68068E-09 2.72521E-08
 -1       570 1.60563E+05-3.40348E+05-5.77982E+03-4.24847E+05 3.01952E-09-1.58352E-08
 -1       571 2.83667E+05 1.02673E+04 1.47053E+04-9.12143E+04-2.12267E-08-2.09366E-09
 -1       572 2.85803E+05 3.83958E+03 7.20658E+03-1.00070E+05-4.02779E-08-3.04453E-09
 -1       573 2.84516E+05 1.18025E+03 3.20208E+03-9.10424E+04-1.71858E-08 1.85455E-08
 -1       574 2.84731E+05 6.66757E+02 1.60569E+03-1.00287E+05 2.00998E-09 1.01190E-08
 -1       575 2.84609E+05 3.97352E+02 7.57785E+02-9.10190E+04-9.91764E-09 1.65428E-08
 -1       576 2.84597E+05 4.04474E+02 3.87852E+02-1.00316E+05-3.01970E-08-1.49430E-09
 -1       577 2.84646E+05 3.41697E+02 1.93548E+02-9.10157E+04-1.83318E-08 9.32960E-09
 -1       578 2.84623E+05 3.69374E+02 1.11556E+02-1.00320E+05-9.14224E-09-7.60519E-09
 -1       579 2.84711E+05 3.08778E+02 7.64778E+01-9.10154E+04 5.27871E-09-1.98443E-08
 -1       580 2.84715E+05 3.23279E+02 8.82301E+01-1.00315E+05-5.41331E-09 1.29876E-09
 -1       581 2.84815E+05 2.55983E+02 1.33284E+02-9.10211E+04 5.48243E-09 5.20959E-09
 -1       582 2.84877E+05 2.91702E+02 2.70367E+02-1.00256E+05 2.56932E-09-2.91220E-09
 -1       583 2.84942E+05 3.02097E+02 5.19524E+02-9.10751E+04 1.66256E-09 8.50150E-10
 -1       584 2.85229E+05 7.25005E+02 1.17488E+03-9.98007E+04 4.43833E-09-1.94268E-08
 -1       585 2.84958E+05 1.71869E+03 2.38002E+03-9.14757E+04-7.27596E-10-1.35224E-08
 -1       586-3.35300E+03 1.12179E+05-2.98450E+03-2.45620E+05-7.19774E-09 1.46983E-08
 -1       587-1.25400E+03 1.11909E+05 6.75985E+02-2.70326E+05-7.70888E-09-2.26355E-08
 -1       588 4.53222E+02 1.11744E+05 4.59256E+03-2.45487E+05-4.02179E-09 5.31509E-09
 -1       589 5.02023E+03 1.14138E+05 1.19798E+04-2.70092E+05-8.62383E-09-9.56425E-09
 -1       590 1.62142E+04 1.10447E+05 2.51568E+04-2.45909E+05-5.59157E-09 4.11092E-09
 -1       591-7.18383E+04-1.55447E+04-2.18061E+04-3.09056E+04-4.71596E-09-9.49058E-09
 -1       592-7.57144E+04-1.90700E+04-1.18119E+04-3.45077E+04-8.03581E-10-9.96999E-09
 -1       593-7.40198E+04-1.39617E+04-4.91673E+03-3.25038E+04 1.69929E-09-2.01685E-08
 -1       594-7.27025E+04-1.58714E+04-2.45210E+03-3.46232E+04 8.62002E-10-1.36612E-08
 -1       595-7.41861E+04-1.39564E+04-1.12582E+03-3.25765E+04-2.26225E-09 2.01001E-08
 -1       596-7.24964E+04-1.57251E+04-5.72194E+02-3.45988E+04 3.72131E-09-8.74820E-11
 -1       597-7.42070E+04-1.39713E+04-3.11327E+02-3.25792E+04 4.42509E-09 3.57278E-09
 -1       598-7.24760E+04-1.57194E+04-2.49814E+02-3.45919E+04-1.86037E-09 1.23382E-08
 -1       599-7.42058E+04-1.39718E+04-3.18538E+02-3.25789E+04 4.98710E-09-1.60409E-08
 -1       600-7.24964E+04-1.57257E+04-5.91284E+02-3.45968E+04 4.17185E-09-1.14218E-08
 -1       601-7.41817E+04-1.39577E+04-1.16624E+03-3.25754E+04 2.02112E-09 1.13905E-08
 -1       602-7.27099E+04-1.58762E+04-2.54157E+03-3.46183E+04-1.97770E-09 1.83069E-08
 -1       603-7.40067E+04-1.39660E+04-5.09683E+03-3.25009E+04-7.92852E-10 1.31377E-08
 -1       604-7.58491E+04-1.91729E+04-1.22437E+04-3.44745E+04-1.23475E-09 7.32643E-09
 -1       605-7.17259E+04-1.56242E+04-2.26035E+04-3.08630E+04 5.58401E-09 1.00899E-08
 -1       606 2.68620E+04-1.39546E+04-2.50209E+04 2.43393E+04 7.55517E-09-4.06999E-10
 -1       607 2.25863E+04-4.55487E+03-1.24602E+04 2.73488E+04 4.72937E-09 2.71052E-09
 -1       608 2.50222E+04-8.19199E+02-5.57816E+03 2.41654E+04-5.47516E-10 4.70664E-10
 -1       609 2.45541E+04-2.77359E+02-2.81789E+03 2.75655E+04 1.17871E-09 5.87033E-09
 -1       610 2.48128E+04-3.59749E+01-1.34456E+03 2.41448E+04 3.39060E-09 7.78596E-09
 -1       611 2.47383E+04-3.50329E+01-6.77913E+02 2.75890E+04 2.81671E-09 2.02108E-08
 -1       612 2.47658E+04-2.19226E+01-3.22387E+02 2.41428E+04-1.95359E-09 4.72937E-09
 -1       613 2.47485E+04-3.04003E+01-1.44540E+02 2.75917E+04 4.32192E-09 4.14002E-09
 -1       614 2.47433E+04-2.76053E+01-3.41326E+01 2.41421E+04 1.66892E-09-1.67249E-08
 -1       615 2.47424E+04-2.84445E+01 6.00531E+01 2.75922E+04 6.63931E-10 4.02270E-09
 -1       616 2.47257E+04-2.41463E+01 1.80556E+02 2.41423E+04-6.92899E-09 1.43764E-08
 -1       617 2.47634E+04 1.04435E+01 4.12161E+02 2.75917E+04-1.91974E-08-1.35881E-08
 -1       618 2.46894E+04 9.49875E+01 8.30840E+02 2.41426E+04-1.10076E-08-1.39801E-08
 -1       619 2.50563E+04 6.53107E+02 1.86577E+03 2.75910E+04-2.87821E-09-6.07133E-09
 -1       620 2.44132E+04 2.06536E+03 3.75015E+03 2.41438E+04 3.55499E-10 6.72799E-09
 -1       621 4.79087E+02 2.93934E+05 3.73005E+03 3.81562E+04 9.69521E-10 2.41325E-08
 -1       622 6.29115E+02 2.94803E+05 3.32358E+03 5.54047E+04 1.07912E-09 1.25710E-08
 -1       623 1.22611E+02 2.94125E+05 4.01226E+03 3.79829E+04 1.16302E-09 2.07374E-08
 -1       624 2.03846E+03 2.95999E+05 7.79258E+03 5.55757E+04 1.38232E-09 2.41016E-08
 -1       625 1.99912E+03 2.92581E+05 1.36244E+04 3.79798E+04 1.41381E-09-1.03500E-09
 -1       626 2.54875E+05 6.06477E+04 5.05769E+03 1.24636E+05 1.93450E-09 6.07906E-09
 -1       627 2.52545E+05 6.20677E+04 2.43726E+03 1.28901E+05 1.17552E-09 4.80566E-09
 -1       628 2.55004E+05 5.83302E+04 1.03069E+03 1.25491E+05-2.02363E-09 1.26406E-08
 -1       629 2.51913E+05 6.14004E+04 5.04487E+02 1.29142E+05-4.97994E-09 3.62216E-08
 -1       630 2.55017E+05 5.82185E+04 2.34018E+02 1.25527E+05-6.66205E-09 1.21100E-08
 -1       631 2.51845E+05 6.13755E+04 1.25942E+02 1.29144E+05-7.23207E-09 3.01529E-08
 -1       632 2.55013E+05 5.82228E+04 8.28949E+01 1.25522E+05 2.52294E-09 8.26890E-09
 -1       633 2.51836E+05 6.13777E+04 9.23661E+01 1.29139E+05 4.14843E-09-1.34655E-08
 -1       634 2.55008E+05 5.82203E+04 1.49287E+02 1.25521E+05-7.47934E-09 1.37914E-08
 -1       635 2.51850E+05 6.13762E+04 3.02097E+02 1.29144E+05-2.81880E-08-1.45519E-09
 -1       636 2.54999E+05 5.82150E+04 6.10092E+02 1.25521E+05-3.95903E-09-2.01148E-08
 -1       637 2.51982E+05 6.14712E+04 1.34139E+03 1.29144E+05 7.57314E-09-1.14869E-08
 -1       638 2.54951E+05 5.85114E+04 2.75610E+03 1.25387E+05 1.30185E-08 1.72258E-08
 -1       639 2.53429E+05 6.34847E+04 6.52097E+03 1.28717E+05-1.38994E-09 6.00721E-09
 -1       640 2.54751E+05 6.45232E+04 1.35322E+04 1.22852E+05 7.77891E-09-2.12913E-09
 -1       656 6.52438E+04-1.66866E+06-1.57495E+05-2.29575E+03-8.73115E-11-2.27602E-08
 -1       657-8.63063E+04-1.73982E+06-1.30463E+05 5.48012E+03-7.20320E-10-2.17236E-08
 -1       658 2.07924E+04-1.68887E+06-8.03341E+04-4.31601E+03 1.25965E-10 3.75802E-09
 -1       659-9.32869E+04-1.74313E+06-1.39636E+05 7.13564E+03-9.16771E-10-1.02204E-08
 -1       660 7.22088E+04-1.66535E+06-1.73266E+05-3.95125E+03-2.15368E-09 2.10238E-09
 -1       661 1.59961E+05 1.67989E+04 1.67340E+04 6.25341E+04-2.18643E-09 1.74450E-08
 -1       662 1.69369E+05 2.92430E+04 1.12774E+04 5.88399E+04 9.28765E-10-5.97538E-10
 -1       663 1.63248E+05 2.21676E+04 3.94420E+03 6.15804E+04 3.92390E-09-5.30531E-09
 -1       664 1.65559E+05 2.29644E+04 2.35935E+03 6.00046E+04-1.15566E-09 5.58907E-09
 -1       665 1.63746E+05 2.29011E+04 9.30747E+02 6.14353E+04 2.37719E-10 1.12547E-08
 -1       666 1.64970E+05 2.21254E+04 5.44662E+02 6.01938E+04 7.71030E-09-3.02710E-09
 -1       667 1.63834E+05 2.29847E+04 2.89318E+02 6.13991E+04-1.19130E-09-1.39412E-09
 -1       668 1.64874E+05 2.20650E+04 2.94838E+02 6.02464E+04-2.04376E-09-2.07904E-08
 -1       669 1.63841E+05 2.29598E+04 3.99203E+02 6.13830E+04-6.15674E-09 6.73867E-09
 -1       670 1.64971E+05 2.22816E+04 8.69305E+02 6.02493E+04-2.86070E-09-1.74798E-08
 -1       671 1.63736E+05 2.27726E+04 1.54353E+03 6.13942E+04 2.78361E-09-1.16870E-08
 -1       672 1.65870E+05 2.37833E+04 3.94908E+03 6.00314E+04 2.34263E-09-1.87562E-08
 -1       673 1.62946E+05 2.14960E+04 6.61804E+03 6.15863E+04 4.09125E-09 1.28166E-08
 -1       674 1.72169E+05 3.44157E+04 1.89262E+04 5.81807E+04-4.51291E-09-2.49270E-09
 -1       675 1.57478E+05 1.24380E+04 2.80931E+04 6.31332E+04-2.05182E-09-1.26493E-08
 -1       676 2.37845E+01-2.91630E+05-1.09988E+03-1.18660E+02 1.43871E-10-5.76783E-09
 -1       677-2.91222E+02-2.91896E+05-2.01297E+03 2.37133E+02 6.73259E-09 2.31711E-08
 -1       678 1.95108E+02-2.91441E+05-3.55843E+03-1.18395E+02 1.91949E-09 6.51495E-09
 -1       679-3.55875E+03-2.94044E+05-8.45335E+03 2.36124E+02 1.00354E-08-8.29040E-09
 -1       680 2.12458E+03-2.89483E+05-1.36239E+04-1.16340E+02 1.71076E-09 3.82802E-09
 -1       771-3.02673E+06-7.24836E+05-1.53282E+05-1.43868E+06-3.22470E-08-2.80561E-08
 -1       772-2.95333E+06-8.09871E+05-7.90988E+04-1.53689E+06-2.51457E-08 9.10950E-09
 -1       773-3.05592E+06-7.02020E+05-4.01606E+04-1.45175E+06-1.23400E-08 8.71660E-09
 -1       774-2.94403E+06-7.92942E+05-1.79508E+04-1.56064E+06 3.17668E-08-3.19051E-09
 -1       775-3.07098E+06-6.91426E+05-1.33181E+04-1.45801E+06-1.71713E-09 1.20053E-09
 -1       776-2.95505E+06-7.90316E+05-4.99776E+03-1.57848E+06-4.13274E-09 5.69344E-09
 -1       777-3.08400E+06-6.82011E+05-5.84447E+03-1.46354E+06 1.10595E-08-1.30967E-10
 -1       778-2.96658E+06-7.87890E+05-1.65797E+03-1.59378E+06 1.77533E-08 9.86984E-09
 -1       779-3.09517E+06-6.73804E+05-2.90804E+03-1.46827E+06 2.72121E-09-7.69069E-09
 -1       780-2.97673E+06-7.85572E+05-4.83172E+02-1.60625E+06-7.39965E-09-1.46974E-09
 -1       781-3.10403E+06-6.67199E+05-1.12585E+03-1.47197E+06-3.28437E-08-2.12094E-09
 -1       782-2.98454E+06-7.83599E+05 4.08459E+02-1.61544E+06-3.22470E-08-4.53292E-09
 -1       783-3.11026E+06-6.62617E+05 6.37792E+02-1.47456E+06-1.08994E-08-1.48193E-08
 -1       784-2.98885E+06-7.81590E+05 2.63316E+03-1.62111E+06-2.57569E-08 3.65435E-09
 -1       785-3.11394E+06-6.59889E+05 4.64885E+03-1.47621E+06-4.08181E-08 1.07502E-08
 -1       786 1.24608E+05-9.71447E+03 2.24752E+04-3.00410E+02-7.33493E-10 3.05527E-08
 -1       787 1.34355E+05 1.12470E+04 1.59003E+04-1.17289E+02 6.96839E-09 6.47833E-09
 -1       788 1.28366E+05-1.52236E+03 5.81491E+03-2.66280E+02 4.13953E-09 3.15367E-09
 -1       789 1.29977E+05 1.76195E+03 3.65053E+03-1.69855E+02-9.63420E-10 2.67477E-08
 -1       790 1.28986E+05-2.37109E+02 1.47836E+03-2.47859E+02-3.78946E-09 1.47576E-08
 -1       791 1.29251E+05 2.74272E+02 8.54483E+02-2.01428E+02-4.74971E-09 6.98050E-09
 -1       792 1.29092E+05-3.57935E+01 3.63334E+02-2.34708E+02-2.84410E-09 2.57245E-10
 -1       793 1.29126E+05 3.82861E+01 1.83848E+02-2.26183E+02-3.18223E-10 1.15373E-08
 -1       794 1.29112E+05-1.27291E+00 5.32402E+01-2.23105E+02 2.41146E-09 2.26152E-09
 -1       795 1.29091E+05-2.27235E+01-4.28567E+01-2.50413E+02-6.48364E-09 8.43398E-09
 -1       796 1.29126E+05 2.51822E+01-1.36696E+02-2.10478E+02 1.64786E-09-1.73230E-08
 -1       797 1.29009E+05-1.88838E+02-3.82257E+02-2.79423E+02 2.86045E-09-1.74435E-08
 -1       798 1.29194E+05 1.64717E+02-6.22724E+02-1.94094E+02 2.10276E-09-6.43553E-10
 -1       799 1.28536E+05-1.21433E+03-1.71488E+03-3.19884E+02 5.12460E-09 1.13168E-08
 -1       800 1.29599E+05 1.04983E+03-2.42738E+03-1.70017E+02 2.25890E-11 4.50359E-09
 -1       801-1.33937E+05-9.31789E+06-1.27901E+06 1.25167E+06 8.78063E-08-6.51380E-08
 -1       802 6.32690E+05 4.88645E+06 1.91421E+06-1.52715E+06 2.43301E-07-4.16021E-08
 -1       803-4.75001E+05-1.30547E+07-1.68340E+06 7.95382E+05 7.43967E-08 1.10722E-08
 -1       804 2.46388E+05 1.68109E+06 1.34911E+06 6.24056E+05-1.11802E-07-9.56800E-08
 -1       805 1.75636E+05-6.12743E+06-2.55666E+05-8.94424E+05-4.64206E-08-6.25232E-08
 -1       806-3.02581E+05-5.84155E+04-2.23472E+04-1.19762E+05-3.77895E-10 4.79577E-09
 -1       807-3.04360E+05-5.47469E+04-1.09790E+04-1.25160E+05 8.49172E-09 6.84850E-10
 -1       808-3.03193E+05-5.03638E+04-4.65763E+03-1.23572E+05-4.08863E-09 6.42012E-09
 -1       809-3.02053E+05-5.16612E+04-2.27747E+03-1.25429E+05-1.20187E-08 5.81952E-09
 -1       810-3.03285E+05-5.00834E+04-1.04388E+03-1.23741E+05 4.33602E-09 8.98831E-09
 -1       811-3.01875E+05-5.15371E+04-5.19128E+02-1.25394E+05 6.11180E-09-3.55658E-09
 -1       812-3.03299E+05-5.01075E+04-2.62580E+02-1.23740E+05-2.16369E-09-9.63473E-09
 -1       813-3.01850E+05-5.15391E+04-1.70723E+02-1.25376E+05-8.65657E-09-2.02554E-08
 -1       814-3.03293E+05-5.01168E+04-1.69274E+02-1.23736E+05-3.34876E-09-3.21370E-09
 -1       815-3.01854E+05-5.15413E+04-2.72862E+02-1.25369E+05-1.20363E-08-1.41063E-09
 -1       816-3.03273E+05-5.01158E+04-5.17196E+02-1.23733E+05 2.85127E-09 6.90579E-09
 -1       817-3.01942E+05-5.15905E+04-1.11007E+03-1.25358E+05-5.29008E-09-7.61338E-09
 -1       818-3.03206E+05-5.02722E+04-2.26413E+03-1.23659E+05-2.15368E-09-2.21589E-08
 -1       819-3.03181E+05-5.29586E+04-5.32746E+03-1.25065E+05 5.24005E-09-2.71368E-08
 -1       820-3.02780E+05-5.42957E+04-1.08433E+04-1.21939E+05 9.64974E-10 1.18271E-08
 -1       821-3.73039E+05 2.05488E+04-4.77051E+04 1.77101E+03 1.16366E-08 1.23837E-08
 -1       822-3.92951E+05-2.37976E+04-3.36250E+04-3.56279E+03 3.68308E-09 2.03272E-08
 -1       823-3.80628E+05 3.23237E+03-1.23338E+04 2.71574E+03-9.65395E-09-4.91218E-09
 -1       824-3.83888E+05-3.73134E+03-7.73551E+03-4.13183E+03 2.71203E-09 4.93844E-09
 -1       825-3.82103E+05 5.02133E+02-3.22056E+03 2.34012E+03 1.68612E-08 7.77288E-09
 -1       826-3.81803E+05-5.70911E+02-1.79015E+03-2.27187E+03 2.02703E-08-2.16261E-10
 -1       827-3.82698E+05 6.22832E+01-1.10671E+03 8.55695E+02 8.97893E-09 1.36131E-08
 -1       828-3.81321E+05-1.50715E+02-6.94626E+02 9.97078E+02-4.07655E-09-9.03244E-09
 -1       829-3.82577E+05 7.65680E+01-1.10425E+03-9.28866E+02 1.86108E-09-4.29222E-09
 -1       830-3.82068E+05-6.15590E+02-1.90945E+03 3.88817E+03 1.39304E-09-1.14907E-08
 -1       831-3.81965E+05 5.38159E+02-3.31040E+03-2.03543E+03-3.92241E-09 1.21750E-08
 -1       832-3.83973E+05-3.88920E+03-8.03520E+03 4.81853E+03-4.23475E-09 9.87063E-09
 -1       833-3.80682E+05 3.35473E+03-1.28249E+04-1.85925E+03-4.85043E-09 3.58586E-08
 -1       834-3.93103E+05-2.47024E+04-3.48549E+04 3.25113E+03-3.02507E-09 8.41464E-09
 -1       835-3.72826E+05 2.13250E+04-4.95498E+04-4.67971E+02 5.72317E-09 4.67844E-09
 -1       836-1.37336E+03 3.61333E+05 2.23246E+04-1.62268E+04-6.20457E-09 1.52236E-08
 -1       837 4.76817E+03 3.68321E+05 1.89069E+04-3.30871E+04-6.73015E-09-8.52719E-09
 -1       838-5.40785E+02 3.63290E+05 1.92864E+04-1.61559E+04-5.69480E-09 7.04381E-09
 -1       839 1.21557E+04 3.73823E+05 3.65063E+04-3.31381E+04-5.93354E-09-9.13093E-09
 -1       840-3.75181E+03 3.55773E+05 5.82239E+04-1.61807E+04-5.43878E-09 2.37903E-09
 -1       856-5.49436E+04 7.99537E+03-2.10696E+04-3.98609E+02 3.28623E-09 1.85801E-08
 -1       857-6.36260E+04-9.39257E+03-1.45043E+04 5.55295E+03 3.39060E-09 8.41828E-09
 -1       858-5.83812E+04 1.12117E+03-5.46714E+03-4.22629E+02-2.22542E-10 5.37170E-09
 -1       859-5.96807E+04-1.31738E+03-3.29936E+03 5.58893E+03 1.86492E-09 2.37692E-08
 -1       860-5.88948E+04 1.56911E+02-1.38309E+03-4.34357E+02-8.74337E-10 1.32479E-09
 -1       861-5.90899E+04-1.85787E+02-7.61538E+02 5.60492E+03 2.99613E-09-1.99318E-08
 -1       862-5.89751E+04 2.11963E+01-3.17915E+02-4.38605E+02-9.12973E-10-7.62321E-09
 -1       863-5.89917E+04-2.05417E+01-1.18881E+02 5.60735E+03-2.74770E-09 6.91796E-09
 -1       864-5.89935E+04-4.58451E+00 4.01098E+01-4.36781E+02-3.22019E-09-5.68750E-09
 -1       865-5.89381E+04 5.75420E+01 2.38914E+02 5.59706E+03 1.23508E-09-1.97824E-08
 -1       866-5.90266E+04-5.69450E+01 4.85027E+02-4.28316E+02 1.77988E-09-1.32839E-08
 -1       867-5.87090E+04 4.70657E+02 1.19615E+03 5.57405E+03-1.42720E-09 7.54551E-09
 -1       868-5.92178E+04-4.10354E+02 1.98817E+03-4.13775E+02 7.22252E-10-1.55849E-08
 -1       869-5.72506E+04 3.41517E+03 5.29471E+03 5.53607E+03-1.27338E-09-2.39485E-08
 -1       870-6.04773E+04-2.92165E+03 7.68366E+03-3.90245E+02-6.91182E-09 2.52658E-09
 -1       871-5.43199E+03-2.02092E+04-1.90316E+04 1.27262E+05-4.19095E-09-5.44424E-09
 -1       872-1.99149E+03-2.46204E+04-7.95526E+03 1.65012E+05-9.35506E-09-2.63981E-09
 -1       873 3.53743E+02-2.24937E+04 6.10415E+02 1.26982E+05-5.86442E-09 1.17641E-08
 -1       874 3.19237E+03-2.01094E+04 9.62980E+03 1.65043E+05-1.06793E-08 3.77443E-08
 -1       875 6.68863E+03-2.47875E+04 2.16973E+04 1.27215E+05-4.75666E-09 3.26754E-08
 -1       876 2.88329E+05 4.86684E+04 1.48515E+04 1.15794E+05-3.14276E-09-2.13186E-09
 -1       877 2.89303E+05 5.18039E+04 7.93127E+03 1.20061E+05 3.60524E-09-7.40295E-09
 -1       878 2.89718E+05 4.70235E+04 3.32281E+03 1.17011E+05-6.79074E-09 5.04292E-09
 -1       879 2.87285E+05 4.97893E+04 1.65561E+03 1.20162E+05 3.51974E-10 4.99273E-09
 -1       880 2.89818E+05 4.70064E+04 7.71147E+02 1.17061E+05-2.63231E-09-1.33315E-09
 -1       881 2.87151E+05 4.97032E+04 4.11772E+02 1.20139E+05-3.04328E-09 2.52087E-08
 -1       882 2.89827E+05 4.70194E+04 2.63372E+02 1.17062E+05 8.13998E-11 3.14140E-09
 -1       883 2.87141E+05 4.96987E+04 2.83045E+02 1.20132E+05-1.20343E-09-2.50786E-09
 -1       884 2.89820E+05 4.70166E+04 4.50176E+02 1.17063E+05-1.05923E-08 2.12816E-09
 -1       885 2.87177E+05 4.97050E+04 9.05052E+02 1.20143E+05-1.09112E-08-2.08669E-08
 -1       886 2.89785E+05 4.69902E+04 1.82407E+03 1.17059E+05-7.77414E-09 4.81623E-09
 -1       887 2.87497E+05 4.99152E+04 3.98442E+03 1.20189E+05 2.50216E-09 1.72410E-08
 -1       888 2.89533E+05 4.70346E+04 8.02871E+03 1.16932E+05-1.80918E-09 6.15546E-09
 -1       889 2.92277E+05 5.48857E+04 1.91791E+04 1.20042E+05-4.89734E-09 1.08212E-08
 -1       890 2.86257E+05 5.09264E+04 3.59220E+04 1.13875E+05 3.69027E-09 6.27188E-09
 -1       891-9.54012E+01-1.60009E+05-1.95877E+03 2.69313E+04-3.22802E-09-1.09292E-08
 -1       892-1.83891E+02-1.60522E+05-2.10495E+03 4.08824E+04-5.65478E-10 1.29639E-08
 -1       893 3.50844E+01-1.60072E+05-2.98161E+03 2.69384E+04-1.85923E-09 1.37479E-08
 -1       894-1.49520E+03-1.61649E+05-6.17172E+03 4.07316E+04 4.86489E-09 5.15229E-10
 -1       895-1.18589E+03-1.58786E+05-1.08687E+04 2.70834E+04-4.72937E-10-8.55198E-09
 -1       956-3.69782E+05-5.32565E+03-1.31744E+04 2.97784E+04 2.94676E-09-1.67977E-08
 -1       957-3.72369E+05-1.86980E+03-6.76228E+03 3.57935E+04-1.68802E-09-1.36133E-08
 -1       958-3.70965E+05-2.25397E+02-3.04723E+03 2.96148E+04-2.60206E-09-3.73871E-09
 -1       959-3.71159E+05-1.21225E+02-1.55602E+03 3.59830E+04 3.08546E-09-5.40876E-09
 -1       960-3.71079E+05-3.39984E+01-7.58779E+02 2.95981E+04 4.15093E-09 2.08267E-08
 -1       961-3.71079E+05-5.02256E+01-4.02346E+02 3.60028E+04 9.71249E-09 5.57702E-09
 -1       962-3.71106E+05-3.55634E+01-2.30390E+02 2.95953E+04 4.99267E-09-2.49065E-09
 -1       963-3.71079E+05-4.63422E+01-1.85024E+02 3.60063E+04 9.55038E-09 1.67331E-08
 -1       964-3.71111E+05-3.23399E+01-2.25064E+02 2.95946E+04-1.75626E-09 3.05386E-09
 -1       965-3.71091E+05-4.33537E+01-3.89319E+02 3.60056E+04-1.09152E-08-1.72561E-08
 -1       966-3.71096E+05-2.44178E+01-7.31503E+02 2.95960E+04 3.23143E-09-8.85711E-09
 -1       967-3.71180E+05-1.05255E+02-1.50033E+03 3.59919E+04 5.03633E-10 3.31215E-09
 -1       968-3.70995E+05-2.02791E+02-2.93703E+03 2.96082E+04-3.60797E-09-1.14953E-08
 -1       969-3.72358E+05-1.78582E+03-6.52022E+03 3.58492E+04 1.59707E-09-1.86532E-09
 -1       970-3.69862E+05-5.11663E+03-1.27016E+04 2.97314E+04-1.23691E-10 1.26693E-09
 -1       971-3.39320E+05-1.70267E+03-9.20204E+03 1.51875E+04 4.59659E-09-4.57010E-09
 -1       972-3.41537E+05-1.25048E+03-5.01133E+03 2.10252E+04 2.72757E-09-1.81863E-08
 -1       973-3.40345E+05-5.66100E+01-2.24458E+03 1.50671E+04 1.63618E-09 1.20349E-09
 -1       974-3.40481E+05-7.36069E+01-1.16346E+03 2.11609E+04-2.08820E-09 8.82255E-09
 -1       975-3.40426E+05-1.23182E+01-5.81899E+02 1.50550E+04-1.14460E-09-3.67095E-10
 -1       976-3.40420E+05-2.43900E+01-3.36302E+02 2.11764E+04 5.47880E-09-1.18264E-08
 -1       977-3.40442E+05-1.16327E+01-2.45138E+02 1.50517E+04-2.77623E-09-2.15925E-09
 -1       978-3.40425E+05-1.82779E+01-2.88300E+02 2.11811E+04-4.33647E-09-3.94732E-09
 -1       979-3.40442E+05-3.32203E+00-4.64444E+02 1.50502E+04-3.02708E-09 1.76506E-08
 -1       980-3.40460E+05-1.52740E+01-8.97559E+02 2.11821E+04-2.44017E-09 2.79215E-10
 -1       981-3.40413E+05 1.91067E+01-1.73877E+03 1.50507E+04-7.82279E-10 1.60884E-09
 -1       982-3.40698E+05-1.43747E+02-3.59423E+03 2.11755E+04 3.06795E-09 7.00795E-09
 -1       983-3.40194E+05-9.22278E+01-6.98373E+03 1.50567E+04-1.09412E-09 2.61139E-09
 -1       984-3.44057E+05-3.79114E+03-1.56398E+04 2.10908E+04 6.34600E-10-4.28918E-09
 -1       985-3.37033E+05-5.20250E+03-2.87195E+04 1.51288E+04-4.53201E-09-5.24597E-09
 -3
    1PSTEP                        27          14           1          
  100CL  114 6.62109E-01         409                     0   14           1
 -4  DISP        4    1
 -5  D1          1    2    1    0
 -5  D2          1    2    2    0
 -5  D3          1    2    3    0
 -5  ALL         1    2    0    0    1ALL
 -1         1 2.65915E-03 0.00000E+00 0.00000E+00
 -1         2 1.40683E-03 3.17957E-26-5.29396E-23
 -1         3 3.40829E-04-3.74522E-28-1.32349E-23
 -1         5 1.76447E-04-9.37680E-28 8.27181E-25
 -1         8 2.64719E-03-4.26098E-07 0.00000E+00
 -1         9 2.64004E-03-1.60625E-04 0.00000E+00
 -1        10 3.09044E-04-3.43864E-06 0.00000E+00
 -1        12 1.78262E-04 8.07172E-07-1.24077E-24
 -1        15 2.63334E-03-4.53486E-07 0.00000E+00
 -1        16 2.69505E-03-1.62312E-04 0.00000E+00
 -1        17 2.10372E-04-7.82658E-06 0.00000E+00
 -1        18 1.82120E-04 3.39945E-05 0.00000E+00
 -1        19 1.83710E-04 1.60801E-06 0.00000E+00
 -1        20 1.83850E-04-9.52165E-06 0.00000E+00
 -1        21 1.82960E-04-2.46592E-05 3.30872E-24
 -1        24 3.05705E-05-1.20333E-05 0.00000E+00
 -1        25 1.92749E-04 3.42194E-05 0.00000E+00
 -1        26 1.93431E-04 2.22675E-06 0.00000E+00
 -1        27 1.91236E-04-1.30725E-05 0.00000E+00
 -1        28 1.90918E-04-2.52803E-05 0.00000E+00
 -1        32 0.00000E+00 0.00000E+00 0.00000E+00
 -1        33 2.02146E-04 2.97888E-06 0.00000E+00
 -1        34 2.00032E-04-1.31282E-05 0.00000E+00
 -1        35 1.98103E-04-2.56220E-05 0.00000E+00
 -1        51 2.65835E-03-8.76787E-08 6.61744E-24
 -1        52 2.65689E-03-1.57445E-07-3.30872E-24
 -1        53 2.65491E-03-2.23942E-07 0.00000E+00
 -1        54 2.65253E-03-2.89397E-07 0.00000E+00
 -1        55 2.64992E-03-3.55552E-07 1.65436E-24
 -1        56 2.65286E-03 5.13845E-06-5.29396E-23
 -1        57 2.64177E-03 2.21899E-05-5.29396E-23
 -1        58 2.62749E-03 4.72723E-05 0.00000E+00
 -1        59 2.61182E-03 7.57145E-05 0.00000E+00
 -1        60 2.59691E-03 1.02280E-04-1.05879E-22
 -1        61 2.58479E-03 1.21885E-04 5.29396E-23
 -1        62 2.57690E-03 1.30682E-04 0.00000E+00
 -1        63 2.57420E-03 1.25777E-04-5.29396E-23
 -1        64 2.57663E-03 1.06760E-04-1.05879E-22
 -1        65 2.58368E-03 7.45122E-05 0.00000E+00
 -1        66 2.59407E-03 3.23675E-05 1.05879E-22
 -1        67 2.60632E-03-1.54067E-05 5.29396E-23
 -1        68 2.61866E-03-6.34856E-05-1.05879E-22
 -1        69 2.62938E-03-1.06508E-04 0.00000E+00
 -1        70 2.63690E-03-1.40072E-04 5.29396E-23
 -1        86 1.48427E-03-5.22777E-06 0.00000E+00
 -1        87 1.70913E-03-3.21823E-05-1.32349E-23
 -1        88 2.01141E-03-7.82762E-05 2.64698E-23
 -1        89 2.31739E-03-1.25518E-04 1.32349E-23
 -1        90 2.55125E-03-1.54431E-04 0.00000E+00
 -1       121 3.39936E-04-5.55555E-07 1.32349E-23
 -1       122 3.37262E-04-1.11417E-06-6.61744E-24
 -1       123 3.32815E-04-1.67884E-06 1.32349E-23
 -1       124 3.26614E-04-2.25259E-06 0.00000E+00
 -1       125 3.18680E-04-2.83803E-06-1.32349E-23
 -1       191 1.76497E-04 1.34591E-07 8.27181E-25
 -1       192 1.76648E-04 2.69170E-07 4.13590E-25
 -1       193 1.76901E-04 4.03730E-07 8.27181E-25
 -1       194 1.77254E-04 5.38259E-07-1.24077E-24
 -1       195 1.77707E-04 6.72744E-07-2.48154E-24
 -1       251 2.64684E-03 2.37581E-06 6.61744E-24
 -1       252 2.64648E-03 6.05873E-06 0.00000E+00
 -1       253 2.64613E-03 9.40544E-06 0.00000E+00
 -1       254 2.64577E-03 1.12033E-05-6.61744E-24
 -1       255 2.64542E-03 1.05095E-05 0.00000E+00
 -1       256 2.64505E-03 6.41777E-06-6.61744E-24
 -1       257 2.64467E-03-1.38491E-06 1.32349E-23
 -1       258 2.64425E-03-1.31574E-05 0.00000E+00
 -1       259 2.64378E-03-2.84658E-05 0.00000E+00
 -1       260 2.64326E-03-4.68247E-05 0.00000E+00
 -1       261 2.64271E-03-6.72157E-05-1.32349E-23
 -1       262 2.64213E-03-8.85914E-05-6.61744E-24
 -1       263 2.64156E-03-1.09731E-04 0.00000E+00
 -1       264 2.64102E-03-1.29419E-04 0.00000E+00
 -1       265 2.64052E-03-1.46692E-04 1.32349E-23
 -1       266 2.64488E-03-4.36673E-07 0.00000E+00
 -1       267 2.64257E-03-4.40505E-07 0.00000E+00
 -1       268 2.64027E-03-4.44764E-07 8.27181E-25
 -1       269 2.63796E-03-4.47758E-07 2.06795E-25
 -1       270 2.63565E-03-4.50723E-07 0.00000E+00
 -1       271 2.64613E-03 5.12811E-07 0.00000E+00
 -1       272 2.64587E-03-7.48585E-07 6.61744E-24
 -1       273 2.64638E-03-4.09648E-06 0.00000E+00
 -1       274 2.64762E-03-9.40777E-06 0.00000E+00
 -1       275 2.64953E-03-1.65401E-05 0.00000E+00
 -1       276 2.65205E-03-2.53373E-05 1.32349E-23
 -1       277 2.65512E-03-3.56282E-05 0.00000E+00
 -1       278 2.65866E-03-4.72296E-05 1.32349E-23
 -1       279 2.66261E-03-5.99468E-05 0.00000E+00
 -1       280 2.66688E-03-7.35757E-05-1.32349E-23
 -1       281 2.67141E-03-8.79043E-05 2.64698E-23
 -1       282 2.67611E-03-1.02715E-04 1.32349E-23
 -1       283 2.68091E-03-1.17785E-04-2.64698E-23
 -1       284 2.68571E-03-1.32891E-04 0.00000E+00
 -1       285 2.69045E-03-1.47809E-04 0.00000E+00
 -1       301 2.65010E-03-1.60937E-04 6.61744E-24
 -1       302 2.65852E-03-1.61206E-04-3.30872E-24
 -1       303 2.66627E-03-1.61467E-04 0.00000E+00
 -1       304 2.67430E-03-1.61728E-04 6.61744E-24
 -1       305 2.68358E-03-1.62002E-04 0.00000E+00
 -1       306 2.67736E-03-3.12307E-04 0.00000E+00
 -1       307 2.74136E-03-7.21863E-04 0.00000E+00
 -1       308 2.78900E-03-1.32219E-03 1.05879E-22
 -1       309 2.81406E-03-2.01848E-03 0.00000E+00
 -1       310 2.84605E-03-2.68604E-03 1.05879E-22
 -1       311 2.90556E-03-3.20270E-03 5.29396E-23
 -1       312 2.96382E-03-3.48818E-03 1.05879E-22
 -1       313 2.96127E-03-3.50385E-03 0.00000E+00
 -1       314 2.82519E-03-3.26087E-03 0.00000E+00
 -1       315 2.51465E-03-2.82220E-03-5.29396E-23
 -1       316 2.04709E-03-2.26373E-03 1.05879E-22
 -1       317 1.48692E-03-1.65471E-03 5.29396E-23
 -1       318 9.46751E-04-1.05629E-03 0.00000E+00
 -1       319 5.33286E-04-5.33636E-04 0.00000E+00
 -1       320 2.90141E-04-1.60212E-04 1.05879E-22
 -1       336 2.97521E-04-4.10237E-06 0.00000E+00
 -1       337 2.83935E-04-4.79151E-06-6.61744E-24
 -1       338 2.68349E-04-5.50819E-06 0.00000E+00
 -1       339 2.50837E-04-6.25320E-06-6.61744E-24
 -1       340 2.31481E-04-7.03095E-06 0.00000E+00
 -1       406 1.78918E-04 9.41526E-07 1.65436E-24
 -1       407 1.79675E-04 1.07577E-06 1.24077E-24
 -1       408 1.80532E-04 1.20985E-06-1.65436E-24
 -1       409 1.81491E-04 1.34359E-06 0.00000E+00
 -1       410 1.82550E-04 1.47673E-06-8.27181E-25
 -1       521 2.73303E-03-3.23318E-04 0.00000E+00
 -1       522 2.79537E-03-7.52737E-04 5.29396E-23
 -1       523 2.83685E-03-1.38014E-03 0.00000E+00
 -1       524 2.85309E-03-2.10414E-03-5.29396E-23
 -1       525 2.87750E-03-2.79742E-03 0.00000E+00
 -1       526 2.93354E-03-3.33544E-03 5.29396E-23
 -1       527 2.99136E-03-3.63128E-03 0.00000E+00
 -1       528 2.98666E-03-3.64540E-03-5.29396E-23
 -1       529 2.83919E-03-3.38886E-03 0.00000E+00
 -1       530 2.50584E-03-2.93220E-03-5.29396E-23
 -1       531 2.00476E-03-2.35498E-03-1.05879E-22
 -1       532 1.40652E-03-1.72904E-03-5.29396E-23
 -1       533 8.28841E-04-1.11309E-03 1.05879E-22
 -1       534 3.83305E-04-5.70057E-04 5.29396E-23
 -1       535 1.19621E-04-1.77584E-04-2.11758E-22
 -1       536 2.09625E-04 2.68819E-05 6.61744E-24
 -1       537 2.07728E-04 8.69616E-05-1.65436E-24
 -1       538 2.04798E-04 1.63198E-04 0.00000E+00
 -1       539 2.01341E-04 2.46292E-04 0.00000E+00
 -1       540 1.98231E-04 3.24810E-04 0.00000E+00
 -1       541 1.96209E-04 3.87340E-04 0.00000E+00
 -1       542 1.95275E-04 4.27165E-04 3.30872E-24
 -1       543 1.95051E-04 4.37713E-04-1.65436E-24
 -1       544 1.94730E-04 4.19757E-04 0.00000E+00
 -1       545 1.93569E-04 3.74286E-04-1.65436E-24
 -1       546 1.91407E-04 3.09385E-04 3.30872E-24
 -1       547 1.88481E-04 2.33258E-04 0.00000E+00
 -1       548 1.85583E-04 1.57509E-04 0.00000E+00
 -1       549 1.83491E-04 9.37462E-05 1.65436E-24
 -1       550 1.82404E-04 4.99544E-05 0.00000E+00
 -1       551 1.85321E-04-8.39446E-06 0.00000E+00
 -1       552 1.57037E-04-9.04190E-06 0.00000E+00
 -1       553 1.26461E-04-9.75092E-06 6.61744E-24
 -1       554 9.45537E-05-1.05006E-05-6.61744E-24
 -1       555 6.22720E-05-1.12636E-05-1.32349E-23
 -1       556 2.02775E-04 1.16012E-05 0.00000E+00
 -1       557 1.96639E-04 2.73543E-05-2.64698E-23
 -1       558 1.91829E-04 3.97193E-05 0.00000E+00
 -1       559 1.88213E-04 4.90052E-05 0.00000E+00
 -1       560 1.85663E-04 5.55213E-05 0.00000E+00
 -1       561 1.84051E-04 5.95794E-05 0.00000E+00
 -1       562 1.83252E-04 6.14928E-05 0.00000E+00
 -1       563 1.83143E-04 6.15754E-05 0.00000E+00
 -1       564 1.83603E-04 6.01423E-05 0.00000E+00
 -1       565 1.84511E-04 5.75089E-05 6.61744E-24
 -1       566 1.85748E-04 5.39914E-05 0.00000E+00
 -1       567 1.87197E-04 4.99063E-05 0.00000E+00
 -1       568 1.88738E-04 4.55704E-05 0.00000E+00
 -1       569 1.90255E-04 4.13002E-05 0.00000E+00
 -1       570 1.91631E-04 3.74125E-05 0.00000E+00
 -1       571 1.82216E-04 3.18933E-05 2.48154E-24
 -1       572 1.82315E-04 2.97268E-05 8.27181E-25
 -1       573 1.82414E-04 2.75103E-05 0.00000E+00
 -1       574 1.82513E-04 2.52603E-05 1.65436E-24
 -1       575 1.82612E-04 2.29930E-05 0.00000E+00
 -1       576 1.82711E-04 2.07249E-05-1.65436E-24
 -1       577 1.82811E-04 1.84723E-05 3.30872E-24
 -1       578 1.82910E-04 1.62518E-05 0.00000E+00
 -1       579 1.83009E-04 1.40798E-05 0.00000E+00
 -1       580 1.83109E-04 1.19726E-05 3.30872E-24
 -1       581 1.83209E-04 9.94675E-06 0.00000E+00
 -1       582 1.83309E-04 8.01864E-06 0.00000E+00
 -1       583 1.83409E-04 6.20468E-06-6.61744E-24
 -1       584 1.83509E-04 4.52110E-06 0.00000E+00
 -1       585 1.83609E-04 2.98397E-06 6.61744E-24
 -1       586 1.83850E-04 3.40341E-05-1.65436E-24
 -1       587 1.85539E-04 3.40731E-05 0.00000E+00
 -1       588 1.87231E-04 3.41118E-05 8.27181E-25
 -1       589 1.88967E-04 3.41498E-05 0.00000E+00
 -1       590 1.90793E-04 3.41865E-05 0.00000E+00
 -1       591 1.82840E-04 3.19864E-05-1.03398E-25
 -1       592 1.83563E-04 2.99584E-05 0.00000E+00
 -1       593 1.84290E-04 2.79162E-05 8.27181E-25
 -1       594 1.85021E-04 2.58646E-05 0.00000E+00
 -1       595 1.85754E-04 2.38083E-05 0.00000E+00
 -1       596 1.86486E-04 2.17520E-05 0.00000E+00
 -1       597 1.87217E-04 1.97005E-05 8.27181E-25
 -1       598 1.87944E-04 1.76584E-05-4.13590E-25
 -1       599 1.88666E-04 1.56304E-05 8.27181E-25
 -1       600 1.89381E-04 1.36213E-05 4.13590E-25
 -1       601 1.90087E-04 1.16358E-05 8.27181E-25
 -1       602 1.90782E-04 9.67839E-06 2.06795E-25
 -1       603 1.91466E-04 7.75396E-06-4.13590E-25
 -1       604 1.92136E-04 5.86727E-06 1.03398E-25
 -1       605 1.92790E-04 4.02291E-06 0.00000E+00
 -1       606 1.83723E-04 4.64642E-07 0.00000E+00
 -1       607 1.83733E-04-5.92682E-07 1.65436E-24
 -1       608 1.83742E-04-1.56901E-06 3.30872E-24
 -1       609 1.83750E-04-2.47003E-06 0.00000E+00
 -1       610 1.83758E-04-3.30151E-06 0.00000E+00
 -1       611 1.83767E-04-4.06924E-06 0.00000E+00
 -1       612 1.83775E-04-4.77904E-06 0.00000E+00
 -1       613 1.83783E-04-5.43675E-06 0.00000E+00
 -1       614 1.83792E-04-6.04818E-06 0.00000E+00
 -1       615 1.83800E-04-6.61914E-06 0.00000E+00
 -1       616 1.83809E-04-7.15549E-06 0.00000E+00
 -1       617 1.83817E-04-7.66303E-06 0.00000E+00
 -1       618 1.83825E-04-8.14759E-06 0.00000E+00
 -1       619 1.83834E-04-8.61500E-06 0.00000E+00
 -1       620 1.83842E-04-9.07109E-06 0.00000E+00
 -1       621 1.85047E-04 1.71169E-06 0.00000E+00
 -1       622 1.86541E-04 1.81562E-06 8.27181E-25
 -1       623 1.88160E-04 1.91934E-06 0.00000E+00
 -1       624 1.89870E-04 2.02274E-06 0.00000E+00
 -1       625 1.91638E-04 2.12584E-06-3.30872E-24
 -1       626 1.84250E-04 5.00670E-07 3.30872E-24
 -1       627 1.84768E-04-5.43371E-07 0.00000E+00
 -1       628 1.85265E-04-1.53197E-06 0.00000E+00
 -1       629 1.85745E-04-2.47329E-06 1.65436E-24
 -1       630 1.86210E-04-3.37555E-06 0.00000E+00
 -1       631 1.86664E-04-4.24696E-06 0.00000E+00
 -1       632 1.87109E-04-5.09572E-06 3.30872E-24
 -1       633 1.87549E-04-5.93007E-06 0.00000E+00
 -1       634 1.87986E-04-6.75823E-06 3.30872E-24
 -1       635 1.88424E-04-7.58839E-06-1.65436E-24
 -1       636 1.88866E-04-8.42881E-06 3.30872E-24
 -1       637 1.89315E-04-9.28769E-06 0.00000E+00
 -1       638 1.89774E-04-1.01732E-05-1.65436E-24
 -1       639 1.90245E-04-1.10937E-05 8.27181E-25
 -1       640 1.90732E-04-1.20574E-05 1.65436E-24
 -1       656 1.84533E-04-1.00988E-05 0.00000E+00
 -1       657 1.85636E-04-1.06994E-05 6.61744E-24
 -1       658 1.87019E-04-1.12986E-05 0.00000E+00
 -1       659 1.88536E-04-1.18975E-05 0.00000E+00
 -1       660 1.90003E-04-1.24981E-05-6.61744E-24
 -1       661 1.84106E-04-1.00172E-05-8.27181E-25
 -1       662 1.84399E-04-1.06043E-05 8.27181E-25
 -1       663 1.84724E-04-1.12777E-05 1.65436E-24
 -1       664 1.85080E-04-1.20311E-05 0.00000E+00
 -1       665 1.85464E-04-1.28586E-05 1.65436E-24
 -1       666 1.85873E-04-1.37542E-05 0.00000E+00
 -1       667 1.86306E-04-1.47125E-05 1.65436E-24
 -1       668 1.86760E-04-1.57278E-05 0.00000E+00
 -1       669 1.87234E-04-1.67947E-05 0.00000E+00
 -1       670 1.87724E-04-1.79080E-05 0.00000E+00
 -1       671 1.88230E-04-1.90625E-05 0.00000E+00
 -1       672 1.88750E-04-2.02531E-05-8.27181E-25
 -1       673 1.89281E-04-2.14749E-05 0.00000E+00
 -1       674 1.89821E-04-2.27231E-05-4.13590E-25
 -1       675 1.90369E-04-2.39926E-05 0.00000E+00
 -1       676 1.84291E-04-2.47633E-05 0.00000E+00
 -1       677 1.85622E-04-2.48674E-05-1.65436E-24
 -1       678 1.86950E-04-2.49714E-05 0.00000E+00
 -1       679 1.88276E-04-2.50751E-05-1.65436E-24
 -1       680 1.89599E-04-2.51788E-05-1.65436E-24
 -1       771 1.86921E-05 1.45184E-05-5.29396E-23
 -1       772 8.69690E-06 3.63264E-05 0.00000E+00
 -1       773 4.94781E-07 5.36195E-05 0.00000E+00
 -1       774-6.03763E-06 6.66542E-05 2.64698E-23
 -1       775-1.10210E-05 7.56969E-05 0.00000E+00
 -1       776-1.45811E-05 8.10311E-05-2.64698E-23
 -1       777-1.68431E-05 8.29500E-05 0.00000E+00
 -1       778-1.79352E-05 8.17605E-05 0.00000E+00
 -1       779-1.79845E-05 7.77781E-05 5.29396E-23
 -1       780-1.71206E-05 7.13296E-05 0.00000E+00
 -1       781-1.54719E-05 6.27485E-05-5.29396E-23
 -1       782-1.31684E-05 5.23769E-05 2.64698E-23
 -1       783-1.03393E-05 4.05619E-05 5.29396E-23
 -1       784-7.11499E-06 2.76563E-05 0.00000E+00
 -1       785-3.62482E-06 1.40162E-05-5.29396E-23
 -1       786 1.92787E-04 3.19925E-05 1.29247E-26
 -1       787 1.92829E-04 2.98156E-05-4.13590E-25
 -1       788 1.92871E-04 2.76804E-05 8.27181E-25
 -1       789 1.92913E-04 2.55787E-05-8.27181E-25
 -1       790 1.92956E-04 2.35058E-05 0.00000E+00
 -1       791 1.92999E-04 2.14570E-05 8.27181E-25
 -1       792 1.93042E-04 1.94301E-05 1.65436E-24
 -1       793 1.93085E-04 1.74228E-05 0.00000E+00
 -1       794 1.93128E-04 1.54350E-05 0.00000E+00
 -1       795 1.93171E-04 1.34665E-05-8.27181E-25
 -1       796 1.93214E-04 1.15192E-05 1.65436E-24
 -1       797 1.93257E-04 9.59488E-06 0.00000E+00
 -1       798 1.93300E-04 7.69790E-06 0.00000E+00
 -1       799 1.93344E-04 5.83253E-06-8.27181E-25
 -1       800 1.93387E-04 4.00627E-06 1.65436E-24
 -1       801 1.47307E-04 3.07558E-05 0.00000E+00
 -1       802 9.89474E-06 1.91994E-05 0.00000E+00
 -1       803-1.07548E-04 9.70367E-06 0.00000E+00
 -1       804-9.54572E-05 6.75041E-06 2.64698E-23
 -1       805-3.15501E-05 2.65967E-06 0.00000E+00
 -1       806 1.93469E-04 3.19239E-05 0.00000E+00
 -1       807 1.94175E-04 2.96546E-05 1.65436E-24
 -1       808 1.94869E-04 2.74167E-05 3.30872E-24
 -1       809 1.95549E-04 2.52142E-05 0.00000E+00
 -1       810 1.96214E-04 2.30512E-05 0.00000E+00
 -1       811 1.96863E-04 2.09315E-05 0.00000E+00
 -1       812 1.97494E-04 1.88592E-05 0.00000E+00
 -1       813 1.98106E-04 1.68381E-05 1.65436E-24
 -1       814 1.98698E-04 1.48721E-05 3.30872E-24
 -1       815 1.99267E-04 1.29651E-05 8.27181E-25
 -1       816 1.99814E-04 1.11210E-05 0.00000E+00
 -1       817 2.00335E-04 9.34363E-06 8.27181E-25
 -1       818 2.00830E-04 7.63691E-06 1.65436E-24
 -1       819 2.01297E-04 6.00467E-06 8.27181E-25
 -1       820 2.01736E-04 4.45074E-06 0.00000E+00
 -1       821 1.93302E-04-9.33831E-08 0.00000E+00
 -1       822 1.93162E-04-3.53612E-06 0.00000E+00
 -1       823 1.93020E-04-7.68300E-06 0.00000E+00
 -1       824 1.92876E-04-1.21111E-05 0.00000E+00
 -1       825 1.92732E-04-1.63218E-05 3.30872E-24
 -1       826 1.92591E-04-1.98174E-05 1.65436E-24
 -1       827 1.92453E-04-2.22948E-05-3.30872E-24
 -1       828 1.92317E-04-2.34574E-05 1.65436E-24
 -1       829 1.92181E-04-2.33658E-05 3.30872E-24
 -1       830 1.92045E-04-2.20882E-05 0.00000E+00
 -1       831 1.91907E-04-2.00155E-05 0.00000E+00
 -1       832 1.91769E-04-1.75431E-05 1.65436E-24
 -1       833 1.91632E-04-1.51755E-05 3.30872E-24
 -1       834 1.91497E-04-1.34164E-05 0.00000E+00
 -1       835 1.91362E-04-1.26044E-05-8.27181E-25
 -1       836 1.95095E-04 2.35148E-06-3.30872E-24
 -1       837 1.96633E-04 2.47935E-06 0.00000E+00
 -1       838 1.98075E-04 2.60715E-06 0.00000E+00
 -1       839 1.99453E-04 2.73425E-06-8.27181E-25
 -1       840 2.00800E-04 2.86119E-06 8.27181E-25
 -1       856 1.91220E-04-1.41101E-05 0.00000E+00
 -1       857 1.91200E-04-1.50121E-05 1.29247E-26
 -1       858 1.91181E-04-1.57996E-05-2.06795E-25
 -1       859 1.91161E-04-1.64937E-05-2.06795E-25
 -1       860 1.91142E-04-1.71157E-05 0.00000E+00
 -1       861 1.91122E-04-1.76867E-05-2.06795E-25
 -1       862 1.91102E-04-1.82282E-05 0.00000E+00
 -1       863 1.91082E-04-1.87614E-05 4.13590E-25
 -1       864 1.91062E-04-1.93075E-05 0.00000E+00
 -1       865 1.91042E-04-1.98881E-05-4.13590E-25
 -1       866 1.91022E-04-2.05242E-05-8.27181E-25
 -1       867 1.91002E-04-2.12372E-05 0.00000E+00
 -1       868 1.90982E-04-2.20482E-05 0.00000E+00
 -1       869 1.90961E-04-2.29784E-05 0.00000E+00
 -1       870 1.90941E-04-2.40488E-05 8.27181E-25
 -1       871 1.92561E-04-1.30774E-05 8.27181E-25
 -1       872 1.94033E-04-1.30856E-05 0.00000E+00
 -1       873 1.95584E-04-1.30946E-05 0.00000E+00
 -1       874 1.97146E-04-1.31043E-05-7.75482E-26
 -1       875 1.98651E-04-1.31145E-05-4.13590E-25
 -1       876 1.91752E-04-1.40956E-05 3.30872E-24
 -1       877 1.92246E-04-1.50519E-05 0.00000E+00
 -1       878 1.92718E-04-1.59494E-05-3.30872E-24
 -1       879 1.93171E-04-1.67956E-05-1.65436E-24
 -1       880 1.93608E-04-1.75978E-05 3.30872E-24
 -1       881 1.94032E-04-1.83633E-05-1.65436E-24
 -1       882 1.94444E-04-1.90997E-05 3.30872E-24
 -1       883 1.94848E-04-1.98140E-05 1.65436E-24
 -1       884 1.95247E-04-2.05138E-05 0.00000E+00
 -1       885 1.95642E-04-2.12063E-05 0.00000E+00
 -1       886 1.96038E-04-2.18989E-05 0.00000E+00
 -1       887 1.96437E-04-2.25988E-05 1.65436E-24
 -1       888 1.96841E-04-2.33135E-05-3.30872E-24
 -1       889 1.97252E-04-2.40504E-05 0.00000E+00
 -1       890 1.97674E-04-2.48168E-05 0.00000E+00
 -1       891 1.92258E-04-2.53377E-05 0.00000E+00
 -1       892 1.93574E-04-2.53953E-05 8.27181E-25
 -1       893 1.94842E-04-2.54527E-05 8.27181E-25
 -1       894 1.96036E-04-2.55099E-05 4.13590E-25
 -1       895 1.97131E-04-2.55669E-05 0.00000E+00
 -1       956 2.02016E-04 1.68113E-06-1.65436E-24
 -1       957 2.01884E-04 4.74634E-07 0.00000E+00
 -1       958 2.01751E-04-6.51308E-07-3.30872E-24
 -1       959 2.01619E-04-1.70799E-06 1.65436E-24
 -1       960 2.01486E-04-2.70676E-06-3.30872E-24
 -1       961 2.01354E-04-3.65899E-06 0.00000E+00
 -1       962 2.01221E-04-4.57606E-06 3.30872E-24
 -1       963 2.01089E-04-5.46939E-06 0.00000E+00
 -1       964 2.00956E-04-6.35036E-06 0.00000E+00
 -1       965 2.00824E-04-7.23039E-06-1.65436E-24
 -1       966 2.00691E-04-8.12089E-06 0.00000E+00
 -1       967 2.00559E-04-9.03324E-06 0.00000E+00
 -1       968 2.00426E-04-9.97884E-06 0.00000E+00
 -1       969 2.00294E-04-1.09691E-05 0.00000E+00
 -1       970 2.00162E-04-1.20152E-05 0.00000E+00
 -1       971 1.99912E-04-1.42406E-05 3.30872E-24
 -1       972 1.99791E-04-1.52584E-05 0.00000E+00
 -1       973 1.99670E-04-1.61921E-05-3.30872E-24
 -1       974 1.99549E-04-1.70526E-05 0.00000E+00
 -1       975 1.99428E-04-1.78506E-05-3.30872E-24
 -1       976 1.99306E-04-1.85971E-05 1.65436E-24
 -1       977 1.99185E-04-1.93028E-05 0.00000E+00
 -1       978 1.99064E-04-1.99789E-05 1.65436E-24
 -1       979 1.98943E-04-2.06360E-05-3.30872E-24
 -1       980 1.98822E-04-2.12851E-05 0.00000E+00
 -1       981 1.98701E-04-2.19371E-05 3.30872E-24
 -1       982 1.98580E-04-2.26030E-05 1.65436E-24
 -1       983 1.98459E-04-2.32935E-05 3.30872E-24
 -1       984 1.98339E-04-2.40197E-05-1.65436E-24
 -1       985 1.98219E-04-2.47923E-05 0.00000E+00
 -3
    1PSTEP                        28          14           1          
  100CL  114 6.62109E-01         409                     0   14           1
 -4  STRESS      6    1
 -5  SXX         1    4    1    1
 -5  SYY         1    4    2    2
 -5  SZZ         1    4    3    3
 -5  SXY         1    4    1    2
 -5  SYZ         1    4    2    3
 -5  SZX         1    4    3    1
 -1         1-5.23585E+06-1.67843E+06-1.12204E+06-1.48553E+06-2.89583E-09-2.27039E-07
 -1         2 1.18820E+06 1.75022E+07 4.19058E+06 5.25452E+06 2.39233E-08 1.10987E-07
 -1         3-1.47185E+03-1.57760E+06 4.08759E+02-2.22683E+03-6.26279E-10-6.69097E-08
 -1         5-7.27985E+01 3.85403E+05 9.95657E+00-1.31360E+00-2.93092E-10-4.38522E-08
 -1         8-6.23254E+05-2.16447E+05-7.28656E+04-2.58457E+05 1.27329E-10 1.01529E-07
 -1         9 1.13065E+07 3.04018E+06 2.57039E+06-5.16592E+05 8.26549E-10-8.23988E-08
 -1        10-2.29802E+03-1.64399E+06-3.97456E+03-1.50639E+04-1.39480E-08-6.99204E-08
 -1        12-6.88837E+01 3.85424E+05 3.27144E+02-8.96485E+00-8.10839E-10 1.23327E-08
 -1        15 9.95894E+02 5.47294E+02 3.21920E+03 9.94400E-01-1.28857E-09-3.61113E-07
 -1        16 2.24290E+07-2.88006E+05 3.07127E+06-2.14722E+06 3.57007E-09 3.55610E-07
 -1        17 8.19788E+06 6.12595E+06 2.21491E+06 5.87602E+06 2.19676E-08 3.28990E-08
 -1        18 1.40146E+05 3.29165E+04 3.70155E+03-1.19059E+05 1.44889E-08 1.34514E-08
 -1        19 1.22126E+05 1.41328E+05-9.42176E+02 2.19421E+04 1.62654E-09-7.67650E-09
 -1        20-8.15411E+04-5.72412E+05-1.28428E+05 2.51907E+04-1.00757E-09 3.03468E-09
 -1        21-4.55747E+01-2.95631E+05-9.23050E+02 2.69872E+02 1.55745E-08-2.38849E-08
 -1        24 1.36566E+07 1.17583E+07 3.78853E+06 1.08953E+07-1.66357E-07-5.01556E-08
 -1        25 1.20994E+05 2.52755E+05 9.62822E+04-6.36905E+05-1.69366E-09 2.22390E-09
 -1        26-5.52434E+04 9.20471E+04-2.45800E+04 1.21324E+03-6.33008E-11 1.27094E-08
 -1        27-7.55658E+04-3.09295E+05-1.13101E+05 6.88331E+04 3.47412E-09-1.78322E-09
 -1        28 2.22202E+04-8.52084E+04 1.68750E+04 2.06310E+04-2.80113E-09-1.18944E-08
 -1        32-1.67755E+06-3.16636E+06-1.95226E+05 4.41158E+05-4.27463E-08-1.02798E-08
 -1        33-1.78128E+05 9.27638E+04 3.23144E+04-3.84555E+04-3.31481E-09 2.12916E-08
 -1        34-2.23187E+05-2.49566E+04 6.87305E+02 7.54582E+04-5.69221E-09-3.61448E-09
 -1        35-2.29049E+04-3.37921E+04-1.34612E+03 5.14317E+04-3.26736E-09 3.86111E-09
 -1        51 5.91033E+04-1.80090E+05 1.25357E+05-4.74763E+05-2.18279E-10 8.57617E-08
 -1        52 2.01904E+04-1.58431E+05 6.60448E+04-5.53662E+05-1.57343E-10 5.61035E-07
 -1        53 4.33906E+03-1.73836E+05 3.48298E+04-4.73105E+05 5.72982E-10 1.16604E-07
 -1        54 8.06690E+03-1.69673E+05 2.94958E+04-5.55310E+05-6.18456E-11-3.18716E-07
 -1        55 1.74926E+04-1.77138E+05 3.69070E+04-4.72975E+05 1.41881E-10 9.37671E-08
 -1        56-9.57711E+06-1.22955E+06-8.60342E+05-3.90516E+06-3.05008E-08-2.58908E-07
 -1        57-1.06187E+07-1.13206E+06-5.52746E+05-2.96546E+06 2.32103E-09-2.45229E-07
 -1        58-9.54696E+06-1.62427E+06-1.95982E+05-4.00965E+06-6.83940E-09 1.22600E-08
 -1        59-1.06063E+07-6.98030E+05-1.12272E+05-2.92907E+06-2.68633E-08 1.23546E-07
 -1        60-9.61768E+06-1.63307E+06-5.07764E+04-3.96874E+06-3.40224E-08 1.25976E-07
 -1        61-1.02301E+07-8.97060E+05-7.61841E+03-3.13280E+06-2.80670E-08 1.75372E-07
 -1        62-9.86313E+06-1.46493E+06-3.96289E+04-3.76040E+06-1.07684E-09-2.49092E-08
 -1        63-9.70186E+06-1.34279E+06 1.73889E+04-3.60409E+06 4.27244E-08-1.48226E-07
 -1        64-1.01021E+07-1.21818E+06-3.62636E+04-3.46857E+06-9.03674E-09 6.70098E-08
 -1        65-9.40392E+06-1.74258E+06-7.79039E+03-4.15222E+06-6.44286E-09-9.34015E-08
 -1        66-1.02147E+07-1.02801E+06-4.33141E+04-3.25215E+06 2.58660E-09-2.15332E-07
 -1        67-9.36222E+06-1.93664E+06-1.00830E+05-4.40481E+06-8.61673E-08-2.71230E-08
 -1        68-1.01970E+07-9.88096E+05-1.78248E+05-3.25045E+06-3.42971E-08-2.24776E-07
 -1        69-9.58816E+06-2.08218E+06-4.92986E+05-4.12356E+06-5.79139E-08-1.94064E-07
 -1        70-9.94412E+06-9.24253E+05-7.79233E+05-3.49995E+06 5.16593E-09-1.52446E-07
 -1        86-1.21082E+06-1.33954E+07-2.28959E+06-2.48089E+06-2.35059E-07-1.45024E-07
 -1        87 1.85645E+06 4.75954E+06 1.90629E+06 4.80807E+06-4.05424E-07-1.45709E-07
 -1        88-3.26051E+05-2.19498E+06 1.74443E+05-2.26661E+06-3.68242E-07-2.26549E-07
 -1        89 2.49436E+06 4.53890E+06 1.94917E+06 4.95360E+06-5.45617E-07-2.79706E-07
 -1        90-1.78013E+06-1.32325E+07-2.47950E+06-2.64535E+06-1.35049E-07-1.60944E-08
 -1       121-2.01730E+03-1.58246E+06-5.32960E+02 1.10393E+03 1.38778E-09-2.29047E-08
 -1       122-1.28449E+03-1.57766E+06 7.77517E+02-4.45711E+03-5.48862E-09-2.32758E-08
 -1       123-2.03806E+03-1.58259E+06 2.86208E+02 3.29674E+03 4.23984E-09 8.05449E-09
 -1       124 3.70025E+02-1.57721E+06 2.98734E+03-9.31978E+03-1.02727E-08 6.18638E-09
 -1       125-2.85849E+03-1.58350E+06 3.53043E+03 5.92157E+03 6.30826E-09-1.48539E-08
 -1       191-7.67262E+01 3.85421E+05 8.58101E+00 6.84163E-01-5.36239E-10 5.22414E-09
 -1       192-7.37581E+01 3.85403E+05 2.12415E+01-4.22176E+00-8.01011E-10-1.57888E-09
 -1       193-7.92531E+01 3.85421E+05 3.62742E+01 3.70521E+00-1.01505E-09-1.10522E-08
 -1       194-7.68353E+01 3.85407E+05 8.07371E+01-9.58307E+00-4.54759E-10-2.22799E-08
 -1       195-8.41034E+01 3.85419E+05 1.54684E+02 6.23006E+00-1.48309E-09-9.66611E-09
 -1       251-1.00410E+06 2.02642E+04-4.74728E+04-1.76146E+04 1.24569E-08 1.20852E-07
 -1       252-1.02299E+06-2.29322E+04-3.30947E+04 5.96590E+04-1.61777E-08-8.38859E-08
 -1       253-1.01232E+06 3.68717E+03-1.22375E+04-1.61779E+04-1.22191E-09-2.18570E-07
 -1       254-1.00773E+06-2.92361E+03-6.07114E+03 4.74536E+04 8.76298E-09-2.66463E-07
 -1       255-1.01796E+06 7.05340E+02-3.95134E+03-5.39847E+03-8.63088E-09-1.86107E-07
 -1       256-9.99691E+05-4.14126E+01 1.17593E+03 2.05554E+04 9.29651E-09-2.73371E-09
 -1       257-1.02043E+06-5.07212E+02-1.85173E+03 1.06991E+04 7.16523E-09-1.67760E-07
 -1       258-1.00146E+06 8.49460E+02 3.01743E+03-1.08251E+04-1.76941E-08-1.68299E-07
 -1       259-1.01709E+06-8.70198E+02 9.25040E+02 2.59652E+04 2.48929E-09-2.00775E-07
 -1       260-1.00896E+06 3.19323E+03 5.50628E+03-3.48072E+04 3.26872E-09-3.02355E-08
 -1       261-1.01292E+06-1.47867E+03 8.08095E+03 3.46869E+04 2.01359E-08 1.33706E-07
 -1       262-1.00877E+06 1.17623E+04 1.99909E+04-4.24661E+04-3.07834E-09 3.37195E-07
 -1       263-1.01682E+06-8.29277E+03 3.12957E+04 3.36248E+04 6.58144E-09 1.42250E-07
 -1       264-9.79716E+05 6.18934E+04 8.66861E+04-3.08725E+04 8.42630E-09-1.68506E-07
 -1       265-1.04219E+06-5.26619E+04 1.19719E+05 2.30902E+04 3.32125E-09-4.16258E-08
 -1       266-1.80292E+04-8.43120E+03 4.22981E+04-2.12756E+01-1.27147E-09-5.16515E-07
 -1       267 2.09006E+04 9.82559E+03 2.98975E+04 2.45496E+01-2.19916E-09-1.13655E-06
 -1       268-2.80274E+03-1.39164E+03 1.11127E+04-3.12795E+00-2.10503E-09-8.32759E-07
 -1       269 3.30920E+03 1.66543E+03 7.22314E+03 3.64370E+00-1.76260E-09-9.84416E-07
 -1       270-4.96714E+02-2.73645E+02 3.48671E+03-4.94471E-01-1.50658E-09-5.89824E-07
 -1       271-1.59184E+06-1.99730E+05-1.19186E+05-6.17147E+05 2.72121E-09 1.97906E-08
 -1       272-1.60690E+06-3.06330E+05-7.55395E+04-6.40186E+05-1.18298E-08 5.65560E-08
 -1       273-1.61646E+06-2.26279E+05-2.86497E+04-6.09220E+05-3.67436E-10-1.17461E-07
 -1       274-1.57794E+06-2.74637E+05-1.52963E+04-6.54338E+05-3.14376E-08-9.21063E-08
 -1       275-1.62196E+06-2.26591E+05-6.99995E+03-6.05659E+05 1.37006E-08 6.23659E-08
 -1       276-1.57155E+06-2.75065E+05-3.16864E+03-6.61946E+05 2.33740E-08 9.94978E-08
 -1       277-1.62464E+06-2.24323E+05-1.90862E+03-6.03046E+05-1.36606E-09 5.00931E-08
 -1       278-1.56878E+06-2.78235E+05-8.49571E+02-6.67643E+05 5.23532E-08-2.58497E-07
 -1       279-1.62639E+06-2.22333E+05-9.77551E+02-6.01135E+05-3.49482E-08-1.32257E-07
 -1       280-1.56732E+06-2.80824E+05-1.24051E+03-6.71606E+05 1.32518E-08-1.08658E-07
 -1       281-1.62739E+06-2.20930E+05-2.29369E+03-5.99958E+05 2.76350E-08-1.52737E-07
 -1       282-1.56756E+06-2.83586E+05-5.33205E+03-6.73533E+05-4.76093E-08 2.76262E-07
 -1       283-1.62690E+06-2.19246E+05-9.48443E+03-5.99652E+05 2.02967E-08 3.21252E-08
 -1       284-1.57581E+06-2.96539E+05-2.58567E+04-6.71684E+05 1.83422E-09-1.49313E-07
 -1       285-1.61939E+06-2.09235E+05-4.02366E+04-6.01387E+05-1.04398E-08 1.68160E-07
 -1       301-3.40682E+03-6.38053E+05 1.69799E+05-1.10722E+06 1.60071E-09-2.55874E-07
 -1       302-6.17022E+02-5.91604E+05 1.02903E+05-1.64102E+06 1.15178E-08-1.02569E-07
 -1       303-1.67923E+04-6.29070E+05 5.86511E+04-1.10425E+06-6.31553E-09-2.73107E-07
 -1       304-1.71911E+04-5.96995E+05 6.02215E+04-1.64028E+06-1.83645E-08 4.44852E-08
 -1       305-2.21697E+04-6.17570E+05 7.47596E+04-1.10742E+06-8.16181E-09-5.70290E-08
 -1       306-2.98707E+07-6.16502E+06-8.51418E+06-6.16803E+05-5.64614E-08-1.26252E-07
 -1       307 2.52259E+07 3.12314E+06 5.47083E+06-1.49302E+07-8.13918E-07 1.68366E-07
 -1       308-7.10679E+06-1.01729E+06-4.82058E+05 5.15695E+06-9.51404E-08 2.96670E-07
 -1       309-3.34811E+06 8.55312E+06 2.23543E+06-2.04765E+07 4.10568E-07 2.46051E-07
 -1       310-1.23336E+07-1.86639E+06-1.95018E+06 5.15278E+06 7.11880E-08-2.22775E-07
 -1       311 3.74108E+07 1.82760E+04 7.12230E+06-8.92931E+06 5.71716E-07-1.71625E-07
 -1       312-3.15362E+07-6.61748E+06-8.38315E+06-4.84952E+06 2.86032E-07-1.82190E-08
 -1       313 4.50065E+07 1.44391E+07 1.05149E+07 2.31934E+07 2.29717E-07 2.35654E-07
 -1       314-1.72899E+07-1.74052E+07-7.43489E+06-1.24239E+07 4.54776E-07 2.00409E-07
 -1       315-1.61234E+06 2.91952E+07 5.61722E+06 1.06932E+07-6.04501E-07 2.36905E-07
 -1       316 1.27203E+06-9.81126E+06-4.62356E+05-2.66337E+06-1.26570E-06-4.24334E-07
 -1       317-1.71602E+07 2.21928E+07 2.19272E+06-8.50118E+06 7.39674E-07-7.65314E-07
 -1       318-1.06969E+06-1.25354E+07-1.97064E+06-4.25989E+06-9.87871E-07 1.11060E-07
 -1       319 6.93943E+06 3.12758E+07 6.89090E+06 1.62973E+07-9.08331E-08 2.38011E-07
 -1       320-2.23350E+07-1.73341E+07-9.68900E+06-1.26392E+07 1.90688E-07-4.99131E-08
 -1       336-6.98288E+02-1.71307E+06-1.39425E+04 8.97579E+03-2.71502E-08 4.02360E-09
 -1       337-5.42671E+03-1.71273E+06-1.81964E+04-2.17838E+04-4.88562E-08 1.73532E-09
 -1       338 3.17927E+02-1.71256E+06-2.86063E+04 1.25618E+04-3.42634E-08-5.42423E-09
 -1       339-3.03524E+04-1.73004E+06-6.46842E+04-2.88032E+04-6.21794E-08 1.28584E-08
 -1       340 2.00429E+04-1.69794E+06-1.01862E+05 1.58654E+04-4.05671E-08 3.06245E-08
 -1       406-4.71326E+01 3.85404E+05 6.42459E+02 3.26195E+00-1.95890E-09 1.28857E-08
 -1       407 1.56686E+02 3.85538E+05 1.37272E+03 2.30576E+01-5.37966E-10 3.22234E-08
 -1       408 6.35479E+02 3.85304E+05 2.73725E+03-2.66536E+01-2.31944E-09 3.23234E-08
 -1       409 2.90083E+03 3.86412E+05 6.16927E+03 2.84240E+02-6.40853E-10 1.29749E-08
 -1       410 8.45778E+03 3.84516E+05 1.25913E+04-2.74041E+02-2.92675E-09-2.27192E-09
 -1       521-3.13631E+07-7.58613E+06-9.92358E+06-2.32668E+05-8.23056E-08-1.69443E-07
 -1       522 2.60103E+07 4.08574E+06 5.55979E+06-1.83670E+07-4.60161E-07-4.74422E-07
 -1       523-7.69850E+06-1.32116E+06-4.75025E+05 5.59526E+06 1.32364E-07-2.20665E-07
 -1       524-6.81251E+06 1.15122E+07 2.41138E+06-2.34895E+07 1.02042E-06-3.62630E-07
 -1       525-1.31432E+07-2.47399E+06-2.13974E+06 5.58953E+06 4.67757E-07-2.57103E-07
 -1       526 4.07126E+07-6.32990E+04 7.46201E+06-1.15471E+07 2.46568E-07-2.35159E-08
 -1       527-3.33190E+07-8.27293E+06-9.63990E+06-4.70919E+06 2.16416E-07 1.71683E-07
 -1       528 4.90492E+07 1.60128E+07 1.09453E+07 2.62986E+07 1.39815E-07-7.91624E-09
 -1       529-1.82224E+07-1.95423E+07-8.50442E+06-1.24547E+07 7.38655E-08-2.78698E-07
 -1       530-4.07384E+06 3.38386E+07 5.93009E+06 1.02212E+07-1.65193E-07 6.60249E-07
 -1       531 1.25579E+06-1.08809E+07-4.38345E+05-2.64245E+06-9.93663E-07 4.14497E-07
 -1       532-1.97395E+07 2.42038E+07 2.39000E+06-1.26585E+07 3.59127E-07-9.45212E-07
 -1       533-1.11921E+06-1.36623E+07-2.09001E+06-4.10245E+06-3.17435E-07-9.91742E-07
 -1       534 4.91300E+06 3.62053E+07 7.15583E+06 1.68291E+07-5.38421E-08 7.45466E-07
 -1       535-2.34772E+07-1.96487E+07-1.10797E+07-1.26976E+07 9.86038E-08 4.56115E-07
 -1       536-7.02758E+05-4.68690E+04-4.61328E+04-5.42145E+04-6.94718E-09 6.18511E-08
 -1       537-5.81605E+04 4.49273E+04 8.40473E+04 1.22954E+05-1.17606E-07 1.05252E-07
 -1       538-3.94279E+05 3.21165E+03 3.90350E+03-7.17535E+04 2.14628E-08 1.09536E-07
 -1       539-2.70269E+05 2.91403E+03 2.48685E+04 1.37819E+05 1.58520E-07 1.04750E-07
 -1       540-4.95969E+05-4.21549E+02-2.09735E+04-6.96054E+04 1.46624E-08 1.21420E-07
 -1       541 1.40866E+05 1.67917E+04 1.05264E+05 9.71571E+04 1.20613E-08 9.65274E-08
 -1       542-7.94337E+05-1.99214E+04-8.32960E+04-3.02315E+04 6.28979E-08 4.26290E-08
 -1       543 3.96718E+05 2.70315E+04 1.56242E+05-1.32868E+04-4.16640E-08-1.75487E-09
 -1       544-7.44960E+05-1.63509E+04-7.40044E+04 4.01800E+04-3.69164E-09-2.76296E-08
 -1       545 2.43393E+04 9.35944E+03 7.88864E+04-1.12808E+05 2.09893E-08-8.62537E-08
 -1       546-4.31957E+05 6.04655E+03-1.21042E+04 6.89498E+04 3.81428E-08-9.91151E-08
 -1       547-2.88224E+05-4.66256E+03 1.03767E+04-1.40659E+05-1.26145E-07-1.12421E-07
 -1       548-4.40798E+05 4.70405E+03-2.37437E+04 6.87106E+04-1.16150E-07-1.10544E-07
 -1       549 4.34559E+04 1.56590E+04 5.95401E+04-1.10646E+05-6.97420E-08-5.84350E-08
 -1       550-7.54761E+05-2.17001E+04-1.28036E+05 3.82321E+04 7.05950E-09-4.40523E-08
 -1       551 4.06376E+04-7.57341E+05-1.49853E+04-1.24584E+06-1.03857E-07-8.14907E-10
 -1       552 9.27780E+04-8.01883E+05 1.04738E+04-1.77649E+06-7.23230E-08 3.20142E-08
 -1       553 7.13193E+04-7.98424E+05 3.24598E+04-1.23923E+06-1.18671E-07 2.97296E-08
 -1       554 1.31430E+05-8.17463E+05 8.16322E+04-1.77844E+06-7.43021E-08 2.60261E-08
 -1       555 1.01081E+05-8.21996E+05 1.48944E+05-1.23908E+06-1.22629E-07-1.15961E-08
 -1       556 2.22171E+05-3.81338E+05 2.73579E+04-4.05783E+05-2.36032E-08-1.72586E-08
 -1       557 3.52371E+05-4.85332E+05 1.69511E+04-5.25464E+05-5.58794E-09-8.78754E-09
 -1       558 2.04228E+05-3.74521E+05 2.71417E+03-4.09931E+05-1.94996E-08 2.08820E-09
 -1       559 3.27405E+05-4.85655E+05 2.61878E+03-5.45717E+05 2.14495E-08-1.78043E-08
 -1       560 1.89090E+05-3.65026E+05-1.39177E+03-4.20832E+05 1.76951E-08-1.17579E-08
 -1       561 3.08362E+05-4.78048E+05 1.75668E+02-5.58692E+05 7.69796E-09-5.58430E-09
 -1       562 1.77120E+05-3.57587E+05-1.28732E+03-4.29499E+05 1.01863E-09-1.85792E-08
 -1       563 2.94145E+05-4.71850E+05-2.45442E+01-5.67976E+05-5.09317E-10 7.60338E-10
 -1       564 1.68583E+05-3.52266E+05-5.86312E+02-4.35549E+05 1.03319E-08-2.69711E-09
 -1       565 2.84725E+05-4.67747E+05 2.71171E+01-5.73994E+05-3.14321E-09-1.55264E-08
 -1       566 1.63599E+05-3.49113E+05-2.54690E+02-4.39034E+05-4.74392E-09-3.00497E-09
 -1       567 2.80159E+05-4.65761E+05-3.58510E+02-5.76766E+05 1.57543E-08 9.54242E-09
 -1       568 1.62261E+05-3.48294E+05-1.11575E+03-4.40066E+05-2.27465E-09 2.27810E-08
 -1       569 2.79065E+05-4.65692E+05-2.81829E+03-5.75325E+05-4.17458E-09 2.30320E-08
 -1       570 1.65655E+05-3.51517E+05-6.16339E+03-4.39052E+05 6.62112E-09-1.11559E-08
 -1       571 2.89811E+05 1.04832E+04 1.49627E+04-9.47634E+04-4.03179E-09 1.55887E-08
 -1       572 2.91980E+05 3.94754E+03 7.33292E+03-1.03965E+05-1.30894E-08-7.60156E-09
 -1       573 2.90673E+05 1.23838E+03 3.25825E+03-9.45874E+04-5.57975E-09 1.28684E-08
 -1       574 2.90887E+05 7.20217E+02 1.63397E+03-1.04188E+05 1.48793E-09 1.03000E-08
 -1       575 2.90766E+05 4.42078E+02 7.71185E+02-9.45633E+04 1.18064E-09 5.58248E-09
 -1       576 2.90751E+05 4.52905E+02 3.94830E+02-1.04218E+05 4.88853E-09 1.45592E-08
 -1       577 2.90806E+05 3.84232E+02 1.97097E+02-9.45600E+04-8.97671E-10 6.68751E-09
 -1       578 2.90781E+05 4.15160E+02 1.13838E+02-1.04222E+05-1.10053E-08 2.46200E-09
 -1       579 2.90877E+05 3.47949E+02 7.81863E+01-9.45596E+04 4.98403E-09-6.33918E-10
 -1       580 2.90882E+05 3.64662E+02 9.07069E+01-1.04218E+05-5.98811E-09 3.19505E-09
 -1       581 2.90990E+05 2.89995E+02 1.37037E+02-9.45655E+04 1.00645E-08 7.63339E-09
 -1       582 2.91056E+05 3.27941E+02 2.78562E+02-1.04156E+05 4.38922E-09-1.25847E-08
 -1       583 2.91129E+05 3.32925E+02 5.34747E+02-9.46218E+04 4.11092E-10 4.88990E-09
 -1       584 2.91429E+05 7.69470E+02 1.20999E+03-1.03682E+05 3.55067E-09-6.04587E-10
 -1       585 2.91154E+05 1.78845E+03 2.45030E+03-9.50390E+04-3.01407E-09-7.20684E-09
 -1       586-3.41565E+03 1.16387E+05-2.92477E+03-2.50184E+05-7.04904E-09 5.44287E-09
 -1       587-1.32802E+03 1.16136E+05 7.61392E+02-2.75347E+05-9.90804E-09 5.89444E-09
 -1       588 4.06477E+02 1.15946E+05 4.74287E+03-2.50047E+05-6.30280E-09 2.62153E-08
 -1       589 5.08167E+03 1.18412E+05 1.23085E+04-2.75113E+05-5.60431E-09 5.53609E-09
 -1       590 1.65734E+04 1.14616E+05 2.58224E+04-2.50477E+05-6.79120E-09 2.13822E-08
 -1       591-7.46710E+04-1.59329E+04-2.24563E+04-3.18573E+04-5.33328E-09-4.83305E-09
 -1       592-7.87373E+04-1.94887E+04-1.21641E+04-3.54818E+04-3.92264E-09-1.10701E-08
 -1       593-7.69169E+04-1.43033E+04-5.06332E+03-3.35038E+04 2.67322E-09-3.20460E-09
 -1       594-7.56366E+04-1.61936E+04-2.52521E+03-3.55994E+04-7.20306E-10-2.82242E-09
 -1       595-7.70881E+04-1.42980E+04-1.15933E+03-3.35786E+04-1.45462E-09 1.16000E-08
 -1       596-7.54243E+04-1.60429E+04-5.89147E+02-3.55741E+04 1.01227E-09 4.76319E-08
 -1       597-7.71096E+04-1.43133E+04-3.20380E+02-3.35814E+04-2.52101E-10 4.99574E-09
 -1       598-7.54034E+04-1.60370E+04-2.56763E+02-3.55670E+04 6.54063E-09-2.45410E-08
 -1       599-7.71083E+04-1.43138E+04-3.27007E+02-3.35811E+04 2.15198E-09-1.07671E-08
 -1       600-7.54244E+04-1.60435E+04-6.06691E+02-3.55720E+04 2.56756E-09 3.38900E-09
 -1       601-7.70837E+04-1.42994E+04-1.19646E+03-3.35776E+04 1.77511E-09-5.92354E-09
 -1       602-7.56434E+04-1.61979E+04-2.60735E+03-3.55942E+04 1.03375E-09 1.03904E-08
 -1       603-7.69042E+04-1.43078E+04-5.22871E+03-3.35012E+04-5.18412E-11-7.23230E-09
 -1       604-7.88629E+04-1.95809E+04-1.25606E+04-3.54480E+04 2.22826E-09 6.82803E-09
 -1       605-7.45650E+04-1.60083E+04-2.31884E+04-3.18204E+04 4.62694E-09 1.11313E-08
 -1       606 2.67259E+04-1.42910E+04-2.56195E+04 2.40398E+04 6.90943E-09 3.68050E-09
 -1       607 2.23483E+04-4.66707E+03-1.27584E+04 2.70152E+04 2.33558E-09-1.37186E-08
 -1       608 2.48431E+04-8.41617E+02-5.71152E+03 2.38704E+04-6.57747E-09 3.09115E-09
 -1       609 2.43647E+04-2.87908E+02-2.88530E+03 2.72297E+04-1.57615E-09 5.84350E-10
 -1       610 2.46299E+04-4.03711E+01-1.37662E+03 2.38503E+04 4.84033E-09 2.23645E-09
 -1       611 2.45547E+04-4.04853E+01-6.94082E+02 2.72529E+04 6.38829E-09-8.08245E-09
 -1       612 2.45828E+04-2.66135E+01-3.29964E+02 2.38482E+04 1.91631E-09-1.84273E-08
 -1       613 2.45661E+04-3.63267E+01-1.47843E+02 2.72556E+04 5.18230E-09-7.12180E-09
 -1       614 2.45605E+04-3.29471E+01-3.46251E+01 2.38475E+04 4.20187E-10 4.75779E-09
 -1       615 2.45607E+04-3.47802E+01 6.20779E+01 2.72560E+04-2.75577E-09 3.87672E-09
 -1       616 2.45431E+04-2.97810E+01 1.86046E+02 2.38478E+04 6.47105E-10-1.76510E-08
 -1       617 2.45830E+04 4.91232E+00 4.24434E+02 2.72555E+04 4.75438E-10-1.41360E-08
 -1       618 2.45062E+04 9.26104E+01 8.55499E+02 2.38481E+04 1.06411E-09-1.51636E-09
 -1       619 2.48850E+04 6.66413E+02 1.92108E+03 2.72549E+04-1.27261E-09 1.46615E-08
 -1       620 2.42221E+04 2.12125E+03 3.86131E+03 2.38496E+04-6.60862E-10 7.24685E-09
 -1       621 5.07279E+02 3.00693E+05 3.86874E+03 4.07012E+04 9.81800E-10 1.30631E-08
 -1       622 6.71458E+02 3.01587E+05 3.43474E+03 5.90904E+04 1.18916E-09 1.13873E-08
 -1       623 1.40278E+02 3.00887E+05 4.12921E+03 4.05170E+04 1.20758E-09 4.45198E-09
 -1       624 2.11687E+03 3.02802E+05 8.00633E+03 5.92718E+04 1.17785E-09 1.68120E-08
 -1       625 2.06920E+03 2.99299E+05 1.39914E+04 4.05138E+04 1.48202E-09 3.86103E-09
 -1       626 2.60281E+05 6.13482E+04 5.11541E+03 1.26546E+05 1.21236E-09 1.34187E-08
 -1       627 2.57961E+05 6.27485E+04 2.46507E+03 1.30820E+05-1.67347E-10 6.05144E-09
 -1       628 2.60409E+05 5.90073E+04 1.04254E+03 1.27415E+05-1.83718E-09-7.45104E-09
 -1       629 2.57326E+05 6.20696E+04 5.10271E+02 1.31060E+05-2.12640E-09-1.56321E-08
 -1       630 2.60423E+05 5.88942E+04 2.36792E+02 1.27452E+05 1.28466E-09 2.02949E-08
 -1       631 2.57259E+05 6.20438E+04 1.27544E+02 1.31062E+05 5.76256E-09 1.57647E-08
 -1       632 2.60420E+05 5.88982E+04 8.41360E+01 1.27447E+05 5.75619E-09 5.37943E-09
 -1       633 2.57250E+05 6.20457E+04 9.40459E+01 1.31058E+05 7.41397E-09 1.19212E-08
 -1       634 2.60415E+05 5.88954E+04 1.52263E+02 1.27447E+05-3.51923E-09 7.79210E-10
 -1       635 2.57264E+05 6.20440E+04 3.08276E+02 1.31064E+05-2.32973E-10 2.88674E-09
 -1       636 2.60406E+05 5.88896E+04 6.22653E+02 1.27447E+05 2.67642E-09-6.66751E-09
 -1       637 2.57399E+05 6.21408E+04 1.36911E+03 1.31063E+05-2.07160E-09-4.51610E-09
 -1       638 2.60358E+05 5.91920E+04 2.81302E+03 1.27310E+05-3.58932E-09-8.47012E-09
 -1       639 2.58877E+05 6.41960E+04 6.65575E+03 1.30628E+05 2.98587E-09 1.83970E-08
 -1       640 2.60153E+05 6.53289E+04 1.38118E+04 1.24724E+05 5.00768E-09-2.51021E-10
 -1       656 6.64538E+04-1.70059E+06-1.60415E+05-2.52321E+03 2.91038E-11-4.67804E-09
 -1       657-8.79121E+04-1.77307E+06-1.32893E+05 5.20732E+03-8.86757E-10-1.87791E-08
 -1       658 2.11827E+04-1.72117E+06-8.18442E+04-4.60180E+03-7.63976E-11-7.85327E-09
 -1       659-9.50597E+04-1.77647E+06-1.42287E+05 6.93143E+03-2.20462E-09 4.62058E-09
 -1       660 7.35855E+04-1.69720E+06-1.76564E+05-4.24730E+03-1.90630E-09 1.30244E-08
 -1       661 1.58817E+05 1.66262E+04 1.67275E+04 6.20854E+04 1.02864E-09 3.60069E-09
 -1       662 1.68268E+05 2.90194E+04 1.12731E+04 5.83390E+04-1.75038E-09 1.23513E-08
 -1       663 1.62102E+05 2.19926E+04 3.94263E+03 6.11319E+04 2.63401E-09 7.13885E-09
 -1       664 1.64458E+05 2.27437E+04 2.35851E+03 5.95038E+04-8.77861E-10 1.87774E-09
 -1       665 1.62601E+05 2.27256E+04 9.30414E+02 6.09864E+04-3.74939E-10-3.58207E-09
 -1       666 1.63869E+05 2.19056E+04 5.44606E+02 5.96935E+04 1.21086E-08-1.22287E-08
 -1       667 1.62688E+05 2.28089E+04 2.89442E+02 6.09500E+04 2.18213E-09-1.14721E-09
 -1       668 1.63772E+05 2.18457E+04 2.95322E+02 5.97465E+04-1.68343E-09 2.14742E-09
 -1       669 1.62696E+05 2.27838E+04 4.00150E+02 6.09337E+04-3.40003E-09 1.97878E-08
 -1       670 1.63870E+05 2.20630E+04 8.71639E+02 5.97494E+04-8.83017E-09 5.88079E-09
 -1       671 1.62591E+05 2.25961E+04 1.54776E+03 6.09450E+04 1.52506E-09-6.27995E-09
 -1       672 1.64772E+05 2.35688E+04 3.96000E+03 5.95309E+04 7.63931E-09-1.29224E-08
 -1       673 1.61799E+05 2.13161E+04 6.63635E+03 6.11377E+04 7.07348E-09 1.46233E-08
 -1       674 1.71088E+05 3.42309E+04 1.89786E+04 5.76753E+04 4.18368E-10 2.14486E-08
 -1       675 1.56315E+05 1.22327E+04 2.81709E+04 6.26886E+04-2.74304E-09 1.49230E-08
 -1       676 2.40864E+01-2.95553E+05-1.11252E+03-1.34940E+02 1.43524E-09-1.98146E-10
 -1       677-2.94328E+02-2.95822E+05-2.03610E+03 2.69664E+02 9.91500E-09-1.26654E-08
 -1       678 1.97379E+02-2.95362E+05-3.59932E+03-1.34635E+02 5.42059E-10 1.12172E-08
 -1       679-3.59942E+03-2.97995E+05-8.55050E+03 2.68500E+02 8.74547E-09 1.47821E-08
 -1       680 2.14903E+03-2.93382E+05-1.37805E+04-1.32289E+02 4.57476E-10-2.74252E-09
 -1       771-3.06013E+06-7.44501E+05-1.63741E+05-1.46322E+06-3.48664E-08-3.16650E-08
 -1       772-2.98346E+06-8.32769E+05-8.44214E+04-1.56526E+06-2.67173E-08 1.25947E-08
 -1       773-3.09126E+06-7.20214E+05-4.30302E+04-1.47752E+06-1.03901E-08 9.83709E-09
 -1       774-2.97401E+06-8.14532E+05-1.91988E+04-1.59075E+06 2.46655E-08-1.24419E-09
 -1       775-3.10751E+06-7.08806E+05-1.43569E+04-1.48445E+06-8.46921E-09 2.89583E-09
 -1       776-2.98617E+06-8.11562E+05-5.36945E+03-1.61001E+06-6.53381E-09 8.48377E-09
 -1       777-3.12161E+06-6.98629E+05-6.34177E+03-1.49057E+06 1.68802E-09 7.86531E-09
 -1       778-2.99886E+06-8.08799E+05-1.79309E+03-1.62657E+06-2.91038E-10 1.67383E-08
 -1       779-3.13373E+06-6.89739E+05-3.16869E+03-1.49580E+06-9.69158E-09-7.74162E-09
 -1       780-3.01004E+06-8.06162E+05-5.25604E+02-1.64005E+06-4.88944E-09 2.00089E-10
 -1       781-3.14336E+06-6.82573E+05-1.23116E+03-1.49990E+06-3.13594E-08-4.49290E-09
 -1       782-3.01866E+06-8.03922E+05 4.42866E+02-1.65000E+06-4.37140E-08-6.93944E-09
 -1       783-3.15014E+06-6.77595E+05 6.89007E+02-1.50276E+06-9.42237E-09-1.44910E-08
 -1       784-3.02343E+06-8.01679E+05 2.85876E+03-1.65614E+06-1.16743E-08 6.00630E-09
 -1       785-3.15415E+06-6.74627E+05 5.04622E+03-1.50458E+06-3.68418E-08 8.53288E-09
 -1       786 1.23973E+05-9.77060E+03 2.26052E+04-3.19817E+02 1.19941E-09 1.40390E-08
 -1       787 1.33777E+05 1.13122E+04 1.59923E+04-1.33450E+02 9.53712E-09 1.09499E-08
 -1       788 1.27753E+05-1.53109E+03 5.84848E+03-2.84785E+02 1.58694E-09 1.44018E-09
 -1       789 1.29373E+05 1.77218E+03 3.67149E+03-1.87157E+02 2.64252E-09 2.74531E-09
 -1       790 1.28377E+05-2.38397E+02 1.48659E+03-2.66126E+02-4.55254E-09 7.07928E-09
 -1       791 1.28643E+05 2.75826E+02 8.58734E+02-2.19088E+02-7.46559E-09-5.20717E-09
 -1       792 1.28483E+05-3.58537E+01 3.64133E+02-2.52857E+02-4.11587E-09-4.60297E-09
 -1       793 1.28517E+05 3.79811E+01 1.82046E+02-2.44048E+02-2.64409E-09-1.43092E-08
 -1       794 1.28504E+05-7.02778E-01 4.83498E+01-2.41166E+02 4.42764E-09 5.86169E-10
 -1       795 1.28481E+05-2.66056E+01-5.50694E+01-2.68442E+02-4.70489E-09-7.27009E-09
 -1       796 1.28520E+05 2.86969E+01-1.58098E+02-2.28463E+02 3.46145E-09-5.45137E-09
 -1       797 1.28388E+05-2.14370E+02-4.35289E+02-2.97618E+02 3.72639E-09 5.92883E-09
 -1       798 1.28596E+05 1.86921E+02-7.07263E+02-2.11990E+02 1.66760E-09-1.18318E-08
 -1       799 1.27851E+05-1.37779E+03-1.94608E+03-3.38389E+02 6.09504E-09-2.16965E-08
 -1       800 1.29057E+05 1.19117E+03-2.75419E+03-1.87692E+02 7.26036E-10 7.03881E-09
 -1       801-1.65700E+05-9.89720E+06-1.37654E+06 1.39067E+06 9.04838E-08-5.51809E-08
 -1       802 7.22508E+05 5.79136E+06 2.14177E+06-1.71399E+06 2.57096E-07-3.03362E-08
 -1       803-5.27463E+05-1.40845E+07-1.85927E+06 8.82951E+05 7.68523E-08 1.47011E-08
 -1       804 2.81125E+05 2.28698E+06 1.50903E+06 6.69029E+05-1.19904E-07-9.22578E-08
 -1       805 1.87289E+05-6.40708E+06-2.81352E+05-9.86759E+05-4.93383E-08-6.96509E-08
 -1       806-3.08249E+05-5.96193E+04-2.28012E+04-1.22134E+05-6.51426E-09 4.06862E-09
 -1       807-3.10044E+05-5.58955E+04-1.12020E+04-1.27665E+05 1.13030E-08-1.84282E-08
 -1       808-3.08874E+05-5.14022E+04-4.75225E+03-1.26019E+05-6.04587E-09-9.40327E-09
 -1       809-3.07689E+05-5.27478E+04-2.32373E+03-1.27939E+05-2.01053E-08 2.28574E-08
 -1       810-3.08969E+05-5.11161E+04-1.06510E+03-1.26191E+05 5.52291E-09 1.00799E-08
 -1       811-3.07507E+05-5.26213E+04-5.29690E+02-1.27904E+05 1.02154E-08-7.85099E-09
 -1       812-3.08983E+05-5.11407E+04-2.67966E+02-1.26190E+05-5.16593E-09-6.98992E-09
 -1       813-3.07482E+05-5.26235E+04-1.74274E+02-1.27885E+05-1.71922E-08-1.26181E-08
 -1       814-3.08976E+05-5.11504E+04-1.72904E+02-1.26186E+05-6.56473E-09 4.51200E-09
 -1       815-3.07486E+05-5.26258E+04-2.78757E+02-1.27878E+05 1.52795E-10 1.19196E-08
 -1       816-3.08955E+05-5.11495E+04-5.28448E+02-1.26182E+05 1.06984E-08 1.95250E-08
 -1       817-3.07575E+05-5.26761E+04-1.13416E+03-1.27866E+05-1.19485E-08 1.80823E-08
 -1       818-3.08886E+05-5.13096E+04-2.31332E+03-1.26107E+05-4.90763E-09-3.50519E-09
 -1       819-3.08842E+05-5.40737E+04-5.44307E+03-1.27566E+05-9.37871E-09 8.99331E-09
 -1       820-3.08450E+05-5.54214E+04-1.10786E+04-1.24351E+05-3.60160E-09 1.30549E-08
 -1       821-3.78449E+05 2.08413E+04-4.84998E+04 2.08874E+03 1.34832E-08 1.42536E-08
 -1       822-3.98187E+05-2.41427E+04-3.40963E+04-4.36804E+03 5.29752E-09-8.77617E-09
 -1       823-3.85931E+05 3.28457E+03-1.25285E+04 3.36117E+03-1.25317E-08-7.28051E-10
 -1       824-3.89166E+05-3.78815E+03-7.84381E+03-5.24461E+03 2.77016E-09 1.69150E-08
 -1       825-3.87476E+05 5.10424E+02-3.28257E+03 2.96542E+03 1.96597E-08-2.96154E-10
 -1       826-3.86772E+05-5.67972E+02-1.75004E+03-3.01378E+03 2.54679E-08-3.09074E-08
 -1       827-3.88301E+05 4.86217E+01-1.18094E+03 1.13020E+03 1.12476E-08-1.80852E-08
 -1       828-3.86093E+05-1.34220E+02-5.98893E+02 1.08422E+03-2.13882E-09 1.55437E-08
 -1       829-3.88144E+05 6.71581E+01-1.17077E+03-1.13260E+03 1.00690E-09 1.49362E-09
 -1       830-3.87113E+05-6.21562E+02-1.88627E+03 4.78034E+03 2.58041E-09 1.42547E-08
 -1       831-3.87302E+05 5.52839E+02-3.36532E+03-2.56594E+03-8.11374E-09 7.09542E-09
 -1       832-3.89247E+05-3.95389E+03-8.14643E+03 6.02511E+03-3.95776E-09 2.18682E-08
 -1       833-3.86025E+05 3.40846E+03-1.30313E+04-2.37742E+03-2.05813E-09 8.36644E-09
 -1       834-3.98258E+05-2.50559E+04-3.53208E+04 4.09486E+03-3.31551E-09 2.18452E-08
 -1       835-3.78275E+05 2.16227E+04-5.03687E+04-6.35624E+02 5.56855E-09 1.76151E-08
 -1       836-1.40979E+03 3.69340E+05 2.28503E+04-1.61652E+04-6.84304E-09 1.78761E-09
 -1       837 4.87224E+03 3.76496E+05 1.93345E+04-3.30249E+04-7.49429E-09 1.15524E-08
 -1       838-5.56173E+02 3.71346E+05 1.96977E+04-1.60937E+04-6.32554E-09-5.04770E-10
 -1       839 1.23969E+04 3.82100E+05 3.72604E+04-3.30772E+04-6.90761E-09-2.68381E-09
 -1       840-3.83195E+03 3.63676E+05 5.94159E+04-1.61186E+04-6.21003E-09-1.32767E-08
 -1       856-5.25629E+04 8.02594E+03-2.11501E+04-3.97921E+02 2.63549E-09 1.83200E-08
 -1       857-6.12766E+04-9.43000E+03-1.45596E+04 5.62680E+03 5.46621E-09 2.18479E-08
 -1       858-5.60136E+04 1.12555E+03-5.48795E+03-4.22032E+02 3.10729E-09 2.00494E-08
 -1       859-5.73165E+04-1.32395E+03-3.31174E+03 5.66270E+03-2.43665E-09 1.89738E-09
 -1       860-5.65292E+04 1.57616E+02-1.38798E+03-4.33556E+02 1.66270E-09-4.81754E-09
 -1       861-5.67235E+04-1.87954E+02-7.63616E+02 5.67840E+03 2.39595E-11-1.71872E-08
 -1       862-5.66098E+04 2.13430E+01-3.17544E+02-4.37709E+02-2.59061E-09-5.82543E-09
 -1       863-5.66247E+04-2.16781E+01-1.15942E+02 5.68080E+03-5.77536E-09 1.25807E-08
 -1       864-5.66285E+04-4.87825E+00 4.66015E+01-4.35961E+02-4.40983E-09-7.21242E-09
 -1       865-5.65691E+04 5.95373E+01 2.53934E+02 5.67084E+03-3.18585E-09-1.98256E-08
 -1       866-5.66632E+04-5.98949E+01 5.12062E+02-4.27747E+02 1.35151E-09 3.11115E-09
 -1       867-5.63281E+04 4.94654E+02 1.26060E+03 5.64854E+03 5.33419E-10 1.32400E-08
 -1       868-5.68645E+04-4.32152E+02 2.09478E+03-4.13657E+02-4.24473E-09 3.70926E-09
 -1       869-5.47923E+04 3.59662E+03 5.57778E+03 5.61182E+03-3.27645E-10-1.51557E-08
 -1       870-5.81913E+04-3.07763E+03 8.09460E+03-3.90931E+02-2.58672E-09 1.12486E-08
 -1       871-5.51193E+03-2.12117E+04-1.94463E+04 1.30114E+05-4.48927E-09 8.91305E-11
 -1       872-1.98537E+03-2.57316E+04-8.14101E+03 1.68713E+05-1.14460E-08-2.03136E-08
 -1       873 3.98512E+02-2.35465E+04 5.92544E+02 1.29828E+05-5.88989E-09-3.31784E-09
 -1       874 3.29327E+03-2.11373E+04 9.76667E+03 1.68742E+05-1.04646E-08-6.14273E-09
 -1       875 6.83044E+03-2.58731E+04 2.20297E+04 1.30067E+05-4.90945E-09-7.51970E-09
 -1       876 2.93264E+05 4.94347E+04 1.50774E+04 1.17697E+05-4.11899E-09-2.03545E-09
 -1       877 2.94260E+05 5.26110E+04 8.05195E+03 1.22023E+05-3.19233E-10 4.57476E-09
 -1       878 2.94674E+05 4.77646E+04 3.37337E+03 1.18932E+05-7.72070E-09 6.54109E-09
 -1       879 2.92211E+05 5.05656E+04 1.68082E+03 1.22125E+05 3.07614E-09 7.36145E-09
 -1       880 2.94775E+05 4.77473E+04 7.82905E+02 1.18982E+05 1.23464E-09 9.96170E-09
 -1       881 2.92075E+05 5.04781E+04 4.18100E+02 1.22101E+05-4.74324E-09-6.54661E-09
 -1       882 2.94784E+05 4.77606E+04 2.67503E+02 1.18984E+05-4.90331E-09-8.29662E-09
 -1       883 2.92065E+05 5.04736E+04 2.87623E+02 1.22094E+05-2.46331E-09 2.84691E-08
 -1       884 2.94778E+05 4.77578E+04 4.57582E+02 1.18984E+05-8.37872E-10 5.87039E-09
 -1       885 2.92101E+05 5.04799E+04 9.20017E+02 1.22104E+05-6.98725E-09 1.40243E-08
 -1       886 2.94742E+05 4.77309E+04 1.85427E+03 1.18980E+05-4.31945E-09 7.03494E-10
 -1       887 2.92427E+05 5.06936E+04 4.05039E+03 1.22152E+05 6.44320E-09 4.90775E-09
 -1       888 2.94486E+05 4.77760E+04 8.16165E+03 1.18851E+05-4.71486E-09 6.18638E-09
 -1       889 2.97286E+05 5.57466E+04 1.94967E+04 1.22003E+05-5.66308E-09-2.45245E-09
 -1       890 2.91155E+05 5.17330E+04 3.65168E+04 1.15745E+05 2.87810E-09 8.91851E-09
 -1       891-9.02522E+01-1.62522E+05-1.99311E+03 2.71381E+04-2.81716E-10-1.36740E-08
 -1       892-1.76671E+02-1.63048E+05-2.14068E+03 4.12089E+04 3.00042E-09 2.05273E-09
 -1       893 4.25737E+01-1.62586E+05-3.03099E+03 2.71455E+04-1.87242E-09 2.63890E-09
 -1       894-1.50923E+03-1.64193E+05-6.27303E+03 4.10565E+04 1.79443E-09 5.37511E-10
 -1       895-1.19840E+03-1.61279E+05-1.10468E+04 2.72923E+04 1.44212E-09 3.86444E-09
 -1       956-3.76517E+05-5.43741E+03-1.34267E+04 3.07422E+04 3.43152E-09-4.73005E-09
 -1       957-3.79151E+05-1.91677E+03-6.89170E+03 3.69452E+04-8.78026E-09-5.16809E-08
 -1       958-3.77723E+05-2.38834E+02-3.10561E+03 3.05749E+04-1.17161E-08-5.91535E-09
 -1       959-3.77920E+05-1.34092E+02-1.58578E+03 3.71402E+04-5.00222E-10-6.79302E-09
 -1       960-3.77841E+05-4.31753E+01-7.73302E+02 3.05577E+04 1.03973E-08 5.71094E-09
 -1       961-3.77839E+05-6.12589E+01-4.10002E+02 3.71606E+04 2.30903E-08-1.16693E-08
 -1       962-3.77868E+05-4.44387E+01-2.34741E+02 3.05548E+04 9.22046E-09-1.80983E-08
 -1       963-3.77840E+05-5.70996E+01-1.88451E+02 3.71642E+04 4.68435E-09-2.40343E-08
 -1       964-3.77874E+05-4.10971E+01-2.29182E+02 3.05541E+04-6.47890E-09-1.83372E-08
 -1       965-3.77852E+05-5.41347E+01-3.96399E+02 3.71635E+04-1.71672E-08-1.77179E-08
 -1       966-3.77858E+05-3.32443E+01-7.44824E+02 3.05556E+04 1.20417E-09-6.88715E-09
 -1       967-3.77941E+05-1.17520E+02-1.52762E+03 3.71492E+04-7.30097E-10 2.67664E-09
 -1       968-3.77754E+05-2.15348E+02-2.99053E+03 3.05682E+04-1.00590E-09 9.64633E-10
 -1       969-3.79140E+05-1.82923E+03-6.63891E+03 3.70014E+04 2.13367E-09 2.98013E-09
 -1       970-3.76600E+05-5.21927E+03-1.29330E+04 3.06950E+04-4.08181E-09 1.75387E-08
 -1       971-3.44837E+05-1.72536E+03-9.30227E+03 1.53631E+04 4.91855E-09-6.47000E-09
 -1       972-3.47076E+05-1.26977E+03-5.06592E+03 2.12502E+04 1.31104E-09 8.43147E-09
 -1       973-3.45873E+05-6.12959E+01-2.26907E+03 1.52420E+04 8.34007E-10-2.37469E-09
 -1       974-3.46009E+05-8.00501E+01-1.17620E+03 2.13871E+04 1.21531E-09 6.51426E-10
 -1       975-3.45955E+05-1.64594E+01-5.88392E+02 1.52296E+04 8.65384E-10 3.72643E-09
 -1       976-3.45947E+05-3.02478E+01-3.40273E+02 2.14029E+04 5.35624E-09-1.00391E-08
 -1       977-3.45972E+05-1.57165E+01-2.48420E+02 1.52262E+04-2.87059E-09 7.77084E-09
 -1       978-3.45953E+05-2.40296E+01-2.92688E+02 2.14078E+04-1.15670E-08-1.70348E-09
 -1       979-3.45972E+05-7.25188E+00-4.71964E+02 1.52248E+04-4.49967E-09 1.78227E-09
 -1       980-3.45988E+05-2.09725E+01-9.12372E+02 2.14087E+04-7.73019E-09-7.24447E-09
 -1       981-3.45942E+05 1.55525E+01-1.76761E+03 1.52253E+04 1.53796E-09 3.20381E-09
 -1       982-3.46231E+05-1.51581E+02-3.65394E+03 2.14021E+04 4.00939E-09 5.25396E-09
 -1       983-3.45720E+05-9.76341E+01-7.09979E+03 1.52314E+04-2.01271E-09 3.24690E-09
 -1       984-3.49645E+05-3.85959E+03-1.58998E+04 2.13165E+04-3.45653E-09 5.99630E-09
 -1       985-3.42505E+05-5.29282E+03-2.91969E+04 1.53029E+04-5.06134E-09 5.42605E-09
 -3
    1PSTEP                        29          15           1          
  100CL  115 6.62659E-01         409                     0   15           1
 -4  DISP        4    1
 -5  D1          1    2    1    0
 -5  D2          1    2    2    0
 -5  D3          1    2    3    0
 -5  ALL         1    2    0    0    1ALL
 -1         1 2.68379E-03 0.00000E+00 0.00000E+00
 -1         2 1.39483E-03-1.30757E-26 0.00000E+00
 -1         3 3.41737E-04-9.36664E-28 0.00000E+00
 -1         5 1.76781E-04-2.42803E-27-8.27181E-25
 -1         8 2.67220E-03-4.19262E-07 0.00000E+00
 -1         9 2.66542E-03-1.70232E-04 0.00000E+00
 -1        10 3.09864E-04-3.42949E-06 0.00000E+00
 -1        12 1.78611E-04 8.08361E-07-8.27181E-25
 -1        15 2.65883E-03-4.45347E-07 0.00000E+00
 -1        16 2.72380E-03-1.71970E-04 0.00000E+00
 -1        17 2.10902E-04-7.81169E-06 0.00000E+00
 -1        18 1.82508E-04 3.41840E-05 0.00000E+00
 -1        19 1.84099E-04 1.61035E-06 0.00000E+00
 -1        20 1.84239E-04-9.67581E-06 0.00000E+00
 -1        21 1.83348E-04-2.49864E-05 3.30872E-24
 -1        24 3.06017E-05-1.20293E-05 0.00000E+00
 -1        25 1.93205E-04 3.44095E-05 0.00000E+00
 -1        26 1.93887E-04 2.22994E-06 0.00000E+00
 -1        27 1.91689E-04-1.32312E-05 0.00000E+00
 -1        28 1.91372E-04-2.56081E-05 0.00000E+00
 -1        32 0.00000E+00 0.00000E+00 0.00000E+00
 -1        33 2.02669E-04 2.98309E-06 0.00000E+00
 -1        34 2.00552E-04-1.32872E-05 0.00000E+00
 -1        35 1.98622E-04-2.59503E-05 0.00000E+00
 -1        51 2.68301E-03-8.68225E-08 3.30872E-24
 -1        52 2.68160E-03-1.55548E-07 0.00000E+00
 -1        53 2.67967E-03-2.20929E-07 0.00000E+00
 -1        54 2.67737E-03-2.85197E-07 0.00000E+00
 -1        55 2.67484E-03-3.50102E-07-8.27181E-25
 -1        56 2.67706E-03 6.16518E-06 0.00000E+00
 -1        57 2.66476E-03 2.61701E-05 0.00000E+00
 -1        58 2.64868E-03 5.55675E-05 1.05879E-22
 -1        59 2.63092E-03 8.89960E-05-5.29396E-23
 -1        60 2.61399E-03 1.20410E-04 0.00000E+00
 -1        61 2.60026E-03 1.43927E-04 0.00000E+00
 -1        62 2.59142E-03 1.55073E-04 0.00000E+00
 -1        63 2.58856E-03 1.50473E-04 0.00000E+00
 -1        64 2.59160E-03 1.29617E-04 0.00000E+00
 -1        65 2.59991E-03 9.35059E-05-5.29396E-23
 -1        66 2.61203E-03 4.59919E-05 0.00000E+00
 -1        67 2.62623E-03-7.98144E-06 0.00000E+00
 -1        68 2.64053E-03-6.22426E-05 0.00000E+00
 -1        69 2.65294E-03-1.10585E-04 0.00000E+00
 -1        70 2.66170E-03-1.47936E-04-1.05879E-22
 -1        86 1.47464E-03-5.48807E-06 0.00000E+00
 -1        87 1.70615E-03-3.40190E-05-2.64698E-23
 -1        88 2.01739E-03-8.28877E-05 0.00000E+00
 -1        89 2.33256E-03-1.33015E-04-1.32349E-23
 -1        90 2.57362E-03-1.63692E-04-5.29396E-23
 -1       121 3.40842E-04-5.53933E-07 1.32349E-23
 -1       122 3.38160E-04-1.11094E-06-6.61744E-24
 -1       123 3.33701E-04-1.67404E-06-1.32349E-23
 -1       124 3.27483E-04-2.24627E-06 0.00000E+00
 -1       125 3.19527E-04-2.83025E-06 0.00000E+00
 -1       191 1.76832E-04 1.34790E-07 2.48154E-24
 -1       192 1.76985E-04 2.69568E-07 8.27181E-25
 -1       193 1.77239E-04 4.04326E-07-1.65436E-24
 -1       194 1.77594E-04 5.39053E-07 0.00000E+00
 -1       195 1.78052E-04 6.73736E-07 1.65436E-24
 -1       251 2.67188E-03 2.03772E-06 6.61744E-24
 -1       252 2.67154E-03 4.85421E-06 3.30872E-24
 -1       253 2.67121E-03 6.96099E-06 0.00000E+00
 -1       254 2.67089E-03 7.29824E-06 0.00000E+00
 -1       255 2.67055E-03 5.09458E-06 0.00000E+00
 -1       256 2.67021E-03-3.87042E-07 0.00000E+00
 -1       257 2.66984E-03-9.34987E-06 0.00000E+00
 -1       258 2.66943E-03-2.19501E-05 6.61744E-24
 -1       259 2.66898E-03-3.77520E-05-1.32349E-23
 -1       260 2.66849E-03-5.62764E-05 0.00000E+00
 -1       261 2.66796E-03-7.66007E-05-1.32349E-23
 -1       262 2.66741E-03-9.77786E-05 0.00000E+00
 -1       263 2.66687E-03-1.18724E-04-1.32349E-23
 -1       264 2.66635E-03-1.38355E-04 0.00000E+00
 -1       265 2.66587E-03-1.55804E-04 1.32349E-23
 -1       266 2.66997E-03-4.29490E-07 0.00000E+00
 -1       267 2.66774E-03-4.33121E-07 0.00000E+00
 -1       268 2.66551E-03-4.37169E-07 8.27181E-25
 -1       269 2.66328E-03-4.39980E-07 2.06795E-25
 -1       270 2.66106E-03-4.42762E-07 0.00000E+00
 -1       271 2.67120E-03 3.79655E-07 0.00000E+00
 -1       272 2.67105E-03-1.14261E-06 0.00000E+00
 -1       273 2.67172E-03-4.86105E-06 0.00000E+00
 -1       274 2.67315E-03-1.06405E-05 0.00000E+00
 -1       275 2.67528E-03-1.83262E-05 2.64698E-23
 -1       276 2.67804E-03-2.77490E-05 0.00000E+00
 -1       277 2.68137E-03-3.87244E-05 0.00000E+00
 -1       278 2.68520E-03-5.10558E-05-1.32349E-23
 -1       279 2.68943E-03-6.45346E-05 0.00000E+00
 -1       280 2.69400E-03-7.89432E-05 1.32349E-23
 -1       281 2.69883E-03-9.40554E-05 0.00000E+00
 -1       282 2.70382E-03-1.09640E-04 1.32349E-23
 -1       283 2.70890E-03-1.25461E-04 0.00000E+00
 -1       284 2.71398E-03-1.41282E-04 6.61744E-24
 -1       285 2.71897E-03-1.56864E-04-1.32349E-23
 -1       301 2.67609E-03-1.70554E-04 6.61744E-24
 -1       302 2.68510E-03-1.70831E-04-6.61744E-24
 -1       303 2.69340E-03-1.71099E-04 1.32349E-23
 -1       304 2.70197E-03-1.71369E-04-6.61744E-24
 -1       305 2.71178E-03-1.71651E-04 0.00000E+00
 -1       306 2.70297E-03-3.23125E-04 0.00000E+00
 -1       307 2.76691E-03-7.34731E-04 5.29396E-23
 -1       308 2.81409E-03-1.33747E-03 0.00000E+00
 -1       309 2.83852E-03-2.03598E-03 5.29396E-23
 -1       310 2.87010E-03-2.70505E-03 0.00000E+00
 -1       311 2.92954E-03-3.22206E-03 0.00000E+00
 -1       312 2.98765E-03-3.50651E-03-1.05879E-22
 -1       313 2.98429E-03-3.52006E-03-5.29396E-23
 -1       314 2.84617E-03-3.27424E-03 0.00000E+00
 -1       315 2.53231E-03-2.83268E-03-5.29396E-23
 -1       316 2.06052E-03-2.27167E-03 0.00000E+00
 -1       317 1.49587E-03-1.66050E-03 0.00000E+00
 -1       318 9.51787E-04-1.06012E-03 0.00000E+00
 -1       319 5.35615E-04-5.35635E-04-5.29396E-23
 -1       320 2.91081E-04-1.60825E-04 1.05879E-22
 -1       336 2.98308E-04-4.09183E-06-1.32349E-23
 -1       337 2.84683E-04-4.77972E-06 6.61744E-24
 -1       338 2.69052E-04-5.49532E-06-1.32349E-23
 -1       339 2.51488E-04-6.23944E-06-6.61744E-24
 -1       340 2.32074E-04-7.01651E-06-1.32349E-23
 -1       406 1.79271E-04 9.42911E-07-2.48154E-24
 -1       407 1.80034E-04 1.07735E-06 0.00000E+00
 -1       408 1.80898E-04 1.21162E-06 1.65436E-24
 -1       409 1.81864E-04 1.34556E-06-1.03398E-24
 -1       410 1.82931E-04 1.47888E-06 4.13590E-25
 -1       521 2.76199E-03-3.34196E-04 0.00000E+00
 -1       522 2.82422E-03-7.65814E-04 0.00000E+00
 -1       523 2.86513E-03-1.39588E-03 1.05879E-22
 -1       524 2.88058E-03-2.12239E-03-5.29396E-23
 -1       525 2.90446E-03-2.81745E-03 1.05879E-22
 -1       526 2.96040E-03-3.35602E-03 5.29396E-23
 -1       527 3.01808E-03-3.65088E-03-2.11758E-22
 -1       528 3.01250E-03-3.66277E-03-5.29396E-23
 -1       529 2.86274E-03-3.40316E-03 0.00000E+00
 -1       530 2.52564E-03-2.94342E-03 0.00000E+00
 -1       531 2.01973E-03-2.36351E-03 0.00000E+00
 -1       532 1.41637E-03-1.73535E-03 0.00000E+00
 -1       533 8.34186E-04-1.11735E-03-1.05879E-22
 -1       534 3.85479E-04-5.72333E-04-5.29396E-23
 -1       535 1.20149E-04-1.78306E-04 0.00000E+00
 -1       536 2.10151E-04 2.69977E-05-6.61744E-24
 -1       537 2.08244E-04 8.72446E-05-1.65436E-24
 -1       538 2.05298E-04 1.63690E-04-3.30872E-24
 -1       539 2.01823E-04 2.47013E-04 0.00000E+00
 -1       540 1.98697E-04 3.25746E-04 0.00000E+00
 -1       541 1.96664E-04 3.88447E-04-1.65436E-24
 -1       542 1.95726E-04 4.28382E-04-3.30872E-24
 -1       543 1.95501E-04 4.38965E-04-1.65436E-24
 -1       544 1.95180E-04 4.20968E-04 3.30872E-24
 -1       545 1.94014E-04 3.75384E-04-1.65436E-24
 -1       546 1.91841E-04 3.10316E-04 3.30872E-24
 -1       547 1.88900E-04 2.33988E-04 0.00000E+00
 -1       548 1.85987E-04 1.58037E-04 0.00000E+00
 -1       549 1.83885E-04 9.41034E-05 0.00000E+00
 -1       550 1.82793E-04 5.01920E-05-1.65436E-24
 -1       551 1.85779E-04-8.38068E-06 0.00000E+00
 -1       552 1.57418E-04-9.02966E-06 0.00000E+00
 -1       553 1.26760E-04-9.74051E-06 9.92617E-24
 -1       554 9.47664E-05-1.04922E-05 3.30872E-24
 -1       555 6.23953E-05-1.12575E-05-1.32349E-23
 -1       556 2.03280E-04 1.16766E-05-5.29396E-23
 -1       557 1.97123E-04 2.74804E-05 0.00000E+00
 -1       558 1.92297E-04 3.98868E-05 5.29396E-23
 -1       559 1.88669E-04 4.92055E-05 0.00000E+00
 -1       560 1.86109E-04 5.57466E-05 0.00000E+00
 -1       561 1.84490E-04 5.98227E-05 0.00000E+00
 -1       562 1.83687E-04 6.17476E-05 0.00000E+00
 -1       563 1.83575E-04 6.18361E-05 0.00000E+00
 -1       564 1.84034E-04 6.04038E-05 0.00000E+00
 -1       565 1.84944E-04 5.77671E-05 0.00000E+00
 -1       566 1.86183E-04 5.42427E-05 0.00000E+00
 -1       567 1.87635E-04 5.01480E-05 3.30872E-24
 -1       568 1.89181E-04 4.58003E-05 0.00000E+00
 -1       569 1.90702E-04 4.15172E-05 8.27181E-25
 -1       570 1.92083E-04 3.76159E-05 0.00000E+00
 -1       571 1.82604E-04 3.20707E-05 2.48154E-24
 -1       572 1.82703E-04 2.98917E-05-4.13590E-25
 -1       573 1.82802E-04 2.76628E-05 1.65436E-24
 -1       574 1.82901E-04 2.54003E-05-1.65436E-24
 -1       575 1.83000E-04 2.31205E-05 0.00000E+00
 -1       576 1.83100E-04 2.08399E-05 0.00000E+00
 -1       577 1.83199E-04 1.85750E-05-3.30872E-24
 -1       578 1.83299E-04 1.63422E-05-6.61744E-24
 -1       579 1.83398E-04 1.41581E-05 0.00000E+00
 -1       580 1.83498E-04 1.20391E-05 0.00000E+00
 -1       581 1.83598E-04 1.00016E-05 0.00000E+00
 -1       582 1.83698E-04 8.06223E-06 0.00000E+00
 -1       583 1.83798E-04 6.23733E-06 0.00000E+00
 -1       584 1.83899E-04 4.54320E-06 0.00000E+00
 -1       585 1.83999E-04 2.99595E-06 0.00000E+00
 -1       586 1.84249E-04 3.42237E-05 1.65436E-24
 -1       587 1.85950E-04 3.42629E-05 0.00000E+00
 -1       588 1.87653E-04 3.43016E-05 8.27181E-25
 -1       589 1.89401E-04 3.43397E-05 0.00000E+00
 -1       590 1.91238E-04 3.43765E-05 0.00000E+00
 -1       591 1.83232E-04 3.21641E-05 2.06795E-25
 -1       592 1.83959E-04 3.01242E-05 0.00000E+00
 -1       593 1.84691E-04 2.80702E-05-8.27181E-25
 -1       594 1.85426E-04 2.60068E-05 4.13590E-25
 -1       595 1.86163E-04 2.39388E-05 8.27181E-25
 -1       596 1.86900E-04 2.18709E-05 0.00000E+00
 -1       597 1.87635E-04 1.98077E-05 0.00000E+00
 -1       598 1.88366E-04 1.77540E-05 0.00000E+00
 -1       599 1.89092E-04 1.57145E-05-8.27181E-25
 -1       600 1.89811E-04 1.36939E-05 0.00000E+00
 -1       601 1.90521E-04 1.16967E-05 0.00000E+00
 -1       602 1.91221E-04 9.72784E-06 0.00000E+00
 -1       603 1.91909E-04 7.79186E-06 0.00000E+00
 -1       604 1.92583E-04 5.89362E-06-1.03398E-25
 -1       605 1.93242E-04 4.03769E-06 0.00000E+00
 -1       606 1.84113E-04 4.57729E-07 0.00000E+00
 -1       607 1.84122E-04-6.08947E-07 0.00000E+00
 -1       608 1.84131E-04-1.59472E-06 0.00000E+00
 -1       609 1.84140E-04-2.50528E-06 0.00000E+00
 -1       610 1.84148E-04-3.34638E-06 3.30872E-24
 -1       611 1.84156E-04-4.12381E-06 0.00000E+00
 -1       612 1.84165E-04-4.84337E-06 0.00000E+00
 -1       613 1.84173E-04-5.51090E-06 0.00000E+00
 -1       614 1.84181E-04-6.13221E-06 0.00000E+00
 -1       615 1.84190E-04-6.71310E-06 0.00000E+00
 -1       616 1.84198E-04-7.25942E-06 0.00000E+00
 -1       617 1.84207E-04-7.77697E-06-4.13590E-25
 -1       618 1.84215E-04-8.27156E-06 0.00000E+00
 -1       619 1.84223E-04-8.74902E-06-2.06795E-25
 -1       620 1.84231E-04-9.21517E-06 2.06795E-25
 -1       621 1.85446E-04 1.71418E-06 3.30872E-24
 -1       622 1.86951E-04 1.81825E-06 1.65436E-24
 -1       623 1.88580E-04 1.92212E-06 1.65436E-24
 -1       624 1.90302E-04 2.02565E-06 8.27181E-25
 -1       625 1.92082E-04 2.12889E-06 1.65436E-24
 -1       626 1.84644E-04 4.93809E-07 0.00000E+00
 -1       627 1.85165E-04-5.59560E-07 0.00000E+00
 -1       628 1.85666E-04-1.55761E-06 0.00000E+00
 -1       629 1.86149E-04-2.50851E-06 1.65436E-24
 -1       630 1.86618E-04-3.42047E-06 3.30872E-24
 -1       631 1.87076E-04-4.30169E-06-1.65436E-24
 -1       632 1.87525E-04-5.16038E-06 0.00000E+00
 -1       633 1.87968E-04-6.00477E-06 0.00000E+00
 -1       634 1.88410E-04-6.84308E-06-3.30872E-24
 -1       635 1.88852E-04-7.68350E-06 0.00000E+00
 -1       636 1.89298E-04-8.53428E-06 0.00000E+00
 -1       637 1.89751E-04-9.40361E-06 0.00000E+00
 -1       638 1.90214E-04-1.02997E-05-3.30872E-24
 -1       639 1.90689E-04-1.12309E-05 1.65436E-24
 -1       640 1.91181E-04-1.22053E-05 0.00000E+00
 -1       656 1.84933E-04-1.02537E-05-6.61744E-24
 -1       657 1.86046E-04-1.08550E-05 6.61744E-24
 -1       658 1.87439E-04-1.14550E-05 0.00000E+00
 -1       659 1.88967E-04-1.20547E-05-6.61744E-24
 -1       660 1.90445E-04-1.26561E-05 6.61744E-24
 -1       661 1.84499E-04-1.01815E-05 0.00000E+00
 -1       662 1.84796E-04-1.07789E-05-8.27181E-25
 -1       663 1.85125E-04-1.14629E-05 0.00000E+00
 -1       664 1.85485E-04-1.22269E-05 0.00000E+00
 -1       665 1.85873E-04-1.30651E-05-1.65436E-24
 -1       666 1.86286E-04-1.39716E-05 8.27181E-25
 -1       667 1.86723E-04-1.49408E-05 0.00000E+00
 -1       668 1.87181E-04-1.59671E-05 8.27181E-25
 -1       669 1.87659E-04-1.70451E-05 0.00000E+00
 -1       670 1.88153E-04-1.81695E-05 8.27181E-25
 -1       671 1.88664E-04-1.93351E-05 0.00000E+00
 -1       672 1.89187E-04-2.05368E-05 0.00000E+00
 -1       673 1.89722E-04-2.17697E-05 0.00000E+00
 -1       674 1.90266E-04-2.30290E-05 4.13590E-25
 -1       675 1.90818E-04-2.43094E-05 0.00000E+00
 -1       676 1.84690E-04-2.50906E-05 3.30872E-24
 -1       677 1.86031E-04-2.51948E-05-1.65436E-24
 -1       678 1.87371E-04-2.52989E-05 0.00000E+00
 -1       679 1.88708E-04-2.54027E-05-1.65436E-24
 -1       680 1.90042E-04-2.55065E-05 3.30872E-24
 -1       771 1.86885E-05 1.46047E-05 0.00000E+00
 -1       772 8.66488E-06 3.64802E-05 5.29396E-23
 -1       773 4.40254E-07 5.38266E-05 0.00000E+00
 -1       774-6.10912E-06 6.69009E-05 0.00000E+00
 -1       775-1.11044E-05 7.59705E-05 0.00000E+00
 -1       776-1.46716E-05 8.13196E-05 0.00000E+00
 -1       777-1.69366E-05 8.32424E-05 0.00000E+00
 -1       778-1.80278E-05 8.20468E-05 2.64698E-23
 -1       779-1.80729E-05 7.80491E-05 0.00000E+00
 -1       780-1.72019E-05 7.15773E-05-5.29396E-23
 -1       781-1.55435E-05 6.29658E-05 0.00000E+00
 -1       782-1.32282E-05 5.25581E-05 2.64698E-23
 -1       783-1.03857E-05 4.07020E-05 0.00000E+00
 -1       784-7.14659E-06 2.77518E-05-2.64698E-23
 -1       785-3.64084E-06 1.40646E-05 0.00000E+00
 -1       786 1.93244E-04 3.21707E-05 0.00000E+00
 -1       787 1.93286E-04 2.99819E-05-4.13590E-25
 -1       788 1.93327E-04 2.78349E-05-8.27181E-25
 -1       789 1.93370E-04 2.57215E-05-8.27181E-25
 -1       790 1.93412E-04 2.36369E-05 0.00000E+00
 -1       791 1.93455E-04 2.15764E-05-8.27181E-25
 -1       792 1.93498E-04 1.95377E-05 0.00000E+00
 -1       793 1.93541E-04 1.75188E-05 0.00000E+00
 -1       794 1.93584E-04 1.55193E-05-1.65436E-24
 -1       795 1.93627E-04 1.35392E-05-8.27181E-25
 -1       796 1.93670E-04 1.15803E-05 0.00000E+00
 -1       797 1.93713E-04 9.64439E-06 0.00000E+00
 -1       798 1.93756E-04 7.73582E-06-1.65436E-24
 -1       799 1.93799E-04 5.85888E-06 0.00000E+00
 -1       800 1.93843E-04 4.02104E-06-1.65436E-24
 -1       801 1.47606E-04 3.09299E-05 2.64698E-23
 -1       802 9.72387E-06 1.93024E-05-2.64698E-23
 -1       803-1.08093E-04 9.75241E-06 0.00000E+00
 -1       804-9.58930E-05 6.78594E-06-2.64698E-23
 -1       805-3.16898E-05 2.67065E-06-5.29396E-23
 -1       806 1.93930E-04 3.21020E-05 0.00000E+00
 -1       807 1.94640E-04 2.98207E-05 0.00000E+00
 -1       808 1.95338E-04 2.75708E-05 0.00000E+00
 -1       809 1.96022E-04 2.53564E-05 1.65436E-24
 -1       810 1.96692E-04 2.31814E-05-3.30872E-24
 -1       811 1.97345E-04 2.10499E-05 0.00000E+00
 -1       812 1.97981E-04 1.89658E-05 0.00000E+00
 -1       813 1.98597E-04 1.69330E-05 0.00000E+00
 -1       814 1.99193E-04 1.49553E-05 3.30872E-24
 -1       815 1.99766E-04 1.30367E-05 0.00000E+00
 -1       816 2.00317E-04 1.11811E-05 3.30872E-24
 -1       817 2.00842E-04 9.39233E-06-8.27181E-25
 -1       818 2.01341E-04 7.67430E-06 3.30872E-24
 -1       819 2.01813E-04 6.03088E-06 0.00000E+00
 -1       820 2.02255E-04 4.46589E-06 0.00000E+00
 -1       821 1.93758E-04-1.11014E-07 0.00000E+00
 -1       822 1.93618E-04-3.59300E-06 0.00000E+00
 -1       823 1.93475E-04-7.79194E-06 0.00000E+00
 -1       824 1.93331E-04-1.22793E-05 0.00000E+00
 -1       825 1.93187E-04-1.65485E-05 0.00000E+00
 -1       826 1.93045E-04-2.00945E-05 0.00000E+00
 -1       827 1.92907E-04-2.26088E-05 0.00000E+00
 -1       828 1.92770E-04-2.37896E-05 0.00000E+00
 -1       829 1.92635E-04-2.36975E-05 3.30872E-24
 -1       830 1.92498E-04-2.24012E-05-1.65436E-24
 -1       831 1.92361E-04-2.02970E-05 0.00000E+00
 -1       832 1.92223E-04-1.77859E-05-1.65436E-24
 -1       833 1.92085E-04-1.53800E-05-3.30872E-24
 -1       834 1.91949E-04-1.35905E-05 0.00000E+00
 -1       835 1.91815E-04-1.27615E-05 8.27181E-25
 -1       836 1.95563E-04 2.35484E-06-3.30872E-24
 -1       837 1.97112E-04 2.48287E-06 1.65436E-24
 -1       838 1.98565E-04 2.61085E-06 0.00000E+00
 -1       839 1.99954E-04 2.73813E-06-8.27181E-25
 -1       840 2.01312E-04 2.86524E-06-8.27181E-25
 -1       856 1.91673E-04-1.42796E-05 8.27181E-25
 -1       857 1.91653E-04-1.51924E-05 1.29247E-26
 -1       858 1.91634E-04-1.59905E-05 0.00000E+00
 -1       859 1.91614E-04-1.66952E-05 0.00000E+00
 -1       860 1.91594E-04-1.73277E-05 0.00000E+00
 -1       861 1.91575E-04-1.79092E-05 0.00000E+00
 -1       862 1.91555E-04-1.84611E-05 0.00000E+00
 -1       863 1.91535E-04-1.90047E-05 0.00000E+00
 -1       864 1.91515E-04-1.95613E-05-8.27181E-25
 -1       865 1.91495E-04-2.01522E-05 4.13590E-25
 -1       866 1.91475E-04-2.07988E-05-8.27181E-25
 -1       867 1.91455E-04-2.15223E-05 4.13590E-25
 -1       868 1.91435E-04-2.23439E-05 8.27181E-25
 -1       869 1.91414E-04-2.32847E-05 4.13590E-25
 -1       870 1.91394E-04-2.43658E-05 8.27181E-25
 -1       871 1.93025E-04-1.32361E-05 0.00000E+00
 -1       872 1.94508E-04-1.32444E-05 0.00000E+00
 -1       873 1.96070E-04-1.32534E-05-4.13590E-25
 -1       874 1.97644E-04-1.32631E-05 1.29247E-25
 -1       875 1.99161E-04-1.32734E-05 2.06795E-25
 -1       876 1.92209E-04-1.42651E-05 3.30872E-24
 -1       877 1.92707E-04-1.52322E-05 0.00000E+00
 -1       878 1.93183E-04-1.61404E-05-3.30872E-24
 -1       879 1.93641E-04-1.69973E-05 1.65436E-24
 -1       880 1.94082E-04-1.78101E-05 0.00000E+00
 -1       881 1.94509E-04-1.85863E-05 0.00000E+00
 -1       882 1.94925E-04-1.93331E-05 0.00000E+00
 -1       883 1.95334E-04-2.00581E-05 0.00000E+00
 -1       884 1.95736E-04-2.07684E-05 0.00000E+00
 -1       885 1.96136E-04-2.14714E-05-1.65436E-24
 -1       886 1.96536E-04-2.21744E-05-3.30872E-24
 -1       887 1.96939E-04-2.28849E-05 0.00000E+00
 -1       888 1.97347E-04-2.36101E-05 0.00000E+00
 -1       889 1.97762E-04-2.43575E-05 0.00000E+00
 -1       890 1.98188E-04-2.51345E-05 1.65436E-24
 -1       891 1.92722E-04-2.56656E-05 1.65436E-24
 -1       892 1.94050E-04-2.57232E-05 0.00000E+00
 -1       893 1.95328E-04-2.57808E-05 1.65436E-24
 -1       894 1.96533E-04-2.58380E-05-4.13590E-25
 -1       895 1.97639E-04-2.58951E-05 4.13590E-25
 -1       956 2.02539E-04 1.67471E-06-3.30872E-24
 -1       957 2.02406E-04 4.57752E-07 8.27181E-25
 -1       958 2.02274E-04-6.78505E-07 0.00000E+00
 -1       959 2.02141E-04-1.74538E-06 0.00000E+00
 -1       960 2.02008E-04-2.75424E-06 0.00000E+00
 -1       961 2.01876E-04-3.71649E-06 0.00000E+00
 -1       962 2.01743E-04-4.64353E-06-3.30872E-24
 -1       963 2.01610E-04-5.54680E-06 0.00000E+00
 -1       964 2.01478E-04-6.43773E-06 0.00000E+00
 -1       965 2.01345E-04-7.32772E-06 0.00000E+00
 -1       966 2.01212E-04-8.22823E-06-3.30872E-24
 -1       967 2.01080E-04-9.15067E-06-1.65436E-24
 -1       968 2.00947E-04-1.01064E-05 0.00000E+00
 -1       969 2.00815E-04-1.11070E-05 3.30872E-24
 -1       970 2.00683E-04-1.21636E-05 0.00000E+00
 -1       971 2.00433E-04-1.44102E-05 0.00000E+00
 -1       972 2.00311E-04-1.54388E-05 0.00000E+00
 -1       973 2.00190E-04-1.63831E-05-3.30872E-24
 -1       974 2.00069E-04-1.72542E-05 0.00000E+00
 -1       975 1.99947E-04-1.80628E-05 0.00000E+00
 -1       976 1.99826E-04-1.88198E-05-1.65436E-24
 -1       977 1.99705E-04-1.95362E-05 0.00000E+00
 -1       978 1.99583E-04-2.02227E-05-1.65436E-24
 -1       979 1.99462E-04-2.08903E-05 0.00000E+00
 -1       980 1.99341E-04-2.15500E-05-1.65436E-24
 -1       981 1.99220E-04-2.22125E-05-3.30872E-24
 -1       982 1.99099E-04-2.28889E-05 0.00000E+00
 -1       983 1.98978E-04-2.35900E-05 0.00000E+00
 -1       984 1.98857E-04-2.43267E-05 1.65436E-24
 -1       985 1.98737E-04-2.51099E-05-3.30872E-24
 -3
    1PSTEP                        30          15           1          
  100CL  115 6.62659E-01         409                     0   15           1
 -4  STRESS      6    1
 -5  SXX         1    4    1    1
 -5  SYY         1    4    2    2
 -5  SZZ         1    4    3    3
 -5  SXY         1    4    1    2
 -5  SYZ         1    4    2    3
 -5  SZX         1    4    3    1
 -1         1-5.28119E+06-1.65903E+06-1.12836E+06-1.45130E+06 1.01863E-10-1.75671E-07
 -1         2 1.26999E+06 1.87072E+07 4.43965E+06 5.61782E+06 2.73576E-08 1.23167E-07
 -1         3-1.48021E+03-1.57292E+06 4.08258E+02-2.22652E+03-5.41405E-10-1.56651E-08
 -1         5-7.38929E+01 3.85977E+05 9.97125E+00-1.32725E+00-5.84284E-10 8.68931E-09
 -1         8-5.96480E+05-2.10014E+05-6.83162E+04-2.54460E+05 1.90994E-10 1.20697E-07
 -1         9 1.14757E+07 3.26108E+06 2.64007E+06-4.75849E+05 8.24221E-09 5.73462E-08
 -1        10-2.30312E+03-1.63911E+06-3.97134E+03-1.50630E+04-1.36661E-08-2.00662E-08
 -1        12-6.99752E+01 3.85998E+05 3.27693E+02-9.05243E+00-8.20705E-10 1.46065E-08
 -1        15 9.74379E+02 5.35473E+02 3.14963E+03 9.39272E-01-3.37934E-11 5.13340E-07
 -1        16 2.26287E+07-3.00164E+05 3.09380E+06-2.19640E+06 9.54606E-09 1.93482E-07
 -1        17 8.27471E+06 6.19361E+06 2.23595E+06 5.93524E+06 2.41387E-08 1.69268E-08
 -1        18 1.41174E+05 3.31966E+04 3.90738E+03-1.19307E+05 1.71892E-08 1.67711E-09
 -1        19 1.22294E+05 1.41529E+05-9.43297E+02 2.19598E+04 1.66110E-09 1.41335E-09
 -1        20-8.17696E+04-5.73169E+05-1.28607E+05 2.51563E+04-2.08365E-09 4.76272E-09
 -1        21-4.55859E+01-2.95876E+05-9.23677E+02 2.72332E+02 1.51860E-08-6.08487E-08
 -1        24 1.38066E+07 1.18940E+07 3.82768E+06 1.10180E+07-1.68550E-07-4.77885E-08
 -1        25 1.22815E+05 2.59473E+05 9.79984E+04-6.40935E+05-4.10537E-09 1.21932E-08
 -1        26-5.53398E+04 9.21868E+04-2.46127E+04 1.25758E+03-3.63798E-10 1.07300E-08
 -1        27-7.55774E+04-3.09680E+05-1.13224E+05 6.89177E+04 4.70997E-09 3.44395E-10
 -1        28 2.22348E+04-8.52946E+04 1.68896E+04 2.06242E+04-4.97528E-09-8.37674E-09
 -1        32-1.67914E+06-3.17300E+06-1.96130E+05 4.48483E+05-4.21642E-08-8.41396E-09
 -1        33-1.78337E+05 9.29040E+04 3.23582E+04-3.84745E+04-2.81492E-09 1.28063E-08
 -1        34-2.23439E+05-2.49990E+04 6.88720E+02 7.55743E+04-4.30047E-09 3.62778E-08
 -1        35-2.29220E+04-3.38261E+04-1.34755E+03 5.14738E+04-4.32894E-09-2.10033E-09
 -1        51 5.96930E+04-1.77531E+05 1.26477E+05-4.62385E+05-7.27596E-11 1.54716E-07
 -1        52 2.03230E+04-1.55589E+05 6.65285E+04-5.39240E+05 1.90994E-10 2.25224E-07
 -1        53 4.28354E+03-1.70988E+05 3.49120E+04-4.60778E+05 5.32964E-10-1.23880E-07
 -1        54 7.82012E+03-1.66806E+05 2.92234E+04-5.40832E+05 8.73115E-11-4.10917E-07
 -1        55 1.69873E+04-1.74111E+05 3.61763E+04-4.60659E+05 2.69210E-10 2.93659E-07
 -1        56-9.65324E+06-1.26956E+06-8.76097E+05-3.96267E+06 1.10886E-08-1.35071E-07
 -1        57-1.07693E+07-1.05187E+06-5.53359E+05-2.90312E+06 9.16771E-09 2.36963E-07
 -1        58-9.58138E+06-1.68564E+06-1.97790E+05-4.09188E+06 5.60249E-10-1.36133E-07
 -1        59-1.08041E+07-5.89661E+05-1.11661E+05-2.85401E+06-4.20278E-08-1.01338E-07
 -1        60-9.65847E+06-1.69298E+06-5.25460E+04-4.04870E+06 6.43922E-09 2.16682E-07
 -1        61-1.03564E+07-8.26631E+05-2.04201E+03-3.07481E+06-4.80504E-08-1.74186E-08
 -1        62-9.95072E+06-1.50112E+06-4.85138E+04-3.81077E+06-7.04313E-09-1.56546E-07
 -1        63-9.72853E+06-1.34685E+06 2.62403E+04-3.61378E+06 6.60657E-09 8.20928E-08
 -1        64-1.02273E+07-1.21457E+06-4.44463E+04-3.47122E+06-7.79983E-09-8.68968E-08
 -1        65-9.40140E+06-1.80636E+06-2.88211E+03-4.26030E+06-5.33728E-08-2.05398E-07
 -1        66-1.03488E+07-9.92259E+05-4.43087E+04-3.21727E+06-1.30713E-08-2.84872E-07
 -1        67-9.36857E+06-2.02014E+06-1.00267E+05-4.56093E+06-4.02561E-08 3.33948E-08
 -1        68-1.03304E+07-9.52328E+05-1.80672E+05-3.21580E+06-5.24797E-08 1.24273E-08
 -1        69-9.58856E+06-2.14674E+06-4.92900E+05-4.23072E+06-4.22970E-08-2.58995E-07
 -1        70-1.00674E+07-9.19634E+05-7.95801E+05-3.50357E+06 4.00178E-10-2.72878E-07
 -1        86-1.29458E+06-1.40051E+07-2.42672E+06-2.64842E+06-2.62280E-07-9.42673E-08
 -1        87 1.99927E+06 5.18734E+06 2.02031E+06 5.06339E+06-4.25200E-07-6.81994E-08
 -1        88-3.58260E+05-2.13080E+06 1.86949E+05-2.35010E+06-3.91246E-07-8.40137E-08
 -1        89 2.68408E+06 4.94646E+06 2.06767E+06 5.22142E+06-5.45151E-07-1.94723E-08
 -1        90-1.90408E+06-1.38268E+07-2.62442E+06-2.82794E+06-1.31105E-07 1.65208E-07
 -1       121-2.02837E+03-1.57780E+06-5.39220E+02 1.10370E+03 1.49213E-09 3.85626E-10
 -1       122-1.29303E+03-1.57298E+06 7.75634E+02-4.45671E+03-5.36028E-09 1.14160E-08
 -1       123-2.04869E+03-1.57793E+06 2.76987E+02 3.29610E+03 3.90492E-09 1.46611E-08
 -1       124 3.57595E+02-1.57253E+06 2.97734E+03-9.32059E+03-1.04637E-08 3.35858E-08
 -1       125-2.86589E+03-1.57884E+06 3.50898E+03 5.92210E+03 6.05178E-09-1.67347E-09
 -1       191-7.78751E+01 3.85995E+05 8.54371E+00 6.91601E-01-5.89430E-10 1.40062E-09
 -1       192-7.48547E+01 3.85977E+05 2.12753E+01-4.26034E+00-7.76399E-10 9.13224E-09
 -1       193-8.04073E+01 3.85995E+05 3.62837E+01 3.74007E+00-1.03757E-09-2.11130E-08
 -1       194-7.79385E+01 3.85981E+05 8.08713E+01-9.66886E+00-4.57756E-10-2.10593E-08
 -1       195-8.52676E+01 3.85992E+05 1.54893E+02 6.28859E+00-1.56114E-09-9.53878E-09
 -1       251-9.33708E+05 1.79473E+04-4.20386E+04-1.55291E+04-4.95419E-09 8.13852E-08
 -1       252-9.50546E+05-2.07160E+04-2.93965E+04 5.31504E+04 1.81721E-08-1.82411E-07
 -1       253-9.42111E+05 2.79621E+03-1.11290E+04-1.26719E+04-1.10915E-08-4.41896E-08
 -1       254-9.36826E+05-3.27625E+03-5.46545E+03 4.00655E+04 8.08416E-09 1.72839E-08
 -1       255-9.46861E+05 1.43583E+02-3.71856E+03-2.44568E+03 4.75893E-10 2.11455E-07
 -1       256-9.30346E+05-3.39072E+02 9.49113E+02 1.58057E+04-7.84325E-09 3.71769E-07
 -1       257-9.48061E+05-5.34690E+02-1.51113E+03 1.15780E+04 6.87805E-09 5.58625E-08
 -1       258-9.32311E+05 8.21432E+02 2.71706E+03-1.10635E+04-2.68633E-08-6.94590E-08
 -1       259-9.45070E+05-8.83854E+02 1.21808E+03 2.44189E+04 7.83734E-09 3.33465E-08
 -1       260-9.38816E+05 2.79751E+03 5.46574E+03-3.10558E+04-5.56525E-09 7.94119E-08
 -1       261-9.42204E+05-2.01055E+03 8.35345E+03 3.15846E+04 2.09279E-08 3.28191E-08
 -1       262-9.37952E+05 1.13742E+04 2.08019E+04-3.72299E+04-5.93468E-09 1.40993E-07
 -1       263-9.46216E+05-9.20878E+03 3.29369E+04 3.06026E+04-2.72451E-09 2.66033E-07
 -1       264-9.08184E+05 6.48146E+04 9.12722E+04-2.73595E+04 2.34392E-08 2.76243E-07
 -1       265-9.71462E+05-5.56000E+04 1.26939E+05 2.17025E+04 4.92105E-09 4.15224E-07
 -1       266-1.76396E+04-8.24903E+03 4.13838E+04-2.00962E+01 9.09495E-12-1.63753E-09
 -1       267 2.04489E+04 9.61324E+03 2.92513E+04 2.31889E+01 1.00044E-10-6.22316E-08
 -1       268-2.74216E+03-1.36156E+03 1.08725E+04-2.95456E+00-8.23093E-11-4.95296E-07
 -1       269 3.23769E+03 1.62944E+03 7.06703E+03 3.44173E+00 2.65914E-10-8.75353E-08
 -1       270-4.85971E+02-2.67723E+02 3.41136E+03-4.67060E-01 8.90168E-11 1.11604E-07
 -1       271-1.55903E+06-1.96235E+05-1.16970E+05-6.04929E+05-7.90897E-09 2.83530E-07
 -1       272-1.56917E+06-3.04358E+05-7.39790E+04-6.31821E+05-1.92485E-08 1.36457E-07
 -1       273-1.58334E+06-2.21995E+05-2.81766E+04-5.96981E+05-6.25696E-08 4.44379E-09
 -1       274-1.54078E+06-2.73563E+05-1.49514E+04-6.46207E+05 3.84807E-08-2.91214E-07
 -1       275-1.58885E+06-2.22114E+05-6.91782E+03-5.93365E+05-1.43446E-08 1.06419E-07
 -1       276-1.53456E+06-2.74133E+05-3.07774E+03-6.54063E+05 9.09858E-09 1.77544E-07
 -1       277-1.59157E+06-2.19755E+05-1.89300E+03-5.90720E+05 1.09649E-08 2.52602E-07
 -1       278-1.53194E+06-2.77317E+05-8.07529E+02-6.59919E+05 2.28783E-08 1.74540E-07
 -1       279-1.59334E+06-2.17725E+05-9.39509E+02-5.88806E+05 3.27236E-09 2.91237E-07
 -1       280-1.53058E+06-2.79859E+05-1.15364E+03-6.63937E+05-4.12610E-08-2.81782E-07
 -1       281-1.59433E+06-2.16335E+05-2.13375E+03-5.87652E+05 1.93986E-08-1.57139E-07
 -1       282-1.53084E+06-2.82448E+05-4.95525E+03-6.65822E+05-3.79632E-08 1.56189E-07
 -1       283-1.59386E+06-2.14784E+05-8.81439E+03-5.87388E+05 8.53834E-09 1.69348E-08
 -1       284-1.53857E+06-2.94381E+05-2.40298E+04-6.63942E+05-3.39081E-08-1.76175E-07
 -1       285-1.58677E+06-2.05604E+05-3.74182E+04-5.89107E+05 7.83882E-09-2.41416E-08
 -1       301-5.21847E+03-6.45707E+05 1.69446E+05-1.12197E+06 1.84227E-08 2.09257E-07
 -1       302-2.80519E+03-5.98884E+05 1.02657E+05-1.66264E+06 1.30021E-08 1.54039E-07
 -1       303-1.81737E+04-6.37276E+05 5.82846E+04-1.11893E+06 1.01863E-09 1.20301E-07
 -1       304-1.94129E+04-6.04699E+05 5.94509E+04-1.66193E+06-5.29690E-09-3.74639E-08
 -1       305-2.38819E+04-6.25411E+05 7.32929E+04-1.12211E+06-1.63964E-08 2.13971E-07
 -1       306-3.00117E+07-6.19664E+06-8.56420E+06-5.75473E+05-3.07336E-08-5.66943E-08
 -1       307 2.53276E+07 3.19285E+06 5.49876E+06-1.50620E+07-8.83651E-07 1.48459E-07
 -1       308-7.05088E+06-1.02642E+06-4.71323E+05 5.18533E+06-1.43831E-07 3.95681E-07
 -1       309-3.31569E+06 8.65999E+06 2.26010E+06-2.05753E+07 3.82890E-07 7.21557E-08
 -1       310-1.24310E+07-1.90340E+06-1.98712E+06 5.18891E+06-1.81142E-07-4.63333E-08
 -1       311 3.78758E+07 2.26034E+04 7.19531E+06-8.90050E+06 5.18776E-07-5.00586E-08
 -1       312-3.17336E+07-6.68635E+06-8.45774E+06-4.92555E+06 1.73342E-07 1.06622E-07
 -1       313 4.52564E+07 1.46933E+07 1.05927E+07 2.34739E+07-3.89206E-07 2.01399E-07
 -1       314-1.72816E+07-1.75855E+07-7.48320E+06-1.24838E+07 4.56057E-07-1.07742E-07
 -1       315-1.69345E+06 2.94638E+07 5.64752E+06 1.06515E+07-6.61472E-07-1.36381E-07
 -1       316 1.32864E+06-9.83392E+06-4.54701E+05-2.60550E+06-1.27671E-06-2.92377E-07
 -1       317-1.71480E+07 2.23129E+07 2.21628E+06-8.65316E+06 7.67512E-07-7.90817E-07
 -1       318-1.06696E+06-1.26522E+07-2.00290E+06-4.24926E+06-8.86241E-07 1.09023E-07
 -1       319 7.06412E+06 3.16091E+07 6.96159E+06 1.64493E+07-4.32046E-08 2.58296E-07
 -1       320-2.24626E+07-1.74844E+07-9.76978E+06-1.27250E+07 1.81724E-07-5.61413E-08
 -1       336-7.16571E+02-1.70802E+06-1.39297E+04 8.97280E+03-2.68519E-08-6.54109E-09
 -1       337-5.42743E+03-1.70765E+06-1.81806E+04-2.17822E+04-4.91254E-08 1.14396E-08
 -1       338 3.03907E+02-1.70751E+06-2.86032E+04 1.25610E+04-3.35840E-08 2.28865E-08
 -1       339-3.03493E+04-1.72496E+06-6.46682E+04-2.88075E+04-6.16637E-08 3.40842E-08
 -1       340 2.00259E+04-1.69289E+06-1.01848E+05 1.58676E+04-4.09491E-08 2.92166E-08
 -1       406-4.82358E+01 3.85978E+05 6.43488E+02 3.30238E+00-2.07413E-09 4.13274E-09
 -1       407 1.55979E+02 3.86112E+05 1.37503E+03 2.32066E+01-3.09299E-10-4.05007E-08
 -1       408 6.35537E+02 3.85878E+05 2.74179E+03-2.68375E+01-2.54590E-09-1.42263E-08
 -1       409 2.90480E+03 3.86987E+05 6.17960E+03 2.86363E+02-5.41945E-10 2.61934E-08
 -1       410 8.47116E+03 3.85088E+05 1.26124E+04-2.76122E+02-2.72485E-09 2.05491E-08
 -1       521-3.15194E+07-7.63300E+06-9.99001E+06-1.86707E+05-1.16881E-07 7.03731E-08
 -1       522 2.61359E+07 4.18279E+06 5.59362E+06-1.85296E+07-5.24335E-07-4.66884E-07
 -1       523-7.63365E+06-1.33351E+06-4.63356E+05 5.62667E+06 2.65369E-07-4.00178E-08
 -1       524-6.79903E+06 1.16618E+07 2.43999E+06-2.36053E+07 7.24351E-07-8.21125E-07
 -1       525-1.32343E+07-2.52245E+06-2.18184E+06 5.63043E+06 6.27595E-07-4.92611E-07
 -1       526 4.12642E+07-6.33148E+04 7.54243E+06-1.15309E+07 2.09780E-07-7.72998E-08
 -1       527-3.35377E+07-8.36031E+06-9.73346E+06-4.78533E+06 2.51341E-07-1.13636E-07
 -1       528 4.93497E+07 1.63241E+07 1.10332E+07 2.66431E+07 6.65896E-08-2.40892E-07
 -1       529-1.82148E+07-1.97502E+07-8.56601E+06-1.25106E+07 1.62690E-07-1.87545E-07
 -1       530-4.16663E+06 3.41679E+07 5.96663E+06 1.01473E+07 1.20737E-07 4.92961E-07
 -1       531 1.31869E+06-1.09029E+07-4.29106E+05-2.57086E+06-8.83680E-07 3.66301E-07
 -1       532-1.96994E+07 2.43177E+07 2.41749E+06-1.28702E+07 4.09331E-07-6.33052E-07
 -1       533-1.11421E+06-1.37861E+07-2.12715E+06-4.07604E+06-1.47498E-07-9.80799E-07
 -1       534 5.04136E+06 3.66192E+07 7.23414E+06 1.69953E+07-7.95699E-08 7.19971E-07
 -1       535-2.36171E+07-1.98300E+07-1.11819E+07-1.27840E+07 1.04192E-07 4.59491E-07
 -1       536-7.04352E+05-4.68859E+04-4.69162E+04-5.44376E+04-6.74390E-09 5.37411E-08
 -1       537-5.66091E+04 4.49006E+04 8.41072E+04 1.23378E+05-1.21922E-07 8.32697E-08
 -1       538-3.94344E+05 3.26264E+03 3.78399E+03-7.19662E+04 2.05680E-08 1.09218E-07
 -1       539-2.69689E+05 2.89936E+03 2.49203E+04 1.38254E+05 1.44585E-07 1.06660E-07
 -1       540-4.96619E+05-4.26559E+02-2.11275E+04-6.98438E+04-3.68027E-09 1.14013E-07
 -1       541 1.43607E+05 1.68790E+04 1.05801E+05 9.75218E+04-3.40415E-08 1.01792E-07
 -1       542-7.96503E+05-2.00228E+04-8.37377E+04-3.03666E+04 4.82792E-08 5.23255E-08
 -1       543 4.00791E+05 2.71706E+04 1.57060E+05-1.33232E+04-2.55266E-08-1.12591E-08
 -1       544-7.46906E+05-1.64386E+04-7.43960E+04 4.03374E+04-3.20570E-08-5.34502E-08
 -1       545 2.65193E+04 9.41762E+03 7.93217E+04-1.13195E+05 2.08702E-08-8.58545E-08
 -1       546-4.32282E+05 6.07018E+03-1.21629E+04 6.91621E+04 2.51559E-08-8.50433E-08
 -1       547-2.87710E+05-4.66016E+03 1.04752E+04-1.41098E+05-1.39792E-07-1.19046E-07
 -1       548-4.41124E+05 4.71165E+03-2.38095E+04 6.89258E+04-1.18813E-07-9.81927E-08
 -1       549 4.56724E+04 1.58539E+04 6.00006E+04-1.11043E+05-6.57608E-08-8.05394E-08
 -1       550-7.56743E+05-2.19080E+04-1.28478E+05 3.83969E+04 2.58660E-09-3.89919E-08
 -1       551 4.07407E+04-7.55764E+05-1.53495E+04-1.24687E+06-1.01543E-07-1.21072E-08
 -1       552 9.30531E+04-8.00517E+05 1.02602E+04-1.77793E+06-7.16536E-08 2.92785E-08
 -1       553 7.15569E+04-7.96994E+05 3.23067E+04-1.24024E+06-1.18409E-07 2.56550E-08
 -1       554 1.31778E+05-8.16232E+05 8.14368E+04-1.77988E+06-7.52334E-08 2.41562E-08
 -1       555 1.01319E+05-8.20601E+05 1.48640E+05-1.24008E+06-1.24615E-07-1.61308E-08
 -1       556 2.22897E+05-3.82432E+05 2.67856E+04-4.06519E+05-2.68628E-08-1.70257E-08
 -1       557 3.53316E+05-4.86611E+05 1.66689E+04-5.26538E+05-2.09548E-09 2.14204E-08
 -1       558 2.04829E+05-3.75464E+05 2.57021E+03-4.10784E+05-1.83645E-08-2.21189E-09
 -1       559 3.28301E+05-4.86838E+05 2.55454E+03-5.46887E+05 2.49856E-08-1.86774E-08
 -1       560 1.89611E+05-3.65920E+05-1.43638E+03-4.21746E+05 5.58794E-09 1.26311E-08
 -1       561 3.09166E+05-4.79188E+05 1.58480E+02-5.59929E+05-1.05501E-08 3.95812E-09
 -1       562 1.77578E+05-3.58442E+05-1.30402E+03-4.30460E+05-1.76078E-09-1.73168E-09
 -1       563 2.94872E+05-4.72957E+05-2.94007E+01-5.69263E+05-1.03319E-09-2.23499E-08
 -1       564 1.68992E+05-3.53092E+05-5.92750E+02-4.36544E+05 9.83709E-09-1.73404E-08
 -1       565 2.85397E+05-4.68830E+05 2.58092E+01-5.75317E+05 1.70839E-08-4.09577E-08
 -1       566 1.63978E+05-3.49920E+05-2.57237E+02-4.40051E+05-1.97178E-09-1.14596E-08
 -1       567 2.80799E+05-4.66830E+05-3.60617E+02-5.78109E+05 1.39789E-08 2.92021E-08
 -1       568 1.62624E+05-3.49091E+05-1.12107E+03-4.41094E+05 3.99996E-09 3.26654E-08
 -1       569 2.79692E+05-4.66759E+05-2.83161E+03-5.76673E+05-8.32642E-09-2.23372E-09
 -1       570 1.66023E+05-3.52321E+05-6.19142E+03-4.40075E+05 7.15227E-09 5.86897E-09
 -1       571 2.90231E+05 1.04980E+04 1.49799E+04-9.50184E+04 1.15551E-08-2.36469E-10
 -1       572 2.92403E+05 3.95519E+03 7.34135E+03-1.04245E+05 2.11730E-08-1.99634E-08
 -1       573 2.91094E+05 1.24267E+03 3.26200E+03-9.48420E+04 1.10658E-08 1.64591E-08
 -1       574 2.91308E+05 7.24239E+02 1.63586E+03-1.04469E+05 3.91333E-09 1.79989E-08
 -1       575 2.91187E+05 4.45471E+02 7.72079E+02-9.48179E+04-8.50332E-09 1.31431E-08
 -1       576 2.91172E+05 4.56583E+02 3.95298E+02-1.04499E+05-2.57560E-08-3.93084E-09
 -1       577 2.91227E+05 3.87465E+02 1.97336E+02-9.48146E+04-1.68939E-08 8.95852E-09
 -1       578 2.91202E+05 4.18641E+02 1.13995E+02-1.04503E+05-5.11000E-09 1.48157E-09
 -1       579 2.91299E+05 3.50930E+02 7.83067E+01-9.48143E+04 4.62387E-09 7.93261E-09
 -1       580 2.91304E+05 3.67814E+02 9.08875E+01-1.04498E+05-9.32050E-09 6.31644E-09
 -1       581 2.91413E+05 2.92592E+02 1.37314E+02-9.48202E+04 5.21140E-09 9.15588E-09
 -1       582 2.91478E+05 3.30712E+02 2.79170E+02-1.04436E+05 2.92493E-09 2.14350E-08
 -1       583 2.91552E+05 3.35288E+02 5.35876E+02-9.48766E+04 2.40834E-09 5.48812E-09
 -1       584 2.91853E+05 7.72854E+02 1.21260E+03-1.03961E+05 5.25870E-09 3.70551E-09
 -1       585 2.91578E+05 1.79370E+03 2.45552E+03-9.52950E+04-1.03137E-09-6.47924E-09
 -1       586-3.41999E+03 1.16688E+05-2.91979E+03-2.50493E+05-4.64888E-09-6.40762E-09
 -1       587-1.33354E+03 1.16438E+05 7.67789E+02-2.75687E+05-6.81575E-09-6.44843E-09
 -1       588 4.02789E+02 1.16246E+05 4.75363E+03-2.50355E+05-3.09774E-09-1.86374E-08
 -1       589 5.08554E+03 1.18717E+05 1.23317E+04-2.75453E+05-8.18727E-09-2.16050E-08
 -1       590 1.65983E+04 1.14914E+05 2.58694E+04-2.50787E+05-9.38417E-09-6.22094E-09
 -1       591-7.48718E+04-1.59587E+04-2.25018E+04-3.19227E+04-3.48405E-09 2.31466E-09
 -1       592-7.89522E+04-1.95159E+04-1.21888E+04-3.55479E+04-7.37046E-10-1.72338E-08
 -1       593-7.71222E+04-1.43259E+04-5.07357E+03-3.35725E+04 5.68018E-09-1.49037E-08
 -1       594-7.58453E+04-1.62141E+04-2.53032E+03-3.56656E+04-4.03995E-09 5.99897E-09
 -1       595-7.72938E+04-1.43206E+04-1.16168E+03-3.36475E+04-1.98567E-09 1.20444E-08
 -1       596-7.56326E+04-1.60631E+04-5.90331E+02-3.56403E+04 7.85863E-09 1.43074E-08
 -1       597-7.73153E+04-1.43360E+04-3.21011E+02-3.36503E+04 2.03738E-09-1.83257E-09
 -1       598-7.56117E+04-1.60571E+04-2.57245E+02-3.56332E+04-2.56068E-09-5.72507E-09
 -1       599-7.73141E+04-1.43365E+04-3.27591E+02-3.36500E+04 2.79397E-09 1.64391E-09
 -1       600-7.56327E+04-1.60636E+04-6.07750E+02-3.56381E+04 2.49031E-09-1.56269E-08
 -1       601-7.72895E+04-1.43220E+04-1.19854E+03-3.36465E+04-2.56136E-09 8.48149E-09
 -1       602-7.58521E+04-1.62183E+04-2.61187E+03-3.56603E+04-3.60376E-09 1.37152E-09
 -1       603-7.71096E+04-1.43304E+04-5.23776E+03-3.35700E+04-3.34194E-09 1.20717E-08
 -1       604-7.90771E+04-1.96073E+04-1.25823E+04-3.55140E+04 3.55925E-09 1.15413E-08
 -1       605-7.47665E+04-1.60338E+04-2.32285E+04-3.18862E+04 4.77513E-09 2.75159E-08
 -1       606 2.67093E+04-1.43142E+04-2.56607E+04 2.40113E+04 9.13224E-09-4.22324E-09
 -1       607 2.23247E+04-4.67481E+03-1.27790E+04 2.69834E+04 9.31323E-10-3.71801E-09
 -1       608 2.48235E+04-8.43167E+02-5.72072E+03 2.38423E+04 2.13004E-09 2.05864E-09
 -1       609 2.43445E+04-2.88648E+02-2.88995E+03 2.71976E+04 1.53013E-08 1.33255E-08
 -1       610 2.46101E+04-4.06866E+01-1.37884E+03 2.38222E+04 1.04292E-08-3.63480E-09
 -1       611 2.45348E+04-4.08827E+01-6.95196E+02 2.72208E+04 1.19435E-08-2.11292E-08
 -1       612 2.45630E+04-2.69575E+01-3.30485E+02 2.38201E+04 7.54426E-09-8.06017E-09
 -1       613 2.45463E+04-3.67644E+01-1.48069E+02 2.72235E+04 4.28008E-09-9.88871E-09
 -1       614 2.45408E+04-3.33426E+01-3.46553E+01 2.38194E+04 4.05635E-10 2.21553E-09
 -1       615 2.45410E+04-3.52521E+01 6.22242E+01 2.72239E+04-1.17643E-09-5.58475E-09
 -1       616 2.45234E+04-3.02016E+01 1.86438E+02 2.38197E+04 6.93035E-10 3.28714E-09
 -1       617 2.45634E+04 4.49390E+00 4.25308E+02 2.72235E+04 1.01954E-09 1.04706E-09
 -1       618 2.44864E+04 9.24186E+01 8.57253E+02 2.38200E+04 1.41836E-09 3.50769E-09
 -1       619 2.48660E+04 6.67332E+02 1.92501E+03 2.72228E+04-3.27032E-09-8.10019E-09
 -1       620 2.42017E+04 2.12520E+03 3.86922E+03 2.38216E+04 2.07820E-10-8.45966E-09
 -1       621 5.09333E+02 3.01151E+05 3.87827E+03 4.08912E+04 1.10367E-09 4.47835E-09
 -1       622 6.74597E+02 3.02047E+05 3.44238E+03 5.93654E+04 1.29967E-09 7.99037E-09
 -1       623 1.41655E+02 3.01346E+05 4.13725E+03 4.07061E+04 1.28694E-09-1.45155E-09
 -1       624 2.12253E+03 3.03264E+05 8.02103E+03 5.95476E+04 1.36970E-09-7.58087E-09
 -1       625 2.07421E+03 2.99755E+05 1.40167E+04 4.07029E+04 1.38743E-09 3.38400E-09
 -1       626 2.60650E+05 6.13905E+04 5.11915E+03 1.26669E+05 1.32104E-09-6.37374E-09
 -1       627 2.58331E+05 6.27889E+04 2.46688E+03 1.30943E+05 2.01271E-09-1.11067E-08
 -1       628 2.60778E+05 5.90481E+04 1.04331E+03 1.27539E+05-1.14615E-08-1.26738E-08
 -1       629 2.57696E+05 6.21092E+04 5.10646E+02 1.31183E+05-8.17454E-09-3.43790E-09
 -1       630 2.60793E+05 5.89350E+04 2.36972E+02 1.27576E+05-1.38425E-09-1.78389E-08
 -1       631 2.57629E+05 6.20834E+04 1.27649E+02 1.31185E+05 7.67068E-09 1.96736E-08
 -1       632 2.60789E+05 5.89389E+04 8.42184E+01 1.27572E+05 4.61296E-09-4.12115E-09
 -1       633 2.57621E+05 6.20852E+04 9.41590E+01 1.31182E+05 4.41946E-09-1.07982E-08
 -1       634 2.60785E+05 5.89361E+04 1.52464E+02 1.27571E+05-1.56513E-09 7.68318E-09
 -1       635 2.57635E+05 6.20835E+04 3.08695E+02 1.31187E+05-5.49790E-10 1.36574E-08
 -1       636 2.60775E+05 5.89303E+04 6.23505E+02 1.27571E+05 5.79712E-09 7.89350E-09
 -1       637 2.57770E+05 6.21804E+04 1.37099E+03 1.31186E+05 2.33854E-09 5.25733E-09
 -1       638 2.60727E+05 5.92331E+04 2.81689E+03 1.27434E+05 3.80669E-09 1.16470E-08
 -1       639 2.59250E+05 6.42384E+04 6.66490E+03 1.30751E+05 1.11543E-08-7.13953E-11
 -1       640 2.60522E+05 6.53785E+04 1.38308E+04 1.24845E+05-3.36468E-09-2.81659E-08
 -1       656 6.65346E+04-1.70273E+06-1.60610E+05-2.54063E+03-5.82077E-10-9.71289E-09
 -1       657-8.80193E+04-1.77531E+06-1.33056E+05 5.18528E+03 6.36646E-12-5.89755E-09
 -1       658 2.12088E+04-1.72334E+06-8.19453E+04-4.62294E+03 1.58479E-10 4.08882E-09
 -1       659-9.51785E+04-1.77871E+06-1.42464E+05 6.91408E+03-3.36513E-09 8.52396E-09
 -1       660 7.36779E+04-1.69934E+06-1.76786E+05-4.26942E+03-1.65164E-09 1.40119E-11
 -1       661 1.58692E+05 1.66090E+04 1.67233E+04 6.20366E+04 1.43700E-10-5.62432E-09
 -1       662 1.68144E+05 2.89955E+04 1.12703E+04 5.82869E+04-2.34763E-10-3.15431E-08
 -1       663 1.61977E+05 2.19741E+04 3.94165E+03 6.10833E+04 2.69131E-09-2.94949E-09
 -1       664 1.64336E+05 2.27214E+04 2.35793E+03 5.94514E+04 5.70793E-10-1.36896E-08
 -1       665 1.62475E+05 2.27068E+04 9.30185E+02 6.09378E+04 3.82613E-10-6.39088E-09
 -1       666 1.63746E+05 2.18836E+04 5.44483E+02 5.96411E+04 8.65228E-09 1.21518E-08
 -1       667 1.62562E+05 2.27902E+04 2.89388E+02 6.09014E+04-7.72474E-10-2.54983E-09
 -1       668 1.63650E+05 2.18237E+04 2.95295E+02 5.96941E+04-2.23183E-09-4.07671E-08
 -1       669 1.62570E+05 2.27650E+04 4.00138E+02 6.08851E+04-1.21548E-09-3.63755E-09
 -1       670 1.63747E+05 2.20410E+04 8.71634E+02 5.96971E+04-9.62721E-09 7.23091E-09
 -1       671 1.62465E+05 2.25773E+04 1.54776E+03 6.08964E+04 4.46303E-09-4.08170E-09
 -1       672 1.64649E+05 2.35468E+04 3.96000E+03 5.94785E+04 4.32910E-09-2.14141E-09
 -1       673 1.61673E+05 2.12973E+04 6.63636E+03 6.10890E+04 1.44257E-09-5.99675E-09
 -1       674 1.70965E+05 3.42089E+04 1.89786E+04 5.76229E+04-4.51803E-09-1.47588E-09
 -1       675 1.56189E+05 1.22139E+04 2.81709E+04 6.26400E+04-1.21781E-09-5.28235E-09
 -1       676 2.41051E+01-2.95798E+05-1.11327E+03-1.36170E+02 9.69607E-10-4.90436E-09
 -1       677-2.94508E+02-2.96068E+05-2.03748E+03 2.72121E+02 7.91380E-09-3.05149E-08
 -1       678 1.97515E+02-2.95607E+05-3.60177E+03-1.35862E+02-2.08729E-10-1.76406E-10
 -1       679-3.60184E+03-2.98242E+05-8.55630E+03 2.70946E+02 5.90262E-09 8.01035E-09
 -1       680 2.15050E+03-2.93625E+05-1.37898E+04-1.33494E+02-6.78483E-10-2.63061E-09
 -1       771-3.06208E+06-7.45914E+05-1.64606E+05-1.46485E+06-3.18105E-08-2.57278E-08
 -1       772-2.98518E+06-8.34434E+05-8.48636E+04-1.56719E+06-2.47237E-08 9.83346E-09
 -1       773-3.09337E+06-7.21510E+05-4.32647E+04-1.47925E+06-1.73459E-08 9.32778E-09
 -1       774-2.97571E+06-8.16086E+05-1.93016E+04-1.59281E+06 2.11876E-08-1.10595E-09
 -1       775-3.10971E+06-7.10040E+05-1.44400E+04-1.48624E+06-9.48785E-09 3.89991E-09
 -1       776-2.98795E+06-8.13088E+05-5.39955E+03-1.61218E+06-1.71422E-08 1.00044E-09
 -1       777-3.12389E+06-6.99805E+05-6.38078E+03-1.49240E+06-5.87897E-09 3.98722E-09
 -1       778-3.00074E+06-8.10298E+05-1.80382E+03-1.62883E+06 2.85218E-09 8.02902E-09
 -1       779-3.13608E+06-6.90863E+05-3.18892E+03-1.49767E+06-7.56700E-10-1.78261E-09
 -1       780-3.01200E+06-8.07636E+05-5.28917E+02-1.64239E+06-5.41331E-09 1.07138E-09
 -1       781-3.14577E+06-6.83654E+05-1.23925E+03-1.50179E+06-2.76341E-08-1.97724E-09
 -1       782-3.02068E+06-8.05374E+05 4.45631E+02-1.65240E+06-3.96321E-08-1.74714E-09
 -1       783-3.15259E+06-6.78646E+05 6.93206E+02-1.50468E+06-2.80852E-09-1.15624E-08
 -1       784-3.02549E+06-8.03113E+05 2.87677E+03-1.65858E+06-1.15215E-08-6.94854E-10
 -1       785-3.15663E+06-6.75659E+05 5.07798E+03-1.50651E+06-3.18068E-08 5.50608E-09
 -1       786 1.23871E+05-9.77220E+03 2.26089E+04-3.21144E+02 3.87695E-09-9.90076E-09
 -1       787 1.33677E+05 1.13140E+04 1.59949E+04-1.34563E+02 6.83762E-09-6.57201E-09
 -1       788 1.27652E+05-1.53133E+03 5.84943E+03-2.86056E+02 1.76382E-09 1.93077E-08
 -1       789 1.29272E+05 1.77247E+03 3.67207E+03-1.88340E+02-3.15621E-09 2.09066E-08
 -1       790 1.28276E+05-2.38430E+02 1.48680E+03-2.67384E+02-1.39846E-09 1.32263E-09
 -1       791 1.28542E+05 2.75868E+02 8.58815E+02-2.20289E+02-6.65546E-09-1.45901E-08
 -1       792 1.28382E+05-3.58475E+01 3.64081E+02-2.54109E+02-4.80464E-09 1.60191E-08
 -1       793 1.28416E+05 3.79417E+01 1.81831E+02-2.45258E+02-1.90839E-09 1.89796E-09
 -1       794 1.28403E+05-6.54025E-01 4.79131E+01-2.42415E+02 4.06769E-09-1.36449E-08
 -1       795 1.28379E+05-2.69315E+01-5.61018E+01-2.69654E+02-3.95812E-09 2.36851E-08
 -1       796 1.28419E+05 2.89893E+01-1.59887E+02-2.29712E+02 4.56847E-09 1.19414E-09
 -1       797 1.28286E+05-2.16496E+02-4.39707E+02-2.98825E+02 4.35836E-09 3.71890E-09
 -1       798 1.28496E+05 1.88768E+02-7.14301E+02-2.13244E+02 3.38920E-09 2.25742E-08
 -1       799 1.27744E+05-1.39140E+03-1.96533E+03-3.39591E+02 6.18700E-09 1.60958E-09
 -1       800 1.28961E+05 1.20293E+03-2.78139E+03-1.88948E+02 1.73518E-10 1.16278E-08
 -1       801-1.68128E+05-9.94051E+06-1.38384E+06 1.40125E+06 8.98144E-08-4.01742E-08
 -1       802 7.29295E+05 5.85922E+06 2.15883E+06-1.72825E+06 2.58304E-07-3.35740E-08
 -1       803-5.31379E+05-1.41618E+07-1.87249E+06 8.89619E+05 7.77109E-08 2.27774E-08
 -1       804 2.83719E+05 2.33252E+06 1.52101E+06 6.72403E+05-1.18944E-07-1.06006E-07
 -1       805 1.88149E+05-6.42801E+06-2.83334E+05-9.93782E+05-4.99058E-08-6.58874E-08
 -1       806-3.08631E+05-5.96992E+04-2.28315E+04-1.22293E+05-3.39696E-09-7.44603E-09
 -1       807-3.10428E+05-5.59715E+04-1.12169E+04-1.27832E+05 1.36715E-08 1.70191E-08
 -1       808-3.09258E+05-5.14710E+04-4.75856E+03-1.26183E+05-4.28827E-09-3.21165E-09
 -1       809-3.08070E+05-5.28197E+04-2.32682E+03-1.28107E+05-8.89850E-09-4.13183E-09
 -1       810-3.09353E+05-5.11845E+04-1.06651E+03-1.26355E+05 1.79011E-08 8.86939E-09
 -1       811-3.07888E+05-5.26931E+04-5.30395E+02-1.28072E+05 1.39180E-08 1.60435E-09
 -1       812-3.09367E+05-5.12092E+04-2.68326E+02-1.26354E+05 2.47474E-09-1.31677E-08
 -1       813-3.07862E+05-5.26953E+04-1.74513E+02-1.28053E+05 5.12227E-09-4.38104E-08
 -1       814-3.09360E+05-5.12189E+04-1.73150E+02-1.26350E+05 6.58929E-09-1.58325E-08
 -1       815-3.07866E+05-5.26975E+04-2.79158E+02-1.28046E+05 1.07243E-08-1.00863E-09
 -1       816-3.09339E+05-5.12180E+04-5.29216E+02-1.26346E+05 1.64246E-08-7.02903E-09
 -1       817-3.07956E+05-5.27480E+04-1.13581E+03-1.28034E+05 7.62884E-09-1.52834E-08
 -1       818-3.09270E+05-5.13784E+04-2.31668E+03-1.26271E+05 1.01136E-09 9.70522E-09
 -1       819-3.09224E+05-5.41475E+04-5.45097E+03-1.27733E+05-6.80802E-09 2.86286E-09
 -1       820-3.08833E+05-5.54962E+04-1.10947E+04-1.24512E+05-4.79395E-09 1.75469E-08
 -1       821-3.78776E+05 2.08589E+04-4.85504E+04 2.11218E+03 1.38809E-08-9.60426E-10
 -1       822-3.98493E+05-2.41636E+04-3.41244E+04-4.42721E+03 5.04556E-09 2.88583E-08
 -1       823-3.86247E+05 3.28784E+03-1.25406E+04 3.40893E+03-1.28528E-08 7.70797E-09
 -1       824-3.89478E+05-3.79166E+03-7.85028E+03-5.32675E+03 2.09748E-09 6.00630E-09
 -1       825-3.87797E+05 5.10964E+02-3.28664E+03 3.01183E+03 1.89276E-08-3.61331E-09
 -1       826-3.87060E+05-5.67554E+02-1.74617E+03-3.06870E+03 2.65937E-08-6.11232E-09
 -1       827-3.88641E+05 4.74697E+01-1.18674E+03 1.15073E+03 9.46469E-09-5.13896E-09
 -1       828-3.86364E+05-1.32793E+02-5.90686E+02 1.09059E+03-3.56508E-10 2.02424E-09
 -1       829-3.88481E+05 6.63379E+01-1.17598E+03-1.14749E+03 3.96983E-09 2.49690E-09
 -1       830-3.87407E+05-6.21849E+02-1.88368E+03 4.84639E+03 2.32411E-09 2.91601E-08
 -1       831-3.87620E+05 5.53883E+02-3.36885E+03-2.60508E+03-4.84709E-09 3.97108E-09
 -1       832-3.89559E+05-3.95803E+03-8.15311E+03 6.11455E+03-3.99662E-09-5.26427E-09
 -1       833-3.86344E+05 3.41186E+03-1.30444E+04-2.41570E+03-1.47004E-09-7.92716E-09
 -1       834-3.98557E+05-2.50774E+04-3.53485E+04 4.15751E+03-2.47833E-09-1.13159E-08
 -1       835-3.78605E+05 2.16406E+04-5.04209E+04-6.47962E+02 5.39904E-09-1.81899E-10
 -1       836-1.41229E+03 3.69883E+05 2.28863E+04-1.61538E+04-7.22321E-09 1.84618E-08
 -1       837 4.87932E+03 3.77051E+05 1.93636E+04-3.30066E+04-7.97445E-09 1.95687E-08
 -1       838-5.57236E+02 3.71893E+05 1.97256E+04-1.60823E+04-6.28143E-09 1.48134E-09
 -1       839 1.24131E+04 3.82661E+05 3.73113E+04-3.30590E+04-6.99902E-09-1.40830E-08
 -1       840-3.83738E+03 3.64212E+05 5.94964E+04-1.61071E+04-6.01358E-09-1.44746E-09
 -1       856-5.23635E+04 8.02661E+03-2.11519E+04-3.97827E+02 6.17877E-09-7.26322E-09
 -1       857-6.10777E+04-9.43090E+03-1.45608E+04 5.63135E+03 4.86398E-09-1.75000E-08
 -1       858-5.58144E+04 1.12565E+03-5.48840E+03-4.21934E+02 1.97861E-09 1.44018E-09
 -1       859-5.71173E+04-1.32417E+03-3.31200E+03 5.66723E+03-3.11024E-09-8.75275E-10
 -1       860-5.63300E+04 1.57637E+02-1.38807E+03-4.33436E+02-5.63602E-11-8.53134E-09
 -1       861-5.65242E+04-1.88083E+02-7.63614E+02 5.68289E+03 1.77869E-09-5.34214E-10
 -1       862-5.64107E+04 2.13498E+01-3.17446E+02-4.37580E+02-6.78426E-10 1.27950E-08
 -1       863-5.64254E+04-2.17618E+01-1.15685E+02 5.68530E+03-5.38456E-09-1.21200E-08
 -1       864-5.64294E+04-4.90048E+00 4.71038E+01-4.35839E+02-2.27355E-09 1.29513E-08
 -1       865-5.63696E+04 5.96833E+01 2.55065E+02 5.67536E+03-1.70533E-09 1.16888E-08
 -1       866-5.64642E+04-6.01147E+01 5.14085E+02-4.27648E+02-3.52242E-09 7.47775E-09
 -1       867-5.61278E+04 4.96442E+02 1.26541E+03 5.65313E+03-1.48617E-10 1.44314E-08
 -1       868-5.66663E+04-4.33778E+02 2.10274E+03-4.13601E+02-8.07290E-10-3.81544E-09
 -1       869-5.45862E+04 3.61016E+03 5.59891E+03 5.61653E+03 9.66918E-09-8.70455E-09
 -1       870-5.79981E+04-3.08927E+03 8.12527E+03-3.90948E+02-5.89523E-09-5.52518E-10
 -1       871-5.51704E+03-2.12852E+04-1.94747E+04 1.30311E+05-4.83305E-09 1.83627E-08
 -1       872-1.98450E+03-2.58126E+04-8.15385E+03 1.68968E+05-1.15533E-08 1.00822E-08
 -1       873 4.01915E+02-2.36234E+04 5.91036E+02 1.30024E+05-6.89715E-09 1.11003E-08
 -1       874 3.30047E+03-2.12127E+04 9.77539E+03 1.68997E+05-1.27502E-08 2.09632E-08
 -1       875 6.84013E+03-2.59521E+04 2.20512E+04 1.30263E+05-5.05679E-09 2.37414E-08
 -1       876 2.93590E+05 4.94844E+04 1.50920E+04 1.17821E+05 4.68606E-09-1.08012E-08
 -1       877 2.94587E+05 5.26631E+04 8.05970E+03 1.22151E+05 6.75959E-09 1.50129E-08
 -1       878 2.95001E+05 4.78126E+04 3.37661E+03 1.19057E+05-7.10452E-09-8.78345E-10
 -1       879 2.92536E+05 5.06158E+04 1.68244E+03 1.22253E+05 7.16227E-11 1.33363E-08
 -1       880 2.95102E+05 4.77953E+04 7.83661E+02 1.19108E+05-2.35354E-09 1.07639E-08
 -1       881 2.92399E+05 5.05282E+04 4.18508E+02 1.22229E+05-1.68476E-08 3.09069E-09
 -1       882 2.95111E+05 4.78086E+04 2.67771E+02 1.19110E+05-2.47974E-09-2.36727E-09
 -1       883 2.92390E+05 5.05237E+04 2.87922E+02 1.22222E+05 3.34330E-09 4.96576E-09
 -1       884 2.95105E+05 4.78058E+04 4.58066E+02 1.19110E+05 1.81353E-09-8.20660E-09
 -1       885 2.92426E+05 5.05300E+04 9.20997E+02 1.22233E+05-5.60496E-09-1.00761E-08
 -1       886 2.95069E+05 4.77789E+04 1.85624E+03 1.19106E+05-2.36374E-09-4.39741E-10
 -1       887 2.92752E+05 5.07439E+04 4.05471E+03 1.22280E+05 4.64877E-09 1.38881E-08
 -1       888 2.94813E+05 4.78241E+04 8.17036E+03 1.18977E+05 3.17698E-10 1.76001E-08
 -1       889 2.97616E+05 5.58023E+04 1.95175E+04 1.22131E+05-6.09645E-09 1.12277E-08
 -1       890 2.91478E+05 5.17854E+04 3.65558E+04 1.15867E+05 1.68984E-09 7.89078E-09
 -1       891-8.98425E+01-1.62685E+05-1.99539E+03 2.71486E+04-2.05432E-09 7.73275E-09
 -1       892-1.76086E+02-1.63212E+05-2.14303E+03 4.12258E+04 4.12797E-09 3.25272E-08
 -1       893 4.31424E+01-1.62749E+05-3.03422E+03 2.71560E+04-4.31510E-09 1.02050E-08
 -1       894-1.51003E+03-1.64358E+05-6.27966E+03 4.10733E+04 2.95586E-10-1.32964E-08
 -1       895-1.19913E+03-1.61441E+05-1.10584E+04 2.73029E+04 8.20251E-10-1.28321E-08
 -1       956-3.76966E+05-5.44496E+03-1.34435E+04 3.08108E+04 2.19643E-09-1.53902E-08
 -1       957-3.79604E+05-1.92003E+03-6.90033E+03 3.70271E+04-1.34241E-08-3.21770E-08
 -1       958-3.78174E+05-2.39833E+02-3.10950E+03 3.06432E+04-1.11331E-08-2.00926E-08
 -1       959-3.78371E+05-1.35072E+02-1.58776E+03 3.72224E+04-1.22554E-09 1.74136E-08
 -1       960-3.78292E+05-4.38868E+01-7.74270E+02 3.06260E+04 1.16725E-08-2.48906E-09
 -1       961-3.78290E+05-6.21142E+01-4.10512E+02 3.72428E+04 2.17599E-08-1.90150E-08
 -1       962-3.78320E+05-4.51285E+01-2.35031E+02 3.06231E+04 6.54882E-09-1.29025E-08
 -1       963-3.78291E+05-5.79359E+01-1.88679E+02 3.72465E+04 3.49723E-09-4.10864E-10
 -1       964-3.78325E+05-4.17794E+01-2.29456E+02 3.06223E+04-3.23999E-09 1.56388E-09
 -1       965-3.78303E+05-5.49741E+01-3.96872E+02 3.72458E+04-1.27848E-08 2.31889E-08
 -1       966-3.78309E+05-3.39338E+01-7.45715E+02 3.06238E+04 2.09002E-09-2.83171E-09
 -1       967-3.78392E+05-1.18462E+02-1.52945E+03 3.72315E+04-3.41424E-09 9.85733E-09
 -1       968-3.78205E+05-2.16292E+02-2.99411E+03 3.06365E+04 1.71440E-09 2.27135E-09
 -1       969-3.79592E+05-1.83225E+03-6.64684E+03 3.70833E+04 1.69757E-09-1.29013E-08
 -1       970-3.77050E+05-5.22624E+03-1.29484E+04 3.07635E+04-3.13412E-09 1.26292E-08
 -1       971-3.45197E+05-1.72677E+03-9.30819E+03 1.53736E+04 7.50151E-09-5.07761E-09
 -1       972-3.47438E+05-1.27101E+03-5.06914E+03 2.12633E+04 2.12549E-09-1.30381E-08
 -1       973-3.46234E+05-6.16443E+01-2.27052E+03 1.52525E+04 4.65297E-09-8.50150E-10
 -1       974-3.46369E+05-8.05322E+01-1.17696E+03 2.14004E+04-2.65732E-09 2.37123E-08
 -1       975-3.46316E+05-1.67764E+01-5.88778E+02 1.52401E+04-4.23870E-09 1.05111E-08
 -1       976-3.46308E+05-3.06960E+01-3.40513E+02 2.14162E+04 1.54591E-09 1.22602E-08
 -1       977-3.46333E+05-1.60304E+01-2.48626E+02 1.52367E+04-3.38309E-09-1.47145E-08
 -1       978-3.46313E+05-2.44718E+01-2.92971E+02 2.14210E+04-8.42510E-09-8.81869E-10
 -1       979-3.46332E+05-7.55610E+00-4.72454E+02 1.52353E+04-3.24036E-09 5.15354E-09
 -1       980-3.46349E+05-2.14114E+01-9.13343E+02 2.14220E+04-4.54457E-09-1.34548E-08
 -1       981-3.46303E+05 1.52730E+01-1.76951E+03 1.52358E+04 1.95666E-09 5.76722E-09
 -1       982-3.46592E+05-1.52159E+02-3.65785E+03 2.14154E+04 2.34195E-09-3.12500E-09
 -1       983-3.46080E+05-9.80343E+01-7.10740E+03 1.52419E+04-1.81490E-09-6.56246E-09
 -1       984-3.50010E+05-3.86415E+03-1.59168E+04 2.13298E+04 4.76575E-10 3.00206E-08
 -1       985-3.42862E+05-5.29879E+03-2.92282E+04 1.53133E+04-6.61703E-09-5.90626E-09
 -3
    1PSTEP                        31          16           1          
  100CL  116 6.62796E-01         409                     0   16           1
 -4  DISP        4    1
 -5  D1          1    2    1    0
 -5  D2          1    2    2    0
 -5  D3          1    2    3    0
 -5  ALL         1    2    0    0    1ALL
 -1         1 2.69200E-03 0.00000E+00 0.00000E+00
 -1         2 1.38798E-03 6.37779E-27-5.29396E-23
 -1         3 3.42003E-04-5.23353E-28 0.00000E+00
 -1         5 1.76878E-04-1.15538E-27 1.65436E-24
 -1         8 2.68056E-03-4.16559E-07 0.00000E+00
 -1         9 2.67387E-03-1.74249E-04 0.00000E+00
 -1        10 3.10105E-04-3.42526E-06-6.61744E-24
 -1        12 1.78712E-04 8.08691E-07-8.27181E-25
 -1        15 2.66736E-03-4.42159E-07-2.06795E-25
 -1        16 2.73371E-03-1.76008E-04 0.00000E+00
 -1        17 2.11058E-04-7.80412E-06 0.00000E+00
 -1        18 1.82621E-04 3.42427E-05 0.00000E+00
 -1        19 1.84213E-04 1.61100E-06 0.00000E+00
 -1        20 1.84353E-04-9.72463E-06 0.00000E+00
 -1        21 1.83461E-04-2.50898E-05 0.00000E+00
 -1        24 3.06088E-05-1.20245E-05 0.00000E+00
 -1        25 1.93340E-04 3.44683E-05 0.00000E+00
 -1        26 1.94021E-04 2.23082E-06 0.00000E+00
 -1        27 1.91822E-04-1.32813E-05 0.00000E+00
 -1        28 1.91506E-04-2.57117E-05 0.00000E+00
 -1        32 0.00000E+00 0.00000E+00 0.00000E+00
 -1        33 2.02824E-04 2.98425E-06 0.00000E+00
 -1        34 2.00707E-04-1.33373E-05 0.00000E+00
 -1        35 1.98776E-04-2.60539E-05 0.00000E+00
 -1        51 2.69124E-03-8.64740E-08 0.00000E+00
 -1        52 2.68984E-03-1.54785E-07 3.30872E-24
 -1        53 2.68793E-03-2.19725E-07 0.00000E+00
 -1        54 2.68566E-03-2.83526E-07-1.65436E-24
 -1        55 2.68316E-03-3.47941E-07-1.65436E-24
 -1        56 2.68509E-03 6.60789E-06 0.00000E+00
 -1        57 2.67226E-03 2.78847E-05-5.29396E-23
 -1        58 2.65541E-03 5.91407E-05 0.00000E+00
 -1        59 2.63674E-03 9.47190E-05 0.00000E+00
 -1        60 2.61893E-03 1.28227E-04-1.05879E-22
 -1        61 2.60450E-03 1.53439E-04 0.00000E+00
 -1        62 2.59524E-03 1.65611E-04-1.05879E-22
 -1        63 2.59231E-03 1.61158E-04 0.00000E+00
 -1        64 2.59561E-03 1.39528E-04-1.05879E-22
 -1        65 2.60446E-03 1.01769E-04-5.29396E-23
 -1        66 2.61731E-03 5.19557E-05 0.00000E+00
 -1        67 2.63234E-03-4.67762E-06 0.00000E+00
 -1        68 2.64747E-03-6.15946E-05 1.05879E-22
 -1        69 2.66061E-03-1.12224E-04 0.00000E+00
 -1        70 2.66990E-03-1.51203E-04 5.29396E-23
 -1        86 1.46877E-03-5.59677E-06 0.00000E+00
 -1        87 1.70299E-03-3.47849E-05 0.00000E+00
 -1        88 2.01788E-03-8.48123E-05 2.64698E-23
 -1        89 2.33681E-03-1.36146E-04-1.32349E-23
 -1        90 2.58082E-03-1.67562E-04-5.29396E-23
 -1       121 3.41107E-04-5.53201E-07 1.32349E-23
 -1       122 3.38423E-04-1.10948E-06 6.61744E-24
 -1       123 3.33961E-04-1.67187E-06 1.32349E-23
 -1       124 3.27738E-04-2.24339E-06 0.00000E+00
 -1       125 3.19775E-04-2.82669E-06 0.00000E+00
 -1       191 1.76929E-04 1.34845E-07-1.65436E-24
 -1       192 1.77082E-04 2.69678E-07 0.00000E+00
 -1       193 1.77336E-04 4.04492E-07 2.48154E-24
 -1       194 1.77693E-04 5.39274E-07 8.27181E-25
 -1       195 1.78151E-04 6.74011E-07-8.27181E-25
 -1       251 2.68024E-03 1.93671E-06 6.61744E-24
 -1       252 2.67992E-03 4.50483E-06 3.30872E-24
 -1       253 2.67960E-03 6.25564E-06 0.00000E+00
 -1       254 2.67927E-03 6.16759E-06 0.00000E+00
 -1       255 2.67895E-03 3.51226E-06 0.00000E+00
 -1       256 2.67861E-03-2.40495E-06 6.61744E-24
 -1       257 2.67824E-03-1.17591E-05-1.32349E-23
 -1       258 2.67784E-03-2.46800E-05 0.00000E+00
 -1       259 2.67740E-03-4.07299E-05-1.32349E-23
 -1       260 2.67691E-03-5.94293E-05 6.61744E-24
 -1       261 2.67638E-03-7.98768E-05 0.00000E+00
 -1       262 2.67584E-03-1.01149E-04-6.61744E-24
 -1       263 2.67531E-03-1.22189E-04 1.32349E-23
 -1       264 2.67479E-03-1.41946E-04-6.61744E-24
 -1       265 2.67432E-03-1.59573E-04 0.00000E+00
 -1       266 2.67836E-03-4.26657E-07 0.00000E+00
 -1       267 2.67616E-03-4.30213E-07 8.27181E-25
 -1       268 2.67396E-03-4.34183E-07 0.00000E+00
 -1       269 2.67176E-03-4.36926E-07 0.00000E+00
 -1       270 2.66956E-03-4.39640E-07-2.06795E-25
 -1       271 2.67959E-03 3.26859E-07-1.32349E-23
 -1       272 2.67948E-03-1.30141E-06 6.61744E-24
 -1       273 2.68021E-03-5.17178E-06 2.64698E-23
 -1       274 2.68172E-03-1.11442E-05 0.00000E+00
 -1       275 2.68394E-03-1.90586E-05-2.64698E-23
 -1       276 2.68680E-03-2.87407E-05-1.32349E-23
 -1       277 2.69024E-03-4.00007E-05-2.64698E-23
 -1       278 2.69418E-03-5.26360E-05 1.32349E-23
 -1       279 2.69854E-03-6.64328E-05 0.00000E+00
 -1       280 2.70323E-03-8.11675E-05 0.00000E+00
 -1       281 2.70818E-03-9.66084E-05 0.00000E+00
 -1       282 2.71329E-03-1.12519E-04-1.32349E-23
 -1       283 2.71849E-03-1.28657E-04 0.00000E+00
 -1       284 2.72368E-03-1.44780E-04 0.00000E+00
 -1       285 2.72878E-03-1.60644E-04 0.00000E+00
 -1       301 2.68481E-03-1.74575E-04 0.00000E+00
 -1       302 2.69407E-03-1.74856E-04 6.61744E-24
 -1       303 2.70261E-03-1.75127E-04 0.00000E+00
 -1       304 2.71141E-03-1.75400E-04 0.00000E+00
 -1       305 2.72146E-03-1.75686E-04 0.00000E+00
 -1       306 2.71150E-03-3.27590E-04 1.05879E-22
 -1       307 2.77543E-03-7.39882E-04-5.29396E-23
 -1       308 2.82246E-03-1.34337E-03 0.00000E+00
 -1       309 2.84671E-03-2.04251E-03-5.29396E-23
 -1       310 2.87819E-03-2.71193E-03 1.05879E-22
 -1       311 2.93763E-03-3.22889E-03 0.00000E+00
 -1       312 2.99568E-03-3.51282E-03-1.05879E-22
 -1       313 2.99200E-03-3.52553E-03 0.00000E+00
 -1       314 2.85312E-03-3.27866E-03 0.00000E+00
 -1       315 2.53809E-03-2.83609E-03-5.29396E-23
 -1       316 2.06486E-03-2.27421E-03 0.00000E+00
 -1       317 1.49872E-03-1.66233E-03-5.29396E-23
 -1       318 9.53373E-04-1.06133E-03-1.05879E-22
 -1       319 5.36336E-04-5.36258E-04-5.29396E-23
 -1       320 2.91365E-04-1.61013E-04 0.00000E+00
 -1       336 2.98539E-04-4.08691E-06 0.00000E+00
 -1       337 2.84904E-04-4.77416E-06 6.61744E-24
 -1       338 2.69259E-04-5.48917E-06-1.32349E-23
 -1       339 2.51680E-04-6.23275E-06 6.61744E-24
 -1       340 2.32249E-04-7.00934E-06 0.00000E+00
 -1       406 1.79374E-04 9.43295E-07-8.27181E-25
 -1       407 1.80138E-04 1.07779E-06 1.24077E-24
 -1       408 1.81004E-04 1.21211E-06-8.27181E-25
 -1       409 1.81972E-04 1.34610E-06-6.20385E-25
 -1       410 1.83042E-04 1.47948E-06-2.48154E-24
 -1       521 2.77199E-03-3.38687E-04 0.00000E+00
 -1       522 2.83418E-03-7.71057E-04 5.29396E-23
 -1       523 2.87490E-03-1.40199E-03 1.05879E-22
 -1       524 2.89011E-03-2.12926E-03 0.00000E+00
 -1       525 2.91384E-03-2.82481E-03-1.05879E-22
 -1       526 2.96976E-03-3.36342E-03-5.29396E-23
 -1       527 3.02738E-03-3.65780E-03 0.00000E+00
 -1       528 3.02145E-03-3.66880E-03-1.05879E-22
 -1       529 2.87085E-03-3.40805E-03 0.00000E+00
 -1       530 2.53239E-03-2.94721E-03-5.29396E-23
 -1       531 2.02479E-03-2.36636E-03 1.05879E-22
 -1       532 1.41968E-03-1.73745E-03 0.00000E+00
 -1       533 8.35961E-04-1.11875E-03 1.05879E-22
 -1       534 3.86192E-04-5.73077E-04 0.00000E+00
 -1       535 1.20319E-04-1.78538E-04 0.00000E+00
 -1       536 2.10306E-04 2.70354E-05 6.61744E-24
 -1       537 2.08396E-04 8.73327E-05 0.00000E+00
 -1       538 2.05445E-04 1.63842E-04 0.00000E+00
 -1       539 2.01965E-04 2.47233E-04 0.00000E+00
 -1       540 1.98834E-04 3.26031E-04-3.30872E-24
 -1       541 1.96798E-04 3.88784E-04 0.00000E+00
 -1       542 1.95858E-04 4.28752E-04-3.30872E-24
 -1       543 1.95633E-04 4.39345E-04 0.00000E+00
 -1       544 1.95312E-04 4.21336E-04 0.00000E+00
 -1       545 1.94144E-04 3.75717E-04 0.00000E+00
 -1       546 1.91968E-04 3.10598E-04 0.00000E+00
 -1       547 1.89023E-04 2.34210E-04-1.65436E-24
 -1       548 1.86105E-04 1.58199E-04 0.00000E+00
 -1       549 1.84000E-04 9.42128E-05 0.00000E+00
 -1       550 1.82907E-04 5.02653E-05-1.65436E-24
 -1       551 1.85914E-04-8.37336E-06 0.00000E+00
 -1       552 1.57530E-04-9.02270E-06 0.00000E+00
 -1       553 1.26848E-04-9.73402E-06-9.92617E-24
 -1       554 9.48283E-05-1.04863E-05 0.00000E+00
 -1       555 6.24303E-05-1.12521E-05-1.32349E-23
 -1       556 2.03429E-04 1.17022E-05 0.00000E+00
 -1       557 1.97266E-04 2.75211E-05 0.00000E+00
 -1       558 1.92435E-04 3.99398E-05 0.00000E+00
 -1       559 1.88803E-04 4.92683E-05 0.00000E+00
 -1       560 1.86240E-04 5.58169E-05 0.00000E+00
 -1       561 1.84619E-04 5.98983E-05 0.00000E+00
 -1       562 1.83814E-04 6.18266E-05 0.00000E+00
 -1       563 1.83702E-04 6.19167E-05-1.32349E-23
 -1       564 1.84161E-04 6.04847E-05 0.00000E+00
 -1       565 1.85071E-04 5.78468E-05 6.61744E-24
 -1       566 1.86311E-04 5.43203E-05 0.00000E+00
 -1       567 1.87764E-04 5.02227E-05 0.00000E+00
 -1       568 1.89311E-04 4.58714E-05 0.00000E+00
 -1       569 1.90834E-04 4.15843E-05 8.27181E-25
 -1       570 1.92216E-04 3.76789E-05 0.00000E+00
 -1       571 1.82718E-04 3.21256E-05-2.48154E-24
 -1       572 1.82816E-04 2.99428E-05 1.65436E-24
 -1       573 1.82915E-04 2.77100E-05-3.30872E-24
 -1       574 1.83014E-04 2.54436E-05-8.27181E-25
 -1       575 1.83114E-04 2.31599E-05 0.00000E+00
 -1       576 1.83213E-04 2.08755E-05 0.00000E+00
 -1       577 1.83313E-04 1.86067E-05 3.30872E-24
 -1       578 1.83412E-04 1.63702E-05 0.00000E+00
 -1       579 1.83512E-04 1.41823E-05 0.00000E+00
 -1       580 1.83612E-04 1.20596E-05 0.00000E+00
 -1       581 1.83712E-04 1.00186E-05 0.00000E+00
 -1       582 1.83812E-04 8.07570E-06-3.30872E-24
 -1       583 1.83912E-04 6.24740E-06 0.00000E+00
 -1       584 1.84012E-04 4.54999E-06 0.00000E+00
 -1       585 1.84113E-04 2.99960E-06-6.61744E-24
 -1       586 1.84366E-04 3.42824E-05 1.65436E-24
 -1       587 1.86071E-04 3.43216E-05-8.27181E-25
 -1       588 1.87777E-04 3.43604E-05 0.00000E+00
 -1       589 1.89529E-04 3.43985E-05 0.00000E+00
 -1       590 1.91369E-04 3.44353E-05 0.00000E+00
 -1       591 1.83346E-04 3.22190E-05 0.00000E+00
 -1       592 1.84075E-04 3.01755E-05-2.06795E-25
 -1       593 1.84808E-04 2.81178E-05 0.00000E+00
 -1       594 1.85545E-04 2.60508E-05-4.13590E-25
 -1       595 1.86283E-04 2.39791E-05 8.27181E-25
 -1       596 1.87021E-04 2.19076E-05 0.00000E+00
 -1       597 1.87757E-04 1.98409E-05 0.00000E+00
 -1       598 1.88490E-04 1.77836E-05 0.00000E+00
 -1       599 1.89217E-04 1.57405E-05 0.00000E+00
 -1       600 1.89938E-04 1.37163E-05 0.00000E+00
 -1       601 1.90649E-04 1.17156E-05 0.00000E+00
 -1       602 1.91350E-04 9.74309E-06 0.00000E+00
 -1       603 1.92039E-04 7.80353E-06-4.13590E-25
 -1       604 1.92715E-04 5.90170E-06 1.80946E-25
 -1       605 1.93375E-04 4.04217E-06 4.13590E-25
 -1       606 1.84226E-04 4.55484E-07 3.30872E-24
 -1       607 1.84236E-04-6.14124E-07 0.00000E+00
 -1       608 1.84245E-04-1.60287E-06 0.00000E+00
 -1       609 1.84253E-04-2.51643E-06 0.00000E+00
 -1       610 1.84262E-04-3.36056E-06 0.00000E+00
 -1       611 1.84270E-04-4.14104E-06 0.00000E+00
 -1       612 1.84278E-04-4.86369E-06 0.00000E+00
 -1       613 1.84287E-04-5.53433E-06 0.00000E+00
 -1       614 1.84295E-04-6.15876E-06 0.00000E+00
 -1       615 1.84304E-04-6.74281E-06 0.00000E+00
 -1       616 1.84312E-04-7.29228E-06-1.65436E-24
 -1       617 1.84320E-04-7.81301E-06 0.00000E+00
 -1       618 1.84329E-04-8.31078E-06 0.00000E+00
 -1       619 1.84337E-04-8.79144E-06 0.00000E+00
 -1       620 1.84345E-04-9.26078E-06 0.00000E+00
 -1       621 1.85563E-04 1.71487E-06-1.65436E-24
 -1       622 1.87071E-04 1.81898E-06 8.27181E-25
 -1       623 1.88704E-04 1.92288E-06 0.00000E+00
 -1       624 1.90429E-04 2.02646E-06 1.65436E-24
 -1       625 1.92213E-04 2.12974E-06-1.65436E-24
 -1       626 1.84758E-04 4.91577E-07 0.00000E+00
 -1       627 1.85281E-04-5.64715E-07-3.30872E-24
 -1       628 1.85783E-04-1.56573E-06 0.00000E+00
 -1       629 1.86268E-04-2.51965E-06 0.00000E+00
 -1       630 1.86738E-04-3.43465E-06 0.00000E+00
 -1       631 1.87196E-04-4.31897E-06 0.00000E+00
 -1       632 1.87647E-04-5.18079E-06 0.00000E+00
 -1       633 1.88092E-04-6.02835E-06 1.65436E-24
 -1       634 1.88534E-04-6.86986E-06 3.30872E-24
 -1       635 1.88978E-04-7.71352E-06 0.00000E+00
 -1       636 1.89425E-04-8.56756E-06 0.00000E+00
 -1       637 1.89879E-04-9.44019E-06 0.00000E+00
 -1       638 1.90343E-04-1.03396E-05 0.00000E+00
 -1       639 1.90820E-04-1.12741E-05 0.00000E+00
 -1       640 1.91313E-04-1.22519E-05 3.30872E-24
 -1       656 1.85050E-04-1.03027E-05 0.00000E+00
 -1       657 1.86166E-04-1.09043E-05 0.00000E+00
 -1       658 1.87563E-04-1.15045E-05 0.00000E+00
 -1       659 1.89094E-04-1.21043E-05 0.00000E+00
 -1       660 1.90575E-04-1.27060E-05 0.00000E+00
 -1       661 1.84614E-04-1.02335E-05 0.00000E+00
 -1       662 1.84912E-04-1.08342E-05-8.27181E-25
 -1       663 1.85243E-04-1.15215E-05 0.00000E+00
 -1       664 1.85604E-04-1.22889E-05 0.00000E+00
 -1       665 1.85993E-04-1.31305E-05 0.00000E+00
 -1       666 1.86407E-04-1.40404E-05 0.00000E+00
 -1       667 1.86845E-04-1.50131E-05 0.00000E+00
 -1       668 1.87305E-04-1.60428E-05-8.27181E-25
 -1       669 1.87784E-04-1.71243E-05 1.65436E-24
 -1       670 1.88280E-04-1.82522E-05-8.27181E-25
 -1       671 1.88791E-04-1.94213E-05 0.00000E+00
 -1       672 1.89316E-04-2.06265E-05 8.27181E-25
 -1       673 1.89852E-04-2.18629E-05 0.00000E+00
 -1       674 1.90397E-04-2.31257E-05 0.00000E+00
 -1       675 1.90951E-04-2.44096E-05-2.06795E-25
 -1       676 1.84807E-04-2.51941E-05 0.00000E+00
 -1       677 1.86151E-04-2.52983E-05 1.65436E-24
 -1       678 1.87494E-04-2.54024E-05 0.00000E+00
 -1       679 1.88835E-04-2.55062E-05 1.65436E-24
 -1       680 1.90172E-04-2.56101E-05 1.65436E-24
 -1       771 1.86851E-05 1.46347E-05 0.00000E+00
 -1       772 8.65286E-06 3.65307E-05-5.29396E-23
 -1       773 4.21482E-07 5.38932E-05 0.00000E+00
 -1       774-6.13295E-06 6.69794E-05-2.64698E-23
 -1       775-1.11317E-05 7.60571E-05-5.29396E-23
 -1       776-1.47010E-05 8.14106E-05 0.00000E+00
 -1       777-1.69667E-05 8.33343E-05-5.29396E-23
 -1       778-1.80575E-05 8.21366E-05-2.64698E-23
 -1       779-1.81012E-05 7.81340E-05 0.00000E+00
 -1       780-1.72278E-05 7.16548E-05 2.64698E-23
 -1       781-1.55662E-05 6.30338E-05 0.00000E+00
 -1       782-1.32472E-05 5.26146E-05 2.64698E-23
 -1       783-1.04004E-05 4.07457E-05 0.00000E+00
 -1       784-7.15660E-06 2.77816E-05-7.94093E-23
 -1       785-3.64591E-06 1.40797E-05-5.29396E-23
 -1       786 1.93378E-04 3.22258E-05 0.00000E+00
 -1       787 1.93420E-04 3.00334E-05 4.13590E-25
 -1       788 1.93462E-04 2.78827E-05 8.27181E-25
 -1       789 1.93504E-04 2.57656E-05 8.27181E-25
 -1       790 1.93547E-04 2.36774E-05 1.65436E-24
 -1       791 1.93590E-04 2.16132E-05 8.27181E-25
 -1       792 1.93633E-04 1.95710E-05-1.65436E-24
 -1       793 1.93675E-04 1.75484E-05 0.00000E+00
 -1       794 1.93718E-04 1.55453E-05 0.00000E+00
 -1       795 1.93761E-04 1.35616E-05-8.27181E-25
 -1       796 1.93804E-04 1.15991E-05-1.65436E-24
 -1       797 1.93847E-04 9.65965E-06-8.27181E-25
 -1       798 1.93891E-04 7.74749E-06-1.65436E-24
 -1       799 1.93934E-04 5.86695E-06-8.27181E-25
 -1       800 1.93977E-04 4.02552E-06 0.00000E+00
 -1       801 1.47692E-04 3.09838E-05 0.00000E+00
 -1       802 9.66560E-06 1.93344E-05 2.64698E-23
 -1       803-1.08266E-04 9.76768E-06 0.00000E+00
 -1       804-9.60301E-05 6.79708E-06 0.00000E+00
 -1       805-3.17336E-05 2.67408E-06 5.29396E-23
 -1       806 1.94066E-04 3.21570E-05-1.65436E-24
 -1       807 1.94778E-04 2.98721E-05 0.00000E+00
 -1       808 1.95477E-04 2.76185E-05 0.00000E+00
 -1       809 1.96163E-04 2.54003E-05-1.65436E-24
 -1       810 1.96833E-04 2.32217E-05 0.00000E+00
 -1       811 1.97488E-04 2.10866E-05 0.00000E+00
 -1       812 1.98125E-04 1.89988E-05-3.30872E-24
 -1       813 1.98742E-04 1.69623E-05 0.00000E+00
 -1       814 1.99339E-04 1.49810E-05-3.30872E-24
 -1       815 1.99914E-04 1.30588E-05 0.00000E+00
 -1       816 2.00466E-04 1.11996E-05-1.65436E-24
 -1       817 2.00993E-04 9.40734E-06 0.00000E+00
 -1       818 2.01493E-04 7.68580E-06-1.65436E-24
 -1       819 2.01966E-04 6.03890E-06-8.27181E-25
 -1       820 2.02409E-04 4.47046E-06-1.65436E-24
 -1       821 1.93892E-04-1.16288E-07 1.65436E-24
 -1       822 1.93752E-04-3.60951E-06-1.65436E-24
 -1       823 1.93610E-04-7.82322E-06 3.30872E-24
 -1       824 1.93465E-04-1.23273E-05 0.00000E+00
 -1       825 1.93321E-04-1.66131E-05 0.00000E+00
 -1       826 1.93179E-04-2.01734E-05 0.00000E+00
 -1       827 1.93040E-04-2.26982E-05 0.00000E+00
 -1       828 1.92904E-04-2.38843E-05 0.00000E+00
 -1       829 1.92768E-04-2.37925E-05-3.30872E-24
 -1       830 1.92632E-04-2.24915E-05 1.65436E-24
 -1       831 1.92494E-04-2.03789E-05 3.30872E-24
 -1       832 1.92356E-04-1.78575E-05 1.65436E-24
 -1       833 1.92218E-04-1.54414E-05 0.00000E+00
 -1       834 1.92083E-04-1.36440E-05 0.00000E+00
 -1       835 1.91949E-04-1.28107E-05 8.27181E-25
 -1       836 1.95701E-04 2.35576E-06 0.00000E+00
 -1       837 1.97253E-04 2.48385E-06 0.00000E+00
 -1       838 1.98710E-04 2.61187E-06-3.30872E-24
 -1       839 2.00103E-04 2.73920E-06-8.27181E-25
 -1       840 2.01464E-04 2.86636E-06 0.00000E+00
 -1       856 1.91806E-04-1.43331E-05 8.27181E-25
 -1       857 1.91787E-04-1.52492E-05 0.00000E+00
 -1       858 1.91767E-04-1.60507E-05-2.06795E-25
 -1       859 1.91748E-04-1.67588E-05 0.00000E+00
 -1       860 1.91728E-04-1.73946E-05-4.13590E-25
 -1       861 1.91708E-04-1.79795E-05 0.00000E+00
 -1       862 1.91688E-04-1.85347E-05 0.00000E+00
 -1       863 1.91669E-04-1.90815E-05 4.13590E-25
 -1       864 1.91649E-04-1.96414E-05 0.00000E+00
 -1       865 1.91629E-04-2.02357E-05-4.13590E-25
 -1       866 1.91609E-04-2.08856E-05-8.27181E-25
 -1       867 1.91589E-04-2.16124E-05 0.00000E+00
 -1       868 1.91569E-04-2.24373E-05-8.27181E-25
 -1       869 1.91548E-04-2.33815E-05 4.13590E-25
 -1       870 1.91528E-04-2.44659E-05 8.27181E-25
 -1       871 1.93162E-04-1.32862E-05 0.00000E+00
 -1       872 1.94648E-04-1.32945E-05 0.00000E+00
 -1       873 1.96214E-04-1.33035E-05 0.00000E+00
 -1       874 1.97792E-04-1.33132E-05-2.84343E-25
 -1       875 1.99312E-04-1.33236E-05 0.00000E+00
 -1       876 1.92344E-04-1.43186E-05 3.30872E-24
 -1       877 1.92843E-04-1.52890E-05 0.00000E+00
 -1       878 1.93321E-04-1.62007E-05 0.00000E+00
 -1       879 1.93779E-04-1.70609E-05 0.00000E+00
 -1       880 1.94222E-04-1.78771E-05 3.30872E-24
 -1       881 1.94650E-04-1.86566E-05 0.00000E+00
 -1       882 1.95068E-04-1.94068E-05-3.30872E-24
 -1       883 1.95477E-04-2.01351E-05 1.65436E-24
 -1       884 1.95881E-04-2.08487E-05 0.00000E+00
 -1       885 1.96283E-04-2.15551E-05 0.00000E+00
 -1       886 1.96684E-04-2.22615E-05-3.30872E-24
 -1       887 1.97088E-04-2.29752E-05 0.00000E+00
 -1       888 1.97497E-04-2.37037E-05 0.00000E+00
 -1       889 1.97914E-04-2.44545E-05-1.65436E-24
 -1       890 1.98341E-04-2.52348E-05 0.00000E+00
 -1       891 1.92860E-04-2.57692E-05 1.65436E-24
 -1       892 1.94190E-04-2.58268E-05 0.00000E+00
 -1       893 1.95472E-04-2.58844E-05-8.27181E-25
 -1       894 1.96680E-04-2.59417E-05 4.13590E-25
 -1       895 1.97790E-04-2.59987E-05-4.13590E-25
 -1       956 2.02694E-04 1.67255E-06-3.30872E-24
 -1       957 2.02562E-04 4.52314E-07 1.65436E-24
 -1       958 2.02429E-04-6.87178E-07 3.30872E-24
 -1       959 2.02296E-04-1.75725E-06 0.00000E+00
 -1       960 2.02164E-04-2.76929E-06 0.00000E+00
 -1       961 2.02031E-04-3.73469E-06 0.00000E+00
 -1       962 2.01898E-04-4.66487E-06-3.30872E-24
 -1       963 2.01765E-04-5.57127E-06 1.65436E-24
 -1       964 2.01633E-04-6.46533E-06-3.30872E-24
 -1       965 2.01500E-04-7.35846E-06 1.65436E-24
 -1       966 2.01367E-04-8.26212E-06 3.30872E-24
 -1       967 2.01235E-04-9.18774E-06-1.65436E-24
 -1       968 2.01102E-04-1.01467E-05 6.61744E-24
 -1       969 2.00970E-04-1.11505E-05 3.30872E-24
 -1       970 2.00837E-04-1.22104E-05 3.30872E-24
 -1       971 2.00587E-04-1.44638E-05 3.30872E-24
 -1       972 2.00466E-04-1.54956E-05 1.65436E-24
 -1       973 2.00345E-04-1.64434E-05 3.30872E-24
 -1       974 2.00223E-04-1.73178E-05 0.00000E+00
 -1       975 2.00102E-04-1.81298E-05 0.00000E+00
 -1       976 1.99981E-04-1.88901E-05 1.65436E-24
 -1       977 1.99859E-04-1.96098E-05 0.00000E+00
 -1       978 1.99738E-04-2.02997E-05 1.65436E-24
 -1       979 1.99617E-04-2.09706E-05 0.00000E+00
 -1       980 1.99495E-04-2.16336E-05-1.65436E-24
 -1       981 1.99374E-04-2.22995E-05 3.30872E-24
 -1       982 1.99253E-04-2.29792E-05 0.00000E+00
 -1       983 1.99132E-04-2.36836E-05-3.30872E-24
 -1       984 1.99011E-04-2.44237E-05 1.65436E-24
 -1       985 1.98891E-04-2.52103E-05 3.30872E-24
 -3
    1PSTEP                        32          16           1          
  100CL  116 6.62796E-01         409                     0   16           1
 -4  STRESS      6    1
 -5  SXX         1    4    1    1
 -5  SYY         1    4    2    2
 -5  SZZ         1    4    3    3
 -5  SXY         1    4    1    2
 -5  SYZ         1    4    2    3
 -5  SZX         1    4    3    1
 -1         1-5.29606E+06-1.64926E+06-1.13012E+06-1.43574E+06-1.06229E-09-1.08965E-07
 -1         2 1.30441E+06 1.92084E+07 4.54330E+06 5.77128E+06 2.63972E-08 2.08427E-07
 -1         3-1.48258E+03-1.57081E+06 4.07965E+02-2.22533E+03-3.23116E-10 3.24508E-09
 -1         5-7.42363E+01 3.86136E+05 9.97527E+00-1.33140E+00-3.46778E-10 2.87037E-09
 -1         8-5.87406E+05-2.07846E+05-6.68650E+04-2.52779E+05-1.10049E-10 8.68167E-08
 -1         9 1.15349E+07 3.35263E+06 2.66728E+06-4.57184E+05 4.65661E-11-1.72993E-08
 -1        10-2.30432E+03-1.63692E+06-3.96874E+03-1.50554E+04-1.40826E-08-3.10151E-08
 -1        12-7.03179E+01 3.86158E+05 3.27846E+02-9.07907E+00-7.54962E-10 2.60698E-08
 -1        15 9.66194E+02 5.30971E+02 3.12320E+03 9.18743E-01-3.28257E-10-1.07533E-07
 -1        16 2.26918E+07-3.05162E+05 3.10062E+06-2.21528E+06 2.11488E-08 4.23752E-08
 -1        17 8.29955E+06 6.21493E+06 2.24268E+06 5.95372E+06 2.37196E-08 2.73692E-08
 -1        18 1.41483E+05 3.32812E+04 3.97017E+03-1.19380E+05 1.53791E-08 2.43745E-10
 -1        19 1.22341E+05 1.41584E+05-9.43637E+02 2.19643E+04 1.58343E-09-6.73863E-09
 -1        20-8.18385E+04-5.73379E+05-1.28656E+05 2.51438E+04-1.19492E-09 1.55348E-08
 -1        21-4.55870E+01-2.95937E+05-9.23823E+02 2.73089E+02 1.59448E-08-4.45778E-08
 -1        24 1.38574E+07 1.19389E+07 3.84082E+06 1.10585E+07-1.73944E-07-5.43466E-08
 -1        25 1.23370E+05 2.61535E+05 9.85238E+04-6.42182E+05-1.18062E-09 1.48355E-08
 -1        26-5.53713E+04 9.22246E+04-2.46226E+04 1.27258E+03-5.96629E-11 1.81828E-08
 -1        27-7.55781E+04-3.09786E+05-1.13257E+05 6.89407E+04 4.34693E-09-1.30785E-09
 -1        28 2.22383E+04-8.53173E+04 1.68933E+04 2.06208E+04-3.32074E-09 3.54825E-09
 -1        32-1.67957E+06-3.17503E+06-1.96427E+05 4.50789E+05-4.22151E-08-1.17820E-08
 -1        33-1.78395E+05 9.29431E+04 3.23703E+04-3.84774E+04-3.45085E-09 8.90638E-09
 -1        34-2.23506E+05-2.50111E+04 6.89138E+02 7.56071E+04-4.42068E-09-5.45591E-09
 -1        35-2.29262E+04-3.38350E+04-1.34793E+03 5.14843E+04-4.48981E-09-9.15922E-09
 -1        51 5.99021E+04-1.76503E+05 1.26872E+05-4.57769E+05 1.16415E-10 1.58252E-07
 -1        52 2.03694E+04-1.54460E+05 6.66977E+04-5.33862E+05 4.22006E-10 1.65091E-07
 -1        53 4.26283E+03-1.69855E+05 3.49376E+04-4.56180E+05 2.67391E-10-1.42914E-07
 -1        54 7.72869E+03-1.65666E+05 2.91194E+04-5.35432E+05 5.82077E-11-2.53562E-07
 -1        55 1.67995E+04-1.72911E+05 3.59029E+04-4.56066E+05 2.91038E-10 4.07921E-07
 -1        56-9.68034E+06-1.28657E+06-8.82705E+05-3.98503E+06-1.70548E-08-6.51344E-08
 -1        57-1.08265E+07-1.01579E+06-5.53052E+05-2.87402E+06 3.47209E-08-3.64817E-08
 -1        58-9.58967E+06-1.71148E+06-1.98489E+05-4.12474E+06-3.22398E-08 3.01443E-08
 -1        59-1.08832E+07-5.41497E+05-1.11294E+05-2.82000E+06-4.86020E-08-2.81116E-07
 -1        60-9.66947E+06-1.71824E+06-5.33515E+04-4.08069E+06-2.62298E-09 1.24277E-07
 -1        61-1.04033E+07-7.94847E+05 5.94491E+02-3.04711E+06-4.53110E-08 8.43138E-08
 -1        62-9.98251E+06-1.51640E+06-5.27029E+04-3.83032E+06-7.54517E-09-9.19244E-08
 -1        63-9.73107E+06-1.34733E+06 3.04419E+04-3.61454E+06 3.13667E-08 1.31575E-07
 -1        64-1.02753E+07-1.21275E+06-4.83282E+04-3.47018E+06 1.98124E-08 2.16569E-07
 -1        65-9.39298E+06-1.83235E+06-5.58187E+02-4.30430E+06-1.81608E-08 2.45026E-07
 -1        66-1.03998E+07-9.76470E+05-4.47835E+04-3.19981E+06-1.59271E-08 7.74126E-08
 -1        67-9.36558E+06-2.05435E+06-9.99335E+04-4.62636E+06-3.56995E-08-1.14960E-09
 -1        68-1.03813E+07-9.36511E+05-1.81658E+05-3.19837E+06-2.57851E-08 4.45289E-09
 -1        69-9.58111E+06-2.17291E+06-4.92275E+05-4.27460E+06-6.15801E-08-1.47222E-07
 -1        70-1.01148E+07-9.17524E+05-8.02752E+05-3.50274E+06 5.39731E-08-9.66247E-09
 -1        86-1.32991E+06-1.42585E+07-2.48387E+06-2.71912E+06-2.54342E-07-8.58563E-09
 -1        87 2.05953E+06 5.36423E+06 2.06768E+06 5.17018E+06-4.22551E-07-5.53300E-08
 -1        88-3.72325E+05-2.10368E+06 1.92080E+05-2.38440E+06-4.01751E-07-1.55982E-07
 -1        89 2.76419E+06 5.11438E+06 2.11684E+06 5.33363E+06-5.58270E-07-2.57442E-07
 -1        90-1.95636E+06-1.40734E+07-2.68481E+06-2.90519E+06-1.44199E-07 8.90723E-08
 -1       121-2.03148E+03-1.57570E+06-5.41168E+02 1.10308E+03 1.47594E-09-3.81260E-09
 -1       122-1.29555E+03-1.57088E+06 7.74759E+02-4.45441E+03-5.38323E-09 1.76369E-08
 -1       123-2.05167E+03-1.57584E+06 2.73775E+02 3.29428E+03 4.23859E-09 1.60944E-08
 -1       124 3.53152E+02-1.57042E+06 2.97303E+03-9.31652E+03-1.02450E-08-8.84756E-09
 -1       125-2.86755E+03-1.57674E+06 3.50061E+03 5.91959E+03 6.82303E-09-7.82529E-09
 -1       191-7.82356E+01 3.86155E+05 8.53128E+00 6.93867E-01-5.30280E-10 2.70484E-09
 -1       192-7.51987E+01 3.86137E+05 2.12846E+01-4.27215E+00-7.60195E-10-2.90929E-08
 -1       193-8.07693E+01 3.86154E+05 3.62843E+01 3.75079E+00-1.08925E-09-1.68893E-08
 -1       194-7.82845E+01 3.86140E+05 8.09087E+01-9.69518E+00-6.13327E-10-2.96723E-08
 -1       195-8.56324E+01 3.86152E+05 1.54949E+02 6.30658E+00-1.48436E-09 1.33696E-09
 -1       251-9.12082E+05 1.72811E+04-4.04359E+04-1.49893E+04-1.95604E-09 1.45094E-07
 -1       252-9.28145E+05-1.99585E+04-2.82553E+04 5.15407E+04 5.23434E-09 2.14266E-07
 -1       253-9.20383E+05 2.68097E+03-1.07449E+04-1.17744E+04-2.00748E-09 1.03714E-08
 -1       254-9.14752E+05-3.16806E+03-5.18956E+03 3.82298E+04 9.16225E-09-6.39520E-08
 -1       255-9.24913E+05 1.24700E+02-3.60207E+03-1.68035E+03-3.16072E-09 1.00427E-07
 -1       256-9.08738E+05-3.22891E+02 9.55429E+02 1.46025E+04 2.15107E-09 1.54093E-07
 -1       257-9.25908E+05-5.27175E+02-1.42312E+03 1.18432E+04-1.40994E-09 2.12832E-07
 -1       258-9.10854E+05 8.22085E+02 2.66480E+03-1.11805E+04-1.18207E-08 5.10770E-08
 -1       259-9.22983E+05-8.75082E+02 1.30082E+03 2.40988E+04 3.89355E-09-6.76255E-09
 -1       260-9.17081E+05 2.80153E+03 5.51391E+03-3.02192E+04-2.44495E-09-1.50241E-07
 -1       261-9.20303E+05-2.02504E+03 8.50308E+03 3.08959E+04 1.38541E-08-2.19945E-07
 -1       262-9.15971E+05 1.15099E+04 2.11517E+04-3.60487E+04-3.68363E-09 3.34136E-07
 -1       263-9.24359E+05-9.34403E+03 3.35152E+04 2.99375E+04-7.26374E-09 3.54103E-08
 -1       264-8.85992E+05 6.58692E+04 9.27793E+04-2.65920E+04 3.07020E-08-1.18147E-07
 -1       265-9.49793E+05-5.65150E+04 1.29195E+05 2.14281E+04 5.78780E-09 2.05517E-07
 -1       266-1.74916E+04-8.17984E+03 4.10365E+04-1.96568E+01-1.67347E-10-2.99143E-08
 -1       267 2.02773E+04 9.53256E+03 2.90059E+04 2.26818E+01 1.47793E-10-8.80990E-08
 -1       268-2.71916E+03-1.35014E+03 1.07812E+04-2.88996E+00-3.18323E-11-1.66697E-08
 -1       269 3.21051E+03 1.61576E+03 7.00773E+03 3.36648E+00 2.27374E-11-7.26016E-08
 -1       270-4.81902E+02-2.65485E+02 3.38273E+03-4.56850E-01-7.51470E-11-1.87379E-08
 -1       271-1.54595E+06-1.94861E+05-1.16075E+05-6.00064E+05-8.74934E-10 2.76123E-08
 -1       272-1.55405E+06-3.03608E+05-7.33446E+04-6.28530E+05-2.32321E-08-1.11562E-07
 -1       273-1.57013E+06-2.20298E+05-2.79871E+04-5.92106E+05-4.39104E-09 2.68834E-07
 -1       274-1.52590E+06-2.73178E+05-1.48108E+04-6.43016E+05 3.25363E-08 2.84698E-07
 -1       275-1.57565E+06-2.20337E+05-6.88629E+03-5.88468E+05 4.73992E-08 4.18276E-07
 -1       276-1.51976E+06-2.73807E+05-3.04070E+03-6.50978E+05-6.00039E-08 2.12311E-07
 -1       277-1.57839E+06-2.17940E+05-1.88800E+03-5.85809E+05 4.50163E-08-1.13698E-07
 -1       278-1.51720E+06-2.76998E+05-7.90764E+02-6.56905E+05-1.58843E-08-5.06211E-08
 -1       279-1.58016E+06-2.15892E+05-9.25115E+02-5.83892E+05 8.80573E-09-3.23439E-07
 -1       280-1.51588E+06-2.79523E+05-1.11902E+03-6.60949E+05 7.83621E-09 2.43888E-07
 -1       281-1.58115E+06-2.14506E+05-2.06985E+03-5.82746E+05 9.70613E-09 6.46771E-08
 -1       282-1.51615E+06-2.82043E+05-4.80340E+03-6.62821E+05-3.57302E-08-3.31045E-07
 -1       283-1.58069E+06-2.13007E+05-8.54410E+03-5.82497E+05-3.28901E-08-6.22986E-08
 -1       284-1.52366E+06-2.93568E+05-2.32912E+04-6.60931E+05-4.99479E-08 3.07791E-08
 -1       285-1.57378E+06-2.04161E+05-3.62790E+04-5.84209E+05-1.93754E-08-2.36123E-08
 -1       301-5.99867E+03-6.48546E+05 1.69299E+05-1.12766E+06 1.65892E-09 4.03554E-07
 -1       302-3.75694E+03-6.01551E+05 1.02559E+05-1.67096E+06 5.28962E-09 2.40347E-07
 -1       303-1.87742E+04-6.40344E+05 5.81452E+04-1.12459E+06-2.81580E-09-6.64113E-09
 -1       304-2.03620E+04-6.07551E+05 5.91622E+04-1.67027E+06-1.59926E-08-8.88031E-08
 -1       305-2.45970E+04-6.28355E+05 7.27462E+04-1.12777E+06 1.26602E-09 1.19471E-07
 -1       306-3.00508E+07-6.20505E+06-8.57806E+06-5.60360E+05-4.02797E-08-1.19093E-07
 -1       307 2.53469E+07 3.21499E+06 5.50563E+06-1.51059E+07-8.57865E-07-9.88075E-08
 -1       308-7.02940E+06-1.02760E+06-4.66519E+05 5.19331E+06-1.04803E-07 2.62691E-07
 -1       309-3.30031E+06 8.68943E+06 2.26792E+06-2.06060E+07 3.59894E-07 2.84952E-07
 -1       310-1.24675E+07-1.91518E+06-2.00039E+06 5.19901E+06 7.61356E-08 1.87501E-07
 -1       311 3.80325E+07 2.19199E+04 7.21951E+06-8.88232E+06 2.75933E-07 2.50177E-07
 -1       312-3.17945E+07-6.71037E+06-8.48159E+06-4.95454E+06 5.12227E-09 3.27738E-07
 -1       313 4.53225E+07 1.47822E+07 1.06166E+07 2.35673E+07-4.13711E-07-1.00408E-08
 -1       314-1.72718E+07-1.76443E+07-7.49709E+06-1.25009E+07 5.27652E-07-1.44937E-08
 -1       315-1.72743E+06 2.95473E+07 5.65555E+06 1.06293E+07-2.20069E-07 1.67638E-07
 -1       316 1.34828E+06-9.83856E+06-4.51223E+05-2.58507E+06-1.31810E-06-2.06521E-07
 -1       317-1.71418E+07 2.23485E+07 2.22363E+06-8.70272E+06 5.73957E-07-5.92641E-07
 -1       318-1.06769E+06-1.26913E+07-2.01417E+06-4.24644E+06-8.79780E-07 1.92784E-07
 -1       319 7.10728E+06 3.17155E+07 6.98462E+06 1.64994E+07-4.12401E-08 2.28611E-07
 -1       320-2.25033E+07-1.75316E+07-9.79536E+06-1.27520E+07 1.91620E-07-7.82311E-08
 -1       336-7.22738E+02-1.70575E+06-1.39205E+04 8.96728E+03-2.68628E-08-3.79805E-09
 -1       337-5.42616E+03-1.70536E+06-1.81684E+04-2.17712E+04-4.92446E-08-2.92403E-08
 -1       338 2.98648E+02-1.70524E+06-2.85913E+04 1.25548E+04-3.47836E-08-1.47156E-08
 -1       339-3.03371E+04-1.72267E+06-6.46377E+04-2.87957E+04-6.21103E-08 8.08905E-09
 -1       340 2.00118E+04-1.69063E+06-1.01804E+05 1.58612E+04-4.08472E-08 3.80023E-08
 -1       406-4.85836E+01 3.86137E+05 6.43773E+02 3.31462E+00-1.87272E-09 2.51803E-08
 -1       407 1.55744E+02 3.86271E+05 1.37567E+03 2.32541E+01-4.57362E-10 6.45741E-10
 -1       408 6.35514E+02 3.86037E+05 2.74305E+03-2.68954E+01-2.34695E-09-3.65617E-09
 -1       409 2.90588E+03 3.87147E+05 6.18248E+03 2.87027E+02-2.92175E-11 3.54012E-08
 -1       410 8.47486E+03 3.85248E+05 1.26182E+04-2.76772E+02-2.71393E-09 2.16278E-08
 -1       521-3.15669E+07-7.64707E+06-1.00103E+07-1.69997E+05-1.10478E-07-8.20728E-09
 -1       522 2.61666E+07 4.21522E+06 5.60329E+06-1.85852E+07-6.54312E-07-6.23404E-07
 -1       523-7.60934E+06-1.33598E+06-4.58291E+05 5.63625E+06 4.03961E-08-3.24537E-07
 -1       524-6.78934E+06 1.17071E+07 2.44952E+06-2.36438E+07 8.32253E-07-3.40089E-07
 -1       525-1.32692E+07-2.53868E+06-2.19725E+06 5.64290E+06 6.04952E-07-3.10363E-07
 -1       526 4.14567E+07-6.59098E+04 7.57002E+06-1.15172E+07 4.21831E-07-1.05152E-07
 -1       527-3.36092E+07-8.39124E+06-9.76481E+06-4.81482E+06 4.10946E-08-8.32661E-08
 -1       528 4.94371E+07 1.64361E+07 1.10618E+07 2.67618E+07 1.60013E-07-1.45781E-07
 -1       529-1.82063E+07-1.98207E+07-8.58517E+06-1.25276E+07-1.15484E-07-7.61356E-08
 -1       530-4.20441E+06 3.42755E+07 5.97749E+06 1.01138E+07-2.86193E-07 5.40167E-07
 -1       531 1.34097E+06-1.09081E+07-4.25085E+05-2.54533E+06-6.49859E-07 4.49130E-07
 -1       532-1.96834E+07 2.43530E+07 2.42655E+06-1.29419E+07 3.62430E-07-7.26868E-07
 -1       533-1.11399E+06-1.38292E+07-2.14052E+06-4.06758E+06-4.10655E-07-1.05897E-06
 -1       534 5.08737E+06 3.67577E+07 7.26074E+06 1.70524E+07 1.20199E-08 7.35279E-07
 -1       535-2.36639E+07-1.98899E+07-1.12160E+07-1.28126E+07 1.25845E-07 4.73054E-07
 -1       536-7.04829E+05-4.68790E+04-4.71810E+04-5.45049E+04-3.45062E-09 3.22862E-08
 -1       537-5.61454E+04 4.48787E+04 8.41059E+04 1.23506E+05-1.10676E-07 9.21464E-08
 -1       538-3.94363E+05 3.27992E+03 3.74061E+03-7.20305E+04 5.49969E-08 1.27462E-07
 -1       539-2.69515E+05 2.89272E+03 2.49315E+04 1.38386E+05 1.70112E-07 1.38039E-07
 -1       540-4.96815E+05-4.27762E+02-2.11758E+04-6.99158E+04-6.92171E-09 1.13238E-07
 -1       541 1.44434E+05 1.69050E+04 1.05963E+05 9.76321E+04-1.61260E-08 8.16324E-08
 -1       542-7.97158E+05-2.00534E+04-8.38717E+04-3.04075E+04 8.04225E-08 3.70024E-08
 -1       543 4.02022E+05 2.72126E+04 1.57307E+05-1.33341E+04-1.10576E-08-1.77865E-08
 -1       544-7.47495E+05-1.64652E+04-7.45146E+04 4.03850E+04-2.60770E-08-3.71733E-08
 -1       545 2.71787E+04 9.43525E+03 7.94534E+04-1.13312E+05 1.96691E-08-7.24795E-08
 -1       546-4.32381E+05 6.07729E+03-1.21807E+04 6.92263E+04 2.93635E-08-7.43676E-08
 -1       547-2.87555E+05-4.65938E+03 1.05050E+04-1.41231E+05-1.47298E-07-1.03512E-07
 -1       548-4.41222E+05 4.71390E+03-2.38293E+04 6.89908E+04-1.17689E-07-9.01455E-08
 -1       549 4.63424E+04 1.59131E+04 6.01401E+04-1.11163E+05-5.34278E-08-6.09348E-08
 -1       550-7.57343E+05-2.19711E+04-1.28611E+05 3.84469E+04 1.47229E-08-4.92364E-08
 -1       551 4.07663E+04-7.55038E+05-1.54670E+04-1.24710E+06-1.01689E-07-3.28873E-09
 -1       552 9.31271E+04-7.99854E+05 1.01894E+04-1.77825E+06-7.25413E-08 4.61587E-08
 -1       553 7.16227E+04-7.96311E+05 3.22541E+04-1.24046E+06-1.20082E-07 3.20433E-08
 -1       554 1.31873E+05-8.15611E+05 8.13666E+04-1.78020E+06-7.52043E-08 1.71349E-08
 -1       555 1.01383E+05-8.19929E+05 1.48530E+05-1.24030E+06-1.23633E-07-1.73241E-08
 -1       556 2.23116E+05-3.82764E+05 2.65833E+04-4.06734E+05-2.30502E-08-1.92376E-08
 -1       557 3.53594E+05-4.86996E+05 1.65684E+04-5.26857E+05-9.42964E-09 3.55431E-09
 -1       558 2.05009E+05-3.75745E+05 2.52033E+03-4.11037E+05-2.46509E-08-6.99947E-09
 -1       559 3.28569E+05-4.87190E+05 2.53197E+03-5.47234E+05 1.82481E-08-6.66114E-09
 -1       560 1.89767E+05-3.66186E+05-1.45128E+03-4.22018E+05 1.23109E-08-4.88217E-09
 -1       561 3.09405E+05-4.79527E+05 1.52583E+02-5.60297E+05-9.74978E-10 4.86034E-09
 -1       562 1.77714E+05-3.58697E+05-1.30937E+03-4.30746E+05-5.45697E-09 1.78989E-09
 -1       563 2.95089E+05-4.73286E+05-3.10298E+01-5.69646E+05-5.45697E-10-5.17139E-09
 -1       564 1.69114E+05-3.53338E+05-5.94769E+02-4.36840E+05 4.17640E-09-3.25244E-08
 -1       565 2.85598E+05-4.69152E+05 2.53721E+01-5.75710E+05 6.72298E-09-9.05857E-09
 -1       566 1.64090E+05-3.50160E+05-2.58029E+02-4.40354E+05-8.73115E-09-9.91713E-09
 -1       567 2.80990E+05-4.67148E+05-3.61269E+02-5.78508E+05 1.30021E-08 8.59291E-09
 -1       568 1.62732E+05-3.49328E+05-1.12269E+03-4.41399E+05-3.86899E-09-7.20320E-09
 -1       569 2.79878E+05-4.67077E+05-2.83565E+03-5.77074E+05-5.73982E-09-4.55839E-09
 -1       570 1.66132E+05-3.52560E+05-6.19988E+03-4.40380E+05 2.74304E-09 1.20890E-08
 -1       571 2.90350E+05 1.05022E+04 1.49846E+04-9.50937E+04 1.18835E-08 4.51973E-09
 -1       572 2.92521E+05 3.95740E+03 7.34365E+03-1.04328E+05 2.12990E-08 1.28221E-08
 -1       573 2.91212E+05 1.24395E+03 3.26302E+03-9.49173E+04 1.10449E-08-2.34559E-09
 -1       574 2.91426E+05 7.25458E+02 1.63638E+03-1.04552E+05 4.04543E-09-6.51380E-09
 -1       575 2.91306E+05 4.46507E+02 7.72324E+02-9.48932E+04-9.65341E-09 1.19308E-08
 -1       576 2.91290E+05 4.57707E+02 3.95426E+02-1.04581E+05-2.39247E-08-5.77802E-09
 -1       577 2.91346E+05 3.88452E+02 1.97402E+02-9.48899E+04-1.02027E-08-2.39288E-09
 -1       578 2.91320E+05 4.19704E+02 1.14039E+02-1.04586E+05-3.99450E-09-1.52322E-08
 -1       579 2.91418E+05 3.51841E+02 7.83420E+01-9.48895E+04 2.60661E-09-2.32103E-09
 -1       580 2.91422E+05 3.68778E+02 9.09422E+01-1.04581E+05-9.55970E-09 1.78725E-08
 -1       581 2.91531E+05 2.93389E+02 1.37399E+02-9.48954E+04 2.47746E-09-5.91353E-09
 -1       582 2.91597E+05 3.31563E+02 2.79357E+02-1.04519E+05 4.22006E-09-1.43291E-08
 -1       583 2.91671E+05 3.36017E+02 5.36225E+02-9.49519E+04 1.46247E-09-8.99877E-09
 -1       584 2.91972E+05 7.73901E+02 1.21340E+03-1.04043E+05 6.44650E-09 8.55835E-10
 -1       585 2.91697E+05 1.79533E+03 2.45714E+03-9.53707E+04 8.25821E-10 2.16824E-09
 -1       586-3.42120E+03 1.16776E+05-2.91812E+03-2.50579E+05-4.26280E-09-2.09443E-08
 -1       587-1.33521E+03 1.16527E+05 7.69757E+02-2.75781E+05-5.51699E-09-5.13468E-08
 -1       588 4.01623E+02 1.16335E+05 4.75681E+03-2.50441E+05-3.17050E-09-1.67411E-08
 -1       589 5.08655E+03 1.18807E+05 1.23385E+04-2.75548E+05-6.75573E-09-1.78416E-08
 -1       590 1.66054E+04 1.15002E+05 2.58830E+04-2.50873E+05-6.99674E-09-9.78434E-09
 -1       591-7.49305E+04-1.59658E+04-2.25149E+04-3.19411E+04-2.40811E-09 2.63753E-11
 -1       592-7.90152E+04-1.95231E+04-1.21958E+04-3.55662E+04 2.30088E-10-1.60708E-08
 -1       593-7.71822E+04-1.43320E+04-5.07652E+03-3.35919E+04 4.34188E-09-6.62135E-09
 -1       594-7.59066E+04-1.62193E+04-2.53179E+03-3.56839E+04-1.24724E-09 2.49112E-08
 -1       595-7.73539E+04-1.43267E+04-1.16235E+03-3.36669E+04-2.35914E-10 9.72001E-09
 -1       596-7.56937E+04-1.60682E+04-5.90672E+02-3.56586E+04 4.49160E-09 1.01991E-08
 -1       597-7.73754E+04-1.43420E+04-3.21192E+02-3.36698E+04 7.51754E-10 8.03055E-09
 -1       598-7.56727E+04-1.60623E+04-2.57382E+02-3.56515E+04-8.92555E-10 6.11831E-09
 -1       599-7.73742E+04-1.43426E+04-3.27755E+02-3.36694E+04 1.59503E-09-2.11975E-08
 -1       600-7.56938E+04-1.60688E+04-6.08048E+02-3.56565E+04 1.61930E-09-1.32561E-08
 -1       601-7.73496E+04-1.43280E+04-1.19912E+03-3.36660E+04 5.69935E-09 2.84103E-09
 -1       602-7.59133E+04-1.62235E+04-2.61314E+03-3.56787E+04-7.01039E-09-1.33256E-08
 -1       603-7.71696E+04-1.43365E+04-5.24031E+03-3.35894E+04 3.12093E-09 6.88351E-09
 -1       604-7.91398E+04-1.96142E+04-1.25884E+04-3.55324E+04 1.09835E-08 2.54431E-09
 -1       605-7.48253E+04-1.60407E+04-2.32398E+04-3.19047E+04 4.97812E-09 1.48748E-08
 -1       606 2.67023E+04-1.43208E+04-2.56724E+04 2.40006E+04 7.91169E-09 5.20231E-09
 -1       607 2.23157E+04-4.67701E+03-1.27848E+04 2.69715E+04 3.95084E-09-1.25603E-08
 -1       608 2.48157E+04-8.43608E+02-5.72333E+03 2.38318E+04 6.56473E-09 1.63238E-08
 -1       609 2.43364E+04-2.88864E+02-2.89127E+03 2.71857E+04 1.95396E-08 1.52691E-08
 -1       610 2.46022E+04-4.07812E+01-1.37946E+03 2.38117E+04 2.05764E-08 5.98448E-10
 -1       611 2.45269E+04-4.10039E+01-6.95512E+02 2.72088E+04 2.61462E-08-2.06085E-08
 -1       612 2.45551E+04-2.70629E+01-3.30632E+02 2.38096E+04 1.53022E-08-4.11978E-09
 -1       613 2.45385E+04-3.68995E+01-1.48132E+02 2.72115E+04 1.23659E-08-6.88124E-09
 -1       614 2.45329E+04-3.34649E+01-3.46627E+01 2.38089E+04 4.98767E-09 1.24835E-08
 -1       615 2.45332E+04-3.53988E+01 6.22678E+01 2.72120E+04-1.96314E-09 9.83846E-09
 -1       616 2.45155E+04-3.03326E+01 1.86553E+02 2.38092E+04 2.58115E-09-1.44501E-08
 -1       617 2.45556E+04 4.36174E+00 4.25564E+02 2.72115E+04 4.54747E-10-7.36236E-10
 -1       618 2.44785E+04 9.23538E+01 8.57768E+02 2.38095E+04 9.68612E-09 5.26893E-09
 -1       619 2.48584E+04 6.67592E+02 1.92617E+03 2.72109E+04 2.03684E-08 9.63246E-09
 -1       620 2.41937E+04 2.12635E+03 3.87154E+03 2.38111E+04 9.87689E-09 2.82353E-09
 -1       621 5.09935E+02 3.01279E+05 3.88093E+03 4.09494E+04 8.32642E-10-3.64889E-09
 -1       622 6.75533E+02 3.02175E+05 3.44453E+03 5.94499E+04 1.03500E-09-1.66747E-08
 -1       623 1.42081E+02 3.01473E+05 4.13952E+03 4.07642E+04 1.21008E-09-1.47274E-08
 -1       624 2.12419E+03 3.03392E+05 8.02519E+03 5.96323E+04 1.11100E-09-3.57038E-08
 -1       625 2.07567E+03 2.99882E+05 1.40238E+04 4.07610E+04 1.24419E-09 8.17067E-09
 -1       626 2.60754E+05 6.14006E+04 5.12016E+03 1.26702E+05-2.56523E-09-5.61158E-09
 -1       627 2.58436E+05 6.27983E+04 2.46736E+03 1.30975E+05-2.10457E-09-3.37388E-09
 -1       628 2.60882E+05 5.90579E+04 1.04351E+03 1.27572E+05-6.29825E-09 9.69067E-09
 -1       629 2.57800E+05 6.21184E+04 5.10747E+02 1.31215E+05-1.23291E-08-3.68760E-09
 -1       630 2.60896E+05 5.89447E+04 2.37021E+02 1.27609E+05-4.78258E-09 1.79716E-09
 -1       631 2.57733E+05 6.20925E+04 1.27677E+02 1.31217E+05 6.10589E-09 3.81004E-09
 -1       632 2.60893E+05 5.89486E+04 8.42411E+01 1.27604E+05 9.26320E-09-1.57527E-08
 -1       633 2.57725E+05 6.20943E+04 9.41905E+01 1.31214E+05 5.80235E-09 3.12411E-10
 -1       634 2.60888E+05 5.89458E+04 1.52520E+02 1.27604E+05-6.81331E-09-2.27419E-09
 -1       635 2.57739E+05 6.20926E+04 3.08812E+02 1.31219E+05-8.21217E-09-3.42970E-09
 -1       636 2.60879E+05 5.89400E+04 6.23744E+02 1.27604E+05-7.03312E-09-5.29008E-09
 -1       637 2.57874E+05 6.21896E+04 1.37152E+03 1.31218E+05 1.63709E-10-8.48331E-09
 -1       638 2.60831E+05 5.92429E+04 2.81797E+03 1.27467E+05 3.24644E-09-2.16642E-09
 -1       639 2.59354E+05 6.42484E+04 6.66746E+03 1.30783E+05 2.42380E-09 2.01624E-08
 -1       640 2.60626E+05 6.53906E+04 1.38361E+04 1.24876E+05 2.94176E-09-2.51930E-10
 -1       656 6.65566E+04-1.70332E+06-1.60663E+05-2.54604E+03 4.00178E-10 3.08046E-09
 -1       657-8.80486E+04-1.77592E+06-1.33100E+05 5.17810E+03 5.88443E-10-4.66215E-09
 -1       658 2.12159E+04-1.72394E+06-8.19729E+04-4.62929E+03 6.72344E-10 2.22445E-09
 -1       659-9.52111E+04-1.77932E+06-1.42513E+05 6.90819E+03-6.11180E-10 2.63346E-09
 -1       660 7.37032E+04-1.69993E+06-1.76846E+05-4.27613E+03-7.63976E-10 3.81371E-09
 -1       661 1.58642E+05 1.66024E+04 1.67209E+04 6.20170E+04-4.37149E-09-4.11455E-09
 -1       662 1.68094E+05 2.89861E+04 1.12687E+04 5.82665E+04-4.90388E-09 1.87940E-08
 -1       663 1.61926E+05 2.19668E+04 3.94109E+03 6.10638E+04-2.00134E-09-1.62004E-09
 -1       664 1.64286E+05 2.27129E+04 2.35759E+03 5.94309E+04 9.87683E-10-8.67377E-09
 -1       665 1.62424E+05 2.26994E+04 9.30054E+02 6.09184E+04 2.20098E-09-9.16165E-09
 -1       666 1.63697E+05 2.18751E+04 5.44409E+02 5.96206E+04 1.15153E-08-1.10388E-08
 -1       667 1.62512E+05 2.27827E+04 2.89353E+02 6.08819E+04-3.36163E-09 2.60644E-08
 -1       668 1.63600E+05 2.18153E+04 2.95269E+02 5.96736E+04-4.02851E-09 6.78444E-09
 -1       669 1.62520E+05 2.27576E+04 4.00109E+02 6.08657E+04-6.05402E-09 1.40666E-08
 -1       670 1.63698E+05 2.20326E+04 8.71579E+02 5.96765E+04-7.32342E-09 7.24573E-09
 -1       671 1.62414E+05 2.25699E+04 1.54767E+03 6.08770E+04-2.45183E-09-2.43557E-09
 -1       672 1.64600E+05 2.35383E+04 3.95976E+03 5.94579E+04 1.12290E-08-4.46329E-09
 -1       673 1.61622E+05 2.12900E+04 6.63595E+03 6.10696E+04 1.27511E-09-4.96266E-09
 -1       674 1.70915E+05 3.41997E+04 1.89774E+04 5.76025E+04-5.31327E-09 3.89264E-09
 -1       675 1.56139E+05 1.22071E+04 2.81692E+04 6.26205E+04-4.76484E-09-3.71074E-10
 -1       676 2.41097E+01-2.95860E+05-1.11345E+03-1.36549E+02-1.16833E-09-2.24785E-09
 -1       677-2.94549E+02-2.96129E+05-2.03781E+03 2.72877E+02 9.35384E-09-1.62091E-08
 -1       678 1.97547E+02-2.95668E+05-3.60234E+03-1.36239E+02 1.26852E-09-8.36054E-09
 -1       679-3.60241E+03-2.98304E+05-8.55766E+03 2.71699E+02 8.01492E-09-1.38666E-08
 -1       680 2.15084E+03-2.93686E+05-1.37920E+04-1.33865E+02-6.12090E-10 9.90639E-10
 -1       771-3.06253E+06-7.46328E+05-1.64894E+05-1.46529E+06-3.07627E-08-2.48547E-08
 -1       772-2.98555E+06-8.34929E+05-8.50112E+04-1.56773E+06-2.26719E-08 1.21909E-08
 -1       773-3.09386E+06-7.21887E+05-4.33418E+04-1.47972E+06-1.51049E-08 1.15688E-08
 -1       774-2.97608E+06-8.16543E+05-1.93357E+04-1.59338E+06 2.68919E-08-2.53203E-09
 -1       775-3.11023E+06-7.10398E+05-1.44667E+04-1.48673E+06-1.16997E-08 1.09139E-10
 -1       776-2.98835E+06-8.13536E+05-5.40935E+03-1.61279E+06-1.48721E-08 5.74073E-09
 -1       777-3.12444E+06-7.00145E+05-6.39303E+03-1.49291E+06 7.33417E-09 4.44561E-09
 -1       778-3.00116E+06-8.10738E+05-1.80724E+03-1.62947E+06 1.17579E-08 1.64364E-08
 -1       779-3.13665E+06-6.91186E+05-3.19519E+03-1.49819E+06-7.58155E-09-1.90266E-09
 -1       780-3.01245E+06-8.08067E+05-5.29945E+02-1.64305E+06-5.84987E-09 2.17733E-09
 -1       781-3.14636E+06-6.83965E+05-1.24172E+03-1.50232E+06-3.18541E-08 5.56975E-09
 -1       782-3.02115E+06-8.05799E+05 4.46549E+02-1.65308E+06-5.18412E-08-3.29874E-09
 -1       783-3.15319E+06-6.78947E+05 6.94642E+02-1.50522E+06-9.87347E-09-1.77283E-08
 -1       784-3.02596E+06-8.03532E+05 2.88266E+03-1.65927E+06-9.49876E-09 2.78033E-09
 -1       785-3.15723E+06-6.75955E+05 5.08841E+03-1.50705E+06-2.99806E-08 1.13250E-08
 -1       786 1.23822E+05-9.77185E+03 2.26081E+04-3.21514E+02 2.60454E-09 2.63126E-08
 -1       787 1.33627E+05 1.13136E+04 1.59943E+04-1.34874E+02 7.74362E-09 1.16088E-08
 -1       788 1.27602E+05-1.53128E+03 5.84922E+03-2.86411E+02 2.92650E-09 1.25465E-08
 -1       789 1.29222E+05 1.77241E+03 3.67194E+03-1.88668E+02 3.12323E-09-6.21071E-09
 -1       790 1.28226E+05-2.38419E+02 1.48674E+03-2.67737E+02-3.70782E-09 9.84392E-09
 -1       791 1.28492E+05 2.75856E+02 8.58764E+02-2.20621E+02-9.59797E-09 1.52700E-08
 -1       792 1.28332E+05-3.58423E+01 3.64029E+02-2.54461E+02-3.27385E-09-2.47297E-09
 -1       793 1.28366E+05 3.79239E+01 1.81737E+02-2.45590E+02 1.95376E-09-3.06111E-09
 -1       794 1.28353E+05-6.37009E-01 4.77541E+01-2.42768E+02 4.82985E-09 4.86423E-09
 -1       795 1.28329E+05-2.70445E+01-5.64616E+01-2.69984E+02-6.02919E-09 6.16144E-10
 -1       796 1.28369E+05 2.90897E+01-1.60504E+02-2.30067E+02 4.27193E-09-4.23240E-09
 -1       797 1.28236E+05-2.17228E+02-4.41228E+02-2.99148E+02 3.53352E-09-1.39985E-08
 -1       798 1.28446E+05 1.89404E+02-7.16723E+02-2.13604E+02 2.06360E-09-9.10572E-09
 -1       799 1.27692E+05-1.39608E+03-1.97195E+03-3.39902E+02 5.69765E-09 7.60085E-09
 -1       800 1.28913E+05 1.20698E+03-2.79075E+03-1.89314E+02 2.24418E-10 1.39968E-08
 -1       801-1.68873E+05-9.95389E+06-1.38610E+06 1.40453E+06 9.43546E-08-5.30854E-08
 -1       802 7.31393E+05 5.88025E+06 2.16412E+06-1.73267E+06 2.58042E-07-2.73867E-08
 -1       803-5.32593E+05-1.41858E+07-1.87661E+06 8.91667E+05 7.75799E-08 2.01617E-08
 -1       804 2.84522E+05 2.34672E+06 1.52474E+06 6.73462E+05-1.20330E-07-1.03567E-07
 -1       805 1.88418E+05-6.43453E+06-2.83971E+05-9.95972E+05-5.00004E-08-6.75855E-08
 -1       806-3.08737E+05-5.97206E+04-2.28397E+04-1.22336E+05-1.67120E-09 3.32989E-08
 -1       807-3.10535E+05-5.59919E+04-1.12209E+04-1.27877E+05 8.67112E-09-1.58543E-08
 -1       808-3.09364E+05-5.14895E+04-4.76027E+03-1.26227E+05-4.49427E-09 1.24918E-08
 -1       809-3.08176E+05-5.28390E+04-2.32765E+03-1.28153E+05-3.12866E-09 3.43389E-08
 -1       810-3.09459E+05-5.12029E+04-1.06690E+03-1.26399E+05 1.98543E-09 1.59487E-08
 -1       811-3.07993E+05-5.27123E+04-5.30586E+02-1.28117E+05-9.37553E-09 2.43081E-08
 -1       812-3.09473E+05-5.12276E+04-2.68424E+02-1.26399E+05-5.59430E-09 2.68528E-09
 -1       813-3.07968E+05-5.27145E+04-1.74578E+02-1.28099E+05-7.92534E-09-2.05014E-08
 -1       814-3.09466E+05-5.12373E+04-1.73218E+02-1.26394E+05-4.96675E-09-3.32693E-09
 -1       815-3.07972E+05-5.27168E+04-2.79271E+02-1.28091E+05 2.91038E-09 1.22845E-08
 -1       816-3.09445E+05-5.12364E+04-5.29430E+02-1.26391E+05 4.91127E-09 2.56355E-08
 -1       817-3.08061E+05-5.27672E+04-1.13627E+03-1.28079E+05-1.33223E-08 7.34235E-09
 -1       818-3.09376E+05-5.13968E+04-2.31762E+03-1.26315E+05-7.30506E-09 2.50502E-08
 -1       819-3.09330E+05-5.41674E+04-5.45317E+03-1.27779E+05 4.51519E-09 2.19552E-09
 -1       820-3.08939E+05-5.55163E+04-1.10992E+04-1.24556E+05-1.34696E-09 1.42745E-09
 -1       821-3.78865E+05 2.08637E+04-4.85641E+04 2.11881E+03 1.37810E-08 4.55111E-09
 -1       822-3.98576E+05-2.41693E+04-3.41320E+04-4.44341E+03 5.09736E-09 8.79572E-09
 -1       823-3.86333E+05 3.28873E+03-1.25440E+04 3.42226E+03-1.18822E-08 2.09602E-08
 -1       824-3.89563E+05-3.79261E+03-7.85203E+03-5.34927E+03 9.53531E-11 1.53117E-08
 -1       825-3.87884E+05 5.11109E+02-3.28776E+03 3.02478E+03 2.00090E-08-2.04489E-09
 -1       826-3.87138E+05-5.67432E+02-1.74508E+03-3.08368E+03 2.66763E-08-2.34113E-08
 -1       827-3.88733E+05 4.71471E+01-1.18835E+03 1.15653E+03 1.24199E-08-1.71450E-08
 -1       828-3.86437E+05-1.32395E+02-5.88394E+02 1.09253E+03 2.72792E-10-8.45412E-09
 -1       829-3.88572E+05 6.61099E+01-1.17743E+03-1.15147E+03-6.72429E-10 1.26749E-08
 -1       830-3.87486E+05-6.21929E+02-1.88294E+03 4.86479E+03-7.08539E-10-3.25088E-09
 -1       831-3.87707E+05 5.54174E+02-3.36981E+03-2.61575E+03-5.38152E-09-1.06754E-08
 -1       832-3.89644E+05-3.95917E+03-8.15492E+03 6.13939E+03-3.45837E-09-5.57009E-09
 -1       833-3.86431E+05 3.41279E+03-1.30480E+04-2.42611E+03-1.30588E-09 7.27050E-09
 -1       834-3.98638E+05-2.50833E+04-3.53559E+04 4.17492E+03-4.73398E-09 2.71320E-08
 -1       835-3.78695E+05 2.16455E+04-5.04352E+04-6.51197E+02 5.78461E-09 2.47674E-08
 -1       836-1.41300E+03 3.70033E+05 2.28964E+04-1.61480E+04-7.14226E-09-1.10763E-08
 -1       837 4.88130E+03 3.77205E+05 1.93717E+04-3.29964E+04-7.99758E-09-3.28782E-09
 -1       838-5.57537E+02 3.72044E+05 1.97333E+04-1.60765E+04-6.44832E-09 2.06919E-08
 -1       839 1.24176E+04 3.82817E+05 3.73254E+04-3.30488E+04-6.83258E-09 2.55218E-08
 -1       840-3.83888E+03 3.64361E+05 5.95186E+04-1.61013E+04-6.15910E-09 4.53797E-09
 -1       856-5.22956E+04 8.02634E+03-2.11512E+04-3.97778E+02 6.92899E-09 1.19526E-08
 -1       857-6.10095E+04-9.43062E+03-1.45603E+04 5.63247E+03 6.66057E-09 3.47814E-09
 -1       858-5.57465E+04 1.12561E+03-5.48822E+03-4.21881E+02 2.71410E-09-1.08851E-08
 -1       859-5.70492E+04-1.32417E+03-3.31188E+03 5.66834E+03-2.34593E-09 5.97788E-09
 -1       860-5.62620E+04 1.57634E+02-1.38801E+03-4.33375E+02 1.77855E-09-9.71153E-09
 -1       861-5.64562E+04-1.88113E+02-7.63567E+02 5.68399E+03 2.75646E-09 5.50675E-09
 -1       862-5.63427E+04 2.13506E+01-3.17395E+02-4.37515E+02-2.31497E-09 1.28990E-08
 -1       863-5.63574E+04-2.17870E+01-1.15594E+02 5.68639E+03-6.01902E-09-4.01158E-10
 -1       864-5.63614E+04-4.90749E+00 4.72636E+01-4.35777E+02-2.85284E-09 4.17067E-09
 -1       865-5.63016E+04 5.97276E+01 2.55415E+02 5.67647E+03 2.66269E-10-1.51318E-08
 -1       866-5.63963E+04-6.01823E+01 5.14709E+02-4.27595E+02 1.59753E-09-1.99101E-08
 -1       867-5.60595E+04 4.96992E+02 1.26689E+03 5.65426E+03-2.86747E-10 2.25162E-09
 -1       868-5.65985E+04-4.34279E+02 2.10519E+03-4.13563E+02-4.41435E-09 8.58370E-09
 -1       869-5.45161E+04 3.61433E+03 5.60541E+03 5.61771E+03 1.52596E-10-4.44629E-10
 -1       870-5.79319E+04-3.09285E+03 8.13471E+03-3.90936E+02-3.62616E-09 9.61290E-09
 -1       871-5.51838E+03-2.13073E+04-1.94827E+04 1.30367E+05-4.84397E-09 8.81300E-10
 -1       872-1.98414E+03-2.58369E+04-8.15749E+03 1.69040E+05-1.10676E-08 2.65118E-10
 -1       873 4.02962E+02-2.36465E+04 5.90521E+02 1.30080E+05-6.93490E-09 6.52972E-09
 -1       874 3.30256E+03-2.12355E+04 9.77763E+03 1.69069E+05-1.21690E-08 6.63022E-09
 -1       875 6.84283E+03-2.59757E+04 2.20568E+04 1.30319E+05-5.38057E-09-6.71844E-09
 -1       876 2.93677E+05 4.94975E+04 1.50957E+04 1.17854E+05 2.42767E-09-1.58234E-08
 -1       877 2.94675E+05 5.26768E+04 8.06171E+03 1.22185E+05 1.22686E-08-1.50397E-08
 -1       878 2.95089E+05 4.78252E+04 3.37746E+03 1.19091E+05-1.82945E-09-2.09504E-08
 -1       879 2.92623E+05 5.06289E+04 1.68286E+03 1.22287E+05 7.12907E-09 6.04683E-09
 -1       880 2.95190E+05 4.78080E+04 7.83857E+02 1.19141E+05 2.85581E-09-1.36218E-08
 -1       881 2.92487E+05 5.05414E+04 4.18614E+02 1.22263E+05-7.90453E-09-3.53596E-08
 -1       882 2.95199E+05 4.78212E+04 2.67841E+02 1.19143E+05-1.34060E-09 9.18189E-09
 -1       883 2.92477E+05 5.05368E+04 2.88001E+02 1.22256E+05 2.24577E-09 1.05808E-08
 -1       884 2.95192E+05 4.78184E+04 4.58195E+02 1.19143E+05 3.62434E-10 5.03036E-09
 -1       885 2.92513E+05 5.05431E+04 9.21258E+02 1.22267E+05-4.35425E-09 1.79220E-08
 -1       886 2.95157E+05 4.77916E+04 1.85677E+03 1.19140E+05-8.47130E-10 1.13594E-08
 -1       887 2.92840E+05 5.07571E+04 4.05586E+03 1.22314E+05 1.12441E-08 3.26702E-09
 -1       888 2.94900E+05 4.78367E+04 8.17268E+03 1.19010E+05 4.81087E-09 7.56199E-09
 -1       889 2.97705E+05 5.58169E+04 1.95230E+04 1.22165E+05-3.89814E-09 7.69614E-09
 -1       890 2.91565E+05 5.17991E+04 3.65661E+04 1.15900E+05-8.70477E-09-1.30167E-08
 -1       891-8.97103E+01-1.62728E+05-1.99601E+03 2.71504E+04-2.18506E-09 1.79796E-08
 -1       892-1.75894E+02-1.63255E+05-2.14366E+03 4.12288E+04 2.71552E-09 3.59182E-09
 -1       893 4.33190E+01-1.62792E+05-3.03509E+03 2.71577E+04-2.02454E-09-1.27884E-08
 -1       894-1.51020E+03-1.64401E+05-6.28142E+03 4.10762E+04 3.32420E-09 1.28421E-09
 -1       895-1.19930E+03-1.61483E+05-1.10615E+04 2.73047E+04-9.29163E-10-2.85945E-09
 -1       956-3.77088E+05-5.44704E+03-1.34480E+04 3.08308E+04 9.26411E-09 6.32826E-09
 -1       957-3.79727E+05-1.92095E+03-6.90266E+03 3.70510E+04 4.45971E-09-2.31721E-08
 -1       958-3.78297E+05-2.40134E+02-3.11056E+03 3.06632E+04-3.69255E-09 2.92175E-09
 -1       959-3.78494E+05-1.35373E+02-1.58830E+03 3.72465E+04 4.22733E-09-3.68163E-09
 -1       960-3.78415E+05-4.41084E+01-7.74532E+02 3.06459E+04 6.90306E-09-1.45997E-08
 -1       961-3.78413E+05-6.23806E+01-4.10650E+02 3.72669E+04 3.40242E-09 2.06410E-08
 -1       962-3.78443E+05-4.53438E+01-2.35110E+02 3.06430E+04 3.28600E-09 2.78851E-09
 -1       963-3.78414E+05-5.81970E+01-1.88741E+02 3.72705E+04 1.63199E-08-1.99805E-08
 -1       964-3.78448E+05-4.19929E+01-2.29531E+02 3.06423E+04 6.30989E-09 8.20728E-09
 -1       965-3.78426E+05-5.52366E+01-3.97001E+02 3.72698E+04 1.34668E-09 1.56683E-08
 -1       966-3.78432E+05-3.41499E+01-7.45958E+02 3.06438E+04 6.89533E-09 1.09128E-08
 -1       967-3.78515E+05-1.18754E+02-1.52994E+03 3.72555E+04 2.23986E-09 5.78234E-09
 -1       968-3.78328E+05-2.16578E+02-2.99509E+03 3.06565E+04-4.00769E-09-3.07125E-10
 -1       969-3.79716E+05-1.83312E+03-6.64901E+03 3.71072E+04-3.36468E-09 2.84891E-08
 -1       970-3.77172E+05-5.22818E+03-1.29527E+04 3.07836E+04-4.06089E-09 2.32922E-08
 -1       971-3.45293E+05-1.72712E+03-9.30955E+03 1.53761E+04 5.87988E-09 4.07091E-09
 -1       972-3.47534E+05-1.27133E+03-5.06988E+03 2.12663E+04 7.87304E-09 9.93168E-09
 -1       973-3.46330E+05-6.17503E+01-2.27085E+03 1.52549E+04 3.41970E-10-4.60432E-09
 -1       974-3.46465E+05-8.06797E+01-1.17713E+03 2.14034E+04-4.72733E-09-7.95762E-09
 -1       975-3.46412E+05-1.68755E+01-5.88867E+02 1.52426E+04-3.48746E-09 1.81968E-08
 -1       976-3.46404E+05-3.08361E+01-3.40570E+02 2.14192E+04-6.39375E-09 6.93831E-10
 -1       977-3.46428E+05-1.61289E+01-2.48677E+02 1.52392E+04-6.35487E-09-2.24802E-08
 -1       978-3.46409E+05-2.46106E+01-2.93045E+02 2.14240E+04-5.58850E-09-6.14671E-09
 -1       979-3.46428E+05-7.65214E+00-4.72584E+02 1.52377E+04-5.78240E-09 3.02305E-09
 -1       980-3.46444E+05-2.15494E+01-9.13601E+02 2.14250E+04-1.45653E-09 1.52864E-08
 -1       981-3.46399E+05 1.51837E+01-1.77001E+03 1.52383E+04 3.29851E-09-1.02012E-08
 -1       982-3.46687E+05-1.52334E+02-3.65890E+03 2.14184E+04-8.88463E-10 5.63134E-10
 -1       983-3.46176E+05-9.81556E+01-7.10943E+03 1.52443E+04-2.79942E-09-9.71568E-09
 -1       984-3.50107E+05-3.86538E+03-1.59213E+04 2.13328E+04-2.41903E-09-6.21287E-09
 -1       985-3.42957E+05-5.30039E+03-2.92365E+04 1.53158E+04-2.85172E-09 2.92857E-10
 -3
    1PSTEP                        33          17           1          
  100CL  117 6.62933E-01         409                     0   17           1
 -4  DISP        4    1
 -5  D1          1    2    1    0
 -5  D2          1    2    2    0
 -5  D3          1    2    3    0
 -5  ALL         1    2    0    0    1ALL
 -1         1 2.70550E-03 0.00000E+00 0.00000E+00
 -1         2 1.37125E-03 9.19752E-28-5.29396E-23
 -1         3 3.42369E-04-4.98447E-28-1.32349E-23
 -1         5 1.77008E-04-9.45664E-28-8.27181E-25
 -1         8 2.69432E-03-4.11356E-07 0.00000E+00
 -1         9 2.68772E-03-1.82429E-04 0.00000E+00
 -1        10 3.10438E-04-3.41606E-06-1.32349E-23
 -1        12 1.78848E-04 8.09106E-07 4.13590E-25
 -1        15 2.68146E-03-4.36065E-07 0.00000E+00
 -1        16 2.75063E-03-1.84233E-04 0.00000E+00
 -1        17 2.11275E-04-7.78670E-06 0.00000E+00
 -1        18 1.82776E-04 3.43304E-05 0.00000E+00
 -1        19 1.84369E-04 1.61181E-06 0.00000E+00
 -1        20 1.84509E-04-9.79987E-06 0.00000E+00
 -1        21 1.83616E-04-2.52487E-05 3.30872E-24
 -1        24 3.06141E-05-1.20098E-05 0.00000E+00
 -1        25 1.93528E-04 3.45561E-05 0.00000E+00
 -1        26 1.94208E-04 2.23191E-06 0.00000E+00
 -1        27 1.92008E-04-1.33581E-05 0.00000E+00
 -1        28 1.91692E-04-2.58708E-05 0.00000E+00
 -1        32 0.00000E+00 0.00000E+00 0.00000E+00
 -1        33 2.03043E-04 2.98569E-06 0.00000E+00
 -1        34 2.00925E-04-1.34142E-05 0.00000E+00
 -1        35 1.98993E-04-2.62132E-05 0.00000E+00
 -1        51 2.70475E-03-8.57872E-08-3.30872E-24
 -1        52 2.70338E-03-1.53297E-07 0.00000E+00
 -1        53 2.70152E-03-2.17388E-07 0.00000E+00
 -1        54 2.69930E-03-2.80293E-07 1.65436E-24
 -1        55 2.69685E-03-3.43769E-07 2.48154E-24
 -1        56 2.69821E-03 7.51598E-06 0.00000E+00
 -1        57 2.68431E-03 3.13987E-05 0.00000E+00
 -1        58 2.66586E-03 6.64624E-05 0.00000E+00
 -1        59 2.64532E-03 1.06446E-04-5.29396E-23
 -1        60 2.62569E-03 1.44248E-04 1.05879E-22
 -1        61 2.60982E-03 1.72941E-04 5.29396E-23
 -1        62 2.59970E-03 1.87229E-04 1.05879E-22
 -1        63 2.59662E-03 1.83094E-04 0.00000E+00
 -1        64 2.60044E-03 1.59891E-04 1.05879E-22
 -1        65 2.61039E-03 1.18767E-04 5.29396E-23
 -1        66 2.62472E-03 6.42483E-05 1.05879E-22
 -1        67 2.64144E-03 2.16517E-06 0.00000E+00
 -1        68 2.65825E-03-6.01969E-05 0.00000E+00
 -1        69 2.67286E-03-1.15518E-04 0.00000E+00
 -1        70 2.68324E-03-1.57840E-04 1.05879E-22
 -1        86 1.45398E-03-5.81789E-06 0.00000E+00
 -1        87 1.69361E-03-3.63413E-05 2.64698E-23
 -1        88 2.01581E-03-8.87252E-05-2.64698E-23
 -1        89 2.34225E-03-1.42518E-04 1.32349E-23
 -1        90 2.59215E-03-1.75442E-04 0.00000E+00
 -1       121 3.41472E-04-5.51632E-07 0.00000E+00
 -1       122 3.38786E-04-1.10635E-06 0.00000E+00
 -1       123 3.34319E-04-1.66718E-06 0.00000E+00
 -1       124 3.28089E-04-2.23717E-06 0.00000E+00
 -1       125 3.20118E-04-2.81897E-06 0.00000E+00
 -1       191 1.77059E-04 1.34914E-07-1.65436E-24
 -1       192 1.77212E-04 2.69817E-07 0.00000E+00
 -1       193 1.77468E-04 4.04700E-07 1.65436E-24
 -1       194 1.77826E-04 5.39551E-07-1.24077E-24
 -1       195 1.78286E-04 6.74357E-07 2.48154E-24
 -1       251 2.69401E-03 1.78234E-06 6.61744E-24
 -1       252 2.69370E-03 3.98697E-06 0.00000E+00
 -1       253 2.69339E-03 5.21338E-06 0.00000E+00
 -1       254 2.69308E-03 4.48475E-06 3.30872E-24
 -1       255 2.69276E-03 1.12555E-06 6.61744E-24
 -1       256 2.69243E-03-5.50631E-06-3.30872E-24
 -1       257 2.69207E-03-1.55489E-05 0.00000E+00
 -1       258 2.69167E-03-2.90968E-05 0.00000E+00
 -1       259 2.69123E-03-4.57054E-05 1.32349E-23
 -1       260 2.69074E-03-6.48907E-05 0.00000E+00
 -1       261 2.69022E-03-8.57719E-05 0.00000E+00
 -1       262 2.68968E-03-1.07447E-04 0.00000E+00
 -1       263 2.68915E-03-1.28892E-04 0.00000E+00
 -1       264 2.68864E-03-1.49084E-04 6.61744E-24
 -1       265 2.68816E-03-1.67197E-04 0.00000E+00
 -1       266 2.69217E-03-4.21213E-07 3.30872E-24
 -1       267 2.69003E-03-4.24632E-07 8.27181E-25
 -1       268 2.68789E-03-4.28459E-07 8.27181E-25
 -1       269 2.68575E-03-4.31077E-07-2.06795E-25
 -1       270 2.68360E-03-4.33667E-07-2.06795E-25
 -1       271 2.69340E-03 2.24085E-07 0.00000E+00
 -1       272 2.69338E-03-1.61508E-06 0.00000E+00
 -1       273 2.69424E-03-5.79007E-06-1.32349E-23
 -1       274 2.69590E-03-1.21509E-05 0.00000E+00
 -1       275 2.69830E-03-2.05273E-05 2.64698E-23
 -1       276 2.70137E-03-3.07342E-05 0.00000E+00
 -1       277 2.70503E-03-4.25709E-05 2.64698E-23
 -1       278 2.70920E-03-5.58237E-05-1.32349E-23
 -1       279 2.71380E-03-7.02673E-05 2.64698E-23
 -1       280 2.71874E-03-8.56667E-05 0.00000E+00
 -1       281 2.72394E-03-1.01779E-04 0.00000E+00
 -1       282 2.72931E-03-1.18355E-04 0.00000E+00
 -1       283 2.73475E-03-1.35142E-04 0.00000E+00
 -1       284 2.74018E-03-1.51887E-04 6.61744E-24
 -1       285 2.74550E-03-1.68335E-04-1.32349E-23
 -1       301 2.69922E-03-1.82763E-04 1.32349E-23
 -1       302 2.70900E-03-1.83051E-04 0.00000E+00
 -1       303 2.71805E-03-1.83330E-04 0.00000E+00
 -1       304 2.72735E-03-1.83609E-04 0.00000E+00
 -1       305 2.73788E-03-1.83902E-04 0.00000E+00
 -1       306 2.72552E-03-3.36592E-04 0.00000E+00
 -1       307 2.78942E-03-7.50013E-04 0.00000E+00
 -1       308 2.83624E-03-1.35463E-03-1.05879E-22
 -1       309 2.86025E-03-2.05460E-03-5.29396E-23
 -1       310 2.89164E-03-2.72431E-03-1.05879E-22
 -1       311 2.95112E-03-3.24084E-03 5.29396E-23
 -1       312 3.00903E-03-3.52361E-03 0.00000E+00
 -1       313 3.00471E-03-3.53465E-03 0.00000E+00
 -1       314 2.86447E-03-3.28587E-03 0.00000E+00
 -1       315 2.54741E-03-2.84154E-03 5.29396E-23
 -1       316 2.07174E-03-2.27821E-03-1.05879E-22
 -1       317 1.50318E-03-1.66518E-03 0.00000E+00
 -1       318 9.55803E-04-1.06317E-03 1.05879E-22
 -1       319 5.37414E-04-5.37198E-04 0.00000E+00
 -1       320 2.91775E-04-1.61290E-04 0.00000E+00
 -1       336 2.98860E-04-4.07616E-06 1.32349E-23
 -1       337 2.85209E-04-4.76189E-06 0.00000E+00
 -1       338 2.69547E-04-5.47548E-06 1.32349E-23
 -1       339 2.51948E-04-6.21771E-06-6.61744E-24
 -1       340 2.32493E-04-6.99305E-06 0.00000E+00
 -1       406 1.79513E-04 9.43778E-07 0.00000E+00
 -1       407 1.80280E-04 1.07834E-06-4.13590E-25
 -1       408 1.81149E-04 1.21273E-06 1.24077E-24
 -1       409 1.82121E-04 1.34679E-06-2.06795E-25
 -1       410 1.83194E-04 1.48023E-06 4.13590E-25
 -1       521 2.78906E-03-3.47741E-04 0.00000E+00
 -1       522 2.85119E-03-7.81387E-04 0.00000E+00
 -1       523 2.89160E-03-1.41370E-03 0.00000E+00
 -1       524 2.90646E-03-2.14211E-03 0.00000E+00
 -1       525 2.93000E-03-2.83825E-03 0.00000E+00
 -1       526 2.98594E-03-3.37666E-03 0.00000E+00
 -1       527 3.04343E-03-3.66993E-03 2.11758E-22
 -1       528 3.03682E-03-3.67919E-03 5.29396E-23
 -1       529 2.88466E-03-3.41634E-03 0.00000E+00
 -1       530 2.54379E-03-2.95353E-03 0.00000E+00
 -1       531 2.03325E-03-2.37107E-03 0.00000E+00
 -1       532 1.42514E-03-1.74087E-03-5.29396E-23
 -1       533 8.38865E-04-1.12104E-03 0.00000E+00
 -1       534 3.87344E-04-5.74273E-04 0.00000E+00
 -1       535 1.20586E-04-1.78903E-04-2.11758E-22
 -1       536 2.10521E-04 2.70960E-05-6.61744E-24
 -1       537 2.08607E-04 8.74655E-05-1.65436E-24
 -1       538 2.05650E-04 1.64065E-04 0.00000E+00
 -1       539 2.02162E-04 2.47556E-04 1.65436E-24
 -1       540 1.99023E-04 3.26447E-04-3.30872E-24
 -1       541 1.96983E-04 3.89274E-04-1.65436E-24
 -1       542 1.96041E-04 4.29290E-04-3.30872E-24
 -1       543 1.95816E-04 4.39898E-04 0.00000E+00
 -1       544 1.95494E-04 4.21871E-04 0.00000E+00
 -1       545 1.94324E-04 3.76202E-04 1.65436E-24
 -1       546 1.92144E-04 3.11011E-04 3.30872E-24
 -1       547 1.89192E-04 2.34534E-04 0.00000E+00
 -1       548 1.86268E-04 1.58435E-04-3.30872E-24
 -1       549 1.84158E-04 9.43743E-05-1.65436E-24
 -1       550 1.83062E-04 5.03742E-05 0.00000E+00
 -1       551 1.86101E-04-8.35609E-06 0.00000E+00
 -1       552 1.57685E-04-9.00575E-06 0.00000E+00
 -1       553 1.26969E-04-9.71753E-06 0.00000E+00
 -1       554 9.49126E-05-1.04703E-05-6.61744E-24
 -1       555 6.24761E-05-1.12368E-05 1.32349E-23
 -1       556 2.03636E-04 1.17452E-05-5.29396E-23
 -1       557 1.97465E-04 2.75854E-05 0.00000E+00
 -1       558 1.92627E-04 4.00216E-05-5.29396E-23
 -1       559 1.88989E-04 4.93639E-05 2.64698E-23
 -1       560 1.86422E-04 5.59229E-05 0.00000E+00
 -1       561 1.84798E-04 6.00118E-05 0.00000E+00
 -1       562 1.83992E-04 6.19448E-05 0.00000E+00
 -1       563 1.83879E-04 6.20373E-05 1.32349E-23
 -1       564 1.84338E-04 6.06053E-05 0.00000E+00
 -1       565 1.85248E-04 5.79658E-05 6.61744E-24
 -1       566 1.86489E-04 5.44361E-05 0.00000E+00
 -1       567 1.87944E-04 5.03341E-05 0.00000E+00
 -1       568 1.89492E-04 4.59775E-05 1.65436E-24
 -1       569 1.91018E-04 4.16845E-05 0.00000E+00
 -1       570 1.92402E-04 3.77729E-05 0.00000E+00
 -1       571 1.82873E-04 3.22075E-05-3.30872E-24
 -1       572 1.82971E-04 3.00190E-05-8.27181E-25
 -1       573 1.83071E-04 2.77804E-05-3.30872E-24
 -1       574 1.83170E-04 2.55082E-05 8.27181E-25
 -1       575 1.83269E-04 2.32188E-05 0.00000E+00
 -1       576 1.83369E-04 2.09286E-05 0.00000E+00
 -1       577 1.83468E-04 1.86541E-05 0.00000E+00
 -1       578 1.83568E-04 1.64119E-05 0.00000E+00
 -1       579 1.83668E-04 1.42185E-05 0.00000E+00
 -1       580 1.83767E-04 1.20903E-05 0.00000E+00
 -1       581 1.83867E-04 1.00439E-05 0.00000E+00
 -1       582 1.83967E-04 8.09577E-06 0.00000E+00
 -1       583 1.84068E-04 6.26239E-06-6.61744E-24
 -1       584 1.84168E-04 4.56007E-06 0.00000E+00
 -1       585 1.84269E-04 3.00495E-06 0.00000E+00
 -1       586 1.84527E-04 3.43701E-05 0.00000E+00
 -1       587 1.86237E-04 3.44093E-05 4.13590E-25
 -1       588 1.87949E-04 3.44481E-05 0.00000E+00
 -1       589 1.89706E-04 3.44863E-05 0.00000E+00
 -1       590 1.91551E-04 3.45232E-05 0.00000E+00
 -1       591 1.83504E-04 3.23012E-05 1.03398E-25
 -1       592 1.84234E-04 3.02520E-05 0.00000E+00
 -1       593 1.84970E-04 2.81889E-05-8.27181E-25
 -1       594 1.85708E-04 2.61164E-05-4.13590E-25
 -1       595 1.86448E-04 2.40394E-05 0.00000E+00
 -1       596 1.87188E-04 2.19624E-05 0.00000E+00
 -1       597 1.87927E-04 1.98903E-05 0.00000E+00
 -1       598 1.88661E-04 1.78277E-05-4.13590E-25
 -1       599 1.89390E-04 1.57792E-05-8.27181E-25
 -1       600 1.90113E-04 1.37496E-05 4.13590E-25
 -1       601 1.90826E-04 1.17436E-05 0.00000E+00
 -1       602 1.91529E-04 9.76576E-06 2.06795E-25
 -1       603 1.92220E-04 7.82084E-06 0.00000E+00
 -1       604 1.92898E-04 5.91362E-06 1.55096E-25
 -1       605 1.93560E-04 4.04870E-06 0.00000E+00
 -1       606 1.84382E-04 4.51908E-07 3.30872E-24
 -1       607 1.84392E-04-6.22158E-07 0.00000E+00
 -1       608 1.84401E-04-1.61542E-06 0.00000E+00
 -1       609 1.84409E-04-2.53357E-06 0.00000E+00
 -1       610 1.84418E-04-3.38234E-06 0.00000E+00
 -1       611 1.84426E-04-4.16752E-06 0.00000E+00
 -1       612 1.84434E-04-4.89491E-06 0.00000E+00
 -1       613 1.84443E-04-5.57033E-06 0.00000E+00
 -1       614 1.84451E-04-6.19959E-06 1.65436E-24
 -1       615 1.84459E-04-6.78848E-06 0.00000E+00
 -1       616 1.84468E-04-7.34285E-06-1.65436E-24
 -1       617 1.84476E-04-7.86847E-06 0.00000E+00
 -1       618 1.84485E-04-8.37118E-06 0.00000E+00
 -1       619 1.84493E-04-8.85677E-06-2.06795E-25
 -1       620 1.84501E-04-9.33107E-06 0.00000E+00
 -1       621 1.85723E-04 1.71573E-06 3.30872E-24
 -1       622 1.87236E-04 1.81989E-06-1.65436E-24
 -1       623 1.88875E-04 1.92384E-06 1.65436E-24
 -1       624 1.90605E-04 2.02746E-06 0.00000E+00
 -1       625 1.92394E-04 2.13079E-06-1.65436E-24
 -1       626 1.84916E-04 4.88020E-07 0.00000E+00
 -1       627 1.85440E-04-5.72720E-07 0.00000E+00
 -1       628 1.85944E-04-1.57826E-06 0.00000E+00
 -1       629 1.86431E-04-2.53677E-06 0.00000E+00
 -1       630 1.86903E-04-3.45644E-06 0.00000E+00
 -1       631 1.87363E-04-4.34549E-06 0.00000E+00
 -1       632 1.87815E-04-5.21210E-06 0.00000E+00
 -1       633 1.88262E-04-6.06452E-06 0.00000E+00
 -1       634 1.88706E-04-6.91094E-06-3.30872E-24
 -1       635 1.89152E-04-7.75957E-06 0.00000E+00
 -1       636 1.89601E-04-8.61862E-06 0.00000E+00
 -1       637 1.90057E-04-9.49632E-06 1.65436E-24
 -1       638 1.90523E-04-1.04009E-05-1.65436E-24
 -1       639 1.91002E-04-1.13405E-05-8.27181E-25
 -1       640 1.91497E-04-1.23235E-05-3.30872E-24
 -1       656 1.85210E-04-1.03782E-05-6.61744E-24
 -1       657 1.86331E-04-1.09800E-05-6.61744E-24
 -1       658 1.87733E-04-1.15805E-05 1.32349E-23
 -1       659 1.89269E-04-1.21806E-05-6.61744E-24
 -1       660 1.90755E-04-1.27825E-05 0.00000E+00
 -1       661 1.84771E-04-1.03138E-05-8.27181E-25
 -1       662 1.85072E-04-1.09195E-05-8.27181E-25
 -1       663 1.85404E-04-1.16119E-05 1.65436E-24
 -1       664 1.85767E-04-1.23844E-05 0.00000E+00
 -1       665 1.86158E-04-1.32313E-05-1.65436E-24
 -1       666 1.86574E-04-1.41465E-05 0.00000E+00
 -1       667 1.87014E-04-1.51244E-05 0.00000E+00
 -1       668 1.87476E-04-1.61595E-05 0.00000E+00
 -1       669 1.87956E-04-1.72463E-05 1.65436E-24
 -1       670 1.88454E-04-1.83795E-05 8.27181E-25
 -1       671 1.88968E-04-1.95540E-05-1.65436E-24
 -1       672 1.89495E-04-2.07645E-05-8.27181E-25
 -1       673 1.90033E-04-2.20062E-05 0.00000E+00
 -1       674 1.90580E-04-2.32743E-05 0.00000E+00
 -1       675 1.91136E-04-2.45634E-05 0.00000E+00
 -1       676 1.84967E-04-2.53530E-05 0.00000E+00
 -1       677 1.86317E-04-2.54572E-05 0.00000E+00
 -1       678 1.87665E-04-2.55614E-05 0.00000E+00
 -1       679 1.89011E-04-2.56653E-05-1.65436E-24
 -1       680 1.90354E-04-2.57691E-05 1.65436E-24
 -1       771 1.86752E-05 1.46861E-05 0.00000E+00
 -1       772 8.63055E-06 3.66120E-05-2.64698E-23
 -1       773 3.89499E-07 5.39979E-05 0.00000E+00
 -1       774-6.17208E-06 6.71014E-05 0.00000E+00
 -1       775-1.11757E-05 7.61905E-05 0.00000E+00
 -1       776-1.47476E-05 8.15499E-05-2.64698E-23
 -1       777-1.70141E-05 8.34746E-05 0.00000E+00
 -1       778-1.81040E-05 8.22732E-05 0.00000E+00
 -1       779-1.81452E-05 7.82629E-05 5.29396E-23
 -1       780-1.72679E-05 7.17722E-05 0.00000E+00
 -1       781-1.56015E-05 6.31366E-05 0.00000E+00
 -1       782-1.32765E-05 5.27002E-05 0.00000E+00
 -1       783-1.04230E-05 4.08118E-05-5.29396E-23
 -1       784-7.17204E-06 2.78266E-05 0.00000E+00
 -1       785-3.65373E-06 1.41025E-05 5.29396E-23
 -1       786 1.93566E-04 3.23081E-05 1.29247E-26
 -1       787 1.93608E-04 3.01102E-05 4.13590E-25
 -1       788 1.93650E-04 2.79540E-05 0.00000E+00
 -1       789 1.93692E-04 2.58315E-05 0.00000E+00
 -1       790 1.93735E-04 2.37378E-05-1.65436E-24
 -1       791 1.93777E-04 2.16682E-05 8.27181E-25
 -1       792 1.93820E-04 1.96205E-05 0.00000E+00
 -1       793 1.93863E-04 1.75926E-05 8.27181E-25
 -1       794 1.93906E-04 1.55841E-05 1.65436E-24
 -1       795 1.93949E-04 1.35950E-05 0.00000E+00
 -1       796 1.93992E-04 1.16271E-05 0.00000E+00
 -1       797 1.94035E-04 9.68230E-06 0.00000E+00
 -1       798 1.94078E-04 7.76478E-06-1.65436E-24
 -1       799 1.94121E-04 5.87886E-06-8.27181E-25
 -1       800 1.94164E-04 4.03204E-06 1.65436E-24
 -1       801 1.47808E-04 3.10644E-05-2.64698E-23
 -1       802 9.56690E-06 1.93823E-05 0.00000E+00
 -1       803-1.08532E-04 9.79090E-06 0.00000E+00
 -1       804-9.62398E-05 6.81405E-06 0.00000E+00
 -1       805-3.18005E-05 2.67926E-06 0.00000E+00
 -1       806 1.94256E-04 3.22393E-05 3.30872E-24
 -1       807 1.94969E-04 2.99488E-05-1.65436E-24
 -1       808 1.95671E-04 2.76896E-05 3.30872E-24
 -1       809 1.96358E-04 2.54660E-05 0.00000E+00
 -1       810 1.97031E-04 2.32818E-05 0.00000E+00
 -1       811 1.97688E-04 2.11412E-05 0.00000E+00
 -1       812 1.98326E-04 1.90479E-05 3.30872E-24
 -1       813 1.98946E-04 1.70060E-05 0.00000E+00
 -1       814 1.99545E-04 1.50193E-05 3.30872E-24
 -1       815 2.00122E-04 1.30917E-05 8.27181E-25
 -1       816 2.00676E-04 1.12272E-05 1.65436E-24
 -1       817 2.01204E-04 9.42961E-06-8.27181E-25
 -1       818 2.01706E-04 7.70280E-06-1.65436E-24
 -1       819 2.02181E-04 6.05067E-06 8.27181E-25
 -1       820 2.02627E-04 4.47704E-06 0.00000E+00
 -1       821 1.94079E-04-1.23759E-07-1.65436E-24
 -1       822 1.93939E-04-3.63180E-06 1.65436E-24
 -1       823 1.93796E-04-7.86465E-06-3.30872E-24
 -1       824 1.93651E-04-1.23902E-05 0.00000E+00
 -1       825 1.93507E-04-1.66974E-05 0.00000E+00
 -1       826 1.93366E-04-2.02761E-05-1.65436E-24
 -1       827 1.93227E-04-2.28149E-05-3.30872E-24
 -1       828 1.93090E-04-2.40085E-05-1.65436E-24
 -1       829 1.92955E-04-2.39179E-05 3.30872E-24
 -1       830 1.92818E-04-2.26119E-05 1.65436E-24
 -1       831 1.92681E-04-2.04900E-05 0.00000E+00
 -1       832 1.92542E-04-1.79569E-05 0.00000E+00
 -1       833 1.92404E-04-1.55292E-05 0.00000E+00
 -1       834 1.92269E-04-1.37229E-05-1.65436E-24
 -1       835 1.92134E-04-1.28854E-05 0.00000E+00
 -1       836 1.95893E-04 2.35691E-06 0.00000E+00
 -1       837 1.97451E-04 2.48506E-06 0.00000E+00
 -1       838 1.98913E-04 2.61314E-06 0.00000E+00
 -1       839 2.00312E-04 2.74052E-06 0.00000E+00
 -1       840 2.01678E-04 2.86774E-06 8.27181E-25
 -1       856 1.91992E-04-1.44151E-05-8.27181E-25
 -1       857 1.91973E-04-1.53365E-05 2.58494E-26
 -1       858 1.91953E-04-1.61431E-05-2.06795E-25
 -1       859 1.91934E-04-1.68563E-05 0.00000E+00
 -1       860 1.91914E-04-1.74973E-05 0.00000E+00
 -1       861 1.91894E-04-1.80873E-05 0.00000E+00
 -1       862 1.91875E-04-1.86476E-05-4.13590E-25
 -1       863 1.91855E-04-1.91996E-05-4.13590E-25
 -1       864 1.91835E-04-1.97646E-05 0.00000E+00
 -1       865 1.91815E-04-2.03639E-05 0.00000E+00
 -1       866 1.91795E-04-2.10189E-05-8.27181E-25
 -1       867 1.91775E-04-2.17509E-05-4.13590E-25
 -1       868 1.91755E-04-2.25809E-05-8.27181E-25
 -1       869 1.91735E-04-2.35302E-05 4.13590E-25
 -1       870 1.91714E-04-2.46199E-05 8.27181E-25
 -1       871 1.93353E-04-1.33630E-05-8.27181E-25
 -1       872 1.94845E-04-1.33713E-05 0.00000E+00
 -1       873 1.96416E-04-1.33803E-05 4.13590E-25
 -1       874 1.97999E-04-1.33901E-05 3.87741E-25
 -1       875 1.99525E-04-1.34004E-05 1.44757E-24
 -1       876 1.92532E-04-1.44006E-05 0.00000E+00
 -1       877 1.93033E-04-1.53762E-05 1.65436E-24
 -1       878 1.93513E-04-1.62931E-05-3.30872E-24
 -1       879 1.93973E-04-1.71585E-05 0.00000E+00
 -1       880 1.94418E-04-1.79798E-05 0.00000E+00
 -1       881 1.94848E-04-1.87645E-05 1.65436E-24
 -1       882 1.95268E-04-1.95199E-05 0.00000E+00
 -1       883 1.95679E-04-2.02533E-05 0.00000E+00
 -1       884 1.96085E-04-2.09721E-05 3.30872E-24
 -1       885 1.96488E-04-2.16835E-05-1.65436E-24
 -1       886 1.96892E-04-2.23950E-05 0.00000E+00
 -1       887 1.97297E-04-2.31139E-05 0.00000E+00
 -1       888 1.97709E-04-2.38476E-05 0.00000E+00
 -1       889 1.98127E-04-2.46035E-05 0.00000E+00
 -1       890 1.98556E-04-2.53889E-05-1.65436E-24
 -1       891 1.93051E-04-2.59283E-05 0.00000E+00
 -1       892 1.94387E-04-2.59860E-05-8.27181E-25
 -1       893 1.95674E-04-2.60435E-05-8.27181E-25
 -1       894 1.96887E-04-2.61009E-05 0.00000E+00
 -1       895 1.98002E-04-2.61579E-05-8.27181E-25
 -1       956 2.02913E-04 1.66895E-06-1.65436E-24
 -1       957 2.02781E-04 4.43742E-07-1.65436E-24
 -1       958 2.02648E-04-7.00669E-07 0.00000E+00
 -1       959 2.02515E-04-1.77562E-06 0.00000E+00
 -1       960 2.02382E-04-2.79250E-06 0.00000E+00
 -1       961 2.02250E-04-3.76271E-06-1.65436E-24
 -1       962 2.02117E-04-4.69769E-06 0.00000E+00
 -1       963 2.01984E-04-5.60889E-06 1.65436E-24
 -1       964 2.01851E-04-6.50774E-06 0.00000E+00
 -1       965 2.01719E-04-7.40568E-06 0.00000E+00
 -1       966 2.01586E-04-8.31418E-06 3.30872E-24
 -1       967 2.01453E-04-9.24466E-06-1.65436E-24
 -1       968 2.01320E-04-1.02086E-05-6.61744E-24
 -1       969 2.01188E-04-1.12173E-05 0.00000E+00
 -1       970 2.01056E-04-1.22822E-05 3.30872E-24
 -1       971 2.00805E-04-1.45458E-05 3.30872E-24
 -1       972 2.00684E-04-1.55828E-05-1.65436E-24
 -1       973 2.00563E-04-1.65357E-05 0.00000E+00
 -1       974 2.00441E-04-1.74153E-05 1.65436E-24
 -1       975 2.00320E-04-1.82324E-05 0.00000E+00
 -1       976 2.00199E-04-1.89979E-05 1.65436E-24
 -1       977 2.00077E-04-1.97227E-05-3.30872E-24
 -1       978 1.99956E-04-2.04177E-05 0.00000E+00
 -1       979 1.99834E-04-2.10938E-05 0.00000E+00
 -1       980 1.99713E-04-2.17620E-05 0.00000E+00
 -1       981 1.99592E-04-2.24330E-05 0.00000E+00
 -1       982 1.99471E-04-2.31179E-05 0.00000E+00
 -1       983 1.99350E-04-2.38274E-05 0.00000E+00
 -1       984 1.99229E-04-2.45726E-05 0.00000E+00
 -1       985 1.99109E-04-2.53643E-05 0.00000E+00
 -3
    1PSTEP                        34          17           1          
  100CL  117 6.62933E-01         409                     0   17           1
 -4  STRESS      6    1
 -5  SXX         1    4    1    1
 -5  SYY         1    4    2    2
 -5  SZZ         1    4    3    3
 -5  SXY         1    4    1    2
 -5  SYZ         1    4    2    3
 -5  SZX         1    4    3    1
 -1         1-5.31937E+06-1.62695E+06-1.13229E+06-1.40243E+06-4.36557E-10 1.66008E-07
 -1         2 1.37493E+06 2.02244E+07 4.75351E+06 6.08664E+06 2.88419E-08-8.16362E-09
 -1         3-1.48567E+03-1.56632E+06 4.07242E+02-2.22129E+03-4.84782E-10-3.33457E-08
 -1         5-7.47573E+01 3.86337E+05 9.98018E+00-1.33742E+00-3.76424E-10-6.11271E-08
 -1         8-5.72412E+05-2.04297E+05-6.46439E+04-2.49412E+05 1.84627E-10 4.28190E-09
 -1         9 1.16376E+07 3.53778E+06 2.71966E+06-4.16249E+05-9.38307E-09-1.15740E-07
 -1        10-2.30532E+03-1.63223E+06-3.96153E+03-1.50290E+04-1.25528E-08 2.78840E-08
 -1        12-7.08383E+01 3.86359E+05 3.28041E+02-9.11785E+00-6.27491E-10-9.30686E-09
 -1        15 9.50994E+02 5.22619E+02 3.07406E+03 8.81060E-01 9.33653E-12 1.81624E-07
 -1        16 2.27888E+07-3.15169E+05 3.11051E+06-2.25098E+06 8.84756E-09-3.05008E-08
 -1        17 8.33892E+06 6.24753E+06 2.25317E+06 5.98162E+06 2.63273E-08 3.39467E-08
 -1        18 1.41926E+05 3.34036E+04 4.06212E+03-1.19478E+05 1.21906E-08-7.65021E-09
 -1        19 1.22400E+05 1.41652E+05-9.44130E+02 2.19691E+04 1.66492E-09-6.10307E-09
 -1        20-8.19375E+04-5.73641E+05-1.28719E+05 2.51212E+04-1.95193E-09 2.96847E-08
 -1        21-4.55835E+01-2.95998E+05-9.23944E+02 2.74210E+02 1.51357E-08-6.23927E-09
 -1        24 1.39426E+07 1.20116E+07 3.86256E+06 1.11240E+07-1.59819E-07-5.38033E-08
 -1        25 1.24183E+05 2.64579E+05 9.92967E+04-6.44042E+05-3.74484E-09 5.32727E-09
 -1        26-5.54219E+04 9.22699E+04-2.46371E+04 1.29765E+03-3.84171E-10 1.37482E-08
 -1        27-7.55734E+04-3.09917E+05-1.13297E+05 6.89683E+04 4.02391E-09 8.56016E-09
 -1        28 2.22410E+04-8.53429E+04 1.68971E+04 2.06128E+04-3.77105E-09-7.51496E-09
 -1        32-1.68008E+06-3.17799E+06-1.96904E+05 4.54314E+05-4.21569E-08-8.27617E-09
 -1        33-1.78465E+05 9.29927E+04 3.23853E+04-3.84754E+04-2.90629E-09 1.33162E-08
 -1        34-2.23586E+05-2.50271E+04 6.89723E+02 7.56498E+04-5.64885E-09-3.33451E-09
 -1        35-2.29300E+04-3.38450E+04-1.34837E+03 5.14948E+04-3.47929E-09 2.50354E-08
 -1        51 6.02662E+04-1.74499E+05 1.27556E+05-4.49324E+05 1.89175E-10 1.43955E-07
 -1        52 2.04488E+04-1.52278E+05 6.69877E+04-5.24024E+05 1.09139E-10-3.95812E-09
 -1        53 4.22485E+03-1.67662E+05 3.49759E+04-4.47770E+05 2.65572E-10-8.00210E-08
 -1        54 7.56218E+03-1.63463E+05 2.89250E+04-5.25555E+05 9.82254E-11-2.93056E-07
 -1        55 1.64568E+04-1.70598E+05 3.54013E+04-4.47666E+05 4.47471E-10 1.30092E-07
 -1        56-9.72790E+06-1.32132E+06-8.96135E+05-4.02743E+06-8.14907E-10-7.31088E-08
 -1        57-1.09324E+07-9.38983E+05-5.51434E+05-2.81095E+06 1.32059E-08 3.91374E-08
 -1        58-9.59694E+06-1.76336E+06-1.99705E+05-4.18831E+06-2.39015E-08 2.12538E-07
 -1        59-1.10365E+07-4.39896E+05-1.10220E+05-2.74803E+06-3.63434E-08 3.40078E-08
 -1        60-9.68235E+06-1.76904E+06-5.49886E+04-4.14265E+06 2.47019E-09-7.33853E-08
 -1        61-1.04879E+07-7.27189E+05 6.50224E+03-2.98620E+06-1.42973E-08-5.94337E-08
 -1        62-1.00394E+07-1.54741E+06-6.19656E+04-3.86726E+06 3.20142E-09-5.89862E-08
 -1        63-9.72224E+06-1.34635E+06 3.97843E+04-3.61081E+06-6.46105E-09 6.25441E-08
 -1        64-1.03652E+07-1.20866E+06-5.69216E+04-3.46482E+06 3.34694E-10-1.35915E-08
 -1        65-9.36450E+06-1.88298E+06 4.70804E+03-4.39081E+06-2.46182E-08-1.90480E-08
 -1        66-1.04945E+07-9.43228E+05-4.56865E+04-3.16037E+06 3.26545E-08 3.43189E-08
 -1        67-9.35106E+06-2.12099E+06-9.88976E+04-4.75810E+06-2.81980E-08-2.46237E-08
 -1        68-1.04756E+07-9.03196E+05-1.83458E+05-3.15889E+06-9.01855E-09-3.79572E-07
 -1        69-9.55422E+06-2.22361E+06-4.89944E+05-4.36127E+06-3.08792E-08-4.72181E-07
 -1        70-1.02040E+07-9.13104E+05-8.16876E+05-3.49757E+06 1.02918E-08-1.60711E-07
 -1        86-1.40218E+06-1.47717E+07-2.59983E+06-2.86428E+06-2.58959E-07-3.11557E-08
 -1        87 2.18402E+06 5.72159E+06 2.16389E+06 5.38774E+06-4.17604E-07 1.39153E-09
 -1        88-4.01180E+05-2.04715E+06 2.02694E+05-2.45320E+06-4.06540E-07 2.32017E-08
 -1        89 2.92961E+06 5.45276E+06 2.21668E+06 5.56253E+06-5.63858E-07-1.06691E-07
 -1        90-2.06338E+06-1.45721E+07-2.80734E+06-3.06414E+06-1.57852E-07-1.05443E-07
 -1       121-2.03548E+03-1.57121E+06-5.44095E+02 1.10103E+03 1.61161E-09 1.04556E-08
 -1       122-1.29904E+03-1.56638E+06 7.72846E+02-4.44647E+03-5.23882E-09 4.28299E-08
 -1       123-2.05547E+03-1.57135E+06 2.68240E+02 3.28821E+03 4.39366E-09 1.83500E-08
 -1       124 3.45287E+02-1.56593E+06 2.96406E+03-9.30152E+03-1.01709E-08 5.25324E-09
 -1       125-2.86870E+03-1.57225E+06 3.48454E+03 5.91030E+03 6.91580E-09 1.74332E-08
 -1       191-7.87825E+01 3.86356E+05 8.51096E+00 6.97171E-01-5.62248E-10-1.63909E-08
 -1       192-7.57206E+01 3.86338E+05 2.12963E+01-4.28951E+00-8.07302E-10-5.51881E-09
 -1       193-8.13181E+01 3.86355E+05 3.62805E+01 3.76662E+00-1.04237E-09-2.25555E-10
 -1       194-7.88088E+01 3.86341E+05 8.09559E+01-9.73398E+00-6.05933E-10 1.96724E-08
 -1       195-8.61850E+01 3.86353E+05 1.55016E+02 6.33318E+00-1.47597E-09 7.27232E-09
 -1       251-8.80538E+05 1.63645E+04-3.82444E+04-1.43327E+04-2.15485E-09 8.25530E-08
 -1       252-8.95428E+05-1.89172E+04-2.66744E+04 4.97458E+04 1.09230E-08-1.11841E-07
 -1       253-8.88710E+05 2.52334E+03-1.02266E+04-1.06173E+04-7.76140E-09 1.47723E-07
 -1       254-8.82409E+05-3.01844E+03-4.78172E+03 3.60410E+04 8.59882E-09 1.99939E-07
 -1       255-8.92990E+05 9.45676E+01-3.46255E+03-6.30552E+02-3.57818E-09 2.01232E-07
 -1       256-8.76950E+05-2.94260E+02 1.01066E+03 1.30893E+04 1.17493E-08-1.61725E-07
 -1       257-8.93727E+05-5.27729E+02-1.32724E+03 1.23245E+04-3.44357E-09-5.47624E-08
 -1       258-8.79314E+05 8.40533E+02 2.63580E+03-1.14379E+04-7.02482E-09-1.51126E-07
 -1       259-8.90835E+05-8.77865E+02 1.40412E+03 2.38938E+04-1.49203E-09 2.20573E-07
 -1       260-8.85302E+05 2.83975E+03 5.60637E+03-2.93551E+04 5.38608E-09 3.40069E-08
 -1       261-8.88340E+05-2.06274E+03 8.72679E+03 3.02557E+04 1.47521E-08-1.17923E-07
 -1       262-8.83917E+05 1.17533E+04 2.16812E+04-3.47805E+04-2.20827E-09 4.52178E-08
 -1       263-8.92470E+05-9.56423E+03 3.43809E+04 2.93281E+04-4.61222E-09 7.13844E-08
 -1       264-8.53498E+05 6.74936E+04 9.50705E+04-2.58132E+04 4.21542E-08 1.55724E-08
 -1       265-9.18288E+05-5.79134E+04 1.32557E+05 2.12778E+04 3.02989E-08 2.21917E-09
 -1       266-1.72163E+04-8.05117E+03 4.03907E+04-1.88505E+01-1.81899E-12 3.64917E-08
 -1       267 1.99582E+04 9.38257E+03 2.85495E+04 2.17515E+01 8.45830E-11-1.66386E-08
 -1       268-2.67637E+03-1.32890E+03 1.06116E+04-2.77142E+00-1.61435E-10-1.64712E-07
 -1       269 3.16000E+03 1.59034E+03 6.89747E+03 3.22840E+00-6.27551E-11-7.90967E-08
 -1       270-4.74317E+02-2.61305E+02 3.32950E+03-4.38112E-01-1.68257E-11-9.92748E-08
 -1       271-1.52054E+06-1.92228E+05-1.14319E+05-5.90631E+05 1.03682E-10-1.69093E-08
 -1       272-1.52457E+06-3.02243E+05-7.20921E+04-6.22250E+05-2.55532E-08-2.87182E-07
 -1       273-1.54447E+06-2.17023E+05-2.76184E+04-5.82655E+05 9.95351E-09 3.64671E-08
 -1       274-1.49689E+06-2.72534E+05-1.45313E+04-6.36947E+05-2.04163E-08 2.05844E-07
 -1       275-1.55002E+06-2.16899E+05-6.82653E+03-5.78970E+05 1.54650E-08-1.91367E-08
 -1       276-1.49091E+06-2.73280E+05-2.96572E+03-6.45130E+05-1.47811E-08 4.01527E-07
 -1       277-1.55278E+06-2.14420E+05-1.87882E+03-5.76282E+05-1.73532E-08 2.85730E-07
 -1       278-1.48846E+06-2.76485E+05-7.56083E+02-6.51205E+05 4.79095E-08 3.52336E-07
 -1       279-1.55457E+06-2.12333E+05-8.96325E+02-5.74358E+05-2.73139E-08 2.04777E-07
 -1       280-1.48724E+06-2.78980E+05-1.04953E+03-6.55311E+05 6.10271E-09 1.42859E-07
 -1       281-1.55556E+06-2.10951E+05-1.94326E+03-5.73226E+05 2.24281E-09-9.99293E-08
 -1       282-1.48751E+06-2.81370E+05-4.50377E+03-6.57162E+05-4.77949E-08 9.24979E-08
 -1       283-1.55512E+06-2.09553E+05-8.01222E+03-5.73004E+05 1.86698E-08-7.14003E-08
 -1       284-1.49460E+06-2.92094E+05-2.18389E+04-6.55255E+05-3.21541E-08-1.06844E-07
 -1       285-1.54855E+06-2.01366E+05-3.40413E+04-5.74699E+05 3.27022E-08-2.15456E-07
 -1       301-7.61222E+03-6.53717E+05 1.69001E+05-1.13840E+06 3.94357E-09 1.32932E-07
 -1       302-5.74391E+03-6.06351E+05 1.02367E+05-1.68666E+06 1.20490E-08-4.42178E-08
 -1       303-2.00269E+04-6.45978E+05 5.78848E+04-1.13528E+06 1.04119E-08 2.73740E-08
 -1       304-2.23187E+04-6.12733E+05 5.86311E+04-1.68600E+06 9.37143E-09 1.53785E-07
 -1       305-2.60456E+04-6.33780E+05 7.17451E+04-1.13845E+06-2.01162E-08 2.07350E-07
 -1       306-3.01001E+07-6.21475E+06-8.59546E+06-5.33056E+05-9.15024E-08-2.50468E-07
 -1       307 2.53505E+07 3.24911E+06 5.51224E+06-1.51775E+07-9.57865E-07 9.90694E-08
 -1       308-6.98873E+06-1.02594E+06-4.56300E+05 5.20366E+06-2.16940E-07 5.23112E-07
 -1       309-3.26623E+06 8.72575E+06 2.27999E+06-2.06520E+07 4.26702E-07 1.52435E-07
 -1       310-1.25350E+07-1.93339E+06-2.02400E+06 5.21181E+06 4.25498E-08-1.07728E-07
 -1       311 3.82929E+07 1.67632E+04 7.25898E+06-8.83598E+06 4.99480E-07 5.42786E-08
 -1       312-3.18849E+07-6.75185E+06-8.51878E+06-5.00905E+06 1.95228E-07 4.01924E-08
 -1       313 4.53986E+07 1.49359E+07 1.06519E+07 2.37200E+07 9.28994E-08-2.23517E-08
 -1       314-1.72423E+07-1.77382E+07-7.51560E+06-1.25236E+07 5.75383E-07-2.90456E-08
 -1       315-1.79637E+06 2.96726E+07 5.66481E+06 1.05772E+07-6.28206E-08-8.53033E-08
 -1       316 1.38216E+06-9.84068E+06-4.43725E+05-2.54944E+06-1.12958E-06-5.55185E-07
 -1       317-1.71274E+07 2.23983E+07 2.23475E+06-8.78181E+06 5.13610E-07-6.02857E-07
 -1       318-1.07199E+06-1.27558E+07-2.03365E+06-4.24329E+06-9.35252E-07 1.57685E-07
 -1       319 7.18142E+06 3.18808E+07 7.02140E+06 1.65804E+07-5.99539E-08 2.35683E-07
 -1       320-2.25665E+07-1.76032E+07-9.83478E+06-1.27931E+07 1.53319E-07-5.58211E-08
 -1       336-7.32992E+02-1.70089E+06-1.38959E+04 8.94953E+03-2.63626E-08 7.23958E-09
 -1       337-5.42115E+03-1.70047E+06-1.81351E+04-2.17327E+04-4.93137E-08-1.13141E-08
 -1       338 2.88902E+02-1.70038E+06-2.85510E+04 1.25332E+04-3.47591E-08 2.17769E-08
 -1       339-3.02954E+04-1.71776E+06-6.45392E+04-2.87509E+04-6.26205E-08-1.83354E-09
 -1       340 1.99727E+04-1.68579E+06-1.01657E+05 1.58369E+04-4.12656E-08 2.26501E-08
 -1       406-4.91148E+01 3.86338E+05 6.44130E+02 3.33225E+00-1.96124E-09-2.93239E-08
 -1       407 1.55360E+02 3.86473E+05 1.37649E+03 2.33279E+01-5.97225E-10-2.86309E-08
 -1       408 6.35396E+02 3.86238E+05 2.74465E+03-2.69840E+01-2.43017E-09-3.14794E-08
 -1       409 2.90716E+03 3.87349E+05 6.18613E+03 2.88034E+02-1.87811E-10-2.00780E-08
 -1       410 8.47948E+03 3.85448E+05 1.26257E+04-2.77755E+02-3.07955E-09-5.70981E-09
 -1       521-3.16361E+07-7.66717E+06-1.00403E+07-1.39927E+05-8.82428E-08 6.41448E-08
 -1       522 2.61955E+07 4.26851E+06 5.61609E+06-1.86790E+07-4.93194E-07-4.79718E-07
 -1       523-7.56433E+06-1.33687E+06-4.47718E+05 5.65034E+06 1.09198E-07-4.54776E-07
 -1       524-6.76332E+06 1.17728E+07 2.46517E+06-2.37070E+07 8.62579E-07-7.02355E-07
 -1       525-1.33355E+07-2.56542E+06-2.22522E+06 5.66110E+06 5.84754E-07 2.53203E-08
 -1       526 4.17890E+07-7.51089E+04 7.61686E+06-1.14785E+07 2.37487E-08 3.12080E-07
 -1       527-3.37235E+07-8.44550E+06-9.81658E+06-4.87114E+06-2.53553E-07 3.46932E-07
 -1       528 4.95565E+07 1.66353E+07 1.11074E+07 2.69640E+07 7.01402E-08-3.95521E-08
 -1       529-1.81807E+07-1.99386E+07-8.61397E+06-1.25522E+07 8.08504E-08-1.37486E-07
 -1       530-4.27943E+06 3.44482E+07 5.99285E+06 1.00420E+07-1.86046E-07 8.53266E-07
 -1       531 1.38028E+06-1.09123E+07-4.16647E+05-2.50028E+06-8.67934E-07 4.53903E-07
 -1       532-1.96523E+07 2.44062E+07 2.44124E+06-1.30615E+07 4.60714E-07-7.38917E-07
 -1       533-1.11631E+06-1.39034E+07-2.16431E+06-4.05442E+06-1.47469E-07-1.06031E-06
 -1       534 5.16938E+06 3.69859E+07 7.30535E+06 1.71498E+07-2.88128E-09 7.40110E-07
 -1       535-2.37414E+07-1.99874E+07-1.12719E+07-1.28592E+07 1.02562E-07 4.48897E-07
 -1       536-7.05511E+05-4.68438E+04-4.76232E+04-5.46016E+04-1.06866E-09 5.77174E-08
 -1       537-5.54865E+04 4.48177E+04 8.40631E+04 1.23691E+05-1.08280E-07 6.43627E-08
 -1       538-3.94389E+05 3.30889E+03 3.66257E+03-7.21234E+04 4.54557E-08 1.17435E-07
 -1       539-2.69266E+05 2.87846E+03 2.49380E+04 1.38576E+05 1.68434E-07 1.33002E-07
 -1       540-4.97098E+05-4.28770E+02-2.12493E+04-7.00200E+04-8.03766E-09 1.20245E-07
 -1       541 1.45629E+05 1.69418E+04 1.06193E+05 9.77920E+04-1.08319E-08 9.30185E-08
 -1       542-7.98105E+05-2.00975E+04-8.40663E+04-3.04666E+04 7.86299E-08 4.45170E-08
 -1       543 4.03802E+05 2.72733E+04 1.57663E+05-1.33496E+04 7.18956E-10 3.79532E-09
 -1       544-7.48347E+05-1.65036E+04-7.46864E+04 4.04540E+04-4.77939E-10-3.73427E-08
 -1       545 2.81326E+04 9.46084E+03 7.96439E+04-1.13481E+05-2.03077E-08-7.60388E-08
 -1       546-4.32524E+05 6.08751E+03-1.22065E+04 6.93193E+04 3.31354E-08-8.42199E-08
 -1       547-2.87330E+05-4.65810E+03 1.05483E+04-1.41423E+05-1.15250E-07-1.14838E-07
 -1       548-4.41365E+05 4.71710E+03-2.38577E+04 6.90850E+04-1.17222E-07-1.13996E-07
 -1       549 4.73106E+04 1.59990E+04 6.03423E+04-1.11336E+05-6.64153E-08-6.91998E-08
 -1       550-7.58211E+05-2.20626E+04-1.28803E+05 3.85193E+04 7.98627E-09-3.77640E-08
 -1       551 4.07912E+04-7.53464E+05-1.56527E+04-1.24728E+06-1.04570E-07 1.27184E-08
 -1       552 9.32143E+04-7.98364E+05 1.00742E+04-1.77849E+06-7.36327E-08 4.83997E-08
 -1       553 7.17049E+04-7.94796E+05 3.21645E+04-1.24064E+06-1.19151E-07 4.32046E-08
 -1       554 1.31987E+05-8.14185E+05 8.12414E+04-1.78044E+06-7.37782E-08 1.99489E-08
 -1       555 1.01460E+05-8.18429E+05 1.48330E+05-1.24047E+06-1.23247E-07-1.65401E-08
 -1       556 2.23432E+05-3.83245E+05 2.62291E+04-4.07027E+05-2.17406E-08-1.43773E-08
 -1       557 3.53979E+05-4.87549E+05 1.63909E+04-5.27306E+05-2.03727E-09 5.02041E-10
 -1       558 2.05264E+05-3.76142E+05 2.43482E+03-4.11394E+05-1.99070E-08 5.38421E-09
 -1       559 3.28946E+05-4.87687E+05 2.49268E+03-5.47725E+05 1.57015E-08 1.40899E-08
 -1       560 1.89988E+05-3.66562E+05-1.47577E+03-4.22401E+05 1.04774E-08-3.52884E-09
 -1       561 3.09744E+05-4.80006E+05 1.42583E+02-5.60815E+05 1.32422E-09-8.03084E-09
 -1       562 1.77908E+05-3.59056E+05-1.31777E+03-4.31148E+05 6.40284E-10-5.42059E-10
 -1       563 2.95396E+05-4.73751E+05-3.37228E+01-5.70186E+05-2.98314E-10 8.43738E-09
 -1       564 1.69288E+05-3.53685E+05-5.97835E+02-4.37257E+05 9.15315E-09 5.87352E-09
 -1       565 2.85881E+05-4.69607E+05 2.46526E+01-5.76265E+05 7.13044E-09 1.16770E-08
 -1       566 1.64250E+05-3.50498E+05-2.59220E+02-4.40780E+05-2.00089E-09-3.13048E-09
 -1       567 2.81259E+05-4.67596E+05-3.62244E+02-5.79072E+05 2.26646E-08-2.47383E-10
 -1       568 1.62886E+05-3.49662E+05-1.12505E+03-4.41830E+05-3.52247E-09-2.89219E-09
 -1       569 2.80142E+05-4.67524E+05-2.84150E+03-5.77640E+05-9.09586E-09 1.38316E-08
 -1       570 1.66287E+05-3.52897E+05-6.21211E+03-4.40810E+05 9.03674E-09 2.38379E-09
 -1       571 2.90501E+05 1.05075E+04 1.49903E+04-9.51989E+04 1.07129E-08 1.32331E-08
 -1       572 2.92673E+05 3.96037E+03 7.34646E+03-1.04443E+05 2.12062E-08-1.27329E-08
 -1       573 2.91364E+05 1.24577E+03 3.26427E+03-9.50224E+04 1.42018E-08-1.90084E-09
 -1       574 2.91578E+05 7.27225E+02 1.63701E+03-1.04667E+05 5.94559E-09-3.68709E-09
 -1       575 2.91457E+05 4.48021E+02 7.72623E+02-9.49982E+04 2.42355E-09 3.79805E-09
 -1       576 2.91442E+05 4.59350E+02 3.95584E+02-1.04697E+05-7.75594E-09 8.35462E-09
 -1       577 2.91497E+05 3.89899E+02 1.97484E+02-9.49949E+04 3.33876E-09 2.21344E-08
 -1       578 2.91472E+05 4.21261E+02 1.14097E+02-1.04701E+05 1.35187E-08-6.15728E-10
 -1       579 2.91569E+05 3.53177E+02 7.83904E+01-9.49946E+04 1.83882E-08-1.28748E-08
 -1       580 2.91574E+05 3.70193E+02 9.10214E+01-1.04697E+05-5.19140E-09-1.23891E-08
 -1       581 2.91684E+05 2.94561E+02 1.37525E+02-9.50005E+04 9.88803E-09 1.27566E-08
 -1       582 2.91749E+05 3.32820E+02 2.79636E+02-1.04635E+05 2.95768E-09 5.23232E-09
 -1       583 2.91824E+05 3.37102E+02 5.36748E+02-9.50571E+04 3.71074E-10 1.69555E-08
 -1       584 2.92125E+05 7.75463E+02 1.21461E+03-1.04158E+05 6.69388E-09-3.20529E-09
 -1       585 2.91850E+05 1.79778E+03 2.45955E+03-9.54763E+04-1.36970E-09 9.95351E-09
 -1       586-3.42275E+03 1.16898E+05-2.91534E+03-2.50687E+05-8.63565E-09 7.98673E-09
 -1       587-1.33763E+03 1.16650E+05 7.72675E+02-2.75900E+05-9.16407E-09 3.27556E-08
 -1       588 3.99831E+02 1.16457E+05 4.76123E+03-2.50549E+05-7.30506E-09 2.25527E-08
 -1       589 5.08768E+03 1.18931E+05 1.23478E+04-2.75666E+05-3.39969E-09-3.30110E-08
 -1       590 1.66149E+04 1.15123E+05 2.59016E+04-2.50980E+05-5.65615E-09 1.00081E-08
 -1       591-7.50111E+04-1.59742E+04-2.25323E+04-3.19648E+04-4.39695E-09 1.83809E-08
 -1       592-7.91021E+04-1.95312E+04-1.22053E+04-3.55892E+04 2.76407E-09 1.02635E-08
 -1       593-7.72646E+04-1.43392E+04-5.08046E+03-3.36170E+04 1.37888E-10 7.07882E-09
 -1       594-7.59910E+04-1.62248E+04-2.53375E+03-3.57070E+04 2.75321E-09 5.99036E-09
 -1       595-7.74363E+04-1.43339E+04-1.16325E+03-3.36921E+04 1.21123E-09 9.02436E-09
 -1       596-7.57780E+04-1.60736E+04-5.91126E+02-3.56817E+04 3.10229E-09 1.31367E-08
 -1       597-7.74579E+04-1.43493E+04-3.21432E+02-3.36949E+04-6.05041E-10-6.97503E-09
 -1       598-7.57570E+04-1.60676E+04-2.57562E+02-3.56745E+04-8.53868E-09 6.21537E-09
 -1       599-7.74566E+04-1.43498E+04-3.27969E+02-3.36946E+04 7.27925E-09 2.24020E-09
 -1       600-7.57781E+04-1.60741E+04-6.08431E+02-3.56795E+04-3.77207E-09-2.99679E-09
 -1       601-7.74320E+04-1.43353E+04-1.19987E+03-3.36911E+04 1.86037E-09 1.65171E-08
 -1       602-7.59977E+04-1.62290E+04-2.61477E+03-3.57018E+04 2.34218E-09 7.45160E-09
 -1       603-7.72520E+04-1.43437E+04-5.24358E+03-3.36144E+04 1.99907E-09 1.09931E-08
 -1       604-7.92262E+04-1.96218E+04-1.25963E+04-3.55554E+04 5.01166E-09 1.92194E-08
 -1       605-7.49062E+04-1.60489E+04-2.32543E+04-3.19287E+04 6.15682E-09 3.65144E-08
 -1       606 2.66879E+04-1.43293E+04-2.56877E+04 2.39810E+04 8.33461E-09 5.70958E-09
 -1       607 2.22988E+04-4.67988E+03-1.27924E+04 2.69495E+04 3.90537E-09 1.41335E-09
 -1       608 2.48003E+04-8.44187E+02-5.72672E+03 2.38123E+04 2.85218E-09 5.16820E-09
 -1       609 2.43208E+04-2.89156E+02-2.89298E+03 2.71635E+04 1.95651E-08 2.87159E-08
 -1       610 2.45867E+04-4.09165E+01-1.38027E+03 2.37923E+04 2.22990E-08 1.35658E-08
 -1       611 2.45114E+04-4.11809E+01-6.95922E+02 2.71866E+04 2.31689E-08-1.19198E-08
 -1       612 2.45396E+04-2.72184E+01-3.30822E+02 2.37902E+04 2.38733E-08 4.79986E-09
 -1       613 2.45230E+04-3.71003E+01-1.48214E+02 2.71893E+04 2.76495E-08 6.83258E-09
 -1       614 2.45175E+04-3.36473E+01-3.46695E+01 2.37895E+04 1.41499E-08 1.57056E-08
 -1       615 2.45178E+04-3.56192E+01 6.23295E+01 2.71898E+04 8.95398E-10-1.65142E-09
 -1       616 2.45001E+04-3.05300E+01 1.86713E+02 2.37898E+04 1.59571E-09-5.55406E-09
 -1       617 2.45402E+04 4.15869E+00 4.25918E+02 2.71893E+04 1.26715E-09-1.99634E-09
 -1       618 2.44631E+04 9.22456E+01 8.58478E+02 2.37901E+04 1.80671E-09 1.57843E-09
 -1       619 2.48433E+04 6.67928E+02 1.92776E+03 2.71887E+04 8.77662E-11-3.66754E-09
 -1       620 2.41780E+04 2.12791E+03 3.87474E+03 2.37917E+04 1.15051E-10 1.27784E-10
 -1       621 5.10765E+02 3.01439E+05 3.88430E+03 4.10355E+04 9.27230E-10 2.82853E-09
 -1       622 6.76853E+02 3.02336E+05 3.44728E+03 5.95745E+04 1.17188E-09-5.85442E-09
 -1       623 1.42718E+02 3.01633E+05 4.14244E+03 4.08499E+04 1.09912E-09-1.21190E-08
 -1       624 2.12648E+03 3.03553E+05 8.03058E+03 5.97572E+04 1.51863E-09-2.56091E-08
 -1       625 2.07766E+03 3.00040E+05 1.40331E+04 4.08467E+04 1.29876E-09-1.29894E-08
 -1       626 2.60887E+05 6.14095E+04 5.12137E+03 1.26738E+05 7.59792E-09 3.38059E-09
 -1       627 2.58570E+05 6.28058E+04 2.46795E+03 1.31010E+05 5.46788E-09-5.20242E-09
 -1       628 2.61015E+05 5.90663E+04 1.04376E+03 1.27608E+05-7.23958E-09-6.00403E-09
 -1       629 2.57934E+05 6.21256E+04 5.10868E+02 1.31250E+05-5.34101E-09-5.34054E-09
 -1       630 2.61029E+05 5.89531E+04 2.37081E+02 1.27645E+05-9.82254E-11-3.29976E-09
 -1       631 2.57867E+05 6.20996E+04 1.27712E+02 1.31252E+05 2.32626E-09 5.11079E-10
 -1       632 2.61026E+05 5.89570E+04 8.42691E+01 1.27641E+05 1.38089E-08 3.16095E-09
 -1       633 2.57859E+05 6.21014E+04 9.42300E+01 1.31249E+05 5.18071E-09 5.88693E-09
 -1       634 2.61021E+05 5.89542E+04 1.52592E+02 1.27640E+05-3.69243E-09 1.31990E-09
 -1       635 2.57874E+05 6.20997E+04 3.08961E+02 1.31254E+05-8.83932E-09 5.54519E-09
 -1       636 2.61012E+05 5.89484E+04 6.24046E+02 1.27640E+05-6.59657E-09-5.73618E-09
 -1       637 2.58009E+05 6.21968E+04 1.37219E+03 1.31254E+05-8.20887E-09 1.10408E-08
 -1       638 2.60964E+05 5.92515E+04 2.81934E+03 1.27503E+05 2.37560E-09 2.06569E-08
 -1       639 2.59490E+05 6.42565E+04 6.67071E+03 1.30818E+05 6.04769E-09 1.17227E-08
 -1       640 2.60759E+05 6.54022E+04 1.38429E+04 1.24912E+05 3.50519E-09 2.64731E-09
 -1       656 6.65833E+04-1.70404E+06-1.60728E+05-2.55415E+03-5.67525E-10-9.02685E-09
 -1       657-8.80841E+04-1.77667E+06-1.33154E+05 5.16662E+03-6.29370E-10-3.09424E-08
 -1       658 2.12246E+04-1.72467E+06-8.20067E+04-4.63838E+03 1.25056E-11 9.49311E-09
 -1       659-9.52511E+04-1.78008E+06-1.42573E+05 6.89834E+03-1.03864E-09 2.02441E-08
 -1       660 7.37344E+04-1.70065E+06-1.76921E+05-4.28585E+03-2.27737E-09 6.39224E-09
 -1       661 1.58543E+05 1.65900E+04 1.67151E+04 6.19785E+04 1.08594E-09 1.23537E-08
 -1       662 1.67994E+05 2.89676E+04 1.12648E+04 5.82272E+04-2.83376E-09-9.57812E-10
 -1       663 1.61826E+05 2.19525E+04 3.93973E+03 6.10257E+04 7.45331E-10 2.30757E-08
 -1       664 1.64188E+05 2.26965E+04 2.35678E+03 5.93912E+04-1.95769E-10 1.08823E-08
 -1       665 1.62325E+05 2.26849E+04 9.29733E+02 6.08803E+04 1.10771E-09 7.56103E-10
 -1       666 1.63598E+05 2.18591E+04 5.44227E+02 5.95808E+04 6.82155E-09 7.40743E-09
 -1       667 1.62412E+05 2.27682E+04 2.89263E+02 6.08438E+04-8.28294E-10-1.28977E-08
 -1       668 1.63502E+05 2.17993E+04 2.95191E+02 5.96338E+04-5.13347E-09 1.72793E-09
 -1       669 1.62420E+05 2.27430E+04 4.00016E+02 6.08276E+04-4.70067E-10-3.46350E-09
 -1       670 1.63599E+05 2.20165E+04 8.71386E+02 5.96367E+04-7.82597E-09-2.40816E-08
 -1       671 1.62315E+05 2.25554E+04 1.54733E+03 6.08389E+04 1.29306E-09-1.53515E-08
 -1       672 1.64501E+05 2.35219E+04 3.95889E+03 5.94182E+04 4.30850E-09-4.56288E-09
 -1       673 1.61523E+05 2.12758E+04 6.63451E+03 6.10315E+04 4.13559E-09-9.63837E-09
 -1       674 1.70815E+05 3.41810E+04 1.89733E+04 5.75631E+04 3.77554E-10-2.18399E-08
 -1       675 1.56041E+05 1.21949E+04 2.81631E+04 6.25820E+04-1.91858E-09-1.07138E-08
 -1       676 2.41139E+01-2.95921E+05-1.11360E+03-1.37109E+02 1.83468E-09-1.33683E-08
 -1       677-2.94578E+02-2.96191E+05-2.03807E+03 2.73998E+02 1.18340E-08-2.28639E-08
 -1       678 1.97574E+02-2.95729E+05-3.60281E+03-1.36799E+02 1.29944E-09-3.94094E-09
 -1       679-3.60287E+03-2.98366E+05-8.55878E+03 2.72814E+02 8.12315E-09-1.37734E-08
 -1       680 2.15112E+03-2.93747E+05-1.37938E+04-1.34414E+02 9.18590E-10-4.60238E-09
 -1       771-3.06286E+06-7.46898E+05-1.65365E+05-1.46582E+06-3.07336E-08-2.44472E-08
 -1       772-2.98579E+06-8.35626E+05-8.52543E+04-1.56840E+06-2.85509E-08 1.14342E-08
 -1       773-3.09427E+06-7.22399E+05-4.34660E+04-1.48030E+06-1.74914E-08 9.08040E-09
 -1       774-2.97630E+06-8.17176E+05-1.93911E+04-1.59412E+06 2.08238E-08-1.62981E-09
 -1       775-3.11068E+06-7.10882E+05-1.45085E+04-1.48733E+06-1.43482E-08-5.23869E-10
 -1       776-2.98861E+06-8.14154E+05-5.42496E+03-1.61358E+06-2.50584E-08 6.06815E-09
 -1       777-3.12493E+06-7.00603E+05-6.41168E+03-1.49353E+06-2.32831E-10 4.28554E-09
 -1       778-3.00147E+06-8.11343E+05-1.81253E+03-1.63029E+06 5.82077E-09 5.32600E-09
 -1       779-3.13717E+06-6.91621E+05-3.20456E+03-1.49883E+06-7.14499E-09-5.90080E-09
 -1       780-3.01279E+06-8.08660E+05-5.31483E+02-1.64391E+06 1.16415E-10-1.05138E-09
 -1       781-3.14690E+06-6.84380E+05-1.24531E+03-1.50298E+06-2.72266E-08-3.37423E-09
 -1       782-3.02152E+06-8.06382E+05 4.48053E+02-1.65396E+06-3.49028E-08-2.20462E-09
 -1       783-3.15376E+06-6.79348E+05 6.97076E+02-1.50588E+06-7.24685E-09-1.41754E-08
 -1       784-3.02635E+06-8.04106E+05 2.89212E+03-1.66017E+06-1.79571E-08 5.24597E-09
 -1       785-3.15781E+06-6.76348E+05 5.10522E+03-1.50773E+06-3.81588E-08 4.72937E-09
 -1       786 1.23709E+05-9.76957E+03 2.26028E+04-3.21981E+02 5.03208E-09-1.11449E-08
 -1       787 1.33512E+05 1.13110E+04 1.59906E+04-1.35271E+02 8.35743E-09-1.94700E-08
 -1       788 1.27489E+05-1.53091E+03 5.84785E+03-2.86864E+02 2.09046E-09-8.81641E-09
 -1       789 1.29109E+05 1.77200E+03 3.67107E+03-1.89080E+02-9.62022E-10 6.70411E-09
 -1       790 1.28113E+05-2.38360E+02 1.48637E+03-2.68189E+02-4.65420E-09-1.22725E-10
 -1       791 1.28379E+05 2.75789E+02 8.58526E+02-2.21032E+02-8.54154E-09 1.14134E-08
 -1       792 1.28219E+05-3.58274E+01 3.63874E+02-2.54914E+02-4.69292E-09 1.05308E-08
 -1       793 1.28253E+05 3.78857E+01 1.81543E+02-2.45998E+02 1.59468E-09-2.47113E-08
 -1       794 1.28240E+05-6.07413E-01 4.74671E+01-2.43223E+02 4.10073E-09-1.18731E-08
 -1       795 1.28216E+05-2.72387E+01-5.70833E+01-2.70381E+02-6.12248E-09-3.04952E-09
 -1       796 1.28256E+05 2.92606E+01-1.61560E+02-2.30530E+02 3.68044E-09 1.09847E-08
 -1       797 1.28122E+05-2.18476E+02-4.43821E+02-2.99523E+02 3.38687E-09 2.88731E-08
 -1       798 1.28334E+05 1.90486E+02-7.20850E+02-2.14081E+02 3.18000E-09 2.36512E-08
 -1       799 1.27575E+05-1.40405E+03-1.98323E+03-3.40240E+02 5.62817E-09-6.46764E-09
 -1       800 1.28803E+05 1.21387E+03-2.80669E+03-1.89814E+02 5.30070E-10 1.41013E-08
 -1       801-1.69972E+05-9.97384E+06-1.38946E+06 1.40944E+06 9.27248E-08-5.92918E-08
 -1       802 7.34522E+05 5.91178E+06 2.17204E+06-1.73928E+06 2.58908E-07-2.74777E-08
 -1       803-5.34413E+05-1.42219E+07-1.88281E+06 8.94689E+05 7.77072E-08 1.81353E-08
 -1       804 2.85726E+05 2.36816E+06 1.53033E+06 6.75080E+05-1.20570E-07-1.00355E-07
 -1       805 1.88827E+05-6.44437E+06-2.84973E+05-9.99275E+05-4.98840E-08-6.51598E-08
 -1       806-3.08870E+05-5.97461E+04-2.28496E+04-1.22388E+05-1.27598E-08-2.03090E-09
 -1       807-3.10668E+05-5.60159E+04-1.12258E+04-1.27932E+05 6.93717E-10 7.91056E-09
 -1       808-3.09497E+05-5.15113E+04-4.76233E+03-1.26281E+05-6.94945E-09-4.49199E-09
 -1       809-3.08308E+05-5.28616E+04-2.32866E+03-1.28208E+05-8.87985E-09 8.02356E-09
 -1       810-3.09592E+05-5.12246E+04-1.06736E+03-1.26453E+05 5.22323E-09 2.77964E-09
 -1       811-3.08125E+05-5.27349E+04-5.30817E+02-1.28172E+05 1.33559E-09 1.26438E-08
 -1       812-3.09606E+05-5.12493E+04-2.68544E+02-1.26453E+05-8.31733E-09 1.26292E-08
 -1       813-3.08100E+05-5.27371E+04-1.74659E+02-1.28154E+05-9.54242E-09-3.64525E-08
 -1       814-3.09598E+05-5.12590E+04-1.73304E+02-1.26448E+05-1.76988E-09-1.49535E-08
 -1       815-3.08103E+05-5.27393E+04-2.79413E+02-1.28146E+05 6.51244E-09-2.13658E-08
 -1       816-3.09578E+05-5.12582E+04-5.29704E+02-1.26445E+05 9.09131E-09 2.16187E-09
 -1       817-3.08193E+05-5.27898E+04-1.13685E+03-1.28134E+05-1.09844E-08 2.60773E-08
 -1       818-3.09509E+05-5.14187E+04-2.31881E+03-1.26369E+05 2.97405E-10 6.53972E-09
 -1       819-3.09462E+05-5.41907E+04-5.45599E+03-1.27834E+05 1.26547E-08-1.65960E-09
 -1       820-3.09071E+05-5.55403E+04-1.11049E+04-1.24609E+05 5.69617E-09-2.07815E-08
 -1       821-3.78975E+05 2.08695E+04-4.85809E+04 2.12737E+03 1.40704E-08 1.96414E-08
 -1       822-3.98678E+05-2.41761E+04-3.41412E+04-4.46307E+03 5.71386E-09-1.03228E-09
 -1       823-3.86438E+05 3.28980E+03-1.25480E+04 3.43904E+03-1.42279E-08 5.14365E-09
 -1       824-3.89668E+05-3.79375E+03-7.85416E+03-5.37663E+03 3.78684E-10 6.42433E-09
 -1       825-3.87992E+05 5.11279E+02-3.28912E+03 3.04105E+03 2.06745E-08 1.26036E-08
 -1       826-3.87234E+05-5.67271E+02-1.74372E+03-3.10172E+03 2.60169E-08 1.45724E-09
 -1       827-3.88847E+05 4.67455E+01-1.19033E+03 1.16398E+03 1.00464E-08 1.54370E-09
 -1       828-3.86528E+05-1.31904E+02-5.85558E+02 1.09536E+03-1.28858E-09 3.54331E-09
 -1       829-3.88685E+05 6.58307E+01-1.17921E+03-1.15606E+03-2.69466E-10-4.52155E-09
 -1       830-3.87584E+05-6.22037E+02-1.88204E+03 4.88786E+03 1.72452E-09 1.54168E-09
 -1       831-3.87813E+05 5.54537E+02-3.37099E+03-2.62854E+03-5.18842E-09 1.59162E-11
 -1       832-3.89748E+05-3.96057E+03-8.15714E+03 6.17031E+03-2.45387E-09 8.20705E-10
 -1       833-3.86538E+05 3.41394E+03-1.30523E+04-2.43855E+03-2.75448E-09-8.25275E-09
 -1       834-3.98738E+05-2.50905E+04-3.53651E+04 4.19661E+03-2.81720E-09 5.55110E-09
 -1       835-3.78806E+05 2.16515E+04-5.04528E+04-6.54762E+02 6.18877E-09 2.90602E-08
 -1       836-1.41391E+03 3.70222E+05 2.29093E+04-1.61347E+04-7.17046E-09 1.24742E-08
 -1       837 4.88380E+03 3.77397E+05 1.93821E+04-3.29716E+04-7.42637E-09 1.21054E-08
 -1       838-5.57929E+02 3.72234E+05 1.97430E+04-1.60632E+04-6.32645E-09-3.87399E-09
 -1       839 1.24231E+04 3.83012E+05 3.73429E+04-3.30241E+04-6.93035E-09 1.15988E-08
 -1       840-3.84077E+03 3.64547E+05 5.95461E+04-1.60880E+04-6.19548E-09 2.21205E-08
 -1       856-5.21815E+04 8.02494E+03-2.11475E+04-3.97664E+02 4.05794E-09 6.68479E-10
 -1       857-6.08938E+04-9.42903E+03-1.45577E+04 5.63355E+03 3.31195E-09-3.79623E-09
 -1       858-5.56318E+04 1.12542E+03-5.48725E+03-4.21755E+02 5.32026E-09-3.66163E-09
 -1       859-5.69343E+04-1.32399E+03-3.31130E+03 5.66939E+03-1.84818E-09 1.52755E-08
 -1       860-5.61473E+04 1.57610E+02-1.38775E+03-4.33233E+02-1.96167E-09 1.79062E-09
 -1       861-5.63414E+04-1.88135E+02-7.63400E+02 5.68502E+03 1.32462E-09-1.60144E-08
 -1       862-5.62279E+04 2.13492E+01-3.17275E+02-4.37366E+02-4.50342E-11 2.03059E-08
 -1       863-5.62425E+04-2.18227E+01-1.15437E+02 5.68742E+03-1.04283E-09-1.82766E-09
 -1       864-5.62466E+04-4.91805E+00 4.75113E+01-4.35632E+02 2.55412E-10-7.07543E-09
 -1       865-5.61867E+04 5.97924E+01 2.55940E+02 5.67752E+03-2.24998E-09-1.00020E-08
 -1       866-5.62816E+04-6.02822E+01 5.15636E+02-4.27466E+02 3.15327E-09 2.72308E-09
 -1       867-5.59442E+04 4.97805E+02 1.26909E+03 5.65535E+03-3.15526E-09 5.60584E-09
 -1       868-5.64842E+04-4.35019E+02 2.10882E+03-4.13462E+02-1.81780E-09-1.55728E-09
 -1       869-5.43982E+04 3.62050E+03 5.61505E+03 5.61887E+03 2.66849E-09-1.14524E-08
 -1       870-5.78198E+04-3.09816E+03 8.14870E+03-3.90882E+02-3.07728E-09 1.16956E-08
 -1       871-5.51987E+03-2.13391E+04-1.94930E+04 1.30439E+05-4.98585E-09-7.48059E-09
 -1       872-1.98339E+03-2.58716E+04-8.16226E+03 1.69134E+05-9.65156E-09-5.67388E-09
 -1       873 4.04513E+02-2.36795E+04 5.89652E+02 1.30152E+05-5.90899E-09-1.17827E-08
 -1       874 3.30540E+03-2.12683E+04 9.78001E+03 1.69163E+05-1.31013E-08 1.46247E-08
 -1       875 6.84623E+03-2.60094E+04 2.20631E+04 1.30391E+05-5.06770E-09-2.00098E-08
 -1       876 2.93780E+05 4.95122E+04 1.50998E+04 1.17892E+05 3.32989E-09-1.49694E-08
 -1       877 2.94778E+05 5.26921E+04 8.06390E+03 1.22224E+05 3.89809E-09-1.55784E-08
 -1       878 2.95192E+05 4.78395E+04 3.37838E+03 1.19129E+05-5.66433E-09-4.65207E-09
 -1       879 2.92726E+05 5.06437E+04 1.68332E+03 1.22326E+05 5.33873E-10 1.93494E-08
 -1       880 2.95293E+05 4.78222E+04 7.84071E+02 1.19180E+05-4.49018E-09-7.64726E-09
 -1       881 2.92590E+05 5.05560E+04 4.18730E+02 1.22302E+05-8.95602E-09-5.35056E-09
 -1       882 2.95302E+05 4.78355E+04 2.67919E+02 1.19181E+05-1.94359E-09-1.88137E-09
 -1       883 2.92580E+05 5.05515E+04 2.88090E+02 1.22295E+05 1.19729E-09 9.56695E-09
 -1       884 2.95296E+05 4.78327E+04 4.58343E+02 1.19182E+05-4.32169E-09 1.29717E-10
 -1       885 2.92616E+05 5.05578E+04 9.21560E+02 1.22306E+05-1.06356E-08-2.25002E-08
 -1       886 2.95260E+05 4.78058E+04 1.85738E+03 1.19178E+05-5.14600E-09-2.37558E-08
 -1       887 2.92943E+05 5.07719E+04 4.05720E+03 1.22353E+05 9.89806E-09-5.73891E-09
 -1       888 2.95003E+05 4.78510E+04 8.17537E+03 1.19048E+05-7.56870E-11-1.61481E-09
 -1       889 2.97810E+05 5.58334E+04 1.95294E+04 1.22204E+05-4.61277E-09-7.55426E-09
 -1       890 2.91667E+05 5.18147E+04 3.65782E+04 1.15937E+05-3.99359E-09-1.09158E-08
 -1       891-8.95015E+01-1.62776E+05-1.99675E+03 2.71499E+04-3.23439E-09 2.04909E-09
 -1       892-1.75587E+02-1.63303E+05-2.14440E+03 4.12286E+04-1.75078E-10-1.43420E-08
 -1       893 4.35839E+01-1.62840E+05-3.03608E+03 2.71573E+04-2.03977E-09-7.57109E-09
 -1       894-1.51031E+03-1.64450E+05-6.28345E+03 4.10760E+04 3.14935E-09-2.72867E-08
 -1       895-1.19943E+03-1.61531E+05-1.10650E+04 2.73043E+04 3.62206E-10 1.48430E-08
 -1       956-3.77237E+05-5.44961E+03-1.34535E+04 3.08583E+04 1.31977E-08-1.99648E-08
 -1       957-3.79876E+05-1.92214E+03-6.90547E+03 3.70838E+04 1.06461E-08-6.96627E-09
 -1       958-3.78446E+05-2.40564E+02-3.11183E+03 3.06906E+04 2.82125E-09 6.62112E-10
 -1       959-3.78642E+05-1.35817E+02-1.58895E+03 3.72794E+04 1.13687E-11 5.94582E-09
 -1       960-3.78564E+05-4.44415E+01-7.74848E+02 3.06733E+04 1.60935E-08 4.14525E-09
 -1       961-3.78562E+05-6.27812E+01-4.10816E+02 3.72998E+04 3.47131E-08-1.47049E-08
 -1       962-3.78592E+05-4.56684E+01-2.35204E+02 3.06704E+04 2.48278E-08 5.16548E-09
 -1       963-3.78562E+05-5.85911E+01-1.88816E+02 3.73035E+04 1.56277E-08 2.15957E-08
 -1       964-3.78597E+05-4.23157E+01-2.29622E+02 3.06696E+04 8.77917E-09 2.47837E-09
 -1       965-3.78575E+05-5.56333E+01-3.97158E+02 3.73028E+04-4.38831E-09-1.57806E-08
 -1       966-3.78581E+05-3.44777E+01-7.46253E+02 3.06712E+04 1.20663E-08 1.65492E-08
 -1       967-3.78664E+05-1.19188E+02-1.53055E+03 3.72884E+04 1.09603E-08 2.00407E-09
 -1       968-3.78477E+05-2.16995E+02-2.99627E+03 3.06838E+04 4.57749E-09-1.65142E-09
 -1       969-3.79865E+05-1.83425E+03-6.65165E+03 3.71399E+04 2.14550E-09-7.54977E-09
 -1       970-3.77320E+05-5.23060E+03-1.29578E+04 3.08111E+04-3.43789E-10-5.17866E-09
 -1       971-3.45402E+05-1.72746E+03-9.31059E+03 1.53781E+04 2.63572E-09-2.33686E-09
 -1       972-3.47644E+05-1.27168E+03-5.07045E+03 2.12684E+04-8.27640E-11-9.42237E-10
 -1       973-3.46440E+05-6.19046E+01-2.27111E+03 1.52570E+04 3.01679E-09 6.16228E-09
 -1       974-3.46575E+05-8.08964E+01-1.17727E+03 2.14055E+04 2.64640E-09-8.01765E-09
 -1       975-3.46522E+05-1.70252E+01-5.88939E+02 1.52446E+04-5.47061E-10-6.77687E-09
 -1       976-3.46513E+05-3.10479E+01-3.40620E+02 2.14213E+04-9.46557E-10-1.80307E-09
 -1       977-3.46538E+05-1.62785E+01-2.48729E+02 1.52412E+04-6.95081E-09-1.31331E-09
 -1       978-3.46519E+05-2.48217E+01-2.93126E+02 2.14262E+04-9.29583E-09 9.94839E-09
 -1       979-3.46538E+05-7.79926E+00-4.72733E+02 1.52398E+04-8.61445E-09 1.12834E-09
 -1       980-3.46554E+05-2.17598E+01-9.13900E+02 2.14272E+04-9.27565E-09 1.78864E-09
 -1       981-3.46509E+05 1.50444E+01-1.77059E+03 1.52403E+04-3.55635E-09-5.82736E-09
 -1       982-3.46797E+05-1.52587E+02-3.66011E+03 2.14205E+04-2.85013E-09 3.24204E-08
 -1       983-3.46286E+05-9.83313E+01-7.11178E+03 1.52464E+04-3.21370E-09 1.60057E-08
 -1       984-3.50218E+05-3.86686E+03-1.59266E+04 2.13349E+04-8.24002E-10 2.22349E-09
 -1       985-3.43066E+05-5.30229E+03-2.92462E+04 1.53178E+04-4.21778E-09-6.20275E-09
 -3
    1PSTEP                        35          18           1          
  100CL  118 6.62946E-01         409                     0   18           1
 -4  DISP        4    1
 -5  D1          1    2    1    0
 -5  D2          1    2    2    0
 -5  D3          1    2    3    0
 -5  ALL         1    2    0    0    1ALL
 -1         1 2.71179E-03 0.00000E+00 0.00000E+00
 -1         2 1.36033E-03-2.49401E-28-5.29396E-23
 -1         3 3.42498E-04-6.00491E-28 1.32349E-23
 -1         5 1.77052E-04-1.24756E-27 1.65436E-24
 -1         8 2.70074E-03-4.08521E-07 0.00000E+00
 -1         9 2.69414E-03-1.87151E-04 0.00000E+00
 -1        10 3.10557E-04-3.41048E-06 6.61744E-24
 -1        12 1.78895E-04 8.09225E-07 8.27181E-25
 -1        15 2.68806E-03-4.32766E-07 0.00000E+00
 -1        16 2.75886E-03-1.88982E-04 0.00000E+00
 -1        17 2.11353E-04-7.77572E-06 0.00000E+00
 -1        18 1.82831E-04 3.43661E-05 0.00000E+00
 -1        19 1.84424E-04 1.61204E-06 0.00000E+00
 -1        20 1.84563E-04-9.83200E-06 0.00000E+00
 -1        21 1.83671E-04-2.53163E-05-3.30872E-24
 -1        24 3.06129E-05-1.19991E-05 0.00000E+00
 -1        25 1.93596E-04 3.45919E-05 0.00000E+00
 -1        26 1.94276E-04 2.23222E-06 0.00000E+00
 -1        27 1.92075E-04-1.33907E-05 0.00000E+00
 -1        28 1.91760E-04-2.59384E-05 0.00000E+00
 -1        32 0.00000E+00 0.00000E+00 0.00000E+00
 -1        33 2.03124E-04 2.98609E-06 0.00000E+00
 -1        34 2.01006E-04-1.34468E-05 0.00000E+00
 -1        35 1.99074E-04-2.62808E-05 0.00000E+00
 -1        51 2.71105E-03-8.54052E-08 6.61744E-24
 -1        52 2.70969E-03-1.52477E-07 0.00000E+00
 -1        53 2.70785E-03-2.16105E-07 0.00000E+00
 -1        54 2.70566E-03-2.78523E-07 0.00000E+00
 -1        55 2.70324E-03-3.41490E-07 1.65436E-24
 -1        56 2.70428E-03 8.03843E-06-5.29396E-23
 -1        57 2.68976E-03 3.34188E-05 5.29396E-23
 -1        58 2.67038E-03 7.06702E-05-1.05879E-22
 -1        59 2.64876E-03 1.13185E-04-5.29396E-23
 -1        60 2.62808E-03 1.53455E-04 0.00000E+00
 -1        61 2.61138E-03 1.84151E-04 0.00000E+00
 -1        62 2.60076E-03 1.99658E-04 0.00000E+00
 -1        63 2.59760E-03 1.95709E-04 5.29396E-23
 -1        64 2.60172E-03 1.71606E-04 0.00000E+00
 -1        65 2.61230E-03 1.28548E-04 0.00000E+00
 -1        66 2.62748E-03 7.13229E-05 1.05879E-22
 -1        67 2.64515E-03 6.10290E-06 0.00000E+00
 -1        68 2.66291E-03-5.93950E-05 1.05879E-22
 -1        69 2.67837E-03-1.17420E-04-5.29396E-23
 -1        70 2.68937E-03-1.61669E-04-5.29396E-23
 -1        86 1.44416E-03-5.94549E-06-5.29396E-23
 -1        87 1.68686E-03-3.72383E-05 0.00000E+00
 -1        88 2.01319E-03-9.09813E-05 2.64698E-23
 -1        89 2.34388E-03-1.46194E-04-1.32349E-23
 -1        90 2.59714E-03-1.79990E-04 0.00000E+00
 -1       121 3.41601E-04-5.50691E-07 0.00000E+00
 -1       122 3.38914E-04-1.10447E-06-6.61744E-24
 -1       123 3.34446E-04-1.66437E-06 1.32349E-23
 -1       124 3.28214E-04-2.23343E-06 6.61744E-24
 -1       125 3.20241E-04-2.81430E-06 0.00000E+00
 -1       191 1.77103E-04 1.34934E-07 8.27181E-25
 -1       192 1.77257E-04 2.69857E-07 8.27181E-25
 -1       193 1.77512E-04 4.04760E-07 0.00000E+00
 -1       194 1.77871E-04 5.39631E-07 1.24077E-24
 -1       195 1.78331E-04 6.74457E-07-3.30872E-24
 -1       251 2.70043E-03 1.71619E-06 6.61744E-24
 -1       252 2.70013E-03 3.77408E-06-3.30872E-24
 -1       253 2.69982E-03 4.78613E-06-6.61744E-24
 -1       254 2.69952E-03 3.78634E-06-3.30872E-24
 -1       255 2.69920E-03 1.14670E-07 6.61744E-24
 -1       256 2.69887E-03-6.85542E-06 0.00000E+00
 -1       257 2.69851E-03-1.72492E-05 6.61744E-24
 -1       258 2.69811E-03-3.11489E-05 0.00000E+00
 -1       259 2.69767E-03-4.81046E-05 0.00000E+00
 -1       260 2.69718E-03-6.76275E-05 0.00000E+00
 -1       261 2.69666E-03-8.88388E-05 0.00000E+00
 -1       262 2.69612E-03-1.10839E-04 0.00000E+00
 -1       263 2.69558E-03-1.32608E-04 1.32349E-23
 -1       264 2.69507E-03-1.53130E-04 6.61744E-24
 -1       265 2.69459E-03-1.71578E-04 1.32349E-23
 -1       266 2.69862E-03-4.18252E-07 3.30872E-24
 -1       267 2.69651E-03-4.21600E-07 0.00000E+00
 -1       268 2.69440E-03-4.25351E-07 0.00000E+00
 -1       269 2.69229E-03-4.27905E-07 2.06795E-25
 -1       270 2.69017E-03-4.30430E-07 0.00000E+00
 -1       271 2.69985E-03 1.67113E-07 0.00000E+00
 -1       272 2.69988E-03-1.79136E-06 0.00000E+00
 -1       273 2.70081E-03-6.13990E-06-1.32349E-23
 -1       274 2.70256E-03-1.27229E-05-1.32349E-23
 -1       275 2.70506E-03-2.13641E-05 0.00000E+00
 -1       276 2.70824E-03-3.18726E-05 0.00000E+00
 -1       277 2.71203E-03-4.40412E-05-2.64698E-23
 -1       278 2.71634E-03-5.76497E-05 0.00000E+00
 -1       279 2.72108E-03-7.24666E-05-2.64698E-23
 -1       280 2.72617E-03-8.82500E-05 0.00000E+00
 -1       281 2.73151E-03-1.04750E-04 1.32349E-23
 -1       282 2.73702E-03-1.21712E-04 6.61744E-24
 -1       283 2.74260E-03-1.38877E-04 1.32349E-23
 -1       284 2.74817E-03-1.55983E-04 0.00000E+00
 -1       285 2.75361E-03-1.72771E-04-1.32349E-23
 -1       301 2.70598E-03-1.87491E-04 0.00000E+00
 -1       302 2.71607E-03-1.87784E-04 3.30872E-24
 -1       303 2.72542E-03-1.88066E-04 1.32349E-23
 -1       304 2.73501E-03-1.88349E-04 0.00000E+00
 -1       305 2.74583E-03-1.88646E-04 2.64698E-23
 -1       306 2.73204E-03-3.41746E-04 0.00000E+00
 -1       307 2.79593E-03-7.55695E-04 0.00000E+00
 -1       308 2.84266E-03-1.36078E-03-1.05879E-22
 -1       309 2.86659E-03-2.06101E-03 0.00000E+00
 -1       310 2.89799E-03-2.73069E-03-1.05879E-22
 -1       311 2.95750E-03-3.24684E-03 5.29396E-23
 -1       312 3.01533E-03-3.52887E-03 1.05879E-22
 -1       313 3.01066E-03-3.53897E-03 0.00000E+00
 -1       314 2.86971E-03-3.28920E-03 1.05879E-22
 -1       315 2.55163E-03-2.84400E-03-5.29396E-23
 -1       316 2.07480E-03-2.27997E-03 0.00000E+00
 -1       317 1.50512E-03-1.66641E-03 5.29396E-23
 -1       318 9.56831E-04-1.06396E-03 0.00000E+00
 -1       319 5.37854E-04-5.37589E-04 5.29396E-23
 -1       320 2.91934E-04-1.61401E-04-1.05879E-22
 -1       336 2.98975E-04-4.06960E-06-1.32349E-23
 -1       337 2.85319E-04-4.75438E-06-6.61744E-24
 -1       338 2.69651E-04-5.46704E-06 0.00000E+00
 -1       339 2.52044E-04-6.20838E-06 0.00000E+00
 -1       340 2.32581E-04-6.98286E-06 1.32349E-23
 -1       406 1.79560E-04 9.43916E-07 1.65436E-24
 -1       407 1.80328E-04 1.07849E-06-1.24077E-24
 -1       408 1.81199E-04 1.21291E-06-2.48154E-24
 -1       409 1.82172E-04 1.34698E-06 2.06795E-25
 -1       410 1.83247E-04 1.48044E-06-2.06795E-24
 -1       521 2.79737E-03-3.52926E-04-1.05879E-22
 -1       522 2.85948E-03-7.87189E-04 5.29396E-23
 -1       523 2.89976E-03-1.42012E-03-1.05879E-22
 -1       524 2.91447E-03-2.14899E-03 5.29396E-23
 -1       525 2.93796E-03-2.84528E-03 0.00000E+00
 -1       526 2.99393E-03-3.38344E-03-5.29396E-23
 -1       527 3.05134E-03-3.67603E-03 0.00000E+00
 -1       528 3.04435E-03-3.68431E-03 5.29396E-23
 -1       529 2.89136E-03-3.42035E-03 2.11758E-22
 -1       530 2.54926E-03-2.95654E-03 5.29396E-23
 -1       531 2.03726E-03-2.37328E-03 0.00000E+00
 -1       532 1.42770E-03-1.74246E-03 5.29396E-23
 -1       533 8.40209E-04-1.12209E-03 0.00000E+00
 -1       534 3.87868E-04-5.74815E-04 0.00000E+00
 -1       535 1.20703E-04-1.79064E-04-2.11758E-22
 -1       536 2.10599E-04 2.71232E-05 0.00000E+00
 -1       537 2.08683E-04 8.75204E-05-1.65436E-24
 -1       538 2.05724E-04 1.64155E-04-3.30872E-24
 -1       539 2.02232E-04 2.47683E-04-1.65436E-24
 -1       540 1.99091E-04 3.26611E-04 0.00000E+00
 -1       541 1.97049E-04 3.89467E-04 0.00000E+00
 -1       542 1.96106E-04 4.29501E-04-3.30872E-24
 -1       543 1.95882E-04 4.40114E-04-1.65436E-24
 -1       544 1.95559E-04 4.22080E-04-3.30872E-24
 -1       545 1.94388E-04 3.76393E-04 0.00000E+00
 -1       546 1.92206E-04 3.11173E-04-3.30872E-24
 -1       547 1.89252E-04 2.34662E-04 1.65436E-24
 -1       548 1.86325E-04 1.58529E-04 3.30872E-24
 -1       549 1.84214E-04 9.44389E-05 0.00000E+00
 -1       550 1.83117E-04 5.04183E-05 0.00000E+00
 -1       551 1.86168E-04-8.34502E-06 0.00000E+00
 -1       552 1.57740E-04-8.99468E-06 0.00000E+00
 -1       553 1.27012E-04-9.70650E-06 6.61744E-24
 -1       554 9.49417E-05-1.04594E-05 6.61744E-24
 -1       555 6.24905E-05-1.12259E-05 0.00000E+00
 -1       556 2.03710E-04 1.17657E-05 0.00000E+00
 -1       557 1.97536E-04 2.76139E-05 0.00000E+00
 -1       558 1.92695E-04 4.00565E-05 0.00000E+00
 -1       559 1.89056E-04 4.94040E-05 2.64698E-23
 -1       560 1.86488E-04 5.59669E-05 0.00000E+00
 -1       561 1.84862E-04 6.00584E-05 0.00000E+00
 -1       562 1.84055E-04 6.19931E-05 0.00000E+00
 -1       563 1.83942E-04 6.20864E-05-1.32349E-23
 -1       564 1.84401E-04 6.06544E-05 0.00000E+00
 -1       565 1.85311E-04 5.80142E-05 0.00000E+00
 -1       566 1.86553E-04 5.44832E-05 0.00000E+00
 -1       567 1.88008E-04 5.03793E-05 0.00000E+00
 -1       568 1.89558E-04 4.60207E-05 1.65436E-24
 -1       569 1.91084E-04 4.17252E-05 0.00000E+00
 -1       570 1.92469E-04 3.78112E-05 0.00000E+00
 -1       571 1.82927E-04 3.22409E-05 0.00000E+00
 -1       572 1.83026E-04 3.00500E-05 1.65436E-24
 -1       573 1.83125E-04 2.78091E-05-3.30872E-24
 -1       574 1.83224E-04 2.55346E-05 0.00000E+00
 -1       575 1.83324E-04 2.32428E-05 0.00000E+00
 -1       576 1.83423E-04 2.09502E-05 1.65436E-24
 -1       577 1.83523E-04 1.86734E-05 0.00000E+00
 -1       578 1.83622E-04 1.64289E-05 0.00000E+00
 -1       579 1.83722E-04 1.42332E-05 0.00000E+00
 -1       580 1.83822E-04 1.21028E-05 0.00000E+00
 -1       581 1.83922E-04 1.00542E-05 0.00000E+00
 -1       582 1.84022E-04 8.10393E-06 0.00000E+00
 -1       583 1.84122E-04 6.26846E-06 6.61744E-24
 -1       584 1.84223E-04 4.56412E-06 0.00000E+00
 -1       585 1.84323E-04 3.00705E-06 0.00000E+00
 -1       586 1.84584E-04 3.44059E-05 1.65436E-24
 -1       587 1.86296E-04 3.44451E-05 4.13590E-25
 -1       588 1.88010E-04 3.44839E-05 0.00000E+00
 -1       589 1.89769E-04 3.45221E-05 0.00000E+00
 -1       590 1.91617E-04 3.45590E-05 0.00000E+00
 -1       591 1.83559E-04 3.23346E-05-1.03398E-25
 -1       592 1.84290E-04 3.02832E-05 0.00000E+00
 -1       593 1.85027E-04 2.82179E-05 0.00000E+00
 -1       594 1.85766E-04 2.61431E-05 4.13590E-25
 -1       595 1.86507E-04 2.40639E-05 0.00000E+00
 -1       596 1.87248E-04 2.19847E-05 0.00000E+00
 -1       597 1.87987E-04 1.99104E-05 0.00000E+00
 -1       598 1.88722E-04 1.78456E-05 0.00000E+00
 -1       599 1.89452E-04 1.57950E-05-8.27181E-25
 -1       600 1.90175E-04 1.37632E-05 0.00000E+00
 -1       601 1.90890E-04 1.17550E-05 8.27181E-25
 -1       602 1.91594E-04 9.77494E-06 0.00000E+00
 -1       603 1.92285E-04 7.82782E-06 4.13590E-25
 -1       604 1.92964E-04 5.91839E-06-1.03398E-25
 -1       605 1.93626E-04 4.05124E-06 0.00000E+00
 -1       606 1.84437E-04 4.50310E-07 0.00000E+00
 -1       607 1.84447E-04-6.25622E-07 0.00000E+00
 -1       608 1.84456E-04-1.62079E-06 0.00000E+00
 -1       609 1.84464E-04-2.54087E-06-1.65436E-24
 -1       610 1.84472E-04-3.39160E-06 0.00000E+00
 -1       611 1.84481E-04-4.17878E-06 0.00000E+00
 -1       612 1.84489E-04-4.90818E-06 0.00000E+00
 -1       613 1.84497E-04-5.58564E-06 0.00000E+00
 -1       614 1.84506E-04-6.21696E-06 0.00000E+00
 -1       615 1.84514E-04-6.80793E-06-8.27181E-25
 -1       616 1.84522E-04-7.36438E-06 0.00000E+00
 -1       617 1.84531E-04-7.89212E-06 0.00000E+00
 -1       618 1.84539E-04-8.39693E-06 0.00000E+00
 -1       619 1.84548E-04-8.88465E-06 0.00000E+00
 -1       620 1.84556E-04-9.36107E-06 0.00000E+00
 -1       621 1.85780E-04 1.71597E-06 0.00000E+00
 -1       622 1.87295E-04 1.82015E-06-8.27181E-25
 -1       623 1.88935E-04 1.92411E-06-3.30872E-24
 -1       624 1.90668E-04 2.02774E-06 1.65436E-24
 -1       625 1.92459E-04 2.13108E-06 3.30872E-24
 -1       626 1.84972E-04 4.86428E-07 0.00000E+00
 -1       627 1.85496E-04-5.76174E-07 0.00000E+00
 -1       628 1.86001E-04-1.58362E-06 6.61744E-24
 -1       629 1.86488E-04-2.54406E-06-1.65436E-24
 -1       630 1.86961E-04-3.46570E-06 3.30872E-24
 -1       631 1.87422E-04-4.35675E-06 0.00000E+00
 -1       632 1.87875E-04-5.22539E-06 0.00000E+00
 -1       633 1.88322E-04-6.07987E-06 0.00000E+00
 -1       634 1.88768E-04-6.92837E-06 0.00000E+00
 -1       635 1.89214E-04-7.77910E-06-1.65436E-24
 -1       636 1.89664E-04-8.64029E-06 0.00000E+00
 -1       637 1.90121E-04-9.52013E-06-1.65436E-24
 -1       638 1.90588E-04-1.04268E-05 1.65436E-24
 -1       639 1.91068E-04-1.13687E-05 0.00000E+00
 -1       640 1.91563E-04-1.23538E-05 1.65436E-24
 -1       656 1.85267E-04-1.04104E-05 0.00000E+00
 -1       657 1.86390E-04-1.10123E-05 0.00000E+00
 -1       658 1.87794E-04-1.16128E-05 1.32349E-23
 -1       659 1.89332E-04-1.22130E-05 6.61744E-24
 -1       660 1.90821E-04-1.28150E-05 6.61744E-24
 -1       661 1.84827E-04-1.03480E-05 0.00000E+00
 -1       662 1.85128E-04-1.09560E-05 0.00000E+00
 -1       663 1.85461E-04-1.16505E-05 0.00000E+00
 -1       664 1.85825E-04-1.24253E-05 8.27181E-25
 -1       665 1.86216E-04-1.32743E-05-1.65436E-24
 -1       666 1.86634E-04-1.41918E-05 8.27181E-25
 -1       667 1.87075E-04-1.51719E-05 0.00000E+00
 -1       668 1.87537E-04-1.62093E-05 8.27181E-25
 -1       669 1.88018E-04-1.72983E-05-1.65436E-24
 -1       670 1.88517E-04-1.84338E-05 0.00000E+00
 -1       671 1.89031E-04-1.96105E-05 0.00000E+00
 -1       672 1.89559E-04-2.08233E-05 0.00000E+00
 -1       673 1.90098E-04-2.20672E-05 0.00000E+00
 -1       674 1.90646E-04-2.33375E-05-4.13590E-25
 -1       675 1.91202E-04-2.46289E-05 2.06795E-25
 -1       676 1.85024E-04-2.54206E-05 0.00000E+00
 -1       677 1.86376E-04-2.55248E-05-1.65436E-24
 -1       678 1.87726E-04-2.56290E-05 3.30872E-24
 -1       679 1.89074E-04-2.57329E-05 0.00000E+00
 -1       680 1.90419E-04-2.58367E-05 1.65436E-24
 -1       771 1.86681E-05 1.47113E-05 0.00000E+00
 -1       772 8.61867E-06 3.66490E-05 0.00000E+00
 -1       773 3.73957E-07 5.40440E-05 0.00000E+00
 -1       774-6.19027E-06 6.71540E-05 0.00000E+00
 -1       775-1.11956E-05 7.62474E-05-5.29396E-23
 -1       776-1.47684E-05 8.16089E-05-2.64698E-23
 -1       777-1.70350E-05 8.35337E-05 5.29396E-23
 -1       778-1.81242E-05 8.23305E-05 2.64698E-23
 -1       779-1.81642E-05 7.83167E-05 5.29396E-23
 -1       780-1.72853E-05 7.18212E-05 0.00000E+00
 -1       781-1.56166E-05 6.31793E-05 5.29396E-23
 -1       782-1.32891E-05 5.27357E-05 0.00000E+00
 -1       783-1.04327E-05 4.08392E-05-5.29396E-23
 -1       784-7.17863E-06 2.78452E-05 2.64698E-23
 -1       785-3.65707E-06 1.41119E-05 0.00000E+00
 -1       786 1.93634E-04 3.23416E-05-1.29247E-26
 -1       787 1.93676E-04 3.01414E-05 4.13590E-25
 -1       788 1.93718E-04 2.79830E-05-8.27181E-25
 -1       789 1.93760E-04 2.58582E-05 8.27181E-25
 -1       790 1.93802E-04 2.37623E-05 1.65436E-24
 -1       791 1.93845E-04 2.16905E-05-8.27181E-25
 -1       792 1.93888E-04 1.96406E-05 0.00000E+00
 -1       793 1.93931E-04 1.76105E-05-8.27181E-25
 -1       794 1.93974E-04 1.55998E-05 1.65436E-24
 -1       795 1.94016E-04 1.36085E-05 0.00000E+00
 -1       796 1.94059E-04 1.16385E-05 0.00000E+00
 -1       797 1.94102E-04 9.69145E-06 8.27181E-25
 -1       798 1.94145E-04 7.77173E-06 1.65436E-24
 -1       799 1.94189E-04 5.88362E-06-8.27181E-25
 -1       800 1.94232E-04 4.03458E-06 1.65436E-24
 -1       801 1.47847E-04 3.10972E-05 0.00000E+00
 -1       802 9.51914E-06 1.94019E-05-2.64698E-23
 -1       803-1.08647E-04 9.80061E-06 0.00000E+00
 -1       804-9.63286E-05 6.82117E-06 0.00000E+00
 -1       805-3.18287E-05 2.68141E-06 0.00000E+00
 -1       806 1.94325E-04 3.22729E-05 1.65436E-24
 -1       807 1.95039E-04 2.99800E-05 0.00000E+00
 -1       808 1.95741E-04 2.77186E-05 3.30872E-24
 -1       809 1.96430E-04 2.54927E-05 0.00000E+00
 -1       810 1.97103E-04 2.33063E-05 0.00000E+00
 -1       811 1.97761E-04 2.11634E-05-1.65436E-24
 -1       812 1.98400E-04 1.90679E-05 3.30872E-24
 -1       813 1.99021E-04 1.70238E-05 0.00000E+00
 -1       814 1.99620E-04 1.50349E-05-3.30872E-24
 -1       815 2.00198E-04 1.31051E-05-8.27181E-25
 -1       816 2.00753E-04 1.12384E-05 3.30872E-24
 -1       817 2.01282E-04 9.43860E-06 1.65436E-24
 -1       818 2.01785E-04 7.70962E-06 1.65436E-24
 -1       819 2.02260E-04 6.05534E-06-8.27181E-25
 -1       820 2.02707E-04 4.47957E-06-1.65436E-24
 -1       821 1.94146E-04-1.26540E-07 1.65436E-24
 -1       822 1.94006E-04-3.63934E-06 0.00000E+00
 -1       823 1.93864E-04-7.87812E-06 0.00000E+00
 -1       824 1.93719E-04-1.24103E-05-1.65436E-24
 -1       825 1.93575E-04-1.67239E-05 3.30872E-24
 -1       826 1.93433E-04-2.03084E-05 0.00000E+00
 -1       827 1.93294E-04-2.28516E-05-3.30872E-24
 -1       828 1.93158E-04-2.40479E-05 1.65436E-24
 -1       829 1.93022E-04-2.39584E-05 3.30872E-24
 -1       830 1.92886E-04-2.26517E-05-1.65436E-24
 -1       831 1.92748E-04-2.05280E-05-3.30872E-24
 -1       832 1.92610E-04-1.79924E-05-1.65436E-24
 -1       833 1.92471E-04-1.55624E-05 0.00000E+00
 -1       834 1.92336E-04-1.37545E-05 0.00000E+00
 -1       835 1.92202E-04-1.29167E-05 0.00000E+00
 -1       836 1.95963E-04 2.35723E-06-3.30872E-24
 -1       837 1.97523E-04 2.48539E-06 0.00000E+00
 -1       838 1.98988E-04 2.61349E-06 3.30872E-24
 -1       839 2.00388E-04 2.74089E-06-8.27181E-25
 -1       840 2.01757E-04 2.86813E-06-8.27181E-25
 -1       856 1.92059E-04-1.44499E-05-8.27181E-25
 -1       857 1.92040E-04-1.53734E-05 0.00000E+00
 -1       858 1.92021E-04-1.61823E-05-2.06795E-25
 -1       859 1.92001E-04-1.68977E-05 0.00000E+00
 -1       860 1.91981E-04-1.75409E-05 0.00000E+00
 -1       861 1.91962E-04-1.81331E-05-2.06795E-25
 -1       862 1.91942E-04-1.86956E-05 4.13590E-25
 -1       863 1.91922E-04-1.92498E-05 0.00000E+00
 -1       864 1.91902E-04-1.98170E-05-8.27181E-25
 -1       865 1.91882E-04-2.04185E-05-4.13590E-25
 -1       866 1.91863E-04-2.10757E-05 8.27181E-25
 -1       867 1.91843E-04-2.18098E-05 4.13590E-25
 -1       868 1.91823E-04-2.26420E-05 0.00000E+00
 -1       869 1.91802E-04-2.35935E-05-4.13590E-25
 -1       870 1.91782E-04-2.46853E-05 0.00000E+00
 -1       871 1.93422E-04-1.33956E-05-8.27181E-25
 -1       872 1.94917E-04-1.34039E-05 0.00000E+00
 -1       873 1.96490E-04-1.34129E-05 0.00000E+00
 -1       874 1.98075E-04-1.34227E-05-2.32645E-25
 -1       875 1.99603E-04-1.34330E-05 1.24077E-24
 -1       876 1.92600E-04-1.44353E-05-3.30872E-24
 -1       877 1.93102E-04-1.54132E-05 1.65436E-24
 -1       878 1.93582E-04-1.63323E-05-3.30872E-24
 -1       879 1.94044E-04-1.71998E-05 0.00000E+00
 -1       880 1.94489E-04-1.80234E-05 3.30872E-24
 -1       881 1.94920E-04-1.88103E-05 0.00000E+00
 -1       882 1.95341E-04-1.95678E-05-3.30872E-24
 -1       883 1.95753E-04-2.03034E-05-1.65436E-24
 -1       884 1.96160E-04-2.10244E-05 0.00000E+00
 -1       885 1.96564E-04-2.17381E-05 0.00000E+00
 -1       886 1.96968E-04-2.24518E-05 0.00000E+00
 -1       887 1.97375E-04-2.31729E-05-1.65436E-24
 -1       888 1.97787E-04-2.39087E-05-3.30872E-24
 -1       889 1.98206E-04-2.46668E-05 1.65436E-24
 -1       890 1.98636E-04-2.54544E-05 0.00000E+00
 -1       891 1.93121E-04-2.59959E-05 0.00000E+00
 -1       892 1.94459E-04-2.60536E-05 8.27181E-25
 -1       893 1.95748E-04-2.61112E-05 0.00000E+00
 -1       894 1.96964E-04-2.61685E-05 0.00000E+00
 -1       895 1.98080E-04-2.62256E-05-4.13590E-25
 -1       956 2.02994E-04 1.66725E-06 1.65436E-24
 -1       957 2.02862E-04 4.39965E-07-8.27181E-25
 -1       958 2.02729E-04-7.06507E-07 0.00000E+00
 -1       959 2.02596E-04-1.78350E-06 0.00000E+00
 -1       960 2.02463E-04-2.80242E-06 3.30872E-24
 -1       961 2.02330E-04-3.77466E-06-1.65436E-24
 -1       962 2.02198E-04-4.71167E-06 0.00000E+00
 -1       963 2.02065E-04-5.62489E-06 0.00000E+00
 -1       964 2.01932E-04-6.52577E-06 3.30872E-24
 -1       965 2.01799E-04-7.42575E-06 1.65436E-24
 -1       966 2.01667E-04-8.33629E-06-3.30872E-24
 -1       967 2.01534E-04-9.26883E-06 0.00000E+00
 -1       968 2.01401E-04-1.02348E-05-6.61744E-24
 -1       969 2.01269E-04-1.12456E-05-3.30872E-24
 -1       970 2.01136E-04-1.23126E-05-3.30872E-24
 -1       971 2.00886E-04-1.45806E-05 0.00000E+00
 -1       972 2.00765E-04-1.56198E-05 1.65436E-24
 -1       973 2.00643E-04-1.65748E-05 3.30872E-24
 -1       974 2.00522E-04-1.74566E-05 0.00000E+00
 -1       975 2.00401E-04-1.82759E-05 0.00000E+00
 -1       976 2.00279E-04-1.90436E-05 1.65436E-24
 -1       977 2.00158E-04-1.97706E-05-3.30872E-24
 -1       978 2.00036E-04-2.04678E-05 0.00000E+00
 -1       979 1.99915E-04-2.11461E-05-3.30872E-24
 -1       980 1.99794E-04-2.18165E-05 1.65436E-24
 -1       981 1.99672E-04-2.24897E-05 0.00000E+00
 -1       982 1.99551E-04-2.31767E-05 1.65436E-24
 -1       983 1.99430E-04-2.38885E-05 0.00000E+00
 -1       984 1.99309E-04-2.46359E-05 0.00000E+00
 -1       985 1.99189E-04-2.54298E-05 3.30872E-24
 -3
    1PSTEP                        36          18           1          
  100CL  118 6.62946E-01         409                     0   18           1
 -4  FORC        4    1
 -5  F1          1    2    1    0
 -5  F2          1    2    2    0
 -5  F3          1    2    3    0
 -5  ALL         1    2    0    0    1ALL
 -1         1 2.20272E-04 0.00000E+00 0.00000E+00
 -1         2 0.00000E+00 0.00000E+00 0.00000E+00
 -1         3 0.00000E+00 0.00000E+00 0.00000E+00
 -1         5 0.00000E+00 0.00000E+00 0.00000E+00
 -1         8 1.27954E-05-1.09921E-05 0.00000E+00
 -1         9-6.01748E-04 1.52228E-05 0.00000E+00
 -1        10-1.87875E-09 1.11149E-08 0.00000E+00
 -1        12 0.00000E+00 0.00000E+00 0.00000E+00
 -1        15 0.00000E+00 0.00000E+00 0.00000E+00
 -1        16-8.54847E-05-8.32193E-04 0.00000E+00
 -1        17-1.31199E-05 7.34623E-06 0.00000E+00
 -1        18 1.21856E-07 1.00637E-07 0.00000E+00
 -1        19 3.46142E-08-7.89997E-09 0.00000E+00
 -1        20-5.72856E-08 6.36185E-09 0.00000E+00
 -1        21 0.00000E+00 2.27866E-08 0.00000E+00
 -1        24-3.54962E-05 1.14540E-05 0.00000E+00
 -1        25 6.70585E-08-6.24816E-08 0.00000E+00
 -1        26-3.70620E-08-2.64392E-08 0.00000E+00
 -1        27-1.90648E-08 3.63635E-08 0.00000E+00
 -1        28-1.77638E-08 1.08399E-08 0.00000E+00
 -1        32 0.00000E+00 0.00000E+00 0.00000E+00
 -1        33-2.47528E-09-4.65891E-08 0.00000E+00
 -1        34-1.35641E-08-4.80724E-08 0.00000E+00
 -1        35-8.06213E-08-5.18295E-08 0.00000E+00
 -1        51 0.00000E+00 0.00000E+00 0.00000E+00
 -1        52 0.00000E+00 0.00000E+00 0.00000E+00
 -1        53 0.00000E+00 0.00000E+00 0.00000E+00
 -1        54 0.00000E+00 0.00000E+00 0.00000E+00
 -1        55 0.00000E+00 0.00000E+00 0.00000E+00
 -1        56 0.00000E+00 0.00000E+00 0.00000E+00
 -1        57 0.00000E+00 0.00000E+00 0.00000E+00
 -1        58 0.00000E+00 0.00000E+00 0.00000E+00
 -1        59 0.00000E+00 0.00000E+00 0.00000E+00
 -1        60 0.00000E+00 0.00000E+00 0.00000E+00
 -1        61 0.00000E+00 0.00000E+00 0.00000E+00
 -1        62 0.00000E+00 0.00000E+00 0.00000E+00
 -1        63 0.00000E+00 0.00000E+00 0.00000E+00
 -1        64 0.00000E+00 0.00000E+00 0.00000E+00
 -1        65 0.00000E+00 0.00000E+00 0.00000E+00
 -1        66 0.00000E+00 0.00000E+00 0.00000E+00
 -1        67 0.00000E+00 0.00000E+00 0.00000E+00
 -1        68 0.00000E+00 0.00000E+00 0.00000E+00
 -1        69 0.00000E+00 0.00000E+00 0.00000E+00
 -1        70 0.00000E+00 0.00000E+00 0.00000E+00
 -1        86 0.00000E+00 0.00000E+00 0.00000E+00
 -1        87 0.00000E+00 0.00000E+00 0.00000E+00
 -1        88 0.00000E+00 0.00000E+00 0.00000E+00
 -1        89 0.00000E+00 0.00000E+00 0.00000E+00
 -1        90 0.00000E+00 0.00000E+00 0.00000E+00
 -1       121 0.00000E+00 0.00000E+00 0.00000E+00
 -1       122 0.00000E+00 0.00000E+00 0.00000E+00
 -1       123 0.00000E+00 0.00000E+00 0.00000E+00
 -1       124 0.00000E+00 0.00000E+00 0.00000E+00
 -1       125 0.00000E+00 0.00000E+00 0.00000E+00
 -1       191 0.00000E+00 0.00000E+00 0.00000E+00
 -1       192 0.00000E+00 0.00000E+00 0.00000E+00
 -1       193 0.00000E+00 0.00000E+00 0.00000E+00
 -1       194 0.00000E+00 0.00000E+00 0.00000E+00
 -1       195 0.00000E+00 0.00000E+00 0.00000E+00
 -1       251 0.00000E+00 0.00000E+00 0.00000E+00
 -1       252 0.00000E+00 0.00000E+00 0.00000E+00
 -1       253 0.00000E+00 0.00000E+00 0.00000E+00
 -1       254 0.00000E+00 0.00000E+00 0.00000E+00
 -1       255 0.00000E+00 0.00000E+00 0.00000E+00
 -1       256 0.00000E+00 0.00000E+00 0.00000E+00
 -1       257 0.00000E+00 0.00000E+00 0.00000E+00
 -1       258 0.00000E+00 0.00000E+00 0.00000E+00
 -1       259 0.00000E+00 0.00000E+00 0.00000E+00
 -1       260 0.00000E+00 0.00000E+00 0.00000E+00
 -1       261 0.00000E+00 0.00000E+00 0.00000E+00
 -1       262 0.00000E+00 0.00000E+00 0.00000E+00
 -1       263 0.00000E+00 0.00000E+00 0.00000E+00
 -1       264 0.00000E+00 0.00000E+00 0.00000E+00
 -1       265 0.00000E+00 0.00000E+00 0.00000E+00
 -1       266 0.00000E+00 0.00000E+00 0.00000E+00
 -1       267 0.00000E+00 0.00000E+00 0.00000E+00
 -1       268 0.00000E+00 0.00000E+00 0.00000E+00
 -1       269 0.00000E+00 0.00000E+00 0.00000E+00
 -1       270 0.00000E+00 0.00000E+00 0.00000E+00
 -1       271 0.00000E+00 0.00000E+00 0.00000E+00
 -1       272 0.00000E+00 0.00000E+00 0.00000E+00
 -1       273 0.00000E+00 0.00000E+00 0.00000E+00
 -1       274 0.00000E+00 0.00000E+00 0.00000E+00
 -1       275 0.00000E+00 0.00000E+00 0.00000E+00
 -1       276 0.00000E+00 0.00000E+00 0.00000E+00
 -1       277 0.00000E+00 0.00000E+00 0.00000E+00
 -1       278 0.00000E+00 0.00000E+00 0.00000E+00
 -1       279 0.00000E+00 0.00000E+00 0.00000E+00
 -1       280 0.00000E+00 0.00000E+00 0.00000E+00
 -1       281 0.00000E+00 0.00000E+00 0.00000E+00
 -1       282 0.00000E+00 0.00000E+00 0.00000E+00
 -1       283 0.00000E+00 0.00000E+00 0.00000E+00
 -1       284 0.00000E+00 0.00000E+00 0.00000E+00
 -1       285 0.00000E+00 0.00000E+00 0.00000E+00
 -1       301 0.00000E+00 0.00000E+00 0.00000E+00
 -1       302 0.00000E+00 0.00000E+00 0.00000E+00
 -1       303 0.00000E+00 0.00000E+00 0.00000E+00
 -1       304 0.00000E+00 0.00000E+00 0.00000E+00
 -1       305 0.00000E+00 0.00000E+00 0.00000E+00
 -1       306 0.00000E+00 0.00000E+00 0.00000E+00
 -1       307 0.00000E+00 0.00000E+00 0.00000E+00
 -1       308 0.00000E+00 0.00000E+00 0.00000E+00
 -1       309 0.00000E+00 0.00000E+00 0.00000E+00
 -1       310 0.00000E+00 0.00000E+00 0.00000E+00
 -1       311 0.00000E+00 0.00000E+00 0.00000E+00
 -1       312 0.00000E+00 0.00000E+00 0.00000E+00
 -1       313 0.00000E+00 0.00000E+00 0.00000E+00
 -1       314 0.00000E+00 0.00000E+00 0.00000E+00
 -1       315 0.00000E+00 0.00000E+00 0.00000E+00
 -1       316 0.00000E+00 0.00000E+00 0.00000E+00
 -1       317 0.00000E+00 0.00000E+00 0.00000E+00
 -1       318 0.00000E+00 0.00000E+00 0.00000E+00
 -1       319 0.00000E+00 0.00000E+00 0.00000E+00
 -1       320 0.00000E+00 0.00000E+00 0.00000E+00
 -1       336 0.00000E+00 0.00000E+00 0.00000E+00
 -1       337 0.00000E+00 0.00000E+00 0.00000E+00
 -1       338 0.00000E+00 0.00000E+00 0.00000E+00
 -1       339 0.00000E+00 0.00000E+00 0.00000E+00
 -1       340 0.00000E+00 0.00000E+00 0.00000E+00
 -1       406 0.00000E+00 0.00000E+00 0.00000E+00
 -1       407 0.00000E+00 0.00000E+00 0.00000E+00
 -1       408 0.00000E+00 0.00000E+00 0.00000E+00
 -1       409 0.00000E+00 0.00000E+00 0.00000E+00
 -1       410 0.00000E+00 0.00000E+00 0.00000E+00
 -1       521 0.00000E+00 0.00000E+00 0.00000E+00
 -1       522 0.00000E+00 0.00000E+00 0.00000E+00
 -1       523 0.00000E+00 0.00000E+00 0.00000E+00
 -1       524 0.00000E+00 0.00000E+00 0.00000E+00
 -1       525 0.00000E+00 0.00000E+00 0.00000E+00
 -1       526 0.00000E+00 0.00000E+00 0.00000E+00
 -1       527 0.00000E+00 0.00000E+00 0.00000E+00
 -1       528 0.00000E+00 0.00000E+00 0.00000E+00
 -1       529 0.00000E+00 0.00000E+00 0.00000E+00
 -1       530 0.00000E+00 0.00000E+00 0.00000E+00
 -1       531 0.00000E+00 0.00000E+00 0.00000E+00
 -1       532 0.00000E+00 0.00000E+00 0.00000E+00
 -1       533 0.00000E+00 0.00000E+00 0.00000E+00
 -1       534 0.00000E+00 0.00000E+00 0.00000E+00
 -1       535 0.00000E+00 0.00000E+00 0.00000E+00
 -1       536 0.00000E+00 0.00000E+00 0.00000E+00
 -1       537 0.00000E+00 0.00000E+00 0.00000E+00
 -1       538 0.00000E+00 0.00000E+00 0.00000E+00
 -1       539 0.00000E+00 0.00000E+00 0.00000E+00
 -1       540 0.00000E+00 0.00000E+00 0.00000E+00
 -1       541 0.00000E+00 0.00000E+00 0.00000E+00
 -1       542 0.00000E+00 0.00000E+00 0.00000E+00
 -1       543 0.00000E+00 0.00000E+00 0.00000E+00
 -1       544 0.00000E+00 0.00000E+00 0.00000E+00
 -1       545 0.00000E+00 0.00000E+00 0.00000E+00
 -1       546 0.00000E+00 0.00000E+00 0.00000E+00
 -1       547 0.00000E+00 0.00000E+00 0.00000E+00
 -1       548 0.00000E+00 0.00000E+00 0.00000E+00
 -1       549 0.00000E+00 0.00000E+00 0.00000E+00
 -1       550 0.00000E+00 0.00000E+00 0.00000E+00
 -1       551 0.00000E+00 0.00000E+00 0.00000E+00
 -1       552 0.00000E+00 0.00000E+00 0.00000E+00
 -1       553 0.00000E+00 0.00000E+00 0.00000E+00
 -1       554 0.00000E+00 0.00000E+00 0.00000E+00
 -1       555 0.00000E+00 0.00000E+00 0.00000E+00
 -1       556 0.00000E+00 0.00000E+00 0.00000E+00
 -1       557 0.00000E+00 0.00000E+00 0.00000E+00
 -1       558 0.00000E+00 0.00000E+00 0.00000E+00
 -1       559 0.00000E+00 0.00000E+00 0.00000E+00
 -1       560 0.00000E+00 0.00000E+00 0.00000E+00
 -1       561 0.00000E+00 0.00000E+00 0.00000E+00
 -1       562 0.00000E+00 0.00000E+00 0.00000E+00
 -1       563 0.00000E+00 0.00000E+00 0.00000E+00
 -1       564 0.00000E+00 0.00000E+00 0.00000E+00
 -1       565 0.00000E+00 0.00000E+00 0.00000E+00
 -1       566 0.00000E+00 0.00000E+00 0.00000E+00
 -1       567 0.00000E+00 0.00000E+00 0.00000E+00
 -1       568 0.00000E+00 0.00000E+00 0.00000E+00
 -1       569 0.00000E+00 0.00000E+00 0.00000E+00
 -1       570 0.00000E+00 0.00000E+00 0.00000E+00
 -1       571 0.00000E+00 0.00000E+00 0.00000E+00
 -1       572 0.00000E+00 0.00000E+00 0.00000E+00
 -1       573 0.00000E+00 0.00000E+00 0.00000E+00
 -1       574 0.00000E+00 0.00000E+00 0.00000E+00
 -1       575 0.00000E+00 0.00000E+00 0.00000E+00
 -1       576 0.00000E+00 0.00000E+00 0.00000E+00
 -1       577 0.00000E+00 0.00000E+00 0.00000E+00
 -1       578 0.00000E+00 0.00000E+00 0.00000E+00
 -1       579 0.00000E+00 0.00000E+00 0.00000E+00
 -1       580 0.00000E+00 0.00000E+00 0.00000E+00
 -1       581 0.00000E+00 0.00000E+00 0.00000E+00
 -1       582 0.00000E+00 0.00000E+00 0.00000E+00
 -1       583 0.00000E+00 0.00000E+00 0.00000E+00
 -1       584 0.00000E+00 0.00000E+00 0.00000E+00
 -1       585 0.00000E+00 0.00000E+00 0.00000E+00
 -1       586 0.00000E+00 0.00000E+00 0.00000E+00
 -1       587 0.00000E+00 0.00000E+00 0.00000E+00
 -1       588 0.00000E+00 0.00000E+00 0.00000E+00
 -1       589 0.00000E+00 0.00000E+00 0.00000E+00
 -1       590 0.00000E+00 0.00000E+00 0.00000E+00
 -1       591 0.00000E+00 0.00000E+00 0.00000E+00
 -1       592 0.00000E+00 0.00000E+00 0.00000E+00
 -1       593 0.00000E+00 0.00000E+00 0.00000E+00
 -1       594 0.00000E+00 0.00000E+00 0.00000E+00
 -1       595 0.00000E+00 0.00000E+00 0.00000E+00
 -1       596 0.00000E+00 0.00000E+00 0.00000E+00
 -1       597 0.00000E+00 0.00000E+00 0.00000E+00
 -1       598 0.00000E+00 0.00000E+00 0.00000E+00
 -1       599 0.00000E+00 0.00000E+00 0.00000E+00
 -1       600 0.00000E+00 0.00000E+00 0.00000E+00
 -1       601 0.00000E+00 0.00000E+00 0.00000E+00
 -1       602 0.00000E+00 0.00000E+00 0.00000E+00
 -1       603 0.00000E+00 0.00000E+00 0.00000E+00
 -1       604 0.00000E+00 0.00000E+00 0.00000E+00
 -1       605 0.00000E+00 0.00000E+00 0.00000E+00
 -1       606 0.00000E+00 0.00000E+00 0.00000E+00
 -1       607 0.00000E+00 0.00000E+00 0.00000E+00
 -1       608 0.00000E+00 0.00000E+00 0.00000E+00
 -1       609 0.00000E+00 0.00000E+00 0.00000E+00
 -1       610 0.00000E+00 0.00000E+00 0.00000E+00
 -1       611 0.00000E+00 0.00000E+00 0.00000E+00
 -1       612 0.00000E+00 0.00000E+00 0.00000E+00
 -1       613 0.00000E+00 0.00000E+00 0.00000E+00
 -1       614 0.00000E+00 0.00000E+00 0.00000E+00
 -1       615 0.00000E+00 0.00000E+00 0.00000E+00
 -1       616 0.00000E+00 0.00000E+00 0.00000E+00
 -1       617 0.00000E+00 0.00000E+00 0.00000E+00
 -1       618 0.00000E+00 0.00000E+00 0.00000E+00
 -1       619 0.00000E+00 0.00000E+00 0.00000E+00
 -1       620 0.00000E+00 0.00000E+00 0.00000E+00
 -1       621 0.00000E+00 0.00000E+00 0.00000E+00
 -1       622 0.00000E+00 0.00000E+00 0.00000E+00
 -1       623 0.00000E+00 0.00000E+00 0.00000E+00
 -1       624 0.00000E+00 0.00000E+00 0.00000E+00
 -1       625 0.00000E+00 0.00000E+00 0.00000E+00
 -1       626 0.00000E+00 0.00000E+00 0.00000E+00
 -1       627 0.00000E+00 0.00000E+00 0.00000E+00
 -1       628 0.00000E+00 0.00000E+00 0.00000E+00
 -1       629 0.00000E+00 0.00000E+00 0.00000E+00
 -1       630 0.00000E+00 0.00000E+00 0.00000E+00
 -1       631 0.00000E+00 0.00000E+00 0.00000E+00
 -1       632 0.00000E+00 0.00000E+00 0.00000E+00
 -1       633 0.00000E+00 0.00000E+00 0.00000E+00
 -1       634 0.00000E+00 0.00000E+00 0.00000E+00
 -1       635 0.00000E+00 0.00000E+00 0.00000E+00
 -1       636 0.00000E+00 0.00000E+00 0.00000E+00
 -1       637 0.00000E+00 0.00000E+00 0.00000E+00
 -1       638 0.00000E+00 0.00000E+00 0.00000E+00
 -1       639 0.00000E+00 0.00000E+00 0.00000E+00
 -1       640 0.00000E+00 0.00000E+00 0.00000E+00
 -1       656 0.00000E+00 0.00000E+00 0.00000E+00
 -1       657 0.00000E+00 0.00000E+00 0.00000E+00
 -1       658 0.00000E+00 0.00000E+00 0.00000E+00
 -1       659 0.00000E+00 0.00000E+00 0.00000E+00
 -1       660 0.00000E+00 0.00000E+00 0.00000E+00
 -1       661 0.00000E+00 0.00000E+00 0.00000E+00
 -1       662 0.00000E+00 0.00000E+00 0.00000E+00
 -1       663 0.00000E+00 0.00000E+00 0.00000E+00
 -1       664 0.00000E+00 0.00000E+00 0.00000E+00
 -1       665 0.00000E+00 0.00000E+00 0.00000E+00
 -1       666 0.00000E+00 0.00000E+00 0.00000E+00
 -1       667 0.00000E+00 0.00000E+00 0.00000E+00
 -1       668 0.00000E+00 0.00000E+00 0.00000E+00
 -1       669 0.00000E+00 0.00000E+00 0.00000E+00
 -1       670 0.00000E+00 0.00000E+00 0.00000E+00
 -1       671 0.00000E+00 0.00000E+00 0.00000E+00
 -1       672 0.00000E+00 0.00000E+00 0.00000E+00
 -1       673 0.00000E+00 0.00000E+00 0.00000E+00
 -1       674 0.00000E+00 0.00000E+00 0.00000E+00
 -1       675 0.00000E+00 0.00000E+00 0.00000E+00
 -1       676 0.00000E+00 0.00000E+00 0.00000E+00
 -1       677 0.00000E+00 0.00000E+00 0.00000E+00
 -1       678 0.00000E+00 0.00000E+00 0.00000E+00
 -1       679 0.00000E+00 0.00000E+00 0.00000E+00
 -1       680 0.00000E+00 0.00000E+00 0.00000E+00
 -1       771 0.00000E+00 0.00000E+00 0.00000E+00
 -1       772 0.00000E+00 0.00000E+00 0.00000E+00
 -1       773 0.00000E+00 0.00000E+00 0.00000E+00
 -1       774 0.00000E+00 0.00000E+00 0.00000E+00
 -1       775 0.00000E+00 0.00000E+00 0.00000E+00
 -1       776 0.00000E+00 0.00000E+00 0.00000E+00
 -1       777 0.00000E+00 0.00000E+00 0.00000E+00
 -1       778 0.00000E+00 0.00000E+00 0.00000E+00
 -1       779 0.00000E+00 0.00000E+00 0.00000E+00
 -1       780 0.00000E+00 0.00000E+00 0.00000E+00
 -1       781 0.00000E+00 0.00000E+00 0.00000E+00
 -1       782 0.00000E+00 0.00000E+00 0.00000E+00
 -1       783 0.00000E+00 0.00000E+00 0.00000E+00
 -1       784 0.00000E+00 0.00000E+00 0.00000E+00
 -1       785 0.00000E+00 0.00000E+00 0.00000E+00
 -1       786 0.00000E+00 0.00000E+00 0.00000E+00
 -1       787 0.00000E+00 0.00000E+00 0.00000E+00
 -1       788 0.00000E+00 0.00000E+00 0.00000E+00
 -1       789 0.00000E+00 0.00000E+00 0.00000E+00
 -1       790 0.00000E+00 0.00000E+00 0.00000E+00
 -1       791 0.00000E+00 0.00000E+00 0.00000E+00
 -1       792 0.00000E+00 0.00000E+00 0.00000E+00
 -1       793 0.00000E+00 0.00000E+00 0.00000E+00
 -1       794 0.00000E+00 0.00000E+00 0.00000E+00
 -1       795 0.00000E+00 0.00000E+00 0.00000E+00
 -1       796 0.00000E+00 0.00000E+00 0.00000E+00
 -1       797 0.00000E+00 0.00000E+00 0.00000E+00
 -1       798 0.00000E+00 0.00000E+00 0.00000E+00
 -1       799 0.00000E+00 0.00000E+00 0.00000E+00
 -1       800 0.00000E+00 0.00000E+00 0.00000E+00
 -1       801 0.00000E+00 0.00000E+00 0.00000E+00
 -1       802 0.00000E+00 0.00000E+00 0.00000E+00
 -1       803 0.00000E+00 0.00000E+00 0.00000E+00
 -1       804 0.00000E+00 0.00000E+00 0.00000E+00
 -1       805 0.00000E+00 0.00000E+00 0.00000E+00
 -1       806 0.00000E+00 0.00000E+00 0.00000E+00
 -1       807 0.00000E+00 0.00000E+00 0.00000E+00
 -1       808 0.00000E+00 0.00000E+00 0.00000E+00
 -1       809 0.00000E+00 0.00000E+00 0.00000E+00
 -1       810 0.00000E+00 0.00000E+00 0.00000E+00
 -1       811 0.00000E+00 0.00000E+00 0.00000E+00
 -1       812 0.00000E+00 0.00000E+00 0.00000E+00
 -1       813 0.00000E+00 0.00000E+00 0.00000E+00
 -1       814 0.00000E+00 0.00000E+00 0.00000E+00
 -1       815 0.00000E+00 0.00000E+00 0.00000E+00
 -1       816 0.00000E+00 0.00000E+00 0.00000E+00
 -1       817 0.00000E+00 0.00000E+00 0.00000E+00
 -1       818 0.00000E+00 0.00000E+00 0.00000E+00
 -1       819 0.00000E+00 0.00000E+00 0.00000E+00
 -1       820 0.00000E+00 0.00000E+00 0.00000E+00
 -1       821 0.00000E+00 0.00000E+00 0.00000E+00
 -1       822 0.00000E+00 0.00000E+00 0.00000E+00
 -1       823 0.00000E+00 0.00000E+00 0.00000E+00
 -1       824 0.00000E+00 0.00000E+00 0.00000E+00
 -1       825 0.00000E+00 0.00000E+00 0.00000E+00
 -1       826 0.00000E+00 0.00000E+00 0.00000E+00
 -1       827 0.00000E+00 0.00000E+00 0.00000E+00
 -1       828 0.00000E+00 0.00000E+00 0.00000E+00
 -1       829 0.00000E+00 0.00000E+00 0.00000E+00
 -1       830 0.00000E+00 0.00000E+00 0.00000E+00
 -1       831 0.00000E+00 0.00000E+00 0.00000E+00
 -1       832 0.00000E+00 0.00000E+00 0.00000E+00
 -1       833 0.00000E+00 0.00000E+00 0.00000E+00
 -1       834 0.00000E+00 0.00000E+00 0.00000E+00
 -1       835 0.00000E+00 0.00000E+00 0.00000E+00
 -1       836 0.00000E+00 0.00000E+00 0.00000E+00
 -1       837 0.00000E+00 0.00000E+00 0.00000E+00
 -1       838 0.00000E+00 0.00000E+00 0.00000E+00
 -1       839 0.00000E+00 0.00000E+00 0.00000E+00
 -1       840 0.00000E+00 0.00000E+00 0.00000E+00
 -1       856 0.00000E+00 0.00000E+00 0.00000E+00
 -1       857 0.00000E+00 0.00000E+00 0.00000E+00
 -1       858 0.00000E+00 0.00000E+00 0.00000E+00
 -1       859 0.00000E+00 0.00000E+00 0.00000E+00
 -1       860 0.00000E+00 0.00000E+00 0.00000E+00
 -1       861 0.00000E+00 0.00000E+00 0.00000E+00
 -1       862 0.00000E+00 0.00000E+00 0.00000E+00
 -1       863 0.00000E+00 0.00000E+00 0.00000E+00
 -1       864 0.00000E+00 0.00000E+00 0.00000E+00
 -1       865 0.00000E+00 0.00000E+00 0.00000E+00
 -1       866 0.00000E+00 0.00000E+00 0.00000E+00
 -1       867 0.00000E+00 0.00000E+00 0.00000E+00
 -1       868 0.00000E+00 0.00000E+00 0.00000E+00
 -1       869 0.00000E+00 0.00000E+00 0.00000E+00
 -1       870 0.00000E+00 0.00000E+00 0.00000E+00
 -1       871 0.00000E+00 0.00000E+00 0.00000E+00
 -1       872 0.00000E+00 0.00000E+00 0.00000E+00
 -1       873 0.00000E+00 0.00000E+00 0.00000E+00
 -1       874 0.00000E+00 0.00000E+00 0.00000E+00
 -1       875 0.00000E+00 0.00000E+00 0.00000E+00
 -1       876 0.00000E+00 0.00000E+00 0.00000E+00
 -1       877 0.00000E+00 0.00000E+00 0.00000E+00
 -1       878 0.00000E+00 0.00000E+00 0.00000E+00
 -1       879 0.00000E+00 0.00000E+00 0.00000E+00
 -1       880 0.00000E+00 0.00000E+00 0.00000E+00
 -1       881 0.00000E+00 0.00000E+00 0.00000E+00
 -1       882 0.00000E+00 0.00000E+00 0.00000E+00
 -1       883 0.00000E+00 0.00000E+00 0.00000E+00
 -1       884 0.00000E+00 0.00000E+00 0.00000E+00
 -1       885 0.00000E+00 0.00000E+00 0.00000E+00
 -1       886 0.00000E+00 0.00000E+00 0.00000E+00
 -1       887 0.00000E+00 0.00000E+00 0.00000E+00
 -1       888 0.00000E+00 0.00000E+00 0.00000E+00
 -1       889 0.00000E+00 0.00000E+00 0.00000E+00
 -1       890 0.00000E+00 0.00000E+00 0.00000E+00
 -1       891 0.00000E+00 0.00000E+00 0.00000E+00
 -1       892 0.00000E+00 0.00000E+00 0.00000E+00
 -1       893 0.00000E+00 0.00000E+00 0.00000E+00
 -1       894 0.00000E+00 0.00000E+00 0.00000E+00
 -1       895 0.00000E+00 0.00000E+00 0.00000E+00
 -1       956 0.00000E+00 0.00000E+00 0.00000E+00
 -1       957 0.00000E+00 0.00000E+00 0.00000E+00
 -1       958 0.00000E+00 0.00000E+00 0.00000E+00
 -1       959 0.00000E+00 0.00000E+00 0.00000E+00
 -1       960 0.00000E+00 0.00000E+00 0.00000E+00
 -1       961 0.00000E+00 0.00000E+00 0.00000E+00
 -1       962 0.00000E+00 0.00000E+00 0.00000E+00
 -1       963 0.00000E+00 0.00000E+00 0.00000E+00
 -1       964 0.00000E+00 0.00000E+00 0.00000E+00
 -1       965 0.00000E+00 0.00000E+00 0.00000E+00
 -1       966 0.00000E+00 0.00000E+00 0.00000E+00
 -1       967 0.00000E+00 0.00000E+00 0.00000E+00
 -1       968 0.00000E+00 0.00000E+00 0.00000E+00
 -1       969 0.00000E+00 0.00000E+00 0.00000E+00
 -1       970 0.00000E+00 0.00000E+00 0.00000E+00
 -1       971 0.00000E+00 0.00000E+00 0.00000E+00
 -1       972 0.00000E+00 0.00000E+00 0.00000E+00
 -1       973 0.00000E+00 0.00000E+00 0.00000E+00
 -1       974 0.00000E+00 0.00000E+00 0.00000E+00
 -1       975 0.00000E+00 0.00000E+00 0.00000E+00
 -1       976 0.00000E+00 0.00000E+00 0.00000E+00
 -1       977 0.00000E+00 0.00000E+00 0.00000E+00
 -1       978 0.00000E+00 0.00000E+00 0.00000E+00
 -1       979 0.00000E+00 0.00000E+00 0.00000E+00
 -1       980 0.00000E+00 0.00000E+00 0.00000E+00
 -1       981 0.00000E+00 0.00000E+00 0.00000E+00
 -1       982 0.00000E+00 0.00000E+00 0.00000E+00
 -1       983 0.00000E+00 0.00000E+00 0.00000E+00
 -1       984 0.00000E+00 0.00000E+00 0.00000E+00
 -1       985 0.00000E+00 0.00000E+00 0.00000E+00
 -3
