    1C
    1UUSER                                                              
    1UDATE              11.october.2022                                 
    1UTIME              19:02:43                                        
    1UHOST                                                              
    1UPGM               CalculiX                                        
    1UVERSION           Version 2.20                             
    1UCOMPILETIME       Sun Jul 31 18:08:37 CEST 2022                    
    1UDIR                                                               
    1UDBN                                                               
    1UMAT    1MESH_MATERIAL                                             
    2C                           409                                     1
 -1         1 0.00000E+00 0.00000E+00 0.00000E+00
 -1         2 1.66667E-02 0.00000E+00 0.00000E+00
 -1         3 3.33333E-02 0.00000E+00 0.00000E+00
 -1         5 6.66667E-02 0.00000E+00 0.00000E+00
 -1         8 0.00000E+00 6.25000E-03 0.00000E+00
 -1         9 1.66667E-02 6.25000E-03 0.00000E+00
 -1        10 3.33333E-02 6.25000E-03 0.00000E+00
 -1        12 6.66667E-02 6.25000E-03 0.00000E+00
 -1        15 0.00000E+00 1.25000E-02 0.00000E+00
 -1        16 1.66667E-02 1.25000E-02 0.00000E+00
 -1        17 3.33333E-02 1.25000E-02 0.00000E+00
 -1        18 5.00000E-02 1.25000E-02 0.00000E+00
 -1        19 6.66667E-02 1.25000E-02 0.00000E+00
 -1        20 8.33333E-02 1.25000E-02 0.00000E+00
 -1        21 1.00000E-01 1.25000E-02 0.00000E+00
 -1        24 3.33333E-02 1.87500E-02 0.00000E+00
 -1        25 5.00000E-02 1.87500E-02 0.00000E+00
 -1        26 6.66667E-02 1.87500E-02 0.00000E+00
 -1        27 8.33333E-02 1.87500E-02 0.00000E+00
 -1        28 1.00000E-01 1.87500E-02 0.00000E+00
 -1        32 5.00000E-02 2.50000E-02 0.00000E+00
 -1        33 6.66667E-02 2.50000E-02 0.00000E+00
 -1        34 8.33333E-02 2.50000E-02 0.00000E+00
 -1        35 1.00000E-01 2.50000E-02 0.00000E+00
 -1        51 0.00000E+00 1.04167E-03 0.00000E+00
 -1        52 0.00000E+00 2.08333E-03 0.00000E+00
 -1        53 0.00000E+00 3.12500E-03 0.00000E+00
 -1        54 0.00000E+00 4.16667E-03 0.00000E+00
 -1        55 0.00000E+00 5.20833E-03 0.00000E+00
 -1        56 1.04167E-03 3.90630E-04 0.00000E+00
 -1        57 2.08333E-03 7.81250E-04 0.00000E+00
 -1        58 3.12500E-03 1.17188E-03 0.00000E+00
 -1        59 4.16667E-03 1.56250E-03 0.00000E+00
 -1        60 5.20833E-03 1.95312E-03 0.00000E+00
 -1        61 6.25000E-03 2.34375E-03 0.00000E+00
 -1        62 7.29167E-03 2.73438E-03 0.00000E+00
 -1        63 8.33333E-03 3.12500E-03 0.00000E+00
 -1        64 9.37500E-03 3.51563E-03 0.00000E+00
 -1        65 1.04167E-02 3.90625E-03 0.00000E+00
 -1        66 1.14583E-02 4.29688E-03 0.00000E+00
 -1        67 1.25000E-02 4.68750E-03 0.00000E+00
 -1        68 1.35417E-02 5.07813E-03 0.00000E+00
 -1        69 1.45833E-02 5.46875E-03 0.00000E+00
 -1        70 1.56250E-02 5.85938E-03 0.00000E+00
 -1        86 1.66667E-02 1.04167E-03 0.00000E+00
 -1        87 1.66667E-02 2.08333E-03 0.00000E+00
 -1        88 1.66667E-02 3.12500E-03 0.00000E+00
 -1        89 1.66667E-02 4.16667E-03 0.00000E+00
 -1        90 1.66667E-02 5.20833E-03 0.00000E+00
 -1       121 3.33333E-02 1.04167E-03 0.00000E+00
 -1       122 3.33333E-02 2.08333E-03 0.00000E+00
 -1       123 3.33333E-02 3.12500E-03 0.00000E+00
 -1       124 3.33333E-02 4.16667E-03 0.00000E+00
 -1       125 3.33333E-02 5.20833E-03 0.00000E+00
 -1       191 6.66667E-02 1.04167E-03 0.00000E+00
 -1       192 6.66667E-02 2.08333E-03 0.00000E+00
 -1       193 6.66667E-02 3.12500E-03 0.00000E+00
 -1       194 6.66667E-02 4.16667E-03 0.00000E+00
 -1       195 6.66667E-02 5.20833E-03 0.00000E+00
 -1       251 1.04167E-03 6.25000E-03 0.00000E+00
 -1       252 2.08333E-03 6.25000E-03 0.00000E+00
 -1       253 3.12500E-03 6.25000E-03 0.00000E+00
 -1       254 4.16667E-03 6.25000E-03 0.00000E+00
 -1       255 5.20833E-03 6.25000E-03 0.00000E+00
 -1       256 6.25000E-03 6.25000E-03 0.00000E+00
 -1       257 7.29167E-03 6.25000E-03 0.00000E+00
 -1       258 8.33333E-03 6.25000E-03 0.00000E+00
 -1       259 9.37500E-03 6.25000E-03 0.00000E+00
 -1       260 1.04167E-02 6.25000E-03 0.00000E+00
 -1       261 1.14583E-02 6.25000E-03 0.00000E+00
 -1       262 1.25000E-02 6.25000E-03 0.00000E+00
 -1       263 1.35417E-02 6.25000E-03 0.00000E+00
 -1       264 1.45833E-02 6.25000E-03 0.00000E+00
 -1       265 1.56250E-02 6.25000E-03 0.00000E+00
 -1       266 0.00000E+00 7.29167E-03 0.00000E+00
 -1       267 0.00000E+00 8.33333E-03 0.00000E+00
 -1       268 0.00000E+00 9.37500E-03 0.00000E+00
 -1       269 0.00000E+00 1.04167E-02 0.00000E+00
 -1       270 0.00000E+00 1.14583E-02 0.00000E+00
 -1       271 1.04167E-03 6.64063E-03 0.00000E+00
 -1       272 2.08333E-03 7.03125E-03 0.00000E+00
 -1       273 3.12500E-03 7.42188E-03 0.00000E+00
 -1       274 4.16667E-03 7.81250E-03 0.00000E+00
 -1       275 5.20833E-03 8.20313E-03 0.00000E+00
 -1       276 6.25000E-03 8.59375E-03 0.00000E+00
 -1       277 7.29167E-03 8.98438E-03 0.00000E+00
 -1       278 8.33333E-03 9.37500E-03 0.00000E+00
 -1       279 9.37500E-03 9.76562E-03 0.00000E+00
 -1       280 1.04167E-02 1.01562E-02 0.00000E+00
 -1       281 1.14583E-02 1.05469E-02 0.00000E+00
 -1       282 1.25000E-02 1.09375E-02 0.00000E+00
 -1       283 1.35417E-02 1.13281E-02 0.00000E+00
 -1       284 1.45833E-02 1.17188E-02 0.00000E+00
 -1       285 1.56250E-02 1.21094E-02 0.00000E+00
 -1       301 1.66667E-02 7.29167E-03 0.00000E+00
 -1       302 1.66667E-02 8.33333E-03 0.00000E+00
 -1       303 1.66667E-02 9.37500E-03 0.00000E+00
 -1       304 1.66667E-02 1.04167E-02 0.00000E+00
 -1       305 1.66667E-02 1.14583E-02 0.00000E+00
 -1       306 1.77083E-02 6.64063E-03 0.00000E+00
 -1       307 1.87500E-02 7.03125E-03 0.00000E+00
 -1       308 1.97917E-02 7.42188E-03 0.00000E+00
 -1       309 2.08333E-02 7.81250E-03 0.00000E+00
 -1       310 2.18750E-02 8.20313E-03 0.00000E+00
 -1       311 2.29167E-02 8.59375E-03 0.00000E+00
 -1       312 2.39583E-02 8.98438E-03 0.00000E+00
 -1       313 2.50000E-02 9.37500E-03 0.00000E+00
 -1       314 2.60417E-02 9.76562E-03 0.00000E+00
 -1       315 2.70833E-02 1.01562E-02 0.00000E+00
 -1       316 2.81250E-02 1.05469E-02 0.00000E+00
 -1       317 2.91667E-02 1.09375E-02 0.00000E+00
 -1       318 3.02083E-02 1.13281E-02 0.00000E+00
 -1       319 3.12500E-02 1.17188E-02 0.00000E+00
 -1       320 3.22917E-02 1.21094E-02 0.00000E+00
 -1       336 3.33333E-02 7.29167E-03 0.00000E+00
 -1       337 3.33333E-02 8.33333E-03 0.00000E+00
 -1       338 3.33333E-02 9.37500E-03 0.00000E+00
 -1       339 3.33333E-02 1.04167E-02 0.00000E+00
 -1       340 3.33333E-02 1.14583E-02 0.00000E+00
 -1       406 6.66667E-02 7.29167E-03 0.00000E+00
 -1       407 6.66667E-02 8.33333E-03 0.00000E+00
 -1       408 6.66667E-02 9.37500E-03 0.00000E+00
 -1       409 6.66667E-02 1.04167E-02 0.00000E+00
 -1       410 6.66667E-02 1.14583E-02 0.00000E+00
 -1       521 1.77083E-02 1.28906E-02 0.00000E+00
 -1       522 1.87500E-02 1.32813E-02 0.00000E+00
 -1       523 1.97917E-02 1.36719E-02 0.00000E+00
 -1       524 2.08333E-02 1.40625E-02 0.00000E+00
 -1       525 2.18750E-02 1.44531E-02 0.00000E+00
 -1       526 2.29167E-02 1.48437E-02 0.00000E+00
 -1       527 2.39583E-02 1.52344E-02 0.00000E+00
 -1       528 2.50000E-02 1.56250E-02 0.00000E+00
 -1       529 2.60417E-02 1.60156E-02 0.00000E+00
 -1       530 2.70833E-02 1.64062E-02 0.00000E+00
 -1       531 2.81250E-02 1.67969E-02 0.00000E+00
 -1       532 2.91667E-02 1.71875E-02 0.00000E+00
 -1       533 3.02083E-02 1.75781E-02 0.00000E+00
 -1       534 3.12500E-02 1.79687E-02 0.00000E+00
 -1       535 3.22917E-02 1.83594E-02 0.00000E+00
 -1       536 3.43750E-02 1.25000E-02 0.00000E+00
 -1       537 3.54167E-02 1.25000E-02 0.00000E+00
 -1       538 3.64583E-02 1.25000E-02 0.00000E+00
 -1       539 3.75000E-02 1.25000E-02 0.00000E+00
 -1       540 3.85417E-02 1.25000E-02 0.00000E+00
 -1       541 3.95833E-02 1.25000E-02 0.00000E+00
 -1       542 4.06250E-02 1.25000E-02 0.00000E+00
 -1       543 4.16667E-02 1.25000E-02 0.00000E+00
 -1       544 4.27083E-02 1.25000E-02 0.00000E+00
 -1       545 4.37500E-02 1.25000E-02 0.00000E+00
 -1       546 4.47917E-02 1.25000E-02 0.00000E+00
 -1       547 4.58333E-02 1.25000E-02 0.00000E+00
 -1       548 4.68750E-02 1.25000E-02 0.00000E+00
 -1       549 4.79167E-02 1.25000E-02 0.00000E+00
 -1       550 4.89583E-02 1.25000E-02 0.00000E+00
 -1       551 3.33333E-02 1.35417E-02 0.00000E+00
 -1       552 3.33333E-02 1.45833E-02 0.00000E+00
 -1       553 3.33333E-02 1.56250E-02 0.00000E+00
 -1       554 3.33333E-02 1.66667E-02 0.00000E+00
 -1       555 3.33333E-02 1.77083E-02 0.00000E+00
 -1       556 3.43750E-02 1.28906E-02 0.00000E+00
 -1       557 3.54167E-02 1.32813E-02 0.00000E+00
 -1       558 3.64583E-02 1.36719E-02 0.00000E+00
 -1       559 3.75000E-02 1.40625E-02 0.00000E+00
 -1       560 3.85417E-02 1.44531E-02 0.00000E+00
 -1       561 3.95833E-02 1.48437E-02 0.00000E+00
 -1       562 4.06250E-02 1.52344E-02 0.00000E+00
 -1       563 4.16667E-02 1.56250E-02 0.00000E+00
 -1       564 4.27083E-02 1.60156E-02 0.00000E+00
 -1       565 4.37500E-02 1.64062E-02 0.00000E+00
 -1       566 4.47917E-02 1.67969E-02 0.00000E+00
 -1       567 4.58333E-02 1.71875E-02 0.00000E+00
 -1       568 4.68750E-02 1.75781E-02 0.00000E+00
 -1       569 4.79167E-02 1.79687E-02 0.00000E+00
 -1       570 4.89583E-02 1.83594E-02 0.00000E+00
 -1       571 5.10417E-02 1.25000E-02 0.00000E+00
 -1       572 5.20833E-02 1.25000E-02 0.00000E+00
 -1       573 5.31250E-02 1.25000E-02 0.00000E+00
 -1       574 5.41667E-02 1.25000E-02 0.00000E+00
 -1       575 5.52083E-02 1.25000E-02 0.00000E+00
 -1       576 5.62500E-02 1.25000E-02 0.00000E+00
 -1       577 5.72917E-02 1.25000E-02 0.00000E+00
 -1       578 5.83333E-02 1.25000E-02 0.00000E+00
 -1       579 5.93750E-02 1.25000E-02 0.00000E+00
 -1       580 6.04167E-02 1.25000E-02 0.00000E+00
 -1       581 6.14583E-02 1.25000E-02 0.00000E+00
 -1       582 6.25000E-02 1.25000E-02 0.00000E+00
 -1       583 6.35417E-02 1.25000E-02 0.00000E+00
 -1       584 6.45833E-02 1.25000E-02 0.00000E+00
 -1       585 6.56250E-02 1.25000E-02 0.00000E+00
 -1       586 5.00000E-02 1.35417E-02 0.00000E+00
 -1       587 5.00000E-02 1.45833E-02 0.00000E+00
 -1       588 5.00000E-02 1.56250E-02 0.00000E+00
 -1       589 5.00000E-02 1.66667E-02 0.00000E+00
 -1       590 5.00000E-02 1.77083E-02 0.00000E+00
 -1       591 5.10417E-02 1.28906E-02 0.00000E+00
 -1       592 5.20833E-02 1.32813E-02 0.00000E+00
 -1       593 5.31250E-02 1.36719E-02 0.00000E+00
 -1       594 5.41667E-02 1.40625E-02 0.00000E+00
 -1       595 5.52083E-02 1.44531E-02 0.00000E+00
 -1       596 5.62500E-02 1.48437E-02 0.00000E+00
 -1       597 5.72917E-02 1.52344E-02 0.00000E+00
 -1       598 5.83333E-02 1.56250E-02 0.00000E+00
 -1       599 5.93750E-02 1.60156E-02 0.00000E+00
 -1       600 6.04167E-02 1.64062E-02 0.00000E+00
 -1       601 6.14583E-02 1.67969E-02 0.00000E+00
 -1       602 6.25000E-02 1.71875E-02 0.00000E+00
 -1       603 6.35417E-02 1.75781E-02 0.00000E+00
 -1       604 6.45833E-02 1.79687E-02 0.00000E+00
 -1       605 6.56250E-02 1.83594E-02 0.00000E+00
 -1       606 6.77083E-02 1.25000E-02 0.00000E+00
 -1       607 6.87500E-02 1.25000E-02 0.00000E+00
 -1       608 6.97917E-02 1.25000E-02 0.00000E+00
 -1       609 7.08333E-02 1.25000E-02 0.00000E+00
 -1       610 7.18750E-02 1.25000E-02 0.00000E+00
 -1       611 7.29167E-02 1.25000E-02 0.00000E+00
 -1       612 7.39583E-02 1.25000E-02 0.00000E+00
 -1       613 7.50000E-02 1.25000E-02 0.00000E+00
 -1       614 7.60417E-02 1.25000E-02 0.00000E+00
 -1       615 7.70833E-02 1.25000E-02 0.00000E+00
 -1       616 7.81250E-02 1.25000E-02 0.00000E+00
 -1       617 7.91667E-02 1.25000E-02 0.00000E+00
 -1       618 8.02083E-02 1.25000E-02 0.00000E+00
 -1       619 8.12500E-02 1.25000E-02 0.00000E+00
 -1       620 8.22917E-02 1.25000E-02 0.00000E+00
 -1       621 6.66667E-02 1.35417E-02 0.00000E+00
 -1       622 6.66667E-02 1.45833E-02 0.00000E+00
 -1       623 6.66667E-02 1.56250E-02 0.00000E+00
 -1       624 6.66667E-02 1.66667E-02 0.00000E+00
 -1       625 6.66667E-02 1.77083E-02 0.00000E+00
 -1       626 6.77083E-02 1.28906E-02 0.00000E+00
 -1       627 6.87500E-02 1.32813E-02 0.00000E+00
 -1       628 6.97917E-02 1.36719E-02 0.00000E+00
 -1       629 7.08333E-02 1.40625E-02 0.00000E+00
 -1       630 7.18750E-02 1.44531E-02 0.00000E+00
 -1       631 7.29167E-02 1.48437E-02 0.00000E+00
 -1       632 7.39583E-02 1.52344E-02 0.00000E+00
 -1       633 7.50000E-02 1.56250E-02 0.00000E+00
 -1       634 7.60417E-02 1.60156E-02 0.00000E+00
 -1       635 7.70833E-02 1.64062E-02 0.00000E+00
 -1       636 7.81250E-02 1.67969E-02 0.00000E+00
 -1       637 7.91667E-02 1.71875E-02 0.00000E+00
 -1       638 8.02083E-02 1.75781E-02 0.00000E+00
 -1       639 8.12500E-02 1.79687E-02 0.00000E+00
 -1       640 8.22917E-02 1.83594E-02 0.00000E+00
 -1       656 8.33333E-02 1.35417E-02 0.00000E+00
 -1       657 8.33333E-02 1.45833E-02 0.00000E+00
 -1       658 8.33333E-02 1.56250E-02 0.00000E+00
 -1       659 8.33333E-02 1.66667E-02 0.00000E+00
 -1       660 8.33333E-02 1.77083E-02 0.00000E+00
 -1       661 8.43750E-02 1.28906E-02 0.00000E+00
 -1       662 8.54167E-02 1.32813E-02 0.00000E+00
 -1       663 8.64583E-02 1.36719E-02 0.00000E+00
 -1       664 8.75000E-02 1.40625E-02 0.00000E+00
 -1       665 8.85417E-02 1.44531E-02 0.00000E+00
 -1       666 8.95833E-02 1.48437E-02 0.00000E+00
 -1       667 9.06250E-02 1.52344E-02 0.00000E+00
 -1       668 9.16667E-02 1.56250E-02 0.00000E+00
 -1       669 9.27083E-02 1.60156E-02 0.00000E+00
 -1       670 9.37500E-02 1.64062E-02 0.00000E+00
 -1       671 9.47917E-02 1.67969E-02 0.00000E+00
 -1       672 9.58333E-02 1.71875E-02 0.00000E+00
 -1       673 9.68750E-02 1.75781E-02 0.00000E+00
 -1       674 9.79167E-02 1.79687E-02 0.00000E+00
 -1       675 9.89583E-02 1.83594E-02 0.00000E+00
 -1       676 1.00000E-01 1.35417E-02 0.00000E+00
 -1       677 1.00000E-01 1.45833E-02 0.00000E+00
 -1       678 1.00000E-01 1.56250E-02 0.00000E+00
 -1       679 1.00000E-01 1.66667E-02 0.00000E+00
 -1       680 1.00000E-01 1.77083E-02 0.00000E+00
 -1       771 3.43750E-02 1.91406E-02 0.00000E+00
 -1       772 3.54167E-02 1.95312E-02 0.00000E+00
 -1       773 3.64583E-02 1.99219E-02 0.00000E+00
 -1       774 3.75000E-02 2.03125E-02 0.00000E+00
 -1       775 3.85417E-02 2.07031E-02 0.00000E+00
 -1       776 3.95833E-02 2.10938E-02 0.00000E+00
 -1       777 4.06250E-02 2.14844E-02 0.00000E+00
 -1       778 4.16667E-02 2.18750E-02 0.00000E+00
 -1       779 4.27083E-02 2.22656E-02 0.00000E+00
 -1       780 4.37500E-02 2.26563E-02 0.00000E+00
 -1       781 4.47917E-02 2.30469E-02 0.00000E+00
 -1       782 4.58333E-02 2.34375E-02 0.00000E+00
 -1       783 4.68750E-02 2.38281E-02 0.00000E+00
 -1       784 4.79167E-02 2.42187E-02 0.00000E+00
 -1       785 4.89583E-02 2.46094E-02 0.00000E+00
 -1       786 5.10417E-02 1.87500E-02 0.00000E+00
 -1       787 5.20833E-02 1.87500E-02 0.00000E+00
 -1       788 5.31250E-02 1.87500E-02 0.00000E+00
 -1       789 5.41667E-02 1.87500E-02 0.00000E+00
 -1       790 5.52083E-02 1.87500E-02 0.00000E+00
 -1       791 5.62500E-02 1.87500E-02 0.00000E+00
 -1       792 5.72917E-02 1.87500E-02 0.00000E+00
 -1       793 5.83333E-02 1.87500E-02 0.00000E+00
 -1       794 5.93750E-02 1.87500E-02 0.00000E+00
 -1       795 6.04167E-02 1.87500E-02 0.00000E+00
 -1       796 6.14583E-02 1.87500E-02 0.00000E+00
 -1       797 6.25000E-02 1.87500E-02 0.00000E+00
 -1       798 6.35417E-02 1.87500E-02 0.00000E+00
 -1       799 6.45833E-02 1.87500E-02 0.00000E+00
 -1       800 6.56250E-02 1.87500E-02 0.00000E+00
 -1       801 5.00000E-02 1.97917E-02 0.00000E+00
 -1       802 5.00000E-02 2.08333E-02 0.00000E+00
 -1       803 5.00000E-02 2.18750E-02 0.00000E+00
 -1       804 5.00000E-02 2.29167E-02 0.00000E+00
 -1       805 5.00000E-02 2.39583E-02 0.00000E+00
 -1       806 5.10417E-02 1.91406E-02 0.00000E+00
 -1       807 5.20833E-02 1.95312E-02 0.00000E+00
 -1       808 5.31250E-02 1.99219E-02 0.00000E+00
 -1       809 5.41667E-02 2.03125E-02 0.00000E+00
 -1       810 5.52083E-02 2.07031E-02 0.00000E+00
 -1       811 5.62500E-02 2.10938E-02 0.00000E+00
 -1       812 5.72917E-02 2.14844E-02 0.00000E+00
 -1       813 5.83333E-02 2.18750E-02 0.00000E+00
 -1       814 5.93750E-02 2.22656E-02 0.00000E+00
 -1       815 6.04167E-02 2.26563E-02 0.00000E+00
 -1       816 6.14583E-02 2.30469E-02 0.00000E+00
 -1       817 6.25000E-02 2.34375E-02 0.00000E+00
 -1       818 6.35417E-02 2.38281E-02 0.00000E+00
 -1       819 6.45833E-02 2.42187E-02 0.00000E+00
 -1       820 6.56250E-02 2.46094E-02 0.00000E+00
 -1       821 6.77083E-02 1.87500E-02 0.00000E+00
 -1       822 6.87500E-02 1.87500E-02 0.00000E+00
 -1       823 6.97917E-02 1.87500E-02 0.00000E+00
 -1       824 7.08333E-02 1.87500E-02 0.00000E+00
 -1       825 7.18750E-02 1.87500E-02 0.00000E+00
 -1       826 7.29167E-02 1.87500E-02 0.00000E+00
 -1       827 7.39583E-02 1.87500E-02 0.00000E+00
 -1       828 7.50000E-02 1.87500E-02 0.00000E+00
 -1       829 7.60417E-02 1.87500E-02 0.00000E+00
 -1       830 7.70833E-02 1.87500E-02 0.00000E+00
 -1       831 7.81250E-02 1.87500E-02 0.00000E+00
 -1       832 7.91667E-02 1.87500E-02 0.00000E+00
 -1       833 8.02083E-02 1.87500E-02 0.00000E+00
 -1       834 8.12500E-02 1.87500E-02 0.00000E+00
 -1       835 8.22917E-02 1.87500E-02 0.00000E+00
 -1       836 6.66667E-02 1.97917E-02 0.00000E+00
 -1       837 6.66667E-02 2.08333E-02 0.00000E+00
 -1       838 6.66667E-02 2.18750E-02 0.00000E+00
 -1       839 6.66667E-02 2.29167E-02 0.00000E+00
 -1       840 6.66667E-02 2.39583E-02 0.00000E+00
 -1       856 8.43750E-02 1.87500E-02 0.00000E+00
 -1       857 8.54167E-02 1.87500E-02 0.00000E+00
 -1       858 8.64583E-02 1.87500E-02 0.00000E+00
 -1       859 8.75000E-02 1.87500E-02 0.00000E+00
 -1       860 8.85417E-02 1.87500E-02 0.00000E+00
 -1       861 8.95833E-02 1.87500E-02 0.00000E+00
 -1       862 9.06250E-02 1.87500E-02 0.00000E+00
 -1       863 9.16667E-02 1.87500E-02 0.00000E+00
 -1       864 9.27083E-02 1.87500E-02 0.00000E+00
 -1       865 9.37500E-02 1.87500E-02 0.00000E+00
 -1       866 9.47917E-02 1.87500E-02 0.00000E+00
 -1       867 9.58333E-02 1.87500E-02 0.00000E+00
 -1       868 9.68750E-02 1.87500E-02 0.00000E+00
 -1       869 9.79167E-02 1.87500E-02 0.00000E+00
 -1       870 9.89583E-02 1.87500E-02 0.00000E+00
 -1       871 8.33333E-02 1.97917E-02 0.00000E+00
 -1       872 8.33333E-02 2.08333E-02 0.00000E+00
 -1       873 8.33333E-02 2.18750E-02 0.00000E+00
 -1       874 8.33333E-02 2.29167E-02 0.00000E+00
 -1       875 8.33333E-02 2.39583E-02 0.00000E+00
 -1       876 8.43750E-02 1.91406E-02 0.00000E+00
 -1       877 8.54167E-02 1.95312E-02 0.00000E+00
 -1       878 8.64583E-02 1.99219E-02 0.00000E+00
 -1       879 8.75000E-02 2.03125E-02 0.00000E+00
 -1       880 8.85417E-02 2.07031E-02 0.00000E+00
 -1       881 8.95833E-02 2.10938E-02 0.00000E+00
 -1       882 9.06250E-02 2.14844E-02 0.00000E+00
 -1       883 9.16667E-02 2.18750E-02 0.00000E+00
 -1       884 9.27083E-02 2.22656E-02 0.00000E+00
 -1       885 9.37500E-02 2.26563E-02 0.00000E+00
 -1       886 9.47917E-02 2.30469E-02 0.00000E+00
 -1       887 9.58333E-02 2.34375E-02 0.00000E+00
 -1       888 9.68750E-02 2.38281E-02 0.00000E+00
 -1       889 9.79167E-02 2.42187E-02 0.00000E+00
 -1       890 9.89583E-02 2.46094E-02 0.00000E+00
 -1       891 1.00000E-01 1.97917E-02 0.00000E+00
 -1       892 1.00000E-01 2.08333E-02 0.00000E+00
 -1       893 1.00000E-01 2.18750E-02 0.00000E+00
 -1       894 1.00000E-01 2.29167E-02 0.00000E+00
 -1       895 1.00000E-01 2.39583E-02 0.00000E+00
 -1       956 6.77083E-02 2.50000E-02 0.00000E+00
 -1       957 6.87500E-02 2.50000E-02 0.00000E+00
 -1       958 6.97917E-02 2.50000E-02 0.00000E+00
 -1       959 7.08333E-02 2.50000E-02 0.00000E+00
 -1       960 7.18750E-02 2.50000E-02 0.00000E+00
 -1       961 7.29167E-02 2.50000E-02 0.00000E+00
 -1       962 7.39583E-02 2.50000E-02 0.00000E+00
 -1       963 7.50000E-02 2.50000E-02 0.00000E+00
 -1       964 7.60417E-02 2.50000E-02 0.00000E+00
 -1       965 7.70833E-02 2.50000E-02 0.00000E+00
 -1       966 7.81250E-02 2.50000E-02 0.00000E+00
 -1       967 7.91667E-02 2.50000E-02 0.00000E+00
 -1       968 8.02083E-02 2.50000E-02 0.00000E+00
 -1       969 8.12500E-02 2.50000E-02 0.00000E+00
 -1       970 8.22917E-02 2.50000E-02 0.00000E+00
 -1       971 8.43750E-02 2.50000E-02 0.00000E+00
 -1       972 8.54167E-02 2.50000E-02 0.00000E+00
 -1       973 8.64583E-02 2.50000E-02 0.00000E+00
 -1       974 8.75000E-02 2.50000E-02 0.00000E+00
 -1       975 8.85417E-02 2.50000E-02 0.00000E+00
 -1       976 8.95833E-02 2.50000E-02 0.00000E+00
 -1       977 9.06250E-02 2.50000E-02 0.00000E+00
 -1       978 9.16667E-02 2.50000E-02 0.00000E+00
 -1       979 9.27083E-02 2.50000E-02 0.00000E+00
 -1       980 9.37500E-02 2.50000E-02 0.00000E+00
 -1       981 9.47917E-02 2.50000E-02 0.00000E+00
 -1       982 9.58333E-02 2.50000E-02 0.00000E+00
 -1       983 9.68750E-02 2.50000E-02 0.00000E+00
 -1       984 9.79167E-02 2.50000E-02 0.00000E+00
 -1       985 9.89583E-02 2.50000E-02 0.00000E+00
 -3
    3C                           211                                     1
 -1         1   12    0    1
 -2         1        52        51
 -1         2   12    0    1
 -2        52        54        53
 -1         3   12    0    1
 -2        54         8        55
 -1         4   12    0    1
 -2         1        57        56
 -1         5   12    0    1
 -2        57        59        58
 -1         6   12    0    1
 -2        59        61        60
 -1         7   12    0    1
 -2        61        63        62
 -1         8   12    0    1
 -2        63        65        64
 -1         9   12    0    1
 -2        65        67        66
 -1        10   12    0    1
 -2        67        69        68
 -1        11   12    0    1
 -2        69         9        70
 -1        12   12    0    1
 -2         2        87        86
 -1        13   12    0    1
 -2        87        89        88
 -1        14   12    0    1
 -2        89         9        90
 -1        15   12    0    1
 -2         3       122       121
 -1        16   12    0    1
 -2       122       124       123
 -1        17   12    0    1
 -2       124        10       125
 -1        18   12    0    1
 -2         5       192       191
 -1        19   12    0    1
 -2       192       194       193
 -1        20   12    0    1
 -2       194        12       195
 -1        21   12    0    1
 -2         8       252       251
 -1        22   12    0    1
 -2       252       254       253
 -1        23   12    0    1
 -2       254       256       255
 -1        24   12    0    1
 -2       256       258       257
 -1        25   12    0    1
 -2       258       260       259
 -1        26   12    0    1
 -2       260       262       261
 -1        27   12    0    1
 -2       262       264       263
 -1        28   12    0    1
 -2       264         9       265
 -1        29   12    0    1
 -2         8       267       266
 -1        30   12    0    1
 -2       267       269       268
 -1        31   12    0    1
 -2       269        15       270
 -1        32   12    0    1
 -2         8       272       271
 -1        33   12    0    1
 -2       272       274       273
 -1        34   12    0    1
 -2       274       276       275
 -1        35   12    0    1
 -2       276       278       277
 -1        36   12    0    1
 -2       278       280       279
 -1        37   12    0    1
 -2       280       282       281
 -1        38   12    0    1
 -2       282       284       283
 -1        39   12    0    1
 -2       284        16       285
 -1        40   12    0    1
 -2         9       302       301
 -1        41   12    0    1
 -2       302       304       303
 -1        42   12    0    1
 -2       304        16       305
 -1        43   12    0    1
 -2         9       307       306
 -1        44   12    0    1
 -2       307       309       308
 -1        45   12    0    1
 -2       309       311       310
 -1        46   12    0    1
 -2       311       313       312
 -1        47   12    0    1
 -2       313       315       314
 -1        48   12    0    1
 -2       315       317       316
 -1        49   12    0    1
 -2       317       319       318
 -1        50   12    0    1
 -2       319        17       320
 -1        51   12    0    1
 -2        10       337       336
 -1        52   12    0    1
 -2       337       339       338
 -1        53   12    0    1
 -2       339        17       340
 -1        54   12    0    1
 -2        12       407       406
 -1        55   12    0    1
 -2       407       409       408
 -1        56   12    0    1
 -2       409        19       410
 -1        57   12    0    1
 -2        16       522       521
 -1        58   12    0    1
 -2       522       524       523
 -1        59   12    0    1
 -2       524       526       525
 -1        60   12    0    1
 -2       526       528       527
 -1        61   12    0    1
 -2       528       530       529
 -1        62   12    0    1
 -2       530       532       531
 -1        63   12    0    1
 -2       532       534       533
 -1        64   12    0    1
 -2       534        24       535
 -1        65   12    0    1
 -2        17       537       536
 -1        66   12    0    1
 -2       537       539       538
 -1        67   12    0    1
 -2       539       541       540
 -1        68   12    0    1
 -2       541       543       542
 -1        69   12    0    1
 -2       543       545       544
 -1        70   12    0    1
 -2       545       547       546
 -1        71   12    0    1
 -2       547       549       548
 -1        72   12    0    1
 -2       549        18       550
 -1        73   12    0    1
 -2        17       552       551
 -1        74   12    0    1
 -2       552       554       553
 -1        75   12    0    1
 -2       554        24       555
 -1        76   12    0    1
 -2        17       557       556
 -1        77   12    0    1
 -2       557       559       558
 -1        78   12    0    1
 -2       559       561       560
 -1        79   12    0    1
 -2       561       563       562
 -1        80   12    0    1
 -2       563       565       564
 -1        81   12    0    1
 -2       565       567       566
 -1        82   12    0    1
 -2       567       569       568
 -1        83   12    0    1
 -2       569        25       570
 -1        84   12    0    1
 -2        18       572       571
 -1        85   12    0    1
 -2       572       574       573
 -1        86   12    0    1
 -2       574       576       575
 -1        87   12    0    1
 -2       576       578       577
 -1        88   12    0    1
 -2       578       580       579
 -1        89   12    0    1
 -2       580       582       581
 -1        90   12    0    1
 -2       582       584       583
 -1        91   12    0    1
 -2       584        19       585
 -1        92   12    0    1
 -2        18       587       586
 -1        93   12    0    1
 -2       587       589       588
 -1        94   12    0    1
 -2       589        25       590
 -1        95   12    0    1
 -2        18       592       591
 -1        96   12    0    1
 -2       592       594       593
 -1        97   12    0    1
 -2       594       596       595
 -1        98   12    0    1
 -2       596       598       597
 -1        99   12    0    1
 -2       598       600       599
 -1       100   12    0    1
 -2       600       602       601
 -1       101   12    0    1
 -2       602       604       603
 -1       102   12    0    1
 -2       604        26       605
 -1       103   12    0    1
 -2        19       607       606
 -1       104   12    0    1
 -2       607       609       608
 -1       105   12    0    1
 -2       609       611       610
 -1       106   12    0    1
 -2       611       613       612
 -1       107   12    0    1
 -2       613       615       614
 -1       108   12    0    1
 -2       615       617       616
 -1       109   12    0    1
 -2       617       619       618
 -1       110   12    0    1
 -2       619        20       620
 -1       111   12    0    1
 -2        19       622       621
 -1       112   12    0    1
 -2       622       624       623
 -1       113   12    0    1
 -2       624        26       625
 -1       114   12    0    1
 -2        19       627       626
 -1       115   12    0    1
 -2       627       629       628
 -1       116   12    0    1
 -2       629       631       630
 -1       117   12    0    1
 -2       631       633       632
 -1       118   12    0    1
 -2       633       635       634
 -1       119   12    0    1
 -2       635       637       636
 -1       120   12    0    1
 -2       637       639       638
 -1       121   12    0    1
 -2       639        27       640
 -1       122   12    0    1
 -2        20       657       656
 -1       123   12    0    1
 -2       657       659       658
 -1       124   12    0    1
 -2       659        27       660
 -1       125   12    0    1
 -2        20       662       661
 -1       126   12    0    1
 -2       662       664       663
 -1       127   12    0    1
 -2       664       666       665
 -1       128   12    0    1
 -2       666       668       667
 -1       129   12    0    1
 -2       668       670       669
 -1       130   12    0    1
 -2       670       672       671
 -1       131   12    0    1
 -2       672       674       673
 -1       132   12    0    1
 -2       674        28       675
 -1       133   12    0    1
 -2        21       677       676
 -1       134   12    0    1
 -2       677       679       678
 -1       135   12    0    1
 -2       679        28       680
 -1       136   12    0    1
 -2        24       772       771
 -1       137   12    0    1
 -2       772       774       773
 -1       138   12    0    1
 -2       774       776       775
 -1       139   12    0    1
 -2       776       778       777
 -1       140   12    0    1
 -2       778       780       779
 -1       141   12    0    1
 -2       780       782       781
 -1       142   12    0    1
 -2       782       784       783
 -1       143   12    0    1
 -2       784        32       785
 -1       144   12    0    1
 -2        25       787       786
 -1       145   12    0    1
 -2       787       789       788
 -1       146   12    0    1
 -2       789       791       790
 -1       147   12    0    1
 -2       791       793       792
 -1       148   12    0    1
 -2       793       795       794
 -1       149   12    0    1
 -2       795       797       796
 -1       150   12    0    1
 -2       797       799       798
 -1       151   12    0    1
 -2       799        26       800
 -1       152   12    0    1
 -2        25       802       801
 -1       153   12    0    1
 -2       802       804       803
 -1       154   12    0    1
 -2       804        32       805
 -1       155   12    0    1
 -2        25       807       806
 -1       156   12    0    1
 -2       807       809       808
 -1       157   12    0    1
 -2       809       811       810
 -1       158   12    0    1
 -2       811       813       812
 -1       159   12    0    1
 -2       813       815       814
 -1       160   12    0    1
 -2       815       817       816
 -1       161   12    0    1
 -2       817       819       818
 -1       162   12    0    1
 -2       819        33       820
 -1       163   12    0    1
 -2        26       822       821
 -1       164   12    0    1
 -2       822       824       823
 -1       165   12    0    1
 -2       824       826       825
 -1       166   12    0    1
 -2       826       828       827
 -1       167   12    0    1
 -2       828       830       829
 -1       168   12    0    1
 -2       830       832       831
 -1       169   12    0    1
 -2       832       834       833
 -1       170   12    0    1
 -2       834        27       835
 -1       171   12    0    1
 -2        26       837       836
 -1       172   12    0    1
 -2       837       839       838
 -1       173   12    0    1
 -2       839        33       840
 -1       174   12    0    1
 -2        27       857       856
 -1       175   12    0    1
 -2       857       859       858
 -1       176   12    0    1
 -2       859       861       860
 -1       177   12    0    1
 -2       861       863       862
 -1       178   12    0    1
 -2       863       865       864
 -1       179   12    0    1
 -2       865       867       866
 -1       180   12    0    1
 -2       867       869       868
 -1       181   12    0    1
 -2       869        28       870
 -1       182   12    0    1
 -2        27       872       871
 -1       183   12    0    1
 -2       872       874       873
 -1       184   12    0    1
 -2       874        34       875
 -1       185   12    0    1
 -2        27       877       876
 -1       186   12    0    1
 -2       877       879       878
 -1       187   12    0    1
 -2       879       881       880
 -1       188   12    0    1
 -2       881       883       882
 -1       189   12    0    1
 -2       883       885       884
 -1       190   12    0    1
 -2       885       887       886
 -1       191   12    0    1
 -2       887       889       888
 -1       192   12    0    1
 -2       889        35       890
 -1       193   12    0    1
 -2        28       892       891
 -1       194   12    0    1
 -2       892       894       893
 -1       195   12    0    1
 -2       894        35       895
 -1       196   12    0    1
 -2        33       957       956
 -1       197   12    0    1
 -2       957       959       958
 -1       198   12    0    1
 -2       959       961       960
 -1       199   12    0    1
 -2       961       963       962
 -1       200   12    0    1
 -2       963       965       964
 -1       201   12    0    1
 -2       965       967       966
 -1       202   12    0    1
 -2       967       969       968
 -1       203   12    0    1
 -2       969        34       970
 -1       204   12    0    1
 -2        34       972       971
 -1       205   12    0    1
 -2       972       974       973
 -1       206   12    0    1
 -2       974       976       975
 -1       207   12    0    1
 -2       976       978       977
 -1       208   12    0    1
 -2       978       980       979
 -1       209   12    0    1
 -2       980       982       981
 -1       210   12    0    1
 -2       982       984       983
 -1       211   12    0    1
 -2       984        35       985
 -3
    1PSTEP                         1           1           1          
  100CL  101 1.25000E-01         409                     0    1           1
 -4  DISP        4    1
 -5  D1          1    2    1    0
 -5  D2          1    2    2    0
 -5  D3          1    2    3    0
 -5  ALL         1    2    0    0    1ALL
 -1         1 3.28025E-05 0.00000E+00 0.00000E+00
 -1         2 3.04941E-05-7.26239E-30 0.00000E+00
 -1         3 2.77886E-05 9.14755E-28-1.65436E-24
 -1         5 2.00836E-05-1.68702E-26 8.27181E-25
 -1         8 2.62347E-05-2.28563E-07 0.00000E+00
 -1         9 2.66018E-05 1.31973E-07 0.00000E+00
 -1        10 2.57787E-05-3.81416E-07 0.00000E+00
 -1        12 1.99397E-05 1.35954E-07 8.27181E-25
 -1        15 1.84118E-05-2.39967E-07 1.03398E-25
 -1        16 1.87216E-05 1.04665E-07 0.00000E+00
 -1        17 1.92453E-05-7.96010E-07 0.00000E+00
 -1        18 1.92446E-05 2.91938E-08 0.00000E+00
 -1        19 1.95080E-05 2.71187E-07 0.00000E+00
 -1        20 1.95444E-05 4.05626E-06 0.00000E+00
 -1        21 1.94075E-05 7.67184E-06-4.13590E-25
 -1        24 4.89619E-06-1.04498E-06 0.00000E+00
 -1        25 1.87867E-05 6.02190E-08 0.00000E+00
 -1        26 1.90321E-05 3.77856E-07 0.00000E+00
 -1        27 1.86566E-05 3.45101E-06 0.00000E+00
 -1        28 1.85355E-05 7.55552E-06 0.00000E+00
 -1        32 0.00000E+00 0.00000E+00 0.00000E+00
 -1        33 1.82328E-05 5.06900E-07 0.00000E+00
 -1        34 1.78690E-05 3.44574E-06 0.00000E+00
 -1        35 1.75237E-05 7.49422E-06 0.00000E+00
 -1        51 3.23756E-05-3.84610E-08 0.00000E+00
 -1        52 3.15841E-05-7.56242E-08 0.00000E+00
 -1        53 3.04997E-05-1.12735E-07 0.00000E+00
 -1        54 2.91969E-05-1.50140E-07-8.27181E-25
 -1        55 2.77503E-05-1.88145E-07-8.78879E-25
 -1        56 3.24977E-05-1.79055E-07-6.61744E-24
 -1        57 3.22197E-05-4.63905E-07 0.00000E+00
 -1        58 3.19703E-05-8.23048E-07 0.00000E+00
 -1        59 3.17365E-05-1.22972E-06 6.61744E-24
 -1        60 3.15096E-05-1.65473E-06 0.00000E+00
 -1        61 3.12784E-05-2.06956E-06 6.61744E-24
 -1        62 3.10327E-05-2.44566E-06 0.00000E+00
 -1        63 3.07618E-05-2.75494E-06 0.00000E+00
 -1        64 3.04558E-05-2.97034E-06-1.32349E-23
 -1        65 3.01048E-05-3.06553E-06 6.61744E-24
 -1        66 2.96995E-05-3.01618E-06-1.32349E-23
 -1        67 2.92317E-05-2.79898E-06-6.61744E-24
 -1        68 2.86932E-05-2.39354E-06 0.00000E+00
 -1        69 2.80786E-05-1.78026E-06-3.30872E-24
 -1        70 2.73797E-05-9.44363E-07 0.00000E+00
 -1        86 3.03879E-05 2.35396E-08 0.00000E+00
 -1        87 3.00692E-05 4.68927E-08 2.06795E-25
 -1        88 2.95353E-05 7.01368E-08 0.00000E+00
 -1        89 2.87832E-05 9.23476E-08 0.00000E+00
 -1        90 2.78073E-05 1.14676E-07 0.00000E+00
 -1       121 2.77327E-05-6.34730E-08 0.00000E+00
 -1       122 2.75650E-05-1.26960E-07 0.00000E+00
 -1       123 2.72856E-05-1.90473E-07 0.00000E+00
 -1       124 2.68946E-05-2.54036E-07 0.00000E+00
 -1       125 2.63922E-05-3.17645E-07 0.00000E+00
 -1       191 2.00796E-05 2.26602E-08 0.00000E+00
 -1       192 2.00676E-05 4.53201E-08-4.13590E-25
 -1       193 2.00476E-05 6.79800E-08 0.00000E+00
 -1       194 2.00196E-05 9.06393E-08 4.13590E-25
 -1       195 1.99836E-05 1.13298E-07 0.00000E+00
 -1       251 2.62527E-05 8.55434E-07 0.00000E+00
 -1       252 2.62758E-05 1.50591E-06 5.16988E-26
 -1       253 2.62988E-05 1.78920E-06 0.00000E+00
 -1       254 2.63227E-05 1.77126E-06 2.06795E-25
 -1       255 2.63465E-05 1.51425E-06-8.27181E-25
 -1       256 2.63705E-05 1.08010E-06 0.00000E+00
 -1       257 2.63945E-05 5.28515E-07-8.27181E-25
 -1       258 2.64184E-05-8.09211E-08 0.00000E+00
 -1       259 2.64423E-05-6.89377E-07 8.27181E-25
 -1       260 2.64663E-05-1.23800E-06 0.00000E+00
 -1       261 2.64903E-05-1.66718E-06 0.00000E+00
 -1       262 2.65141E-05-1.91721E-06-2.06795E-25
 -1       263 2.65380E-05-1.92610E-06 0.00000E+00
 -1       264 2.65609E-05-1.63162E-06-1.03398E-25
 -1       265 2.65839E-05-9.67728E-07 0.00000E+00
 -1       266 2.49308E-05-2.33715E-07 0.00000E+00
 -1       267 2.36270E-05-2.35219E-07 0.00000E+00
 -1       268 2.23232E-05-2.36955E-07-4.13590E-25
 -1       269 2.10194E-05-2.38006E-07 0.00000E+00
 -1       270 1.97156E-05-2.39041E-07-1.03398E-25
 -1       271 2.54283E-05 7.29190E-07 6.61744E-24
 -1       272 2.47445E-05 1.32076E-06 0.00000E+00
 -1       273 2.41792E-05 1.59837E-06 0.00000E+00
 -1       274 2.37113E-05 1.61002E-06 6.61744E-24
 -1       275 2.33238E-05 1.40700E-06 0.00000E+00
 -1       276 2.29969E-05 1.04098E-06 6.61744E-24
 -1       277 2.27113E-05 5.64837E-07 0.00000E+00
 -1       278 2.24468E-05 3.19661E-08 6.61744E-24
 -1       279 2.21835E-05-5.03888E-07 0.00000E+00
 -1       280 2.19011E-05-9.88945E-07 0.00000E+00
 -1       281 2.15798E-05-1.36979E-06 0.00000E+00
 -1       282 2.11998E-05-1.59351E-06 0.00000E+00
 -1       283 2.07416E-05-1.60829E-06 0.00000E+00
 -1       284 2.01874E-05-1.36290E-06 0.00000E+00
 -1       285 1.95169E-05-8.08857E-07-6.61744E-24
 -1       301 2.52721E-05 1.25854E-07-1.65436E-24
 -1       302 2.39414E-05 1.23688E-07-4.13590E-25
 -1       303 2.26153E-05 1.21629E-07 8.27181E-25
 -1       304 2.12995E-05 1.19120E-07-8.27181E-25
 -1       305 1.99998E-05 1.15973E-07 0.00000E+00
 -1       306 2.57743E-05 1.09219E-06 0.00000E+00
 -1       307 2.50848E-05 1.64408E-06-6.61744E-24
 -1       308 2.45324E-05 1.83347E-06-1.32349E-23
 -1       309 2.40969E-05 1.70424E-06 0.00000E+00
 -1       310 2.37586E-05 1.31524E-06 0.00000E+00
 -1       311 2.34943E-05 7.27656E-07 0.00000E+00
 -1       312 2.32783E-05 1.10405E-08 0.00000E+00
 -1       313 2.30839E-05-7.63586E-07 6.61744E-24
 -1       314 2.28837E-05-1.52268E-06-1.32349E-23
 -1       315 2.26503E-05-2.19288E-06 6.61744E-24
 -1       316 2.23576E-05-2.70472E-06-1.32349E-23
 -1       317 2.19808E-05-2.99051E-06-6.61744E-24
 -1       318 2.14974E-05-2.99207E-06 0.00000E+00
 -1       319 2.08896E-05-2.65367E-06-6.61744E-24
 -1       320 2.01380E-05-1.93572E-06 0.00000E+00
 -1       336 2.50394E-05-4.50282E-07 1.65436E-24
 -1       337 2.41596E-05-5.19353E-07 0.00000E+00
 -1       338 2.31397E-05-5.88533E-07 1.65436E-24
 -1       339 2.19803E-05-6.57765E-07 0.00000E+00
 -1       340 2.06819E-05-7.27171E-07 0.00000E+00
 -1       406 1.98877E-05 1.58608E-07 8.27181E-25
 -1       407 1.98277E-05 1.81254E-07 4.13590E-25
 -1       408 1.97597E-05 2.03885E-07 0.00000E+00
 -1       409 1.96838E-05 2.26475E-07-4.13590E-25
 -1       410 1.95998E-05 2.48978E-07 0.00000E+00
 -1       521 1.75743E-05 8.58905E-07 1.32349E-23
 -1       522 1.65637E-05 1.17477E-06 0.00000E+00
 -1       523 1.56991E-05 1.10621E-06 0.00000E+00
 -1       524 1.49549E-05 7.03605E-07 1.32349E-23
 -1       525 1.43083E-05 4.03703E-08 0.00000E+00
 -1       526 1.37295E-05-8.06241E-07-1.32349E-23
 -1       527 1.31861E-05-1.74779E-06 0.00000E+00
 -1       528 1.26443E-05-2.69409E-06-1.32349E-23
 -1       529 1.20704E-05-3.55457E-06 0.00000E+00
 -1       530 1.14313E-05-4.24050E-06 1.32349E-23
 -1       531 1.06975E-05-4.67346E-06-2.64698E-23
 -1       532 9.84220E-06-4.78017E-06 1.32349E-23
 -1       533 8.84437E-06-4.50686E-06 2.64698E-23
 -1       534 7.69081E-06-3.80621E-06 1.32349E-23
 -1       535 6.36759E-06-2.65927E-06-1.32349E-23
 -1       536 1.92423E-05 5.42548E-07 0.00000E+00
 -1       537 1.92417E-05 1.54862E-06 2.06795E-25
 -1       538 1.92412E-05 2.25685E-06 2.06795E-25
 -1       539 1.92413E-05 2.70187E-06-5.16988E-26
 -1       540 1.92414E-05 2.91819E-06-5.16988E-26
 -1       541 1.92417E-05 2.94029E-06 0.00000E+00
 -1       542 1.92419E-05 2.80254E-06 0.00000E+00
 -1       543 1.92422E-05 2.53930E-06 0.00000E+00
 -1       544 1.92424E-05 2.18488E-06 0.00000E+00
 -1       545 1.92426E-05 1.77356E-06 0.00000E+00
 -1       546 1.92428E-05 1.33959E-06 0.00000E+00
 -1       547 1.92430E-05 9.17234E-07 0.00000E+00
 -1       548 1.92433E-05 5.40733E-07 5.16988E-26
 -1       549 1.92436E-05 2.44352E-07 0.00000E+00
 -1       550 1.92439E-05 6.24041E-08-1.03398E-25
 -1       551 1.73393E-05-8.35134E-07-1.65436E-24
 -1       552 1.50592E-05-8.74457E-07 0.00000E+00
 -1       553 1.25391E-05-9.14457E-07-8.27181E-25
 -1       554 9.91476E-06-9.55380E-07 0.00000E+00
 -1       555 7.32219E-06-9.96942E-07 3.30872E-24
 -1       556 1.87483E-05 4.97348E-07 0.00000E+00
 -1       557 1.83686E-05 1.48465E-06 0.00000E+00
 -1       558 1.80936E-05 2.19425E-06 0.00000E+00
 -1       559 1.79117E-05 2.65669E-06 0.00000E+00
 -1       560 1.78112E-05 2.90243E-06-3.30872E-24
 -1       561 1.77806E-05 2.96206E-06 0.00000E+00
 -1       562 1.78084E-05 2.86620E-06 0.00000E+00
 -1       563 1.78829E-05 2.64547E-06 0.00000E+00
 -1       564 1.79928E-05 2.33052E-06 0.00000E+00
 -1       565 1.81265E-05 1.95197E-06-4.13590E-25
 -1       566 1.82726E-05 1.54047E-06 2.06795E-25
 -1       567 1.84195E-05 1.12667E-06 0.00000E+00
 -1       568 1.85558E-05 7.41196E-07 0.00000E+00
 -1       569 1.86701E-05 4.14662E-07 0.00000E+00
 -1       570 1.87507E-05 1.77688E-07 0.00000E+00
 -1       571 1.92606E-05 5.45679E-08-2.06795E-25
 -1       572 1.92769E-05 6.91436E-08 1.55096E-25
 -1       573 1.92933E-05 7.48466E-08 2.06795E-25
 -1       574 1.93098E-05 7.37043E-08 0.00000E+00
 -1       575 1.93264E-05 6.77529E-08 0.00000E+00
 -1       576 1.93429E-05 5.90424E-08 0.00000E+00
 -1       577 1.93594E-05 4.96239E-08 0.00000E+00
 -1       578 1.93759E-05 4.15505E-08 0.00000E+00
 -1       579 1.93924E-05 3.68751E-08 0.00000E+00
 -1       580 1.94090E-05 3.76509E-08 0.00000E+00
 -1       581 1.94255E-05 4.59304E-08 0.00000E+00
 -1       582 1.94420E-05 6.37640E-08-8.27181E-25
 -1       583 1.94585E-05 9.32000E-08 0.00000E+00
 -1       584 1.94751E-05 1.36265E-07 0.00000E+00
 -1       585 1.94916E-05 1.94975E-07 0.00000E+00
 -1       586 1.91624E-05 3.46925E-08-4.13590E-25
 -1       587 1.90733E-05 4.00502E-08-5.16988E-26
 -1       588 1.89842E-05 4.53475E-08 0.00000E+00
 -1       589 1.89021E-05 5.05593E-08 0.00000E+00
 -1       590 1.88341E-05 5.56272E-08 0.00000E+00
 -1       591 1.92275E-05 6.29071E-08 2.58494E-26
 -1       592 1.92131E-05 8.76921E-08 0.00000E+00
 -1       593 1.92013E-05 1.05252E-07 0.00000E+00
 -1       594 1.91917E-05 1.17120E-07 1.03398E-25
 -1       595 1.91835E-05 1.24852E-07 0.00000E+00
 -1       596 1.91764E-05 1.29988E-07 0.00000E+00
 -1       597 1.91696E-05 1.34071E-07-1.03398E-25
 -1       598 1.91626E-05 1.38641E-07-5.16988E-26
 -1       599 1.91549E-05 1.45239E-07 0.00000E+00
 -1       600 1.91458E-05 1.55404E-07 5.16988E-26
 -1       601 1.91348E-05 1.70676E-07 0.00000E+00
 -1       602 1.91214E-05 1.92599E-07-2.58494E-26
 -1       603 1.91049E-05 2.22714E-07 0.00000E+00
 -1       604 1.90848E-05 2.62576E-07 2.58494E-26
 -1       605 1.90605E-05 3.13719E-07 0.00000E+00
 -1       606 1.95111E-05 3.84880E-07 0.00000E+00
 -1       607 1.95136E-05 5.22170E-07 0.00000E+00
 -1       608 1.95159E-05 6.81672E-07 0.00000E+00
 -1       609 1.95182E-05 8.61823E-07 0.00000E+00
 -1       610 1.95204E-05 1.06106E-06 8.27181E-25
 -1       611 1.95227E-05 1.27778E-06 0.00000E+00
 -1       612 1.95249E-05 1.51040E-06 0.00000E+00
 -1       613 1.95271E-05 1.75732E-06 0.00000E+00
 -1       614 1.95293E-05 2.01695E-06 0.00000E+00
 -1       615 1.95315E-05 2.28770E-06 0.00000E+00
 -1       616 1.95337E-05 2.56796E-06 0.00000E+00
 -1       617 1.95358E-05 2.85615E-06-1.03398E-25
 -1       618 1.95380E-05 3.15067E-06 0.00000E+00
 -1       619 1.95402E-05 3.44992E-06 0.00000E+00
 -1       620 1.95424E-05 3.75232E-06 0.00000E+00
 -1       621 1.94174E-05 2.88979E-07 4.13590E-25
 -1       622 1.93331E-05 3.06857E-07 2.06795E-25
 -1       623 1.92537E-05 3.24731E-07 4.13590E-25
 -1       624 1.91780E-05 3.42577E-07-2.06795E-25
 -1       625 1.91046E-05 3.60391E-07-4.13590E-25
 -1       626 1.94845E-05 3.90490E-07 0.00000E+00
 -1       627 1.94537E-05 5.29342E-07 8.27181E-25
 -1       628 1.94164E-05 6.85932E-07 0.00000E+00
 -1       629 1.93731E-05 8.58327E-07 0.00000E+00
 -1       630 1.93247E-05 1.04459E-06 0.00000E+00
 -1       631 1.92717E-05 1.24278E-06 4.13590E-25
 -1       632 1.92150E-05 1.45093E-06 0.00000E+00
 -1       633 1.91554E-05 1.66710E-06 0.00000E+00
 -1       634 1.90934E-05 1.88934E-06 0.00000E+00
 -1       635 1.90299E-05 2.11570E-06-4.13590E-25
 -1       636 1.89656E-05 2.34423E-06 4.13590E-25
 -1       637 1.89012E-05 2.57297E-06 2.06795E-25
 -1       638 1.88374E-05 2.79997E-06 0.00000E+00
 -1       639 1.87750E-05 3.02329E-06 2.06795E-25
 -1       640 1.87145E-05 3.24096E-06 0.00000E+00
 -1       656 1.92921E-05 3.95782E-06 0.00000E+00
 -1       657 1.91291E-05 3.85541E-06 0.00000E+00
 -1       658 1.90200E-05 3.75331E-06 1.65436E-24
 -1       659 1.89292E-05 3.65129E-06 0.00000E+00
 -1       660 1.88202E-05 3.54894E-06 0.00000E+00
 -1       661 1.94509E-05 4.35423E-06-2.06795E-25
 -1       662 1.93629E-05 4.63972E-06-2.06795E-25
 -1       663 1.92794E-05 4.91293E-06 0.00000E+00
 -1       664 1.92005E-05 5.17440E-06 0.00000E+00
 -1       665 1.91258E-05 5.42455E-06 0.00000E+00
 -1       666 1.90552E-05 5.66385E-06 2.06795E-25
 -1       667 1.89885E-05 5.89274E-06 0.00000E+00
 -1       668 1.89256E-05 6.11166E-06 2.06795E-25
 -1       669 1.88662E-05 6.32107E-06 4.13590E-25
 -1       670 1.88103E-05 6.52139E-06 0.00000E+00
 -1       671 1.87576E-05 6.71304E-06 0.00000E+00
 -1       672 1.87079E-05 6.89646E-06 2.06795E-25
 -1       673 1.86612E-05 7.07205E-06-4.13590E-25
 -1       674 1.86170E-05 7.24018E-06 2.06795E-25
 -1       675 1.85756E-05 7.40134E-06-1.03398E-25
 -1       676 1.92621E-05 7.65234E-06 4.13590E-25
 -1       677 1.91167E-05 7.63284E-06 0.00000E+00
 -1       678 1.89713E-05 7.61336E-06 4.13590E-25
 -1       679 1.88259E-05 7.59393E-06 0.00000E+00
 -1       680 1.86807E-05 7.57451E-06 0.00000E+00
 -1       771 3.92681E-06 7.93019E-07-6.61744E-24
 -1       772 3.08295E-06 2.29078E-06 6.61744E-24
 -1       773 2.35893E-06 3.46971E-06 0.00000E+00
 -1       774 1.74630E-06 4.35189E-06 0.00000E+00
 -1       775 1.23681E-06 4.95948E-06 0.00000E+00
 -1       776 8.22023E-07 5.31485E-06 0.00000E+00
 -1       777 4.93460E-07 5.44048E-06 0.00000E+00
 -1       778 2.42583E-07 5.35900E-06 0.00000E+00
 -1       779 6.08347E-08 5.09317E-06 0.00000E+00
 -1       780-6.03926E-08 4.66582E-06 0.00000E+00
 -1       781-1.29707E-07 4.09990E-06 6.61744E-24
 -1       782-1.55752E-07 3.41846E-06 0.00000E+00
 -1       783-1.47174E-07 2.64455E-06 6.61744E-24
 -1       784-1.12626E-07 1.80136E-06 0.00000E+00
 -1       785-6.07815E-08 9.12069E-07 0.00000E+00
 -1       786 1.88011E-05 5.99670E-08 0.00000E+00
 -1       787 1.88164E-05 5.95066E-08 2.06795E-25
 -1       788 1.88317E-05 5.93600E-08 4.13590E-25
 -1       789 1.88471E-05 6.00501E-08 2.06795E-25
 -1       790 1.88625E-05 6.21284E-08 0.00000E+00
 -1       791 1.88779E-05 6.61472E-08 0.00000E+00
 -1       792 1.88934E-05 7.27261E-08 0.00000E+00
 -1       793 1.89088E-05 8.24861E-08 0.00000E+00
 -1       794 1.89243E-05 9.61586E-08-4.13590E-25
 -1       795 1.89398E-05 1.14477E-07 0.00000E+00
 -1       796 1.89552E-05 1.38336E-07 0.00000E+00
 -1       797 1.89707E-05 1.68632E-07-2.06795E-25
 -1       798 1.89861E-05 2.06487E-07 0.00000E+00
 -1       799 1.90015E-05 2.53025E-07 0.00000E+00
 -1       800 1.90169E-05 3.09671E-07 4.13590E-25
 -1       801 1.75191E-05 5.79044E-08 0.00000E+00
 -1       802 1.37477E-05 4.93165E-08-2.06795E-25
 -1       803 8.79150E-06 3.59553E-08 0.00000E+00
 -1       804 3.96998E-06 2.14261E-08 0.00000E+00
 -1       805 6.00332E-07 1.28777E-08 0.00000E+00
 -1       806 1.87673E-05 4.98841E-08 0.00000E+00
 -1       807 1.87471E-05 3.98221E-08 2.06795E-25
 -1       808 1.87262E-05 3.12283E-08 8.27181E-25
 -1       809 1.87042E-05 2.51126E-08 0.00000E+00
 -1       810 1.86810E-05 2.24830E-08 4.13590E-25
 -1       811 1.86560E-05 2.43324E-08 4.13590E-25
 -1       812 1.86290E-05 3.16527E-08-4.13590E-25
 -1       813 1.85995E-05 4.54336E-08 2.06795E-25
 -1       814 1.85673E-05 6.66647E-08 8.27181E-25
 -1       815 1.85319E-05 9.63349E-08-4.13590E-25
 -1       816 1.84929E-05 1.35433E-07-4.13590E-25
 -1       817 1.84501E-05 1.84948E-07 2.06795E-25
 -1       818 1.84030E-05 2.45868E-07 4.13590E-25
 -1       819 1.83512E-05 3.19179E-07-2.06795E-25
 -1       820 1.82946E-05 4.05868E-07 4.13590E-25
 -1       821 1.90100E-05 4.63146E-07-2.06795E-25
 -1       822 1.89865E-05 5.71078E-07 0.00000E+00
 -1       823 1.89630E-05 7.01154E-07-8.27181E-25
 -1       824 1.89393E-05 8.52855E-07 0.00000E+00
 -1       825 1.89156E-05 1.02455E-06 0.00000E+00
 -1       826 1.88919E-05 1.21459E-06 0.00000E+00
 -1       827 1.88681E-05 1.42036E-06 0.00000E+00
 -1       828 1.88444E-05 1.63927E-06 0.00000E+00
 -1       829 1.88206E-05 1.86802E-06 0.00000E+00
 -1       830 1.87968E-05 2.10330E-06 4.13590E-25
 -1       831 1.87731E-05 2.34149E-06 0.00000E+00
 -1       832 1.87494E-05 2.57894E-06 0.00000E+00
 -1       833 1.87257E-05 2.81205E-06 0.00000E+00
 -1       834 1.87022E-05 3.03722E-06 2.06795E-25
 -1       835 1.86787E-05 3.25127E-06 0.00000E+00
 -1       836 1.89348E-05 3.99332E-07-4.13590E-25
 -1       837 1.88094E-05 4.21287E-07 0.00000E+00
 -1       838 1.86661E-05 4.43205E-07-4.13590E-25
 -1       839 1.85153E-05 4.64986E-07 2.06795E-25
 -1       840 1.83674E-05 4.86731E-07 0.00000E+00
 -1       856 1.86499E-05 3.65747E-06 0.00000E+00
 -1       857 1.86424E-05 3.88987E-06 0.00000E+00
 -1       858 1.86349E-05 4.14411E-06-2.06795E-25
 -1       859 1.86273E-05 4.41605E-06 0.00000E+00
 -1       860 1.86197E-05 4.70158E-06 0.00000E+00
 -1       861 1.86120E-05 4.99654E-06-1.03398E-25
 -1       862 1.86044E-05 5.29681E-06 2.06795E-25
 -1       863 1.85967E-05 5.59825E-06 0.00000E+00
 -1       864 1.85891E-05 5.89672E-06-2.06795E-25
 -1       865 1.85814E-05 6.18807E-06 0.00000E+00
 -1       866 1.85738E-05 6.46818E-06 0.00000E+00
 -1       867 1.85661E-05 6.73290E-06 0.00000E+00
 -1       868 1.85585E-05 6.97812E-06 0.00000E+00
 -1       869 1.85508E-05 7.19970E-06 0.00000E+00
 -1       870 1.85432E-05 7.39354E-06 0.00000E+00
 -1       871 1.84989E-05 3.45085E-06-1.03398E-25
 -1       872 1.83662E-05 3.45015E-06 0.00000E+00
 -1       873 1.82476E-05 3.44936E-06 0.00000E+00
 -1       874 1.81325E-05 3.44845E-06 3.87741E-26
 -1       875 1.80098E-05 3.44742E-06 2.06795E-25
 -1       876 1.86019E-05 3.65959E-06-8.27181E-25
 -1       877 1.85430E-05 3.88077E-06 0.00000E+00
 -1       878 1.84799E-05 4.11304E-06 0.00000E+00
 -1       879 1.84133E-05 4.35498E-06 4.13590E-25
 -1       880 1.83437E-05 4.60515E-06 8.27181E-25
 -1       881 1.82714E-05 4.86215E-06 4.13590E-25
 -1       882 1.81972E-05 5.12454E-06 0.00000E+00
 -1       883 1.81215E-05 5.39091E-06 0.00000E+00
 -1       884 1.80448E-05 5.65984E-06 0.00000E+00
 -1       885 1.79676E-05 5.92991E-06 4.13590E-25
 -1       886 1.78906E-05 6.19970E-06 8.27181E-25
 -1       887 1.78142E-05 6.46778E-06 2.06795E-25
 -1       888 1.77389E-05 6.73275E-06-4.13590E-25
 -1       889 1.76652E-05 6.99314E-06 2.06795E-25
 -1       890 1.75936E-05 7.24755E-06 0.00000E+00
 -1       891 1.83952E-05 7.54525E-06 0.00000E+00
 -1       892 1.82504E-05 7.53496E-06 0.00000E+00
 -1       893 1.80960E-05 7.52466E-06 0.00000E+00
 -1       894 1.79268E-05 7.51440E-06 5.16988E-26
 -1       895 1.77377E-05 7.50416E-06 1.03398E-25
 -1       956 1.82105E-05 6.37252E-07 0.00000E+00
 -1       957 1.81878E-05 7.82147E-07-2.06795E-25
 -1       958 1.81650E-05 9.40072E-07-8.27181E-25
 -1       959 1.81422E-05 1.10942E-06-2.06795E-25
 -1       960 1.81194E-05 1.28859E-06-4.13590E-25
 -1       961 1.80966E-05 1.47597E-06-2.06795E-25
 -1       962 1.80738E-05 1.66994E-06-4.13590E-25
 -1       963 1.80510E-05 1.86888E-06 0.00000E+00
 -1       964 1.80281E-05 2.07118E-06 0.00000E+00
 -1       965 1.80053E-05 2.27522E-06 0.00000E+00
 -1       966 1.79825E-05 2.47940E-06 0.00000E+00
 -1       967 1.79597E-05 2.68208E-06 4.13590E-25
 -1       968 1.79369E-05 2.88166E-06 8.27181E-25
 -1       969 1.79141E-05 3.07653E-06-4.13590E-25
 -1       970 1.78914E-05 3.26508E-06 8.27181E-25
 -1       971 1.78477E-05 3.63133E-06-4.13590E-25
 -1       972 1.78261E-05 3.83619E-06 0.00000E+00
 -1       973 1.78044E-05 4.05818E-06 4.13590E-25
 -1       974 1.77827E-05 4.29509E-06 0.00000E+00
 -1       975 1.77610E-05 4.54471E-06 0.00000E+00
 -1       976 1.77393E-05 4.80482E-06 0.00000E+00
 -1       977 1.77176E-05 5.07319E-06 0.00000E+00
 -1       978 1.76959E-05 5.34760E-06-4.13590E-25
 -1       979 1.76742E-05 5.62584E-06 0.00000E+00
 -1       980 1.76525E-05 5.90569E-06 0.00000E+00
 -1       981 1.76308E-05 6.18492E-06-8.27181E-25
 -1       982 1.76091E-05 6.46132E-06-4.13590E-25
 -1       983 1.75874E-05 6.73266E-06-8.27181E-25
 -1       984 1.75658E-05 6.99673E-06 4.13590E-25
 -1       985 1.75444E-05 7.25130E-06 0.00000E+00
 -3
    1PSTEP                         2           1           1          
  100CL  101 1.25000E-01         409                     0    1           1
 -4  STRESS      6    1
 -5  SXX         1    4    1    1
 -5  SYY         1    4    2    2
 -5  SZZ         1    4    3    3
 -5  SXY         1    4    1    2
 -5  SYZ         1    4    2    3
 -5  SZX         1    4    3    1
 -1         1-4.34830E+05-2.00923E+05-8.79205E+04-2.79487E+05 3.00133E-11 1.55705E-09
 -1         2 7.06985E+02 6.82110E+04 2.29532E+03 6.15206E+01-4.47855E-11 3.50801E-09
 -1         3-3.06818E+00-1.81504E+05 4.13305E+01-1.70966E+01-4.03269E-11 4.07408E-09
 -1         5-6.27745E-01 6.48284E+04 1.69523E+00-5.89780E-02 3.53539E-11 2.28874E-09
 -1         8-2.18024E+05-9.34945E+04-1.06854E+04-1.57359E+05 1.60981E-10 1.32241E-09
 -1         9-3.54372E+05-9.62241E+04-3.58679E+04-1.23733E+05 9.09495E-10 1.61526E-10
 -1        10-1.27907E+02-1.89094E+05-2.37808E+02-1.08385E+02-8.22979E-10-1.73338E-09
 -1        12 6.93657E-02 6.48320E+04 5.49240E+01-2.51312E-01 6.18137E-11-1.62709E-09
 -1        15 5.38695E+02 2.96048E+02 1.74126E+03 3.94561E-01 8.49099E-12 1.50059E-09
 -1        16-9.91574E+05-3.21974E+05-1.54891E+05-3.27281E+05 2.14277E-09 5.33570E-10
 -1        17-2.18401E+05-1.36180E+05-4.19348E+04-1.29129E+05-1.49812E-09-2.58296E-10
 -1        18 8.38893E+03 8.76130E+02-2.88976E+03-1.52633E+04 1.95456E-10-2.96268E-10
 -1        19 2.03435E+04 2.42328E+04-1.12020E+02 3.99362E+03-1.78443E-10 3.56340E-10
 -1        20-8.44880E+03-9.62030E+04-2.12085E+04 7.19348E+03 1.11224E-09 1.11686E-09
 -1        21-9.11494E+00-5.58143E+04-1.80231E+02-5.56823E+00-1.65167E-09-4.33816E-09
 -1        24-8.53827E+05-3.03580E+05-1.21793E+05-3.72036E+05-3.83200E-09-2.06031E-09
 -1        25 6.25709E+03-6.07213E+03 3.32388E+03-2.75867E+04 9.54742E-11 5.18685E-10
 -1        26-4.77969E+03 1.65428E+04-3.30965E+03-2.32610E+03 4.42924E-10 1.49926E-09
 -1        27-1.53755E+04-5.27861E+04-1.97977E+04 1.18992E+04 1.37445E-09-3.45077E-10
 -1        28 4.30266E+03-1.54279E+04 3.14868E+03 4.94137E+03 1.48069E-09 3.40629E-10
 -1        32-2.09189E+05-4.37272E+04 8.56887E+04-1.38291E+05-4.03088E-09 3.18623E-09
 -1        33-3.02311E+04 1.55176E+04 5.50390E+03-8.96307E+03 2.95908E-10 2.45548E-09
 -1        34-3.92055E+04-3.90488E+03 9.42533E+01 1.20665E+04 7.40724E-10-6.00304E-10
 -1        35-4.38096E+03-6.14135E+03-2.38335E+02 9.71901E+03 7.73671E-10-3.21810E-10
 -1        51 4.47298E+03-1.02746E+05 1.03335E+04-2.50814E+05 5.09317E-11-2.94676E-10
 -1        52 1.81859E+03-1.01216E+05 6.67057E+03-2.92517E+05 7.09406E-11-8.54925E-11
 -1        53 8.56650E+02-1.03078E+05 5.77762E+03-2.49976E+05 1.05501E-10-1.42245E-09
 -1        54 3.24824E+03-1.01611E+05 9.20837E+03-2.93422E+05-1.09139E-10-3.37241E-09
 -1        55 8.43122E+03-1.04814E+05 1.65647E+04-2.49888E+05 2.94676E-10 8.20364E-10
 -1        56-8.35684E+05-9.46564E+04-6.52979E+04-3.22503E+05-5.33873E-10-2.72848E-09
 -1        57-8.62564E+05-1.53010E+05-4.40020E+04-3.19259E+05 3.02407E-11-9.93168E-10
 -1        58-8.48535E+05-1.15585E+05-1.53791E+04-3.18735E+05-2.66027E-11 7.59428E-10
 -1        59-8.47718E+05-1.28468E+05-9.18060E+03-3.23787E+05 5.97993E-11-3.32739E-09
 -1        60-8.50418E+05-1.18503E+05-3.59658E+03-3.18229E+05-8.55096E-10-2.26464E-10
 -1        61-8.45605E+05-1.24996E+05-2.04571E+03-3.24314E+05-3.45267E-10 7.42403E-10
 -1        62-8.50631E+05-1.18970E+05-9.84726E+02-3.18240E+05 1.49953E-10-7.60920E-10
 -1        63-8.45526E+05-1.24374E+05-8.13771E+02-3.24137E+05-4.69981E-10-2.18677E-10
 -1        64-8.50494E+05-1.19122E+05-9.26518E+02-3.18405E+05 5.48539E-10 1.69507E-10
 -1        65-8.46126E+05-1.24373E+05-1.86669E+03-3.23652E+05-6.36305E-10-4.82601E-09
 -1        66-8.50026E+05-1.18983E+05-3.26637E+03-3.18717E+05 2.56080E-10-1.03705E-09
 -1        67-8.48566E+05-1.26963E+05-8.30777E+03-3.22537E+05-1.53420E-10-1.08560E-09
 -1        68-8.48054E+05-1.16612E+05-1.39256E+04-3.19485E+05 5.07271E-10 1.54250E-09
 -1        69-8.62511E+05-1.48652E+05-3.98178E+04-3.17838E+05 9.47239E-10 7.41238E-11
 -1        70-8.36174E+05-9.79238E+04-5.91070E+04-3.23181E+05-2.71029E-10 6.62112E-10
 -1        86-3.53488E+02 6.75694E+04 2.47289E+03-3.07551E+01 3.55783E-10 6.30806E-10
 -1        87 2.35083E+03 6.90070E+04 5.14029E+03 1.25020E+02 5.92081E-10-1.10471E-09
 -1        88-1.99167E+03 6.67740E+04 7.89036E+03-9.42438E+01 8.61291E-10 1.07723E-09
 -1        89 1.48496E+04 7.48088E+04 2.12498E+04 2.62726E+02 1.32718E-09-1.66835E-09
 -1        90-1.28108E+04 6.17685E+04 3.00423E+04-1.68438E+02 1.44064E-09 1.06468E-09
 -1       121-9.23295E+00-1.81544E+05 4.54147E+01 8.54633E+00 8.96883E-11 1.36879E-09
 -1       122 1.05808E+01-1.81494E+05 9.11255E+01-3.43019E+01-3.47711E-10-1.32604E-09
 -1       123-1.93507E+01-1.81553E+05 1.54211E+02 2.57458E+01 2.81617E-10 9.37234E-10
 -1       124 1.79129E+02-1.81389E+05 3.84468E+02-1.00430E+02-6.44604E-10 3.53384E-09
 -1       125-1.29389E+02-1.81649E+05 5.96289E+02 7.47041E+01 4.08818E-10-2.99224E-10
 -1       191-7.15524E-01 6.48341E+04 2.05662E+00 2.94679E-02 4.43162E-11 8.13316E-10
 -1       192-7.83000E-01 6.48285E+04 3.58821E+00 1.28073E-02 6.21999E-11-4.06203E-10
 -1       193-1.12866E+00 6.48340E+04 6.70288E+00-4.24452E-02 7.40630E-11-4.29964E-10
 -1       194-1.28285E+00 6.48291E+04 1.35701E+01 1.16458E-01 2.85318E-11-8.44011E-10
 -1       195-1.92297E+00 6.48335E+04 2.65744E+01-7.45785E-02 1.06207E-10-1.79671E-09
 -1       251 6.32541E+04-1.23704E+04 2.89578E+04 8.93152E+02 7.64544E-12 1.19326E-09
 -1       252 7.59930E+04 1.43267E+04 2.04701E+04-3.51034E+03 2.24347E-10 5.28871E-10
 -1       253 6.81344E+04-1.91638E+03 7.49948E+03 7.73978E+02-2.30074E-10-5.65706E-10
 -1       254 7.02878E+04 2.21766E+03 4.71623E+03-3.31959E+03-5.71561E-11-1.85764E-10
 -1       255 6.89510E+04-2.96537E+02 1.93833E+03 7.02453E+02 1.84656E-10 2.90527E-09
 -1       256 6.93262E+04 3.50762E+02 1.17339E+03-3.21342E+03-1.34171E-09 3.81665E-09
 -1       257 6.90919E+04-5.20960E+01 6.07045E+02 6.67839E+02-1.00167E-07-2.02593E-09
 -1       258 6.91853E+04 1.08473E+02 5.40135E+02-3.17904E+03-1.93596E-07-3.65838E-10
 -1       259 6.90909E+04-5.36265E+01 6.21553E+02 6.68094E+02-1.00274E-07-2.58350E-09
 -1       260 6.93340E+04 3.64182E+02 1.21534E+03-3.21477E+03-1.25519E-09 1.98648E-09
 -1       261 6.89443E+04-3.08380E+02 2.01391E+03 7.03552E+02 2.55454E-10 9.25297E-10
 -1       262 7.03334E+04 2.30674E+03 4.90450E+03-3.32202E+03-4.85372E-11-1.41256E-10
 -1       263 6.80955E+04-1.99350E+03 7.80094E+03 7.75313E+02-1.38783E-10 6.12090E-10
 -1       264 7.62655E+04 1.49030E+04 2.12927E+04-3.51414E+03-6.80032E-10 2.09207E-09
 -1       265 6.30205E+04-1.28679E+04 3.01240E+04 8.95620E+02-2.74639E-10 8.98581E-10
 -1       266-9.75208E+03-4.56102E+03 2.28769E+04-6.52748E+00 1.00044E-11 5.21279E-10
 -1       267 1.13051E+04 5.31459E+03 1.61713E+04 7.58747E+00 1.09139E-11-2.40806E-10
 -1       268-1.51598E+03-7.52746E+02 6.01067E+03-9.87065E-01 1.20508E-11-1.19056E-09
 -1       269 1.78995E+03 9.00836E+02 3.90696E+03 1.20384E+00 5.22959E-12 1.62314E-09
 -1       270-2.68651E+02-1.47994E+02 1.88595E+03-1.82691E-01 6.25278E-12 1.51056E-09
 -1       271-1.00171E+06-1.22169E+05-7.77335E+04-3.88439E+05 7.78527E-10 2.91038E-10
 -1       272-1.02323E+06-1.87748E+05-5.03266E+04-3.95572E+05-3.54703E-10 5.53882E-10
 -1       273-1.01621E+06-1.42581E+05-1.83587E+04-3.85098E+05 1.13516E-10 1.68711E-09
 -1       274-1.00646E+06-1.62837E+05-1.03802E+04-4.00358E+05 2.31012E-10 1.86446E-09
 -1       275-1.01823E+06-1.44818E+05-4.27438E+03-3.84533E+05 4.61569E-11 5.00449E-10
 -1       276-1.00410E+06-1.60168E+05-2.29703E+03-4.01203E+05 1.08400E-09 2.31262E-09
 -1       277-1.01858E+06-1.44987E+05-1.11910E+03-3.84373E+05 7.43682E-10 2.86474E-09
 -1       278-1.00375E+06-1.59960E+05-8.24266E+02-4.01388E+05-8.25835E-10-3.40506E-09
 -1       279-1.01859E+06-1.44995E+05-8.86413E+02-3.84368E+05 9.79981E-11-2.38623E-09
 -1       280-1.00400E+06-1.60059E+05-1.63973E+03-4.01232E+05-1.43245E-10-1.63396E-09
 -1       281-1.01832E+06-1.44912E+05-2.97108E+03-3.84512E+05 8.68567E-11 1.90539E-09
 -1       282-1.00570E+06-1.61799E+05-7.16387E+03-4.00529E+05-1.52340E-11 3.46222E-09
 -1       283-1.01687E+06-1.43445E+05-1.26572E+04-3.84978E+05-6.02768E-10-4.68390E-10
 -1       284-1.01741E+06-1.78788E+05-3.46725E+04-3.97018E+05 1.03370E-10 1.25965E-10
 -1       285-1.00677E+06-1.29496E+05-5.35671E+04-3.87401E+05-2.30102E-10 5.52973E-10
 -1       301 3.69767E+03-2.89565E+03 2.90378E+04-6.85112E+03-2.19188E-10 7.48596E-10
 -1       302 3.96081E+03 4.48793E+03 2.09381E+04-1.00608E+04 4.74529E-10 3.04831E-09
 -1       303 1.48708E+02-2.82683E+02 1.92234E+04-6.85346E+03-1.93722E-10 5.85146E-10
 -1       304 7.45221E+03 7.70353E+03 3.22822E+04-1.00379E+04 2.00089E-10-1.45474E-09
 -1       305 7.39266E+03-6.10450E+03 5.41323E+04-6.86602E+03-2.00089E-10-1.40972E-10
 -1       306-1.04640E+06-1.18345E+05-7.95209E+04-4.05267E+05 4.80213E-10-1.55705E-09
 -1       307-1.08108E+06-1.92072E+05-5.42521E+04-3.99052E+05 5.81394E-10 5.95719E-10
 -1       308-1.06311E+06-1.44373E+05-1.87033E+04-3.99348E+05 3.20824E-10 4.46562E-10
 -1       309-1.06127E+06-1.62256E+05-1.13709E+04-4.06575E+05-5.23130E-10 3.46972E-10
 -1       310-1.06615E+06-1.47689E+05-4.38767E+03-3.97922E+05 8.78941E-11 1.09253E-09
 -1       311-1.05756E+06-1.58613E+05-2.55751E+03-4.08492E+05 7.40677E-10 1.12698E-09
 -1       312-1.06681E+06-1.47932E+05-1.24668E+03-3.97464E+05-4.45546E-10-2.04977E-10
 -1       313-1.05693E+06-1.58322E+05-1.12508E+03-4.08909E+05-6.28948E-10-9.69152E-10
 -1       314-1.06677E+06-1.47961E+05-1.35005E+03-3.97510E+05-3.09370E-10 2.26407E-10
 -1       315-1.05777E+06-1.58570E+05-2.86610E+03-4.08301E+05 1.78957E-10 3.65037E-09
 -1       316-1.06598E+06-1.47711E+05-4.95819E+03-3.98064E+05 2.32745E-10 8.24230E-10
 -1       317-1.06198E+06-1.62693E+05-1.28791E+04-4.06125E+05 9.81117E-11-2.30648E-09
 -1       318-1.06256E+06-1.43924E+05-2.11894E+04-3.99649E+05-8.54243E-10-2.25555E-10
 -1       319-1.08435E+06-1.96580E+05-6.14801E+04-3.97722E+05-9.67020E-10 5.60249E-10
 -1       320-1.04368E+06-1.14350E+05-9.01065E+04-4.06267E+05 2.10093E-09-9.16771E-10
 -1       336 1.58435E+02-1.96534E+05-1.02918E+03 3.37187E+01-1.69547E-09 4.63842E-10
 -1       337-3.63952E+02-1.96861E+05-1.12849E+03-1.28889E+02-3.11644E-09-1.83286E-09
 -1       338 1.06540E+02-1.96566E+05-1.40103E+03 9.51136E+01-2.25123E-09 1.20372E-09
 -1       339-1.44588E+03-1.97518E+05-3.07664E+03-2.51211E+02-4.09000E-09 2.25009E-09
 -1       340 1.00190E+03-1.95879E+05-4.72748E+03 1.55664E+02-2.76464E-09 2.28329E-09
 -1       406 4.29268E+00 6.48311E+04 1.08469E+02 3.25062E-01 1.45725E-10-2.55568E-09
 -1       407 3.78734E+01 6.48510E+04 2.30481E+02-3.10230E+00 2.35048E-11-1.45326E-09
 -1       408 1.18723E+02 6.48145E+04 4.60372E+02 2.78991E+00 1.78090E-10 2.00885E-09
 -1       409 4.97818E+02 6.49981E+04 1.03643E+03-2.41682E+01-1.37561E-11 1.53818E-09
 -1       410 1.43021E+03 6.46838E+04 2.11590E+03 2.16071E+01 1.91676E-10 2.00703E-09
 -1       521-1.93454E+06-2.21236E+05-1.43970E+05-7.48922E+05 1.91176E-09-6.18456E-10
 -1       522-1.99993E+06-3.49707E+05-9.78757E+04-7.34767E+05 3.41061E-11-1.64255E-09
 -1       523-1.96463E+06-2.67681E+05-3.38604E+04-7.38444E+05-1.09139E-11-1.03682E-10
 -1       524-1.96427E+06-2.96326E+05-2.04670E+04-7.48073E+05 3.77440E-10 1.48430E-09
 -1       525-1.96997E+06-2.73522E+05-7.91600E+03-7.35995E+05 2.25896E-10 6.72571E-10
 -1       526-1.95784E+06-2.89696E+05-4.56392E+03-7.51192E+05 1.36410E-10 1.99861E-10
 -1       527-1.97099E+06-2.74102E+05-2.18874E+03-7.35384E+05 8.51813E-10 1.29609E-09
 -1       528-1.95718E+06-2.88735E+05-1.88661E+03-7.51391E+05-4.79417E-10 1.80054E-09
 -1       529-1.97066E+06-2.74491E+05-2.19368E+03-7.35801E+05-5.95151E-10-4.64638E-10
 -1       530-1.95921E+06-2.88337E+05-4.54727E+03-7.49576E+05-9.30754E-10-3.63116E-10
 -1       531-1.96899E+06-2.74581E+05-7.88674E+03-7.37179E+05 2.95621E-10 1.08048E-09
 -1       532-1.96671E+06-2.93696E+05-2.03343E+04-7.45113E+05 1.44524E-10-1.23691E-09
 -1       533-1.96310E+06-2.69229E+05-3.36592E+04-7.40198E+05 9.51331E-10-7.89441E-10
 -1       534-2.00296E+06-3.45927E+05-9.72895E+04-7.30987E+05 8.18090E-10 1.04410E-09
 -1       535-1.93289E+06-2.23350E+05-1.43144E+05-7.50935E+05-3.44517E-09 9.74978E-10
 -1       536-1.83517E+03-5.60398E+03 1.29412E+04 1.27677E+02-5.63759E-10 7.74889E-10
 -1       537 3.93035E+03 6.48636E+03 9.18131E+03-5.00822E+02-2.00848E-09-1.43200E-09
 -1       538 3.51355E+02-8.78298E+02 3.34433E+03 1.21272E+02-1.05253E-10 8.29459E-10
 -1       539 1.36991E+03 1.01526E+03 2.11322E+03-4.93080E+02 8.66940E-10-1.01116E-09
 -1       540 7.24024E+02-1.36844E+02 8.47778E+02 1.19977E+02-2.76899E-11 2.58098E-09
 -1       541 9.25508E+02 1.57290E+02 4.95727E+02-4.91092E+02 2.52607E-10 2.62021E-09
 -1       542 7.95042E+02-2.05475E+01 2.05359E+02 1.19295E+02-2.32783E-10-7.32328E-10
 -1       543 8.36013E+02 2.03865E+01 1.01744E+02-4.90042E+02-1.40808E-10-3.07374E-10
 -1       544 8.13074E+02 2.51922E-01 2.00715E+01 1.18931E+02-8.39089E-11-6.71101E-10
 -1       545 8.05013E+02-2.11387E+01-4.84893E+01-4.89590E+02-2.75593E-11-1.41950E-09
 -1       546 8.25838E+02 2.10771E+01-1.19854E+02 1.18848E+02 6.16029E-11-5.75056E-10
 -1       547 7.39121E+02-1.58089E+02-3.21336E+02-4.89671E+02-6.07228E-10-7.09974E-10
 -1       548 8.78999E+02 1.37067E+02-5.20990E+02 1.19019E+02-6.25930E-10-1.55646E-09
 -1       549 3.55672E+02-1.01172E+03-1.42742E+03-4.90152E+02-3.02516E-10-1.62089E-10
 -1       550 1.20957E+03 8.73838E+02-2.02563E+03 1.19335E+02 4.61426E-11 3.36513E-10
 -1       551 1.08171E+03-1.04610E+05 5.95592E+03-1.79435E+05-7.63248E-09-5.85715E-10
 -1       552 1.85420E+03-1.03700E+05 7.41188E+03-2.55196E+05-5.77165E-09 1.92449E-09
 -1       553 9.65736E+02-1.05072E+05 1.15269E+04-1.78889E+05-9.38599E-09 1.01227E-09
 -1       554 7.16251E+03-9.93478E+04 2.44313E+04-2.55435E+05-5.74073E-09 1.34747E-09
 -1       555 8.12820E+03-1.09849E+05 4.40180E+04-1.79168E+05-9.50968E-09-7.75799E-10
 -1       556 1.36785E+04-3.26876E+04 1.17360E+04-4.47024E+04 1.22600E-09 6.43922E-09
 -1       557 2.70485E+04-4.40983E+04 6.10819E+03-5.57247E+04 3.36695E-09 6.34066E-09
 -1       558 1.40675E+04-3.44991E+04 2.54900E+03-4.31171E+04-8.14907E-10-4.24734E-10
 -1       559 2.57367E+04-4.58667E+04 1.26697E+03-5.61828E+04 6.07542E-10-8.13998E-11
 -1       560 1.40063E+04-3.44442E+04 5.64937E+02-4.31273E+04 1.18234E-10 2.45427E-09
 -1       561 2.55177E+04-4.58833E+04 2.81240E+02-5.63141E+04 2.36469E-09 9.06675E-09
 -1       562 1.39302E+04-3.43814E+04 1.23947E+02-4.31862E+04 1.00044E-10-2.09809E-10
 -1       563 2.54136E+04-4.58410E+04 6.38115E+01-5.63798E+04-1.54159E-10 5.65365E-10
 -1       564 1.38811E+04-3.43463E+04 2.49614E+01-4.32230E+04 1.00772E-09-5.47516E-10
 -1       565 2.53602E+04-4.58197E+04 8.05942E+00-5.64119E+04 6.19139E-10-9.18590E-11
 -1       566 1.38654E+04-3.43337E+04-1.01971E+01-4.32358E+04-3.96540E-10 7.95808E-11
 -1       567 2.53457E+04-4.58123E+04-3.54045E+01-5.64042E+04 2.25316E-09 9.16771E-10
 -1       568 1.38918E+04-3.43525E+04-8.22941E+01-4.32328E+04-2.89674E-10 1.96906E-10
 -1       569 2.51993E+04-4.57372E+04-1.97097E+02-5.62114E+04-6.45969E-10-1.22782E-10
 -1       570 1.41039E+04-3.45842E+04-3.89275E+02-4.33120E+04 3.81988E-10 6.79847E-11
 -1       571 4.71029E+04 1.71035E+03 2.53127E+03-1.17671E+04 2.89901E-11-9.29049E-10
 -1       572 4.74809E+04 5.95344E+02 1.23996E+03-1.28991E+04-3.20028E-10-1.22441E-09
 -1       573 4.72578E+04 1.42184E+02 5.50830E+02-1.17366E+04-5.71845E-11-4.97494E-10
 -1       574 4.73035E+04 4.57813E+01 2.75858E+02-1.29336E+04 1.08230E-10-1.79966E-09
 -1       575 4.72768E+04 5.76914E+00 1.29990E+02-1.17325E+04 4.37069E-10-3.48678E-10
 -1       576 4.72803E+04 8.25267E-01 6.60973E+01-1.29382E+04 2.33804E-10 4.39968E-11
 -1       577 4.72796E+04-1.63883E+00 3.25367E+01-1.17320E+04-2.11514E-10 6.79847E-10
 -1       578 4.72771E+04-9.87903E-01 1.76807E+01-1.29387E+04-3.84119E-10-3.09933E-09
 -1       579 4.72807E+04-1.12320E+00 1.08312E+01-1.17320E+04 7.16227E-12-1.04387E-09
 -1       580 4.72779E+04-8.06535E-01 1.00539E+01-1.29380E+04-5.67297E-11-2.31125E-10
 -1       581 4.72818E+04-6.95591E-01 1.37878E+01-1.17328E+04 1.21418E-10 2.66027E-11
 -1       582 4.72816E+04 2.56591E+00 2.61344E+01-1.29308E+04-1.02887E-10 1.49680E-09
 -1       583 4.72821E+04 1.07505E+01 5.05208E+01-1.17391E+04 1.68711E-10 1.58781E-09
 -1       584 4.73002E+04 5.14300E+01 1.12977E+02-1.28782E+04-1.76556E-10 1.19115E-10
 -1       585 4.72703E+04 1.52363E+02 2.30021E+02-1.17854E+04-1.46429E-10-9.49967E-10
 -1       586-6.01871E+02 1.52595E+04-7.81931E+02-4.03067E+04 1.25397E-10 7.72843E-10
 -1       587-1.44530E+02 1.51577E+04-9.68933E+01-4.43549E+04 2.18279E-10-9.34293E-10
 -1       588 1.47148E+02 1.51758E+04 5.34441E+02-4.02824E+04 1.21190E-10 8.35826E-10
 -1       589 7.90883E+02 1.54639E+04 1.56925E+03-4.43177E+04 1.88265E-10-9.40872E-10
 -1       590 2.30173E+03 1.49658E+04 3.36704E+03-4.03439E+04 9.68612E-11 5.67297E-10
 -1       591-1.01495E+04-2.91950E+03-3.40833E+03-5.27691E+03-7.68807E-12 7.20775E-11
 -1       592-1.04692E+04-3.75617E+03-1.84609E+03-6.16525E+03-2.93994E-10-1.00005E-09
 -1       593-1.04938E+04-2.66849E+03-7.68529E+02-5.52281E+03 1.34867E-09 2.65737E-09
 -1       594-9.99392E+03-3.26087E+03-3.83323E+02-6.18856E+03 4.80142E-10 7.33287E-10
 -1       595-1.05200E+04-2.66750E+03-1.76160E+02-5.53401E+03-1.75731E-10-1.02947E-10
 -1       596-9.96162E+03-3.23822E+03-8.98100E+01-6.18506E+03 1.58996E-09 4.57751E-09
 -1       597-1.05233E+04-2.66972E+03-4.94424E+01-5.53444E+03 9.57332E-11 7.48742E-10
 -1       598-9.95860E+03-3.23735E+03-4.07339E+01-6.18416E+03-2.60457E-10 4.47017E-10
 -1       599-1.05232E+04-2.66965E+03-5.32392E+01-5.53441E+03 1.86901E-10 3.29067E-10
 -1       600-9.96224E+03-3.23845E+03-9.99056E+01-6.18521E+03-1.47952E-09-2.94332E-09
 -1       601-1.05192E+04-2.66709E+03-1.97552E+02-5.53385E+03-2.94790E-10-1.99861E-10
 -1       602-9.99874E+03-3.26380E+03-4.30910E+02-6.18894E+03-3.36286E-10-1.48646E-09
 -1       603-1.04896E+04-2.66850E+03-8.64212E+02-5.52142E+03 1.10333E-10 1.64277E-10
 -1       604-1.05352E+04-3.81882E+03-2.07618E+03-6.16034E+03-3.46745E-11-1.97133E-10
 -1       605-1.01002E+04-2.95241E+03-3.83302E+03-5.24691E+03 3.55840E-10 2.05250E-09
 -1       606 6.71999E+03-2.26338E+03-4.07953E+03 6.59316E+03-1.07570E-09 3.99950E-10
 -1       607 6.02163E+03-7.30042E+02-2.03158E+03 7.40125E+03-1.40744E-10-1.75783E-09
 -1       608 6.42241E+03-1.22428E+02-9.09278E+02 6.54053E+03 8.89941E-10-6.77801E-10
 -1       609 6.34520E+03-3.38260E+01-4.59446E+02 7.45960E+03-7.63976E-11 1.06138E-09
 -1       610 6.39051E+03 3.91616E+00-2.19110E+02 6.53467E+03-8.96307E-10 2.53340E-09
 -1       611 6.37760E+03 4.39828E+00-1.10635E+02 7.46602E+03-2.52112E-09 1.13204E-09
 -1       612 6.38473E+03 5.05214E+00-5.27181E+01 6.53408E+03-1.10049E-09-2.12481E-10
 -1       613 6.38116E+03 4.09754E+00-2.41179E+01 7.46682E+03-1.58684E-09-1.84286E-10
 -1       614 6.38259E+03 3.23623E+00-6.62004E+00 6.53386E+03-2.00316E-10 1.05325E-09
 -1       615 6.38157E+03 3.60035E+00 7.48240E+00 7.46698E+03 1.40142E-09 3.55612E-10
 -1       616 6.38094E+03 3.09413E+00 2.49154E+01 6.53392E+03-8.98467E-10 4.45652E-11
 -1       617 6.38535E+03 8.57210E+00 5.76507E+01 7.46688E+03-4.02451E-10-1.00044E-09
 -1       618 6.37640E+03 1.94529E+01 1.16592E+02 6.53396E+03 4.23825E-10 1.23964E-09
 -1       619 6.42698E+03 9.85672E+01 2.62012E+02 7.46675E+03 1.08002E-11-1.40534E-09
 -1       620 6.33788E+03 2.96040E+02 5.26741E+02 6.53393E+03 8.08768E-10-1.05388E-10
 -1       621 8.19043E+01 5.11947E+04 7.03440E+02 1.61369E+03-7.88134E-11 1.19661E-09
 -1       622 9.36981E+01 5.13688E+04 5.97717E+02 2.35256E+03-8.87894E-11-5.04087E-10
 -1       623 4.44848E+00 5.12451E+04 6.88345E+02 1.60598E+03-8.26077E-11 7.40101E-10
 -1       624 3.12414E+02 5.15699E+04 1.30799E+03 2.36024E+03-9.73159E-11-2.74888E-10
 -1       625 3.13347E+02 5.09933E+04 2.27427E+03 1.60604E+03-2.87628E-11 2.03224E-09
 -1       626 4.23351E+04 1.17412E+04 8.51313E+02 2.28972E+04-6.84508E-10-1.44610E-10
 -1       627 4.17552E+04 1.21666E+04 4.09926E+02 2.38274E+04-6.16637E-10-5.46663E-10
 -1       628 4.23707E+04 1.13372E+04 1.73402E+02 2.30274E+04 6.21412E-10 1.45519E-11
 -1       629 4.16362E+04 1.20685E+04 8.48356E+01 2.38859E+04 7.36122E-10 1.34058E-09
 -1       630 4.23758E+04 1.13165E+04 3.93628E+01 2.30326E+04 2.00544E-10 8.74394E-11
 -1       631 4.16241E+04 1.20652E+04 2.10638E+01 2.38886E+04-3.97449E-10-1.11368E-09
 -1       632 4.23759E+04 1.13168E+04 1.39407E+01 2.30321E+04-1.90516E-09-1.83593E-09
 -1       633 4.16229E+04 1.20657E+04 1.54535E+01 2.38884E+04 1.73833E-09 7.14303E-09
 -1       634 4.23749E+04 1.13162E+04 2.50347E+01 2.30318E+04 7.08951E-10 6.46992E-10
 -1       635 4.16248E+04 1.20658E+04 5.07314E+01 2.38890E+04 6.83599E-10 1.29597E-09
 -1       636 4.23726E+04 1.13158E+04 1.02527E+02 2.30313E+04 2.78391E-10 8.26901E-10
 -1       637 4.16457E+04 1.20821E+04 2.25369E+02 2.38879E+04 3.42508E-09 3.93788E-09
 -1       638 4.23633E+04 1.13663E+04 4.63291E+02 2.30079E+04 2.31978E-10-1.84582E-09
 -1       639 4.18870E+04 1.24215E+04 1.09606E+03 2.38153E+04-1.47020E-09 1.91449E-10
 -1       640 4.23293E+04 1.23762E+04 2.27482E+03 2.25792E+04-9.61279E-10 5.22959E-12
 -1       656 1.14706E+04-2.90437E+05-2.77031E+04-3.40258E+02-1.16415E-10-1.51716E-09
 -1       657-1.51558E+04-3.02960E+05-2.29108E+04 1.91004E+03-2.97177E-10-4.47249E-10
 -1       658 3.63623E+03-2.94014E+05-1.40621E+04-4.10578E+02 2.23167E-10-7.65457E-10
 -1       659-1.62485E+04-3.03471E+05-2.43457E+04 1.95588E+03 9.82254E-11-9.53736E-10
 -1       660 1.25600E+04-2.89927E+05-3.01766E+04-3.86103E+02-2.98314E-10 8.79048E-11
 -1       661 4.12823E+04 4.46773E+03 3.95617E+03 1.60950E+04 3.95744E-10 8.55380E-10
 -1       662 4.33189E+04 7.59437E+03 2.66577E+03 1.54335E+04 3.92831E-10-3.66583E-10
 -1       663 4.20546E+04 5.74146E+03 9.32516E+02 1.58747E+04-2.96353E-10 3.34694E-10
 -1       664 4.24272E+04 6.10129E+03 5.57441E+02 1.56991E+04 5.55225E-10-6.31267E-10
 -1       665 4.21681E+04 5.91899E+03 2.19940E+02 1.58451E+04-4.79176E-10 3.11239E-10
 -1       666 4.22960E+04 5.89516E+03 1.28185E+02 1.57352E+04-1.72513E-09 3.71678E-10
 -1       667 4.21851E+04 5.94229E+03 6.76301E+01 1.58406E+04 1.47196E-10 9.54604E-10
 -1       668 4.22798E+04 5.87415E+03 6.76645E+01 1.57405E+04 1.02865E-09-5.39995E-11
 -1       669 4.21842E+04 5.93949E+03 9.07253E+01 1.58400E+04 3.40485E-10 1.82166E-09
 -1       670 4.23067E+04 5.91807E+03 1.96574E+02 1.57357E+04 2.00047E-09 4.25672E-10
 -1       671 4.21583E+04 5.89930E+03 3.48813E+02 1.58450E+04 9.94582E-11-1.25644E-09
 -1       672 4.25138E+04 6.25360E+03 8.92171E+02 1.56823E+04-2.37554E-10-1.39764E-10
 -1       673 4.19782E+04 5.61248E+03 1.49509E+03 1.58902E+04 2.70518E-10 2.04739E-09
 -1       674 4.39408E+04 8.65232E+03 4.27593E+03 1.52601E+04 7.70797E-11 1.96462E-09
 -1       675 4.07407E+04 3.56771E+03 6.34644E+03 1.62420E+04 2.13845E-10-3.32193E-10
 -1       676 4.67782E+00-5.57992E+04-2.17222E+02 2.78409E+00 1.17161E-10-1.07018E-09
 -1       677-5.76578E+01-5.58518E+04-3.97512E+02-5.56935E+00-1.05803E-09-9.14513E-10
 -1       678 3.84917E+01-5.57618E+04-7.02681E+02 2.78315E+00 2.77453E-10-1.16850E-09
 -1       679-7.02698E+02-5.62758E+04-1.66908E+03-5.56242E+00-8.91532E-10 5.97871E-10
 -1       680 4.19303E+02-5.53752E+04-2.69005E+03 2.74506E+00 2.56819E-10 1.84023E-09
 -1       771-6.00894E+05-1.03989E+05-1.44856E+04-2.48709E+05-2.29193E-09-2.04818E-09
 -1       772-5.96836E+05-1.12671E+05-7.81901E+03-2.58373E+05-2.92130E-09-2.70302E-09
 -1       773-6.02668E+05-1.02627E+05-3.29284E+03-2.49515E+05-1.02955E-09 1.04592E-09
 -1       774-5.94649E+05-1.10843E+05-1.62610E+03-2.58895E+05 1.83809E-09-2.40107E-10
 -1       775-6.02892E+05-1.02523E+05-7.66672E+02-2.49555E+05-4.05635E-10 2.37833E-10
 -1       776-5.94537E+05-1.10787E+05-3.68518E+02-2.59036E+05-1.13778E-09 4.94992E-10
 -1       777-6.02998E+05-1.02464E+05-1.93020E+02-2.49565E+05 2.72848E-10 4.07454E-10
 -1       778-5.94549E+05-1.10800E+05-9.62568E+01-2.59148E+05 3.08319E-10 9.18590E-10
 -1       779-6.03073E+05-1.02410E+05-7.62876E+01-2.49572E+05-7.40329E-10-6.53699E-10
 -1       780-5.94574E+05-1.10818E+05-7.51838E+01-2.59241E+05-7.12134E-10 4.72937E-11
 -1       781-6.03125E+05-1.02363E+05-1.28271E+02-2.49575E+05-2.04636E-09-3.63343E-10
 -1       782-5.94613E+05-1.10845E+05-2.55026E+02-2.59311E+05-2.63753E-09-8.24457E-10
 -1       783-6.03145E+05-1.02335E+05-5.07667E+02-2.49571E+05-3.13321E-10-1.04546E-09
 -1       784-5.94930E+05-1.11180E+05-1.21158E+03-2.59340E+05-1.50681E-09-1.93268E-11
 -1       785-6.02941E+05-1.02481E+05-2.23791E+03-2.49407E+05-2.46314E-09 2.74895E-10
 -1       786 4.31537E+04-2.32081E+03 5.36861E+03 1.79561E+00 2.35752E-09-4.73165E-10
 -1       787 4.54802E+04 2.68675E+03 3.79835E+03-7.50970E+00 4.40208E-09-3.18437E-10
 -1       788 4.40513E+04-3.63810E+02 1.38950E+03 1.85928E+00 2.43860E-08-1.12954E-09
 -1       789 4.44346E+04 4.20947E+02 8.73029E+02-7.85984E+00 4.43628E-08 1.03940E-09
 -1       790 4.41994E+04-5.68315E+01 3.55191E+02 2.14591E+00 7.21963E-08 1.14194E-09
 -1       791 4.42617E+04 6.60235E+01 2.08497E+02-8.67370E+00 9.97996E-08-1.28381E-10
 -1       792 4.42242E+04-9.15035E+00 9.50659E+01 2.67294E+00 1.44603E-07-2.24835E-09
 -1       793 4.42338E+04 1.28162E+01 6.21163E+01-1.00084E+01 1.89246E-07-1.41820E-09
 -1       794 4.42274E+04-3.64238E+00 4.57445E+01 3.48019E+00 2.69908E-07-2.67248E-09
 -1       795 4.42363E+04 1.87674E+01 6.57732E+01-1.19595E+01 3.50885E-07 4.87923E-09
 -1       796 4.42217E+04-1.50550E+01 9.82967E+01 4.62352E+00 4.89198E-07-2.48579E-09
 -1       797 4.42808E+04 1.10579E+02 2.31548E+02-1.46605E+01 6.28137E-07 1.64975E-09
 -1       798 4.41830E+04-9.53413E+01 3.65461E+02 6.18078E+00 7.87908E-07-3.49081E-09
 -1       799 4.45548E+04 7.04250E+02 9.96176E+02-1.83254E+01 9.45688E-07 4.34426E-09
 -1       800 4.39477E+04-6.08257E+02 1.40729E+03 8.28862E+00 4.73975E-07 9.84642E-10
 -1       801-1.41102E+03-6.36184E+03 3.51756E+03 4.59953E+03 2.56523E-09-1.29177E-09
 -1       802 5.46171E+03 2.67566E+03 1.06706E+04-1.88315E+04 6.86725E-09 3.56778E-10
 -1       803-3.98265E+03-4.69276E+03 1.56296E+04 4.59802E+03 5.41968E-09 4.20353E-09
 -1       804 3.04298E+04 1.48933E+04 4.32749E+04-1.88960E+04 6.39875E-09 5.15640E-09
 -1       805-2.63713E+04-1.85578E+04 5.92263E+04 4.66344E+03 2.29920E-09 5.86846E-09
 -1       806-5.14179E+04-1.09664E+04-4.34625E+03-2.13611E+04-1.08969E-10-2.36696E-10
 -1       807-5.16783E+04-1.03393E+04-2.13519E+03-2.25082E+04 7.75472E-10-7.74989E-10
 -1       808-5.15411E+04-9.39639E+03-9.05802E+02-2.20988E+04-1.30910E-10-2.21274E-10
 -1       809-5.12232E+04-9.74616E+03-4.42841E+02-2.25697E+04 1.78233E-10 7.28733E-11
 -1       810-5.15607E+04-9.34082E+03-2.02761E+02-2.21315E+04 5.10852E-10 7.66079E-10
 -1       811-5.11886E+04-9.72261E+03-1.00571E+02-2.25648E+04 1.61435E-11 2.46206E-09
 -1       812-5.15645E+04-9.34463E+03-5.01534E+01-2.21316E+04-1.39266E-10 2.13856E-09
 -1       813-5.11846E+04-9.72307E+03-3.16743E+01-2.25627E+04-3.77440E-11-7.50134E-10
 -1       814-5.15647E+04-9.34574E+03-2.96622E+01-2.21313E+04-1.11299E-10 6.11692E-10
 -1       815-5.11857E+04-9.72341E+03-4.65728E+01-2.25627E+04 3.98245E-10-2.70092E-10
 -1       816-5.15625E+04-9.34484E+03-8.72041E+01-2.21310E+04-2.41016E-10-4.20641E-12
 -1       817-5.12015E+04-9.73157E+03-1.87225E+02-2.25620E+04 3.71074E-10 1.04774E-09
 -1       818-5.15524E+04-9.37048E+03-3.81453E+02-2.21191E+04 4.06089E-10-2.98996E-10
 -1       819-5.14130E+04-9.96053E+03-8.98146E+02-2.25121E+04-8.01492E-11 2.33115E-10
 -1       820-5.14808E+04-1.00492E+04-1.82768E+03-2.18301E+04-5.50244E-11 9.28225E-10
 -1       821-6.62607E+04 3.67942E+03-8.51086E+03-6.06145E+00-1.15217E-10-4.17003E-10
 -1       822-6.99483E+04-4.25927E+03-6.02212E+03-4.84993E-01-8.33730E-10-1.56433E-10
 -1       823-6.76834E+04 5.77005E+02-2.20425E+03-1.30263E+01 6.53279E-10 5.52518E-11
 -1       824-6.82909E+04-6.67425E+02-1.38731E+03 1.27843E+01-1.26878E-10 4.60005E-10
 -1       825-6.79180E+04 9.04443E+01-5.69763E+02-1.93305E+01-9.89890E-10 8.33325E-10
 -1       826-6.80182E+04-1.06491E+02-3.44875E+02 2.40602E+01 8.35284E-09 7.41295E-10
 -1       827-6.79564E+04 1.61434E+01-1.77771E+02-2.43036E+01 2.99936E-06-5.09942E-09
 -1       828-6.79802E+04-3.25907E+01-1.58021E+02 3.21458E+01 5.98655E-06 3.63868E-10
 -1       829-6.79561E+04 1.64585E+01-1.80517E+02-2.74182E+01 3.98239E-06-1.73610E-09
 -1       830-6.80199E+04-1.09138E+02-3.52910E+02 3.61831E+01 1.96365E-06-9.40759E-12
 -1       831-6.79167E+04 9.27221E+01-5.84137E+02-2.83425E+01-1.15286E-06 9.55737E-10
 -1       832-6.83000E+04-6.84939E+02-1.42335E+03 3.57867E+01-4.26899E-06 8.70301E-10
 -1       833-6.76760E+04 5.91860E+02-2.26161E+03-2.70219E+01-7.27017E-06 4.47255E-09
 -1       834-7.00007E+04-4.37047E+03-6.17915E+03 3.12175E+01-1.02400E-05 2.40914E-09
 -1       835-6.62161E+04 3.77523E+03-8.73261E+03-2.37715E+01-5.13893E-06 3.58159E-09
 -1       836-2.21478E+02 6.28598E+04 3.78393E+03-5.45713E+03 4.54861E-10 1.35674E-09
 -1       837 8.27306E+02 6.40345E+04 3.22937E+03-1.09779E+04 6.11351E-10-3.89889E-10
 -1       838-8.44254E+01 6.31888E+04 3.32989E+03-5.43725E+03 6.25391E-10-4.52701E-10
 -1       839 2.13090E+03 6.50109E+04 6.33843E+03-1.09858E+04 8.42192E-10 4.52761E-10
 -1       840-6.45905E+02 6.18811E+04 1.01233E+04-5.44907E+03 5.31600E-10 8.96819E-10
 -1       856-2.08765E+04 1.78154E+03-4.69384E+03-9.39241E+01-8.04235E-10-1.46201E-09
 -1       857-2.28162E+04-2.09027E+03-3.23191E+03 1.08714E+03-7.36769E-10 7.67614E-10
 -1       858-2.16429E+04 2.49809E+02-1.21814E+03-9.57708E+01-1.32410E-09 2.21235E-10
 -1       859-2.19353E+04-2.91581E+02-7.35888E+02 1.08988E+03 1.25794E-10 1.97338E-09
 -1       860-2.17576E+04 3.48798E+01-3.09393E+02-9.66688E+01-6.17320E-11-2.30662E-09
 -1       861-2.18027E+04-3.98910E+01-1.72425E+02 1.09105E+03-1.64846E-09-3.52969E-09
 -1       862-2.17755E+04 4.75086E+00-7.60696E+01-9.69430E+01 1.00195E-09-5.41988E-10
 -1       863-2.17816E+04-4.41170E+00-3.76871E+01 1.09118E+03 3.23849E-09 2.14495E-10
 -1       864-2.17788E+04 1.50760E-01-1.19519E+01-9.67988E+01 1.33962E-09-7.78918E-10
 -1       865-2.17759E+04 3.76390E+00 6.64060E+00 1.09034E+03 1.20632E-09-4.41684E-10
 -1       866-2.17811E+04-3.35864E+00 2.51143E+01-9.61099E+01-3.74001E-10-7.00625E-10
 -1       867-2.17621E+04 2.86944E+01 6.88407E+01 1.08851E+03 5.70139E-11-1.59472E-09
 -1       868-2.17924E+04-2.42831E+01 1.16670E+02-9.49633E+01 2.99750E-10-1.22757E-09
 -1       869-2.16761E+04 2.02816E+02 3.12443E+02 1.08492E+03-7.27439E-10-3.25300E-09
 -1       870-2.18668E+04-1.72668E+02 4.54018E+02-9.25201E+01 6.83116E-10-9.12195E-10
 -1       871-9.53989E+02-2.00960E+03-3.14987E+03 2.06732E+04 6.02085E-10-2.16232E-10
 -1       872-4.08191E+02-2.71191E+03-1.28303E+03 2.68003E+04 1.24544E-09-3.60387E-10
 -1       873-1.80842E-01-2.37433E+03 1.88562E+02 2.06268E+04 6.53188E-10 1.59304E-10
 -1       874 4.98747E+02-1.91754E+03 1.79968E+03 2.68102E+04 1.16597E-09 2.22008E-09
 -1       875 1.16746E+03-2.80719E+03 3.98956E+03 2.06639E+04 2.65800E-10-1.01204E-09
 -1       876 5.17944E+04 8.90518E+03 2.77660E+03 2.09878E+04-1.22574E-09 9.88166E-10
 -1       877 5.19535E+04 9.51382E+03 1.48268E+03 2.18094E+04-1.62987E-09 1.45178E-10
 -1       878 5.20549E+04 8.59713E+03 6.21239E+02 2.12156E+04 1.10106E-09-4.59977E-10
 -1       879 5.15760E+04 9.13790E+03 3.09411E+02 2.18302E+04 4.62478E-10 1.89121E-09
 -1       880 5.20745E+04 8.59315E+03 1.44084E+02 2.12249E+04 3.71529E-10-6.82761E-10
 -1       881 5.15511E+04 9.12211E+03 7.66951E+01 2.18271E+04 1.18303E-09-1.06854E-09
 -1       882 5.20768E+04 8.59506E+03 4.87078E+01 2.12251E+04 1.66585E-09 2.46461E-10
 -1       883 5.15493E+04 9.12146E+03 5.17427E+01 2.18265E+04 6.05354E-10 1.97107E-09
 -1       884 5.20760E+04 8.59431E+03 8.17819E+01 2.12252E+04-1.48106E-10-9.09708E-10
 -1       885 5.15559E+04 9.12265E+03 1.64100E+02 2.18286E+04 1.19225E-09 1.12065E-09
 -1       886 5.20696E+04 8.58954E+03 3.30613E+02 2.12245E+04 6.51077E-10-6.57678E-11
 -1       887 5.16140E+04 9.16069E+03 7.22171E+02 2.18368E+04-3.94401E-10-2.22246E-09
 -1       888 5.20237E+04 8.59781E+03 1.45525E+03 2.12015E+04 3.02762E-11 6.65409E-10
 -1       889 5.24813E+04 1.00611E+04 3.47675E+03 2.18087E+04 4.60206E-10 1.07252E-09
 -1       890 5.14297E+04 9.30280E+03 6.51140E+03 2.06471E+04 7.18160E-10-8.34234E-10
 -1       891-2.87529E+01-2.94590E+04-3.46009E+02 5.59281E+03-7.39618E-10 1.72557E-09
 -1       892-5.04215E+01-2.95448E+04-3.77295E+02 8.46824E+03 1.27841E-10-3.41515E-10
 -1       893-4.23828E+00-2.94718E+04-5.39627E+02 5.59371E+03 3.21393E-10 3.68914E-10
 -1       894-2.87362E+02-2.97573E+04-1.12148E+03 8.43863E+03-5.89239E-10 1.51590E-09
 -1       895-2.22769E+02-2.92426E+04-1.97555E+03 5.62231E+03-9.70260E-10-1.43018E-10
 -1       956-6.50318E+04-9.37769E+02-2.35915E+03 4.30282E+03-1.27613E-09-1.38070E-09
 -1       957-6.54971E+04-3.17886E+02-1.21125E+03 5.17676E+03-1.48009E-09-2.02769E-09
 -1       958-6.52391E+04-2.67477E+01-5.45557E+02 4.27531E+03 3.81078E-10-2.16318E-09
 -1       959-6.52751E+04-7.34390E+00-2.78744E+02 5.20655E+03-9.65770E-11-2.94108E-10
 -1       960-6.52560E+04 5.14648E+00-1.35793E+02 4.27291E+03-3.97335E-10-8.73456E-10
 -1       961-6.52572E+04 3.37770E+00-7.20512E+01 5.20917E+03-1.50311E-09-2.34309E-10
 -1       962-6.52586E+04 3.40356E+00-4.11194E+01 4.27268E+03-9.09381E-10 1.17063E-09
 -1       963-6.52554E+04 3.06089E+00-3.28601E+01 5.20948E+03-1.10026E-09 1.40733E-09
 -1       964-6.52588E+04 3.47648E+00-3.96378E+01 4.27260E+03-2.31410E-10-3.62320E-10
 -1       965-6.52575E+04 3.58554E+00-6.82884E+01 5.20943E+03 1.12243E-09-8.06722E-10
 -1       966-6.52568E+04 5.34156E+00-1.28014E+02 4.27273E+03-3.08859E-10-4.47471E-10
 -1       967-6.52748E+04-6.25548E+00-2.62469E+02 5.20790E+03 3.31397E-10 1.05101E-09
 -1       968-6.52413E+04-2.44401E+01-5.13506E+02 4.27413E+03 3.10081E-10-1.88095E-10
 -1       969-6.54842E+04-2.98329E+02-1.14010E+03 5.19044E+03 3.79714E-11 1.90489E-10
 -1       970-6.50465E+04-8.81783E+02-2.22049E+03 4.29038E+03 2.24986E-10-1.09367E-10
 -1       971-6.18131E+04-3.27650E+02-1.81941E+03 3.06737E+03-1.44200E-09 6.99231E-10
 -1       972-6.22551E+04-2.37026E+02-9.91106E+02 4.27287E+03-5.32054E-10-4.25530E-10
 -1       973-6.20135E+04-3.74289E+00-4.43514E+02 3.04296E+03-7.34872E-10-1.55831E-09
 -1       974-6.20428E+04-5.90278E+00-2.29883E+02 4.29890E+03 2.49315E-10-2.80605E-09
 -1       975-6.20275E+04 3.55737E+00-1.14496E+02 3.04126E+03 2.66482E-10 5.93843E-10
 -1       976-6.20284E+04 2.53405E+00-6.56297E+01 4.30074E+03-7.33621E-10-3.31681E-10
 -1       977-6.20294E+04 2.70357E+00-4.66715E+01 3.04111E+03 4.86637E-10-8.52651E-13
 -1       978-6.20279E+04 2.95798E+00-5.34178E+01 4.30093E+03 2.38936E-09 5.91172E-11
 -1       979-6.20289E+04 3.76850E+00-8.47010E+01 3.04107E+03 1.33481E-09 2.41045E-10
 -1       980-6.20338E+04 3.31100E+00-1.62844E+02 4.30090E+03 1.69659E-09 1.23208E-10
 -1       981-6.20238E+04 7.87738E+00-3.14949E+02 3.04114E+03 5.07839E-10 1.81851E-09
 -1       982-6.20775E+04-1.96303E+01-6.50741E+02 4.29989E+03-8.41737E-10 5.53833E-10
 -1       983-6.19848E+04-1.17731E+01-1.26413E+03 3.04209E+03 6.16751E-10 2.90754E-10
 -1       984-6.26868E+04-6.78932E+02-2.83072E+03 4.28329E+03-1.49157E-10-2.32120E-10
 -1       985-6.14136E+04-9.36216E+02-5.19805E+03 3.05808E+03 1.35799E-09-2.87400E-10
 -3
    1PSTEP                         3           2           1          
  100CL  102 2.50000E-01         409                     0    2           1
 -4  DISP        4    1
 -5  D1          1    2    1    0
 -5  D2          1    2    2    0
 -5  D3          1    2    3    0
 -5  ALL         1    2    0    0    1ALL
 -1         1 6.57758E-05 0.00000E+00 0.00000E+00
 -1         2 6.10732E-05 3.52347E-30-1.65436E-24
 -1         3 5.59987E-05 1.69480E-27 3.30872E-24
 -1         5 4.02997E-05-9.24108E-27 1.65436E-24
 -1         8 5.26134E-05-4.65950E-07 0.00000E+00
 -1         9 5.33860E-05 2.72781E-07 0.00000E+00
 -1        10 5.19100E-05-7.66163E-07 1.65436E-24
 -1        12 4.00169E-05 2.72283E-07 0.00000E+00
 -1        15 3.69304E-05-4.98650E-07 2.06795E-25
 -1        16 3.75426E-05 2.08853E-07 0.00000E+00
 -1        17 3.86976E-05-1.60539E-06 0.00000E+00
 -1        18 3.86417E-05 1.24180E-07 0.00000E+00
 -1        19 3.91688E-05 5.43094E-07 0.00000E+00
 -1        20 3.92407E-05 8.05574E-06 0.00000E+00
 -1        21 3.89697E-05 1.52269E-05 0.00000E+00
 -1        24 9.82882E-06-2.13613E-06 0.00000E+00
 -1        25 3.77462E-05 1.86509E-07 0.00000E+00
 -1        26 3.82400E-05 7.56673E-07 0.00000E+00
 -1        27 3.74873E-05 6.84445E-06 0.00000E+00
 -1        28 3.72445E-05 1.49942E-05 0.00000E+00
 -1        32 0.00000E+00 0.00000E+00 0.00000E+00
 -1        33 3.66628E-05 1.01485E-06 0.00000E+00
 -1        34 3.59345E-05 6.83375E-06 0.00000E+00
 -1        35 3.52429E-05 1.48714E-05 0.00000E+00
 -1        51 6.49205E-05-7.76646E-08 0.00000E+00
 -1        52 6.33346E-05-1.52956E-07 0.00000E+00
 -1        53 6.11616E-05-2.28489E-07 0.00000E+00
 -1        54 5.85507E-05-3.04983E-07 1.65436E-24
 -1        55 5.56514E-05-3.82970E-07 2.06795E-24
 -1        56 6.51725E-05-3.72210E-07-1.32349E-23
 -1        57 6.46335E-05-9.83570E-07 6.61744E-24
 -1        58 6.41596E-05-1.76511E-06 0.00000E+00
 -1        59 6.37222E-05-2.65578E-06-1.32349E-23
 -1        60 6.33001E-05-3.58773E-06-2.64698E-23
 -1        61 6.28676E-05-4.49408E-06 0.00000E+00
 -1        62 6.24006E-05-5.30843E-06 2.64698E-23
 -1        63 6.18748E-05-5.96608E-06-1.32349E-23
 -1        64 6.12679E-05-6.40733E-06 0.00000E+00
 -1        65 6.05589E-05-6.57589E-06 1.32349E-23
 -1        66 5.97298E-05-6.42432E-06 0.00000E+00
 -1        67 5.87652E-05-5.91007E-06 0.00000E+00
 -1        68 5.76529E-05-5.00263E-06 0.00000E+00
 -1        69 5.63868E-05-3.67635E-06 6.61744E-24
 -1        70 5.49580E-05-1.92192E-06 1.32349E-23
 -1        86 6.08675E-05 4.90786E-08 1.65436E-24
 -1        87 6.02501E-05 9.77066E-08 0.00000E+00
 -1        88 5.92097E-05 1.45955E-07 0.00000E+00
 -1        89 5.77346E-05 1.91872E-07 0.00000E+00
 -1        90 5.58014E-05 2.37647E-07-1.65436E-24
 -1       121 5.58849E-05-1.27352E-07-3.30872E-24
 -1       122 5.55434E-05-2.54757E-07-1.65436E-24
 -1       123 5.49745E-05-3.82266E-07 0.00000E+00
 -1       124 5.41789E-05-5.09953E-07 0.00000E+00
 -1       125 5.31570E-05-6.37832E-07 3.30872E-24
 -1       191 4.02918E-05 4.53835E-08 1.65436E-24
 -1       192 4.02683E-05 9.07663E-08-8.27181E-25
 -1       193 4.02290E-05 1.36149E-07 0.00000E+00
 -1       194 4.01740E-05 1.81530E-07 8.27181E-25
 -1       195 4.01033E-05 2.26908E-07 0.00000E+00
 -1       251 5.26511E-05 1.70010E-06-1.65436E-24
 -1       252 5.26995E-05 2.98444E-06 0.00000E+00
 -1       253 5.27481E-05 3.53113E-06 0.00000E+00
 -1       254 5.27985E-05 3.48260E-06 0.00000E+00
 -1       255 5.28489E-05 2.96547E-06 0.00000E+00
 -1       256 5.28995E-05 2.10536E-06-8.27181E-25
 -1       257 5.29498E-05 1.01870E-06 0.00000E+00
 -1       258 5.30001E-05-1.78549E-07 8.27181E-25
 -1       259 5.30504E-05-1.37343E-06 0.00000E+00
 -1       260 5.31008E-05-2.45293E-06 0.00000E+00
 -1       261 5.31513E-05-3.30096E-06 0.00000E+00
 -1       262 5.32017E-05-3.80098E-06 0.00000E+00
 -1       263 5.32521E-05-3.82707E-06 0.00000E+00
 -1       264 5.33005E-05-3.25233E-06 1.03398E-25
 -1       265 5.33489E-05-1.93388E-06-1.65436E-24
 -1       266 4.99996E-05-4.77905E-07-3.30872E-24
 -1       267 4.73858E-05-4.82562E-07 0.00000E+00
 -1       268 4.47719E-05-4.87681E-07-8.27181E-25
 -1       269 4.21581E-05-4.91431E-07-2.06795E-25
 -1       270 3.95442E-05-4.95149E-07-2.06795E-25
 -1       271 5.09926E-05 1.46179E-06 1.32349E-23
 -1       272 4.96150E-05 2.66351E-06 0.00000E+00
 -1       273 4.84759E-05 3.23458E-06-2.64698E-23
 -1       274 4.75351E-05 3.26536E-06-1.32349E-23
 -1       275 4.67589E-05 2.85618E-06 2.64698E-23
 -1       276 4.61079E-05 2.11065E-06 0.00000E+00
 -1       277 4.55422E-05 1.13695E-06 2.64698E-23
 -1       278 4.50205E-05 4.55740E-08 0.00000E+00
 -1       279 4.45008E-05-1.05150E-06 2.64698E-23
 -1       280 4.39414E-05-2.04220E-06-1.32349E-23
 -1       281 4.33008E-05-2.81587E-06-2.64698E-23
 -1       282 4.25389E-05-3.26415E-06 1.32349E-23
 -1       283 4.16161E-05-3.28288E-06 0.00000E+00
 -1       284 4.04976E-05-2.77160E-06 0.00000E+00
 -1       285 3.91443E-05-1.63866E-06 1.32349E-23
 -1       301 5.07117E-05 2.58979E-07-3.30872E-24
 -1       302 4.80364E-05 2.53058E-07 8.27181E-25
 -1       303 4.53709E-05 2.47362E-07-1.65436E-24
 -1       304 4.27262E-05 2.40787E-07 1.65436E-24
 -1       305 4.01132E-05 2.32971E-07 0.00000E+00
 -1       306 5.17144E-05 2.23748E-06 0.00000E+00
 -1       307 5.03058E-05 3.42275E-06 0.00000E+00
 -1       308 4.91758E-05 3.87233E-06 0.00000E+00
 -1       309 4.82982E-05 3.63546E-06 0.00000E+00
 -1       310 4.76371E-05 2.82058E-06 2.64698E-23
 -1       311 4.71459E-05 1.54874E-06 0.00000E+00
 -1       312 4.67663E-05-2.15838E-08 0.00000E+00
 -1       313 4.64361E-05-1.72471E-06 1.32349E-23
 -1       314 4.60896E-05-3.38393E-06 0.00000E+00
 -1       315 4.56612E-05-4.82365E-06 0.00000E+00
 -1       316 4.50919E-05-5.88646E-06 0.00000E+00
 -1       317 4.43271E-05-6.42408E-06-1.32349E-23
 -1       318 4.33259E-05-6.33110E-06 0.00000E+00
 -1       319 4.20593E-05-5.51574E-06 0.00000E+00
 -1       320 4.05075E-05-3.94885E-06 0.00000E+00
 -1       336 5.04089E-05-9.04889E-07 3.30872E-24
 -1       337 4.86246E-05-1.04425E-06 1.65436E-24
 -1       338 4.65589E-05-1.18410E-06 0.00000E+00
 -1       339 4.42141E-05-1.32434E-06 0.00000E+00
 -1       340 4.15927E-05-1.46527E-06-3.30872E-24
 -1       406 3.99148E-05 3.17651E-07-1.65436E-24
 -1       407 3.97969E-05 3.63003E-07 8.27181E-25
 -1       408 3.96634E-05 4.08325E-07 0.00000E+00
 -1       409 3.95141E-05 4.53561E-07 0.00000E+00
 -1       410 3.93492E-05 4.98623E-07-1.65436E-24
 -1       521 3.52424E-05 1.71900E-06 0.00000E+00
 -1       522 3.32358E-05 2.30056E-06 0.00000E+00
 -1       523 3.15593E-05 2.01278E-06-5.29396E-23
 -1       524 3.01715E-05 9.28813E-07-2.64698E-23
 -1       525 2.90172E-05-7.79741E-07 0.00000E+00
 -1       526 2.80215E-05-2.91782E-06 2.64698E-23
 -1       527 2.70943E-05-5.23989E-06 5.29396E-23
 -1       528 2.61411E-05-7.49312E-06-2.64698E-23
 -1       529 2.50707E-05-9.43236E-06-5.29396E-23
 -1       530 2.37966E-05-1.08260E-05 0.00000E+00
 -1       531 2.22553E-05-1.15057E-05 0.00000E+00
 -1       532 2.03958E-05-1.13332E-05-2.64698E-23
 -1       533 1.82012E-05-1.02693E-05-5.29396E-23
 -1       534 1.56784E-05-8.30982E-06-2.64698E-23
 -1       535 1.28533E-05-5.56017E-06 0.00000E+00
 -1       536 3.86868E-05 1.09628E-06 0.00000E+00
 -1       537 3.86814E-05 3.14211E-06 0.00000E+00
 -1       538 3.86768E-05 4.59512E-06 4.13590E-25
 -1       539 3.86736E-05 5.51847E-06 0.00000E+00
 -1       540 3.86707E-05 5.97837E-06 2.06795E-25
 -1       541 3.86681E-05 6.04113E-06 0.00000E+00
 -1       542 3.86654E-05 5.77529E-06-1.03398E-25
 -1       543 3.86627E-05 5.24945E-06 0.00000E+00
 -1       544 3.86599E-05 4.53368E-06 1.03398E-25
 -1       545 3.86570E-05 3.69805E-06 2.58494E-26
 -1       546 3.86541E-05 2.81333E-06 0.00000E+00
 -1       547 3.86512E-05 1.95031E-06 2.58494E-26
 -1       548 3.86484E-05 1.17960E-06 6.46235E-27
 -1       549 3.86458E-05 5.71862E-07-2.58494E-26
 -1       550 3.86433E-05 1.96825E-07 2.06795E-25
 -1       551 3.48650E-05-1.68723E-06 3.30872E-24
 -1       552 3.02813E-05-1.77081E-06 8.27181E-25
 -1       553 2.52145E-05-1.85675E-06 3.30872E-24
 -1       554 1.99361E-05-1.94503E-06 0.00000E+00
 -1       555 1.47177E-05-2.03445E-06-6.61744E-24
 -1       556 3.76947E-05 9.99169E-07-6.61744E-24
 -1       557 3.69283E-05 2.98949E-06 0.00000E+00
 -1       558 3.63726E-05 4.42229E-06 0.00000E+00
 -1       559 3.60042E-05 5.35872E-06 0.00000E+00
 -1       560 3.57996E-05 5.85976E-06 0.00000E+00
 -1       561 3.57355E-05 5.98671E-06 0.00000E+00
 -1       562 3.57888E-05 5.80092E-06 0.00000E+00
 -1       563 3.59364E-05 5.36376E-06 0.00000E+00
 -1       564 3.61551E-05 4.73664E-06 0.00000E+00
 -1       565 3.64219E-05 3.98099E-06 8.27181E-25
 -1       566 3.67139E-05 3.15824E-06 4.13590E-25
 -1       567 3.70079E-05 2.32985E-06 1.03398E-25
 -1       568 3.72811E-05 1.55723E-06 0.00000E+00
 -1       569 3.75105E-05 9.01772E-07 0.00000E+00
 -1       570 3.76730E-05 4.24853E-07 0.00000E+00
 -1       571 3.86737E-05 1.71004E-07 6.20385E-25
 -1       572 3.87064E-05 1.96123E-07 3.10193E-25
 -1       573 3.87393E-05 2.03407E-07 4.13590E-25
 -1       574 3.87723E-05 1.96929E-07 2.06795E-25
 -1       575 3.88053E-05 1.80782E-07 0.00000E+00
 -1       576 3.88384E-05 1.59084E-07 4.13590E-25
 -1       577 3.88714E-05 1.35957E-07 0.00000E+00
 -1       578 3.89045E-05 1.15527E-07-8.27181E-25
 -1       579 3.89376E-05 1.01919E-07 0.00000E+00
 -1       580 3.89706E-05 9.92581E-08 0.00000E+00
 -1       581 3.90037E-05 1.11669E-07-1.65436E-24
 -1       582 3.90367E-05 1.43272E-07 0.00000E+00
 -1       583 3.90698E-05 1.98184E-07 0.00000E+00
 -1       584 3.91028E-05 2.80478E-07 0.00000E+00
 -1       585 3.91359E-05 3.94203E-07 0.00000E+00
 -1       586 3.84808E-05 1.35221E-07-8.27181E-25
 -1       587 3.83061E-05 1.45982E-07 0.00000E+00
 -1       588 3.81314E-05 1.56623E-07 0.00000E+00
 -1       589 3.79705E-05 1.67093E-07 0.00000E+00
 -1       590 3.78376E-05 1.77277E-07 0.00000E+00
 -1       591 3.86089E-05 1.87773E-07-5.16988E-26
 -1       592 3.85815E-05 2.33440E-07-2.06795E-25
 -1       593 3.85594E-05 2.64595E-07 0.00000E+00
 -1       594 3.85415E-05 2.84315E-07 0.00000E+00
 -1       595 3.85267E-05 2.95716E-07 0.00000E+00
 -1       596 3.85138E-05 3.01892E-07 1.03398E-25
 -1       597 3.85017E-05 3.05935E-07-2.06795E-25
 -1       598 3.84892E-05 3.10936E-07 1.03398E-25
 -1       599 3.84753E-05 3.19982E-07 0.00000E+00
 -1       600 3.84586E-05 3.36164E-07 1.03398E-25
 -1       601 3.84381E-05 3.62571E-07 0.00000E+00
 -1       602 3.84127E-05 4.02296E-07-1.03398E-25
 -1       603 3.83812E-05 4.58431E-07 7.75482E-26
 -1       604 3.83424E-05 5.34095E-07-5.16988E-26
 -1       605 3.82954E-05 6.32364E-07 0.00000E+00
 -1       606 3.91750E-05 7.67107E-07 0.00000E+00
 -1       607 3.91799E-05 1.03827E-06 8.27181E-25
 -1       608 3.91846E-05 1.35382E-06 0.00000E+00
 -1       609 3.91891E-05 1.71063E-06-8.27181E-25
 -1       610 3.91935E-05 2.10558E-06 0.00000E+00
 -1       611 3.91979E-05 2.53547E-06 0.00000E+00
 -1       612 3.92023E-05 2.99712E-06 0.00000E+00
 -1       613 3.92066E-05 3.48735E-06 0.00000E+00
 -1       614 3.92110E-05 4.00298E-06 0.00000E+00
 -1       615 3.92153E-05 4.54081E-06 0.00000E+00
 -1       616 3.92196E-05 5.09767E-06 8.27181E-25
 -1       617 3.92239E-05 5.67036E-06 0.00000E+00
 -1       618 3.92282E-05 6.25570E-06 0.00000E+00
 -1       619 3.92325E-05 6.85050E-06 0.00000E+00
 -1       620 3.92367E-05 7.45158E-06 0.00000E+00
 -1       621 3.89911E-05 5.78717E-07 0.00000E+00
 -1       622 3.88262E-05 6.14512E-07 0.00000E+00
 -1       623 3.86713E-05 6.50301E-07-8.27181E-25
 -1       624 3.85238E-05 6.86033E-07 0.00000E+00
 -1       625 3.83809E-05 7.21703E-07 8.27181E-25
 -1       626 3.91230E-05 7.78329E-07 0.00000E+00
 -1       627 3.90628E-05 1.05261E-06 0.00000E+00
 -1       628 3.89894E-05 1.36232E-06 0.00000E+00
 -1       629 3.89041E-05 1.70359E-06 0.00000E+00
 -1       630 3.88085E-05 2.07256E-06 0.00000E+00
 -1       631 3.87040E-05 2.46532E-06 0.00000E+00
 -1       632 3.85919E-05 2.87799E-06 0.00000E+00
 -1       633 3.84739E-05 3.30666E-06 0.00000E+00
 -1       634 3.83513E-05 3.74744E-06 0.00000E+00
 -1       635 3.82257E-05 4.19643E-06 0.00000E+00
 -1       636 3.80984E-05 4.64974E-06 8.27181E-25
 -1       637 3.79709E-05 5.10346E-06-4.13590E-25
 -1       638 3.78448E-05 5.55369E-06 0.00000E+00
 -1       639 3.77213E-05 5.99655E-06 4.13590E-25
 -1       640 3.76018E-05 6.42812E-06-8.27181E-25
 -1       656 3.87393E-05 7.85870E-06 0.00000E+00
 -1       657 3.84157E-05 7.65374E-06 0.00000E+00
 -1       658 3.82005E-05 7.44941E-06 0.00000E+00
 -1       659 3.80236E-05 7.24525E-06 0.00000E+00
 -1       660 3.78105E-05 7.04044E-06 0.00000E+00
 -1       661 3.90551E-05 8.64784E-06 0.00000E+00
 -1       662 3.88805E-05 9.21477E-06 0.00000E+00
 -1       663 3.87150E-05 9.75705E-06-8.27181E-25
 -1       664 3.85586E-05 1.02758E-05 0.00000E+00
 -1       665 3.84107E-05 1.07720E-05 0.00000E+00
 -1       666 3.82710E-05 1.12465E-05-4.13590E-25
 -1       667 3.81391E-05 1.17003E-05-8.27181E-25
 -1       668 3.80147E-05 1.21342E-05 4.13590E-25
 -1       669 3.78973E-05 1.25493E-05 0.00000E+00
 -1       670 3.77867E-05 1.29464E-05 0.00000E+00
 -1       671 3.76825E-05 1.33262E-05 0.00000E+00
 -1       672 3.75844E-05 1.36896E-05 4.13590E-25
 -1       673 3.74922E-05 1.40374E-05 8.27181E-25
 -1       674 3.74051E-05 1.43704E-05 4.13590E-25
 -1       675 3.73234E-05 1.46893E-05-2.06795E-25
 -1       676 3.86818E-05 1.51879E-05-8.27181E-25
 -1       677 3.83940E-05 1.51489E-05 4.13590E-25
 -1       678 3.81063E-05 1.51099E-05-8.27181E-25
 -1       679 3.78187E-05 1.50710E-05 0.00000E+00
 -1       680 3.75315E-05 1.50322E-05-8.27181E-25
 -1       771 7.87083E-06 1.57870E-06 0.00000E+00
 -1       772 6.16576E-06 4.61170E-06 1.32349E-23
 -1       773 4.70261E-06 7.00391E-06 0.00000E+00
 -1       774 3.46468E-06 8.79812E-06 1.32349E-23
 -1       775 2.43569E-06 1.00376E-05 2.64698E-23
 -1       776 1.59880E-06 1.07664E-05 6.61744E-24
 -1       777 9.37044E-07 1.10290E-05 0.00000E+00
 -1       778 4.33274E-07 1.08707E-05 0.00000E+00
 -1       779 7.02442E-08 1.03370E-05 1.32349E-23
 -1       780-1.69462E-07 9.47399E-06 0.00000E+00
 -1       781-3.03289E-07 8.32803E-06 0.00000E+00
 -1       782-3.48817E-07 6.94595E-06 0.00000E+00
 -1       783-3.23639E-07 5.37472E-06 0.00000E+00
 -1       784-2.45409E-07 3.66166E-06-6.61744E-24
 -1       785-1.31833E-07 1.85417E-06-1.32349E-23
 -1       786 3.77752E-05 1.83235E-07 4.13590E-25
 -1       787 3.78060E-05 1.80764E-07 0.00000E+00
 -1       788 3.78367E-05 1.79672E-07-8.27181E-25
 -1       789 3.78677E-05 1.80535E-07 0.00000E+00
 -1       790 3.78987E-05 1.84067E-07 8.27181E-25
 -1       791 3.79298E-05 1.90986E-07-4.13590E-25
 -1       792 3.79609E-05 2.02249E-07-8.27181E-25
 -1       793 3.79920E-05 2.18816E-07 0.00000E+00
 -1       794 3.80231E-05 2.42021E-07 8.27181E-25
 -1       795 3.80542E-05 2.73208E-07 0.00000E+00
 -1       796 3.80853E-05 3.14280E-07-8.27181E-25
 -1       797 3.81163E-05 3.67154E-07 4.13590E-25
 -1       798 3.81474E-05 4.34576E-07 8.27181E-25
 -1       799 3.81784E-05 5.19310E-07 0.00000E+00
 -1       800 3.82094E-05 6.25340E-07 8.27181E-25
 -1       801 3.51988E-05 1.81370E-07 0.00000E+00
 -1       802 2.76132E-05 1.51420E-07-4.13590E-25
 -1       803 1.76464E-05 1.02338E-07 0.00000E+00
 -1       804 7.95589E-06 5.22709E-08 0.00000E+00
 -1       805 1.19037E-06 2.51687E-08 0.00000E+00
 -1       806 3.77088E-05 1.62330E-07-8.27181E-25
 -1       807 3.76697E-05 1.38544E-07 4.13590E-25
 -1       808 3.76293E-05 1.17559E-07 0.00000E+00
 -1       809 3.75869E-05 1.01411E-07 4.13590E-25
 -1       810 3.75418E-05 9.21356E-08-8.27181E-25
 -1       811 3.74934E-05 9.17340E-08-8.27181E-25
 -1       812 3.74409E-05 1.02207E-07-1.65436E-24
 -1       813 3.73836E-05 1.25552E-07-8.27181E-25
 -1       814 3.73207E-05 1.63763E-07 1.65436E-24
 -1       815 3.72515E-05 2.18835E-07 4.13590E-25
 -1       816 3.71752E-05 2.92761E-07-8.27181E-25
 -1       817 3.70911E-05 3.87535E-07-4.13590E-25
 -1       818 3.69984E-05 5.05148E-07-1.65436E-24
 -1       819 3.68966E-05 6.47587E-07-8.27181E-25
 -1       820 3.67847E-05 8.16838E-07 8.27181E-25
 -1       821 3.81956E-05 9.17329E-07 0.00000E+00
 -1       822 3.81485E-05 1.11140E-06 0.00000E+00
 -1       823 3.81016E-05 1.34366E-06-1.65436E-24
 -1       824 3.80541E-05 1.61877E-06 8.27181E-25
 -1       825 3.80067E-05 1.93709E-06 1.65436E-24
 -1       826 3.79591E-05 2.29887E-06-8.27181E-25
 -1       827 3.79115E-05 2.69993E-06 0.00000E+00
 -1       828 3.78638E-05 3.13605E-06-8.27181E-25
 -1       829 3.78161E-05 3.59943E-06 0.00000E+00
 -1       830 3.77685E-05 4.08221E-06 0.00000E+00
 -1       831 3.77208E-05 4.57457E-06-1.65436E-24
 -1       832 3.76733E-05 5.06667E-06-8.27181E-25
 -1       833 3.76258E-05 5.54869E-06 1.65436E-24
 -1       834 3.75788E-05 6.01084E-06 0.00000E+00
 -1       835 3.75317E-05 6.44534E-06 0.00000E+00
 -1       836 3.80491E-05 7.99645E-07-8.27181E-25
 -1       837 3.78018E-05 8.43572E-07 4.13590E-25
 -1       838 3.75185E-05 8.87421E-07 8.27181E-25
 -1       839 3.72204E-05 9.30992E-07 4.13590E-25
 -1       840 3.69282E-05 9.74494E-07 0.00000E+00
 -1       856 3.74738E-05 7.25359E-06 0.00000E+00
 -1       857 3.74588E-05 7.71461E-06-1.03398E-25
 -1       858 3.74439E-05 8.21931E-06 0.00000E+00
 -1       859 3.74286E-05 8.75946E-06 0.00000E+00
 -1       860 3.74133E-05 9.32680E-06-4.13590E-25
 -1       861 3.73980E-05 9.91304E-06-2.06795E-25
 -1       862 3.73827E-05 1.05099E-05 0.00000E+00
 -1       863 3.73673E-05 1.11091E-05 0.00000E+00
 -1       864 3.73519E-05 1.17024E-05 0.00000E+00
 -1       865 3.73366E-05 1.22814E-05 2.06795E-25
 -1       866 3.73212E-05 1.28380E-05-4.13590E-25
 -1       867 3.73059E-05 1.33637E-05 0.00000E+00
 -1       868 3.72906E-05 1.38504E-05 0.00000E+00
 -1       869 3.72753E-05 1.42898E-05 0.00000E+00
 -1       870 3.72600E-05 1.46738E-05 0.00000E+00
 -1       871 3.71757E-05 6.84408E-06 2.06795E-25
 -1       872 3.69140E-05 6.84267E-06 0.00000E+00
 -1       873 3.66807E-05 6.84107E-06 0.00000E+00
 -1       874 3.64541E-05 6.83922E-06 5.16988E-26
 -1       875 3.62125E-05 6.83714E-06 0.00000E+00
 -1       876 3.73793E-05 7.25785E-06 0.00000E+00
 -1       877 3.72628E-05 7.69648E-06 0.00000E+00
 -1       878 3.71381E-05 8.15729E-06-3.30872E-24
 -1       879 3.70062E-05 8.63744E-06 8.27181E-25
 -1       880 3.68682E-05 9.13408E-06 1.65436E-24
 -1       881 3.67251E-05 9.64434E-06-8.27181E-25
 -1       882 3.65779E-05 1.01654E-05-1.65436E-24
 -1       883 3.64278E-05 1.06944E-05 8.27181E-25
 -1       884 3.62757E-05 1.12286E-05-1.65436E-24
 -1       885 3.61227E-05 1.17650E-05 8.27181E-25
 -1       886 3.59700E-05 1.23009E-05 0.00000E+00
 -1       887 3.58185E-05 1.28333E-05-4.13590E-25
 -1       888 3.56692E-05 1.33596E-05-8.27181E-25
 -1       889 3.55231E-05 1.38767E-05 0.00000E+00
 -1       890 3.53813E-05 1.43818E-05 4.13590E-25
 -1       891 3.69675E-05 1.49736E-05-4.13590E-25
 -1       892 3.66815E-05 1.49530E-05 0.00000E+00
 -1       893 3.63763E-05 1.49324E-05 0.00000E+00
 -1       894 3.60416E-05 1.49119E-05 0.00000E+00
 -1       895 3.56671E-05 1.48913E-05 0.00000E+00
 -1       956 3.66181E-05 1.27161E-06 0.00000E+00
 -1       957 3.65727E-05 1.55752E-06 4.13590E-25
 -1       958 3.65271E-05 1.86955E-06 8.27181E-25
 -1       959 3.64815E-05 2.20448E-06-8.27181E-25
 -1       960 3.64358E-05 2.55911E-06 0.00000E+00
 -1       961 3.63902E-05 2.93018E-06 4.13590E-25
 -1       962 3.63445E-05 3.31447E-06-1.65436E-24
 -1       963 3.62988E-05 3.70874E-06 0.00000E+00
 -1       964 3.62531E-05 4.10975E-06 0.00000E+00
 -1       965 3.62074E-05 4.51426E-06-8.27181E-25
 -1       966 3.61617E-05 4.91904E-06 0.00000E+00
 -1       967 3.61160E-05 5.32084E-06 0.00000E+00
 -1       968 3.60703E-05 5.71642E-06 1.65436E-24
 -1       969 3.60248E-05 6.10257E-06 0.00000E+00
 -1       970 3.59793E-05 6.47606E-06 1.65436E-24
 -1       971 3.58918E-05 7.20125E-06-8.27181E-25
 -1       972 3.58485E-05 7.60727E-06 4.13590E-25
 -1       973 3.58052E-05 8.04755E-06 1.65436E-24
 -1       974 3.57618E-05 8.51766E-06 4.13590E-25
 -1       975 3.57183E-05 9.01319E-06-8.27181E-25
 -1       976 3.56748E-05 9.52968E-06 0.00000E+00
 -1       977 3.56313E-05 1.00627E-05 0.00000E+00
 -1       978 3.55878E-05 1.06078E-05 0.00000E+00
 -1       979 3.55443E-05 1.11606E-05 1.65436E-24
 -1       980 3.55008E-05 1.17166E-05 8.27181E-25
 -1       981 3.54573E-05 1.22713E-05 0.00000E+00
 -1       982 3.54138E-05 1.28204E-05 8.27181E-25
 -1       983 3.53705E-05 1.33594E-05 0.00000E+00
 -1       984 3.53273E-05 1.38838E-05 0.00000E+00
 -1       985 3.52842E-05 1.43893E-05-8.27181E-25
 -3
    1PSTEP                         4           2           1          
  100CL  102 2.50000E-01         409                     0    2           1
 -4  STRESS      6    1
 -5  SXX         1    4    1    1
 -5  SYY         1    4    2    2
 -5  SZZ         1    4    3    3
 -5  SXY         1    4    1    2
 -5  SYZ         1    4    2    3
 -5  SZX         1    4    3    1
 -1         1-8.68077E+05-3.99799E+05-1.76348E+05-5.58988E+05-2.00089E-11-3.63070E-09
 -1         2 1.42019E+03 1.42272E+05 4.63046E+03 2.48798E+02-8.38298E-11-1.60782E-10
 -1         3-1.87806E+01-3.64043E+05 8.37574E+01-6.72029E+01-6.20837E-11-1.41245E-09
 -1         5-2.09538E+00 1.29846E+05 3.39811E+00-5.07969E-02 6.84015E-11-3.05636E-09
 -1         8-4.34938E+05-1.86579E+05-2.10986E+04-3.14565E+05 1.45519E-10 1.54250E-09
 -1         9-7.07127E+05-1.88432E+05-7.10925E+04-2.44333E+05 1.92522E-09-3.45462E-09
 -1        10-2.70385E+02-3.79259E+05-4.81268E+02-4.45361E+02-1.69598E-09 2.73378E-09
 -1        12-7.00469E-01 1.29853E+05 1.10143E+02-1.05537E-01 1.32651E-10 2.66573E-09
 -1        15 1.07783E+03 5.92322E+02 3.48406E+03 1.21829E+00-3.53043E-09-1.41119E-06
 -1        16-1.98910E+06-6.41250E+05-3.10537E+05-6.50241E+05 4.33405E-09-6.79089E-11
 -1        17-4.38582E+05-2.71078E+05-8.44188E+04-2.55967E+05-2.82671E-09-2.19734E-10
 -1        18 1.44566E+04 1.19656E+03-6.35876E+03-3.06113E+04 3.80169E-10 1.18393E-09
 -1        19 4.07156E+04 4.85232E+04-2.25928E+02 7.98152E+03-2.78942E-10-9.64064E-10
 -1        20-1.69279E+04-1.92478E+05-4.24411E+04 1.43193E+04 1.93874E-09-6.14818E-10
 -1        21-1.82266E+01-1.11628E+05-3.60498E+02-2.20445E+01-5.17184E-09-2.65209E-09
 -1        24-1.71461E+06-6.01538E+05-2.44389E+05-7.35891E+05-7.95626E-09-4.26856E-09
 -1        25 1.36271E+04-8.56685E+03 7.51857E+03-5.53065E+04 1.83763E-10 9.84801E-10
 -1        26-9.50512E+03 3.31361E+04-6.60183E+03-4.69533E+03 8.86939E-10 1.95030E-11
 -1        27-3.07863E+04-1.05609E+05-3.96143E+04 2.38024E+04 2.75107E-09-7.52758E-10
 -1        28 8.61942E+03-3.08462E+04 6.30034E+03 9.88376E+03 2.46715E-09 5.15652E-10
 -1        32-4.15646E+05-7.71996E+04 1.73950E+05-2.77261E+05-8.22911E-09 5.91123E-09
 -1        33-6.04444E+04 3.10516E+04 1.10110E+04-1.79804E+04 5.66520E-10 3.93281E-09
 -1        34-7.84276E+04-7.80860E+03 1.86681E+02 2.41267E+04 1.17558E-09-2.69589E-10
 -1        35-8.77186E+03-1.22716E+04-4.77933E+02 1.94406E+04 2.75254E-09 2.97253E-09
 -1        51 8.30006E+03-2.03218E+05 1.99942E+04-5.02205E+05 8.73115E-11 1.53523E-09
 -1        52 4.00708E+03-2.01133E+05 1.31287E+04-5.85717E+05 5.60249E-10-1.23327E-09
 -1        53 2.40049E+03-2.05916E+05 1.14398E+04-5.00502E+05 3.92902E-10-3.08501E-09
 -1        54 7.91666E+03-2.03793E+05 1.84420E+04-5.87536E+05-6.03904E-10-4.33283E-09
 -1        55 1.82561E+04-2.10446E+05 3.31848E+04-5.00289E+05-7.27596E-11 7.67614E-10
 -1        56-1.66781E+06-1.88584E+05-1.30441E+05-6.43323E+05-3.29237E-10-6.25732E-09
 -1        57-1.72041E+06-3.06311E+05-8.79107E+04-6.38078E+05-3.05135E-10-1.75714E-09
 -1        58-1.69377E+06-2.30121E+05-3.07116E+04-6.35441E+05-1.61890E-10-3.02680E-09
 -1        59-1.69038E+06-2.57621E+05-1.83340E+04-6.47559E+05-4.56566E-10-6.43945E-09
 -1        60-1.69760E+06-2.35883E+05-7.17932E+03-6.34344E+05-5.82077E-11-1.08344E-09
 -1        61-1.68624E+06-2.50587E+05-4.08288E+03-6.48500E+05 6.06519E-10 1.77715E-09
 -1        62-1.69786E+06-2.36981E+05-1.96653E+03-6.34555E+05 5.18867E-10-2.99151E-09
 -1        63-1.68660E+06-2.48801E+05-1.61859E+03-6.47512E+05 1.23538E-09-9.40986E-10
 -1        64-1.69721E+06-2.37665E+05-1.85373E+03-6.35321E+05 3.86990E-10-1.58525E-09
 -1        65-1.68868E+06-2.47883E+05-3.71575E+03-6.45471E+05 2.72280E-11-4.51575E-09
 -1        66-1.69575E+06-2.37937E+05-6.52936E+03-6.36568E+05 5.78666E-11-4.52292E-09
 -1        67-1.69472E+06-2.51887E+05-1.65769E+04-6.41885E+05-1.31959E-09 1.10140E-09
 -1        68-1.69118E+06-2.33842E+05-2.78183E+04-6.38831E+05 1.62595E-09 8.10178E-09
 -1        69-1.72389E+06-2.93943E+05-7.95317E+04-6.31027E+05 6.62794E-10 1.81899E-09
 -1        70-1.66680E+06-1.97140E+05-1.18068E+05-6.46968E+05-2.71029E-10 1.06229E-09
 -1        86-7.11887E+02 1.40870E+05 4.96591E+03-1.24407E+02 6.89624E-10-1.10072E-09
 -1        87 4.72522E+03 1.43881E+05 1.03532E+04 5.08601E+02 1.14301E-09-1.03355E-08
 -1        88-4.00717E+03 1.39262E+05 1.58596E+04-3.84210E+02 1.70439E-09 1.92745E-09
 -1        89 2.98630E+04 1.55575E+05 4.27563E+04 1.08374E+03 2.62617E-09-5.47570E-09
 -1        90-2.57672E+04 1.29180E+05 6.04109E+04-6.99361E+02 2.93949E-09-9.00684E-10
 -1       121-3.54437E+01-3.64162E+05 8.34869E+01 3.35814E+01 1.92177E-10 4.40195E-10
 -1       122 8.73701E+00-3.64024E+05 1.83490E+02-1.34554E+02-6.78208E-10-1.58616E-09
 -1       123-5.56557E+01-3.64181E+05 3.01457E+02 1.00855E+02 5.51296E-10-2.21735E-09
 -1       124 3.47214E+02-3.63815E+05 7.71168E+02-3.33035E+02-1.30757E-09 5.44492E-09
 -1       125-2.76205E+02-3.64373E+05 1.18712E+03 2.32083E+02 8.51287E-10-1.22327E-09
 -1       191-2.31267E+00 1.29857E+05 4.08012E+00 2.52432E-02 8.03390E-11-1.34560E-09
 -1       192-2.40723E+00 1.29846E+05 7.19443E+00 1.55063E-01 1.05916E-10 1.76078E-09
 -1       193-3.14213E+00 1.29857E+05 1.33980E+01-1.81398E-01 1.37816E-10-2.17597E-09
 -1       194-3.41099E+00 1.29847E+05 2.72125E+01 4.88379E-01 9.91052E-11-4.72028E-09
 -1       195-4.73661E+00 1.29856E+05 5.32485E+01-3.10042E-01 2.51756E-10-8.50378E-11
 -1       251 1.33994E+05-2.50640E+04 5.85913E+04 2.14103E+03-2.73189E-10-1.77170E-09
 -1       252 1.60265E+05 2.90117E+04 4.15002E+04-7.58298E+03-8.44977E-10-5.13410E-09
 -1       253 1.43986E+05-3.88216E+03 1.51676E+04 1.63658E+03-3.82727E-10 6.43013E-10
 -1       254 1.48531E+05 4.48831E+03 9.56847E+03-6.78256E+03-1.03796E-10-5.93673E-10
 -1       255 1.45695E+05-6.00232E+02 3.91963E+03 1.34073E+03 3.48166E-10 1.99930E-09
 -1       256 1.46499E+05 7.11651E+02 2.37967E+03-6.34538E+03 3.45366E-10-8.60723E-10
 -1       257 1.46002E+05-1.05367E+02 1.22800E+03 1.19939E+03 8.15888E-10 1.53787E-09
 -1       258 1.46188E+05 2.21853E+02 1.09150E+03-6.20545E+03 4.88763E-10 1.14091E-09
 -1       259 1.46000E+05-1.08194E+02 1.25447E+03 1.20081E+03 1.86212E-10 2.48619E-09
 -1       260 1.46514E+05 7.36063E+02 2.45664E+03-6.35180E+03-1.99236E-11-1.59707E-09
 -1       261 1.45681E+05-6.21916E+02 4.05769E+03 1.34573E+03 5.16394E-10-1.79239E-09
 -1       262 1.48617E+05 4.65113E+03 9.91353E+03-6.79524E+03 5.69003E-11-2.27021E-09
 -1       263 1.43913E+05-4.02318E+03 1.57188E+04 1.64426E+03-5.29838E-10-5.82986E-10
 -1       264 1.60770E+05 3.00663E+04 4.30066E+04-7.60417E+03-1.36498E-09 6.80711E-09
 -1       265 1.33563E+05-2.59743E+04 6.07246E+04 2.15454E+03-8.72546E-10 4.26007E-09
 -1       266-1.95125E+04-9.12466E+03 4.57789E+04-2.60664E+01-5.57884E-09-2.22230E-06
 -1       267 2.26202E+04 1.06340E+04 3.23573E+04 3.00771E+01-1.09644E-08-4.38298E-06
 -1       268-3.03333E+03-1.50612E+03 1.20270E+04-3.83225E+00-8.86121E-09-3.52245E-06
 -1       269 3.58146E+03 1.80245E+03 7.81743E+03 4.46410E+00-6.68251E-09-2.66378E-06
 -1       270-5.37582E+02-2.96160E+02 3.77358E+03-6.05800E-01-4.91445E-09-1.95991E-06
 -1       271-2.00585E+06-2.45760E+05-1.55901E+05-7.79353E+05-5.14774E-10-1.98634E-09
 -1       272-2.05124E+06-3.74761E+05-1.00899E+05-7.90631E+05-2.77851E-10 9.89530E-10
 -1       273-2.03559E+06-2.85999E+05-3.68200E+04-7.71863E+05 4.08136E-10 3.94721E-10
 -1       274-2.01656E+06-3.25925E+05-2.07899E+04-8.01655E+05 4.96129E-10 7.82165E-10
 -1       275-2.04011E+06-2.89976E+05-8.57055E+03-7.70185E+05-5.87079E-10-1.55160E-09
 -1       276-2.01121E+06-3.21280E+05-4.59502E+03-8.04253E+05-7.45786E-11-3.98109E-09
 -1       277-2.04107E+06-2.90047E+05-2.23930E+03-7.69579E+05 1.91449E-10 4.12308E-09
 -1       278-2.01029E+06-3.21111E+05-1.64775E+03-8.04944E+05-1.04555E-09-3.29288E-09
 -1       279-2.04110E+06-2.90056E+05-1.77353E+03-7.69563E+05-1.30422E-09-4.63251E-09
 -1       280-2.01098E+06-3.21083E+05-3.27973E+03-8.04340E+05-9.25411E-11-1.18746E-09
 -1       281-2.04032E+06-2.90147E+05-5.96117E+03-7.70124E+05-3.47882E-10 3.61615E-09
 -1       282-2.01501E+06-3.23886E+05-1.43488E+04-8.02052E+05 4.26098E-10 3.73939E-09
 -1       283-2.03693E+06-2.87702E+05-2.54010E+04-7.71591E+05 5.04542E-10-6.00267E-11
 -1       284-2.03951E+06-3.56858E+05-6.95275E+04-7.93609E+05-3.34751E-10-3.64162E-09
 -1       285-2.01602E+06-2.60420E+05-1.07492E+05-7.77223E+05-2.31012E-10-3.12866E-10
 -1       301 7.40665E+03-5.39809E+03 5.79305E+04-1.30776E+04-2.07365E-10-2.04014E-09
 -1       302 7.94772E+03 9.31408E+03 4.18110E+04-1.92340E+04 9.09722E-10 9.84187E-10
 -1       303 3.28878E+02-1.92329E+02 3.84534E+04-1.30996E+04-5.29326E-10 3.95858E-09
 -1       304 1.49739E+04 1.57899E+04 6.46462E+04-1.91862E+04 5.12046E-10 8.72808E-09
 -1       305 1.48464E+04-1.18473E+04 1.08458E+05-1.30929E+04-6.51198E-10 3.07546E-09
 -1       306-2.08522E+06-2.38706E+05-1.58813E+05-8.11663E+05 1.65164E-09-4.07454E-10
 -1       307-2.16111E+06-3.79016E+05-1.08303E+05-7.91166E+05 1.43564E-09 1.75532E-09
 -1       308-2.12047E+06-2.88844E+05-3.73606E+04-7.97695E+05 1.76351E-09 3.92902E-09
 -1       309-2.11813E+06-3.22868E+05-2.26599E+04-8.10151E+05-1.01784E-09 2.40971E-09
 -1       310-2.12804E+06-2.93888E+05-8.76674E+03-7.93033E+05-2.43503E-11 1.82672E-09
 -1       311-2.10848E+06-3.17990E+05-5.09292E+03-8.16790E+05 1.02668E-09 1.82354E-10
 -1       312-2.13016E+06-2.93541E+05-2.48907E+03-7.91149E+05 2.36469E-11 4.63245E-09
 -1       313-2.10660E+06-3.18107E+05-2.24591E+03-8.18444E+05-1.70481E-09-8.93635E-10
 -1       314-2.12994E+06-2.93738E+05-2.69581E+03-7.91404E+05-1.67131E-09-2.10650E-09
 -1       315-2.10938E+06-3.17379E+05-5.69816E+03-8.15798E+05-4.89109E-10 1.35401E-10
 -1       316-2.12734E+06-2.94316E+05-9.90443E+03-7.93758E+05 2.09455E-09-8.78572E-10
 -1       317-2.12044E+06-3.22837E+05-2.56532E+04-8.08207E+05-3.92362E-10-1.53523E-09
 -1       318-2.11885E+06-2.88481E+05-4.23070E+04-7.98894E+05-9.00400E-10 6.17547E-09
 -1       319-2.16868E+06-3.86950E+05-1.22684E+05-7.87327E+05-5.26597E-10 4.58385E-09
 -1       320-2.07929E+06-2.31281E+05-1.79852E+05-8.14250E+05 4.09273E-09-1.54978E-09
 -1       336 2.95619E+02-3.94229E+05-2.08518E+03 2.13095E+02-3.50713E-09 2.49202E-10
 -1       337-7.47558E+02-3.94833E+05-2.28285E+03-6.00009E+02-6.35845E-09-9.89075E-10
 -1       338 1.95209E+02-3.94292E+05-2.85875E+03 3.86081E+02-4.62182E-09-3.21324E-09
 -1       339-2.95398E+03-3.96180E+05-6.26316E+03-9.43500E+02-8.57688E-09 5.12955E-10
 -1       340 2.02026E+03-3.92893E+05-9.64108E+03 5.54825E+02-5.76529E-09 2.71393E-09
 -1       406 7.72821E+00 1.29851E+05 2.17474E+02 4.11077E-01 3.35831E-10 3.86353E-09
 -1       407 7.51156E+01 1.29891E+05 4.62187E+02-5.58062E+00 4.03588E-11-6.83031E-10
 -1       408 2.37215E+02 1.29818E+05 9.23127E+02 5.21777E+00 3.99041E-10 1.07188E-08
 -1       409 9.97489E+02 1.30186E+05 2.07828E+03-4.68222E+01 5.89466E-11 1.60094E-08
 -1       410 2.86723E+03 1.29556E+05 4.24279E+03 4.25031E+01 3.69710E-10 1.03419E-08
 -1       521-3.86822E+06-4.46307E+05-2.88344E+05-1.50322E+06 2.15732E-09-4.03088E-09
 -1       522-4.00696E+06-6.95568E+05-1.95990E+05-1.46517E+06-1.09867E-09-3.10501E-09
 -1       523-3.93259E+06-5.35321E+05-6.77967E+04-1.47745E+06 1.99179E-10-2.10275E-09
 -1       524-3.92846E+06-5.95702E+05-4.09147E+04-1.50013E+06-2.02681E-09 1.38971E-09
 -1       525-3.94624E+06-5.43990E+05-1.58469E+04-1.46901E+06-1.07775E-10-3.57431E-10
 -1       526-3.91207E+06-5.86226E+05-9.13862E+03-1.51084E+06 7.47892E-10-2.58751E-10
 -1       527-3.94898E+06-5.44414E+05-4.38822E+03-1.46691E+06 2.47837E-09-1.12743E-09
 -1       528-3.91182E+06-5.83113E+05-3.76713E+03-1.50987E+06 1.32525E-09 1.20104E-09
 -1       529-3.94645E+06-5.47087E+05-4.41316E+03-1.46997E+06 1.21213E-09 2.84194E-09
 -1       530-3.92131E+06-5.76506E+05-9.02567E+03-1.49946E+06 6.13227E-10-8.90395E-10
 -1       531-3.93934E+06-5.51163E+05-1.58373E+04-1.47719E+06 2.42949E-10-9.08585E-10
 -1       532-3.94447E+06-5.79153E+05-4.06444E+04-1.48113E+06-4.21790E-09-1.89721E-09
 -1       533-3.92331E+06-5.44802E+05-6.74611E+04-1.48815E+06 2.69210E-10-4.36194E-09
 -1       534-4.02488E+06-6.76720E+05-1.94987E+05-1.44468E+06 2.41926E-09 3.80714E-09
 -1       535-3.85963E+06-4.55626E+05-2.86771E+05-1.51305E+06-5.52245E-09 3.37604E-09
 -1       536-1.25694E+04-1.08488E+04 2.50097E+04 2.18994E+02-5.29880E-10 1.70985E-10
 -1       537-1.13152E+03 1.25541E+04 1.77948E+04-9.38633E+02-3.35825E-09-1.35196E-09
 -1       538-8.30418E+03-1.70042E+03 6.45442E+03 2.19322E+02-8.32614E-11 4.31737E-09
 -1       539-6.15169E+03 1.96368E+03 4.10839E+03-9.53117E+02 8.70301E-10 3.68391E-09
 -1       540-7.55349E+03-2.64771E+02 1.63090E+03 2.33486E+02 4.90317E-10-4.69981E-10
 -1       541-7.06529E+03 3.03153E+02 9.67722E+02-9.78323E+02-2.51404E-10 1.71232E-09
 -1       542-7.39327E+03-3.92576E+01 3.89960E+02 2.44523E+02-4.22190E-10 3.09592E-09
 -1       543-7.27672E+03 3.70937E+01 1.92084E+02-9.95820E+02-4.94198E-10 9.77423E-10
 -1       544-7.34383E+03 2.38396E+00 2.27816E+01 2.50983E+02-4.17668E-10-2.03357E-10
 -1       545-7.35973E+03-5.25456E+01-1.28858E+02-1.00398E+03-5.95861E-10 7.59592E-10
 -1       546-7.31109E+03 5.09245E+01-2.92789E+02 2.52687E+02-2.38387E-12-3.51392E-10
 -1       547-7.51394E+03-3.78371E+02-7.71031E+02-1.00256E+03-1.19897E-09 2.69438E-10
 -1       548-7.18947E+03 3.27864E+02-1.24880E+03 2.49564E+02-1.11848E-09 2.09923E-09
 -1       549-8.41138E+03-2.41818E+03-3.41024E+03-9.90916E+02-6.83345E-10 7.99423E-09
 -1       550-6.41249E+03 2.08831E+03-4.84982E+03 2.41038E+02 6.28404E-11 3.46722E-09
 -1       551 3.02825E+03-2.08631E+05 1.16380E+04-3.58039E+05-1.55942E-08-8.07631E-10
 -1       552 5.94100E+03-2.08004E+05 1.48374E+04-5.09386E+05-1.16743E-08 4.17640E-09
 -1       553 3.65016E+03-2.10720E+05 2.30795E+04-3.56918E+05-1.88302E-08 4.37649E-09
 -1       554 1.69760E+04-2.00082E+05 4.89633E+04-5.09870E+05-1.17343E-08 5.74903E-09
 -1       555 1.79030E+04-2.20154E+05 8.80829E+04-3.57433E+05-1.83827E-08-2.45564E-09
 -1       556 2.85493E+04-6.59761E+04 2.32396E+04-8.89439E+04-7.31961E-09 1.25510E-09
 -1       557 5.54319E+04-8.86879E+04 1.21361E+04-1.11025E+05 1.12777E-10 8.69022E-09
 -1       558 2.90250E+04-6.93971E+04 5.00732E+03-8.59653E+04-5.69707E-09 1.43882E-09
 -1       559 5.24348E+04-9.20744E+04 2.50791E+03-1.12189E+05-1.09139E-10-3.61888E-09
 -1       560 2.86632E+04-6.91379E+04 1.08885E+03-8.61545E+04-1.08048E-09-1.11186E-09
 -1       561 5.17119E+04-9.19838E+04 5.54832E+02-1.12636E+05-5.30054E-09-7.01380E-09
 -1       562 2.83380E+04-6.89044E+04 2.32576E+02-8.63938E+04-2.41562E-09 4.27576E-10
 -1       563 5.13116E+04-9.18150E+04 1.28572E+02-1.12891E+05-1.07229E-09-1.45542E-09
 -1       564 2.81341E+04-6.87683E+04 4.86288E+01-8.65411E+04 1.15870E-09 1.65983E-10
 -1       565 5.11060E+04-9.17290E+04 2.07962E+01-1.13019E+05 2.24827E-09 2.50247E-09
 -1       566 2.80650E+04-6.87195E+04-1.70734E+01-8.65931E+04-1.10185E-09-7.38510E-10
 -1       567 5.10721E+04-9.17118E+04-6.64218E+01-1.13007E+05 3.83011E-09-1.97178E-09
 -1       568 2.81479E+04-6.87759E+04-1.66584E+02-8.65661E+04-6.43922E-10-4.04725E-10
 -1       569 5.08708E+04-9.15975E+04-3.95157E+02-1.12565E+05-2.03909E-09 2.39197E-09
 -1       570 2.86647E+04-6.92963E+04-8.03184E+02-8.66596E+04 8.54925E-10-7.41238E-10
 -1       571 9.42586E+04 3.42100E+03 5.06576E+03-2.36475E+04 3.08091E-10 1.03432E-09
 -1       572 9.50141E+04 1.19028E+03 2.48165E+03-2.59220E+04 2.18051E-10-2.18893E-09
 -1       573 9.45658E+04 2.83936E+02 1.10243E+03-2.35859E+04 1.03228E-10-2.78987E-10
 -1       574 9.46564E+04 9.17070E+01 5.52183E+02-2.59912E+04-6.41194E-10-2.58660E-09
 -1       575 9.46021E+04 1.18908E+01 2.60209E+02-2.35777E+04-9.77707E-12 1.00454E-09
 -1       576 9.46088E+04 2.31203E+00 1.32356E+02-2.60005E+04 1.10931E-09 3.64480E-10
 -1       577 9.46075E+04-2.78875E+00 6.51554E+01-2.35766E+04 3.02748E-10-1.33696E-10
 -1       578 9.46030E+04-1.61159E+00 3.54285E+01-2.60016E+04-8.18090E-10 3.89264E-10
 -1       579 9.46109E+04-2.48521E+00 2.16488E+01-2.35766E+04-9.44510E-10-7.92852E-10
 -1       580 9.46066E+04-2.43908E+00 2.00774E+01-2.60001E+04-7.51015E-10 1.82945E-09
 -1       581 9.46159E+04-3.24531E+00 2.73430E+01-2.35781E+04-3.46972E-10 1.72668E-09
 -1       582 9.46179E+04 2.18656E+00 5.18867E+01-2.59859E+04 3.81988E-10 2.58137E-09
 -1       583 9.46205E+04 1.70310E+01 9.99616E+01-2.35908E+04 6.74390E-10-1.24430E-09
 -1       584 9.46601E+04 9.64225E+01 2.23764E+02-2.58803E+04-5.73891E-10-3.31153E-09
 -1       585 9.46022E+04 2.95295E+02 4.55102E+02-2.36838E+04-8.59472E-11-3.72893E-10
 -1       586-1.18145E+03 3.06664E+04-1.54913E+03-8.07610E+04 2.26919E-10 2.43710E-09
 -1       587-2.70392E+02 3.04619E+04-1.86336E+02-8.88715E+04 4.09273E-10-1.31175E-09
 -1       588 3.06555E+02 3.05001E+04 1.07112E+03-8.07121E+04 2.57842E-10-1.55683E-09
 -1       589 1.59124E+03 3.10820E+04 3.13747E+03-8.87974E+04 3.73802E-10-3.54157E-09
 -1       590 4.60298E+03 3.00963E+04 6.72723E+03-8.08353E+04 1.76215E-10 1.27920E-09
 -1       591-2.04406E+04-5.86765E+03-6.83354E+03-1.06154E+04 7.30438E-11-6.74845E-10
 -1       592-2.10812E+04-7.54543E+03-3.70133E+03-1.23969E+04-4.80213E-10-1.14505E-09
 -1       593-2.11312E+04-5.36429E+03-1.54088E+03-1.11086E+04-1.46372E-10 9.32232E-12
 -1       594-2.01285E+04-6.55231E+03-7.68536E+02-1.24439E+04 7.08269E-10-4.72852E-10
 -1       595-2.11839E+04-5.36216E+03-3.53192E+02-1.11311E+04-9.84983E-10-1.93177E-09
 -1       596-2.00639E+04-6.50687E+03-1.80055E+02-1.24370E+04 4.64183E-10 2.57111E-09
 -1       597-2.11906E+04-5.36658E+03-9.91214E+01-1.11320E+04-1.94930E-10-7.89413E-10
 -1       598-2.00578E+04-6.50512E+03-8.16538E+01-1.24352E+04-1.98440E-10 3.71662E-09
 -1       599-2.11902E+04-5.36651E+03-1.06729E+02-1.11319E+04-3.19119E-10-2.01567E-10
 -1       600-2.00649E+04-6.50738E+03-2.00258E+02-1.24371E+04 1.38309E-09-2.23736E-10
 -1       601-2.11821E+04-5.36154E+03-3.96021E+02-1.11307E+04-8.00355E-11-5.78325E-10
 -1       602-2.01378E+04-6.55829E+03-8.63748E+02-1.24443E+04-1.87356E-10-1.02659E-10
 -1       603-2.11224E+04-5.36459E+03-1.73235E+03-1.11056E+04 2.00316E-10 2.28329E-09
 -1       604-2.12127E+04-7.67093E+03-4.16163E+03-1.23865E+04 8.38440E-11 2.92368E-09
 -1       605-2.03415E+04-5.93382E+03-7.68318E+03-1.05550E+04 4.95845E-10 7.59883E-10
 -1       606 1.34553E+04-4.53359E+03-8.16870E+03 1.31779E+04-1.57615E-09-1.22191E-09
 -1       607 1.20566E+04-1.46225E+03-4.06780E+03 1.47930E+04-6.12545E-10-3.13480E-09
 -1       608 1.28559E+04-2.45599E+02-1.82102E+03 1.30727E+04 1.58798E-09-7.26118E-10
 -1       609 1.26999E+04-6.61306E+01-9.19990E+02 1.49094E+04-4.81577E-10 5.55951E-09
 -1       610 1.27884E+04 9.57050E+00-4.39020E+02 1.30610E+04-2.50657E-09 4.37535E-09
 -1       611 1.27609E+04 1.25221E+01-2.21586E+02 1.49221E+04-4.06089E-09-7.71024E-10
 -1       612 1.27738E+04 1.37472E+01-1.05766E+02 1.30598E+04-2.43244E-09-5.95264E-10
 -1       613 1.27649E+04 1.36756E+01-4.83317E+01 1.49237E+04-3.20324E-09 4.18368E-10
 -1       614 1.27670E+04 1.16360E+01-1.33816E+01 1.30594E+04-1.39607E-10 3.04374E-09
 -1       615 1.27633E+04 1.40456E+01 1.49618E+01 1.49240E+04 3.80169E-09-2.39322E-09
 -1       616 1.27619E+04 1.24938E+01 4.98163E+01 1.30595E+04-1.36674E-09 5.77870E-10
 -1       617 1.27691E+04 2.49710E+01 1.15406E+02 1.49238E+04-1.58252E-10 6.65295E-10
 -1       618 1.27516E+04 4.59988E+01 2.33369E+02 1.30596E+04-7.75344E-11-1.73645E-09
 -1       619 1.28514E+04 2.05695E+02 5.24480E+02 1.49235E+04 7.02244E-10-3.70130E-09
 -1       620 1.26738E+04 6.00017E+02 1.05437E+03 1.30594E+04 7.06564E-10-1.85878E-09
 -1       621 1.63843E+02 1.02525E+05 1.41264E+03 3.28063E+03-1.25691E-10 1.39028E-09
 -1       622 1.87356E+02 1.02875E+05 1.19975E+03 4.78638E+03-1.64334E-10-1.25766E-09
 -1       623 8.38722E+00 1.02626E+05 1.38083E+03 3.26507E+03-1.27955E-10 4.03054E-09
 -1       624 6.25765E+02 1.03278E+05 2.62311E+03 4.80175E+03-1.01807E-10 4.16196E-09
 -1       625 6.27943E+02 1.02121E+05 4.56061E+03 3.26536E+03-6.68479E-11 5.86908E-10
 -1       626 8.46928E+04 2.34878E+04 1.69592E+03 4.58107E+04-1.01727E-09 1.95632E-09
 -1       627 8.35321E+04 2.43411E+04 8.16825E+02 4.76684E+04 2.37264E-09 6.37158E-09
 -1       628 8.47612E+04 2.26838E+04 3.45325E+02 4.60685E+04 9.94078E-10-3.07216E-09
 -1       629 8.32919E+04 2.41468E+04 1.69066E+02 4.77832E+04 2.71962E-09 1.49484E-09
 -1       630 8.47689E+04 2.26437E+04 7.83404E+01 4.60775E+04 2.59206E-10 5.90433E-10
 -1       631 8.32656E+04 2.41412E+04 4.20083E+01 4.77869E+04-1.55023E-09-6.47141E-10
 -1       632 8.47674E+04 2.26453E+04 2.77846E+01 4.60754E+04-1.24919E-09-1.15989E-09
 -1       633 8.32616E+04 2.41428E+04 3.09128E+01 4.77853E+04 3.31522E-09 3.32807E-09
 -1       634 8.47643E+04 2.26448E+04 5.00822E+01 4.60742E+04 3.87945E-09 3.15140E-10
 -1       635 8.32648E+04 2.41432E+04 1.01533E+02 4.77859E+04 7.81199E-10-1.07377E-09
 -1       636 8.47593E+04 2.26441E+04 2.05158E+02 4.60730E+04 8.47677E-09-1.90357E-09
 -1       637 8.33065E+04 2.41759E+04 4.50949E+02 4.77838E+04 2.54407E-08 1.56554E-08
 -1       638 8.47410E+04 2.27451E+04 9.26938E+02 4.60262E+04 1.18097E-08 6.54927E-09
 -1       639 8.37900E+04 2.48545E+04 2.19293E+03 4.76389E+04-1.56587E-09-1.76306E-09
 -1       640 8.46741E+04 2.47648E+04 4.55116E+03 4.51687E+04-5.67184E-10-1.37311E-09
 -1       656 2.29545E+04-5.81091E+05-5.54288E+04-5.00184E+02 2.40107E-10-3.72283E-09
 -1       657-3.03298E+04-6.06134E+05-4.58397E+04 3.80587E+03 5.29326E-10-1.96493E-10
 -1       658 7.27705E+03-5.88240E+05-2.81327E+04-7.82788E+02 9.40133E-10 3.68736E-11
 -1       659-3.25162E+04-6.07161E+05-4.87109E+04 3.99142E+03-1.16415E-10-6.11946E-09
 -1       660 2.51346E+04-5.80066E+05-6.03745E+04-6.85728E+02-3.27418E-11-2.55631E-09
 -1       661 8.25418E+04 8.95373E+03 7.91210E+03 3.22098E+04 1.98656E-09 1.81808E-09
 -1       662 8.66324E+04 1.51895E+04 5.33140E+03 3.08675E+04 3.96426E-10-4.06362E-09
 -1       663 8.40885E+04 1.14989E+04 1.86497E+03 3.17668E+04-7.44649E-11-1.60890E-09
 -1       664 8.48453E+04 1.22074E+04 1.11491E+03 3.14032E+04 1.38883E-10 3.49367E-09
 -1       665 8.43173E+04 1.18522E+04 4.39852E+02 3.17056E+04-2.27374E-09 1.01539E-09
 -1       666 8.45793E+04 1.17986E+04 2.56402E+02 3.14793E+04-3.48888E-09-4.52499E-09
 -1       667 8.43529E+04 1.18972E+04 1.35235E+02 3.16947E+04-1.96459E-09-9.95666E-10
 -1       668 8.45438E+04 1.17596E+04 1.35353E+02 3.14932E+04 2.71855E-09-1.79906E-10
 -1       669 8.43526E+04 1.18901E+04 1.81425E+02 3.16920E+04 3.43192E-10 9.89871E-10
 -1       670 8.45948E+04 1.18502E+04 3.93154E+02 3.14869E+04 3.33583E-09-3.56164E-09
 -1       671 8.43022E+04 1.18084E+04 6.97580E+02 3.17004E+04 1.26120E-09 1.25692E-09
 -1       672 8.50065E+04 1.25237E+04 1.78424E+03 3.13829E+04-2.35177E-09 6.97707E-09
 -1       673 8.39432E+04 1.12337E+04 2.98999E+03 3.17895E+04-2.88333E-09-1.98349E-09
 -1       674 8.78580E+04 1.73226E+04 8.55111E+03 3.05409E+04-3.18025E-09-4.31430E-09
 -1       675 8.14693E+04 7.14374E+03 1.26920E+04 3.24919E+04 9.65656E-10 2.32285E-09
 -1       676 9.35191E+00-1.11598E+05-4.34489E+02 1.10225E+01 2.10790E-10-3.75573E-09
 -1       677-1.15334E+02-1.11703E+05-7.95125E+02-2.20440E+01-2.01405E-09-1.88012E-09
 -1       678 7.69964E+01-1.11523E+05-1.40555E+03 1.10138E+01 5.57066E-11 4.25326E-09
 -1       679-1.40568E+03-1.12551E+05-3.33870E+03-2.20017E+01-2.46547E-09-1.33133E-09
 -1       680 8.38813E+02-1.10750E+05-5.38093E+03 1.08535E+01 1.32695E-09-2.01115E-09
 -1       771-1.20078E+06-2.08676E+05-2.91845E+04-4.97314E+05-4.01997E-09-3.91447E-09
 -1       772-1.19297E+06-2.25367E+05-1.57091E+04-5.15902E+05-1.37516E-09 5.61704E-09
 -1       773-1.20453E+06-2.05778E+05-6.69179E+03-4.98946E+05-1.74623E-09 2.10093E-09
 -1       774-1.18867E+06-2.21784E+05-3.28223E+03-5.17273E+05 3.41788E-09-5.12955E-10
 -1       775-1.20519E+06-2.05403E+05-1.60088E+03-4.99040E+05-1.69894E-09 4.67480E-10
 -1       776-1.18851E+06-2.21726E+05-7.53597E+02-5.17847E+05-4.91127E-09-3.72484E-09
 -1       777-1.20559E+06-2.05137E+05-4.30008E+02-4.99074E+05 5.23869E-10 8.74934E-10
 -1       778-1.18859E+06-2.21794E+05-2.01772E+02-5.18315E+05 1.23691E-09 1.72804E-09
 -1       779-1.20589E+06-2.04908E+05-1.78912E+02-4.99101E+05-1.54250E-09-1.39062E-09
 -1       780-1.18869E+06-2.21860E+05-1.55007E+02-5.18694E+05-4.64752E-10-5.43423E-11
 -1       781-1.20611E+06-2.04723E+05-2.70375E+02-4.99119E+05-3.75803E-09-6.01176E-10
 -1       782-1.18881E+06-2.21936E+05-5.13360E+02-5.18974E+05-4.60841E-09-1.40176E-09
 -1       783-1.20622E+06-2.04605E+05-1.02461E+03-4.99119E+05-1.16870E-09-2.13237E-09
 -1       784-1.18947E+06-2.22623E+05-2.43585E+03-5.19117E+05-2.84854E-09-3.22871E-10
 -1       785-1.20585E+06-2.04867E+05-4.50158E+03-4.98795E+05-5.08498E-09 5.21595E-10
 -1       786 8.68392E+04-4.65435E+03 1.07671E+04 1.60263E+00 6.24645E-08 1.16597E-09
 -1       787 9.15049E+04 5.38824E+03 7.61771E+03-8.43664E+00 1.23788E-07 3.66981E-10
 -1       788 8.86393E+04-7.29616E+02 2.78676E+03 2.18398E+00 1.85186E-07 1.83695E-09
 -1       789 8.94080E+04 8.44206E+02 1.75095E+03-1.01269E+01 2.46288E-07 4.71064E-09
 -1       790 8.89364E+04-1.13976E+02 7.12418E+02 3.29288E+00 3.35340E-07-4.45198E-10
 -1       791 8.90613E+04 1.32420E+02 4.18253E+02-1.30349E+01 4.24628E-07 2.34967E-09
 -1       792 8.89861E+04-1.83639E+01 1.90829E+02 5.09206E+00 5.82195E-07-4.37355E-09
 -1       793 8.90053E+04 2.57640E+01 1.24936E+02-1.75872E+01 7.40552E-07 3.35436E-09
 -1       794 8.89925E+04-7.38968E+00 9.23774E+01 7.84526E+00 1.04898E-06-4.24039E-09
 -1       795 8.90107E+04 3.80645E+01 1.33379E+02-2.44414E+01 1.35564E-06 7.29138E-09
 -1       796 8.89807E+04-3.06559E+01 1.99653E+02 1.19464E+01 6.77922E-07-5.92403E-09
 -1       797 8.91011E+04 2.24700E+02 4.70625E+02-3.45787E+01 2.06293E-09 3.87777E-09
 -1       798 8.89020E+04-1.93888E+02 7.42868E+02 1.79827E+01 2.42665E-10 2.37409E-09
 -1       799 8.96581E+04 1.43155E+03 2.02510E+03-4.95481E+01 1.47067E-10 2.07982E-09
 -1       800 8.84236E+04-1.23653E+03 2.86076E+03 2.69159E+01 3.81606E-10 1.77761E-09
 -1       801-3.72924E+03-1.40737E+04 6.14666E+03 9.30959E+03 5.14729E-09-4.72960E-09
 -1       802 1.17035E+04 1.64285E+04 2.29671E+04-3.80144E+04 1.38371E-08-2.29088E-09
 -1       803-7.72297E+03-4.18769E+03 3.15662E+04 9.23225E+03 1.09030E-08 8.42709E-09
 -1       804 6.17828E+04 4.23420E+04 8.85045E+04-3.82827E+04 1.28703E-08 1.23232E-08
 -1       805-5.38139E+04-3.98948E+04 1.17315E+05 9.57735E+03 4.58385E-09 1.10393E-08
 -1       806-1.02799E+05-2.19713E+04-8.71185E+03-4.27537E+04-3.03999E-09-6.34509E-09
 -1       807-1.03316E+05-2.07188E+04-4.27991E+03-4.50582E+04 7.64970E-10 2.18529E-09
 -1       808-1.03046E+05-1.88241E+04-1.81560E+03-4.42320E+04 1.96337E-10 4.84413E-10
 -1       809-1.02404E+05-1.95301E+04-8.87623E+02-4.51814E+04-2.13049E-10 4.90508E-09
 -1       810-1.03085E+05-1.87129E+04-4.06422E+02-4.42975E+04 1.28125E-10 2.09877E-09
 -1       811-1.02334E+05-1.94829E+04-2.01577E+02-4.51714E+04 2.94773E-09 5.63125E-09
 -1       812-1.03092E+05-1.87207E+04-1.00551E+02-4.42976E+04-1.19144E-10 3.08773E-10
 -1       813-1.02326E+05-1.94840E+04-6.34683E+01-4.51667E+04-1.07661E-10-2.24168E-09
 -1       814-1.03092E+05-1.87233E+04-5.94568E+01-4.42966E+04-5.52291E-10-2.84376E-09
 -1       815-1.02328E+05-1.94848E+04-9.32192E+01-4.51660E+04 1.73713E-10 1.34219E-09
 -1       816-1.03087E+05-1.87220E+04-1.74578E+02-4.42958E+04-1.03273E-09 1.05047E-09
 -1       817-1.02358E+05-1.95013E+04-3.74592E+02-4.51639E+04 1.43950E-09-6.32554E-10
 -1       818-1.03066E+05-1.87738E+04-7.63276E+02-4.42715E+04 5.18412E-11-4.00405E-10
 -1       819-1.02781E+05-1.99594E+04-1.79686E+03-4.50631E+04-3.72893E-10-1.21952E-09
 -1       820-1.02922E+05-2.01320E+04-3.65667E+03-4.36930E+04-1.36424E-12 5.77359E-10
 -1       821-1.32697E+05 7.36643E+03-1.70385E+04-2.61652E-01-3.73765E-10 1.81353E-09
 -1       822-1.40080E+05-8.52788E+03-1.20565E+04-9.40464E+01-1.39912E-09 3.20597E-11
 -1       823-1.35546E+05 1.15479E+03-4.41304E+03-2.41858E+01 9.66119E-10 7.96945E-10
 -1       824-1.36761E+05-1.33662E+03-2.77727E+03-4.28219E+01-7.91164E-10 2.86525E-09
 -1       825-1.36016E+05 1.80830E+02-1.14080E+03-5.14879E+01-1.66893E-09 3.02930E-09
 -1       826-1.36215E+05-2.13273E+02-6.90228E+02 9.35431E+00-2.57616E-09-1.96906E-09
 -1       827-1.36092E+05 3.22677E+01-3.55950E+02-7.63631E+01-3.22040E-09 1.49198E-09
 -1       828-1.36139E+05-6.52152E+01-3.16210E+02 5.15086E+01 2.85077E-08 6.11933E-09
 -1       829-1.36092E+05 3.28866E+01-3.61381E+02-9.36429E+01 9.38799E-06-3.94731E-09
 -1       830-1.36219E+05-2.18539E+02-7.06456E+02 7.48895E+01 1.86858E-05-8.26176E-09
 -1       831-1.36013E+05 1.85499E+02-1.16934E+03-9.97445E+01-1.29123E-06-4.45317E-09
 -1       832-1.36780E+05-1.37129E+03-2.84933E+03 7.48130E+01-2.12605E-05 1.05415E-08
 -1       833-1.35531E+05 1.18479E+03-4.52741E+03-9.35661E+01-1.06787E-05 1.30476E-08
 -1       834-1.40184E+05-8.74950E+03-1.23700E+04 5.21426E+01-3.46702E-08 1.13096E-09
 -1       835-1.32609E+05 7.55789E+03-1.74815E+04-7.70716E+01 2.56225E-09-1.28603E-09
 -1       836-4.42789E+02 1.25815E+05 7.57488E+03-1.09853E+04 8.77208E-10-1.35856E-09
 -1       837 1.66144E+03 1.28163E+05 6.46435E+03-2.20841E+04 1.34344E-09 2.11639E-09
 -1       838-1.66010E+02 1.26471E+05 6.66388E+03-1.09464E+04 1.22213E-09 1.86765E-09
 -1       839 4.26966E+03 1.30114E+05 1.26827E+04-2.20989E+04 1.58252E-09 1.59646E-09
 -1       840-1.28936E+03 1.23855E+05 2.02554E+04-1.09700E+04 1.11140E-09 3.59546E-09
 -1       856-4.16705E+04 3.56021E+03-9.38086E+03-1.96416E+02-2.46882E-09 1.06411E-10
 -1       857-4.55466E+04-4.17655E+03-6.45892E+03 2.15916E+03-1.19411E-09-3.44721E-09
 -1       858-4.32019E+04 4.99075E+02-2.43455E+03-2.02202E+02-1.21423E-09-1.41858E-09
 -1       859-4.37869E+04-5.81645E+02-1.47062E+03 2.16813E+03 8.29061E-10-5.73579E-10
 -1       860-4.34311E+04 6.95758E+01-6.18335E+02-2.05424E+02 3.48066E-10-3.65389E-09
 -1       861-4.35224E+04-7.85286E+01-3.44565E+02 2.17246E+03-2.55298E-09-3.83685E-09
 -1       862-4.34668E+04 9.37836E+00-1.51990E+02-2.06541E+02 2.87301E-09-9.16508E-10
 -1       863-4.34802E+04-7.60099E+00-7.52478E+01 2.17297E+03 4.53683E-09-4.10596E-09
 -1       864-4.34733E+04 1.68636E-01-2.37726E+01-2.05930E+02 2.03718E-09-3.22089E-11
 -1       865-4.34685E+04 8.71503E+00 1.35864E+01 2.16976E+03 3.21601E-09 1.73424E-09
 -1       866-4.34781E+04-6.93007E+00 5.06216E+01-2.03335E+02-5.49306E-10-3.13659E-09
 -1       867-4.34400E+04 5.87804E+01 1.38869E+02 2.16276E+03-4.52474E-11-6.28354E-10
 -1       868-4.35011E+04-4.91635E+01 2.34948E+02-1.98930E+02 5.74374E-10-1.24786E-10
 -1       869-4.32656E+04 4.09467E+02 6.29826E+02 2.15046E+03-2.40718E-10-5.70998E-09
 -1       870-4.36513E+04-3.48322E+02 9.14520E+02-1.91036E+02 1.42504E-09-2.05631E-09
 -1       871-1.92360E+03-4.02745E+03-6.30489E+03 4.13561E+04 1.05274E-09 1.23964E-09
 -1       872-8.29812E+02-5.43444E+03-2.56787E+03 5.36140E+04 2.27033E-09 1.66995E-09
 -1       873-9.60323E+00-4.76530E+03 3.76218E+02 4.12639E+04 1.01284E-09-8.74820E-10
 -1       874 9.85756E+02-3.84802E+03 3.59883E+03 5.36336E+04 2.15152E-09 3.05931E-09
 -1       875 2.32267E+03-5.62670E+03 7.97726E+03 4.13388E+04 9.64974E-10-1.64732E-09
 -1       876 1.03580E+05 1.78315E+04 5.55317E+03 4.20009E+04-1.88535E-09 8.91305E-11
 -1       877 1.03897E+05 1.90509E+04 2.96541E+03 4.36453E+04-4.09045E-10 3.86143E-09
 -1       878 1.04100E+05 1.72159E+04 1.24245E+03 4.24566E+04 1.46690E-09-1.03080E-09
 -1       879 1.03141E+05 1.82990E+04 6.18845E+02 4.36862E+04 1.48952E-09 1.70189E-10
 -1       880 1.04139E+05 1.72083E+04 2.88149E+02 4.24752E+04 1.66256E-09-1.07980E-09
 -1       881 1.03091E+05 1.82673E+04 1.53402E+02 4.36795E+04 3.85012E-09 2.82124E-09
 -1       882 1.04144E+05 1.72124E+04 9.74155E+01 4.24757E+04 2.55142E-09 4.62875E-09
 -1       883 1.03088E+05 1.82659E+04 1.03505E+02 4.36778E+04 3.12184E-10 4.05490E-09
 -1       884 1.04142E+05 1.72110E+04 1.63591E+02 4.24758E+04 1.50010E-10-1.87981E-10
 -1       885 1.03101E+05 1.82683E+04 3.28252E+02 4.36821E+04 2.62210E-09-2.28738E-10
 -1       886 1.04129E+05 1.72015E+04 6.61311E+02 4.24745E+04 2.84953E-09-6.98719E-10
 -1       887 1.03217E+05 1.83444E+04 1.44450E+03 4.36986E+04-1.96093E-09-3.69948E-09
 -1       888 1.04037E+05 1.72179E+04 2.91078E+03 4.24283E+04-4.96144E-10 9.34051E-10
 -1       889 1.04952E+05 2.01452E+04 6.95398E+03 4.36428E+04 8.55842E-10 1.75623E-09
 -1       890 1.02850E+05 1.86275E+04 1.30239E+04 4.13190E+04 1.12504E-09 1.38243E-09
 -1       891-6.06790E+01-5.89150E+04-6.92842E+02 1.12013E+04 1.07985E-09-1.79341E-10
 -1       892-1.05959E+02-5.90842E+04-7.55031E+02 1.69560E+04-8.47990E-10-1.02142E-09
 -1       893-1.26931E+01-5.89391E+04-1.07972E+03 1.12032E+04 5.14206E-10-5.75255E-11
 -1       894-5.81542E+02-5.95055E+04-2.24334E+03 1.68964E+04-1.63641E-09 1.96121E-09
 -1       895-4.52036E+02-5.84777E+04-3.95231E+03 1.12605E+04-1.10265E-09 5.36602E-11
 -1       956-1.30080E+05-1.87605E+03-4.72208E+03 8.59944E+03 3.36581E-09 2.70006E-10
 -1       957-1.31012E+05-6.34405E+02-2.42434E+03 1.03495E+04 9.47125E-09-9.97034E-10
 -1       958-1.30496E+05-5.19125E+01-1.09204E+03 8.54394E+03 5.88398E-09-8.40373E-10
 -1       959-1.30569E+05-1.19564E+01-5.57902E+02 1.04095E+04-5.97993E-10-2.35445E-10
 -1       960-1.30532E+05 1.27152E+01-2.71839E+02 8.53894E+03-1.03182E-09 4.52701E-10
 -1       961-1.30535E+05 1.02023E+01-1.44195E+02 1.04150E+04-2.80306E-09-2.68892E-09
 -1       962-1.30537E+05 9.77051E+00-8.22987E+01 8.53836E+03-9.57698E-10-3.76303E-11
 -1       963-1.30532E+05 9.99510E+00-6.57256E+01 1.04158E+04-2.23253E-09 2.40505E-09
 -1       964-1.30538E+05 1.01933E+01-7.92743E+01 8.53816E+03-6.33861E-10 4.92776E-10
 -1       965-1.30537E+05 1.11943E+01-1.36560E+02 1.04158E+04 2.61978E-09-1.10111E-09
 -1       966-1.30534E+05 1.39350E+01-2.56023E+02 8.53841E+03-1.02420E-09-9.21375E-10
 -1       967-1.30571E+05-8.61513E+00-5.24941E+02 1.04127E+04-5.01757E-10 2.99246E-09
 -1       968-1.30503E+05-4.58780E+01-1.02708E+03 8.54129E+03 6.08111E-10 6.92083E-10
 -1       969-1.30989E+05-5.93195E+02-2.28037E+03 1.03776E+04 2.41585E-10-1.44155E-10
 -1       970-1.30113E+05-1.76106E+03-4.44141E+03 8.57423E+03-2.48065E-10-1.22054E-09
 -1       971-1.23638E+05-6.54533E+02-3.63917E+03 6.10324E+03-2.40811E-09-2.42535E-09
 -1       972-1.24522E+05-4.71668E+02-1.98223E+03 8.51114E+03-1.41358E-09-1.84627E-09
 -1       973-1.24040E+05-5.84704E+00-8.87216E+02 6.05384E+03-1.05888E-09-3.21393E-10
 -1       974-1.24100E+05-8.47810E+00-4.59779E+02 8.56398E+03-6.66660E-10-1.50862E-09
 -1       975-1.24069E+05 9.53793E+00-2.29082E+02 6.05006E+03 7.29869E-10 9.22967E-10
 -1       976-1.24072E+05 9.09864E+00-1.31254E+02 8.56826E+03-1.54273E-09-1.42006E-09
 -1       977-1.24073E+05 8.34626E+00-9.33622E+01 6.04953E+03 1.07366E-09-3.25088E-10
 -1       978-1.24072E+05 1.03534E+01-1.06817E+02 8.56899E+03 6.90750E-09-2.68204E-09
 -1       979-1.24073E+05 1.07154E+01-1.69395E+02 6.04933E+03 1.63692E-09 2.21462E-10
 -1       980-1.24084E+05 1.11672E+01-3.25686E+02 8.56903E+03 2.49487E-09-2.91180E-09
 -1       981-1.24062E+05 1.88960E+01-6.29945E+02 6.04949E+03 6.85191E-10-5.89722E-10
 -1       982-1.24171E+05-3.49161E+01-1.30161E+03 8.56684E+03-2.23679E-10-4.62037E-09
 -1       983-1.23984E+05-2.07183E+01-2.52861E+03 6.05158E+03 6.04132E-10-6.13909E-12
 -1       984-1.25389E+05-1.35424E+03-5.66227E+03 8.53331E+03-1.19917E-09-7.63976E-11
 -1       985-1.22841E+05-1.87021E+03-1.03977E+04 6.08439E+03 1.35833E-09-8.36280E-10
 -3
    1PSTEP                         5           3           1          
  100CL  103 4.37500E-01         409                     0    3           1
 -4  DISP        4    1
 -5  D1          1    2    1    0
 -5  D2          1    2    2    0
 -5  D3          1    2    3    0
 -5  ALL         1    2    0    0    1ALL
 -1         1 1.15980E-04 0.00000E+00 0.00000E+00
 -1         2 1.07420E-04 1.86338E-30 0.00000E+00
 -1         3 9.96950E-05-3.95318E-27 6.61744E-24
 -1         5 7.11929E-05 7.78911E-27 0.00000E+00
 -1         8 9.29127E-05-8.36398E-07 0.00000E+00
 -1         9 9.42586E-05 4.91353E-07 0.00000E+00
 -1        10 9.23061E-05-1.35986E-06 0.00000E+00
 -1        12 7.07152E-05 4.77585E-07 0.00000E+00
 -1        15 6.54113E-05-9.19661E-07 2.06795E-25
 -1        16 6.64983E-05 3.51585E-07 0.00000E+00
 -1        17 6.86469E-05-2.86728E-06 0.00000E+00
 -1        18 6.83588E-05 4.39716E-07 0.00000E+00
 -1        19 6.92823E-05 9.52527E-07 0.00000E+00
 -1        20 6.94059E-05 1.39031E-05 0.00000E+00
 -1        21 6.89385E-05 2.62449E-05 0.00000E+00
 -1        24 1.73158E-05-3.89030E-06 0.00000E+00
 -1        25 6.68640E-05 5.49642E-07 0.00000E+00
 -1        26 6.77352E-05 1.32695E-06 0.00000E+00
 -1        27 6.64135E-05 1.17808E-05 0.00000E+00
 -1        28 6.59878E-05 2.58372E-05 0.00000E+00
 -1        32 0.00000E+00 0.00000E+00 0.00000E+00
 -1        33 6.50502E-05 1.77903E-06 0.00000E+00
 -1        34 6.37740E-05 1.17616E-05 0.00000E+00
 -1        35 6.25607E-05 2.56220E-05 0.00000E+00
 -1        51 1.14482E-04-1.37517E-07 0.00000E+00
 -1        52 1.11703E-04-2.71447E-07 0.00000E+00
 -1        53 1.07896E-04-4.06706E-07 0.00000E+00
 -1        54 1.03320E-04-5.44631E-07 0.00000E+00
 -1        55 9.82382E-05-6.85934E-07-7.23783E-25
 -1        56 1.14941E-04-6.99476E-07 2.64698E-23
 -1        57 1.14049E-04-1.90869E-06 0.00000E+00
 -1        58 1.13297E-04-3.48709E-06-2.64698E-23
 -1        59 1.12626E-04-5.30241E-06-1.32349E-23
 -1        60 1.11987E-04-7.20339E-06 0.00000E+00
 -1        61 1.11322E-04-9.03924E-06 1.32349E-23
 -1        62 1.10578E-04-1.06622E-05 2.64698E-23
 -1        63 1.09701E-04-1.19310E-05-1.32349E-23
 -1        64 1.08645E-04-1.27241E-05 2.64698E-23
 -1        65 1.07371E-04-1.29331E-05 1.32349E-23
 -1        66 1.05849E-04-1.24825E-05 2.64698E-23
 -1        67 1.04059E-04-1.13149E-05 0.00000E+00
 -1        68 1.01992E-04-9.41387E-06-2.64698E-23
 -1        69 9.96558E-05-6.78056E-06 1.32349E-23
 -1        70 9.70575E-05-3.46237E-06-2.64698E-23
 -1        86 1.07078E-04 8.95295E-08 0.00000E+00
 -1        87 1.06053E-04 1.78103E-07 0.00000E+00
 -1        88 1.04309E-04 2.65643E-07 0.00000E+00
 -1        89 1.01811E-04 3.48462E-07 0.00000E+00
 -1        90 9.84859E-05 4.30034E-07 3.30872E-24
 -1       121 9.94889E-05-2.25609E-07 0.00000E+00
 -1       122 9.88707E-05-4.51385E-07 3.30872E-24
 -1       123 9.78415E-05-6.77496E-07-6.61744E-24
 -1       124 9.64027E-05-9.04143E-07 0.00000E+00
 -1       125 9.45565E-05-1.13142E-06 0.00000E+00
 -1       191 7.11796E-05 7.96042E-08 0.00000E+00
 -1       192 7.11398E-05 1.59207E-07 0.00000E+00
 -1       193 7.10735E-05 2.38808E-07 0.00000E+00
 -1       194 7.09806E-05 3.18407E-07 1.65436E-24
 -1       195 7.08612E-05 3.98000E-07 0.00000E+00
 -1       251 9.29760E-05 2.94491E-06 0.00000E+00
 -1       252 9.30602E-05 5.14986E-06 2.06795E-25
 -1       253 9.31454E-05 6.05797E-06 0.00000E+00
 -1       254 9.32341E-05 5.94370E-06 8.27181E-25
 -1       255 9.33225E-05 5.03345E-06 0.00000E+00
 -1       256 9.34109E-05 3.55061E-06 0.00000E+00
 -1       257 9.34987E-05 1.69150E-06 3.30872E-24
 -1       258 9.35864E-05-3.49005E-07-1.65436E-24
 -1       259 9.36740E-05-2.38466E-06 0.00000E+00
 -1       260 9.37619E-05-4.22917E-06 0.00000E+00
 -1       261 9.38503E-05-5.68715E-06 1.65436E-24
 -1       262 9.39387E-05-6.56183E-06 0.00000E+00
 -1       263 9.40273E-05-6.62877E-06 0.00000E+00
 -1       264 9.41123E-05-5.66049E-06-2.06795E-25
 -1       265 9.41963E-05-3.38085E-06 0.00000E+00
 -1       266 8.83292E-05-8.61642E-07-6.61744E-24
 -1       267 8.37456E-05-8.74134E-07 1.65436E-24
 -1       268 7.91620E-05-8.87433E-07 0.00000E+00
 -1       269 7.45785E-05-8.98340E-07 0.00000E+00
 -1       270 6.99949E-05-9.09191E-07 4.13590E-25
 -1       271 9.00586E-05 2.57018E-06 0.00000E+00
 -1       272 8.76217E-05 4.73384E-06 0.00000E+00
 -1       273 8.56032E-05 5.79460E-06 0.00000E+00
 -1       274 8.39384E-05 5.89277E-06 0.00000E+00
 -1       275 8.25716E-05 5.19527E-06 5.29396E-23
 -1       276 8.14342E-05 3.88163E-06 2.64698E-23
 -1       277 8.04545E-05 2.14546E-06 0.00000E+00
 -1       278 7.95572E-05 1.88165E-07 0.00000E+00
 -1       279 7.86654E-05-1.78396E-06 0.00000E+00
 -1       280 7.77021E-05-3.56431E-06-2.64698E-23
 -1       281 7.65916E-05-4.95060E-06 0.00000E+00
 -1       282 7.52616E-05-5.74799E-06 0.00000E+00
 -1       283 7.36429E-05-5.77475E-06 0.00000E+00
 -1       284 7.16767E-05-4.86224E-06 0.00000E+00
 -1       285 6.93002E-05-2.86602E-06 2.64698E-23
 -1       301 8.95470E-05 4.62375E-07 6.61744E-24
 -1       302 8.48409E-05 4.47176E-07 1.65436E-24
 -1       303 8.01615E-05 4.32441E-07 3.30872E-24
 -1       304 7.55304E-05 4.16284E-07 3.30872E-24
 -1       305 7.09690E-05 3.98113E-07 0.00000E+00
 -1       306 9.12957E-05 4.03449E-06 0.00000E+00
 -1       307 8.87606E-05 6.30575E-06-1.32349E-23
 -1       308 8.67340E-05 7.23848E-06-5.29396E-23
 -1       309 8.52125E-05 6.80196E-06-2.64698E-23
 -1       310 8.41419E-05 5.16110E-06 5.29396E-23
 -1       311 8.34391E-05 2.53034E-06 0.00000E+00
 -1       312 8.29736E-05-7.37856E-07 5.29396E-23
 -1       313 8.26035E-05-4.26360E-06 2.64698E-23
 -1       314 8.21744E-05-7.63073E-06-5.29396E-23
 -1       315 8.15344E-05-1.04301E-05 0.00000E+00
 -1       316 8.05597E-05-1.23320E-05 0.00000E+00
 -1       317 7.91423E-05-1.30456E-05 0.00000E+00
 -1       318 7.72317E-05-1.24455E-05 5.29396E-23
 -1       319 7.48094E-05-1.04596E-05-1.32349E-23
 -1       320 7.19069E-05-7.21482E-06-2.64698E-23
 -1       336 8.96012E-05-1.60721E-06 0.00000E+00
 -1       337 8.63921E-05-1.85633E-06-3.30872E-24
 -1       338 8.26844E-05-2.10703E-06 0.00000E+00
 -1       339 7.84854E-05-2.35923E-06 0.00000E+00
 -1       340 7.38032E-05-2.61354E-06 0.00000E+00
 -1       406 7.05427E-05 5.57156E-07 0.00000E+00
 -1       407 7.03436E-05 6.36697E-07 0.00000E+00
 -1       408 7.01180E-05 7.16184E-07 0.00000E+00
 -1       409 6.98658E-05 7.95517E-07 0.00000E+00
 -1       410 6.95872E-05 8.74543E-07 0.00000E+00
 -1       521 6.29856E-05 1.59807E-06-5.29396E-23
 -1       522 6.09913E-05-1.46736E-06 0.00000E+00
 -1       523 6.03882E-05-8.26711E-06 0.00000E+00
 -1       524 6.08371E-05-1.79790E-05-5.29396E-23
 -1       525 6.18336E-05-2.91918E-05 0.00000E+00
 -1       526 6.28199E-05-4.03855E-05 0.00000E+00
 -1       527 6.32447E-05-5.00421E-05 1.05879E-22
 -1       528 6.25909E-05-5.67628E-05-5.29396E-23
 -1       529 6.05453E-05-5.97326E-05-1.05879E-22
 -1       530 5.68937E-05-5.84208E-05 5.29396E-23
 -1       531 5.17373E-05-5.31445E-05-1.05879E-22
 -1       532 4.52977E-05-4.45164E-05 0.00000E+00
 -1       533 3.80555E-05-3.38104E-05 1.05879E-22
 -1       534 3.05755E-05-2.24471E-05 0.00000E+00
 -1       535 2.34408E-05-1.19899E-05 5.29396E-23
 -1       536 6.86122E-05 1.99154E-06 3.30872E-24
 -1       537 6.85885E-05 5.79176E-06-8.27181E-25
 -1       538 6.85676E-05 8.59058E-06 8.27181E-25
 -1       539 6.85500E-05 1.04460E-05 0.00000E+00
 -1       540 6.85337E-05 1.14480E-05 0.00000E+00
 -1       541 6.85180E-05 1.16874E-05-2.06795E-25
 -1       542 6.85024E-05 1.12807E-05 0.00000E+00
 -1       543 6.84864E-05 1.03448E-05-2.06795E-25
 -1       544 6.84701E-05 9.01448E-06 0.00000E+00
 -1       545 6.84534E-05 7.42493E-06-2.06795E-25
 -1       546 6.84366E-05 5.72000E-06-4.13590E-25
 -1       547 6.84198E-05 4.04364E-06 0.00000E+00
 -1       548 6.84034E-05 2.53882E-06 0.00000E+00
 -1       549 6.83876E-05 1.34840E-06 5.16988E-26
 -1       550 6.83722E-05 6.04713E-07 2.06795E-25
 -1       551 6.18488E-05-3.02085E-06 6.61744E-24
 -1       552 5.37205E-05-3.18120E-06-1.65436E-24
 -1       553 4.47292E-05-3.34850E-06-3.30872E-24
 -1       554 3.53491E-05-3.52135E-06 0.00000E+00
 -1       555 2.60544E-05-3.69599E-06 0.00000E+00
 -1       556 6.68574E-05 1.76719E-06-1.32349E-23
 -1       557 6.54882E-05 5.31575E-06 0.00000E+00
 -1       558 6.44932E-05 7.87812E-06 0.00000E+00
 -1       559 6.38308E-05 9.56190E-06 0.00000E+00
 -1       560 6.34591E-05 1.04745E-05 0.00000E+00
 -1       561 6.33369E-05 1.07238E-05 0.00000E+00
 -1       562 6.34231E-05 1.04180E-05 0.00000E+00
 -1       563 6.36768E-05 9.66518E-06 0.00000E+00
 -1       564 6.40572E-05 8.57374E-06 0.00000E+00
 -1       565 6.45238E-05 7.25195E-06 0.00000E+00
 -1       566 6.50360E-05 5.80819E-06-8.27181E-25
 -1       567 6.55533E-05 4.35086E-06-2.06795E-25
 -1       568 6.60351E-05 2.98831E-06 0.00000E+00
 -1       569 6.64411E-05 1.82881E-06 0.00000E+00
 -1       570 6.67306E-05 9.80626E-07 0.00000E+00
 -1       571 6.84149E-05 5.08088E-07-1.24077E-24
 -1       572 6.84722E-05 5.38175E-07-2.06795E-25
 -1       573 6.85298E-05 5.36806E-07 0.00000E+00
 -1       574 6.85876E-05 5.11171E-07 0.00000E+00
 -1       575 6.86455E-05 4.68487E-07 0.00000E+00
 -1       576 6.87034E-05 4.16024E-07-8.27181E-25
 -1       577 6.87613E-05 3.61054E-07 0.00000E+00
 -1       578 6.88193E-05 3.10854E-07 8.27181E-25
 -1       579 6.88772E-05 2.72703E-07 0.00000E+00
 -1       580 6.89351E-05 2.53880E-07 0.00000E+00
 -1       581 6.89930E-05 2.61664E-07 0.00000E+00
 -1       582 6.90510E-05 3.03324E-07 3.30872E-24
 -1       583 6.91089E-05 3.86123E-07 0.00000E+00
 -1       584 6.91668E-05 5.17251E-07 0.00000E+00
 -1       585 6.92246E-05 7.03855E-07 0.00000E+00
 -1       586 6.80898E-05 4.59172E-07-8.27181E-25
 -1       587 6.77962E-05 4.78145E-07-2.06795E-25
 -1       588 6.75023E-05 4.96908E-07 0.00000E+00
 -1       589 6.72328E-05 5.15376E-07 0.00000E+00
 -1       590 6.70121E-05 5.33342E-07 0.00000E+00
 -1       591 6.83062E-05 5.37749E-07 5.16988E-26
 -1       592 6.82631E-05 6.04262E-07 0.00000E+00
 -1       593 6.82294E-05 6.45250E-07 0.00000E+00
 -1       594 6.82030E-05 6.66115E-07 0.00000E+00
 -1       595 6.81820E-05 6.72329E-07 0.00000E+00
 -1       596 6.81645E-05 6.69324E-07 0.00000E+00
 -1       597 6.81483E-05 6.62530E-07 0.00000E+00
 -1       598 6.81315E-05 6.57373E-07 0.00000E+00
 -1       599 6.81121E-05 6.59277E-07 0.00000E+00
 -1       600 6.80880E-05 6.73667E-07 2.06795E-25
 -1       601 6.80572E-05 7.05968E-07 2.06795E-25
 -1       602 6.80177E-05 7.61609E-07-1.03398E-25
 -1       603 6.79675E-05 8.46022E-07-4.13590E-25
 -1       604 6.79047E-05 9.64679E-07 0.00000E+00
 -1       605 6.78272E-05 1.12298E-06 0.00000E+00
 -1       606 6.92930E-05 1.33313E-06 0.00000E+00
 -1       607 6.93017E-05 1.79609E-06 0.00000E+00
 -1       608 6.93097E-05 2.33656E-06 3.30872E-24
 -1       609 6.93175E-05 2.94910E-06 0.00000E+00
 -1       610 6.93252E-05 3.62823E-06 0.00000E+00
 -1       611 6.93328E-05 4.36839E-06 0.00000E+00
 -1       612 6.93403E-05 5.16403E-06 0.00000E+00
 -1       613 6.93478E-05 6.00958E-06 0.00000E+00
 -1       614 6.93552E-05 6.89948E-06 0.00000E+00
 -1       615 6.93626E-05 7.82816E-06 0.00000E+00
 -1       616 6.93700E-05 8.79006E-06 0.00000E+00
 -1       617 6.93773E-05 9.77962E-06 0.00000E+00
 -1       618 6.93846E-05 1.07913E-05 0.00000E+00
 -1       619 6.93918E-05 1.18194E-05 0.00000E+00
 -1       620 6.93990E-05 1.28585E-05 0.00000E+00
 -1       621 6.89832E-05 1.01497E-06-1.65436E-24
 -1       622 6.87071E-05 1.07772E-06-8.27181E-25
 -1       623 6.84492E-05 1.14047E-06 0.00000E+00
 -1       624 6.82046E-05 1.20311E-06 8.27181E-25
 -1       625 6.79682E-05 1.26565E-06 1.65436E-24
 -1       626 6.92064E-05 1.35279E-06 0.00000E+00
 -1       627 6.91054E-05 1.82119E-06 0.00000E+00
 -1       628 6.89813E-05 2.35141E-06 3.30872E-24
 -1       629 6.88366E-05 2.93668E-06 1.65436E-24
 -1       630 6.86737E-05 3.57026E-06 0.00000E+00
 -1       631 6.84953E-05 4.24533E-06 0.00000E+00
 -1       632 6.83039E-05 4.95509E-06 0.00000E+00
 -1       633 6.81020E-05 5.69273E-06-1.65436E-24
 -1       634 6.78921E-05 6.45145E-06 0.00000E+00
 -1       635 6.76769E-05 7.22443E-06 0.00000E+00
 -1       636 6.74589E-05 8.00489E-06 0.00000E+00
 -1       637 6.72406E-05 8.78600E-06 0.00000E+00
 -1       638 6.70246E-05 9.56096E-06-1.65436E-24
 -1       639 6.68133E-05 1.03230E-05-8.27181E-25
 -1       640 6.66091E-05 1.10652E-05 0.00000E+00
 -1       656 6.85395E-05 1.35577E-05 6.61744E-24
 -1       657 6.79824E-05 1.31986E-05 0.00000E+00
 -1       658 6.76168E-05 1.28406E-05 0.00000E+00
 -1       659 6.73221E-05 1.24830E-05-3.30872E-24
 -1       660 6.69651E-05 1.21242E-05-3.30872E-24
 -1       661 6.90857E-05 1.49261E-05 0.00000E+00
 -1       662 6.87849E-05 1.59046E-05 0.00000E+00
 -1       663 6.85004E-05 1.68396E-05 1.65436E-24
 -1       664 6.82318E-05 1.77333E-05 0.00000E+00
 -1       665 6.79781E-05 1.85875E-05 0.00000E+00
 -1       666 6.77386E-05 1.94040E-05-8.27181E-25
 -1       667 6.75127E-05 2.01845E-05 0.00000E+00
 -1       668 6.72997E-05 2.09307E-05 8.27181E-25
 -1       669 6.70990E-05 2.16440E-05 0.00000E+00
 -1       670 6.69100E-05 2.23262E-05 0.00000E+00
 -1       671 6.67322E-05 2.29785E-05-1.65436E-24
 -1       672 6.65650E-05 2.36024E-05-8.27181E-25
 -1       673 6.64079E-05 2.41991E-05 0.00000E+00
 -1       674 6.62599E-05 2.47698E-05 4.13590E-25
 -1       675 6.61214E-05 2.53159E-05 0.00000E+00
 -1       676 6.84456E-05 2.61765E-05-1.65436E-24
 -1       677 6.79529E-05 2.61082E-05 8.27181E-25
 -1       678 6.74605E-05 2.60399E-05 1.65436E-24
 -1       679 6.69688E-05 2.59718E-05 0.00000E+00
 -1       680 6.64778E-05 2.59038E-05-1.65436E-24
 -1       771 1.38060E-05 2.79622E-06-2.64698E-23
 -1       772 1.07496E-05 8.27125E-06 0.00000E+00
 -1       773 8.12808E-06 1.26025E-05-2.64698E-23
 -1       774 5.91237E-06 1.58622E-05 0.00000E+00
 -1       775 4.07411E-06 1.81238E-05 0.00000E+00
 -1       776 2.58363E-06 1.94636E-05 1.32349E-23
 -1       777 1.41089E-06 1.99593E-05 0.00000E+00
 -1       778 5.25255E-07 1.96906E-05 0.00000E+00
 -1       779-1.04188E-07 1.87384E-05 0.00000E+00
 -1       780-5.08855E-07 1.71852E-05 0.00000E+00
 -1       781-7.20288E-07 1.51149E-05 0.00000E+00
 -1       782-7.70431E-07 1.26121E-05 0.00000E+00
 -1       783-6.91298E-07 9.76255E-06 0.00000E+00
 -1       784-5.15120E-07 6.65262E-06 1.32349E-23
 -1       785-2.74247E-07 3.36922E-06 0.00000E+00
 -1       786 6.69153E-05 5.32659E-07-4.13590E-25
 -1       787 6.69696E-05 5.19755E-07 0.00000E+00
 -1       788 6.70237E-05 5.10887E-07 0.00000E+00
 -1       789 6.70784E-05 5.06020E-07 0.00000E+00
 -1       790 6.71332E-05 5.05626E-07-1.65436E-24
 -1       791 6.71880E-05 5.10186E-07-8.27181E-25
 -1       792 6.72428E-05 5.20806E-07-1.65436E-24
 -1       793 6.72977E-05 5.38606E-07 8.27181E-25
 -1       794 6.73525E-05 5.65613E-07-1.65436E-24
 -1       795 6.74074E-05 6.03875E-07 0.00000E+00
 -1       796 6.74623E-05 6.56860E-07-1.65436E-24
 -1       797 6.75171E-05 7.28072E-07 0.00000E+00
 -1       798 6.75719E-05 8.23310E-07 1.65436E-24
 -1       799 6.76266E-05 9.48436E-07-8.27181E-25
 -1       800 6.76813E-05 1.11308E-06-1.65436E-24
 -1       801 6.23489E-05 5.32609E-07-8.27181E-25
 -1       802 4.88795E-05 4.37832E-07-8.27181E-25
 -1       803 3.11887E-05 2.83090E-07 3.30872E-24
 -1       804 1.40102E-05 1.30656E-07 0.00000E+00
 -1       805 2.04540E-06 4.89850E-08-1.32349E-23
 -1       806 6.68034E-05 4.94472E-07-1.65436E-24
 -1       807 6.67399E-05 4.39700E-07 8.27181E-25
 -1       808 6.66742E-05 3.89576E-07 0.00000E+00
 -1       809 6.66050E-05 3.47703E-07 0.00000E+00
 -1       810 6.65314E-05 3.17677E-07 0.00000E+00
 -1       811 6.64519E-05 3.03039E-07-8.27181E-25
 -1       812 6.63652E-05 3.07328E-07-1.65436E-24
 -1       813 6.62702E-05 3.34072E-07 0.00000E+00
 -1       814 6.61654E-05 3.86800E-07-1.65436E-24
 -1       815 6.60495E-05 4.69036E-07 0.00000E+00
 -1       816 6.59213E-05 5.84300E-07 0.00000E+00
 -1       817 6.57794E-05 7.36114E-07 0.00000E+00
 -1       818 6.56224E-05 9.27997E-07 8.27181E-25
 -1       819 6.54493E-05 1.16345E-06-4.13590E-25
 -1       820 6.52587E-05 1.44599E-06 1.65436E-24
 -1       821 6.76574E-05 1.56706E-06 0.00000E+00
 -1       822 6.75748E-05 1.81095E-06 0.00000E+00
 -1       823 6.74925E-05 2.08989E-06-1.65436E-24
 -1       824 6.74093E-05 2.43504E-06-8.27181E-25
 -1       825 6.73260E-05 2.86606E-06 3.30872E-24
 -1       826 6.72425E-05 3.40228E-06 0.00000E+00
 -1       827 6.71590E-05 4.04478E-06 3.30872E-24
 -1       828 6.70753E-05 4.79428E-06-1.65436E-24
 -1       829 6.69915E-05 5.63289E-06-3.30872E-24
 -1       830 6.69078E-05 6.54241E-06 0.00000E+00
 -1       831 6.68240E-05 7.49237E-06 0.00000E+00
 -1       832 6.67404E-05 8.45209E-06 0.00000E+00
 -1       833 6.66568E-05 9.38922E-06-1.65436E-24
 -1       834 6.65742E-05 1.02715E-05 0.00000E+00
 -1       835 6.64914E-05 1.10762E-05 0.00000E+00
 -1       836 6.74142E-05 1.40222E-06 0.00000E+00
 -1       837 6.69937E-05 1.47914E-06 0.00000E+00
 -1       838 6.65103E-05 1.55592E-06 0.00000E+00
 -1       839 6.60008E-05 1.63220E-06 0.00000E+00
 -1       840 6.55019E-05 1.70837E-06-4.13590E-25
 -1       856 6.63899E-05 1.24837E-05 0.00000E+00
 -1       857 6.63636E-05 1.32774E-05 0.00000E+00
 -1       858 6.63374E-05 1.41476E-05 0.00000E+00
 -1       859 6.63106E-05 1.50799E-05 4.13590E-25
 -1       860 6.62838E-05 1.60599E-05 0.00000E+00
 -1       861 6.62569E-05 1.70730E-05 4.13590E-25
 -1       862 6.62299E-05 1.81048E-05 0.00000E+00
 -1       863 6.62029E-05 1.91407E-05-4.13590E-25
 -1       864 6.61760E-05 2.01662E-05-8.27181E-25
 -1       865 6.61490E-05 2.11667E-05-4.13590E-25
 -1       866 6.61221E-05 2.21278E-05-8.27181E-25
 -1       867 6.60952E-05 2.30349E-05-4.13590E-25
 -1       868 6.60683E-05 2.38738E-05 8.27181E-25
 -1       869 6.60415E-05 2.46299E-05 4.13590E-25
 -1       870 6.60148E-05 2.52891E-05 0.00000E+00
 -1       871 6.58813E-05 1.17800E-05-4.13590E-25
 -1       872 6.54363E-05 1.17775E-05 0.00000E+00
 -1       873 6.50410E-05 1.17746E-05-2.06795E-25
 -1       874 6.46574E-05 1.17713E-05-1.55096E-25
 -1       875 6.42476E-05 1.17676E-05 0.00000E+00
 -1       876 6.62292E-05 1.24913E-05 0.00000E+00
 -1       877 6.60301E-05 1.32459E-05-8.27181E-25
 -1       878 6.58166E-05 1.40394E-05 0.00000E+00
 -1       879 6.55905E-05 1.48668E-05-1.65436E-24
 -1       880 6.53537E-05 1.57230E-05 0.00000E+00
 -1       881 6.51079E-05 1.66031E-05 0.00000E+00
 -1       882 6.48551E-05 1.75021E-05-3.30872E-24
 -1       883 6.45970E-05 1.84150E-05 8.27181E-25
 -1       884 6.43355E-05 1.93368E-05 0.00000E+00
 -1       885 6.40725E-05 2.02627E-05 8.27181E-25
 -1       886 6.38099E-05 2.11876E-05 1.65436E-24
 -1       887 6.35494E-05 2.21066E-05 0.00000E+00
 -1       888 6.32928E-05 2.30147E-05 0.00000E+00
 -1       889 6.30419E-05 2.39067E-05-8.27181E-25
 -1       890 6.27984E-05 2.47779E-05 0.00000E+00
 -1       891 6.55155E-05 2.58012E-05-8.27181E-25
 -1       892 6.50276E-05 2.57651E-05-4.13590E-25
 -1       893 6.45061E-05 2.57290E-05-8.27181E-25
 -1       894 6.39330E-05 2.56929E-05 0.00000E+00
 -1       895 6.32904E-05 2.56569E-05 4.13590E-25
 -1       956 6.49720E-05 2.21519E-06 0.00000E+00
 -1       957 6.48924E-05 2.70253E-06 0.00000E+00
 -1       958 6.48126E-05 3.23573E-06-1.65436E-24
 -1       959 6.47327E-05 3.80916E-06-1.65436E-24
 -1       960 6.46526E-05 4.41716E-06 1.65436E-24
 -1       961 6.45726E-05 5.05406E-06-1.65436E-24
 -1       962 6.44925E-05 5.71417E-06 1.65436E-24
 -1       963 6.44124E-05 6.39180E-06 1.65436E-24
 -1       964 6.43323E-05 7.08128E-06 3.30872E-24
 -1       965 6.42522E-05 7.77690E-06 0.00000E+00
 -1       966 6.41721E-05 8.47299E-06 0.00000E+00
 -1       967 6.40920E-05 9.16385E-06 0.00000E+00
 -1       968 6.40120E-05 9.84378E-06 0.00000E+00
 -1       969 6.39321E-05 1.05071E-05-1.65436E-24
 -1       970 6.38524E-05 1.11482E-05 3.30872E-24
 -1       971 6.36991E-05 1.23920E-05 0.00000E+00
 -1       972 6.36233E-05 1.30897E-05-8.27181E-25
 -1       973 6.35472E-05 1.38474E-05 1.65436E-24
 -1       974 6.34711E-05 1.46572E-05 8.27181E-25
 -1       975 6.33948E-05 1.55115E-05 1.65436E-24
 -1       976 6.33186E-05 1.64025E-05 8.27181E-25
 -1       977 6.32422E-05 1.73225E-05-1.65436E-24
 -1       978 6.31659E-05 1.82635E-05 0.00000E+00
 -1       979 6.30896E-05 1.92180E-05 1.65436E-24
 -1       980 6.30132E-05 2.01781E-05-8.27181E-25
 -1       981 6.29369E-05 2.11361E-05-1.65436E-24
 -1       982 6.28607E-05 2.20841E-05 1.65436E-24
 -1       983 6.27845E-05 2.30145E-05 1.65436E-24
 -1       984 6.27088E-05 2.39194E-05 0.00000E+00
 -1       985 6.26333E-05 2.47910E-05 0.00000E+00
 -3
    1PSTEP                         6           3           1          
  100CL  103 4.37500E-01         409                     0    3           1
 -4  STRESS      6    1
 -5  SXX         1    4    1    1
 -5  SYY         1    4    2    2
 -5  SZZ         1    4    3    3
 -5  SXY         1    4    1    2
 -5  SYZ         1    4    2    3
 -5  SZX         1    4    3    1
 -1         1-1.51976E+06-6.95739E+05-3.11156E+05-9.78921E+05-2.18279E-10-4.75120E-09
 -1         2 2.49698E+03 2.59682E+05 8.19113E+03 7.54399E+02-1.42421E-10 1.55234E-09
 -1         3-7.00428E+01-6.44554E+05 1.50518E+02-2.11826E+02-1.81227E-10 3.24690E-09
 -1         5-5.59078E+00 2.27776E+05 5.96872E+00 7.97196E-02 6.47754E-11 4.07999E-09
 -1         8-7.61007E+05-3.25469E+05-3.71590E+04-5.48650E+05 2.31012E-10 2.15368E-09
 -1         9-1.23878E+06-3.20836E+05-1.23511E+05-4.20441E+05 3.29164E-09-7.45058E-09
 -1        10-5.13649E+02-6.71488E+05-8.71488E+02-1.42712E+03-3.19596E-09-1.29380E-08
 -1        12-3.14433E+00 2.27789E+05 1.93564E+02 8.08774E-01 1.61691E-10 5.35579E-09
 -1        15 1.88334E+03 1.03500E+03 6.08788E+03 3.73297E+00-4.54179E-11 3.28678E-09
 -1        16-3.47730E+06-1.12529E+06-5.44189E+05-1.14003E+06 7.64461E-09-4.54020E-09
 -1        17-7.73727E+05-4.71616E+05-1.49418E+05-4.40782E+05-5.02478E-09-1.68802E-10
 -1        18 1.71806E+04 1.44029E+02-1.31512E+04-5.38653E+04 6.74731E-10-2.14050E-09
 -1        19 7.13471E+04 8.50780E+04-4.01540E+02 1.39533E+04-5.63159E-10-1.14596E-09
 -1        20-2.97581E+04-3.37116E+05-7.43581E+04 2.48582E+04 2.45609E-09-7.63976E-11
 -1        21-3.18362E+01-1.95347E+05-6.30908E+02-6.60440E+01-1.12095E-08-7.27380E-09
 -1        24-3.03822E+06-1.01866E+06-4.29759E+05-1.24443E+06-1.58592E-08-8.40131E-09
 -1        25 2.59723E+04-9.28742E+03 1.45671E+04-9.74104E+04 3.24599E-10 2.99951E-09
 -1        26-1.65308E+04 5.81162E+04-1.15149E+04-8.31776E+03 1.53341E-09 3.53867E-09
 -1        27-5.39560E+04-1.84954E+05-6.93860E+04 4.16792E+04 5.14327E-09-9.50119E-10
 -1        28 1.51191E+04-5.39618E+04 1.10336E+04 1.72904E+04 1.21983E-09-7.67851E-09
 -1        32-7.21902E+05-1.17273E+05 3.09214E+05-4.87922E+05-1.46538E-08 1.04716E-08
 -1        33-1.05766E+05 5.43895E+04 1.92801E+04-3.15865E+04 9.57319E-10 3.08773E-10
 -1        34-1.37315E+05-1.36679E+04 3.22248E+02 4.22226E+04 3.49035E-09 1.49809E-09
 -1        35-1.53757E+04-2.14489E+04-8.39795E+02 3.40274E+04 3.80088E-09-3.98965E-10
 -1        51 1.28842E+04-3.48574E+05 3.33493E+04-8.78871E+05 1.30967E-10-8.29459E-10
 -1        52 7.99726E+03-3.47468E+05 2.24728E+04-1.02505E+06 8.65839E-10-1.76151E-08
 -1        53 6.00176E+03-3.58633E+05 1.97241E+04-8.75823E+05 1.30967E-10-2.87982E-08
 -1        54 1.75697E+04-3.57063E+05 3.23069E+04-1.02824E+06-8.00355E-11-4.95493E-08
 -1        55 3.55646E+04-3.69343E+05 5.81314E+04-8.75341E+05 6.40284E-10-2.75795E-08
 -1        56-2.91885E+06-3.28933E+05-2.28778E+05-1.12482E+06 5.78439E-10-2.53203E-09
 -1        57-3.00751E+06-5.39079E+05-1.54199E+05-1.11962E+06-5.63432E-10-4.55475E-09
 -1        58-2.96541E+06-4.00764E+05-5.38332E+04-1.10972E+06 2.00998E-10 9.08767E-09
 -1        59-2.95356E+06-4.54905E+05-3.21338E+04-1.13780E+06-2.22713E-10 6.05723E-09
 -1        60-2.97234E+06-4.10637E+05-1.25718E+04-1.10751E+06-2.34422E-10-1.07625E-08
 -1        61-2.94668E+06-4.42146E+05-7.14342E+03-1.13897E+06 1.62663E-09-6.61447E-09
 -1        62-2.97217E+06-4.13223E+05-3.45014E+03-1.10863E+06-1.34423E-09 3.94114E-09
 -1        63-2.94921E+06-4.36980E+05-2.80831E+03-1.13483E+06-2.65584E-09 4.06590E-09
 -1        64-2.96969E+06-4.15837E+05-3.26952E+03-1.11158E+06-1.24146E-09 5.02700E-09
 -1        65-2.95596E+06-4.32158E+05-6.46236E+03-1.12750E+06 4.08249E-10-6.72162E-09
 -1        66-2.96531E+06-4.18155E+05-1.14632E+04-1.11587E+06 1.48907E-09-6.47105E-09
 -1        67-2.97021E+06-4.35504E+05-2.89869E+04-1.11702E+06-3.13435E-09 9.33733E-09
 -1        68-2.95546E+06-4.12814E+05-4.87408E+04-1.12193E+06 2.35332E-09-3.00133E-09
 -1        69-3.02481E+06-5.05957E+05-1.39350E+05-1.09434E+06 1.49566E-09-3.83443E-09
 -1        70-2.91125E+06-3.49862E+05-2.06858E+05-1.13782E+06-6.98492E-10 3.17232E-09
 -1        86-1.25515E+03 2.56971E+05 8.73699E+03-3.77226E+02 1.12641E-09-9.39292E-09
 -1        87 8.31979E+03 2.62553E+05 1.82836E+04 1.55875E+03 1.88993E-09-8.04471E-09
 -1        88-7.06293E+03 2.54104E+05 2.79304E+04-1.18160E+03 2.85036E-09 3.26366E-09
 -1        89 5.26263E+04 2.83296E+05 7.54168E+04 3.39639E+03 4.36012E-09 1.00556E-08
 -1        90-4.54223E+04 2.36251E+05 1.06443E+05-2.21439E+03 5.01313E-09-9.63996E-09
 -1       121-1.12048E+02-6.44880E+05 1.25354E+02 1.05794E+02 3.59400E-10 4.79758E-09
 -1       122-2.02633E+01-6.44523E+05 3.26495E+02-4.23592E+02-1.19327E-09-2.99724E-09
 -1       123-1.46829E+02-6.44915E+05 5.10271E+02 3.17096E+02 1.05189E-09-3.05681E-09
 -1       124 5.82081E+02-6.44160E+05 1.36386E+03-9.59615E+02-2.25668E-09 1.26283E-09
 -1       125-5.35441E+02-6.45255E+05 2.07335E+03 6.41578E+02 1.63618E-09-8.72933E-09
 -1       191-6.06672E+00 2.27795E+05 7.06988E+00-4.05066E-02 1.36144E-10-5.50017E-09
 -1       192-6.13974E+00 2.27777E+05 1.26410E+01 5.92220E-01 2.01613E-10-7.22866E-09
 -1       193-7.52613E+00 2.27795E+05 2.34463E+01-5.56066E-01 2.26388E-10-2.45655E-09
 -1       194-7.90627E+00 2.27778E+05 4.78227E+01 1.48505E+00 1.61266E-10-7.23685E-09
 -1       195-1.03308E+01 2.27793E+05 9.34812E+01-9.40289E-01 4.11717E-10 1.23691E-10
 -1       251 2.35140E+05-4.39076E+04 1.02414E+05 4.62413E+03 6.92921E-10 7.58882E-09
 -1       252 2.82447E+05 5.07790E+04 7.27699E+04-1.46316E+04-3.74712E-10 6.03541E-09
 -1       253 2.52971E+05-6.79583E+03 2.65010E+04 3.06514E+03 4.79872E-10 1.09503E-09
 -1       254 2.61375E+05 7.84738E+03 1.67906E+04-1.21888E+04 2.42323E-10-3.49587E-09
 -1       255 2.56102E+05-1.04878E+03 6.84859E+03 2.18158E+03 7.10372E-10 1.33241E-09
 -1       256 2.57608E+05 1.24851E+03 4.17351E+03-1.08920E+04 1.60291E-09 2.88537E-10
 -1       257 2.56690E+05-1.83041E+02 2.14872E+03 1.76827E+03 2.08459E-10-1.08781E-09
 -1       258 2.57011E+05 3.95151E+02 1.90949E+03-1.04839E+04-1.32200E-09 1.26059E-08
 -1       259 2.56686E+05-1.87891E+02 2.19410E+03 1.77351E+03-5.21752E-10 3.99217E-09
 -1       260 2.57639E+05 1.29018E+03 4.30663E+03-1.09146E+04 6.84821E-11-1.36833E-08
 -1       261 2.56076E+05-1.08604E+03 7.08551E+03 2.19893E+03 1.16347E-09-6.74299E-09
 -1       262 2.61535E+05 8.12674E+03 1.73861E+04-1.22356E+04-8.68567E-11 7.09679E-09
 -1       263 2.52838E+05-7.03843E+03 2.74478E+04 3.09458E+03-1.15665E-09 1.40062E-09
 -1       264 2.83341E+05 5.25928E+04 7.53657E+04-1.47133E+04-2.99380E-09 9.06221E-09
 -1       265 2.34384E+05-4.54747E+04 1.06082E+05 4.67644E+03-1.30296E-09-1.33150E-09
 -1       266-3.40938E+04-1.59402E+04 8.00037E+04-7.98826E+01 1.45519E-11 8.54496E-09
 -1       267 3.95251E+04 1.85818E+04 5.65404E+04 9.21579E+01-1.54614E-11 5.76091E-09
 -1       268-5.30020E+03-2.63153E+03 2.10161E+04-1.17431E+01 9.09495E-12 1.21627E-09
 -1       269 6.25803E+03 3.14957E+03 1.36598E+04 1.36783E+01-2.54659E-11-4.57434E-09
 -1       270-9.39337E+02-5.17491E+02 6.59381E+03-1.85627E+00-9.98170E-11 4.74035E-10
 -1       271-3.50677E+06-4.32642E+05-2.73145E+05-1.36659E+06-1.07684E-09 3.40515E-09
 -1       272-3.59288E+06-6.51409E+05-1.76697E+05-1.37769E+06-1.13391E-09 8.65475E-09
 -1       273-3.56065E+06-5.01342E+05-6.45187E+04-1.35141E+06 9.32232E-12 6.97037E-09
 -1       274-3.52926E+06-5.68857E+05-3.63502E+04-1.40077E+06-1.34196E-09-6.77574E-10
 -1       275-3.56988E+06-5.06910E+05-1.50163E+04-1.34696E+06-3.34694E-10-1.16788E-08
 -1       276-3.51813E+06-5.62696E+05-8.01754E+03-1.40785E+06 1.11868E-09-1.95439E-09
 -1       277-3.57226E+06-5.06261E+05-3.90934E+03-1.34508E+06 1.51181E-09 9.03367E-09
 -1       278-3.51589E+06-5.63127E+05-2.86951E+03-1.41000E+06-1.63672E-09-4.18368E-11
 -1       279-3.57236E+06-5.06240E+05-3.09175E+03-1.34502E+06-2.67596E-09-3.60342E-09
 -1       280-3.51761E+06-5.62476E+05-5.71312E+03-1.40816E+06-5.22277E-10 1.68802E-09
 -1       281-3.57033E+06-5.07105E+05-1.04372E+04-1.34674E+06-3.15140E-10-8.34825E-09
 -1       282-3.52631E+06-5.65515E+05-2.50493E+04-1.40178E+06 1.50294E-09 7.97672E-09
 -1       283-3.56314E+06-5.04176E+05-4.44768E+04-1.35075E+06-1.11640E-09 4.04907E-09
 -1       284-3.57191E+06-6.20280E+05-1.21595E+05-1.38336E+06 8.98126E-12 1.67347E-10
 -1       285-3.52484E+06-4.58221E+05-1.88168E+05-1.36260E+06-7.78527E-10 3.63798E-10
 -1       301 1.30422E+04-1.01772E+04 1.01130E+05-2.56294E+04-7.96717E-10 8.46853E-10
 -1       302 1.40392E+04 1.54469E+04 7.30433E+04-3.77745E+04 1.48611E-09 7.26823E-09
 -1       303 6.85317E+02-1.09726E+03 6.72745E+04-2.57161E+04-1.06775E-09 4.64934E-09
 -1       304 2.63860E+04 2.68524E+04 1.13201E+05-3.76594E+04 1.22236E-09 5.02405E-09
 -1       305 2.61225E+04-2.14809E+04 1.90021E+05-2.56484E+04-9.89530E-10 3.92174E-09
 -1       306-3.62415E+06-4.23195E+05-2.76576E+05-1.42215E+06 9.27685E-10-5.00586E-09
 -1       307-3.77573E+06-6.47306E+05-1.88490E+05-1.36302E+06 2.70211E-09 5.26779E-09
 -1       308-3.69095E+06-5.05411E+05-6.51358E+04-1.39189E+06 1.64800E-09 5.02041E-10
 -1       309-3.69017E+06-5.60008E+05-3.92832E+04-1.40814E+06-8.46228E-10 8.46285E-10
 -1       310-3.70929E+06-5.08812E+05-1.53109E+04-1.37759E+06 1.27704E-09-1.93631E-09
 -1       311-3.66572E+06-5.59699E+05-8.79882E+03-1.42940E+06 4.75768E-09 1.45701E-09
 -1       312-3.71561E+06-5.05268E+05-4.31657E+03-1.37092E+06-4.20641E-12-1.30228E-09
 -1       313-3.66077E+06-5.61793E+05-3.88129E+03-1.43456E+06-1.51734E-09 8.85495E-09
 -1       314-3.71434E+06-5.06609E+05-4.70336E+03-1.37252E+06-1.18109E-09 2.57091E-09
 -1       315-3.67050E+06-5.55144E+05-9.80636E+03-1.42351E+06-9.99080E-10 3.91810E-09
 -1       316-3.70566E+06-5.12116E+05-1.73323E+04-1.38179E+06 2.32285E-09 1.03046E-09
 -1       317-3.69959E+06-5.54410E+05-4.44765E+04-1.39833E+06 6.35623E-10-2.55568E-10
 -1       318-3.68509E+06-5.07798E+05-7.37479E+04-1.39743E+06-4.10364E-09 6.10817E-09
 -1       319-3.79447E+06-6.55895E+05-2.13614E+05-1.35046E+06-4.83851E-10-3.05590E-10
 -1       320-3.61141E+06-4.12416E+05-3.13188E+05-1.42915E+06 7.85803E-09-4.05998E-09
 -1       336 4.64065E+02-6.98121E+05-3.76479E+03 7.83868E+02-6.45991E-09-3.37423E-09
 -1       337-1.36960E+03-6.99062E+05-4.12919E+03-2.01365E+03-1.16158E-08-4.88808E-09
 -1       338 3.03715E+02-6.98225E+05-5.25593E+03 1.22556E+03-8.48581E-09-2.01453E-09
 -1       339-5.43635E+03-7.01582E+05-1.14955E+04-2.88556E+03-1.50901E-08 6.29825E-10
 -1       340 3.66502E+03-6.95658E+05-1.77445E+04 1.64985E+03-1.01791E-08 7.15045E-09
 -1       406 1.15766E+01 2.27785E+05 3.82080E+02 1.14802E-01 5.18440E-10 6.49243E-09
 -1       407 1.30105E+02 2.27856E+05 8.12206E+02-8.12006E+00 1.73202E-10 1.29376E-10
 -1       408 4.14897E+02 2.27726E+05 1.62206E+03 8.14393E+00 6.61771E-10 1.09076E-08
 -1       409 1.75107E+03 2.28374E+05 3.65191E+03-7.74226E+01-2.59206E-11 1.78679E-08
 -1       410 5.03674E+03 2.27265E+05 7.45519E+03 7.19413E+01 6.33918E-10 4.04725E-09
 -1       521-6.79528E+06-7.74287E+05-5.08341E+05-2.62472E+06 4.88217E-09-8.70205E-09
 -1       522-6.95679E+06-1.27284E+06-3.42010E+05-2.62810E+06-7.00675E-09-3.78350E-10
 -1       523-6.94618E+06-8.87548E+05-1.19685E+05-2.52992E+06 9.36780E-10-3.18687E-09
 -1       524-6.77531E+06-1.15102E+06-7.11535E+04-2.75744E+06 6.60467E-09-5.71981E-09
 -1       525-6.97955E+06-8.89366E+05-2.74787E+04-2.49952E+06 7.70297E-09-1.11404E-08
 -1       526-6.75828E+06-1.12195E+06-1.53396E+04-2.76158E+06 2.74986E-09-8.19553E-09
 -1       527-6.96282E+06-9.16140E+05-8.67904E+03-2.52582E+06 2.39652E-09 1.67688E-09
 -1       528-6.82153E+06-1.04228E+06-4.38547E+03-2.66796E+06 3.83716E-09 6.62476E-09
 -1       529-6.91191E+06-9.72050E+05-1.00493E+04-2.58994E+06-1.89357E-09 1.59434E-09
 -1       530-6.93530E+06-9.32708E+05-1.34664E+04-2.53728E+06-1.91812E-09 3.32511E-09
 -1       531-6.84850E+06-1.02617E+06-2.89478E+04-2.65598E+06-5.70162E-09-6.91216E-11
 -1       532-7.05331E+06-8.70887E+05-7.05230E+04-2.43665E+06 5.06088E-09-1.53632E-08
 -1       533-6.79845E+06-1.03142E+06-1.17947E+05-2.69366E+06 2.20280E-09-1.84809E-08
 -1       534-7.19032E+06-1.04950E+06-3.42067E+05-2.38286E+06-1.35879E-09 1.64873E-08
 -1       535-6.71433E+06-8.50314E+05-5.03997E+05-2.70982E+06-1.08557E-08 1.08848E-08
 -1       536-5.30563E+04-1.77694E+04 4.08832E+04 1.71026E+01-1.28341E-09 8.81482E-09
 -1       537-3.37219E+04 2.05609E+04 2.92010E+04-1.03153E+03-8.55037E-09 3.59796E-09
 -1       538-4.60820E+04-2.78918E+03 1.05190E+04 1.67729E+02-2.86050E-10 3.40378E-09
 -1       539-4.19863E+04 3.21760E+03 6.79194E+03-1.35327E+03 2.37525E-09 4.57203E-09
 -1       540-4.48017E+04-4.35898E+02 2.63445E+03 3.38827E+02-1.95385E-10 3.25929E-09
 -1       541-4.36111E+04 4.95545E+02 1.62156E+03-1.65727E+03-1.43252E-09 5.62878E-09
 -1       542-4.44651E+04-6.36907E+01 6.08459E+02 4.71708E+02-3.66491E-10-1.16407E-09
 -1       543-4.40981E+04 5.34183E+01 3.02387E+02-1.87140E+03 1.36041E-10-3.50241E-09
 -1       544-4.43211E+04 1.05722E+01-2.17459E+01 5.52951E+02 3.46105E-10-2.48249E-09
 -1       545-4.43355E+04-1.27927E+02-3.35815E+02-1.97650E+03-6.10087E-10-1.19650E-09
 -1       546-4.42312E+04 1.20061E+02-6.98171E+02 5.76816E+02 5.13109E-10-1.18320E-10
 -1       547-4.46890E+04-8.80185E+02-1.79907E+03-1.96515E+03-2.50508E-09 4.20982E-10
 -1       548-4.39673E+04 7.61995E+02-2.91088E+03 5.41601E+02-2.75087E-09 6.26187E-10
 -1       549-4.67118E+04-5.61537E+03-7.91385E+03-1.83523E+03-1.38852E-09 3.15447E-09
 -1       550-4.22042E+04 4.84852E+03-1.12879E+04 4.46893E+02 4.96243E-11 2.76486E-09
 -1       551 7.56439E+03-3.64663E+05 1.95950E+04-6.23642E+05-2.76232E-08-1.74623E-09
 -1       552 1.63360E+04-3.66752E+05 2.59800E+04-8.87682E+05-2.12603E-08 1.39189E-08
 -1       553 1.09784E+04-3.71491E+05 4.04430E+04-6.21567E+05-3.31274E-08 1.09685E-08
 -1       554 3.68498E+04-3.55137E+05 8.59484E+04-8.88545E+05-2.09693E-08 6.65227E-09
 -1       555 3.58394E+04-3.87828E+05 1.54286E+05-6.22328E+05-3.40005E-08-3.33966E-09
 -1       556 5.36386E+04-1.17540E+05 4.01315E+04-1.54925E+05 2.77214E-09-9.99717E-09
 -1       557 1.01254E+05-1.57149E+05 2.10692E+04-1.93831E+05 1.66474E-08-7.69933E-09
 -1       558 5.36559E+04-1.22996E+05 8.53547E+03-1.50224E+05 2.18279E-09-1.67129E-08
 -1       559 9.49886E+04-1.62688E+05 4.32784E+03-1.96554E+05 6.14091E-09 1.12959E-09
 -1       560 5.23724E+04-1.22137E+05 1.79711E+03-1.51018E+05 3.21597E-09 2.69119E-09
 -1       561 9.29462E+04-1.62193E+05 9.51910E+02-1.97842E+05 4.54747E-10-4.11546E-10
 -1       562 5.13297E+04-1.21434E+05 3.65224E+02-1.51770E+05-1.63709E-09 7.15090E-10
 -1       563 9.17178E+04-1.61667E+05 2.27761E+02-1.98628E+05-1.54250E-09-2.61599E-09
 -1       564 5.06814E+04-1.21014E+05 8.12189E+01-1.52231E+05 4.38740E-09-8.78572E-10
 -1       565 9.10824E+04-1.61396E+05 4.92809E+01-1.99027E+05 2.87037E-09-2.17551E-09
 -1       566 5.04528E+04-1.20861E+05-2.03668E+01-1.52397E+05-2.11276E-09-5.29508E-09
 -1       567 9.10019E+04-1.61356E+05-1.03121E+02-1.99019E+05 6.41194E-09-3.39878E-09
 -1       568 5.06740E+04-1.21007E+05-2.94016E+02-1.52297E+05-8.45830E-10 3.10501E-09
 -1       569 9.08901E+04-1.61247E+05-6.88501E+02-1.98098E+05-4.51291E-09 4.38376E-09
 -1       570 5.18249E+04-1.22068E+05-1.46044E+03-1.52291E+05 1.04410E-09-9.39826E-09
 -1       571 1.65152E+05 5.99298E+03 8.88041E+03-4.17311E+04 6.56655E-10 2.62480E-09
 -1       572 1.66473E+05 2.08446E+03 4.35078E+03-4.57443E+04-7.98764E-10 1.89630E-10
 -1       573 1.65683E+05 4.97021E+02 1.93277E+03-4.16220E+04-1.04001E-09-3.96221E-09
 -1       574 1.65839E+05 1.62013E+02 9.68323E+02-4.58662E+04-9.37689E-10-6.69706E-09
 -1       575 1.65742E+05 2.26991E+01 4.56343E+02-4.16076E+04 4.27690E-10-1.32331E-10
 -1       576 1.65753E+05 6.84489E+00 2.32250E+02-4.58825E+04 9.14042E-11 8.66112E-09
 -1       577 1.65751E+05-2.64771E+00 1.14352E+02-4.16057E+04 3.30829E-11-2.35605E-09
 -1       578 1.65744E+05-8.36297E-01 6.22586E+01-4.58845E+04 1.18234E-11-4.93264E-09
 -1       579 1.65760E+05-4.08846E+00 3.79230E+01-4.16057E+04-1.58252E-10-1.87129E-09
 -1       580 1.65756E+05-5.50451E+00 3.51563E+01-4.58820E+04-1.46611E-09 5.82077E-10
 -1       581 1.65776E+05-9.78135E+00 4.73925E+01-4.16082E+04 9.54969E-11 1.88220E-09
 -1       582 1.65786E+05-3.09233E+00 9.01067E+01-4.58572E+04 1.30285E-09 2.74167E-09
 -1       583 1.65796E+05 1.87832E+01 1.72668E+02-4.16304E+04 9.54969E-10-1.31467E-09
 -1       584 1.65874E+05 1.53008E+02 3.87121E+02-4.56714E+04-2.04227E-09-5.22959E-10
 -1       585 1.65777E+05 4.94157E+02 7.86030E+02-4.17943E+04-4.08363E-10 5.05133E-09
 -1       586-2.00735E+03 5.41084E+04-2.66571E+03-1.41919E+05 4.24507E-10-3.99655E-09
 -1       587-4.24948E+02 5.37496E+04-3.01806E+02-1.56169E+05 6.97582E-10-2.02573E-09
 -1       588 5.67698E+02 5.38202E+04 1.88538E+03-1.41832E+05 3.78350E-10 4.03361E-10
 -1       589 2.81119E+03 5.48558E+04 5.49698E+03-1.56040E+05 5.92081E-10-5.47698E-09
 -1       590 8.06321E+03 5.31553E+04 1.17722E+04-1.42049E+05 2.65572E-10-1.36424E-09
 -1       591-3.61696E+04-1.03433E+04-1.20052E+04-1.87432E+04-3.34808E-10-2.84763E-09
 -1       592-3.72961E+04-1.32895E+04-6.50253E+03-2.18715E+04-1.11646E-09 3.77224E-09
 -1       593-3.73835E+04-9.45871E+03-2.70707E+03-1.96101E+04 1.53136E-10 2.15289E-09
 -1       594-3.56231E+04-1.15445E+04-1.35014E+03-2.19548E+04-5.09942E-10 7.48301E-10
 -1       595-3.74765E+04-9.45466E+03-6.20474E+02-1.96499E+04-3.69823E-10 4.73409E-09
 -1       596-3.55099E+04-1.14646E+04-3.16281E+02-2.19430E+04 6.16012E-10 8.97163E-09
 -1       597-3.74883E+04-9.46234E+03-1.74098E+02-1.96515E+04 1.10336E-09-2.14015E-09
 -1       598-3.54991E+04-1.14615E+04-1.43390E+02-2.19397E+04-2.32853E-09-4.23483E-09
 -1       599-3.74874E+04-9.46237E+03-1.87445E+02-1.96512E+04-2.06444E-09-1.45405E-09
 -1       600-3.55112E+04-1.14656E+04-3.51661E+02-2.19427E+04-1.85628E-09-1.44155E-10
 -1       601-3.74727E+04-9.45403E+03-6.95529E+02-1.96488E+04-7.58405E-10 2.69984E-09
 -1       602-3.56384E+04-1.15553E+04-1.51682E+03-2.19545E+04-3.40151E-10-4.45732E-09
 -1       603-3.73671E+04-9.46002E+03-3.04234E+03-1.96044E+04-2.23235E-09-6.65614E-09
 -1       604-3.75246E+04-1.35096E+04-7.30821E+03-2.18520E+04 1.43700E-10 1.86083E-09
 -1       605-3.59948E+04-1.04600E+04-1.34925E+04-1.86366E+04 4.77598E-10 1.51067E-09
 -1       606 2.35724E+04-7.95501E+03-1.43260E+04 2.30233E+04-3.63252E-09 1.79080E-09
 -1       607 2.11189E+04-2.56595E+03-7.13354E+03 2.58449E+04-2.40379E-09-2.16028E-09
 -1       608 2.25120E+04-4.32236E+02-3.19443E+03 2.28397E+04 2.54113E-09 1.10049E-09
 -1       609 2.22350E+04-1.12193E+02-1.61346E+03 2.60476E+04-4.30646E-10 3.13810E-09
 -1       610 2.23843E+04 2.09528E+01-7.70656E+02 2.28191E+04-3.76622E-09 5.08635E-10
 -1       611 2.23320E+04 3.12437E+01-3.88735E+02 2.60698E+04-7.46923E-09-5.88898E-11
 -1       612 2.23507E+04 3.32251E+01-1.86006E+02 2.28171E+04-4.29463E-09-1.21531E-09
 -1       613 2.23308E+04 3.78331E+01-8.48453E+01 2.60724E+04-5.75301E-09-3.01270E-09
 -1       614 2.23325E+04 3.34886E+01-2.37717E+01 2.28164E+04 7.02130E-10 5.09226E-09
 -1       615 2.23216E+04 4.20331E+01 2.62218E+01 2.60728E+04 6.26983E-09-1.05683E-09
 -1       616 2.23187E+04 3.79638E+01 8.72347E+01 2.28167E+04-3.09865E-09-1.57229E-09
 -1       617 2.23273E+04 6.37248E+01 2.02424E+02 2.60724E+04-1.63232E-09-8.18613E-09
 -1       618 2.22974E+04 9.86983E+01 4.09244E+02 2.28168E+04-6.06178E-10-2.99406E-09
 -1       619 2.24689E+04 3.82175E+02 9.19836E+02 2.60718E+04-9.36666E-10 1.26215E-09
 -1       620 2.21595E+04 1.07127E+03 1.84906E+03 2.28159E+04 1.47384E-09-2.02908E-09
 -1       621 2.86452E+02 1.79786E+05 2.48472E+03 5.92886E+03-1.61521E-10-4.71800E-10
 -1       622 3.27474E+02 1.80402E+05 2.10966E+03 8.65858E+03-2.32092E-10-6.80018E-10
 -1       623 1.33989E+01 1.79963E+05 2.42709E+03 5.90106E+03-1.42109E-10 3.62047E-09
 -1       624 1.09785E+03 1.81109E+05 4.60974E+03 8.68572E+03-1.73998E-10-5.94096E-09
 -1       625 1.10249E+03 1.79076E+05 8.01421E+03 5.90201E+03-3.04681E-11-2.28229E-09
 -1       626 1.48327E+05 4.11172E+04 2.95200E+03 8.02200E+04-2.60297E-09-9.11859E-09
 -1       627 1.46295E+05 4.26155E+04 1.42234E+03 8.34634E+04 9.41782E-10 3.53316E-09
 -1       628 1.48439E+05 3.97197E+04 6.00804E+02 8.06649E+04 4.54565E-09 9.28844E-09
 -1       629 1.45869E+05 4.22801E+04 2.94462E+02 8.36581E+04 3.70346E-09 9.28640E-09
 -1       630 1.48447E+05 3.96534E+04 1.36179E+02 8.06768E+04 8.36735E-10-2.69790E-09
 -1       631 1.45817E+05 4.22726E+04 7.32551E+01 8.36602E+04 3.79259E-10 7.69262E-10
 -1       632 1.48439E+05 3.96585E+04 4.84068E+01 8.06703E+04-7.26959E-09-1.23719E-08
 -1       633 1.45806E+05 4.22769E+04 5.41464E+01 8.36545E+04-5.34624E-09-7.16966E-10
 -1       634 1.48431E+05 3.96592E+04 8.77209E+01 8.06666E+04 2.20552E-09 3.98757E-09
 -1       635 1.45810E+05 4.22783E+04 1.77936E+02 8.36541E+04 1.84798E-09-1.50590E-09
 -1       636 1.48422E+05 3.96585E+04 3.59428E+02 8.06639E+04-8.70170E-09 3.67891E-09
 -1       637 1.45883E+05 4.23357E+04 7.89985E+02 8.36503E+04-9.95149E-09 2.38435E-08
 -1       638 1.48390E+05 3.98349E+04 1.62362E+03 8.05824E+04-8.23559E-09 6.91807E-09
 -1       639 1.46732E+05 4.35236E+04 3.84100E+03 8.33976E+04-2.80511E-09 5.34192E-09
 -1       640 1.48276E+05 4.33707E+04 7.97114E+03 7.90808E+04-5.07998E-09-3.28123E-09
 -1       656 4.02124E+04-1.01770E+06-9.70785E+04-4.06678E+02 6.18456E-10-8.47416E-09
 -1       657-5.31354E+04-1.06153E+06-8.02828E+04 6.60738E+03 4.49290E-10-5.02055E-10
 -1       658 1.27495E+04-1.03021E+06-4.92648E+04-1.27879E+03 5.95719E-10-2.50729E-10
 -1       659-5.69660E+04-1.06334E+06-8.53140E+04 7.18649E+03-2.05546E-10-2.40274E-10
 -1       660 4.40334E+04-1.01590E+06-1.05735E+05-9.85773E+02 9.82254E-11 1.27764E-09
 -1       661 1.44295E+05 1.57049E+04 1.38389E+04 5.63813E+04 1.13255E-09 3.43880E-09
 -1       662 1.51497E+05 2.65652E+04 9.32507E+03 5.39821E+04 1.83098E-09 3.26145E-09
 -1       663 1.47006E+05 2.01507E+04 3.26199E+03 5.56001E+04 3.13196E-09 6.00130E-09
 -1       664 1.48360E+05 2.13601E+04 1.95022E+03 5.49308E+04 1.54054E-09 7.93790E-10
 -1       665 1.47411E+05 2.07639E+04 7.69310E+02 5.54878E+04-1.95845E-09-4.26212E-10
 -1       666 1.47886E+05 2.06538E+04 4.48586E+02 5.50738E+04-5.70610E-09 3.90865E-09
 -1       667 1.47477E+05 2.08385E+04 2.36502E+02 5.54640E+04-5.42045E-09 5.55147E-10
 -1       668 1.47816E+05 2.05936E+04 2.36841E+02 5.51072E+04 1.76797E-10 9.46965E-10
 -1       669 1.47481E+05 2.08224E+04 3.17317E+02 5.54549E+04 3.59213E-09 4.67354E-09
 -1       670 1.47898E+05 2.07592E+04 6.87776E+02 5.51042E+04 9.97846E-09-3.40133E-09
 -1       671 1.47396E+05 2.06762E+04 1.22019E+03 5.54657E+04-2.18570E-10-3.94783E-09
 -1       672 1.48612E+05 2.19436E+04 3.12098E+03 5.49296E+04-1.71197E-09 3.43249E-09
 -1       673 1.46771E+05 1.96679E+04 5.22997E+03 5.56182E+04-2.94852E-09 2.87878E-09
 -1       674 1.53593E+05 3.03425E+04 1.49568E+04 5.34630E+04 2.21178E-09-1.24396E-09
 -1       675 1.42446E+05 1.25121E+04 2.22003E+04 5.68438E+04 9.09495E-13 3.04044E-09
 -1       676 1.63781E+01-1.95294E+05-7.60405E+02 3.30228E+01-2.18512E-09-2.53978E-10
 -1       677-2.01818E+02-1.95478E+05-1.39161E+03-6.60202E+01-4.25152E-09 5.60073E-09
 -1       678 1.34792E+02-1.95163E+05-2.45999E+03 3.29746E+01-3.02180E-10 1.96303E-09
 -1       679-2.46041E+03-1.96963E+05-5.84362E+03-6.58273E+01-2.99531E-09-2.83829E-09
 -1       680 1.46837E+03-1.93809E+05-9.41799E+03 3.24515E+01-2.52840E-09-4.92622E-09
 -1       771-2.09829E+06-3.67833E+05-5.16025E+04-8.70908E+05-1.14305E-08-1.36060E-08
 -1       772-2.08513E+06-3.95494E+05-2.76558E+04-9.01748E+05-5.44242E-09 7.52789E-09
 -1       773-2.10540E+06-3.62303E+05-1.20007E+04-8.73791E+05-3.89991E-09 4.43470E-09
 -1       774-2.07773E+06-3.89466E+05-5.82438E+03-9.05047E+05 6.51926E-09-8.24002E-10
 -1       775-2.10713E+06-3.61185E+05-2.99753E+03-8.73992E+05-7.05040E-09 2.24099E-09
 -1       776-2.07762E+06-3.89524E+05-1.36741E+03-9.06863E+05-1.43518E-08 1.67347E-10
 -1       777-2.10833E+06-3.60309E+05-8.84195E+02-8.74096E+05-2.51748E-09 2.99769E-09
 -1       778-2.07794E+06-3.89759E+05-3.81285E+02-9.08378E+05 1.83354E-09 3.52293E-09
 -1       779-2.10929E+06-3.59563E+05-3.92803E+02-8.74190E+05-2.23372E-09-2.03636E-09
 -1       780-2.07828E+06-3.89953E+05-2.84193E+02-9.09604E+05-2.72848E-10-1.15506E-10
 -1       781-2.11002E+06-3.58968E+05-5.12251E+02-8.74261E+05-6.96673E-09-1.22145E-09
 -1       782-2.07862E+06-3.90138E+05-9.00837E+02-9.10507E+05-7.10315E-09-2.86343E-09
 -1       783-2.11046E+06-3.58576E+05-1.80591E+03-8.74292E+05-1.63709E-10-3.92708E-09
 -1       784-2.07987E+06-3.91369E+05-4.26406E+03-9.11008E+05-5.19231E-09-2.53976E-10
 -1       785-2.10993E+06-3.58943E+05-7.88768E+03-8.73743E+05-9.31595E-09 1.11868E-09
 -1       786 1.53228E+05-8.17739E+03 1.89183E+04-3.36471E+00 4.48229E-07 7.27050E-09
 -1       787 1.61425E+05 9.46687E+03 1.33844E+04-9.56916E-01 8.92373E-07 6.40830E-09
 -1       788 1.56391E+05-1.28190E+03 4.89656E+03-3.17200E-01 1.02628E-06-2.88264E-09
 -1       789 1.57741E+05 1.48324E+03 3.07657E+03-7.28727E+00 1.15990E-06 2.43244E-09
 -1       790 1.56913E+05-2.00255E+02 1.25190E+03 2.96562E+00 1.39074E-06-7.59388E-09
 -1       791 1.57132E+05 2.32682E+02 7.35125E+02-1.50024E+01 1.62373E-06 1.83809E-08
 -1       792 1.57000E+05-3.22864E+01 3.35697E+02 7.39805E+00 2.10907E-06-6.28950E-09
 -1       793 1.57034E+05 4.54327E+01 2.20360E+02-2.61720E+01 2.59030E-06 1.62598E-09
 -1       794 1.57011E+05-1.31298E+01 1.63818E+02 1.41354E+01 1.29622E-06-3.29425E-09
 -1       795 1.57044E+05 6.79658E+01 2.37809E+02-4.36864E+01 4.51857E-09 7.66819E-09
 -1       796 1.56990E+05-5.48031E+01 3.56726E+02 2.49127E+01 3.97541E-10-6.55604E-09
 -1       797 1.57206E+05 4.01808E+02 8.41543E+02-7.20627E+01-2.87349E-10-6.03391E-09
 -1       798 1.56849E+05-3.46727E+02 1.32846E+03 4.25122E+01-8.33622E-11 2.67653E-09
 -1       799 1.58203E+05 2.56012E+03 3.62178E+03-1.18895E+02-6.07026E-10 3.17783E-09
 -1       800 1.55993E+05-2.21138E+03 5.11601E+03 7.17455E+01-2.50684E-10 4.27372E-09
 -1       801-8.27577E+03-4.80382E+04 6.44596E+03 1.68374E+04 9.17089E-09-2.90811E-09
 -1       802 2.16576E+04 3.91116E+04 4.32261E+04-6.79261E+04 2.45518E-08-7.03176E-09
 -1       803-1.25994E+04-1.27539E+04 5.52235E+04 1.65876E+04 1.93904E-08 1.61888E-08
 -1       804 1.09731E+05 8.86726E+04 1.58892E+05-6.87328E+04 2.27810E-08 2.21466E-08
 -1       805-9.64276E+04-9.73041E+04 2.00349E+05 1.76411E+04 8.07631E-09 2.18199E-08
 -1       806-1.79865E+05-3.85385E+04-1.52911E+04-7.49019E+04-1.14687E-09-3.17823E-09
 -1       807-1.80764E+05-3.63496E+04-7.51217E+03-7.89572E+04 4.78940E-09 1.13687E-09
 -1       808-1.80299E+05-3.30144E+04-3.18667E+03-7.74958E+04 8.45830E-10 2.48203E-09
 -1       809-1.79161E+05-3.42637E+04-1.55787E+03-7.91735E+04 3.40037E-10-1.08616E-09
 -1       810-1.80367E+05-3.28195E+04-7.13334E+02-7.76102E+04-2.87605E-09-3.27736E-09
 -1       811-1.79039E+05-3.41812E+04-3.53765E+02-7.91552E+04-4.33192E-09-8.02197E-09
 -1       812-1.80379E+05-3.28340E+04-1.76535E+02-7.76100E+04-1.26010E-09 1.26397E-09
 -1       813-1.79023E+05-3.41833E+04-1.11345E+02-7.91455E+04-9.48148E-11-6.04848E-09
 -1       814-1.80377E+05-3.28395E+04-1.04380E+02-7.76076E+04-1.18462E-09 2.03977E-09
 -1       815-1.79024E+05-3.41851E+04-1.63331E+02-7.91427E+04-4.60932E-09-5.36204E-09
 -1       816-1.80366E+05-3.28383E+04-3.05994E+02-7.76054E+04-2.06683E-09 3.39696E-10
 -1       817-1.79077E+05-3.42144E+04-6.56010E+02-7.91370E+04 2.96291E-09 1.45565E-09
 -1       818-1.80327E+05-3.29304E+04-1.33694E+03-7.75618E+04 1.17279E-09 2.56932E-10
 -1       819-1.79815E+05-3.50167E+04-3.14655E+03-7.89580E+04-2.03499E-10-2.38879E-09
 -1       820-1.80072E+05-3.53096E+04-6.40378E+03-7.65477E+04 8.00355E-11 3.50951E-10
 -1       821-2.32711E+05 1.29126E+04-2.98633E+04 5.96173E+01-4.36023E-10-2.75577E-09
 -1       822-2.45653E+05-1.49486E+04-2.11324E+04-4.93495E+02-1.96126E-09-8.02629E-11
 -1       823-2.37706E+05 2.02431E+03-7.73473E+03 2.20793E+01 9.19764E-10 3.42970E-09
 -1       824-2.39830E+05-2.34307E+03-4.86686E+03-3.60720E+02-2.09706E-10 5.04150E-09
 -1       825-2.38532E+05 3.16833E+02-2.00011E+03-7.31622E+01-3.00125E-09-1.25965E-09
 -1       826-2.38868E+05-3.73703E+02-1.20803E+03-1.47467E+02-5.11824E-09-1.99297E-09
 -1       827-2.38667E+05 5.62885E+01-6.24698E+02-1.91178E+02-3.67925E-09-9.10242E-09
 -1       828-2.38738E+05-1.14055E+02-5.52860E+02 6.95636E+01-4.82354E-09 1.26607E-09
 -1       829-2.38663E+05 5.74196E+01-6.33727E+02-2.90197E+02-1.78645E-10 6.13359E-09
 -1       830-2.38883E+05-3.82833E+02-1.23777E+03 2.13578E+02 2.24968E-09 5.96461E-09
 -1       831-2.38522E+05 3.25000E+02-2.04938E+03-3.35195E+02-2.28083E-09 2.52498E-10
 -1       832-2.39867E+05-2.40342E+03-4.99388E+03 2.34145E+02-9.63501E-10 4.21113E-09
 -1       833-2.37679E+05 2.07657E+03-7.93538E+03-3.10763E+02-1.40296E-09-9.30868E-10
 -1       834-2.45830E+05-1.53362E+04-2.16810E+04 1.26166E+02-6.43741E-10 1.33514E-09
 -1       835-2.32560E+05 1.32477E+04-3.06410E+04-2.27208E+02 3.66646E-09-2.92857E-09
 -1       836-7.74879E+02 2.20434E+05 1.32762E+04-1.93858E+04 1.69348E-09 4.98130E-09
 -1       837 2.92527E+03 2.24544E+05 1.13288E+04-3.89357E+04 2.15391E-09 2.91300E-09
 -1       838-2.83341E+02 2.21579E+05 1.16741E+04-1.93201E+04 2.10230E-09 1.98565E-09
 -1       839 7.49303E+03 2.27951E+05 2.22133E+04-3.89590E+04 2.68210E-09-1.83284E-09
 -1       840-2.25053E+03 2.16999E+05 3.54749E+04-1.93611E+04 1.86810E-09 3.17641E-09
 -1       856-7.26204E+04 6.22087E+03-1.63933E+04-3.65255E+02-3.35638E-09-1.92631E-09
 -1       857-7.93927E+04-7.29621E+03-1.12866E+04 3.73951E+03-1.71394E-09 8.25821E-10
 -1       858-7.52959E+04 8.71694E+02-4.25453E+03-3.80860E+02-2.48758E-09 5.65933E-10
 -1       859-7.63197E+04-1.01363E+03-2.56969E+03 3.76437E+03-2.62474E-11-1.10850E-09
 -1       860-7.56960E+04 1.21252E+02-1.08053E+03-3.90223E+02 1.05501E-10-4.68049E-09
 -1       861-7.58587E+04-1.34143E+02-6.02014E+02 3.77715E+03-4.31559E-09-4.28560E-09
 -1       862-7.57583E+04 1.60962E+01-2.65456E+02-3.93668E+02 3.89752E-09-2.19113E-09
 -1       863-7.57851E+04-1.01307E+01-1.31216E+02 3.77869E+03 1.05817E-08-4.71263E-09
 -1       864-7.57698E+04-4.76942E-02-4.10816E+01-3.91759E+02 5.00590E-09-4.55712E-09
 -1       865-7.57637E+04 1.83833E+01 2.49178E+01 3.76906E+03 3.75830E-09-1.63554E-09
 -1       866-7.57786E+04-1.27302E+01 9.02013E+01-3.84038E+02-3.32199E-09-2.99334E-09
 -1       867-7.57111E+04 1.06983E+02 2.47498E+02 3.74813E+03 2.94722E-09-8.51017E-10
 -1       868-7.58201E+04-8.80326E+01 4.17617E+02-3.70826E+02 6.23913E-10-2.49358E-09
 -1       869-7.53980E+04 7.30365E+02 1.12106E+03 3.71328E+03-6.14079E-10-1.79614E-09
 -1       870-7.60881E+04-6.20612E+02 1.62601E+03-3.49194E+02 1.11947E-09-7.31296E-09
 -1       871-3.40706E+03-7.08269E+03-1.10510E+04 7.24308E+04 3.33057E-09 3.12320E-09
 -1       872-1.48609E+03-9.55242E+03-4.50040E+03 9.39011E+04 5.27643E-09-3.32875E-10
 -1       873-3.96657E+01-8.39633E+03 6.55518E+02 7.22710E+04 2.60411E-09 2.22144E-10
 -1       874 1.69629E+03-6.78162E+03 6.29709E+03 9.39349E+04 4.75529E-09-2.95404E-09
 -1       875 4.03442E+03-9.89264E+03 1.39570E+04 7.24037E+04 1.90084E-09-2.00089E-09
 -1       876 1.81273E+05 3.12631E+04 9.71846E+03 7.35768E+04-4.46221E-09-3.12411E-09
 -1       877 1.81823E+05 3.34025E+04 5.18983E+03 7.64579E+04-5.11136E-09-5.39876E-09
 -1       878 1.82182E+05 3.01871E+04 2.17432E+03 7.43748E+04 4.86284E-09 3.14117E-09
 -1       879 1.80500E+05 3.20861E+04 1.08310E+03 7.65274E+04 2.72996E-09 3.12116E-09
 -1       880 1.82248E+05 3.01748E+04 5.04245E+02 7.44073E+04 4.94538E-09 9.93282E-10
 -1       881 1.80413E+05 3.20303E+04 2.68513E+02 7.65141E+04 7.05813E-09-6.56566E-09
 -1       882 1.82255E+05 3.01826E+04 1.70503E+02 7.44082E+04 4.45061E-09-4.12744E-09
 -1       883 1.80406E+05 3.20278E+04 1.81218E+02 7.65104E+04 4.36017E-09 5.38161E-09
 -1       884 1.82252E+05 3.01805E+04 2.86406E+02 7.44083E+04 1.13130E-09-7.23639E-09
 -1       885 1.80429E+05 3.20319E+04 5.74670E+02 7.65177E+04 4.61989E-09 5.66780E-09
 -1       886 1.82230E+05 3.01637E+04 1.15769E+03 7.44061E+04 1.55703E-09-3.73291E-09
 -1       887 1.80633E+05 3.21652E+04 2.52865E+03 7.65468E+04-2.69551E-09-4.39968E-09
 -1       888 1.82070E+05 3.01920E+04 5.09530E+03 7.43251E+04-2.30446E-09-6.59793E-09
 -1       889 1.83669E+05 3.53173E+04 1.21724E+04 7.64500E+04-1.06317E-09-6.97582E-10
 -1       890 1.79993E+05 3.26582E+04 2.27978E+04 7.23817E+04 2.56318E-09 4.56566E-10
 -1       891-1.14149E+02-1.03103E+05-1.21482E+03 1.96385E+04-6.91216E-10 2.79238E-09
 -1       892-1.98310E+02-1.03394E+05-1.32265E+03 2.97172E+04-3.14640E-09 1.19417E-09
 -1       893-3.28871E+01-1.03142E+05-1.89100E+03 1.96422E+04 2.68460E-09 2.70984E-09
 -1       894-1.03515E+03-1.04122E+05-3.92732E+03 2.96118E+04 2.41016E-11 6.83121E-09
 -1       895-8.07817E+02-1.02327E+05-6.92065E+03 1.97425E+04-3.98302E-10-2.15732E-09
 -1       956-2.27733E+05-3.28505E+03-8.27435E+03 1.50433E+04 1.11413E-08-4.61762E-09
 -1       957-2.29367E+05-1.10706E+03-4.24781E+03 1.81133E+04 2.61541E-08 7.63521E-10
 -1       958-2.28466E+05-8.69671E+01-1.91368E+03 1.49449E+04 1.58584E-08-4.89695E-09
 -1       959-2.28596E+05-1.40612E+01-9.77500E+02 1.82196E+04 8.26731E-10 1.92517E-09
 -1       960-2.28531E+05 2.83678E+01-4.76417E+02 1.49356E+04-4.13820E-11 6.42774E-09
 -1       961-2.28539E+05 2.66191E+01-2.52599E+02 1.82300E+04-4.70959E-09 5.09897E-09
 -1       962-2.28543E+05 2.46502E+01-1.44187E+02 1.49343E+04-1.48839E-09-1.47054E-09
 -1       963-2.28536E+05 2.73886E+01-1.15041E+02 1.82318E+04-4.24234E-09 2.18483E-09
 -1       964-2.28546E+05 2.61249E+01-1.38745E+02 1.49338E+04-6.02085E-10 4.59681E-09
 -1       965-2.28545E+05 2.98850E+01-2.38981E+02 1.82319E+04 3.20586E-09 2.58854E-09
 -1       966-2.28539E+05 3.27042E+01-4.48124E+02 1.49342E+04-2.16869E-09-1.93609E-09
 -1       967-2.28604E+05-5.13006E+00-9.18868E+02 1.82263E+04 2.05546E-10-4.27985E-09
 -1       968-2.28483E+05-7.26596E+01-1.79800E+03 1.49395E+04 9.85665E-10-6.12204E-11
 -1       969-2.29335E+05-1.02955E+03-3.99206E+03 1.81644E+04 3.87899E-10 2.28255E-09
 -1       970-2.27798E+05-3.07631E+03-7.77552E+03 1.49984E+04 1.16711E-09 3.45563E-09
 -1       971-2.16422E+05-1.14356E+03-6.36904E+03 1.05984E+04-4.10319E-09-4.89086E-09
 -1       972-2.17972E+05-8.19415E+02-3.46873E+03 1.48035E+04-4.68026E-09-5.55247E-10
 -1       973-2.17129E+05-6.15194E+00-1.55301E+03 1.05105E+04-2.65936E-09 3.22643E-09
 -1       974-2.17237E+05-6.41730E+00-8.04588E+02 1.48980E+04 1.41517E-09 6.85731E-09
 -1       975-2.17183E+05 2.28235E+01-4.01091E+02 1.05029E+04 2.11276E-09 7.89100E-09
 -1       976-2.17192E+05 2.61844E+01-2.29660E+02 1.49071E+04-2.13549E-09-8.91646E-10
 -1       977-2.17193E+05 2.20905E+01-1.63425E+02 1.05013E+04 1.32536E-09-2.37833E-10
 -1       978-2.17194E+05 2.94488E+01-1.86884E+02 1.49093E+04 9.59216E-09-5.62136E-09
 -1       979-2.17192E+05 2.68650E+01-2.96447E+02 1.05007E+04 5.76949E-09-1.75055E-09
 -1       980-2.17216E+05 3.11567E+01-5.70010E+02 1.49096E+04 1.41058E-09-1.34486E-09
 -1       981-2.17174E+05 4.10857E+01-1.10267E+03 1.05010E+04-1.40324E-09 5.96145E-10
 -1       982-2.17367E+05-5.00272E+01-2.27846E+03 1.49053E+04-2.52339E-09-4.49725E-09
 -1       983-2.17036E+05-2.90702E+01-4.42657E+03 1.05051E+04 2.74804E-09 2.01294E-09
 -1       984-2.19497E+05-2.36107E+03-9.91252E+03 1.48458E+04 2.06603E-09 2.87775E-09
 -1       985-2.15033E+05-3.26773E+03-1.82026E+04 1.05647E+04 2.32785E-09 2.05273E-09
 -3
    1PSTEP                         7           4           1          
  100CL  104 4.55078E-01         409                     0    4           1
 -4  DISP        4    1
 -5  D1          1    2    1    0
 -5  D2          1    2    2    0
 -5  D3          1    2    3    0
 -5  ALL         1    2    0    0    1ALL
 -1         1 1.21369E-04 0.00000E+00 0.00000E+00
 -1         2 1.12288E-04 1.59633E-30 1.65436E-24
 -1         3 1.04607E-04-3.14707E-27 0.00000E+00
 -1         5 7.45124E-05 4.46447E-27-3.30872E-24
 -1         8 9.74320E-05-8.68435E-07 0.00000E+00
 -1         9 9.86717E-05 4.85749E-07 0.00000E+00
 -1        10 9.68337E-05-1.42685E-06-6.61744E-24
 -1        12 7.40222E-05 4.96982E-07 0.00000E+00
 -1        15 6.88902E-05-9.57198E-07-4.13590E-25
 -1        16 7.00767E-05 3.35073E-07 0.00000E+00
 -1        17 7.19690E-05-3.01068E-06 0.00000E+00
 -1        18 7.15907E-05 5.44870E-07 0.00000E+00
 -1        19 7.25518E-05 9.91212E-07 0.00000E+00
 -1        20 7.26801E-05 1.43819E-05 0.00000E+00
 -1        21 7.21942E-05 2.71314E-05-1.65436E-24
 -1        24 1.80405E-05-4.09233E-06 0.00000E+00
 -1        25 7.00689E-05 6.59412E-07 0.00000E+00
 -1        26 7.09742E-05 1.38074E-06 0.00000E+00
 -1        27 6.95986E-05 1.21734E-05 0.00000E+00
 -1        28 6.91565E-05 2.67074E-05 0.00000E+00
 -1        32 0.00000E+00 0.00000E+00 0.00000E+00
 -1        33 6.82144E-05 1.85100E-06 0.00000E+00
 -1        34 6.68863E-05 1.21535E-05 0.00000E+00
 -1        35 6.56239E-05 2.64834E-05 0.00000E+00
 -1        51 1.19815E-04-1.42659E-07 0.00000E+00
 -1        52 1.16932E-04-2.81604E-07 0.00000E+00
 -1        53 1.12980E-04-4.22001E-07 0.00000E+00
 -1        54 1.08232E-04-5.65249E-07 3.30872E-24
 -1        55 1.02959E-04-7.12069E-07-3.92911E-24
 -1        56 1.20284E-04-7.33584E-07 2.64698E-23
 -1        57 1.19354E-04-2.00489E-06 0.00000E+00
 -1        58 1.18572E-04-3.66593E-06 0.00000E+00
 -1        59 1.17876E-04-5.57679E-06 1.32349E-23
 -1        60 1.17213E-04-7.57697E-06-2.64698E-23
 -1        61 1.16521E-04-9.50634E-06-1.32349E-23
 -1        62 1.15745E-04-1.12083E-05-2.64698E-23
 -1        63 1.14828E-04-1.25334E-05 1.32349E-23
 -1        64 1.13721E-04-1.33542E-05 2.64698E-23
 -1        65 1.12384E-04-1.35577E-05-1.32349E-23
 -1        66 1.10786E-04-1.30675E-05 0.00000E+00
 -1        67 1.08907E-04-1.18269E-05 0.00000E+00
 -1        68 1.06740E-04-9.82375E-06 2.64698E-23
 -1        69 1.04295E-04-7.06559E-06 0.00000E+00
 -1        70 1.01584E-04-3.60931E-06 0.00000E+00
 -1        86 1.11934E-04 8.89750E-08 0.00000E+00
 -1        87 1.10873E-04 1.76944E-07 8.27181E-25
 -1        88 1.09069E-04 2.63809E-07-8.27181E-25
 -1        89 1.06484E-04 3.45731E-07-2.06795E-25
 -1        90 1.03044E-04 4.26283E-07 3.30872E-24
 -1       121 1.04390E-04-2.36668E-07 6.61744E-24
 -1       122 1.03740E-04-4.73522E-07 3.30872E-24
 -1       123 1.02657E-04-7.10746E-07 0.00000E+00
 -1       124 1.01143E-04-9.48559E-07-3.30872E-24
 -1       125 9.92008E-05-1.18707E-06 0.00000E+00
 -1       191 7.44988E-05 8.28374E-08-3.30872E-24
 -1       192 7.44580E-05 1.65673E-07-1.65436E-24
 -1       193 7.43899E-05 2.48508E-07 0.00000E+00
 -1       194 7.42946E-05 3.31339E-07-4.96308E-24
 -1       195 7.41720E-05 4.14164E-07 0.00000E+00
 -1       251 9.74880E-05 3.05922E-06-3.30872E-24
 -1       252 9.75656E-05 5.35683E-06 0.00000E+00
 -1       253 9.76443E-05 6.30970E-06-8.27181E-25
 -1       254 9.77265E-05 6.19825E-06 0.00000E+00
 -1       255 9.78085E-05 5.25652E-06-1.65436E-24
 -1       256 9.78904E-05 3.71569E-06 0.00000E+00
 -1       257 9.79717E-05 1.78058E-06 3.30872E-24
 -1       258 9.80527E-05-3.45290E-07 0.00000E+00
 -1       259 9.81337E-05-2.46690E-06 0.00000E+00
 -1       260 9.82151E-05-4.38914E-06 0.00000E+00
 -1       261 9.82969E-05-5.90813E-06 0.00000E+00
 -1       262 9.83789E-05-6.81863E-06 8.27181E-25
 -1       263 9.84611E-05-6.88865E-06-8.27181E-25
 -1       264 9.85395E-05-5.88326E-06 0.00000E+00
 -1       265 9.86168E-05-3.52068E-06 0.00000E+00
 -1       266 9.26750E-05-8.95013E-07 0.00000E+00
 -1       267 8.79181E-05-9.08371E-07-1.65436E-24
 -1       268 8.31611E-05-9.22565E-07 1.65436E-24
 -1       269 7.84041E-05-9.34280E-07 0.00000E+00
 -1       270 7.36472E-05-9.45936E-07 0.00000E+00
 -1       271 9.44694E-05 2.67512E-06-2.64698E-23
 -1       272 9.19360E-05 4.93983E-06-1.32349E-23
 -1       273 8.98342E-05 6.06665E-06 0.00000E+00
 -1       274 8.80986E-05 6.19752E-06-2.64698E-23
 -1       275 8.66723E-05 5.50271E-06 5.29396E-23
 -1       276 8.54848E-05 4.16613E-06 0.00000E+00
 -1       277 8.44626E-05 2.38685E-06-5.29396E-23
 -1       278 8.35280E-05 3.72467E-07 2.64698E-23
 -1       279 8.26016E-05-1.66411E-06 0.00000E+00
 -1       280 8.16040E-05-3.50944E-06 2.64698E-23
 -1       281 8.04569E-05-4.95460E-06-5.29396E-23
 -1       282 7.90857E-05-5.79846E-06 2.64698E-23
 -1       283 7.74192E-05-5.85378E-06-5.29396E-23
 -1       284 7.53968E-05-4.94721E-06-2.64698E-23
 -1       285 7.29542E-05-2.93100E-06 0.00000E+00
 -1       301 9.37957E-05 4.54518E-07 0.00000E+00
 -1       302 8.89295E-05 4.37712E-07 0.00000E+00
 -1       303 8.40987E-05 4.21439E-07-3.30872E-24
 -1       304 7.93292E-05 4.03760E-07 3.30872E-24
 -1       305 7.46467E-05 3.84074E-07 1.32349E-23
 -1       306 9.55971E-05 4.14161E-06 0.00000E+00
 -1       307 9.29695E-05 6.46925E-06-2.64698E-23
 -1       308 9.08768E-05 7.38889E-06-5.29396E-23
 -1       309 8.93181E-05 6.86132E-06 0.00000E+00
 -1       310 8.82353E-05 5.06215E-06 0.00000E+00
 -1       311 8.75392E-05 2.22168E-06 2.64698E-23
 -1       312 8.70887E-05-1.27875E-06 0.00000E+00
 -1       313 8.67304E-05-5.02814E-06 0.00000E+00
 -1       314 8.62983E-05-8.57901E-06-5.29396E-23
 -1       315 8.56296E-05-1.14930E-05 0.00000E+00
 -1       316 8.45945E-05-1.34244E-05 5.29396E-23
 -1       317 8.30810E-05-1.40720E-05 0.00000E+00
 -1       318 8.10420E-05-1.33203E-05 5.29396E-23
 -1       319 7.84652E-05-1.11134E-05 0.00000E+00
 -1       320 7.53944E-05-7.61258E-06 2.64698E-23
 -1       336 9.39889E-05-1.68652E-06-6.61744E-24
 -1       337 9.06146E-05-1.94813E-06 0.00000E+00
 -1       338 8.67170E-05-2.21148E-06 0.00000E+00
 -1       339 8.23041E-05-2.47651E-06-3.30872E-24
 -1       340 7.73847E-05-2.74385E-06 6.61744E-24
 -1       406 7.38452E-05 5.79785E-07 0.00000E+00
 -1       407 7.36409E-05 6.62556E-07 1.65436E-24
 -1       408 7.34094E-05 7.45271E-07 0.00000E+00
 -1       409 7.31506E-05 8.27826E-07 0.00000E+00
 -1       410 7.28647E-05 9.10061E-07 0.00000E+00
 -1       521 6.69429E-05 2.52387E-07-5.29396E-23
 -1       522 6.62983E-05-6.79280E-06 2.64698E-23
 -1       523 6.77586E-05-1.95762E-05 0.00000E+00
 -1       524 7.06759E-05-3.64554E-05-5.29396E-23
 -1       525 7.41637E-05-5.49306E-05 1.05879E-22
 -1       526 7.72819E-05-7.23794E-05 5.29396E-23
 -1       527 7.91638E-05-8.63913E-05 0.00000E+00
 -1       528 7.90174E-05-9.48326E-05 0.00000E+00
 -1       529 7.64418E-05-9.67212E-05-1.05879E-22
 -1       530 7.12141E-05-9.15918E-05-5.29396E-23
 -1       531 6.36602E-05-8.04170E-05 0.00000E+00
 -1       532 5.43078E-05-6.46342E-05 0.00000E+00
 -1       533 4.40752E-05-4.66180E-05 1.05879E-22
 -1       534 3.39809E-05-2.89050E-05 0.00000E+00
 -1       535 2.49799E-05-1.39865E-05 5.29396E-23
 -1       536 7.19276E-05 2.11764E-06 3.30872E-24
 -1       537 7.18975E-05 6.18557E-06 8.27181E-25
 -1       538 7.18705E-05 9.22767E-06-1.65436E-24
 -1       539 7.18472E-05 1.12795E-05 0.00000E+00
 -1       540 7.18254E-05 1.24217E-05 0.00000E+00
 -1       541 7.18043E-05 1.27359E-05 4.13590E-25
 -1       542 7.17833E-05 1.23411E-05 8.27181E-25
 -1       543 7.17620E-05 1.13570E-05 0.00000E+00
 -1       544 7.17401E-05 9.93013E-06-8.27181E-25
 -1       545 7.17179E-05 8.20721E-06 4.13590E-25
 -1       546 7.16954E-05 6.34852E-06-4.13590E-25
 -1       547 7.16731E-05 4.51444E-06 0.00000E+00
 -1       548 7.16510E-05 2.86416E-06 0.00000E+00
 -1       549 7.16299E-05 1.55680E-06-1.03398E-25
 -1       550 7.16091E-05 7.35995E-07 1.03398E-25
 -1       551 6.48364E-05-3.17253E-06-6.61744E-24
 -1       552 5.63074E-05-3.34195E-06 8.27181E-25
 -1       553 4.68694E-05-3.51901E-06-6.61744E-24
 -1       554 3.70167E-05-3.70209E-06-3.30872E-24
 -1       555 2.72434E-05-3.88709E-06 0.00000E+00
 -1       556 7.00889E-05 1.85765E-06-1.32349E-23
 -1       557 6.86495E-05 5.58783E-06 0.00000E+00
 -1       558 6.76026E-05 8.28423E-06 0.00000E+00
 -1       559 6.69045E-05 1.00594E-05 0.00000E+00
 -1       560 6.65114E-05 1.10259E-05 1.32349E-23
 -1       561 6.63801E-05 1.12965E-05 0.00000E+00
 -1       562 6.64674E-05 1.09845E-05 0.00000E+00
 -1       563 6.67307E-05 1.02031E-05 0.00000E+00
 -1       564 6.71272E-05 9.06565E-06-3.30872E-24
 -1       565 6.76144E-05 7.68557E-06 0.00000E+00
 -1       566 6.81500E-05 6.17630E-06 0.00000E+00
 -1       567 6.86914E-05 4.65131E-06 2.06795E-25
 -1       568 6.91963E-05 3.22405E-06 0.00000E+00
 -1       569 6.96223E-05 2.00782E-06 0.00000E+00
 -1       570 6.99270E-05 1.11600E-06 0.00000E+00
 -1       571 7.16490E-05 6.10275E-07-1.24077E-24
 -1       572 7.17086E-05 6.35821E-07 2.06795E-25
 -1       573 7.17686E-05 6.28626E-07-8.27181E-25
 -1       574 7.18288E-05 5.96182E-07 4.13590E-25
 -1       575 7.18890E-05 5.46016E-07 0.00000E+00
 -1       576 7.19493E-05 4.85702E-07 0.00000E+00
 -1       577 7.20096E-05 4.22821E-07 0.00000E+00
 -1       578 7.20699E-05 3.64960E-07-1.65436E-24
 -1       579 7.21301E-05 3.19704E-07 0.00000E+00
 -1       580 7.21904E-05 2.94643E-07 0.00000E+00
 -1       581 7.22507E-05 2.97361E-07 3.30872E-24
 -1       582 7.23110E-05 3.35437E-07 0.00000E+00
 -1       583 7.23713E-05 4.16442E-07 3.30872E-24
 -1       584 7.24315E-05 5.47869E-07 0.00000E+00
 -1       585 7.24917E-05 7.37168E-07 0.00000E+00
 -1       586 7.13161E-05 5.65141E-07 0.00000E+00
 -1       587 7.10161E-05 5.84910E-07 4.13590E-25
 -1       588 7.07158E-05 6.04462E-07 4.13590E-25
 -1       589 7.04409E-05 6.23706E-07 0.00000E+00
 -1       590 7.02170E-05 6.42428E-07 0.00000E+00
 -1       591 7.15380E-05 6.41259E-07-1.03398E-25
 -1       592 7.14952E-05 7.04912E-07 0.00000E+00
 -1       593 7.14622E-05 7.42059E-07 0.00000E+00
 -1       594 7.14367E-05 7.58312E-07-2.06795E-25
 -1       595 7.14169E-05 7.59356E-07 0.00000E+00
 -1       596 7.14006E-05 7.50835E-07-2.06795E-25
 -1       597 7.13858E-05 7.38389E-07 0.00000E+00
 -1       598 7.13704E-05 7.27656E-07-2.06795E-25
 -1       599 7.13522E-05 7.24272E-07 0.00000E+00
 -1       600 7.13291E-05 7.33872E-07-2.06795E-25
 -1       601 7.12990E-05 7.62092E-07 0.00000E+00
 -1       602 7.12599E-05 8.14573E-07 2.06795E-25
 -1       603 7.12097E-05 8.96957E-07-2.58494E-25
 -1       604 7.11464E-05 1.01493E-06-5.16988E-26
 -1       605 7.10679E-05 1.17410E-06-4.13590E-25
 -1       606 7.25629E-05 1.38259E-06 0.00000E+00
 -1       607 7.25719E-05 1.85954E-06 0.00000E+00
 -1       608 7.25803E-05 2.41703E-06 3.30872E-24
 -1       609 7.25884E-05 3.04939E-06 0.00000E+00
 -1       610 7.25964E-05 3.75095E-06 0.00000E+00
 -1       611 7.26042E-05 4.51592E-06 0.00000E+00
 -1       612 7.26120E-05 5.33852E-06 0.00000E+00
 -1       613 7.26198E-05 6.21300E-06 0.00000E+00
 -1       614 7.26275E-05 7.13355E-06 0.00000E+00
 -1       615 7.26352E-05 8.09439E-06-8.27181E-25
 -1       616 7.26428E-05 9.08975E-06 0.00000E+00
 -1       617 7.26504E-05 1.01138E-05 0.00000E+00
 -1       618 7.26580E-05 1.11609E-05 0.00000E+00
 -1       619 7.26655E-05 1.22251E-05 0.00000E+00
 -1       620 7.26729E-05 1.33007E-05 0.00000E+00
 -1       621 7.22454E-05 1.05618E-06 0.00000E+00
 -1       622 7.19632E-05 1.12146E-06 0.00000E+00
 -1       623 7.17002E-05 1.18673E-06-1.65436E-24
 -1       624 7.14512E-05 1.25190E-06 0.00000E+00
 -1       625 7.12109E-05 1.31696E-06 0.00000E+00
 -1       626 7.24745E-05 1.40306E-06 0.00000E+00
 -1       627 7.23712E-05 1.88569E-06 3.30872E-24
 -1       628 7.22440E-05 2.43251E-06 0.00000E+00
 -1       629 7.20953E-05 3.03652E-06 3.30872E-24
 -1       630 7.19277E-05 3.69069E-06 0.00000E+00
 -1       631 7.17440E-05 4.38794E-06 3.30872E-24
 -1       632 7.15468E-05 5.12120E-06 0.00000E+00
 -1       633 7.13387E-05 5.88339E-06-1.65436E-24
 -1       634 7.11224E-05 6.66743E-06 0.00000E+00
 -1       635 7.09005E-05 7.46626E-06 8.27181E-25
 -1       636 7.06758E-05 8.27280E-06 0.00000E+00
 -1       637 7.04507E-05 9.07999E-06 0.00000E+00
 -1       638 7.02281E-05 9.88072E-06 0.00000E+00
 -1       639 7.00103E-05 1.06679E-05-8.27181E-25
 -1       640 6.98000E-05 1.14346E-05 8.27181E-25
 -1       656 7.17839E-05 1.40225E-05 0.00000E+00
 -1       657 7.12092E-05 1.36488E-05 0.00000E+00
 -1       658 7.08338E-05 1.32763E-05-6.61744E-24
 -1       659 7.05327E-05 1.29041E-05-3.30872E-24
 -1       660 7.01669E-05 1.25307E-05 0.00000E+00
 -1       661 7.23489E-05 1.54407E-05 0.00000E+00
 -1       662 7.20381E-05 1.64530E-05 0.00000E+00
 -1       663 7.17440E-05 1.74200E-05 0.00000E+00
 -1       664 7.14667E-05 1.83441E-05-8.27181E-25
 -1       665 7.12048E-05 1.92270E-05-1.65436E-24
 -1       666 7.09578E-05 2.00706E-05 8.27181E-25
 -1       667 7.07248E-05 2.08769E-05 1.65436E-24
 -1       668 7.05053E-05 2.16474E-05 8.27181E-25
 -1       669 7.02985E-05 2.23839E-05 0.00000E+00
 -1       670 7.01040E-05 2.30879E-05 0.00000E+00
 -1       671 6.99211E-05 2.37609E-05 1.65436E-24
 -1       672 6.97491E-05 2.44043E-05 0.00000E+00
 -1       673 6.95877E-05 2.50196E-05 1.65436E-24
 -1       674 6.94357E-05 2.56078E-05 0.00000E+00
 -1       675 6.92935E-05 2.61705E-05 0.00000E+00
 -1       676 7.16867E-05 2.70603E-05 0.00000E+00
 -1       677 7.11795E-05 2.69892E-05 0.00000E+00
 -1       678 7.06726E-05 2.69182E-05-1.65436E-24
 -1       679 7.01663E-05 2.68474E-05 8.27181E-25
 -1       680 6.96609E-05 2.67766E-05 0.00000E+00
 -1       771 1.43480E-05 2.96785E-06 2.64698E-23
 -1       772 1.11344E-05 8.75025E-06-1.32349E-23
 -1       773 8.37994E-06 1.33257E-05-2.64698E-23
 -1       774 6.05424E-06 1.67700E-05 0.00000E+00
 -1       775 4.12734E-06 1.91603E-05 0.00000E+00
 -1       776 2.56797E-06 2.05769E-05 1.32349E-23
 -1       777 1.34443E-06 2.11015E-05 0.00000E+00
 -1       778 4.24360E-07 2.08180E-05 0.00000E+00
 -1       779-2.24850E-07 1.98120E-05 2.64698E-23
 -1       780-6.36403E-07 1.81705E-05 1.32349E-23
 -1       781-8.43624E-07 1.59820E-05 0.00000E+00
 -1       782-8.80281E-07 1.33360E-05 0.00000E+00
 -1       783-7.80217E-07 1.03231E-05 2.64698E-23
 -1       784-5.77519E-07 7.03475E-06 0.00000E+00
 -1       785-3.06392E-07 3.56279E-06-2.64698E-23
 -1       786 7.01222E-05 6.35651E-07 0.00000E+00
 -1       787 7.01787E-05 6.16653E-07-4.13590E-25
 -1       788 7.02349E-05 6.02222E-07 0.00000E+00
 -1       789 7.02917E-05 5.92175E-07 0.00000E+00
 -1       790 7.03486E-05 5.86901E-07 0.00000E+00
 -1       791 7.04056E-05 5.86802E-07-8.27181E-25
 -1       792 7.04625E-05 5.92959E-07 0.00000E+00
 -1       793 7.05196E-05 6.06470E-07 0.00000E+00
 -1       794 7.05766E-05 6.29397E-07 0.00000E+00
 -1       795 7.06336E-05 6.63826E-07 8.27181E-25
 -1       796 7.06906E-05 7.13351E-07 0.00000E+00
 -1       797 7.07476E-05 7.81606E-07 0.00000E+00
 -1       798 7.08045E-05 8.74683E-07 0.00000E+00
 -1       799 7.08613E-05 9.98735E-07-8.27181E-25
 -1       800 7.09182E-05 1.16398E-06 0.00000E+00
 -1       801 6.53367E-05 6.31206E-07 0.00000E+00
 -1       802 5.12055E-05 5.17065E-07 8.27181E-25
 -1       803 3.26488E-05 3.37028E-07 3.30872E-24
 -1       804 1.46428E-05 1.60138E-07 0.00000E+00
 -1       805 2.11630E-06 6.10074E-08-1.32349E-23
 -1       806 7.00082E-05 5.95764E-07 0.00000E+00
 -1       807 6.99444E-05 5.32687E-07 0.00000E+00
 -1       808 6.98782E-05 4.74593E-07 0.00000E+00
 -1       809 6.98085E-05 4.25218E-07 8.27181E-25
 -1       810 6.97339E-05 3.88293E-07 0.00000E+00
 -1       811 6.96533E-05 3.67491E-07-8.27181E-25
 -1       812 6.95652E-05 3.66482E-07-1.65436E-24
 -1       813 6.94683E-05 3.88925E-07 8.27181E-25
 -1       814 6.93613E-05 4.38479E-07 0.00000E+00
 -1       815 6.92427E-05 5.18799E-07 0.00000E+00
 -1       816 6.91112E-05 6.33536E-07-1.65436E-24
 -1       817 6.89654E-05 7.86342E-07 8.27181E-25
 -1       818 6.88041E-05 9.80866E-07 0.00000E+00
 -1       819 6.86258E-05 1.22074E-06-4.13590E-25
 -1       820 6.84294E-05 1.50960E-06 0.00000E+00
 -1       821 7.08932E-05 1.62071E-06-8.27181E-25
 -1       822 7.08073E-05 1.85621E-06 8.27181E-25
 -1       823 7.07216E-05 2.12303E-06 1.65436E-24
 -1       824 7.06351E-05 2.45682E-06 1.65436E-24
 -1       825 7.05484E-05 2.88118E-06 3.30872E-24
 -1       826 7.04615E-05 3.41934E-06 1.65436E-24
 -1       827 7.03746E-05 4.07404E-06 0.00000E+00
 -1       828 7.02875E-05 4.84759E-06-1.65436E-24
 -1       829 7.02003E-05 5.72085E-06-3.30872E-24
 -1       830 7.01131E-05 6.67433E-06 1.65436E-24
 -1       831 7.00259E-05 7.67409E-06 0.00000E+00
 -1       832 6.99388E-05 8.68600E-06 1.65436E-24
 -1       833 6.98518E-05 9.67373E-06 0.00000E+00
 -1       834 6.97659E-05 1.06011E-05 0.00000E+00
 -1       835 6.96796E-05 1.14427E-05 8.27181E-25
 -1       836 7.06459E-05 1.45903E-06-1.65436E-24
 -1       837 7.02142E-05 1.53905E-06 0.00000E+00
 -1       838 6.97170E-05 1.61892E-06 1.65436E-24
 -1       839 6.91926E-05 1.69827E-06-8.27181E-25
 -1       840 6.86790E-05 1.77750E-06 2.06795E-25
 -1       856 6.95741E-05 1.28991E-05 2.06795E-25
 -1       857 6.95468E-05 1.37193E-05-2.06795E-25
 -1       858 6.95196E-05 1.46189E-05 0.00000E+00
 -1       859 6.94918E-05 1.55832E-05 0.00000E+00
 -1       860 6.94640E-05 1.65970E-05 0.00000E+00
 -1       861 6.94360E-05 1.76454E-05 0.00000E+00
 -1       862 6.94080E-05 1.87132E-05 0.00000E+00
 -1       863 6.93800E-05 1.97852E-05 0.00000E+00
 -1       864 6.93519E-05 2.08464E-05 0.00000E+00
 -1       865 6.93239E-05 2.18817E-05 4.13590E-25
 -1       866 6.92959E-05 2.28760E-05 8.27181E-25
 -1       867 6.92680E-05 2.38141E-05 0.00000E+00
 -1       868 6.92401E-05 2.46812E-05 0.00000E+00
 -1       869 6.92123E-05 2.54623E-05-4.13590E-25
 -1       870 6.91845E-05 2.61426E-05-8.27181E-25
 -1       871 6.90506E-05 1.21726E-05 0.00000E+00
 -1       872 6.85932E-05 1.21700E-05 0.00000E+00
 -1       873 6.81877E-05 1.21670E-05-4.13590E-25
 -1       874 6.77943E-05 1.21636E-05 0.00000E+00
 -1       875 6.73735E-05 1.21597E-05-2.06795E-25
 -1       876 6.94089E-05 1.29070E-05 0.00000E+00
 -1       877 6.92039E-05 1.36865E-05 0.00000E+00
 -1       878 6.89839E-05 1.45064E-05 0.00000E+00
 -1       879 6.87508E-05 1.53616E-05 1.65436E-24
 -1       880 6.85065E-05 1.62467E-05 3.30872E-24
 -1       881 6.82529E-05 1.71567E-05 1.65436E-24
 -1       882 6.79920E-05 1.80863E-05 0.00000E+00
 -1       883 6.77256E-05 1.90305E-05 0.00000E+00
 -1       884 6.74557E-05 1.99839E-05 3.30872E-24
 -1       885 6.71842E-05 2.09415E-05-8.27181E-25
 -1       886 6.69130E-05 2.18981E-05-1.65436E-24
 -1       887 6.66441E-05 2.28486E-05 0.00000E+00
 -1       888 6.63793E-05 2.37877E-05 0.00000E+00
 -1       889 6.61203E-05 2.47101E-05 0.00000E+00
 -1       890 6.58691E-05 2.56108E-05-8.27181E-25
 -1       891 6.86706E-05 2.66699E-05 8.27181E-25
 -1       892 6.81684E-05 2.66323E-05 4.13590E-25
 -1       893 6.76313E-05 2.65947E-05 0.00000E+00
 -1       894 6.70406E-05 2.65572E-05-2.06795E-25
 -1       895 6.63776E-05 2.65198E-05 6.20385E-25
 -1       956 6.81330E-05 2.29967E-06 0.00000E+00
 -1       957 6.80502E-05 2.80160E-06 8.27181E-25
 -1       958 6.79672E-05 3.35124E-06-3.30872E-24
 -1       959 6.78840E-05 3.94272E-06 8.27181E-25
 -1       960 6.78007E-05 4.57018E-06 3.30872E-24
 -1       961 6.77174E-05 5.22769E-06-1.65436E-24
 -1       962 6.76340E-05 5.90932E-06-3.30872E-24
 -1       963 6.75507E-05 6.60918E-06 0.00000E+00
 -1       964 6.74673E-05 7.32134E-06 3.30872E-24
 -1       965 6.73840E-05 8.03985E-06 0.00000E+00
 -1       966 6.73006E-05 8.75882E-06 0.00000E+00
 -1       967 6.72173E-05 9.47231E-06 0.00000E+00
 -1       968 6.71340E-05 1.01744E-05 3.30872E-24
 -1       969 6.70509E-05 1.08592E-05 0.00000E+00
 -1       970 6.69680E-05 1.15208E-05 3.30872E-24
 -1       971 6.68085E-05 1.28037E-05 1.65436E-24
 -1       972 6.67295E-05 1.35241E-05 0.00000E+00
 -1       973 6.66504E-05 1.43068E-05-1.65436E-24
 -1       974 6.65712E-05 1.51437E-05-8.27181E-25
 -1       975 6.64919E-05 1.60269E-05-1.65436E-24
 -1       976 6.64125E-05 1.69482E-05 0.00000E+00
 -1       977 6.63331E-05 1.78996E-05 1.65436E-24
 -1       978 6.62536E-05 1.88730E-05 0.00000E+00
 -1       979 6.61742E-05 1.98604E-05 1.65436E-24
 -1       980 6.60948E-05 2.08536E-05-1.65436E-24
 -1       981 6.60154E-05 2.18446E-05-3.30872E-24
 -1       982 6.59360E-05 2.28252E-05-1.65436E-24
 -1       983 6.58568E-05 2.37875E-05 3.30872E-24
 -1       984 6.57780E-05 2.47233E-05 0.00000E+00
 -1       985 6.56995E-05 2.56246E-05 0.00000E+00
 -3
    1PSTEP                         8           4           1          
  100CL  104 4.55078E-01         409                     0    4           1
 -4  STRESS      6    1
 -5  SXX         1    4    1    1
 -5  SYY         1    4    2    2
 -5  SZZ         1    4    3    3
 -5  SXY         1    4    1    2
 -5  SYZ         1    4    2    3
 -5  SZX         1    4    3    1
 -1         1-1.58871E+06-7.25519E+05-3.25798E+05-1.01910E+06-4.14730E-10-1.39698E-09
 -1         2 2.58586E+03 2.58245E+05 8.48669E+03 7.76253E+02-1.38641E-10-7.93949E-09
 -1         3-7.81305E+01-6.76106E+05 1.58028E+02-2.33570E+02-1.16220E-10-1.94750E-08
 -1         5-5.87940E+00 2.37029E+05 6.21130E+00 9.78528E-02 8.28568E-11 6.50471E-09
 -1         8-7.95465E+05-3.38602E+05-4.00834E+04-5.68344E+05 1.54614E-10 2.13186E-09
 -1         9-1.29971E+06-3.38353E+05-1.30351E+05-4.39355E+05 3.33966E-09 5.68689E-09
 -1        10-5.43161E+02-7.04359E+05-9.21082E+02-1.57485E+03-3.17959E-09-1.58554E-08
 -1        12-3.33378E+00 2.37042E+05 2.01432E+02 9.25661E-01 1.79661E-10 6.63999E-09
 -1        15 1.95245E+03 1.07299E+03 6.31127E+03 4.01636E+00 2.09886E-09 4.72607E-07
 -1        16-3.58693E+06-1.17881E+06-5.63224E+05-1.19705E+06 7.88229E-09-4.65661E-09
 -1        17-8.09686E+05-4.92726E+05-1.56512E+05-4.58785E+05-5.11936E-09-1.30967E-09
 -1        18 1.43927E+04-6.94661E+02-1.45441E+04-5.61540E+04 7.17023E-10 5.13410E-10
 -1        19 7.42495E+04 8.85200E+04-4.20250E+02 1.45152E+04-5.92445E-10-5.94082E-09
 -1        20-3.10445E+04-3.50812E+05-7.73861E+04 2.58117E+04 2.46473E-09-4.77606E-09
 -1        21-3.31046E+01-2.03195E+05-6.56189E+02-7.07300E+01-7.11806E-09-2.52420E-09
 -1        24-3.16779E+06-1.04089E+06-4.45371E+05-1.27376E+06-1.73507E-08-8.47407E-09
 -1        25 2.59382E+04-1.48787E+04 1.39119E+04-1.01534E+05 3.04044E-10 7.95444E-09
 -1        26-1.72619E+04 6.04459E+04-1.19898E+04-8.62643E+03 1.45010E-09 6.59965E-09
 -1        27-5.61174E+04-1.92456E+05-7.21966E+04 4.33700E+04 5.56315E-09-1.28724E-09
 -1        28 1.57288E+04-5.61360E+04 1.14781E+04 1.79721E+04 3.17303E-09-1.89749E-09
 -1        32-7.53300E+05-1.34600E+05 3.18928E+05-5.08126E+05-1.54032E-08 8.66001E-09
 -1        33-1.10068E+05 5.65844E+04 2.00591E+04-3.28296E+04 8.11629E-10 1.14202E-09
 -1        34-1.42873E+05-1.42244E+04 3.35254E+02 4.39424E+04 3.10819E-09 2.40637E-09
 -1        35-1.59951E+04-2.23112E+04-8.74023E+02 3.53951E+04 5.24219E-09-5.71769E-10
 -1        51 1.33619E+04-3.60385E+05 3.47528E+04-9.11803E+05-1.74623E-10 1.54978E-08
 -1        52 8.43215E+03-3.59413E+05 2.34223E+04-1.06345E+06 4.58385E-10 1.34751E-08
 -1        53 6.39578E+03-3.71284E+05 2.05051E+04-9.08633E+05 6.62112E-10-1.54687E-08
 -1        54 1.85687E+04-3.69845E+05 3.35560E+04-1.06676E+06 3.05590E-10-2.34286E-08
 -1        55 3.72292E+04-3.82649E+05 6.03331E+04-9.08123E+05 1.01863E-10-7.56700E-09
 -1        56-3.05089E+06-3.43622E+05-2.39435E+05-1.17565E+06-6.91216E-10-2.21189E-09
 -1        57-3.14353E+06-5.63718E+05-1.61384E+05-1.17037E+06 6.44832E-10-1.10595E-09
 -1        58-3.09973E+06-4.18692E+05-5.63375E+04-1.15971E+06-2.00725E-09 1.19690E-09
 -1        59-3.08694E+06-4.75746E+05-3.36282E+04-1.18956E+06 2.53829E-09-3.93311E-09
 -1        60-3.10700E+06-4.29006E+05-1.31551E+04-1.15738E+06-9.68157E-10-4.90172E-09
 -1        61-3.07979E+06-4.62331E+05-7.47354E+03-1.19070E+06 2.55568E-09 3.51577E-10
 -1        62-3.10674E+06-4.31795E+05-3.61015E+03-1.15864E+06 4.54747E-12-1.07306E-10
 -1        63-3.08266E+06-4.56688E+05-2.93301E+03-1.18609E+06 2.57046E-10 4.39019E-09
 -1        64-3.10399E+06-4.34690E+05-3.41919E+03-1.16191E+06 1.30808E-09 7.88054E-09
 -1        65-3.09006E+06-4.51294E+05-6.74609E+03-1.17802E+06-1.92335E-09 3.11616E-09
 -1        66-3.09923E+06-4.37307E+05-1.19766E+04-1.16661E+06 2.49656E-10 2.36378E-09
 -1        67-3.10532E+06-4.54426E+05-3.02747E+04-1.16667E+06-2.10810E-09 8.16544E-09
 -1        68-3.08876E+06-4.31892E+05-5.09120E+04-1.17313E+06 1.70439E-09-8.84393E-09
 -1        69-3.16264E+06-5.27779E+05-1.45566E+05-1.14271E+06 9.77707E-10-6.97037E-09
 -1        70-3.04249E+06-3.66203E+05-2.16078E+05-1.18982E+06-1.30967E-09-1.92085E-09
 -1        86-1.30018E+03 2.55412E+05 9.04749E+03-3.88156E+02 1.15733E-09-1.26283E-09
 -1        87 8.61667E+03 2.61220E+05 1.89400E+04 1.60408E+03 1.94291E-09 1.60064E-08
 -1        88-7.31549E+03 2.52442E+05 2.89264E+04-1.21602E+03 2.96495E-09 8.29402E-09
 -1        89 5.45066E+04 2.82710E+05 7.81155E+04 3.49908E+03 4.52565E-09-2.99556E-09
 -1        90-4.70458E+04 2.33948E+05 1.10244E+05-2.28266E+03 5.17321E-09 4.30794E-09
 -1       121-1.23775E+02-6.76462E+05 1.28477E+02 1.16648E+02 3.76765E-10-7.45422E-09
 -1       122-2.57403E+01-6.76074E+05 3.42392E+02-4.67031E+02-1.28105E-09-1.72849E-09
 -1       123-1.60082E+02-6.76500E+05 5.31750E+02 3.49567E+02 9.61506E-10-3.69619E-09
 -1       124 6.06573E+02-6.75694E+05 1.42933E+03-1.05191E+03-2.52351E-09 9.69521E-10
 -1       125-5.67365E+02-6.76857E+05 2.16914E+03 7.01227E+02 1.67893E-09-5.80167E-09
 -1       191-6.37772E+00 2.37049E+05 7.35410E+00-4.96230E-02 1.44145E-10 2.31194E-09
 -1       192-6.45073E+00 2.37029E+05 1.31548E+01 6.39742E-01 2.18007E-10-2.94199E-09
 -1       193-7.89654E+00 2.37049E+05 2.43963E+01-5.94802E-01 2.42095E-10-1.24328E-09
 -1       194-8.28920E+00 2.37031E+05 4.97667E+01 1.58791E+00 1.18913E-10 2.15528E-09
 -1       195-1.08154E+01 2.37047E+05 9.72780E+01-1.00525E+00 3.92731E-10 4.23688E-09
 -1       251 2.16427E+05-4.44745E+04 1.03704E+05 4.66015E+03-2.47837E-11 2.54659E-10
 -1       252 2.64516E+05 5.14293E+04 7.37181E+04-1.49597E+04 6.87976E-10-4.24552E-09
 -1       253 2.34518E+05-6.88384E+03 2.68312E+04 3.14784E+03-6.65068E-10-4.55475E-09
 -1       254 2.43113E+05 7.94734E+03 1.70139E+04-1.25909E+04 4.04214E-10-5.14115E-09
 -1       255 2.37711E+05-1.06240E+03 6.93420E+03 2.29144E+03-4.49631E-11 4.49518E-09
 -1       256 2.39261E+05 1.26562E+03 4.23102E+03-1.13324E+04 1.71724E-09 3.65844E-10
 -1       257 2.38318E+05-1.85553E+02 2.17990E+03 1.88935E+03 2.14513E-10-5.47288E-10
 -1       258 2.38645E+05 4.03438E+02 1.94259E+03-1.09345E+04-4.38843E-10 7.29599E-09
 -1       259 2.38312E+05-1.91733E+02 2.23779E+03 1.89360E+03-8.09706E-10-5.37221E-09
 -1       260 2.39298E+05 1.31889E+03 4.40003E+03-1.13509E+04 4.81592E-10-4.57277E-09
 -1       261 2.37680E+05-1.10986E+03 7.23629E+03 2.30574E+03 1.06769E-09 6.64431E-09
 -1       262 2.43310E+05 8.30350E+03 1.77708E+04-1.26291E+04-2.39282E-10 6.22913E-09
 -1       263 2.34353E+05-7.19272E+03 2.80377E+04 3.17175E+03-1.18052E-09 1.66438E-09
 -1       264 2.65637E+05 5.37388E+04 7.70204E+04-1.50284E+04-4.02463E-09 1.19035E-08
 -1       265 2.15474E+05-4.64691E+04 1.08376E+05 4.70493E+03-1.43962E-09 1.24710E-08
 -1       266-3.53447E+04-1.65247E+04 8.29404E+04-8.59481E+01 3.39060E-09 7.31406E-07
 -1       267 4.09754E+04 1.92637E+04 5.86151E+04 9.91541E+01 6.47833E-09 1.42707E-06
 -1       268-5.49467E+03-2.72806E+03 2.17873E+04-1.26347E+01 5.13046E-09 1.15333E-06
 -1       269 6.48767E+03 3.26516E+03 1.41611E+04 1.47167E+01 3.84989E-09 8.71690E-07
 -1       270-9.73796E+02-5.36471E+02 6.83577E+03-1.99720E+00 2.91084E-09 6.54967E-07
 -1       271-3.63236E+06-4.48396E+05-2.82899E+05-1.41586E+06-2.87764E-09 7.85803E-10
 -1       272-3.72261E+06-6.73880E+05-1.83004E+05-1.42607E+06-3.91947E-09 4.66753E-09
 -1       273-3.68830E+06-5.19417E+05-6.68238E+04-1.39997E+06-2.38015E-09 6.70843E-09
 -1       274-3.65646E+06-5.88627E+05-3.76425E+04-1.45027E+06-1.04592E-11 4.17549E-09
 -1       275-3.69797E+06-5.25063E+05-1.55534E+04-1.39524E+06-1.85537E-10 2.14641E-09
 -1       276-3.64477E+06-5.82435E+05-8.30056E+03-1.45784E+06 2.47928E-09-2.20484E-09
 -1       277-3.70052E+06-5.24308E+05-4.04769E+03-1.39320E+06 7.82165E-10 2.05091E-09
 -1       278-3.64236E+06-5.82985E+05-2.96892E+03-1.46020E+06-1.17964E-09-6.31155E-09
 -1       279-3.70065E+06-5.24256E+05-3.19697E+03-1.39310E+06 6.95763E-11-9.61859E-09
 -1       280-3.64413E+06-5.82314E+05-5.90731E+03-1.45830E+06 1.61344E-09 1.01500E-09
 -1       281-3.69852E+06-5.25178E+05-1.07923E+04-1.39492E+06-2.52567E-09-1.08503E-09
 -1       282-3.65321E+06-5.85360E+05-2.59012E+04-1.45157E+06-1.25101E-09 2.40470E-09
 -1       283-3.69102E+06-5.22226E+05-4.59937E+04-1.39915E+06 2.71120E-09 7.29051E-09
 -1       284-3.70054E+06-6.41820E+05-1.25743E+05-1.43231E+06-1.16046E-09-2.73940E-09
 -1       285-3.65130E+06-4.74807E+05-1.94591E+05-1.41153E+06-1.03500E-09 5.82077E-10
 -1       301 1.36777E+04-1.26059E+04 1.05618E+05-3.08678E+04-1.16779E-09-1.19553E-09
 -1       302 1.47313E+04 1.41365E+04 7.61562E+04-4.54888E+04 1.45155E-09 1.09827E-08
 -1       303 7.56409E+02-3.10025E+03 6.99435E+04-3.09642E+04-9.80435E-10 3.43334E-10
 -1       304 2.74295E+04 2.58864E+04 1.17479E+05-4.53432E+04 1.02409E-09 3.80533E-09
 -1       305 2.71264E+04-2.42192E+04 1.97089E+05-3.09159E+04-1.33150E-09 2.45836E-09
 -1       306-3.77670E+06-4.41784E+05-2.87893E+05-1.48283E+06 2.39015E-09-4.86034E-09
 -1       307-3.93587E+06-6.73556E+05-1.96182E+05-1.41953E+06 1.55433E-09-1.22418E-09
 -1       308-3.84690E+06-5.26739E+05-6.78117E+04-1.45061E+06 3.29601E-09-1.48793E-09
 -1       309-3.84556E+06-5.83925E+05-4.08685E+04-1.46793E+06-3.16771E-09 2.46109E-09
 -1       310-3.86656E+06-5.29663E+05-1.59415E+04-1.43502E+06-9.52696E-10 8.54925E-11
 -1       311-3.81938E+06-5.84409E+05-9.15306E+03-1.49103E+06 5.24648E-09 2.24190E-09
 -1       312-3.87332E+06-5.25763E+05-4.49018E+03-1.42783E+06-4.06544E-10 7.52186E-09
 -1       313-3.81438E+06-5.86438E+05-4.03632E+03-1.49623E+06-4.04648E-09 6.53273E-09
 -1       314-3.87167E+06-5.27522E+05-4.90636E+03-1.42991E+06-1.98850E-09-7.00925E-09
 -1       315-3.82552E+06-5.78405E+05-1.01943E+04-1.48340E+06-1.89812E-09 3.63343E-09
 -1       316-3.86192E+06-5.34028E+05-1.80786E+04-1.44045E+06 6.24823E-10-3.98086E-09
 -1       317-3.85733E+06-5.76122E+05-4.63145E+04-1.45541E+06 1.10435E-09-7.65431E-09
 -1       318-3.83969E+06-5.30286E+05-7.68521E+04-1.45761E+06-5.23414E-09 7.88714E-09
 -1       319-3.95743E+06-6.80785E+05-2.22582E+05-1.40434E+06-2.26191E-09 1.73532E-09
 -1       320-3.76252E+06-4.31195E+05-3.26323E+05-1.49101E+06 6.90488E-09-5.92263E-09
 -1       336 4.79887E+02-7.32310E+05-3.96697E+03 8.71643E+02-6.73117E-09 1.85537E-09
 -1       337-1.44557E+03-7.33286E+05-4.36187E+03-2.22773E+03-1.20164E-08-4.33829E-09
 -1       338 3.16736E+02-7.32416E+05-5.57283E+03 1.35124E+03-8.52469E-09 8.38372E-09
 -1       339-5.76865E+03-7.35970E+05-1.21963E+04-3.17388E+03-1.60826E-08 8.61201E-09
 -1       340 3.88581E+03-7.29692E+05-1.88344E+04 1.81118E+03-1.04592E-08 4.93310E-09
 -1       406 1.19827E+01 2.37038E+05 3.97606E+02 6.16344E-02 5.05310E-10 1.63254E-10
 -1       407 1.35332E+02 2.37112E+05 8.45215E+02-8.20569E+00 1.42563E-10-7.04676E-09
 -1       408 4.31696E+02 2.36977E+05 1.68798E+03 8.29200E+00 5.47061E-10 7.99400E-09
 -1       409 1.82217E+03 2.37651E+05 3.80031E+03-7.92857E+01-1.04365E-10 2.59590E-08
 -1       410 5.24137E+03 2.36497E+05 7.75813E+03 7.38369E+01 5.05679E-10 1.10244E-08
 -1       521-7.09014E+06-7.89159E+05-5.32554E+05-2.70633E+06 4.37285E-09-9.42964E-09
 -1       522-7.14344E+06-1.38704E+06-3.52351E+05-2.80660E+06-9.92895E-09-3.77986E-09
 -1       523-7.26832E+06-8.73972E+05-1.25218E+05-2.57021E+06 1.79853E-09-5.59521E-09
 -1       524-6.94170E+06-1.29050E+06-7.32669E+04-2.98582E+06 2.00573E-08-8.83301E-09
 -1       525-7.30142E+06-8.73840E+05-2.83471E+04-2.53619E+06 1.55487E-08-1.17261E-08
 -1       526-6.94223E+06-1.23409E+06-1.40785E+04-2.95449E+06 2.53203E-09 8.40146E-10
 -1       527-7.26403E+06-9.32361E+05-1.17933E+04-2.59917E+06 6.89215E-09 3.37786E-09
 -1       528-7.06017E+06-1.08216E+06-2.02986E+02-2.76656E+06 8.73115E-09-3.66299E-09
 -1       529-7.17200E+06-1.03391E+06-1.44222E+04-2.71564E+06 9.92441E-09-9.27685E-10
 -1       530-7.26089E+06-8.92791E+05-1.06604E+04-2.54945E+06-4.72846E-09 1.57120E-08
 -1       531-7.06568E+06-1.12001E+06-3.10980E+04-2.81777E+06-1.48866E-08-8.82210E-10
 -1       532-7.43760E+06-7.92040E+05-7.25148E+04-2.41559E+06 1.79500E-08-2.24827E-08
 -1       533-7.00712E+06-1.12699E+06-1.22148E+05-2.85829E+06 9.06402E-09-2.63753E-08
 -1       534-7.54651E+06-1.00429E+06-3.53626E+05-2.38687E+06-2.79761E-09 2.08202E-08
 -1       535-6.95747E+06-9.12299E+05-5.26362E+05-2.84471E+06-9.25502E-09 1.79862E-08
 -1       536-6.85125E+04-1.80441E+04 4.15199E+04-1.59764E+02-7.55136E-10 4.82942E-09
 -1       537-4.88564E+04 2.08824E+04 2.96602E+04-7.77360E+02-8.35466E-09-2.43745E-10
 -1       538-6.14745E+04-2.83369E+03 1.06747E+04 6.61234E+01-1.26784E-09 2.62025E-09
 -1       539-5.71944E+04 3.27097E+03 6.91347E+03-1.25046E+03 1.55429E-09-4.32590E-09
 -1       540-6.01837E+04-4.43927E+02 2.66477E+03 3.13339E+02-6.76494E-10 4.71925E-09
 -1       541-5.88523E+04 5.04399E+02 1.65850E+03-1.69408E+03-6.77019E-10 9.34142E-09
 -1       542-5.98264E+04-6.49689E+01 6.05806E+02 5.09737E+02 8.28820E-10 3.77131E-09
 -1       543-5.93860E+04 5.17545E+01 3.01044E+02-2.01322E+03 3.87274E-10-2.40846E-09
 -1       544-5.96578E+04 1.35565E+01-4.82054E+01 6.32524E+02-6.15749E-10-7.12393E-09
 -1       545-5.96661E+04-1.47876E+02-3.95992E+02-2.17372E+03 2.55378E-10-6.32423E-09
 -1       546-5.95499E+04 1.38482E+02-8.05789E+02 6.70267E+02 3.27810E-10 2.44916E-09
 -1       547-6.00734E+04-1.00891E+03-2.06520E+03-2.16064E+03-2.25522E-09 4.59201E-09
 -1       548-5.92499E+04 8.73978E+02-3.33912E+03 6.19453E+02-2.91663E-09 4.13729E-09
 -1       549-6.23861E+04-6.43758E+03-9.07268E+03-1.97163E+03-1.70335E-09 3.95664E-09
 -1       550-5.72329E+04 5.55864E+03-1.29439E+04 4.81228E+02-1.44027E-10 4.98130E-09
 -1       551 8.12732E+03-3.81183E+05 2.02929E+04-6.50005E+05-2.87509E-08-2.98314E-10
 -1       552 1.77113E+04-3.83738E+05 2.70129E+04-9.25238E+05-2.13331E-08 1.38461E-08
 -1       553 1.19821E+04-3.88701E+05 4.20343E+04-6.47817E+05-3.57468E-08 9.79344E-09
 -1       554 3.92134E+04-3.72038E+05 8.93416E+04-9.26157E+05-2.19661E-08 6.49959E-09
 -1       555 3.78588E+04-4.05731E+05 1.60341E+05-6.48583E+05-3.51720E-08-1.69894E-09
 -1       556 5.68643E+04-1.23146E+05 4.18781E+04-1.61825E+05-5.97356E-09-3.43425E-09
 -1       557 1.06728E+05-1.64555E+05 2.19998E+04-2.02549E+05 7.49424E-10-1.36424E-10
 -1       558 5.67842E+04-1.28784E+05 8.89291E+03-1.56971E+05-3.66708E-09-8.65839E-10
 -1       559 1.00059E+05-1.70300E+05 4.51563E+03-2.05479E+05 4.17640E-09-8.14907E-10
 -1       560 5.53649E+04-1.27838E+05 1.86465E+03-1.57856E+05 4.80213E-10 9.18590E-11
 -1       561 9.78314E+04-1.69743E+05 9.92361E+02-2.06886E+05 4.07454E-10 2.84945E-09
 -1       562 5.42177E+04-1.27068E+05 3.76236E+02-1.58683E+05-9.02219E-10 2.18188E-09
 -1       563 9.64827E+04-1.69164E+05 2.38287E+02-2.07749E+05 2.47383E-10-2.01879E-09
 -1       564 5.35038E+04-1.26606E+05 8.43122E+01-1.59191E+05 2.36832E-09 5.32964E-10
 -1       565 9.57831E+04-1.68865E+05 5.34355E+01-2.08189E+05 2.72939E-09-1.00863E-09
 -1       566 5.32499E+04-1.26437E+05-1.91748E+01-1.59374E+05-7.31234E-10-3.39242E-09
 -1       567 9.56931E+04-1.68821E+05-1.03954E+02-2.08185E+05 7.46923E-09-1.17325E-09
 -1       568 5.34871E+04-1.26594E+05-3.02702E+02-1.59266E+05 4.05635E-10 6.42103E-10
 -1       569 9.56037E+04-1.68715E+05-7.08253E+02-2.07208E+05-2.46746E-09 3.05772E-09
 -1       570 5.47140E+04-1.27714E+05-1.51112E+03-1.59243E+05 2.66664E-09 2.81671E-09
 -1       571 1.71891E+05 6.24131E+03 9.24835E+03-4.34998E+04-3.14230E-10 7.26436E-09
 -1       572 1.73267E+05 2.17108E+03 4.53108E+03-4.76834E+04-1.10299E-09 3.92401E-09
 -1       573 1.72443E+05 5.17969E+02 2.01287E+03-4.33862E+04-2.91038E-11 3.89173E-09
 -1       574 1.72606E+05 1.69317E+02 1.00848E+03-4.78103E+04 6.13909E-11 4.82487E-10
 -1       575 1.72504E+05 2.42438E+01 4.75274E+02-4.33713E+04 2.01862E-09-1.78989E-09
 -1       576 1.72515E+05 7.86136E+00 2.41902E+02-4.78272E+04 9.08102E-10-5.62522E-10
 -1       577 1.72513E+05-2.13206E+00 1.19115E+02-4.33693E+04 9.00855E-10 2.61844E-09
 -1       578 1.72506E+05-2.40096E-01 6.48768E+01-4.78293E+04 1.39403E-09 1.04319E-09
 -1       579 1.72523E+05-3.85543E+00 3.95355E+01-4.33692E+04-9.03128E-10 3.20506E-09
 -1       580 1.72520E+05-5.44979E+00 3.67007E+01-4.78267E+04-2.07820E-09-2.42289E-09
 -1       581 1.72541E+05-1.02417E+01 4.94803E+01-4.33718E+04-7.43057E-10 5.25688E-09
 -1       582 1.72552E+05-3.48074E+00 9.41363E+01-4.78009E+04 1.68711E-10 3.12411E-10
 -1       583 1.72562E+05 1.89596E+01 1.80322E+02-4.33950E+04-5.03860E-10-9.21091E-10
 -1       584 1.72645E+05 1.58897E+02 4.04354E+02-4.76071E+04-1.96724E-09 3.01907E-09
 -1       585 1.72544E+05 5.14921E+02 8.20899E+02-4.35659E+04-7.27596E-11-2.53749E-09
 -1       586-2.07867E+03 5.63838E+04-2.76072E+03-1.47954E+05 3.42425E-10 3.41129E-09
 -1       587-4.36534E+02 5.60119E+04-3.05681E+02-1.62811E+05 6.87578E-10-2.05915E-09
 -1       588 5.94108E+02 5.60848E+04 1.96905E+03-1.47864E+05 4.22006E-10 1.74623E-09
 -1       589 2.93131E+03 5.71663E+04 5.73148E+03-1.62675E+05 6.43013E-10-3.86217E-09
 -1       590 8.40347E+03 5.53962E+04 1.22706E+04-1.48090E+05 2.73758E-10-1.36424E-09
 -1       591-3.76827E+04-1.07623E+04-1.24932E+04-1.95111E+04 6.65068E-10-4.04361E-09
 -1       592-3.88583E+04-1.38248E+04-6.76686E+03-2.27628E+04 1.31968E-09 2.67573E-09
 -1       593-3.89459E+04-9.84175E+03-2.81711E+03-2.04134E+04-5.69685E-10-1.00999E-09
 -1       594-3.71174E+04-1.20089E+04-1.40502E+03-2.28494E+04 1.03682E-10-1.25542E-09
 -1       595-3.90427E+04-9.83751E+03-6.45693E+02-2.04548E+04-5.34897E-10-1.49637E-09
 -1       596-3.69996E+04-1.19257E+04-3.29132E+02-2.28372E+04 1.08861E-09 1.53705E-09
 -1       597-3.90550E+04-9.84550E+03-1.81169E+02-2.04565E+04-3.93001E-10 2.14260E-09
 -1       598-3.69884E+04-1.19225E+04-1.49206E+02-2.28338E+04-1.59130E-09 2.90413E-09
 -1       599-3.90541E+04-9.84555E+03-1.95046E+02-2.04562E+04 4.90559E-10-2.39652E-10
 -1       600-3.70010E+04-1.19268E+04-3.65914E+02-2.28368E+04-2.46723E-09-8.01805E-09
 -1       601-3.90386E+04-9.83690E+03-7.23728E+02-2.04537E+04-1.24703E-09-3.26827E-09
 -1       602-3.71332E+04-1.20201E+04-1.57830E+03-2.28490E+04 4.42014E-10 2.90424E-09
 -1       603-3.89287E+04-9.84319E+03-3.16567E+03-2.04073E+04-4.22847E-09-1.12047E-08
 -1       604-3.90957E+04-1.40537E+04-7.60443E+03-2.27423E+04-2.59433E-10-8.53106E-10
 -1       605-3.75008E+04-1.08837E+04-1.40394E+04-1.94002E+04 1.48066E-09 6.96582E-09
 -1       606 2.45019E+04-8.28063E+03-1.49114E+04 2.39226E+04-2.67664E-09-5.07043E-09
 -1       607 2.19480E+04-2.67113E+03-7.42501E+03 2.68544E+04-8.51287E-10-6.84611E-09
 -1       608 2.33973E+04-4.50197E+02-3.32504E+03 2.37318E+04 2.68847E-09-3.01156E-09
 -1       609 2.31086E+04-1.16615E+02-1.67940E+03 2.70649E+04-2.56750E-09-5.31031E-09
 -1       610 2.32635E+04 2.20290E+01-8.02213E+02 2.37104E+04-4.83851E-09-1.20053E-10
 -1       611 2.32087E+04 3.31833E+01-4.04629E+02 2.70879E+04-6.33554E-09 6.47924E-09
 -1       612 2.32278E+04 3.52532E+01-1.93650E+02 2.37083E+04-2.34468E-09 2.25350E-09
 -1       613 2.32067E+04 4.04574E+01-8.83103E+01 2.70907E+04-4.96948E-09 4.08932E-09
 -1       614 2.32082E+04 3.58880E+01-2.47521E+01 2.37076E+04-8.72205E-10 3.05681E-09
 -1       615 2.31965E+04 4.51521E+01 2.73293E+01 2.70911E+04 4.42969E-09-2.37924E-09
 -1       616 2.31934E+04 4.08166E+01 9.08610E+01 2.37078E+04-3.86990E-09 1.87970E-09
 -1       617 2.32021E+04 6.79732E+01 2.10852E+02 2.70906E+04-1.51772E-09-9.35870E-10
 -1       618 2.31710E+04 1.04255E+02 4.26268E+02 2.37079E+04 3.21052E-10 2.47610E-10
 -1       619 2.33493E+04 3.99805E+02 9.58102E+02 2.70900E+04-1.13721E-09-7.21843E-09
 -1       620 2.30272E+04 1.11737E+03 1.92597E+03 2.37070E+04 1.64277E-09-8.24093E-09
 -1       621 2.97212E+02 1.87039E+05 2.58074E+03 6.24728E+03-2.61664E-10 1.18962E-09
 -1       622 3.39910E+02 1.87679E+05 2.19270E+03 9.12379E+03-3.22075E-10 7.65584E-09
 -1       623 1.38187E+01 1.87223E+05 2.52460E+03 6.21801E+03-2.53550E-10 5.20731E-09
 -1       624 1.14234E+03 1.88414E+05 4.79663E+03 9.15236E+03-1.30370E-10-2.35445E-09
 -1       625 1.14727E+03 1.86299E+05 8.33993E+03 6.21903E+03-7.04858E-11-2.38259E-10
 -1       626 1.54377E+05 4.27717E+04 3.07248E+03 8.34620E+04 2.86400E-09 7.16682E-10
 -1       627 1.52264E+05 4.43285E+04 1.48044E+03 8.68342E+04 7.27141E-10-7.32337E-09
 -1       628 1.54493E+05 4.13177E+04 6.25300E+02 8.39250E+04-7.45786E-10-1.74407E-08
 -1       629 1.51820E+05 4.39794E+04 3.06495E+02 8.70361E+04 2.51976E-09 1.25510E-09
 -1       630 1.54500E+05 4.12490E+04 1.41719E+02 8.39371E+04-1.56351E-08-1.52721E-08
 -1       631 1.51766E+05 4.39718E+04 7.62534E+01 8.70379E+04-2.00671E-08 6.20176E-09
 -1       632 1.54492E+05 4.12546E+04 5.03754E+01 8.39301E+04-1.21686E-08 2.91379E-09
 -1       633 1.51755E+05 4.39765E+04 5.63628E+01 8.70317E+04-1.64778E-09-2.73576E-09
 -1       634 1.54483E+05 4.12554E+04 9.12996E+01 8.39260E+04 5.71799E-09 1.50112E-09
 -1       635 1.51758E+05 4.39780E+04 1.85195E+02 8.70311E+04 3.94584E-09-5.68434E-11
 -1       636 1.54473E+05 4.12548E+04 3.74076E+02 8.39232E+04 5.60169E-09 6.09361E-11
 -1       637 1.51834E+05 4.40376E+04 8.22174E+02 8.70272E+04 1.03139E-08-1.70344E-08
 -1       638 1.54440E+05 4.14382E+04 1.68975E+03 8.38385E+04 6.78369E-09-7.78891E-09
 -1       639 1.52718E+05 4.52739E+04 3.99744E+03 8.67644E+04-1.75771E-09-3.95630E-11
 -1       640 1.54322E+05 4.51179E+04 8.29575E+03 8.22758E+04-3.18096E-09-1.26615E-08
 -1       656 4.18430E+04-1.05899E+06-1.01013E+05-3.80728E+02 6.65750E-10-3.16339E-09
 -1       657-5.52904E+04-1.10458E+06-8.35369E+04 6.85981E+03 1.09139E-09 1.08988E-08
 -1       658 1.32669E+04-1.07199E+06-5.12617E+04-1.32512E+03 1.25681E-09 2.02868E-09
 -1       659-5.92785E+04-1.10647E+06-8.87748E+04 7.48802E+03 4.07454E-10-1.52577E-10
 -1       660 4.58212E+04-1.05710E+06-1.10024E+05-1.00893E+03-1.38243E-10-1.96168E-09
 -1       661 1.49944E+05 1.63234E+04 1.43846E+04 5.85959E+04 7.05541E-10 7.47514E-09
 -1       662 1.57436E+05 2.76059E+04 9.69283E+03 5.60952E+04 2.62185E-09 1.22873E-09
 -1       663 1.52763E+05 2.09439E+04 3.39063E+03 5.77832E+04 1.24999E-09-8.73911E-10
 -1       664 1.54175E+05 2.21965E+04 2.02715E+03 5.70825E+04 5.42400E-10-1.19412E-08
 -1       665 1.53184E+05 2.15809E+04 7.99650E+02 5.76659E+04-2.41340E-09-7.98170E-09
 -1       666 1.53682E+05 2.14633E+04 4.66294E+02 5.72321E+04-5.55447E-09 6.62169E-10
 -1       667 1.53254E+05 2.16580E+04 2.45835E+02 5.76408E+04-1.33821E-09-4.66898E-10
 -1       668 1.53608E+05 2.14014E+04 2.46212E+02 5.72677E+04 2.04781E-09-4.53036E-09
 -1       669 1.53258E+05 2.16409E+04 3.29870E+02 5.76309E+04 2.41104E-09 4.00178E-11
 -1       670 1.53693E+05 2.15743E+04 7.15007E+02 5.72653E+04 5.42146E-09 2.36170E-09
 -1       671 1.53170E+05 2.14885E+04 1.26849E+03 5.76418E+04 2.16473E-09 8.70159E-10
 -1       672 1.54434E+05 2.28062E+04 3.24453E+03 5.70845E+04-4.02392E-09-1.42546E-09
 -1       673 1.52520E+05 2.04401E+04 5.43700E+03 5.77999E+04-1.39835E-09 8.20705E-09
 -1       674 1.59612E+05 3.15380E+04 1.55488E+04 5.55605E+04-2.82421E-09 3.76986E-09
 -1       675 1.48025E+05 1.30009E+04 2.30791E+04 5.90738E+04 4.12001E-10-3.08955E-09
 -1       676 1.70370E+01-2.03140E+05-7.90876E+02 3.53659E+01-2.84302E-10-3.34203E-09
 -1       677-2.09901E+02-2.03331E+05-1.44738E+03-7.07022E+01-4.80208E-09-9.96589E-09
 -1       678 1.40199E+02-2.03004E+05-2.55858E+03 3.53120E+01-3.86251E-09-5.68993E-09
 -1       679-2.55904E+03-2.04876E+05-6.07784E+03-7.04889E+01-4.30680E-09 1.81508E-09
 -1       680 1.52725E+03-2.01596E+05-9.79547E+03 3.47475E+01 7.42148E-10 2.34616E-09
 -1       771-2.18187E+06-3.83748E+05-5.37868E+04-9.06895E+05-8.76025E-09-6.49743E-09
 -1       772-2.16787E+06-4.12660E+05-2.88071E+04-9.39148E+05-4.04543E-09 8.61928E-09
 -1       773-2.18936E+06-3.77916E+05-1.25361E+04-9.09894E+05-2.17551E-09 3.52520E-09
 -1       774-2.16020E+06-4.06424E+05-6.07453E+03-9.42723E+05 7.74526E-09-1.65892E-09
 -1       775-2.19124E+06-3.76684E+05-3.15145E+03-9.10116E+05 2.35013E-09-8.24002E-10
 -1       776-2.16012E+06-4.06501E+05-1.43096E+03-9.44731E+05 1.06229E-09-5.86442E-09
 -1       777-2.19257E+06-3.75712E+05-9.41503E+02-9.10238E+05 4.96220E-09-1.81899E-12
 -1       778-2.16049E+06-4.06753E+05-4.00904E+02-9.46409E+05 1.80080E-09 2.92857E-09
 -1       779-2.19364E+06-3.74885E+05-4.20839E+02-9.10349E+05-1.16779E-09-2.74031E-09
 -1       780-2.16089E+06-4.06960E+05-2.95633E+02-9.47768E+05-1.94268E-09-4.95220E-10
 -1       781-2.19445E+06-3.74224E+05-5.34914E+02-9.10434E+05-9.30595E-09-9.33142E-10
 -1       782-2.16126E+06-4.07154E+05-9.27776E+02-9.48767E+05-1.08612E-08-2.35718E-09
 -1       783-2.19494E+06-3.73789E+05-1.86115E+03-9.10474E+05-6.03359E-09-2.15312E-09
 -1       784-2.16257E+06-4.08422E+05-4.38865E+03-9.49326E+05-1.80225E-08-1.71076E-09
 -1       785-2.19442E+06-3.74150E+05-8.11953E+03-9.09914E+05-1.51604E-08 3.16140E-09
 -1       786 1.59219E+05-8.50481E+03 1.96759E+04-5.19401E+00 5.88111E-07 5.76711E-09
 -1       787 1.67745E+05 9.84593E+03 1.39203E+04 3.16353E-01 1.17099E-06 9.22228E-09
 -1       788 1.62509E+05-1.33323E+03 5.09265E+03-1.59109E+00 1.30602E-06-1.57524E-09
 -1       789 1.63913E+05 1.54263E+03 3.19977E+03-6.93023E+00 1.43896E-06 1.33412E-08
 -1       790 1.63052E+05-2.08271E+02 1.30203E+03 2.05248E+00 1.68290E-06-9.22392E-09
 -1       791 1.63280E+05 2.41996E+02 7.64539E+02-1.53296E+01 1.92802E-06 1.28188E-08
 -1       792 1.63142E+05-3.35746E+01 3.49089E+02 6.80839E+00 2.46116E-06-1.17058E-08
 -1       793 1.63177E+05 4.72286E+01 2.29068E+02-2.72453E+01 2.98969E-06 5.48490E-09
 -1       794 1.63154E+05-1.36330E+01 1.70165E+02 1.39684E+01 1.49548E-06-1.00631E-08
 -1       795 1.63188E+05 7.05299E+01 2.46839E+02-4.58884E+01 5.35614E-09 5.97489E-09
 -1       796 1.63132E+05-5.68591E+01 3.70161E+02 2.54518E+01-2.00453E-11-7.41267E-10
 -1       797 1.63356E+05 4.16883E+02 8.73147E+02-7.62636E+01 7.74825E-12 3.46142E-09
 -1       798 1.62986E+05-3.59732E+02 1.37831E+03 4.43441E+01-3.12253E-10 6.30962E-10
 -1       799 1.64390E+05 2.65617E+03 3.75768E+03-1.26817E+02-5.48699E-10 3.75678E-09
 -1       800 1.62098E+05-2.29434E+03 5.30793E+03 7.60060E+01-6.95586E-11 2.81034E-10
 -1       801-7.75590E+03-8.09585E+04 3.51242E+03 1.77485E+04 9.60699E-09-2.18074E-09
 -1       802 2.12665E+04 1.31998E+04 4.32699E+04-7.07766E+04 2.58478E-08-8.37616E-10
 -1       803-1.26676E+04-4.21127E+04 5.61995E+04 1.80669E+04 2.04054E-08 1.64739E-08
 -1       804 1.12976E+05 6.53307E+04 1.63769E+05-7.15115E+04 2.39470E-08 2.16023E-08
 -1       805-9.95606E+04-1.32764E+05 2.05214E+05 1.84799E+04 8.55653E-09 2.04424E-08
 -1       806-1.87188E+05-4.00744E+04-1.59004E+04-7.79163E+04 2.78737E-09 5.05179E-09
 -1       807-1.88126E+05-3.77952E+04-7.81153E+03-8.21295E+04-1.05183E-09-1.02337E-08
 -1       808-1.87638E+05-3.43304E+04-3.31364E+03-8.06137E+04 7.45217E-10 7.11218E-09
 -1       809-1.86459E+05-3.56259E+04-1.61995E+03-8.23541E+04-1.45872E-09 8.77526E-09
 -1       810-1.87709E+05-3.41278E+04-7.41761E+02-8.07327E+04 2.84035E-09 1.32087E-08
 -1       811-1.86331E+05-3.55401E+04-3.67866E+02-8.23349E+04-1.04899E-09-5.85646E-09
 -1       812-1.87721E+05-3.41430E+04-1.83590E+02-8.07323E+04 2.80352E-10-4.87080E-09
 -1       813-1.86314E+05-3.55423E+04-1.15806E+02-8.23248E+04-5.36602E-10-4.00541E-09
 -1       814-1.87719E+05-3.41487E+04-1.08602E+02-8.07298E+04-3.99723E-10 6.13682E-10
 -1       815-1.86316E+05-3.55443E+04-1.69939E+02-8.23217E+04 2.07365E-10-4.20073E-10
 -1       816-1.87707E+05-3.41476E+04-3.18405E+02-8.07274E+04-1.01409E-09 2.42153E-09
 -1       817-1.86370E+05-3.55748E+04-6.82573E+02-8.23156E+04 2.34559E-09 6.27506E-09
 -1       818-1.87666E+05-3.42436E+04-1.39110E+03-8.06820E+04-1.50794E-09-6.55155E-09
 -1       819-1.87138E+05-3.64096E+04-3.27395E+03-8.21291E+04-1.93359E-09 1.77101E-09
 -1       820-1.87402E+05-3.67191E+04-6.66310E+03-7.96267E+04-3.48336E-10-3.50644E-09
 -1       821-2.42171E+05 1.34354E+04-3.10720E+04 7.24167E+01-1.13595E-10-7.65067E-09
 -1       822-2.55637E+05-1.55538E+04-2.19878E+04-5.55649E+02-1.37766E-09-4.03816E-09
 -1       823-2.47369E+05 2.10629E+03-8.04775E+03 3.78076E+01 1.19173E-09 1.62345E-09
 -1       824-2.49578E+05-2.43797E+03-5.06371E+03-4.16492E+02 2.43645E-11 6.32207E-09
 -1       825-2.48229E+05 3.29646E+02-2.08119E+03-6.67455E+01-2.90686E-09 5.72970E-09
 -1       826-2.48577E+05-3.88802E+02-1.25657E+03-1.77281E+02-5.04740E-09-7.09548E-11
 -1       827-2.48369E+05 5.85147E+01-6.50210E+02-2.01408E+02-4.03747E-09-4.74245E-09
 -1       828-2.48441E+05-1.18621E+02-5.74947E+02 7.26766E+01-5.04218E-09 3.23551E-09
 -1       829-2.48365E+05 5.97115E+01-6.59562E+02-3.16707E+02 5.25430E-10 2.48998E-09
 -1       830-2.48593E+05-3.98344E+02-1.28794E+03 2.41572E+02 2.34864E-09 3.95035E-09
 -1       831-2.48218E+05 3.38191E+02-2.13263E+03-3.70307E+02-2.65122E-09-6.10009E-09
 -1       832-2.49617E+05-2.50105E+03-5.19675E+03 2.67938E+02-1.10142E-09-4.26627E-09
 -1       833-2.47341E+05 2.16093E+03-8.25785E+03-3.43072E+02-1.16484E-09-5.85715E-10
 -1       834-2.55822E+05-1.59594E+04-2.25618E+04 1.44342E+02-1.27172E-09 1.80262E-09
 -1       835-2.42014E+05 1.37860E+04-3.18862E+04-2.46702E+02 4.94219E-09-2.59024E-09
 -1       836-8.06281E+02 2.29312E+05 1.38127E+04-2.01360E+04 1.58843E-09-2.06728E-09
 -1       837 3.04434E+03 2.33587E+05 1.17869E+04-4.04395E+04 2.55250E-09-6.21640E-09
 -1       838-2.94298E+02 2.30502E+05 1.21460E+04-2.00679E+04 2.01953E-09-2.47780E-09
 -1       839 7.79689E+03 2.37131E+05 2.31111E+04-4.04636E+04 2.60297E-09 7.21798E-09
 -1       840-2.34093E+03 2.25737E+05 3.69086E+04-2.01104E+04 1.89175E-09 2.28124E-09
 -1       856-7.53795E+04 6.46687E+03-1.70417E+04-3.81511E+02-3.79197E-09 4.38467E-09
 -1       857-8.24195E+04-7.58460E+03-1.17329E+04 3.88597E+03-3.35531E-09-3.04703E-09
 -1       858-7.81608E+04 9.06132E+02-4.42282E+03-3.98261E+02-3.67004E-09 1.40813E-09
 -1       859-7.92251E+04-1.05348E+03-2.67130E+03 3.91268E+03 6.32951E-10 5.13734E-09
 -1       860-7.85766E+04 1.26019E+02-1.12325E+03-4.08349E+02 1.87248E-09 7.28068E-09
 -1       861-7.87460E+04-1.39178E+02-6.25785E+02 3.92647E+03-4.79534E-09-3.28116E-09
 -1       862-7.86414E+04 1.67061E+01-2.75885E+02-4.12070E+02 5.65975E-09 2.94150E-09
 -1       863-7.86695E+04-1.02402E+01-1.36259E+02 3.92812E+03 9.13400E-09 4.69308E-09
 -1       864-7.86533E+04-9.31440E-02-4.24372E+01-4.10008E+02 5.82413E-09-1.28870E-09
 -1       865-7.86471E+04 1.95019E+01 2.65163E+01 3.91774E+03 5.98473E-09-3.75946E-09
 -1       866-7.86625E+04-1.33906E+01 9.48284E+01-4.01684E+02 1.82922E-09-5.40653E-09
 -1       867-7.85918E+04 1.12436E+02 2.59871E+02 3.89516E+03 1.58934E-09-3.25606E-09
 -1       868-7.87061E+04-9.24344E+01 4.38318E+02-3.87432E+02 8.28777E-11 2.83023E-10
 -1       869-7.82629E+04 7.66665E+02 1.17667E+03 3.85768E+03-6.36646E-10-7.95171E-09
 -1       870-7.89875E+04-6.51430E+02 1.70651E+03-3.64209E+02 2.00424E-09-5.99539E-09
 -1       871-3.54889E+03-7.38555E+03-1.15023E+04 7.53921E+04 1.70985E-09 4.98403E-10
 -1       872-1.54893E+03-9.95670E+03-4.68451E+03 9.77404E+04 4.35693E-09 5.20140E-09
 -1       873-4.28340E+01-8.75478E+03 6.80933E+02 7.52259E+04 2.23395E-09 4.02667E-09
 -1       874 1.76285E+03-7.07418E+03 6.55089E+03 9.77755E+04 3.46427E-09-4.16321E-10
 -1       875 4.19502E+03-1.03104E+04 1.45201E+04 7.53642E+04 1.78079E-09 1.05229E-09
 -1       876 1.88600E+05 3.25293E+04 1.01095E+04 7.65543E+04-5.23073E-09-4.21369E-09
 -1       877 1.89171E+05 3.47549E+04 5.39866E+03 7.95512E+04-6.75288E-09-7.14590E-09
 -1       878 1.89545E+05 3.14102E+04 2.26180E+03 7.73844E+04 2.10048E-09-1.02364E-09
 -1       879 1.87796E+05 3.33856E+04 1.12669E+03 7.96233E+04-1.11686E-09-1.84369E-09
 -1       880 1.89614E+05 3.13975E+04 5.24532E+02 7.74182E+04-2.62708E-09-8.42817E-10
 -1       881 1.87704E+05 3.33275E+04 2.79326E+02 7.96093E+04-8.15226E-09-7.76985E-09
 -1       882 1.89621E+05 3.14057E+04 1.77374E+02 7.74192E+04 5.65251E-10 6.10674E-09
 -1       883 1.87698E+05 3.33248E+04 1.88536E+02 7.96054E+04 4.82157E-09 1.17240E-08
 -1       884 1.89617E+05 3.14035E+04 2.97978E+02 7.74193E+04 2.93227E-09 4.80634E-09
 -1       885 1.87721E+05 3.33291E+04 5.97894E+02 7.96129E+04 5.96589E-09-1.29950E-09
 -1       886 1.89594E+05 3.13861E+04 1.20447E+03 7.74170E+04-6.89056E-10-1.03229E-08
 -1       887 1.87933E+05 3.34678E+04 2.63082E+03 7.96433E+04-1.21770E-09-9.74296E-11
 -1       888 1.89428E+05 3.14154E+04 5.30116E+03 7.73328E+04-5.99130E-10-2.16914E-09
 -1       889 1.91093E+05 3.67472E+04 1.26642E+04 7.95427E+04-9.69749E-11 6.99652E-09
 -1       890 1.87267E+05 3.39812E+04 2.37189E+04 7.53106E+04 5.25961E-09 8.51378E-09
 -1       891-1.19356E+02-1.07261E+05-1.26422E+03 2.04255E+04 2.35968E-09-1.21418E-09
 -1       892-2.07298E+02-1.07562E+05-1.37623E+03 3.09074E+04-5.99357E-10 3.84148E-10
 -1       893-3.50588E+01-1.07300E+05-1.96749E+03 2.04294E+04 2.27556E-09 5.13955E-09
 -1       894-1.07833E+03-1.08319E+05-4.08599E+03 3.07977E+04 1.11868E-09 7.57882E-09
 -1       895-8.41847E+02-1.06451E+05-7.20037E+03 2.05337E+04-3.81817E-10-2.69256E-09
 -1       956-2.36964E+05-3.41763E+03-8.60854E+03 1.56583E+04-8.05630E-09 5.71958E-10
 -1       957-2.38664E+05-1.15147E+03-4.41935E+03 1.88547E+04-9.22523E-09 2.12685E-09
 -1       958-2.37727E+05-9.02060E+01-1.99098E+03 1.55559E+04-1.57661E-09-3.26963E-10
 -1       959-2.37862E+05-1.40973E+01-1.01697E+03 1.89654E+04-1.32059E-09 6.89420E-09
 -1       960-2.37794E+05 2.99938E+01-4.95667E+02 1.55462E+04-4.59795E-09-4.73165E-10
 -1       961-2.37803E+05 2.84084E+01-2.62797E+02 1.89763E+04-7.17500E-09 2.20791E-09
 -1       962-2.37807E+05 2.62673E+01-1.50014E+02 1.55448E+04-3.30124E-09-2.75577E-09
 -1       963-2.37800E+05 2.93189E+01-1.19690E+02 1.89782E+04-3.84853E-09 2.33706E-09
 -1       964-2.37810E+05 2.78720E+01-1.44362E+02 1.55443E+04-1.89834E-09-4.44834E-09
 -1       965-2.37809E+05 3.19518E+01-2.48666E+02 1.89783E+04 1.83995E-09-1.07866E-09
 -1       966-2.37803E+05 3.47164E+01-4.66299E+02 1.55447E+04-1.40801E-09-5.12864E-09
 -1       967-2.37871E+05-4.52312E+00-9.56143E+02 1.89725E+04 3.60046E-10-4.72414E-09
 -1       968-2.37745E+05-7.49937E+01-1.87096E+03 1.55502E+04 1.26010E-09-2.14612E-09
 -1       969-2.38631E+05-1.07062E+03-4.15406E+03 1.89079E+04 2.54477E-09 1.40329E-09
 -1       970-2.37032E+05-3.20063E+03-8.09108E+03 1.56117E+04 1.08435E-09 2.16278E-09
 -1       971-2.25162E+05-1.18934E+03-6.62451E+03 1.10150E+04-4.72482E-09-5.66445E-10
 -1       972-2.26774E+05-8.51833E+02-3.60782E+03 1.53874E+04-3.50087E-09 8.89031E-10
 -1       973-2.25898E+05-6.10228E+00-1.61533E+03 1.09234E+04-4.31237E-09-3.50883E-09
 -1       974-2.26010E+05-5.99947E+00-8.36854E+02 1.54859E+04 8.08768E-10 6.17672E-09
 -1       975-2.25954E+05 2.42335E+01-4.17199E+02 1.09154E+04 2.18915E-09 1.33457E-09
 -1       976-2.25964E+05 2.80880E+01-2.38875E+02 1.54954E+04-2.47553E-09-4.05294E-09
 -1       977-2.25964E+05 2.36023E+01-1.70001E+02 1.09138E+04-5.24324E-10-2.85786E-09
 -1       978-2.25966E+05 3.15871E+01-1.94413E+02 1.54978E+04 1.08922E-08-1.95757E-09
 -1       979-2.25964E+05 2.86304E+01-3.08411E+02 1.09131E+04 3.44630E-09 3.42027E-09
 -1       980-2.25988E+05 3.33914E+01-5.93030E+02 1.54981E+04 4.46265E-09 2.42409E-09
 -1       981-2.25945E+05 4.34165E+01-1.14722E+03 1.09134E+04 2.41289E-09 2.29375E-09
 -1       982-2.26146E+05-5.11224E+01-2.37052E+03 1.54937E+04 5.13637E-10 8.76702E-09
 -1       983-2.25801E+05-2.96520E+01-4.60547E+03 1.09177E+04 2.56750E-09 1.60537E-09
 -1       984-2.28362E+05-2.45570E+03-1.03131E+04 1.54317E+04-3.29692E-10-3.39696E-09
 -1       985-2.23717E+05-3.39929E+03-1.89382E+04 1.09798E+04 2.67346E-09 1.55251E-09
 -3
    1PSTEP                         9           5           1          
  100CL  105 4.72656E-01         409                     0    5           1
 -4  DISP        4    1
 -5  D1          1    2    1    0
 -5  D2          1    2    2    0
 -5  D3          1    2    3    0
 -5  ALL         1    2    0    0    1ALL
 -1         1 1.29548E-04 0.00000E+00 0.00000E+00
 -1         2 1.19322E-04 4.07491E-31 0.00000E+00
 -1         3 1.12481E-04-2.18273E-27 6.61744E-24
 -1         5 7.93405E-05 2.18576E-27-6.61744E-24
 -1         8 1.04973E-04-8.86988E-07 0.00000E+00
 -1         9 1.05500E-04 3.77975E-07 0.00000E+00
 -1        10 1.04052E-04-1.53254E-06-3.30872E-24
 -1        12 7.88591E-05 5.16785E-07-3.30872E-24
 -1        15 7.56620E-05-9.79862E-07 0.00000E+00
 -1        16 7.71462E-05 2.12957E-07 0.00000E+00
 -1        17 7.71340E-05-3.23791E-06 0.00000E+00
 -1        18 7.64141E-05 9.28249E-07 0.00000E+00
 -1        19 7.74149E-05 1.03072E-06 0.00000E+00
 -1        20 7.75476E-05 1.46030E-05 0.00000E+00
 -1        21 7.70419E-05 2.74725E-05 0.00000E+00
 -1        24 1.88315E-05-4.41552E-06 0.00000E+00
 -1        25 7.49764E-05 1.04788E-06 0.00000E+00
 -1        26 7.59084E-05 1.43529E-06 0.00000E+00
 -1        27 7.44776E-05 1.23056E-05 0.00000E+00
 -1        28 7.40225E-05 2.70321E-05 0.00000E+00
 -1        32 0.00000E+00 0.00000E+00 0.00000E+00
 -1        33 7.31832E-05 1.92373E-06 0.00000E+00
 -1        34 7.18017E-05 1.22848E-05 0.00000E+00
 -1        35 7.04894E-05 2.67994E-05 0.00000E+00
 -1        51 1.27953E-04-1.45787E-07 0.00000E+00
 -1        52 1.24994E-04-2.87588E-07 0.00000E+00
 -1        53 1.20937E-04-4.30898E-07 0.00000E+00
 -1        54 1.16063E-04-5.77177E-07 3.30872E-24
 -1        55 1.10648E-04-7.27170E-07 2.63664E-24
 -1        56 1.28393E-04-7.67795E-07 2.64698E-23
 -1        57 1.27393E-04-2.08673E-06 0.00000E+00
 -1        58 1.26546E-04-3.80389E-06 2.64698E-23
 -1        59 1.25785E-04-5.77480E-06 2.64698E-23
 -1        60 1.25056E-04-7.83287E-06 5.29396E-23
 -1        61 1.24296E-04-9.81198E-06 0.00000E+00
 -1        62 1.23446E-04-1.15503E-05 0.00000E+00
 -1        63 1.22448E-04-1.28939E-05 0.00000E+00
 -1        64 1.21254E-04-1.37134E-05 0.00000E+00
 -1        65 1.19821E-04-1.38954E-05 2.64698E-23
 -1        66 1.18121E-04-1.33665E-05 0.00000E+00
 -1        67 1.16135E-04-1.20747E-05-2.64698E-23
 -1        68 1.13860E-04-1.00163E-05 0.00000E+00
 -1        69 1.11309E-04-7.20826E-06 0.00000E+00
 -1        70 1.08498E-04-3.71974E-06 2.64698E-23
 -1        86 1.18958E-04 7.11739E-08 1.65436E-24
 -1        87 1.17867E-04 1.41304E-07 8.27181E-25
 -1        88 1.16018E-04 2.10284E-07 0.00000E+00
 -1        89 1.13381E-04 2.74210E-07-4.13590E-25
 -1        90 1.09896E-04 3.36767E-07 0.00000E+00
 -1       121 1.12245E-04-2.54094E-07-6.61744E-24
 -1       122 1.11540E-04-5.08405E-07 0.00000E+00
 -1       123 1.10365E-04-7.63150E-07 0.00000E+00
 -1       124 1.08724E-04-1.01858E-06 3.30872E-24
 -1       125 1.06618E-04-1.27484E-06 0.00000E+00
 -1       191 7.93272E-05 8.61379E-08 0.00000E+00
 -1       192 7.92870E-05 1.72274E-07 0.00000E+00
 -1       193 7.92202E-05 2.58409E-07 0.00000E+00
 -1       194 7.91266E-05 3.44541E-07 1.65436E-24
 -1       195 7.90062E-05 4.30667E-07-3.30872E-24
 -1       251 1.04986E-04 3.17143E-06 0.00000E+00
 -1       252 1.05019E-04 5.60084E-06 0.00000E+00
 -1       253 1.05053E-04 6.65894E-06-2.06795E-25
 -1       254 1.05091E-04 6.60095E-06 2.06795E-25
 -1       255 1.05128E-04 5.65994E-06-8.27181E-25
 -1       256 1.05165E-04 4.06755E-06-4.13590E-25
 -1       257 1.05202E-04 2.04227E-06 8.27181E-25
 -1       258 1.05238E-04-1.98089E-07-4.13590E-25
 -1       259 1.05274E-04-2.44013E-06-8.27181E-25
 -1       260 1.05311E-04-4.47041E-06-4.13590E-25
 -1       261 1.05348E-04-6.07118E-06 0.00000E+00
 -1       262 1.05385E-04-7.02407E-06 2.06795E-25
 -1       263 1.05422E-04-7.09759E-06 4.13590E-25
 -1       264 1.05456E-04-6.05882E-06 0.00000E+00
 -1       265 1.05489E-04-3.65276E-06 6.61744E-24
 -1       266 1.00088E-04-9.14525E-07 6.61744E-24
 -1       267 9.52030E-05-9.28535E-07 0.00000E+00
 -1       268 9.03177E-05-9.43400E-07 0.00000E+00
 -1       269 8.54325E-05-9.55729E-07 0.00000E+00
 -1       270 8.05473E-05-9.67997E-07 0.00000E+00
 -1       271 1.01935E-04 2.77554E-06 0.00000E+00
 -1       272 9.93250E-05 5.15719E-06 7.94093E-23
 -1       273 9.71499E-05 6.39406E-06-5.29396E-23
 -1       274 9.53452E-05 6.62343E-06-2.64698E-23
 -1       275 9.38557E-05 6.01164E-06 0.00000E+00
 -1       276 9.26121E-05 4.73930E-06 2.64698E-23
 -1       277 9.15418E-05 3.00287E-06 5.29396E-23
 -1       278 9.05679E-05 1.00791E-06-2.64698E-23
 -1       279 8.96115E-05-1.03402E-06-5.29396E-23
 -1       280 8.85934E-05-2.91037E-06-2.64698E-23
 -1       281 8.74355E-05-4.41254E-06 0.00000E+00
 -1       282 8.60634E-05-5.33940E-06 2.64698E-23
 -1       283 8.44055E-05-5.50333E-06-5.29396E-23
 -1       284 8.24015E-05-4.73035E-06 0.00000E+00
 -1       285 7.99866E-05-2.87201E-06 0.00000E+00
 -1       301 1.00601E-04 3.43269E-07 0.00000E+00
 -1       302 9.57223E-05 3.24055E-07 0.00000E+00
 -1       303 9.09010E-05 3.05550E-07 0.00000E+00
 -1       304 8.61735E-05 2.85827E-07 0.00000E+00
 -1       305 8.15766E-05 2.64255E-07-1.32349E-23
 -1       306 1.02352E-04 3.95509E-06 0.00000E+00
 -1       307 9.96934E-05 6.08413E-06-2.64698E-23
 -1       308 9.76121E-05 6.69159E-06-5.29396E-23
 -1       309 9.61010E-05 5.75268E-06-2.64698E-23
 -1       310 9.50867E-05 3.48496E-06 5.29396E-23
 -1       311 9.44619E-05 1.66825E-07 2.64698E-23
 -1       312 9.40640E-05-3.76209E-06 0.00000E+00
 -1       313 9.37186E-05-7.83309E-06 0.00000E+00
 -1       314 9.32435E-05-1.15552E-05 5.29396E-23
 -1       315 9.24627E-05-1.44544E-05 0.00000E+00
 -1       316 9.12452E-05-1.61832E-05 0.00000E+00
 -1       317 8.94824E-05-1.64503E-05 2.64698E-23
 -1       318 8.71444E-05-1.51880E-05-5.29396E-23
 -1       319 8.42410E-05-1.23981E-05-2.64698E-23
 -1       320 8.08459E-05-8.32292E-06-2.64698E-23
 -1       336 1.00969E-04-1.81172E-06 6.61744E-24
 -1       337 9.73129E-05-2.09313E-06 3.30872E-24
 -1       338 9.30917E-05-2.37660E-06 0.00000E+00
 -1       339 8.83144E-05-2.66204E-06 0.00000E+00
 -1       340 8.29912E-05-2.95018E-06 6.61744E-24
 -1       406 7.86852E-05 6.02888E-07 0.00000E+00
 -1       407 7.84846E-05 6.88959E-07-1.65436E-24
 -1       408 7.82571E-05 7.74971E-07 3.30872E-24
 -1       409 7.80030E-05 8.60819E-07-1.65436E-24
 -1       410 7.77222E-05 9.46333E-07-3.30872E-24
 -1       521 7.53713E-05-3.77216E-06 5.29396E-23
 -1       522 7.86155E-05-2.18252E-05-2.64698E-23
 -1       523 8.57415E-05-5.08997E-05 0.00000E+00
 -1       524 9.52665E-05-8.70602E-05 5.29396E-23
 -1       525 1.05339E-04-1.24841E-04 0.00000E+00
 -1       526 1.14063E-04-1.58642E-04 0.00000E+00
 -1       527 1.19774E-04-1.83724E-04-1.05879E-22
 -1       528 1.20955E-04-1.96081E-04 0.00000E+00
 -1       529 1.16942E-04-1.94423E-04 1.05879E-22
 -1       530 1.07463E-04-1.78599E-04 0.00000E+00
 -1       531 9.34507E-05-1.51416E-04-1.05879E-22
 -1       532 7.62912E-05-1.16563E-04 5.29396E-23
 -1       533 5.81335E-05-7.93050E-05-1.05879E-22
 -1       534 4.12561E-05-4.50783E-05 2.64698E-23
 -1       535 2.75889E-05-1.87211E-05 5.29396E-23
 -1       536 7.70697E-05 2.43356E-06-3.30872E-24
 -1       537 7.70162E-05 7.20860E-06-1.65436E-24
 -1       538 7.69663E-05 1.10057E-05 0.00000E+00
 -1       539 7.69210E-05 1.37454E-05-8.27181E-25
 -1       540 7.68779E-05 1.54417E-05 0.00000E+00
 -1       541 7.68362E-05 1.61108E-05-8.27181E-25
 -1       542 7.67947E-05 1.58596E-05-1.65436E-24
 -1       543 7.67528E-05 1.47967E-05 0.00000E+00
 -1       544 7.67101E-05 1.31028E-05-1.65436E-24
 -1       545 7.66666E-05 1.09595E-05 0.00000E+00
 -1       546 7.66226E-05 8.58817E-06-1.65436E-24
 -1       547 7.65788E-05 6.21075E-06-4.13590E-25
 -1       548 7.65354E-05 4.04960E-06 0.00000E+00
 -1       549 7.64934E-05 2.32675E-06 4.13590E-25
 -1       550 7.64520E-05 1.22558E-06 0.00000E+00
 -1       551 6.94408E-05-3.41327E-06-6.61744E-24
 -1       552 6.02441E-05-3.59761E-06-1.65436E-24
 -1       553 5.00606E-05-3.79082E-06 1.65436E-24
 -1       554 3.94150E-05-3.99083E-06 3.30872E-24
 -1       555 2.88317E-05-4.19292E-06-1.32349E-23
 -1       556 7.50987E-05 2.03267E-06 0.00000E+00
 -1       557 7.35369E-05 6.08121E-06 0.00000E+00
 -1       558 7.23973E-05 9.01910E-06 0.00000E+00
 -1       559 7.16329E-05 1.09666E-05 0.00000E+00
 -1       560 7.11969E-05 1.20438E-05 0.00000E+00
 -1       561 7.10429E-05 1.23714E-05 0.00000E+00
 -1       562 7.11249E-05 1.20702E-05 0.00000E+00
 -1       563 7.13973E-05 1.12613E-05 0.00000E+00
 -1       564 7.18144E-05 1.00658E-05 0.00000E+00
 -1       565 7.23307E-05 8.60470E-06-3.30872E-24
 -1       566 7.29009E-05 6.99938E-06 8.27181E-25
 -1       567 7.34797E-05 5.37104E-06-2.06795E-25
 -1       568 7.40219E-05 3.84088E-06 0.00000E+00
 -1       569 7.44821E-05 2.53000E-06 0.00000E+00
 -1       570 7.48151E-05 1.55952E-06 0.00000E+00
 -1       571 7.64748E-05 9.72079E-07 1.24077E-24
 -1       572 7.65369E-05 9.74451E-07-6.20385E-25
 -1       573 7.65994E-05 9.42814E-07 0.00000E+00
 -1       574 7.66620E-05 8.85008E-07-4.13590E-25
 -1       575 7.67247E-05 8.08905E-07 1.65436E-24
 -1       576 7.67875E-05 7.22429E-07 0.00000E+00
 -1       577 7.68503E-05 6.33510E-07 0.00000E+00
 -1       578 7.69130E-05 5.50084E-07 0.00000E+00
 -1       579 7.69758E-05 4.80088E-07 0.00000E+00
 -1       580 7.70386E-05 4.31457E-07 0.00000E+00
 -1       581 7.71014E-05 4.12129E-07 0.00000E+00
 -1       582 7.71641E-05 4.30030E-07 0.00000E+00
 -1       583 7.72269E-05 4.93080E-07-3.30872E-24
 -1       584 7.72896E-05 6.09118E-07-3.30872E-24
 -1       585 7.73523E-05 7.85937E-07 0.00000E+00
 -1       586 7.61514E-05 9.49416E-07 0.00000E+00
 -1       587 7.58625E-05 9.70066E-07 0.00000E+00
 -1       588 7.55737E-05 9.90491E-07 0.00000E+00
 -1       589 7.53120E-05 1.01059E-06 0.00000E+00
 -1       590 7.51042E-05 1.03015E-06 0.00000E+00
 -1       591 7.63681E-05 1.00480E-06 1.55096E-25
 -1       592 7.63324E-05 1.04770E-06 0.00000E+00
 -1       593 7.63066E-05 1.06335E-06 0.00000E+00
 -1       594 7.62886E-05 1.05756E-06-2.06795E-25
 -1       595 7.62764E-05 1.03618E-06 0.00000E+00
 -1       596 7.62679E-05 1.00503E-06 0.00000E+00
 -1       597 7.62607E-05 9.69914E-07 0.00000E+00
 -1       598 7.62529E-05 9.36653E-07 2.06795E-25
 -1       599 7.62422E-05 9.11051E-07-4.13590E-25
 -1       600 7.62265E-05 8.98919E-07 2.06795E-25
 -1       601 7.62036E-05 9.06064E-07 0.00000E+00
 -1       602 7.61713E-05 9.38301E-07 0.00000E+00
 -1       603 7.61275E-05 1.00144E-06 4.13590E-25
 -1       604 7.60702E-05 1.10136E-06 1.03398E-25
 -1       605 7.59971E-05 1.24382E-06 0.00000E+00
 -1       606 7.74264E-05 1.41848E-06 0.00000E+00
 -1       607 7.74357E-05 1.89469E-06 0.00000E+00
 -1       608 7.74444E-05 2.45414E-06 0.00000E+00
 -1       609 7.74528E-05 3.09099E-06 0.00000E+00
 -1       610 7.74610E-05 3.79935E-06 0.00000E+00
 -1       611 7.74691E-05 4.57326E-06 0.00000E+00
 -1       612 7.74772E-05 5.40673E-06 0.00000E+00
 -1       613 7.74852E-05 6.29382E-06 0.00000E+00
 -1       614 7.74932E-05 7.22854E-06 1.65436E-24
 -1       615 7.75011E-05 8.20490E-06 8.27181E-25
 -1       616 7.75090E-05 9.21693E-06-1.65436E-24
 -1       617 7.75169E-05 1.02587E-05 0.00000E+00
 -1       618 7.75247E-05 1.13241E-05 0.00000E+00
 -1       619 7.75325E-05 1.24073E-05 0.00000E+00
 -1       620 7.75402E-05 1.35023E-05 0.00000E+00
 -1       621 7.71161E-05 1.09820E-06 0.00000E+00
 -1       622 7.68439E-05 1.16600E-06 8.27181E-25
 -1       623 7.65928E-05 1.23380E-06-1.65436E-24
 -1       624 7.63569E-05 1.30148E-06 8.27181E-25
 -1       625 7.61307E-05 1.36905E-06 0.00000E+00
 -1       626 7.73418E-05 1.43983E-06 0.00000E+00
 -1       627 7.72418E-05 1.92202E-06 0.00000E+00
 -1       628 7.71171E-05 2.47047E-06 3.30872E-24
 -1       629 7.69703E-05 3.07792E-06-1.65436E-24
 -1       630 7.68041E-05 3.73708E-06 0.00000E+00
 -1       631 7.66212E-05 4.44064E-06-1.65436E-24
 -1       632 7.64244E-05 5.18125E-06 0.00000E+00
 -1       633 7.62164E-05 5.95160E-06-1.65436E-24
 -1       634 7.60000E-05 6.74436E-06-3.30872E-24
 -1       635 7.57779E-05 7.55220E-06 0.00000E+00
 -1       636 7.55529E-05 8.36781E-06 0.00000E+00
 -1       637 7.53278E-05 9.18385E-06 0.00000E+00
 -1       638 7.51051E-05 9.99299E-06-1.65436E-24
 -1       639 7.48876E-05 1.07879E-05 0.00000E+00
 -1       640 7.46779E-05 1.15613E-05 1.65436E-24
 -1       656 7.66385E-05 1.42292E-05-6.61744E-24
 -1       657 7.60626E-05 1.38405E-05 3.30872E-24
 -1       658 7.56938E-05 1.34530E-05-6.61744E-24
 -1       659 7.54027E-05 1.30658E-05 0.00000E+00
 -1       660 7.50450E-05 1.26774E-05-6.61744E-24
 -1       661 7.72117E-05 1.56803E-05 0.00000E+00
 -1       662 7.68970E-05 1.67090E-05 8.27181E-25
 -1       663 7.66000E-05 1.76903E-05 1.65436E-24
 -1       664 7.63203E-05 1.86268E-05 8.27181E-25
 -1       665 7.60568E-05 1.95204E-05-1.65436E-24
 -1       666 7.58087E-05 2.03731E-05 8.27181E-25
 -1       667 7.55753E-05 2.11868E-05-1.65436E-24
 -1       668 7.53558E-05 2.19634E-05-8.27181E-25
 -1       669 7.51497E-05 2.27046E-05 0.00000E+00
 -1       670 7.49562E-05 2.34122E-05 8.27181E-25
 -1       671 7.47747E-05 2.40876E-05 0.00000E+00
 -1       672 7.46046E-05 2.47324E-05-8.27181E-25
 -1       673 7.44454E-05 2.53481E-05 0.00000E+00
 -1       674 7.42959E-05 2.59358E-05 0.00000E+00
 -1       675 7.41565E-05 2.64973E-05 4.13590E-25
 -1       676 7.65374E-05 2.73986E-05-1.65436E-24
 -1       677 7.60332E-05 2.73248E-05-8.27181E-25
 -1       678 7.55293E-05 2.72511E-05 1.65436E-24
 -1       679 7.50261E-05 2.71775E-05 0.00000E+00
 -1       680 7.45238E-05 2.71040E-05 0.00000E+00
 -1       771 1.48454E-05 3.30508E-06-2.64698E-23
 -1       772 1.13839E-05 9.62962E-06 1.32349E-23
 -1       773 8.42512E-06 1.46348E-05-2.64698E-23
 -1       774 5.93584E-06 1.84028E-05 0.00000E+00
 -1       775 3.88328E-06 2.10178E-05-2.64698E-23
 -1       776 2.23320E-06 2.25670E-05-1.32349E-23
 -1       777 9.50933E-07 2.31396E-05 0.00000E+00
 -1       778 1.05871E-09 2.28273E-05 1.32349E-23
 -1       779-6.52133E-07 2.17234E-05 2.64698E-23
 -1       780-1.04500E-06 1.99233E-05 0.00000E+00
 -1       781-1.21402E-06 1.75235E-05 0.00000E+00
 -1       782-1.19620E-06 1.46224E-05-1.32349E-23
 -1       783-1.02859E-06 1.13190E-05 2.64698E-23
 -1       784-7.48545E-07 7.71347E-06-1.32349E-23
 -1       785-3.93526E-07 3.90660E-06-2.64698E-23
 -1       786 7.50313E-05 9.96197E-07-4.13590E-25
 -1       787 7.50894E-05 9.51266E-07 0.00000E+00
 -1       788 7.51473E-05 9.12466E-07 0.00000E+00
 -1       789 7.52058E-05 8.79198E-07 0.00000E+00
 -1       790 7.52643E-05 8.51610E-07 1.65436E-24
 -1       791 7.53230E-05 8.29864E-07 0.00000E+00
 -1       792 7.53816E-05 8.14913E-07-1.65436E-24
 -1       793 7.54403E-05 8.07727E-07 0.00000E+00
 -1       794 7.54990E-05 8.10326E-07 1.65436E-24
 -1       795 7.55577E-05 8.24757E-07 0.00000E+00
 -1       796 7.56164E-05 8.54668E-07 0.00000E+00
 -1       797 7.56751E-05 9.03745E-07-8.27181E-25
 -1       798 7.57337E-05 9.78269E-07 0.00000E+00
 -1       799 7.57922E-05 1.08458E-06 8.27181E-25
 -1       800 7.58508E-05 1.23334E-06 0.00000E+00
 -1       801 6.99129E-05 9.67300E-07 0.00000E+00
 -1       802 5.47283E-05 7.85533E-07 0.00000E+00
 -1       803 3.48019E-05 5.28132E-07 0.00000E+00
 -1       804 1.55278E-05 2.76221E-07-3.30872E-24
 -1       805 2.17481E-06 1.13723E-07 0.00000E+00
 -1       806 7.49234E-05 9.54487E-07 0.00000E+00
 -1       807 7.48668E-05 8.62646E-07 0.00000E+00
 -1       808 7.48074E-05 7.76871E-07 0.00000E+00
 -1       809 7.47440E-05 7.00970E-07 8.27181E-25
 -1       810 7.46754E-05 6.38746E-07 0.00000E+00
 -1       811 7.46002E-05 5.93940E-07-1.65436E-24
 -1       812 7.45170E-05 5.70292E-07 0.00000E+00
 -1       813 7.44245E-05 5.71531E-07 8.27181E-25
 -1       814 7.43212E-05 6.01382E-07 1.65436E-24
 -1       815 7.42058E-05 6.63569E-07 0.00000E+00
 -1       816 7.40769E-05 7.61811E-07 1.65436E-24
 -1       817 7.39332E-05 8.99828E-07 1.65436E-24
 -1       818 7.37731E-05 1.08133E-06 0.00000E+00
 -1       819 7.35954E-05 1.31003E-06 4.13590E-25
 -1       820 7.33989E-05 1.58962E-06-8.27181E-25
 -1       821 7.58242E-05 1.65633E-06 0.00000E+00
 -1       822 7.57348E-05 1.86308E-06 0.00000E+00
 -1       823 7.56458E-05 2.09654E-06 1.65436E-24
 -1       824 7.55557E-05 2.39760E-06-1.65436E-24
 -1       825 7.54656E-05 2.79452E-06 3.30872E-24
 -1       826 7.53752E-05 3.31517E-06 0.00000E+00
 -1       827 7.52848E-05 3.96428E-06-3.30872E-24
 -1       828 7.51942E-05 4.74608E-06 0.00000E+00
 -1       829 7.51035E-05 5.63999E-06 0.00000E+00
 -1       830 7.50128E-05 6.62497E-06 1.65436E-24
 -1       831 7.49221E-05 7.66300E-06 0.00000E+00
 -1       832 7.48315E-05 8.71581E-06 1.65436E-24
 -1       833 7.47410E-05 9.74234E-06 0.00000E+00
 -1       834 7.46516E-05 1.07017E-05 0.00000E+00
 -1       835 7.45619E-05 1.15655E-05 0.00000E+00
 -1       836 7.55914E-05 1.51661E-06 1.65436E-24
 -1       837 7.51674E-05 1.59972E-06 8.27181E-25
 -1       838 7.46753E-05 1.68268E-06-1.65436E-24
 -1       839 7.41544E-05 1.76510E-06 0.00000E+00
 -1       840 7.36440E-05 1.84739E-06-2.06795E-25
 -1       856 7.44524E-05 1.30363E-05 0.00000E+00
 -1       857 7.44243E-05 1.38650E-05 0.00000E+00
 -1       858 7.43963E-05 1.47762E-05 0.00000E+00
 -1       859 7.43677E-05 1.57545E-05-4.13590E-25
 -1       860 7.43390E-05 1.67843E-05 0.00000E+00
 -1       861 7.43102E-05 1.78500E-05 0.00000E+00
 -1       862 7.42814E-05 1.89358E-05-8.27181E-25
 -1       863 7.42525E-05 2.00261E-05 4.13590E-25
 -1       864 7.42237E-05 2.11052E-05 0.00000E+00
 -1       865 7.41948E-05 2.21573E-05 0.00000E+00
 -1       866 7.41660E-05 2.31669E-05-8.27181E-25
 -1       867 7.41373E-05 2.41183E-05 4.13590E-25
 -1       868 7.41086E-05 2.49959E-05 0.00000E+00
 -1       869 7.40799E-05 2.57843E-05 0.00000E+00
 -1       870 7.40513E-05 2.64682E-05 8.27181E-25
 -1       871 7.39318E-05 1.23048E-05 4.13590E-25
 -1       872 7.34805E-05 1.23020E-05 0.00000E+00
 -1       873 7.30829E-05 1.22989E-05 4.13590E-25
 -1       874 7.26980E-05 1.22953E-05-1.55096E-25
 -1       875 7.22845E-05 1.22913E-05 8.27181E-25
 -1       876 7.42893E-05 1.30445E-05-1.65436E-24
 -1       877 7.40851E-05 1.38311E-05-1.65436E-24
 -1       878 7.38654E-05 1.46596E-05-3.30872E-24
 -1       879 7.36321E-05 1.55247E-05 0.00000E+00
 -1       880 7.33871E-05 1.64209E-05 0.00000E+00
 -1       881 7.31325E-05 1.73429E-05-3.30872E-24
 -1       882 7.28703E-05 1.82853E-05 3.30872E-24
 -1       883 7.26023E-05 1.92428E-05 1.65436E-24
 -1       884 7.23308E-05 2.02100E-05 3.30872E-24
 -1       885 7.20575E-05 2.11815E-05 0.00000E+00
 -1       886 7.17847E-05 2.21520E-05 3.30872E-24
 -1       887 7.15141E-05 2.31161E-05-8.27181E-25
 -1       888 7.12479E-05 2.40684E-05-1.65436E-24
 -1       889 7.09876E-05 2.50035E-05 8.27181E-25
 -1       890 7.07354E-05 2.59160E-05 0.00000E+00
 -1       891 7.35403E-05 2.69932E-05 0.00000E+00
 -1       892 7.30413E-05 2.69541E-05-4.13590E-25
 -1       893 7.25060E-05 2.69150E-05 8.27181E-25
 -1       894 7.19152E-05 2.68761E-05 2.06795E-25
 -1       895 7.12493E-05 2.68372E-05 4.13590E-25
 -1       956 7.30984E-05 2.36912E-06 0.00000E+00
 -1       957 7.30123E-05 2.86985E-06 8.27181E-25
 -1       958 7.29260E-05 3.42014E-06-3.30872E-24
 -1       959 7.28394E-05 4.01386E-06 0.00000E+00
 -1       960 7.27528E-05 4.64490E-06-1.65436E-24
 -1       961 7.26661E-05 5.30709E-06 8.27181E-25
 -1       962 7.25795E-05 5.99425E-06-3.30872E-24
 -1       963 7.24927E-05 6.70023E-06-8.27181E-25
 -1       964 7.24060E-05 7.41885E-06-3.30872E-24
 -1       965 7.23193E-05 8.14392E-06-1.65436E-24
 -1       966 7.22326E-05 8.86929E-06 3.30872E-24
 -1       967 7.21459E-05 9.58876E-06-1.65436E-24
 -1       968 7.20593E-05 1.02962E-05 0.00000E+00
 -1       969 7.19729E-05 1.09854E-05 4.96308E-24
 -1       970 7.18866E-05 1.16502E-05 0.00000E+00
 -1       971 7.17208E-05 1.29373E-05-1.65436E-24
 -1       972 7.16387E-05 1.36626E-05 0.00000E+00
 -1       973 7.15565E-05 1.44526E-05-1.65436E-24
 -1       974 7.14741E-05 1.52988E-05-1.65436E-24
 -1       975 7.13917E-05 1.61930E-05 1.65436E-24
 -1       976 7.13092E-05 1.71269E-05 1.65436E-24
 -1       977 7.12266E-05 1.80919E-05 0.00000E+00
 -1       978 7.11440E-05 1.90798E-05 8.27181E-25
 -1       979 7.10615E-05 2.00821E-05 0.00000E+00
 -1       980 7.09789E-05 2.10906E-05 0.00000E+00
 -1       981 7.08963E-05 2.20967E-05 3.30872E-24
 -1       982 7.08139E-05 2.30921E-05 1.65436E-24
 -1       983 7.07315E-05 2.40684E-05 0.00000E+00
 -1       984 7.06496E-05 2.50173E-05-8.27181E-25
 -1       985 7.05679E-05 2.59303E-05-1.65436E-24
 -3
    1PSTEP                        10           5           1          
  100CL  105 4.72656E-01         409                     0    5           1
 -4  STRESS      6    1
 -5  SXX         1    4    1    1
 -5  SYY         1    4    2    2
 -5  SZZ         1    4    3    3
 -5  SXY         1    4    1    2
 -5  SYZ         1    4    2    3
 -5  SZX         1    4    3    1
 -1         1-1.68746E+06-7.63606E+05-3.47631E+05-1.06211E+06 1.30967E-10-5.52973E-09
 -1         2 2.63319E+03 2.07402E+05 8.64149E+03 6.40253E+02-1.59588E-10 1.08504E-08
 -1         3-9.29963E+01-7.25803E+05 1.69898E+02-2.71599E+02-9.51879E-11 8.58927E-09
 -1         5-5.71982E+00 2.46473E+05 6.45550E+00 1.12197E-01 1.07401E-10 1.38944E-08
 -1         8-8.44600E+05-3.52516E+05-4.83564E+04-5.79919E+05 2.16460E-10 4.32192E-09
 -1         9-1.41081E+06-3.79205E+05-1.46193E+05-4.69083E+05 3.38769E-09 2.72412E-09
 -1        10-5.91819E+02-7.56133E+05-1.00325E+03-1.83314E+03-3.56886E-09-1.26984E-08
 -1        12-3.07450E+00 2.46486E+05 2.09321E+02 1.00539E+00 1.92458E-10 3.22711E-09
 -1        15 1.99785E+03 1.09794E+03 6.45806E+03 4.22058E+00-1.14539E-11-4.93686E-09
 -1        16-3.58768E+06-1.23489E+06-5.68264E+05-1.26281E+06 8.53712E-09-3.22082E-09
 -1        17-8.71111E+05-5.26431E+05-1.69022E+05-4.84997E+05-5.65196E-09 2.63972E-09
 -1        18 5.38093E+02-4.22951E+03-1.86868E+04-5.88536E+04 8.14794E-10 2.70938E-09
 -1        19 7.72649E+04 9.19915E+04-4.47576E+02 1.50900E+04-6.06087E-10-2.06892E-09
 -1        20-3.26637E+04-3.65038E+05-8.05507E+04 2.66553E+04 3.28040E-09-8.03690E-10
 -1        21-3.43686E+01-2.11044E+05-6.81172E+02-7.30274E+01-5.36473E-09-5.23133E-09
 -1        24-3.26474E+06-1.02201E+06-4.49139E+05-1.26428E+06-2.07559E-08-9.38599E-09
 -1        25 2.04075E+04-4.50502E+04 7.38711E+03-1.06117E+05 3.14594E-10 3.96030E-09
 -1        26-1.83363E+04 6.26932E+04-1.25370E+04-8.77645E+03 1.68111E-09 4.47649E-09
 -1        27-5.82190E+04-2.00200E+05-7.50796E+04 4.51167E+04 5.80015E-09-8.16726E-10
 -1        28 1.63337E+04-5.83438E+04 1.19245E+04 1.86007E+04 2.03866E-09 4.76442E-09
 -1        32-7.97609E+05-2.12738E+05 3.14994E+05-5.28532E+05-1.66838E-08 1.16183E-08
 -1        33-1.14601E+05 5.87979E+04 2.08514E+04-3.39064E+04 9.75698E-10-7.80043E-10
 -1        34-1.48577E+05-1.48105E+04 3.50328E+02 4.57611E+04 2.54004E-09-2.09927E-09
 -1        35-1.66112E+04-2.31866E+04-9.08937E+02 3.67629E+04 4.20498E-09 2.53203E-09
 -1        51 1.42908E+04-3.66539E+05 3.69982E+04-9.35692E+05 1.45519E-10-9.03674E-09
 -1        52 8.93997E+03-3.65449E+05 2.47322E+04-1.09131E+06 2.61934E-10-1.73677E-08
 -1        53 6.71275E+03-3.77977E+05 2.13508E+04-9.32430E+05 1.17143E-09 8.73115E-10
 -1        54 1.93208E+04-3.76620E+05 3.46075E+04-1.09471E+06 1.33150E-09 1.31258E-08
 -1        55 3.84647E+04-3.89826E+05 6.20051E+04-9.31898E+05 2.47383E-10 9.35688E-09
 -1        56-3.23883E+06-3.64371E+05-2.55459E+05-1.24832E+06-3.16504E-10 4.03088E-09
 -1        57-3.33866E+06-5.98260E+05-1.72194E+05-1.24156E+06-5.76620E-10 1.24801E-08
 -1        58-3.29097E+06-4.44443E+05-6.01028E+04-1.23126E+06-1.51704E-09-6.36282E-09
 -1        59-3.27824E+06-5.04405E+05-3.58759E+04-1.26206E+06-7.23048E-11-7.17773E-09
 -1        60-3.29872E+06-4.55465E+05-1.40315E+04-1.22879E+06-1.50681E-09-2.76896E-09
 -1        61-3.27070E+06-4.90001E+05-7.96857E+03-1.26317E+06 3.11161E-10 1.48532E-10
 -1        62-3.29837E+06-4.58514E+05-3.84518E+03-1.23022E+06 4.25871E-10 4.28903E-09
 -1        63-3.27394E+06-4.83803E+05-3.11396E+03-1.25805E+06 2.01999E-09-4.76160E-09
 -1        64-3.29533E+06-4.61707E+05-3.62054E+03-1.23383E+06 1.14960E-09 4.57499E-09
 -1        65-3.28202E+06-4.77846E+05-7.13351E+03-1.24924E+06-1.67984E-09-9.03378E-09
 -1        66-3.29017E+06-4.64592E+05-1.26574E+04-1.23893E+06 1.13982E-09 1.00399E-08
 -1        67-3.29835E+06-4.80992E+05-3.20047E+04-1.23707E+06-1.39994E-09 5.90035E-09
 -1        68-3.27906E+06-4.58906E+05-5.38074E+04-1.24587E+06 3.40287E-09-3.74348E-09
 -1        69-3.35893E+06-5.58589E+05-1.53887E+05-1.21181E+06 1.53568E-09-4.93310E-09
 -1        70-3.23024E+06-3.89363E+05-2.28400E+05-1.26342E+06-1.52431E-09 5.63159E-09
 -1        86-1.32441E+03 2.04485E+05 9.20612E+03-3.20156E+02 1.20781E-09 4.81009E-09
 -1        87 8.77247E+03 2.10420E+05 1.92793E+04 1.31893E+03 2.01544E-09-3.11957E-09
 -1        88-7.44728E+03 2.01471E+05 2.94411E+04-9.98863E+02 3.04499E-09 5.89256E-09
 -1        89 5.54817E+04 2.32252E+05 7.95024E+04 2.87458E+03 4.63933E-09-8.04107E-09
 -1        90-4.78843E+04 1.82677E+05 1.12217E+05-1.87529E+03 5.22414E-09 1.21486E-09
 -1       121-1.45097E+02-7.26214E+05 1.31987E+02 1.35624E+02 4.17586E-10-6.76664E-10
 -1       122-3.64290E+01-7.25769E+05 3.67330E+02-5.43000E+02-1.42019E-09-3.87899E-09
 -1       123-1.83755E+02-7.26254E+05 5.63869E+02 4.06332E+02 1.09281E-09-1.50612E-09
 -1       124 6.43254E+02-7.25364E+05 1.53161E+03-1.21302E+03-2.61105E-09 8.81300E-09
 -1       125-6.20321E+02-7.26638E+05 2.31696E+03 8.05214E+02 1.83354E-09-1.08248E-08
 -1       191-6.21848E+00 2.46494E+05 7.66299E+00-5.67717E-02 1.53711E-10-2.18779E-09
 -1       192-6.31350E+00 2.46473E+05 1.36710E+01 6.60527E-01 2.21977E-10-7.21866E-09
 -1       193-7.79673E+00 2.46493E+05 2.53726E+01-6.08309E-01 2.41119E-10-7.51470E-09
 -1       194-8.22390E+00 2.46475E+05 5.17166E+01 1.62393E+00 1.55488E-10 5.67525E-10
 -1       195-1.08298E+01 2.46492E+05 1.01108E+02-1.02756E+00 3.80155E-10 2.35514E-09
 -1       251 9.04649E+04-4.04762E+04 9.43133E+04 3.74906E+03-3.65503E-10 7.48696E-09
 -1       252 1.34560E+05 4.67973E+04 6.71073E+04-1.36750E+04-4.89422E-11-1.62800E-09
 -1       253 1.06932E+05-6.26932E+03 2.43863E+04 2.97093E+03 1.93268E-11-5.19140E-09
 -1       254 1.15014E+05 7.23272E+03 1.55086E+04-1.24701E+04 9.68896E-11-8.33370E-09
 -1       255 1.09893E+05-9.68839E+02 6.30305E+03 2.54424E+03-1.52511E-10-2.48565E-09
 -1       256 1.11403E+05 1.15649E+03 3.86873E+03-1.18388E+04 4.63515E-10 6.33099E-09
 -1       257 1.10484E+05-1.70445E+02 2.00263E+03 2.33961E+03-6.80700E-11 6.47066E-09
 -1       258 1.10800E+05 3.81266E+02 1.81288E+03-1.16332E+04-1.08517E-10 1.14979E-08
 -1       259 1.10478E+05-1.82647E+02 2.11753E+03 2.33868E+03-4.43649E-10 5.48482E-10
 -1       260 1.11458E+05 1.26275E+03 4.19885E+03-1.18363E+04-2.60911E-11-6.04194E-09
 -1       261 1.09844E+05-1.06243E+03 6.90126E+03 2.54266E+03 1.70269E-09-1.18553E-09
 -1       262 1.15359E+05 7.93756E+03 1.69936E+04-1.24646E+04 2.82313E-10 1.90448E-08
 -1       263 1.06634E+05-6.87802E+03 2.67706E+04 2.96697E+03-5.97879E-10 1.13378E-08
 -1       264 1.36688E+05 5.13519E+04 7.36035E+04-1.36772E+04-2.95472E-09 4.40468E-09
 -1       265 8.86357E+04-4.44053E+04 1.03536E+05 3.75516E+03-1.35435E-09 9.43692E-09
 -1       266-3.61667E+04-1.69088E+04 8.48701E+04-9.03191E+01 0.00000E+00 3.74428E-10
 -1       267 4.19284E+04 1.97118E+04 5.99785E+04 1.04196E+02-1.45519E-11-4.14656E-09
 -1       268-5.62247E+03-2.79151E+03 2.22941E+04-1.32772E+01 4.09273E-11-4.77244E-09
 -1       269 6.63854E+03 3.34109E+03 1.44904E+04 1.54650E+01 4.36557E-11 2.45035E-09
 -1       270-9.96453E+02-5.48958E+02 6.99476E+03-2.09875E+00-8.43556E-11 2.82652E-09
 -1       271-3.70116E+06-4.57076E+05-2.87914E+05-1.44278E+06-5.09317E-11 8.78936E-09
 -1       272-3.79505E+06-6.84556E+05-1.86256E+05-1.45085E+06-1.51681E-09-8.36735E-09
 -1       273-3.75812E+06-5.29339E+05-6.80089E+04-1.42657E+06-1.00772E-09 4.65297E-09
 -1       274-3.72759E+06-5.97891E+05-3.83083E+04-1.47557E+06-2.69574E-09 2.39488E-08
 -1       275-3.76804E+06-5.35024E+05-1.58317E+04-1.42168E+06 6.05723E-10 8.43374E-09
 -1       276-3.71553E+06-5.91742E+05-8.44499E+03-1.48345E+06 2.83148E-09 5.42695E-09
 -1       277-3.77072E+06-5.34167E+05-4.11954E+03-1.41951E+06 6.92125E-10 7.44774E-09
 -1       278-3.71292E+06-5.92480E+05-3.01700E+03-1.48607E+06-2.34024E-09 2.04307E-09
 -1       279-3.77094E+06-5.34010E+05-3.24272E+03-1.41929E+06-2.55181E-09-5.14251E-09
 -1       280-3.71456E+06-5.91985E+05-5.99370E+03-1.48439E+06-1.01022E-09-4.00178E-11
 -1       281-3.76888E+06-5.34841E+05-1.09370E+04-1.42103E+06 1.36242E-09-3.04135E-09
 -1       282-3.72362E+06-5.95249E+05-2.62694E+04-1.47780E+06 8.94943E-10 1.83354E-09
 -1       283-3.76136E+06-5.31751E+05-4.66261E+04-1.42522E+06 6.18911E-10 3.01952E-09
 -1       284-3.77148E+06-6.52673E+05-1.27518E+05-1.45848E+06-1.13073E-09-6.78483E-10
 -1       285-3.72117E+06-4.83572E+05-1.97306E+05-1.43769E+06 4.78394E-10-9.60426E-10
 -1       301 1.47181E+04-1.93592E+04 1.12397E+05-4.38581E+04-9.20409E-10-1.65142E-09
 -1       302 1.58355E+04 9.06510E+03 8.02767E+04-6.46023E+04 1.58570E-09 8.13088E-10
 -1       303 8.81704E+02-9.11751E+03 7.25417E+04-4.39672E+04-9.69521E-10-2.90129E-09
 -1       304 2.81892E+04 2.05686E+04 1.20558E+05-6.43815E+04 9.02219E-10 3.62206E-09
 -1       305 2.77841E+04-3.06178E+04 2.01558E+05-4.39981E+04-1.14233E-09 4.46835E-09
 -1       306-4.00581E+06-4.68607E+05-3.04244E+05-1.57209E+06 6.03904E-10-6.08270E-09
 -1       307-4.17244E+06-7.14799E+05-2.07277E+05-1.50656E+06 8.03084E-10 1.15324E-09
 -1       308-4.08108E+06-5.57272E+05-7.16711E+04-1.53674E+06 3.22871E-10-5.45333E-09
 -1       309-4.07547E+06-6.21747E+05-4.31706E+04-1.55972E+06 1.75393E-09 3.49974E-09
 -1       310-4.10234E+06-5.59772E+05-1.68343E+04-1.51957E+06-1.00215E-10-3.23598E-09
 -1       311-4.04783E+06-6.22371E+05-9.68063E+03-1.58435E+06 4.11370E-09 7.56199E-09
 -1       312-4.10902E+06-5.56097E+05-4.73704E+03-1.51249E+06-7.22707E-10 7.87622E-09
 -1       313-4.04424E+06-6.22652E+05-4.25372E+03-1.58762E+06-2.48662E-09 1.70309E-08
 -1       314-4.10598E+06-5.59407E+05-5.22659E+03-1.51635E+06 1.70530E-10-7.89873E-09
 -1       315-4.05898E+06-6.10963E+05-1.07459E+04-1.57024E+06-2.51862E-09-1.28778E-08
 -1       316-4.09393E+06-5.68091E+05-1.92080E+04-1.52958E+06 2.87889E-09-7.46695E-10
 -1       317-4.09580E+06-6.05530E+05-4.90477E+04-1.53718E+06 3.57426E-09-8.97853E-09
 -1       318-4.06901E+06-5.65333E+05-8.14666E+04-1.54913E+06-5.66251E-09 2.19734E-09
 -1       319-4.20349E+06-7.15306E+05-2.35969E+05-1.48190E+06-5.14774E-09 2.26646E-09
 -1       320-3.98713E+06-4.60171E+05-3.45867E+05-1.58443E+06 7.56700E-09-4.52565E-09
 -1       336 5.01540E+02-7.86168E+05-4.29530E+03 1.02531E+03-7.19501E-09-2.65391E-09
 -1       337-1.57027E+03-7.87194E+05-4.74604E+03-2.60207E+03-1.32650E-08 9.49603E-09
 -1       338 3.36649E+02-7.86275E+05-6.10592E+03 1.57068E+03-9.41782E-09 4.72210E-09
 -1       339-6.33035E+03-7.90159E+05-1.33796E+04-3.67698E+03-1.70278E-08 5.23141E-09
 -1       340 4.25746E+03-7.83284E+05-2.06777E+04 2.09236E+03-1.10804E-08 5.84259E-09
 -1       406 1.28610E+01 2.46482E+05 4.13197E+02 4.51926E-03 5.14149E-10 4.08500E-09
 -1       407 1.41019E+02 2.46559E+05 8.78312E+02-7.93178E+00 8.36735E-11-3.73984E-09
 -1       408 4.49004E+02 2.46419E+05 1.75410E+03 8.07915E+00 6.28916E-10 1.49189E-08
 -1       409 1.89387E+03 2.47119E+05 3.94911E+03-7.77079E+01-3.86535E-12 2.39015E-08
 -1       410 5.44691E+03 2.45920E+05 8.06192E+03 7.25317E+01 6.41194E-10 5.91126E-09
 -1       521-7.39273E+06-7.76715E+05-5.68855E+05-2.72333E+06 2.53567E-09 2.67755E-09
 -1       522-7.07098E+06-1.59583E+06-3.47099E+05-3.09818E+06-2.64490E-08-1.22236E-08
 -1       523-7.60859E+06-7.68688E+05-1.31867E+05-2.47471E+06 4.88762E-09-1.94486E-08
 -1       524-6.87098E+06-1.57060E+06-7.18762E+04-3.41566E+06 3.14802E-08-2.70265E-08
 -1       525-7.63497E+06-7.66524E+05-2.93912E+04-2.43743E+06 2.85891E-08-1.76360E-08
 -1       526-6.88934E+06-1.43961E+06-2.84689E+03-3.26113E+06 2.48165E-08-1.86983E-08
 -1       527-7.56265E+06-9.18712E+05-2.86198E+04-2.61060E+06 4.43833E-10-2.19370E-09
 -1       528-7.11955E+06-1.09489E+06 2.31316E+04-2.79788E+06 8.38554E-09-2.38651E-09
 -1       529-7.36053E+06-1.14254E+06-3.46376E+04-2.86729E+06 3.87081E-09-2.68483E-09
 -1       530-7.58688E+06-6.91419E+05 4.74249E+03-2.37259E+06-3.31802E-08 2.84863E-08
 -1       531-7.12022E+06-1.30425E+06-3.55244E+04-3.05232E+06-4.25280E-08 1.20053E-09
 -1       532-7.94674E+06-4.91294E+05-7.06948E+04-2.18237E+06 9.69885E-09-3.78304E-08
 -1       533-7.04559E+06-1.31189E+06-1.24951E+05-3.09305E+06 1.22564E-08-5.00804E-08
 -1       534-7.92506E+06-7.88484E+05-3.50944E+05-2.21464E+06-7.71979E-09 4.24479E-08
 -1       535-7.12341E+06-1.02499E+06-5.56778E+05-3.00258E+06-1.25292E-08 3.17814E-08
 -1       536-1.26499E+05-1.70967E+04 3.93913E+04-9.62130E+02-1.17959E-09 1.07848E-08
 -1       537-1.08048E+05 1.97958E+04 2.81079E+04 5.76580E+02-8.96664E-09 9.44056E-10
 -1       538-1.20051E+05-2.69420E+03 1.00997E+04-4.81535E+02-8.12548E-10-1.53432E-09
 -1       539-1.15614E+05 3.11286E+03 6.60849E+03-4.72378E+02 5.46788E-09-1.22543E-09
 -1       540-1.18933E+05-4.30103E+02 2.48029E+03 8.68627E+01 7.77504E-10 3.19426E-09
 -1       541-1.17116E+05 4.86130E+02 1.62943E+03-1.54707E+03 1.39197E-09-4.26553E-10
 -1       542-1.18556E+05-6.51814E+01 5.17144E+02 5.93116E+02-6.86597E-10-7.08638E-10
 -1       543-1.17771E+05 4.07355E+01 2.70744E+02-2.40050E+03 6.43617E-10-5.50131E-10
 -1       544-1.18288E+05 2.29807E+01-1.58496E+02 9.40279E+02-4.48118E-10-3.49587E-11
 -1       545-1.18236E+05-2.16838E+02-6.01716E+02-2.87316E+03-5.64295E-11-6.74201E-09
 -1       546-1.18100E+05 1.98420E+02-1.16769E+03 1.06581E+03-7.17711E-11-4.28980E-09
 -1       547-1.18838E+05-1.43837E+03-2.95042E+03-2.88010E+03-2.78572E-09-5.10568E-09
 -1       548-1.17686E+05 1.24372E+03-4.76229E+03 9.47219E+02-3.62406E-09-1.24760E-09
 -1       549-1.22087E+05-9.16348E+03-1.29114E+04-2.41384E+03-2.11659E-09-4.75416E-09
 -1       550-1.14843E+05 7.91145E+03-1.84415E+04 5.99514E+02 1.96934E-10-5.34783E-09
 -1       551 9.02584E+03-4.07205E+05 2.10188E+04-6.89437E+05-3.16722E-08 5.16593E-09
 -1       552 1.99496E+04-4.10635E+05 2.80136E+04-9.81411E+05-2.36687E-08 1.08485E-08
 -1       553 1.36456E+04-4.15876E+05 4.33930E+04-6.87064E+05-3.79005E-08 4.94765E-09
 -1       554 4.25008E+04-3.99465E+05 9.21550E+04-9.82431E+05-2.44872E-08 3.23615E-09
 -1       555 4.04253E+04-4.33573E+05 1.65265E+05-6.87825E+05-3.83297E-08-5.07862E-09
 -1       556 6.30758E+04-1.31603E+05 4.46259E+04-1.71896E+05-7.17409E-09-2.51021E-09
 -1       557 1.16411E+05-1.75751E+05 2.34667E+04-2.15377E+05 3.08501E-09 7.32280E-09
 -1       558 6.28262E+04-1.37518E+05 9.45096E+03-1.66809E+05-3.23053E-09-5.94628E-09
 -1       559 1.09087E+05-1.81816E+05 4.81030E+03-2.18650E+05 2.95768E-09-1.54350E-08
 -1       560 6.11783E+04-1.36425E+05 1.96697E+03-1.67850E+05-3.34694E-10-7.48514E-10
 -1       561 1.06546E+05-1.81152E+05 1.05509E+03-2.20258E+05 4.22006E-10 1.74896E-09
 -1       562 5.98532E+04-1.35540E+05 3.91109E+02-1.68804E+05-5.67525E-10-2.77396E-11
 -1       563 1.04990E+05-1.80483E+05 2.54725E+02-2.21254E+05-2.86673E-09 9.54969E-12
 -1       564 5.90240E+04-1.35006E+05 8.88249E+01-1.69393E+05 4.94401E-09 9.33687E-09
 -1       565 1.04174E+05-1.80133E+05 6.18326E+01-2.21767E+05 3.20142E-09 6.24277E-09
 -1       566 5.87199E+04-1.34805E+05-1.32808E+01-1.69612E+05-2.04727E-09-6.93035E-10
 -1       567 1.04057E+05-1.80076E+05-9.61800E+01-2.21777E+05 7.09656E-09-2.96131E-09
 -1       568 5.89732E+04-1.34972E+05-2.97516E+02-1.69495E+05-1.21145E-09 8.06358E-09
 -1       569 1.04008E+05-1.79964E+05-6.96483E+02-2.20725E+05-4.15821E-09 7.43239E-09
 -1       570 6.03033E+04-1.36162E+05-1.50739E+03-1.69455E+05 4.38376E-09 7.42330E-09
 -1       571 1.78987E+05 6.51860E+03 9.65677E+03-4.55079E+04-1.59162E-10-1.50612E-09
 -1       572 1.80423E+05 2.26905E+03 4.73122E+03-4.98857E+04-1.94632E-10-1.56456E-09
 -1       573 1.79563E+05 5.42875E+02 2.10179E+03-4.53898E+04 8.55380E-10 4.53838E-09
 -1       574 1.79732E+05 1.79227E+02 1.05306E+03-5.00179E+04-7.90351E-10-4.50473E-09
 -1       575 1.79626E+05 2.75711E+01 4.96301E+02-4.53742E+04-4.16321E-10-9.04947E-11
 -1       576 1.79637E+05 1.07334E+01 2.52642E+02-5.00355E+04-1.67506E-09 2.30921E-09
 -1       577 1.79636E+05-2.46319E-02 1.24449E+02-4.53721E+04-4.67139E-10 7.60656E-09
 -1       578 1.79629E+05 2.06853E+00 6.78802E+01-5.00376E+04-2.86036E-10 4.20550E-09
 -1       579 1.79647E+05-2.17669E+00 4.15103E+01-4.53721E+04-2.72848E-12-4.79531E-09
 -1       580 1.79643E+05-3.86141E+00 3.88054E+01-5.00350E+04-1.16825E-09 1.32968E-09
 -1       581 1.79666E+05-9.43208E+00 5.25576E+01-4.53748E+04 3.63798E-10-1.47065E-09
 -1       582 1.79679E+05-2.27887E+00 1.00241E+02-5.00079E+04 7.53971E-10-1.15265E-08
 -1       583 1.79690E+05 2.11147E+01 1.92054E+02-4.53991E+04 2.61934E-10-2.48247E-09
 -1       584 1.79779E+05 1.70144E+02 4.30796E+02-4.98046E+04-2.18051E-09-4.01565E-09
 -1       585 1.79672E+05 5.49071E+02 8.74504E+02-4.55785E+04 2.26464E-10 1.02045E-09
 -1       586-2.13601E+03 5.88957E+04-2.82482E+03-1.55141E+05 3.43789E-10 9.53742E-09
 -1       587-4.44687E+02 5.85167E+04-2.85397E+02-1.70722E+05 7.23958E-10 1.68354E-08
 -1       588 6.23182E+02 5.85874E+04 2.08149E+03-1.55047E+05 4.33829E-10 8.09632E-09
 -1       589 3.07126E+03 5.97271E+04 6.02112E+03-1.70578E+05 5.62977E-10-2.91084E-09
 -1       590 8.80991E+03 5.78718E+04 1.28769E+04-1.55286E+05 2.43745E-10 9.82254E-10
 -1       591-3.92734E+04-1.11620E+04-1.29852E+04-2.02676E+04 1.25237E-09-5.57066E-09
 -1       592-4.05129E+04-1.43274E+04-7.03333E+03-2.36273E+04-1.12419E-09-6.45082E-09
 -1       593-4.05862E+04-1.02054E+04-2.92804E+03-2.12057E+04-1.38732E-09-1.22327E-09
 -1       594-3.87038E+04-1.24397E+04-1.46034E+03-2.37171E+04 1.64812E-09 1.51888E-09
 -1       595-4.06868E+04-1.02010E+04-6.71113E+02-2.12488E+04-1.04512E-09-9.16984E-10
 -1       596-3.85814E+04-1.23532E+04-3.42083E+02-2.37044E+04 9.46727E-10 1.15652E-09
 -1       597-4.06996E+04-1.02093E+04-1.88285E+02-2.12505E+04 5.13104E-10 2.13657E-09
 -1       598-3.85697E+04-1.23499E+04-1.55044E+02-2.37008E+04 1.43359E-09 1.76880E-09
 -1       599-4.06986E+04-1.02093E+04-2.02654E+02-2.12502E+04-1.32331E-10-1.25783E-09
 -1       600-3.85827E+04-1.23544E+04-3.80160E+02-2.37040E+04-1.36055E-09 1.54500E-09
 -1       601-4.06825E+04-1.02004E+04-7.51902E+02-2.12475E+04-1.69393E-09-8.18943E-09
 -1       602-3.87200E+04-1.24513E+04-1.63972E+03-2.37166E+04 1.52795E-10-2.29511E-09
 -1       603-4.05682E+04-1.02070E+04-3.28887E+03-2.11994E+04 1.09048E-09 7.14931E-09
 -1       604-4.07586E+04-1.45643E+04-7.90035E+03-2.36059E+04 8.09450E-11 1.54705E-09
 -1       605-3.90849E+04-1.12878E+04-1.45857E+04-2.01528E+04-4.11546E-11 2.79852E-09
 -1       606 2.53453E+04-8.62277E+03-1.55256E+04 2.47273E+04-2.03363E-09-9.05220E-09
 -1       607 2.26862E+04-2.78214E+03-7.73082E+03 2.77579E+04-3.81988E-10-6.85770E-09
 -1       608 2.41945E+04-4.69622E+02-3.46206E+03 2.45303E+04 8.45830E-10 1.04296E-09
 -1       609 2.38939E+04-1.22043E+02-1.74857E+03 2.79756E+04-1.99998E-09 1.64391E-09
 -1       610 2.40546E+04 2.24478E+01-8.35300E+02 2.45082E+04-4.61569E-09 1.15620E-09
 -1       611 2.39973E+04 3.43038E+01-4.21293E+02 2.79993E+04-8.92533E-09 6.08611E-09
 -1       612 2.40168E+04 3.65569E+01-2.01638E+02 2.45060E+04-3.78623E-09 1.45565E-09
 -1       613 2.39947E+04 4.21907E+01-9.19055E+01 2.80022E+04-6.21731E-09 1.40381E-09
 -1       614 2.39961E+04 3.74874E+01-2.56977E+01 2.45053E+04-1.66438E-10 2.64913E-09
 -1       615 2.39837E+04 4.73218E+01 2.86490E+01 2.80026E+04 4.63706E-09-5.28189E-10
 -1       616 2.39803E+04 4.28244E+01 9.49790E+01 2.45055E+04-1.32545E-08 3.66003E-09
 -1       617 2.39892E+04 7.13226E+01 2.20345E+02 2.80021E+04-2.03934E-08-3.37218E-09
 -1       618 2.39567E+04 1.09231E+02 4.45419E+02 2.45056E+04-8.97217E-09 4.13706E-09
 -1       619 2.41429E+04 4.18146E+02 1.00113E+03 2.80014E+04 2.53067E-10 7.77777E-09
 -1       620 2.38064E+04 1.16790E+03 2.01246E+03 2.45046E+04 1.33116E-09-2.38742E-10
 -1       621 3.04775E+02 1.94251E+05 2.65444E+03 6.82701E+03-3.18678E-10 7.49196E-10
 -1       622 3.49323E+02 1.94909E+05 2.26368E+03 9.96816E+03-1.41767E-10 3.83352E-10
 -1       623 1.42519E+01 1.94439E+05 2.61719E+03 6.79502E+03-2.76060E-10-4.12035E-09
 -1       624 1.18714E+03 1.95677E+05 4.98201E+03 9.99945E+03-3.74428E-10-1.19822E-08
 -1       625 1.19246E+03 1.93478E+05 8.66672E+03 6.79601E+03-4.50200E-11-5.31591E-09
 -1       626 1.60764E+05 4.44326E+04 3.20809E+03 8.67643E+04-2.28329E-09-1.03446E-08
 -1       627 1.58578E+05 4.60381E+04 1.54583E+03 9.02623E+04-2.94995E-09-3.46768E-09
 -1       628 1.60883E+05 4.29159E+04 6.52891E+02 8.72489E+04 1.81080E-09 8.33779E-10
 -1       629 1.58115E+05 4.56724E+04 3.20029E+02 9.04711E+04 4.17185E-09-2.21451E-09
 -1       630 1.60890E+05 4.28444E+04 1.47954E+02 8.72614E+04 1.53277E-08 4.26189E-09
 -1       631 1.58059E+05 4.56644E+04 7.96044E+01 9.04726E+04 2.04418E-08 1.21336E-08
 -1       632 1.60881E+05 4.28504E+04 5.25370E+01 8.72540E+04 2.29647E-09-2.91726E-09
 -1       633 1.58046E+05 4.56694E+04 5.87334E+01 9.04660E+04-3.13958E-09 3.18482E-09
 -1       634 1.60872E+05 4.28514E+04 9.50763E+01 8.72497E+04 8.21365E-09 4.14411E-09
 -1       635 1.58050E+05 4.56710E+04 1.92816E+02 9.04653E+04 6.83372E-10-2.37424E-09
 -1       636 1.60861E+05 4.28507E+04 3.89441E+02 8.72467E+04 1.97701E-09 2.03613E-09
 -1       637 1.58129E+05 4.57330E+04 8.55932E+02 9.04612E+04 4.86830E-09 1.01804E-08
 -1       638 1.60828E+05 4.30416E+04 1.75910E+03 8.71586E+04-7.14090E-09-1.35501E-08
 -1       639 1.59049E+05 4.70199E+04 4.16150E+03 9.01877E+04-1.75442E-09-1.06234E-08
 -1       640 1.60704E+05 4.68722E+04 8.63617E+03 8.55320E+04 9.78844E-10 3.26941E-09
 -1       656 4.35197E+04-1.10161E+06-1.05059E+05-3.65456E+02-8.94943E-10-6.59895E-10
 -1       657-5.75076E+04-1.14903E+06-8.68857E+04 7.08069E+03 1.32422E-09-3.73458E-10
 -1       658 1.38002E+04-1.11514E+06-5.33202E+04-1.38551E+03 1.20099E-09-6.06272E-09
 -1       659-6.16664E+04-1.15100E+06-9.23480E+04 7.76229E+03-1.01045E-09 3.00311E-09
 -1       660 4.76683E+04-1.09965E+06-1.14455E+05-1.04705E+03 4.80213E-10 7.49743E-09
 -1       661 1.55024E+05 1.68737E+04 1.48895E+04 6.05880E+04 2.84649E-09-6.71935E-09
 -1       662 1.62792E+05 2.85391E+04 1.00330E+04 5.79847E+04 2.51498E-09 6.00267E-11
 -1       663 1.57942E+05 2.16558E+04 3.50963E+03 5.97460E+04-3.05590E-10 5.71094E-09
 -1       664 1.59415E+05 2.29410E+04 2.09832E+03 5.90079E+04 3.16038E-09-6.02995E-10
 -1       665 1.58379E+05 2.23146E+04 8.27721E+02 5.96241E+04-4.86011E-11-8.56491E-09
 -1       666 1.58904E+05 2.21830E+04 4.82698E+02 5.91638E+04-1.35407E-09 7.64558E-10
 -1       667 1.58451E+05 2.23939E+04 2.54505E+02 5.95976E+04 1.42649E-09-3.67062E-09
 -1       668 1.58826E+05 2.21198E+04 2.54973E+02 5.92016E+04 1.06667E-09-1.28096E-08
 -1       669 1.58455E+05 2.23759E+04 3.41653E+02 5.95870E+04 4.71474E-10 1.23170E-09
 -1       670 1.58913E+05 2.22996E+04 7.40614E+02 5.91999E+04 5.36541E-09-3.62162E-09
 -1       671 1.58365E+05 2.22178E+04 1.31392E+03 5.95979E+04-1.36100E-09-3.53475E-09
 -1       672 1.59680E+05 2.35761E+04 3.36076E+03 5.90132E+04-1.98295E-09-2.71802E-09
 -1       673 1.57692E+05 2.11315E+04 5.63177E+03 5.97614E+04 5.52859E-10-4.12342E-09
 -1       674 1.65044E+05 3.26212E+04 1.61057E+04 5.74352E+04-2.48519E-10-7.15681E-09
 -1       675 1.53036E+05 1.34256E+04 2.39059E+04 6.10806E+04 2.99588E-09-3.36240E-09
 -1       676 1.76842E+01-2.10987E+05-8.20987E+02 3.65146E+01-2.25697E-09-1.50818E-09
 -1       677-2.17899E+02-2.11185E+05-1.50249E+03-7.29964E+01-3.76826E-09-5.85418E-09
 -1       678 1.45538E+02-2.10845E+05-2.65600E+03 3.64566E+01-4.23597E-10-6.17389E-09
 -1       679-2.65651E+03-2.12788E+05-6.30929E+03-7.27690E+01-4.43379E-09-5.55638E-09
 -1       680 1.58543E+03-2.09384E+05-1.01685E+04 3.58694E+01-1.93722E-10-1.50736E-09
 -1       771-2.26399E+06-4.02595E+05-5.64447E+04-9.45916E+05-1.04774E-08-7.77072E-09
 -1       772-2.24807E+06-4.33722E+05-3.01859E+04-9.80712E+05-7.14135E-09 3.08501E-09
 -1       773-2.27205E+06-3.96313E+05-1.32183E+04-9.49058E+05-7.50151E-09 5.88989E-09
 -1       774-2.24013E+06-4.27268E+05-6.38272E+03-9.84760E+05-3.43425E-09-2.94858E-09
 -1       775-2.27419E+06-3.94882E+05-3.36793E+03-9.49337E+05-6.33008E-09 2.78487E-09
 -1       776-2.24016E+06-4.27353E+05-1.51392E+03-9.87099E+05-2.71757E-09-1.33696E-09
 -1       777-2.27575E+06-3.93740E+05-1.03170E+03-9.49511E+05 1.23691E-10 1.85901E-09
 -1       778-2.24066E+06-4.27613E+05-4.26601E+02-9.89057E+05 1.01863E-10 3.95084E-09
 -1       779-2.27701E+06-3.92769E+05-4.63511E+02-9.49668E+05-5.15865E-09-2.42471E-09
 -1       780-2.24117E+06-4.27822E+05-3.01199E+02-9.90642E+05-3.09956E-09 2.94676E-10
 -1       781-2.27796E+06-3.91995E+05-5.47812E+02-9.49789E+05-1.00445E-08-8.37645E-10
 -1       782-2.24164E+06-4.28014E+05-9.14168E+02-9.91807E+05-1.19962E-08-3.05567E-09
 -1       783-2.27856E+06-3.91482E+05-1.83644E+03-9.49856E+05-6.72298E-09-2.79704E-09
 -1       784-2.24298E+06-4.29261E+05-4.31363E+03-9.92468E+05-1.66629E-08-2.23531E-09
 -1       785-2.27810E+06-3.91795E+05-7.98436E+03-9.49319E+05-1.51813E-08 3.15868E-09
 -1       786 1.63909E+05-8.81144E+03 2.03854E+04-1.16629E+01 1.19929E-06 1.07229E-08
 -1       787 1.72742E+05 1.02009E+04 1.44222E+04 2.42305E+00 2.38856E-06 1.21317E-08
 -1       788 1.67317E+05-1.38129E+03 5.27626E+03-6.60112E+00 2.46873E-06-2.46132E-09
 -1       789 1.68772E+05 1.59824E+03 3.31509E+03-7.11612E+00 2.54439E-06 8.22774E-09
 -1       790 1.67880E+05-2.15778E+02 1.34886E+03-2.12396E+00 2.75944E-06-7.24486E-09
 -1       791 1.68116E+05 2.50689E+02 7.91866E+02-1.69131E+01 2.97666E-06 1.91935E-08
 -1       792 1.67974E+05-3.47591E+01 3.61221E+02 3.19600E+00 3.57150E-06-1.36671E-08
 -1       793 1.68010E+05 4.87237E+01 2.36324E+02-2.98950E+01 4.16035E-06 3.66615E-09
 -1       794 1.67986E+05-1.39466E+01 1.74479E+02 1.08581E+01 2.08201E-06-4.74137E-09
 -1       795 1.68020E+05 7.17327E+01 2.51546E+02-4.96792E+01 6.48663E-09 1.08426E-08
 -1       796 1.67964E+05-5.77512E+01 3.76283E+02 2.29806E+01 2.28656E-10-5.31244E-10
 -1       797 1.68191E+05 4.23318E+02 8.86815E+02-8.17399E+01-9.59068E-10 4.72266E-09
 -1       798 1.67815E+05-3.65274E+02 1.39963E+03 4.29193E+01 5.52509E-11 5.63949E-09
 -1       799 1.69241E+05 2.69706E+03 3.81559E+03-1.35238E+02-9.27430E-10 3.02589E-09
 -1       800 1.66913E+05-2.32967E+03 5.38965E+03 7.64792E+01 7.93738E-11 4.65707E-09
 -1       801-2.87745E+03-2.35740E+05-1.11773E+04 1.93564E+04 1.02609E-08-1.54773E-09
 -1       802 1.50107E+04-1.33880E+05 3.48359E+04-7.30284E+04 2.76027E-08-3.07318E-09
 -1       803-1.12838E+04-1.91794E+05 5.18864E+04 2.30137E+04 2.18752E-08 1.97136E-08
 -1       804 1.10550E+05-7.87345E+04 1.60475E+05-7.30042E+04 2.57151E-08 2.37227E-08
 -1       805-9.85508E+04-2.90508E+05 1.98641E+05 1.93281E+04 9.12405E-09 2.20705E-08
 -1       806-1.94938E+05-4.15182E+04-1.64689E+04-8.09159E+04 1.41877E-08-3.31829E-09
 -1       807-1.95930E+05-3.91366E+04-8.09082E+03-8.52558E+04 2.59083E-08-9.39639E-09
 -1       808-1.95403E+05-3.55701E+04-3.43212E+03-8.37109E+04 1.02359E-08-6.50645E-09
 -1       809-1.94205E+05-3.68883E+04-1.67788E+03-8.54867E+04 6.81098E-10 6.04211E-09
 -1       810-1.95476E+05-3.53605E+04-7.68305E+02-8.38342E+04 2.92152E-09 9.22648E-09
 -1       811-1.94073E+05-3.67994E+04-3.81060E+02-8.54665E+04 1.75919E-09-3.27304E-09
 -1       812-1.95488E+05-3.53763E+04-1.90249E+02-8.38338E+04-6.40512E-09-3.61547E-09
 -1       813-1.94055E+05-3.68017E+04-1.20100E+02-8.54558E+04-1.25592E-08-5.55201E-09
 -1       814-1.95486E+05-3.53823E+04-1.12813E+02-8.38311E+04-4.18140E-09-4.99313E-10
 -1       815-1.94057E+05-3.68037E+04-1.76663E+02-8.54525E+04 1.67893E-09-3.92640E-09
 -1       816-1.95474E+05-3.53812E+04-3.31122E+02-8.38287E+04-7.01766E-09-1.28239E-09
 -1       817-1.94113E+05-3.68355E+04-7.09826E+02-8.54460E+04-9.37439E-09 4.60295E-09
 -1       818-1.95431E+05-3.54811E+04-1.44669E+03-8.37814E+04-3.62434E-09-2.99133E-09
 -1       819-1.94912E+05-3.77039E+04-3.40470E+03-8.52522E+04-3.17345E-09 1.33946E-09
 -1       820-1.95156E+05-3.80553E+04-6.92925E+03-8.26836E+04-8.16726E-10 8.36621E-10
 -1       821-2.51905E+05 1.39663E+04-3.22994E+04 9.21849E+01-2.14723E-10-4.65661E-09
 -1       822-2.65902E+05-1.61683E+04-2.28565E+04-6.22571E+02-2.01827E-09-2.90038E-09
 -1       823-2.57307E+05 2.18956E+03-8.36563E+03 6.17653E+01 1.25129E-09 1.29921E-09
 -1       824-2.59603E+05-2.53433E+03-5.26360E+03-4.77012E+02-1.90078E-10 3.93868E-10
 -1       825-2.58202E+05 3.42654E+02-2.16359E+03-5.33786E+01-3.05802E-09 1.05899E-09
 -1       826-2.58560E+05-4.04123E+02-1.30580E+03-2.07471E+02-5.03630E-09-6.01239E-09
 -1       827-2.58349E+05 6.07670E+01-6.76278E+02-2.07781E+02-4.48415E-09-1.14548E-08
 -1       828-2.58420E+05-1.23280E+02-5.97452E+02 8.17524E+01-5.97330E-09 1.84979E-09
 -1       829-2.58343E+05 6.20701E+01-6.86185E+02-3.42607E+02-9.44329E-11 4.85508E-09
 -1       830-2.58579E+05-4.14349E+02-1.33965E+03 2.80454E+02 2.58783E-09-2.27004E-09
 -1       831-2.58190E+05 3.51817E+02-2.21854E+03-4.06487E+02-2.52824E-09 4.72767E-09
 -1       832-2.59645E+05-2.60183E+03-5.40613E+03 3.13508E+02-1.51586E-09 2.56671E-09
 -1       833-2.57278E+05 2.24801E+03-8.59073E+03-3.75660E+02-1.44992E-09 1.45701E-09
 -1       834-2.66099E+05-1.66026E+04-2.34709E+04 1.70520E+02-1.43521E-09 1.29144E-08
 -1       835-2.51737E+05 1.43417E+04-3.31717E+04-2.63489E+02 5.11361E-09 4.46016E-09
 -1       836-8.38729E+02 2.38161E+05 1.43539E+04-2.06895E+04 1.66392E-09 3.19324E-09
 -1       837 3.16262E+03 2.42604E+05 1.22499E+04-4.15506E+04 2.36059E-09 1.03777E-08
 -1       838-3.06352E+02 2.39397E+05 1.26247E+04-2.06195E+04 1.97360E-09 4.63911E-09
 -1       839 8.10398E+03 2.46288E+05 2.40234E+04-4.15758E+04 2.73212E-09-4.11660E-10
 -1       840-2.43359E+03 2.34444E+05 3.83664E+04-2.06627E+04 1.92995E-09 3.66617E-09
 -1       856-7.75828E+04 6.69985E+03-1.76558E+04-3.95868E+02-3.42010E-09-2.68301E-10
 -1       857-8.48762E+04-7.85784E+03-1.21557E+04 4.03199E+03-3.28409E-09-4.49768E-09
 -1       858-8.04642E+04 9.38753E+02-4.58219E+03-4.13733E+02-3.26352E-09 3.07182E-10
 -1       859-8.15670E+04-1.09132E+03-2.76751E+03 4.06049E+03-5.31742E-10-2.95887E-09
 -1       860-8.08951E+04 1.30540E+02-1.16365E+03-4.24504E+02 1.51891E-09-5.62693E-09
 -1       861-8.10707E+04-1.44035E+02-6.48171E+02 4.07522E+03-5.95313E-09 3.07409E-10
 -1       862-8.09621E+04 1.72833E+01-2.85518E+02-4.28487E+02 6.28456E-09-2.51710E-09
 -1       863-8.09914E+04-1.03712E+01-1.40513E+02 4.07700E+03 8.88534E-09-4.98396E-09
 -1       864-8.09746E+04-1.89458E-01-4.27467E+01-4.26285E+02 3.90551E-09-5.93671E-09
 -1       865-8.09678E+04 2.09700E+01 3.02008E+01 4.06592E+03 2.08104E-09-5.67887E-10
 -1       866-8.09844E+04-1.44474E+01 1.03085E+02-4.17402E+02-2.40337E-09-5.24972E-09
 -1       867-8.09082E+04 1.21153E+02 2.80805E+02 4.04182E+03 4.58567E-09 6.60647E-09
 -1       868-8.10315E+04-9.97280E+01 4.73164E+02-4.02187E+02 4.26093E-09-2.44890E-09
 -1       869-8.05534E+04 8.27103E+02 1.26980E+03 4.00189E+03-3.48928E-09-1.20984E-08
 -1       870-8.13351E+04-7.02921E+02 1.84149E+03-3.77482E+02 3.51974E-10 3.94334E-09
 -1       871-3.69533E+03-7.75064E+03-1.19772E+04 7.85482E+04 2.90947E-09 2.24736E-09
 -1       872-1.61156E+03-1.04294E+04-4.87992E+03 1.01833E+05 2.61161E-09 1.88152E-09
 -1       873-4.35901E+01-9.17833E+03 7.03615E+02 7.83753E+04 1.49271E-09 6.28529E-09
 -1       874 1.83409E+03-7.43135E+03 6.80851E+03 1.01869E+05 3.28237E-09 1.88311E-09
 -1       875 4.36145E+03-1.07943E+04 1.50945E+04 7.85195E+04 1.61072E-09-3.79760E-09
 -1       876 1.96107E+05 3.38155E+04 1.05026E+04 7.95921E+04-3.58955E-09-5.34419E-09
 -1       877 1.96702E+05 3.61261E+04 5.60860E+03 8.27036E+04-6.98253E-09-6.14295E-09
 -1       878 1.97088E+05 3.26530E+04 2.34975E+03 8.04545E+04-1.39812E-09-1.58423E-08
 -1       879 1.95273E+05 3.47034E+04 1.17051E+03 8.27782E+04-6.74618E-10-8.17181E-10
 -1       880 1.97160E+05 3.26399E+04 5.44935E+02 8.04896E+04 1.31217E-09 9.18595E-09
 -1       881 1.95178E+05 3.46430E+04 2.90214E+02 8.27636E+04 3.46017E-09 2.32500E-09
 -1       882 1.97167E+05 3.26485E+04 1.84318E+02 8.04906E+04 4.24905E-09 1.70509E-10
 -1       883 1.95171E+05 3.46402E+04 1.95972E+02 8.27594E+04 3.89758E-09 9.59885E-09
 -1       884 1.97163E+05 3.26463E+04 3.09776E+02 8.04908E+04 5.45430E-09 6.63908E-09
 -1       885 1.95196E+05 3.46446E+04 6.21594E+02 8.27672E+04 2.82672E-09 6.27864E-10
 -1       886 1.97139E+05 3.26281E+04 1.25223E+03 8.04883E+04-3.58938E-09-1.02194E-08
 -1       887 1.95416E+05 3.47889E+04 2.73513E+03 8.27988E+04-2.93539E-09-1.04380E-08
 -1       888 1.96966E+05 3.26586E+04 5.51133E+03 8.04008E+04 2.40337E-09 3.26054E-09
 -1       889 1.98701E+05 3.81983E+04 1.31662E+04 8.26944E+04 6.25158E-09 9.12655E-09
 -1       890 1.94721E+05 3.53259E+04 2.46592E+04 7.82984E+04 6.42262E-09 4.82032E-11
 -1       891-1.24020E+02-1.11480E+05-1.31516E+03 2.11893E+04-4.03588E-10 1.12050E-09
 -1       892-2.15470E+02-1.11794E+05-1.43119E+03 3.20632E+04 1.36652E-10-5.32430E-09
 -1       893-3.65607E+01-1.11521E+05-2.04561E+03 2.11934E+04 1.58752E-09-1.66665E-09
 -1       894-1.12127E+03-1.12579E+05-4.24779E+03 3.19493E+04 3.54703E-11 1.03182E-09
 -1       895-8.75808E+02-1.10638E+05-7.48551E+03 2.13017E+04 3.87104E-11 3.57568E-09
 -1       956-2.46499E+05-3.55174E+03-8.94547E+03 1.63198E+04-2.28420E-09-5.43560E-09
 -1       957-2.48266E+05-1.19676E+03-4.59229E+03 1.96519E+04-2.05000E-09-6.33736E-09
 -1       958-2.47293E+05-9.38923E+01-2.06892E+03 1.62133E+04 1.18416E-09-2.03909E-09
 -1       959-2.47434E+05-1.46307E+01-1.05677E+03 1.97670E+04-2.04068E-09-4.01951E-09
 -1       960-2.47363E+05 3.12336E+01-5.15082E+02 1.62032E+04-2.07501E-09-1.98679E-09
 -1       961-2.47373E+05 2.97298E+01-2.73094E+02 1.97784E+04-6.33941E-09-7.78755E-10
 -1       962-2.47377E+05 2.75062E+01-1.55922E+02 1.62017E+04-2.46155E-09 8.55152E-10
 -1       963-2.47370E+05 3.07835E+01-1.24445E+02 1.97805E+04-3.41345E-09-5.30258E-09
 -1       964-2.47380E+05 2.92385E+01-1.50161E+02 1.62011E+04-1.77874E-09-4.68958E-10
 -1       965-2.47379E+05 3.35419E+01-2.58708E+02 1.97806E+04 1.85546E-09-4.64490E-09
 -1       966-2.47373E+05 3.63372E+01-4.85172E+02 1.62016E+04-2.98428E-09-6.29473E-09
 -1       967-2.47443E+05-4.47743E+00-9.94862E+02 1.97745E+04 2.92971E-10-2.99235E-09
 -1       968-2.47312E+05-7.79204E+01-1.94675E+03 1.62074E+04 1.41654E-10-9.98000E-10
 -1       969-2.48234E+05-1.11391E+03-4.32235E+03 1.97068E+04 1.12868E-09-2.45515E-09
 -1       970-2.46570E+05-3.33032E+03-8.41890E+03 1.62718E+04 2.32626E-09-3.31875E-09
 -1       971-2.34069E+05-1.23513E+03-6.87799E+03 1.14257E+04-3.16959E-09 1.36103E-09
 -1       972-2.35742E+05-8.84513E+02-3.74583E+03 1.59616E+04-1.37015E-09-5.89012E-09
 -1       973-2.34833E+05-6.41899E+00-1.67717E+03 1.13305E+04-2.72848E-09 1.92449E-09
 -1       974-2.34949E+05-6.08957E+00-8.68880E+02 1.60641E+04-1.26784E-09 2.22371E-09
 -1       975-2.34891E+05 2.52769E+01-4.33204E+02 1.13221E+04 2.36832E-09 1.52670E-09
 -1       976-2.34902E+05 2.94810E+01-2.48061E+02 1.60742E+04-3.05954E-09 1.69473E-09
 -1       977-2.34902E+05 2.47549E+01-1.76608E+02 1.13203E+04 1.00204E-09-3.04681E-11
 -1       978-2.34904E+05 3.32199E+01-2.02047E+02 1.60767E+04 9.65616E-09 6.13909E-12
 -1       979-2.34902E+05 3.00441E+01-3.20605E+02 1.13196E+04 6.05036E-09 4.15525E-10
 -1       980-2.34927E+05 3.51234E+01-6.16530E+02 1.60771E+04 3.96039E-09-1.93938E-09
 -1       981-2.34882E+05 4.54087E+01-1.19272E+03 1.13199E+04 6.28120E-10 4.70538E-09
 -1       982-2.35091E+05-5.27906E+01-2.46456E+03 1.60724E+04-2.93608E-09 8.13541E-09
 -1       983-2.34732E+05-3.06337E+01-4.78820E+03 1.13245E+04-4.42287E-09 5.66274E-10
 -1       984-2.37394E+05-2.55291E+03-1.07224E+04 1.60080E+04-1.25656E-08 9.05686E-09
 -1       985-2.32565E+05-3.53405E+03-1.96897E+04 1.13890E+04-2.63299E-09 5.44969E-09
 -3
    1PSTEP                        11           6           1          
  100CL  106 4.99023E-01         409                     0    6           1
 -4  DISP        4    1
 -5  D1          1    2    1    0
 -5  D2          1    2    2    0
 -5  D3          1    2    3    0
 -5  ALL         1    2    0    0    1ALL
 -1         1 1.48917E-04 0.00000E+00 0.00000E+00
 -1         2 1.35364E-04-5.38546E-33-2.06795E-25
 -1         3 1.31453E-04-7.49740E-28-6.61744E-24
 -1         5 9.00392E-05 3.16912E-28-3.30872E-24
 -1         8 1.23913E-04-8.84450E-07 0.00000E+00
 -1         9 1.21995E-04-9.71022E-09 0.00000E+00
 -1        10 1.21351E-04-1.77985E-06-3.30872E-24
 -1        12 8.96262E-05 5.47316E-07 0.00000E+00
 -1        15 9.40699E-05-9.80022E-07-4.13590E-25
 -1        16 9.64279E-05-1.91695E-07 0.00000E+00
 -1        17 8.92134E-05-3.77398E-06 0.00000E+00
 -1        18 8.73218E-05 2.22819E-06 0.00000E+00
 -1        19 8.83875E-05 1.09167E-06 0.00000E+00
 -1        20 8.85259E-05 1.42582E-05 0.00000E+00
 -1        21 8.79868E-05 2.65483E-05 1.65436E-24
 -1        24 2.01784E-05-5.19980E-06 0.00000E+00
 -1        25 8.63063E-05 2.35641E-06 0.00000E+00
 -1        26 8.72538E-05 1.51852E-06 0.00000E+00
 -1        27 8.57376E-05 1.18199E-05 0.00000E+00
 -1        28 8.52722E-05 2.60836E-05 0.00000E+00
 -1        32 0.00000E+00 0.00000E+00 0.00000E+00
 -1        33 8.48702E-05 2.03422E-06 0.00000E+00
 -1        34 8.34043E-05 1.17974E-05 0.00000E+00
 -1        35 8.20154E-05 2.58375E-05 0.00000E+00
 -1        51 1.47295E-04-1.45965E-07 0.00000E+00
 -1        52 1.44285E-04-2.87210E-07 0.00000E+00
 -1        53 1.40158E-04-4.29881E-07 0.00000E+00
 -1        54 1.35199E-04-5.75541E-07-3.30872E-24
 -1        55 1.29689E-04-7.24991E-07-6.46235E-24
 -1        56 1.47597E-04-8.13342E-07 2.64698E-23
 -1        57 1.46416E-04-2.15359E-06-1.32349E-23
 -1        58 1.45379E-04-3.86817E-06 0.00000E+00
 -1        59 1.44420E-04-5.81524E-06 0.00000E+00
 -1        60 1.43484E-04-7.82943E-06 0.00000E+00
 -1        61 1.42511E-04-9.74670E-06 0.00000E+00
 -1        62 1.41443E-04-1.14091E-05 5.29396E-23
 -1        63 1.40223E-04-1.26680E-05 2.64698E-23
 -1        64 1.38807E-04-1.34029E-05 0.00000E+00
 -1        65 1.37157E-04-1.35117E-05 2.64698E-23
 -1        66 1.35249E-04-1.29360E-05 0.00000E+00
 -1        67 1.33071E-04-1.16407E-05 2.64698E-23
 -1        68 1.30629E-04-9.64208E-06 5.29396E-23
 -1        69 1.27943E-04-6.97747E-06 0.00000E+00
 -1        70 1.25036E-04-3.73698E-06 2.64698E-23
 -1        86 1.34995E-04 6.24012E-09 0.00000E+00
 -1        87 1.33886E-04 1.14239E-08 0.00000E+00
 -1        88 1.32036E-04 1.54758E-08-1.65436E-24
 -1        89 1.29441E-04 1.45955E-08 0.00000E+00
 -1        90 1.26096E-04 1.27048E-08 0.00000E+00
 -1       121 1.31171E-04-2.94762E-07 6.61744E-24
 -1       122 1.30324E-04-5.89836E-07 0.00000E+00
 -1       123 1.28916E-04-8.85530E-07 6.61744E-24
 -1       124 1.26948E-04-1.18220E-06 0.00000E+00
 -1       125 1.24425E-04-1.48005E-06 6.61744E-24
 -1       191 9.00277E-05 9.12255E-08 0.00000E+00
 -1       192 8.99933E-05 1.82449E-07-1.65436E-24
 -1       193 8.99360E-05 2.73673E-07 0.00000E+00
 -1       194 8.98557E-05 3.64893E-07 0.00000E+00
 -1       195 8.97524E-05 4.56108E-07 3.30872E-24
 -1       251 1.23779E-04 3.35630E-06 0.00000E+00
 -1       252 1.23658E-04 6.13822E-06-3.30872E-24
 -1       253 1.23540E-04 7.58016E-06 3.30872E-24
 -1       254 1.23424E-04 7.80709E-06-1.65436E-24
 -1       255 1.23308E-04 7.01579E-06 0.00000E+00
 -1       256 1.23192E-04 5.40779E-06-1.65436E-24
 -1       257 1.23074E-04 3.23278E-06 3.30872E-24
 -1       258 1.22956E-04 7.43098E-07-1.65436E-24
 -1       259 1.22838E-04-1.79044E-06 3.30872E-24
 -1       260 1.22720E-04-4.09675E-06 0.00000E+00
 -1       261 1.22603E-04-5.91811E-06 3.30872E-24
 -1       262 1.22487E-04-6.99918E-06 0.00000E+00
 -1       263 1.22371E-04-7.12816E-06 3.30872E-24
 -1       264 1.22252E-04-6.09775E-06 0.00000E+00
 -1       265 1.22132E-04-3.76918E-06-6.61744E-24
 -1       266 1.18939E-04-9.12528E-07 0.00000E+00
 -1       267 1.13965E-04-9.26976E-07 0.00000E+00
 -1       268 1.08991E-04-9.42287E-07 0.00000E+00
 -1       269 1.04018E-04-9.55041E-07 0.00000E+00
 -1       270 9.90437E-05-9.67735E-07 0.00000E+00
 -1       271 1.20838E-04 2.90329E-06 0.00000E+00
 -1       272 1.18172E-04 5.46519E-06 0.00000E+00
 -1       273 1.15926E-04 6.92134E-06-5.29396E-23
 -1       274 1.14042E-04 7.39229E-06 0.00000E+00
 -1       275 1.12472E-04 7.02686E-06 0.00000E+00
 -1       276 1.11152E-04 5.98800E-06-2.64698E-23
 -1       277 1.10018E-04 4.45463E-06-5.29396E-23
 -1       278 1.08998E-04 2.61535E-06 2.64698E-23
 -1       279 1.08018E-04 6.65772E-07 0.00000E+00
 -1       280 1.07007E-04-1.19619E-06 2.64698E-23
 -1       281 1.05889E-04-2.77480E-06 5.29396E-23
 -1       282 1.04596E-04-3.87987E-06-2.64698E-23
 -1       283 1.03058E-04-4.33231E-06-5.29396E-23
 -1       284 1.01218E-04-3.96435E-06 0.00000E+00
 -1       285 9.90126E-05-2.63092E-06-2.64698E-23
 -1       301 1.17452E-04-5.01378E-08-6.61744E-24
 -1       302 1.12948E-04-7.24147E-08 3.30872E-24
 -1       303 1.08538E-04-9.35959E-08 0.00000E+00
 -1       304 1.04277E-04-1.15509E-07-6.61744E-24
 -1       305 1.00222E-04-1.38941E-07 0.00000E+00
 -1       306 1.18872E-04 2.79552E-06-2.64698E-23
 -1       307 1.16458E-04 3.54405E-06 2.64698E-23
 -1       308 1.14800E-04 2.28989E-06-5.29396E-23
 -1       309 1.13827E-04-8.29597E-07 2.64698E-23
 -1       310 1.13373E-04-5.34496E-06 5.29396E-23
 -1       311 1.13232E-04-1.07129E-05 0.00000E+00
 -1       312 1.13150E-04-1.62402E-05 0.00000E+00
 -1       313 1.12867E-04-2.12257E-05 0.00000E+00
 -1       314 1.12158E-04-2.50622E-05 0.00000E+00
 -1       315 1.10819E-04-2.72065E-05 2.64698E-23
 -1       316 1.08753E-04-2.74113E-05 0.00000E+00
 -1       317 1.05907E-04-2.55363E-05 0.00000E+00
 -1       318 1.02357E-04-2.18034E-05 5.29396E-23
 -1       319 9.82353E-05-1.65321E-05 2.64698E-23
 -1       320 9.37484E-05-1.03177E-05 2.64698E-23
 -1       336 1.17660E-04-2.10495E-06 6.61744E-24
 -1       337 1.13288E-04-2.43313E-06 6.61744E-24
 -1       338 1.08243E-04-2.76424E-06 6.61744E-24
 -1       339 1.02539E-04-3.09826E-06 3.30872E-24
 -1       340 9.61906E-05-3.43605E-06 0.00000E+00
 -1       406 8.94771E-05 6.38509E-07 0.00000E+00
 -1       407 8.93050E-05 7.29670E-07 3.30872E-24
 -1       408 8.91099E-05 8.20771E-07-3.30872E-24
 -1       409 8.88919E-05 9.11700E-07 0.00000E+00
 -1       410 8.86510E-05 1.00228E-06-3.30872E-24
 -1       521 9.72942E-05-1.15532E-05 5.29396E-23
 -1       522 1.07455E-04-4.98023E-05 0.00000E+00
 -1       523 1.24316E-04-1.08572E-04 1.05879E-22
 -1       524 1.44963E-04-1.79716E-04-5.29396E-23
 -1       525 1.66060E-04-2.52343E-04-1.05879E-22
 -1       526 1.84249E-04-3.15432E-04 0.00000E+00
 -1       527 1.96522E-04-3.60088E-04 0.00000E+00
 -1       528 2.00002E-04-3.79036E-04 0.00000E+00
 -1       529 1.93318E-04-3.70574E-04 1.05879E-22
 -1       530 1.75885E-04-3.35272E-04 0.00000E+00
 -1       531 1.49644E-04-2.79279E-04-1.05879E-22
 -1       532 1.17600E-04-2.10300E-04 5.29396E-23
 -1       533 8.43457E-05-1.38652E-04 0.00000E+00
 -1       534 5.46589E-05-7.48315E-05 0.00000E+00
 -1       535 3.22945E-05-2.77941E-05 0.00000E+00
 -1       536 8.90771E-05 4.00135E-06 0.00000E+00
 -1       537 8.89383E-05 1.27421E-05 0.00000E+00
 -1       538 8.87985E-05 2.15691E-05-3.30872E-24
 -1       539 8.86660E-05 2.96028E-05 0.00000E+00
 -1       540 8.85439E-05 3.61283E-05-3.30872E-24
 -1       541 8.84336E-05 4.04376E-05-1.65436E-24
 -1       542 8.83305E-05 4.22828E-05 3.30872E-24
 -1       543 8.82286E-05 4.14276E-05 0.00000E+00
 -1       544 8.81223E-05 3.81958E-05 0.00000E+00
 -1       545 8.80077E-05 3.29223E-05 1.65436E-24
 -1       546 8.78860E-05 2.63662E-05 0.00000E+00
 -1       547 8.77612E-05 1.92922E-05 0.00000E+00
 -1       548 8.76386E-05 1.25729E-05 3.30872E-24
 -1       549 8.75243E-05 7.07925E-06-8.27181E-25
 -1       550 8.74175E-05 3.42828E-06 8.27181E-25
 -1       551 8.01057E-05-3.98452E-06 0.00000E+00
 -1       552 6.92409E-05-4.20790E-06 0.00000E+00
 -1       553 5.72130E-05-4.44339E-06 1.65436E-24
 -1       554 4.46253E-05-4.68755E-06 0.00000E+00
 -1       555 3.20807E-05-4.93395E-06 0.00000E+00
 -1       556 8.67820E-05 2.52257E-06 0.00000E+00
 -1       557 8.49052E-05 7.39232E-06 0.00000E+00
 -1       558 8.35230E-05 1.09632E-05 0.00000E+00
 -1       559 8.25812E-05 1.33735E-05 0.00000E+00
 -1       560 8.20257E-05 1.47614E-05 0.00000E+00
 -1       561 8.18030E-05 1.52656E-05 0.00000E+00
 -1       562 8.18599E-05 1.50252E-05 0.00000E+00
 -1       563 8.21437E-05 1.41795E-05 0.00000E+00
 -1       564 8.26019E-05 1.28680E-05 0.00000E+00
 -1       565 8.31821E-05 1.12299E-05 1.65436E-24
 -1       566 8.38321E-05 9.40491E-06-1.65436E-24
 -1       567 8.44998E-05 7.53258E-06-3.10193E-25
 -1       568 8.51331E-05 5.75244E-06 0.00000E+00
 -1       569 8.56799E-05 4.20390E-06 0.00000E+00
 -1       570 8.60879E-05 3.02642E-06 0.00000E+00
 -1       571 8.73865E-05 2.19057E-06 0.00000E+00
 -1       572 8.74526E-05 2.10917E-06 0.00000E+00
 -1       573 8.75191E-05 1.99203E-06 0.00000E+00
 -1       574 8.75858E-05 1.84761E-06-8.27181E-25
 -1       575 8.76526E-05 1.68440E-06 1.65436E-24
 -1       576 8.77194E-05 1.51093E-06 0.00000E+00
 -1       577 8.77862E-05 1.33576E-06 0.00000E+00
 -1       578 8.78531E-05 1.16743E-06 0.00000E+00
 -1       579 8.79199E-05 1.01451E-06 0.00000E+00
 -1       580 8.79868E-05 8.85545E-07 0.00000E+00
 -1       581 8.80536E-05 7.89093E-07 0.00000E+00
 -1       582 8.81204E-05 7.33696E-07 0.00000E+00
 -1       583 8.81873E-05 7.27893E-07 3.30872E-24
 -1       584 8.82541E-05 7.80133E-07 0.00000E+00
 -1       585 8.83208E-05 8.98813E-07-3.30872E-24
 -1       586 8.71236E-05 2.25087E-06 0.00000E+00
 -1       587 8.68983E-05 2.27302E-06 0.00000E+00
 -1       588 8.66749E-05 2.29494E-06 0.00000E+00
 -1       589 8.64825E-05 2.31650E-06 0.00000E+00
 -1       590 8.63502E-05 2.33746E-06 0.00000E+00
 -1       591 8.73040E-05 2.22699E-06 5.16988E-26
 -1       592 8.72964E-05 2.19167E-06 0.00000E+00
 -1       593 8.72989E-05 2.12883E-06-8.27181E-25
 -1       594 8.73092E-05 2.04441E-06 0.00000E+00
 -1       595 8.73253E-05 1.94440E-06 0.00000E+00
 -1       596 8.73450E-05 1.83476E-06 0.00000E+00
 -1       597 8.73660E-05 1.72143E-06 0.00000E+00
 -1       598 8.73861E-05 1.61038E-06 0.00000E+00
 -1       599 8.74032E-05 1.50755E-06 0.00000E+00
 -1       600 8.74150E-05 1.41888E-06 0.00000E+00
 -1       601 8.74192E-05 1.35033E-06-4.13590E-25
 -1       602 8.74137E-05 1.30785E-06-2.06795E-25
 -1       603 8.73964E-05 1.29738E-06-1.03398E-25
 -1       604 8.73650E-05 1.32494E-06 5.16988E-26
 -1       605 8.73174E-05 1.39644E-06 4.13590E-25
 -1       606 8.83995E-05 1.43645E-06 0.00000E+00
 -1       607 8.84092E-05 1.87305E-06 0.00000E+00
 -1       608 8.84183E-05 2.39609E-06 0.00000E+00
 -1       609 8.84270E-05 2.99949E-06 1.65436E-24
 -1       610 8.84356E-05 3.67714E-06 0.00000E+00
 -1       611 8.84441E-05 4.42285E-06 0.00000E+00
 -1       612 8.84525E-05 5.23041E-06 0.00000E+00
 -1       613 8.84609E-05 6.09363E-06 0.00000E+00
 -1       614 8.84692E-05 7.00629E-06-1.65436E-24
 -1       615 8.84775E-05 7.96219E-06 0.00000E+00
 -1       616 8.84857E-05 8.95514E-06 0.00000E+00
 -1       617 8.84939E-05 9.97891E-06 0.00000E+00
 -1       618 8.85021E-05 1.10273E-05-8.27181E-25
 -1       619 8.85102E-05 1.20941E-05 0.00000E+00
 -1       620 8.85182E-05 1.31731E-05 0.00000E+00
 -1       621 8.81393E-05 1.16288E-06 0.00000E+00
 -1       622 8.79240E-05 1.23442E-06 8.27181E-25
 -1       623 8.77348E-05 1.30595E-06 0.00000E+00
 -1       624 8.75647E-05 1.37736E-06 0.00000E+00
 -1       625 8.74066E-05 1.44864E-06 1.65436E-24
 -1       626 8.83350E-05 1.45932E-06 0.00000E+00
 -1       627 8.82548E-05 1.90256E-06 0.00000E+00
 -1       628 8.81490E-05 2.41427E-06 0.00000E+00
 -1       629 8.80205E-05 2.98683E-06 1.65436E-24
 -1       630 8.78719E-05 3.61264E-06 3.30872E-24
 -1       631 8.77063E-05 4.28403E-06 1.65436E-24
 -1       632 8.75264E-05 4.99334E-06 0.00000E+00
 -1       633 8.73351E-05 5.73293E-06 0.00000E+00
 -1       634 8.71353E-05 6.49512E-06-3.30872E-24
 -1       635 8.69299E-05 7.27225E-06 1.65436E-24
 -1       636 8.67218E-05 8.05668E-06 1.65436E-24
 -1       637 8.65138E-05 8.84074E-06 8.27181E-25
 -1       638 8.63087E-05 9.61676E-06-1.65436E-24
 -1       639 8.61094E-05 1.03771E-05 0.00000E+00
 -1       640 8.59184E-05 1.11140E-05 1.65436E-24
 -1       656 8.76417E-05 1.38614E-05 6.61744E-24
 -1       657 8.71072E-05 1.34488E-05-3.30872E-24
 -1       658 8.67912E-05 1.30376E-05 0.00000E+00
 -1       659 8.65587E-05 1.26266E-05 0.00000E+00
 -1       660 8.62577E-05 1.22144E-05 6.61744E-24
 -1       661 8.81994E-05 1.53178E-05 0.00000E+00
 -1       662 8.78956E-05 1.63249E-05 8.27181E-25
 -1       663 8.76108E-05 1.72811E-05 1.65436E-24
 -1       664 8.73447E-05 1.81891E-05-8.27181E-25
 -1       665 8.70958E-05 1.90511E-05 0.00000E+00
 -1       666 8.68635E-05 1.98695E-05 0.00000E+00
 -1       667 8.66467E-05 2.06463E-05-1.65436E-24
 -1       668 8.64448E-05 2.13838E-05 8.27181E-25
 -1       669 8.62570E-05 2.20838E-05 1.65436E-24
 -1       670 8.60824E-05 2.27482E-05 0.00000E+00
 -1       671 8.59206E-05 2.33790E-05-1.65436E-24
 -1       672 8.57705E-05 2.39778E-05-8.27181E-25
 -1       673 8.56319E-05 2.45463E-05-1.65436E-24
 -1       674 8.55032E-05 2.50859E-05 0.00000E+00
 -1       675 8.53850E-05 2.55983E-05 0.00000E+00
 -1       676 8.75332E-05 2.64704E-05 0.00000E+00
 -1       677 8.70798E-05 2.63925E-05 8.27181E-25
 -1       678 8.66268E-05 2.63147E-05-1.65436E-24
 -1       679 8.61744E-05 2.62371E-05 8.27181E-25
 -1       680 8.57228E-05 2.61595E-05-1.65436E-24
 -1       771 1.55289E-05 4.08403E-06 0.00000E+00
 -1       772 1.15130E-05 1.16918E-05 0.00000E+00
 -1       773 8.10354E-06 1.77140E-05 0.00000E+00
 -1       774 5.26032E-06 2.22485E-05 0.00000E+00
 -1       775 2.94374E-06 2.53954E-05-5.29396E-23
 -1       776 1.11246E-06 2.72591E-05 0.00000E+00
 -1       777-2.75340E-07 2.79462E-05 0.00000E+00
 -1       778-1.26241E-06 2.75667E-05 0.00000E+00
 -1       779-1.89181E-06 2.62326E-05 0.00000E+00
 -1       780-2.20739E-06 2.40586E-05 0.00000E+00
 -1       781-2.25314E-06 2.11609E-05 2.64698E-23
 -1       782-2.07364E-06 1.76579E-05-1.32349E-23
 -1       783-1.71358E-06 1.36691E-05-2.64698E-23
 -1       784-1.21800E-06 9.31531E-06 0.00000E+00
 -1       785-6.32016E-07 4.71810E-06 0.00000E+00
 -1       786 8.63619E-05 2.20755E-06-4.13590E-25
 -1       787 8.64210E-05 2.07184E-06-8.27181E-25
 -1       788 8.64798E-05 1.94733E-06 0.00000E+00
 -1       789 8.65393E-05 1.83210E-06 8.27181E-25
 -1       790 8.65988E-05 1.72553E-06 0.00000E+00
 -1       791 8.66584E-05 1.62700E-06-8.27181E-25
 -1       792 8.67181E-05 1.53699E-06 0.00000E+00
 -1       793 8.67777E-05 1.45603E-06 0.00000E+00
 -1       794 8.68374E-05 1.38586E-06-1.65436E-24
 -1       795 8.68971E-05 1.32829E-06 0.00000E+00
 -1       796 8.69568E-05 1.28682E-06 1.65436E-24
 -1       797 8.70164E-05 1.26502E-06 0.00000E+00
 -1       798 8.70760E-05 1.26917E-06 1.65436E-24
 -1       799 8.71355E-05 1.30559E-06 8.27181E-25
 -1       800 8.71951E-05 1.38508E-06 0.00000E+00
 -1       801 8.04690E-05 2.09064E-06-6.61744E-24
 -1       802 6.27370E-05 1.68036E-06 0.00000E+00
 -1       803 3.95446E-05 1.16926E-06 1.32349E-23
 -1       804 1.73902E-05 6.73530E-07 0.00000E+00
 -1       805 2.24354E-06 2.97814E-07-1.32349E-23
 -1       806 8.62852E-05 2.16280E-06 0.00000E+00
 -1       807 8.62591E-05 1.97438E-06-8.27181E-25
 -1       808 8.62288E-05 1.79564E-06 0.00000E+00
 -1       809 8.61931E-05 1.63035E-06 8.27181E-25
 -1       810 8.61509E-05 1.48224E-06 1.65436E-24
 -1       811 8.61008E-05 1.35498E-06 8.27181E-25
 -1       812 8.60415E-05 1.25226E-06-3.30872E-24
 -1       813 8.59716E-05 1.17772E-06 8.27181E-25
 -1       814 8.58898E-05 1.13503E-06-1.65436E-24
 -1       815 8.57947E-05 1.12783E-06 1.65436E-24
 -1       816 8.56848E-05 1.15979E-06 0.00000E+00
 -1       817 8.55590E-05 1.23454E-06 8.27181E-25
 -1       818 8.54158E-05 1.35574E-06 3.30872E-24
 -1       819 8.52539E-05 1.52701E-06 1.65436E-24
 -1       820 8.50721E-05 1.75199E-06 0.00000E+00
 -1       821 8.71645E-05 1.66209E-06 0.00000E+00
 -1       822 8.70698E-05 1.77285E-06 0.00000E+00
 -1       823 8.69754E-05 1.90140E-06 3.30872E-24
 -1       824 8.68800E-05 2.09825E-06 1.65436E-24
 -1       825 8.67845E-05 2.40043E-06 0.00000E+00
 -1       826 8.66888E-05 2.84451E-06 0.00000E+00
 -1       827 8.65930E-05 3.43905E-06-3.30872E-24
 -1       828 8.64970E-05 4.19198E-06 0.00000E+00
 -1       829 8.64009E-05 5.07995E-06-3.30872E-24
 -1       830 8.63048E-05 6.07906E-06 0.00000E+00
 -1       831 8.62086E-05 7.14346E-06 3.30872E-24
 -1       832 8.61126E-05 8.22703E-06-1.65436E-24
 -1       833 8.60167E-05 9.27984E-06 0.00000E+00
 -1       834 8.59219E-05 1.02521E-05 0.00000E+00
 -1       835 8.58269E-05 1.11100E-05-8.27181E-25
 -1       836 8.70025E-05 1.60437E-06-1.65436E-24
 -1       837 8.66400E-05 1.69213E-06-8.27181E-25
 -1       838 8.62059E-05 1.77972E-06 0.00000E+00
 -1       839 8.57398E-05 1.86675E-06 0.00000E+00
 -1       840 8.52813E-05 1.95364E-06 0.00000E+00
 -1       856 8.57119E-05 1.25109E-05-2.06795E-25
 -1       857 8.56832E-05 1.33053E-05-2.06795E-25
 -1       858 8.56545E-05 1.41867E-05-8.27181E-25
 -1       859 8.56253E-05 1.51388E-05 0.00000E+00
 -1       860 8.55960E-05 1.61453E-05 0.00000E+00
 -1       861 8.55665E-05 1.71896E-05 0.00000E+00
 -1       862 8.55371E-05 1.82552E-05 0.00000E+00
 -1       863 8.55075E-05 1.93256E-05 0.00000E+00
 -1       864 8.54780E-05 2.03842E-05-8.27181E-25
 -1       865 8.54485E-05 2.14146E-05 4.13590E-25
 -1       866 8.54191E-05 2.24002E-05-8.27181E-25
 -1       867 8.53897E-05 2.33246E-05 0.00000E+00
 -1       868 8.53603E-05 2.41714E-05-8.27181E-25
 -1       869 8.53310E-05 2.49242E-05-4.13590E-25
 -1       870 8.53017E-05 2.55670E-05 0.00000E+00
 -1       871 8.52430E-05 1.18190E-05-4.13590E-25
 -1       872 8.48489E-05 1.18160E-05 0.00000E+00
 -1       873 8.45118E-05 1.18126E-05 0.00000E+00
 -1       874 8.41880E-05 1.18087E-05 1.03398E-25
 -1       875 8.38333E-05 1.18044E-05 0.00000E+00
 -1       876 8.55693E-05 1.25198E-05-3.30872E-24
 -1       877 8.53843E-05 1.32699E-05 0.00000E+00
 -1       878 8.51828E-05 1.40643E-05 0.00000E+00
 -1       879 8.49670E-05 1.48972E-05-1.65436E-24
 -1       880 8.47390E-05 1.57630E-05 3.30872E-24
 -1       881 8.45008E-05 1.66560E-05 1.65436E-24
 -1       882 8.42545E-05 1.75705E-05 3.30872E-24
 -1       883 8.40022E-05 1.85009E-05-1.65436E-24
 -1       884 8.37461E-05 1.94416E-05 0.00000E+00
 -1       885 8.34882E-05 2.03869E-05 0.00000E+00
 -1       886 8.32307E-05 2.13312E-05 3.30872E-24
 -1       887 8.29755E-05 2.22688E-05-1.65436E-24
 -1       888 8.27249E-05 2.31940E-05 1.65436E-24
 -1       889 8.24806E-05 2.41012E-05-8.27181E-25
 -1       890 8.22447E-05 2.49847E-05-8.27181E-25
 -1       891 8.48416E-05 2.60424E-05 0.00000E+00
 -1       892 8.43933E-05 2.60011E-05-4.13590E-25
 -1       893 8.39069E-05 2.59598E-05 0.00000E+00
 -1       894 8.33619E-05 2.59186E-05 4.13590E-25
 -1       895 8.27381E-05 2.58775E-05 4.13590E-25
 -1       956 8.47802E-05 2.43341E-06 0.00000E+00
 -1       957 8.46889E-05 2.89105E-06 8.27181E-25
 -1       958 8.45972E-05 3.40097E-06 3.30872E-24
 -1       959 8.45054E-05 3.95662E-06-8.27181E-25
 -1       960 8.44135E-05 4.55147E-06-3.30872E-24
 -1       961 8.43215E-05 5.17893E-06-1.65436E-24
 -1       962 8.42295E-05 5.83240E-06 0.00000E+00
 -1       963 8.41375E-05 6.50532E-06 0.00000E+00
 -1       964 8.40455E-05 7.19107E-06-3.30872E-24
 -1       965 8.39535E-05 7.88307E-06 0.00000E+00
 -1       966 8.38615E-05 8.57472E-06 0.00000E+00
 -1       967 8.37696E-05 9.25942E-06 0.00000E+00
 -1       968 8.36777E-05 9.93058E-06 3.30872E-24
 -1       969 8.35859E-05 1.05816E-05 1.65436E-24
 -1       970 8.34945E-05 1.12060E-05 0.00000E+00
 -1       971 8.33186E-05 1.24069E-05 0.00000E+00
 -1       972 8.32318E-05 1.30930E-05 8.27181E-25
 -1       973 8.31448E-05 1.38470E-05 0.00000E+00
 -1       974 8.30576E-05 1.46604E-05-8.27181E-25
 -1       975 8.29703E-05 1.55242E-05-3.30872E-24
 -1       976 8.28830E-05 1.64297E-05 8.27181E-25
 -1       977 8.27956E-05 1.73681E-05 0.00000E+00
 -1       978 8.27082E-05 1.83305E-05 0.00000E+00
 -1       979 8.26208E-05 1.93082E-05 3.30872E-24
 -1       980 8.25334E-05 2.02923E-05 1.65436E-24
 -1       981 8.24460E-05 2.12739E-05-3.30872E-24
 -1       982 8.23588E-05 2.22443E-05 1.65436E-24
 -1       983 8.22716E-05 2.31947E-05 0.00000E+00
 -1       984 8.21848E-05 2.41162E-05 0.00000E+00
 -1       985 8.20985E-05 2.50000E-05 1.65436E-24
 -3
    1PSTEP                        12           6           1          
  100CL  106 4.99023E-01         409                     0    6           1
 -4  STRESS      6    1
 -5  SXX         1    4    1    1
 -5  SYY         1    4    2    2
 -5  SZZ         1    4    3    3
 -5  SXY         1    4    1    2
 -5  SYZ         1    4    2    3
 -5  SZX         1    4    3    1
 -1         1-1.90290E+06-8.39495E+05-3.96565E+05-1.13291E+06 3.12866E-10 9.50240E-09
 -1         2 2.62663E+03 2.16323E+04 8.60514E+03 6.32322E+01-1.35600E-10 2.91368E-09
 -1         3-1.36878E+02-8.41714E+05 1.98680E+02-3.76822E+02-4.09752E-11-1.05119E-08
 -1         5-4.42376E+00 2.61026E+05 6.81785E+00 1.17508E-01 7.71340E-11 1.41854E-08
 -1         8-9.51386E+05-3.75532E+05-7.28762E+04-5.79097E+05-1.41881E-10 1.07684E-09
 -1         9-1.70592E+06-4.98071E+05-1.93191E+05-5.39843E+05 3.45754E-09 1.02329E-08
 -1        10-7.11029E+02-8.76889E+05-1.18093E+03-2.54738E+03-4.07681E-09 8.56420E-09
 -1        12-1.62901E+00 2.61041E+05 2.20952E+02 9.90171E-01 2.00430E-10 2.43858E-09
 -1        15 2.01286E+03 1.10619E+03 6.50656E+03 4.32942E+00 1.06866E-11 1.44984E-08
 -1        16-3.35302E+06-1.26941E+06-5.38612E+05-1.31583E+06 9.14830E-09-5.82077E-11
 -1        17-1.03576E+06-6.09745E+05-2.02634E+05-5.49473E+05-6.05505E-09-2.77068E-09
 -1        18-4.03164E+04-1.44138E+04-2.99203E+04-6.42836E+04 1.77579E-09 4.14730E-09
 -1        19 8.20888E+04 9.72470E+04-5.11591E+02 1.60008E+04-5.54974E-10-6.09361E-09
 -1        20-3.60093E+04-3.87825E+05-8.56720E+04 2.76176E+04 3.82245E-09 1.19950E-08
 -1        21-3.62427E+01-2.22816E+05-7.17815E+02-6.93255E+01-6.30457E-09-1.78428E-08
 -1        24-3.24902E+06-9.32056E+05-4.19032E+05-1.20606E+06-2.91936E-08-1.24370E-08
 -1        25-2.38821E+03-1.53197E+05-1.74554E+04-1.13144E+05 3.63707E-10 1.47702E-08
 -1        26-2.09913E+04 6.58120E+04-1.35898E+04-8.53595E+03 1.61162E-09-3.94387E-09
 -1        27-6.11603E+04-2.12470E+05-7.95912E+04 4.78909E+04 5.08847E-09-6.85153E-09
 -1        28 1.72274E+04-6.17489E+04 1.25995E+04 1.93966E+04 2.55565E-09 4.28999E-09
 -1        32-8.98207E+05-4.85801E+05 2.73742E+05-5.54802E+05-1.95505E-08 6.78034E-09
 -1        33-1.22050E+05 6.21782E+04 2.20796E+04-3.50264E+04 8.48312E-10 3.24962E-09
 -1        34-1.57537E+05-1.57706E+04 3.78686E+02 4.87618E+04 2.97469E-09 1.72622E-09
 -1        35-1.75261E+04-2.45363E+04-9.63178E+02 3.88143E+04 6.60413E-09-2.05849E-09
 -1        51 1.67224E+04-3.63242E+05 4.22834E+04-9.51129E+05 5.82077E-11-7.85803E-10
 -1        52 9.85667E+03-3.61375E+05 2.75153E+04-1.10929E+06 2.98314E-10 1.47993E-08
 -1        53 6.99538E+03-3.74744E+05 2.27688E+04-9.47798E+05 4.65661E-10 2.15805E-08
 -1        54 1.98501E+04-3.73376E+05 3.57384E+04-1.11275E+06 1.89175E-10 8.96398E-09
 -1        55 3.93084E+04-3.86903E+05 6.33181E+04-9.47249E+05-1.01863E-10 8.37099E-09
 -1        56-3.64671E+06-4.09222E+05-2.91580E+05-1.40664E+06-1.54978E-09 1.81899E-09
 -1        57-3.76497E+06-6.72093E+05-1.96579E+05-1.39407E+06-1.27329E-09-1.07593E-08
 -1        58-3.70605E+06-5.00866E+05-6.85891E+04-1.38739E+06-9.24047E-10-7.28323E-09
 -1        59-3.69628E+06-5.64579E+05-4.09434E+04-1.41706E+06-1.32991E-09-1.25569E-08
 -1        60-3.71474E+06-5.13598E+05-1.60058E+04-1.38473E+06-3.54157E-09 2.65663E-09
 -1        61-3.68787E+06-5.47915E+05-9.08189E+03-1.41809E+06 2.19757E-10 2.59570E-09
 -1        62-3.71427E+06-5.17151E+05-4.36410E+03-1.38645E+06-1.53977E-09-4.55759E-09
 -1        63-3.69163E+06-5.40805E+05-3.51071E+03-1.41224E+06-1.07775E-09-4.36830E-09
 -1        64-3.71084E+06-5.20744E+05-4.02996E+03-1.39050E+06-9.89530E-10-4.92037E-10
 -1        65-3.70060E+06-5.34240E+05-7.93682E+03-1.40257E+06-3.90503E-09-2.32649E-09
 -1        66-3.70521E+06-5.23826E+05-1.40257E+04-1.39603E+06 8.98353E-10 3.97358E-09
 -1        67-3.71833E+06-5.38195E+05-3.55304E+04-1.38964E+06-1.27943E-09 1.79580E-09
 -1        68-3.69322E+06-5.17148E+05-5.96661E+04-1.40333E+06 2.30284E-09 2.33558E-09
 -1        69-3.78458E+06-6.25346E+05-1.70785E+05-1.36278E+06 1.31877E-09 3.96903E-09
 -1        70-3.63972E+06-4.39295E+05-2.53397E+05-1.42207E+06 1.14960E-09 4.32192E-09
 -1        86-1.32156E+03 1.86833E+04 9.15984E+03-3.16412E+01 1.22509E-09 2.49815E-09
 -1        87 8.74121E+03 2.45923E+04 1.91863E+04 1.38601E+02 2.04091E-09-8.77009E-10
 -1        88-7.41703E+03 1.57245E+04 2.93101E+04-1.07027E+02 3.01407E-09-7.09690E-09
 -1        89 5.52407E+04 4.61763E+04 7.91080E+04 3.94910E+02 4.59113E-09-1.25965E-09
 -1        90-4.76632E+04-2.88153E+03 1.11735E+05-2.87429E+02 4.86762E-09 9.70715E-09
 -1       121-2.07176E+02-8.42281E+05 1.35225E+02 1.88108E+02 5.20807E-10-1.02900E-08
 -1       122-7.01434E+01-8.41677E+05 4.27080E+02-7.53181E+02-1.74193E-09-6.25732E-10
 -1       123-2.50923E+02-8.42328E+05 6.35200E+02 5.63271E+02 1.35753E-09 9.64064E-10
 -1       124 7.21327E+02-8.41214E+05 1.77434E+03-1.65629E+03-3.22416E-09 1.61499E-08
 -1       125-7.55122E+02-8.42775E+05 2.66363E+03 1.09030E+03 2.17869E-09 6.60657E-09
 -1       191-4.87066E+00 2.61049E+05 8.17490E+00-5.92295E-02 1.19878E-10 1.18157E-08
 -1       192-5.05001E+00 2.61027E+05 1.44341E+01 6.09309E-01 2.00841E-10 5.18958E-09
 -1       193-6.53580E+00 2.61048E+05 2.68684E+01-5.53394E-01 1.78480E-10 1.03200E-08
 -1       194-7.06536E+00 2.61029E+05 5.45931E+01 1.47835E+00 1.11606E-10-7.96717E-09
 -1       195-9.73587E+00 2.61047E+05 1.06811E+02-9.34146E-01 3.27105E-10-8.76344E-09
 -1       251-3.41288E+05-2.41371E+04 5.60752E+04-1.01676E+02-1.63254E-10 3.15413E-09
 -1       252-3.14121E+05 2.78924E+04 4.00726E+04-7.20187E+03 1.02750E-09-2.49565E-09
 -1       253-3.31582E+05-3.75836E+03 1.44417E+04 1.70728E+03-4.46676E-10-8.33097E-10
 -1       254-3.25828E+05 4.31851E+03 9.34820E+03-1.04359E+04-4.15071E-10-6.55564E-09
 -1       255-3.29666E+05-5.88915E+02 3.72903E+03 3.13219E+03 8.76582E-10 2.84740E-09
 -1       256-3.28331E+05 7.08630E+02 2.38610E+03-1.26578E+04 1.54375E-09 1.29112E-08
 -1       257-3.29151E+05-1.09248E+02 1.26538E+03 3.92921E+03 2.44029E-10-8.77782E-09
 -1       258-3.28880E+05 2.82072E+02 1.25615E+03-1.35161E+04-2.82036E-10-8.09031E-09
 -1       259-3.29148E+05-1.41061E+02 1.57523E+03 3.99054E+03-7.09761E-10 1.90425E-10
 -1       260-3.28264E+05 9.94309E+02 3.24942E+03-1.28970E+04 4.54961E-10-7.76390E-09
 -1       261-3.29744E+05-8.35978E+02 5.33034E+03 3.31007E+03 1.36123E-09-2.78260E-09
 -1       262-3.25022E+05 6.19687E+03 1.32764E+04-1.08848E+04 1.30740E-09-1.49189E-08
 -1       263-3.32322E+05-5.37487E+03 2.07924E+04 1.97834E+03-6.82689E-10 7.83075E-10
 -1       264-3.08535E+05 4.00080E+04 5.73365E+04-7.82846E+03-1.72128E-09-1.97633E-09
 -1       265-3.46135E+05-3.45874E+04 8.06038E+04 2.53672E+02-2.14936E-09 1.25547E-08
 -1       266-3.64383E+04-1.70358E+04 8.55078E+04-9.26486E+01 5.45697E-11-1.25632E-09
 -1       267 4.22433E+04 1.98598E+04 6.04290E+04 1.06883E+02 5.82077E-11-4.78957E-09
 -1       268-5.66469E+03-2.81247E+03 2.24616E+04-1.36196E+01 3.09228E-11 2.71511E-09
 -1       269 6.68840E+03 3.36619E+03 1.45993E+04 1.58638E+01-8.45830E-11-9.78419E-09
 -1       270-1.00394E+03-5.53081E+02 7.04729E+03-2.15287E+00 1.04592E-11-1.14851E-09
 -1       271-3.67625E+06-4.54193E+05-2.84743E+05-1.43281E+06-1.21872E-09-2.83762E-09
 -1       272-3.77326E+06-6.75194E+05-1.84230E+05-1.43620E+06 1.71065E-09-1.52213E-08
 -1       273-3.73247E+06-5.25831E+05-6.72607E+04-1.41692E+06 8.11724E-11 5.12955E-09
 -1       274-3.70656E+06-5.89359E+05-3.78916E+04-1.46044E+06 2.19234E-09-7.27596E-11
 -1       275-3.74227E+06-5.31475E+05-1.56645E+04-1.41207E+06-8.91305E-11-7.05677E-09
 -1       276-3.69445E+06-5.83412E+05-8.35027E+03-1.46833E+06-7.77618E-11-4.89035E-09
 -1       277-3.74505E+06-5.30501E+05-4.07954E+03-1.40978E+06 6.11180E-10 4.98130E-09
 -1       278-3.69152E+06-5.84512E+05-2.97974E+03-1.47138E+06-5.31645E-09-1.23728E-09
 -1       279-3.74552E+06-5.30082E+05-3.19442E+03-1.40929E+06-2.32296E-09-1.04378E-08
 -1       280-3.69265E+06-5.84594E+05-5.91137E+03-1.47047E+06-9.67020E-10 1.17661E-08
 -1       281-3.74384E+06-5.30532E+05-1.07526E+04-1.41062E+06 1.08503E-09 4.42196E-09
 -1       282-3.70096E+06-5.88534E+05-2.58849E+04-1.46491E+06-6.60293E-10 6.54836E-09
 -1       283-3.73684E+06-5.27048E+05-4.58774E+04-1.41429E+06 1.30694E-09 7.46149E-09
 -1       284-3.74734E+06-6.45936E+05-1.25596E+05-1.44693E+06-2.32046E-09 3.23053E-09
 -1       285-3.69771E+06-4.79119E+05-1.94239E+05-1.42606E+06-3.09228E-10-8.64384E-09
 -1       301 1.71931E+04-3.30417E+04 1.28876E+05-6.67945E+04-1.03682E-09-4.29645E-09
 -1       302 1.83391E+04-4.59692E+02 8.92858E+04-9.83376E+04 1.38471E-09-3.99632E-09
 -1       303 1.03479E+03-2.08647E+04 7.63795E+04-6.69206E+04-1.03864E-09-6.49834E-09
 -1       304 2.83607E+04 9.08201E+03 1.22191E+05-9.79882E+04 9.14952E-10-9.40508E-09
 -1       305 2.77364E+04-4.20594E+04 2.01692E+05-6.71158E+04-7.42148E-10-6.66842E-09
 -1       306-4.60437E+06-5.33903E+05-3.47637E+05-1.79906E+06 3.15049E-09 3.34694E-10
 -1       307-4.77521E+06-8.32243E+05-2.36470E+05-1.74365E+06 8.54016E-10-2.16824E-09
 -1       308-4.69511E+06-6.29803E+05-8.19031E+04-1.75249E+06 1.74350E-09-4.52201E-09
 -1       309-4.65988E+06-7.31887E+05-4.92704E+04-1.81193E+06 6.46793E-10 1.71349E-09
 -1       310-4.71959E+06-6.31792E+05-1.91256E+04-1.73181E+06-5.88329E-10-4.07999E-09
 -1       311-4.63273E+06-7.28459E+05-1.10839E+04-1.83552E+06 5.02952E-09 1.41595E-08
 -1       312-4.72268E+06-6.32527E+05-5.42725E+03-1.72939E+06-7.10088E-10 1.40896E-08
 -1       313-4.64057E+06-7.15353E+05-4.66282E+03-1.82305E+06-9.83619E-10 1.07275E-09
 -1       314-4.71131E+06-6.45144E+05-6.25271E+03-1.74398E+06-1.33832E-09 1.14142E-10
 -1       315-4.67348E+06-6.85024E+05-1.19758E+04-1.78325E+06 5.20231E-10 1.08730E-08
 -1       316-4.68906E+06-6.63422E+05-2.22711E+04-1.76864E+06 8.91305E-11 3.92629E-09
 -1       317-4.72911E+06-6.66798E+05-5.61561E+04-1.73239E+06 3.81149E-09-6.57019E-09
 -1       318-4.65597E+06-6.63631E+05-9.34409E+04-1.79485E+06-7.14044E-09 1.25074E-08
 -1       319-4.85440E+06-7.92900E+05-2.71033E+05-1.66992E+06-5.12591E-09 3.98359E-09
 -1       320-4.56540E+06-5.39074E+05-3.96876E+05-1.83105E+06 8.78208E-09 7.36327E-09
 -1       336 5.36927E+02-9.11816E+05-5.04175E+03 1.45234E+03-8.52515E-09 6.63749E-09
 -1       337-1.85314E+03-9.12917E+05-5.58198E+03-3.63817E+03-1.56635E-08-3.06954E-09
 -1       338 3.61991E+02-9.11934E+05-7.24894E+03 2.17584E+03-1.12341E-08-6.41558E-09
 -1       339-7.51389E+03-9.16480E+05-1.58766E+04-5.06070E+03-2.03963E-08 8.94943E-09
 -1       340 5.02510E+03-9.08386E+05-2.45714E+04 2.86368E+03-1.35751E-08 8.00173E-09
 -1       406 1.52713E+01 2.61037E+05 4.36238E+02-6.95758E-02 4.58101E-10 1.51222E-08
 -1       407 1.50459E+02 2.61117E+05 9.27104E+02-6.63408E+00 3.19744E-11 3.20956E-08
 -1       408 4.75619E+02 2.60970E+05 1.85164E+03 6.84439E+00 5.08066E-10 1.02555E-08
 -1       409 2.00055E+03 2.61709E+05 4.16852E+03-6.64369E+01-9.98170E-11 7.02948E-09
 -1       410 5.75084E+03 2.60443E+05 8.50989E+03 6.22248E+01 5.12955E-10 2.07547E-09
 -1       521-7.73268E+06-7.59753E+05-6.48353E+05-2.65082E+06-1.10595E-09 4.56930E-09
 -1       522-6.52843E+06-1.87251E+06-2.98207E+05-3.51088E+06-5.98793E-08-2.38033E-08
 -1       523-7.91695E+06-5.57801E+05-1.41575E+05-2.17944E+06-5.68616E-09-3.16359E-08
 -1       524-6.48663E+06-1.96032E+06-5.98581E+04-4.12155E+06 5.77347E-08-6.29680E-08
 -1       525-7.92899E+06-5.54746E+05-3.32701E+04-2.14209E+06 5.62359E-08-4.70959E-08
 -1       526-6.39556E+06-1.71478E+06 4.27504E+04-3.67913E+06 2.50948E-08-2.46364E-08
 -1       527-7.88153E+06-8.94683E+05-9.17013E+04-2.54135E+06-2.79397E-09-2.83399E-09
 -1       528-6.69411E+06-1.03534E+06 1.08010E+05-2.65016E+06-5.84478E-08 2.54895E-08
 -1       529-7.47976E+06-1.34056E+06-1.03907E+05-3.05219E+06 2.94094E-08-1.16925E-08
 -1       530-7.77804E+06-2.29764E+05 5.81726E+04-1.91629E+06-5.50353E-08 1.78279E-08
 -1       531-6.91654E+06-1.61358E+06-4.54953E+04-3.35122E+06-1.05214E-07-7.36327E-09
 -1       532-8.59483E+06 1.54111E+05-5.72552E+04-1.70955E+06 3.95103E-08-6.56719E-08
 -1       533-6.81313E+06-1.62088E+06-1.26666E+05-3.38778E+06 2.62589E-08-9.92877E-08
 -1       534-8.20488E+06-2.88618E+05-3.04088E+05-1.78400E+06-2.99879E-08 7.73289E-08
 -1       535-7.21096E+06-1.24152E+06-6.21402E+05-3.19016E+06-1.22527E-08 5.12518E-08
 -1       536-2.96068E+05-1.38313E+04 3.16869E+04-5.16558E+03-7.06599E-10 1.18089E-08
 -1       537-2.81323E+05 1.60274E+04 2.26027E+04 9.72001E+03-1.53411E-08 9.72273E-09
 -1       538-2.90566E+05-2.13702E+03 8.17217E+03-5.31161E+03 2.51796E-09 5.49653E-09
 -1       539-2.85545E+05 2.57202E+03 5.64083E+03 7.85466E+03 1.52587E-08 1.01350E-08
 -1       540-2.91799E+05-4.28299E+02 1.58873E+03-3.29957E+03 1.94723E-09 1.33256E-08
 -1       541-2.83199E+05 5.65255E+02 2.31345E+03 2.51877E+03-4.54571E-09 7.81614E-09
 -1       542-2.92826E+05-2.00560E+02-3.22167E+02 2.46218E+01 2.47439E-09 1.00692E-09
 -1       543-2.83771E+05 1.54263E+02 1.07692E+03-4.01354E+03 6.14392E-10-3.92106E-09
 -1       544-2.91237E+05-9.92037E+00-8.25465E+02 3.23209E+03-1.91099E-09-1.26298E-08
 -1       545-2.87535E+05-3.90896E+02-8.48964E+02-8.94212E+03-6.34202E-10-9.49029E-10
 -1       546-2.89155E+05 4.16771E+02-2.20501E+03 4.95343E+03 1.93706E-09-9.98966E-10
 -1       547-2.89971E+05-2.66952E+03-5.38301E+03-1.01906E+04-6.56891E-09-1.27549E-08
 -1       548-2.88837E+05 2.29458E+03-8.90768E+03 4.48086E+03-1.07030E-08-1.12605E-08
 -1       549-2.93602E+05-1.66841E+04-2.32539E+04-7.21068E+03-5.83942E-09-1.51385E-09
 -1       550-2.85451E+05 1.43615E+04-3.45735E+04 1.97295E+03 4.71630E-10 1.83900E-09
 -1       551 1.16545E+04-4.72297E+05 2.23008E+04-7.91834E+05-3.76895E-08-7.30506E-09
 -1       552 2.62681E+04-4.78392E+05 2.94756E+04-1.12738E+06-2.83617E-08 1.47193E-08
 -1       553 1.83483E+04-4.84028E+05 4.47441E+04-7.88999E+05-4.60495E-08 1.72804E-08
 -1       554 5.03922E+04-4.69589E+05 9.45808E+04-1.12860E+06-2.98605E-08 1.24419E-09
 -1       555 4.58639E+04-5.02286E+05 1.69074E+05-7.89806E+05-4.63187E-08-6.99947E-09
 -1       556 7.92374E+04-1.51491E+05 5.15054E+04-1.95032E+05-1.08557E-08-1.19180E-08
 -1       557 1.40909E+05-2.02067E+05 2.71479E+04-2.44926E+05-1.54250E-09 5.94355E-09
 -1       558 7.85187E+04-1.58080E+05 1.08353E+04-1.89398E+05-5.63159E-09-1.17871E-09
 -1       559 1.31857E+05-2.08904E+05 5.54583E+03-2.49098E+05 1.07320E-08-5.82077E-11
 -1       560 7.62514E+04-1.56592E+05 2.21167E+03-1.90864E+05 1.34605E-09 4.93310E-09
 -1       561 1.28470E+05-2.07945E+05 1.20950E+03-2.51251E+05-3.42698E-09-6.39648E-09
 -1       562 7.44394E+04-1.55395E+05 4.21080E+02-1.92168E+05-7.93079E-10 1.39426E-09
 -1       563 1.26343E+05-2.07027E+05 2.94841E+02-2.52612E+05 3.34694E-10 4.30316E-09
 -1       564 7.32873E+04-1.54657E+05 9.75879E+01-1.92985E+05 3.10320E-09-8.64247E-09
 -1       565 1.25193E+05-2.06532E+05 8.46733E+01-2.53336E+05 8.73115E-11-1.59489E-08
 -1       566 7.28305E+04-1.54359E+05 5.37721E+00-1.93311E+05-1.69894E-09-6.63385E-09
 -1       567 1.24978E+05-2.06429E+05-6.70369E+01-2.53402E+05 6.80859E-09-3.16686E-09
 -1       568 7.31036E+04-1.54539E+05-2.64432E+02-1.93187E+05-1.29148E-09 3.91083E-10
 -1       569 1.25027E+05-2.06292E+05-6.23169E+02-2.52188E+05-3.57431E-09 3.91447E-09
 -1       570 7.46647E+04-1.55874E+05-1.41255E+03-1.93107E+05-3.16504E-10-8.15817E-09
 -1       571 1.90593E+05 7.00132E+03 1.03608E+04-4.90665E+04 1.20235E-09 4.40787E-09
 -1       572 1.92132E+05 2.44309E+03 5.07626E+03-5.37911E+04 3.78350E-10-1.03660E-08
 -1       573 1.91209E+05 5.90482E+02 2.25510E+03-4.89418E+04 1.00135E-09 3.30283E-09
 -1       574 1.91390E+05 2.01379E+02 1.12993E+03-5.39312E+04 9.70658E-10 7.86122E-09
 -1       575 1.91277E+05 3.78268E+01 5.32591E+02-4.89253E+04 8.17863E-10-1.80535E-10
 -1       576 1.91288E+05 2.05520E+01 2.71230E+02-5.39499E+04-4.05592E-10-3.22507E-09
 -1       577 1.91288E+05 7.87992E+00 1.33779E+02-4.89231E+04-2.09525E-10 1.05997E-08
 -1       578 1.91280E+05 1.06182E+01 7.33360E+01-5.39522E+04-6.64841E-10 3.83261E-09
 -1       579 1.91301E+05 4.64667E+00 4.54394E+01-4.89231E+04-1.75987E-10-1.06866E-10
 -1       580 1.91298E+05 3.09832E+00 4.35390E+01-5.39493E+04-2.91766E-09-5.40604E-09
 -1       581 1.91324E+05-4.39362E+00 6.00108E+01-4.89260E+04-5.11136E-10-1.94996E-09
 -1       582 1.91340E+05 4.31248E+00 1.15376E+02-5.39199E+04 5.09317E-11-3.64116E-09
 -1       583 1.91352E+05 3.02827E+01 2.21424E+02-4.89525E+04-3.81988E-10 2.22894E-09
 -1       584 1.91457E+05 2.02751E+02 4.97036E+02-5.36984E+04-1.88356E-09-3.16277E-10
 -1       585 1.91333E+05 6.39233E+02 1.00900E+03-4.91479E+04 1.89175E-10-1.50249E-09
 -1       586-2.20880E+03 6.31659E+04-2.87000E+03-1.68446E+05-3.86535E-11-2.85991E-09
 -1       587-4.58183E+02 6.27876E+04-2.05394E+02-1.85372E+05 1.40062E-10-1.58271E-08
 -1       588 6.69663E+02 6.28464E+04 2.32146E+03-1.68349E+05 3.77440E-10 9.93168E-09
 -1       589 3.33195E+03 6.41055E+04 6.60259E+03-1.85208E+05 5.36602E-10 1.42559E-08
 -1       590 9.59766E+03 6.20798E+04 1.40797E+04-1.68614E+05 1.06411E-10 5.14592E-09
 -1       591-4.17394E+04-1.16770E+04-1.37339E+04-2.13042E+04-3.02231E-09-1.09685E-08
 -1       592-4.31208E+04-1.49548E+04-7.43889E+03-2.47778E+04-2.01516E-09 1.03910E-09
 -1       593-4.31269E+04-1.06663E+04-3.09686E+03-2.22975E+04-3.05874E-09-9.91690E-10
 -1       594-4.12086E+04-1.29570E+04-1.54454E+03-2.48714E+04-1.07539E-08-3.72535E-09
 -1       595-4.32333E+04-1.06617E+04-7.09782E+02-2.23431E+04-3.81880E-09 7.44382E-09
 -1       596-4.10791E+04-1.28655E+04-3.61766E+02-2.48578E+04-2.56136E-10 9.60280E-09
 -1       597-4.32467E+04-1.06705E+04-1.99052E+02-2.23449E+04-1.42282E-09 8.76241E-10
 -1       598-4.10667E+04-1.28620E+04-1.63791E+02-2.48540E+04 3.09652E-09-1.20212E-09
 -1       599-4.32457E+04-1.06706E+04-2.13945E+02-2.23445E+04-1.35412E-09-1.13631E-08
 -1       600-4.10804E+04-1.28667E+04-4.01222E+02-2.48573E+04-2.34195E-11-9.42043E-09
 -1       601-4.32287E+04-1.06612E+04-7.93511E+02-2.23418E+04-9.67930E-10-3.22370E-09
 -1       602-4.12252E+04-1.29690E+04-1.73041E+03-2.48706E+04-2.64322E-10-3.79680E-09
 -1       603-4.31081E+04-1.06681E+04-3.47077E+03-2.22909E+04-3.31966E-11-1.27920E-09
 -1       604-4.33756E+04-1.51998E+04-8.33728E+03-2.47549E+04 2.72962E-09 7.38055E-09
 -1       605-4.15435E+04-1.18080E+04-1.53924E+04-2.11856E+04 8.92442E-10 2.16824E-09
 -1       606 2.63713E+04-9.17881E+03-1.65213E+04 2.56752E+04-3.26236E-09-6.92216E-09
 -1       607 2.35421E+04-2.96384E+03-8.22664E+03 2.88227E+04-2.19279E-09-7.35929E-09
 -1       608 2.51464E+04-5.02630E+02-3.68413E+03 2.54711E+04 8.22183E-10 2.99087E-09
 -1       609 2.48268E+04-1.32954E+02-1.86071E+03 2.90487E+04-2.72394E-09 3.85580E-09
 -1       610 2.49971E+04 2.12178E+01-8.88880E+02 2.54482E+04-3.09228E-09 5.35783E-09
 -1       611 2.49365E+04 3.36242E+01-4.48273E+02 2.90734E+04-6.54018E-09 7.84166E-09
 -1       612 2.49566E+04 3.64149E+01-2.14501E+02 2.54460E+04-1.01591E-09 1.27739E-09
 -1       613 2.49334E+04 4.21827E+01-9.76201E+01 2.90763E+04-2.80124E-09-4.82942E-10
 -1       614 2.49343E+04 3.75402E+01-2.69974E+01 2.54452E+04 8.44011E-10 5.28075E-09
 -1       615 2.49215E+04 4.77702E+01 3.12238E+01 2.90767E+04 4.01633E-09 3.61297E-10
 -1       616 2.49173E+04 4.33333E+01 1.02518E+02 2.54455E+04 4.37058E-09-3.71142E-09
 -1       617 2.49274E+04 7.36518E+01 2.37521E+02 2.90762E+04 1.97133E-08 4.65343E-09
 -1       618 2.48918E+04 1.14902E+02 4.80003E+02 2.54456E+04 1.29512E-08 6.23550E-09
 -1       619 2.50930E+04 4.47376E+02 1.07879E+03 2.90755E+04 3.94039E-09-5.48198E-09
 -1       620 2.47299E+04 1.25567E+03 2.16853E+03 2.54445E+04 1.85776E-09 1.08730E-09
 -1       621 3.07403E+02 2.04908E+05 2.70261E+03 8.37993E+03-9.94191E-11 7.36691E-10
 -1       622 3.55299E+02 2.05577E+05 2.33556E+03 1.22257E+04 1.27329E-11-5.46152E-10
 -1       623 1.51396E+01 2.05094E+05 2.74020E+03 8.34054E+03-1.05558E-10 4.31623E-09
 -1       624 1.25430E+03 2.06399E+05 5.25083E+03 1.22646E+04-1.30996E-10-3.47586E-09
 -1       625 1.26037E+03 2.04078E+05 9.15064E+03 8.34123E+03-1.44155E-10-6.37266E-09
 -1       626 1.71270E+05 4.69439E+04 3.45762E+03 9.18830E+04 1.64482E-09 2.34650E-10
 -1       627 1.68995E+05 4.85947E+04 1.66613E+03 9.55625E+04 9.89530E-10 8.29573E-10
 -1       628 1.71394E+05 4.53142E+04 7.03711E+02 9.24108E+04 2.45927E-09 1.64619E-09
 -1       629 1.68501E+05 4.81950E+04 3.44905E+02 9.57813E+04 6.01358E-09 3.05818E-10
 -1       630 1.71401E+05 4.52377E+04 1.59425E+02 9.24250E+04-1.96633E-09-1.53095E-08
 -1       631 1.68441E+05 4.81860E+04 8.57013E+01 9.57823E+04-4.51428E-09-3.53447E-09
 -1       632 1.71392E+05 4.52441E+04 5.63597E+01 9.24171E+04-9.28094E-09-1.57200E-08
 -1       633 1.68428E+05 4.81912E+04 6.27367E+01 9.57752E+04-2.93767E-09 1.08730E-09
 -1       634 1.71382E+05 4.52451E+04 1.01295E+02 9.24126E+04 6.19684E-09 1.04067E-08
 -1       635 1.68432E+05 4.81928E+04 2.05240E+02 9.57746E+04 6.82348E-10-6.68638E-09
 -1       636 1.71371E+05 4.52443E+04 4.14443E+02 9.24095E+04-1.49510E-09 1.72122E-10
 -1       637 1.68516E+05 4.82587E+04 9.10847E+02 9.57705E+04-6.47503E-10-1.97633E-09
 -1       638 1.71335E+05 4.54473E+04 1.87188E+03 9.23160E+04 2.74781E-10 6.66205E-10
 -1       639 1.69496E+05 4.96277E+04 4.42833E+03 9.54795E+04-2.96143E-09-2.45018E-09
 -1       640 1.71204E+05 4.95237E+04 9.18984E+03 9.05857E+04-1.02909E-09 6.57519E-09
 -1       656 4.61606E+04-1.16922E+06-1.11432E+05-3.77876E+02 8.73115E-10-1.66139E-09
 -1       657-6.10027E+04-1.21952E+06-9.21678E+04 7.32233E+03 3.41970E-10-5.22027E-09
 -1       658 1.46437E+04-1.18357E+06-5.65760E+04-1.51832E+03 3.54021E-10 1.47182E-09
 -1       659-6.54542E+04-1.22163E+06-9.80146E+04 8.09475E+03-1.59162E-10 8.46748E-09
 -1       660 5.06015E+04-1.16712E+06-1.21489E+05-1.15028E+03-3.05590E-10 3.88843E-09
 -1       661 1.61066E+05 1.75100E+04 1.55335E+04 6.29596E+04 1.75123E-09 6.00903E-09
 -1       662 1.69209E+05 2.96417E+04 1.04671E+04 6.02001E+04 3.23320E-09-3.19153E-09
 -1       663 1.64111E+05 2.24980E+04 3.66144E+03 6.20802E+04 6.93490E-10-1.40017E-09
 -1       664 1.65685E+05 2.38033E+04 2.18915E+03 6.12696E+04 7.95609E-10-2.80460E-09
 -1       665 1.64568E+05 2.31844E+04 8.63551E+02 6.19520E+04-3.65276E-09 5.19333E-09
 -1       666 1.65149E+05 2.30141E+04 5.03696E+02 6.14339E+04-7.25004E-09 4.41707E-10
 -1       667 1.64644E+05 2.32665E+04 2.65678E+02 6.19236E+04-2.32640E-09 3.75858E-09
 -1       668 1.65067E+05 2.29495E+04 2.66430E+02 6.14748E+04 5.87661E-10 5.71967E-09
 -1       669 1.64649E+05 2.32471E+04 3.57203E+02 6.19118E+04 4.05905E-10 5.99550E-09
 -1       670 1.65157E+05 2.31385E+04 7.74533E+02 6.14741E+04 6.25673E-09 7.42172E-09
 -1       671 1.64555E+05 2.30813E+04 1.37415E+03 6.19227E+04-4.22315E-09 6.16683E-09
 -1       672 1.65958E+05 2.44744E+04 3.51486E+03 6.12797E+04-6.04384E-09-1.24334E-09
 -1       673 1.63852E+05 2.19448E+04 5.89001E+03 6.20933E+04-9.99876E-10-1.76806E-09
 -1       674 1.71567E+05 3.39348E+04 1.68442E+04 5.96301E+04 2.02135E-09-2.20643E-09
 -1       675 1.58982E+05 1.38854E+04 2.50021E+04 6.34726E+04 2.26009E-09-5.09954E-09
 -1       676 1.86332E+01-2.22756E+05-8.65152E+02 3.46636E+01-1.29060E-09-5.28803E-09
 -1       677-2.29651E+02-2.22965E+05-1.58332E+03-6.92928E+01-5.24119E-09-1.04448E-08
 -1       678 1.53369E+02-2.22607E+05-2.79890E+03 3.46053E+01-5.34783E-10-4.35795E-09
 -1       679-2.79950E+03-2.24655E+05-6.64878E+03-6.90664E+01-3.90571E-09-6.15420E-09
 -1       680 1.67077E+03-2.21067E+05-1.07156E+04 3.40416E+01-1.94632E-09-1.26586E-09
 -1       771-2.38410E+06-4.36864E+05-6.20265E+04-1.01028E+06-1.12632E-08-9.42964E-09
 -1       772-2.36322E+06-4.73181E+05-3.30438E+04-1.05108E+06-7.42875E-09 3.21779E-09
 -1       773-2.39344E+06-4.29539E+05-1.47036E+04-1.01376E+06 1.22236E-09 2.65572E-09
 -1       774-2.35486E+06-4.66282E+05-7.03684E+03-1.05630E+06 1.87647E-08-3.65981E-09
 -1       775-2.39627E+06-4.27602E+05-3.87309E+03-1.01423E+06 2.92493E-09-4.32919E-10
 -1       776-2.35529E+06-4.66341E+05-1.69793E+03-1.05947E+06 1.85537E-10 1.44064E-09
 -1       777-2.39841E+06-4.26026E+05-1.25633E+03-1.01458E+06 3.09228E-09 1.49157E-09
 -1       778-2.35620E+06-4.66570E+05-4.83184E+02-1.06213E+06 2.97223E-09 8.06813E-09
 -1       779-2.40016E+06-4.24686E+05-5.66368E+02-1.01489E+06-2.22644E-09-3.17596E-09
 -1       780-2.35705E+06-4.66746E+05-2.94921E+02-1.06429E+06-1.82990E-09-1.06411E-10
 -1       781-2.40150E+06-4.23621E+05-5.42160E+02-1.01513E+06-8.97126E-09-1.78079E-09
 -1       782-2.35777E+06-4.66898E+05-7.88914E+02-1.06587E+06-1.30440E-08-3.52156E-09
 -1       783-2.40237E+06-4.22910E+05-1.59254E+03-1.01529E+06-2.80124E-10-4.36739E-09
 -1       784-2.35912E+06-4.67950E+05-3.68456E+03-1.06679E+06-4.25644E-09-1.17934E-08
 -1       785-2.40216E+06-4.23039E+05-6.83176E+03-1.01488E+06-7.60519E-09-2.18279E-10
 -1       786 1.66539E+05-9.18717E+03 2.12547E+04-3.36491E+01 4.62335E-06 2.03554E-08
 -1       787 1.75749E+05 1.06359E+04 1.50372E+04 7.64801E+00 9.21002E-06 1.44348E-08
 -1       788 1.70092E+05-1.44019E+03 5.50114E+03-2.40066E+01 8.61160E-06-1.15119E-08
 -1       789 1.71610E+05 1.66637E+03 3.45621E+03-8.97089E+00 7.99374E-06 1.22668E-08
 -1       790 1.70679E+05-2.24959E+02 1.40588E+03-1.70312E+01 7.66166E-06-1.97779E-08
 -1       791 1.70925E+05 2.61239E+02 8.24555E+02-2.27415E+01 7.32288E-06 8.64941E-09
 -1       792 1.70777E+05-3.61199E+01 3.74590E+02-1.02359E+01 3.66472E-06-7.73842E-09
 -1       793 1.70814E+05 4.98827E+01 2.41931E+02-3.81356E+01 1.07690E-08 1.64952E-09
 -1       794 1.70790E+05-1.37406E+01 1.73807E+02-1.63691E+00 1.14898E-09-1.18251E-09
 -1       795 1.70822E+05 6.88341E+01 2.43601E+02-5.95584E+01-1.08375E-09 1.28399E-08
 -1       796 1.70769E+05-5.50544E+01 3.60164E+02 1.11873E+01 8.61798E-10-2.66512E-09
 -1       797 1.70984E+05 4.03117E+02 8.45321E+02-9.30355E+01-7.34221E-10-7.36888E-09
 -1       798 1.70628E+05-3.47780E+02 1.33301E+03 3.18408E+01 2.51378E-10-6.89454E-10
 -1       799 1.71984E+05 2.56782E+03 3.63297E+03-1.48217E+02-1.17806E-10-2.74622E-09
 -1       800 1.69769E+05-2.21802E+03 5.13138E+03 6.63695E+01-2.39311E-11 7.37782E-09
 -1       801 1.55367E+04-7.83506E+05-6.37922E+04 2.37418E+04 1.18926E-08-1.95178E-09
 -1       802-9.36365E+03-6.65605E+05 6.24739E+02-7.24731E+04 3.19887E-08-3.57340E-09
 -1       803-5.58517E+03-7.26659E+05 3.17366E+04 4.16393E+04 2.54331E-08 1.99888E-08
 -1       804 9.21759E+04-6.06254E+05 1.34390E+05-6.83877E+04 2.93203E-08 2.50220E-08
 -1       805-8.62778E+04-8.42359E+05 1.59226E+05 1.96510E+04 1.05647E-08 2.25900E-08
 -1       806-2.07779E+05-4.34341E+04-1.72011E+04-8.53921E+04 4.10000E-09-6.16274E-09
 -1       807-2.08894E+05-4.08677E+04-8.45056E+03-8.98347E+04 1.33469E-08 9.91832E-10
 -1       808-2.08260E+05-3.72260E+04-3.58473E+03-8.83159E+04 4.03611E-09-1.19807E-09
 -1       809-2.07097E+05-3.85144E+04-1.75255E+03-9.00694E+04 3.03544E-09 6.35305E-09
 -1       810-2.08335E+05-3.70077E+04-8.02565E+02-8.84450E+04 1.97360E-09-2.75190E-09
 -1       811-2.06959E+05-3.84210E+04-3.98173E+02-9.00474E+04 8.47649E-10-5.20481E-09
 -1       812-2.08348E+05-3.70245E+04-1.99066E+02-8.84446E+04-1.22918E-09-6.50653E-09
 -1       813-2.06940E+05-3.84233E+04-1.26053E+02-9.00359E+04 1.89789E-09 1.37345E-09
 -1       814-2.08345E+05-3.70309E+04-1.19106E+02-8.84417E+04-1.64619E-10-2.54045E-09
 -1       815-2.06942E+05-3.84254E+04-1.87125E+02-9.00322E+04-2.09252E-09-8.14805E-09
 -1       816-2.08332E+05-3.70298E+04-3.51166E+02-8.84391E+04-1.46792E-09 6.57019E-09
 -1       817-2.07002E+05-3.84590E+04-7.52891E+02-9.00254E+04 1.37288E-09 1.36388E-08
 -1       818-2.08287E+05-3.71357E+04-1.53458E+03-8.83890E+04 1.58434E-09 4.73938E-09
 -1       819-2.07848E+05-3.93812E+04-3.61146E+03-8.98212E+04-1.25192E-09-6.14091E-09
 -1       820-2.07996E+05-3.98651E+04-7.35010E+03-8.72236E+04-1.25783E-09 8.55312E-09
 -1       821-2.67002E+05 1.47766E+04-3.41732E+04 1.41138E+02 2.83047E-10-1.74623E-09
 -1       822-2.81811E+05-1.71065E+04-2.41825E+04-7.32259E+02-1.78960E-09 9.24956E-10
 -1       823-2.72717E+05 2.31670E+03-8.85089E+03 1.20079E+02 9.64445E-10-3.87990E-09
 -1       824-2.75145E+05-2.68140E+03-5.56866E+03-5.77010E+02-3.74305E-11-2.61343E-09
 -1       825-2.73667E+05 3.62508E+02-2.28955E+03-1.41149E+01-2.16171E-09-1.93472E-09
 -1       826-2.74038E+05-4.27463E+02-1.38073E+03-2.51137E+02-4.52628E-09-4.60967E-09
 -1       827-2.73823E+05 6.41879E+01-7.16507E+02-2.05800E+02-2.88166E-09-7.74617E-09
 -1       828-2.73890E+05-1.30442E+02-6.31975E+02 1.12667E+02-5.47558E-09-6.24168E-09
 -1       829-2.73815E+05 6.57644E+01-7.27836E+02-3.77925E+02 4.97806E-10-9.64803E-10
 -1       830-2.74062E+05-4.39443E+02-1.42054E+03 3.68104E+02 2.04497E-09 6.19231E-09
 -1       831-2.73651E+05 3.73235E+02-2.35324E+03-4.61243E+02-2.38862E-09 1.58343E-09
 -1       832-2.75194E+05-2.75992E+03-5.73449E+03 4.13009E+02-1.40734E-09 2.72678E-09
 -1       833-2.72684E+05 2.38462E+03-9.11291E+03-4.22829E+02-8.04075E-10 3.78623E-09
 -1       834-2.82038E+05-1.76115E+04-2.48967E+04 2.31076E+02-5.89736E-10 9.54969E-10
 -1       835-2.66809E+05 1.52132E+04-3.51881E+04-2.79299E+02 4.07525E-09 1.24419E-09
 -1       836-8.90178E+02 2.51392E+05 1.51778E+04-2.09138E+04 1.32104E-09-2.09002E-09
 -1       837 3.33758E+03 2.56094E+05 1.29584E+04-4.20069E+04 1.92540E-09 1.13823E-09
 -1       838-3.27593E+02 2.52698E+05 1.33625E+04-2.08421E+04 1.89311E-09 7.95114E-09
 -1       839 8.57424E+03 2.59996E+05 2.54345E+04-4.20346E+04 2.62344E-09 7.08287E-09
 -1       840-2.57914E+03 2.47452E+05 4.06237E+04-2.08846E+04 1.67711E-09-8.50173E-09
 -1       856-7.93536E+04 7.01346E+03-1.84824E+04-4.11942E+02-3.68334E-09-1.87538E-09
 -1       857-8.69876E+04-8.22595E+03-1.27247E+04 4.25016E+03-4.24234E-09-3.22962E-09
 -1       858-8.23698E+04 9.82690E+02-4.79668E+03-4.31333E+02-2.54431E-09-6.39193E-09
 -1       859-8.35239E+04-1.14258E+03-2.89690E+03 4.28106E+03 1.29297E-09-6.25846E-11
 -1       860-8.28208E+04 1.36657E+02-1.21786E+03-4.42970E+02 1.41546E-09-3.50644E-09
 -1       861-8.30045E+04-1.50860E+02-6.77931E+02 4.29698E+03-6.78313E-09-1.60225E-08
 -1       862-8.28909E+04 1.80737E+01-2.97774E+02-4.47285E+02 4.72973E-09-3.41917E-09
 -1       863-8.29213E+04-1.06572E+01-1.44716E+02 4.29893E+03 9.99804E-09 5.42757E-09
 -1       864-8.29041E+04-4.59216E-01-4.03187E+01-4.44925E+02 3.89203E-09-1.85536E-09
 -1       865-8.28953E+04 2.41089E+01 4.14912E+01 4.28702E+03 4.41884E-09-7.72016E-09
 -1       866-8.29155E+04-1.71118E+01 1.25501E+02-4.35367E+02-1.87714E-09-3.35518E-10
 -1       867-8.28251E+04 1.43217E+02 3.35854E+02 4.26108E+03 1.32178E-09 2.84344E-09
 -1       868-8.29714E+04-1.18638E+02 5.64503E+02-4.18981E+02 2.18506E-10-7.73775E-09
 -1       869-8.24030E+04 9.84402E+02 1.51310E+03 4.21815E+03 1.63203E-09-1.68724E-08
 -1       870-8.33330E+04-8.37230E+02 2.19441E+03-3.92449E+02 1.88618E-09 3.20165E-09
 -1       871-3.92692E+03-8.46656E+03-1.27547E+04 8.38211E+04 1.84446E-09 3.35058E-09
 -1       872-1.70394E+03-1.13241E+04-5.20406E+03 1.08669E+05 3.59705E-09 4.03725E-09
 -1       873-3.73572E+01-9.98973E+03 7.30233E+02 8.36368E+04 1.43132E-09 3.79782E-09
 -1       874 1.95483E+03-8.14195E+03 7.20570E+03 1.08707E+05 2.59388E-09 6.02267E-09
 -1       875 4.62796E+03-1.16995E+04 1.59878E+04 8.37909E+04 8.87667E-10 3.23917E-09
 -1       876 2.07868E+05 3.57989E+04 1.10979E+04 8.43145E+04-3.25088E-09-2.40107E-10
 -1       877 2.08504E+05 3.82333E+04 5.92656E+03 8.75945E+04-7.17114E-09-1.11081E-08
 -1       878 2.08905E+05 3.45706E+04 2.48295E+03 8.52259E+04 6.08452E-10-4.49700E-09
 -1       879 2.06994E+05 3.67298E+04 1.23689E+03 8.76729E+04 3.25451E-09 3.55271E-11
 -1       880 2.08980E+05 3.45570E+04 5.75859E+02 8.52630E+04 6.25960E-10-3.72461E-09
 -1       881 2.06894E+05 3.66659E+04 3.06755E+02 8.76571E+04 3.20506E-09-3.13752E-09
 -1       882 2.08988E+05 3.45661E+04 1.94938E+02 8.52640E+04 4.01246E-09 1.04498E-08
 -1       883 2.06887E+05 3.66629E+04 2.07455E+02 8.76526E+04 3.37332E-09-8.09166E-11
 -1       884 2.08983E+05 3.45638E+04 3.28099E+02 8.52642E+04 3.94698E-09 1.75726E-09
 -1       885 2.06913E+05 3.66675E+04 6.58468E+02 8.76608E+04 4.81465E-09 1.95433E-09
 -1       886 2.08958E+05 3.45446E+04 1.32656E+03 8.52616E+04-2.77674E-09-5.03167E-09
 -1       887 2.07146E+05 3.68203E+04 2.89749E+03 8.76944E+04-7.64919E-09-5.66843E-09
 -1       888 2.08775E+05 3.45768E+04 5.83849E+03 8.51688E+04 1.15816E-09 2.04091E-09
 -1       889 2.10625E+05 4.04324E+04 1.39477E+04 8.75841E+04 1.69231E-09-8.59018E-10
 -1       890 2.06396E+05 3.74025E+04 2.61229E+04 8.29415E+04 3.44176E-09-6.14273E-09
 -1       891-1.29364E+02-1.17980E+05-1.39582E+03 2.22699E+04-1.61322E-09-8.72660E-10
 -1       892-2.25239E+02-1.18314E+05-1.51737E+03 3.37012E+04-6.54836E-11 1.70894E-09
 -1       893-3.67903E+01-1.18024E+05-2.16725E+03 2.22743E+04 2.38060E-09 1.24114E-08
 -1       894-1.18476E+03-1.19144E+05-4.49914E+03 3.35812E+04-7.21002E-10 3.89764E-09
 -1       895-9.26341E+02-1.17087E+05-7.92818E+03 2.23884E+04 1.34673E-09-1.05592E-09
 -1       956-2.61647E+05-3.75672E+03-9.45710E+03 1.74380E+04-2.93630E-09 9.47648E-09
 -1       957-2.63515E+05-1.26709E+03-4.85490E+03 2.09991E+04-2.83535E-09 6.00517E-09
 -1       958-2.62487E+05-1.00739E+02-2.18727E+03 1.73255E+04 5.73891E-10-1.66119E-09
 -1       959-2.62636E+05-1.69346E+01-1.11720E+03 2.11210E+04-3.78986E-09 2.71848E-09
 -1       960-2.62562E+05 3.19134E+01-5.44578E+02 1.73148E+04-3.85580E-09 2.86036E-09
 -1       961-2.62572E+05 3.02694E+01-2.88773E+02 2.11332E+04-2.59706E-09 1.25056E-10
 -1       962-2.62577E+05 2.81948E+01-1.64980E+02 1.73132E+04-1.03369E-08 5.94787E-09
 -1       963-2.62569E+05 3.15320E+01-1.31858E+02 2.11354E+04-2.48110E-08 1.88243E-09
 -1       964-2.62580E+05 3.01021E+01-1.59354E+02 1.73126E+04-1.09097E-08-7.36122E-10
 -1       965-2.62579E+05 3.44389E+01-2.74758E+02 2.11354E+04 1.92761E-09 2.55579E-09
 -1       966-2.62572E+05 3.75441E+01-5.15414E+02 1.73131E+04-2.43938E-09-3.65606E-09
 -1       967-2.62647E+05-6.13898E+00-1.05694E+03 2.11287E+04-1.88584E-09-1.46201E-09
 -1       968-2.62507E+05-8.40981E+01-2.06831E+03 1.73194E+04-2.38401E-09-1.80907E-09
 -1       969-2.63486E+05-1.18516E+03-4.59224E+03 2.10551E+04-1.15278E-09-9.26320E-10
 -1       970-2.61718E+05-3.53990E+03-8.94468E+03 1.73891E+04 1.53841E-09-6.79393E-10
 -1       971-2.47888E+05-1.30397E+03-7.25285E+03 1.20268E+04-3.36922E-09-4.96487E-09
 -1       972-2.49652E+05-9.34365E+02-3.94993E+03 1.67982E+04-1.92927E-09 6.18593E-09
 -1       973-2.48694E+05-7.97079E+00-1.76864E+03 1.19265E+04-2.77032E-09 3.47211E-09
 -1       974-2.48817E+05-7.74423E+00-9.16266E+02 1.69063E+04 3.33785E-10 1.78079E-09
 -1       975-2.48756E+05 2.57498E+01-4.56928E+02 1.19175E+04 6.52108E-10 1.45985E-09
 -1       976-2.48767E+05 3.00306E+01-2.61756E+02 1.69172E+04-2.05273E-09-4.49938E-09
 -1       977-2.48768E+05 2.54019E+01-1.86599E+02 1.19155E+04 1.47134E-09-1.33241E-09
 -1       978-2.48770E+05 3.41349E+01-2.13788E+02 1.69200E+04 7.20866E-09-5.20970E-09
 -1       979-2.48768E+05 3.10985E+01-3.39529E+02 1.19147E+04 5.37602E-09 2.83831E-09
 -1       980-2.48794E+05 3.61929E+01-6.53107E+02 1.69205E+04 4.05596E-09-5.25358E-09
 -1       981-2.48747E+05 4.73681E+01-1.26359E+03 1.19151E+04 3.79373E-10-7.27226E-09
 -1       982-2.48968E+05-5.70120E+01-2.61108E+03 1.69155E+04 1.02716E-09 2.93883E-09
 -1       983-2.48588E+05-3.32980E+01-5.07291E+03 1.19199E+04 5.94150E-09 7.12748E-09
 -1       984-2.51408E+05-2.70598E+03-1.13600E+04 1.68476E+04 9.91986E-09 2.06876E-09
 -1       985-2.46292E+05-3.74515E+03-2.08606E+04 1.19877E+04 1.04642E-08 7.92170E-10
 -3
    1PSTEP                        13           7           1          
  100CL  107 5.38574E-01         409                     0    7           1
 -4  DISP        4    1
 -5  D1          1    2    1    0
 -5  D2          1    2    2    0
 -5  D3          1    2    3    0
 -5  ALL         1    2    0    0    1ALL
 -1         1 1.82216E-04 0.00000E+00 0.00000E+00
 -1         2 1.62717E-04-4.42754E-31 3.30872E-24
 -1         3 1.62924E-04 2.57747E-27 1.32349E-23
 -1         5 1.06853E-04 3.67912E-27 0.00000E+00
 -1         8 1.56730E-04-8.71922E-07 0.00000E+00
 -1         9 1.50726E-04-6.52811E-07 0.00000E+00
 -1        10 1.49929E-04-2.18997E-06 0.00000E+00
 -1        12 1.06585E-04 5.91831E-07 0.00000E+00
 -1        15 1.26283E-04-9.70491E-07 0.00000E+00
 -1        16 1.30062E-04-8.57448E-07 0.00000E+00
 -1        17 1.08849E-04-4.67311E-06 0.00000E+00
 -1        18 1.04613E-04 4.72844E-06 0.00000E+00
 -1        19 1.05781E-04 1.18057E-06 0.00000E+00
 -1        20 1.05927E-04 1.31833E-05 0.00000E+00
 -1        21 1.05333E-04 2.39511E-05 0.00000E+00
 -1        24 2.22933E-05-6.54176E-06 0.00000E+00
 -1        25 1.04513E-04 4.86818E-06 0.00000E+00
 -1        26 1.05417E-04 1.63959E-06 0.00000E+00
 -1        27 1.03781E-04 1.05249E-05 0.00000E+00
 -1        28 1.03312E-04 2.34498E-05 0.00000E+00
 -1        32 0.00000E+00 0.00000E+00 0.00000E+00
 -1        33 1.03809E-04 2.19666E-06 0.00000E+00
 -1        34 1.02212E-04 1.04998E-05 0.00000E+00
 -1        35 1.00705E-04 2.31833E-05 0.00000E+00
 -1        51 1.80564E-04-1.44944E-07 0.00000E+00
 -1        52 1.77497E-04-2.83965E-07 0.00000E+00
 -1        53 1.73292E-04-4.24242E-07 0.00000E+00
 -1        54 1.68237E-04-5.67487E-07 3.30872E-24
 -1        55 1.62620E-04-7.14598E-07 1.24077E-24
 -1        56 1.80627E-04-8.68116E-07 0.00000E+00
 -1        57 1.79139E-04-2.19042E-06-2.64698E-23
 -1        58 1.77770E-04-3.82056E-06 0.00000E+00
 -1        59 1.76455E-04-5.62809E-06-2.64698E-23
 -1        60 1.75149E-04-7.45935E-06-5.29396E-23
 -1        61 1.73794E-04-9.16406E-06-2.64698E-23
 -1        62 1.72339E-04-1.06015E-05 0.00000E+00
 -1        63 1.70735E-04-1.16426E-05 2.64698E-23
 -1        64 1.68945E-04-1.21907E-05 5.29396E-23
 -1        65 1.66943E-04-1.21692E-05-2.64698E-23
 -1        66 1.64715E-04-1.15486E-05 5.29396E-23
 -1        67 1.62261E-04-1.03234E-05 0.00000E+00
 -1        68 1.59597E-04-8.53864E-06 5.29396E-23
 -1        69 1.56755E-04-6.25864E-06 0.00000E+00
 -1        70 1.53765E-04-3.59553E-06 0.00000E+00
 -1        86 1.62358E-04-1.01714E-07 3.30872E-24
 -1        87 1.61280E-04-2.04449E-07 0.00000E+00
 -1        88 1.59523E-04-3.08179E-07-6.61744E-24
 -1        89 1.57128E-04-4.16481E-07-3.30872E-24
 -1        90 1.54170E-04-5.25106E-07-1.32349E-23
 -1       121 1.62560E-04-3.61939E-07 1.32349E-23
 -1       122 1.61470E-04-7.24393E-07 0.00000E+00
 -1       123 1.59657E-04-1.08787E-06 0.00000E+00
 -1       124 1.57125E-04-1.45292E-06 0.00000E+00
 -1       125 1.53879E-04-1.81994E-06 0.00000E+00
 -1       191 1.06846E-04 9.86433E-08 0.00000E+00
 -1       192 1.06823E-04 1.97285E-07 0.00000E+00
 -1       193 1.06786E-04 2.95927E-07-3.30872E-24
 -1       194 1.06734E-04 3.94567E-07 0.00000E+00
 -1       195 1.06667E-04 4.93202E-07 0.00000E+00
 -1       251 1.56349E-04 3.81750E-06 1.32349E-23
 -1       252 1.55971E-04 7.70728E-06-6.61744E-24
 -1       253 1.55596E-04 1.05373E-05-1.32349E-23
 -1       254 1.55224E-04 1.20635E-05 0.00000E+00
 -1       255 1.54852E-04 1.22795E-05 1.32349E-23
 -1       256 1.54480E-04 1.11988E-05 0.00000E+00
 -1       257 1.54107E-04 9.07145E-06 0.00000E+00
 -1       258 1.53731E-04 6.16320E-06-6.61744E-24
 -1       259 1.53355E-04 2.88224E-06 1.32349E-23
 -1       260 1.52978E-04-3.57547E-07 6.61744E-24
 -1       261 1.52603E-04-3.14978E-06 1.32349E-23
 -1       262 1.52230E-04-5.09498E-06 0.00000E+00
 -1       263 1.51857E-04-5.94805E-06 0.00000E+00
 -1       264 1.51484E-04-5.48047E-06-6.61744E-24
 -1       265 1.51110E-04-3.70465E-06 1.32349E-23
 -1       266 1.51655E-04-9.00541E-07 0.00000E+00
 -1       267 1.46581E-04-9.15484E-07 1.65436E-24
 -1       268 1.41506E-04-9.31292E-07 0.00000E+00
 -1       269 1.36432E-04-9.44534E-07 0.00000E+00
 -1       270 1.31357E-04-9.57717E-07 0.00000E+00
 -1       271 1.53627E-04 3.07640E-06-2.64698E-23
 -1       272 1.50904E-04 5.88149E-06 1.32349E-23
 -1       273 1.48579E-04 7.64068E-06-5.29396E-23
 -1       274 1.46603E-04 8.45061E-06 0.00000E+00
 -1       275 1.44936E-04 8.43478E-06-5.29396E-23
 -1       276 1.43527E-04 7.73029E-06 0.00000E+00
 -1       277 1.42318E-04 6.49024E-06 0.00000E+00
 -1       278 1.41249E-04 4.87797E-06 0.00000E+00
 -1       279 1.40254E-04 3.06519E-06 0.00000E+00
 -1       280 1.39268E-04 1.22764E-06 0.00000E+00
 -1       281 1.38226E-04-4.58543E-07 5.29396E-23
 -1       282 1.37064E-04-1.82006E-06 0.00000E+00
 -1       283 1.35718E-04-2.69114E-06 0.00000E+00
 -1       284 1.34135E-04-2.91388E-06 0.00000E+00
 -1       285 1.32255E-04-2.34874E-06 0.00000E+00
 -1       301 1.46937E-04-7.01246E-07 6.61744E-24
 -1       302 1.43178E-04-7.27339E-07 0.00000E+00
 -1       303 1.39530E-04-7.51917E-07-6.61744E-24
 -1       304 1.36073E-04-7.76676E-07 3.30872E-24
 -1       305 1.32891E-04-8.02715E-07 0.00000E+00
 -1       306 1.48606E-04-1.70359E-06-5.29396E-23
 -1       307 1.49258E-04-1.04548E-05 0.00000E+00
 -1       308 1.52171E-04-2.54141E-05-5.29396E-23
 -1       309 1.56613E-04-4.46904E-05-2.64698E-23
 -1       310 1.61589E-04-6.54740E-05-5.29396E-23
 -1       311 1.66065E-04-8.48537E-05 0.00000E+00
 -1       312 1.69104E-04-1.00215E-04 5.29396E-23
 -1       313 1.69839E-04-1.09225E-04 2.64698E-23
 -1       314 1.67854E-04-1.10889E-04 0.00000E+00
 -1       315 1.62901E-04-1.04711E-04 2.64698E-23
 -1       316 1.55362E-04-9.18338E-05-5.29396E-23
 -1       317 1.45817E-04-7.38423E-05 0.00000E+00
 -1       318 1.35292E-04-5.33795E-05-5.29396E-23
 -1       319 1.24913E-04-3.32414E-05 0.00000E+00
 -1       320 1.15743E-04-1.61728E-05 0.00000E+00
 -1       336 1.45192E-04-2.59190E-06 1.32349E-23
 -1       337 1.39585E-04-2.99867E-06 0.00000E+00
 -1       338 1.33126E-04-3.41024E-06-1.32349E-23
 -1       339 1.25835E-04-3.82668E-06 6.61744E-24
 -1       340 1.17735E-04-4.24915E-06-6.61744E-24
 -1       406 1.06488E-04 6.90448E-07-3.30872E-24
 -1       407 1.06377E-04 7.89031E-07 0.00000E+00
 -1       408 1.06250E-04 8.87553E-07 3.30872E-24
 -1       409 1.06109E-04 9.85894E-07 0.00000E+00
 -1       410 1.05952E-04 1.08386E-06 0.00000E+00
 -1       521 1.33804E-04-2.04378E-05-5.29396E-23
 -1       522 1.51028E-04-8.07298E-05 5.29396E-23
 -1       523 1.77470E-04-1.71807E-04 0.00000E+00
 -1       524 2.08800E-04-2.80933E-04 0.00000E+00
 -1       525 2.40458E-04-3.91286E-04 0.00000E+00
 -1       526 2.67878E-04-4.85932E-04 0.00000E+00
 -1       527 2.86724E-04-5.51508E-04-1.05879E-22
 -1       528 2.92547E-04-5.77321E-04 5.29396E-23
 -1       529 2.82852E-04-5.61330E-04 0.00000E+00
 -1       530 2.56368E-04-5.05053E-04 5.29396E-23
 -1       531 2.15985E-04-4.18231E-04 0.00000E+00
 -1       532 1.66532E-04-3.12805E-04 0.00000E+00
 -1       533 1.15568E-04-2.04338E-04 0.00000E+00
 -1       534 7.09120E-05-1.08573E-04 1.05879E-22
 -1       535 3.84299E-05-3.88270E-05 0.00000E+00
 -1       536 1.08638E-04 7.90469E-06 6.61744E-24
 -1       537 1.08333E-04 2.70622E-05 0.00000E+00
 -1       538 1.07953E-04 5.00154E-05 3.30872E-24
 -1       539 1.07551E-04 7.39604E-05 1.65436E-24
 -1       540 1.07194E-04 9.58329E-05 3.30872E-24
 -1       541 1.06932E-04 1.12580E-04-1.65436E-24
 -1       542 1.06756E-04 1.22463E-04-3.30872E-24
 -1       543 1.06626E-04 1.23781E-04 0.00000E+00
 -1       544 1.06476E-04 1.17000E-04-3.30872E-24
 -1       545 1.06248E-04 1.02631E-04 1.65436E-24
 -1       546 1.05939E-04 8.31128E-05-3.30872E-24
 -1       547 1.05576E-04 6.09150E-05-1.65436E-24
 -1       548 1.05224E-04 3.91967E-05 0.00000E+00
 -1       549 1.04942E-04 2.11158E-05 0.00000E+00
 -1       550 1.04743E-04 8.89643E-06 1.65436E-24
 -1       551 9.73600E-05-4.94591E-06 0.00000E+00
 -1       552 8.37240E-05-5.23915E-06-1.65436E-24
 -1       553 6.86651E-05-5.55063E-06-1.65436E-24
 -1       554 5.29179E-05-5.87407E-06-6.61744E-24
 -1       555 3.72174E-05-6.19963E-06 2.64698E-23
 -1       556 1.05737E-04 3.37292E-06 0.00000E+00
 -1       557 1.03315E-04 9.65206E-06 0.00000E+00
 -1       558 1.01509E-04 1.43190E-05 0.00000E+00
 -1       559 1.00253E-04 1.75413E-05 0.00000E+00
 -1       560 9.94802E-05 1.94862E-05 0.00000E+00
 -1       561 9.91258E-05 2.03221E-05 0.00000E+00
 -1       562 9.91250E-05 2.02177E-05 0.00000E+00
 -1       563 9.94135E-05 1.93417E-05 0.00000E+00
 -1       564 9.99273E-05 1.78634E-05-6.61744E-24
 -1       565 1.00603E-04 1.59519E-05 0.00000E+00
 -1       566 1.01377E-04 1.37767E-05 0.00000E+00
 -1       567 1.02186E-04 1.15071E-05-2.58494E-25
 -1       568 1.02968E-04 9.31259E-06 0.00000E+00
 -1       569 1.03658E-04 7.36231E-06 0.00000E+00
 -1       570 1.04194E-04 5.82559E-06 0.00000E+00
 -1       571 1.04684E-04 4.52642E-06 1.24077E-24
 -1       572 1.04757E-04 4.27835E-06 2.06795E-25
 -1       573 1.04830E-04 3.99312E-06 8.27181E-25
 -1       574 1.04903E-04 3.68007E-06 0.00000E+00
 -1       575 1.04976E-04 3.34857E-06 0.00000E+00
 -1       576 1.05049E-04 3.00803E-06-8.27181E-25
 -1       577 1.05122E-04 2.66791E-06 0.00000E+00
 -1       578 1.05196E-04 2.33763E-06 0.00000E+00
 -1       579 1.05269E-04 2.02665E-06 3.30872E-24
 -1       580 1.05342E-04 1.74440E-06 0.00000E+00
 -1       581 1.05415E-04 1.50033E-06 3.30872E-24
 -1       582 1.05489E-04 1.30387E-06 0.00000E+00
 -1       583 1.05562E-04 1.16444E-06 0.00000E+00
 -1       584 1.05635E-04 1.09136E-06 0.00000E+00
 -1       585 1.05708E-04 1.09390E-06 0.00000E+00
 -1       586 1.04557E-04 4.75322E-06 1.65436E-24
 -1       587 1.04474E-04 4.77742E-06 1.03398E-25
 -1       588 1.04396E-04 4.80135E-06 0.00000E+00
 -1       589 1.04355E-04 4.82487E-06 0.00000E+00
 -1       590 1.04384E-04 4.84769E-06 0.00000E+00
 -1       591 1.04654E-04 4.56918E-06-1.16322E-25
 -1       592 1.04704E-04 4.37725E-06-2.06795E-25
 -1       593 1.04763E-04 4.15928E-06 0.00000E+00
 -1       594 1.04830E-04 3.92112E-06 0.00000E+00
 -1       595 1.04902E-04 3.66873E-06 8.27181E-25
 -1       596 1.04977E-04 3.40800E-06-4.13590E-25
 -1       597 1.05053E-04 3.14483E-06 4.13590E-25
 -1       598 1.05127E-04 2.88512E-06 4.13590E-25
 -1       599 1.05198E-04 2.63474E-06-4.13590E-25
 -1       600 1.05264E-04 2.39960E-06 2.06795E-25
 -1       601 1.05321E-04 2.18558E-06 0.00000E+00
 -1       602 1.05369E-04 1.99857E-06 1.03398E-25
 -1       603 1.05404E-04 1.84448E-06-1.03398E-25
 -1       604 1.05425E-04 1.72925E-06-1.03398E-25
 -1       605 1.05429E-04 1.65874E-06 0.00000E+00
 -1       606 1.05794E-04 1.43186E-06 0.00000E+00
 -1       607 1.05804E-04 1.77896E-06 0.00000E+00
 -1       608 1.05814E-04 2.21626E-06 0.00000E+00
 -1       609 1.05823E-04 2.73741E-06 1.65436E-24
 -1       610 1.05832E-04 3.33604E-06 0.00000E+00
 -1       611 1.05841E-04 4.00568E-06 0.00000E+00
 -1       612 1.05850E-04 4.73985E-06 0.00000E+00
 -1       613 1.05859E-04 5.53211E-06 0.00000E+00
 -1       614 1.05868E-04 6.37595E-06 0.00000E+00
 -1       615 1.05876E-04 7.26490E-06 0.00000E+00
 -1       616 1.05885E-04 8.19249E-06-1.65436E-24
 -1       617 1.05894E-04 9.15225E-06 0.00000E+00
 -1       618 1.05902E-04 1.01377E-05 0.00000E+00
 -1       619 1.05911E-04 1.11423E-05 0.00000E+00
 -1       620 1.05919E-04 1.21597E-05-4.13590E-25
 -1       621 1.05639E-04 1.25718E-06 0.00000E+00
 -1       622 1.05542E-04 1.33411E-06 0.00000E+00
 -1       623 1.05481E-04 1.41103E-06-1.65436E-24
 -1       624 1.05445E-04 1.48781E-06-8.27181E-25
 -1       625 1.05428E-04 1.56446E-06 0.00000E+00
 -1       626 1.05771E-04 1.45726E-06 0.00000E+00
 -1       627 1.05732E-04 1.81225E-06 0.00000E+00
 -1       628 1.05667E-04 2.23795E-06 0.00000E+00
 -1       629 1.05578E-04 2.72630E-06 0.00000E+00
 -1       630 1.05469E-04 3.26925E-06 0.00000E+00
 -1       631 1.05342E-04 3.85868E-06 0.00000E+00
 -1       632 1.05201E-04 4.48647E-06 3.30872E-24
 -1       633 1.05049E-04 5.14453E-06-1.65436E-24
 -1       634 1.04888E-04 5.82474E-06-3.30872E-24
 -1       635 1.04722E-04 6.51898E-06 0.00000E+00
 -1       636 1.04553E-04 7.21916E-06 3.30872E-24
 -1       637 1.04386E-04 7.91716E-06 0.00000E+00
 -1       638 1.04222E-04 8.60486E-06-1.65436E-24
 -1       639 1.04065E-04 9.27416E-06 8.27181E-25
 -1       640 1.03918E-04 9.91692E-06 0.00000E+00
 -1       656 1.05117E-04 1.27508E-05 6.61744E-24
 -1       657 1.04680E-04 1.23010E-05 0.00000E+00
 -1       658 1.04479E-04 1.18526E-05-1.32349E-23
 -1       659 1.04370E-04 1.14045E-05-3.30872E-24
 -1       660 1.04191E-04 1.09550E-05 6.61744E-24
 -1       661 1.05628E-04 1.41782E-05 8.27181E-25
 -1       662 1.05355E-04 1.51139E-05 8.27181E-25
 -1       663 1.05102E-04 1.59925E-05 0.00000E+00
 -1       664 1.04871E-04 1.68173E-05 0.00000E+00
 -1       665 1.04658E-04 1.75910E-05 1.65436E-24
 -1       666 1.04464E-04 1.83164E-05 0.00000E+00
 -1       667 1.04287E-04 1.89963E-05-1.65436E-24
 -1       668 1.04127E-04 1.96331E-05-8.27181E-25
 -1       669 1.03981E-04 2.02293E-05 0.00000E+00
 -1       670 1.03850E-04 2.07872E-05 0.00000E+00
 -1       671 1.03732E-04 2.13092E-05 0.00000E+00
 -1       672 1.03627E-04 2.17973E-05 0.00000E+00
 -1       673 1.03534E-04 2.22536E-05 1.65436E-24
 -1       674 1.03451E-04 2.26800E-05 0.00000E+00
 -1       675 1.03379E-04 2.30787E-05-4.13590E-25
 -1       676 1.04995E-04 2.38671E-05 0.00000E+00
 -1       677 1.04657E-04 2.37831E-05-1.65436E-24
 -1       678 1.04320E-04 2.36991E-05 0.00000E+00
 -1       679 1.03983E-04 2.36154E-05 8.27181E-25
 -1       680 1.03647E-04 2.35317E-05-1.65436E-24
 -1       771 1.65991E-05 5.19959E-06-5.29396E-23
 -1       772 1.17106E-05 1.48282E-05 0.00000E+00
 -1       773 7.59175E-06 2.24555E-05 0.00000E+00
 -1       774 4.19160E-06 2.82029E-05-2.64698E-23
 -1       775 1.45976E-06 3.21952E-05 0.00000E+00
 -1       776-6.56332E-07 3.45629E-05 0.00000E+00
 -1       777-2.20979E-06 3.54398E-05-5.29396E-23
 -1       778-3.25493E-06 3.49643E-05 0.00000E+00
 -1       779-3.84639E-06 3.32774E-05 0.00000E+00
 -1       780-4.03985E-06 3.05240E-05 0.00000E+00
 -1       781-3.89108E-06 2.68513E-05-5.29396E-23
 -1       782-3.45666E-06 2.24091E-05 0.00000E+00
 -1       783-2.79322E-06 1.73489E-05-2.64698E-23
 -1       784-1.95791E-06 1.18242E-05 0.00000E+00
 -1       785-1.00788E-06 5.98939E-06-2.64698E-23
 -1       786 1.04566E-04 4.52975E-06 0.00000E+00
 -1       787 1.04622E-04 4.21679E-06-4.13590E-25
 -1       788 1.04678E-04 3.92494E-06-1.65436E-24
 -1       789 1.04735E-04 3.64990E-06 0.00000E+00
 -1       790 1.04792E-04 3.38957E-06 0.00000E+00
 -1       791 1.04849E-04 3.14186E-06 0.00000E+00
 -1       792 1.04906E-04 2.90637E-06-1.65436E-24
 -1       793 1.04963E-04 2.68272E-06 8.27181E-25
 -1       794 1.05020E-04 2.47206E-06 0.00000E+00
 -1       795 1.05077E-04 2.27562E-06 0.00000E+00
 -1       796 1.05134E-04 2.09645E-06 0.00000E+00
 -1       797 1.05190E-04 1.93766E-06 0.00000E+00
 -1       798 1.05247E-04 1.80504E-06 0.00000E+00
 -1       799 1.05304E-04 1.70444E-06 0.00000E+00
 -1       800 1.05361E-04 1.64591E-06 1.65436E-24
 -1       801 9.72894E-05 4.24577E-06 0.00000E+00
 -1       802 7.49301E-05 3.38485E-06-6.61744E-24
 -1       803 4.61014E-05 2.37597E-06-1.32349E-23
 -1       804 1.96522E-05 1.42228E-06 0.00000E+00
 -1       805 2.16981E-06 6.48787E-07-2.64698E-23
 -1       806 1.04556E-04 4.48046E-06-1.65436E-24
 -1       807 1.04590E-04 4.10553E-06-8.27181E-25
 -1       808 1.04618E-04 3.74769E-06 1.65436E-24
 -1       809 1.04637E-04 3.41041E-06-8.27181E-25
 -1       810 1.04648E-04 3.09714E-06-1.65436E-24
 -1       811 1.04648E-04 2.81125E-06 8.27181E-25
 -1       812 1.04636E-04 2.55612E-06-3.30872E-24
 -1       813 1.04612E-04 2.33509E-06 0.00000E+00
 -1       814 1.04574E-04 2.15154E-06 1.65436E-24
 -1       815 1.04520E-04 2.00881E-06-1.65436E-24
 -1       816 1.04450E-04 1.91024E-06-3.30872E-24
 -1       817 1.04362E-04 1.85918E-06 0.00000E+00
 -1       818 1.04255E-04 1.85898E-06 1.65436E-24
 -1       819 1.04128E-04 1.91296E-06 0.00000E+00
 -1       820 1.03979E-04 2.02443E-06 1.65436E-24
 -1       821 1.05321E-04 1.62389E-06 8.27181E-25
 -1       822 1.05219E-04 1.53839E-06 0.00000E+00
 -1       823 1.05117E-04 1.45148E-06 3.30872E-24
 -1       824 1.05014E-04 1.43153E-06 0.00000E+00
 -1       825 1.04911E-04 1.53271E-06-3.30872E-24
 -1       826 1.04808E-04 1.80862E-06 0.00000E+00
 -1       827 1.04704E-04 2.27582E-06 0.00000E+00
 -1       828 1.04601E-04 2.95000E-06 0.00000E+00
 -1       829 1.04497E-04 3.80296E-06 0.00000E+00
 -1       830 1.04393E-04 4.80570E-06 1.65436E-24
 -1       831 1.04290E-04 5.89748E-06-3.30872E-24
 -1       832 1.04186E-04 7.01712E-06 0.00000E+00
 -1       833 1.04082E-04 8.09753E-06 0.00000E+00
 -1       834 1.03980E-04 9.07184E-06 8.27181E-25
 -1       835 1.03878E-04 9.89556E-06 8.27181E-25
 -1       836 1.05307E-04 1.73232E-06 0.00000E+00
 -1       837 1.05083E-04 1.82712E-06 0.00000E+00
 -1       838 1.04783E-04 1.92176E-06 1.65436E-24
 -1       839 1.04446E-04 2.01578E-06 0.00000E+00
 -1       840 1.04108E-04 2.10966E-06 4.13590E-25
 -1       856 1.03756E-04 1.11163E-05 2.06795E-25
 -1       857 1.03727E-04 1.18188E-05 0.00000E+00
 -1       858 1.03698E-04 1.26149E-05-8.27181E-25
 -1       859 1.03668E-04 1.34872E-05 0.00000E+00
 -1       860 1.03639E-04 1.44179E-05 0.00000E+00
 -1       861 1.03609E-04 1.53895E-05 4.13590E-25
 -1       862 1.03579E-04 1.63841E-05 0.00000E+00
 -1       863 1.03549E-04 1.73840E-05 4.13590E-25
 -1       864 1.03520E-04 1.83714E-05 0.00000E+00
 -1       865 1.03490E-04 1.93286E-05-4.13590E-25
 -1       866 1.03460E-04 2.02379E-05-8.27181E-25
 -1       867 1.03431E-04 2.10815E-05 4.13590E-25
 -1       868 1.03401E-04 2.18420E-05 8.27181E-25
 -1       869 1.03371E-04 2.25018E-05 0.00000E+00
 -1       870 1.03342E-04 2.30435E-05 0.00000E+00
 -1       871 1.03405E-04 1.05238E-05 4.13590E-25
 -1       872 1.03138E-04 1.05205E-05 0.00000E+00
 -1       873 1.02934E-04 1.05167E-05 4.13590E-25
 -1       874 1.02744E-04 1.05123E-05 1.55096E-25
 -1       875 1.02519E-04 1.05075E-05 4.13590E-25
 -1       876 1.03658E-04 1.11262E-05 0.00000E+00
 -1       877 1.03517E-04 1.17815E-05-3.30872E-24
 -1       878 1.03359E-04 1.24844E-05-6.61744E-24
 -1       879 1.03185E-04 1.32287E-05-1.65436E-24
 -1       880 1.02998E-04 1.40084E-05 0.00000E+00
 -1       881 1.02800E-04 1.48174E-05 1.65436E-24
 -1       882 1.02593E-04 1.56496E-05 0.00000E+00
 -1       883 1.02379E-04 1.64990E-05 0.00000E+00
 -1       884 1.02162E-04 1.73594E-05 0.00000E+00
 -1       885 1.01942E-04 1.82250E-05 0.00000E+00
 -1       886 1.01723E-04 1.90895E-05 0.00000E+00
 -1       887 1.01507E-04 1.99471E-05-1.65436E-24
 -1       888 1.01295E-04 2.07915E-05 1.65436E-24
 -1       889 1.01090E-04 2.16166E-05 0.00000E+00
 -1       890 1.00894E-04 2.24164E-05-1.65436E-24
 -1       891 1.02998E-04 2.34052E-05 1.65436E-24
 -1       892 1.02664E-04 2.33605E-05 4.13590E-25
 -1       893 1.02290E-04 2.33158E-05-8.27181E-25
 -1       894 1.01853E-04 2.32711E-05-2.06795E-25
 -1       895 1.01332E-04 2.32266E-05 4.13590E-25
 -1       956 1.03711E-04 2.49377E-06 0.00000E+00
 -1       957 1.03612E-04 2.85387E-06 1.65436E-24
 -1       958 1.03512E-04 3.27017E-06 3.30872E-24
 -1       959 1.03412E-04 3.73545E-06 0.00000E+00
 -1       960 1.03312E-04 4.24250E-06 0.00000E+00
 -1       961 1.03211E-04 4.78406E-06 1.65436E-24
 -1       962 1.03111E-04 5.35286E-06-3.30872E-24
 -1       963 1.03011E-04 5.94166E-06-1.65436E-24
 -1       964 1.02910E-04 6.54317E-06 3.30872E-24
 -1       965 1.02810E-04 7.15013E-06 0.00000E+00
 -1       966 1.02710E-04 7.75526E-06-3.30872E-24
 -1       967 1.02610E-04 8.35131E-06 0.00000E+00
 -1       968 1.02509E-04 8.93099E-06 3.30872E-24
 -1       969 1.02409E-04 9.48707E-06 1.65436E-24
 -1       970 1.02310E-04 1.00123E-05 0.00000E+00
 -1       971 1.02119E-04 1.10049E-05 1.65436E-24
 -1       972 1.02024E-04 1.15921E-05 8.27181E-25
 -1       973 1.01930E-04 1.22523E-05 1.65436E-24
 -1       974 1.01835E-04 1.29761E-05-8.27181E-25
 -1       975 1.01741E-04 1.37540E-05 0.00000E+00
 -1       976 1.01646E-04 1.45766E-05 0.00000E+00
 -1       977 1.01551E-04 1.54346E-05-3.30872E-24
 -1       978 1.01456E-04 1.63183E-05-1.65436E-24
 -1       979 1.01361E-04 1.72184E-05 0.00000E+00
 -1       980 1.01267E-04 1.81255E-05 1.65436E-24
 -1       981 1.01172E-04 1.90300E-05-3.30872E-24
 -1       982 1.01077E-04 1.99224E-05 1.65436E-24
 -1       983 1.00983E-04 2.07934E-05-3.30872E-24
 -1       984 1.00889E-04 2.16335E-05 1.65436E-24
 -1       985 1.00795E-04 2.24332E-05 1.65436E-24
 -3
    1PSTEP                        14           7           1          
  100CL  107 5.38574E-01         409                     0    7           1
 -4  STRESS      6    1
 -5  SXX         1    4    1    1
 -5  SYY         1    4    2    2
 -5  SZZ         1    4    3    3
 -5  SXY         1    4    1    2
 -5  SYZ         1    4    2    3
 -5  SZX         1    4    3    1
 -1         1-2.24622E+06-9.58922E+05-4.74814E+05-1.24083E+06 4.14730E-10-6.54836E-09
 -1         2 2.59912E+03-2.87220E+05 8.48439E+03-8.87561E+02-9.82823E-11-1.44047E-08
 -1         3-2.32575E+02-1.03299E+06 2.47856E+02-5.93972E+02-2.21291E-10 6.13909E-09
 -1         5-2.32268E+00 2.82245E+05 7.29174E+00 9.63503E-02 4.98884E-11 1.09712E-08
 -1         8-1.12120E+06-4.11022E+05-1.13266E+05-5.71645E+05 1.20053E-10 2.04018E-08
 -1         9-2.16731E+06-7.05663E+05-2.69543E+05-6.67454E+05 4.49363E-09 3.65544E-09
 -1        10-9.21581E+02-1.07617E+06-1.47392E+03-4.01939E+03-6.08998E-09-2.12233E-08
 -1        12 6.69245E-01 2.82260E+05 2.36134E+02 7.63325E-01 6.90754E-11 1.65494E-08
 -1        15 2.01990E+03 1.11006E+03 6.52930E+03 4.43247E+00-2.93767E-10-4.01663E-08
 -1        16-2.93927E+06-1.26797E+06-4.79201E+05-1.33841E+06 1.09236E-08-2.61934E-09
 -1        17-1.26838E+06-7.17128E+05-2.44938E+05-6.37411E+05-5.88770E-09 2.58442E-09
 -1        18-4.06455E+04-1.47445E+04-3.19177E+04-7.33631E+04 5.02484E-09-3.26781E-09
 -1        19 8.96093E+04 1.04936E+05-6.30078E+02 1.75299E+04-4.63115E-10 2.08092E-10
 -1        20-4.21315E+04-4.23679E+05-9.37897E+04 2.86913E+04 1.75442E-09 2.26525E-09
 -1        21-3.90129E+01-2.40475E+05-7.71754E+02-5.57158E+01-1.01187E-09-9.72429E-09
 -1        24-3.11734E+06-7.99753E+05-3.57631E+05-1.13361E+06-3.84607E-08-1.90630E-08
 -1        25-4.99718E+04-3.57320E+05-6.50353E+04-1.19998E+05 3.30238E-10 1.48750E-08
 -1        26-2.69938E+04 6.99909E+04-1.57076E+04-7.40043E+03 1.51231E-09 1.73530E-09
 -1        27-6.49489E+04-2.31528E+05-8.64891E+04 5.22450E+04 5.36147E-09-1.85658E-09
 -1        28 1.85516E+04-6.69712E+04 1.36186E+04 2.04091E+04 2.96902E-09 1.20659E-09
 -1        32-1.07563E+06-1.00798E+06 1.85611E+05-5.75035E+05-2.39961E-08 4.53969E-09
 -1        33-1.34075E+05 6.73864E+04 2.39923E+04-3.58252E+04 6.06500E-10 5.89201E-09
 -1        34-1.71472E+05-1.73008E+04 4.28239E+02 5.35898E+04 2.23620E-09-2.11382E-09
 -1        35-1.88869E+04-2.66064E+04-1.04689E+03 4.18917E+04 3.34653E-09-2.81822E-09
 -1        51 2.06797E+04-3.54723E+05 5.07812E+04-9.68212E+05 1.30967E-10 5.57338E-09
 -1        52 1.12790E+04-3.51516E+05 3.19332E+04-1.12917E+06 5.82077E-10 8.03266E-09
 -1        53 7.36301E+03-3.66102E+05 2.49403E+04-9.64798E+05 6.98492E-10 6.17001E-09
 -1        54 2.04666E+04-3.64678E+05 3.73021E+04-1.13271E+06-2.25555E-10 1.78989E-09
 -1        55 4.02738E+04-3.78600E+05 6.49321E+04-9.64230E+05 2.03727E-10 1.72222E-08
 -1        56-4.29580E+06-4.80696E+05-3.49346E+05-1.65895E+06-1.87720E-09 3.25963E-09
 -1        57-4.44464E+06-7.88923E+05-2.35593E+05-1.63588E+06 3.57886E-09-3.90355E-09
 -1        58-4.36634E+06-5.91173E+05-8.21554E+04-1.63653E+06-8.18545E-10 9.72796E-09
 -1        59-4.36313E+06-6.59089E+05-4.90453E+04-1.66232E+06 2.31853E-09 3.29055E-09
 -1        60-4.37642E+06-6.06797E+05-1.91603E+04-1.63375E+06 1.77261E-09-7.22775E-09
 -1        61-4.35346E+06-6.38692E+05-1.08607E+04-1.66307E+06 1.60344E-09-2.31557E-08
 -1        62-4.37578E+06-6.11113E+05-5.18872E+03-1.63588E+06-4.54975E-10-1.17298E-08
 -1        63-4.35778E+06-6.30405E+05-4.14484E+03-1.65641E+06-2.06592E-09-1.46804E-09
 -1        64-4.37196E+06-6.15095E+05-4.66948E+03-1.64036E+06-2.00771E-10-4.94538E-10
 -1        65-4.36752E+06-6.23540E+05-9.20891E+03-1.64615E+06-1.12504E-09-1.88566E-08
 -1        66-4.36600E+06-6.18064E+05-1.61709E+04-1.64607E+06 1.04473E-09 6.12727E-09
 -1        67-4.38648E+06-6.29737E+05-4.10851E+04-1.63310E+06-2.52703E-09 2.72244E-08
 -1        68-4.35319E+06-6.09287E+05-6.88862E+04-1.65332E+06 7.54881E-10-5.36602E-09
 -1        69-4.46050E+06-7.33047E+05-1.97400E+05-1.60492E+06 2.84490E-09 6.22276E-09
 -1        70-4.29290E+06-5.17796E+05-2.92773E+05-1.67332E+06 1.12050E-09 1.88593E-08
 -1        86-1.30733E+03-2.90126E+05 9.03511E+03 4.43764E+02 1.20076E-09-1.02708E-08
 -1        87 8.63513E+03-2.84363E+05 1.89114E+04-1.71487E+03 1.98679E-09 1.50447E-08
 -1        88-7.32022E+03-2.92985E+05 2.89257E+04 1.27108E+03 2.81216E-09 7.84905E-09
 -1        89 5.45143E+04-2.63233E+05 7.79987E+04-3.14656E+03 4.23279E-09-1.35167E-08
 -1        90-4.70197E+04-3.11238E+05 1.10273E+05 1.87590E+03 4.18368E-09 1.28449E-09
 -1       121-3.40851E+02-1.03389E+06 1.26719E+02 2.96342E+02 5.56554E-10-1.85355E-09
 -1       122-1.47652E+02-1.03295E+06 5.27387E+02-1.18683E+03-2.24266E-09-9.03765E-09
 -1       123-3.91670E+02-1.03395E+06 7.39730E+02 8.86652E+02 1.73861E-09-1.22782E-08
 -1       124 8.32423E+02-1.03240E+06 2.17678E+03-2.56097E+03-3.76053E-09-5.74801E-10
 -1       125-1.00499E+03-1.03450E+06 3.22420E+03 1.66815E+03 2.78942E-09 6.24095E-09
 -1       191-2.68183E+00 2.82270E+05 8.86495E+00-4.83756E-02 8.10072E-11 1.52932E-09
 -1       192-2.99117E+00 2.82246E+05 1.54312E+01 4.35729E-01 1.15457E-10 1.93950E-10
 -1       193-4.45986E+00 2.82270E+05 2.88426E+01-3.88873E-01 1.29999E-10-8.63702E-09
 -1       194-5.14272E+00 2.82248E+05 5.83488E+01 1.03990E+00 3.51648E-11-8.32119E-09
 -1       195-7.87694E+00 2.82268E+05 1.14277E+02-6.55843E-01 1.64562E-10-3.81033E-09
 -1       251-1.06023E+06 3.46171E+03-8.34076E+03-8.61679E+03-7.50276E-10 5.17139E-09
 -1       252-1.06239E+06-3.98532E+03-5.61089E+03 9.66069E+03-2.42494E-10-8.41430E-09
 -1       253-1.06214E+06 4.79268E+02-2.30393E+03-3.81444E+03-3.93015E-10-1.50004E-08
 -1       254-1.06020E+06-5.80694E+02-9.93877E+02-1.07005E+03 9.26377E-10-1.14293E-08
 -1       255-1.06237E+06 2.79161E+01-6.72083E+02 2.11388E+03-1.86446E-11-2.24588E-09
 -1       256-1.06051E+06-3.61331E+01-1.08092E+01-1.17343E+04-8.87354E-10 9.48398E-09
 -1       257-1.06189E+06-2.23712E+01-2.02894E+01 6.84974E+03-6.08793E-11 1.05323E-08
 -1       258-1.06134E+06 1.31569E+02 3.48475E+02-1.81540E+04 3.81078E-10-1.52590E-08
 -1       259-1.06163E+06-7.30045E+01 6.66830E+02 8.53407E+03-2.13153E-09-5.01217E-10
 -1       260-1.06105E+06 5.61513E+02 1.62552E+03-1.78152E+04 4.36671E-10-1.70781E-08
 -1       261-1.06217E+06-4.53510E+02 2.67320E+03 6.51107E+03 2.28346E-09 1.18462E-09
 -1       262-1.05877E+06 3.25131E+03 6.98106E+03-1.08547E+04-1.87310E-09 2.63236E-08
 -1       263-1.06381E+06-2.82378E+03 1.06246E+04 1.57330E+03-3.54248E-10 5.43241E-09
 -1       264-1.05016E+06 2.07442E+04 2.97897E+04-4.23943E+01-1.74865E-09-7.84075E-09
 -1       265-1.07071E+06-1.79262E+04 4.15968E+04-4.30119E+03-3.02327E-09-2.18279E-10
 -1       266-3.65655E+04-1.70953E+04 8.58066E+04-9.48537E+01-1.85537E-10-6.15405E-08
 -1       267 4.23908E+04 1.99292E+04 6.06400E+04 1.09426E+02-5.12046E-10-1.31056E-07
 -1       268-5.68446E+03-2.82229E+03 2.25400E+04-1.39437E+01-4.91127E-10-1.06957E-07
 -1       269 6.71177E+03 3.37796E+03 1.46503E+04 1.62414E+01-3.95630E-10-6.66079E-08
 -1       270-1.00743E+03-5.55003E+02 7.07191E+03-2.20411E+00-3.33330E-10-4.80673E-08
 -1       271-3.60101E+06-4.45238E+05-2.76832E+05-1.40301E+06-2.68119E-09-1.01281E-08
 -1       272-3.70088E+06-6.54746E+05-1.79142E+05-1.40017E+06 1.14130E-09 1.57706E-09
 -1       273-3.65548E+06-5.15128E+05-6.53942E+04-1.38778E+06 1.74282E-09 5.53700E-09
 -1       274-3.63609E+06-5.71102E+05-3.68458E+04-1.42340E+06-1.87492E-09-5.99357E-10
 -1       275-3.66500E+06-5.20655E+05-1.52404E+04-1.38308E+06-5.37511E-10 1.04865E-09
 -1       276-3.62409E+06-5.65495E+05-8.11586E+03-1.43122E+06 1.94404E-09-3.04590E-09
 -1       277-3.66788E+06-5.19539E+05-3.97655E+03-1.38066E+06 1.54296E-09-3.67027E-09
 -1       278-3.62075E+06-5.67081E+05-2.89222E+03-1.43480E+06-1.18939E-09 5.07569E-10
 -1       279-3.66868E+06-5.18765E+05-3.09684E+03-1.37978E+06-2.84467E-09-1.16188E-08
 -1       280-3.62112E+06-5.67977E+05-5.73278E+03-1.43495E+06 2.95631E-09 4.91946E-09
 -1       281-3.66754E+06-5.18673E+05-1.03920E+04-1.38051E+06-5.13182E-10 4.47380E-09
 -1       282-3.62825E+06-5.72847E+05-2.50807E+04-1.43093E+06 2.36651E-09-5.87170E-09
 -1       283-3.66136E+06-5.14661E+05-4.43734E+04-1.38340E+06 1.78966E-09-3.26145E-09
 -1       284-3.67206E+06-6.29671E+05-1.21628E+05-1.41505E+06 1.92995E-09-2.70848E-09
 -1       285-3.62414E+06-4.67550E+05-1.87987E+05-1.39405E+06 1.70257E-09-4.65661E-09
 -1       301 2.11053E+04-5.24664E+04 1.55764E+05-9.76916E+04-6.62112E-10 8.98126E-10
 -1       302 2.22252E+04-1.30564E+04 1.03776E+05-1.43666E+05 1.37243E-09 2.02476E-08
 -1       303 1.15465E+03-3.71268E+04 8.21300E+04-9.77931E+04-6.70298E-10 4.02360E-09
 -1       304 2.81421E+04-7.02017E+03 1.23640E+05-1.43218E+05 1.00408E-09 7.30597E-09
 -1       305 2.72184E+04-5.75678E+04 1.99684E+05-9.81742E+04-6.47560E-10 5.99357E-09
 -1       306-5.65540E+06-6.15017E+05-4.27648E+05-2.14129E+06-4.98403E-10-1.08266E-08
 -1       307-5.63632E+06-1.13680E+06-2.79900E+05-2.26686E+06-1.83932E-08-2.75031E-09
 -1       308-5.80280E+06-6.71351E+05-1.00430E+05-2.01620E+06-2.32535E-09 1.16343E-08
 -1       309-5.47367E+06-1.07028E+06-5.84538E+04-2.42886E+06 9.87413E-09-3.91901E-09
 -1       310-5.82792E+06-6.71182E+05-2.26670E+04-1.98782E+06 4.07454E-09 2.61571E-09
 -1       311-5.47844E+06-1.01438E+06-1.00629E+04-2.38933E+06 1.98479E-08 1.12091E-08
 -1       312-5.79365E+06-7.29977E+05-1.13220E+04-2.05277E+06 4.94038E-09-2.66664E-09
 -1       313-5.58846E+06-8.65386E+05 2.82004E+03-2.20250E+06-6.61475E-09 1.61599E-08
 -1       314-5.70653E+06-8.28339E+05-1.48780E+04-2.16618E+06 5.38785E-09-2.20734E-09
 -1       315-5.78406E+06-6.83310E+05-7.70783E+03-1.99463E+06-1.08384E-08 3.03771E-09
 -1       316-5.60081E+06-9.10012E+05-2.93253E+04-2.26238E+06-2.01981E-08-1.14378E-08
 -1       317-5.96004E+06-5.87347E+05-6.68306E+04-1.86964E+06 1.93115E-08-2.39979E-08
 -1       318-5.54233E+06-9.16413E+05-1.12645E+05-2.30004E+06-2.12749E-08 8.84029E-09
 -1       319-6.06041E+06-7.85112E+05-3.26869E+05-1.84221E+06-9.90985E-09 1.29221E-08
 -1       320-5.50068E+06-7.15775E+05-4.86550E+05-2.28830E+06 1.66183E-08 6.22822E-09
 -1       336 5.61760E+02-1.11924E+06-6.29217E+03 2.34066E+03-1.10185E-08-9.51331E-09
 -1       337-2.32362E+03-1.12040E+06-6.96161E+03-5.77681E+03-2.02392E-08 4.22642E-09
 -1       338 3.76912E+02-1.11938E+06-9.15389E+03 3.41621E+03-1.44373E-08 1.65674E-08
 -1       339-9.45876E+03-1.12499E+06-2.00076E+04-7.88244E+03-2.59779E-08 1.22900E-08
 -1       340 6.27542E+03-1.11491E+06-3.10283E+04 4.42838E+03-1.74459E-08 1.41608E-08
 -1       406 1.88497E+01 2.82257E+05 4.66335E+02-1.14544E-01 2.55255E-10-2.29647E-09
 -1       407 1.63190E+02 2.82342E+05 9.90791E+02-4.14342E+00 3.77440E-11-3.15758E-08
 -1       408 5.10786E+02 2.82186E+05 1.97899E+03 4.35862E+00 2.76032E-10-1.66415E-08
 -1       409 2.14017E+03 2.82974E+05 4.45491E+03-4.28959E+01-9.07221E-11-3.45813E-09
 -1       410 6.14788E+03 2.81623E+05 9.09463E+03 4.03659E+01 3.31966E-10-4.85238E-09
 -1       521-8.14823E+06-7.90078E+05-7.79561E+05-2.56123E+06-9.50968E-09 1.55997E-08
 -1       522-5.72210E+06-2.08708E+06-2.07622E+05-3.92469E+06-8.30987E-08-2.39343E-08
 -1       523-8.16243E+06-3.50833E+05-1.54673E+05-1.82086E+06-7.22503E-09-5.29981E-08
 -1       524-6.06269E+06-2.26336E+06-3.69367E+04-4.91096E+06 8.87195E-08-9.57812E-08
 -1       525-8.16201E+06-3.48664E+05-4.20595E+04-1.78768E+06 7.79182E-08-6.89306E-08
 -1       526-5.63691E+06-1.93477E+06 1.27356E+05-4.08063E+06 1.66619E-08-6.33008E-09
 -1       527-8.27011E+06-9.13173E+05-2.06745E+05-2.46398E+06-6.49015E-09 7.72707E-09
 -1       528-5.82156E+06-9.09945E+05 2.60184E+05-2.33975E+06-2.76486E-09-7.60338E-10
 -1       529-7.64774E+06-1.60510E+06-2.25948E+05-3.25531E+06 7.82893E-09 1.11395E-08
 -1       530-7.77078E+06 3.61589E+05 1.51941E+05-1.35822E+06-7.22357E-08 1.97469E-08
 -1       531-6.62029E+06-1.96424E+06-6.11904E+04-3.62800E+06-9.50604E-08-6.64295E-09
 -1       532-9.26312E+06 9.47682E+05-3.19539E+04-1.25714E+06 9.61063E-08-9.98780E-08
 -1       533-6.47856E+06-1.97048E+06-1.29593E+05-3.65704E+06 3.81551E-08-1.50629E-07
 -1       534-8.31426E+06 3.62881E+05-2.12848E+05-1.26681E+06-4.24479E-08 1.12815E-07
 -1       535-7.33876E+06-1.54026E+06-7.30965E+05-3.39528E+06-1.58907E-08 7.09988E-08
 -1       536-3.88963E+05-1.89150E+04 3.32618E+04-1.32084E+04-2.67369E-09 2.36760E-08
 -1       537-3.31368E+05 2.13272E+04 3.10999E+04 3.16246E+04-3.73366E-08 3.15754E-08
 -1       538-3.60895E+05-1.93765E+03 9.97316E+03-1.92724E+04 6.94465E-09 2.72748E-08
 -1       539-3.48027E+05 3.24876E+03 8.22103E+03 3.44382E+04 4.01921E-08 3.55986E-08
 -1       540-3.72227E+05-3.55708E+02 1.54317E+02-1.60237E+04-1.85196E-10 2.68160E-08
 -1       541-3.12598E+05 2.10475E+03 1.08572E+04 1.96516E+04-2.83535E-10 3.02499E-08
 -1       542-3.95498E+05-1.71690E+03-6.67061E+03-4.46913E+03 5.03428E-09 1.70940E-08
 -1       543-2.97058E+05 2.16639E+03 1.26471E+04-5.94053E+03 2.75372E-09 2.66643E-09
 -1       544-3.87683E+05-1.08926E+03-6.06429E+03 9.54528E+03-7.57427E-09-1.70849E-08
 -1       545-3.30842E+05 1.81783E+02 4.37103E+03-2.84225E+04-1.20456E-08-2.47605E-08
 -1       546-3.62403E+05 1.17733E+03-3.01801E+03 1.80051E+04-1.31740E-09-2.25930E-08
 -1       547-3.54388E+05-3.11567E+03-5.21570E+03-3.61260E+04-3.65123E-08-2.89488E-08
 -1       548-3.64339E+05 3.07811E+03-1.16174E+04 1.72568E+04-3.54431E-08-2.70825E-08
 -1       549-3.32354E+05-1.71236E+04-2.10477E+04-2.55535E+04-1.92822E-08-7.48423E-09
 -1       550-3.83923E+05 1.42991E+04-4.77624E+04 7.41976E+03 7.85803E-10-4.80213E-09
 -1       551 1.71519E+04-5.78412E+05 2.43596E+04-9.62935E+05-4.71846E-08-8.23638E-09
 -1       552 3.89531E+04-5.89921E+05 3.17857E+04-1.37151E+06-3.61179E-08 1.62981E-08
 -1       553 2.77544E+04-5.95872E+05 4.65767E+04-9.59315E+05-5.80985E-08 1.42245E-08
 -1       554 6.55528E+04-5.85571E+05 9.75982E+04-1.37295E+06-3.57250E-08 8.41146E-09
 -1       555 5.59246E+04-6.14506E+05 1.73371E+05-9.60261E+05-5.76401E-08-7.11225E-09
 -1       556 1.00071E+05-1.85373E+05 6.19794E+04-2.34398E+05-9.96806E-09-2.77942E-09
 -1       557 1.75338E+05-2.46216E+05 3.28050E+04-2.94715E+05-2.08820E-09-8.78572E-10
 -1       558 9.82815E+04-1.92787E+05 1.28800E+04-2.28110E+05-5.55883E-09-4.45289E-09
 -1       559 1.63193E+05-2.54125E+05 6.65903E+03-3.00603E+05 1.23910E-08-1.09812E-08
 -1       560 9.47742E+04-1.90512E+05 2.53150E+03-2.30439E+05 4.04543E-09 4.40377E-09
 -1       561 1.58150E+05-2.52564E+05 1.43511E+03-3.03833E+05-2.99769E-09 1.38971E-09
 -1       562 9.19865E+04-1.88695E+05 4.36006E+02-2.32442E+05-1.60071E-09-5.20959E-09
 -1       563 1.54876E+05-2.51147E+05 3.51269E+02-3.05932E+05 3.54339E-09 4.55088E-09
 -1       564 9.01752E+04-1.87542E+05 9.61946E+01-2.33724E+05 6.67205E-09 4.66571E-10
 -1       565 1.53033E+05-2.50350E+05 1.13031E+02-3.07097E+05 2.69938E-09 1.36788E-09
 -1       566 8.93878E+04-1.87033E+05 1.60624E+01-2.34282E+05 1.23691E-10-2.23190E-09
 -1       567 1.52578E+05-2.50139E+05-5.91948E+01-3.07305E+05 1.36566E-08 1.16233E-09
 -1       568 8.96644E+04-1.87218E+05-2.95066E+02-2.34166E+05 2.43745E-10-9.09495E-10
 -1       569 1.52740E+05-2.50019E+05-7.09326E+02-3.05838E+05-6.39739E-09 5.79894E-09
 -1       570 9.16431E+04-1.88867E+05-1.66326E+03-2.33955E+05 1.93540E-09-3.03680E-09
 -1       571 2.08984E+05 7.69750E+03 1.13656E+04-5.41820E+04 2.84354E-09 1.31599E-08
 -1       572 2.10670E+05 2.69939E+03 5.56863E+03-5.94109E+04 3.44062E-09 7.29278E-09
 -1       573 2.09659E+05 6.65576E+02 2.47392E+03-5.40508E+04 3.53202E-09 1.20003E-08
 -1       574 2.09855E+05 2.40625E+02 1.23968E+03-5.95597E+04 1.23350E-09-9.57698E-10
 -1       575 2.09733E+05 5.91709E+01 5.84467E+02-5.40335E+04-7.92397E-10-3.71574E-09
 -1       576 2.09745E+05 4.16609E+01 2.97918E+02-5.95795E+04-2.04004E-09-7.63794E-09
 -1       577 2.09747E+05 2.52504E+01 1.47387E+02-5.40312E+04-3.60978E-09 7.38100E-09
 -1       578 2.09738E+05 2.92107E+01 8.17349E+01-5.95820E+04-5.14228E-09 1.05092E-09
 -1       579 2.09765E+05 1.96934E+01 5.22056E+01-5.40311E+04-2.16005E-09 3.90673E-09
 -1       580 2.09763E+05 1.86510E+01 5.27463E+01-5.95788E+04-2.94676E-10 1.34469E-09
 -1       581 2.09795E+05 7.49525E+00 7.54155E+01-5.40343E+04 1.91721E-09 5.02041E-10
 -1       582 2.09816E+05 2.00535E+01 1.47217E+02-5.95457E+04 1.27329E-11 1.77852E-09
 -1       583 2.09830E+05 5.21578E+01 2.83657E+02-5.40642E+04 1.21872E-09-1.28784E-09
 -1       584 2.09965E+05 2.75058E+02 6.37473E+02-5.92952E+04 1.04046E-09 3.34285E-09
 -1       585 2.09803E+05 8.34205E+02 1.29449E+03-5.42852E+04-5.75710E-10 6.04632E-09
 -1       586-2.49020E+03 6.90021E+04-3.14627E+03-1.86277E+05-6.07542E-10-4.99097E-09
 -1       587-5.50338E+02 6.85993E+04-1.57669E+02-2.05013E+05 3.67436E-10-4.62330E-09
 -1       588 7.22421E+02 6.86522E+04 2.70972E+03-1.86178E+05 1.90994E-10-7.76527E-09
 -1       589 3.77490E+03 7.01219E+04 7.62509E+03-2.04816E+05-8.18545E-10-2.13913E-08
 -1       590 1.09929E+04 6.77878E+04 1.62295E+04-1.86482E+05-6.09361E-10-9.99535E-10
 -1       591-4.44788E+04-1.21059E+04-1.48719E+04-2.22197E+04 1.29830E-09-3.44244E-09
 -1       592-4.61717E+04-1.54588E+04-8.05536E+03-2.57572E+04 5.43423E-10-6.36874E-09
 -1       593-4.59781E+04-1.10146E+04-3.35342E+03-2.32984E+04 3.51463E-09-5.85032E-09
 -1       594-4.41041E+04-1.32921E+04-1.67251E+03-2.58543E+04 1.12848E-08 7.70075E-09
 -1       595-4.60929E+04-1.10099E+04-7.68479E+02-2.33478E+04 2.99883E-09-8.04652E-09
 -1       596-4.39638E+04-1.31929E+04-3.91542E+02-2.58393E+04 1.12715E-09 6.29598E-09
 -1       597-4.61074E+04-1.10196E+04-2.15110E+02-2.33498E+04-3.02182E-09-4.87137E-09
 -1       598-4.39502E+04-1.31891E+04-1.76418E+02-2.58350E+04-5.24790E-09 3.65526E-09
 -1       599-4.61063E+04-1.10197E+04-2.29723E+02-2.33494E+04-4.98346E-09-9.39167E-09
 -1       600-4.39649E+04-1.31941E+04-4.30243E+02-2.58385E+04 2.51111E-09-6.33463E-10
 -1       601-4.60882E+04-1.10096E+04-8.50616E+02-2.33464E+04-3.40833E-10-3.74075E-09
 -1       602-4.41201E+04-1.33039E+04-1.85477E+03-2.58529E+04 1.02102E-09-4.21664E-09
 -1       603-4.59591E+04-1.10168E+04-3.72012E+03-2.32919E+04-1.00863E-09 3.06636E-09
 -1       604-4.64228E+04-1.56973E+04-8.93627E+03-2.57318E+04-3.49746E-09-3.21415E-09
 -1       605-4.42843E+04-1.22365E+04-1.64981E+04-2.21052E+04 5.87875E-10-9.59517E-10
 -1       606 2.76124E+04-1.00434E+04-1.80676E+04 2.67924E+04-3.95630E-10-2.02635E-09
 -1       607 2.45191E+04-3.24749E+03-8.99666E+03 3.00786E+04 2.40470E-09-2.73758E-09
 -1       608 2.62728E+04-5.55170E+02-4.02894E+03 2.65807E+04 5.00404E-09-2.17779E-09
 -1       609 2.59242E+04-1.51740E+02-2.03485E+03 3.03145E+04-3.68891E-09-1.80921E-09
 -1       610 2.61096E+04 1.76366E+01-9.72017E+02 2.65569E+04-6.29552E-09-3.90264E-09
 -1       611 2.60443E+04 3.03463E+01-4.90123E+02 3.03402E+04-9.29685E-09-4.14343E-09
 -1       612 2.60655E+04 3.41779E+01-2.34361E+02 2.65545E+04 4.62751E-09 5.65706E-10
 -1       613 2.60411E+04 3.96268E+01-1.06330E+02 3.03432E+04 1.68257E-08-3.51406E-09
 -1       614 2.60411E+04 3.53190E+01-2.86841E+01 2.65537E+04 1.62481E-08 2.40857E-09
 -1       615 2.60282E+04 4.56717E+01 3.58592E+01 3.03437E+04 1.21304E-08 5.55110E-09
 -1       616 2.60226E+04 4.16168E+01 1.15484E+02 2.65540E+04 2.00848E-08-2.06001E-10
 -1       617 2.60353E+04 7.45106E+01 2.66807E+02 3.03431E+04 3.65790E-08-8.23297E-09
 -1       618 2.59943E+04 1.21778E+02 5.38885E+02 2.65541E+04 3.26313E-08 5.41627E-09
 -1       619 2.62214E+04 4.93859E+02 1.21094E+03 3.03423E+04 3.63964E-08 2.85172E-09
 -1       620 2.58127E+04 1.40215E+03 2.43410E+03 2.65530E+04 2.31693E-08 3.61160E-09
 -1       621 3.00841E+02 2.20304E+05 2.69259E+03 1.12403E+04-2.26237E-10 4.21778E-10
 -1       622 3.54560E+02 2.20967E+05 2.39108E+03 1.63799E+04-2.55113E-10-1.38907E-08
 -1       623 1.73283E+01 2.20477E+05 2.88731E+03 1.11869E+04-1.29631E-10-7.30984E-09
 -1       624 1.34625E+03 2.21870E+05 5.60291E+03 1.64335E+04-1.45064E-10-8.45102E-09
 -1       625 1.35316E+03 2.19385E+05 9.79695E+03 1.11865E+04-8.36735E-11-7.36924E-09
 -1       626 1.88119E+05 5.07600E+04 3.92145E+03 9.97605E+04 5.96174E-10 3.54703E-10
 -1       627 1.85736E+05 5.24367E+04 1.88972E+03 1.03711E+05-1.47611E-09 5.42332E-09
 -1       628 1.88250E+05 4.89232E+04 7.98227E+02 1.00373E+05 2.41016E-10-3.96085E-09
 -1       629 1.85189E+05 5.19703E+04 3.91093E+02 1.03945E+05 3.06954E-09 5.61147E-09
 -1       630 1.88257E+05 4.88370E+04 1.80707E+02 1.00390E+05 7.79437E-10-3.82801E-09
 -1       631 1.85123E+05 5.19585E+04 9.68764E+01 1.03946E+05-3.15185E-09 1.34933E-08
 -1       632 1.88248E+05 4.88440E+04 6.31301E+01 1.00382E+05-1.39653E-09 6.86987E-09
 -1       633 1.85109E+05 5.19638E+04 6.94300E+01 1.03938E+05-4.98289E-09-1.51879E-08
 -1       634 1.88237E+05 4.88450E+04 1.11329E+02 1.00377E+05 3.61933E-09-8.74911E-09
 -1       635 1.85114E+05 5.19653E+04 2.25023E+02 1.03938E+05 4.59363E-09-5.47288E-10
 -1       636 1.88226E+05 4.88438E+04 4.54136E+02 1.00374E+05 1.20906E-10 3.69550E-09
 -1       637 1.85208E+05 5.20373E+04 9.97979E+02 1.03934E+05 2.92926E-09 8.61519E-09
 -1       638 1.88187E+05 4.90658E+04 2.05079E+03 1.00272E+05-5.29326E-10-4.50609E-09
 -1       639 1.86282E+05 5.35363E+04 4.85159E+03 1.03615E+05-4.34579E-09 5.38967E-09
 -1       640 1.88044E+05 5.35325E+04 1.00681E+04 9.83783E+04-1.90403E-09 5.81713E-09
 -1       656 5.02651E+04-1.27485E+06-1.21339E+05-4.30966E+02-1.14233E-09-1.08901E-08
 -1       657-6.64386E+04-1.32962E+06-1.00386E+05 7.57505E+03 1.09139E-10-1.59297E-08
 -1       658 1.59588E+04-1.29045E+06-6.16525E+04-1.76665E+03 8.93806E-10-1.21285E-08
 -1       659-7.13744E+04-1.33196E+06-1.06869E+05 8.50335E+03-5.42059E-10 9.81136E-09
 -1       660 5.51895E+04-1.27251E+06-1.32488E+05-1.35925E+03-6.91216E-10-1.76189E-09
 -1       661 1.68183E+05 1.82330E+04 1.63591E+04 6.57585E+04 2.89674E-10-7.33507E-09
 -1       662 1.76840E+05 3.09295E+04 1.10235E+04 6.27609E+04-1.59378E-09-6.20230E-09
 -1       663 1.71392E+05 2.34845E+04 3.85602E+03 6.48305E+04 2.70575E-10-8.96125E-09
 -1       664 1.73125E+05 2.47838E+04 2.30563E+03 6.38907E+04 3.55203E-09-3.21666E-09
 -1       665 1.71874E+05 2.42060E+04 9.09504E+02 6.46939E+04-3.57051E-09 2.52879E-09
 -1       666 1.72558E+05 2.39553E+04 5.30721E+02 6.40667E+04-6.51572E-09-2.65999E-10
 -1       667 1.71956E+05 2.42913E+04 2.80168E+02 6.46626E+04-2.26794E-09-9.42403E-09
 -1       668 1.72470E+05 2.38896E+04 2.81533E+02 6.41121E+04 1.99032E-09-1.36496E-08
 -1       669 1.71962E+05 2.42698E+04 3.77902E+02 6.46492E+04 2.01808E-09 3.32591E-09
 -1       670 1.72564E+05 2.40912E+04 8.19870E+02 6.41129E+04 3.13159E-09-5.17387E-09
 -1       671 1.71862E+05 2.40937E+04 1.45471E+03 6.46601E+04-3.45591E-09 3.99552E-09
 -1       672 1.73411E+05 2.55063E+04 3.72104E+03 6.39082E+04-1.90750E-09 8.47393E-09
 -1       673 1.71119E+05 2.28902E+04 6.23556E+03 6.48403E+04-2.25964E-09-9.24479E-09
 -1       674 1.79348E+05 3.55225E+04 1.78323E+04 6.21627E+04-3.80169E-10-5.45492E-09
 -1       675 1.65964E+05 1.43576E+04 2.64689E+04 6.63000E+04 2.30557E-10 6.01904E-09
 -1       676 2.00327E+01-2.40411E+05-9.30164E+02 2.78586E+01 3.32903E-10-9.08750E-09
 -1       677-2.46964E+02-2.40635E+05-1.70232E+03-5.56854E+01-1.80125E-09-1.20776E-08
 -1       678 1.64901E+02-2.40250E+05-3.00926E+03 2.78078E+01-1.64619E-10-6.28556E-09
 -1       679-3.01002E+03-2.42452E+05-7.14855E+03-5.54905E+01-1.57513E-09-7.25028E-09
 -1       680 1.79641E+03-2.38595E+05-1.15211E+04 2.73471E+01 9.92713E-10-1.14828E-08
 -1       771-2.56317E+06-4.89877E+05-7.13406E+04-1.10736E+06-1.45737E-08-1.33878E-08
 -1       772-2.53446E+06-5.33972E+05-3.77728E+04-1.15720E+06-9.37143E-09 6.17729E-09
 -1       773-2.57472E+06-4.80774E+05-1.72446E+04-1.11151E+06-5.15138E-09 5.58066E-09
 -1       774-2.52564E+06-5.26295E+05-8.13829E+03-1.16449E+06 1.18816E-08-1.02227E-09
 -1       775-2.57882E+06-4.77909E+05-4.77785E+03-1.11239E+06-8.87667E-10 7.85803E-10
 -1       776-2.52689E+06-5.26256E+05-2.01845E+03-1.16920E+06-1.44064E-09 2.13186E-09
 -1       777-2.58205E+06-4.75524E+05-1.67630E+03-1.11311E+06 2.91038E-11 1.82990E-09
 -1       778-2.52863E+06-5.26377E+05-5.84912E+02-1.17317E+06-3.33239E-09 4.98312E-09
 -1       779-2.58472E+06-4.73493E+05-7.61579E+02-1.11375E+06-6.86123E-09-3.17414E-09
 -1       780-2.53021E+06-5.26443E+05-2.77202E+02-1.17639E+06-5.23869E-09-3.18323E-10
 -1       781-2.58679E+06-4.71879E+05-5.22404E+02-1.11424E+06-1.11468E-08-5.20231E-10
 -1       782-2.53146E+06-5.26485E+05-5.25633E+02-1.17875E+06-1.73095E-08-3.40924E-09
 -1       783-2.58818E+06-4.70791E+05-1.07909E+03-1.11458E+06-6.93399E-09-5.50199E-09
 -1       784-2.53283E+06-5.27112E+05-2.36635E+03-1.18016E+06-1.10813E-08 7.68023E-09
 -1       785-2.58846E+06-4.70555E+05-4.41492E+03-1.11444E+06-2.07801E-08 4.35011E-09
 -1       786 1.58720E+05-9.44543E+03 2.18521E+04-7.30273E+01 1.40375E-09 6.51471E-09
 -1       787 1.68191E+05 1.09349E+04 1.54598E+04 1.77623E+01 2.18915E-09 6.24846E-09
 -1       788 1.62374E+05-1.48065E+03 5.65533E+03-5.53244E+01 1.45646E-09 2.93562E-09
 -1       789 1.63935E+05 1.71314E+03 3.55250E+03-1.13240E+01-4.67453E-10 9.92935E-09
 -1       790 1.62977E+05-2.31208E+02 1.44372E+03-4.39434E+01-4.36760E-10 2.64737E-09
 -1       791 1.63231E+05 2.68125E+02 8.44183E+02-3.20119E+01-5.52627E-10 1.63038E-09
 -1       792 1.63078E+05-3.67221E+01 3.78447E+02-3.46366E+01-5.27880E-10 1.12190E-09
 -1       793 1.63116E+05 4.82732E+01 2.34073E+02-5.12064E+01 2.70981E-10 5.96430E-11
 -1       794 1.63093E+05-1.14992E+01 1.52107E+02-2.47485E+01 7.07809E-10 2.17922E-09
 -1       795 1.63115E+05 5.12414E+01 1.89261E+02-7.42239E+01-3.30297E-10 8.76514E-09
 -1       796 1.63079E+05-3.96853E+01 2.64890E+02-1.16187E+01 6.82725E-11-7.79752E-09
 -1       797 1.63230E+05 2.89097E+02 6.09196E+02-1.07228E+02-1.12537E-10-1.09337E-08
 -1       798 1.62978E+05-2.49182E+02 9.56607E+02 8.25632E+00 1.23883E-10 6.39761E-09
 -1       799 1.63946E+05 1.83965E+03 2.60351E+03-1.59157E+02 3.88023E-11-7.54881E-09
 -1       800 1.62362E+05-1.58900E+03 3.67625E+03 4.03110E+01 5.08837E-11 2.81716E-10
 -1       801 5.01279E+04-1.83911E+06-1.66135E+05 3.38552E+04 1.50103E-08 4.70072E-09
 -1       802-5.56242E+04-1.67636E+06-6.39528E+04-6.21212E+04 4.06872E-08-5.19867E-09
 -1       803 4.88137E+03-1.75226E+06-8.59671E+03 8.58967E+04 3.15667E-08 2.76331E-08
 -1       804 5.34234E+04-1.62196E+06 7.96687E+04-4.28748E+04 3.46408E-08 3.05336E-08
 -1       805-5.96263E+04-1.89289E+06 7.94336E+04 1.46007E+04 1.28639E-08 2.18386E-08
 -1       806-2.28797E+05-4.60349E+04-1.80697E+04-9.22252E+04-2.21144E-09-1.88675E-09
 -1       807-2.30131E+05-4.31753E+04-8.87738E+03-9.67046E+04 6.38101E-09 1.86941E-09
 -1       808-2.29294E+05-3.95226E+04-3.76588E+03-9.53060E+04-3.89991E-09 1.23054E-08
 -1       809-2.28254E+05-4.06926E+04-1.84123E+03-9.69382E+04-2.21025E-08 5.28917E-09
 -1       810-2.29371E+05-3.92944E+04-8.43377E+02-9.54424E+04-6.61203E-09-7.96331E-09
 -1       811-2.28109E+05-4.05934E+04-4.18734E+02-9.69133E+04 9.96124E-10-2.10293E-08
 -1       812-2.29384E+05-3.93126E+04-2.10058E+02-9.54421E+04-1.22054E-09-1.34009E-08
 -1       813-2.28090E+05-4.05954E+04-1.34078E+02-9.69006E+04 4.03998E-09-3.71301E-09
 -1       814-2.29380E+05-3.93193E+04-1.28558E+02-9.54392E+04 6.78938E-10 3.58909E-09
 -1       815-2.28093E+05-4.05973E+04-2.03673E+02-9.68966E+04-5.75665E-09 5.69639E-09
 -1       816-2.29367E+05-3.93179E+04-3.83393E+02-9.54367E+04 6.02085E-10-2.37696E-09
 -1       817-2.28159E+05-4.06339E+04-8.22386E+02-9.68894E+04 1.72586E-08 8.77844E-09
 -1       818-2.29318E+05-3.94332E+04-1.67653E+03-9.53821E+04 7.14954E-09-5.24415E-09
 -1       819-2.29080E+05-4.16442E+04-3.94549E+03-9.66705E+04-1.38971E-09-9.68885E-09
 -1       820-2.29004E+05-4.24119E+04-8.02999E+03-9.41064E+04 1.04501E-09 1.49475E-09
 -1       821-2.88227E+05 1.59435E+04-3.68720E+04 2.41317E+02 1.00512E-09-8.78572E-10
 -1       822-3.04203E+05-1.84573E+04-2.60920E+04-9.22567E+02-1.28795E-09 2.62935E-09
 -1       823-2.94391E+05 2.49987E+03-9.54968E+03 2.44556E+02-3.62754E-10 1.42654E-09
 -1       824-2.97007E+05-2.89316E+03-6.00775E+03-7.59020E+02-1.37812E-10-4.15548E-09
 -1       825-2.95420E+05 3.91063E+02-2.47132E+03 7.77686E+01-1.16207E-09-2.41209E-09
 -1       826-2.95805E+05-4.60913E+02-1.48775E+03-3.29149E+02-3.55735E-09 5.62295E-10
 -1       827-2.95592E+05 6.89814E+01-7.75318E+02-1.85323E+02-2.30204E-09-2.99497E-09
 -1       828-2.95644E+05-1.40669E+02-6.81043E+02 1.79897E+02-5.06986E-09-4.06005E-09
 -1       829-2.95580E+05 7.11192E+01-7.89008E+02-4.31286E+02-7.36094E-10-7.20178E-10
 -1       830-2.95839E+05-4.76151E+02-1.53846E+03 5.48428E+02 1.67268E-09 1.71399E-08
 -1       831-2.95397E+05 4.04677E+02-2.55035E+03-5.53862E+02-2.29220E-09 9.13724E-09
 -1       832-2.97069E+05-2.99133E+03-6.21494E+03 6.17828E+02-1.34560E-09-2.51828E-09
 -1       833-2.94352E+05 2.58460E+03-9.87740E+03-5.00686E+02-1.27296E-09-7.18410E-09
 -1       834-3.04479E+05-1.90880E+04-2.69828E+04 3.58673E+02-1.42127E-09-3.33557E-09
 -1       835-2.87989E+05 1.64885E+04-3.81403E+04-2.94694E+02 5.46007E-09-2.25191E-09
 -1       836-9.69185E+02 2.71465E+05 1.64247E+04-2.00249E+04 6.27551E-10-1.01713E-08
 -1       837 3.59735E+03 2.76562E+05 1.40394E+04-4.02350E+04 1.25283E-09-1.46676E-08
 -1       838-3.63122E+02 2.72877E+05 1.45008E+04-1.99535E+04 1.17780E-09-3.37650E-10
 -1       839 9.29957E+03 2.80810E+05 2.76240E+04-4.02673E+04 1.87038E-09 1.34447E-09
 -1       840-2.80729E+03 2.67174E+05 4.41322E+04-1.99912E+04 1.11504E-09-5.67320E-09
 -1       856-8.01130E+04 7.43985E+03-1.96063E+04-4.30530E+02-2.78163E-09 2.06001E-09
 -1       857-8.82097E+04-8.72684E+03-1.34982E+04 4.57457E+03-2.27752E-09-1.62891E-09
 -1       858-8.33125E+04 1.04246E+03-5.08826E+03-4.51968E+02-2.92869E-09-5.49085E-09
 -1       859-8.45360E+04-1.21265E+03-3.07269E+03 4.60861E+03-1.84841E-10-1.04080E-09
 -1       860-8.37908E+04 1.45011E+02-1.29133E+03-4.64681E+02 7.33451E-10-1.35782E-09
 -1       861-8.39853E+04-1.60471E+02-7.17879E+02 4.62602E+03-3.74361E-09 6.78683E-09
 -1       862-8.38652E+04 1.91607E+01-3.13456E+02-4.69408E+02 2.79375E-09 4.72637E-09
 -1       863-8.38967E+04-1.11326E+01-1.48335E+02 4.62821E+03 8.38969E-09-2.72179E-09
 -1       864-8.38796E+04-1.02525E+00-3.31053E+01-4.66875E+02 4.21514E-09-1.19201E-08
 -1       865-8.38663E+04 3.00377E+01 6.55491E+01 4.61533E+03 4.81691E-09-6.01109E-09
 -1       866-8.38940E+04-2.24494E+01 1.71516E+02-4.56526E+02 2.18506E-10-2.85027E-10
 -1       867-8.37748E+04 1.87481E+02 4.47651E+02 4.58721E+03 1.57002E-10-1.87308E-09
 -1       868-8.39677E+04-1.56862E+02 7.49788E+02-4.38755E+02 1.18786E-09-4.50447E-09
 -1       869-8.32170E+04 1.30275E+03 2.00609E+03 4.54071E+03-3.09717E-09 2.61355E-09
 -1       870-8.44465E+04-1.10923E+03 2.90971E+03-4.10029E+02 1.49009E-09 4.49245E-09
 -1       871-4.28866E+03-9.71418E+03-1.39990E+04 9.23941E+04 2.25646E-09-1.49521E-09
 -1       872-1.84024E+03-1.28609E+04-5.72703E+03 1.19786E+05 2.13640E-09 6.14705E-09
 -1       873-1.88036E+01-1.13906E+04 7.62110E+02 9.21914E+04 1.56251E-09 4.74074E-09
 -1       874 2.15348E+03-9.38968E+03 7.81622E+03 1.19825E+05 3.37786E-09 6.25960E-09
 -1       875 5.04902E+03-1.32445E+04 1.73689E+04 9.23614E+04 1.47884E-09 7.59428E-10
 -1       876 2.26127E+05 3.88396E+04 1.19969E+04 9.16012E+04-1.98463E-09-5.31600E-09
 -1       877 2.26831E+05 4.14545E+04 6.40669E+03 9.51286E+04 2.47837E-11-7.54608E-09
 -1       878 2.27247E+05 3.75121E+04 2.68409E+03 9.25865E+04 3.75849E-10-1.04649E-08
 -1       879 2.25199E+05 3.98288E+04 1.33715E+03 9.52126E+04 2.80090E-09 1.23972E-08
 -1       880 2.27329E+05 3.74977E+04 6.22586E+02 9.26266E+04 4.90218E-09 2.43170E-09
 -1       881 2.25091E+05 3.97596E+04 3.31799E+02 9.51952E+04 7.06086E-09-1.57308E-08
 -1       882 2.27337E+05 3.75077E+04 2.11109E+02 9.26278E+04 1.01138E-08-2.45871E-09
 -1       883 2.25083E+05 3.97563E+04 2.25083E+02 9.51901E+04 2.02164E-09 3.71034E-09
 -1       884 2.27332E+05 3.75052E+04 3.56355E+02 9.26279E+04 6.69502E-09 3.29379E-09
 -1       885 2.25111E+05 3.97614E+04 7.15410E+02 9.51989E+04 4.59488E-09-3.78952E-09
 -1       886 2.27304E+05 3.74843E+04 1.44138E+03 9.26251E+04-1.77316E-09-9.97522E-09
 -1       887 2.25365E+05 3.99274E+04 3.14832E+03 9.52355E+04 6.64954E-10-8.80391E-09
 -1       888 2.27105E+05 3.75193E+04 6.34390E+03 9.25243E+04 1.89601E-09 6.50289E-10
 -1       889 2.29145E+05 4.38525E+04 1.51549E+04 9.51164E+04 3.47776E-09 7.43580E-09
 -1       890 2.24521E+05 4.05896E+04 2.83842E+04 9.01041E+04 1.37788E-10 3.70164E-09
 -1       891-1.35631E+02-1.27942E+05-1.52209E+03 2.38115E+04 8.14566E-10 2.60479E-09
 -1       892-2.37266E+02-1.28309E+05-1.65130E+03 3.60411E+04 4.33602E-10 1.09785E-08
 -1       893-3.49503E+01-1.27989E+05-2.35522E+03 2.38164E+04 1.09594E-10 5.68116E-09
 -1       894-1.27931E+03-1.29208E+05-4.88682E+03 3.59122E+04-2.33831E-09-6.96582E-09
 -1       895-1.00200E+03-1.26971E+05-8.61062E+03 2.39388E+04-1.72633E-09-1.15415E-09
 -1       956-2.85411E+05-4.06487E+03-1.02224E+04 1.92450E+04-1.92631E-09 8.51355E-09
 -1       957-2.87429E+05-1.37406E+03-5.24769E+03 2.31761E+04-1.26647E-09-2.74576E-09
 -1       958-2.86320E+05-1.12402E+02-2.36429E+03 1.91239E+04 1.04956E-09-1.05126E-08
 -1       959-2.86480E+05-2.20596E+01-1.20761E+03 2.33080E+04-4.23120E-09-6.53426E-09
 -1       960-2.86402E+05 3.15886E+01-5.88720E+02 1.91122E+04-2.02317E-09 1.01818E-09
 -1       961-2.86412E+05 2.94466E+01-3.12291E+02 2.33214E+04-3.10843E-09 1.10947E-08
 -1       962-2.86419E+05 2.79020E+01-1.78673E+02 1.91104E+04-3.15026E-09-2.97405E-09
 -1       963-2.86410E+05 3.10075E+01-1.43259E+02 2.33238E+04-2.10241E-09-7.63293E-10
 -1       964-2.86422E+05 3.00376E+01-1.73732E+02 1.91097E+04 7.11339E-10 5.48539E-09
 -1       965-2.86420E+05 3.40621E+01-3.00063E+02 2.33238E+04 1.15436E-09-1.01682E-09
 -1       966-2.86413E+05 3.79146E+01-5.63219E+02 1.91104E+04-1.88322E-09-1.04478E-10
 -1       967-2.86494E+05-1.07005E+01-1.15513E+03 2.33160E+04 4.82373E-10 1.38384E-08
 -1       968-2.86341E+05-9.55637E+01-2.26061E+03 1.91176E+04 1.49612E-10-2.45910E-09
 -1       969-2.87409E+05-1.29997E+03-5.01919E+03 2.32320E+04-6.96673E-10-5.41300E-09
 -1       970-2.85478E+05-3.87329E+03-9.77646E+03 1.91964E+04-1.26056E-09 4.21096E-09
 -1       971-2.69185E+05-1.40747E+03-7.80967E+03 1.29114E+04-2.35968E-09 3.51417E-09
 -1       972-2.71083E+05-1.01012E+03-4.25309E+03 1.80248E+04-3.67072E-09-1.19762E-08
 -1       973-2.70054E+05-1.14911E+01-1.90452E+03 1.28038E+04-2.19370E-09-1.12277E-09
 -1       974-2.70185E+05-1.18769E+01-9.86684E+02 1.81414E+04 1.42040E-09 6.13829E-09
 -1       975-2.70121E+05 2.52764E+01-4.92233E+02 1.27939E+04 2.32330E-09-2.01680E-09
 -1       976-2.70132E+05 2.92065E+01-2.82230E+02 1.81536E+04-1.37675E-09-7.44240E-09
 -1       977-2.70134E+05 2.52180E+01-2.01702E+02 1.27916E+04 8.10769E-09 2.28772E-09
 -1       978-2.70135E+05 3.38793E+01-2.31764E+02 1.81569E+04 2.09525E-08 1.79657E-08
 -1       979-2.70134E+05 3.15527E+01-3.68698E+02 1.27906E+04 8.84006E-09 7.44114E-09
 -1       980-2.70162E+05 3.61798E+01-7.09609E+02 1.81574E+04 4.62366E-09-1.31332E-08
 -1       981-2.70112E+05 4.92256E+01-1.37314E+03 1.27910E+04 2.07569E-09 3.38974E-09
 -1       982-2.70351E+05-6.52014E+01-2.83757E+03 1.81519E+04 4.30191E-10 8.99610E-09
 -1       983-2.69939E+05-3.85859E+01-5.51306E+03 1.27963E+04 7.79141E-09 2.03431E-09
 -1       984-2.73002E+05-2.94428E+03-1.23457E+04 1.80789E+04 4.18731E-09-6.55587E-09
 -1       985-2.67443E+05-4.07267E+03-2.26707E+04 1.28686E+04 6.92307E-09-3.20142E-10
 -3
    1PSTEP                        15           8           1          
  100CL  108 5.53406E-01         409                     0    8           1
 -4  DISP        4    1
 -5  D1          1    2    1    0
 -5  D2          1    2    2    0
 -5  D3          1    2    3    0
 -5  ALL         1    2    0    0    1ALL
 -1         1 2.16880E-04 0.00000E+00 0.00000E+00
 -1         2 1.93314E-04-1.28423E-30-6.61744E-24
 -1         3 1.78546E-04 8.21404E-28 0.00000E+00
 -1         5 1.14320E-04 1.73423E-27-3.30872E-24
 -1         8 1.91531E-04-8.49671E-07 0.00000E+00
 -1         9 1.83163E-04-1.04006E-06 0.00000E+00
 -1        10 1.63979E-04-2.39472E-06 0.00000E+00
 -1        12 1.14149E-04 6.08509E-07 0.00000E+00
 -1        15 1.61230E-04-9.47184E-07 4.13590E-25
 -1        16 1.65786E-04-1.28217E-06 0.00000E+00
 -1        17 1.18071E-04-5.12814E-06 0.00000E+00
 -1        18 1.12425E-04 6.22176E-06 0.00000E+00
 -1        19 1.13636E-04 1.21389E-06 0.00000E+00
 -1        20 1.13784E-04 1.22467E-05 0.00000E+00
 -1        21 1.13165E-04 2.18354E-05 0.00000E+00
 -1        24 2.31796E-05-7.20266E-06 0.00000E+00
 -1        25 1.12915E-04 6.36580E-06 0.00000E+00
 -1        26 1.13768E-04 1.68436E-06 0.00000E+00
 -1        27 1.12088E-04 9.49890E-06 0.00000E+00
 -1        28 1.11625E-04 2.13204E-05 0.00000E+00
 -1        32 0.00000E+00 0.00000E+00 0.00000E+00
 -1        33 1.12687E-04 2.25703E-06 0.00000E+00
 -1        34 1.11036E-04 9.47242E-06 0.00000E+00
 -1        35 1.09483E-04 2.10460E-05 0.00000E+00
 -1        51 2.15238E-04-1.41976E-07 0.00000E+00
 -1        52 2.12188E-04-2.77376E-07 0.00000E+00
 -1        53 2.08007E-04-4.13864E-07 0.00000E+00
 -1        54 2.02979E-04-5.53212E-07 0.00000E+00
 -1        55 1.97391E-04-6.96370E-07-3.30872E-24
 -1        56 2.15145E-04-8.61845E-07 0.00000E+00
 -1        57 2.13469E-04-2.07899E-06-2.64698E-23
 -1        58 2.11881E-04-3.52043E-06-5.29396E-23
 -1        59 2.10323E-04-5.07623E-06 0.00000E+00
 -1        60 2.08759E-04-6.61706E-06 0.00000E+00
 -1        61 2.07141E-04-8.01892E-06 0.00000E+00
 -1        62 2.05428E-04-9.16924E-06 0.00000E+00
 -1        63 2.03583E-04-9.96713E-06 2.64698E-23
 -1        64 2.01579E-04-1.03427E-05 0.00000E+00
 -1        65 1.99398E-04-1.02446E-05 2.64698E-23
 -1        66 1.97035E-04-9.66336E-06 0.00000E+00
 -1        67 1.94497E-04-8.61027E-06 2.64698E-23
 -1        68 1.91801E-04-7.13920E-06 5.29396E-23
 -1        69 1.88984E-04-5.31846E-06 0.00000E+00
 -1        70 1.86071E-04-3.25492E-06 0.00000E+00
 -1        86 1.92994E-04-1.67195E-07-6.61744E-24
 -1        87 1.92036E-04-3.35281E-07-3.30872E-24
 -1        88 1.90495E-04-5.04134E-07 0.00000E+00
 -1        89 1.88433E-04-6.77034E-07 0.00000E+00
 -1        90 1.85953E-04-8.49773E-07 0.00000E+00
 -1       121 1.78138E-04-3.95308E-07-1.32349E-23
 -1       122 1.76916E-04-7.91262E-07 0.00000E+00
 -1       123 1.74882E-04-1.18850E-06-1.32349E-23
 -1       124 1.72043E-04-1.58770E-06 0.00000E+00
 -1       125 1.68405E-04-1.98937E-06 0.00000E+00
 -1       191 1.14315E-04 1.01422E-07 3.30872E-24
 -1       192 1.14301E-04 2.02843E-07-1.65436E-24
 -1       193 1.14277E-04 3.04264E-07 3.30872E-24
 -1       194 1.14244E-04 4.05684E-07-1.65436E-24
 -1       195 1.14201E-04 5.07099E-07-3.30872E-24
 -1       251 1.91013E-04 4.86039E-06 0.00000E+00
 -1       252 1.90480E-04 1.18191E-05 0.00000E+00
 -1       253 1.89946E-04 1.90592E-05-1.32349E-23
 -1       254 1.89414E-04 2.56072E-05 0.00000E+00
 -1       255 1.88891E-04 3.06597E-05-1.32349E-23
 -1       256 1.88376E-04 3.34448E-05 6.61744E-24
 -1       257 1.87865E-04 3.37472E-05 1.32349E-23
 -1       258 1.87351E-04 3.14033E-05 0.00000E+00
 -1       259 1.86830E-04 2.68992E-05-1.32349E-23
 -1       260 1.86300E-04 2.07663E-05 0.00000E+00
 -1       261 1.85767E-04 1.39360E-05 0.00000E+00
 -1       262 1.85235E-04 7.35389E-06 0.00000E+00
 -1       263 1.84709E-04 1.90489E-06 0.00000E+00
 -1       264 1.84191E-04-1.54975E-06 0.00000E+00
 -1       265 1.83679E-04-2.63875E-06 0.00000E+00
 -1       266 1.86481E-04-8.77941E-07 6.61744E-24
 -1       267 1.81431E-04-8.92728E-07-1.65436E-24
 -1       268 1.76381E-04-9.08369E-07 1.65436E-24
 -1       269 1.71331E-04-9.21481E-07 4.13590E-25
 -1       270 1.66281E-04-9.34533E-07 0.00000E+00
 -1       271 1.88464E-04 3.12589E-06 2.64698E-23
 -1       272 1.85754E-04 6.02261E-06 1.32349E-23
 -1       273 1.83421E-04 7.92425E-06 0.00000E+00
 -1       274 1.81425E-04 8.91291E-06 2.64698E-23
 -1       275 1.79732E-04 9.09601E-06 5.29396E-23
 -1       276 1.78294E-04 8.59381E-06 0.00000E+00
 -1       277 1.77062E-04 7.54198E-06 0.00000E+00
 -1       278 1.75981E-04 6.08648E-06 0.00000E+00
 -1       279 1.74993E-04 4.38201E-06 0.00000E+00
 -1       280 1.74039E-04 2.58816E-06 2.64698E-23
 -1       281 1.73058E-04 8.66273E-07 5.29396E-23
 -1       282 1.71991E-04-6.23503E-07 0.00000E+00
 -1       283 1.70780E-04-1.72633E-06 0.00000E+00
 -1       284 1.69373E-04-2.29305E-06 0.00000E+00
 -1       285 1.67713E-04-2.18988E-06 0.00000E+00
 -1       301 1.80018E-04-1.09606E-06-6.61744E-24
 -1       302 1.76815E-04-1.12832E-06 0.00000E+00
 -1       303 1.73671E-04-1.15909E-06 0.00000E+00
 -1       304 1.70707E-04-1.18992E-06 0.00000E+00
 -1       305 1.68039E-04-1.22200E-06 0.00000E+00
 -1       306 1.84654E-04-1.24092E-05 0.00000E+00
 -1       307 1.95205E-04-4.99262E-05-2.64698E-23
 -1       308 2.12240E-04-1.07254E-04 0.00000E+00
 -1       309 2.32950E-04-1.76527E-04 2.64698E-23
 -1       310 2.54065E-04-2.47132E-04 0.00000E+00
 -1       311 2.72304E-04-3.08352E-04-2.64698E-23
 -1       312 2.84764E-04-3.51638E-04-5.29396E-23
 -1       313 2.88623E-04-3.69844E-04 0.00000E+00
 -1       314 2.82622E-04-3.61462E-04 0.00000E+00
 -1       315 2.66165E-04-3.26931E-04 0.00000E+00
 -1       316 2.41198E-04-2.72343E-04 0.00000E+00
 -1       317 2.10604E-04-2.05105E-04 0.00000E+00
 -1       318 1.78846E-04-1.35287E-04 0.00000E+00
 -1       319 1.50551E-04-7.31058E-05 0.00000E+00
 -1       320 1.29331E-04-2.72049E-05-5.29396E-23
 -1       336 1.58673E-04-2.83544E-06-1.32349E-23
 -1       337 1.52398E-04-3.28211E-06 0.00000E+00
 -1       338 1.45174E-04-3.73478E-06 0.00000E+00
 -1       339 1.37026E-04-4.19352E-06 0.00000E+00
 -1       340 1.27982E-04-4.65972E-06 0.00000E+00
 -1       406 1.14087E-04 7.09906E-07 3.30872E-24
 -1       407 1.14016E-04 8.11271E-07 1.65436E-24
 -1       408 1.13935E-04 9.12574E-07 0.00000E+00
 -1       409 1.13845E-04 1.01369E-06-1.65436E-24
 -1       410 1.13745E-04 1.11444E-06 0.00000E+00
 -1       521 1.71701E-04-2.73078E-05 0.00000E+00
 -1       522 1.94177E-04-1.05208E-04 0.00000E+00
 -1       523 2.27530E-04-2.22204E-04-1.05879E-22
 -1       524 2.66382E-04-3.61809E-04 0.00000E+00
 -1       525 3.05450E-04-5.02324E-04-1.05879E-22
 -1       526 3.39456E-04-6.21960E-04 0.00000E+00
 -1       527 3.63060E-04-7.03769E-04 0.00000E+00
 -1       528 3.70456E-04-7.34391E-04 5.29396E-23
 -1       529 3.57985E-04-7.11657E-04 1.05879E-22
 -1       530 3.23609E-04-6.38060E-04 0.00000E+00
 -1       531 2.70940E-04-5.26334E-04-1.05879E-22
 -1       532 2.06409E-04-3.91866E-04 5.29396E-23
 -1       533 1.40252E-04-2.54347E-04 0.00000E+00
 -1       534 8.30113E-05-1.33630E-04 0.00000E+00
 -1       535 4.23056E-05-4.64409E-05-5.29396E-23
 -1       536 1.17826E-04 9.62134E-06 0.00000E+00
 -1       537 1.17427E-04 3.31554E-05-3.30872E-24
 -1       538 1.16899E-04 6.19452E-05 3.30872E-24
 -1       539 1.16324E-04 9.24345E-05-1.65436E-24
 -1       540 1.15812E-04 1.20612E-04 3.30872E-24
 -1       541 1.15452E-04 1.42479E-04 0.00000E+00
 -1       542 1.15235E-04 1.55691E-04 0.00000E+00
 -1       543 1.15099E-04 1.57954E-04-1.65436E-24
 -1       544 1.14934E-04 1.49778E-04 0.00000E+00
 -1       545 1.14645E-04 1.31735E-04 1.65436E-24
 -1       546 1.14221E-04 1.06942E-04 0.00000E+00
 -1       547 1.13706E-04 7.85537E-05 1.65436E-24
 -1       548 1.13204E-04 5.06749E-05 0.00000E+00
 -1       549 1.12816E-04 2.74070E-05-1.65436E-24
 -1       550 1.12565E-04 1.16407E-05 0.00000E+00
 -1       551 1.05380E-04-5.42952E-06 0.00000E+00
 -1       552 9.04066E-05-5.75521E-06 1.65436E-24
 -1       553 7.39204E-05-6.10211E-06 3.30872E-24
 -1       554 5.67012E-05-6.46255E-06 0.00000E+00
 -1       555 3.95293E-05-6.82506E-06 0.00000E+00
 -1       556 1.14591E-04 3.85955E-06 0.00000E+00
 -1       557 1.11873E-04 1.09014E-05 0.00000E+00
 -1       558 1.09835E-04 1.61658E-05 0.00000E+00
 -1       559 1.08405E-04 1.98355E-05 1.32349E-23
 -1       560 1.07510E-04 2.20927E-05 0.00000E+00
 -1       561 1.07080E-04 2.31210E-05 0.00000E+00
 -1       562 1.07042E-04 2.31042E-05 0.00000E+00
 -1       563 1.07327E-04 2.22266E-05 0.00000E+00
 -1       564 1.07866E-04 2.06726E-05 0.00000E+00
 -1       565 1.08588E-04 1.86267E-05 0.00000E+00
 -1       566 1.09424E-04 1.62737E-05 0.00000E+00
 -1       567 1.10307E-04 1.37985E-05 0.00000E+00
 -1       568 1.11166E-04 1.13858E-05 0.00000E+00
 -1       569 1.11932E-04 9.22033E-06 0.00000E+00
 -1       570 1.12538E-04 7.48667E-06 0.00000E+00
 -1       571 1.12499E-04 5.91881E-06-1.24077E-24
 -1       572 1.12574E-04 5.56939E-06 0.00000E+00
 -1       573 1.12649E-04 5.18276E-06-8.27181E-25
 -1       574 1.12725E-04 4.76862E-06-8.27181E-25
 -1       575 1.12801E-04 4.33670E-06 1.65436E-24
 -1       576 1.12877E-04 3.89680E-06 0.00000E+00
 -1       577 1.12953E-04 3.45872E-06 3.30872E-24
 -1       578 1.13029E-04 3.03228E-06-1.65436E-24
 -1       579 1.13105E-04 2.62727E-06 0.00000E+00
 -1       580 1.13181E-04 2.25351E-06 0.00000E+00
 -1       581 1.13257E-04 1.92081E-06 0.00000E+00
 -1       582 1.13333E-04 1.63897E-06 0.00000E+00
 -1       583 1.13409E-04 1.41777E-06 0.00000E+00
 -1       584 1.13485E-04 1.26691E-06 0.00000E+00
 -1       585 1.13561E-04 1.19601E-06 0.00000E+00
 -1       586 1.12462E-04 6.24735E-06 8.27181E-25
 -1       587 1.12472E-04 6.27233E-06 2.06795E-25
 -1       588 1.12488E-04 6.29703E-06-8.27181E-25
 -1       589 1.12546E-04 6.32129E-06 0.00000E+00
 -1       590 1.12677E-04 6.34479E-06 0.00000E+00
 -1       591 1.12502E-04 5.96476E-06-1.68021E-25
 -1       592 1.12588E-04 5.67683E-06 0.00000E+00
 -1       593 1.12682E-04 5.36445E-06 0.00000E+00
 -1       594 1.12783E-04 5.03331E-06 0.00000E+00
 -1       595 1.12889E-04 4.68919E-06 0.00000E+00
 -1       596 1.12998E-04 4.33781E-06 1.24077E-24
 -1       597 1.13107E-04 3.98490E-06 8.27181E-25
 -1       598 1.13215E-04 3.63618E-06-2.06795E-25
 -1       599 1.13319E-04 3.29736E-06 4.13590E-25
 -1       600 1.13417E-04 2.97416E-06 2.06795E-25
 -1       601 1.13507E-04 2.67230E-06 4.13590E-25
 -1       602 1.13587E-04 2.39750E-06 1.03398E-25
 -1       603 1.13655E-04 2.15548E-06-1.03398E-25
 -1       604 1.13709E-04 1.95203E-06 0.00000E+00
 -1       605 1.13746E-04 1.79283E-06 8.27181E-25
 -1       606 1.13649E-04 1.40115E-06 0.00000E+00
 -1       607 1.13660E-04 1.68488E-06 0.00000E+00
 -1       608 1.13669E-04 2.05943E-06-3.30872E-24
 -1       609 1.13678E-04 2.51840E-06 0.00000E+00
 -1       610 1.13688E-04 3.05538E-06 3.30872E-24
 -1       611 1.13697E-04 3.66386E-06 0.00000E+00
 -1       612 1.13706E-04 4.33731E-06 0.00000E+00
 -1       613 1.13715E-04 5.06924E-06 0.00000E+00
 -1       614 1.13723E-04 5.85310E-06 0.00000E+00
 -1       615 1.13732E-04 6.68238E-06 0.00000E+00
 -1       616 1.13741E-04 7.55056E-06 0.00000E+00
 -1       617 1.13750E-04 8.45112E-06 0.00000E+00
 -1       618 1.13759E-04 9.37752E-06 8.27181E-25
 -1       619 1.13767E-04 1.03233E-05 0.00000E+00
 -1       620 1.13776E-04 1.12818E-05 0.00000E+00
 -1       621 1.13564E-04 1.29244E-06 0.00000E+00
 -1       622 1.13543E-04 1.37129E-06-8.27181E-25
 -1       623 1.13564E-04 1.45012E-06-1.65436E-24
 -1       624 1.13615E-04 1.52881E-06 8.27181E-25
 -1       625 1.13687E-04 1.60735E-06 0.00000E+00
 -1       626 1.13653E-04 1.42769E-06-3.30872E-24
 -1       627 1.13641E-04 1.71996E-06 0.00000E+00
 -1       628 1.13602E-04 2.08298E-06 0.00000E+00
 -1       629 1.13541E-04 2.50855E-06 0.00000E+00
 -1       630 1.13458E-04 2.98849E-06 0.00000E+00
 -1       631 1.13359E-04 3.51455E-06-1.65436E-24
 -1       632 1.13245E-04 4.07849E-06 3.30872E-24
 -1       633 1.13120E-04 4.67208E-06 1.65436E-24
 -1       634 1.12987E-04 5.28707E-06 3.30872E-24
 -1       635 1.12849E-04 5.91522E-06 0.00000E+00
 -1       636 1.12710E-04 6.54830E-06-3.30872E-24
 -1       637 1.12571E-04 7.17806E-06 0.00000E+00
 -1       638 1.12437E-04 7.79625E-06 1.65436E-24
 -1       639 1.12310E-04 8.39464E-06 8.27181E-25
 -1       640 1.12193E-04 8.96498E-06 0.00000E+00
 -1       656 1.13037E-04 1.17996E-05 6.61744E-24
 -1       657 1.12670E-04 1.13347E-05 0.00000E+00
 -1       658 1.12545E-04 1.08712E-05 0.00000E+00
 -1       659 1.12517E-04 1.04080E-05 0.00000E+00
 -1       660 1.12420E-04 9.94343E-06-6.61744E-24
 -1       661 1.13508E-04 1.31811E-05 8.27181E-25
 -1       662 1.13259E-04 1.40533E-05-8.27181E-25
 -1       663 1.13032E-04 1.48656E-05 0.00000E+00
 -1       664 1.12827E-04 1.56214E-05-8.27181E-25
 -1       665 1.12642E-04 1.63239E-05 1.65436E-24
 -1       666 1.12476E-04 1.69761E-05 8.27181E-25
 -1       667 1.12328E-04 1.75810E-05 1.65436E-24
 -1       668 1.12196E-04 1.81412E-05 0.00000E+00
 -1       669 1.12081E-04 1.86596E-05-1.65436E-24
 -1       670 1.11980E-04 1.91388E-05 0.00000E+00
 -1       671 1.11892E-04 1.95811E-05 0.00000E+00
 -1       672 1.11818E-04 1.99891E-05-8.27181E-25
 -1       673 1.11755E-04 2.03650E-05 1.65436E-24
 -1       674 1.11703E-04 2.07109E-05-8.27181E-25
 -1       675 1.11662E-04 2.10292E-05 0.00000E+00
 -1       676 1.12907E-04 2.17491E-05 0.00000E+00
 -1       677 1.12650E-04 2.16628E-05-1.65436E-24
 -1       678 1.12393E-04 2.15765E-05 0.00000E+00
 -1       679 1.12137E-04 2.14905E-05 0.00000E+00
 -1       680 1.11881E-04 2.14045E-05-1.65436E-24
 -1       771 1.69853E-05 5.73160E-06 0.00000E+00
 -1       772 1.16807E-05 1.63418E-05 0.00000E+00
 -1       773 7.22564E-06 2.47492E-05 0.00000E+00
 -1       774 3.56360E-06 3.10867E-05 2.64698E-23
 -1       775 6.38908E-07 3.54908E-05 5.29396E-23
 -1       776-1.60654E-06 3.81046E-05 0.00000E+00
 -1       777-3.23137E-06 3.90751E-05 5.29396E-23
 -1       778-4.29558E-06 3.85541E-05 0.00000E+00
 -1       779-4.85948E-06 3.66971E-05-5.29396E-23
 -1       780-4.98449E-06 3.36633E-05 0.00000E+00
 -1       781-4.73212E-06 2.96149E-05 0.00000E+00
 -1       782-4.16479E-06 2.47170E-05 0.00000E+00
 -1       783-3.34491E-06 1.91368E-05-2.64698E-23
 -1       784-2.33550E-06 1.30434E-05 0.00000E+00
 -1       785-1.19953E-06 6.60733E-06 0.00000E+00
 -1       786 1.12964E-04 5.91307E-06 0.00000E+00
 -1       787 1.13017E-04 5.49288E-06 4.13590E-25
 -1       788 1.13070E-04 5.09960E-06-1.65436E-24
 -1       789 1.13124E-04 4.72768E-06 8.27181E-25
 -1       790 1.13177E-04 4.37419E-06 1.65436E-24
 -1       791 1.13231E-04 4.03625E-06 0.00000E+00
 -1       792 1.13285E-04 3.71289E-06 1.65436E-24
 -1       793 1.13338E-04 3.40319E-06 0.00000E+00
 -1       794 1.13392E-04 3.10790E-06 0.00000E+00
 -1       795 1.13446E-04 2.82780E-06 0.00000E+00
 -1       796 1.13500E-04 2.56558E-06-1.65436E-24
 -1       797 1.13553E-04 2.32394E-06 0.00000E+00
 -1       798 1.13607E-04 2.10814E-06 0.00000E+00
 -1       799 1.13661E-04 1.92348E-06 8.27181E-25
 -1       800 1.13714E-04 1.77914E-06 0.00000E+00
 -1       801 1.04790E-04 5.52613E-06-1.32349E-23
 -1       802 7.94419E-05 4.37795E-06 1.32349E-23
 -1       803 4.74163E-05 3.05992E-06 0.00000E+00
 -1       804 1.95149E-05 1.85216E-06 1.32349E-23
 -1       805 1.81017E-06 8.58071E-07 2.64698E-23
 -1       806 1.12997E-04 5.86206E-06 0.00000E+00
 -1       807 1.13069E-04 5.37580E-06 0.00000E+00
 -1       808 1.13133E-04 4.91111E-06-1.65436E-24
 -1       809 1.13187E-04 4.47120E-06 8.27181E-25
 -1       810 1.13230E-04 4.05924E-06 0.00000E+00
 -1       811 1.13262E-04 3.67834E-06-1.65436E-24
 -1       812 1.13281E-04 3.33161E-06 3.30872E-24
 -1       813 1.13286E-04 3.02215E-06 0.00000E+00
 -1       814 1.13276E-04 2.75302E-06-1.65436E-24
 -1       815 1.13249E-04 2.52733E-06-8.27181E-25
 -1       816 1.13206E-04 2.34813E-06-1.65436E-24
 -1       817 1.13143E-04 2.21852E-06 0.00000E+00
 -1       818 1.13061E-04 2.14155E-06 1.65436E-24
 -1       819 1.12958E-04 2.12029E-06-8.27181E-25
 -1       820 1.12834E-04 2.15779E-06-1.65436E-24
 -1       821 1.13669E-04 1.57000E-06 0.00000E+00
 -1       822 1.13564E-04 1.36828E-06 8.27181E-25
 -1       823 1.13459E-04 1.15581E-06 3.30872E-24
 -1       824 1.13353E-04 1.00930E-06 0.00000E+00
 -1       825 1.13248E-04 9.91064E-07 0.00000E+00
 -1       826 1.13142E-04 1.16280E-06 1.65436E-24
 -1       827 1.13035E-04 1.54496E-06 0.00000E+00
 -1       828 1.12929E-04 2.15699E-06-1.65436E-24
 -1       829 1.12823E-04 2.96840E-06 3.30872E-24
 -1       830 1.12716E-04 3.94774E-06 0.00000E+00
 -1       831 1.12610E-04 5.02712E-06 3.30872E-24
 -1       832 1.12503E-04 6.13814E-06 0.00000E+00
 -1       833 1.12397E-04 7.20551E-06 3.30872E-24
 -1       834 1.12292E-04 8.15420E-06-8.27181E-25
 -1       835 1.12187E-04 8.93485E-06 0.00000E+00
 -1       836 1.13749E-04 1.77968E-06 0.00000E+00
 -1       837 1.13618E-04 1.87714E-06 0.00000E+00
 -1       838 1.13411E-04 1.97443E-06 0.00000E+00
 -1       839 1.13162E-04 2.07110E-06 8.27181E-25
 -1       840 1.12909E-04 2.16761E-06-4.13590E-25
 -1       856 1.12063E-04 1.00153E-05 0.00000E+00
 -1       857 1.12034E-04 1.06457E-05-1.03398E-25
 -1       858 1.12006E-04 1.13721E-05 4.13590E-25
 -1       859 1.11977E-04 1.21765E-05-4.13590E-25
 -1       860 1.11948E-04 1.30410E-05 0.00000E+00
 -1       861 1.11918E-04 1.39473E-05 4.13590E-25
 -1       862 1.11889E-04 1.48774E-05 8.27181E-25
 -1       863 1.11860E-04 1.58130E-05 4.13590E-25
 -1       864 1.11830E-04 1.67359E-05 8.27181E-25
 -1       865 1.11801E-04 1.76280E-05-4.13590E-25
 -1       866 1.11772E-04 1.84710E-05 0.00000E+00
 -1       867 1.11742E-04 1.92469E-05 0.00000E+00
 -1       868 1.11713E-04 1.99377E-05 0.00000E+00
 -1       869 1.11684E-04 2.05254E-05-4.13590E-25
 -1       870 1.11655E-04 2.09922E-05 0.00000E+00
 -1       871 1.11794E-04 9.49771E-06-4.13590E-25
 -1       872 1.11614E-04 9.49414E-06 0.00000E+00
 -1       873 1.11499E-04 9.49013E-06 4.13590E-25
 -1       874 1.11397E-04 9.48555E-06-1.03398E-25
 -1       875 1.11260E-04 9.48046E-06 4.13590E-25
 -1       876 1.11996E-04 1.00257E-05 0.00000E+00
 -1       877 1.11886E-04 1.06079E-05 0.00000E+00
 -1       878 1.11758E-04 1.12388E-05 0.00000E+00
 -1       879 1.11614E-04 1.19123E-05 1.65436E-24
 -1       880 1.11457E-04 1.26220E-05-3.30872E-24
 -1       881 1.11288E-04 1.33618E-05 1.65436E-24
 -1       882 1.11110E-04 1.41254E-05-3.30872E-24
 -1       883 1.10926E-04 1.49067E-05 0.00000E+00
 -1       884 1.10737E-04 1.56994E-05 3.30872E-24
 -1       885 1.10547E-04 1.64973E-05 1.65436E-24
 -1       886 1.10356E-04 1.72944E-05 0.00000E+00
 -1       887 1.10168E-04 1.80842E-05 0.00000E+00
 -1       888 1.09986E-04 1.88608E-05 0.00000E+00
 -1       889 1.09810E-04 1.96176E-05-8.27181E-25
 -1       890 1.09643E-04 2.03486E-05-1.65436E-24
 -1       891 1.11391E-04 2.12745E-05 8.27181E-25
 -1       892 1.11138E-04 2.12284E-05 4.13590E-25
 -1       893 1.10843E-04 2.11824E-05 8.27181E-25
 -1       894 1.10483E-04 2.11364E-05-2.06795E-25
 -1       895 1.10037E-04 2.10906E-05-8.27181E-25
 -1       956 1.12586E-04 2.48373E-06 3.30872E-24
 -1       957 1.12483E-04 2.77509E-06-8.27181E-25
 -1       958 1.12380E-04 3.12403E-06-3.30872E-24
 -1       959 1.12276E-04 3.52305E-06-8.27181E-25
 -1       960 1.12173E-04 3.96465E-06 0.00000E+00
 -1       961 1.12069E-04 4.44128E-06 0.00000E+00
 -1       962 1.11965E-04 4.94539E-06-3.30872E-24
 -1       963 1.11862E-04 5.46942E-06 1.65436E-24
 -1       964 1.11758E-04 6.00582E-06-3.30872E-24
 -1       965 1.11654E-04 6.54702E-06 1.65436E-24
 -1       966 1.11551E-04 7.08547E-06-3.30872E-24
 -1       967 1.11447E-04 7.61361E-06 0.00000E+00
 -1       968 1.11344E-04 8.12387E-06 0.00000E+00
 -1       969 1.11240E-04 8.60873E-06-1.65436E-24
 -1       970 1.11137E-04 9.06066E-06 3.30872E-24
 -1       971 1.10940E-04 9.90127E-06 1.65436E-24
 -1       972 1.10843E-04 1.04141E-05 8.27181E-25
 -1       973 1.10745E-04 1.10017E-05-3.30872E-24
 -1       974 1.10648E-04 1.16543E-05-1.65436E-24
 -1       975 1.10550E-04 1.23625E-05-3.30872E-24
 -1       976 1.10453E-04 1.31164E-05-1.65436E-24
 -1       977 1.10355E-04 1.39064E-05 0.00000E+00
 -1       978 1.10257E-04 1.47230E-05 1.65436E-24
 -1       979 1.10160E-04 1.55562E-05 3.30872E-24
 -1       980 1.10062E-04 1.63966E-05 0.00000E+00
 -1       981 1.09964E-04 1.72344E-05-3.30872E-24
 -1       982 1.09867E-04 1.80599E-05-1.65436E-24
 -1       983 1.09769E-04 1.88635E-05-3.30872E-24
 -1       984 1.09672E-04 1.96354E-05-1.65436E-24
 -1       985 1.09576E-04 2.03661E-05 0.00000E+00
 -3
    1PSTEP                        16           8           1          
  100CL  108 5.53406E-01         409                     0    8           1
 -4  STRESS      6    1
 -5  SXX         1    4    1    1
 -5  SYY         1    4    2    2
 -5  SZZ         1    4    3    3
 -5  SXY         1    4    1    2
 -5  SYZ         1    4    2    3
 -5  SZX         1    4    3    1
 -1         1-2.41654E+06-1.01502E+06-5.14017E+05-1.28467E+06-4.65661E-10-1.36351E-08
 -1         2 2.48009E+03-4.74743E+05 8.07095E+03-1.30158E+03-8.13429E-11 2.12167E-08
 -1         3-2.95240E+02-1.12788E+06 2.71774E+02-7.26811E+02-3.55634E-10-5.76620E-10
 -1         5-1.41218E+00 2.90194E+05 7.44282E+00 6.62911E-02 4.18995E-11 1.71342E-08
 -1         8-1.19907E+06-4.24392E+05-1.34278E+05-5.54993E+05 2.98314E-10 4.59113E-09
 -1         9-2.20673E+06-8.23853E+05-2.81971E+05-7.55808E+05 6.43195E-09 4.65661E-09
 -1        10-1.03932E+03-1.17504E+06-1.67198E+03-4.91845E+03-5.74710E-09-3.44971E-09
 -1        12 1.64241E+00 2.90210E+05 2.40957E+02 5.16040E-01 1.08322E-10 2.00425E-08
 -1        15 1.99108E+03 1.09422E+03 6.43617E+03 4.34831E+00 8.74252E-11 1.05453E-08
 -1        16-2.50759E+06-1.24869E+06-4.15425E+05-1.34633E+06 9.48785E-09-9.68187E-09
 -1        17-1.28629E+06-6.74861E+05-2.36711E+05-5.80663E+05-5.53555E-09 8.63220E-09
 -1        18-3.04498E+04-1.23152E+04-3.02167E+04-7.71504E+04 5.95776E-09 7.07314E-09
 -1        19 9.26790E+04 1.07777E+05-6.94043E+02 1.81822E+04-3.47063E-10-3.09301E-09
 -1        20-4.52687E+04-4.38428E+05-9.71718E+04 2.88145E+04 2.61571E-09-8.40676E-09
 -1        21-4.00278E+01-2.47097E+05-7.91210E+02-4.36089E+01-4.38212E-09-1.46519E-08
 -1        24-2.90845E+06-6.45125E+05-2.96926E+05-9.95083E+05-4.55523E-08-2.38069E-08
 -1        25-7.89651E+04-4.76961E+05-9.32831E+04-1.21830E+05 1.46701E-10 7.96535E-10
 -1        26-3.04602E+04 7.12577E+04-1.68023E+04-6.47325E+03 1.38352E-09 3.39048E-09
 -1        27-6.60509E+04-2.39229E+05-8.92154E+04 5.40208E+04 6.12135E-09-3.47973E-09
 -1        28 1.90348E+04-6.90164E+04 1.40055E+04 2.06521E+04 2.97629E-09-5.91817E-09
 -1        32-1.17088E+06-1.32978E+06 1.23472E+05-5.65913E+05-2.57132E-08 2.66543E-09
 -1        33-1.39204E+05 6.94150E+04 2.47533E+04-3.55716E+04 3.67663E-10 5.47152E-09
 -1        34-1.77072E+05-1.79467E+04 4.52143E+02 5.56506E+04 2.06244E-09-1.10907E-08
 -1        35-1.93880E+04-2.74173E+04-1.08000E+03 4.30455E+04 4.90164E-09 2.78669E-09
 -1        51 2.28008E+04-3.44408E+05 5.51404E+04-9.62135E+05 1.30967E-10 4.65661E-09
 -1        52 1.19012E+04-3.40324E+05 3.40889E+04-1.12206E+06 1.12050E-09 9.89530E-10
 -1        53 7.37498E+03-3.55268E+05 2.58449E+04-9.58732E+05 1.08412E-09 1.69675E-08
 -1        54 2.03167E+04-3.53732E+05 3.76133E+04-1.12558E+06-1.38243E-10 2.32831E-09
 -1        55 4.00036E+04-3.67629E+05 6.48030E+04-9.58167E+05 6.98492E-10 3.25963E-09
 -1        56-4.61593E+06-5.16177E+05-3.78356E+05-1.78405E+06 2.81580E-09-1.23546E-08
 -1        57-4.78245E+06-8.44947E+05-2.55200E+05-1.75308E+06 2.98041E-09 8.03630E-09
 -1        58-4.69163E+06-6.36620E+05-8.89669E+04-1.76060E+06-3.16686E-09 1.03319E-09
 -1        59-4.69513E+06-7.03219E+05-5.31146E+04-1.78047E+06 1.28239E-10 2.70757E-09
 -1        60-4.70221E+06-6.53881E+05-2.07446E+04-1.75797E+06-1.48884E-09-5.76620E-10
 -1        61-4.68485E+06-6.80938E+05-1.17570E+04-1.78109E+06-1.32252E-09 7.50151E-09
 -1        62-4.70166E+06-6.58399E+05-5.60115E+03-1.76009E+06 3.84443E-09-2.26306E-08
 -1        63-4.68882E+06-6.72737E+05-4.47640E+03-1.77482E+06-2.73030E-09-8.24980E-09
 -1        64-4.69814E+06-6.62067E+05-4.99273E+03-1.76420E+06 2.79852E-09-2.42428E-08
 -1        65-4.69776E+06-6.66938E+05-9.88568E+03-1.76567E+06-3.09933E-09-2.33595E-08
 -1        66-4.69272E+06-6.64265E+05-1.72897E+04-1.76921E+06 2.34282E-09-9.31595E-09
 -1        67-4.71590E+06-6.75756E+05-4.40140E+04-1.75418E+06-4.20164E-09 1.45296E-08
 -1        68-4.68022E+06-6.53663E+05-7.37359E+04-1.77561E+06 2.71120E-09-4.28918E-09
 -1        69-4.79269E+06-7.88854E+05-2.11411E+05-1.72671E+06-6.23004E-10-2.45636E-08
 -1        70-4.61690E+06-5.54451E+05-3.13506E+05-1.79566E+06 7.49424E-10-4.55475E-09
 -1        86-1.24572E+03-4.77410E+05 8.61857E+03 6.50783E+02 1.05365E-09-3.21074E-09
 -1        87 8.23413E+03-4.72036E+05 1.80064E+04-2.47596E+03 1.79625E-09-1.38133E-08
 -1        88-6.97649E+03-4.80119E+05 2.75811E+04 1.82519E+03 2.40652E-09 1.94323E-08
 -1        89 5.19672E+04-4.51919E+05 7.43251E+04-4.43316E+03 3.59159E-09 1.06316E-08
 -1        90-4.48182E+04-4.97507E+05 1.05127E+05 2.60835E+03 3.30328E-09 3.81385E-09
 -1       121-4.27527E+02-1.12899E+06 1.11526E+02 3.62496E+02 5.84478E-10 1.62327E-08
 -1       122-2.00401E+02-1.12784E+06 5.74882E+02-1.45210E+03-2.36530E-09-5.47152E-09
 -1       123-4.80956E+02-1.12906E+06 7.76633E+02 1.08419E+03 1.85980E-09-7.68705E-09
 -1       124 8.75583E+02-1.12726E+06 2.36468E+03-3.11073E+03-4.72392E-09-4.49290E-09
 -1       125-1.14646E+03-1.12966E+06 3.46959E+03 2.01766E+03 3.11593E-09 5.74983E-09
 -1       191-1.73149E+00 2.90220E+05 9.09712E+00-3.32426E-02 5.87657E-11 4.85875E-09
 -1       192-2.09406E+00 2.90195E+05 1.57485E+01 2.87721E-01 6.68414E-11-9.15020E-09
 -1       193-3.54534E+00 2.90219E+05 2.94827E+01-2.55267E-01 7.66551E-11-1.80407E-08
 -1       194-4.28881E+00 2.90197E+05 5.95422E+01 6.82914E-01-3.22977E-11-2.70625E-08
 -1       195-7.03130E+00 2.90217E+05 1.16662E+02-4.30381E-01 8.44125E-11-6.35259E-09
 -1       251-1.45245E+06 1.88941E+04-4.50226E+04-1.94896E+04 1.15631E-09 1.19198E-08
 -1       252-1.47078E+06-2.16418E+04-3.14694E+04 3.98776E+04-2.46901E-10-9.98625E-10
 -1       253-1.45933E+06 2.85848E+03-1.16159E+04-2.12139E+04-6.02881E-10 3.89900E-09
 -1       254-1.46012E+06-3.07209E+03-6.74407E+03 3.23067E+04 1.59787E-10 1.18575E-08
 -1       255-1.46288E+06 2.38171E+02-3.45126E+03-1.19172E+04 1.91835E-09 6.94877E-09
 -1       256-1.45507E+06-2.91842E+02-5.08284E+02 7.56275E+03 3.08637E-09 1.04571E-08
 -1       257-1.46403E+06-2.01108E+02-1.38983E+03 3.53062E+03-6.30962E-10-4.67622E-09
 -1       258-1.45619E+06 2.03193E+02 6.56491E+02-2.13146E+04-4.32965E-09 9.71092E-09
 -1       259-1.46191E+06-1.55948E+02-1.38957E+02 1.69584E+04 2.78533E-10 5.75481E-09
 -1       260-1.45989E+06 5.51762E+02 7.76129E+02-3.90699E+04 2.36301E-09 1.16795E-08
 -1       261-1.46069E+06-2.43216E+02 1.16043E+03 2.12881E+04 5.90330E-09-1.83409E-08
 -1       262-1.45857E+06 1.72766E+03 3.19999E+03-3.63631E+04-3.86058E-09-2.27325E-08
 -1       263-1.46315E+06-1.37778E+03 4.20376E+03 1.42510E+04 9.47011E-11 1.04653E-08
 -1       264-1.45107E+06 9.24962E+03 1.36896E+04-1.46397E+04 3.65139E-09-2.55864E-09
 -1       265-1.46780E+06-8.05502E+03 1.70423E+04-4.36726E+02 1.65983E-10 1.14533E-08
 -1       266-3.60441E+04-1.68516E+04 8.45824E+04-9.30523E+01 7.27596E-11-6.92188E-09
 -1       267 4.17862E+04 1.96450E+04 5.97752E+04 1.07349E+02 1.08230E-10-1.03115E-08
 -1       268-5.60341E+03-2.78205E+03 2.22185E+04-1.36790E+01-1.27329E-11 6.39126E-10
 -1       269 6.61604E+03 3.32977E+03 1.44413E+04 1.59330E+01-7.98082E-11 1.55925E-08
 -1       270-9.93075E+02-5.47098E+02 6.97105E+03-2.16226E+00-3.75167E-11-9.16359E-09
 -1       271-3.49965E+06-4.32745E+05-2.67807E+05-1.36302E+06 2.91038E-10 1.32131E-08
 -1       272-3.59928E+06-6.32534E+05-1.73318E+05-1.35699E+06 4.90218E-09-4.65116E-09
 -1       273-3.55217E+06-5.00552E+05-6.32623E+04-1.34848E+06-1.40676E-09 2.13658E-08
 -1       274-3.53675E+06-5.51398E+05-3.56501E+04-1.37914E+06 9.20409E-10 1.81171E-08
 -1       275-3.56132E+06-5.05975E+05-1.47479E+04-1.34401E+06-9.24956E-10-2.15459E-09
 -1       276-3.52508E+06-5.45987E+05-7.84816E+03-1.38668E+06 4.26508E-09 1.56206E-10
 -1       277-3.56417E+06-5.04839E+05-3.84829E+03-1.34159E+06 2.57933E-09 1.88834E-09
 -1       278-3.52161E+06-5.47767E+05-2.78309E+03-1.39042E+06-2.21758E-09 1.64753E-08
 -1       279-3.56513E+06-5.03899E+05-2.97007E+03-1.34053E+06 8.00355E-10 8.22752E-10
 -1       280-3.52154E+06-5.49087E+05-5.48291E+03-1.39115E+06-3.75619E-09-1.07802E-08
 -1       281-3.56434E+06-5.03509E+05-9.91935E+03-1.34090E+06 1.00249E-09 7.08678E-09
 -1       282-3.52780E+06-5.54360E+05-2.39625E+04-1.38810E+06 6.35509E-11 6.76937E-09
 -1       283-3.55879E+06-4.99298E+05-4.23558E+04-1.34326E+06 1.57891E-09 7.31598E-09
 -1       284-3.56897E+06-6.09372E+05-1.16166E+05-1.37386E+06-8.87439E-10 1.90630E-09
 -1       285-3.52365E+06-4.53884E+05-1.79487E+05-1.35298E+06-4.58385E-10-3.89991E-09
 -1       301 2.27359E+04-7.55853E+04 1.66102E+05-1.42544E+05-6.98492E-10 6.00107E-09
 -1       302 2.39332E+04-3.36634E+04 1.09090E+05-2.09208E+05 8.58336E-10 6.98060E-09
 -1       303 1.34134E+03-5.90460E+04 8.36862E+04-1.42496E+05-4.56566E-10-4.45652E-10
 -1       304 2.78366E+04-2.92756E+04 1.22633E+05-2.08790E+05 4.91127E-10-3.76076E-09
 -1       305 2.66526E+04-7.87247E+04 1.96008E+05-1.43011E+05-6.83940E-10 5.48243E-09
 -1       306-6.33809E+06-6.11570E+05-5.32391E+05-2.15561E+06-6.21003E-09-2.27883E-08
 -1       307-5.22526E+06-1.54432E+06-2.29474E+05-2.87621E+06-8.37463E-08 2.17406E-08
 -1       308-6.45996E+06-4.30430E+05-1.15578E+05-1.74398E+06-7.27232E-09 2.90092E-08
 -1       309-5.21411E+06-1.63788E+06-4.70699E+04-3.39646E+06 3.41298E-08-1.62654E-08
 -1       310-6.46690E+06-4.28607E+05-2.79504E+04-1.71322E+06-6.29370E-10-1.05138E-08
 -1       311-5.12203E+06-1.41830E+06 4.43399E+04-3.01131E+06 9.60754E-08-1.14414E-08
 -1       312-6.45442E+06-7.21207E+05-8.25529E+04-2.06649E+06 5.67525E-10 2.69647E-08
 -1       313-5.36012E+06-8.25521E+05 1.07088E+05-2.12739E+06-6.06269E-08 2.86855E-09
 -1       314-6.11380E+06-1.10338E+06-9.40761E+04-2.50611E+06 2.94312E-08-1.36097E-08
 -1       315-6.30178E+06-1.45995E+05 5.70483E+04-1.50312E+06-1.90812E-08 1.33332E-08
 -1       316-5.60417E+06-1.33358E+06-4.29781E+04-2.74969E+06-9.41436E-08-6.24350E-08
 -1       317-7.02183E+06 1.66859E+05-5.61893E+04-1.32911E+06 7.98154E-08-5.90589E-08
 -1       318-5.50884E+06-1.33598E+06-1.21580E+05-2.77891E+06-7.94753E-08 1.05902E-08
 -1       319-6.68724E+06-2.26626E+05-2.91409E+05-1.38676E+06-2.31339E-08 1.17288E-08
 -1       320-5.86539E+06-9.94920E+05-5.89637E+05-2.62554E+06 2.55677E-08-1.10595E-09
 -1       336 5.55719E+02-1.22219E+06-7.02848E+03 2.88567E+03-1.17825E-08-1.99998E-08
 -1       337-2.60585E+03-1.22338E+06-7.87615E+03-7.08320E+03-2.23029E-08 1.27957E-08
 -1       338 4.01233E+02-1.22232E+06-1.05269E+04 4.17021E+03-1.58343E-08 8.69477E-10
 -1       339-1.09059E+04-1.22877E+06-2.30864E+04-9.59366E+03-2.86855E-08-3.92356E-09
 -1       340 7.23185E+03-1.21716E+06-3.58599E+04 5.37325E+03-1.86192E-08 9.74978E-09
 -1       406 2.02413E+01 2.90207E+05 4.75908E+02-8.96518E-02 1.84059E-10 1.17877E-08
 -1       407 1.67476E+02 2.90293E+05 1.01102E+03-2.60557E+00-1.13687E-13 5.63875E-09
 -1       408 5.22208E+02 2.90134E+05 2.01946E+03 2.76156E+00 2.14982E-10 7.11793E-09
 -1       409 2.18474E+03 2.90938E+05 4.54589E+03-2.73238E+01-1.18234E-10-3.16504E-09
 -1       410 6.27420E+03 2.89560E+05 9.28040E+03 2.57539E+01 1.73713E-10 1.78306E-09
 -1       521-8.58785E+06-8.58082E+05-9.25131E+05-2.50689E+06-1.06811E-08 1.20199E-08
 -1       522-4.97652E+06-2.21383E+06-1.10713E+05-4.26637E+06-1.12428E-07-7.79983E-09
 -1       523-8.36593E+06-2.07228E+05-1.68415E+05-1.52653E+06-8.65839E-09-5.38494E-08
 -1       524-5.78047E+06-2.43213E+06-1.15567E+04-5.59500E+06 1.48945E-07-1.41561E-07
 -1       525-8.36070E+06-2.07964E+05-5.36800E+04-1.50054E+06 1.35544E-07-7.36327E-08
 -1       526-4.91558E+06-2.06917E+06 2.22687E+05-4.39492E+06-2.84708E-08-2.66300E-09
 -1       527-8.68850E+06-9.72309E+05-3.35690E+05-2.42748E+06 1.86265E-08-1.02009E-08
 -1       528-4.88958E+06-7.64580E+05 4.27570E+05-1.99377E+06 8.62055E-08 3.75803E-09
 -1       529-7.87084E+06-1.87306E+06-3.58633E+05-3.45488E+06-9.89530E-10-1.47047E-08
 -1       530-7.70581E+06 9.15554E+05 2.52114E+05-8.76820E+05-6.16274E-09 7.27341E-08
 -1       531-6.38379E+06-2.27356E+06-7.66144E+04-3.84646E+06-1.44915E-07 6.14091E-09
 -1       532-9.85296E+06 1.65250E+06-5.57271E+03-9.60442E+05 9.89858E-08-1.53454E-07
 -1       533-6.22073E+06-2.27482E+06-1.37970E+05-3.86489E+06 3.09738E-08-2.04129E-07
 -1       534-8.31056E+06 9.50569E+05-1.16386E+05-8.31784E+05-4.46962E-08 1.53947E-07
 -1       535-7.54676E+06-1.82944E+06-8.66322E+05-3.58482E+06-1.14669E-08 9.55042E-08
 -1       536-4.13364E+05-2.25939E+04 3.36324E+04-1.65700E+04-3.40776E-09 2.60807E-08
 -1       537-3.20943E+05 2.49560E+04 3.74117E+04 4.04992E+04-4.37809E-08 3.48518E-08
 -1       538-3.68442E+05-2.05423E+03 1.09066E+04-2.49148E+04 1.07664E-08 4.19891E-08
 -1       539-3.49396E+05 3.30397E+03 9.83795E+03 4.52815E+04 5.60441E-08 3.67818E-08
 -1       540-3.85420E+05-5.52569E+02-8.42707E+02-2.13706E+04 2.13947E-09 4.39940E-08
 -1       541-2.91374E+05 2.85651E+03 1.65935E+04 2.69522E+04 1.34060E-09 3.77729E-08
 -1       542-4.24899E+05-2.88103E+03-1.11705E+04-6.54461E+03 1.01297E-08 2.38090E-08
 -1       543-2.62330E+05 3.62954E+03 2.10458E+04-6.68948E+03-2.88960E-08-5.92200E-09
 -1       544-4.13693E+05-1.95073E+03-9.91740E+03 1.22340E+04-6.27756E-09-1.15940E-08
 -1       545-3.16957E+05 5.46175E+02 8.44367E+03-3.66479E+04 6.88033E-09-3.76047E-08
 -1       546-3.71705E+05 1.36396E+03-3.52660E+03 2.34038E+04 3.44215E-09-3.64831E-08
 -1       547-3.56805E+05-3.59142E+03-4.58620E+03-4.70058E+04-4.55730E-08-4.50327E-08
 -1       548-3.74867E+05 3.01271E+03-1.26041E+04 2.26234E+04-4.52478E-08-3.62911E-08
 -1       549-3.15697E+05-1.56560E+04-1.66989E+04-3.35428E+04-2.26298E-08-1.98270E-08
 -1       550-4.11556E+05 1.23953E+04-5.31504E+04 9.90456E+03 3.21438E-09-3.86171E-09
 -1       551 2.00378E+04-6.19257E+05 2.49926E+04-1.02160E+06-5.14265E-08-1.05065E-08
 -1       552 4.49860E+04-6.33255E+05 3.25688E+04-1.45537E+06-3.87226E-08 1.59271E-08
 -1       553 3.21973E+04-6.38978E+05 4.71851E+04-1.01768E+06-6.22385E-08 1.11031E-08
 -1       554 7.25455E+04-6.30678E+05 9.86012E+04-1.45686E+06-3.76021E-08 7.94444E-09
 -1       555 6.05842E+04-6.57740E+05 1.74754E+05-1.01865E+06-6.31553E-08-4.39104E-09
 -1       556 1.10631E+05-2.03607E+05 6.52726E+04-2.54451E+05-1.08266E-08-3.25963E-09
 -1       557 1.92578E+05-2.69565E+05 3.46505E+04-3.20353E+05-4.38740E-09-4.10000E-09
 -1       558 1.08021E+05-2.10992E+05 1.34468E+04-2.48147E+05-1.38680E-08 1.98997E-09
 -1       559 1.78910E+05-2.77710E+05 7.00244E+03-3.27256E+05 2.11003E-10 7.21775E-09
 -1       560 1.03747E+05-2.08234E+05 2.56989E+03-2.51016E+05-4.96220E-09 2.85581E-09
 -1       561 1.72885E+05-2.75767E+05 1.49630E+03-3.31137E+05-2.51021E-09 9.10404E-09
 -1       562 1.00362E+05-2.06041E+05 4.06543E+02-2.53447E+05-4.09636E-09-8.88213E-09
 -1       563 1.68910E+05-2.74044E+05 3.66867E+02-3.33689E+05-5.16593E-09-5.83327E-09
 -1       564 9.81413E+04-2.04632E+05 8.41375E+01-2.55017E+05 6.47560E-10 6.61930E-09
 -1       565 1.66632E+05-2.73057E+05 1.24515E+02-3.35130E+05-1.23509E-09-9.99717E-09
 -1       566 9.71390E+04-2.03987E+05 1.78993E+01-2.55725E+05 4.83851E-10 6.60293E-10
 -1       567 1.66008E+05-2.72773E+05-5.89681E+01-3.35440E+05 1.69875E-08-6.90852E-09
 -1       568 9.73983E+04-2.04162E+05-3.19612E+02-2.55627E+05 5.70435E-09 2.77942E-09
 -1       569 1.66216E+05-2.72666E+05-7.76860E+02-3.33852E+05-2.72848E-09 8.96034E-09
 -1       570 9.95981E+04-2.05983E+05-1.84063E+03-2.55336E+05 5.22414E-09 4.21096E-09
 -1       571 2.16702E+05 7.98393E+03 1.17719E+04-5.63067E+04-1.47793E-10 7.42261E-09
 -1       572 2.18448E+05 2.80833E+03 5.76776E+03-6.17477E+04 8.88122E-10 1.65755E-10
 -1       573 2.17401E+05 7.00689E+02 2.56243E+03-5.61744E+04 2.03272E-09 3.87945E-09
 -1       574 2.17604E+05 2.61572E+02 1.28408E+03-6.18988E+04-1.32422E-09 1.27884E-08
 -1       575 2.17479E+05 7.22762E+01 6.05487E+02-5.61569E+04-2.48974E-10 1.72899E-08
 -1       576 2.17490E+05 5.49620E+01 3.08790E+02-6.19190E+04-3.54243E-09-7.70797E-10
 -1       577 2.17494E+05 3.64021E+01 1.53035E+02-5.61546E+04-3.21052E-09 8.64020E-10
 -1       578 2.17485E+05 4.11080E+01 8.54399E+01-6.19215E+04-1.74259E-09 3.39742E-09
 -1       579 2.17515E+05 2.94868E+01 5.55262E+01-5.61545E+04 4.42014E-10-1.55615E-09
 -1       580 2.17513E+05 2.89106E+01 5.77140E+01-6.19182E+04-3.96358E-09 3.57431E-10
 -1       581 2.17548E+05 1.56903E+01 8.40656E+01-5.61579E+04-1.89175E-10-8.53561E-09
 -1       582 2.17573E+05 3.07465E+01 1.65303E+02-6.18834E+04 3.81988E-10-4.53019E-09
 -1       583 2.17587E+05 6.64750E+01 3.19157E+02-5.61893E+04-1.90303E-08 8.40600E-10
 -1       584 2.17739E+05 3.18520E+02 7.17619E+02-6.16195E+04-3.95876E-08-6.52426E-09
 -1       585 2.17555E+05 9.47808E+02 1.45753E+03-5.64221E+04-2.00098E-08 4.54384E-09
 -1       586-2.64889E+03 7.12578E+04-3.29410E+03-1.93547E+05-5.18867E-10-3.63787E-09
 -1       587-6.12119E+02 7.08434E+04-1.39150E+02-2.13025E+05-7.56700E-10-4.16821E-09
 -1       588 7.35627E+02 7.08935E+04 2.90046E+03-1.93450E+05-4.12911E-10 8.90213E-09
 -1       589 3.98121E+03 7.24690E+04 8.13239E+03-2.12811E+05-1.20235E-09 8.87940E-09
 -1       590 1.16745E+04 6.99800E+04 1.72982E+04-1.93771E+05-4.92946E-10 8.24002E-10
 -1       591-4.52199E+04-1.21075E+04-1.53087E+04-2.22963E+04-2.98019E-09-6.99674E-09
 -1       592-4.70862E+04-1.54357E+04-8.29203E+03-2.57971E+04-3.12178E-09-5.65933E-09
 -1       593-4.67613E+04-1.09862E+04-3.45190E+03-2.34087E+04-2.99815E-09 3.14685E-09
 -1       594-4.49597E+04-1.32033E+04-1.72163E+03-2.58944E+04-2.21223E-09 8.09038E-09
 -1       595-4.68792E+04-1.09815E+04-7.90981E+02-2.34596E+04-6.07605E-09 1.81177E-08
 -1       596-4.48152E+04-1.31011E+04-4.02914E+02-2.58786E+04-1.25365E-09 9.18837E-09
 -1       597-4.68941E+04-1.09916E+04-2.21144E+02-2.34616E+04-3.92852E-09-1.16281E-08
 -1       598-4.48012E+04-1.30972E+04-1.80978E+02-2.58742E+04-1.17776E-08-7.56381E-09
 -1       599-4.68929E+04-1.09918E+04-2.35183E+02-2.34612E+04-3.34717E-09-2.73428E-09
 -1       600-4.48162E+04-1.31023E+04-4.40089E+02-2.58777E+04 2.37856E-09 8.41555E-09
 -1       601-4.68745E+04-1.09814E+04-8.69879E+02-2.34582E+04 1.28784E-09 5.26120E-09
 -1       602-4.49750E+04-1.32146E+04-1.89667E+03-2.58927E+04-3.99541E-09 1.29626E-09
 -1       603-4.67427E+04-1.09886E+04-3.80409E+03-2.34024E+04-1.23009E-10 1.22805E-09
 -1       604-4.73285E+04-1.56634E+04-9.13800E+03-2.57707E+04 7.53744E-10 5.36215E-09
 -1       605-4.50314E+04-1.22346E+04-1.68705E+04-2.21877E+04 2.63685E-09 3.99723E-09
 -1       606 2.78541E+04-1.03997E+04-1.87033E+04 2.69762E+04-9.45874E-10-4.85761E-09
 -1       607 2.46524E+04-3.36526E+03-9.31322E+03 3.02860E+04-1.23600E-09-8.23570E-09
 -1       608 2.64679E+04-5.77788E+02-4.17063E+03 2.67638E+04-3.63798E-12 7.21184E-09
 -1       609 2.61078E+04-1.60972E+02-2.10643E+03 3.05235E+04-7.93079E-10 1.87238E-08
 -1       610 2.62997E+04 1.47866E+01-1.00614E+03 2.67398E+04-9.91531E-09 1.00617E-08
 -1       611 2.62329E+04 2.71399E+01-5.07296E+02 3.05494E+04-2.13622E-08 5.12682E-09
 -1       612 2.62545E+04 3.15661E+01-2.42446E+02 2.67375E+04-9.08312E-09 6.08725E-09
 -1       613 2.62301E+04 3.64254E+01-1.09809E+02 3.05525E+04-3.80169E-09 5.21368E-10
 -1       614 2.62297E+04 3.24554E+01-2.91671E+01 2.67367E+04 8.36644E-09 8.02220E-09
 -1       615 2.62172E+04 4.24305E+01 3.81600E+01 3.05529E+04 1.69766E-08-2.92857E-10
 -1       616 2.62108E+04 3.87741E+01 1.21600E+02 2.67370E+04 6.56337E-09-5.21254E-09
 -1       617 2.62252E+04 7.24574E+01 2.80475E+02 3.05524E+04 1.76128E-08-5.23733E-09
 -1       618 2.61815E+04 1.22788E+02 5.66320E+02 2.67371E+04 1.27689E-08-4.48154E-09
 -1       619 2.64211E+04 5.12936E+02 1.27248E+03 3.05516E+04 2.16539E-09-9.34278E-10
 -1       620 2.59908E+04 1.46809E+03 2.55776E+03 2.67360E+04 3.51440E-09-2.10684E-09
 -1       621 2.90607E+02 2.25789E+05 2.62860E+03 1.28407E+04-1.21986E-10 1.51058E-08
 -1       622 3.47402E+02 2.26434E+05 2.37625E+03 1.87021E+04-4.78622E-11 7.93284E-09
 -1       623 1.90005E+01 2.25951E+05 2.92152E+03 1.27794E+04-3.79856E-11 3.63184E-09
 -1       624 1.37845E+03 2.27371E+05 5.71272E+03 1.87643E+04 1.43473E-10 4.90820E-09
 -1       625 1.38544E+03 2.24832E+05 1.00089E+04 1.27783E+04 1.45519E-10-4.57680E-09
 -1       626 1.95280E+05 5.22173E+04 4.14932E+03 1.02866E+05-2.36514E-09-4.48017E-09
 -1       627 1.92875E+05 5.38752E+04 1.99953E+03 1.06914E+05-7.57609E-10 3.84603E-09
 -1       628 1.95412E+05 5.02803E+04 8.44691E+02 1.03521E+05 2.15277E-09 1.22184E-08
 -1       629 1.92305E+05 5.33738E+04 4.13756E+02 1.07154E+05-2.66937E-10-1.11445E-08
 -1       630 1.95420E+05 5.01893E+04 1.91151E+02 1.03542E+05-1.27056E-09-1.35414E-08
 -1       631 1.92237E+05 5.33603E+04 1.02299E+02 1.07154E+05 1.63573E-09 5.32778E-09
 -1       632 1.95411E+05 5.01963E+04 6.63134E+01 1.03533E+05-1.29967E-09-7.34303E-09
 -1       633 1.92223E+05 5.33656E+04 7.23975E+01 1.07147E+05 5.83896E-10 1.34656E-09
 -1       634 1.95400E+05 5.01972E+04 1.15608E+02 1.03529E+05 2.25737E-09 3.47882E-09
 -1       635 1.92228E+05 5.33669E+04 2.33331E+02 1.07147E+05 3.22666E-09 2.67460E-09
 -1       636 1.95389E+05 5.01957E+04 4.70753E+02 1.03526E+05-1.66881E-09-8.96921E-09
 -1       637 1.92326E+05 5.34414E+04 1.03444E+03 1.07143E+05 2.17608E-09-1.00258E-08
 -1       638 1.95350E+05 5.04257E+04 2.12564E+03 1.03421E+05-7.70569E-10 4.73301E-09
 -1       639 1.93440E+05 5.49946E+04 5.02868E+03 1.06812E+05-3.34808E-09 5.41968E-09
 -1       640 1.95200E+05 5.50559E+04 1.04355E+04 1.01458E+05-3.85626E-10 9.40872E-10
 -1       656 5.19166E+04-1.31774E+06-1.25325E+05-4.88458E+02-1.16415E-10-3.71688E-09
 -1       657-6.86284E+04-1.37432E+06-1.03699E+05 7.58314E+03-3.33785E-10-1.63618E-08
 -1       658 1.64910E+04-1.33386E+06-6.37069E+04-1.90275E+03 6.05723E-10 1.45909E-09
 -1       659-7.37799E+04-1.37676E+06-1.10466E+05 8.58051E+03 4.05635E-10 5.77669E-09
 -1       660 5.70562E+04-1.31531E+06-1.36961E+05-1.48582E+03-9.38599E-10-4.66335E-09
 -1       661 1.69388E+05 1.83289E+04 1.65632E+04 6.62360E+04 2.83308E-10-8.81300E-10
 -1       662 1.78200E+05 3.11368E+04 1.11612E+04 6.31472E+04-2.32205E-10 2.84274E-09
 -1       663 1.72637E+05 2.36453E+04 3.90412E+03 6.52957E+04-8.81982E-10-3.47177E-09
 -1       664 1.74437E+05 2.49157E+04 2.33447E+03 6.42924E+04-1.20315E-09-4.86034E-09
 -1       665 1.73126E+05 2.43752E+04 9.20887E+02 6.51567E+04-1.22265E-09-1.24447E-09
 -1       666 1.73862E+05 2.40780E+04 5.37493E+02 6.44719E+04-1.84811E-09 9.28600E-09
 -1       667 1.73209E+05 2.44610E+04 2.83894E+02 6.51244E+04-2.20950E-09 2.75406E-09
 -1       668 1.73772E+05 2.40123E+04 2.85627E+02 6.45187E+04 6.93092E-09-2.38141E-09
 -1       669 1.73215E+05 2.44389E+04 3.83686E+02 6.51105E+04 2.54495E-09 8.39390E-09
 -1       670 1.73867E+05 2.42176E+04 8.32697E+02 6.45201E+04 4.25687E-09 9.46386E-10
 -1       671 1.73115E+05 2.42598E+04 1.47756E+03 6.51214E+04 4.59117E-10 2.98724E-09
 -1       672 1.74727E+05 2.56552E+04 3.77957E+03 6.43123E+04-1.72349E-09-4.82089E-09
 -1       673 1.72359E+05 2.30374E+04 6.33366E+03 6.53044E+04-3.16174E-09-2.60775E-09
 -1       674 1.80757E+05 3.58291E+04 1.81128E+04 6.25396E+04-2.47041E-09-5.96083E-09
 -1       675 1.67124E+05 1.43705E+04 2.68854E+04 6.67869E+04 2.58751E-10 3.58159E-09
 -1       676 2.05306E+01-2.47031E+05-9.53614E+02 2.18050E+01-2.17725E-09-5.37674E-09
 -1       677-2.53224E+02-2.47261E+05-1.74524E+03-4.35839E+01-1.08594E-09-1.04747E-08
 -1       678 1.69054E+02-2.46867E+05-3.08513E+03 2.17640E+01-1.61606E-09-2.66261E-09
 -1       679-3.08597E+03-2.49124E+05-7.32881E+03-4.34274E+01-1.50794E-09-9.57507E-09
 -1       680 1.84172E+03-2.45170E+05-1.18116E+04 2.14013E+01-5.02951E-10-1.48032E-09
 -1       771-2.62873E+06-5.12788E+05-7.54273E+04-1.14631E+06-1.57961E-08-1.44355E-08
 -1       772-2.59597E+06-5.60516E+05-3.98077E+04-1.20041E+06-1.14305E-08 3.63980E-09
 -1       773-2.64137E+06-5.02813E+05-1.84179E+04-1.15081E+06-7.39237E-09 5.34783E-09
 -1       774-2.58711E+06-5.52510E+05-8.62990E+03-1.20880E+06 1.13432E-08-5.36056E-09
 -1       775-2.64615E+06-4.99447E+05-5.23172E+03-1.15194E+06 3.78350E-09 7.10861E-09
 -1       776-2.58886E+06-5.52388E+05-2.17087E+03-1.21434E+06-1.71713E-09 6.42285E-09
 -1       777-2.64998E+06-4.96620E+05-1.90149E+03-1.15290E+06-3.12866E-09-7.31234E-10
 -1       778-2.59111E+06-5.52417E+05-6.35084E+02-1.21902E+06 1.39698E-09 6.01813E-09
 -1       779-2.65317E+06-4.94209E+05-8.67203E+02-1.15373E+06-1.14596E-08-2.59752E-09
 -1       780-2.59312E+06-5.52396E+05-2.59541E+02-1.22282E+06-1.03464E-08 6.14000E-09
 -1       781-2.65564E+06-4.92294E+05-4.97927E+02-1.15438E+06-1.77679E-08 1.01863E-10
 -1       782-2.59470E+06-5.52354E+05-3.46916E+02-1.22560E+06-1.59780E-08-3.48837E-09
 -1       783-2.65732E+06-4.90997E+05-7.29278E+02-1.15484E+06 1.61162E-09-7.96331E-09
 -1       784-2.59605E+06-5.52690E+05-1.47719E+03-1.22728E+06-5.22414E-09-7.61315E-09
 -1       785-2.65791E+06-4.90536E+05-2.78274E+03-1.15487E+06-1.44482E-08 1.48157E-09
 -1       786 1.49563E+05-9.39450E+03 2.17341E+04-9.25411E+01 1.18729E-09-3.44062E-09
 -1       787 1.58984E+05 1.08759E+04 1.53763E+04 2.38972E+01 2.18235E-09 3.81692E-09
 -1       788 1.53196E+05-1.47265E+03 5.62449E+03-7.10489E+01 1.08657E-09 1.55433E-09
 -1       789 1.54751E+05 1.70384E+03 3.53275E+03-1.10938E+01-4.39113E-11-5.46470E-09
 -1       790 1.53796E+05-2.29913E+02 1.43478E+03-5.75533E+01-5.71701E-10 4.72227E-09
 -1       791 1.54050E+05 2.66362E+02 8.37225E+02-3.50781E+01-9.69236E-10 1.34749E-08
 -1       792 1.53897E+05-3.62481E+01 3.71890E+02-4.70647E+01-7.39932E-10 5.89435E-09
 -1       793 1.53934E+05 4.59706E+01 2.22901E+02-5.59077E+01-5.08256E-10 1.41321E-09
 -1       794 1.53913E+05-9.66328E+00 1.33313E+02-3.67234E+01 4.49978E-10-3.43977E-10
 -1       795 1.53927E+05 3.77597E+01 1.46880E+02-7.90669E+01-9.71263E-10 7.39100E-09
 -1       796 1.53904E+05-2.80387E+01 1.92215E+02-2.39050E+01 4.80278E-10-2.15105E-09
 -1       797 1.54007E+05 2.02800E+02 4.30240E+02-1.10396E+02-7.13661E-10-1.79767E-10
 -1       798 1.53833E+05-1.74585E+02 6.71690E+02-5.39417E+00 2.52839E-10-1.41360E-08
 -1       799 1.54509E+05 1.28872E+03 1.82457E+03-1.57829E+02 5.44097E-10-6.37397E-09
 -1       800 1.53402E+05-1.11309E+03 2.57536E+03 2.35292E+01 1.86429E-10 1.26951E-08
 -1       801 7.02351E+04-2.48247E+06-2.29664E+05 4.35080E+04 1.68948E-08-2.52339E-09
 -1       802-8.26165E+04-2.27426E+06-1.01100E+05-5.40704E+04 4.61932E-08 8.99036E-10
 -1       803 1.06784E+04-2.37430E+06-3.49621E+04 1.16271E+05 3.48809E-08 2.70013E-08
 -1       804 2.66322E+04-2.24210E+06 4.19832E+04-1.60184E+04 3.46436E-08 2.53686E-08
 -1       805-4.01783E+04-2.51413E+06 2.93043E+04 5.44795E+03 1.31295E-08 1.96972E-08
 -1       806-2.37895E+05-4.67895E+04-1.82602E+04-9.48115E+04-4.43515E-09-1.70849E-09
 -1       807-2.39345E+05-4.37974E+04-8.97100E+03-9.92207E+04 1.86037E-09 9.34790E-11
 -1       808-2.38391E+05-4.02142E+04-3.80568E+03-9.79308E+04 4.00905E-09 1.34423E-08
 -1       809-2.37454E+05-4.12818E+04-1.86077E+03-9.94487E+04-5.25074E-09 4.07613E-09
 -1       810-2.38469E+05-3.99843E+04-8.52466E+02-9.80691E+04 1.26010E-09 8.08495E-09
 -1       811-2.37309E+05-4.11808E+04-4.23444E+02-9.94226E+04 1.65346E-09-9.26946E-09
 -1       812-2.38482E+05-4.00029E+04-2.12878E+02-9.80690E+04-4.06999E-09-1.37311E-08
 -1       813-2.37290E+05-4.11826E+04-1.36555E+02-9.94095E+04-4.69299E-09-9.28776E-09
 -1       814-2.38478E+05-4.00096E+04-1.32107E+02-9.80662E+04-1.71349E-09-9.28662E-09
 -1       815-2.37294E+05-4.11843E+04-2.10362E+02-9.94055E+04 2.22508E-09-1.39607E-09
 -1       816-2.38464E+05-4.00080E+04-3.96699E+02-9.80639E+04-9.45874E-10-4.66116E-10
 -1       817-2.37362E+05-4.12220E+04-8.51206E+02-9.93986E+04 1.77397E-09 8.75139E-09
 -1       818-2.38414E+05-4.01269E+04-1.73545E+03-9.80076E+04 1.22782E-09-9.76570E-09
 -1       819-2.38314E+05-4.22696E+04-4.08417E+03-9.91746E+04-3.03544E-09-6.25823E-09
 -1       820-2.38092E+05-4.32084E+04-8.31227E+03-9.66855E+04-1.21781E-09 6.52278E-09
 -1       821-2.95961E+05 1.63717E+04-3.78628E+04 2.97015E+02 1.57481E-09-4.20550E-09
 -1       822-3.12364E+05-1.89530E+04-2.67928E+04-1.00117E+03-1.32058E-09-5.61158E-09
 -1       823-3.02290E+05 2.56711E+03-9.80617E+03 3.13117E+02-4.19522E-11 8.10815E-10
 -1       824-3.04974E+05-2.97083E+03-6.16881E+03-8.35808E+02 4.04401E-10 1.83522E-08
 -1       825-3.03348E+05 4.01511E+02-2.53825E+03 1.31647E+02-6.53230E-10 1.82922E-09
 -1       826-3.03735E+05-4.73101E+02-1.52663E+03-3.57169E+02-2.55994E-09 2.87230E-09
 -1       827-3.03527E+05 7.06764E+01-7.97430E+02-1.65530E+02-2.69649E-09-1.29538E-08
 -1       828-3.03570E+05-1.44435E+02-6.98922E+02 2.21631E+02-4.12816E-09 3.90824E-09
 -1       829-3.03513E+05 7.31466E+01-8.12388E+02-4.47163E+02-3.56472E-10-4.39394E-09
 -1       830-3.03775E+05-4.90197E+02-1.58325E+03 6.44647E+02 1.70363E-09-1.79516E-08
 -1       831-3.03323E+05 4.16747E+02-2.62558E+03-5.88555E+02-3.09360E-09-1.01675E-08
 -1       832-3.05043E+05-3.07976E+03-6.39834E+03 7.25142E+02-2.41188E-09 3.12048E-09
 -1       833-3.02247E+05 2.66099E+03-1.01695E+04-5.27658E+02-7.73710E-10 3.84989E-09
 -1       834-3.12668E+05-1.96517E+04-2.77791E+04 4.27199E+02-2.11126E-09-8.63110E-10
 -1       835-2.95699E+05 1.69755E+04-3.92682E+04-2.90599E+02 5.54641E-09 7.47423E-09
 -1       836-1.00027E+03 2.79039E+05 1.69017E+04-1.89657E+04 1.35515E-10 6.27733E-09
 -1       837 3.69355E+03 2.84289E+05 1.44578E+04-3.81189E+04 9.31323E-10 1.69348E-09
 -1       838-3.78823E+02 2.80491E+05 1.49482E+04-1.88961E+04 8.93124E-10 7.50674E-09
 -1       839 9.58399E+03 2.88678E+05 2.84911E+04-3.81537E+04 1.52977E-09 6.22117E-09
 -1       840-2.89919E+03 2.74607E+05 4.55247E+04-1.89298E+04 8.31278E-10 2.86491E-10
 -1       856-7.89758E+04 7.56665E+03-1.99405E+04-4.33077E+02-9.47125E-10 5.22505E-09
 -1       857-8.72096E+04-8.87618E+03-1.37282E+04 4.69482E+03-2.41016E-10-5.97674E-09
 -1       858-8.22298E+04 1.06025E+03-5.17492E+03-4.55059E+02-2.72416E-09-1.72417E-09
 -1       859-8.34735E+04-1.23387E+03-3.12485E+03 4.72962E+03-1.03611E-10-6.42768E-09
 -1       860-8.27162E+04 1.47523E+02-1.31298E+03-4.67975E+02 1.03230E-09-4.25922E-09
 -1       861-8.29135E+04-1.63684E+02-7.29337E+02 4.74732E+03-2.68454E-09-1.59216E-08
 -1       862-8.27919E+04 1.94902E+01-3.17312E+02-4.72777E+02 3.27883E-09-7.50433E-09
 -1       863-8.28231E+04-1.14262E+01-1.47679E+02 4.74957E+03 9.52080E-09 5.89012E-10
 -1       864-8.28068E+04-1.36204E+00-2.77235E+01-4.70234E+02 2.44731E-09 2.16369E-09
 -1       865-8.27905E+04 3.30990E+01 7.99097E+01 4.73658E+03 5.07072E-09-2.67758E-09
 -1       866-8.28228E+04-2.54594E+01 1.98069E+02-4.59783E+02-7.24725E-10 1.57162E-09
 -1       867-8.26871E+04 2.12387E+02 5.11493E+02 4.70817E+03-9.38712E-10 2.17710E-09
 -1       868-8.29065E+04-1.78591E+02 8.55493E+02-4.41825E+02-4.20869E-10-2.14874E-09
 -1       869-8.20523E+04 1.48389E+03 2.28702E+03 4.66115E+03-2.07149E-09-1.61266E-08
 -1       870-8.34521E+04-1.26415E+03 3.31744E+03-4.12763E+02 4.19163E-10 1.20031E-09
 -1       871-4.43408E+03-1.03269E+04-1.45252E+04 9.61084E+04 1.80080E-09-3.52702E-09
 -1       872-1.88835E+03-1.35983E+04-5.95137E+03 1.24602E+05 2.58183E-09-1.59898E-08
 -1       873-3.88394E+00-1.20680E+04 7.67591E+02 9.58976E+04 1.23896E-09-3.45040E-09
 -1       874 2.24240E+03-1.00087E+04 8.05567E+03 1.24642E+05 8.84029E-10-5.03678E-09
 -1       875 5.22384E+03-1.39788E+04 1.79171E+04 9.60745E+04 4.45652E-10-8.85939E-09
 -1       876 2.33439E+05 4.00287E+04 1.23390E+04 9.44860E+04-1.33161E-09 5.09499E-09
 -1       877 2.34175E+05 4.27076E+04 6.58936E+03 9.81027E+04-1.76624E-09 1.20816E-08
 -1       878 2.34592E+05 3.86635E+04 2.76062E+03 9.54994E+04 6.28461E-09 2.38515E-10
 -1       879 2.32496E+05 4.10354E+04 1.37531E+03 9.81887E+04 2.34741E-09 1.74492E-09
 -1       880 2.34675E+05 3.86487E+04 6.40384E+02 9.55407E+04 1.67029E-09 3.00247E-09
 -1       881 2.32385E+05 4.09642E+04 3.41372E+02 9.81706E+04 2.04454E-09-7.13619E-09
 -1       882 2.34683E+05 3.86590E+04 2.17356E+02 9.55419E+04 4.87262E-09 1.51146E-09
 -1       883 2.32377E+05 4.09607E+04 2.31994E+02 9.81652E+04 2.10844E-09 7.17205E-09
 -1       884 2.34678E+05 3.86565E+04 3.67527E+02 9.55420E+04 5.39501E-10-2.18949E-09
 -1       885 2.32406E+05 4.09659E+04 7.37986E+02 9.81744E+04 4.96988E-09-8.72171E-09
 -1       886 2.34650E+05 3.86350E+04 1.48693E+03 9.55391E+04 4.41135E-09-2.87901E-09
 -1       887 2.32667E+05 4.11372E+04 3.24785E+03 9.82121E+04-4.60383E-09 1.47393E-08
 -1       888 2.34445E+05 3.86710E+04 6.54447E+03 9.54351E+04 2.55287E-09-1.50749E-09
 -1       889 2.36566E+05 4.51867E+04 1.56340E+04 9.80896E+04 5.47173E-09-2.04523E-09
 -1       890 2.31779E+05 4.18385E+04 2.92816E+04 9.29385E+04 5.38512E-09 1.92631E-09
 -1       891-1.36426E+02-1.31837E+05-1.57337E+03 2.43286E+04-1.36833E-09 2.87014E-09
 -1       892-2.39425E+02-1.32218E+05-1.70499E+03 3.68289E+04-1.35287E-10-2.40129E-09
 -1       893-3.23469E+01-1.31886E+05-2.42985E+03 2.43337E+04-1.29467E-09 2.25782E-09
 -1       894-1.31384E+03-1.33144E+05-5.04022E+03 3.66969E+04-2.66618E-09 4.16958E-09
 -1       895-1.02992E+03-1.30835E+05-8.88041E+03 2.44591E+04-9.47409E-10-7.00493E-09
 -1       956-2.95106E+05-4.18272E+03-1.05117E+04 2.00315E+04-6.43922E-10-7.00402E-09
 -1       957-2.97181E+05-1.41609E+03-5.39618E+03 2.41232E+04-7.94898E-10-1.55433E-08
 -1       958-2.96041E+05-1.18104E+02-2.43121E+03 1.99073E+04 6.99856E-09-8.53652E-09
 -1       959-2.96206E+05-2.55562E+01-1.24179E+03 2.42590E+04 8.26344E-09 6.83963E-09
 -1       960-2.96126E+05 3.02044E+01-6.05424E+02 1.98953E+04 2.57114E-09 2.83671E-09
 -1       961-2.96136E+05 2.75874E+01-3.21229E+02 2.42727E+04-5.03542E-09 1.79170E-09
 -1       962-2.96143E+05 2.65245E+01-1.83945E+02 1.98934E+04 3.41697E-09-5.53541E-09
 -1       963-2.96133E+05 2.92361E+01-1.47776E+02 2.42752E+04 9.06846E-09-2.85286E-09
 -1       964-2.96147E+05 2.87118E+01-1.79580E+02 1.98928E+04 3.93959E-09-2.28806E-09
 -1       965-2.96144E+05 3.22874E+01-3.10477E+02 2.42752E+04 1.77926E-09 6.59634E-09
 -1       966-2.96137E+05 3.66945E+01-5.82966E+02 1.98935E+04-1.00329E-09-3.93482E-09
 -1       967-2.96219E+05-1.42951E+01-1.19572E+03 2.42669E+04 8.28095E-10 7.66704E-10
 -1       968-2.96062E+05-1.01775E+02-2.34013E+03 1.99012E+04 6.64386E-09-1.29461E-09
 -1       969-2.97167E+05-1.34925E+03-5.19572E+03 2.41778E+04 1.12129E-08-3.62206E-09
 -1       970-2.95168E+05-4.01270E+03-1.01204E+04 1.99842E+04 5.00449E-09-1.75623E-09
 -1       971-2.77598E+05-1.44651E+03-8.01390E+03 1.32313E+04-3.46290E-09-4.39283E-09
 -1       972-2.79544E+05-1.03941E+03-4.36429E+03 1.84642E+04-3.69391E-09-4.75643E-09
 -1       973-2.78490E+05-1.38488E+01-1.95437E+03 1.31212E+04 3.23644E-09-6.92307E-09
 -1       974-2.78623E+05-1.48989E+01-1.01254E+03 1.85838E+04 2.95859E-09-8.55539E-09
 -1       975-2.78559E+05 2.40387E+01-5.05236E+02 1.31110E+04-1.20781E-09 1.11085E-08
 -1       976-2.78569E+05 2.73991E+01-2.89846E+02 1.85964E+04-2.72030E-09 4.60443E-09
 -1       977-2.78573E+05 2.40919E+01-2.07451E+02 1.31085E+04 5.31145E-10-3.82363E-09
 -1       978-2.78573E+05 3.22854E+01-2.38781E+02 1.85999E+04 9.67890E-09-5.41854E-09
 -1       979-2.78573E+05 3.06776E+01-3.80228E+02 1.31075E+04 4.76842E-09 1.09844E-09
 -1       980-2.78601E+05 3.46811E+01-7.32031E+02 1.86005E+04 3.95450E-09 1.67279E-09
 -1       981-2.78549E+05 4.89121E+01-1.41666E+03 1.31079E+04 6.13113E-10 1.57462E-09
 -1       982-2.78795E+05-6.99400E+01-2.92757E+03 1.85948E+04-2.74156E-09-3.46077E-10
 -1       983-2.78371E+05-4.17256E+01-5.68796E+03 1.31133E+04 1.95882E-09 1.27993E-08
 -1       984-2.81530E+05-3.04044E+03-1.27374E+04 1.85200E+04-2.87991E-09 8.81471E-09
 -1       985-2.75796E+05-4.20383E+03-2.33900E+04 1.31869E+04 1.84264E-09 1.28057E-09
 -3
    1PSTEP                        17           9           1          
  100CL  109 5.68237E-01         409                     0    9           1
 -4  DISP        4    1
 -5  D1          1    2    1    0
 -5  D2          1    2    2    0
 -5  D3          1    2    3    0
 -5  ALL         1    2    0    0    1ALL
 -1         1 4.15549E-04 0.00000E+00 0.00000E+00
 -1         2 3.79796E-04-4.46541E-29-6.61744E-24
 -1         3 2.04449E-04 2.94736E-27 0.00000E+00
 -1         5 1.25388E-04-2.56540E-27 3.30872E-24
 -1         8 3.92015E-04-7.72410E-07 0.00000E+00
 -1         9 3.76621E-04-1.57448E-06 0.00000E+00
 -1        10 1.87117E-04-2.70776E-06 0.00000E+00
 -1        12 1.25434E-04 6.27228E-07 0.00000E+00
 -1        15 3.63806E-04-8.58176E-07 0.00000E+00
 -1        16 3.68861E-04-1.95514E-06 0.00000E+00
 -1        17 1.32754E-04-5.83689E-06 0.00000E+00
 -1        18 1.24306E-04 9.27975E-06 0.00000E+00
 -1        19 1.25570E-04 1.25129E-06 0.00000E+00
 -1        20 1.25718E-04 9.84368E-06 0.00000E+00
 -1        21 1.25064E-04 1.66074E-05 3.30872E-24
 -1        24 2.43056E-05-8.21004E-06 0.00000E+00
 -1        25 1.26031E-04 9.42960E-06 0.00000E+00
 -1        26 1.26771E-04 1.73364E-06 0.00000E+00
 -1        27 1.25045E-04 6.98925E-06 0.00000E+00
 -1        28 1.24609E-04 1.60788E-05 0.00000E+00
 -1        32 0.00000E+00 0.00000E+00 0.00000E+00
 -1        33 1.26850E-04 2.32362E-06 0.00000E+00
 -1        34 1.25135E-04 6.96055E-06 0.00000E+00
 -1        35 1.23531E-04 1.57958E-05 0.00000E+00
 -1        51 4.14028E-04-1.31589E-07 0.00000E+00
 -1        52 4.11200E-04-2.54913E-07 0.00000E+00
 -1        53 4.07320E-04-3.78632E-07 0.00000E+00
 -1        54 4.02653E-04-5.04583E-07 0.00000E+00
 -1        55 3.97462E-04-6.33855E-07-1.24077E-24
 -1        56 4.13458E-04-7.81880E-07 0.00000E+00
 -1        57 4.11280E-04-1.56689E-06 0.00000E+00
 -1        58 4.09081E-04-2.28118E-06 0.00000E+00
 -1        59 4.06828E-04-2.89116E-06-2.64698E-23
 -1        60 4.04522E-04-3.36292E-06 0.00000E+00
 -1        61 4.02154E-04-3.67506E-06 0.00000E+00
 -1        62 3.99723E-04-3.82149E-06-5.29396E-23
 -1        63 3.97231E-04-3.80531E-06 0.00000E+00
 -1        64 3.94685E-04-3.64595E-06-5.29396E-23
 -1        65 3.92095E-04-3.37010E-06 2.64698E-23
 -1        66 3.89476E-04-3.01645E-06-5.29396E-23
 -1        67 3.86846E-04-2.62703E-06 0.00000E+00
 -1        68 3.84221E-04-2.24858E-06 5.29396E-23
 -1        69 3.81628E-04-1.92273E-06 2.64698E-23
 -1        70 3.79068E-04-1.69488E-06-5.29396E-23
 -1        86 3.79688E-04-2.58220E-07-6.61744E-24
 -1        87 3.79367E-04-5.16933E-07 0.00000E+00
 -1        88 3.78861E-04-7.75787E-07 0.00000E+00
 -1        89 3.78201E-04-1.03756E-06-6.61744E-24
 -1        90 3.77437E-04-1.29845E-06-1.32349E-23
 -1       121 2.03963E-04-4.45950E-07-1.32349E-23
 -1       122 2.02508E-04-8.92812E-07 6.61744E-24
 -1       123 2.00087E-04-1.34149E-06 1.32349E-23
 -1       124 1.96707E-04-1.79292E-06 0.00000E+00
 -1       125 1.92379E-04-2.24784E-06 0.00000E+00
 -1       191 1.25390E-04 1.04542E-07 0.00000E+00
 -1       192 1.25393E-04 2.09082E-07 0.00000E+00
 -1       193 1.25400E-04 3.13623E-07 0.00000E+00
 -1       194 1.25409E-04 4.18162E-07 1.65436E-24
 -1       195 1.25420E-04 5.22698E-07 0.00000E+00
 -1       251 3.91392E-04 1.11105E-05-1.32349E-23
 -1       252 3.90503E-04 3.71297E-05 6.61744E-24
 -1       253 3.89340E-04 7.26990E-05 0.00000E+00
 -1       254 3.88002E-04 1.13012E-04-6.61744E-24
 -1       255 3.86713E-04 1.51995E-04 0.00000E+00
 -1       256 3.85674E-04 1.83604E-04-6.61744E-24
 -1       257 3.84911E-04 2.03765E-04 0.00000E+00
 -1       258 3.84332E-04 2.08667E-04 6.61744E-24
 -1       259 3.83716E-04 1.98531E-04 1.32349E-23
 -1       260 3.82859E-04 1.73928E-04 0.00000E+00
 -1       261 3.81723E-04 1.39257E-04 0.00000E+00
 -1       262 3.80392E-04 9.91469E-05 0.00000E+00
 -1       263 3.79085E-04 5.96821E-05 1.32349E-23
 -1       264 3.78010E-04 2.69338E-05 6.61744E-24
 -1       265 3.77215E-04 5.17403E-06 1.32349E-23
 -1       266 3.87314E-04-7.97748E-07-3.30872E-24
 -1       267 3.82612E-04-8.10696E-07 0.00000E+00
 -1       268 3.77911E-04-8.24429E-07-8.27181E-25
 -1       269 3.73209E-04-8.35838E-07 0.00000E+00
 -1       270 3.68508E-04-8.47192E-07 0.00000E+00
 -1       271 3.89145E-04 3.05262E-06-2.64698E-23
 -1       272 3.86533E-04 6.07083E-06 1.32349E-23
 -1       273 3.84215E-04 8.31897E-06-2.64698E-23
 -1       274 3.82168E-04 9.82825E-06 0.00000E+00
 -1       275 3.80380E-04 1.06495E-05 5.29396E-23
 -1       276 3.78826E-04 1.08431E-05 0.00000E+00
 -1       277 3.77481E-04 1.04824E-05-5.29396E-23
 -1       278 3.76312E-04 9.65006E-06 0.00000E+00
 -1       279 3.75285E-04 8.43808E-06 5.29396E-23
 -1       280 3.74363E-04 6.94518E-06 0.00000E+00
 -1       281 3.73508E-04 5.27542E-06-5.29396E-23
 -1       282 3.72680E-04 3.53616E-06 0.00000E+00
 -1       283 3.71837E-04 1.83585E-06-2.64698E-23
 -1       284 3.70944E-04 2.83862E-07 1.32349E-23
 -1       285 3.69955E-04-1.01674E-06 2.64698E-23
 -1       301 3.75274E-04-1.65467E-06-6.61744E-24
 -1       302 3.73628E-04-1.71016E-06 0.00000E+00
 -1       303 3.71922E-04-1.76420E-06-6.61744E-24
 -1       304 3.70398E-04-1.81820E-06-6.61744E-24
 -1       305 3.69299E-04-1.87354E-06 0.00000E+00
 -1       306 3.87695E-04-4.18058E-05-5.29396E-23
 -1       307 4.21589E-04-1.60114E-04 2.64698E-23
 -1       308 4.68922E-04-3.36789E-04 0.00000E+00
 -1       309 5.22262E-04-5.46637E-04-2.64698E-23
 -1       310 5.75522E-04-7.56030E-04 0.00000E+00
 -1       311 6.22575E-04-9.31379E-04 2.64698E-23
 -1       312 6.55951E-04-1.04775E-03 0.00000E+00
 -1       313 6.66208E-04-1.08576E-03-2.64698E-23
 -1       314 6.46242E-04-1.04396E-03 1.05879E-22
 -1       315 5.91472E-04-9.27680E-04-5.29396E-23
 -1       316 5.07410E-04-7.57382E-04 0.00000E+00
 -1       317 4.04747E-04-5.56422E-04 0.00000E+00
 -1       318 3.01146E-04-3.53952E-04 0.00000E+00
 -1       319 2.14474E-04-1.79154E-04 0.00000E+00
 -1       320 1.56203E-04-5.60290E-05-5.29396E-23
 -1       336 1.80813E-04-3.20873E-06 0.00000E+00
 -1       337 1.73365E-04-3.71784E-06 0.00000E+00
 -1       338 1.64801E-04-4.23533E-06 0.00000E+00
 -1       339 1.55153E-04-4.76127E-06 6.61744E-24
 -1       340 1.44457E-04-5.29751E-06 0.00000E+00
 -1       406 1.25450E-04 7.31746E-07 3.30872E-24
 -1       407 1.25469E-04 8.36231E-07 0.00000E+00
 -1       408 1.25491E-04 9.40655E-07 0.00000E+00
 -1       409 1.25515E-04 1.04489E-06 1.65436E-24
 -1       410 1.25541E-04 1.14875E-06 3.30872E-24
 -1       521 3.82237E-04-5.17641E-05 0.00000E+00
 -1       522 4.21371E-04-1.95151E-04 0.00000E+00
 -1       523 4.74702E-04-4.08827E-04 0.00000E+00
 -1       524 5.33713E-04-6.61940E-04 0.00000E+00
 -1       525 5.92574E-04-9.13966E-04-1.05879E-22
 -1       526 6.45358E-04-1.12448E-03-5.29396E-23
 -1       527 6.83379E-04-1.26325E-03-1.05879E-22
 -1       528 6.94924E-04-1.30774E-03 0.00000E+00
 -1       529 6.69844E-04-1.25610E-03 1.05879E-22
 -1       530 6.01593E-04-1.11606E-03 0.00000E+00
 -1       531 4.96139E-04-9.11921E-04 1.05879E-22
 -1       532 3.66895E-04-6.71797E-04 0.00000E+00
 -1       533 2.36333E-04-4.29731E-04 1.05879E-22
 -1       534 1.27231E-04-2.19802E-04 5.29396E-23
 -1       535 5.41332E-05-7.08472E-05 0.00000E+00
 -1       536 1.32448E-04 1.24516E-05 0.00000E+00
 -1       537 1.31865E-04 4.28709E-05 0.00000E+00
 -1       538 1.31044E-04 8.07556E-05 0.00000E+00
 -1       539 1.30119E-04 1.21401E-04 0.00000E+00
 -1       540 1.29294E-04 1.59340E-04 3.30872E-24
 -1       541 1.28735E-04 1.89123E-04 1.65436E-24
 -1       542 1.28433E-04 2.07490E-04 0.00000E+00
 -1       543 1.28286E-04 2.11249E-04 0.00000E+00
 -1       544 1.28098E-04 2.00974E-04 3.30872E-24
 -1       545 1.27691E-04 1.77328E-04 1.65436E-24
 -1       546 1.27041E-04 1.44456E-04 0.00000E+00
 -1       547 1.26220E-04 1.06556E-04 1.65436E-24
 -1       548 1.25418E-04 6.91914E-05 3.30872E-24
 -1       549 1.24818E-04 3.79245E-05 1.65436E-24
 -1       550 1.24464E-04 1.66694E-05 1.65436E-24
 -1       551 1.18089E-04-6.17735E-06 6.61744E-24
 -1       552 1.00991E-04-6.54883E-06 0.00000E+00
 -1       553 8.22565E-05-6.94656E-06 0.00000E+00
 -1       554 6.26932E-05-7.36107E-06 6.61744E-24
 -1       555 4.31086E-05-7.77869E-06-2.64698E-23
 -1       556 1.28630E-04 4.80202E-06 2.64698E-23
 -1       557 1.25386E-04 1.31919E-05 0.00000E+00
 -1       558 1.22934E-04 1.95241E-05 0.00000E+00
 -1       559 1.21189E-04 2.40059E-05 0.00000E+00
 -1       560 1.20068E-04 2.68441E-05 0.00000E+00
 -1       561 1.19490E-04 2.82472E-05 0.00000E+00
 -1       562 1.19373E-04 2.84241E-05 0.00000E+00
 -1       563 1.19638E-04 2.75841E-05 6.61744E-24
 -1       564 1.20205E-04 2.59366E-05 0.00000E+00
 -1       565 1.20995E-04 2.36915E-05 3.30872E-24
 -1       566 1.21930E-04 2.10588E-05 0.00000E+00
 -1       567 1.22931E-04 1.82486E-05-4.13590E-25
 -1       568 1.23919E-04 1.54710E-05 0.00000E+00
 -1       569 1.24818E-04 1.29360E-05 0.00000E+00
 -1       570 1.25547E-04 1.08536E-05 0.00000E+00
 -1       571 1.24383E-04 8.76906E-06-8.27181E-25
 -1       572 1.24461E-04 8.21189E-06-4.13590E-25
 -1       573 1.24540E-04 7.61801E-06 0.00000E+00
 -1       574 1.24619E-04 6.99768E-06-8.27181E-25
 -1       575 1.24698E-04 6.36119E-06 0.00000E+00
 -1       576 1.24777E-04 5.71887E-06-1.65436E-24
 -1       577 1.24857E-04 5.08109E-06 3.30872E-24
 -1       578 1.24936E-04 4.45820E-06 3.30872E-24
 -1       579 1.25015E-04 3.86055E-06-3.30872E-24
 -1       580 1.25095E-04 3.29851E-06 1.65436E-24
 -1       581 1.25174E-04 2.78244E-06-6.61744E-24
 -1       582 1.25253E-04 2.32268E-06 0.00000E+00
 -1       583 1.25333E-04 1.92957E-06 0.00000E+00
 -1       584 1.25412E-04 1.61334E-06 0.00000E+00
 -1       585 1.25491E-04 1.38414E-06 0.00000E+00
 -1       586 1.24539E-04 9.30645E-06 0.00000E+00
 -1       587 1.24748E-04 9.33250E-06 3.61892E-25
 -1       588 1.24966E-04 9.35825E-06 0.00000E+00
 -1       589 1.25230E-04 9.38351E-06 0.00000E+00
 -1       590 1.25573E-04 9.40793E-06 0.00000E+00
 -1       591 1.24458E-04 8.82050E-06-5.16988E-26
 -1       592 1.24618E-04 8.33432E-06 0.00000E+00
 -1       593 1.24785E-04 7.82726E-06-4.13590E-25
 -1       594 1.24958E-04 7.30457E-06 0.00000E+00
 -1       595 1.25134E-04 6.77156E-06-8.27181E-25
 -1       596 1.25313E-04 6.23350E-06 4.13590E-25
 -1       597 1.25491E-04 5.69565E-06-4.13590E-25
 -1       598 1.25667E-04 5.16329E-06-4.13590E-25
 -1       599 1.25839E-04 4.64165E-06-8.27181E-25
 -1       600 1.26005E-04 4.13600E-06-2.06795E-25
 -1       601 1.26163E-04 3.65161E-06-4.13590E-25
 -1       602 1.26312E-04 3.19373E-06 1.03398E-25
 -1       603 1.26448E-04 2.76762E-06 2.06795E-25
 -1       604 1.26571E-04 2.37862E-06 1.03398E-25
 -1       605 1.26679E-04 2.03193E-06-8.27181E-25
 -1       606 1.25583E-04 1.29341E-06 0.00000E+00
 -1       607 1.25594E-04 1.43059E-06 0.00000E+00
 -1       608 1.25603E-04 1.65726E-06 0.00000E+00
 -1       609 1.25613E-04 1.96711E-06 0.00000E+00
 -1       610 1.25622E-04 2.35383E-06 3.30872E-24
 -1       611 1.25631E-04 2.81100E-06 0.00000E+00
 -1       612 1.25640E-04 3.33219E-06 0.00000E+00
 -1       613 1.25648E-04 3.91098E-06 0.00000E+00
 -1       614 1.25657E-04 4.54095E-06 0.00000E+00
 -1       615 1.25666E-04 5.21566E-06 0.00000E+00
 -1       616 1.25675E-04 5.92870E-06 1.65436E-24
 -1       617 1.25684E-04 6.67362E-06 0.00000E+00
 -1       618 1.25692E-04 7.44401E-06 0.00000E+00
 -1       619 1.25701E-04 8.23343E-06 0.00000E+00
 -1       620 1.25710E-04 9.03547E-06 0.00000E+00
 -1       621 1.25652E-04 1.33187E-06 0.00000E+00
 -1       622 1.25799E-04 1.41272E-06-8.27181E-25
 -1       623 1.25997E-04 1.49353E-06-1.65436E-24
 -1       624 1.26234E-04 1.57419E-06 0.00000E+00
 -1       625 1.26497E-04 1.65471E-06-1.65436E-24
 -1       626 1.25645E-04 1.32150E-06 0.00000E+00
 -1       627 1.25692E-04 1.46825E-06 0.00000E+00
 -1       628 1.25713E-04 1.68376E-06 3.30872E-24
 -1       629 1.25711E-04 1.95983E-06 0.00000E+00
 -1       630 1.25690E-04 2.28822E-06 0.00000E+00
 -1       631 1.25652E-04 2.66067E-06 1.65436E-24
 -1       632 1.25601E-04 3.06890E-06 3.30872E-24
 -1       633 1.25540E-04 3.50466E-06 0.00000E+00
 -1       634 1.25471E-04 3.95967E-06 0.00000E+00
 -1       635 1.25399E-04 4.42566E-06-1.65436E-24
 -1       636 1.25325E-04 4.89439E-06-3.30872E-24
 -1       637 1.25253E-04 5.35756E-06-1.65436E-24
 -1       638 1.25186E-04 5.80692E-06 0.00000E+00
 -1       639 1.25128E-04 6.23419E-06 8.27181E-25
 -1       640 1.25080E-04 6.63109E-06-1.65436E-24
 -1       656 1.25129E-04 9.37930E-06-6.61744E-24
 -1       657 1.24927E-04 8.89635E-06-6.61744E-24
 -1       658 1.24972E-04 8.41481E-06 0.00000E+00
 -1       659 1.25119E-04 7.93366E-06-6.61744E-24
 -1       660 1.25199E-04 7.45101E-06 0.00000E+00
 -1       661 1.25501E-04 1.06192E-05 8.27181E-25
 -1       662 1.25312E-04 1.13279E-05 0.00000E+00
 -1       663 1.25147E-04 1.19726E-05-1.65436E-24
 -1       664 1.25005E-04 1.25573E-05-8.27181E-25
 -1       665 1.24885E-04 1.30854E-05-1.65436E-24
 -1       666 1.24784E-04 1.35606E-05 0.00000E+00
 -1       667 1.24702E-04 1.39861E-05-1.65436E-24
 -1       668 1.24638E-04 1.43652E-05 0.00000E+00
 -1       669 1.24590E-04 1.47009E-05 0.00000E+00
 -1       670 1.24557E-04 1.49964E-05 0.00000E+00
 -1       671 1.24537E-04 1.52545E-05 0.00000E+00
 -1       672 1.24531E-04 1.54781E-05 0.00000E+00
 -1       673 1.24537E-04 1.56699E-05 1.65436E-24
 -1       674 1.24552E-04 1.58323E-05-8.27181E-25
 -1       675 1.24578E-04 1.59684E-05 0.00000E+00
 -1       676 1.24988E-04 1.65188E-05-3.30872E-24
 -1       677 1.24912E-04 1.64302E-05-1.65436E-24
 -1       678 1.24836E-04 1.63416E-05 3.30872E-24
 -1       679 1.24760E-04 1.62534E-05 0.00000E+00
 -1       680 1.24684E-04 1.61651E-05 0.00000E+00
 -1       771 1.72193E-05 6.90711E-06 0.00000E+00
 -1       772 1.11789E-05 1.93109E-05 0.00000E+00
 -1       773 6.13580E-06 2.91412E-05 0.00000E+00
 -1       774 2.02332E-06 3.65516E-05-5.29396E-23
 -1       775-1.22430E-06 4.17008E-05 5.29396E-23
 -1       776-3.67556E-06 4.47550E-05 2.64698E-23
 -1       777-5.39945E-06 4.58850E-05 0.00000E+00
 -1       778-6.46652E-06 4.52682E-05 0.00000E+00
 -1       779-6.94753E-06 4.30856E-05 5.29396E-23
 -1       780-6.91456E-06 3.95235E-05 0.00000E+00
 -1       781-6.43967E-06 3.47712E-05 0.00000E+00
 -1       782-5.59595E-06 2.90220E-05 0.00000E+00
 -1       783-4.45638E-06 2.24714E-05 0.00000E+00
 -1       784-3.09474E-06 1.53176E-05 1.32349E-23
 -1       785-1.58455E-06 7.76027E-06 0.00000E+00
 -1       786 1.26074E-04 8.74964E-06 2.06795E-25
 -1       787 1.26120E-04 8.11338E-06 4.13590E-25
 -1       788 1.26166E-04 7.51346E-06 8.27181E-25
 -1       789 1.26212E-04 6.94262E-06 0.00000E+00
 -1       790 1.26258E-04 6.39670E-06 1.65436E-24
 -1       791 1.26305E-04 5.87157E-06-8.27181E-25
 -1       792 1.26351E-04 5.36533E-06 1.65436E-24
 -1       793 1.26398E-04 4.87614E-06 0.00000E+00
 -1       794 1.26445E-04 4.40393E-06 1.65436E-24
 -1       795 1.26491E-04 3.94872E-06-8.27181E-25
 -1       796 1.26538E-04 3.51229E-06-1.65436E-24
 -1       797 1.26585E-04 3.09651E-06 8.27181E-25
 -1       798 1.26631E-04 2.70541E-06 0.00000E+00
 -1       799 1.26678E-04 2.34311E-06 0.00000E+00
 -1       800 1.26725E-04 2.01677E-06 0.00000E+00
 -1       801 1.13046E-04 8.14926E-06 0.00000E+00
 -1       802 7.27517E-05 6.12653E-06 1.32349E-23
 -1       803 2.88841E-05 3.97648E-06 2.64698E-23
 -1       804 5.39417E-06 2.47509E-06-1.32349E-23
 -1       805-2.38928E-06 1.22479E-06-2.64698E-23
 -1       806 1.26194E-04 8.69685E-06-1.65436E-24
 -1       807 1.26345E-04 7.98951E-06-8.27181E-25
 -1       808 1.26484E-04 7.31122E-06 0.00000E+00
 -1       809 1.26610E-04 6.66465E-06-1.65436E-24
 -1       810 1.26724E-04 6.05249E-06 0.00000E+00
 -1       811 1.26823E-04 5.47731E-06 0.00000E+00
 -1       812 1.26908E-04 4.94170E-06 1.65436E-24
 -1       813 1.26977E-04 4.44822E-06-1.65436E-24
 -1       814 1.27030E-04 3.99944E-06-3.30872E-24
 -1       815 1.27064E-04 3.59792E-06 8.27181E-25
 -1       816 1.27080E-04 3.24620E-06 1.65436E-24
 -1       817 1.27077E-04 2.94683E-06 0.00000E+00
 -1       818 1.27053E-04 2.70237E-06-1.65436E-24
 -1       819 1.27007E-04 2.51534E-06-8.27181E-25
 -1       820 1.26939E-04 2.38826E-06 1.65436E-24
 -1       821 1.26670E-04 1.41717E-06 8.27181E-25
 -1       822 1.26562E-04 9.92401E-07 0.00000E+00
 -1       823 1.26454E-04 5.46355E-07 3.30872E-24
 -1       824 1.26345E-04 1.66186E-07 0.00000E+00
 -1       825 1.26236E-04-7.57002E-08-3.30872E-24
 -1       826 1.26127E-04-1.07559E-07 0.00000E+00
 -1       827 1.26018E-04 9.55395E-08 0.00000E+00
 -1       828 1.25909E-04 5.57380E-07 1.65436E-24
 -1       829 1.25800E-04 1.24408E-06 3.30872E-24
 -1       830 1.25690E-04 2.12065E-06-1.65436E-24
 -1       831 1.25581E-04 3.10981E-06 0.00000E+00
 -1       832 1.25472E-04 4.13371E-06-1.65436E-24
 -1       833 1.25363E-04 5.10674E-06 0.00000E+00
 -1       834 1.25255E-04 5.94358E-06 0.00000E+00
 -1       835 1.25147E-04 6.58912E-06 0.00000E+00
 -1       836 1.26950E-04 1.83181E-06 0.00000E+00
 -1       837 1.27021E-04 1.93222E-06 0.00000E+00
 -1       838 1.27015E-04 2.03247E-06 0.00000E+00
 -1       839 1.26963E-04 2.13208E-06 0.00000E+00
 -1       840 1.26897E-04 2.23153E-06-4.13590E-25
 -1       856 1.25022E-04 7.32873E-06-4.13590E-25
 -1       857 1.24995E-04 7.78475E-06 1.03398E-25
 -1       858 1.24968E-04 8.33905E-06 0.00000E+00
 -1       859 1.24941E-04 8.97328E-06-4.13590E-25
 -1       860 1.24913E-04 9.66898E-06 8.27181E-25
 -1       861 1.24885E-04 1.04076E-05-4.13590E-25
 -1       862 1.24858E-04 1.11707E-05 0.00000E+00
 -1       863 1.24830E-04 1.19397E-05-4.13590E-25
 -1       864 1.24803E-04 1.26958E-05 0.00000E+00
 -1       865 1.24775E-04 1.34207E-05-4.13590E-25
 -1       866 1.24747E-04 1.40957E-05 0.00000E+00
 -1       867 1.24720E-04 1.47024E-05 4.13590E-25
 -1       868 1.24692E-04 1.52223E-05 0.00000E+00
 -1       869 1.24664E-04 1.56371E-05-4.13590E-25
 -1       870 1.24637E-04 1.59286E-05 0.00000E+00
 -1       871 1.24937E-04 6.98785E-06 4.13590E-25
 -1       872 1.24949E-04 6.98394E-06 0.00000E+00
 -1       873 1.25027E-04 6.97956E-06 0.00000E+00
 -1       874 1.25119E-04 6.97458E-06 0.00000E+00
 -1       875 1.25173E-04 6.96908E-06 0.00000E+00
 -1       876 1.25024E-04 7.33972E-06-3.30872E-24
 -1       877 1.24983E-04 7.74690E-06 0.00000E+00
 -1       878 1.24924E-04 8.20395E-06 0.00000E+00
 -1       879 1.24849E-04 8.70452E-06-1.65436E-24
 -1       880 1.24760E-04 9.24224E-06 0.00000E+00
 -1       881 1.24659E-04 9.81075E-06 1.65436E-24
 -1       882 1.24549E-04 1.04037E-05 0.00000E+00
 -1       883 1.24433E-04 1.10148E-05 0.00000E+00
 -1       884 1.24312E-04 1.16378E-05 3.30872E-24
 -1       885 1.24189E-04 1.22662E-05 0.00000E+00
 -1       886 1.24066E-04 1.28938E-05 0.00000E+00
 -1       887 1.23946E-04 1.35143E-05-1.65436E-24
 -1       888 1.23831E-04 1.41213E-05 0.00000E+00
 -1       889 1.23722E-04 1.47083E-05-8.27181E-25
 -1       890 1.23623E-04 1.52691E-05 1.65436E-24
 -1       891 1.24555E-04 1.60314E-05 0.00000E+00
 -1       892 1.24480E-04 1.59838E-05 0.00000E+00
 -1       893 1.24364E-04 1.59363E-05-8.27181E-25
 -1       894 1.24181E-04 1.58890E-05 8.27181E-25
 -1       895 1.23911E-04 1.58417E-05-6.20385E-25
 -1       956 1.26744E-04 2.38887E-06 0.00000E+00
 -1       957 1.26638E-04 2.52070E-06 8.27181E-25
 -1       958 1.26530E-04 2.71164E-06 1.65436E-24
 -1       959 1.26423E-04 2.95379E-06 0.00000E+00
 -1       960 1.26315E-04 3.23924E-06-3.30872E-24
 -1       961 1.26208E-04 3.56003E-06 0.00000E+00
 -1       962 1.26100E-04 3.90820E-06-3.30872E-24
 -1       963 1.25992E-04 4.27581E-06-1.65436E-24
 -1       964 1.25885E-04 4.65487E-06 0.00000E+00
 -1       965 1.25777E-04 5.03741E-06 1.65436E-24
 -1       966 1.25669E-04 5.41548E-06 0.00000E+00
 -1       967 1.25562E-04 5.78111E-06 1.65436E-24
 -1       968 1.25454E-04 6.12633E-06 0.00000E+00
 -1       969 1.25347E-04 6.44322E-06-1.65436E-24
 -1       970 1.25240E-04 6.72383E-06 0.00000E+00
 -1       971 1.25036E-04 7.21249E-06 1.65436E-24
 -1       972 1.24935E-04 7.55003E-06 1.65436E-24
 -1       973 1.24835E-04 7.96371E-06 0.00000E+00
 -1       974 1.24734E-04 8.44373E-06 0.00000E+00
 -1       975 1.24633E-04 8.98029E-06-3.30872E-24
 -1       976 1.24532E-04 9.56353E-06 0.00000E+00
 -1       977 1.24432E-04 1.01836E-05 0.00000E+00
 -1       978 1.24331E-04 1.08307E-05 1.65436E-24
 -1       979 1.24230E-04 1.14949E-05 0.00000E+00
 -1       980 1.24129E-04 1.21663E-05 0.00000E+00
 -1       981 1.24028E-04 1.28352E-05-3.30872E-24
 -1       982 1.23927E-04 1.34916E-05 0.00000E+00
 -1       983 1.23827E-04 1.41257E-05-3.30872E-24
 -1       984 1.23727E-04 1.47276E-05 0.00000E+00
 -1       985 1.23627E-04 1.52875E-05 0.00000E+00
 -3
    1PSTEP                        18           9           1          
  100CL  109 5.68237E-01         409                     0    9           1
 -4  STRESS      6    1
 -5  SXX         1    4    1    1
 -5  SYY         1    4    2    2
 -5  SZZ         1    4    3    3
 -5  SXY         1    4    1    2
 -5  SYZ         1    4    2    3
 -5  SZX         1    4    3    1
 -1         1-2.80537E+06-1.14021E+06-6.03736E+05-1.34928E+06 3.71074E-10 4.58385E-08
 -1         2 2.23176E+03-7.35739E+05 7.21195E+03-6.74673E+02 1.92983E-11-2.45296E-08
 -1         3-4.23694E+02-1.27165E+06 3.05242E+02-9.74997E+02-2.20268E-10-2.85800E-08
 -1         5-8.35641E-01 2.99119E+05 7.58302E+00-1.90779E-02-1.80781E-11-1.05900E-08
 -1         8-1.11207E+06-3.86984E+05-1.25347E+05-4.82032E+05 1.50976E-10 1.78989E-08
 -1         9-1.16411E+06-8.42154E+05-1.05131E+05-8.34419E+05 1.17347E-08-1.06054E-08
 -1        10-1.25225E+03-1.32487E+06-2.14623E+03-6.59592E+03-7.48878E-09-9.99756E-09
 -1        12 2.27741E+00 2.99135E+05 2.45451E+02-1.45957E-01 3.18892E-11 9.74001E-09
 -1        15 1.82970E+03 1.00553E+03 5.91451E+03 3.71990E+00-1.01920E-10 6.45891E-08
 -1        16-1.96454E+05-1.06976E+06-6.46792E+04-1.27814E+06 1.30676E-08 1.47459E-09
 -1        17-5.16141E+05-2.02083E+05-4.12150E+04-8.56010E+04-1.68220E-09 1.13447E-08
 -1        18-8.91122E+03-6.96534E+03-2.59496E+04-8.25605E+04 8.21183E-09-8.11724E-10
 -1        19 9.64278E+04 1.10859E+05-7.93036E+02 1.89583E+04-1.04046E-10-1.60144E-09
 -1        20-5.04255E+04-4.56443E+05-1.01394E+05 2.82721E+04 1.27072E-09 1.02755E-08
 -1        21-4.09553E+01-2.53719E+05-8.08852E+02-1.32490E+01-2.77742E-09-1.86464E-08
 -1        24-1.43715E+06 2.69178E+05 5.24810E+04-6.91369E+04-6.75306E-08-2.85606E-08
 -1        25-1.15348E+05-6.25712E+05-1.28216E+05-1.46654E+05-1.58980E-10-2.22899E-09
 -1        26-3.63307E+04 7.21930E+04-1.84787E+04-4.52342E+03 1.40390E-09-1.19214E-08
 -1        27-6.66239E+04-2.48401E+05-9.23383E+04 5.61227E+04 5.48274E-09-1.50309E-09
 -1        28 1.94840E+04-7.12652E+04 1.44032E+04 2.05763E+04 1.40068E-09 7.42223E-09
 -1        32-1.34187E+06-1.99397E+06-1.77998E+04-4.69007E+05-2.85299E-08-4.81056E-09
 -1        33-1.45617E+05 7.17832E+04 2.56461E+04-3.43392E+04 1.50161E-10-7.56700E-10
 -1        34-1.83548E+05-1.87920E+04 4.88387E+02 5.83288E+04 9.66002E-10-7.71676E-09
 -1        35-1.98676E+04-2.83079E+04-1.11710E+03 4.41976E+04 2.40661E-09 9.04644E-09
 -1        51 2.81754E+04-3.14216E+05 6.54846E+04-8.89832E+05 1.30967E-10 1.26311E-08
 -1        52 1.29780E+04-3.07348E+05 3.87643E+04-1.03767E+06 1.67347E-10 9.90258E-09
 -1        53 6.74074E+03-3.22154E+05 2.71418E+04-8.86662E+05-2.91038E-10-1.45228E-08
 -1        54 1.81802E+04-3.20087E+05 3.63595E+04-1.04096E+06 3.20142E-10-5.35838E-08
 -1        55 3.63602E+04-3.33013E+05 6.06048E+04-8.86150E+05 7.71252E-10 3.64889E-09
 -1        56-5.34458E+06-5.97690E+05-4.45068E+05-2.07023E+06-5.79894E-09 5.00586E-09
 -1        57-5.55571E+06-9.69713E+05-3.00287E+05-2.01649E+06 1.98088E-09 2.00089E-08
 -1        58-5.43073E+06-7.42461E+05-1.04630E+05-2.04600E+06-2.44108E-09 1.09030E-08
 -1        59-5.45699E+06-7.98706E+05-6.24691E+04-2.04390E+06-2.78123E-09 5.46606E-10
 -1        60-5.44196E+06-7.63993E+05-2.43908E+04-2.04428E+06-2.29284E-09 4.67326E-08
 -1        61-5.44527E+06-7.72143E+05-1.38353E+04-2.04431E+06 4.24825E-09 6.99474E-08
 -1        62-5.44215E+06-7.68406E+05-6.57859E+03-2.04574E+06-1.22418E-09 1.36413E-08
 -1        63-5.44640E+06-7.66190E+05-5.31775E+03-2.04126E+06-2.32399E-09 1.96097E-08
 -1        64-5.44079E+06-7.69874E+05-5.88972E+03-2.04734E+06 4.21346E-09-9.85483E-09
 -1        65-5.45012E+06-7.66307E+05-1.17989E+04-2.03843E+06 7.16227E-11-2.51737E-08
 -1        66-5.43848E+06-7.68339E+05-2.05445E+04-2.04857E+06 3.88809E-10-2.45109E-09
 -1        67-5.46313E+06-7.85373E+05-5.24550E+04-2.03443E+06 1.59730E-09 4.11546E-09
 -1        68-5.42802E+06-7.51328E+05-8.78078E+04-2.05122E+06 1.88811E-09 1.52140E-08
 -1        69-5.54661E+06-9.28166E+05-2.51948E+05-2.01064E+06-6.14818E-10-3.00788E-08
 -1        70-5.35616E+06-6.29518E+05-3.73535E+05-2.07113E+06 1.04774E-09-2.56987E-08
 -1        86-1.11411E+03-7.37708E+05 7.79708E+03 3.37340E+02 3.52429E-10 3.02890E-08
 -1        87 7.41433E+03-7.33245E+05 1.61751E+04-1.25331E+03 5.47288E-10 4.41477E-08
 -1        88-6.27943E+03-7.40198E+05 2.48754E+04 9.15992E+02 8.45830E-10 4.51986E-09
 -1        89 4.68222E+04-7.14982E+05 6.69553E+04-2.14233E+03 1.17507E-09 1.76951E-08
 -1        90-4.03865E+04-7.55932E+05 9.47501E+04 1.22646E+03 1.05865E-09 3.08928E-09
 -1       121-6.03734E+02-1.27318E+06 6.21908E+01 4.85965E+02 8.02103E-10-4.53656E-09
 -1       122-3.11948E+02-1.27162E+06 6.38158E+02-1.94779E+03-2.99672E-09-1.48739E-08
 -1       123-6.59094E+02-1.27326E+06 7.92583E+02 1.45269E+03 2.33365E-09 2.72848E-09
 -1       124 9.13943E+02-1.27099E+06 2.60927E+03-4.13455E+03-5.61408E-09 8.13452E-09
 -1       125-1.39900E+03-1.27395E+06 3.74149E+03 2.66647E+03 3.42880E-09 1.33659E-08
 -1       191-1.13121E+00 2.99145E+05 9.29898E+00 9.56019E-03-8.63043E-12-7.26800E-09
 -1       192-1.53003E+00 2.99119E+05 1.60436E+01-7.94519E-02-1.25591E-11 2.22990E-08
 -1       193-2.97848E+00 2.99145E+05 3.00647E+01 7.00726E-02-3.64206E-11 1.19695E-09
 -1       194-3.76508E+00 2.99122E+05 6.06538E+01-1.87502E-01-1.79066E-11 2.35309E-09
 -1       195-6.52865E+00 2.99143E+05 1.18869E+02 1.18104E-01-4.55245E-11 4.14286E-09
 -1       251-1.67166E+06 1.22350E+04-8.52870E+04-6.58758E+04-1.74623E-10 9.46602E-09
 -1       252-1.50865E+06-1.27442E+04-2.27525E+04 1.95597E+05 3.97677E-09 2.14045E-08
 -1       253-1.59087E+06 2.35630E+02-1.76091E+04-1.29478E+05-1.53659E-09 2.50766E-08
 -1       254-1.57995E+06 9.40098E+03-5.06719E+03 2.50264E+05-2.59269E-09 3.55994E-08
 -1       255-1.60823E+06-3.44145E+03-8.64664E+03-1.20888E+05 5.57247E-09 2.62103E-08
 -1       256-1.46131E+06 9.62653E+03 2.40547E+04 1.65037E+05-2.42017E-09 3.82447E-08
 -1       257-1.69805E+06-9.24744E+03-2.48814E+04-4.38222E+04-4.62296E-09-2.20201E-08
 -1       258-1.37480E+06 8.02214E+03 4.18509E+04-1.67272E+04-1.56392E-08-1.47418E-08
 -1       259-1.68630E+06-8.66297E+03-2.12988E+04 6.05392E+04-2.00089E-10-8.98308E-09
 -1       260-1.48769E+06 1.12461E+04 2.20489E+04-1.88334E+05 2.07001E-08-1.50924E-08
 -1       261-1.59623E+06-3.51415E+03-6.15080E+02 1.27620E+05 3.77963E-08-1.41807E-08
 -1       262-1.57803E+06 1.57355E+04 7.96092E+03-2.50862E+05-1.57728E-08-6.11948E-10
 -1       263-1.60490E+06-5.91058E+03 1.17255E+03 1.23444E+05 3.65526E-09 3.08883E-08
 -1       264-1.46275E+06 2.73270E+04 4.01816E+04-1.73562E+05 5.38967E-08-3.59414E-08
 -1       265-1.70084E+06-2.36816E+04-5.84715E+03 4.99002E+04 1.69803E-08 2.07674E-08
 -1       266-3.31230E+04-1.54865E+04 7.77245E+04-7.96021E+01-4.72937E-11 9.50396E-09
 -1       267 3.83995E+04 1.80526E+04 5.49302E+04 9.18354E+01 2.45564E-11-2.67672E-10
 -1       268-5.14926E+03-2.55660E+03 2.04176E+04-1.17020E+01-3.54703E-11-4.35095E-08
 -1       269 6.07981E+03 3.05988E+03 1.32708E+04 1.36305E+01-1.09139E-11-1.07218E-08
 -1       270-9.12587E+02-5.02755E+02 6.40603E+03-1.84977E+00-1.16870E-10 3.78702E-08
 -1       271-3.18902E+06-3.92816E+05-2.43127E+05-1.23981E+06-2.56841E-09 1.22964E-08
 -1       272-3.29095E+06-5.63306E+05-1.57428E+05-1.22194E+06 2.18620E-09-1.18325E-08
 -1       273-3.23596E+06-4.55227E+05-5.74187E+04-1.22747E+06-1.25152E-09 2.04745E-08
 -1       274-3.23505E+06-4.88518E+05-3.23933E+04-1.24056E+06-1.51522E-09-2.71621E-08
 -1       275-3.24389E+06-4.60599E+05-1.33897E+04-1.22384E+06-2.51839E-09-1.66774E-08
 -1       276-3.22459E+06-4.83289E+05-7.11962E+03-1.24686E+06 4.42969E-09-3.49962E-08
 -1       277-3.24650E+06-4.59577E+05-3.49415E+03-1.22160E+06-2.77123E-09 1.52459E-08
 -1       278-3.22087E+06-4.85394E+05-2.47750E+03-1.25075E+06-1.39767E-09 3.45154E-08
 -1       279-3.24782E+06-4.58277E+05-2.62345E+03-1.22013E+06-5.41286E-09 1.50198E-08
 -1       280-3.21958E+06-4.87830E+05-4.76896E+03-1.25295E+06 3.73620E-09 3.34272E-08
 -1       281-3.24797E+06-4.57071E+05-8.60126E+03-1.21951E+06 1.00749E-09-9.31732E-09
 -1       282-3.22328E+06-4.94306E+05-2.07863E+04-1.25268E+06-5.55042E-09 1.43245E-08
 -1       283-3.24428E+06-4.52237E+05-3.66669E+04-1.22028E+06-2.11912E-10 1.72586E-08
 -1       284-3.25676E+06-5.44412E+05-1.00696E+05-1.24337E+06 7.04858E-11 2.37014E-08
 -1       285-3.21518E+06-4.11456E+05-1.55445E+05-1.22717E+06 3.61433E-09-5.04515E-08
 -1       301 2.34609E+04-1.52102E+05 1.71880E+05-2.90770E+05 8.00355E-11 7.39783E-09
 -1       302 2.49254E+04-1.08988E+05 1.10888E+05-4.25868E+05 5.27507E-10 2.06073E-08
 -1       303 1.37395E+03-1.35030E+05 8.14749E+04-2.90264E+05-1.96451E-10 4.13893E-08
 -1       304 2.55635E+04-1.06759E+05 1.14738E+05-4.25437E+05 6.98492E-10 4.90290E-08
 -1       305 2.36658E+04-1.51772E+05 1.80233E+05-2.91266E+05-2.03727E-10 5.77347E-09
 -1       306-8.67396E+06-1.00013E+06-1.22969E+06-2.05188E+06-2.42726E-08-3.52156E-09
 -1       307-1.69180E+06-1.93858E+06 3.01430E+05-4.24052E+06-2.64612E-07 3.54485E-08
 -1       308-7.35465E+06 1.14297E+05-1.78962E+05-5.30871E+05-5.94155E-08 6.87578E-08
 -1       309-4.04939E+06-2.22625E+06 8.63581E+04-6.25346E+06 6.48922E-08 8.73524E-09
 -1       310-7.37672E+06 9.99826E+04-9.62588E+04-5.42344E+05-7.20320E-09-5.06225E-08
 -1       311-1.61052E+06-1.88160E+06 5.64401E+05-4.19711E+06 1.96793E-07-9.58407E-08
 -1       312-8.71007E+06-1.05883E+06-7.30667E+05-2.07010E+06 2.95986E-08 6.98492E-08
 -1       313-6.93376E+05-1.09462E+04 1.00793E+06-3.55011E+05-1.26602E-08 8.67731E-08
 -1       314-7.44284E+06-2.36498E+06-7.41536E+05-3.54366E+06 2.36032E-08 6.47560E-09
 -1       315-5.77953E+06 2.37312E+06 5.75771E+05 6.40672E+05-7.18283E-08-3.80460E-08
 -1       316-4.65154E+06-2.66429E+06-1.11064E+05-3.65404E+06-2.76246E-07-1.58652E-07
 -1       317-9.45582E+06 3.17381E+06 7.54187E+04-1.72823E+05 1.69774E-07-1.97017E-07
 -1       318-4.54440E+06-2.65044E+06-1.87639E+05-3.64360E+06-2.22528E-07 6.82121E-10
 -1       319-6.15051E+06 2.37651E+06 2.33708E+05 6.08247E+05-4.80504E-08 3.91738E-08
 -1       320-7.24942E+06-2.33489E+06-1.29897E+06-3.58988E+06 6.77537E-08-3.46336E-09
 -1       336 5.09818E+02-1.37828E+06-8.51404E+03 3.90358E+03-1.41854E-08 2.74667E-09
 -1       337-3.19341E+03-1.37955E+06-1.00219E+04-9.51922E+03-2.64588E-08-8.70205E-09
 -1       338 5.13211E+02-1.37830E+06-1.40086E+04 5.57144E+03-1.88820E-08-2.55095E-08
 -1       339-1.47006E+04-1.38707E+06-3.11464E+04-1.27749E+04-3.48618E-08 1.99980E-08
 -1       340 9.80408E+03-1.37131E+06-4.85411E+04 7.12342E+03-2.27246E-08 2.25064E-08
 -1       406 2.12531E+01 2.99132E+05 4.84813E+02 2.88356E-02 8.75389E-12 3.58199E-09
 -1       407 1.71199E+02 2.99220E+05 1.02987E+03 6.81969E-01 3.86393E-11-7.82376E-09
 -1       408 5.32570E+02 2.99058E+05 2.05714E+03-7.28922E-01-5.96856E-11-2.41943E-09
 -1       409 2.22602E+03 2.99877E+05 4.63064E+03 7.25718E+00-2.10036E-10-4.87890E-09
 -1       410 6.39166E+03 2.98473E+05 9.45343E+03-6.85146E+00-2.13731E-10 9.61535E-10
 -1       521-1.08961E+07-1.40707E+06-1.75429E+06-2.34863E+06-3.03262E-08 6.07688E-08
 -1       522-1.30536E+06-2.32323E+06 4.42838E+05-5.63373E+06-2.13346E-07-5.94628E-08
 -1       523-8.99615E+06 1.63169E+05-2.36491E+05-3.38090E+05 5.45697E-09-1.43365E-07
 -1       524-5.04906E+06-2.40998E+06 1.44733E+05-8.41858E+06 3.47611E-07-2.63564E-07
 -1       525-9.05106E+06 1.33333E+05-1.38789E+05-3.68343E+05 1.28901E-07-3.34894E-08
 -1       526-1.12259E+06-2.26654E+06 7.95356E+05-5.49460E+06-1.54832E-08 3.40442E-08
 -1       527-1.09434E+07-1.49265E+06-1.10167E+06-2.41219E+06 6.29225E-08 1.11904E-08
 -1       528 4.85377E+05 1.48202E+05 1.39421E+06 9.24571E+04 6.90343E-08-2.07729E-08
 -1       529-9.19041E+06-3.28722E+06-1.11289E+06-4.41895E+06-4.01633E-09-2.38360E-08
 -1       530-6.95831E+06 3.66772E+06 8.10904E+05 1.19409E+06-1.44995E-07 7.39819E-08
 -1       531-5.36761E+06-3.59592E+06-1.49202E+05-4.52986E+06-3.04484E-07 4.84433E-08
 -1       532-1.22359E+07 4.78479E+06 1.51232E+05-3.92367E+05 1.41961E-07-2.22639E-07
 -1       533-5.21541E+06-3.57924E+06-2.14674E+05-4.50982E+06 3.77913E-08-3.48817E-07
 -1       534-7.48084E+06 3.78511E+06 4.57480E+05 1.08874E+06-2.85509E-08 2.51428E-07
 -1       535-8.95260E+06-3.33255E+06-1.69928E+06-4.47064E+06 8.20728E-09 1.60690E-07
 -1       536-4.53772E+05-2.71713E+04 2.75504E+04-2.21851E+04-5.48380E-09 1.99543E-08
 -1       537-2.91822E+05 2.91913E+04 4.57486E+04 5.46246E+04-5.67301E-08 4.87648E-08
 -1       538-3.75336E+05-1.58510E+03 1.10901E+04-3.36812E+04 1.19327E-08 6.43645E-08
 -1       539-3.43648E+05 3.36609E+03 1.22151E+04 6.22205E+04 7.46378E-08 5.24306E-08
 -1       540-4.03040E+05-4.80123E+02-3.07354E+03-2.98333E+04 3.17209E-09 5.19350E-08
 -1       541-2.40584E+05 4.59933E+03 2.79314E+04 3.86647E+04-2.37924E-09 4.75365E-08
 -1       542-4.75635E+05-5.07742E+03-2.02646E+04-1.00263E+04 2.41503E-08 1.30606E-08
 -1       543-1.83655E+05 6.59794E+03 3.80161E+04-7.89742E+03 8.32915E-09-8.26049E-09
 -1       544-4.58459E+05-3.70756E+03-1.78094E+04 1.66437E+04 9.01605E-09-2.39318E-08
 -1       545-2.79571E+05 1.52730E+03 1.69491E+04-4.97782E+04 6.63226E-09-3.94058E-08
 -1       546-3.82250E+05 2.05251E+03-4.43198E+03 3.18246E+04 4.82601E-10-4.44387E-08
 -1       547-3.52634E+05-3.88665E+03-2.89300E+03-6.41151E+04-7.24643E-08-5.70343E-08
 -1       548-3.87302E+05 3.25886E+03-1.41398E+04 3.10582E+04-5.85903E-08-4.90118E-08
 -1       549-2.73514E+05-1.18832E+04-7.15135E+03-4.64761E+04-2.79651E-08-3.29533E-08
 -1       550-4.59128E+05 8.21040E+03-6.30088E+04 1.40994E+04 4.51473E-09-2.12076E-08
 -1       551 2.34137E+04-6.57860E+05 2.25793E+04-1.05610E+06-5.86879E-08-5.86442E-09
 -1       552 5.20366E+04-6.75352E+05 3.14146E+04-1.50487E+06-4.19095E-08 1.58907E-08
 -1       553 3.76650E+04-6.80241E+05 4.64058E+04-1.05181E+06-6.99438E-08 1.95505E-08
 -1       554 8.10249E+04-6.75389E+05 9.78001E+04-1.50650E+06-4.35684E-08 1.66028E-08
 -1       555 6.65820E+04-6.99873E+05 1.73508E+05-1.05261E+06-7.16973E-08-1.00918E-08
 -1       556 1.29241E+05-2.35136E+05 6.44050E+04-2.86073E+05-1.36351E-08-9.77889E-09
 -1       557 2.21058E+05-3.09048E+05 3.44638E+04-3.61814E+05 1.06229E-09 1.08021E-08
 -1       558 1.24663E+05-2.41220E+05 1.29569E+04-2.80601E+05-1.43773E-08 1.74623E-10
 -1       559 2.05346E+05-3.16702E+05 6.88261E+03-3.70607E+05 1.47702E-09-1.01663E-08
 -1       560 1.18908E+05-2.37533E+05 2.28141E+03-2.84527E+05-4.01633E-09-9.61518E-09
 -1       561 1.97519E+05-3.14004E+05 1.43651E+03-3.75712E+05-1.96451E-10-7.18501E-09
 -1       562 1.14378E+05-2.34631E+05 2.61167E+02-2.87777E+05 4.78758E-09 1.15178E-08
 -1       563 1.92205E+05-3.11694E+05 3.53270E+02-3.79132E+05-1.20344E-08-4.85102E-10
 -1       564 1.11361E+05-2.32727E+05 3.52806E+01-2.89907E+05 4.68572E-09-2.82171E-09
 -1       565 1.89068E+05-3.10332E+05 1.33636E+02-3.81121E+05 9.16225E-09 8.64929E-10
 -1       566 1.09918E+05-2.31804E+05 1.19163E+01-2.90922E+05 5.90808E-09 2.33558E-09
 -1       567 1.88073E+05-3.09885E+05-6.56820E+01-3.81658E+05 1.21672E-08-5.09317E-09
 -1       568 1.10098E+05-2.31930E+05-3.72976E+02-2.90887E+05 1.45883E-09 1.25910E-08
 -1       569 1.88314E+05-3.09800E+05-9.23460E+02-3.79910E+05-3.58341E-09 1.07684E-08
 -1       570 1.12646E+05-2.34032E+05-2.20255E+03-2.90454E+05 5.82077E-10-1.93477E-08
 -1       571 2.26504E+05 8.34378E+03 1.22661E+04-5.94950E+04 1.57661E-09 3.39446E-09
 -1       572 2.28319E+05 2.95347E+03 6.00994E+03-6.52571E+04 1.07912E-09-6.03632E-09
 -1       573 2.27232E+05 7.54860E+02 2.67011E+03-5.93630E+04 5.51609E-10-6.74572E-09
 -1       574 2.27440E+05 2.99519E+02 1.33813E+03-6.54101E+04-9.11768E-10 1.19053E-08
 -1       575 2.27314E+05 9.93182E+01 6.31126E+02-5.93455E+04-2.10684E-09 7.54108E-09
 -1       576 2.27325E+05 8.31073E+01 3.22148E+02-6.54306E+04-5.52404E-10-5.74028E-09
 -1       577 2.27332E+05 6.04323E+01 1.60132E+02-5.93431E+04 5.47061E-10 1.17961E-09
 -1       578 2.27323E+05 6.67684E+01 9.04310E+01-6.54331E+04-1.02796E-09-2.07820E-09
 -1       579 2.27357E+05 5.09620E+01 6.04521E+01-5.93430E+04 6.93944E-10-8.50969E-09
 -1       580 2.27357E+05 5.16066E+01 6.56598E+01-6.54297E+04-2.68801E-09-2.08320E-09
 -1       581 2.27397E+05 3.43096E+01 9.82432E+01-5.93466E+04 2.89219E-10-1.82536E-09
 -1       582 2.27427E+05 5.40044E+01 1.95211E+02-6.53921E+04 8.62201E-10-6.34827E-09
 -1       583 2.27442E+05 9.51413E+01 3.77943E+02-5.93806E+04-3.63798E-11 3.03680E-09
 -1       584 2.27622E+05 3.96030E+02 8.50450E+02-6.51067E+04-8.51287E-10-7.24435E-09
 -1       585 2.27402E+05 1.14114E+03 1.72776E+03-5.96324E+04-1.70985E-09-6.58292E-09
 -1       586-2.87750E+03 7.44641E+04-3.46173E+03-2.02801E+05-1.43973E-09-5.07714E-09
 -1       587-7.22384E+02 7.40442E+04-8.47653E+01-2.23228E+05-9.67702E-10-1.60164E-08
 -1       588 7.31086E+02 7.40828E+04 3.19884E+03-2.02707E+05-7.76708E-10-7.07405E-09
 -1       589 4.26223E+03 7.58208E+04 8.90049E+03-2.22989E+05-1.74623E-09-2.28829E-08
 -1       590 1.26724E+04 7.30945E+04 1.89069E+04-2.03055E+05-1.06229E-09-1.25692E-08
 -1       591-4.60784E+04-1.19071E+04-1.58567E+04-2.21101E+04-2.20211E-10 2.85127E-09
 -1       592-4.82489E+04-1.51177E+04-8.58894E+03-2.54659E+04-3.76872E-11-7.84075E-09
 -1       593-4.76712E+04-1.07493E+04-3.57542E+03-2.32659E+04 3.05022E-10-7.82688E-09
 -1       594-4.60499E+04-1.28014E+04-1.78324E+03-2.55617E+04 3.05025E-09-1.08598E-08
 -1       595-4.77929E+04-1.07448E+04-8.19155E+02-2.33186E+04 6.72458E-10 1.49251E-09
 -1       596-4.59001E+04-1.26955E+04-4.17079E+02-2.55448E+04 8.09976E-10 1.46781E-08
 -1       597-4.78082E+04-1.07554E+04-2.28494E+02-2.33206E+04 1.35014E-09 1.52885E-08
 -1       598-4.58855E+04-1.26914E+04-1.86219E+02-2.55401E+04-3.21546E-09-5.22982E-09
 -1       599-4.78071E+04-1.07556E+04-2.41037E+02-2.33203E+04 4.08295E-09-8.68386E-09
 -1       600-4.59009E+04-1.26965E+04-4.50293E+02-2.55438E+04-1.13141E-09-1.53818E-09
 -1       601-4.77884E+04-1.07449E+04-8.89641E+02-2.33173E+04 1.58707E-09-4.11569E-09
 -1       602-4.60634E+04-1.28113E+04-1.93956E+03-2.55595E+04-1.63584E-09 6.67524E-09
 -1       603-4.76540E+04-1.07519E+04-3.88999E+03-2.32604E+04 5.54564E-10 3.53339E-09
 -1       604-4.84676E+04-1.53182E+04-9.34442E+03-2.54384E+04 1.44109E-09-4.12683E-10
 -1       605-4.59069E+04-1.20235E+04-1.72515E+04-2.20158E+04 1.82922E-10 6.14364E-09
 -1       606 2.75754E+04-1.08533E+04-1.95094E+04 2.65809E+04 9.29504E-10-3.99541E-09
 -1       607 2.42368E+04-3.51712E+03-9.71479E+03 2.98446E+04 3.78350E-10-9.53150E-10
 -1       608 2.61315E+04-6.08655E+02-4.35021E+03 2.63732E+04 9.22773E-09 1.46194E-08
 -1       609 2.57578E+04-1.75991E+02-2.19720E+03 3.00788E+04 1.62481E-08 1.21408E-08
 -1       610 2.59582E+04 8.14631E+00-1.04928E+03 2.63498E+04 6.06269E-09 1.22791E-08
 -1       611 2.58905E+04 1.89401E+01-5.29014E+02 3.01043E+04-5.36238E-09 4.09864E-09
 -1       612 2.59130E+04 2.44853E+01-2.52539E+02 2.63474E+04-9.44056E-10-1.12580E-08
 -1       613 2.58895E+04 2.75438E+01-1.14037E+02 3.01073E+04-3.54885E-09-4.85898E-10
 -1       614 2.58886E+04 2.44493E+01-2.93984E+01 2.63466E+04-8.92032E-09 7.45331E-10
 -1       615 2.58777E+04 3.29617E+01 4.17676E+01 3.01078E+04-1.59148E-08 2.88651E-09
 -1       616 2.58699E+04 3.03524E+01 1.30726E+02 2.63469E+04-2.09616E-08-8.65680E-09
 -1       617 2.58877E+04 6.43457E+01 3.00633E+02 3.01073E+04-1.95007E-08-7.36463E-10
 -1       618 2.58395E+04 1.19726E+02 6.06709E+02 2.63471E+04-1.30544E-08 9.93282E-09
 -1       619 2.60984E+04 5.35669E+02 1.36301E+03 3.01064E+04-3.46972E-09 9.94487E-09
 -1       620 2.56358E+04 1.56039E+03 2.73968E+03 2.63462E+04 4.30873E-11 8.48877E-09
 -1       621 2.70501E+02 2.31541E+05 2.48243E+03 1.59246E+04-5.00222E-12 1.62436E-09
 -1       622 3.33361E+02 2.32146E+05 2.31722E+03 2.31747E+04 1.87583E-10-1.02846E-08
 -1       623 2.37446E+01 2.31679E+05 2.93772E+03 1.58483E+04 8.97558E-11-2.34286E-09
 -1       624 1.41704E+03 2.33124E+05 5.81727E+03 2.32528E+04 1.24544E-10 8.56892E-09
 -1       625 1.42295E+03 2.30533E+05 1.02252E+04 1.58458E+04 2.98314E-10-3.36297E-09
 -1       626 2.04449E+05 5.36905E+04 4.46657E+03 1.06302E+05 1.01909E-09-4.09636E-09
 -1       627 2.02067E+05 5.52697E+04 2.15239E+03 1.10427E+05-7.37737E-09-1.72721E-08
 -1       628 2.04582E+05 5.16170E+04 9.09457E+02 1.07022E+05 5.86169E-09-1.19576E-09
 -1       629 2.01469E+05 5.47155E+04 4.45282E+02 1.10672E+05 2.46805E-08-2.93588E-09
 -1       630 2.04592E+05 5.15190E+04 2.05714E+02 1.07047E+05 1.11504E-08 7.17822E-09
 -1       631 2.01400E+05 5.46989E+04 1.09807E+02 1.10672E+05-6.14818E-10-4.47608E-09
 -1       632 2.04583E+05 5.15257E+04 7.06456E+01 1.07039E+05-6.96582E-09-3.12343E-09
 -1       633 2.01386E+05 5.47038E+04 7.62820E+01 1.10665E+05-7.68250E-09 1.40199E-08
 -1       634 2.04574E+05 5.15262E+04 1.21066E+02 1.07035E+05-2.33922E-09 7.51174E-09
 -1       635 2.01393E+05 5.47047E+04 2.43795E+02 1.10666E+05-5.77506E-09-6.52676E-09
 -1       636 2.04563E+05 5.15241E+04 4.91637E+02 1.07033E+05-7.29744E-09-9.92441E-09
 -1       637 2.01495E+05 5.47821E+04 1.08026E+03 1.10662E+05 3.99746E-09 2.12217E-08
 -1       638 2.04522E+05 5.17640E+04 2.21967E+03 1.06923E+05 2.96177E-09 7.71433E-09
 -1       639 2.02660E+05 5.64034E+04 5.25121E+03 1.10317E+05-4.42265E-09 1.30103E-08
 -1       640 2.04365E+05 5.66003E+04 1.08973E+04 1.04876E+05-9.02219E-10 1.21418E-10
 -1       656 5.38545E+04-1.36897E+06-1.30005E+05-6.54895E+02 1.09139E-10-3.71142E-09
 -1       657-7.12030E+04-1.42767E+06-1.07600E+05 7.37417E+03 4.22006E-10 1.22247E-08
 -1       658 1.71212E+04-1.38568E+06-6.61414E+04-2.15321E+03 7.60792E-10-7.07311E-09
 -1       659-7.66489E+04-1.43025E+06-1.14754E+05 8.46010E+03-1.29148E-09-9.73336E-09
 -1       660 5.92879E+04-1.36639E+06-1.42306E+05-1.74081E+03-4.51109E-10 9.39733E-09
 -1       661 1.67171E+05 1.80134E+04 1.65227E+04 6.53755E+04 1.15915E-09 7.81438E-09
 -1       662 1.76052E+05 3.07012E+04 1.11340E+04 6.21923E+04 3.05766E-09 5.18526E-10
 -1       663 1.70413E+05 2.33162E+04 3.89454E+03 6.44367E+04 6.49493E-10-4.89285E-09
 -1       664 1.72297E+05 2.44967E+04 2.32889E+03 6.33363E+04 6.73822E-10-8.00358E-09
 -1       665 1.70902E+05 2.40436E+04 9.18705E+02 6.42972E+04-2.36639E-10-5.01967E-09
 -1       666 1.71722E+05 2.36623E+04 5.36466E+02 6.35167E+04-3.65002E-09 2.78256E-09
 -1       667 1.70985E+05 2.41287E+04 2.83659E+02 6.42644E+04-1.95263E-09 2.31388E-11
 -1       668 1.71631E+05 2.35979E+04 2.86069E+02 6.35644E+04 1.19043E-09-1.24637E-08
 -1       669 1.70992E+05 2.41061E+04 3.84862E+02 6.42501E+04 2.28226E-11 4.35625E-09
 -1       670 1.71726E+05 2.38043E+04 8.35782E+02 6.35659E+04 2.32072E-09-3.11148E-09
 -1       671 1.70891E+05 2.39264E+04 1.48322E+03 6.42611E+04 2.36368E-09-1.11244E-08
 -1       672 1.72590E+05 2.52473E+04 3.79419E+03 6.33571E+04 1.72653E-09-6.36282E-09
 -1       673 1.70132E+05 2.26994E+04 6.35822E+03 6.44450E+04 1.48361E-10-1.04085E-08
 -1       674 1.78643E+05 3.54607E+04 1.81831E+04 6.15774E+04 7.52095E-10 2.07888E-09
 -1       675 1.64877E+05 1.39988E+04 2.69898E+04 6.59332E+04 1.46883E-10-2.04091E-09
 -1       676 2.09846E+01-2.53651E+05-9.74877E+02 6.62464E+00-1.27613E-10-1.28935E-08
 -1       677-2.58908E+02-2.53887E+05-1.78416E+03-1.32410E+01-7.68864E-10-8.19539E-09
 -1       678 1.72823E+02-2.53483E+05-3.15393E+03 6.61187E+00 4.25644E-10 3.78909E-09
 -1       679-3.15485E+03-2.55791E+05-7.49228E+03-1.31921E+01 6.77119E-10-5.37449E-09
 -1       680 1.88282E+03-2.51749E+05-1.20750E+04 6.50097E+00-1.17325E-10-6.76280E-09
 -1       771-2.68820E+06-5.46701E+05-8.36259E+04-1.19459E+06-1.91794E-08-1.32859E-08
 -1       772-2.64769E+06-6.01159E+05-4.38750E+04-1.25664E+06-1.30967E-08 5.59157E-09
 -1       773-2.70298E+06-5.35023E+05-2.07945E+04-1.19991E+06-7.30506E-09 5.68980E-09
 -1       774-2.63893E+06-5.92383E+05-9.61966E+03-1.26715E+06 1.17507E-08-5.34783E-10
 -1       775-2.70913E+06-5.30666E+05-6.16422E+03-1.20164E+06-2.38651E-09 2.02272E-09
 -1       776-2.64185E+06-5.91999E+05-2.48159E+03-1.27434E+06-4.13274E-09 2.47019E-09
 -1       777-2.71417E+06-5.26959E+05-2.36965E+03-1.20313E+06 9.22591E-09 1.64073E-09
 -1       778-2.64523E+06-5.91764E+05-7.39855E+02-1.28042E+06 1.35915E-08 7.26868E-09
 -1       779-2.71839E+06-5.23788E+05-1.09049E+03-1.20442E+06-4.14730E-09-9.19681E-09
 -1       780-2.64822E+06-5.91500E+05-2.28419E+02-1.28536E+06-6.38829E-09 3.34694E-10
 -1       781-2.72168E+06-5.21267E+05-4.59300E+02-1.20543E+06-1.74259E-08-6.83940E-10
 -1       782-2.65052E+06-5.91239E+05 1.29430E-01-1.28898E+06-2.04273E-08-6.80029E-09
 -1       783-2.72396E+06-5.19551E+05-5.15388E+01-1.20615E+06-8.65111E-09-6.10953E-09
 -1       784-2.65190E+06-5.90976E+05 2.53898E+02-1.29119E+06-2.45564E-08-1.99339E-09
 -1       785-2.72516E+06-5.18642E+05 3.93787E+02-1.20654E+06-2.59952E-08 4.93856E-09
 -1       786 1.29546E+05-9.08284E+03 2.10127E+04-1.20646E+02 1.75875E-09-3.64980E-09
 -1       787 1.38657E+05 1.05151E+04 1.48659E+04 3.05276E+01 2.69119E-09 2.86491E-11
 -1       788 1.33059E+05-1.42375E+03 5.43725E+03-9.48658E+01 9.99771E-10 8.33938E-09
 -1       789 1.34564E+05 1.64721E+03 3.41446E+03-1.11870E+01-4.81799E-10 1.81058E-09
 -1       790 1.33639E+05-2.22183E+02 1.38504E+03-7.89359E+01-9.21557E-10-2.73872E-10
 -1       791 1.33886E+05 2.56942E+02 8.05004E+02-3.89376E+01-2.25913E-09 8.12690E-10
 -1       792 1.33737E+05-3.45225E+01 3.51190E+02-6.71153E+01-9.57881E-10-1.21971E-08
 -1       793 1.33772E+05 4.06690E+01 1.97163E+02-6.13574E+01-2.01982E-10 3.25854E-09
 -1       794 1.33754E+05-6.04738E+00 9.56169E+01-5.65158E+01 1.56508E-09 1.11817E-08
 -1       795 1.33754E+05 1.20647E+01 6.54402E+01-8.36723E+01-1.61771E-09 7.48170E-09
 -1       796 1.33755E+05-5.93188E+00 5.39474E+01-4.48001E+01 1.08430E-09-3.10151E-09
 -1       797 1.33767E+05 3.92006E+01 9.07500E+01-1.10761E+02 4.99630E-10 4.46806E-09
 -1       798 1.33742E+05-3.31649E+01 1.31503E+02-2.94271E+01 4.84270E-10 7.39952E-09
 -1       799 1.33862E+05 2.44386E+02 3.47991E+02-1.48530E+02 4.02616E-10 3.86400E-09
 -1       800 1.33660E+05-2.10962E+02 4.88570E+02-7.02966E+00 6.77807E-10 5.55875E-09
 -1       801 8.99460E+04-3.78458E+06-3.76611E+05 1.25658E+05 2.72412E-08-2.55914E-08
 -1       802-9.98097E+04-2.99759E+06-9.53759E+04-1.05262E+05 7.38219E-08-1.17333E-08
 -1       803 6.78578E+03-3.66354E+06-1.21292E+05 1.83628E+05 4.13420E-08 3.20492E-08
 -1       804-2.67430E+04-3.25572E+06-1.18325E+04 9.53827E+04 1.60071E-08 1.99445E-08
 -1       805 1.20165E+04-3.52865E+06-4.53729E+04-7.49470E+04 5.87875E-09 4.21937E-09
 -1       806-2.49515E+05-4.72642E+04-1.82699E+04-9.76176E+04 6.44195E-09-3.03362E-09
 -1       807-2.51141E+05-4.40936E+04-8.97579E+03-1.01826E+05 9.20545E-09-2.21253E-08
 -1       808-2.50002E+05-4.06951E+04-3.80790E+03-1.00749E+05 3.23462E-09 1.12351E-08
 -1       809-2.49261E+05-4.15651E+04-1.86198E+03-1.02041E+05-2.79442E-10 1.02823E-08
 -1       810-2.50078E+05-4.04660E+04-8.53284E+02-1.00888E+05-3.99268E-10 4.20869E-10
 -1       811-2.49117E+05-4.14626E+04-4.24190E+02-1.02013E+05-6.53540E-09 1.45957E-08
 -1       812-2.50091E+05-4.04848E+04-2.14058E+02-1.00889E+05-4.04543E-09 3.27327E-09
 -1       813-2.49099E+05-4.14637E+04-1.38492E+02-1.02000E+05 8.54925E-10 1.21023E-08
 -1       814-2.50087E+05-4.04914E+04-1.36018E+02-1.00886E+05-1.89448E-09 6.32826E-09
 -1       815-2.49103E+05-4.14649E+04-2.18432E+02-1.01996E+05 3.61479E-09 9.99080E-09
 -1       816-2.50074E+05-4.04893E+04-4.13138E+02-1.00884E+05-8.21274E-10 4.45880E-09
 -1       817-2.49175E+05-4.15039E+04-8.86983E+02-1.01990E+05 1.18735E-09 1.95705E-08
 -1       818-2.50023E+05-4.06124E+04-1.80867E+03-1.00826E+05 2.14186E-09-5.96265E-09
 -1       819-2.50166E+05-4.25987E+04-4.25658E+03-1.01761E+05-5.42059E-10-1.31388E-08
 -1       820-2.49690E+05-4.38206E+04-8.66318E+03-9.94459E+04-8.17636E-10 3.01975E-09
 -1       821-3.04270E+05 1.68289E+04-3.89210E+04 3.93228E+02 1.81562E-06-7.29360E-08
 -1       822-3.21128E+05-1.94822E+04-2.75412E+04-1.07614E+03 3.65357E-06 7.70160E-09
 -1       823-3.10773E+05 2.63887E+03-1.00801E+04 4.23989E+02 1.81919E-06 4.04862E-09
 -1       824-3.13530E+05-3.05360E+03-6.34067E+03-9.05558E+02 5.25365E-09 9.79230E-09
 -1       825-3.11865E+05 4.12595E+02-2.61000E+03 2.22643E+02 2.95259E-10-1.09367E-09
 -1       826-3.12250E+05-4.85973E+02-1.56777E+03-3.63056E+02-1.01605E-09-1.43359E-09
 -1       827-3.12051E+05 7.24420E+01-8.21657E+02-1.18523E+02-1.55178E-09-1.57901E-08
 -1       828-3.12080E+05-1.48550E+02-7.18139E+02 3.04629E+02-3.78690E-09-7.03780E-10
 -1       829-3.12034E+05 7.54823E+01-8.38627E+02-4.45054E+02-3.36485E-10-2.04597E-09
 -1       830-3.12298E+05-5.06159E+02-1.63351E+03 7.94715E+02 1.46124E-09 1.34747E-08
 -1       831-3.11834E+05 4.30500E+02-2.71033E+03-6.08618E+02-2.59367E-09 6.42990E-09
 -1       832-3.13608E+05-3.17962E+03-6.60499E+03 8.85003E+02-9.20714E-10 8.98467E-09
 -1       833-3.10726E+05 2.74720E+03-1.04988E+04-5.35342E+02-9.11704E-10 2.86218E-09
 -1       834-3.21474E+05-2.02873E+04-2.86765E+04 5.32502E+02-7.65965E-12 1.99361E-09
 -1       835-3.03970E+05 1.75245E+04-4.05401E+04-2.56104E+02 5.56572E-09-4.62023E-10
 -1       836-1.03800E+03 2.87470E+05 1.74554E+04-1.66107E+04-4.90218E-10 6.01267E-09
 -1       837 3.79978E+03 2.92900E+05 1.49442E+04-3.34200E+04 2.11458E-11-5.08339E-09
 -1       838-4.00040E+02 2.88970E+05 1.54702E+04-1.65456E+04 1.64619E-10 5.46584E-09
 -1       839 9.91082E+03 2.97455E+05 2.95046E+04-3.34588E+04 5.26143E-10 2.50816E-09
 -1       840-3.00918E+03 2.82872E+05 4.71533E+04-1.65713E+04 2.03727E-10-7.90158E-09
 -1       856-7.45274E+04 7.61517E+03-2.00683E+04-4.25329E+02 4.22517E-10 7.56881E-09
 -1       857-8.28122E+04-8.93454E+03-1.38160E+04 4.81356E+03-1.59207E-09-7.53016E-09
 -1       858-7.78022E+04 1.06716E+03-5.20795E+03-4.47326E+02-2.21786E-09-9.49171E-09
 -1       859-7.90524E+04-1.24323E+03-3.14448E+03 4.84813E+03-6.19153E-10 1.11826E-08
 -1       860-7.82916E+04 1.48592E+02-1.32067E+03-4.59956E+02 1.40827E-09 1.14369E-09
 -1       861-7.84889E+04-1.66061E+02-7.32465E+02 4.86542E+03-3.59842E-09-4.94680E-11
 -1       862-7.83679E+04 1.96615E+01-3.16390E+02-4.64640E+02 5.19417E-09-3.32042E-09
 -1       863-7.83975E+04-1.20878E+01-1.42299E+02 4.86769E+03 9.78026E-09-1.03552E-08
 -1       864-7.83834E+04-1.96243E+00-1.60835E+01-4.62226E+02 5.28827E-09 2.39694E-10
 -1       865-7.83614E+04 3.80134E+01 1.06724E+02 4.85519E+03 3.44949E-09-1.15776E-08
 -1       866-7.84022E+04-3.07907E+01 2.46297E+02-4.52145E+02-6.02142E-10-7.20202E-09
 -1       867-7.82370E+04 2.56553E+02 6.26414E+02 4.82778E+03 1.97815E-11-9.05015E-09
 -1       868-7.85040E+04-2.17524E+02 1.04562E+03-4.34809E+02 8.09450E-11-1.14626E-08
 -1       869-7.74641E+04 1.80886E+03 2.79176E+03 4.78225E+03-2.06640E-09-1.07427E-08
 -1       870-7.91693E+04-1.54234E+03 4.05024E+03-4.06616E+02 1.57456E-10 3.73575E-10
 -1       871-4.60122E+03-1.13843E+04-1.51970E+04 1.00994E+05 8.65839E-10-1.04374E-08
 -1       872-1.92691E+03-1.48203E+04-6.24584E+03 1.30938E+05 1.26420E-10-3.73666E-09
 -1       873 3.20723E+01-1.32071E+04 7.54817E+02 1.00772E+05 1.30512E-10 3.02975E-09
 -1       874 2.36734E+03-1.10889E+04 8.31527E+03 1.30978E+05 8.36053E-10-5.47766E-09
 -1       875 5.43887E+03-1.51809E+04 1.85285E+04 1.00958E+05 4.53838E-10-6.65204E-09
 -1       876 2.41839E+05 4.13342E+04 1.26964E+04 9.77289E+04-1.80523E-09-5.49153E-09
 -1       877 2.42616E+05 4.40705E+04 6.78027E+03 1.01429E+05 9.70203E-10 9.54060E-09
 -1       878 2.43025E+05 3.99294E+04 2.84062E+03 9.87716E+04 6.30280E-10-7.23526E-09
 -1       879 2.40890E+05 4.23493E+04 1.41520E+03 1.01517E+05 3.62957E-09-6.39221E-09
 -1       880 2.43111E+05 3.99143E+04 6.59031E+02 9.88142E+04 6.98242E-09-9.27321E-09
 -1       881 2.40775E+05 4.22760E+04 3.51473E+02 1.01498E+05 7.05177E-09-6.19026E-09
 -1       882 2.43119E+05 3.99250E+04 2.24080E+02 9.88154E+04 9.45874E-09 6.02208E-09
 -1       883 2.40767E+05 4.22724E+04 2.39636E+02 1.01493E+05 4.59613E-09 8.51425E-09
 -1       884 2.43114E+05 3.99224E+04 3.80065E+02 9.88156E+04 8.07063E-10 9.23649E-10
 -1       885 2.40797E+05 4.22778E+04 7.63434E+02 1.01502E+05 5.21112E-09 1.53477E-08
 -1       886 2.43085E+05 3.99001E+04 1.53834E+03 9.88125E+04 2.70524E-09 6.47151E-09
 -1       887 2.41067E+05 4.24550E+04 3.36019E+03 1.01541E+05-4.46562E-10-4.44015E-09
 -1       888 2.42873E+05 3.99374E+04 6.77086E+03 9.87049E+04-3.11425E-09 4.95447E-09
 -1       889 2.45101E+05 4.66451E+04 1.61748E+04 1.01415E+05 1.31455E-09 5.69980E-09
 -1       890 2.40114E+05 4.32148E+04 3.02944E+04 9.61223E+04 3.00543E-09 3.89809E-09
 -1       891-1.33113E+02-1.36105E+05-1.63367E+03 2.47006E+04 7.87395E-10 1.18253E-08
 -1       892-2.35365E+02-1.36505E+05-1.76675E+03 3.74042E+04 8.94488E-10 3.39787E-09
 -1       893-2.47643E+01-1.36156E+05-2.51412E+03 2.47060E+04-3.87445E-10-3.18687E-09
 -1       894-1.34544E+03-1.37461E+05-5.21240E+03 3.72696E+04-4.50655E-10-2.67210E-09
 -1       895-1.05619E+03-1.35070E+05-9.18264E+03 2.48340E+04 9.15975E-10-1.51886E-09
 -1       956-3.06632E+05-4.31411E+03-1.08253E+04 2.11547E+04 8.25548E-09 9.52787E-09
 -1       957-3.08767E+05-1.46596E+03-5.55710E+03 2.54736E+04 1.58207E-08-8.22183E-10
 -1       958-3.07595E+05-1.27779E+02-2.50373E+03 2.10273E+04 1.15824E-08-6.30735E-09
 -1       959-3.07764E+05-3.35504E+01-1.27884E+03 2.56139E+04-9.71340E-10 1.00640E-08
 -1       960-3.07683E+05 2.52932E+01-6.23544E+02 2.10149E+04 5.13865E-11-5.94582E-09
 -1       961-3.07692E+05 2.14100E+01-3.30975E+02 2.56282E+04-6.34600E-10 6.17933E-09
 -1       962-3.07701E+05 2.16260E+01-1.89789E+02 2.10129E+04-3.05158E-09 7.79914E-09
 -1       963-3.07690E+05 2.31168E+01-1.52963E+02 2.56307E+04-3.27782E-09-1.84400E-10
 -1       964-3.07705E+05 2.38051E+01-1.86509E+02 2.10123E+04-7.13328E-10-1.32393E-08
 -1       965-3.07700E+05 2.60505E+01-3.22985E+02 2.56305E+04 2.85979E-10-1.65610E-08
 -1       966-3.07694E+05 3.17762E+01-6.06791E+02 2.10132E+04 2.14709E-09-1.17204E-08
 -1       967-3.07778E+05-2.29045E+01-1.24472E+03 2.56214E+04-2.66925E-09 1.43742E-08
 -1       968-3.07615E+05-1.12920E+02-2.43619E+03 2.10215E+04-7.41693E-10-2.51282E-09
 -1       969-3.08763E+05-1.41324E+03-5.40894E+03 2.55244E+04 1.30376E-09 9.70113E-09
 -1       970-3.06683E+05-4.18494E+03-1.05359E+04 2.11109E+04 2.07820E-10 1.15124E-08
 -1       971-2.87007E+05-1.48560E+03-8.20385E+03 1.35204E+04-3.11729E-09 9.53293E-10
 -1       972-2.88998E+05-1.07060E+03-4.46773E+03 1.88497E+04-2.86946E-10-9.28185E-09
 -1       973-2.87920E+05-1.88515E+01-2.00076E+03 1.34084E+04 9.71340E-10 4.32647E-09
 -1       974-2.88055E+05-2.17293E+01-1.03665E+03 1.89719E+04 2.02590E-10-6.87464E-09
 -1       975-2.87991E+05 2.00493E+01-5.17458E+02 1.33979E+04-2.34149E-09 3.59137E-10
 -1       976-2.88000E+05 2.16697E+01-2.97202E+02 1.89849E+04-4.88194E-09-7.56381E-09
 -1       977-2.88005E+05 2.01965E+01-2.13335E+02 1.33953E+04-4.43015E-09 3.56954E-09
 -1       978-2.88003E+05 2.67486E+01-2.46409E+02 1.89886E+04-1.71781E-09 3.32113E-09
 -1       979-2.88005E+05 2.70482E+01-3.93122E+02 1.33942E+04 2.81148E-10 5.78461E-09
 -1       980-2.88032E+05 2.92424E+01-7.57327E+02 1.89892E+04 2.71234E-09-7.11441E-09
 -1       981-2.87981E+05 4.59280E+01-1.46586E+03 1.33946E+04 2.14868E-10-2.25270E-09
 -1       982-2.88234E+05-7.90159E+01-3.02938E+03 1.89835E+04 1.02284E-09 4.01928E-09
 -1       983-2.87797E+05-4.78645E+01-5.88584E+03 1.34001E+04 1.85810E-09 8.54652E-09
 -1       984-2.91064E+05-3.15288E+03-1.31807E+04 1.89071E+04-3.25599E-09 1.13977E-08
 -1       985-2.85132E+05-4.35476E+03-2.42039E+04 1.34740E+04 7.79437E-10 5.70071E-09
 -3
    1PSTEP                        19          10           1          
  100CL  110 5.83069E-01         409                     0   10           1
 -4  DISP        4    1
 -5  D1          1    2    1    0
 -5  D2          1    2    2    0
 -5  D3          1    2    3    0
 -5  ALL         1    2    0    0    1ALL
 -1         1 7.17707E-04 0.00000E+00 0.00000E+00
 -1         2 6.69023E-04-2.53890E-29 0.00000E+00
 -1         3 2.29931E-04-8.14713E-27 0.00000E+00
 -1         5 1.34976E-04-8.93682E-27 0.00000E+00
 -1         8 6.95939E-04-7.03160E-07 0.00000E+00
 -1         9 6.73700E-04-2.22934E-06 0.00000E+00
 -1        10 2.09863E-04-2.94460E-06-6.61744E-24
 -1        12 1.35336E-04 6.56026E-07-1.65436E-24
 -1        15 6.69782E-04-7.78171E-07-2.06795E-25
 -1        16 6.75162E-04-2.76614E-06 0.00000E+00
 -1        17 1.47142E-04-6.39636E-06 0.00000E+00
 -1        18 1.35096E-04 1.36458E-05 0.00000E+00
 -1        19 1.36418E-04 1.30864E-06 0.00000E+00
 -1        20 1.36565E-04 6.34756E-06 0.00000E+00
 -1        21 1.35874E-04 9.15768E-06 3.30872E-24
 -1        24 2.53925E-05-9.07556E-06 0.00000E+00
 -1        25 1.38425E-04 1.38085E-05 0.00000E+00
 -1        26 1.39135E-04 1.81305E-06 0.00000E+00
 -1        27 1.37337E-04 3.37836E-06 0.00000E+00
 -1        28 1.36927E-04 8.61515E-06 0.00000E+00
 -1        32 0.00000E+00 0.00000E+00 0.00000E+00
 -1        33 1.40768E-04 2.42959E-06 0.00000E+00
 -1        34 1.38989E-04 3.34591E-06 0.00000E+00
 -1        35 1.37334E-04 8.32338E-06 0.00000E+00
 -1        51 7.16303E-04-1.22428E-07 0.00000E+00
 -1        52 7.13690E-04-2.34957E-07 0.00000E+00
 -1        53 7.10104E-04-3.47229E-07 0.00000E+00
 -1        54 7.05787E-04-4.61148E-07-3.30872E-24
 -1        55 7.00984E-04-5.77927E-07 4.96308E-24
 -1        56 7.15252E-04-6.67062E-07 5.29396E-23
 -1        57 7.12541E-04-9.19503E-07 0.00000E+00
 -1        58 7.09679E-04-7.52703E-07 0.00000E+00
 -1        59 7.06665E-04-2.28565E-07-2.64698E-23
 -1        60 7.03550E-04 5.62423E-07 0.00000E+00
 -1        61 7.00374E-04 1.50814E-06 0.00000E+00
 -1        62 6.97187E-04 2.47977E-06 5.29396E-23
 -1        63 6.94040E-04 3.34605E-06-2.64698E-23
 -1        64 6.90977E-04 3.98828E-06 0.00000E+00
 -1        65 6.88038E-04 4.30057E-06 0.00000E+00
 -1        66 6.85250E-04 4.21508E-06 0.00000E+00
 -1        67 6.82630E-04 3.68751E-06 2.64698E-23
 -1        68 6.80175E-04 2.72348E-06 0.00000E+00
 -1        69 6.77884E-04 1.35901E-06 0.00000E+00
 -1        70 6.75711E-04-3.34168E-07 0.00000E+00
 -1        86 6.69195E-04-3.67992E-07-1.32349E-23
 -1        87 6.69709E-04-7.36454E-07-6.61744E-24
 -1        88 6.70500E-04-1.10514E-06 1.32349E-23
 -1        89 6.71500E-04-1.47628E-06 0.00000E+00
 -1        90 6.72602E-04-1.84675E-06 0.00000E+00
 -1       121 2.29368E-04-4.83654E-07-1.32349E-23
 -1       122 2.27682E-04-9.68531E-07 6.61744E-24
 -1       123 2.24877E-04-1.45583E-06 0.00000E+00
 -1       124 2.20963E-04-1.94681E-06 6.61744E-24
 -1       125 2.15953E-04-2.44245E-06 1.32349E-23
 -1       191 1.34986E-04 1.09344E-07 0.00000E+00
 -1       192 1.35016E-04 2.18686E-07-1.65436E-24
 -1       193 1.35066E-04 3.28027E-07 3.30872E-24
 -1       194 1.35136E-04 4.37366E-07 0.00000E+00
 -1       195 1.35226E-04 5.46700E-07-3.30872E-24
 -1       251 6.95267E-04 1.41293E-05 0.00000E+00
 -1       252 6.94086E-04 4.96023E-05-6.61744E-24
 -1       253 6.92338E-04 9.93794E-05-1.32349E-23
 -1       254 6.90194E-04 1.56795E-04-6.61744E-24
 -1       255 6.88107E-04 2.13117E-04-1.32349E-23
 -1       256 6.86506E-04 2.59642E-04 0.00000E+00
 -1       257 6.85473E-04 2.90307E-04 1.32349E-23
 -1       258 6.84854E-04 2.99418E-04 6.61744E-24
 -1       259 6.84201E-04 2.86959E-04 0.00000E+00
 -1       260 6.83081E-04 2.53430E-04 0.00000E+00
 -1       261 6.81388E-04 2.04891E-04 1.32349E-23
 -1       262 6.79257E-04 1.47747E-04 0.00000E+00
 -1       263 6.77133E-04 9.07280E-05-1.32349E-23
 -1       264 6.75455E-04 4.25624E-05-6.61744E-24
 -1       265 6.74353E-04 9.58111E-06-1.32349E-23
 -1       266 6.91580E-04-7.25789E-07 3.30872E-24
 -1       267 6.87220E-04-7.37057E-07-8.27181E-25
 -1       268 6.82861E-04-7.49044E-07 0.00000E+00
 -1       269 6.78501E-04-7.58899E-07 0.00000E+00
 -1       270 6.74142E-04-7.68705E-07-4.13590E-25
 -1       271 6.93251E-04 2.97020E-06 0.00000E+00
 -1       272 6.90726E-04 6.10176E-06 0.00000E+00
 -1       273 6.88411E-04 8.68117E-06 0.00000E+00
 -1       274 6.86305E-04 1.06894E-05 1.32349E-23
 -1       275 6.84416E-04 1.21223E-05 0.00000E+00
 -1       276 6.82741E-04 1.29826E-05 1.32349E-23
 -1       277 6.81276E-04 1.32840E-05 2.64698E-23
 -1       278 6.80013E-04 1.30485E-05 0.00000E+00
 -1       279 6.78939E-04 1.23079E-05 0.00000E+00
 -1       280 6.78040E-04 1.11021E-05 1.32349E-23
 -1       281 6.77296E-04 9.47924E-06 2.64698E-23
 -1       282 6.76689E-04 7.49407E-06 0.00000E+00
 -1       283 6.76194E-04 5.20778E-06-2.64698E-23
 -1       284 6.75791E-04 2.68772E-06-1.32349E-23
 -1       285 6.75448E-04 2.41267E-09 0.00000E+00
 -1       301 6.74011E-04-2.33669E-06 6.61744E-24
 -1       302 6.73820E-04-2.41826E-06 0.00000E+00
 -1       303 6.73483E-04-2.49813E-06 0.00000E+00
 -1       304 6.73356E-04-2.57788E-06 0.00000E+00
 -1       305 6.73798E-04-2.65949E-06 0.00000E+00
 -1       306 6.91913E-04-6.68095E-05-5.29396E-23
 -1       307 7.40131E-04-2.52637E-04 0.00000E+00
 -1       308 8.02308E-04-5.29260E-04 0.00000E+00
 -1       309 8.68598E-04-8.56547E-04 0.00000E+00
 -1       310 9.34652E-04-1.18057E-03-5.29396E-23
 -1       311 9.95754E-04-1.44773E-03-2.64698E-23
 -1       312 1.04120E-03-1.61971E-03 0.00000E+00
 -1       313 1.05436E-03-1.66852E-03 0.00000E+00
 -1       314 1.01917E-03-1.59380E-03-1.05879E-22
 -1       315 9.24699E-04-1.40782E-03-2.64698E-23
 -1       316 7.78630E-04-1.14323E-03 1.05879E-22
 -1       317 5.99846E-04-8.36021E-04 0.00000E+00
 -1       318 4.21228E-04-5.29024E-04-1.05879E-22
 -1       319 2.75626E-04-2.65056E-04-2.64698E-23
 -1       320 1.81760E-04-7.99904E-05 5.29396E-23
 -1       336 2.02572E-04-3.49270E-06 0.00000E+00
 -1       337 1.93965E-04-4.05146E-06-6.61744E-24
 -1       338 1.84074E-04-4.62135E-06 0.00000E+00
 -1       339 1.72943E-04-5.20246E-06 0.00000E+00
 -1       340 1.60615E-04-5.79712E-06 0.00000E+00
 -1       406 1.35466E-04 7.65336E-07 0.00000E+00
 -1       407 1.35617E-04 8.74610E-07 8.27181E-25
 -1       408 1.35787E-04 9.83816E-07 1.65436E-24
 -1       409 1.35977E-04 1.09282E-06 8.27181E-25
 -1       410 1.36188E-04 1.20142E-06-1.65436E-24
 -1       521 6.95048E-04-7.58901E-05 0.00000E+00
 -1       522 7.46186E-04-2.82938E-04 0.00000E+00
 -1       523 8.10510E-04-5.90648E-04 0.00000E+00
 -1       524 8.77684E-04-9.53737E-04-5.29396E-23
 -1       525 9.44684E-04-1.31270E-03 0.00000E+00
 -1       526 1.00796E-03-1.60844E-03 0.00000E+00
 -1       527 1.05589E-03-1.79796E-03 1.05879E-22
 -1       528 1.06950E-03-1.85115E-03 0.00000E+00
 -1       529 1.02896E-03-1.76716E-03 0.00000E+00
 -1       530 9.21092E-04-1.56133E-03 0.00000E+00
 -1       531 7.53610E-04-1.26948E-03 0.00000E+00
 -1       532 5.48256E-04-9.31550E-04 5.29396E-23
 -1       533 3.42751E-04-5.93440E-04-1.05879E-22
 -1       534 1.74860E-04-3.01033E-04 5.29396E-23
 -1       535 6.64486E-05-9.42601E-05 1.05879E-22
 -1       536 1.46762E-04 1.54207E-05 0.00000E+00
 -1       537 1.45950E-04 5.27377E-05 0.00000E+00
 -1       538 1.44754E-04 9.97675E-05 0.00000E+00
 -1       539 1.43376E-04 1.50671E-04 0.00000E+00
 -1       540 1.42139E-04 1.98510E-04-3.30872E-24
 -1       541 1.41316E-04 2.36363E-04 1.65436E-24
 -1       542 1.40899E-04 2.60054E-04-3.30872E-24
 -1       543 1.40739E-04 2.65494E-04-1.65436E-24
 -1       544 1.40524E-04 2.53301E-04-3.30872E-24
 -1       545 1.39973E-04 2.24208E-04 0.00000E+00
 -1       546 1.39039E-04 1.83368E-04 3.30872E-24
 -1       547 1.37827E-04 1.36002E-04 0.00000E+00
 -1       548 1.36639E-04 8.91524E-05 0.00000E+00
 -1       549 1.35765E-04 4.98610E-05 0.00000E+00
 -1       550 1.35277E-04 2.30703E-05 0.00000E+00
 -1       551 1.30535E-04-6.77598E-06 0.00000E+00
 -1       552 1.11354E-04-7.19406E-06-3.30872E-24
 -1       553 9.04186E-05-7.64384E-06-8.27181E-24
 -1       554 6.85594E-05-8.11396E-06 0.00000E+00
 -1       555 4.66084E-05-8.58859E-06 2.64698E-23
 -1       556 1.42371E-04 5.89505E-06 0.00000E+00
 -1       557 1.38590E-04 1.56657E-05 0.00000E+00
 -1       558 1.35700E-04 2.31256E-05 0.00000E+00
 -1       559 1.33609E-04 2.85015E-05 0.00000E+00
 -1       560 1.32224E-04 3.20204E-05 0.00000E+00
 -1       561 1.31457E-04 3.39108E-05-1.32349E-23
 -1       562 1.31217E-04 3.44018E-05 0.00000E+00
 -1       563 1.31416E-04 3.37228E-05 0.00000E+00
 -1       564 1.31967E-04 3.21039E-05 0.00000E+00
 -1       565 1.32783E-04 2.97754E-05-3.30872E-24
 -1       566 1.33778E-04 2.69676E-05 0.00000E+00
 -1       567 1.34866E-04 2.39113E-05 8.27181E-25
 -1       568 1.35960E-04 2.08371E-05 1.65436E-24
 -1       569 1.36975E-04 1.79756E-05 0.00000E+00
 -1       570 1.37824E-04 1.55573E-05 0.00000E+00
 -1       571 1.35176E-04 1.28519E-05 0.00000E+00
 -1       572 1.35258E-04 1.20087E-05 4.13590E-25
 -1       573 1.35341E-04 1.11270E-05 3.30872E-24
 -1       574 1.35423E-04 1.02181E-05 8.27181E-25
 -1       575 1.35506E-04 9.29316E-06-1.65436E-24
 -1       576 1.35589E-04 8.36358E-06 0.00000E+00
 -1       577 1.35672E-04 7.44071E-06 0.00000E+00
 -1       578 1.35755E-04 6.53593E-06-1.65436E-24
 -1       579 1.35837E-04 5.66058E-06 3.30872E-24
 -1       580 1.35920E-04 4.82602E-06 0.00000E+00
 -1       581 1.36003E-04 4.04364E-06 6.61744E-24
 -1       582 1.36086E-04 3.32476E-06 3.30872E-24
 -1       583 1.36169E-04 2.68073E-06 0.00000E+00
 -1       584 1.36252E-04 2.12277E-06-3.30872E-24
 -1       585 1.36335E-04 1.66201E-06 0.00000E+00
 -1       586 1.35597E-04 1.36747E-05 1.65436E-24
 -1       587 1.36071E-04 1.37030E-05-2.06795E-25
 -1       588 1.36555E-04 1.37310E-05 0.00000E+00
 -1       589 1.37084E-04 1.37584E-05 0.00000E+00
 -1       590 1.37695E-04 1.37850E-05 0.00000E+00
 -1       591 1.35350E-04 1.29106E-05 1.03398E-25
 -1       592 1.35610E-04 1.21504E-05 0.00000E+00
 -1       593 1.35878E-04 1.13711E-05 0.00000E+00
 -1       594 1.36150E-04 1.05777E-05 4.13590E-25
 -1       595 1.36425E-04 9.77546E-06-8.27181E-25
 -1       596 1.36701E-04 8.96931E-06-4.13590E-25
 -1       597 1.36978E-04 8.16440E-06 0.00000E+00
 -1       598 1.37251E-04 7.36579E-06 2.06795E-25
 -1       599 1.37521E-04 6.57854E-06-8.27181E-25
 -1       600 1.37784E-04 5.80773E-06-4.13590E-25
 -1       601 1.38040E-04 5.05842E-06-4.13590E-25
 -1       602 1.38285E-04 4.33568E-06-2.06795E-25
 -1       603 1.38519E-04 3.64459E-06-2.06795E-25
 -1       604 1.38739E-04 2.99029E-06-1.03398E-25
 -1       605 1.38944E-04 2.37780E-06 8.27181E-25
 -1       606 1.36431E-04 1.13948E-06 3.30872E-24
 -1       607 1.36441E-04 1.06332E-06 0.00000E+00
 -1       608 1.36451E-04 1.07469E-06 3.30872E-24
 -1       609 1.36460E-04 1.16744E-06 0.00000E+00
 -1       610 1.36469E-04 1.33538E-06 0.00000E+00
 -1       611 1.36478E-04 1.57222E-06-1.65436E-24
 -1       612 1.36487E-04 1.87169E-06 0.00000E+00
 -1       613 1.36495E-04 2.22750E-06 0.00000E+00
 -1       614 1.36504E-04 2.63336E-06 0.00000E+00
 -1       615 1.36513E-04 3.08298E-06 0.00000E+00
 -1       616 1.36522E-04 3.57008E-06 1.65436E-24
 -1       617 1.36531E-04 4.08836E-06 0.00000E+00
 -1       618 1.36539E-04 4.63153E-06 0.00000E+00
 -1       619 1.36548E-04 5.19332E-06 0.00000E+00
 -1       620 1.36557E-04 5.76742E-06 0.00000E+00
 -1       621 1.36723E-04 1.39294E-06-1.65436E-24
 -1       622 1.37109E-04 1.47751E-06 8.27181E-25
 -1       623 1.37560E-04 1.56203E-06-1.65436E-24
 -1       624 1.38059E-04 1.64637E-06 8.27181E-25
 -1       625 1.38590E-04 1.73055E-06-1.65436E-24
 -1       626 1.36575E-04 1.16900E-06 0.00000E+00
 -1       627 1.36706E-04 1.10316E-06-1.65436E-24
 -1       628 1.36812E-04 1.10334E-06 3.30872E-24
 -1       629 1.36897E-04 1.16139E-06 0.00000E+00
 -1       630 1.36962E-04 1.26910E-06 0.00000E+00
 -1       631 1.37013E-04 1.41825E-06 1.65436E-24
 -1       632 1.37051E-04 1.60061E-06 0.00000E+00
 -1       633 1.37079E-04 1.80794E-06-1.65436E-24
 -1       634 1.37102E-04 2.03203E-06-3.30872E-24
 -1       635 1.37121E-04 2.26464E-06 0.00000E+00
 -1       636 1.37140E-04 2.49756E-06 0.00000E+00
 -1       637 1.37161E-04 2.72254E-06-8.27181E-25
 -1       638 1.37189E-04 2.93136E-06 1.65436E-24
 -1       639 1.37226E-04 3.11578E-06 8.27181E-25
 -1       640 1.37275E-04 3.26756E-06-1.65436E-24
 -1       656 1.36206E-04 5.86459E-06 6.61744E-24
 -1       657 1.36238E-04 5.36225E-06 0.00000E+00
 -1       658 1.36522E-04 4.86132E-06 0.00000E+00
 -1       659 1.36913E-04 4.36077E-06 0.00000E+00
 -1       660 1.37241E-04 3.85867E-06 0.00000E+00
 -1       661 1.36433E-04 6.89283E-06 0.00000E+00
 -1       662 1.36331E-04 7.36693E-06-8.27181E-25
 -1       663 1.36255E-04 7.77309E-06 0.00000E+00
 -1       664 1.36203E-04 8.11579E-06-8.27181E-25
 -1       665 1.36173E-04 8.39889E-06 0.00000E+00
 -1       666 1.36165E-04 8.62636E-06 0.00000E+00
 -1       667 1.36175E-04 8.80195E-06-1.65436E-24
 -1       668 1.36204E-04 8.92934E-06 0.00000E+00
 -1       669 1.36250E-04 9.01205E-06 0.00000E+00
 -1       670 1.36311E-04 9.05353E-06 0.00000E+00
 -1       671 1.36386E-04 9.05711E-06 0.00000E+00
 -1       672 1.36474E-04 9.02602E-06 0.00000E+00
 -1       673 1.36574E-04 8.96345E-06-1.65436E-24
 -1       674 1.36684E-04 8.87222E-06-8.27181E-25
 -1       675 1.36804E-04 8.75573E-06 0.00000E+00
 -1       676 1.36050E-04 9.06672E-06-3.30872E-24
 -1       677 1.36226E-04 8.97581E-06 0.00000E+00
 -1       678 1.36402E-04 8.88494E-06-3.30872E-24
 -1       679 1.36577E-04 8.79434E-06 0.00000E+00
 -1       680 1.36752E-04 8.70376E-06 1.65436E-24
 -1       771 1.74212E-05 8.19485E-06 5.29396E-23
 -1       772 1.06509E-05 2.23683E-05 2.64698E-23
 -1       773 5.02511E-06 3.36022E-05 0.00000E+00
 -1       774 4.66764E-07 4.20708E-05 2.64698E-23
 -1       775-3.09991E-06 4.79536E-05 0.00000E+00
 -1       776-5.75382E-06 5.14396E-05 0.00000E+00
 -1       777-7.57426E-06 5.27231E-05 0.00000E+00
 -1       778-8.64229E-06 5.20060E-05 2.64698E-23
 -1       779-9.03910E-06 4.94946E-05 5.29396E-23
 -1       780-8.84731E-06 4.54017E-05 0.00000E+00
 -1       781-8.14941E-06 3.99435E-05 0.00000E+00
 -1       782-7.02905E-06 3.33410E-05 0.00000E+00
 -1       783-5.56966E-06 2.58178E-05 5.29396E-23
 -1       784-3.85555E-06 1.76007E-05-2.64698E-23
 -1       785-1.97069E-06 8.91816E-06-2.64698E-23
 -1       786 1.38465E-04 1.28494E-05 0.00000E+00
 -1       787 1.38509E-04 1.19365E-05 4.13590E-25
 -1       788 1.38553E-04 1.10623E-05-8.27181E-25
 -1       789 1.38598E-04 1.02192E-05 8.27181E-25
 -1       790 1.38642E-04 9.40258E-06-1.65436E-24
 -1       791 1.38687E-04 8.60819E-06 8.27181E-25
 -1       792 1.38731E-04 7.83391E-06-1.65436E-24
 -1       793 1.38776E-04 7.07767E-06 0.00000E+00
 -1       794 1.38821E-04 6.33925E-06 0.00000E+00
 -1       795 1.38866E-04 5.61849E-06-8.27181E-25
 -1       796 1.38910E-04 4.91702E-06 0.00000E+00
 -1       797 1.38955E-04 4.23651E-06 0.00000E+00
 -1       798 1.39000E-04 3.58079E-06 1.65436E-24
 -1       799 1.39045E-04 2.95376E-06-8.27181E-25
 -1       800 1.39090E-04 2.36221E-06 1.65436E-24
 -1       801 1.15644E-04 1.20843E-05 0.00000E+00
 -1       802 4.60274E-05 8.24477E-06 1.32349E-23
 -1       803-1.90212E-05 4.65967E-06 0.00000E+00
 -1       804-2.83755E-05 3.05033E-06-2.64698E-23
 -1       805-1.15818E-05 1.49272E-06 0.00000E+00
 -1       806 1.38689E-04 1.27941E-05 0.00000E+00
 -1       807 1.38939E-04 1.18066E-05-1.65436E-24
 -1       808 1.39178E-04 1.08496E-05 1.65436E-24
 -1       809 1.39403E-04 9.92601E-06 8.27181E-25
 -1       810 1.39615E-04 9.03862E-06-1.65436E-24
 -1       811 1.39812E-04 8.19009E-06-1.65436E-24
 -1       812 1.39994E-04 7.38312E-06 1.65436E-24
 -1       813 1.40159E-04 6.62038E-06-1.65436E-24
 -1       814 1.40307E-04 5.90454E-06 1.65436E-24
 -1       815 1.40436E-04 5.23825E-06 1.65436E-24
 -1       816 1.40546E-04 4.62418E-06-3.30872E-24
 -1       817 1.40635E-04 4.06498E-06 8.27181E-25
 -1       818 1.40702E-04 3.56329E-06 0.00000E+00
 -1       819 1.40747E-04 3.12176E-06 0.00000E+00
 -1       820 1.40769E-04 2.74300E-06-3.30872E-24
 -1       821 1.39029E-04 1.20822E-06 0.00000E+00
 -1       822 1.38916E-04 4.51422E-07 0.00000E+00
 -1       823 1.38804E-04-3.52091E-07 0.00000E+00
 -1       824 1.38690E-04-1.09683E-06-1.65436E-24
 -1       825 1.38577E-04-1.69100E-06 0.00000E+00
 -1       826 1.38463E-04-2.04354E-06 0.00000E+00
 -1       827 1.38349E-04-2.11933E-06 3.30872E-24
 -1       828 1.38236E-04-1.88468E-06-1.65436E-24
 -1       829 1.38122E-04-1.37772E-06 3.30872E-24
 -1       830 1.38008E-04-6.37998E-07 1.65436E-24
 -1       831 1.37894E-04 2.41091E-07 0.00000E+00
 -1       832 1.37781E-04 1.16542E-06 0.00000E+00
 -1       833 1.37667E-04 2.03037E-06 3.30872E-24
 -1       834 1.37555E-04 2.73167E-06 0.00000E+00
 -1       835 1.37442E-04 3.20277E-06 0.00000E+00
 -1       836 1.39580E-04 1.91558E-06 0.00000E+00
 -1       837 1.39916E-04 2.02049E-06 1.65436E-24
 -1       838 1.40171E-04 2.12526E-06 0.00000E+00
 -1       839 1.40378E-04 2.22937E-06 0.00000E+00
 -1       840 1.40567E-04 2.33331E-06 0.00000E+00
 -1       856 1.37315E-04 3.46973E-06 0.00000E+00
 -1       857 1.37289E-04 3.68058E-06 0.00000E+00
 -1       858 1.37264E-04 3.99221E-06 4.13590E-25
 -1       859 1.37239E-04 4.38586E-06 0.00000E+00
 -1       860 1.37213E-04 4.84263E-06 0.00000E+00
 -1       861 1.37187E-04 5.34363E-06-4.13590E-25
 -1       862 1.37161E-04 5.86987E-06-8.27181E-25
 -1       863 1.37135E-04 6.40237E-06 0.00000E+00
 -1       864 1.37109E-04 6.92213E-06 0.00000E+00
 -1       865 1.37083E-04 7.41016E-06-4.13590E-25
 -1       866 1.37057E-04 7.84752E-06-8.27181E-25
 -1       867 1.37031E-04 8.21529E-06 0.00000E+00
 -1       868 1.37006E-04 8.49464E-06 8.27181E-25
 -1       869 1.36980E-04 8.66681E-06 0.00000E+00
 -1       870 1.36954E-04 8.71316E-06 8.27181E-25
 -1       871 1.37486E-04 3.37651E-06-4.13590E-25
 -1       872 1.37760E-04 3.37200E-06 0.00000E+00
 -1       873 1.38102E-04 3.36698E-06 4.13590E-25
 -1       874 1.38458E-04 3.36135E-06-5.16988E-26
 -1       875 1.38772E-04 3.35518E-06-6.20385E-25
 -1       876 1.37412E-04 3.48139E-06-3.30872E-24
 -1       877 1.37467E-04 3.64268E-06 1.65436E-24
 -1       878 1.37504E-04 3.85521E-06-3.30872E-24
 -1       879 1.37524E-04 4.11250E-06 1.65436E-24
 -1       880 1.37530E-04 4.40798E-06 0.00000E+00
 -1       881 1.37524E-04 4.73518E-06 0.00000E+00
 -1       882 1.37508E-04 5.08760E-06 3.30872E-24
 -1       883 1.37486E-04 5.45876E-06 0.00000E+00
 -1       884 1.37458E-04 5.84219E-06 3.30872E-24
 -1       885 1.37429E-04 6.23143E-06 1.65436E-24
 -1       886 1.37400E-04 6.61999E-06 3.30872E-24
 -1       887 1.37373E-04 7.00139E-06 0.00000E+00
 -1       888 1.37352E-04 7.36914E-06 0.00000E+00
 -1       889 1.37337E-04 7.71663E-06 8.27181E-25
 -1       890 1.37332E-04 8.03742E-06 0.00000E+00
 -1       891 1.37123E-04 8.56626E-06 0.00000E+00
 -1       892 1.37298E-04 8.51722E-06 4.13590E-25
 -1       893 1.37430E-04 8.46822E-06 8.27181E-25
 -1       894 1.37495E-04 8.41937E-06 4.13590E-25
 -1       895 1.37470E-04 8.37064E-06 4.13590E-25
 -1       956 1.40659E-04 2.25282E-06-1.65436E-24
 -1       957 1.40548E-04 2.14652E-06 0.00000E+00
 -1       958 1.40437E-04 2.10271E-06-1.65436E-24
 -1       959 1.40325E-04 2.11290E-06 0.00000E+00
 -1       960 1.40214E-04 2.16861E-06 3.30872E-24
 -1       961 1.40102E-04 2.26133E-06-1.65436E-24
 -1       962 1.39990E-04 2.38251E-06 0.00000E+00
 -1       963 1.39879E-04 2.52362E-06 0.00000E+00
 -1       964 1.39767E-04 2.67612E-06 3.30872E-24
 -1       965 1.39655E-04 2.83147E-06-1.65436E-24
 -1       966 1.39544E-04 2.98113E-06 0.00000E+00
 -1       967 1.39432E-04 3.11656E-06 0.00000E+00
 -1       968 1.39321E-04 3.22922E-06 0.00000E+00
 -1       969 1.39209E-04 3.31061E-06 0.00000E+00
 -1       970 1.39098E-04 3.35223E-06 0.00000E+00
 -1       971 1.38886E-04 3.35215E-06-1.65436E-24
 -1       972 1.38783E-04 3.44528E-06 1.65436E-24
 -1       973 1.38679E-04 3.61573E-06 0.00000E+00
 -1       974 1.38575E-04 3.85354E-06 0.00000E+00
 -1       975 1.38471E-04 4.14874E-06 0.00000E+00
 -1       976 1.38367E-04 4.49134E-06 0.00000E+00
 -1       977 1.38263E-04 4.87135E-06 0.00000E+00
 -1       978 1.38159E-04 5.27876E-06 1.65436E-24
 -1       979 1.38055E-04 5.70356E-06 3.30872E-24
 -1       980 1.37951E-04 6.13574E-06 0.00000E+00
 -1       981 1.37847E-04 6.56529E-06 0.00000E+00
 -1       982 1.37743E-04 6.98218E-06 0.00000E+00
 -1       983 1.37639E-04 7.37640E-06 0.00000E+00
 -1       984 1.37536E-04 7.73797E-06 0.00000E+00
 -1       985 1.37433E-04 8.05688E-06 0.00000E+00
 -3
    1PSTEP                        20          10           1          
  100CL  110 5.83069E-01         409                     0   10           1
 -4  STRESS      6    1
 -5  SXX         1    4    1    1
 -5  SYY         1    4    2    2
 -5  SZZ         1    4    3    3
 -5  SXY         1    4    1    2
 -5  SYZ         1    4    2    3
 -5  SZX         1    4    3    1
 -1         1-3.18607E+06-1.26376E+06-6.91439E+05-1.41306E+06-5.82077E-11-3.27709E-08
 -1         2 1.79148E+03-1.04980E+06 5.79363E+03 1.54082E+03 9.32232E-11-1.05095E-07
 -1         3-5.73760E+02-1.37831E+06 3.31562E+02-1.22407E+03-3.71919E-10-2.77832E-08
 -1         5-3.65980E+00 3.12872E+05 7.96475E+00-1.68712E-01-1.36788E-10 6.29734E-09
 -1         8-9.93766E+05-3.43529E+05-1.08104E+05-4.23563E+05 3.98359E-10 2.03509E-08
 -1         9 5.05706E+05-7.69645E+05 1.74681E+05-8.34260E+05 1.93191E-08 4.38187E-08
 -1        10-1.45297E+03-1.43606E+06-2.58201E+03-8.27793E+03-8.70568E-09-1.25947E-08
 -1        12-3.94016E-01 3.12889E+05 2.57993E+02-1.26012E+00-1.65585E-10 1.96515E-08
 -1        15 1.67804E+03 9.22182E+02 5.42423E+03 3.16346E+00-1.83320E-10-6.10739E-08
 -1        16 3.12657E+06-7.94763E+05 4.37582E+05-1.15312E+06 1.63855E-08-1.19520E-08
 -1        17 7.89309E+05 5.51506E+05 2.76277E+05 6.66383E+05 1.02445E-09 1.50583E-08
 -1        18 1.84328E+04 2.74392E+02-2.04010E+04-8.90535E+04 9.03344E-09-6.66114E-09
 -1        19 1.00691E+05 1.15687E+05-8.28050E+02 1.94790E+04 2.78487E-10-7.00675E-10
 -1        20-5.59698E+04-4.75787E+05-1.05928E+05 2.75972E+04 1.87356E-09 6.03116E-09
 -1        21-4.18255E+01-2.60341E+05-8.26352E+02 3.14165E+01 2.06053E-09-1.12090E-08
 -1        24 8.43268E+05 1.66890E+06 5.83932E+05 1.33161E+06-8.37414E-08-3.50313E-08
 -1        25-7.70000E+04-4.80305E+05-9.10773E+04-2.35485E+05-1.41140E-09 4.54129E-09
 -1        26-4.04251E+04 7.50894E+04-1.97065E+04-3.22642E+03 1.21181E-09 3.57533E-08
 -1        27-6.80623E+04-2.58522E+05-9.57907E+04 5.82069E+04 5.01526E-09 3.42516E-09
 -1        28 1.99145E+04-7.35300E+04 1.47985E+04 2.04860E+04-3.02009E-10 5.37718E-09
 -1        32-1.44531E+06-2.38879E+06-9.57296E+04-2.78082E+05-2.93567E-08-3.83366E-09
 -1        33-1.51192E+05 7.51666E+04 2.67343E+04-3.46248E+04-4.83643E-10 1.29221E-08
 -1        34-1.90092E+05-1.98179E+04 5.24004E+02 6.12167E+04-1.46168E-10-7.49439E-09
 -1        35-2.03444E+04-2.91971E+04-1.15447E+03 4.53423E+04 1.54958E-09 3.95933E-09
 -1        51 3.33817E+04-2.87204E+05 7.55360E+04-8.19995E+05-1.30967E-10 1.55123E-08
 -1        52 1.40705E+04-2.77700E+05 4.33168E+04-9.56165E+05 2.91038E-11 7.02203E-08
 -1        53 6.18704E+03-2.92454E+05 2.84049E+04-8.17052E+05 3.92902E-10-6.13800E-08
 -1        54 1.62194E+04-2.89931E+05 3.51476E+04-9.59226E+05-1.01863E-10-6.80302E-08
 -1        55 3.29270E+04-3.01923E+05 5.65286E+04-8.16591E+05 4.14730E-10 1.46283E-08
 -1        56-6.05739E+06-6.78366E+05-5.10256E+05-2.35133E+06 1.41881E-09-1.03930E-07
 -1        57-6.31420E+06-1.09021E+06-3.44297E+05-2.27258E+06-1.25456E-08 7.24685E-09
 -1        58-6.15222E+06-8.48339E+05-1.19931E+05-2.32797E+06 2.10821E-09-7.96717E-09
 -1        59-6.20639E+06-8.88704E+05-7.15912E+04-2.29800E+06 2.10366E-09-4.25962E-08
 -1        60-6.16363E+06-8.74442E+05-2.79432E+04-2.32759E+06-1.41831E-08-1.72895E-08
 -1        61-6.19287E+06-8.58389E+05-1.58607E+04-2.29871E+06-3.81362E-09 6.98158E-08
 -1        62-6.16543E+06-8.77911E+05-7.54850E+03-2.32745E+06 1.98577E-09-8.06244E-09
 -1        63-6.18837E+06-8.57299E+05-6.12967E+03-2.30172E+06-1.16721E-08-5.74091E-08
 -1        64-6.16803E+06-8.75471E+05-6.84771E+03-2.32458E+06 1.42668E-08-5.16724E-08
 -1        65-6.18306E+06-8.66975E+05-1.37110E+04-2.30921E+06 1.12796E-08-5.46080E-08
 -1        66-6.17073E+06-8.68341E+05-2.39629E+04-2.31991E+06 6.85486E-09 4.00569E-08
 -1        67-6.18808E+06-8.99350E+05-6.11211E+04-2.31609E+06-3.40333E-09 1.41345E-08
 -1        68-6.16330E+06-8.43719E+05-1.02386E+05-2.31754E+06 1.01318E-09-5.76983E-09
 -1        69-6.27822E+06-1.07336E+06-2.93842E+05-2.29687E+06-5.31145E-09-3.19997E-08
 -1        70-6.08208E+06-6.98932E+05-4.35590E+05-2.33777E+06 2.32831E-10 6.89761E-09
 -1        86-8.96070E+02-1.05153E+06 6.23889E+03-7.70419E+02-5.67070E-10-6.97526E-09
 -1        87 5.94699E+03-1.04783E+06 1.29715E+04 2.77932E+03-9.19272E-10 1.38846E-08
 -1        88-5.03536E+03-1.05350E+06 1.99317E+04-2.00895E+03-1.06775E-09-2.55321E-08
 -1        89 3.75388E+04-1.03323E+06 5.36652E+04 4.46289E+03-1.66710E-09-3.22923E-08
 -1        90-3.23763E+04-1.06610E+06 7.59378E+04-2.45410E+03-1.44064E-09 1.64267E-08
 -1       121-8.07874E+02-1.38033E+06-1.00296E+01 6.09652E+02 9.37234E-10-1.17798E-08
 -1       122-4.46550E+02-1.37829E+06 6.83759E+02-2.44557E+03-3.24962E-09-1.00790E-08
 -1       123-8.61786E+02-1.38042E+06 7.63141E+02 1.82174E+03 2.79510E-09-5.83896E-09
 -1       124 8.98548E+02-1.37765E+06 2.77431E+03-5.16147E+03-6.34191E-09 6.22094E-09
 -1       125-1.65100E+03-1.38117E+06 3.87520E+03 3.31536E+03 4.03998E-09 1.28457E-08
 -1       191-4.10751E+00 3.12900E+05 9.62631E+00 8.47324E-02-1.00836E-10-1.35515E-09
 -1       192-4.39071E+00 3.12873E+05 1.68580E+01-6.64247E-01-1.41005E-10-7.58496E-09
 -1       193-6.05115E+00 3.12899E+05 3.14540E+01 5.82240E-01-2.52376E-10-3.65844E-09
 -1       194-6.74292E+00 3.12875E+05 6.37495E+01-1.55507E+00-9.14042E-11-1.38041E-08
 -1       195-9.78616E+00 3.12897E+05 1.24799E+02 9.80892E-01-2.66652E-10-2.46200E-09
 -1       251-1.77978E+06-9.75054E+02-1.16981E+05-8.99901E+04-9.73159E-10-1.71603E-08
 -1       252-1.39586E+06 3.17355E+03-1.59463E+03 2.75064E+05-1.02364E-09-8.89486E-09
 -1       253-1.60206E+06-3.89773E+03-2.20018E+04-1.84105E+05-2.23827E-09-2.60634E-08
 -1       254-1.57145E+06 2.40963E+04-1.06092E+03 3.61398E+05-1.28002E-08-1.52438E-08
 -1       255-1.62214E+06-7.25672E+03-1.21282E+04-1.77416E+05-1.32031E-08-3.59339E-08
 -1       256-1.34389E+06 2.09178E+04 4.86839E+04 2.50167E+05-1.37175E-08 2.31105E-08
 -1       257-1.80746E+06-1.86811E+04-4.86918E+04-7.16407E+04-1.79352E-08 3.74400E-08
 -1       258-1.14990E+06 1.65034E+04 8.64702E+04-1.04730E+04-3.51611E-08 4.61987E-08
 -1       259-1.79714E+06-1.82400E+04-4.52320E+04 8.23615E+04-6.08816E-09 1.90587E-08
 -1       260-1.36707E+06 2.27090E+04 4.78168E+04-2.64277E+05-7.71252E-10-5.18764E-08
 -1       261-1.61161E+06-7.60412E+03-3.40366E+03 1.81524E+05 3.85608E-08 2.34466E-08
 -1       262-1.56886E+06 3.16885E+04 1.44846E+04-3.61455E+05-6.28546E-09 3.26402E-08
 -1       263-1.61527E+06-1.10360E+04 1.05000E+03 1.80712E+05 1.16188E-08-1.51877E-08
 -1       264-1.34974E+06 5.10130E+04 7.16243E+04-2.61670E+05 8.71855E-08-1.32973E-08
 -1       265-1.81032E+06-4.33929E+04-2.17194E+04 8.05498E+04 2.68847E-08-6.78847E-09
 -1       266-3.03774E+04-1.42034E+04 7.12796E+04-6.76928E+01-1.12777E-10-2.09264E-08
 -1       267 3.52164E+04 1.65561E+04 5.03766E+04 7.80983E+01-2.33740E-10-1.67835E-08
 -1       268-4.72242E+03-2.34470E+03 1.87249E+04-9.95140E+00-1.50976E-10-8.48703E-09
 -1       269 5.57584E+03 2.80623E+03 1.21707E+04 1.15916E+01-4.52474E-11 4.28280E-08
 -1       270-8.36932E+02-4.61073E+02 5.87500E+03-1.57307E+00-1.38016E-10-2.08990E-08
 -1       271-2.91249E+06-3.56998E+05-2.21501E+05-1.12988E+06 4.40195E-10 4.35102E-09
 -1       272-3.01800E+06-5.00121E+05-1.43485E+05-1.09976E+06-3.16322E-09 1.15833E-08
 -1       273-2.95458E+06-4.14603E+05-5.22982E+04-1.11942E+06-7.24071E-09 6.90852E-09
 -1       274-2.96790E+06-4.30970E+05-2.95340E+04-1.11542E+06-1.89061E-09-1.37579E-08
 -1       275-2.96146E+06-4.19890E+05-1.21974E+04-1.11649E+06 2.01089E-09 5.20704E-08
 -1       276-2.95849E+06-4.25923E+05-6.48098E+03-1.12067E+06 2.32558E-09 2.86354E-08
 -1       277-2.96387E+06-4.18976E+05-3.18959E+03-1.11442E+06 4.56839E-09 2.73776E-08
 -1       278-2.95455E+06-4.28285E+05-2.21579E+03-1.12461E+06-8.12770E-09 1.15755E-08
 -1       279-2.96547E+06-4.17417E+05-2.35696E+03-1.11262E+06-7.24231E-09-4.75673E-08
 -1       280-2.95218E+06-4.31628E+05-4.18588E+03-1.12791E+06-1.56888E-09 1.99018E-08
 -1       281-2.96637E+06-4.15588E+05-7.58630E+03-1.11120E+06-2.89765E-09-3.51861E-08
 -1       282-2.95369E+06-4.39114E+05-1.82453E+04-1.12982E+06 1.64960E-09 1.71235E-09
 -1       283-2.96418E+06-4.10259E+05-3.22049E+04-1.11067E+06-1.01227E-09 2.39343E-08
 -1       284-2.98089E+06-4.85434E+05-8.84059E+04-1.12447E+06-1.07184E-09-8.56844E-08
 -1       285-2.93994E+06-3.73106E+05-1.36451E+05-1.11521E+06 2.08092E-09-4.81305E-08
 -1       301 2.25884E+04-2.28882E+05 1.73223E+05-4.30804E+05 1.89175E-10-3.27418E-11
 -1       302 2.41825E+04-1.85494E+05 1.10131E+05-6.30529E+05-1.01863E-10-7.72998E-08
 -1       303 5.95880E+02-2.12014E+05 7.77644E+04-4.29892E+05-1.23691E-10 1.08539E-08
 -1       304 2.17508E+04-1.84922E+05 1.05269E+05-6.30025E+05 2.18279E-10 3.35203E-08
 -1       305 1.91976E+04-2.25084E+05 1.62169E+05-4.31363E+05-3.63798E-10-5.02114E-08
 -1       306-1.19088E+07-1.77316E+06-2.30002E+06-2.01809E+06-4.74392E-08 5.04660E-08
 -1       307 2.95791E+06-1.67158E+06 1.10680E+06-5.57128E+06-3.88289E-07 9.53878E-09
 -1       308-7.86157E+06 2.94363E+05-2.63178E+05 6.52122E+05-5.09172E-08 1.09088E-07
 -1       309-3.45308E+06-1.63722E+06 3.17522E+05-9.05133E+06 1.51397E-07 1.78361E-08
 -1       310-8.08869E+06 2.41002E+05-2.39559E+05 5.63628E+05 1.51442E-07-1.04428E-07
 -1       311 3.47769E+06-1.80184E+06 1.41246E+06-5.08894E+06 3.19429E-07-1.58792E-07
 -1       312-1.19486E+07-1.78556E+06-1.76862E+06-2.28036E+06 1.78115E-08-3.30474E-08
 -1       313 6.60066E+06 1.38210E+06 2.40459E+06 2.54859E+06 8.72533E-08 5.10772E-08
 -1       314-9.42260E+06-4.16993E+06-1.73185E+06-4.87340E+06 3.73868E-07 1.32422E-08
 -1       315-4.40704E+06 5.73939E+06 1.35676E+06 2.98212E+06-1.04628E-08-6.43340E-08
 -1       316-3.61546E+06-4.06062E+06-1.99698E+05-4.15982E+06-3.61746E-07-2.23939E-07
 -1       317-1.16536E+07 6.54671E+06 3.03816E+05-5.69054E+04 3.55112E-07-2.95989E-07
 -1       318-3.64460E+06-4.07782E+06-3.26972E+05-4.16111E+06-3.83530E-07 1.29512E-09
 -1       319-4.28690E+06 5.85377E+06 1.09957E+06 2.96484E+06-5.02550E-08 7.93661E-08
 -1       320-9.50282E+06-4.27380E+06-2.42949E+06-4.83938E+06 9.03383E-08-2.03108E-08
 -1       336 3.99975E+02-1.49426E+06-9.82715E+03 4.92196E+03-1.67856E-08-4.39104E-09
 -1       337-3.71929E+03-1.49549E+06-1.19822E+04-1.19590E+04-3.12994E-08-8.07631E-10
 -1       338 5.84191E+02-1.49418E+06-1.73039E+04 6.97062E+03-2.20261E-08 1.19835E-08
 -1       339-1.82886E+04-1.50510E+06-3.87885E+04-1.59562E+04-3.96321E-08 4.46744E-09
 -1       340 1.22229E+04-1.48543E+06-6.06021E+04 8.86836E+03-2.67046E-08 8.09450E-09
 -1       406 1.94151E+01 3.12885E+05 5.09443E+02 2.91089E-01-3.20938E-10-7.60747E-09
 -1       407 1.77178E+02 3.12978E+05 1.08249E+03 5.26721E+00-1.76811E-10-7.79437E-10
 -1       408 5.56905E+02 3.12807E+05 2.16207E+03-5.70434E+00-5.09999E-10-4.18822E-09
 -1       409 2.33719E+03 3.13669E+05 4.86712E+03 5.73333E+01-1.76783E-11-5.95560E-09
 -1       410 6.71584E+03 3.12193E+05 9.93606E+03-5.43154E+01-6.20503E-10 1.49998E-09
 -1       521-1.40902E+07-2.32629E+06-2.97029E+06-2.18567E+06-4.38304E-08-4.54020E-09
 -1       522 3.53418E+06-1.90851E+06 1.25049E+06-7.26173E+06-2.68032E-07-1.84555E-07
 -1       523-9.35716E+06 2.62964E+05-3.22614E+05 9.36469E+05-4.97384E-08-1.42827E-07
 -1       524-4.81524E+06-1.32901E+06 4.00152E+05-1.14765E+07 3.53733E-07-2.62806E-07
 -1       525-9.66176E+06 1.75037E+05-3.00462E+05 8.22635E+05 4.08589E-07-1.03115E-07
 -1       526 4.35377E+06-2.08927E+06 1.67765E+06-6.58498E+06 5.40167E-08 3.77840E-08
 -1       527-1.41659E+07-2.39548E+06-2.26840E+06-2.53128E+06-1.89757E-08-9.15752E-08
 -1       528 8.39706E+06 1.64219E+06 2.82199E+06 3.33188E+06-1.31578E-07-1.47993E-08
 -1       529-1.10669E+07-5.32279E+06-2.21910E+06-5.68677E+06 9.37143E-09 8.64384E-09
 -1       530-5.69101E+06 7.53344E+06 1.61774E+06 3.58335E+06-2.81783E-07 2.17522E-07
 -1       531-4.17616E+06-5.10709E+06-2.40487E+05-4.92583E+06-5.44576E-07 1.00423E-07
 -1       532-1.46643E+07 8.51372E+06 4.05618E+05-7.80206E+05 1.63465E-07-2.70650E-07
 -1       533-4.17171E+06-5.12027E+06-3.64971E+05-4.91374E+06-2.01399E-08-4.95769E-07
 -1       534-5.65798E+06 7.74295E+06 1.34632E+06 3.50612E+06-9.42309E-08 3.42945E-07
 -1       535-1.11273E+07-5.50278E+06-2.97145E+06-5.64557E+06 1.85100E-08 2.26035E-07
 -1       536-5.03262E+05-3.18620E+04 1.62532E+04-2.84062E+04-6.71866E-09 3.86626E-08
 -1       537-2.49557E+05 3.32469E+04 5.47021E+04 6.95130E+04-7.87143E-08 5.43541E-08
 -1       538-3.81330E+05-8.17550E+02 1.03843E+04-4.26734E+04 2.02666E-08 6.14659E-08
 -1       539-3.33019E+05 3.25597E+03 1.47681E+04 7.98033E+04 9.92061E-08 7.37582E-08
 -1       540-4.21704E+05-3.31626E+02-6.03021E+03-3.88105E+04 4.21142E-09 6.64173E-08
 -1       541-1.72837E+05 6.78120E+03 4.22078E+04 5.14416E+04-5.70344E-08 6.61162E-08
 -1       542-5.37223E+05-7.86920E+03-3.19523E+04-1.41145E+04 6.43431E-08 3.19593E-08
 -1       543-7.83569E+04 1.04357E+04 5.99652E+04-8.97444E+03-6.10089E-09-7.46525E-09
 -1       544-5.13678E+05-6.03960E+03-2.81776E+04 2.14439E+04 3.30019E-08-4.03350E-08
 -1       545-2.26387E+05 2.88789E+03 2.82476E+04-6.36529E+04 5.54164E-07-3.01418E-08
 -1       546-3.93113E+05 2.88747E+03-5.71772E+03 4.04965E+04 1.67622E-04 7.04631E-06
 -1       547-3.43505E+05-4.19135E+03-5.81892E+02-8.18856E+04 3.36074E-04 1.62685E-05
 -1       548-3.99644E+05 3.57254E+03-1.59736E+04 3.98324E+04 1.67417E-04 6.86356E-06
 -1       549-2.16234E+05-6.86015E+03 5.27693E+03-6.04599E+04 4.95467E-07-3.07168E-08
 -1       550-5.16893E+05 2.68135E+03-7.53433E+04 1.89020E+04 2.65923E-08-2.71357E-08
 -1       551 2.64029E+04-6.88700E+05 1.75299E+04-1.08575E+06-6.77610E-08 3.21597E-09
 -1       552 5.87362E+04-7.10281E+05 2.86102E+04-1.54747E+06-5.08880E-08 4.63697E-08
 -1       553 4.31030E+04-7.13933E+05 4.44856E+04-1.08111E+06-8.05521E-08 3.37677E-08
 -1       554 8.92125E+04-7.12904E+05 9.55150E+04-1.54922E+06-5.11936E-08 2.45236E-08
 -1       555 7.22700E+04-7.34308E+05 1.69998E+05-1.08172E+06-8.14907E-08-2.91038E-11
 -1       556 1.45570E+05-2.62001E+05 6.06136E+04-3.10655E+05-1.38680E-08-1.05210E-08
 -1       557 2.45062E+05-3.42046E+05 3.27607E+04-3.94578E+05 2.18279E-10-5.39603E-09
 -1       558 1.38935E+05-2.66335E+05 1.18074E+04-3.06367E+05-9.89530E-09-4.75120E-09
 -1       559 2.27691E+05-3.48836E+05 6.43748E+03-4.05203E+05 1.41445E-08-2.16351E-08
 -1       560 1.31710E+05-2.61731E+05 1.82290E+03-3.11357E+05 7.94535E-09-1.56433E-09
 -1       561 2.18096E+05-3.45378E+05 1.29429E+03-4.11526E+05-6.01722E-09-1.06902E-08
 -1       562 1.26025E+05-2.58120E+05 5.73435E+01-3.15437E+05-2.40107E-09 1.47502E-08
 -1       563 2.11410E+05-3.42466E+05 3.11139E+02-4.15843E+05-1.86265E-09 5.83532E-09
 -1       564 1.22167E+05-2.55694E+05-4.45094E+01-3.18161E+05 3.44153E-09-3.16140E-09
 -1       565 2.07328E+05-3.40693E+05 1.22535E+02-4.18435E+05 6.41739E-09 6.82940E-09
 -1       566 1.20206E+05-2.54444E+05-2.35692E+01-3.19538E+05 2.13186E-09-4.62023E-10
 -1       567 2.05829E+05-3.40030E+05-1.16537E+02-4.19286E+05 1.57615E-08 1.53887E-09
 -1       568 1.20195E+05-2.54451E+05-5.03196E+02-3.19639E+05 1.00044E-10-5.82077E-10
 -1       569 2.05913E+05-3.39978E+05-1.26048E+03-4.17532E+05-6.45377E-09 1.30531E-08
 -1       570 1.22942E+05-2.56784E+05-2.90737E+03-3.19079E+05 1.17143E-09-8.52469E-09
 -1       571 2.37158E+05 8.69336E+03 1.27235E+04-6.53067E+04-1.00044E-11 3.93720E-09
 -1       572 2.39036E+05 3.10701E+03 6.23427E+03-7.16385E+04-4.60204E-10-1.02714E-08
 -1       573 2.37911E+05 8.22984E+02 2.76984E+03-6.51681E+04 1.48566E-09 7.97263E-09
 -1       574 2.38122E+05 3.55296E+02 1.38826E+03-7.18021E+04 1.65051E-09 6.70298E-09
 -1       575 2.37995E+05 1.43314E+02 6.54866E+02-6.51496E+04-2.43108E-09 9.81572E-09
 -1       576 2.38002E+05 1.30273E+02 3.34471E+02-7.18240E+04-3.97421E-09-1.18876E-08
 -1       577 2.38016E+05 1.01526E+02 1.66471E+02-6.51471E+04-2.02494E-08 5.82713E-09
 -1       578 2.38005E+05 1.10923E+02 9.45453E+01-7.18268E+04-3.93111E-08-1.18798E-08
 -1       579 2.38048E+05 8.84130E+01 6.38433E+01-6.51469E+04-1.72049E-08-4.63888E-09
 -1       580 2.38048E+05 9.10219E+01 7.06464E+01-7.18231E+04-5.81394E-09 3.95448E-09
 -1       581 2.38097E+05 6.63526E+01 1.06432E+02-6.51509E+04 4.83851E-10-5.38648E-09
 -1       582 2.38133E+05 8.91466E+01 2.12615E+02-7.17814E+04-5.45697E-12-2.12012E-08
 -1       583 2.38154E+05 1.27812E+02 4.11347E+02-6.51887E+04-2.41562E-09-7.15090E-09
 -1       584 2.38356E+05 4.56842E+02 9.26498E+02-7.14638E+04-2.54659E-10 3.04158E-09
 -1       585 2.38119E+05 1.26391E+03 1.88145E+03-6.54686E+04 7.42148E-10-7.26504E-09
 -1       586-2.97034E+03 8.12559E+04-3.38930E+03-2.11011E+05-2.06455E-09-3.09853E-09
 -1       587-8.14616E+02 8.08625E+04 5.81165E+01-2.32261E+05-1.77170E-09-4.07545E-09
 -1       588 6.92628E+02 8.08648E+04 3.47777E+03-2.10911E+05-4.62023E-10 9.98625E-09
 -1       589 4.43779E+03 8.27347E+04 9.52617E+03-2.32020E+05-2.32649E-09-9.30504E-09
 -1       590 1.34147E+04 7.98134E+04 2.01813E+04-2.11275E+05-2.36287E-09 8.59291E-09
 -1       591-5.05327E+04-1.24598E+04-1.69188E+04-2.35249E+04-1.31877E-10-1.07220E-08
 -1       592-5.30438E+04-1.56906E+04-9.16430E+03-2.68837E+04 6.78028E-10 1.55642E-08
 -1       593-5.22298E+04-1.12268E+04-3.81485E+03-2.47605E+04-5.62352E-10-2.43745E-10
 -1       594-5.07002E+04-1.32162E+04-1.90264E+03-2.69822E+04 1.06436E-09-7.00102E-09
 -1       595-5.23594E+04-1.12223E+04-8.73878E+02-2.48168E+04-1.72403E-09-2.68599E-10
 -1       596-5.05403E+04-1.31030E+04-4.44731E+02-2.69640E+04 6.55657E-09 2.01462E-09
 -1       597-5.23757E+04-1.12336E+04-2.43196E+02-2.48189E+04 9.89644E-11-1.23885E-09
 -1       598-5.05246E+04-1.30987E+04-1.97387E+02-2.69588E+04-3.34992E-09 5.77859E-09
 -1       599-5.23746E+04-1.12339E+04-2.54487E+02-2.48186E+04 3.17061E-09-8.77492E-09
 -1       600-5.05409E+04-1.31040E+04-4.74633E+02-2.69628E+04 1.64289E-09-1.31026E-08
 -1       601-5.23550E+04-1.12226E+04-9.37315E+02-2.48156E+04 2.04841E-09 4.75177E-09
 -1       602-5.07123E+04-1.32250E+04-2.04329E+03-2.69796E+04-1.51476E-09-4.08511E-09
 -1       603-5.22137E+04-1.12298E+04-4.09791E+03-2.47556E+04-1.44450E-09 1.09496E-08
 -1       604-5.32427E+04-1.58684E+04-9.84394E+03-2.68552E+04-1.82354E-10 8.33529E-09
 -1       605-5.03753E+04-1.25674E+04-1.81736E+04-2.34427E+04 2.78334E-09 5.58794E-09
 -1       606 2.72813E+04-1.14240E+04-2.05219E+04 2.59990E+04-3.26327E-09 3.02634E-09
 -1       607 2.37707E+04-3.70897E+03-1.02192E+04 2.91949E+04-3.01952E-09-5.84714E-09
 -1       608 2.57650E+04-6.48384E+02-4.57577E+03 2.57986E+04-1.62563E-08 3.11320E-09
 -1       609 2.53742E+04-1.96046E+02-2.31122E+03 2.94244E+04-3.69510E-08 1.20926E-08
 -1       610 2.55855E+04-1.25085E+00-1.10349E+03 2.57758E+04-1.73568E-08 8.30050E-09
 -1       611 2.55169E+04 7.35590E+00-5.56346E+02 2.94493E+04-2.70393E-09 6.63726E-09
 -1       612 2.55403E+04 1.44552E+01-2.65315E+02 2.57735E+04-3.55158E-09-3.43243E-09
 -1       613 2.55183E+04 1.50325E+01-1.19570E+02 2.94523E+04-3.81624E-09 3.84557E-09
 -1       614 2.55165E+04 1.32070E+01-3.01237E+01 2.57728E+04 2.35559E-10 1.39939E-08
 -1       615 2.55078E+04 1.96601E+01 4.53962E+01 2.94527E+04 6.31189E-10 7.79528E-09
 -1       616 2.54982E+04 1.85348E+01 1.40414E+02 2.57730E+04 8.27458E-09-1.25897E-08
 -1       617 2.55201E+04 5.24036E+01 3.22225E+02 2.94522E+04 2.05475E-08-1.47545E-08
 -1       618 2.54668E+04 1.13592E+02 6.50069E+02 2.57732E+04 7.90442E-09-8.28345E-09
 -1       619 2.57468E+04 5.56809E+02 1.46025E+03 2.94514E+04-2.27146E-09-1.61867E-09
 -1       620 2.52491E+04 1.65667E+03 2.93512E+03 2.57726E+04 1.67449E-09 7.74662E-09
 -1       621 2.97431E+02 2.42379E+05 2.66464E+03 2.02551E+04 1.76897E-10 1.29203E-08
 -1       622 3.71751E+02 2.43024E+05 2.47259E+03 2.94572E+04 4.83169E-10 9.12314E-09
 -1       623 3.50454E+01 2.42525E+05 3.11546E+03 2.01594E+04 3.10251E-10-1.93722E-10
 -1       624 1.51523E+03 2.44047E+05 6.15492E+03 2.95541E+04 3.83075E-10-7.58791E-09
 -1       625 1.51629E+03 2.41310E+05 1.08118E+04 2.01567E+04 6.32554E-10 1.64596E-09
 -1       626 2.13914E+05 5.49212E+04 4.60543E+03 1.09621E+05-6.27551E-11-6.24823E-09
 -1       627 2.11556E+05 5.64513E+04 2.21930E+03 1.13765E+05 2.41607E-09-9.12178E-09
 -1       628 2.14047E+05 5.27905E+04 9.37924E+02 1.10373E+05-7.97081E-09 5.25733E-09
 -1       629 2.10951E+05 5.58706E+04 4.59155E+02 1.14009E+05-1.70066E-08 1.96161E-09
 -1       630 2.14057E+05 5.26893E+04 2.12300E+02 1.10400E+05-6.64477E-09 1.36739E-08
 -1       631 2.10882E+05 5.58521E+04 1.13450E+02 1.14010E+05 1.89993E-09 1.05211E-08
 -1       632 2.14049E+05 5.26955E+04 7.32359E+01 1.10393E+05-9.30868E-10-2.21667E-09
 -1       633 2.10869E+05 5.58563E+04 7.94287E+01 1.14003E+05 5.83896E-10-3.14185E-09
 -1       634 2.14041E+05 5.26954E+04 1.26411E+02 1.10390E+05 3.10138E-10-9.08176E-09
 -1       635 2.10877E+05 5.58567E+04 2.54707E+02 1.14005E+05-6.10839E-09 8.37690E-09
 -1       636 2.14030E+05 5.26926E+04 5.13763E+02 1.10388E+05 9.04379E-11 1.85732E-08
 -1       637 2.10985E+05 5.59374E+04 1.12900E+03 1.14002E+05 1.11671E-08 8.02675E-09
 -1       638 2.13988E+05 5.29431E+04 2.31977E+03 1.10274E+05 2.17915E-09 2.49383E-09
 -1       639 2.12203E+05 5.76317E+04 5.48816E+03 1.13641E+05-5.65933E-10 1.06493E-08
 -1       640 2.13824E+05 5.79986E+04 1.13890E+04 1.08135E+05-3.45608E-09 3.98177E-09
 -1       656 5.59345E+04-1.42396E+06-1.35027E+05-9.30045E+02 1.52795E-10-1.22451E-08
 -1       657-7.39624E+04-1.48494E+06-1.11780E+05 7.02834E+03 5.74801E-10-8.08620E-09
 -1       658 1.77939E+04-1.44131E+06-6.87416E+04-2.51509E+03 3.91083E-10-3.82174E-09
 -1       659-7.97023E+04-1.48766E+06-1.19320E+05 8.21033E+03-4.62023E-10-1.94605E-09
 -1       660 6.16612E+04-1.42125E+06-1.47992E+05-2.11202E+03-8.94943E-10 1.12814E-09
 -1       661 1.64784E+05 1.76654E+04 1.64785E+04 6.44374E+04-6.11635E-10 3.92993E-09
 -1       662 1.73729E+05 3.02331E+04 1.11044E+04 6.11634E+04 1.59912E-09-3.78338E-09
 -1       663 1.68018E+05 2.29536E+04 3.88409E+03 6.35006E+04-4.17344E-10 2.06933E-09
 -1       664 1.69982E+05 2.40463E+04 2.32278E+03 6.23055E+04 5.88528E-10-3.77872E-09
 -1       665 1.68506E+05 2.36784E+04 9.16313E+02 6.33606E+04-2.77549E-09 8.38313E-09
 -1       666 1.69407E+05 2.32153E+04 5.35308E+02 6.24867E+04-6.91557E-10 4.14408E-09
 -1       667 1.68589E+05 2.37628E+04 2.83335E+02 6.33274E+04-1.05189E-09 1.75082E-09
 -1       668 1.69316E+05 2.31519E+04 2.86387E+02 6.25350E+04-1.74985E-09-1.41466E-08
 -1       669 1.68596E+05 2.37399E+04 3.85836E+02 6.33128E+04 8.95454E-10-4.13741E-09
 -1       670 1.69411E+05 2.33593E+04 8.38396E+02 6.25367E+04 8.97060E-10 4.73256E-09
 -1       671 1.68495E+05 2.35596E+04 1.48804E+03 6.33239E+04 1.80122E-09-6.66978E-09
 -1       672 1.70278E+05 2.48069E+04 3.80664E+03 6.23270E+04 3.38029E-09-5.17576E-09
 -1       673 1.67734E+05 2.23288E+04 6.37913E+03 6.35086E+04-7.91374E-10-8.15589E-10
 -1       674 1.76351E+05 3.50540E+04 1.82429E+04 6.05416E+04-3.13298E-09-9.98625E-10
 -1       675 1.62461E+05 1.35993E+04 2.70786E+04 6.50014E+04-1.88993E-09-9.50422E-09
 -1       676 2.14428E+01-2.60272E+05-9.95970E+02-1.57086E+01 1.33696E-10-2.88883E-10
 -1       677-2.64498E+02-2.60512E+05-1.82277E+03 3.13968E+01-6.68280E-10-7.12627E-09
 -1       678 1.76569E+02-2.60100E+05-3.22218E+03-1.56775E+01-6.79961E-10-4.69692E-09
 -1       679-3.22314E+03-2.62457E+05-7.65444E+03 3.12775E+01 1.10106E-09-6.84534E-09
 -1       680 1.92360E+03-2.58328E+05-1.23364E+04-1.54130E+01-2.06910E-10 8.50445E-09
 -1       771-2.74639E+06-5.80792E+05-9.46834E+04-1.24152E+06-1.84373E-08-1.49885E-08
 -1       772-2.69870E+06-6.41864E+05-4.94414E+04-1.31135E+06-1.53377E-08 6.57019E-09
 -1       773-2.76367E+06-5.67154E+05-2.38917E+04-1.24798E+06-1.27475E-08 2.49565E-09
 -1       774-2.68989E+06-6.31878E+05-1.09421E+04-1.32420E+06 1.79280E-08-1.27329E-10
 -1       775-2.77135E+06-5.61707E+05-7.31956E+03-1.25042E+06-8.01811E-09-2.16096E-09
 -1       776-2.69415E+06-6.31148E+05-2.88283E+03-1.33320E+06-5.73345E-09 2.70484E-09
 -1       777-2.77775E+06-5.57022E+05-2.93281E+03-1.25256E+06 6.21367E-09 6.76300E-09
 -1       778-2.69884E+06-6.30578E+05-8.82903E+02-1.34084E+06 2.48110E-09 5.71890E-09
 -1       779-2.78314E+06-5.53002E+05-1.37823E+03-1.25440E+06-1.09576E-08-9.12405E-09
 -1       780-2.70298E+06-6.30005E+05-2.50986E+02-1.34705E+06-7.47968E-09-5.82077E-10
 -1       781-2.78736E+06-5.49798E+05-5.30850E+02-1.25583E+06-1.49157E-08-1.84809E-09
 -1       782-2.70615E+06-6.29485E+05 1.48035E+02-1.35161E+06-1.35333E-08-5.71208E-09
 -1       783-2.79029E+06-5.47606E+05 2.23739E+02-1.25685E+06 1.06520E-08-7.56859E-09
 -1       784-2.70789E+06-6.28848E+05 1.03383E+03-1.35440E+06-2.24099E-09-1.20667E-09
 -1       785-2.79197E+06-5.46344E+05 1.81116E+03-1.25749E+06-2.41616E-08-3.08228E-09
 -1       786 1.24618E+05-9.09371E+03 2.10379E+04-1.54613E+02 2.32057E-09-5.47516E-10
 -1       787 1.33741E+05 1.05277E+04 1.48837E+04 5.90234E+00 3.63623E-09 7.13817E-09
 -1       788 1.28136E+05-1.42540E+03 5.44354E+03-1.27153E+02 1.79143E-09 7.96513E-09
 -1       789 1.29642E+05 1.64916E+03 3.41810E+03-3.80956E+01-4.44228E-10 5.57969E-09
 -1       790 1.28716E+05-2.22367E+02 1.38579E+03-1.10622E+02-1.20263E-09 4.99216E-09
 -1       791 1.28964E+05 2.57022E+02 8.04036E+02-6.67617E+01-2.71671E-09 1.76601E-08
 -1       792 1.28815E+05-3.43012E+01 3.47973E+02-9.84871E+01-2.42457E-09-5.37030E-09
 -1       793 1.28848E+05 3.91040E+01 1.89406E+02-8.96099E+01 8.26768E-11-7.67680E-09
 -1       794 1.28832E+05-4.58688E+00 8.12315E+01-8.77732E+01 1.85851E-09-3.97050E-09
 -1       795 1.28826E+05 1.46437E+00 3.21466E+01-1.11908E+02-1.99267E-09 5.85264E-09
 -1       796 1.28837E+05 3.31924E+00-3.47481E+00-7.61890E+01 1.19913E-09 2.73489E-09
 -1       797 1.28810E+05-2.90829E+01-5.08909E+01-1.38371E+02 1.69014E-09-1.28003E-09
 -1       798 1.28848E+05 2.59363E+01-9.40839E+01-6.13091E+01 1.03443E-09 2.98301E-09
 -1       799 1.28735E+05-1.91831E+02-2.68805E+02-1.74592E+02 1.80613E-09-9.75241E-10
 -1       800 1.28912E+05 1.65926E+02-3.83207E+02-3.99680E+01 3.05940E-10 5.81585E-09
 -1       801 5.20078E+04-5.06065E+06-5.75931E+05 3.55103E+05 4.55038E-08-2.78360E-08
 -1       802 3.05985E+04-1.63197E+06 2.79224E+05-3.66441E+05 1.29079E-07-1.71740E-08
 -1       803-8.31964E+04-5.55681E+06-4.14721E+05 2.80140E+05 4.92582E-08 2.34168E-08
 -1       804 1.08471E+03-2.63125E+06 2.01181E+05 2.54232E+05-3.16140E-08-1.65198E-08
 -1       805 6.58137E+04-4.06994E+06-7.63032E+04-2.64872E+05-1.35042E-08-1.48229E-08
 -1       806-2.59646E+05-4.90857E+04-1.89091E+04-1.01525E+05-1.16506E-09 2.38233E-08
 -1       807-2.61323E+05-4.58095E+04-9.28982E+03-1.05889E+05 4.08409E-09-5.05857E-09
 -1       808-2.60150E+05-4.22858E+04-3.94115E+03-1.04765E+05-5.57247E-09-5.99084E-09
 -1       809-2.59378E+05-4.31917E+04-1.92716E+03-1.06109E+05-4.25098E-09 1.72240E-08
 -1       810-2.60229E+05-4.20489E+04-8.83228E+02-1.04909E+05 4.60250E-09 3.65162E-09
 -1       811-2.59229E+05-4.30856E+04-4.39163E+02-1.06080E+05 4.95675E-09-5.82986E-09
 -1       812-2.60242E+05-4.20685E+04-2.21846E+02-1.04909E+05-2.38288E-09-5.21550E-09
 -1       813-2.59209E+05-4.30867E+04-1.43865E+02-1.06066E+05-5.06225E-09-5.97925E-09
 -1       814-2.60238E+05-4.20754E+04-1.41888E+02-1.04907E+05-7.52152E-10-2.37969E-09
 -1       815-2.59214E+05-4.30880E+04-2.28337E+02-1.06062E+05 2.22099E-09-1.46338E-09
 -1       816-2.60223E+05-4.20734E+04-4.32244E+02-1.04905E+05-7.31143E-09 1.13582E-08
 -1       817-2.59289E+05-4.31288E+04-9.28054E+02-1.06055E+05-2.20443E-08-7.28664E-09
 -1       818-2.60170E+05-4.22024E+04-1.89254E+03-1.04844E+05-4.83396E-09 4.00723E-09
 -1       819-2.60326E+05-4.42744E+04-4.45386E+03-1.05816E+05-5.63432E-10-1.76806E-09
 -1       820-2.59821E+05-4.55601E+04-9.06477E+03-1.03400E+05-1.17234E-09 5.09010E-09
 -1       821-3.16989E+05 1.75151E+04-4.05108E+04 5.45113E+02-1.09741E-06 8.74697E-08
 -1       822-3.34526E+05-2.02765E+04-2.86645E+04-1.21617E+03-2.27335E-06-1.25533E-08
 -1       823-3.23751E+05 2.74664E+03-1.04913E+04 6.14275E+02-1.12776E-06-9.14360E-09
 -1       824-3.26617E+05-3.17783E+03-6.59855E+03-1.05662E+03-3.01847E-09-3.52247E-09
 -1       825-3.24895E+05 4.29165E+02-2.71767E+03 3.85572E+02 2.08318E-09 9.51457E-09
 -1       826-3.25271E+05-5.05043E+02-1.62798E+03-4.09280E+02 1.37423E-09 9.27483E-09
 -1       827-3.25096E+05 7.47985E+01-8.57790E+02-3.30781E+01-1.03385E-09 2.89049E-09
 -1       828-3.25092E+05-1.54061E+02-7.43256E+02 4.21282E+02-3.70773E-09 1.82646E-08
 -1       829-3.25073E+05 7.84595E+01-8.74431E+02-4.45004E+02-5.98703E-11 3.26438E-09
 -1       830-3.25332E+05-5.27097E+02-1.69867E+03 1.04405E+03 1.09603E-09-1.29925E-08
 -1       831-3.24857E+05 4.48579E+02-2.82092E+03-6.55859E+02-2.48790E-09-3.60751E-09
 -1       832-3.26700E+05-3.30987E+03-6.87403E+03 1.16546E+03-1.44031E-09 8.79572E-09
 -1       833-3.23707E+05 2.85952E+03-1.09281E+04-5.66414E+02-1.44064E-09 6.31280E-09
 -1       834-3.34875E+05-2.11147E+04-2.98440E+04 7.23534E+02-9.91857E-10-2.98087E-09
 -1       835-3.16684E+05 1.82389E+04-4.21975E+04-2.13920E+02 5.29433E-09 1.08048E-09
 -1       836-1.09797E+03 3.00503E+05 1.83228E+04-1.60677E+04-1.85719E-09 8.77071E-09
 -1       837 3.97094E+03 3.06211E+05 1.56525E+04-3.23980E+04-1.76578E-09-6.55291E-09
 -1       838-4.26100E+02 3.02084E+05 1.61562E+04-1.60025E+04-1.25146E-09-5.31145E-10
 -1       839 1.03147E+04 3.10940E+05 3.07674E+04-3.24397E+04-7.39874E-10 1.12476E-08
 -1       840-3.14387E+03 2.95730E+05 4.91518E+04-1.60264E+04-9.98625E-10 8.06210E-09
 -1       856-6.99874E+04 7.65480E+03-2.01726E+04-4.14436E+02 4.72369E-11-6.35191E-09
 -1       857-7.83125E+04-8.98315E+03-1.38876E+04 4.94393E+03-2.26112E-09-1.20901E-08
 -1       858-7.32791E+04 1.07286E+03-5.23486E+03-4.36665E+02-3.86251E-10-1.25076E-08
 -1       859-7.45335E+04-1.25186E+03-3.16041E+03 4.97852E+03-1.45690E-10 1.41725E-08
 -1       860-7.37711E+04 1.49545E+02-1.32680E+03-4.49031E+02-3.16675E-10 2.28715E-09
 -1       861-7.39672E+04-1.68964E+02-7.34700E+02 4.99545E+03-3.06716E-09-7.59046E-09
 -1       862-7.38478E+04 1.98689E+01-3.15032E+02-4.53604E+02 2.71113E-09 8.22769E-09
 -1       863-7.38749E+04-1.34377E+01-1.36614E+02 4.99775E+03 3.83204E-09-1.30937E-09
 -1       864-7.38638E+04-2.51497E+00-4.16807E+00-4.51336E+02 4.08629E-09-4.93857E-09
 -1       865-7.38353E+04 4.22950E+01 1.33982E+02 4.98581E+03 4.27343E-09-1.33531E-08
 -1       866-7.38855E+04-3.61411E+01 2.95250E+02-4.41661E+02 1.85526E-09-3.21089E-09
 -1       867-7.36896E+04 3.00650E+02 7.43014E+02 4.95948E+03-1.67279E-09 9.86644E-09
 -1       868-7.40055E+04-2.56964E+02 1.23850E+03-4.25004E+02 1.82075E-09 8.71012E-10
 -1       869-7.27766E+04 2.13781E+03 3.30382E+03 4.91566E+03-2.71007E-09-9.36853E-09
 -1       870-7.47924E+04-1.82450E+03 4.79364E+03-3.97832E+02-6.38352E-10 3.95858E-09
 -1       871-4.76229E+03-1.30480E+04-1.59131E+04 1.05962E+05-4.32919E-10 8.92760E-09
 -1       872-1.94740E+03-1.66638E+04-6.56672E+03 1.37382E+05-1.55160E-09 1.07666E-08
 -1       873 8.55418E+01-1.49563E+04 7.23953E+02 1.05730E+05-1.04819E-09 1.43284E-08
 -1       874 2.51087E+03-1.27888E+04 8.55171E+03 1.37420E+05-1.76988E-09 1.42516E-08
 -1       875 5.66135E+03-1.69888E+04 1.91032E+04 1.05925E+05-6.20275E-10 6.47651E-09
 -1       876 2.50298E+05 4.26569E+04 1.30764E+04 1.01003E+05-4.57362E-10 1.39316E-08
 -1       877 2.51112E+05 4.54605E+04 6.98321E+03 1.04799E+05 3.20142E-10 7.91533E-09
 -1       878 2.51519E+05 4.12098E+04 2.92564E+03 1.02076E+05 1.06775E-09-3.58386E-09
 -1       879 2.49334E+05 4.36876E+04 1.45760E+03 1.04890E+05 2.03067E-09 1.46875E-08
 -1       880 2.51608E+05 4.11943E+04 6.78817E+02 1.02120E+05 4.98380E-09 2.07081E-10
 -1       881 2.49216E+05 4.36120E+04 3.62139E+02 1.04870E+05 9.59892E-09 8.97805E-09
 -1       882 2.51616E+05 4.12054E+04 2.31079E+02 1.02121E+05 5.64091E-09-6.42280E-09
 -1       883 2.49208E+05 4.36082E+04 2.47441E+02 1.04864E+05 3.86990E-09-2.93069E-09
 -1       884 2.51611E+05 4.12028E+04 3.92738E+02 1.02122E+05-6.61316E-10-8.29266E-09
 -1       885 2.49239E+05 4.36138E+04 7.89072E+02 1.04874E+05 2.80085E-09 1.33964E-08
 -1       886 2.51580E+05 4.11798E+04 1.59009E+03 1.02118E+05-8.83198E-10 6.11931E-09
 -1       887 2.49519E+05 4.37970E+04 3.47325E+03 1.04914E+05 3.89690E-10 9.57652E-09
 -1       888 2.51361E+05 4.12183E+04 6.99870E+03 1.02007E+05-3.62573E-09-4.38285E-09
 -1       889 2.53687E+05 4.81286E+04 1.67190E+04 1.04784E+05 5.75817E-10 4.48063E-09
 -1       890 2.48508E+05 4.46070E+04 3.13138E+04 9.93386E+04 2.86263E-09 2.57751E-09
 -1       891-1.26118E+02-1.40394E+05-1.69366E+03 2.50487E+04 1.78488E-10 2.04625E-08
 -1       892-2.25755E+02-1.40815E+05-1.82853E+03 3.79489E+04 1.70076E-09 1.83243E-08
 -1       893-1.35609E+01-1.40448E+05-2.59885E+03 2.50544E+04-1.75078E-10 5.22778E-09
 -1       894-1.37189E+03-1.41803E+05-5.38581E+03 3.78117E+04 7.94898E-10 5.80258E-09
 -1       895-1.07909E+03-1.39326E+05-9.48717E+03 2.51852E+04-5.81394E-10 2.34195E-09
 -1       956-3.18253E+05-4.49071E+03-1.12398E+04 2.27485E+04 1.67438E-09-2.92403E-09
 -1       957-3.20468E+05-1.53506E+03-5.76979E+03 2.73829E+04-1.08048E-09-1.15660E-08
 -1       958-3.19255E+05-1.43225E+02-2.59963E+03 2.26147E+04-1.08230E-09-6.97491E-09
 -1       959-3.19428E+05-4.70009E+01-1.32776E+03 2.75319E+04-1.32832E-09 1.53000E-09
 -1       960-3.19347E+05 1.64741E+01-6.47416E+02 2.26015E+04-2.58160E-09 3.19483E-09
 -1       961-3.19355E+05 1.06722E+01-3.43605E+02 2.75471E+04 1.40426E-09-8.76457E-09
 -1       962-3.19367E+05 1.30870E+01-1.97020E+02 2.25994E+04 5.99357E-10 1.06475E-08
 -1       963-3.19352E+05 1.26939E+01-1.58763E+02 2.75498E+04 2.03227E-09-6.76596E-09
 -1       964-3.19370E+05 1.54126E+01-1.93588E+02 2.25988E+04 8.75673E-10-1.04797E-08
 -1       965-3.19363E+05 1.56201E+01-3.35255E+02 2.75494E+04 1.64414E-09-5.60863E-09
 -1       966-3.19359E+05 2.33937E+01-6.29902E+02 2.25997E+04 2.74122E-09-1.37973E-08
 -1       967-3.19443E+05-3.56817E+01-1.29212E+03 2.75394E+04 6.60361E-09 3.46631E-09
 -1       968-3.19276E+05-1.27459E+02-2.52906E+03 2.26088E+04 7.17864E-09-1.19147E-09
 -1       969-3.20464E+05-1.47973E+03-5.61502E+03 2.74336E+04 3.27850E-09-3.70835E-09
 -1       970-3.18307E+05-4.35545E+03-1.09375E+04 2.27049E+04 6.36646E-10 1.20835E-08
 -1       971-2.96460E+05-1.52299E+03-8.37365E+03 1.37924E+04 3.54703E-11-8.66305E-09
 -1       972-2.98489E+05-1.10191E+03-4.56021E+03 1.92030E+04-2.25509E-09-4.83169E-09
 -1       973-2.97392E+05-2.57591E+01-2.04224E+03 1.36792E+04-2.12094E-09 7.08269E-09
 -1       974-2.97527E+05-3.12958E+01-1.05824E+03 1.93274E+04 3.64980E-09 5.62909E-09
 -1       975-2.97465E+05 1.40352E+01-5.28464E+02 1.36684E+04 2.18688E-09 9.61450E-10
 -1       976-2.97471E+05 1.30719E+01-3.03949E+02 1.93408E+04-2.91743E-09 5.62670E-09
 -1       977-2.97480E+05 1.42617E+01-2.18933E+02 1.36657E+04-8.49991E-09-3.45142E-09
 -1       978-2.97475E+05 1.83179E+01-2.53920E+02 1.93446E+04-5.79030E-09 3.78373E-09
 -1       979-2.97479E+05 2.13688E+01-4.06013E+02 1.36645E+04-1.30802E-09-8.28084E-09
 -1       980-2.97505E+05 2.09002E+01-7.82732E+02 1.93453E+04 1.35640E-09-7.09167E-09
 -1       981-2.97454E+05 4.08960E+01-1.51533E+03 1.36650E+04-4.27690E-10-8.62809E-09
 -1       982-2.97713E+05-9.10112E+01-3.13179E+03 1.93394E+04 5.91513E-10 4.02225E-09
 -1       983-2.97264E+05-5.60589E+01-6.08489E+03 1.36706E+04 2.36059E-09-2.83399E-09
 -1       984-3.00639E+05-3.26883E+03-1.36265E+04 1.92618E+04-1.48634E-09-1.13764E-08
 -1       985-2.94509E+05-4.50860E+03-2.50226E+04 1.37440E+04 3.81078E-10-7.42330E-09
 -3
    1PSTEP                        21          11           1          
  100CL  111 5.97900E-01         409                     0   11           1
 -4  DISP        4    1
 -5  D1          1    2    1    0
 -5  D2          1    2    2    0
 -5  D3          1    2    3    0
 -5  ALL         1    2    0    0    1ALL
 -1         1 1.04330E-03 0.00000E+00 0.00000E+00
 -1         2 9.81004E-04 8.16845E-29 1.32349E-23
 -1         3 2.52664E-04-4.20648E-27-1.32349E-23
 -1         5 1.43393E-04-1.63949E-26-1.65436E-24
 -1         8 1.02295E-03-6.48208E-07 0.00000E+00
 -1         9 9.94862E-04-2.97068E-06 0.00000E+00
 -1        10 2.30161E-04-3.12529E-06 6.61744E-24
 -1        12 1.44049E-04 6.85263E-07-1.65436E-24
 -1        15 9.98437E-04-7.15090E-07 2.06795E-25
 -1        16 1.00416E-03-3.66026E-06 0.00000E+00
 -1        17 1.60014E-04-6.83986E-06 0.00000E+00
 -1        18 1.44642E-04 1.77569E-05 0.00000E+00
 -1        19 1.46017E-04 1.36675E-06 0.00000E+00
 -1        20 1.46164E-04 3.10259E-06 0.00000E+00
 -1        21 1.45437E-04 2.25045E-06 0.00000E+00
 -1        24 2.64197E-05-9.81009E-06 0.00000E+00
 -1        25 1.49452E-04 1.79326E-05 0.00000E+00
 -1        26 1.50154E-04 1.89380E-06 0.00000E+00
 -1        27 1.48281E-04 2.17680E-08 0.00000E+00
 -1        28 1.47893E-04 1.69371E-06 0.00000E+00
 -1        32 0.00000E+00 0.00000E+00 0.00000E+00
 -1        33 1.53227E-04 2.53707E-06 0.00000E+00
 -1        34 1.51385E-04-1.46559E-08 0.00000E+00
 -1        35 1.49679E-04 1.39300E-06 0.00000E+00
 -1        51 1.04199E-03-1.15256E-07 0.00000E+00
 -1        52 1.03955E-03-2.19205E-07 0.00000E+00
 -1        53 1.03620E-03-3.22370E-07 0.00000E+00
 -1        54 1.03217E-03-4.26718E-07 0.00000E+00
 -1        55 1.02767E-03-5.33566E-07 1.24077E-24
 -1        56 1.04051E-03-5.12112E-07 5.29396E-23
 -1        57 1.03727E-03-1.36913E-07 2.64698E-23
 -1        58 1.03373E-03 1.04725E-06-5.29396E-23
 -1        59 1.02993E-03 2.86316E-06 0.00000E+00
 -1        60 1.02599E-03 5.06756E-06 0.00000E+00
 -1        61 1.02200E-03 7.38560E-06 0.00000E+00
 -1        62 1.01808E-03 9.52928E-06 0.00000E+00
 -1        63 1.01432E-03 1.12205E-05 0.00000E+00
 -1        64 1.01082E-03 1.22393E-05 0.00000E+00
 -1        65 1.00764E-03 1.24080E-05 0.00000E+00
 -1        66 1.00481E-03 1.16572E-05 0.00000E+00
 -1        67 1.00233E-03 9.97637E-06 0.00000E+00
 -1        68 1.00015E-03 7.47250E-06-1.05879E-22
 -1        69 9.98243E-04 4.31065E-06-2.64698E-23
 -1        70 9.96483E-04 7.28103E-07 0.00000E+00
 -1        86 9.81564E-04-4.90092E-07 0.00000E+00
 -1        87 9.83234E-04-9.81620E-07 0.00000E+00
 -1        88 9.85740E-04-1.47482E-06-1.32349E-23
 -1        89 9.88793E-04-1.97105E-06 0.00000E+00
 -1        90 9.91974E-04-2.46711E-06-1.32349E-23
 -1       121 2.52032E-04-5.11983E-07 1.32349E-23
 -1       122 2.50140E-04-1.02550E-06 0.00000E+00
 -1       123 2.46994E-04-1.54207E-06-1.32349E-23
 -1       124 2.42605E-04-2.06323E-06 0.00000E+00
 -1       125 2.36987E-04-2.59026E-06 0.00000E+00
 -1       191 1.43412E-04 1.14222E-07 3.30872E-24
 -1       192 1.43466E-04 2.28441E-07 1.65436E-24
 -1       193 1.43557E-04 3.42658E-07 0.00000E+00
 -1       194 1.43685E-04 4.56870E-07 1.65436E-24
 -1       195 1.43849E-04 5.71073E-07 1.65436E-24
 -1       251 1.02224E-03 1.60711E-05 0.00000E+00
 -1       252 1.02082E-03 5.76983E-05 0.00000E+00
 -1       253 1.01859E-03 1.16769E-04 0.00000E+00
 -1       254 1.01576E-03 1.85415E-04 6.61744E-24
 -1       255 1.01299E-03 2.53164E-04-1.32349E-23
 -1       256 1.01090E-03 3.09563E-04 6.61744E-24
 -1       257 1.00963E-03 3.47242E-04 1.32349E-23
 -1       258 1.00897E-03 3.59265E-04 0.00000E+00
 -1       259 1.00829E-03 3.45436E-04 1.32349E-23
 -1       260 1.00696E-03 3.06182E-04 0.00000E+00
 -1       261 1.00480E-03 2.48618E-04 0.00000E+00
 -1       262 1.00199E-03 1.80277E-04 6.61744E-24
 -1       263 9.99164E-04 1.11624E-04 0.00000E+00
 -1       264 9.96956E-04 5.31334E-05-6.61744E-24
 -1       265 9.95574E-04 1.25033E-05-2.64698E-23
 -1       266 1.01887E-03-6.68749E-07 0.00000E+00
 -1       267 1.01478E-03-6.78751E-07 0.00000E+00
 -1       268 1.01069E-03-6.89420E-07 0.00000E+00
 -1       269 1.00661E-03-6.98112E-07-2.06795E-25
 -1       270 1.00252E-03-7.06758E-07-4.13590E-25
 -1       271 1.02041E-03 2.90701E-06-2.64698E-23
 -1       272 1.01795E-03 6.13753E-06 0.00000E+00
 -1       273 1.01563E-03 8.99303E-06 0.00000E+00
 -1       274 1.01347E-03 1.14124E-05 0.00000E+00
 -1       275 1.01150E-03 1.33461E-05 2.64698E-23
 -1       276 1.00972E-03 1.47497E-05-1.32349E-23
 -1       277 1.00816E-03 1.55878E-05 2.64698E-23
 -1       278 1.00682E-03 1.58332E-05 1.32349E-23
 -1       279 1.00571E-03 1.54684E-05-2.64698E-23
 -1       280 1.00483E-03 1.44848E-05 0.00000E+00
 -1       281 1.00418E-03 1.28842E-05 0.00000E+00
 -1       282 1.00376E-03 1.06772E-05 1.32349E-23
 -1       283 1.00356E-03 7.88447E-06-2.64698E-23
 -1       284 1.00356E-03 4.53648E-06 0.00000E+00
 -1       285 1.00376E-03 6.70085E-07 2.64698E-23
 -1       301 9.96576E-04-3.10468E-06-6.61744E-24
 -1       302 9.97619E-04-3.21159E-06 3.30872E-24
 -1       303 9.98442E-04-3.31636E-06-6.61744E-24
 -1       304 9.99503E-04-3.42102E-06 0.00000E+00
 -1       305 1.00126E-03-3.52835E-06 1.32349E-23
 -1       306 1.01816E-03-8.69723E-05 0.00000E+00
 -1       307 1.07445E-03-3.25889E-04-2.64698E-23
 -1       308 1.14183E-03-6.81061E-04 1.05879E-22
 -1       309 1.20951E-03-1.10029E-03 0.00000E+00
 -1       310 1.27722E-03-1.51313E-03 0.00000E+00
 -1       311 1.34374E-03-1.84973E-03 5.29396E-23
 -1       312 1.39577E-03-2.06148E-03-1.05879E-22
 -1       313 1.40969E-03-2.11486E-03 0.00000E+00
 -1       314 1.35971E-03-2.01083E-03 0.00000E+00
 -1       315 1.22834E-03-1.76924E-03 0.00000E+00
 -1       316 1.02461E-03-1.43253E-03-1.05879E-22
 -1       317 7.75116E-04-1.04608E-03-2.64698E-23
 -1       318 5.27502E-04-6.61604E-04 0.00000E+00
 -1       319 3.28943E-04-3.30948E-04 0.00000E+00
 -1       320 2.04127E-04-9.88723E-05 5.29396E-23
 -1       336 2.21992E-04-3.71047E-06 0.00000E+00
 -1       337 2.12353E-04-4.30883E-06 0.00000E+00
 -1       338 2.01284E-04-4.92109E-06 0.00000E+00
 -1       339 1.88834E-04-5.54739E-06 0.00000E+00
 -1       340 1.75058E-04-6.19050E-06-1.32349E-23
 -1       406 1.44286E-04 7.99432E-07-3.30872E-24
 -1       407 1.44559E-04 9.13556E-07 0.00000E+00
 -1       408 1.44869E-04 1.02760E-06-1.65436E-24
 -1       409 1.45216E-04 1.14143E-06-8.27181E-25
 -1       410 1.45598E-04 1.25482E-06 1.65436E-24
 -1       521 1.02883E-03-9.60128E-05 0.00000E+00
 -1       522 1.08678E-03-3.54800E-04 5.29396E-23
 -1       523 1.15408E-03-7.38769E-04 1.05879E-22
 -1       524 1.21987E-03-1.19055E-03 5.29396E-23
 -1       525 1.28591E-03-1.63485E-03 0.00000E+00
 -1       526 1.35270E-03-1.99717E-03-5.29396E-23
 -1       527 1.40616E-03-2.22417E-03 0.00000E+00
 -1       528 1.42001E-03-2.28070E-03 0.00000E+00
 -1       529 1.36410E-03-2.16714E-03-1.05879E-22
 -1       530 1.21850E-03-1.90714E-03 0.00000E+00
 -1       531 9.92139E-04-1.54609E-03 1.05879E-22
 -1       532 7.14820E-04-1.13306E-03 5.29396E-23
 -1       533 4.39141E-04-7.21649E-04 0.00000E+00
 -1       534 2.17257E-04-3.65551E-04-5.29396E-23
 -1       535 7.73201E-05-1.13370E-04 0.00000E+00
 -1       536 1.59565E-04 1.78888E-05 6.61744E-24
 -1       537 1.58538E-04 6.06705E-05 0.00000E+00
 -1       538 1.56992E-04 1.14858E-04-3.30872E-24
 -1       539 1.55192E-04 1.73742E-04-1.65436E-24
 -1       540 1.53573E-04 2.29250E-04 0.00000E+00
 -1       541 1.52502E-04 2.73330E-04 0.00000E+00
 -1       542 1.51979E-04 3.01124E-04-3.30872E-24
 -1       543 1.51805E-04 3.07875E-04-1.65436E-24
 -1       544 1.51567E-04 2.94235E-04-3.30872E-24
 -1       545 1.50887E-04 2.60994E-04-1.65436E-24
 -1       546 1.49694E-04 2.14064E-04-3.30872E-24
 -1       547 1.48125E-04 1.59438E-04 1.65436E-24
 -1       548 1.46582E-04 1.05302E-04 0.00000E+00
 -1       549 1.45455E-04 5.98415E-05-1.65436E-24
 -1       550 1.44843E-04 2.87809E-05 0.00000E+00
 -1       551 1.41679E-04-7.25638E-06 0.00000E+00
 -1       552 1.20640E-04-7.71866E-06-3.30872E-24
 -1       553 9.77399E-05-8.21792E-06 8.68540E-24
 -1       554 7.38335E-05-8.74102E-06 0.00000E+00
 -1       555 4.97765E-05-9.27003E-06 0.00000E+00
 -1       556 1.54666E-04 6.91987E-06 0.00000E+00
 -1       557 1.50403E-04 1.79225E-05 0.00000E+00
 -1       558 1.47120E-04 2.63936E-05 0.00000E+00
 -1       559 1.44716E-04 3.25770E-05 0.00000E+00
 -1       560 1.43091E-04 3.67163E-05 0.00000E+00
 -1       561 1.42148E-04 3.90573E-05 1.32349E-23
 -1       562 1.41792E-04 3.98461E-05 0.00000E+00
 -1       563 1.41926E-04 3.93296E-05 0.00000E+00
 -1       564 1.42456E-04 3.77551E-05 0.00000E+00
 -1       565 1.43288E-04 3.53703E-05 0.00000E+00
 -1       566 1.44331E-04 3.24231E-05 0.00000E+00
 -1       567 1.45490E-04 2.91617E-05 1.65436E-24
 -1       568 1.46674E-04 2.58342E-05 1.65436E-24
 -1       569 1.47790E-04 2.26889E-05 0.00000E+00
 -1       570 1.48746E-04 1.99737E-05 0.00000E+00
 -1       571 1.44725E-04 1.66985E-05-1.65436E-24
 -1       572 1.44810E-04 1.55877E-05 0.00000E+00
 -1       573 1.44896E-04 1.44362E-05 3.30872E-24
 -1       574 1.44982E-04 1.32562E-05 8.27181E-25
 -1       575 1.45068E-04 1.20601E-05 0.00000E+00
 -1       576 1.45154E-04 1.08602E-05 0.00000E+00
 -1       577 1.45240E-04 9.66877E-06-3.30872E-24
 -1       578 1.45327E-04 8.49827E-06-1.65436E-24
 -1       579 1.45413E-04 7.36102E-06 0.00000E+00
 -1       580 1.45499E-04 6.26940E-06 0.00000E+00
 -1       581 1.45585E-04 5.23578E-06 0.00000E+00
 -1       582 1.45672E-04 4.27248E-06 0.00000E+00
 -1       583 1.45758E-04 3.39187E-06 0.00000E+00
 -1       584 1.45844E-04 2.60614E-06 0.00000E+00
 -1       585 1.45931E-04 1.92740E-06 6.61744E-24
 -1       586 1.45392E-04 1.77881E-05 0.00000E+00
 -1       587 1.46113E-04 1.78186E-05 3.10193E-25
 -1       588 1.46841E-04 1.78488E-05 0.00000E+00
 -1       589 1.47616E-04 1.78784E-05 0.00000E+00
 -1       590 1.48473E-04 1.79071E-05 0.00000E+00
 -1       591 1.44990E-04 1.67641E-05 0.00000E+00
 -1       592 1.45344E-04 1.57475E-05 0.00000E+00
 -1       593 1.45705E-04 1.47128E-05 8.27181E-25
 -1       594 1.46070E-04 1.36651E-05 4.13590E-25
 -1       595 1.46437E-04 1.26094E-05 0.00000E+00
 -1       596 1.46806E-04 1.15507E-05 0.00000E+00
 -1       597 1.47174E-04 1.04940E-05 8.27181E-25
 -1       598 1.47540E-04 9.44418E-06 4.13590E-25
 -1       599 1.47901E-04 8.40629E-06-4.13590E-25
 -1       600 1.48256E-04 7.38530E-06 0.00000E+00
 -1       601 1.48603E-04 6.38617E-06 0.00000E+00
 -1       602 1.48939E-04 5.41387E-06 2.06795E-25
 -1       603 1.49264E-04 4.47339E-06 2.06795E-25
 -1       604 1.49576E-04 3.56978E-06 0.00000E+00
 -1       605 1.49872E-04 2.70795E-06 0.00000E+00
 -1       606 1.46030E-04 9.99689E-07 0.00000E+00
 -1       607 1.46040E-04 7.23988E-07 0.00000E+00
 -1       608 1.46050E-04 5.34284E-07 0.00000E+00
 -1       609 1.46059E-04 4.24529E-07 0.00000E+00
 -1       610 1.46068E-04 3.88633E-07 0.00000E+00
 -1       611 1.46077E-04 4.20431E-07 0.00000E+00
 -1       612 1.46086E-04 5.13751E-07 0.00000E+00
 -1       613 1.46094E-04 6.62416E-07 0.00000E+00
 -1       614 1.46103E-04 8.60247E-07 0.00000E+00
 -1       615 1.46112E-04 1.10106E-06 0.00000E+00
 -1       616 1.46121E-04 1.37868E-06 0.00000E+00
 -1       617 1.46130E-04 1.68693E-06 0.00000E+00
 -1       618 1.46138E-04 2.01962E-06 0.00000E+00
 -1       619 1.46147E-04 2.37058E-06 0.00000E+00
 -1       620 1.46155E-04 2.73363E-06-4.13590E-25
 -1       621 1.46531E-04 1.45487E-06 0.00000E+00
 -1       622 1.47142E-04 1.54326E-06 1.65436E-24
 -1       623 1.47830E-04 1.63158E-06-1.65436E-24
 -1       624 1.48574E-04 1.71970E-06 8.27181E-25
 -1       625 1.49356E-04 1.80764E-06 0.00000E+00
 -1       626 1.46252E-04 1.03050E-06 0.00000E+00
 -1       627 1.46461E-04 7.65740E-07 1.65436E-24
 -1       628 1.46647E-04 5.64694E-07 0.00000E+00
 -1       629 1.46812E-04 4.19207E-07 1.65436E-24
 -1       630 1.46959E-04 3.21103E-07-3.30872E-24
 -1       631 1.47092E-04 2.62178E-07 0.00000E+00
 -1       632 1.47212E-04 2.34222E-07 3.30872E-24
 -1       633 1.47325E-04 2.29027E-07 1.65436E-24
 -1       634 1.47432E-04 2.38387E-07 0.00000E+00
 -1       635 1.47536E-04 2.54095E-07 1.65436E-24
 -1       636 1.47641E-04 2.67944E-07-3.30872E-24
 -1       637 1.47750E-04 2.71727E-07-8.27181E-25
 -1       638 1.47866E-04 2.57231E-07-1.65436E-24
 -1       639 1.47991E-04 2.16239E-07 0.00000E+00
 -1       640 1.48129E-04 1.40525E-07 0.00000E+00
 -1       656 1.46018E-04 2.60155E-06 0.00000E+00
 -1       657 1.46268E-04 2.08035E-06 0.00000E+00
 -1       658 1.46776E-04 1.56055E-06-1.32349E-23
 -1       659 1.47395E-04 1.04114E-06 0.00000E+00
 -1       660 1.47954E-04 5.20132E-07-6.61744E-24
 -1       661 1.46111E-04 3.43473E-06 0.00000E+00
 -1       662 1.46090E-04 3.69168E-06 8.27181E-25
 -1       663 1.46096E-04 3.87707E-06 0.00000E+00
 -1       664 1.46127E-04 3.99577E-06 0.00000E+00
 -1       665 1.46182E-04 4.05204E-06 1.65436E-24
 -1       666 1.46259E-04 4.05024E-06 0.00000E+00
 -1       667 1.46355E-04 3.99447E-06-1.65436E-24
 -1       668 1.46471E-04 3.88881E-06 8.27181E-25
 -1       669 1.46604E-04 3.73715E-06-1.65436E-24
 -1       670 1.46752E-04 3.54331E-06 0.00000E+00
 -1       671 1.46915E-04 3.31099E-06 0.00000E+00
 -1       672 1.47091E-04 3.04378E-06-8.27181E-25
 -1       673 1.47279E-04 2.74525E-06-1.65436E-24
 -1       674 1.47476E-04 2.41858E-06-8.27181E-25
 -1       675 1.47683E-04 2.06757E-06 4.13590E-25
 -1       676 1.45848E-04 2.15711E-06-3.30872E-24
 -1       677 1.46258E-04 2.06382E-06-1.65436E-24
 -1       678 1.46668E-04 1.97057E-06-3.30872E-24
 -1       679 1.47077E-04 1.87760E-06 0.00000E+00
 -1       680 1.47485E-04 1.78465E-06 0.00000E+00
 -1       771 1.76586E-05 9.36237E-06 5.29396E-23
 -1       772 1.02365E-05 2.50996E-05 5.29396E-23
 -1       773 4.08977E-06 3.75745E-05 5.29396E-23
 -1       774-8.67796E-07 4.69787E-05 0.00000E+00
 -1       775-4.72098E-06 5.35102E-05 0.00000E+00
 -1       776-7.55800E-06 5.73776E-05 0.00000E+00
 -1       777-9.46740E-06 5.87959E-05 0.00000E+00
 -1       778-1.05396E-05 5.79886E-05-2.64698E-23
 -1       779-1.08652E-05 5.51846E-05 0.00000E+00
 -1       780-1.05361E-05 5.06198E-05 2.64698E-23
 -1       781-9.64408E-06 4.45344E-05 5.29396E-23
 -1       782-8.28227E-06 3.71740E-05 0.00000E+00
 -1       783-6.54335E-06 2.87870E-05 5.29396E-23
 -1       784-4.52099E-06 1.96260E-05 2.64698E-23
 -1       785-2.30842E-06 9.94510E-06 0.00000E+00
 -1       786 1.49492E-04 1.67167E-05-1.03398E-25
 -1       787 1.49535E-04 1.55479E-05 0.00000E+00
 -1       788 1.49578E-04 1.44186E-05 8.27181E-25
 -1       789 1.49622E-04 1.33208E-05-8.27181E-25
 -1       790 1.49666E-04 1.22502E-05 1.65436E-24
 -1       791 1.49710E-04 1.12023E-05 0.00000E+00
 -1       792 1.49755E-04 1.01749E-05 0.00000E+00
 -1       793 1.49799E-04 9.16587E-06-8.27181E-25
 -1       794 1.49843E-04 8.17508E-06-1.65436E-24
 -1       795 1.49887E-04 7.20230E-06 0.00000E+00
 -1       796 1.49932E-04 6.24920E-06-1.65436E-24
 -1       797 1.49976E-04 5.31745E-06 0.00000E+00
 -1       798 1.50020E-04 4.41091E-06 1.65436E-24
 -1       799 1.50065E-04 3.53353E-06 8.27181E-25
 -1       800 1.50109E-04 2.69217E-06 0.00000E+00
 -1       801 1.20540E-04 1.58451E-05 0.00000E+00
 -1       802 3.25532E-05 1.04115E-05 0.00000E+00
 -1       803-4.62022E-05 5.60585E-06 0.00000E+00
 -1       804-4.81121E-05 3.76127E-06-2.64698E-23
 -1       805-1.71608E-05 1.72887E-06-5.29396E-23
 -1       806 1.49808E-04 1.66589E-05 0.00000E+00
 -1       807 1.50151E-04 1.54121E-05 0.00000E+00
 -1       808 1.50482E-04 1.41961E-05-1.65436E-24
 -1       809 1.50800E-04 1.30140E-05 8.27181E-25
 -1       810 1.51104E-04 1.18689E-05-3.30872E-24
 -1       811 1.51393E-04 1.07635E-05 1.65436E-24
 -1       812 1.51665E-04 9.70090E-06 0.00000E+00
 -1       813 1.51921E-04 8.68392E-06 0.00000E+00
 -1       814 1.52159E-04 7.71547E-06-1.65436E-24
 -1       815 1.52377E-04 6.79844E-06-1.65436E-24
 -1       816 1.52576E-04 5.93572E-06 1.65436E-24
 -1       817 1.52752E-04 5.13018E-06-8.27181E-25
 -1       818 1.52907E-04 4.38469E-06-3.30872E-24
 -1       819 1.53038E-04 3.70212E-06 0.00000E+00
 -1       820 1.53145E-04 3.08531E-06 1.65436E-24
 -1       821 1.50043E-04 1.00830E-06 0.00000E+00
 -1       822 1.49925E-04-9.23725E-08 0.00000E+00
 -1       823 1.49808E-04-1.27897E-06 0.00000E+00
 -1       824 1.49690E-04-2.42177E-06 0.00000E+00
 -1       825 1.49571E-04-3.40169E-06-3.30872E-24
 -1       826 1.49453E-04-4.10050E-06 0.00000E+00
 -1       827 1.49335E-04-4.46744E-06 0.00000E+00
 -1       828 1.49216E-04-4.45358E-06 1.65436E-24
 -1       829 1.49098E-04-4.10138E-06 0.00000E+00
 -1       830 1.48980E-04-3.45512E-06 1.65436E-24
 -1       831 1.48861E-04-2.62967E-06 0.00000E+00
 -1       832 1.48743E-04-1.74086E-06 0.00000E+00
 -1       833 1.48625E-04-9.19774E-07 0.00000E+00
 -1       834 1.48508E-04-2.97095E-07 8.27181E-25
 -1       835 1.48391E-04 4.39777E-08-8.27181E-25
 -1       836 1.50847E-04 2.00071E-06 0.00000E+00
 -1       837 1.51426E-04 2.11015E-06 1.65436E-24
 -1       838 1.51924E-04 2.21945E-06 0.00000E+00
 -1       839 1.52369E-04 2.32809E-06-8.27181E-25
 -1       840 1.52793E-04 2.43657E-06 0.00000E+00
 -1       856 1.48260E-04-1.17017E-07 0.00000E+00
 -1       857 1.48236E-04-1.33323E-07-5.16988E-26
 -1       858 1.48213E-04-4.62808E-08 0.00000E+00
 -1       859 1.48188E-04 1.24902E-07 0.00000E+00
 -1       860 1.48164E-04 3.60917E-07-8.27181E-25
 -1       861 1.48140E-04 6.42414E-07 0.00000E+00
 -1       862 1.48115E-04 9.49997E-07-8.27181E-25
 -1       863 1.48090E-04 1.26424E-06-4.13590E-25
 -1       864 1.48066E-04 1.56572E-06 0.00000E+00
 -1       865 1.48041E-04 1.83502E-06 4.13590E-25
 -1       866 1.48017E-04 2.05276E-06 0.00000E+00
 -1       867 1.47992E-04 2.19959E-06 4.13590E-25
 -1       868 1.47968E-04 2.25624E-06 0.00000E+00
 -1       869 1.47943E-04 2.20351E-06 0.00000E+00
 -1       870 1.47918E-04 2.02233E-06 0.00000E+00
 -1       871 1.48670E-04 1.94221E-08-4.13590E-25
 -1       872 1.49187E-04 1.42776E-08 0.00000E+00
 -1       873 1.49774E-04 8.59192E-09-4.13590E-25
 -1       874 1.50375E-04 2.26313E-09 0.00000E+00
 -1       875 1.50931E-04-4.61143E-09 4.13590E-25
 -1       876 1.48446E-04-1.04758E-07 0.00000E+00
 -1       877 1.48591E-04-1.71431E-07 1.65436E-24
 -1       878 1.48716E-04-1.85448E-07 0.00000E+00
 -1       879 1.48824E-04-1.53463E-07 0.00000E+00
 -1       880 1.48918E-04-8.21823E-08-3.30872E-24
 -1       881 1.49000E-04 2.17367E-08 0.00000E+00
 -1       882 1.49071E-04 1.51647E-07 0.00000E+00
 -1       883 1.49136E-04 3.00912E-07 0.00000E+00
 -1       884 1.49196E-04 4.62895E-07 3.30872E-24
 -1       885 1.49253E-04 6.30969E-07 0.00000E+00
 -1       886 1.49311E-04 7.98500E-07 3.30872E-24
 -1       887 1.49371E-04 9.58838E-07 0.00000E+00
 -1       888 1.49436E-04 1.10534E-06-3.30872E-24
 -1       889 1.49508E-04 1.23122E-06 8.27181E-25
 -1       890 1.49590E-04 1.32988E-06 0.00000E+00
 -1       891 1.48321E-04 1.64330E-06 0.00000E+00
 -1       892 1.48728E-04 1.59273E-06 4.13590E-25
 -1       893 1.49091E-04 1.54221E-06-8.27181E-25
 -1       894 1.49386E-04 1.49186E-06-8.27181E-25
 -1       895 1.49590E-04 1.44166E-06 8.27181E-25
 -1       956 1.53114E-04 2.13265E-06-1.65436E-24
 -1       957 1.52999E-04 1.80275E-06-8.27181E-25
 -1       958 1.52884E-04 1.53884E-06 3.30872E-24
 -1       959 1.52768E-04 1.33189E-06 0.00000E+00
 -1       960 1.52653E-04 1.17285E-06-3.30872E-24
 -1       961 1.52537E-04 1.05264E-06-1.65436E-24
 -1       962 1.52422E-04 9.62179E-07 3.30872E-24
 -1       963 1.52306E-04 8.92352E-07 0.00000E+00
 -1       964 1.52190E-04 8.34063E-07 0.00000E+00
 -1       965 1.52075E-04 7.78211E-07-1.65436E-24
 -1       966 1.51959E-04 7.15690E-07-3.30872E-24
 -1       967 1.51844E-04 6.37401E-07-1.65436E-24
 -1       968 1.51728E-04 5.34248E-07 3.30872E-24
 -1       969 1.51613E-04 3.97164E-07 0.00000E+00
 -1       970 1.51498E-04 2.17097E-07 3.30872E-24
 -1       971 1.51279E-04-2.36300E-07 0.00000E+00
 -1       972 1.51172E-04-3.69683E-07-8.27181E-25
 -1       973 1.51065E-04-4.24533E-07 0.00000E+00
 -1       974 1.50958E-04-4.10972E-07 0.00000E+00
 -1       975 1.50851E-04-3.39114E-07-3.30872E-24
 -1       976 1.50744E-04-2.19109E-07 1.65436E-24
 -1       977 1.50637E-04-6.11097E-08-3.30872E-24
 -1       978 1.50529E-04 1.24718E-07 0.00000E+00
 -1       979 1.50422E-04 3.28205E-07 0.00000E+00
 -1       980 1.50315E-04 5.39179E-07 0.00000E+00
 -1       981 1.50208E-04 7.47467E-07-3.30872E-24
 -1       982 1.50101E-04 9.42893E-07 1.65436E-24
 -1       983 1.49994E-04 1.11529E-06-3.30872E-24
 -1       984 1.49887E-04 1.25450E-06 0.00000E+00
 -1       985 1.49781E-04 1.35037E-06 1.65436E-24
 -3
    1PSTEP                        22          11           1          
  100CL  111 5.97900E-01         409                     0   11           1
 -4  STRESS      6    1
 -5  SXX         1    4    1    1
 -5  SYY         1    4    2    2
 -5  SZZ         1    4    3    3
 -5  SXY         1    4    1    2
 -5  SYZ         1    4    2    3
 -5  SZX         1    4    3    1
 -1         1-3.52129E+06-1.37260E+06-7.68469E+05-1.47171E+06-1.60071E-10 5.15429E-08
 -1         2 1.27556E+03-1.39754E+06 4.21277E+03 6.67606E+03 3.39895E-10 1.96803E-07
 -1         3-7.26410E+02-1.45818E+06 3.52864E+02-1.45292E+03-4.35918E-10-5.67998E-08
 -1         5-1.02379E+01 3.26859E+05 8.36417E+00-3.39343E-01-2.15282E-10 1.17980E-08
 -1         8-8.95249E+05-3.07634E+05-9.33822E+04-3.77737E+05-5.11136E-10 9.56825E-08
 -1         9 2.29323E+06-7.12994E+05 4.63404E+05-8.51152E+05 2.03494E-08 5.82077E-10
 -1        10-1.63143E+03-1.51933E+06-2.95241E+03-9.82261E+03-9.08585E-09-3.21480E-08
 -1        12-6.82003E+00 3.26877E+05 2.71366E+02-2.48092E+00-2.85866E-10 5.45106E-09
 -1        15 1.55643E+03 8.55348E+02 5.03113E+03 2.74988E+00-7.47917E-11 4.21920E-08
 -1        16 6.59187E+06-5.54781E+05 9.48589E+05-1.08848E+06 1.90533E-08 8.30429E-08
 -1        17 2.16457E+06 1.40734E+06 6.16686E+05 1.50193E+06 7.36036E-09 1.94239E-08
 -1        18 4.37799E+04 7.04380E+03-1.53026E+04-9.51010E+04 1.18990E-08 2.09775E-09
 -1        19 1.04839E+05 1.20623E+05-8.49333E+02 1.99449E+04 5.46061E-10-8.12433E-09
 -1        20-6.10659E+04-4.94466E+05-1.10288E+05 2.70623E+04 6.70752E-10-2.04333E-10
 -1        21-4.26510E+01-2.66962E+05-8.44266E+02 7.51662E+01 4.00126E-09 1.42691E-09
 -1        24 3.21504E+06 3.22997E+06 1.14647E+06 2.87015E+06-9.87687E-08-4.02215E-08
 -1        25-3.68838E+04-3.29554E+05-5.27222E+04-3.13124E+05-2.34741E-10 3.53575E-09
 -1        26-4.37504E+04 7.82574E+04-2.07473E+04-2.24332E+03 1.03500E-09-7.87725E-10
 -1        27-6.96915E+04-2.68374E+05-9.91742E+04 6.02129E+04 4.76742E-09-3.44183E-09
 -1        28 2.03481E+04-7.57480E+04 1.51904E+04 2.04705E+04-5.38989E-10-2.91431E-09
 -1        32-1.49968E+06-2.57690E+06-1.24450E+05-1.32759E+05-3.19851E-08-4.75120E-09
 -1        33-1.56377E+05 7.85665E+04 2.78096E+04-3.52879E+04-6.71055E-10 1.67483E-08
 -1        34-1.96429E+05-2.08150E+04 5.56474E+02 6.39783E+04-9.90208E-10-2.85005E-09
 -1        35-2.08247E+04-3.00679E+04-1.19094E+03 4.64859E+04 5.53532E-10 2.74910E-09
 -1        51 3.78766E+04-2.65433E+05 8.42940E+04-7.64076E+05 2.18279E-10-7.58737E-08
 -1        52 1.50827E+04-2.53737E+05 4.73256E+04-8.90908E+05 6.25732E-10-7.00675E-09
 -1        53 5.79759E+03-2.68581E+05 2.95768E+04-7.61314E+05 3.74712E-10 5.44387E-08
 -1        54 1.47313E+04-2.65722E+05 3.42593E+04-8.93785E+05 8.00355E-10-5.41331E-08
 -1        55 3.02523E+04-2.76985E+05 5.32987E+04-7.60890E+05 6.18456E-10 1.50976E-08
 -1        56-6.68344E+06-7.50498E+05-5.67522E+05-2.59980E+06-9.16771E-10 6.13218E-08
 -1        57-6.98390E+06-1.19318E+06-3.82870E+05-2.49446E+06-3.26254E-08-1.45519E-08
 -1        58-6.78397E+06-9.44356E+05-1.33370E+05-2.57920E+06-2.03727E-09 4.31610E-08
 -1        59-6.87063E+06-9.62660E+05-7.95780E+04-2.51582E+06-5.81258E-09 6.11126E-08
 -1        60-6.79507E+06-9.74836E+05-3.10481E+04-2.58042E+06-1.50826E-08-2.04254E-08
 -1        61-6.85461E+06-9.29932E+05-1.76206E+04-2.51779E+06 5.12597E-09-4.81905E-08
 -1        62-6.79963E+06-9.76239E+05-8.42520E+03-2.57745E+06 4.82487E-10-6.86859E-08
 -1        63-6.84119E+06-9.36783E+05-6.78729E+03-2.53004E+06 2.62980E-09-1.34539E-08
 -1        64-6.80819E+06-9.68052E+05-7.77134E+03-2.56800E+06-3.92856E-09-2.19886E-08
 -1        65-6.82308E+06-9.59549E+05-1.53274E+04-2.55183E+06-3.18460E-09-9.62939E-09
 -1        66-6.81758E+06-9.53694E+05-2.70688E+04-2.55550E+06 4.54838E-09-7.91842E-08
 -1        67-6.81802E+06-1.00699E+06-6.87733E+04-2.57229E+06-2.92584E-09-1.17963E-07
 -1        68-6.81372E+06-9.21242E+05-1.15356E+05-2.54747E+06-4.91491E-09 2.33340E-08
 -1        69-6.91435E+06-1.20884E+06-3.31097E+05-2.55750E+06 4.76575E-10 4.83597E-08
 -1        70-6.72323E+06-7.56876E+05-4.90749E+05-2.56898E+06-2.69210E-10-7.55826E-08
 -1        86-6.63588E+02-1.40046E+06 4.18194E+03-3.33803E+03-1.72838E-09-7.22025E-09
 -1        87 4.15696E+03-1.39667E+06 9.07213E+03 1.16512E+04-3.06716E-09-2.66839E-08
 -1        88-3.49587E+03-1.40137E+06 1.37162E+04-8.31325E+03-3.28600E-09-1.66021E-08
 -1        89 2.59769E+04-1.38719E+06 3.70267E+04 1.73669E+04-5.51654E-09 2.10413E-08
 -1        90-2.23613E+04-1.40997E+06 5.23434E+04-9.05421E+03-3.37968E-09-2.47443E-08
 -1       121-1.01474E+03-1.46069E+06-8.96835E+01 7.23100E+02 1.07119E-09-2.24536E-08
 -1       122-5.85267E+02-1.45817E+06 7.18011E+02-2.90326E+03-3.71863E-09-1.06011E-08
 -1       123-1.06529E+03-1.46079E+06 7.12902E+02 2.16016E+03 2.98076E-09 1.38862E-08
 -1       124 8.55643E+02-1.45754E+06 2.89009E+03-6.10391E+03-7.06541E-09 1.70985E-08
 -1       125-1.88689E+03-1.46159E+06 3.93386E+03 3.90894E+03 4.90581E-09-4.91491E-09
 -1       191-1.10237E+01 3.26886E+05 9.78546E+00 1.71237E-01-1.98375E-10 3.70073E-09
 -1       192-1.10094E+01 3.26860E+05 1.77192E+01-1.27153E+00-2.87202E-10 3.14458E-09
 -1       193-1.30731E+01 3.26886E+05 3.27460E+01 1.11059E+00-4.09468E-10 4.30191E-10
 -1       194-1.34910E+01 3.26862E+05 6.70446E+01-2.95518E+00-1.62427E-10 3.69755E-09
 -1       195-1.70107E+01 3.26884E+05 1.30933E+02 1.87019E+00-5.08248E-10-1.88174E-09
 -1       251-1.87018E+06-1.25191E+04-1.43612E+05-1.06775E+05-4.38376E-10 1.12781E-07
 -1       252-1.29444E+06 1.69972E+04 1.72991E+04 3.28805E+05 8.16681E-09-1.46292E-09
 -1       253-1.61035E+06-7.61153E+03-2.59214E+04-2.20269E+05 5.40513E-09 5.92336E-08
 -1       254-1.56140E+06 3.67958E+04 2.48546E+03 4.35145E+05 1.43602E-08 1.06167E-07
 -1       255-1.62999E+06-1.04990E+04-1.47844E+04-2.15046E+05 2.87855E-09 6.51848E-08
 -1       256-1.24476E+06 3.06869E+04 6.90373E+04 3.08513E+05 2.97150E-08 1.19479E-07
 -1       257-1.89608E+06-2.66116E+04-6.85569E+04-9.15393E+04 3.98722E-09 4.07949E-08
 -1       258-9.56289E+05 2.37057E+04 1.24356E+05-5.05261E+03 3.54084E-08 4.83842E-08
 -1       259-1.89016E+06-2.64761E+04-6.59015E+04 9.71372E+04-2.54513E-08 5.15308E-09
 -1       260-1.25789E+06 3.24600E+04 7.04681E+04-3.15016E+05-1.08412E-08-7.47423E-09
 -1       261-1.62410E+06-1.13169E+04-6.26016E+03 2.17205E+05 3.61824E-08-1.19492E-07
 -1       262-1.55804E+06 4.54437E+04 2.01177E+04-4.34744E+05-4.27333E-08-2.14868E-08
 -1       263-1.61964E+06-1.53662E+04 1.28369E+03 2.18933E+05 5.44514E-09 1.09908E-07
 -1       264-1.25568E+06 7.13331E+04 9.74415E+04-3.22526E+05 9.47148E-08-2.13622E-08
 -1       265-1.89825E+06-5.99997E+04-3.47975E+04 1.02980E+05 3.11829E-08 1.00590E-08
 -1       266-2.81761E+04-1.31745E+04 6.61123E+04-5.88413E+01 4.00178E-11 2.90315E-08
 -1       267 3.26642E+04 1.53562E+04 4.67256E+04 6.78880E+01-3.54703E-11-1.38338E-07
 -1       268-4.38019E+03-2.17480E+03 1.73678E+04-8.65028E+00 1.90994E-11-3.81532E-08
 -1       269 5.17175E+03 2.60285E+03 1.12887E+04 1.00761E+01-2.63753E-10-6.21083E-08
 -1       270-7.76280E+02-4.27659E+02 5.44922E+03-1.36741E+00-1.66210E-10-1.75115E-08
 -1       271-2.69144E+06-3.28319E+05-2.04249E+05-1.04190E+06-1.07320E-08 7.48696E-08
 -1       272-2.80037E+06-4.48898E+05-1.32340E+05-1.00124E+06 1.51144E-08 7.64194E-08
 -1       273-2.72973E+06-3.81982E+05-4.82144E+04-1.03284E+06-2.19211E-09 3.89919E-08
 -1       274-2.75484E+06-3.84367E+05-2.72466E+04-1.01474E+06-1.44571E-08 2.93549E-08
 -1       275-2.73583E+06-3.87142E+05-1.12449E+04-1.03043E+06 3.29965E-09-2.87719E-08
 -1       276-2.74624E+06-3.79514E+05-5.96980E+03-1.01922E+06-1.56815E-08-3.61772E-08
 -1       277-2.73807E+06-3.86309E+05-2.94902E+03-1.02848E+06 4.54293E-09 1.22517E-07
 -1       278-2.74211E+06-3.82057E+05-2.00750E+03-1.02314E+06 5.75528E-09 3.27429E-08
 -1       279-2.73986E+06-3.84598E+05-2.16451E+03-1.02646E+06-1.84182E-08-8.95554E-08
 -1       280-2.73890E+06-3.86032E+05-3.73463E+03-1.02712E+06 9.72022E-09 1.64673E-08
 -1       281-2.74128E+06-3.82372E+05-6.84993E+03-1.02448E+06 1.20872E-09 6.24953E-08
 -1       282-2.73874E+06-3.94202E+05-1.63170E+04-1.03048E+06 6.07952E-09 8.33324E-08
 -1       283-2.74016E+06-3.76757E+05-2.89004E+04-1.02303E+06-9.33142E-09-4.88608E-08
 -1       284-2.76120E+06-4.37584E+05-7.91523E+04-1.02793E+06-1.46683E-08-2.04082E-08
 -1       285-2.71952E+06-3.42414E+05-1.22262E+05-1.02586E+06-1.16415E-10-3.03407E-09
 -1       301 2.09590E+04-2.97647E+05 1.73434E+05-5.49929E+05 6.11180E-10 1.01165E-07
 -1       302 2.25800E+04-2.54127E+05 1.08939E+05-8.04561E+05-7.63976E-10 4.37922E-09
 -1       303-6.61404E+02-2.81276E+05 7.41798E+04-5.48675E+05 6.03904E-10 6.25987E-08
 -1       304 1.74360E+04-2.54827E+05 9.65888E+04-8.03988E+05 7.56700E-10 9.45147E-09
 -1       305 1.43367E+04-2.90676E+05 1.45676E+05-5.50523E+05 2.03727E-10-1.05501E-08
 -1       306-1.52614E+07-2.60986E+06-3.43485E+06-1.94963E+06-4.03961E-08-2.18861E-08
 -1       307 7.55947E+06-1.11291E+06 1.94606E+06-6.94501E+06-5.00222E-07-1.40746E-07
 -1       308-8.10467E+06 2.42588E+05-3.45390E+05 1.67191E+06-1.02154E-07 1.23149E-07
 -1       309-3.24348E+06-4.09053E+05 5.92076E+05-1.14889E+07 1.62063E-07 1.07590E-07
 -1       310-8.71161E+06 1.34369E+05-4.29918E+05 1.51559E+06-2.24099E-08-8.80664E-08
 -1       311 8.93858E+06-1.52597E+06 2.34527E+06-5.88160E+06 5.13639E-07 2.14495E-08
 -1       312-1.53883E+07-2.59780E+06-2.89436E+06-2.55714E+06 7.21775E-08 1.12123E-07
 -1       313 1.42004E+07 3.02029E+06 3.88050E+06 5.76723E+06 9.34233E-09-2.36905E-07
 -1       314-1.13846E+07-6.15745E+06-2.77692E+06-6.25373E+06 1.86788E-07-7.09842E-08
 -1       315-3.09779E+06 9.40197E+06 2.17094E+06 5.11327E+06-3.50345E-07 2.57132E-08
 -1       316-2.66738E+06-5.34095E+06-2.86220E+05-4.35262E+06-6.32077E-07-1.81244E-07
 -1       317-1.34111E+07 9.72658E+06 5.74903E+05-6.46486E+05 3.65606E-07-3.75720E-07
 -1       318-2.93246E+06-5.46782E+06-5.12108E+05-4.43740E+06-5.75965E-07-2.53203E-08
 -1       319-2.16321E+06 9.65073E+06 2.05132E+06 5.33175E+06-8.95670E-08 7.24249E-08
 -1       320-1.18923E+07-6.38595E+06-3.65845E+06-6.15740E+06 9.45874E-08-3.98359E-08
 -1       336 2.61984E+02-1.58125E+06-1.09301E+04 5.85602E+03-1.84582E-08-1.02882E-08
 -1       337-4.16015E+03-1.58235E+06-1.36440E+04-1.41982E+04-3.48318E-08-2.06819E-09
 -1       338 6.18718E+02-1.58106E+06-2.01547E+04 8.25063E+03-2.44981E-08 5.92263E-09
 -1       339-2.13750E+04-1.59382E+06-4.53904E+04-1.88694E+04-4.51419E-08 4.59295E-09
 -1       340 1.42958E+04-1.57081E+06-7.10430E+04 1.04617E+04-2.91257E-08 1.33259E-08
 -1       406 1.37015E+01 3.26872E+05 5.35517E+02 6.48683E-01-6.36533E-10-3.73348E-09
 -1       407 1.79997E+02 3.26971E+05 1.13861E+03 9.33368E+00-7.70655E-11 5.71345E-09
 -1       408 5.79152E+02 3.26789E+05 2.27372E+03-1.02416E+01-9.01423E-10 3.55431E-09
 -1       409 2.45245E+03 3.27697E+05 5.11914E+03 1.03989E+02-1.69592E-10-1.07775E-10
 -1       410 7.05847E+03 3.26142E+05 1.04503E+04-9.88645E+01-1.09230E-09-1.03910E-09
 -1       521-1.73491E+07-3.31015E+06-4.24103E+06-1.99039E+06-5.97793E-08 9.90694E-08
 -1       522 8.26451E+06-1.19435E+06 2.08235E+06-8.95670E+06-3.19036E-07-7.60774E-08
 -1       523-9.44821E+06 1.44286E+05-4.02053E+05 2.03417E+06 3.60887E-08-2.07252E-07
 -1       524-4.97824E+06 3.83813E+05 6.95498E+05-1.41299E+07 4.34171E-07-4.03996E-07
 -1       525-1.01718E+07-2.30113E+04-5.08495E+05 1.85187E+06 3.61702E-07-2.07943E-07
 -1       526 1.01843E+07-1.74027E+06 2.63129E+06-7.60441E+06 3.99596E-08-5.20376E-08
 -1       527-1.75392E+07-3.38359E+06-3.51835E+06-2.71502E+06 7.95699E-08 1.06171E-07
 -1       528 1.65193E+07 3.39496E+06 4.30841E+06 6.88972E+06 2.74740E-08 1.45956E-08
 -1       529-1.28940E+07-7.52010E+06-3.37228E+06-6.97227E+06-2.87546E-08-4.83124E-09
 -1       530-4.56055E+06 1.17147E+07 2.44652E+06 5.70808E+06-4.37969E-07 3.97122E-07
 -1       531-3.07965E+06-6.47495E+06-3.25324E+05-5.00056E+06-4.57338E-07 1.10711E-07
 -1       532-1.65842E+07 1.19618E+07 6.98729E+05-1.90909E+06 2.34759E-07-3.77942E-07
 -1       533-3.31943E+06-6.59967E+06-5.60136E+05-5.06487E+06 2.98023E-08-6.41332E-07
 -1       534-3.63624E+06 1.20380E+07 2.30761E+06 5.91627E+06-7.76345E-08 4.38682E-07
 -1       535-1.34084E+07-7.82569E+06-4.33829E+06-6.85799E+06 3.41097E-08 2.74988E-07
 -1       536-5.46953E+05-3.57854E+04 4.88586E+03-3.38254E+04-7.81165E-09 4.45816E-08
 -1       537-2.09149E+05 3.65470E+04 6.22851E+04 8.17088E+04-8.43275E-08 5.82627E-08
 -1       538-3.85269E+05-7.60813E+01 9.45831E+03-4.97512E+04 1.28275E-08 7.01757E-08
 -1       539-3.21374E+05 3.16005E+03 1.70252E+04 9.37307E+04 1.13240E-07 8.89120E-08
 -1       540-4.37382E+05-2.36084E+02-8.85456E+03-4.60309E+04-1.77151E-08 6.30123E-08
 -1       541-1.08942E+05 8.80205E+03 5.52955E+04 6.19117E+04-9.54014E-09 5.22803E-08
 -1       542-5.92008E+05-1.04137E+04-4.26737E+04-1.76259E+04 4.97284E-08 2.53939E-08
 -1       543 2.01113E+04 1.39475E+04 8.01365E+04-9.88191E+03 1.97792E-09-6.73958E-09
 -1       544-5.63004E+05-8.19902E+03-3.77549E+04 2.55179E+04 6.79347E-09-2.57336E-08
 -1       545-1.75286E+05 4.18478E+03 3.87549E+04-7.49672E+04 1.44146E-08-5.18215E-08
 -1       546-4.01802E+05 3.61125E+03-6.96839E+03 4.73481E+04 2.58134E-08-5.71320E-08
 -1       547-3.33238E+05-4.40708E+03 1.61524E+03-9.59924E+04-8.73470E-08-7.44739E-08
 -1       548-4.09237E+05 3.84373E+03-1.76102E+04 4.67862E+04-7.91526E-08-7.27068E-08
 -1       549-1.62353E+05-2.18839E+03 1.66954E+04-7.19561E+04-4.18253E-08-5.20304E-08
 -1       550-5.68058E+05-2.43037E+03-8.65028E+04 2.30524E+04 4.99131E-09-1.76406E-08
 -1       551 2.91092E+04-7.13726E+05 1.19098E+04-1.11552E+06-7.58882E-08-6.19912E-09
 -1       552 6.50385E+04-7.39432E+05 2.54634E+04-1.59018E+06-5.32600E-08 2.31230E-08
 -1       553 4.82939E+04-7.41792E+05 4.23613E+04-1.11053E+06-8.86503E-08 2.35741E-08
 -1       554 9.69618E+04-7.44453E+05 9.30024E+04-1.59202E+06-5.73345E-08 1.13596E-08
 -1       555 7.75771E+04-7.62763E+05 1.66151E+05-1.11099E+06-9.03528E-08-7.30142E-09
 -1       556 1.60134E+05-2.85509E+05 5.59522E+04-3.31017E+05-1.66474E-08-3.34694E-09
 -1       557 2.66052E+05-3.70636E+05 3.05951E+04-4.22026E+05-2.44472E-09 1.26602E-08
 -1       558 1.51519E+05-2.88029E+05 1.04745E+04-3.28011E+05-8.17818E-09-3.36149E-09
 -1       559 2.47218E+05-3.76459E+05 5.89667E+03-4.34371E+05 2.29920E-08 3.71256E-09
 -1       560 1.42898E+05-2.82557E+05 1.32415E+03-3.34023E+05 1.29949E-08-1.81171E-09
 -1       561 2.35949E+05-3.72272E+05 1.12928E+03-4.41859E+05-2.61934E-09-1.04410E-09
 -1       562 1.36108E+05-2.78270E+05-1.58300E+02-3.38902E+05-1.09139E-09 2.77396E-09
 -1       563 2.27943E+05-3.68783E+05 2.61256E+02-4.47040E+05 3.95812E-09 1.70321E-08
 -1       564 1.31435E+05-2.75339E+05-1.31162E+02-3.42203E+05 1.03610E-08 4.38285E-09
 -1       565 2.22937E+05-3.66606E+05 1.07458E+02-4.50224E+05 6.22822E-09 1.55978E-10
 -1       566 1.28956E+05-2.73762E+05-6.32748E+01-3.43941E+05 6.62112E-10 9.12769E-09
 -1       567 2.20919E+05-3.65720E+05-1.67650E+02-4.51400E+05 1.87993E-08 1.52140E-08
 -1       568 1.28730E+05-2.73636E+05-6.29599E+02-3.44194E+05-5.99584E-09-1.46138E-08
 -1       569 2.20809E+05-3.65687E+05-1.58489E+03-4.49681E+05-8.74388E-09 1.44792E-08
 -1       570 1.31621E+05-2.76159E+05-3.57944E+03-3.43530E+05 5.30417E-09 5.29326E-10
 -1       571 2.47389E+05 9.02911E+03 1.31553E+04-7.11142E+04 1.04319E-09-6.10112E-09
 -1       572 2.49324E+05 3.25859E+03 6.44606E+03-7.80129E+04 7.40329E-10-1.60489E-08
 -1       573 2.48163E+05 8.93453E+02 2.86398E+03-7.09681E+04 1.98224E-09 9.66156E-09
 -1       574 2.48376E+05 4.14949E+02 1.43560E+03-7.81881E+04 1.52136E-09 4.37467E-10
 -1       575 2.48250E+05 1.91241E+02 6.77275E+02-7.09485E+04-6.79677E-10 2.96495E-09
 -1       576 2.48253E+05 1.81881E+02 3.46088E+02-7.82115E+04-5.87670E-09-2.27101E-09
 -1       577 2.48274E+05 1.46637E+02 1.72383E+02-7.09458E+04-2.65027E-09 3.64435E-09
 -1       578 2.48260E+05 1.59447E+02 9.82756E+01-7.82145E+04-2.61707E-09-1.54796E-09
 -1       579 2.48312E+05 1.29688E+02 6.66933E+01-7.09456E+04 4.23461E-09 3.51156E-09
 -1       580 2.48313E+05 1.34472E+02 7.46472E+01-7.82106E+04-5.29690E-09-8.31551E-09
 -1       581 2.48372E+05 1.01705E+02 1.12692E+02-7.09500E+04 1.25874E-09 5.32646E-09
 -1       582 2.48413E+05 1.27153E+02 2.25989E+02-7.81649E+04-3.21961E-10 7.96808E-09
 -1       583 2.48442E+05 1.61208E+02 4.36635E+02-7.09915E+04 8.02174E-10-5.35260E-09
 -1       584 2.48663E+05 5.11819E+02 9.84353E+02-7.78161E+04 2.90402E-09-2.53908E-09
 -1       585 2.48416E+05 1.36388E+03 1.99790E+03-7.12987E+04 1.08412E-09 9.64428E-09
 -1       586-3.04145E+03 8.81638E+04-3.29039E+03-2.18605E+05-2.57387E-09 4.81210E-08
 -1       587-9.01193E+02 8.77989E+04 2.01208E+02-2.40613E+05-3.58887E-09 7.89732E-08
 -1       588 6.48881E+02 8.77639E+04 3.73103E+03-2.18498E+05-1.20599E-09 4.42005E-08
 -1       589 4.58035E+03 8.97509E+04 1.00808E+04-2.40374E+05-4.20187E-09 1.90266E-09
 -1       590 1.40571E+04 8.66561E+04 2.13050E+04-2.18874E+05-2.05910E-09 6.03541E-09
 -1       591-5.52973E+04-1.31306E+04-1.80034E+04-2.51516E+04-1.03523E-09-1.10958E-10
 -1       592-5.81210E+04-1.64170E+04-9.75189E+03-2.85534E+04-4.66127E-09-3.76531E-09
 -1       593-5.71016E+04-1.18203E+04-4.05939E+03-2.64680E+04 1.91721E-09-1.77395E-08
 -1       594-5.56292E+04-1.37818E+04-2.02458E+03-2.86554E+04 6.89391E-09-4.28710E-09
 -1       595-5.72393E+04-1.18156E+04-9.29784E+02-2.65279E+04 8.54129E-10 1.09719E-08
 -1       596-5.54591E+04-1.36613E+04-4.73006E+02-2.86358E+04 4.28759E-09 7.21812E-09
 -1       597-5.72566E+04-1.18277E+04-2.58286E+02-2.65302E+04 5.72925E-10 6.33497E-09
 -1       598-5.54424E+04-1.36566E+04-2.08957E+02-2.86303E+04-2.66735E-09 4.86398E-09
 -1       599-5.72555E+04-1.18280E+04-2.68567E+02-2.65298E+04 4.98051E-09-1.07381E-08
 -1       600-5.54596E+04-1.36622E+04-5.00229E+02-2.86345E+04 3.60581E-09-2.80565E-08
 -1       601-5.72350E+04-1.18161E+04-9.87522E+02-2.65267E+04 2.94290E-09-2.31341E-09
 -1       602-5.56402E+04-1.37896E+04-2.15256E+03-2.86523E+04-5.18298E-10-1.05206E-08
 -1       603-5.70863E+04-1.18235E+04-4.31695E+03-2.64635E+04 2.77623E-09 6.41512E-09
 -1       604-5.83040E+04-1.65765E+04-1.03702E+04-2.85239E+04 3.45597E-09 2.66095E-09
 -1       605-5.51511E+04-1.32312E+04-1.91450E+04-2.50791E+04-7.77487E-09-1.72977E-08
 -1       606 2.71093E+04-1.19822E+04-2.15132E+04 2.55391E+04 1.34423E-09 1.77470E-08
 -1       607 2.34302E+04-3.89613E+03-1.07130E+04 2.86822E+04-4.47471E-10 9.67884E-09
 -1       608 2.55219E+04-6.86708E+02-4.79661E+03 2.53450E+04-6.23913E-10 4.61455E-09
 -1       609 2.51143E+04-2.14874E+02-2.42286E+03 2.89080E+04 5.74801E-10-2.66436E-09
 -1       610 2.53360E+04-9.72128E+00-1.15659E+03 2.53228E+04-6.43922E-10 7.39124E-09
 -1       611 2.52664E+04-3.02604E+00-5.83124E+02 2.89325E+04-3.00997E-09 1.54976E-08
 -1       612 2.52906E+04 5.50376E+00-2.77868E+02 2.53206E+04-3.45972E-09 3.10229E-09
 -1       613 2.52699E+04 3.87175E+00-1.25049E+02 2.89354E+04-1.10003E-09-8.66066E-09
 -1       614 2.52673E+04 3.18366E+00-3.09587E+01 2.53198E+04 2.92766E-09 5.25552E-09
 -1       615 2.52605E+04 7.82642E+00 4.87105E+01 2.89359E+04 2.67210E-09 3.22825E-09
 -1       616 2.52492E+04 8.02998E+00 1.49428E+02 2.53201E+04 8.78572E-10-7.13999E-09
 -1       617 2.52749E+04 4.18924E+01 3.42388E+02 2.89354E+04 2.05500E-09-1.00288E-08
 -1       618 2.52168E+04 1.08440E+02 6.90588E+02 2.53203E+04 3.41061E-11-2.04409E-10
 -1       619 2.55165E+04 5.77251E+02 1.55114E+03 2.89346E+04-1.58025E-09 2.39538E-09
 -1       620 2.49860E+04 1.74726E+03 3.11778E+03 2.53200E+04-6.26756E-10 8.35917E-09
 -1       621 3.33530E+02 2.53638E+05 2.89754E+03 2.43504E+04 3.30601E-10-7.17591E-09
 -1       622 4.21268E+02 2.54334E+05 2.65892E+03 3.53969E+04 6.75755E-10-9.47421E-09
 -1       623 4.94307E+01 2.53794E+05 3.31276E+03 2.42367E+04 6.68251E-10 1.52240E-08
 -1       624 1.62270E+03 2.55397E+05 6.51585E+03 3.55111E+04 6.80160E-10 2.78953E-09
 -1       625 1.61726E+03 2.52508E+05 1.14321E+04 2.42340E+04 6.87123E-10-7.94103E-10
 -1       626 2.22924E+05 5.61222E+04 4.70544E+03 1.12845E+05 4.53883E-09 2.69029E-09
 -1       627 2.20580E+05 5.76206E+04 2.26749E+03 1.17008E+05 4.16912E-09 7.64999E-10
 -1       628 2.23055E+05 5.39507E+04 9.58453E+02 1.13621E+05-6.54109E-09-3.39674E-09
 -1       629 2.19969E+05 5.70201E+04 4.69177E+02 1.17251E+05 1.84218E-09 5.92269E-09
 -1       630 2.23066E+05 5.38471E+04 2.17114E+02 1.13650E+05-2.13277E-09-1.44655E-08
 -1       631 2.19900E+05 5.70001E+04 1.16214E+02 1.17252E+05 1.72599E-09 4.36984E-09
 -1       632 2.23060E+05 5.38529E+04 7.53748E+01 1.13644E+05-1.33241E-10-2.18370E-09
 -1       633 2.19889E+05 5.70038E+04 8.22796E+01 1.17246E+05-3.17641E-10-5.79189E-09
 -1       634 2.23052E+05 5.38522E+04 1.31453E+02 1.13641E+05-8.20819E-11-6.32440E-09
 -1       635 2.19898E+05 5.70038E+04 2.65134E+02 1.17248E+05-8.05528E-10-5.01495E-09
 -1       636 2.23042E+05 5.38489E+04 5.34962E+02 1.13640E+05-1.08378E-09-2.92766E-09
 -1       637 2.20011E+05 5.70875E+04 1.17573E+03 1.17246E+05 2.29113E-09 4.90218E-09
 -1       638 2.22998E+05 5.41094E+04 2.41578E+03 1.13521E+05-3.77918E-09-5.40649E-09
 -1       639 2.21280E+05 5.88521E+04 5.71541E+03 1.16871E+05 3.40242E-09 1.62640E-09
 -1       640 2.22826E+05 5.93753E+04 1.18605E+04 1.11295E+05 8.19000E-09 1.30976E-08
 -1       656 5.79586E+04-1.47730E+06-1.39912E+05-1.20974E+03-3.63798E-11-6.81663E-09
 -1       657-7.66464E+04-1.54049E+06-1.15844E+05 6.69752E+03 1.52795E-10-1.00857E-08
 -1       658 1.84468E+04-1.49527E+06-7.12653E+04-2.88302E+03 2.18279E-10-3.79598E-09
 -1       659-8.26612E+04-1.54335E+06-1.23746E+05 7.97578E+03-9.53150E-10 1.54618E-09
 -1       660 6.39597E+04-1.47445E+06-1.53499E+05-2.48798E+03-1.20053E-09 2.50887E-09
 -1       661 1.63200E+05 1.74132E+04 1.64926E+04 6.38132E+04 1.45656E-09-8.85302E-09
 -1       662 1.72229E+05 2.99168E+04 1.11141E+04 6.04497E+04-4.35250E-10-1.75183E-08
 -1       663 1.66437E+05 2.27057E+04 3.88739E+03 6.28750E+04 3.46631E-09-9.87029E-09
 -1       664 1.68478E+05 2.37256E+04 2.32489E+03 6.15938E+04-1.76473E-09 1.22639E-08
 -1       665 1.66926E+05 2.34305E+04 9.17153E+02 6.27343E+04-8.42647E-10 6.67237E-09
 -1       666 1.67901E+05 2.28950E+04 5.36008E+02 6.17764E+04-5.01586E-10-5.17127E-09
 -1       667 1.67010E+05 2.35145E+04 2.83952E+02 6.27004E+04-4.56311E-10-9.41023E-09
 -1       668 1.67809E+05 2.28325E+04 2.87568E+02 6.18255E+04 5.03974E-10 1.65841E-09
 -1       669 1.67017E+05 2.34912E+04 3.87895E+02 6.26856E+04 8.04675E-10 3.20296E-09
 -1       670 1.67904E+05 2.30414E+04 8.43304E+02 6.18274E+04-1.90276E-10-1.60576E-08
 -1       671 1.66915E+05 2.33099E+04 1.49690E+03 6.26967E+04-1.04824E-09-1.70360E-10
 -1       672 1.68776E+05 2.44975E+04 3.82942E+03 6.16163E+04 2.15414E-09-5.89426E-09
 -1       673 1.66150E+05 2.20718E+04 6.41736E+03 6.28827E+04 1.17109E-09-6.76891E-10
 -1       674 1.74885E+05 3.48063E+04 1.83522E+04 5.98204E+04 5.40638E-10 1.37879E-08
 -1       675 1.60846E+05 1.32896E+04 2.72410E+04 6.43840E+04-1.85400E-09 1.00172E-08
 -1       676 2.19173E+01-2.66892E+05-1.01756E+03-3.75840E+01 1.60810E-10 1.11353E-08
 -1       677-2.70154E+02-2.67138E+05-1.86229E+03 7.51170E+01 2.54127E-09-2.22702E-10
 -1       678 1.80409E+02-2.66717E+05-3.29205E+03-3.75076E+01 1.30058E-10-2.33551E-09
 -1       679-3.29297E+03-2.69125E+05-7.82044E+03 7.48241E+01 2.44881E-09 9.05129E-09
 -1       680 1.96534E+03-2.64906E+05-1.26039E+04-3.68708E+01-1.36424E-12 1.05250E-08
 -1       771-2.80533E+06-6.12596E+05-1.06370E+05-1.28551E+06-2.65718E-08-2.68919E-08
 -1       772-2.75153E+06-6.79445E+05-5.53539E+04-1.36216E+06-1.60653E-08 7.85440E-09
 -1       773-2.82508E+06-5.97034E+05-2.71291E+04-1.29321E+06-9.37143E-09 1.37079E-08
 -1       774-2.74260E+06-6.68111E+05-1.23364E+04-1.37725E+06 1.22236E-08-4.61296E-09
 -1       775-2.83427E+06-5.90528E+05-8.50680E+03-1.29639E+06-7.24685E-09 4.37285E-09
 -1       776-2.74820E+06-6.67016E+05-3.30112E+03-1.38803E+06-6.17001E-09 9.57880E-09
 -1       777-2.84200E+06-5.84887E+05-3.50511E+03-1.29918E+06 1.58616E-09 9.00036E-09
 -1       778-2.75423E+06-6.66097E+05-1.03379E+03-1.39721E+06-2.75759E-09 1.55342E-09
 -1       779-2.84854E+06-5.80029E+05-1.67553E+03-1.30158E+06-5.38421E-09-5.20231E-09
 -1       780-2.75953E+06-6.65200E+05-2.91105E+02-1.40466E+06-7.69069E-09-7.96717E-10
 -1       781-2.85368E+06-5.76149E+05-6.36658E+02-1.30345E+06-2.37924E-08-9.93168E-10
 -1       782-2.76359E+06-6.64411E+05 2.21687E+02-1.41015E+06-3.22470E-08-4.92719E-09
 -1       783-2.85727E+06-5.73484E+05 3.50178E+02-1.30477E+06-5.99539E-09-1.05606E-08
 -1       784-2.76579E+06-6.63488E+05 1.45567E+03-1.41352E+06-1.35988E-08 5.09317E-10
 -1       785-2.85936E+06-5.71919E+05 2.56736E+03-1.30562E+06-2.64736E-08 4.29372E-09
 -1       786 1.23729E+05-9.20182E+03 2.12882E+04-1.87119E+02 1.12804E-10-6.67569E-10
 -1       787 1.32961E+05 1.06530E+04 1.50607E+04-2.16611E+01 4.34371E-09-2.14868E-10
 -1       788 1.27289E+05-1.44229E+03 5.50817E+03-1.58284E+02 1.61624E-09 1.56483E-08
 -1       789 1.28814E+05 1.66879E+03 3.45849E+03-6.74140E+01-4.68029E-10 5.88579E-09
 -1       790 1.27877E+05-2.24933E+02 1.40174E+03-1.41375E+02-2.20485E-09 3.98444E-09
 -1       791 1.28127E+05 2.59968E+02 8.12457E+02-9.66575E+01-4.05872E-09 1.80731E-08
 -1       792 1.27976E+05-3.45261E+01 3.49964E+02-1.29042E+02-2.09076E-09-1.20771E-09
 -1       793 1.28010E+05 3.86432E+01 1.86935E+02-1.19861E+02 6.74805E-10-7.56194E-09
 -1       794 1.27994E+05-3.74821E+00 7.36303E+01-1.18171E+02 3.04424E-09 3.10294E-10
 -1       795 1.27984E+05-4.75888E+00 1.28096E+01-1.42467E+02-2.97237E-09 9.63976E-09
 -1       796 1.28001E+05 8.85317E+00-3.74848E+01-1.06435E+02 1.79742E-09-4.92270E-09
 -1       797 1.27952E+05-6.97679E+01-1.35252E+02-1.69255E+02 6.52918E-10-1.13516E-08
 -1       798 1.28027E+05 6.12112E+01-2.28594E+02-9.13823E+01 9.75509E-10-3.11061E-09
 -1       799 1.27776E+05-4.51994E+02-6.36695E+02-2.05916E+02 2.89964E-09 1.12320E-09
 -1       800 1.28177E+05 3.90760E+02-9.03235E+02-6.97744E+01 1.02175E-10 4.76399E-09
 -1       801 1.45116E+04-6.08699E+06-7.43129E+05 5.53324E+05 5.81349E-08-2.24773E-08
 -1       802 1.65151E+05-1.12801E+05 6.61258E+05-6.12829E+05 1.63327E-07-2.55227E-08
 -1       803-1.76848E+05-7.33061E+06-7.12040E+05 3.80960E+05 5.62650E-08 2.04236E-08
 -1       804 5.47637E+04-1.65931E+06 4.63536E+05 3.55141E+05-5.83877E-08-4.11226E-08
 -1       805 9.82017E+04-4.55244E+06-1.16320E+05-4.12962E+05-2.47237E-08-2.58801E-08
 -1       806-2.69030E+05-5.10971E+04-1.96411E+04-1.05486E+05-2.25782E-09 9.00809E-09
 -1       807-2.70730E+05-4.77358E+04-9.64947E+03-1.10067E+05 2.64026E-09 2.11435E-08
 -1       808-2.69557E+05-4.40309E+04-4.09370E+03-1.08847E+05-6.17320E-09-4.72335E-09
 -1       809-2.68708E+05-4.50182E+04-2.00175E+03-1.10298E+05-4.98039E-09 1.39312E-09
 -1       810-2.69638E+05-4.37847E+04-9.17444E+02-1.08996E+05 3.65117E-09 9.21000E-09
 -1       811-2.68553E+05-4.49082E+04-4.56206E+02-1.10268E+05-1.73850E-09 1.67859E-09
 -1       812-2.69652E+05-4.38053E+04-2.30549E+02-1.08996E+05-7.68341E-09-1.07270E-08
 -1       813-2.68532E+05-4.49095E+04-1.49643E+02-1.10253E+05-1.11249E-08-1.59298E-08
 -1       814-2.69647E+05-4.38127E+04-1.47839E+02-1.08994E+05-4.82305E-09-2.33831E-09
 -1       815-2.68537E+05-4.49109E+04-2.38076E+02-1.10248E+05 2.50839E-09-9.17544E-09
 -1       816-2.69632E+05-4.38108E+04-4.50856E+02-1.08991E+05 4.06544E-09 1.27334E-08
 -1       817-2.68615E+05-4.49536E+04-9.67968E+02-1.10240E+05-5.27871E-09 9.83528E-09
 -1       818-2.69575E+05-4.39458E+04-1.97402E+03-1.08928E+05-3.22234E-09 1.26338E-08
 -1       819-2.69696E+05-4.61479E+04-4.64546E+03-1.09989E+05 1.93540E-09 8.08541E-09
 -1       820-2.69210E+05-4.74493E+04-9.45481E+03-1.07424E+05 5.99357E-10-2.55454E-09
 -1       821-3.29903E+05 1.82120E+04-4.21282E+04 7.17216E+02 5.06700E-09 3.15413E-09
 -1       822-3.48121E+05-2.10834E+04-2.98055E+04-1.42090E+03-5.57503E-10-2.75668E-09
 -1       823-3.36923E+05 2.85625E+03-1.09093E+04 8.49916E+02-3.88608E-09-7.03858E-09
 -1       824-3.39899E+05-3.30403E+03-6.86034E+03-1.29585E+03 2.39009E-11 5.97583E-09
 -1       825-3.38122E+05 4.45881E+02-2.82765E+03 5.92174E+02 3.70077E-09-9.50263E-09
 -1       826-3.38475E+05-5.23974E+02-1.68676E+03-5.15671E+02 3.49053E-09-2.81507E-08
 -1       827-3.38344E+05 7.66753E+01-8.96214E+02 6.97225E+01 1.36649E-09-5.54061E-09
 -1       828-3.38283E+05-1.59100E+02-7.65321E+02 5.39393E+02-2.64883E-09 1.02908E-08
 -1       829-3.38314E+05 8.11689E+01-9.11603E+02-4.62907E+02-9.30648E-10 7.15849E-09
 -1       830-3.38553E+05-5.48013E+02-1.76230E+03 1.35409E+03 8.84349E-10 2.23667E-08
 -1       831-3.38076E+05 4.66826E+02-2.93115E+03-7.44990E+02-2.17164E-09-7.23605E-09
 -1       832-3.39984E+05-3.43987E+03-7.14169E+03 1.52974E+03-5.49324E-10-1.04445E-08
 -1       833-3.36885E+05 2.97145E+03-1.13561E+04-6.38560E+02-1.85955E-09 3.01407E-09
 -1       834-3.48458E+05-2.19382E+04-3.10049E+04 9.72567E+02-1.22289E-09 8.64929E-09
 -1       835-3.29602E+05 1.89497E+04-4.38505E+04-1.87802E+02 4.90360E-09-3.65617E-10
 -1       836-1.15854E+03 3.13773E+05 1.92016E+04-1.60038E+04-2.76304E-09 2.83899E-09
 -1       837 4.14566E+03 3.19762E+05 1.63657E+04-3.23434E+04-2.46973E-09-9.88393E-10
 -1       838-4.51386E+02 3.15437E+05 1.68400E+04-1.59376E+04-2.17005E-09-8.87803E-09
 -1       839 1.07155E+04 3.24659E+05 3.20189E+04-3.23873E+04-1.87129E-09 1.10788E-10
 -1       840-3.27662E+03 3.08830E+05 5.11292E+04-1.59612E+04-1.80989E-09-2.89651E-09
 -1       856-6.62457E+04 7.71275E+03-2.03252E+04-4.07154E+02 4.07738E-10-8.19819E-09
 -1       857-7.46310E+04-9.05323E+03-1.39924E+04 5.07465E+03 1.98020E-09 3.47177E-09
 -1       858-6.95622E+04 1.08112E+03-5.27434E+03-4.29731E+02-4.43720E-10-3.13776E-10
 -1       859-7.08239E+04-1.26344E+03-3.18394E+03 5.10947E+03-2.14186E-10 6.89533E-09
 -1       860-7.00579E+04 1.50840E+02-1.33619E+03-4.41926E+02 6.23857E-10-4.80878E-09
 -1       861-7.02534E+04-1.72230E+02-7.38888E+02 5.12615E+03-1.75044E-09 1.11092E-08
 -1       862-7.01352E+04 2.01181E+01-3.14800E+02-4.46421E+02 1.84823E-09 1.53466E-09
 -1       863-7.01599E+04-1.48691E+01-1.32052E+02 5.12849E+03 3.02128E-09-7.10787E-09
 -1       864-7.01517E+04-2.99932E+00 6.25043E+00-4.44269E+02-3.07551E-10-2.44651E-09
 -1       865-7.01172E+04 4.59598E+01 1.58254E+02 5.11698E+03 3.44457E-10-1.24718E-08
 -1       866-7.01761E+04-4.09299E+01 3.39002E+02-4.34903E+02-2.09690E-09-9.33866E-09
 -1       867-6.99524E+04 3.39951E+02 8.47360E+02 5.09148E+03 7.10543E-10 2.98751E-09
 -1       868-7.03124E+04-2.92274E+02 1.41112E+03-4.18771E+02-4.52644E-10-1.31498E-08
 -1       869-6.89139E+04 2.43207E+03 3.76218E+03 5.04903E+03 1.43396E-09-2.79155E-08
 -1       870-7.12081E+04-2.07709E+03 5.45904E+03-3.92433E+02-1.93313E-09-8.98058E-09
 -1       871-4.91351E+03-1.46660E+04-1.65983E+04 1.10655E+05-1.19690E-09-6.97673E-09
 -1       872-1.96300E+03-1.84549E+04-6.87318E+03 1.43471E+05-3.42789E-09-5.83486E-09
 -1       873 1.39810E+02-1.66563E+04 6.95775E+02 1.10413E+05-1.85901E-09-6.66557E-09
 -1       874 2.65290E+03-1.44418E+04 8.78109E+03 1.43507E+05-3.71529E-09 3.10883E-08
 -1       875 5.87879E+03-1.87453E+04 1.96590E+04 1.10616E+05-1.52249E-09 1.33441E-08
 -1       876 2.58503E+05 4.39507E+04 1.34549E+04 1.04191E+05 8.10473E-10-2.36469E-10
 -1       877 2.59353E+05 4.68241E+04 7.18537E+03 1.08087E+05 1.89084E-09 2.72257E-09
 -1       878 2.59760E+05 4.24614E+04 3.01034E+03 1.05295E+05-2.70484E-09 3.70505E-09
 -1       879 2.57523E+05 4.49996E+04 1.49983E+03 1.08179E+05 1.02318E-09 1.26088E-08
 -1       880 2.59851E+05 4.24456E+04 6.98511E+02 1.05340E+05-5.65251E-10 8.87565E-09
 -1       881 2.57402E+05 4.49218E+04 3.72734E+02 1.08159E+05-8.91191E-10 1.10949E-08
 -1       882 2.59860E+05 4.24571E+04 2.37990E+02 1.05341E+05 3.99928E-09 3.78833E-10
 -1       883 2.57393E+05 4.49179E+04 2.55085E+02 1.08153E+05-7.50561E-10 9.79139E-09
 -1       884 2.59854E+05 4.24544E+04 4.05094E+02 1.05341E+05 1.49305E-09 5.11142E-09
 -1       885 2.57426E+05 4.49236E+04 8.14037E+02 1.08162E+05 3.64071E-09-1.04049E-08
 -1       886 2.59823E+05 4.24306E+04 1.64046E+03 1.05338E+05 3.96433E-10-1.06432E-08
 -1       887 2.57714E+05 4.51126E+04 3.58331E+03 1.08204E+05 2.99019E-09-9.72375E-09
 -1       888 2.59596E+05 4.24705E+04 7.22046E+03 1.05223E+05 4.66969E-11-8.17499E-09
 -1       889 2.62014E+05 4.95818E+04 1.72487E+04 1.08071E+05 1.65646E-09-2.34945E-09
 -1       890 2.56653E+05 4.59674E+04 3.23060E+04 1.02471E+05-1.33468E-09 6.73026E-10
 -1       891-1.19389E+02-1.44596E+05-1.75130E+03 2.54263E+04-2.92403E-10-1.54728E-09
 -1       892-2.16549E+02-1.45038E+05-1.88832E+03 3.85381E+04 9.67930E-10 1.13116E-08
 -1       893-2.86304E+00-1.44652E+05-2.68129E+03 2.54322E+04-2.87628E-10 8.87530E-09
 -1       894-1.39804E+03-1.46055E+05-5.55484E+03 3.83981E+04 9.04038E-10-3.43607E-09
 -1       895-1.10173E+03-1.43495E+05-9.78417E+03 2.55659E+04-2.00089E-10-1.77351E-09
 -1       956-3.29440E+05-4.66974E+03-1.16582E+04 2.43106E+04 1.51704E-09 7.17910E-09
 -1       957-3.31736E+05-1.60568E+03-5.98446E+03 2.92530E+04-4.65207E-10 7.79892E-09
 -1       958-3.30481E+05-1.59537E+02-2.69644E+03 2.41702E+04-1.69621E-09 1.01027E-08
 -1       959-3.30659E+05-6.13714E+01-1.37714E+03 2.94108E+04-4.74756E-10 2.60525E-09
 -1       960-3.30578E+05 6.92686E+00-6.71502E+02 2.41562E+04 1.96133E-09 2.63117E-09
 -1       961-3.30584E+05-8.90477E-01-3.56316E+02 2.94270E+04 2.93585E-09 7.49196E-09
 -1       962-3.30599E+05 3.88007E+00-2.04244E+02 2.41540E+04 1.70530E-11 3.13480E-09
 -1       963-3.30582E+05 1.49879E+00-1.64458E+02 2.94299E+04 4.51564E-10 6.79916E-09
 -1       964-3.30603E+05 6.38586E+00-2.00421E+02 2.41533E+04-3.08034E-09 4.27349E-09
 -1       965-3.30593E+05 4.44402E+00-3.46997E+02 2.94295E+04-3.27162E-09-1.22466E-08
 -1       966-3.30590E+05 1.43803E+01-6.51966E+02 2.41544E+04 2.75418E-09-4.17981E-09
 -1       967-3.30675E+05-4.91127E+01-1.33734E+03 2.94187E+04 2.16005E-09 1.24778E-08
 -1       968-3.30504E+05-1.42382E+02-2.61765E+03 2.41642E+04 2.79488E-09 1.37584E-08
 -1       969-3.31731E+05-1.54445E+03-5.81160E+03 2.93045E+04-2.35787E-10 4.57050E-09
 -1       970-3.29499E+05-4.51923E+03-1.13206E+04 2.42665E+04 4.09727E-10 4.01269E-09
 -1       971-3.05676E+05-1.56042E+03-8.54495E+03 1.40742E+04 3.57431E-10-8.66530E-09
 -1       972-3.07744E+05-1.13307E+03-4.65351E+03 1.95701E+04 3.00588E-10-2.46473E-10
 -1       973-3.06628E+05-3.24322E+01-2.08409E+03 1.39596E+04 1.13323E-09 1.48782E-08
 -1       974-3.06762E+05-4.05004E+01-1.08002E+03 1.96967E+04-1.49817E-09 1.20148E-08
 -1       975-3.06702E+05 8.27559E+00-5.39542E+02 1.39485E+04 1.63891E-09-1.27716E-09
 -1       976-3.06705E+05 4.85531E+00-3.10700E+02 1.97106E+04 1.97679E-09-8.89395E-09
 -1       977-3.06717E+05 8.58793E+00-2.24470E+02 1.39457E+04-7.49833E-09 1.08116E-10
 -1       978-3.06709E+05 1.02739E+01-2.61273E+02 1.97146E+04-9.36052E-09 9.23478E-10
 -1       979-3.06717E+05 1.59476E+01-4.18574E+02 1.39444E+04-1.33247E-09 2.56705E-10
 -1       980-3.06741E+05 1.29437E+01-8.07456E+02 1.97153E+04 3.01230E-09-6.22879E-09
 -1       981-3.06691E+05 3.61019E+01-1.56345E+03 1.39449E+04 1.92551E-09-5.67104E-09
 -1       982-3.06955E+05-1.02528E+02-3.23140E+03 1.97093E+04 5.88045E-09 4.46148E-09
 -1       983-3.06494E+05-6.39390E+01-6.27851E+03 1.39506E+04 6.62340E-09 2.60684E-09
 -1       984-3.09975E+05-3.38147E+03-1.40602E+04 1.96302E+04-1.42222E-09 1.25793E-08
 -1       985-3.03652E+05-4.65815E+03-2.58189E+04 1.40237E+04-1.39653E-09 1.40972E-09
 -3
    1PSTEP                        23          12           1          
  100CL  112 6.12732E-01         409                     0   12           1
 -4  DISP        4    1
 -5  D1          1    2    1    0
 -5  D2          1    2    2    0
 -5  D3          1    2    3    0
 -5  ALL         1    2    0    0    1ALL
 -1         1 1.37944E-03 0.00000E+00 0.00000E+00
 -1         2 1.29965E-03 4.92342E-30 2.64698E-23
 -1         3 2.73722E-04-2.03315E-28 1.32349E-23
 -1         5 1.51258E-04 1.14976E-26 1.65436E-24
 -1         8 1.36031E-03-6.01009E-07 0.00000E+00
 -1         9 1.32691E-03-3.81328E-06 0.00000E+00
 -1        10 2.48969E-04-3.27316E-06 6.61744E-24
 -1        12 1.52185E-04 7.13612E-07 8.27181E-25
 -1        15 1.33722E-03-6.61204E-07-2.06795E-25
 -1        16 1.34331E-03-4.65725E-06 0.00000E+00
 -1        17 1.71975E-04-7.21671E-06 0.00000E+00
 -1        18 1.53542E-04 2.15557E-05 0.00000E+00
 -1        19 1.54968E-04 1.42301E-06 0.00000E+00
 -1        20 1.55114E-04 1.42817E-07 0.00000E+00
 -1        21 1.54352E-04-4.05681E-06 0.00000E+00
 -1        24 2.74168E-05-1.04719E-05 0.00000E+00
 -1        25 1.59713E-04 2.17434E-05 0.00000E+00
 -1        26 1.60412E-04 1.97180E-06 0.00000E+00
 -1        27 1.58466E-04-3.04674E-06 0.00000E+00
 -1        28 1.58095E-04-4.62800E-06 0.00000E+00
 -1        32 0.00000E+00 0.00000E+00 0.00000E+00
 -1        33 1.64807E-04 2.64077E-06 0.00000E+00
 -1        34 1.62902E-04-3.08719E-06 0.00000E+00
 -1        35 1.61146E-04-4.93780E-06 0.00000E+00
 -1        51 1.37821E-03-1.09159E-07 0.00000E+00
 -1        52 1.37592E-03-2.05729E-07 0.00000E+00
 -1        53 1.37277E-03-3.01054E-07 0.00000E+00
 -1        54 1.36898E-03-3.97166E-07 0.00000E+00
 -1        55 1.36475E-03-4.95474E-07-4.13590E-24
 -1        56 1.37630E-03-2.90240E-07-5.29396E-23
 -1        57 1.37248E-03 8.95623E-07 0.00000E+00
 -1        58 1.36819E-03 3.36845E-06 0.00000E+00
 -1        59 1.36350E-03 6.79801E-06-5.29396E-23
 -1        60 1.35863E-03 1.07381E-05-1.05879E-22
 -1        61 1.35374E-03 1.46998E-05 0.00000E+00
 -1        62 1.34903E-03 1.81926E-05 1.05879E-22
 -1        63 1.34467E-03 2.07570E-05 0.00000E+00
 -1        64 1.34079E-03 2.20620E-05 0.00000E+00
 -1        65 1.33748E-03 2.18629E-05 5.29396E-23
 -1        66 1.33474E-03 2.01228E-05 0.00000E+00
 -1        67 1.33256E-03 1.69119E-05 5.29396E-23
 -1        68 1.33082E-03 1.25026E-05 0.00000E+00
 -1        69 1.32942E-03 7.25687E-06 2.64698E-23
 -1        70 1.32814E-03 1.63988E-06-5.29396E-23
 -1        86 1.30087E-03-6.24007E-07-2.64698E-23
 -1        87 1.30451E-03-1.25378E-06 1.32349E-23
 -1        88 1.30982E-03-1.89051E-06-2.64698E-23
 -1        89 1.31602E-03-2.53293E-06 0.00000E+00
 -1        90 1.32206E-03-3.17419E-06 0.00000E+00
 -1       121 2.73027E-04-5.34798E-07 1.32349E-23
 -1       122 2.70945E-04-1.07145E-06 0.00000E+00
 -1       123 2.67483E-04-1.61179E-06-1.32349E-23
 -1       124 2.62655E-04-2.15768E-06 0.00000E+00
 -1       125 2.56475E-04-2.71065E-06 0.00000E+00
 -1       191 1.51284E-04 1.18954E-07 1.65436E-24
 -1       192 1.51361E-04 2.37905E-07 1.65436E-24
 -1       193 1.51490E-04 3.56851E-07-3.30872E-24
 -1       194 1.51670E-04 4.75787E-07 8.27181E-25
 -1       195 1.51902E-04 5.94709E-07-3.30872E-24
 -1       251 1.35957E-03 1.75621E-05-1.32349E-23
 -1       252 1.35794E-03 6.39505E-05 6.61744E-24
 -1       253 1.35527E-03 1.30233E-04 0.00000E+00
 -1       254 1.35183E-03 2.07620E-04 6.61744E-24
 -1       255 1.34843E-03 2.84279E-04-1.32349E-23
 -1       256 1.34589E-03 3.48398E-04-6.61744E-24
 -1       257 1.34440E-03 3.91591E-04-1.32349E-23
 -1       258 1.34370E-03 4.05953E-04-6.61744E-24
 -1       259 1.34300E-03 3.91133E-04-1.32349E-23
 -1       260 1.34149E-03 3.47493E-04 6.61744E-24
 -1       261 1.33892E-03 2.82943E-04-1.32349E-23
 -1       262 1.33550E-03 2.05875E-04 6.61744E-24
 -1       263 1.33203E-03 1.28103E-04 1.32349E-23
 -1       264 1.32933E-03 6.14572E-05 6.61744E-24
 -1       265 1.32768E-03 1.47107E-05 0.00000E+00
 -1       266 1.35646E-03-6.19799E-07 3.30872E-24
 -1       267 1.35261E-03-6.28764E-07 8.27181E-25
 -1       268 1.34876E-03-6.38351E-07 8.27181E-25
 -1       269 1.34492E-03-6.46095E-07 0.00000E+00
 -1       270 1.34107E-03-6.53796E-07 0.00000E+00
 -1       271 1.35789E-03 2.85329E-06-2.64698E-23
 -1       272 1.35549E-03 6.17207E-06-1.32349E-23
 -1       273 1.35317E-03 9.26917E-06 0.00000E+00
 -1       274 1.35096E-03 1.20462E-05 0.00000E+00
 -1       275 1.34892E-03 1.44138E-05 0.00000E+00
 -1       276 1.34705E-03 1.62862E-05 0.00000E+00
 -1       277 1.34540E-03 1.75856E-05 0.00000E+00
 -1       278 1.34400E-03 1.82417E-05-1.32349E-23
 -1       279 1.34286E-03 1.81941E-05 2.64698E-23
 -1       280 1.34200E-03 1.73920E-05-1.32349E-23
 -1       281 1.34144E-03 1.57960E-05 2.64698E-23
 -1       282 1.34119E-03 1.33774E-05 1.32349E-23
 -1       283 1.34125E-03 1.01201E-05 0.00000E+00
 -1       284 1.34162E-03 6.02065E-06 0.00000E+00
 -1       285 1.34231E-03 1.08575E-06-2.64698E-23
 -1       301 1.32990E-03-3.97433E-06 1.32349E-23
 -1       302 1.33206E-03-4.10668E-06-3.30872E-24
 -1       303 1.33394E-03-4.23634E-06-1.32349E-23
 -1       304 1.33608E-03-4.36595E-06 0.00000E+00
 -1       305 1.33902E-03-4.49924E-06 2.64698E-23
 -1       306 1.35415E-03-1.04476E-04 0.00000E+00
 -1       307 1.41513E-03-3.88183E-04 0.00000E+00
 -1       308 1.48256E-03-8.09450E-04 0.00000E+00
 -1       309 1.54552E-03-1.30565E-03 0.00000E+00
 -1       310 1.60918E-03-1.79210E-03-1.05879E-22
 -1       311 1.67682E-03-2.18506E-03 0.00000E+00
 -1       312 1.73272E-03-2.42727E-03 1.05879E-22
 -1       313 1.74617E-03-2.48153E-03-5.29396E-23
 -1       314 1.68135E-03-2.35017E-03 1.05879E-22
 -1       315 1.51440E-03-2.06121E-03 5.29396E-23
 -1       316 1.25538E-03-1.66545E-03 1.05879E-22
 -1       317 9.38366E-04-1.21575E-03-5.29396E-23
 -1       318 6.25446E-04-7.69738E-04 1.05879E-22
 -1       319 3.77584E-04-3.85408E-04 0.00000E+00
 -1       320 2.24629E-04-1.14873E-04 1.05879E-22
 -1       336 2.39989E-04-3.88962E-06 1.32349E-23
 -1       337 2.29398E-04-4.52182E-06 0.00000E+00
 -1       338 2.17243E-04-5.17076E-06 1.32349E-23
 -1       339 2.03578E-04-5.83663E-06-6.61744E-24
 -1       340 1.88465E-04-6.52260E-06 0.00000E+00
 -1       406 1.52520E-04 8.32486E-07-1.65436E-24
 -1       407 1.52907E-04 9.51303E-07-1.65436E-24
 -1       408 1.53345E-04 1.07003E-06 3.30872E-24
 -1       409 1.53835E-04 1.18852E-06-1.65436E-24
 -1       410 1.54376E-04 1.30653E-06 0.00000E+00
 -1       521 1.37173E-03-1.13720E-04 1.05879E-22
 -1       522 1.43344E-03-4.16719E-04-5.29396E-23
 -1       523 1.49915E-03-8.65587E-04-1.05879E-22
 -1       524 1.55821E-03-1.39232E-03 5.29396E-23
 -1       525 1.61834E-03-1.90803E-03 1.05879E-22
 -1       526 1.68498E-03-2.32498E-03-5.29396E-23
 -1       527 1.74161E-03-2.58098E-03 0.00000E+00
 -1       528 1.75459E-03-2.63742E-03-5.29396E-23
 -1       529 1.68311E-03-2.49604E-03-1.05879E-22
 -1       530 1.50078E-03-2.18932E-03 0.00000E+00
 -1       531 1.21755E-03-1.77107E-03 0.00000E+00
 -1       532 8.71178E-04-1.29766E-03 5.29396E-23
 -1       533 5.28743E-04-8.27567E-04-1.05879E-22
 -1       534 2.56201E-04-4.19657E-04 0.00000E+00
 -1       535 8.72942E-05-1.29828E-04-1.05879E-22
 -1       536 1.71459E-04 2.00348E-05-6.61744E-24
 -1       537 1.70231E-04 6.73743E-05-3.30872E-24
 -1       538 1.68361E-04 1.27456E-04 3.30872E-24
 -1       539 1.66170E-04 1.92867E-04 0.00000E+00
 -1       540 1.64197E-04 2.54618E-04-3.30872E-24
 -1       541 1.62899E-04 3.03739E-04 1.65436E-24
 -1       542 1.62277E-04 3.34840E-04-3.30872E-24
 -1       543 1.62091E-04 3.42644E-04-1.65436E-24
 -1       544 1.61833E-04 3.27833E-04 3.30872E-24
 -1       545 1.61036E-04 2.91246E-04 1.65436E-24
 -1       546 1.59609E-04 2.39400E-04 0.00000E+00
 -1       547 1.57714E-04 1.78905E-04 1.65436E-24
 -1       548 1.55846E-04 1.18873E-04 3.30872E-24
 -1       549 1.54488E-04 6.84197E-05 0.00000E+00
 -1       550 1.53763E-04 3.38962E-05 0.00000E+00
 -1       551 1.52043E-04-7.66909E-06 0.00000E+00
 -1       552 1.29284E-04-8.17452E-06 3.30872E-24
 -1       553 1.04563E-04-8.72218E-06 8.78879E-24
 -1       554 7.87593E-05-9.29720E-06-3.30872E-24
 -1       555 5.27523E-05-9.87959E-06 0.00000E+00
 -1       556 1.66094E-04 7.89437E-06 0.00000E+00
 -1       557 1.61386E-04 2.00306E-05 0.00000E+00
 -1       558 1.57740E-04 2.94319E-05 0.00000E+00
 -1       559 1.55047E-04 3.63575E-05 0.00000E+00
 -1       560 1.53201E-04 4.10670E-05 0.00000E+00
 -1       561 1.52098E-04 4.38214E-05 0.00000E+00
 -1       562 1.51634E-04 4.48831E-05 0.00000E+00
 -1       563 1.51708E-04 4.45147E-05 0.00000E+00
 -1       564 1.52220E-04 4.29796E-05 0.00000E+00
 -1       565 1.53068E-04 4.05414E-05 0.00000E+00
 -1       566 1.54155E-04 3.74643E-05 0.00000E+00
 -1       567 1.55381E-04 3.40127E-05 0.00000E+00
 -1       568 1.56648E-04 3.04509E-05 8.27181E-25
 -1       569 1.57857E-04 2.70433E-05 0.00000E+00
 -1       570 1.58912E-04 2.40541E-05 0.00000E+00
 -1       571 1.53628E-04 2.02534E-05-8.27181E-25
 -1       572 1.53717E-04 1.88955E-05 4.13590E-25
 -1       573 1.53805E-04 1.74949E-05-1.65436E-24
 -1       574 1.53895E-04 1.60646E-05-8.27181E-25
 -1       575 1.53984E-04 1.46179E-05 0.00000E+00
 -1       576 1.54073E-04 1.31681E-05 0.00000E+00
 -1       577 1.54162E-04 1.17285E-05 0.00000E+00
 -1       578 1.54252E-04 1.03123E-05 1.65436E-24
 -1       579 1.54341E-04 8.93301E-06 0.00000E+00
 -1       580 1.54430E-04 7.60380E-06 6.61744E-24
 -1       581 1.54520E-04 6.33805E-06 0.00000E+00
 -1       582 1.54610E-04 5.14902E-06 0.00000E+00
 -1       583 1.54699E-04 4.05001E-06 0.00000E+00
 -1       584 1.54789E-04 3.05417E-06 0.00000E+00
 -1       585 1.54879E-04 2.17452E-06 0.00000E+00
 -1       586 1.54521E-04 2.15889E-05 0.00000E+00
 -1       587 1.55469E-04 2.16215E-05 0.00000E+00
 -1       588 1.56423E-04 2.16538E-05-8.27181E-25
 -1       589 1.57422E-04 2.16854E-05 0.00000E+00
 -1       590 1.58507E-04 2.17161E-05 0.00000E+00
 -1       591 1.53977E-04 2.03254E-05 0.00000E+00
 -1       592 1.54417E-04 1.90721E-05-2.06795E-25
 -1       593 1.54864E-04 1.78018E-05 8.27181E-25
 -1       594 1.55315E-04 1.65192E-05 0.00000E+00
 -1       595 1.55768E-04 1.52294E-05 0.00000E+00
 -1       596 1.56222E-04 1.39374E-05 0.00000E+00
 -1       597 1.56675E-04 1.26479E-05 0.00000E+00
 -1       598 1.57125E-04 1.13660E-05 0.00000E+00
 -1       599 1.57571E-04 1.00965E-05-8.27181E-25
 -1       600 1.58010E-04 8.84437E-06 0.00000E+00
 -1       601 1.58441E-04 7.61448E-06 4.13590E-25
 -1       602 1.58861E-04 6.41173E-06 0.00000E+00
 -1       603 1.59270E-04 5.24105E-06-2.06795E-25
 -1       604 1.59666E-04 4.10744E-06 1.03398E-25
 -1       605 1.60046E-04 3.01572E-06 0.00000E+00
 -1       606 1.54981E-04 8.74140E-07 0.00000E+00
 -1       607 1.54991E-04 4.15353E-07 0.00000E+00
 -1       608 1.55001E-04 4.13583E-08 0.00000E+00
 -1       609 1.55010E-04-2.53807E-07 0.00000E+00
 -1       610 1.55019E-04-4.76153E-07 0.00000E+00
 -1       611 1.55027E-04-6.31758E-07 0.00000E+00
 -1       612 1.55036E-04-7.26705E-07 0.00000E+00
 -1       613 1.55045E-04-7.67091E-07 0.00000E+00
 -1       614 1.55054E-04-7.59007E-07 0.00000E+00
 -1       615 1.55063E-04-7.08548E-07 0.00000E+00
 -1       616 1.55071E-04-6.21809E-07 0.00000E+00
 -1       617 1.55080E-04-5.04882E-07 0.00000E+00
 -1       618 1.55089E-04-3.63864E-07 0.00000E+00
 -1       619 1.55097E-04-2.04845E-07 0.00000E+00
 -1       620 1.55106E-04-3.39204E-08 0.00000E+00
 -1       621 1.55675E-04 1.51480E-06 0.00000E+00
 -1       622 1.56493E-04 1.60686E-06 8.27181E-25
 -1       623 1.57398E-04 1.69883E-06 1.65436E-24
 -1       624 1.58369E-04 1.79059E-06 8.27181E-25
 -1       625 1.59381E-04 1.88213E-06 0.00000E+00
 -1       626 1.55275E-04 9.06185E-07 3.30872E-24
 -1       627 1.55556E-04 4.58900E-07 0.00000E+00
 -1       628 1.55815E-04 7.33644E-08 0.00000E+00
 -1       629 1.56054E-04-2.58578E-07-1.65436E-24
 -1       630 1.56275E-04-5.45106E-07 0.00000E+00
 -1       631 1.56483E-04-7.94425E-07 1.65436E-24
 -1       632 1.56680E-04-1.01474E-06-3.30872E-24
 -1       633 1.56869E-04-1.21426E-06 1.65436E-24
 -1       634 1.57053E-04-1.40118E-06-3.30872E-24
 -1       635 1.57236E-04-1.58372E-06 1.65436E-24
 -1       636 1.57420E-04-1.77009E-06 0.00000E+00
 -1       637 1.57609E-04-1.96848E-06-1.65436E-24
 -1       638 1.57805E-04-2.18711E-06 3.30872E-24
 -1       639 1.58012E-04-2.43419E-06-1.65436E-24
 -1       640 1.58231E-04-2.71796E-06 0.00000E+00
 -1       656 1.55163E-04-3.75827E-07-6.61744E-24
 -1       657 1.55613E-04-9.15403E-07 0.00000E+00
 -1       658 1.56325E-04-1.45357E-06-1.32349E-23
 -1       659 1.57155E-04-1.99136E-06 6.61744E-24
 -1       660 1.57927E-04-2.53079E-06 0.00000E+00
 -1       661 1.55134E-04 2.80879E-07-8.27181E-25
 -1       662 1.55187E-04 3.39934E-07 0.00000E+00
 -1       663 1.55267E-04 3.23983E-07-1.65436E-24
 -1       664 1.55375E-04 2.38278E-07-8.27181E-25
 -1       665 1.55507E-04 8.74335E-08 1.65436E-24
 -1       666 1.55661E-04-1.23836E-07 8.27181E-25
 -1       667 1.55837E-04-3.91065E-07 0.00000E+00
 -1       668 1.56032E-04-7.09840E-07 0.00000E+00
 -1       669 1.56245E-04-1.07591E-06 1.65436E-24
 -1       670 1.56473E-04-1.48513E-06 8.27181E-25
 -1       671 1.56717E-04-1.93344E-06 0.00000E+00
 -1       672 1.56973E-04-2.41691E-06 0.00000E+00
 -1       673 1.57241E-04-2.93165E-06 1.65436E-24
 -1       674 1.57519E-04-3.47412E-06 8.27181E-25
 -1       675 1.57806E-04-4.04018E-06-4.13590E-25
 -1       676 1.54978E-04-4.15257E-06-3.30872E-24
 -1       677 1.55603E-04-4.24829E-06 0.00000E+00
 -1       678 1.56228E-04-4.34395E-06 0.00000E+00
 -1       679 1.56852E-04-4.43933E-06 0.00000E+00
 -1       680 1.57474E-04-4.53470E-06 0.00000E+00
 -1       771 1.79219E-05 1.04531E-05 0.00000E+00
 -1       772 9.89368E-06 2.76321E-05 0.00000E+00
 -1       773 3.26214E-06 4.12517E-05 0.00000E+00
 -1       774-2.06746E-06 5.15194E-05 0.00000E+00
 -1       775-6.18829E-06 5.86500E-05-5.29396E-23
 -1       776-9.19727E-06 6.28699E-05 0.00000E+00
 -1       777-1.11915E-05 6.44129E-05 0.00000E+00
 -1       778-1.22702E-05 6.35224E-05 0.00000E+00
 -1       779-1.25325E-05 6.04478E-05 0.00000E+00
 -1       780-1.20791E-05 5.54467E-05-2.64698E-23
 -1       781-1.10105E-05 4.87812E-05 0.00000E+00
 -1       782-9.42835E-06 4.07196E-05-2.64698E-23
 -1       783-7.43399E-06 3.15337E-05-5.29396E-23
 -1       784-5.12974E-06 2.14995E-05-2.64698E-23
 -1       785-2.61740E-06 1.08950E-05 5.29396E-23
 -1       786 1.59753E-04 2.02909E-05 0.00000E+00
 -1       787 1.59796E-04 1.88863E-05 0.00000E+00
 -1       788 1.59839E-04 1.75216E-05 0.00000E+00
 -1       789 1.59883E-04 1.61890E-05 0.00000E+00
 -1       790 1.59927E-04 1.48839E-05 1.65436E-24
 -1       791 1.59971E-04 1.36017E-05 8.27181E-25
 -1       792 1.60014E-04 1.23404E-05 1.65436E-24
 -1       793 1.60058E-04 1.10979E-05 0.00000E+00
 -1       794 1.60102E-04 9.87381E-06 0.00000E+00
 -1       795 1.60146E-04 8.66807E-06 0.00000E+00
 -1       796 1.60191E-04 7.48237E-06 0.00000E+00
 -1       797 1.60235E-04 6.31840E-06 8.27181E-25
 -1       798 1.60279E-04 5.18013E-06 1.65436E-24
 -1       799 1.60323E-04 4.07159E-06-8.27181E-25
 -1       800 1.60367E-04 2.99977E-06 1.65436E-24
 -1       801 1.26196E-04 1.93299E-05 0.00000E+00
 -1       802 2.44078E-05 1.24561E-05 0.00000E+00
 -1       803-6.49088E-05 6.54982E-06-5.29396E-23
 -1       804-6.20862E-05 4.45470E-06-2.64698E-23
 -1       805-2.12468E-05 1.94718E-06 5.29396E-23
 -1       806 1.60155E-04 2.02307E-05-1.65436E-24
 -1       807 1.60583E-04 1.87447E-05 0.00000E+00
 -1       808 1.60999E-04 1.72897E-05 0.00000E+00
 -1       809 1.61402E-04 1.58690E-05 0.00000E+00
 -1       810 1.61790E-04 1.44857E-05 0.00000E+00
 -1       811 1.62164E-04 1.31431E-05 0.00000E+00
 -1       812 1.62520E-04 1.18443E-05-1.65436E-24
 -1       813 1.62860E-04 1.05925E-05 8.27181E-25
 -1       814 1.63180E-04 9.39064E-06 3.30872E-24
 -1       815 1.63481E-04 8.24199E-06-8.27181E-25
 -1       816 1.63761E-04 7.14965E-06 3.30872E-24
 -1       817 1.64018E-04 6.11670E-06 8.27181E-25
 -1       818 1.64253E-04 5.14626E-06-3.30872E-24
 -1       819 1.64463E-04 4.24142E-06 8.27181E-25
 -1       820 1.64647E-04 3.40525E-06-1.65436E-24
 -1       821 1.60297E-04 8.12119E-07 8.27181E-25
 -1       822 1.60174E-04-6.52360E-07 1.65436E-24
 -1       823 1.60052E-04-2.26068E-06 3.30872E-24
 -1       824 1.59928E-04-3.85105E-06 0.00000E+00
 -1       825 1.59805E-04-5.26631E-06 0.00000E+00
 -1       826 1.59682E-04-6.35024E-06 0.00000E+00
 -1       827 1.59559E-04-7.02894E-06 3.30872E-24
 -1       828 1.59436E-04-7.23073E-06 1.65436E-24
 -1       829 1.59314E-04-7.00243E-06 3.30872E-24
 -1       830 1.59191E-04-6.39320E-06 1.65436E-24
 -1       831 1.59068E-04-5.54682E-06 0.00000E+00
 -1       832 1.58945E-04-4.60841E-06 0.00000E+00
 -1       833 1.58822E-04-3.74596E-06 0.00000E+00
 -1       834 1.58701E-04-3.12702E-06 0.00000E+00
 -1       835 1.58580E-04-2.85885E-06 0.00000E+00
 -1       836 1.61332E-04 2.08292E-06-3.30872E-24
 -1       837 1.62136E-04 2.19671E-06 0.00000E+00
 -1       838 1.62855E-04 2.31038E-06 3.30872E-24
 -1       839 1.63519E-04 2.42338E-06-8.27181E-25
 -1       840 1.64159E-04 2.53621E-06 0.00000E+00
 -1       856 1.58446E-04-3.39611E-06 4.13590E-25
 -1       857 1.58423E-04-3.61999E-06 0.00000E+00
 -1       858 1.58401E-04-3.73793E-06-4.13590E-25
 -1       859 1.58378E-04-3.76961E-06-2.06795E-25
 -1       860 1.58354E-04-3.73476E-06 8.27181E-25
 -1       861 1.58331E-04-3.65316E-06 0.00000E+00
 -1       862 1.58308E-04-3.54466E-06 0.00000E+00
 -1       863 1.58284E-04-3.42911E-06 0.00000E+00
 -1       864 1.58261E-04-3.32638E-06-8.27181E-25
 -1       865 1.58237E-04-3.25632E-06-4.13590E-25
 -1       866 1.58214E-04-3.23875E-06 8.27181E-25
 -1       867 1.58191E-04-3.29346E-06 0.00000E+00
 -1       868 1.58167E-04-3.44015E-06 0.00000E+00
 -1       869 1.58143E-04-3.69847E-06 4.13590E-25
 -1       870 1.58120E-04-4.08794E-06 0.00000E+00
 -1       871 1.59074E-04-3.04960E-06 4.13590E-25
 -1       872 1.59814E-04-3.05539E-06 0.00000E+00
 -1       873 1.60627E-04-3.06175E-06 0.00000E+00
 -1       874 1.61453E-04-3.06879E-06-3.10193E-25
 -1       875 1.62232E-04-3.07637E-06-4.13590E-25
 -1       876 1.58713E-04-3.38330E-06 3.30872E-24
 -1       877 1.58940E-04-3.65841E-06-1.65436E-24
 -1       878 1.59146E-04-3.87945E-06 0.00000E+00
 -1       879 1.59335E-04-4.05325E-06 0.00000E+00
 -1       880 1.59510E-04-4.18666E-06 0.00000E+00
 -1       881 1.59671E-04-4.28651E-06 0.00000E+00
 -1       882 1.59823E-04-4.35961E-06 0.00000E+00
 -1       883 1.59967E-04-4.41276E-06-1.65436E-24
 -1       884 1.60106E-04-4.45275E-06-3.30872E-24
 -1       885 1.60243E-04-4.48637E-06-1.65436E-24
 -1       886 1.60380E-04-4.52042E-06 0.00000E+00
 -1       887 1.60519E-04-4.56171E-06-1.65436E-24
 -1       888 1.60664E-04-4.61704E-06 3.30872E-24
 -1       889 1.60816E-04-4.69336E-06 0.00000E+00
 -1       890 1.60977E-04-4.79743E-06 1.65436E-24
 -1       891 1.58737E-04-4.67996E-06 1.65436E-24
 -1       892 1.59357E-04-4.73208E-06 8.27181E-25
 -1       893 1.59932E-04-4.78414E-06-1.65436E-24
 -1       894 1.60437E-04-4.83600E-06-4.13590E-25
 -1       895 1.60850E-04-4.88770E-06 4.13590E-25
 -1       956 1.64689E-04 2.02712E-06 1.65436E-24
 -1       957 1.64571E-04 1.49189E-06-8.27181E-25
 -1       958 1.64451E-04 1.02602E-06 1.65436E-24
 -1       959 1.64332E-04 6.19973E-07 0.00000E+00
 -1       960 1.64213E-04 2.64165E-07-3.30872E-24
 -1       961 1.64093E-04-5.10202E-08 0.00000E+00
 -1       962 1.63974E-04-3.35207E-07 0.00000E+00
 -1       963 1.63854E-04-5.98035E-07 0.00000E+00
 -1       964 1.63735E-04-8.49138E-07 0.00000E+00
 -1       965 1.63615E-04-1.09815E-06-1.65436E-24
 -1       966 1.63496E-04-1.35472E-06 0.00000E+00
 -1       967 1.63377E-04-1.62847E-06 1.65436E-24
 -1       968 1.63257E-04-1.92904E-06-3.30872E-24
 -1       969 1.63138E-04-2.26602E-06 0.00000E+00
 -1       970 1.63019E-04-2.64900E-06-3.30872E-24
 -1       971 1.62794E-04-3.51749E-06-3.30872E-24
 -1       972 1.62683E-04-3.85809E-06 0.00000E+00
 -1       973 1.62573E-04-4.11888E-06 0.00000E+00
 -1       974 1.62463E-04-4.31015E-06-1.65436E-24
 -1       975 1.62353E-04-4.44217E-06 0.00000E+00
 -1       976 1.62242E-04-4.52526E-06 0.00000E+00
 -1       977 1.62132E-04-4.56974E-06 0.00000E+00
 -1       978 1.62021E-04-4.58595E-06 0.00000E+00
 -1       979 1.61911E-04-4.58421E-06-3.30872E-24
 -1       980 1.61801E-04-4.57487E-06 1.65436E-24
 -1       981 1.61690E-04-4.56827E-06 0.00000E+00
 -1       982 1.61580E-04-4.57475E-06 0.00000E+00
 -1       983 1.61470E-04-4.60465E-06 0.00000E+00
 -1       984 1.61360E-04-4.66828E-06 0.00000E+00
 -1       985 1.61251E-04-4.77597E-06 0.00000E+00
 -3
    1PSTEP                        24          12           1          
  100CL  112 6.12732E-01         409                     0   12           1
 -4  STRESS      6    1
 -5  SXX         1    4    1    1
 -5  SYY         1    4    2    2
 -5  SZZ         1    4    3    3
 -5  SXY         1    4    1    2
 -5  SYZ         1    4    2    3
 -5  SZX         1    4    3    1
 -1         1-3.83231E+06-1.47262E+06-8.39680E+05-1.52662E+06-2.98314E-10 5.48316E-08
 -1         2 8.30845E+02-1.77384E+06 3.05249E+03 1.85180E+04 4.17984E-10-3.56249E-09
 -1         3-8.83307E+02-1.52227E+06 3.71528E+02-1.66938E+03-5.86095E-10 3.09956E-09
 -1         5-1.96396E+01 3.40441E+05 8.74519E+00-5.24285E-01-1.72037E-10 1.39798E-08
 -1         8-8.07898E+05-2.75955E+05-8.01375E+04-3.38301E+05-3.49246E-10 5.94373E-08
 -1         9 4.11528E+06-6.90960E+05 7.47483E+05-9.08550E+05 2.80153E-08-4.19095E-10
 -1        10-1.79754E+03-1.58617E+06-3.28004E+03-1.12832E+04-1.02609E-08-3.27310E-08
 -1        12-1.60844E+01 3.40459E+05 2.84335E+02-3.76300E+00-2.60524E-10 1.88043E-08
 -1        15 1.45112E+03 7.97472E+02 4.69070E+03 2.41516E+00-3.73120E-10-3.41451E-07
 -1        16 1.00829E+07-3.70012E+05 1.44878E+06-1.10789E+06 1.69772E-08 6.95776E-08
 -1        17 3.52425E+06 2.33154E+06 9.61889E+05 2.38929E+06 1.00466E-08 2.66067E-08
 -1        18 6.70227E+04 1.32578E+04-1.06788E+04-1.00753E+05 1.05024E-08-4.30600E-09
 -1        19 1.08856E+05 1.25429E+05-8.69536E+02 2.04052E+04 7.68705E-10 1.47811E-09
 -1        20-6.58342E+04-5.12569E+05-1.14502E+05 2.66285E+04 9.98928E-11-2.26404E-09
 -1        21-4.34330E+01-2.73584E+05-8.62452E+02 1.17440E+02 6.59832E-09-9.66014E-09
 -1        24 5.55064E+06 4.90174E+06 1.71408E+06 4.49317E+06-1.18729E-07-4.10752E-08
 -1        25-1.32209E+02-1.92790E+05-1.78176E+04-3.85282E+05-1.81190E-09-5.76692E-09
 -1        26-4.67657E+04 8.13776E+04-2.17150E+04-1.38979E+03 7.77072E-10 4.84334E-09
 -1        27-7.13197E+04-2.77940E+05-1.02471E+05 6.21756E+04 4.34481E-09-2.12519E-10
 -1        28 2.07847E+04-7.79351E+04 1.55804E+04 2.05037E+04-1.82416E-09 9.17230E-09
 -1        32-1.54406E+06-2.72202E+06-1.43089E+05-2.98502E+03-3.31638E-08-9.25320E-09
 -1        33-1.61413E+05 8.18601E+04 2.88542E+04-3.60148E+04-1.38455E-09 4.83851E-10
 -1        34-2.02626E+05-2.17737E+04 5.86994E+02 6.66367E+04-1.90148E-09-5.15774E-09
 -1        35-2.13070E+04-3.09277E+04-1.22681E+03 4.76294E+04-3.94645E-10-3.07167E-09
 -1        51 4.19842E+04-2.46490E+05 9.23489E+04-7.15706E+05 2.91038E-11 6.55273E-08
 -1        52 1.60521E+04-2.32841E+05 5.10392E+04-8.34465E+05 2.87400E-10-4.43542E-08
 -1        53 5.49879E+03-2.47857E+05 3.06991E+04-7.13103E+05 5.27507E-10-1.59780E-07
 -1        54 1.35029E+04-2.44728E+05 3.35469E+04-8.37181E+05 1.74623E-10-5.95173E-09
 -1        55 2.79926E+04-2.55374E+05 5.05284E+04-7.12710E+05 6.69388E-10 3.20797E-08
 -1        56-7.26170E+06-8.18934E+05-6.20580E+05-2.83153E+06-1.66765E-08 2.06055E-08
 -1        57-7.60794E+06-1.28370E+06-4.18442E+05-2.69449E+06 2.63753E-10-3.78350E-09
 -1        58-7.36490E+06-1.03719E+06-1.45816E+05-2.81615E+06-2.92130E-09-1.10515E-07
 -1        59-7.49298E+06-1.02350E+06-8.69349E+04-2.70924E+06 8.40009E-09-1.16107E-07
 -1        60-7.37523E+06-1.07207E+06-3.39019E+04-2.81925E+06-1.24555E-08 4.44015E-08
 -1        61-7.47300E+06-9.90073E+05-1.92072E+04-2.71401E+06-2.28735E-08 2.21462E-08
 -1        62-7.38440E+06-1.06973E+06-9.29725E+03-2.81157E+06-1.55737E-08-5.35779E-08
 -1        63-7.44552E+06-1.00949E+06-7.28061E+03-2.74031E+06-3.29237E-09-9.56047E-08
 -1        64-7.40188E+06-1.05306E+06-8.76480E+03-2.79240E+06 1.53250E-09 4.68751E-08
 -1        65-7.40929E+06-1.05054E+06-1.66912E+04-2.78228E+06 1.81444E-09 5.84911E-08
 -1        66-7.42027E+06-1.02906E+06-3.00318E+04-2.76928E+06 5.56611E-10 2.60297E-08
 -1        67-7.39163E+06-1.11574E+06-7.57895E+04-2.82017E+06-1.18425E-08-1.54490E-07
 -1        68-7.42049E+06-9.88271E+05-1.27330E+05-2.75475E+06-9.00036E-09-2.38651E-09
 -1        69-7.49476E+06-1.34268E+06-3.65540E+05-2.80904E+06-9.66247E-09 2.51675E-08
 -1        70-7.31982E+06-8.07405E+05-5.41735E+05-2.77928E+06 7.85803E-09 5.82077E-11
 -1        86-5.46016E+02-1.78286E+06 1.49661E+03-9.25860E+03-3.98342E-09-1.49230E-07
 -1        87 2.30361E+03-1.77597E+06 4.94844E+03 3.11667E+04-6.94399E-09-6.21211E-08
 -1        88-1.78419E+03-1.78101E+06 6.63486E+03-2.19078E+04-7.25504E-09-1.30029E-07
 -1        89 1.30863E+04-1.77345E+06 1.81892E+04 4.26242E+04-1.04383E-08-2.38890E-07
 -1        90-1.10931E+04-1.78561E+06 2.53201E+04-2.07179E+04-6.29188E-09-5.35854E-08
 -1       121-1.22688E+03-1.52528E+06-1.75186E+02 8.30210E+02 1.08537E-09 3.80533E-09
 -1       122-7.28910E+02-1.52227E+06 7.46044E+02-3.33645E+03-4.16634E-09 3.89446E-09
 -1       123-1.27272E+03-1.52539E+06 6.49400E+02 2.47961E+03 3.30647E-09 1.63200E-08
 -1       124 7.94705E+02-1.52166E+06 2.97810E+03-6.99466E+03-8.30141E-09 2.10111E-08
 -1       125-2.11636E+03-1.52623E+06 3.94906E+03 4.46830E+03 4.71846E-09-3.67436E-09
 -1       191-2.09021E+01 3.40467E+05 9.77906E+00 2.66129E-01-2.75229E-10 2.40352E-08
 -1       192-2.04518E+01 3.40441E+05 1.85484E+01-1.88331E+00-4.41020E-10-2.83717E-09
 -1       193-2.30569E+01 3.40466E+05 3.38390E+01 1.64247E+00-5.23636E-10-8.20910E-09
 -1       194-2.30632E+01 3.40444E+05 7.02360E+01-4.34924E+00-2.75124E-10-1.27766E-08
 -1       195-2.71961E+01 3.40464E+05 1.36725E+02 2.76480E+00-7.82570E-10 5.36966E-09
 -1       251-1.95166E+06-2.30761E+04-1.67503E+05-1.20516E+05-1.51704E-09 4.62896E-08
 -1       252-1.20099E+06 2.96337E+04 3.47674E+04 3.71795E+05 7.80119E-09 1.11114E-07
 -1       253-1.61797E+06-1.10769E+04-2.95640E+04-2.48663E+05-8.57654E-09-3.32875E-08
 -1       254-1.55165E+06 4.84141E+04 5.76878E+03 4.93096E+05-4.13809E-09-2.33813E-08
 -1       255-1.63585E+06-1.34371E+04-1.70385E+04-2.44640E+05-2.37196E-09 2.31921E-08
 -1       256-1.15642E+06 3.96213E+04 8.71130E+04 3.55483E+05 2.16069E-08 1.76874E-09
 -1       257-1.97455E+06-3.37264E+04-8.62849E+04-1.08058E+05 6.58292E-09-6.24368E-10
 -1       258-7.81119E+05 3.02009E+04 1.58523E+05-6.11826E+01 2.02463E-08 1.02815E-07
 -1       259-1.97430E+06-3.39571E+04-8.47185E+04 1.09009E+05-4.99858E-09 1.08679E-07
 -1       260-1.15653E+06 4.12984E+04 9.13526E+04-3.55235E+05-2.74558E-08 4.19031E-08
 -1       261-1.63605E+06-1.48317E+04-9.10668E+03 2.45254E+05 4.66389E-08-3.51220E-08
 -1       262-1.54741E+06 5.80565E+04 2.53362E+04-4.92240E+05-1.12937E-08-4.16864E-09
 -1       263-1.62200E+06-1.92955E+04 1.78051E+03 2.49033E+05 7.42239E-09 5.45133E-08
 -1       264-1.17291E+06 9.00074E+04 1.20471E+05-3.71743E+05 1.18536E-07 8.38190E-09
 -1       265-1.97560E+06-7.50703E+04-4.59764E+04 1.21913E+05 3.87663E-08 6.48597E-08
 -1       266-2.62697E+04-1.22834E+04 6.16377E+04-5.16778E+01 2.61934E-10 5.92116E-08
 -1       267 3.04541E+04 1.43171E+04 4.35639E+04 5.96245E+01 2.50566E-10-1.40869E-07
 -1       268-4.08382E+03-2.02766E+03 1.61926E+04-7.59728E+00 3.45608E-11-3.64670E-08
 -1       269 4.82181E+03 2.42672E+03 1.05249E+04 8.84962E+00-2.73758E-10-2.60271E-08
 -1       270-7.23752E+02-3.98720E+02 5.08050E+03-1.20096E+00-6.63931E-11 4.93350E-08
 -1       271-2.50027E+06-3.03495E+05-1.89352E+05-9.65746E+05 2.19734E-09 1.28159E-07
 -1       272-2.61244E+06-4.04209E+05-1.22701E+05-9.15582E+05 1.08239E-08-8.14798E-08
 -1       273-2.53534E+06-3.53669E+05-4.46888E+04-9.57845E+05-7.59701E-09 6.65932E-09
 -1       274-2.57083E+06-3.43767E+05-2.52664E+04-9.27349E+05-1.87324E-08-2.94635E-08
 -1       275-2.54080E+06-3.58673E+05-1.04210E+04-9.55828E+05 1.07930E-08 4.98603E-08
 -1       276-2.56290E+06-3.39118E+05-5.52647E+03-9.31228E+05-7.39556E-09-4.30164E-08
 -1       277-2.54291E+06-3.57909E+05-2.74170E+03-9.53987E+05-4.61296E-09 6.74199E-08
 -1       278-2.55861E+06-3.41792E+05-1.82502E+03-9.35080E+05 1.46574E-08 2.24697E-08
 -1       279-2.54482E+06-3.56109E+05-2.00754E+03-9.51812E+05-1.60198E-08-1.15787E-07
 -1       280-2.55470E+06-3.46233E+05-3.34165E+03-9.39500E+05-1.18016E-08 1.26822E-08
 -1       281-2.54663E+06-3.53624E+05-6.24382E+03-9.49413E+05 3.46427E-09 4.73847E-10
 -1       282-2.55313E+06-3.54868E+05-1.46621E+04-9.43871E+05-7.27596E-09 2.01193E-07
 -1       283-2.54634E+06-3.47873E+05-2.61289E+04-9.47254E+05-1.06393E-08 1.66296E-07
 -1       284-2.57162E+06-3.95600E+05-7.12668E+04-9.43445E+05-1.29148E-08-5.69389E-09
 -1       285-2.52867E+06-3.16040E+05-1.10267E+05-9.48726E+05 1.35842E-08-3.07045E-08
 -1       301 1.88445E+04-3.62657E+05 1.73480E+05-6.57761E+05 1.06957E-09 1.89357E-07
 -1       302 2.04306E+04-3.18954E+05 1.07804E+05-9.62025E+05-1.75714E-09-2.20571E-08
 -1       303-2.27043E+03-3.46956E+05 7.08676E+04-6.56195E+05 5.52973E-10-9.56006E-08
 -1       304 1.27654E+04-3.20732E+05 8.86074E+04-9.61389E+05-1.52795E-10 1.22247E-07
 -1       305 9.18931E+03-3.52679E+05 1.30439E+05-6.58360E+05-2.18279E-10 1.49674E-07
 -1       306-1.86120E+07-3.44504E+06-4.58209E+06-1.81412E+06-6.97910E-08-2.91620E-08
 -1       307 1.19966E+07-3.87189E+05 2.78143E+06-8.43027E+06-5.85627E-07 8.76025E-08
 -1       308-8.17546E+06 5.59547E+04-4.21839E+05 2.58363E+06-7.89878E-08 1.71274E-07
 -1       309-3.23604E+06 1.21186E+06 8.99662E+05-1.36887E+07 2.18410E-07-7.09242E-08
 -1       310-9.31800E+06-1.25090E+05-6.59750E+05 2.38725E+06 2.02563E-07-8.46376E-08
 -1       311 1.46040E+07-1.17438E+06 3.31653E+06-6.68632E+06 4.01400E-07-1.55633E-07
 -1       312-1.88916E+07-3.42550E+06-4.05212E+06-2.86338E+06 1.35973E-07 7.86677E-08
 -1       313 2.16922E+07 4.86317E+06 5.36335E+06 9.16382E+06-4.04543E-09-2.64845E-08
 -1       314-1.31991E+07-8.28570E+06-3.82999E+06-7.65041E+06 2.30910E-07 1.06840E-07
 -1       315-2.03451E+06 1.33175E+07 2.98223E+06 7.02445E+06-3.01996E-07 1.13854E-07
 -1       316-1.77892E+06-6.52864E+06-3.67432E+05-4.32895E+06-9.12944E-07-1.80880E-07
 -1       317-1.48210E+07 1.27461E+07 8.78595E+05-1.70365E+06 4.40119E-07-3.31554E-07
 -1       318-2.34405E+06-6.86215E+06-7.35309E+05-4.56533E+06-6.01955E-07 3.83588E-08
 -1       319-5.81841E+04 1.37451E+07 3.04096E+06 7.69836E+06-9.53441E-08 1.06345E-07
 -1       320-1.42621E+07-8.60577E+06-4.92559E+06-7.51453E+06 1.34110E-07-4.04543E-08
 -1       336 1.03534E+02-1.65116E+06-1.19030E+04 6.73789E+03-2.03700E-08 9.09495E-10
 -1       337-4.54669E+03-1.65211E+06-1.51116E+04-1.63142E+04-3.86162E-08 6.91216E-09
 -1       338 6.26337E+02-1.65089E+06-2.27121E+04 9.45688E+03-2.66764E-08-1.55705E-09
 -1       339-2.41243E+04-1.66527E+06-5.12986E+04-2.16179E+04-4.71473E-08 1.74714E-08
 -1       340 1.61355E+04-1.63929E+06-8.04035E+04 1.19611E+04-3.12793E-08 2.05800E-08
 -1       406 4.97880E+00 3.40451E+05 5.60650E+02 1.08460E+00-9.65315E-10 1.19626E-08
 -1       407 1.79717E+02 3.40557E+05 1.19304E+03 1.28609E+01-3.53246E-10-1.70985E-10
 -1       408 5.97596E+02 3.40365E+05 2.38182E+03-1.42896E+01-1.26659E-09 1.36761E-08
 -1       409 2.56145E+03 3.41318E+05 5.36347E+03 1.46610E+02-1.14767E-10 8.35644E-09
 -1       410 7.38821E+03 3.39686E+05 1.09487E+04-1.39855E+02-1.46247E-09 1.05601E-08
 -1       521-2.05750E+07-4.29604E+06-5.51828E+06-1.74093E+06-7.22939E-08-5.40167E-08
 -1       522 1.27746E+07-2.90930E+05 2.90504E+06-1.07561E+07-3.76836E-07-1.67638E-07
 -1       523-9.35746E+06-1.03917E+05-4.71855E+05 2.99786E+06 2.77068E-08-1.62272E-07
 -1       524-5.36024E+06 2.48884E+06 1.02030E+06-1.64781E+07 3.33588E-07-6.17323E-07
 -1       525-1.06492E+07-3.74498E+05-7.55500E+05 2.77843E+06 3.03320E-07-2.72266E-07
 -1       526 1.62033E+07-1.32242E+06 3.61525E+06-8.63393E+06 1.11526E-07 7.46659E-08
 -1       527-2.09502E+07-4.38900E+06-4.79875E+06-2.93651E+06 1.17463E-07 1.66619E-08
 -1       528 2.44684E+07 5.37465E+06 5.79090E+06 1.06362E+07-7.74744E-08-2.11177E-07
 -1       529-1.45688E+07-9.83420E+06-4.52836E+06-8.24805E+06-2.53029E-07-6.83358E-08
 -1       530-3.70334E+06 1.61404E+07 3.26582E+06 7.54554E+06-1.70781E-07 4.59491E-07
 -1       531-2.06628E+06-7.71069E+06-4.01021E+05-4.84537E+06-4.93746E-07 1.70519E-07
 -1       532-1.80596E+07 1.51337E+07 1.02056E+06-3.54234E+06 2.31885E-07-4.77681E-07
 -1       533-2.61270E+06-8.04577E+06-7.92684E+05-5.04988E+06-8.06176E-08-7.34086E-07
 -1       534-1.65504E+06 1.66301E+07 3.29909E+06 8.29621E+06-5.94300E-08 5.38072E-07
 -1       535-1.56673E+07-1.02364E+07-5.74243E+06-8.08810E+06 3.51574E-08 3.29717E-07
 -1       536-5.85738E+05-3.91000E+04-6.04174E+03-3.87046E+04-7.98218E-09 4.33974E-08
 -1       537-1.72105E+05 3.92768E+04 6.87071E+04 9.21577E+04-8.42704E-08 6.88706E-08
 -1       538-3.88098E+05 6.29487E+02 8.46632E+03-5.55981E+04 2.38197E-08 8.82278E-08
 -1       539-3.09824E+05 3.10193E+03 1.90535E+04 1.05306E+05 1.32935E-07 8.53906E-08
 -1       540-4.51342E+05-2.00053E+02-1.15471E+04-5.21085E+04 2.41955E-08 8.58431E-08
 -1       541-4.96965E+04 1.06783E+04 6.72747E+04 7.08465E+04-2.56404E-08 7.49524E-08
 -1       542-6.41247E+05-1.27222E+04-5.24514E+04-2.07181E+04 8.62383E-09 2.93625E-08
 -1       543 1.10574E+05 1.71326E+04 9.85207E+04-1.07018E+04-9.44033E-09-6.88624E-09
 -1       544-6.07343E+05-1.01693E+04-4.64980E+04 2.91089E+04-5.61613E-10-2.80105E-08
 -1       545-1.27770E+05 5.39616E+03 4.83886E+04-8.46116E+04 4.36444E-10-6.98482E-08
 -1       546-4.09252E+05 4.24179E+03-8.15162E+03 5.30336E+04 1.36929E-08-5.94680E-08
 -1       547-3.23032E+05-4.54905E+03 3.66639E+03-1.07729E+05-8.85797E-08-7.65359E-08
 -1       548-4.17276E+05 4.07670E+03-1.90902E+04 5.25602E+04-8.39507E-08-7.71770E-08
 -1       549-1.12807E+05 2.09404E+03 2.70794E+04-8.17880E+04-5.15862E-08-3.83516E-08
 -1       550-6.13816E+05-7.09059E+03-9.65994E+04 2.67399E+04 3.62843E-09-2.42326E-08
 -1       551 3.17096E+04-7.34768E+05 6.14671E+03-1.14544E+06-8.17236E-08-9.45874E-09
 -1       552 7.12100E+04-7.64606E+05 2.22462E+04-1.63308E+06-5.95028E-08 3.72529E-08
 -1       553 5.33995E+04-7.65681E+05 4.02167E+04-1.14010E+06-9.45874E-08 2.53276E-08
 -1       554 1.04586E+05-7.71961E+05 9.05045E+04-1.63498E+06-5.97502E-08 1.29585E-08
 -1       555 8.27744E+04-7.87208E+05 1.62346E+05-1.14042E+06-9.91204E-08-1.29512E-08
 -1       556 1.74046E+05-3.07572E+05 5.08607E+04-3.49414E+05-1.56433E-08 3.87081E-09
 -1       557 2.85858E+05-3.97309E+05 2.82059E+04-4.47037E+05 1.17871E-09 1.41154E-08
 -1       558 1.63462E+05-3.08238E+05 9.04519E+03-3.47768E+05-1.00117E-08-8.94215E-09
 -1       559 2.65612E+05-4.02102E+05 5.30815E+03-4.61081E+05 1.68220E-08-1.90012E-08
 -1       560 1.53453E+05-3.01905E+05 8.00862E+02-3.54807E+05 1.29803E-08-7.67614E-09
 -1       561 2.52680E+05-3.97189E+05 9.52420E+02-4.69732E+05 1.33878E-09-1.69675E-08
 -1       562 1.45562E+05-2.96946E+05-3.82218E+02-3.60486E+05 1.89175E-10-2.08966E-08
 -1       563 2.43356E+05-3.93124E+05 2.07671E+02-4.75779E+05-3.63798E-09-3.65162E-10
 -1       564 1.40072E+05-2.93509E+05-2.21670E+02-3.64366E+05-6.41739E-09-8.57744E-09
 -1       565 2.37421E+05-3.90542E+05 9.17186E+01-4.79559E+05 1.30931E-08 1.37047E-08
 -1       566 1.37069E+05-2.91602E+05-1.03312E+02-3.66469E+05-2.25555E-10-1.30640E-08
 -1       567 2.34875E+05-3.89429E+05-2.14096E+02-4.81065E+05 1.73586E-08-8.44739E-09
 -1       568 1.36619E+05-2.91336E+05-7.45832E+02-3.66879E+05-1.08230E-10 1.73677E-08
 -1       569 2.34564E+05-3.89404E+05-1.88182E+03-4.79392E+05-4.26553E-09 2.62226E-08
 -1       570 1.39639E+05-2.94031E+05-4.19719E+03-3.66125E+05 4.64206E-09 3.23416E-09
 -1       571 2.57253E+05 9.35883E+03 1.35750E+04-7.66188E+04-3.51065E-10 7.16773E-09
 -1       572 2.59243E+05 3.40964E+03 6.65200E+03-8.40541E+04 1.22964E-09-8.11360E-09
 -1       573 2.58047E+05 9.65346E+02 2.95553E+03-7.64656E+04 8.80846E-10-9.70431E-09
 -1       574 2.58262E+05 4.76717E+02 1.48164E+03-8.42406E+04 6.05723E-10 9.85892E-09
 -1       575 2.58136E+05 2.41252E+02 6.99067E+02-7.64449E+04-1.58849E-09 6.51198E-10
 -1       576 2.58136E+05 2.35805E+02 3.57384E+02-8.42654E+04-6.06042E-09-1.13478E-08
 -1       577 2.58163E+05 1.93828E+02 1.78115E+02-7.64421E+04-3.63161E-09 2.14095E-09
 -1       578 2.58147E+05 2.10222E+02 1.01870E+02-8.42687E+04-3.84080E-09 2.61389E-09
 -1       579 2.58208E+05 1.72936E+02 6.93770E+01-7.64418E+04 4.23552E-09 5.03132E-09
 -1       580 2.58210E+05 1.80026E+02 7.83703E+01-8.42645E+04-4.97676E-09 5.54792E-09
 -1       581 2.58279E+05 1.38833E+02 1.18414E+02-7.64466E+04 3.19960E-09 1.23782E-08
 -1       582 2.58325E+05 1.66883E+02 2.38254E+02-8.42151E+04-2.37378E-10-7.16864E-09
 -1       583 2.58363E+05 1.95610E+02 4.59684E+02-7.64915E+04-5.05679E-10-4.73506E-09
 -1       584 2.58601E+05 5.66068E+02 1.03720E+03-8.38371E+04 3.68618E-09-4.30668E-09
 -1       585 2.58347E+05 1.45836E+03 2.10407E+03-7.68244E+04 6.53017E-10-2.59024E-09
 -1       586-3.11674E+03 9.47349E+04-3.20260E+03-2.25933E+05-3.21597E-09 1.18644E-08
 -1       587-9.88893E+02 9.43963E+04 3.33468E+02-2.48672E+05-6.09361E-10 3.76439E-08
 -1       588 6.02959E+02 9.43260E+04 3.96860E+03-2.25819E+05-3.49610E-09 3.87936E-08
 -1       589 4.70977E+03 9.64239E+04 1.06031E+04-2.48434E+05-4.24552E-09 2.88483E-08
 -1       590 1.46579E+04 9.31656E+04 2.23639E+04-2.26207E+05-4.21824E-09 1.41408E-08
 -1       591-5.98424E+04-1.37889E+04-1.90429E+04-2.67269E+04-9.47693E-10-3.11229E-09
 -1       592-6.29570E+04-1.71374E+04-1.03150E+04-3.01799E+04-1.79028E-10-9.24251E-09
 -1       593-6.17497E+04-1.24041E+04-4.29375E+03-2.81204E+04 2.72323E-09-1.42986E-08
 -1       594-6.03230E+04-1.43482E+04-2.14145E+03-3.02856E+04-3.39128E-10-1.20622E-09
 -1       595-6.18953E+04-1.23993E+04-9.83367E+02-2.81838E+04-7.74961E-10 9.44438E-09
 -1       596-6.01430E+04-1.42206E+04-5.00113E+02-3.02646E+04 6.02201E-09 1.79969E-08
 -1       597-6.19136E+04-1.24121E+04-2.72771E+02-2.81862E+04 1.61793E-09 1.26144E-08
 -1       598-6.01254E+04-1.42157E+04-2.20097E+02-3.02588E+04 1.87453E-09-1.14577E-08
 -1       599-6.19124E+04-1.24125E+04-2.82167E+02-2.81859E+04 4.75166E-09-1.12195E-08
 -1       600-6.01434E+04-1.42214E+04-5.24993E+02-3.02631E+04 3.67294E-09-1.64703E-08
 -1       601-6.18909E+04-1.24000E+04-1.03611E+03-2.81827E+04 5.25233E-09 7.55654E-09
 -1       602-6.03330E+04-1.43552E+04-2.25833E+03-3.02819E+04-2.64083E-09-5.19140E-09
 -1       603-6.17351E+04-1.24076E+04-4.52899E+03-2.81164E+04 1.45747E-10-7.37191E-09
 -1       604-6.31260E+04-1.72807E+04-1.08796E+04-3.01494E+04 6.87794E-09 6.80484E-09
 -1       605-5.97060E+04-1.38833E+04-2.00853E+04-2.66629E+04 4.71198E-09 8.86303E-09
 -1       606 2.70156E+04-1.25191E+04-2.24674E+04 2.51781E+04 5.31327E-09-1.04446E-08
 -1       607 2.31743E+04-4.07573E+03-1.11882E+04 2.82803E+04 1.36606E-09 1.72008E-09
 -1       608 2.53597E+04-7.23108E+02-5.00920E+03 2.49895E+04 9.54060E-09 1.02928E-08
 -1       609 2.49357E+04-2.32331E+02-2.53031E+03 2.85033E+04 2.12931E-08 2.54560E-08
 -1       610 2.51675E+04-1.72734E+01-1.20771E+03 2.49678E+04 2.06683E-08 1.17238E-08
 -1       611 2.50966E+04-1.22424E+01-6.08905E+02 2.85275E+04 1.90248E-08 2.54863E-09
 -1       612 2.51217E+04-2.41218E+00-2.89969E+02 2.49656E+04 9.28048E-09 3.15072E-09
 -1       613 2.51020E+04-6.00230E+00-1.30343E+02 2.85304E+04 9.45420E-10 4.82714E-09
 -1       614 2.50986E+04-5.68331E+00-3.18053E+01 2.49648E+04 1.96269E-09 7.09974E-09
 -1       615 2.50936E+04-2.62370E+00 5.18243E+01 2.85308E+04 4.03998E-09-1.03596E-08
 -1       616 2.50808E+04-1.24116E+00 1.57952E+02 2.49651E+04-7.20775E-09-1.82740E-09
 -1       617 2.51098E+04 3.27403E+01 3.61483E+02 2.85303E+04-2.01308E-08-4.61387E-09
 -1       618 2.50473E+04 1.04276E+02 7.28966E+02 2.49653E+04-9.34051E-09 1.50403E-08
 -1       619 2.53654E+04 5.97448E+02 1.63723E+03 2.85296E+04-2.59831E-09 1.89411E-08
 -1       620 2.48041E+04 1.83381E+03 3.29082E+03 2.49654E+04-1.90471E-09-6.70389E-09
 -1       621 3.70579E+02 2.64574E+05 3.12452E+03 2.81552E+04 5.56611E-10-1.60871E-08
 -1       622 4.72912E+02 2.65319E+05 2.84009E+03 4.09134E+04 8.06722E-10-2.27328E-09
 -1       623 6.58282E+01 2.64742E+05 3.50373E+03 2.80250E+04 8.31392E-10 1.14546E-08
 -1       624 1.73047E+03 2.66420E+05 6.86451E+03 4.10435E+04 6.31246E-10 2.48565E-09
 -1       625 1.71752E+03 2.63385E+05 1.20310E+04 2.80222E+04 8.39464E-10 1.98452E-09
 -1       626 2.31610E+05 5.73314E+04 4.80125E+03 1.16023E+05 3.31329E-09 1.05683E-09
 -1       627 2.29273E+05 5.88056E+04 2.31366E+03 1.20210E+05 4.42697E-09 5.42968E-10
 -1       628 2.31740E+05 5.51204E+04 9.78109E+02 1.16821E+05-1.32513E-09 1.67825E-09
 -1       629 2.28656E+05 5.81867E+04 4.78781E+02 1.20452E+05 3.82352E-09 2.29622E-08
 -1       630 2.31752E+05 5.50146E+04 2.21719E+02 1.16851E+05-2.09639E-09-1.00323E-08
 -1       631 2.28588E+05 5.81653E+04 1.18863E+02 1.20453E+05 2.92243E-09-1.67773E-09
 -1       632 2.31746E+05 5.50199E+04 7.74269E+01 1.16846E+05-2.41471E-10-1.00625E-08
 -1       633 2.28577E+05 5.81686E+04 8.50272E+01 1.20448E+05 2.01135E-09-6.56451E-09
 -1       634 2.31740E+05 5.50188E+04 1.36314E+02 1.16843E+05-7.85803E-09 2.58997E-08
 -1       635 2.28588E+05 5.81682E+04 2.75200E+02 1.20451E+05-2.07932E-08-6.11954E-09
 -1       636 2.31729E+05 5.50149E+04 5.55425E+02 1.16842E+05-3.85285E-09 2.13786E-08
 -1       637 2.28706E+05 5.82550E+04 1.22084E+03 1.20449E+05 2.95938E-09-3.93720E-09
 -1       638 2.31685E+05 5.52852E+04 2.50846E+03 1.16719E+05-1.41836E-09 1.20526E-08
 -1       639 2.30023E+05 6.00873E+04 5.93477E+03 1.20060E+05 8.82437E-10-7.63066E-09
 -1       640 2.31505E+05 6.07541E+04 1.23157E+04 1.14409E+05 9.39235E-09 1.26761E-08
 -1       656 5.99306E+04-1.52914E+06-1.44672E+05-1.48606E+03-2.91038E-11-1.46513E-08
 -1       657-7.92610E+04-1.59449E+06-1.19802E+05 6.38402E+03-7.00311E-11-1.02454E-08
 -1       658 1.90821E+04-1.54772E+06-7.37211E+04-3.24933E+03 4.43606E-10-9.73607E-10
 -1       659-8.55388E+04-1.59747E+06-1.28050E+05 7.75942E+03-1.08412E-09 6.73589E-09
 -1       660 6.61941E+04-1.52617E+06-1.58854E+05-2.86144E+03-1.54978E-09 3.73953E-09
 -1       661 1.62142E+05 1.72252E+04 1.65438E+04 6.33954E+04 1.15097E-09 1.11668E-08
 -1       662 1.71268E+05 2.96999E+04 1.11488E+04 5.99430E+04 2.01226E-09 3.79941E-09
 -1       663 1.65390E+05 2.25337E+04 3.89944E+03 6.24538E+04-5.63773E-10 2.83467E-09
 -1       664 1.67504E+05 2.34903E+04 2.33223E+03 6.10918E+04 3.39554E-10-8.04050E-09
 -1       665 1.65881E+05 2.32603E+04 9.20052E+02 6.23120E+04-5.74005E-10 4.47264E-09
 -1       666 1.66924E+05 2.26582E+04 5.37896E+02 6.12759E+04 1.65919E-09 7.86534E-10
 -1       667 1.65966E+05 2.33441E+04 2.85171E+02 6.22776E+04 1.94632E-10-9.64533E-09
 -1       668 1.66831E+05 2.25963E+04 2.89310E+02 6.13260E+04-3.21802E-09 5.56341E-10
 -1       669 1.65973E+05 2.33204E+04 3.90664E+02 6.22624E+04-3.08663E-09 3.59015E-09
 -1       670 1.66927E+05 2.28071E+04 8.49713E+02 6.13281E+04-4.76684E-09 1.11338E-09
 -1       671 1.65870E+05 2.31376E+04 1.50841E+03 6.22735E+04-2.33099E-09-3.30124E-09
 -1       672 1.67806E+05 2.42745E+04 3.85897E+03 6.11153E+04 4.58340E-09 8.69233E-09
 -1       673 1.65099E+05 2.18901E+04 6.46691E+03 6.24610E+04 1.05240E-09 6.26278E-09
 -1       674 1.73962E+05 3.46632E+04 1.84940E+04 5.93059E+04-1.34514E-09-1.12777E-09
 -1       675 1.59754E+05 1.30397E+04 2.74514E+04 6.39736E+04-8.53561E-10 2.03745E-08
 -1       676 2.24064E+01-2.73513E+05-1.03948E+03-5.87214E+01 3.09683E-10-6.42341E-10
 -1       677-2.75841E+02-2.73764E+05-1.90241E+03 1.17360E+02 3.91952E-09-7.19990E-09
 -1       678 1.84315E+02-2.73334E+05-3.36298E+03-5.85989E+01 2.14186E-10-5.76430E-09
 -1       679-3.36381E+03-2.75794E+05-7.98896E+03 1.16891E+02 3.35001E-09-6.46513E-09
 -1       680 2.00773E+03-2.71484E+05-1.28755E+04-5.75980E+01-1.15506E-10 2.49390E-09
 -1       771-2.86472E+06-6.43059E+05-1.18299E+05-1.32768E+06-2.55532E-08-2.13622E-08
 -1       772-2.80541E+06-7.15124E+05-6.13947E+04-1.41049E+06-2.06055E-08 7.82529E-09
 -1       773-2.88692E+06-6.25600E+05-3.04310E+04-1.33670E+06-7.59610E-09 1.36861E-08
 -1       774-2.79635E+06-7.02386E+05-1.37606E+04-1.42781E+06 2.64845E-08 4.72937E-11
 -1       775-2.89762E+06-6.18044E+05-9.71727E+03-1.34064E+06-9.60426E-09 2.92493E-09
 -1       776-2.80330E+06-7.00914E+05-3.72868E+03-1.44038E+06-1.58907E-08 7.85803E-10
 -1       777-2.90669E+06-6.11443E+05-4.08926E+03-1.34410E+06-1.60071E-09 4.77667E-09
 -1       778-2.81070E+06-6.99628E+05-1.18919E+03-1.45110E+06 5.99539E-09 6.30644E-09
 -1       779-2.91439E+06-6.05741E+05-1.98093E+03-1.34707E+06-1.11468E-08-9.92441E-09
 -1       780-2.81720E+06-6.98391E+05-3.36425E+02-1.45982E+06-1.20999E-08-3.09228E-11
 -1       781-2.92046E+06-6.01177E+05-7.53181E+02-1.34939E+06-2.59024E-08-5.94810E-10
 -1       782-2.82217E+06-6.97319E+05 2.78459E+02-1.46624E+06-2.98205E-08-1.27939E-08
 -1       783-2.92471E+06-5.98034E+05 4.42410E+02-1.35102E+06-6.18456E-09-1.17329E-08
 -1       784-2.82488E+06-6.96121E+05 1.79777E+03-1.47019E+06-1.62545E-08 9.28594E-10
 -1       785-2.92721E+06-5.96172E+05 3.17592E+03-1.35207E+06-3.00788E-08 6.47015E-09
 -1       786 1.23672E+05-9.33192E+03 2.15894E+04-2.17828E+02 1.07392E-09 3.66072E-09
 -1       787 1.33034E+05 1.08037E+04 1.52738E+04-4.77395E+01 4.89644E-09-2.11558E-08
 -1       788 1.27282E+05-1.46262E+03 5.58599E+03-1.87621E+02 1.11030E-09 7.08110E-09
 -1       789 1.28829E+05 1.69241E+03 3.50719E+03-9.52537E+01 1.31681E-09 2.12714E-09
 -1       790 1.27878E+05-2.28030E+02 1.42113E+03-1.70325E+02-2.95344E-09 8.63650E-09
 -1       791 1.28132E+05 2.63573E+02 8.23012E+02-1.25092E+02-4.51656E-09 1.15174E-08
 -1       792 1.27979E+05-3.48450E+01 3.53149E+02-1.57783E+02-2.68470E-09 9.55885E-09
 -1       793 1.28012E+05 3.84480E+01 1.85696E+02-1.48688E+02-3.25292E-10-1.87762E-08
 -1       794 1.27997E+05-3.04844E+00 6.76293E+01-1.46729E+02 1.96104E-09-8.73438E-09
 -1       795 1.27985E+05-9.93604E+00-3.21992E+00-1.71693E+02-4.78171E-09 4.61304E-10
 -1       796 1.28007E+05 1.35131E+01-6.59401E+01-1.34778E+02 2.35883E-09-8.24111E-09
 -1       797 1.27938E+05-1.03895E+02-2.06019E+02-1.99002E+02 2.56506E-09-3.13788E-09
 -1       798 1.28044E+05 9.08393E+01-3.41488E+02-1.19419E+02 2.31467E-09 3.07280E-09
 -1       799 1.27677E+05-6.70363E+02-9.45509E+02-2.36507E+02 2.67859E-09-1.08284E-08
 -1       800 1.28268E+05 5.79513E+02-1.33978E+03-9.72729E+01 4.11925E-10 5.20322E-09
 -1       801-2.23831E+04-7.00038E+06-8.93144E+05 7.38258E+05 6.86268E-08-3.81515E-08
 -1       802 2.91410E+05 1.28806E+06 1.01191E+06-8.49626E+05 1.91740E-07-1.78948E-08
 -1       803-2.61936E+05-8.94610E+06-9.85132E+05 4.83922E+05 6.17183E-08 2.08001E-08
 -1       804 1.07775E+05-7.27487E+05 7.11189E+05 4.36329E+05-7.71142E-08-6.94999E-08
 -1       805 1.22918E+05-4.99873E+06-1.55507E+05-5.45003E+05-3.21379E-08-4.56812E-08
 -1       806-2.78113E+05-5.30750E+04-2.03667E+04-1.09350E+05-3.12184E-09 7.73070E-11
 -1       807-2.79834E+05-4.96316E+04-1.00059E+04-1.14150E+05 8.96216E-09 1.09853E-08
 -1       808-2.78663E+05-4.57447E+04-4.24491E+03-1.12832E+05 2.12231E-09 6.48504E-09
 -1       809-2.77736E+05-4.68153E+04-2.07568E+03-1.14391E+05-7.56245E-09 1.27561E-08
 -1       810-2.78748E+05-4.54894E+04-9.51348E+02-1.12986E+05 5.45242E-09 1.36399E-08
 -1       811-2.77575E+05-4.67015E+04-4.73083E+02-1.14360E+05-3.25736E-09-9.87347E-09
 -1       812-2.78761E+05-4.55109E+04-2.39148E+02-1.12986E+05-7.48696E-09-1.21540E-08
 -1       813-2.77553E+05-4.67030E+04-1.55318E+02-1.14344E+05-3.20460E-09-2.33536E-08
 -1       814-2.78756E+05-4.55187E+04-1.53632E+02-1.12983E+05 1.26420E-10-8.11087E-09
 -1       815-2.77558E+05-4.67046E+04-2.47507E+02-1.14339E+05 3.35558E-09-7.85781E-09
 -1       816-2.78739E+05-4.55170E+04-4.68852E+02-1.12981E+05 1.71713E-09 1.98179E-09
 -1       817-2.77639E+05-4.67490E+04-1.00654E+03-1.14330E+05-9.25274E-09 3.16111E-08
 -1       818-2.78680E+05-4.56578E+04-2.05276E+03-1.12914E+05-4.12274E-09-9.07039E-09
 -1       819-2.78763E+05-4.79905E+04-4.83058E+03-1.14068E+05 3.43516E-09 1.10256E-08
 -1       820-2.78298E+05-4.93024E+04-9.83168E+03-1.11351E+05-1.66438E-10 1.03498E-08
 -1       821-3.42338E+05 1.88844E+04-4.36947E+04 9.13631E+02 6.57901E-09-4.18004E-09
 -1       822-3.61192E+05-2.18623E+04-3.09063E+04-1.71310E+03 6.11733E-10 6.66660E-09
 -1       823-3.49594E+05 2.96235E+03-1.13132E+04 1.14545E+03-4.38413E-09 2.03636E-09
 -1       824-3.52674E+05-3.42586E+03-7.11275E+03-1.65711E+03 4.96954E-10 4.45198E-09
 -1       825-3.50852E+05 4.61891E+02-2.93494E+03 8.57661E+02 6.96710E-09 5.56292E-09
 -1       826-3.51157E+05-5.41437E+02-1.73922E+03-7.07370E+02 7.07873E-09-8.08797E-10
 -1       827-3.51108E+05 7.75595E+01-9.36811E+02 1.95682E+02 2.92626E-09-7.82097E-09
 -1       828-3.50942E+05-1.62942E+02-7.80534E+02 6.57135E+02-2.33067E-09 1.34947E-08
 -1       829-3.51066E+05 8.32659E+01-9.50137E+02-5.06865E+02-4.65548E-11 1.03549E-08
 -1       830-3.51260E+05-5.68181E+02-1.82103E+03 1.74697E+03 3.36499E-10 1.33943E-08
 -1       831-3.50794E+05 4.84871E+02-3.03765E+03-8.94170E+02-2.32538E-09-6.13238E-09
 -1       832-3.52761E+05-3.56572E+03-7.39934E+03 2.01022E+03 9.10774E-11-9.23933E-09
 -1       833-3.49567E+05 3.07957E+03-1.17698E+04-7.70120E+02-1.79914E-09-8.14043E-09
 -1       834-3.61508E+05-2.27315E+04-3.21211E+04 1.30217E+03-1.02440E-09-7.07587E-09
 -1       835-3.42047E+05 1.96340E+04-4.54493E+04-1.86104E+02 5.02723E-09 9.40418E-10
 -1       836-1.21692E+03 3.26663E+05 2.00512E+04-1.60340E+04-3.80442E-09-7.26232E-10
 -1       837 4.31510E+03 3.32924E+05 1.70562E+04-3.24783E+04-3.75803E-09-2.10239E-08
 -1       838-4.75626E+02 3.28407E+05 1.75035E+04-1.59665E+04-3.22689E-09 1.23159E-08
 -1       839 1.11055E+04 3.37984E+05 3.32345E+04-3.25242E+04-3.14367E-09 7.07382E-09
 -1       840-3.40533E+03 3.21554E+05 5.30505E+04-1.59903E+04-3.09592E-09 1.30427E-10
 -1       856-6.30219E+04 7.78340E+03-2.05112E+04-4.02767E+02 2.58984E-09-3.82079E-09
 -1       857-7.14814E+04-9.13814E+03-1.41204E+04 5.20406E+03 5.74261E-10-1.35253E-08
 -1       858-6.63687E+04 1.09114E+03-5.32252E+03-4.25737E+02 1.63169E-09-1.66178E-08
 -1       859-6.76397E+04-1.27701E+03-3.21276E+03 5.23920E+03-2.50706E-09-6.79893E-09
 -1       860-6.68688E+04 1.52371E+02-1.34785E+03-4.37810E+02 2.10522E-09-6.35322E-09
 -1       861-6.70642E+04-1.75697E+02-7.44422E+02 5.25571E+03 2.65626E-09-4.90203E-09
 -1       862-6.69469E+04 2.03945E+01-3.15335E+02-4.42243E+02 1.34706E-09-7.41514E-09
 -1       863-6.69695E+04-1.63053E+01-1.28239E+02 5.25809E+03 2.85172E-09 1.64572E-09
 -1       864-6.69639E+04-3.44121E+00 1.56879E+01-4.40186E+02 7.36890E-10 1.29793E-08
 -1       865-6.69238E+04 4.92737E+01 1.80582E+02 5.24691E+03-2.76017E-10 1.14065E-09
 -1       866-6.69907E+04-4.53555E+01 3.79372E+02-4.31070E+02-1.12948E-10-8.29795E-09
 -1       867-6.67412E+04 3.76182E+02 9.43738E+02 5.22210E+03 1.36436E-09-2.62082E-09
 -1       868-6.71422E+04-3.24898E+02 1.57057E+03-4.15372E+02 2.66596E-11-1.77438E-08
 -1       869-6.55868E+04 2.70383E+03 4.18562E+03 5.18082E+03-1.57536E-09-1.27080E-08
 -1       870-6.81384E+04-2.31044E+03 6.07372E+03-3.89757E+02-9.87256E-10-2.31694E-10
 -1       871-5.05796E+03-1.61864E+04-1.72588E+04 1.15166E+05-1.93904E-09 3.53793E-09
 -1       872-1.97589E+03-2.01429E+04-7.16747E+03 1.49322E+05-4.88762E-09 1.56556E-08
 -1       873 1.93879E+02-1.82562E+04 6.71383E+02 1.14914E+05-2.57660E-09 6.29052E-09
 -1       874 2.79354E+03-1.59953E+04 9.00868E+03 1.49356E+05-5.62795E-09-4.75461E-09
 -1       875 6.09342E+03-2.04007E+04 2.02071E+04 1.15125E+05-2.23918E-09-7.26777E-09
 -1       876 2.66543E+05 4.52234E+04 1.38300E+04 1.07320E+05-2.18563E-09-1.53250E-09
 -1       877 2.67426E+05 4.81669E+04 7.38568E+03 1.11315E+05-5.62750E-10-8.76469E-09
 -1       878 2.67836E+05 4.36923E+04 3.09425E+03 1.08454E+05-7.13226E-09-4.34693E-09
 -1       879 2.65546E+05 4.62914E+04 1.54166E+03 1.11410E+05 1.16734E-09 6.66677E-09
 -1       880 2.67929E+05 4.36761E+04 7.18020E+02 1.08501E+05-3.41538E-09 3.14071E-09
 -1       881 2.65421E+05 4.62114E+04 3.83222E+02 1.11389E+05-1.47629E-08 7.52944E-09
 -1       882 2.67938E+05 4.36880E+04 2.44815E+02 1.08502E+05-3.06727E-09 6.16227E-09
 -1       883 2.65413E+05 4.62073E+04 2.62612E+02 1.11383E+05 1.06763E-09 1.45391E-08
 -1       884 2.67932E+05 4.36853E+04 4.17238E+02 1.08502E+05 3.22063E-09 6.15591E-09
 -1       885 2.65446E+05 4.62131E+04 8.38557E+02 1.11393E+05-2.13268E-09 4.63888E-09
 -1       886 2.67899E+05 4.36608E+04 1.68993E+03 1.08499E+05-5.88574E-09-1.01411E-08
 -1       887 2.65743E+05 4.64079E+04 3.69138E+03 1.11436E+05 2.46507E-09-9.50183E-09
 -1       888 2.67666E+05 4.37019E+04 7.43823E+03 1.08381E+05-5.51782E-09-2.86946E-09
 -1       889 2.70172E+05 5.10121E+04 1.77688E+04 1.11299E+05-3.98303E-09 7.30870E-09
 -1       890 2.64633E+05 4.73051E+04 3.32803E+04 1.05547E+05-1.69166E-10 5.31145E-10
 -1       891-1.13097E+02-1.48742E+05-1.80747E+03 2.58241E+04-2.59433E-10 1.54009E-08
 -1       892-2.08006E+02-1.49202E+05-1.94682E+03 3.91574E+04 1.51999E-09 6.02085E-10
 -1       893 7.24217E+00-1.48799E+05-2.76223E+03 2.58304E+04-6.66432E-10 1.10545E-08
 -1       894-1.42438E+03-1.50249E+05-5.72098E+03 3.90146E+04 9.82254E-10 1.97360E-08
 -1       895-1.12447E+03-1.47608E+05-1.00762E+04 2.59670E+04-6.40966E-10 1.53932E-08
 -1       956-3.40342E+05-4.84551E+03-1.20675E+04 2.58000E+04 1.40153E-09-5.86556E-09
 -1       957-3.42716E+05-1.67549E+03-6.19446E+03 3.10354E+04-4.82078E-09 1.02648E-08
 -1       958-3.41421E+05-1.76090E+02-2.79114E+03 2.56532E+04-2.48929E-09 2.13026E-09
 -1       959-3.41603E+05-7.61090E+01-1.42543E+03 3.12018E+04 3.31238E-09-2.19075E-09
 -1       960-3.41522E+05-2.96590E+00-6.95063E+02 2.56384E+04 2.76805E-09 2.38811E-08
 -1       961-3.41527E+05-1.28457E+01-3.68746E+02 3.12190E+04 3.56818E-09 4.11001E-09
 -1       962-3.41545E+05-5.65319E+00-2.11305E+02 2.56361E+04-3.24690E-10 1.88220E-09
 -1       963-3.41526E+05-1.00782E+01-1.70015E+02 3.12220E+04 3.66754E-09 1.35969E-10
 -1       964-3.41549E+05-2.96185E+00-2.07079E+02 2.56354E+04 1.52141E-10 1.28198E-08
 -1       965-3.41537E+05-7.11313E+00-3.58432E+02 3.12215E+04-1.08673E-09-7.01675E-09
 -1       966-3.41536E+05 5.03728E+00-6.73452E+02 2.56365E+04 2.76805E-09 5.51199E-09
 -1       967-3.41621E+05-6.28832E+01-1.38137E+03 3.12099E+04-3.70005E-09 1.31126E-08
 -1       968-3.41445E+05-1.57507E+02-2.70392E+03 2.56470E+04-5.93445E-10-2.55864E-09
 -1       969-3.42710E+05-1.60819E+03-6.00302E+03 3.10880E+04-1.04410E-09-3.00466E-09
 -1       970-3.40407E+05-4.67934E+03-1.16936E+04 2.57551E+04-2.69665E-10-6.35828E-09
 -1       971-3.14738E+05-1.59817E+03-8.71952E+03 1.43653E+04 2.21735E-09-8.56531E-09
 -1       972-3.16845E+05-1.16423E+03-4.74857E+03 1.99509E+04 6.78483E-10-6.86259E-09
 -1       973-3.15709E+05-3.88242E+01-2.12673E+03 1.42491E+04-9.81345E-10-1.39889E-08
 -1       974-3.15844E+05-4.92779E+01-1.10219E+03 2.00799E+04-1.09321E-09-4.52792E-09
 -1       975-3.15785E+05 2.82624E+00-5.50804E+02 1.42378E+04-6.76209E-10-2.43449E-09
 -1       976-3.15786E+05-2.90456E+00-3.17522E+02 2.00941E+04 5.23141E-09-6.18456E-09
 -1       977-3.15800E+05 3.23205E+00-2.30002E+02 1.42348E+04 4.25189E-09-1.51078E-09
 -1       978-3.15790E+05 2.69413E+00-2.68537E+02 2.00983E+04 7.80494E-09-1.15476E-08
 -1       979-3.15800E+05 1.08445E+01-4.30927E+02 1.42336E+04 4.83033E-09 4.75802E-09
 -1       980-3.15822E+05 5.45234E+00-8.31734E+02 2.00991E+04-1.46508E-09 3.80203E-09
 -1       981-3.15774E+05 3.16126E+01-1.61070E+03 1.42341E+04-2.07012E-09 6.35004E-09
 -1       982-3.16043E+05-1.13520E+02-3.32918E+03 2.00930E+04-9.79969E-09-7.22982E-09
 -1       983-3.15571E+05-7.14663E+01-6.46856E+03 1.42398E+04-6.87805E-09-4.28508E-09
 -1       984-3.19154E+05-3.49175E+03-1.44859E+04 2.00124E+04-2.58660E-09 1.80880E-08
 -1       985-3.12642E+05-4.80474E+03-2.66006E+04 1.43127E+04-3.65617E-10 5.85351E-09
 -3
    1PSTEP                        25          13           1          
  100CL  113 6.27563E-01         409                     0   13           1
 -4  DISP        4    1
 -5  D1          1    2    1    0
 -5  D2          1    2    2    0
 -5  D3          1    2    3    0
 -5  ALL         1    2    0    0    1ALL
 -1         1 1.72297E-03 0.00000E+00 0.00000E+00
 -1         2 1.61322E-03 3.35793E-28 2.64698E-23
 -1         3 2.93780E-04-1.19210E-27-1.32349E-23
 -1         5 1.58799E-04 2.56884E-26-3.30872E-24
 -1         8 1.70497E-03-5.58043E-07 0.00000E+00
 -1         9 1.66655E-03-4.87227E-06 0.00000E+00
 -1        10 2.66889E-04-3.39681E-06 0.00000E+00
 -1        12 1.59983E-04 7.41385E-07 8.27181E-25
 -1        15 1.68318E-03-6.12388E-07 0.00000E+00
 -1        16 1.68972E-03-5.87633E-06 0.00000E+00
 -1        17 1.83395E-04-7.54587E-06 0.00000E+00
 -1        18 1.62062E-04 2.51649E-05 0.00000E+00
 -1        19 1.63537E-04 1.47804E-06 0.00000E+00
 -1        20 1.63682E-04-2.64422E-06 0.00000E+00
 -1        21 1.62885E-04-1.00011E-05 0.00000E+00
 -1        24 2.83980E-05-1.10857E-05 0.00000E+00
 -1        25 1.69524E-04 2.53638E-05 0.00000E+00
 -1        26 1.70220E-04 2.04793E-06 0.00000E+00
 -1        27 1.68201E-04-5.94084E-06 0.00000E+00
 -1        28 1.67846E-04-1.05870E-05 0.00000E+00
 -1        32 0.00000E+00 0.00000E+00 0.00000E+00
 -1        33 1.75864E-04 2.74188E-06 0.00000E+00
 -1        34 1.73898E-04-5.98541E-06 0.00000E+00
 -1        35 1.72092E-04-1.09060E-05 0.00000E+00
 -1        51 1.72182E-03-1.03647E-07 0.00000E+00
 -1        52 1.71966E-03-1.93491E-07 0.00000E+00
 -1        53 1.71670E-03-2.81668E-07 0.00000E+00
 -1        54 1.71313E-03-3.70274E-07 0.00000E+00
 -1        55 1.70915E-03-4.60804E-07-2.48154E-24
 -1        56 1.71946E-03 4.44882E-08 5.29396E-23
 -1        57 1.71495E-03 2.36269E-06-5.29396E-23
 -1        58 1.70972E-03 6.60385E-06 1.05879E-22
 -1        59 1.70395E-03 1.22175E-05 5.29396E-23
 -1        60 1.69793E-03 1.84677E-05-1.05879E-22
 -1        61 1.69196E-03 2.45635E-05-5.29396E-23
 -1        62 1.68635E-03 2.97382E-05 0.00000E+00
 -1        63 1.68135E-03 3.32914E-05 0.00000E+00
 -1        64 1.67715E-03 3.47635E-05 0.00000E+00
 -1        65 1.67384E-03 3.38482E-05 0.00000E+00
 -1        66 1.67141E-03 3.05941E-05-1.05879E-22
 -1        67 1.66977E-03 2.52241E-05 0.00000E+00
 -1        68 1.66871E-03 1.82753E-05 1.05879E-22
 -1        69 1.66801E-03 1.04098E-05 5.29396E-23
 -1        70 1.66735E-03 2.41299E-06 0.00000E+00
 -1        86 1.61590E-03-7.73078E-07 2.64698E-23
 -1        87 1.62386E-03-1.57315E-06 1.32349E-23
 -1        88 1.63514E-03-2.40261E-06 0.00000E+00
 -1        89 1.64768E-03-3.24641E-06-1.32349E-23
 -1        90 1.65897E-03-4.07647E-06-2.64698E-23
 -1       121 2.93025E-04-5.53509E-07 0.00000E+00
 -1       122 2.90762E-04-1.10921E-06-6.61744E-24
 -1       123 2.87000E-04-1.66926E-06-1.32349E-23
 -1       124 2.81754E-04-2.23583E-06-6.61744E-24
 -1       125 2.75041E-04-2.81077E-06 0.00000E+00
 -1       191 1.58832E-04 1.23593E-07 2.48154E-24
 -1       192 1.58930E-04 2.47180E-07-1.24077E-24
 -1       193 1.59095E-04 3.70759E-07-8.27181E-25
 -1       194 1.59325E-04 4.94324E-07-1.65436E-24
 -1       195 1.59621E-04 6.17868E-07 0.00000E+00
 -1       251 1.70419E-03 1.88059E-05 1.32349E-23
 -1       252 1.70237E-03 6.91927E-05 6.61744E-24
 -1       253 1.69930E-03 1.41548E-04-1.32349E-23
 -1       254 1.69528E-03 2.26308E-04-6.61744E-24
 -1       255 1.69130E-03 3.10496E-04 0.00000E+00
 -1       256 1.68833E-03 3.81150E-04 6.61744E-24
 -1       257 1.68663E-03 4.29026E-04-1.32349E-23
 -1       258 1.68589E-03 4.45403E-04-6.61744E-24
 -1       259 1.68517E-03 4.29789E-04-1.32349E-23
 -1       260 1.68349E-03 3.82481E-04 0.00000E+00
 -1       261 1.68054E-03 3.12047E-04 0.00000E+00
 -1       262 1.67654E-03 2.27587E-04 0.00000E+00
 -1       263 1.67246E-03 1.42055E-04 0.00000E+00
 -1       264 1.66928E-03 6.84257E-05 0.00000E+00
 -1       265 1.66738E-03 1.63835E-05 2.64698E-23
 -1       266 1.70133E-03-5.75275E-07 0.00000E+00
 -1       267 1.69770E-03-5.83336E-07 0.00000E+00
 -1       268 1.69407E-03-5.91978E-07-8.27181E-25
 -1       269 1.69044E-03-5.98899E-07-2.06795E-25
 -1       270 1.68681E-03-6.05780E-07 0.00000E+00
 -1       271 1.70266E-03 2.80234E-06-1.32349E-23
 -1       272 1.70031E-03 6.19782E-06-1.32349E-23
 -1       273 1.69799E-03 9.50898E-06 0.00000E+00
 -1       274 1.69575E-03 1.26032E-05-1.32349E-23
 -1       275 1.69364E-03 1.53549E-05-2.64698E-23
 -1       276 1.69170E-03 1.76408E-05 0.00000E+00
 -1       277 1.68998E-03 1.93448E-05 0.00000E+00
 -1       278 1.68852E-03 2.03577E-05 0.00000E+00
 -1       279 1.68736E-03 2.05802E-05 0.00000E+00
 -1       280 1.68653E-03 1.99229E-05-1.32349E-23
 -1       281 1.68606E-03 1.83088E-05 0.00000E+00
 -1       282 1.68597E-03 1.56730E-05 1.32349E-23
 -1       283 1.68628E-03 1.19650E-05-2.64698E-23
 -1       284 1.68700E-03 7.14871E-06 0.00000E+00
 -1       285 1.68814E-03 1.20156E-06 2.64698E-23
 -1       301 1.67076E-03-5.06154E-06-1.32349E-23
 -1       302 1.67400E-03-5.22015E-06 3.30872E-24
 -1       303 1.67688E-03-5.37538E-06 0.00000E+00
 -1       304 1.68005E-03-5.53065E-06 0.00000E+00
 -1       305 1.68412E-03-5.69081E-06 0.00000E+00
 -1       306 1.69702E-03-1.20472E-04 0.00000E+00
 -1       307 1.76053E-03-4.43605E-04 0.00000E+00
 -1       308 1.82475E-03-9.22789E-04 0.00000E+00
 -1       309 1.87921E-03-1.48598E-03 0.00000E+00
 -1       310 1.93537E-03-2.03589E-03 1.05879E-22
 -1       311 2.00167E-03-2.47647E-03 5.29396E-23
 -1       312 2.05987E-03-2.74284E-03 1.05879E-22
 -1       313 2.07200E-03-2.79536E-03-5.29396E-23
 -1       314 1.99196E-03-2.63781E-03 1.05879E-22
 -1       315 1.78988E-03-2.30682E-03 5.29396E-23
 -1       316 1.47672E-03-1.86080E-03-1.05879E-22
 -1       317 1.09405E-03-1.35874E-03-5.29396E-23
 -1       318 7.18123E-04-8.61932E-04 1.05879E-22
 -1       319 4.23280E-04-4.32500E-04 0.00000E+00
 -1       320 2.44003E-04-1.29040E-04-1.05879E-22
 -1       336 2.57140E-04-4.04036E-06 0.00000E+00
 -1       337 2.45645E-04-4.70230E-06 0.00000E+00
 -1       338 2.32456E-04-5.38392E-06 0.00000E+00
 -1       339 2.17638E-04-6.08548E-06 0.00000E+00
 -1       340 2.01258E-04-6.81054E-06 1.32349E-23
 -1       406 1.60411E-04 8.64862E-07 2.48154E-24
 -1       407 1.60905E-04 9.88270E-07-1.24077E-24
 -1       408 1.61465E-04 1.11157E-06-8.27181E-25
 -1       409 1.62090E-04 1.23461E-06 8.27181E-25
 -1       410 1.62781E-04 1.35714E-06 0.00000E+00
 -1       521 1.72120E-03-1.30021E-04 1.05879E-22
 -1       522 1.78469E-03-4.72202E-04-5.29396E-23
 -1       523 1.84582E-03-9.78255E-04-1.05879E-22
 -1       524 1.89477E-03-1.57050E-03 5.29396E-23
 -1       525 1.94597E-03-2.14801E-03 0.00000E+00
 -1       526 2.01030E-03-2.61136E-03 0.00000E+00
 -1       527 2.06873E-03-2.89039E-03 1.05879E-22
 -1       528 2.08001E-03-2.94423E-03-5.29396E-23
 -1       529 1.99246E-03-2.77602E-03-2.11758E-22
 -1       530 1.77367E-03-2.42761E-03 5.29396E-23
 -1       531 1.43454E-03-1.96051E-03 1.05879E-22
 -1       532 1.02088E-03-1.43706E-03 0.00000E+00
 -1       533 6.13908E-04-9.18479E-04 1.05879E-22
 -1       534 2.92893E-04-4.66844E-04 0.00000E+00
 -1       535 9.67086E-05-1.44551E-04 1.05879E-22
 -1       536 1.82813E-04 2.19966E-05 6.61744E-24
 -1       537 1.81391E-04 7.33525E-05-3.30872E-24
 -1       538 1.79211E-04 1.38575E-04 3.30872E-24
 -1       539 1.76648E-04 2.09645E-04 0.00000E+00
 -1       540 1.74339E-04 2.76784E-04 0.00000E+00
 -1       541 1.72826E-04 3.30235E-04 0.00000E+00
 -1       542 1.72111E-04 3.64166E-04 0.00000E+00
 -1       543 1.71914E-04 3.72867E-04-1.65436E-24
 -1       544 1.71637E-04 3.57047E-04 0.00000E+00
 -1       545 1.70731E-04 3.17592E-04-1.65436E-24
 -1       546 1.69085E-04 2.61531E-04 0.00000E+00
 -1       547 1.66883E-04 1.95995E-04-1.65436E-24
 -1       548 1.64709E-04 1.30899E-04 3.30872E-24
 -1       549 1.63134E-04 7.61562E-05 1.65436E-24
 -1       550 1.62301E-04 3.86525E-05 0.00000E+00
 -1       551 1.61944E-04-8.03386E-06 0.00000E+00
 -1       552 1.37547E-04-8.58226E-06 0.00000E+00
 -1       553 1.11091E-04-9.17823E-06-8.27181E-24
 -1       554 8.34790E-05-9.80519E-06-3.30872E-24
 -1       555 5.56152E-05-1.04410E-05 2.64698E-23
 -1       556 1.77006E-04 8.84657E-06 0.00000E+00
 -1       557 1.71876E-04 2.20572E-05 2.64698E-23
 -1       558 1.67884E-04 3.23398E-05 0.00000E+00
 -1       559 1.64917E-04 3.99683E-05 0.00000E+00
 -1       560 1.62862E-04 4.52169E-05 0.00000E+00
 -1       561 1.61606E-04 4.83619E-05 0.00000E+00
 -1       562 1.61042E-04 4.96805E-05 2.64698E-23
 -1       563 1.61060E-04 4.94506E-05 0.00000E+00
 -1       564 1.61554E-04 4.79507E-05 0.00000E+00
 -1       565 1.62418E-04 4.54600E-05 0.00000E+00
 -1       566 1.63548E-04 4.22578E-05-6.61744E-24
 -1       567 1.64837E-04 3.86240E-05 0.00000E+00
 -1       568 1.66184E-04 3.48384E-05 1.03398E-24
 -1       569 1.67483E-04 3.11807E-05 0.00000E+00
 -1       570 1.68630E-04 2.79307E-05 0.00000E+00
 -1       571 1.62151E-04 2.36309E-05 8.27181E-25
 -1       572 1.62243E-04 2.20386E-05 0.00000E+00
 -1       573 1.62335E-04 2.04013E-05 1.65436E-24
 -1       574 1.62427E-04 1.87332E-05 1.65436E-24
 -1       575 1.62519E-04 1.70485E-05 0.00000E+00
 -1       576 1.62611E-04 1.53612E-05 1.65436E-24
 -1       577 1.62704E-04 1.36857E-05 0.00000E+00
 -1       578 1.62796E-04 1.20362E-05 0.00000E+00
 -1       579 1.62888E-04 1.04268E-05 0.00000E+00
 -1       580 1.62981E-04 8.87187E-06 0.00000E+00
 -1       581 1.63073E-04 7.38561E-06 0.00000E+00
 -1       582 1.63166E-04 5.98219E-06 0.00000E+00
 -1       583 1.63259E-04 4.67585E-06 6.61744E-24
 -1       584 1.63352E-04 3.48062E-06 0.00000E+00
 -1       585 1.63445E-04 2.41044E-06 0.00000E+00
 -1       586 1.63259E-04 2.52000E-05 0.00000E+00
 -1       587 1.64421E-04 2.52346E-05 4.13590E-25
 -1       588 1.65588E-04 2.52688E-05 0.00000E+00
 -1       589 1.66801E-04 2.53024E-05 0.00000E+00
 -1       590 1.68100E-04 2.53348E-05 0.00000E+00
 -1       591 1.62579E-04 2.37092E-05-1.03398E-25
 -1       592 1.63102E-04 2.22313E-05 0.00000E+00
 -1       593 1.63630E-04 2.07371E-05-8.27181E-25
 -1       594 1.64162E-04 1.92315E-05 0.00000E+00
 -1       595 1.64696E-04 1.77193E-05 0.00000E+00
 -1       596 1.65231E-04 1.62056E-05 0.00000E+00
 -1       597 1.65764E-04 1.46950E-05 8.27181E-25
 -1       598 1.66295E-04 1.31926E-05-4.13590E-25
 -1       599 1.66821E-04 1.17031E-05-8.27181E-25
 -1       600 1.67340E-04 1.02313E-05 0.00000E+00
 -1       601 1.67851E-04 8.78227E-06-4.13590E-25
 -1       602 1.68351E-04 7.36068E-06 2.06795E-25
 -1       603 1.68839E-04 5.97147E-06 8.27181E-25
 -1       604 1.69314E-04 4.61956E-06 1.71252E-25
 -1       605 1.69774E-04 3.30976E-06 0.00000E+00
 -1       606 1.63551E-04 7.57142E-07 0.00000E+00
 -1       607 1.63561E-04 1.25254E-07 0.00000E+00
 -1       608 1.63570E-04-4.22850E-07 3.30872E-24
 -1       609 1.63579E-04-8.93060E-07 0.00000E+00
 -1       610 1.63588E-04-1.29132E-06 0.00000E+00
 -1       611 1.63596E-04-1.62363E-06 0.00000E+00
 -1       612 1.63605E-04-1.89601E-06 0.00000E+00
 -1       613 1.63614E-04-2.11448E-06 0.00000E+00
 -1       614 1.63623E-04-2.28507E-06 0.00000E+00
 -1       615 1.63631E-04-2.41379E-06-8.27181E-25
 -1       616 1.63640E-04-2.50667E-06 0.00000E+00
 -1       617 1.63649E-04-2.56973E-06 0.00000E+00
 -1       618 1.63657E-04-2.60899E-06 0.00000E+00
 -1       619 1.63666E-04-2.63048E-06 0.00000E+00
 -1       620 1.63674E-04-2.64022E-06-2.06795E-25
 -1       621 1.64427E-04 1.57340E-06 1.65436E-24
 -1       622 1.65440E-04 1.66904E-06 8.27181E-25
 -1       623 1.66552E-04 1.76456E-06-3.30872E-24
 -1       624 1.67737E-04 1.85982E-06 8.27181E-25
 -1       625 1.68968E-04 1.95486E-06-1.65436E-24
 -1       626 1.63912E-04 7.90375E-07 0.00000E+00
 -1       627 1.64262E-04 1.70517E-07 1.65436E-24
 -1       628 1.64590E-04-3.89347E-07-3.30872E-24
 -1       629 1.64898E-04-8.97387E-07 0.00000E+00
 -1       630 1.65190E-04-1.36180E-06 0.00000E+00
 -1       631 1.65469E-04-1.79079E-06-1.65436E-24
 -1       632 1.65738E-04-2.19258E-06 0.00000E+00
 -1       633 1.66000E-04-2.57538E-06 0.00000E+00
 -1       634 1.66257E-04-2.94743E-06 0.00000E+00
 -1       635 1.66514E-04-3.31692E-06 0.00000E+00
 -1       636 1.66772E-04-3.69208E-06 3.30872E-24
 -1       637 1.67036E-04-4.08113E-06 0.00000E+00
 -1       638 1.67308E-04-4.49228E-06-3.30872E-24
 -1       639 1.67592E-04-4.93378E-06 8.27181E-25
 -1       640 1.67889E-04-5.41385E-06 1.65436E-24
 -1       656 1.63914E-04-3.18020E-06-6.61744E-24
 -1       657 1.64553E-04-3.73786E-06 6.61744E-24
 -1       658 1.65460E-04-4.29411E-06-1.32349E-23
 -1       659 1.66489E-04-4.85000E-06 0.00000E+00
 -1       660 1.67461E-04-5.40757E-06 0.00000E+00
 -1       661 1.63770E-04-2.68872E-06 0.00000E+00
 -1       662 1.63893E-04-2.81592E-06 0.00000E+00
 -1       663 1.64044E-04-3.02145E-06 0.00000E+00
 -1       664 1.64224E-04-3.29973E-06 0.00000E+00
 -1       665 1.64428E-04-3.64577E-06-1.65436E-24
 -1       666 1.64656E-04-4.05454E-06 0.00000E+00
 -1       667 1.64906E-04-4.52122E-06 0.00000E+00
 -1       668 1.65176E-04-5.04107E-06-8.27181E-25
 -1       669 1.65464E-04-5.60950E-06 1.65436E-24
 -1       670 1.65769E-04-6.22205E-06 0.00000E+00
 -1       671 1.66088E-04-6.87433E-06 1.65436E-24
 -1       672 1.66421E-04-7.56209E-06-8.27181E-25
 -1       673 1.66765E-04-8.28110E-06 1.65436E-24
 -1       674 1.67119E-04-9.02751E-06-8.27181E-25
 -1       675 1.67481E-04-9.79686E-06 4.13590E-25
 -1       676 1.63714E-04-1.00994E-05 0.00000E+00
 -1       677 1.64543E-04-1.01975E-05 0.00000E+00
 -1       678 1.65372E-04-1.02956E-05 0.00000E+00
 -1       679 1.66198E-04-1.03935E-05 0.00000E+00
 -1       680 1.67023E-04-1.04913E-05-1.65436E-24
 -1       771 1.82018E-05 1.15023E-05 5.29396E-23
 -1       772 9.59405E-06 3.00502E-05 0.00000E+00
 -1       773 2.49879E-06 4.47574E-05 0.00000E+00
 -1       774-3.18700E-06 5.58461E-05-2.64698E-23
 -1       775-7.56450E-06 6.35464E-05 5.29396E-23
 -1       776-1.07389E-05 6.81018E-05-2.64698E-23
 -1       777-1.28156E-05 6.97636E-05-5.29396E-23
 -1       778-1.39022E-05 6.87941E-05 0.00000E+00
 -1       779-1.41060E-05 6.54621E-05 5.29396E-23
 -1       780-1.35361E-05 6.00456E-05 0.00000E+00
 -1       781-1.23011E-05 5.28275E-05 0.00000E+00
 -1       782-1.05111E-05 4.40981E-05 0.00000E+00
 -1       783-8.27559E-06 3.41510E-05-5.29396E-23
 -1       784-5.70504E-06 2.32847E-05 0.00000E+00
 -1       785-2.90940E-06 1.18001E-05-5.29396E-23
 -1       786 1.69563E-04 2.36870E-05 0.00000E+00
 -1       787 1.69606E-04 2.20585E-05-4.13590E-25
 -1       788 1.69649E-04 2.04704E-05-8.27181E-25
 -1       789 1.69692E-04 1.89148E-05 0.00000E+00
 -1       790 1.69736E-04 1.73870E-05 0.00000E+00
 -1       791 1.69780E-04 1.58825E-05 0.00000E+00
 -1       792 1.69823E-04 1.43990E-05 0.00000E+00
 -1       793 1.69867E-04 1.29346E-05 0.00000E+00
 -1       794 1.69911E-04 1.14889E-05-1.65436E-24
 -1       795 1.69955E-04 1.00618E-05 8.27181E-25
 -1       796 1.69999E-04 8.65509E-06 1.65436E-24
 -1       797 1.70043E-04 7.27053E-06 0.00000E+00
 -1       798 1.70087E-04 5.91217E-06 0.00000E+00
 -1       799 1.70131E-04 4.58414E-06-8.27181E-25
 -1       800 1.70175E-04 3.29363E-06 0.00000E+00
 -1       801 1.32163E-04 2.26440E-05 0.00000E+00
 -1       802 1.88688E-05 1.44101E-05 2.64698E-23
 -1       803-7.94183E-05 7.46272E-06 5.29396E-23
 -1       804-7.32011E-05 5.12035E-06 0.00000E+00
 -1       805-2.45906E-05 2.15407E-06 5.29396E-23
 -1       806 1.70046E-04 2.36243E-05 0.00000E+00
 -1       807 1.70555E-04 2.19112E-05-1.65436E-24
 -1       808 1.71051E-04 2.02292E-05 0.00000E+00
 -1       809 1.71534E-04 1.85818E-05 0.00000E+00
 -1       810 1.72003E-04 1.69724E-05 3.30872E-24
 -1       811 1.72456E-04 1.54044E-05 0.00000E+00
 -1       812 1.72893E-04 1.38812E-05 0.00000E+00
 -1       813 1.73311E-04 1.24062E-05 0.00000E+00
 -1       814 1.73710E-04 1.09827E-05 1.65436E-24
 -1       815 1.74089E-04 9.61413E-06 0.00000E+00
 -1       816 1.74446E-04 8.30377E-06-1.65436E-24
 -1       817 1.74780E-04 7.05497E-06 8.27181E-25
 -1       818 1.75090E-04 5.87107E-06-1.65436E-24
 -1       819 1.75374E-04 4.75540E-06 8.27181E-25
 -1       820 1.75632E-04 3.71126E-06 0.00000E+00
 -1       821 1.70100E-04 6.04366E-07 8.27181E-25
 -1       822 1.69973E-04-1.27678E-06 1.65436E-24
 -1       823 1.69846E-04-3.39021E-06 0.00000E+00
 -1       824 1.69717E-04-5.52922E-06 0.00000E+00
 -1       825 1.69588E-04-7.48082E-06-3.30872E-24
 -1       826 1.69460E-04-9.03302E-06 0.00000E+00
 -1       827 1.69333E-04-1.00762E-05 0.00000E+00
 -1       828 1.69206E-04-1.05038E-05 1.65436E-24
 -1       829 1.69079E-04-1.03668E-05 3.30872E-24
 -1       830 1.68952E-04-9.71963E-06 0.00000E+00
 -1       831 1.68825E-04-8.74731E-06 0.00000E+00
 -1       832 1.68697E-04-7.63682E-06 1.65436E-24
 -1       833 1.68570E-04-6.61058E-06 0.00000E+00
 -1       834 1.68445E-04-5.89048E-06 0.00000E+00
 -1       835 1.68319E-04-5.62021E-06 0.00000E+00
 -1       836 1.71355E-04 2.16315E-06 3.30872E-24
 -1       837 1.72372E-04 2.28117E-06-1.65436E-24
 -1       838 1.73299E-04 2.39909E-06 0.00000E+00
 -1       839 1.74170E-04 2.51632E-06-8.27181E-25
 -1       840 1.75014E-04 2.63338E-06-8.27181E-25
 -1       856 1.68183E-04-6.48896E-06 0.00000E+00
 -1       857 1.68161E-04-6.90856E-06 0.00000E+00
 -1       858 1.68139E-04-7.21965E-06 0.00000E+00
 -1       859 1.68117E-04-7.44234E-06 2.06795E-25
 -1       860 1.68095E-04-7.59680E-06 8.27181E-25
 -1       861 1.68072E-04-7.70327E-06-4.13590E-25
 -1       862 1.68050E-04-7.78202E-06-8.27181E-25
 -1       863 1.68028E-04-7.85336E-06 4.13590E-25
 -1       864 1.68005E-04-7.93758E-06 0.00000E+00
 -1       865 1.67983E-04-8.05499E-06 0.00000E+00
 -1       866 1.67960E-04-8.22583E-06-8.27181E-25
 -1       867 1.67938E-04-8.47035E-06 4.13590E-25
 -1       868 1.67915E-04-8.80869E-06-8.27181E-25
 -1       869 1.67893E-04-9.26095E-06-4.13590E-25
 -1       870 1.67870E-04-9.84708E-06 0.00000E+00
 -1       871 1.69016E-04-5.94423E-06 0.00000E+00
 -1       872 1.69968E-04-5.95068E-06 0.00000E+00
 -1       873 1.70995E-04-5.95774E-06 0.00000E+00
 -1       874 1.72034E-04-5.96549E-06-3.61892E-25
 -1       875 1.73023E-04-5.97380E-06-8.27181E-25
 -1       876 1.68526E-04-6.47562E-06 0.00000E+00
 -1       877 1.68830E-04-6.94738E-06 0.00000E+00
 -1       878 1.69113E-04-7.36365E-06 0.00000E+00
 -1       879 1.69379E-04-7.73143E-06 1.65436E-24
 -1       880 1.69629E-04-8.05775E-06-3.30872E-24
 -1       881 1.69866E-04-8.34959E-06 0.00000E+00
 -1       882 1.70093E-04-8.61393E-06 0.00000E+00
 -1       883 1.70312E-04-8.85772E-06-1.65436E-24
 -1       884 1.70527E-04-9.08792E-06-3.30872E-24
 -1       885 1.70738E-04-9.31148E-06 1.65436E-24
 -1       886 1.70950E-04-9.53536E-06-3.30872E-24
 -1       887 1.71164E-04-9.76653E-06-1.65436E-24
 -1       888 1.71384E-04-1.00120E-05 3.30872E-24
 -1       889 1.71611E-04-1.02788E-05 0.00000E+00
 -1       890 1.71847E-04-1.05739E-05 0.00000E+00
 -1       891 1.68689E-04-1.06405E-05 1.65436E-24
 -1       892 1.69511E-04-1.06942E-05 4.13590E-25
 -1       893 1.70286E-04-1.07478E-05 8.27181E-25
 -1       894 1.70990E-04-1.08012E-05-8.27181E-25
 -1       895 1.71600E-04-1.08545E-05 0.00000E+00
 -1       956 1.75743E-04 1.93021E-06-1.65436E-24
 -1       957 1.75621E-04 1.20075E-06 8.27181E-25
 -1       958 1.75497E-04 5.43963E-07 0.00000E+00
 -1       959 1.75374E-04-5.02112E-08 0.00000E+00
 -1       960 1.75251E-04-5.91870E-07 0.00000E+00
 -1       961 1.75128E-04-1.09115E-06 0.00000E+00
 -1       962 1.75004E-04-1.55818E-06 3.30872E-24
 -1       963 1.74881E-04-2.00314E-06 0.00000E+00
 -1       964 1.74758E-04-2.43616E-06-3.30872E-24
 -1       965 1.74635E-04-2.86741E-06-1.65436E-24
 -1       966 1.74511E-04-3.30704E-06 3.30872E-24
 -1       967 1.74388E-04-3.76521E-06 0.00000E+00
 -1       968 1.74265E-04-4.25206E-06 0.00000E+00
 -1       969 1.74142E-04-4.77771E-06 0.00000E+00
 -1       970 1.74019E-04-5.35226E-06 0.00000E+00
 -1       971 1.73787E-04-6.61274E-06-3.30872E-24
 -1       972 1.73673E-04-7.14890E-06-1.65436E-24
 -1       973 1.73560E-04-7.60393E-06-3.30872E-24
 -1       974 1.73446E-04-7.98829E-06 1.65436E-24
 -1       975 1.73333E-04-8.31244E-06 3.30872E-24
 -1       976 1.73219E-04-8.58684E-06-1.65436E-24
 -1       977 1.73106E-04-8.82201E-06 0.00000E+00
 -1       978 1.72992E-04-9.02843E-06 1.65436E-24
 -1       979 1.72878E-04-9.21662E-06 3.30872E-24
 -1       980 1.72765E-04-9.39710E-06-1.65436E-24
 -1       981 1.72651E-04-9.58036E-06 0.00000E+00
 -1       982 1.72538E-04-9.77693E-06 0.00000E+00
 -1       983 1.72425E-04-9.99731E-06 3.30872E-24
 -1       984 1.72312E-04-1.02520E-05 0.00000E+00
 -1       985 1.72200E-04-1.05515E-05 0.00000E+00
 -3
    1PSTEP                        26          13           1          
  100CL  113 6.27563E-01         409                     0   13           1
 -4  STRESS      6    1
 -5  SXX         1    4    1    1
 -5  SYY         1    4    2    2
 -5  SZZ         1    4    3    3
 -5  SXY         1    4    1    2
 -5  SYZ         1    4    2    3
 -5  SZX         1    4    3    1
 -1         1-4.13112E+06-1.56637E+06-9.07688E+05-1.57771E+06-3.20142E-10 7.34581E-08
 -1         2 1.10275E+03-2.16776E+06 5.01712E+03 5.01056E+04 1.24470E-09 2.60397E-08
 -1         3-1.04648E+03-1.57459E+06 3.88513E+02-1.87699E+03-1.92070E-10 2.72994E-08
 -1         5-3.15006E+01 3.53763E+05 9.11250E+00-7.25245E-01-3.28650E-10 1.82481E-08
 -1         8-7.26721E+05-2.46613E+05-6.77344E+04-3.02284E+05 2.36469E-11 1.72506E-07
 -1         9 5.94842E+06-7.05462E+05 1.02406E+06-1.00988E+06 2.23983E-08 1.06636E-08
 -1        10-1.95651E+03-1.64076E+06-3.57384E+03-1.26844E+04-1.17052E-08-1.35309E-08
 -1        12-2.78221E+01 3.53782E+05 2.97028E+02-5.12134E+00-4.40604E-10 1.77251E-08
 -1        15 1.35456E+03 7.44404E+02 4.37860E+03 2.12711E+00-2.23579E-10 8.75524E-08
 -1        16 1.35741E+07-2.41160E+05 1.93434E+06-1.21480E+06 2.11682E-08 1.04386E-07
 -1        17 4.84741E+06 3.31332E+06 1.30708E+06 3.31731E+06 1.26165E-08 1.96625E-08
 -1        18 8.88831E+04 1.91095E+04-6.36883E+03-1.06174E+05 1.27870E-08-4.07272E-09
 -1        19 1.12792E+05 1.30149E+05-8.89662E+02 2.08636E+04 1.02245E-09-7.80601E-09
 -1        20-7.04099E+04-5.30325E+05-1.18628E+05 2.62517E+04-7.36388E-10 2.25555E-10
 -1        21-4.41732E+01-2.80206E+05-8.80794E+02 1.59444E+02 9.02327E-09-3.24200E-08
 -1        24 7.81972E+06 6.67027E+06 2.28017E+06 6.18405E+06-1.31520E-07-4.75363E-08
 -1        25 3.49030E+04-6.33783E+04 1.52903E+04-4.55633E+05-2.08320E-09 3.71419E-09
 -1        26-4.95515E+04 8.44737E+04-2.26292E+04-6.18691E+02 8.29823E-10 5.04747E-09
 -1        27-7.28958E+04-2.87321E+05-1.05703E+05 6.41213E+04 4.16397E-09 2.07031E-09
 -1        28 2.12222E+04-8.01045E+04 1.59691E+04 2.05649E+04-1.19832E-09 8.84788E-09
 -1        32-1.58491E+06-2.85252E+06-1.58341E+05 1.21222E+05-3.58123E-08-4.67401E-09
 -1        33-1.66367E+05 8.50869E+04 2.98799E+04-3.67716E+04-1.80864E-09 1.44222E-08
 -1        34-2.08742E+05-2.27097E+04 6.16360E+02 6.92352E+04-2.77564E-09 6.54836E-10
 -1        35-2.17901E+04-3.17814E+04-1.26234E+03 4.87726E+04-2.12073E-09 3.91568E-09
 -1        51 4.58797E+04-2.29055E+05 1.00021E+05-6.71385E+05-2.47383E-10-9.89530E-09
 -1        52 1.70018E+04-2.13592E+05 5.45925E+04-7.82747E+05 4.43833E-10-4.37722E-08
 -1        53 5.25412E+03-2.28829E+05 3.17940E+04-6.68926E+05 6.80302E-10-1.42354E-07
 -1        54 1.24244E+04-2.25473E+05 3.29290E+04-7.85316E+05-6.03904E-10-1.05705E-07
 -1        55 2.59655E+04-2.35562E+05 4.80053E+04-6.68560E+05 1.81899E-10 1.34576E-07
 -1        56-7.81317E+06-8.87074E+05-6.71576E+05-3.05599E+06-1.86556E-08-1.47847E-08
 -1        57-8.21183E+06-1.36230E+06-4.52287E+05-2.87696E+06 4.80577E-09-6.95072E-08
 -1        58-7.91488E+06-1.13207E+06-1.57766E+05-3.04951E+06-2.19807E-08-3.91083E-08
 -1        59-8.10036E+06-1.06962E+06-9.39238E+04-2.88150E+06 2.46910E-08-1.20756E-07
 -1        60-7.92393E+06-1.17146E+06-3.66080E+04-3.05478E+06-2.96404E-08 1.69213E-07
 -1        61-8.07345E+06-1.03828E+06-2.06289E+04-2.89178E+06-2.20598E-09 1.62238E-07
 -1        62-7.94098E+06-1.16262E+06-1.02848E+04-3.03923E+06-2.09257E-08 7.38873E-08
 -1        63-8.02317E+06-1.07792E+06-7.50793E+03-2.93993E+06 3.56299E-08-1.75643E-07
 -1        64-7.97223E+06-1.13299E+06-9.99603E+03-3.00523E+06-6.38101E-09-1.13975E-07
 -1        65-7.96056E+06-1.14553E+06-1.77488E+04-3.01163E+06-3.38878E-08 7.46959E-08
 -1        66-8.00305E+06-1.09553E+06-3.29894E+04-2.96710E+06 2.45200E-09 1.74878E-08
 -1        67-7.92714E+06-1.23266E+06-8.23729E+04-3.07288E+06-2.32067E-08-7.81656E-08
 -1        68-8.00778E+06-1.04561E+06-1.38657E+05-2.94502E+06-1.59453E-08 3.07045E-08
 -1        69-8.03895E+06-1.48154E+06-3.98221E+05-3.06343E+06-3.10902E-08-3.45171E-08
 -1        70-7.89481E+06-8.52009E+05-5.90214E+05-2.97578E+06 6.38829E-09 3.34112E-08
 -1        86-1.19056E+03-2.20776E+06-3.22716E+03-2.50473E+04-9.05348E-09-1.04424E-07
 -1        87 1.23112E+03-2.18258E+06 1.89724E+03 8.09921E+04-1.49880E-08-9.72335E-08
 -1        88-4.03901E+01-2.19444E+06-1.12776E+03-5.59393E+04-1.49107E-08 1.67424E-07
 -1        89 2.65816E+02-2.19100E+06-1.70352E+03 1.00271E+05-2.20821E-08-1.16888E-07
 -1        90 4.54061E+02-2.20015E+06-5.87579E+03-4.43362E+04-9.61904E-09-1.39381E-07
 -1       121-1.44711E+03-1.57812E+06-2.66826E+02 9.32753E+02 1.36892E-09 1.95359E-08
 -1       122-8.79188E+02-1.57461E+06 7.69794E+02-3.75232E+03-4.64887E-09-1.23509E-09
 -1       123-1.48712E+03-1.57824E+06 5.74463E+02 2.78542E+03 3.65083E-09-8.12361E-09
 -1       124 7.17794E+02-1.57403E+06 3.04611E+03-7.84917E+03-8.31869E-09 1.03682E-08
 -1       125-2.34483E+03-1.57912E+06 3.93114E+03 5.00341E+03 5.50062E-09-2.28101E-08
 -1       191-3.33610E+01 3.53787E+05 9.63128E+00 3.70564E-01-3.73428E-10 1.85519E-08
 -1       192-3.23543E+01 3.53763E+05 1.93546E+01-2.51089E+00-5.22015E-10 1.44419E-08
 -1       193-3.56218E+01 3.53787E+05 3.47677E+01 2.18986E+00-6.73747E-10-2.44290E-09
 -1       194-3.50972E+01 3.53766E+05 7.33553E+01-5.76574E+00-3.57677E-10 3.72529E-09
 -1       195-3.99638E+01 3.53785E+05 1.42254E+02 3.68491E+00-1.02765E-09-3.30692E-09
 -1       251-2.02804E+06-3.30492E+04-1.89845E+05-1.32655E+05 3.77258E-09 2.32576E-07
 -1       252-1.11227E+06 4.15818E+04 5.13862E+04 4.09060E+05 7.83984E-10-1.34908E-07
 -1       253-1.62531E+06-1.44111E+04-3.30621E+04-2.72842E+05 8.01811E-09-1.05832E-07
 -1       254-1.54214E+06 5.94266E+04 8.90178E+03 5.42483E+05 1.65371E-08 1.31065E-07
 -1       255-1.64069E+06-1.62115E+04-1.90686E+04-2.69838E+05 5.12682E-09-3.65208E-09
 -1       256-1.07441E+06 4.80861E+04 1.03874E+05 3.96327E+05-2.39979E-08 7.47900E-08
 -1       257-2.04725E+06-4.03737E+04-1.02777E+05-1.22766E+05 1.38789E-08 1.22930E-07
 -1       258-6.16634E+05 3.62889E+04 1.90556E+05 4.72495E+03 9.66156E-09-1.30604E-07
 -1       259-2.05346E+06-4.10078E+04-1.02474E+05 1.19356E+05 1.62636E-08 1.48237E-08
 -1       260-1.05954E+06 4.96369E+04 1.11277E+05-3.89807E+05-1.02773E-09 1.76144E-07
 -1       261-1.64792E+06-1.82764E+04-1.19624E+04 2.69203E+05 6.46487E-08 1.60383E-07
 -1       262-1.53691E+06 7.00855E+04 3.03911E+04-5.41136E+05-5.41957E-08-1.68054E-08
 -1       263-1.62321E+06-2.30361E+04 2.53887E+03 2.74710E+05 1.68557E-08 8.98426E-08
 -1       264-1.09696E+06 1.07959E+05 1.42101E+05-4.14687E+05 1.10644E-07 5.65415E-08
 -1       265-2.04682E+06-8.94206E+04-5.56626E+04 1.39050E+05 4.72392E-08 5.47334E-08
 -1       266-2.45220E+04-1.14665E+04 5.75355E+04-4.55137E+01-2.11003E-10-3.37242E-08
 -1       267 2.84278E+04 1.33644E+04 4.06653E+04 5.25136E+01 7.04858E-11 1.26744E-07
 -1       268-3.81211E+03-1.89277E+03 1.51151E+04-6.69116E+00-3.27418E-11 8.69723E-08
 -1       269 4.50098E+03 2.26525E+03 9.82456E+03 7.79419E+00 2.68301E-11-1.32923E-07
 -1       270-6.75603E+02-3.72198E+02 4.74246E+03-1.05773E+00 3.33102E-11 1.17214E-08
 -1       271-2.32513E+06-2.80749E+05-1.75721E+05-8.95947E+05 1.21836E-08-3.61979E-08
 -1       272-2.44032E+06-3.63136E+05-1.13866E+05-8.36938E+05 6.99583E-09-7.02566E-08
 -1       273-2.35732E+06-3.27650E+05-4.14635E+04-8.89030E+05-3.90901E-09 1.76406E-08
 -1       274-2.40224E+06-3.06528E+05-2.34502E+04-8.47259E+05 1.76697E-08-9.45424E-08
 -1       275-2.36221E+06-3.32470E+05-9.66599E+03-8.87345E+05-1.18130E-08-4.60568E-09
 -1       276-2.39491E+06-3.02100E+05-5.11872E+03-8.50636E+05 2.63658E-08 1.28966E-08
 -1       277-2.36420E+06-3.31768E+05-2.55141E+03-8.85595E+05 3.69891E-09 6.26974E-08
 -1       278-2.39048E+06-3.04871E+05-1.65377E+03-8.54377E+05-9.23137E-10 2.09457E-09
 -1       279-2.36619E+06-3.29927E+05-1.86694E+03-8.83308E+05 3.01043E-08-2.49941E-07
 -1       280-2.38594E+06-3.09658E+05-2.96960E+03-8.59060E+05-1.89211E-08-1.67083E-07
 -1       281-2.36830E+06-3.27284E+05-5.69450E+03-8.80594E+05-3.79441E-09-4.00300E-08
 -1       282-2.38315E+06-3.18585E+05-1.31101E+04-8.64142E+05 9.51695E-09 8.08709E-08
 -1       283-2.36869E+06-3.21521E+05-2.35795E+04-8.77879E+05-6.59384E-09 1.34337E-08
 -1       284-2.39804E+06-3.56658E+05-6.39133E+04-8.65400E+05 2.32021E-08 2.50002E-08
 -1       285-2.35367E+06-2.92167E+05-9.91609E+04-8.78202E+05 9.33869E-09 4.57876E-08
 -1       301 1.63059E+04-4.26399E+05 1.73726E+05-7.59548E+05 9.53150E-10-1.55334E-07
 -1       302 1.78114E+04-3.82383E+05 1.06896E+05-1.11059E+06-1.89175E-09 2.51757E-08
 -1       303-4.20867E+03-4.11512E+05 6.78372E+04-7.57685E+05-9.45874E-11-6.42613E-08
 -1       304 7.73012E+03-3.85156E+05 8.11800E+04-1.10990E+06-7.42148E-10-4.76321E-08
 -1       305 3.73446E+03-4.13519E+05 1.16128E+05-7.60124E+05-1.37334E-10 8.14689E-08
 -1       306-2.19298E+07-4.26405E+06-5.72853E+06-1.60458E+06-7.39819E-08-2.37575E-07
 -1       307 1.62440E+07 4.68646E+05 3.60330E+06-1.00419E+07-6.76198E-07-3.07744E-07
 -1       308-8.11278E+06-2.23323E+05-4.90922E+05 3.41398E+06-9.89239E-08 2.34235E-07
 -1       309-3.35296E+06 3.12340E+06 1.23598E+06-1.57186E+07 3.70623E-07 1.27136E-07
 -1       310-9.93753E+06-4.99525E+05-9.26593E+05 3.21674E+06-1.38185E-07-2.13840E-08
 -1       311 2.04298E+07-7.84753E+05 4.31288E+06-7.53520E+06 2.23517E-07-9.40199E-08
 -1       312-2.24201E+07-4.24987E+06-5.22683E+06-3.19566E+06-1.20839E-07 1.43657E-07
 -1       313 2.89543E+07 6.91675E+06 6.83450E+06 1.27043E+07-2.96393E-07 5.82077E-09
 -1       314-1.48304E+07-1.05497E+07-4.87988E+06-9.04640E+06 2.38011E-07-1.12806E-07
 -1       315-1.25589E+06 1.74677E+07 3.78151E+06 8.69896E+06-2.00758E-07 2.20898E-08
 -1       316-9.39564E+05-7.63180E+06-4.42163E+05-4.13064E+06-8.79110E-07-2.74129E-07
 -1       317-1.59248E+07 1.56233E+07 1.21068E+06-3.12795E+06 3.86470E-07-4.93819E-07
 -1       318-1.84676E+06-8.28580E+06-9.94203E+05-4.58109E+06-8.07864E-07 1.19122E-07
 -1       319 1.93696E+06 1.81436E+07 4.05481E+06 1.00529E+07-1.12064E-07 1.73808E-07
 -1       320-1.65700E+07-1.09157E+07-6.21483E+06-8.90096E+06 1.43424E-07-2.40980E-08
 -1       336-7.51007E+01-1.70837E+06-1.27778E+04 7.58194E+03-2.21089E-08 2.41198E-09
 -1       337-4.89229E+03-1.70911E+06-1.64259E+04-1.83431E+04-4.03279E-08-7.28869E-09
 -1       338 6.08507E+02-1.70801E+06-2.50386E+04 1.06105E+04-2.87682E-08 1.96233E-08
 -1       339-2.66046E+04-1.72384E+06-5.66535E+04-2.42508E+04-5.31281E-08 1.96105E-08
 -1       340 1.77855E+04-1.69520E+06-8.89042E+04 1.33944E+04-3.40733E-08 1.75351E-08
 -1       406-6.36112E+00 3.53771E+05 5.85108E+02 1.59915E+00-1.19702E-09 5.36602E-09
 -1       407 1.76785E+02 3.53885E+05 1.24631E+03 1.60088E+01-3.70278E-10-6.57110E-09
 -1       408 6.12881E+02 3.53681E+05 2.48745E+03-1.80042E+01-1.59275E-09 9.38780E-09
 -1       409 2.66567E+03 3.54679E+05 5.60251E+03 1.86712E+02-3.16049E-10 4.33256E-08
 -1       410 7.70865E+03 3.52970E+05 1.14361E+04-1.78688E+02-1.86083E-09 1.74805E-08
 -1       521-2.37488E+07-5.26906E+06-6.79165E+06-1.43087E+06-7.32252E-08 8.89995E-08
 -1       522 1.70508E+07 7.64985E+05 3.71102E+06-1.26703E+07-4.30562E-07-2.52025E-07
 -1       523-9.12740E+06-4.38406E+05-5.30943E+05 3.85577E+06 1.10304E-07-3.23496E-07
 -1       524-5.87699E+06 4.88000E+06 1.37071E+06-1.85953E+07 7.61363E-07-4.76033E-07
 -1       525-1.11269E+07-8.41068E+05-1.03937E+06 3.64031E+06 3.34170E-07-2.63259E-07
 -1       526 2.23774E+07-8.72093E+05 4.61872E+06-9.70068E+06 5.15138E-08 6.51926E-09
 -1       527-2.43733E+07-5.39287E+06-6.09678E+06-3.19291E+06 1.47731E-07 7.84785E-08
 -1       528 3.21368E+07 7.59401E+06 7.25501E+06 1.45426E+07-2.23285E-07-9.76142E-08
 -1       529-1.60640E+07-1.22628E+07-5.67819E+06-9.50239E+06 1.36555E-07-1.30618E-07
 -1       530-3.14164E+06 2.07870E+07 4.06886E+06 9.08010E+06-8.99890E-08 4.20201E-07
 -1       531-1.12736E+06-8.82326E+06-4.66763E+05-4.50651E+06-7.24889E-07 2.98809E-07
 -1       532-1.91307E+07 1.80486E+07 1.36743E+06-5.56732E+06 3.89788E-07-5.33088E-07
 -1       533-2.02193E+06-9.48333E+06-1.06059E+06-4.90853E+06-1.32510E-07-8.08039E-07
 -1       534 2.04518E+05 2.15280E+07 4.30960E+06 1.06354E+07-3.91883E-08 6.29865E-07
 -1       535-1.78695E+07-1.27220E+07-7.17007E+06-9.33242E+06 5.86733E-08 3.69851E-07
 -1       536-6.21448E+05-4.20205E+04-1.66800E+04-4.32894E+04-2.36287E-09 5.19849E-08
 -1       537-1.37506E+05 4.16372E+04 7.43528E+04 1.01596E+05-8.70158E-08 8.08704E-08
 -1       538-3.90314E+05 1.31156E+03 7.43919E+03-6.07131E+04 2.16050E-08 8.94843E-08
 -1       539-2.98434E+05 3.07808E+03 2.09457E+04 1.15502E+05 1.26243E-07 8.32596E-08
 -1       540-4.64457E+05-2.17723E+02-1.41794E+04-5.75258E+04-7.51902E-09 8.72699E-08
 -1       541 6.56982E+03 1.24725E+04 7.85743E+04 7.89012E+04-2.69885E-08 6.67670E-08
 -1       542-6.87124E+05-1.48808E+04-6.16330E+04-2.35729E+04 3.96008E-08 4.17695E-08
 -1       543 1.95791E+05 2.01062E+04 1.15766E+05-1.14714E+04 8.06085E-09-5.97356E-09
 -1       544-6.48626E+05-1.20171E+04-5.47051E+04 3.24271E+04-9.97625E-09-3.89494E-08
 -1       545-8.27024E+04 6.55406E+03 5.74621E+04-9.32856E+04-4.05055E-09-7.48990E-08
 -1       546-4.16069E+05 4.80758E+03-9.29598E+03 5.80342E+04 3.14658E-08-8.62523E-08
 -1       547-3.12991E+05-4.63803E+03 5.62760E+03-1.18069E+05-1.20805E-07-7.58638E-08
 -1       548-4.24487E+05 4.28044E+03-2.04779E+04 5.76380E+04-8.25230E-08-6.89492E-08
 -1       549-6.61785E+04 6.12445E+03 3.67940E+04-9.06494E+04-5.09314E-08-6.13545E-08
 -1       550-6.56255E+05-1.14570E+04-1.06029E+05 3.01660E+04 9.04038E-09-3.40951E-08
 -1       551 3.43033E+04-7.52670E+05 3.55824E+02-1.17547E+06-8.70787E-08-1.06520E-08
 -1       552 7.74031E+04-7.86663E+05 1.90319E+04-1.67610E+06-6.15546E-08 2.94385E-08
 -1       553 5.85215E+04-7.86460E+05 3.80996E+04-1.16977E+06-1.03209E-07 2.39525E-08
 -1       554 1.12259E+05-7.96341E+05 8.80840E+04-1.67803E+06-6.56000E-08 1.31840E-08
 -1       555 8.80013E+04-8.08545E+05 1.58681E+05-1.16995E+06-1.06316E-07-8.15635E-09
 -1       556 1.87704E+05-3.28869E+05 4.54700E+04-3.66593E+05-1.93395E-08-7.10133E-09
 -1       557 3.05130E+05-4.22935E+05 2.56663E+04-4.70561E+05-4.77303E-09-2.89037E-09
 -1       558 1.75134E+05-3.27640E+05 7.54223E+03-3.66382E+05-1.89757E-08-5.92263E-09
 -1       559 2.83466E+05-4.26644E+05 4.68556E+03-4.86322E+05 1.48866E-08-2.13549E-09
 -1       560 1.63716E+05-3.20435E+05 2.54782E+02-3.74471E+05 1.19908E-08 7.67250E-09
 -1       561 2.68844E+05-4.20994E+05 7.66128E+02-4.96158E+05 2.67755E-09-2.63753E-10
 -1       562 1.54706E+05-3.14793E+05-6.15489E+02-3.80967E+05 4.80213E-10-1.38643E-08
 -1       563 2.58178E+05-4.16343E+05 1.50916E+02-5.03090E+05 9.96806E-10 1.24510E-09
 -1       564 1.48382E+05-3.10840E+05-3.16573E+02-3.85439E+05 3.28873E-09-3.96949E-09
 -1       565 2.51292E+05-4.13346E+05 7.54398E+01-5.07480E+05 7.78891E-09 1.67802E-10
 -1       566 1.44842E+05-3.08594E+05-1.44107E+02-3.87917E+05-8.68022E-09-1.20435E-08
 -1       567 2.48201E+05-4.11998E+05-2.57291E+02-5.09328E+05 1.19908E-08 1.51704E-09
 -1       568 1.44156E+05-3.08182E+05-8.55471E+02-3.88493E+05 1.67347E-10 2.33922E-09
 -1       569 2.47682E+05-4.11970E+05-2.16084E+03-5.07709E+05-1.81717E-09 1.35624E-08
 -1       570 1.47293E+05-3.11037E+05-4.78042E+03-3.87656E+05 1.03537E-08 3.26418E-09
 -1       571 2.66894E+05 9.68648E+03 1.39879E+04-8.19347E+04 2.56568E-09 1.34382E-08
 -1       572 2.68939E+05 3.56195E+03 6.85458E+03-8.98878E+04 4.31191E-09 1.19144E-09
 -1       573 2.67709E+05 1.03950E+03 3.04559E+03-8.17746E+04 4.51746E-09-8.91760E-09
 -1       574 2.67924E+05 5.41302E+02 1.52694E+03-9.00851E+04-2.00089E-11 3.27873E-09
 -1       575 2.67799E+05 2.93908E+02 7.20506E+02-8.17529E+04-2.71262E-09-6.82212E-09
 -1       576 2.67795E+05 2.92642E+02 3.68499E+02-9.01114E+04-3.34421E-09-1.51404E-08
 -1       577 2.67830E+05 2.43613E+02 1.83745E+02-8.17499E+04-1.62163E-09 6.73117E-09
 -1       578 2.67812E+05 2.63800E+02 1.05392E+02-9.01149E+04-3.85990E-09 1.01491E-08
 -1       579 2.67882E+05 2.18620E+02 7.19683E+01-8.17496E+04 3.08137E-09-7.10588E-09
 -1       580 2.67885E+05 2.28172E+02 8.19479E+01-9.01106E+04-8.87303E-09 9.51150E-09
 -1       581 2.67964E+05 1.78135E+02 1.23843E+02-8.17547E+04 3.10865E-09 4.32919E-09
 -1       582 2.68016E+05 2.08817E+02 2.49930E+02-9.00576E+04 3.83534E-09 3.13776E-10
 -1       583 2.68063E+05 2.31573E+02 4.81516E+02-8.18029E+04 1.24055E-09 1.92131E-10
 -1       584 2.68318E+05 6.20999E+02 1.08736E+03-8.96515E+04 2.48292E-09-8.25366E-09
 -1       585 2.68057E+05 1.55078E+03 2.20470E+03-8.21605E+04-1.52613E-09-3.03044E-09
 -1       586-3.19721E+03 1.01093E+05-3.12262E+03-2.33113E+05-4.68981E-09-7.72297E-09
 -1       587-1.07955E+03 1.00779E+05 4.58798E+02-2.56569E+05-3.77258E-09-2.27224E-08
 -1       588 5.53885E+02 1.00674E+05 4.19679E+03-2.32992E+05-3.23780E-10 1.24346E-08
 -1       589 4.82955E+03 1.02880E+05 1.11065E+04-2.56332E+05-2.64845E-09 8.06176E-09
 -1       590 1.52328E+04 9.94635E+04 2.33852E+04-2.33392E+05-1.70803E-09-4.72573E-09
 -1       591-6.42364E+04-1.44347E+04-2.00528E+04-2.82615E+04-4.28577E-09 2.17460E-09
 -1       592-6.76285E+04-1.78486E+04-1.08621E+04-3.17698E+04-6.45471E-09 1.95105E-08
 -1       593-6.62438E+04-1.29776E+04-4.52144E+03-2.97299E+04 2.44370E-10 4.02929E-09
 -1       594-6.48564E+04-1.49097E+04-2.25499E+03-3.18791E+04 1.80624E-09 2.86377E-09
 -1       595-6.63970E+04-1.29726E+04-1.03543E+03-2.97967E+04 1.38436E-09 5.87946E-09
 -1       596-6.46669E+04-1.47753E+04-5.26457E+02-3.18569E+04 5.37923E-10-1.07229E-08
 -1       597-6.64162E+04-1.29862E+04-2.86860E+02-2.97992E+04 2.07933E-09-6.43706E-09
 -1       598-6.46482E+04-1.47701E+04-2.30952E+02-3.18507E+04 2.00589E-09-5.99380E-09
 -1       599-6.64150E+04-1.29866E+04-2.95449E+02-2.97989E+04 6.88522E-09-3.32826E-08
 -1       600-6.46671E+04-1.47761E+04-5.49196E+02-3.18552E+04 1.01644E-08 3.33591E-09
 -1       601-6.63926E+04-1.29735E+04-1.08362E+03-2.97956E+04 7.29005E-09 3.70505E-09
 -1       602-6.48654E+04-1.49159E+04-2.36173E+03-3.18750E+04-8.44466E-10-1.34800E-08
 -1       603-6.62297E+04-1.29814E+04-4.73629E+03-2.97263E+04 9.61791E-11-1.05370E-08
 -1       604-6.77848E+04-1.79769E+04-1.13776E+04-3.17384E+04 3.52156E-09 2.63010E-08
 -1       605-6.41088E+04-1.45236E+04-2.10046E+04-2.82054E+04 2.98155E-09 1.37652E-08
 -1       606 2.69668E+04-1.30429E+04-2.33988E+04 2.48759E+04 4.10182E-09 9.20409E-10
 -1       607 2.29671E+04-4.25067E+03-1.16522E+04 2.79446E+04 9.82254E-10 4.97539E-09
 -1       608 2.52438E+04-7.58318E+02-5.21673E+03 2.46925E+04 4.50746E-09-7.35167E-09
 -1       609 2.48037E+04-2.48938E+02-2.63521E+03 2.81653E+04 1.52650E-08 3.06261E-09
 -1       610 2.50453E+04-2.42548E+01-1.25763E+03 2.46712E+04-2.14914E-09 8.44875E-09
 -1       611 2.49732E+04-2.07373E+01-6.34077E+02 2.81893E+04-1.45374E-08 8.27663E-09
 -1       612 2.49991E+04-9.68813E+00-3.01795E+02 2.46690E+04-3.78168E-09 2.56478E-09
 -1       613 2.49803E+04-1.50831E+01-1.35523E+02 2.81921E+04 3.15458E-09-2.35923E-09
 -1       614 2.49763E+04-1.38384E+01-3.26575E+01 2.46683E+04 2.75577E-09-8.44693E-10
 -1       615 2.49727E+04-1.22231E+01 5.48195E+01 2.81925E+04 1.18598E-09-3.10069E-09
 -1       616 2.49585E+04-9.75467E+00 1.66185E+02 2.46686E+04 1.05747E-08-3.64003E-09
 -1       617 2.49907E+04 2.44246E+01 3.79944E+02 2.81920E+04 2.10134E-08 2.31080E-09
 -1       618 2.49240E+04 1.00723E+02 7.66078E+02 2.46688E+04 9.17362E-09-9.24729E-10
 -1       619 2.52599E+04 6.17531E+02 1.72048E+03 2.81913E+04 5.03860E-10-1.77140E-08
 -1       620 2.46688E+04 1.91799E+03 3.45815E+03 2.46693E+04 1.83718E-10 1.04728E-09
 -1       621 4.08504E+02 2.75296E+05 3.34621E+03 3.17866E+04 6.83940E-10-4.43652E-09
 -1       622 5.26630E+02 2.76087E+05 3.01702E+03 4.61768E+04 7.58064E-10 1.75532E-09
 -1       623 8.41587E+01 2.75472E+05 3.68999E+03 3.16407E+04 6.55064E-10 3.38559E-09
 -1       624 1.83930E+03 2.77224E+05 7.20448E+03 4.63218E+04 6.82178E-10-1.50976E-08
 -1       625 1.81789E+03 2.74048E+05 1.26148E+04 3.16378E+04 1.13278E-09-2.23667E-09
 -1       626 2.40103E+05 5.85457E+04 4.89530E+03 1.19172E+05 1.76624E-09 5.36602E-10
 -1       627 2.37769E+05 6.00002E+04 2.35899E+03 1.23387E+05 5.33964E-09 1.22764E-08
 -1       628 2.40233E+05 5.62957E+04 9.97394E+02 1.19991E+05-4.89308E-10 1.60617E-09
 -1       629 2.37146E+05 5.93636E+04 4.88208E+02 1.23629E+05 2.26100E-09 1.26395E-08
 -1       630 2.40246E+05 5.61877E+04 2.26230E+02 1.20023E+05 4.43742E-09-1.31863E-09
 -1       631 2.37078E+05 5.93409E+04 1.21458E+02 1.23631E+05 6.04336E-09 1.42742E-08
 -1       632 2.40240E+05 5.61927E+04 7.94321E+01 1.20018E+05 4.84170E-09-8.61792E-09
 -1       633 2.37068E+05 5.93438E+04 8.77137E+01 1.23626E+05-3.18778E-10-8.12724E-09
 -1       634 2.40234E+05 5.61911E+04 1.41064E+02 1.20016E+05 7.45229E-09-1.47566E-10
 -1       635 2.37080E+05 5.93430E+04 2.85042E+02 1.23629E+05 2.08935E-08 4.31669E-09
 -1       636 2.40224E+05 5.61866E+04 5.75429E+02 1.20015E+05 1.23481E-08 2.30330E-09
 -1       637 2.37203E+05 5.94328E+04 1.26495E+03 1.23628E+05-6.17649E-09-3.05745E-08
 -1       638 2.40179E+05 5.64665E+04 2.59907E+03 1.19888E+05-4.56748E-09 5.22959E-10
 -1       639 2.38568E+05 6.13314E+04 6.14926E+03 1.23225E+05-9.18817E-10 2.92130E-09
 -1       640 2.39992E+05 6.21340E+04 1.27608E+04 1.17496E+05 1.06206E-08 2.20066E-08
 -1       656 6.18710E+04-1.58009E+06-1.49355E+05-1.76555E+03-3.49246E-10 1.38888E-09
 -1       657-8.18336E+04-1.64756E+06-1.23695E+05 6.07418E+03-1.18234E-10 1.24484E-09
 -1       658 1.97068E+04-1.59926E+06-7.61359E+04-3.62077E+03 4.91127E-11 2.70420E-09
 -1       659-8.83675E+04-1.65066E+06-1.32280E+05 7.54856E+03-1.64528E-09 5.75305E-09
 -1       660 6.83900E+04-1.57699E+06-1.64115E+05-3.23992E+03-1.19326E-09 1.44844E-08
 -1       661 1.61388E+05 1.70742E+04 1.66165E+04 6.30970E+04 1.17598E-09 1.25510E-10
 -1       662 1.70618E+05 2.95404E+04 1.11979E+04 5.95560E+04 4.38547E-10-1.32195E-09
 -1       663 1.64650E+05 2.24057E+04 3.91654E+03 6.21508E+04-3.06602E-09-2.16412E-08
 -1       664 1.66837E+05 2.33045E+04 2.34258E+03 6.07109E+04 1.99890E-10-2.56428E-08
 -1       665 1.65144E+05 2.31350E+04 9.24135E+02 6.20077E+04 2.38924E-09-5.38495E-09
 -1       666 1.66253E+05 2.24697E+04 5.40467E+02 6.08969E+04 3.57768E-09 1.63137E-08
 -1       667 1.65230E+05 2.32187E+04 2.86737E+02 6.19727E+04 7.65823E-10 9.07624E-09
 -1       668 1.66159E+05 2.24083E+04 2.91375E+02 6.09479E+04-3.36792E-09 4.88432E-09
 -1       669 1.65238E+05 2.31946E+04 3.93840E+02 6.19571E+04-3.15544E-09 2.41810E-08
 -1       670 1.66255E+05 2.26213E+04 8.56990E+02 6.09503E+04-7.22799E-09-5.26705E-09
 -1       671 1.65134E+05 2.30102E+04 1.52145E+03 6.19683E+04-1.69081E-10 8.01037E-10
 -1       672 1.67142E+05 2.41014E+04 3.89243E+03 6.07357E+04 4.86055E-09-1.29331E-08
 -1       673 1.64355E+05 2.17518E+04 6.52303E+03 6.21575E+04 2.52464E-09-7.12930E-09
 -1       674 1.73351E+05 3.45806E+04 1.86545E+04 5.89109E+04 6.70298E-10-2.26646E-08
 -1       675 1.58965E+05 1.28244E+04 2.76897E+04 6.36829E+04-7.10770E-10 2.92857E-09
 -1       676 2.29027E+01-2.80133E+05-1.06159E+03-7.97239E+01 1.30805E-09-1.67946E-08
 -1       677-2.81528E+02-2.80390E+05-1.94288E+03 1.59331E+02 4.92693E-09 1.96321E-09
 -1       678 1.88257E+02-2.79950E+05-3.43451E+03-7.95534E+01-3.95630E-11 1.23923E-08
 -1       679-3.43521E+03-2.82463E+05-8.15892E+03 1.58679E+02 5.50551E-09-1.08606E-08
 -1       680 2.05049E+03-2.78061E+05-1.31494E+04-7.81864E+01 1.09958E-09 2.34323E-09
 -1       771-2.92428E+06-6.72774E+05-1.30378E+05-1.36866E+06-2.75613E-08-2.31375E-08
 -1       772-2.85977E+06-7.49669E+05-6.75069E+04-1.45720E+06-2.47819E-08 9.69158E-09
 -1       773-2.94894E+06-6.53427E+05-3.37864E+04-1.37905E+06-1.07975E-08 9.41509E-09
 -1       774-2.85062E+06-7.35497E+05-1.52058E+04-1.47676E+06 2.62371E-08-4.25644E-09
 -1       775-2.96115E+06-6.44809E+05-1.09559E+04-1.38378E+06 1.16415E-10 1.54250E-09
 -1       776-2.85897E+06-7.33634E+05-4.16524E+03-1.49115E+06-5.54428E-09 7.37782E-09
 -1       777-2.97159E+06-6.37232E+05-4.69122E+03-1.38794E+06 4.45289E-09 2.37924E-09
 -1       778-2.86778E+06-7.31964E+05-1.34961E+03-1.50346E+06 3.87081E-09 6.67569E-09
 -1       779-2.98049E+06-6.30664E+05-2.29785E+03-1.39151E+06-8.73115E-09-8.89122E-09
 -1       780-2.87552E+06-7.30365E+05-3.85551E+02-1.51348E+06-4.48199E-09-8.00355E-11
 -1       781-2.98752E+06-6.25397E+05-8.78542E+02-1.39430E+06-1.78989E-08-6.98492E-10
 -1       782-2.88146E+06-7.28992E+05 3.27353E+02-1.52085E+06-3.24217E-08-3.81078E-09
 -1       783-2.99245E+06-6.21759E+05 5.18060E+02-1.39626E+06-8.53470E-09-1.45956E-08
 -1       784-2.88470E+06-7.27516E+05 2.10454E+03-1.52540E+06-1.75642E-08 1.58752E-09
 -1       785-2.99536E+06-6.19598E+05 3.71848E+03-1.39752E+06-2.99660E-08 7.35963E-09
 -1       786 1.24036E+05-9.47327E+03 2.19166E+04-2.47729E+02 3.21374E-09 5.68252E-09
 -1       787 1.33541E+05 1.09675E+04 1.55052E+04-7.30232E+01 4.01095E-09-5.77302E-09
 -1       788 1.27701E+05-1.48470E+03 5.67057E+03-2.16123E+02 3.00273E-09 9.36734E-09
 -1       789 1.29271E+05 1.71809E+03 3.56015E+03-1.22339E+02 1.17719E-11-1.68110E-08
 -1       790 1.28306E+05-2.31399E+02 1.44228E+03-1.98425E+02-2.22525E-09-6.59497E-09
 -1       791 1.28564E+05 2.67515E+02 8.34658E+02-1.52799E+02-7.26806E-09 1.32100E-08
 -1       792 1.28409E+05-3.52109E+01 3.56948E+02-1.85664E+02-5.94776E-09-1.36406E-08
 -1       793 1.28442E+05 3.83911E+01 1.85091E+02-1.76815E+02-1.76847E-09 1.22739E-08
 -1       794 1.28428E+05-2.41966E+00 6.24552E+01-1.74409E+02 5.22678E-09 5.70539E-09
 -1       795 1.28412E+05-1.45693E+01-1.75362E+01-2.00269E+02-3.07665E-09 1.03448E-08
 -1       796 1.28439E+05 1.77207E+01-9.15163E+01-1.62210E+02 2.61995E-09 1.14625E-09
 -1       797 1.28353E+05-1.34619E+02-2.69737E+02-2.28203E+02 3.65792E-09-2.11118E-08
 -1       798 1.28487E+05 1.17539E+02-4.43171E+02-1.46476E+02 8.92793E-10-2.07885E-08
 -1       799 1.28015E+05-8.67054E+02-1.22368E+03-2.66770E+02 4.25558E-09-4.53483E-10
 -1       800 1.28777E+05 7.49553E+02-1.73302E+03-1.23643E+02 3.76113E-10 1.11143E-08
 -1       801-6.03414E+04-7.85259E+06-1.03415E+06 9.19423E+05 7.49133E-08-4.63297E-08
 -1       802 4.13515E+05 2.60781E+06 1.34238E+06-1.08589E+06 2.14030E-07-2.66950E-08
 -1       803-3.40969E+05-1.04586E+07-1.24166E+06 5.90416E+05 6.53017E-08 2.02344E-08
 -1       804 1.58576E+05 1.56887E+05 9.45542E+05 5.07767E+05-9.16516E-08-7.01663E-08
 -1       805 1.43676E+05-5.41657E+06-1.92496E+05-6.70587E+05-3.80314E-08-4.82496E-08
 -1       806-2.87031E+05-5.50262E+04-2.10865E+04-1.13152E+05-3.63070E-09 8.20683E-09
 -1       807-2.88772E+05-5.15017E+04-1.03596E+04-1.18170E+05 8.08495E-09-7.79775E-09
 -1       808-2.87603E+05-4.74338E+04-4.39492E+03-1.16753E+05-7.60247E-09-1.23323E-08
 -1       809-2.86598E+05-4.85875E+04-2.14902E+03-1.18421E+05-9.47580E-09-2.41869E-08
 -1       810-2.87691E+05-4.71694E+04-9.84980E+02-1.16913E+05 2.67482E-09-7.58632E-09
 -1       811-2.86430E+05-4.84700E+04-4.89821E+02-1.18389E+05-3.41061E-11-1.15076E-08
 -1       812-2.87704E+05-4.71918E+04-2.47667E+02-1.16913E+05-6.36464E-09-1.50853E-08
 -1       813-2.86408E+05-4.84717E+04-1.60924E+02-1.18372E+05-3.81988E-09 1.78593E-08
 -1       814-2.87699E+05-4.72002E+04-1.59329E+02-1.16909E+05-8.11269E-10-1.15651E-08
 -1       815-2.86412E+05-4.84735E+04-2.56751E+02-1.18366E+05 2.86673E-09-1.43209E-08
 -1       816-2.87681E+05-4.71987E+04-4.86479E+02-1.16906E+05 3.63525E-09 8.81300E-09
 -1       817-2.86496E+05-4.85196E+04-1.04430E+03-1.18357E+05-1.16524E-08 1.60135E-08
 -1       818-2.87619E+05-4.73452E+04-2.12984E+03-1.16837E+05-3.09592E-09-3.14781E-08
 -1       819-2.87662E+05-4.98073E+04-5.01179E+03-1.18083E+05-1.04592E-11-1.96269E-08
 -1       820-2.87221E+05-5.11279E+04-1.02006E+04-1.15217E+05-2.89674E-09 1.24617E-08
 -1       821-3.54268E+05 1.95305E+04-4.52132E+04 1.15202E+03 8.38074E-09-6.47924E-09
 -1       822-3.73683E+05-2.26115E+04-3.19640E+04-2.14645E+03 1.68176E-09-1.06934E-08
 -1       823-3.61726E+05 3.06506E+03-1.17033E+04 1.54161E+03-6.00395E-09-1.18789E-08
 -1       824-3.64899E+05-3.54325E+03-7.35508E+03-2.21704E+03 9.43974E-10 3.67527E-09
 -1       825-3.63050E+05 4.77199E+02-3.04029E+03 1.22263E+03 8.32534E-09-7.50128E-09
 -1       826-3.63255E+05-5.56687E+02-1.78121E+03-1.03781E+03 1.05287E-08-1.10276E-10
 -1       827-3.63363E+05 7.65566E+01-9.83049E+02 3.62354E+02 3.73372E-09 1.93297E-08
 -1       828-3.63000E+05-1.64452E+02-7.82540E+02 7.76622E+02-5.88741E-10 1.12897E-08
 -1       829-3.63304E+05 8.41387E+01-9.92994E+02-5.91831E+02 3.91921E-10-3.42266E-09
 -1       830-3.63395E+05-5.87433E+02-1.87188E+03 2.28017E+03 3.82002E-10-3.50695E-09
 -1       831-3.62973E+05 5.03141E+02-3.14077E+03-1.14122E+03-3.05749E-09-6.86850E-09
 -1       832-3.64986E+05-3.68789E+03-7.64661E+03 2.68711E+03-8.80497E-10 2.14022E-08
 -1       833-3.61716E+05 3.18417E+03-1.21704E+04-9.98784E+02-3.11343E-09 1.03137E-09
 -1       834-3.73965E+05-2.34942E+04-3.31900E+04 1.76893E+03-9.43956E-10 9.39053E-10
 -1       835-3.53993E+05 2.02909E+04-4.69994E+04-2.23015E+02 5.19822E-09 5.15683E-09
 -1       836-1.27398E+03 3.39309E+05 2.08820E+04-1.61101E+04-4.86580E-09-7.25367E-09
 -1       837 4.48090E+03 3.45836E+05 1.77321E+04-3.27072E+04-5.01984E-09-1.48498E-08
 -1       838-4.99304E+02 3.41131E+05 1.81541E+04-1.60414E+04-4.02406E-09-7.09088E-09
 -1       839 1.14888E+04 3.51057E+05 3.44280E+04-3.27551E+04-4.00132E-09-1.27852E-08
 -1       840-3.53163E+03 3.34036E+05 5.49374E+04-1.60654E+04-3.86717E-09-2.71854E-10
 -1       856-6.01011E+04 7.86154E+03-2.07171E+04-4.00333E+02 2.50327E-09-9.11314E-10
 -1       857-6.86429E+04-9.23183E+03-1.42619E+04 5.33246E+03 3.41191E-09-8.33165E-09
 -1       858-6.34814E+04 1.10221E+03-5.37583E+03-4.23714E+02 8.61689E-10-8.98581E-10
 -1       859-6.47631E+04-1.29179E+03-3.24469E+03 5.36795E+03-2.49791E-09 1.42395E-08
 -1       860-6.39865E+04 1.54039E+02-1.36085E+03-4.35686E+02 1.19334E-09-1.52409E-09
 -1       861-6.41819E+04-1.79316E+02-7.50751E+02 5.38431E+03-5.78967E-09 1.34477E-10
 -1       862-6.40654E+04 2.06848E+01-3.16322E+02-4.40065E+02-1.92886E-09-2.76245E-09
 -1       863-6.40859E+04-1.77752E+01-1.24865E+02 5.38671E+03-1.89952E-09-2.42481E-09
 -1       864-6.40829E+04-3.86040E+00 2.45502E+01-4.38091E+02-1.59658E-09 7.61838E-09
 -1       865-6.40373E+04 5.23517E+01 2.01773E+02 5.37584E+03 1.60171E-10-7.01660E-09
 -1       866-6.41120E+04-4.95712E+01 4.17764E+02-4.29196E+02 1.07468E-09-2.99337E-09
 -1       867-6.38378E+04 4.10590E+02 1.03546E+03 5.35164E+03 3.16987E-09-3.96452E-09
 -1       868-6.42779E+04-3.55958E+02 1.72233E+03-4.13885E+02 4.43379E-10 2.34229E-09
 -1       869-6.25729E+04 2.96242E+03 4.58867E+03 5.31145E+03 1.58693E-09 1.53318E-09
 -1       870-6.53698E+04-2.53257E+03 6.65878E+03-3.88953E+02-2.95415E-09-3.88127E-09
 -1       871-5.19739E+03-1.76480E+04-1.79049E+04 1.19571E+05-2.87764E-09-6.04268E-09
 -1       872-1.98578E+03-2.17691E+04-7.45456E+03 1.55036E+05-6.82303E-09 1.92358E-10
 -1       873 2.48918E+02-1.97958E+04 6.49296E+02 1.19309E+05-3.92174E-09 1.30887E-08
 -1       874 2.93482E+03-1.74890E+04 9.23539E+03 1.55069E+05-7.00766E-09 2.11437E-08
 -1       875 6.30750E+03-2.19951E+04 2.07509E+04 1.19528E+05-2.90675E-09 3.65708E-09
 -1       876 2.74489E+05 4.64829E+04 1.42029E+04 1.10414E+05 6.17410E-09 7.78527E-09
 -1       877 2.75405E+05 4.94968E+04 7.58486E+03 1.14509E+05 7.20206E-09 3.39696E-10
 -1       878 2.75816E+05 4.49103E+04 3.17769E+03 1.11579E+05-7.84803E-09-3.98359E-09
 -1       879 2.73474E+05 4.75705E+04 1.58326E+03 1.14606E+05-2.78305E-10 1.37711E-08
 -1       880 2.75912E+05 4.48938E+04 7.37415E+02 1.11627E+05-8.64929E-10 3.15026E-09
 -1       881 2.73346E+05 4.74883E+04 3.93644E+02 1.14584E+05-1.79926E-08-1.63141E-08
 -1       882 2.75920E+05 4.49060E+04 2.51588E+02 1.11628E+05-6.03586E-09-4.27870E-09
 -1       883 2.73337E+05 4.74841E+04 2.70068E+02 1.14578E+05-1.86492E-09 1.27270E-08
 -1       884 2.75914E+05 4.49033E+04 4.29256E+02 1.11628E+05 5.12273E-09 5.74175E-10
 -1       885 2.73371E+05 4.74900E+04 8.62819E+02 1.14588E+05-2.21993E-09 4.29935E-09
 -1       886 2.75881E+05 4.48781E+04 1.73887E+03 1.11625E+05-4.63601E-09-6.74345E-09
 -1       887 2.73676E+05 4.76904E+04 3.79830E+03 1.14632E+05-2.17972E-09-6.90295E-09
 -1       888 2.75641E+05 4.49204E+04 7.65369E+03 1.11503E+05-4.11274E-09-5.75892E-09
 -1       889 2.78234E+05 5.24283E+04 1.82834E+04 1.14492E+05 1.25431E-09 8.62929E-09
 -1       890 2.72519E+05 4.86289E+04 3.42442E+04 1.08588E+05 2.64708E-09 8.18909E-09
 -1       891-1.06955E+02-1.52854E+05-1.86275E+03 2.62328E+04-1.26488E-09 1.49598E-08
 -1       892-1.99685E+02-1.53334E+05-2.00456E+03 3.97932E+04 1.02773E-09 4.82009E-09
 -1       893 1.71008E+01-1.52914E+05-2.84229E+03 2.62394E+04-1.41267E-09 8.60018E-09
 -1       894-1.45068E+03-1.54410E+05-5.88545E+03 3.96474E+04 2.37105E-09 1.42340E-08
 -1       895-1.14717E+03-1.51687E+05-1.03654E+04 2.63791E+04-2.06910E-10-8.78481E-09
 -1       956-3.51078E+05-5.01957E+03-1.24711E+04 2.72459E+04 6.39739E-09-2.26805E-09
 -1       957-3.53530E+05-1.74517E+03-6.40152E+03 3.27653E+04 7.05768E-10-9.33710E-09
 -1       958-3.52195E+05-1.93103E+02-2.88452E+03 2.70929E+04-2.66118E-09-6.11362E-09
 -1       959-3.52382E+05-9.14347E+01-1.47305E+03 3.29401E+04 8.80391E-10-1.55060E-08
 -1       960-3.52301E+05-1.33665E+01-7.18297E+02 2.70775E+04 8.84029E-10-1.08948E-08
 -1       961-3.52304E+05-2.53910E+01-3.81001E+02 3.29582E+04 4.57476E-09 6.58770E-09
 -1       962-3.52325E+05-1.56725E+01-2.18266E+02 2.70749E+04-3.45608E-10 1.53964E-08
 -1       963-3.52303E+05-2.22329E+01-1.75490E+02 3.29614E+04 3.54862E-09-1.56551E-08
 -1       964-3.52330E+05-1.27908E+01-2.13637E+02 2.70742E+04 5.38361E-09-4.63774E-09
 -1       965-3.52315E+05-1.92505E+01-3.69692E+02 3.29609E+04 7.78806E-09-1.06379E-08
 -1       966-3.52315E+05-4.79918E+00-6.94610E+02 2.70755E+04 9.30004E-09 2.19188E-10
 -1       967-3.52400E+05-7.72223E+01-1.42473E+03 3.29485E+04 3.16982E-09-1.42056E-08
 -1       968-3.52221E+05-1.73068E+02-2.78888E+03 2.70866E+04-4.90218E-10-6.44957E-09
 -1       969-3.53522E+05-1.67178E+03-6.19153E+03 3.28190E+04 3.56522E-09 4.47605E-09
 -1       970-3.51148E+05-4.83772E+03-1.20610E+04 2.72002E+04-6.50289E-10 6.61203E-10
 -1       971-3.23709E+05-1.63619E+03-8.89608E+03 1.46631E+04 2.59570E-09-2.40605E-08
 -1       972-3.25857E+05-1.19551E+03-4.84472E+03 2.03410E+04 6.03177E-09-1.12564E-08
 -1       973-3.24700E+05-4.51236E+01-2.16985E+03 1.45454E+04 4.26189E-09 2.96041E-10
 -1       974-3.24835E+05-5.78992E+01-1.12461E+03 2.04724E+04-6.95309E-10-9.54378E-09
 -1       975-3.24778E+05-2.51072E+00-5.62181E+02 1.45337E+04-2.06182E-09 1.26738E-09
 -1       976-3.24776E+05-1.04886E+01-3.24391E+02 2.04871E+04-1.47497E-09-1.68495E-09
 -1       977-3.24794E+05-2.00537E+00-2.35533E+02 1.45306E+04-6.20253E-09-2.86764E-09
 -1       978-3.24781E+05-4.70403E+00-2.75753E+02 2.04915E+04-1.25956E-08-2.78180E-09
 -1       979-3.24794E+05 5.86076E+00-4.43160E+02 1.45293E+04-2.10036E-09 8.85962E-10
 -1       980-3.24814E+05-1.85658E+00-8.55755E+02 2.04924E+04-3.15077E-09-6.65102E-09
 -1       981-3.24766E+05 2.72349E+01-1.65743E+03 1.45298E+04 2.81136E-09 7.95643E-09
 -1       982-3.25041E+05-1.24295E+02-3.42590E+03 2.04861E+04 7.50913E-09-2.10577E-08
 -1       983-3.24557E+05-7.88551E+01-6.65654E+03 1.45357E+04 4.30396E-09-9.11928E-09
 -1       984-3.28243E+05-3.60073E+03-1.49069E+04 2.04040E+04 2.62594E-09-2.35639E-09
 -1       985-3.21544E+05-4.94969E+03-2.73738E+04 1.46083E+04-1.81308E-09 1.04501E-08
 -3
    1PSTEP                        27          14           1          
  100CL  114 6.49811E-01         409                     0   14           1
 -4  DISP        4    1
 -5  D1          1    2    1    0
 -5  D2          1    2    2    0
 -5  D3          1    2    3    0
 -5  ALL         1    2    0    0    1ALL
 -1         1 2.25987E-03 0.00000E+00 0.00000E+00
 -1         2 1.78957E-03-1.51443E-27 0.00000E+00
 -1         3 3.22986E-04-1.22491E-27 1.32349E-23
 -1         5 1.69822E-04 1.82318E-26 2.32645E-24
 -1         8 2.24379E-03-4.92078E-07 0.00000E+00
 -1         9 2.20315E-03-2.29681E-05 0.00000E+00
 -1        10 2.93003E-04-3.52830E-06 6.61744E-24
 -1        12 1.71382E-04 7.82640E-07 8.78879E-25
 -1        15 2.22433E-03-5.36932E-07 2.06795E-25
 -1        16 2.23749E-03-2.42496E-05 0.00000E+00
 -1        17 2.00072E-04-7.93482E-06 0.00000E+00
 -1        18 1.74518E-04 3.04551E-05 0.00000E+00
 -1        19 1.76066E-04 1.55965E-06 0.00000E+00
 -1        20 1.76208E-04-6.71217E-06 0.00000E+00
 -1        21 1.75355E-04-1.86814E-05 0.00000E+00
 -1        24 2.98464E-05-1.19066E-05 0.00000E+00
 -1        25 1.83868E-04 3.06703E-05 0.00000E+00
 -1        26 1.84562E-04 2.16048E-06 0.00000E+00
 -1        27 1.82434E-04-1.01684E-05 0.00000E+00
 -1        28 1.82099E-04-1.92897E-05 0.00000E+00
 -1        32 0.00000E+00 0.00000E+00 0.00000E+00
 -1        33 1.92034E-04 2.89119E-06 0.00000E+00
 -1        34 1.89976E-04-1.02195E-05 0.00000E+00
 -1        35 1.88092E-04-1.96229E-05 0.00000E+00
 -1        51 2.25884E-03-9.52400E-08 0.00000E+00
 -1        52 2.25692E-03-1.74787E-07 0.00000E+00
 -1        53 2.25427E-03-2.52005E-07 0.00000E+00
 -1        54 2.25109E-03-3.29083E-07 0.00000E+00
 -1        55 2.24753E-03-4.07644E-07-1.65436E-24
 -1        56 2.25560E-03 1.02525E-06-5.29396E-23
 -1        57 2.24953E-03 6.38887E-06 0.00000E+00
 -1        58 2.24215E-03 1.51680E-05 0.00000E+00
 -1        59 2.23392E-03 2.60946E-05 0.00000E+00
 -1        60 2.22547E-03 3.75718E-05 1.05879E-22
 -1        61 2.21745E-03 4.79485E-05 0.00000E+00
 -1        62 2.21042E-03 5.57545E-05-1.05879E-22
 -1        63 2.20486E-03 5.97267E-05 0.00000E+00
 -1        64 2.20098E-03 5.92302E-05 0.00000E+00
 -1        65 2.19888E-03 5.39957E-05-5.29396E-23
 -1        66 2.19833E-03 4.45357E-05-1.05879E-22
 -1        67 2.19901E-03 3.17136E-05 0.00000E+00
 -1        68 2.20040E-03 1.69497E-05-1.05879E-22
 -1        69 2.20193E-03 1.83423E-06 5.29396E-23
 -1        70 2.20300E-03-1.19979E-05 5.29396E-23
 -1        86 1.81470E-03-1.44512E-06 2.64698E-23
 -1        87 1.88890E-03-5.23755E-06 0.00000E+00
 -1        88 1.98922E-03-1.11070E-05 0.00000E+00
 -1        89 2.09157E-03-1.71772E-05 0.00000E+00
 -1        90 2.17092E-03-2.13354E-05 2.64698E-23
 -1       121 3.22143E-04-5.72404E-07 1.32349E-23
 -1       122 3.19620E-04-1.14753E-06-6.61744E-24
 -1       123 3.15425E-04-1.72806E-06 0.00000E+00
 -1       124 3.09574E-04-2.31668E-06 0.00000E+00
 -1       125 3.02090E-04-2.91569E-06 0.00000E+00
 -1       191 1.69865E-04 1.30487E-07 8.27181E-25
 -1       192 1.69995E-04 2.60965E-07-4.65289E-25
 -1       193 1.70212E-04 3.91429E-07 0.00000E+00
 -1       194 1.70515E-04 5.21870E-07-1.62851E-24
 -1       195 1.70906E-04 6.52276E-07-2.27475E-24
 -1       251 2.24302E-03 1.89649E-05-1.32349E-23
 -1       252 2.24115E-03 7.03830E-05-6.61744E-24
 -1       253 2.23796E-03 1.44398E-04-1.32349E-23
 -1       254 2.23378E-03 2.31124E-04-6.61744E-24
 -1       255 2.22965E-03 3.17186E-04 1.32349E-23
 -1       256 2.22659E-03 3.89227E-04 6.61744E-24
 -1       257 2.22486E-03 4.37729E-04 1.32349E-23
 -1       258 2.22413E-03 4.53716E-04-6.61744E-24
 -1       259 2.22339E-03 4.36648E-04 0.00000E+00
 -1       260 2.22159E-03 3.86809E-04-6.61744E-24
 -1       261 2.21840E-03 3.12971E-04 1.32349E-23
 -1       262 2.21407E-03 2.24462E-04 0.00000E+00
 -1       263 2.20962E-03 1.34622E-04 1.32349E-23
 -1       264 2.20615E-03 5.68208E-05 0.00000E+00
 -1       265 2.20405E-03 1.10547E-06 0.00000E+00
 -1       266 2.24055E-03-5.06819E-07 3.30872E-24
 -1       267 2.23730E-03-5.13409E-07 0.00000E+00
 -1       268 2.23406E-03-5.20515E-07 0.00000E+00
 -1       269 2.23082E-03-5.26092E-07 0.00000E+00
 -1       270 2.22757E-03-5.31634E-07 0.00000E+00
 -1       271 2.24175E-03 2.50280E-06 0.00000E+00
 -1       272 2.23969E-03 5.48179E-06 0.00000E+00
 -1       273 2.23768E-03 8.31118E-06 0.00000E+00
 -1       274 2.23579E-03 1.08465E-05 0.00000E+00
 -1       275 2.23405E-03 1.29502E-05 0.00000E+00
 -1       276 2.23253E-03 1.44881E-05 0.00000E+00
 -1       277 2.23126E-03 1.53331E-05 0.00000E+00
 -1       278 2.23030E-03 1.53658E-05 1.32349E-23
 -1       279 2.22969E-03 1.44766E-05 0.00000E+00
 -1       280 2.22946E-03 1.25662E-05 0.00000E+00
 -1       281 2.22964E-03 9.54805E-06 0.00000E+00
 -1       282 2.23027E-03 5.34760E-06 1.32349E-23
 -1       283 2.23135E-03-9.49746E-08 2.64698E-23
 -1       284 2.23291E-03-6.82483E-06-1.32349E-23
 -1       285 2.23495E-03-1.48732E-05 0.00000E+00
 -1       301 2.20942E-03-2.32069E-05 1.32349E-23
 -1       302 2.21446E-03-2.34108E-05 3.30872E-24
 -1       303 2.21903E-03-2.36099E-05 0.00000E+00
 -1       304 2.22388E-03-2.38092E-05 0.00000E+00
 -1       305 2.22979E-03-2.40157E-05 0.00000E+00
 -1       306 2.23766E-03-1.59352E-04 1.05879E-22
 -1       307 2.30226E-03-5.35550E-04 5.29396E-23
 -1       308 2.35748E-03-1.09168E-03 0.00000E+00
 -1       309 2.39448E-03-1.74249E-03 5.29396E-23
 -1       310 2.43546E-03-2.37375E-03 1.05879E-22
 -1       311 2.49718E-03-2.87302E-03 0.00000E+00
 -1       312 2.55688E-03-3.16506E-03-1.05879E-22
 -1       313 2.56488E-03-3.20862E-03-5.29396E-23
 -1       314 2.45915E-03-3.01019E-03-1.05879E-22
 -1       315 2.20165E-03-2.62066E-03 0.00000E+00
 -1       316 1.80520E-03-2.10900E-03 0.00000E+00
 -1       317 1.32324E-03-1.54162E-03-5.29396E-23
 -1       318 8.53286E-04-9.81785E-04-1.05879E-22
 -1       319 4.89328E-04-4.94812E-04-5.29396E-23
 -1       320 2.72123E-04-1.48273E-04 1.05879E-22
 -1       336 2.82138E-04-4.20322E-06 1.32349E-23
 -1       337 2.69333E-04-4.90076E-06-6.61744E-24
 -1       338 2.54648E-04-5.62267E-06 1.32349E-23
 -1       339 2.38154E-04-6.36941E-06 0.00000E+00
 -1       340 2.19933E-04-7.14506E-06 1.32349E-23
 -1       406 1.71946E-04 9.12945E-07-1.03398E-24
 -1       407 1.72597E-04 1.04316E-06-1.03398E-25
 -1       408 1.73334E-04 1.17323E-06-5.81611E-25
 -1       409 1.74158E-04 1.30300E-06 6.20385E-25
 -1       410 1.75069E-04 1.43221E-06-1.65436E-24
 -1       521 2.27277E-03-1.69449E-04 0.00000E+00
 -1       522 2.33637E-03-5.64655E-04 0.00000E+00
 -1       523 2.38670E-03-1.14702E-03-1.05879E-22
 -1       524 2.41622E-03-1.82520E-03-5.29396E-23
 -1       525 2.45056E-03-2.48215E-03 0.00000E+00
 -1       526 2.50921E-03-3.00284E-03 0.00000E+00
 -1       527 2.56861E-03-3.30615E-03 2.11758E-22
 -1       528 2.57517E-03-3.34970E-03 0.00000E+00
 -1       529 2.46034E-03-3.13945E-03 1.05879E-22
 -1       530 2.18365E-03-2.73268E-03-5.29396E-23
 -1       531 1.75813E-03-2.20171E-03 0.00000E+00
 -1       532 1.24242E-03-1.61598E-03 5.29396E-23
 -1       533 7.38852E-04-1.03735E-03-1.05879E-22
 -1       534 3.46167E-04-5.29787E-04 0.00000E+00
 -1       535 1.10397E-04-1.64741E-04-1.05879E-22
 -1       536 1.99391E-04 2.48101E-05 0.00000E+00
 -1       537 1.97680E-04 8.16162E-05 3.30872E-24
 -1       538 1.95044E-04 1.53740E-04 0.00000E+00
 -1       539 1.91936E-04 2.32358E-04 0.00000E+00
 -1       540 1.89138E-04 3.06651E-04-3.30872E-24
 -1       541 1.87314E-04 3.65821E-04 0.00000E+00
 -1       542 1.86465E-04 4.03472E-04 3.30872E-24
 -1       543 1.86251E-04 4.13345E-04-1.65436E-24
 -1       544 1.85947E-04 3.96188E-04 0.00000E+00
 -1       545 1.84885E-04 3.52951E-04 1.65436E-24
 -1       546 1.82923E-04 2.91330E-04-3.30872E-24
 -1       547 1.80279E-04 2.19136E-04 1.65436E-24
 -1       548 1.77663E-04 1.47345E-04-3.30872E-24
 -1       549 1.75772E-04 8.69338E-05-1.65436E-24
 -1       550 1.74784E-04 4.54833E-05 0.00000E+00
 -1       551 1.76409E-04-8.47621E-06 0.00000E+00
 -1       552 1.49621E-04-9.08949E-06 0.00000E+00
 -1       553 1.20632E-04-9.75872E-06-8.27181E-24
 -1       554 9.03815E-05-1.04646E-05-3.30872E-24
 -1       555 5.98081E-05-1.11820E-05 2.64698E-23
 -1       556 1.92943E-04 1.03211E-05 0.00000E+00
 -1       557 1.87195E-04 2.50936E-05 0.00000E+00
 -1       558 1.82701E-04 3.66565E-05-5.29396E-23
 -1       559 1.79335E-04 4.53051E-05 0.00000E+00
 -1       560 1.76975E-04 5.13353E-05 0.00000E+00
 -1       561 1.75499E-04 5.50452E-05 0.00000E+00
 -1       562 1.74789E-04 5.67339E-05 0.00000E+00
 -1       563 1.74727E-04 5.67015E-05 1.32349E-23
 -1       564 1.75197E-04 5.52488E-05 0.00000E+00
 -1       565 1.76086E-04 5.26773E-05 0.00000E+00
 -1       566 1.77279E-04 4.92889E-05 0.00000E+00
 -1       567 1.78663E-04 4.53858E-05 3.30872E-24
 -1       568 1.80126E-04 4.12705E-05 8.27181E-25
 -1       569 1.81556E-04 3.72453E-05 0.00000E+00
 -1       570 1.82840E-04 3.36126E-05 0.00000E+00
 -1       571 1.74612E-04 2.85819E-05 1.65436E-24
 -1       572 1.74707E-04 2.66459E-05-4.13590E-25
 -1       573 1.74804E-04 2.46618E-05 0.00000E+00
 -1       574 1.74900E-04 2.26452E-05 0.00000E+00
 -1       575 1.74997E-04 2.06114E-05 0.00000E+00
 -1       576 1.75094E-04 1.85761E-05-1.65436E-24
 -1       577 1.75190E-04 1.65548E-05 0.00000E+00
 -1       578 1.75287E-04 1.45630E-05 0.00000E+00
 -1       579 1.75384E-04 1.26165E-05 0.00000E+00
 -1       580 1.75481E-04 1.07306E-05 0.00000E+00
 -1       581 1.75578E-04 8.92116E-06 6.61744E-24
 -1       582 1.75676E-04 7.20357E-06 3.30872E-24
 -1       583 1.75773E-04 5.59342E-06 0.00000E+00
 -1       584 1.75870E-04 4.10610E-06 0.00000E+00
 -1       585 1.75968E-04 2.75686E-06 0.00000E+00
 -1       586 1.76033E-04 3.04930E-05 0.00000E+00
 -1       587 1.77509E-04 3.05304E-05 0.00000E+00
 -1       588 1.78989E-04 3.05674E-05 0.00000E+00
 -1       589 1.80514E-04 3.06037E-05 0.00000E+00
 -1       590 1.82127E-04 3.06389E-05 0.00000E+00
 -1       591 1.75156E-04 2.86691E-05-1.03398E-25
 -1       592 1.75798E-04 2.68621E-05 0.00000E+00
 -1       593 1.76446E-04 2.50400E-05 0.00000E+00
 -1       594 1.77097E-04 2.32074E-05 0.00000E+00
 -1       595 1.77750E-04 2.13694E-05-8.27181E-25
 -1       596 1.78403E-04 1.95307E-05 0.00000E+00
 -1       597 1.79055E-04 1.76960E-05 0.00000E+00
 -1       598 1.79703E-04 1.58703E-05-4.13590E-25
 -1       599 1.80346E-04 1.40583E-05 8.27181E-25
 -1       600 1.80982E-04 1.22647E-05 0.00000E+00
 -1       601 1.81610E-04 1.04943E-05 8.27181E-25
 -1       602 1.82227E-04 8.75201E-06 4.13590E-25
 -1       603 1.82832E-04 7.04254E-06 8.27181E-25
 -1       604 1.83424E-04 5.37079E-06-1.29247E-26
 -1       605 1.84000E-04 3.74147E-06 0.00000E+00
 -1       606 1.76079E-04 5.87073E-07 0.00000E+00
 -1       607 1.76089E-04-2.97955E-07 0.00000E+00
 -1       608 1.76098E-04-1.10058E-06-3.30872E-24
 -1       609 1.76107E-04-1.82659E-06-1.65436E-24
 -1       610 1.76115E-04-2.48184E-06 0.00000E+00
 -1       611 1.76124E-04-3.07224E-06 0.00000E+00
 -1       612 1.76132E-04-3.60369E-06 0.00000E+00
 -1       613 1.76141E-04-4.08214E-06 0.00000E+00
 -1       614 1.76149E-04-4.51349E-06 0.00000E+00
 -1       615 1.76158E-04-4.90368E-06 0.00000E+00
 -1       616 1.76166E-04-5.25863E-06 0.00000E+00
 -1       617 1.76175E-04-5.58427E-06 0.00000E+00
 -1       618 1.76184E-04-5.88652E-06 0.00000E+00
 -1       619 1.76192E-04-6.17130E-06 0.00000E+00
 -1       620 1.76201E-04-6.44455E-06-2.06795E-25
 -1       621 1.77222E-04 1.66026E-06 1.65436E-24
 -1       622 1.78522E-04 1.76115E-06-8.27181E-25
 -1       623 1.79937E-04 1.86186E-06 1.65436E-24
 -1       624 1.81435E-04 1.96228E-06 8.27181E-25
 -1       625 1.82987E-04 2.06243E-06-1.65436E-24
 -1       626 1.76539E-04 6.22050E-07 0.00000E+00
 -1       627 1.76989E-04-2.50183E-07 3.30872E-24
 -1       628 1.77418E-04-1.06492E-06 6.61744E-24
 -1       629 1.77829E-04-1.83035E-06 1.65436E-24
 -1       630 1.78224E-04-2.55470E-06 3.30872E-24
 -1       631 1.78607E-04-3.24620E-06 0.00000E+00
 -1       632 1.78980E-04-3.91310E-06 0.00000E+00
 -1       633 1.79348E-04-4.56364E-06 1.65436E-24
 -1       634 1.79713E-04-5.20607E-06-3.30872E-24
 -1       635 1.80077E-04-5.84861E-06-1.65436E-24
 -1       636 1.80445E-04-6.49953E-06-3.30872E-24
 -1       637 1.80819E-04-7.16706E-06-1.65436E-24
 -1       638 1.81202E-04-7.85943E-06 1.65436E-24
 -1       639 1.81597E-04-8.58493E-06 0.00000E+00
 -1       640 1.82007E-04-9.35181E-06 1.65436E-24
 -1       656 1.76707E-04-7.27400E-06 0.00000E+00
 -1       657 1.77622E-04-7.85862E-06-6.61744E-24
 -1       658 1.78813E-04-8.44184E-06-1.32349E-23
 -1       659 1.80133E-04-9.02470E-06 6.61744E-24
 -1       660 1.81400E-04-9.60933E-06 6.61744E-24
 -1       661 1.76396E-04-7.02300E-06 0.00000E+00
 -1       662 1.76619E-04-7.42199E-06-8.27181E-25
 -1       663 1.76874E-04-7.90427E-06 1.65436E-24
 -1       664 1.77158E-04-8.46369E-06 0.00000E+00
 -1       665 1.77469E-04-9.09481E-06 0.00000E+00
 -1       666 1.77805E-04-9.79204E-06 0.00000E+00
 -1       667 1.78164E-04-1.05501E-05 0.00000E+00
 -1       668 1.78543E-04-1.13638E-05-8.27181E-25
 -1       669 1.78941E-04-1.22279E-05 0.00000E+00
 -1       670 1.79357E-04-1.31377E-05 0.00000E+00
 -1       671 1.79787E-04-1.40881E-05 1.65436E-24
 -1       672 1.80231E-04-1.50746E-05-8.27181E-25
 -1       673 1.80687E-04-1.60923E-05-1.65436E-24
 -1       674 1.81151E-04-1.71369E-05 0.00000E+00
 -1       675 1.81624E-04-1.82036E-05 4.13590E-25
 -1       676 1.76483E-04-1.87834E-05-3.30872E-24
 -1       677 1.77610E-04-1.88853E-05 0.00000E+00
 -1       678 1.78736E-04-1.89872E-05 0.00000E+00
 -1       679 1.79860E-04-1.90887E-05-1.65436E-24
 -1       680 1.80981E-04-1.91903E-05 1.65436E-24
 -1       771 1.86218E-05 1.31031E-05 0.00000E+00
 -1       772 9.16425E-06 3.36455E-05 0.00000E+00
 -1       773 1.38917E-06 4.99377E-05-5.29396E-23
 -1       774-4.81872E-06 6.22228E-05 2.64698E-23
 -1       775-9.57237E-06 7.07530E-05 5.29396E-23
 -1       776-1.29893E-05 7.57962E-05 0.00000E+00
 -1       777-1.51870E-05 7.76290E-05 0.00000E+00
 -1       778-1.62853E-05 7.65411E-05 0.00000E+00
 -1       779-1.64038E-05 7.28295E-05 0.00000E+00
 -1       780-1.56637E-05 6.68018E-05-5.29396E-23
 -1       781-1.41859E-05 5.87716E-05 5.29396E-23
 -1       782-1.20923E-05 4.90609E-05 0.00000E+00
 -1       783-9.50450E-06 3.79954E-05 0.00000E+00
 -1       784-6.54506E-06 2.59069E-05 2.64698E-23
 -1       785-3.33576E-06 1.31295E-05-5.29396E-23
 -1       786 1.83907E-04 2.86646E-05 0.00000E+00
 -1       787 1.83950E-04 2.67082E-05 4.13590E-25
 -1       788 1.83993E-04 2.47929E-05 0.00000E+00
 -1       789 1.84036E-04 2.29105E-05-8.27181E-25
 -1       790 1.84079E-04 2.10564E-05-1.65436E-24
 -1       791 1.84123E-04 1.92259E-05 0.00000E+00
 -1       792 1.84167E-04 1.74169E-05-1.65436E-24
 -1       793 1.84210E-04 1.56273E-05 8.27181E-25
 -1       794 1.84254E-04 1.38567E-05 1.65436E-24
 -1       795 1.84298E-04 1.21052E-05 0.00000E+00
 -1       796 1.84341E-04 1.03745E-05 0.00000E+00
 -1       797 1.84385E-04 8.66662E-06 0.00000E+00
 -1       798 1.84429E-04 6.98568E-06-1.65436E-24
 -1       799 1.84473E-04 5.33600E-06-8.27181E-25
 -1       800 1.84517E-04 3.72507E-06 0.00000E+00
 -1       801 1.41481E-04 2.75041E-05 0.00000E+00
 -1       802 1.31715E-05 1.72773E-05-2.64698E-23
 -1       803-9.70261E-05 8.79939E-06 0.00000E+00
 -1       804-8.70676E-05 6.09211E-06 2.64698E-23
 -1       805-2.88911E-05 2.45597E-06 0.00000E+00
 -1       806 1.84509E-04 2.85983E-05-1.65436E-24
 -1       807 1.85135E-04 2.65524E-05-1.65436E-24
 -1       808 1.85750E-04 2.45377E-05 0.00000E+00
 -1       809 1.86350E-04 2.25579E-05-1.65436E-24
 -1       810 1.86936E-04 2.06170E-05 3.30872E-24
 -1       811 1.87507E-04 1.87186E-05 1.65436E-24
 -1       812 1.88059E-04 1.68665E-05 0.00000E+00
 -1       813 1.88594E-04 1.50645E-05 1.65436E-24
 -1       814 1.89108E-04 1.33161E-05 1.65436E-24
 -1       815 1.89601E-04 1.16251E-05 8.27181E-25
 -1       816 1.90071E-04 9.99529E-06-3.30872E-24
 -1       817 1.90516E-04 8.43022E-06 0.00000E+00
 -1       818 1.90937E-04 6.93363E-06-1.65436E-24
 -1       819 1.91330E-04 5.50918E-06-8.27181E-25
 -1       820 1.91696E-04 4.16051E-06-1.65436E-24
 -1       821 1.84436E-04 2.22925E-07-1.65436E-24
 -1       822 1.84301E-04-2.50269E-06 1.65436E-24
 -1       823 1.84165E-04-5.70040E-06 0.00000E+00
 -1       824 1.84028E-04-9.05133E-06 1.65436E-24
 -1       825 1.83891E-04-1.21961E-05 3.30872E-24
 -1       826 1.83755E-04-1.47766E-05 0.00000E+00
 -1       827 1.83620E-04-1.65852E-05 3.30872E-24
 -1       828 1.83487E-04-1.74192E-05-1.65436E-24
 -1       829 1.83354E-04-1.73358E-05 3.30872E-24
 -1       830 1.83221E-04-1.63977E-05 0.00000E+00
 -1       831 1.83088E-04-1.48959E-05 0.00000E+00
 -1       832 1.82954E-04-1.31247E-05 0.00000E+00
 -1       833 1.82820E-04-1.14504E-05-3.30872E-24
 -1       834 1.82689E-04-1.02385E-05-1.65436E-24
 -1       835 1.82557E-04-9.73176E-06-8.27181E-25
 -1       836 1.86013E-04 2.28171E-06 3.30872E-24
 -1       837 1.87339E-04 2.40596E-06 0.00000E+00
 -1       838 1.88573E-04 2.53012E-06 0.00000E+00
 -1       839 1.89745E-04 2.65358E-06 0.00000E+00
 -1       840 1.90888E-04 2.77689E-06 0.00000E+00
 -1       856 1.82416E-04-1.10070E-05 0.00000E+00
 -1       857 1.82396E-04-1.17124E-05 6.46235E-27
 -1       858 1.82375E-04-1.23056E-05-4.13590E-25
 -1       859 1.82355E-04-1.28070E-05 2.06795E-25
 -1       860 1.82334E-04-1.32378E-05-4.13590E-25
 -1       861 1.82313E-04-1.36187E-05 4.13590E-25
 -1       862 1.82292E-04-1.39706E-05 0.00000E+00
 -1       863 1.82271E-04-1.43146E-05-4.13590E-25
 -1       864 1.82250E-04-1.46716E-05 0.00000E+00
 -1       865 1.82229E-04-1.50626E-05 0.00000E+00
 -1       866 1.82208E-04-1.55084E-05 0.00000E+00
 -1       867 1.82186E-04-1.60301E-05 0.00000E+00
 -1       868 1.82165E-04-1.66483E-05 0.00000E+00
 -1       869 1.82144E-04-1.73839E-05-4.13590E-25
 -1       870 1.82122E-04-1.82575E-05 8.27181E-25
 -1       871 1.83552E-04-1.01727E-05 8.27181E-25
 -1       872 1.84813E-04-1.01802E-05 0.00000E+00
 -1       873 1.86152E-04-1.01883E-05 4.13590E-25
 -1       874 1.87503E-04-1.01972E-05-3.61892E-25
 -1       875 1.88799E-04-1.02067E-05 1.44757E-24
 -1       876 1.82872E-04-1.09929E-05 0.00000E+00
 -1       877 1.83289E-04-1.17519E-05 0.00000E+00
 -1       878 1.83685E-04-1.24534E-05-3.30872E-24
 -1       879 1.84062E-04-1.31045E-05 0.00000E+00
 -1       880 1.84423E-04-1.37126E-05-3.30872E-24
 -1       881 1.84771E-04-1.42848E-05 0.00000E+00
 -1       882 1.85108E-04-1.48283E-05 3.30872E-24
 -1       883 1.85436E-04-1.53505E-05-1.65436E-24
 -1       884 1.85760E-04-1.58584E-05 3.30872E-24
 -1       885 1.86081E-04-1.63592E-05 0.00000E+00
 -1       886 1.86402E-04-1.68602E-05 3.30872E-24
 -1       887 1.86726E-04-1.73686E-05 1.65436E-24
 -1       888 1.87055E-04-1.78916E-05 3.30872E-24
 -1       889 1.87391E-04-1.84366E-05 0.00000E+00
 -1       890 1.87738E-04-1.90106E-05 0.00000E+00
 -1       891 1.83238E-04-1.93456E-05 1.65436E-24
 -1       892 1.84354E-04-1.94017E-05 0.00000E+00
 -1       893 1.85422E-04-1.94577E-05-8.27181E-25
 -1       894 1.86417E-04-1.95135E-05-4.13590E-25
 -1       895 1.87315E-04-1.95691E-05-4.13590E-25
 -1       956 1.91907E-04 1.78982E-06 1.65436E-24
 -1       957 1.91779E-04 7.76291E-07-8.27181E-25
 -1       958 1.91650E-04-1.59656E-07 0.00000E+00
 -1       959 1.91521E-04-1.02884E-06-1.65436E-24
 -1       960 1.91392E-04-1.84213E-06 0.00000E+00
 -1       961 1.91263E-04-2.61041E-06 0.00000E+00
 -1       962 1.91133E-04-3.34460E-06 0.00000E+00
 -1       963 1.91004E-04-4.05563E-06 0.00000E+00
 -1       964 1.90875E-04-4.75441E-06-3.30872E-24
 -1       965 1.90746E-04-5.45186E-06 0.00000E+00
 -1       966 1.90617E-04-6.15893E-06 0.00000E+00
 -1       967 1.90488E-04-6.88651E-06 0.00000E+00
 -1       968 1.90359E-04-7.64553E-06 0.00000E+00
 -1       969 1.90231E-04-8.44688E-06 0.00000E+00
 -1       970 1.90102E-04-9.30140E-06-3.30872E-24
 -1       971 1.89859E-04-1.11349E-05 3.30872E-24
 -1       972 1.89741E-04-1.19568E-05 0.00000E+00
 -1       973 1.89622E-04-1.26956E-05 0.00000E+00
 -1       974 1.89504E-04-1.33620E-05-1.65436E-24
 -1       975 1.89386E-04-1.39667E-05 0.00000E+00
 -1       976 1.89267E-04-1.45204E-05 0.00000E+00
 -1       977 1.89149E-04-1.50339E-05-3.30872E-24
 -1       978 1.89030E-04-1.55180E-05 0.00000E+00
 -1       979 1.88912E-04-1.59834E-05 3.30872E-24
 -1       980 1.88794E-04-1.64409E-05 1.65436E-24
 -1       981 1.88675E-04-1.69013E-05-3.30872E-24
 -1       982 1.88557E-04-1.73753E-05 0.00000E+00
 -1       983 1.88439E-04-1.78738E-05-3.30872E-24
 -1       984 1.88322E-04-1.84074E-05 0.00000E+00
 -1       985 1.88205E-04-1.89869E-05 0.00000E+00
 -3
    1PSTEP                        28          14           1          
  100CL  114 6.49811E-01         409                     0   14           1
 -4  STRESS      6    1
 -5  SXX         1    4    1    1
 -5  SYY         1    4    2    2
 -5  SZZ         1    4    3    3
 -5  SXY         1    4    1    2
 -5  SYZ         1    4    2    3
 -5  SZX         1    4    3    1
 -1         1-4.60949E+06-1.69282E+06-1.01278E+06-1.63286E+06-1.30967E-10-7.77654E-08
 -1         2 1.12438E+05-5.97890E+05 4.57342E+05 7.28294E+05 7.85440E-09 8.74097E-08
 -1         3-1.30691E+03-1.62679E+06 4.10314E+02-2.16437E+03-5.88898E-10-3.03044E-09
 -1         5-5.40427E+01 3.73583E+05 9.64797E+00-1.06448E+00-4.85224E-10 4.13111E-08
 -1         8-6.43540E+05-2.14298E+05-5.92273E+04-2.53981E+05-2.22826E-10-2.29193E-10
 -1         9 8.78635E+06-3.96853E+05 1.51369E+06-1.13824E+06 1.82888E-08-9.27830E-08
 -1        10-2.18575E+03-1.69525E+06-3.94286E+03-1.46266E+04-1.31331E-08-2.13560E-08
 -1        12-5.02024E+01 3.73604E+05 3.15885E+02-7.35555E+00-5.79657E-10 2.60115E-09
 -1        15 1.20373E+03 6.61514E+02 3.89101E+03 1.68865E+00-2.73360E-10 3.77170E-07
 -1        16 1.88665E+07-1.60542E+05 2.63970E+06-1.56656E+06 2.27786E-08 3.01904E-08
 -1        17 6.79473E+06 4.91442E+06 1.83228E+06 4.79848E+06 1.89320E-08 3.78117E-08
 -1        18 1.20358E+05 2.75564E+04-2.09383E+02-1.14135E+05 1.34141E-08 6.00494E-09
 -1        19 1.18639E+05 1.37172E+05-9.20662E+02 2.15518E+04 1.32677E-09-1.28555E-08
 -1        20-7.71566E+04-5.56720E+05-1.24758E+05 2.57131E+04-8.28550E-10-1.44185E-09
 -1        21-4.51772E+01-2.90139E+05-9.08383E+02 2.24448E+02 9.48850E-09-1.15534E-08
 -1        24 1.11634E+07 9.54868E+06 3.14138E+06 8.88008E+06-1.50690E-07-4.85452E-08
 -1        25 8.67342E+04 1.26746E+05 6.40316E+04-5.62656E+05-3.35831E-09 1.01671E-08
 -1        26-5.32371E+04 8.91848E+04-2.38871E+04 4.42958E+02 2.97223E-10 7.54809E-09
 -1        27-7.49381E+04-3.01197E+05-1.10438E+05 6.70670E+04 4.47653E-09-2.05061E-09
 -1        28 2.18755E+04-8.33495E+04 1.65509E+04 2.06721E+04-3.02623E-09 4.04198E-09
 -1        32-1.64372E+06-3.04172E+06-1.79611E+05 3.08368E+05-3.98213E-08-1.26865E-08
 -1        33-1.73752E+05 8.98872E+04 3.14071E+04-3.79273E+04-2.48133E-09 1.26753E-08
 -1        34-2.17867E+05-2.41022E+04 6.59688E+02 7.31021E+04-3.77783E-09-1.36882E-08
 -1        35-2.25136E+04-3.30598E+04-1.31548E+03 5.04865E+04-1.39596E-09-1.07284E-08
 -1        51 5.19553E+04-2.02448E+05 1.11941E+05-5.99432E+05-1.16415E-10 8.18036E-08
 -1        52 1.85105E+04-1.84187E+05 6.01066E+04-6.98823E+05-1.09139E-11-1.14902E-07
 -1        53 4.90475E+03-1.99760E+05 3.34791E+04-5.97224E+05 2.83762E-10-1.34321E-07
 -1        54 1.07668E+04-1.96062E+05 3.19275E+04-7.01125E+05 4.72937E-10-3.60309E-07
 -1        55 2.27927E+04-2.05247E+05 4.39988E+04-5.96911E+05 4.14730E-10 1.61665E-07
 -1        56-8.66290E+06-1.00514E+06-7.52344E+05-3.41712E+06 6.53381E-09-1.19035E-08
 -1        57-9.19496E+06-1.43453E+06-5.04099E+05-3.10580E+06-1.27038E-08 4.37285E-08
 -1        58-8.74858E+06-1.30126E+06-1.76413E+05-3.43591E+06 4.91855E-09-1.66619E-08
 -1        59-9.10131E+06-1.08403E+06-1.04582E+05-3.08969E+06-2.78997E-08-2.19268E-07
 -1        60-8.75963E+06-1.34361E+06-4.08403E+04-3.43995E+06-1.94216E-08 4.46416E-08
 -1        61-9.03684E+06-1.07789E+06-2.20121E+04-3.12962E+06-1.08394E-08 1.85566E-07
 -1        62-8.80901E+06-1.30863E+06-1.31510E+04-3.39360E+06 4.40014E-09-7.03367E-08
 -1        63-8.90587E+06-1.18809E+06-6.25672E+03-3.25172E+06 1.88265E-08 6.15887E-08
 -1        64-8.88334E+06-1.23818E+06-1.35579E+04-3.31258E+06-2.39015E-09-1.28875E-09
 -1        65-8.77244E+06-1.33050E+06-1.82504E+04-3.41160E+06-2.87400E-08-2.67838E-08
 -1        66-8.94365E+06-1.16558E+06-3.79138E+04-3.23468E+06 1.76078E-09 2.06438E-07
 -1        67-8.71234E+06-1.46115E+06-9.23439E+04-3.52669E+06-4.42051E-08-3.66454E-08
 -1        68-8.95162E+06-1.10327E+06-1.55866E+05-3.20282E+06 1.88702E-08-1.57379E-08
 -1        69-8.85462E+06-1.72450E+06-4.48222E+05-3.49614E+06-1.84555E-08-1.57568E-07
 -1        70-8.80518E+06-9.08525E+05-6.66179E+05-3.26417E+06 1.31113E-08-4.31319E-08
 -1        86-1.14103E+05-4.02541E+06-2.53223E+05-3.59245E+05-8.32533E-08-1.62709E-07
 -1        87 1.48864E+05-1.96221E+06 2.02161E+05 9.98608E+05-1.41177E-07-1.51665E-07
 -1        88-1.33851E+04-2.80988E+06 4.49998E+03-6.36173E+05-1.18197E-07-2.35502E-07
 -1        89 1.93269E+05-2.05430E+06 1.69665E+05 1.03860E+06-1.78499E-07-1.81660E-07
 -1        90-1.47066E+05-3.94536E+06-3.03348E+05-4.00294E+05-4.90145E-08 2.33667E-08
 -1       121-1.79772E+03-1.63114E+06-4.19040E+02 1.07422E+03 1.40669E-09-1.47702E-09
 -1       122-1.12154E+03-1.62684E+06 7.95792E+02-4.32896E+03-5.11699E-09 1.67838E-08
 -1       123-1.82687E+03-1.63128E+06 4.34937E+02 3.20738E+03 4.38433E-09-8.14907E-10
 -1       124 5.63170E+02-1.62631E+06 3.10264E+03-9.03602E+03-9.38417E-09 1.43173E-08
 -1       125-2.68864E+03-1.63220E+06 3.82689E+03 5.74426E+03 6.30098E-09 1.10704E-08
 -1       191-5.70339E+01 3.73605E+05 9.15009E+00 5.49838E-01-4.79933E-10 1.94814E-08
 -1       192-5.49608E+01 3.73584E+05 2.05427E+01-3.51175E+00-6.30427E-10 3.27418E-09
 -1       193-5.94577E+01 3.73604E+05 3.58868E+01 3.07026E+00-8.80252E-10 1.26965E-09
 -1       194-5.79075E+01 3.73587E+05 7.79824E+01-8.00338E+00-4.85110E-10 4.37740E-09
 -1       195-6.41113E+01 3.73602E+05 1.50211E+02 5.16384E+00-1.31161E-09-5.57702E-09
 -1       251-2.04581E+06-3.47863E+04-2.01974E+05-1.37068E+05 7.20320E-10-1.33776E-07
 -1       252-1.07466E+06 4.37642E+04 5.40491E+04 4.26043E+05 9.35461E-09 1.67147E-08
 -1       253-1.61771E+06-1.46797E+04-3.49600E+04-2.80000E+05 5.61249E-09 3.32084E-08
 -1       254-1.52926E+06 6.26127E+04 9.46291E+03 5.61518E+05-5.04116E-09-7.58935E-08
 -1       255-1.63598E+06-1.67112E+04-2.04252E+04-2.76591E+05 1.24382E-08-3.95012E-08
 -1       256-1.02992E+06 5.06198E+04 1.10882E+05 4.11336E+05 3.10274E-08-7.05045E-08
 -1       257-2.06828E+06-4.26784E+04-1.09447E+05-1.25575E+05 2.54822E-08 7.97058E-09
 -1       258-5.41784E+05 3.86246E+04 2.03479E+05 6.87829E+03-1.41672E-08 1.71849E-07
 -1       259-2.07629E+06-4.40438E+04-1.09433E+05 1.25120E+05 4.75484E-09-6.17873E-08
 -1       260-1.01137E+06 5.39445E+04 1.19892E+05-4.00540E+05-1.70949E-08-1.33874E-07
 -1       261-1.64477E+06-2.04248E+04-1.27623E+04 2.79052E+05 5.47807E-08 3.57251E-08
 -1       262-1.52544E+06 7.70191E+04 3.38771E+04-5.56507E+05-8.07635E-08 4.90273E-08
 -1       263-1.61277E+06-2.56175E+04 5.71154E+03 2.85664E+05-4.17640E-09 1.07089E-07
 -1       264-1.06268E+06 1.20971E+05 1.56295E+05-4.30968E+05 1.26789E-07 1.81706E-07
 -1       265-2.06469E+06-9.92575E+04-4.93699E+04 1.49382E+05 4.59841E-08-6.19257E-08
 -1       266-2.17914E+04-1.01901E+04 5.11272E+04-3.61311E+01 2.11003E-10 2.59275E-07
 -1       267 2.52622E+04 1.18762E+04 3.61368E+04 4.16893E+01 2.75122E-10 1.60342E-07
 -1       268-3.38761E+03-1.68202E+03 1.34318E+04-5.31188E+00 2.50111E-10 6.30144E-08
 -1       269 3.99978E+03 2.01300E+03 8.73053E+03 6.18761E+00-1.86446E-10-2.26290E-07
 -1       270-6.00366E+02-3.30746E+02 4.21435E+03-8.39696E-01 1.50749E-10 1.88038E-07
 -1       271-2.04401E+06-2.45128E+05-1.53751E+05-7.85029E+05-9.43328E-09-6.16274E-09
 -1       272-2.15284E+06-3.09117E+05-9.96198E+04-7.24193E+05 2.48087E-08-1.48297E-07
 -1       273-2.07232E+06-2.86026E+05-3.62897E+04-7.78818E+05-2.02231E-08 5.13319E-09
 -1       274-2.11908E+06-2.59958E+05-2.05064E+04-7.33548E+05-2.54181E-08 8.03857E-08
 -1       275-2.07680E+06-2.90071E+05-8.47791E+03-7.77109E+05 1.21395E-08 2.66746E-08
 -1       276-2.11207E+06-2.56560E+05-4.44664E+03-7.36929E+05-2.19202E-08 1.35320E-07
 -1       277-2.07879E+06-2.89246E+05-2.25642E+03-7.75279E+05 3.68846E-08-2.29079E-08
 -1       278-2.10748E+06-2.59557E+05-1.36699E+03-7.40729E+05-2.26100E-09 1.77095E-07
 -1       279-2.08082E+06-2.87387E+05-1.61010E+03-7.72924E+05-1.29075E-08 6.34827E-09
 -1       280-2.10267E+06-2.64371E+05-2.34317E+03-7.45460E+05 4.66498E-08 1.80917E-08
 -1       281-2.08302E+06-2.84814E+05-4.68043E+03-7.70140E+05 1.05665E-08-6.07229E-08
 -1       282-2.09916E+06-2.72636E+05-1.04447E+04-7.50700E+05 4.37194E-09 1.18680E-07
 -1       283-2.08390E+06-2.79668E+05-1.90363E+04-7.67273E+05 2.39124E-08-1.39829E-07
 -1       284-2.10972E+06-3.04375E+05-5.11507E+04-7.53109E+05-6.64295E-09 1.05345E-07
 -1       285-2.07253E+06-2.55541E+05-7.96528E+04-7.66731E+05 1.57816E-08-3.71147E-08
 -1       301 1.09538E+04-5.28481E+05 1.74186E+05-9.19518E+05 3.36149E-09-7.85803E-10
 -1       302 1.22430E+04-4.83761E+05 1.05721E+05-1.34386E+06-1.88447E-09 9.13133E-08
 -1       303-8.19533E+03-5.15450E+05 6.34370E+04-9.17167E+05 1.67347E-09 1.60006E-07
 -1       304-1.38435E+03-4.88161E+05 7.02583E+04-1.34313E+06 4.94765E-10 2.71248E-08
 -1       305-5.84658E+03-5.11435E+05 9.48470E+04-9.19974E+05-3.92902E-10 4.49654E-09
 -1       306-2.68610E+07-5.46325E+06-7.45147E+06-1.13277E+06-7.10133E-08-3.10538E-08
 -1       307 2.22347E+07 1.98823E+06 4.80678E+06-1.27529E+07-7.74569E-07-7.96281E-08
 -1       308-7.76869E+06-7.56005E+05-5.65128E+05 4.54021E+06-2.62284E-07 2.21800E-07
 -1       309-3.62849E+06 6.43370E+06 1.79960E+06-1.85722E+07 1.37017E-07 2.77851E-07
 -1       310-1.09936E+07-1.24929E+06-1.41668E+06 4.43045E+06-3.47500E-08-1.32539E-07
 -1       311 2.97024E+07-1.75910E+05 5.88276E+06-8.83456E+06 6.98026E-07-1.03260E-07
 -1       312-2.78161E+07-5.51346E+06-7.04626E+06-3.82258E+06-5.19212E-08 5.76692E-08
 -1       313 3.93499E+07 1.05872E+07 9.03850E+06 1.84240E+07-2.60567E-07-1.25583E-08
 -1       314-1.68567E+07-1.42995E+07-6.45505E+06-1.11330E+07 3.61819E-07-1.21247E-07
 -1       315-7.22734E+05 2.42144E+07 4.95572E+06 1.06466E+07-1.32699E-07 1.24564E-08
 -1       316 2.77647E+05-9.12180E+06-5.27524E+05-3.51373E+06-9.19652E-07-1.98721E-07
 -1       317-1.70221E+07 1.97188E+07 1.76736E+06-5.92522E+06 6.50492E-07-6.04778E-07
 -1       318-1.24388E+06-1.05703E+07-1.46807E+06-4.42791E+06-8.63249E-07 1.22585E-07
 -1       319 4.74618E+06 2.54741E+07 5.64885E+06 1.36104E+07-1.17994E-07 1.79629E-07
 -1       320-1.99557E+07-1.46036E+07-8.21845E+06-1.10642E+07 1.68220E-07-5.15138E-08
 -1       336-3.93916E+02-1.76578E+06-1.38817E+04 8.74439E+03-2.49856E-08 7.43239E-09
 -1       337-5.33344E+03-1.76606E+06-1.80727E+04-2.11537E+04-4.59290E-08 4.33283E-09
 -1       338 5.19960E+02-1.76531E+06-2.80490E+04 1.22040E+04-3.26891E-08-2.83399E-09
 -1       339-2.97760E+04-1.78288E+06-6.35305E+04-2.79060E+04-5.92827E-08-1.63891E-09
 -1       340 1.98543E+04-1.75095E+06-9.98683E+04 1.53793E+04-3.92538E-08 2.90784E-08
 -1       406-2.83949E+01 3.73588E+05 6.21191E+02 2.53673E+00-1.61573E-09 1.10595E-08
 -1       407 1.67514E+02 3.73713E+05 1.32546E+03 2.02880E+01-4.43379E-10 1.29512E-09
 -1       408 6.30478E+02 3.73491E+05 2.64407E+03-2.32249E+01-2.16005E-09 7.37782E-09
 -1       409 2.81597E+03 3.74557E+05 5.95750E+03 2.44966E+02-1.58252E-10 1.46683E-08
 -1       410 8.18055E+03 3.72733E+05 1.21598E+04-2.35544E+02-2.49383E-09-1.30358E-08
 -1       521-2.84451E+07-6.70823E+06-8.70725E+06-8.30542E+05-9.13860E-08-1.49535E-07
 -1       522 2.30241E+07 2.63189E+06 4.88908E+06-1.58244E+07-4.37663E-07-4.66011E-07
 -1       523-8.52753E+06-1.03758E+06-5.83800E+05 4.98454E+06 1.03842E-07-1.48488E-07
 -1       524-6.75737E+06 8.90159E+06 1.95196E+06-2.14934E+07 6.21993E-07-4.90902E-07
 -1       525-1.19506E+07-1.73084E+06-1.55813E+06 4.86477E+06 7.85571E-07-8.75007E-08
 -1       526 3.22213E+07-1.95342E+05 6.19352E+06-1.13100E+07 2.61236E-07-1.07946E-07
 -1       527-2.96054E+07-6.93566E+06-8.11235E+06-3.72086E+06 1.68569E-07-8.68458E-08
 -1       528 4.30639E+07 1.16078E+07 9.44292E+06 2.08746E+07 5.18630E-08-2.66300E-08
 -1       529-1.78987E+07-1.62327E+07-7.40343E+06-1.13413E+07 1.06054E-07-2.23867E-07
 -1       530-2.94180E+06 2.82660E+07 5.24550E+06 1.06732E+07 9.69012E-08 2.93192E-07
 -1       531 1.96195E+05-1.02598E+07-5.31316E+05-3.66744E+06-7.16711E-07 3.13565E-07
 -1       532-1.99840E+07 2.19873E+07 1.94231E+06-9.31035E+06 2.69458E-07-3.95838E-07
 -1       533-1.32554E+06-1.17234E+07-1.55063E+06-4.49464E+06-2.40747E-07-9.17236E-07
 -1       534 2.80057E+06 2.96446E+07 5.89368E+06 1.41263E+07-5.04660E-08 6.51693E-07
 -1       535-2.11153E+07-1.66628E+07-9.39482E+06-1.12608E+07 8.12579E-08 4.13158E-07
 -1       536-6.71849E+05-4.58128E+04-3.28430E+04-4.99556E+04-3.47563E-09 4.51419E-08
 -1       537-8.83057E+04 4.45939E+04 8.16799E+04 1.14780E+05-1.02862E-07 1.03680E-07
 -1       538-3.92948E+05 2.34914E+03 5.75329E+03-6.76098E+04 2.84809E-08 1.06967E-07
 -1       539-2.81331E+05 3.08631E+03 2.36204E+04 1.29383E+05 1.26726E-07 1.23822E-07
 -1       540-4.83617E+05-3.27762E+02-1.81660E+04-6.50052E+04 2.93460E-08 1.08707E-07
 -1       541 8.85334E+04 1.51159E+04 9.49441E+04 9.01556E+04 1.50519E-08 7.29927E-08
 -1       542-7.52857E+05-1.79756E+04-7.48689E+04-2.76532E+04 3.75435E-08 3.33177E-08
 -1       543 3.18788E+05 2.43602E+04 1.40576E+05-1.25827E+04-2.53458E-08-8.01720E-09
 -1       544-7.07708E+05-1.46727E+04-6.65192E+04 3.71720E+04 2.31648E-09-1.96925E-08
 -1       545-1.72878E+04 8.25770E+03 7.05701E+04-1.05351E+05 4.09747E-08-7.06696E-08
 -1       546-4.25787E+05 5.58264E+03-1.09958E+04 6.48289E+04 4.66525E-09-7.48507E-08
 -1       547-2.97978E+05-4.68526E+03 8.51224E+03-1.32135E+05-1.27598E-07-8.70189E-08
 -1       548-4.34544E+05 4.55094E+03-2.24792E+04 6.45331E+04-1.04822E-07-9.05166E-08
 -1       549 9.92441E+02 1.19477E+04 5.07317E+04-1.02999E+05-5.92141E-08-5.37150E-08
 -1       550-7.16751E+05-1.77287E+04-1.19542E+05 3.50924E+04 1.57070E-09-1.78970E-08
 -1       551 3.82958E+04-7.71826E+05-8.47654E+03-1.22066E+06-9.85601E-08-1.92667E-08
 -1       552 8.69483E+04-8.12191E+05 1.41603E+04-1.74075E+06-7.02275E-08 3.33457E-08
 -1       553 6.64030E+04-8.10049E+05 3.49302E+04-1.21440E+06-1.12384E-07 1.65455E-08
 -1       554 1.24116E+05-8.25426E+05 8.45360E+04-1.74271E+06-6.98783E-08-3.49246E-09
 -1       555 9.60944E+04-8.33026E+05 1.53350E+05-1.21439E+06-1.18089E-07-2.25482E-08
 -1       556 2.08398E+05-3.60505E+05 3.64762E+04-3.91054E+05-1.93249E-08-1.05065E-08
 -1       557 3.33993E+05-4.60777E+05 2.14053E+04-5.04397E+05 1.41154E-09 7.60519E-09
 -1       558 1.92721E+05-3.56250E+05 5.06094E+03-3.93208E+05-1.40280E-08 1.14378E-08
 -1       559 3.10147E+05-4.62704E+05 3.64883E+03-5.22839E+05 2.78233E-08 1.32823E-08
 -1       560 1.79094E+05-3.47683E+05-6.35216E+02-4.02962E+05 8.76025E-09-6.78483E-09
 -1       561 2.92876E+05-4.55895E+05 4.58526E+02-5.34546E+05-6.00994E-09-1.14560E-08
 -1       562 1.68322E+05-3.40968E+05-9.93442E+02-4.10749E+05-4.65661E-10 2.28101E-09
 -1       563 2.80094E+05-4.50322E+05 5.69943E+01-5.42877E+05-2.85218E-09 8.79118E-09
 -1       564 1.60681E+05-3.36201E+05-4.71014E+02-4.16159E+05 4.78758E-09 5.36193E-09
 -1       565 2.71702E+05-4.46669E+05 4.91398E+01-5.48234E+05 3.85990E-09 1.53427E-08
 -1       566 1.56286E+05-3.33418E+05-2.08538E+02-4.19234E+05-1.10085E-08-1.43154E-09
 -1       567 2.67740E+05-4.44944E+05-3.18764E+02-5.50628E+05 1.60671E-08-1.52795E-09
 -1       568 1.55218E+05-3.32766E+05-1.01404E+03-4.20078E+05 3.95357E-09 1.01281E-08
 -1       569 2.66884E+05-4.44897E+05-2.56264E+03-5.49108E+05-2.96222E-09 2.92821E-08
 -1       570 1.58517E+05-3.35850E+05-5.62483E+03-4.19129E+05 6.96309E-09 5.62522E-09
 -1       571 2.81203E+05 1.01813E+04 1.46021E+04-8.97915E+04 7.19319E-09 8.74024E-09
 -1       572 2.83326E+05 3.79694E+03 7.15591E+03-9.85091E+04 8.74024E-09-8.36189E-09
 -1       573 2.82047E+05 1.15753E+03 3.17955E+03-8.96213E+04 6.98765E-09 1.25719E-08
 -1       574 2.82262E+05 6.45984E+02 1.59434E+03-9.87226E+04 5.02405E-09-7.46059E-09
 -1       575 2.82139E+05 3.80018E+02 7.52411E+02-8.95981E+04-1.35364E-09-9.59881E-09
 -1       576 2.82129E+05 3.85711E+02 3.85054E+02-9.87511E+04-8.21910E-09-3.16868E-09
 -1       577 2.82175E+05 3.25222E+02 1.92124E+02-8.95949E+04-6.73299E-09 7.74617E-09
 -1       578 2.82153E+05 3.51641E+02 1.10641E+02-9.87550E+04-5.61704E-09-2.35286E-09
 -1       579 2.82239E+05 2.93613E+02 7.57897E+01-8.95946E+04 4.82032E-09-4.34738E-10
 -1       580 2.82243E+05 3.07261E+02 8.72334E+01-9.87504E+04-7.78164E-09 3.63907E-08
 -1       581 2.82339E+05 2.42826E+02 1.31766E+02-8.96002E+04 7.19410E-09 1.32541E-08
 -1       582 2.82399E+05 2.77672E+02 2.67061E+02-9.86923E+04 5.94446E-09-9.58607E-09
 -1       583 2.82462E+05 2.90126E+02 5.13369E+02-8.96533E+04 3.57613E-09 1.47647E-08
 -1       584 2.82743E+05 7.07548E+02 1.16070E+03-9.82447E+04 7.72707E-09-1.53948E-08
 -1       585 2.82474E+05 1.69091E+03 2.35160E+03-9.00472E+04-1.82081E-09-1.52795E-08
 -1       586-3.32870E+03 1.10492E+05-3.00867E+03-2.43793E+05-3.40015E-09 6.07770E-09
 -1       587-1.22511E+03 1.10214E+05 6.41605E+02-2.68316E+05-6.75209E-09 1.94717E-08
 -1       588 4.71265E+02 1.10059E+05 4.53216E+03-2.43661E+05-2.43381E-09 3.35149E-09
 -1       589 4.99476E+03 1.12424E+05 1.18477E+04-2.68081E+05-6.58292E-09-2.66928E-08
 -1       590 1.60692E+04 1.08774E+05 2.48895E+04-2.44080E+05-6.03904E-09 8.53106E-10
 -1       591-7.06964E+04-1.53884E+04-2.15448E+04-3.05220E+04-7.19683E-09 8.04903E-10
 -1       592-7.44959E+04-1.89015E+04-1.16703E+04-3.41153E+04-4.43586E-09 3.90173E-10
 -1       593-7.28520E+04-1.38241E+04-4.85782E+03-3.21009E+04-5.91341E-09-1.69209E-08
 -1       594-7.15196E+04-1.57417E+04-2.42273E+03-3.42299E+04-4.79909E-09-1.36300E-08
 -1       595-7.30164E+04-1.38189E+04-1.11235E+03-3.21726E+04-3.42206E-09 2.30461E-08
 -1       596-7.13160E+04-1.55972E+04-5.65383E+02-3.42059E+04 1.83297E-09 4.26476E-08
 -1       597-7.30370E+04-1.38336E+04-3.07691E+02-3.21753E+04 2.01561E-09 2.40324E-08
 -1       598-7.12959E+04-1.55916E+04-2.47026E+02-3.41991E+04-1.34320E-08 7.95393E-09
 -1       599-7.30358E+04-1.38340E+04-3.15145E+02-3.21750E+04 1.34810E-09 7.39965E-09
 -1       600-7.13161E+04-1.55979E+04-5.85115E+02-3.42039E+04 5.59464E-09-1.34979E-08
 -1       601-7.30120E+04-1.38201E+04-1.15414E+03-3.21716E+04-3.61865E-09-7.37828E-09
 -1       602-7.15273E+04-1.57468E+04-2.51523E+03-3.42252E+04-5.12046E-10 1.48191E-09
 -1       603-7.28387E+04-1.38283E+04-5.04403E+03-3.20978E+04 7.39874E-10-5.02951E-10
 -1       604-7.46344E+04-1.90089E+04-1.21169E+04-3.40823E+04 1.33809E-10 2.09047E-09
 -1       605-7.05813E+04-1.54695E+04-2.23694E+04-3.04770E+04 8.60268E-10-2.40107E-09
 -1       606 2.69173E+04-1.38198E+04-2.47810E+04 2.44613E+04-1.88447E-09 3.25440E-09
 -1       607 2.26823E+04-4.50986E+03-1.23407E+04 2.74846E+04-1.18198E-08-1.10842E-08
 -1       608 2.50946E+04-8.10178E+02-5.52472E+03 2.42855E+04-1.18052E-08-1.67147E-08
 -1       609 2.46306E+04-2.73085E+02-2.79088E+03 2.77023E+04-4.37740E-09-1.12873E-08
 -1       610 2.48868E+04-3.41716E+01-1.33171E+03 2.42648E+04 1.29148E-10-8.36394E-09
 -1       611 2.48126E+04-3.27976E+01-6.71434E+02 2.77258E+04 7.82757E-09 1.20176E-08
 -1       612 2.48398E+04-1.99982E+01-3.19351E+02 2.42627E+04-5.28416E-10 5.95378E-09
 -1       613 2.48222E+04-2.79722E+01-1.43217E+02 2.77286E+04-7.82165E-10 1.32802E-08
 -1       614 2.48172E+04-2.54175E+01-3.39359E+01 2.42620E+04-9.45874E-11-4.27372E-09
 -1       615 2.48159E+04-2.58501E+01 5.92406E+01 2.77291E+04-2.76123E-09 2.33395E-08
 -1       616 2.47996E+04-2.18392E+01 1.78354E+02 2.42623E+04 3.18823E-09 6.91534E-09
 -1       617 2.48364E+04 1.27168E+01 4.07239E+02 2.77286E+04 2.44290E-09-2.97159E-08
 -1       618 2.47635E+04 9.59893E+01 8.20949E+02 2.42625E+04 2.43153E-09 4.50291E-09
 -1       619 2.51256E+04 6.47826E+02 1.84358E+03 2.77279E+04-6.83144E-10 1.27370E-08
 -1       620 2.44905E+04 2.04299E+03 3.70556E+03 2.42636E+04-1.80046E-09-7.17228E-09
 -1       621 4.68072E+02 2.91229E+05 3.67458E+03 3.71364E+04 7.46695E-10 2.68574E-09
 -1       622 6.12665E+02 2.92086E+05 3.27905E+03 5.39276E+04 9.23592E-10-1.07498E-08
 -1       623 1.15888E+02 2.91418E+05 3.96526E+03 3.69675E+04 1.05001E-09-1.70185E-08
 -1       624 2.00752E+03 2.93274E+05 7.70658E+03 5.40945E+04 1.30296E-09-2.17522E-08
 -1       625 1.97134E+03 2.89892E+05 1.34767E+04 3.69645E+04 1.19826E-09-1.60408E-08
 -1       626 2.52706E+05 6.03679E+04 5.03431E+03 1.23871E+05-1.23619E-08 1.49921E-08
 -1       627 2.50372E+05 6.17960E+04 2.42599E+03 1.28133E+05-2.74213E-08 1.35035E-08
 -1       628 2.52835E+05 5.80599E+04 1.02589E+03 1.24721E+05-2.35259E-08 1.50001E-08
 -1       629 2.49741E+05 6.11335E+04 5.02144E+02 1.28374E+05-6.25550E-09 3.05551E-08
 -1       630 2.52848E+05 5.79487E+04 2.32894E+02 1.24756E+05-7.21047E-09 7.47377E-10
 -1       631 2.49673E+05 6.11089E+04 1.25294E+02 1.28376E+05 2.39584E-09-6.78938E-09
 -1       632 2.52844E+05 5.79531E+04 8.23935E+01 1.24751E+05 1.88675E-09-1.41481E-08
 -1       633 2.49664E+05 6.11112E+04 9.16895E+01 1.28372E+05-2.37833E-09 1.79855E-08
 -1       634 2.52839E+05 5.79508E+04 1.48089E+02 1.24750E+05-8.00424E-09 4.09250E-09
 -1       635 2.49677E+05 6.11099E+04 2.99611E+02 1.28376E+05-6.52373E-09-7.85440E-09
 -1       636 2.52829E+05 5.79456E+04 6.05038E+02 1.24750E+05-1.12655E-08 1.21663E-08
 -1       637 2.49808E+05 6.12041E+04 1.33025E+03 1.28375E+05-9.13246E-09 1.89971E-08
 -1       638 2.52782E+05 5.82396E+04 2.73319E+03 1.24617E+05 5.37830E-09 2.65904E-08
 -1       639 2.51243E+05 6.32009E+04 6.46675E+03 1.27952E+05 4.75416E-09-4.46653E-09
 -1       640 2.52584E+05 6.42011E+04 1.34197E+04 1.22103E+05 5.58384E-09 2.03538E-08
 -1       656 6.47591E+04-1.65586E+06-1.56325E+05-2.20650E+03-8.00355E-11 9.30743E-09
 -1       657-8.56631E+04-1.72650E+06-1.29489E+05 5.58741E+03-7.16682E-10 8.22271E-09
 -1       658 2.06361E+04-1.67593E+06-7.97292E+04-4.20366E+03-1.35515E-10-1.41692E-08
 -1       659-9.25768E+04-1.72978E+06-1.38575E+05 7.21588E+03-1.35151E-09-1.83680E-08
 -1       660 7.16574E+04-1.65259E+06-1.71944E+05-3.83496E+03-1.52068E-09-6.54768E-09
 -1       661 1.60425E+05 1.68687E+04 1.67371E+04 6.27160E+04-6.77574E-10-2.67210E-09
 -1       662 1.69816E+05 2.93337E+04 1.12794E+04 5.90426E+04 4.02201E-09-1.87174E-08
 -1       663 1.63712E+05 2.22384E+04 3.94492E+03 6.17622E+04 1.33923E-10-9.02833E-09
 -1       664 1.66005E+05 2.30537E+04 2.35974E+03 6.02073E+04 1.27503E-09 1.33824E-08
 -1       665 1.64210E+05 2.29722E+04 9.30903E+02 6.16172E+04 1.00346E-09-1.87597E-09
 -1       666 1.65416E+05 2.22143E+04 5.44698E+02 6.03963E+04 8.58583E-09-2.26832E-08
 -1       667 1.64298E+05 2.30560E+04 2.89275E+02 6.15811E+04-1.33420E-09-1.02505E-08
 -1       668 1.65320E+05 2.21537E+04 2.94652E+02 6.04488E+04-4.84263E-10-1.23785E-08
 -1       669 1.64305E+05 2.30311E+04 3.98834E+02 6.15650E+04-5.91598E-10 4.86381E-10
 -1       670 1.65417E+05 2.23700E+04 8.68392E+02 6.04516E+04-8.71290E-09-1.37319E-09
 -1       671 1.64200E+05 2.28441E+04 1.54187E+03 6.15763E+04-1.30392E-10-5.48249E-09
 -1       672 1.66316E+05 2.38701E+04 3.94481E+03 6.02340E+04 5.21295E-09 8.63338E-09
 -1       673 1.63411E+05 2.15689E+04 6.61087E+03 6.17681E+04 1.73975E-09-8.21183E-09
 -1       674 1.72608E+05 3.44910E+04 1.89057E+04 5.83853E+04 2.68301E-10-1.47720E-08
 -1       675 1.57949E+05 1.25207E+04 2.80626E+04 6.33134E+04-1.21781E-09-1.39644E-08
 -1       676 2.36651E+01-2.90064E+05-1.09484E+03-1.12227E+02 3.60529E-10 4.48685E-10
 -1       677-2.89974E+02-2.90328E+05-2.00374E+03 2.24280E+02 8.58120E-09-1.92288E-08
 -1       678 1.94202E+02-2.89875E+05-3.54212E+03-1.11978E+02 4.83396E-10-6.84285E-09
 -1       679-3.54251E+03-2.92467E+05-8.41458E+03 2.23331E+02 5.57202E-09 2.06585E-08
 -1       680 2.11482E+03-2.87926E+05-1.35614E+04-1.10037E+02 1.36060E-09 8.43956E-09
 -1       771-3.01335E+06-7.16998E+05-1.49170E+05-1.42882E+06-2.92930E-08-1.65601E-08
 -1       772-2.94126E+06-8.00727E+05-7.70047E+04-1.52548E+06-2.29484E-08 7.97445E-09
 -1       773-3.04177E+06-6.94763E+05-3.90349E+04-1.44141E+06-1.57161E-08 1.31113E-08
 -1       774-2.93202E+06-7.84312E+05-1.74607E+04-1.54856E+06 2.82453E-08-5.02041E-10
 -1       775-3.05637E+06-6.84488E+05-1.29124E+04-1.44741E+06-8.09086E-09-3.08501E-09
 -1       776-2.94260E+06-7.81819E+05-4.85230E+03-1.56583E+06-1.58470E-08 5.02041E-09
 -1       777-3.06897E+06-6.75370E+05-5.65105E+03-1.45272E+06-9.31323E-10 3.73984E-09
 -1       778-2.95368E+06-7.79522E+05-1.60536E+03-1.58065E+06 5.32600E-09 1.57597E-08
 -1       779-3.07977E+06-6.67430E+05-2.80697E+03-1.45725E+06-7.14499E-09 6.83940E-10
 -1       780-2.96343E+06-7.77327E+05-4.66858E+02-1.59272E+06-6.17001E-09-1.57161E-09
 -1       781-3.08833E+06-6.61043E+05-1.08539E+03-1.46080E+06-2.52330E-08-1.26965E-09
 -1       782-2.97093E+06-7.75456E+05 3.94377E+02-1.60162E+06-3.74203E-08-8.83256E-09
 -1       783-3.09435E+06-6.56615E+05 6.16431E+02-1.46328E+06-1.15615E-08-1.81444E-08
 -1       784-2.97506E+06-7.73538E+05 2.54211E+03-1.60711E+06-2.09111E-08 5.29690E-09
 -1       785-3.09790E+06-6.53979E+05 4.48819E+03-1.46487E+06-3.96976E-08 1.16943E-08
 -1       786 1.24893E+05-9.69306E+03 2.24255E+04-2.92619E+02 1.79827E-09 2.17779E-08
 -1       787 1.34619E+05 1.12222E+04 1.58652E+04-1.10786E+02 8.99043E-09 8.23775E-09
 -1       788 1.28643E+05-1.51903E+03 5.80210E+03-2.58844E+02 4.51409E-09 6.57565E-09
 -1       789 1.30250E+05 1.75805E+03 3.64254E+03-1.62902E+02-1.77136E-09 6.97270E-09
 -1       790 1.29262E+05-2.36618E+02 1.47523E+03-2.40518E+02-3.31815E-09-1.84599E-09
 -1       791 1.29526E+05 2.73682E+02 8.52880E+02-1.94335E+02-5.08972E-09 7.73606E-09
 -1       792 1.29367E+05-3.57725E+01 3.63064E+02-2.27414E+02-4.52694E-09-2.45942E-09
 -1       793 1.29401E+05 3.84182E+01 1.84611E+02-2.19009E+02-7.23496E-10-4.40288E-09
 -1       794 1.29387E+05-1.50373E+00 5.52425E+01-2.15844E+02 4.21726E-09-1.04329E-08
 -1       795 1.29367E+05-2.11419E+01-3.78830E+01-2.43177E+02-4.33088E-09-9.22633E-10
 -1       796 1.29401E+05 2.37546E+01-1.27990E+02-2.03245E+02 3.12978E-09-4.75649E-09
 -1       797 1.29290E+05-1.78453E+02-3.60690E+02-2.72127E+02 3.86628E-09-3.31739E-09
 -1       798 1.29465E+05 1.55689E+02-5.88345E+02-1.86893E+02 2.09291E-09-1.96522E-09
 -1       799 1.28842E+05-1.14785E+03-1.62086E+03-3.12481E+02 4.63861E-09 6.82769E-09
 -1       800 1.29848E+05 9.92362E+02-2.29449E+03-1.62892E+02 8.17469E-10 8.34007E-09
 -1       801-1.21616E+05-9.08401E+06-1.23978E+06 1.19672E+06 8.67585E-08-4.16403E-08
 -1       802 5.96951E+05 4.52100E+06 1.82241E+06-1.45364E+06 2.38295E-07-3.28655E-08
 -1       803-4.53682E+05-1.26379E+07-1.61228E+06 7.61232E+05 7.21302E-08 1.80262E-08
 -1       804 2.32320E+05 1.43557E+06 1.28435E+06 6.05595E+05-1.09016E-07-8.96180E-08
 -1       805 1.70747E+05-6.01363E+06-2.45165E+05-8.57621E+05-4.47690E-08-6.54718E-08
 -1       806-3.00313E+05-5.79345E+04-2.21660E+04-1.18814E+05-6.28097E-09 4.04179E-09
 -1       807-3.02085E+05-5.42879E+04-1.08899E+04-1.24158E+05 7.49333E-09 6.72638E-09
 -1       808-3.00919E+05-4.99488E+04-4.61987E+03-1.22594E+05-1.34651E-09 1.31492E-08
 -1       809-2.99797E+05-5.12270E+04-2.25901E+03-1.24425E+05-8.70568E-09 1.78165E-08
 -1       810-3.01011E+05-4.96707E+04-1.03541E+03-1.22761E+05 4.35602E-09 9.52173E-09
 -1       811-2.99620E+05-5.11039E+04-5.14913E+02-1.24390E+05 9.18544E-09 4.28054E-09
 -1       812-3.01025E+05-4.96945E+04-2.60429E+02-1.22761E+05-7.57154E-09-1.41140E-08
 -1       813-2.99596E+05-5.11059E+04-1.69304E+02-1.24373E+05 1.56797E-09-5.36465E-09
 -1       814-3.01018E+05-4.97037E+04-1.67823E+02-1.22757E+05 4.08363E-10-5.76665E-09
 -1       815-2.99600E+05-5.11079E+04-2.70503E+02-1.24366E+05 4.38013E-09 2.02660E-08
 -1       816-3.00999E+05-4.97026E+04-5.12692E+02-1.22753E+05 2.48747E-09 1.75796E-08
 -1       817-2.99687E+05-5.11567E+04-1.10043E+03-1.24355E+05-9.06630E-09-3.71892E-09
 -1       818-3.00932E+05-4.98576E+04-2.24444E+03-1.22680E+05 9.94987E-10-1.47224E-08
 -1       819-3.00916E+05-5.25130E+04-5.28117E+03-1.24065E+05 4.49563E-09-5.83259E-09
 -1       820-3.00511E+05-5.38458E+04-1.07490E+04-1.20975E+05-1.05319E-09-1.22602E-08
 -1       821-3.70611E+05 2.04174E+04-4.73676E+04 1.65748E+03 1.14216E-08 1.65419E-08
 -1       822-3.90524E+05-2.36437E+04-3.34119E+04-3.28784E+03 3.38892E-09 4.42787E-09
 -1       823-3.78214E+05 3.20995E+03-1.22498E+04 2.49138E+03-9.56052E-09 5.77347E-09
 -1       824-3.81473E+05-3.70656E+03-7.68666E+03-3.75440E+03 9.45604E-10 8.09086E-09
 -1       825-3.79663E+05 4.98734E+02-3.19514E+03 2.12410E+03 1.39436E-08 8.76742E-09
 -1       826-3.79482E+05-5.70576E+02-1.79790E+03-2.02340E+03 1.61920E-08-1.06789E-08
 -1       827-3.80191E+05 6.61164E+01-1.08274E+03 7.60313E+02 6.05874E-09 4.11640E-09
 -1       828-3.79056E+05-1.55057E+02-7.20470E+02 9.61893E+02-1.46388E-09 7.19709E-09
 -1       829-3.80083E+05 7.90040E+01-1.08282E+03-8.61233E+02 2.26548E-09 5.68576E-09
 -1       830-3.79722E+05-6.12331E+02-1.91149E+03 3.57929E+03 1.73267E-09-2.29289E-09
 -1       831-3.79537E+05 5.32656E+02-3.28725E+03-1.85711E+03-4.41790E-09 7.84394E-09
 -1       832-3.81559E+05-3.86174E+03-7.98508E+03 4.40408E+03 4.56613E-11-2.12287E-09
 -1       833-3.78255E+05 3.33172E+03-1.27365E+04-1.68605E+03-2.46179E-09-6.64841E-09
 -1       834-3.90702E+05-2.45450E+04-3.46424E+04 2.96181E+03-2.12872E-09 8.81573E-09
 -1       835-3.70386E+05 2.11913E+04-4.92026E+04-4.14791E+02 5.50139E-09 3.79441E-09
 -1       836-1.35875E+03 3.58131E+05 2.21136E+04-1.62551E+04-5.83805E-09 1.22614E-08
 -1       837 4.72641E+03 3.65051E+05 1.87355E+04-3.31200E+04-6.49482E-09-2.57273E-09
 -1       838-5.34620E+02 3.60068E+05 1.91218E+04-1.61845E+04-5.33873E-09 1.15792E-08
 -1       839 1.20592E+04 3.70513E+05 3.62047E+04-3.31705E+04-5.56793E-09 1.39336E-08
 -1       840-3.71976E+03 3.52612E+05 5.77471E+04-1.62093E+04-5.04951E-09-3.45493E-09
 -1       856-5.59018E+04 7.98335E+03-2.10380E+04-3.99083E+02 2.16539E-09 9.64974E-10
 -1       857-6.45719E+04-9.37785E+03-1.44825E+04 5.52328E+03 7.19820E-09 5.32305E-09
 -1       858-5.93343E+04 1.11945E+03-5.45896E+03-4.23064E+02 3.66640E-09-9.35438E-09
 -1       859-6.06325E+04-1.31479E+03-3.29450E+03 5.55928E+03-3.14519E-09 4.64047E-09
 -1       860-5.98471E+04 1.56634E+02-1.38116E+03-4.34871E+02 3.92185E-09-5.20674E-09
 -1       861-6.00425E+04-1.84932E+02-7.60729E+02 5.57539E+03-1.38499E-09-1.31550E-08
 -1       862-5.99273E+04 2.11384E+01-3.18075E+02-4.39156E+02-4.46683E-10-7.34869E-09
 -1       863-5.99446E+04-2.00950E+01-1.20066E+02 5.57782E+03-3.12125E-09-1.73958E-09
 -1       864-5.99456E+04-4.46632E+00 3.75034E+01-4.37301E+02 5.44134E-11 3.65513E-09
 -1       865-5.98917E+04 5.67331E+01 2.32888E+02 5.56740E+03-3.65482E-09 4.96794E-09
 -1       866-5.99780E+04-5.57615E+01 4.74183E+02-4.28737E+02 2.80846E-09 5.33214E-09
 -1       867-5.96674E+04 4.61023E+02 1.17030E+03 5.54412E+03-3.80612E-09-2.72948E-09
 -1       868-6.01651E+04-4.01612E+02 1.94541E+03-4.14018E+02-1.04842E-09-8.31596E-09
 -1       869-5.82401E+04 3.34239E+03 5.18117E+03 5.50563E+03 3.67322E-10-1.28957E-08
 -1       870-6.13978E+04-2.85909E+03 7.51884E+03-3.90173E+02-5.77256E-09-1.43018E-09
 -1       871-5.39962E+03-1.98076E+04-1.88656E+04 1.26121E+05-4.08727E-09 1.84809E-09
 -1       872-1.99342E+03-2.41754E+04-7.88091E+03 1.63532E+05-9.88257E-09 4.11683E-09
 -1       873 3.36220E+02-2.20720E+04 6.17623E+02 1.25844E+05-4.98540E-09-9.29435E-09
 -1       874 3.15252E+03-1.96978E+04 9.57515E+03 1.63563E+05-1.06520E-08-5.94287E-09
 -1       875 6.63232E+03-2.43527E+04 2.15645E+04 1.26075E+05-4.28008E-09 4.24552E-09
 -1       876 2.86357E+05 4.83618E+04 1.47612E+04 1.15033E+05 5.12296E-09 4.73210E-09
 -1       877 2.87322E+05 5.14811E+04 7.88306E+03 1.19277E+05 1.39371E-08-3.66617E-09
 -1       878 2.87737E+05 4.67270E+04 3.30262E+03 1.16243E+05 7.20775E-10-6.56792E-09
 -1       879 2.85316E+05 4.94788E+04 1.64554E+03 1.19377E+05-1.12595E-09-1.51554E-08
 -1       880 2.87836E+05 4.67100E+04 7.66451E+02 1.16292E+05-1.57343E-09-1.58733E-08
 -1       881 2.85183E+05 4.93932E+04 4.09244E+02 1.19355E+05-9.34085E-09-7.84122E-09
 -1       882 2.87845E+05 4.67229E+04 2.61721E+02 1.16294E+05-1.82990E-09-2.16244E-09
 -1       883 2.85173E+05 4.93888E+04 2.81216E+02 1.19347E+05 1.01937E-09-5.33808E-09
 -1       884 2.87839E+05 4.67201E+04 4.47216E+02 1.16294E+05 4.16139E-09-1.00572E-08
 -1       885 2.85209E+05 4.93950E+04 8.99070E+02 1.19358E+05-2.40561E-10-8.95852E-09
 -1       886 2.87804E+05 4.66939E+04 1.81200E+03 1.16291E+05-4.84884E-09 2.40948E-09
 -1       887 2.85527E+05 4.96038E+04 3.95805E+03 1.19404E+05 6.23061E-09-1.00590E-09
 -1       888 2.87554E+05 4.67379E+04 7.97558E+03 1.16164E+05 2.08502E-10 1.08380E-08
 -1       889 2.90276E+05 5.45413E+04 1.90522E+04 1.19258E+05-3.16318E-09 3.84443E-09
 -1       890 2.84300E+05 5.06038E+04 3.56843E+04 1.13128E+05-3.94766E-09 2.89219E-10
 -1       891-9.74420E+01-1.59004E+05-1.94503E+03 2.68487E+04 5.68889E-10-3.00588E-09
 -1       892-1.86751E+02-1.59513E+05-2.09067E+03 4.07521E+04 2.21326E-09 6.25278E-11
 -1       893 3.21051E+01-1.59067E+05-2.96188E+03 2.68557E+04-1.75760E-10 2.50307E-08
 -1       894-1.48957E+03-1.60633E+05-6.13123E+03 4.06019E+04 2.80329E-09 1.82590E-08
 -1       895-1.18088E+03-1.57789E+05-1.07975E+04 2.70000E+04-4.20641E-10-1.69712E-09
 -1       956-3.67090E+05-5.28113E+03-1.30736E+04 2.93927E+04 4.02270E-09 5.32964E-10
 -1       957-3.69657E+05-1.85118E+03-6.71059E+03 3.53326E+04-2.78214E-09-6.95900E-09
 -1       958-3.68263E+05-2.20148E+02-3.02392E+03 2.92307E+04-8.01629E-09-8.24730E-09
 -1       959-3.68456E+05-1.16222E+02-1.54413E+03 3.55199E+04 4.56112E-10 1.36417E-08
 -1       960-3.68376E+05-3.04446E+01-7.52978E+02 2.92141E+04-1.18234E-10 1.23148E-08
 -1       961-3.68377E+05-4.59508E+01-3.99287E+02 3.55394E+04-8.11815E-09-6.88806E-09
 -1       962-3.68402E+05-3.21267E+01-2.28652E+02 2.92114E+04-7.30233E-09-1.12752E-08
 -1       963-3.68377E+05-4.21758E+01-1.83655E+02 3.55429E+04 2.25828E-09-6.22822E-09
 -1       964-3.68408E+05-2.89501E+01-2.23419E+02 2.92106E+04-7.27164E-09-1.22225E-08
 -1       965-3.68389E+05-3.91790E+01-3.86489E+02 3.55423E+04-1.71127E-08-3.64162E-09
 -1       966-3.68392E+05-2.10029E+01-7.26179E+02 2.92120E+04 5.11591E-10 1.10397E-08
 -1       967-3.68477E+05-1.00492E+02-1.48942E+03 3.55287E+04 1.55887E-09-3.38036E-09
 -1       968-3.68292E+05-1.97891E+02-2.91565E+03 2.92241E+04-9.34506E-10-3.26281E-11
 -1       969-3.69647E+05-1.76861E+03-6.47279E+03 3.53881E+04 2.37833E-10 1.47938E-09
 -1       970-3.67168E+05-5.07574E+03-1.26092E+04 2.93458E+04-2.30557E-09-1.15642E-08
 -1       971-3.37115E+05-1.69362E+03-9.16205E+03 1.51179E+04 3.27054E-09-8.87243E-09
 -1       972-3.39323E+05-1.24280E+03-4.98956E+03 2.09360E+04 3.05045E-09-1.71185E-08
 -1       973-3.38136E+05-5.47506E+01-2.23481E+03 1.49978E+04 1.73532E-09-2.81079E-09
 -1       974-3.38271E+05-7.10483E+01-1.15838E+03 2.10712E+04-2.34877E-10-1.51203E-09
 -1       975-3.38216E+05-1.06754E+01-5.79309E+02 1.49857E+04-2.86491E-11 1.73546E-08
 -1       976-3.38211E+05-2.20644E+01-3.34717E+02 2.10866E+04 3.63843E-09 7.37168E-09
 -1       977-3.38232E+05-1.00125E+01-2.43827E+02 1.49824E+04-4.41719E-09-6.00289E-09
 -1       978-3.38216E+05-1.59943E+01-2.86547E+02 2.10912E+04-1.64982E-09-1.25400E-08
 -1       979-3.38232E+05-1.76313E+00-4.61439E+02 1.49810E+04 3.99041E-10 3.18346E-09
 -1       980-3.38250E+05-1.30116E+01-8.91638E+02 2.10922E+04 1.76615E-09 5.51029E-09
 -1       981-3.38204E+05 2.05154E+01-1.72724E+03 1.49815E+04 5.37170E-09-1.81783E-08
 -1       982-3.38488E+05-1.40631E+02-3.57037E+03 2.10857E+04 4.44027E-09 4.02270E-09
 -1       983-3.37986E+05-9.00791E+01-6.93735E+03 1.49875E+04 3.58341E-10 9.53014E-09
 -1       984-3.41824E+05-3.76379E+03-1.55359E+04 2.10013E+04-2.57842E-09-1.66101E-08
 -1       985-3.34845E+05-5.16641E+03-2.85287E+04 1.50598E+04-5.22869E-09-8.26367E-09
 -3
    1PSTEP                        29          15           1          
  100CL  115 6.55373E-01         409                     0   15           1
 -4  DISP        4    1
 -5  D1          1    2    1    0
 -5  D2          1    2    2    0
 -5  D3          1    2    3    0
 -5  ALL         1    2    0    0    1ALL
 -1         1 2.43495E-03 0.00000E+00 0.00000E+00
 -1         2 1.48263E-03 2.48884E-27 2.64698E-23
 -1         3 3.31018E-04-4.47262E-28 0.00000E+00
 -1         5 1.72800E-04 1.98566E-27 1.24077E-24
 -1         8 2.42043E-03-4.64518E-07 0.00000E+00
 -1         9 2.40008E-03-9.10652E-05 0.00000E+00
 -1        10 3.00223E-04-3.48635E-06 0.00000E+00
 -1        12 1.74475E-04 7.93710E-07 8.27181E-25
 -1        15 2.40315E-03-5.02100E-07-2.06795E-25
 -1        16 2.44062E-03-9.24818E-05 0.00000E+00
 -1        17 2.04704E-04-7.88226E-06 0.00000E+00
 -1        18 1.77936E-04 3.20503E-05 0.00000E+00
 -1        19 1.79503E-04 1.58148E-06 0.00000E+00
 -1        20 1.79644E-04-7.97797E-06 0.00000E+00
 -1        21 1.78775E-04-2.13749E-05 3.30872E-24
 -1        24 3.01693E-05-1.19578E-05 0.00000E+00
 -1        25 1.87863E-04 3.22699E-05 0.00000E+00
 -1        26 1.88551E-04 2.19042E-06 0.00000E+00
 -1        27 1.86393E-04-1.14770E-05 0.00000E+00
 -1        28 1.86066E-04-2.19889E-05 0.00000E+00
 -1        32 0.00000E+00 0.00000E+00 0.00000E+00
 -1        33 1.96583E-04 2.93082E-06 0.00000E+00
 -1        34 1.94500E-04-1.15301E-05 0.00000E+00
 -1        35 1.92596E-04-2.23259E-05 0.00000E+00
 -1        51 2.43401E-03-9.19800E-08 6.61744E-24
 -1        52 2.43226E-03-1.67409E-07 0.00000E+00
 -1        53 2.42986E-03-2.40133E-07 0.00000E+00
 -1        54 2.42698E-03-3.12359E-07 0.00000E+00
 -1        55 2.42378E-03-3.85760E-07 1.44757E-24
 -1        56 2.43026E-03 1.67379E-06 0.00000E+00
 -1        57 2.42334E-03 8.79137E-06 5.29396E-23
 -1        58 2.41499E-03 1.96495E-05-1.05879E-22
 -1        59 2.40597E-03 3.21586E-05-5.29396E-23
 -1        60 2.39721E-03 4.39729E-05 0.00000E+00
 -1        61 2.38962E-03 5.27945E-05 0.00000E+00
 -1        62 2.38385E-03 5.68340E-05 1.05879E-22
 -1        63 2.38041E-03 5.47038E-05 0.00000E+00
 -1        64 2.37939E-03 4.60700E-05-1.05879E-22
 -1        65 2.38064E-03 3.11559E-05 0.00000E+00
 -1        66 2.38368E-03 1.12688E-05-1.05879E-22
 -1        67 2.38787E-03-1.18509E-05 0.00000E+00
 -1        68 2.39238E-03-3.59019E-05-1.05879E-22
 -1        69 2.39641E-03-5.84932E-05 5.29396E-23
 -1        70 2.39915E-03-7.75014E-05 0.00000E+00
 -1        86 1.53984E-03-3.32166E-06 5.29396E-23
 -1        87 1.70733E-03-1.86485E-05 0.00000E+00
 -1        88 1.93260E-03-4.44593E-05 0.00000E+00
 -1        89 2.16049E-03-7.08660E-05-1.32349E-23
 -1        90 2.33444E-03-8.72222E-05 2.64698E-23
 -1       121 3.30153E-04-5.64567E-07 0.00000E+00
 -1       122 3.27562E-04-1.13201E-06 6.61744E-24
 -1       123 3.23253E-04-1.70514E-06 1.32349E-23
 -1       124 3.17244E-04-2.28680E-06-6.61744E-24
 -1       125 3.09558E-04-2.87942E-06-1.32349E-23
 -1       191 1.72846E-04 1.32338E-07 2.48154E-24
 -1       192 1.72986E-04 2.64667E-07-2.06795E-25
 -1       193 1.73218E-04 3.96979E-07 8.27181E-25
 -1       194 1.73544E-04 5.29265E-07-8.27181E-25
 -1       195 1.73963E-04 6.61512E-07 2.48154E-24
 -1       251 2.41983E-03 1.15451E-05 1.32349E-23
 -1       252 2.41885E-03 4.14975E-05 6.61744E-24
 -1       253 2.41747E-03 8.34555E-05-1.32349E-23
 -1       254 2.41584E-03 1.31216E-04 6.61744E-24
 -1       255 2.41430E-03 1.77073E-04 0.00000E+00
 -1       256 2.41313E-03 2.13364E-04 6.61744E-24
 -1       257 2.41235E-03 2.34897E-04 0.00000E+00
 -1       258 2.41180E-03 2.36807E-04 0.00000E+00
 -1       259 2.41110E-03 2.19204E-04 0.00000E+00
 -1       260 2.40990E-03 1.82639E-04 6.61744E-24
 -1       261 2.40816E-03 1.32478E-04-1.32349E-23
 -1       262 2.40600E-03 7.43826E-05 0.00000E+00
 -1       263 2.40383E-03 1.60678E-05 0.00000E+00
 -1       264 2.40205E-03-3.47456E-05 0.00000E+00
 -1       265 2.40082E-03-7.22858E-05 0.00000E+00
 -1       266 2.41755E-03-4.77614E-07 0.00000E+00
 -1       267 2.41467E-03-4.83045E-07 0.00000E+00
 -1       268 2.41179E-03-4.88961E-07 0.00000E+00
 -1       269 2.40891E-03-4.93439E-07-2.06795E-25
 -1       270 2.40603E-03-4.97884E-07 0.00000E+00
 -1       271 2.41883E-03 1.56053E-06 0.00000E+00
 -1       272 2.41764E-03 2.40589E-06 0.00000E+00
 -1       273 2.41690E-03 2.07001E-06 0.00000E+00
 -1       274 2.41660E-03 5.52872E-07-1.32349E-23
 -1       275 2.41673E-03-2.12899E-06 2.64698E-23
 -1       276 2.41728E-03-5.94853E-06 1.32349E-23
 -1       277 2.41824E-03-1.08651E-05 2.64698E-23
 -1       278 2.41959E-03-1.68270E-05 0.00000E+00
 -1       279 2.42129E-03-2.37704E-05-2.64698E-23
 -1       280 2.42334E-03-3.16212E-05 0.00000E+00
 -1       281 2.42568E-03-4.02949E-05 2.64698E-23
 -1       282 2.42829E-03-4.96985E-05 1.32349E-23
 -1       283 2.43112E-03-5.97305E-05 2.64698E-23
 -1       284 2.43415E-03-7.02820E-05 1.32349E-23
 -1       285 2.43733E-03-8.12400E-05 0.00000E+00
 -1       301 2.40747E-03-9.13277E-05-6.61744E-24
 -1       302 2.41351E-03-9.15534E-05-3.30872E-24
 -1       303 2.41902E-03-9.17734E-05 0.00000E+00
 -1       304 2.42483E-03-9.19938E-05 0.00000E+00
 -1       305 2.43176E-03-9.22230E-05 0.00000E+00
 -1       306 2.43575E-03-2.33776E-04 1.05879E-22
 -1       307 2.50020E-03-6.24670E-04-5.29396E-23
 -1       308 2.55224E-03-1.20064E-03-1.05879E-22
 -1       309 2.58408E-03-1.87208E-03-5.29396E-23
 -1       310 2.62112E-03-2.51991E-03-1.05879E-22
 -1       311 2.68187E-03-3.02716E-03 0.00000E+00
 -1       312 2.74093E-03-3.31628E-03-1.05879E-22
 -1       313 2.74422E-03-3.34708E-03 5.29396E-23
 -1       314 2.62489E-03-3.12811E-03 0.00000E+00
 -1       315 2.34350E-03-2.71564E-03 5.29396E-23
 -1       316 1.91492E-03-2.18186E-03 1.05879E-22
 -1       317 1.39751E-03-1.59462E-03 5.29396E-23
 -1       318 8.95697E-04-1.01645E-03 1.05879E-22
 -1       319 5.09265E-04-5.12756E-04 0.00000E+00
 -1       320 2.80261E-04-1.53749E-04 0.00000E+00
 -1       336 2.89061E-04-4.15591E-06 0.00000E+00
 -1       337 2.75904E-04-4.84933E-06 6.61744E-24
 -1       338 2.60813E-04-5.56853E-06 1.32349E-23
 -1       339 2.43860E-04-6.31410E-06 6.61744E-24
 -1       340 2.25127E-04-7.09028E-06 1.32349E-23
 -1       406 1.75080E-04 9.25843E-07 0.00000E+00
 -1       407 1.75779E-04 1.05787E-06 0.00000E+00
 -1       408 1.76570E-04 1.18976E-06-3.10193E-24
 -1       409 1.77455E-04 1.32132E-06-8.53030E-25
 -1       410 1.78433E-04 1.45231E-06-2.48154E-24
 -1       521 2.47702E-03-2.44200E-04 0.00000E+00
 -1       522 2.54019E-03-6.54289E-04-5.29396E-23
 -1       523 2.58685E-03-1.25655E-03 1.05879E-22
 -1       524 2.61071E-03-1.95513E-03 5.29396E-23
 -1       525 2.64079E-03-2.62829E-03 0.00000E+00
 -1       526 2.69832E-03-3.15667E-03 5.29396E-23
 -1       527 2.75702E-03-3.45655E-03 0.00000E+00
 -1       528 2.75859E-03-3.48671E-03 1.05879E-22
 -1       529 2.62932E-03-3.25533E-03 0.00000E+00
 -1       530 2.32745E-03-2.82554E-03 0.00000E+00
 -1       531 1.86828E-03-2.27294E-03 1.05879E-22
 -1       532 1.31573E-03-1.66822E-03 5.29396E-23
 -1       533 7.79052E-04-1.07205E-03 0.00000E+00
 -1       534 3.62768E-04-5.48100E-04 0.00000E+00
 -1       535 1.14515E-04-1.70534E-04-1.05879E-22
 -1       536 2.03993E-04 2.57528E-05 0.00000E+00
 -1       537 2.02199E-04 8.40492E-05-3.30872E-24
 -1       538 1.99431E-04 1.58048E-04 0.00000E+00
 -1       539 1.96167E-04 2.38710E-04 0.00000E+00
 -1       540 1.93228E-04 3.14933E-04 0.00000E+00
 -1       541 1.91314E-04 3.75639E-04-1.65436E-24
 -1       542 1.90427E-04 4.14284E-04 0.00000E+00
 -1       543 1.90209E-04 4.24466E-04 1.65436E-24
 -1       544 1.89898E-04 4.06943E-04 3.30872E-24
 -1       545 1.88791E-04 3.62684E-04 1.65436E-24
 -1       546 1.86739E-04 2.99562E-04 0.00000E+00
 -1       547 1.83967E-04 2.25569E-04-1.65436E-24
 -1       548 1.81224E-04 1.51968E-04 3.30872E-24
 -1       549 1.79243E-04 9.00242E-05-1.65436E-24
 -1       550 1.78210E-04 4.75035E-05 0.00000E+00
 -1       551 1.80415E-04-8.43534E-06 0.00000E+00
 -1       552 1.52953E-04-9.06372E-06 0.00000E+00
 -1       553 1.23250E-04-9.75055E-06-9.92617E-24
 -1       554 9.22536E-05-1.04758E-05 0.00000E+00
 -1       555 6.09123E-05-1.12133E-05 0.00000E+00
 -1       556 1.97364E-04 1.09019E-05 5.29396E-23
 -1       557 1.91441E-04 2.61164E-05 0.00000E+00
 -1       558 1.86805E-04 3.80406E-05 0.00000E+00
 -1       559 1.83327E-04 4.69763E-05 0.00000E+00
 -1       560 1.80881E-04 5.32252E-05 0.00000E+00
 -1       561 1.79344E-04 5.70917E-05 0.00000E+00
 -1       562 1.78594E-04 5.88814E-05 0.00000E+00
 -1       563 1.78511E-04 5.89004E-05 1.32349E-23
 -1       564 1.78977E-04 5.74562E-05 0.00000E+00
 -1       565 1.79874E-04 5.48564E-05 0.00000E+00
 -1       566 1.81088E-04 5.14095E-05 0.00000E+00
 -1       567 1.82501E-04 4.74240E-05-3.30872E-24
 -1       568 1.83999E-04 4.32090E-05-8.27181E-25
 -1       569 1.85469E-04 3.90731E-05 0.00000E+00
 -1       570 1.86794E-04 3.53253E-05 0.00000E+00
 -1       571 1.78031E-04 3.00743E-05-8.27181E-25
 -1       572 1.78128E-04 2.80344E-05-1.65436E-24
 -1       573 1.78225E-04 2.59456E-05 3.30872E-24
 -1       574 1.78323E-04 2.38237E-05-8.27181E-25
 -1       575 1.78421E-04 2.16847E-05 0.00000E+00
 -1       576 1.78519E-04 1.95445E-05 1.65436E-24
 -1       577 1.78617E-04 1.74190E-05 0.00000E+00
 -1       578 1.78715E-04 1.53241E-05 0.00000E+00
 -1       579 1.78813E-04 1.32759E-05 0.00000E+00
 -1       580 1.78911E-04 1.12903E-05-6.61744E-24
 -1       581 1.79009E-04 9.38337E-06 0.00000E+00
 -1       582 1.79108E-04 7.57091E-06 0.00000E+00
 -1       583 1.79206E-04 5.86891E-06 0.00000E+00
 -1       584 1.79305E-04 4.29315E-06-3.30872E-24
 -1       585 1.79404E-04 2.85924E-06 0.00000E+00
 -1       586 1.79548E-04 3.20889E-05 0.00000E+00
 -1       587 1.81120E-04 3.21271E-05-4.13590E-25
 -1       588 1.82695E-04 3.21648E-05 0.00000E+00
 -1       589 1.84316E-04 3.22019E-05 0.00000E+00
 -1       590 1.86024E-04 3.22378E-05 0.00000E+00
 -1       591 1.78611E-04 3.01642E-05 0.00000E+00
 -1       592 1.79289E-04 2.82576E-05 0.00000E+00
 -1       593 1.79973E-04 2.63362E-05 0.00000E+00
 -1       594 1.80660E-04 2.44050E-05 0.00000E+00
 -1       595 1.81349E-04 2.24686E-05 8.27181E-25
 -1       596 1.82038E-04 2.05318E-05-4.13590E-25
 -1       597 1.82725E-04 1.85994E-05 8.27181E-25
 -1       598 1.83409E-04 1.66762E-05-4.13590E-25
 -1       599 1.84087E-04 1.47668E-05 0.00000E+00
 -1       600 1.84759E-04 1.28761E-05 0.00000E+00
 -1       601 1.85422E-04 1.10088E-05 0.00000E+00
 -1       602 1.86075E-04 9.16956E-06 2.06795E-25
 -1       603 1.86715E-04 7.36322E-06-8.27181E-25
 -1       604 1.87342E-04 5.59460E-06 1.55096E-25
 -1       605 1.87953E-04 3.86838E-06 0.00000E+00
 -1       606 1.79516E-04 5.31946E-07 3.30872E-24
 -1       607 1.79526E-04-4.30719E-07 0.00000E+00
 -1       608 1.79535E-04-1.31161E-06 0.00000E+00
 -1       609 1.79543E-04-2.11648E-06-1.65436E-24
 -1       610 1.79552E-04-2.85114E-06 0.00000E+00
 -1       611 1.79560E-04-3.52144E-06 0.00000E+00
 -1       612 1.79569E-04-4.13325E-06 0.00000E+00
 -1       613 1.79577E-04-4.69246E-06 0.00000E+00
 -1       614 1.79586E-04-5.20494E-06 0.00000E+00
 -1       615 1.79594E-04-5.67658E-06 0.00000E+00
 -1       616 1.79603E-04-6.11326E-06-1.65436E-24
 -1       617 1.79611E-04-6.52085E-06 4.13590E-25
 -1       618 1.79620E-04-6.90524E-06 0.00000E+00
 -1       619 1.79628E-04-7.27230E-06 0.00000E+00
 -1       620 1.79636E-04-7.62792E-06-2.06795E-25
 -1       621 1.80740E-04 1.68349E-06 1.65436E-24
 -1       622 1.82128E-04 1.78575E-06 0.00000E+00
 -1       623 1.83635E-04 1.88782E-06-1.65436E-24
 -1       624 1.85228E-04 1.98959E-06 8.27181E-25
 -1       625 1.86878E-04 2.09108E-06 3.30872E-24
 -1       626 1.80006E-04 5.67399E-07 0.00000E+00
 -1       627 1.80487E-04-3.82250E-07 0.00000E+00
 -1       628 1.80947E-04-1.27533E-06 6.61744E-24
 -1       629 1.81388E-04-2.12001E-06-1.65436E-24
 -1       630 1.81815E-04-2.92452E-06-3.30872E-24
 -1       631 1.82230E-04-3.69709E-06 1.65436E-24
 -1       632 1.82636E-04-4.44593E-06 0.00000E+00
 -1       633 1.83036E-04-5.17930E-06 0.00000E+00
 -1       634 1.83433E-04-5.90542E-06 3.30872E-24
 -1       635 1.83831E-04-6.63250E-06 0.00000E+00
 -1       636 1.84232E-04-7.36880E-06 0.00000E+00
 -1       637 1.84640E-04-8.12255E-06 1.65436E-24
 -1       638 1.85057E-04-8.90197E-06 0.00000E+00
 -1       639 1.85487E-04-9.71534E-06-8.27181E-25
 -1       640 1.85931E-04-1.05709E-05-3.30872E-24
 -1       656 1.80226E-04-8.54671E-06-6.61744E-24
 -1       657 1.81226E-04-9.13855E-06 0.00000E+00
 -1       658 1.82503E-04-9.72898E-06-1.32349E-23
 -1       659 1.83912E-04-1.03191E-05 0.00000E+00
 -1       660 1.85269E-04-1.09110E-05 0.00000E+00
 -1       661 1.79862E-04-8.37200E-06 8.27181E-25
 -1       662 1.80118E-04-8.85575E-06 0.00000E+00
 -1       663 1.80404E-04-9.42416E-06-1.65436E-24
 -1       664 1.80721E-04-1.00710E-05 0.00000E+00
 -1       665 1.81064E-04-1.07906E-05-1.65436E-24
 -1       666 1.81433E-04-1.15772E-05 0.00000E+00
 -1       667 1.81825E-04-1.24255E-05 1.65436E-24
 -1       668 1.82239E-04-1.33300E-05 0.00000E+00
 -1       669 1.82671E-04-1.42855E-05 1.65436E-24
 -1       670 1.83120E-04-1.52870E-05-8.27181E-25
 -1       671 1.83585E-04-1.63294E-05 0.00000E+00
 -1       672 1.84062E-04-1.74079E-05 0.00000E+00
 -1       673 1.84552E-04-1.85175E-05 0.00000E+00
 -1       674 1.85051E-04-1.96539E-05 0.00000E+00
 -1       675 1.85557E-04-2.08119E-05 0.00000E+00
 -1       676 1.79994E-04-2.14778E-05 0.00000E+00
 -1       677 1.81213E-04-2.15807E-05 0.00000E+00
 -1       678 1.82430E-04-2.16835E-05-3.30872E-24
 -1       679 1.83645E-04-2.17860E-05-1.65436E-24
 -1       680 1.84857E-04-2.18886E-05 0.00000E+00
 -1       771 1.86516E-05 1.37437E-05 0.00000E+00
 -1       772 8.95309E-06 3.48538E-05 0.00000E+00
 -1       773 9.86566E-07 5.15948E-05 5.29396E-23
 -1       774-5.36680E-06 6.42158E-05 2.64698E-23
 -1       775-1.02234E-05 7.29756E-05 0.00000E+00
 -1       776-1.37045E-05 7.81489E-05-2.64698E-23
 -1       777-1.59310E-05 8.00199E-05-5.29396E-23
 -1       778-1.70264E-05 7.88860E-05 2.64698E-23
 -1       779-1.71138E-05 7.50525E-05 5.29396E-23
 -1       780-1.63181E-05 6.88355E-05 0.00000E+00
 -1       781-1.47635E-05 6.05578E-05-5.29396E-23
 -1       782-1.25756E-05 5.05502E-05 0.00000E+00
 -1       783-9.87945E-06 3.91480E-05 5.29396E-23
 -1       784-6.80103E-06 2.66925E-05 0.00000E+00
 -1       785-3.46559E-06 1.35277E-05-5.29396E-23
 -1       786 1.87901E-04 3.01645E-05 2.58494E-26
 -1       787 1.87944E-04 2.81086E-05 0.00000E+00
 -1       788 1.87986E-04 2.60942E-05 0.00000E+00
 -1       789 1.88029E-04 2.41129E-05 0.00000E+00
 -1       790 1.88072E-04 2.21602E-05-1.65436E-24
 -1       791 1.88115E-04 2.02314E-05-8.27181E-25
 -1       792 1.88158E-04 1.83242E-05-1.65436E-24
 -1       793 1.88202E-04 1.64364E-05 0.00000E+00
 -1       794 1.88245E-04 1.45680E-05 1.65436E-24
 -1       795 1.88289E-04 1.27187E-05-8.27181E-25
 -1       796 1.88332E-04 1.08904E-05 0.00000E+00
 -1       797 1.88376E-04 9.08499E-06 0.00000E+00
 -1       798 1.88419E-04 7.30670E-06 0.00000E+00
 -1       799 1.88463E-04 5.55983E-06-8.27181E-25
 -1       800 1.88507E-04 3.85187E-06 0.00000E+00
 -1       801 1.44075E-04 2.89696E-05 0.00000E+00
 -1       802 1.15889E-05 1.81440E-05-2.64698E-23
 -1       803-1.01922E-04 9.20818E-06 0.00000E+00
 -1       804-9.09489E-05 6.38970E-06 0.00000E+00
 -1       805-3.01135E-05 2.54789E-06-5.29396E-23
 -1       806 1.88539E-04 3.00971E-05-3.30872E-24
 -1       807 1.89201E-04 2.79505E-05 1.65436E-24
 -1       808 1.89851E-04 2.58351E-05 0.00000E+00
 -1       809 1.90488E-04 2.37550E-05 1.65436E-24
 -1       810 1.91110E-04 2.17140E-05 0.00000E+00
 -1       811 1.91715E-04 1.97159E-05-1.65436E-24
 -1       812 1.92304E-04 1.77645E-05 3.30872E-24
 -1       813 1.92873E-04 1.58637E-05 0.00000E+00
 -1       814 1.93422E-04 1.40173E-05 3.30872E-24
 -1       815 1.93949E-04 1.22290E-05 0.00000E+00
 -1       816 1.94454E-04 1.05026E-05-1.65436E-24
 -1       817 1.94933E-04 8.84190E-06 0.00000E+00
 -1       818 1.95387E-04 7.25063E-06-1.65436E-24
 -1       819 1.95814E-04 5.73256E-06 8.27181E-25
 -1       820 1.96213E-04 4.29140E-06 1.65436E-24
 -1       821 1.88424E-04 8.66411E-08 0.00000E+00
 -1       822 1.88286E-04-2.94363E-06 0.00000E+00
 -1       823 1.88148E-04-6.54178E-06 0.00000E+00
 -1       824 1.88008E-04-1.03457E-05 0.00000E+00
 -1       825 1.87868E-04-1.39383E-05-3.30872E-24
 -1       826 1.87729E-04-1.69037E-05-1.65436E-24
 -1       827 1.87593E-04-1.89950E-05 3.30872E-24
 -1       828 1.87459E-04-1.99707E-05-1.65436E-24
 -1       829 1.87325E-04-1.98896E-05 3.30872E-24
 -1       830 1.87190E-04-1.88171E-05-1.65436E-24
 -1       831 1.87055E-04-1.70854E-05 3.30872E-24
 -1       832 1.86919E-04-1.50307E-05 1.65436E-24
 -1       833 1.86784E-04-1.30765E-05 3.30872E-24
 -1       834 1.86650E-04-1.16455E-05 1.65436E-24
 -1       835 1.86518E-04-1.10199E-05-8.27181E-25
 -1       836 1.90098E-04 2.31324E-06 3.30872E-24
 -1       837 1.91520E-04 2.43912E-06-1.65436E-24
 -1       838 1.92847E-04 2.56493E-06 3.30872E-24
 -1       839 1.94112E-04 2.69004E-06-8.27181E-25
 -1       840 1.95347E-04 2.81499E-06 0.00000E+00
 -1       856 1.86376E-04-1.24052E-05 8.27181E-25
 -1       857 1.86356E-04-1.31992E-05 0.00000E+00
 -1       858 1.86336E-04-1.38799E-05 0.00000E+00
 -1       859 1.86316E-04-1.44682E-05 0.00000E+00
 -1       860 1.86295E-04-1.49851E-05 0.00000E+00
 -1       861 1.86275E-04-1.54517E-05 0.00000E+00
 -1       862 1.86254E-04-1.58890E-05-8.27181E-25
 -1       863 1.86234E-04-1.63182E-05 4.13590E-25
 -1       864 1.86213E-04-1.67604E-05 0.00000E+00
 -1       865 1.86193E-04-1.72368E-05 4.13590E-25
 -1       866 1.86172E-04-1.77684E-05 0.00000E+00
 -1       867 1.86151E-04-1.83762E-05 0.00000E+00
 -1       868 1.86131E-04-1.90813E-05-8.27181E-25
 -1       869 1.86110E-04-1.99046E-05-4.13590E-25
 -1       870 1.86089E-04-2.08669E-05-8.27181E-25
 -1       871 1.87604E-04-1.14815E-05 0.00000E+00
 -1       872 1.88960E-04-1.14893E-05 0.00000E+00
 -1       873 1.90395E-04-1.14978E-05 0.00000E+00
 -1       874 1.91841E-04-1.15071E-05-1.03398E-25
 -1       875 1.93231E-04-1.15169E-05-1.24077E-24
 -1       876 1.86866E-04-1.23909E-05 3.30872E-24
 -1       877 1.87318E-04-1.32388E-05-1.65436E-24
 -1       878 1.87748E-04-1.40286E-05-3.30872E-24
 -1       879 1.88159E-04-1.47676E-05-1.65436E-24
 -1       880 1.88555E-04-1.54632E-05-3.30872E-24
 -1       881 1.88936E-04-1.61225E-05-1.65436E-24
 -1       882 1.89307E-04-1.67529E-05-3.30872E-24
 -1       883 1.89670E-04-1.73616E-05 0.00000E+00
 -1       884 1.90028E-04-1.79560E-05 3.30872E-24
 -1       885 1.90382E-04-1.85432E-05 0.00000E+00
 -1       886 1.90737E-04-1.91305E-05 3.30872E-24
 -1       887 1.91094E-04-1.97252E-05 0.00000E+00
 -1       888 1.91457E-04-2.03346E-05 0.00000E+00
 -1       889 1.91827E-04-2.09660E-05-1.65436E-24
 -1       890 1.92208E-04-2.16267E-05 1.65436E-24
 -1       891 1.87295E-04-2.20455E-05 0.00000E+00
 -1       892 1.88501E-04-2.21022E-05 8.27181E-25
 -1       893 1.89659E-04-2.21589E-05 8.27181E-25
 -1       894 1.90744E-04-2.22153E-05 0.00000E+00
 -1       895 1.91731E-04-2.22715E-05-8.27181E-25
 -1       956 1.96455E-04 1.74096E-06-1.65436E-24
 -1       957 1.96325E-04 6.40482E-07 8.27181E-25
 -1       958 1.96194E-04-3.81076E-07 0.00000E+00
 -1       959 1.96064E-04-1.33475E-06 0.00000E+00
 -1       960 1.95933E-04-2.23161E-06 0.00000E+00
 -1       961 1.95802E-04-3.08278E-06 1.65436E-24
 -1       962 1.95672E-04-3.89938E-06 3.30872E-24
 -1       963 1.95541E-04-4.69255E-06-1.65436E-24
 -1       964 1.95411E-04-5.47343E-06-3.30872E-24
 -1       965 1.95280E-04-6.25315E-06-1.65436E-24
 -1       966 1.95149E-04-7.04288E-06-3.30872E-24
 -1       967 1.95019E-04-7.85372E-06 0.00000E+00
 -1       968 1.94888E-04-8.69682E-06-3.30872E-24
 -1       969 1.94758E-04-9.58327E-06 0.00000E+00
 -1       970 1.94628E-04-1.05242E-05-3.30872E-24
 -1       971 1.94382E-04-1.25342E-05-3.30872E-24
 -1       972 1.94262E-04-1.34444E-05 0.00000E+00
 -1       973 1.94143E-04-1.42710E-05 0.00000E+00
 -1       974 1.94023E-04-1.50249E-05 1.65436E-24
 -1       975 1.93903E-04-1.57167E-05 0.00000E+00
 -1       976 1.93784E-04-1.63572E-05 0.00000E+00
 -1       977 1.93664E-04-1.69574E-05 0.00000E+00
 -1       978 1.93544E-04-1.75280E-05 0.00000E+00
 -1       979 1.93425E-04-1.80797E-05 3.30872E-24
 -1       980 1.93305E-04-1.86236E-05 0.00000E+00
 -1       981 1.93186E-04-1.91703E-05 3.30872E-24
 -1       982 1.93066E-04-1.97307E-05 0.00000E+00
 -1       983 1.92947E-04-2.03157E-05-3.30872E-24
 -1       984 1.92828E-04-2.09361E-05 1.65436E-24
 -1       985 1.92710E-04-2.16026E-05 3.30872E-24
 -3
    1PSTEP                        30          15           1          
  100CL  115 6.55373E-01         409                     0   15           1
 -4  STRESS      6    1
 -5  SXX         1    4    1    1
 -5  SYY         1    4    2    2
 -5  SZZ         1    4    3    3
 -5  SXY         1    4    1    2
 -5  SYZ         1    4    2    3
 -5  SZX         1    4    3    1
 -1         1-4.85713E+06-1.70168E+06-1.05725E+06-1.59520E+06-7.27596E-11-5.23869E-10
 -1         2 6.18302E+05 8.49747E+06 2.33329E+06 2.79258E+06 1.67347E-08 2.03625E-07
 -1         3-1.38009E+03-1.60394E+06 4.09407E+02-2.19253E+03-5.64388E-10 2.60588E-08
 -1         5-6.21450E+01 3.78914E+05 9.78769E+00-1.17416E+00-4.03615E-10 3.15213E-08
 -1         8-7.55851E+05-2.46951E+05-9.31736E+04-2.63164E+05 1.42791E-10-2.01726E-08
 -1         9 9.87492E+06 1.33764E+06 2.01276E+06-8.18383E+05 8.30041E-09 1.99699E-07
 -1        10-2.23466E+03-1.67143E+06-3.95496E+03-1.48237E+04-1.35042E-08-6.32997E-09
 -1        12-5.82694E+01 3.78935E+05 3.20956E+02-8.06750E+00-7.11168E-10-1.74077E-09
 -1        15 1.13199E+03 6.22087E+02 3.65913E+03 1.41030E+00-4.30248E-10 1.78214E-07
 -1        16 2.04421E+07-2.18417E+05 2.83027E+06-1.79759E+06 3.24023E-08 6.87627E-08
 -1        17 7.43556E+06 5.45280E+06 2.00529E+06 5.27888E+06 2.23838E-08 2.78349E-08
 -1        18 1.29289E+05 2.99739E+04 1.55544E+03-1.16355E+05 1.23614E-08-5.57975E-09
 -1        19 1.20215E+05 1.39047E+05-9.30408E+02 2.17283E+04 1.58434E-09-3.24071E-09
 -1        20-7.91343E+04-5.63811E+05-1.26416E+05 2.54793E+04-1.57585E-09 1.84876E-08
 -1        21-4.53660E+01-2.92623E+05-9.15023E+02 2.44735E+02 1.41147E-08-1.79458E-08
 -1        24 1.22844E+07 1.05124E+07 3.42936E+06 9.76257E+06-1.59741E-07-5.01750E-08
 -1        25 1.02123E+05 1.83443E+05 7.85371E+04-5.95864E+05-3.17905E-09 1.19922E-08
 -1        26-5.42128E+04 9.04585E+04-2.42161E+04 7.95412E+02 3.63798E-11 1.00549E-08
 -1        27-7.52764E+04-3.04869E+05-1.11654E+05 6.78610E+04 4.96993E-09 7.06071E-10
 -1        28 2.20318E+04-8.41895E+04 1.66974E+04 2.06545E+04-2.83450E-09 3.43654E-09
 -1        32-1.65906E+06-3.09762E+06-1.86591E+05 3.67799E+05-4.11164E-08-8.84415E-09
 -1        33-1.75730E+05 9.11845E+04 3.18165E+04-3.81632E+04-2.93490E-09 2.58266E-08
 -1        34-2.20271E+05-2.44874E+04 6.72146E+02 7.41649E+04-3.34012E-09-6.93869E-09
 -1        35-2.26908E+04-3.33906E+04-1.32932E+03 5.09141E+04-3.90287E-09-2.80124E-10
 -1        51 5.47354E+04-1.93012E+05 1.17127E+05-5.54545E+05 8.73115E-11 2.43686E-07
 -1        52 1.91756E+04-1.73430E+05 6.24455E+04-6.46576E+05 3.85626E-10 7.78382E-08
 -1        53 4.70521E+03-1.88910E+05 3.41146E+04-5.52544E+05 5.42059E-10-1.13359E-08
 -1        54 9.79209E+03-1.84957E+05 3.12468E+04-6.48624E+05 2.61934E-10-7.55499E-08
 -1        55 2.09735E+04-1.93547E+05 4.17768E+04-5.52309E+05 3.12866E-10 1.99529E-07
 -1        56-9.01699E+06-1.06710E+06-7.87569E+05-3.58345E+06 1.52941E-08 7.34290E-08
 -1        57-9.70450E+06-1.37524E+06-5.25967E+05-3.10536E+06 2.65863E-08-3.49828E-08
 -1        58-9.09685E+06-1.37963E+06-1.83703E+05-3.60826E+06 2.51166E-08-4.27754E-08
 -1        59-9.59265E+06-1.02499E+06-1.08770E+05-3.10679E+06-1.21763E-08-2.39996E-07
 -1        60-9.13281E+06-1.40421E+06-4.36073E+04-3.58965E+06-2.49174E-08-2.74740E-08
 -1        61-9.45077E+06-1.07835E+06-2.06459E+04-3.20602E+06 2.91075E-08-1.24837E-07
 -1        62-9.22614E+06-1.33331E+06-1.70829E+04-3.50026E+06-1.93104E-08-1.67785E-07
 -1        63-9.23945E+06-1.26319E+06-3.61392E+03-3.41270E+06 1.74332E-08 8.13343E-08
 -1        64-9.33365E+06-1.22645E+06-1.64545E+04-3.37564E+06 1.41627E-08-1.73450E-08
 -1        65-9.07376E+06-1.45272E+06-1.80923E+04-3.64195E+06-1.08648E-08-4.67380E-08
 -1        66-9.40128E+06-1.13746E+06-3.93749E+04-3.27801E+06 8.13088E-09-1.22058E-07
 -1        67-9.02705E+06-1.58177E+06-9.70872E+04-3.76207E+06-3.63307E-08 3.08264E-08
 -1        68-9.39382E+06-1.08949E+06-1.64077E+05-3.26435E+06-4.88690E-08 1.24477E-07
 -1        69-9.21490E+06-1.80707E+06-4.69898E+05-3.65898E+06-3.18687E-08 1.00990E-07
 -1        70-9.20986E+06-9.24075E+05-7.04316E+05-3.37471E+06-1.60071E-09 3.30037E-08
 -1        86-6.28074E+05-8.79757E+06-1.27236E+06-1.33791E+06-1.79647E-07-1.59016E-07
 -1        87 9.04639E+05 1.48187E+06 1.05734E+06 2.94973E+06-3.16311E-07-2.99979E-08
 -1        88-1.29640E+05-2.59266E+06 8.49574E+04-1.58282E+06-2.79342E-07 2.15259E-08
 -1        89 1.22801E+06 1.33891E+06 1.05948E+06 3.02823E+06-4.09784E-07-1.66926E-07
 -1        90-9.16426E+05-8.68669E+06-1.39671E+06-1.42342E+06-1.01085E-07 1.11322E-07
 -1       121-1.89512E+03-1.60851E+06-4.69834E+02 1.08764E+03 1.40648E-09-1.44792E-08
 -1       122-1.19391E+03-1.60399E+06 7.87204E+02-4.38670E+03-5.13091E-09-3.23653E-08
 -1       123-1.92048E+03-1.60864E+06 3.68136E+02 3.24773E+03 4.44004E-09-1.77097E-08
 -1       124 4.76493E+02-1.60349E+06 3.04944E+03-9.16389E+03-9.70977E-09 2.81852E-08
 -1       125-2.76326E+03-1.60956E+06 3.69225E+03 5.82432E+03 6.49015E-09-1.82517E-08
 -1       191-6.55410E+01 3.78935E+05 8.91215E+00 6.08721E-01-5.61053E-10 1.72568E-08
 -1       192-6.30816E+01 3.78915E+05 2.08581E+01-3.82727E+00-8.07935E-10-3.70901E-08
 -1       193-6.80108E+01 3.78934E+05 3.60796E+01 3.35144E+00-9.93278E-10-1.56015E-08
 -1       194-6.60864E+01 3.78918E+05 7.92237E+01-8.70637E+00-4.98899E-10 2.05764E-08
 -1       195-7.27522E+01 3.78932E+05 1.52243E+02 5.63606E+00-1.44066E-09 5.85715E-09
 -1       251-1.65903E+06 1.37887E+04-1.22570E+05-8.09271E+04 3.18323E-09-8.82173E-08
 -1       252-1.38997E+06-1.44244E+04-2.64790E+04 2.62940E+05-1.05310E-08 9.55879E-10
 -1       253-1.52583E+06 7.80465E+02-2.42111E+04-1.57078E+05-1.68711E-10-2.41561E-07
 -1       254-1.50492E+06 1.40716E+04-5.69338E+03 3.26995E+05 1.68034E-08-3.87782E-07
 -1       255-1.55650E+06-4.54123E+03-1.32834E+04-1.45600E+05-8.71569E-09 8.90068E-08
 -1       256-1.30860E+06 1.41091E+04 4.06315E+04 2.20764E+05 4.54020E-09 1.13161E-07
 -1       257-1.70310E+06-1.46176E+04-4.06325E+04-5.00734E+04 1.32841E-08-1.20264E-07
 -1       258-1.16150E+06 1.33688E+04 7.09631E+04-7.92839E+03-8.24093E-09-2.26405E-07
 -1       259-1.68908E+06-1.55401E+04-3.59505E+04 8.22427E+04-1.14542E-08-1.88822E-07
 -1       260-1.34238E+06 2.14670E+04 4.06900E+04-2.26079E+05 1.49325E-08-3.00085E-07
 -1       261-1.53970E+06-8.62639E+03-1.15880E+02 1.67786E+05 6.07715E-08-1.60661E-08
 -1       262-1.50907E+06 3.28938E+04 1.87548E+04-3.11761E+05-1.60991E-08 1.00516E-07
 -1       263-1.53879E+06-1.36929E+04 1.34777E+04 1.68984E+05 1.10481E-08 6.60111E-09
 -1       264-1.32974E+06 6.71149E+04 8.85568E+04-2.31081E+05 7.82709E-08 5.45406E-08
 -1       265-1.70334E+06-5.53438E+04 2.95470E+04 8.60830E+04 3.06718E-08 2.36592E-07
 -1       266-2.04929E+04-9.58301E+03 4.80797E+04-3.01747E+01 5.45697E-11 5.06964E-08
 -1       267 2.37568E+04 1.11684E+04 3.39833E+04 3.48171E+01 1.21872E-10-1.77485E-07
 -1       268-3.18575E+03-1.58180E+03 1.26314E+04-4.43622E+00-2.19188E-10-1.79284E-07
 -1       269 3.76142E+03 1.89303E+03 8.21024E+03 5.16763E+00-2.49770E-10-2.60339E-07
 -1       270-5.64593E+02-3.11040E+02 3.96320E+03-7.01280E-01-1.66892E-10-6.70373E-08
 -1       271-1.88502E+06-2.28856E+05-1.41370E+05-7.26564E+05-4.21114E-08-1.52329E-07
 -1       272-1.94878E+06-3.21328E+05-9.12458E+04-7.08912E+05-1.29471E-08-1.45699E-07
 -1       273-1.91313E+06-2.64150E+05-3.35605E+04-7.18400E+05-1.79080E-09 1.22405E-07
 -1       274-1.91450E+06-2.79853E+05-1.86879E+04-7.21844E+05 2.39452E-08 5.84114E-08
 -1       275-1.91871E+06-2.66291E+05-7.97304E+03-7.15163E+05-2.32121E-08 8.16508E-08
 -1       276-1.90647E+06-2.78866E+05-3.99175E+03-7.27974E+05-7.55244E-09 2.87531E-07
 -1       277-1.92131E+06-2.64575E+05-2.14843E+03-7.12588E+05-1.61872E-08 1.49834E-07
 -1       278-1.90226E+06-2.82312E+05-1.19659E+03-7.33070E+05-5.90080E-09 1.22989E-07
 -1       279-1.92327E+06-2.62577E+05-1.37221E+03-7.10339E+05 1.34605E-09-4.41786E-07
 -1       280-1.89931E+06-2.86001E+05-2.01431E+03-7.37471E+05 1.37393E-08 1.28079E-07
 -1       281-1.92471E+06-2.60626E+05-3.79509E+03-7.08489E+05-1.26438E-08 2.23799E-07
 -1       282-1.89862E+06-2.91325E+05-8.82704E+03-7.40738E+05 1.98525E-08-7.91285E-08
 -1       283-1.92442E+06-2.57181E+05-1.56862E+04-7.07304E+05 1.66501E-08-8.02261E-08
 -1       284-1.91072E+06-3.15114E+05-4.28807E+04-7.40000E+05 3.11716E-08-1.95771E-07
 -1       285-1.91326E+06-2.38518E+05-6.62421E+04-7.08797E+05-1.18234E-08-4.39504E-08
 -1       301 7.21691E+03-5.71292E+05 1.71104E+05-9.94280E+05 1.49885E-09-1.40979E-07
 -1       302 8.21789E+03-5.26849E+05 1.03567E+05-1.45282E+06-2.81580E-09-1.30822E-08
 -1       303-1.07333E+04-5.59648E+05 6.10317E+04-9.91716E+05-2.97587E-09 6.88742E-08
 -1       304-6.42285E+03-5.31268E+05 6.58007E+04-1.45205E+06-3.40515E-09-1.82808E-08
 -1       305-1.09213E+04-5.52805E+05 8.65752E+04-9.94685E+05-1.98997E-09 1.71960E-07
 -1       306-2.82374E+07-5.78400E+06-7.93763E+06-9.24982E+05-9.08040E-08-1.35973E-07
 -1       307 2.36524E+07 2.46812E+06 5.11130E+06-1.37121E+07-7.45524E-07 1.98314E-07
 -1       308-7.49707E+06-8.69967E+05-5.33313E+05 4.82690E+06-1.48575E-07 3.63114E-07
 -1       309-3.50109E+06 7.36218E+06 1.99214E+06-1.94444E+07 4.37471E-07 2.18297E-07
 -1       310-1.15782E+07-1.51439E+06-1.64749E+06 4.75073E+06-5.02914E-08-2.10333E-07
 -1       311 3.31350E+07-9.23290E+04 6.43565E+06-8.88958E+06 7.21484E-08-1.43773E-07
 -1       312-2.94968E+07-6.00750E+06-7.64654E+06-4.27292E+06-2.26428E-07 5.11936E-08
 -1       313 4.19700E+07 1.22581E+07 9.70633E+06 2.05569E+07 2.52330E-08-2.10013E-07
 -1       314-1.70847E+07-1.56793E+07-6.89843E+06-1.17358E+07 8.20088E-07-1.40513E-07
 -1       315-1.10761E+06 2.64539E+07 5.25621E+06 1.07291E+07-4.40064E-07 4.51691E-08
 -1       316 7.44490E+05-9.46123E+06-4.99868E+05-3.14942E+06-1.08915E-06-2.46655E-07
 -1       317-1.71367E+07 2.08643E+07 1.95592E+06-7.05854E+06 5.26394E-07-7.24762E-07
 -1       318-1.15912E+06-1.14472E+07-1.68934E+06-4.36725E+06-9.11270E-07 5.75092E-08
 -1       319 5.77305E+06 2.80294E+07 6.20655E+06 1.48282E+07-6.51635E-08 1.30647E-07
 -1       320-2.10446E+07-1.58235E+07-8.88016E+06-1.17723E+07 1.81259E-07-6.95873E-08
 -1       336-5.29850E+02-1.74127E+06-1.39016E+04 8.84897E+03-2.59079E-08-6.87578E-10
 -1       337-5.37193E+03-1.74128E+06-1.81185E+04-2.14378E+04-4.76205E-08-2.27137E-08
 -1       338 4.29429E+02-1.74079E+06-2.82834E+04 1.23657E+04-3.27163E-08 4.29645E-09
 -1       339-3.00174E+04-1.75831E+06-6.40128E+04-2.83106E+04-6.02122E-08 1.99689E-08
 -1       340 1.99284E+04-1.72632E+06-1.00707E+05 1.55989E+04-3.78095E-08 2.87473E-08
 -1       406-3.64701E+01 3.78918E+05 6.30789E+02 2.85203E+00-1.85069E-09 6.12999E-10
 -1       407 1.62983E+02 3.79047E+05 1.34675E+03 2.15536E+01-5.10532E-10-2.49838E-09
 -1       408 6.33090E+02 3.78820E+05 2.68606E+03-2.47834E+01-1.98384E-09-2.28829E-08
 -1       409 2.85451E+03 3.79904E+05 6.05289E+03 2.62687E+02 3.54703E-11-2.31275E-08
 -1       410 8.30571E+03 3.78048E+05 1.23542E+04-2.52891E+02-2.66664E-09-1.82281E-08
 -1       521-2.97555E+07-7.10068E+06-9.25025E+06-5.86864E+05-1.12690E-07-3.76604E-08
 -1       522 2.44135E+07 3.23837E+06 5.19077E+06-1.69336E+07-5.28787E-07-3.75672E-07
 -1       523-8.18309E+06-1.15905E+06-5.39824E+05 5.26506E+06 8.43429E-08-3.42567E-07
 -1       524-6.77690E+06 1.00267E+07 2.15186E+06-2.23971E+07 1.03662E-06-3.37724E-07
 -1       525-1.24662E+07-2.04625E+06-1.80683E+06 5.18106E+06 4.67524E-07-4.50003E-07
 -1       526 3.59479E+07-1.41883E+05 6.75139E+06-1.14222E+07-3.38419E-07-2.53349E-07
 -1       527-3.12542E+07-7.52667E+06-8.78657E+06-4.15053E+06 1.69850E-07 5.52536E-08
 -1       528 4.57893E+07 1.34888E+07 1.01111E+07 2.32646E+07-6.46105E-08-2.84053E-07
 -1       529-1.80672E+07-1.76842E+07-7.89205E+06-1.18585E+07-6.86268E-08-3.05590E-08
 -1       530-3.44211E+06 3.07375E+07 5.55010E+06 1.05395E+07-2.62226E-07 6.24685E-07
 -1       531 6.91236E+05-1.05683E+07-4.91220E+05-3.23011E+06-9.04489E-07 4.27244E-07
 -1       532-1.99439E+07 2.30145E+07 2.13743E+06-1.07714E+07 5.84274E-07-6.42030E-07
 -1       533-1.22373E+06-1.25812E+07-1.78479E+06-4.33737E+06-2.49274E-07-9.09844E-07
 -1       534 3.78267E+06 3.24866E+07 6.45172E+06 1.53369E+07-1.33383E-07 7.10483E-07
 -1       535-2.21781E+07-1.79760E+07-1.01397E+07-1.18967E+07 9.17353E-08 4.30213E-07
 -1       536-6.85818E+05-4.62851E+04-3.88498E+04-5.18702E+04-7.75253E-09 5.47661E-08
 -1       537-7.46847E+04 4.47378E+04 8.27480E+04 1.18479E+05-9.94180E-08 9.05129E-08
 -1       538-3.93566E+05 2.73935E+03 4.91496E+03-6.94971E+04 2.65223E-08 8.97903E-08
 -1       539-2.76372E+05 3.00136E+03 2.41762E+04 1.33217E+05 1.63025E-07 8.77785E-08
 -1       540-4.89162E+05-3.64473E+02-1.94254E+04-6.70894E+04-1.23684E-08 1.06434E-07
 -1       541 1.12094E+05 1.58675E+04 9.95909E+04 9.33210E+04 2.12494E-08 6.08761E-08
 -1       542-7.71572E+05-1.88538E+04-7.86697E+04-2.88144E+04 2.98974E-08 3.06706E-08
 -1       543 3.53927E+05 2.55663E+04 1.47642E+05-1.29009E+04-2.61016E-08 1.70476E-08
 -1       544-7.24516E+05-1.54297E+04-6.98951E+04 3.85282E+04-2.27556E-09-4.97504E-08
 -1       545 1.46495E+03 8.75239E+03 7.43177E+04-1.08727E+05-3.33831E-08-8.86114E-08
 -1       546-4.28564E+05 5.79428E+03-1.14927E+04 6.67024E+04-1.35765E-09-9.57371E-08
 -1       547-2.93600E+05-4.67966E+03 9.34942E+03-1.36010E+05-1.08290E-07-1.07494E-07
 -1       548-4.37372E+05 4.62144E+03-2.30493E+04 6.64328E+04-1.17547E-07-9.62136E-08
 -1       549 2.01502E+04 1.36200E+04 5.47064E+04-1.06460E+05-5.07370E-08-7.18846E-08
 -1       550-7.33915E+05-1.95202E+04-1.23377E+05 3.65062E+04 6.75846E-09-3.97504E-08
 -1       551 3.93522E+04-7.65259E+05-1.14089E+04-1.23219E+06-9.87493E-08-1.73459E-08
 -1       552 8.95694E+04-8.07506E+05 1.25044E+04-1.75712E+06-6.91944E-08 3.84462E-08
 -1       553 6.86138E+04-8.04763E+05 3.38320E+04-1.22577E+06-1.12865E-07 3.15486E-08
 -1       554 1.27404E+05-8.21770E+05 8.32603E+04-1.75908E+06-7.32471E-08 1.36333E-08
 -1       555 9.83352E+04-8.27998E+05 1.51424E+05-1.22570E+06-1.19973E-07-1.84300E-08
 -1       556 2.14575E+05-3.69892E+05 3.23633E+04-3.97739E+05-2.28465E-08-8.11997E-09
 -1       557 3.42238E+05-4.71848E+05 1.93946E+04-5.13945E+05 3.20142E-09-1.16452E-08
 -1       558 1.97883E+05-3.64484E+05 4.00489E+03-4.00784E+05-1.67929E-08-8.37463E-09
 -1       559 3.17900E+05-4.73055E+05 3.18465E+03-5.33194E+05 1.09867E-08 9.43328E-09
 -1       560 1.83582E+05-3.55503E+05-9.74191E+02-4.11048E+05 6.81030E-09 7.92352E-09
 -1       561 2.99841E+05-4.65890E+05 3.31491E+02-5.45464E+05 3.07045E-09-7.81074E-09
 -1       562 1.72277E+05-3.48465E+05-1.12445E+03-4.19226E+05 7.88714E-09 2.69210E-10
 -1       563 2.86421E+05-4.60039E+05 2.05510E+01-5.54219E+05 2.91038E-09 3.83807E-09
 -1       564 1.64238E+05-3.43453E+05-5.22171E+02-4.24920E+05 7.05768E-09 5.22869E-09
 -1       565 2.77572E+05-4.56186E+05 3.93117E+01-5.59870E+05 6.17001E-09 1.10740E-08
 -1       566 1.59582E+05-3.40505E+05-2.29052E+02-4.28177E+05 6.03177E-09-3.83989E-09
 -1       567 2.73342E+05-4.54346E+05-3.36777E+02-5.62431E+05 3.75494E-08 2.08238E-08
 -1       568 1.58394E+05-3.39780E+05-1.06001E+03-4.29104E+05 2.79579E-09 1.64764E-08
 -1       569 2.72381E+05-4.54290E+05-2.67826E+03-5.60945E+05-7.01584E-09-2.41562E-09
 -1       570 1.61737E+05-3.42927E+05-5.86822E+03-4.28125E+05 8.74570E-09-1.78716E-09
 -1       571 2.85093E+05 1.03173E+04 1.47653E+04-9.20313E+04 6.22367E-09 6.63476E-09
 -1       572 2.87237E+05 3.86438E+03 7.23602E+03-1.00967E+05 2.51248E-09 2.66118E-09
 -1       573 2.85945E+05 1.19346E+03 3.21517E+03-9.18585E+04 1.61708E-09 7.65431E-09
 -1       574 2.86160E+05 6.78848E+02 1.61228E+03-1.01185E+05-9.29049E-10-7.18228E-09
 -1       575 2.86038E+05 4.07443E+02 7.60907E+02-9.18349E+04-3.64145E-09-8.36008E-09
 -1       576 2.86025E+05 4.15397E+02 3.89477E+02-1.01214E+05-1.08757E-08 1.03391E-08
 -1       577 2.86075E+05 3.51286E+02 1.94375E+02-9.18316E+04-5.41513E-09-1.96269E-09
 -1       578 2.86052E+05 3.79696E+02 1.12087E+02-1.01218E+05-7.69433E-09 9.54969E-10
 -1       579 2.86142E+05 3.17606E+02 7.68766E+01-9.18313E+04 6.34645E-09-2.34559E-09
 -1       580 2.86146E+05 3.32604E+02 8.88071E+01-1.01213E+05-2.37924E-09-1.62236E-08
 -1       581 2.86248E+05 2.63643E+02 1.34161E+02-9.18370E+04 8.66203E-09-3.49246E-10
 -1       582 2.86311E+05 2.99870E+02 2.72280E+02-1.01154E+05 1.35606E-09-1.21036E-08
 -1       583 2.86378E+05 3.09061E+02 5.23084E+02-9.18916E+04 4.36557E-11 2.03590E-08
 -1       584 2.86668E+05 7.35145E+02 1.18309E+03-1.00694E+05 4.14002E-09 3.20219E-08
 -1       585 2.86396E+05 1.73479E+03 2.39645E+03-9.22960E+04-3.12139E-09 4.87853E-09
 -1       586-3.36750E+03 1.13148E+05-2.97119E+03-2.46682E+05-8.18636E-09 4.06499E-09
 -1       587-1.27089E+03 1.12882E+05 6.95489E+02-2.71494E+05-2.67210E-09-3.17505E-09
 -1       588 4.42693E+02 1.12711E+05 4.62721E+03-2.46547E+05-1.61526E-09-2.90493E-09
 -1       589 5.03476E+03 1.15122E+05 1.20557E+04-2.71260E+05-1.10831E-08 1.21181E-08
 -1       590 1.62975E+04 1.11407E+05 2.53107E+04-2.46972E+05-7.42602E-09 1.76860E-08
 -1       591-7.24910E+04-1.56342E+04-2.19563E+04-3.11249E+04 9.26502E-09-6.97401E-09
 -1       592-7.64110E+04-1.91666E+04-1.18932E+04-3.47322E+04 1.00763E-08-1.36424E-09
 -1       593-7.46874E+04-1.40405E+04-4.95059E+03-3.27344E+04 1.32532E-08-9.08040E-09
 -1       594-7.33786E+04-1.59457E+04-2.46899E+03-3.48482E+04 5.42597E-09 3.44716E-09
 -1       595-7.48548E+04-1.40352E+04-1.13356E+03-3.28075E+04 1.54074E-10 1.80278E-08
 -1       596-7.31711E+04-1.57984E+04-5.76110E+02-3.48236E+04 9.71481E-09 1.57416E-08
 -1       597-7.48759E+04-1.40502E+04-3.13418E+02-3.28103E+04 2.50577E-09 7.19677E-09
 -1       598-7.31506E+04-1.57926E+04-2.51418E+02-3.48167E+04-3.86757E-09-7.60383E-09
 -1       599-7.48746E+04-1.40507E+04-3.20493E+02-3.28099E+04 1.22941E-09-2.34570E-09
 -1       600-7.31711E+04-1.57990E+04-5.94840E+02-3.48216E+04 4.54190E-09-2.97628E-08
 -1       601-7.48505E+04-1.40365E+04-1.17321E+03-3.28065E+04-7.75208E-09-1.01688E-08
 -1       602-7.33859E+04-1.59504E+04-2.55675E+03-3.48432E+04-2.29470E-08 5.63773E-10
 -1       603-7.46744E+04-1.40448E+04-5.12726E+03-3.27315E+04-1.19326E-08 2.60557E-08
 -1       604-7.65436E+04-1.92670E+04-1.23169E+04-3.46989E+04 5.90603E-10 2.45450E-08
 -1       605-7.23801E+04-1.57127E+04-2.27385E+04-3.10837E+04 7.90493E-10 2.11694E-08
 -1       606 2.68324E+04-1.40325E+04-2.51595E+04 2.42719E+04 7.31234E-09 4.79531E-09
 -1       607 2.25331E+04-4.58085E+03-1.25292E+04 2.72736E+04 4.82032E-11-2.46334E-08
 -1       608 2.49826E+04-8.24398E+02-5.60904E+03 2.40989E+04 7.74889E-10-4.38195E-09
 -1       609 2.45121E+04-2.79809E+02-2.83350E+03 2.74899E+04 6.45377E-09-4.84761E-09
 -1       610 2.47723E+04-3.69989E+01-1.35199E+03 2.40785E+04 4.26644E-09 7.64430E-09
 -1       611 2.46977E+04-3.63008E+01-6.81657E+02 2.75133E+04 1.27875E-09 8.74479E-10
 -1       612 2.47253E+04-2.30133E+01-3.24141E+02 2.40764E+04-3.41333E-09-1.03350E-08
 -1       613 2.47081E+04-3.17765E+01-1.45305E+02 2.75160E+04 3.79805E-09 2.50157E-09
 -1       614 2.47029E+04-2.88453E+01-3.42470E+01 2.40757E+04 6.10271E-09 1.96824E-08
 -1       615 2.47022E+04-2.99143E+01 6.05212E+01 2.75165E+04 1.95541E-11 2.70516E-08
 -1       616 2.46853E+04-2.54532E+01 1.81826E+02 2.40760E+04 1.88938E-08 9.48376E-10
 -1       617 2.47235E+04 9.16060E+00 4.15000E+02 2.75160E+04 3.60153E-08-1.99407E-09
 -1       618 2.46489E+04 9.44348E+01 8.36544E+02 2.40763E+04 1.92035E-08 8.60109E-09
 -1       619 2.50185E+04 6.56182E+02 1.87856E+03 2.75153E+04 3.74962E-09-1.41276E-08
 -1       620 2.43708E+04 2.07828E+03 3.77586E+03 2.40775E+04 5.51381E-09 2.44063E-09
 -1       621 4.85450E+02 2.95497E+05 3.76176E+03 3.87407E+04 7.85349E-10 4.39741E-09
 -1       622 6.38655E+02 2.96371E+05 3.34908E+03 5.62512E+04 1.02818E-09-4.97357E-09
 -1       623 1.26553E+02 2.95688E+05 4.03922E+03 3.85649E+04 1.01431E-09-2.18279E-11
 -1       624 2.05636E+03 2.97572E+05 7.84197E+03 5.64246E+04 1.23197E-09 4.02724E-09
 -1       625 2.01517E+03 2.94135E+05 1.37093E+04 3.85618E+04 1.14551E-09 6.02813E-09
 -1       626 2.56131E+05 6.08120E+04 5.07147E+03 1.25081E+05 1.01109E-08-6.85941E-09
 -1       627 2.53803E+05 6.22275E+04 2.44390E+03 1.29349E+05 1.25838E-08-2.34547E-08
 -1       628 2.56259E+05 5.84889E+04 1.03352E+03 1.25940E+05 4.73392E-09-6.00085E-09
 -1       629 2.53170E+05 6.15575E+04 5.05867E+02 1.29590E+05 5.60249E-09 5.89353E-10
 -1       630 2.56273E+05 5.83769E+04 2.34679E+02 1.25976E+05 8.03720E-09-6.20298E-09
 -1       631 2.53103E+05 6.15324E+04 1.26322E+02 1.29591E+05 1.12507E-08-3.24522E-08
 -1       632 2.56269E+05 5.83811E+04 8.31874E+01 1.25971E+05 1.00304E-08-2.02369E-08
 -1       633 2.53094E+05 6.15345E+04 9.27588E+01 1.29587E+05 2.70484E-09 1.37970E-09
 -1       634 2.56264E+05 5.83786E+04 1.49981E+02 1.25970E+05 3.96926E-09 1.26697E-08
 -1       635 2.53108E+05 6.15330E+04 3.03535E+02 1.29592E+05 3.09049E-09-3.23098E-09
 -1       636 2.56255E+05 5.83731E+04 6.13015E+02 1.25970E+05 2.44449E-09 1.09940E-08
 -1       637 2.53240E+05 6.16284E+04 1.34784E+03 1.29592E+05-2.04818E-09-1.02123E-08
 -1       638 2.56207E+05 5.86710E+04 2.76934E+03 1.25835E+05-1.32968E-09-1.79621E-08
 -1       639 2.54695E+05 6.36516E+04 6.55233E+03 1.29163E+05 1.73077E-09 1.02095E-08
 -1       640 2.56006E+05 6.47118E+04 1.35972E+04 1.23289E+05 8.38918E-09 7.44831E-09
 -1       656 6.55251E+04-1.67608E+06-1.58174E+05-2.34733E+03-2.91038E-11-6.79336E-09
 -1       657-8.66796E+04-1.74755E+06-1.31028E+05 5.41852E+03-3.31056E-10 2.27477E-08
 -1       658 2.08831E+04-1.69638E+06-8.06851E+04-4.38114E+03-1.35287E-10 8.20418E-09
 -1       659-9.36989E+04-1.75088E+06-1.40252E+05 7.08984E+03-1.54341E-09-6.71240E-09
 -1       660 7.25288E+04-1.67275E+06-1.74032E+05-4.01864E+03-4.72937E-10 9.00380E-09
 -1       661 1.59708E+05 1.67602E+04 1.67335E+04 6.24348E+04-8.26731E-10 3.95084E-09
 -1       662 1.69127E+05 2.91934E+04 1.12771E+04 5.87283E+04 4.97550E-10-6.31030E-09
 -1       663 1.62995E+05 2.21287E+04 3.94407E+03 6.14811E+04 4.63615E-10-8.77276E-09
 -1       664 1.65316E+05 2.29151E+04 2.35929E+03 5.98931E+04 4.34255E-10-1.13499E-09
 -1       665 1.63493E+05 2.28621E+04 9.30724E+02 6.13358E+04-1.40517E-10-2.41545E-09
 -1       666 1.64727E+05 2.20762E+04 5.44680E+02 6.00825E+04 7.72548E-09-2.00707E-08
 -1       667 1.63580E+05 2.29457E+04 2.89363E+02 6.12996E+04 2.04918E-09-1.39226E-08
 -1       668 1.64631E+05 2.20159E+04 2.94966E+02 6.01352E+04-3.03234E-09-2.37236E-09
 -1       669 1.63588E+05 2.29207E+04 3.99443E+02 6.12834E+04-2.43719E-09-2.28331E-09
 -1       670 1.64728E+05 2.22327E+04 8.69890E+02 6.01381E+04-8.44421E-09-4.57759E-09
 -1       671 1.63483E+05 2.27334E+04 1.54459E+03 6.12947E+04 1.04796E-09-1.36465E-08
 -1       672 1.65628E+05 2.37354E+04 3.95181E+03 5.99200E+04 8.14119E-09-3.06966E-09
 -1       673 1.62693E+05 2.14560E+04 6.62261E+03 6.14869E+04 2.13095E-09 8.80391E-10
 -1       674 1.71931E+05 3.43753E+04 1.89393E+04 5.80681E+04-5.95412E-09-8.80232E-09
 -1       675 1.57220E+05 1.23916E+04 2.81125E+04 6.30348E+04-4.75984E-09-1.28748E-08
 -1       676 2.38548E+01-2.92546E+05-1.10284E+03-1.22371E+02 1.15867E-09-3.59660E-09
 -1       677-2.91954E+02-2.92813E+05-2.01839E+03 2.44548E+02 1.13394E-08-8.53374E-09
 -1       678 1.95639E+02-2.92356E+05-3.56801E+03-1.22097E+02 1.80307E-09 5.84388E-09
 -1       679-3.56828E+03-2.94967E+05-8.47610E+03 2.43504E+02 7.07030E-09 1.14864E-08
 -1       680 2.13030E+03-2.90394E+05-1.36606E+04-1.19975E+02 1.97451E-09-2.95594E-09
 -1       771-3.03459E+06-7.29345E+05-1.55674E+05-1.44438E+06-3.66708E-08-2.69210E-08
 -1       772-2.96046E+06-8.15123E+05-8.03174E+04-1.54347E+06-3.63216E-08 5.00950E-09
 -1       773-3.06423E+06-7.06194E+05-4.08146E+04-1.45772E+06-1.65601E-08 9.60426E-09
 -1       774-2.95112E+06-7.97895E+05-1.82359E+04-1.56761E+06 2.89583E-08-1.73895E-09
 -1       775-3.07956E+06-6.95417E+05-1.35534E+04-1.46414E+06-2.29920E-09 2.97587E-09
 -1       776-2.96240E+06-7.95192E+05-5.08224E+03-1.58577E+06-2.18133E-08-5.33691E-09
 -1       777-3.09282E+06-6.85830E+05-5.95650E+03-1.46980E+06-1.10595E-09 2.37196E-09
 -1       778-2.97419E+06-7.92691E+05-1.68850E+03-1.60135E+06 2.85218E-09 7.19228E-09
 -1       779-3.10420E+06-6.77470E+05-2.96657E+03-1.47464E+06-9.64792E-09-8.03266E-09
 -1       780-2.98457E+06-7.90302E+05-4.92690E+02-1.61405E+06-6.17001E-09-5.82077E-10
 -1       781-3.11323E+06-6.70739E+05-1.14939E+03-1.47843E+06-2.99624E-08-4.01997E-10
 -1       782-2.99256E+06-7.88269E+05 4.16374E+02-1.62341E+06-3.89700E-08-9.73159E-10
 -1       783-3.11959E+06-6.66068E+05 6.49696E+02-1.48108E+06-1.21727E-08-1.15642E-08
 -1       784-2.99697E+06-7.86208E+05 2.68476E+03-1.62919E+06-2.46764E-08 9.83164E-09
 -1       785-3.12334E+06-6.63285E+05 4.73983E+03-1.48277E+06-3.97667E-08 8.94397E-09
 -1       786 1.24448E+05-9.72709E+03 2.25044E+04-3.04869E+02 3.03226E-09-6.94217E-09
 -1       787 1.34208E+05 1.12617E+04 1.59210E+04-1.20972E+02 4.95971E-09 3.30851E-09
 -1       788 1.28211E+05-1.52432E+03 5.82245E+03-2.70529E+02 6.82618E-11 2.01301E-08
 -1       789 1.29824E+05 1.76425E+03 3.65524E+03-1.73806E+02 2.04630E-09 4.48154E-10
 -1       790 1.28832E+05-2.37399E+02 1.48020E+03-2.52051E+02-3.91308E-09-2.40613E-09
 -1       791 1.29097E+05 2.74620E+02 8.55432E+02-2.05464E+02-6.15491E-09-4.83598E-09
 -1       792 1.28938E+05-3.58064E+01 3.63500E+02-2.38872E+02-3.10544E-09 2.16733E-09
 -1       793 1.28972E+05 3.82113E+01 1.83414E+02-2.30268E+02-8.37407E-10-6.73579E-09
 -1       794 1.28958E+05-1.13960E+00 5.20871E+01-2.27248E+02 5.12983E-09 2.64225E-09
 -1       795 1.28936E+05-2.36358E+01-4.57258E+01-2.54537E+02-4.66935E-09 2.51939E-09
 -1       796 1.28973E+05 2.60064E+01-1.41720E+02-2.14603E+02 2.79985E-09 7.41728E-10
 -1       797 1.28852E+05-1.94831E+02-3.94704E+02-2.83583E+02 3.58252E-09-5.54932E-09
 -1       798 1.29042E+05 1.69927E+02-6.42565E+02-1.98201E+02 1.82047E-09-9.21764E-09
 -1       799 1.28364E+05-1.25269E+03-1.76914E+03-3.24109E+02 5.85143E-09 1.55726E-08
 -1       800 1.29461E+05 1.08300E+03-2.50408E+03-1.74078E+02 2.45678E-10 1.62655E-08
 -1       801-1.41093E+05-9.45136E+06-1.30143E+06 1.28334E+06 8.57108E-08-4.86070E-08
 -1       802 6.53220E+05 5.09503E+06 1.96663E+06-1.56960E+06 2.45753E-07-3.96567E-08
 -1       803-4.87136E+05-1.32924E+07-1.72398E+06 8.15168E+05 7.47059E-08 2.30011E-08
 -1       804 2.54422E+05 1.82109E+06 1.38606E+06 6.34528E+05-1.13705E-07-8.86664E-08
 -1       805 1.78368E+05-6.19221E+06-2.61617E+05-9.15561E+05-4.71991E-08-5.89125E-08
 -1       806-3.03900E+05-5.86938E+04-2.24526E+04-1.20312E+05-8.27413E-09 9.79026E-09
 -1       807-3.05683E+05-5.50121E+04-1.10307E+04-1.25740E+05 4.14275E-09 3.21967E-08
 -1       808-3.04515E+05-5.06037E+04-4.67959E+03-1.24139E+05-8.58608E-09 1.18958E-08
 -1       809-3.03365E+05-5.19120E+04-2.28821E+03-1.26010E+05-1.33282E-08 2.96859E-08
 -1       810-3.04608E+05-5.03220E+04-1.04880E+03-1.24309E+05 5.31190E-09 1.49887E-08
 -1       811-3.03185E+05-5.17873E+04-5.21579E+02-1.25975E+05 6.19730E-09-7.59428E-09
 -1       812-3.04622E+05-5.03462E+04-2.63830E+02-1.24308E+05-5.45697E-10 1.25510E-08
 -1       813-3.03161E+05-5.17894E+04-1.71547E+02-1.25957E+05-5.12591E-09-2.58099E-08
 -1       814-3.04615E+05-5.03556E+04-1.70116E+02-1.24304E+05-5.70253E-10-7.95808E-11
 -1       815-3.03164E+05-5.17916E+04-2.74229E+02-1.25950E+05-3.12002E-09 2.35750E-08
 -1       816-3.04595E+05-5.03546E+04-5.19805E+02-1.24300E+05-1.24965E-09 4.29100E-09
 -1       817-3.03253E+05-5.18411E+04-1.11566E+03-1.25939E+05-8.02856E-09 9.45329E-09
 -1       818-3.04527E+05-5.05119E+04-2.27553E+03-1.24226E+05-2.04727E-09-1.28525E-08
 -1       819-3.04498E+05-5.32160E+04-5.35426E+03-1.25644E+05 3.46745E-09 1.49157E-09
 -1       820-3.04099E+05-5.45559E+04-1.08978E+04-1.22498E+05-1.14596E-10 6.81462E-09
 -1       821-3.74379E+05 2.06213E+04-4.78957E+04 1.84027E+03 1.23541E-08 9.64792E-09
 -1       822-3.94275E+05-2.38828E+04-3.37424E+04-3.73480E+03 4.41454E-09-7.19410E-09
 -1       823-3.81954E+05 3.24498E+03-1.23810E+04 2.85461E+03-1.09691E-08 4.16276E-09
 -1       824-3.85212E+05-3.74519E+03-7.76245E+03-4.36869E+03 2.12356E-09 5.91365E-09
 -1       825-3.83444E+05 5.04079E+02-3.23513E+03 2.47424E+03 1.75053E-08-4.94413E-09
 -1       826-3.83065E+05-5.70736E+02-1.78364E+03-2.42884E+03 2.12964E-08 4.37734E-09
 -1       827-3.84084E+05 5.96665E+01-1.12198E+03 9.14668E+02 1.18008E-08 5.69403E-09
 -1       828-3.82545E+05-1.47653E+02-6.76642E+02 1.01724E+03-2.99463E-09 9.33399E-09
 -1       829-3.83956E+05 7.48372E+01-1.11791E+03-9.71874E+02 2.10913E-09 2.29223E-08
 -1       830-3.83346E+05-6.17269E+02-1.90653E+03 4.07978E+03 1.76293E-10-6.99231E-09
 -1       831-3.83299E+05 5.41437E+02-3.32353E+03-2.14790E+03-4.22119E-09-1.63764E-08
 -1       832-3.85297E+05-3.90473E+03-8.06288E+03 5.07669E+03-2.29877E-09 1.74664E-08
 -1       833-3.82017E+05 3.36769E+03-1.28747E+04-1.96882E+03-1.91923E-09 9.65338E-09
 -1       834-3.94410E+05-2.47898E+04-3.49717E+04 3.43147E+03-4.40446E-09-1.44428E-08
 -1       835-3.74175E+05 2.13990E+04-4.97462E+04-5.02627E+02 6.34449E-09 5.67888E-09
 -1       836-1.38178E+03 3.63185E+05 2.24463E+04-1.62110E+04-6.35373E-09-1.24942E-08
 -1       837 4.79229E+03 3.70212E+05 1.90059E+04-3.30694E+04-7.12180E-09 1.12632E-08
 -1       838-5.44338E+02 3.65153E+05 1.93817E+04-1.61400E+04-5.64933E-09 3.02939E-08
 -1       839 1.22116E+04 3.75738E+05 3.66811E+04-3.31207E+04-6.03723E-09 2.66346E-09
 -1       840-3.77038E+03 3.57601E+05 5.85002E+04-1.61648E+04-5.50062E-09 1.12995E-08
 -1       856-5.44005E+04 8.00283E+03-2.10893E+04-3.98415E+02 2.45461E-09-3.87263E-09
 -1       857-6.30906E+04-9.40167E+03-1.45178E+04 5.57025E+03 3.84583E-09-1.09096E-08
 -1       858-5.78413E+04 1.12224E+03-5.47222E+03-4.22459E+02-4.31783E-10-5.05725E-09
 -1       859-5.91417E+04-1.31896E+03-3.30239E+03 5.60621E+03-7.77348E-10-6.23731E-09
 -1       860-5.83554E+04 1.57081E+02-1.38429E+03-4.34142E+02-4.68211E-09 4.89587E-09
 -1       861-5.85504E+04-1.86291E+02-7.62057E+02 5.62214E+03-4.98943E-10 8.25754E-09
 -1       862-5.84358E+04 2.12310E+01-3.17848E+02-4.38370E+02-4.34658E-09-6.40026E-09
 -1       863-5.84520E+04-2.08004E+01-1.18214E+02 5.62456E+03-7.81721E-09 5.39146E-09
 -1       864-5.84542E+04-4.65227E+00 4.16010E+01-4.36563E+02-5.01274E-09-6.45208E-09
 -1       865-5.83979E+04 5.80059E+01 2.42372E+02 5.61435E+03-2.62560E-10-2.24032E-08
 -1       866-5.84877E+04-5.76249E+01 4.91255E+02-4.28154E+02 1.08872E-09-1.63100E-08
 -1       867-5.81661E+04 4.76190E+02 1.21100E+03 5.59150E+03-1.39133E-09 3.42516E-09
 -1       868-5.86812E+04-4.15377E+02 2.01273E+03-4.13714E+02-2.60326E-09 1.91335E-10
 -1       869-5.66899E+04 3.45698E+03 5.35993E+03 5.55380E+03 3.51753E-09 1.35412E-09
 -1       870-5.99563E+04-2.95759E+03 7.77834E+03-3.90362E+02-4.12444E-09-8.88485E-09
 -1       871-5.45075E+03-2.04397E+04-1.91277E+04 1.27923E+05-4.86216E-09 1.02254E-08
 -1       872-1.99036E+03-2.48760E+04-7.99829E+03 1.65870E+05-9.45329E-09-5.36738E-09
 -1       873 3.63900E+02-2.27358E+04 6.06361E+02 1.27642E+05-4.36557E-09 3.84739E-09
 -1       874 3.21552E+03-2.03457E+04 9.66174E+03 1.65900E+05-1.02009E-08 1.92629E-08
 -1       875 6.72141E+03-2.50373E+04 2.17748E+04 1.27876E+05-4.60932E-09 3.41970E-09
 -1       876 2.89477E+05 4.88469E+04 1.49041E+04 1.16237E+05 3.57113E-09 1.13241E-08
 -1       877 2.90456E+05 5.19920E+04 7.95937E+03 1.20518E+05 9.95624E-09 6.40819E-09
 -1       878 2.90871E+05 4.71961E+04 3.33459E+03 1.17458E+05 4.02224E-09-5.47266E-09
 -1       879 2.88430E+05 4.99702E+04 1.66148E+03 1.20619E+05 1.97679E-08 1.03976E-08
 -1       880 2.90971E+05 4.71790E+04 7.73886E+02 1.17508E+05 2.21644E-09 8.84643E-09
 -1       881 2.88296E+05 4.98838E+04 4.13246E+02 1.20596E+05-2.25973E-08-9.67172E-09
 -1       882 2.90980E+05 4.71921E+04 2.64334E+02 1.17510E+05-3.00952E-09 1.65901E-08
 -1       883 2.88286E+05 4.98793E+04 2.84111E+02 1.20588E+05 3.76286E-09 9.78640E-09
 -1       884 2.90973E+05 4.71893E+04 4.51900E+02 1.17510E+05 2.11639E-09-9.75427E-09
 -1       885 2.88322E+05 4.98856E+04 9.08534E+02 1.20599E+05-3.58466E-09-6.17302E-09
 -1       886 2.90938E+05 4.71628E+04 1.83109E+03 1.17506E+05 9.50990E-11 1.22911E-08
 -1       887 2.88644E+05 5.00966E+04 3.99977E+03 1.20646E+05 3.43783E-09 6.78028E-09
 -1       888 2.90685E+05 4.72073E+04 8.05965E+03 1.17378E+05-5.25029E-09 2.27974E-08
 -1       889 2.93442E+05 5.50863E+04 1.92530E+04 1.20499E+05-1.85958E-09 1.26220E-08
 -1       890 2.87396E+05 5.11143E+04 3.60604E+04 1.14310E+05-1.80580E-09 6.40466E-09
 -1       891-9.42338E+01-1.60594E+05-1.96676E+03 2.69803E+04-2.51703E-10 1.44175E-08
 -1       892-1.82258E+02-1.61110E+05-2.11326E+03 4.09597E+04 4.22028E-09-1.96806E-08
 -1       893 3.67957E+01-1.60657E+05-2.99311E+03 2.69875E+04-1.10231E-09-6.60157E-09
 -1       894-1.49852E+03-1.62242E+05-6.19530E+03 4.08085E+04 1.97315E-09 5.16957E-09
 -1       895-1.18884E+03-1.59367E+05-1.09101E+04 2.71330E+04 7.16454E-10 8.16362E-09
 -1       956-3.71347E+05-5.35148E+03-1.32328E+04 3.00006E+04 6.73117E-09-1.05128E-08
 -1       957-3.73945E+05-1.88061E+03-6.79228E+03 3.60591E+04-1.43837E-09-1.25783E-09
 -1       958-3.72535E+05-2.28447E+02-3.06076E+03 2.98362E+04-4.08454E-09 2.40925E-09
 -1       959-3.72730E+05-1.24131E+02-1.56292E+03 3.62498E+04 9.34506E-10 3.40515E-09
 -1       960-3.72651E+05-3.60636E+01-7.62145E+02 2.98193E+04 5.09044E-09 1.18760E-08
 -1       961-3.72650E+05-5.27095E+01-4.04121E+02 3.62697E+04 1.23182E-08 1.26433E-08
 -1       962-3.72677E+05-3.75604E+01-2.31399E+02 2.98165E+04 4.96084E-09 2.56932E-09
 -1       963-3.72650E+05-4.87632E+01-1.85819E+02 3.62733E+04 1.06979E-10-4.03361E-10
 -1       964-3.72683E+05-3.43098E+01-2.26021E+02 2.98158E+04 4.42128E-10 4.38376E-10
 -1       965-3.72662E+05-4.57797E+01-3.90964E+02 3.62726E+04-2.48724E-09-4.26962E-09
 -1       966-3.72667E+05-2.64025E+01-7.34599E+02 2.98172E+04 6.62158E-09-4.90672E-09
 -1       967-3.72751E+05-1.08024E+02-1.50667E+03 3.62587E+04 1.14558E-08 4.19641E-09
 -1       968-3.72565E+05-2.05640E+02-2.94946E+03 2.98295E+04 9.48194E-09-1.29000E-08
 -1       969-3.73934E+05-1.79582E+03-6.54781E+03 3.61148E+04 1.21145E-08-1.70436E-08
 -1       970-3.71428E+05-5.14042E+03-1.27554E+04 2.99535E+04 6.53472E-09-1.14442E-08
 -1       971-3.40604E+05-1.70796E+03-9.22557E+03 1.52285E+04 4.40741E-09-3.40216E-09
 -1       972-3.42827E+05-1.25497E+03-5.02414E+03 2.10779E+04 4.01815E-09-1.96324E-08
 -1       973-3.41632E+05-5.76822E+01-2.25033E+03 1.51079E+04 1.77261E-09 1.82376E-09
 -1       974-3.41768E+05-7.50807E+01-1.16645E+03 2.12139E+04-1.38175E-09-1.17730E-08
 -1       975-3.41713E+05-1.32624E+01-5.83422E+02 1.50957E+04-3.66981E-09-5.99152E-09
 -1       976-3.41707E+05-2.57263E+01-3.37232E+02 2.12294E+04 6.14273E-09-3.00872E-09
 -1       977-3.41730E+05-1.25635E+01-2.45905E+02 1.50924E+04-5.32486E-09 1.52194E-08
 -1       978-3.41712E+05-1.95893E+01-2.89323E+02 2.12342E+04-1.56181E-08-4.88706E-09
 -1       979-3.41729E+05-4.21693E+00-4.66195E+02 1.50910E+04-5.73272E-09 5.12148E-09
 -1       980-3.41747E+05-1.65730E+01-9.01007E+02 2.12351E+04 1.28452E-10 1.84293E-08
 -1       981-3.41700E+05 1.82992E+01-1.74548E+03 1.50915E+04-2.50350E-09 1.21219E-09
 -1       982-3.41986E+05-1.45543E+02-3.60812E+03 2.12286E+04 1.69166E-10-3.29978E-08
 -1       983-3.41481E+05-9.34665E+01-7.01074E+03 1.50975E+04-3.10092E-09 3.48973E-09
 -1       984-3.45358E+05-3.80704E+03-1.57003E+04 2.11436E+04-4.42492E-09 2.56921E-08
 -1       985-3.38307E+05-5.22350E+03-2.88306E+04 1.51695E+04-4.47653E-09 3.44517E-09
 -3
    1PSTEP                        31          16           1          
  100CL  116 6.60934E-01         409                     0   16           1
 -4  DISP        4    1
 -5  D1          1    2    1    0
 -5  D2          1    2    2    0
 -5  D3          1    2    3    0
 -5  ALL         1    2    0    0    1ALL
 -1         1 2.61479E-03 0.00000E+00 0.00000E+00
 -1         2 1.41005E-03-1.78991E-27 5.29396E-23
 -1         3 3.39003E-04 4.46811E-29 0.00000E+00
 -1         5 1.75771E-04-1.65121E-27 2.48154E-24
 -1         8 2.60223E-03-4.34210E-07 0.00000E+00
 -1         9 2.59454E-03-1.48587E-04 0.00000E+00
 -1        10 3.07403E-04-3.44788E-06 6.61744E-24
 -1        12 1.77561E-04 8.04742E-07-1.24077E-24
 -1        15 2.58754E-03-4.63930E-07 0.00000E+00
 -1        16 2.64472E-03-1.50177E-04 0.00000E+00
 -1        17 2.09317E-04-7.83760E-06 0.00000E+00
 -1        18 1.81343E-04 3.36294E-05 0.00000E+00
 -1        19 1.82929E-04 1.60323E-06 0.00000E+00
 -1        20 1.83069E-04-9.22893E-06 0.00000E+00
 -1        21 1.82184E-04-2.40371E-05 3.30872E-24
 -1        24 3.04983E-05-1.20199E-05 0.00000E+00
 -1        25 1.91840E-04 3.38534E-05 0.00000E+00
 -1        26 1.92523E-04 2.22020E-06 0.00000E+00
 -1        27 1.90335E-04-1.27705E-05 0.00000E+00
 -1        28 1.90016E-04-2.46569E-05 0.00000E+00
 -1        32 0.00000E+00 0.00000E+00 0.00000E+00
 -1        33 2.01110E-04 2.97023E-06 0.00000E+00
 -1        34 1.99001E-04-1.28257E-05 0.00000E+00
 -1        35 1.97077E-04-2.49978E-05 0.00000E+00
 -1        51 2.61396E-03-8.85713E-08 3.30872E-24
 -1        52 2.61243E-03-1.59513E-07 0.00000E+00
 -1        53 2.61035E-03-2.27307E-07 0.00000E+00
 -1        54 2.60786E-03-2.94183E-07 0.00000E+00
 -1        55 2.60510E-03-3.61873E-07-3.30872E-24
 -1        56 2.60906E-03 3.83753E-06-5.29396E-23
 -1        57 2.59951E-03 1.71375E-05 0.00000E+00
 -1        58 2.58750E-03 3.67286E-05-1.05879E-22
 -1        59 2.57446E-03 5.88100E-05 0.00000E+00
 -1        60 2.56211E-03 7.91705E-05-1.05879E-22
 -1        61 2.55204E-03 9.37367E-05 0.00000E+00
 -1        62 2.54540E-03 9.94583E-05 0.00000E+00
 -1        63 2.54295E-03 9.40617E-05 5.29396E-23
 -1        64 2.54465E-03 7.72639E-05 0.00000E+00
 -1        65 2.55011E-03 4.98150E-05 5.29396E-23
 -1        66 2.55831E-03 1.44076E-05 0.00000E+00
 -1        67 2.56803E-03-2.55276E-05 5.29396E-23
 -1        68 2.57784E-03-6.57248E-05-1.05879E-22
 -1        69 2.58632E-03-1.01886E-04 5.29396E-23
 -1        70 2.59219E-03-1.30469E-04 5.29396E-23
 -1        86 1.48443E-03-4.90513E-06 5.29396E-23
 -1        87 1.70071E-03-2.98965E-05 1.32349E-23
 -1        88 1.99139E-03-7.25279E-05 0.00000E+00
 -1        89 2.28540E-03-1.16152E-04 0.00000E+00
 -1        90 2.50983E-03-1.42839E-04 5.29396E-23
 -1       121 3.38116E-04-5.57294E-07-1.32349E-23
 -1       122 3.35457E-04-1.11761E-06 0.00000E+00
 -1       123 3.31036E-04-1.68392E-06 0.00000E+00
 -1       124 3.24871E-04-2.25920E-06 0.00000E+00
 -1       125 3.16982E-04-2.84604E-06-1.32349E-23
 -1       191 1.75821E-04 1.34184E-07-2.89513E-24
 -1       192 1.75970E-04 2.68357E-07-1.03398E-24
 -1       193 1.76219E-04 4.02511E-07 0.00000E+00
 -1       194 1.76567E-04 5.36635E-07 6.20385E-25
 -1       195 1.77014E-04 6.70716E-07 2.48154E-24
 -1       251 2.60185E-03 2.88517E-06 0.00000E+00
 -1       252 2.60145E-03 7.82966E-06 0.00000E+00
 -1       253 2.60105E-03 1.29613E-05-1.32349E-23
 -1       254 2.60065E-03 1.68389E-05 0.00000E+00
 -1       255 2.60026E-03 1.82605E-05-1.32349E-23
 -1       256 2.59987E-03 1.60635E-05 6.61744E-24
 -1       257 2.59947E-03 9.77297E-06 0.00000E+00
 -1       258 2.59902E-03-1.02077E-06 0.00000E+00
 -1       259 2.59853E-03-1.58722E-05 0.00000E+00
 -1       260 2.59797E-03-3.42709E-05 6.61744E-24
 -1       261 2.59738E-03-5.50322E-05 0.00000E+00
 -1       262 2.59676E-03-7.69343E-05 0.00000E+00
 -1       263 2.59614E-03-9.85384E-05 0.00000E+00
 -1       264 2.59556E-03-1.18410E-04-6.61744E-24
 -1       265 2.59503E-03-1.35446E-04 0.00000E+00
 -1       266 2.59978E-03-4.45386E-07-3.30872E-24
 -1       267 2.59733E-03-4.49581E-07 0.00000E+00
 -1       268 2.59489E-03-4.54217E-07-8.27181E-25
 -1       269 2.59244E-03-4.57545E-07 2.06795E-25
 -1       270 2.58999E-03-4.60841E-07 2.06795E-25
 -1       271 2.60103E-03 7.01568E-07 1.32349E-23
 -1       272 2.60059E-03-2.30241E-07-6.61744E-24
 -1       273 2.60088E-03-3.13357E-06 0.00000E+00
 -1       274 2.60186E-03-7.90258E-06 0.00000E+00
 -1       275 2.60348E-03-1.44090E-05 2.64698E-23
 -1       276 2.60568E-03-2.25095E-05 1.32349E-23
 -1       277 2.60841E-03-3.20429E-05 0.00000E+00
 -1       278 2.61160E-03-4.28347E-05 0.00000E+00
 -1       279 2.61518E-03-5.46970E-05 2.64698E-23
 -1       280 2.61907E-03-6.74315E-05 0.00000E+00
 -1       281 2.62320E-03-8.08303E-05 0.00000E+00
 -1       282 2.62749E-03-9.46796E-05-1.32349E-23
 -1       283 2.63187E-03-1.08760E-04 0.00000E+00
 -1       284 2.63626E-03-1.22851E-04-1.32349E-23
 -1       285 2.64056E-03-1.36731E-04 0.00000E+00
 -1       301 2.60366E-03-1.48881E-04-6.61744E-24
 -1       302 2.61131E-03-1.49135E-04 3.30872E-24
 -1       303 2.61835E-03-1.49381E-04-1.32349E-23
 -1       304 2.62568E-03-1.49628E-04 0.00000E+00
 -1       305 2.63418E-03-1.49887E-04 0.00000E+00
 -1       306 2.63144E-03-2.98098E-04 0.00000E+00
 -1       307 2.69555E-03-7.03761E-04 5.29396E-23
 -1       308 2.74410E-03-1.29929E-03 0.00000E+00
 -1       309 2.77049E-03-1.99087E-03 0.00000E+00
 -1       310 2.80343E-03-2.65482E-03 0.00000E+00
 -1       311 2.86316E-03-3.16990E-03 5.29396E-23
 -1       312 2.92159E-03-3.45628E-03 2.11758E-22
 -1       313 2.92023E-03-3.47497E-03 0.00000E+00
 -1       314 2.78742E-03-3.23660E-03 0.00000E+00
 -1       315 2.48249E-03-2.80282E-03 0.00000E+00
 -1       316 2.02234E-03-2.24888E-03 1.05879E-22
 -1       317 1.47022E-03-1.64378E-03 0.00000E+00
 -1       318 9.37237E-04-1.04901E-03 1.05879E-22
 -1       319 5.28819E-04-5.29805E-04 5.29396E-23
 -1       320 2.88302E-04-1.59020E-04-1.05879E-22
 -1       336 2.95947E-04-4.11276E-06 0.00000E+00
 -1       337 2.82441E-04-4.80275E-06 6.61744E-24
 -1       338 2.66946E-04-5.51995E-06 0.00000E+00
 -1       339 2.49538E-04-6.26511E-06 6.61744E-24
 -1       340 2.30298E-04-7.04261E-06 0.00000E+00
 -1       406 1.78207E-04 9.38695E-07-2.89513E-24
 -1       407 1.78953E-04 1.07254E-06 1.65436E-24
 -1       408 1.79798E-04 1.20622E-06-2.89513E-24
 -1       409 1.80742E-04 1.33958E-06-1.44757E-24
 -1       410 1.81786E-04 1.47232E-06-4.13590E-25
 -1       521 2.68229E-03-3.08877E-04 0.00000E+00
 -1       522 2.74483E-03-7.34106E-04 0.00000E+00
 -1       523 2.78742E-03-1.35633E-03 1.05879E-22
 -1       524 2.80524E-03-2.07526E-03 0.00000E+00
 -1       525 2.83077E-03-2.76463E-03-1.05879E-22
 -1       526 2.88711E-03-3.30087E-03-5.29396E-23
 -1       527 2.94512E-03-3.59765E-03-2.11758E-22
 -1       528 2.94171E-03-3.61503E-03-1.05879E-22
 -1       529 2.79792E-03-3.36346E-03 0.00000E+00
 -1       530 2.47085E-03-2.91201E-03 5.29396E-23
 -1       531 1.97806E-03-2.33946E-03 1.05879E-22
 -1       532 1.38880E-03-1.71750E-03-5.29396E-23
 -1       533 8.19138E-04-1.10525E-03 0.00000E+00
 -1       534 3.79314E-04-5.65845E-04 0.00000E+00
 -1       535 1.18634E-04-1.76226E-04-2.11758E-22
 -1       536 2.08576E-04 2.66713E-05-6.61744E-24
 -1       537 2.06699E-04 8.64198E-05 0.00000E+00
 -1       538 2.03799E-04 1.62241E-04 0.00000E+00
 -1       539 2.00379E-04 2.44883E-04-1.65436E-24
 -1       540 1.97301E-04 3.22975E-04 3.30872E-24
 -1       541 1.95299E-04 3.85167E-04 0.00000E+00
 -1       542 1.94374E-04 4.24772E-04-3.30872E-24
 -1       543 1.94151E-04 4.35252E-04-1.65436E-24
 -1       544 1.93832E-04 4.17377E-04 3.30872E-24
 -1       545 1.92681E-04 3.72130E-04 0.00000E+00
 -1       546 1.90539E-04 3.07559E-04 0.00000E+00
 -1       547 1.87643E-04 2.31827E-04 1.65436E-24
 -1       548 1.84773E-04 1.56477E-04 0.00000E+00
 -1       549 1.82703E-04 9.30511E-05-1.65436E-24
 -1       550 1.81626E-04 4.94952E-05 1.65436E-24
 -1       551 1.84407E-04-8.40275E-06 0.00000E+00
 -1       552 1.56276E-04-9.04667E-06 0.00000E+00
 -1       553 1.25863E-04-9.75157E-06-3.30872E-24
 -1       554 9.41252E-05-1.04967E-05 3.30872E-24
 -1       555 6.20196E-05-1.12549E-05 0.00000E+00
 -1       556 2.01768E-04 1.14703E-05 0.00000E+00
 -1       557 1.95671E-04 2.71231E-05 0.00000E+00
 -1       558 1.90893E-04 3.94059E-05 0.00000E+00
 -1       559 1.87304E-04 4.86263E-05 0.00000E+00
 -1       560 1.84773E-04 5.50924E-05 0.00000E+00
 -1       561 1.83175E-04 5.91146E-05 0.00000E+00
 -1       562 1.82385E-04 6.10047E-05 0.00000E+00
 -1       563 1.82281E-04 6.10752E-05 0.00000E+00
 -1       564 1.82742E-04 5.96398E-05 0.00000E+00
 -1       565 1.83649E-04 5.70124E-05 0.00000E+00
 -1       566 1.84882E-04 5.35078E-05 0.00000E+00
 -1       567 1.86323E-04 4.94412E-05 3.30872E-24
 -1       568 1.87857E-04 4.51276E-05-1.65436E-24
 -1       569 1.89365E-04 4.08824E-05-8.27181E-25
 -1       570 1.90731E-04 3.70207E-05 0.00000E+00
 -1       571 1.81439E-04 3.15518E-05 1.65436E-24
 -1       572 1.81538E-04 2.94091E-05-4.13590E-25
 -1       573 1.81636E-04 2.72166E-05-1.65436E-24
 -1       574 1.81735E-04 2.49906E-05 0.00000E+00
 -1       575 1.81834E-04 2.27474E-05 0.00000E+00
 -1       576 1.81933E-04 2.05033E-05 0.00000E+00
 -1       577 1.82032E-04 1.82746E-05 0.00000E+00
 -1       578 1.82131E-04 1.60777E-05 6.61744E-24
 -1       579 1.82231E-04 1.39289E-05 6.61744E-24
 -1       580 1.82330E-04 1.18445E-05 0.00000E+00
 -1       581 1.82429E-04 9.84100E-06 0.00000E+00
 -1       582 1.82529E-04 7.93462E-06 0.00000E+00
 -1       583 1.82629E-04 6.14170E-06 0.00000E+00
 -1       584 1.82729E-04 4.47840E-06 3.30872E-24
 -1       585 1.82829E-04 2.96069E-06 6.61744E-24
 -1       586 1.83051E-04 3.36689E-05 1.65436E-24
 -1       587 1.84718E-04 3.37078E-05 0.00000E+00
 -1       588 1.86388E-04 3.37463E-05-8.27181E-25
 -1       589 1.88103E-04 3.37841E-05 0.00000E+00
 -1       590 1.89906E-04 3.38207E-05 0.00000E+00
 -1       591 1.82055E-04 3.16443E-05 0.00000E+00
 -1       592 1.82769E-04 2.96391E-05-2.06795E-25
 -1       593 1.83489E-04 2.76196E-05-8.27181E-25
 -1       594 1.84211E-04 2.55906E-05-4.13590E-25
 -1       595 1.84936E-04 2.35568E-05 8.27181E-25
 -1       596 1.85660E-04 2.15230E-05 4.13590E-25
 -1       597 1.86382E-04 1.94938E-05 0.00000E+00
 -1       598 1.87101E-04 1.74741E-05-4.13590E-25
 -1       599 1.87815E-04 1.54684E-05 8.27181E-25
 -1       600 1.88522E-04 1.34815E-05-4.13590E-25
 -1       601 1.89220E-04 1.15182E-05-8.27181E-25
 -1       602 1.89907E-04 9.58300E-06-4.13590E-25
 -1       603 1.90583E-04 7.68076E-06 0.00000E+00
 -1       604 1.91244E-04 5.81627E-06-1.29247E-25
 -1       605 1.91891E-04 3.99413E-06 0.00000E+00
 -1       606 1.82942E-04 4.77556E-07 0.00000E+00
 -1       607 1.82952E-04-5.61897E-07 1.65436E-24
 -1       608 1.82961E-04-1.52019E-06 0.00000E+00
 -1       609 1.82969E-04-2.40303E-06 0.00000E+00
 -1       610 1.82978E-04-3.21619E-06 0.00000E+00
 -1       611 1.82986E-04-3.96548E-06 0.00000E+00
 -1       612 1.82994E-04-4.65671E-06 0.00000E+00
 -1       613 1.83003E-04-5.29575E-06 0.00000E+00
 -1       614 1.83011E-04-5.88841E-06 0.00000E+00
 -1       615 1.83020E-04-6.44054E-06 0.00000E+00
 -1       616 1.83028E-04-6.95797E-06 0.00000E+00
 -1       617 1.83036E-04-7.44655E-06 0.00000E+00
 -1       618 1.83045E-04-7.91209E-06 0.00000E+00
 -1       619 1.83053E-04-8.36045E-06 2.06795E-25
 -1       620 1.83062E-04-8.79745E-06 0.00000E+00
 -1       621 1.84247E-04 1.70661E-06 0.00000E+00
 -1       622 1.85721E-04 1.81024E-06-1.65436E-24
 -1       623 1.87319E-04 1.91366E-06-1.65436E-24
 -1       624 1.89007E-04 2.01676E-06-1.65436E-24
 -1       625 1.90753E-04 2.11958E-06 1.65436E-24
 -1       626 1.83462E-04 5.13480E-07-3.30872E-24
 -1       627 1.83973E-04-5.12739E-07 0.00000E+00
 -1       628 1.84463E-04-1.48329E-06 0.00000E+00
 -1       629 1.84936E-04-2.40635E-06-1.65436E-24
 -1       630 1.85394E-04-3.29012E-06 0.00000E+00
 -1       631 1.85840E-04-4.14283E-06 1.65436E-24
 -1       632 1.86278E-04-4.97268E-06 0.00000E+00
 -1       633 1.86710E-04-5.78792E-06 0.00000E+00
 -1       634 1.87140E-04-6.59676E-06 0.00000E+00
 -1       635 1.87570E-04-7.40741E-06 0.00000E+00
 -1       636 1.88005E-04-8.22811E-06-3.30872E-24
 -1       637 1.88446E-04-9.06709E-06 0.00000E+00
 -1       638 1.88897E-04-9.93256E-06-1.65436E-24
 -1       639 1.89360E-04-1.08328E-05 0.00000E+00
 -1       640 1.89839E-04-1.17760E-05 3.30872E-24
 -1       656 1.83733E-04-9.80456E-06-6.61744E-24
 -1       657 1.84817E-04-1.04036E-05 0.00000E+00
 -1       658 1.86180E-04-1.10012E-05-1.32349E-23
 -1       659 1.87677E-04-1.15985E-05 0.00000E+00
 -1       660 1.89123E-04-1.21976E-05 0.00000E+00
 -1       661 1.83318E-04-9.70517E-06 8.27181E-25
 -1       662 1.83604E-04-1.02727E-05 0.00000E+00
 -1       663 1.83922E-04-1.09262E-05 1.65436E-24
 -1       664 1.84271E-04-1.16594E-05 0.00000E+00
 -1       665 1.84647E-04-1.24664E-05 0.00000E+00
 -1       666 1.85049E-04-1.33414E-05 0.00000E+00
 -1       667 1.85474E-04-1.42789E-05 0.00000E+00
 -1       668 1.85920E-04-1.52732E-05-8.27181E-25
 -1       669 1.86386E-04-1.63191E-05-1.65436E-24
 -1       670 1.86868E-04-1.74113E-05 0.00000E+00
 -1       671 1.87367E-04-1.85446E-05 0.00000E+00
 -1       672 1.87878E-04-1.97140E-05 8.27181E-25
 -1       673 1.88401E-04-2.09146E-05 0.00000E+00
 -1       674 1.88934E-04-2.21417E-05 0.00000E+00
 -1       675 1.89474E-04-2.33901E-05 2.06795E-25
 -1       676 1.83494E-04-2.41410E-05 0.00000E+00
 -1       677 1.84803E-04-2.42448E-05 0.00000E+00
 -1       678 1.86110E-04-2.43487E-05 3.30872E-24
 -1       679 1.87415E-04-2.44522E-05 0.00000E+00
 -1       680 1.88718E-04-2.45556E-05 0.00000E+00
 -1       771 1.86878E-05 1.43713E-05 5.29396E-23
 -1       772 8.74841E-06 3.60476E-05 0.00000E+00
 -1       773 5.90551E-07 5.32366E-05 5.29396E-23
 -1       774-5.90829E-06 6.61933E-05-2.64698E-23
 -1       775-1.08680E-05 7.51827E-05-5.29396E-23
 -1       776-1.44134E-05 8.04865E-05-2.64698E-23
 -1       777-1.66689E-05 8.23964E-05 0.00000E+00
 -1       778-1.77619E-05 8.12175E-05-2.64698E-23
 -1       779-1.78186E-05 7.72633E-05-5.29396E-23
 -1       780-1.69678E-05 7.08586E-05-2.64698E-23
 -1       781-1.53371E-05 6.23347E-05 5.29396E-23
 -1       782-1.30557E-05 5.20320E-05 0.00000E+00
 -1       783-1.02519E-05 4.02949E-05 0.00000E+00
 -1       784-7.05531E-06 2.74743E-05 0.00000E+00
 -1       785-3.59455E-06 1.39240E-05 5.29396E-23
 -1       786 1.91878E-04 3.16493E-05-1.29247E-26
 -1       787 1.91920E-04 2.94951E-05-4.13590E-25
 -1       788 1.91962E-04 2.73826E-05 0.00000E+00
 -1       789 1.92005E-04 2.53036E-05 0.00000E+00
 -1       790 1.92048E-04 2.32533E-05-1.65436E-24
 -1       791 1.92091E-04 2.12270E-05 8.27181E-25
 -1       792 1.92134E-04 1.92225E-05-1.65436E-24
 -1       793 1.92177E-04 1.72377E-05 0.00000E+00
 -1       794 1.92220E-04 1.52723E-05 0.00000E+00
 -1       795 1.92263E-04 1.33262E-05 0.00000E+00
 -1       796 1.92306E-04 1.14012E-05 0.00000E+00
 -1       797 1.92349E-04 9.49930E-06 0.00000E+00
 -1       798 1.92393E-04 7.62463E-06 1.65436E-24
 -1       799 1.92436E-04 5.78153E-06-8.27181E-25
 -1       800 1.92479E-04 3.97751E-06 0.00000E+00
 -1       801 1.46705E-04 3.04204E-05 2.64698E-23
 -1       802 1.02032E-05 1.90012E-05 0.00000E+00
 -1       803-1.06512E-04 9.61062E-06 0.00000E+00
 -1       804-9.46242E-05 6.68265E-06 0.00000E+00
 -1       805-3.12834E-05 2.63866E-06-5.29396E-23
 -1       806 1.92552E-04 3.15809E-05 0.00000E+00
 -1       807 1.93250E-04 2.93347E-05 0.00000E+00
 -1       808 1.93935E-04 2.71197E-05 0.00000E+00
 -1       809 1.94607E-04 2.49402E-05 0.00000E+00
 -1       810 1.95264E-04 2.28001E-05 3.30872E-24
 -1       811 1.95905E-04 2.07033E-05 0.00000E+00
 -1       812 1.96528E-04 1.86537E-05 3.30872E-24
 -1       813 1.97132E-04 1.66552E-05 0.00000E+00
 -1       814 1.97716E-04 1.47116E-05 0.00000E+00
 -1       815 1.98277E-04 1.28270E-05 8.27181E-25
 -1       816 1.98816E-04 1.10050E-05-1.65436E-24
 -1       817 1.99329E-04 9.24957E-06 8.27181E-25
 -1       818 1.99816E-04 7.56456E-06 0.00000E+00
 -1       819 2.00276E-04 5.95382E-06-1.65436E-24
 -1       820 2.00707E-04 4.42113E-06 1.65436E-24
 -1       821 1.92395E-04-5.90073E-08 0.00000E+00
 -1       822 1.92255E-04-3.42352E-06 0.00000E+00
 -1       823 1.92114E-04-7.46621E-06 0.00000E+00
 -1       824 1.91971E-04-1.17757E-05 0.00000E+00
 -1       825 1.91828E-04-1.58689E-05-3.30872E-24
 -1       826 1.91687E-04-1.92636E-05 1.65436E-24
 -1       827 1.91549E-04-2.16676E-05 0.00000E+00
 -1       828 1.91413E-04-2.27946E-05 0.00000E+00
 -1       829 1.91278E-04-2.27050E-05 0.00000E+00
 -1       830 1.91142E-04-2.14665E-05-1.65436E-24
 -1       831 1.91005E-04-1.94587E-05-3.30872E-24
 -1       832 1.90867E-04-1.70660E-05 0.00000E+00
 -1       833 1.90730E-04-1.47772E-05 0.00000E+00
 -1       834 1.90595E-04-1.30807E-05-1.65436E-24
 -1       835 1.90461E-04-1.23043E-05 0.00000E+00
 -1       836 1.94166E-04 2.34459E-06-3.30872E-24
 -1       837 1.95681E-04 2.47210E-06-1.65436E-24
 -1       838 1.97102E-04 2.59955E-06 0.00000E+00
 -1       839 1.98459E-04 2.72629E-06 0.00000E+00
 -1       840 1.99784E-04 2.85288E-06-8.27181E-25
 -1       856 1.90319E-04-1.37874E-05 0.00000E+00
 -1       857 1.90299E-04-1.46689E-05 1.29247E-26
 -1       858 1.90280E-04-1.54362E-05 0.00000E+00
 -1       859 1.90260E-04-1.61103E-05 0.00000E+00
 -1       860 1.90240E-04-1.67123E-05 0.00000E+00
 -1       861 1.90220E-04-1.72635E-05 2.06795E-25
 -1       862 1.90200E-04-1.77852E-05-4.13590E-25
 -1       863 1.90180E-04-1.82987E-05-4.13590E-25
 -1       864 1.90160E-04-1.88251E-05 0.00000E+00
 -1       865 1.90140E-04-1.93859E-05 4.13590E-25
 -1       866 1.90120E-04-2.00022E-05 0.00000E+00
 -1       867 1.90100E-04-2.06952E-05 4.13590E-25
 -1       868 1.90079E-04-2.14862E-05 0.00000E+00
 -1       869 1.90059E-04-2.23962E-05-4.13590E-25
 -1       870 1.90038E-04-2.34461E-05 8.27181E-25
 -1       871 1.91639E-04-1.27753E-05 0.00000E+00
 -1       872 1.93088E-04-1.27835E-05 0.00000E+00
 -1       873 1.94618E-04-1.27923E-05 0.00000E+00
 -1       874 1.96158E-04-1.28019E-05-3.87741E-25
 -1       875 1.97642E-04-1.28121E-05 1.03398E-24
 -1       876 1.90843E-04-1.37729E-05-3.30872E-24
 -1       877 1.91329E-04-1.47087E-05 1.65436E-24
 -1       878 1.91793E-04-1.55858E-05 0.00000E+00
 -1       879 1.92239E-04-1.64117E-05 1.65436E-24
 -1       880 1.92668E-04-1.71937E-05 3.30872E-24
 -1       881 1.93083E-04-1.79391E-05 0.00000E+00
 -1       882 1.93488E-04-1.86554E-05 3.30872E-24
 -1       883 1.93884E-04-1.93497E-05 1.65436E-24
 -1       884 1.94275E-04-2.00295E-05 0.00000E+00
 -1       885 1.94663E-04-2.07021E-05 1.65436E-24
 -1       886 1.95051E-04-2.13747E-05-3.30872E-24
 -1       887 1.95442E-04-2.20546E-05 0.00000E+00
 -1       888 1.95838E-04-2.27494E-05 0.00000E+00
 -1       889 1.96241E-04-2.34663E-05 0.00000E+00
 -1       890 1.96655E-04-2.42127E-05 0.00000E+00
 -1       891 1.91335E-04-2.47142E-05 0.00000E+00
 -1       892 1.92630E-04-2.47716E-05 0.00000E+00
 -1       893 1.93877E-04-2.48289E-05 1.65436E-24
 -1       894 1.95050E-04-2.48860E-05 8.27181E-25
 -1       895 1.96125E-04-2.49428E-05-4.13590E-25
 -1       956 2.00980E-04 1.69283E-06 1.65436E-24
 -1       957 2.00848E-04 5.06345E-07-8.27181E-25
 -1       958 2.00716E-04-5.99886E-07-3.30872E-24
 -1       959 2.00584E-04-1.63711E-06 1.65436E-24
 -1       960 2.00452E-04-2.61662E-06 0.00000E+00
 -1       961 2.00319E-04-3.54974E-06 0.00000E+00
 -1       962 2.00187E-04-4.44780E-06 0.00000E+00
 -1       963 2.00055E-04-5.32219E-06 0.00000E+00
 -1       964 1.99923E-04-6.18423E-06-3.30872E-24
 -1       965 1.99791E-04-7.04528E-06 1.65436E-24
 -1       966 1.99659E-04-7.91671E-06 0.00000E+00
 -1       967 1.99527E-04-8.80986E-06-1.65436E-24
 -1       968 1.99394E-04-9.73607E-06 0.00000E+00
 -1       969 1.99263E-04-1.07067E-05-1.65436E-24
 -1       970 1.99131E-04-1.17329E-05-3.30872E-24
 -1       971 1.98882E-04-1.39176E-05 3.30872E-24
 -1       972 1.98761E-04-1.49151E-05 1.65436E-24
 -1       973 1.98640E-04-1.58285E-05 0.00000E+00
 -1       974 1.98519E-04-1.66688E-05 1.65436E-24
 -1       975 1.98398E-04-1.74467E-05 0.00000E+00
 -1       976 1.98277E-04-1.81731E-05-1.65436E-24
 -1       977 1.98156E-04-1.88589E-05 0.00000E+00
 -1       978 1.98036E-04-1.95149E-05 1.65436E-24
 -1       979 1.97915E-04-2.01520E-05 0.00000E+00
 -1       980 1.97794E-04-2.07812E-05 0.00000E+00
 -1       981 1.97673E-04-2.14132E-05 0.00000E+00
 -1       982 1.97552E-04-2.20591E-05 1.65436E-24
 -1       983 1.97432E-04-2.27296E-05 0.00000E+00
 -1       984 1.97312E-04-2.34357E-05 0.00000E+00
 -1       985 1.97192E-04-2.41883E-05 3.30872E-24
 -3
    1PSTEP                        32          16           1          
  100CL  116 6.60934E-01         409                     0   16           1
 -4  STRESS      6    1
 -5  SXX         1    4    1    1
 -5  SYY         1    4    2    2
 -5  SZZ         1    4    3    3
 -5  SXY         1    4    1    2
 -5  SYZ         1    4    2    3
 -5  SZX         1    4    3    1
 -1         1-5.16268E+06-1.69710E+06-1.11088E+06-1.52474E+06-1.00408E-09 5.41040E-08
 -1         2 1.08791E+06 1.59920E+07 3.87898E+06 4.81300E+06 2.39816E-08-1.71916E-07
 -1         3-1.45460E+03-1.58268E+06 4.08915E+02-2.22091E+03-6.16623E-10-2.49784E-08
 -1         5-7.07254E+01 3.84231E+05 9.92620E+00-1.28716E+00-4.72484E-10-3.31056E-10
 -1         8-6.83448E+05-2.32750E+05-8.47478E+04-2.69597E+05 6.18456E-11-9.13751E-08
 -1         9 1.10270E+07 2.76448E+06 2.46594E+06-5.41684E+05 1.88593E-09 6.83358E-08
 -1        10-2.28603E+03-1.64929E+06-3.97082E+03-1.50222E+04-1.35187E-08-4.48130E-08
 -1        12-6.68171E+01 3.84252E+05 3.26020E+02-8.79515E+00-7.49495E-10 3.31147E-09
 -1        15 1.03108E+03 5.66636E+02 3.33292E+03 1.09168E+00-3.31673E-09-1.06853E-06
 -1        16 2.20253E+07-2.79741E+05 3.01965E+06-2.05543E+06 1.75205E-08 8.29653E-08
 -1        17 8.05608E+06 5.99839E+06 2.17566E+06 5.76320E+06 2.27825E-08 3.15253E-08
 -1        18 1.38117E+05 3.23654E+04 3.29736E+03-1.18562E+05 1.34664E-08 6.10908E-09
 -1        19 1.21782E+05 1.40917E+05-9.40055E+02 2.19048E+04 1.62072E-09 4.85634E-09
 -1        20-8.10953E+04-5.70867E+05-1.28066E+05 2.52498E+04-1.74001E-09 8.37584E-09
 -1        21-4.55437E+01-2.95106E+05-9.21673E+02 2.65133E+02 1.27951E-08 2.10167E-09
 -1        24 1.33894E+07 1.15106E+07 3.71815E+06 1.06707E+07-1.58548E-07-5.82465E-08
 -1        25 1.17453E+05 2.39747E+05 9.29541E+04-6.29162E+05-4.21096E-10 1.04694E-08
 -1        26-5.50624E+04 9.17583E+04-2.45161E+04 1.13330E+03-2.03727E-11 3.02889E-08
 -1        27-7.55295E+04-3.08504E+05-1.12845E+05 6.86590E+04 3.41409E-09 6.13606E-09
 -1        28 2.21880E+04-8.50281E+04 1.68439E+04 2.06390E+04-2.37125E-09 2.75202E-08
 -1        32-1.67425E+06-3.15345E+06-1.93543E+05 4.27225E+05-4.15748E-08-7.73775E-09
 -1        33-1.77700E+05 9.24782E+04 3.22249E+04-3.84067E+04-2.96135E-09-5.19231E-09
 -1        34-2.22668E+05-2.48713E+04 6.84519E+02 7.52240E+04-4.48141E-09 8.19894E-09
 -1        35-2.28679E+04-3.37211E+04-1.34314E+03 5.13415E+04-3.43556E-09-1.38486E-09
 -1        51 5.81974E+04-1.82729E+05 1.23679E+05-4.92135E+05 4.36557E-11-7.94971E-08
 -1        52 1.99798E+04-1.61496E+05 6.53436E+04-5.73880E+05 1.36424E-10-1.98797E-07
 -1        53 4.41969E+03-1.76932E+05 3.47621E+04-4.90397E+05 2.40107E-10 1.31826E-07
 -1        54 8.48081E+03-1.72781E+05 3.00361E+04-5.75626E+05 1.92813E-10 1.20650E-07
 -1        55 1.83874E+04-1.80550E+05 3.82667E+04-4.90237E+05 1.89175E-10 2.15936E-07
 -1        56-9.46346E+06-1.17910E+06-8.40414E+05-3.82520E+06 1.07102E-08 3.24799E-08
 -1        57-1.04039E+07-1.22630E+06-5.49826E+05-3.03591E+06 1.96051E-08 7.90387E-08
 -1        58-9.48197E+06-1.54486E+06-1.93310E+05-3.89764E+06 2.80124E-08 3.39933E-08
 -1        59-1.03375E+07-8.28321E+05-1.12417E+05-3.01880E+06-4.10773E-08 1.08563E-07
 -1        60-9.54551E+06-1.55528E+06-4.86951E+04-3.85940E+06 2.68883E-08-9.61518E-09
 -1        61-1.00433E+07-9.81527E+05-1.34356E+04-3.19773E+06 7.00129E-09-3.76240E-08
 -1        62-9.73591E+06-1.41776E+06-3.01567E+04-3.68877E+06 2.32831E-10 2.42253E-08
 -1        63-9.63408E+06-1.33527E+06 7.96540E+03-3.58227E+06-3.39060E-09 9.83528E-08
 -1        64-9.92709E+06-1.22083E+06-2.74782E+04-3.45645E+06 3.47791E-09-6.59784E-08
 -1        65-9.38113E+06-1.65792E+06-1.30536E+04-4.01032E+06-4.12620E-08-3.16920E-07
 -1        66-1.00243E+07-1.07067E+06-4.21158E+04-3.28685E+06 3.49210E-08-6.44632E-08
 -1        67-9.33626E+06-1.82395E+06-1.01339E+05-4.20308E+06-1.66001E-08-4.47384E-07
 -1        68-1.00066E+07-1.03200E+06-1.75691E+05-3.28631E+06-2.35873E-08 1.67529E-07
 -1        69-9.56383E+06-1.99328E+06-4.92750E+05-3.97733E+06-5.66520E-08 1.94472E-07
 -1        70-9.76914E+06-9.30853E+05-7.61519E+05-3.49006E+06 5.07280E-08 3.57977E-08
 -1        86-1.10805E+06-1.26335E+07-2.11871E+06-2.27702E+06-2.38353E-07 3.78641E-08
 -1        87 1.68352E+06 4.21726E+06 1.76326E+06 4.49295E+06-4.07977E-07 4.65916E-08
 -1        88-2.87014E+05-2.27356E+06 1.58284E+05-2.16089E+06-3.49068E-07-7.39960E-08
 -1        89 2.26111E+06 4.02833E+06 1.79990E+06 4.62144E+06-5.15483E-07-1.91385E-07
 -1        90-1.62628E+06-1.24953E+07-2.30366E+06-2.42117E+06-1.31804E-07-2.38942E-08
 -1       121-1.99434E+03-1.58749E+06-5.21056E+02 1.10113E+03 1.39364E-09 9.28412E-09
 -1       122-1.26744E+03-1.58274E+06 7.79416E+02-4.44490E+03-5.07927E-09 1.21545E-08
 -1       123-2.01596E+03-1.58762E+06 3.01751E+02 3.28830E+03 4.01974E-09 4.98403E-09
 -1       124 3.90233E+02-1.58228E+06 2.99935E+03-9.29254E+03-1.06511E-08-3.85699E-08
 -1       125-2.84065E+03-1.58853E+06 3.56141E+03 5.90460E+03 6.02813E-09-5.62068E-09
 -1       191-7.45497E+01 3.84250E+05 8.64852E+00 6.69791E-01-5.46613E-10-2.49929E-09
 -1       192-7.16808E+01 3.84231E+05 2.11722E+01-4.14722E+00-7.09267E-10-1.88165E-08
 -1       193-7.70661E+01 3.84249E+05 3.62463E+01 3.63808E+00-1.06530E-09-8.51287E-10
 -1       194-7.47446E+01 3.84234E+05 8.04625E+01-9.41745E+00-5.67947E-10 2.18861E-08
 -1       195-8.18964E+01 3.84247E+05 1.54248E+02 6.11734E+00-1.45234E-09-6.82667E-09
 -1       251-1.10047E+06 2.30898E+04-5.47813E+04-2.07650E+04 3.24098E-09 1.72851E-07
 -1       252-1.12142E+06-2.62896E+04-3.80487E+04 6.91816E+04 5.01814E-10 2.90036E-07
 -1       253-1.10870E+06 3.97268E+03-1.40509E+04-2.16467E+04-3.06807E-09 1.79043E-07
 -1       254-1.10515E+06-3.64024E+03-7.31418E+03 5.84282E+04-1.26790E-08-1.90699E-07
 -1       255-1.11573E+06 5.20401E+02-4.66826E+03-1.00165E+04 1.45203E-08 5.25949E-08
 -1       256-1.09381E+06-1.94873E+02 1.39438E+03 2.73678E+04-1.98791E-08 1.07688E-07
 -1       257-1.11950E+06-6.72680E+02-2.50561E+03 9.40917E+03 8.86621E-09 1.73306E-07
 -1       258-1.09453E+06 9.40997E+02 3.58400E+03-1.12556E+04-1.28507E-08 5.45027E-08
 -1       259-1.11549E+06-1.04591E+03 3.30620E+02 2.86002E+04-4.10409E-10 2.28882E-08
 -1       260-1.10468E+06 3.12867E+03 5.24890E+03-4.15025E+04-2.17915E-09-1.32691E-07
 -1       261-1.10998E+06-1.72519E+03 7.10089E+03 3.96788E+04 2.14188E-08-3.94953E-08
 -1       262-1.10646E+06 1.07252E+04 1.78234E+04-5.11198E+04-2.46925E-08-1.19410E-07
 -1       263-1.11382E+06-7.84300E+03 2.77683E+04 3.82366E+04-3.51588E-09-7.15954E-08
 -1       264-1.07756E+06 5.57064E+04 7.80079E+04-3.62735E+04 2.43394E-08 1.03294E-07
 -1       265-1.13846E+06-4.74864E+04 1.06348E+05 2.48088E+04 2.21758E-08 3.04717E-08
 -1       266-1.86660E+04-8.72893E+03 4.37925E+04-2.33553E+01-3.72165E-09-1.46865E-06
 -1       267 2.16389E+04 1.01727E+04 3.09536E+04 2.69492E+01-7.06859E-09-3.06532E-06
 -1       268-2.90173E+03-1.44078E+03 1.15052E+04-3.43371E+00-6.03404E-09-2.46238E-06
 -1       269 3.42610E+03 1.72427E+03 7.47829E+03 3.99992E+00-5.13819E-09-2.30972E-06
 -1       270-5.14250E+02-2.83301E+02 3.60988E+03-5.42828E-01-3.51577E-09-1.37290E-06
 -1       271-1.72420E+06-2.11944E+05-1.30340E+05-6.66644E+05-1.15297E-08-5.42641E-08
 -1       272-1.75179E+06-3.23076E+05-8.33920E+04-6.80978E+05 4.46271E-08-7.46877E-08
 -1       273-1.75143E+06-2.42456E+05-3.12151E+04-6.57518E+05-4.20441E-08-4.87980E-08
 -1       274-1.71918E+06-2.87409E+05-1.69402E+04-6.96510E+05 1.24464E-08 2.26355E-08
 -1       275-1.75754E+06-2.43121E+05-7.56101E+03-6.53432E+05 1.52831E-08-1.60718E-07
 -1       276-1.71152E+06-2.87835E+05-3.53829E+03-7.04769E+05-3.84389E-08-2.32356E-07
 -1       277-1.76050E+06-2.40722E+05-2.04823E+03-6.50438E+05-4.08727E-09 3.17203E-07
 -1       278-1.70803E+06-2.91466E+05-1.00898E+03-7.10929E+05-2.21189E-09 5.64360E-08
 -1       279-1.76241E+06-2.38579E+05-1.14907E+03-6.48248E+05-5.23196E-08 1.44405E-08
 -1       280-1.70616E+06-2.94483E+05-1.62980E+03-7.15187E+05 2.43340E-08 2.59751E-07
 -1       281-1.76345E+06-2.37032E+05-2.98400E+03-6.46916E+05-2.51202E-09-7.00101E-08
 -1       282-1.70655E+06-2.97978E+05-7.06444E+03-7.17138E+05 1.09803E-08 5.60347E-08
 -1       283-1.76265E+06-2.34868E+05-1.24670E+04-6.46649E+05-1.67747E-08 3.08834E-07
 -1       284-1.71756E+06-3.15357E+05-3.42076E+04-7.14459E+05-3.11570E-09 1.12759E-08
 -1       285-1.75268E+06-2.21163E+05-5.28742E+04-6.49069E+05-6.02654E-09-1.15931E-07
 -1       301 1.83428E+03-6.15025E+05 1.68547E+05-1.06944E+06-7.38510E-09 1.86337E-07
 -1       302 2.05425E+03-5.70182E+05 1.01738E+05-1.56207E+06-2.01107E-08-1.45361E-07
 -1       303-1.46959E+04-6.05104E+05 5.87710E+04-1.06663E+06-5.37693E-09 1.58470E-07
 -1       304-1.34661E+04-5.75139E+05 6.14072E+04-1.56132E+06 3.59432E-09 5.52463E-08
 -1       305-1.73130E+04-5.95579E+05 7.83173E+04-1.06971E+06 5.79348E-09-1.13752E-07
 -1       306-2.95798E+07-6.09722E+06-8.41408E+06-6.89497E+05-9.18517E-08 1.45345E-07
 -1       307 2.49778E+07 2.98678E+06 5.40712E+06-1.46869E+07-7.99191E-07 1.58092E-07
 -1       308-7.19688E+06-9.90784E+05-4.96644E+05 5.09774E+06-2.30852E-07 1.76762E-07
 -1       309-3.38012E+06 8.32614E+06 2.18879E+06-2.02889E+07 3.07646E-07 8.81555E-08
 -1       310-1.21783E+07-1.79572E+06-1.88815E+06 5.07733E+06-1.36846E-07-1.74288E-07
 -1       311 3.65797E+07-1.81143E+03 6.98951E+06-8.93651E+06 5.03263E-07-7.48259E-08
 -1       312-3.11553E+07-6.49929E+06-8.24360E+06-4.73294E+06-2.78233E-08-1.47702E-08
 -1       313 4.44631E+07 1.40074E+07 1.03642E+07 2.26887E+07 1.77155E-07 1.74274E-07
 -1       314-1.72671E+07-1.70770E+07-7.33663E+06-1.23015E+07 2.38826E-07 1.55240E-07
 -1       315-1.50472E+06 2.86824E+07 5.55204E+06 1.07213E+07-5.91885E-07 2.06113E-07
 -1       316 1.17410E+06-9.75512E+06-4.71090E+05-2.76059E+06-1.25366E-06-1.05007E-07
 -1       317-1.71683E+07 2.19529E+07 2.14818E+06-8.22501E+06 7.32980E-07-8.66348E-07
 -1       318-1.08389E+06-1.23289E+07-1.91598E+06-4.28268E+06-9.55537E-07 5.20959E-08
 -1       319 6.72356E+06 3.06554E+07 6.76158E+06 1.60211E+07-1.24157E-07 2.82889E-07
 -1       320-2.20969E+07-1.70499E+07-9.53737E+06-1.24772E+07 1.74157E-07-4.30446E-08
 -1       336-6.66422E+02-1.71851E+06-1.39350E+04 8.95416E+03-2.64863E-08-6.69388E-10
 -1       337-5.41616E+03-1.71824E+06-1.81816E+04-2.17238E+04-4.90431E-08-2.49329E-08
 -1       338 3.38979E+02-1.71801E+06-2.85447E+04 1.25279E+04-3.45153E-08-1.45264E-08
 -1       339-3.02878E+04-1.73550E+06-6.45556E+04-2.87169E+04-6.32144E-08 1.57761E-08
 -1       340 2.00208E+04-1.70341E+06-1.01641E+05 1.58188E+04-4.11055E-08 2.90420E-08
 -1       406-4.50504E+01 3.84232E+05 6.40348E+02 3.18362E+00-1.86974E-09-9.02764E-09
 -1       407 1.57968E+02 3.84365E+05 1.36801E+03 2.27749E+01-5.24899E-10-1.39671E-08
 -1       408 6.35190E+02 3.84133E+05 2.72797E+03-2.63023E+01-2.45268E-09-4.63479E-09
 -1       409 2.89255E+03 3.85236E+05 6.14814E+03 2.80179E+02-3.52884E-10-8.48559E-10
 -1       410 8.43029E+03 3.83348E+05 1.25483E+04-2.70055E+02-2.63935E-09-2.07910E-09
 -1       521-3.10625E+07-7.49527E+06-9.79662E+06-3.16325E+05-9.44128E-08-1.67987E-07
 -1       522 2.57457E+07 3.90247E+06 5.49198E+06-1.80713E+07-4.45027E-07-5.41622E-08
 -1       523-7.80947E+06-1.29036E+06-4.91918E+05 5.53316E+06-7.10716E-08-2.21233E-07
 -1       524-6.80747E+06 1.12145E+07 2.35969E+06-2.32823E+07 9.00240E-07-5.77318E-07
 -1       525-1.29992E+07-2.38440E+06-2.06891E+06 5.50892E+06 6.61821E-07-1.21159E-07
 -1       526 3.97473E+07-7.78725E+04 7.31891E+06-1.15353E+07 3.16883E-07-9.05420E-08
 -1       527-3.29144E+07-8.12322E+06-9.47056E+06-4.59281E+06 4.22006E-07 6.55418E-08
 -1       528 4.84345E+07 1.54927E+07 1.07822E+07 2.56930E+07-2.00234E-07 3.16737E-07
 -1       529-1.82051E+07-1.91742E+07-8.38620E+06-1.23448E+07 5.86151E-08-2.38768E-07
 -1       530-3.94130E+06 3.32322E+07 5.85741E+06 1.03060E+07-3.50468E-07 5.68805E-07
 -1       531 1.14779E+06-1.08300E+07-4.50196E+05-2.76320E+06-1.11075E-06 2.21829E-07
 -1       532-1.97958E+07 2.39823E+07 2.34019E+06-1.22836E+07 3.00541E-07-6.51788E-07
 -1       533-1.13659E+06-1.34495E+07-2.02830E+06-4.15194E+06-2.11730E-07-1.00880E-06
 -1       534 4.69612E+06 3.54615E+07 7.01680E+06 1.65365E+07-7.18283E-08 7.89296E-07
 -1       535-2.32260E+07-1.93192E+07-1.08949E+07-1.25410E+07 9.49949E-08 4.62460E-07
 -1       536-6.99584E+05-4.67668E+04-4.47491E+04-5.37743E+04-2.12867E-09 5.66870E-08
 -1       537-6.12550E+04 4.48999E+04 8.38160E+04 1.22117E+05-1.10723E-07 7.77040E-08
 -1       538-3.94146E+05 3.12210E+03 4.09782E+03-7.13335E+04 3.21692E-08 9.88800E-08
 -1       539-2.71415E+05 2.93070E+03 2.47407E+04 1.36961E+05 1.68629E-07 1.31423E-07
 -1       540-4.94689E+05-4.10276E+02-2.06813E+04-6.91349E+04 2.83176E-08 9.93076E-08
 -1       541 1.35469E+05 1.66181E+04 1.04201E+05 9.64381E+04-6.32317E-08 8.54534E-08
 -1       542-7.90069E+05-1.97214E+04-8.24284E+04-2.99649E+04 4.19946E-08 4.28739E-08
 -1       543 3.88693E+05 2.67569E+04 1.54629E+05-1.32154E+04-3.55772E-09-1.77392E-08
 -1       544-7.41124E+05-1.61780E+04-7.32334E+04 3.98703E+04-4.92073E-08-4.18076E-08
 -1       545 2.00447E+04 9.24505E+03 7.80285E+04-1.12045E+05-4.47390E-08-1.10131E-07
 -1       546-4.31317E+05 5.99976E+03-1.19888E+04 6.85308E+04 4.15423E-08-7.87835E-08
 -1       547-2.89235E+05-4.66671E+03 1.01831E+04-1.39792E+05-1.35493E-07-9.79612E-08
 -1       548-4.40155E+05 4.68885E+03-2.36139E+04 6.82860E+04-1.14309E-07-1.04560E-07
 -1       549 3.90884E+04 1.52758E+04 5.86332E+04-1.09863E+05-5.61058E-08-7.11505E-08
 -1       550-7.50854E+05-2.12908E+04-1.27164E+05 3.79078E+04 8.79572E-09-4.07508E-08
 -1       551 4.04104E+04-7.59016E+05-1.43091E+04-1.24354E+06-1.02911E-07-1.71422E-08
 -1       552 9.21996E+04-8.03137E+05 1.08647E+04-1.77322E+06-7.07805E-08 3.87954E-08
 -1       553 7.08286E+04-7.99807E+05 3.27349E+04-1.23696E+06-1.18220E-07 2.15514E-08
 -1       554 1.30704E+05-8.18459E+05 8.19754E+04-1.77517E+06-7.22648E-08 9.24047E-10
 -1       555 1.00588E+05-8.23315E+05 1.49476E+05-1.23683E+06-1.21341E-07-1.56506E-08
 -1       556 2.20755E+05-3.79213E+05 2.83143E+04-4.04309E+05-2.15368E-08-3.92902E-09
 -1       557 3.50489E+05-4.82833E+05 1.74185E+04-5.23344E+05-5.13683E-09-6.48652E-09
 -1       558 2.03046E+05-3.72663E+05 2.96023E+03-4.08247E+05-5.93718E-09-6.59202E-09
 -1       559 3.25639E+05-4.83324E+05 2.72687E+03-5.43409E+05 3.32657E-08-3.71801E-09
 -1       560 1.88066E+05-3.63264E+05-1.31243E+03-4.19029E+05 1.51340E-08 2.11876E-08
 -1       561 3.06780E+05-4.75800E+05 2.05383E+02-5.56252E+05-1.13214E-08 1.39007E-08
 -1       562 1.76220E+05-3.55900E+05-1.25643E+03-4.27604E+05-1.00408E-08 1.14960E-08
 -1       563 2.92712E+05-4.69666E+05-1.59290E+01-5.65437E+05-2.66300E-09-1.33696E-09
 -1       564 1.67776E+05-3.50637E+05-5.74115E+02-4.33587E+05 5.99539E-09-7.48514E-09
 -1       565 2.83400E+05-4.65611E+05 2.94678E+01-5.71386E+05-8.58563E-10 1.69975E-08
 -1       566 1.62855E+05-3.47523E+05-2.49806E+02-4.37029E+05-9.42237E-09-2.60115E-10
 -1       567 2.78898E+05-4.63652E+05-3.54438E+02-5.74118E+05 2.70520E-08-6.98492E-10
 -1       568 1.61545E+05-3.46721E+05-1.10535E+03-4.38041E+05-7.55244E-09-1.55342E-09
 -1       569 2.77829E+05-4.63586E+05-2.79221E+03-5.72668E+05-4.78940E-09 2.42435E-08
 -1       570 1.64930E+05-3.49930E+05-6.10847E+03-4.37033E+05 5.35510E-09 2.02544E-09
 -1       571 2.88960E+05 1.04532E+04 1.49275E+04-9.42586E+04 1.14778E-09-1.59844E-09
 -1       572 2.91124E+05 3.93229E+03 7.31564E+03-1.03411E+05 7.69069E-09 6.34827E-09
 -1       573 2.89819E+05 1.22998E+03 3.25057E+03-9.40832E+04 4.46016E-09 8.50559E-09
 -1       574 2.90034E+05 7.12410E+02 1.63010E+03-1.03634E+05-1.08571E-09-1.24373E-08
 -1       575 2.89913E+05 4.35514E+02 7.69350E+02-9.40592E+04-4.88221E-09 7.45968E-09
 -1       576 2.89898E+05 4.45793E+02 3.93874E+02-1.03663E+05-1.27659E-08 1.24182E-08
 -1       577 2.89952E+05 3.77982E+02 1.96610E+02-9.40559E+04-5.78439E-09 1.68757E-08
 -1       578 2.89928E+05 4.08432E+02 1.13523E+02-1.03667E+05-2.72166E-09-1.27820E-08
 -1       579 2.90023E+05 3.42190E+02 7.79489E+01-9.40556E+04 7.21047E-09-1.50339E-08
 -1       580 2.90027E+05 3.58574E+02 9.03585E+01-1.03663E+05-6.82849E-09 1.91721E-09
 -1       581 2.90134E+05 2.84985E+02 1.36509E+02-9.40614E+04 5.56975E-09-1.18416E-09
 -1       582 2.90199E+05 3.22604E+02 2.77405E+02-1.03602E+05-1.77806E-09 2.11003E-10
 -1       583 2.90271E+05 3.28391E+02 5.32600E+02-9.41174E+04-2.69210E-10-1.49726E-09
 -1       584 2.90569E+05 7.63000E+02 1.20504E+03-1.03130E+05 7.03039E-09-9.40486E-09
 -1       585 2.90295E+05 1.77844E+03 2.44039E+03-9.45322E+04 1.62800E-09 1.41154E-08
 -1       586-3.40701E+03 1.15790E+05-2.93407E+03-2.49556E+05-5.04406E-09 7.60315E-09
 -1       587-1.31734E+03 1.15536E+05 7.48938E+02-2.74655E+05-1.06284E-08 4.19357E-09
 -1       588 4.13424E+02 1.15350E+05 4.72153E+03-2.49419E+05-5.45879E-09-2.27283E-08
 -1       589 5.07347E+03 1.17805E+05 1.22621E+04-2.74422E+05-7.64157E-09-3.51974E-08
 -1       590 1.65232E+04 1.14024E+05 2.57287E+04-2.49848E+05-6.75118E-09 6.22640E-09
 -1       591-7.42693E+04-1.58789E+04-2.23649E+04-3.17237E+04-5.58498E-09-6.00903E-09
 -1       592-7.83085E+04-1.94309E+04-1.21146E+04-3.53456E+04 6.38251E-09-3.66344E-09
 -1       593-7.65062E+04-1.42559E+04-5.04272E+03-3.33634E+04-1.00277E-08-1.26295E-08
 -1       594-7.52202E+04-1.61494E+04-2.51493E+03-3.54628E+04 1.98517E-09 8.44440E-09
 -1       595-7.66767E+04-1.42506E+04-1.15462E+03-3.34379E+04 1.63345E-09 8.27930E-09
 -1       596-7.50088E+04-1.59993E+04-5.86764E+02-3.54378E+04 5.10036E-09 1.63033E-08
 -1       597-7.66981E+04-1.42659E+04-3.19109E+02-3.34407E+04 4.26633E-09 7.14249E-09
 -1       598-7.49880E+04-1.59934E+04-2.55789E+02-3.54307E+04 2.88082E-10-2.33649E-09
 -1       599-7.66969E+04-1.42664E+04-3.25821E+02-3.34404E+04 1.60117E-09-1.66519E-08
 -1       600-7.50089E+04-1.59999E+04-6.04536E+02-3.54356E+04 6.57565E-10-5.96083E-09
 -1       601-7.66723E+04-1.42519E+04-1.19224E+03-3.34369E+04 2.48110E-09-2.08843E-09
 -1       602-7.52271E+04-1.61537E+04-2.59815E+03-3.54577E+04-6.77119E-09 5.42502E-09
 -1       603-7.64934E+04-1.42604E+04-5.21027E+03-3.33608E+04-5.40285E-09 1.42600E-08
 -1       604-7.84354E+04-1.95247E+04-1.25163E+04-3.53119E+04-5.08817E-09-2.67573E-09
 -1       605-7.41624E+04-1.59549E+04-2.31066E+04-3.16859E+04-2.04750E-10 8.75752E-09
 -1       606 2.67508E+04-1.42441E+04-2.55360E+04 2.40881E+04 5.90626E-09 7.94762E-09
 -1       607 2.23874E+04-4.65143E+03-1.27168E+04 2.70690E+04 3.27782E-09-2.28727E-08
 -1       608 2.48740E+04-8.38493E+02-5.69294E+03 2.39180E+04-1.21199E-08 1.60994E-08
 -1       609 2.43970E+04-2.86431E+02-2.87591E+03 2.72839E+04-1.86883E-08 1.16262E-08
 -1       610 2.46613E+04-3.97510E+01-1.37216E+03 2.38978E+04-4.12183E-09 1.52440E-08
 -1       611 2.45862E+04-3.97107E+01-6.91829E+02 2.73071E+04 6.96400E-09 1.36974E-08
 -1       612 2.46142E+04-2.59456E+01-3.28909E+02 2.38957E+04-7.02130E-10-2.42881E-09
 -1       613 2.45974E+04-3.54799E+01-1.47384E+02 2.73098E+04-3.10592E-10-1.42195E-08
 -1       614 2.45919E+04-3.21830E+01-3.45591E+01 2.38950E+04 2.70211E-09-1.00774E-08
 -1       615 2.45919E+04-3.38715E+01 6.17911E+01 2.73102E+04-3.49655E-09 9.09472E-09
 -1       616 2.45745E+04-2.89721E+01 1.85271E+02 2.38953E+04-1.03410E-09-6.64295E-09
 -1       617 2.46140E+04 5.71070E+00 4.22704E+02 2.73097E+04-1.26443E-09-1.64910E-08
 -1       618 2.45376E+04 9.29627E+01 8.52024E+02 2.38956E+04 1.07775E-10-4.55407E-09
 -1       619 2.49147E+04 6.64559E+02 1.91329E+03 2.73091E+04-3.03498E-09-2.35284E-08
 -1       620 2.42546E+04 2.11339E+03 3.84565E+03 2.38971E+04 6.92921E-10-1.27920E-09
 -1       621 5.03183E+02 2.99753E+05 3.84911E+03 4.03340E+04 1.01227E-09-1.42791E-10
 -1       622 6.65271E+02 3.00644E+05 3.41906E+03 5.85586E+04 1.14142E-09 9.45738E-09
 -1       623 1.37642E+02 2.99947E+05 4.11280E+03 4.01513E+04 1.17825E-09 7.32325E-09
 -1       624 2.10564E+03 3.01857E+05 7.97643E+03 5.87385E+04 1.19297E-09-1.19105E-08
 -1       625 2.05922E+03 2.98366E+05 1.39401E+04 4.01482E+04 1.29739E-09-6.06974E-09
 -1       626 2.59533E+05 6.12560E+04 5.10782E+03 1.26288E+05-2.29284E-09-7.96899E-09
 -1       627 2.57211E+05 6.26595E+04 2.46142E+03 1.30561E+05-1.70621E-09-1.86969E-09
 -1       628 2.59661E+05 5.89181E+04 1.04098E+03 1.27155E+05-1.63345E-09-1.68802E-09
 -1       629 2.56576E+05 6.19822E+04 5.09511E+02 1.30801E+05-1.16647E-08-2.28079E-08
 -1       630 2.59675E+05 5.88052E+04 2.36426E+02 1.27191E+05 4.84170E-09 1.22451E-08
 -1       631 2.56509E+05 6.19565E+04 1.27331E+02 1.30803E+05 1.07775E-09-5.05338E-09
 -1       632 2.59672E+05 5.88093E+04 8.39687E+01 1.27187E+05 5.62568E-09-1.89257E-08
 -1       633 2.56500E+05 6.19584E+04 9.38161E+01 1.30800E+05-3.07841E-09-4.31942E-09
 -1       634 2.59667E+05 5.88065E+04 1.51853E+02 1.27186E+05-4.33232E-09 3.93356E-11
 -1       635 2.56515E+05 6.19568E+04 3.07424E+02 1.30805E+05-4.36785E-09-6.87146E-09
 -1       636 2.59658E+05 5.88008E+04 6.20920E+02 1.27186E+05-9.79298E-09 2.92266E-09
 -1       637 2.56649E+05 6.20533E+04 1.36529E+03 1.30804E+05-1.09958E-08 2.62971E-08
 -1       638 2.59609E+05 5.91024E+04 2.80517E+03 1.27050E+05-4.37012E-09 1.87483E-08
 -1       639 2.58122E+05 6.41027E+04 6.63715E+03 1.30370E+05 1.55460E-08 2.53958E-08
 -1       640 2.59406E+05 6.52220E+04 1.37732E+04 1.24471E+05 3.82397E-09-6.08588E-09
 -1       656 6.62878E+04-1.69620E+06-1.60014E+05-2.48982E+03 6.62112E-10-1.24819E-08
 -1       657-8.76917E+04-1.76850E+06-1.32560E+05 5.24831E+03 3.61979E-10-3.11697E-08
 -1       658 2.11291E+04-1.71673E+06-8.16368E+04-4.56053E+03 1.50749E-10-6.78583E-10
 -1       659-9.48160E+04-1.77189E+06-1.41922E+05 6.96288E+03-2.42289E-09-6.70163E-09
 -1       660 7.33962E+04-1.69282E+06-1.76111E+05-4.20436E+03-2.21189E-09-5.46595E-09
 -1       661 1.59014E+05 1.66546E+04 1.67315E+04 6.21627E+04-3.18278E-09 1.81662E-08
 -1       662 1.68461E+05 2.90575E+04 1.12758E+04 5.84233E+04-1.02506E-09-3.10592E-10
 -1       663 1.62300E+05 2.20223E+04 3.94358E+03 6.12090E+04-3.27043E-09 1.23523E-08
 -1       664 1.64650E+05 2.27803E+04 2.35906E+03 5.95883E+04-1.91415E-09 3.09282E-08
 -1       665 1.62799E+05 2.27555E+04 9.30632E+02 6.10635E+04-2.52089E-09 1.93720E-09
 -1       666 1.64061E+05 2.19419E+04 5.44713E+02 5.97779E+04 6.05399E-09 1.95995E-08
 -1       667 1.62886E+05 2.28389E+04 2.89476E+02 6.10271E+04-1.00951E-09 1.40366E-09
 -1       668 1.63964E+05 2.18819E+04 2.95304E+02 5.98309E+04 1.91548E-10-2.85389E-08
 -1       669 1.62894E+05 2.28138E+04 4.00083E+02 6.10109E+04-2.64583E-09-8.57901E-09
 -1       670 1.64062E+05 2.20992E+04 8.71453E+02 5.98338E+04-1.01126E-08-7.13760E-09
 -1       671 1.62789E+05 2.26262E+04 1.54742E+03 6.10222E+04-3.29820E-10 3.40128E-09
 -1       672 1.64963E+05 2.36046E+04 3.95911E+03 5.96154E+04 7.95578E-09 2.15101E-08
 -1       673 1.61997E+05 2.13464E+04 6.63486E+03 6.12147E+04 3.64457E-09 1.45365E-08
 -1       674 1.71278E+05 3.42643E+04 1.89743E+04 5.77601E+04 1.28637E-09 1.00097E-08
 -1       675 1.56515E+05 1.22651E+04 2.81645E+04 6.27654E+04-2.12549E-09-5.89353E-09
 -1       676 2.40461E+01-2.95029E+05-1.11086E+03-1.32570E+02 2.40752E-09-1.39113E-08
 -1       677-2.93925E+02-2.95298E+05-2.03306E+03 2.64928E+02 1.01493E-08-3.92895E-08
 -1       678 1.97080E+02-2.94837E+05-3.59395E+03-1.32271E+02 1.00613E-09-9.00823E-09
 -1       679-3.59408E+03-2.97467E+05-8.53773E+03 2.63787E+02 6.57565E-09 2.78368E-09
 -1       680 2.14582E+03-2.92860E+05-1.37599E+04-1.29967E+02 1.82808E-10 1.53060E-08
 -1       771-3.05579E+06-7.41700E+05-1.62189E+05-1.45985E+06-3.70346E-08-3.13157E-08
 -1       772-2.97960E+06-8.29493E+05-8.36315E+04-1.56133E+06-2.86382E-08 1.76078E-08
 -1       773-3.08664E+06-7.17629E+05-4.26043E+04-1.47396E+06-1.03610E-08 1.02882E-08
 -1       774-2.97017E+06-8.11452E+05-1.90136E+04-1.58656E+06 3.35276E-08-7.75617E-09
 -1       775-3.10271E+06-7.06341E+05-1.42027E+04-1.48080E+06 1.51340E-09-6.33008E-10
 -1       776-2.98216E+06-8.08534E+05-5.31429E+03-1.60562E+06-5.48607E-09 1.36788E-09
 -1       777-3.11665E+06-6.96277E+05-6.26796E+03-1.48683E+06 1.00117E-08 5.94446E-09
 -1       778-2.99468E+06-8.05823E+05-1.77304E+03-1.62198E+06 7.18865E-09 5.32236E-09
 -1       779-3.12863E+06-6.87487E+05-3.13001E+03-1.49199E+06-7.10133E-09-5.51518E-09
 -1       780-3.00571E+06-8.03234E+05-5.19309E+02-1.63532E+06-1.68584E-08-2.55750E-09
 -1       781-3.13814E+06-6.80404E+05-1.21554E+03-1.49602E+06-3.03698E-08 4.15093E-09
 -1       782-3.01420E+06-8.01034E+05 4.37751E+02-1.64515E+06-3.71292E-08-5.24142E-09
 -1       783-3.14484E+06-6.75485E+05 6.81390E+02-1.49884E+06-1.07539E-08-1.31195E-08
 -1       784-3.01891E+06-7.98826E+05 2.82524E+03-1.65123E+06-2.06674E-08 1.93813E-09
 -1       785-3.14880E+06-6.72552E+05 4.98717E+03-1.50064E+06-3.70128E-08 8.22365E-09
 -1       786 1.24089E+05-9.76395E+03 2.25898E+04-3.17086E+02-1.17491E-09-5.38421E-10
 -1       787 1.33886E+05 1.13044E+04 1.59814E+04-1.31144E+02 4.50501E-09-1.94143E-08
 -1       788 1.27866E+05-1.53005E+03 5.84450E+03-2.82176E+02 4.62458E-09 1.24298E-08
 -1       789 1.29486E+05 1.77096E+03 3.66901E+03-1.84701E+02 1.42819E-09 5.10681E-09
 -1       790 1.28490E+05-2.38247E+02 1.48562E+03-2.63546E+02-2.81642E-09-2.21326E-09
 -1       791 1.28756E+05 2.75642E+02 8.58250E+02-2.16588E+02-7.10520E-09 4.04405E-09
 -1       792 1.28596E+05-3.58508E+01 3.64076E+02-2.50291E+02-4.21672E-09 7.07942E-10
 -1       793 1.28630E+05 3.80322E+01 1.82342E+02-2.41525E+02 1.84951E-10-1.03534E-08
 -1       794 1.28617E+05-7.87017E-01 4.90783E+01-2.38609E+02 5.91857E-09-1.67125E-08
 -1       795 1.28594E+05-2.60381E+01-5.32791E+01-2.65902E+02-3.54426E-09 1.26679E-08
 -1       796 1.28632E+05 2.81837E+01-1.54971E+02-2.25913E+02 3.96057E-09 1.07735E-08
 -1       797 1.28503E+05-2.10644E+02-4.27547E+02-2.95063E+02 3.77364E-09-6.96502E-09
 -1       798 1.28708E+05 1.83680E+02-6.94924E+02-2.09448E+02 2.68364E-09 1.04416E-08
 -1       799 1.27975E+05-1.35393E+03-1.91234E+03-3.35804E+02 6.74053E-09 7.20473E-09
 -1       800 1.29160E+05 1.17054E+03-2.70649E+03-1.85173E+02 5.39751E-10 3.68860E-08
 -1       801-1.61019E+05-9.81368E+06-1.36245E+06 1.37037E+06 8.93197E-08-4.97894E-08
 -1       802 7.09446E+05 5.66084E+06 2.10893E+06-1.68662E+06 2.55095E-07-2.46828E-08
 -1       803-5.19926E+05-1.39361E+07-1.83389E+06 8.70084E+05 7.58337E-08 1.36679E-08
 -1       804 2.76139E+05 2.19970E+06 1.48602E+06 6.62591E+05-1.17827E-07-1.18932E-07
 -1       805 1.85630E+05-6.36692E+06-2.77621E+05-9.73322E+05-4.91491E-08-6.06969E-08
 -1       806-3.07469E+05-5.94532E+04-2.27389E+04-1.21807E+05 2.79852E-09 1.14792E-08
 -1       807-3.09263E+05-5.57368E+04-1.11714E+04-1.27319E+05 1.88102E-08 1.22720E-08
 -1       808-3.08093E+05-5.12588E+04-4.73926E+03-1.25682E+05 1.00772E-09 1.24843E-08
 -1       809-3.06914E+05-5.25977E+04-2.31738E+03-1.27593E+05-1.31888E-08 1.10467E-08
 -1       810-3.08187E+05-5.09735E+04-1.06218E+03-1.25853E+05 8.50332E-09 5.90899E-09
 -1       811-3.06733E+05-5.24715E+04-5.28239E+02-1.27558E+05 9.02492E-09 4.19391E-09
 -1       812-3.08201E+05-5.09981E+04-2.67225E+02-1.25853E+05 2.68574E-09 2.48606E-08
 -1       813-3.06708E+05-5.24737E+04-1.73785E+02-1.27539E+05-6.70479E-09-4.66071E-09
 -1       814-3.08194E+05-5.10077E+04-1.72402E+02-1.25848E+05-2.48474E-09-1.10217E-08
 -1       815-3.06711E+05-5.24759E+04-2.77940E+02-1.27532E+05 1.59571E-09-3.68323E-09
 -1       816-3.08174E+05-5.10068E+04-5.26888E+02-1.25845E+05 6.41012E-09 1.23159E-08
 -1       817-3.06801E+05-5.25261E+04-1.13082E+03-1.27520E+05-1.10231E-08 1.07766E-08
 -1       818-3.08105E+05-5.11664E+04-2.30650E+03-1.25770E+05 2.77851E-09-7.23321E-09
 -1       819-3.08063E+05-5.39196E+04-5.42704E+03-1.27221E+05 1.16488E-08 6.91853E-09
 -1       820-3.07670E+05-5.52659E+04-1.10460E+04-1.24018E+05 2.89219E-09-1.53013E-08
 -1       821-3.77761E+05 2.08043E+04-4.83946E+04 2.04176E+03 1.32144E-08 1.97542E-09
 -1       822-3.97540E+05-2.40988E+04-3.40370E+04-4.24783E+03 4.76030E-09 2.18197E-08
 -1       823-3.85266E+05 3.27773E+03-1.25030E+04 3.26493E+03-1.10146E-08 2.93858E-09
 -1       824-3.88507E+05-3.78079E+03-7.83015E+03-5.07790E+03 2.36779E-09-2.54900E-08
 -1       825-3.86801E+05 5.09299E+02-3.27416E+03 2.87193E+03 2.11011E-08-6.07577E-09
 -1       826-3.86162E+05-5.68734E+02-1.75752E+03-2.90216E+03 2.48107E-08 4.29455E-09
 -1       827-3.87588E+05 5.08920E+01-1.16934E+03 1.08907E+03 1.16168E-08 1.42279E-08
 -1       828-3.85516E+05-1.37027E+02-6.15043E+02 1.07180E+03-1.29353E-09 2.59707E-08
 -1       829-3.87436E+05 6.87706E+01-1.16036E+03-1.10206E+03 1.04492E-09-1.28625E-09
 -1       830-3.86492E+05-6.20937E+02-1.89118E+03 4.64716E+03 8.10651E-10 1.20800E-08
 -1       831-3.86632E+05 5.50722E+02-3.35801E+03-2.48632E+03-5.55221E-09-9.74569E-09
 -1       832-3.88588E+05-3.94533E+03-8.13240E+03 5.84455E+03-5.14815E-09-1.40202E-08
 -1       833-3.85354E+05 3.40140E+03-1.30042E+04-2.29949E+03-2.31124E-09 5.36329E-09
 -1       834-3.97623E+05-2.50109E+04-3.52627E+04 3.96846E+03-1.75555E-09 1.11213E-08
 -1       835-3.77582E+05 2.15851E+04-5.02603E+04-6.10153E+02 4.92162E-09 1.55269E-08
 -1       836-1.40471E+03 3.68228E+05 2.27772E+04-1.61773E+04-6.87942E-09 7.20547E-09
 -1       837 4.85781E+03 3.75361E+05 1.92751E+04-3.30401E+04-7.62611E-09-1.00999E-08
 -1       838-5.54019E+02 3.70228E+05 1.96407E+04-1.61058E+04-6.16683E-09 6.68729E-09
 -1       839 1.23636E+04 3.80951E+05 3.71561E+04-3.30922E+04-6.84531E-09 1.37106E-08
 -1       840-3.82086E+03 3.62579E+05 5.92512E+04-1.61307E+04-5.91899E-09 2.07559E-09
 -1       856-5.29231E+04 8.02289E+03-2.11421E+04-3.98041E+02 3.29658E-09-3.74712E-09
 -1       857-6.16337E+04-9.42619E+03-1.45540E+04 5.61699E+03 7.75367E-09-9.75251E-09
 -1       858-5.63725E+04 1.12510E+03-5.48588E+03-4.22147E+02 7.92397E-11-1.47720E-08
 -1       859-5.76751E+04-1.32322E+03-3.31052E+03 5.65291E+03-2.34132E-09 6.93126E-09
 -1       860-5.68879E+04 1.57540E+02-1.38751E+03-4.33706E+02-2.09351E-09 1.07805E-08
 -1       861-5.70823E+04-1.87668E+02-7.63448E+02 5.66866E+03-2.96871E-09-8.49752E-10
 -1       862-5.69685E+04 2.13253E+01-3.17656E+02-4.37875E+02-2.74647E-09-3.65452E-09
 -1       863-5.69836E+04-2.15139E+01-1.16396E+02 5.67107E+03-3.97444E-09 2.37509E-08
 -1       864-5.69871E+04-4.83584E+00 4.56537E+01-4.36116E+02-3.31227E-09 1.83545E-08
 -1       865-5.69282E+04 5.92548E+01 2.51768E+02 5.66105E+03-5.15072E-09-1.13453E-08
 -1       866-5.70216E+04-5.94713E+01 5.08173E+02-4.27861E+02-1.61435E-10-1.69176E-08
 -1       867-5.66890E+04 4.91209E+02 1.25133E+03 5.63864E+03 9.51559E-10 1.48552E-08
 -1       868-5.72214E+04-4.29020E+02 2.07946E+03-4.13699E+02-1.79625E-11 4.77417E-09
 -1       869-5.51644E+04 3.57054E+03 5.53710E+03 5.60172E+03 1.45633E-10-4.08970E-08
 -1       870-5.85386E+04-3.05521E+03 8.03553E+03-3.90845E+02-2.17949E-09 6.11863E-09
 -1       871-5.50119E+03-2.10680E+04-1.93888E+04 1.29718E+05-4.48563E-09 1.47611E-09
 -1       872-1.98667E+03-2.55728E+04-8.11513E+03 1.68198E+05-1.11686E-08-1.03928E-08
 -1       873 3.91965E+02-2.33959E+04 5.95275E+02 1.29432E+05-5.55838E-09 1.45830E-08
 -1       874 3.27897E+03-2.09899E+04 9.74827E+03 1.68228E+05-1.14387E-08 2.03136E-08
 -1       875 6.81075E+03-2.57180E+04 2.19847E+04 1.29670E+05-4.23097E-09-6.77574E-09
 -1       876 2.92590E+05 4.93308E+04 1.50469E+04 1.17438E+05 8.37395E-09-1.39953E-08
 -1       877 2.93583E+05 5.25017E+04 8.03563E+03 1.21756E+05 9.94896E-09 1.15880E-08
 -1       878 2.93997E+05 4.76641E+04 3.36653E+03 1.18670E+05 4.59795E-09-2.22394E-09
 -1       879 2.91538E+05 5.04604E+04 1.67741E+03 1.21858E+05 1.73634E-08-4.97494E-10
 -1       880 2.94098E+05 4.76468E+04 7.81315E+02 1.18721E+05 1.88902E-09-1.34503E-09
 -1       881 2.91402E+05 5.03731E+04 4.17244E+02 1.21834E+05-4.57328E-09-5.06607E-09
 -1       882 2.94107E+05 4.76601E+04 2.66943E+02 1.18722E+05-3.73097E-09-2.57690E-09
 -1       883 2.91392E+05 5.03686E+04 2.87001E+02 1.21827E+05-3.60933E-09 2.04561E-08
 -1       884 2.94101E+05 4.76573E+04 4.56573E+02 1.18723E+05-1.11975E-08 3.97966E-09
 -1       885 2.91429E+05 5.03749E+04 9.17979E+02 1.21838E+05-1.37996E-08-5.46197E-09
 -1       886 2.94065E+05 4.76305E+04 1.85015E+03 1.18719E+05-3.11054E-09-7.94580E-09
 -1       887 2.91754E+05 5.05881E+04 4.04140E+03 1.21885E+05 7.23844E-09-1.56164E-08
 -1       888 2.93810E+05 4.76755E+04 8.14354E+03 1.18590E+05-1.83471E-09-1.05001E-09
 -1       889 2.96602E+05 5.56299E+04 1.94534E+04 1.21736E+05-5.79419E-10 5.60840E-09
 -1       890 2.90486E+05 5.16236E+04 3.64358E+04 1.15490E+05-1.85082E-09 5.63159E-09
 -1       891-9.10202E+01-1.62181E+05-1.98841E+03 2.71126E+04-3.06750E-09 5.33191E-09
 -1       892-1.77757E+02-1.62706E+05-2.13580E+03 4.11683E+04-4.07226E-10-1.41015E-08
 -1       893 4.14826E+01-1.62245E+05-3.02426E+03 2.71199E+04 6.15728E-10 9.10768E-09
 -1       894-1.50743E+03-1.63848E+05-6.25924E+03 4.10161E+04 3.60433E-09-1.32786E-10
 -1       895-1.19678E+03-1.60941E+05-1.10225E+04 2.72665E+04-1.24555E-09-3.42243E-09
 -1       956-3.75593E+05-5.42192E+03-1.33919E+04 3.06060E+04 4.16458E-09-2.04716E-08
 -1       957-3.78221E+05-1.91018E+03-6.87389E+03 3.67824E+04-7.34417E-10-1.07125E-08
 -1       958-3.76796E+05-2.36884E+02-3.09758E+03 3.04392E+04-6.82394E-09-1.04451E-08
 -1       959-3.76992E+05-1.32202E+02-1.58169E+03 3.69766E+04 1.57843E-09 2.52878E-08
 -1       960-3.76913E+05-4.18155E+01-7.71304E+02 3.04220E+04 8.80118E-09 1.24253E-08
 -1       961-3.76912E+05-5.96246E+01-4.08949E+02 3.69969E+04 1.30049E-08-5.08135E-09
 -1       962-3.76941E+05-4.31224E+01-2.34143E+02 3.04192E+04 3.32784E-09 4.17958E-09
 -1       963-3.76912E+05-5.55042E+01-1.87980E+02 3.70005E+04 6.75061E-09 6.93035E-10
 -1       964-3.76946E+05-3.97969E+01-2.28616E+02 3.04184E+04 3.67467E-09-1.08585E-08
 -1       965-3.76924E+05-5.25349E+01-3.95427E+02 3.69998E+04-5.96975E-09-2.03529E-08
 -1       966-3.76930E+05-3.19324E+01-7.42996E+02 3.04199E+04-3.24621E-09-1.47786E-08
 -1       967-3.77014E+05-1.15713E+02-1.52388E+03 3.69856E+04-3.15845E-09-2.18006E-09
 -1       968-3.76827E+05-2.13520E+02-2.98319E+03 3.04324E+04 3.03226E-09-1.53373E-08
 -1       969-3.78209E+05-1.82314E+03-6.62262E+03 3.68385E+04 3.68846E-09-2.98145E-08
 -1       970-3.75676E+05-5.20508E+03-1.29012E+04 3.05587E+04 5.44787E-10 1.30867E-08
 -1       971-3.44087E+05-1.72234E+03-9.28919E+03 1.53399E+04 6.50016E-09-1.54207E-08
 -1       972-3.46323E+05-1.26716E+03-5.05879E+03 2.12208E+04 7.48878E-09-1.73054E-08
 -1       973-3.45122E+05-6.06194E+01-2.26588E+03 1.52189E+04 4.55930E-09-5.49903E-09
 -1       974-3.45257E+05-7.91176E+01-1.17454E+03 2.13576E+04-8.15453E-09 3.19535E-08
 -1       975-3.45203E+05-1.58535E+01-5.87542E+02 1.52066E+04-2.40971E-09 1.35751E-08
 -1       976-3.45196E+05-2.93910E+01-3.39749E+02 2.13734E+04 6.52403E-09 1.00492E-08
 -1       977-3.45220E+05-1.51178E+01-2.47982E+02 1.52032E+04 3.37218E-09-5.38489E-09
 -1       978-3.45201E+05-2.31866E+01-2.92094E+02 2.13782E+04 3.01588E-09-1.07573E-08
 -1       979-3.45220E+05-6.67387E+00-4.70941E+02 1.52018E+04-4.85647E-09-1.34537E-09
 -1       980-3.45236E+05-2.01365E+01-9.10355E+02 2.13792E+04-1.16172E-08-1.01866E-08
 -1       981-3.45190E+05 1.60792E+01-1.76369E+03 1.52023E+04-4.41423E-09-1.20504E-08
 -1       982-3.45478E+05-1.50454E+02-3.64580E+03 2.13725E+04-9.71795E-10-7.65011E-09
 -1       983-3.44968E+05-9.68557E+01-7.08397E+03 1.52083E+04 4.62160E-09 3.86217E-09
 -1       984-3.48885E+05-3.85021E+03-1.58643E+04 2.12871E+04 1.15392E-09 1.53975E-08
 -1       985-3.41761E+05-5.28047E+03-2.91318E+04 1.52800E+04 5.16093E-09 4.32556E-09
 -3
    1PSTEP                        33          17           1          
  100CL  117 6.62325E-01         409                     0   17           1
 -4  DISP        4    1
 -5  D1          1    2    1    0
 -5  D2          1    2    2    0
 -5  D3          1    2    3    0
 -5  ALL         1    2    0    0    1ALL
 -1         1 2.66544E-03 0.00000E+00 0.00000E+00
 -1         2 1.40112E-03 2.12618E-27-5.29396E-23
 -1         3 3.41085E-04-1.13823E-27-1.32349E-23
 -1         5 1.76546E-04-6.07478E-27-2.48154E-24
 -1         8 2.65355E-03-4.22425E-07 0.00000E+00
 -1         9 2.64685E-03-1.63858E-04 0.00000E+00
 -1        10 3.09276E-04-3.43574E-06 6.61744E-24
 -1        12 1.78365E-04 8.07566E-07-1.24077E-24
 -1        15 2.63971E-03-4.49741E-07-2.06795E-25
 -1        16 2.70204E-03-1.65526E-04 0.00000E+00
 -1        17 2.10523E-04-7.82172E-06 0.00000E+00
 -1        18 1.82233E-04 3.40458E-05 0.00000E+00
 -1        19 1.83823E-04 1.60879E-06 0.00000E+00
 -1        20 1.83963E-04-9.56127E-06 0.00000E+00
 -1        21 1.83073E-04-2.47438E-05 0.00000E+00
 -1        24 3.05811E-05-1.20315E-05 0.00000E+00
 -1        25 1.92880E-04 3.42709E-05 0.00000E+00
 -1        26 1.93562E-04 2.22781E-06 0.00000E+00
 -1        27 1.91366E-04-1.31137E-05 0.00000E+00
 -1        28 1.91049E-04-2.53651E-05 0.00000E+00
 -1        32 0.00000E+00 0.00000E+00 0.00000E+00
 -1        33 2.02295E-04 2.98029E-06 0.00000E+00
 -1        34 2.00180E-04-1.31695E-05 0.00000E+00
 -1        35 1.98250E-04-2.57070E-05 0.00000E+00
 -1        51 2.66465E-03-8.71495E-08 3.30872E-24
 -1        52 2.66321E-03-1.56311E-07 0.00000E+00
 -1        53 2.66123E-03-2.22182E-07 0.00000E+00
 -1        54 2.65887E-03-2.87000E-07 0.00000E+00
 -1        55 2.65626E-03-3.52516E-07-2.48154E-24
 -1        56 2.65906E-03 5.33898E-06-5.29396E-23
 -1        57 2.64773E-03 2.29660E-05 0.00000E+00
 -1        58 2.63310E-03 4.88711E-05 0.00000E+00
 -1        59 2.61703E-03 7.82309E-05 5.29396E-23
 -1        60 2.60176E-03 1.05639E-04 0.00000E+00
 -1        61 2.58939E-03 1.25847E-04 0.00000E+00
 -1        62 2.58138E-03 1.34890E-04 0.00000E+00
 -1        63 2.57874E-03 1.29794E-04 5.29396E-23
 -1        64 2.58137E-03 1.10150E-04 0.00000E+00
 -1        65 2.58875E-03 7.68938E-05 0.00000E+00
 -1        66 2.59954E-03 3.34891E-05-1.05879E-22
 -1        67 2.61220E-03-1.56355E-05-5.29396E-23
 -1        68 2.62494E-03-6.49731E-05-1.05879E-22
 -1        69 2.63596E-03-1.08989E-04-5.29396E-23
 -1        70 2.64367E-03-1.43161E-04 5.29396E-23
 -1        86 1.47941E-03-5.32019E-06 5.29396E-23
 -1        87 1.70663E-03-3.28297E-05 0.00000E+00
 -1        88 2.01204E-03-7.98835E-05 2.64698E-23
 -1        89 2.32112E-03-1.28090E-04-1.32349E-23
 -1        90 2.55730E-03-1.57568E-04 5.29396E-23
 -1       121 3.40191E-04-5.55046E-07-1.32349E-23
 -1       122 3.37515E-04-1.11315E-06 0.00000E+00
 -1       123 3.33065E-04-1.67733E-06 0.00000E+00
 -1       124 3.26859E-04-2.25060E-06 0.00000E+00
 -1       125 3.18919E-04-2.83557E-06 0.00000E+00
 -1       191 1.76596E-04 1.34656E-07-1.65436E-24
 -1       192 1.76748E-04 2.69301E-07 0.00000E+00
 -1       193 1.77000E-04 4.03927E-07 0.00000E+00
 -1       194 1.77354E-04 5.38522E-07 0.00000E+00
 -1       195 1.77809E-04 6.73072E-07-8.27181E-25
 -1       251 2.65322E-03 2.08049E-06-6.61744E-24
 -1       252 2.65289E-03 4.88143E-06 3.30872E-24
 -1       253 2.65256E-03 6.94549E-06 1.32349E-23
 -1       254 2.65223E-03 7.24771E-06 6.61744E-24
 -1       255 2.65189E-03 5.05280E-06 0.00000E+00
 -1       256 2.65155E-03-3.40641E-07 0.00000E+00
 -1       257 2.65118E-03-9.11211E-06 1.32349E-23
 -1       258 2.65078E-03-2.13954E-05 0.00000E+00
 -1       259 2.65033E-03-3.67513E-05-1.32349E-23
 -1       260 2.64985E-03-5.46986E-05 0.00000E+00
 -1       261 2.64933E-03-7.43333E-05-1.32349E-23
 -1       262 2.64880E-03-9.47287E-05 6.61744E-24
 -1       263 2.64827E-03-1.14835E-04 1.32349E-23
 -1       264 2.64777E-03-1.33605E-04 6.61744E-24
 -1       265 2.64730E-03-1.50213E-04 1.32349E-23
 -1       266 2.65124E-03-4.32964E-07-3.30872E-24
 -1       267 2.64894E-03-4.36787E-07 0.00000E+00
 -1       268 2.64663E-03-4.41036E-07 8.27181E-25
 -1       269 2.64432E-03-4.44024E-07 0.00000E+00
 -1       270 2.64201E-03-4.46983E-07 0.00000E+00
 -1       271 2.65247E-03 4.77033E-07 0.00000E+00
 -1       272 2.65221E-03-8.84782E-07-6.61744E-24
 -1       273 2.65275E-03-4.39361E-06 0.00000E+00
 -1       274 2.65404E-03-9.92392E-06-1.32349E-23
 -1       275 2.65601E-03-1.73269E-05-2.64698E-23
 -1       276 2.65861E-03-2.64377E-05 1.32349E-23
 -1       277 2.66177E-03-3.70733E-05 2.64698E-23
 -1       278 2.66541E-03-4.90366E-05 1.32349E-23
 -1       279 2.66945E-03-6.21170E-05-2.64698E-23
 -1       280 2.67382E-03-7.60931E-05 0.00000E+00
 -1       281 2.67842E-03-9.07342E-05 0.00000E+00
 -1       282 2.68318E-03-1.05804E-04 0.00000E+00
 -1       283 2.68801E-03-1.21061E-04 2.64698E-23
 -1       284 2.69282E-03-1.36261E-04 0.00000E+00
 -1       285 2.69752E-03-1.51164E-04 0.00000E+00
 -1       301 2.65689E-03-1.64167E-04 6.61744E-24
 -1       302 2.66540E-03-1.64433E-04-3.30872E-24
 -1       303 2.67326E-03-1.64691E-04 1.32349E-23
 -1       304 2.68138E-03-1.64950E-04 0.00000E+00
 -1       305 2.69068E-03-1.65221E-04 0.00000E+00
 -1       306 2.68417E-03-3.15600E-04 1.05879E-22
 -1       307 2.74816E-03-7.25474E-04 5.29396E-23
 -1       308 2.79571E-03-1.32629E-03 1.05879E-22
 -1       309 2.82062E-03-2.02308E-03-5.29396E-23
 -1       310 2.85251E-03-2.69102E-03 0.00000E+00
 -1       311 2.91200E-03-3.20780E-03-5.29396E-23
 -1       312 2.97022E-03-3.49304E-03 1.05879E-22
 -1       313 2.96748E-03-3.50819E-03 0.00000E+00
 -1       314 2.83087E-03-3.26449E-03 1.05879E-22
 -1       315 2.51946E-03-2.82506E-03 5.29396E-23
 -1       316 2.05077E-03-2.26590E-03-1.05879E-22
 -1       317 1.48938E-03-1.65630E-03 0.00000E+00
 -1       318 9.48142E-04-1.05735E-03 0.00000E+00
 -1       319 5.33933E-04-5.34186E-04-5.29396E-23
 -1       320 2.90405E-04-1.60380E-04 0.00000E+00
 -1       336 2.97744E-04-4.09903E-06-1.32349E-23
 -1       337 2.84147E-04-4.78775E-06 0.00000E+00
 -1       338 2.68548E-04-5.50408E-06 1.32349E-23
 -1       339 2.51022E-04-6.24877E-06 0.00000E+00
 -1       340 2.31649E-04-7.02627E-06 0.00000E+00
 -1       406 1.79022E-04 9.41985E-07-8.27181E-25
 -1       407 1.79780E-04 1.07629E-06-1.24077E-24
 -1       408 1.80639E-04 1.21044E-06-1.65436E-24
 -1       409 1.81600E-04 1.34425E-06 5.16988E-25
 -1       410 1.82662E-04 1.47745E-06 4.13590E-25
 -1       521 2.73999E-03-3.26484E-04 1.05879E-22
 -1       522 2.80231E-03-7.56135E-04-5.29396E-23
 -1       523 2.84370E-03-1.38397E-03 0.00000E+00
 -1       524 2.85978E-03-2.10847E-03-5.29396E-23
 -1       525 2.88407E-03-2.80214E-03-1.05879E-22
 -1       526 2.94009E-03-3.34032E-03-5.29396E-23
 -1       527 2.99788E-03-3.63599E-03 0.00000E+00
 -1       528 2.99298E-03-3.64963E-03 5.29396E-23
 -1       529 2.84499E-03-3.39238E-03 0.00000E+00
 -1       530 2.51075E-03-2.93499E-03 0.00000E+00
 -1       531 2.00850E-03-2.35711E-03-1.05879E-22
 -1       532 1.40900E-03-1.73063E-03-5.29396E-23
 -1       533 8.30190E-04-1.11416E-03 1.05879E-22
 -1       534 3.83857E-04-5.70631E-04-5.29396E-23
 -1       535 1.19757E-04-1.77766E-04 2.11758E-22
 -1       536 2.09775E-04 2.69145E-05-6.61744E-24
 -1       537 2.07875E-04 8.70395E-05 1.65436E-24
 -1       538 2.04940E-04 1.63332E-04 0.00000E+00
 -1       539 2.01479E-04 2.46487E-04 1.65436E-24
 -1       540 1.98365E-04 3.25063E-04 0.00000E+00
 -1       541 1.96339E-04 3.87639E-04 0.00000E+00
 -1       542 1.95404E-04 4.27492E-04 0.00000E+00
 -1       543 1.95180E-04 4.38050E-04 1.65436E-24
 -1       544 1.94860E-04 4.20082E-04 0.00000E+00
 -1       545 1.93697E-04 3.74581E-04 0.00000E+00
 -1       546 1.91532E-04 3.09635E-04-3.30872E-24
 -1       547 1.88602E-04 2.33454E-04-1.65436E-24
 -1       548 1.85700E-04 1.57651E-04 0.00000E+00
 -1       549 1.83606E-04 9.38424E-05 1.65436E-24
 -1       550 1.82517E-04 5.00187E-05 1.65436E-24
 -1       551 1.85452E-04-8.38992E-06 0.00000E+00
 -1       552 1.57146E-04-9.03780E-06 0.00000E+00
 -1       553 1.26547E-04-9.74734E-06 6.61744E-24
 -1       554 9.46148E-05-1.04976E-05 0.00000E+00
 -1       555 6.23081E-05-1.12612E-05 0.00000E+00
 -1       556 2.02919E-04 1.16230E-05-5.29396E-23
 -1       557 1.96777E-04 2.73902E-05 0.00000E+00
 -1       558 1.91962E-04 3.97666E-05 0.00000E+00
 -1       559 1.88343E-04 4.90615E-05 0.00000E+00
 -1       560 1.85791E-04 5.55844E-05 0.00000E+00
 -1       561 1.84177E-04 5.96473E-05 0.00000E+00
 -1       562 1.83377E-04 6.15637E-05 0.00000E+00
 -1       563 1.83267E-04 6.16477E-05 0.00000E+00
 -1       564 1.83727E-04 6.02146E-05 0.00000E+00
 -1       565 1.84635E-04 5.75800E-05-6.61744E-24
 -1       566 1.85873E-04 5.40604E-05 0.00000E+00
 -1       567 1.87323E-04 4.99725E-05 3.30872E-24
 -1       568 1.88865E-04 4.56331E-05 0.00000E+00
 -1       569 1.90384E-04 4.13592E-05 0.00000E+00
 -1       570 1.91761E-04 3.74677E-05 0.00000E+00
 -1       571 1.82329E-04 3.19414E-05 0.00000E+00
 -1       572 1.82428E-04 2.97715E-05-4.13590E-25
 -1       573 1.82527E-04 2.75517E-05-1.65436E-24
 -1       574 1.82626E-04 2.52982E-05 0.00000E+00
 -1       575 1.82725E-04 2.30276E-05-3.30872E-24
 -1       576 1.82824E-04 2.07561E-05 0.00000E+00
 -1       577 1.82924E-04 1.85002E-05 0.00000E+00
 -1       578 1.83023E-04 1.62763E-05 0.00000E+00
 -1       579 1.83123E-04 1.41010E-05 0.00000E+00
 -1       580 1.83222E-04 1.19906E-05 0.00000E+00
 -1       581 1.83322E-04 9.96164E-06 6.61744E-24
 -1       582 1.83422E-04 8.03048E-06 3.30872E-24
 -1       583 1.83522E-04 6.21357E-06 0.00000E+00
 -1       584 1.83622E-04 4.52716E-06 0.00000E+00
 -1       585 1.83723E-04 2.98732E-06 0.00000E+00
 -1       586 1.83966E-04 3.40855E-05 1.65436E-24
 -1       587 1.85658E-04 3.41245E-05 4.13590E-25
 -1       588 1.87353E-04 3.41633E-05-8.27181E-25
 -1       589 1.89092E-04 3.42013E-05 0.00000E+00
 -1       590 1.90921E-04 3.42381E-05 0.00000E+00
 -1       591 1.82954E-04 3.20346E-05 2.06795E-25
 -1       592 1.83678E-04 3.00033E-05-2.06795E-25
 -1       593 1.84407E-04 2.79580E-05 0.00000E+00
 -1       594 1.85139E-04 2.59032E-05 0.00000E+00
 -1       595 1.85872E-04 2.38437E-05 0.00000E+00
 -1       596 1.86606E-04 2.17843E-05 0.00000E+00
 -1       597 1.87338E-04 1.97296E-05 8.27181E-25
 -1       598 1.88066E-04 1.76844E-05 0.00000E+00
 -1       599 1.88789E-04 1.56533E-05 0.00000E+00
 -1       600 1.89505E-04 1.36411E-05 0.00000E+00
 -1       601 1.90212E-04 1.16524E-05 0.00000E+00
 -1       602 1.90909E-04 9.69189E-06 0.00000E+00
 -1       603 1.91593E-04 7.76435E-06-4.13590E-25
 -1       604 1.92264E-04 5.87455E-06-2.06795E-25
 -1       605 1.92920E-04 4.02708E-06 0.00000E+00
 -1       606 1.83836E-04 4.62973E-07 0.00000E+00
 -1       607 1.83846E-04-5.96812E-07 1.65436E-24
 -1       608 1.83855E-04-1.57561E-06 0.00000E+00
 -1       609 1.83863E-04-2.47913E-06 0.00000E+00
 -1       610 1.83872E-04-3.31310E-06 3.30872E-24
 -1       611 1.83880E-04-4.08335E-06 0.00000E+00
 -1       612 1.83888E-04-4.79567E-06 0.00000E+00
 -1       613 1.83897E-04-5.45591E-06 0.00000E+00
 -1       614 1.83905E-04-6.06987E-06 0.00000E+00
 -1       615 1.83914E-04-6.64339E-06 0.00000E+00
 -1       616 1.83922E-04-7.18229E-06 0.00000E+00
 -1       617 1.83930E-04-7.69239E-06 0.00000E+00
 -1       618 1.83939E-04-8.17951E-06 0.00000E+00
 -1       619 1.83947E-04-8.64949E-06 0.00000E+00
 -1       620 1.83955E-04-9.10813E-06 0.00000E+00
 -1       621 1.85162E-04 1.71252E-06 1.65436E-24
 -1       622 1.86659E-04 1.81650E-06-8.27181E-25
 -1       623 1.88281E-04 1.92027E-06 1.65436E-24
 -1       624 1.89994E-04 2.02371E-06 0.00000E+00
 -1       625 1.91766E-04 2.12686E-06-1.65436E-24
 -1       626 1.84365E-04 4.99018E-07-6.61744E-24
 -1       627 1.84883E-04-5.47477E-07 0.00000E+00
 -1       628 1.85382E-04-1.53855E-06 0.00000E+00
 -1       629 1.85862E-04-2.48238E-06 1.65436E-24
 -1       630 1.86328E-04-3.38717E-06-3.30872E-24
 -1       631 1.86783E-04-4.26113E-06 0.00000E+00
 -1       632 1.87229E-04-5.11247E-06 0.00000E+00
 -1       633 1.87670E-04-5.94943E-06-1.65436E-24
 -1       634 1.88108E-04-6.78021E-06-3.30872E-24
 -1       635 1.88548E-04-7.61304E-06 0.00000E+00
 -1       636 1.88991E-04-8.45614E-06-3.30872E-24
 -1       637 1.89440E-04-9.31773E-06 0.00000E+00
 -1       638 1.89900E-04-1.02060E-05-1.65436E-24
 -1       639 1.90373E-04-1.11293E-05 1.65436E-24
 -1       640 1.90861E-04-1.20957E-05-1.65436E-24
 -1       656 1.84649E-04-1.01387E-05 0.00000E+00
 -1       657 1.85754E-04-1.07395E-05 0.00000E+00
 -1       658 1.87140E-04-1.13390E-05 0.00000E+00
 -1       659 1.88660E-04-1.19381E-05 0.00000E+00
 -1       660 1.90130E-04-1.25390E-05-6.61744E-24
 -1       661 1.84220E-04-1.00594E-05-8.27181E-25
 -1       662 1.84514E-04-1.06491E-05 0.00000E+00
 -1       663 1.84841E-04-1.13253E-05 1.65436E-24
 -1       664 1.85198E-04-1.20814E-05 0.00000E+00
 -1       665 1.85582E-04-1.29116E-05 1.65436E-24
 -1       666 1.85993E-04-1.38101E-05 0.00000E+00
 -1       667 1.86427E-04-1.47712E-05 1.65436E-24
 -1       668 1.86882E-04-1.57894E-05-8.27181E-25
 -1       669 1.87356E-04-1.68592E-05-1.65436E-24
 -1       670 1.87848E-04-1.79754E-05-8.27181E-25
 -1       671 1.88355E-04-1.91328E-05 1.65436E-24
 -1       672 1.88876E-04-2.03264E-05 8.27181E-25
 -1       673 1.89408E-04-2.15510E-05 0.00000E+00
 -1       674 1.89949E-04-2.28022E-05 0.00000E+00
 -1       675 1.90498E-04-2.40745E-05 2.06795E-25
 -1       676 1.84407E-04-2.48479E-05 3.30872E-24
 -1       677 1.85740E-04-2.49521E-05 0.00000E+00
 -1       678 1.87072E-04-2.50561E-05 0.00000E+00
 -1       679 1.88401E-04-2.51599E-05-1.65436E-24
 -1       680 1.89727E-04-2.52636E-05-3.30872E-24
 -1       771 1.86931E-05 1.45427E-05 0.00000E+00
 -1       772 8.68993E-06 3.63692E-05 0.00000E+00
 -1       773 4.81498E-07 5.36769E-05 5.29396E-23
 -1       774-6.05570E-06 6.67224E-05-2.64698E-23
 -1       775-1.10425E-05 7.57725E-05 0.00000E+00
 -1       776-1.46047E-05 8.11108E-05 0.00000E+00
 -1       777-1.68676E-05 8.30307E-05 0.00000E+00
 -1       778-1.79596E-05 8.18394E-05 0.00000E+00
 -1       779-1.80079E-05 7.78529E-05-5.29396E-23
 -1       780-1.71422E-05 7.13979E-05-5.29396E-23
 -1       781-1.54909E-05 6.28084E-05 5.29396E-23
 -1       782-1.31844E-05 5.24269E-05 0.00000E+00
 -1       783-1.03517E-05 4.06005E-05 0.00000E+00
 -1       784-7.12342E-06 2.76826E-05 0.00000E+00
 -1       785-3.62910E-06 1.40296E-05 5.29396E-23
 -1       786 1.92918E-04 3.20408E-05 0.00000E+00
 -1       787 1.92960E-04 2.98607E-05 0.00000E+00
 -1       788 1.93002E-04 2.77223E-05 0.00000E+00
 -1       789 1.93044E-04 2.56174E-05 8.27181E-25
 -1       790 1.93087E-04 2.35414E-05 0.00000E+00
 -1       791 1.93130E-04 2.14894E-05 0.00000E+00
 -1       792 1.93173E-04 1.94593E-05 0.00000E+00
 -1       793 1.93216E-04 1.74489E-05-8.27181E-25
 -1       794 1.93259E-04 1.54579E-05 1.65436E-24
 -1       795 1.93302E-04 1.34863E-05 8.27181E-25
 -1       796 1.93345E-04 1.15358E-05-1.65436E-24
 -1       797 1.93388E-04 9.60841E-06 0.00000E+00
 -1       798 1.93431E-04 7.70830E-06-1.65436E-24
 -1       799 1.93475E-04 5.83981E-06-8.27181E-25
 -1       800 1.93518E-04 4.01044E-06 0.00000E+00
 -1       801 1.47395E-04 3.08030E-05 0.00000E+00
 -1       802 9.85474E-06 1.92272E-05 0.00000E+00
 -1       803-1.07691E-04 9.71667E-06-5.29396E-23
 -1       804-9.55728E-05 6.75988E-06 2.64698E-23
 -1       805-3.15874E-05 2.66262E-06 5.29396E-23
 -1       806 1.93601E-04 3.19722E-05 0.00000E+00
 -1       807 1.94308E-04 2.96996E-05 0.00000E+00
 -1       808 1.95003E-04 2.74584E-05 0.00000E+00
 -1       809 1.95684E-04 2.52527E-05-1.65436E-24
 -1       810 1.96351E-04 2.30865E-05 0.00000E+00
 -1       811 1.97001E-04 2.09636E-05-1.65436E-24
 -1       812 1.97633E-04 1.88881E-05-3.30872E-24
 -1       813 1.98246E-04 1.68638E-05-1.65436E-24
 -1       814 1.98839E-04 1.48947E-05-3.30872E-24
 -1       815 1.99410E-04 1.29845E-05-8.27181E-25
 -1       816 1.99957E-04 1.11373E-05 0.00000E+00
 -1       817 2.00480E-04 9.35692E-06-8.27181E-25
 -1       818 2.00976E-04 7.64716E-06-3.30872E-24
 -1       819 2.01444E-04 6.01194E-06 0.00000E+00
 -1       820 2.01884E-04 4.45506E-06-3.30872E-24
 -1       821 1.93433E-04-9.85362E-08 0.00000E+00
 -1       822 1.93293E-04-3.55371E-06 1.65436E-24
 -1       823 1.93151E-04-7.71735E-06 3.30872E-24
 -1       824 1.93007E-04-1.21647E-05 0.00000E+00
 -1       825 1.92863E-04-1.63943E-05-3.30872E-24
 -1       826 1.92722E-04-1.99061E-05 0.00000E+00
 -1       827 1.92583E-04-2.23953E-05 0.00000E+00
 -1       828 1.92447E-04-2.35632E-05 1.65436E-24
 -1       829 1.92311E-04-2.34707E-05 0.00000E+00
 -1       830 1.92175E-04-2.21861E-05 0.00000E+00
 -1       831 1.92038E-04-2.01020E-05 3.30872E-24
 -1       832 1.91900E-04-1.76158E-05 1.65436E-24
 -1       833 1.91762E-04-1.52345E-05 0.00000E+00
 -1       834 1.91627E-04-1.34644E-05-1.65436E-24
 -1       835 1.91492E-04-1.26459E-05 8.27181E-25
 -1       836 1.95230E-04 2.35260E-06 3.30872E-24
 -1       837 1.96770E-04 2.48052E-06-1.65436E-24
 -1       838 1.98215E-04 2.60839E-06 0.00000E+00
 -1       839 1.99596E-04 2.73555E-06 0.00000E+00
 -1       840 2.00946E-04 2.86255E-06 8.27181E-25
 -1       856 1.91350E-04-1.41541E-05 0.00000E+00
 -1       857 1.91330E-04-1.50589E-05 1.29247E-26
 -1       858 1.91311E-04-1.58491E-05 2.06795E-25
 -1       859 1.91291E-04-1.65460E-05 2.06795E-25
 -1       860 1.91272E-04-1.71706E-05 4.13590E-25
 -1       861 1.91252E-04-1.77444E-05 2.06795E-25
 -1       862 1.91232E-04-1.82885E-05-4.13590E-25
 -1       863 1.91212E-04-1.88243E-05 4.13590E-25
 -1       864 1.91192E-04-1.93732E-05 0.00000E+00
 -1       865 1.91172E-04-1.99564E-05 0.00000E+00
 -1       866 1.91152E-04-2.05952E-05 0.00000E+00
 -1       867 1.91132E-04-2.13109E-05 4.13590E-25
 -1       868 1.91112E-04-2.21246E-05 0.00000E+00
 -1       869 1.91091E-04-2.30576E-05 0.00000E+00
 -1       870 1.91071E-04-2.41308E-05 0.00000E+00
 -1       871 1.92694E-04-1.31186E-05-8.27181E-25
 -1       872 1.94168E-04-1.31268E-05 0.00000E+00
 -1       873 1.95723E-04-1.31358E-05 4.13590E-25
 -1       874 1.97288E-04-1.31455E-05-3.87741E-25
 -1       875 1.98796E-04-1.31557E-05-4.13590E-25
 -1       876 1.91883E-04-1.41396E-05 3.30872E-24
 -1       877 1.92378E-04-1.50987E-05 1.65436E-24
 -1       878 1.92851E-04-1.59990E-05 0.00000E+00
 -1       879 1.93306E-04-1.68479E-05 1.65436E-24
 -1       880 1.93744E-04-1.76529E-05 0.00000E+00
 -1       881 1.94168E-04-1.84212E-05-1.65436E-24
 -1       882 1.94581E-04-1.91602E-05 0.00000E+00
 -1       883 1.94987E-04-1.98773E-05 0.00000E+00
 -1       884 1.95386E-04-2.05798E-05-3.30872E-24
 -1       885 1.95783E-04-2.12750E-05 1.65436E-24
 -1       886 1.96180E-04-2.19702E-05 0.00000E+00
 -1       887 1.96580E-04-2.26729E-05 0.00000E+00
 -1       888 1.96985E-04-2.33903E-05 0.00000E+00
 -1       889 1.97397E-04-2.41299E-05 0.00000E+00
 -1       890 1.97820E-04-2.48991E-05 1.65436E-24
 -1       891 1.92391E-04-2.54225E-05 0.00000E+00
 -1       892 1.93710E-04-2.54801E-05 0.00000E+00
 -1       893 1.94981E-04-2.55376E-05-8.27181E-25
 -1       894 1.96178E-04-2.55949E-05 4.13590E-25
 -1       895 1.97276E-04-2.56519E-05 4.13590E-25
 -1       956 2.02164E-04 1.67973E-06 3.30872E-24
 -1       957 2.02032E-04 4.70476E-07-1.65436E-24
 -1       958 2.01900E-04-6.58176E-07-3.30872E-24
 -1       959 2.01767E-04-1.71753E-06-1.65436E-24
 -1       960 2.01635E-04-2.71894E-06 0.00000E+00
 -1       961 2.01502E-04-3.67378E-06-1.65436E-24
 -1       962 2.01370E-04-4.59345E-06-3.30872E-24
 -1       963 2.01237E-04-5.48937E-06 0.00000E+00
 -1       964 2.01104E-04-6.37293E-06-3.30872E-24
 -1       965 2.00972E-04-7.25555E-06-1.65436E-24
 -1       966 2.00839E-04-8.14865E-06-3.30872E-24
 -1       967 2.00707E-04-9.06363E-06 0.00000E+00
 -1       968 2.00574E-04-1.00119E-05 0.00000E+00
 -1       969 2.00442E-04-1.10048E-05 0.00000E+00
 -1       970 2.00310E-04-1.20537E-05 0.00000E+00
 -1       971 2.00060E-04-1.42846E-05 0.00000E+00
 -1       972 1.99939E-04-1.53052E-05 0.00000E+00
 -1       973 1.99818E-04-1.62417E-05 0.00000E+00
 -1       974 1.99697E-04-1.71049E-05-1.65436E-24
 -1       975 1.99575E-04-1.79057E-05 0.00000E+00
 -1       976 1.99454E-04-1.86549E-05 1.65436E-24
 -1       977 1.99333E-04-1.93634E-05 0.00000E+00
 -1       978 1.99212E-04-2.00421E-05-1.65436E-24
 -1       979 1.99090E-04-2.07019E-05 0.00000E+00
 -1       980 1.98969E-04-2.13537E-05 1.65436E-24
 -1       981 1.98848E-04-2.20085E-05 0.00000E+00
 -1       982 1.98727E-04-2.26770E-05 0.00000E+00
 -1       983 1.98606E-04-2.33703E-05 3.30872E-24
 -1       984 1.98486E-04-2.40992E-05-1.65436E-24
 -1       985 1.98366E-04-2.48745E-05 3.30872E-24
 -3
    1PSTEP                        34          17           1          
  100CL  117 6.62325E-01         409                     0   17           1
 -4  STRESS      6    1
 -5  SXX         1    4    1    1
 -5  SYY         1    4    2    2
 -5  SZZ         1    4    3    3
 -5  SXY         1    4    1    2
 -5  SYZ         1    4    2    3
 -5  SZX         1    4    3    1
 -1         1-5.25713E+06-1.67676E+06-1.12587E+06-1.47865E+06 1.32422E-09-1.03726E-07
 -1         2 1.21695E+06 1.79229E+07 4.27784E+06 5.38312E+06 2.69210E-08 1.43693E-07
 -1         3-1.47416E+03-1.57613E+06 4.08598E+02-2.22651E+03-4.99622E-10-1.29003E-08
 -1         5-7.30882E+01 3.85593E+05 9.96145E+00-1.31746E+00-3.94593E-10 5.52245E-09
 -1         8-6.27186E+05-2.18949E+05-7.45115E+04-2.63306E+05 1.23691E-10 3.25195E-07
 -1         9 1.13613E+07 3.12153E+06 2.58786E+06-4.84135E+05-7.45058E-09-1.52458E-07
 -1        10-2.29935E+03-1.64246E+06-3.97292E+03-1.50620E+04-1.39480E-08-3.98755E-08
 -1        12-6.91723E+01 3.85614E+05 3.27321E+02-8.98950E+00-6.73843E-10 2.18206E-08
 -1        15 9.91986E+02 5.45146E+02 3.20657E+03 9.89717E-01-1.50337E-10-2.53756E-07
 -1        16 2.24572E+07-2.98798E+05 3.07039E+06-2.14100E+06 7.31476E-09 8.78548E-08
 -1        17 8.21897E+06 6.14446E+06 2.22068E+06 5.89214E+06 2.38710E-08 3.49246E-08
 -1        18 1.40426E+05 3.29921E+04 3.75493E+03-1.19134E+05 1.50892E-08 6.03222E-09
 -1        19 1.22182E+05 1.41395E+05-9.42556E+02 2.19491E+04 1.50012E-09-6.97764E-09
 -1        20-8.16077E+04-5.72669E+05-1.28488E+05 2.51849E+04-2.80867E-09 1.47702E-08
 -1        21-4.55826E+01-2.95727E+05-9.23316E+02 2.70550E+02 1.57649E-08-1.59126E-08
 -1        24 1.36940E+07 1.17920E+07 3.79831E+06 1.09256E+07-1.61720E-07-5.88285E-08
 -1        25 1.21496E+05 2.54596E+05 9.67548E+04-6.38004E+05-1.14942E-09 1.76684E-08
 -1        26-5.52687E+04 9.20945E+04-2.45898E+04 1.22367E+03-1.42609E-10 2.95657E-09
 -1        27-7.55739E+04-3.09427E+05-1.13144E+05 6.88628E+04 4.10182E-09-8.26973E-09
 -1        28 2.22264E+04-8.52400E+04 1.68806E+04 2.06317E+04-3.67899E-09 2.72132E-09
 -1        32-1.67810E+06-3.16821E+06-1.95434E+05 4.43074E+05-4.23315E-08-1.23159E-08
 -1        33-1.78201E+05 9.28100E+04 3.23292E+04-3.84653E+04-2.90784E-09-4.08666E-10
 -1        34-2.23276E+05-2.49702E+04 6.87735E+02 7.54962E+04-4.75668E-09-1.67696E-09
 -1        35-2.29119E+04-3.38046E+04-1.34664E+03 5.14483E+04-5.26813E-09-2.18279E-11
 -1        51 5.93431E+04-1.78407E+05 1.25865E+05-4.69375E+05 2.76486E-10 1.44471E-07
 -1        52 2.02406E+04-1.56626E+05 6.62954E+04-5.47358E+05 0.00000E+00 6.80302E-10
 -1        53 4.31675E+03-1.72062E+05 3.49384E+04-4.67726E+05 6.91216E-11-7.71324E-08
 -1        54 8.02083E+03-1.67874E+05 2.95417E+04-5.49004E+05 7.63976E-11-3.47560E-07
 -1        55 1.74476E+04-1.75348E+05 3.69147E+04-4.67588E+05 2.83762E-10 1.84056E-07
 -1        56-9.61156E+06-1.23985E+06-8.65183E+05-3.92470E+06-2.15368E-08-6.10307E-08
 -1        57-1.06725E+07-1.11747E+06-5.54204E+05-2.95793E+06 3.92829E-08 9.17498E-09
 -1        58-9.57384E+06-1.63931E+06-1.96720E+05-4.03389E+06 2.01544E-09 4.62533E-08
 -1        59-1.06670E+07-6.78344E+05-1.12389E+05-2.91984E+06-5.18939E-08-6.27042E-08
 -1        60-9.64714E+06-1.64710E+06-5.13323E+04-3.99154E+06-2.89219E-09-2.84923E-07
 -1        61-1.02740E+07-8.86934E+05-6.50935E+03-3.12925E+06-1.65164E-08 1.18991E-07
 -1        62-9.90286E+06-1.47309E+06-4.14705E+04-3.77589E+06-5.69707E-09-1.15437E-07
 -1        63-9.72559E+06-1.34891E+06 1.90285E+04-3.61675E+06-8.52742E-08-7.89569E-08
 -1        64-1.01493E+07-1.21774E+06-3.77773E+04-3.47370E+06 1.88302E-08 7.24904E-08
 -1        65-9.42278E+06-1.76042E+06-7.13107E+03-4.18492E+06-2.51748E-08 4.90718E-09
 -1        66-1.02633E+07-1.02173E+06-4.36429E+04-3.25045E+06-3.22325E-09 6.89706E-08
 -1        67-9.38358E+06-1.95691E+06-1.01431E+05-4.44395E+06-8.99054E-08-5.94271E-07
 -1        68-1.02444E+07-9.83279E+05-1.80047E+05-3.25082E+06-3.44107E-09-3.62488E-07
 -1        69-9.61132E+06-2.09765E+06-4.96228E+05-4.14813E+06-3.92755E-08 1.06731E-07
 -1        70-9.98687E+06-9.25687E+05-7.87669E+05-3.51028E+06 8.58927E-09 3.53903E-08
 -1        86-1.24024E+06-1.36122E+07-2.33807E+06-2.54028E+06-2.43886E-07-1.67725E-07
 -1        87 1.90656E+06 4.90649E+06 1.94570E+06 4.89925E+06-4.03998E-07-2.58879E-07
 -1        88-3.36778E+05-2.17463E+06 1.78045E+05-2.29707E+06-3.74848E-07 1.59011E-07
 -1        89 2.55702E+06 4.68886E+06 1.98981E+06 5.04637E+06-5.28693E-07 4.02488E-08
 -1        90-1.82161E+06-1.34526E+07-2.53577E+06-2.70669E+06-1.23204E-07-1.46654E-07
 -1       121-2.02036E+03-1.58100E+06-5.34716E+02 1.10375E+03 1.51093E-09 3.79805E-09
 -1       122-1.28688E+03-1.57620E+06 7.76944E+02-4.45653E+03-5.21908E-09-4.35466E-09
 -1       123-2.04100E+03-1.58113E+06 2.83570E+02 3.29621E+03 4.65764E-09-8.47649E-09
 -1       124 3.66386E+02-1.57574E+06 2.98434E+03-9.31908E+03-1.04656E-08-3.76895E-09
 -1       125-2.86044E+03-1.58204E+06 3.52417E+03 5.92115E+03 6.75936E-09 2.19625E-08
 -1       191-7.70304E+01 3.85611E+05 8.57236E+00 6.86254E-01-5.29063E-10 1.26074E-08
 -1       192-7.40486E+01 3.85593E+05 2.12525E+01-4.23247E+00-7.91261E-10-3.03953E-09
 -1       193-7.95589E+01 3.85611E+05 3.62807E+01 3.71482E+00-1.10098E-09-2.23008E-09
 -1       194-7.71278E+01 3.85596E+05 8.07806E+01-9.60678E+00-5.70058E-10-1.04965E-08
 -1       195-8.44124E+01 3.85608E+05 1.54754E+02 6.24618E+00-1.50515E-09 7.63976E-11
 -1       251-9.37994E+05 1.78111E+04-4.16553E+04-1.51943E+04 5.76904E-09-8.67385E-08
 -1       252-9.54658E+05-2.04533E+04-2.91083E+04 5.13656E+04-1.06993E-08-8.53488E-08
 -1       253-9.46247E+05 2.88650E+03-1.09848E+04-1.21835E+04 3.80862E-09 2.65291E-08
 -1       254-9.41155E+05-3.06210E+03-5.38526E+03 3.82369E+04-6.06713E-09-3.82227E-09
 -1       255-9.50745E+05 2.82881E+02-3.59371E+03-2.08753E+03 6.99538E-09 1.90527E-07
 -1       256-9.35219E+05-2.32880E+02 8.59221E+02 1.45158E+04-1.31295E-08 1.30539E-07
 -1       257-9.51868E+05-4.71292E+02-1.41753E+03 1.15478E+04 8.01720E-09 1.80214E-07
 -1       258-9.37356E+05 7.89200E+02 2.52996E+03-1.14780E+04-2.54277E-08 1.53354E-07
 -1       259-9.49011E+05-8.20678E+02 1.22617E+03 2.39183E+04 3.50155E-11 1.85751E-07
 -1       260-9.43377E+05 2.73514E+03 5.25526E+03-3.05464E+04 5.01956E-09-1.57280E-07
 -1       261-9.46324E+05-1.81586E+03 8.13461E+03 3.06423E+04 1.35830E-08 1.05142E-07
 -1       262-9.42121E+05 1.10974E+04 2.01898E+04-3.60311E+04 1.17639E-09-3.72725E-07
 -1       263-9.50316E+05-8.76825E+03 3.19029E+04 2.94299E+04-1.15238E-08 1.75714E-09
 -1       264-9.13354E+05 6.27275E+04 8.83553E+04-2.60265E+04 1.89025E-08 1.81474E-07
 -1       265-9.74746E+05-5.37440E+04 1.22844E+05 2.06098E+04 1.83411E-08 2.62371E-07
 -1       266-1.79585E+04-8.39814E+03 4.21321E+04-2.11754E+01-1.69166E-10 1.07320E-07
 -1       267 2.08186E+04 9.78704E+03 2.97802E+04 2.44340E+01-1.21872E-10-3.03304E-07
 -1       268-2.79174E+03-1.38618E+03 1.10691E+04-3.11322E+00 3.95630E-11 2.81392E-08
 -1       269 3.29621E+03 1.65889E+03 7.19480E+03 3.62654E+00-3.93811E-10-1.08808E-07
 -1       270-4.94766E+02-2.72572E+02 3.47303E+03-4.92142E-01 1.46315E-10-9.66860E-08
 -1       271-1.66713E+06-2.05511E+05-1.26489E+05-6.44956E+05 2.53340E-08 2.45978E-07
 -1       272-1.68677E+06-3.18765E+05-8.06909E+04-6.65428E+05 3.65508E-08 1.83738E-07
 -1       273-1.69379E+06-2.34636E+05-3.03803E+04-6.35778E+05-2.05782E-08 2.03550E-07
 -1       274-1.65507E+06-2.84712E+05-1.63450E+04-6.81344E+05-3.06572E-08 3.92192E-08
 -1       275-1.69994E+06-2.34969E+05-7.40748E+03-6.31576E+05-9.46238E-09-9.61909E-08
 -1       276-1.64766E+06-2.85418E+05-3.38384E+03-6.90013E+05 1.14869E-08-2.60511E-07
 -1       277-1.70294E+06-2.32425E+05-2.01493E+03-6.28515E+05-2.83762E-09-1.31449E-07
 -1       278-1.64437E+06-2.89083E+05-9.38854E+02-6.96425E+05-1.47884E-08-1.08441E-07
 -1       279-1.70487E+06-2.30228E+05-1.08110E+03-6.26317E+05-3.19196E-08-6.38206E-08
 -1       280-1.64267E+06-2.92013E+05-1.48071E+03-7.00745E+05-3.46017E-08-1.45487E-07
 -1       281-1.70588E+06-2.28722E+05-2.70755E+03-6.25034E+05 9.63792E-09 2.02316E-07
 -1       282-1.64310E+06-2.95174E+05-6.40794E+03-7.02585E+05-1.63709E-08 4.58816E-07
 -1       283-1.70510E+06-2.26815E+05-1.13080E+04-6.24854E+05 1.80802E-08-8.47831E-08
 -1       284-1.65323E+06-3.10716E+05-3.10209E+04-6.99821E+05 4.25754E-08-1.54183E-07
 -1       285-1.69588E+06-2.14610E+05-4.79907E+04-6.27257E+05-1.50185E-08-1.40008E-07
 -1       301-8.12189E+02-6.29001E+05 1.67983E+05-1.09463E+06 5.82077E-10-9.47548E-08
 -1       302-1.08610E+03-5.83685E+05 1.01313E+05-1.59852E+06-1.68147E-08-2.47279E-07
 -1       303-1.67181E+04-6.19880E+05 5.81192E+04-1.09171E+06-9.49512E-09-1.83949E-07
 -1       304-1.67510E+04-5.89223E+05 6.00303E+04-1.59782E+06 1.06520E-08 2.11614E-07
 -1       305-1.99819E+04-6.09673E+05 7.56924E+04-1.09481E+06-6.82667E-09 1.60857E-07
 -1       306-2.99152E+07-6.17458E+06-8.53321E+06-6.12712E+05-1.12457E-07 1.89641E-07
 -1       307 2.52731E+07 3.13550E+06 5.47873E+06-1.49587E+07-8.49031E-07-5.77420E-08
 -1       308-7.09884E+06-1.02009E+06-4.81690E+05 5.16498E+06-2.67377E-07 2.05458E-07
 -1       309-3.33915E+06 8.58052E+06 2.24175E+06-2.05060E+07 5.06541E-07-4.35066E-08
 -1       310-1.23555E+07-1.87468E+06-1.95845E+06 5.16259E+06 5.60540E-08-2.39277E-07
 -1       311 3.75264E+07 1.92342E+04 7.14051E+06-8.92608E+06 3.67640E-07 1.35537E-07
 -1       312-3.15900E+07-6.63511E+06-8.40293E+06-4.86835E+06-5.25033E-08 3.13943E-07
 -1       313 4.50779E+07 1.45048E+07 1.05362E+07 2.32670E+07-2.49536E-07-7.56991E-08
 -1       314-1.72912E+07-1.74548E+07-7.44889E+06-1.24415E+07 3.84636E-07-2.15543E-07
 -1       315-1.63143E+06 2.92695E+07 5.62625E+06 1.06847E+07-5.76751E-07-1.27562E-07
 -1       316 1.28677E+06-9.81946E+06-4.60725E+05-2.64857E+06-1.15077E-06-3.47645E-07
 -1       317-1.71580E+07 2.22271E+07 2.19941E+06-8.54307E+06 7.49344E-07-6.12694E-07
 -1       318-1.06871E+06-1.25679E+07-1.97930E+06-4.25723E+06-8.80071E-07 2.03960E-07
 -1       319 6.97264E+06 3.13666E+07 6.91014E+06 1.63382E+07-1.10398E-07 2.54688E-07
 -1       320-2.23709E+07-1.73758E+07-9.71133E+06-1.26633E+07 1.97790E-07-4.52856E-08
 -1       336-7.03588E+02-1.71149E+06-1.39370E+04 8.97396E+03-2.57223E-08-1.01354E-08
 -1       337-5.42624E+03-1.71114E+06-1.81887E+04-2.17811E+04-4.84379E-08 1.97906E-09
 -1       338 3.13520E+02-1.71098E+06-2.86001E+04 1.25603E+04-3.42079E-08-6.27551E-09
 -1       339-3.03455E+04-1.72845E+06-6.46667E+04-2.88016E+04-6.31680E-08 1.40226E-08
 -1       340 2.00336E+04-1.69636E+06-1.01838E+05 1.58645E+04-4.29391E-08 2.07947E-08
 -1       406-4.74218E+01 3.85594E+05 6.42795E+02 3.27349E+00-1.95574E-09 1.01591E-08
 -1       407 1.56522E+02 3.85727E+05 1.37347E+03 2.30953E+01-4.57021E-10-1.52613E-09
 -1       408 6.35565E+02 3.85494E+05 2.73872E+03-2.67015E+01-2.37969E-09-8.84029E-09
 -1       409 2.90217E+03 3.86602E+05 6.17261E+03 2.84801E+02-4.98289E-10 6.81757E-09
 -1       410 8.46216E+03 3.84705E+05 1.25981E+04-2.74594E+02-3.08864E-09-1.93540E-09
 -1       521-3.14109E+07-7.60066E+06-9.94369E+06-2.30069E+05-1.00816E-07-7.53207E-08
 -1       522 2.60704E+07 4.10071E+06 5.57092E+06-1.83981E+07-5.42816E-07-4.06289E-08
 -1       523-7.69180E+06-1.32501E+06-4.74692E+05 5.60340E+06 5.56465E-08-1.20781E-07
 -1       524-6.80913E+06 1.15470E+07 2.41846E+06-2.35221E+07 9.33069E-07-3.90864E-07
 -1       525-1.31602E+07-2.48331E+06-2.14743E+06 5.59962E+06 5.42786E-07-1.55211E-07
 -1       526 4.08336E+07-6.31184E+04 7.47992E+06-1.15495E+07 2.72878E-07 2.64961E-07
 -1       527-3.33733E+07-8.29305E+06-9.66223E+06-4.72575E+06 1.01165E-07-1.52184E-07
 -1       528 4.91285E+07 1.60848E+07 1.09672E+07 2.63800E+07 2.84053E-08-4.41214E-08
 -1       529-1.82251E+07-1.95947E+07-8.52089E+06-1.24703E+07-1.59780E-07 4.83124E-08
 -1       530-4.09306E+06 3.39218E+07 5.94012E+06 1.02069E+07-4.01589E-07 8.05594E-07
 -1       531 1.27051E+06-1.08892E+07-4.36674E+05-2.62588E+06-7.66420E-07 4.21540E-07
 -1       532-1.97311E+07 2.42340E+07 2.39719E+06-1.27120E+07 3.58879E-07-6.74336E-07
 -1       533-1.11765E+06-1.36941E+07-2.09903E+06-4.09624E+06-2.86906E-07-1.01788E-06
 -1       534 4.94367E+06 3.63080E+07 7.17521E+06 1.68693E+07 1.73750E-08 7.32543E-07
 -1       535-2.35133E+07-1.96947E+07-1.11055E+07-1.27200E+07 1.05938E-07 4.69619E-07
 -1       536-7.03178E+05-4.68728E+04-4.63421E+04-5.42746E+04-8.27185E-10 3.33876E-08
 -1       537-5.77507E+04 4.49194E+04 8.40615E+04 1.23067E+05-1.08462E-07 7.14695E-08
 -1       538-3.94293E+05 3.22544E+03 3.87170E+03-7.18103E+04 2.27337E-08 1.24610E-07
 -1       539-2.70111E+05 2.91012E+03 2.48824E+04 1.37935E+05 1.62890E-07 8.86108E-08
 -1       540-4.96144E+05-4.23108E+02-2.10153E+04-6.96689E+04 6.16865E-09 1.00154E-07
 -1       541 1.41604E+05 1.68152E+04 1.05409E+05 9.72538E+04-9.55538E-09 8.54361E-08
 -1       542-7.94915E+05-1.99486E+04-8.34142E+04-3.02671E+04 3.17045E-08 3.66935E-08
 -1       543 3.97807E+05 2.70686E+04 1.56460E+05-1.32973E+04-3.47145E-08-1.07630E-08
 -1       544-7.45476E+05-1.63742E+04-7.41087E+04 4.02223E+04 1.42004E-08-2.79287E-08
 -1       545 2.49204E+04 9.37485E+03 7.90021E+04-1.12912E+05 8.84961E-09-7.81240E-08
 -1       546-4.32042E+05 6.05292E+03-1.21198E+04 6.90064E+04 1.27120E-08-7.65056E-08
 -1       547-2.88085E+05-4.66199E+03 1.04028E+04-1.40776E+05-1.32405E-07-1.11819E-07
 -1       548-4.40884E+05 4.70608E+03-2.37616E+04 6.87679E+04-1.09008E-07-1.10459E-07
 -1       549 4.40496E+04 1.57106E+04 5.96624E+04-1.10752E+05-5.95414E-08-7.38655E-08
 -1       550-7.55289E+05-2.17552E+04-1.28155E+05 3.82760E+04 8.30460E-09-5.59758E-08
 -1       551 4.06726E+04-7.56907E+05-1.50813E+04-1.24625E+06-1.03988E-07 1.20490E-08
 -1       552 9.28665E+04-8.01513E+05 1.04216E+04-1.77706E+06-7.41857E-08 3.39860E-08
 -1       553 7.13939E+04-7.98035E+05 3.24283E+04-1.23963E+06-1.18482E-07 2.73430E-08
 -1       554 1.31544E+05-8.17127E+05 8.16011E+04-1.77901E+06-7.41275E-08 1.28530E-08
 -1       555 1.01161E+05-8.21619E+05 1.48901E+05-1.23948E+06-1.21996E-07-1.42318E-08
 -1       556 2.22380E+05-3.81655E+05 2.72014E+04-4.06001E+05-1.97906E-08-1.37370E-08
 -1       557 3.52646E+05-4.85703E+05 1.68742E+04-5.25780E+05-1.16415E-09-2.02908E-08
 -1       558 2.04401E+05-3.74796E+05 2.67464E+03-4.10182E+05-1.12050E-08-5.84259E-09
 -1       559 3.27664E+05-4.86000E+05 2.60122E+03-5.46061E+05 2.68337E-08 4.01269E-09
 -1       560 1.89241E+05-3.65287E+05-1.40410E+03-4.21101E+05 1.01863E-08-3.45608E-09
 -1       561 3.08595E+05-4.78380E+05 1.70960E+02-5.59055E+05 6.86850E-09 1.38534E-08
 -1       562 1.77252E+05-3.57836E+05-1.29194E+03-4.29781E+05-2.95404E-09 1.25656E-08
 -1       563 2.94356E+05-4.72173E+05-2.58605E+01-5.68353E+05-3.20142E-09 3.78350E-09
 -1       564 1.68701E+05-3.52507E+05-5.88070E+02-4.35840E+05 1.30385E-08 9.81345E-10
 -1       565 2.84920E+05-4.68063E+05 2.67831E+01-5.74381E+05 1.93832E-08 3.00588E-09
 -1       566 1.63709E+05-3.49349E+05-2.55365E+02-4.39332E+05 2.19734E-09-5.40786E-09
 -1       567 2.80345E+05-4.66073E+05-3.59071E+02-5.77159E+05 2.04673E-08 1.99871E-08
 -1       568 1.62366E+05-3.48527E+05-1.11722E+03-4.40367E+05 2.70757E-09 2.24136E-08
 -1       569 2.79248E+05-4.66004E+05-2.82198E+03-5.75719E+05-1.12886E-08 2.52330E-08
 -1       570 1.65762E+05-3.51752E+05-6.17123E+03-4.39351E+05 8.79663E-09 2.23490E-08
 -1       571 2.89950E+05 1.04881E+04 1.49687E+04-9.48387E+04 3.22598E-09 1.07020E-08
 -1       572 2.92120E+05 3.94996E+03 7.33586E+03-1.04048E+05 4.37103E-09-6.93672E-09
 -1       573 2.90812E+05 1.23964E+03 3.25956E+03-9.46625E+04 1.50067E-10-1.33778E-08
 -1       574 2.91026E+05 7.21359E+02 1.63463E+03-1.04271E+05-1.81467E-09-1.56979E-08
 -1       575 2.90906E+05 4.43026E+02 7.71496E+02-9.46384E+04-3.77339E-09 2.12422E-08
 -1       576 2.90890E+05 4.53931E+02 3.94992E+02-1.04301E+05-4.97221E-09 2.92721E-08
 -1       577 2.90945E+05 3.85132E+02 1.97180E+02-9.46351E+04-2.20734E-09 1.86801E-08
 -1       578 2.90920E+05 4.16129E+02 1.13890E+02-1.04305E+05-5.17321E-09-7.64794E-09
 -1       579 2.91017E+05 3.48778E+02 7.82250E+01-9.46348E+04 6.86305E-09 7.75526E-09
 -1       580 2.91021E+05 3.65536E+02 9.07619E+01-1.04300E+05-5.85442E-09 5.85078E-09
 -1       581 2.91130E+05 2.90713E+02 1.37120E+02-9.46407E+04 8.14725E-09-9.47784E-09
 -1       582 2.91195E+05 3.28705E+02 2.78743E+02-1.04239E+05 6.46014E-09-2.11639E-09
 -1       583 2.91269E+05 3.33576E+02 5.35082E+02-9.46970E+04 1.76078E-09 1.75576E-08
 -1       584 2.91569E+05 7.70418E+02 1.21076E+03-1.03764E+05 6.12818E-09 6.12590E-09
 -1       585 2.91294E+05 1.78996E+03 2.45185E+03-9.51145E+04-4.74756E-10-2.20462E-09
 -1       586-3.41722E+03 1.16477E+05-2.92387E+03-2.50290E+05-4.64661E-09 1.16643E-09
 -1       587-1.32966E+03 1.16226E+05 7.63052E+02-2.75463E+05-7.03585E-09 5.80155E-09
 -1       588 4.05494E+02 1.16035E+05 4.74605E+03-2.50152E+05-4.31828E-09-3.24417E-09
 -1       589 5.08305E+03 1.18502E+05 1.23156E+04-2.75229E+05-6.81939E-09-1.93941E-08
 -1       590 1.65812E+04 1.14705E+05 2.58368E+04-2.50583E+05-8.35644E-09 8.95125E-09
 -1       591-7.47301E+04-1.59413E+04-2.24704E+04-3.18775E+04-1.49907E-09-1.24064E-08
 -1       592-7.88005E+04-1.94979E+04-1.21717E+04-3.55027E+04 1.12776E-08 8.99729E-09
 -1       593-7.69775E+04-1.43108E+04-5.06649E+03-3.35251E+04 8.17785E-09 1.16352E-08
 -1       594-7.56979E+04-1.62007E+04-2.52679E+03-3.56203E+04 2.63182E-09-8.78072E-09
 -1       595-7.71488E+04-1.43054E+04-1.16006E+03-3.35999E+04-3.26173E-09 3.14897E-09
 -1       596-7.54855E+04-1.60500E+04-5.89514E+02-3.55950E+04 1.31408E-09 3.81334E-10
 -1       597-7.71703E+04-1.43207E+04-3.20576E+02-3.36028E+04 2.28357E-09-4.03361E-09
 -1       598-7.54645E+04-1.60440E+04-2.56915E+02-3.55879E+04-7.70410E-09 4.22961E-09
 -1       599-7.71690E+04-1.43213E+04-3.27193E+02-3.36024E+04 1.36338E-08-5.98857E-09
 -1       600-7.54855E+04-1.60505E+04-6.07029E+02-3.55929E+04 2.24640E-08-1.41340E-08
 -1       601-7.71444E+04-1.43068E+04-1.19713E+03-3.35989E+04 3.40151E-09-5.35010E-10
 -1       602-7.57047E+04-1.62050E+04-2.60880E+03-3.56151E+04-2.14106E-09-1.48816E-08
 -1       603-7.69648E+04-1.43152E+04-5.23161E+03-3.35225E+04 3.51429E-09 1.03682E-08
 -1       604-7.89259E+04-1.95900E+04-1.25675E+04-3.54689E+04 6.16598E-09-9.77525E-09
 -1       605-7.46244E+04-1.60166E+04-2.32012E+04-3.18407E+04 1.29376E-09 1.39325E-08
 -1       606 2.67249E+04-1.42985E+04-2.56328E+04 2.40356E+04 3.55249E-09-1.02507E-08
 -1       607 2.23451E+04-4.66957E+03-1.27650E+04 2.70105E+04-1.75805E-09 5.94969E-09
 -1       608 2.48411E+04-8.42113E+02-5.71450E+03 2.38663E+04-1.35769E-08-1.12693E-08
 -1       609 2.43626E+04-2.88136E+02-2.88681E+03 2.72250E+04-1.87729E-08-8.52879E-10
 -1       610 2.46279E+04-4.04620E+01-1.37734E+03 2.38461E+04-4.62296E-09-1.73031E-09
 -1       611 2.45526E+04-4.05962E+01-6.94443E+02 2.72481E+04 1.09840E-08-1.19280E-09
 -1       612 2.45807E+04-2.67083E+01-3.30133E+02 2.38441E+04 2.61298E-09-4.08409E-09
 -1       613 2.45641E+04-3.64457E+01-1.47917E+02 2.72509E+04 4.06544E-09 6.95763E-10
 -1       614 2.45585E+04-3.30542E+01-3.46369E+01 2.38434E+04 1.88174E-09 3.93811E-10
 -1       615 2.45587E+04-3.49065E+01 6.21217E+01 2.72513E+04-3.64071E-09 1.31640E-08
 -1       616 2.45411E+04-2.98931E+01 1.86165E+02 2.38437E+04-2.60161E-09 3.75053E-09
 -1       617 2.45810E+04 4.80482E+00 4.24702E+02 2.72508E+04-8.66294E-11-1.07184E-08
 -1       618 2.45042E+04 9.25704E+01 8.56037E+02 2.38440E+04 2.61934E-10 5.20049E-09
 -1       619 2.48832E+04 6.66718E+02 1.92229E+03 2.72502E+04-1.44121E-09-2.60184E-09
 -1       620 2.42198E+04 2.12248E+03 3.86374E+03 2.38455E+04-6.23913E-10 1.68257E-09
 -1       621 5.07871E+02 3.00844E+05 3.87166E+03 4.07537E+04 1.14460E-09 5.43241E-09
 -1       622 6.72350E+02 3.01738E+05 3.43710E+03 5.91664E+04 1.27056E-09 9.67248E-10
 -1       623 1.40652E+02 3.01038E+05 4.13173E+03 4.05693E+04 1.14301E-09 5.76529E-09
 -1       624 2.11856E+03 3.02954E+05 8.01096E+03 5.93480E+04 1.13891E-09-5.53405E-09
 -1       625 2.07072E+03 2.99449E+05 1.39994E+04 4.05661E+04 1.47293E-09 1.18071E-08
 -1       626 2.60404E+05 6.13659E+04 5.11689E+03 1.26592E+05 7.87168E-10 3.27782E-09
 -1       627 2.58083E+05 6.27659E+04 2.46579E+03 1.30866E+05-1.56570E-09-1.26995E-08
 -1       628 2.60532E+05 5.90244E+04 1.04284E+03 1.27461E+05-1.89248E-08-2.24920E-08
 -1       629 2.57448E+05 6.20868E+04 5.10419E+02 1.31106E+05-1.87183E-08 4.82276E-08
 -1       630 2.60546E+05 5.89113E+04 2.36862E+02 1.27498E+05-2.73421E-08-1.52779E-08
 -1       631 2.57381E+05 6.20610E+04 1.27584E+02 1.31108E+05 2.92584E-09 1.97235E-08
 -1       632 2.60542E+05 5.89153E+04 8.41659E+01 1.27493E+05 6.35237E-09-5.44151E-09
 -1       633 2.57373E+05 6.20628E+04 9.40849E+01 1.31105E+05 6.89101E-09 1.06115E-09
 -1       634 2.60538E+05 5.89125E+04 1.52331E+02 1.27493E+05-4.52582E-09 4.51928E-09
 -1       635 2.57387E+05 6.20611E+04 3.08416E+02 1.31110E+05-5.30059E-09-8.79845E-09
 -1       636 2.60529E+05 5.89067E+04 6.22938E+02 1.27493E+05 9.62723E-09-5.27416E-09
 -1       637 2.57522E+05 6.21580E+04 1.36974E+03 1.31109E+05 1.91155E-08-1.18507E-09
 -1       638 2.60480E+05 5.92092E+04 2.81431E+03 1.27356E+05 2.01180E-08 1.81490E-08
 -1       639 2.59000E+05 6.42141E+04 6.65880E+03 1.30674E+05 1.01954E-08 1.56306E-08
 -1       640 2.60276E+05 6.53489E+04 1.38182E+04 1.24769E+05 7.31006E-09 7.14681E-09
 -1       656 6.64818E+04-1.70132E+06-1.60483E+05-2.52791E+03 6.54836E-11-6.85134E-10
 -1       657-8.79492E+04-1.77384E+06-1.32950E+05 5.20203E+03 9.97716E-10-4.12209E-08
 -1       658 2.11917E+04-1.72192E+06-8.18791E+04-4.60793E+03 2.69893E-10-1.36642E-08
 -1       659-9.51006E+04-1.77724E+06-1.42348E+05 6.92773E+03-1.26602E-09-1.77869E-08
 -1       660 7.36173E+04-1.69794E+06-1.76640E+05-4.25360E+03-1.92085E-09-1.17759E-08
 -1       661 1.58804E+05 1.66238E+04 1.67284E+04 6.20806E+04 3.28328E-10 9.50149E-09
 -1       662 1.68257E+05 2.90169E+04 1.12738E+04 5.83329E+04 1.99077E-09-3.00565E-09
 -1       663 1.62090E+05 2.19906E+04 3.94286E+03 6.11270E+04 1.06638E-10-7.17591E-10
 -1       664 1.64447E+05 2.27409E+04 2.35864E+03 5.94978E+04 1.99816E-09-2.32815E-08
 -1       665 1.62589E+05 2.27236E+04 9.30467E+02 6.09815E+04 1.64295E-09-3.01935E-09
 -1       666 1.63858E+05 2.19027E+04 5.44640E+02 5.96875E+04 3.07583E-09 1.22201E-08
 -1       667 1.62676E+05 2.28069E+04 2.89463E+02 6.09451E+04-2.89674E-09 9.67777E-09
 -1       668 1.63761E+05 2.18428E+04 2.95350E+02 5.97405E+04-4.16757E-09-3.06105E-08
 -1       669 1.62684E+05 2.27818E+04 4.00194E+02 6.09288E+04-2.89012E-09-2.47988E-09
 -1       670 1.63859E+05 2.20602E+04 8.71741E+02 5.97435E+04-1.15700E-08 1.03962E-08
 -1       671 1.62579E+05 2.25941E+04 1.54795E+03 6.09401E+04-8.21622E-10 6.01699E-09
 -1       672 1.64761E+05 2.35661E+04 3.96047E+03 5.95249E+04 7.05290E-09 1.41131E-08
 -1       673 1.61786E+05 2.13139E+04 6.63714E+03 6.11328E+04 2.31080E-09 6.64568E-09
 -1       674 1.71077E+05 3.42294E+04 1.89808E+04 5.76691E+04-3.77077E-09-4.49472E-09
 -1       675 1.56302E+05 1.22294E+04 2.81742E+04 6.26839E+04-2.37787E-09 7.05768E-10
 -1       676 2.40940E+01-2.95650E+05-1.11284E+03-1.35279E+02 3.82357E-10-2.34582E-08
 -1       677-2.94408E+02-2.95919E+05-2.03669E+03 2.70341E+02 7.80162E-09-3.19062E-08
 -1       678 1.97436E+02-2.95458E+05-3.60036E+03-1.34973E+02 7.85121E-10-1.79287E-08
 -1       679-3.60045E+03-2.98092E+05-8.55296E+03 2.69175E+02 7.73321E-09-3.48429E-08
 -1       680 2.14965E+03-2.93477E+05-1.37844E+04-1.32621E+02 7.38510E-10-2.37372E-09
 -1       771-3.06098E+06-7.44932E+05-1.63974E+05-1.46379E+06-3.60887E-08-2.45054E-08
 -1       772-2.98425E+06-8.33266E+05-8.45406E+04-1.56591E+06-2.98169E-08 1.86192E-08
 -1       773-3.09216E+06-7.20613E+05-4.30936E+04-1.47811E+06-2.16824E-08 1.09867E-08
 -1       774-2.97479E+06-8.14999E+05-1.92266E+04-1.59143E+06 2.20753E-08-1.45155E-09
 -1       775-3.10843E+06-7.09188E+05-1.43795E+04-1.48506E+06-2.76486E-09 4.94765E-10
 -1       776-2.98697E+06-8.12022E+05-5.37762E+03-1.61072E+06 2.67755E-09 4.20550E-09
 -1       777-3.12255E+06-6.98995E+05-6.35244E+03-1.49119E+06 5.23869E-09 2.80852E-09
 -1       778-2.99969E+06-8.09253E+05-1.79603E+03-1.62730E+06-4.30737E-09 6.99947E-09
 -1       779-3.13469E+06-6.90090E+05-3.17426E+03-1.49643E+06-1.37370E-08-1.13068E-08
 -1       780-3.01090E+06-8.06609E+05-5.26548E+02-1.64081E+06-1.43336E-09 8.87667E-10
 -1       781-3.14433E+06-6.82912E+05-1.23346E+03-1.50053E+06-2.52621E-08 2.41562E-09
 -1       782-3.01953E+06-8.04364E+05 4.43476E+02-1.65077E+06-3.56013E-08-2.84399E-09
 -1       783-3.15113E+06-6.77926E+05 6.89861E+02-1.50341E+06-6.49015E-09-1.52741E-08
 -1       784-3.02431E+06-8.02116E+05 2.86299E+03-1.65693E+06-2.17260E-08 8.56289E-10
 -1       785-3.15514E+06-6.74953E+05 5.05362E+03-1.50523E+06-3.90537E-08 8.98217E-09
 -1       786 1.23967E+05-9.77220E+03 2.26089E+04-3.20231E+02 2.18301E-09 1.19962E-08
 -1       787 1.33772E+05 1.13140E+04 1.59949E+04-1.33775E+02 6.59043E-09-1.84075E-08
 -1       788 1.27747E+05-1.53134E+03 5.84943E+03-2.85177E+02 2.73110E-09-6.16569E-09
 -1       789 1.29368E+05 1.77247E+03 3.67208E+03-1.87512E+02 5.75278E-10 7.11725E-09
 -1       790 1.28372E+05-2.38434E+02 1.48682E+03-2.66511E+02-4.29680E-09-1.03345E-08
 -1       791 1.28638E+05 2.75870E+02 8.58860E+02-2.19453E+02-8.46177E-09 1.41848E-08
 -1       792 1.28478E+05-3.58565E+01 3.64166E+02-2.53238E+02-5.45880E-09-2.09911E-09
 -1       793 1.28512E+05 3.79767E+01 1.82017E+02-2.44421E+02-1.95301E-09 2.07948E-09
 -1       794 1.28498E+05-6.91134E-01 4.82523E+01-2.41544E+02 5.69603E-09 3.66936E-09
 -1       795 1.28475E+05-2.66859E+01-5.53209E+01-2.68820E+02-4.00264E-09 2.24445E-08
 -1       796 1.28514E+05 2.87699E+01-1.58542E+02-2.28838E+02 3.59943E-09 1.47509E-09
 -1       797 1.28382E+05-2.14900E+02-4.36390E+02-2.98002E+02 3.18257E-09 2.44663E-08
 -1       798 1.28591E+05 1.87382E+02-7.09019E+02-2.12362E+02 2.23142E-09 6.31411E-09
 -1       799 1.27844E+05-1.38118E+03-1.95088E+03-3.38784E+02 7.36700E-09 1.78602E-08
 -1       800 1.29052E+05 1.19410E+03-2.76098E+03-1.88057E+02 7.63050E-10 2.16180E-08
 -1       801-1.66367E+05-9.90896E+06-1.37852E+06 1.39353E+06 9.11532E-08-6.37592E-08
 -1       802 7.24353E+05 5.80971E+06 2.14639E+06-1.71785E+06 2.57780E-07-2.96805E-08
 -1       803-5.28523E+05-1.41053E+07-1.86282E+06 8.84780E+05 7.61866E-08 2.26355E-08
 -1       804 2.81833E+05 2.29920E+06 1.51227E+06 6.69924E+05-1.18958E-07-9.71013E-08
 -1       805 1.87512E+05-6.41270E+06-2.81846E+05-9.88646E+05-4.93819E-08-6.58965E-08
 -1       806-3.08380E+05-5.96467E+04-2.28118E+04-1.22188E+05-1.44919E-08-5.92581E-09
 -1       807-3.10177E+05-5.59214E+04-1.12072E+04-1.27722E+05 5.60476E-10-1.71874E-08
 -1       808-3.09006E+05-5.14257E+04-4.75446E+03-1.26075E+05-7.56563E-09 1.67814E-08
 -1       809-3.07820E+05-5.27723E+04-2.32481E+03-1.27997E+05-1.22118E-08 1.64803E-08
 -1       810-3.09101E+05-5.11395E+04-1.06559E+03-1.26247E+05 8.05585E-09 2.25757E-08
 -1       811-3.07638E+05-5.26458E+04-5.29936E+02-1.27961E+05 2.16824E-09-2.05446E-08
 -1       812-3.09115E+05-5.11641E+04-2.68091E+02-1.26246E+05 2.91038E-11-1.02141E-08
 -1       813-3.07613E+05-5.26480E+04-1.74356E+02-1.27943E+05-6.10089E-09-6.85122E-09
 -1       814-3.09108E+05-5.11738E+04-1.72987E+02-1.26242E+05 2.67482E-09 1.21522E-08
 -1       815-3.07616E+05-5.26502E+04-2.78891E+02-1.27935E+05 5.17548E-09 1.53977E-08
 -1       816-3.09087E+05-5.11729E+04-5.28703E+02-1.26238E+05 9.87620E-09 2.43663E-08
 -1       817-3.07706E+05-5.27006E+04-1.13471E+03-1.27924E+05-1.33814E-08 3.37250E-08
 -1       818-3.09018E+05-5.13331E+04-2.31443E+03-1.26163E+05-8.82210E-10-3.49473E-09
 -1       819-3.08973E+05-5.40988E+04-5.44569E+03-1.27624E+05 4.78258E-09-3.65367E-09
 -1       820-3.08581E+05-5.54469E+04-1.10840E+04-1.24406E+05 2.28738E-09 3.48678E-09
 -1       821-3.78559E+05 2.08473E+04-4.85170E+04 2.09632E+03 1.39880E-08-8.48013E-09
 -1       822-3.98290E+05-2.41498E+04-3.41059E+04-4.38822E+03 4.72147E-09-1.59707E-09
 -1       823-3.86038E+05 3.28569E+03-1.25326E+04 3.37696E+03-1.19909E-08 4.55248E-09
 -1       824-3.89272E+05-3.78936E+03-7.84602E+03-5.27257E+03 3.25979E-11 9.54878E-09
 -1       825-3.87585E+05 5.10613E+02-3.28395E+03 2.98079E+03 2.05710E-08-2.42358E-09
 -1       826-3.86870E+05-5.67840E+02-1.74876E+03-3.03261E+03 2.64282E-08-6.85418E-09
 -1       827-3.88416E+05 4.82378E+01-1.18289E+03 1.13686E+03 1.08958E-08-3.05161E-09
 -1       828-3.86185E+05-1.33741E+02-5.96146E+02 1.08601E+03-8.61320E-10-4.90981E-09
 -1       829-3.88257E+05 6.68814E+01-1.17253E+03-1.13787E+03 2.94239E-09-4.42901E-09
 -1       830-3.87212E+05-6.21654E+02-1.88541E+03 4.80226E+03 1.67444E-09-8.90421E-09
 -1       831-3.87410E+05 5.53188E+02-3.36652E+03-2.57940E+03-7.08538E-09 7.27323E-09
 -1       832-3.89352E+05-3.95530E+03-8.14872E+03 6.05496E+03-2.61844E-09 9.22751E-09
 -1       833-3.86133E+05 3.40962E+03-1.30358E+04-2.39062E+03-2.20192E-09 4.82396E-09
 -1       834-3.98359E+05-2.50633E+04-3.53303E+04 4.11575E+03-3.18202E-09-2.33558E-09
 -1       835-3.78387E+05 2.16289E+04-5.03865E+04-6.40115E+02 5.48883E-09-1.23218E-08
 -1       836-1.41060E+03 3.69520E+05 2.28621E+04-1.61648E+04-6.83485E-09-3.75849E-09
 -1       837 4.87458E+03 3.76680E+05 1.93441E+04-3.30254E+04-7.34002E-09 5.66797E-09
 -1       838-5.56512E+02 3.71528E+05 1.97070E+04-1.60933E+04-6.15273E-09 2.32005E-08
 -1       839 1.24024E+04 3.82286E+05 3.72776E+04-3.30777E+04-6.64113E-09 1.67829E-08
 -1       840-3.83377E+03 3.63854E+05 5.94431E+04-1.61182E+04-6.09725E-09-2.13721E-09
 -1       856-5.25196E+04 8.02707E+03-2.11531E+04-3.97937E+02 6.23345E-09-8.27731E-09
 -1       857-6.12344E+04-9.43134E+03-1.45616E+04 5.62861E+03 4.25212E-09-2.35161E-08
 -1       858-5.59708E+04 1.12570E+03-5.48872E+03-4.22052E+02 3.11042E-09-1.04319E-09
 -1       859-5.72738E+04-1.32416E+03-3.31220E+03 5.66451E+03 3.50298E-11 3.16379E-08
 -1       860-5.64864E+04 1.57640E+02-1.38817E+03-4.33573E+02 1.55873E-09 2.40649E-08
 -1       861-5.66807E+04-1.88009E+02-7.63707E+02 5.68020E+03 5.04131E-09-5.09317E-10
 -1       862-5.65670E+04 2.13473E+01-3.17557E+02-4.37725E+02-9.84329E-10-1.34993E-08
 -1       863-5.65819E+04-2.17023E+01-1.15892E+02 5.68261E+03-4.54114E-09-6.70702E-09
 -1       864-5.65857E+04-4.88431E+00 4.67320E+01-4.35979E+02-3.13881E-09-1.69352E-08
 -1       865-5.65262E+04 5.95798E+01 2.54246E+02 5.67265E+03-1.53840E-09-1.80239E-08
 -1       866-5.66205E+04-5.99568E+01 5.12627E+02-4.27768E+02-1.68274E-09-2.41010E-09
 -1       867-5.62850E+04 4.95156E+02 1.26195E+03 5.65036E+03 1.81905E-09 1.68598E-08
 -1       868-5.68220E+04-4.32608E+02 2.09701E+03-4.13686E+02 1.10219E-09-6.55155E-09
 -1       869-5.47476E+04 3.60042E+03 5.58371E+03 5.61367E+03 9.01082E-09-1.66110E-08
 -1       870-5.81502E+04-3.08090E+03 8.10319E+03-3.90973E+02-5.00052E-09-6.35009E-09
 -1       871-5.51382E+03-2.12327E+04-1.94557E+04 1.30179E+05-6.11908E-09-5.01677E-09
 -1       872-1.98534E+03-2.57551E+04-8.14518E+03 1.68796E+05-1.14023E-08 2.37269E-08
 -1       873 3.99454E+02-2.35686E+04 5.92236E+02 1.29893E+05-4.66389E-09 1.59531E-08
 -1       874 3.29552E+03-2.11588E+04 9.77000E+03 1.68826E+05-1.21436E-08 9.16089E-10
 -1       875 6.83370E+03-2.58960E+04 2.20376E+04 1.30131E+05-4.45289E-09-1.61044E-08
 -1       876 2.93380E+05 4.94530E+04 1.50829E+04 1.17742E+05 7.70365E-09-1.15269E-08
 -1       877 2.94377E+05 5.26302E+04 8.05484E+03 1.22069E+05 1.03100E-08-9.49399E-10
 -1       878 2.94791E+05 4.77822E+04 3.37458E+03 1.18977E+05-9.56061E-09 1.46474E-09
 -1       879 2.92326E+05 5.05841E+04 1.68143E+03 1.22171E+05-1.73645E-09 1.43441E-08
 -1       880 2.94892E+05 4.77649E+04 7.83187E+02 1.19028E+05-4.67890E-09 1.16709E-08
 -1       881 2.92190E+05 5.04966E+04 4.18252E+02 1.22147E+05-8.22342E-09-1.96084E-09
 -1       882 2.94901E+05 4.77782E+04 2.67602E+02 1.19029E+05-1.29467E-09 2.32304E-08
 -1       883 2.92181E+05 5.04920E+04 2.87732E+02 1.22140E+05-6.40512E-09 1.26522E-08
 -1       884 2.94894E+05 4.77754E+04 4.57757E+02 1.19030E+05-3.22234E-09 6.06673E-09
 -1       885 2.92217E+05 5.04984E+04 9.20371E+02 1.22151E+05-1.70246E-09 1.81819E-09
 -1       886 2.94858E+05 4.77485E+04 1.85498E+03 1.19026E+05-3.52728E-09 2.26564E-08
 -1       887 2.92543E+05 5.07121E+04 4.05195E+03 1.22198E+05 7.35417E-09 1.77266E-08
 -1       888 2.94602E+05 4.77937E+04 8.16479E+03 1.18896E+05 3.66313E-10 9.78162E-10
 -1       889 2.97404E+05 5.57671E+04 1.95042E+04 1.22049E+05-1.54537E-09-1.01882E-08
 -1       890 2.91270E+05 5.17522E+04 3.65308E+04 1.15789E+05-3.75894E-09-1.18107E-08
 -1       891-9.01524E+01-1.62582E+05-1.99392E+03 2.71439E+04-2.65709E-09 2.16173E-08
 -1       892-1.76534E+02-1.63108E+05-2.14152E+03 4.12179E+04 1.87470E-09 2.11576E-08
 -1       893 4.27270E+01-1.62646E+05-3.03216E+03 2.71513E+04-2.79783E-09-2.30193E-09
 -1       894-1.50960E+03-1.64254E+05-6.27543E+03 4.10655E+04 1.53454E-09-1.13369E-08
 -1       895-1.19872E+03-1.61339E+05-1.10510E+04 2.72982E+04 1.99339E-09-1.80580E-08
 -1       956-3.76673E+05-5.43996E+03-1.34325E+04 3.07631E+04 6.68115E-09 5.78711E-09
 -1       957-3.79309E+05-1.91783E+03-6.89468E+03 3.69702E+04-4.28599E-09-1.19298E-08
 -1       958-3.77880E+05-2.39122E+02-3.10696E+03 3.05957E+04-9.15043E-09-4.09136E-09
 -1       959-3.78077E+05-1.34363E+02-1.58647E+03 3.71653E+04 5.39694E-09 1.03237E-08
 -1       960-3.77998E+05-4.33659E+01-7.73637E+02 3.05785E+04 2.21371E-09 5.95583E-09
 -1       961-3.77997E+05-6.14881E+01-4.10178E+02 3.71856E+04 3.19665E-09 3.82443E-10
 -1       962-3.78026E+05-4.46227E+01-2.34842E+02 3.05756E+04-9.39963E-10 3.72756E-09
 -1       963-3.77997E+05-5.73226E+01-1.88530E+02 3.71893E+04 8.05016E-10-1.36554E-08
 -1       964-3.78031E+05-4.12784E+01-2.29277E+02 3.05749E+04-2.54694E-09-9.89326E-09
 -1       965-3.78009E+05-5.43581E+01-3.96564E+02 3.71886E+04-9.68168E-09-7.37805E-09
 -1       966-3.78015E+05-3.34268E+01-7.45134E+02 3.05764E+04 4.16003E-09-1.16740E-08
 -1       967-3.78099E+05-1.17777E+02-1.52826E+03 3.71743E+04 1.51090E-09-5.55337E-09
 -1       968-3.77911E+05-2.15617E+02-2.99178E+03 3.05890E+04 1.53341E-09-5.17747E-09
 -1       969-3.79298E+05-1.83021E+03-6.64168E+03 3.70263E+04-1.08594E-09-6.84616E-09
 -1       970-3.76757E+05-5.22164E+03-1.29384E+04 3.07159E+04-2.91311E-09 6.27551E-10
 -1       971-3.44968E+05-1.72592E+03-9.30485E+03 1.53676E+04 4.67026E-09-4.50061E-09
 -1       972-3.47208E+05-1.27024E+03-5.06732E+03 2.12560E+04 2.08775E-09-9.06357E-09
 -1       973-3.46004E+05-6.13946E+01-2.26970E+03 1.52464E+04 1.49066E-09-6.97150E-09
 -1       974-3.46140E+05-8.01848E+01-1.17653E+03 2.13930E+04-2.85127E-09-2.73656E-09
 -1       975-3.46086E+05-1.65439E+01-5.88558E+02 1.52341E+04-2.84081E-09-8.01924E-09
 -1       976-3.46078E+05-3.03671E+01-3.40373E+02 2.14088E+04 7.85667E-09-6.94467E-09
 -1       977-3.46103E+05-1.57993E+01-2.48501E+02 1.52307E+04-2.91175E-09-1.19228E-08
 -1       978-3.46084E+05-2.41461E+01-2.92793E+02 2.14136E+04-5.63614E-09-1.39574E-08
 -1       979-3.46103E+05-7.33095E+00-4.72142E+02 1.52292E+04 6.47447E-11-4.07658E-09
 -1       980-3.46119E+05-2.10877E+01-9.12723E+02 2.14146E+04-5.41900E-09-1.15915E-08
 -1       981-3.46073E+05 1.54822E+01-1.76830E+03 1.52298E+04 2.71518E-09-8.26111E-09
 -1       982-3.46362E+05-1.51747E+02-3.65535E+03 2.14080E+04 6.20696E-09-4.57002E-09
 -1       983-3.45851E+05-9.77483E+01-7.10253E+03 1.52358E+04 1.92404E-09-1.58116E-09
 -1       984-3.49778E+05-3.86119E+03-1.59059E+04 2.13224E+04-2.24441E-09 1.76996E-08
 -1       985-3.42635E+05-5.29494E+03-2.92081E+04 1.53073E+04-6.98446E-09 4.45652E-09
 -3
    1PSTEP                        35          18           1          
  100CL  118 6.62673E-01         409                     0   18           1
 -4  DISP        4    1
 -5  D1          1    2    1    0
 -5  D2          1    2    2    0
 -5  D3          1    2    3    0
 -5  ALL         1    2    0    0    1ALL
 -1         1 2.68190E-03 0.00000E+00 0.00000E+00
 -1         2 1.39186E-03 1.27415E-28 0.00000E+00
 -1         3 3.41676E-04-5.39223E-28-1.32349E-23
 -1         5 1.76763E-04-2.26601E-27 0.00000E+00
 -1         8 2.67026E-03-4.17547E-07 0.00000E+00
 -1         9 2.66381E-03-1.70639E-04 0.00000E+00
 -1        10 3.09810E-04-3.42911E-06 0.00000E+00
 -1        12 1.78591E-04 8.08333E-07 1.24077E-24
 -1        15 2.65675E-03-4.43964E-07 0.00000E+00
 -1        16 2.72139E-03-1.72342E-04 0.00000E+00
 -1        17 2.10868E-04-7.81063E-06 0.00000E+00
 -1        18 1.82485E-04 3.41707E-05 0.00000E+00
 -1        19 1.84077E-04 1.61030E-06 0.00000E+00
 -1        20 1.84217E-04-9.66324E-06 0.00000E+00
 -1        21 1.83326E-04-2.49601E-05 3.30872E-24
 -1        24 3.06005E-05-1.20273E-05 0.00000E+00
 -1        25 1.93178E-04 3.43961E-05 0.00000E+00
 -1        26 1.93859E-04 2.22987E-06 0.00000E+00
 -1        27 1.91661E-04-1.32186E-05 0.00000E+00
 -1        28 1.91344E-04-2.55819E-05 0.00000E+00
 -1        32 0.00000E+00 0.00000E+00 0.00000E+00
 -1        33 2.02636E-04 2.98300E-06 0.00000E+00
 -1        34 2.00520E-04-1.32745E-05 0.00000E+00
 -1        35 1.98589E-04-2.59240E-05 0.00000E+00
 -1        51 2.68113E-03-8.65320E-08 3.30872E-24
 -1        52 2.67971E-03-1.54948E-07 0.00000E+00
 -1        53 2.67778E-03-2.20023E-07 0.00000E+00
 -1        54 2.67547E-03-2.83996E-07 0.00000E+00
 -1        55 2.67292E-03-3.48623E-07 1.65436E-24
 -1        56 2.67521E-03 6.07491E-06 0.00000E+00
 -1        57 2.66300E-03 2.58186E-05 5.29396E-23
 -1        58 2.64709E-03 5.48165E-05 1.05879E-22
 -1        59 2.62952E-03 8.77514E-05 5.29396E-23
 -1        60 2.61280E-03 1.18637E-04 1.05879E-22
 -1        61 2.59927E-03 1.41654E-04-5.29396E-23
 -1        62 2.59058E-03 1.52388E-04 0.00000E+00
 -1        63 2.58782E-03 1.47517E-04 5.29396E-23
 -1        64 2.59089E-03 1.26565E-04 0.00000E+00
 -1        65 2.59917E-03 9.05498E-05 5.29396E-23
 -1        66 2.61119E-03 4.33076E-05 0.00000E+00
 -1        67 2.62526E-03-1.02489E-05 5.29396E-23
 -1        68 2.63939E-03-6.40062E-05 0.00000E+00
 -1        69 2.65163E-03-1.11824E-04 0.00000E+00
 -1        70 2.66022E-03-1.48700E-04-1.05879E-22
 -1        86 1.47181E-03-5.50401E-06-5.29396E-23
 -1        87 1.70369E-03-3.41262E-05-2.64698E-23
 -1        88 2.01538E-03-8.31386E-05 0.00000E+00
 -1        89 2.33092E-03-1.33382E-04 1.32349E-23
 -1        90 2.57214E-03-1.64104E-04 0.00000E+00
 -1       121 3.40781E-04-5.53878E-07-1.32349E-23
 -1       122 3.38100E-04-1.11083E-06 6.61744E-24
 -1       123 3.33642E-04-1.67387E-06 0.00000E+00
 -1       124 3.27425E-04-2.24604E-06 6.61744E-24
 -1       125 3.19471E-04-2.82995E-06 1.32349E-23
 -1       191 1.76814E-04 1.34785E-07-1.65436E-24
 -1       192 1.76966E-04 2.69558E-07-1.65436E-24
 -1       193 1.77220E-04 4.04312E-07-8.27181E-25
 -1       194 1.77575E-04 5.39034E-07 8.27181E-25
 -1       195 1.78032E-04 6.73712E-07-8.27181E-25
 -1       251 2.66996E-03 1.87235E-06-6.61744E-24
 -1       252 2.66964E-03 4.14884E-06 0.00000E+00
 -1       253 2.66933E-03 5.46665E-06 6.61744E-24
 -1       254 2.66901E-03 4.89266E-06 0.00000E+00
 -1       255 2.66870E-03 1.78763E-06 6.61744E-24
 -1       256 2.66836E-03-4.45522E-06 0.00000E+00
 -1       257 2.66801E-03-1.39556E-05 0.00000E+00
 -1       258 2.66761E-03-2.67913E-05 6.61744E-24
 -1       259 2.66718E-03-4.25230E-05 0.00000E+00
 -1       260 2.66671E-03-6.06736E-05-6.61744E-24
 -1       261 2.66621E-03-8.03907E-05 0.00000E+00
 -1       262 2.66570E-03-1.00802E-04 0.00000E+00
 -1       263 2.66519E-03-1.20928E-04-1.32349E-23
 -1       264 2.66470E-03-1.39791E-04 0.00000E+00
 -1       265 2.66424E-03-1.56613E-04 0.00000E+00
 -1       266 2.66801E-03-4.27844E-07 0.00000E+00
 -1       267 2.66576E-03-4.31529E-07 8.27181E-25
 -1       268 2.66351E-03-4.35632E-07 0.00000E+00
 -1       269 2.66125E-03-4.38495E-07 0.00000E+00
 -1       270 2.65900E-03-4.41328E-07 0.00000E+00
 -1       271 2.66923E-03 3.85363E-07 0.00000E+00
 -1       272 2.66905E-03-1.15842E-06 6.61744E-24
 -1       273 2.66970E-03-4.92690E-06 0.00000E+00
 -1       274 2.67112E-03-1.07862E-05 1.32349E-23
 -1       275 2.67325E-03-1.85787E-05-2.64698E-23
 -1       276 2.67602E-03-2.81305E-05 0.00000E+00
 -1       277 2.67936E-03-3.92492E-05 2.64698E-23
 -1       278 2.68320E-03-5.17281E-05 0.00000E+00
 -1       279 2.68745E-03-6.53468E-05 2.64698E-23
 -1       280 2.69202E-03-7.98742E-05 0.00000E+00
 -1       281 2.69684E-03-9.50696E-05-2.64698E-23
 -1       282 2.70181E-03-1.10687E-04 1.32349E-23
 -1       283 2.70683E-03-1.26475E-04 0.00000E+00
 -1       284 2.71183E-03-1.42181E-04 1.32349E-23
 -1       285 2.71671E-03-1.57554E-04-1.32349E-23
 -1       301 2.67429E-03-1.70954E-04-6.61744E-24
 -1       302 2.68320E-03-1.71226E-04 0.00000E+00
 -1       303 2.69146E-03-1.71490E-04 0.00000E+00
 -1       304 2.69997E-03-1.71754E-04 6.61744E-24
 -1       305 2.70965E-03-1.72031E-04 0.00000E+00
 -1       306 2.70129E-03-3.23207E-04-1.05879E-22
 -1       307 2.76524E-03-7.34449E-04-5.29396E-23
 -1       308 2.81249E-03-1.33685E-03 1.05879E-22
 -1       309 2.83699E-03-2.03508E-03 5.29396E-23
 -1       310 2.86862E-03-2.70396E-03 0.00000E+00
 -1       311 2.92807E-03-3.22090E-03 5.29396E-23
 -1       312 2.98619E-03-3.50539E-03-1.05879E-22
 -1       313 2.98288E-03-3.51906E-03 0.00000E+00
 -1       314 2.84488E-03-3.27341E-03 1.05879E-22
 -1       315 2.53122E-03-2.83203E-03 5.29396E-23
 -1       316 2.05969E-03-2.27117E-03 1.05879E-22
 -1       317 1.49531E-03-1.66013E-03-5.29396E-23
 -1       318 9.51470E-04-1.05988E-03 0.00000E+00
 -1       319 5.35466E-04-5.35504E-04 0.00000E+00
 -1       320 2.91021E-04-1.60783E-04 1.05879E-22
 -1       336 2.98256E-04-4.09137E-06 0.00000E+00
 -1       337 2.84635E-04-4.77916E-06 0.00000E+00
 -1       338 2.69007E-04-5.49466E-06 1.32349E-23
 -1       339 2.51446E-04-6.23866E-06-6.61744E-24
 -1       340 2.32036E-04-7.01559E-06 1.32349E-23
 -1       406 1.79251E-04 9.42878E-07 2.48154E-24
 -1       407 1.80013E-04 1.07731E-06 8.27181E-25
 -1       408 1.80877E-04 1.21158E-06-1.65436E-24
 -1       409 1.81843E-04 1.34551E-06-1.44757E-24
 -1       410 1.82909E-04 1.47883E-06 4.13590E-25
 -1       521 2.75949E-03-3.34134E-04 0.00000E+00
 -1       522 2.82175E-03-7.65263E-04 5.29396E-23
 -1       523 2.86275E-03-1.39487E-03 1.05879E-22
 -1       524 2.87832E-03-2.12101E-03 5.29396E-23
 -1       525 2.90226E-03-2.81584E-03 0.00000E+00
 -1       526 2.95822E-03-3.35432E-03 5.29396E-23
 -1       527 3.01591E-03-3.64926E-03 0.00000E+00
 -1       528 3.01040E-03-3.66135E-03-5.29396E-23
 -1       529 2.86085E-03-3.40200E-03 0.00000E+00
 -1       530 2.52405E-03-2.94252E-03 5.29396E-23
 -1       531 2.01854E-03-2.36283E-03 0.00000E+00
 -1       532 1.41559E-03-1.73485E-03-5.29396E-23
 -1       533 8.33760E-04-1.11700E-03-1.05879E-22
 -1       534 3.85305E-04-5.72146E-04-5.29396E-23
 -1       535 1.20108E-04-1.78245E-04 2.11758E-22
 -1       536 2.10117E-04 2.69916E-05 0.00000E+00
 -1       537 2.08211E-04 8.72261E-05 0.00000E+00
 -1       538 2.05267E-04 1.63656E-04 3.30872E-24
 -1       539 2.01794E-04 2.46961E-04-1.65436E-24
 -1       540 1.98668E-04 3.25678E-04 3.30872E-24
 -1       541 1.96636E-04 3.88365E-04 1.65436E-24
 -1       542 1.95698E-04 4.28291E-04 0.00000E+00
 -1       543 1.95474E-04 4.38871E-04 1.65436E-24
 -1       544 1.95152E-04 4.20877E-04 3.30872E-24
 -1       545 1.93987E-04 3.75301E-04 0.00000E+00
 -1       546 1.91815E-04 3.10245E-04 0.00000E+00
 -1       547 1.88875E-04 2.33933E-04 1.65436E-24
 -1       548 1.85963E-04 1.57998E-04-3.30872E-24
 -1       549 1.83862E-04 9.40772E-05-1.65436E-24
 -1       550 1.82770E-04 5.01750E-05 0.00000E+00
 -1       551 1.85750E-04-8.37952E-06 0.00000E+00
 -1       552 1.57394E-04-9.02836E-06 0.00000E+00
 -1       553 1.26742E-04-9.73907E-06-9.92617E-24
 -1       554 9.47532E-05-1.04906E-05-3.30872E-24
 -1       555 6.23879E-05-1.12557E-05 1.32349E-23
 -1       556 2.03248E-04 1.16736E-05 5.29396E-23
 -1       557 1.97093E-04 2.74739E-05 0.00000E+00
 -1       558 1.92268E-04 3.98774E-05 0.00000E+00
 -1       559 1.88640E-04 4.91938E-05 0.00000E+00
 -1       560 1.86081E-04 5.57330E-05 0.00000E+00
 -1       561 1.84463E-04 5.98076E-05 0.00000E+00
 -1       562 1.83660E-04 6.17315E-05 0.00000E+00
 -1       563 1.83549E-04 6.18194E-05 1.32349E-23
 -1       564 1.84008E-04 6.03868E-05 0.00000E+00
 -1       565 1.84917E-04 5.77500E-05 0.00000E+00
 -1       566 1.86157E-04 5.42258E-05 0.00000E+00
 -1       567 1.87608E-04 5.01315E-05 3.30872E-24
 -1       568 1.89154E-04 4.57845E-05 0.00000E+00
 -1       569 1.90675E-04 4.15021E-05 8.27181E-25
 -1       570 1.92055E-04 3.76016E-05 0.00000E+00
 -1       571 1.82582E-04 3.20582E-05 8.27181E-25
 -1       572 1.82680E-04 2.98801E-05-1.24077E-24
 -1       573 1.82779E-04 2.76521E-05 1.65436E-24
 -1       574 1.82878E-04 2.53904E-05 0.00000E+00
 -1       575 1.82978E-04 2.31115E-05 0.00000E+00
 -1       576 1.83077E-04 2.08318E-05 1.65436E-24
 -1       577 1.83177E-04 1.85678E-05 0.00000E+00
 -1       578 1.83276E-04 1.63359E-05 0.00000E+00
 -1       579 1.83376E-04 1.41526E-05 0.00000E+00
 -1       580 1.83475E-04 1.20344E-05 0.00000E+00
 -1       581 1.83575E-04 9.99777E-06 0.00000E+00
 -1       582 1.83675E-04 8.05917E-06 6.61744E-24
 -1       583 1.83776E-04 6.23505E-06 0.00000E+00
 -1       584 1.83876E-04 4.54169E-06 0.00000E+00
 -1       585 1.83976E-04 2.99519E-06 0.00000E+00
 -1       586 1.84226E-04 3.42104E-05-3.30872E-24
 -1       587 1.85926E-04 3.42495E-05-4.13590E-25
 -1       588 1.87628E-04 3.42882E-05 8.27181E-25
 -1       589 1.89375E-04 3.43263E-05 0.00000E+00
 -1       590 1.91211E-04 3.43632E-05 0.00000E+00
 -1       591 1.83209E-04 3.21516E-05 1.03398E-25
 -1       592 1.83936E-04 3.01125E-05-2.06795E-25
 -1       593 1.84668E-04 2.80594E-05 0.00000E+00
 -1       594 1.85402E-04 2.59968E-05 0.00000E+00
 -1       595 1.86139E-04 2.39296E-05 0.00000E+00
 -1       596 1.86875E-04 2.18625E-05 0.00000E+00
 -1       597 1.87610E-04 1.98002E-05-8.27181E-25
 -1       598 1.88341E-04 1.77473E-05 4.13590E-25
 -1       599 1.89067E-04 1.57086E-05 0.00000E+00
 -1       600 1.89785E-04 1.36888E-05-4.13590E-25
 -1       601 1.90495E-04 1.16925E-05-8.27181E-25
 -1       602 1.91195E-04 9.72443E-06 0.00000E+00
 -1       603 1.91882E-04 7.78928E-06-8.27181E-25
 -1       604 1.92556E-04 5.89186E-06-2.58494E-26
 -1       605 1.93214E-04 4.03677E-06 0.00000E+00
 -1       606 1.84090E-04 4.58376E-07 3.30872E-24
 -1       607 1.84100E-04-6.07583E-07 0.00000E+00
 -1       608 1.84109E-04-1.59262E-06 0.00000E+00
 -1       609 1.84117E-04-2.50244E-06 0.00000E+00
 -1       610 1.84125E-04-3.34277E-06 0.00000E+00
 -1       611 1.84134E-04-4.11943E-06 0.00000E+00
 -1       612 1.84142E-04-4.83820E-06 0.00000E+00
 -1       613 1.84150E-04-5.50494E-06 0.00000E+00
 -1       614 1.84159E-04-6.12544E-06 0.00000E+00
 -1       615 1.84167E-04-6.70552E-06 0.00000E+00
 -1       616 1.84176E-04-7.25102E-06-1.65436E-24
 -1       617 1.84184E-04-7.76774E-06-4.13590E-25
 -1       618 1.84192E-04-8.26150E-06 0.00000E+00
 -1       619 1.84201E-04-8.73813E-06-2.06795E-25
 -1       620 1.84209E-04-9.20344E-06 0.00000E+00
 -1       621 1.85423E-04 1.71412E-06 1.65436E-24
 -1       622 1.86926E-04 1.81819E-06 0.00000E+00
 -1       623 1.88555E-04 1.92205E-06 0.00000E+00
 -1       624 1.90276E-04 2.02558E-06 8.27181E-25
 -1       625 1.92055E-04 2.12883E-06 1.65436E-24
 -1       626 1.84621E-04 4.94454E-07-3.30872E-24
 -1       627 1.85142E-04-5.58198E-07-3.30872E-24
 -1       628 1.85642E-04-1.55552E-06 0.00000E+00
 -1       629 1.86126E-04-2.50567E-06 0.00000E+00
 -1       630 1.86594E-04-3.41686E-06 3.30872E-24
 -1       631 1.87051E-04-4.29731E-06 1.65436E-24
 -1       632 1.87500E-04-5.15521E-06 0.00000E+00
 -1       633 1.87943E-04-5.99881E-06 0.00000E+00
 -1       634 1.88384E-04-6.83630E-06 0.00000E+00
 -1       635 1.88826E-04-7.67591E-06 0.00000E+00
 -1       636 1.89272E-04-8.52586E-06 0.00000E+00
 -1       637 1.89725E-04-9.39436E-06 0.00000E+00
 -1       638 1.90187E-04-1.02896E-05 1.65436E-24
 -1       639 1.90663E-04-1.12199E-05 1.65436E-24
 -1       640 1.91153E-04-1.21935E-05-3.30872E-24
 -1       656 1.84909E-04-1.02411E-05 0.00000E+00
 -1       657 1.86021E-04-1.08425E-05 0.00000E+00
 -1       658 1.87414E-04-1.14424E-05 1.32349E-23
 -1       659 1.88941E-04-1.20420E-05 0.00000E+00
 -1       660 1.90418E-04-1.26435E-05 6.61744E-24
 -1       661 1.84476E-04-1.01681E-05 0.00000E+00
 -1       662 1.84773E-04-1.07647E-05-8.27181E-25
 -1       663 1.85102E-04-1.14478E-05 0.00000E+00
 -1       664 1.85461E-04-1.22109E-05 0.00000E+00
 -1       665 1.85849E-04-1.30482E-05 0.00000E+00
 -1       666 1.86262E-04-1.39539E-05-8.27181E-25
 -1       667 1.86698E-04-1.49222E-05 0.00000E+00
 -1       668 1.87156E-04-1.59477E-05-8.27181E-25
 -1       669 1.87633E-04-1.70248E-05 1.65436E-24
 -1       670 1.88128E-04-1.81483E-05-8.27181E-25
 -1       671 1.88638E-04-1.93131E-05 0.00000E+00
 -1       672 1.89161E-04-2.05140E-05 0.00000E+00
 -1       673 1.89695E-04-2.17460E-05 1.65436E-24
 -1       674 1.90239E-04-2.30044E-05 4.13590E-25
 -1       675 1.90791E-04-2.42840E-05 0.00000E+00
 -1       676 1.84667E-04-2.50644E-05 0.00000E+00
 -1       677 1.86007E-04-2.51686E-05 0.00000E+00
 -1       678 1.87346E-04-2.52727E-05-3.30872E-24
 -1       679 1.88682E-04-2.53765E-05 1.65436E-24
 -1       680 1.90015E-04-2.54803E-05 0.00000E+00
 -1       771 1.86897E-05 1.46009E-05 0.00000E+00
 -1       772 8.66793E-06 3.64717E-05 0.00000E+00
 -1       773 4.44779E-07 5.38143E-05-5.29396E-23
 -1       774-6.10351E-06 6.68857E-05-2.64698E-23
 -1       775-1.10980E-05 7.59534E-05 0.00000E+00
 -1       776-1.46649E-05 8.13014E-05 0.00000E+00
 -1       777-1.69297E-05 8.32238E-05 0.00000E+00
 -1       778-1.80210E-05 8.20285E-05-5.29396E-23
 -1       779-1.80665E-05 7.80317E-05 0.00000E+00
 -1       780-1.71960E-05 7.15614E-05-2.64698E-23
 -1       781-1.55383E-05 6.29518E-05 0.00000E+00
 -1       782-1.32239E-05 5.25464E-05 0.00000E+00
 -1       783-1.03823E-05 4.06930E-05 5.29396E-23
 -1       784-7.14433E-06 2.77456E-05 2.64698E-23
 -1       785-3.63970E-06 1.40615E-05-5.29396E-23
 -1       786 1.93216E-04 3.21581E-05 0.00000E+00
 -1       787 1.93258E-04 2.99702E-05 4.13590E-25
 -1       788 1.93300E-04 2.78240E-05 8.27181E-25
 -1       789 1.93342E-04 2.57114E-05 8.27181E-25
 -1       790 1.93385E-04 2.36277E-05 0.00000E+00
 -1       791 1.93428E-04 2.15680E-05-8.27181E-25
 -1       792 1.93470E-04 1.95302E-05-1.65436E-24
 -1       793 1.93513E-04 1.75120E-05 0.00000E+00
 -1       794 1.93556E-04 1.55134E-05-1.65436E-24
 -1       795 1.93599E-04 1.35341E-05 8.27181E-25
 -1       796 1.93642E-04 1.15760E-05 1.65436E-24
 -1       797 1.93685E-04 9.64097E-06 0.00000E+00
 -1       798 1.93729E-04 7.73324E-06 0.00000E+00
 -1       799 1.93772E-04 5.85712E-06 0.00000E+00
 -1       800 1.93815E-04 4.02012E-06 1.65436E-24
 -1       801 1.47589E-04 3.09177E-05-2.64698E-23
 -1       802 9.73987E-06 1.92951E-05-2.64698E-23
 -1       803-1.08052E-04 9.74884E-06 0.00000E+00
 -1       804-9.58608E-05 6.78333E-06 0.00000E+00
 -1       805-3.16796E-05 2.66986E-06 0.00000E+00
 -1       806 1.93902E-04 3.20894E-05 1.65436E-24
 -1       807 1.94612E-04 2.98090E-05-1.65436E-24
 -1       808 1.95310E-04 2.75599E-05 3.30872E-24
 -1       809 1.95994E-04 2.53463E-05-1.65436E-24
 -1       810 1.96663E-04 2.31722E-05 0.00000E+00
 -1       811 1.97316E-04 2.10416E-05-1.65436E-24
 -1       812 1.97951E-04 1.89583E-05 3.30872E-24
 -1       813 1.98567E-04 1.69263E-05 1.65436E-24
 -1       814 1.99162E-04 1.49494E-05 0.00000E+00
 -1       815 1.99736E-04 1.30317E-05 1.65436E-24
 -1       816 2.00286E-04 1.11769E-05 1.65436E-24
 -1       817 2.00811E-04 9.38895E-06-8.27181E-25
 -1       818 2.01310E-04 7.67175E-06 3.30872E-24
 -1       819 2.01781E-04 6.02916E-06-1.65436E-24
 -1       820 2.02223E-04 4.46498E-06 1.65436E-24
 -1       821 1.93730E-04-1.10068E-07 0.00000E+00
 -1       822 1.93590E-04-3.59070E-06 0.00000E+00
 -1       823 1.93448E-04-7.78805E-06 3.30872E-24
 -1       824 1.93303E-04-1.22737E-05 0.00000E+00
 -1       825 1.93159E-04-1.65412E-05 0.00000E+00
 -1       826 1.93018E-04-2.00857E-05-1.65436E-24
 -1       827 1.92879E-04-2.25987E-05 0.00000E+00
 -1       828 1.92743E-04-2.37785E-05 0.00000E+00
 -1       829 1.92607E-04-2.36859E-05 3.30872E-24
 -1       830 1.92471E-04-2.23894E-05-1.65436E-24
 -1       831 1.92333E-04-2.02851E-05 0.00000E+00
 -1       832 1.92195E-04-1.77742E-05 0.00000E+00
 -1       833 1.92057E-04-1.53684E-05-3.30872E-24
 -1       834 1.91922E-04-1.35788E-05 0.00000E+00
 -1       835 1.91788E-04-1.27496E-05 8.27181E-25
 -1       836 1.95534E-04 2.35476E-06-3.30872E-24
 -1       837 1.97082E-04 2.48280E-06 1.65436E-24
 -1       838 1.98535E-04 2.61077E-06 0.00000E+00
 -1       839 1.99924E-04 2.73804E-06 0.00000E+00
 -1       840 2.01280E-04 2.86516E-06 0.00000E+00
 -1       856 1.91645E-04-1.42662E-05-8.27181E-25
 -1       857 1.91626E-04-1.51780E-05 0.00000E+00
 -1       858 1.91606E-04-1.59753E-05 0.00000E+00
 -1       859 1.91587E-04-1.66792E-05-2.06795E-25
 -1       860 1.91567E-04-1.73108E-05 0.00000E+00
 -1       861 1.91547E-04-1.78915E-05-2.06795E-25
 -1       862 1.91527E-04-1.84425E-05 0.00000E+00
 -1       863 1.91507E-04-1.89852E-05 0.00000E+00
 -1       864 1.91487E-04-1.95409E-05 0.00000E+00
 -1       865 1.91468E-04-2.01310E-05 0.00000E+00
 -1       866 1.91448E-04-2.07767E-05-8.27181E-25
 -1       867 1.91428E-04-2.14994E-05 4.13590E-25
 -1       868 1.91407E-04-2.23201E-05 0.00000E+00
 -1       869 1.91387E-04-2.32601E-05-4.13590E-25
 -1       870 1.91366E-04-2.43404E-05-8.27181E-25
 -1       871 1.92996E-04-1.32235E-05 8.27181E-25
 -1       872 1.94479E-04-1.32318E-05 0.00000E+00
 -1       873 1.96040E-04-1.32408E-05 0.00000E+00
 -1       874 1.97613E-04-1.32505E-05 2.32645E-25
 -1       875 1.99129E-04-1.32608E-05-8.27181E-25
 -1       876 1.92181E-04-1.42516E-05-6.61744E-24
 -1       877 1.92679E-04-1.52178E-05 0.00000E+00
 -1       878 1.93155E-04-1.61252E-05 3.30872E-24
 -1       879 1.93612E-04-1.69812E-05-1.65436E-24
 -1       880 1.94053E-04-1.77932E-05-3.30872E-24
 -1       881 1.94480E-04-1.85685E-05-1.65436E-24
 -1       882 1.94896E-04-1.93146E-05 3.30872E-24
 -1       883 1.95304E-04-2.00386E-05-1.65436E-24
 -1       884 1.95706E-04-2.07481E-05 0.00000E+00
 -1       885 1.96106E-04-2.14502E-05-1.65436E-24
 -1       886 1.96505E-04-2.21524E-05-3.30872E-24
 -1       887 1.96907E-04-2.28620E-05 1.65436E-24
 -1       888 1.97315E-04-2.35864E-05-3.30872E-24
 -1       889 1.97730E-04-2.43330E-05-1.65436E-24
 -1       890 1.98156E-04-2.51091E-05-1.65436E-24
 -1       891 1.92694E-04-2.56393E-05 1.65436E-24
 -1       892 1.94020E-04-2.56970E-05 0.00000E+00
 -1       893 1.95298E-04-2.57545E-05 0.00000E+00
 -1       894 1.96502E-04-2.58118E-05 0.00000E+00
 -1       895 1.97607E-04-2.58688E-05 0.00000E+00
 -1       956 2.02506E-04 1.67543E-06 1.65436E-24
 -1       957 2.02374E-04 4.59269E-07 1.65436E-24
 -1       958 2.02241E-04-6.76193E-07 0.00000E+00
 -1       959 2.02108E-04-1.74228E-06 0.00000E+00
 -1       960 2.01976E-04-2.75035E-06 0.00000E+00
 -1       961 2.01843E-04-3.71182E-06 1.65436E-24
 -1       962 2.01710E-04-4.63807E-06 0.00000E+00
 -1       963 2.01578E-04-5.54056E-06 0.00000E+00
 -1       964 2.01445E-04-6.43070E-06 3.30872E-24
 -1       965 2.01312E-04-7.31990E-06 0.00000E+00
 -1       966 2.01180E-04-8.21962E-06 0.00000E+00
 -1       967 2.01047E-04-9.14126E-06-1.65436E-24
 -1       968 2.00915E-04-1.00962E-05 0.00000E+00
 -1       969 2.00782E-04-1.10960E-05-3.30872E-24
 -1       970 2.00650E-04-1.21517E-05 3.30872E-24
 -1       971 2.00400E-04-1.43968E-05 0.00000E+00
 -1       972 2.00279E-04-1.54244E-05 1.65436E-24
 -1       973 2.00158E-04-1.63680E-05-3.30872E-24
 -1       974 2.00036E-04-1.72382E-05 1.65436E-24
 -1       975 1.99915E-04-1.80460E-05 0.00000E+00
 -1       976 1.99794E-04-1.88021E-05 0.00000E+00
 -1       977 1.99672E-04-1.95176E-05 3.30872E-24
 -1       978 1.99551E-04-2.02033E-05 1.65436E-24
 -1       979 1.99430E-04-2.08701E-05-3.30872E-24
 -1       980 1.99308E-04-2.15289E-05 1.65436E-24
 -1       981 1.99187E-04-2.21906E-05 0.00000E+00
 -1       982 1.99066E-04-2.28661E-05-1.65436E-24
 -1       983 1.98945E-04-2.35663E-05 3.30872E-24
 -1       984 1.98825E-04-2.43022E-05 0.00000E+00
 -1       985 1.98705E-04-2.50845E-05-3.30872E-24
 -3
    1PSTEP                        36          18           1          
  100CL  118 6.62673E-01         409                     0   18           1
 -4  STRESS      6    1
 -5  SXX         1    4    1    1
 -5  SYY         1    4    2    2
 -5  SZZ         1    4    3    3
 -5  SXY         1    4    1    2
 -5  SYZ         1    4    2    3
 -5  SZX         1    4    3    1
 -1         1-5.28820E+06-1.66244E+06-1.13010E+06-1.45393E+06-5.82077E-10-6.93544E-08
 -1         2 1.27485E+06 1.87728E+07 4.45355E+06 5.64056E+06 2.29629E-08 1.33441E-07
 -1         3-1.47957E+03-1.57277E+06 4.08208E+02-2.22583E+03-4.48310E-10-1.02817E-07
 -1         5-7.38106E+01 3.85963E+05 9.97089E+00-1.32642E+00-2.65803E-10-1.15888E-08
 -1         8-6.07944E+05-2.14218E+05-7.11973E+04-2.60328E+05 2.10093E-10 1.21363E-07
 -1         9 1.14763E+07 3.27736E+06 2.63639E+06-4.54608E+05-7.89296E-09 1.55997E-08
 -1        10-2.30254E+03-1.63895E+06-3.97010E+03-1.50583E+04-1.37316E-08 2.51320E-08
 -1        12-6.98928E+01 3.85984E+05 3.27676E+02-9.04697E+00-6.79876E-10-1.17225E-08
 -1        15 9.76742E+02 5.36769E+02 3.15730E+03 9.51518E-01-8.11582E-11 7.12754E-08
 -1        16 2.25897E+07-3.07135E+05 3.08532E+06-2.17452E+06 2.89098E-08 1.75089E-07
 -1        17 8.27001E+06 6.18916E+06 2.23462E+06 5.93118E+06 2.10712E-08 2.28989E-08
 -1        18 1.41098E+05 3.31756E+04 3.89006E+03-1.19295E+05 1.28216E-08 7.72843E-09
 -1        19 1.22291E+05 1.41524E+05-9.43291E+02 2.19603E+04 1.60180E-09 1.05909E-08
 -1        20-8.17574E+04-5.73156E+05-1.28603E+05 2.51614E+04-2.21962E-09 6.17001E-09
 -1        21-4.55890E+01-2.95882E+05-9.23708E+02 2.72168E+02 1.40121E-08-5.29423E-09
 -1        24 1.37946E+07 1.18825E+07 3.82452E+06 1.10075E+07-1.69637E-07-5.18242E-08
 -1        25 1.22691E+05 2.59012E+05 9.78823E+04-6.40657E+05-4.50109E-10 1.78190E-08
 -1        26-5.53328E+04 9.21841E+04-2.46113E+04 1.25341E+03-1.48066E-10 3.18275E-09
 -1        27-7.55803E+04-3.09675E+05-1.13223E+05 6.89171E+04 3.79547E-09-5.25991E-10
 -1        28 2.22356E+04-8.52950E+04 1.68899E+04 2.06267E+04-3.65890E-09-5.86108E-09
 -1        32-1.67912E+06-3.17257E+06-1.96036E+05 4.47913E+05-4.21496E-08-1.17436E-08
 -1        33-1.78336E+05 9.29005E+04 3.23574E+04-3.84765E+04-2.71113E-09 1.41890E-08
 -1        34-2.23438E+05-2.49977E+04 6.88658E+02 7.55713E+04-6.57580E-09-7.39450E-09
 -1        35-2.29227E+04-3.38263E+04-1.34755E+03 5.14749E+04-3.65776E-09 1.82966E-08
 -1        51 5.97492E+04-1.76564E+05 1.26636E+05-4.60736E+05 1.89175E-10-8.29605E-08
 -1        52 2.03316E+04-1.54588E+05 6.66273E+04-5.37291E+05 3.85626E-10 6.78374E-08
 -1        53 4.27801E+03-1.70020E+05 3.49922E+04-4.59122E+05 2.49202E-10-1.59343E-08
 -1        54 7.84873E+03-1.65821E+05 2.93477E+04-5.38900E+05-9.09495E-11 4.87034E-08
 -1        55 1.70935E+04-1.73183E+05 3.63989E+04-4.58992E+05 3.38332E-10 2.07127E-07
 -1        56-9.66391E+06-1.26833E+06-8.76323E+05-3.96503E+06-1.25146E-09-9.04547E-08
 -1        57-1.07779E+07-1.05965E+06-5.54496E+05-2.91253E+06 3.10538E-08-8.68240E-08
 -1        58-9.59617E+06-1.68305E+06-1.97985E+05-4.09194E+06-3.46190E-08-2.89510E-08
 -1        59-1.08064E+07-6.00378E+05-1.11938E+05-2.86532E+06-1.10845E-08-2.77183E-07
 -1        60-9.67405E+06-1.68983E+06-5.26239E+04-4.04801E+06-1.54359E-08-1.80480E-07
 -1        61-1.03620E+07-8.36138E+05-2.48019E+03-3.08677E+06-1.10267E-08 1.39844E-08
 -1        62-9.96336E+06-1.49883E+06-4.78974E+04-3.81119E+06-4.51109E-09-8.93051E-08
 -1        63-9.74202E+06-1.35147E+06 2.54222E+04-3.62273E+06 8.88031E-09 5.81804E-08
 -1        64-1.02367E+07-1.21496E+06-4.36771E+04-3.47479E+06 7.99628E-09-1.35360E-07
 -1        65-9.41866E+06-1.80573E+06-3.60605E+03-4.26156E+06-6.87760E-08-2.58518E-07
 -1        66-1.03569E+07-9.95935E+05-4.43568E+04-3.22463E+06-1.56797E-08 7.36236E-08
 -1        67-9.38594E+06-2.01634E+06-1.01019E+05-4.55502E+06-5.67397E-08 1.57119E-07
 -1        68-1.03377E+07-9.57514E+05-1.81783E+05-3.22518E+06-5.39162E-08-1.18322E-07
 -1        69-9.60896E+06-2.14346E+06-4.95999E+05-4.22394E+06 6.61885E-09-4.71446E-07
 -1        70-1.00730E+07-9.22300E+05-7.99419E+05-3.51209E+06-6.08998E-09-2.17056E-07
 -1        86-1.29958E+06-1.40422E+07-2.43486E+06-2.65896E+06-2.52672E-07-8.48377E-09
 -1        87 2.00768E+06 5.20761E+06 2.02606E+06 5.07964E+06-4.30620E-07-1.49703E-08
 -1        88-3.59873E+05-2.12920E+06 1.86814E+05-2.35576E+06-3.85853E-07 1.75437E-08
 -1        89 2.69123E+06 4.97571E+06 2.07333E+06 5.23559E+06-5.60685E-07-2.12149E-07
 -1        90-1.90933E+06-1.38718E+07-2.63808E+06-2.83601E+06-1.40470E-07-9.08040E-09
 -1       121-2.02751E+03-1.57765E+06-5.38842E+02 1.10336E+03 1.44416E-09-8.83301E-09
 -1       122-1.29244E+03-1.57283E+06 7.75578E+02-4.45533E+03-5.43113E-09 9.79344E-09
 -1       123-2.04786E+03-1.57778E+06 2.77344E+02 3.29509E+03 4.42776E-09-9.78616E-09
 -1       124 3.57944E+02-1.57237E+06 2.97723E+03-9.31774E+03-1.00990E-08 5.91535E-09
 -1       125-2.86504E+03-1.57868E+06 3.50930E+03 5.92034E+03 6.63204E-09 4.41833E-08
 -1       191-7.77888E+01 3.85981E+05 8.54744E+00 6.91135E-01-5.09020E-10 4.73301E-09
 -1       192-7.47723E+01 3.85963E+05 2.12743E+01-4.25782E+00-7.91182E-10 1.07793E-08
 -1       193-8.03207E+01 3.85981E+05 3.62859E+01 3.73773E+00-1.03977E-09-6.23186E-09
 -1       194-7.78559E+01 3.85967E+05 8.08671E+01-9.66317E+00-6.50415E-10-2.35987E-08
 -1       195-8.51806E+01 3.85978E+05 1.54888E+02 6.28466E+00-1.43134E-09-3.80169E-10
 -1       251-8.88107E+05 1.61747E+04-3.78162E+04-1.38982E+04 7.13754E-10-4.48326E-08
 -1       252-9.02922E+05-1.86896E+04-2.63899E+04 4.73749E+04-1.64346E-09-1.98993E-08
 -1       253-8.96096E+05 2.48845E+03-1.00949E+04-1.02255E+04 3.72506E-09 2.56734E-07
 -1       254-8.90433E+05-2.96278E+03-4.81517E+03 3.40125E+04-4.83192E-09 1.53577E-07
 -1       255-9.00075E+05 1.09632E+02-3.35261E+03-5.38123E+02 3.42970E-09 2.71608E-08
 -1       256-8.85449E+05-2.87148E+02 8.25701E+02 1.18436E+04 2.60457E-09 6.61862E-08
 -1       257-9.00685E+05-4.78330E+02-1.22170E+03 1.19349E+04-2.86718E-09 8.66377E-08
 -1       258-8.87729E+05 7.84400E+02 2.41339E+03-1.16705E+04 1.12324E-08 3.95198E-07
 -1       259-8.98000E+05-8.02507E+02 1.40664E+03 2.29738E+04-1.86253E-08 1.02659E-08
 -1       260-8.93146E+05 2.67061E+03 5.34527E+03-2.86275E+04 2.59382E-08-1.04300E-07
 -1       261-8.95818E+05-1.94009E+03 8.42978E+03 2.89043E+04 4.94850E-09 8.76753E-09
 -1       262-8.91446E+05 1.12390E+04 2.09187E+04-3.34126E+04-2.05495E-09 1.75409E-07
 -1       263-8.99908E+05-9.17659E+03 3.31612E+04 2.77661E+04 7.82887E-09 5.40949E-08
 -1       264-8.62143E+05 6.50118E+04 9.17180E+04-2.43369E+04 3.28014E-08 4.05807E-08
 -1       265-9.24670E+05-5.58173E+04 1.27917E+05 1.98190E+04 1.96039E-08 2.08893E-07
 -1       266-1.76825E+04-8.26911E+03 4.14845E+04-2.03581E+01 6.18456E-11 9.58705E-08
 -1       267 2.04986E+04 9.63663E+03 2.93225E+04 2.34910E+01 3.91083E-11 1.69982E-08
 -1       268-2.74884E+03-1.36488E+03 1.08989E+04-2.99307E+00-1.84627E-10-1.82159E-07
 -1       269 3.24556E+03 1.63340E+03 7.08423E+03 3.48658E+00-9.82254E-11 2.94918E-08
 -1       270-4.87162E+02-2.68383E+02 3.41966E+03-4.73149E-01-1.15961E-10 1.39154E-07
 -1       271-1.64325E+06-2.02860E+05-1.24843E+05-6.35892E+05-2.56759E-08-4.46307E-08
 -1       272-1.65947E+06-3.16990E+05-7.95277E+04-6.58968E+05 1.37707E-08 2.17648E-07
 -1       273-1.66967E+06-2.31387E+05-3.00267E+04-6.26693E+05 2.86527E-08-8.24748E-08
 -1       274-1.62817E+06-2.83627E+05-1.60872E+04-6.75055E+05 2.67682E-08-2.09555E-07
 -1       275-1.67583E+06-2.31574E+05-7.34487E+03-6.22442E+05-4.85670E-10 1.46177E-07
 -1       276-1.62088E+06-2.84454E+05-3.31620E+03-6.83910E+05 8.91305E-08 2.32392E-07
 -1       277-1.67886E+06-2.28964E+05-2.00272E+03-6.19350E+05-1.28966E-08-4.43729E-08
 -1       278-1.61768E+06-2.88137E+05-9.08122E+02-6.90443E+05-8.31551E-09 5.02368E-08
 -1       279-1.68080E+06-2.26738E+05-1.05309E+03-6.17145E+05-1.02227E-08-8.33043E-08
 -1       280-1.61605E+06-2.91036E+05-1.41657E+03-6.94803E+05-4.03224E-09-1.75474E-08
 -1       281-1.68180E+06-2.25244E+05-2.58973E+03-6.15877E+05-2.78287E-08 1.87428E-07
 -1       282-1.61649E+06-2.94066E+05-6.12672E+03-6.96609E+05-2.62235E-08-3.29101E-09
 -1       283-1.68103E+06-2.23440E+05-1.08124E+04-6.15727E+05 1.71960E-08 2.26719E-08
 -1       284-1.62622E+06-3.08834E+05-2.96567E+04-6.93824E+05-2.85009E-09-1.62077E-07
 -1       285-1.67214E+06-2.11872E+05-4.59020E+04-6.18114E+05 1.71611E-08 2.23627E-08
 -1       301-2.06396E+03-6.34244E+05 1.67743E+05-1.10462E+06-2.99769E-09-1.25583E-08
 -1       302-2.59479E+03-5.88678E+05 1.01143E+05-1.61295E+06-8.04721E-09-8.32351E-08
 -1       303-1.76867E+04-6.25487E+05 5.78700E+04-1.10165E+06 9.60426E-09-1.35260E-08
 -1       304-1.82766E+04-5.94505E+05 5.95101E+04-1.61227E+06-6.12636E-09 2.99649E-07
 -1       305-2.11715E+04-6.15053E+05 7.47053E+04-1.10476E+06 1.45046E-08 1.68569E-07
 -1       306-3.00062E+07-6.19481E+06-8.56548E+06-5.84594E+05-4.37722E-08-1.57743E-07
 -1       307 2.53351E+07 3.18153E+06 5.49638E+06-1.50468E+07-8.72315E-07 1.21858E-07
 -1       308-7.06032E+06-1.02540E+06-4.74006E+05 5.18334E+06-2.00671E-07 5.76460E-07
 -1       309-3.31557E+06 8.64930E+06 2.25806E+06-2.05711E+07 5.24451E-07 2.46862E-07
 -1       310-1.24222E+07-1.89916E+06-1.98352E+06 5.18591E+06-1.12923E-08-1.74521E-07
 -1       311 3.78378E+07 2.12018E+04 7.18924E+06-8.90322E+06 2.97092E-07-2.63070E-07
 -1       312-3.17199E+07-6.68158E+06-8.45235E+06-4.92071E+06-8.12579E-08 2.28640E-07
 -1       313 4.52378E+07 1.46764E+07 1.05873E+07 2.34545E+07-2.71713E-07 1.11584E-07
 -1       314-1.72826E+07-1.75747E+07-7.48024E+06-1.24804E+07 2.77592E-07-5.48316E-08
 -1       315-1.68862E+06 2.94465E+07 5.64562E+06 1.06533E+07-8.87798E-07 7.73580E-08
 -1       316 1.32496E+06-9.83341E+06-4.55215E+05-2.60941E+06-1.28013E-06-1.78727E-07
 -1       317-1.71490E+07 2.23055E+07 2.21495E+06-8.64421E+06 7.37629E-07-6.66209E-07
 -1       318-1.06759E+06-1.26460E+07-2.00108E+06-4.25044E+06-9.10222E-07 2.15310E-07
 -1       319 7.05671E+06 3.15874E+07 6.95716E+06 1.64395E+07-5.93573E-08 1.92318E-07
 -1       320-2.24554E+07-1.74750E+07-9.76476E+06-1.27199E+07 1.88011E-07-8.50414E-08
 -1       336-7.15846E+02-1.70786E+06-1.39263E+04 8.97000E+03-2.61716E-08 1.87501E-08
 -1       337-5.42607E+03-1.70748E+06-1.81751E+04-2.17755E+04-4.83001E-08-3.36295E-08
 -1       338 3.03889E+02-1.70735E+06-2.85932E+04 1.25572E+04-3.43516E-08-6.39920E-09
 -1       339-3.03386E+04-1.72479E+06-6.46451E+04-2.87987E+04-6.35018E-08 3.21234E-08
 -1       340 2.00186E+04-1.69273E+06-1.01812E+05 1.58629E+04-4.18586E-08 3.95994E-08
 -1       406-4.81507E+01 3.85964E+05 6.43458E+02 3.29999E+00-2.04275E-09-5.20231E-10
 -1       407 1.56049E+02 3.86098E+05 1.37496E+03 2.31940E+01-6.59021E-10 3.52884E-09
 -1       408 6.35585E+02 3.85864E+05 2.74165E+03-2.68230E+01-2.63094E-09 4.47471E-10
 -1       409 2.90472E+03 3.86973E+05 6.17927E+03 2.86202E+02-3.11161E-10-1.24865E-08
 -1       410 8.47078E+03 3.85074E+05 1.26117E+04-2.75966E+02-2.72485E-09-1.37334E-09
 -1       521-3.15135E+07-7.63133E+06-9.98733E+06-1.98793E+05-8.67294E-08-8.91159E-08
 -1       522 2.61498E+07 4.16551E+06 5.59287E+06-1.85074E+07-5.93165E-07-3.42872E-07
 -1       523-7.64731E+06-1.33256E+06-4.66391E+05 5.62405E+06 1.28872E-07-1.30705E-07
 -1       524-6.79795E+06 1.16451E+07 2.43758E+06-2.35995E+07 8.91378E-07-2.01981E-08
 -1       525-1.32230E+07-2.51572E+06-2.17614E+06 5.62646E+06 7.14790E-07-5.33473E-08
 -1       526 4.12060E+07-6.42537E+04 7.53401E+06-1.15352E+07 1.67871E-07-3.21626E-07
 -1       527-3.35189E+07-8.35222E+06-9.72484E+06-4.77839E+06 2.37254E-07-4.30155E-08
 -1       528 4.93240E+07 1.62963E+07 1.10256E+07 2.66120E+07-1.48197E-07 1.26805E-07
 -1       529-1.82175E+07-1.97342E+07-8.56148E+06-1.25071E+07-2.10246E-07 3.25963E-09
 -1       530-4.15807E+06 3.41411E+07 5.96399E+06 1.01538E+07-1.78610E-07 5.10889E-07
 -1       531 1.31316E+06-1.09030E+07-4.30096E+05-2.57731E+06-8.00603E-07 3.76254E-07
 -1       532-1.97033E+07 2.43091E+07 2.41552E+06-1.28540E+07 5.32527E-07-6.37039E-07
 -1       533-1.11491E+06-1.37776E+07-2.12427E+06-4.07874E+06-2.56114E-07-1.02358E-06
 -1       534 5.03093E+06 3.65848E+07 7.22778E+06 1.69812E+07-4.98258E-08 7.83475E-07
 -1       535-2.36069E+07-1.98157E+07-1.11738E+07-1.27776E+07 9.33651E-08 4.57163E-07
 -1       536-7.04221E+05-4.68787E+04-4.68675E+04-5.44207E+04-1.37015E-09 5.90053E-08
 -1       537-5.67364E+04 4.48960E+04 8.40924E+04 1.23345E+05-1.14127E-07 9.00191E-08
 -1       538-3.94335E+05 3.25965E+03 3.79027E+03-7.19496E+04 4.75969E-08 1.12666E-07
 -1       539-2.69732E+05 2.89956E+03 2.49144E+04 1.38220E+05 1.73495E-07 1.32114E-07
 -1       540-4.96570E+05-4.26255E+02-2.11169E+04-6.98251E+04 6.19684E-09 1.05419E-07
 -1       541 1.43399E+05 1.68722E+04 1.05760E+05 9.74928E+04-1.40758E-08 6.81705E-08
 -1       542-7.96335E+05-2.00150E+04-8.37039E+04-3.03556E+04 4.68754E-08 4.26391E-08
 -1       543 4.00476E+05 2.71597E+04 1.56996E+05-1.33211E+04 4.89445E-09-6.81666E-09
 -1       544-7.46752E+05-1.64317E+04-7.43654E+04 4.03255E+04 8.30732E-09-5.38974E-08
 -1       545 2.63492E+04 9.41299E+03 7.92874E+04-1.13165E+05-1.97618E-08-8.91689E-08
 -1       546-4.32255E+05 6.06839E+03-1.21583E+04 6.91456E+04 2.95302E-08-9.62151E-08
 -1       547-2.87749E+05-4.66040E+03 1.04673E+04-1.41064E+05-1.32912E-07-1.10621E-07
 -1       548-4.41097E+05 4.71104E+03-2.38047E+04 6.89090E+04-9.05484E-08-9.81722E-08
 -1       549 4.55021E+04 1.58384E+04 5.99644E+04-1.11012E+05-6.87214E-08-8.06140E-08
 -1       550-7.56588E+05-2.18915E+04-1.28444E+05 3.83841E+04-6.02085E-10-4.83196E-08
 -1       551 4.07378E+04-7.55767E+05-1.53231E+04-1.24688E+06-1.00685E-07-1.19326E-08
 -1       552 9.30429E+04-8.00510E+05 1.02790E+04-1.77796E+06-7.15809E-08 3.64744E-08
 -1       553 7.15471E+04-7.96990E+05 3.23253E+04-1.24026E+06-1.17478E-07 3.14758E-08
 -1       554 1.31768E+05-8.16213E+05 8.14683E+04-1.77990E+06-7.44622E-08 2.02253E-08
 -1       555 1.01313E+05-8.20597E+05 1.48694E+05-1.24010E+06-1.24062E-07-6.89579E-09
 -1       556 2.22856E+05-3.82372E+05 2.68139E+04-4.06480E+05-1.70839E-08-1.84518E-08
 -1       557 3.53262E+05-4.86541E+05 1.66827E+04-5.26482E+05 6.75209E-09 1.05138E-09
 -1       558 2.04794E+05-3.75412E+05 2.57757E+03-4.10739E+05-2.20316E-08-1.18525E-08
 -1       559 3.28250E+05-4.86772E+05 2.55777E+03-5.46825E+05 2.28174E-08-1.58689E-08
 -1       560 1.89581E+05-3.65871E+05-1.43394E+03-4.21698E+05 1.16997E-08 9.48785E-09
 -1       561 3.09120E+05-4.79125E+05 1.59397E+02-5.59863E+05-2.35304E-08-2.22826E-09
 -1       562 1.77551E+05-3.58395E+05-1.30302E+03-4.30408E+05 1.74623E-10-2.36687E-08
 -1       563 2.94831E+05-4.72896E+05-2.91119E+01-5.69194E+05 8.65839E-09-2.04736E-08
 -1       564 1.68969E+05-3.53047E+05-5.92320E+02-4.36490E+05 1.31986E-08 8.29914E-10
 -1       565 2.85359E+05-4.68771E+05 2.59082E+01-5.75245E+05 6.98492E-09 8.38872E-09
 -1       566 1.63956E+05-3.49876E+05-2.57043E+02-4.39996E+05-2.42289E-09-2.38597E-08
 -1       567 2.80763E+05-4.66772E+05-3.60458E+02-5.78036E+05 2.45273E-08 3.01588E-09
 -1       568 1.62604E+05-3.49048E+05-1.12071E+03-4.41038E+05 1.02045E-08 5.72254E-09
 -1       569 2.79658E+05-4.66701E+05-2.83071E+03-5.76600E+05 1.43136E-08 3.09592E-08
 -1       570 1.66002E+05-3.52277E+05-6.18960E+03-4.40020E+05 6.83212E-09 3.95812E-09
 -1       571 2.90222E+05 1.04977E+04 1.49798E+04-9.50050E+04 1.02600E-08-1.18607E-08
 -1       572 2.92393E+05 3.95493E+03 7.34128E+03-1.04230E+05 1.90739E-08 4.41651E-09
 -1       573 2.91084E+05 1.24244E+03 3.26197E+03-9.48287E+04 1.20826E-08-1.43309E-08
 -1       574 2.91298E+05 7.23996E+02 1.63585E+03-1.04454E+05 5.35420E-09-1.12250E-08
 -1       575 2.91178E+05 4.45254E+02 7.72072E+02-9.48046E+04 3.66134E-09 1.11404E-08
 -1       576 2.91162E+05 4.56346E+02 3.95293E+02-1.04484E+05-6.95036E-09-4.74756E-09
 -1       577 2.91217E+05 3.87255E+02 1.97333E+02-9.48013E+04-1.93177E-09 1.15642E-08
 -1       578 2.91192E+05 4.18415E+02 1.13992E+02-1.04488E+05-1.60617E-09-9.86802E-10
 -1       579 2.91289E+05 3.50735E+02 7.83034E+01-9.48009E+04 6.56473E-09-2.41926E-10
 -1       580 2.91294E+05 3.67607E+02 9.08803E+01-1.04483E+05-1.12377E-08-2.46291E-09
 -1       581 2.91403E+05 2.92419E+02 1.37302E+02-9.48068E+04 1.32986E-08 9.84983E-10
 -1       582 2.91469E+05 3.30527E+02 2.79142E+02-1.04422E+05 2.20098E-08-1.92658E-08
 -1       583 2.91542E+05 3.35130E+02 5.35825E+02-9.48633E+04 9.26593E-09-4.60022E-09
 -1       584 2.91843E+05 7.72646E+02 1.21248E+03-1.03946E+05 4.68572E-09 6.09816E-10
 -1       585 2.91568E+05 1.79342E+03 2.45528E+03-9.52816E+04-2.83762E-09 7.42148E-10
 -1       586-3.42002E+03 1.16673E+05-2.92054E+03-2.50489E+05-7.55881E-09 3.32238E-09
 -1       587-1.33328E+03 1.16423E+05 7.67259E+02-2.75682E+05-7.03221E-09-7.83962E-09
 -1       588 4.03055E+02 1.16231E+05 4.75307E+03-2.50351E+05-6.21549E-09-1.38461E-08
 -1       589 5.08552E+03 1.18701E+05 1.23307E+04-2.75449E+05-9.47875E-09 4.08454E-09
 -1       590 1.65974E+04 1.14899E+05 2.58674E+04-2.50782E+05-4.01633E-09 2.36359E-08
 -1       591-7.48609E+04-1.59579E+04-2.24999E+04-3.19198E+04-5.53473E-09 9.23137E-10
 -1       592-7.89405E+04-1.95153E+04-1.21877E+04-3.55452E+04 5.25423E-09-3.27225E-09
 -1       593-7.71112E+04-1.43252E+04-5.07315E+03-3.35695E+04 1.77152E-09-1.21854E-08
 -1       594-7.58338E+04-1.62138E+04-2.53010E+03-3.56629E+04 9.78832E-09 2.00092E-08
 -1       595-7.72827E+04-1.43199E+04-1.16158E+03-3.36445E+04 3.09142E-09 2.39623E-08
 -1       596-7.56211E+04-1.60628E+04-5.90282E+02-3.56377E+04 9.07701E-09 2.78667E-08
 -1       597-7.73042E+04-1.43352E+04-3.20986E+02-3.36473E+04 4.23915E-09 4.40082E-09
 -1       598-7.56002E+04-1.60568E+04-2.57227E+02-3.56306E+04-5.53405E-09-1.08980E-09
 -1       599-7.73030E+04-1.43358E+04-3.27570E+02-3.36470E+04 5.20390E-09-2.31839E-08
 -1       600-7.56212E+04-1.60633E+04-6.07714E+02-3.56355E+04 9.13587E-09 1.58548E-08
 -1       601-7.72783E+04-1.43212E+04-1.19847E+03-3.36435E+04 3.57250E-09 5.35738E-09
 -1       602-7.58406E+04-1.62180E+04-2.61172E+03-3.56577E+04-1.10231E-08-4.47869E-09
 -1       603-7.70985E+04-1.43297E+04-5.23746E+03-3.35669E+04 1.78466E-09 9.05584E-09
 -1       604-7.90654E+04-1.96068E+04-1.25816E+04-3.55114E+04 2.45115E-09 1.40735E-08
 -1       605-7.47555E+04-1.60330E+04-2.32272E+04-3.18832E+04 4.90735E-09 6.55018E-09
 -1       606 2.67132E+04-1.43135E+04-2.56595E+04 2.40160E+04 7.61611E-09-1.67211E-08
 -1       607 2.23288E+04-4.67458E+03-1.27784E+04 2.69887E+04 3.27600E-09-1.52986E-08
 -1       608 2.48275E+04-8.43117E+02-5.72045E+03 2.38469E+04-3.49064E-09 6.77369E-09
 -1       609 2.43485E+04-2.88617E+02-2.88982E+03 2.72030E+04 4.50473E-09 1.17620E-08
 -1       610 2.46141E+04-4.06684E+01-1.37877E+03 2.38269E+04 4.00905E-09 5.63136E-09
 -1       611 2.45388E+04-4.08572E+01-6.95164E+02 2.72261E+04 4.83851E-09 4.65184E-09
 -1       612 2.45670E+04-2.69344E+01-3.30470E+02 2.38248E+04 2.55568E-09 1.51408E-08
 -1       613 2.45503E+04-3.67339E+01-1.48063E+02 2.72288E+04 2.91357E-09 1.03796E-08
 -1       614 2.45448E+04-3.33147E+01-3.46560E+01 2.38241E+04 8.98581E-10 8.08041E-09
 -1       615 2.45450E+04-3.52176E+01 6.22173E+01 2.72293E+04-3.98768E-09-1.04528E-08
 -1       616 2.45274E+04-3.01705E+01 1.86421E+02 2.38244E+04-1.39789E-09-4.55066E-09
 -1       617 2.45674E+04 4.52809E+00 4.25271E+02 2.72288E+04 3.42880E-10-1.39612E-08
 -1       618 2.44904E+04 9.24417E+01 8.57180E+02 2.38247E+04-4.54747E-13 3.38810E-09
 -1       619 2.48699E+04 6.67312E+02 1.92485E+03 2.72282E+04-1.30149E-09 8.17522E-09
 -1       620 2.42057E+04 2.12505E+03 3.86889E+03 2.38262E+04 1.14255E-09 1.33659E-08
 -1       621 5.09208E+02 3.01140E+05 3.87780E+03 4.08785E+04 8.50378E-10-9.03674E-09
 -1       622 6.74401E+02 3.02035E+05 3.44204E+03 5.93472E+04 1.20053E-09-1.46338E-08
 -1       623 1.41558E+02 3.01334E+05 4.13692E+03 4.06936E+04 1.25306E-09-8.64929E-09
 -1       624 2.12224E+03 3.03252E+05 8.02047E+03 5.95293E+04 1.42245E-09-2.51221E-08
 -1       625 2.07398E+03 2.99743E+05 1.40157E+04 4.06904E+04 1.75896E-09-9.69294E-09
 -1       626 2.60642E+05 6.13925E+04 5.11929E+03 1.26670E+05 1.05956E-08 3.38005E-08
 -1       627 2.58323E+05 6.27912E+04 2.46694E+03 1.30944E+05 1.45337E-09 9.34494E-09
 -1       628 2.60770E+05 5.90500E+04 1.04333E+03 1.27540E+05-5.93900E-09 4.54293E-10
 -1       629 2.57687E+05 6.21115E+04 5.10660E+02 1.31185E+05-1.40972E-10 7.83400E-09
 -1       630 2.60785E+05 5.89369E+04 2.36978E+02 1.27577E+05 1.40062E-10-1.02909E-09
 -1       631 2.57621E+05 6.20857E+04 1.27651E+02 1.31187E+05 5.54928E-09 1.43320E-08
 -1       632 2.60781E+05 5.89408E+04 8.42189E+01 1.27573E+05 6.99083E-09-1.62800E-08
 -1       633 2.57612E+05 6.20875E+04 9.41578E+01 1.31183E+05 6.66773E-09-2.37708E-08
 -1       634 2.60777E+05 5.89380E+04 1.52461E+02 1.27572E+05-1.32002E-09 1.36772E-08
 -1       635 2.57627E+05 6.20858E+04 3.08687E+02 1.31189E+05-4.65167E-09 1.49685E-08
 -1       636 2.60767E+05 5.89322E+04 6.23488E+02 1.27572E+05 8.50946E-09 9.03628E-09
 -1       637 2.57762E+05 6.21828E+04 1.37095E+03 1.31188E+05 1.65965E-08 8.56153E-09
 -1       638 2.60719E+05 5.92351E+04 2.81681E+03 1.27435E+05 1.02336E-08 1.70030E-09
 -1       639 2.59241E+05 6.42407E+04 6.66471E+03 1.30752E+05 5.57907E-09 5.16957E-09
 -1       640 2.60514E+05 6.53802E+04 1.38304E+04 1.24846E+05 5.12864E-09-5.65728E-09
 -1       656 6.65337E+04-1.70270E+06-1.60608E+05-2.53939E+03-2.83762E-10-1.29278E-08
 -1       657-8.80181E+04-1.77528E+06-1.33054E+05 5.18736E+03-7.31234E-10-1.05664E-08
 -1       658 2.12085E+04-1.72331E+06-8.19441E+04-4.62177E+03 1.38698E-09-1.68292E-08
 -1       659-9.51770E+04-1.77868E+06-1.42462E+05 6.91608E+03-5.18412E-10-6.34438E-09
 -1       660 7.36767E+04-1.69931E+06-1.76783E+05-4.26810E+03-6.47560E-10 1.42379E-08
 -1       661 1.58717E+05 1.66120E+04 1.67252E+04 6.20465E+04 2.13822E-09 1.70021E-08
 -1       662 1.68171E+05 2.90002E+04 1.12716E+04 5.82968E+04-5.89893E-09 3.83989E-09
 -1       663 1.62002E+05 2.19777E+04 3.94210E+03 6.10931E+04 6.80188E-10 9.39735E-09
 -1       664 1.64362E+05 2.27255E+04 2.35819E+03 5.94614E+04-1.01841E-09-9.47466E-10
 -1       665 1.62501E+05 2.27105E+04 9.30290E+02 6.09476E+04 1.36015E-09-9.80680E-09
 -1       666 1.63772E+05 2.18875E+04 5.44544E+02 5.96511E+04 9.64417E-09-1.03087E-08
 -1       667 1.62588E+05 2.27939E+04 2.89420E+02 6.09112E+04 4.24802E-09-2.38530E-09
 -1       668 1.63676E+05 2.18276E+04 2.95325E+02 5.97042E+04-2.76903E-09-3.32168E-08
 -1       669 1.62596E+05 2.27687E+04 4.00176E+02 6.08949E+04-2.79289E-09 3.22132E-10
 -1       670 1.63773E+05 2.20450E+04 8.71715E+02 5.97071E+04-1.14001E-08-1.14502E-08
 -1       671 1.62491E+05 2.25810E+04 1.54790E+03 6.09062E+04 1.99401E-09-1.08923E-08
 -1       672 1.64675E+05 2.35509E+04 3.96036E+03 5.94885E+04 5.24311E-09-1.93634E-08
 -1       673 1.61699E+05 2.13009E+04 6.63697E+03 6.10989E+04 2.85399E-09-7.44421E-10
 -1       674 1.70992E+05 3.42139E+04 1.89803E+04 5.76328E+04-5.57611E-09 3.58705E-09
 -1       675 1.56215E+05 1.22167E+04 2.81735E+04 6.26499E+04-9.29958E-10 1.06938E-08
 -1       676 2.41057E+01-2.95805E+05-1.11331E+03-1.36088E+02 1.73088E-09-1.47757E-08
 -1       677-2.94520E+02-2.96074E+05-2.03755E+03 2.71957E+02 1.20454E-08-4.23379E-09
 -1       678 1.97522E+02-2.95613E+05-3.60189E+03-1.35780E+02 1.61981E-09-9.53520E-10
 -1       679-3.60197E+03-2.98248E+05-8.55659E+03 2.70783E+02 6.85304E-09 1.30164E-09
 -1       680 2.15057E+03-2.93632E+05-1.37903E+04-1.33414E+02 2.46473E-09-1.31876E-08
 -1       771-3.06220E+06-7.45852E+05-1.64552E+05-1.46483E+06-3.22761E-08-3.03262E-08
 -1       772-2.98531E+06-8.34353E+05-8.48363E+04-1.56715E+06-1.97033E-08 6.78847E-09
 -1       773-3.09348E+06-7.21456E+05-4.32499E+04-1.47922E+06-6.66478E-09 1.00408E-08
 -1       774-2.97584E+06-8.16012E+05-1.92952E+04-1.59276E+06 2.43308E-08-6.85395E-09
 -1       775-3.10981E+06-7.09990E+05-1.44346E+04-1.48621E+06-8.09086E-09 2.37196E-09
 -1       776-2.98808E+06-8.13017E+05-5.39765E+03-1.61213E+06-7.74162E-09 2.90675E-09
 -1       777-3.12399E+06-6.99759E+05-6.37820E+03-1.49237E+06 9.74978E-09 8.56380E-09
 -1       778-3.00086E+06-8.10229E+05-1.80314E+03-1.62877E+06 1.82044E-08 1.00226E-08
 -1       779-3.13617E+06-6.90820E+05-3.18758E+03-1.49764E+06-1.12777E-08-4.78758E-09
 -1       780-3.01212E+06-8.07569E+05-5.28730E+02-1.64232E+06-2.74813E-08-1.84809E-09
 -1       781-3.14585E+06-6.83614E+05-1.23877E+03-1.50176E+06-3.48082E-08 1.29512E-09
 -1       782-3.02079E+06-8.05309E+05 4.45324E+02-1.65233E+06-3.55431E-08-2.53794E-09
 -1       783-3.15267E+06-6.78607E+05 6.92685E+02-1.50464E+06-1.19398E-08-1.57393E-08
 -1       784-3.02560E+06-8.03049E+05 2.87499E+03-1.65850E+06-2.38651E-08 9.47648E-09
 -1       785-3.15671E+06-6.75622E+05 5.07480E+03-1.50647E+06-4.27681E-08 8.73479E-09
 -1       786 1.23892E+05-9.77288E+03 2.26105E+04-3.21088E+02 2.83472E-09-1.04892E-08
 -1       787 1.33698E+05 1.13148E+04 1.59960E+04-1.34493E+02 6.26680E-09-2.51987E-08
 -1       788 1.27673E+05-1.53144E+03 5.84984E+03-2.85998E+02 2.21149E-09-2.11685E-09
 -1       789 1.29293E+05 1.77260E+03 3.67233E+03-1.88275E+02 2.70263E-10 1.52088E-08
 -1       790 1.28297E+05-2.38447E+02 1.48691E+03-2.67324E+02-3.29141E-09 1.61594E-08
 -1       791 1.28563E+05 2.75887E+02 8.58881E+02-2.20227E+02-9.03746E-09-1.94308E-09
 -1       792 1.28403E+05-3.58510E+01 3.64116E+02-2.54047E+02-4.22329E-09 1.89999E-10
 -1       793 1.28437E+05 3.79483E+01 1.81864E+02-2.45199E+02 4.28841E-10 5.30743E-09
 -1       794 1.28424E+05-6.58205E-01 4.79545E+01-2.42352E+02 3.37155E-09 2.08048E-09
 -1       795 1.28400E+05-2.69058E+01-5.60181E+01-2.69599E+02-4.05310E-09-9.06605E-09
 -1       796 1.28440E+05 2.89667E+01-1.59747E+02-2.29647E+02 4.86380E-09 1.42296E-09
 -1       797 1.28307E+05-2.16332E+02-4.39365E+02-2.98775E+02 3.28677E-09 1.41381E-08
 -1       798 1.28517E+05 1.88626E+02-7.13758E+02-2.13176E+02 1.78849E-09 8.38247E-09
 -1       799 1.27765E+05-1.39035E+03-1.96384E+03-3.39549E+02 5.71469E-09 1.10819E-08
 -1       800 1.28981E+05 1.20202E+03-2.77930E+03-1.88874E+02 6.61013E-10 2.13272E-08
 -1       801-1.67962E+05-9.93746E+06-1.38333E+06 1.40050E+06 9.46457E-08-6.17729E-08
 -1       802 7.28821E+05 5.85440E+06 2.15763E+06-1.72724E+06 2.58697E-07-3.55067E-08
 -1       803-5.31102E+05-1.41562E+07-1.87153E+06 8.89163E+05 7.67723E-08 1.94559E-08
 -1       804 2.83541E+05 2.32922E+06 1.52017E+06 6.72152E+05-1.20646E-07-9.00554E-08
 -1       805 1.88080E+05-6.42650E+06-2.83161E+05-9.93277E+05-5.01896E-08-6.21239E-08
 -1       806-3.08627E+05-5.96979E+04-2.28312E+04-1.22290E+05-3.04999E-09 7.26732E-09
 -1       807-3.10424E+05-5.59701E+04-1.12168E+04-1.27829E+05 1.19578E-08 2.79040E-08
 -1       808-3.09253E+05-5.14698E+04-4.75851E+03-1.26180E+05-4.16185E-09-7.51788E-09
 -1       809-3.08066E+05-5.28184E+04-2.32679E+03-1.28104E+05-8.19728E-09 5.07077E-09
 -1       810-3.09348E+05-5.11833E+04-1.06650E+03-1.26352E+05 8.75616E-09 3.88361E-08
 -1       811-3.07883E+05-5.26918E+04-5.30388E+02-1.28069E+05 1.71303E-09 8.03993E-10
 -1       812-3.09362E+05-5.12080E+04-2.68323E+02-1.26352E+05-4.87853E-09 5.09044E-09
 -1       813-3.07858E+05-5.26939E+04-1.74510E+02-1.28050E+05-3.23735E-09-1.46711E-08
 -1       814-3.09355E+05-5.12177E+04-1.73145E+02-1.26347E+05-2.13004E-09-2.62685E-08
 -1       815-3.07862E+05-5.26962E+04-2.79150E+02-1.28043E+05 9.40054E-09-5.75142E-09
 -1       816-3.09334E+05-5.12168E+04-5.29199E+02-1.26344E+05 8.14816E-09 2.36391E-08
 -1       817-3.07952E+05-5.27466E+04-1.13577E+03-1.28031E+05-9.12587E-09-6.33736E-09
 -1       818-3.09265E+05-5.13772E+04-2.31660E+03-1.26268E+05-1.66983E-09 8.92624E-09
 -1       819-3.09219E+05-5.41462E+04-5.45079E+03-1.27731E+05-2.08638E-09-1.27172E-08
 -1       820-3.08828E+05-5.54948E+04-1.10944E+04-1.24509E+05 2.00362E-09-8.20160E-09
 -1       821-3.78769E+05 2.08586E+04-4.85495E+04 2.11148E+03 1.41582E-08-8.90941E-09
 -1       822-3.98487E+05-2.41632E+04-3.41239E+04-4.42629E+03 5.20692E-09-2.76987E-09
 -1       823-3.86240E+05 3.28779E+03-1.25404E+04 3.40779E+03-1.14637E-08 4.05407E-09
 -1       824-3.89472E+05-3.79161E+03-7.85017E+03-5.32543E+03 1.16264E-09 1.05085E-08
 -1       825-3.87791E+05 5.10959E+02-3.28657E+03 3.01074E+03 2.04982E-08 2.89560E-10
 -1       826-3.87054E+05-5.67567E+02-1.74625E+03-3.06792E+03 2.66286E-08-1.35028E-08
 -1       827-3.88634E+05 4.74932E+01-1.18663E+03 1.15015E+03 1.21998E-08-2.25022E-08
 -1       828-3.86358E+05-1.32819E+02-5.90842E+02 1.09020E+03-2.00544E-10 2.10190E-08
 -1       829-3.88474E+05 6.63519E+01-1.17589E+03-1.14741E+03 2.70910E-09 1.34213E-09
 -1       830-3.87401E+05-6.21839E+02-1.88373E+03 4.84489E+03 3.07850E-09 2.46162E-08
 -1       831-3.87614E+05 5.53862E+02-3.36879E+03-2.60456E+03-4.73518E-09 1.56710E-08
 -1       832-3.89553E+05-3.95796E+03-8.15300E+03 6.11265E+03-1.62729E-09 3.65105E-09
 -1       833-3.86338E+05 3.41180E+03-1.30442E+04-2.41522E+03-2.34476E-09 3.09228E-10
 -1       834-3.98551E+05-2.50771E+04-3.53480E+04 4.15616E+03-1.82592E-09-1.41881E-10
 -1       835-3.78599E+05 2.16404E+04-5.04201E+04-6.47993E+02 6.22552E-09 2.33085E-08
 -1       836-1.41221E+03 3.69870E+05 2.28853E+04-1.61563E+04-6.87396E-09-2.08138E-09
 -1       837 4.87915E+03 3.77038E+05 1.93629E+04-3.30114E+04-7.35531E-09-3.13412E-08
 -1       838-5.57200E+02 3.71880E+05 1.97250E+04-1.60848E+04-6.21185E-09 9.71295E-09
 -1       839 1.24128E+04 3.82648E+05 3.73104E+04-3.30638E+04-6.52608E-09-6.97764E-09
 -1       840-3.83727E+03 3.64200E+05 5.94949E+04-1.61097E+04-6.19912E-09 4.28963E-09
 -1       856-5.23856E+04 8.02730E+03-2.11537E+04-3.97867E+02 5.64546E-09 6.12636E-09
 -1       857-6.11006E+04-9.43170E+03-1.45620E+04 5.63148E+03 2.19379E-09-1.15779E-09
 -1       858-5.58369E+04 1.12574E+03-5.48888E+03-4.21977E+02 2.80966E-09-1.76162E-08
 -1       859-5.71399E+04-1.32428E+03-3.31229E+03 5.66736E+03-2.43004E-09-4.03395E-09
 -1       860-5.63525E+04 1.57650E+02-1.38819E+03-4.33484E+02 1.35660E-09-1.03666E-08
 -1       861-5.65468E+04-1.88090E+02-7.63685E+02 5.68304E+03 9.51474E-10 1.35847E-08
 -1       862-5.64332E+04 2.13512E+01-3.17484E+02-4.37629E+02-2.12884E-09-1.01795E-08
 -1       863-5.64479E+04-2.17571E+01-1.15718E+02 5.68544E+03 5.25034E-10-1.09486E-09
 -1       864-5.64519E+04-4.89900E+00 4.70646E+01-4.35888E+02-5.95223E-09-4.34738E-10
 -1       865-5.63922E+04 5.96755E+01 2.54990E+02 5.67550E+03-3.51635E-09 2.38185E-09
 -1       866-5.64867E+04-6.01013E+01 5.13957E+02-4.27693E+02-2.13731E-11 1.25506E-08
 -1       867-5.61504E+04 4.96332E+02 1.26511E+03 5.65326E+03 1.75783E-09 2.56852E-08
 -1       868-5.66887E+04-4.33678E+02 2.10225E+03-4.13640E+02-1.22424E-09 1.10397E-08
 -1       869-5.46092E+04 3.60932E+03 5.59760E+03 5.61664E+03 3.28436E-09-1.37024E-08
 -1       870-5.80202E+04-3.08855E+03 8.12337E+03-3.90977E+02-4.26371E-09-3.32966E-09
 -1       871-5.51708E+03-2.12808E+04-1.94741E+04 1.30306E+05-3.80714E-09 9.72159E-09
 -1       872-1.98472E+03-2.58081E+04-8.15349E+03 1.68961E+05-9.38053E-09-1.27220E-08
 -1       873 4.01692E+02-2.36189E+04 5.91222E+02 1.30020E+05-4.92128E-09-3.82863E-09
 -1       874 3.30020E+03-2.12082E+04 9.77554E+03 1.68991E+05-1.02600E-08 1.29046E-08
 -1       875 6.83995E+03-2.59477E+04 2.20514E+04 1.30258E+05-3.43425E-09 2.02663E-08
 -1       876 2.93589E+05 4.94847E+04 1.50921E+04 1.17821E+05 1.03955E-09-4.96584E-10
 -1       877 2.94586E+05 5.26635E+04 8.05978E+03 1.22151E+05 5.50335E-09-1.46101E-08
 -1       878 2.95000E+05 4.78129E+04 3.37665E+03 1.19058E+05-7.61929E-09-4.80213E-09
 -1       879 2.92535E+05 5.06161E+04 1.68246E+03 1.22253E+05 6.64522E-09-4.70146E-09
 -1       880 2.95101E+05 4.77956E+04 7.83668E+02 1.19108E+05-1.38948E-09-9.61552E-09
 -1       881 2.92398E+05 5.05285E+04 4.18511E+02 1.22229E+05-9.37814E-09-9.80434E-09
 -1       882 2.95110E+05 4.78089E+04 2.67772E+02 1.19110E+05-6.36169E-09-6.14110E-09
 -1       883 2.92389E+05 5.05240E+04 2.87923E+02 1.22222E+05-9.61836E-09 5.29485E-09
 -1       884 2.95104E+05 4.78061E+04 4.58067E+02 1.19110E+05-1.78602E-09 8.17920E-09
 -1       885 2.92425E+05 5.05303E+04 9.20998E+02 1.22233E+05-8.76327E-09 4.18299E-09
 -1       886 2.95068E+05 4.77792E+04 1.85624E+03 1.19106E+05-2.77943E-09 3.51656E-09
 -1       887 2.92751E+05 5.07442E+04 4.05471E+03 1.22280E+05 4.45766E-09 9.02492E-09
 -1       888 2.94812E+05 4.78243E+04 8.17036E+03 1.18977E+05 4.60400E-09-1.88529E-08
 -1       889 2.97615E+05 5.58026E+04 1.95175E+04 1.22131E+05 4.19136E-09-1.16211E-08
 -1       890 2.91477E+05 5.17856E+04 3.65558E+04 1.15867E+05 5.14137E-09-3.13048E-09
 -1       891-8.98803E+01-1.62686E+05-1.99538E+03 2.71502E+04-2.96836E-09-3.52384E-09
 -1       892-1.76144E+02-1.63213E+05-2.14302E+03 4.12281E+04 1.05547E-09 1.83575E-08
 -1       893 4.31017E+01-1.62750E+05-3.03423E+03 2.71575E+04-1.59798E-09 9.02219E-09
 -1       894-1.51009E+03-1.64359E+05-6.27967E+03 4.10756E+04 2.41289E-09-2.05546E-10
 -1       895-1.19918E+03-1.61442E+05-1.10584E+04 2.73045E+04-1.31422E-09 3.22143E-09
 -1       956-3.76962E+05-5.44482E+03-1.34433E+04 3.08077E+04 5.16684E-09-4.94492E-09
 -1       957-3.79600E+05-1.91993E+03-6.90022E+03 3.70235E+04-5.04770E-09-2.86591E-08
 -1       958-3.78170E+05-2.39776E+02-3.10946E+03 3.06402E+04-4.61205E-09-4.68162E-09
 -1       959-3.78367E+05-1.35007E+02-1.58774E+03 3.72188E+04 2.70120E-09 7.49378E-09
 -1       960-3.78288E+05-4.38349E+01-7.74258E+02 3.06229E+04 3.08592E-09-1.66751E-08
 -1       961-3.78286E+05-6.20519E+01-4.10506E+02 3.72392E+04 3.09228E-11-1.86214E-08
 -1       962-3.78316E+05-4.50776E+01-2.35028E+02 3.06201E+04-8.04903E-11 1.61299E-08
 -1       963-3.78287E+05-5.78742E+01-1.88677E+02 3.72429E+04-1.95917E-09 2.08802E-08
 -1       964-3.78321E+05-4.17286E+01-2.29454E+02 3.06193E+04 3.17311E-09 6.75345E-09
 -1       965-3.78299E+05-5.49119E+01-3.96868E+02 3.72422E+04 4.35944E-09-2.57646E-08
 -1       966-3.78305E+05-3.38819E+01-7.45707E+02 3.06208E+04 4.54156E-09 1.02382E-08
 -1       967-3.78388E+05-1.18397E+02-1.52943E+03 3.72278E+04-8.39145E-09 1.72340E-08
 -1       968-3.78201E+05-2.16235E+02-2.99408E+03 3.06334E+04-1.30876E-09 1.21290E-08
 -1       969-3.79588E+05-1.83217E+03-6.64677E+03 3.70796E+04 4.03588E-09 1.97599E-09
 -1       970-3.77046E+05-5.22613E+03-1.29483E+04 3.07605E+04-3.58523E-09-1.63709E-09
 -1       971-3.45198E+05-1.72682E+03-9.30854E+03 1.53742E+04 4.61569E-09-3.13551E-09
 -1       972-3.47439E+05-1.27103E+03-5.06933E+03 2.12642E+04 2.39334E-09 2.57842E-09
 -1       973-3.46235E+05-6.16232E+01-2.27060E+03 1.52530E+04 4.90581E-09-1.43950E-09
 -1       974-3.46370E+05-8.05015E+01-1.17700E+03 2.14013E+04 6.67410E-09-7.57996E-09
 -1       975-3.46317E+05-1.67530E+01-5.88799E+02 1.52407E+04-3.50838E-09-8.07620E-09
 -1       976-3.46309E+05-3.06628E+01-3.40524E+02 2.14171E+04 1.43154E-09-2.38776E-08
 -1       977-3.46334E+05-1.60066E+01-2.48631E+02 1.52373E+04-4.59681E-09-7.51993E-09
 -1       978-3.46314E+05-2.44382E+01-2.92973E+02 2.14219E+04-7.32950E-09-3.35410E-09
 -1       979-3.46333E+05-7.53208E+00-4.72456E+02 1.52358E+04-3.50479E-09 5.70515E-09
 -1       980-3.46350E+05-2.13776E+01-9.13343E+02 2.14229E+04-5.59875E-09 1.99861E-09
 -1       981-3.46304E+05 1.52970E+01-1.76951E+03 1.52363E+04 7.26345E-10 4.02531E-09
 -1       982-3.46593E+05-1.52126E+02-3.65785E+03 2.14163E+04 8.50378E-11-8.62536E-09
 -1       983-3.46081E+05-9.80107E+01-7.10740E+03 1.52424E+04-8.30596E-09 2.36423E-09
 -1       984-3.50011E+05-3.86411E+03-1.59168E+04 2.13306E+04-8.35462E-09 4.75848E-09
 -1       985-3.42863E+05-5.29876E+03-2.92282E+04 1.53139E+04-5.43787E-09-1.08776E-09
 -3
    1PSTEP                        37          19           1          
  100CL  119 6.62759E-01         409                     0   19           1
 -4  DISP        4    1
 -5  D1          1    2    1    0
 -5  D2          1    2    2    0
 -5  D3          1    2    3    0
 -5  ALL         1    2    0    0    1ALL
 -1         1 2.68696E-03 0.00000E+00 0.00000E+00
 -1         2 1.38776E-03-5.89991E-28 5.29396E-23
 -1         3 3.41842E-04-5.12065E-28 0.00000E+00
 -1         5 1.76823E-04-2.21989E-27 3.30872E-24
 -1         8 2.67541E-03-4.15860E-07 0.00000E+00
 -1         9 2.66902E-03-1.73081E-04 0.00000E+00
 -1        10 3.09960E-04-3.42656E-06 0.00000E+00
 -1        12 1.78654E-04 8.08539E-07 4.13590E-25
 -1        15 2.66200E-03-4.41979E-07 0.00000E+00
 -1        16 2.72749E-03-1.74797E-04 0.00000E+00
 -1        17 2.10965E-04-7.80609E-06 0.00000E+00
 -1        18 1.82556E-04 3.42071E-05 0.00000E+00
 -1        19 1.84148E-04 1.61070E-06 0.00000E+00
 -1        20 1.84287E-04-9.69347E-06 0.00000E+00
 -1        21 1.83396E-04-2.50242E-05-3.30872E-24
 -1        24 3.06051E-05-1.20245E-05 0.00000E+00
 -1        25 1.93262E-04 3.44325E-05 0.00000E+00
 -1        26 1.93943E-04 2.23042E-06 0.00000E+00
 -1        27 1.91744E-04-1.32496E-05 0.00000E+00
 -1        28 1.91428E-04-2.56460E-05 0.00000E+00
 -1        32 0.00000E+00 0.00000E+00 0.00000E+00
 -1        33 2.02733E-04 2.98373E-06 0.00000E+00
 -1        34 2.00616E-04-1.33056E-05 0.00000E+00
 -1        35 1.98685E-04-2.59882E-05 0.00000E+00
 -1        51 2.68619E-03-8.63143E-08 3.30872E-24
 -1        52 2.68478E-03-1.54472E-07 0.00000E+00
 -1        53 2.68287E-03-2.19272E-07 0.00000E+00
 -1        54 2.68057E-03-2.82953E-07 0.00000E+00
 -1        55 2.67804E-03-3.47274E-07 1.65436E-24
 -1        56 2.68015E-03 6.34473E-06-5.29396E-23
 -1        57 2.66763E-03 2.68638E-05 5.29396E-23
 -1        58 2.65124E-03 5.69947E-05 1.05879E-22
 -1        59 2.63313E-03 9.12400E-05 0.00000E+00
 -1        60 2.61587E-03 1.23402E-04 0.00000E+00
 -1        61 2.60191E-03 1.47451E-04 5.29396E-23
 -1        62 2.59297E-03 1.58810E-04-1.05879E-22
 -1        63 2.59017E-03 1.54028E-04 0.00000E+00
 -1        64 2.59339E-03 1.32603E-04 0.00000E+00
 -1        65 2.60200E-03 9.55824E-05 0.00000E+00
 -1        66 2.61447E-03 4.69389E-05 1.05879E-22
 -1        67 2.62904E-03-8.23790E-06 5.29396E-23
 -1        68 2.64368E-03-6.36122E-05 0.00000E+00
 -1        69 2.65636E-03-1.12822E-04-5.29396E-23
 -1        70 2.66528E-03-1.50688E-04 5.29396E-23
 -1        86 1.46830E-03-5.57015E-06 0.00000E+00
 -1        87 1.70184E-03-3.45923E-05-2.64698E-23
 -1        88 2.01575E-03-8.43095E-05 2.64698E-23
 -1        89 2.33357E-03-1.35287E-04-1.32349E-23
 -1        90 2.57659E-03-1.66458E-04-5.29396E-23
 -1       121 3.40947E-04-5.53436E-07 1.32349E-23
 -1       122 3.38264E-04-1.10995E-06 6.61744E-24
 -1       123 3.33804E-04-1.67256E-06 1.32349E-23
 -1       124 3.27584E-04-2.24430E-06 0.00000E+00
 -1       125 3.19625E-04-2.82780E-06-1.32349E-23
 -1       191 1.76874E-04 1.34819E-07 1.65436E-24
 -1       192 1.77027E-04 2.69627E-07-1.65436E-24
 -1       193 1.77281E-04 4.04416E-07 2.48154E-24
 -1       194 1.77637E-04 5.39172E-07 8.27181E-25
 -1       195 1.78095E-04 6.73884E-07 2.48154E-24
 -1       251 2.67510E-03 1.80983E-06 6.61744E-24
 -1       252 2.67480E-03 3.93182E-06 3.30872E-24
 -1       253 2.67449E-03 5.02905E-06 0.00000E+00
 -1       254 2.67418E-03 4.19328E-06-3.30872E-24
 -1       255 2.67387E-03 8.11765E-07-6.61744E-24
 -1       256 2.67354E-03-5.69613E-06 0.00000E+00
 -1       257 2.67318E-03-1.54334E-05-6.61744E-24
 -1       258 2.67279E-03-2.84622E-05 3.30872E-24
 -1       259 2.67236E-03-4.43424E-05-1.32349E-23
 -1       260 2.67190E-03-6.25974E-05-6.61744E-24
 -1       261 2.67140E-03-8.23877E-05-1.32349E-23
 -1       262 2.67089E-03-1.02855E-04 0.00000E+00
 -1       263 2.67038E-03-1.23038E-04 1.32349E-23
 -1       264 2.66990E-03-1.41977E-04-6.61744E-24
 -1       265 2.66945E-03-1.58906E-04 0.00000E+00
 -1       266 2.67317E-03-4.26077E-07 0.00000E+00
 -1       267 2.67094E-03-4.29715E-07 0.00000E+00
 -1       268 2.66870E-03-4.33770E-07 0.00000E+00
 -1       269 2.66647E-03-4.36591E-07-2.06795E-25
 -1       270 2.66424E-03-4.39383E-07-2.06795E-25
 -1       271 2.67439E-03 3.53552E-07-1.32349E-23
 -1       272 2.67424E-03-1.25450E-06 0.00000E+00
 -1       273 2.67492E-03-5.11529E-06 0.00000E+00
 -1       274 2.67639E-03-1.10919E-05 0.00000E+00
 -1       275 2.67857E-03-1.90237E-05 2.64698E-23
 -1       276 2.68141E-03-2.87336E-05 0.00000E+00
 -1       277 2.68482E-03-4.00256E-05-2.64698E-23
 -1       278 2.68873E-03-5.26897E-05 0.00000E+00
 -1       279 2.69305E-03-6.65022E-05 0.00000E+00
 -1       280 2.69770E-03-8.12281E-05 1.32349E-23
 -1       281 2.70259E-03-9.66236E-05 2.64698E-23
 -1       282 2.70763E-03-1.12439E-04 0.00000E+00
 -1       283 2.71273E-03-1.28419E-04 0.00000E+00
 -1       284 2.71780E-03-1.44309E-04 6.61744E-24
 -1       285 2.72275E-03-1.59853E-04 0.00000E+00
 -1       301 2.67966E-03-1.73398E-04-1.32349E-23
 -1       302 2.68873E-03-1.73673E-04 0.00000E+00
 -1       303 2.69713E-03-1.73938E-04 0.00000E+00
 -1       304 2.70578E-03-1.74204E-04-6.61744E-24
 -1       305 2.71560E-03-1.74483E-04 0.00000E+00
 -1       306 2.70655E-03-3.25922E-04 0.00000E+00
 -1       307 2.77049E-03-7.37585E-04 0.00000E+00
 -1       308 2.81765E-03-1.34045E-03-1.05879E-22
 -1       309 2.84204E-03-2.03907E-03 0.00000E+00
 -1       310 2.87360E-03-2.70818E-03-1.05879E-22
 -1       311 2.93305E-03-3.22509E-03-5.29396E-23
 -1       312 2.99114E-03-3.50927E-03 0.00000E+00
 -1       313 2.98763E-03-3.52243E-03 5.29396E-23
 -1       314 2.84917E-03-3.27614E-03 0.00000E+00
 -1       315 2.53479E-03-2.83414E-03 0.00000E+00
 -1       316 2.06237E-03-2.27274E-03 0.00000E+00
 -1       317 1.49708E-03-1.66127E-03-5.29396E-23
 -1       318 9.52452E-04-1.06062E-03 1.05879E-22
 -1       319 5.35913E-04-5.35890E-04 0.00000E+00
 -1       320 2.91197E-04-1.60899E-04 0.00000E+00
 -1       336 2.98401E-04-4.08841E-06 1.32349E-23
 -1       337 2.84772E-04-4.77581E-06-6.61744E-24
 -1       338 2.69136E-04-5.49095E-06 1.32349E-23
 -1       339 2.51566E-04-6.23463E-06 0.00000E+00
 -1       340 2.32145E-04-7.01128E-06-1.32349E-23
 -1       406 1.79315E-04 9.43118E-07 3.30872E-24
 -1       407 1.80078E-04 1.07758E-06-4.13590E-25
 -1       408 1.80943E-04 1.21189E-06 0.00000E+00
 -1       409 1.81910E-04 1.34585E-06 0.00000E+00
 -1       410 1.82979E-04 1.47921E-06-3.30872E-24
 -1       521 2.76564E-03-3.36865E-04 1.05879E-22
 -1       522 2.82787E-03-7.68457E-04-5.29396E-23
 -1       523 2.86875E-03-1.39860E-03 0.00000E+00
 -1       524 2.88417E-03-2.12522E-03-5.29396E-23
 -1       525 2.90802E-03-2.82035E-03-1.05879E-22
 -1       526 2.96397E-03-3.35886E-03 0.00000E+00
 -1       527 3.02162E-03-3.65351E-03-2.11758E-22
 -1       528 3.01590E-03-3.66506E-03 0.00000E+00
 -1       529 2.86583E-03-3.40501E-03 0.00000E+00
 -1       530 2.52821E-03-2.94485E-03 0.00000E+00
 -1       531 2.02165E-03-2.36459E-03-1.05879E-22
 -1       532 1.41763E-03-1.73614E-03 5.29396E-23
 -1       533 8.34855E-04-1.11787E-03-1.05879E-22
 -1       534 3.85746E-04-5.72606E-04-5.29396E-23
 -1       535 1.20213E-04-1.78388E-04 2.11758E-22
 -1       536 2.10214E-04 2.70149E-05 0.00000E+00
 -1       537 2.08306E-04 8.72807E-05 1.65436E-24
 -1       538 2.05358E-04 1.63750E-04 0.00000E+00
 -1       539 2.01882E-04 2.47098E-04 0.00000E+00
 -1       540 1.98753E-04 3.25855E-04-3.30872E-24
 -1       541 1.96719E-04 3.88574E-04 0.00000E+00
 -1       542 1.95781E-04 4.28521E-04 0.00000E+00
 -1       543 1.95556E-04 4.39107E-04 1.65436E-24
 -1       544 1.95235E-04 4.21105E-04 3.30872E-24
 -1       545 1.94068E-04 3.75508E-04 0.00000E+00
 -1       546 1.91894E-04 3.10421E-04 0.00000E+00
 -1       547 1.88952E-04 2.34071E-04 1.65436E-24
 -1       548 1.86037E-04 1.58098E-04-3.30872E-24
 -1       549 1.83934E-04 9.41451E-05 0.00000E+00
 -1       550 1.82841E-04 5.02204E-05 1.65436E-24
 -1       551 1.85834E-04-8.37513E-06 0.00000E+00
 -1       552 1.57463E-04-9.02421E-06 0.00000E+00
 -1       553 1.26796E-04-9.73521E-06 1.32349E-23
 -1       554 9.47918E-05-1.04871E-05-3.30872E-24
 -1       555 6.24098E-05-1.12525E-05 0.00000E+00
 -1       556 2.03341E-04 1.16894E-05 0.00000E+00
 -1       557 1.97182E-04 2.74991E-05 0.00000E+00
 -1       558 1.92354E-04 3.99103E-05 0.00000E+00
 -1       559 1.88724E-04 4.92327E-05 0.00000E+00
 -1       560 1.86163E-04 5.57766E-05 0.00000E+00
 -1       561 1.84543E-04 5.98545E-05 0.00000E+00
 -1       562 1.83739E-04 6.17805E-05 0.00000E+00
 -1       563 1.83628E-04 6.18694E-05-1.32349E-23
 -1       564 1.84087E-04 6.04369E-05 0.00000E+00
 -1       565 1.84997E-04 5.77995E-05 0.00000E+00
 -1       566 1.86237E-04 5.42740E-05 0.00000E+00
 -1       567 1.87689E-04 5.01779E-05 3.30872E-24
 -1       568 1.89235E-04 4.58286E-05-1.65436E-24
 -1       569 1.90758E-04 4.15437E-05 0.00000E+00
 -1       570 1.92138E-04 3.76407E-05 0.00000E+00
 -1       571 1.82652E-04 3.20922E-05 3.30872E-24
 -1       572 1.82751E-04 2.99118E-05 0.00000E+00
 -1       573 1.82850E-04 2.76813E-05-1.65436E-24
 -1       574 1.82949E-04 2.54173E-05 0.00000E+00
 -1       575 1.83048E-04 2.31360E-05 0.00000E+00
 -1       576 1.83148E-04 2.08539E-05-1.65436E-24
 -1       577 1.83247E-04 1.85874E-05 0.00000E+00
 -1       578 1.83347E-04 1.63532E-05 6.61744E-24
 -1       579 1.83446E-04 1.41676E-05 0.00000E+00
 -1       580 1.83546E-04 1.20471E-05 0.00000E+00
 -1       581 1.83646E-04 1.00083E-05 0.00000E+00
 -1       582 1.83746E-04 8.06753E-06 0.00000E+00
 -1       583 1.83846E-04 6.24131E-06 6.61744E-24
 -1       584 1.83947E-04 4.54591E-06 0.00000E+00
 -1       585 1.84047E-04 2.99745E-06 0.00000E+00
 -1       586 1.84299E-04 3.42468E-05 0.00000E+00
 -1       587 1.86001E-04 3.42859E-05 0.00000E+00
 -1       588 1.87705E-04 3.43247E-05 8.27181E-25
 -1       589 1.89455E-04 3.43628E-05 0.00000E+00
 -1       590 1.91293E-04 3.43996E-05 0.00000E+00
 -1       591 1.83280E-04 3.21857E-05-2.06795E-25
 -1       592 1.84008E-04 3.01443E-05-2.06795E-25
 -1       593 1.84741E-04 2.80889E-05 8.27181E-25
 -1       594 1.85476E-04 2.60241E-05 0.00000E+00
 -1       595 1.86214E-04 2.39547E-05 8.27181E-25
 -1       596 1.86951E-04 2.18853E-05 0.00000E+00
 -1       597 1.87686E-04 1.98207E-05-8.27181E-25
 -1       598 1.88418E-04 1.77657E-05 0.00000E+00
 -1       599 1.89145E-04 1.57248E-05 0.00000E+00
 -1       600 1.89864E-04 1.37027E-05 0.00000E+00
 -1       601 1.90575E-04 1.17042E-05 8.27181E-25
 -1       602 1.91275E-04 9.73389E-06 0.00000E+00
 -1       603 1.91963E-04 7.79652E-06 0.00000E+00
 -1       604 1.92638E-04 5.89688E-06 1.29247E-25
 -1       605 1.93297E-04 4.03956E-06 0.00000E+00
 -1       606 1.84161E-04 4.56988E-07 0.00000E+00
 -1       607 1.84171E-04-6.10787E-07 0.00000E+00
 -1       608 1.84179E-04-1.59767E-06 0.00000E+00
 -1       609 1.84188E-04-2.50934E-06 0.00000E+00
 -1       610 1.84196E-04-3.35155E-06 3.30872E-24
 -1       611 1.84205E-04-4.13010E-06 0.00000E+00
 -1       612 1.84213E-04-4.85079E-06 0.00000E+00
 -1       613 1.84221E-04-5.51944E-06 0.00000E+00
 -1       614 1.84230E-04-6.14188E-06 0.00000E+00
 -1       615 1.84238E-04-6.72391E-06 0.00000E+00
 -1       616 1.84246E-04-7.27137E-06 1.65436E-24
 -1       617 1.84255E-04-7.79005E-06 0.00000E+00
 -1       618 1.84263E-04-8.28579E-06 0.00000E+00
 -1       619 1.84272E-04-8.76439E-06 2.06795E-25
 -1       620 1.84280E-04-9.23168E-06 2.06795E-25
 -1       621 1.85495E-04 1.71455E-06 1.65436E-24
 -1       622 1.87001E-04 1.81865E-06 8.27181E-25
 -1       623 1.88632E-04 1.92253E-06 3.30872E-24
 -1       624 1.90355E-04 2.02609E-06-8.27181E-25
 -1       625 1.92137E-04 2.12935E-06-3.30872E-24
 -1       626 1.84692E-04 4.93075E-07 3.30872E-24
 -1       627 1.85214E-04-5.61388E-07 0.00000E+00
 -1       628 1.85716E-04-1.56054E-06 0.00000E+00
 -1       629 1.86199E-04-2.51256E-06-1.65436E-24
 -1       630 1.86669E-04-3.42565E-06 0.00000E+00
 -1       631 1.87127E-04-4.30801E-06 0.00000E+00
 -1       632 1.87576E-04-5.16785E-06-3.30872E-24
 -1       633 1.88020E-04-6.01341E-06 1.65436E-24
 -1       634 1.88462E-04-6.85289E-06 0.00000E+00
 -1       635 1.88905E-04-7.69450E-06 0.00000E+00
 -1       636 1.89351E-04-8.54647E-06 0.00000E+00
 -1       637 1.89805E-04-9.41702E-06-1.65436E-24
 -1       638 1.90268E-04-1.03144E-05 0.00000E+00
 -1       639 1.90744E-04-1.12467E-05-8.27181E-25
 -1       640 1.91236E-04-1.22224E-05 1.65436E-24
 -1       656 1.84982E-04-1.02715E-05 0.00000E+00
 -1       657 1.86096E-04-1.08729E-05 0.00000E+00
 -1       658 1.87491E-04-1.14730E-05 0.00000E+00
 -1       659 1.89020E-04-1.20728E-05 6.61744E-24
 -1       660 1.90499E-04-1.26744E-05 0.00000E+00
 -1       661 1.84547E-04-1.02003E-05-8.27181E-25
 -1       662 1.84845E-04-1.07989E-05 0.00000E+00
 -1       663 1.85175E-04-1.14841E-05-1.65436E-24
 -1       664 1.85535E-04-1.22493E-05 0.00000E+00
 -1       665 1.85923E-04-1.30887E-05 0.00000E+00
 -1       666 1.86337E-04-1.39965E-05-8.27181E-25
 -1       667 1.86774E-04-1.49670E-05 0.00000E+00
 -1       668 1.87233E-04-1.59946E-05 0.00000E+00
 -1       669 1.87711E-04-1.70739E-05 1.65436E-24
 -1       670 1.88206E-04-1.81996E-05 8.27181E-25
 -1       671 1.88717E-04-1.93665E-05 1.65436E-24
 -1       672 1.89241E-04-2.05695E-05 0.00000E+00
 -1       673 1.89776E-04-2.18037E-05 0.00000E+00
 -1       674 1.90321E-04-2.30643E-05 0.00000E+00
 -1       675 1.90874E-04-2.43460E-05 0.00000E+00
 -1       676 1.84739E-04-2.51284E-05 3.30872E-24
 -1       677 1.86082E-04-2.52326E-05 1.65436E-24
 -1       678 1.87423E-04-2.53368E-05 3.30872E-24
 -1       679 1.88761E-04-2.54406E-05 0.00000E+00
 -1       680 1.90096E-04-2.55444E-05 3.30872E-24
 -1       771 1.86877E-05 1.46193E-05 0.00000E+00
 -1       772 8.66059E-06 3.65028E-05 5.29396E-23
 -1       773 4.33234E-07 5.38554E-05 5.29396E-23
 -1       774-6.11820E-06 6.69343E-05-2.64698E-23
 -1       775-1.11149E-05 7.60070E-05 5.29396E-23
 -1       776-1.46830E-05 8.13578E-05 0.00000E+00
 -1       777-1.69483E-05 8.32808E-05 5.29396E-23
 -1       778-1.80394E-05 8.20841E-05-2.64698E-23
 -1       779-1.80840E-05 7.80843E-05 5.29396E-23
 -1       780-1.72120E-05 7.16094E-05 0.00000E+00
 -1       781-1.55524E-05 6.29939E-05 0.00000E+00
 -1       782-1.32357E-05 5.25814E-05 0.00000E+00
 -1       783-1.03914E-05 4.07201E-05 5.29396E-23
 -1       784-7.15053E-06 2.77641E-05-2.64698E-23
 -1       785-3.64284E-06 1.40708E-05-5.29396E-23
 -1       786 1.93300E-04 3.21923E-05-1.29247E-26
 -1       787 1.93342E-04 3.00021E-05 4.13590E-25
 -1       788 1.93384E-04 2.78537E-05 0.00000E+00
 -1       789 1.93426E-04 2.57388E-05-8.27181E-25
 -1       790 1.93469E-04 2.36528E-05 1.65436E-24
 -1       791 1.93511E-04 2.15908E-05 0.00000E+00
 -1       792 1.93554E-04 1.95508E-05 0.00000E+00
 -1       793 1.93597E-04 1.75304E-05 0.00000E+00
 -1       794 1.93640E-04 1.55296E-05 0.00000E+00
 -1       795 1.93683E-04 1.35480E-05-8.27181E-25
 -1       796 1.93726E-04 1.15877E-05-1.65436E-24
 -1       797 1.93769E-04 9.65044E-06-8.27181E-25
 -1       798 1.93812E-04 7.74048E-06 0.00000E+00
 -1       799 1.93856E-04 5.86214E-06 0.00000E+00
 -1       800 1.93899E-04 4.02291E-06-1.65436E-24
 -1       801 1.47643E-04 3.09511E-05 2.64698E-23
 -1       802 9.70398E-06 1.93150E-05 2.64698E-23
 -1       803-1.08159E-04 9.75831E-06-5.29396E-23
 -1       804-9.59457E-05 6.79024E-06 0.00000E+00
 -1       805-3.17068E-05 2.67199E-06 0.00000E+00
 -1       806 1.93987E-04 3.21236E-05 3.30872E-24
 -1       807 1.94697E-04 2.98408E-05 1.65436E-24
 -1       808 1.95396E-04 2.75895E-05-3.30872E-24
 -1       809 1.96081E-04 2.53736E-05 0.00000E+00
 -1       810 1.96751E-04 2.31972E-05 0.00000E+00
 -1       811 1.97404E-04 2.10643E-05 1.65436E-24
 -1       812 1.98040E-04 1.89787E-05 0.00000E+00
 -1       813 1.98657E-04 1.69444E-05 0.00000E+00
 -1       814 1.99254E-04 1.49654E-05 0.00000E+00
 -1       815 1.99828E-04 1.30454E-05 0.00000E+00
 -1       816 2.00379E-04 1.11884E-05-3.30872E-24
 -1       817 2.00904E-04 9.39827E-06 0.00000E+00
 -1       818 2.01404E-04 7.67889E-06-1.65436E-24
 -1       819 2.01876E-04 6.03413E-06-8.27181E-25
 -1       820 2.02319E-04 4.46782E-06-1.65436E-24
 -1       821 1.93814E-04-1.13349E-07 0.00000E+00
 -1       822 1.93674E-04-3.60100E-06 0.00000E+00
 -1       823 1.93532E-04-7.80758E-06 3.30872E-24
 -1       824 1.93387E-04-1.23036E-05 1.65436E-24
 -1       825 1.93243E-04-1.65816E-05-3.30872E-24
 -1       826 1.93101E-04-2.01349E-05-1.65436E-24
 -1       827 1.92962E-04-2.26546E-05 0.00000E+00
 -1       828 1.92826E-04-2.38377E-05-1.65436E-24
 -1       829 1.92691E-04-2.37453E-05 3.30872E-24
 -1       830 1.92554E-04-2.24457E-05 0.00000E+00
 -1       831 1.92417E-04-2.03362E-05-3.30872E-24
 -1       832 1.92278E-04-1.78188E-05 0.00000E+00
 -1       833 1.92140E-04-1.54066E-05 3.30872E-24
 -1       834 1.92005E-04-1.36120E-05-1.65436E-24
 -1       835 1.91871E-04-1.27801E-05 0.00000E+00
 -1       836 1.95620E-04 2.35534E-06-3.30872E-24
 -1       837 1.97171E-04 2.48341E-06 0.00000E+00
 -1       838 1.98625E-04 2.61141E-06-3.30872E-24
 -1       839 2.00016E-04 2.73871E-06 8.27181E-25
 -1       840 2.01375E-04 2.86586E-06-8.27181E-25
 -1       856 1.91728E-04-1.42993E-05 0.00000E+00
 -1       857 1.91709E-04-1.52133E-05 0.00000E+00
 -1       858 1.91690E-04-1.60126E-05-2.06795E-25
 -1       859 1.91670E-04-1.67185E-05 2.06795E-25
 -1       860 1.91650E-04-1.73522E-05 0.00000E+00
 -1       861 1.91630E-04-1.79350E-05 0.00000E+00
 -1       862 1.91610E-04-1.84880E-05-4.13590E-25
 -1       863 1.91591E-04-1.90328E-05 4.13590E-25
 -1       864 1.91571E-04-1.95906E-05-8.27181E-25
 -1       865 1.91551E-04-2.01827E-05 0.00000E+00
 -1       866 1.91531E-04-2.08305E-05-8.27181E-25
 -1       867 1.91511E-04-2.15552E-05 0.00000E+00
 -1       868 1.91491E-04-2.23780E-05-8.27181E-25
 -1       869 1.91470E-04-2.33200E-05 4.13590E-25
 -1       870 1.91450E-04-2.44024E-05-8.27181E-25
 -1       871 1.93082E-04-1.32545E-05 0.00000E+00
 -1       872 1.94566E-04-1.32628E-05 0.00000E+00
 -1       873 1.96130E-04-1.32718E-05 4.13590E-25
 -1       874 1.97705E-04-1.32815E-05-7.75482E-26
 -1       875 1.99223E-04-1.32918E-05-4.13590E-25
 -1       876 1.92265E-04-1.42847E-05-3.30872E-24
 -1       877 1.92764E-04-1.52531E-05 0.00000E+00
 -1       878 1.93240E-04-1.61626E-05 3.30872E-24
 -1       879 1.93698E-04-1.70206E-05-1.65436E-24
 -1       880 1.94140E-04-1.78347E-05 0.00000E+00
 -1       881 1.94568E-04-1.86121E-05 1.65436E-24
 -1       882 1.94985E-04-1.93602E-05 0.00000E+00
 -1       883 1.95393E-04-2.00863E-05 0.00000E+00
 -1       884 1.95796E-04-2.07978E-05 3.30872E-24
 -1       885 1.96197E-04-2.15021E-05-1.65436E-24
 -1       886 1.96597E-04-2.22063E-05 3.30872E-24
 -1       887 1.97000E-04-2.29180E-05 1.65436E-24
 -1       888 1.97409E-04-2.36444E-05 0.00000E+00
 -1       889 1.97825E-04-2.43930E-05-1.65436E-24
 -1       890 1.98251E-04-2.51712E-05 1.65436E-24
 -1       891 1.92780E-04-2.57035E-05-1.65436E-24
 -1       892 1.94108E-04-2.57611E-05 0.00000E+00
 -1       893 1.95388E-04-2.58187E-05 8.27181E-25
 -1       894 1.96594E-04-2.58760E-05 0.00000E+00
 -1       895 1.97701E-04-2.59330E-05-4.13590E-25
 -1       956 2.02603E-04 1.67409E-06-1.65436E-24
 -1       957 2.02470E-04 4.55906E-07 8.27181E-25
 -1       958 2.02338E-04-6.81560E-07-3.30872E-24
 -1       959 2.02205E-04-1.74963E-06 1.65436E-24
 -1       960 2.02072E-04-2.75967E-06-3.30872E-24
 -1       961 2.01940E-04-3.72308E-06 1.65436E-24
 -1       962 2.01807E-04-4.65128E-06 0.00000E+00
 -1       963 2.01674E-04-5.55571E-06 0.00000E+00
 -1       964 2.01542E-04-6.44779E-06 0.00000E+00
 -1       965 2.01409E-04-7.33894E-06 0.00000E+00
 -1       966 2.01276E-04-8.24061E-06 3.30872E-24
 -1       967 2.01144E-04-9.16422E-06 0.00000E+00
 -1       968 2.01011E-04-1.01212E-05 0.00000E+00
 -1       969 2.00879E-04-1.11229E-05 3.30872E-24
 -1       970 2.00746E-04-1.21807E-05 0.00000E+00
 -1       971 2.00496E-04-1.44299E-05-3.30872E-24
 -1       972 2.00375E-04-1.54597E-05 0.00000E+00
 -1       973 2.00254E-04-1.64053E-05-3.30872E-24
 -1       974 2.00132E-04-1.72776E-05 0.00000E+00
 -1       975 2.00011E-04-1.80874E-05 0.00000E+00
 -1       976 1.99890E-04-1.88457E-05-1.65436E-24
 -1       977 1.99768E-04-1.95632E-05 0.00000E+00
 -1       978 1.99647E-04-2.02510E-05 1.65436E-24
 -1       979 1.99526E-04-2.09198E-05 0.00000E+00
 -1       980 1.99404E-04-2.15806E-05-1.65436E-24
 -1       981 1.99283E-04-2.22444E-05-3.30872E-24
 -1       982 1.99162E-04-2.29220E-05 0.00000E+00
 -1       983 1.99041E-04-2.36243E-05 0.00000E+00
 -1       984 1.98921E-04-2.43622E-05 1.65436E-24
 -1       985 1.98800E-04-2.51467E-05-3.30872E-24
 -3
    1PSTEP                        38          19           1          
  100CL  119 6.62759E-01         409                     0   19           1
 -4  STRESS      6    1
 -5  SXX         1    4    1    1
 -5  SYY         1    4    2    2
 -5  SZZ         1    4    3    3
 -5  SXY         1    4    1    2
 -5  SYZ         1    4    2    3
 -5  SZX         1    4    3    1
 -1         1-5.29766E+06-1.65660E+06-1.13126E+06-1.44454E+06 4.94765E-10 5.34637E-08
 -1         2 1.29580E+06 1.90779E+07 4.51662E+06 5.73393E+06 2.47965E-08 1.12530E-07
 -1         3-1.48105E+03-1.57149E+06 4.08034E+02-2.22515E+03-5.03217E-10 3.32511E-09
 -1         5-7.40233E+01 3.86063E+05 9.97341E+00-1.32899E+00-6.64521E-10 2.54913E-08
 -1         8-6.01929E+05-2.12741E+05-7.01980E+04-2.59268E+05 2.63753E-10 1.99590E-07
 -1         9 1.15129E+07 3.33315E+06 2.65306E+06-4.43270E+05-9.73232E-09 1.32620E-07
 -1        10-2.30330E+03-1.63763E+06-3.96856E+03-1.50540E+04-1.33441E-08 6.11192E-09
 -1        12-7.01050E+01 3.86084E+05 3.27772E+02-9.06352E+00-6.61657E-10-6.84213E-09
 -1        15 9.71614E+02 5.33951E+02 3.14072E+03 9.38838E-01 8.08598E-12-4.15077E-08
 -1        16 2.26290E+07-3.10103E+05 3.08962E+06-2.18589E+06 3.02874E-08-1.00583E-07
 -1        17 8.28537E+06 6.20236E+06 2.23878E+06 5.94263E+06 2.54659E-08 2.50409E-08
 -1        18 1.41290E+05 3.32282E+04 3.92905E+03-1.19341E+05 1.64061E-08-1.86810E-09
 -1        19 1.22320E+05 1.41559E+05-9.43502E+02 2.19632E+04 1.66310E-09 4.11601E-09
 -1        20-8.18002E+04-5.73288E+05-1.28634E+05 2.51538E+04-2.14823E-09 1.70645E-08
 -1        21-4.55898E+01-2.95921E+05-9.23801E+02 2.72638E+02 1.76860E-08 2.00142E-08
 -1        24 1.38259E+07 1.19102E+07 3.83261E+06 1.10324E+07-1.67648E-07-4.95541E-08
 -1        25 1.23036E+05 2.60292E+05 9.82085E+04-6.41430E+05-3.40624E-09 1.07251E-08
 -1        26-5.53523E+04 9.22079E+04-2.46175E+04 1.26265E+03 1.12777E-11 1.44427E-09
 -1        27-7.55809E+04-3.09741E+05-1.13244E+05 6.89315E+04 3.16171E-09 8.19030E-09
 -1        28 2.22378E+04-8.53093E+04 1.68922E+04 2.06246E+04-5.38188E-09 2.16670E-08
 -1        32-1.67939E+06-3.17383E+06-1.96219E+05 4.49341E+05-4.23024E-08-8.51901E-09
 -1        33-1.78372E+05 9.29250E+04 3.23650E+04-3.84784E+04-3.01630E-09 1.58389E-08
 -1        34-2.23480E+05-2.50052E+04 6.88919E+02 7.55918E+04-5.32871E-09-7.26034E-09
 -1        35-2.29253E+04-3.38319E+04-1.34779E+03 5.14816E+04-5.57409E-09-3.85868E-09
 -1        51 5.98795E+04-1.75920E+05 1.26882E+05-4.57866E+05 0.00000E+00 2.45564E-08
 -1        52 2.03605E+04-1.53881E+05 6.67328E+04-5.33947E+05 2.29193E-10-3.34367E-07
 -1        53 4.26514E+03-1.69311E+05 3.50079E+04-4.56263E+05 3.89264E-10 4.31100E-08
 -1        54 7.79181E+03-1.65108E+05 2.92822E+04-5.35542E+05 2.43745E-10-4.07490E-08
 -1        55 1.69761E+04-1.72433E+05 3.62271E+04-4.56136E+05 3.12866E-10 6.10598E-08
 -1        56-9.68074E+06-1.27867E+06-8.80329E+05-3.97881E+06-8.49832E-09-1.44762E-07
 -1        57-1.08133E+07-1.03778E+06-5.54355E+05-2.89496E+06-3.79514E-08-2.94247E-07
 -1        58-9.60162E+06-1.69879E+06-1.98398E+05-4.11215E+06-4.12474E-08-8.85484E-09
 -1        59-1.08549E+07-5.71135E+05-1.11706E+05-2.84465E+06 4.74711E-09-8.09086E-08
 -1        60-9.68117E+06-1.70522E+06-5.30981E+04-4.06769E+06-1.91067E-08 2.76232E-08
 -1        61-1.03911E+07-8.16903E+05-8.95366E+02-3.07008E+06 4.69445E-08 1.46014E-07
 -1        62-9.98309E+06-1.50813E+06-5.04006E+04-3.82324E+06-8.25748E-08-9.07676E-08
 -1        63-9.74434E+06-1.35189E+06 2.79268E+04-3.62352E+06-7.04313E-09 6.23786E-08
 -1        64-1.02663E+07-1.21381E+06-4.59818E+04-3.47428E+06 4.67917E-08 2.16744E-07
 -1        65-9.41410E+06-1.82168E+06-2.21159E+03-4.28860E+06-5.48062E-08 8.68363E-09
 -1        66-1.03884E+07-9.86261E+05-4.46136E+04-3.21416E+06-2.73212E-09-3.24071E-08
 -1        67-9.38438E+06-2.03731E+06-1.00799E+05-4.59497E+06-8.13925E-08-1.14522E-07
 -1        68-1.03691E+07-9.47843E+05-1.82371E+05-3.21476E+06-3.17177E-08-9.77889E-08
 -1        69-9.60492E+06-2.15953E+06-4.95655E+05-4.25078E+06-4.86232E-08-6.32645E-08
 -1        70-1.01022E+07-9.20996E+05-8.03645E+05-3.51177E+06 1.36752E-08-4.01633E-09
 -1        86-1.32104E+06-1.41964E+07-2.46962E+06-2.70198E+06-2.54924E-07-6.39557E-08
 -1        87 2.04446E+06 5.31536E+06 2.05493E+06 5.14463E+06-4.41876E-07-1.30956E-07
 -1        88-3.68292E+05-2.11258E+06 1.89990E+05-2.37665E+06-4.09287E-07-4.13052E-08
 -1        89 2.74003E+06 5.07815E+06 2.10332E+06 5.30384E+06-5.50608E-07-2.36991E-07
 -1        90-1.94106E+06-1.40219E+07-2.67483E+06-2.88296E+06-1.28282E-07-9.17935E-08
 -1       121-2.02945E+03-1.57638E+06-5.40050E+02 1.10301E+03 1.42020E-09 8.07631E-10
 -1       122-1.29401E+03-1.57156E+06 7.75050E+02-4.45401E+03-5.44397E-09 4.35830E-09
 -1       123-2.04972E+03-1.57651E+06 2.75370E+02 3.29404E+03 4.51303E-09 1.59998E-08
 -1       124 3.55218E+02-1.57110E+06 2.97461E+03-9.31544E+03-1.03078E-08 1.84828E-08
 -1       125-2.86610E+03-1.57742E+06 3.50420E+03 5.91891E+03 6.76300E-09 2.92675E-08
 -1       191-7.80120E+01 3.86081E+05 8.53978E+00 6.92543E-01-6.24254E-10 2.81398E-09
 -1       192-7.49854E+01 3.86063E+05 2.12801E+01-4.26515E+00-7.25595E-10-2.66118E-08
 -1       193-8.05449E+01 3.86081E+05 3.62864E+01 3.74438E+00-1.10765E-09-6.25005E-09
 -1       194-7.80701E+01 3.86067E+05 8.08905E+01-9.67951E+00-6.22119E-10 4.60841E-09
 -1       195-8.54066E+01 3.86078E+05 1.54924E+02 6.29583E+00-1.46647E-09-2.45927E-09
 -1       251-8.73449E+05 1.57091E+04-3.67167E+04-1.35455E+04 8.35580E-09 3.01316E-08
 -1       252-8.87677E+05-1.81586E+04-2.55962E+04 4.62993E+04-5.83501E-09-4.96470E-08
 -1       253-8.81326E+05 2.40950E+03-9.82728E+03-9.68435E+03 2.36207E-09-1.66811E-07
 -1       254-8.75449E+05-2.88254E+03-4.62624E+03 3.28530E+04-8.39339E-09-2.85869E-08
 -1       255-8.85160E+05 9.77915E+01-3.27154E+03-1.01658E+02-1.61663E-10 1.12517E-07
 -1       256-8.70743E+05-2.72514E+02 8.36194E+02 1.11021E+04 4.44970E-09 8.53095E-08
 -1       257-8.85661E+05-4.73575E+02-1.16706E+03 1.20581E+04 8.21501E-10-7.60843E-09
 -1       258-8.73096E+05 7.86770E+02 2.38878E+03-1.17470E+04-2.52987E-09 2.60191E-08
 -1       259-8.83020E+05-7.97158E+02 1.45724E+03 2.27457E+04-1.62731E-09-3.72271E-08
 -1       260-8.78350E+05 2.67552E+03 5.38329E+03-2.81379E+04 5.81781E-09-9.51451E-08
 -1       261-8.80941E+05-1.94945E+03 8.52959E+03 2.84612E+04 1.46566E-08-3.37981E-07
 -1       262-8.76511E+05 1.13331E+04 2.11544E+04-3.27286E+04-2.48851E-08-1.54203E-07
 -1       263-8.85059E+05-9.26706E+03 3.35487E+04 2.73432E+04-4.98198E-09-4.80250E-08
 -1       264-8.47044E+05 6.57231E+04 9.27339E+04-2.39097E+04 2.11119E-08-5.04697E-08
 -1       265-9.09968E+05-5.64326E+04 1.29424E+05 1.96331E+04-4.04305E-09-6.56873E-08
 -1       266-1.75896E+04-8.22570E+03 4.12666E+04-2.00868E+01 1.61890E-10 8.31637E-08
 -1       267 2.03910E+04 9.58603E+03 2.91685E+04 2.31780E+01 1.95541E-11-2.19209E-07
 -1       268-2.73441E+03-1.35771E+03 1.08417E+04-2.95318E+00-1.07320E-10 6.46959E-08
 -1       269 3.22852E+03 1.62482E+03 7.04703E+03 3.44012E+00 1.92813E-10 4.58803E-07
 -1       270-4.84603E+02-2.66972E+02 3.40170E+03-4.66843E-01 5.77529E-11 4.36136E-07
 -1       271-1.63494E+06-2.01946E+05-1.24266E+05-6.32743E+05 2.46446E-08 3.57279E-07
 -1       272-1.64994E+06-3.16389E+05-7.91178E+04-6.56742E+05-2.67573E-08 6.12999E-10
 -1       273-1.66129E+06-2.30261E+05-2.99032E+04-6.23536E+05-1.91412E-08 2.16925E-07
 -1       274-1.61879E+06-2.83270E+05-1.59960E+04-6.72892E+05 3.68454E-08 3.04322E-07
 -1       275-1.66745E+06-2.30396E+05-7.32335E+03-6.19267E+05-2.27174E-08-1.35833E-08
 -1       276-1.61154E+06-2.84139E+05-3.29199E+03-6.81816E+05 1.09787E-07-3.08537E-08
 -1       277-1.67049E+06-2.27761E+05-1.99862E+03-6.16163E+05-4.47690E-08-1.18559E-07
 -1       278-1.60838E+06-2.87830E+05-8.97018E+02-6.88393E+05-5.12046E-10 1.13175E-07
 -1       279-1.67242E+06-2.25524E+05-1.04325E+03-6.13956E+05 2.25773E-08-1.37258E-07
 -1       280-1.60677E+06-2.90719E+05-1.39385E+03-6.92769E+05-4.37922E-08 1.10300E-07
 -1       281-1.67343E+06-2.24034E+05-2.54829E+03-6.12692E+05 2.19716E-08-5.92179E-08
 -1       282-1.60721E+06-2.93703E+05-6.02787E+03-6.94566E+05 3.64946E-08 1.32241E-09
 -1       283-1.67266E+06-2.22265E+05-1.06384E+04-6.12552E+05 3.13366E-09-4.00651E-08
 -1       284-1.61680E+06-3.08202E+05-2.91778E+04-6.91774E+05 2.20851E-08-1.19785E-07
 -1       285-1.66389E+06-2.10920E+05-4.51690E+04-6.14933E+05 3.14105E-08-9.92095E-08
 -1       301-2.52215E+03-6.35980E+05 1.67657E+05-1.10802E+06 1.03028E-08-3.55722E-08
 -1       302-3.15077E+03-5.90319E+05 1.01084E+05-1.61785E+06-1.35478E-08-7.19683E-08
 -1       303-1.80434E+04-6.27354E+05 5.77862E+04-1.10503E+06 9.35688E-09 8.00937E-08
 -1       304-1.88322E+04-5.96252E+05 5.93370E+04-1.61718E+06 9.12405E-09 6.46978E-08
 -1       305-2.15981E+04-6.16850E+05 7.43778E+04-1.10814E+06 1.43045E-08-4.64206E-09
 -1       306-3.00307E+07-6.20011E+06-8.57418E+06-5.75381E+05-8.85921E-08-7.03731E-08
 -1       307 2.53478E+07 3.19518E+06 5.50075E+06-1.50738E+07-9.05420E-07-2.09693E-07
 -1       308-7.04724E+06-1.02622E+06-4.71112E+05 5.18834E+06-9.09786E-08 2.87037E-07
 -1       309-3.30633E+06 8.66774E+06 2.26290E+06-2.05902E+07 3.43764E-07 3.18334E-07
 -1       310-1.24445E+07-1.90644E+06-1.99165E+06 5.19223E+06-2.12516E-07-5.95464E-08
 -1       311 3.79343E+07 2.08797E+04 7.20416E+06-8.89246E+06 2.81463E-07 2.75904E-08
 -1       312-3.17576E+07-6.69633E+06-8.46710E+06-4.93839E+06-2.49129E-07-3.64089E-08
 -1       313 4.52794E+07 1.47310E+07 1.06022E+07 2.35120E+07-1.23633E-07-2.40485E-07
 -1       314-1.72770E+07-1.76110E+07-7.48891E+06-1.24911E+07 2.80037E-07-4.26080E-08
 -1       315-1.70922E+06 2.94982E+07 5.65068E+06 1.06401E+07-5.06654E-07-3.65544E-08
 -1       316 1.33705E+06-9.83642E+06-4.53114E+05-2.59688E+06-1.20034E-06-2.82045E-07
 -1       317-1.71452E+07 2.23276E+07 2.21951E+06-8.67481E+06 6.99365E-07-7.63815E-07
 -1       318-1.06795E+06-1.26701E+07-2.00800E+06-4.24868E+06-9.78500E-07 2.07918E-07
 -1       319 7.08325E+06 3.16531E+07 6.97139E+06 1.64704E+07-4.55984E-08 2.33034E-07
 -1       320-2.24805E+07-1.75042E+07-9.78060E+06-1.27366E+07 1.72528E-07-2.33704E-08
 -1       336-7.19646E+02-1.70648E+06-1.39209E+04 8.96681E+03-2.60952E-08-6.06087E-09
 -1       337-5.42535E+03-1.70610E+06-1.81679E+04-2.17691E+04-4.89908E-08-2.62389E-08
 -1       338 3.00672E+02-1.70597E+06-2.85864E+04 1.25537E+04-3.51019E-08 2.27810E-08
 -1       339-3.03315E+04-1.72341E+06-6.46274E+04-2.87921E+04-6.18211E-08 4.23897E-08
 -1       340 2.00103E+04-1.69136E+06-1.01786E+05 1.58593E+04-4.22369E-08 4.95675E-08
 -1       406-4.83660E+01 3.86064E+05 6.43637E+02 3.30760E+00-1.92168E-09-1.24292E-08
 -1       407 1.55904E+02 3.86198E+05 1.37536E+03 2.32233E+01-7.11225E-10 6.69206E-09
 -1       408 6.35573E+02 3.85963E+05 2.74244E+03-2.68588E+01-2.52635E-09-4.71118E-09
 -1       409 2.90540E+03 3.87073E+05 6.18108E+03 2.86613E+02-3.21165E-10-2.18279E-11
 -1       410 8.47310E+03 3.85174E+05 1.26154E+04-2.76369E+02-2.68847E-09 1.38443E-08
 -1       521-3.15431E+07-7.64007E+06-9.99996E+06-1.88581E+05-9.18517E-08 2.74449E-07
 -1       522 2.61693E+07 4.18545E+06 5.59892E+06-1.85415E+07-6.08852E-07 1.05356E-07
 -1       523-7.63247E+06-1.33416E+06-4.63327E+05 5.63001E+06 9.00473E-08-4.25556E-07
 -1       524-6.79224E+06 1.16732E+07 2.44345E+06-2.36233E+07 6.10919E-07-5.26561E-07
 -1       525-1.32443E+07-2.52570E+06-2.18557E+06 5.63419E+06 5.76198E-07-2.18599E-07
 -1       526 4.13242E+07-6.57356E+04 7.55098E+06-1.15271E+07 1.09547E-07-1.84140E-07
 -1       527-3.35630E+07-8.37119E+06-9.74415E+06-4.79636E+06-3.07919E-07-2.10886E-07
 -1       528 4.93786E+07 1.63648E+07 1.10433E+07 2.66850E+07-1.39233E-07-2.67784E-07
 -1       529-1.82126E+07-1.97776E+07-8.57335E+06-1.25176E+07 1.15426E-07-1.15833E-07
 -1       530-4.18103E+06 3.42076E+07 5.97075E+06 1.01337E+07-3.47398E-07 6.01693E-07
 -1       531 1.32687E+06-1.09063E+07-4.27657E+05-2.56166E+06-8.19127E-07 3.36964E-07
 -1       532-1.96935E+07 2.43310E+07 2.42111E+06-1.28982E+07 2.85974E-07-6.51162E-07
 -1       533-1.11470E+06-1.38041E+07-2.13246E+06-4.07352E+06-2.53960E-07-1.03278E-06
 -1       534 5.05917E+06 3.66701E+07 7.24414E+06 1.70163E+07 1.73750E-08 7.27596E-07
 -1       535-2.36358E+07-1.98527E+07-1.11948E+07-1.27953E+07 1.29221E-07 4.45929E-07
 -1       536-7.04518E+05-4.68751E+04-4.70306E+04-5.44625E+04-2.66482E-09 6.01176E-08
 -1       537-5.64479E+04 4.48831E+04 8.40926E+04 1.23425E+05-1.18063E-07 1.05647E-07
 -1       538-3.94347E+05 3.27030E+03 3.76370E+03-7.19896E+04 1.90944E-08 1.14047E-07
 -1       539-2.69624E+05 2.89555E+03 2.49216E+04 1.38302E+05 1.47186E-07 1.11967E-07
 -1       540-4.96692E+05-4.27012E+02-2.11468E+04-6.98699E+04-8.63065E-09 1.12322E-07
 -1       541 1.43914E+05 1.68884E+04 1.05860E+05 9.75614E+04-3.15033E-08 6.00036E-08
 -1       542-7.96742E+05-2.00340E+04-8.37871E+04-3.03810E+04 2.41203E-08 2.71462E-08
 -1       543 4.01241E+05 2.71859E+04 1.57149E+05-1.33279E+04-1.09708E-09-1.52049E-08
 -1       544-7.47118E+05-1.64482E+04-7.44391E+04 4.03551E+04 4.34648E-09-5.42131E-08
 -1       545 2.67590E+04 9.42395E+03 7.93692E+04-1.13238E+05-4.33841E-08-8.20146E-08
 -1       546-4.32316E+05 6.07281E+03-1.21693E+04 6.91855E+04-1.04724E-08-9.02151E-08
 -1       547-2.87652E+05-4.65991E+03 1.04858E+04-1.41147E+05-1.16789E-07-1.15191E-07
 -1       548-4.41159E+05 4.71245E+03-2.38170E+04 6.89494E+04-1.02357E-07-1.02391E-07
 -1       549 4.59185E+04 1.58752E+04 6.00510E+04-1.11086E+05-7.43318E-08-8.18409E-08
 -1       550-7.56961E+05-2.19307E+04-1.28527E+05 3.84152E+04 8.95852E-10-4.90545E-08
 -1       551 4.07540E+04-7.55329E+05-1.53958E+04-1.24703E+06-1.02533E-07 6.05360E-09
 -1       552 9.30894E+04-8.00111E+05 1.02354E+04-1.77816E+06-7.53935E-08 4.62314E-08
 -1       553 7.15883E+04-7.96579E+05 3.22929E+04-1.24040E+06-1.20097E-07 2.97005E-08
 -1       554 1.31827E+05-8.15840E+05 8.14253E+04-1.78011E+06-7.49133E-08 1.56142E-08
 -1       555 1.01354E+05-8.20193E+05 1.48626E+05-1.24024E+06-1.24237E-07-1.27347E-08
 -1       556 2.22992E+05-3.82578E+05 2.66897E+04-4.06614E+05-2.76777E-08-3.78932E-08
 -1       557 3.53435E+05-4.86781E+05 1.66210E+04-5.26680E+05-6.83940E-10 1.65892E-08
 -1       558 2.04906E+05-3.75587E+05 2.54691E+03-4.10897E+05-1.65310E-08-1.80444E-09
 -1       559 3.28416E+05-4.86992E+05 2.54391E+03-5.47041E+05 2.36323E-08-2.41234E-08
 -1       560 1.89678E+05-3.66036E+05-1.44312E+03-4.21867E+05 5.58794E-09 9.05129E-09
 -1       561 3.09269E+05-4.79337E+05 1.55769E+02-5.60092E+05-1.82190E-08-1.36515E-08
 -1       562 1.77636E+05-3.58553E+05-1.30633E+03-4.30586E+05-1.08703E-08 7.18501E-09
 -1       563 2.94966E+05-4.73101E+05-3.01158E+01-5.69432E+05-4.13274E-09 7.31598E-09
 -1       564 1.69045E+05-3.53200E+05-5.93571E+02-4.36674E+05 7.59610E-09-1.21877E-08
 -1       565 2.85484E+05-4.68971E+05 2.56388E+01-5.75490E+05 7.90169E-09 1.25679E-08
 -1       566 1.64026E+05-3.50025E+05-2.57534E+02-4.40185E+05-6.25732E-10 1.18671E-08
 -1       567 2.80882E+05-4.66970E+05-3.60863E+02-5.78285E+05 1.13068E-08 1.88447E-08
 -1       568 1.62671E+05-3.49195E+05-1.12172E+03-4.41228E+05 4.45289E-09 8.10178E-09
 -1       569 2.79774E+05-4.66899E+05-2.83322E+03-5.76849E+05 2.09911E-09 9.62609E-09
 -1       570 1.66071E+05-3.52426E+05-6.19486E+03-4.40209E+05 1.52577E-08 5.74255E-09
 -1       571 2.90296E+05 1.05003E+04 1.49827E+04-9.50519E+04-2.47746E-09 1.68538E-08
 -1       572 2.92467E+05 3.95630E+03 7.34272E+03-1.04282E+05-1.48325E-08 1.60035E-08
 -1       573 2.91158E+05 1.24324E+03 3.26261E+03-9.48756E+04 6.86668E-10-7.13771E-09
 -1       574 2.91372E+05 7.24754E+02 1.63617E+03-1.04506E+05 1.75232E-08 6.91216E-09
 -1       575 2.91252E+05 4.45897E+02 7.72225E+02-9.48514E+04 4.90854E-09 2.47474E-09
 -1       576 2.91236E+05 4.57044E+02 3.95374E+02-1.04536E+05-8.05085E-09 8.28823E-09
 -1       577 2.91291E+05 3.87868E+02 1.97375E+02-9.48481E+04-2.83944E-09 1.83772E-08
 -1       578 2.91266E+05 4.19075E+02 1.14020E+02-1.04540E+05-3.35922E-09 1.04101E-08
 -1       579 2.91363E+05 3.51301E+02 7.83253E+01-9.48478E+04 1.01791E-08-1.49994E-08
 -1       580 2.91368E+05 3.68205E+02 9.09143E+01-1.04535E+05-9.77980E-09-1.23437E-08
 -1       581 2.91477E+05 2.92914E+02 1.37355E+02-9.48537E+04 1.53486E-08-6.87214E-09
 -1       582 2.91543E+05 3.31055E+02 2.79259E+02-1.04473E+05 2.18515E-08-6.04268E-09
 -1       583 2.91617E+05 3.35583E+02 5.36042E+02-9.49102E+04 1.07175E-08 8.45557E-09
 -1       584 2.91918E+05 7.73295E+02 1.21298E+03-1.03998E+05 8.76753E-09-1.54159E-09
 -1       585 2.91642E+05 1.79443E+03 2.45629E+03-9.53287E+04 9.29504E-10 7.26141E-09
 -1       586-3.42078E+03 1.16728E+05-2.91951E+03-2.50543E+05-6.74709E-09 5.29940E-09
 -1       587-1.33432E+03 1.16478E+05 7.68480E+02-2.75741E+05-7.34508E-09-5.10317E-09
 -1       588 4.02332E+02 1.16286E+05 4.75505E+03-2.50405E+05-4.33465E-09-1.57634E-08
 -1       589 5.08616E+03 1.18757E+05 1.23349E+04-2.75508E+05-6.37010E-09-1.18052E-09
 -1       590 1.66018E+04 1.14954E+05 2.58759E+04-2.50836E+05-5.13137E-09 1.83354E-09
 -1       591-7.48975E+04-1.59623E+04-2.25080E+04-3.19313E+04 4.14684E-09 4.46562E-10
 -1       592-7.89797E+04-1.95198E+04-1.21922E+04-3.55567E+04 1.12964E-08-9.88496E-09
 -1       593-7.71486E+04-1.43291E+04-5.07499E+03-3.35816E+04 2.61069E-09-1.69948E-08
 -1       594-7.58720E+04-1.62171E+04-2.53102E+03-3.56744E+04-4.98588E-09 7.20433E-09
 -1       595-7.73202E+04-1.43237E+04-1.16200E+03-3.36566E+04-1.74521E-09 1.44750E-08
 -1       596-7.56592E+04-1.60660E+04-5.90495E+02-3.56492E+04 6.70641E-09 1.56541E-08
 -1       597-7.73417E+04-1.43391E+04-3.21099E+02-3.36595E+04 3.50269E-10 2.00035E-08
 -1       598-7.56382E+04-1.60600E+04-2.57313E+02-3.56420E+04-4.38467E-09 2.92064E-08
 -1       599-7.73404E+04-1.43396E+04-3.27673E+02-3.36591E+04 3.23939E-09 1.28409E-09
 -1       600-7.56592E+04-1.60665E+04-6.07900E+02-3.56470E+04-5.23869E-10 7.19257E-09
 -1       601-7.73158E+04-1.43251E+04-1.19883E+03-3.36556E+04-4.34056E-10-1.01043E-08
 -1       602-7.58787E+04-1.62212E+04-2.61251E+03-3.56692E+04-5.08317E-09 1.89277E-09
 -1       603-7.71359E+04-1.43335E+04-5.23905E+03-3.35791E+04 7.46013E-10-1.68575E-09
 -1       604-7.91045E+04-1.96111E+04-1.25854E+04-3.55229E+04 2.85189E-09-1.89793E-08
 -1       605-7.47922E+04-1.60373E+04-2.32342E+04-3.18948E+04 4.47676E-09 7.49606E-09
 -1       606 2.67089E+04-1.43176E+04-2.56668E+04 2.40095E+04 5.61795E-09-1.93768E-09
 -1       607 2.23233E+04-4.67596E+03-1.27820E+04 2.69814E+04-4.81123E-10-6.91330E-09
 -1       608 2.48227E+04-8.43392E+02-5.72208E+03 2.38405E+04-5.10772E-09 1.52713E-08
 -1       609 2.43436E+04-2.88752E+02-2.89064E+03 2.71957E+04 2.94222E-09 3.19824E-08
 -1       610 2.46093E+04-4.07273E+01-1.37916E+03 2.38204E+04 6.43831E-09 6.76187E-09
 -1       611 2.45340E+04-4.09324E+01-6.95361E+02 2.72188E+04 1.20617E-08-2.70120E-10
 -1       612 2.45621E+04-2.69999E+01-3.30562E+02 2.38184E+04 2.94767E-09 6.53517E-09
 -1       613 2.45455E+04-3.68177E+01-1.48103E+02 2.72215E+04 1.72440E-09-1.82683E-08
 -1       614 2.45400E+04-3.33905E+01-3.46607E+01 2.38177E+04-2.01908E-10-4.75370E-09
 -1       615 2.45402E+04-3.53085E+01 6.22444E+01 2.72220E+04-3.78031E-09 2.15264E-08
 -1       616 2.45226E+04-3.02517E+01 1.86493E+02 2.38180E+04 1.43746E-09 5.39853E-09
 -1       617 2.45626E+04 4.44624E+00 4.25431E+02 2.72215E+04 5.12500E-10 3.24235E-09
 -1       618 2.44856E+04 9.24018E+01 8.57501E+02 2.38183E+04-9.18135E-10-2.48060E-08
 -1       619 2.48653E+04 6.67474E+02 1.92557E+03 2.72209E+04-2.24122E-09 5.84350E-11
 -1       620 2.42008E+04 2.12577E+03 3.87034E+03 2.38198E+04-2.19688E-09-4.70573E-09
 -1       621 5.09584E+02 3.01219E+05 3.87947E+03 4.09147E+04 1.03364E-09-2.16069E-08
 -1       622 6.74983E+02 3.02115E+05 3.44338E+03 5.93996E+04 1.29967E-09-4.15462E-08
 -1       623 1.41823E+02 3.01414E+05 4.13834E+03 4.07296E+04 1.42688E-09-1.48866E-08
 -1       624 2.12328E+03 3.03332E+05 8.02307E+03 5.95818E+04 1.13175E-09-9.44056E-10
 -1       625 2.07488E+03 2.99823E+05 1.40202E+04 4.07264E+04 1.39926E-09 5.24847E-09
 -1       626 2.60707E+05 6.13990E+04 5.11992E+03 1.26691E+05-9.30413E-10-1.79753E-08
 -1       627 2.58388E+05 6.27972E+04 2.46725E+03 1.30965E+05 5.90626E-09-3.09331E-09
 -1       628 2.60835E+05 5.90562E+04 1.04346E+03 1.27561E+05-4.99313E-09-4.07704E-09
 -1       629 2.57753E+05 6.21174E+04 5.10723E+02 1.31205E+05-1.21690E-09-5.51253E-09
 -1       630 2.60849E+05 5.89430E+04 2.37009E+02 1.27598E+05-3.04681E-10-1.62053E-08
 -1       631 2.57686E+05 6.20915E+04 1.27669E+02 1.31207E+05 6.03359E-09-2.67664E-08
 -1       632 2.60846E+05 5.89470E+04 8.42331E+01 1.27593E+05 9.70567E-09-1.32338E-08
 -1       633 2.57677E+05 6.20933E+04 9.41775E+01 1.31203E+05 7.66909E-09 2.50927E-08
 -1       634 2.60841E+05 5.89442E+04 1.52496E+02 1.27593E+05-9.64576E-10 2.50816E-09
 -1       635 2.57692E+05 6.20916E+04 3.08760E+02 1.31209E+05-8.24133E-09 1.20499E-08
 -1       636 2.60832E+05 5.89384E+04 6.23637E+02 1.27593E+05 8.98649E-09 4.77348E-09
 -1       637 2.57827E+05 6.21886E+04 1.37128E+03 1.31208E+05 2.42069E-08 4.32874E-09
 -1       638 2.60784E+05 5.92413E+04 2.81749E+03 1.27456E+05 1.40340E-08 1.68643E-08
 -1       639 2.59307E+05 6.42470E+04 6.66631E+03 1.30772E+05 1.22438E-08 2.33231E-08
 -1       640 2.60579E+05 6.53879E+04 1.38338E+04 1.24866E+05 4.19095E-09-6.05019E-09
 -1       656 6.65475E+04-1.70307E+06-1.60641E+05-2.54275E+03 3.63798E-10-3.50309E-09
 -1       657-8.80365E+04-1.77566E+06-1.33082E+05 5.18292E+03 3.54703E-10-2.84707E-08
 -1       658 2.12129E+04-1.72368E+06-8.19614E+04-4.62572E+03-5.20686E-11-1.85730E-08
 -1       659-9.51975E+04-1.77906E+06-1.42493E+05 6.91246E+03-8.89486E-10 1.65717E-08
 -1       660 7.36926E+04-1.69968E+06-1.76821E+05-4.27227E+03-1.86992E-09 2.80954E-09
 -1       661 1.58687E+05 1.66080E+04 1.67238E+04 6.20346E+04-5.98902E-10-1.46765E-08
 -1       662 1.68140E+05 2.89945E+04 1.12707E+04 5.82843E+04-1.21616E-09-2.06301E-08
 -1       663 1.61972E+05 2.19732E+04 3.94176E+03 6.10813E+04-9.82027E-10-1.45255E-08
 -1       664 1.64331E+05 2.27202E+04 2.35799E+03 5.94489E+04-4.21801E-09-1.52295E-09
 -1       665 1.62470E+05 2.27060E+04 9.30212E+02 6.09358E+04 3.95039E-09-9.25942E-09
 -1       666 1.63742E+05 2.18823E+04 5.44500E+02 5.96386E+04 3.66015E-09-3.41044E-09
 -1       667 1.62557E+05 2.27893E+04 2.89399E+02 6.08993E+04 2.81159E-09 5.93155E-09
 -1       668 1.63645E+05 2.18224E+04 2.95309E+02 5.96916E+04-7.55034E-09 5.60657E-09
 -1       669 1.62565E+05 2.27642E+04 4.00159E+02 6.08831E+04-4.11563E-09 1.59454E-08
 -1       670 1.63743E+05 2.20398E+04 8.71683E+02 5.96946E+04-9.99387E-09 4.34324E-09
 -1       671 1.62460E+05 2.25765E+04 1.54785E+03 6.08944E+04 2.26354E-09 1.20497E-09
 -1       672 1.64645E+05 2.35457E+04 3.96023E+03 5.94760E+04 7.13585E-09-2.74554E-11
 -1       673 1.61668E+05 2.12964E+04 6.63674E+03 6.10870E+04 3.85330E-09 7.16227E-10
 -1       674 1.70961E+05 3.42084E+04 1.89797E+04 5.76203E+04-3.70812E-09-1.77524E-08
 -1       675 1.56184E+05 1.22125E+04 2.81725E+04 6.26381E+04-2.61753E-09-3.69801E-09
 -1       676 2.41086E+01-2.95843E+05-1.11342E+03-1.36323E+02 2.04082E-09 1.41002E-08
 -1       677-2.94546E+02-2.96113E+05-2.03776E+03 2.72427E+02 1.02279E-08-5.22075E-09
 -1       678 1.97542E+02-2.95652E+05-3.60225E+03-1.36014E+02 2.35605E-09 6.45493E-09
 -1       679-3.60233E+03-2.98287E+05-8.55746E+03 2.71250E+02 1.04965E-08-4.78255E-09
 -1       680 2.15079E+03-2.93670E+05-1.37917E+04-1.33644E+02 2.22826E-09 1.40845E-08
 -1       771-3.06248E+06-7.46110E+05-1.64729E+05-1.46511E+06-2.99478E-08-2.91911E-08
 -1       772-2.98555E+06-8.34661E+05-8.49274E+04-1.56748E+06-1.72295E-08 6.64659E-09
 -1       773-3.09379E+06-7.21691E+05-4.32974E+04-1.47952E+06-3.57977E-09 1.25729E-08
 -1       774-2.97608E+06-8.16297E+05-1.93162E+04-1.59312E+06 2.33413E-08-1.09176E-08
 -1       775-3.11014E+06-7.10213E+05-1.44511E+04-1.48651E+06 1.62981E-09 1.24419E-09
 -1       776-2.98833E+06-8.13296E+05-5.40369E+03-1.61251E+06-1.89175E-08-8.58563E-10
 -1       777-3.12433E+06-6.99971E+05-6.38579E+03-1.49269E+06-2.15368E-09-1.46974E-09
 -1       778-3.00113E+06-8.10503E+05-1.80525E+03-1.62917E+06 6.22822E-09 6.83940E-09
 -1       779-3.13653E+06-6.91022E+05-3.19147E+03-1.49796E+06-1.36788E-09-7.84348E-09
 -1       780-3.01240E+06-8.07838E+05-5.29367E+02-1.64274E+06-8.09086E-09-9.20409E-10
 -1       781-3.14623E+06-6.83808E+05-1.24030E+03-1.50209E+06-3.35858E-08-2.26100E-09
 -1       782-3.02109E+06-8.05574E+05 4.45890E+02-1.65275E+06-4.19386E-08-7.97445E-09
 -1       783-3.15305E+06-6.78796E+05 6.93569E+02-1.50498E+06-1.22236E-08-1.75187E-08
 -1       784-3.02590E+06-8.03310E+05 2.87862E+03-1.65893E+06-2.10930E-08 1.54459E-08
 -1       785-3.15709E+06-6.75807E+05 5.08123E+03-1.50681E+06-4.17167E-08 9.15134E-09
 -1       786 1.23862E+05-9.77271E+03 2.26101E+04-3.21319E+02 1.73723E-09 2.35286E-09
 -1       787 1.33668E+05 1.13146E+04 1.59957E+04-1.34688E+02 6.64947E-09 2.47837E-09
 -1       788 1.27643E+05-1.53141E+03 5.84973E+03-2.86220E+02-4.26255E-10 1.47515E-08
 -1       789 1.29263E+05 1.77257E+03 3.67226E+03-1.88480E+02-3.22822E-09 1.75748E-08
 -1       790 1.28267E+05-2.38441E+02 1.48687E+03-2.67544E+02-5.72186E-09 2.18051E-09
 -1       791 1.28533E+05 2.75882E+02 8.58852E+02-2.20435E+02-1.07899E-08-1.22152E-08
 -1       792 1.28373E+05-3.58479E+01 3.64085E+02-2.54267E+02-4.29946E-09-3.41345E-11
 -1       793 1.28407E+05 3.79375E+01 1.81808E+02-2.45407E+02 3.03505E-10 1.40092E-08
 -1       794 1.28394E+05-6.47722E-01 4.78571E+01-2.42572E+02 4.96029E-09 8.94763E-09
 -1       795 1.28370E+05-2.69752E+01-5.62393E+01-2.69806E+02-3.96063E-09-5.51579E-09
 -1       796 1.28410E+05 2.90286E+01-1.60127E+02-2.29869E+02 3.90747E-09 1.37580E-08
 -1       797 1.28277E+05-2.16783E+02-4.40301E+02-2.98978E+02 4.25767E-09 1.03379E-08
 -1       798 1.28487E+05 1.89017E+02-7.15248E+02-2.13400E+02 2.42734E-09-1.15482E-08
 -1       799 1.27734E+05-1.39323E+03-1.96792E+03-3.39745E+02 5.76110E-09-1.42328E-08
 -1       800 1.28953E+05 1.20451E+03-2.78505E+03-1.89102E+02 8.98357E-11 1.16171E-08
 -1       801-1.68425E+05-9.94577E+06-1.38473E+06 1.40254E+06 9.03965E-08-5.11900E-08
 -1       802 7.30122E+05 5.86745E+06 2.16091E+06-1.72998E+06 2.57387E-07-3.73693E-08
 -1       803-5.31855E+05-1.41711E+07-1.87409E+06 8.90434E+05 7.71142E-08 1.93686E-08
 -1       804 2.84040E+05 2.33803E+06 1.52247E+06 6.72808E+05-1.20552E-07-9.15124E-08
 -1       805 1.88247E+05-6.43054E+06-2.83555E+05-9.94634E+05-4.95420E-08-6.09589E-08
 -1       806-3.08693E+05-5.97114E+04-2.28364E+04-1.22317E+05-5.15456E-09 9.53469E-09
 -1       807-3.10491E+05-5.59830E+04-1.12193E+04-1.27858E+05 7.84712E-09 1.95226E-09
 -1       808-3.09320E+05-5.14814E+04-4.75958E+03-1.26208E+05-5.40513E-09 1.23582E-08
 -1       809-3.08132E+05-5.28305E+04-2.32732E+03-1.28133E+05-1.31274E-08-4.49882E-09
 -1       810-3.09415E+05-5.11949E+04-1.06674E+03-1.26380E+05 6.28688E-09 5.41672E-09
 -1       811-3.07949E+05-5.27038E+04-5.30509E+02-1.28098E+05 4.80986E-09-3.54476E-10
 -1       812-3.09429E+05-5.12196E+04-2.68384E+02-1.26380E+05 1.03773E-09 8.01720E-10
 -1       813-3.07924E+05-5.27060E+04-1.74551E+02-1.28079E+05-3.28919E-09 1.15965E-08
 -1       814-3.09422E+05-5.12293E+04-1.73188E+02-1.26375E+05 1.00135E-09 6.48197E-09
 -1       815-3.07928E+05-5.27083E+04-2.79220E+02-1.28071E+05 7.41966E-09-2.40186E-08
 -1       816-3.09401E+05-5.12284E+04-5.29333E+02-1.26372E+05 1.09039E-08 1.91685E-08
 -1       817-3.08018E+05-5.27588E+04-1.13606E+03-1.28060E+05-8.18727E-09 3.43489E-08
 -1       818-3.09332E+05-5.13888E+04-2.31719E+03-1.26296E+05-4.69299E-10 6.96718E-09
 -1       819-3.09286E+05-5.41586E+04-5.45217E+03-1.27759E+05 5.38421E-09-2.39461E-08
 -1       820-3.08895E+05-5.55075E+04-1.10972E+04-1.24537E+05-4.70300E-09-6.01221E-09
 -1       821-3.78825E+05 2.08616E+04-4.85581E+04 2.11563E+03 1.40465E-08-6.27188E-09
 -1       822-3.98539E+05-2.41668E+04-3.41287E+04-4.43645E+03 5.26470E-09-1.02409E-09
 -1       823-3.86294E+05 3.28834E+03-1.25425E+04 3.41614E+03-1.10454E-08 1.46683E-08
 -1       824-3.89525E+05-3.79220E+03-7.85127E+03-5.33955E+03 1.54288E-09 2.54096E-08
 -1       825-3.87845E+05 5.11050E+02-3.28727E+03 3.01885E+03 2.10782E-08 8.25867E-09
 -1       826-3.87103E+05-5.67491E+02-1.74557E+03-3.07732E+03 2.38416E-08 1.36152E-08
 -1       827-3.88692E+05 4.72914E+01-1.18764E+03 1.15377E+03 1.18544E-08-6.97480E-09
 -1       828-3.86405E+05-1.32570E+02-5.89408E+02 1.09140E+03 3.11734E-09-3.22112E-10
 -1       829-3.88531E+05 6.62091E+01-1.17679E+03-1.14991E+03 2.68020E-09 6.79023E-09
 -1       830-3.87451E+05-6.21889E+02-1.88327E+03 4.85641E+03-6.73154E-10 6.50203E-10
 -1       831-3.87668E+05 5.54043E+02-3.36940E+03-2.61125E+03-6.47147E-09-1.59207E-09
 -1       832-3.89606E+05-3.95867E+03-8.15414E+03 6.12820E+03-5.99027E-09-6.25960E-09
 -1       833-3.86392E+05 3.41239E+03-1.30464E+04-2.42175E+03-1.91301E-09-2.28583E-08
 -1       834-3.98602E+05-2.50808E+04-3.53527E+04 4.16706E+03-2.44103E-09-2.79197E-08
 -1       835-3.78655E+05 2.16434E+04-5.04291E+04-6.50030E+02 5.72049E-09 9.93168E-09
 -1       836-1.41265E+03 3.69964E+05 2.28916E+04-1.61529E+04-7.12680E-09-1.31422E-10
 -1       837 4.88038E+03 3.77134E+05 1.93679E+04-3.30053E+04-7.48884E-09-2.36123E-08
 -1       838-5.57388E+02 3.71975E+05 1.97298E+04-1.60813E+04-6.06724E-09-5.69571E-09
 -1       839 1.24156E+04 3.82746E+05 3.73192E+04-3.30577E+04-6.68888E-09 1.01513E-08
 -1       840-3.83821E+03 3.64293E+05 5.95088E+04-1.61062E+04-5.92263E-09 1.27325E-09
 -1       856-5.23438E+04 8.02716E+03-2.11533E+04-3.97837E+02 6.27347E-09 6.49288E-09
 -1       857-6.10586E+04-9.43155E+03-1.45617E+04 5.63219E+03 4.52215E-09-1.58434E-09
 -1       858-5.57951E+04 1.12572E+03-5.48878E+03-4.21946E+02 4.60193E-09-1.74850E-10
 -1       859-5.70980E+04-1.32428E+03-3.31222E+03 5.66807E+03-2.41891E-09 1.55261E-08
 -1       860-5.63107E+04 1.57648E+02-1.38816E+03-4.33447E+02 2.64154E-09 9.16418E-09
 -1       861-5.65049E+04-1.88109E+02-7.63659E+02 5.68373E+03 2.88984E-09 6.67858E-09
 -1       862-5.63913E+04 2.13518E+01-3.17453E+02-4.37590E+02 3.88265E-10-1.27654E-08
 -1       863-5.64060E+04-2.17727E+01-1.15662E+02 5.68614E+03-6.33908E-09-4.88325E-09
 -1       864-5.64100E+04-4.90331E+00 4.71635E+01-4.35850E+02-5.52996E-09-9.21672E-09
 -1       865-5.63503E+04 5.97031E+01 2.55208E+02 5.67621E+03-4.49813E-09 1.99586E-08
 -1       866-5.64449E+04-6.01432E+01 5.14344E+02-4.27661E+02-1.96650E-09-5.98644E-09
 -1       867-5.61084E+04 4.96674E+02 1.26603E+03 5.65397E+03 7.49850E-10-1.65312E-09
 -1       868-5.66470E+04-4.33988E+02 2.10377E+03-4.13617E+02-2.98667E-09 1.23568E-08
 -1       869-5.45660E+04 3.61191E+03 5.60164E+03 5.61739E+03 1.80114E-09-1.80917E-08
 -1       870-5.79795E+04-3.09077E+03 8.12923E+03-3.90970E+02-4.00314E-09-5.71754E-09
 -1       871-5.51793E+03-2.12945E+04-1.94791E+04 1.30341E+05-5.26416E-09 9.25593E-09
 -1       872-1.98450E+03-2.58232E+04-8.15577E+03 1.69007E+05-9.60335E-09-1.08957E-09
 -1       873 4.02342E+02-2.36333E+04 5.90905E+02 1.30054E+05-4.60659E-09 8.54652E-09
 -1       874 3.30150E+03-2.12224E+04 9.77695E+03 1.69036E+05-1.13396E-08 1.90594E-08
 -1       875 6.84164E+03-2.59624E+04 2.20549E+04 1.30293E+05-4.68754E-09-7.48150E-09
 -1       876 2.93644E+05 4.94929E+04 1.50945E+04 1.17842E+05 6.44127E-09 1.45883E-08
 -1       877 2.94641E+05 5.26721E+04 8.06104E+03 1.22172E+05 6.27642E-09 8.13657E-09
 -1       878 2.95055E+05 4.78208E+04 3.37718E+03 1.19079E+05-5.45015E-09-1.70076E-09
 -1       879 2.92590E+05 5.06244E+04 1.68272E+03 1.22274E+05-5.81394E-10 5.52842E-09
 -1       880 2.95156E+05 4.78036E+04 7.83792E+02 1.19129E+05 1.19485E-09 4.50018E-09
 -1       881 2.92453E+05 5.05368E+04 4.18578E+02 1.22251E+05 3.28600E-09 3.85850E-09
 -1       882 2.95165E+05 4.78168E+04 2.67816E+02 1.19131E+05 3.46972E-09-2.76738E-08
 -1       883 2.92444E+05 5.05323E+04 2.87972E+02 1.22243E+05-4.02451E-10-1.48709E-08
 -1       884 2.95159E+05 4.78140E+04 4.58148E+02 1.19131E+05 3.78975E-09-1.62895E-08
 -1       885 2.92480E+05 5.05386E+04 9.21162E+02 1.22254E+05 1.61847E-09 3.13840E-08
 -1       886 2.95123E+05 4.77872E+04 1.85658E+03 1.19127E+05-3.58225E-09 2.35552E-08
 -1       887 2.92806E+05 5.07525E+04 4.05544E+03 1.22301E+05 5.47368E-09 5.36238E-09
 -1       888 2.94867E+05 4.78323E+04 8.17182E+03 1.18998E+05 2.48589E-09-1.26420E-10
 -1       889 2.97671E+05 5.58118E+04 1.95210E+04 1.22152E+05-1.17156E-09-2.57774E-08
 -1       890 2.91531E+05 5.17943E+04 3.65623E+04 1.15888E+05-1.54932E-09 1.75733E-08
 -1       891-8.97985E+01-1.62713E+05-1.99576E+03 2.71514E+04-1.57343E-09 2.05521E-08
 -1       892-1.76026E+02-1.63240E+05-2.14342E+03 4.12301E+04 1.28034E-09-1.19235E-09
 -1       893 4.32113E+01-1.62777E+05-3.03477E+03 2.71587E+04-7.31461E-10 1.50735E-08
 -1       894-1.51020E+03-1.64386E+05-6.28077E+03 4.10775E+04 2.23008E-09 3.37604E-09
 -1       895-1.19929E+03-1.61469E+05-1.10604E+04 2.73057E+04-2.89560E-10-7.80801E-09
 -1       956-3.77039E+05-5.44613E+03-1.34461E+04 3.08202E+04 1.00317E-08-1.27000E-08
 -1       957-3.79677E+05-1.92051E+03-6.90169E+03 3.70384E+04 2.33013E-09-2.86268E-08
 -1       958-3.78247E+05-2.39963E+02-3.11012E+03 3.06526E+04-5.90444E-09-3.28191E-09
 -1       959-3.78444E+05-1.35194E+02-1.58808E+03 3.72338E+04-1.49157E-09 1.99225E-08
 -1       960-3.78365E+05-4.39723E+01-7.74423E+02 3.06354E+04 2.54659E-10 1.42159E-08
 -1       961-3.78364E+05-6.22170E+01-4.10593E+02 3.72542E+04 2.24304E-09 9.38508E-09
 -1       962-3.78393E+05-4.52110E+01-2.35077E+02 3.06325E+04-3.77941E-09-2.74440E-10
 -1       963-3.78364E+05-5.80360E+01-1.88716E+02 3.72579E+04 2.27783E-09-4.77257E-09
 -1       964-3.78398E+05-4.18608E+01-2.29501E+02 3.06317E+04 2.16858E-11 8.09473E-09
 -1       965-3.78376E+05-5.50745E+01-3.96949E+02 3.72571E+04-7.72798E-09 5.12728E-09
 -1       966-3.78382E+05-3.40158E+01-7.45859E+02 3.06332E+04-3.15958E-09 1.36240E-08
 -1       967-3.78466E+05-1.18578E+02-1.52974E+03 3.72428E+04-9.01127E-09 8.72728E-09
 -1       968-3.78278E+05-2.16413E+02-2.99469E+03 3.06459E+04-3.52247E-09-1.61149E-08
 -1       969-3.79666E+05-1.83271E+03-6.64813E+03 3.70945E+04 5.82077E-11-1.56852E-08
 -1       970-3.77123E+05-5.22734E+03-1.29510E+04 3.07730E+04-2.19370E-09 8.74115E-09
 -1       971-3.45258E+05-1.72704E+03-9.30941E+03 1.53757E+04 1.15333E-08 6.88287E-09
 -1       972-3.47499E+05-1.27123E+03-5.06981E+03 2.12661E+04 1.52445E-08 3.00861E-09
 -1       973-3.46295E+05-6.16891E+01-2.27082E+03 1.52546E+04 8.69113E-09 1.20565E-08
 -1       974-3.46430E+05-8.05931E+01-1.17711E+03 2.14032E+04 2.09275E-09-9.44101E-09
 -1       975-3.46377E+05-1.68144E+01-5.88856E+02 1.52422E+04-8.78117E-10 4.02792E-09
 -1       976-3.46369E+05-3.07496E+01-3.40560E+02 2.14190E+04 6.84190E-09-3.29248E-09
 -1       977-3.46394E+05-1.60676E+01-2.48663E+02 1.52388E+04-2.70029E-09-1.85727E-08
 -1       978-3.46374E+05-2.45241E+01-2.93020E+02 2.14238E+04-7.32348E-09 1.36048E-08
 -1       979-3.46394E+05-7.59154E+00-4.72537E+02 1.52374E+04-5.14763E-09 1.03319E-08
 -1       980-3.46410E+05-2.14631E+01-9.13506E+02 2.14248E+04-1.97838E-09 9.44806E-09
 -1       981-3.46364E+05 1.52417E+01-1.76982E+03 1.52379E+04 3.67220E-09-7.70149E-09
 -1       982-3.46653E+05-1.52235E+02-3.65851E+03 2.14182E+04-3.33876E-09-1.60561E-08
 -1       983-3.46141E+05-9.80861E+01-7.10867E+03 1.52439E+04 4.64752E-09-1.09098E-08
 -1       984-3.50072E+05-3.86489E+03-1.59197E+04 2.13325E+04 1.13896E-08 1.88127E-08
 -1       985-3.42923E+05-5.29977E+03-2.92334E+04 1.53154E+04 1.20781E-09 4.47289E-09
 -3
    1PSTEP                        39          20           1          
  100CL  120 6.62846E-01         409                     0   20           1
 -4  DISP        4    1
 -5  D1          1    2    1    0
 -5  D2          1    2    2    0
 -5  D3          1    2    3    0
 -5  ALL         1    2    0    0    1ALL
 -1         1 2.69306E-03 0.00000E+00 0.00000E+00
 -1         2 1.38169E-03 9.61630E-28-5.29396E-23
 -1         3 3.42027E-04-6.20260E-28 0.00000E+00
 -1         5 1.76890E-04-1.83204E-27 8.27181E-25
 -1         8 2.68162E-03-4.13660E-07 0.00000E+00
 -1         9 2.67529E-03-1.76348E-04 0.00000E+00
 -1        10 3.10128E-04-3.42302E-06 0.00000E+00
 -1        12 1.78724E-04 8.08763E-07-1.24077E-24
 -1        15 2.66835E-03-4.39400E-07 2.06795E-25
 -1        16 2.73496E-03-1.78081E-04 0.00000E+00
 -1        17 2.11075E-04-7.79959E-06 0.00000E+00
 -1        18 1.82635E-04 3.42492E-05 0.00000E+00
 -1        19 1.84227E-04 1.61114E-06 0.00000E+00
 -1        20 1.84367E-04-9.72892E-06 0.00000E+00
 -1        21 1.83475E-04-2.50992E-05 0.00000E+00
 -1        24 3.06093E-05-1.20198E-05 0.00000E+00
 -1        25 1.93356E-04 3.44748E-05 0.00000E+00
 -1        26 1.94037E-04 2.23101E-06 0.00000E+00
 -1        27 1.91838E-04-1.32859E-05 0.00000E+00
 -1        28 1.91522E-04-2.57211E-05 0.00000E+00
 -1        32 0.00000E+00 0.00000E+00 0.00000E+00
 -1        33 2.02842E-04 2.98451E-06 0.00000E+00
 -1        34 2.00725E-04-1.33419E-05 0.00000E+00
 -1        35 1.98793E-04-2.60634E-05 0.00000E+00
 -1        51 2.69230E-03-8.60270E-08 0.00000E+00
 -1        52 2.69090E-03-1.53847E-07-3.30872E-24
 -1        53 2.68900E-03-2.18287E-07 0.00000E+00
 -1        54 2.68673E-03-2.81589E-07 1.65436E-24
 -1        55 2.68422E-03-3.45512E-07 8.27181E-25
 -1        56 2.68610E-03 6.70798E-06 0.00000E+00
 -1        57 2.67315E-03 2.82702E-05-5.29396E-23
 -1        58 2.65612E-03 5.99258E-05-1.05879E-22
 -1        59 2.63726E-03 9.59347E-05 0.00000E+00
 -1        60 2.61928E-03 1.29814E-04 0.00000E+00
 -1        61 2.60475E-03 1.55255E-04-5.29396E-23
 -1        62 2.59547E-03 1.67457E-04 1.05879E-22
 -1        63 2.59260E-03 1.62799E-04 5.29396E-23
 -1        64 2.59604E-03 1.40741E-04-1.05879E-22
 -1        65 2.60509E-03 1.02371E-04 5.29396E-23
 -1        66 2.61816E-03 5.18446E-05-1.05879E-22
 -1        67 2.63341E-03-5.51144E-06-5.29396E-23
 -1        68 2.64872E-03-6.30613E-05 1.05879E-22
 -1        69 2.66200E-03-1.14144E-04 0.00000E+00
 -1        70 2.67135E-03-1.53342E-04 1.05879E-22
 -1        86 1.46302E-03-5.65860E-06 0.00000E+00
 -1        87 1.69874E-03-3.52153E-05 0.00000E+00
 -1        88 2.01561E-03-8.58748E-05 0.00000E+00
 -1        89 2.33646E-03-1.37834E-04-1.32349E-23
 -1        90 2.58185E-03-1.69606E-04 5.29396E-23
 -1       121 3.41132E-04-5.52828E-07 0.00000E+00
 -1       122 3.38448E-04-1.10873E-06 6.61744E-24
 -1       123 3.33986E-04-1.67075E-06-1.32349E-23
 -1       124 3.27762E-04-2.24190E-06-6.61744E-24
 -1       125 3.19799E-04-2.82482E-06 0.00000E+00
 -1       191 1.76941E-04 1.34857E-07 1.65436E-24
 -1       192 1.77094E-04 2.69702E-07 8.27181E-25
 -1       193 1.77348E-04 4.04528E-07 1.65436E-24
 -1       194 1.77705E-04 5.39322E-07 1.24077E-24
 -1       195 1.78164E-04 6.74071E-07 2.48154E-24
 -1       251 2.68132E-03 1.73606E-06-6.61744E-24
 -1       252 2.68102E-03 3.67865E-06 3.30872E-24
 -1       253 2.68072E-03 4.51917E-06-6.61744E-24
 -1       254 2.68041E-03 3.37624E-06-3.30872E-24
 -1       255 2.68010E-03-3.34035E-07-6.61744E-24
 -1       256 2.67978E-03-7.16378E-06-3.30872E-24
 -1       257 2.67943E-03-1.71975E-05-6.61744E-24
 -1       258 2.67904E-03-3.04799E-05 0.00000E+00
 -1       259 2.67862E-03-4.65692E-05-6.61744E-24
 -1       260 2.67815E-03-6.49886E-05 3.30872E-24
 -1       261 2.67766E-03-8.49118E-05 0.00000E+00
 -1       262 2.67715E-03-1.05495E-04 0.00000E+00
 -1       263 2.67665E-03-1.25793E-04 0.00000E+00
 -1       264 2.67617E-03-1.44868E-04 6.61744E-24
 -1       265 2.67572E-03-1.61963E-04 1.32349E-23
 -1       266 2.67941E-03-4.23774E-07 0.00000E+00
 -1       267 2.67720E-03-4.27354E-07 0.00000E+00
 -1       268 2.67498E-03-4.31348E-07 0.00000E+00
 -1       269 2.67277E-03-4.34116E-07 2.06795E-25
 -1       270 2.67056E-03-4.36855E-07 0.00000E+00
 -1       271 2.68062E-03 3.11943E-07 0.00000E+00
 -1       272 2.68050E-03-1.38110E-06 6.61744E-24
 -1       273 2.68124E-03-5.36441E-06 0.00000E+00
 -1       274 2.68277E-03-1.14972E-05 0.00000E+00
 -1       275 2.68503E-03-1.96145E-05 2.64698E-23
 -1       276 2.68794E-03-2.95350E-05 0.00000E+00
 -1       277 2.69144E-03-4.10584E-05-2.64698E-23
 -1       278 2.69545E-03-5.39701E-05 0.00000E+00
 -1       279 2.69987E-03-6.80415E-05 2.64698E-23
 -1       280 2.70462E-03-8.30334E-05-1.32349E-23
 -1       281 2.70961E-03-9.86968E-05 0.00000E+00
 -1       282 2.71475E-03-1.14778E-04 0.00000E+00
 -1       283 2.71995E-03-1.31016E-04-2.64698E-23
 -1       284 2.72511E-03-1.47152E-04 6.61744E-24
 -1       285 2.73014E-03-1.62927E-04 0.00000E+00
 -1       301 2.68615E-03-1.76668E-04 6.61744E-24
 -1       302 2.69543E-03-1.76946E-04-3.30872E-24
 -1       303 2.70403E-03-1.77214E-04 1.32349E-23
 -1       304 2.71287E-03-1.77483E-04 0.00000E+00
 -1       305 2.72288E-03-1.77764E-04-2.64698E-23
 -1       306 2.71290E-03-3.29535E-04 0.00000E+00
 -1       307 2.77682E-03-7.41707E-04 5.29396E-23
 -1       308 2.82388E-03-1.34511E-03 0.00000E+00
 -1       309 2.84814E-03-2.04417E-03 0.00000E+00
 -1       310 2.87965E-03-2.71349E-03 0.00000E+00
 -1       311 2.93910E-03-3.23030E-03 0.00000E+00
 -1       312 2.99714E-03-3.51404E-03-1.05879E-22
 -1       313 2.99337E-03-3.52652E-03 0.00000E+00
 -1       314 2.85433E-03-3.27942E-03 0.00000E+00
 -1       315 2.53906E-03-2.83665E-03 0.00000E+00
 -1       316 2.06556E-03-2.27461E-03 0.00000E+00
 -1       317 1.49916E-03-1.66261E-03 5.29396E-23
 -1       318 9.53602E-04-1.06150E-03 1.05879E-22
 -1       319 5.36431E-04-5.36339E-04 0.00000E+00
 -1       320 2.91399E-04-1.61034E-04 0.00000E+00
 -1       336 2.98562E-04-4.08428E-06-1.32349E-23
 -1       337 2.84926E-04-4.77113E-06 0.00000E+00
 -1       338 2.69281E-04-5.48575E-06 0.00000E+00
 -1       339 2.51700E-04-6.22895E-06-6.61744E-24
 -1       340 2.32268E-04-7.00516E-06 0.00000E+00
 -1       406 1.79386E-04 9.43379E-07 0.00000E+00
 -1       407 1.80151E-04 1.07788E-06 8.27181E-25
 -1       408 1.81017E-04 1.21222E-06 8.27181E-25
 -1       409 1.81986E-04 1.34622E-06 6.20385E-25
 -1       410 1.83056E-04 1.47961E-06-1.24077E-24
 -1       521 2.77318E-03-3.40500E-04 0.00000E+00
 -1       522 2.83538E-03-7.72657E-04 0.00000E+00
 -1       523 2.87613E-03-1.40343E-03-1.05879E-22
 -1       524 2.89137E-03-2.13060E-03-5.29396E-23
 -1       525 2.91513E-03-2.82606E-03-1.05879E-22
 -1       526 2.97107E-03-3.36456E-03 0.00000E+00
 -1       527 3.02867E-03-3.65879E-03 0.00000E+00
 -1       528 3.02268E-03-3.66963E-03 0.00000E+00
 -1       529 2.87194E-03-3.40869E-03 0.00000E+00
 -1       530 2.53328E-03-2.94769E-03 5.29396E-23
 -1       531 2.02544E-03-2.36671E-03 0.00000E+00
 -1       532 1.42009E-03-1.73769E-03-5.29396E-23
 -1       533 8.36172E-04-1.11891E-03 0.00000E+00
 -1       534 3.86273E-04-5.73155E-04 5.29396E-23
 -1       535 1.20337E-04-1.78558E-04 0.00000E+00
 -1       536 2.10322E-04 2.70428E-05-6.61744E-24
 -1       537 2.08413E-04 8.73442E-05 1.65436E-24
 -1       538 2.05462E-04 1.63858E-04-3.30872E-24
 -1       539 2.01981E-04 2.47255E-04-1.65436E-24
 -1       540 1.98849E-04 3.26058E-04 0.00000E+00
 -1       541 1.96813E-04 3.88814E-04 0.00000E+00
 -1       542 1.95873E-04 4.28784E-04 3.30872E-24
 -1       543 1.95649E-04 4.39377E-04 1.65436E-24
 -1       544 1.95327E-04 4.21367E-04 0.00000E+00
 -1       545 1.94159E-04 3.75745E-04 0.00000E+00
 -1       546 1.91983E-04 3.10622E-04-3.30872E-24
 -1       547 1.89038E-04 2.34229E-04 1.65436E-24
 -1       548 1.86120E-04 1.58213E-04-3.30872E-24
 -1       549 1.84014E-04 9.42234E-05 1.65436E-24
 -1       550 1.82920E-04 5.02730E-05 0.00000E+00
 -1       551 1.85928E-04-8.36877E-06 0.00000E+00
 -1       552 1.57542E-04-9.01807E-06 0.00000E+00
 -1       553 1.26857E-04-9.72936E-06 6.61744E-24
 -1       554 9.48348E-05-1.04816E-05-3.30872E-24
 -1       555 6.24338E-05-1.12474E-05 0.00000E+00
 -1       556 2.03445E-04 1.17086E-05 0.00000E+00
 -1       557 1.97282E-04 2.75289E-05 0.00000E+00
 -1       558 1.92450E-04 3.99488E-05 0.00000E+00
 -1       559 1.88818E-04 4.92781E-05 0.00000E+00
 -1       560 1.86255E-04 5.58272E-05 0.00000E+00
 -1       561 1.84634E-04 5.99089E-05 0.00000E+00
 -1       562 1.83829E-04 6.18373E-05 0.00000E+00
 -1       563 1.83717E-04 6.19273E-05-1.32349E-23
 -1       564 1.84176E-04 6.04950E-05 0.00000E+00
 -1       565 1.85086E-04 5.78567E-05 0.00000E+00
 -1       566 1.86326E-04 5.43297E-05 0.00000E+00
 -1       567 1.87779E-04 5.02315E-05 0.00000E+00
 -1       568 1.89326E-04 4.58796E-05 1.65436E-24
 -1       569 1.90850E-04 4.15919E-05 8.27181E-25
 -1       570 1.92232E-04 3.76859E-05 0.00000E+00
 -1       571 1.82731E-04 3.21316E-05-8.27181E-25
 -1       572 1.82830E-04 2.99484E-05 0.00000E+00
 -1       573 1.82929E-04 2.77152E-05 3.30872E-24
 -1       574 1.83028E-04 2.54484E-05-8.27181E-25
 -1       575 1.83127E-04 2.31643E-05-3.30872E-24
 -1       576 1.83227E-04 2.08794E-05 0.00000E+00
 -1       577 1.83326E-04 1.86102E-05 0.00000E+00
 -1       578 1.83426E-04 1.63733E-05 0.00000E+00
 -1       579 1.83526E-04 1.41850E-05 0.00000E+00
 -1       580 1.83625E-04 1.20619E-05 0.00000E+00
 -1       581 1.83725E-04 1.00205E-05 0.00000E+00
 -1       582 1.83825E-04 8.07719E-06 0.00000E+00
 -1       583 1.83926E-04 6.24853E-06 6.61744E-24
 -1       584 1.84026E-04 4.55077E-06 0.00000E+00
 -1       585 1.84127E-04 3.00006E-06 0.00000E+00
 -1       586 1.84380E-04 3.42889E-05 0.00000E+00
 -1       587 1.86085E-04 3.43281E-05 4.13590E-25
 -1       588 1.87792E-04 3.43669E-05 0.00000E+00
 -1       589 1.89544E-04 3.44050E-05 0.00000E+00
 -1       590 1.91385E-04 3.44418E-05 0.00000E+00
 -1       591 1.83360E-04 3.22251E-05 0.00000E+00
 -1       592 1.84089E-04 3.01811E-05 2.06795E-25
 -1       593 1.84822E-04 2.81231E-05 0.00000E+00
 -1       594 1.85559E-04 2.60556E-05 4.13590E-25
 -1       595 1.86297E-04 2.39836E-05 8.27181E-25
 -1       596 1.87036E-04 2.19117E-05 0.00000E+00
 -1       597 1.87772E-04 1.98445E-05 8.27181E-25
 -1       598 1.88505E-04 1.77869E-05-4.13590E-25
 -1       599 1.89232E-04 1.57434E-05 0.00000E+00
 -1       600 1.89953E-04 1.37188E-05 0.00000E+00
 -1       601 1.90664E-04 1.17177E-05 0.00000E+00
 -1       602 1.91366E-04 9.74482E-06-4.13590E-25
 -1       603 1.92055E-04 7.80488E-06-8.27181E-25
 -1       604 1.92730E-04 5.90266E-06-2.06795E-25
 -1       605 1.93390E-04 4.04275E-06 4.13590E-25
 -1       606 1.84240E-04 4.55337E-07-3.30872E-24
 -1       607 1.84250E-04-6.14557E-07 0.00000E+00
 -1       608 1.84259E-04-1.60358E-06-3.30872E-24
 -1       609 1.84267E-04-2.51743E-06 0.00000E+00
 -1       610 1.84276E-04-3.36183E-06 3.30872E-24
 -1       611 1.84284E-04-4.14260E-06 0.00000E+00
 -1       612 1.84292E-04-4.86553E-06 0.00000E+00
 -1       613 1.84301E-04-5.53644E-06 0.00000E+00
 -1       614 1.84309E-04-6.16115E-06-1.65436E-24
 -1       615 1.84317E-04-6.74547E-06-8.27181E-25
 -1       616 1.84326E-04-7.29522E-06 0.00000E+00
 -1       617 1.84334E-04-7.81621E-06 0.00000E+00
 -1       618 1.84342E-04-8.31426E-06 0.00000E+00
 -1       619 1.84351E-04-8.79519E-06 0.00000E+00
 -1       620 1.84359E-04-9.26481E-06 0.00000E+00
 -1       621 1.85577E-04 1.71502E-06-1.65436E-24
 -1       622 1.87085E-04 1.81914E-06-1.65436E-24
 -1       623 1.88719E-04 1.92305E-06-3.30872E-24
 -1       624 1.90444E-04 2.02663E-06-1.65436E-24
 -1       625 1.92228E-04 2.12992E-06-1.65436E-24
 -1       626 1.84772E-04 4.91435E-07 0.00000E+00
 -1       627 1.85295E-04-5.65143E-07 0.00000E+00
 -1       628 1.85797E-04-1.56645E-06 0.00000E+00
 -1       629 1.86282E-04-2.52064E-06-1.65436E-24
 -1       630 1.86752E-04-3.43594E-06 0.00000E+00
 -1       631 1.87211E-04-4.32054E-06-1.65436E-24
 -1       632 1.87661E-04-5.18265E-06 3.30872E-24
 -1       633 1.88106E-04-6.03050E-06 1.65436E-24
 -1       634 1.88549E-04-6.87230E-06 3.30872E-24
 -1       635 1.88993E-04-7.71626E-06-1.65436E-24
 -1       636 1.89440E-04-8.57060E-06-3.30872E-24
 -1       637 1.89894E-04-9.44354E-06 0.00000E+00
 -1       638 1.90359E-04-1.03433E-05 1.65436E-24
 -1       639 1.90836E-04-1.12781E-05 8.27181E-25
 -1       640 1.91328E-04-1.22562E-05 0.00000E+00
 -1       656 1.85064E-04-1.03070E-05 6.61744E-24
 -1       657 1.86180E-04-1.09087E-05-6.61744E-24
 -1       658 1.87577E-04-1.15089E-05 0.00000E+00
 -1       659 1.89109E-04-1.21088E-05 0.00000E+00
 -1       660 1.90590E-04-1.27105E-05-6.61744E-24
 -1       661 1.84628E-04-1.02381E-05 0.00000E+00
 -1       662 1.84926E-04-1.08391E-05 0.00000E+00
 -1       663 1.85257E-04-1.15267E-05-1.65436E-24
 -1       664 1.85618E-04-1.22943E-05 0.00000E+00
 -1       665 1.86007E-04-1.31362E-05 0.00000E+00
 -1       666 1.86422E-04-1.40465E-05 0.00000E+00
 -1       667 1.86860E-04-1.50195E-05 0.00000E+00
 -1       668 1.87319E-04-1.60496E-05-8.27181E-25
 -1       669 1.87798E-04-1.71314E-05 1.65436E-24
 -1       670 1.88295E-04-1.82596E-05 8.27181E-25
 -1       671 1.88806E-04-1.94290E-05 0.00000E+00
 -1       672 1.89331E-04-2.06346E-05 0.00000E+00
 -1       673 1.89868E-04-2.18713E-05 1.65436E-24
 -1       674 1.90413E-04-2.31344E-05 0.00000E+00
 -1       675 1.90967E-04-2.44187E-05 0.00000E+00
 -1       676 1.84821E-04-2.52035E-05 3.30872E-24
 -1       677 1.86166E-04-2.53077E-05 0.00000E+00
 -1       678 1.87509E-04-2.54118E-05-3.30872E-24
 -1       679 1.88850E-04-2.55157E-05 1.65436E-24
 -1       680 1.90188E-04-2.56195E-05 1.65436E-24
 -1       771 1.86844E-05 1.46420E-05 0.00000E+00
 -1       772 8.65121E-06 3.65401E-05 5.29396E-23
 -1       773 4.19075E-07 5.39042E-05 0.00000E+00
 -1       774-6.13592E-06 6.69915E-05 2.64698E-23
 -1       775-1.11351E-05 7.60699E-05-5.29396E-23
 -1       776-1.47046E-05 8.14237E-05 0.00000E+00
 -1       777-1.69704E-05 8.33473E-05 0.00000E+00
 -1       778-1.80611E-05 8.21490E-05 2.64698E-23
 -1       779-1.81046E-05 7.81456E-05 0.00000E+00
 -1       780-1.72309E-05 7.16653E-05-2.64698E-23
 -1       781-1.55689E-05 6.30429E-05 0.00000E+00
 -1       782-1.32495E-05 5.26222E-05 2.64698E-23
 -1       783-1.04021E-05 4.07516E-05 0.00000E+00
 -1       784-7.15780E-06 2.77855E-05 0.00000E+00
 -1       785-3.64652E-06 1.40817E-05-5.29396E-23
 -1       786 1.93394E-04 3.22319E-05 1.29247E-26
 -1       787 1.93436E-04 3.00390E-05 0.00000E+00
 -1       788 1.93478E-04 2.78880E-05 0.00000E+00
 -1       789 1.93520E-04 2.57705E-05 8.27181E-25
 -1       790 1.93563E-04 2.36818E-05 0.00000E+00
 -1       791 1.93606E-04 2.16173E-05 0.00000E+00
 -1       792 1.93649E-04 1.95746E-05 0.00000E+00
 -1       793 1.93691E-04 1.75517E-05 0.00000E+00
 -1       794 1.93734E-04 1.55482E-05 0.00000E+00
 -1       795 1.93777E-04 1.35641E-05 0.00000E+00
 -1       796 1.93820E-04 1.16012E-05-1.65436E-24
 -1       797 1.93863E-04 9.66137E-06 8.27181E-25
 -1       798 1.93907E-04 7.74883E-06 0.00000E+00
 -1       799 1.93950E-04 5.86791E-06 0.00000E+00
 -1       800 1.93993E-04 4.02610E-06-1.65436E-24
 -1       801 1.47703E-04 3.09898E-05 2.64698E-23
 -1       802 9.66009E-06 1.93379E-05 2.64698E-23
 -1       803-1.08284E-04 9.76934E-06 5.29396E-23
 -1       804-9.60450E-05 6.79830E-06 2.64698E-23
 -1       805-3.17385E-05 2.67446E-06 0.00000E+00
 -1       806 1.94082E-04 3.21631E-05-1.65436E-24
 -1       807 1.94794E-04 2.98777E-05 1.65436E-24
 -1       808 1.95493E-04 2.76237E-05 0.00000E+00
 -1       809 1.96179E-04 2.54052E-05 0.00000E+00
 -1       810 1.96850E-04 2.32261E-05-3.30872E-24
 -1       811 1.97505E-04 2.10906E-05-1.65436E-24
 -1       812 1.98142E-04 1.90024E-05 0.00000E+00
 -1       813 1.98759E-04 1.69655E-05 0.00000E+00
 -1       814 1.99357E-04 1.49838E-05 3.30872E-24
 -1       815 1.99932E-04 1.30612E-05 0.00000E+00
 -1       816 2.00483E-04 1.12017E-05 1.65436E-24
 -1       817 2.01010E-04 9.40901E-06 0.00000E+00
 -1       818 2.01511E-04 7.68711E-06-1.65436E-24
 -1       819 2.01983E-04 6.03985E-06-8.27181E-25
 -1       820 2.02427E-04 4.47106E-06 0.00000E+00
 -1       821 1.93908E-04-1.17066E-07 1.65436E-24
 -1       822 1.93768E-04-3.61244E-06 0.00000E+00
 -1       823 1.93625E-04-7.82912E-06-3.30872E-24
 -1       824 1.93481E-04-1.23366E-05 0.00000E+00
 -1       825 1.93337E-04-1.66258E-05-3.30872E-24
 -1       826 1.93195E-04-2.01890E-05-1.65436E-24
 -1       827 1.93056E-04-2.27159E-05-3.30872E-24
 -1       828 1.92920E-04-2.39028E-05 0.00000E+00
 -1       829 1.92784E-04-2.38106E-05 0.00000E+00
 -1       830 1.92648E-04-2.25081E-05-1.65436E-24
 -1       831 1.92510E-04-2.03931E-05 0.00000E+00
 -1       832 1.92372E-04-1.78689E-05 1.65436E-24
 -1       833 1.92234E-04-1.54500E-05 3.30872E-24
 -1       834 1.92099E-04-1.36503E-05 0.00000E+00
 -1       835 1.91964E-04-1.28156E-05 0.00000E+00
 -1       836 1.95717E-04 2.35597E-06-3.30872E-24
 -1       837 1.97270E-04 2.48406E-06-1.65436E-24
 -1       838 1.98727E-04 2.61210E-06-3.30872E-24
 -1       839 2.00120E-04 2.73943E-06-8.27181E-25
 -1       840 2.01482E-04 2.86661E-06-8.27181E-25
 -1       856 1.91822E-04-1.43380E-05 8.27181E-25
 -1       857 1.91802E-04-1.52545E-05 0.00000E+00
 -1       858 1.91783E-04-1.60563E-05 2.06795E-25
 -1       859 1.91763E-04-1.67646E-05-2.06795E-25
 -1       860 1.91744E-04-1.74008E-05-4.13590E-25
 -1       861 1.91724E-04-1.79859E-05 0.00000E+00
 -1       862 1.91704E-04-1.85414E-05 0.00000E+00
 -1       863 1.91684E-04-1.90885E-05 4.13590E-25
 -1       864 1.91664E-04-1.96487E-05-8.27181E-25
 -1       865 1.91645E-04-2.02432E-05 4.13590E-25
 -1       866 1.91625E-04-2.08934E-05 8.27181E-25
 -1       867 1.91605E-04-2.16205E-05 0.00000E+00
 -1       868 1.91584E-04-2.24458E-05 0.00000E+00
 -1       869 1.91564E-04-2.33903E-05-4.13590E-25
 -1       870 1.91544E-04-2.44751E-05 0.00000E+00
 -1       871 1.93178E-04-1.32908E-05-8.27181E-25
 -1       872 1.94665E-04-1.32991E-05 0.00000E+00
 -1       873 1.96231E-04-1.33081E-05-4.13590E-25
 -1       874 1.97809E-04-1.33179E-05 2.58494E-25
 -1       875 1.99329E-04-1.33282E-05-1.03398E-24
 -1       876 1.92360E-04-1.43235E-05-3.30872E-24
 -1       877 1.92859E-04-1.52943E-05 0.00000E+00
 -1       878 1.93337E-04-1.62062E-05-3.30872E-24
 -1       879 1.93796E-04-1.70668E-05 0.00000E+00
 -1       880 1.94238E-04-1.78833E-05 0.00000E+00
 -1       881 1.94667E-04-1.86631E-05 0.00000E+00
 -1       882 1.95085E-04-1.94136E-05-3.30872E-24
 -1       883 1.95494E-04-2.01422E-05 0.00000E+00
 -1       884 1.95898E-04-2.08561E-05 0.00000E+00
 -1       885 1.96300E-04-2.15627E-05 0.00000E+00
 -1       886 1.96701E-04-2.22694E-05 0.00000E+00
 -1       887 1.97105E-04-2.29835E-05-1.65436E-24
 -1       888 1.97514E-04-2.37123E-05 0.00000E+00
 -1       889 1.97931E-04-2.44634E-05 0.00000E+00
 -1       890 1.98359E-04-2.52440E-05 0.00000E+00
 -1       891 1.92876E-04-2.57786E-05 0.00000E+00
 -1       892 1.94207E-04-2.58363E-05 0.00000E+00
 -1       893 1.95489E-04-2.58938E-05-8.27181E-25
 -1       894 1.96697E-04-2.59511E-05 0.00000E+00
 -1       895 1.97807E-04-2.60082E-05 0.00000E+00
 -1       956 2.02712E-04 1.67248E-06 3.30872E-24
 -1       957 2.02580E-04 4.51924E-07-8.27181E-25
 -1       958 2.02447E-04-6.87880E-07 3.30872E-24
 -1       959 2.02314E-04-1.75826E-06 0.00000E+00
 -1       960 2.02182E-04-2.77060E-06-3.30872E-24
 -1       961 2.02049E-04-3.73629E-06-1.65436E-24
 -1       962 2.01916E-04-4.66677E-06 0.00000E+00
 -1       963 2.01783E-04-5.57346E-06 0.00000E+00
 -1       964 2.01651E-04-6.46781E-06 0.00000E+00
 -1       965 2.01518E-04-7.36124E-06 1.65436E-24
 -1       966 2.01385E-04-8.26519E-06 3.30872E-24
 -1       967 2.01253E-04-9.19111E-06 0.00000E+00
 -1       968 2.01120E-04-1.01504E-05 6.61744E-24
 -1       969 2.00988E-04-1.11545E-05 3.30872E-24
 -1       970 2.00855E-04-1.22147E-05 3.30872E-24
 -1       971 2.00605E-04-1.44687E-05 0.00000E+00
 -1       972 2.00484E-04-1.55009E-05 1.65436E-24
 -1       973 2.00363E-04-1.64489E-05 0.00000E+00
 -1       974 2.00241E-04-1.73237E-05 1.65436E-24
 -1       975 2.00120E-04-1.81359E-05 3.30872E-24
 -1       976 1.99998E-04-1.88966E-05 1.65436E-24
 -1       977 1.99877E-04-1.96166E-05 0.00000E+00
 -1       978 1.99756E-04-2.03068E-05 1.65436E-24
 -1       979 1.99634E-04-2.09780E-05 0.00000E+00
 -1       980 1.99513E-04-2.16413E-05 0.00000E+00
 -1       981 1.99392E-04-2.23075E-05 3.30872E-24
 -1       982 1.99271E-04-2.29875E-05 0.00000E+00
 -1       983 1.99150E-04-2.36922E-05-3.30872E-24
 -1       984 1.99029E-04-2.44326E-05 0.00000E+00
 -1       985 1.98909E-04-2.52194E-05 3.30872E-24
 -3
    1PSTEP                        40          20           1          
  100CL  120 6.62846E-01         409                     0   20           1
 -4  STRESS      6    1
 -5  SXX         1    4    1    1
 -5  SYY         1    4    2    2
 -5  SZZ         1    4    3    3
 -5  SXY         1    4    1    2
 -5  SYZ         1    4    2    3
 -5  SZX         1    4    3    1
 -1         1-5.30894E+06-1.64829E+06-1.13252E+06-1.43161E+06-3.63798E-10 5.71308E-08
 -1         2 1.32390E+06 1.94850E+07 4.60085E+06 5.85937E+06 3.20433E-08 3.49872E-07
 -1         3-1.48268E+03-1.56975E+06 4.07774E+02-2.22390E+03-4.85826E-10 2.15441E-08
 -1         5-7.42711E+01 3.86171E+05 9.97611E+00-1.33194E+00-5.19920E-10-2.53531E-08
 -1         8-5.94598E+05-2.10943E+05-6.90128E+04-2.57862E+05 1.06411E-10-2.38360E-08
 -1         9 1.15582E+07 3.40754E+06 2.67475E+06-4.27529E+05 3.66708E-09 3.47151E-08
 -1        10-2.30402E+03-1.63580E+06-3.96611E+03-1.50459E+04-1.42154E-08-3.78560E-08
 -1        12-7.03525E+01 3.86192E+05 3.27876E+02-9.08247E+00-7.95438E-10 1.24382E-08
 -1        15 9.65037E+02 5.30335E+02 3.11946E+03 9.22709E-01-1.15278E-10 1.82092E-07
 -1        16 2.26749E+07-3.14042E+05 3.09453E+06-2.20054E+06 3.91155E-08-4.44707E-08
 -1        17 8.30360E+06 6.21779E+06 2.24369E+06 5.95595E+06 2.44647E-08 3.04193E-08
 -1        18 1.41509E+05 3.32883E+04 3.97381E+03-1.19391E+05 1.18810E-08-1.27193E-09
 -1        19 1.22352E+05 1.41596E+05-9.43744E+02 2.19661E+04 1.54432E-09-9.65483E-09
 -1        20-8.18490E+04-5.73429E+05-1.28668E+05 2.51441E+04-3.12381E-09 8.07267E-09
 -1        21-4.55896E+01-2.95960E+05-9.23889E+02 2.73180E+02 1.51757E-08 2.17937E-09
 -1        24 1.38640E+07 1.19433E+07 3.84241E+06 1.10623E+07-1.63302E-07-6.41060E-08
 -1        25 1.23432E+05 2.61766E+05 9.85836E+04-6.42325E+05-1.10722E-09 1.60284E-08
 -1        26-5.53755E+04 9.22331E+04-2.46245E+04 1.27388E+03-1.15688E-10 2.23500E-09
 -1        27-7.55804E+04-3.09813E+05-1.13266E+05 6.89469E+04 3.33724E-09-6.88669E-09
 -1        28 2.22398E+04-8.53242E+04 1.68946E+04 2.06217E+04-5.63864E-09 1.19575E-08
 -1        32-1.67968E+06-3.17527E+06-1.96438E+05 4.51011E+05-4.29718E-08-1.10269E-08
 -1        33-1.78410E+05 9.29515E+04 3.23731E+04-3.84794E+04-3.03089E-09 3.44335E-09
 -1        34-2.23525E+05-2.50136E+04 6.89212E+02 7.56143E+04-4.76310E-09-1.78549E-09
 -1        35-2.29278E+04-3.38377E+04-1.34804E+03 5.14882E+04-4.12194E-09 2.35984E-08
 -1        51 6.00414E+04-1.75075E+05 1.27188E+05-4.54216E+05-4.36557E-11 1.07088E-07
 -1        52 2.03961E+04-1.52958E+05 6.68630E+04-5.29694E+05 3.81988E-10-3.35887E-07
 -1        53 4.24876E+03-1.68384E+05 3.50262E+04-4.52628E+05 5.91172E-10-2.25809E-07
 -1        54 7.71961E+03-1.64177E+05 2.91981E+04-5.31273E+05-6.54836E-11-7.27650E-08
 -1        55 1.68271E+04-1.71454E+05 3.60083E+04-4.52504E+05 3.41970E-10-2.20371E-08
 -1        56-9.70172E+06-1.29255E+06-8.85686E+05-3.99664E+06-5.10481E-08 2.91329E-08
 -1        57-1.08587E+07-1.00784E+06-5.53980E+05-2.87062E+06 6.02522E-08 1.32131E-07
 -1        58-9.60698E+06-1.71979E+06-1.98926E+05-4.13857E+06 1.40135E-08-5.99757E-08
 -1        59-1.09184E+07-5.31275E+05-1.11354E+05-2.81635E+06 4.05598E-08-2.76588E-07
 -1        60-9.68878E+06-1.72576E+06-5.37490E+04-4.09342E+06 3.16868E-09-1.82048E-07
 -1        61-1.04279E+07-7.90544E+05 1.32286E+03-3.04678E+06-2.16824E-09 5.82459E-08
 -1        62-1.00079E+07-1.52056E+06-5.38977E+04-3.83880E+06-2.37924E-09 6.43631E-08
 -1        63-9.74465E+06-1.35205E+06 3.14348E+04-3.62351E+06-5.65087E-08 1.14334E-07
 -1        64-1.03043E+07-1.21219E+06-4.92086E+04-3.47293E+06-3.30911E-08 9.28576E-08
 -1        65-9.40571E+06-1.84266E+06-2.57335E+02-4.32421E+06-3.34112E-08 2.29004E-07
 -1        66-1.04288E+07-9.73119E+05-4.49702E+04-3.19931E+06-2.11767E-08 1.55385E-07
 -1        67-9.38059E+06-2.06494E+06-1.00468E+05-4.64822E+06-6.67278E-08 3.98262E-07
 -1        68-1.04094E+07-9.34702E+05-1.83143E+05-3.19995E+06-6.51717E-08-3.03990E-08
 -1        69-9.59714E+06-2.18061E+06-4.95000E+05-4.28622E+06-3.27045E-08-1.63382E-07
 -1        70-1.01398E+07-9.19223E+05-8.09296E+05-3.51063E+06 7.61429E-08-8.11997E-08
 -1        86-1.34985E+06-1.44022E+07-2.51606E+06-2.75974E+06-2.58064E-07 1.54498E-07
 -1        87 2.09387E+06 5.45886E+06 2.09346E+06 5.23159E+06-4.15224E-07-6.56673E-08
 -1        88-3.79733E+05-2.09024E+06 1.94214E+05-2.40440E+06-3.90135E-07-2.33515E-07
 -1        89 2.80560E+06 5.21437E+06 2.14332E+06 5.39521E+06-5.62890E-07-2.36614E-07
 -1        90-1.98366E+06-1.42222E+07-2.72392E+06-2.94607E+06-1.58281E-07 3.96685E-08
 -1       121-2.03158E+03-1.57463E+06-5.41451E+02 1.10237E+03 1.49625E-09 3.44880E-09
 -1       122-1.29577E+03-1.56981E+06 7.74316E+02-4.45157E+03-5.23552E-09-2.43708E-08
 -1       123-2.05175E+03-1.57477E+06 2.72935E+02 3.29215E+03 4.48529E-09 9.99717E-09
 -1       124 3.51814E+02-1.56936E+06 2.97107E+03-9.31096E+03-1.04137E-08-1.11395E-08
 -1       125-2.86706E+03-1.57567E+06 3.49757E+03 5.91615E+03 6.50834E-09 1.90958E-08
 -1       191-7.82722E+01 3.86189E+05 8.53055E+00 6.94156E-01-5.50101E-10-1.62745E-08
 -1       192-7.52337E+01 3.86171E+05 2.12865E+01-4.27358E+00-8.25505E-10-2.79369E-08
 -1       193-8.08061E+01 3.86189E+05 3.62860E+01 3.75205E+00-1.09466E-09-1.18889E-08
 -1       194-7.83197E+01 3.86175E+05 8.09159E+01-9.69831E+00-5.50722E-10 6.81121E-09
 -1       195-8.56697E+01 3.86186E+05 1.54961E+02 6.30870E+00-1.52150E-09 6.74663E-09
 -1       251-8.56406E+05 1.51775E+04-3.54660E+04-1.31599E+04 9.41687E-09 3.00206E-08
 -1       252-8.69937E+05-1.75528E+04-2.46883E+04 4.51476E+04-1.60114E-08 2.71351E-07
 -1       253-8.64153E+05 2.31888E+03-9.52419E+03-9.08852E+03 5.03735E-09 1.54605E-07
 -1       254-8.57998E+05-2.79131E+03-4.40606E+03 3.15983E+04-1.04419E-08 2.03985E-07
 -1       255-8.67833E+05 8.25741E+01-3.18315E+03 3.86752E+02 1.30899E-09 1.00397E-07
 -1       256-8.53592E+05-2.55316E+02 8.56408E+02 1.02876E+04 1.09708E-10-8.00114E-09
 -1       257-8.68214E+05-4.70931E+02-1.10988E+03 1.22138E+04 1.24919E-09-1.43001E-08
 -1       258-8.56034E+05 7.92181E+02 2.36870E+03-1.18540E+04-4.32738E-09 5.84737E-09
 -1       259-8.65613E+05-7.94156E+02 1.51263E+03 2.25271E+04-9.07039E-09-1.11049E-07
 -1       260-8.61129E+05 2.68678E+03 5.43147E+03-2.76422E+04 1.65983E-09-2.19443E-07
 -1       261-8.63638E+05-1.96348E+03 8.64654E+03 2.80141E+04 2.71253E-08-2.33586E-07
 -1       262-8.59143E+05 1.14505E+04 2.14318E+04-3.20273E+04-1.91977E-08 7.44594E-08
 -1       263-8.67790E+05-9.37661E+03 3.40030E+04 2.69188E+04 7.44649E-12 1.00863E-08
 -1       264-8.29460E+05 6.65654E+04 9.39322E+04-2.34835E+04 2.58778E-08 3.97667E-08
 -1       265-8.92891E+05-5.71602E+04 1.31189E+05 1.94613E+04 2.50535E-08 3.09214E-07
 -1       266-1.74706E+04-8.17005E+03 4.09873E+04-1.97416E+01-1.81899E-10-4.28055E-08
 -1       267 2.02530E+04 9.52115E+03 2.89711E+04 2.27797E+01 5.91172E-11-2.51571E-07
 -1       268-2.71590E+03-1.34852E+03 1.07683E+04-2.90243E+00-1.62345E-10-2.00891E-07
 -1       269 3.20666E+03 1.61382E+03 6.99934E+03 3.38101E+00-3.13776E-11-1.20002E-08
 -1       270-4.81325E+02-2.65167E+02 3.37868E+03-4.58822E-01-4.30873E-11 8.95644E-08
 -1       271-1.62407E+06-2.00756E+05-1.23506E+05-6.28623E+05-2.32330E-08-8.53179E-08
 -1       272-1.63745E+06-3.15617E+05-7.85773E+04-6.53847E+05 2.51694E-08-4.77085E-08
 -1       273-1.65031E+06-2.28790E+05-2.97415E+04-6.19406E+05 3.00497E-09 4.17040E-08
 -1       274-1.60649E+06-2.82820E+05-1.58755E+04-6.70084E+05-1.39971E-08-2.73950E-07
 -1       275-1.65648E+06-2.28855E+05-7.29563E+03-6.15113E+05-4.78212E-09 1.13439E-07
 -1       276-1.59930E+06-2.83746E+05-3.25994E+03-6.79099E+05-2.48619E-08 3.37830E-07
 -1       277-1.65953E+06-2.26187E+05-1.99364E+03-6.11994E+05-1.48666E-08 6.48570E-08
 -1       278-1.59618E+06-2.87447E+05-8.82415E+02-6.85737E+05-2.43963E-08 3.13827E-07
 -1       279-1.66147E+06-2.23936E+05-1.03056E+03-6.09781E+05-1.64637E-08-1.68061E-07
 -1       280-1.59461E+06-2.90324E+05-1.36407E+03-6.90137E+05-8.06540E-09-9.85534E-08
 -1       281-1.66247E+06-2.22449E+05-2.49395E+03-6.08524E+05 3.51065E-09-2.46885E-08
 -1       282-1.59505E+06-2.93250E+05-5.89793E+03-6.91921E+05-3.63100E-08 9.17578E-08
 -1       283-1.66172E+06-2.20727E+05-1.04096E+04-6.08396E+05 4.81853E-08 1.33807E-07
 -1       284-1.60445E+06-3.07393E+05-2.85476E+04-6.89121E+05-1.47327E-08 9.16957E-08
 -1       285-1.65310E+06-2.09675E+05-4.42048E+04-6.10769E+05 3.04021E-08-5.32455E-08
 -1       301-3.14095E+03-6.38185E+05 1.67541E+05-1.11240E+06 5.99539E-09 1.59453E-07
 -1       302-3.90460E+03-5.92392E+05 1.01007E+05-1.62416E+06-1.56579E-08 5.76256E-08
 -1       303-1.85270E+04-6.29732E+05 5.76785E+04-1.10939E+06 8.86939E-09 1.17514E-07
 -1       304-1.95807E+04-5.98469E+05 5.91162E+04-1.62351E+06-2.94822E-08 4.54747E-08
 -1       305-2.21679E+04-6.19143E+05 7.39613E+04-1.11250E+06 7.98536E-10-1.00874E-07
 -1       306-3.00573E+07-6.20566E+06-8.58358E+06-5.63766E+05-1.12341E-07-2.68396E-07
 -1       307 2.53575E+07 3.21120E+06 5.50506E+06-1.51063E+07-8.38132E-07-4.05125E-08
 -1       308-7.03038E+06-1.02647E+06-4.67148E+05 5.19381E+06-9.24338E-08 3.67741E-07
 -1       309-3.29340E+06 8.68754E+06 2.26858E+06-2.06122E+07 3.59752E-07 2.86669E-07
 -1       310-1.24729E+07-1.91498E+06-2.00181E+06 5.19908E+06 1.19850E-07-1.03784E-07
 -1       311 3.80513E+07 1.96648E+04 7.22209E+06-8.87613E+06 1.34285E-07-1.06316E-07
 -1       312-3.18012E+07-6.71452E+06-8.48449E+06-4.96112E+06 2.07336E-07 4.62212E-07
 -1       313 4.53231E+07 1.47984E+07 1.06193E+07 2.35813E+07 5.28235E-08-2.17406E-08
 -1       314-1.72674E+07-1.76543E+07-7.49850E+06-1.25029E+07 4.69328E-07-4.32483E-08
 -1       315-1.73675E+06 2.95583E+07 5.65598E+06 1.06210E+07-4.19022E-07-8.73115E-08
 -1       316 1.35195E+06-9.83894E+06-4.50221E+05-2.58134E+06-1.01631E-06-3.15078E-07
 -1       317-1.71399E+07 2.23526E+07 2.22482E+06-8.71127E+06 7.15372E-07-8.54503E-07
 -1       318-1.06902E+06-1.26993E+07-2.01655E+06-4.24684E+06-8.14704E-07 4.81959E-08
 -1       319 7.11592E+06 3.17306E+07 6.98833E+06 1.65074E+07-6.92016E-08 1.96713E-07
 -1       320-2.25102E+07-1.75382E+07-9.79917E+06-1.27561E+07 2.00933E-07-7.86677E-08
 -1       336-7.24255E+02-1.70460E+06-1.39124E+04 8.96119E+03-2.65300E-08-4.67116E-09
 -1       337-5.42389E+03-1.70420E+06-1.81565E+04-2.17574E+04-4.79529E-08-3.49610E-09
 -1       338 2.96566E+02-1.70409E+06-2.85739E+04 1.25470E+04-3.40424E-08 1.25110E-08
 -1       339-3.03186E+04-1.72150E+06-6.45962E+04-2.87789E+04-6.28970E-08 2.33485E-08
 -1       340 1.99971E+04-1.68948E+06-1.01740E+05 1.58521E+04-4.19532E-08 4.67844E-08
 -1       406-4.86177E+01 3.86172E+05 6.43830E+02 3.31627E+00-1.97298E-09 3.24380E-08
 -1       407 1.55730E+02 3.86306E+05 1.37580E+03 2.32579E+01-3.72061E-10 2.32940E-08
 -1       408 6.35542E+02 3.86071E+05 2.74329E+03-2.69008E+01-2.37583E-09 7.86531E-09
 -1       409 2.90611E+03 3.87182E+05 6.18303E+03 2.87093E+02-7.79210E-10 2.03117E-08
 -1       410 8.47560E+03 3.85282E+05 1.26194E+04-2.76838E+02-3.09410E-09 7.37600E-09
 -1       521-3.15769E+07-7.65000E+06-1.00145E+07-1.75733E+05-9.58098E-08-2.28349E-07
 -1       522 2.61885E+07 4.20949E+06 5.60558E+06-1.85833E+07-5.86035E-07-6.49801E-07
 -1       523-7.61354E+06-1.33545E+06-4.59173E+05 5.63686E+06 1.06753E-07-2.56929E-07
 -1       524-6.78332E+06 1.17054E+07 2.45053E+06-2.36519E+07 6.33954E-07-5.37948E-07
 -1       525-1.32718E+07-2.53776E+06-2.19747E+06 5.64305E+06 4.54602E-07-1.64058E-07
 -1       526 4.14699E+07-6.85329E+04 7.57174E+06-1.15142E+07 1.21305E-07-3.73460E-07
 -1       527-3.36156E+07-8.39477E+06-9.76750E+06-4.81964E+06-4.02797E-08-2.22921E-07
 -1       528 4.94395E+07 1.64506E+07 1.10643E+07 2.67745E+07-5.47734E-08 1.89466E-08
 -1       529-1.82042E+07-1.98303E+07-8.58713E+06-1.25297E+07-1.72819E-07-1.58674E-07
 -1       530-4.21138E+06 3.42869E+07 5.97840E+06 1.01059E+07-3.96452E-07 6.33416E-07
 -1       531 1.34393E+06-1.09094E+07-4.24349E+05-2.54215E+06-1.03412E-06 2.94764E-07
 -1       532-1.96808E+07 2.43564E+07 2.42781E+06-1.29518E+07 2.66984E-07-7.59974E-07
 -1       533-1.11499E+06-1.38367E+07-2.14271E+06-4.06737E+06-2.73227E-07-1.01805E-06
 -1       534 5.09452E+06 3.67731E+07 7.26407E+06 1.70594E+07-9.58680E-08 7.82020E-07
 -1       535-2.36708E+07-1.98970E+07-1.12201E+07-1.28165E+07 8.07922E-08 4.78874E-07
 -1       536-7.04855E+05-4.68658E+04-4.72288E+04-5.45102E+04-3.85444E-09 6.11099E-08
 -1       537-5.61209E+04 4.48624E+04 8.40846E+04 1.23516E+05-1.12183E-07 1.01631E-07
 -1       538-3.94360E+05 3.28326E+03 3.73026E+03-7.20352E+04 2.53559E-08 1.19030E-07
 -1       539-2.69501E+05 2.89003E+03 2.49279E+04 1.38396E+05 1.60952E-07 1.13243E-07
 -1       540-4.96831E+05-4.27736E+02-2.11818E+04-6.99210E+04-1.28898E-08 1.11970E-07
 -1       541 1.44501E+05 1.69067E+04 1.05974E+05 9.76398E+04-2.12583E-08 8.76962E-08
 -1       542-7.97207E+05-2.00557E+04-8.38824E+04-3.04100E+04 4.53115E-08 5.26201E-08
 -1       543 4.02115E+05 2.72157E+04 1.57325E+05-1.33356E+04 3.41333E-09-2.69883E-08
 -1       544-7.47536E+05-1.64670E+04-7.45233E+04 4.03889E+04-2.87991E-08-2.27151E-08
 -1       545 2.72270E+04 9.43648E+03 7.94627E+04-1.13321E+05-1.68544E-08-6.32315E-08
 -1       546-4.32386E+05 6.07785E+03-1.21820E+04 6.92311E+04 3.16259E-08-8.97606E-08
 -1       547-2.87542E+05-4.65933E+03 1.05070E+04-1.41241E+05-9.67880E-08-1.13011E-07
 -1       548-4.41229E+05 4.71404E+03-2.38310E+04 6.89956E+04-1.02141E-07-8.56226E-08
 -1       549 4.63939E+04 1.59172E+04 6.01501E+04-1.11172E+05-6.83020E-08-5.42923E-08
 -1       550-7.57387E+05-2.19755E+04-1.28622E+05 3.84507E+04 1.20053E-09-4.08363E-08
 -1       551 4.07702E+04-7.54723E+05-1.54819E+04-1.24717E+06-1.03057E-07-2.05473E-08
 -1       552 9.31386E+04-7.99548E+05 1.01830E+04-1.77835E+06-7.37491E-08 2.44472E-08
 -1       553 7.16328E+04-7.96003E+05 3.22533E+04-1.24054E+06-1.19078E-07 2.18570E-08
 -1       554 1.31890E+05-8.15308E+05 8.13714E+04-1.78030E+06-7.33125E-08 2.42071E-08
 -1       555 1.01397E+05-8.19625E+05 1.48541E+05-1.24038E+06-1.22651E-07-1.68347E-08
 -1       556 2.23147E+05-3.82814E+05 2.65355E+04-4.06763E+05-2.50002E-08-7.94535E-09
 -1       557 3.53629E+05-4.87053E+05 1.65441E+04-5.26905E+05-3.02680E-09 1.60289E-08
 -1       558 2.05033E+05-3.75785E+05 2.50919E+03-4.11075E+05-2.04018E-08-7.97445E-09
 -1       559 3.28604E+05-4.87240E+05 2.52673E+03-5.47286E+05 2.16532E-08-1.86628E-08
 -1       560 1.89788E+05-3.66223E+05-1.45420E+03-4.22058E+05 5.84987E-09 6.57747E-09
 -1       561 3.09438E+05-4.79575E+05 1.51329E+02-5.60351E+05-2.04309E-08 5.02041E-10
 -1       562 1.77732E+05-3.58732E+05-1.31024E+03-4.30787E+05-1.41736E-08-7.38510E-09
 -1       563 2.95119E+05-4.73333E+05-3.13303E+01-5.69702E+05 2.32831E-10-7.64521E-09
 -1       564 1.69131E+05-3.53373E+05-5.95029E+02-4.36882E+05 5.47152E-09-1.29612E-08
 -1       565 2.85625E+05-4.69198E+05 2.53135E+01-5.75767E+05 1.93977E-08 8.24912E-10
 -1       566 1.64106E+05-3.50194E+05-2.58104E+02-4.40397E+05-3.76167E-09 2.39743E-09
 -1       567 2.81016E+05-4.67193E+05-3.61331E+02-5.78566E+05 2.62826E-08 1.96342E-08
 -1       568 1.62748E+05-3.49362E+05-1.12287E+03-4.41443E+05-1.62436E-09 2.12822E-09
 -1       569 2.79905E+05-4.67122E+05-2.83609E+03-5.77132E+05-1.77670E-08 1.00626E-08
 -1       570 1.66148E+05-3.52594E+05-6.20087E+03-4.40424E+05-9.02219E-10 3.58614E-09
 -1       571 2.90376E+05 1.05031E+04 1.49859E+04-9.51047E+04 1.12141E-08-7.11225E-10
 -1       572 2.92548E+05 3.95783E+03 7.34427E+03-1.04340E+05 2.79979E-08-8.84029E-09
 -1       573 2.91239E+05 1.24414E+03 3.26330E+03-9.49283E+04 7.57700E-09 8.32824E-09
 -1       574 2.91453E+05 7.25620E+02 1.63652E+03-1.04564E+05-1.16286E-08-1.78625E-08
 -1       575 2.91332E+05 4.46635E+02 7.72390E+02-9.49042E+04-9.25353E-09 2.87218E-09
 -1       576 2.91317E+05 4.57844E+02 3.95460E+02-1.04594E+05-6.94126E-09 6.16819E-09
 -1       577 2.91372E+05 3.88573E+02 1.97419E+02-9.49009E+04-5.55883E-09 1.00681E-09
 -1       578 2.91347E+05 4.19833E+02 1.14050E+02-1.04598E+05-6.40648E-09-1.92467E-08
 -1       579 2.91444E+05 3.51951E+02 7.83499E+01-9.49005E+04 1.46647E-08-2.86309E-09
 -1       580 2.91449E+05 3.68893E+02 9.09531E+01-1.04593E+05 5.84987E-09-1.24328E-09
 -1       581 2.91558E+05 2.93482E+02 1.37416E+02-9.49065E+04 1.18871E-08 1.01090E-08
 -1       582 2.91624E+05 3.31664E+02 2.79393E+02-1.04531E+05 2.15368E-09 1.23973E-08
 -1       583 2.91698E+05 3.36106E+02 5.36293E+02-9.49630E+04 5.42059E-09 1.05940E-08
 -1       584 2.91999E+05 7.74047E+02 1.21356E+03-1.04055E+05 8.90032E-09-3.29032E-09
 -1       585 2.91724E+05 1.79560E+03 2.45745E+03-9.53817E+04 7.09406E-11-1.58871E-08
 -1       586-3.42161E+03 1.16789E+05-2.91826E+03-2.50601E+05-9.05811E-09-5.92331E-09
 -1       587-1.33550E+03 1.16540E+05 7.69890E+02-2.75805E+05-5.70071E-09 1.72380E-08
 -1       588 4.01486E+02 1.16348E+05 4.75727E+03-2.50463E+05-5.65160E-09 1.43991E-08
 -1       589 5.08682E+03 1.18820E+05 1.23397E+04-2.75572E+05-1.05338E-08 3.97267E-09
 -1       590 1.66067E+04 1.15015E+05 2.58854E+04-2.50894E+05-5.98266E-09-1.08776E-09
 -1       591-7.49384E+04-1.59670E+04-2.25171E+04-3.19439E+04-6.92194E-09-9.46693E-09
 -1       592-7.90237E+04-1.95245E+04-1.21971E+04-3.55691E+04-1.01713E-08 1.23911E-08
 -1       593-7.71904E+04-1.43331E+04-5.07702E+03-3.35949E+04-6.79903E-09-1.69057E-08
 -1       594-7.59147E+04-1.62204E+04-2.53204E+03-3.56869E+04-5.82943E-09-1.51198E-09
 -1       595-7.73620E+04-1.43277E+04-1.16246E+03-3.36699E+04-5.27950E-09-8.74113E-09
 -1       596-7.57019E+04-1.60693E+04-5.90730E+02-3.56616E+04 4.61294E-09 4.34108E-09
 -1       597-7.73836E+04-1.43431E+04-3.21223E+02-3.36727E+04 1.46161E-09 6.51278E-09
 -1       598-7.56809E+04-1.60633E+04-2.57407E+02-3.56545E+04-3.62741E-09 6.28282E-09
 -1       599-7.73823E+04-1.43436E+04-3.27786E+02-3.36724E+04 5.55940E-09-2.23736E-10
 -1       600-7.57019E+04-1.60698E+04-6.08104E+02-3.56594E+04 2.78033E-09-2.47404E-08
 -1       601-7.73577E+04-1.43291E+04-1.19923E+03-3.36689E+04 1.17166E-09-3.66526E-10
 -1       602-7.59215E+04-1.62246E+04-2.61338E+03-3.56817E+04-3.99041E-10-7.16329E-09
 -1       603-7.71778E+04-1.43376E+04-5.24079E+03-3.35923E+04 5.34328E-11 2.50657E-09
 -1       604-7.91483E+04-1.96156E+04-1.25896E+04-3.55353E+04 8.17067E-10 1.05963E-08
 -1       605-7.48332E+04-1.60419E+04-2.32419E+04-3.19075E+04 7.95404E-09 1.29276E-08
 -1       606 2.67032E+04-1.43221E+04-2.56749E+04 2.40012E+04 2.86127E-09-5.40058E-09
 -1       607 2.23163E+04-4.67746E+03-1.27860E+04 2.69722E+04 2.56478E-10-2.91107E-09
 -1       608 2.48165E+04-8.43695E+02-5.72386E+03 2.38323E+04-2.09729E-09-8.45671E-09
 -1       609 2.43372E+04-2.88901E+02-2.89154E+03 2.71863E+04 4.77485E-09 1.17025E-08
 -1       610 2.46030E+04-4.07942E+01-1.37959E+03 2.38123E+04 6.95763E-09 3.32170E-09
 -1       611 2.45277E+04-4.10187E+01-6.95577E+02 2.72095E+04 8.07086E-09 4.22983E-09
 -1       612 2.45558E+04-2.70752E+01-3.30663E+02 2.38102E+04 9.97716E-10-1.18036E-08
 -1       613 2.45392E+04-3.69145E+01-1.48146E+02 2.72122E+04 1.96633E-09-1.37015E-09
 -1       614 2.45337E+04-3.34783E+01-3.46652E+01 2.38095E+04-7.97627E-10 9.61904E-09
 -1       615 2.45339E+04-3.54141E+01 6.22751E+01 2.72126E+04-1.85582E-09-5.61067E-09
 -1       616 2.45163E+04-3.03461E+01 1.86573E+02 2.38098E+04 1.65392E-09-1.67406E-08
 -1       617 2.45564E+04 4.35034E+00 4.25610E+02 2.72121E+04 6.77574E-11 7.45376E-09
 -1       618 2.44793E+04 9.23533E+01 8.57860E+02 2.38101E+04-1.27193E-09 4.59954E-09
 -1       619 2.48592E+04 6.67652E+02 1.92638E+03 2.72115E+04-2.95074E-09 1.47090E-08
 -1       620 2.41944E+04 2.12657E+03 3.87196E+03 2.38116E+04-8.24457E-10-3.50792E-09
 -1       621 5.10004E+02 3.01305E+05 3.88127E+03 4.09564E+04 9.42691E-10-9.65792E-09
 -1       622 6.75642E+02 3.02202E+05 3.44484E+03 5.94599E+04 1.24783E-09 1.34842E-08
 -1       623 1.42129E+02 3.01500E+05 4.13989E+03 4.07711E+04 1.14096E-09 2.55604E-08
 -1       624 2.12444E+03 3.03419E+05 8.02591E+03 5.96424E+04 1.33269E-09 4.58476E-09
 -1       625 2.07590E+03 2.99908E+05 1.40251E+04 4.07679E+04 1.31331E-09 7.25004E-09
 -1       626 2.60778E+05 6.14051E+04 5.12060E+03 1.26712E+05 1.41154E-09-2.05910E-09
 -1       627 2.58459E+05 6.28028E+04 2.46758E+03 1.30985E+05 2.24463E-09 8.35166E-09
 -1       628 2.60906E+05 5.90622E+04 1.04360E+03 1.27582E+05-6.89579E-09 2.01271E-09
 -1       629 2.57824E+05 6.21228E+04 5.10791E+02 1.31226E+05-7.84848E-09 1.24379E-08
 -1       630 2.60920E+05 5.89490E+04 2.37042E+02 1.27619E+05-4.53156E-09 2.88537E-09
 -1       631 2.57757E+05 6.20969E+04 1.27688E+02 1.31228E+05 1.03601E-08 3.66795E-08
 -1       632 2.60917E+05 5.89529E+04 8.42484E+01 1.27615E+05 9.90394E-09-3.83125E-10
 -1       633 2.57748E+05 6.20988E+04 9.41988E+01 1.31224E+05 2.57592E-09-1.68318E-08
 -1       634 2.60912E+05 5.89501E+04 1.52534E+02 1.27614E+05-1.19269E-09 1.23680E-08
 -1       635 2.57763E+05 6.20970E+04 3.08840E+02 1.31230E+05-3.26685E-09 1.79411E-08
 -1       636 2.60903E+05 5.89443E+04 6.23799E+02 1.27614E+05 3.44335E-09 1.59330E-08
 -1       637 2.57898E+05 6.21940E+04 1.37164E+03 1.31229E+05 5.99061E-09 2.82539E-08
 -1       638 2.60854E+05 5.92473E+04 2.81822E+03 1.27477E+05 1.25119E-08 3.68345E-11
 -1       639 2.59378E+05 6.42530E+04 6.66805E+03 1.30793E+05 1.42131E-08-1.13346E-09
 -1       640 2.60649E+05 6.53955E+04 1.38374E+04 1.24886E+05 9.46648E-09 1.40215E-08
 -1       656 6.65623E+04-1.70347E+06-1.60677E+05-2.54664E+03-4.00178E-10-1.94904E-08
 -1       657-8.80561E+04-1.77607E+06-1.33111E+05 5.17763E+03-1.02773E-10-3.71244E-08
 -1       658 2.12177E+04-1.72408E+06-8.19800E+04-4.63021E+03 1.75532E-10-2.41505E-09
 -1       659-9.52194E+04-1.77947E+06-1.42525E+05 6.90805E+03-1.12232E-09 1.51520E-08
 -1       660 7.37096E+04-1.70007E+06-1.76862E+05-4.27704E+03-2.49565E-09-3.20026E-09
 -1       661 1.58647E+05 1.66028E+04 1.67217E+04 6.20190E+04 9.25411E-10 2.47383E-10
 -1       662 1.68100E+05 2.89869E+04 1.12693E+04 5.82682E+04 2.16824E-09-1.92449E-09
 -1       663 1.61931E+05 2.19674E+04 3.94127E+03 6.10657E+04 1.96451E-10 2.11767E-08
 -1       664 1.64292E+05 2.27134E+04 2.35770E+03 5.94326E+04-4.70595E-09 2.08490E-08
 -1       665 1.62430E+05 2.27001E+04 9.30097E+02 6.09203E+04-1.51829E-10 1.39983E-08
 -1       666 1.63702E+05 2.18756E+04 5.44435E+02 5.96223E+04 4.27804E-09-9.73863E-10
 -1       667 1.62517E+05 2.27834E+04 2.89367E+02 6.08838E+04-2.88279E-09 3.74737E-09
 -1       668 1.63606E+05 2.18158E+04 2.95284E+02 5.96753E+04-4.40275E-09 1.16816E-08
 -1       669 1.62525E+05 2.27582E+04 4.00130E+02 6.08676E+04-1.71107E-09 2.03936E-08
 -1       670 1.63703E+05 2.20331E+04 8.71625E+02 5.96782E+04-1.01269E-08 4.36586E-09
 -1       671 1.62419E+05 2.25706E+04 1.54775E+03 6.08789E+04 4.75696E-09-1.11696E-08
 -1       672 1.64605E+05 2.35389E+04 3.95997E+03 5.94597E+04 1.32605E-08-4.75325E-09
 -1       673 1.61627E+05 2.12906E+04 6.63630E+03 6.10715E+04 6.08043E-09 7.38146E-09
 -1       674 1.70921E+05 3.42009E+04 1.89784E+04 5.76041E+04-4.52656E-09 4.83010E-09
 -1       675 1.56144E+05 1.22072E+04 2.81707E+04 6.26224E+04-4.03588E-09-2.44290E-09
 -1       676 2.41115E+01-2.95882E+05-1.11353E+03-1.36594E+02 2.77416E-09-6.51299E-09
 -1       677-2.94569E+02-2.96152E+05-2.03795E+03 2.72968E+02 1.12129E-08 1.54063E-08
 -1       678 1.97561E+02-2.95690E+05-3.60260E+03-1.36285E+02 1.39994E-09 1.36796E-08
 -1       679-3.60267E+03-2.98326E+05-8.55827E+03 2.71789E+02 8.33961E-09-2.13406E-08
 -1       680 2.15099E+03-2.93709E+05-1.37930E+04-1.33909E+02 1.00499E-09 8.51387E-09
 -1       771-3.06274E+06-7.46399E+05-1.64943E+05-1.46540E+06-3.17814E-08-3.16650E-08
 -1       772-2.98577E+06-8.35009E+05-8.50372E+04-1.56785E+06-1.94268E-08 1.17325E-08
 -1       773-3.09409E+06-7.21953E+05-4.33543E+04-1.47984E+06-7.30506E-09 8.70205E-09
 -1       774-2.97629E+06-8.16616E+05-1.93414E+04-1.59351E+06 3.12721E-08-8.54925E-09
 -1       775-3.11046E+06-7.10462E+05-1.44706E+04-1.48684E+06-9.22591E-09 5.10045E-09
 -1       776-2.98856E+06-8.13609E+05-5.41089E+03-1.61292E+06-2.02272E-08 9.13133E-09
 -1       777-3.12467E+06-7.00206E+05-6.39464E+03-1.49303E+06 2.06637E-09 7.62520E-09
 -1       778-3.00138E+06-8.10810E+05-1.80774E+03-1.62960E+06 6.22822E-09 6.18456E-09
 -1       779-3.13688E+06-6.91246E+05-3.19597E+03-1.49831E+06-1.16852E-08-1.15397E-08
 -1       780-3.01267E+06-8.08139E+05-5.30105E+02-1.64319E+06-4.12547E-09 2.92857E-10
 -1       781-3.14659E+06-6.84022E+05-1.24205E+03-1.50244E+06-2.76050E-08-2.91038E-11
 -1       782-3.02137E+06-8.05870E+05 4.46572E+02-1.65322E+06-3.54485E-08-9.38508E-09
 -1       783-3.15343E+06-6.79004E+05 6.94650E+02-1.50534E+06 3.44153E-09-1.81230E-08
 -1       784-3.02619E+06-8.03602E+05 2.88297E+03-1.65941E+06-2.28465E-09-4.62478E-09
 -1       785-3.15747E+06-6.76011E+05 5.08893E+03-1.50717E+06-3.00060E-08 1.16052E-09
 -1       786 1.23820E+05-9.77215E+03 2.26088E+04-3.21570E+02 1.04765E-09 1.52577E-08
 -1       787 1.33625E+05 1.13140E+04 1.59948E+04-1.34900E+02 7.51188E-09 7.60338E-10
 -1       788 1.27600E+05-1.53132E+03 5.84940E+03-2.86462E+02 4.65934E-09 2.37249E-08
 -1       789 1.29221E+05 1.77246E+03 3.67205E+03-1.88702E+02-2.00907E-09 2.78942E-09
 -1       790 1.28225E+05-2.38426E+02 1.48678E+03-2.67785E+02-5.25997E-09-1.18395E-08
 -1       791 1.28491E+05 2.75865E+02 8.58788E+02-2.20659E+02-6.86269E-09-7.06564E-09
 -1       792 1.28330E+05-3.58429E+01 3.64035E+02-2.54508E+02-6.60800E-09-3.15072E-09
 -1       793 1.28365E+05 3.79228E+01 1.81731E+02-2.45630E+02-1.00067E-09 5.58637E-09
 -1       794 1.28351E+05-6.34771E-01 4.77344E+01-2.42813E+02 3.12967E-09-8.19367E-09
 -1       795 1.28328E+05-2.70608E+01-5.65123E+01-2.70026E+02-5.83698E-09 1.19115E-09
 -1       796 1.28367E+05 2.91043E+01-1.60594E+02-2.30112E+02 4.22201E-09 3.90293E-09
 -1       797 1.28234E+05-2.17335E+02-4.41449E+02-2.99191E+02 4.92026E-09-7.15396E-10
 -1       798 1.28445E+05 1.89497E+02-7.17076E+02-2.13648E+02 1.59385E-09 6.42240E-09
 -1       799 1.27690E+05-1.39676E+03-1.97291E+03-3.39947E+02 6.27848E-09-1.99074E-09
 -1       800 1.28912E+05 1.20757E+03-2.79211E+03-1.89357E+02 2.19408E-10 7.52721E-10
 -1       801-1.68957E+05-9.95537E+06-1.38635E+06 1.40489E+06 9.39763E-08-5.44715E-08
 -1       802 7.31628E+05 5.88258E+06 2.16471E+06-1.73316E+06 2.59337E-07-3.74357E-08
 -1       803-5.32728E+05-1.41884E+07-1.87705E+06 8.91898E+05 7.85803E-08 2.59206E-08
 -1       804 2.84618E+05 2.34826E+06 1.52515E+06 6.73575E+05-1.19329E-07-9.98834E-08
 -1       805 1.88442E+05-6.43524E+06-2.84021E+05-9.96212E+05-4.95129E-08-6.46987E-08
 -1       806-3.08765E+05-5.97256E+04-2.28419E+04-1.22346E+05-8.86712E-09-4.13775E-09
 -1       807-3.10562E+05-5.59965E+04-1.12220E+04-1.27888E+05 1.01836E-08-6.89077E-09
 -1       808-3.09392E+05-5.14937E+04-4.76073E+03-1.26238E+05 2.44518E-09-2.77121E-08
 -1       809-3.08203E+05-5.28433E+04-2.32788E+03-1.28163E+05 2.36264E-09-1.36914E-08
 -1       810-3.09486E+05-5.12071E+04-1.06700E+03-1.26410E+05 1.23187E-08-8.93124E-09
 -1       811-3.08021E+05-5.27166E+04-5.30637E+02-1.28128E+05 6.82121E-12-2.43017E-09
 -1       812-3.09500E+05-5.12318E+04-2.68450E+02-1.26409E+05-7.37600E-09 8.80982E-09
 -1       813-3.07995E+05-5.27188E+04-1.74595E+02-1.28109E+05 5.00222E-10 1.02300E-08
 -1       814-3.09493E+05-5.12415E+04-1.73234E+02-1.26405E+05-3.56977E-09-6.81575E-09
 -1       815-3.07999E+05-5.27210E+04-2.79296E+02-1.28102E+05 1.88402E-09 4.18413E-09
 -1       816-3.09472E+05-5.12406E+04-5.29479E+02-1.26401E+05 5.84532E-09 2.11567E-08
 -1       817-3.08089E+05-5.27715E+04-1.13637E+03-1.28090E+05-1.38989E-08-7.32507E-09
 -1       818-3.09404E+05-5.14011E+04-2.31783E+03-1.26326E+05-5.88989E-09-1.13546E-08
 -1       819-3.09357E+05-5.41718E+04-5.45367E+03-1.27790E+05-1.93268E-09-2.59729E-09
 -1       820-3.08966E+05-5.55209E+04-1.11002E+04-1.24566E+05-2.83944E-09-6.56337E-09
 -1       821-3.78885E+05 2.08648E+04-4.85674E+04 2.12016E+03 1.39167E-08-1.10631E-08
 -1       822-3.98594E+05-2.41706E+04-3.41338E+04-4.44730E+03 4.95617E-09-1.85300E-08
 -1       823-3.86352E+05 3.28894E+03-1.25447E+04 3.42517E+03-1.30677E-08 4.08227E-09
 -1       824-3.89582E+05-3.79284E+03-7.85244E+03-5.35464E+03-2.37378E-10 3.33341E-09
 -1       825-3.87904E+05 5.11146E+02-3.28802E+03 3.02762E+03 2.08548E-08 1.19625E-08
 -1       826-3.87156E+05-5.67407E+02-1.74483E+03-3.08734E+03 2.68409E-08 2.76071E-09
 -1       827-3.88754E+05 4.70737E+01-1.18872E+03 1.15773E+03 1.06515E-08-1.32396E-08
 -1       828-3.86454E+05-1.32302E+02-5.87864E+02 1.09278E+03-1.93353E-09 4.34526E-09
 -1       829-3.88593E+05 6.60559E+01-1.17777E+03-1.15253E+03 2.07220E-09 1.84015E-08
 -1       830-3.87504E+05-6.21945E+02-1.88278E+03 4.86886E+03-3.59861E-10 4.95061E-09
 -1       831-3.87726E+05 5.54240E+02-3.37004E+03-2.61837E+03-6.81480E-09-4.80600E-09
 -1       832-3.89663E+05-3.95943E+03-8.15536E+03 6.14497E+03-2.40363E-09-3.81397E-09
 -1       833-3.86451E+05 3.41301E+03-1.30488E+04-2.42869E+03-3.09714E-09-5.78439E-10
 -1       834-3.98656E+05-2.50847E+04-3.53578E+04 4.17881E+03-4.06527E-09-8.19455E-10
 -1       835-3.78716E+05 2.16467E+04-5.04387E+04-6.52134E+02 5.12154E-09 4.22733E-09
 -1       836-1.41313E+03 3.70066E+05 2.28985E+04-1.61479E+04-6.98037E-09-2.17051E-08
 -1       837 4.88172E+03 3.77238E+05 1.93735E+04-3.29963E+04-7.81182E-09-1.52995E-08
 -1       838-5.57594E+02 3.72077E+05 1.97350E+04-1.60764E+04-6.22731E-09 7.31529E-09
 -1       839 1.24187E+04 3.82851E+05 3.73287E+04-3.30488E+04-6.65386E-09 1.67798E-08
 -1       840-3.83923E+03 3.64393E+05 5.95238E+04-1.61012E+04-6.19548E-09-7.10654E-09
 -1       856-5.22929E+04 8.02679E+03-2.11523E+04-3.97795E+02 4.81089E-09-1.14906E-08
 -1       857-6.10073E+04-9.43115E+03-1.45611E+04 5.63289E+03 8.86905E-09-2.22444E-08
 -1       858-5.57440E+04 1.12567E+03-5.48852E+03-4.21900E+02 3.88434E-09-3.97540E-09
 -1       859-5.70468E+04-1.32424E+03-3.31207E+03 5.66876E+03-5.96863E-09 1.56879E-08
 -1       860-5.62596E+04 1.57643E+02-1.38809E+03-4.33395E+02 1.40724E-09-2.25555E-10
 -1       861-5.64538E+04-1.88126E+02-7.63608E+02 5.68442E+03 6.18766E-09 3.94493E-09
 -1       862-5.63402E+04 2.13520E+01-3.17409E+02-4.37535E+02-9.97016E-10 1.30316E-08
 -1       863-5.63549E+04-2.17905E+01-1.15594E+02 5.68682E+03-3.47193E-09 6.98246E-09
 -1       864-5.63589E+04-4.90835E+00 4.72798E+01-4.35796E+02-6.15884E-10-9.39639E-09
 -1       865-5.62991E+04 5.97347E+01 2.55460E+02 5.67690E+03-2.46347E-09-3.22542E-08
 -1       866-5.63938E+04-6.01916E+01 5.14792E+02-4.27614E+02 1.35782E-09 1.29405E-08
 -1       867-5.60570E+04 4.97067E+02 1.26709E+03 5.65468E+03-9.53605E-10 1.89402E-10
 -1       868-5.65961E+04-4.34346E+02 2.10552E+03-4.13582E+02-3.01122E-09-1.41176E-09
 -1       869-5.45134E+04 3.61489E+03 5.60629E+03 5.61813E+03 2.86627E-09-2.00182E-08
 -1       870-5.79297E+04-3.09334E+03 8.13598E+03-3.90955E+02-3.78759E-09-1.72322E-08
 -1       871-5.51880E+03-2.13102E+04-1.94845E+04 1.30379E+05-4.76757E-09-3.91083E-10
 -1       872-1.98420E+03-2.58403E+04-8.15827E+03 1.69056E+05-9.23683E-09 3.48277E-08
 -1       873 4.03091E+02-2.36496E+04 5.90518E+02 1.30092E+05-5.73300E-09 1.90367E-08
 -1       874 3.30295E+03-2.12385E+04 9.77839E+03 1.69085E+05-1.32613E-08-1.99580E-08
 -1       875 6.84347E+03-2.59791E+04 2.20586E+04 1.30331E+05-5.80258E-09-1.02991E-08
 -1       876 2.93702E+05 4.95014E+04 1.50969E+04 1.17864E+05 1.10754E-09-1.18125E-08
 -1       877 2.94700E+05 5.26810E+04 8.06235E+03 1.22195E+05 1.29112E-08-1.81059E-08
 -1       878 2.95113E+05 4.78291E+04 3.37772E+03 1.19101E+05-2.04363E-09-8.92828E-09
 -1       879 2.92647E+05 5.06330E+04 1.68299E+03 1.22297E+05 3.50360E-09 7.67159E-10
 -1       880 2.95215E+05 4.78118E+04 7.83919E+02 1.19151E+05 1.27329E-11 5.17940E-09
 -1       881 2.92511E+05 5.05454E+04 4.18647E+02 1.22273E+05-8.93465E-10-8.90395E-09
 -1       882 2.95224E+05 4.78251E+04 2.67862E+02 1.19153E+05 1.34696E-09-1.04696E-08
 -1       883 2.92502E+05 5.05408E+04 2.88024E+02 1.22266E+05-2.89737E-09 1.52147E-08
 -1       884 2.95217E+05 4.78223E+04 4.58232E+02 1.19153E+05 4.30555E-09 1.83213E-08
 -1       885 2.92538E+05 5.05472E+04 9.21334E+02 1.22277E+05-5.80707E-09 3.24326E-09
 -1       886 2.95181E+05 4.77954E+04 1.85692E+03 1.19149E+05-2.82893E-09 1.15922E-08
 -1       887 2.92864E+05 5.07612E+04 4.05620E+03 1.22324E+05 1.01815E-08 1.52127E-08
 -1       888 2.94925E+05 4.78406E+04 8.17335E+03 1.19020E+05 6.82168E-09-4.49700E-09
 -1       889 2.97730E+05 5.58214E+04 1.95246E+04 1.22175E+05 1.31712E-09-1.29712E-08
 -1       890 2.91589E+05 5.18033E+04 3.65692E+04 1.15909E+05-2.88674E-09 1.05319E-09
 -1       891-8.97016E+01-1.62741E+05-1.99618E+03 2.71521E+04-6.53699E-10 1.72506E-08
 -1       892-1.75885E+02-1.63268E+05-2.14384E+03 4.12314E+04 2.36059E-09-1.60489E-08
 -1       893 4.33383E+01-1.62805E+05-3.03534E+03 2.71595E+04-3.35490E-09-1.11368E-09
 -1       894-1.51030E+03-1.64415E+05-6.28193E+03 4.10788E+04-5.54792E-10-7.91852E-09
 -1       895-1.19939E+03-1.61496E+05-1.10624E+04 2.73064E+04-1.88993E-09-1.21772E-08
 -1       956-3.77121E+05-5.44753E+03-1.34492E+04 3.08342E+04 9.83528E-09 7.09474E-09
 -1       957-3.79760E+05-1.92114E+03-6.90325E+03 3.70551E+04 1.76124E-09-8.76207E-09
 -1       958-3.78329E+05-2.40175E+02-3.11082E+03 3.06666E+04-7.46513E-09-5.88670E-09
 -1       959-3.78526E+05-1.35409E+02-1.58844E+03 3.72505E+04-2.26009E-09 1.51163E-08
 -1       960-3.78447E+05-4.41317E+01-7.74598E+02 3.06493E+04 2.78214E-09-3.51997E-09
 -1       961-3.78446E+05-6.24087E+01-4.10685E+02 3.72709E+04 4.58931E-09-1.37950E-08
 -1       962-3.78475E+05-4.53661E+01-2.35130E+02 3.06464E+04 2.02726E-09 6.31871E-10
 -1       963-3.78446E+05-5.82242E+01-1.88757E+02 3.72746E+04 5.82713E-09 1.08821E-09
 -1       964-3.78481E+05-4.20147E+01-2.29551E+02 3.06456E+04 5.04798E-10 8.89963E-09
 -1       965-3.78458E+05-5.52637E+01-3.97035E+02 3.72739E+04-1.01768E-08-2.03408E-09
 -1       966-3.78464E+05-3.41717E+01-7.46022E+02 3.06471E+04 5.96401E-09-8.28800E-09
 -1       967-3.78548E+05-1.18787E+02-1.53008E+03 3.72595E+04 8.03630E-09-2.03870E-08
 -1       968-3.78360E+05-2.16617E+02-2.99534E+03 3.06598E+04 5.15956E-09 7.80187E-09
 -1       969-3.79748E+05-1.83330E+03-6.64959E+03 3.71112E+04 1.35333E-09-3.42789E-09
 -1       970-3.77204E+05-5.22865E+03-1.29538E+04 3.07869E+04-1.44428E-09 6.33554E-09
 -1       971-3.45321E+05-1.72726E+03-9.31021E+03 1.53772E+04 6.52017E-09-8.57356E-09
 -1       972-3.47562E+05-1.27144E+03-5.07024E+03 2.12678E+04-1.15506E-09-9.62564E-09
 -1       973-3.46358E+05-6.17645E+01-2.27101E+03 1.52561E+04-4.09273E-10-2.27442E-09
 -1       974-3.46493E+05-8.06983E+01-1.17721E+03 2.14049E+04-4.45471E-09 4.71687E-10
 -1       975-3.46440E+05-1.68858E+01-5.88910E+02 1.52437E+04-5.14819E-09 9.36109E-09
 -1       976-3.46432E+05-3.08507E+01-3.40595E+02 2.14207E+04 2.87696E-09-7.37600E-10
 -1       977-3.46457E+05-1.61388E+01-2.48696E+02 1.52403E+04-3.49542E-09 1.77306E-09
 -1       978-3.46437E+05-2.46244E+01-2.93068E+02 2.14256E+04-6.98594E-09-1.97726E-08
 -1       979-3.46456E+05-7.66112E+00-4.72623E+02 1.52389E+04-2.79630E-09 2.56455E-09
 -1       980-3.46473E+05-2.15629E+01-9.13676E+02 2.14266E+04-6.25546E-09 9.94305E-10
 -1       981-3.46427E+05 1.51765E+01-1.77016E+03 1.52394E+04-1.36197E-10 6.69081E-09
 -1       982-3.46716E+05-1.52359E+02-3.65920E+03 2.14199E+04 3.03135E-09-7.85491E-09
 -1       983-3.46204E+05-9.81723E+01-7.11001E+03 1.52454E+04-2.18733E-09 4.42697E-10
 -1       984-3.50135E+05-3.86571E+03-1.59227E+04 2.13343E+04-1.68257E-11-1.26886E-09
 -1       985-3.42985E+05-5.30084E+03-2.92389E+04 1.53169E+04-1.21008E-09 2.09475E-08
 -3
    1PSTEP                        41          21           1          
  100CL  121 6.62879E-01         409                     0   21           1
 -4  DISP        4    1
 -5  D1          1    2    1    0
 -5  D2          1    2    2    0
 -5  D3          1    2    3    0
 -5  ALL         1    2    0    0    1ALL
 -1         1 2.69592E-03 0.00000E+00 0.00000E+00
 -1         2 1.37833E-03 2.42940E-28 5.29396E-23
 -1         3 3.42108E-04-5.65106E-28-1.32349E-23
 -1         5 1.76919E-04-1.53705E-27 2.48154E-24
 -1         8 2.68453E-03-4.12554E-07 0.00000E+00
 -1         9 2.67824E-03-1.78029E-04 0.00000E+00
 -1        10 3.10202E-04-3.42115E-06 0.00000E+00
 -1        12 1.78754E-04 8.08856E-07 1.24077E-24
 -1        15 2.67134E-03-4.38107E-07 2.06795E-25
 -1        16 2.73853E-03-1.79771E-04 0.00000E+00
 -1        17 2.11122E-04-7.79608E-06 0.00000E+00
 -1        18 1.82669E-04 3.42682E-05 0.00000E+00
 -1        19 1.84261E-04 1.61132E-06 0.00000E+00
 -1        20 1.84401E-04-9.74510E-06 0.00000E+00
 -1        21 1.83509E-04-2.51334E-05 0.00000E+00
 -1        24 3.06106E-05-1.20169E-05 0.00000E+00
 -1        25 1.93397E-04 3.44938E-05 0.00000E+00
 -1        26 1.94078E-04 2.23126E-06 0.00000E+00
 -1        27 1.91879E-04-1.33025E-05 0.00000E+00
 -1        28 1.91562E-04-2.57553E-05 0.00000E+00
 -1        32 0.00000E+00 0.00000E+00 0.00000E+00
 -1        33 2.02890E-04 2.98484E-06 0.00000E+00
 -1        34 2.00773E-04-1.33585E-05 0.00000E+00
 -1        35 1.98841E-04-2.60977E-05 0.00000E+00
 -1        51 2.69517E-03-8.58812E-08 0.00000E+00
 -1        52 2.69378E-03-1.53531E-07 0.00000E+00
 -1        53 2.69188E-03-2.17790E-07 0.00000E+00
 -1        54 2.68962E-03-2.80902E-07 0.00000E+00
 -1        55 2.68713E-03-3.44625E-07 3.30872E-24
 -1        56 2.68888E-03 6.89544E-06 0.00000E+00
 -1        57 2.67571E-03 2.89958E-05 5.29396E-23
 -1        58 2.65835E-03 6.14377E-05 0.00000E+00
 -1        59 2.63911E-03 9.83564E-05 0.00000E+00
 -1        60 2.62076E-03 1.33123E-04-1.05879E-22
 -1        61 2.60593E-03 1.59282E-04 0.00000E+00
 -1        62 2.59647E-03 1.71920E-04 0.00000E+00
 -1        63 2.59357E-03 1.67327E-04-5.29396E-23
 -1        64 2.59712E-03 1.44943E-04 0.00000E+00
 -1        65 2.60640E-03 1.05879E-04-5.29396E-23
 -1        66 2.61977E-03 5.43810E-05 0.00000E+00
 -1        67 2.63537E-03-4.09910E-06 5.29396E-23
 -1        68 2.65103E-03-6.27715E-05 0.00000E+00
 -1        69 2.66461E-03-1.14821E-04-5.29396E-23
 -1        70 2.67419E-03-1.54707E-04-1.05879E-22
 -1        86 1.46006E-03-5.70409E-06-5.29396E-23
 -1        87 1.69690E-03-3.55356E-05 0.00000E+00
 -1        88 2.01527E-03-8.66797E-05 0.00000E+00
 -1        89 2.33767E-03-1.39144E-04 0.00000E+00
 -1        90 2.58428E-03-1.71225E-04 0.00000E+00
 -1       121 3.41212E-04-5.52508E-07 1.32349E-23
 -1       122 3.38527E-04-1.10810E-06 0.00000E+00
 -1       123 3.34064E-04-1.66979E-06-1.32349E-23
 -1       124 3.27839E-04-2.24063E-06-6.61744E-24
 -1       125 3.19874E-04-2.82325E-06 0.00000E+00
 -1       191 1.76970E-04 1.34872E-07 0.00000E+00
 -1       192 1.77123E-04 2.69733E-07 8.27181E-25
 -1       193 1.77378E-04 4.04575E-07-1.65436E-24
 -1       194 1.77734E-04 5.39384E-07 4.13590E-25
 -1       195 1.78193E-04 6.74149E-07-1.65436E-24
 -1       251 2.68424E-03 1.70202E-06 6.61744E-24
 -1       252 2.68394E-03 3.56307E-06 0.00000E+00
 -1       253 2.68364E-03 4.28658E-06 0.00000E+00
 -1       254 2.68334E-03 3.00244E-06 0.00000E+00
 -1       255 2.68303E-03-8.60966E-07-6.61744E-24
 -1       256 2.68271E-03-7.84363E-06-3.30872E-24
 -1       257 2.68236E-03-1.80219E-05 0.00000E+00
 -1       258 2.68198E-03-3.14331E-05-3.30872E-24
 -1       259 2.68155E-03-4.76342E-05 6.61744E-24
 -1       260 2.68109E-03-6.61479E-05-3.30872E-24
 -1       261 2.68059E-03-8.61531E-05 1.32349E-23
 -1       262 2.68009E-03-1.06811E-04 0.00000E+00
 -1       263 2.67959E-03-1.27185E-04 0.00000E+00
 -1       264 2.67911E-03-1.46342E-04 0.00000E+00
 -1       265 2.67866E-03-1.63533E-04-1.32349E-23
 -1       266 2.68233E-03-4.22618E-07 0.00000E+00
 -1       267 2.68014E-03-4.26169E-07 8.27181E-25
 -1       268 2.67794E-03-4.30133E-07 8.27181E-25
 -1       269 2.67574E-03-4.32875E-07-2.06795E-25
 -1       270 2.67354E-03-4.35588E-07 0.00000E+00
 -1       271 2.68355E-03 2.90936E-07 1.32349E-23
 -1       272 2.68345E-03-1.44542E-06 0.00000E+00
 -1       273 2.68421E-03-5.49138E-06 0.00000E+00
 -1       274 2.68577E-03-1.17041E-05 0.00000E+00
 -1       275 2.68807E-03-1.99166E-05-2.64698E-23
 -1       276 2.69103E-03-2.99453E-05 1.32349E-23
 -1       277 2.69457E-03-4.15875E-05 0.00000E+00
 -1       278 2.69862E-03-5.46264E-05 0.00000E+00
 -1       279 2.70309E-03-6.88311E-05-2.64698E-23
 -1       280 2.70790E-03-8.39598E-05 0.00000E+00
 -1       281 2.71294E-03-9.97613E-05 0.00000E+00
 -1       282 2.71813E-03-1.15979E-04 0.00000E+00
 -1       283 2.72338E-03-1.32351E-04 0.00000E+00
 -1       284 2.72859E-03-1.48614E-04 0.00000E+00
 -1       285 2.73367E-03-1.64508E-04 0.00000E+00
 -1       301 2.68921E-03-1.78351E-04 6.61744E-24
 -1       302 2.69859E-03-1.78630E-04 3.30872E-24
 -1       303 2.70730E-03-1.78899E-04 0.00000E+00
 -1       304 2.71624E-03-1.79169E-04 0.00000E+00
 -1       305 2.72635E-03-1.79452E-04 0.00000E+00
 -1       306 2.71588E-03-3.31386E-04 0.00000E+00
 -1       307 2.77980E-03-7.43798E-04 0.00000E+00
 -1       308 2.82680E-03-1.34744E-03 1.05879E-22
 -1       309 2.85102E-03-2.04668E-03-5.29396E-23
 -1       310 2.88250E-03-2.71608E-03 0.00000E+00
 -1       311 2.94196E-03-3.23281E-03 0.00000E+00
 -1       312 2.99997E-03-3.51632E-03 2.11758E-22
 -1       313 2.99607E-03-3.52846E-03 0.00000E+00
 -1       314 2.85674E-03-3.28096E-03 0.00000E+00
 -1       315 2.54105E-03-2.83782E-03 5.29396E-23
 -1       316 2.06703E-03-2.27546E-03-1.05879E-22
 -1       317 1.50012E-03-1.66322E-03 0.00000E+00
 -1       318 9.54125E-04-1.06189E-03 0.00000E+00
 -1       319 5.36664E-04-5.36542E-04-1.58819E-22
 -1       320 2.91488E-04-1.61094E-04 0.00000E+00
 -1       336 2.98633E-04-4.08210E-06 1.32349E-23
 -1       337 2.84993E-04-4.76864E-06 0.00000E+00
 -1       338 2.69344E-04-5.48297E-06 0.00000E+00
 -1       339 2.51759E-04-6.22590E-06 0.00000E+00
 -1       340 2.32321E-04-7.00187E-06 1.32349E-23
 -1       406 1.79417E-04 9.43487E-07 3.30872E-24
 -1       407 1.80182E-04 1.07800E-06-1.24077E-24
 -1       408 1.81049E-04 1.21236E-06 2.89513E-24
 -1       409 1.82018E-04 1.34638E-06-2.06795E-25
 -1       410 1.83089E-04 1.47978E-06-8.27181E-25
 -1       521 2.77678E-03-3.42362E-04-1.05879E-22
 -1       522 2.83897E-03-7.74789E-04 0.00000E+00
 -1       523 2.87965E-03-1.40586E-03-1.05879E-22
 -1       524 2.89482E-03-2.13328E-03 0.00000E+00
 -1       525 2.91853E-03-2.82886E-03 0.00000E+00
 -1       526 2.97447E-03-3.36733E-03 5.29396E-23
 -1       527 3.03205E-03-3.66134E-03 0.00000E+00
 -1       528 3.02592E-03-3.67182E-03-5.29396E-23
 -1       529 2.87485E-03-3.41044E-03 0.00000E+00
 -1       530 2.53569E-03-2.94903E-03 5.29396E-23
 -1       531 2.02723E-03-2.36771E-03 0.00000E+00
 -1       532 1.42125E-03-1.73842E-03 0.00000E+00
 -1       533 8.36789E-04-1.11940E-03 0.00000E+00
 -1       534 3.86518E-04-5.73410E-04-5.29396E-23
 -1       535 1.20394E-04-1.78636E-04 2.11758E-22
 -1       536 2.10370E-04 2.70557E-05-6.61744E-24
 -1       537 2.08459E-04 8.73729E-05 0.00000E+00
 -1       538 2.05507E-04 1.63907E-04 3.30872E-24
 -1       539 2.02024E-04 2.47325E-04 0.00000E+00
 -1       540 1.98891E-04 3.26148E-04 0.00000E+00
 -1       541 1.96854E-04 3.88920E-04 0.00000E+00
 -1       542 1.95913E-04 4.28901E-04 3.30872E-24
 -1       543 1.95689E-04 4.39497E-04 1.65436E-24
 -1       544 1.95367E-04 4.21483E-04-3.30872E-24
 -1       545 1.94199E-04 3.75851E-04 0.00000E+00
 -1       546 1.92022E-04 3.10712E-04 3.30872E-24
 -1       547 1.89075E-04 2.34300E-04 0.00000E+00
 -1       548 1.86155E-04 1.58264E-04 0.00000E+00
 -1       549 1.84049E-04 9.42584E-05 0.00000E+00
 -1       550 1.82954E-04 5.02966E-05 1.65436E-24
 -1       551 1.85969E-04-8.36530E-06 0.00000E+00
 -1       552 1.57576E-04-9.01468E-06 0.00000E+00
 -1       553 1.26884E-04-9.72608E-06 6.61744E-24
 -1       554 9.48533E-05-1.04784E-05-6.61744E-24
 -1       555 6.24440E-05-1.12444E-05 0.00000E+00
 -1       556 2.03491E-04 1.17177E-05-5.29396E-23
 -1       557 1.97325E-04 2.75427E-05 0.00000E+00
 -1       558 1.92492E-04 3.99664E-05 0.00000E+00
 -1       559 1.88859E-04 4.92987E-05 0.00000E+00
 -1       560 1.86295E-04 5.58501E-05 0.00000E+00
 -1       561 1.84673E-04 5.99334E-05 0.00000E+00
 -1       562 1.83868E-04 6.18628E-05 0.00000E+00
 -1       563 1.83756E-04 6.19534E-05 0.00000E+00
 -1       564 1.84215E-04 6.05211E-05 0.00000E+00
 -1       565 1.85124E-04 5.78825E-05 0.00000E+00
 -1       566 1.86365E-04 5.43548E-05 0.00000E+00
 -1       567 1.87819E-04 5.02556E-05 0.00000E+00
 -1       568 1.89366E-04 4.59026E-05 0.00000E+00
 -1       569 1.90890E-04 4.16135E-05 0.00000E+00
 -1       570 1.92272E-04 3.77062E-05 0.00000E+00
 -1       571 1.82765E-04 3.21494E-05 0.00000E+00
 -1       572 1.82864E-04 2.99649E-05 4.13590E-25
 -1       573 1.82963E-04 2.77305E-05-1.65436E-24
 -1       574 1.83062E-04 2.54624E-05 0.00000E+00
 -1       575 1.83162E-04 2.31770E-05 0.00000E+00
 -1       576 1.83261E-04 2.08909E-05-1.65436E-24
 -1       577 1.83361E-04 1.86205E-05-3.30872E-24
 -1       578 1.83460E-04 1.63823E-05 6.61744E-24
 -1       579 1.83560E-04 1.41928E-05 0.00000E+00
 -1       580 1.83660E-04 1.20685E-05 0.00000E+00
 -1       581 1.83760E-04 1.00259E-05-6.61744E-24
 -1       582 1.83860E-04 8.08154E-06-6.61744E-24
 -1       583 1.83960E-04 6.25178E-06 0.00000E+00
 -1       584 1.84060E-04 4.55296E-06 0.00000E+00
 -1       585 1.84161E-04 3.00122E-06 0.00000E+00
 -1       586 1.84416E-04 3.43079E-05 1.65436E-24
 -1       587 1.86122E-04 3.43471E-05 4.13590E-25
 -1       588 1.87829E-04 3.43859E-05-8.27181E-25
 -1       589 1.89583E-04 3.44240E-05 0.00000E+00
 -1       590 1.91425E-04 3.44608E-05 0.00000E+00
 -1       591 1.83395E-04 3.22429E-05 1.03398E-25
 -1       592 1.84124E-04 3.01977E-05-2.06795E-25
 -1       593 1.84858E-04 2.81385E-05 8.27181E-25
 -1       594 1.85595E-04 2.60699E-05 4.13590E-25
 -1       595 1.86334E-04 2.39967E-05 0.00000E+00
 -1       596 1.87072E-04 2.19236E-05 4.13590E-25
 -1       597 1.87809E-04 1.98552E-05 8.27181E-25
 -1       598 1.88542E-04 1.77964E-05 0.00000E+00
 -1       599 1.89270E-04 1.57518E-05 0.00000E+00
 -1       600 1.89991E-04 1.37260E-05-4.13590E-25
 -1       601 1.90703E-04 1.17238E-05 0.00000E+00
 -1       602 1.91405E-04 9.74973E-06 4.13590E-25
 -1       603 1.92095E-04 7.80863E-06-8.27181E-25
 -1       604 1.92771E-04 5.90525E-06-7.75482E-26
 -1       605 1.93431E-04 4.04417E-06 0.00000E+00
 -1       606 1.84275E-04 4.54573E-07 0.00000E+00
 -1       607 1.84284E-04-6.16282E-07 1.65436E-24
 -1       608 1.84293E-04-1.60628E-06 0.00000E+00
 -1       609 1.84301E-04-2.52111E-06 0.00000E+00
 -1       610 1.84310E-04-3.36652E-06 0.00000E+00
 -1       611 1.84318E-04-4.14830E-06 0.00000E+00
 -1       612 1.84327E-04-4.87224E-06 0.00000E+00
 -1       613 1.84335E-04-5.54419E-06 0.00000E+00
 -1       614 1.84343E-04-6.16993E-06 1.65436E-24
 -1       615 1.84352E-04-6.75530E-06 0.00000E+00
 -1       616 1.84360E-04-7.30610E-06 1.65436E-24
 -1       617 1.84368E-04-7.82814E-06 0.00000E+00
 -1       618 1.84377E-04-8.32725E-06 0.00000E+00
 -1       619 1.84385E-04-8.80924E-06 0.00000E+00
 -1       620 1.84393E-04-9.27992E-06 0.00000E+00
 -1       621 1.85612E-04 1.71521E-06-1.65436E-24
 -1       622 1.87122E-04 1.81934E-06-8.27181E-25
 -1       623 1.88756E-04 1.92327E-06-1.65436E-24
 -1       624 1.90483E-04 2.02686E-06-8.27181E-25
 -1       625 1.92268E-04 2.13016E-06-1.65436E-24
 -1       626 1.84807E-04 4.90675E-07 3.30872E-24
 -1       627 1.85330E-04-5.66861E-07 6.61744E-24
 -1       628 1.85833E-04-1.56914E-06 0.00000E+00
 -1       629 1.86318E-04-2.52433E-06 0.00000E+00
 -1       630 1.86788E-04-3.44063E-06-3.30872E-24
 -1       631 1.87248E-04-4.32624E-06 0.00000E+00
 -1       632 1.87698E-04-5.18939E-06 0.00000E+00
 -1       633 1.88144E-04-6.03829E-06-1.65436E-24
 -1       634 1.88587E-04-6.88114E-06 0.00000E+00
 -1       635 1.89031E-04-7.72617E-06 0.00000E+00
 -1       636 1.89479E-04-8.58159E-06 0.00000E+00
 -1       637 1.89933E-04-9.45562E-06 0.00000E+00
 -1       638 1.90398E-04-1.03565E-05 0.00000E+00
 -1       639 1.90876E-04-1.12924E-05 0.00000E+00
 -1       640 1.91369E-04-1.22716E-05-3.30872E-24
 -1       656 1.85099E-04-1.03233E-05-6.61744E-24
 -1       657 1.86217E-04-1.09250E-05 0.00000E+00
 -1       658 1.87615E-04-1.15253E-05 0.00000E+00
 -1       659 1.89147E-04-1.21252E-05 0.00000E+00
 -1       660 1.90630E-04-1.27270E-05 6.61744E-24
 -1       661 1.84662E-04-1.02553E-05 0.00000E+00
 -1       662 1.84961E-04-1.08574E-05 0.00000E+00
 -1       663 1.85292E-04-1.15461E-05 1.65436E-24
 -1       664 1.85654E-04-1.23149E-05 0.00000E+00
 -1       665 1.86043E-04-1.31579E-05 0.00000E+00
 -1       666 1.86459E-04-1.40693E-05 8.27181E-25
 -1       667 1.86897E-04-1.50434E-05 0.00000E+00
 -1       668 1.87357E-04-1.60747E-05 0.00000E+00
 -1       669 1.87836E-04-1.71576E-05 0.00000E+00
 -1       670 1.88333E-04-1.82870E-05 8.27181E-25
 -1       671 1.88845E-04-1.94576E-05 0.00000E+00
 -1       672 1.89370E-04-2.06643E-05 0.00000E+00
 -1       673 1.89907E-04-2.19021E-05 1.65436E-24
 -1       674 1.90453E-04-2.31664E-05 4.13590E-25
 -1       675 1.91007E-04-2.44518E-05 0.00000E+00
 -1       676 1.84856E-04-2.52377E-05 3.30872E-24
 -1       677 1.86202E-04-2.53419E-05 1.65436E-24
 -1       678 1.87547E-04-2.54460E-05-3.30872E-24
 -1       679 1.88889E-04-2.55499E-05 0.00000E+00
 -1       680 1.90228E-04-2.56537E-05 1.65436E-24
 -1       771 1.86825E-05 1.46529E-05 0.00000E+00
 -1       772 8.64656E-06 3.65574E-05-2.64698E-23
 -1       773 4.12322E-07 5.39266E-05 0.00000E+00
 -1       774-6.14423E-06 6.70177E-05-2.64698E-23
 -1       775-1.11444E-05 7.60986E-05 0.00000E+00
 -1       776-1.47145E-05 8.14537E-05-2.64698E-23
 -1       777-1.69805E-05 8.33775E-05 5.29396E-23
 -1       778-1.80710E-05 8.21785E-05 2.64698E-23
 -1       779-1.81140E-05 7.81734E-05 0.00000E+00
 -1       780-1.72395E-05 7.16906E-05-2.64698E-23
 -1       781-1.55765E-05 6.30651E-05 5.29396E-23
 -1       782-1.32558E-05 5.26407E-05 0.00000E+00
 -1       783-1.04070E-05 4.07658E-05-5.29396E-23
 -1       784-7.16112E-06 2.77953E-05 5.29396E-23
 -1       785-3.64820E-06 1.40866E-05 5.29396E-23
 -1       786 1.93436E-04 3.22497E-05 0.00000E+00
 -1       787 1.93477E-04 3.00557E-05 0.00000E+00
 -1       788 1.93519E-04 2.79034E-05-8.27181E-25
 -1       789 1.93562E-04 2.57847E-05-8.27181E-25
 -1       790 1.93604E-04 2.36949E-05-1.65436E-24
 -1       791 1.93647E-04 2.16292E-05 0.00000E+00
 -1       792 1.93690E-04 1.95854E-05-1.65436E-24
 -1       793 1.93733E-04 1.75613E-05-8.27181E-25
 -1       794 1.93775E-04 1.55566E-05 0.00000E+00
 -1       795 1.93818E-04 1.35714E-05 8.27181E-25
 -1       796 1.93861E-04 1.16073E-05 0.00000E+00
 -1       797 1.93905E-04 9.66628E-06 0.00000E+00
 -1       798 1.93948E-04 7.75258E-06 0.00000E+00
 -1       799 1.93991E-04 5.87049E-06 8.27181E-25
 -1       800 1.94034E-04 4.02751E-06 1.65436E-24
 -1       801 1.47729E-04 3.10072E-05-2.64698E-23
 -1       802 9.63921E-06 1.93483E-05 0.00000E+00
 -1       803-1.08341E-04 9.77435E-06 5.29396E-23
 -1       804-9.60902E-05 6.80195E-06 0.00000E+00
 -1       805-3.17529E-05 2.67557E-06 0.00000E+00
 -1       806 1.94124E-04 3.21809E-05 0.00000E+00
 -1       807 1.94836E-04 2.98943E-05-1.65436E-24
 -1       808 1.95536E-04 2.76391E-05 0.00000E+00
 -1       809 1.96222E-04 2.54194E-05 0.00000E+00
 -1       810 1.96893E-04 2.32391E-05 0.00000E+00
 -1       811 1.97548E-04 2.11024E-05-1.65436E-24
 -1       812 1.98186E-04 1.90130E-05-3.30872E-24
 -1       813 1.98804E-04 1.69750E-05 1.65436E-24
 -1       814 1.99402E-04 1.49921E-05-3.30872E-24
 -1       815 1.99977E-04 1.30684E-05 8.27181E-25
 -1       816 2.00529E-04 1.12077E-05 0.00000E+00
 -1       817 2.01057E-04 9.41384E-06 0.00000E+00
 -1       818 2.01557E-04 7.69080E-06 0.00000E+00
 -1       819 2.02031E-04 6.04241E-06 8.27181E-25
 -1       820 2.02475E-04 4.47249E-06 1.65436E-24
 -1       821 1.93949E-04-1.18700E-07 0.00000E+00
 -1       822 1.93809E-04-3.61736E-06 1.65436E-24
 -1       823 1.93666E-04-7.83831E-06 0.00000E+00
 -1       824 1.93522E-04-1.23506E-05 1.65436E-24
 -1       825 1.93377E-04-1.66446E-05-3.30872E-24
 -1       826 1.93236E-04-2.02118E-05-1.65436E-24
 -1       827 1.93097E-04-2.27418E-05 0.00000E+00
 -1       828 1.92961E-04-2.39304E-05 1.65436E-24
 -1       829 1.92825E-04-2.38385E-05 0.00000E+00
 -1       830 1.92689E-04-2.25347E-05 1.65436E-24
 -1       831 1.92551E-04-2.04176E-05-3.30872E-24
 -1       832 1.92413E-04-1.78907E-05 0.00000E+00
 -1       833 1.92275E-04-1.54692E-05-3.30872E-24
 -1       834 1.92140E-04-1.36674E-05 0.00000E+00
 -1       835 1.92005E-04-1.28317E-05 8.27181E-25
 -1       836 1.95759E-04 2.35623E-06 0.00000E+00
 -1       837 1.97313E-04 2.48434E-06-1.65436E-24
 -1       838 1.98772E-04 2.61239E-06 3.30872E-24
 -1       839 2.00166E-04 2.73973E-06 0.00000E+00
 -1       840 2.01529E-04 2.86692E-06-8.27181E-25
 -1       856 1.91863E-04-1.43557E-05 8.27181E-25
 -1       857 1.91843E-04-1.52733E-05 0.00000E+00
 -1       858 1.91824E-04-1.60762E-05 0.00000E+00
 -1       859 1.91804E-04-1.67856E-05-2.06795E-25
 -1       860 1.91785E-04-1.74229E-05-4.13590E-25
 -1       861 1.91765E-04-1.80091E-05 0.00000E+00
 -1       862 1.91745E-04-1.85657E-05 0.00000E+00
 -1       863 1.91725E-04-1.91139E-05-4.13590E-25
 -1       864 1.91705E-04-1.96752E-05-8.27181E-25
 -1       865 1.91685E-04-2.02708E-05 0.00000E+00
 -1       866 1.91665E-04-2.09221E-05 8.27181E-25
 -1       867 1.91645E-04-2.16503E-05 0.00000E+00
 -1       868 1.91625E-04-2.24767E-05-8.27181E-25
 -1       869 1.91605E-04-2.34223E-05 0.00000E+00
 -1       870 1.91584E-04-2.45082E-05 0.00000E+00
 -1       871 1.93220E-04-1.33073E-05 0.00000E+00
 -1       872 1.94708E-04-1.33157E-05 0.00000E+00
 -1       873 1.96275E-04-1.33247E-05-4.13590E-25
 -1       874 1.97854E-04-1.33344E-05 3.10193E-25
 -1       875 1.99376E-04-1.33447E-05 0.00000E+00
 -1       876 1.92401E-04-1.43411E-05 0.00000E+00
 -1       877 1.92901E-04-1.53131E-05-1.65436E-24
 -1       878 1.93379E-04-1.62261E-05 3.30872E-24
 -1       879 1.93838E-04-1.70878E-05 0.00000E+00
 -1       880 1.94281E-04-1.79054E-05 0.00000E+00
 -1       881 1.94710E-04-1.86863E-05 0.00000E+00
 -1       882 1.95128E-04-1.94379E-05 3.30872E-24
 -1       883 1.95538E-04-2.01676E-05 0.00000E+00
 -1       884 1.95943E-04-2.08826E-05 0.00000E+00
 -1       885 1.96345E-04-2.15904E-05 0.00000E+00
 -1       886 1.96747E-04-2.22982E-05 3.30872E-24
 -1       887 1.97151E-04-2.30133E-05 0.00000E+00
 -1       888 1.97561E-04-2.37433E-05 0.00000E+00
 -1       889 1.97978E-04-2.44954E-05 0.00000E+00
 -1       890 1.98406E-04-2.52771E-05 0.00000E+00
 -1       891 1.92918E-04-2.58129E-05 1.65436E-24
 -1       892 1.94250E-04-2.58705E-05-8.27181E-25
 -1       893 1.95533E-04-2.59281E-05-1.65436E-24
 -1       894 1.96743E-04-2.59854E-05-4.13590E-25
 -1       895 1.97854E-04-2.60425E-05 0.00000E+00
 -1       956 2.02760E-04 1.67171E-06 3.30872E-24
 -1       957 2.02628E-04 4.50088E-07 8.27181E-25
 -1       958 2.02495E-04-6.90776E-07 0.00000E+00
 -1       959 2.02362E-04-1.76221E-06 0.00000E+00
 -1       960 2.02230E-04-2.77559E-06 0.00000E+00
 -1       961 2.02097E-04-3.74232E-06-1.65436E-24
 -1       962 2.01964E-04-4.67383E-06 0.00000E+00
 -1       963 2.01831E-04-5.58156E-06 0.00000E+00
 -1       964 2.01699E-04-6.47694E-06 0.00000E+00
 -1       965 2.01566E-04-7.37140E-06 0.00000E+00
 -1       966 2.01433E-04-8.27640E-06 0.00000E+00
 -1       967 2.01300E-04-9.20336E-06-1.65436E-24
 -1       968 2.01168E-04-1.01637E-05 6.61744E-24
 -1       969 2.01035E-04-1.11688E-05 0.00000E+00
 -1       970 2.00903E-04-1.22301E-05-3.30872E-24
 -1       971 2.00653E-04-1.44864E-05 0.00000E+00
 -1       972 2.00532E-04-1.55197E-05 0.00000E+00
 -1       973 2.00410E-04-1.64688E-05 0.00000E+00
 -1       974 2.00289E-04-1.73447E-05-1.65436E-24
 -1       975 2.00168E-04-1.81580E-05-3.30872E-24
 -1       976 2.00046E-04-1.89198E-05 1.65436E-24
 -1       977 1.99925E-04-1.96409E-05 3.30872E-24
 -1       978 1.99803E-04-2.03322E-05 0.00000E+00
 -1       979 1.99682E-04-2.10045E-05 0.00000E+00
 -1       980 1.99561E-04-2.16689E-05 1.65436E-24
 -1       981 1.99439E-04-2.23362E-05 0.00000E+00
 -1       982 1.99318E-04-2.30173E-05 1.65436E-24
 -1       983 1.99197E-04-2.37232E-05 0.00000E+00
 -1       984 1.99077E-04-2.44646E-05 1.65436E-24
 -1       985 1.98957E-04-2.52526E-05 0.00000E+00
 -3
    1PSTEP                        42          21           1          
  100CL  121 6.62879E-01         409                     0   21           1
 -4  STRESS      6    1
 -5  SXX         1    4    1    1
 -5  SYY         1    4    2    2
 -5  SZZ         1    4    3    3
 -5  SXY         1    4    1    2
 -5  SYZ         1    4    2    3
 -5  SZX         1    4    3    1
 -1         1-5.31416E+06-1.64381E+06-1.13305E+06-1.42483E+06-3.05590E-10 1.39989E-08
 -1         2 1.33839E+06 1.96942E+07 4.64412E+06 5.92416E+06 2.63099E-08-2.70375E-08
 -1         3-1.48336E+03-1.56883E+06 4.07629E+02-2.22312E+03-3.86066E-10 4.42888E-08
 -1         5-7.43834E+01 3.86216E+05 9.97722E+00-1.33325E+00-5.35232E-10 1.22036E-08
 -1         8-5.91128E+05-2.10093E+05-6.84666E+04-2.57147E+05-6.54836E-11 2.70225E-07
 -1         9 1.15800E+07 3.44571E+06 2.68565E+06-4.19179E+05 2.67755E-09 1.02213E-08
 -1        10-2.30427E+03-1.63485E+06-3.96469E+03-1.50408E+04-1.36988E-08-6.74637E-08
 -1        12-7.04646E+01 3.86237E+05 3.27919E+02-9.09091E+00-6.01574E-10-2.53813E-08
 -1        15 9.61780E+02 5.28546E+02 3.10893E+03 9.14766E-01 7.45217E-11-2.81210E-07
 -1        16 2.26959E+07-3.16056E+05 3.09672E+06-2.20784E+06 3.73305E-08 4.16767E-08
 -1        17 8.31202E+06 6.22481E+06 2.24594E+06 5.96197E+06 2.38942E-08 3.67290E-08
 -1        18 1.41606E+05 3.33149E+04 3.99378E+03-1.19413E+05 1.18555E-08 6.95036E-09
 -1        19 1.22365E+05 1.41612E+05-9.43851E+02 2.19672E+04 1.58507E-09 6.35664E-09
 -1        20-8.18706E+04-5.73488E+05-1.28682E+05 2.51394E+04-2.65709E-09 2.84066E-09
 -1        21-4.55891E+01-2.95974E+05-9.23920E+02 2.73423E+02 1.42686E-08-1.25343E-08
 -1        24 1.38821E+07 1.19588E+07 3.84702E+06 1.10762E+07-1.57384E-07-5.16690E-08
 -1        25 1.23609E+05 2.62426E+05 9.87514E+04-6.42727E+05-9.81527E-10 1.00621E-08
 -1        26-5.53863E+04 9.22434E+04-2.46277E+04 1.27919E+03-1.20781E-10 5.07146E-10
 -1        27-7.55796E+04-3.09842E+05-1.13275E+05 6.89531E+04 3.73211E-09-6.31614E-09
 -1        28 2.22405E+04-8.53301E+04 1.68955E+04 2.06201E+04-4.00317E-09 5.98371E-09
 -1        32-1.67979E+06-3.17591E+06-1.96540E+05 4.51770E+05-4.26080E-08-1.21561E-08
 -1        33-1.78426E+05 9.29626E+04 3.23765E+04-3.84792E+04-3.26414E-09 2.01862E-08
 -1        34-2.23543E+05-2.50171E+04 6.89341E+02 7.56238E+04-4.50592E-09 1.74935E-08
 -1        35-2.29288E+04-3.38400E+04-1.34814E+03 5.14907E+04-2.16593E-09 5.23626E-09
 -1        51 6.01195E+04-1.74648E+05 1.27335E+05-4.52420E+05-7.27596E-11-4.56712E-08
 -1        52 2.04132E+04-1.52493E+05 6.69253E+04-5.27602E+05 9.09495E-12-1.37428E-07
 -1        53 4.24069E+03-1.67917E+05 3.50344E+04-4.50839E+05 3.03771E-10-3.30328E-09
 -1        54 7.68416E+03-1.63708E+05 2.91564E+04-5.29172E+05-6.91216E-11-8.05012E-08
 -1        55 1.67538E+04-1.70961E+05 3.59005E+04-4.50717E+05 2.94676E-10 3.08044E-07
 -1        56-9.71186E+06-1.29970E+06-8.88439E+05-4.00555E+06-6.40284E-10-3.60596E-08
 -1        57-1.08811E+07-9.92148E+05-5.53703E+05-2.85777E+06 1.25801E-08-2.09548E-09
 -1        58-9.60892E+06-1.73053E+06-1.99181E+05-4.15188E+06-2.09475E-08-3.75076E-08
 -1        59-1.09504E+07-5.10470E+05-1.11146E+05-2.80155E+06-3.99068E-08-4.29281E-08
 -1        60-9.69188E+06-1.73628E+06-5.40843E+04-4.10639E+06 2.14641E-10-8.06722E-08
 -1        61-1.04459E+07-7.76734E+05 2.50923E+03-3.03441E+06 3.48700E-08-3.54481E-07
 -1        62-1.00200E+07-1.52695E+06-5.57590E+04-3.84656E+06-3.85116E-08 1.23473E-07
 -1        63-9.74361E+06-1.35197E+06 3.33061E+04-3.62306E+06-1.21945E-08-7.25850E-08
 -1        64-1.03232E+07-1.21132E+06-5.09270E+04-3.47196E+06-6.75209E-09 7.03221E-08
 -1        65-9.40042E+06-1.85327E+06 7.92618E+02-4.34227E+06-1.12876E-07 1.18522E-07
 -1        66-1.04488E+07-9.66266E+05-4.51490E+04-3.19134E+06 2.83653E-08-1.70348E-07
 -1        67-9.37792E+06-2.07890E+06-1.00268E+05-4.67549E+06-7.37382E-08 8.05812E-10
 -1        68-1.04293E+07-9.27847E+05-1.83523E+05-3.19199E+06-4.35239E-08-1.70301E-07
 -1        69-9.59213E+06-2.19124E+06-4.94574E+05-4.30422E+06-6.55564E-08-1.69443E-07
 -1        70-1.01586E+07-9.18299E+05-8.12201E+05-3.50974E+06 7.99992E-09-2.93076E-07
 -1        86-1.36471E+06-1.45078E+07-2.53993E+06-2.78957E+06-2.59337E-07-4.97239E-08
 -1        87 2.11944E+06 5.53247E+06 2.11326E+06 5.27634E+06-4.54274E-07 7.96736E-08
 -1        88-3.85638E+05-2.07863E+06 1.96401E+05-2.41859E+06-3.74657E-07-1.53130E-07
 -1        89 2.83953E+06 5.28418E+06 2.16388E+06 5.44226E+06-5.80105E-07-4.22902E-07
 -1        90-2.00563E+06-1.43249E+07-2.74915E+06-2.97868E+06-1.36108E-07-1.06185E-07
 -1       121-2.03247E+03-1.57372E+06-5.42084E+02 1.10197E+03 1.38945E-09 9.02219E-09
 -1       122-1.29653E+03-1.56889E+06 7.73928E+02-4.45004E+03-5.72285E-09-1.52540E-08
 -1       123-2.05260E+03-1.57385E+06 2.71769E+02 3.29098E+03 4.00610E-09-2.61425E-08
 -1       124 3.50164E+02-1.56844E+06 2.96924E+03-9.30809E+03-1.03119E-08-9.61154E-09
 -1       125-2.86736E+03-1.57476E+06 3.49424E+03 5.91437E+03 7.01402E-09 1.55778E-08
 -1       191-7.83901E+01 3.86234E+05 8.52624E+00 6.94874E-01-5.84663E-10-1.02409E-09
 -1       192-7.53461E+01 3.86216E+05 2.12891E+01-4.27735E+00-8.18952E-10-4.83215E-09
 -1       193-8.09244E+01 3.86234E+05 3.62854E+01 3.75548E+00-1.01786E-09-1.10376E-08
 -1       194-7.84328E+01 3.86220E+05 8.09265E+01-9.70673E+00-5.02361E-10 9.40781E-09
 -1       195-8.57889E+01 3.86231E+05 1.54976E+02 6.31447E+00-1.46210E-09-8.05812E-09
 -1       251-8.48704E+05 1.49421E+04-3.49137E+04-1.29960E+04-2.26232E-09 4.54402E-08
 -1       252-8.61917E+05-1.72846E+04-2.42853E+04 4.46704E+04 1.35913E-08-1.18508E-07
 -1       253-8.56396E+05 2.27882E+03-9.39097E+03-8.83145E+03-1.30663E-08-1.43773E-07
 -1       254-8.50100E+05-2.75073E+03-4.30613E+03 3.10694E+04 2.50352E-08 4.44131E-08
 -1       255-8.60011E+05 7.55269E+01-3.14571E+03 6.02187E+02-3.58523E-09-2.02806E-09
 -1       256-8.45821E+05-2.47044E+02 8.69123E+02 9.93778E+03 2.79533E-09 3.92433E-07
 -1       257-8.60340E+05-4.70590E+02-1.08652E+03 1.22919E+04-1.94291E-09 1.15068E-09
 -1       258-8.48306E+05 7.96116E+02 2.36320E+03-1.19107E+04-9.21909E-09-6.73478E-09
 -1       259-8.57752E+05-7.93969E+02 1.53640E+03 2.24496E+04 5.02610E-09-5.76555E-08
 -1       260-8.53343E+05 2.69449E+03 5.45490E+03-2.74484E+04-8.62701E-09-2.43722E-07
 -1       261-8.55818E+05-1.97109E+03 8.69987E+03 2.78416E+04 2.16742E-08 6.21021E-08
 -1       262-8.51295E+05 1.15072E+04 2.15587E+04-3.17485E+04-2.83163E-09 1.44064E-09
 -1       263-8.59987E+05-9.42789E+03 3.42101E+04 2.67562E+04-9.25354E-10 4.74320E-08
 -1       264-8.21505E+05 6.69530E+04 9.44811E+04-2.33194E+04 2.25104E-08-1.72666E-07
 -1       265-8.85183E+05-5.74941E+04 1.31993E+05 1.94037E+04 1.03017E-08 3.42916E-08
 -1       266-1.74116E+04-8.14248E+03 4.08489E+04-1.95717E+01 1.12777E-10 7.53652E-08
 -1       267 2.01846E+04 9.48901E+03 2.88733E+04 2.25836E+01-1.71440E-10-4.03949E-07
 -1       268-2.70673E+03-1.34397E+03 1.07320E+04-2.87745E+00 1.26875E-10 2.06920E-07
 -1       269 3.19584E+03 1.60838E+03 6.97571E+03 3.35191E+00-4.66116E-12 1.92346E-07
 -1       270-4.79699E+02-2.64271E+02 3.36727E+03-4.54872E-01 9.20863E-11 2.68679E-08
 -1       271-1.61859E+06-2.00158E+05-1.23122E+05-6.26547E+05-1.37334E-09 3.92662E-07
 -1       272-1.63114E+06-3.15236E+05-7.83029E+04-6.52396E+05 5.94191E-08-1.89139E-07
 -1       273-1.64477E+06-2.28050E+05-2.96599E+04-6.17324E+05-1.18634E-08-1.99707E-08
 -1       274-1.60027E+06-2.82602E+05-1.58142E+04-6.68678E+05 7.12134E-09 3.90316E-07
 -1       275-1.65095E+06-2.28079E+05-7.28178E+03-6.13019E+05 4.66389E-09 1.23227E-07
 -1       276-1.59312E+06-2.83558E+05-3.24351E+03-6.77742E+05 7.09961E-08 3.77398E-07
 -1       277-1.65400E+06-2.25394E+05-1.99117E+03-6.09892E+05-1.80953E-08 6.81257E-08
 -1       278-1.59002E+06-2.87263E+05-8.74862E+02-6.84412E+05 9.93714E-09 4.02215E-08
 -1       279-1.65595E+06-2.23135E+05-1.02408E+03-6.07677E+05-2.26737E-08-1.78246E-07
 -1       280-1.58847E+06-2.90134E+05-1.34885E+03-6.88824E+05 4.50923E-08-3.41768E-08
 -1       281-1.65695E+06-2.21649E+05-2.46633E+03-6.06422E+05-5.21304E-08 5.52120E-10
 -1       282-1.58891E+06-2.93030E+05-5.83200E+03-6.90602E+05 1.53311E-08 8.52031E-08
 -1       283-1.65620E+06-2.19951E+05-1.02937E+04-6.06300E+05-2.24084E-08-2.76381E-07
 -1       284-1.59821E+06-3.06995E+05-2.82283E+04-6.87798E+05-1.12727E-08-4.78742E-07
 -1       285-1.64765E+06-2.09048E+05-4.37164E+04-6.08668E+05 4.61416E-08-1.97600E-07
 -1       301-3.46131E+03-6.39268E+05 1.67482E+05-1.11458E+06-4.78758E-09 1.42121E-07
 -1       302-4.29629E+03-5.93405E+05 1.00967E+05-1.62731E+06-1.93540E-08-1.76900E-07
 -1       303-1.87781E+04-6.30904E+05 5.76251E+04-1.11157E+06 1.09139E-09-1.31604E-08
 -1       304-1.99676E+04-5.99557E+05 5.90075E+04-1.62666E+06-1.23109E-08 2.25715E-07
 -1       305-2.24602E+04-6.20275E+05 7.37564E+04-1.11467E+06 3.46336E-09 1.16255E-07
 -1       306-3.00684E+07-6.20788E+06-8.58750E+06-5.58087E+05-7.55535E-08 2.15368E-08
 -1       307 2.53594E+07 3.21850E+06 5.50666E+06-1.51215E+07-8.63991E-07-2.27301E-08
 -1       308-7.02197E+06-1.02626E+06-4.65072E+05 5.19612E+06-2.62196E-07 4.06813E-07
 -1       309-3.28651E+06 8.69572E+06 2.27117E+06-2.06222E+07 4.19790E-07 2.09962E-07
 -1       310-1.24869E+07-1.91889E+06-2.00675E+06 5.20195E+06-4.57512E-08-1.61730E-07
 -1       311 3.81065E+07 1.87186E+04 7.23048E+06-8.86694E+06 8.34232E-07-1.27504E-07
 -1       312-3.18208E+07-6.72325E+06-8.49247E+06-4.97243E+06 3.35742E-07 1.33601E-07
 -1       313 4.53405E+07 1.48307E+07 1.06269E+07 2.36138E+07-6.12345E-08 7.35745E-08
 -1       314-1.72616E+07-1.76744E+07-7.50260E+06-1.25080E+07 4.17407E-07 4.66243E-08
 -1       315-1.75090E+06 2.95854E+07 5.65810E+06 1.06105E+07-3.91854E-07 7.14790E-08
 -1       316 1.35910E+06-9.83962E+06-4.48697E+05-2.57385E+06-1.37187E-06-1.27591E-07
 -1       317-1.71370E+07 2.23636E+07 2.22721E+06-8.72816E+06 5.43165E-07-6.96746E-07
 -1       318-1.06982E+06-1.27130E+07-2.02065E+06-4.24612E+06-9.53063E-07 1.10304E-07
 -1       319 7.13156E+06 3.17661E+07 6.99618E+06 1.65247E+07-4.24989E-08 2.32481E-07
 -1       320-2.25238E+07-1.75537E+07-9.80765E+06-1.27650E+07 2.07918E-07-7.62229E-08
 -1       336-7.26430E+02-1.70361E+06-1.39075E+04 8.95775E+03-2.68628E-08-2.87400E-09
 -1       337-5.42294E+03-1.70320E+06-1.81499E+04-2.17500E+04-4.98119E-08-4.62860E-08
 -1       338 2.94535E+02-1.70309E+06-2.85661E+04 1.25429E+04-3.35240E-08-1.79607E-08
 -1       339-3.03106E+04-1.72050E+06-6.45771E+04-2.87703E+04-6.19684E-08 2.59315E-08
 -1       340 1.99893E+04-1.68850E+06-1.01712E+05 1.58474E+04-4.16912E-08 4.17931E-08
 -1       406-4.87320E+01 3.86217E+05 6.43910E+02 3.32011E+00-1.86191E-09 2.39743E-08
 -1       407 1.55648E+02 3.86351E+05 1.37598E+03 2.32738E+01-7.19091E-10 2.85436E-08
 -1       408 6.35520E+02 3.86116E+05 2.74365E+03-2.69199E+01-2.43836E-09 1.12577E-08
 -1       409 2.90640E+03 3.87227E+05 6.18385E+03 2.87310E+02-3.62320E-10 7.62520E-09
 -1       410 8.47663E+03 3.85327E+05 1.26210E+04-2.77050E+02-2.95768E-09 7.76708E-10
 -1       521-3.15919E+07-7.65438E+06-1.00210E+07-1.69461E+05-9.47621E-08 1.12341E-08
 -1       522 2.61955E+07 4.22078E+06 5.60842E+06-1.86031E+07-4.97617E-07-3.94532E-07
 -1       523-7.60418E+06-1.33576E+06-4.57013E+05 5.63992E+06 1.72760E-07-3.73999E-07
 -1       524-6.77819E+06 1.17197E+07 2.45385E+06-2.36653E+07 9.61336E-07-5.87428E-07
 -1       525-1.32855E+07-2.54343E+06-2.20331E+06 5.64700E+06 5.47443E-07-4.18077E-07
 -1       526 4.15399E+07-7.03064E+04 7.58163E+06-1.15066E+07 2.49129E-07-2.01020E-07
 -1       527-3.36400E+07-8.40615E+06-9.77848E+06-4.83129E+06 8.66130E-08 2.38913E-07
 -1       528 4.94658E+07 1.64923E+07 1.10740E+07 2.68171E+07 1.87429E-08-1.67143E-07
 -1       529-1.81992E+07-1.98553E+07-8.59335E+06-1.25351E+07-2.73867E-07-1.96160E-07
 -1       530-4.22683E+06 3.43238E+07 5.98175E+06 1.00914E+07-5.38421E-07 2.87022E-07
 -1       531 1.35219E+06-1.09105E+07-4.22625E+05-2.53271E+06-8.56846E-07 2.03087E-07
 -1       532-1.96744E+07 2.43679E+07 2.43094E+06-1.29771E+07 5.95610E-07-8.16974E-07
 -1       533-1.11538E+06-1.38523E+07-2.14769E+06-4.06455E+06-2.84548E-07-1.07731E-06
 -1       534 5.11171E+06 3.68215E+07 7.27351E+06 1.70800E+07-6.08270E-08 7.02450E-07
 -1       535-2.36872E+07-1.99178E+07-1.12320E+07-1.28264E+07 1.16532E-07 4.60015E-07
 -1       536-7.05004E+05-4.68593E+04-4.73225E+04-5.45312E+04-4.37194E-09 5.40813E-08
 -1       537-5.59769E+04 4.48504E+04 8.40771E+04 1.23556E+05-1.22966E-07 8.39682E-08
 -1       538-3.94366E+05 3.28939E+03 3.71394E+03-7.20554E+04 3.78848E-08 9.84287E-08
 -1       539-2.69447E+05 2.88713E+03 2.49297E+04 1.38437E+05 1.85779E-07 1.09009E-07
 -1       540-4.96893E+05-4.27986E+02-2.11976E+04-6.99437E+04 1.71144E-08 1.12525E-07
 -1       541 1.44761E+05 1.69148E+04 1.06025E+05 9.76746E+04-3.43841E-08 9.47048E-08
 -1       542-7.97413E+05-2.00653E+04-8.39247E+04-3.04229E+04 6.20430E-08 3.74379E-08
 -1       543 4.02503E+05 2.72289E+04 1.57402E+05-1.33390E+04 2.44761E-08-2.37314E-08
 -1       544-7.47722E+05-1.64754E+04-7.45607E+04 4.04039E+04 1.69844E-08-4.04739E-08
 -1       545 2.74347E+04 9.44205E+03 7.95042E+04-1.13357E+05 2.54108E-08-9.13906E-08
 -1       546-4.32418E+05 6.08008E+03-1.21876E+04 6.92513E+04 6.36987E-09-9.77416E-08
 -1       547-2.87493E+05-4.65905E+03 1.05164E+04-1.41282E+05-1.21450E-07-9.08248E-08
 -1       548-4.41260E+05 4.71474E+03-2.38372E+04 6.90161E+04-1.09018E-07-8.85966E-08
 -1       549 4.66048E+04 1.59359E+04 6.01941E+04-1.11209E+05-6.95622E-08-6.98365E-08
 -1       550-7.57576E+05-2.19954E+04-1.28664E+05 3.84664E+04 4.53019E-09-3.74203E-08
 -1       551 4.07761E+04-7.54403E+05-1.55216E+04-1.24722E+06-1.04657E-07 6.25732E-09
 -1       552 9.31585E+04-7.99247E+05 1.01585E+04-1.77842E+06-7.43021E-08 4.19604E-08
 -1       553 7.16513E+04-7.95696E+05 3.22344E+04-1.24058E+06-1.19515E-07 3.58996E-08
 -1       554 1.31916E+05-8.15020E+05 8.13452E+04-1.78036E+06-7.47532E-08 3.78350E-08
 -1       555 1.01414E+05-8.19321E+05 1.48499E+05-1.24042E+06-1.20577E-07-7.67432E-09
 -1       556 2.23216E+05-3.82918E+05 2.64611E+04-4.06828E+05-2.29920E-08-9.98261E-09
 -1       557 3.53714E+05-4.87174E+05 1.65069E+04-5.27003E+05-1.87720E-09-7.22503E-09
 -1       558 2.05089E+05-3.75871E+05 2.49116E+03-4.11153E+05-2.03145E-08 4.59113E-09
 -1       559 3.28687E+05-4.87348E+05 2.51847E+03-5.47393E+05 2.33995E-08 2.05619E-08
 -1       560 1.89836E+05-3.66306E+05-1.45941E+03-4.22142E+05 1.60944E-08 5.15138E-09
 -1       561 3.09512E+05-4.79680E+05 1.49216E+02-5.60464E+05-8.78936E-09 1.39407E-08
 -1       562 1.77775E+05-3.58811E+05-1.31204E+03-4.30875E+05-2.25555E-09-7.83257E-09
 -1       563 2.95186E+05-4.73434E+05-3.19019E+01-5.69820E+05 3.81260E-09 1.43791E-08
 -1       564 1.69169E+05-3.53449E+05-5.95690E+02-4.36974E+05 7.45058E-09-7.48787E-09
 -1       565 2.85687E+05-4.69298E+05 2.51607E+01-5.75889E+05 6.28643E-09-2.21671E-08
 -1       566 1.64141E+05-3.50268E+05-2.58362E+02-4.40491E+05-4.38740E-09-1.43027E-08
 -1       567 2.81075E+05-4.67291E+05-3.61542E+02-5.78689E+05 1.66401E-08-5.05315E-09
 -1       568 1.62781E+05-3.49435E+05-1.12338E+03-4.41537E+05-3.61979E-10-3.52156E-09
 -1       569 2.79963E+05-4.67220E+05-2.83736E+03-5.77255E+05-4.63297E-09 3.08974E-08
 -1       570 1.66182E+05-3.52668E+05-6.20353E+03-4.40518E+05 1.14087E-08-1.84200E-08
 -1       571 2.90410E+05 1.05043E+04 1.49871E+04-9.51278E+04 3.22234E-09 1.07516E-08
 -1       572 2.92582E+05 3.95849E+03 7.34490E+03-1.04365E+05-1.76442E-09-4.45289E-09
 -1       573 2.91272E+05 1.24454E+03 3.26358E+03-9.49514E+04 9.87166E-09-5.86624E-10
 -1       574 2.91487E+05 7.26005E+02 1.63666E+03-1.04589E+05 1.99504E-08 5.66070E-09
 -1       575 2.91366E+05 4.46964E+02 7.72457E+02-9.49272E+04 4.35725E-09-9.33414E-09
 -1       576 2.91351E+05 4.58201E+02 3.95495E+02-1.04619E+05-1.06827E-08-2.01253E-08
 -1       577 2.91406E+05 3.88887E+02 1.97438E+02-9.49239E+04-3.76895E-09 8.09814E-09
 -1       578 2.91381E+05 4.20171E+02 1.14063E+02-1.04623E+05-3.65253E-09 4.08363E-09
 -1       579 2.91478E+05 3.52241E+02 7.83606E+01-9.49236E+04 6.85395E-09-4.25916E-09
 -1       580 2.91483E+05 3.69201E+02 9.09704E+01-1.04618E+05-8.04721E-09 6.74481E-09
 -1       581 2.91592E+05 2.93737E+02 1.37443E+02-9.49295E+04 6.31735E-09-8.88576E-09
 -1       582 2.91658E+05 3.31936E+02 2.79453E+02-1.04557E+05 4.40923E-09 7.23048E-10
 -1       583 2.91732E+05 3.36340E+02 5.36406E+02-9.49860E+04 2.56478E-09 1.71894E-08
 -1       584 2.92033E+05 7.74385E+02 1.21382E+03-1.04081E+05 6.07724E-09-5.42377E-09
 -1       585 2.91758E+05 1.79613E+03 2.45797E+03-9.54049E+04-3.51611E-09 3.48882E-09
 -1       586-3.42196E+03 1.16816E+05-2.91767E+03-2.50625E+05-5.46652E-09 1.67415E-09
 -1       587-1.33603E+03 1.16567E+05 7.70522E+02-2.75832E+05-2.85945E-09 1.62045E-08
 -1       588 4.01101E+02 1.16374E+05 4.75824E+03-2.50487E+05-2.77032E-09 1.17670E-08
 -1       589 5.08708E+03 1.18847E+05 1.23417E+04-2.75598E+05-1.05429E-08 1.89757E-08
 -1       590 1.66088E+04 1.15041E+05 2.58895E+04-2.50919E+05-4.76030E-09 3.49064E-09
 -1       591-7.49562E+04-1.59689E+04-2.25210E+04-3.19492E+04-3.09706E-09 3.70710E-09
 -1       592-7.90428E+04-1.95264E+04-1.21992E+04-3.55743E+04 2.88264E-09 1.37079E-08
 -1       593-7.72085E+04-1.43347E+04-5.07790E+03-3.36005E+04 7.07820E-09-1.28184E-08
 -1       594-7.59333E+04-1.62217E+04-2.53247E+03-3.56920E+04 1.12427E-08-3.89599E-09
 -1       595-7.73802E+04-1.43294E+04-1.16266E+03-3.36755E+04 4.97745E-09 2.51811E-08
 -1       596-7.57204E+04-1.60706E+04-5.90831E+02-3.56667E+04 1.59125E-09 1.68168E-08
 -1       597-7.74017E+04-1.43448E+04-3.21277E+02-3.36783E+04 2.70944E-09-3.56465E-09
 -1       598-7.56994E+04-1.60646E+04-2.57447E+02-3.56596E+04-2.68784E-09 5.72982E-09
 -1       599-7.74005E+04-1.43453E+04-3.27834E+02-3.36780E+04 4.31214E-09-1.08219E-09
 -1       600-7.57204E+04-1.60711E+04-6.08189E+02-3.56646E+04 5.24346E-09 3.40833E-10
 -1       601-7.73758E+04-1.43308E+04-1.19940E+03-3.36745E+04 1.25851E-09-2.90493E-09
 -1       602-7.59400E+04-1.62259E+04-2.61374E+03-3.56868E+04-2.27180E-09-1.66164E-08
 -1       603-7.71959E+04-1.43392E+04-5.24152E+03-3.35979E+04 1.40676E-09-3.79896E-09
 -1       604-7.91673E+04-1.96174E+04-1.25913E+04-3.55405E+04 5.97953E-09 2.52739E-08
 -1       605-7.48511E+04-1.60438E+04-2.32452E+04-3.19129E+04 4.10802E-09 1.85291E-08
 -1       606 2.67003E+04-1.43240E+04-2.56782E+04 2.39971E+04 8.40282E-09 6.12499E-09
 -1       607 2.23127E+04-4.67810E+03-1.27877E+04 2.69676E+04-6.13909E-10-1.76026E-08
 -1       608 2.48133E+04-8.43824E+02-5.72462E+03 2.38283E+04-6.26642E-09-1.76387E-08
 -1       609 2.43339E+04-2.88966E+02-2.89192E+03 2.71817E+04 1.41154E-09 1.65137E-08
 -1       610 2.45998E+04-4.08238E+01-1.37977E+03 2.38082E+04-3.28328E-10-5.04519E-09
 -1       611 2.45245E+04-4.10572E+01-6.95669E+02 2.72048E+04 5.35147E-09-1.25924E-08
 -1       612 2.45527E+04-2.71090E+01-3.30705E+02 2.38062E+04 1.98452E-09-3.31966E-10
 -1       613 2.45360E+04-3.69580E+01-1.48164E+02 2.72076E+04 5.23414E-09-8.62201E-10
 -1       614 2.45305E+04-3.35178E+01-3.46669E+01 2.38055E+04 5.40331E-09 1.28407E-08
 -1       615 2.45308E+04-3.54617E+01 6.22886E+01 2.72080E+04-5.34783E-10-1.51792E-08
 -1       616 2.45131E+04-3.03887E+01 1.86608E+02 2.38058E+04 7.88077E-10 2.46632E-09
 -1       617 2.45532E+04 4.30663E+00 4.25688E+02 2.72075E+04-9.09722E-10-1.53705E-10
 -1       618 2.44761E+04 9.23303E+01 8.58017E+02 2.38060E+04-5.96629E-10-5.18071E-09
 -1       619 2.48561E+04 6.67727E+02 1.92673E+03 2.72069E+04-1.06866E-09 1.03421E-08
 -1       620 2.41912E+04 2.12691E+03 3.87266E+03 2.38076E+04-1.57650E-09 3.62752E-09
 -1       621 5.10186E+02 3.01341E+05 3.88203E+03 4.09751E+04 1.06002E-09 8.75934E-09
 -1       622 6.75930E+02 3.02238E+05 3.44545E+03 5.94870E+04 1.41245E-09-1.84173E-10
 -1       623 1.42267E+02 3.01536E+05 4.14054E+03 4.07897E+04 1.32297E-09 1.52795E-10
 -1       624 2.12494E+03 3.03455E+05 8.02712E+03 5.96695E+04 1.18342E-09-9.01241E-09
 -1       625 2.07634E+03 2.99944E+05 1.40271E+04 4.07865E+04 1.51340E-09 3.84853E-09
 -1       626 2.60807E+05 6.14073E+04 5.12087E+03 1.26720E+05 2.35832E-09 1.05847E-08
 -1       627 2.58489E+05 6.28047E+04 2.46771E+03 1.30994E+05 6.40239E-09-4.41628E-09
 -1       628 2.60935E+05 5.90643E+04 1.04366E+03 1.27591E+05-1.11841E-08-1.08632E-08
 -1       629 2.57854E+05 6.21246E+04 5.10818E+02 1.31234E+05-1.66692E-08-5.71352E-09
 -1       630 2.60950E+05 5.89510E+04 2.37055E+02 1.27627E+05-7.76026E-09-9.65264E-09
 -1       631 2.57787E+05 6.20988E+04 1.27696E+02 1.31236E+05 1.40665E-08 1.02222E-08
 -1       632 2.60946E+05 5.89550E+04 8.42547E+01 1.27623E+05 1.15801E-08-2.92448E-09
 -1       633 2.57778E+05 6.21006E+04 9.42076E+01 1.31232E+05 5.09363E-09 1.25237E-09
 -1       634 2.60942E+05 5.89522E+04 1.52550E+02 1.27623E+05 2.87724E-09-1.58752E-08
 -1       635 2.57793E+05 6.20989E+04 3.08873E+02 1.31238E+05 8.27032E-09-1.27225E-08
 -1       636 2.60933E+05 5.89464E+04 6.23867E+02 1.27622E+05 1.00226E-09-1.52972E-08
 -1       637 2.57928E+05 6.21959E+04 1.37179E+03 1.31237E+05-8.22661E-09-9.76297E-09
 -1       638 2.60884E+05 5.92494E+04 2.81853E+03 1.27485E+05-4.83533E-09-3.88854E-09
 -1       639 2.59408E+05 6.42551E+04 6.66878E+03 1.30801E+05-3.60160E-10 2.18326E-08
 -1       640 2.60679E+05 6.53983E+04 1.38389E+04 1.24895E+05-4.18504E-09 6.61566E-09
 -1       656 6.65683E+04-1.70363E+06-1.60692E+05-2.54839E+03-6.03904E-10-6.40648E-09
 -1       657-8.80641E+04-1.77624E+06-1.33124E+05 5.17518E+03-8.13998E-10-1.37720E-08
 -1       658 2.12197E+04-1.72425E+06-8.19876E+04-4.63219E+03 5.64796E-10-1.44706E-08
 -1       659-9.52284E+04-1.77964E+06-1.42539E+05 6.90596E+03-1.04228E-09 1.50691E-08
 -1       660 7.37166E+04-1.70024E+06-1.76878E+05-4.27915E+03-2.92493E-09-8.63326E-09
 -1       661 1.58626E+05 1.66002E+04 1.67205E+04 6.20110E+04-4.59295E-11-2.51202E-09
 -1       662 1.68079E+05 2.89831E+04 1.12685E+04 5.82600E+04 4.84761E-09-6.23095E-09
 -1       663 1.61911E+05 2.19645E+04 3.94100E+03 6.10579E+04 1.06490E-09-1.43200E-08
 -1       664 1.64271E+05 2.27101E+04 2.35754E+03 5.94244E+04 1.09509E-10-2.47566E-08
 -1       665 1.62409E+05 2.26971E+04 9.30033E+02 6.09124E+04 2.26731E-09-2.12956E-08
 -1       666 1.63682E+05 2.18723E+04 5.44398E+02 5.96141E+04 5.52441E-09-2.91269E-09
 -1       667 1.62496E+05 2.27804E+04 2.89349E+02 6.08760E+04 1.34654E-09-1.31269E-08
 -1       668 1.63585E+05 2.18125E+04 2.95268E+02 5.96671E+04-4.35097E-09-1.67820E-08
 -1       669 1.62504E+05 2.27552E+04 4.00112E+02 6.08597E+04-2.11034E-09-1.22832E-08
 -1       670 1.63683E+05 2.20298E+04 8.71588E+02 5.96700E+04-7.81148E-09-1.17498E-08
 -1       671 1.62399E+05 2.25676E+04 1.54768E+03 6.08710E+04 1.22093E-10 4.28150E-09
 -1       672 1.64585E+05 2.35355E+04 3.95980E+03 5.94514E+04 6.56841E-09 1.15693E-09
 -1       673 1.61607E+05 2.12877E+04 6.63603E+03 6.10636E+04 5.09999E-10-6.85986E-09
 -1       674 1.70900E+05 3.41971E+04 1.89776E+04 5.75959E+04-1.39016E-09-8.06654E-09
 -1       675 1.56124E+05 1.22047E+04 2.81695E+04 6.26145E+04-5.23687E-09 4.51109E-09
 -1       676 2.41125E+01-2.95897E+05-1.11357E+03-1.36716E+02-1.89749E-09-9.84778E-09
 -1       677-2.94577E+02-2.96166E+05-2.03802E+03 2.73211E+02 9.57746E-09-1.50557E-08
 -1       678 1.97568E+02-2.95705E+05-3.60271E+03-1.36406E+02 2.21667E-09 5.71521E-09
 -1       679-3.60278E+03-2.98341E+05-8.55855E+03 2.72031E+02 7.58246E-09 6.88226E-09
 -1       680 2.15106E+03-2.93723E+05-1.37935E+04-1.34028E+02 1.41063E-09 5.70880E-09
 -1       771-3.06283E+06-7.46524E+05-1.65043E+05-1.46552E+06-3.49537E-08-3.11120E-08
 -1       772-2.98583E+06-8.35162E+05-8.50888E+04-1.56800E+06-2.44036E-08 9.31686E-09
 -1       773-3.09419E+06-7.22066E+05-4.33808E+04-1.47997E+06-1.45228E-08 1.82481E-08
 -1       774-2.97635E+06-8.16756E+05-1.93532E+04-1.59367E+06 2.33413E-08-3.66708E-09
 -1       775-3.11057E+06-7.10568E+05-1.44795E+04-1.48698E+06-6.22822E-09 3.78350E-09
 -1       776-2.98863E+06-8.13745E+05-5.41423E+03-1.61310E+06-3.31784E-09 2.56114E-09
 -1       777-3.12479E+06-7.00307E+05-6.39866E+03-1.49317E+06 3.08501E-09 3.62343E-09
 -1       778-3.00146E+06-8.10943E+05-1.80887E+03-1.62979E+06-1.36788E-09 7.04313E-09
 -1       779-3.13701E+06-6.91342E+05-3.19800E+03-1.49845E+06-1.14815E-08-6.28643E-09
 -1       780-3.01276E+06-8.08269E+05-5.30437E+02-1.64338E+06-1.29512E-09 4.32919E-10
 -1       781-3.14672E+06-6.84114E+05-1.24283E+03-1.50259E+06-3.23780E-08-1.05865E-09
 -1       782-3.02146E+06-8.05998E+05 4.46892E+02-1.65341E+06-3.89628E-08-4.91946E-09
 -1       783-3.15357E+06-6.79092E+05 6.95164E+02-1.50549E+06-8.98581E-09-1.71626E-08
 -1       784-3.02629E+06-8.03728E+05 2.88499E+03-1.65961E+06-1.62290E-08 4.34284E-10
 -1       785-3.15761E+06-6.76098E+05 5.09251E+03-1.50732E+06-3.68273E-08 5.36784E-09
 -1       786 1.23797E+05-9.77173E+03 2.26079E+04-3.21674E+02 2.27285E-09 5.80167E-09
 -1       787 1.33602E+05 1.13135E+04 1.59941E+04-1.34989E+02 4.30672E-09 3.12366E-08
 -1       788 1.27577E+05-1.53126E+03 5.84915E+03-2.86563E+02 2.83448E-09 1.22641E-08
 -1       789 1.29198E+05 1.77239E+03 3.67189E+03-1.88795E+02 1.45502E-09-2.71648E-08
 -1       790 1.28202E+05-2.38416E+02 1.48672E+03-2.67886E+02-3.87315E-09-2.75958E-09
 -1       791 1.28468E+05 2.75852E+02 8.58743E+02-2.20751E+02-5.76275E-09 7.64719E-09
 -1       792 1.28308E+05-3.58400E+01 3.64004E+02-2.54609E+02-4.07301E-09-7.95055E-10
 -1       793 1.28342E+05 3.79150E+01 1.81692E+02-2.45722E+02 9.98082E-10-6.51870E-09
 -1       794 1.28328E+05-6.28538E-01 4.76744E+01-2.42915E+02 6.14540E-09-8.87071E-09
 -1       795 1.28305E+05-2.71018E+01-5.66432E+01-2.70116E+02-4.32464E-09-9.59227E-09
 -1       796 1.28345E+05 2.91404E+01-1.60816E+02-2.30215E+02 3.50158E-09 8.89764E-09
 -1       797 1.28211E+05-2.17599E+02-4.41997E+02-2.99277E+02 4.00555E-09 1.55337E-08
 -1       798 1.28422E+05 1.89725E+02-7.17948E+02-2.13754E+02 2.68450E-09 1.56058E-09
 -1       799 1.27666E+05-1.39845E+03-1.97529E+03-3.40025E+02 6.11424E-09-9.06508E-09
 -1       800 1.28889E+05 1.20902E+03-2.79548E+03-1.89468E+02-1.29170E-10 8.69454E-09
 -1       801-1.69196E+05-9.95969E+06-1.38708E+06 1.40595E+06 9.32196E-08-4.66935E-08
 -1       802 7.32305E+05 5.88939E+06 2.16642E+06-1.73459E+06 2.60930E-07-3.57804E-08
 -1       803-5.33121E+05-1.41962E+07-1.87839E+06 8.92553E+05 7.81365E-08 1.52613E-08
 -1       804 2.84878E+05 2.35289E+06 1.52636E+06 6.73924E+05-1.20242E-07-8.62965E-08
 -1       805 1.88530E+05-6.43736E+06-2.84236E+05-9.96925E+05-5.01022E-08-6.40975E-08
 -1       806-3.08794E+05-5.97314E+04-2.28441E+04-1.22358E+05-6.47333E-09 1.67529E-09
 -1       807-3.10592E+05-5.60020E+04-1.12231E+04-1.27901E+05 7.63566E-09-1.11305E-08
 -1       808-3.09422E+05-5.14987E+04-4.76119E+03-1.26250E+05-7.65476E-09 7.40135E-09
 -1       809-3.08233E+05-5.28484E+04-2.32810E+03-1.28176E+05-1.64355E-08 7.23685E-09
 -1       810-3.09516E+05-5.12121E+04-1.06710E+03-1.26422E+05 2.65618E-09-1.46706E-08
 -1       811-3.08050E+05-5.27217E+04-5.30689E+02-1.28141E+05-2.00453E-09-2.18001E-08
 -1       812-3.09530E+05-5.12367E+04-2.68477E+02-1.26422E+05-1.85082E-09-1.22059E-08
 -1       813-3.08025E+05-5.27239E+04-1.74613E+02-1.28122E+05 6.28279E-09-3.29401E-08
 -1       814-3.09523E+05-5.12465E+04-1.73254E+02-1.26417E+05-2.08274E-09-8.71796E-09
 -1       815-3.08029E+05-5.27262E+04-2.79328E+02-1.28114E+05-3.42106E-09 1.03817E-08
 -1       816-3.09502E+05-5.12456E+04-5.29540E+02-1.26414E+05 2.89947E-09 1.67070E-08
 -1       817-3.08118E+05-5.27767E+04-1.13650E+03-1.28103E+05-1.56233E-08-7.26118E-09
 -1       818-3.09433E+05-5.14060E+04-2.31810E+03-1.26338E+05-1.09776E-09-8.76389E-09
 -1       819-3.09387E+05-5.41771E+04-5.45430E+03-1.27802E+05 9.93168E-10-1.82545E-08
 -1       820-3.08996E+05-5.55264E+04-1.11015E+04-1.24578E+05 3.91083E-09 1.22327E-08
 -1       821-3.78910E+05 2.08661E+04-4.85711E+04 2.12207E+03 1.35925E-08 3.96176E-09
 -1       822-3.98617E+05-2.41721E+04-3.41358E+04-4.45174E+03 5.70861E-09 3.64480E-09
 -1       823-3.86376E+05 3.28918E+03-1.25457E+04 3.42894E+03-1.28107E-08 1.08867E-08
 -1       824-3.89606E+05-3.79309E+03-7.85292E+03-5.36083E+03 2.12182E-09-3.33523E-09
 -1       825-3.87928E+05 5.11185E+02-3.28832E+03 3.03127E+03 2.06314E-08-8.41248E-09
 -1       826-3.87178E+05-5.67371E+02-1.74452E+03-3.09142E+03 2.66278E-08-2.47809E-08
 -1       827-3.88780E+05 4.69834E+01-1.18917E+03 1.15939E+03 1.28021E-08 1.29970E-08
 -1       828-3.86474E+05-1.32191E+02-5.87225E+02 1.09340E+03-1.47998E-09 7.00574E-09
 -1       829-3.88619E+05 6.59929E+01-1.17817E+03-1.15358E+03 2.27226E-09-2.04670E-09
 -1       830-3.87526E+05-6.21968E+02-1.88257E+03 4.87404E+03 4.65370E-10 8.70784E-10
 -1       831-3.87750E+05 5.54321E+02-3.37031E+03-2.62127E+03-7.21663E-09 7.14044E-09
 -1       832-3.89686E+05-3.95975E+03-8.15586E+03 6.15192E+03-4.21443E-09 1.59655E-08
 -1       833-3.86475E+05 3.41327E+03-1.30498E+04-2.43151E+03-2.27870E-09 1.27147E-09
 -1       834-3.98679E+05-2.50863E+04-3.53598E+04 4.18369E+03-3.27853E-09-9.39644E-09
 -1       835-3.78741E+05 2.16481E+04-5.04426E+04-6.52959E+02 4.45741E-09 9.41145E-09
 -1       836-1.41334E+03 3.70109E+05 2.29013E+04-1.61452E+04-6.89579E-09 8.11815E-09
 -1       837 4.88228E+03 3.77281E+05 1.93758E+04-3.29913E+04-7.67432E-09 8.93692E-09
 -1       838-5.57682E+02 3.72120E+05 1.97372E+04-1.60737E+04-6.37283E-09 2.40241E-08
 -1       839 1.24199E+04 3.82895E+05 3.73326E+04-3.30438E+04-6.83940E-09 6.42132E-09
 -1       840-3.83965E+03 3.64435E+05 5.95300E+04-1.60985E+04-6.21731E-09-7.28097E-09
 -1       856-5.22688E+04 8.02653E+03-2.11516E+04-3.97772E+02 5.69821E-09 2.33376E-09
 -1       857-6.09828E+04-9.43085E+03-1.45606E+04 5.63315E+03 4.82333E-09 4.83169E-09
 -1       858-5.57197E+04 1.12564E+03-5.48834E+03-4.21874E+02 5.93673E-09-1.68461E-09
 -1       859-5.70225E+04-1.32421E+03-3.31196E+03 5.66901E+03 3.48757E-09-6.21458E-09
 -1       860-5.62353E+04 1.57639E+02-1.38804E+03-4.33366E+02-6.01119E-11 3.55726E-10
 -1       861-5.64295E+04-1.88132E+02-7.63576E+02 5.68466E+03-1.11271E-09-2.74828E-09
 -1       862-5.63160E+04 2.13518E+01-3.17385E+02-4.37505E+02-2.77726E-09-5.14018E-09
 -1       863-5.63306E+04-2.17983E+01-1.15561E+02 5.68707E+03-3.17886E-09 6.60118E-09
 -1       864-5.63347E+04-4.91063E+00 4.73330E+01-4.35767E+02-7.83785E-10-7.16835E-09
 -1       865-5.62748E+04 5.97488E+01 2.55573E+02 5.67715E+03-2.37223E-09-2.33600E-08
 -1       866-5.63696E+04-6.02132E+01 5.14992E+02-4.27588E+02 2.55636E-09-8.48445E-09
 -1       867-5.60326E+04 4.97243E+02 1.26757E+03 5.65494E+03-1.26488E-09 2.00936E-08
 -1       868-5.65719E+04-4.34507E+02 2.10631E+03-4.13562E+02-1.85378E-09 1.56649E-08
 -1       869-5.44884E+04 3.61623E+03 5.60838E+03 5.61841E+03 1.60412E-10-5.80371E-09
 -1       870-5.79060E+04-3.09449E+03 8.13902E+03-3.90945E+02-5.26029E-09 1.38548E-08
 -1       871-5.51914E+03-2.13172E+04-1.94868E+04 1.30395E+05-5.27507E-09 1.84509E-08
 -1       872-1.98405E+03-2.58479E+04-8.15933E+03 1.69077E+05-1.01927E-08-5.94446E-09
 -1       873 4.03427E+02-2.36568E+04 5.90334E+02 1.30108E+05-4.03361E-09-1.43064E-09
 -1       874 3.30358E+03-2.12457E+04 9.77895E+03 1.69106E+05-1.17379E-08-1.24473E-08
 -1       875 6.84424E+03-2.59864E+04 2.20600E+04 1.30347E+05-5.38421E-09-2.40379E-09
 -1       876 2.93725E+05 4.95048E+04 1.50979E+04 1.17873E+05-3.00474E-10-4.95038E-09
 -1       877 2.94723E+05 5.26846E+04 8.06285E+03 1.22204E+05 5.23323E-09-3.16049E-09
 -1       878 2.95137E+05 4.78324E+04 3.37794E+03 1.19109E+05-6.19002E-09 1.33655E-08
 -1       879 2.92671E+05 5.06364E+04 1.68310E+03 1.22306E+05 3.38673E-09-1.55921E-10
 -1       880 2.95238E+05 4.78151E+04 7.83968E+02 1.19160E+05 3.05499E-09-1.09083E-10
 -1       881 2.92535E+05 5.05488E+04 4.18674E+02 1.22282E+05 2.09195E-09 4.92901E-09
 -1       882 2.95247E+05 4.78284E+04 2.67880E+02 1.19162E+05 2.45632E-09 8.78401E-09
 -1       883 2.92525E+05 5.05442E+04 2.88045E+02 1.22275E+05 2.54067E-09 3.45030E-08
 -1       884 2.95240E+05 4.78256E+04 4.58266E+02 1.19162E+05 8.18829E-09 2.35676E-08
 -1       885 2.92561E+05 5.05506E+04 9.21403E+02 1.22286E+05 5.63966E-09 7.70331E-09
 -1       886 2.95205E+05 4.77987E+04 1.85706E+03 1.19158E+05-4.13049E-09 2.99406E-09
 -1       887 2.92888E+05 5.07646E+04 4.05650E+03 1.22333E+05 5.07748E-09 2.93930E-08
 -1       888 2.94948E+05 4.78439E+04 8.17397E+03 1.19028E+05-5.48567E-10 1.32663E-08
 -1       889 2.97754E+05 5.58252E+04 1.95261E+04 1.22184E+05-4.60540E-09-2.71320E-08
 -1       890 2.91612E+05 5.18069E+04 3.65719E+04 1.15918E+05-9.15406E-10-1.53668E-08
 -1       891-8.96570E+01-1.62752E+05-1.99634E+03 2.71521E+04 8.54016E-10 3.81374E-09
 -1       892-1.75819E+02-1.63279E+05-2.14401E+03 4.12315E+04 3.40378E-09 2.87537E-08
 -1       893 4.33955E+01-1.62816E+05-3.03556E+03 2.71595E+04-2.48201E-09 3.56431E-09
 -1       894-1.51033E+03-1.64426E+05-6.28240E+03 4.10790E+04-9.78616E-10-1.42286E-08
 -1       895-1.19942E+03-1.61507E+05-1.10632E+04 2.73065E+04-8.67090E-10 1.54341E-09
 -1       956-3.77154E+05-5.44811E+03-1.34504E+04 3.08402E+04 8.28913E-09-1.25376E-08
 -1       957-3.79794E+05-1.92140E+03-6.90389E+03 3.70623E+04-2.84535E-09-6.25232E-09
 -1       958-3.78363E+05-2.40269E+02-3.11111E+03 3.06726E+04-8.16362E-09-2.66800E-09
 -1       959-3.78560E+05-1.35505E+02-1.58858E+03 3.72578E+04 7.33962E-09-2.30789E-08
 -1       960-3.78481E+05-4.42037E+01-7.74670E+02 3.06553E+04 7.66977E-09-4.52860E-09
 -1       961-3.78479E+05-6.24953E+01-4.10723E+02 3.72782E+04-1.91631E-09 1.45292E-09
 -1       962-3.78509E+05-4.54362E+01-2.35151E+02 3.06524E+04-3.61933E-09 2.10416E-08
 -1       963-3.78480E+05-5.83092E+01-1.88774E+02 3.72819E+04 4.95083E-09 1.25463E-08
 -1       964-3.78514E+05-4.20844E+01-2.29572E+02 3.06517E+04-1.17566E-10 2.00225E-09
 -1       965-3.78492E+05-5.53493E+01-3.97071E+02 3.72811E+04-9.76775E-09-1.38718E-08
 -1       966-3.78498E+05-3.42424E+01-7.46089E+02 3.06532E+04 2.28829E-09-1.03455E-10
 -1       967-3.78582E+05-1.18881E+02-1.53021E+03 3.72668E+04 9.77934E-10 5.73436E-09
 -1       968-3.78394E+05-2.16708E+02-2.99561E+03 3.06658E+04 3.28464E-09 1.05787E-08
 -1       969-3.79782E+05-1.83355E+03-6.65018E+03 3.71184E+04 3.99859E-09 1.19626E-08
 -1       970-3.77238E+05-5.22919E+03-1.29549E+04 3.07930E+04-7.15772E-10 1.69848E-08
 -1       971-3.45346E+05-1.72734E+03-9.31048E+03 1.53777E+04 8.45648E-09-2.85221E-09
 -1       972-3.47587E+05-1.27152E+03-5.07039E+03 2.12684E+04 3.68482E-09-2.86354E-09
 -1       973-3.46383E+05-6.17980E+01-2.27108E+03 1.52566E+04 7.43967E-10-7.49878E-09
 -1       974-3.46519E+05-8.07454E+01-1.17725E+03 2.14055E+04-3.97631E-09-4.23188E-09
 -1       975-3.46465E+05-1.69182E+01-5.88928E+02 1.52442E+04-3.57886E-10-1.04523E-08
 -1       976-3.46457E+05-3.08964E+01-3.40608E+02 2.14213E+04 7.80983E-09-9.33801E-09
 -1       977-3.46482E+05-1.61710E+01-2.48708E+02 1.52408E+04-3.05977E-09-3.78918E-09
 -1       978-3.46462E+05-2.46700E+01-2.93087E+02 2.14261E+04-6.08134E-09-9.20807E-09
 -1       979-3.46482E+05-7.69280E+00-4.72657E+02 1.52394E+04-1.66938E-09 1.39092E-08
 -1       980-3.46498E+05-2.16082E+01-9.13745E+02 2.14271E+04-2.67424E-09-5.47288E-10
 -1       981-3.46452E+05 1.51466E+01-1.77029E+03 1.52399E+04-1.47600E-09-2.72388E-09
 -1       982-3.46741E+05-1.52414E+02-3.65947E+03 2.14205E+04-3.95039E-09 7.37374E-09
 -1       983-3.46229E+05-9.82105E+01-7.11055E+03 1.52459E+04-1.71258E-09-3.96562E-09
 -1       984-3.50161E+05-3.86605E+03-1.59239E+04 2.13348E+04-3.15140E-10 1.60919E-08
 -1       985-3.43010E+05-5.30127E+03-2.92411E+04 1.53174E+04-2.44745E-09 4.62023E-09
 -3
    1PSTEP                        43          22           1          
  100CL  122 6.62912E-01         409                     0   22           1
 -4  DISP        4    1
 -5  D1          1    2    1    0
 -5  D2          1    2    2    0
 -5  D3          1    2    3    0
 -5  ALL         1    2    0    0    1ALL
 -1         1 2.69967E-03 0.00000E+00 0.00000E+00
 -1         2 1.37330E-03 2.92775E-28-5.29396E-23
 -1         3 3.42205E-04-5.91788E-28 0.00000E+00
 -1         5 1.76953E-04-1.79373E-27-8.27181E-25
 -1         8 2.68836E-03-4.11015E-07 0.00000E+00
 -1         9 2.68209E-03-1.80412E-04 0.00000E+00
 -1        10 3.10290E-04-3.41844E-06 0.00000E+00
 -1        12 1.78790E-04 8.08963E-07 4.13590E-25
 -1        15 2.67526E-03-4.36312E-07 0.00000E+00
 -1        16 2.74327E-03-1.82167E-04 0.00000E+00
 -1        17 2.11180E-04-7.79090E-06 0.00000E+00
 -1        18 1.82710E-04 3.42920E-05 0.00000E+00
 -1        19 1.84303E-04 1.61153E-06 0.00000E+00
 -1        20 1.84442E-04-9.76573E-06 0.00000E+00
 -1        21 1.83550E-04-2.51769E-05 0.00000E+00
 -1        24 3.06117E-05-1.20124E-05 0.00000E+00
 -1        25 1.93448E-04 3.45177E-05 0.00000E+00
 -1        26 1.94128E-04 2.23154E-06 0.00000E+00
 -1        27 1.91928E-04-1.33235E-05 0.00000E+00
 -1        28 1.91612E-04-2.57989E-05 0.00000E+00
 -1        32 0.00000E+00 0.00000E+00 0.00000E+00
 -1        33 2.02949E-04 2.98521E-06 0.00000E+00
 -1        34 2.00831E-04-1.33795E-05 0.00000E+00
 -1        35 1.98899E-04-2.61413E-05 0.00000E+00
 -1        51 2.69892E-03-8.56767E-08 0.00000E+00
 -1        52 2.69754E-03-1.53089E-07 0.00000E+00
 -1        53 2.69566E-03-2.17097E-07 0.00000E+00
 -1        54 2.69341E-03-2.79944E-07 1.65436E-24
 -1        55 2.69093E-03-3.43390E-07-1.65436E-24
 -1        56 2.69252E-03 7.16141E-06-5.29396E-23
 -1        57 2.67903E-03 3.00250E-05 0.00000E+00
 -1        58 2.66121E-03 6.35822E-05-1.05879E-22
 -1        59 2.64142E-03 1.01791E-04 5.29396E-23
 -1        60 2.62253E-03 1.37815E-04-1.05879E-22
 -1        61 2.60729E-03 1.64994E-04-5.29396E-23
 -1        62 2.59757E-03 1.78252E-04 0.00000E+00
 -1        63 2.59464E-03 1.73751E-04-5.29396E-23
 -1        64 2.59833E-03 1.50908E-04 0.00000E+00
 -1        65 2.60793E-03 1.10858E-04 5.29396E-23
 -1        66 2.62174E-03 5.79833E-05 0.00000E+00
 -1        67 2.63783E-03-2.09147E-06 0.00000E+00
 -1        68 2.65398E-03-6.23567E-05 0.00000E+00
 -1        69 2.66800E-03-1.15778E-04-5.29396E-23
 -1        70 2.67789E-03-1.56641E-04-5.29396E-23
 -1        86 1.45559E-03-5.76858E-06 5.29396E-23
 -1        87 1.69400E-03-3.59893E-05 2.64698E-23
 -1        88 2.01450E-03-8.78203E-05 0.00000E+00
 -1        89 2.33908E-03-1.41001E-04-1.32349E-23
 -1        90 2.58740E-03-1.73521E-04-5.29396E-23
 -1       121 3.41309E-04-5.52047E-07-1.32349E-23
 -1       122 3.38624E-04-1.10718E-06 0.00000E+00
 -1       123 3.34159E-04-1.66842E-06 0.00000E+00
 -1       124 3.27933E-04-2.23880E-06 0.00000E+00
 -1       125 3.19966E-04-2.82098E-06 0.00000E+00
 -1       191 1.77004E-04 1.34890E-07 0.00000E+00
 -1       192 1.77157E-04 2.69769E-07-4.13590E-25
 -1       193 1.77412E-04 4.04629E-07-1.65436E-24
 -1       194 1.77769E-04 5.39456E-07 4.13590E-25
 -1       195 1.78229E-04 6.74238E-07 3.30872E-24
 -1       251 2.68807E-03 1.65799E-06 0.00000E+00
 -1       252 2.68777E-03 3.41501E-06-3.30872E-24
 -1       253 2.68747E-03 3.98881E-06 0.00000E+00
 -1       254 2.68718E-03 2.52245E-06 3.30872E-24
 -1       255 2.68687E-03-1.54099E-06 0.00000E+00
 -1       256 2.68655E-03-8.72699E-06 0.00000E+00
 -1       257 2.68621E-03-1.91021E-05 0.00000E+00
 -1       258 2.68582E-03-3.26939E-05-3.30872E-24
 -1       259 2.68540E-03-4.90581E-05 0.00000E+00
 -1       260 2.68493E-03-6.77160E-05 0.00000E+00
 -1       261 2.68444E-03-8.78519E-05 1.32349E-23
 -1       262 2.68394E-03-1.08633E-04 0.00000E+00
 -1       263 2.68344E-03-1.29130E-04 0.00000E+00
 -1       264 2.68296E-03-1.48419E-04 6.61744E-24
 -1       265 2.68251E-03-1.65754E-04 1.32349E-23
 -1       266 2.68617E-03-4.21009E-07 3.30872E-24
 -1       267 2.68399E-03-4.24521E-07 0.00000E+00
 -1       268 2.68181E-03-4.28443E-07 0.00000E+00
 -1       269 2.67962E-03-4.31150E-07 0.00000E+00
 -1       270 2.67744E-03-4.33828E-07-2.06795E-25
 -1       271 2.68738E-03 2.61604E-07-1.32349E-23
 -1       272 2.68731E-03-1.53569E-06-6.61744E-24
 -1       273 2.68811E-03-5.67001E-06-2.64698E-23
 -1       274 2.68972E-03-1.19957E-05 3.97047E-23
 -1       275 2.69207E-03-2.03427E-05 2.64698E-23
 -1       276 2.69509E-03-3.05244E-05 1.32349E-23
 -1       277 2.69869E-03-4.23349E-05 0.00000E+00
 -1       278 2.70281E-03-5.55541E-05 0.00000E+00
 -1       279 2.70736E-03-6.99476E-05 0.00000E+00
 -1       280 2.71223E-03-8.52703E-05-1.32349E-23
 -1       281 2.71735E-03-1.01268E-04 2.64698E-23
 -1       282 2.72261E-03-1.17680E-04 0.00000E+00
 -1       283 2.72793E-03-1.34241E-04 2.64698E-23
 -1       284 2.73321E-03-1.50685E-04 0.00000E+00
 -1       285 2.73836E-03-1.66749E-04 0.00000E+00
 -1       301 2.69323E-03-1.80737E-04 1.32349E-23
 -1       302 2.70276E-03-1.81018E-04-3.30872E-24
 -1       303 2.71161E-03-1.81289E-04 1.32349E-23
 -1       304 2.72070E-03-1.81561E-04 6.61744E-24
 -1       305 2.73095E-03-1.81846E-04 0.00000E+00
 -1       306 2.71978E-03-3.34002E-04 1.05879E-22
 -1       307 2.78369E-03-7.46727E-04 0.00000E+00
 -1       308 2.83063E-03-1.35068E-03-1.05879E-22
 -1       309 2.85479E-03-2.05014E-03 5.29396E-23
 -1       310 2.88626E-03-2.71959E-03 0.00000E+00
 -1       311 2.94573E-03-3.23619E-03-5.29396E-23
 -1       312 3.00369E-03-3.51935E-03-1.05879E-22
 -1       313 2.99961E-03-3.53100E-03 0.00000E+00
 -1       314 2.85990E-03-3.28296E-03 0.00000E+00
 -1       315 2.54363E-03-2.83933E-03-5.29396E-23
 -1       316 2.06893E-03-2.27657E-03 1.05879E-22
 -1       317 1.50134E-03-1.66400E-03 0.00000E+00
 -1       318 9.54790E-04-1.06240E-03-1.05879E-22
 -1       319 5.36958E-04-5.36799E-04 5.29396E-23
 -1       320 2.91599E-04-1.61169E-04 1.05879E-22
 -1       336 2.98718E-04-4.07893E-06-1.32349E-23
 -1       337 2.85075E-04-4.76502E-06 6.61744E-24
 -1       338 2.69421E-04-5.47893E-06 0.00000E+00
 -1       339 2.51830E-04-6.22145E-06 0.00000E+00
 -1       340 2.32386E-04-6.99704E-06-1.32349E-23
 -1       406 1.79454E-04 9.43612E-07 0.00000E+00
 -1       407 1.80220E-04 1.07815E-06 4.13590E-25
 -1       408 1.81088E-04 1.21252E-06-3.30872E-24
 -1       409 1.82058E-04 1.34655E-06 6.20385E-25
 -1       410 1.83130E-04 1.47997E-06 2.06795E-24
 -1       521 2.78157E-03-3.44994E-04 0.00000E+00
 -1       522 2.84374E-03-7.77778E-04 5.29396E-23
 -1       523 2.88434E-03-1.40923E-03 1.05879E-22
 -1       524 2.89941E-03-2.13696E-03 0.00000E+00
 -1       525 2.92308E-03-2.83269E-03 1.05879E-22
 -1       526 2.97902E-03-3.37109E-03-5.29396E-23
 -1       527 3.03656E-03-3.66477E-03 0.00000E+00
 -1       528 3.03023E-03-3.67474E-03 0.00000E+00
 -1       529 2.87873E-03-3.41277E-03 2.11758E-22
 -1       530 2.53888E-03-2.95080E-03 0.00000E+00
 -1       531 2.02959E-03-2.36903E-03 1.05879E-22
 -1       532 1.42277E-03-1.73937E-03 0.00000E+00
 -1       533 8.37596E-04-1.12003E-03 1.05879E-22
 -1       534 3.86837E-04-5.73741E-04 0.00000E+00
 -1       535 1.20468E-04-1.78737E-04 0.00000E+00
 -1       536 2.10427E-04 2.70724E-05-6.61744E-24
 -1       537 2.08515E-04 8.74091E-05 1.65436E-24
 -1       538 2.05561E-04 1.63967E-04 0.00000E+00
 -1       539 2.02077E-04 2.47412E-04 1.65436E-24
 -1       540 1.98941E-04 3.26261E-04-3.30872E-24
 -1       541 1.96903E-04 3.89053E-04 0.00000E+00
 -1       542 1.95962E-04 4.29046E-04 3.30872E-24
 -1       543 1.95738E-04 4.39647E-04 0.00000E+00
 -1       544 1.95416E-04 4.21628E-04-3.30872E-24
 -1       545 1.94247E-04 3.75982E-04 0.00000E+00
 -1       546 1.92068E-04 3.10823E-04-3.30872E-24
 -1       547 1.89120E-04 2.34387E-04 1.65436E-24
 -1       548 1.86199E-04 1.58328E-04 0.00000E+00
 -1       549 1.84091E-04 9.43022E-05 1.65436E-24
 -1       550 1.82996E-04 5.03262E-05 0.00000E+00
 -1       551 1.86019E-04-8.36015E-06 0.00000E+00
 -1       552 1.57617E-04-9.00960E-06 0.00000E+00
 -1       553 1.26916E-04-9.72111E-06 3.30872E-24
 -1       554 9.48757E-05-1.04736E-05-3.30872E-24
 -1       555 6.24559E-05-1.12397E-05-1.32349E-23
 -1       556 2.03546E-04 1.17297E-05 0.00000E+00
 -1       557 1.97378E-04 2.75604E-05-2.64698E-23
 -1       558 1.92543E-04 3.99888E-05 0.00000E+00
 -1       559 1.88908E-04 4.93249E-05 0.00000E+00
 -1       560 1.86343E-04 5.58790E-05 0.00000E+00
 -1       561 1.84721E-04 5.99643E-05 0.00000E+00
 -1       562 1.83915E-04 6.18950E-05 0.00000E+00
 -1       563 1.83803E-04 6.19862E-05 0.00000E+00
 -1       564 1.84262E-04 6.05539E-05 0.00000E+00
 -1       565 1.85172E-04 5.79148E-05 0.00000E+00
 -1       566 1.86413E-04 5.43863E-05 0.00000E+00
 -1       567 1.87866E-04 5.02859E-05 0.00000E+00
 -1       568 1.89415E-04 4.59315E-05 1.65436E-24
 -1       569 1.90939E-04 4.16408E-05 0.00000E+00
 -1       570 1.92322E-04 3.77318E-05 0.00000E+00
 -1       571 1.82807E-04 3.21717E-05-8.27181E-25
 -1       572 1.82905E-04 2.99856E-05-4.13590E-25
 -1       573 1.83004E-04 2.77496E-05 1.65436E-24
 -1       574 1.83104E-04 2.54799E-05-8.27181E-25
 -1       575 1.83203E-04 2.31930E-05 0.00000E+00
 -1       576 1.83302E-04 2.09054E-05 0.00000E+00
 -1       577 1.83402E-04 1.86334E-05 0.00000E+00
 -1       578 1.83502E-04 1.63937E-05 0.00000E+00
 -1       579 1.83601E-04 1.42027E-05 0.00000E+00
 -1       580 1.83701E-04 1.20769E-05 0.00000E+00
 -1       581 1.83801E-04 1.00328E-05 6.61744E-24
 -1       582 1.83901E-04 8.08700E-06 0.00000E+00
 -1       583 1.84001E-04 6.25585E-06 6.61744E-24
 -1       584 1.84102E-04 4.55569E-06 0.00000E+00
 -1       585 1.84202E-04 3.00266E-06 0.00000E+00
 -1       586 1.84458E-04 3.43318E-05 0.00000E+00
 -1       587 1.86166E-04 3.43709E-05 0.00000E+00
 -1       588 1.87875E-04 3.44097E-05-8.27181E-25
 -1       589 1.89630E-04 3.44479E-05 0.00000E+00
 -1       590 1.91473E-04 3.44847E-05 0.00000E+00
 -1       591 1.83437E-04 3.22652E-05-1.03398E-25
 -1       592 1.84166E-04 3.02185E-05 0.00000E+00
 -1       593 1.84901E-04 2.81578E-05 0.00000E+00
 -1       594 1.85639E-04 2.60877E-05 0.00000E+00
 -1       595 1.86378E-04 2.40130E-05 0.00000E+00
 -1       596 1.87117E-04 2.19385E-05 4.13590E-25
 -1       597 1.87854E-04 1.98687E-05 0.00000E+00
 -1       598 1.88588E-04 1.78084E-05 0.00000E+00
 -1       599 1.89316E-04 1.57623E-05-8.27181E-25
 -1       600 1.90038E-04 1.37351E-05-4.13590E-25
 -1       601 1.90750E-04 1.17314E-05 8.27181E-25
 -1       602 1.91453E-04 9.75589E-06 4.13590E-25
 -1       603 1.92143E-04 7.81333E-06-8.27181E-25
 -1       604 1.92819E-04 5.90848E-06 0.00000E+00
 -1       605 1.93480E-04 4.04593E-06 0.00000E+00
 -1       606 1.84316E-04 4.53585E-07 0.00000E+00
 -1       607 1.84326E-04-6.18488E-07 0.00000E+00
 -1       608 1.84334E-04-1.60973E-06 0.00000E+00
 -1       609 1.84343E-04-2.52581E-06 0.00000E+00
 -1       610 1.84351E-04-3.37249E-06-3.30872E-24
 -1       611 1.84360E-04-4.15555E-06 0.00000E+00
 -1       612 1.84368E-04-4.88080E-06 0.00000E+00
 -1       613 1.84376E-04-5.55405E-06 0.00000E+00
 -1       614 1.84385E-04-6.18112E-06 0.00000E+00
 -1       615 1.84393E-04-6.76781E-06 0.00000E+00
 -1       616 1.84401E-04-7.31995E-06 0.00000E+00
 -1       617 1.84410E-04-7.84335E-06 0.00000E+00
 -1       618 1.84418E-04-8.34381E-06 8.27181E-25
 -1       619 1.84427E-04-8.82715E-06 0.00000E+00
 -1       620 1.84435E-04-9.29919E-06 0.00000E+00
 -1       621 1.85655E-04 1.71543E-06 0.00000E+00
 -1       622 1.87166E-04 1.81958E-06 8.27181E-25
 -1       623 1.88802E-04 1.92351E-06-3.30872E-24
 -1       624 1.90530E-04 2.02712E-06 0.00000E+00
 -1       625 1.92316E-04 2.13043E-06 0.00000E+00
 -1       626 1.84849E-04 4.89691E-07-3.30872E-24
 -1       627 1.85372E-04-5.69060E-07 0.00000E+00
 -1       628 1.85876E-04-1.57257E-06 0.00000E+00
 -1       629 1.86361E-04-2.52902E-06-1.65436E-24
 -1       630 1.86832E-04-3.44659E-06-3.30872E-24
 -1       631 1.87292E-04-4.33351E-06 1.65436E-24
 -1       632 1.87743E-04-5.19796E-06 0.00000E+00
 -1       633 1.88189E-04-6.04819E-06 0.00000E+00
 -1       634 1.88633E-04-6.89240E-06 3.30872E-24
 -1       635 1.89077E-04-7.73878E-06 1.65436E-24
 -1       636 1.89526E-04-8.59558E-06 0.00000E+00
 -1       637 1.89981E-04-9.47099E-06-1.65436E-24
 -1       638 1.90446E-04-1.03732E-05-3.30872E-24
 -1       639 1.90924E-04-1.13106E-05 1.65436E-24
 -1       640 1.91418E-04-1.22912E-05 1.65436E-24
 -1       656 1.85142E-04-1.03440E-05 0.00000E+00
 -1       657 1.86261E-04-1.09457E-05-6.61744E-24
 -1       658 1.87660E-04-1.15461E-05 0.00000E+00
 -1       659 1.89194E-04-1.21461E-05-6.61744E-24
 -1       660 1.90678E-04-1.27480E-05-6.61744E-24
 -1       661 1.84704E-04-1.02773E-05 8.27181E-25
 -1       662 1.85004E-04-1.08808E-05 0.00000E+00
 -1       663 1.85335E-04-1.15709E-05-1.65436E-24
 -1       664 1.85697E-04-1.23411E-05 0.00000E+00
 -1       665 1.86087E-04-1.31856E-05 1.65436E-24
 -1       666 1.86503E-04-1.40984E-05 0.00000E+00
 -1       667 1.86942E-04-1.50740E-05-1.65436E-24
 -1       668 1.87403E-04-1.61066E-05 0.00000E+00
 -1       669 1.87882E-04-1.71911E-05 0.00000E+00
 -1       670 1.88380E-04-1.83219E-05 0.00000E+00
 -1       671 1.88892E-04-1.94939E-05-1.65436E-24
 -1       672 1.89418E-04-2.07021E-05-8.27181E-25
 -1       673 1.89955E-04-2.19414E-05 0.00000E+00
 -1       674 1.90502E-04-2.32071E-05-4.13590E-25
 -1       675 1.91056E-04-2.44939E-05 2.06795E-25
 -1       676 1.84899E-04-2.52812E-05 0.00000E+00
 -1       677 1.86246E-04-2.53854E-05-1.65436E-24
 -1       678 1.87592E-04-2.54896E-05 3.30872E-24
 -1       679 1.88936E-04-2.55935E-05-1.65436E-24
 -1       680 1.90276E-04-2.56973E-05 1.65436E-24
 -1       771 1.86794E-05 1.46673E-05 0.00000E+00
 -1       772 8.64019E-06 3.65800E-05 5.29396E-23
 -1       773 4.03346E-07 5.39555E-05 0.00000E+00
 -1       774-6.15512E-06 6.70512E-05-2.64698E-23
 -1       775-1.11566E-05 7.61351E-05 0.00000E+00
 -1       776-1.47274E-05 8.14918E-05 2.64698E-23
 -1       777-1.69936E-05 8.34158E-05 0.00000E+00
 -1       778-1.80838E-05 8.22158E-05-2.64698E-23
 -1       779-1.81261E-05 7.82086E-05 0.00000E+00
 -1       780-1.72505E-05 7.17227E-05 0.00000E+00
 -1       781-1.55862E-05 6.30931E-05 0.00000E+00
 -1       782-1.32638E-05 5.26640E-05-2.64698E-23
 -1       783-1.04132E-05 4.07839E-05 5.29396E-23
 -1       784-7.16535E-06 2.78075E-05 0.00000E+00
 -1       785-3.65034E-06 1.40928E-05 0.00000E+00
 -1       786 1.93486E-04 3.22721E-05 0.00000E+00
 -1       787 1.93528E-04 3.00765E-05 0.00000E+00
 -1       788 1.93569E-04 2.79228E-05 0.00000E+00
 -1       789 1.93612E-04 2.58026E-05 0.00000E+00
 -1       790 1.93654E-04 2.37113E-05 1.65436E-24
 -1       791 1.93697E-04 2.16441E-05 8.27181E-25
 -1       792 1.93740E-04 1.95988E-05 0.00000E+00
 -1       793 1.93783E-04 1.75733E-05 0.00000E+00
 -1       794 1.93825E-04 1.55672E-05-1.65436E-24
 -1       795 1.93868E-04 1.35804E-05 0.00000E+00
 -1       796 1.93911E-04 1.16149E-05 0.00000E+00
 -1       797 1.93954E-04 9.67243E-06 8.27181E-25
 -1       798 1.93998E-04 7.75727E-06 0.00000E+00
 -1       799 1.94041E-04 5.87372E-06-8.27181E-25
 -1       800 1.94084E-04 4.02927E-06 1.65436E-24
 -1       801 1.47759E-04 3.10291E-05 0.00000E+00
 -1       802 9.61149E-06 1.93613E-05 0.00000E+00
 -1       803-1.08415E-04 9.78069E-06-5.29396E-23
 -1       804-9.61476E-05 6.80659E-06 2.64698E-23
 -1       805-3.17712E-05 2.67699E-06 5.29396E-23
 -1       806 1.94174E-04 3.22033E-05-3.30872E-24
 -1       807 1.94887E-04 2.99152E-05 1.65436E-24
 -1       808 1.95588E-04 2.76585E-05 3.30872E-24
 -1       809 1.96274E-04 2.54372E-05-1.65436E-24
 -1       810 1.96946E-04 2.32555E-05 3.30872E-24
 -1       811 1.97602E-04 2.11172E-05 0.00000E+00
 -1       812 1.98240E-04 1.90264E-05-3.30872E-24
 -1       813 1.98859E-04 1.69868E-05 0.00000E+00
 -1       814 1.99457E-04 1.50025E-05 0.00000E+00
 -1       815 2.00033E-04 1.30773E-05 1.65436E-24
 -1       816 2.00585E-04 1.12152E-05 0.00000E+00
 -1       817 2.01113E-04 9.41989E-06 0.00000E+00
 -1       818 2.01615E-04 7.69541E-06-1.65436E-24
 -1       819 2.02088E-04 6.04560E-06 8.27181E-25
 -1       820 2.02533E-04 4.47427E-06 1.65436E-24
 -1       821 1.93999E-04-1.20703E-07 0.00000E+00
 -1       822 1.93859E-04-3.62325E-06 0.00000E+00
 -1       823 1.93716E-04-7.84920E-06 0.00000E+00
 -1       824 1.93571E-04-1.23671E-05 0.00000E+00
 -1       825 1.93427E-04-1.66666E-05 0.00000E+00
 -1       826 1.93286E-04-2.02387E-05 1.65436E-24
 -1       827 1.93147E-04-2.27724E-05-3.30872E-24
 -1       828 1.93011E-04-2.39629E-05 1.65436E-24
 -1       829 1.92875E-04-2.38714E-05 3.30872E-24
 -1       830 1.92738E-04-2.25664E-05 0.00000E+00
 -1       831 1.92601E-04-2.04471E-05 0.00000E+00
 -1       832 1.92462E-04-1.79172E-05 0.00000E+00
 -1       833 1.92324E-04-1.54928E-05 0.00000E+00
 -1       834 1.92189E-04-1.36888E-05 0.00000E+00
 -1       835 1.92055E-04-1.28521E-05 0.00000E+00
 -1       836 1.95811E-04 2.35652E-06 3.30872E-24
 -1       837 1.97366E-04 2.48465E-06 1.65436E-24
 -1       838 1.98826E-04 2.61271E-06 0.00000E+00
 -1       839 2.00222E-04 2.74007E-06 0.00000E+00
 -1       840 2.01586E-04 2.86728E-06 8.27181E-25
 -1       856 1.91912E-04-1.43782E-05 0.00000E+00
 -1       857 1.91893E-04-1.52971E-05 0.00000E+00
 -1       858 1.91874E-04-1.61015E-05 0.00000E+00
 -1       859 1.91854E-04-1.68124E-05 2.06795E-25
 -1       860 1.91834E-04-1.74510E-05 4.13590E-25
 -1       861 1.91814E-04-1.80386E-05-2.06795E-25
 -1       862 1.91795E-04-1.85966E-05 0.00000E+00
 -1       863 1.91775E-04-1.91463E-05 0.00000E+00
 -1       864 1.91755E-04-1.97090E-05 0.00000E+00
 -1       865 1.91735E-04-2.03060E-05 0.00000E+00
 -1       866 1.91715E-04-2.09587E-05-8.27181E-25
 -1       867 1.91695E-04-2.16883E-05 4.13590E-25
 -1       868 1.91675E-04-2.25160E-05 8.27181E-25
 -1       869 1.91655E-04-2.34630E-05 0.00000E+00
 -1       870 1.91634E-04-2.45503E-05 0.00000E+00
 -1       871 1.93271E-04-1.33284E-05 0.00000E+00
 -1       872 1.94760E-04-1.33367E-05 0.00000E+00
 -1       873 1.96330E-04-1.33457E-05 0.00000E+00
 -1       874 1.97910E-04-1.33555E-05 3.36042E-25
 -1       875 1.99433E-04-1.33658E-05 4.13590E-25
 -1       876 1.92451E-04-1.43636E-05-3.30872E-24
 -1       877 1.92951E-04-1.53369E-05 1.65436E-24
 -1       878 1.93430E-04-1.62514E-05 0.00000E+00
 -1       879 1.93890E-04-1.71145E-05 0.00000E+00
 -1       880 1.94333E-04-1.79335E-05 3.30872E-24
 -1       881 1.94763E-04-1.87159E-05-1.65436E-24
 -1       882 1.95182E-04-1.94689E-05 0.00000E+00
 -1       883 1.95592E-04-2.02000E-05 1.65436E-24
 -1       884 1.95997E-04-2.09164E-05 0.00000E+00
 -1       885 1.96400E-04-2.16256E-05 0.00000E+00
 -1       886 1.96802E-04-2.23348E-05 0.00000E+00
 -1       887 1.97207E-04-2.30513E-05 0.00000E+00
 -1       888 1.97617E-04-2.37827E-05 3.30872E-24
 -1       889 1.98035E-04-2.45362E-05-1.65436E-24
 -1       890 1.98463E-04-2.53194E-05 0.00000E+00
 -1       891 1.92969E-04-2.58564E-05 0.00000E+00
 -1       892 1.94302E-04-2.59141E-05-8.27181E-25
 -1       893 1.95587E-04-2.59717E-05-8.27181E-25
 -1       894 1.96798E-04-2.60290E-05 4.13590E-25
 -1       895 1.97910E-04-2.60861E-05 4.13590E-25
 -1       956 2.02819E-04 1.67071E-06 1.65436E-24
 -1       957 2.02686E-04 4.47725E-07 1.65436E-24
 -1       958 2.02554E-04-6.94483E-07-3.30872E-24
 -1       959 2.02421E-04-1.76725E-06 0.00000E+00
 -1       960 2.02288E-04-2.78195E-06-3.30872E-24
 -1       961 2.02155E-04-3.75000E-06 0.00000E+00
 -1       962 2.02023E-04-4.68282E-06-3.30872E-24
 -1       963 2.01890E-04-5.59186E-06 0.00000E+00
 -1       964 2.01757E-04-6.48855E-06 3.30872E-24
 -1       965 2.01624E-04-7.38433E-06 0.00000E+00
 -1       966 2.01492E-04-8.29065E-06 3.30872E-24
 -1       967 2.01359E-04-9.21895E-06 0.00000E+00
 -1       968 2.01226E-04-1.01806E-05 0.00000E+00
 -1       969 2.01094E-04-1.11871E-05-3.30872E-24
 -1       970 2.00962E-04-1.22498E-05-3.30872E-24
 -1       971 2.00711E-04-1.45088E-05-3.30872E-24
 -1       972 2.00590E-04-1.55436E-05 0.00000E+00
 -1       973 2.00469E-04-1.64941E-05 0.00000E+00
 -1       974 2.00347E-04-1.73714E-05 0.00000E+00
 -1       975 2.00226E-04-1.81861E-05 0.00000E+00
 -1       976 2.00105E-04-1.89493E-05 0.00000E+00
 -1       977 1.99983E-04-1.96718E-05-3.30872E-24
 -1       978 1.99862E-04-2.03645E-05 0.00000E+00
 -1       979 1.99740E-04-2.10383E-05-3.30872E-24
 -1       980 1.99619E-04-2.17041E-05 1.65436E-24
 -1       981 1.99498E-04-2.23728E-05 3.30872E-24
 -1       982 1.99377E-04-2.30553E-05 0.00000E+00
 -1       983 1.99256E-04-2.37625E-05 0.00000E+00
 -1       984 1.99135E-04-2.45054E-05 0.00000E+00
 -1       985 1.99015E-04-2.52948E-05 0.00000E+00
 -3
    1PSTEP                        44          22           1          
  100CL  122 6.62912E-01         409                     0   22           1
 -4  STRESS      6    1
 -5  SXX         1    4    1    1
 -5  SYY         1    4    2    2
 -5  SZZ         1    4    3    3
 -5  SXY         1    4    1    2
 -5  SYZ         1    4    2    3
 -5  SZX         1    4    3    1
 -1         1-5.32088E+06-1.63724E+06-1.13366E+06-1.41506E+06-2.29920E-09-9.22591E-08
 -1         2 1.35899E+06 1.99902E+07 4.70538E+06 6.01629E+06 2.48547E-08-4.15312E-08
 -1         3-1.48417E+03-1.56751E+06 4.07412E+02-2.22186E+03-6.13845E-10-1.98925E-08
 -1         5-7.45256E+01 3.86268E+05 9.97848E+00-1.33487E+00-3.70821E-10-2.67955E-08
 -1         8-5.86548E+05-2.08973E+05-6.77638E+04-2.56139E+05-1.61890E-10 2.03785E-07
 -1         9 1.16092E+07 3.49971E+06 2.70082E+06-4.07052E+05 4.98258E-09-5.72763E-08
 -1        10-2.30448E+03-1.63347E+06-3.96249E+03-1.50326E+04-1.43082E-08-1.01104E-07
 -1        12-7.06067E+01 3.86289E+05 3.27970E+02-9.10138E+00-5.80282E-10 1.93031E-08
 -1        15 9.57301E+02 5.26084E+02 3.09445E+03 9.03899E-01-5.29141E-10 1.12378E-07
 -1        16 2.27226E+07-3.18894E+05 3.09943E+06-2.21794E+06 7.89684E-09 1.75011E-07
 -1        17 8.32289E+06 6.23372E+06 2.24882E+06 5.96958E+06 2.45811E-08 2.34810E-08
 -1        18 1.41725E+05 3.33479E+04 4.01866E+03-1.19439E+05 1.83386E-08-1.30540E-08
 -1        19 1.22381E+05 1.41629E+05-9.43984E+02 2.19684E+04 1.53814E-09-1.24106E-08
 -1        20-8.18972E+04-5.73556E+05-1.28699E+05 2.51330E+04-2.09805E-09 1.19362E-08
 -1        21-4.55878E+01-2.95989E+05-9.23945E+02 2.73727E+02 1.66080E-08 1.06713E-08
 -1        24 1.39059E+07 1.19789E+07 3.85308E+06 1.10944E+07-1.62681E-07-5.60152E-08
 -1        25 1.23829E+05 2.63252E+05 9.89608E+04-6.43233E+05-9.22319E-10 2.37893E-08
 -1        26-5.54004E+04 9.22549E+04-2.46316E+04 1.28620E+03-8.73115E-12-6.43300E-09
 -1        27-7.55779E+04-3.09876E+05-1.13286E+05 6.89601E+04 5.13137E-09 2.64087E-09
 -1        28 2.22411E+04-8.53365E+04 1.68964E+04 2.06177E+04-3.81704E-09-6.49837E-09
 -1        32-1.67992E+06-3.17671E+06-1.96672E+05 4.52734E+05-4.18295E-08-9.10859E-09
 -1        33-1.78444E+05 9.29755E+04 3.23804E+04-3.84782E+04-2.90591E-09-1.68993E-08
 -1        34-2.23564E+05-2.50213E+04 6.89497E+02 7.56349E+04-4.64649E-09 6.60748E-10
 -1        35-2.29296E+04-3.38425E+04-1.34825E+03 5.14932E+04-4.28255E-09 2.79518E-09
 -1        51 6.02242E+04-1.74051E+05 1.27532E+05-4.49965E+05 1.30967E-10-2.61913E-07
 -1        52 2.04360E+04-1.51845E+05 6.70085E+04-5.24742E+05 3.73802E-10-2.55972E-07
 -1        53 4.22965E+03-1.67266E+05 3.50448E+04-4.48395E+05 6.42103E-10-2.68170E-07
 -1        54 7.63577E+03-1.63054E+05 2.90989E+04-5.26301E+05 3.52884E-10-4.18884E-07
 -1        55 1.66538E+04-1.70276E+05 3.57531E+04-4.48275E+05 2.72848E-10 6.59547E-08
 -1        56-9.72552E+06-1.30984E+06-8.92341E+05-4.01787E+06-5.82950E-08-1.61817E-08
 -1        57-1.09119E+07-9.69635E+05-5.53224E+05-2.83922E+06 4.67335E-08 1.13905E-07
 -1        58-9.61078E+06-1.74569E+06-1.99533E+05-4.17041E+06 1.86992E-09 2.66642E-07
 -1        59-1.09951E+07-4.80711E+05-1.10834E+05-2.78036E+06 2.79338E-08-2.78626E-07
 -1        60-9.69540E+06-1.75113E+06-5.45686E+04-4.12445E+06 1.17543E-08-1.47949E-07
 -1        61-1.04704E+07-7.56917E+05 4.23629E+03-3.01647E+06 2.99406E-09 1.62283E-07
 -1        62-1.00364E+07-1.53599E+06-5.84673E+04-3.85728E+06-2.23372E-08 9.24811E-08
 -1        63-9.74081E+06-1.35167E+06 3.60327E+04-3.62191E+06 3.26399E-08-3.89846E-08
 -1        64-1.03493E+07-1.21008E+06-5.34311E+04-3.47029E+06-8.11997E-09-1.15091E-07
 -1        65-9.39189E+06-1.86808E+06 2.32135E+03-4.36755E+06-4.93746E-08-1.37080E-07
 -1        66-1.04763E+07-9.56499E+05-4.54108E+04-3.17969E+06 9.98989E-09 8.18454E-08
 -1        67-9.37341E+06-2.09841E+06-9.99696E+04-4.71396E+06-3.99123E-08-1.39467E-07
 -1        68-1.04567E+07-9.18078E+05-1.84057E+05-3.18036E+06-4.31482E-08 9.35397E-08
 -1        69-9.58397E+06-2.20606E+06-4.93879E+05-4.32944E+06-4.07854E-08-2.38622E-07
 -1        70-1.01844E+07-9.16994E+05-8.16318E+05-3.50815E+06 3.78495E-08 2.31666E-08
 -1        86-1.38582E+06-1.46574E+07-2.57373E+06-2.83197E+06-2.57889E-07 1.00670E-07
 -1        87 2.15579E+06 5.63648E+06 2.14129E+06 5.33981E+06-4.44270E-07 3.44025E-08
 -1        88-3.94111E+05-2.06213E+06 1.99487E+05-2.43861E+06-3.81984E-07-1.47016E-07
 -1        89 2.88778E+06 5.38273E+06 2.19297E+06 5.50901E+06-5.66557E-07 1.05465E-07
 -1        90-2.03685E+06-1.44703E+07-2.78489E+06-3.02508E+06-1.37479E-07 1.47746E-07
 -1       121-2.03351E+03-1.57240E+06-5.42881E+02 1.10133E+03 1.49896E-09-9.12405E-09
 -1       122-1.29746E+03-1.56757E+06 7.73365E+02-4.44756E+03-5.37294E-09 7.60701E-09
 -1       123-2.05358E+03-1.57254E+06 2.70211E+02 3.28909E+03 4.26917E-09 3.19415E-09
 -1       124 3.47937E+02-1.56712E+06 2.96662E+03-9.30338E+03-1.00158E-08 2.75759E-09
 -1       125-2.86758E+03-1.57344E+06 3.48962E+03 5.91145E+03 6.70298E-09-3.03371E-08
 -1       191-7.85393E+01 3.86286E+05 8.52059E+00 6.95766E-01-5.60938E-10 6.93944E-09
 -1       192-7.54885E+01 3.86269E+05 2.12921E+01-4.28205E+00-8.90230E-10-7.15954E-09
 -1       193-8.10741E+01 3.86286E+05 3.62841E+01 3.75978E+00-1.05232E-09-2.42526E-08
 -1       194-7.85758E+01 3.86272E+05 8.09387E+01-9.71725E+00-5.55588E-10-1.34569E-08
 -1       195-8.59396E+01 3.86283E+05 1.54993E+02 6.32168E+00-1.42012E-09-3.43607E-09
 -1       251-8.38989E+05 1.46515E+04-3.42332E+04-1.28012E+04-1.76342E-10 9.34197E-08
 -1       252-8.51795E+05-1.69539E+04-2.37865E+04 4.41203E+04-5.92144E-09-9.77575E-08
 -1       253-8.46613E+05 2.22908E+03-9.22791E+03-8.51912E+03-6.22208E-10-2.92875E-07
 -1       254-8.40122E+05-2.70104E+03-4.17976E+03 3.04451E+04 8.52981E-09-3.76489E-07
 -1       255-8.50154E+05 6.58954E+01-3.10183E+03 8.70949E+02-2.02704E-09-2.11138E-07
 -1       256-8.35994E+05-2.36634E+02 8.89116E+02 9.51558E+03 5.49073E-09 1.04965E-07
 -1       257-8.50418E+05-4.71667E+02-1.06010E+03 1.24021E+04-2.74622E-09 1.17962E-07
 -1       258-8.38537E+05 8.02441E+02 2.36007E+03-1.19925E+04-1.46612E-08-1.04882E-07
 -1       259-8.47841E+05-7.95508E+02 1.56490E+03 2.23782E+04 1.00197E-08-1.82048E-07
 -1       260-8.43515E+05 2.70706E+03 5.48618E+03-2.72375E+04-1.34139E-08-2.25370E-07
 -1       261-8.45951E+05-1.98254E+03 8.76768E+03 2.76592E+04 2.56052E-08-1.54761E-07
 -1       262-8.41397E+05 1.15829E+04 2.17207E+04-3.14386E+04-1.37925E-08 1.53614E-09
 -1       263-8.50142E+05-9.49511E+03 3.44736E+04 2.65858E+04 1.17318E-08 2.34881E-07
 -1       264-8.11459E+05 6.74502E+04 9.51829E+04-2.31442E+04 2.42501E-08 2.98889E-07
 -1       265-8.75468E+05-5.79220E+04 1.33014E+05 1.93560E+04 1.27009E-08-6.89543E-08
 -1       266-1.73306E+04-8.10457E+03 4.06587E+04-1.93392E+01 7.63976E-11 1.91324E-07
 -1       267 2.00906E+04 9.44482E+03 2.87389E+04 2.23154E+01-1.75078E-10-3.64737E-07
 -1       268-2.69413E+03-1.33772E+03 1.06820E+04-2.84326E+00 1.03228E-10-2.90897E-07
 -1       269 3.18096E+03 1.60089E+03 6.94323E+03 3.31209E+00-2.55909E-10-1.33435E-07
 -1       270-4.77466E+02-2.63041E+02 3.35159E+03-4.49468E-01 1.19371E-10 4.63918E-08
 -1       271-1.61095E+06-1.99328E+05-1.22584E+05-6.23651E+05 2.09020E-08 1.31549E-07
 -1       272-1.62232E+06-3.14712E+05-7.79180E+04-6.50382E+05 4.02542E-08-1.08950E-07
 -1       273-1.63705E+06-2.27019E+05-2.95460E+04-6.14421E+05-6.04123E-08 1.25607E-07
 -1       274-1.59159E+06-2.82307E+05-1.57280E+04-6.66728E+05 6.10744E-08 4.05371E-08
 -1       275-1.64323E+06-2.26998E+05-7.26270E+03-6.10098E+05 3.49701E-08 2.05691E-08
 -1       276-1.58448E+06-2.83304E+05-3.22042E+03-6.75860E+05 7.14972E-08 7.59997E-08
 -1       277-1.64630E+06-2.24288E+05-1.98794E+03-6.06959E+05 1.35315E-08 1.06597E-07
 -1       278-1.58141E+06-2.87018E+05-8.64313E+02-6.82577E+05 2.13940E-08 2.42821E-08
 -1       279-1.64825E+06-2.22017E+05-1.01518E+03-6.04740E+05-1.71021E-08-1.71307E-07
 -1       280-1.57989E+06-2.89880E+05-1.32763E+03-6.87007E+05-2.79410E-08-6.74328E-08
 -1       281-1.64924E+06-2.20534E+05-2.42776E+03-6.03488E+05 8.59745E-09 2.02332E-08
 -1       282-1.58033E+06-2.92736E+05-5.73975E+03-6.88778E+05-2.31375E-09 3.56065E-08
 -1       283-1.64850E+06-2.18868E+05-1.01314E+04-6.03375E+05 2.87808E-08-1.75723E-07
 -1       284-1.58950E+06-3.06449E+05-2.77811E+04-6.85969E+05 8.53780E-09-2.12892E-07
 -1       285-1.64006E+06-2.08173E+05-4.30325E+04-6.05737E+05-7.98082E-10-5.89462E-08
 -1       301-3.91805E+03-6.40748E+05 1.67397E+05-1.11760E+06-6.94126E-09-5.37548E-08
 -1       302-4.85620E+03-5.94784E+05 1.00912E+05-1.63165E+06-2.55968E-08 8.05121E-08
 -1       303-1.91372E+04-6.32509E+05 5.75514E+04-1.11457E+06-1.61817E-08 1.69608E-07
 -1       304-2.05186E+04-6.01041E+05 5.88584E+04-1.63101E+06-1.32422E-08-4.74320E-08
 -1       305-2.28742E+04-6.21826E+05 7.34763E+04-1.11767E+06 1.73386E-08-4.17058E-08
 -1       306-3.00812E+07-6.21032E+06-8.59201E+06-5.50370E+05-1.14203E-07-5.64614E-08
 -1       307 2.53588E+07 3.22781E+06 5.50821E+06-1.51413E+07-7.24103E-07-4.29427E-07
 -1       308-7.01034E+06-1.02557E+06-4.62088E+05 5.19884E+06-1.79250E-07 1.85682E-07
 -1       309-3.27648E+06 8.70505E+06 2.27448E+06-2.06347E+07 1.47051E-07 3.68305E-07
 -1       310-1.25062E+07-1.92387E+06-2.01342E+06 5.20527E+06-1.23051E-07-2.03072E-07
 -1       311 3.81791E+07 1.70178E+04 7.24144E+06-8.85303E+06 4.98461E-07-1.50292E-07
 -1       312-3.18454E+07-6.73492E+06-8.50269E+06-4.98802E+06 8.14907E-10-3.78786E-08
 -1       313 4.53596E+07 1.48739E+07 1.06365E+07 2.36563E+07-9.77016E-08 6.17001E-08
 -1       314-1.72526E+07-1.77003E+07-7.50748E+06-1.25140E+07 4.64846E-07-1.44588E-07
 -1       315-1.77092E+06 2.96196E+07 5.66043E+06 1.05951E+07-6.98274E-07 3.70201E-08
 -1       316 1.36864E+06-9.83988E+06-4.46499E+05-2.56381E+06-1.21674E-06-3.20957E-07
 -1       317-1.71328E+07 2.23769E+07 2.23025E+06-8.75002E+06 7.61589E-07-4.94590E-07
 -1       318-1.07121E+06-1.27309E+07-2.02613E+06-4.24534E+06-9.93343E-07 1.07277E-07
 -1       319 7.15242E+06 3.18114E+07 7.00635E+06 1.65472E+07-3.70783E-08 1.84722E-07
 -1       320-2.25412E+07-1.75732E+07-9.81845E+06-1.27762E+07 1.96509E-07-7.52916E-08
 -1       336-7.29294E+02-1.70218E+06-1.39000E+04 8.95225E+03-2.64063E-08 7.58882E-09
 -1       337-5.42135E+03-1.70177E+06-1.81397E+04-2.17380E+04-4.92953E-08 1.15415E-08
 -1       338 2.91748E+02-1.70167E+06-2.85535E+04 1.25361E+04-3.48482E-08-8.62201E-10
 -1       339-3.02976E+04-1.71906E+06-6.45465E+04-2.87562E+04-6.34782E-08 3.73766E-08
 -1       340 1.99774E+04-1.68708E+06-1.01666E+05 1.58398E+04-4.11965E-08 4.90218E-08
 -1       406-4.88772E+01 3.86269E+05 6.44002E+02 3.32486E+00-1.81295E-09 1.32313E-08
 -1       407 1.55542E+02 3.86403E+05 1.37619E+03 2.32941E+01-4.96158E-10-3.86744E-08
 -1       408 6.35482E+02 3.86169E+05 2.74407E+03-2.69441E+01-2.46200E-09-2.26282E-08
 -1       409 2.90673E+03 3.87279E+05 6.18480E+03 2.87585E+02-3.77099E-10 5.41331E-09
 -1       410 8.47783E+03 3.85379E+05 1.26230E+04-2.77318E+02-2.85399E-09-1.56615E-09
 -1       521-3.16106E+07-7.65978E+06-1.00291E+07-1.60949E+05-1.13156E-07 7.45058E-08
 -1       522 2.62022E+07 4.23555E+06 5.61179E+06-1.86294E+07-6.19621E-07-3.40486E-07
 -1       523-7.59135E+06-1.33580E+06-4.53929E+05 5.64375E+06-2.57278E-08-4.23606E-07
 -1       524-6.77033E+06 1.17373E+07 2.45820E+06-2.36829E+07 1.01194E-06-4.22264E-07
 -1       525-1.33045E+07-2.55087E+06-2.21124E+06 5.65191E+06 6.97270E-07-3.58850E-08
 -1       526 4.16333E+07-7.31942E+04 7.59475E+06-1.14948E+07 5.11762E-07 7.15081E-08
 -1       527-3.36716E+07-8.42146E+06-9.79289E+06-4.84746E+06 1.09663E-07 3.04120E-07
 -1       528 4.94975E+07 1.65486E+07 1.10867E+07 2.68738E+07 2.65602E-07-3.90282E-08
 -1       529-1.81913E+07-1.98882E+07-8.60119E+06-1.25418E+07-2.22411E-07 5.35510E-08
 -1       530-4.24856E+06 3.43716E+07 5.98586E+06 1.00704E+07-3.79514E-07 5.71599E-07
 -1       531 1.36331E+06-1.09114E+07-4.20162E+05-2.51998E+06-8.70015E-07 2.57336E-07
 -1       532-1.96655E+07 2.43824E+07 2.43501E+06-1.30105E+07 4.74218E-07-5.61762E-07
 -1       533-1.11619E+06-1.38732E+07-2.15442E+06-4.06095E+06-2.74886E-07-1.02911E-06
 -1       534 5.13497E+06 3.68850E+07 7.28597E+06 1.71073E+07-5.94300E-08 7.40401E-07
 -1       535-2.37088E+07-1.99448E+07-1.12475E+07-1.28393E+07 9.34815E-08 4.79631E-07
 -1       536-7.05187E+05-4.68480E+04-4.74461E+04-5.45573E+04-7.51061E-09 6.46942E-08
 -1       537-5.58000E+04 4.48318E+04 8.40625E+04 1.23606E+05-1.20872E-07 9.67671E-08
 -1       538-3.94373E+05 3.29749E+03 3.69178E+03-7.20805E+04 3.92533E-08 1.11401E-07
 -1       539-2.69380E+05 2.88294E+03 2.49307E+04 1.38488E+05 1.77683E-07 1.34808E-07
 -1       540-4.96969E+05-4.28205E+02-2.12177E+04-6.99718E+04 4.68253E-09 1.04937E-07
 -1       541 1.45083E+05 1.69246E+04 1.06087E+05 9.77177E+04-5.67420E-08 4.63147E-08
 -1       542-7.97668E+05-2.00771E+04-8.39773E+04-3.04388E+04 5.86388E-08 2.03530E-08
 -1       543 4.02983E+05 2.72453E+04 1.57499E+05-1.33432E+04-1.13423E-08-3.19228E-08
 -1       544-7.47952E+05-1.64858E+04-7.46070E+04 4.04225E+04-9.37553E-09-3.82237E-08
 -1       545 2.76920E+04 9.44896E+03 7.95555E+04-1.13403E+05-1.12178E-08-7.52379E-08
 -1       546-4.32456E+05 6.08283E+03-1.21946E+04 6.92764E+04-3.31966E-11-1.06951E-07
 -1       547-2.87433E+05-4.65870E+03 1.05281E+04-1.41334E+05-1.38475E-07-1.17598E-07
 -1       548-4.41298E+05 4.71560E+03-2.38449E+04 6.90415E+04-1.07569E-07-1.12921E-07
 -1       549 4.68658E+04 1.59591E+04 6.02487E+04-1.11256E+05-6.94066E-08-7.13223E-08
 -1       550-7.57810E+05-2.20201E+04-1.28715E+05 3.84860E+04 6.68115E-09-4.44634E-08
 -1       551 4.07820E+04-7.53941E+05-1.55728E+04-1.24726E+06-1.01150E-07-1.58907E-08
 -1       552 9.31806E+04-7.98806E+05 1.01265E+04-1.77846E+06-7.09842E-08 4.82833E-08
 -1       553 7.16725E+04-7.95249E+05 3.22093E+04-1.24062E+06-1.19806E-07 4.67262E-08
 -1       554 1.31945E+05-8.14597E+05 8.13098E+04-1.78041E+06-7.61793E-08 2.02708E-08
 -1       555 1.01434E+05-8.18878E+05 1.48442E+05-1.24045E+06-1.23982E-07-1.42354E-08
 -1       556 2.23301E+05-3.83048E+05 2.63611E+04-4.06906E+05-2.33122E-08-9.22591E-09
 -1       557 3.53816E+05-4.87323E+05 1.64567E+04-5.27123E+05-8.73115E-10-1.42609E-09
 -1       558 2.05157E+05-3.75978E+05 2.46713E+03-4.11248E+05-1.67056E-08-1.03973E-08
 -1       559 3.28788E+05-4.87482E+05 2.50739E+03-5.47524E+05 2.22208E-08 4.37285E-09
 -1       560 1.89895E+05-3.66406E+05-1.46623E+03-4.22244E+05 6.81030E-09-4.76575E-09
 -1       561 3.09603E+05-4.79808E+05 1.46413E+02-5.60603E+05 9.19681E-09-8.69477E-09
 -1       562 1.77827E+05-3.58907E+05-1.31435E+03-4.30983E+05-6.83940E-10-5.27871E-09
 -1       563 2.95268E+05-4.73559E+05-3.26525E+01-5.69965E+05-4.58385E-10 1.84809E-09
 -1       564 1.69215E+05-3.53542E+05-5.96527E+02-4.37086E+05 6.24277E-09-7.84530E-09
 -1       565 2.85763E+05-4.69419E+05 2.49603E+01-5.76038E+05 3.71801E-09-9.32778E-09
 -1       566 1.64184E+05-3.50358E+05-2.58686E+02-4.40605E+05-1.19035E-08-1.45646E-08
 -1       567 2.81148E+05-4.67412E+05-3.61807E+02-5.78840E+05 1.22000E-08-4.54747E-09
 -1       568 1.62822E+05-3.49525E+05-1.12402E+03-4.41653E+05-8.79118E-09 4.38740E-09
 -1       569 2.80033E+05-4.67340E+05-2.83894E+03-5.77407E+05-1.90930E-08 1.56288E-08
 -1       570 1.66223E+05-3.52758E+05-6.20683E+03-4.40633E+05 7.05768E-09-1.07248E-08
 -1       571 2.90449E+05 1.05057E+04 1.49886E+04-9.51559E+04 6.04541E-09 1.05911E-09
 -1       572 2.92621E+05 3.95928E+03 7.34562E+03-1.04396E+05 4.40195E-09-2.32631E-08
 -1       573 2.91312E+05 1.24503E+03 3.26390E+03-9.49794E+04-4.12729E-09 7.85894E-09
 -1       574 2.91526E+05 7.26481E+02 1.63682E+03-1.04620E+05-1.29796E-08 9.75524E-09
 -1       575 2.91406E+05 4.47374E+02 7.72534E+02-9.49553E+04-1.29321E-08 4.24279E-09
 -1       576 2.91390E+05 4.58646E+02 3.95536E+02-1.04650E+05-1.04674E-08 6.71935E-09
 -1       577 2.91446E+05 3.89278E+02 1.97459E+02-9.49520E+04-8.21274E-09 7.07223E-09
 -1       578 2.91421E+05 4.20592E+02 1.14078E+02-1.04654E+05-7.67795E-09 1.06047E-08
 -1       579 2.91518E+05 3.52602E+02 7.83735E+01-9.49516E+04-4.42742E-09 1.13941E-08
 -1       580 2.91522E+05 3.69584E+02 9.09917E+01-1.04649E+05-2.75777E-08 1.61954E-08
 -1       581 2.91632E+05 2.94054E+02 1.37477E+02-9.49576E+04-2.23918E-09-2.22008E-09
 -1       582 2.91698E+05 3.32277E+02 2.79529E+02-1.04588E+05 5.77893E-09-8.90941E-09
 -1       583 2.91772E+05 3.36635E+02 5.36549E+02-9.50141E+04 9.95715E-09 8.34461E-11
 -1       584 2.92073E+05 7.74809E+02 1.21415E+03-1.04111E+05 3.02971E-08 8.67931E-09
 -1       585 2.91798E+05 1.79679E+03 2.45863E+03-9.54331E+04 8.97489E-09-2.72921E-08
 -1       586-3.42236E+03 1.16849E+05-2.91690E+03-2.50653E+05-4.99040E-09-1.45496E-09
 -1       587-1.33668E+03 1.16600E+05 7.71314E+02-2.75862E+05-5.14592E-09 3.19533E-08
 -1       588 4.00610E+02 1.16407E+05 4.75942E+03-2.50515E+05-5.02769E-09 1.01145E-08
 -1       589 5.08736E+03 1.18880E+05 1.23442E+04-2.75629E+05-9.16953E-09-3.89628E-09
 -1       590 1.66113E+04 1.15073E+05 2.58944E+04-2.50947E+05-4.84761E-09 9.88257E-09
 -1       591-7.49776E+04-1.59711E+04-2.25256E+04-3.19554E+04-6.61657E-11 2.14004E-09
 -1       592-7.90659E+04-1.95284E+04-1.22017E+04-3.55803E+04 1.15266E-09-5.89171E-09
 -1       593-7.72304E+04-1.43366E+04-5.07894E+03-3.36070E+04 2.24892E-09 1.01618E-08
 -1       594-7.59558E+04-1.62230E+04-2.53299E+03-3.56980E+04 5.87761E-10 6.98822E-09
 -1       595-7.74021E+04-1.43312E+04-1.16290E+03-3.36821E+04 9.27415E-10 5.08734E-09
 -1       596-7.57429E+04-1.60719E+04-5.90950E+02-3.56727E+04 6.01412E-09 5.62437E-09
 -1       597-7.74236E+04-1.43466E+04-3.21340E+02-3.36849E+04 5.41502E-09-2.01004E-09
 -1       598-7.57219E+04-1.60659E+04-2.57494E+02-3.56656E+04-1.43871E-09 2.39949E-08
 -1       599-7.74224E+04-1.43471E+04-3.27889E+02-3.36846E+04 5.67638E-09-8.59939E-09
 -1       600-7.57429E+04-1.60724E+04-6.08289E+02-3.56706E+04 2.43199E-09-3.09128E-08
 -1       601-7.73977E+04-1.43326E+04-1.19959E+03-3.36811E+04 4.20960E-09-2.14552E-08
 -1       602-7.59625E+04-1.62272E+04-2.61417E+03-3.56928E+04-2.67573E-09-1.37599E-08
 -1       603-7.72178E+04-1.43410E+04-5.24237E+03-3.36045E+04 7.01334E-09-2.01680E-09
 -1       604-7.91903E+04-1.96192E+04-1.25934E+04-3.55464E+04 4.64058E-09-7.66067E-09
 -1       605-7.48726E+04-1.60459E+04-2.32489E+04-3.19191E+04 5.71140E-09 9.98079E-09
 -1       606 2.66961E+04-1.43263E+04-2.56822E+04 2.39915E+04 3.93084E-09-2.57205E-09
 -1       607 2.23079E+04-4.67885E+03-1.27897E+04 2.69613E+04 3.99814E-09-1.05326E-08
 -1       608 2.48089E+04-8.43976E+02-5.72551E+03 2.38227E+04-1.05865E-09-5.52859E-09
 -1       609 2.43294E+04-2.89043E+02-2.89237E+03 2.71754E+04 4.79122E-09 2.81261E-09
 -1       610 2.45953E+04-4.08602E+01-1.37998E+03 2.38027E+04 4.47926E-09 7.31075E-09
 -1       611 2.45200E+04-4.11052E+01-6.95776E+02 2.71985E+04 3.72756E-09-4.34511E-10
 -1       612 2.45482E+04-2.71512E+01-3.30755E+02 2.38006E+04 2.81580E-09 6.42854E-09
 -1       613 2.45316E+04-3.70126E+01-1.48185E+02 2.72012E+04 2.72803E-09 5.66479E-09
 -1       614 2.45260E+04-3.35674E+01-3.46684E+01 2.37999E+04 1.22418E-09 1.37211E-08
 -1       615 2.45263E+04-3.55219E+01 6.23052E+01 2.72017E+04-2.07001E-09 1.62975E-08
 -1       616 2.45086E+04-3.04426E+01 1.86651E+02 2.38002E+04 2.84081E-09 2.60275E-09
 -1       617 2.45488E+04 4.25096E+00 4.25782E+02 2.72012E+04-6.13227E-10-1.38632E-08
 -1       618 2.44717E+04 9.23001E+01 8.58206E+02 2.38005E+04-1.33105E-09-3.36900E-09
 -1       619 2.48517E+04 6.67814E+02 1.92715E+03 2.72006E+04-7.44876E-10 1.28578E-08
 -1       620 2.41866E+04 2.12733E+03 3.87351E+03 2.38021E+04 1.02568E-09 1.60594E-08
 -1       621 5.10407E+02 3.01383E+05 3.88290E+03 4.09984E+04 8.92214E-10-2.92130E-09
 -1       622 6.76284E+02 3.02279E+05 3.44617E+03 5.95208E+04 1.17825E-09-1.26170E-08
 -1       623 1.42440E+02 3.01577E+05 4.14131E+03 4.08129E+04 1.40199E-09-8.40373E-09
 -1       624 2.12555E+03 3.03497E+05 8.02852E+03 5.97034E+04 1.14414E-09 9.82504E-09
 -1       625 2.07687E+03 2.99985E+05 1.40296E+04 4.08097E+04 1.44291E-09-1.56933E-09
 -1       626 2.60842E+05 6.14093E+04 5.12118E+03 1.26729E+05 2.85354E-09-6.93944E-09
 -1       627 2.58524E+05 6.28063E+04 2.46785E+03 1.31002E+05-9.16771E-10-6.13556E-09
 -1       628 2.60970E+05 5.90661E+04 1.04372E+03 1.27600E+05 1.84900E-09 1.25342E-08
 -1       629 2.57889E+05 6.21261E+04 5.10849E+02 1.31243E+05 1.58784E-08 1.76920E-08
 -1       630 2.60984E+05 5.89529E+04 2.37070E+02 1.27636E+05-9.92122E-09 1.59769E-08
 -1       631 2.57822E+05 6.21002E+04 1.27705E+02 1.31244E+05-2.78844E-08 3.86890E-08
 -1       632 2.60981E+05 5.89568E+04 8.42619E+01 1.27632E+05-6.50880E-09-1.52795E-09
 -1       633 2.57813E+05 6.21021E+04 9.42179E+01 1.31241E+05 3.26600E-09-1.61340E-08
 -1       634 2.60976E+05 5.89540E+04 1.52568E+02 1.27632E+05-8.30846E-09 6.50698E-09
 -1       635 2.57828E+05 6.21003E+04 3.08912E+02 1.31246E+05-1.08752E-08-2.25373E-09
 -1       636 2.60967E+05 5.89482E+04 6.23945E+02 1.27631E+05 5.21823E-10 5.77984E-10
 -1       637 2.57963E+05 6.21974E+04 1.37196E+03 1.31246E+05-2.95131E-09-9.02946E-09
 -1       638 2.60919E+05 5.92513E+04 2.81889E+03 1.27494E+05-1.22213E-08 1.52659E-08
 -1       639 2.59444E+05 6.42568E+04 6.66963E+03 1.30810E+05-6.66114E-09 4.46585E-08
 -1       640 2.60714E+05 6.54010E+04 1.38406E+04 1.24903E+05-5.42877E-09 1.17468E-08
 -1       656 6.65751E+04-1.70382E+06-1.60708E+05-2.55059E+03-2.18279E-10-9.07431E-09
 -1       657-8.80732E+04-1.77643E+06-1.33137E+05 5.17201E+03-3.70164E-10-5.40779E-09
 -1       658 2.12219E+04-1.72444E+06-8.19963E+04-4.63464E+03 6.21412E-10 1.28859E-08
 -1       659-9.52387E+04-1.77984E+06-1.42554E+05 6.90321E+03-2.00635E-09 9.90983E-09
 -1       660 7.37246E+04-1.70042E+06-1.76898E+05-4.28178E+03-1.76078E-09 4.50066E-09
 -1       661 1.58598E+05 1.65967E+04 1.67188E+04 6.19999E+04 1.62117E-09-6.39648E-09
 -1       662 1.68050E+05 2.89778E+04 1.12673E+04 5.82487E+04 4.43487E-09-1.48302E-08
 -1       663 1.61882E+05 2.19604E+04 3.94059E+03 6.10468E+04 2.06001E-10-1.85651E-09
 -1       664 1.64243E+05 2.27054E+04 2.35730E+03 5.94129E+04-2.59843E-09-2.15941E-08
 -1       665 1.62380E+05 2.26929E+04 9.29937E+02 6.09014E+04 1.08167E-09 4.46448E-10
 -1       666 1.63653E+05 2.18677E+04 5.44344E+02 5.96026E+04 7.02198E-09 3.14659E-08
 -1       667 1.62468E+05 2.27762E+04 2.89322E+02 6.08650E+04 1.27525E-09 5.55846E-09
 -1       668 1.63557E+05 2.18079E+04 2.95245E+02 5.96556E+04-2.93022E-09-2.33865E-08
 -1       669 1.62475E+05 2.27511E+04 4.00083E+02 6.08487E+04-1.92591E-09 5.04960E-09
 -1       670 1.63654E+05 2.20252E+04 8.71527E+02 5.96585E+04-1.08563E-08 2.47936E-08
 -1       671 1.62370E+05 2.25634E+04 1.54758E+03 6.08600E+04-8.14346E-10-8.16152E-09
 -1       672 1.64556E+05 2.35308E+04 3.95953E+03 5.94400E+04 9.80687E-09-8.76065E-09
 -1       673 1.61578E+05 2.12836E+04 6.63558E+03 6.10526E+04-4.74301E-10 1.60621E-08
 -1       674 1.70871E+05 3.41916E+04 1.89764E+04 5.75846E+04-8.48922E-09-1.48991E-08
 -1       675 1.56095E+05 1.22012E+04 2.81676E+04 6.26034E+04-2.33968E-09-1.76078E-09
 -1       676 2.41135E+01-2.95911E+05-1.11360E+03-1.36868E+02 7.85377E-10 8.74607E-09
 -1       677-2.94583E+02-2.96181E+05-2.03808E+03 2.73515E+02 6.54993E-09-9.41575E-09
 -1       678 1.97574E+02-2.95720E+05-3.60281E+03-1.36558E+02 3.46972E-10-9.93440E-09
 -1       679-3.60288E+03-2.98356E+05-8.55879E+03 2.72334E+02 6.86941E-09-1.77148E-09
 -1       680 2.15112E+03-2.93738E+05-1.37938E+04-1.34178E+02 8.84029E-10 1.36563E-09
 -1       771-3.06290E+06-7.46676E+05-1.65174E+05-1.46565E+06-3.46918E-08-2.84635E-08
 -1       772-2.98587E+06-8.35348E+05-8.51565E+04-1.56817E+06-2.50293E-08 1.09067E-08
 -1       773-3.09428E+06-7.22201E+05-4.34152E+04-1.48012E+06-1.05938E-08 1.58616E-08
 -1       774-2.97639E+06-8.16924E+05-1.93686E+04-1.59386E+06 2.47965E-08-1.66619E-09
 -1       775-3.11067E+06-7.10696E+05-1.44910E+04-1.48714E+06-5.23869E-09 1.97906E-09
 -1       776-2.98868E+06-8.13909E+05-5.41854E+03-1.61330E+06-4.71482E-09-3.87081E-09
 -1       777-3.12490E+06-7.00428E+05-6.40375E+03-1.49333E+06 9.25502E-09 7.85803E-10
 -1       778-3.00152E+06-8.11104E+05-1.81032E+03-1.63000E+06 1.23691E-09 3.34330E-09
 -1       779-3.13713E+06-6.91456E+05-3.20054E+03-1.49862E+06-3.89991E-09-5.74437E-09
 -1       780-3.01283E+06-8.08427E+05-5.30856E+02-1.64361E+06-8.89850E-09-2.44472E-09
 -1       781-3.14685E+06-6.84224E+05-1.24380E+03-1.50276E+06-2.75031E-08-3.34148E-09
 -1       782-3.02154E+06-8.06153E+05 4.47311E+02-1.65365E+06-3.21088E-08-8.85848E-09
 -1       783-3.15370E+06-6.79198E+05 6.95847E+02-1.50566E+06-1.89902E-09-1.51499E-08
 -1       784-3.02637E+06-8.03881E+05 2.88761E+03-1.65984E+06-2.00453E-08 2.03818E-09
 -1       785-3.15775E+06-6.76201E+05 5.09717E+03-1.50750E+06-3.88973E-08 5.93172E-09
 -1       786 1.23764E+05-9.77099E+03 2.26061E+04-3.21796E+02 7.89555E-11 1.03901E-08
 -1       787 1.33568E+05 1.13126E+04 1.59929E+04-1.35092E+02 6.46549E-09 5.92991E-09
 -1       788 1.27544E+05-1.53114E+03 5.84870E+03-2.86681E+02 4.67235E-09 4.39491E-09
 -1       789 1.29164E+05 1.77225E+03 3.67161E+03-1.88901E+02-1.58049E-09 1.59682E-08
 -1       790 1.28168E+05-2.38396E+02 1.48660E+03-2.68004E+02-3.68469E-09 6.85628E-09
 -1       791 1.28434E+05 2.75830E+02 8.58667E+02-2.20857E+02-7.85923E-09 6.38181E-10
 -1       792 1.28274E+05-3.58355E+01 3.63957E+02-2.54727E+02-4.20804E-09 4.03894E-09
 -1       793 1.28308E+05 3.79038E+01 1.81635E+02-2.45827E+02 2.02298E-09-3.53068E-09
 -1       794 1.28295E+05-6.20201E-01 4.75928E+01-2.43034E+02 5.22937E-09-8.60378E-09
 -1       795 1.28271E+05-2.71564E+01-5.68183E+01-2.70217E+02-4.57551E-09-2.07353E-08
 -1       796 1.28311E+05 2.91883E+01-1.61113E+02-2.30336E+02 4.15968E-09-9.48825E-09
 -1       797 1.28177E+05-2.17949E+02-4.42725E+02-2.99371E+02 5.00023E-09-1.30150E-08
 -1       798 1.28389E+05 1.90029E+02-7.19107E+02-2.13880E+02 2.40021E-09 7.42318E-09
 -1       799 1.27632E+05-1.40069E+03-1.97846E+03-3.40108E+02 5.96517E-09-1.14568E-10
 -1       800 1.28857E+05 1.21096E+03-2.79996E+03-1.89601E+02 1.90802E-10-7.32825E-10
 -1       801-1.69494E+05-9.96511E+06-1.38799E+06 1.40729E+06 9.06002E-08-4.87344E-08
 -1       802 7.33155E+05 5.89798E+06 2.16858E+06-1.73639E+06 2.58886E-07-3.80187E-08
 -1       803-5.33617E+05-1.42061E+07-1.88008E+06 8.93373E+05 7.78819E-08 1.85064E-08
 -1       804 2.85206E+05 2.35874E+06 1.52789E+06 6.74366E+05-1.20010E-07-1.11203E-07
 -1       805 1.88641E+05-6.44004E+06-2.84512E+05-9.97826E+05-4.96511E-08-7.12707E-08
 -1       806-3.08829E+05-5.97379E+04-2.28467E+04-1.22371E+05-4.10000E-09 9.44738E-09
 -1       807-3.10627E+05-5.60080E+04-1.12243E+04-1.27915E+05 1.19526E-08-3.17864E-09
 -1       808-3.09456E+05-5.15042E+04-4.76172E+03-1.26264E+05-3.08228E-09 8.64554E-09
 -1       809-3.08267E+05-5.28541E+04-2.32836E+03-1.28190E+05-4.45016E-09 1.51394E-08
 -1       810-3.09550E+05-5.12176E+04-1.06722E+03-1.26436E+05 9.33824E-09 9.53446E-09
 -1       811-3.08084E+05-5.27274E+04-5.30748E+02-1.28155E+05 6.96491E-09 4.04270E-09
 -1       812-3.09564E+05-5.12422E+04-2.68507E+02-1.26435E+05-1.02336E-08-1.34373E-08
 -1       813-3.08059E+05-5.27296E+04-1.74634E+02-1.28136E+05-1.36461E-08-4.26398E-08
 -1       814-3.09557E+05-5.12520E+04-1.73276E+02-1.26431E+05-2.88492E-09-6.88078E-09
 -1       815-3.08063E+05-5.27319E+04-2.79365E+02-1.28128E+05 6.42285E-09 2.79770E-08
 -1       816-3.09537E+05-5.12511E+04-5.29611E+02-1.26428E+05 6.61385E-09 2.85045E-08
 -1       817-3.08152E+05-5.27824E+04-1.13666E+03-1.28117E+05-1.49689E-08 3.38514E-09
 -1       818-3.09468E+05-5.14115E+04-2.31841E+03-1.26352E+05 6.86668E-10 1.71399E-08
 -1       819-3.09421E+05-5.41830E+04-5.45503E+03-1.27816E+05 9.67702E-10-1.68163E-08
 -1       820-3.09030E+05-5.55324E+04-1.11030E+04-1.24592E+05 5.93445E-09 7.18728E-10
 -1       821-3.78938E+05 2.08676E+04-4.85754E+04 2.12430E+03 1.40379E-08 7.19956E-09
 -1       822-3.98644E+05-2.41739E+04-3.41382E+04-4.45676E+03 4.73063E-09 8.04721E-09
 -1       823-3.86403E+05 3.28946E+03-1.25467E+04 3.43328E+03-1.30056E-08 5.16229E-09
 -1       824-3.89633E+05-3.79339E+03-7.85347E+03-5.36782E+03-3.19176E-10 2.56777E-08
 -1       825-3.87956E+05 5.11228E+02-3.28867E+03 3.03548E+03 2.09087E-08 7.18649E-09
 -1       826-3.87202E+05-5.67329E+02-1.74417E+03-3.09602E+03 2.89092E-08 6.87101E-09
 -1       827-3.88809E+05 4.68800E+01-1.18968E+03 1.16133E+03 1.22617E-08-4.89882E-09
 -1       828-3.86498E+05-1.32065E+02-5.86497E+02 1.09416E+03-3.91766E-09 7.18495E-09
 -1       829-3.88648E+05 6.59215E+01-1.17863E+03-1.15473E+03 1.31178E-09 8.26051E-09
 -1       830-3.87551E+05-6.21997E+02-1.88234E+03 4.88000E+03 9.61791E-11 8.99058E-09
 -1       831-3.87778E+05 5.54415E+02-3.37061E+03-2.62453E+03-7.26764E-09-1.93454E-08
 -1       832-3.89713E+05-3.96011E+03-8.15643E+03 6.15989E+03-2.48379E-09-1.74441E-09
 -1       833-3.86502E+05 3.41357E+03-1.30509E+04-2.43468E+03-2.54340E-09-4.04725E-09
 -1       834-3.98705E+05-2.50882E+04-3.53622E+04 4.18928E+03-1.26232E-09 3.54012E-08
 -1       835-3.78769E+05 2.16496E+04-5.04471E+04-6.53838E+02 6.02327E-09 3.11411E-09
 -1       836-1.41357E+03 3.70158E+05 2.29047E+04-1.61412E+04-6.92671E-09 7.29688E-09
 -1       837 4.88293E+03 3.77331E+05 1.93785E+04-3.29839E+04-7.49020E-09 3.44244E-09
 -1       838-5.57784E+02 3.72169E+05 1.97397E+04-1.60697E+04-6.35555E-09 4.07067E-09
 -1       839 1.24213E+04 3.82945E+05 3.73372E+04-3.30364E+04-6.83349E-09-2.33354E-08
 -1       840-3.84014E+03 3.64484E+05 5.95371E+04-1.60946E+04-5.91172E-09-8.61350E-09
 -1       856-5.22369E+04 8.02608E+03-2.11505E+04-3.97738E+02 2.47883E-09 1.12987E-08
 -1       857-6.09504E+04-9.43034E+03-1.45598E+04 5.63340E+03 1.74984E-09-2.21917E-08
 -1       858-5.56876E+04 1.12558E+03-5.48803E+03-4.21837E+02 1.81154E-09 4.29554E-09
 -1       859-5.69903E+04-1.32416E+03-3.31177E+03 5.66926E+03 8.44679E-10 1.08201E-09
 -1       860-5.62032E+04 1.57631E+02-1.38796E+03-4.33324E+02-2.79786E-09-1.35586E-08
 -1       861-5.63973E+04-1.88137E+02-7.63524E+02 5.68490E+03-2.09006E-10-4.25807E-09
 -1       862-5.62838E+04 2.13512E+01-3.17349E+02-4.37460E+02-4.29509E-09-1.68501E-09
 -1       863-5.62984E+04-2.18078E+01-1.15516E+02 5.68730E+03-6.12087E-09-2.30145E-09
 -1       864-5.63025E+04-4.91352E+00 4.74010E+01-4.35724E+02-4.22420E-09-9.18659E-09
 -1       865-5.62426E+04 5.97663E+01 2.55716E+02 5.67739E+03-3.12514E-09 1.81811E-09
 -1       866-5.63374E+04-6.02403E+01 5.15244E+02-4.27549E+02 6.94342E-10-1.54341E-09
 -1       867-5.60003E+04 4.97464E+02 1.26816E+03 5.65520E+03-2.33376E-09-1.80333E-08
 -1       868-5.65399E+04-4.34708E+02 2.10729E+03-4.13531E+02-5.65251E-10-1.25148E-08
 -1       869-5.44554E+04 3.61791E+03 5.61099E+03 5.61868E+03 3.23470E-09-2.23727E-08
 -1       870-5.78746E+04-3.09593E+03 8.14281E+03-3.90928E+02-2.87400E-09-3.00952E-09
 -1       871-5.51951E+03-2.13257E+04-1.94895E+04 1.30414E+05-4.37285E-09 7.87622E-09
 -1       872-1.98383E+03-2.58572E+04-8.16058E+03 1.69101E+05-1.13923E-08-8.88122E-10
 -1       873 4.03848E+02-2.36657E+04 5.90091E+02 1.30127E+05-6.67023E-09 1.03491E-08
 -1       874 3.30433E+03-2.12545E+04 9.77953E+03 1.69131E+05-1.18243E-08 3.23271E-08
 -1       875 6.84512E+03-2.59954E+04 2.20616E+04 1.30366E+05-4.19277E-09 9.51786E-09
 -1       876 2.93751E+05 4.95085E+04 1.50989E+04 1.17882E+05 4.85841E-09-5.98720E-09
 -1       877 2.94749E+05 5.26884E+04 8.06339E+03 1.22213E+05 1.19626E-08-2.80863E-09
 -1       878 2.95163E+05 4.78359E+04 3.37816E+03 1.19119E+05-7.49878E-09-1.09681E-08
 -1       879 2.92697E+05 5.06400E+04 1.68321E+03 1.22315E+05 5.06589E-10 1.01311E-08
 -1       880 2.95264E+05 4.78187E+04 7.84021E+02 1.19170E+05 3.27964E-09-8.26572E-09
 -1       881 2.92561E+05 5.05524E+04 4.18703E+02 1.22292E+05 5.55281E-09-8.48006E-09
 -1       882 2.95273E+05 4.78319E+04 2.67900E+02 1.19171E+05-9.37007E-10-7.83600E-09
 -1       883 2.92551E+05 5.05479E+04 2.88067E+02 1.22284E+05 4.00115E-09 5.69887E-09
 -1       884 2.95267E+05 4.78291E+04 4.58304E+02 1.19171E+05 3.86819E-09 1.77499E-09
 -1       885 2.92587E+05 5.05542E+04 9.21479E+02 1.22295E+05-1.38240E-09 1.80434E-08
 -1       886 2.95231E+05 4.78022E+04 1.85722E+03 1.19168E+05 3.08457E-09 4.55680E-09
 -1       887 2.92914E+05 5.07682E+04 4.05684E+03 1.22343E+05 2.15032E-08 1.93340E-08
 -1       888 2.94975E+05 4.78474E+04 8.17464E+03 1.19038E+05 3.46176E-11 6.13454E-10
 -1       889 2.97780E+05 5.58293E+04 1.95277E+04 1.22193E+05-4.48965E-09 8.10587E-09
 -1       890 2.91638E+05 5.18108E+04 3.65749E+04 1.15927E+05 9.56788E-10 4.43106E-09
 -1       891-8.95994E+01-1.62764E+05-1.99653E+03 2.71518E+04-2.13481E-09 3.96540E-10
 -1       892-1.75734E+02-1.63291E+05-2.14420E+03 4.12312E+04 2.79033E-09 6.06633E-09
 -1       893 4.34677E+01-1.62828E+05-3.03581E+03 2.71592E+04-5.92081E-10-1.60335E-08
 -1       894-1.51035E+03-1.64438E+05-6.28291E+03 4.10786E+04 3.87718E-09-3.06545E-09
 -1       895-1.19944E+03-1.61519E+05-1.10641E+04 2.73062E+04 1.07684E-09-1.27966E-09
 -1       956-3.77192E+05-5.44877E+03-1.34518E+04 3.08475E+04 1.00390E-08-6.55041E-09
 -1       957-3.79832E+05-1.92171E+03-6.90460E+03 3.70710E+04-3.39651E-09-7.61065E-09
 -1       958-3.78401E+05-2.40385E+02-3.11143E+03 3.06799E+04 1.02045E-09-1.28698E-08
 -1       959-3.78598E+05-1.35626E+02-1.58875E+03 3.72665E+04 9.09677E-09 1.55796E-09
 -1       960-3.78519E+05-4.42944E+01-7.74750E+02 3.06626E+04 2.50684E-08-1.58616E-09
 -1       961-3.78517E+05-6.26044E+01-4.10765E+02 3.72869E+04 4.22931E-08 1.22777E-08
 -1       962-3.78547E+05-4.55247E+01-2.35175E+02 3.06597E+04 1.83418E-08-7.06905E-10
 -1       963-3.78518E+05-5.84167E+01-1.88793E+02 3.72906E+04 6.84486E-09 1.80739E-08
 -1       964-3.78552E+05-4.21725E+01-2.29595E+02 3.06589E+04 1.52856E-09 1.00601E-08
 -1       965-3.78530E+05-5.54575E+01-3.97111E+02 3.72899E+04-7.65914E-09-7.14749E-09
 -1       966-3.78536E+05-3.43319E+01-7.46165E+02 3.06604E+04 3.42880E-09-5.67934E-09
 -1       967-3.78620E+05-1.18999E+02-1.53037E+03 3.72755E+04 2.53931E-09 3.96903E-09
 -1       968-3.78432E+05-2.16820E+02-2.99592E+03 3.06731E+04 1.94950E-09 1.21819E-08
 -1       969-3.79820E+05-1.83385E+03-6.65086E+03 3.71271E+04-1.54841E-09-2.85416E-09
 -1       970-3.77276E+05-5.22982E+03-1.29563E+04 3.08003E+04-4.48472E-09 1.00617E-08
 -1       971-3.45373E+05-1.72742E+03-9.31069E+03 1.53782E+04 6.80666E-09-1.97673E-11
 -1       972-3.47615E+05-1.27160E+03-5.07051E+03 2.12688E+04 2.39015E-09 2.38520E-08
 -1       973-3.46411E+05-6.18397E+01-2.27113E+03 1.52570E+04 4.66753E-09-3.34489E-09
 -1       974-3.46546E+05-8.08041E+01-1.17728E+03 2.14059E+04 2.56000E-09-1.17079E-08
 -1       975-3.46493E+05-1.69590E+01-5.88943E+02 1.52447E+04 2.59206E-11-8.88588E-09
 -1       976-3.46485E+05-3.09542E+01-3.40619E+02 2.14217E+04 3.49974E-09-8.77776E-09
 -1       977-3.46509E+05-1.62119E+01-2.48721E+02 1.52413E+04-5.98243E-09-5.19833E-09
 -1       978-3.46490E+05-2.47276E+01-2.93107E+02 2.14266E+04-2.65845E-09-2.66027E-09
 -1       979-3.46509E+05-7.73309E+00-4.72694E+02 1.52398E+04 1.04251E-10 2.26692E-10
 -1       980-3.46525E+05-2.16658E+01-9.13820E+02 2.14275E+04 1.96655E-09 1.97815E-10
 -1       981-3.46480E+05 1.51083E+01-1.77044E+03 1.52403E+04 3.29953E-09 7.74872E-09
 -1       982-3.46768E+05-1.52482E+02-3.65978E+03 2.14209E+04 2.29022E-09-9.76122E-09
 -1       983-3.46257E+05-9.82579E+01-7.11114E+03 1.52464E+04 4.57612E-09-9.00832E-09
 -1       984-3.50189E+05-3.86642E+03-1.59252E+04 2.13353E+04 6.60748E-09 2.19388E-08
 -1       985-3.43037E+05-5.30175E+03-2.92436E+04 1.53178E+04-8.48377E-09-1.67402E-08
 -3
    1PSTEP                        45          23           1          
  100CL  123 6.62924E-01         409                     0   23           1
 -4  DISP        4    1
 -5  D1          1    2    1    0
 -5  D2          1    2    2    0
 -5  D3          1    2    3    0
 -5  ALL         1    2    0    0    1ALL
 -1         1 2.70172E-03 0.00000E+00 0.00000E+00
 -1         2 1.37020E-03-1.65747E-28 5.29396E-23
 -1         3 3.42254E-04-5.74486E-28 0.00000E+00
 -1         5 1.76970E-04-1.78726E-27 0.00000E+00
 -1         8 2.69045E-03-4.10126E-07 0.00000E+00
 -1         9 2.68419E-03-1.81814E-04 0.00000E+00
 -1        10 3.10335E-04-3.41682E-06-1.32349E-23
 -1        12 1.78808E-04 8.09014E-07-4.13590E-25
 -1        15 2.67740E-03-4.35278E-07 0.00000E+00
 -1        16 2.74591E-03-1.83577E-04 0.00000E+00
 -1        17 2.11209E-04-7.78776E-06 0.00000E+00
 -1        18 1.82731E-04 3.43045E-05 0.00000E+00
 -1        19 1.84323E-04 1.61163E-06 0.00000E+00
 -1        20 1.84463E-04-9.77669E-06 0.00000E+00
 -1        21 1.83571E-04-2.52000E-05 0.00000E+00
 -1        24 3.06119E-05-1.20095E-05 0.00000E+00
 -1        25 1.93473E-04 3.45302E-05 0.00000E+00
 -1        26 1.94153E-04 2.23167E-06 0.00000E+00
 -1        27 1.91953E-04-1.33346E-05 0.00000E+00
 -1        28 1.91637E-04-2.58220E-05 0.00000E+00
 -1        32 0.00000E+00 0.00000E+00 0.00000E+00
 -1        33 2.02979E-04 2.98538E-06 0.00000E+00
 -1        34 2.00861E-04-1.33907E-05 0.00000E+00
 -1        35 1.98929E-04-2.61644E-05 0.00000E+00
 -1        51 2.70097E-03-8.55577E-08 0.00000E+00
 -1        52 2.69959E-03-1.52832E-07-3.30872E-24
 -1        53 2.69772E-03-2.16696E-07 0.00000E+00
 -1        54 2.69548E-03-2.79389E-07 0.00000E+00
 -1        55 2.69301E-03-3.42676E-07-2.48154E-24
 -1        56 2.69451E-03 7.31783E-06 0.00000E+00
 -1        57 2.68083E-03 3.06301E-05 0.00000E+00
 -1        58 2.66273E-03 6.48429E-05 0.00000E+00
 -1        59 2.64262E-03 1.03810E-04 0.00000E+00
 -1        60 2.62342E-03 1.40574E-04 1.05879E-22
 -1        61 2.60792E-03 1.68353E-04 0.00000E+00
 -1        62 2.59806E-03 1.81975E-04-1.05879E-22
 -1        63 2.59510E-03 1.77530E-04 5.29396E-23
 -1        64 2.59889E-03 1.54416E-04 1.05879E-22
 -1        65 2.60867E-03 1.13787E-04 0.00000E+00
 -1        66 2.62274E-03 6.01026E-05 1.05879E-22
 -1        67 2.63912E-03-9.10086E-07-5.29396E-23
 -1        68 2.65556E-03-6.21123E-05 0.00000E+00
 -1        69 2.66983E-03-1.16340E-04 5.29396E-23
 -1        70 2.67991E-03-1.57778E-04-5.29396E-23
 -1        86 1.45282E-03-5.80651E-06 5.29396E-23
 -1        87 1.69215E-03-3.62561E-05-2.64698E-23
 -1        88 2.01389E-03-8.84911E-05 0.00000E+00
 -1        89 2.33975E-03-1.42093E-04 1.32349E-23
 -1        90 2.58908E-03-1.74872E-04 5.29396E-23
 -1       121 3.41357E-04-5.51772E-07-1.32349E-23
 -1       122 3.38672E-04-1.10663E-06-6.61744E-24
 -1       123 3.34207E-04-1.66760E-06-1.32349E-23
 -1       124 3.27979E-04-2.23771E-06-6.61744E-24
 -1       125 3.20012E-04-2.81962E-06 1.32349E-23
 -1       191 1.77021E-04 1.34899E-07 2.48154E-24
 -1       192 1.77174E-04 2.69786E-07-1.65436E-24
 -1       193 1.77429E-04 4.04654E-07-8.27181E-25
 -1       194 1.77787E-04 5.39490E-07-1.24077E-24
 -1       195 1.78246E-04 6.74280E-07-8.27181E-25
 -1       251 2.69016E-03 1.63421E-06 6.61744E-24
 -1       252 2.68986E-03 3.33581E-06 0.00000E+00
 -1       253 2.68957E-03 3.82960E-06 0.00000E+00
 -1       254 2.68927E-03 2.26499E-06 0.00000E+00
 -1       255 2.68897E-03-1.90766E-06 0.00000E+00
 -1       256 2.68865E-03-9.20665E-06-3.30872E-24
 -1       257 2.68831E-03-1.96934E-05 6.61744E-24
 -1       258 2.68792E-03-3.33908E-05-3.30872E-24
 -1       259 2.68750E-03-4.98532E-05-6.61744E-24
 -1       260 2.68703E-03-6.86011E-05-3.30872E-24
 -1       261 2.68654E-03-8.88211E-05-6.61744E-24
 -1       262 2.68604E-03-1.09683E-04-6.61744E-24
 -1       263 2.68554E-03-1.30261E-04 0.00000E+00
 -1       264 2.68506E-03-1.49634E-04-6.61744E-24
 -1       265 2.68462E-03-1.67059E-04-1.32349E-23
 -1       266 2.68827E-03-4.20080E-07-3.30872E-24
 -1       267 2.68610E-03-4.23569E-07 0.00000E+00
 -1       268 2.68392E-03-4.27468E-07-8.27181E-25
 -1       269 2.68175E-03-4.30155E-07 0.00000E+00
 -1       270 2.67958E-03-4.32813E-07 0.00000E+00
 -1       271 2.68948E-03 2.44583E-07 0.00000E+00
 -1       272 2.68943E-03-1.58831E-06-6.61744E-24
 -1       273 2.69025E-03-5.77440E-06 0.00000E+00
 -1       274 2.69188E-03-1.21663E-05 1.32349E-23
 -1       275 2.69426E-03-2.05923E-05 0.00000E+00
 -1       276 2.69731E-03-3.08639E-05 0.00000E+00
 -1       277 2.70096E-03-4.27733E-05 2.64698E-23
 -1       278 2.70512E-03-5.60984E-05 0.00000E+00
 -1       279 2.70970E-03-7.06030E-05 0.00000E+00
 -1       280 2.71462E-03-8.60400E-05-1.32349E-23
 -1       281 2.71978E-03-1.02153E-04-2.64698E-23
 -1       282 2.72509E-03-1.18679E-04 1.32349E-23
 -1       283 2.73045E-03-1.35352E-04 0.00000E+00
 -1       284 2.73577E-03-1.51903E-04 0.00000E+00
 -1       285 2.74095E-03-1.68067E-04 0.00000E+00
 -1       301 2.69542E-03-1.82140E-04 6.61744E-24
 -1       302 2.70505E-03-1.82422E-04 0.00000E+00
 -1       303 2.71399E-03-1.82695E-04 0.00000E+00
 -1       304 2.72316E-03-1.82968E-04-6.61744E-24
 -1       305 2.73350E-03-1.83254E-04-2.64698E-23
 -1       306 2.72191E-03-3.35537E-04 0.00000E+00
 -1       307 2.78581E-03-7.48433E-04 0.00000E+00
 -1       308 2.83273E-03-1.35254E-03 0.00000E+00
 -1       309 2.85686E-03-2.05211E-03 5.29396E-23
 -1       310 2.88831E-03-2.72158E-03 0.00000E+00
 -1       311 2.94780E-03-3.23808E-03 0.00000E+00
 -1       312 3.00574E-03-3.52103E-03 2.11758E-22
 -1       313 3.00155E-03-3.53241E-03 0.00000E+00
 -1       314 2.86161E-03-3.28405E-03 1.05879E-22
 -1       315 2.54502E-03-2.84014E-03 5.29396E-23
 -1       316 2.06995E-03-2.27716E-03 1.05879E-22
 -1       317 1.50200E-03-1.66442E-03-5.29396E-23
 -1       318 9.55142E-04-1.06267E-03 0.00000E+00
 -1       319 5.37111E-04-5.36934E-04 0.00000E+00
 -1       320 2.91656E-04-1.61208E-04 0.00000E+00
 -1       336 2.98761E-04-4.07702E-06 1.32349E-23
 -1       337 2.85116E-04-4.76285E-06 0.00000E+00
 -1       338 2.69459E-04-5.47649E-06 0.00000E+00
 -1       339 2.51866E-04-6.21877E-06 6.61744E-24
 -1       340 2.32419E-04-6.99412E-06-1.32349E-23
 -1       406 1.79472E-04 9.43671E-07-8.27181E-25
 -1       407 1.80238E-04 1.07821E-06-4.13590E-25
 -1       408 1.81107E-04 1.21259E-06 2.89513E-24
 -1       409 1.82077E-04 1.34663E-06 6.20385E-25
 -1       410 1.83150E-04 1.48006E-06 8.27181E-25
 -1       521 2.78422E-03-3.46538E-04 1.05879E-22
 -1       522 2.84639E-03-7.79519E-04-5.29396E-23
 -1       523 2.88694E-03-1.41118E-03-1.05879E-22
 -1       524 2.90196E-03-2.13906E-03-5.29396E-23
 -1       525 2.92561E-03-2.83487E-03-1.05879E-22
 -1       526 2.98156E-03-3.37321E-03 0.00000E+00
 -1       527 3.03907E-03-3.66670E-03 2.11758E-22
 -1       528 3.03263E-03-3.67637E-03-5.29396E-23
 -1       529 2.88087E-03-3.41406E-03-2.11758E-22
 -1       530 2.54064E-03-2.95177E-03 5.29396E-23
 -1       531 2.03089E-03-2.36975E-03-1.05879E-22
 -1       532 1.42360E-03-1.73989E-03 0.00000E+00
 -1       533 8.38036E-04-1.12038E-03 0.00000E+00
 -1       534 3.87010E-04-5.73920E-04 0.00000E+00
 -1       535 1.20507E-04-1.78791E-04 0.00000E+00
 -1       536 2.10456E-04 2.70815E-05 0.00000E+00
 -1       537 2.08544E-04 8.74281E-05-1.65436E-24
 -1       538 2.05589E-04 1.63999E-04-3.30872E-24
 -1       539 2.02103E-04 2.47457E-04 1.65436E-24
 -1       540 1.98967E-04 3.26319E-04 3.30872E-24
 -1       541 1.96928E-04 3.89121E-04 1.65436E-24
 -1       542 1.95987E-04 4.29122E-04-3.30872E-24
 -1       543 1.95762E-04 4.39724E-04 0.00000E+00
 -1       544 1.95440E-04 4.21703E-04 0.00000E+00
 -1       545 1.94271E-04 3.76050E-04-1.65436E-24
 -1       546 1.92092E-04 3.10881E-04-3.30872E-24
 -1       547 1.89142E-04 2.34433E-04-1.65436E-24
 -1       548 1.86220E-04 1.58362E-04 0.00000E+00
 -1       549 1.84112E-04 9.43250E-05 0.00000E+00
 -1       550 1.83016E-04 5.03416E-05 0.00000E+00
 -1       551 1.86045E-04-8.35701E-06 0.00000E+00
 -1       552 1.57638E-04-9.00648E-06 0.00000E+00
 -1       553 1.26932E-04-9.71803E-06-3.30872E-24
 -1       554 9.48868E-05-1.04706E-05-6.61744E-24
 -1       555 6.24617E-05-1.12367E-05-1.32349E-23
 -1       556 2.03574E-04 1.17363E-05-5.29396E-23
 -1       557 1.97405E-04 2.75700E-05 0.00000E+00
 -1       558 1.92569E-04 4.00007E-05 0.00000E+00
 -1       559 1.88933E-04 4.93387E-05 0.00000E+00
 -1       560 1.86368E-04 5.58943E-05 0.00000E+00
 -1       561 1.84745E-04 5.99806E-05 0.00000E+00
 -1       562 1.83939E-04 6.19119E-05 0.00000E+00
 -1       563 1.83826E-04 6.20033E-05-1.32349E-23
 -1       564 1.84285E-04 6.05710E-05 0.00000E+00
 -1       565 1.85195E-04 5.79317E-05 0.00000E+00
 -1       566 1.86437E-04 5.44027E-05 0.00000E+00
 -1       567 1.87891E-04 5.03017E-05 0.00000E+00
 -1       568 1.89439E-04 4.59465E-05 0.00000E+00
 -1       569 1.90964E-04 4.16550E-05 0.00000E+00
 -1       570 1.92347E-04 3.77452E-05 0.00000E+00
 -1       571 1.82827E-04 3.21833E-05 0.00000E+00
 -1       572 1.82926E-04 2.99965E-05 1.65436E-24
 -1       573 1.83025E-04 2.77596E-05 3.30872E-24
 -1       574 1.83124E-04 2.54891E-05-1.65436E-24
 -1       575 1.83224E-04 2.32014E-05-3.30872E-24
 -1       576 1.83323E-04 2.09129E-05 0.00000E+00
 -1       577 1.83423E-04 1.86401E-05 3.30872E-24
 -1       578 1.83522E-04 1.63996E-05 0.00000E+00
 -1       579 1.83622E-04 1.42078E-05 0.00000E+00
 -1       580 1.83722E-04 1.20812E-05-6.61744E-24
 -1       581 1.83822E-04 1.00364E-05 0.00000E+00
 -1       582 1.83922E-04 8.08985E-06 0.00000E+00
 -1       583 1.84022E-04 6.25798E-06 0.00000E+00
 -1       584 1.84122E-04 4.55712E-06-3.30872E-24
 -1       585 1.84223E-04 3.00341E-06 0.00000E+00
 -1       586 1.84480E-04 3.43442E-05-1.65436E-24
 -1       587 1.86188E-04 3.43834E-05 8.27181E-25
 -1       588 1.87898E-04 3.44222E-05 0.00000E+00
 -1       589 1.89654E-04 3.44604E-05 0.00000E+00
 -1       590 1.91498E-04 3.44972E-05 0.00000E+00
 -1       591 1.83457E-04 3.22769E-05-1.03398E-25
 -1       592 1.84187E-04 3.02294E-05 0.00000E+00
 -1       593 1.84922E-04 2.81679E-05-8.27181E-25
 -1       594 1.85660E-04 2.60970E-05-4.13590E-25
 -1       595 1.86400E-04 2.40216E-05-8.27181E-25
 -1       596 1.87139E-04 2.19463E-05 0.00000E+00
 -1       597 1.87877E-04 1.98757E-05 8.27181E-25
 -1       598 1.88611E-04 1.78147E-05 0.00000E+00
 -1       599 1.89340E-04 1.57678E-05 0.00000E+00
 -1       600 1.90061E-04 1.37398E-05-4.13590E-25
 -1       601 1.90774E-04 1.17354E-05-8.27181E-25
 -1       602 1.91477E-04 9.75911E-06 0.00000E+00
 -1       603 1.92167E-04 7.81578E-06 4.13590E-25
 -1       604 1.92844E-04 5.91016E-06 1.29247E-25
 -1       605 1.93505E-04 4.04684E-06 0.00000E+00
 -1       606 1.84337E-04 4.53052E-07 0.00000E+00
 -1       607 1.84346E-04-6.19664E-07 1.65436E-24
 -1       608 1.84355E-04-1.61156E-06-3.30872E-24
 -1       609 1.84364E-04-2.52830E-06 0.00000E+00
 -1       610 1.84372E-04-3.37566E-06 0.00000E+00
 -1       611 1.84380E-04-4.15940E-06 0.00000E+00
 -1       612 1.84389E-04-4.88533E-06 0.00000E+00
 -1       613 1.84397E-04-5.55928E-06 0.00000E+00
 -1       614 1.84405E-04-6.18705E-06-1.65436E-24
 -1       615 1.84414E-04-6.77445E-06 8.27181E-25
 -1       616 1.84422E-04-7.32731E-06 1.65436E-24
 -1       617 1.84430E-04-7.85142E-06 0.00000E+00
 -1       618 1.84439E-04-8.35259E-06 0.00000E+00
 -1       619 1.84447E-04-8.83666E-06 2.06795E-25
 -1       620 1.84455E-04-9.30942E-06 0.00000E+00
 -1       621 1.85676E-04 1.71554E-06 0.00000E+00
 -1       622 1.87188E-04 1.81969E-06 8.27181E-25
 -1       623 1.88825E-04 1.92363E-06 1.65436E-24
 -1       624 1.90553E-04 2.02724E-06-8.27181E-25
 -1       625 1.92341E-04 2.13056E-06-1.65436E-24
 -1       626 1.84870E-04 4.89161E-07 0.00000E+00
 -1       627 1.85394E-04-5.70232E-07 0.00000E+00
 -1       628 1.85897E-04-1.57440E-06 0.00000E+00
 -1       629 1.86383E-04-2.53151E-06-1.65436E-24
 -1       630 1.86854E-04-3.44976E-06 3.30872E-24
 -1       631 1.87314E-04-4.33736E-06 0.00000E+00
 -1       632 1.87766E-04-5.20251E-06 0.00000E+00
 -1       633 1.88212E-04-6.05344E-06-1.65436E-24
 -1       634 1.88656E-04-6.89836E-06-3.30872E-24
 -1       635 1.89100E-04-7.74546E-06 0.00000E+00
 -1       636 1.89549E-04-8.60299E-06 3.30872E-24
 -1       637 1.90005E-04-9.47914E-06 1.65436E-24
 -1       638 1.90470E-04-1.03821E-05-1.65436E-24
 -1       639 1.90948E-04-1.13202E-05 8.27181E-25
 -1       640 1.91443E-04-1.23016E-05-1.65436E-24
 -1       656 1.85163E-04-1.03550E-05 0.00000E+00
 -1       657 1.86283E-04-1.09567E-05 6.61744E-24
 -1       658 1.87683E-04-1.15571E-05 1.32349E-23
 -1       659 1.89218E-04-1.21572E-05-6.61744E-24
 -1       660 1.90702E-04-1.27591E-05 0.00000E+00
 -1       661 1.84725E-04-1.02890E-05 0.00000E+00
 -1       662 1.85025E-04-1.08932E-05 0.00000E+00
 -1       663 1.85357E-04-1.15841E-05 0.00000E+00
 -1       664 1.85719E-04-1.23550E-05 0.00000E+00
 -1       665 1.86109E-04-1.32002E-05 1.65436E-24
 -1       666 1.86525E-04-1.41138E-05 8.27181E-25
 -1       667 1.86965E-04-1.50902E-05 1.65436E-24
 -1       668 1.87425E-04-1.61236E-05 8.27181E-25
 -1       669 1.87906E-04-1.72088E-05 1.65436E-24
 -1       670 1.88403E-04-1.83404E-05 0.00000E+00
 -1       671 1.88916E-04-1.95132E-05 1.65436E-24
 -1       672 1.89442E-04-2.07222E-05 0.00000E+00
 -1       673 1.89980E-04-2.19622E-05-1.65436E-24
 -1       674 1.90526E-04-2.32287E-05 0.00000E+00
 -1       675 1.91081E-04-2.45163E-05-2.06795E-25
 -1       676 1.84920E-04-2.53043E-05 0.00000E+00
 -1       677 1.86268E-04-2.54085E-05 0.00000E+00
 -1       678 1.87615E-04-2.55127E-05 0.00000E+00
 -1       679 1.88959E-04-2.56166E-05 0.00000E+00
 -1       680 1.90300E-04-2.57204E-05-3.30872E-24
 -1       771 1.86775E-05 1.46753E-05 0.00000E+00
 -1       772 8.63654E-06 3.65922E-05 0.00000E+00
 -1       773 3.98371E-07 5.39709E-05-5.29396E-23
 -1       774-6.16107E-06 6.70691E-05-2.64698E-23
 -1       775-1.11632E-05 7.61545E-05 0.00000E+00
 -1       776-1.47343E-05 8.15120E-05 0.00000E+00
 -1       777-1.70006E-05 8.34361E-05-5.29396E-23
 -1       778-1.80906E-05 8.22355E-05 2.64698E-23
 -1       779-1.81325E-05 7.82272E-05 5.29396E-23
 -1       780-1.72564E-05 7.17396E-05-7.94093E-23
 -1       781-1.55913E-05 6.31079E-05 5.29396E-23
 -1       782-1.32681E-05 5.26763E-05 0.00000E+00
 -1       783-1.04165E-05 4.07934E-05 5.29396E-23
 -1       784-7.16760E-06 2.78140E-05 0.00000E+00
 -1       785-3.65148E-06 1.40961E-05-5.29396E-23
 -1       786 1.93511E-04 3.22838E-05 0.00000E+00
 -1       787 1.93553E-04 3.00875E-05 0.00000E+00
 -1       788 1.93594E-04 2.79329E-05 0.00000E+00
 -1       789 1.93637E-04 2.58120E-05-8.27181E-25
 -1       790 1.93679E-04 2.37199E-05-1.65436E-24
 -1       791 1.93722E-04 2.16520E-05 0.00000E+00
 -1       792 1.93765E-04 1.96059E-05 1.65436E-24
 -1       793 1.93808E-04 1.75795E-05 0.00000E+00
 -1       794 1.93851E-04 1.55727E-05 0.00000E+00
 -1       795 1.93894E-04 1.35852E-05-8.27181E-25
 -1       796 1.93937E-04 1.16189E-05-1.65436E-24
 -1       797 1.93980E-04 9.67564E-06 0.00000E+00
 -1       798 1.94023E-04 7.75972E-06 0.00000E+00
 -1       799 1.94066E-04 5.87540E-06 0.00000E+00
 -1       800 1.94109E-04 4.03018E-06-1.65436E-24
 -1       801 1.47774E-04 3.10406E-05 0.00000E+00
 -1       802 9.59615E-06 1.93682E-05 2.64698E-23
 -1       803-1.08454E-04 9.78404E-06-5.29396E-23
 -1       804-9.61780E-05 6.80904E-06 2.64698E-23
 -1       805-3.17809E-05 2.67773E-06 0.00000E+00
 -1       806 1.94200E-04 3.22150E-05 0.00000E+00
 -1       807 1.94913E-04 2.99261E-05 0.00000E+00
 -1       808 1.95614E-04 2.76686E-05-3.30872E-24
 -1       809 1.96301E-04 2.54465E-05 0.00000E+00
 -1       810 1.96973E-04 2.32640E-05 0.00000E+00
 -1       811 1.97629E-04 2.11250E-05 0.00000E+00
 -1       812 1.98267E-04 1.90334E-05 3.30872E-24
 -1       813 1.98886E-04 1.69930E-05 0.00000E+00
 -1       814 1.99485E-04 1.50080E-05 0.00000E+00
 -1       815 2.00061E-04 1.30820E-05 1.65436E-24
 -1       816 2.00614E-04 1.12191E-05 1.65436E-24
 -1       817 2.01142E-04 9.42304E-06 8.27181E-25
 -1       818 2.01643E-04 7.69781E-06 0.00000E+00
 -1       819 2.02117E-04 6.04725E-06 1.65436E-24
 -1       820 2.02563E-04 4.47518E-06-1.65436E-24
 -1       821 1.94024E-04-1.21721E-07-1.65436E-24
 -1       822 1.93884E-04-3.62616E-06 0.00000E+00
 -1       823 1.93741E-04-7.85452E-06 0.00000E+00
 -1       824 1.93596E-04-1.23751E-05 0.00000E+00
 -1       825 1.93452E-04-1.66773E-05 3.30872E-24
 -1       826 1.93311E-04-2.02517E-05-1.65436E-24
 -1       827 1.93172E-04-2.27871E-05 3.30872E-24
 -1       828 1.93036E-04-2.39787E-05 1.65436E-24
 -1       829 1.92900E-04-2.38874E-05 0.00000E+00
 -1       830 1.92763E-04-2.25820E-05-1.65436E-24
 -1       831 1.92626E-04-2.04616E-05 3.30872E-24
 -1       832 1.92487E-04-1.79305E-05-1.65436E-24
 -1       833 1.92349E-04-1.55048E-05 0.00000E+00
 -1       834 1.92214E-04-1.36999E-05 0.00000E+00
 -1       835 1.92080E-04-1.28629E-05 0.00000E+00
 -1       836 1.95837E-04 2.35666E-06 0.00000E+00
 -1       837 1.97393E-04 2.48479E-06 0.00000E+00
 -1       838 1.98853E-04 2.61286E-06 0.00000E+00
 -1       839 2.00250E-04 2.74023E-06-8.27181E-25
 -1       840 2.01615E-04 2.86744E-06-8.27181E-25
 -1       856 1.91937E-04-1.43901E-05 0.00000E+00
 -1       857 1.91918E-04-1.53098E-05 2.58494E-26
 -1       858 1.91899E-04-1.61149E-05 2.06795E-25
 -1       859 1.91879E-04-1.68265E-05 0.00000E+00
 -1       860 1.91859E-04-1.74659E-05 0.00000E+00
 -1       861 1.91839E-04-1.80543E-05-2.06795E-25
 -1       862 1.91820E-04-1.86130E-05-4.13590E-25
 -1       863 1.91800E-04-1.91634E-05 0.00000E+00
 -1       864 1.91780E-04-1.97269E-05 0.00000E+00
 -1       865 1.91760E-04-2.03246E-05 4.13590E-25
 -1       866 1.91740E-04-2.09781E-05 0.00000E+00
 -1       867 1.91720E-04-2.17084E-05-4.13590E-25
 -1       868 1.91700E-04-2.25369E-05 0.00000E+00
 -1       869 1.91680E-04-2.34846E-05 0.00000E+00
 -1       870 1.91659E-04-2.45727E-05 0.00000E+00
 -1       871 1.93297E-04-1.33395E-05-8.27181E-25
 -1       872 1.94787E-04-1.33478E-05 0.00000E+00
 -1       873 1.96357E-04-1.33568E-05 4.13590E-25
 -1       874 1.97938E-04-1.33666E-05 7.75482E-26
 -1       875 1.99462E-04-1.33769E-05 1.65436E-24
 -1       876 1.92476E-04-1.43755E-05 0.00000E+00
 -1       877 1.92977E-04-1.53496E-05 0.00000E+00
 -1       878 1.93456E-04-1.62648E-05-3.30872E-24
 -1       879 1.93916E-04-1.71286E-05 1.65436E-24
 -1       880 1.94360E-04-1.79484E-05 0.00000E+00
 -1       881 1.94790E-04-1.87315E-05 1.65436E-24
 -1       882 1.95209E-04-1.94853E-05 0.00000E+00
 -1       883 1.95620E-04-2.02171E-05 1.65436E-24
 -1       884 1.96025E-04-2.09343E-05-3.30872E-24
 -1       885 1.96428E-04-2.16442E-05 0.00000E+00
 -1       886 1.96830E-04-2.23542E-05 0.00000E+00
 -1       887 1.97235E-04-2.30715E-05 0.00000E+00
 -1       888 1.97646E-04-2.38036E-05-3.30872E-24
 -1       889 1.98064E-04-2.45579E-05 0.00000E+00
 -1       890 1.98493E-04-2.53417E-05 0.00000E+00
 -1       891 1.92995E-04-2.58796E-05 1.65436E-24
 -1       892 1.94329E-04-2.59372E-05 0.00000E+00
 -1       893 1.95614E-04-2.59948E-05 8.27181E-25
 -1       894 1.96826E-04-2.60521E-05 4.13590E-25
 -1       895 1.97939E-04-2.61092E-05 0.00000E+00
 -1       956 2.02848E-04 1.67016E-06-1.65436E-24
 -1       957 2.02716E-04 4.46457E-07 8.27181E-25
 -1       958 2.02583E-04-6.96461E-07 0.00000E+00
 -1       959 2.02451E-04-1.76993E-06 1.65436E-24
 -1       960 2.02318E-04-2.78533E-06-3.30872E-24
 -1       961 2.02185E-04-3.75408E-06 0.00000E+00
 -1       962 2.02052E-04-4.68759E-06 0.00000E+00
 -1       963 2.01919E-04-5.59733E-06-1.65436E-24
 -1       964 2.01787E-04-6.49472E-06 0.00000E+00
 -1       965 2.01654E-04-7.39119E-06 0.00000E+00
 -1       966 2.01521E-04-8.29821E-06 3.30872E-24
 -1       967 2.01389E-04-9.22721E-06 0.00000E+00
 -1       968 2.01256E-04-1.01896E-05 6.61744E-24
 -1       969 2.01123E-04-1.11968E-05 3.30872E-24
 -1       970 2.00991E-04-1.22602E-05-3.30872E-24
 -1       971 2.00741E-04-1.45207E-05 0.00000E+00
 -1       972 2.00620E-04-1.55562E-05-1.65436E-24
 -1       973 2.00498E-04-1.65075E-05 0.00000E+00
 -1       974 2.00377E-04-1.73855E-05 0.00000E+00
 -1       975 2.00256E-04-1.82010E-05 0.00000E+00
 -1       976 2.00134E-04-1.89650E-05-1.65436E-24
 -1       977 2.00013E-04-1.96882E-05 3.30872E-24
 -1       978 1.99891E-04-2.03816E-05 0.00000E+00
 -1       979 1.99770E-04-2.10562E-05 0.00000E+00
 -1       980 1.99649E-04-2.17227E-05 0.00000E+00
 -1       981 1.99527E-04-2.23922E-05 0.00000E+00
 -1       982 1.99406E-04-2.30754E-05 1.65436E-24
 -1       983 1.99285E-04-2.37834E-05 3.30872E-24
 -1       984 1.99165E-04-2.45270E-05 1.65436E-24
 -1       985 1.99044E-04-2.53172E-05 0.00000E+00
 -3
    1PSTEP                        46          23           1          
  100CL  123 6.62924E-01         409                     0   23           1
 -4  STRESS      6    1
 -5  SXX         1    4    1    1
 -5  SYY         1    4    2    2
 -5  SZZ         1    4    3    3
 -5  SXY         1    4    1    2
 -5  SYZ         1    4    2    3
 -5  SZX         1    4    3    1
 -1         1-5.32448E+06-1.63326E+06-1.13395E+06-1.40924E+06 1.26602E-09-1.40048E-07
 -1         2 1.37112E+06 2.01641E+07 4.74138E+06 6.07065E+06 2.69210E-08-1.11075E-07
 -1         3-1.48456E+03-1.56672E+06 4.07278E+02-2.22104E+03-4.72422E-10-1.68366E-08
 -1         5-7.46004E+01 3.86293E+05 9.97906E+00-1.33571E+00-5.61023E-10 1.90394E-08
 -1         8-5.84030E+05-2.08358E+05-6.73873E+04-2.55552E+05 2.97405E-10-8.07886E-08
 -1         9 1.16255E+07 3.53143E+06 2.70960E+06-3.99762E+05 4.30737E-10 7.54371E-09
 -1        10-2.30454E+03-1.63265E+06-3.96110E+03-1.50272E+04-1.39898E-08-4.82212E-08
 -1        12-7.06815E+01 3.86314E+05 3.27994E+02-9.10679E+00-5.90120E-10 2.23808E-08
 -1        15 9.54741E+02 5.24677E+02 3.08618E+03 8.97715E-01 2.25953E-12-4.00247E-08
 -1        16 2.27367E+07-3.20556E+05 3.10083E+06-2.22374E+06 2.72994E-08 1.97906E-08
 -1        17 8.32874E+06 6.23844E+06 2.25036E+06 5.97358E+06 2.27592E-08 3.78699E-08
 -1        18 1.41786E+05 3.33649E+04 4.03155E+03-1.19452E+05 1.63022E-08 8.99672E-09
 -1        19 1.22388E+05 1.41638E+05-9.44053E+02 2.19688E+04 1.69803E-09 1.65353E-08
 -1        20-8.19109E+04-5.73588E+05-1.28706E+05 2.51294E+04-2.66164E-09 1.50612E-08
 -1        21-4.55868E+01-2.95994E+05-9.23952E+02 2.73886E+02 1.70315E-08-1.75572E-08
 -1        24 1.39190E+07 1.19899E+07 3.85640E+06 1.11042E+07-1.65484E-07-4.98452E-08
 -1        25 1.23943E+05 2.63681E+05 9.90694E+04-6.43497E+05-4.65116E-10 2.18170E-09
 -1        26-5.54080E+04 9.22601E+04-2.46337E+04 1.29006E+03 2.47383E-11 1.45061E-08
 -1        27-7.55767E+04-3.09892E+05-1.13290E+05 6.89634E+04 4.50185E-09-9.41115E-09
 -1        28 2.22413E+04-8.53392E+04 1.68968E+04 2.06163E+04-3.55865E-09-1.15521E-08
 -1        32-1.67998E+06-3.17713E+06-1.96743E+05 4.53244E+05-4.24698E-08-1.19213E-08
 -1        33-1.78453E+05 9.29816E+04 3.23822E+04-3.84773E+04-3.15708E-09 1.61214E-08
 -1        34-2.23573E+05-2.50233E+04 6.89576E+02 7.56403E+04-6.56575E-09 6.65780E-09
 -1        35-2.29299E+04-3.38436E+04-1.34830E+03 5.14941E+04-4.38205E-09 7.25655E-09
 -1        51 6.02827E+04-1.73705E+05 1.27641E+05-4.48570E+05 1.60071E-10-2.24973E-08
 -1        52 2.04486E+04-1.51470E+05 6.70547E+04-5.23116E+05 4.40195E-10 1.53814E-08
 -1        53 4.22336E+03-1.66889E+05 3.50502E+04-4.47005E+05-1.29148E-10 1.41437E-07
 -1        54 7.60830E+03-1.62676E+05 2.90660E+04-5.24669E+05-3.12866E-10-3.56158E-08
 -1        55 1.65969E+04-1.69879E+05 3.56692E+04-4.46887E+05 8.73115E-11-1.39065E-07
 -1        56-9.73317E+06-1.31579E+06-8.94634E+05-4.02495E+06-4.10946E-08 1.05967E-07
 -1        57-1.09294E+07-9.56255E+05-5.52894E+05-2.82815E+06 1.39116E-08 2.10930E-08
 -1        58-9.61142E+06-1.75456E+06-1.99732E+05-4.18112E+06-1.12050E-08 2.28021E-07
 -1        59-1.10209E+07-4.63072E+05-1.10636E+05-2.76780E+06 2.54067E-08-2.18703E-07
 -1        60-9.69702E+06-1.75981E+06-5.48548E+04-4.13489E+06-2.11076E-08-2.55925E-07
 -1        61-1.04843E+07-7.45141E+05 5.27782E+03-3.00572E+06 5.67525E-09-3.73693E-08
 -1        62-1.00457E+07-1.54129E+06-6.00966E+04-3.86343E+06-4.18368E-08 1.91794E-08
 -1        63-9.73847E+06-1.35140E+06 3.76752E+04-3.62098E+06 1.75205E-08 1.14902E-07
 -1        64-1.03642E+07-1.20933E+06-5.49384E+04-3.46915E+06-2.64845E-09 2.17235E-07
 -1        65-9.38634E+06-1.87666E+06 3.24534E+03-4.38224E+06-4.95202E-08-2.14247E-07
 -1        66-1.04919E+07-9.50723E+05-4.55638E+04-3.17266E+06 2.14786E-08-1.37225E-07
 -1        67-9.37037E+06-2.10971E+06-9.97792E+04-4.73647E+06-9.64410E-08 6.65823E-08
 -1        68-1.04723E+07-9.12299E+05-1.84363E+05-3.17333E+06-2.30830E-08-2.02534E-07
 -1        69-9.57861E+06-2.21463E+06-4.93419E+05-4.34412E+06-7.66277E-08 8.03557E-08
 -1        70-1.01993E+07-9.16228E+05-8.18738E+05-3.50705E+06-3.85007E-08-5.43660E-08
 -1        86-1.39826E+06-1.47452E+07-2.59360E+06-2.85698E+06-2.63626E-07 1.11249E-07
 -1        87 2.17727E+06 5.69752E+06 2.15776E+06 5.37716E+06-4.51080E-07 1.96040E-07
 -1        88-3.99120E+05-2.05236E+06 2.01306E+05-2.45034E+06-4.00616E-07-2.10342E-07
 -1        89 2.91628E+06 5.44052E+06 2.21006E+06 5.54831E+06-5.71104E-07-2.99924E-07
 -1        90-2.05526E+06-1.45556E+07-2.80589E+06-3.05246E+06-1.32797E-07-2.41853E-08
 -1       121-2.03401E+03-1.57162E+06-5.43300E+02 1.10092E+03 1.51269E-09-2.40616E-08
 -1       122-1.29793E+03-1.56679E+06 7.73027E+02-4.44595E+03-5.39353E-09-3.39387E-08
 -1       123-2.05405E+03-1.57175E+06 2.69344E+02 3.28786E+03 4.50541E-09 1.20199E-08
 -1       124 3.46685E+02-1.56633E+06 2.96507E+03-9.30028E+03-1.02768E-08-1.19326E-09
 -1       125-2.86760E+03-1.57265E+06 3.48694E+03 5.90953E+03 6.50834E-09-6.63567E-09
 -1       191-7.86179E+01 3.86311E+05 8.51752E+00 6.96227E-01-5.71177E-10-3.74894E-09
 -1       192-7.55635E+01 3.86293E+05 2.12935E+01-4.28449E+00-7.36706E-10-1.16124E-08
 -1       193-8.11530E+01 3.86310E+05 3.62831E+01 3.76201E+00-1.11937E-09-8.70750E-09
 -1       194-7.86511E+01 3.86296E+05 8.09445E+01-9.72271E+00-5.73641E-10 3.30328E-09
 -1       195-8.60189E+01 3.86308E+05 1.55001E+02 6.32543E+00-1.58114E-09-1.76697E-08
 -1       251-8.33890E+05 1.45028E+04-3.38853E+04-1.27056E+04-5.62689E-09-7.15481E-08
 -1       252-8.46483E+05-1.67848E+04-2.35303E+04 4.38607E+04-4.13957E-09 2.80415E-08
 -1       253-8.41482E+05 2.20355E+03-9.14519E+03-8.36111E+03 4.84363E-09-9.63728E-08
 -1       254-8.34878E+05-2.67569E+03-4.11318E+03 3.01406E+04-7.05938E-09 2.20316E-07
 -1       255-8.44987E+05 6.06098E+01-3.08064E+03 1.01134E+03 4.47153E-09 2.56235E-07
 -1       256-8.30824E+05-2.31001E+02 9.01869E+02 9.30385E+03-5.93582E-09 3.09480E-07
 -1       257-8.45219E+05-4.72883E+02-1.04781E+03 1.24673E+04 3.56977E-11-6.07139E-08
 -1       258-8.33401E+05 8.06697E+02 2.36053E+03-1.20413E+04-4.81293E-09 1.44573E-07
 -1       259-8.42644E+05-7.97158E+02 1.57914E+03 2.23557E+04 2.18301E-09-1.36907E-07
 -1       260-8.38355E+05 2.71539E+03 5.50356E+03-2.71450E+04-9.74580E-10-1.41476E-07
 -1       261-8.40773E+05-1.98948E+03 8.80361E+03 2.75831E+04 1.87163E-08 3.00719E-07
 -1       262-8.36204E+05 1.16250E+04 2.18067E+04-3.12984E+04 2.68980E-09-4.38936E-08
 -1       263-8.44977E+05-9.53168E+03 3.46132E+04 2.65156E+04 4.08352E-09 4.17731E-08
 -1       264-8.06183E+05 6.77158E+04 9.55562E+04-2.30692E+04 3.06454E-08 5.52231E-07
 -1       265-8.70376E+05-5.81501E+04 1.33555E+05 1.93451E+04 1.23575E-08 2.53807E-07
 -1       266-1.72842E+04-8.08291E+03 4.05499E+04-1.92068E+01 5.45697E-10 3.77819E-07
 -1       267 2.00369E+04 9.41956E+03 2.86620E+04 2.21627E+01 1.99634E-10-1.55220E-07
 -1       268-2.68693E+03-1.33414E+03 1.06534E+04-2.82381E+00 3.22871E-11 1.07847E-07
 -1       269 3.17245E+03 1.59660E+03 6.92466E+03 3.28943E+00 4.09273E-11 2.16287E-07
 -1       270-4.76190E+02-2.62338E+02 3.34263E+03-4.46393E-01-1.27102E-10-7.08972E-08
 -1       271-1.60652E+06-1.98849E+05-1.22271E+05-6.21975E+05-6.21912E-09 5.98084E-08
 -1       272-1.61721E+06-3.14414E+05-7.76940E+04-6.49222E+05 2.71611E-08 1.18465E-07
 -1       273-1.63258E+06-2.26423E+05-2.94800E+04-6.12739E+05-8.76025E-09 2.73612E-07
 -1       274-1.58656E+06-2.82143E+05-1.56778E+04-6.65606E+05 6.43195E-09 8.69741E-08
 -1       275-1.63876E+06-2.26372E+05-7.25176E+03-6.08406E+05-5.03060E-08 2.42975E-07
 -1       276-1.57947E+06-2.83164E+05-3.20689E+03-6.74779E+05 2.19570E-08 1.93833E-07
 -1       277-1.64183E+06-2.23647E+05-1.98613E+03-6.05260E+05-9.92441E-09-7.50642E-08
 -1       278-1.57642E+06-2.86882E+05-8.58113E+02-6.81522E+05 5.82677E-08-1.65234E-07
 -1       279-1.64378E+06-2.21369E+05-1.01001E+03-6.03039E+05 9.04038E-10-1.78658E-07
 -1       280-1.57491E+06-2.89740E+05-1.31525E+03-6.85964E+05 3.61952E-08-2.11738E-07
 -1       281-1.64478E+06-2.19887E+05-2.40532E+03-6.01789E+05 7.75708E-09-1.68242E-07
 -1       282-1.57535E+06-2.92572E+05-5.68610E+03-6.87731E+05 5.94605E-09 1.06143E-08
 -1       283-1.64404E+06-2.18240E+05-1.00371E+04-6.01681E+05-4.37932E-08 1.73470E-07
 -1       284-1.58445E+06-3.06139E+05-2.75212E+04-6.84919E+05 4.57027E-08 8.05467E-08
 -1       285-1.63567E+06-2.07667E+05-4.26351E+04-6.04039E+05 1.22798E-08-2.11914E-07
 -1       301-4.18786E+03-6.41588E+05 1.67348E+05-1.11933E+06 7.61065E-09-3.28328E-07
 -1       302-5.18781E+03-5.95564E+05 1.00880E+05-1.63414E+06-8.31642E-09-4.21047E-07
 -1       303-1.93498E+04-6.33423E+05 5.75091E+04-1.11629E+06 1.70476E-08-1.63775E-07
 -1       304-2.08438E+04-6.01883E+05 5.87735E+04-1.63351E+06-9.03674E-09-7.63830E-08
 -1       305-2.31174E+04-6.22710E+05 7.33171E+04-1.11940E+06 1.61890E-08 5.34055E-08
 -1       306-3.00873E+07-6.21140E+06-8.59414E+06-5.46004E+05-4.40050E-08-5.63450E-08
 -1       307 2.53567E+07 3.23274E+06 5.50876E+06-1.51522E+07-7.66566E-07-8.12579E-08
 -1       308-7.00366E+06-1.02496E+06-4.60313E+05 5.20014E+06-3.66766E-07 5.75063E-07
 -1       309-3.27044E+06 8.70938E+06 2.27624E+06-2.06413E+07 2.30506E-07 1.46905E-07
 -1       310-1.25172E+07-1.92652E+06-2.01718E+06 5.20684E+06 7.65431E-08-2.96728E-07
 -1       311 3.82189E+07 1.58351E+04 7.24740E+06-8.84439E+06 5.96250E-07-1.48691E-07
 -1       312-3.18582E+07-6.74142E+06-8.50815E+06-4.99697E+06 4.34229E-08-1.58645E-07
 -1       313 4.53680E+07 1.48980E+07 1.06415E+07 2.36794E+07-3.04921E-07-1.65775E-07
 -1       314-1.72469E+07-1.77143E+07-7.50988E+06-1.25170E+07 6.94417E-08-8.90577E-08
 -1       315-1.78269E+06 2.96375E+07 5.66145E+06 1.05857E+07-6.81306E-07 4.80795E-08
 -1       316 1.37395E+06-9.83968E+06-4.45187E+05-2.55819E+06-1.24257E-06-4.21685E-07
 -1       317-1.71302E+07 2.23837E+07 2.23184E+06-8.76181E+06 7.08569E-07-7.14339E-07
 -1       318-1.07216E+06-1.27408E+07-2.02918E+06-4.24501E+06-9.25822E-07 4.84288E-08
 -1       319 7.16402E+06 3.18356E+07 7.01184E+06 1.65594E+07-8.78936E-08 2.25264E-07
 -1       320-2.25504E+07-1.75836E+07-9.82419E+06-1.27822E+07 2.02912E-07-5.94009E-08
 -1       336-7.30865E+02-1.70133E+06-1.38953E+04 8.94870E+03-2.66955E-08-3.47063E-09
 -1       337-5.42030E+03-1.70091E+06-1.81333E+04-2.17302E+04-4.92621E-08-7.42148E-10
 -1       338 2.90156E+02-1.70082E+06-2.85453E+04 1.25317E+04-3.45535E-08 3.86863E-08
 -1       339-3.02891E+04-1.71820E+06-6.45267E+04-2.87469E+04-6.26242E-08 3.59723E-08
 -1       340 1.99699E+04-1.68623E+06-1.01636E+05 1.58348E+04-4.09709E-08 3.51065E-08
 -1       406-4.89538E+01 3.86293E+05 6.44046E+02 3.32730E+00-1.86469E-09-1.86574E-08
 -1       407 1.55484E+02 3.86428E+05 1.37629E+03 2.33049E+01-4.33488E-10-1.40353E-08
 -1       408 6.35456E+02 3.86193E+05 2.74426E+03-2.69569E+01-2.43563E-09-1.10285E-08
 -1       409 2.90688E+03 3.87304E+05 6.18525E+03 2.87730E+02-6.74163E-10 9.09495E-10
 -1       410 8.47839E+03 3.85403E+05 1.26239E+04-2.77459E+02-2.93403E-09 4.37103E-09
 -1       521-3.16203E+07-7.66253E+06-1.00333E+07-1.56137E+05-4.19095E-08-2.46160E-07
 -1       522 2.62045E+07 4.24362E+06 5.61343E+06-1.86439E+07-5.22676E-07-7.33067E-07
 -1       523-7.58402E+06-1.33562E+06-4.52103E+05 5.64573E+06 5.14556E-08-3.26880E-07
 -1       524-6.76539E+06 1.17464E+07 2.46057E+06-2.36925E+07 9.69478E-07-2.27934E-07
 -1       525-1.33154E+07-2.55493E+06-2.21574E+06 5.65445E+06 5.84987E-07 6.44068E-08
 -1       526 4.16853E+07-7.50827E+04 7.60200E+06-1.14873E+07-7.91624E-09-3.07948E-07
 -1       527-3.36887E+07-8.43004E+06-9.80078E+06-4.85678E+06 1.54600E-07 2.15514E-08
 -1       528 4.95133E+07 1.65803E+07 1.10935E+07 2.69053E+07-3.08675E-07 4.60510E-07
 -1       529-1.81863E+07-1.99064E+07-8.60530E+06-1.25452E+07-2.21189E-08 1.34343E-07
 -1       530-4.26125E+06 3.43974E+07 5.98795E+06 1.00579E+07 1.20053E-08 5.08560E-07
 -1       531 1.36956E+06-1.09117E+07-4.18702E+05-2.51284E+06-8.23638E-07 4.15428E-07
 -1       532-1.96604E+07 2.43900E+07 2.43722E+06-1.30288E+07 5.20085E-07-7.55914E-07
 -1       533-1.11681E+06-1.38848E+07-2.15821E+06-4.05903E+06-1.94996E-07-1.10135E-06
 -1       534 5.14808E+06 3.69197E+07 7.29284E+06 1.71224E+07-9.15315E-08 7.66653E-07
 -1       535-2.37206E+07-1.99595E+07-1.12560E+07-1.28463E+07 1.02562E-07 4.80213E-07
 -1       536-7.05280E+05-4.68403E+04-4.75140E+04-5.45707E+04-7.38510E-10 7.17118E-08
 -1       537-5.57099E+04 4.48201E+04 8.40520E+04 1.23632E+05-1.06122E-07 1.14585E-07
 -1       538-3.94377E+05 3.30195E+03 3.67924E+03-7.20934E+04 3.45461E-08 1.07245E-07
 -1       539-2.69346E+05 2.88044E+03 2.49306E+04 1.38515E+05 1.62586E-07 1.11809E-07
 -1       540-4.97008E+05-4.28264E+02-2.12283E+04-6.99862E+04 1.92354E-08 1.07510E-07
 -1       541 1.45248E+05 1.69296E+04 1.06118E+05 9.77399E+04-2.91102E-08 1.00458E-07
 -1       542-7.97800E+05-2.00832E+04-8.40044E+04-3.04470E+04 4.70159E-08 4.37103E-08
 -1       543 4.03229E+05 2.72537E+04 1.57548E+05-1.33453E+04 2.94604E-08-1.71317E-08
 -1       544-7.48070E+05-1.64911E+04-7.46309E+04 4.04321E+04 3.09942E-08-4.64387E-08
 -1       545 2.78243E+04 9.45251E+03 7.95820E+04-1.13426E+05-4.28099E-09-1.13002E-07
 -1       546-4.32476E+05 6.08424E+03-1.21981E+04 6.92893E+04 2.58613E-08-9.72651E-08
 -1       547-2.87402E+05-4.65852E+03 1.05341E+04-1.41361E+05-1.04296E-07-1.11546E-07
 -1       548-4.41318E+05 4.71604E+03-2.38488E+04 6.90546E+04-1.05126E-07-9.84078E-08
 -1       549 4.70001E+04 1.59711E+04 6.02768E+04-1.11280E+05-4.93901E-08-9.09113E-08
 -1       550-7.57930E+05-2.20329E+04-1.28742E+05 3.84960E+04 6.19548E-09-4.05544E-08
 -1       551 4.07842E+04-7.53664E+05-1.56003E+04-1.24726E+06-1.05283E-07 1.74623E-10
 -1       552 9.31905E+04-7.98541E+05 1.01091E+04-1.77847E+06-7.40110E-08 1.35187E-08
 -1       553 7.16825E+04-7.94980E+05 3.21954E+04-1.24062E+06-1.21698E-07 2.20753E-08
 -1       554 1.31959E+05-8.14341E+05 8.12898E+04-1.78042E+06-7.49133E-08 1.62254E-08
 -1       555 1.01443E+05-8.18611E+05 1.48410E+05-1.24046E+06-1.22483E-07-1.55833E-08
 -1       556 2.23344E+05-3.83115E+05 2.63051E+04-4.06945E+05-2.71248E-08-1.92085E-08
 -1       557 3.53868E+05-4.87399E+05 1.64285E+04-5.27184E+05-5.38421E-09 4.33283E-09
 -1       558 2.05192E+05-3.76032E+05 2.45377E+03-4.11296E+05-2.06637E-08-3.98722E-09
 -1       559 3.28840E+05-4.87549E+05 2.50120E+03-5.47591E+05 1.94414E-08-2.92857E-09
 -1       560 1.89925E+05-3.66457E+05-1.46995E+03-4.22296E+05 1.70548E-08-1.50176E-08
 -1       561 3.09649E+05-4.79873E+05 1.44862E+02-5.60673E+05 3.53612E-09-2.50293E-09
 -1       562 1.77853E+05-3.58956E+05-1.31559E+03-4.31038E+05 3.25963E-09-5.52973E-09
 -1       563 2.95310E+05-4.73622E+05-3.30635E+01-5.70038E+05 4.36557E-09 6.11180E-09
 -1       564 1.69239E+05-3.53589E+05-5.96969E+02-4.37142E+05 1.19035E-08 8.09541E-09
 -1       565 2.85802E+05-4.69481E+05 2.48508E+01-5.76113E+05 1.23473E-08 1.64655E-08
 -1       566 1.64205E+05-3.50404E+05-2.58856E+02-4.40663E+05-8.54197E-09-1.04774E-09
 -1       567 2.81184E+05-4.67472E+05-3.61946E+02-5.78917E+05 1.85719E-09 7.11589E-09
 -1       568 1.62843E+05-3.49570E+05-1.12435E+03-4.41712E+05-5.52427E-09 1.41590E-08
 -1       569 2.80069E+05-4.67401E+05-2.83975E+03-5.77484E+05-7.92170E-09 2.60479E-08
 -1       570 1.66244E+05-3.52804E+05-6.20852E+03-4.40692E+05 9.02946E-09-1.83645E-08
 -1       571 2.90468E+05 1.05064E+04 1.49893E+04-9.51700E+04 2.87400E-10-3.62479E-09
 -1       572 2.92640E+05 3.95966E+03 7.34595E+03-1.04411E+05-8.54470E-10-2.09402E-08
 -1       573 2.91331E+05 1.24528E+03 3.26405E+03-9.49936E+04-1.12705E-08-6.47924E-09
 -1       574 2.91545E+05 7.26726E+02 1.63689E+03-1.04636E+05-1.28323E-08-2.18006E-09
 -1       575 2.91425E+05 4.47586E+02 7.72569E+02-9.49694E+04-1.18301E-08-7.97172E-09
 -1       576 2.91409E+05 4.58876E+02 3.95555E+02-1.04665E+05-1.29053E-08-2.67391E-10
 -1       577 2.91464E+05 3.89480E+02 1.97469E+02-9.49661E+04-6.01085E-09-1.10140E-08
 -1       578 2.91439E+05 4.20810E+02 1.14085E+02-1.04670E+05-9.72796E-09-5.34783E-09
 -1       579 2.91537E+05 3.52789E+02 7.83799E+01-9.49658E+04-2.83944E-09-1.52004E-08
 -1       580 2.91541E+05 3.69782E+02 9.10028E+01-1.04665E+05-1.93058E-08-1.07957E-08
 -1       581 2.91651E+05 2.94219E+02 1.37495E+02-9.49717E+04 1.35515E-09-1.55342E-08
 -1       582 2.91716E+05 3.32454E+02 2.79569E+02-1.04603E+05 4.89399E-09-5.84987E-09
 -1       583 2.91791E+05 3.36788E+02 5.36623E+02-9.50283E+04-2.18279E-09 4.14138E-09
 -1       584 2.92092E+05 7.75031E+02 1.21432E+03-1.04127E+05 1.77533E-09-9.50490E-09
 -1       585 2.91817E+05 1.79714E+03 2.45897E+03-9.54473E+04-2.69029E-09-1.84846E-08
 -1       586-3.42255E+03 1.16865E+05-2.91647E+03-2.50666E+05-7.38737E-09-5.14547E-10
 -1       587-1.33701E+03 1.16616E+05 7.71726E+02-2.75877E+05-7.28323E-09-6.68933E-09
 -1       588 4.00350E+02 1.16423E+05 4.76001E+03-2.50528E+05-4.09818E-09 1.52386E-08
 -1       589 5.08748E+03 1.18897E+05 1.23454E+04-2.75644E+05-9.70249E-09 1.79498E-08
 -1       590 1.66125E+04 1.15090E+05 2.58969E+04-2.50960E+05-6.68842E-09 2.21280E-08
 -1       591-7.49883E+04-1.59720E+04-2.25278E+04-3.19583E+04-6.93490E-11-1.19053E-08
 -1       592-7.90775E+04-1.95293E+04-1.22029E+04-3.55831E+04 1.39344E-09-1.47828E-08
 -1       593-7.72413E+04-1.43374E+04-5.07945E+03-3.36102E+04-1.09843E-10-4.38058E-09
 -1       594-7.59671E+04-1.62236E+04-2.53325E+03-3.57008E+04-5.47223E-09 6.64630E-09
 -1       595-7.74130E+04-1.43320E+04-1.16302E+03-3.36852E+04-1.02723E-09 1.91332E-08
 -1       596-7.57541E+04-1.60724E+04-5.91009E+02-3.56755E+04 6.33781E-09 4.47744E-09
 -1       597-7.74346E+04-1.43474E+04-3.21371E+02-3.36880E+04-7.21911E-11 1.10123E-08
 -1       598-7.57331E+04-1.60664E+04-2.57517E+02-3.56684E+04-8.01219E-09-1.46225E-08
 -1       599-7.74333E+04-1.43479E+04-3.27916E+02-3.36877E+04-1.06411E-10-2.12691E-08
 -1       600-7.57541E+04-1.60729E+04-6.08337E+02-3.56734E+04 6.42819E-09-8.31847E-09
 -1       601-7.74087E+04-1.43334E+04-1.19969E+03-3.36842E+04 2.34536E-09-9.68680E-09
 -1       602-7.59738E+04-1.62277E+04-2.61437E+03-3.56956E+04-7.23628E-09 2.48401E-08
 -1       603-7.72287E+04-1.43419E+04-5.24278E+03-3.36076E+04-1.93495E-09 1.18284E-08
 -1       604-7.92018E+04-1.96200E+04-1.25944E+04-3.55492E+04 4.14957E-09-1.30967E-08
 -1       605-7.48833E+04-1.60468E+04-2.32508E+04-3.19222E+04 2.76680E-09 2.03308E-08
 -1       606 2.66937E+04-1.43273E+04-2.56842E+04 2.39883E+04 7.44240E-09-7.52402E-09
 -1       607 2.23051E+04-4.67921E+03-1.27906E+04 2.69577E+04-4.55657E-10-5.17753E-09
 -1       608 2.48063E+04-8.44050E+02-5.72594E+03 2.38196E+04 3.09592E-09 4.80622E-09
 -1       609 2.43268E+04-2.89082E+02-2.89259E+03 2.71718E+04 2.07092E-08 1.00672E-08
 -1       610 2.45927E+04-4.08788E+01-1.38009E+03 2.37995E+04 1.58752E-08 3.05749E-09
 -1       611 2.45174E+04-4.11300E+01-6.95828E+02 2.71949E+04 5.27871E-09 6.15273E-09
 -1       612 2.45456E+04-2.71731E+01-3.30779E+02 2.37975E+04 4.88217E-09-4.35580E-09
 -1       613 2.45290E+04-3.70412E+01-1.48195E+02 2.71976E+04 7.56336E-09 3.18914E-09
 -1       614 2.45234E+04-3.35933E+01-3.46690E+01 2.37968E+04-1.07593E-09 1.94852E-08
 -1       615 2.45237E+04-3.55534E+01 6.23136E+01 2.71980E+04-4.80395E-09 1.95728E-08
 -1       616 2.45061E+04-3.04709E+01 1.86672E+02 2.37970E+04 2.33149E-09 6.97810E-10
 -1       617 2.45462E+04 4.22142E+00 4.25829E+02 2.71976E+04 1.02591E-09-1.82649E-09
 -1       618 2.44691E+04 9.22834E+01 8.58300E+02 2.37973E+04-2.75259E-09 1.47429E-09
 -1       619 2.48492E+04 6.67856E+02 1.92736E+03 2.71970E+04-4.43879E-09 5.31372E-10
 -1       620 2.41840E+04 2.12753E+03 3.87394E+03 2.37989E+04 1.65255E-09 6.08179E-09
 -1       621 5.10517E+02 3.01402E+05 3.88332E+03 4.10105E+04 1.09594E-09 1.39598E-08
 -1       622 6.76463E+02 3.02299E+05 3.44651E+03 5.95383E+04 1.16961E-09-6.51562E-09
 -1       623 1.42530E+02 3.01597E+05 4.14167E+03 4.08250E+04 1.33582E-09-9.14497E-09
 -1       624 2.12586E+03 3.03516E+05 8.02920E+03 5.97210E+04 1.38698E-09 3.30965E-09
 -1       625 2.07713E+03 3.00004E+05 1.40307E+04 4.08218E+04 1.60890E-09 1.24783E-09
 -1       626 2.60859E+05 6.14099E+04 5.12132E+03 1.26733E+05 2.09138E-09 9.23319E-09
 -1       627 2.58541E+05 6.28067E+04 2.46792E+03 1.31006E+05 6.41694E-09 6.02643E-09
 -1       628 2.60986E+05 5.90667E+04 1.04375E+03 1.27603E+05-3.71074E-10 1.82454E-08
 -1       629 2.57905E+05 6.21265E+04 5.10863E+02 1.31246E+05-7.50060E-09 1.40016E-08
 -1       630 2.61001E+05 5.89534E+04 2.37077E+02 1.27640E+05-3.03316E-09 1.34640E-08
 -1       631 2.57839E+05 6.21006E+04 1.27709E+02 1.31248E+05-3.24894E-09 1.30321E-08
 -1       632 2.60997E+05 5.89574E+04 8.42652E+01 1.27636E+05-5.63068E-09-2.71368E-08
 -1       633 2.57830E+05 6.21024E+04 9.42227E+01 1.31244E+05 3.81101E-09 1.76385E-08
 -1       634 2.60993E+05 5.89546E+04 1.52577E+02 1.27635E+05-1.97025E-09 2.08911E-09
 -1       635 2.57845E+05 6.21007E+04 3.08930E+02 1.31250E+05-4.73875E-09 1.30740E-09
 -1       636 2.60984E+05 5.89488E+04 6.23983E+02 1.27635E+05-3.56613E-09-8.93988E-09
 -1       637 2.57980E+05 6.21977E+04 1.37205E+03 1.31249E+05-8.14634E-09-1.16902E-08
 -1       638 2.60935E+05 5.92518E+04 2.81906E+03 1.27498E+05-2.11739E-08-1.48889E-08
 -1       639 2.59460E+05 6.42573E+04 6.67003E+03 1.30813E+05-2.52644E-08 1.13534E-08
 -1       640 2.60730E+05 6.54019E+04 1.38415E+04 1.24907E+05-1.68047E-08 9.07744E-09
 -1       656 6.65783E+04-1.70390E+06-1.60716E+05-2.55175E+03-2.76486E-10-1.43415E-08
 -1       657-8.80774E+04-1.77652E+06-1.33144E+05 5.17030E+03-1.06684E-09-4.14394E-09
 -1       658 2.12230E+04-1.72452E+06-8.20003E+04-4.63588E+03-6.18456E-11 9.21393E-09
 -1       659-9.52434E+04-1.77993E+06-1.42561E+05 6.90169E+03-3.26145E-09 4.36238E-09
 -1       660 7.37283E+04-1.70051E+06-1.76906E+05-4.28313E+03-1.92813E-09 1.88331E-09
 -1       661 1.58581E+05 1.65946E+04 1.67177E+04 6.19934E+04 2.13004E-09 5.06225E-09
 -1       662 1.68033E+05 2.89747E+04 1.12666E+04 5.82422E+04 3.35780E-09-1.48272E-08
 -1       663 1.61865E+05 2.19580E+04 3.94034E+03 6.10404E+04-6.21299E-10-3.83375E-09
 -1       664 1.64226E+05 2.27027E+04 2.35715E+03 5.94063E+04-1.03108E-09-1.88813E-08
 -1       665 1.62363E+05 2.26905E+04 9.29878E+02 6.08950E+04-2.72797E-09-1.47265E-08
 -1       666 1.63636E+05 2.18651E+04 5.44310E+02 5.95960E+04 8.11099E-10 1.79516E-08
 -1       667 1.62451E+05 2.27738E+04 2.89305E+02 6.08586E+04-3.27853E-09 8.42938E-09
 -1       668 1.63540E+05 2.18053E+04 2.95229E+02 5.96490E+04-8.27771E-09-1.46979E-09
 -1       669 1.62459E+05 2.27486E+04 4.00064E+02 6.08423E+04-4.29765E-09 1.01627E-08
 -1       670 1.63638E+05 2.20226E+04 8.71488E+02 5.96519E+04-8.67561E-09 5.50520E-09
 -1       671 1.62353E+05 2.25610E+04 1.54751E+03 6.08536E+04-1.31230E-10-1.46911E-08
 -1       672 1.64539E+05 2.35281E+04 3.95935E+03 5.94334E+04 9.91521E-09-5.70208E-09
 -1       673 1.61561E+05 2.12812E+04 6.63528E+03 6.10462E+04 1.19996E-09-2.43517E-08
 -1       674 1.70854E+05 3.41884E+04 1.89755E+04 5.75781E+04 1.50146E-09-1.40844E-08
 -1       675 1.56079E+05 1.21992E+04 2.81663E+04 6.25969E+04-2.39743E-09 1.11795E-08
 -1       676 2.41138E+01-2.95917E+05-1.11361E+03-1.36947E+02 1.30601E-09 4.47505E-09
 -1       677-2.94583E+02-2.96186E+05-2.03809E+03 2.73673E+02 8.66248E-09 1.06079E-08
 -1       678 1.97575E+02-2.95725E+05-3.60284E+03-1.36637E+02 1.76851E-09 2.04029E-08
 -1       679-3.60291E+03-2.98361E+05-8.55885E+03 2.72491E+02 6.14182E-09 3.78918E-10
 -1       680 2.15114E+03-2.93743E+05-1.37939E+04-1.34255E+02 1.65983E-09-2.71692E-09
 -1       771-3.06291E+06-7.46752E+05-1.65246E+05-1.46572E+06-3.49828E-08-2.88710E-08
 -1       772-2.98587E+06-8.35443E+05-8.51934E+04-1.56826E+06-2.45491E-08 1.32641E-08
 -1       773-3.09430E+06-7.22269E+05-4.34339E+04-1.48018E+06-1.55123E-08 1.07975E-08
 -1       774-2.97638E+06-8.17009E+05-1.93770E+04-1.59396E+06 1.62399E-08 6.11180E-10
 -1       775-3.11070E+06-7.10760E+05-1.44972E+04-1.48721E+06-6.02449E-09 3.40515E-09
 -1       776-2.98868E+06-8.13992E+05-5.42086E+03-1.61340E+06-2.77942E-09 2.70666E-09
 -1       777-3.12493E+06-7.00488E+05-6.40644E+03-1.49340E+06 1.19326E-08 6.12636E-09
 -1       778-3.00153E+06-8.11185E+05-1.81110E+03-1.63011E+06 2.66300E-09 1.19180E-08
 -1       779-3.13717E+06-6.91513E+05-3.20188E+03-1.49870E+06-1.59343E-08-8.24366E-09
 -1       780-3.01284E+06-8.08506E+05-5.31074E+02-1.64372E+06-1.44355E-08-2.26828E-09
 -1       781-3.14689E+06-6.84277E+05-1.24431E+03-1.50284E+06-3.64962E-08 4.44379E-09
 -1       782-3.02156E+06-8.06231E+05 4.47539E+02-1.65376E+06-4.28699E-08-2.06728E-09
 -1       783-3.15374E+06-6.79250E+05 6.96225E+02-1.50574E+06-1.10376E-08-1.32563E-08
 -1       784-3.02639E+06-8.03957E+05 2.88902E+03-1.65996E+06-1.26165E-08 2.20052E-09
 -1       785-3.15779E+06-6.76252E+05 5.09970E+03-1.50758E+06-3.49719E-08 4.76393E-09
 -1       786 1.23744E+05-9.77047E+03 2.26049E+04-3.21853E+02 3.94146E-09 1.29357E-08
 -1       787 1.33548E+05 1.13120E+04 1.59921E+04-1.35141E+02 5.70333E-09 1.59150E-08
 -1       788 1.27524E+05-1.53106E+03 5.84839E+03-2.86737E+02-1.82654E-10 1.26788E-08
 -1       789 1.29144E+05 1.77216E+03 3.67141E+03-1.88951E+02-1.26574E-09-1.03721E-08
 -1       790 1.28148E+05-2.38383E+02 1.48652E+03-2.68060E+02-4.98639E-09-6.84776E-09
 -1       791 1.28414E+05 2.75815E+02 8.58616E+02-2.20907E+02-9.53807E-09 1.78864E-08
 -1       792 1.28254E+05-3.58326E+01 3.63927E+02-2.54783E+02-5.50686E-09 1.24703E-08
 -1       793 1.28288E+05 3.78971E+01 1.81601E+02-2.45876E+02 5.20470E-10 1.85557E-08
 -1       794 1.28274E+05-6.15546E-01 4.75465E+01-2.43091E+02 6.13792E-09 3.05374E-09
 -1       795 1.28251E+05-2.71868E+01-5.69159E+01-2.70264E+02-5.04679E-09 1.54202E-08
 -1       796 1.28291E+05 2.92149E+01-1.61278E+02-2.30395E+02 2.99714E-09 5.89321E-09
 -1       797 1.28157E+05-2.18143E+02-4.43129E+02-2.99413E+02 3.12162E-09-1.40796E-08
 -1       798 1.28369E+05 1.90198E+02-7.19749E+02-2.13942E+02 2.11212E-09 5.81110E-09
 -1       799 1.27611E+05-1.40193E+03-1.98022E+03-3.40143E+02 5.66079E-09-4.37581E-09
 -1       800 1.28837E+05 1.21203E+03-2.80244E+03-1.89667E+02 2.95683E-10 1.66392E-08
 -1       801-1.69648E+05-9.96795E+06-1.38847E+06 1.40799E+06 9.06584E-08-4.98367E-08
 -1       802 7.33600E+05 5.90247E+06 2.16971E+06-1.73733E+06 2.59548E-07-3.17805E-08
 -1       803-5.33876E+05-1.42112E+07-1.88097E+06 8.93798E+05 7.76163E-08 1.73059E-08
 -1       804 2.85378E+05 2.36182E+06 1.52868E+06 6.74601E+05-1.18896E-07-1.05512E-07
 -1       805 1.88700E+05-6.44145E+06-2.84660E+05-9.98300E+05-4.88726E-08-7.19547E-08
 -1       806-3.08845E+05-5.97408E+04-2.28478E+04-1.22378E+05-7.46695E-09 6.75254E-09
 -1       807-3.10643E+05-5.60107E+04-1.12249E+04-1.27921E+05 1.23302E-08 2.87271E-08
 -1       808-3.09472E+05-5.15067E+04-4.76196E+03-1.26270E+05 3.28782E-10 7.41886E-09
 -1       809-3.08283E+05-5.28567E+04-2.32848E+03-1.28196E+05-7.58405E-09-1.68934E-08
 -1       810-3.09567E+05-5.12200E+04-1.06728E+03-1.26442E+05 1.26470E-08 7.41238E-11
 -1       811-3.08100E+05-5.27300E+04-5.30775E+02-1.28161E+05 6.33418E-09 2.08634E-08
 -1       812-3.09581E+05-5.12447E+04-2.68521E+02-1.26442E+05-7.50151E-09-9.29504E-10
 -1       813-3.08075E+05-5.27322E+04-1.74643E+02-1.28142E+05-1.53073E-08-1.42272E-08
 -1       814-3.09574E+05-5.12544E+04-1.73286E+02-1.26438E+05-3.03680E-09-7.71752E-09
 -1       815-3.08079E+05-5.27344E+04-2.79383E+02-1.28135E+05 5.18230E-09 1.91064E-08
 -1       816-3.09553E+05-5.12535E+04-5.29645E+02-1.26434E+05 4.48836E-09 1.41999E-08
 -1       817-3.08168E+05-5.27849E+04-1.13673E+03-1.28123E+05-6.81575E-09 9.05857E-10
 -1       818-3.09484E+05-5.14140E+04-2.31856E+03-1.26358E+05 1.60071E-10-2.24109E-08
 -1       819-3.09438E+05-5.41856E+04-5.45538E+03-1.27823E+05 1.31577E-08-6.51562E-09
 -1       820-3.09046E+05-5.55352E+04-1.11037E+04-1.24598E+05 3.98541E-09 1.80676E-08
 -1       821-3.78951E+05 2.08683E+04-4.85774E+04 2.12537E+03 1.40167E-08-5.30417E-09
 -1       822-3.98656E+05-2.41747E+04-3.41393E+04-4.45906E+03 4.41697E-09-1.61640E-08
 -1       823-3.86416E+05 3.28958E+03-1.25472E+04 3.43532E+03-1.34153E-08-8.55425E-09
 -1       824-3.89645E+05-3.79352E+03-7.85372E+03-5.37103E+03 3.62803E-10 5.03951E-09
 -1       825-3.87969E+05 5.11247E+02-3.28884E+03 3.03746E+03 2.07882E-08-1.49726E-10
 -1       826-3.87214E+05-5.67309E+02-1.74401E+03-3.09811E+03 2.48626E-08-4.01070E-09
 -1       827-3.88823E+05 4.68318E+01-1.18991E+03 1.16225E+03 1.16231E-08-5.73039E-09
 -1       828-3.86508E+05-1.32007E+02-5.86159E+02 1.09456E+03-8.40942E-10 2.41385E-08
 -1       829-3.88661E+05 6.58886E+01-1.17884E+03-1.15524E+03 9.05715E-10 1.50763E-09
 -1       830-3.87563E+05-6.22011E+02-1.88223E+03 4.88280E+03 1.30861E-09 1.06185E-08
 -1       831-3.87790E+05 5.54459E+02-3.37075E+03-2.62600E+03-5.74923E-09-2.47483E-08
 -1       832-3.89726E+05-3.96028E+03-8.15670E+03 6.16362E+03-4.06466E-09-3.29150E-08
 -1       833-3.86515E+05 3.41370E+03-1.30514E+04-2.43611E+03-2.67890E-09 2.51930E-10
 -1       834-3.98717E+05-2.50890E+04-3.53633E+04 4.19190E+03-2.65553E-09 2.04732E-08
 -1       835-3.78782E+05 2.16503E+04-5.04492E+04-6.54206E+02 5.17215E-09 1.45046E-08
 -1       836-1.41369E+03 3.70180E+05 2.29063E+04-1.61388E+04-6.98856E-09 1.39307E-08
 -1       837 4.88324E+03 3.77355E+05 1.93797E+04-3.29794E+04-7.93375E-09-7.85576E-10
 -1       838-5.57834E+02 3.72192E+05 1.97409E+04-1.60673E+04-6.24550E-09 9.68885E-09
 -1       839 1.24220E+04 3.82969E+05 3.73393E+04-3.30319E+04-6.60293E-09 3.54635E-09
 -1       840-3.84037E+03 3.64506E+05 5.95404E+04-1.60921E+04-5.90080E-09-6.09585E-09
 -1       856-5.22193E+04 8.02577E+03-2.11496E+04-3.97717E+02 6.72833E-09-1.12277E-08
 -1       857-6.09325E+04-9.42999E+03-1.45592E+04 5.63349E+03 6.98569E-09 1.89457E-08
 -1       858-5.56699E+04 1.12553E+03-5.48782E+03-4.21814E+02 3.15424E-09 7.60224E-09
 -1       859-5.69725E+04-1.32411E+03-3.31164E+03 5.66934E+03-2.27580E-09 1.15112E-08
 -1       860-5.61854E+04 1.57626E+02-1.38790E+03-4.33298E+02 7.47860E-10-7.99218E-11
 -1       861-5.63795E+04-1.88138E+02-7.63490E+02 5.68498E+03-7.53779E-10-1.01059E-08
 -1       862-5.62660E+04 2.13507E+01-3.17328E+02-4.37433E+02-1.76006E-09 6.99529E-09
 -1       863-5.62807E+04-2.18127E+01-1.15491E+02 5.68738E+03-3.18818E-09-1.11619E-08
 -1       864-5.62848E+04-4.91504E+00 4.74373E+01-4.35698E+02-2.57501E-11-1.60689E-08
 -1       865-5.62248E+04 5.97754E+01 2.55791E+02 5.67747E+03-5.82514E-09-1.18937E-08
 -1       866-5.63197E+04-6.02545E+01 5.15376E+02-4.27526E+02 2.43961E-09-6.76178E-09
 -1       867-5.59825E+04 4.97579E+02 1.26847E+03 5.65529E+03 4.80270E-09-8.17522E-09
 -1       868-5.65222E+04-4.34813E+02 2.10781E+03-4.13512E+02 1.93427E-09-1.37516E-09
 -1       869-5.44372E+04 3.61878E+03 5.61236E+03 5.61878E+03 1.46213E-09-1.45637E-08
 -1       870-5.78572E+04-3.09668E+03 8.14479E+03-3.90916E+02-4.94265E-09-1.45337E-08
 -1       871-5.51967E+03-2.13301E+04-1.94908E+04 1.30423E+05-4.29281E-09 1.37970E-09
 -1       872-1.98370E+03-2.58620E+04-8.16118E+03 1.69113E+05-1.20635E-08-3.56931E-09
 -1       873 4.04067E+02-2.36703E+04 5.89956E+02 1.30136E+05-6.50198E-09 6.27790E-09
 -1       874 3.30471E+03-2.12590E+04 9.77977E+03 1.69143E+05-1.14787E-08-3.20870E-09
 -1       875 6.84554E+03-2.60001E+04 2.20623E+04 1.30375E+05-4.54020E-09-2.28256E-08
 -1       876 2.93763E+05 4.95101E+04 1.50993E+04 1.17886E+05 3.31988E-09 9.63337E-09
 -1       877 2.94761E+05 5.26900E+04 8.06362E+03 1.22218E+05 5.83441E-09-5.95469E-09
 -1       878 2.95175E+05 4.78374E+04 3.37826E+03 1.19123E+05-5.11227E-09-1.48204E-08
 -1       879 2.92709E+05 5.06416E+04 1.68326E+03 1.22320E+05 5.13501E-09-4.14741E-09
 -1       880 2.95276E+05 4.78202E+04 7.84043E+02 1.19174E+05-1.63118E-09-5.63819E-09
 -1       881 2.92572E+05 5.05540E+04 4.18715E+02 1.22296E+05-9.90713E-09 1.62920E-08
 -1       882 2.95285E+05 4.78334E+04 2.67908E+02 1.19175E+05-8.10815E-10-7.17414E-10
 -1       883 2.92563E+05 5.05494E+04 2.88077E+02 1.22289E+05-3.49564E-09-3.89403E-09
 -1       884 2.95278E+05 4.78306E+04 4.58320E+02 1.19176E+05 4.51598E-09 5.67132E-09
 -1       885 2.92599E+05 5.05558E+04 9.21513E+02 1.22300E+05-6.96249E-09-9.22773E-09
 -1       886 2.95243E+05 4.78038E+04 1.85728E+03 1.19172E+05-5.04986E-09 1.44366E-08
 -1       887 2.92926E+05 5.07698E+04 4.05699E+03 1.22347E+05 3.40620E-09-2.06693E-08
 -1       888 2.94986E+05 4.78489E+04 8.17494E+03 1.19042E+05-2.77423E-09-7.73662E-09
 -1       889 2.97792E+05 5.58310E+04 1.95284E+04 1.22198E+05-6.09940E-09-9.21818E-09
 -1       890 2.91650E+05 5.18125E+04 3.65763E+04 1.15931E+05-2.05182E-09-9.48603E-09
 -1       891-8.95685E+01-1.62769E+05-1.99662E+03 2.71514E+04-1.54569E-09-5.18889E-09
 -1       892-1.75688E+02-1.63296E+05-2.14428E+03 4.12306E+04 1.23032E-09 1.12877E-08
 -1       893 4.35055E+01-1.62833E+05-3.03593E+03 2.71588E+04-2.84194E-09-8.72251E-09
 -1       894-1.51035E+03-1.64443E+05-6.28313E+03 4.10781E+04 3.88718E-09-2.60825E-08
 -1       895-1.19945E+03-1.61524E+05-1.10645E+04 2.73058E+04-1.07377E-09 6.26460E-09
 -1       956-3.77210E+05-5.44908E+03-1.34524E+04 3.08512E+04 2.27192E-09 1.09685E-09
 -1       957-3.79849E+05-1.92186E+03-6.90493E+03 3.70753E+04-5.62250E-09-1.21081E-08
 -1       958-3.78419E+05-2.40444E+02-3.11158E+03 3.06835E+04-6.61475E-09 1.92995E-09
 -1       959-3.78615E+05-1.35688E+02-1.58882E+03 3.72709E+04-3.20506E-09 2.82207E-08
 -1       960-3.78537E+05-4.43420E+01-7.74786E+02 3.06662E+04 3.77349E-09 6.32167E-09
 -1       961-3.78535E+05-6.26616E+01-4.10784E+02 3.72913E+04 1.04530E-08-1.78577E-08
 -1       962-3.78564E+05-4.55712E+01-2.35186E+02 3.06633E+04 3.68073E-09 1.07561E-08
 -1       963-3.78535E+05-5.84731E+01-1.88802E+02 3.72950E+04 2.71837E-09 1.07866E-09
 -1       964-3.78570E+05-4.22188E+01-2.29605E+02 3.06626E+04-1.61040E-09-4.24984E-09
 -1       965-3.78547E+05-5.55145E+01-3.97129E+02 3.72943E+04-5.02740E-09-1.31081E-09
 -1       966-3.78554E+05-3.43790E+01-7.46200E+02 3.06641E+04 6.44468E-09 4.23915E-09
 -1       967-3.78637E+05-1.19061E+02-1.53044E+03 3.72799E+04-1.56615E-09-1.20558E-08
 -1       968-3.78450E+05-2.16878E+02-2.99606E+03 3.06767E+04 9.74524E-10 1.68433E-09
 -1       969-3.79838E+05-1.83399E+03-6.65117E+03 3.71315E+04 4.92764E-09-7.13950E-09
 -1       970-3.77293E+05-5.23012E+03-1.29569E+04 3.08039E+04-3.03771E-10 8.00173E-09
 -1       971-3.45385E+05-1.72745E+03-9.31074E+03 1.53783E+04 5.93263E-09 2.23933E-09
 -1       972-3.47627E+05-1.27164E+03-5.07053E+03 2.12689E+04 6.77028E-09-1.28839E-08
 -1       973-3.46423E+05-6.18612E+01-2.27114E+03 1.52571E+04 4.38831E-09-1.48975E-09
 -1       974-3.46558E+05-8.08345E+01-1.17728E+03 2.14060E+04 2.30739E-09 5.47516E-10
 -1       975-3.46505E+05-1.69805E+01-5.88946E+02 1.52448E+04-2.70165E-09-1.71534E-08
 -1       976-3.46497E+05-3.09846E+01-3.40622E+02 2.14217E+04 1.11368E-09-9.20522E-09
 -1       977-3.46521E+05-1.62335E+01-2.48725E+02 1.52414E+04-3.05727E-09 4.34932E-09
 -1       978-3.46502E+05-2.47581E+01-2.93116E+02 2.14266E+04-7.57836E-09 3.40867E-09
 -1       979-3.46521E+05-7.75442E+00-4.72711E+02 1.52399E+04-1.17524E-09 5.61158E-10
 -1       980-3.46537E+05-2.16961E+01-9.13853E+02 2.14276E+04-3.54984E-09-1.88827E-08
 -1       981-3.46492E+05 1.50879E+01-1.77050E+03 1.52404E+04 2.56932E-10-6.50539E-09
 -1       982-3.46780E+05-1.52517E+02-3.65991E+03 2.14210E+04 3.65083E-09 9.45489E-09
 -1       983-3.46269E+05-9.82824E+01-7.11140E+03 1.52465E+04 1.63118E-09 1.37793E-08
 -1       984-3.50201E+05-3.86660E+03-1.59258E+04 2.13353E+04 1.18446E-08 1.30344E-08
 -1       985-3.43049E+05-5.30197E+03-2.92446E+04 1.53179E+04 3.55976E-09 5.62432E-09
 -3
    1PSTEP                        47          24           1          
  100CL  124 6.62936E-01         409                     0   24           1
 -4  DISP        4    1
 -5  D1          1    2    1    0
 -5  D2          1    2    2    0
 -5  D3          1    2    3    0
 -5  ALL         1    2    0    0    1ALL
 -1         1 2.85520E-03 0.00000E+00 0.00000E+00
 -1         2 1.12832E-03-2.75459E-26 0.00000E+00
 -1         3 3.44947E-04-7.43294E-28 0.00000E+00
 -1         5 1.77889E-04 1.80047E-27-8.27181E-25
 -1         8 2.84571E-03-3.47986E-07 0.00000E+00
 -1         9 2.83313E-03-3.04602E-04 0.00000E+00
 -1        10 3.12829E-04-3.28104E-06 0.00000E+00
 -1        12 1.79787E-04 8.11295E-07-1.24077E-24
 -1        15 2.83514E-03-3.66859E-07 0.00000E+00
 -1        16 2.94755E-03-3.07273E-04 0.00000E+00
 -1        17 2.12870E-04-7.51848E-06 0.00000E+00
 -1        18 1.83883E-04 3.50827E-05 0.00000E+00
 -1        19 1.85480E-04 1.61604E-06 0.00000E+00
 -1        20 1.85618E-04-1.04854E-05 0.00000E+00
 -1        21 1.84720E-04-2.66892E-05 3.30872E-24
 -1        24 3.05647E-05-1.17402E-05 0.00000E+00
 -1        25 1.94920E-04 3.53096E-05 0.00000E+00
 -1        26 1.95590E-04 2.23745E-06 0.00000E+00
 -1        27 1.93384E-04-1.40513E-05 0.00000E+00
 -1        28 1.93074E-04-2.73116E-05 0.00000E+00
 -1        32 0.00000E+00 0.00000E+00 0.00000E+00
 -1        33 2.04709E-04 2.99285E-06 0.00000E+00
 -1        34 2.02586E-04-1.41083E-05 0.00000E+00
 -1        35 2.00652E-04-2.76546E-05 0.00000E+00
 -1        51 2.85455E-03-7.61731E-08-1.65436E-24
 -1        52 2.85337E-03-1.33508E-07 0.00000E+00
 -1        53 2.85178E-03-1.87159E-07 0.00000E+00
 -1        54 2.84989E-03-2.39354E-07 8.27181E-25
 -1        55 2.84783E-03-2.91876E-07 2.48154E-24
 -1        56 2.84333E-03 1.86238E-05 0.00000E+00
 -1        57 2.81588E-03 7.41241E-05 0.00000E+00
 -1        58 2.77692E-03 1.55158E-04 0.00000E+00
 -1        59 2.73227E-03 2.48103E-04 0.00000E+00
 -1        60 2.68938E-03 3.37324E-04 1.05879E-22
 -1        61 2.65543E-03 4.07453E-04 0.00000E+00
 -1        62 2.63503E-03 4.46424E-04-1.05879E-22
 -1        63 2.63072E-03 4.44898E-04 0.00000E+00
 -1        64 2.64135E-03 4.00990E-04 0.00000E+00
 -1        65 2.66436E-03 3.17013E-04-5.29396E-23
 -1        66 2.69566E-03 2.03050E-04 0.00000E+00
 -1        67 2.73118E-03 7.22748E-05-5.29396E-23
 -1        68 2.76678E-03-5.88052E-05 1.05879E-22
 -1        69 2.79834E-03-1.73663E-04-5.29396E-23
 -1        70 2.82178E-03-2.59014E-04 0.00000E+00
 -1        86 1.23619E-03-9.25612E-06 0.00000E+00
 -1        87 1.54420E-03-5.95930E-05 0.00000E+00
 -1        88 1.95809E-03-1.46896E-04 0.00000E+00
 -1        89 2.37882E-03-2.37212E-04 2.64698E-23
 -1        90 2.70378E-03-2.92796E-04 5.29396E-23
 -1       121 3.44045E-04-5.28928E-07 0.00000E+00
 -1       122 3.41344E-04-1.06097E-06 0.00000E+00
 -1       123 3.36853E-04-1.59921E-06 0.00000E+00
 -1       124 3.30587E-04-2.14670E-06 0.00000E+00
 -1       125 3.22569E-04-2.70614E-06 0.00000E+00
 -1       191 1.77942E-04 1.35283E-07-1.65436E-24
 -1       192 1.78100E-04 2.70553E-07-8.27181E-25
 -1       193 1.78364E-04 4.05803E-07-2.48154E-24
 -1       194 1.78732E-04 5.41019E-07 4.13590E-25
 -1       195 1.79207E-04 6.76187E-07-8.27181E-25
 -1       251 2.84521E-03 2.34955E-06 0.00000E+00
 -1       252 2.84470E-03 6.68379E-06 0.00000E+00
 -1       253 2.84422E-03 1.02690E-05-1.32349E-23
 -1       254 2.84373E-03 1.07666E-05 6.61744E-24
 -1       255 2.84323E-03 6.70750E-06 1.32349E-23
 -1       256 2.84268E-03-3.29384E-06 0.00000E+00
 -1       257 2.84203E-03-1.95120E-05 0.00000E+00
 -1       258 2.84127E-03-4.21340E-05 0.00000E+00
 -1       259 2.84038E-03-7.03273E-05-1.32349E-23
 -1       260 2.83937E-03-1.03188E-04 0.00000E+00
 -1       261 2.83827E-03-1.39108E-04 0.00000E+00
 -1       262 2.83713E-03-1.76443E-04 0.00000E+00
 -1       263 2.83600E-03-2.13347E-04 1.32349E-23
 -1       264 2.83494E-03-2.47980E-04 0.00000E+00
 -1       265 2.83398E-03-2.78873E-04 2.64698E-23
 -1       266 2.84395E-03-3.56160E-07-1.65436E-24
 -1       267 2.84218E-03-3.58693E-07 0.00000E+00
 -1       268 2.84042E-03-3.61583E-07 4.13590E-25
 -1       269 2.83866E-03-3.63414E-07 0.00000E+00
 -1       270 2.83690E-03-3.65221E-07-2.06795E-25
 -1       271 2.84533E-03-8.72557E-07 1.32349E-23
 -1       272 2.84642E-03-5.41599E-06 0.00000E+00
 -1       273 2.84891E-03-1.37209E-05 0.00000E+00
 -1       274 2.85266E-03-2.55074E-05 6.61744E-24
 -1       275 2.85755E-03-4.04656E-05 0.00000E+00
 -1       276 2.86346E-03-5.82637E-05 0.00000E+00
 -1       277 2.87025E-03-7.85460E-05 1.32349E-23
 -1       278 2.87778E-03-1.00939E-04 6.61744E-24
 -1       279 2.88592E-03-1.25053E-04 0.00000E+00
 -1       280 2.89451E-03-1.50483E-04 0.00000E+00
 -1       281 2.90342E-03-1.76818E-04-1.32349E-23
 -1       282 2.91250E-03-2.03635E-04 0.00000E+00
 -1       283 2.92160E-03-2.30513E-04 0.00000E+00
 -1       284 2.93057E-03-2.57025E-04 6.61744E-24
 -1       285 2.93927E-03-2.82750E-04 0.00000E+00
 -1       301 2.85375E-03-3.05101E-04 3.30872E-24
 -1       302 2.87239E-03-3.05534E-04-6.61744E-24
 -1       303 2.89007E-03-3.05945E-04-1.32349E-23
 -1       304 2.90781E-03-3.06356E-04-6.61744E-24
 -1       305 2.92663E-03-3.06788E-04 0.00000E+00
 -1       306 2.87321E-03-4.69536E-04 0.00000E+00
 -1       307 2.93681E-03-8.94814E-04 5.29396E-23
 -1       308 2.98188E-03-1.50858E-03 0.00000E+00
 -1       309 3.00500E-03-2.21193E-03 5.29396E-23
 -1       310 3.03729E-03-2.87761E-03 1.05879E-22
 -1       311 3.09795E-03-3.38173E-03 0.00000E+00
 -1       312 3.15352E-03-3.64458E-03-2.11758E-22
 -1       313 3.14002E-03-3.63192E-03 0.00000E+00
 -1       314 2.98226E-03-3.35922E-03-1.05879E-22
 -1       315 2.64105E-03-2.89458E-03 0.00000E+00
 -1       316 2.13857E-03-2.31575E-03 0.00000E+00
 -1       317 1.54496E-03-1.69121E-03-5.29396E-23
 -1       318 9.77726E-04-1.07967E-03 0.00000E+00
 -1       319 5.46663E-04-5.45356E-04-5.29396E-23
 -1       320 2.95054E-04-1.63568E-04 0.00000E+00
 -1       336 3.01175E-04-3.91745E-06 0.00000E+00
 -1       337 2.87429E-04-4.57987E-06 6.61744E-24
 -1       338 2.71650E-04-5.27066E-06 0.00000E+00
 -1       339 2.53909E-04-5.99080E-06 6.61744E-24
 -1       340 2.34286E-04-6.74480E-06 1.32349E-23
 -1       406 1.80472E-04 9.46321E-07 8.27181E-25
 -1       407 1.81263E-04 1.08123E-06-4.13590E-25
 -1       408 1.82159E-04 1.21597E-06-3.30872E-24
 -1       409 1.83161E-04 1.35036E-06-6.20385E-25
 -1       410 1.84268E-04 1.48414E-06-2.48154E-24
 -1       521 2.98812E-03-4.81924E-04 0.00000E+00
 -1       522 3.04951E-03-9.30146E-04 0.00000E+00
 -1       523 3.08687E-03-1.57617E-03 1.05879E-22
 -1       524 3.09894E-03-2.31348E-03 0.00000E+00
 -1       525 3.12195E-03-3.01080E-03 0.00000E+00
 -1       526 3.17879E-03-3.54051E-03 0.00000E+00
 -1       527 3.23410E-03-3.81494E-03 0.00000E+00
 -1       528 3.21754E-03-3.79912E-03 5.29396E-23
 -1       529 3.04455E-03-3.50908E-03-2.11758E-22
 -1       530 2.67349E-03-3.02249E-03 5.29396E-23
 -1       531 2.12778E-03-2.42155E-03 0.00000E+00
 -1       532 1.48522E-03-1.77729E-03 0.00000E+00
 -1       533 8.70339E-04-1.14518E-03 1.05879E-22
 -1       534 3.99576E-04-5.86781E-04 0.00000E+00
 -1       535 1.23303E-04-1.82606E-04-2.11758E-22
 -1       536 2.12105E-04 2.76953E-05 0.00000E+00
 -1       537 2.10158E-04 8.86268E-05 0.00000E+00
 -1       538 2.07148E-04 1.65937E-04-3.30872E-24
 -1       539 2.03597E-04 2.50203E-04 0.00000E+00
 -1       540 2.00402E-04 3.29828E-04 0.00000E+00
 -1       541 1.98327E-04 3.93236E-04-1.65436E-24
 -1       542 1.97370E-04 4.33627E-04 0.00000E+00
 -1       543 1.97143E-04 4.44349E-04 0.00000E+00
 -1       544 1.96818E-04 4.26178E-04 3.30872E-24
 -1       545 1.95630E-04 3.80114E-04 1.65436E-24
 -1       546 1.93413E-04 3.14343E-04-3.30872E-24
 -1       547 1.90410E-04 2.37172E-04 0.00000E+00
 -1       548 1.87434E-04 1.60372E-04 0.00000E+00
 -1       549 1.85287E-04 9.57172E-05 0.00000E+00
 -1       550 1.84173E-04 5.12988E-05 0.00000E+00
 -1       551 1.87475E-04-8.08491E-06 0.00000E+00
 -1       552 1.58820E-04-8.73302E-06 0.00000E+00
 -1       553 1.27844E-04-9.44437E-06 0.00000E+00
 -1       554 9.55055E-05-1.01978E-05-6.61744E-24
 -1       555 6.27614E-05-1.09656E-05 0.00000E+00
 -1       556 2.05154E-04 1.22065E-05 0.00000E+00
 -1       557 1.98919E-04 2.82077E-05 0.00000E+00
 -1       558 1.94030E-04 4.07748E-05 0.00000E+00
 -1       559 1.90352E-04 5.02204E-05 0.00000E+00
 -1       560 1.87755E-04 5.68571E-05 0.00000E+00
 -1       561 1.86109E-04 6.10003E-05 0.00000E+00
 -1       562 1.85289E-04 6.29666E-05 0.00000E+00
 -1       563 1.85170E-04 6.30736E-05-1.32349E-23
 -1       564 1.85629E-04 6.16397E-05 0.00000E+00
 -1       565 1.86545E-04 5.89841E-05 0.00000E+00
 -1       566 1.87796E-04 5.54264E-05 0.00000E+00
 -1       567 1.89264E-04 5.12868E-05 0.00000E+00
 -1       568 1.90829E-04 4.68854E-05 0.00000E+00
 -1       569 1.92372E-04 4.25427E-05 0.00000E+00
 -1       570 1.93775E-04 3.85788E-05 0.00000E+00
 -1       571 1.83980E-04 3.29105E-05 1.65436E-24
 -1       572 1.84079E-04 3.06723E-05 1.24077E-24
 -1       573 1.84178E-04 2.83841E-05 1.65436E-24
 -1       574 1.84278E-04 2.60621E-05 0.00000E+00
 -1       575 1.84377E-04 2.37231E-05 3.30872E-24
 -1       576 1.84477E-04 2.13835E-05 0.00000E+00
 -1       577 1.84577E-04 1.90601E-05-3.30872E-24
 -1       578 1.84676E-04 1.67694E-05 3.30872E-24
 -1       579 1.84776E-04 1.45281E-05 6.61744E-24
 -1       580 1.84876E-04 1.23529E-05 0.00000E+00
 -1       581 1.84976E-04 1.02604E-05-6.61744E-24
 -1       582 1.85077E-04 8.26720E-06 0.00000E+00
 -1       583 1.85177E-04 6.38993E-06 0.00000E+00
 -1       584 1.85278E-04 4.64503E-06 0.00000E+00
 -1       585 1.85379E-04 3.04876E-06 6.61744E-24
 -1       586 1.85682E-04 3.51226E-05 1.65436E-24
 -1       587 1.87439E-04 3.51620E-05-8.27181E-25
 -1       588 1.89198E-04 3.52010E-05 0.00000E+00
 -1       589 1.91003E-04 3.52394E-05 0.00000E+00
 -1       590 1.92896E-04 3.52765E-05 0.00000E+00
 -1       591 1.84628E-04 3.30052E-05-2.06795E-25
 -1       592 1.85377E-04 3.09083E-05 2.06795E-25
 -1       593 1.86129E-04 2.87978E-05-8.27181E-25
 -1       594 1.86885E-04 2.66784E-05 0.00000E+00
 -1       595 1.87642E-04 2.45548E-05 0.00000E+00
 -1       596 1.88399E-04 2.24315E-05 0.00000E+00
 -1       597 1.89155E-04 2.03132E-05 0.00000E+00
 -1       598 1.89906E-04 1.82045E-05 4.13590E-25
 -1       599 1.90652E-04 1.61101E-05-8.27181E-25
 -1       600 1.91392E-04 1.40345E-05 4.13590E-25
 -1       601 1.92122E-04 1.19824E-05-8.27181E-25
 -1       602 1.92842E-04 9.95841E-06-2.06795E-25
 -1       603 1.93550E-04 7.96715E-06 4.13590E-25
 -1       604 1.94245E-04 6.01334E-06 1.80946E-25
 -1       605 1.94924E-04 4.10151E-06 0.00000E+00
 -1       606 1.85493E-04 4.17384E-07 0.00000E+00
 -1       607 1.85502E-04-6.96267E-07 0.00000E+00
 -1       608 1.85511E-04-1.72991E-06 0.00000E+00
 -1       609 1.85519E-04-2.68916E-06 0.00000E+00
 -1       610 1.85528E-04-3.57970E-06 3.30872E-24
 -1       611 1.85536E-04-4.40729E-06 0.00000E+00
 -1       612 1.85544E-04-5.17764E-06 0.00000E+00
 -1       613 1.85552E-04-5.89653E-06 0.00000E+00
 -1       614 1.85560E-04-6.56971E-06 0.00000E+00
 -1       615 1.85569E-04-7.20293E-06 0.00000E+00
 -1       616 1.85577E-04-7.80195E-06 0.00000E+00
 -1       617 1.85585E-04-8.37252E-06 0.00000E+00
 -1       618 1.85594E-04-8.92038E-06 0.00000E+00
 -1       619 1.85602E-04-9.45132E-06-2.06795E-25
 -1       620 1.85610E-04-9.97106E-06 0.00000E+00
 -1       621 1.86874E-04 1.72019E-06-1.65436E-24
 -1       622 1.88430E-04 1.82458E-06 0.00000E+00
 -1       623 1.90114E-04 1.92876E-06-3.30872E-24
 -1       624 1.91891E-04 2.03259E-06-8.27181E-25
 -1       625 1.93728E-04 2.13613E-06-1.65436E-24
 -1       626 1.86041E-04 4.53610E-07-3.30872E-24
 -1       627 1.86581E-04-6.46636E-07-3.30872E-24
 -1       628 1.87100E-04-1.69251E-06 6.61744E-24
 -1       629 1.87602E-04-2.69214E-06 0.00000E+00
 -1       630 1.88090E-04-3.65367E-06 0.00000E+00
 -1       631 1.88566E-04-4.58527E-06 0.00000E+00
 -1       632 1.89035E-04-5.49508E-06 3.30872E-24
 -1       633 1.89498E-04-6.39130E-06 0.00000E+00
 -1       634 1.89960E-04-7.28207E-06 3.30872E-24
 -1       635 1.90422E-04-8.17555E-06 1.65436E-24
 -1       636 1.90889E-04-9.07992E-06-3.30872E-24
 -1       637 1.91362E-04-1.00034E-05 1.65436E-24
 -1       638 1.91846E-04-1.09540E-05-1.65436E-24
 -1       639 1.92342E-04-1.19401E-05-1.65436E-24
 -1       640 1.92855E-04-1.29697E-05-1.65436E-24
 -1       656 1.86364E-04-1.10649E-05-6.61744E-24
 -1       657 1.87529E-04-1.16681E-05 0.00000E+00
 -1       658 1.88974E-04-1.22698E-05 0.00000E+00
 -1       659 1.90554E-04-1.28712E-05 6.61744E-24
 -1       660 1.92085E-04-1.34744E-05 0.00000E+00
 -1       661 1.85897E-04-1.10450E-05-8.27181E-25
 -1       662 1.86214E-04-1.16970E-05 8.27181E-25
 -1       663 1.86563E-04-1.24361E-05-1.65436E-24
 -1       664 1.86943E-04-1.32556E-05 0.00000E+00
 -1       665 1.87351E-04-1.41498E-05 0.00000E+00
 -1       666 1.87785E-04-1.51125E-05 0.00000E+00
 -1       667 1.88242E-04-1.61382E-05 1.65436E-24
 -1       668 1.88721E-04-1.72211E-05 0.00000E+00
 -1       669 1.89219E-04-1.83558E-05-1.65436E-24
 -1       670 1.89734E-04-1.95369E-05 8.27181E-25
 -1       671 1.90265E-04-2.07592E-05 1.65436E-24
 -1       672 1.90809E-04-2.20174E-05 0.00000E+00
 -1       673 1.91364E-04-2.33065E-05 1.65436E-24
 -1       674 1.91928E-04-2.46218E-05 4.13590E-25
 -1       675 1.92501E-04-2.59578E-05 0.00000E+00
 -1       676 1.86117E-04-2.67935E-05 0.00000E+00
 -1       677 1.87514E-04-2.68978E-05 0.00000E+00
 -1       678 1.88908E-04-2.70021E-05 3.30872E-24
 -1       679 1.90301E-04-2.71060E-05 0.00000E+00
 -1       680 1.91689E-04-2.72099E-05 1.65436E-24
 -1       771 1.84985E-05 1.52692E-05 0.00000E+00
 -1       772 8.35155E-06 3.74483E-05 5.29396E-23
 -1       773 3.21800E-08 5.50299E-05-5.29396E-23
 -1       774-6.58563E-06 6.82748E-05 0.00000E+00
 -1       775-1.16251E-05 7.74542E-05 0.00000E+00
 -1       776-1.52144E-05 8.28565E-05 0.00000E+00
 -1       777-1.74815E-05 8.47801E-05 0.00000E+00
 -1       778-1.85568E-05 8.35376E-05 2.64698E-23
 -1       779-1.85703E-05 7.94502E-05 0.00000E+00
 -1       780-1.76538E-05 7.28505E-05 0.00000E+00
 -1       781-1.59381E-05 6.40783E-05 0.00000E+00
 -1       782-1.35558E-05 5.34820E-05-2.64698E-23
 -1       783-1.06383E-05 4.14150E-05 5.29396E-23
 -1       784-7.31834E-06 2.82368E-05 7.94093E-23
 -1       785-3.72773E-06 1.43101E-05 5.29396E-23
 -1       786 1.94958E-04 3.30135E-05-8.07794E-28
 -1       787 1.94999E-04 3.07678E-05 0.00000E+00
 -1       788 1.95040E-04 2.85641E-05 0.00000E+00
 -1       789 1.95082E-04 2.63944E-05-4.13590E-25
 -1       790 1.95123E-04 2.42537E-05-1.65436E-24
 -1       791 1.95165E-04 2.21374E-05-8.27181E-25
 -1       792 1.95208E-04 2.00432E-05 0.00000E+00
 -1       793 1.95250E-04 1.79689E-05 8.27181E-25
 -1       794 1.95292E-04 1.59143E-05 0.00000E+00
 -1       795 1.95334E-04 1.38791E-05 8.27181E-25
 -1       796 1.95377E-04 1.18651E-05 0.00000E+00
 -1       797 1.95419E-04 9.87425E-06 0.00000E+00
 -1       798 1.95461E-04 7.91056E-06-1.65436E-24
 -1       799 1.95504E-04 5.97829E-06 0.00000E+00
 -1       800 1.95546E-04 4.08477E-06 0.00000E+00
 -1       801 1.48592E-04 3.17551E-05 0.00000E+00
 -1       802 8.54295E-06 1.97957E-05 0.00000E+00
 -1       803-1.10950E-04 9.99639E-06 5.29396E-23
 -1       804-9.81128E-05 6.96476E-06 2.64698E-23
 -1       805-3.23994E-05 2.72479E-06-5.29396E-23
 -1       806 1.95666E-04 3.29446E-05 1.65436E-24
 -1       807 1.96397E-04 3.06060E-05 1.65436E-24
 -1       808 1.97116E-04 2.82990E-05 0.00000E+00
 -1       809 1.97821E-04 2.60277E-05 0.00000E+00
 -1       810 1.98511E-04 2.37962E-05 0.00000E+00
 -1       811 1.99185E-04 2.16084E-05 0.00000E+00
 -1       812 1.99841E-04 1.94681E-05-3.30872E-24
 -1       813 2.00477E-04 1.73794E-05 0.00000E+00
 -1       814 2.01094E-04 1.53462E-05-3.30872E-24
 -1       815 2.01688E-04 1.33723E-05 0.00000E+00
 -1       816 2.02258E-04 1.14617E-05 1.65436E-24
 -1       817 2.02803E-04 9.61815E-06 8.27181E-25
 -1       818 2.03322E-04 7.84567E-06 0.00000E+00
 -1       819 2.03813E-04 6.14808E-06-8.27181E-25
 -1       820 2.04276E-04 4.52921E-06 0.00000E+00
 -1       821 1.95460E-04-1.80709E-07 0.00000E+00
 -1       822 1.95319E-04-3.78124E-06-1.65436E-24
 -1       823 1.95176E-04-8.12724E-06-3.30872E-24
 -1       824 1.95031E-04-1.27772E-05 1.65436E-24
 -1       825 1.94886E-04-1.72072E-05 0.00000E+00
 -1       826 1.94744E-04-2.08948E-05-1.65436E-24
 -1       827 1.94604E-04-2.35199E-05 0.00000E+00
 -1       828 1.94468E-04-2.47689E-05 1.65436E-24
 -1       829 1.94332E-04-2.47032E-05 0.00000E+00
 -1       830 1.94195E-04-2.33922E-05 0.00000E+00
 -1       831 1.94057E-04-2.12449E-05 0.00000E+00
 -1       832 1.93919E-04-1.86750E-05 0.00000E+00
 -1       833 1.93781E-04-1.62118E-05 0.00000E+00
 -1       834 1.93645E-04-1.43839E-05 0.00000E+00
 -1       835 1.93510E-04-1.35471E-05 0.00000E+00
 -1       836 1.97323E-04 2.36271E-06 3.30872E-24
 -1       837 1.98929E-04 2.49112E-06 0.00000E+00
 -1       838 2.00439E-04 2.61948E-06 0.00000E+00
 -1       839 2.01885E-04 2.74714E-06 8.27181E-25
 -1       840 2.03298E-04 2.87464E-06 0.00000E+00
 -1       856 1.93368E-04-1.51553E-05 0.00000E+00
 -1       857 1.93349E-04-1.61236E-05-2.58494E-26
 -1       858 1.93330E-04-1.69773E-05 2.06795E-25
 -1       859 1.93311E-04-1.77375E-05-2.06795E-25
 -1       860 1.93292E-04-1.84254E-05 4.13590E-25
 -1       861 1.93272E-04-1.90624E-05 2.06795E-25
 -1       862 1.93253E-04-1.96696E-05 4.13590E-25
 -1       863 1.93234E-04-2.02685E-05 0.00000E+00
 -1       864 1.93214E-04-2.08803E-05 0.00000E+00
 -1       865 1.93195E-04-2.15265E-05 0.00000E+00
 -1       866 1.93175E-04-2.22281E-05 8.27181E-25
 -1       867 1.93156E-04-2.30066E-05-4.13590E-25
 -1       868 1.93136E-04-2.38831E-05 8.27181E-25
 -1       869 1.93116E-04-2.48788E-05 4.13590E-25
 -1       870 1.93096E-04-2.60146E-05 0.00000E+00
 -1       871 1.94776E-04-1.40563E-05 8.27181E-25
 -1       872 1.96316E-04-1.40648E-05 0.00000E+00
 -1       873 1.97936E-04-1.40740E-05 0.00000E+00
 -1       874 1.99566E-04-1.40839E-05-3.87741E-25
 -1       875 2.01139E-04-1.40944E-05 2.06795E-25
 -1       876 1.93925E-04-1.51407E-05 3.30872E-24
 -1       877 1.94444E-04-1.61632E-05-1.65436E-24
 -1       878 1.94941E-04-1.71270E-05 0.00000E+00
 -1       879 1.95420E-04-1.80392E-05-1.65436E-24
 -1       880 1.95882E-04-1.89075E-05 3.30872E-24
 -1       881 1.96330E-04-1.97390E-05 0.00000E+00
 -1       882 1.96767E-04-2.05412E-05-3.30872E-24
 -1       883 1.97197E-04-2.13214E-05 1.65436E-24
 -1       884 1.97620E-04-2.20870E-05 0.00000E+00
 -1       885 1.98041E-04-2.28452E-05 0.00000E+00
 -1       886 1.98462E-04-2.36034E-05 3.30872E-24
 -1       887 1.98885E-04-2.43690E-05-1.65436E-24
 -1       888 1.99314E-04-2.51493E-05-3.30872E-24
 -1       889 1.99751E-04-2.59518E-05 0.00000E+00
 -1       890 2.00197E-04-2.67838E-05 1.65436E-24
 -1       891 1.94479E-04-2.73692E-05 1.65436E-24
 -1       892 1.95861E-04-2.74270E-05 0.00000E+00
 -1       893 1.97194E-04-2.74847E-05 1.65436E-24
 -1       894 1.98453E-04-2.75421E-05-8.27181E-25
 -1       895 1.99614E-04-2.75993E-05-4.13590E-25
 -1       956 2.04578E-04 1.63169E-06-1.65436E-24
 -1       957 2.04446E-04 3.62456E-07 0.00000E+00
 -1       958 2.04313E-04-8.25663E-07 0.00000E+00
 -1       959 2.04180E-04-1.94406E-06 1.65436E-24
 -1       960 2.04047E-04-3.00420E-06 3.30872E-24
 -1       961 2.03913E-04-4.01756E-06 1.65436E-24
 -1       962 2.03780E-04-4.99562E-06 3.30872E-24
 -1       963 2.03647E-04-5.94991E-06 1.65436E-24
 -1       964 2.03514E-04-6.89194E-06 3.30872E-24
 -1       965 2.03381E-04-7.83319E-06 0.00000E+00
 -1       966 2.03248E-04-8.78521E-06 3.30872E-24
 -1       967 2.03115E-04-9.75949E-06 0.00000E+00
 -1       968 2.02982E-04-1.07675E-05-6.61744E-24
 -1       969 2.02850E-04-1.18208E-05 3.30872E-24
 -1       970 2.02717E-04-1.29307E-05-3.30872E-24
 -1       971 2.02466E-04-1.52860E-05 0.00000E+00
 -1       972 2.02345E-04-1.63694E-05 0.00000E+00
 -1       973 2.02223E-04-1.73687E-05 0.00000E+00
 -1       974 2.02102E-04-1.82948E-05 1.65436E-24
 -1       975 2.01980E-04-1.91586E-05 0.00000E+00
 -1       976 2.01859E-04-1.99709E-05-1.65436E-24
 -1       977 2.01737E-04-2.07425E-05 0.00000E+00
 -1       978 2.01616E-04-2.14844E-05 0.00000E+00
 -1       979 2.01494E-04-2.22075E-05 3.30872E-24
 -1       980 2.01372E-04-2.29225E-05 1.65436E-24
 -1       981 2.01251E-04-2.36405E-05 3.30872E-24
 -1       982 2.01130E-04-2.43723E-05 1.65436E-24
 -1       983 2.01008E-04-2.51287E-05-3.30872E-24
 -1       984 2.00888E-04-2.59207E-05-1.65436E-24
 -1       985 2.00767E-04-2.67592E-05 0.00000E+00
 -3
    1PSTEP                        48          24           1          
  100CL  124 6.62936E-01         409                     0   24           1
 -4  FORC        4    1
 -5  F1          1    2    1    0
 -5  F2          1    2    2    0
 -5  F3          1    2    3    0
 -5  ALL         1    2    0    0    1ALL
 -1         1-3.92825E-04 0.00000E+00 0.00000E+00
 -1         2 0.00000E+00 0.00000E+00 0.00000E+00
 -1         3 0.00000E+00 0.00000E+00 0.00000E+00
 -1         5 0.00000E+00 0.00000E+00 0.00000E+00
 -1         8 3.96013E-03-4.10173E-03 0.00000E+00
 -1         9-3.98867E-02 1.60372E-01 0.00000E+00
 -1        10-3.27852E-08 1.46254E-07 0.00000E+00
 -1        12 0.00000E+00 0.00000E+00 0.00000E+00
 -1        15 0.00000E+00 0.00000E+00 0.00000E+00
 -1        16-3.08223E-02-2.07504E-01 0.00000E+00
 -1        17-1.42661E-04 8.88666E-05 0.00000E+00
 -1        18 2.05380E-06 1.69075E-06 0.00000E+00
 -1        19 5.79962E-07-1.32071E-07 0.00000E+00
 -1        20-9.60197E-07 1.06383E-07 0.00000E+00
 -1        21 0.00000E+00 3.81927E-07 0.00000E+00
 -1        24-1.89257E-03 4.11244E-04 0.00000E+00
 -1        25 9.69576E-07-1.07967E-06 0.00000E+00
 -1        26-6.20032E-07-4.42987E-07 0.00000E+00
 -1        27-3.18868E-07 6.09719E-07 0.00000E+00
 -1        28-2.97861E-07 1.81642E-07 0.00000E+00
 -1        32 0.00000E+00 0.00000E+00 0.00000E+00
 -1        33-4.09426E-08-7.79818E-07 0.00000E+00
 -1        34-2.27189E-07-8.06232E-07 0.00000E+00
 -1        35-1.35160E-06-8.69394E-07 0.00000E+00
 -1        51 0.00000E+00 0.00000E+00 0.00000E+00
 -1        52 0.00000E+00 0.00000E+00 0.00000E+00
 -1        53 0.00000E+00 0.00000E+00 0.00000E+00
 -1        54 0.00000E+00 0.00000E+00 0.00000E+00
 -1        55 0.00000E+00 0.00000E+00 0.00000E+00
 -1        56 0.00000E+00 0.00000E+00 0.00000E+00
 -1        57 0.00000E+00 0.00000E+00 0.00000E+00
 -1        58 0.00000E+00 0.00000E+00 0.00000E+00
 -1        59 0.00000E+00 0.00000E+00 0.00000E+00
 -1        60 0.00000E+00 0.00000E+00 0.00000E+00
 -1        61 0.00000E+00 0.00000E+00 0.00000E+00
 -1        62 0.00000E+00 0.00000E+00 0.00000E+00
 -1        63 0.00000E+00 0.00000E+00 0.00000E+00
 -1        64 0.00000E+00 0.00000E+00 0.00000E+00
 -1        65 0.00000E+00 0.00000E+00 0.00000E+00
 -1        66 0.00000E+00 0.00000E+00 0.00000E+00
 -1        67 0.00000E+00 0.00000E+00 0.00000E+00
 -1        68 0.00000E+00 0.00000E+00 0.00000E+00
 -1        69 0.00000E+00 0.00000E+00 0.00000E+00
 -1        70 0.00000E+00 0.00000E+00 0.00000E+00
 -1        86 0.00000E+00 0.00000E+00 0.00000E+00
 -1        87 0.00000E+00 0.00000E+00 0.00000E+00
 -1        88 0.00000E+00 0.00000E+00 0.00000E+00
 -1        89 0.00000E+00 0.00000E+00 0.00000E+00
 -1        90 0.00000E+00 0.00000E+00 0.00000E+00
 -1       121 0.00000E+00 0.00000E+00 0.00000E+00
 -1       122 0.00000E+00 0.00000E+00 0.00000E+00
 -1       123 0.00000E+00 0.00000E+00 0.00000E+00
 -1       124 0.00000E+00 0.00000E+00 0.00000E+00
 -1       125 0.00000E+00 0.00000E+00 0.00000E+00
 -1       191 0.00000E+00 0.00000E+00 0.00000E+00
 -1       192 0.00000E+00 0.00000E+00 0.00000E+00
 -1       193 0.00000E+00 0.00000E+00 0.00000E+00
 -1       194 0.00000E+00 0.00000E+00 0.00000E+00
 -1       195 0.00000E+00 0.00000E+00 0.00000E+00
 -1       251 0.00000E+00 0.00000E+00 0.00000E+00
 -1       252 0.00000E+00 0.00000E+00 0.00000E+00
 -1       253 0.00000E+00 0.00000E+00 0.00000E+00
 -1       254 0.00000E+00 0.00000E+00 0.00000E+00
 -1       255 0.00000E+00 0.00000E+00 0.00000E+00
 -1       256 0.00000E+00 0.00000E+00 0.00000E+00
 -1       257 0.00000E+00 0.00000E+00 0.00000E+00
 -1       258 0.00000E+00 0.00000E+00 0.00000E+00
 -1       259 0.00000E+00 0.00000E+00 0.00000E+00
 -1       260 0.00000E+00 0.00000E+00 0.00000E+00
 -1       261 0.00000E+00 0.00000E+00 0.00000E+00
 -1       262 0.00000E+00 0.00000E+00 0.00000E+00
 -1       263 0.00000E+00 0.00000E+00 0.00000E+00
 -1       264 0.00000E+00 0.00000E+00 0.00000E+00
 -1       265 0.00000E+00 0.00000E+00 0.00000E+00
 -1       266 0.00000E+00 0.00000E+00 0.00000E+00
 -1       267 0.00000E+00 0.00000E+00 0.00000E+00
 -1       268 0.00000E+00 0.00000E+00 0.00000E+00
 -1       269 0.00000E+00 0.00000E+00 0.00000E+00
 -1       270 0.00000E+00 0.00000E+00 0.00000E+00
 -1       271 0.00000E+00 0.00000E+00 0.00000E+00
 -1       272 0.00000E+00 0.00000E+00 0.00000E+00
 -1       273 0.00000E+00 0.00000E+00 0.00000E+00
 -1       274 0.00000E+00 0.00000E+00 0.00000E+00
 -1       275 0.00000E+00 0.00000E+00 0.00000E+00
 -1       276 0.00000E+00 0.00000E+00 0.00000E+00
 -1       277 0.00000E+00 0.00000E+00 0.00000E+00
 -1       278 0.00000E+00 0.00000E+00 0.00000E+00
 -1       279 0.00000E+00 0.00000E+00 0.00000E+00
 -1       280 0.00000E+00 0.00000E+00 0.00000E+00
 -1       281 0.00000E+00 0.00000E+00 0.00000E+00
 -1       282 0.00000E+00 0.00000E+00 0.00000E+00
 -1       283 0.00000E+00 0.00000E+00 0.00000E+00
 -1       284 0.00000E+00 0.00000E+00 0.00000E+00
 -1       285 0.00000E+00 0.00000E+00 0.00000E+00
 -1       301 0.00000E+00 0.00000E+00 0.00000E+00
 -1       302 0.00000E+00 0.00000E+00 0.00000E+00
 -1       303 0.00000E+00 0.00000E+00 0.00000E+00
 -1       304 0.00000E+00 0.00000E+00 0.00000E+00
 -1       305 0.00000E+00 0.00000E+00 0.00000E+00
 -1       306 0.00000E+00 0.00000E+00 0.00000E+00
 -1       307 0.00000E+00 0.00000E+00 0.00000E+00
 -1       308 0.00000E+00 0.00000E+00 0.00000E+00
 -1       309 0.00000E+00 0.00000E+00 0.00000E+00
 -1       310 0.00000E+00 0.00000E+00 0.00000E+00
 -1       311 0.00000E+00 0.00000E+00 0.00000E+00
 -1       312 0.00000E+00 0.00000E+00 0.00000E+00
 -1       313 0.00000E+00 0.00000E+00 0.00000E+00
 -1       314 0.00000E+00 0.00000E+00 0.00000E+00
 -1       315 0.00000E+00 0.00000E+00 0.00000E+00
 -1       316 0.00000E+00 0.00000E+00 0.00000E+00
 -1       317 0.00000E+00 0.00000E+00 0.00000E+00
 -1       318 0.00000E+00 0.00000E+00 0.00000E+00
 -1       319 0.00000E+00 0.00000E+00 0.00000E+00
 -1       320 0.00000E+00 0.00000E+00 0.00000E+00
 -1       336 0.00000E+00 0.00000E+00 0.00000E+00
 -1       337 0.00000E+00 0.00000E+00 0.00000E+00
 -1       338 0.00000E+00 0.00000E+00 0.00000E+00
 -1       339 0.00000E+00 0.00000E+00 0.00000E+00
 -1       340 0.00000E+00 0.00000E+00 0.00000E+00
 -1       406 0.00000E+00 0.00000E+00 0.00000E+00
 -1       407 0.00000E+00 0.00000E+00 0.00000E+00
 -1       408 0.00000E+00 0.00000E+00 0.00000E+00
 -1       409 0.00000E+00 0.00000E+00 0.00000E+00
 -1       410 0.00000E+00 0.00000E+00 0.00000E+00
 -1       521 0.00000E+00 0.00000E+00 0.00000E+00
 -1       522 0.00000E+00 0.00000E+00 0.00000E+00
 -1       523 0.00000E+00 0.00000E+00 0.00000E+00
 -1       524 0.00000E+00 0.00000E+00 0.00000E+00
 -1       525 0.00000E+00 0.00000E+00 0.00000E+00
 -1       526 0.00000E+00 0.00000E+00 0.00000E+00
 -1       527 0.00000E+00 0.00000E+00 0.00000E+00
 -1       528 0.00000E+00 0.00000E+00 0.00000E+00
 -1       529 0.00000E+00 0.00000E+00 0.00000E+00
 -1       530 0.00000E+00 0.00000E+00 0.00000E+00
 -1       531 0.00000E+00 0.00000E+00 0.00000E+00
 -1       532 0.00000E+00 0.00000E+00 0.00000E+00
 -1       533 0.00000E+00 0.00000E+00 0.00000E+00
 -1       534 0.00000E+00 0.00000E+00 0.00000E+00
 -1       535 0.00000E+00 0.00000E+00 0.00000E+00
 -1       536 0.00000E+00 0.00000E+00 0.00000E+00
 -1       537 0.00000E+00 0.00000E+00 0.00000E+00
 -1       538 0.00000E+00 0.00000E+00 0.00000E+00
 -1       539 0.00000E+00 0.00000E+00 0.00000E+00
 -1       540 0.00000E+00 0.00000E+00 0.00000E+00
 -1       541 0.00000E+00 0.00000E+00 0.00000E+00
 -1       542 0.00000E+00 0.00000E+00 0.00000E+00
 -1       543 0.00000E+00 0.00000E+00 0.00000E+00
 -1       544 0.00000E+00 0.00000E+00 0.00000E+00
 -1       545 0.00000E+00 0.00000E+00 0.00000E+00
 -1       546 0.00000E+00 0.00000E+00 0.00000E+00
 -1       547 0.00000E+00 0.00000E+00 0.00000E+00
 -1       548 0.00000E+00 0.00000E+00 0.00000E+00
 -1       549 0.00000E+00 0.00000E+00 0.00000E+00
 -1       550 0.00000E+00 0.00000E+00 0.00000E+00
 -1       551 0.00000E+00 0.00000E+00 0.00000E+00
 -1       552 0.00000E+00 0.00000E+00 0.00000E+00
 -1       553 0.00000E+00 0.00000E+00 0.00000E+00
 -1       554 0.00000E+00 0.00000E+00 0.00000E+00
 -1       555 0.00000E+00 0.00000E+00 0.00000E+00
 -1       556 0.00000E+00 0.00000E+00 0.00000E+00
 -1       557 0.00000E+00 0.00000E+00 0.00000E+00
 -1       558 0.00000E+00 0.00000E+00 0.00000E+00
 -1       559 0.00000E+00 0.00000E+00 0.00000E+00
 -1       560 0.00000E+00 0.00000E+00 0.00000E+00
 -1       561 0.00000E+00 0.00000E+00 0.00000E+00
 -1       562 0.00000E+00 0.00000E+00 0.00000E+00
 -1       563 0.00000E+00 0.00000E+00 0.00000E+00
 -1       564 0.00000E+00 0.00000E+00 0.00000E+00
 -1       565 0.00000E+00 0.00000E+00 0.00000E+00
 -1       566 0.00000E+00 0.00000E+00 0.00000E+00
 -1       567 0.00000E+00 0.00000E+00 0.00000E+00
 -1       568 0.00000E+00 0.00000E+00 0.00000E+00
 -1       569 0.00000E+00 0.00000E+00 0.00000E+00
 -1       570 0.00000E+00 0.00000E+00 0.00000E+00
 -1       571 0.00000E+00 0.00000E+00 0.00000E+00
 -1       572 0.00000E+00 0.00000E+00 0.00000E+00
 -1       573 0.00000E+00 0.00000E+00 0.00000E+00
 -1       574 0.00000E+00 0.00000E+00 0.00000E+00
 -1       575 0.00000E+00 0.00000E+00 0.00000E+00
 -1       576 0.00000E+00 0.00000E+00 0.00000E+00
 -1       577 0.00000E+00 0.00000E+00 0.00000E+00
 -1       578 0.00000E+00 0.00000E+00 0.00000E+00
 -1       579 0.00000E+00 0.00000E+00 0.00000E+00
 -1       580 0.00000E+00 0.00000E+00 0.00000E+00
 -1       581 0.00000E+00 0.00000E+00 0.00000E+00
 -1       582 0.00000E+00 0.00000E+00 0.00000E+00
 -1       583 0.00000E+00 0.00000E+00 0.00000E+00
 -1       584 0.00000E+00 0.00000E+00 0.00000E+00
 -1       585 0.00000E+00 0.00000E+00 0.00000E+00
 -1       586 0.00000E+00 0.00000E+00 0.00000E+00
 -1       587 0.00000E+00 0.00000E+00 0.00000E+00
 -1       588 0.00000E+00 0.00000E+00 0.00000E+00
 -1       589 0.00000E+00 0.00000E+00 0.00000E+00
 -1       590 0.00000E+00 0.00000E+00 0.00000E+00
 -1       591 0.00000E+00 0.00000E+00 0.00000E+00
 -1       592 0.00000E+00 0.00000E+00 0.00000E+00
 -1       593 0.00000E+00 0.00000E+00 0.00000E+00
 -1       594 0.00000E+00 0.00000E+00 0.00000E+00
 -1       595 0.00000E+00 0.00000E+00 0.00000E+00
 -1       596 0.00000E+00 0.00000E+00 0.00000E+00
 -1       597 0.00000E+00 0.00000E+00 0.00000E+00
 -1       598 0.00000E+00 0.00000E+00 0.00000E+00
 -1       599 0.00000E+00 0.00000E+00 0.00000E+00
 -1       600 0.00000E+00 0.00000E+00 0.00000E+00
 -1       601 0.00000E+00 0.00000E+00 0.00000E+00
 -1       602 0.00000E+00 0.00000E+00 0.00000E+00
 -1       603 0.00000E+00 0.00000E+00 0.00000E+00
 -1       604 0.00000E+00 0.00000E+00 0.00000E+00
 -1       605 0.00000E+00 0.00000E+00 0.00000E+00
 -1       606 0.00000E+00 0.00000E+00 0.00000E+00
 -1       607 0.00000E+00 0.00000E+00 0.00000E+00
 -1       608 0.00000E+00 0.00000E+00 0.00000E+00
 -1       609 0.00000E+00 0.00000E+00 0.00000E+00
 -1       610 0.00000E+00 0.00000E+00 0.00000E+00
 -1       611 0.00000E+00 0.00000E+00 0.00000E+00
 -1       612 0.00000E+00 0.00000E+00 0.00000E+00
 -1       613 0.00000E+00 0.00000E+00 0.00000E+00
 -1       614 0.00000E+00 0.00000E+00 0.00000E+00
 -1       615 0.00000E+00 0.00000E+00 0.00000E+00
 -1       616 0.00000E+00 0.00000E+00 0.00000E+00
 -1       617 0.00000E+00 0.00000E+00 0.00000E+00
 -1       618 0.00000E+00 0.00000E+00 0.00000E+00
 -1       619 0.00000E+00 0.00000E+00 0.00000E+00
 -1       620 0.00000E+00 0.00000E+00 0.00000E+00
 -1       621 0.00000E+00 0.00000E+00 0.00000E+00
 -1       622 0.00000E+00 0.00000E+00 0.00000E+00
 -1       623 0.00000E+00 0.00000E+00 0.00000E+00
 -1       624 0.00000E+00 0.00000E+00 0.00000E+00
 -1       625 0.00000E+00 0.00000E+00 0.00000E+00
 -1       626 0.00000E+00 0.00000E+00 0.00000E+00
 -1       627 0.00000E+00 0.00000E+00 0.00000E+00
 -1       628 0.00000E+00 0.00000E+00 0.00000E+00
 -1       629 0.00000E+00 0.00000E+00 0.00000E+00
 -1       630 0.00000E+00 0.00000E+00 0.00000E+00
 -1       631 0.00000E+00 0.00000E+00 0.00000E+00
 -1       632 0.00000E+00 0.00000E+00 0.00000E+00
 -1       633 0.00000E+00 0.00000E+00 0.00000E+00
 -1       634 0.00000E+00 0.00000E+00 0.00000E+00
 -1       635 0.00000E+00 0.00000E+00 0.00000E+00
 -1       636 0.00000E+00 0.00000E+00 0.00000E+00
 -1       637 0.00000E+00 0.00000E+00 0.00000E+00
 -1       638 0.00000E+00 0.00000E+00 0.00000E+00
 -1       639 0.00000E+00 0.00000E+00 0.00000E+00
 -1       640 0.00000E+00 0.00000E+00 0.00000E+00
 -1       656 0.00000E+00 0.00000E+00 0.00000E+00
 -1       657 0.00000E+00 0.00000E+00 0.00000E+00
 -1       658 0.00000E+00 0.00000E+00 0.00000E+00
 -1       659 0.00000E+00 0.00000E+00 0.00000E+00
 -1       660 0.00000E+00 0.00000E+00 0.00000E+00
 -1       661 0.00000E+00 0.00000E+00 0.00000E+00
 -1       662 0.00000E+00 0.00000E+00 0.00000E+00
 -1       663 0.00000E+00 0.00000E+00 0.00000E+00
 -1       664 0.00000E+00 0.00000E+00 0.00000E+00
 -1       665 0.00000E+00 0.00000E+00 0.00000E+00
 -1       666 0.00000E+00 0.00000E+00 0.00000E+00
 -1       667 0.00000E+00 0.00000E+00 0.00000E+00
 -1       668 0.00000E+00 0.00000E+00 0.00000E+00
 -1       669 0.00000E+00 0.00000E+00 0.00000E+00
 -1       670 0.00000E+00 0.00000E+00 0.00000E+00
 -1       671 0.00000E+00 0.00000E+00 0.00000E+00
 -1       672 0.00000E+00 0.00000E+00 0.00000E+00
 -1       673 0.00000E+00 0.00000E+00 0.00000E+00
 -1       674 0.00000E+00 0.00000E+00 0.00000E+00
 -1       675 0.00000E+00 0.00000E+00 0.00000E+00
 -1       676 0.00000E+00 0.00000E+00 0.00000E+00
 -1       677 0.00000E+00 0.00000E+00 0.00000E+00
 -1       678 0.00000E+00 0.00000E+00 0.00000E+00
 -1       679 0.00000E+00 0.00000E+00 0.00000E+00
 -1       680 0.00000E+00 0.00000E+00 0.00000E+00
 -1       771 0.00000E+00 0.00000E+00 0.00000E+00
 -1       772 0.00000E+00 0.00000E+00 0.00000E+00
 -1       773 0.00000E+00 0.00000E+00 0.00000E+00
 -1       774 0.00000E+00 0.00000E+00 0.00000E+00
 -1       775 0.00000E+00 0.00000E+00 0.00000E+00
 -1       776 0.00000E+00 0.00000E+00 0.00000E+00
 -1       777 0.00000E+00 0.00000E+00 0.00000E+00
 -1       778 0.00000E+00 0.00000E+00 0.00000E+00
 -1       779 0.00000E+00 0.00000E+00 0.00000E+00
 -1       780 0.00000E+00 0.00000E+00 0.00000E+00
 -1       781 0.00000E+00 0.00000E+00 0.00000E+00
 -1       782 0.00000E+00 0.00000E+00 0.00000E+00
 -1       783 0.00000E+00 0.00000E+00 0.00000E+00
 -1       784 0.00000E+00 0.00000E+00 0.00000E+00
 -1       785 0.00000E+00 0.00000E+00 0.00000E+00
 -1       786 0.00000E+00 0.00000E+00 0.00000E+00
 -1       787 0.00000E+00 0.00000E+00 0.00000E+00
 -1       788 0.00000E+00 0.00000E+00 0.00000E+00
 -1       789 0.00000E+00 0.00000E+00 0.00000E+00
 -1       790 0.00000E+00 0.00000E+00 0.00000E+00
 -1       791 0.00000E+00 0.00000E+00 0.00000E+00
 -1       792 0.00000E+00 0.00000E+00 0.00000E+00
 -1       793 0.00000E+00 0.00000E+00 0.00000E+00
 -1       794 0.00000E+00 0.00000E+00 0.00000E+00
 -1       795 0.00000E+00 0.00000E+00 0.00000E+00
 -1       796 0.00000E+00 0.00000E+00 0.00000E+00
 -1       797 0.00000E+00 0.00000E+00 0.00000E+00
 -1       798 0.00000E+00 0.00000E+00 0.00000E+00
 -1       799 0.00000E+00 0.00000E+00 0.00000E+00
 -1       800 0.00000E+00 0.00000E+00 0.00000E+00
 -1       801 0.00000E+00 0.00000E+00 0.00000E+00
 -1       802 0.00000E+00 0.00000E+00 0.00000E+00
 -1       803 0.00000E+00 0.00000E+00 0.00000E+00
 -1       804 0.00000E+00 0.00000E+00 0.00000E+00
 -1       805 0.00000E+00 0.00000E+00 0.00000E+00
 -1       806 0.00000E+00 0.00000E+00 0.00000E+00
 -1       807 0.00000E+00 0.00000E+00 0.00000E+00
 -1       808 0.00000E+00 0.00000E+00 0.00000E+00
 -1       809 0.00000E+00 0.00000E+00 0.00000E+00
 -1       810 0.00000E+00 0.00000E+00 0.00000E+00
 -1       811 0.00000E+00 0.00000E+00 0.00000E+00
 -1       812 0.00000E+00 0.00000E+00 0.00000E+00
 -1       813 0.00000E+00 0.00000E+00 0.00000E+00
 -1       814 0.00000E+00 0.00000E+00 0.00000E+00
 -1       815 0.00000E+00 0.00000E+00 0.00000E+00
 -1       816 0.00000E+00 0.00000E+00 0.00000E+00
 -1       817 0.00000E+00 0.00000E+00 0.00000E+00
 -1       818 0.00000E+00 0.00000E+00 0.00000E+00
 -1       819 0.00000E+00 0.00000E+00 0.00000E+00
 -1       820 0.00000E+00 0.00000E+00 0.00000E+00
 -1       821 0.00000E+00 0.00000E+00 0.00000E+00
 -1       822 0.00000E+00 0.00000E+00 0.00000E+00
 -1       823 0.00000E+00 0.00000E+00 0.00000E+00
 -1       824 0.00000E+00 0.00000E+00 0.00000E+00
 -1       825 0.00000E+00 0.00000E+00 0.00000E+00
 -1       826 0.00000E+00 0.00000E+00 0.00000E+00
 -1       827 0.00000E+00 0.00000E+00 0.00000E+00
 -1       828 0.00000E+00 0.00000E+00 0.00000E+00
 -1       829 0.00000E+00 0.00000E+00 0.00000E+00
 -1       830 0.00000E+00 0.00000E+00 0.00000E+00
 -1       831 0.00000E+00 0.00000E+00 0.00000E+00
 -1       832 0.00000E+00 0.00000E+00 0.00000E+00
 -1       833 0.00000E+00 0.00000E+00 0.00000E+00
 -1       834 0.00000E+00 0.00000E+00 0.00000E+00
 -1       835 0.00000E+00 0.00000E+00 0.00000E+00
 -1       836 0.00000E+00 0.00000E+00 0.00000E+00
 -1       837 0.00000E+00 0.00000E+00 0.00000E+00
 -1       838 0.00000E+00 0.00000E+00 0.00000E+00
 -1       839 0.00000E+00 0.00000E+00 0.00000E+00
 -1       840 0.00000E+00 0.00000E+00 0.00000E+00
 -1       856 0.00000E+00 0.00000E+00 0.00000E+00
 -1       857 0.00000E+00 0.00000E+00 0.00000E+00
 -1       858 0.00000E+00 0.00000E+00 0.00000E+00
 -1       859 0.00000E+00 0.00000E+00 0.00000E+00
 -1       860 0.00000E+00 0.00000E+00 0.00000E+00
 -1       861 0.00000E+00 0.00000E+00 0.00000E+00
 -1       862 0.00000E+00 0.00000E+00 0.00000E+00
 -1       863 0.00000E+00 0.00000E+00 0.00000E+00
 -1       864 0.00000E+00 0.00000E+00 0.00000E+00
 -1       865 0.00000E+00 0.00000E+00 0.00000E+00
 -1       866 0.00000E+00 0.00000E+00 0.00000E+00
 -1       867 0.00000E+00 0.00000E+00 0.00000E+00
 -1       868 0.00000E+00 0.00000E+00 0.00000E+00
 -1       869 0.00000E+00 0.00000E+00 0.00000E+00
 -1       870 0.00000E+00 0.00000E+00 0.00000E+00
 -1       871 0.00000E+00 0.00000E+00 0.00000E+00
 -1       872 0.00000E+00 0.00000E+00 0.00000E+00
 -1       873 0.00000E+00 0.00000E+00 0.00000E+00
 -1       874 0.00000E+00 0.00000E+00 0.00000E+00
 -1       875 0.00000E+00 0.00000E+00 0.00000E+00
 -1       876 0.00000E+00 0.00000E+00 0.00000E+00
 -1       877 0.00000E+00 0.00000E+00 0.00000E+00
 -1       878 0.00000E+00 0.00000E+00 0.00000E+00
 -1       879 0.00000E+00 0.00000E+00 0.00000E+00
 -1       880 0.00000E+00 0.00000E+00 0.00000E+00
 -1       881 0.00000E+00 0.00000E+00 0.00000E+00
 -1       882 0.00000E+00 0.00000E+00 0.00000E+00
 -1       883 0.00000E+00 0.00000E+00 0.00000E+00
 -1       884 0.00000E+00 0.00000E+00 0.00000E+00
 -1       885 0.00000E+00 0.00000E+00 0.00000E+00
 -1       886 0.00000E+00 0.00000E+00 0.00000E+00
 -1       887 0.00000E+00 0.00000E+00 0.00000E+00
 -1       888 0.00000E+00 0.00000E+00 0.00000E+00
 -1       889 0.00000E+00 0.00000E+00 0.00000E+00
 -1       890 0.00000E+00 0.00000E+00 0.00000E+00
 -1       891 0.00000E+00 0.00000E+00 0.00000E+00
 -1       892 0.00000E+00 0.00000E+00 0.00000E+00
 -1       893 0.00000E+00 0.00000E+00 0.00000E+00
 -1       894 0.00000E+00 0.00000E+00 0.00000E+00
 -1       895 0.00000E+00 0.00000E+00 0.00000E+00
 -1       956 0.00000E+00 0.00000E+00 0.00000E+00
 -1       957 0.00000E+00 0.00000E+00 0.00000E+00
 -1       958 0.00000E+00 0.00000E+00 0.00000E+00
 -1       959 0.00000E+00 0.00000E+00 0.00000E+00
 -1       960 0.00000E+00 0.00000E+00 0.00000E+00
 -1       961 0.00000E+00 0.00000E+00 0.00000E+00
 -1       962 0.00000E+00 0.00000E+00 0.00000E+00
 -1       963 0.00000E+00 0.00000E+00 0.00000E+00
 -1       964 0.00000E+00 0.00000E+00 0.00000E+00
 -1       965 0.00000E+00 0.00000E+00 0.00000E+00
 -1       966 0.00000E+00 0.00000E+00 0.00000E+00
 -1       967 0.00000E+00 0.00000E+00 0.00000E+00
 -1       968 0.00000E+00 0.00000E+00 0.00000E+00
 -1       969 0.00000E+00 0.00000E+00 0.00000E+00
 -1       970 0.00000E+00 0.00000E+00 0.00000E+00
 -1       971 0.00000E+00 0.00000E+00 0.00000E+00
 -1       972 0.00000E+00 0.00000E+00 0.00000E+00
 -1       973 0.00000E+00 0.00000E+00 0.00000E+00
 -1       974 0.00000E+00 0.00000E+00 0.00000E+00
 -1       975 0.00000E+00 0.00000E+00 0.00000E+00
 -1       976 0.00000E+00 0.00000E+00 0.00000E+00
 -1       977 0.00000E+00 0.00000E+00 0.00000E+00
 -1       978 0.00000E+00 0.00000E+00 0.00000E+00
 -1       979 0.00000E+00 0.00000E+00 0.00000E+00
 -1       980 0.00000E+00 0.00000E+00 0.00000E+00
 -1       981 0.00000E+00 0.00000E+00 0.00000E+00
 -1       982 0.00000E+00 0.00000E+00 0.00000E+00
 -1       983 0.00000E+00 0.00000E+00 0.00000E+00
 -1       984 0.00000E+00 0.00000E+00 0.00000E+00
 -1       985 0.00000E+00 0.00000E+00 0.00000E+00
 -3
