
 stresses (elem, integ.pnt.,sxx,syy,szz,sxy,sxz,syz) for set ELALL and time  0.1000000E+01

         1   1  3.417891E+06  1.860847E+05  2.225554E+05  9.153488E+04  1.509640E+05  2.214173E+01
         1   2  3.392991E+06  2.625438E+03  1.039408E+05  3.272904E+04  9.603513E+04  5.036433E+00
         1   3  3.418202E+06 -8.636724E+03  6.400126E+04 -2.607428E+04  4.110491E+04 -1.717304E+00
         1   4  3.417882E+06  1.860691E+05  2.225532E+05 -4.433582E-09  1.509640E+05  8.096498E-11
         1   5  3.392990E+06  2.623436E+03  1.039405E+05 -1.576046E-09  9.603513E+04  1.443877E-10
         1   6  3.418201E+06 -8.637995E+03  6.400108E+04  8.178596E-10  4.110491E+04 -1.556223E-11
         1   7  3.417891E+06  1.860847E+05  2.225554E+05 -9.153488E+04  1.509640E+05 -2.214173E+01
         1   8  3.392991E+06  2.625438E+03  1.039408E+05 -3.272904E+04  9.603513E+04 -5.036433E+00
         1   9  3.418202E+06 -8.636724E+03  6.400126E+04  2.607428E+04  4.110491E+04  1.717304E+00
         1  10  3.417867E+06  1.860787E+05  2.225128E+05  9.153488E+04 -2.564468E-10 -1.642348E-10
         1  11  3.392981E+06  2.622978E+03  1.039235E+05  3.272904E+04 -1.298088E-09 -8.357239E-11
         1  12  3.418200E+06 -8.637175E+03  6.399810E+04 -2.607428E+04  6.265275E-10 -1.685552E-10
         1  13  3.417858E+06  1.860630E+05  2.225106E+05  9.758753E-10  1.617849E-09  5.421356E-11
         1  14  3.392980E+06  2.620976E+03  1.039232E+05  5.376597E-09  1.097558E-09 -3.072280E-11
         1  15  3.418199E+06 -8.638445E+03  6.399792E+04  5.245059E-09 -4.377381E-10 -4.328388E-10
         1  16  3.417867E+06  1.860787E+05  2.225128E+05 -9.153488E+04  3.879843E-10 -3.746029E-11
         1  17  3.392981E+06  2.622978E+03  1.039235E+05 -3.272904E+04  1.146620E-09  2.763149E-11
         1  18  3.418200E+06 -8.637175E+03  6.399810E+04  2.607428E+04 -1.696678E-09 -4.652301E-10
         1  19  3.417891E+06  1.860847E+05  2.225554E+05  9.153488E+04 -1.509640E+05 -2.214173E+01
         1  20  3.392991E+06  2.625438E+03  1.039408E+05  3.272904E+04 -9.603513E+04 -5.036433E+00
         1  21  3.418202E+06 -8.636724E+03  6.400126E+04 -2.607428E+04 -4.110491E+04  1.717304E+00
         1  22  3.417882E+06  1.860691E+05  2.225532E+05 -2.238595E-09 -1.509640E+05  5.038097E-11
         1  23  3.392990E+06  2.623436E+03  1.039405E+05  4.778352E-09 -9.603513E+04 -1.291131E-10
         1  24  3.418201E+06 -8.637995E+03  6.400108E+04 -3.157403E-10 -4.110491E+04 -8.588724E-10
         1  25  3.417891E+06  1.860847E+05  2.225554E+05 -9.153488E+04 -1.509640E+05  2.214173E+01
         1  26  3.392991E+06  2.625438E+03  1.039408E+05 -3.272904E+04 -9.603513E+04  5.036433E+00
         1  27  3.418202E+06 -8.636724E+03  6.400126E+04  2.607428E+04 -4.110491E+04 -1.717304E+00
         2   1  3.408113E+06  9.393256E+03  5.336508E+04  3.665495E+03  3.174230E+04  1.864315E-01
         2   2  3.405652E+06 -3.497254E+02  3.690589E+04  1.118460E+03  1.328270E+04  2.380433E-02
         2   3  3.408138E+06  1.452502E+02  3.497653E+04 -1.428582E+03 -5.176753E+03  1.184977E-02
         2   4  3.408113E+06  9.393231E+03  5.336507E+04  2.474716E-09  3.174230E+04 -2.275000E-10
         2   5  3.405652E+06 -3.497278E+02  3.690589E+04 -1.240212E-09  1.328270E+04 -4.369555E-10
         2   6  3.408138E+06  1.452464E+02  3.497653E+04 -7.453154E-09 -5.176753E+03 -8.838424E-11
         2   7  3.408113E+06  9.393256E+03  5.336508E+04 -3.665495E+03  3.174230E+04 -1.864315E-01
         2   8  3.405652E+06 -3.497254E+02  3.690589E+04 -1.118460E+03  1.328270E+04 -2.380433E-02
         2   9  3.408138E+06  1.452502E+02  3.497653E+04  1.428582E+03 -5.176753E+03 -1.184977E-02
         2  10  3.408112E+06  9.392988E+03  5.336319E+04  3.665495E+03 -2.458018E-10 -1.875921E-10
         2  11  3.405652E+06 -3.497725E+02  3.690556E+04  1.118460E+03 -2.540788E-10  7.173880E-12
         2  12  3.408138E+06  1.452431E+02  3.497648E+04 -1.428582E+03 -2.060742E-10 -6.146272E-11
         2  13  3.408112E+06  9.392962E+03  5.336319E+04  5.773301E-09 -6.834451E-10 -4.189235E-10
         2  14  3.405652E+06 -3.497748E+02  3.690556E+04 -1.189587E-09 -7.309948E-10 -3.489557E-11
         2  15  3.408138E+06  1.452393E+02  3.497648E+04 -1.976799E-09  1.689536E-09  9.783230E-11
         2  16  3.408112E+06  9.392988E+03  5.336319E+04 -3.665495E+03 -2.600575E-10 -7.752545E-10
         2  17  3.405652E+06 -3.497725E+02  3.690556E+04 -1.118460E+03 -1.083270E-09 -5.616684E-11
         2  18  3.408138E+06  1.452431E+02  3.497648E+04  1.428582E+03  7.546113E-10  2.593509E-10
         2  19  3.408113E+06  9.393256E+03  5.336508E+04  3.665495E+03 -3.174230E+04 -1.864315E-01
         2  20  3.405652E+06 -3.497254E+02  3.690589E+04  1.118460E+03 -1.328270E+04 -2.380433E-02
         2  21  3.408138E+06  1.452502E+02  3.497653E+04 -1.428582E+03  5.176753E+03 -1.184977E-02
         2  22  3.408113E+06  9.393231E+03  5.336507E+04 -5.285564E-10 -3.174230E+04 -5.530574E-10
         2  23  3.405652E+06 -3.497278E+02  3.690589E+04 -1.109443E-09 -1.328270E+04  5.671911E-10
         2  24  3.408138E+06  1.452464E+02  3.497653E+04 -7.208855E-09  5.176753E+03  3.235120E-10
         2  25  3.408113E+06  9.393256E+03  5.336508E+04 -3.665495E+03 -3.174230E+04  1.864315E-01
         2  26  3.405652E+06 -3.497254E+02  3.690589E+04 -1.118460E+03 -1.328270E+04  2.380433E-02
         2  27  3.408138E+06  1.452502E+02  3.497653E+04  1.428582E+03  5.176753E+03  1.184977E-02
         3   1  3.408758E+06 -6.044237E+02  3.778428E+04  3.107632E+03 -1.160688E+04 -5.779523E-02
         3   2  3.404861E+06 -4.269724E+02  5.245754E+04 -1.513912E+03 -3.790085E+04  9.193898E-02
         3   3  3.408697E+06  1.708198E+04  8.851591E+04 -6.135332E+03 -6.419507E+04  6.310865E-01
         3   4  3.408758E+06 -6.044418E+02  3.778428E+04 -1.556376E-09 -1.160688E+04  9.072865E-11
         3   5  3.404861E+06 -4.269767E+02  5.245754E+04  1.198748E-09 -3.790085E+04  1.679485E-10
         3   6  3.408697E+06  1.708191E+04  8.851590E+04 -2.769429E-09 -6.419507E+04  1.274925E-10
         3   7  3.408758E+06 -6.044237E+02  3.778428E+04 -3.107632E+03 -1.160688E+04  5.779524E-02
         3   8  3.404861E+06 -4.269724E+02  5.245754E+04  1.513912E+03 -3.790085E+04 -9.193898E-02
         3   9  3.408697E+06  1.708198E+04  8.851591E+04  6.135332E+03 -6.419507E+04 -6.310865E-01
         3  10  3.408758E+06 -6.044597E+02  3.778403E+04  3.107632E+03  7.124204E-10 -9.662975E-11
         3  11  3.404859E+06 -4.273555E+02  5.245485E+04 -1.513912E+03  1.103815E-09 -1.659805E-10
         3  12  3.408693E+06  1.708088E+04  8.850821E+04 -6.135332E+03  2.080736E-10  2.501352E-10
         3  13  3.408758E+06 -6.044777E+02  3.778403E+04  1.670487E-09  1.001868E-09  4.432070E-11
         3  14  3.404859E+06 -4.273598E+02  5.245485E+04  6.932878E-10  1.651489E-09  2.358565E-11
         3  15  3.408693E+06  1.708081E+04  8.850820E+04 -2.693492E-09 -6.742544E-10  1.499551E-10
         3  16  3.408758E+06 -6.044597E+02  3.778403E+04 -3.107632E+03  6.005713E-10  1.290252E-10
         3  17  3.404859E+06 -4.273555E+02  5.245485E+04  1.513912E+03 -7.215473E-10  2.306181E-10
         3  18  3.408693E+06  1.708088E+04  8.850821E+04  6.135332E+03  3.143021E-10 -2.919040E-11
         3  19  3.408758E+06 -6.044237E+02  3.778428E+04  3.107632E+03  1.160688E+04  5.779523E-02
         3  20  3.404861E+06 -4.269724E+02  5.245754E+04 -1.513912E+03  3.790085E+04 -9.193898E-02
         3  21  3.408697E+06  1.708198E+04  8.851591E+04 -6.135332E+03  6.419507E+04 -6.310865E-01
         3  22  3.408758E+06 -6.044418E+02  3.778428E+04 -2.702302E-09  1.160688E+04 -1.195159E-11
         3  23  3.404861E+06 -4.269767E+02  5.245754E+04 -3.072768E-09  3.790085E+04 -1.584901E-10
         3  24  3.408697E+06  1.708191E+04  8.851590E+04 -4.858776E-09  6.419507E+04  1.005327E-10
         3  25  3.408758E+06 -6.044237E+02  3.778428E+04 -3.107632E+03  1.160688E+04 -5.779523E-02
         3  26  3.404861E+06 -4.269724E+02  5.245754E+04  1.513912E+03  3.790085E+04  9.193898E-02
         3  27  3.408697E+06  1.708198E+04  8.851591E+04  6.135332E+03  6.419507E+04  6.310865E-01
         4   1  3.427156E+06 -1.558255E+04  1.098688E+05  4.739172E+04 -7.987671E+04 -6.065395E+00
         4   2  3.381694E+06  4.791433E+03  1.851553E+05 -5.892210E+04 -1.777932E+05  1.678660E+01
         4   3  3.426608E+06  3.362891E+05  4.017418E+05 -1.652483E+05 -2.757095E+05  7.300358E+01
         4   4  3.427154E+06 -1.558675E+04  1.098682E+05 -3.778132E-09 -7.987671E+04  2.026994E-10
         4   5  3.381690E+06  4.784944E+03  1.851544E+05  2.158699E-09 -1.777932E+05  3.277279E-10
         4   6  3.426579E+06  3.362381E+05  4.017345E+05 -1.445802E-09 -2.757095E+05  2.568834E-10
         4   7  3.427156E+06 -1.558255E+04  1.098688E+05 -4.739172E+04 -7.987671E+04  6.065395E+00
         4   8  3.381694E+06  4.791433E+03  1.851553E+05  5.892210E+04 -1.777932E+05 -1.678660E+01
         4   9  3.426608E+06  3.362891E+05  4.017418E+05  1.652483E+05 -2.757095E+05 -7.300358E+01
         4  10  3.427149E+06 -1.558425E+04  1.098569E+05  4.739172E+04 -7.036037E-11  3.106812E-10
         4  11  3.381660E+06  4.783005E+03  1.850962E+05 -5.892209E+04  2.999579E-10  1.454288E-10
         4  12  3.426527E+06  3.362689E+05  4.015997E+05 -1.652483E+05  2.186175E-10  7.586756E-11
         4  13  3.427147E+06 -1.558845E+04  1.098563E+05 -2.665976E-09  6.227336E-10  2.780891E-10
         4  14  3.381656E+06  4.776515E+03  1.850953E+05  4.948045E-10 -1.229556E-09  2.886283E-10
         4  15  3.426498E+06  3.362178E+05  4.015924E+05  9.766632E-10  5.381526E-10  9.038166E-11
         4  16  3.427149E+06 -1.558425E+04  1.098569E+05 -4.739172E+04 -2.167074E-10  7.809176E-11
         4  17  3.381660E+06  4.783005E+03  1.850962E+05  5.892209E+04 -8.663173E-10  4.228720E-10
         4  18  3.426527E+06  3.362689E+05  4.015997E+05  1.652483E+05 -1.015620E-09  1.727286E-10
         4  19  3.427156E+06 -1.558255E+04  1.098688E+05  4.739172E+04  7.987671E+04  6.065395E+00
         4  20  3.381694E+06  4.791433E+03  1.851553E+05 -5.892210E+04  1.777932E+05 -1.678660E+01
         4  21  3.426608E+06  3.362891E+05  4.017418E+05 -1.652483E+05  2.757095E+05 -7.300358E+01
         4  22  3.427154E+06 -1.558675E+04  1.098682E+05 -4.810090E-09  7.987671E+04  3.695587E-10
         4  23  3.381690E+06  4.784944E+03  1.851544E+05 -1.131144E-09  1.777932E+05  2.126452E-10
         4  24  3.426579E+06  3.362381E+05  4.017345E+05 -1.774634E-09  2.757095E+05 -9.038980E-11
         4  25  3.427156E+06 -1.558255E+04  1.098688E+05 -4.739172E+04  7.987671E+04 -6.065395E+00
         4  26  3.381694E+06  4.791433E+03  1.851553E+05  5.892210E+04  1.777932E+05  1.678660E+01
         4  27  3.426608E+06  3.362891E+05  4.017418E+05  1.652483E+05  2.757095E+05  7.300358E+01
         5   1 -1.159379E+06 -2.824971E+06 -1.195172E+06  6.383782E+05 -4.182977E+04 -3.634885E+05
         5   2 -6.722330E+05 -2.028658E+06 -7.653101E+05  4.003722E+05 -1.217066E+05 -1.879655E+05
         5   3 -4.689749E+05 -1.324363E+06 -5.208038E+05  4.535695E+05 -1.051806E+05 -1.229132E+04
         5   4 -2.916014E+05  6.631171E+05 -3.478087E+05  4.990491E+05 -4.159249E+04 -2.414773E+05
         5   5 -4.438280E+03  7.017070E+05 -1.579607E+05  3.531931E+05 -1.215957E+05 -1.577280E+05
         5   6  1.553731E+04  6.642133E+05 -8.907253E+04  4.985865E+05 -1.053332E+05 -7.405679E+04
         5   7  5.753642E+05  4.162412E+06  4.987427E+05  3.589248E+05 -4.141115E+04 -1.187773E+05
         5   8  6.628611E+05  3.439044E+06  4.489286E+05  3.057987E+05 -1.214896E+05 -1.273575E+05
         5   9  4.997967E+05  2.656513E+06  3.424381E+05  5.437459E+05 -1.054945E+05 -1.360175E+05
         5  10 -1.159416E+06 -2.825114E+06 -1.195425E+06  6.383660E+05 -2.190803E-10 -7.353750E-10
         5  11 -6.722584E+05 -2.028700E+06 -7.654045E+05  4.003537E+05  3.944911E-10 -9.961273E-10
         5  12 -4.689868E+05 -1.324366E+06 -5.208249E+05  4.535684E+05 -9.099043E-10 -5.259303E-10
         5  13 -2.916189E+05  6.630540E+05 -3.479213E+05  4.990410E+05  8.865186E-10  8.833810E-12
         5  14 -4.460819E+03  7.016763E+05 -1.580351E+05  3.531777E+05  1.045547E-09  3.887083E-11
         5  15  1.552393E+04  6.642044E+05 -8.910365E+04  4.985803E+05  5.149690E-10  5.350471E-11
         5  16  5.753586E+05  4.162396E+06  4.987132E+05  3.589208E+05 -1.487202E-09  8.596583E-10
         5  17  6.628410E+05  3.439022E+06  4.488705E+05  3.057863E+05 -2.663609E-10  1.054396E-09
         5  18  4.997798E+05  2.656491E+06  3.423827E+05  5.437344E+05 -1.376679E-09  5.382956E-10
         5  19 -1.159379E+06 -2.824971E+06 -1.195172E+06  6.383782E+05  4.182977E+04  3.634885E+05
         5  20 -6.722330E+05 -2.028658E+06 -7.653101E+05  4.003722E+05  1.217066E+05  1.879655E+05
         5  21 -4.689749E+05 -1.324363E+06 -5.208038E+05  4.535695E+05  1.051806E+05  1.229132E+04
         5  22 -2.916014E+05  6.631171E+05 -3.478087E+05  4.990491E+05  4.159249E+04  2.414773E+05
         5  23 -4.438280E+03  7.017070E+05 -1.579607E+05  3.531931E+05  1.215957E+05  1.577280E+05
         5  24  1.553731E+04  6.642133E+05 -8.907253E+04  4.985865E+05  1.053332E+05  7.405679E+04
         5  25  5.753642E+05  4.162412E+06  4.987427E+05  3.589248E+05  4.141115E+04  1.187773E+05
         5  26  6.628611E+05  3.439044E+06  4.489286E+05  3.057987E+05  1.214896E+05  1.273575E+05
         5  27  4.997967E+05  2.656513E+06  3.424381E+05  5.437459E+05  1.054945E+05  1.360175E+05
         6   1 -3.519482E+05 -7.122987E+05 -3.718981E+05  5.010762E+05 -7.185415E+04 -2.672576E+04
         6   2 -1.545027E+05  3.905369E+04 -1.705196E+05  3.519919E+05 -3.445004E+04 -9.878052E+03
         6   3  3.250625E+04  7.844419E+05  1.679237E+04  4.977191E+05  4.422478E+03  6.954811E+03
         6   4 -1.278998E+04  6.802002E+05 -6.858917E+04  4.995095E+05 -7.195383E+04 -6.192877E+04
         6   5  2.226163E+03  6.834435E+05 -3.098901E+04  3.520800E+05 -3.456667E+04 -4.646811E+04
         6   6  7.100644E+03  6.804709E+05 -6.426513E+03  4.994459E+05  4.286392E+03 -3.104209E+04
         6   7  3.262402E+05  2.074519E+06  2.346080E+05  4.979372E+05 -7.205320E+04 -9.720966E+04
         6   8  1.589283E+05  1.328226E+06  1.085219E+05  3.521678E+05 -3.468325E+04 -8.309561E+04
         6   9 -1.830491E+04  5.765131E+05 -2.964066E+04  5.011723E+05  4.150081E+03 -6.903270E+04
         6  10 -3.519539E+05 -7.123008E+05 -3.719091E+05  5.010746E+05 -9.451357E-11  5.839717E-10
         6  11 -1.545040E+05  3.905326E+04 -1.705220E+05  3.519916E+05  1.245414E-10  7.283953E-10
         6  12  3.250622E+04  7.844419E+05  1.679224E+04  4.977191E+05  1.137684E-09  5.145403E-10
         6  13 -1.279657E+04  6.801947E+05 -6.860609E+04  4.995059E+05  8.224047E-10 -1.358536E-11
         6  14  2.224302E+03  6.834409E+05 -3.099530E+04  3.520787E+05  3.078897E-10 -1.296830E-11
         6  15  7.100366E+03  6.804699E+05 -6.428357E+03  4.994460E+05  1.392667E-09 -3.687408E-11
         6  16  3.262321E+05  2.074508E+06  2.345806E+05  4.979316E+05 -1.410435E-09 -4.314083E-10
         6  17  1.589252E+05  1.328218E+06  1.085067E+05  3.521654E+05 -5.605770E-10 -8.221562E-10
         6  18 -1.830621E+04  5.765080E+05 -2.964964E+04  5.011725E+05  5.994963E-10 -5.430257E-10
         6  19 -3.519482E+05 -7.122987E+05 -3.718981E+05  5.010762E+05  7.185415E+04  2.672576E+04
         6  20 -1.545027E+05  3.905369E+04 -1.705196E+05  3.519919E+05  3.445004E+04  9.878052E+03
         6  21  3.250625E+04  7.844419E+05  1.679237E+04  4.977191E+05 -4.422478E+03 -6.954811E+03
         6  22 -1.278998E+04  6.802002E+05 -6.858917E+04  4.995095E+05  7.195383E+04  6.192877E+04
         6  23  2.226163E+03  6.834435E+05 -3.098901E+04  3.520800E+05  3.456667E+04  4.646811E+04
         6  24  7.100644E+03  6.804709E+05 -6.426513E+03  4.994459E+05 -4.286392E+03  3.104209E+04
         6  25  3.262402E+05  2.074519E+06  2.346080E+05  4.979372E+05  7.205320E+04  9.720966E+04
         6  26  1.589283E+05  1.328226E+06  1.085219E+05  3.521678E+05  3.468325E+04  8.309561E+04
         6  27 -1.830491E+04  5.765131E+05 -2.964066E+04  5.011723E+05 -4.150081E+03  6.903270E+04
         7   1  1.698988E+05  1.385226E+06  1.561927E+05  4.916520E+05  3.530760E+04  2.417618E+04
         7   2  3.555849E+05  2.122190E+06  3.486142E+05  3.659093E+05  6.047006E+04 -5.053156E+04
         7   3  6.094377E+05  2.885462E+06  6.062847E+05  5.323570E+05  2.252321E+04 -1.251906E+05
         7   4 -4.375352E+02  6.851628E+05  3.411404E+03  4.989284E+05  3.511872E+04 -3.059197E+04
         7   5  2.409348E+03  6.771532E+05  2.581948E+04  3.527401E+05  6.049854E+04 -4.453231E+04
         7   6  6.302125E+04  6.844996E+05  7.144219E+04  4.987611E+05  2.270775E+04 -5.833263E+04
         7   7 -1.708046E+05 -1.443594E+04 -1.493881E+05  5.061960E+05  3.492843E+04 -8.529924E+04
         7   8 -3.509074E+05 -7.659433E+05 -2.971064E+05  3.395998E+05  6.052681E+04 -3.854674E+04
         7   9 -4.837447E+05 -1.512046E+06 -4.637334E+05  4.652797E+05  2.288549E+04  8.290053E+03
         7  10  1.698973E+05  1.385225E+06  1.561893E+05  4.916513E+05  5.413597E-10 -7.868816E-10
         7  11  3.555803E+05  2.122186E+06  3.486025E+05  3.659118E+05  6.692329E-13 -4.962022E-11
         7  12  6.094330E+05  2.885445E+06  6.062544E+05  5.323593E+05  7.189301E-10  4.968212E-10
         7  13 -4.391123E+02  6.851614E+05  3.407324E+03  4.989293E+05  1.184884E-09 -9.101944E-11
         7  14  2.404883E+03  6.771501E+05  2.580887E+04  3.527422E+05 -8.138346E-10 -3.324344E-11
         7  15  6.301978E+04  6.844958E+05  7.143483E+04  4.987622E+05  1.822067E-10 -3.866473E-12
         7  16 -1.708079E+05 -1.444409E+04 -1.494041E+05  5.061984E+05  7.270892E-10  6.540087E-10
         7  17 -3.509118E+05 -7.659459E+05 -2.971161E+05  3.396017E+05 -8.680504E-10  1.017474E-10
         7  18 -4.837453E+05 -1.512046E+06 -4.637345E+05  4.652795E+05 -7.147941E-11 -4.744094E-10
         7  19  1.698988E+05  1.385226E+06  1.561927E+05  4.916520E+05 -3.530760E+04 -2.417618E+04
         7  20  3.555849E+05  2.122190E+06  3.486142E+05  3.659093E+05 -6.047006E+04  5.053156E+04
         7  21  6.094377E+05  2.885462E+06  6.062847E+05  5.323570E+05 -2.252321E+04  1.251906E+05
         7  22 -4.375352E+02  6.851628E+05  3.411404E+03  4.989284E+05 -3.511872E+04  3.059197E+04
         7  23  2.409348E+03  6.771532E+05  2.581948E+04  3.527401E+05 -6.049854E+04  4.453231E+04
         7  24  6.302125E+04  6.844996E+05  7.144219E+04  4.987611E+05 -2.270775E+04  5.833263E+04
         7  25 -1.708046E+05 -1.443594E+04 -1.493881E+05  5.061960E+05 -3.492843E+04  8.529924E+04
         7  26 -3.509074E+05 -7.659433E+05 -2.971064E+05  3.395998E+05 -6.052681E+04  3.854674E+04
         7  27 -4.837447E+05 -1.512046E+06 -4.637334E+05  4.652797E+05 -2.288549E+04 -8.290053E+03
         8   1  1.259437E+06  6.076337E+05 -1.045735E+05  1.014720E+06  3.317115E+04  4.036022E+04
         8   2  1.313817E+06  5.906792E+05 -1.266853E+05  1.099098E+06  1.216603E+04  5.708031E+04
         8   3  1.463669E+06  5.991675E+05 -1.203800E+05  1.136374E+06  6.573155E+03  5.324074E+04
         8   4  2.016295E+06  1.058476E+06  1.290047E+05  1.349326E+06  6.314434E+04  6.282294E+04
         8   5  1.946217E+06  1.007523E+06  5.965869E+04  1.400022E+06  2.232523E+04  6.468591E+04
         8   6  1.975824E+06  9.862368E+05  3.583782E+04  1.403625E+06 -3.088298E+03  4.600302E+04
         8   7  2.773756E+06  1.509508E+06  3.625202E+05  1.684345E+06  9.316740E+04  8.531508E+04
         8   8  2.579045E+06  1.424549E+06  2.459585E+05  1.701277E+06  3.249840E+04  7.230103E+04
         8   9  2.488263E+06  1.373478E+06  1.920253E+05  1.671133E+06 -1.276048E+04  3.875653E+04
         8  10  1.259436E+06  6.076317E+05 -1.045786E+05  1.014719E+06 -5.891112E-10 -2.739604E-10
         8  11  1.313816E+06  5.906756E+05 -1.266917E+05  1.099098E+06 -1.774867E-09  2.999710E-10
         8  12  1.463668E+06  5.991644E+05 -1.203854E+05  1.136374E+06 -1.257443E-09  8.776748E-10
         8  13  2.016290E+06  1.058471E+06  1.289898E+05  1.349322E+06  1.091594E-09  1.851851E-10
         8  14  1.946215E+06  1.007519E+06  5.964992E+04  1.400021E+06  6.987881E-10  4.736383E-10
         8  15  1.975823E+06  9.862345E+05  3.583382E+04  1.403625E+06 -3.235509E-11  3.354472E-10
         8  16  2.773745E+06  1.509498E+06  3.624904E+05  1.684339E+06  9.493336E-10  5.679091E-10
         8  17  2.579043E+06  1.424543E+06  2.459468E+05  1.701275E+06 -4.208588E-10  5.155323E-10
         8  18  2.488263E+06  1.373476E+06  1.920222E+05  1.671133E+06  6.981667E-10 -7.336718E-11
         8  19  1.259437E+06  6.076337E+05 -1.045735E+05  1.014720E+06 -3.317115E+04 -4.036022E+04
         8  20  1.313817E+06  5.906792E+05 -1.266853E+05  1.099098E+06 -1.216603E+04 -5.708031E+04
         8  21  1.463669E+06  5.991675E+05 -1.203800E+05  1.136374E+06 -6.573155E+03 -5.324074E+04
         8  22  2.016295E+06  1.058476E+06  1.290047E+05  1.349326E+06 -6.314434E+04 -6.282294E+04
         8  23  1.946217E+06  1.007523E+06  5.965869E+04  1.400022E+06 -2.232523E+04 -6.468591E+04
         8  24  1.975824E+06  9.862368E+05  3.583782E+04  1.403625E+06  3.088298E+03 -4.600302E+04
         8  25  2.773756E+06  1.509508E+06  3.625202E+05  1.684345E+06 -9.316740E+04 -8.531508E+04
         8  26  2.579045E+06  1.424549E+06  2.459585E+05  1.701277E+06 -3.249840E+04 -7.230103E+04
         8  27  2.488263E+06  1.373478E+06  1.920253E+05  1.671133E+06  1.276048E+04 -3.875653E+04
         9   1  1.516959E+06  6.696293E+05 -1.069224E+05  1.168252E+06  2.240929E+02  4.083763E+04
         9   2  1.579771E+06  7.481970E+05 -9.157445E+04  1.219807E+06 -2.924578E+03  3.164649E+04
         9   3  1.691029E+06  7.860812E+05 -6.966998E+04  1.256800E+06 -5.403390E+03  2.155145E+04
         9   4  1.975815E+06  9.908408E+05  2.918660E+04  1.395720E+06 -3.546550E+03  3.801170E+04
         9   5  1.950496E+06  1.009267E+06  1.822493E+04  1.404389E+06 -7.570126E+03  2.816764E+04
         9   6  1.973796E+06  9.871945E+05  1.457011E+04  1.398490E+06 -1.092286E+04  1.742099E+04
         9   7  2.434903E+06  1.312169E+06  1.652738E+05  1.623379E+06 -7.321007E+03  3.518295E+04
         9   8  2.321370E+06  1.270413E+06  1.280092E+05  1.589096E+06 -1.221942E+04  2.468599E+04
         9   9  2.256648E+06  1.188351E+06  9.880043E+04  1.540252E+06 -1.644567E+04  1.328802E+04
         9  10  1.516959E+06  6.696275E+05 -1.069255E+05  1.168252E+06 -4.450628E-11  8.957524E-10
         9  11  1.579771E+06  7.481960E+05 -9.157634E+04  1.219807E+06  7.061036E-10 -4.907024E-10
         9  12  1.691029E+06  7.860806E+05 -6.967091E+04  1.256800E+06  2.453334E-10 -5.670309E-10
         9  13  1.975814E+06  9.908392E+05  2.918386E+04  1.395720E+06  5.204649E-10 -4.815564E-11
         9  14  1.950496E+06  1.009266E+06  1.822333E+04  1.404390E+06  2.836496E-10 -5.585087E-10
         9  15  1.973796E+06  9.871941E+05  1.456931E+04  1.398490E+06 -1.503302E-10 -4.044407E-10
         9  16  2.434903E+06  1.312168E+06  1.652714E+05  1.623379E+06  4.854311E-10 -8.344751E-10
         9  17  2.321370E+06  1.270412E+06  1.280078E+05  1.589096E+06 -3.090908E-10 -5.034408E-10
         9  18  2.256647E+06  1.188350E+06  9.879958E+04  1.540252E+06  2.644004E-10 -2.549789E-10
         9  19  1.516959E+06  6.696293E+05 -1.069224E+05  1.168252E+06 -2.240929E+02 -4.083763E+04
         9  20  1.579771E+06  7.481970E+05 -9.157445E+04  1.219807E+06  2.924578E+03 -3.164649E+04
         9  21  1.691029E+06  7.860812E+05 -6.966998E+04  1.256800E+06  5.403390E+03 -2.155145E+04
         9  22  1.975815E+06  9.908408E+05  2.918660E+04  1.395720E+06  3.546550E+03 -3.801170E+04
         9  23  1.950496E+06  1.009267E+06  1.822493E+04  1.404389E+06  7.570126E+03 -2.816764E+04
         9  24  1.973796E+06  9.871945E+05  1.457011E+04  1.398490E+06  1.092286E+04 -1.742099E+04
         9  25  2.434903E+06  1.312169E+06  1.652738E+05  1.623379E+06  7.321007E+03 -3.518295E+04
         9  26  2.321370E+06  1.270413E+06  1.280092E+05  1.589096E+06  1.221942E+04 -2.468599E+04
         9  27  2.256648E+06  1.188351E+06  9.880043E+04  1.540252E+06  1.644567E+04 -1.328802E+04
        10   1  1.758112E+06  8.357839E+05 -4.896381E+04  1.290812E+06 -5.300084E+03  1.649733E+04
        10   2  1.820947E+06  9.180676E+05 -2.081563E+04  1.339969E+06 -8.188558E+03  5.846634E+03
        10   3  1.929709E+06  9.573419E+05  1.332776E+04  1.376088E+06 -1.107753E+04 -4.808665E+03
        10   4  1.973692E+06  9.875113E+05  1.448096E+04  1.398182E+06 -1.054150E+04  1.257587E+04
        10   5  1.950864E+06  1.009252E+06  1.753858E+04  1.404530E+06 -1.343533E+04  1.921927E+03
        10   6  1.973955E+06  9.879795E+05  2.659515E+04  1.397834E+06 -1.632844E+04 -8.735653E+03
        10   7  2.189322E+06  1.139264E+06  7.792082E+04  1.505594E+06 -1.578537E+04  8.652572E+03
        10   8  2.080800E+06  1.100446E+06  5.589133E+04  1.469107E+06 -1.868362E+04 -2.003901E+03
        10   9  2.018203E+06  1.018619E+06  3.986264E+04  1.419582E+06 -2.157991E+04 -1.266305E+04
        10  10  1.758112E+06  8.357836E+05 -4.896437E+04  1.290812E+06 -1.112329E-11 -8.389387E-10
        10  11  1.820947E+06  9.180676E+05 -2.081582E+04  1.339969E+06 -8.038952E-10  8.426427E-10
        10  12  1.929709E+06  9.573419E+05  1.332748E+04  1.376088E+06 -7.532003E-10  9.691808E-10
        10  13  1.973692E+06  9.875111E+05  1.448045E+04  1.398182E+06  5.446007E-10  1.699307E-11
        10  14  1.950864E+06  1.009252E+06  1.753823E+04  1.404530E+06 -3.770534E-10  6.597405E-10
        10  15  1.973955E+06  9.879794E+05  2.659451E+04  1.397834E+06 -4.027718E-10  4.738961E-10
        10  16  2.189322E+06  1.139264E+06  7.792021E+04  1.505594E+06 -2.615228E-10  7.884478E-10
        10  17  2.080799E+06  1.100446E+06  5.589066E+04  1.469107E+06 -9.641643E-10  8.772383E-10
        10  18  2.018203E+06  1.018618E+06  3.986147E+04  1.419582E+06 -1.658318E-10 -2.346112E-10
        10  19  1.758112E+06  8.357839E+05 -4.896381E+04  1.290812E+06  5.300084E+03 -1.649733E+04
        10  20  1.820947E+06  9.180676E+05 -2.081563E+04  1.339969E+06  8.188558E+03 -5.846634E+03
        10  21  1.929709E+06  9.573419E+05  1.332776E+04  1.376088E+06  1.107753E+04  4.808665E+03
        10  22  1.973692E+06  9.875113E+05  1.448096E+04  1.398182E+06  1.054150E+04 -1.257587E+04
        10  23  1.950864E+06  1.009252E+06  1.753858E+04  1.404530E+06  1.343533E+04 -1.921927E+03
        10  24  1.973955E+06  9.879795E+05  2.659515E+04  1.397834E+06  1.632844E+04  8.735653E+03
        10  25  2.189322E+06  1.139264E+06  7.792082E+04  1.505594E+06  1.578537E+04 -8.652572E+03
        10  26  2.080800E+06  1.100446E+06  5.589133E+04  1.469107E+06  1.868362E+04  2.003901E+03
        10  27  2.018203E+06  1.018619E+06  3.986264E+04  1.419582E+06  2.157991E+04  1.266305E+04
        11   1  1.994507E+06  1.008054E+06  4.102213E+04  1.412625E+06 -1.276131E+04 -1.112645E+04
        11   2  2.060711E+06  1.084326E+06  8.899785E+04  1.457884E+06 -3.202058E+04 -3.382686E+04
        11   3  2.184297E+06  1.132414E+06  1.608829E+05  1.484566E+06 -5.172225E+04 -5.594378E+04
        11   4  1.974260E+06  9.872895E+05  3.360253E+04  1.399567E+06 -1.816829E+04 -1.516999E+04
        11   5  1.949506E+06  1.008399E+06  5.642127E+04  1.403624E+06 -3.685752E+04 -3.744501E+04
        11   6  1.982010E+06  1.001204E+06  1.026654E+05  1.389099E+06 -5.598478E+04 -5.913377E+04
        11   7  1.954014E+06  9.665259E+05  2.618312E+04  1.386511E+06 -2.357498E+04 -1.921321E+04
        11   8  1.838315E+06  9.324787E+05  2.384370E+04  1.349375E+06 -4.169326E+04 -4.106231E+04
        11   9  1.779767E+06  8.700128E+05  4.444382E+04  1.293666E+06 -6.024542E+04 -6.232249E+04
        11  10  1.994507E+06  1.008054E+06  4.102159E+04  1.412624E+06 -1.172024E-09  2.209566E-10
        11  11  2.060710E+06  1.084324E+06  8.899379E+04  1.457883E+06  3.421652E-10  2.867795E-10
        11  12  2.184293E+06  1.132410E+06  1.608720E+05  1.484564E+06  1.188731E-09 -1.404359E-10
        11  13  1.974260E+06  9.872892E+05  3.360148E+04  1.399567E+06 -2.774575E-10  2.662191E-10
        11  14  1.949505E+06  1.008397E+06  5.641611E+04  1.403623E+06  4.583115E-11  1.434611E-10
        11  15  1.982005E+06  1.001200E+06  1.026530E+05  1.389097E+06 -5.077293E-10  1.760919E-10
        11  16  1.954013E+06  9.665254E+05  2.618139E+04  1.386510E+06  8.291383E-10  3.593248E-10
        11  17  1.838313E+06  9.324764E+05  2.383729E+04  1.349374E+06  2.210183E-10  2.473202E-10
        11  18  1.779762E+06  8.700076E+05  4.442975E+04  1.293663E+06 -3.933746E-10 -8.482523E-11
        11  19  1.994507E+06  1.008054E+06  4.102213E+04  1.412625E+06  1.276131E+04  1.112645E+04
        11  20  2.060711E+06  1.084326E+06  8.899785E+04  1.457884E+06  3.202058E+04  3.382686E+04
        11  21  2.184297E+06  1.132414E+06  1.608829E+05  1.484566E+06  5.172225E+04  5.594378E+04
        11  22  1.974260E+06  9.872895E+05  3.360253E+04  1.399567E+06  1.816829E+04  1.516999E+04
        11  23  1.949506E+06  1.008399E+06  5.642127E+04  1.403624E+06  3.685752E+04  3.744501E+04
        11  24  1.982010E+06  1.001204E+06  1.026654E+05  1.389099E+06  5.598478E+04  5.913377E+04
        11  25  1.954014E+06  9.665259E+05  2.618312E+04  1.386511E+06  2.357498E+04  1.921321E+04
        11  26  1.838315E+06  9.324787E+05  2.384370E+04  1.349375E+06  4.169326E+04  4.106231E+04
        11  27  1.779767E+06  8.700128E+05  4.444382E+04  1.293666E+06  6.024542E+04  6.232249E+04
        12   1  2.191292E+06  1.225194E+06  2.076313E+05  1.566445E+06 -5.941959E+04 -6.833823E+04
        12   2  2.351454E+06  1.181818E+06  3.274872E+05  1.541603E+06 -1.644311E+05 -1.496743E+05
        12   3  2.762404E+06  1.375392E+06  6.276201E+05  1.376529E+06 -2.792858E+05 -2.179087E+05
        12   4  1.982148E+06  9.840374E+05  1.293071E+05  1.418662E+06 -6.742709E+04 -7.431951E+04
        12   5  1.933777E+06  1.002208E+06  2.211870E+05  1.387250E+06 -1.597480E+05 -1.462024E+05
        12   6  2.133499E+06  1.254718E+06  4.824831E+05  1.215598E+06 -2.618588E+05 -2.050047E+05
        12   7  1.773054E+06  7.429593E+05  5.097640E+04  1.270946E+06 -7.543118E+04 -8.029593E+04
        12   8  1.516299E+06  8.226292E+05  1.148754E+05  1.232988E+06 -1.550691E+05 -1.427321E+05
        12   9  1.505092E+06  1.134087E+06  3.373444E+05  1.054755E+06 -2.444568E+05 -1.921022E+05
        12  10  2.191287E+06  1.225188E+06  2.076160E+05  1.566442E+06  7.218998E-10 -4.119138E-10
        12  11  2.351419E+06  1.181787E+06  3.273948E+05  1.541583E+06  3.617383E-10  3.086281E-10
        12  12  2.762308E+06  1.375320E+06  6.273856E+05  1.376480E+06  2.980374E-10  2.680752E-10
        12  13  1.982141E+06  9.840303E+05  1.292883E+05  1.418658E+06 -1.439331E-10 -1.893138E-10
        12  14  1.933744E+06  1.002179E+06  2.210993E+05  1.387231E+06  8.346661E-11  1.838155E-10
        12  15  2.133414E+06  1.254654E+06  4.822762E+05  1.215555E+06  2.492817E-11  5.132679E-11
        12  16  1.773046E+06  7.429509E+05  5.095368E+04  1.270941E+06 -3.664368E-11  2.275118E-10
        12  17  1.516268E+06  8.226010E+05  1.147922E+05  1.232970E+06 -5.700836E-10 -2.169868E-10
        12  18  1.505018E+06  1.134032E+06  3.371635E+05  1.054717E+06 -3.944779E-10 -1.320767E-10
        12  19  2.191292E+06  1.225194E+06  2.076313E+05  1.566445E+06  5.941959E+04  6.833823E+04
        12  20  2.351454E+06  1.181818E+06  3.274872E+05  1.541603E+06  1.644311E+05  1.496743E+05
        12  21  2.762404E+06  1.375392E+06  6.276201E+05  1.376529E+06  2.792858E+05  2.179087E+05
        12  22  1.982148E+06  9.840374E+05  1.293071E+05  1.418662E+06  6.742709E+04  7.431951E+04
        12  23  1.933777E+06  1.002208E+06  2.211870E+05  1.387250E+06  1.597480E+05  1.462024E+05
        12  24  2.133499E+06  1.254718E+06  4.824831E+05  1.215598E+06  2.618588E+05  2.050047E+05
        12  25  1.773054E+06  7.429593E+05  5.097640E+04  1.270946E+06  7.543118E+04  8.029593E+04
        12  26  1.516299E+06  8.226292E+05  1.148754E+05  1.232988E+06  1.550691E+05  1.427321E+05
        12  27  1.505092E+06  1.134087E+06  3.373444E+05  1.054755E+06  2.444568E+05  1.921022E+05
        13   1  2.138741E+06  1.131383E+05  1.353215E+05  5.558684E+04  9.160611E+04  8.175179E+00
        13   2  2.123550E+06  1.575251E+03  6.325184E+04  1.987676E+04  5.819243E+04  1.857025E+00
        13   3  2.138859E+06 -5.254928E+03  3.906727E+04 -1.583207E+04  2.477855E+04 -6.298082E-01
        13   4  2.138737E+06  1.131325E+05  1.353206E+05 -2.332000E-09  9.160611E+04 -5.712572E-11
        13   5  2.123550E+06  1.574511E+03  6.325173E+04 -2.472976E-09  5.819243E+04 -5.024709E-11
        13   6  2.138859E+06 -5.255397E+03  3.906720E+04  1.855266E-09  2.477855E+04  8.721448E-11
        13   7  2.138741E+06  1.131383E+05  1.353215E+05 -5.558684E+04  9.160611E+04 -8.175179E+00
        13   8  2.123550E+06  1.575251E+03  6.325184E+04 -1.987676E+04  5.819243E+04 -1.857025E+00
        13   9  2.138859E+06 -5.254928E+03  3.906727E+04  1.583207E+04  2.477855E+04  6.298082E-01
        13  10  2.138732E+06  1.131361E+05  1.353058E+05  5.558684E+04 -2.249449E-10 -8.368592E-11
        13  11  2.123546E+06  1.574346E+03  6.324549E+04  1.987676E+04 -6.208514E-10 -1.085130E-10
        13  12  2.138858E+06 -5.255092E+03  3.906612E+04 -1.583207E+04 -4.452541E-11  5.135328E-10
        13  13  2.138728E+06  1.131303E+05  1.353049E+05  8.596833E-10 -7.633105E-10 -1.405001E-11
        13  14  2.123546E+06  1.573606E+03  6.324539E+04 -3.067031E-10 -9.037656E-10 -8.669777E-12
        13  15  2.138858E+06 -5.255561E+03  3.906605E+04  4.177363E-09  1.244475E-10  1.366013E-10
        13  16  2.138732E+06  1.131361E+05  1.353058E+05 -5.558684E+04  1.630224E-10  5.371425E-11
        13  17  2.123546E+06  1.574346E+03  6.324549E+04 -1.987676E+04  7.149091E-10  6.541577E-11
        13  18  2.138858E+06 -5.255092E+03  3.906612E+04  1.583207E+04  5.583135E-10 -1.696470E-10
        13  19  2.138741E+06  1.131383E+05  1.353215E+05  5.558684E+04 -9.160611E+04 -8.175179E+00
        13  20  2.123550E+06  1.575251E+03  6.325184E+04  1.987676E+04 -5.819243E+04 -1.857025E+00
        13  21  2.138859E+06 -5.254928E+03  3.906727E+04 -1.583207E+04 -2.477855E+04  6.298082E-01
        13  22  2.138737E+06  1.131325E+05  1.353206E+05 -1.289876E-09 -9.160611E+04  3.345456E-12
        13  23  2.123550E+06  1.574511E+03  6.325173E+04  1.329061E-09 -5.819243E+04  2.642490E-11
        13  24  2.138859E+06 -5.255397E+03  3.906720E+04  1.657430E-09 -2.477855E+04  1.847920E-10
        13  25  2.138741E+06  1.131383E+05  1.353215E+05 -5.558684E+04 -9.160611E+04  8.175179E+00
        13  26  2.123550E+06  1.575251E+03  6.325184E+04 -1.987676E+04 -5.819243E+04  1.857025E+00
        13  27  2.138859E+06 -5.254928E+03  3.906727E+04  1.583207E+04 -2.477855E+04 -6.298082E-01
        14   1  2.132739E+06  5.711791E+03  3.266818E+04  2.243324E+03  1.905836E+04  6.863986E-02
        14   2  2.131219E+06 -2.196708E+02  2.285642E+04  6.953707E+02  7.632652E+03  8.521011E-03
        14   3  2.132748E+06  1.162016E+02  2.203149E+04 -8.525618E+02 -3.792841E+03  5.191451E-03
        14   4  2.132739E+06  5.711782E+03  3.266818E+04 -2.158542E-09  1.905836E+04  1.212581E-10
        14   5  2.131219E+06 -2.196717E+02  2.285642E+04  2.817187E-09  7.632652E+03  1.421148E-10
        14   6  2.132748E+06  1.162003E+02  2.203149E+04 -1.743835E-09 -3.792841E+03  2.712899E-10
        14   7  2.132739E+06  5.711791E+03  3.266818E+04 -2.243324E+03  1.905836E+04 -6.863986E-02
        14   8  2.131219E+06 -2.196708E+02  2.285642E+04 -6.953707E+02  7.632652E+03 -8.521011E-03
        14   9  2.132748E+06  1.162016E+02  2.203149E+04  8.525618E+02 -3.792841E+03 -5.191451E-03
        14  10  2.132738E+06  5.711694E+03  3.266750E+04  2.243324E+03  1.588698E-09  1.413502E-10
        14  11  2.131219E+06 -2.196864E+02  2.285631E+04  6.953707E+02  1.007245E-09 -5.162397E-10
        14  12  2.132748E+06  1.161978E+02  2.203146E+04 -8.525618E+02 -2.788222E-10 -1.405513E-10
        14  13  2.132738E+06  5.711685E+03  3.266750E+04 -1.148081E-09  7.647335E-10  5.620955E-11
        14  14  2.131219E+06 -2.196873E+02  2.285631E+04  3.375093E-09  9.667799E-10 -2.176474E-10
        14  15  2.132748E+06  1.161964E+02  2.203146E+04 -1.533244E-09 -2.602357E-10 -1.286184E-12
        14  16  2.132738E+06  5.711694E+03  3.266750E+04 -2.243324E+03  9.050421E-11 -1.634777E-10
        14  17  2.131219E+06 -2.196864E+02  2.285631E+04 -6.953707E+02 -2.930881E-10  1.218816E-11
        14  18  2.132748E+06  1.161978E+02  2.203146E+04  8.525618E+02 -9.923984E-10  2.112188E-10
        14  19  2.132739E+06  5.711791E+03  3.266818E+04  2.243324E+03 -1.905836E+04 -6.863986E-02
        14  20  2.131219E+06 -2.196708E+02  2.285642E+04  6.953707E+02 -7.632652E+03 -8.521012E-03
        14  21  2.132748E+06  1.162016E+02  2.203149E+04 -8.525618E+02  3.792841E+03 -5.191451E-03
        14  22  2.132739E+06  5.711782E+03  3.266818E+04 -2.346071E-09 -1.905836E+04 -7.722308E-11
        14  23  2.131219E+06 -2.196717E+02  2.285642E+04 -1.485931E-09 -7.632652E+03 -5.429486E-10
        14  24  2.132748E+06  1.162003E+02  2.203149E+04 -4.667879E-09  3.792841E+03 -2.851472E-10
        14  25  2.132739E+06  5.711791E+03  3.266818E+04 -2.243324E+03 -1.905836E+04  6.863986E-02
        14  26  2.131219E+06 -2.196708E+02  2.285642E+04 -6.953707E+02 -7.632652E+03  8.521011E-03
        14  27  2.132748E+06  1.162016E+02  2.203149E+04  8.525618E+02  3.792841E+03  5.191451E-03
        15   1  2.133179E+06 -4.059683E+02  2.398276E+04  2.019010E+03 -7.854941E+03 -2.546123E-02
        15   2  2.130673E+06 -2.741419E+02  3.366651E+04 -9.714645E+02 -2.472423E+04  3.856112E-02
        15   3  2.133155E+06  1.106451E+04  5.710791E+04 -3.961960E+03 -4.159404E+04  2.645699E-01
        15   4  2.133179E+06 -4.059759E+02  2.398276E+04  6.564744E-10 -7.854941E+03  3.057565E-10
        15   5  2.130673E+06 -2.741436E+02  3.366651E+04 -1.501405E-09 -2.472423E+04  3.578450E-10
        15   6  2.133155E+06  1.106449E+04  5.710790E+04 -6.640317E-09 -4.159404E+04  3.445504E-10
        15   7  2.133179E+06 -4.059683E+02  2.398276E+04 -2.019010E+03 -7.854941E+03  2.546123E-02
        15   8  2.130673E+06 -2.741419E+02  3.366651E+04  9.714645E+02 -2.472423E+04 -3.856112E-02
        15   9  2.133155E+06  1.106451E+04  5.710791E+04  3.961960E+03 -4.159404E+04 -2.645699E-01
        15  10  2.133179E+06 -4.059848E+02  2.398264E+04  2.019010E+03  7.763323E-10  2.072257E-10
        15  11  2.130672E+06 -2.743053E+02  3.366537E+04 -9.714645E+02  9.604136E-10  7.640921E-11
        15  12  2.133153E+06  1.106405E+04  5.710467E+04 -3.961960E+03  1.470435E-11  2.802553E-10
        15  13  2.133179E+06 -4.059924E+02  2.398264E+04 -2.594042E-09 -1.269730E-09  1.058607E-10
        15  14  2.130672E+06 -2.743071E+02  3.366537E+04 -5.819248E-09 -1.735747E-10  9.737406E-11
        15  15  2.133153E+06  1.106402E+04  5.710466E+04 -2.324559E-09 -4.566311E-10  2.082784E-10
        15  16  2.133179E+06 -4.059848E+02  2.398264E+04 -2.019010E+03 -8.774728E-10  9.872569E-11
        15  17  2.130672E+06 -2.743053E+02  3.366537E+04  9.714645E+02 -7.959586E-10  9.873973E-11
        15  18  2.133153E+06  1.106405E+04  5.710467E+04  3.961960E+03  7.687754E-10  2.806909E-10
        15  19  2.133179E+06 -4.059683E+02  2.398276E+04  2.019010E+03  7.854941E+03  2.546123E-02
        15  20  2.130673E+06 -2.741419E+02  3.366651E+04 -9.714645E+02  2.472423E+04 -3.856112E-02
        15  21  2.133155E+06  1.106451E+04  5.710791E+04 -3.961960E+03  4.159404E+04 -2.645699E-01
        15  22  2.133179E+06 -4.059759E+02  2.398276E+04 -4.745604E-09  7.854941E+03 -9.952766E-11
        15  23  2.130673E+06 -2.741436E+02  3.366651E+04 -4.214124E-10  2.472423E+04 -1.870674E-10
        15  24  2.133155E+06  1.106449E+04  5.710790E+04 -4.831853E-09  4.159404E+04  6.008295E-11
        15  25  2.133179E+06 -4.059683E+02  2.398276E+04 -2.019010E+03  7.854941E+03 -2.546123E-02
        15  26  2.130673E+06 -2.741419E+02  3.366651E+04  9.714645E+02  2.472423E+04  3.856112E-02
        15  27  2.133155E+06  1.106451E+04  5.710791E+04  3.961960E+03  4.159404E+04  2.645699E-01
        16   1  2.145091E+06 -1.009101E+04  7.095720E+04  3.065107E+04 -5.170106E+04 -2.544112E+00
        16   2  2.115714E+06  3.062148E+03  1.197191E+05 -3.807307E+04 -1.150003E+05  7.029582E+00
        16   3  2.144870E+06  2.176240E+05  2.599519E+05 -1.068017E+05 -1.782989E+05  3.057246E+01
        16   4  2.145090E+06 -1.009277E+04  7.095695E+04  1.069760E-10 -5.170106E+04  1.430425E-10
        16   5  2.115713E+06  3.059433E+03  1.197187E+05  1.150865E-09 -1.150003E+05 -1.486972E-10
        16   6  2.144858E+06  2.176026E+05  2.599488E+05 -2.257825E-09 -1.782989E+05 -2.198193E-11
        16   7  2.145091E+06 -1.009101E+04  7.095720E+04 -3.065107E+04 -5.170106E+04  2.544112E+00
        16   8  2.115714E+06  3.062148E+03  1.197191E+05  3.807307E+04 -1.150003E+05 -7.029582E+00
        16   9  2.144870E+06  2.176240E+05  2.599519E+05  1.068017E+05 -1.782989E+05 -3.057246E+01
        16  10  2.145088E+06 -1.009173E+04  7.095220E+04  3.065107E+04 -7.003932E-10  3.317579E-10
        16  11  2.115700E+06  3.058612E+03  1.196944E+05 -3.807307E+04 -3.132213E-10  1.730127E-10
        16  12  2.144836E+06  2.176155E+05  2.598923E+05 -1.068017E+05 -5.544128E-11  2.847580E-11
        16  13  2.145087E+06 -1.009349E+04  7.095195E+04  4.416330E-09  1.061112E-09  2.524219E-10
        16  14  2.115698E+06  3.055897E+03  1.196940E+05 -4.785522E-10 -3.639307E-10  1.743968E-10
        16  15  2.144824E+06  2.175941E+05  2.598893E+05  2.855158E-10  5.626773E-10  3.782503E-11
        16  16  2.145088E+06 -1.009173E+04  7.095220E+04 -3.065107E+04 -3.722190E-11  2.317758E-10
        16  17  2.115700E+06  3.058612E+03  1.196944E+05  3.807307E+04  1.000764E-09  9.816423E-11
        16  18  2.144836E+06  2.176155E+05  2.598923E+05  1.068017E+05 -7.589968E-11  1.028145E-10
        16  19  2.145091E+06 -1.009101E+04  7.095720E+04  3.065107E+04  5.170106E+04  2.544112E+00
        16  20  2.115714E+06  3.062148E+03  1.197191E+05 -3.807307E+04  1.150003E+05 -7.029582E+00
        16  21  2.144870E+06  2.176240E+05  2.599519E+05 -1.068017E+05  1.782989E+05 -3.057246E+01
        16  22  2.145090E+06 -1.009277E+04  7.095695E+04  3.323732E-09  5.170106E+04  3.463781E-10
        16  23  2.115713E+06  3.059433E+03  1.197187E+05  3.272868E-09  1.150003E+05  4.871974E-10
        16  24  2.144858E+06  2.176026E+05  2.599488E+05 -2.358897E-09  1.782989E+05  1.256203E-10
        16  25  2.145091E+06 -1.009101E+04  7.095720E+04 -3.065107E+04  5.170106E+04 -2.544112E+00
        16  26  2.115714E+06  3.062148E+03  1.197191E+05  3.807307E+04  1.150003E+05  7.029582E+00
        16  27  2.144870E+06  2.176240E+05  2.599519E+05  1.068017E+05  1.782989E+05  3.057246E+01
        17   1 -7.006047E+05 -2.098220E+06 -7.814280E+05  3.447907E+05 -1.288643E+04 -3.928663E+05
        17   2 -2.115890E+05 -1.841877E+06 -4.360429E+05  1.676860E+05 -3.790477E+04 -2.342669E+05
        17   3 -1.381871E+05 -1.710056E+06 -2.980012E+05  6.562016E+04 -3.456403E+04 -7.561846E+04
        17   4 -4.427421E+05 -1.061635E+06 -5.297076E+05  1.281626E+05 -1.273598E+04 -3.555200E+05
        17   5 -6.013918E+03 -1.001638E+06 -2.492308E+05  9.051182E+04 -3.786613E+04 -2.239370E+05
        17   6  2.005399E+04 -1.061331E+06 -1.570927E+05  1.279586E+05 -3.458295E+04 -9.236136E+04
        17   7 -1.847808E+05 -2.396136E+04 -2.780344E+05 -8.882941E+04 -1.261188E+04 -3.181109E+05
        17   8  1.995359E+05 -1.607257E+05 -6.245903E+04  1.323163E+04 -3.783010E+04 -2.135930E+05
        17   9  1.782819E+05 -4.122006E+05 -1.620626E+04  1.903631E+05 -3.460523E+04 -1.091215E+05
        17  10 -7.006464E+05 -2.098386E+06 -7.817193E+05  3.447866E+05  2.653860E-10  1.761567E-09
        17  11 -2.116053E+05 -1.841936E+06 -4.361490E+05  1.676789E+05  1.049640E-09 -6.618886E-09
        17  12 -1.381899E+05 -1.710063E+06 -2.980142E+05  6.561805E+04  2.383781E-09 -1.270857E-08
        17  13 -4.427763E+05 -1.061771E+06 -5.299459E+05  1.281590E+05  2.668585E-11 -6.306072E-13
        17  14 -6.028948E+03 -1.001692E+06 -2.493278E+05  9.050499E+04  7.676984E-12 -3.266421E-12
        17  15  2.005042E+04 -1.061340E+06 -1.571110E+05  1.279561E+05  1.551871E-09  3.965782E-11
        17  16 -1.848081E+05 -2.407010E+04 -2.782249E+05 -8.883265E+04 -5.363870E-10 -1.770321E-09
        17  17  1.995221E+05 -1.607751E+05 -6.254748E+04  1.322512E+04  4.361561E-10  6.628434E-09
        17  18  1.782774E+05 -4.122137E+05 -1.623090E+04  1.903601E+05  5.348014E-10  1.268928E-08
        17  19 -7.006047E+05 -2.098220E+06 -7.814280E+05  3.447907E+05  1.288643E+04  3.928663E+05
        17  20 -2.115890E+05 -1.841877E+06 -4.360429E+05  1.676860E+05  3.790477E+04  2.342669E+05
        17  21 -1.381871E+05 -1.710056E+06 -2.980012E+05  6.562016E+04  3.456403E+04  7.561846E+04
        17  22 -4.427421E+05 -1.061635E+06 -5.297076E+05  1.281626E+05  1.273598E+04  3.555200E+05
        17  23 -6.013918E+03 -1.001638E+06 -2.492308E+05  9.051182E+04  3.786613E+04  2.239370E+05
        17  24  2.005399E+04 -1.061331E+06 -1.570927E+05  1.279586E+05  3.458295E+04  9.236136E+04
        17  25 -1.847808E+05 -2.396136E+04 -2.780344E+05 -8.882941E+04  1.261188E+04  3.181109E+05
        17  26  1.995359E+05 -1.607257E+05 -6.245903E+04  1.323163E+04  3.783010E+04  2.135930E+05
        17  27  1.782819E+05 -4.122006E+05 -1.620626E+04  1.903631E+05  3.460523E+04  1.091215E+05
        18   1 -1.420198E+05 -1.532114E+06 -2.411968E+05  1.388091E+05 -2.564146E+04 -6.039102E+04
        18   2 -7.205264E+04 -1.329661E+06 -1.646918E+05  9.036285E+04 -1.602731E+04 -9.737041E+03
        18   3 -3.919127E+04 -1.143187E+06 -1.305230E+05  1.186023E+05 -5.709996E+03  4.092861E+04
        18   4 -2.159812E+04 -1.038266E+06 -1.335376E+05  1.283689E+05 -2.564728E+04 -6.925265E+04
        18   5  8.846205E+02 -1.030299E+06 -9.975803E+04  9.002167E+04 -1.603632E+04 -1.924429E+04
        18   6 -1.361100E+04 -1.038224E+06 -1.078424E+05  1.283610E+05 -5.720833E+03  3.076034E+04
        18   7  9.880775E+04 -5.441877E+05 -2.589269E+04  1.179202E+05 -2.565279E+04 -7.812124E+04
        18   8  7.381599E+04 -7.308527E+05 -3.482922E+04  8.968029E+04 -1.604532E+04 -2.875607E+04
        18   9  1.196896E+04 -9.332489E+05 -8.516207E+04  1.381213E+05 -5.731990E+03  2.059037E+04
        18  10 -1.420215E+05 -1.532118E+06 -2.412049E+05  1.388078E+05  2.343516E-09  1.345710E-08
        18  11 -7.205294E+04 -1.329662E+06 -1.646925E+05  9.036273E+04  9.282641E-10  6.590550E-09
        18  12 -3.919175E+04 -1.143189E+06 -1.305262E+05  1.186025E+05 -1.135214E-09 -2.963961E-09
        18  13 -2.160011E+04 -1.038271E+06 -1.335479E+05  1.283675E+05  2.816613E-09  5.877508E-11
        18  14  8.842449E+02 -1.030300E+06 -9.975921E+04  9.002142E+04 -7.613487E-11  5.682619E-11
        18  15 -1.361129E+04 -1.038225E+06 -1.078443E+05  1.283611E+05 -3.668217E-10  9.734438E-11
        18  16  9.880541E+04 -5.441945E+05 -2.590541E+04  1.179186E+05  9.764826E-10 -1.340854E-08
        18  17  7.381549E+04 -7.308537E+05 -3.483126E+04  8.967991E+04 -9.561179E-10 -6.535431E-09
        18  18  1.196881E+04 -9.332493E+05 -8.516293E+04  1.381214E+05  1.508876E-10  2.883529E-09
        18  19 -1.420198E+05 -1.532114E+06 -2.411968E+05  1.388091E+05  2.564146E+04  6.039102E+04
        18  20 -7.205264E+04 -1.329661E+06 -1.646918E+05  9.036285E+04  1.602731E+04  9.737041E+03
        18  21 -3.919127E+04 -1.143187E+06 -1.305230E+05  1.186023E+05  5.709996E+03 -4.092861E+04
        18  22 -2.159812E+04 -1.038266E+06 -1.335376E+05  1.283689E+05  2.564728E+04  6.925265E+04
        18  23  8.846205E+02 -1.030299E+06 -9.975803E+04  9.002167E+04  1.603632E+04  1.924429E+04
        18  24 -1.361100E+04 -1.038224E+06 -1.078424E+05  1.283610E+05  5.720833E+03 -3.076034E+04
        18  25  9.880775E+04 -5.441877E+05 -2.589269E+04  1.179202E+05  2.565279E+04  7.812124E+04
        18  26  7.381599E+04 -7.308527E+05 -3.482922E+04  8.968029E+04  1.604532E+04  2.875607E+04
        18  27  1.196896E+04 -9.332489E+05 -8.516207E+04  1.381213E+05  5.731990E+03 -2.059037E+04
        19   1  2.546830E+04 -1.002723E+06 -1.075709E+05  1.694616E+05  2.099905E+03  6.258908E+04
        19   2  5.591048E+04 -7.685567E+05 -1.183444E+05  3.801695E+04  9.729161E+03  1.413203E+05
        19   3 -1.872677E+05 -6.131326E+05 -2.488282E+05 -1.714984E+04  4.232403E+03  2.200888E+05
        19   4  1.310366E+04 -1.052672E+06 -1.188298E+05  1.282027E+05  2.080310E+03  4.904777E+04
        19   5 -3.744115E+03 -1.012239E+06 -1.733104E+05  9.019921E+04  9.740327E+03  1.403131E+05
        19   6 -2.964889E+05 -1.052842E+06 -3.562634E+05  1.284943E+05  4.295731E+03  2.315902E+05
        19   7  7.453428E+02 -1.102615E+06 -1.300873E+05  8.694718E+04  2.062516E+03  3.550753E+04
        19   8 -6.339251E+04 -1.255861E+06 -2.282788E+05  1.423607E+05  9.751327E+03  1.393064E+05
        19   9 -4.056445E+05 -1.492329E+06 -4.637007E+05  2.740349E+05  4.364499E+03  2.430834E+05
        19  10  2.546724E+04 -1.002727E+06 -1.075783E+05  1.694615E+05 -8.198914E-10  1.034027E-09
        19  11  5.590501E+04 -7.685782E+05 -1.183821E+05  3.801584E+04 -4.056557E-10  5.721200E-10
        19  12 -1.872807E+05 -6.131847E+05 -2.489193E+05 -1.715059E+04  2.570951E-10 -1.454301E-11
        19  13  1.310301E+04 -1.052675E+06 -1.188344E+05  1.282026E+05 -2.571319E-10  5.638517E-11
        19  14 -3.749514E+03 -1.012261E+06 -1.733477E+05  9.019811E+04 -7.271950E-10  1.693256E-11
        19  15 -2.965034E+05 -1.052900E+06 -3.563643E+05  1.284935E+05  2.823311E-10  8.917586E-11
        19  16  7.449990E+02 -1.102617E+06 -1.300897E+05  8.694712E+04  3.277210E-10 -8.627930E-10
        19  17 -6.339784E+04 -1.255882E+06 -2.283156E+05  1.423597E+05 -5.600244E-10 -6.828675E-10
        19  18 -4.056604E+05 -1.492393E+06 -4.638120E+05  2.740340E+05 -1.679276E-10 -1.203517E-10
        19  19  2.546830E+04 -1.002723E+06 -1.075709E+05  1.694616E+05 -2.099905E+03 -6.258908E+04
        19  20  5.591048E+04 -7.685567E+05 -1.183444E+05  3.801695E+04 -9.729161E+03 -1.413203E+05
        19  21 -1.872677E+05 -6.131326E+05 -2.488282E+05 -1.714984E+04 -4.232403E+03 -2.200888E+05
        19  22  1.310366E+04 -1.052672E+06 -1.188298E+05  1.282027E+05 -2.080310E+03 -4.904777E+04
        19  23 -3.744115E+03 -1.012239E+06 -1.733104E+05  9.019921E+04 -9.740327E+03 -1.403131E+05
        19  24 -2.964889E+05 -1.052842E+06 -3.562634E+05  1.284943E+05 -4.295731E+03 -2.315902E+05
        19  25  7.453428E+02 -1.102615E+06 -1.300873E+05  8.694718E+04 -2.062516E+03 -3.550753E+04
        19  26 -6.339251E+04 -1.255861E+06 -2.282788E+05  1.423607E+05 -9.751327E+03 -1.393064E+05
        19  27 -4.056445E+05 -1.492329E+06 -4.637007E+05  2.740349E+05 -4.364499E+03 -2.430834E+05
        20   1  5.362062E+05  1.490596E+05 -1.537722E+05  4.621962E+05 -3.008457E+04 -1.331637E+04
        20   2  5.810049E+05  2.160847E+05 -1.170500E+05  4.896079E+05 -2.487699E+04  9.878030E+03
        20   3  6.455812E+05  2.445013E+05 -9.538353E+04  5.124857E+05 -1.039435E+04  2.070776E+04
        20   4  9.532132E+05  4.548768E+05 -1.378557E+04  6.727824E+05 -1.227991E+04  3.227727E+01
        20   5  9.442251E+05  4.767799E+05 -6.090360E+03  6.721428E+05 -1.895142E+04  1.431786E+04
        20   6  9.575886E+05  4.626521E+05 -3.148125E+03  6.669649E+05 -1.635308E+04  1.624143E+04
        20   7  1.370407E+06  7.607968E+05  1.261801E+05  8.835309E+05  5.541195E+03  1.339376E+04
        20   8  1.307591E+06  7.375525E+05  1.048550E+05  8.548004E+05 -1.302110E+04  1.876132E+04
        20   9  1.269705E+06  6.808573E+05  8.907764E+04  8.215327E+05 -2.231592E+04  1.177207E+04
        20  10  5.362052E+05  1.490592E+05 -1.537742E+05  4.621959E+05 -1.171191E-09 -4.972170E-10
        20  11  5.810042E+05  2.160844E+05 -1.170513E+05  4.896081E+05 -1.089372E-09  7.149565E-10
        20  12  6.455809E+05  2.445008E+05 -9.538454E+04  5.124858E+05 -1.468855E-09  1.023921E-09
        20  13  9.532130E+05  4.548768E+05 -1.378586E+04  6.727824E+05  2.541424E-10  3.731369E-10
        20  14  9.442247E+05  4.767796E+05 -6.091420E+03  6.721430E+05 -2.247466E-09  7.194859E-10
        20  15  9.575883E+05  4.626517E+05 -3.149124E+03  6.669651E+05  8.331153E-11 -8.784715E-11
        20  16  1.370406E+06  7.607966E+05  1.261797E+05  8.835308E+05  8.098442E-10  1.196578E-09
        20  17  1.307591E+06  7.375521E+05  1.048540E+05  8.548006E+05 -7.849970E-10  8.245057E-10
        20  18  1.269704E+06  6.808570E+05  8.907644E+04  8.215329E+05  1.041341E-09 -1.368955E-09
        20  19  5.362062E+05  1.490596E+05 -1.537722E+05  4.621962E+05  3.008457E+04  1.331637E+04
        20  20  5.810049E+05  2.160847E+05 -1.170500E+05  4.896079E+05  2.487699E+04 -9.878030E+03
        20  21  6.455812E+05  2.445013E+05 -9.538353E+04  5.124857E+05  1.039435E+04 -2.070776E+04
        20  22  9.532132E+05  4.548768E+05 -1.378557E+04  6.727824E+05  1.227991E+04 -3.227727E+01
        20  23  9.442251E+05  4.767799E+05 -6.090360E+03  6.721428E+05  1.895142E+04 -1.431786E+04
        20  24  9.575886E+05  4.626521E+05 -3.148125E+03  6.669649E+05  1.635308E+04 -1.624143E+04
        20  25  1.370407E+06  7.607968E+05  1.261801E+05  8.835309E+05 -5.541195E+03 -1.339376E+04
        20  26  1.307591E+06  7.375525E+05  1.048550E+05  8.548004E+05  1.302110E+04 -1.876132E+04
        20  27  1.269705E+06  6.808573E+05  8.907764E+04  8.215327E+05  2.231592E+04 -1.177207E+04
        21   1  6.913956E+05  2.733070E+05 -8.169288E+04  5.347995E+05 -1.131977E+04  1.526645E+04
        21   2  7.321498E+05  3.270643E+05 -6.311697E+04  5.661414E+05 -8.576971E+03  1.293793E+04
        21   3  8.009931E+05  3.518335E+05 -4.522026E+04  5.893494E+05 -5.421904E+03  1.005681E+04
        21   4  9.576845E+05  4.620889E+05 -2.181790E+03  6.677901E+05 -1.375364E+04  1.344201E+04
        21   5  9.437061E+05  4.767394E+05 -2.510711E+02  6.717017E+05 -1.154154E+04  1.071664E+04
        21   6  9.579289E+05  4.625166E+05  1.460799E+03  6.674773E+05 -8.917341E+03  7.438759E+03
        21   7  1.224048E+06  6.509084E+05  7.732038E+04  8.008439E+05 -1.618889E+04  1.161652E+04
        21   8  1.155310E+06  6.264387E+05  6.260949E+04  7.773021E+05 -1.450746E+04  8.494342E+03
        21   9  1.114891E+06  5.732133E+05  4.813915E+04  7.456274E+05 -1.241397E+04  4.819814E+03
        21  10  6.913954E+05  2.733067E+05 -8.169356E+04  5.347996E+05 -3.395519E-09 -1.939102E-09
        21  11  7.321496E+05  3.270641E+05 -6.311742E+04  5.661415E+05  6.651560E-09  3.162560E-09
        21  12  8.009930E+05  3.518334E+05 -4.522051E+04  5.893495E+05  7.941405E-09  3.662830E-09
        21  13  9.576843E+05  4.620887E+05 -2.182485E+03  6.677903E+05  2.659276E-09  8.698762E-10
        21  14  9.437060E+05  4.767393E+05 -2.515375E+02  6.717018E+05  4.846936E-09  3.038111E-09
        21  15  9.579288E+05  4.625166E+05  1.460545E+03  6.674774E+05  2.478733E-09  1.044214E-09
        21  16  1.224047E+06  6.509082E+05  7.731964E+04  8.008440E+05  9.008507E-09  3.560421E-09
        21  17  1.155310E+06  6.264385E+05  6.260895E+04  7.773022E+05  5.424103E-09  2.993618E-09
        21  18  1.114891E+06  5.732133E+05  4.813882E+04  7.456274E+05 -2.299419E-09 -2.159632E-09
        21  19  6.913956E+05  2.733070E+05 -8.169288E+04  5.347995E+05  1.131977E+04 -1.526645E+04
        21  20  7.321498E+05  3.270643E+05 -6.311697E+04  5.661414E+05  8.576971E+03 -1.293793E+04
        21  21  8.009931E+05  3.518335E+05 -4.522026E+04  5.893494E+05  5.421904E+03 -1.005681E+04
        21  22  9.576845E+05  4.620889E+05 -2.181790E+03  6.677901E+05  1.375364E+04 -1.344201E+04
        21  23  9.437061E+05  4.767394E+05 -2.510711E+02  6.717017E+05  1.154154E+04 -1.071664E+04
        21  24  9.579289E+05  4.625166E+05  1.460799E+03  6.674773E+05  8.917341E+03 -7.438759E+03
        21  25  1.224048E+06  6.509084E+05  7.732038E+04  8.008439E+05  1.618889E+04 -1.161652E+04
        21  26  1.155310E+06  6.264387E+05  6.260949E+04  7.773021E+05  1.450746E+04 -8.494342E+03
        21  27  1.114891E+06  5.732133E+05  4.813915E+04  7.456274E+05  1.241397E+04 -4.819814E+03
        22   1  8.444701E+05  3.825813E+05 -3.099182E+04  6.110784E+05 -4.300321E+03  7.633447E+03
        22   2  8.847387E+05  4.353060E+05 -1.233954E+04  6.424057E+05 -3.707989E+03  2.658530E+03
        22   3  9.538024E+05  4.600819E+05  8.045332E+03  6.654301E+05 -3.113265E+03 -2.320850E+03
        22   4  9.579537E+05  4.625285E+05  2.435044E+03  6.675880E+05 -7.636567E+03  5.134936E+03
        22   5  9.436319E+05  4.766352E+05  5.069746E+03  6.716425E+05 -7.048561E+03  1.569891E+02
        22   6  9.581021E+05  4.627924E+05  9.440774E+03  6.673914E+05 -6.457932E+03 -4.825195E+03
        22   7  1.071453E+06  5.424836E+05  3.586094E+04  7.241097E+05 -1.097367E+04  2.635786E+03
        22   8  1.002529E+06  5.179663E+05  2.247871E+04  7.008824E+05 -1.038956E+04 -2.344870E+03
        22   9  9.624019E+05  4.655028E+05  1.083627E+04  6.693527E+05 -9.802597E+03 -7.329536E+03
        22  10  8.444701E+05  3.825813E+05 -3.099196E+04  6.110784E+05  4.991193E-10 -4.464522E-10
        22  11  8.847386E+05  4.353060E+05 -1.233958E+04  6.424057E+05  7.929947E-10  2.458265E-10
        22  12  9.538023E+05  4.600819E+05  8.045304E+03  6.654301E+05  8.717351E-10  1.078286E-10
        22  13  9.579537E+05  4.625285E+05  2.434885E+03  6.675880E+05  3.626431E-10 -4.025465E-10
        22  14  9.436319E+05  4.766352E+05  5.069653E+03  6.716425E+05  2.036879E-10 -1.520048E-10
        22  15  9.581021E+05  4.627923E+05  9.440653E+03  6.673914E+05 -5.124959E-10 -4.860628E-12
        22  16  1.071452E+06  5.424836E+05  3.586070E+04  7.241097E+05 -3.843052E-10 -8.763355E-11
        22  17  1.002529E+06  5.179662E+05  2.247850E+04  7.008824E+05  2.088740E-10  1.430334E-11
        22  18  9.624018E+05  4.655027E+05  1.083598E+04  6.693526E+05 -6.638135E-10 -2.988900E-10
        22  19  8.444701E+05  3.825813E+05 -3.099182E+04  6.110784E+05  4.300321E+03 -7.633447E+03
        22  20  8.847387E+05  4.353060E+05 -1.233954E+04  6.424057E+05  3.707989E+03 -2.658530E+03
        22  21  9.538024E+05  4.600819E+05  8.045332E+03  6.654301E+05  3.113265E+03  2.320850E+03
        22  22  9.579537E+05  4.625285E+05  2.435044E+03  6.675880E+05  7.636567E+03 -5.134936E+03
        22  23  9.436319E+05  4.766352E+05  5.069746E+03  6.716425E+05  7.048561E+03 -1.569891E+02
        22  24  9.581021E+05  4.627924E+05  9.440774E+03  6.673914E+05  6.457932E+03  4.825195E+03
        22  25  1.071453E+06  5.424836E+05  3.586094E+04  7.241097E+05  1.097367E+04 -2.635786E+03
        22  26  1.002529E+06  5.179663E+05  2.247871E+04  7.008824E+05  1.038956E+04  2.344870E+03
        22  27  9.624019E+05  4.655028E+05  1.083627E+04  6.693527E+05  9.802597E+03  7.329536E+03
        23   1  9.959628E+05  4.918186E+05  2.430557E+04  6.881025E+05 -2.996953E+03 -5.471800E+03
        23   2  1.037509E+06  5.420878E+05  4.975862E+04  7.179419E+05 -9.619734E+03 -1.572150E+04
        23   3  1.112578E+06  5.704402E+05  8.467163E+04  7.372763E+05 -1.654673E+04 -2.556653E+04
        23   4  9.582393E+05  4.625189E+05  1.246877E+04  6.680963E+05 -6.451307E+03 -8.058293E+03
        23   5  9.430610E+05  4.762731E+05  2.184044E+04  6.712815E+05 -1.268256E+04 -1.801524E+04
        23   6  9.613191E+05  4.680253E+05  4.033536E+04  6.639590E+05 -1.921699E+04 -2.756676E+04
        23   7  9.205173E+05  4.332201E+05  6.318654E+02  6.480915E+05 -9.905380E+03 -1.064455E+04
        23   8  8.486222E+05  4.104628E+05 -6.078849E+03  6.246289E+05 -1.574478E+04 -2.030854E+04
        23   9  8.100835E+05  3.656206E+05 -4.003887E+03  5.906607E+05 -2.188639E+04 -2.956639E+04
        23  10  9.959628E+05  4.918186E+05  2.430550E+04  6.881024E+05  1.470521E-10 -2.667235E-10
        23  11  1.037509E+06  5.420875E+05  4.975798E+04  7.179418E+05  6.616990E-10 -2.964605E-10
        23  12  1.112578E+06  5.704394E+05  8.466989E+04  7.372759E+05  6.805352E-10 -2.938317E-10
        23  13  9.582392E+05  4.625188E+05  1.246857E+04  6.680962E+05  5.799842E-10 -1.343213E-10
        23  14  9.430607E+05  4.762727E+05  2.183953E+04  6.712814E+05 -4.651389E-10 -2.312414E-10
        23  15  9.613185E+05  4.680244E+05  4.033324E+04  6.639586E+05 -3.533282E-11  3.172972E-11
        23  16  9.205172E+05  4.332200E+05  6.314690E+02  6.480914E+05 -6.566496E-10 -4.083942E-10
        23  17  8.486218E+05  4.104622E+05 -6.080088E+03  6.246286E+05 -4.363930E-10 -2.288624E-10
        23  18  8.100827E+05  3.656196E+05 -4.006426E+03  5.906602E+05 -1.461582E-09  3.757686E-10
        23  19  9.959628E+05  4.918186E+05  2.430557E+04  6.881025E+05  2.996953E+03  5.471800E+03
        23  20  1.037509E+06  5.420878E+05  4.975862E+04  7.179419E+05  9.619734E+03  1.572150E+04
        23  21  1.112578E+06  5.704402E+05  8.467163E+04  7.372763E+05  1.654673E+04  2.556653E+04
        23  22  9.582393E+05  4.625189E+05  1.246877E+04  6.680963E+05  6.451307E+03  8.058293E+03
        23  23  9.430610E+05  4.762731E+05  2.184044E+04  6.712815E+05  1.268256E+04  1.801524E+04
        23  24  9.613191E+05  4.680253E+05  4.033536E+04  6.639590E+05  1.921699E+04  2.756676E+04
        23  25  9.205173E+05  4.332201E+05  6.318654E+02  6.480915E+05  9.905380E+03  1.064455E+04
        23  26  8.486222E+05  4.104628E+05 -6.078849E+03  6.246289E+05  1.574478E+04  2.030854E+04
        23  27  8.100835E+05  3.656206E+05 -4.003887E+03  5.906607E+05  2.188639E+04  2.956639E+04
        24   1  1.131863E+06  6.189410E+05  1.080889E+05  7.779473E+05 -1.764226E+04 -3.070135E+04
        24   2  1.210417E+06  6.216901E+05  1.624354E+05  7.798852E+05 -6.261697E+04 -6.586030E+04
        24   3  1.399658E+06  7.084556E+05  2.913306E+05  7.232422E+05 -1.143630E+05 -9.199381E+04
        24   4  9.613002E+05  4.612846E+05  5.093755E+04  6.756768E+05 -2.288406E+04 -3.462636E+04
        24   5  9.369094E+05  4.737336E+05  8.736888E+04  6.648138E+05 -5.915660E+04 -6.327374E+04
        24   6  1.021342E+06  5.683535E+05  1.908409E+05  5.953643E+05 -1.021906E+05 -8.289645E+04
        24   7  7.907712E+05  3.036613E+05 -6.216823E+03  5.734433E+05 -2.812390E+04 -3.854930E+04
        24   8  6.634857E+05  3.257992E+05  1.229620E+04  5.497930E+05 -5.569833E+04 -6.068828E+04
        24   9  6.431895E+05  4.282692E+05  9.034306E+04  4.675486E+05 -9.002850E+04 -7.380209E+04
        24  10  1.131863E+06  6.189399E+05  1.080866E+05  7.779468E+05  2.995786E-09  1.682506E-09
        24  11  1.210412E+06  6.216844E+05  1.624199E+05  7.798819E+05 -5.362703E-09 -3.694003E-09
        24  12  1.399642E+06  7.084431E+05  2.912902E+05  7.232337E+05 -6.523525E-09 -4.656660E-09
        24  13  9.612993E+05  4.612832E+05  5.093432E+04  6.756762E+05 -2.226118E-09 -1.456372E-09
        24  14  9.369046E+05  4.737284E+05  8.735481E+04  6.648108E+05 -4.874607E-09 -3.685082E-09
        24  15  1.021329E+06  5.683433E+05  1.908084E+05  5.953575E+05 -2.630316E-09 -1.557318E-09
        24  16  7.907700E+05  3.036595E+05 -6.221095E+03  5.734424E+05 -7.745532E-09 -4.557728E-09
        24  17  6.634814E+05  3.257944E+05  1.228347E+04  5.497903E+05 -6.216002E-09 -4.117040E-09
        24  18  6.431794E+05  4.282612E+05  9.031763E+04  4.675433E+05  2.224176E-09  1.573967E-09
        24  19  1.131863E+06  6.189410E+05  1.080889E+05  7.779473E+05  1.764226E+04  3.070135E+04
        24  20  1.210417E+06  6.216901E+05  1.624354E+05  7.798852E+05  6.261697E+04  6.586030E+04
        24  21  1.399658E+06  7.084556E+05  2.913306E+05  7.232422E+05  1.143630E+05  9.199381E+04
        24  22  9.613002E+05  4.612846E+05  5.093755E+04  6.756768E+05  2.288406E+04  3.462636E+04
        24  23  9.369094E+05  4.737336E+05  8.736888E+04  6.648138E+05  5.915660E+04  6.327374E+04
        24  24  1.021342E+06  5.683535E+05  1.908409E+05  5.953643E+05  1.021906E+05  8.289645E+04
        24  25  7.907712E+05  3.036613E+05 -6.216823E+03  5.734433E+05  2.812390E+04  3.854930E+04
        24  26  6.634857E+05  3.257992E+05  1.229620E+04  5.497930E+05  5.569833E+04  6.068828E+04
        24  27  6.431895E+05  4.282692E+05  9.034306E+04  4.675486E+05  9.002850E+04  7.380209E+04
        25   1  1.456145E+06  9.816046E+04  1.173564E+05  4.817923E+04  7.972468E+04  6.173179E+00
        25   2  1.442952E+06  1.362279E+03  5.459883E+04  1.721021E+04  5.087886E+04  1.407291E+00
        25   3  1.456214E+06 -4.558459E+03  3.331006E+04 -1.375741E+04  2.203332E+04 -4.871553E-01
        25   4  1.456142E+06  9.815610E+04  1.173558E+05 -3.018107E-09  7.972468E+04  1.166252E-10
        25   5  1.442952E+06  1.361724E+03  5.459875E+04 -2.147621E-09  5.087886E+04  1.505001E-10
        25   6  1.456214E+06 -4.558814E+03  3.331001E+04 -3.840817E-09  2.203332E+04 -3.233851E-10
        25   7  1.456145E+06  9.816046E+04  1.173564E+05 -4.817923E+04  7.972468E+04 -6.173179E+00
        25   8  1.442952E+06  1.362279E+03  5.459883E+04 -1.721021E+04  5.087886E+04 -1.407291E+00
        25   9  1.456214E+06 -4.558459E+03  3.331006E+04  1.375741E+04  2.203332E+04  4.871553E-01
        25  10  1.456138E+06  9.815875E+04  1.173445E+05  4.817923E+04 -4.280355E-10  8.608925E-11
        25  11  1.442949E+06  1.361586E+03  5.459398E+04  1.721021E+04 -2.291320E-10  5.539141E-11
        25  12  1.456214E+06 -4.558589E+03  3.330915E+04 -1.375741E+04 -1.308894E-10 -2.142066E-10
        25  13  1.456136E+06  9.815440E+04  1.173439E+05  2.232269E-10 -1.461737E-10  1.848944E-12
        25  14  1.442949E+06  1.361031E+03  5.459390E+04 -1.917191E-09  2.525639E-10 -8.052938E-11
        25  15  1.456213E+06 -4.558944E+03  3.330910E+04 -2.445471E-09  2.299816E-10 -2.857770E-10
        25  16  1.456138E+06  9.815875E+04  1.173445E+05 -4.817923E+04  2.531577E-10 -4.212320E-11
        25  17  1.442949E+06  1.361586E+03  5.459398E+04 -1.721021E+04  4.096297E-10 -2.358113E-10
        25  18  1.456214E+06 -4.558589E+03  3.330915E+04  1.375741E+04 -4.200485E-10 -4.138227E-10
        25  19  1.456145E+06  9.816046E+04  1.173564E+05  4.817923E+04 -7.972468E+04 -6.173179E+00
        25  20  1.442952E+06  1.362279E+03  5.459883E+04  1.721021E+04 -5.087886E+04 -1.407291E+00
        25  21  1.456214E+06 -4.558459E+03  3.331006E+04 -1.375741E+04 -2.203332E+04  4.871553E-01
        25  22  1.456142E+06  9.815610E+04  1.173558E+05  2.169159E-10 -7.972468E+04 -1.052615E-10
        25  23  1.442952E+06  1.361724E+03  5.459875E+04  1.553357E-09 -5.087886E+04 -2.773119E-10
        25  24  1.456214E+06 -4.558814E+03  3.331001E+04 -2.376051E-09 -2.203332E+04 -2.464925E-10
        25  25  1.456145E+06  9.816046E+04  1.173564E+05 -4.817923E+04 -7.972468E+04  6.173179E+00
        25  26  1.442952E+06  1.362279E+03  5.459883E+04 -1.721021E+04 -5.087886E+04  1.407291E+00
        25  27  1.456214E+06 -4.558459E+03  3.331006E+04  1.375741E+04 -2.203332E+04 -4.871553E-01
        26   1  1.450885E+06  4.968141E+03  2.754770E+04  1.897699E+03  1.719770E+04  5.245078E-02
        26   2  1.449625E+06 -1.706041E+02  1.840839E+04  5.530121E+02  7.992182E+03  7.103213E-03
        26   3  1.450891E+06  1.484317E+01  1.658330E+04 -7.916972E+02 -1.213424E+03  1.543923E-03
        26   4  1.450885E+06  4.968135E+03  2.754769E+04 -2.851622E-09  1.719770E+04 -3.715881E-10
        26   5  1.449625E+06 -1.706047E+02  1.840839E+04  1.905057E-09  7.992182E+03 -3.843600E-11
        26   6  1.450891E+06  1.484199E+01  1.658330E+04 -1.253981E-09 -1.213424E+03  2.388445E-11
        26   7  1.450885E+06  4.968141E+03  2.754770E+04 -1.897699E+03  1.719770E+04 -5.245078E-02
        26   8  1.449625E+06 -1.706041E+02  1.840839E+04 -5.530121E+02  7.992182E+03 -7.103213E-03
        26   9  1.450891E+06  1.484317E+01  1.658330E+04  7.916972E+02 -1.213424E+03 -1.543923E-03
        26  10  1.450885E+06  4.968062E+03  2.754714E+04  1.897699E+03 -1.591240E-10 -2.966941E-10
        26  11  1.449625E+06 -1.706212E+02  1.840827E+04  5.530121E+02  9.407481E-10  2.625313E-11
        26  12  1.450891E+06  1.484278E+01  1.658329E+04 -7.916972E+02  9.083729E-11  2.409813E-10
        26  13  1.450885E+06  4.968055E+03  2.754714E+04 -1.666621E-09 -2.612042E-10 -2.560985E-10
        26  14  1.449625E+06 -1.706218E+02  1.840827E+04  6.022885E-10  1.347470E-09  4.918122E-11
        26  15  1.450891E+06  1.484160E+01  1.658329E+04  1.519994E-09 -2.178565E-10  1.051757E-10
        26  16  1.450885E+06  4.968062E+03  2.754714E+04 -1.897699E+03  9.181099E-11 -2.592473E-10
        26  17  1.449625E+06 -1.706212E+02  1.840827E+04 -5.530121E+02 -6.512166E-10  4.108229E-11
        26  18  1.450891E+06  1.484278E+01  1.658329E+04  7.916972E+02  1.454329E-10  4.811350E-11
        26  19  1.450885E+06  4.968141E+03  2.754770E+04  1.897699E+03 -1.719770E+04 -5.245078E-02
        26  20  1.449625E+06 -1.706041E+02  1.840839E+04  5.530121E+02 -7.992182E+03 -7.103213E-03
        26  21  1.450891E+06  1.484317E+01  1.658330E+04 -7.916972E+02  1.213424E+03 -1.543923E-03
        26  22  1.450885E+06  4.968135E+03  2.754769E+04 -4.299536E-09 -1.719770E+04 -1.286803E-10
        26  23  1.449625E+06 -1.706047E+02  1.840839E+04 -2.323190E-09 -7.992182E+03  8.186225E-11
        26  24  1.450891E+06  1.484199E+01  1.658330E+04  2.635138E-10  1.213424E+03  1.232508E-10
        26  25  1.450885E+06  4.968141E+03  2.754770E+04 -1.897699E+03 -1.719770E+04  5.245078E-02
        26  26  1.449625E+06 -1.706041E+02  1.840839E+04 -5.530121E+02 -7.992182E+03  7.103213E-03
        26  27  1.450891E+06  1.484317E+01  1.658330E+04  7.916972E+02  1.213424E+03  1.543923E-03
        27   1  1.451093E+06 -2.291981E+02  1.749413E+04  1.336086E+03 -4.219705E+03 -9.060879E-03
        27   2  1.449370E+06 -1.962447E+02  2.345513E+04 -6.821953E+02 -1.596629E+04  1.750524E-02
        27   3  1.451082E+06  7.469100E+03  3.895915E+04 -2.700467E+03 -2.771300E+04  1.202755E-01
        27   4  1.451093E+06 -2.292014E+02  1.749413E+04 -1.953024E-09 -4.219705E+03  2.742379E-10
        27   5  1.449370E+06 -1.962455E+02  2.345513E+04 -3.452166E-10 -1.596629E+04  4.857821E-10
        27   6  1.451082E+06  7.469086E+03  3.895915E+04 -1.757589E-09 -2.771300E+04 -5.578027E-10
        27   7  1.451093E+06 -2.291981E+02  1.749413E+04 -1.336086E+03 -4.219705E+03  9.060880E-03
        27   8  1.449370E+06 -1.962447E+02  2.345513E+04  6.821953E+02 -1.596629E+04 -1.750523E-02
        27   9  1.451082E+06  7.469100E+03  3.895915E+04  2.700467E+03 -2.771300E+04 -1.202755E-01
        27  10  1.451093E+06 -2.292028E+02  1.749410E+04  1.336086E+03 -5.626174E-10  1.033370E-10
        27  11  1.449370E+06 -1.963129E+02  2.345465E+04 -6.821953E+02 -5.524184E-11 -9.960343E-11
        27  12  1.451081E+06  7.468894E+03  3.895771E+04 -2.700467E+03  3.910391E-13 -1.759468E-10
        27  13  1.451093E+06 -2.292062E+02  1.749410E+04 -8.754281E-10 -6.398941E-10  1.109305E-10
        27  14  1.449370E+06 -1.963138E+02  2.345465E+04 -1.052950E-10 -1.220622E-10  6.195632E-11
        27  15  1.451081E+06  7.468881E+03  3.895771E+04  2.020251E-09  4.019742E-10 -2.124085E-10
        27  16  1.451093E+06 -2.292028E+02  1.749410E+04 -1.336086E+03  5.437021E-10  2.076490E-11
        27  17  1.449370E+06 -1.963129E+02  2.345465E+04  6.821953E+02 -3.685682E-12  1.460994E-10
        27  18  1.451081E+06  7.468894E+03  3.895771E+04  2.700467E+03 -2.324496E-10 -2.404271E-10
        27  19  1.451093E+06 -2.291981E+02  1.749413E+04  1.336086E+03  4.219705E+03  9.060879E-03
        27  20  1.449370E+06 -1.962447E+02  2.345513E+04 -6.821953E+02  1.596629E+04 -1.750524E-02
        27  21  1.451082E+06  7.469100E+03  3.895915E+04 -2.700467E+03  2.771300E+04 -1.202755E-01
        27  22  1.451093E+06 -2.292014E+02  1.749413E+04  7.704471E-10  4.219705E+03 -7.431536E-11
        27  23  1.449370E+06 -1.962455E+02  2.345513E+04  1.205890E-09  1.596629E+04 -3.322583E-10
        27  24  1.451082E+06  7.469086E+03  3.895915E+04  1.258311E-09  2.771300E+04  1.106144E-10
        27  25  1.451093E+06 -2.291981E+02  1.749413E+04 -1.336086E+03  4.219705E+03 -9.060879E-03
        27  26  1.449370E+06 -1.962447E+02  2.345513E+04  6.821953E+02  1.596629E+04  1.750524E-02
        27  27  1.451082E+06  7.469100E+03  3.895915E+04  2.700467E+03  2.771300E+04  1.202755E-01
        28   1  1.459126E+06 -6.818210E+03  4.819994E+04  2.067621E+04 -3.459507E+04 -1.149567E+00
        28   2  1.439298E+06  2.051591E+03  8.096469E+04 -2.570256E+04 -7.739418E+04  3.197042E+00
        28   3  1.459024E+06  1.469597E+05  1.755609E+05 -7.208271E+04 -1.201924E+05  1.392404E+01
        28   4  1.459126E+06 -6.819012E+03  4.819983E+04 -1.128102E-09 -3.459507E+04 -6.968716E-10
        28   5  1.439297E+06  2.050353E+03  8.096451E+04  1.392813E-09 -7.739418E+04  6.165400E-11
        28   6  1.459019E+06  1.469499E+05  1.755595E+05 -1.246832E-09 -1.201923E+05  2.650206E-10
        28   7  1.459126E+06 -6.818210E+03  4.819994E+04 -2.067621E+04 -3.459507E+04  1.149567E+00
        28   8  1.439298E+06  2.051591E+03  8.096469E+04  2.570256E+04 -7.739418E+04 -3.197042E+00
        28   9  1.459024E+06  1.469597E+05  1.755609E+05  7.208271E+04 -1.201924E+05 -1.392404E+01
        28  10  1.459125E+06 -6.818531E+03  4.819770E+04  2.067621E+04 -1.050749E-09 -2.407150E-10
        28  11  1.439291E+06  2.049988E+03  8.095346E+04 -2.570256E+04  2.091077E-10 -2.906275E-10
        28  12  1.459009E+06  1.469558E+05  1.755338E+05 -7.208271E+04 -2.792919E-10 -7.157757E-11
        28  13  1.459124E+06 -6.819332E+03  4.819758E+04  1.069156E-09  2.233173E-10 -2.756868E-10
        28  14  1.439291E+06  2.048749E+03  8.095328E+04 -7.286190E-10  1.240184E-11 -1.138538E-10
        28  15  1.459003E+06  1.469461E+05  1.755324E+05 -7.921783E-10 -6.444981E-10 -4.215529E-12
        28  16  1.459125E+06 -6.818531E+03  4.819770E+04 -2.067621E+04 -4.819593E-11 -3.695519E-10
        28  17  1.439291E+06  2.049988E+03  8.095346E+04  2.570256E+04 -1.080728E-09  2.330306E-11
        28  18  1.459009E+06  1.469558E+05  1.755338E+05  7.208271E+04  1.765756E-10  4.679395E-11
        28  19  1.459126E+06 -6.818210E+03  4.819994E+04  2.067621E+04  3.459507E+04  1.149567E+00
        28  20  1.439298E+06  2.051591E+03  8.096469E+04 -2.570256E+04  7.739418E+04 -3.197042E+00
        28  21  1.459024E+06  1.469597E+05  1.755609E+05 -7.208271E+04  1.201924E+05 -1.392404E+01
        28  22  1.459126E+06 -6.819012E+03  4.819983E+04  6.739270E-11  3.459507E+04  1.525028E-10
        28  23  1.439297E+06  2.050353E+03  8.096451E+04 -1.783035E-09  7.739418E+04 -2.588893E-10
        28  24  1.459019E+06  1.469499E+05  1.755595E+05 -3.503198E-09  1.201923E+05 -2.873676E-10
        28  25  1.459126E+06 -6.818210E+03  4.819994E+04 -2.067621E+04  3.459507E+04 -1.149567E+00
        28  26  1.439298E+06  2.051591E+03  8.096469E+04  2.570256E+04  7.739418E+04  3.197042E+00
        28  27  1.459024E+06  1.469597E+05  1.755609E+05  7.208271E+04  1.201924E+05  1.392404E+01
        29   1 -3.727880E+05 -1.136661E+06 -4.311376E+05  1.735191E+05 -3.585340E+03 -2.542095E+05
        29   2 -6.206503E+04 -1.058099E+06 -2.249329E+05  7.046407E+04 -1.085303E+04 -1.562317E+05
        29   3 -3.536222E+04 -1.063327E+06 -1.535777E+05 -1.854009E+04 -1.078248E+04 -5.824739E+04
        29   4 -3.046185E+05 -8.623415E+05 -3.646733E+05  2.413548E+04 -3.523284E+03 -2.437278E+05
        29   5 -4.102130E+03 -8.210035E+05 -1.723570E+05  1.708396E+04 -1.083880E+04 -1.527773E+05
        29   6  1.364188E+04 -8.622181E+05 -1.099721E+05  2.409928E+04 -1.078699E+04 -6.182729E+04
        29   7 -2.363704E+05 -5.879046E+05 -2.982019E+05 -1.253145E+05 -3.466303E+03 -2.332415E+05
        29   8  5.386770E+04 -5.838489E+05 -1.197831E+05 -3.631680E+04 -1.082518E+04 -1.493215E+05
        29   9  6.265015E+04 -6.610673E+05 -6.636783E+04  6.675266E+04 -1.079200E+04 -6.540833E+04
        29  10 -3.728054E+05 -1.136731E+06 -4.312593E+05  1.735184E+05  2.607808E-10 -2.066581E-09
        29  11 -6.207172E+04 -1.058126E+06 -2.249790E+05  7.046270E+04 -2.213616E-10  7.417446E-09
        29  12 -3.536325E+04 -1.063331E+06 -1.535843E+05 -1.854059E+04 -1.567533E-09  1.410017E-08
        29  13 -3.046345E+05 -8.624054E+05 -3.647851E+05  2.413479E+04  3.793005E-10 -2.477179E-12
        29  14 -4.108534E+03 -8.210287E+05 -1.724012E+05  1.708263E+04 -6.774324E-10  1.028378E-11
        29  15  1.364073E+04 -8.622222E+05 -1.099795E+05  2.409874E+04 -1.118783E-09  8.618505E-11
        29  16 -2.363850E+05 -5.879630E+05 -2.983043E+05 -1.253151E+05  2.423893E-10  2.045039E-09
        29  17  5.386158E+04 -5.838729E+05 -1.198253E+05 -3.631810E+04 -9.596364E-10 -7.421868E-09
        29  18  6.264887E+04 -6.610720E+05 -6.637610E+04  6.675209E+04 -1.571264E-09 -1.417726E-08
        29  19 -3.727880E+05 -1.136661E+06 -4.311376E+05  1.735191E+05  3.585340E+03  2.542095E+05
        29  20 -6.206503E+04 -1.058099E+06 -2.249329E+05  7.046407E+04  1.085303E+04  1.562317E+05
        29  21 -3.536222E+04 -1.063327E+06 -1.535777E+05 -1.854009E+04  1.078248E+04  5.824739E+04
        29  22 -3.046185E+05 -8.623415E+05 -3.646733E+05  2.413548E+04  3.523284E+03  2.437278E+05
        29  23 -4.102130E+03 -8.210035E+05 -1.723570E+05  1.708396E+04  1.083880E+04  1.527773E+05
        29  24  1.364188E+04 -8.622181E+05 -1.099721E+05  2.409928E+04  1.078699E+04  6.182729E+04
        29  25 -2.363704E+05 -5.879046E+05 -2.982019E+05 -1.253145E+05  3.466303E+03  2.332415E+05
        29  26  5.386770E+04 -5.838489E+05 -1.197831E+05 -3.631680E+04  1.082518E+04  1.493215E+05
        29  27  6.265015E+04 -6.610673E+05 -6.636783E+04  6.675266E+04  1.079200E+04  6.540833E+04
        30   1 -5.674552E+04 -1.018291E+06 -1.318317E+05  3.191354E+04 -8.950194E+03 -4.402670E+04
        30   2 -3.235181E+04 -9.757265E+05 -1.024564E+05  1.718302E+04 -7.225298E+03 -7.044225E+03
        30   3 -3.520824E+04 -9.448003E+05 -1.039946E+05  1.693932E+04 -5.184284E+03  2.994019E+04
        30   4 -1.486636E+04 -8.464676E+05 -9.441591E+04  2.420323E+04 -8.949835E+03 -4.552740E+04
        30   5  5.433003E+02 -8.406721E+05 -7.317144E+04  1.695920E+04 -7.225694E+03 -8.840574E+03
        30   6 -1.124210E+04 -8.464618E+05 -8.262954E+04  2.420222E+04 -5.184577E+03  2.784607E+04
        30   7  2.701105E+04 -6.746165E+05 -5.700186E+04  1.649076E+04 -8.949440E+03 -4.702852E+04
        30   8  3.343720E+04 -7.056005E+05 -4.388756E+04  1.673533E+04 -7.226088E+03 -1.063731E+04
        30   9  1.272360E+04 -7.481140E+05 -6.126500E+04  3.146629E+04 -5.184919E+03  2.575162E+04
        30  10 -5.674612E+04 -1.018293E+06 -1.318355E+05  3.191323E+04 -1.057127E-09 -1.423206E-08
        30  11 -3.235188E+04 -9.757266E+05 -1.024566E+05  1.718298E+04 -4.381999E-10 -6.296834E-09
        30  12 -3.520851E+04 -9.448013E+05 -1.039964E+05  1.693944E+04  1.507640E-09  3.766168E-09
        30  13 -1.486701E+04 -8.464699E+05 -9.441996E+04  2.420290E+04 -1.108924E-09  6.395165E-11
        30  14  5.432233E+02 -8.406722E+05 -7.317168E+04  1.695915E+04 -8.240971E-10  8.876631E-11
        30  15 -1.124234E+04 -8.464626E+05 -8.263105E+04  2.420234E+04  2.853738E-11  1.174822E-10
        30  16  2.701037E+04 -6.746189E+05 -5.700617E+04  1.649042E+04 -1.044446E-09  1.414430E-08
        30  17  3.343712E+04 -7.056006E+05 -4.388787E+04  1.673527E+04 -6.566948E-10  6.328571E-09
        30  18  1.272340E+04 -7.481147E+05 -6.126629E+04  3.146640E+04  1.146456E-09 -3.812323E-09
        30  19 -5.674552E+04 -1.018291E+06 -1.318317E+05  3.191354E+04  8.950194E+03  4.402670E+04
        30  20 -3.235181E+04 -9.757265E+05 -1.024564E+05  1.718302E+04  7.225298E+03  7.044225E+03
        30  21 -3.520824E+04 -9.448003E+05 -1.039946E+05  1.693932E+04  5.184284E+03 -2.994019E+04
        30  22 -1.486636E+04 -8.464676E+05 -9.441591E+04  2.420323E+04  8.949835E+03  4.552740E+04
        30  23  5.433003E+02 -8.406721E+05 -7.317144E+04  1.695920E+04  7.225694E+03  8.840574E+03
        30  24 -1.124210E+04 -8.464618E+05 -8.262954E+04  2.420222E+04  5.184577E+03 -2.784607E+04
        30  25  2.701105E+04 -6.746165E+05 -5.700186E+04  1.649076E+04  8.949440E+03  4.702852E+04
        30  26  3.343720E+04 -7.056005E+05 -4.388756E+04  1.673533E+04  7.226088E+03  1.063731E+04
        30  27  1.272360E+04 -7.481140E+05 -6.126500E+04  3.146629E+04  5.184919E+03 -2.575162E+04
        31   1 -6.374479E+03 -9.273461E+05 -1.072799E+05  5.725778E+04 -3.856554E+03  4.407309E+04
        31   2 -1.100863E+04 -8.581866E+05 -1.444333E+05 -2.490577E+04 -1.843590E+03  1.160850E+05
        31   3 -2.364699E+05 -8.536364E+05 -2.837089E+05 -9.249903E+04 -3.194857E+02  1.881011E+05
        31   4  1.040296E+04 -8.582477E+05 -9.241403E+04  2.419902E+04 -3.859625E+03  4.193288E+04
        31   5 -3.140659E+03 -8.259421E+05 -1.375308E+05  1.695731E+04 -1.836346E+03  1.144000E+05
        31   6 -2.376070E+05 -8.583402E+05 -2.850887E+05  2.428337E+04 -2.845160E+02  1.868671E+05
        31   7  2.718419E+04 -7.891424E+05 -7.754782E+04 -8.863472E+03 -3.862468E+03  3.979243E+04
        31   8  4.733835E+03 -7.936928E+05 -1.306275E+05  5.882259E+04 -1.829330E+03  1.127148E+05
        31   9 -2.386928E+05 -8.630146E+05 -2.864611E+05  1.410649E+05 -2.500108E+02  1.856332E+05
        31  10 -6.375017E+03 -9.273482E+05 -1.072836E+05  5.725792E+04  1.429199E-09 -1.314446E-09
        31  11 -1.101225E+04 -8.582011E+05 -1.444586E+05 -2.490559E+04  5.017206E-10 -6.419927E-10
        31  12 -2.364794E+05 -8.536744E+05 -2.837755E+05 -9.249898E+04 -3.750046E-10  5.056249E-13
        31  13  1.040247E+04 -8.582496E+05 -9.241737E+04  2.419915E+04  1.170924E-09  1.300065E-10
        31  14 -3.144182E+03 -8.259561E+05 -1.375555E+05  1.695748E+04 -4.808257E-11  1.050524E-10
        31  15 -2.376164E+05 -8.583777E+05 -2.851544E+05  2.428342E+04  2.930522E-10  1.915026E-10
        31  16  2.718375E+04 -7.891441E+05 -7.755083E+04 -8.863348E+03  8.276304E-10  1.255701E-09
        31  17  4.730415E+03 -7.937064E+05 -1.306514E+05  5.882275E+04 -6.287870E-10  5.805192E-10
        31  18 -2.387021E+05 -8.630517E+05 -2.865260E+05  1.410650E+05 -3.135709E-10 -3.790326E-13
        31  19 -6.374479E+03 -9.273461E+05 -1.072799E+05  5.725778E+04  3.856554E+03 -4.407309E+04
        31  20 -1.100863E+04 -8.581866E+05 -1.444333E+05 -2.490577E+04  1.843590E+03 -1.160850E+05
        31  21 -2.364699E+05 -8.536364E+05 -2.837089E+05 -9.249903E+04  3.194857E+02 -1.881011E+05
        31  22  1.040296E+04 -8.582477E+05 -9.241403E+04  2.419902E+04  3.859625E+03 -4.193288E+04
        31  23 -3.140659E+03 -8.259421E+05 -1.375308E+05  1.695731E+04  1.836346E+03 -1.144000E+05
        31  24 -2.376070E+05 -8.583402E+05 -2.850887E+05  2.428337E+04  2.845160E+02 -1.868671E+05
        31  25  2.718419E+04 -7.891424E+05 -7.754782E+04 -8.863472E+03  3.862468E+03 -3.979243E+04
        31  26  4.733835E+03 -7.936928E+05 -1.306275E+05  5.882259E+04  1.829330E+03 -1.127148E+05
        31  27 -2.386928E+05 -8.630146E+05 -2.864611E+05  1.410649E+05  2.500108E+02 -1.856332E+05
        32   1  2.839264E+05  5.446625E+04 -1.052292E+05  2.517649E+05 -2.383918E+04 -1.213371E+04
        32   2  3.135228E+05  1.047318E+05 -7.704045E+04  2.667608E+05 -1.871741E+04  3.662556E+03
        32   3  3.518412E+05  1.250783E+05 -6.157092E+04  2.812964E+05 -7.808818E+03  1.174431E+04
        32   4  5.398643E+05  2.486438E+05 -1.801124E+04  3.839492E+05 -1.278640E+04 -3.846172E+03
        32   5  5.375454E+05  2.678598E+05 -8.149429E+03  3.803868E+05 -1.507270E+04  6.394390E+03
        32   6  5.455561E+05  2.587663E+05 -4.577805E+03  3.763621E+05 -1.157435E+04  8.921267E+03
        32   7  7.958716E+05  4.428629E+05  6.919824E+04  5.161966E+05 -1.727398E+03  4.446442E+03
        32   8  7.616216E+05  4.310168E+05  6.073543E+04  4.940592E+05 -1.142621E+04  9.127599E+03
        32   9  7.393103E+05  3.924728E+05  5.241073E+04  4.714602E+05 -1.534145E+04  6.097096E+03
        32  10  2.839258E+05  5.446594E+04 -1.052305E+05  2.517647E+05 -3.103458E-11 -4.106165E-11
        32  11  3.135225E+05  1.047317E+05 -7.704113E+04  2.667608E+05 -8.250354E-10  5.352045E-11
        32  12  3.518411E+05  1.250782E+05 -6.157129E+04  2.812965E+05  4.695920E-11 -5.617015E-11
        32  13  5.398642E+05  2.486438E+05 -1.801157E+04  3.839492E+05 -6.290322E-11  4.368340E-12
        32  14  5.375452E+05  2.678597E+05 -8.149933E+03  3.803868E+05  1.463032E-09 -3.165205E-11
        32  15  5.455560E+05  2.587662E+05 -4.578206E+03  3.763622E+05  3.617466E-10 -1.793848E-10
        32  16  7.958716E+05  4.428629E+05  6.919820E+04  5.161966E+05  3.023059E-10  1.580106E-11
        32  17  7.616214E+05  4.310167E+05  6.073503E+04  4.940593E+05  2.363152E-10 -5.170654E-11
        32  18  7.393100E+05  3.924727E+05  5.241022E+04  4.714602E+05  2.416001E-10 -3.670329E-10
        32  19  2.839264E+05  5.446625E+04 -1.052292E+05  2.517649E+05  2.383918E+04  1.213371E+04
        32  20  3.135228E+05  1.047318E+05 -7.704045E+04  2.667608E+05  1.871741E+04 -3.662556E+03
        32  21  3.518412E+05  1.250783E+05 -6.157092E+04  2.812964E+05  7.808818E+03 -1.174431E+04
        32  22  5.398643E+05  2.486438E+05 -1.801124E+04  3.839492E+05  1.278640E+04  3.846172E+03
        32  23  5.375454E+05  2.678598E+05 -8.149429E+03  3.803868E+05  1.507270E+04 -6.394390E+03
        32  24  5.455561E+05  2.587663E+05 -4.577805E+03  3.763621E+05  1.157435E+04 -8.921267E+03
        32  25  7.958716E+05  4.428629E+05  6.919824E+04  5.161966E+05  1.727398E+03 -4.446442E+03
        32  26  7.616216E+05  4.310168E+05  6.073543E+04  4.940592E+05  1.142621E+04 -9.127599E+03
        32  27  7.393103E+05  3.924728E+05  5.241073E+04  4.714602E+05  1.534145E+04 -6.097096E+03
        33   1  3.823007E+05  1.419612E+05 -5.234024E+04  2.957621E+05 -8.057516E+03  8.546529E+03
        33   2  4.084892E+05  1.767635E+05 -3.968762E+04  3.156999E+05 -5.767891E+03  7.438819E+03
        33   3  4.524011E+05  1.926804E+05 -2.799713E+04  3.305317E+05 -3.218727E+03  5.984094E+03
        33   4  5.456323E+05  2.580575E+05 -3.491700E+03  3.774466E+05 -9.628330E+03  7.368838E+03
        33   5  5.368856E+05  2.677307E+05 -1.489921E+03  3.798022E+05 -7.671800E+03  6.011760E+03
        33   6  5.459331E+05  2.585900E+05 -1.613014E+02  3.770506E+05 -5.455835E+03  4.307659E+03
        33   7  7.089930E+05  3.741689E+05  4.535386E+04  4.591554E+05 -1.119971E+04  6.190725E+03
        33   8  6.653007E+05  3.587075E+05  3.670619E+04  4.439199E+05 -9.576253E+03  4.584294E+03
        33   9  6.394756E+05  3.245050E+05  2.767391E+04  4.235779E+05 -7.693422E+03  2.630867E+03
        33  10  3.823006E+05  1.419611E+05 -5.234050E+04  2.957622E+05  4.547829E-10 -2.567811E-10
        33  11  4.084891E+05  1.767634E+05 -3.968779E+04  3.157000E+05  7.598342E-10 -3.746645E-10
        33  12  4.524011E+05  1.926804E+05 -2.799722E+04  3.305317E+05  8.750448E-10 -3.516890E-10
        33  13  5.456322E+05  2.580574E+05 -3.491976E+03  3.774466E+05  8.709419E-11 -2.147677E-10
        33  14  5.368855E+05  2.677306E+05 -1.490100E+03  3.798023E+05 -5.410876E-11 -2.635880E-10
        33  15  5.459331E+05  2.585899E+05 -1.613922E+02  3.770506E+05  2.279537E-10 -7.115071E-10
        33  16  7.089929E+05  3.741688E+05  4.535355E+04  4.591555E+05  3.507484E-11 -4.460184E-10
        33  17  6.653006E+05  3.587075E+05  3.670598E+04  4.439199E+05 -8.219821E-10 -5.046993E-10
        33  18  6.394755E+05  3.245050E+05  2.767379E+04  4.235779E+05  4.082617E-10 -9.539791E-10
        33  19  3.823007E+05  1.419612E+05 -5.234024E+04  2.957621E+05  8.057516E+03 -8.546529E+03
        33  20  4.084892E+05  1.767635E+05 -3.968762E+04  3.156999E+05  5.767891E+03 -7.438819E+03
        33  21  4.524011E+05  1.926804E+05 -2.799713E+04  3.305317E+05  3.218727E+03 -5.984094E+03
        33  22  5.456323E+05  2.580575E+05 -3.491700E+03  3.774466E+05  9.628330E+03 -7.368838E+03
        33  23  5.368856E+05  2.677307E+05 -1.489921E+03  3.798022E+05  7.671800E+03 -6.011760E+03
        33  24  5.459331E+05  2.585900E+05 -1.613014E+02  3.770506E+05  5.455835E+03 -4.307659E+03
        33  25  7.089930E+05  3.741689E+05  4.535386E+04  4.591554E+05  1.119971E+04 -6.190725E+03
        33  26  6.653007E+05  3.587075E+05  3.670619E+04  4.439199E+05  9.576253E+03 -4.584294E+03
        33  27  6.394756E+05  3.245050E+05  2.767391E+04  4.235779E+05  7.693422E+03 -2.630867E+03
        34   1  4.803704E+05  2.123100E+05 -1.887876E+04  3.444656E+05 -2.336858E+03  4.552499E+03
        34   2  5.062402E+05  2.461861E+05 -7.187641E+03  3.645725E+05 -1.402220E+03  1.774099E+03
        34   3  5.504731E+05  2.620081E+05  5.137878E+03  3.793572E+05 -4.657960E+02 -1.007058E+03
        34   4  5.459570E+05  2.585746E+05  4.495331E+02  3.771426E+05 -4.476338E+03  2.949346E+03
        34   5  5.368119E+05  2.676660E+05  1.858973E+03  3.797557E+05 -3.544342E+03  1.690522E+02
        34   6  5.460295E+05  2.587037E+05  3.905406E+03  3.770459E+05 -2.610510E+03 -2.613958E+03
        34   7  6.115477E+05  3.048412E+05  1.977715E+04  4.098231E+05 -6.616102E+03  1.345981E+03
        34   8  5.673843E+05  2.891462E+05  1.090545E+04  3.949397E+05 -5.686596E+03 -1.436092E+03
        34   9  5.415858E+05  2.553993E+05  2.672960E+03  3.747346E+05 -4.755202E+03 -4.220840E+03
        34  10  4.803704E+05  2.123100E+05 -1.887881E+04  3.444656E+05 -1.652112E-09 -2.046077E-09
        34  11  5.062402E+05  2.461861E+05 -7.187651E+03  3.645725E+05  5.858895E-09  3.899323E-09
        34  12  5.504731E+05  2.620081E+05  5.137875E+03  3.793572E+05  6.670227E-09  6.330283E-09
        34  13  5.459570E+05  2.585746E+05  4.494791E+02  3.771426E+05  5.395601E-10  9.566995E-11
        34  14  5.368118E+05  2.676660E+05  1.858949E+03  3.797557E+05 -1.705727E-10  2.418153E-10
        34  15  5.460294E+05  2.587037E+05  3.905380E+03  3.770459E+05 -5.189180E-09 -2.162252E-09
        34  16  6.115476E+05  3.048412E+05  1.977706E+04  4.098231E+05  3.482849E-09  1.996261E-09
        34  17  5.673843E+05  2.891462E+05  1.090539E+04  3.949397E+05 -7.671787E-09 -3.156349E-09
        34  18  5.415858E+05  2.553992E+05  2.672884E+03  3.747346E+05 -1.790199E-08 -1.049484E-08
        34  19  4.803704E+05  2.123100E+05 -1.887876E+04  3.444656E+05  2.336858E+03 -4.552499E+03
        34  20  5.062402E+05  2.461861E+05 -7.187641E+03  3.645725E+05  1.402220E+03 -1.774099E+03
        34  21  5.504731E+05  2.620081E+05  5.137878E+03  3.793572E+05  4.657960E+02  1.007058E+03
        34  22  5.459570E+05  2.585746E+05  4.495331E+02  3.771426E+05  4.476338E+03 -2.949346E+03
        34  23  5.368119E+05  2.676660E+05  1.858973E+03  3.797557E+05  3.544342E+03 -1.690522E+02
        34  24  5.460295E+05  2.587037E+05  3.905406E+03  3.770459E+05  2.610510E+03  2.613958E+03
        34  25  6.115477E+05  3.048412E+05  1.977715E+04  4.098231E+05  6.616102E+03 -1.345981E+03
        34  26  5.673843E+05  2.891462E+05  1.090545E+04  3.949397E+05  5.686596E+03  1.436092E+03
        34  27  5.415858E+05  2.553993E+05  2.672960E+03  3.747346E+05  4.755202E+03  4.220840E+03
        35   1  5.777869E+05  2.821734E+05  1.500263E+04  3.936878E+05 -4.067510E+01 -2.769357E+03
        35   2  6.042014E+05  3.149658E+05  2.946702E+04  4.131550E+05 -2.448863E+03 -7.967081E+03
        35   3  6.510829E+05  3.323729E+05  4.809622E+04  4.263408E+05 -5.059442E+03 -1.289501E+04
        35   4  5.460919E+05  2.585850E+05  5.269378E+03  3.773563E+05 -2.258640E+03 -4.431173E+03
        35   5  5.365578E+05  2.675035E+05  9.408116E+03  3.795981E+05 -4.406899E+03 -9.434326E+03
        35   6  5.474335E+05  2.609796E+05  1.748703E+04  3.755572E+05 -6.757222E+03 -1.416740E+04
        35   7  5.143976E+05  2.349971E+05 -4.464076E+03  3.610257E+05 -4.476475E+03 -6.092884E+03
        35   8  4.689191E+05  2.200437E+05 -1.065128E+04  3.460454E+05 -6.364646E+03 -1.090136E+04
        35   9  4.437967E+05  1.895926E+05 -1.312298E+04  3.247836E+05 -8.454600E+03 -1.543950E+04
        35  10  5.777869E+05  2.821734E+05  1.500262E+04  3.936878E+05 -1.621774E-08 -1.049355E-08
        35  11  6.042014E+05  3.149658E+05  2.946689E+04  4.131549E+05 -5.937178E-09 -3.332339E-09
        35  12  6.510828E+05  3.323727E+05  4.809586E+04  4.263407E+05  3.596719E-09  1.493531E-09
        35  13  5.460919E+05  2.585850E+05  5.269331E+03  3.773563E+05 -5.107606E-09 -1.973203E-09
        35  14  5.365577E+05  2.675034E+05  9.407912E+03  3.795981E+05  2.112395E-10  1.070124E-10
        35  15  5.474334E+05  2.609794E+05  1.748657E+04  3.755571E+05  8.982477E-10 -9.246174E-11
        35  16  5.143976E+05  2.349970E+05 -4.464183E+03  3.610257E+05  6.041958E-09  6.087194E-09
        35  17  4.689191E+05  2.200436E+05 -1.065158E+04  3.460453E+05  6.888406E-09  3.613049E-09
        35  18  4.437966E+05  1.895923E+05 -1.312356E+04  3.247834E+05 -1.265710E-09 -2.149569E-09
        35  19  5.777869E+05  2.821734E+05  1.500263E+04  3.936878E+05  4.067510E+01  2.769357E+03
        35  20  6.042014E+05  3.149658E+05  2.946702E+04  4.131550E+05  2.448863E+03  7.967081E+03
        35  21  6.510829E+05  3.323729E+05  4.809622E+04  4.263408E+05  5.059442E+03  1.289501E+04
        35  22  5.460919E+05  2.585850E+05  5.269378E+03  3.773563E+05  2.258640E+03  4.431173E+03
        35  23  5.365578E+05  2.675035E+05  9.408116E+03  3.795981E+05  4.406899E+03  9.434326E+03
        35  24  5.474335E+05  2.609796E+05  1.748703E+04  3.755572E+05  6.757222E+03  1.416740E+04
        35  25  5.143976E+05  2.349971E+05 -4.464076E+03  3.610257E+05  4.476475E+03  6.092884E+03
        35  26  4.689191E+05  2.200437E+05 -1.065128E+04  3.460454E+05  6.364646E+03  1.090136E+04
        35  27  4.437967E+05  1.895926E+05 -1.312298E+04  3.247836E+05  8.454600E+03  1.543950E+04
        36   1  6.684402E+05  3.598679E+05  6.092809E+04  4.485280E+05 -4.501253E+03 -1.526868E+04
        36   2  7.108787E+05  3.718876E+05  8.829563E+04  4.557439E+05 -2.592321E+04 -3.217528E+04
        36   3  8.076490E+05  4.151322E+05  1.498068E+05  4.358090E+05 -5.183953E+04 -4.309084E+04
        36   4  5.473944E+05  2.580778E+05  2.210922E+04  3.806628E+05 -7.903418E+03 -1.781820E+04
        36   5  5.339198E+05  2.663597E+05  3.796576E+04  3.767806E+05 -2.356011E+04 -3.040543E+04
        36   6  5.735335E+05  3.046289E+05  8.297622E+04  3.457449E+05 -4.370889E+04 -3.700072E+04
        36   7  4.263645E+05  1.563003E+05 -1.671145E+04  3.128138E+05 -1.130470E+04 -2.036690E+04
        36   8  3.569941E+05  1.608425E+05 -1.236750E+04  2.978402E+05 -2.119792E+04 -2.863612E+04
        36   9  3.394760E+05  1.941351E+05  1.614047E+04  2.557109E+05 -3.558242E+04 -3.091234E+04
        36  10  6.684402E+05  3.598677E+05  6.092762E+04  4.485279E+05 -5.052424E-11 -1.352624E-09
        36  11  7.108777E+05  3.718863E+05  8.829243E+04  4.557432E+05  4.075910E-10 -3.815330E-10
        36  12  8.076456E+05  4.151294E+05  1.497983E+05  4.358072E+05  3.856663E-10  6.823694E-12
        36  13  5.473942E+05  2.580775E+05  2.210851E+04  3.806627E+05 -6.415022E-11 -6.906399E-10
        36  14  5.339189E+05  2.663586E+05  3.796298E+04  3.767800E+05  7.562930E-10 -1.709470E-10
        36  15  5.735311E+05  3.046269E+05  8.297006E+04  3.457436E+05  7.841395E-10 -3.067600E-11
        36  16  4.263643E+05  1.562998E+05 -1.671247E+04  3.128136E+05  7.533818E-10 -3.308843E-11
        36  17  3.569934E+05  1.608415E+05 -1.236988E+04  2.978397E+05  5.773933E-10  9.797963E-11
        36  18  3.394744E+05  1.941337E+05  1.613630E+04  2.557101E+05 -2.385244E-10  3.325428E-11
        36  19  6.684402E+05  3.598679E+05  6.092809E+04  4.485280E+05  4.501253E+03  1.526868E+04
        36  20  7.108787E+05  3.718876E+05  8.829563E+04  4.557439E+05  2.592321E+04  3.217528E+04
        36  21  8.076490E+05  4.151322E+05  1.498068E+05  4.358090E+05  5.183953E+04  4.309084E+04
        36  22  5.473944E+05  2.580778E+05  2.210922E+04  3.806628E+05  7.903418E+03  1.781820E+04
        36  23  5.339198E+05  2.663597E+05  3.796576E+04  3.767806E+05  2.356011E+04  3.040543E+04
        36  24  5.735335E+05  3.046289E+05  8.297622E+04  3.457449E+05  4.370889E+04  3.700072E+04
        36  25  4.263645E+05  1.563003E+05 -1.671145E+04  3.128138E+05  1.130470E+04  2.036690E+04
        36  26  3.569941E+05  1.608425E+05 -1.236750E+04  2.978402E+05  2.119792E+04  2.863612E+04
        36  27  3.394760E+05  1.941351E+05  1.614047E+04  2.557109E+05  3.558242E+04  3.091234E+04
        37   1  1.039109E+06  7.407940E+04  8.855252E+04  3.634040E+04  6.021844E+04  3.519272E+00
        37   2  1.029144E+06  1.024595E+03  4.113179E+04  1.297668E+04  3.848765E+04  8.031964E-01
        37   3  1.039146E+06 -3.440422E+03  2.499049E+04 -1.038686E+04  1.675645E+04 -2.798954E-01
        37   4  1.039108E+06  7.407692E+04  8.855217E+04  4.651389E-11  6.021844E+04 -7.308504E-11
        37   5  1.029144E+06  1.024279E+03  4.113174E+04  6.289478E-10  3.848765E+04 -1.274471E-10
        37   6  1.039146E+06 -3.440624E+03  2.499046E+04  1.074533E-09  1.675645E+04 -2.029033E-10
        37   7  1.039109E+06  7.407940E+04  8.855252E+04 -3.634040E+04  6.021844E+04 -3.519272E+00
        37   8  1.029144E+06  1.024595E+03  4.113179E+04 -1.297668E+04  3.848765E+04 -8.031964E-01
        37   9  1.039146E+06 -3.440422E+03  2.499049E+04  1.038686E+04  1.675645E+04  2.798954E-01
        37  10  1.039105E+06  7.407843E+04  8.854572E+04  3.634040E+04 -2.280381E-10  3.812204E-11
        37  11  1.029143E+06  1.024198E+03  4.112901E+04  1.297668E+04 -1.258879E-10  2.294571E-12
        37  12  1.039146E+06 -3.440497E+03  2.498996E+04 -1.038686E+04  2.232839E-10 -1.770871E-10
        37  13  1.039104E+06  7.407595E+04  8.854536E+04  2.189840E-09 -8.420949E-12 -3.292520E-11
        37  14  1.029143E+06  1.023882E+03  4.112896E+04 -1.864689E-10  1.419274E-10 -1.098386E-10
        37  15  1.039146E+06 -3.440699E+03  2.498993E+04  1.069272E-09 -1.152402E-10 -1.157322E-10
        37  16  1.039105E+06  7.407843E+04  8.854572E+04 -3.634040E+04 -2.846280E-10 -8.030886E-11
        37  17  1.029143E+06  1.024198E+03  4.112901E+04 -1.297668E+04 -1.174356E-10 -2.609597E-10
        37  18  1.039146E+06 -3.440497E+03  2.498996E+04  1.038686E+04 -2.573605E-10 -7.062767E-11
        37  19  1.039109E+06  7.407940E+04  8.855252E+04  3.634040E+04 -6.021844E+04 -3.519272E+00
        37  20  1.029144E+06  1.024595E+03  4.113179E+04  1.297668E+04 -3.848765E+04 -8.031964E-01
        37  21  1.039146E+06 -3.440422E+03  2.499049E+04 -1.038686E+04 -1.675645E+04  2.798954E-01
        37  22  1.039108E+06  7.407692E+04  8.855217E+04  2.967511E-11 -6.021844E+04  1.289712E-11
        37  23  1.029144E+06  1.024279E+03  4.113174E+04 -4.673957E-10 -3.848765E+04 -7.952013E-11
        37  24  1.039146E+06 -3.440624E+03  2.499046E+04 -1.340109E-11 -1.675645E+04 -1.196193E-11
        37  25  1.039109E+06  7.407940E+04  8.855252E+04 -3.634040E+04 -6.021844E+04  3.519272E+00
        37  26  1.029144E+06  1.024595E+03  4.113179E+04 -1.297668E+04 -3.848765E+04  8.031964E-01
        37  27  1.039146E+06 -3.440422E+03  2.499049E+04  1.038686E+04 -1.675645E+04 -2.798954E-01
        38   1  1.035120E+06  3.752908E+03  2.058982E+04  1.420071E+03  1.314017E+04  3.000845E-02
        38   2  1.034183E+06 -1.238457E+02  1.353689E+04  4.048597E+02  6.370120E+03  4.147484E-03
        38   3  1.035124E+06 -1.016287E+01  1.188389E+04 -6.103538E+02 -3.999048E+02  3.925277E-04
        38   4  1.035120E+06  3.752904E+03  2.058982E+04 -3.528485E-10  1.314017E+04 -3.030415E-10
        38   5  1.034183E+06 -1.238460E+02  1.353689E+04 -2.898037E-10  6.370120E+03 -3.161858E-10
        38   6  1.035124E+06 -1.016357E+01  1.188389E+04 -2.684815E-11 -3.999048E+02  1.178742E-10
        38   7  1.035120E+06  3.752908E+03  2.058982E+04 -1.420071E+03  1.314017E+04 -3.000845E-02
        38   8  1.034183E+06 -1.238457E+02  1.353689E+04 -4.048597E+02  6.370120E+03 -4.147485E-03
        38   9  1.035124E+06 -1.016287E+01  1.188389E+04  6.103538E+02 -3.999048E+02 -3.925275E-04
        38  10  1.035120E+06  3.752861E+03  2.058950E+04  1.420071E+03  6.159099E-10 -2.322330E-10
        38  11  1.034183E+06 -1.238565E+02  1.353682E+04  4.048597E+02 -9.215558E-11 -1.357794E-10
        38  12  1.035124E+06 -1.016291E+01  1.188389E+04 -6.103538E+02 -1.635096E-10  2.055393E-10
        38  13  1.035120E+06  3.752857E+03  2.058949E+04  1.511275E-10  9.985093E-11 -1.596306E-10
        38  14  1.034183E+06 -1.238569E+02  1.353682E+04  1.085389E-09  7.419088E-10 -1.506590E-10
        38  15  1.035124E+06 -1.016361E+01  1.188389E+04  9.464459E-10  1.329754E-09  1.503584E-10
        38  16  1.035120E+06  3.752861E+03  2.058950E+04 -1.420071E+03 -1.445031E-10 -3.655783E-11
        38  17  1.034183E+06 -1.238565E+02  1.353682E+04 -4.048597E+02 -4.236443E-10 -1.207102E-10
        38  18  1.035124E+06 -1.016291E+01  1.188389E+04  6.103538E+02  2.077367E-10  1.182478E-10
        38  19  1.035120E+06  3.752908E+03  2.058982E+04  1.420071E+03 -1.314017E+04 -3.000845E-02
        38  20  1.034183E+06 -1.238457E+02  1.353689E+04  4.048597E+02 -6.370120E+03 -4.147485E-03
        38  21  1.035124E+06 -1.016287E+01  1.188389E+04 -6.103538E+02  3.999048E+02 -3.925274E-04
        38  22  1.035120E+06  3.752904E+03  2.058982E+04 -1.492366E-09 -1.314017E+04  7.905743E-12
        38  23  1.034183E+06 -1.238460E+02  1.353689E+04 -2.234883E-10 -6.370120E+03  3.916732E-11
        38  24  1.035124E+06 -1.016357E+01  1.188389E+04 -9.042710E-10  3.999048E+02  1.686601E-10
        38  25  1.035120E+06  3.752908E+03  2.058982E+04 -1.420071E+03 -1.314017E+04  3.000845E-02
        38  26  1.034183E+06 -1.238457E+02  1.353689E+04 -4.048597E+02 -6.370120E+03  4.147485E-03
        38  27  1.035124E+06 -1.016287E+01  1.188389E+04  6.103538E+02  3.999048E+02  3.925278E-04
        39   1  1.035233E+06 -1.423377E+02  1.237686E+04  9.049754E+02 -2.539365E+03 -3.695674E-03
        39   2  1.034046E+06 -1.377958E+02  1.626852E+04 -4.748798E+02 -1.068463E+04  8.159736E-03
        39   3  1.035228E+06  5.107251E+03  2.676697E+04 -1.854710E+03 -1.882984E+04  5.616361E-02
        39   4  1.035233E+06 -1.423393E+02  1.237686E+04 -1.823253E-10 -2.539365E+03  1.975132E-10
        39   5  1.034046E+06 -1.377963E+02  1.626852E+04  5.741596E-10 -1.068463E+04  9.594850E-12
        39   6  1.035228E+06  5.107244E+03  2.676697E+04 -1.288190E-09 -1.882984E+04  2.209085E-10
        39   7  1.035233E+06 -1.423377E+02  1.237686E+04 -9.049754E+02 -2.539365E+03  3.695675E-03
        39   8  1.034046E+06 -1.377958E+02  1.626852E+04  4.748798E+02 -1.068463E+04 -8.159736E-03
        39   9  1.035228E+06  5.107251E+03  2.676697E+04  1.854710E+03 -1.882984E+04 -5.616361E-02
        39  10  1.035233E+06 -1.423395E+02  1.237685E+04  9.049754E+02  2.570004E-10  2.462088E-10
        39  11  1.034046E+06 -1.378264E+02  1.626831E+04 -4.748798E+02  5.915062E-10  8.579995E-11
        39  12  1.035227E+06  5.107156E+03  2.676630E+04 -1.854710E+03  2.321062E-10  1.170547E-10
        39  13  1.035233E+06 -1.423410E+02  1.237685E+04 -7.873477E-10  5.555587E-10  1.930899E-10
        39  14  1.034046E+06 -1.378268E+02  1.626831E+04  2.984903E-10  1.662635E-10  3.737050E-11
        39  15  1.035227E+06  5.107149E+03  2.676630E+04 -1.452309E-09  3.094676E-10  9.999908E-11
        39  16  1.035233E+06 -1.423395E+02  1.237685E+04 -9.049754E+02 -1.433734E-10  1.083562E-10
        39  17  1.034046E+06 -1.378264E+02  1.626831E+04  4.748798E+02 -6.358903E-11 -7.626709E-11
        39  18  1.035227E+06  5.107156E+03  2.676630E+04  1.854710E+03  1.994241E-10  8.291286E-11
        39  19  1.035233E+06 -1.423377E+02  1.237686E+04  9.049754E+02  2.539365E+03  3.695675E-03
        39  20  1.034046E+06 -1.377958E+02  1.626852E+04 -4.748798E+02  1.068463E+04 -8.159736E-03
        39  21  1.035228E+06  5.107251E+03  2.676697E+04 -1.854710E+03  1.882984E+04 -5.616361E-02
        39  22  1.035233E+06 -1.423393E+02  1.237686E+04 -1.383949E-09  2.539365E+03  1.816073E-10
        39  23  1.034046E+06 -1.377963E+02  1.626852E+04  5.583711E-10  1.068463E+04  4.954063E-11
        39  24  1.035228E+06  5.107244E+03  2.676697E+04 -3.159473E-10  1.882984E+04  1.250510E-11
        39  25  1.035233E+06 -1.423377E+02  1.237686E+04 -9.049754E+02  2.539365E+03 -3.695674E-03
        39  26  1.034046E+06 -1.377958E+02  1.626852E+04  4.748798E+02  1.068463E+04  8.159736E-03
        39  27  1.035228E+06  5.107251E+03  2.676697E+04  1.854710E+03  1.882984E+04  5.616361E-02
        40   1  1.040723E+06 -4.664086E+03  3.305068E+04  1.413128E+04 -2.355405E+04 -5.352736E-01
        40   2  1.027168E+06  1.396887E+03  5.540473E+04 -1.757248E+04 -5.283774E+04  1.493192E+00
        40   3  1.040673E+06  1.004994E+05  1.200630E+05 -4.927768E+04 -8.212171E+04  6.507925E+00
        40   4  1.040723E+06 -4.664460E+03  3.305063E+04 -2.945035E-10 -2.355405E+04  1.454216E-10
        40   5  1.027168E+06  1.396308E+03  5.540465E+04  1.630506E-10 -5.283774E+04 -2.826767E-10
        40   6  1.040671E+06  1.004949E+05  1.200624E+05 -2.135096E-09 -8.212171E+04 -5.207836E-11
        40   7  1.040723E+06 -4.664086E+03  3.305068E+04 -1.413128E+04 -2.355405E+04  5.352736E-01
        40   8  1.027168E+06  1.396887E+03  5.540473E+04  1.757248E+04 -5.283774E+04 -1.493192E+00
        40   9  1.040673E+06  1.004994E+05  1.200630E+05  4.927768E+04 -8.212171E+04 -6.507925E+00
        40  10  1.040722E+06 -4.664234E+03  3.304964E+04  1.413128E+04  4.624779E-10  1.550175E-10
        40  11  1.027165E+06  1.396139E+03  5.539949E+04 -1.757248E+04  9.795832E-11  4.411581E-11
        40  12  1.040666E+06  1.004976E+05  1.200504E+05 -4.927768E+04 -1.913053E-10  4.312091E-11
        40  13  1.040722E+06 -4.664609E+03  3.304959E+04  2.231507E-10  6.532448E-10  1.355870E-10
        40  14  1.027165E+06  1.395560E+03  5.539941E+04  2.028484E-09  9.546179E-10  5.681226E-11
        40  15  1.040663E+06  1.004931E+05  1.200497E+05 -4.631464E-10  1.140544E-10  8.738255E-12
        40  16  1.040722E+06 -4.664234E+03  3.304964E+04 -1.413128E+04  1.453234E-10  1.198408E-10
        40  17  1.027165E+06  1.396139E+03  5.539949E+04  1.757248E+04  4.866558E-10  5.128305E-11
        40  18  1.040666E+06  1.004976E+05  1.200504E+05  4.927768E+04  1.405733E-10 -8.553235E-12
        40  19  1.040723E+06 -4.664086E+03  3.305068E+04  1.413128E+04  2.355405E+04  5.352736E-01
        40  20  1.027168E+06  1.396887E+03  5.540473E+04 -1.757248E+04  5.283774E+04 -1.493192E+00
        40  21  1.040673E+06  1.004994E+05  1.200630E+05 -4.927768E+04  8.212171E+04 -6.507925E+00
        40  22  1.040723E+06 -4.664460E+03  3.305063E+04 -1.410851E-09  2.355405E+04  1.212445E-10
        40  23  1.027168E+06  1.396308E+03  5.540465E+04  1.209927E-09  5.283774E+04  3.881152E-10
        40  24  1.040671E+06  1.004949E+05  1.200624E+05 -2.160357E-09  8.212171E+04  7.088118E-11
        40  25  1.040723E+06 -4.664086E+03  3.305068E+04 -1.413128E+04  2.355405E+04 -5.352736E-01
        40  26  1.027168E+06  1.396887E+03  5.540473E+04  1.757248E+04  5.283774E+04  1.493192E+00
        40  27  1.040673E+06  1.004994E+05  1.200630E+05  4.927768E+04  8.212171E+04  6.507925E+00
        41   1 -2.101217E+05 -5.913482E+05 -2.508220E+05  9.155437E+04 -3.830497E+02 -1.664711E+05
        41   2 -9.627556E+03 -5.782812E+05 -1.234500E+05  2.928273E+04 -1.474005E+03 -1.043820E+05
        41   3 -1.246596E+03 -6.213351E+05 -8.454323E+04 -3.892683E+04 -2.387918E+03 -4.229402E+04
        41   4 -2.069072E+05 -5.782661E+05 -2.477737E+05 -9.989507E+03 -3.558145E+02 -1.653176E+05
        41   5 -2.785873E+03 -5.501902E+05 -1.173405E+05 -7.022623E+03 -1.467894E+03 -1.034099E+05
        41   6  9.241605E+03 -5.782126E+05 -7.524835E+04 -9.989986E+03 -2.389877E+03 -4.150201E+04
        41   7 -2.036539E+05 -5.651618E+05 -2.447198E+05 -1.115355E+05 -3.289574E+02 -1.641641E+05
        41   8  4.060716E+03 -5.220956E+05 -1.112303E+05 -4.332964E+04 -1.461898E+03 -1.024378E+05
        41   9  1.973283E+04 -5.350866E+05 -6.595313E+04  1.894890E+04 -2.391761E+03 -4.070994E+04
        41  10 -2.101291E+05 -5.913779E+05 -2.508742E+05  9.155432E+04  4.837778E-11 -2.060839E-10
        41  11 -9.630487E+03 -5.782930E+05 -1.234705E+05  2.928261E+04 -4.337340E-10  5.868395E-11
        41  12 -1.247083E+03 -6.213370E+05 -8.454660E+04 -3.892692E+04  6.747652E-11  3.258248E-10
        41  13 -2.069145E+05 -5.782955E+05 -2.478251E+05 -9.989555E+03 -5.907108E-10 -7.006790E-13
        41  14 -2.788749E+03 -5.502017E+05 -1.173606E+05 -7.022745E+03 -1.109150E-10 -7.065996E-12
        41  15  9.241136E+03 -5.782145E+05 -7.525160E+04 -9.990066E+03  2.442408E-10  1.870695E-11
        41  16 -2.036611E+05 -5.651907E+05 -2.447705E+05 -1.115356E+05 -4.735881E-10  1.986175E-10
        41  17  4.057894E+03 -5.221069E+05 -1.112501E+05 -4.332976E+04  2.048428E-11 -6.238015E-11
        41  18  1.973238E+04 -5.350884E+05 -6.595626E+04  1.894882E+04  5.725933E-11 -3.302811E-10
        41  19 -2.101217E+05 -5.913482E+05 -2.508220E+05  9.155437E+04  3.830497E+02  1.664711E+05
        41  20 -9.627556E+03 -5.782812E+05 -1.234500E+05  2.928273E+04  1.474005E+03  1.043820E+05
        41  21 -1.246596E+03 -6.213351E+05 -8.454323E+04 -3.892683E+04  2.387918E+03  4.229402E+04
        41  22 -2.069072E+05 -5.782661E+05 -2.477737E+05 -9.989507E+03  3.558145E+02  1.653176E+05
        41  23 -2.785873E+03 -5.501902E+05 -1.173405E+05 -7.022623E+03  1.467894E+03  1.034099E+05
        41  24  9.241605E+03 -5.782126E+05 -7.524835E+04 -9.989986E+03  2.389877E+03  4.150201E+04
        41  25 -2.036539E+05 -5.651618E+05 -2.447198E+05 -1.115355E+05  3.289574E+02  1.641641E+05
        41  26  4.060716E+03 -5.220956E+05 -1.112303E+05 -4.332964E+04  1.461898E+03  1.024378E+05
        41  27  1.973283E+04 -5.350866E+05 -6.595313E+04  1.894890E+04  2.391761E+03  4.070994E+04
        42   1 -2.347957E+04 -6.225923E+05 -7.682895E+04 -4.627374E+03 -2.899216E+03 -3.119962E+04
        42   2 -1.667291E+04 -6.335213E+05 -6.619214E+04 -6.898967E+03 -3.742931E+03 -5.463386E+03
        42   3 -2.885319E+04 -6.525489E+05 -7.706651E+04 -1.507359E+04 -4.423500E+03  2.027238E+04
        42   4 -1.007242E+04 -5.675504E+05 -6.487061E+04 -9.982513E+03 -2.898917E+03 -3.031332E+04
        42   5  3.726922E+02 -5.635146E+05 -5.101744E+04 -7.030980E+03 -3.742872E+03 -4.731771E+03
        42   6 -8.141151E+03 -5.675500E+05 -5.856664E+04 -9.982573E+03 -4.423256E+03  2.084992E+04
        42   7  3.334638E+03 -5.125057E+05 -5.291244E+04 -1.533813E+04 -2.898634E+03 -2.942694E+04
        42   8  1.741797E+04 -4.935033E+05 -3.584302E+04 -7.163009E+03 -3.742813E+03 -4.000075E+03
        42   9  1.257051E+04 -4.825443E+05 -4.006720E+04 -4.890850E+03 -4.423003E+03  2.142753E+04
        42  10 -2.347984E+04 -6.225933E+05 -7.683080E+04 -4.627447E+03  1.499261E-10 -3.593636E-10
        42  11 -1.667294E+04 -6.335213E+05 -6.619223E+04 -6.898984E+03  5.113588E-11  2.526927E-10
        42  12 -2.885333E+04 -6.525494E+05 -7.706732E+04 -1.507352E+04  5.852581E-10  7.487318E-10
        42  13 -1.007267E+04 -5.675514E+05 -6.487236E+04 -9.982584E+03  3.963219E-10  3.257970E-11
        42  14  3.726711E+02 -5.635146E+05 -5.101751E+04 -7.030995E+03  2.011863E-10  4.124798E-11
        42  15 -8.141289E+03 -5.675505E+05 -5.856750E+04 -9.982499E+03  5.632086E-10  1.133103E-10
        42  16  3.334397E+03 -5.125066E+05 -5.291408E+04 -1.533820E+04  1.583474E-10  3.835651E-10
        42  17  1.741795E+04 -4.935034E+05 -3.584308E+04 -7.163021E+03  6.649396E-10 -2.153691E-10
        42  18  1.257037E+04 -4.825448E+05 -4.006810E+04 -4.890773E+03  8.199005E-10 -7.465966E-10
        42  19 -2.347957E+04 -6.225923E+05 -7.682895E+04 -4.627374E+03  2.899216E+03  3.119962E+04
        42  20 -1.667291E+04 -6.335213E+05 -6.619214E+04 -6.898967E+03  3.742931E+03  5.463386E+03
        42  21 -2.885319E+04 -6.525489E+05 -7.706651E+04 -1.507359E+04  4.423500E+03 -2.027238E+04
        42  22 -1.007242E+04 -5.675504E+05 -6.487061E+04 -9.982513E+03  2.898917E+03  3.031332E+04
        42  23  3.726922E+02 -5.635146E+05 -5.101744E+04 -7.030980E+03  3.742872E+03  4.731771E+03
        42  24 -8.141151E+03 -5.675500E+05 -5.856664E+04 -9.982573E+03  4.423256E+03 -2.084992E+04
        42  25  3.334638E+03 -5.125057E+05 -5.291244E+04 -1.533813E+04  2.898634E+03  2.942694E+04
        42  26  1.741797E+04 -4.935033E+05 -3.584302E+04 -7.163009E+03  3.742813E+03  4.000075E+03
        42  27  1.257051E+04 -4.825443E+05 -4.006720E+04 -4.890850E+03  4.423003E+03 -2.142753E+04
        43   1 -1.610116E+04 -6.730528E+05 -8.686306E+04  1.388395E+04 -5.197941E+03  2.931664E+04
        43   2 -2.957279E+04 -6.644508E+05 -1.234403E+05 -3.721162E+04 -5.106665E+03  8.457691E+04
        43   3 -2.026243E+05 -7.029475E+05 -2.359086E+05 -9.400586E+04 -1.642402E+03  1.398347E+05
        43   4  7.501057E+03 -5.760895E+05 -6.585596E+04 -9.943658E+03 -5.198894E+03  3.085430E+04
        43   5 -2.284209E+03 -5.528454E+05 -9.871207E+04 -7.081127E+03 -5.102679E+03  8.287801E+04
        43   6 -1.710823E+05 -5.761353E+05 -2.052029E+05 -9.922295E+03 -1.624135E+03  1.349010E+05
        43   7  3.110479E+04 -4.791161E+05 -4.484911E+04 -3.377504E+04 -5.199966E+03  3.239219E+04
        43   8  2.500694E+04 -4.412264E+05 -7.398407E+04  2.305485E+04 -5.098859E+03  8.117881E+04
        43   9 -1.395149E+05 -4.492931E+05 -1.744945E+05  7.417852E+04 -1.607210E+03  1.299662E+05
        43  10 -1.610142E+04 -6.730538E+05 -8.686472E+04  1.388408E+04  7.282982E-10 -2.139036E-10
        43  11 -2.957474E+04 -6.644585E+05 -1.234539E+05 -3.721127E+04  1.063766E-10 -2.683566E-10
        43  12 -2.026296E+05 -7.029685E+05 -2.359454E+05 -9.400568E+04  5.025166E-10 -1.836849E-10
        43  13  7.500772E+03 -5.760905E+05 -6.585780E+04 -9.943528E+03  3.102132E-10  1.028840E-10
        43  14 -2.286083E+03 -5.528528E+05 -9.872504E+04 -7.080786E+03 -9.307391E-11 -5.953121E-11
        43  15 -1.710872E+05 -5.761548E+05 -2.052371E+05 -9.922119E+03 -3.157857E-10  2.233456E-10
        43  16  3.110448E+04 -4.791172E+05 -4.485114E+04 -3.377491E+04  9.937828E-10  3.001038E-10
        43  17  2.500514E+04 -4.412335E+05 -7.399651E+04  2.305518E+04  7.229109E-10  2.056936E-10
        43  18 -1.395194E+05 -4.493112E+05 -1.745263E+05  7.417869E+04  3.909685E-12  1.118173E-10
        43  19 -1.610116E+04 -6.730528E+05 -8.686306E+04  1.388395E+04  5.197941E+03 -2.931664E+04
        43  20 -2.957279E+04 -6.644508E+05 -1.234403E+05 -3.721162E+04  5.106665E+03 -8.457691E+04
        43  21 -2.026243E+05 -7.029475E+05 -2.359086E+05 -9.400586E+04  1.642402E+03 -1.398347E+05
        43  22  7.501057E+03 -5.760895E+05 -6.585596E+04 -9.943658E+03  5.198894E+03 -3.085430E+04
        43  23 -2.284209E+03 -5.528454E+05 -9.871207E+04 -7.081127E+03  5.102679E+03 -8.287801E+04
        43  24 -1.710823E+05 -5.761353E+05 -2.052029E+05 -9.922295E+03  1.624135E+03 -1.349010E+05
        43  25  3.110479E+04 -4.791161E+05 -4.484911E+04 -3.377504E+04  5.199966E+03 -3.239219E+04
        43  26  2.500694E+04 -4.412264E+05 -7.398407E+04  2.305485E+04  5.098859E+03 -8.117881E+04
        43  27 -1.395149E+05 -4.492931E+05 -1.744945E+05  7.417852E+04  1.607210E+03 -1.299662E+05
        44   1  1.871443E+05  3.002312E+04 -7.466029E+04  1.660777E+05 -1.970766E+04 -1.119483E+04
        44   2  2.071165E+05  6.926119E+04 -5.209709E+04  1.734328E+05 -1.476705E+04 -4.983360E+01
        44   3  2.291165E+05  8.439867E+04 -4.059563E+04  1.827313E+05 -6.198704E+03  6.258557E+03
        44   4  3.438686E+05  1.550254E+05 -2.005500E+04  2.498109E+05 -1.281406E+04 -6.025638E+03
        44   5  3.455152E+05  1.722004E+05 -9.138678E+03  2.446178E+05 -1.251710E+04  1.636916E+03
        44   6  3.501986E+05  1.662843E+05 -5.253110E+03  2.413670E+05 -8.593210E+03  4.463142E+03
        44   7  5.006173E+05  2.800440E+05  3.454636E+04  3.335682E+05 -5.918173E+03 -8.544473E+02
        44   8  4.839338E+05  2.751510E+05  3.381718E+04  3.158206E+05 -1.026649E+04  3.324200E+03
        44   9  4.712968E+05  2.481772E+05  3.008785E+04  3.000154E+05 -1.098835E+04  2.667281E+03
        44  10  1.871438E+05  3.002288E+04 -7.466125E+04  1.660775E+05 -8.139958E-11 -7.661101E-11
        44  11  2.071163E+05  6.926113E+04 -5.209750E+04  1.734328E+05  2.803778E-10  2.499935E-10
        44  12  2.291164E+05  8.439862E+04 -4.059578E+04  1.827314E+05  2.417026E-10  2.879781E-10
        44  13  3.438685E+05  1.550254E+05 -2.005538E+04  2.498108E+05 -6.865324E-12  1.052774E-10
        44  14  3.455150E+05  1.722004E+05 -9.138977E+03  2.446178E+05 -2.605101E-10  2.013147E-10
        44  15  3.501986E+05  1.662843E+05 -5.253286E+03  2.413671E+05 -4.840329E-10  1.108721E-10
        44  16  5.006172E+05  2.800440E+05  3.454629E+04  3.335682E+05  5.632656E-11  2.540563E-10
        44  17  4.839337E+05  2.751510E+05  3.381696E+04  3.158206E+05  3.173429E-10  2.054450E-10
        44  18  4.712966E+05  2.481772E+05  3.008761E+04  3.000154E+05 -1.484536E-10 -4.360470E-11
        44  19  1.871443E+05  3.002312E+04 -7.466029E+04  1.660777E+05  1.970766E+04  1.119483E+04
        44  20  2.071165E+05  6.926119E+04 -5.209709E+04  1.734328E+05  1.476705E+04  4.983360E+01
        44  21  2.291165E+05  8.439867E+04 -4.059563E+04  1.827313E+05  6.198704E+03 -6.258557E+03
        44  22  3.438686E+05  1.550254E+05 -2.005500E+04  2.498109E+05  1.281406E+04  6.025638E+03
        44  23  3.455152E+05  1.722004E+05 -9.138678E+03  2.446178E+05  1.251710E+04 -1.636916E+03
        44  24  3.501986E+05  1.662843E+05 -5.253110E+03  2.413670E+05  8.593210E+03 -4.463142E+03
        44  25  5.006173E+05  2.800440E+05  3.454636E+04  3.335682E+05  5.918173E+03  8.544473E+02
        44  26  4.839338E+05  2.751510E+05  3.381718E+04  3.158206E+05  1.026649E+04 -3.324200E+03
        44  27  4.712968E+05  2.481772E+05  3.008785E+04  3.000154E+05  1.098835E+04 -2.667281E+03
        45   1  2.497867E+05  9.386454E+04 -3.420026E+04  1.922324E+05 -6.066402E+03  4.436601E+03
        45   2  2.667299E+05  1.166181E+05 -2.529714E+04  2.049497E+05 -4.155670E+03  4.040300E+03
        45   3  2.948493E+05  1.269301E+05 -1.745386E+04  2.144773E+05 -2.081615E+03  3.425908E+03
        45   4  3.502527E+05  1.655210E+05 -4.102601E+03  2.425824E+05 -7.086468E+03  3.671731E+03
        45   5  3.448071E+05  1.720115E+05 -2.049282E+03  2.439592E+05 -5.385010E+03  3.118649E+03
        45   6  3.505822E+05  1.661058E+05 -8.741542E+02  2.421456E+05 -3.520309E+03  2.347458E+03
        45   7  4.507306E+05  2.371839E+05  2.599427E+04  2.929423E+05 -8.106767E+03  2.906683E+03
        45   8  4.228910E+05  2.274083E+05  2.119790E+04  2.829741E+05 -6.614559E+03  2.196841E+03
        45   9  4.063178E+05  2.052828E+05  1.570502E+04  2.698164E+05 -4.959163E+03  1.268888E+03
        45  10  2.497866E+05  9.386451E+04 -3.420037E+04  1.922324E+05 -2.634331E-10  7.088004E-11
        45  11  2.667299E+05  1.166181E+05 -2.529721E+04  2.049498E+05 -5.314701E-10  1.079748E-10
        45  12  2.948493E+05  1.269301E+05 -1.745389E+04  2.144773E+05  3.662764E-10  1.357094E-10
        45  13  3.502526E+05  1.655210E+05 -4.102721E+03  2.425825E+05  9.776781E-11 -5.258788E-12
        45  14  3.448071E+05  1.720115E+05 -2.049355E+03  2.439592E+05  2.724549E-10 -1.639450E-11
        45  15  3.505821E+05  1.661058E+05 -8.741878E+02  2.421456E+05  2.500845E-10 -2.789077E-10
        45  16  4.507306E+05  2.371838E+05  2.599413E+04  2.929423E+05  3.356812E-10  9.474542E-11
        45  17  4.228909E+05  2.274083E+05  2.119781E+04  2.829742E+05  8.077988E-10 -7.097361E-11
        45  18  4.063178E+05  2.052828E+05  1.570497E+04  2.698164E+05  9.115585E-11 -3.517094E-10
        45  19  2.497867E+05  9.386454E+04 -3.420026E+04  1.922324E+05  6.066402E+03 -4.436601E+03
        45  20  2.667299E+05  1.166181E+05 -2.529714E+04  2.049497E+05  4.155670E+03 -4.040300E+03
        45  21  2.948493E+05  1.269301E+05 -1.745386E+04  2.144773E+05  2.081615E+03 -3.425908E+03
        45  22  3.502527E+05  1.655210E+05 -4.102601E+03  2.425824E+05  7.086468E+03 -3.671731E+03
        45  23  3.448071E+05  1.720115E+05 -2.049282E+03  2.439592E+05  5.385010E+03 -3.118649E+03
        45  24  3.505822E+05  1.661058E+05 -8.741542E+02  2.421456E+05  3.520309E+03 -2.347458E+03
        45  25  4.507306E+05  2.371839E+05  2.599427E+04  2.929423E+05  8.106767E+03 -2.906683E+03
        45  26  4.228910E+05  2.274083E+05  2.119790E+04  2.829741E+05  6.614559E+03 -2.196841E+03
        45  27  4.063178E+05  2.052828E+05  1.570502E+04  2.698164E+05  4.959163E+03 -1.268888E+03
        46   1  3.129268E+05  1.394919E+05 -1.151673E+04  2.234552E+05 -1.406642E+03  2.584820E+03
        46   2  3.296141E+05  1.613422E+05 -4.005730E+03  2.364097E+05 -5.154942E+02  1.011073E+03
        46   3  3.580720E+05  1.714997E+05  3.664730E+03  2.459377E+05  3.767652E+02 -5.642280E+02
        46   4  3.506021E+05  1.660799E+05 -4.169037E+02  2.422298E+05 -2.784616E+03  1.551936E+03
        46   5  3.447371E+05  1.719621E+05  4.696036E+02  2.439166E+05 -1.894975E+03 -2.292117E+01
        46   6  3.506424E+05  1.661515E+05  1.516870E+03  2.421763E+05 -1.004214E+03 -1.599327E+03
        46   7  3.882790E+05  1.926687E+05  1.068278E+04  2.610057E+05 -4.162704E+03  5.189664E+02
        46   8  3.598605E+05  1.825823E+05  4.944951E+03  2.514238E+05 -3.274509E+03 -1.056955E+03
        46   9  3.432129E+05  1.608033E+05 -6.310114E+02  2.384149E+05 -2.385185E+03 -2.634419E+03
        46  10  3.129268E+05  1.394919E+05 -1.151674E+04  2.234552E+05  3.224448E-11 -1.891913E-10
        46  11  3.296141E+05  1.613422E+05 -4.005732E+03  2.364097E+05 -3.483708E-10  2.361894E-11
        46  12  3.580720E+05  1.714997E+05  3.664729E+03  2.459377E+05  3.981430E-10  2.093677E-10
        46  13  3.506021E+05  1.660799E+05 -4.169228E+02  2.422298E+05  3.771573E-10 -1.757152E-10
        46  14  3.447371E+05  1.719621E+05  4.695969E+02  2.439166E+05  6.524509E-10  5.085377E-11
        46  15  3.506424E+05  1.661515E+05  1.516863E+03  2.421763E+05  4.141906E-10 -1.364035E-10
        46  16  3.882789E+05  1.926687E+05  1.068275E+04  2.610057E+05  9.146528E-10 -4.144159E-11
        46  17  3.598605E+05  1.825823E+05  4.944928E+03  2.514238E+05  2.668977E-11  8.224656E-11
        46  18  3.432129E+05  1.608033E+05 -6.310352E+02  2.384149E+05 -1.510255E-10 -1.168343E-10
        46  19  3.129268E+05  1.394919E+05 -1.151673E+04  2.234552E+05  1.406642E+03 -2.584820E+03
        46  20  3.296141E+05  1.613422E+05 -4.005730E+03  2.364097E+05  5.154942E+02 -1.011073E+03
        46  21  3.580720E+05  1.714997E+05  3.664730E+03  2.459377E+05 -3.767652E+02  5.642280E+02
        46  22  3.506021E+05  1.660799E+05 -4.169037E+02  2.422298E+05  2.784616E+03 -1.551936E+03
        46  23  3.447371E+05  1.719621E+05  4.696036E+02  2.439166E+05  1.894975E+03  2.292117E+01
        46  24  3.506424E+05  1.661515E+05  1.516870E+03  2.421763E+05  1.004214E+03  1.599327E+03
        46  25  3.882790E+05  1.926687E+05  1.068278E+04  2.610057E+05  4.162704E+03 -5.189664E+02
        46  26  3.598605E+05  1.825823E+05  4.944951E+03  2.514238E+05  3.274509E+03  1.056955E+03
        46  27  3.432129E+05  1.608033E+05 -6.310114E+02  2.384149E+05  2.385185E+03  2.634419E+03
        47   1  3.757839E+05  1.844038E+05  9.792749E+03  2.550777E+05  8.108107E+02 -1.580716E+03
        47   2  3.926945E+05  2.057552E+05  1.833031E+04  2.677549E+05  6.049918E+01 -4.327264E+03
        47   3  4.223355E+05  2.166263E+05  2.872144E+04  2.765826E+05 -8.246561E+02 -6.893860E+03
        47   4  3.506717E+05  1.661003E+05  2.164504E+03  2.423163E+05 -6.189686E+02 -2.652410E+03
        47   5  3.446205E+05  1.718852E+05  4.049003E+03  2.438459E+05 -1.196245E+03 -5.269328E+03
        47   6  3.512620E+05  1.671526E+05  7.637396E+03  2.415259E+05 -1.908292E+03 -7.706233E+03
        47   7  3.255605E+05  1.477974E+05 -5.463711E+03  2.295556E+05 -2.048655E+03 -3.724031E+03
        47   8  2.965493E+05  1.380168E+05 -1.023247E+04  2.199392E+05 -2.452850E+03 -6.211290E+03
        47   9  2.801941E+05  1.176816E+05 -1.344720E+04  2.064737E+05 -2.991759E+03 -8.518483E+03
        47  10  3.757839E+05  1.844038E+05  9.792743E+03  2.550777E+05  9.865654E-11 -1.533029E-10
        47  11  3.926945E+05  2.057551E+05  1.833028E+04  2.677549E+05 -3.493370E-10  7.271932E-11
        47  12  4.223354E+05  2.166262E+05  2.872135E+04  2.765826E+05  2.470436E-10  1.575337E-10
        47  13  3.506717E+05  1.661003E+05  2.164490E+03  2.423163E+05  2.903954E-10 -7.314074E-11
        47  14  3.446205E+05  1.718852E+05  4.048948E+03  2.438459E+05  4.106085E-10  8.321202E-11
        47  15  3.512620E+05  1.671525E+05  7.637278E+03  2.415259E+05  5.776470E-11  9.468763E-11
        47  16  3.255605E+05  1.477974E+05 -5.463745E+03  2.295556E+05  2.726254E-10  1.833544E-10
        47  17  2.965493E+05  1.380167E+05 -1.023255E+04  2.199392E+05  5.216791E-10  1.061326E-11
        47  18  2.801941E+05  1.176815E+05 -1.344735E+04  2.064737E+05 -1.126559E-10  1.515522E-10
        47  19  3.757839E+05  1.844038E+05  9.792749E+03  2.550777E+05 -8.108107E+02  1.580716E+03
        47  20  3.926945E+05  2.057552E+05  1.833031E+04  2.677549E+05 -6.049918E+01  4.327264E+03
        47  21  4.223355E+05  2.166263E+05  2.872144E+04  2.765826E+05  8.246561E+02  6.893860E+03
        47  22  3.506717E+05  1.661003E+05  2.164504E+03  2.423163E+05  6.189686E+02  2.652410E+03
        47  23  3.446205E+05  1.718852E+05  4.049003E+03  2.438459E+05  1.196245E+03  5.269328E+03
        47  24  3.512620E+05  1.671526E+05  7.637396E+03  2.415259E+05  1.908292E+03  7.706233E+03
        47  25  3.255605E+05  1.477974E+05 -5.463711E+03  2.295556E+05  2.048655E+03  3.724031E+03
        47  26  2.965493E+05  1.380168E+05 -1.023247E+04  2.199392E+05  2.452850E+03  6.211290E+03
        47  27  2.801941E+05  1.176816E+05 -1.344720E+04  2.064737E+05  2.991759E+03  8.518483E+03
        48   1  4.356691E+05  2.327809E+05  3.604721E+04  2.891983E+05  9.326600E+01 -8.019798E+03
        48   2  4.595917E+05  2.449442E+05  5.046772E+04  2.964147E+05 -1.055707E+04 -1.649513E+04
        48   3  5.113342E+05  2.674602E+05  8.101986E+04  2.906309E+05 -2.419819E+04 -2.098326E+04
        48   4  3.512286E+05  1.658939E+05  9.681523E+03  2.437755E+05 -2.123690E+03 -9.681786E+03
        48   5  3.434805E+05  1.713606E+05  1.666852E+04  2.426026E+05 -8.941046E+03 -1.528391E+04
        48   6  3.627232E+05  1.863518E+05  3.646515E+04  2.284285E+05 -1.874853E+04 -1.689819E+04
        48   7  2.667951E+05  9.901144E+04 -1.668532E+04  1.983596E+05 -4.340263E+03 -1.134344E+04
        48   8  2.273840E+05  9.778259E+04 -1.713210E+04  1.888013E+05 -7.325431E+03 -1.407295E+04
        48   9  2.141376E+05  1.052504E+05 -8.091241E+03  1.662415E+05 -1.330073E+04 -1.281410E+04
        48  10  4.356691E+05  2.327809E+05  3.604709E+04  2.891983E+05 -2.641768E-10  2.404577E-11
        48  11  4.595915E+05  2.449439E+05  5.046700E+04  2.964145E+05  1.724295E-10  1.036633E-10
        48  12  5.113334E+05  2.674595E+05  8.101793E+04  2.906305E+05  3.934586E-10  1.474871E-10
        48  13  3.512286E+05  1.658938E+05  9.681338E+03  2.437755E+05 -1.230602E-10  1.321620E-10
        48  14  3.434804E+05  1.713603E+05  1.666793E+04  2.426025E+05 -9.653354E-11  1.793170E-10
        48  15  3.627228E+05  1.863514E+05  3.646395E+04  2.284283E+05  1.495831E-10  5.329816E-11
        48  16  2.667950E+05  9.901130E+04 -1.668559E+04  1.983596E+05  2.180422E-10  2.869170E-10
        48  17  2.273839E+05  9.778236E+04 -1.713257E+04  1.888012E+05 -3.968516E-11  1.981536E-10
        48  18  2.141374E+05  1.052501E+05 -8.091881E+03  1.662413E+05 -1.308971E-10 -1.201958E-12
        48  19  4.356691E+05  2.327809E+05  3.604721E+04  2.891983E+05 -9.326600E+01  8.019798E+03
        48  20  4.595917E+05  2.449442E+05  5.046772E+04  2.964147E+05  1.055707E+04  1.649513E+04
        48  21  5.113342E+05  2.674602E+05  8.101986E+04  2.906309E+05  2.419819E+04  2.098326E+04
        48  22  3.512286E+05  1.658939E+05  9.681523E+03  2.437755E+05  2.123690E+03  9.681786E+03
        48  23  3.434805E+05  1.713606E+05  1.666852E+04  2.426026E+05  8.941046E+03  1.528391E+04
        48  24  3.627232E+05  1.863518E+05  3.646515E+04  2.284285E+05  1.874853E+04  1.689819E+04
        48  25  2.667951E+05  9.901144E+04 -1.668532E+04  1.983596E+05  4.340263E+03  1.134344E+04
        48  26  2.273840E+05  9.778259E+04 -1.713210E+04  1.888013E+05  7.325431E+03  1.407295E+04
        48  27  2.141376E+05  1.052504E+05 -8.091241E+03  1.662415E+05  1.330073E+04  1.281410E+04
        49   1  7.585587E+05  5.151710E+04  6.158067E+04  2.526517E+04  4.187243E+04  1.702042E+00
        49   2  7.516243E+05  7.106251E+02  2.859837E+04  9.021260E+03  2.676390E+04  3.884533E-01
        49   3  7.585776E+05 -2.392888E+03  1.736996E+04 -7.222392E+03  1.165534E+04 -1.354326E-01
        49   4  7.585580E+05  5.151590E+04  6.158050E+04 -4.992669E-10  4.187243E+04 -1.202027E-10
        49   5  7.516243E+05  7.104724E+02  2.859835E+04 -7.124003E-11  2.676390E+04 -2.489746E-10
        49   6  7.585775E+05 -2.392986E+03  1.736995E+04  1.589682E-10  1.165534E+04 -1.068900E-10
        49   7  7.585587E+05  5.151710E+04  6.158067E+04 -2.526517E+04  4.187243E+04 -1.702042E+00
        49   8  7.516243E+05  7.106251E+02  2.859837E+04 -9.021260E+03  2.676390E+04 -3.884533E-01
        49   9  7.585776E+05 -2.392888E+03  1.736996E+04  7.222392E+03  1.165534E+04  1.354326E-01
        49  10  7.585568E+05  5.151663E+04  6.157738E+04  2.526517E+04 -3.488012E-11 -4.127563E-11
        49  11  7.516236E+05  7.104331E+02  2.859702E+04  9.021260E+03 -3.674997E-10 -6.247803E-11
        49  12  7.585774E+05 -2.392924E+03  1.736971E+04 -7.222392E+03  2.113129E-10  5.999719E-11
        49  13  7.585561E+05  5.151543E+04  6.157720E+04  1.673269E-09 -2.777526E-10  6.302534E-12
        49  14  7.516235E+05  7.102803E+02  2.859700E+04  2.616724E-09  8.196951E-12  1.645806E-12
        49  15  7.585774E+05 -2.393022E+03  1.736969E+04  1.683374E-09  1.220506E-10 -7.153508E-11
        49  16  7.585568E+05  5.151663E+04  6.157738E+04 -2.526517E+04  1.569164E-10  5.565583E-11
        49  17  7.516236E+05  7.104331E+02  2.859702E+04 -9.021260E+03  6.433475E-11  4.962305E-11
        49  18  7.585774E+05 -2.392924E+03  1.736971E+04  7.222392E+03 -3.439277E-10 -1.522010E-10
        49  19  7.585587E+05  5.151710E+04  6.158067E+04  2.526517E+04 -4.187243E+04 -1.702042E+00
        49  20  7.516243E+05  7.106251E+02  2.859837E+04  9.021260E+03 -2.676390E+04 -3.884533E-01
        49  21  7.585776E+05 -2.392888E+03  1.736996E+04 -7.222392E+03 -1.165534E+04  1.354326E-01
        49  22  7.585580E+05  5.151590E+04  6.158050E+04 -4.666444E-10 -4.187243E+04  1.487032E-10
        49  23  7.516243E+05  7.104724E+02  2.859835E+04 -3.526638E-10 -2.676390E+04  2.294982E-10
        49  24  7.585775E+05 -2.392986E+03  1.736995E+04 -4.501858E-10 -1.165534E+04 -2.087506E-11
        49  25  7.585587E+05  5.151710E+04  6.158067E+04 -2.526517E+04 -4.187243E+04  1.702042E+00
        49  26  7.516243E+05  7.106251E+02  2.859837E+04 -9.021260E+03 -2.676390E+04  3.884533E-01
        49  27  7.585776E+05 -2.392888E+03  1.736996E+04  7.222392E+03 -1.165534E+04 -1.354326E-01
        50   1  7.557781E+05  2.610459E+03  1.430734E+04  9.869898E+02  9.142934E+03  1.451835E-02
        50   2  7.551268E+05 -8.594657E+01  9.395185E+03  2.809568E+02  4.444583E+03  2.009045E-03
        50   3  7.557798E+05 -8.024923E+00  8.232701E+03 -4.250665E+02 -2.536860E+02  1.734888E-04
        50   4  7.557781E+05  2.610457E+03  1.430734E+04 -1.085590E-10  9.142934E+03 -2.509063E-10
        50   5  7.551268E+05 -8.594671E+01  9.395185E+03  4.608530E-10  4.444583E+03 -6.392592E-10
        50   6  7.557798E+05 -8.025262E+00  8.232701E+03  1.434256E-09 -2.536860E+02 -1.849923E-10
        50   7  7.557781E+05  2.610459E+03  1.430734E+04 -9.869898E+02  9.142934E+03 -1.451835E-02
        50   8  7.551268E+05 -8.594657E+01  9.395185E+03 -2.809568E+02  4.444583E+03 -2.009046E-03
        50   9  7.557798E+05 -8.024923E+00  8.232701E+03  4.250665E+02 -2.536860E+02 -1.734892E-04
        50  10  7.557780E+05  2.610437E+03  1.430718E+04  9.869898E+02 -2.886250E-10 -5.321928E-11
        50  11  7.551268E+05 -8.595186E+01  9.395148E+03  2.809568E+02  2.654372E-10 -1.275396E-10
        50  12  7.557798E+05 -8.024940E+00  8.232701E+03 -4.250665E+02 -1.883211E-10 -1.326905E-11
        50  13  7.557780E+05  2.610435E+03  1.430718E+04  2.524703E-09  8.419020E-12 -1.820287E-10
        50  14  7.551268E+05 -8.595201E+01  9.395148E+03 -3.344893E-10  2.693274E-10 -2.348441E-10
        50  15  7.557798E+05 -8.025279E+00  8.232701E+03  3.033281E-10 -1.785433E-10 -1.663295E-11
        50  16  7.557780E+05  2.610437E+03  1.430718E+04 -9.869898E+02 -1.819844E-10 -3.219848E-10
        50  17  7.551268E+05 -8.595186E+01  9.395148E+03 -2.809568E+02 -4.008152E-10 -3.046430E-10
        50  18  7.557798E+05 -8.024940E+00  8.232701E+03  4.250665E+02  1.876838E-10  1.175491E-12
        50  19  7.557781E+05  2.610459E+03  1.430734E+04  9.869898E+02 -9.142934E+03 -1.451835E-02
        50  20  7.551268E+05 -8.594657E+01  9.395185E+03  2.809568E+02 -4.444583E+03 -2.009046E-03
        50  21  7.557798E+05 -8.024923E+00  8.232701E+03 -4.250665E+02  2.536860E+02 -1.734890E-04
        50  22  7.557781E+05  2.610457E+03  1.430734E+04 -1.291091E-09 -9.142934E+03 -1.056157E-10
        50  23  7.551268E+05 -8.594671E+01  9.395185E+03  4.892688E-10 -4.444583E+03  1.387844E-10
        50  24  7.557798E+05 -8.025262E+00  8.232701E+03 -2.175275E-09  2.536860E+02  1.464389E-10
        50  25  7.557781E+05  2.610459E+03  1.430734E+04 -9.869898E+02 -9.142934E+03  1.451835E-02
        50  26  7.551268E+05 -8.594657E+01  9.395185E+03 -2.809568E+02 -4.444583E+03  2.009046E-03
        50  27  7.557798E+05 -8.024923E+00  8.232701E+03  4.250665E+02  2.536860E+02  1.734892E-04
        51   1  7.558538E+05 -9.752163E+01  8.566322E+03  6.244312E+02 -1.734860E+03 -1.742881E-03
        51   2  7.550340E+05 -9.541218E+01  1.124391E+04 -3.283945E+02 -7.363768E+03  3.890590E-03
        51   3  7.558511E+05  3.527386E+03  1.848813E+04 -1.281232E+03 -1.299279E+04  2.678240E-02
        51   4  7.558538E+05 -9.752236E+01  8.566322E+03  1.064506E-09 -1.734860E+03  1.702681E-11
        51   5  7.550340E+05 -9.541239E+01  1.124391E+04  1.490468E-09 -7.363768E+03 -3.732861E-11
        51   6  7.558511E+05  3.527383E+03  1.848813E+04 -3.546858E-09 -1.299279E+04  4.219272E-10
        51   7  7.558538E+05 -9.752163E+01  8.566322E+03 -6.244312E+02 -1.734860E+03  1.742881E-03
        51   8  7.550340E+05 -9.541218E+01  1.124391E+04  3.283945E+02 -7.363768E+03 -3.890590E-03
        51   9  7.558511E+05  3.527386E+03  1.848813E+04  1.281232E+03 -1.299279E+04 -2.678240E-02
        51  10  7.558538E+05 -9.752244E+01  8.566316E+03  6.244312E+02  7.183623E-10  1.198150E-10
        51  11  7.550339E+05 -9.542672E+01  1.124381E+04 -3.283945E+02  6.244094E-10  1.837681E-10
        51  12  7.558509E+05  3.527341E+03  1.848782E+04 -1.281232E+03 -2.149851E-10  1.549313E-10
        51  13  7.558538E+05 -9.752317E+01  8.566316E+03 -5.451271E-10 -3.367604E-11  8.408220E-11
        51  14  7.550339E+05 -9.542692E+01  1.124381E+04  1.554229E-10  4.053373E-10  8.389048E-11
        51  15  7.558509E+05  3.527338E+03  1.848782E+04 -4.801237E-10  8.254986E-10  1.954827E-10
        51  16  7.558538E+05 -9.752244E+01  8.566316E+03 -6.244312E+02 -4.645284E-10  8.526045E-11
        51  17  7.550339E+05 -9.542672E+01  1.124381E+04  3.283945E+02 -2.155354E-10  1.056399E-10
        51  18  7.558509E+05  3.527341E+03  1.848782E+04  1.281232E+03 -1.540759E-10  2.435313E-10
        51  19  7.558538E+05 -9.752163E+01  8.566322E+03  6.244312E+02  1.734860E+03  1.742882E-03
        51  20  7.550340E+05 -9.541218E+01  1.124391E+04 -3.283945E+02  7.363768E+03 -3.890590E-03
        51  21  7.558511E+05  3.527386E+03  1.848813E+04 -1.281232E+03  1.299279E+04 -2.678240E-02
        51  22  7.558538E+05 -9.752236E+01  8.566322E+03 -2.717613E-09  1.734860E+03  1.522217E-10
        51  23  7.550340E+05 -9.541239E+01  1.124391E+04 -3.331056E-09  7.363768E+03  2.055271E-10
        51  24  7.558511E+05  3.527383E+03  1.848813E+04 -2.928226E-09  1.299279E+04 -3.593192E-11
        51  25  7.558538E+05 -9.752163E+01  8.566322E+03 -6.244312E+02  1.734860E+03 -1.742881E-03
        51  26  7.550340E+05 -9.541218E+01  1.124391E+04  3.283945E+02  7.363768E+03  3.890590E-03
        51  27  7.558511E+05  3.527386E+03  1.848813E+04  1.281232E+03  1.299279E+04  2.678240E-02
        52   1  7.596449E+05 -3.221402E+03  2.282512E+04  9.756795E+03 -1.625456E+04 -2.551520E-01
        52   2  7.502874E+05  9.616220E+02  3.825819E+04 -1.213122E+04 -3.647494E+04  7.119059E-01
        52   3  7.596198E+05  6.940048E+04  8.290899E+04 -3.401970E+04 -5.669525E+04  3.103114E+00
        52   4  7.596448E+05 -3.221581E+03  2.282509E+04 -3.146555E-09 -1.625456E+04  5.530438E-10
        52   5  7.502873E+05  9.613457E+02  3.825815E+04  1.621102E-09 -3.647494E+04  1.424055E-10
        52   6  7.596185E+05  6.939831E+04  8.290868E+04 -3.800534E-10 -5.669525E+04  1.647364E-10
        52   7  7.596449E+05 -3.221402E+03  2.282512E+04 -9.756795E+03 -1.625456E+04  2.551520E-01
        52   8  7.502874E+05  9.616220E+02  3.825819E+04  1.213122E+04 -3.647494E+04 -7.119059E-01
        52   9  7.596198E+05  6.940048E+04  8.290899E+04  3.401970E+04 -5.669525E+04 -3.103114E+00
        52  10  7.596446E+05 -3.221473E+03  2.282462E+04  9.756795E+03  2.275346E-11  1.197076E-10
        52  11  7.502860E+05  9.612653E+02  3.825569E+04 -1.213122E+04  8.611754E-11  6.708423E-11
        52  12  7.596163E+05  6.939962E+04  8.290296E+04 -3.401970E+04 -1.327978E-10  2.235342E-11
        52  13  7.596445E+05 -3.221651E+03  2.282459E+04  3.157094E-10  9.469712E-12  1.866796E-10
        52  14  7.502859E+05  9.609891E+02  3.825565E+04  2.409074E-09  5.381408E-10  5.830112E-11
        52  15  7.596151E+05  6.939745E+04  8.290265E+04  4.668782E-10  3.782312E-10 -2.887366E-12
        52  16  7.596446E+05 -3.221473E+03  2.282462E+04 -9.756795E+03  5.614051E-10  2.323365E-10
        52  17  7.502860E+05  9.612653E+02  3.825569E+04  1.213122E+04  1.842658E-10  3.028755E-11
        52  18  7.596163E+05  6.939962E+04  8.290296E+04  3.401970E+04  2.250681E-10  4.167821E-11
        52  19  7.596449E+05 -3.221402E+03  2.282512E+04  9.756795E+03  1.625456E+04  2.551520E-01
        52  20  7.502874E+05  9.616220E+02  3.825819E+04 -1.213122E+04  3.647494E+04 -7.119059E-01
        52  21  7.596198E+05  6.940048E+04  8.290899E+04 -3.401970E+04  5.669525E+04 -3.103114E+00
        52  22  7.596448E+05 -3.221581E+03  2.282509E+04 -8.036784E-10  1.625456E+04 -1.909664E-10
        52  23  7.502873E+05  9.613457E+02  3.825815E+04  2.117652E-09  3.647494E+04 -5.426987E-11
        52  24  7.596185E+05  6.939831E+04  8.290868E+04 -4.549320E-11  5.669525E+04 -1.633670E-10
        52  25  7.596449E+05 -3.221402E+03  2.282512E+04 -9.756795E+03  1.625456E+04 -2.551520E-01
        52  26  7.502874E+05  9.616220E+02  3.825819E+04  1.213122E+04  3.647494E+04  7.119059E-01
        52  27  7.596198E+05  6.940048E+04  8.290899E+04  3.401970E+04  5.669525E+04  3.103114E+00
        53   1 -1.160762E+05 -2.411451E+05 -1.434157E+05  4.668684E+04  8.031799E+02 -1.064538E+05
        53   2  1.048381E+04 -2.533195E+05 -6.604928E+04  9.668375E+03  2.074647E+03 -6.791366E+04
        53   3  1.097954E+04 -3.020262E+05 -4.529086E+04 -3.923970E+04  9.824585E+02 -2.937524E+04
        53   4 -1.362248E+05 -3.221091E+05 -1.631567E+05 -2.019255E+04  8.147535E+02 -1.087906E+05
        53   5 -1.837035E+03 -3.036317E+05 -7.733524E+04 -1.424527E+04  2.077281E+03 -6.799203E+04
        53   6  6.080837E+03 -3.220890E+05 -4.969685E+04 -2.018724E+04  9.814012E+02 -2.719327E+04
        53   7 -1.563570E+05 -4.030576E+05 -1.828958E+05 -8.706320E+04  8.268320E+02 -1.111270E+05
        53   8 -1.415591E+04 -3.539404E+05 -8.862106E+04 -3.815695E+04  2.079920E+03 -6.807041E+04
        53   9  1.183472E+03 -3.421505E+05 -5.410266E+04 -1.135411E+03  9.804780E+02 -2.501137E+04
        53  10 -1.160792E+05 -2.411573E+05 -1.434370E+05  4.668691E+04  2.559312E-10  7.914508E-10
        53  11  1.048257E+04 -2.533244E+05 -6.605796E+04  9.668489E+03  1.233170E-09  1.116663E-09
        53  12  1.097931E+04 -3.020272E+05 -4.529249E+04 -3.923967E+04  9.637367E-10  2.347400E-09
        53  13 -1.362279E+05 -3.221219E+05 -1.631790E+05 -2.019248E+04  2.335887E-10  6.306853E-12
        53  14 -1.838281E+03 -3.036367E+05 -7.734394E+04 -1.424515E+04  1.433330E-09 -2.378474E-11
        53  15  6.080638E+03 -3.220898E+05 -4.969825E+04 -2.018722E+04  4.700568E-10  5.282577E-12
        53  16 -1.563603E+05 -4.030708E+05 -1.829190E+05 -8.706313E+04  2.151345E-10 -7.997153E-10
        53  17 -1.415716E+04 -3.539454E+05 -8.862978E+04 -3.815683E+04  3.523522E-10 -1.158331E-09
        53  18  1.183303E+03 -3.421512E+05 -5.410384E+04 -1.135391E+03  3.269982E-10 -2.339029E-09
        53  19 -1.160762E+05 -2.411451E+05 -1.434157E+05  4.668684E+04 -8.031799E+02  1.064538E+05
        53  20  1.048381E+04 -2.533195E+05 -6.604928E+04  9.668375E+03 -2.074647E+03  6.791366E+04
        53  21  1.097954E+04 -3.020262E+05 -4.529086E+04 -3.923970E+04 -9.824585E+02  2.937524E+04
        53  22 -1.362248E+05 -3.221091E+05 -1.631567E+05 -2.019255E+04 -8.147535E+02  1.087906E+05
        53  23 -1.837035E+03 -3.036317E+05 -7.733524E+04 -1.424527E+04 -2.077281E+03  6.799203E+04
        53  24  6.080837E+03 -3.220890E+05 -4.969685E+04 -2.018724E+04 -9.814012E+02  2.719327E+04
        53  25 -1.563570E+05 -4.030576E+05 -1.828958E+05 -8.706320E+04 -8.268320E+02  1.111270E+05
        53  26 -1.415591E+04 -3.539404E+05 -8.862106E+04 -3.815695E+04 -2.079920E+03  6.807041E+04
        53  27  1.183472E+03 -3.421505E+05 -5.410266E+04 -1.135411E+03 -9.804780E+02  2.501137E+04
        54   1 -7.630712E+03 -3.192470E+05 -4.379606E+04 -1.665705E+04 -2.578954E+02 -2.135666E+04
        54   2 -8.169038E+03 -3.469798E+05 -4.144728E+04 -1.413657E+04 -1.848211E+03 -4.253826E+03
        54   3 -2.133274E+04 -3.800963E+05 -5.339276E+04 -2.360457E+04 -3.358231E+03  1.284830E+04
        54   4 -6.620061E+03 -3.150786E+05 -4.291567E+04 -2.021054E+04 -2.578883E+02 -1.979336E+04
        54   5  2.497827E+02 -3.123931E+05 -3.395256E+04 -1.421620E+04 -1.848289E+03 -2.767403E+03
        54   6 -5.492064E+03 -3.150789E+05 -3.923012E+04 -2.021047E+04 -3.358208E+03  1.425866E+04
        54   7 -5.609363E+03 -3.109100E+05 -4.203527E+04 -2.376405E+04 -2.578991E+02 -1.823006E+04
        54   8  8.668525E+03 -2.778054E+05 -2.645790E+04 -1.429583E+04 -1.848368E+03 -1.280898E+03
        54   9  1.034837E+04 -2.500575E+05 -2.506773E+04 -1.681602E+04 -3.358169E+03  1.566917E+04
        54  10 -7.630834E+03 -3.192475E+05 -4.379692E+04 -1.665706E+04 -6.014055E-10  1.842964E-08
        54  11 -8.169046E+03 -3.469798E+05 -4.144732E+04 -1.413657E+04 -2.314680E-09  1.328422E-10
        54  12 -2.133279E+04 -3.800965E+05 -5.339309E+04 -2.360454E+04 -8.058477E-10 -1.817061E-08
        54  13 -6.620166E+03 -3.150790E+05 -4.291641E+04 -2.021055E+04 -8.613056E-10  8.200630E-12
        54  14  2.497770E+02 -3.123931E+05 -3.395258E+04 -1.421620E+04 -2.845567E-09 -4.972863E-12
        54  15 -5.492131E+03 -3.150791E+05 -3.923053E+04 -2.021044E+04 -8.303646E-10 -3.849782E-12
        54  16 -5.609452E+03 -3.109104E+05 -4.203589E+04 -2.376406E+04 -7.196202E-10 -1.841326E-08
        54  17  8.668521E+03 -2.778054E+05 -2.645791E+04 -1.429583E+04 -2.027548E-09 -1.770902E-10
        54  18  1.034829E+04 -2.500577E+05 -2.506821E+04 -1.681597E+04 -1.025505E-09  1.815399E-08
        54  19 -7.630712E+03 -3.192470E+05 -4.379606E+04 -1.665705E+04  2.578954E+02  2.135666E+04
        54  20 -8.169038E+03 -3.469798E+05 -4.144728E+04 -1.413657E+04  1.848211E+03  4.253826E+03
        54  21 -2.133274E+04 -3.800963E+05 -5.339276E+04 -2.360457E+04  3.358231E+03 -1.284830E+04
        54  22 -6.620061E+03 -3.150786E+05 -4.291567E+04 -2.021054E+04  2.578883E+02  1.979336E+04
        54  23  2.497827E+02 -3.123931E+05 -3.395256E+04 -1.421620E+04  1.848289E+03  2.767403E+03
        54  24 -5.492064E+03 -3.150789E+05 -3.923012E+04 -2.021047E+04  3.358208E+03 -1.425866E+04
        54  25 -5.609363E+03 -3.109100E+05 -4.203527E+04 -2.376405E+04  2.578991E+02  1.823006E+04
        54  26  8.668525E+03 -2.778054E+05 -2.645790E+04 -1.429583E+04  1.848368E+03  1.280898E+03
        54  27  1.034837E+04 -2.500575E+05 -2.506773E+04 -1.681602E+04  3.358169E+03 -1.566917E+04
        55   1 -1.667594E+04 -4.101261E+05 -6.357928E+04 -4.097977E+03 -4.729232E+03  1.841563E+04
        55   2 -3.073087E+04 -4.245445E+05 -9.296845E+04 -3.456966E+04 -5.326276E+03  5.738637E+04
        55   3 -1.526107E+05 -4.709944E+05 -1.746939E+05 -7.682598E+04 -1.804665E+03  9.635445E+04
        55   4  5.062509E+03 -3.208478E+05 -4.420539E+04 -2.016658E+04 -4.729754E+03  2.096589E+04
        55   5 -1.544714E+03 -3.051862E+05 -6.644347E+04 -1.427125E+04 -5.324332E+03  5.598627E+04
        55   6 -1.152840E+05 -3.208665E+05 -1.382674E+05 -2.016408E+04 -1.796042E+03  9.100616E+04
        55   7  2.680140E+04 -2.315615E+05 -2.483182E+04 -3.623752E+04 -4.730408E+03  2.351652E+04
        55   8  2.764203E+04 -1.858137E+05 -3.991915E+04  6.031117E+03 -5.322480E+03  5.458590E+04
        55   9 -7.794690E+04 -1.707109E+05 -1.018407E+05  3.651157E+04 -1.788397E+03  8.565658E+04
        55  10 -1.667606E+04 -4.101265E+05 -6.357996E+04 -4.097907E+03  1.092743E-09 -1.700838E-09
        55  11 -3.073179E+04 -4.245480E+05 -9.297470E+04 -3.456942E+04  8.509472E-10 -1.078528E-09
        55  12 -1.526132E+05 -4.710044E+05 -1.747114E+05 -7.682584E+04  1.273417E-10 -1.297487E-09
        55  13  5.062366E+03 -3.208483E+05 -4.420626E+04 -2.016650E+04  2.827934E-10  2.446097E-11
        55  14 -1.545587E+03 -3.051896E+05 -6.644942E+04 -1.427101E+04  1.725123E-09  9.114810E-13
        55  15 -1.152863E+05 -3.208754E+05 -1.382830E+05 -2.016395E+04  7.804204E-10  1.851352E-11
        55  16  2.680123E+04 -2.315621E+05 -2.483290E+04 -3.623743E+04  8.266745E-10  1.728572E-09
        55  17  2.764120E+04 -1.858169E+05 -3.992480E+04  6.031352E+03  7.880779E-10  1.115868E-09
        55  18 -7.794888E+04 -1.707188E+05 -1.018545E+05  3.651169E+04  4.231189E-10  1.254860E-09
        55  19 -1.667594E+04 -4.101261E+05 -6.357928E+04 -4.097977E+03  4.729232E+03 -1.841563E+04
        55  20 -3.073087E+04 -4.245445E+05 -9.296845E+04 -3.456966E+04  5.326276E+03 -5.738637E+04
        55  21 -1.526107E+05 -4.709944E+05 -1.746939E+05 -7.682598E+04  1.804665E+03 -9.635445E+04
        55  22  5.062509E+03 -3.208478E+05 -4.420539E+04 -2.016658E+04  4.729754E+03 -2.096589E+04
        55  23 -1.544714E+03 -3.051862E+05 -6.644347E+04 -1.427125E+04  5.324332E+03 -5.598627E+04
        55  24 -1.152840E+05 -3.208665E+05 -1.382674E+05 -2.016408E+04  1.796042E+03 -9.100616E+04
        55  25  2.680140E+04 -2.315615E+05 -2.483182E+04 -3.623752E+04  4.730408E+03 -2.351652E+04
        55  26  2.764203E+04 -1.858137E+05 -3.991915E+04  6.031117E+03  5.322480E+03 -5.458590E+04
        55  27 -7.794690E+04 -1.707109E+05 -1.018407E+05  3.651157E+04  1.788397E+03 -8.565658E+04
        56   1  1.419286E+05  2.389977E+04 -5.536635E+04  1.242407E+05 -1.694741E+04 -1.045185E+04
        56   2  1.556907E+05  5.570177E+04 -3.658854E+04  1.268262E+05 -1.221653E+04 -2.228592E+03
        56   3  1.673804E+05  6.739047E+04 -2.769566E+04  1.327708E+05 -5.193181E+03  2.938575E+03
        56   4  2.376038E+05  1.060439E+05 -2.089495E+04  1.780340E+05 -1.260776E+04 -7.197764E+03
        56   5  2.416176E+05  1.216445E+05 -9.550341E+03  1.719577E+05 -1.081101E+04 -1.174772E+03
        56   6  2.441968E+05  1.177692E+05 -5.543497E+03  1.692399E+05 -6.722165E+03  1.792025E+03
        56   7  3.332895E+05  1.881966E+05  1.357544E+04  2.318378E+05 -8.267172E+03 -3.942782E+03
        56   8  3.275533E+05  1.875928E+05  1.748722E+04  2.170970E+05 -9.405207E+03 -1.207232E+02
        56   9  3.210202E+05  1.681511E+05  1.660828E+04  2.057144E+05 -8.251420E+03  6.452907E+02
        56  10  1.419283E+05  2.389958E+04 -5.536709E+04  1.242406E+05  1.824432E-10  1.057171E-10
        56  11  1.556905E+05  5.570172E+04 -3.658883E+04  1.268262E+05  1.507408E-10 -2.735925E-10
        56  12  1.673804E+05  6.739045E+04 -2.769573E+04  1.327708E+05 -2.047251E-10 -3.767222E-10
        56  13  2.376036E+05  1.060438E+05 -2.089535E+04  1.780339E+05  7.523879E-11 -1.099800E-10
        56  14  2.416175E+05  1.216445E+05 -9.550563E+03  1.719577E+05 -3.113313E-10 -3.214673E-10
        56  15  2.441967E+05  1.177692E+05 -5.543588E+03  1.692399E+05  7.700061E-11 -2.684300E-10
        56  16  3.332894E+05  1.881966E+05  1.357528E+04  2.318378E+05 -4.822525E-11 -3.125316E-10
        56  17  3.275532E+05  1.875927E+05  1.748705E+04  2.170970E+05 -2.845923E-10 -3.564445E-10
        56  18  3.210201E+05  1.681511E+05  1.660815E+04  2.057144E+05  9.645408E-11 -1.364875E-10
        56  19  1.419286E+05  2.389977E+04 -5.536635E+04  1.242407E+05  1.694741E+04  1.045185E+04
        56  20  1.556907E+05  5.570177E+04 -3.658854E+04  1.268262E+05  1.221653E+04  2.228592E+03
        56  21  1.673804E+05  6.739047E+04 -2.769566E+04  1.327708E+05  5.193181E+03 -2.938575E+03
        56  22  2.376038E+05  1.060439E+05 -2.089495E+04  1.780340E+05  1.260776E+04  7.197764E+03
        56  23  2.416176E+05  1.216445E+05 -9.550341E+03  1.719577E+05  1.081101E+04  1.174772E+03
        56  24  2.441968E+05  1.177692E+05 -5.543497E+03  1.692399E+05  6.722165E+03 -1.792025E+03
        56  25  3.332895E+05  1.881966E+05  1.357544E+04  2.318378E+05  8.267172E+03  3.942782E+03
        56  26  3.275533E+05  1.875928E+05  1.748722E+04  2.170970E+05  9.405207E+03  1.207232E+02
        56  27  3.210202E+05  1.681511E+05  1.660828E+04  2.057144E+05  8.251420E+03 -6.452907E+02
        57   1  1.817030E+05  7.217800E+04 -2.314448E+04  1.390768E+05 -4.849945E+03  1.966558E+03
        57   2  1.926942E+05  8.716054E+04 -1.667766E+04  1.471556E+05 -3.222241E+03  2.004629E+03
        57   3  2.106624E+05  9.386556E+04 -1.129893E+04  1.532721E+05 -1.491176E+03  1.904724E+03
        57   4  2.442335E+05  1.169927E+05 -4.371220E+03  1.705120E+05 -5.510769E+03  1.471011E+03
        57   5  2.409010E+05  1.214202E+05 -2.311300E+03  1.712659E+05 -4.015431E+03  1.409885E+03
        57   6  2.445744E+05  1.175990E+05 -1.224427E+03  1.700574E+05 -2.416763E+03  1.210768E+03
        57   7  3.067676E+05  1.618091E+05  1.440137E+04  2.019505E+05 -6.171677E+03  9.754008E+02
        57   8  2.891102E+05  1.556809E+05  1.205471E+04  1.953782E+05 -4.808701E+03  8.150812E+02
        57   9  2.784876E+05  1.413331E+05  8.849951E+03  1.868438E+05 -3.342419E+03  5.167628E+02
        57  10  1.817029E+05  7.217799E+04 -2.314453E+04  1.390768E+05 -5.362716E-11 -2.690254E-10
        57  11  1.926942E+05  8.716053E+04 -1.667769E+04  1.471556E+05 -8.408390E-10 -2.131173E-10
        57  12  2.106624E+05  9.386556E+04 -1.129894E+04  1.532721E+05  4.636323E-11 -3.429472E-11
        57  13  2.442334E+05  1.169926E+05 -4.371281E+03  1.705120E+05 -2.573359E-10 -1.337181E-10
        57  14  2.409010E+05  1.214202E+05 -2.311334E+03  1.712659E+05  1.107330E-10 -1.268149E-10
        57  15  2.445744E+05  1.175990E+05 -1.224441E+03  1.700574E+05 -7.427503E-11  2.226078E-10
        57  16  3.067675E+05  1.618091E+05  1.440130E+04  2.019505E+05 -6.753471E-11 -1.396176E-10
        57  17  2.891101E+05  1.556809E+05  1.205467E+04  1.953782E+05 -9.515628E-11  3.007805E-12
        57  18  2.784876E+05  1.413331E+05  8.849930E+03  1.868438E+05 -3.561704E-10  3.445512E-10
        57  19  1.817030E+05  7.217800E+04 -2.314448E+04  1.390768E+05  4.849945E+03 -1.966558E+03
        57  20  1.926942E+05  8.716054E+04 -1.667766E+04  1.471556E+05  3.222241E+03 -2.004629E+03
        57  21  2.106624E+05  9.386556E+04 -1.129893E+04  1.532721E+05  1.491176E+03 -1.904724E+03
        57  22  2.442335E+05  1.169927E+05 -4.371220E+03  1.705120E+05  5.510769E+03 -1.471011E+03
        57  23  2.409010E+05  1.214202E+05 -2.311300E+03  1.712659E+05  4.015431E+03 -1.409885E+03
        57  24  2.445744E+05  1.175990E+05 -1.224427E+03  1.700574E+05  2.416763E+03 -1.210768E+03
        57  25  3.067676E+05  1.618091E+05  1.440137E+04  2.019505E+05  6.171677E+03 -9.754008E+02
        57  26  2.891102E+05  1.556809E+05  1.205471E+04  1.953782E+05  4.808701E+03 -8.150812E+02
        57  27  2.784876E+05  1.413331E+05  8.849951E+03  1.868438E+05  3.342419E+03 -5.167628E+02
        58   1  2.223674E+05  1.018829E+05 -7.393633E+03  1.590620E+05 -9.674629E+02  1.430148E+03
        58   2  2.331355E+05  1.159777E+05 -2.511419E+03  1.674065E+05 -1.809034E+02  5.756861E+02
        58   3  2.514410E+05  1.224963E+05  2.289999E+03  1.735444E+05  6.062445E+02 -2.795776E+02
        58   4  2.445918E+05  1.175692E+05 -8.486262E+02  1.701377E+05 -1.854993E+03  7.647416E+02
        58   5  2.408351E+05  1.213784E+05 -2.336549E+02  1.712253E+05 -1.069201E+03 -9.029267E+01
        58   6  2.446156E+05  1.176116E+05  3.011652E+02  1.701060E+05 -2.828295E+02 -9.461255E+02
        58   7  2.668170E+05  1.332559E+05  5.696407E+03  1.812140E+05 -2.742575E+03  9.929620E+01
        58   8  2.485348E+05  1.267792E+05  2.044108E+03  1.750441E+05 -1.957514E+03 -7.562825E+02
        58   9  2.377904E+05  1.127269E+05 -1.687646E+03  1.666677E+05 -1.171881E+03 -1.612657E+03
        58  10  2.223674E+05  1.018829E+05 -7.393638E+03  1.590620E+05  3.286228E-11  3.399883E-10
        58  11  2.331355E+05  1.159777E+05 -2.511420E+03  1.674065E+05 -1.580391E-11  2.007989E-10
        58  12  2.514410E+05  1.224963E+05  2.289999E+03  1.735444E+05 -3.648116E-10  4.279022E-11
        58  13  2.445918E+05  1.175692E+05 -8.486338E+02  1.701377E+05 -1.679920E-10  1.675831E-10
        58  14  2.408351E+05  1.213784E+05 -2.336570E+02  1.712253E+05 -9.179432E-11 -2.296302E-10
        58  15  2.446156E+05  1.176116E+05  3.011634E+02  1.701060E+05  3.138671E-11 -1.132902E-10
        58  16  2.668170E+05  1.332559E+05  5.696393E+03  1.812140E+05 -2.584653E-10 -1.745387E-12
        58  17  2.485348E+05  1.267792E+05  2.044099E+03  1.750441E+05  3.741516E-10 -1.966787E-10
        58  18  2.377904E+05  1.127269E+05 -1.687653E+03  1.666677E+05  2.530332E-10 -1.745155E-10
        58  19  2.223674E+05  1.018829E+05 -7.393633E+03  1.590620E+05  9.674629E+02 -1.430148E+03
        58  20  2.331355E+05  1.159777E+05 -2.511419E+03  1.674065E+05  1.809034E+02 -5.756861E+02
        58  21  2.514410E+05  1.224963E+05  2.289999E+03  1.735444E+05 -6.062445E+02  2.795776E+02
        58  22  2.445918E+05  1.175692E+05 -8.486262E+02  1.701377E+05  1.854993E+03 -7.647416E+02
        58  23  2.408351E+05  1.213784E+05 -2.336549E+02  1.712253E+05  1.069201E+03  9.029267E+01
        58  24  2.446156E+05  1.176116E+05  3.011652E+02  1.701060E+05  2.828295E+02  9.461255E+02
        58  25  2.668170E+05  1.332559E+05  5.696407E+03  1.812140E+05  2.742575E+03 -9.929620E+01
        58  26  2.485348E+05  1.267792E+05  2.044108E+03  1.750441E+05  1.957514E+03  7.562825E+02
        58  27  2.377904E+05  1.127269E+05 -1.687646E+03  1.666677E+05  1.171881E+03  1.612657E+03
        59   1  2.629173E+05  1.307455E+05  6.100681E+03  1.793701E+05  9.920433E+02 -8.549931E+02
        59   2  2.737445E+05  1.446391E+05  1.111838E+04  1.876224E+05  1.024568E+03 -2.236307E+03
        59   3  2.924818E+05  1.514237E+05  1.679754E+04  1.935200E+05  9.682828E+02 -3.499110E+03
        59   4  2.446283E+05  1.175950E+05  5.824088E+02  1.701591E+05  7.086138E+01 -1.545619E+03
        59   5  2.407887E+05  1.213452E+05  1.314701E+03  1.711989E+05  2.172351E+02 -2.841614E+03
        59   6  2.448342E+05  1.179616E+05  2.609722E+03  1.698838E+05  2.748153E+02 -4.019081E+03
        59   7  2.263397E+05  1.044446E+05 -4.935899E+03  1.609484E+05 -8.502841E+02 -2.236217E+03
        59   8  2.078339E+05  9.805186E+04 -8.489155E+03  1.547764E+05 -5.900437E+02 -3.446880E+03
        59   9  1.971886E+05  8.450049E+04 -1.157852E+04  1.462494E+05 -4.185872E+02 -4.539004E+03
        59  10  2.629173E+05  1.307455E+05  6.100678E+03  1.793701E+05 -3.260202E-10 -1.736163E-10
        59  11  2.737445E+05  1.446391E+05  1.111837E+04  1.876224E+05 -3.047343E-10  1.612046E-10
        59  12  2.924818E+05  1.514237E+05  1.679751E+04  1.935200E+05 -1.056551E-10  2.310410E-10
        59  13  2.446283E+05  1.175949E+05  5.824043E+02  1.701591E+05 -6.414938E-10  1.246933E-10
        59  14  2.407887E+05  1.213452E+05  1.314686E+03  1.711989E+05 -8.610091E-10  1.303457E-10
        59  15  2.448342E+05  1.179616E+05  2.609692E+03  1.698838E+05 -3.044703E-10  3.026466E-11
        59  16  2.263397E+05  1.044446E+05 -4.935910E+03  1.609484E+05  8.146640E-10  1.600334E-10
        59  17  2.078339E+05  9.805185E+04 -8.489178E+03  1.547764E+05 -1.081759E-10  2.312327E-10
        59  18  1.971886E+05  8.450047E+04 -1.157855E+04  1.462494E+05 -3.961047E-10 -1.901454E-10
        59  19  2.629173E+05  1.307455E+05  6.100681E+03  1.793701E+05 -9.920433E+02  8.549931E+02
        59  20  2.737445E+05  1.446391E+05  1.111838E+04  1.876224E+05 -1.024568E+03  2.236307E+03
        59  21  2.924818E+05  1.514237E+05  1.679754E+04  1.935200E+05 -9.682828E+02  3.499110E+03
        59  22  2.446283E+05  1.175950E+05  5.824088E+02  1.701591E+05 -7.086138E+01  1.545619E+03
        59  23  2.407887E+05  1.213452E+05  1.314701E+03  1.711989E+05 -2.172351E+02  2.841614E+03
        59  24  2.448342E+05  1.179616E+05  2.609722E+03  1.698838E+05 -2.748153E+02  4.019081E+03
        59  25  2.263397E+05  1.044446E+05 -4.935899E+03  1.609484E+05  8.502841E+02  2.236217E+03
        59  26  2.078339E+05  9.805186E+04 -8.489155E+03  1.547764E+05  5.900437E+02  3.446880E+03
        59  27  1.971886E+05  8.450049E+04 -1.157852E+04  1.462494E+05  4.185872E+02  4.539004E+03
        60   1  3.024400E+05  1.608411E+05  2.092443E+04  2.005840E+05  1.906143E+03 -3.971185E+03
        60   2  3.156866E+05  1.714811E+05  2.817759E+04  2.068620E+05 -2.928975E+03 -7.886947E+03
        60   3  3.422936E+05  1.825893E+05  4.208037E+04  2.076128E+05 -9.732698E+03 -9.177711E+03
        60   4  2.448087E+05  1.175367E+05  3.337154E+03  1.706728E+05  4.670191E+02 -5.050269E+03
        60   5  2.404069E+05  1.211431E+05  5.795274E+03  1.707602E+05 -1.846146E+03 -7.075098E+03
        60   6  2.488192E+05  1.246718E+05  1.271578E+04  1.653202E+05 -6.127888E+03 -6.474709E+03
        60   7  1.871815E+05  7.423485E+04 -1.425029E+04  1.407650E+05 -9.719092E+02 -6.129197E+03
        60   8  1.651338E+05  7.080813E+04 -1.658753E+04  1.346634E+05 -7.635017E+02 -6.263376E+03
        60   9  1.553542E+05  6.675755E+04 -1.664976E+04  1.230344E+05 -2.523826E+03 -3.772173E+03
        60  10  3.024400E+05  1.608411E+05  2.092439E+04  2.005840E+05 -4.202120E-10 -1.788809E-10
        60  11  3.156866E+05  1.714810E+05  2.817746E+04  2.068620E+05 -1.401920E-10 -4.215077E-11
        60  12  3.422934E+05  1.825892E+05  4.208003E+04  2.076127E+05  2.261787E-10  5.208650E-11
        60  13  2.448086E+05  1.175366E+05  3.337106E+03  1.706728E+05 -2.425107E-10 -1.676824E-11
        60  14  2.404069E+05  1.211431E+05  5.795173E+03  1.707602E+05 -3.316599E-10  4.599051E-11
        60  15  2.488192E+05  1.246717E+05  1.271563E+04  1.653202E+05 -2.228555E-10  3.071752E-11
        60  16  1.871815E+05  7.423481E+04 -1.425036E+04  1.407650E+05  1.097560E-10  1.348273E-10
        60  17  1.651338E+05  7.080809E+04 -1.658761E+04  1.346634E+05 -4.244310E-10  1.489451E-10
        60  18  1.553542E+05  6.675754E+04 -1.664980E+04  1.230344E+05  2.139705E-10  2.865149E-11
        60  19  3.024400E+05  1.608411E+05  2.092443E+04  2.005840E+05 -1.906143E+03  3.971185E+03
        60  20  3.156866E+05  1.714811E+05  2.817759E+04  2.068620E+05  2.928975E+03  7.886947E+03
        60  21  3.422936E+05  1.825893E+05  4.208037E+04  2.076128E+05  9.732698E+03  9.177711E+03
        60  22  2.448087E+05  1.175367E+05  3.337154E+03  1.706728E+05 -4.670191E+02  5.050269E+03
        60  23  2.404069E+05  1.211431E+05  5.795274E+03  1.707602E+05  1.846146E+03  7.075098E+03
        60  24  2.488192E+05  1.246718E+05  1.271578E+04  1.653202E+05  6.127888E+03  6.474709E+03
        60  25  1.871815E+05  7.423485E+04 -1.425029E+04  1.407650E+05  9.719092E+02  6.129197E+03
        60  26  1.651338E+05  7.080813E+04 -1.658753E+04  1.346634E+05  7.635017E+02  6.263376E+03
        60  27  1.553542E+05  6.675755E+04 -1.664976E+04  1.230344E+05  2.523826E+03  3.772173E+03
        61   1  5.313357E+05  2.975369E+04  3.557485E+04  1.459176E+04  2.412443E+04  5.665466E-01
        61   2  5.273268E+05  4.087867E+02  1.656695E+04  5.213041E+03  1.537421E+04  1.289900E-01
        61   3  5.313434E+05 -1.382559E+03  1.014068E+04 -4.165451E+03  6.624101E+03 -4.440769E-02
        61   4  5.313354E+05  2.975329E+04  3.557480E+04 -7.846021E-10  2.412443E+04 -1.014986E-10
        61   5  5.273268E+05  4.087357E+02  1.656694E+04  2.655225E-09  1.537421E+04 -6.752089E-11
        61   6  5.313434E+05 -1.382591E+03  1.014068E+04  1.346009E-09  6.624101E+03  1.284533E-10
        61   7  5.313357E+05  2.975369E+04  3.557485E+04 -1.459176E+04  2.412443E+04 -5.665466E-01
        61   8  5.273268E+05  4.087867E+02  1.656695E+04 -5.213041E+03  1.537421E+04 -1.289900E-01
        61   9  5.313434E+05 -1.382559E+03  1.014068E+04  4.165451E+03  6.624101E+03  4.440769E-02
        61  10  5.313350E+05  2.975354E+04  3.557376E+04  1.459176E+04  8.140807E-11  3.241233E-11
        61  11  5.273266E+05  4.087234E+02  1.656650E+04  5.213041E+03  5.463774E-10  9.548116E-11
        61  12  5.313433E+05 -1.382571E+03  1.014060E+04 -4.165451E+03  2.503608E-10  1.893245E-10
        61  13  5.313348E+05  2.975314E+04  3.557370E+04  8.375354E-10 -2.061663E-10 -2.474369E-12
        61  14  5.273266E+05  4.086723E+02  1.656650E+04  1.045745E-09  2.062099E-10 -4.600386E-12
        61  15  5.313433E+05 -1.382603E+03  1.014059E+04  1.123524E-09  7.720996E-10  2.324163E-11
        61  16  5.313350E+05  2.975354E+04  3.557376E+04 -1.459176E+04  1.815852E-10 -3.081508E-11
        61  17  5.273266E+05  4.087234E+02  1.656650E+04 -5.213041E+03  3.221940E-11 -6.235633E-11
        61  18  5.313433E+05 -1.382571E+03  1.014060E+04  4.165451E+03  4.318146E-10 -1.475509E-10
        61  19  5.313357E+05  2.975369E+04  3.557485E+04  1.459176E+04 -2.412443E+04 -5.665466E-01
        61  20  5.273268E+05  4.087867E+02  1.656695E+04  5.213041E+03 -1.537421E+04 -1.289900E-01
        61  21  5.313434E+05 -1.382559E+03  1.014068E+04 -4.165451E+03 -6.624101E+03  4.440769E-02
        61  22  5.313354E+05  2.975329E+04  3.557480E+04 -1.321105E-09 -2.412443E+04  9.289818E-11
        61  23  5.273268E+05  4.087357E+02  1.656694E+04  2.410038E-10 -1.537421E+04  6.492186E-11
        61  24  5.313434E+05 -1.382591E+03  1.014068E+04  2.861711E-10 -6.624101E+03 -8.560194E-11
        61  25  5.313357E+05  2.975369E+04  3.557485E+04 -1.459176E+04 -2.412443E+04  5.665466E-01
        61  26  5.273268E+05  4.087867E+02  1.656695E+04 -5.213041E+03 -1.537421E+04  1.289900E-01
        61  27  5.313434E+05 -1.382559E+03  1.014068E+04  4.165451E+03 -6.624101E+03 -4.440769E-02
        62   1  5.297312E+05  1.505789E+03  8.412242E+03  5.792356E+02  5.149989E+03  4.801002E-03
        62   2  5.293433E+05 -5.356870E+01  5.694906E+03  1.718152E+02  2.303503E+03  6.369730E-04
        62   3  5.297319E+05  1.196119E+01  5.235848E+03 -2.356115E+02 -5.430206E+02  2.059125E-04
        62   4  5.297312E+05  1.505788E+03  8.412242E+03 -7.760378E-10  5.149989E+03  2.151830E-10
        62   5  5.293433E+05 -5.356876E+01  5.694905E+03 -9.993971E-10  2.303503E+03  1.121703E-10
        62   6  5.297319E+05  1.196109E+01  5.235848E+03  1.164655E-09 -5.430206E+02 -1.009433E-10
        62   7  5.297312E+05  1.505789E+03  8.412242E+03 -5.792356E+02  5.149989E+03 -4.801002E-03
        62   8  5.293433E+05 -5.356870E+01  5.694906E+03 -1.718152E+02  2.303503E+03 -6.369726E-04
        62   9  5.297319E+05  1.196119E+01  5.235848E+03  2.356115E+02 -5.430206E+02 -2.059128E-04
        62  10  5.297312E+05  1.505782E+03  8.412192E+03  5.792356E+02 -1.054770E-10  1.833765E-10
        62  11  5.293433E+05 -5.357013E+01  5.694896E+03  1.718152E+02  5.055032E-10  1.464383E-11
        62  12  5.297319E+05  1.196111E+01  5.235847E+03 -2.356115E+02  2.779077E-11  3.489061E-11
        62  13  5.297312E+05  1.505781E+03  8.412192E+03 -1.052178E-09  7.294788E-10  2.531632E-11
        62  14  5.293433E+05 -5.357018E+01  5.694896E+03 -1.957052E-10  9.595674E-10  1.086453E-12
        62  15  5.297319E+05  1.196101E+01  5.235847E+03  5.282226E-10 -5.475069E-11  9.382440E-12
        62  16  5.297312E+05  1.505782E+03  8.412192E+03 -5.792356E+02 -1.541585E-10 -1.325491E-10
        62  17  5.293433E+05 -5.357013E+01  5.694896E+03 -1.718152E+02  3.671318E-10 -5.935433E-11
        62  18  5.297319E+05  1.196111E+01  5.235847E+03  2.356115E+02  1.081610E-11  1.557098E-12
        62  19  5.297312E+05  1.505789E+03  8.412242E+03  5.792356E+02 -5.149989E+03 -4.801002E-03
        62  20  5.293433E+05 -5.356870E+01  5.694906E+03  1.718152E+02 -2.303503E+03 -6.369729E-04
        62  21  5.297319E+05  1.196119E+01  5.235848E+03 -2.356115E+02  5.430206E+02 -2.059125E-04
        62  22  5.297312E+05  1.505788E+03  8.412242E+03 -2.448026E-10 -5.149989E+03 -1.668639E-10
        62  23  5.293433E+05 -5.356876E+01  5.694905E+03  3.423695E-10 -2.303503E+03 -1.070344E-10
        62  24  5.297319E+05  1.196109E+01  5.235848E+03 -4.464130E-10  5.430206E+02  1.190206E-10
        62  25  5.297312E+05  1.505789E+03  8.412242E+03 -5.792356E+02 -5.149989E+03  4.801001E-03
        62  26  5.293433E+05 -5.356870E+01  5.694906E+03 -1.718152E+02 -2.303503E+03  6.369727E-04
        62  27  5.297319E+05  1.196119E+01  5.235848E+03  2.356115E+02  5.430206E+02  2.059128E-04
        63   1  5.298077E+05 -7.987772E+01  5.578054E+03  4.400960E+02 -1.496224E+03 -1.059776E-03
        63   2  5.292482E+05 -6.330766E+01  7.591298E+03 -2.205113E+02 -5.297336E+03  1.880005E-03
        63   3  5.298064E+05  2.446618E+03  1.270107E+04 -8.811176E+02 -9.098461E+03  1.290245E-02
        63   4  5.298077E+05 -7.987808E+01  5.578054E+03 -1.775848E-09 -1.496224E+03 -1.021496E-11
        63   5  5.292482E+05 -6.330776E+01  7.591298E+03  4.469736E-10 -5.297336E+03  2.325157E-10
        63   6  5.298064E+05  2.446616E+03  1.270107E+04  4.880466E-10 -9.098461E+03 -1.148044E-10
        63   7  5.298077E+05 -7.987772E+01  5.578054E+03 -4.400960E+02 -1.496224E+03  1.059776E-03
        63   8  5.292482E+05 -6.330766E+01  7.591298E+03  2.205113E+02 -5.297336E+03 -1.880005E-03
        63   9  5.298064E+05  2.446618E+03  1.270107E+04  8.811176E+02 -9.098461E+03 -1.290245E-02
        63  10  5.298077E+05 -7.987832E+01  5.578049E+03  4.400960E+02  2.736787E-10  7.770779E-11
        63  11  5.292482E+05 -6.331519E+01  7.591245E+03 -2.205113E+02 -1.588814E-11  4.077609E-11
        63  12  5.298063E+05  2.446595E+03  1.270091E+04 -8.811176E+02  2.821952E-10 -1.991346E-10
        63  13  5.298077E+05 -7.987868E+01  5.578049E+03 -1.769535E-09  5.470218E-10  3.278364E-11
        63  14  5.292482E+05 -6.331528E+01  7.591245E+03 -5.134626E-10  3.646547E-10 -5.126116E-12
        63  15  5.298063E+05  2.446594E+03  1.270091E+04 -1.005738E-09 -3.071549E-10 -1.451497E-10
        63  16  5.298077E+05 -7.987832E+01  5.578049E+03 -4.400960E+02  3.273718E-11 -1.939898E-11
        63  17  5.292482E+05 -6.331519E+01  7.591245E+03  2.205113E+02  1.588812E-11 -8.435414E-11
        63  18  5.298063E+05  2.446595E+03  1.270091E+04  8.811176E+02 -1.524611E-10 -1.172027E-10
        63  19  5.298077E+05 -7.987772E+01  5.578054E+03  4.400960E+02  1.496224E+03  1.059777E-03
        63  20  5.292482E+05 -6.330766E+01  7.591298E+03 -2.205113E+02  5.297336E+03 -1.880005E-03
        63  21  5.298064E+05  2.446618E+03  1.270107E+04 -8.811176E+02  9.098461E+03 -1.290245E-02
        63  22  5.298077E+05 -7.987808E+01  5.578054E+03 -2.838845E-09  1.496224E+03  6.376531E-11
        63  23  5.292482E+05 -6.330776E+01  7.591298E+03  4.054127E-10  5.297336E+03 -2.201608E-10
        63  24  5.298064E+05  2.446616E+03  1.270107E+04 -4.571578E-10  9.098461E+03 -1.728760E-10
        63  25  5.298077E+05 -7.987772E+01  5.578054E+03 -4.400960E+02  1.496224E+03 -1.059776E-03
        63  26  5.292482E+05 -6.330766E+01  7.591298E+03  2.205113E+02  5.297336E+03  1.880005E-03
        63  27  5.298064E+05  2.446618E+03  1.270107E+04  8.811176E+02  9.098461E+03  1.290245E-02
        64   1  5.324386E+05 -2.232728E+03  1.573672E+04  6.765370E+03 -1.134098E+04 -1.234840E-01
        64   2  5.259559E+05  6.655538E+02  2.647613E+04 -8.402914E+03 -2.533503E+04  3.426295E-01
        64   3  5.324263E+05  4.810063E+04  5.745538E+04 -2.357119E+04 -3.932885E+04  1.491984E+00
        64   4  5.324385E+05 -2.232814E+03  1.573671E+04  9.062208E-10 -1.134098E+04 -3.404863E-10
        64   5  5.259558E+05  6.654213E+02  2.647612E+04  2.475270E-09 -2.533503E+04 -2.445331E-10
        64   6  5.324257E+05  4.809958E+04  5.745523E+04  2.078724E-10 -3.932885E+04 -4.012931E-11
        64   7  5.324386E+05 -2.232728E+03  1.573672E+04 -6.765370E+03 -1.134098E+04  1.234840E-01
        64   8  5.259559E+05  6.655538E+02  2.647613E+04  8.402914E+03 -2.533503E+04 -3.426295E-01
        64   9  5.324263E+05  4.810063E+04  5.745538E+04  2.357119E+04 -3.932885E+04 -1.491984E+00
        64  10  5.324384E+05 -2.232762E+03  1.573648E+04  6.765370E+03  4.720021E-11 -2.528315E-10
        64  11  5.259552E+05  6.653817E+02  2.647493E+04 -8.402914E+03  2.162562E-10 -9.841932E-11
        64  12  5.324247E+05  4.810021E+04  5.745248E+04 -2.357119E+04  1.190431E-11 -9.266169E-12
        64  13  5.324384E+05 -2.232848E+03  1.573647E+04 -1.599307E-10 -3.762024E-10 -1.989993E-10
        64  14  5.259551E+05  6.652491E+02  2.647491E+04 -8.730709E-10  2.650975E-10 -1.269687E-10
        64  15  5.324241E+05  4.809917E+04  5.745233E+04  9.679264E-10 -1.084101E-10 -3.497269E-11
        64  16  5.324384E+05 -2.232762E+03  1.573648E+04 -6.765370E+03 -9.076006E-11 -1.734689E-10
        64  17  5.259552E+05  6.653817E+02  2.647493E+04  8.402914E+03 -2.226792E-10 -1.845873E-10
        64  18  5.324247E+05  4.810021E+04  5.745248E+04  2.357119E+04  2.928184E-11 -2.706479E-11
        64  19  5.324386E+05 -2.232728E+03  1.573672E+04  6.765370E+03  1.134098E+04  1.234840E-01
        64  20  5.259559E+05  6.655538E+02  2.647613E+04 -8.402914E+03  2.533503E+04 -3.426295E-01
        64  21  5.324263E+05  4.810063E+04  5.745538E+04 -2.357119E+04  3.932885E+04 -1.491984E+00
        64  22  5.324385E+05 -2.232814E+03  1.573671E+04 -1.225554E-09  1.134098E+04 -5.132096E-11
        64  23  5.259558E+05  6.654213E+02  2.647612E+04  2.230591E-10  2.533503E+04 -1.471230E-11
        64  24  5.324257E+05  4.809958E+04  5.745523E+04  3.188620E-10  3.932885E+04 -2.922433E-11
        64  25  5.324386E+05 -2.232728E+03  1.573672E+04 -6.765370E+03  1.134098E+04 -1.234840E-01
        64  26  5.259559E+05  6.655538E+02  2.647613E+04  8.402914E+03  2.533503E+04  3.426295E-01
        64  27  5.324263E+05  4.810063E+04  5.745538E+04  2.357119E+04  3.932885E+04  1.491984E+00
        65   1 -6.387507E+04 -5.200111E+04 -8.213992E+04  2.288339E+04  1.107083E+03 -6.811895E+04
        65   2  1.614169E+04 -7.186671E+04 -3.504932E+04  8.484500E+02  3.031394E+03 -4.408514E+04
        65   3  1.358973E+04 -1.155001E+05 -2.424585E+04 -3.355933E+04  2.024280E+03 -2.005251E+04
        65   4 -8.946659E+04 -1.549105E+05 -1.071772E+05 -2.105260E+04  1.112058E+03 -7.136248E+04
        65   5 -1.207156E+03 -1.427760E+05 -5.088516E+04 -1.486388E+04  3.032562E+03 -4.452087E+04
        65   6  3.987390E+03 -1.549035E+05 -3.283500E+04 -2.104830E+04  2.023675E+03 -1.767909E+04
        65   7 -1.150516E+05 -2.578061E+05 -1.322141E+05 -6.498130E+04  1.117493E+03 -7.460546E+04
        65   8 -1.855542E+04 -2.136801E+05 -6.672119E+04 -3.057440E+04  3.033752E+03 -4.495656E+04
        65   9 -5.614463E+03 -1.943050E+05 -4.142414E+04 -8.538066E+03  2.023165E+03 -1.530583E+04
        65  10 -6.387632E+04 -5.200609E+04 -8.214864E+04  2.288345E+04 -6.216526E-11 -5.239080E-11
        65  11  1.614116E+04 -7.186879E+04 -3.505299E+04  8.485576E+02 -1.464355E-10 -1.283072E-10
        65  12  1.358962E+04 -1.155006E+05 -2.424661E+04 -3.355930E+04 -2.599765E-10 -6.896491E-11
        65  13 -8.946796E+04 -1.549160E+05 -1.071868E+05 -2.105254E+04  1.691478E-11 -1.124772E-11
        65  14 -1.207698E+03 -1.427781E+05 -5.088890E+04 -1.486377E+04 -2.161646E-11 -3.016395E-12
        65  15  3.987302E+03 -1.549038E+05 -3.283559E+04 -2.104827E+04 -1.172727E-10 -5.938502E-11
        65  16 -1.150531E+05 -2.578121E+05 -1.322246E+05 -6.498123E+04 -2.081335E-10  4.555189E-11
        65  17 -1.855597E+04 -2.136822E+05 -6.672501E+04 -3.057429E+04  4.296065E-11  9.396226E-11
        65  18 -5.614530E+03 -1.943052E+05 -4.142459E+04 -8.538041E+03 -4.133911E-10  9.004797E-11
        65  19 -6.387507E+04 -5.200111E+04 -8.213992E+04  2.288339E+04 -1.107083E+03  6.811895E+04
        65  20  1.614169E+04 -7.186671E+04 -3.504932E+04  8.484500E+02 -3.031394E+03  4.408514E+04
        65  21  1.358973E+04 -1.155001E+05 -2.424585E+04 -3.355933E+04 -2.024280E+03  2.005251E+04
        65  22 -8.946659E+04 -1.549105E+05 -1.071772E+05 -2.105260E+04 -1.112058E+03  7.136248E+04
        65  23 -1.207156E+03 -1.427760E+05 -5.088516E+04 -1.486388E+04 -3.032562E+03  4.452087E+04
        65  24  3.987390E+03 -1.549035E+05 -3.283500E+04 -2.104830E+04 -2.023675E+03  1.767909E+04
        65  25 -1.150516E+05 -2.578061E+05 -1.322141E+05 -6.498130E+04 -1.117493E+03  7.460546E+04
        65  26 -1.855542E+04 -2.136801E+05 -6.672119E+04 -3.057440E+04 -3.033752E+03  4.495656E+04
        65  27 -5.614463E+03 -1.943050E+05 -4.142414E+04 -8.538066E+03 -2.023165E+03  1.530583E+04
        66   1 -8.899398E+02 -1.361828E+05 -2.535097E+04 -1.870955E+04  6.965456E+02 -1.436714E+04
        66   2 -4.112661E+03 -1.661045E+05 -2.658170E+04 -1.478818E+04 -9.397549E+02 -2.908908E+03
        66   3 -1.579749E+04 -1.996343E+05 -3.738893E+04 -2.336639E+04 -2.535319E+03  8.548811E+03
        66   4 -4.335720E+03 -1.503133E+05 -2.844967E+04 -2.107747E+04  6.964526E+02 -1.277791E+04
        66   5  1.686723E+02 -1.485123E+05 -2.277033E+04 -1.482761E+04 -9.398816E+02 -1.358910E+03
        66   6 -3.782110E+03 -1.503136E+05 -2.664027E+04 -2.107742E+04 -2.535397E+03  1.006014E+04
        66   7 -7.781490E+03 -1.644436E+05 -3.154837E+04 -2.344534E+04  6.963476E+02 -1.118872E+04
        66   8  4.449986E+03 -1.309198E+05 -1.895897E+04 -1.486704E+04 -9.400084E+02  1.911301E+02
        66   9  8.233126E+03 -1.009906E+05 -1.589174E+04 -1.878827E+04 -2.535465E+03  1.157159E+04
        66  10 -8.899957E+02 -1.361831E+05 -2.535136E+04 -1.870954E+04 -3.609181E-10 -3.472578E-10
        66  11 -4.112664E+03 -1.661045E+05 -2.658172E+04 -1.478818E+04 -4.930794E-10  4.066572E-11
        66  12 -1.579751E+04 -1.996344E+05 -3.738908E+04 -2.336637E+04  3.952560E-11  3.526428E-10
        66  13 -4.335764E+03 -1.503135E+05 -2.844998E+04 -2.107746E+04 -4.283146E-10 -6.386727E-11
        66  14  1.686709E+02 -1.485123E+05 -2.277033E+04 -1.482761E+04 -9.555115E-10  8.158310E-12
        66  15 -3.782144E+03 -1.503137E+05 -2.664047E+04 -2.107740E+04  1.138474E-10 -5.529537E-11
        66  16 -7.781524E+03 -1.644438E+05 -3.154861E+04 -2.344533E+04 -2.203664E-10  3.162300E-10
        66  17  4.449985E+03 -1.309198E+05 -1.895897E+04 -1.486704E+04 -7.707301E-10 -8.429123E-11
        66  18  8.233084E+03 -1.009907E+05 -1.589200E+04 -1.878825E+04 -3.816284E-10 -3.440798E-10
        66  19 -8.899398E+02 -1.361828E+05 -2.535097E+04 -1.870955E+04 -6.965456E+02  1.436714E+04
        66  20 -4.112661E+03 -1.661045E+05 -2.658170E+04 -1.478818E+04  9.397549E+02  2.908908E+03
        66  21 -1.579749E+04 -1.996343E+05 -3.738893E+04 -2.336639E+04  2.535319E+03 -8.548811E+03
        66  22 -4.335720E+03 -1.503133E+05 -2.844967E+04 -2.107747E+04 -6.964526E+02  1.277791E+04
        66  23  1.686723E+02 -1.485123E+05 -2.277033E+04 -1.482761E+04  9.398816E+02  1.358910E+03
        66  24 -3.782110E+03 -1.503136E+05 -2.664027E+04 -2.107742E+04  2.535397E+03 -1.006014E+04
        66  25 -7.781490E+03 -1.644436E+05 -3.154837E+04 -2.344534E+04 -6.963476E+02  1.118872E+04
        66  26  4.449986E+03 -1.309198E+05 -1.895897E+04 -1.486704E+04  9.400084E+02 -1.911301E+02
        66  27  8.233126E+03 -1.009906E+05 -1.589174E+04 -1.878827E+04  2.535465E+03 -1.157159E+04
        67   1 -1.467966E+04 -2.289047E+05 -4.634055E+04 -9.992105E+03 -3.929725E+03  1.206044E+04
        67   2 -2.699205E+04 -2.495763E+05 -6.912602E+04 -2.881235E+04 -4.685591E+03  3.973469E+04
        67   3 -1.135186E+05 -2.924039E+05 -1.284854E+05 -5.995640E+04 -1.616619E+03  6.740706E+04
        67   4  3.487446E+03 -1.542942E+05 -3.013892E+04 -2.103848E+04 -3.930086E+03  1.462117E+04
        67   5 -1.063583E+03 -1.435395E+05 -4.553759E+04 -1.487619E+04 -4.684605E+03  3.862614E+04
        67   6 -7.918675E+04 -1.543013E+05 -9.495766E+04 -2.103985E+04 -1.612350E+03  6.263083E+04
        67   7  2.165465E+04 -7.967815E+04 -1.393753E+04 -3.208621E+04 -3.930539E+03  1.718221E+04
        67   8  2.486485E+04 -3.749174E+04 -2.194976E+04 -9.376198E+02 -4.683668E+03  3.751740E+04
        67   9 -4.485061E+04 -1.617806E+04 -6.143041E+04  1.788538E+04 -1.608681E+03  5.785354E+04
        67  10 -1.467972E+04 -2.289048E+05 -4.634085E+04 -9.992067E+03  2.215920E-10 -3.899569E-10
        67  11 -2.699249E+04 -2.495780E+05 -6.912903E+04 -2.881220E+04  3.886201E-10  4.573937E-12
        67  12 -1.135198E+05 -2.924087E+05 -1.284939E+05 -5.995632E+04 -1.701801E-10  3.514811E-10
        67  13  3.487372E+03 -1.542944E+05 -3.013935E+04 -2.103844E+04 -6.575676E-10 -3.298211E-11
        67  14 -1.064008E+03 -1.435411E+05 -4.554044E+04 -1.487604E+04 -1.663848E-10  2.891486E-12
        67  15 -7.918780E+04 -1.543055E+05 -9.496504E+04 -2.103977E+04 -3.607974E-11  3.597878E-11
        67  16  2.165455E+04 -7.967847E+04 -1.393811E+04 -3.208615E+04  8.860584E-11  3.785705E-10
        67  17  2.486445E+04 -3.749326E+04 -2.195245E+04 -9.374783E+02 -2.391109E-10 -1.112326E-11
        67  18 -4.485151E+04 -1.618165E+04 -6.143670E+04  1.788546E+04  2.023768E-10 -3.507521E-10
        67  19 -1.467966E+04 -2.289047E+05 -4.634055E+04 -9.992105E+03  3.929725E+03 -1.206044E+04
        67  20 -2.699205E+04 -2.495763E+05 -6.912602E+04 -2.881235E+04  4.685591E+03 -3.973469E+04
        67  21 -1.135186E+05 -2.924039E+05 -1.284854E+05 -5.995640E+04  1.616619E+03 -6.740706E+04
        67  22  3.487446E+03 -1.542942E+05 -3.013892E+04 -2.103848E+04  3.930086E+03 -1.462117E+04
        67  23 -1.063583E+03 -1.435395E+05 -4.553759E+04 -1.487619E+04  4.684605E+03 -3.862614E+04
        67  24 -7.918675E+04 -1.543013E+05 -9.495766E+04 -2.103985E+04  1.612350E+03 -6.263083E+04
        67  25  2.165465E+04 -7.967815E+04 -1.393753E+04 -3.208621E+04  3.930539E+03 -1.718221E+04
        67  26  2.486485E+04 -3.749174E+04 -2.194976E+04 -9.376198E+02  4.683668E+03 -3.751740E+04
        67  27 -4.485061E+04 -1.617806E+04 -6.143041E+04  1.788538E+04  1.608681E+03 -5.785354E+04
        68   1  1.181065E+05  2.531843E+04 -4.073560E+04  1.021760E+05 -1.151225E+04 -6.811073E+03
        68   2  1.286739E+05  4.764109E+04 -2.775078E+04  1.052515E+05 -8.458559E+03 -7.421383E+02
        68   3  1.391734E+05  5.605972E+04 -2.136220E+04  1.100178E+05 -3.557017E+03  2.863265E+03
        68   4  1.968023E+05  9.002221E+04 -1.293650E+04  1.451062E+05 -8.007800E+03 -4.183037E+03
        68   5  1.986206E+05  1.003469E+05 -5.914235E+03  1.415388E+05 -7.319305E+03  1.121128E+02
        68   6  2.008846E+05  9.728146E+04 -3.435090E+03  1.396619E+05 -4.783226E+03  1.943732E+03
        68   7  2.755048E+05  1.547309E+05  1.486179E+04  1.880429E+05 -4.502738E+03 -1.554451E+03
        68   8  2.685724E+05  1.530557E+05  1.592163E+04  1.778306E+05 -6.179882E+03  9.665021E+02
        68   9  2.625995E+05  1.385047E+05  1.449145E+04  1.693089E+05 -6.009592E+03  1.024091E+03
        68  10  1.181064E+05  2.531834E+04 -4.073594E+04  1.021759E+05 -9.432009E-11 -7.414494E-11
        68  11  1.286738E+05  4.764107E+04 -2.775091E+04  1.052515E+05  2.987019E-10  1.262801E-10
        68  12  1.391734E+05  5.605971E+04 -2.136224E+04  1.100178E+05  7.970250E-10  1.779048E-10
        68  13  1.968022E+05  9.002218E+04 -1.293666E+04  1.451062E+05 -4.690727E-11  5.193534E-11
        68  14  1.986206E+05  1.003469E+05 -5.914336E+03  1.415388E+05 -5.424062E-11  1.377790E-10
        68  15  2.008846E+05  9.728145E+04 -3.435140E+03  1.396619E+05  4.062216E-10 -1.719058E-11
        68  16  2.755047E+05  1.547309E+05  1.486175E+04  1.880429E+05 -1.090390E-10  1.691459E-10
        68  17  2.685724E+05  1.530557E+05  1.592156E+04  1.778307E+05  3.118042E-11  1.093425E-10
        68  18  2.625995E+05  1.385047E+05  1.449138E+04  1.693089E+05 -2.083591E-10 -2.498672E-10
        68  19  1.181065E+05  2.531843E+04 -4.073560E+04  1.021760E+05  1.151225E+04  6.811073E+03
        68  20  1.286739E+05  4.764109E+04 -2.775078E+04  1.052515E+05  8.458559E+03  7.421383E+02
        68  21  1.391734E+05  5.605972E+04 -2.136220E+04  1.100178E+05  3.557017E+03 -2.863265E+03
        68  22  1.968023E+05  9.002221E+04 -1.293650E+04  1.451062E+05  8.007800E+03  4.183037E+03
        68  23  1.986206E+05  1.003469E+05 -5.914235E+03  1.415388E+05  7.319305E+03 -1.121128E+02
        68  24  2.008846E+05  9.728146E+04 -3.435090E+03  1.396619E+05  4.783226E+03 -1.943732E+03
        68  25  2.755048E+05  1.547309E+05  1.486179E+04  1.880429E+05  4.502738E+03  1.554451E+03
        68  26  2.685724E+05  1.530557E+05  1.592163E+04  1.778306E+05  6.179882E+03 -9.665021E+02
        68  27  2.625995E+05  1.385047E+05  1.449145E+04  1.693089E+05  6.009592E+03 -1.024091E+03
        69   1  1.501402E+05  6.049957E+04 -1.793823E+04  1.149669E+05 -3.398557E+03  1.996819E+03
        69   2  1.588895E+05  7.231950E+04 -1.314200E+04  1.214763E+05 -2.261377E+03  1.906099E+03
        69   3  1.733158E+05  7.764485E+04 -9.043838E+03  1.263727E+05 -1.040750E+03  1.704057E+03
        69   4  2.009134E+05  9.679356E+04 -2.710709E+03  1.404469E+05 -3.925100E+03  1.601961E+03
        69   5  1.981691E+05  1.002171E+05 -1.438803E+03  1.411128E+05 -2.894770E+03  1.431149E+03
        69   6  2.011247E+05  9.716906E+04 -7.722148E+02  1.401656E+05 -1.781011E+03  1.149006E+03
        69   7  2.516895E+05  1.330890E+05  1.251653E+04  1.659293E+05 -4.451702E+03  1.207059E+03
        69   8  2.374505E+05  1.281157E+05  1.026430E+04  1.607509E+05 -3.528222E+03  9.561556E+02
        69   9  2.289347E+05  1.166939E+05  7.499424E+03  1.539593E+05 -2.521325E+03  5.939165E+02
        69  10  1.501402E+05  6.049956E+04 -1.793826E+04  1.149669E+05  6.299912E-11 -6.834334E-11
        69  11  1.588895E+05  7.231949E+04 -1.314202E+04  1.214763E+05 -1.840627E-11  7.217501E-11
        69  12  1.733158E+05  7.764484E+04 -9.043845E+03  1.263727E+05 -2.253279E-10  5.533648E-11
        69  13  2.009134E+05  9.679355E+04 -2.710743E+03  1.404469E+05  1.193737E-10 -6.889498E-11
        69  14  1.981690E+05  1.002171E+05 -1.438822E+03  1.411128E+05 -1.711157E-10 -4.699225E-11
        69  15  2.011246E+05  9.716905E+04 -7.722232E+02  1.401656E+05 -5.225876E-10  1.185624E-10
        69  16  2.516894E+05  1.330890E+05  1.251649E+04  1.659293E+05  1.066269E-10 -4.372663E-11
        69  17  2.374505E+05  1.281157E+05  1.026428E+04  1.607509E+05 -1.328704E-10  9.425603E-11
        69  18  2.289347E+05  1.166939E+05  7.499411E+03  1.539593E+05 -8.303630E-11  1.703169E-10
        69  19  1.501402E+05  6.049957E+04 -1.793823E+04  1.149669E+05  3.398557E+03 -1.996819E+03
        69  20  1.588895E+05  7.231950E+04 -1.314200E+04  1.214763E+05  2.261377E+03 -1.906099E+03
        69  21  1.733158E+05  7.764485E+04 -9.043838E+03  1.263727E+05  1.040750E+03 -1.704057E+03
        69  22  2.009134E+05  9.679356E+04 -2.710709E+03  1.404469E+05  3.925100E+03 -1.601961E+03
        69  23  1.981691E+05  1.002171E+05 -1.438803E+03  1.411128E+05  2.894770E+03 -1.431149E+03
        69  24  2.011247E+05  9.716906E+04 -7.722148E+02  1.401656E+05  1.781011E+03 -1.149006E+03
        69  25  2.516895E+05  1.330890E+05  1.251653E+04  1.659293E+05  4.451702E+03 -1.207059E+03
        69  26  2.374505E+05  1.281157E+05  1.026430E+04  1.607509E+05  3.528222E+03 -9.561556E+02
        69  27  2.289347E+05  1.166939E+05  7.499424E+03  1.539593E+05  2.521325E+03 -5.939165E+02
        70   1  1.826489E+05  8.408796E+04 -5.992601E+03  1.309960E+05 -6.460771E+02  1.306367E+03
        70   2  1.912550E+05  9.535305E+04 -2.213726E+03  1.376709E+05 -2.088087E+01  6.203452E+02
        70   3  2.058882E+05  1.005611E+05  1.503692E+03  1.425817E+05  6.048219E+02 -6.638278E+01
        70   4  2.011354E+05  9.715075E+04 -5.440208E+02  1.402151E+05 -1.355640E+03  7.743464E+02
        70   5  1.981287E+05  1.001916E+05 -1.772043E+02  1.410879E+05 -7.311147E+02  8.783106E+01
        70   6  2.011494E+05  9.717557E+04  1.288204E+02  1.401964E+05 -1.060834E+02 -5.993922E+02
        70   7  2.196222E+05  1.102136E+05  4.904458E+03  1.494345E+05 -2.065224E+03  2.423095E+02
        70   8  2.050025E+05  1.050301E+05  1.859302E+03  1.445048E+05 -1.441355E+03 -4.446881E+02
        70   9  1.964105E+05  9.379006E+04 -1.246050E+03  1.378111E+05 -8.169810E+02 -1.132396E+03
        70  10  1.826489E+05  8.408796E+04 -5.992605E+03  1.309960E+05  4.619219E-10  3.093920E-10
        70  11  1.912550E+05  9.535305E+04 -2.213726E+03  1.376709E+05  1.038915E-10 -1.582374E-10
        70  12  2.058882E+05  1.005611E+05  1.503692E+03  1.425817E+05  2.188699E-10 -3.877161E-10
        70  13  2.011354E+05  9.715075E+04 -5.440254E+02  1.402151E+05 -2.599570E-10 -3.639462E-11
        70  14  1.981287E+05  1.001916E+05 -1.772053E+02  1.410879E+05  2.818717E-10 -3.300456E-10
        70  15  2.011494E+05  9.717557E+04  1.288197E+02  1.401964E+05 -1.347076E-10 -1.812356E-10
        70  16  2.196222E+05  1.102136E+05  4.904450E+03  1.494345E+05 -5.131431E-10 -2.240314E-10
        70  17  2.050025E+05  1.050301E+05  1.859298E+03  1.445048E+05 -3.517606E-10 -3.366498E-10
        70  18  1.964105E+05  9.379006E+04 -1.246054E+03  1.378111E+05  3.658674E-10 -1.370410E-11
        70  19  1.826489E+05  8.408796E+04 -5.992601E+03  1.309960E+05  6.460771E+02 -1.306367E+03
        70  20  1.912550E+05  9.535305E+04 -2.213726E+03  1.376709E+05  2.088087E+01 -6.203452E+02
        70  21  2.058882E+05  1.005611E+05  1.503692E+03  1.425817E+05 -6.048219E+02  6.638278E+01
        70  22  2.011354E+05  9.715075E+04 -5.440208E+02  1.402151E+05  1.355640E+03 -7.743464E+02
        70  23  1.981287E+05  1.001916E+05 -1.772043E+02  1.410879E+05  7.311147E+02 -8.783106E+01
        70  24  2.011494E+05  9.717557E+04  1.288204E+02  1.401964E+05  1.060834E+02  5.993922E+02
        70  25  2.196222E+05  1.102136E+05  4.904458E+03  1.494345E+05  2.065224E+03 -2.423095E+02
        70  26  2.050025E+05  1.050301E+05  1.859302E+03  1.445048E+05  1.441355E+03  4.446881E+02
        70  27  1.964105E+05  9.379006E+04 -1.246050E+03  1.378111E+05  8.169810E+02  1.132396E+03
        71   1  2.150838E+05  1.071399E+05  4.482513E+03  1.472197E+05  9.335184E+02 -5.112478E+02
        71   2  2.237195E+05  1.182955E+05  8.307049E+03  1.538463E+05  1.108466E+03 -1.504530E+03
        71   3  2.385899E+05  1.236524E+05  1.250353E+04  1.586303E+05  1.213029E+03 -2.403911E+03
        71   4  2.011564E+05  9.716689E+04  2.852007E+02  1.402252E+05  1.971560E+02 -1.063351E+03
        71   5  1.981033E+05  1.001731E+05  6.830782E+02  1.410736E+05  4.622936E+02 -1.989035E+03
        71   6  2.012652E+05  9.736093E+04  1.374650E+03  1.400792E+05  6.570556E+02 -2.820802E+03
        71   7  1.872291E+05  8.719392E+04 -3.912179E+03  1.332308E+05 -5.391912E+02 -1.615443E+03
        71   8  1.724879E+05  8.205118E+04 -6.940964E+03  1.283015E+05 -1.838423E+02 -2.473513E+03
        71   9  1.639424E+05  7.107048E+04 -9.754261E+03  1.215296E+05  1.011328E+02 -3.237655E+03
        71  10  2.150838E+05  1.071399E+05  4.482511E+03  1.472197E+05  4.887550E-10 -1.296402E-10
        71  11  2.237195E+05  1.182955E+05  8.307043E+03  1.538463E+05 -2.447378E-11 -3.110363E-11
        71  12  2.385899E+05  1.236524E+05  1.250352E+04  1.586303E+05 -2.683440E-10 -1.740106E-10
        71  13  2.011564E+05  9.716689E+04  2.851985E+02  1.402252E+05  2.870711E-10 -3.235229E-11
        71  14  1.981033E+05  1.001731E+05  6.830704E+02  1.410736E+05  2.390262E-11 -4.494435E-11
        71  15  2.012652E+05  9.736092E+04  1.374634E+03  1.400792E+05 -3.872271E-10  6.676854E-11
        71  16  1.872291E+05  8.719391E+04 -3.912185E+03  1.332308E+05 -1.437014E-12 -1.242511E-10
        71  17  1.724879E+05  8.205117E+04 -6.940976E+03  1.283015E+05  2.237201E-10 -5.140707E-11
        71  18  1.639424E+05  7.107047E+04 -9.754281E+03  1.215296E+05  1.198627E-10  1.954774E-10
        71  19  2.150838E+05  1.071399E+05  4.482513E+03  1.472197E+05 -9.335184E+02  5.112478E+02
        71  20  2.237195E+05  1.182955E+05  8.307049E+03  1.538463E+05 -1.108466E+03  1.504530E+03
        71  21  2.385899E+05  1.236524E+05  1.250353E+04  1.586303E+05 -1.213029E+03  2.403911E+03
        71  22  2.011564E+05  9.716689E+04  2.852007E+02  1.402252E+05 -1.971560E+02  1.063351E+03
        71  23  1.981033E+05  1.001731E+05  6.830782E+02  1.410736E+05 -4.622936E+02  1.989035E+03
        71  24  2.012652E+05  9.736093E+04  1.374650E+03  1.400792E+05 -6.570556E+02  2.820802E+03
        71  25  1.872291E+05  8.719392E+04 -3.912179E+03  1.332308E+05  5.391912E+02  1.615443E+03
        71  26  1.724879E+05  8.205118E+04 -6.940964E+03  1.283015E+05  1.838423E+02  2.473513E+03
        71  27  1.639424E+05  7.107048E+04 -9.754261E+03  1.215296E+05 -1.011328E+02  3.237655E+03
        72   1  2.469844E+05  1.308640E+05  1.560876E+04  1.639375E+05  2.056989E+03 -2.708153E+03
        72   2  2.568866E+05  1.402669E+05  2.074164E+04  1.694785E+05 -1.121497E+03 -5.332457E+03
        72   3  2.760120E+05  1.480593E+05  2.996928E+04  1.715086E+05 -5.858761E+03 -5.878397E+03
        72   4  2.012439E+05  9.714443E+04  1.761982E+03  1.404999E+05  9.107822E+02 -3.567630E+03
        72   5  1.979109E+05  1.000551E+05  3.066299E+03  1.408384E+05 -2.712256E+02 -4.694920E+03
        72   6  2.033679E+05  1.009226E+05  6.733402E+03  1.376657E+05 -3.011997E+03 -3.743659E+03
        72   7  1.555058E+05  6.342616E+04 -1.208504E+04  1.170643E+05 -2.353104E+02 -4.427016E+03
        72   8  1.389386E+05  5.984491E+04 -1.460954E+04  1.122011E+05  5.789407E+02 -4.057459E+03
        72   9  1.307287E+05  5.378767E+04 -1.650334E+04  1.038267E+05 -1.656606E+02 -1.609202E+03
        72  10  2.469844E+05  1.308640E+05  1.560874E+04  1.639375E+05  1.637712E-10 -5.592805E-13
        72  11  2.568866E+05  1.402668E+05  2.074158E+04  1.694785E+05 -2.470976E-10  1.017722E-11
        72  12  2.760120E+05  1.480593E+05  2.996915E+04  1.715086E+05 -1.529465E-11 -1.075453E-11
        72  13  2.012439E+05  9.714441E+04  1.761956E+03  1.404999E+05  1.083413E-11  2.207901E-11
        72  14  1.979109E+05  1.000551E+05  3.066257E+03  1.408384E+05 -2.243933E-10 -2.813290E-11
        72  15  2.033679E+05  1.009226E+05  6.733359E+03  1.376657E+05 -2.086861E-10 -1.699751E-12
        72  16  1.555058E+05  6.342614E+04 -1.208508E+04  1.170643E+05 -2.482600E-10  9.699695E-11
        72  17  1.389386E+05  5.984489E+04 -1.460957E+04  1.122011E+05 -2.252849E-10  8.070311E-11
        72  18  1.307287E+05  5.378767E+04 -1.650334E+04  1.038267E+05 -1.046019E-10 -2.433764E-11
        72  19  2.469844E+05  1.308640E+05  1.560876E+04  1.639375E+05 -2.056989E+03  2.708153E+03
        72  20  2.568866E+05  1.402669E+05  2.074164E+04  1.694785E+05  1.121497E+03  5.332457E+03
        72  21  2.760120E+05  1.480593E+05  2.996928E+04  1.715086E+05  5.858761E+03  5.878397E+03
        72  22  2.012439E+05  9.714443E+04  1.761982E+03  1.404999E+05 -9.107822E+02  3.567630E+03
        72  23  1.979109E+05  1.000551E+05  3.066299E+03  1.408384E+05  2.712256E+02  4.694920E+03
        72  24  2.033679E+05  1.009226E+05  6.733402E+03  1.376657E+05  3.011997E+03  3.743659E+03
        72  25  1.555058E+05  6.342616E+04 -1.208504E+04  1.170643E+05  2.353104E+02  4.427016E+03
        72  26  1.389386E+05  5.984491E+04 -1.460954E+04  1.122011E+05 -5.789407E+02  4.057459E+03
        72  27  1.307287E+05  5.378767E+04 -1.650334E+04  1.038267E+05  1.656606E+02  1.609202E+03
        73   1  2.398354E+05 -2.728796E+03 -3.237811E+03 -1.330128E+03 -2.356090E+03  5.046024E-03
        73   2  2.401986E+05 -3.949692E+01 -1.385082E+03 -4.672390E+02 -1.620039E+03  1.218789E-03
        73   3  2.398351E+05  1.258089E+02 -6.424236E+02  3.956634E+02 -8.839769E+02 -5.631589E-04
        73   4  2.398354E+05 -2.728799E+03 -3.237811E+03 -2.220006E-09 -2.356090E+03  5.546033E-11
        73   5  2.401986E+05 -3.949733E+01 -1.385083E+03  3.971045E-11 -1.620039E+03  1.215289E-10
        73   6  2.398351E+05  1.258086E+02 -6.424237E+02  1.826116E-10 -8.839769E+02  4.738476E-11
        73   7  2.398354E+05 -2.728796E+03 -3.237811E+03  1.330128E+03 -2.356090E+03 -5.046024E-03
        73   8  2.401986E+05 -3.949692E+01 -1.385082E+03  4.672390E+02 -1.620039E+03 -1.218789E-03
        73   9  2.398351E+05  1.258089E+02 -6.424236E+02 -3.956634E+02 -8.839769E+02  5.631590E-04
        73  10  2.398354E+05 -2.728798E+03 -3.237821E+03 -1.330128E+03 -9.799807E-13  3.263496E-11
        73  11  2.401986E+05 -3.949762E+01 -1.385087E+03 -4.672390E+02  1.212861E-10  1.523058E-10
        73  12  2.398351E+05  1.258086E+02 -6.424251E+02  3.956634E+02  9.979505E-11  2.667831E-10
        73  13  2.398354E+05 -2.728801E+03 -3.237822E+03 -1.137143E-09  2.005011E-10  7.899871E-12
        73  14  2.401986E+05 -3.949803E+01 -1.385087E+03 -1.555658E-09  3.561752E-10  6.957191E-11
        73  15  2.398351E+05  1.258084E+02 -6.424251E+02 -6.267720E-10  1.967427E-10  1.777039E-10
        73  16  2.398354E+05 -2.728798E+03 -3.237821E+03  1.330128E+03 -2.732191E-10 -2.574166E-11
        73  17  2.401986E+05 -3.949762E+01 -1.385087E+03  4.672390E+02 -3.865604E-11 -1.467912E-11
        73  18  2.398351E+05  1.258086E+02 -6.424251E+02 -3.956634E+02  3.224728E-10  7.846088E-11
        73  19  2.398354E+05 -2.728796E+03 -3.237811E+03 -1.330128E+03  2.356090E+03 -5.046024E-03
        73  20  2.401986E+05 -3.949692E+01 -1.385082E+03 -4.672390E+02  1.620039E+03 -1.218789E-03
        73  21  2.398351E+05  1.258089E+02 -6.424236E+02  3.956634E+02  8.839769E+02  5.631594E-04
        73  22  2.398354E+05 -2.728799E+03 -3.237811E+03 -2.477704E-09  2.356090E+03 -3.529076E-11
        73  23  2.401986E+05 -3.949733E+01 -1.385083E+03 -9.984466E-10  1.620039E+03  1.583898E-11
        73  24  2.398351E+05  1.258086E+02 -6.424237E+02 -1.072221E-09  8.839769E+02  3.071504E-10
        73  25  2.398354E+05 -2.728796E+03 -3.237811E+03  1.330128E+03  2.356090E+03  5.046024E-03
        73  26  2.401986E+05 -3.949692E+01 -1.385082E+03  4.672390E+02  1.620039E+03  1.218789E-03
        73  27  2.398351E+05  1.258089E+02 -6.424236E+02 -3.956634E+02  8.839769E+02 -5.631587E-04
        74   1  2.399942E+05 -1.435261E+02 -3.782708E+02 -2.893351E+01 -8.102708E+02  3.774823E-05
        74   2  2.399996E+05 -5.276720E+00  1.846706E+02  9.282684E+00 -8.996165E+02 -1.344590E-05
        74   3  2.399941E+05  4.235393E+01  7.831087E+02  4.749886E+01 -9.889624E+02 -7.563586E-05
        74   4  2.399942E+05 -1.435261E+02 -3.782708E+02 -1.458090E-09 -8.102708E+02  8.638640E-11
        74   5  2.399996E+05 -5.276720E+00  1.846706E+02 -1.123639E-09 -8.996165E+02  1.581400E-10
        74   6  2.399941E+05  4.235393E+01  7.831087E+02 -1.362438E-09 -9.889624E+02 -1.025764E-10
        74   7  2.399942E+05 -1.435261E+02 -3.782708E+02  2.893351E+01 -8.102708E+02 -3.774806E-05
        74   8  2.399996E+05 -5.276720E+00  1.846706E+02 -9.282684E+00 -8.996165E+02  1.344628E-05
        74   9  2.399941E+05  4.235393E+01  7.831087E+02 -4.749886E+01 -9.889624E+02  7.563562E-05
        74  10  2.399942E+05 -1.435262E+02 -3.782720E+02 -2.893351E+01  2.916503E-10  1.450350E-10
        74  11  2.399996E+05 -5.276937E+00  1.846690E+02  9.282684E+00  2.029250E-10 -9.977161E-11
        74  12  2.399941E+05  4.235367E+01  7.831068E+02  4.749886E+01  5.172519E-12  7.748840E-12
        74  13  2.399942E+05 -1.435262E+02 -3.782720E+02 -2.608541E-09  5.032456E-10  1.187164E-10
        74  14  2.399996E+05 -5.276937E+00  1.846690E+02 -7.320953E-10  5.339817E-10 -6.579164E-11
        74  15  2.399941E+05  4.235367E+01  7.831068E+02 -1.357322E-10 -9.933986E-11  1.057046E-11
        74  16  2.399942E+05 -1.435262E+02 -3.782720E+02  2.893351E+01 -6.679185E-11  9.842217E-11
        74  17  2.399996E+05 -5.276937E+00  1.846690E+02 -9.282684E+00  6.178709E-11 -1.187390E-11
        74  18  2.399941E+05  4.235367E+01  7.831068E+02 -4.749886E+01  2.255883E-10  4.957446E-12
        74  19  2.399942E+05 -1.435261E+02 -3.782708E+02 -2.893351E+01  8.102708E+02 -3.774792E-05
        74  20  2.399996E+05 -5.276720E+00  1.846706E+02  9.282684E+00  8.996165E+02  1.344571E-05
        74  21  2.399941E+05  4.235393E+01  7.831087E+02  4.749886E+01  9.889624E+02  7.563589E-05
        74  22  2.399942E+05 -1.435261E+02 -3.782708E+02 -1.063140E-09  8.102708E+02  1.518268E-10
        74  23  2.399996E+05 -5.276720E+00  1.846706E+02 -2.056536E-10  8.996165E+02 -2.756591E-10
        74  24  2.399941E+05  4.235393E+01  7.831087E+02 -2.110546E-09  9.889624E+02  1.222012E-10
        74  25  2.399942E+05 -1.435261E+02 -3.782708E+02  2.893351E+01  8.102708E+02  3.774822E-05
        74  26  2.399996E+05 -5.276720E+00  1.846706E+02 -9.282684E+00  8.996165E+02 -1.344627E-05
        74  27  2.399941E+05  4.235393E+01  7.831087E+02 -4.749886E+01  9.889624E+02 -7.563564E-05
        75   1  2.400740E+05 -5.444893E+01  1.143627E+03  1.679180E+02 -1.158751E+03 -3.132936E-04
        75   2  2.398996E+05 -1.557357E+01  2.182639E+03 -6.063847E+01 -2.253758E+03  2.200493E-04
        75   3  2.400738E+05  8.480460E+02  4.140539E+03 -2.891914E+02 -3.348751E+03  1.559310E-03
        75   4  2.400740E+05 -5.444899E+01  1.143627E+03  3.466909E-10 -1.158751E+03 -1.190660E-10
        75   5  2.398996E+05 -1.557358E+01  2.182639E+03  5.480319E-10 -2.253758E+03  6.769465E-11
        75   6  2.400738E+05  8.480458E+02  4.140539E+03 -1.201514E-09 -3.348751E+03 -5.754580E-11
        75   7  2.400740E+05 -5.444893E+01  1.143627E+03 -1.679180E+02 -1.158751E+03  3.132933E-04
        75   8  2.398996E+05 -1.557357E+01  2.182639E+03  6.063847E+01 -2.253758E+03 -2.200491E-04
        75   9  2.400738E+05  8.480460E+02  4.140539E+03  2.891914E+02 -3.348751E+03 -1.559310E-03
        75  10  2.400740E+05 -5.444929E+01  1.143625E+03  1.679180E+02  8.685711E-11  1.090228E-10
        75  11  2.398995E+05 -1.557493E+01  2.182629E+03 -6.063847E+01  1.575033E-10  5.610989E-11
        75  12  2.400738E+05  8.480429E+02  4.140518E+03 -2.891914E+02  3.586877E-10 -1.329897E-10
        75  13  2.400740E+05 -5.444935E+01  1.143624E+03  1.151869E-09  6.071902E-11  7.964214E-11
        75  14  2.398995E+05 -1.557494E+01  2.182629E+03  2.619318E-10 -3.728462E-27  4.156736E-11
        75  15  2.400738E+05  8.480428E+02  4.140518E+03  3.807030E-10 -3.581994E-10 -8.308352E-11
        75  16  2.400740E+05 -5.444929E+01  1.143625E+03 -1.679180E+02 -8.939444E-11  6.257349E-11
        75  17  2.398995E+05 -1.557493E+01  2.182629E+03  6.063847E+01 -3.377774E-10  3.369041E-11
        75  18  2.400738E+05  8.480429E+02  4.140518E+03  2.891914E+02 -8.791163E-11 -8.121170E-12
        75  19  2.400740E+05 -5.444893E+01  1.143627E+03  1.679180E+02  1.158751E+03  3.132938E-04
        75  20  2.398996E+05 -1.557357E+01  2.182639E+03 -6.063847E+01  2.253758E+03 -2.200493E-04
        75  21  2.400738E+05  8.480460E+02  4.140539E+03 -2.891914E+02  3.348751E+03 -1.559310E-03
        75  22  2.400740E+05 -5.444899E+01  1.143627E+03 -7.351204E-10  1.158751E+03  2.749990E-10
        75  23  2.398996E+05 -1.557358E+01  2.182639E+03  1.050016E-09  2.253758E+03 -4.298235E-12
        75  24  2.400738E+05  8.480458E+02  4.140539E+03 -9.688028E-10  3.348751E+03 -1.068539E-10
        75  25  2.400740E+05 -5.444893E+01  1.143627E+03 -1.679180E+02  1.158751E+03 -3.132932E-04
        75  26  2.398996E+05 -1.557357E+01  2.182639E+03  6.063847E+01  2.253758E+03  2.200493E-04
        75  27  2.400738E+05  8.480460E+02  4.140539E+03  2.891914E+02  3.348751E+03  1.559310E-03
        76   1  2.409891E+05 -7.702192E+02  5.253712E+03  2.343396E+03 -4.084603E+03 -1.541200E-02
        76   2  2.387550E+05  2.304632E+02  9.055601E+03 -2.893109E+03 -8.873472E+03  4.133554E-02
        76   3  2.409871E+05  1.660415E+04  1.981764E+04 -8.129718E+03 -1.366241E+04  1.788411E-01
        76   4  2.409891E+05 -7.702296E+02  5.253711E+03 -4.599053E-10 -4.084603E+03 -1.518264E-10
        76   5  2.387550E+05  2.304475E+02  9.055599E+03  1.319925E-10 -8.873472E+03 -1.390131E-10
        76   6  2.409871E+05  1.660403E+04  1.981762E+04 -8.948851E-10 -1.366241E+04 -1.869031E-11
        76   7  2.409891E+05 -7.702192E+02  5.253712E+03 -2.343396E+03 -4.084603E+03  1.541200E-02
        76   8  2.387550E+05  2.304632E+02  9.055601E+03  2.893109E+03 -8.873472E+03 -4.133554E-02
        76   9  2.409871E+05  1.660415E+04  1.981764E+04  8.129718E+03 -1.366241E+04 -1.788411E-01
        76  10  2.409891E+05 -7.702237E+02  5.253681E+03  2.343396E+03  2.876049E-10 -2.380972E-10
        76  11  2.387549E+05  2.304421E+02  9.055454E+03 -2.893109E+03 -4.272401E-11 -2.412253E-10
        76  12  2.409869E+05  1.660410E+04  1.981729E+04 -8.129718E+03 -9.655579E-11 -7.847974E-11
        76  13  2.409891E+05 -7.702340E+02  5.253680E+03  7.784313E-11  1.388432E-10 -1.359909E-10
        76  14  2.387549E+05  2.304264E+02  9.055451E+03 -1.272837E-10 -1.774412E-10 -1.071783E-10
        76  15  2.409869E+05  1.660398E+04  1.981727E+04 -1.140225E-09  1.573213E-10 -3.202143E-11
        76  16  2.409891E+05 -7.702237E+02  5.253681E+03 -2.343396E+03  4.550949E-11 -2.247433E-11
        76  17  2.387549E+05  2.304421E+02  9.055454E+03  2.893109E+03  2.443145E-11  2.242934E-11
        76  18  2.409869E+05  1.660410E+04  1.981729E+04  8.129718E+03 -1.195288E-10  2.958111E-11
        76  19  2.409891E+05 -7.702192E+02  5.253712E+03  2.343396E+03  4.084603E+03  1.541200E-02
        76  20  2.387550E+05  2.304632E+02  9.055601E+03 -2.893109E+03  8.873472E+03 -4.133554E-02
        76  21  2.409871E+05  1.660415E+04  1.981764E+04 -8.129718E+03  1.366241E+04 -1.788411E-01
        76  22  2.409891E+05 -7.702296E+02  5.253711E+03 -1.268502E-09  4.084603E+03 -1.147143E-10
        76  23  2.387550E+05  2.304475E+02  9.055599E+03 -6.537240E-10  8.873472E+03 -8.144154E-11
        76  24  2.409871E+05  1.660403E+04  1.981762E+04 -1.653521E-09  1.366241E+04 -4.354970E-11
        76  25  2.409891E+05 -7.702192E+02  5.253712E+03 -2.343396E+03  4.084603E+03 -1.541200E-02
        76  26  2.387550E+05  2.304632E+02  9.055601E+03  2.893109E+03  8.873472E+03  4.133554E-02
        76  27  2.409871E+05  1.660415E+04  1.981764E+04  8.129718E+03  1.366241E+04  1.788411E-01
        77   1 -6.171143E+04 -1.066539E+05 -7.483902E+04  2.672489E+04  1.325518E+02 -5.179305E+04
        77   2  1.001342E+03 -1.061623E+05 -3.588016E+04  7.632489E+03  2.800382E+02 -3.242546E+04
        77   3  2.748824E+03 -1.234340E+05 -2.477203E+04 -1.474490E+04 -6.545203E+01 -1.305793E+04
        77   4 -6.572478E+04 -1.227683E+05 -7.878399E+04 -5.569535E+03  1.352505E+02 -5.216806E+04
        77   5 -8.840162E+02 -1.138433E+05 -3.762548E+04 -3.927001E+03  2.806412E+02 -3.232901E+04
        77   6  2.907457E+03 -1.227648E+05 -2.464592E+04 -5.568995E+03 -6.565382E+01 -1.248975E+04
        77   7 -6.973423E+04 -1.388802E+05 -8.272841E+04 -3.786312E+04  1.379884E+02 -5.254307E+04
        77   8 -2.768876E+03 -1.215239E+05 -3.937074E+04 -1.548635E+04  2.812405E+02 -3.223257E+04
        77   9  3.066408E+03 -1.220955E+05 -2.451977E+04  3.606923E+03 -6.583881E+01 -1.192157E+04
        77  10 -6.171215E+04 -1.066567E+05 -7.484407E+04  2.672489E+04 -1.080832E-10 -8.520035E-11
        77  11  1.001060E+03 -1.061635E+05 -3.588213E+04  7.632496E+03 -1.835061E-10  1.426212E-11
        77  12  2.748778E+03 -1.234342E+05 -2.477235E+04 -1.474490E+04  4.256760E-11  8.230387E-11
        77  13 -6.572551E+04 -1.227712E+05 -7.878910E+04 -5.569529E+03 -3.142635E-11 -3.417670E-12
        77  14 -8.842969E+02 -1.138444E+05 -3.762744E+04 -3.926994E+03 -1.805128E-10  5.642024E-12
        77  15  2.907415E+03 -1.227650E+05 -2.464622E+04 -5.568996E+03 -8.926355E-11 -3.702601E-12
        77  16 -6.973497E+04 -1.388832E+05 -8.273360E+04 -3.786311E+04  2.290165E-10  8.725612E-11
        77  17 -2.769155E+03 -1.215250E+05 -3.937269E+04 -1.548634E+04  5.558745E-10 -6.403448E-12
        77  18  3.066370E+03 -1.220956E+05 -2.452004E+04  3.606922E+03  3.440510E-10 -8.478439E-11
        77  19 -6.171143E+04 -1.066539E+05 -7.483902E+04  2.672489E+04 -1.325518E+02  5.179305E+04
        77  20  1.001342E+03 -1.061623E+05 -3.588016E+04  7.632489E+03 -2.800382E+02  3.242546E+04
        77  21  2.748824E+03 -1.234340E+05 -2.477203E+04 -1.474490E+04  6.545203E+01  1.305793E+04
        77  22 -6.572478E+04 -1.227683E+05 -7.878399E+04 -5.569535E+03 -1.352505E+02  5.216806E+04
        77  23 -8.840162E+02 -1.138433E+05 -3.762548E+04 -3.927001E+03 -2.806412E+02  3.232901E+04
        77  24  2.907457E+03 -1.227648E+05 -2.464592E+04 -5.568995E+03  6.565382E+01  1.248975E+04
        77  25 -6.973423E+04 -1.388802E+05 -8.272841E+04 -3.786312E+04 -1.379884E+02  5.254307E+04
        77  26 -2.768876E+03 -1.215239E+05 -3.937074E+04 -1.548635E+04 -2.812405E+02  3.223257E+04
        77  27  3.066408E+03 -1.220955E+05 -2.451977E+04  3.606923E+03  6.583881E+01  1.192157E+04
        78   1 -4.946758E+03 -1.267755E+05 -2.319922E+04 -3.738484E+03 -3.951292E+02 -9.224905E+03
        78   2 -3.695375E+03 -1.337352E+05 -2.140712E+04 -3.928413E+03 -8.402509E+02 -1.630951E+02
        78   3 -9.134466E+03 -1.435474E+05 -2.718780E+04 -7.422178E+03 -1.248992E+03  8.898603E+03
        78   4 -3.160023E+03 -1.194322E+05 -2.161015E+04 -5.573397E+03 -3.951081E+02 -8.780369E+03
        78   5  1.316942E+02 -1.180090E+05 -1.800013E+04 -3.921469E+03 -8.402528E+02  2.466123E+02
        78   6 -3.260932E+03 -1.194323E+05 -2.193863E+04 -5.573397E+03 -1.248963E+03  9.273601E+03
        78   7 -1.373279E+03 -1.120888E+05 -2.002108E+04 -7.408332E+03 -3.950897E+02 -8.335829E+03
        78   8  3.958747E+03 -1.022826E+05 -1.459317E+04 -3.914525E+03 -8.402546E+02  6.563299E+02
        78   9  2.612576E+03 -9.531669E+04 -1.668950E+04 -3.724543E+03 -1.248933E+03  9.648613E+03
        78  10 -4.946781E+03 -1.267756E+05 -2.319938E+04 -3.738487E+03  4.099449E-10 -7.492508E-10
        78  11 -3.695376E+03 -1.337352E+05 -2.140712E+04 -3.928414E+03  3.875388E-10 -2.150390E-11
        78  12 -9.134489E+03 -1.435475E+05 -2.718795E+04 -7.422169E+03  3.157833E-10  6.590533E-10
        78  13 -3.160044E+03 -1.194323E+05 -2.161029E+04 -5.573400E+03  4.734472E-10  6.328907E-12
        78  14  1.316934E+02 -1.180090E+05 -1.800014E+04 -3.921469E+03  5.986290E-10  1.475861E-11
        78  15 -3.260957E+03 -1.194324E+05 -2.193880E+04 -5.573388E+03  3.068845E-10  8.772526E-12
        78  16 -1.373298E+03 -1.120889E+05 -2.002121E+04 -7.408335E+03 -1.913786E-10  7.600760E-10
        78  17  3.958746E+03 -1.022826E+05 -1.459317E+04 -3.914525E+03 -4.786458E-10  3.726606E-11
        78  18  2.612550E+03 -9.531679E+04 -1.668968E+04 -3.724534E+03  1.279155E-10 -6.550256E-10
        78  19 -4.946758E+03 -1.267755E+05 -2.319922E+04 -3.738484E+03  3.951292E+02  9.224905E+03
        78  20 -3.695375E+03 -1.337352E+05 -2.140712E+04 -3.928413E+03  8.402509E+02  1.630951E+02
        78  21 -9.134466E+03 -1.435474E+05 -2.718780E+04 -7.422178E+03  1.248992E+03 -8.898603E+03
        78  22 -3.160023E+03 -1.194322E+05 -2.161015E+04 -5.573397E+03  3.951081E+02  8.780369E+03
        78  23  1.316942E+02 -1.180090E+05 -1.800013E+04 -3.921469E+03  8.402528E+02 -2.466123E+02
        78  24 -3.260932E+03 -1.194323E+05 -2.193863E+04 -5.573397E+03  1.248963E+03 -9.273601E+03
        78  25 -1.373279E+03 -1.120888E+05 -2.002108E+04 -7.408332E+03  3.950897E+02  8.335829E+03
        78  26  3.958747E+03 -1.022826E+05 -1.459317E+04 -3.914525E+03  8.402546E+02 -6.563299E+02
        78  27  2.612576E+03 -9.531669E+04 -1.668950E+04 -3.724543E+03  1.248933E+03 -9.648613E+03
        79   1 -4.500129E+03 -1.536820E+05 -3.181399E+04  3.881161E+03 -1.638624E+03  1.230877E+04
        79   2 -1.046557E+04 -1.527963E+05 -4.727176E+04 -1.581975E+04 -1.758610E+03  3.390396E+04
        79   3 -7.941905E+04 -1.704700E+05 -9.253716E+04 -3.876283E+04 -5.860941E+02  5.549853E+04
        79   4  2.997659E+03 -1.228755E+05 -2.513531E+04 -5.560254E+03 -1.638804E+03  1.304473E+04
        79   5 -9.109603E+02 -1.137055E+05 -3.859635E+04 -3.937994E+03 -1.757960E+03  3.339904E+04
        79   6 -6.759166E+04 -1.228791E+05 -8.100217E+04 -5.558949E+03 -5.831663E+02  5.375308E+04
        79   7  1.049572E+04 -9.206782E+04 -1.845665E+04 -1.500214E+04 -1.639008E+03  1.378073E+04
        79   8  8.644078E+03 -7.461291E+04 -2.992095E+04  7.944522E+03 -1.757330E+03  3.289408E+04
        79   9 -5.576030E+04 -7.528386E+04 -6.946674E+04  2.764749E+04 -5.804254E+02  5.200749E+04
        79  10 -4.500172E+03 -1.536822E+05 -3.181428E+04  3.881177E+03  4.198527E-10 -4.818765E-10
        79  11 -1.046588E+04 -1.527976E+05 -4.727393E+04 -1.581970E+04 -2.467679E-11 -1.522789E-10
        79  12 -7.941988E+04 -1.704733E+05 -9.254295E+04 -3.876280E+04 -9.616514E-11  1.254327E-10
        79  13  2.997610E+03 -1.228756E+05 -2.513564E+04 -5.560237E+03  4.846330E-10  4.719127E-12
        79  14 -9.112631E+02 -1.137067E+05 -3.859845E+04 -3.937946E+03  3.398312E-10 -1.810388E-11
        79  15 -6.759244E+04 -1.228822E+05 -8.100760E+04 -5.558924E+03  1.402077E-10  6.295974E-11
        79  16  1.049566E+04 -9.206802E+04 -1.845701E+04 -1.500213E+04  2.211215E-10  4.933813E-10
        79  17  8.643784E+03 -7.461407E+04 -2.992299E+04  7.944568E+03  6.840817E-11  1.300956E-10
        79  18 -5.576103E+04 -7.528676E+04 -6.947182E+04  2.764751E+04  5.233120E-11 -1.131009E-10
        79  19 -4.500129E+03 -1.536820E+05 -3.181399E+04  3.881161E+03  1.638624E+03 -1.230877E+04
        79  20 -1.046557E+04 -1.527963E+05 -4.727176E+04 -1.581975E+04  1.758610E+03 -3.390396E+04
        79  21 -7.941905E+04 -1.704700E+05 -9.253716E+04 -3.876283E+04  5.860941E+02 -5.549853E+04
        79  22  2.997659E+03 -1.228755E+05 -2.513531E+04 -5.560254E+03  1.638804E+03 -1.304473E+04
        79  23 -9.109603E+02 -1.137055E+05 -3.859635E+04 -3.937994E+03  1.757960E+03 -3.339904E+04
        79  24 -6.759166E+04 -1.228791E+05 -8.100217E+04 -5.558949E+03  5.831663E+02 -5.375308E+04
        79  25  1.049572E+04 -9.206782E+04 -1.845665E+04 -1.500214E+04  1.639008E+03 -1.378073E+04
        79  26  8.644078E+03 -7.461291E+04 -2.992095E+04  7.944522E+03  1.757330E+03 -3.289408E+04
        79  27 -5.576030E+04 -7.528386E+04 -6.946674E+04  2.764749E+04  5.804254E+02 -5.200749E+04
        80   1  1.880435E+05  1.139149E+05  6.794040E+03  1.437151E+05  9.971712E+03  8.567469E+03
        80   2  1.894954E+05  1.003231E+05 -2.623745E+03  1.527722E+05  5.769589E+03  7.731466E+03
        80   3  2.029852E+05  9.704729E+04 -5.156911E+03  1.550124E+05  2.626911E+03  5.482853E+03
        80   4  2.457208E+05  1.394997E+05  2.291903E+04  1.651502E+05  1.207436E+04  1.014417E+04
        80   5  2.359409E+05  1.277679E+05  1.051564E+04  1.733800E+05  6.515095E+03  8.290472E+03
        80   6  2.384925E+05  1.266453E+05  6.173880E+03  1.747932E+05  2.015316E+03  5.024216E+03
        80   7  3.034011E+05  1.650848E+05  3.904360E+04  1.865869E+05  1.417727E+04  1.172095E+04
        80   8  2.823884E+05  1.552133E+05  2.365473E+04  1.939894E+05  7.260674E+03  8.849520E+03
        80   9  2.740011E+05  1.562444E+05  1.750451E+04  1.945754E+05  1.403675E+03  4.565536E+03
        80  10  1.880434E+05  1.139148E+05  6.793716E+03  1.437151E+05  2.344562E-10  5.079693E-11
        80  11  1.894954E+05  1.003231E+05 -2.623919E+03  1.527721E+05 -1.867528E-10 -6.185403E-11
        80  12  2.029852E+05  9.704726E+04 -5.156980E+03  1.550124E+05 -1.279113E-10  6.446709E-12
        80  13  2.457206E+05  1.394996E+05  2.291856E+04  1.651501E+05  2.240546E-10  4.081144E-11
        80  14  2.359408E+05  1.277678E+05  1.051543E+04  1.733800E+05  1.935321E-10 -1.683283E-10
        80  15  2.384925E+05  1.266453E+05  6.173825E+03  1.747932E+05 -2.999841E-10  1.219333E-12
        80  16  3.034009E+05  1.650846E+05  3.904297E+04  1.865867E+05 -2.259306E-10 -8.557031E-11
        80  17  2.823883E+05  1.552132E+05  2.365448E+04  1.939893E+05  1.945726E-10  4.600929E-11
        80  18  2.740011E+05  1.562444E+05  1.750447E+04  1.945754E+05  3.484511E-10  8.190671E-11
        80  19  1.880435E+05  1.139149E+05  6.794040E+03  1.437151E+05 -9.971712E+03 -8.567469E+03
        80  20  1.894954E+05  1.003231E+05 -2.623745E+03  1.527722E+05 -5.769589E+03 -7.731466E+03
        80  21  2.029852E+05  9.704729E+04 -5.156911E+03  1.550124E+05 -2.626911E+03 -5.482853E+03
        80  22  2.457208E+05  1.394997E+05  2.291903E+04  1.651502E+05 -1.207436E+04 -1.014417E+04
        80  23  2.359409E+05  1.277679E+05  1.051564E+04  1.733800E+05 -6.515095E+03 -8.290472E+03
        80  24  2.384925E+05  1.266453E+05  6.173880E+03  1.747932E+05 -2.015316E+03 -5.024216E+03
        80  25  3.034011E+05  1.650848E+05  3.904360E+04  1.865869E+05 -1.417727E+04 -1.172095E+04
        80  26  2.823884E+05  1.552133E+05  2.365473E+04  1.939894E+05 -7.260674E+03 -8.849520E+03
        80  27  2.740011E+05  1.562444E+05  1.750451E+04  1.945754E+05 -1.403675E+03 -4.565536E+03
        81   1  2.042238E+05  1.037105E+05 -5.219812E+03  1.565351E+05  1.757433E+03  4.352357E+03
        81   2  2.078245E+05  1.077742E+05 -5.787712E+03  1.598209E+05  8.967112E+02  3.314728E+03
        81   3  2.147236E+05  1.099006E+05 -5.264216E+03  1.620602E+05  8.376136E+01  2.213322E+03
        81   4  2.385054E+05  1.274475E+05  4.923731E+03  1.733847E+05  1.547144E+03  4.194641E+03
        81   5  2.366635E+05  1.280781E+05  2.769449E+03  1.741568E+05  6.251099E+02  3.111044E+03
        81   6  2.381330E+05  1.267848E+05  1.759658E+03  1.738823E+05 -2.491321E+02  1.963689E+03
        81   7  2.727886E+05  1.511854E+05  1.506726E+04  1.902355E+05  1.336838E+03  4.036912E+03
        81   8  2.655034E+05  1.483825E+05  1.132652E+04  1.884933E+05  3.534916E+02  2.907347E+03
        81   9  2.615428E+05  1.436691E+05  8.783389E+03  1.857047E+05 -5.820393E+02  1.714045E+03
        81  10  2.042237E+05  1.037105E+05 -5.219853E+03  1.565351E+05 -2.307113E-10  9.796744E-11
        81  11  2.078245E+05  1.077742E+05 -5.787734E+03  1.598209E+05 -6.064322E-11 -6.298498E-11
        81  12  2.147236E+05  1.099006E+05 -5.264225E+03  1.620602E+05  3.280429E-10 -1.196940E-10
        81  13  2.385054E+05  1.274475E+05  4.923694E+03  1.733847E+05  1.101011E-10  4.254511E-11
        81  14  2.366635E+05  1.280781E+05  2.769430E+03  1.741568E+05  7.985317E-10 -2.433073E-11
        81  15  2.381330E+05  1.267848E+05  1.759651E+03  1.738823E+05  3.157350E-11 -1.496980E-10
        81  16  2.727886E+05  1.511854E+05  1.506723E+04  1.902355E+05  2.847033E-10  1.576674E-11
        81  17  2.655034E+05  1.483825E+05  1.132650E+04  1.884933E+05  6.539608E-10 -9.456217E-12
        81  18  2.615428E+05  1.436691E+05  8.783383E+03  1.857047E+05  8.210647E-11 -1.987993E-10
        81  19  2.042238E+05  1.037105E+05 -5.219812E+03  1.565351E+05 -1.757433E+03 -4.352357E+03
        81  20  2.078245E+05  1.077742E+05 -5.787712E+03  1.598209E+05 -8.967112E+02 -3.314728E+03
        81  21  2.147236E+05  1.099006E+05 -5.264216E+03  1.620602E+05 -8.376136E+01 -2.213322E+03
        81  22  2.385054E+05  1.274475E+05  4.923731E+03  1.733847E+05 -1.547144E+03 -4.194641E+03
        81  23  2.366635E+05  1.280781E+05  2.769449E+03  1.741568E+05 -6.251099E+02 -3.111044E+03
        81  24  2.381330E+05  1.267848E+05  1.759658E+03  1.738823E+05  2.491321E+02 -1.963689E+03
        81  25  2.727886E+05  1.511854E+05  1.506726E+04  1.902355E+05 -1.336838E+03 -4.036912E+03
        81  26  2.655034E+05  1.483825E+05  1.132652E+04  1.884933E+05 -3.534916E+02 -2.907347E+03
        81  27  2.615428E+05  1.436691E+05  8.783389E+03  1.857047E+05  5.820393E+02 -1.714045E+03
        82   1  2.186562E+05  1.130204E+05 -4.286257E+03  1.640799E+05 -1.470536E+01  1.828751E+03
        82   2  2.224280E+05  1.179782E+05 -3.031265E+03  1.670576E+05 -2.491120E+02  1.139690E+03
        82   3  2.289918E+05  1.203455E+05 -1.360522E+03  1.692519E+05 -4.823886E+02  4.490926E+02
        82   4  2.381203E+05  1.268192E+05  1.481040E+03  1.738039E+05 -3.294932E+02  1.592701E+03
        82   5  2.367230E+05  1.281123E+05  1.216248E+03  1.741971E+05 -5.653844E+02  9.025304E+02
        82   6  2.381181E+05  1.268153E+05  1.368471E+03  1.738069E+05 -8.001421E+02  2.108262E+02
        82   7  2.575848E+05  1.406182E+05  7.248297E+03  1.835282E+05 -6.442944E+02  1.356640E+03
        82   8  2.510184E+05  1.382467E+05  5.463766E+03  1.813368E+05 -8.816683E+02  6.653624E+02
        82   9  2.472446E+05  1.332852E+05  4.097488E+03  1.783620E+05 -1.117905E+03 -2.744744E+01
        82  10  2.186562E+05  1.130204E+05 -4.286263E+03  1.640799E+05  2.521163E-10 -2.864629E-10
        82  11  2.224280E+05  1.179782E+05 -3.031268E+03  1.670576E+05  9.521234E-11 -4.537584E-11
        82  12  2.289918E+05  1.203455E+05 -1.360523E+03  1.692519E+05 -2.439504E-10  5.605229E-11
        82  13  2.381203E+05  1.268192E+05  1.481035E+03  1.738039E+05  2.869429E-10 -1.236288E-10
        82  14  2.367230E+05  1.281123E+05  1.216246E+03  1.741971E+05  1.152639E-11  1.571279E-11
        82  15  2.381181E+05  1.268153E+05  1.368470E+03  1.738069E+05 -6.696080E-11  1.350193E-10
        82  16  2.575848E+05  1.406182E+05  7.248293E+03  1.835282E+05 -7.844646E-11 -1.233794E-11
        82  17  2.510184E+05  1.382467E+05  5.463763E+03  1.813368E+05  4.619126E-12  1.026958E-10
        82  18  2.472446E+05  1.332852E+05  4.097486E+03  1.783620E+05  3.098692E-10  1.517754E-10
        82  19  2.186562E+05  1.130204E+05 -4.286257E+03  1.640799E+05  1.470536E+01 -1.828751E+03
        82  20  2.224280E+05  1.179782E+05 -3.031265E+03  1.670576E+05  2.491120E+02 -1.139690E+03
        82  21  2.289918E+05  1.203455E+05 -1.360522E+03  1.692519E+05  4.823886E+02 -4.490926E+02
        82  22  2.381203E+05  1.268192E+05  1.481040E+03  1.738039E+05  3.294932E+02 -1.592701E+03
        82  23  2.367230E+05  1.281123E+05  1.216248E+03  1.741971E+05  5.653844E+02 -9.025304E+02
        82  24  2.381181E+05  1.268153E+05  1.368471E+03  1.738069E+05  8.001421E+02 -2.108262E+02
        82  25  2.575848E+05  1.406182E+05  7.248297E+03  1.835282E+05  6.442944E+02 -1.356640E+03
        82  26  2.510184E+05  1.382467E+05  5.463766E+03  1.813368E+05  8.816683E+02 -6.653624E+02
        82  27  2.472446E+05  1.332852E+05  4.097488E+03  1.783620E+05  1.117905E+03  2.744744E+01
        83   1  2.329638E+05  1.233782E+05  1.113238E+02  1.714072E+05 -5.377872E+02  1.015191E+02
        83   2  2.368935E+05  1.281213E+05  2.464267E+03  1.742160E+05 -1.288894E+03 -9.683193E+02
        83   3  2.440469E+05  1.308432E+05  5.834130E+03  1.760181E+05 -2.060698E+03 -2.010553E+03
        83   4  2.381264E+05  1.267869E+05  1.582698E+03  1.738725E+05 -8.625026E+02 -1.419659E+02
        83   5  2.366769E+05  1.280842E+05  2.414461E+03  1.741627E+05 -1.587099E+03 -1.191924E+03
        83   6  2.384456E+05  1.273548E+05  4.240184E+03  1.734464E+05 -2.332385E+03 -2.214274E+03
        83   7  2.432890E+05  1.301955E+05  3.054052E+03  1.763379E+05 -1.187218E+03 -3.854508E+02
        83   8  2.364604E+05  1.280472E+05  2.364655E+03  1.741095E+05 -1.885302E+03 -1.415527E+03
        83   9  2.328443E+05  1.238664E+05  2.646236E+03  1.708746E+05 -2.604068E+03 -2.417994E+03
        83  10  2.329638E+05  1.233782E+05  1.113233E+02  1.714072E+05  3.408191E-12  1.607846E-10
        83  11  2.368935E+05  1.281213E+05  2.464262E+03  1.742160E+05 -1.670611E-10 -8.960360E-11
        83  12  2.440469E+05  1.308432E+05  5.834115E+03  1.760181E+05 -2.404684E-10 -1.996093E-10
        83  13  2.381264E+05  1.267869E+05  1.582696E+03  1.738725E+05 -1.771918E-10  3.278468E-11
        83  14  2.366769E+05  1.280842E+05  2.414453E+03  1.741627E+05 -2.877116E-10 -1.323318E-10
        83  15  2.384456E+05  1.273548E+05  4.240164E+03  1.734464E+05 -4.944718E-11 -3.792052E-11
        83  16  2.432890E+05  1.301955E+05  3.054049E+03  1.763379E+05  3.799518E-11 -1.261875E-10
        83  17  2.364604E+05  1.280472E+05  2.364645E+03  1.741095E+05  1.442287E-10 -1.454701E-10
        83  18  2.328442E+05  1.238664E+05  2.646212E+03  1.708746E+05  1.561128E-11  5.225043E-11
        83  19  2.329638E+05  1.233782E+05  1.113238E+02  1.714072E+05  5.377872E+02 -1.015191E+02
        83  20  2.368935E+05  1.281213E+05  2.464267E+03  1.742160E+05  1.288894E+03  9.683193E+02
        83  21  2.440469E+05  1.308432E+05  5.834130E+03  1.760181E+05  2.060698E+03  2.010553E+03
        83  22  2.381264E+05  1.267869E+05  1.582698E+03  1.738725E+05  8.625026E+02  1.419659E+02
        83  23  2.366769E+05  1.280842E+05  2.414461E+03  1.741627E+05  1.587099E+03  1.191924E+03
        83  24  2.384456E+05  1.273548E+05  4.240184E+03  1.734464E+05  2.332385E+03  2.214274E+03
        83  25  2.432890E+05  1.301955E+05  3.054052E+03  1.763379E+05  1.187218E+03  3.854508E+02
        83  26  2.364604E+05  1.280472E+05  2.364655E+03  1.741095E+05  1.885302E+03  1.415527E+03
        83  27  2.328443E+05  1.238664E+05  2.646236E+03  1.708746E+05  2.604068E+03  2.417994E+03
        84   1  2.456553E+05  1.355714E+05  8.123423E+03  1.800085E+05 -2.306735E+03 -2.572804E+03
        84   2  2.533833E+05  1.354134E+05  1.347157E+04  1.799575E+05 -6.586342E+03 -6.029051E+03
        84   3  2.722050E+05  1.440590E+05  2.623365E+04  1.739499E+05 -1.132355E+04 -8.875252E+03
        84   4  2.384403E+05  1.266614E+05  5.304233E+03  1.746503E+05 -2.751650E+03 -2.906404E+03
        84   5  2.360514E+05  1.278274E+05  9.013085E+03  1.734999E+05 -6.445213E+03 -5.923279E+03
        84   6  2.446290E+05  1.376703E+05  1.962760E+04  1.663929E+05 -1.059623E+04 -8.330098E+03
        84   7  2.312254E+05  1.177513E+05  2.485006E+03  1.692922E+05 -3.196564E+03 -3.239997E+03
        84   8  2.187198E+05  1.202415E+05  4.554579E+03  1.670425E+05 -6.304089E+03 -5.817508E+03
        84   9  2.170542E+05  1.312817E+05  1.302160E+04  1.588361E+05 -9.868961E+03 -7.784955E+03
        84  10  2.456553E+05  1.355714E+05  8.123400E+03  1.800085E+05 -2.234487E-10 -2.054231E-11
        84  11  2.533833E+05  1.354133E+05  1.347142E+04  1.799575E+05  6.447653E-11 -2.372539E-11
        84  12  2.722048E+05  1.440589E+05  2.623326E+04  1.739498E+05  2.735198E-10 -3.302014E-11
        84  13  2.384403E+05  1.266614E+05  5.304203E+03  1.746503E+05  5.195573E-11  2.525211E-11
        84  14  2.360513E+05  1.278274E+05  9.012941E+03  1.734999E+05  5.073911E-10 -2.714946E-11
        84  15  2.446289E+05  1.376702E+05  1.962726E+04  1.663928E+05 -1.268489E-10 -3.871882E-12
        84  16  2.312253E+05  1.177513E+05  2.484967E+03  1.692922E+05  6.412457E-11  2.527506E-12
        84  17  2.187197E+05  1.202415E+05  4.554441E+03  1.670424E+05 -2.215011E-10  1.004106E-10
        84  18  2.170541E+05  1.312816E+05  1.302131E+04  1.588360E+05  8.221122E-11  3.823378E-11
        84  19  2.456553E+05  1.355714E+05  8.123423E+03  1.800085E+05  2.306735E+03  2.572804E+03
        84  20  2.533833E+05  1.354134E+05  1.347157E+04  1.799575E+05  6.586342E+03  6.029051E+03
        84  21  2.722050E+05  1.440590E+05  2.623365E+04  1.739499E+05  1.132355E+04  8.875252E+03
        84  22  2.384403E+05  1.266614E+05  5.304233E+03  1.746503E+05  2.751650E+03  2.906404E+03
        84  23  2.360514E+05  1.278274E+05  9.013085E+03  1.734999E+05  6.445213E+03  5.923279E+03
        84  24  2.446290E+05  1.376703E+05  1.962760E+04  1.663929E+05  1.059623E+04  8.330098E+03
        84  25  2.312254E+05  1.177513E+05  2.485006E+03  1.692922E+05  3.196564E+03  3.239997E+03
        84  26  2.187198E+05  1.202415E+05  4.554579E+03  1.670425E+05  6.304089E+03  5.817508E+03
        84  27  2.170542E+05  1.312817E+05  1.302160E+04  1.588361E+05  9.868961E+03  7.784955E+03
        85   1 -9.124940E+03 -2.685835E+04 -3.209624E+04 -1.316000E+04 -2.185894E+04  4.633554E-01
        85   2 -5.504451E+03 -3.682353E+02 -1.486724E+04 -4.696216E+03 -1.400429E+04  1.059345E-01
        85   3 -9.125101E+03  1.247783E+03 -8.970318E+03  3.767636E+03 -6.149655E+03 -3.732076E-02
        85   4 -9.125126E+03 -2.685867E+04 -3.209628E+04 -1.007946E-09 -2.185894E+04  7.910854E-11
        85   5 -5.504475E+03 -3.682768E+02 -1.486725E+04 -4.966822E-10 -1.400429E+04  7.003487E-11
        85   6 -9.125116E+03  1.247756E+03 -8.970322E+03 -1.230659E-09 -6.149655E+03  1.979898E-10
        85   7 -9.124940E+03 -2.685835E+04 -3.209624E+04  1.316000E+04 -2.185894E+04 -4.633554E-01
        85   8 -5.504451E+03 -3.682353E+02 -1.486724E+04  4.696216E+03 -1.400429E+04 -1.059345E-01
        85   9 -9.125101E+03  1.247783E+03 -8.970318E+03 -3.767636E+03 -6.149655E+03  3.732076E-02
        85  10 -9.125454E+03 -2.685848E+04 -3.209714E+04 -1.316000E+04 -1.241855E-10  5.065640E-11
        85  11 -5.504662E+03 -3.682880E+02 -1.486761E+04 -4.696216E+03 -1.594762E-10  7.292759E-11
        85  12 -9.125141E+03  1.247773E+03 -8.970389E+03  3.767636E+03  1.714855E-10  1.970154E-11
        85  13 -9.125640E+03 -2.685880E+04 -3.209718E+04  8.308259E-11 -3.879674E-12  2.173081E-11
        85  14 -5.504686E+03 -3.683294E+02 -1.486762E+04 -1.038063E-09  5.345998E-10  4.862102E-11
        85  15 -9.125157E+03  1.247746E+03 -8.970393E+03 -4.730532E-12  6.487363E-11  7.499450E-13
        85  16 -9.125454E+03 -2.685848E+04 -3.209714E+04  1.316000E+04  2.594122E-10  2.929826E-11
        85  17 -5.504662E+03 -3.682880E+02 -1.486761E+04  4.696216E+03  3.267810E-10  1.825406E-11
        85  18 -9.125141E+03  1.247773E+03 -8.970389E+03 -3.767636E+03 -9.468054E-11 -2.437653E-11
        85  19 -9.124940E+03 -2.685835E+04 -3.209624E+04 -1.316000E+04  2.185894E+04 -4.633554E-01
        85  20 -5.504451E+03 -3.682353E+02 -1.486724E+04 -4.696216E+03  1.400429E+04 -1.059345E-01
        85  21 -9.125101E+03  1.247783E+03 -8.970318E+03  3.767636E+03  6.149655E+03  3.732076E-02
        85  22 -9.125126E+03 -2.685867E+04 -3.209628E+04 -1.249578E-09  2.185894E+04 -3.857398E-11
        85  23 -5.504475E+03 -3.682768E+02 -1.486725E+04 -7.707899E-10  1.400429E+04  2.387714E-11
        85  24 -9.125116E+03  1.247756E+03 -8.970322E+03 -1.167554E-09  6.149655E+03 -1.866333E-10
        85  25 -9.124940E+03 -2.685835E+04 -3.209624E+04  1.316000E+04  2.185894E+04  4.633554E-01
        85  26 -5.504451E+03 -3.682353E+02 -1.486724E+04  4.696216E+03  1.400429E+04  1.059345E-01
        85  27 -9.125101E+03  1.247783E+03 -8.970318E+03 -3.767636E+03  6.149655E+03 -3.732076E-02
        86   1 -7.663361E+03 -1.363118E+03 -7.343767E+03 -5.076232E+02 -4.858853E+03  3.972876E-03
        86   2 -7.331730E+03  4.199871E+01 -4.693192E+03 -1.393103E+02 -2.511578E+03  5.635851E-04
        86   3 -7.663363E+03  1.652133E+01 -3.928399E+03  2.289968E+02 -1.643337E+02 -6.061586E-05
        86   4 -7.663362E+03 -1.363118E+03 -7.343767E+03 -1.942020E-09 -4.858853E+03  1.013746E-10
        86   5 -7.331730E+03  4.199867E+01 -4.693192E+03 -8.316160E-10 -2.511578E+03 -1.423858E-10
        86   6 -7.663363E+03  1.652123E+01 -3.928399E+03 -2.261510E-10 -1.643337E+02  2.822934E-11
        86   7 -7.663361E+03 -1.363118E+03 -7.343767E+03  5.076232E+02 -4.858853E+03 -3.972876E-03
        86   8 -7.331730E+03  4.199871E+01 -4.693192E+03  1.393103E+02 -2.511578E+03 -5.635854E-04
        86   9 -7.663363E+03  1.652133E+01 -3.928399E+03 -2.289968E+02 -1.643337E+02  6.061592E-05
        86  10 -7.663387E+03 -1.363124E+03 -7.343811E+03 -5.076232E+02  2.236163E-10 -3.809340E-11
        86  11 -7.331737E+03  4.199702E+01 -4.693204E+03 -1.393103E+02  2.247731E-10 -5.976638E-11
        86  12 -7.663363E+03  1.652132E+01 -3.928399E+03  2.289968E+02 -1.434860E-11  1.415877E-11
        86  13 -7.663387E+03 -1.363124E+03 -7.343811E+03 -1.408726E-09  1.346206E-10 -3.812862E-11
        86  14 -7.331737E+03  4.199698E+01 -4.693204E+03 -8.191188E-10  2.313497E-12 -2.319318E-11
        86  15 -7.663363E+03  1.652123E+01 -3.928399E+03 -6.334915E-10 -1.508177E-10  7.290501E-11
        86  16 -7.663387E+03 -1.363124E+03 -7.343811E+03  5.076232E+02  1.151438E-10 -3.848234E-11
        86  17 -7.331737E+03  4.199702E+01 -4.693204E+03  1.393103E+02  1.762243E-11  1.364849E-11
        86  18 -7.663363E+03  1.652132E+01 -3.928399E+03 -2.289968E+02 -1.811145E-10  1.312193E-10
        86  19 -7.663361E+03 -1.363118E+03 -7.343767E+03 -5.076232E+02  4.858853E+03 -3.972877E-03
        86  20 -7.331730E+03  4.199871E+01 -4.693192E+03 -1.393103E+02  2.511578E+03 -5.635853E-04
        86  21 -7.663363E+03  1.652133E+01 -3.928399E+03  2.289968E+02  1.643337E+02  6.061588E-05
        86  22 -7.663362E+03 -1.363118E+03 -7.343767E+03 -1.952447E-09  4.858853E+03 -1.776251E-10
        86  23 -7.331730E+03  4.199867E+01 -4.693192E+03 -1.345042E-09  2.511578E+03  9.668445E-11
        86  24 -7.663363E+03  1.652123E+01 -3.928399E+03 -1.848208E-09  1.643337E+02  1.169796E-10
        86  25 -7.663361E+03 -1.363118E+03 -7.343767E+03  5.076232E+02  4.858853E+03  3.972876E-03
        86  26 -7.331730E+03  4.199871E+01 -4.693192E+03  1.393103E+02  2.511578E+03  5.635855E-04
        86  27 -7.663363E+03  1.652133E+01 -3.928399E+03 -2.289968E+02  1.643337E+02 -6.061565E-05
        87   1 -7.677108E+03  3.316760E+01 -3.990366E+03 -2.660203E+02  5.333852E+02 -2.285523E-04
        87   2 -7.314548E+03  4.377290E+01 -5.036616E+03  1.481461E+02  3.053476E+03  7.286427E-04
        87   3 -7.677105E+03 -1.533611E+03 -8.120522E+03  5.623191E+02  5.573599E+03  5.048338E-03
        87   4 -7.677108E+03  3.316746E+01 -3.990366E+03 -2.902966E-10  5.333852E+02  1.340705E-10
        87   5 -7.314548E+03  4.377286E+01 -5.036616E+03  4.449315E-10  3.053476E+03  9.829137E-11
        87   6 -7.677105E+03 -1.533612E+03 -8.120522E+03 -1.074950E-09  5.573599E+03  8.288370E-11
        87   7 -7.677108E+03  3.316760E+01 -3.990366E+03  2.660203E+02  5.333852E+02  2.285526E-04
        87   8 -7.314548E+03  4.377290E+01 -5.036616E+03 -1.481461E+02  3.053476E+03 -7.286425E-04
        87   9 -7.677105E+03 -1.533611E+03 -8.120522E+03 -5.623191E+02  5.573599E+03 -5.048338E-03
        87  10 -7.677108E+03  3.316752E+01 -3.990366E+03 -2.660203E+02  5.004951E-10  5.113443E-11
        87  11 -7.314558E+03  4.377040E+01 -5.036633E+03  1.481461E+02 -2.087656E-11  4.415227E-11
        87  12 -7.677138E+03 -1.533620E+03 -8.120580E+03  5.623191E+02 -5.927375E-11  3.887451E-11
        87  13 -7.677108E+03  3.316739E+01 -3.990366E+03 -8.523646E-10  4.038628E-10  8.224663E-11
        87  14 -7.314558E+03  4.377036E+01 -5.036633E+03 -3.747128E-10  2.688473E-10  1.350743E-12
        87  15 -7.677138E+03 -1.533620E+03 -8.120580E+03 -3.680063E-10  5.548258E-10 -2.472123E-11
        87  16 -7.677108E+03  3.316752E+01 -3.990366E+03  2.660203E+02 -2.319344E-10  1.133525E-10
        87  17 -7.314558E+03  4.377040E+01 -5.036633E+03 -1.481461E+02 -5.227179E-11 -4.112298E-11
        87  18 -7.677138E+03 -1.533620E+03 -8.120580E+03 -5.623191E+02  1.160834E-10 -8.925769E-11
        87  19 -7.677108E+03  3.316760E+01 -3.990366E+03 -2.660203E+02 -5.333852E+02  2.285524E-04
        87  20 -7.314548E+03  4.377290E+01 -5.036616E+03  1.481461E+02 -3.053476E+03 -7.286425E-04
        87  21 -7.677105E+03 -1.533611E+03 -8.120522E+03  5.623191E+02 -5.573599E+03 -5.048338E-03
        87  22 -7.677108E+03  3.316746E+01 -3.990366E+03 -1.684432E-09 -5.333852E+02  3.019378E-11
        87  23 -7.314548E+03  4.377286E+01 -5.036616E+03  4.208896E-10 -3.053476E+03 -9.419524E-11
        87  24 -7.677105E+03 -1.533612E+03 -8.120522E+03 -1.041541E-09 -5.573599E+03 -1.321682E-10
        87  25 -7.677108E+03  3.316760E+01 -3.990366E+03  2.660203E+02 -5.333852E+02 -2.285523E-04
        87  26 -7.314548E+03  4.377290E+01 -5.036616E+03 -1.481461E+02 -3.053476E+03  7.286424E-04
        87  27 -7.677105E+03 -1.533611E+03 -8.120522E+03 -5.623191E+02 -5.573599E+03  5.048337E-03
        88   1 -9.323510E+03  1.401856E+03 -9.983814E+03 -4.238459E+03  7.003510E+03 -4.781396E-02
        88   2 -5.256407E+03 -4.145115E+02 -1.666189E+04  5.273760E+03  1.580786E+04  1.342831E-01
        88   3 -9.323293E+03 -3.018188E+04 -3.605951E+04  1.478589E+04  2.461223E+04  5.861756E-01
        88   4 -9.323529E+03  1.401822E+03 -9.983819E+03 -4.128904E-10  7.003510E+03  4.784442E-11
        88   5 -5.256437E+03 -4.145637E+02 -1.666189E+04 -5.911131E-11  1.580786E+04 -2.009767E-11
        88   6 -9.323528E+03 -3.018229E+04 -3.605957E+04 -8.490637E-10  2.461223E+04 -1.116168E-10
        88   7 -9.323510E+03  1.401856E+03 -9.983814E+03  4.238459E+03  7.003510E+03  4.781396E-02
        88   8 -5.256407E+03 -4.145115E+02 -1.666189E+04 -5.273760E+03  1.580786E+04 -1.342831E-01
        88   9 -9.323293E+03 -3.018188E+04 -3.605951E+04 -1.478589E+04  2.461223E+04 -5.861756E-01
        88  10 -9.323563E+03  1.401843E+03 -9.983906E+03 -4.238459E+03  1.160711E-10 -8.487726E-12
        88  11 -5.256675E+03 -4.145786E+02 -1.666236E+04  5.273760E+03  1.612057E-10 -9.405895E-11
        88  12 -9.323943E+03 -3.018204E+04 -3.606065E+04  1.478589E+04  4.309613E-10 -3.932256E-11
        88  13 -9.323582E+03  1.401809E+03 -9.983911E+03  6.826710E-10  1.345130E-10  7.405529E-12
        88  14 -5.256705E+03 -4.146308E+02 -1.666236E+04 -4.612526E-10  4.013370E-10  5.468650E-11
        88  15 -9.324178E+03 -3.018245E+04 -3.606071E+04 -7.298148E-10  4.530378E-10  2.408041E-11
        88  16 -9.323563E+03  1.401843E+03 -9.983906E+03  4.238459E+03  7.527217E-11  2.504823E-11
        88  17 -5.256675E+03 -4.145786E+02 -1.666236E+04 -5.273760E+03 -2.964920E-10  1.889309E-10
        88  18 -9.323943E+03 -3.018204E+04 -3.606065E+04 -1.478589E+04  1.646503E-11  9.612170E-11
        88  19 -9.323510E+03  1.401856E+03 -9.983814E+03 -4.238459E+03 -7.003510E+03  4.781396E-02
        88  20 -5.256407E+03 -4.145115E+02 -1.666189E+04  5.273760E+03 -1.580786E+04 -1.342831E-01
        88  21 -9.323293E+03 -3.018188E+04 -3.605951E+04  1.478589E+04 -2.461223E+04 -5.861756E-01
        88  22 -9.323529E+03  1.401822E+03 -9.983819E+03 -9.130312E-10 -7.003510E+03 -3.329405E-11
        88  23 -5.256437E+03 -4.145637E+02 -1.666189E+04 -1.670678E-09 -1.580786E+04  1.275258E-10
        88  24 -9.323528E+03 -3.018229E+04 -3.605957E+04 -1.385145E-09 -2.461223E+04  1.191330E-10
        88  25 -9.323510E+03  1.401856E+03 -9.983814E+03  4.238459E+03 -7.003510E+03 -4.781396E-02
        88  26 -5.256407E+03 -4.145115E+02 -1.666189E+04 -5.273760E+03 -1.580786E+04  1.342831E-01
        88  27 -9.323293E+03 -3.018188E+04 -3.605951E+04 -1.478589E+04 -2.461223E+04  5.861756E-01
        89   1 -6.502439E+04 -1.447125E+05 -6.724729E+04  3.652190E+04 -2.306653E+03 -1.930197E+04
        89   2 -3.741929E+04 -9.913762E+04 -4.379962E+04  2.301333E+04 -6.746572E+03 -8.887795E+03
        89   3 -2.603112E+04 -5.896673E+04 -3.118646E+04  2.614012E+04 -5.792424E+03  1.527038E+03
        89   4 -1.643314E+04  5.079661E+04 -1.980776E+04  2.841760E+04 -2.305913E+03 -1.245312E+04
        89   5 -2.147362E+02  5.305139E+04 -9.967088E+03  2.009909E+04 -6.746234E+03 -7.214783E+03
        89   6  6.875872E+02  5.080003E+04 -7.364693E+03  2.841616E+04 -5.792906E+03 -1.976619E+03
        89   7  3.215557E+04  2.463409E+05  2.762923E+04  2.031073E+04 -2.305352E+03 -5.602131E+03
        89   8  3.698829E+04  2.052620E+05  2.386402E+04  1.718412E+04 -6.745911E+03 -5.541365E+03
        89   9  2.740552E+04  1.605781E+05  1.645641E+04  3.069261E+04 -5.793413E+03 -5.480887E+03
        89  10 -6.502449E+04 -1.447129E+05 -6.724800E+04  3.652187E+04 -6.405423E-11 -1.641930E-10
        89  11 -3.741936E+04 -9.913772E+04 -4.379986E+04  2.301328E+04 -4.633706E-11  3.395420E-11
        89  12 -2.603116E+04 -5.896674E+04 -3.118653E+04  2.614012E+04  5.875771E-11  3.684081E-10
        89  13 -1.643319E+04  5.079645E+04 -1.980806E+04  2.841757E+04  3.401059E-11 -6.059578E-11
        89  14 -2.147990E+02  5.305132E+04 -9.967272E+03  2.009905E+04 -4.389272E-10  8.085849E-11
        89  15  6.875502E+02  5.080001E+04 -7.364764E+03  2.841615E+04 -1.834279E-10  2.686506E-10
        89  16  3.215556E+04  2.463409E+05  2.762916E+04  2.031072E+04 -2.024028E-10  1.856064E-10
        89  17  3.698823E+04  2.052620E+05  2.386387E+04  1.718409E+04 -1.759304E-10 -1.871394E-10
        89  18  2.740548E+04  1.605781E+05  1.645629E+04  3.069259E+04 -2.445345E-10 -2.326004E-10
        89  19 -6.502439E+04 -1.447125E+05 -6.724729E+04  3.652190E+04  2.306653E+03  1.930197E+04
        89  20 -3.741929E+04 -9.913762E+04 -4.379962E+04  2.301333E+04  6.746572E+03  8.887795E+03
        89  21 -2.603112E+04 -5.896673E+04 -3.118646E+04  2.614012E+04  5.792424E+03 -1.527038E+03
        89  22 -1.643314E+04  5.079661E+04 -1.980776E+04  2.841760E+04  2.305913E+03  1.245312E+04
        89  23 -2.147362E+02  5.305139E+04 -9.967088E+03  2.009909E+04  6.746234E+03  7.214783E+03
        89  24  6.875872E+02  5.080003E+04 -7.364693E+03  2.841616E+04  5.792906E+03  1.976619E+03
        89  25  3.215557E+04  2.463409E+05  2.762923E+04  2.031073E+04  2.305352E+03  5.602131E+03
        89  26  3.698829E+04  2.052620E+05  2.386402E+04  1.718412E+04  6.745911E+03  5.541365E+03
        89  27  2.740552E+04  1.605781E+05  1.645641E+04  3.069261E+04  5.793413E+03  5.480887E+03
        90   1 -1.913993E+04 -2.408623E+04 -2.350623E+04  2.913583E+04 -3.893235E+03  1.218759E+03
        90   2 -7.920748E+03  1.932764E+04 -1.452658E+04  1.994744E+04 -1.751386E+03  5.013127E+03
        90   3  5.346915E+02  6.155304E+04 -8.709477E+03  2.762724E+04  4.663125E+02  8.807639E+03
        90   4 -7.202737E+02  5.154116E+04 -7.033003E+03  2.846819E+04 -3.893561E+03 -8.004188E+02
        90   5  6.063182E+01  5.213043E+04 -7.421374E+03  2.003419E+04 -1.751759E+03  2.921295E+03
        90   6 -1.909419E+03  5.154209E+04 -1.092170E+04  2.846840E+04  4.658947E+02  6.642900E+03
        90   7  1.769901E+04  1.271739E+05  9.439900E+03  2.780045E+04 -3.893882E+03 -2.819840E+03
        90   8  8.041943E+03  8.493424E+04 -3.162148E+02  2.012095E+04 -1.752131E+03  8.293539E+02
        90   9 -4.353532E+03  4.153124E+04 -1.313391E+04  2.930955E+04  4.654711E+02  4.478195E+03
        90  10 -1.913995E+04 -2.408624E+04 -2.350627E+04  2.913584E+04  1.231924E-10  5.164190E-11
        90  11 -7.920758E+03  1.932761E+04 -1.452663E+04  1.994744E+04 -2.005576E-10  6.694771E-12
        90  12  5.346705E+02  6.155296E+04 -8.709623E+03  2.762724E+04 -2.399439E-10  3.400409E-10
        90  13 -7.202901E+02  5.154116E+04 -7.033033E+03  2.846818E+04 -3.907993E-11 -4.217811E-10
        90  14  6.062624E+01  5.213042E+04 -7.421396E+03  2.003420E+04 -3.352133E-10  1.597733E-10
        90  15 -1.909431E+03  5.154204E+04 -1.092178E+04  2.846840E+04 -1.369366E-10  3.557025E-10
        90  16  1.769899E+04  1.271739E+05  9.439857E+03  2.780045E+04 -8.290988E-11  1.052137E-10
        90  17  8.041940E+03  8.493423E+04 -3.162219E+02  2.012096E+04  2.951233E-10 -3.299813E-10
        90  18 -4.353538E+03  4.153122E+04 -1.313395E+04  2.930955E+04  3.941430E-10 -1.833861E-10
        90  19 -1.913993E+04 -2.408623E+04 -2.350623E+04  2.913583E+04  3.893235E+03 -1.218759E+03
        90  20 -7.920748E+03  1.932764E+04 -1.452658E+04  1.994744E+04  1.751386E+03 -5.013127E+03
        90  21  5.346915E+02  6.155304E+04 -8.709477E+03  2.762724E+04 -4.663125E+02 -8.807639E+03
        90  22 -7.202737E+02  5.154116E+04 -7.033003E+03  2.846819E+04  3.893561E+03  8.004188E+02
        90  23  6.063182E+01  5.213043E+04 -7.421374E+03  2.003419E+04  1.751759E+03 -2.921295E+03
        90  24 -1.909419E+03  5.154209E+04 -1.092170E+04  2.846840E+04 -4.658947E+02 -6.642900E+03
        90  25  1.769901E+04  1.271739E+05  9.439900E+03  2.780045E+04  3.893882E+03  2.819840E+03
        90  26  8.041943E+03  8.493424E+04 -3.162148E+02  2.012095E+04  1.752131E+03 -8.293539E+02
        90  27 -4.353532E+03  4.153124E+04 -1.313391E+04  2.930955E+04 -4.654711E+02 -4.478195E+03
        91   1  1.251201E+04  9.360183E+04 -3.530101E+03  3.385083E+04  2.239749E+03  1.170480E+04
        91   2  2.067963E+04  1.413553E+05 -2.086840E+03  1.334721E+04  3.665180E+03  1.946843E+04
        91   3 -6.244407E+03  1.793258E+05 -1.447029E+04  9.556978E+03  1.369695E+03  2.723299E+04
        91   4  1.762257E+03  4.949066E+04 -1.315921E+04  2.843268E+04  2.239048E+03  8.550376E+03
        91   5 -5.230903E+02  5.469346E+04 -2.146069E+04  2.007846E+04  3.665494E+03  1.988500E+04
        91   6 -3.852322E+04  4.948967E+04 -4.607013E+04  2.843829E+04  1.371096E+03  3.121992E+04
        91   7 -8.987508E+03  5.381400E+03 -2.278837E+04  2.301491E+04  2.238402E+03  5.396177E+03
        91   8 -2.172615E+04 -3.196134E+04 -4.083500E+04  2.680876E+04  3.665818E+03  2.030152E+04
        91   9 -7.080192E+04 -8.033030E+04 -7.767093E+04  4.731565E+04  1.372739E+03  3.520602E+04
        91  10  1.251197E+04  9.360168E+04 -3.530368E+03  3.385081E+04  1.130572E-10 -1.914864E-10
        91  11  2.067952E+04  1.413549E+05 -2.087577E+03  1.334715E+04 -3.383157E-10 -1.121625E-10
        91  12 -6.244608E+03  1.793250E+05 -1.447169E+04  9.556948E+03  5.780070E-11  2.519320E-10
        91  13  1.762232E+03  4.949058E+04 -1.315935E+04  2.843266E+04  1.695431E-10 -4.805244E-10
        91  14 -5.232109E+02  5.469303E+04 -2.146146E+04  2.007840E+04 -1.247051E-10  1.364874E-10
        91  15 -3.852348E+04  4.948862E+04 -4.607196E+04  2.843826E+04  1.201211E-10  2.120642E-10
        91  16 -8.987521E+03  5.381368E+03 -2.278844E+04  2.301490E+04  3.324374E-10  3.399072E-10
        91  17 -2.172628E+04 -3.196178E+04 -4.083580E+04  2.680870E+04 -8.321218E-11 -1.575907E-10
        91  18 -7.080225E+04 -8.033163E+04 -7.767326E+04  4.731561E+04 -1.023997E-10 -1.438077E-10
        91  19  1.251201E+04  9.360183E+04 -3.530101E+03  3.385083E+04 -2.239749E+03 -1.170480E+04
        91  20  2.067963E+04  1.413553E+05 -2.086840E+03  1.334721E+04 -3.665180E+03 -1.946843E+04
        91  21 -6.244407E+03  1.793258E+05 -1.447029E+04  9.556978E+03 -1.369695E+03 -2.723299E+04
        91  22  1.762257E+03  4.949066E+04 -1.315921E+04  2.843268E+04 -2.239048E+03 -8.550376E+03
        91  23 -5.230903E+02  5.469346E+04 -2.146069E+04  2.007846E+04 -3.665494E+03 -1.988500E+04
        91  24 -3.852322E+04  4.948967E+04 -4.607013E+04  2.843829E+04 -1.371096E+03 -3.121992E+04
        91  25 -8.987508E+03  5.381400E+03 -2.278837E+04  2.301491E+04 -2.238402E+03 -5.396177E+03
        91  26 -2.172615E+04 -3.196134E+04 -4.083500E+04  2.680876E+04 -3.665818E+03 -2.030152E+04
        91  27 -7.080192E+04 -8.033030E+04 -7.767093E+04  4.731565E+04 -1.372739E+03 -3.520602E+04
        92   1  2.599341E+05  2.210707E+05  6.215978E+04  1.845093E+05  2.136158E+04  1.414478E+04
        92   2  2.392988E+05  1.736977E+05  3.598346E+04  1.800504E+05  1.435252E+04  5.341448E+03
        92   3  2.207810E+05  1.561238E+05  2.299299E+04  1.708370E+05  5.181097E+03 -5.781660E+02
        92   4  1.773915E+05  1.416526E+05  3.067992E+04  1.341856E+05  1.779577E+04  1.146953E+04
        92   5  1.717932E+05  1.184496E+05  1.404417E+04  1.430182E+05  1.355702E+04  4.744543E+03
        92   6  1.677132E+05  1.244464E+05  8.192041E+03  1.470956E+05  7.155482E+03  9.029575E+02
        92   7  9.485540E+04  6.224169E+04 -8.012753E+02  8.387011E+04  1.423055E+04  8.794949E+03
        92   8  1.042920E+05  6.320459E+04 -7.895927E+03  1.059905E+05  1.276164E+04  4.147738E+03
        92   9  1.146482E+05  9.276981E+04 -6.609301E+03  1.233560E+05  9.129653E+03  2.383956E+03
        92  10  2.599336E+05  2.210703E+05  6.215854E+04  1.845091E+05  6.867185E-12 -4.551596E-11
        92  11  2.392986E+05  1.736976E+05  3.598302E+04  1.800504E+05 -1.669683E-10 -4.060581E-10
        92  12  2.207809E+05  1.561238E+05  2.299294E+04  1.708370E+05 -1.865730E-10 -1.546412E-10
        92  13  1.773911E+05  1.416524E+05  3.067908E+04  1.341855E+05 -7.602641E-11  3.925683E-11
        92  14  1.717930E+05  1.184495E+05  1.404378E+04  1.430181E+05 -4.260946E-10  2.328072E-10
        92  15  1.677132E+05  1.244464E+05  8.191944E+03  1.470956E+05  4.756599E-10 -1.403338E-10
        92  16  9.485516E+04  6.224155E+04 -8.018011E+02  8.387001E+04 -1.550336E-10 -1.025054E-11
        92  17  1.042919E+05  6.320453E+04 -7.896266E+03  1.059905E+05 -1.190518E-10 -5.026528E-11
        92  18  1.146481E+05  9.276978E+04 -6.609468E+03  1.233560E+05  3.355824E-10 -5.982934E-11
        92  19  2.599341E+05  2.210707E+05  6.215978E+04  1.845093E+05 -2.136158E+04 -1.414478E+04
        92  20  2.392988E+05  1.736977E+05  3.598346E+04  1.800504E+05 -1.435252E+04 -5.341448E+03
        92  21  2.207810E+05  1.561238E+05  2.299299E+04  1.708370E+05 -5.181097E+03  5.781660E+02
        92  22  1.773915E+05  1.416526E+05  3.067992E+04  1.341856E+05 -1.779577E+04 -1.146953E+04
        92  23  1.717932E+05  1.184496E+05  1.404417E+04  1.430182E+05 -1.355702E+04 -4.744543E+03
        92  24  1.677132E+05  1.244464E+05  8.192041E+03  1.470956E+05 -7.155482E+03 -9.029575E+02
        92  25  9.485540E+04  6.224169E+04 -8.012753E+02  8.387011E+04 -1.423055E+04 -8.794949E+03
        92  26  1.042920E+05  6.320459E+04 -7.895927E+03  1.059905E+05 -1.276164E+04 -4.147738E+03
        92  27  1.146482E+05  9.276981E+04 -6.609301E+03  1.233560E+05 -9.129653E+03 -2.383956E+03
        93   1  1.990155E+05  1.485363E+05  1.600409E+04  1.612083E+05  4.279145E+03  4.098479E+02
        93   2  1.821428E+05  1.255703E+05  6.347376E+03  1.487608E+05  1.788087E+03  5.240447E+02
        93   3  1.544902E+05  1.152799E+05 -1.728393E+03  1.393490E+05 -8.006435E+02  7.686471E+02
        93   4  1.676767E+05  1.255719E+05  6.490636E+03  1.452234E+05  5.435025E+03  1.276959E+03
        93   5  1.728312E+05  1.188045E+05  3.525073E+03  1.440388E+05  3.069196E+03  1.485108E+03
        93   6  1.671779E+05  1.246849E+05  2.031824E+03  1.458895E+05  6.056083E+02  1.823605E+03
        93   7  1.363393E+05  1.026084E+05 -3.022815E+03  1.292395E+05  6.590814E+03  2.143999E+03
        93   8  1.635198E+05  1.120387E+05  7.027868E+02  1.393170E+05  4.350273E+03  2.446146E+03
        93   9  1.798658E+05  1.340901E+05  5.792034E+03  1.524301E+05  2.011898E+03  2.878593E+03
        93  10  1.990155E+05  1.485362E+05  1.600406E+04  1.612083E+05  8.772878E-11  1.276928E-10
        93  11  1.821428E+05  1.255703E+05  6.347369E+03  1.487608E+05  1.855652E-10  6.924781E-11
        93  12  1.544902E+05  1.152799E+05 -1.728396E+03  1.393490E+05  3.085872E-10 -5.691560E-11
        93  13  1.676767E+05  1.255719E+05  6.490578E+03  1.452234E+05  2.203679E-10 -3.616014E-10
        93  14  1.728312E+05  1.188045E+05  3.525051E+03  1.440388E+05  4.724850E-10 -2.411884E-11
        93  15  1.671779E+05  1.246849E+05  2.031818E+03  1.458895E+05  5.222685E-10 -6.990315E-11
        93  16  1.363392E+05  1.026084E+05 -3.022906E+03  1.292395E+05  1.479000E-10 -1.916920E-10
        93  17  1.635197E+05  1.120387E+05  7.027400E+02  1.393170E+05 -1.978930E-10  1.090853E-10
        93  18  1.798658E+05  1.340901E+05  5.792011E+03  1.524301E+05 -8.301184E-10  3.684033E-11
        93  19  1.990155E+05  1.485363E+05  1.600409E+04  1.612083E+05 -4.279145E+03 -4.098479E+02
        93  20  1.821428E+05  1.255703E+05  6.347376E+03  1.487608E+05 -1.788087E+03 -5.240447E+02
        93  21  1.544902E+05  1.152799E+05 -1.728393E+03  1.393490E+05  8.006435E+02 -7.686471E+02
        93  22  1.676767E+05  1.255719E+05  6.490636E+03  1.452234E+05 -5.435025E+03 -1.276959E+03
        93  23  1.728312E+05  1.188045E+05  3.525073E+03  1.440388E+05 -3.069196E+03 -1.485108E+03
        93  24  1.671779E+05  1.246849E+05  2.031824E+03  1.458895E+05 -6.056083E+02 -1.823605E+03
        93  25  1.363393E+05  1.026084E+05 -3.022815E+03  1.292395E+05 -6.590814E+03 -2.143999E+03
        93  26  1.635198E+05  1.120387E+05  7.027868E+02  1.393170E+05 -4.350273E+03 -2.446146E+03
        93  27  1.798658E+05  1.340901E+05  5.792034E+03  1.524301E+05 -2.011898E+03 -2.878593E+03
        94   1  1.364900E+05  1.029354E+05 -7.641355E+03  1.304498E+05 -1.656030E+03  1.451903E+03
        94   2  1.199024E+05  8.122353E+04 -1.488183E+04  1.175958E+05 -3.070211E+03  2.620443E+03
        94   3  9.175341E+04  7.121927E+04 -2.182464E+04  1.081366E+05 -4.480031E+03  3.783463E+03
        94   4  1.671540E+05  1.247314E+05  1.554978E+03  1.457774E+05 -2.833517E+02  2.481656E+03
        94   5  1.729224E+05  1.188564E+05  8.814720E+02  1.440954E+05 -1.702944E+03  3.646052E+03
        94   6  1.671303E+05  1.246900E+05  5.104655E+02  1.458079E+05 -3.118186E+03  4.804914E+03
        94   7  1.978193E+05  1.465282E+05  1.075132E+04  1.611061E+05  1.089432E+03  3.511488E+03
        94   8  2.259455E+05  1.564908E+05  1.664447E+04  1.705976E+05 -3.355191E+02  4.671780E+03
        94   9  2.425127E+05  1.781634E+05  2.284469E+04  1.834839E+05 -1.756131E+03  5.826524E+03
        94  10  1.364900E+05  1.029354E+05 -7.641364E+03  1.304498E+05  2.035377E-09  1.480074E-09
        94  11  1.199024E+05  8.122352E+04 -1.488186E+04  1.175958E+05 -5.499840E-09 -3.457202E-09
        94  12  9.175338E+04  7.121925E+04 -2.182470E+04  1.081366E+05 -6.819117E-09 -3.921893E-09
        94  13  1.671540E+05  1.247314E+05  1.554967E+03  1.457774E+05 -2.141087E-09 -1.112439E-09
        94  14  1.729224E+05  1.188563E+05  8.814416E+02  1.440955E+05 -4.965219E-09 -3.105610E-09
        94  15  1.671303E+05  1.246900E+05  5.104039E+02  1.458079E+05 -2.036394E-09 -1.364844E-09
        94  16  1.978193E+05  1.465282E+05  1.075130E+04  1.611061E+05 -6.702477E-09 -4.024874E-09
        94  17  2.259455E+05  1.564907E+05  1.664442E+04  1.705976E+05 -5.106704E-09 -3.449001E-09
        94  18  2.425127E+05  1.781634E+05  2.284462E+04  1.834839E+05  2.573310E-09  1.093763E-09
        94  19  1.364900E+05  1.029354E+05 -7.641355E+03  1.304498E+05  1.656030E+03 -1.451903E+03
        94  20  1.199024E+05  8.122353E+04 -1.488183E+04  1.175958E+05  3.070211E+03 -2.620443E+03
        94  21  9.175341E+04  7.121927E+04 -2.182464E+04  1.081366E+05  4.480031E+03 -3.783463E+03
        94  22  1.671540E+05  1.247314E+05  1.554978E+03  1.457774E+05  2.833517E+02 -2.481656E+03
        94  23  1.729224E+05  1.188564E+05  8.814720E+02  1.440954E+05  1.702944E+03 -3.646052E+03
        94  24  1.671303E+05  1.246900E+05  5.104655E+02  1.458079E+05  3.118186E+03 -4.804914E+03
        94  25  1.978193E+05  1.465282E+05  1.075132E+04  1.611061E+05 -1.089432E+03 -3.511488E+03
        94  26  2.259455E+05  1.564908E+05  1.664447E+04  1.705976E+05  3.355191E+02 -4.671780E+03
        94  27  2.425127E+05  1.781634E+05  2.284469E+04  1.834839E+05  1.756131E+03 -5.826524E+03
        95   1  7.394947E+04  5.861679E+04 -2.737870E+04  9.927424E+04 -5.263886E+03  4.537732E+03
        95   2  5.737285E+04  3.694133E+04 -3.416144E+04  8.640038E+04 -6.123725E+03  6.023408E+03
        95   3  2.912243E+04  2.686549E+04 -4.108635E+04  7.692863E+04 -6.784738E+03  7.244453E+03
        95   4  1.671230E+05  1.246890E+05  3.908954E+02  1.458001E+05 -3.827503E+03  5.615003E+03
        95   5  1.729310E+05  1.188607E+05  2.309407E+02  1.440988E+05 -4.941527E+03  6.909849E+03
        95   6  1.671202E+05  1.246867E+05  1.495792E+02  1.457991E+05 -5.856745E+03  7.940104E+03
        95   7  2.603060E+05  1.907661E+05  2.815954E+04  1.923338E+05 -2.390827E+03  6.692494E+03
        95   8  2.885043E+05  2.007880E+05  3.462204E+04  2.018096E+05 -3.759024E+03  7.796519E+03
        95   9  3.051401E+05  2.225196E+05  4.138385E+04  2.146877E+05 -4.928464E+03  8.635973E+03
        95  10  7.394943E+04  5.861676E+04 -2.737879E+04  9.927426E+04 -7.528716E-10  1.278234E-10
        95  11  5.737280E+04  3.694128E+04 -3.416157E+04  8.640041E+04  8.080048E-11 -2.097384E-10
        95  12  2.912236E+04  2.686542E+04 -4.108653E+04  7.692867E+04 -9.190411E-11 -2.267315E-10
        95  13  1.671230E+05  1.246890E+05  3.908086E+02  1.458001E+05  2.988270E-10  2.483349E-11
        95  14  1.729309E+05  1.188607E+05  2.308051E+02  1.440988E+05  2.278076E-10 -1.279599E-10
        95  15  1.671201E+05  1.246867E+05  1.493962E+02  1.457992E+05 -1.981321E-10  1.195152E-11
        95  16  2.603060E+05  1.907661E+05  2.815944E+04  1.923338E+05  1.071963E-09 -2.617698E-10
        95  17  2.885042E+05  2.007879E+05  3.462190E+04  2.018097E+05  6.657535E-10 -9.941079E-11
        95  18  3.051400E+05  2.225195E+05  4.138366E+04  2.146877E+05  3.078811E-10  2.505194E-10
        95  19  7.394947E+04  5.861679E+04 -2.737870E+04  9.927424E+04  5.263886E+03 -4.537732E+03
        95  20  5.737285E+04  3.694133E+04 -3.416144E+04  8.640038E+04  6.123725E+03 -6.023408E+03
        95  21  2.912243E+04  2.686549E+04 -4.108635E+04  7.692863E+04  6.784738E+03 -7.244453E+03
        95  22  1.671230E+05  1.246890E+05  3.908954E+02  1.458001E+05  3.827503E+03 -5.615003E+03
        95  23  1.729310E+05  1.188607E+05  2.309407E+02  1.440988E+05  4.941527E+03 -6.909849E+03
        95  24  1.671202E+05  1.246867E+05  1.495792E+02  1.457991E+05  5.856745E+03 -7.940104E+03
        95  25  2.603060E+05  1.907661E+05  2.815954E+04  1.923338E+05  2.390827E+03 -6.692494E+03
        95  26  2.885043E+05  2.007880E+05  3.462204E+04  2.018096E+05  3.759024E+03 -7.796519E+03
        95  27  3.051401E+05  2.225196E+05  4.138385E+04  2.146877E+05  4.928464E+03 -8.635973E+03
        96   1  1.123727E+04  1.413487E+04 -4.625332E+04  6.795579E+04 -9.446508E+03  7.285560E+03
        96   2 -5.235979E+03 -7.365491E+03 -5.403715E+04  5.537743E+04 -3.687373E+03  1.124308E+04
        96   3 -3.420056E+04 -1.863066E+04 -6.663522E+04  4.608435E+04  6.466506E+03  9.336857E+03
        96   4  1.671830E+05  1.246176E+05  1.262245E+02  1.457910E+05 -6.853941E+03  9.229287E+03
        96   5  1.728392E+05  1.189287E+05  1.034386E+02  1.441180E+05 -6.723063E+03  8.966708E+03
        96   6  1.672249E+05  1.246953E+05  1.508493E+02  1.457296E+05 -2.197896E+03  2.841751E+03
        96   7  3.231538E+05  2.351129E+05  4.650262E+04  2.236476E+05 -4.260513E+03  1.117366E+04
        96   8  3.509472E+05  2.452392E+05  5.423985E+04  2.328866E+05 -9.759910E+03  6.689471E+03
        96   9  3.686913E+05  2.680418E+05  6.693130E+04  2.454102E+05 -1.086606E+04 -3.656181E+03
        96  10  1.123716E+04  1.413478E+04 -4.625358E+04  6.795585E+04  2.528407E-11 -3.959171E-11
        96  11 -5.236027E+03 -7.365630E+03 -5.403741E+04  5.537746E+04  3.401041E-10 -4.724730E-11
        96  12 -3.420063E+04 -1.863076E+04 -6.663547E+04  4.608430E+04  1.889277E-10 -6.154332E-11
        96  13  1.671829E+05  1.246175E+05  1.259761E+02  1.457910E+05 -1.872651E-10  9.263300E-11
        96  14  1.728392E+05  1.189286E+05  1.032026E+02  1.441180E+05  7.398599E-10 -1.543695E-10
        96  15  1.672249E+05  1.246953E+05  1.508250E+02  1.457296E+05  1.756077E-10 -5.901458E-10
        96  16  3.231538E+05  2.351128E+05  4.650235E+04  2.236477E+05  2.596222E-10  1.510605E-10
        96  17  3.509471E+05  2.452392E+05  5.423959E+04  2.328866E+05  6.004133E-10 -2.201420E-10
        96  18  3.686912E+05  2.680417E+05  6.693105E+04  2.454102E+05  3.300447E-10 -1.243843E-10
        96  19  1.123727E+04  1.413487E+04 -4.625332E+04  6.795579E+04  9.446508E+03 -7.285560E+03
        96  20 -5.235979E+03 -7.365491E+03 -5.403715E+04  5.537743E+04  3.687373E+03 -1.124308E+04
        96  21 -3.420056E+04 -1.863066E+04 -6.663522E+04  4.608435E+04 -6.466506E+03 -9.336857E+03
        96  22  1.671830E+05  1.246176E+05  1.262245E+02  1.457910E+05  6.853941E+03 -9.229287E+03
        96  23  1.728392E+05  1.189287E+05  1.034386E+02  1.441180E+05  6.723063E+03 -8.966708E+03
        96  24  1.672249E+05  1.246953E+05  1.508493E+02  1.457296E+05  2.197896E+03 -2.841751E+03
        96  25  3.231538E+05  2.351129E+05  4.650262E+04  2.236476E+05  4.260513E+03 -1.117366E+04
        96  26  3.509472E+05  2.452392E+05  5.423985E+04  2.328866E+05  9.759910E+03 -6.689471E+03
        96  27  3.686913E+05  2.680418E+05  6.693130E+04  2.454102E+05  1.086606E+04  3.656181E+03
        97   1  1.228543E+04  2.658997E+05  1.876219E+04 -2.347629E+04 -1.180524E+03  2.094951E+04
        97   2 -2.034429E+04  2.489485E+05 -2.001761E+03 -1.134329E+04 -4.129138E+03  1.377388E+04
        97   3 -2.528033E+04  2.398568E+05 -1.117136E+04 -4.432137E+03 -5.366562E+03  6.598302E+03
        97   4  3.019227E+04  3.381440E+05  3.607990E+04 -8.677242E+03 -1.180043E+03  2.460532E+04
        97   5  4.143746E+02  3.340742E+05  1.669198E+04 -6.066017E+03 -4.128936E+03  1.578539E+04
        97   6 -1.386692E+03  3.381484E+05  1.003911E+04 -8.676436E+03 -5.366527E+03  6.965399E+03
        97   7  4.809957E+04  4.103935E+05  5.339741E+04  6.123537E+03 -1.179388E+03  2.826156E+04
        97   8  2.117266E+04  4.192067E+05  3.538530E+04 -7.880126E+02 -4.128701E+03  1.779718E+04
        97   9  2.250638E+04  4.364491E+05  3.124902E+04 -1.292142E+04 -5.366497E+03  7.332553E+03
        97  10  1.228531E+04  2.658992E+05  1.876136E+04 -2.347627E+04 -8.602185E-11 -3.981740E-11
        97  11 -2.034435E+04  2.489483E+05 -2.002149E+03 -1.134324E+04  2.938586E-11  3.968455E-11
        97  12 -2.528038E+04  2.398568E+05 -1.117149E+04 -4.432109E+03 -1.834129E-10  1.480140E-10
        97  13  3.019211E+04  3.381433E+05  3.607876E+04 -8.677219E+03 -2.586328E-10 -3.110872E-12
        97  14  4.142895E+02  3.340739E+05  1.669148E+04 -6.065964E+03 -1.998577E-10  7.387385E-11
        97  15 -1.386736E+03  3.381483E+05  1.003897E+04 -8.676406E+03  9.264109E-12 -2.878069E-14
        97  16  4.809936E+04  4.103927E+05  5.339591E+04  6.123564E+03 -2.705453E-10  3.376013E-11
        97  17  2.117255E+04  4.192064E+05  3.538467E+04 -7.879534E+02  3.580941E-10  1.005807E-10
        97  18  2.250634E+04  4.364490E+05  3.124887E+04 -1.292138E+04  5.433284E-10 -6.434541E-11
        97  19  1.228543E+04  2.658997E+05  1.876219E+04 -2.347629E+04  1.180524E+03 -2.094951E+04
        97  20 -2.034429E+04  2.489485E+05 -2.001761E+03 -1.134329E+04  4.129138E+03 -1.377388E+04
        97  21 -2.528033E+04  2.398568E+05 -1.117136E+04 -4.432137E+03  5.366562E+03 -6.598302E+03
        97  22  3.019227E+04  3.381440E+05  3.607990E+04 -8.677242E+03  1.180043E+03 -2.460532E+04
        97  23  4.143746E+02  3.340742E+05  1.669198E+04 -6.066017E+03  4.128936E+03 -1.578539E+04
        97  24 -1.386692E+03  3.381484E+05  1.003911E+04 -8.676436E+03  5.366527E+03 -6.965399E+03
        97  25  4.809957E+04  4.103935E+05  5.339741E+04  6.123537E+03  1.179388E+03 -2.826156E+04
        97  26  2.117266E+04  4.192067E+05  3.538530E+04 -7.880126E+02  4.128701E+03 -1.779718E+04
        97  27  2.250638E+04  4.364491E+05  3.124902E+04 -1.292142E+04  5.366497E+03 -7.332553E+03
        98   1 -2.492103E+04  2.278957E+05 -1.540153E+04 -9.277900E+03 -5.692408E+03  4.617408E+03
        98   2 -2.964294E+04  2.144192E+05 -2.120264E+04 -6.177910E+03 -6.498508E+03  2.304241E+03
        98   3 -3.250078E+04  2.017161E+05 -2.503080E+04 -8.233848E+03 -7.024630E+03 -8.803969E+00
        98   4  1.514957E+03  3.365195E+05  8.187950E+03 -8.662160E+03 -5.692270E+03  5.526455E+03
        98   5 -4.194318E+01  3.361093E+05  5.148881E+03 -6.084170E+03 -6.498346E+03  2.944032E+03
        98   6  3.117547E+02  3.365190E+05  4.269478E+03 -8.662035E+03 -7.024464E+03  3.616849E+02
        98   7  2.795017E+04  4.451543E+05  3.177673E+04 -8.046312E+03 -5.692130E+03  6.435658E+03
        98   8  2.955807E+04  4.578133E+05  3.149952E+04 -5.990411E+03 -6.498183E+03  3.583947E+03
        98   9  3.312309E+04  4.713390E+05  3.356867E+04 -9.090316E+03 -7.024299E+03  7.322531E+02
        98  10 -2.492107E+04  2.278957E+05 -1.540163E+04 -9.277879E+03 -2.732814E-10 -2.441940E-10
        98  11 -2.964298E+04  2.144192E+05 -2.120273E+04 -6.177898E+03 -4.085117E-10 -5.973505E-11
        98  12 -3.250083E+04  2.017160E+05 -2.503089E+04 -8.233848E+03  2.660596E-11  6.162871E-11
        98  13  1.514914E+03  3.365195E+05  8.187832E+03 -8.662135E+03  1.928534E-11  9.220440E-11
        98  14 -4.199086E+01  3.361093E+05  5.148785E+03 -6.084155E+03 -4.742167E-11  2.028090E-10
        98  15  3.117016E+02  3.365190E+05  4.269385E+03 -8.662033E+03 -1.553844E-10  5.166993E-13
        98  16  2.795012E+04  4.451543E+05  3.177659E+04 -8.046282E+03  3.576912E-10  2.515699E-10
        98  17  2.955802E+04  4.578133E+05  3.149942E+04 -5.990393E+03  2.341285E-10  5.596185E-10
        98  18  3.312303E+04  4.713389E+05  3.356857E+04 -9.090312E+03  1.606658E-10  1.293475E-10
        98  19 -2.492103E+04  2.278957E+05 -1.540153E+04 -9.277900E+03  5.692408E+03 -4.617408E+03
        98  20 -2.964294E+04  2.144192E+05 -2.120264E+04 -6.177910E+03  6.498508E+03 -2.304241E+03
        98  21 -3.250078E+04  2.017161E+05 -2.503080E+04 -8.233848E+03  7.024630E+03  8.803969E+00
        98  22  1.514957E+03  3.365195E+05  8.187950E+03 -8.662160E+03  5.692270E+03 -5.526455E+03
        98  23 -4.194318E+01  3.361093E+05  5.148881E+03 -6.084170E+03  6.498346E+03 -2.944032E+03
        98  24  3.117547E+02  3.365190E+05  4.269478E+03 -8.662035E+03  7.024464E+03 -3.616849E+02
        98  25  2.795017E+04  4.451543E+05  3.177673E+04 -8.046312E+03  5.692130E+03 -6.435658E+03
        98  26  2.955807E+04  4.578133E+05  3.149952E+04 -5.990411E+03  6.498183E+03 -3.583947E+03
        98  27  3.312309E+04  4.713390E+05  3.356867E+04 -9.090316E+03  7.024299E+03 -7.322531E+02
        99   1 -3.565586E+04  1.914997E+05 -2.723261E+04 -9.718441E+03 -7.821556E+03 -2.009109E+03
        99   2 -3.852130E+04  1.775651E+05 -2.984893E+04 -4.729148E+03 -7.310599E+03 -3.662788E+02
        99   3 -3.470324E+04  1.650987E+05 -3.186131E+04 -4.718423E+03 -2.301868E+03  1.275208E+03
        99   4 -3.112478E+02  3.368290E+05  4.200930E+03 -8.622169E+03 -7.821142E+03 -3.401336E+02
        99   5  9.157529E+01  3.357193E+05  5.109224E+03 -6.133897E+03 -7.311048E+03 -3.016483E+03
        99   6  7.926519E+03  3.368265E+05  9.619496E+03 -8.624062E+03 -2.303708E+03 -5.694087E+03
        99   7  3.503198E+04  4.821781E+05  3.563323E+04 -7.525639E+03 -7.820723E+03  1.329227E+03
        99   8  3.870277E+04  4.938969E+05  4.006586E+04 -7.539009E+03 -7.311485E+03 -5.667355E+03
        99   9  5.055421E+04  5.085815E+05  5.109838E+04 -1.253079E+04 -2.305460E+03 -1.266530E+04
        99  10 -3.565593E+04  1.914997E+05 -2.723273E+04 -9.718453E+03  3.758592E-10 -1.167862E-10
        99  11 -3.852135E+04  1.775651E+05 -2.984903E+04 -4.729150E+03 -6.477227E-11  1.888250E-10
        99  12 -3.470325E+04  1.650987E+05 -3.186132E+04 -4.718420E+03  3.440839E-10  3.491845E-11
        99  13 -3.113135E+02  3.368290E+05  4.200815E+03 -8.622172E+03  7.887612E-13  2.031951E-10
        99  14  9.151544E+01  3.357193E+05  5.109106E+03 -6.133915E+03  3.164388E-10  5.168722E-10
        99  15  7.926505E+03  3.368265E+05  9.619426E+03 -8.624072E+03  1.098378E-10 -2.670754E-11
        99  16  3.503191E+04  4.821781E+05  3.563311E+04 -7.525630E+03 -8.835046E-11  1.048710E-10
        99  17  3.870271E+04  4.938969E+05  4.006570E+04 -7.539043E+03  2.817211E-10  8.325724E-10
        99  18  5.055416E+04  5.085813E+05  5.109806E+04 -1.253081E+04  1.517079E-10  2.834054E-10
        99  19 -3.565586E+04  1.914997E+05 -2.723261E+04 -9.718441E+03  7.821556E+03  2.009109E+03
        99  20 -3.852130E+04  1.775651E+05 -2.984893E+04 -4.729148E+03  7.310599E+03  3.662788E+02
        99  21 -3.470324E+04  1.650987E+05 -3.186131E+04 -4.718423E+03  2.301868E+03 -1.275208E+03
        99  22 -3.112478E+02  3.368290E+05  4.200930E+03 -8.622169E+03  7.821142E+03  3.401336E+02
        99  23  9.157529E+01  3.357193E+05  5.109224E+03 -6.133897E+03  7.311048E+03  3.016483E+03
        99  24  7.926519E+03  3.368265E+05  9.619496E+03 -8.624062E+03  2.303708E+03  5.694087E+03
        99  25  3.503198E+04  4.821781E+05  3.563323E+04 -7.525639E+03  7.820723E+03 -1.329227E+03
        99  26  3.870277E+04  4.938969E+05  4.006586E+04 -7.539009E+03  7.311485E+03  5.667355E+03
        99  27  5.055421E+04  5.085815E+05  5.109838E+04 -1.253079E+04  2.305460E+03  1.266530E+04
       100   1  1.080419E+06  2.303378E+05  2.013796E+05  8.657290E+04 -3.544802E+04 -1.693536E+04
       100   2  8.800157E+05  2.772647E+05  1.940620E+05  7.990356E+04 -3.934952E+04 -5.167427E+04
       100   3  6.577611E+05  2.319554E+05  1.663322E+05  1.545759E+05 -4.320230E+04 -4.979929E+04
       100   4 -2.768944E+05 -1.068809E+05 -1.272069E+05  1.399821E+05 -8.631616E+04 -1.687816E+04
       100   5 -2.627937E+05 -1.905599E+03 -5.922392E+04  9.935877E+04 -5.507210E+04 -5.166817E+04
       100   6 -2.767390E+05  4.637728E+03 -3.609715E+04  1.400949E+05 -2.377846E+04 -4.981364E+04
       100   7 -1.632515E+06 -4.442227E+05 -4.559148E+05  1.932746E+05 -1.370734E+05 -1.682966E+04
       100   8 -1.404383E+06 -2.811625E+05 -3.125897E+05  1.187780E+05 -7.076603E+04 -5.166306E+04
       100   9 -1.210419E+06 -2.227367E+05 -2.385769E+05  1.256360E+05 -4.383428E+03 -4.982892E+04
       100  10  1.080418E+06  2.303372E+05  2.013767E+05  8.657242E+04  1.477496E-10  1.326913E-11
       100  11  8.800133E+05  2.772614E+05  1.940541E+05  7.990192E+04 -9.002141E-10  9.478017E-11
       100  12  6.577584E+05  2.319523E+05  1.663240E+05  1.545742E+05  2.976851E-10  7.756082E-11
       100  13 -2.769025E+05 -1.068832E+05 -1.272215E+05  1.399809E+05  5.604147E-12 -1.398888E-12
       100  14 -2.627976E+05 -1.909279E+03 -5.923463E+04  9.935648E+04  4.618645E-10 -3.295675E-11
       100  15 -2.767403E+05  4.634912E+03 -3.610288E+04  1.400940E+05 -1.664596E-10 -3.368219E-14
       100  16 -1.632535E+06 -4.442281E+05 -4.559508E+05  1.932727E+05 -1.629989E-10 -5.634952E-11
       100  17 -1.404389E+06 -2.811668E+05 -3.126042E+05  1.187750E+05  2.884738E-11 -1.560322E-10
       100  18 -1.210419E+06 -2.227394E+05 -2.385816E+05  1.256358E+05 -1.831183E-11 -7.400651E-11
       100  19  1.080419E+06  2.303378E+05  2.013796E+05  8.657290E+04  3.544802E+04  1.693536E+04
       100  20  8.800157E+05  2.772647E+05  1.940620E+05  7.990356E+04  3.934952E+04  5.167427E+04
       100  21  6.577611E+05  2.319554E+05  1.663322E+05  1.545759E+05  4.320230E+04  4.979929E+04
       100  22 -2.768944E+05 -1.068809E+05 -1.272069E+05  1.399821E+05  8.631616E+04  1.687816E+04
       100  23 -2.627937E+05 -1.905599E+03 -5.922392E+04  9.935877E+04  5.507210E+04  5.166817E+04
       100  24 -2.767390E+05  4.637728E+03 -3.609715E+04  1.400949E+05  2.377846E+04  4.981364E+04
       100  25 -1.632515E+06 -4.442227E+05 -4.559148E+05  1.932746E+05  1.370734E+05  1.682966E+04
       100  26 -1.404383E+06 -2.811625E+05 -3.125897E+05  1.187780E+05  7.076603E+04  5.166306E+04
       100  27 -1.210419E+06 -2.227367E+05 -2.385769E+05  1.256360E+05  4.383428E+03  4.982892E+04
       101   1  4.947376E+05  1.808018E+05  1.366984E+05  1.381634E+05 -2.758313E+04 -3.971461E+04
       101   2  2.845786E+05  1.349421E+05  1.000892E+05  9.813135E+04 -1.910829E+04 -2.951420E+04
       101   3  7.215661E+04  8.350559E+04  5.661245E+04  1.413318E+05 -1.064319E+04 -1.769514E+04
       101   4 -2.710185E+05 -5.643708E+03 -2.988664E+04  1.404827E+05 -1.854538E+04 -3.972147E+04
       101   5 -2.696946E+05  6.776590E+01 -2.002775E+04  9.886460E+04 -8.527792E+03 -2.951835E+04
       101   6 -2.709477E+05 -6.676099E+01 -1.811335E+04  1.404841E+05  1.482841E+03 -1.769580E+04
       101   7 -1.036225E+06 -1.921281E+05 -1.965065E+05  1.427992E+05 -9.518614E+03 -3.972827E+04
       101   8 -8.236792E+05 -1.348268E+05 -1.401626E+05  9.959719E+04  2.043386E+03 -2.952248E+04
       101   9 -6.139414E+05 -8.364685E+04 -9.284566E+04  1.396369E+05  1.360226E+04 -1.769649E+04
       101  10  4.947364E+05  1.807999E+05  1.366940E+05  1.381625E+05  3.848534E-11  9.409013E-11
       101  11  2.845779E+05  1.349411E+05  1.000869E+05  9.813089E+04  5.390157E-10  1.239331E-10
       101  12  7.215641E+04  8.350522E+04  5.661165E+04  1.413316E+05  4.862177E-10 -1.685230E-10
       101  13 -2.710193E+05 -5.645494E+03 -2.989025E+04  1.404821E+05  1.121692E-11 -1.010647E-11
       101  14 -2.696949E+05  6.681086E+01 -2.002952E+04  9.886440E+04  2.558032E-10 -2.205192E-10
       101  15 -2.709478E+05 -6.709781E+01 -1.811394E+04  1.404841E+05 -1.265419E-09 -1.814861E-10
       101  16 -1.036225E+06 -1.921298E+05 -1.965096E+05  1.427989E+05  9.296421E-11 -2.320193E-10
       101  17 -8.236795E+05 -1.348278E+05 -1.401642E+05  9.959724E+04 -1.971718E-10 -5.197482E-10
       101  18 -6.139417E+05 -8.364724E+04 -9.284660E+04  1.396371E+05 -3.986648E-11 -2.785078E-10
       101  19  4.947376E+05  1.808018E+05  1.366984E+05  1.381634E+05  2.758313E+04  3.971461E+04
       101  20  2.845786E+05  1.349421E+05  1.000892E+05  9.813135E+04  1.910829E+04  2.951420E+04
       101  21  7.215661E+04  8.350559E+04  5.661245E+04  1.413318E+05  1.064319E+04  1.769514E+04
       101  22 -2.710185E+05 -5.643708E+03 -2.988664E+04  1.404827E+05  1.854538E+04  3.972147E+04
       101  23 -2.696946E+05  6.776590E+01 -2.002775E+04  9.886460E+04  8.527792E+03  2.951835E+04
       101  24 -2.709477E+05 -6.676099E+01 -1.811335E+04  1.404841E+05 -1.482841E+03  1.769580E+04
       101  25 -1.036225E+06 -1.921281E+05 -1.965065E+05  1.427992E+05  9.518614E+03  3.972827E+04
       101  26 -8.236792E+05 -1.348268E+05 -1.401626E+05  9.959719E+04 -2.043386E+03  2.952248E+04
       101  27 -6.139414E+05 -8.364685E+04 -9.284566E+04  1.396369E+05 -1.360226E+04  1.769649E+04
       102   1 -9.601649E+04  4.273992E+04  1.820996E+04  1.390038E+05 -7.192233E+03 -1.028465E+04
       102   2 -3.053818E+05 -8.607789E+03 -3.377964E+04  9.960015E+04  6.677482E+03  1.679102E+03
       102   3 -5.186271E+05 -6.861451E+04 -9.696199E+04  1.435007E+05  2.054245E+04  1.265558E+04
       102   4 -2.711908E+05  2.232365E+02 -1.916524E+04  1.404989E+05  4.764145E+03 -1.028427E+04
       102   5 -2.693151E+05  2.019525E+02 -2.580886E+04  9.884646E+04  1.768490E+04  1.679162E+03
       102   6 -2.711972E+05 -8.310565E+03 -4.298338E+04  1.404988E+05  3.060551E+04  1.265540E+04
       102   7 -4.463358E+05 -4.229537E+04 -5.654167E+04  1.419934E+05  1.671720E+04 -1.028383E+04
       102   8 -2.332470E+05  9.011674E+03 -1.783771E+04  9.809272E+04  2.869296E+04  1.679195E+03
       102   9 -2.370967E+04  5.198939E+04  1.099194E+04  1.374956E+05  4.067253E+04  1.265512E+04
       102  10 -9.601657E+04  4.273980E+04  1.820966E+04  1.390038E+05 -1.832077E-11 -1.449359E-10
       102  11 -3.053818E+05 -8.607804E+03 -3.377973E+04  9.960014E+04 -1.681012E-11  1.841374E-11
       102  12 -5.186276E+05 -6.861479E+04 -9.696309E+04  1.435005E+05  4.626506E-10 -5.903193E-11
       102  13 -2.711908E+05  2.231169E+02 -1.916548E+04  1.404989E+05  5.943447E-12 -4.402246E-11
       102  14 -2.693154E+05  2.018654E+02 -2.580945E+04  9.884643E+04 -1.190357E-11  8.540817E-11
       102  15 -2.711983E+05 -8.310988E+03 -4.298544E+04  1.404985E+05  7.595943E-10  1.256174E-10
       102  16 -4.463361E+05 -4.229555E+04 -5.654239E+04  1.419936E+05 -1.036851E-10 -5.977576E-11
       102  17 -2.332479E+05  9.011450E+03 -1.783926E+04  9.809268E+04 -2.319869E-10  9.005071E-11
       102  18 -2.371149E+04  5.198877E+04  1.098853E+04  1.374952E+05 -2.583739E-10  3.178194E-10
       102  19 -9.601649E+04  4.273992E+04  1.820996E+04  1.390038E+05  7.192233E+03  1.028465E+04
       102  20 -3.053818E+05 -8.607789E+03 -3.377964E+04  9.960015E+04 -6.677482E+03 -1.679102E+03
       102  21 -5.186271E+05 -6.861451E+04 -9.696199E+04  1.435007E+05 -2.054245E+04 -1.265558E+04
       102  22 -2.711908E+05  2.232365E+02 -1.916524E+04  1.404989E+05 -4.764145E+03  1.028427E+04
       102  23 -2.693151E+05  2.019525E+02 -2.580886E+04  9.884646E+04 -1.768490E+04 -1.679162E+03
       102  24 -2.711972E+05 -8.310565E+03 -4.298338E+04  1.404988E+05 -3.060551E+04 -1.265540E+04
       102  25 -4.463358E+05 -4.229537E+04 -5.654167E+04  1.419934E+05 -1.671720E+04  1.028383E+04
       102  26 -2.332470E+05  9.011674E+03 -1.783771E+04  9.809272E+04 -2.869296E+04 -1.679195E+03
       102  27 -2.370967E+04  5.198939E+04  1.099194E+04  1.374956E+05 -4.067253E+04 -1.265512E+04
       103   1 -6.958629E+05 -9.380792E+04 -1.436364E+05  1.174556E+05  2.148339E+04  2.171706E+04
       103   2 -8.834411E+05 -1.553545E+05 -2.287333E+05  1.276660E+05  9.124632E+04  2.736208E+04
       103   3 -1.118494E+06 -3.713413E+05 -3.978640E+05  2.199810E+05  1.609731E+05  9.535539E+03
       103   4 -2.800603E+05  7.481090E+03 -5.319949E+04  1.402528E+05  3.818230E+04  2.171622E+04
       103   5 -2.583345E+05 -2.376506E+03 -8.945494E+04  9.916212E+04  8.546956E+04  2.735744E+04
       103   6 -2.801576E+05 -1.626861E+05 -1.940695E+05  1.401903E+05  1.327457E+05  9.526154E+03
       103   7  1.359063E+05  1.087607E+05  3.722841E+04  1.630654E+05  5.489225E+04  2.171661E+04
       103   8  3.671386E+05  1.505780E+05  4.979950E+04  7.062923E+04  7.968700E+04  2.735333E+04
       103   9  5.588362E+05  4.594167E+04  9.680416E+03  6.029145E+04  1.044803E+05  9.524053E+03
       103  10 -6.958635E+05 -9.380855E+04 -1.436382E+05  1.174552E+05  1.513077E-10 -1.449854E-10
       103  11 -8.834502E+05 -1.553575E+05 -2.287504E+05  1.276640E+05 -4.658753E-10 -2.478704E-10
       103  12 -1.118522E+06 -3.713484E+05 -3.979129E+05  2.199798E+05  6.385315E-10 -8.574747E-11
       103  13 -2.800620E+05  7.480193E+03 -5.320312E+04  1.402521E+05  5.312638E-10  8.527719E-11
       103  14 -2.583426E+05 -2.379271E+03 -8.947008E+04  9.916024E+04 -3.189514E-11  2.336786E-11
       103  15 -2.801766E+05 -1.626909E+05 -1.941028E+05  1.401893E+05  3.267764E-10  9.006267E-11
       103  16  1.359029E+05  1.087594E+05  3.722186E+04  1.630644E+05 -2.803827E-10  2.869951E-10
       103  17  3.671316E+05  1.505755E+05  4.978617E+04  7.062747E+04 -4.185991E-11  1.146010E-10
       103  18  5.588245E+05  4.593865E+04  9.659750E+03  6.029065E+04  1.989511E-10 -3.205563E-11
       103  19 -6.958629E+05 -9.380792E+04 -1.436364E+05  1.174556E+05 -2.148339E+04 -2.171706E+04
       103  20 -8.834411E+05 -1.553545E+05 -2.287333E+05  1.276660E+05 -9.124632E+04 -2.736208E+04
       103  21 -1.118494E+06 -3.713413E+05 -3.978640E+05  2.199810E+05 -1.609731E+05 -9.535539E+03
       103  22 -2.800603E+05  7.481090E+03 -5.319949E+04  1.402528E+05 -3.818230E+04 -2.171622E+04
       103  23 -2.583345E+05 -2.376506E+03 -8.945494E+04  9.916212E+04 -8.546956E+04 -2.735744E+04
       103  24 -2.801576E+05 -1.626861E+05 -1.940695E+05  1.401903E+05 -1.327457E+05 -9.526154E+03
       103  25  1.359063E+05  1.087607E+05  3.722841E+04  1.630654E+05 -5.489225E+04 -2.171661E+04
       103  26  3.671386E+05  1.505780E+05  4.979950E+04  7.062923E+04 -7.968700E+04 -2.735333E+04
       103  27  5.588362E+05  4.594167E+04  9.680416E+03  6.029145E+04 -1.044803E+05 -9.524053E+03
       104   1  8.155518E+03  2.610852E+05 -5.945617E+03  4.104934E+04  4.121491E+03 -3.791164E+04
       104   2  7.127226E+04  2.845066E+05  3.161111E+04  1.829958E+04  1.400970E+04 -2.693512E+04
       104   3  7.864877E+04  2.925684E+05  4.808091E+04  2.151614E+03  1.690968E+04 -1.594703E+04
       104   4 -6.149332E+04 -1.915503E+04 -7.340470E+04  1.060850E+04  4.103275E+03 -5.072841E+04
       104   5 -8.489401E+02 -1.089112E+04 -3.345341E+04  7.259309E+03  1.400162E+04 -3.304817E+04
       104   6  2.876146E+03 -1.915776E+04 -1.925041E+04  1.051342E+04  1.691091E+04 -1.535620E+04
       104   7 -1.311444E+05 -2.993211E+05 -1.408683E+05 -1.981859E+04  4.086312E+03 -6.353943E+04
       104   8 -7.297553E+04 -3.062069E+05 -9.852308E+04 -3.775680E+03  1.399375E+04 -3.915835E+04
       104   9 -7.290261E+04 -3.307926E+05 -8.658743E+04  1.887093E+04  1.691216E+04 -1.476567E+04
       104  10  8.155114E+03  2.610837E+05 -5.948348E+03  4.104947E+04 -4.350877E-10 -3.794824E-10
       104  11  7.127185E+04  2.845057E+05  3.160938E+04  1.829988E+04 -6.494283E-10  6.389512E-11
       104  12  7.864840E+04  2.925681E+05  4.807990E+04  2.151831E+03 -4.152190E-10  4.992673E-10
       104  13 -6.149403E+04 -1.915780E+04 -7.340957E+04  1.060866E+04 -4.747911E-10  3.773950E-11
       104  14 -8.494438E+02 -1.089235E+04 -3.345583E+04  7.259681E+03 -8.006806E-10  8.108048E-13
       104  15  2.875775E+03 -1.915809E+04 -1.925139E+04  1.051363E+04 -4.630259E-10  8.921876E-12
       104  16 -1.311455E+05 -2.993255E+05 -1.408759E+05 -1.981838E+04 -4.518964E-10  3.857177E-10
       104  17 -7.297615E+04 -3.062086E+05 -9.852633E+04 -3.775238E+03 -1.003975E-09 -8.834000E-13
       104  18 -7.290298E+04 -3.307929E+05 -8.658837E+04  1.887113E+04 -4.932696E-10 -4.614180E-10
       104  19  8.155518E+03  2.610852E+05 -5.945617E+03  4.104934E+04 -4.121491E+03  3.791164E+04
       104  20  7.127226E+04  2.845066E+05  3.161111E+04  1.829958E+04 -1.400970E+04  2.693512E+04
       104  21  7.864877E+04  2.925684E+05  4.808091E+04  2.151614E+03 -1.690968E+04  1.594703E+04
       104  22 -6.149332E+04 -1.915503E+04 -7.340470E+04  1.060850E+04 -4.103275E+03  5.072841E+04
       104  23 -8.489401E+02 -1.089112E+04 -3.345341E+04  7.259309E+03 -1.400162E+04  3.304817E+04
       104  24  2.876146E+03 -1.915776E+04 -1.925041E+04  1.051342E+04 -1.691091E+04  1.535620E+04
       104  25 -1.311444E+05 -2.993211E+05 -1.408683E+05 -1.981859E+04 -4.086312E+03  6.353943E+04
       104  26 -7.297553E+04 -3.062069E+05 -9.852308E+04 -3.775680E+03 -1.399375E+04  3.915835E+04
       104  27 -7.290261E+04 -3.307926E+05 -8.658743E+04  1.887093E+04 -1.691216E+04  1.476567E+04
       105   1  7.573571E+04  3.082977E+05  5.535212E+04  1.180158E+04  1.693757E+04 -1.115580E+04
       105   2  8.269980E+04  3.245705E+05  6.600382E+04  7.908075E+03  1.813575E+04 -8.111509E+03
       105   3  8.700768E+04  3.398008E+05  7.401376E+04  1.022002E+04  1.854884E+04 -5.065836E+03
       105   4 -3.146022E+03 -1.574708E+04 -1.505072E+04  1.045095E+04  1.693622E+04 -1.267490E+04
       105   5  4.970697E+01 -1.516180E+04 -7.572809E+03  7.345914E+03  1.813556E+04 -8.878308E+03
       105   6  4.578153E+02 -1.575026E+04 -3.259899E+03  1.044655E+04  1.854961E+04 -5.080403E+03
       105   7 -8.203470E+04 -3.396934E+05 -8.545982E+04  9.101006E+03  1.693489E+04 -1.419322E+04
       105   8 -8.260802E+04 -3.547858E+05 -8.115629E+04  6.784032E+03  1.813536E+04 -9.644693E+03
       105   9 -8.610043E+04 -3.711828E+05 -8.054112E+04  1.067292E+04  1.855037E+04 -5.094961E+03
       105  10  7.573537E+04  3.082975E+05  5.535134E+04  1.180173E+04 -1.175158E-10 -4.221755E-10
       105  11  8.269943E+04  3.245703E+05  6.600308E+04  7.908194E+03  5.442472E-10 -9.441221E-11
       105  12  8.700731E+04  3.398007E+05  7.401306E+04  1.022010E+04 -6.911641E-10  2.452116E-10
       105  13 -3.146373E+03 -1.574733E+04 -1.505156E+04  1.045112E+04 -1.702870E-10 -9.938784E-11
       105  14  4.933262E+01 -1.516197E+04 -7.573575E+03  7.346044E+03 -8.293057E-10  1.368951E-13
       105  15  4.574388E+02 -1.575038E+04 -3.260595E+03  1.044663E+04  1.897096E-10 -9.885029E-12
       105  16 -8.203507E+04 -3.396937E+05 -8.546073E+04  9.101200E+03 -1.630812E-10  2.766457E-10
       105  17 -8.260839E+04 -3.547860E+05 -8.115709E+04  6.784173E+03 -1.175940E-09  1.485169E-11
       105  18 -8.610081E+04 -3.711830E+05 -8.054181E+04  1.067299E+04  2.165075E-10 -3.471056E-10
       105  19  7.573571E+04  3.082977E+05  5.535212E+04  1.180158E+04 -1.693757E+04  1.115580E+04
       105  20  8.269980E+04  3.245705E+05  6.600382E+04  7.908075E+03 -1.813575E+04  8.111509E+03
       105  21  8.700768E+04  3.398008E+05  7.401376E+04  1.022002E+04 -1.854884E+04  5.065836E+03
       105  22 -3.146022E+03 -1.574708E+04 -1.505072E+04  1.045095E+04 -1.693622E+04  1.267490E+04
       105  23  4.970697E+01 -1.516180E+04 -7.572809E+03  7.345914E+03 -1.813556E+04  8.878308E+03
       105  24  4.578153E+02 -1.575026E+04 -3.259899E+03  1.044655E+04 -1.854961E+04  5.080403E+03
       105  25 -8.203470E+04 -3.396934E+05 -8.545982E+04  9.101006E+03 -1.693489E+04  1.419322E+04
       105  26 -8.260802E+04 -3.547858E+05 -8.115629E+04  6.784032E+03 -1.813536E+04  9.644693E+03
       105  27 -8.610043E+04 -3.711828E+05 -8.054112E+04  1.067292E+04 -1.855037E+04  5.094961E+03
       106   1  8.918537E+04  3.531211E+05  7.795008E+04  9.771854E+03  1.988152E+04 -1.584628E+03
       106   2  9.365093E+04  3.674135E+05  8.602557E+04  8.602910E+03  1.786423E+04 -1.229652E+04
       106   3  1.047707E+05  3.847966E+05  1.027450E+05  1.315437E+04  5.514430E+03 -2.300092E+04
       106   4 -3.855057E+02 -1.518716E+04 -1.680766E+03  1.034136E+04  1.987922E+04 -4.617777E+03
       106   5  8.184104E+01 -1.587351E+04  1.395946E+03  7.478475E+03  1.787140E+04 -5.404483E+03
       106   6  5.482830E+03 -1.519055E+04  6.227188E+03  1.033603E+04  5.528255E+03 -6.183465E+03
       106   7 -8.996533E+04 -3.833681E+05 -8.131961E+04  1.091049E+04  1.987692E+04 -7.649152E+03
       106   8 -9.349710E+04 -3.990232E+05 -8.324254E+04  6.354711E+03  1.787855E+04  1.483349E+03
       106   9 -9.381657E+04 -4.150308E+05 -9.030101E+04  7.519487E+03  5.541932E+03  1.062320E+04
       106  10  8.918495E+04  3.531210E+05  7.794933E+04  9.771879E+03 -3.244435E-10  2.913548E-10
       106  11  9.365055E+04  3.674132E+05  8.602468E+04  8.603087E+03 -5.964190E-10  2.069373E-11
       106  12  1.047705E+05  3.847960E+05  1.027440E+05  1.315448E+04 -5.712402E-11 -1.731629E-10
       106  13 -3.859358E+02 -1.518729E+04 -1.681549E+03  1.034143E+04 -4.089081E-10 -3.471616E-11
       106  14  8.149024E+01 -1.587363E+04  1.395291E+03  7.478553E+03 -7.489566E-10  3.233302E-11
       106  15  5.482787E+03 -1.519060E+04  6.227059E+03  1.033606E+04 -3.686707E-10  2.227683E-12
       106  16 -8.996577E+04 -3.833682E+05 -8.132046E+04  1.091061E+04  3.487226E-10 -3.429077E-10
       106  17 -9.349744E+04 -3.990233E+05 -8.324315E+04  6.354689E+03  4.021127E-10 -1.481393E-10
       106  18 -9.381663E+04 -4.150310E+05 -9.030128E+04  7.519439E+03 -2.089624E-10  1.707065E-10
       106  19  8.918537E+04  3.531211E+05  7.795008E+04  9.771854E+03 -1.988152E+04  1.584628E+03
       106  20  9.365093E+04  3.674135E+05  8.602557E+04  8.602910E+03 -1.786423E+04  1.229652E+04
       106  21  1.047707E+05  3.847966E+05  1.027450E+05  1.315437E+04 -5.514430E+03  2.300092E+04
       106  22 -3.855057E+02 -1.518716E+04 -1.680766E+03  1.034136E+04 -1.987922E+04  4.617777E+03
       106  23  8.184104E+01 -1.587351E+04  1.395946E+03  7.478475E+03 -1.787140E+04  5.404483E+03
       106  24  5.482830E+03 -1.519055E+04  6.227188E+03  1.033603E+04 -5.528255E+03  6.183465E+03
       106  25 -8.996533E+04 -3.833681E+05 -8.131961E+04  1.091049E+04 -1.987692E+04  7.649152E+03
       106  26 -9.349710E+04 -3.990232E+05 -8.324254E+04  6.354711E+03 -1.787855E+04 -1.483349E+03
       106  27 -9.381657E+04 -4.150308E+05 -9.030101E+04  7.519487E+03 -5.541932E+03 -1.062320E+04
       107   1  1.069928E+06  8.749078E+05  3.002114E+05  6.871227E+05  9.501709E+04  5.879895E+04
       107   2  1.011030E+06  7.195225E+05  2.028794E+05  6.870947E+05  6.915820E+04  1.331824E+04
       107   3  9.770540E+05  6.648936E+05  1.605972E+05  6.642232E+05  3.143777E+04 -1.628408E+04
       107   4  5.681576E+05  4.392006E+05  1.188282E+05  4.023952E+05  7.121494E+04  4.098845E+04
       107   5  5.386800E+05  3.570917E+05  5.457327E+04  4.388110E+05  6.064739E+04  6.946265E+03
       107   6  5.308542E+05  3.724696E+05  3.216287E+04  4.523694E+05  3.820922E+04 -1.121853E+04
       107   7  6.665840E+04  3.721223E+03 -6.258880E+04  1.179528E+05  4.743886E+04  2.320327E+04
       107   8  6.657391E+04 -5.186595E+03 -9.375918E+04  1.907497E+05  5.214533E+04  5.815718E+02
       107   9  8.487179E+04  8.013712E+04 -9.629188E+04  2.406816E+05  4.497406E+04 -6.157450E+03
       107  10  1.069918E+06  8.749017E+05  3.001880E+05  6.871182E+05 -6.610111E-10 -2.621904E-11
       107  11  1.011025E+06  7.195210E+05  2.028701E+05  6.870940E+05 -7.244585E-10  2.170304E-10
       107  12  9.770529E+05  6.648931E+05  1.605948E+05  6.642236E+05  1.227183E-10  8.711421E-11
       107  13  5.681517E+05  4.391974E+05  1.188155E+05  4.023929E+05 -2.372070E-10  2.340530E-11
       107  14  5.386761E+05  3.570907E+05  5.456627E+04  4.388107E+05 -1.283199E-09  1.313393E-10
       107  15  5.308526E+05  3.724690E+05  3.215989E+04  4.523697E+05  1.736022E-10 -2.412593E-11
       107  16  6.665584E+04  3.720041E+03 -6.259404E+04  1.179519E+05  7.087386E-11  1.335697E-10
       107  17  6.657099E+04 -5.187325E+03 -9.376429E+04  1.907496E+05  2.537147E-11 -8.741900E-13
       107  18  8.486961E+04  8.013653E+04 -9.629575E+04  2.406818E+05 -3.649492E-10 -2.118696E-10
       107  19  1.069928E+06  8.749078E+05  3.002114E+05  6.871227E+05 -9.501709E+04 -5.879895E+04
       107  20  1.011030E+06  7.195225E+05  2.028794E+05  6.870947E+05 -6.915820E+04 -1.331824E+04
       107  21  9.770540E+05  6.648936E+05  1.605972E+05  6.642232E+05 -3.143777E+04  1.628408E+04
       107  22  5.681576E+05  4.392006E+05  1.188282E+05  4.023952E+05 -7.121494E+04 -4.098845E+04
       107  23  5.386800E+05  3.570917E+05  5.457327E+04  4.388110E+05 -6.064739E+04 -6.946265E+03
       107  24  5.308542E+05  3.724696E+05  3.216287E+04  4.523694E+05 -3.820922E+04  1.121853E+04
       107  25  6.665840E+04  3.721223E+03 -6.258880E+04  1.179528E+05 -4.743886E+04 -2.320327E+04
       107  26  6.657391E+04 -5.186595E+03 -9.375918E+04  1.907497E+05 -5.214533E+04 -5.815718E+02
       107  27  8.487179E+04  8.013712E+04 -9.629188E+04  2.406816E+05 -4.497406E+04  6.157450E+03
       108   1  9.163615E+05  6.524848E+05  1.412531E+05  6.387632E+05  2.977990E+04 -1.225442E+04
       108   2  8.731104E+05  5.928581E+05  1.129754E+05  6.078861E+05  2.116539E+04 -1.448411E+04
       108   3  8.039931E+05  5.666929E+05  9.135434E+04  5.842902E+05  1.201809E+04 -1.600431E+04
       108   4  5.307003E+05  3.768547E+05  2.573217E+04  4.451243E+05  3.203117E+04 -1.057138E+04
       108   5  5.427625E+05  3.585017E+05  1.472022E+04  4.427637E+05  2.410359E+04 -1.228563E+04
       108   6  5.288088E+05  3.734628E+05  9.773752E+03  4.476817E+05  1.564232E+04 -1.329073E+04
       108   7  1.451968E+05  1.013065E+05 -8.980694E+04  2.516200E+05  3.428057E+04 -8.889757E+03
       108   8  2.125333E+05  1.242064E+05 -8.354718E+04  2.777406E+05  2.703967E+04 -1.008874E+04
       108   9  2.537097E+05  1.802759E+05 -7.181424E+04  3.111427E+05  1.926434E+04 -1.057880E+04
       108  10  9.163605E+05  6.524844E+05  1.412511E+05  6.387635E+05 -1.714497E-10 -9.410562E-11
       108  11  8.731099E+05  5.928578E+05  1.129742E+05  6.078863E+05 -5.195755E-10  1.035595E-10
       108  12  8.039928E+05  5.666926E+05  9.135358E+04  5.842903E+05 -9.138157E-10  7.954501E-11
       108  13  5.306992E+05  3.768543E+05  2.573003E+04  4.451246E+05  1.942553E-10 -5.968387E-11
       108  14  5.427619E+05  3.585014E+05  1.471884E+04  4.427639E+05  1.062022E-09  1.905577E-11
       108  15  5.288085E+05  3.734625E+05  9.772960E+03  4.476818E+05 -5.236718E-10  2.391451E-10
       108  16  1.451955E+05  1.013061E+05 -8.980929E+04  2.516202E+05 -7.036834E-11 -2.896635E-11
       108  17  2.125325E+05  1.242061E+05 -8.354874E+04  2.777409E+05 -1.637907E-10 -3.875418E-11
       108  18  2.537093E+05  1.802757E+05 -7.181515E+04  3.111428E+05 -6.308579E-11  4.014142E-10
       108  19  9.163615E+05  6.524848E+05  1.412531E+05  6.387632E+05 -2.977990E+04  1.225442E+04
       108  20  8.731104E+05  5.928581E+05  1.129754E+05  6.078861E+05 -2.116539E+04  1.448411E+04
       108  21  8.039931E+05  5.666929E+05  9.135434E+04  5.842902E+05 -1.201809E+04  1.600431E+04
       108  22  5.307003E+05  3.768547E+05  2.573217E+04  4.451243E+05 -3.203117E+04  1.057138E+04
       108  23  5.427625E+05  3.585017E+05  1.472022E+04  4.427637E+05 -2.410359E+04  1.228563E+04
       108  24  5.288088E+05  3.734628E+05  9.773752E+03  4.476817E+05 -1.564232E+04  1.329073E+04
       108  25  1.451968E+05  1.013065E+05 -8.980694E+04  2.516200E+05 -3.428057E+04  8.889757E+03
       108  26  2.125333E+05  1.242064E+05 -8.354718E+04  2.777406E+05 -2.703967E+04  1.008874E+04
       108  27  2.537097E+05  1.802759E+05 -7.181424E+04  3.111427E+05 -1.926434E+04  1.057880E+04
       109   1  7.583704E+05  5.360907E+05  7.648029E+04  5.618938E+05  9.306796E+03 -1.466194E+04
       109   2  7.165066E+05  4.815564E+05  5.926940E+04  5.295708E+05  3.533599E+03 -1.342621E+04
       109   3  6.461577E+05  4.568356E+05  4.474494E+04  5.058120E+05 -2.251406E+03 -1.217623E+04
       109   4  5.287844E+05  3.736139E+05  8.532429E+03  4.472785E+05  1.272355E+04 -1.210313E+04
       109   5  5.430525E+05  3.587438E+05  7.789457E+03  4.429755E+05  6.965290E+03 -1.085551E+04
       109   6  5.288283E+05  3.736837E+05  9.720754E+03  4.472343E+05  1.194807E+03 -9.593904E+03
       109   7  2.992558E+05  2.111664E+05 -5.942124E+04  3.327111E+05  1.613860E+04 -9.545610E+03
       109   8  3.696303E+05  2.359473E+05 -4.369410E+04  3.564071E+05  1.039570E+04 -8.285774E+03
       109   9  4.115128E+05  2.905387E+05 -2.530534E+04  3.886685E+05  4.640173E+03 -7.012209E+03
       109  10  7.583703E+05  5.360905E+05  7.647972E+04  5.618939E+05 -1.788395E-10  2.882334E-10
       109  11  7.165065E+05  4.815562E+05  5.926904E+04  5.295709E+05  7.878614E-10 -1.035357E-10
       109  12  6.461576E+05  4.568354E+05  4.474466E+04  5.058120E+05 -3.155205E-11 -2.761406E-11
       109  13  5.287842E+05  3.736137E+05  8.531849E+03  4.472787E+05 -7.662844E-10  1.722695E-10
       109  14  5.430524E+05  3.587437E+05  7.789144E+03  4.429756E+05 -8.340916E-11 -3.187152E-11
       109  15  5.288283E+05  3.736836E+05  9.720578E+03  4.472343E+05  5.465943E-10 -2.292029E-12
       109  16  2.992554E+05  2.111663E+05 -5.942190E+04  3.327113E+05 -4.069226E-10  1.751692E-10
       109  17  3.696301E+05  2.359472E+05 -4.369443E+04  3.564071E+05 -4.113358E-10  1.223142E-10
       109  18  4.115127E+05  2.905386E+05 -2.530547E+04  3.886685E+05  1.215692E-10 -1.330558E-10
       109  19  7.583704E+05  5.360907E+05  7.648029E+04  5.618938E+05 -9.306796E+03  1.466194E+04
       109  20  7.165066E+05  4.815564E+05  5.926940E+04  5.295708E+05 -3.533599E+03  1.342621E+04
       109  21  6.461577E+05  4.568356E+05  4.474494E+04  5.058120E+05  2.251406E+03  1.217623E+04
       109  22  5.287844E+05  3.736139E+05  8.532429E+03  4.472785E+05 -1.272355E+04  1.210313E+04
       109  23  5.430525E+05  3.587438E+05  7.789457E+03  4.429755E+05 -6.965290E+03  1.085551E+04
       109  24  5.288283E+05  3.736837E+05  9.720754E+03  4.472343E+05 -1.194807E+03  9.593904E+03
       109  25  2.992558E+05  2.111664E+05 -5.942124E+04  3.327111E+05 -1.613860E+04  9.545610E+03
       109  26  3.696303E+05  2.359473E+05 -4.369410E+04  3.564071E+05 -1.039570E+04  8.285774E+03
       109  27  4.115128E+05  2.905387E+05 -2.530534E+04  3.886685E+05 -4.640173E+03  7.012209E+03
       110   1  6.006533E+05  4.261870E+05  3.306088E+04  4.845075E+05 -5.418797E+03 -1.124152E+04
       110   2  5.601051E+05  3.700195E+05  2.343754E+04  4.510188E+05 -1.519597E+04 -1.307708E+04
       110   3  4.945487E+05  3.480263E+05  2.121871E+04  4.242989E+05 -2.476563E+04 -1.518788E+04
       110   4  5.289275E+05  3.734400E+05  1.163548E+04  4.477557E+05 -1.906094E+03 -8.609093E+03
       110   5  5.426517E+05  3.585473E+05  1.846802E+04  4.427065E+05 -1.194846E+04 -1.064340E+04
       110   6  5.314205E+05  3.778830E+05  3.293424E+04  4.444224E+05 -2.178418E+04 -1.295364E+04
       110   7  4.572081E+05  3.206968E+05 -9.790156E+03  4.110091E+05  1.606026E+03 -5.977123E+03
       110   8  5.251988E+05  3.470753E+05  1.349857E+04  4.343945E+05 -8.701085E+03 -8.209812E+03
       110   9  5.682938E+05  4.077408E+05  4.464965E+04  4.645473E+05 -1.880249E+04 -1.071918E+04
       110  10  6.006533E+05  4.261868E+05  3.306058E+04  4.845075E+05 -5.768549E-10 -9.364183E-11
       110  11  5.601048E+05  3.700192E+05  2.343679E+04  4.510186E+05  6.841003E-10  1.398949E-10
       110  12  4.945480E+05  3.480258E+05  2.121713E+04  4.242986E+05  5.333349E-10  3.067433E-10
       110  13  5.289275E+05  3.734399E+05  1.163534E+04  4.477557E+05 -1.958177E-10  2.710663E-11
       110  14  5.426515E+05  3.585471E+05  1.846754E+04  4.427064E+05  5.092898E-10  1.834852E-10
       110  15  5.314200E+05  3.778827E+05  3.293304E+04  4.444222E+05 -5.736720E-10  1.472181E-10
       110  16  4.572080E+05  3.206968E+05 -9.790228E+03  4.110091E+05 -4.494043E-10  1.333777E-10
       110  17  5.251987E+05  3.470752E+05  1.349830E+04  4.343944E+05  1.974540E-10  2.786830E-10
       110  18  5.682934E+05  4.077406E+05  4.464877E+04  4.645472E+05 -1.392519E-10 -1.824083E-10
       110  19  6.006533E+05  4.261870E+05  3.306088E+04  4.845075E+05  5.418797E+03  1.124152E+04
       110  20  5.601051E+05  3.700195E+05  2.343754E+04  4.510188E+05  1.519597E+04  1.307708E+04
       110  21  4.945487E+05  3.480263E+05  2.121871E+04  4.242989E+05  2.476563E+04  1.518788E+04
       110  22  5.289275E+05  3.734400E+05  1.163548E+04  4.477557E+05  1.906094E+03  8.609093E+03
       110  23  5.426517E+05  3.585473E+05  1.846802E+04  4.427065E+05  1.194846E+04  1.064340E+04
       110  24  5.314205E+05  3.778830E+05  3.293424E+04  4.444224E+05  2.178418E+04  1.295364E+04
       110  25  4.572081E+05  3.206968E+05 -9.790156E+03  4.110091E+05 -1.606026E+03  5.977123E+03
       110  26  5.251988E+05  3.470753E+05  1.349857E+04  4.343945E+05  8.701085E+03  8.209812E+03
       110  27  5.682938E+05  4.077408E+05  4.464965E+04  4.645473E+05  1.880249E+04  1.071918E+04
       111   1  4.304876E+05  3.305044E+05  1.632141E+04  4.171676E+05 -3.309425E+04 -1.740873E+04
       111   2  4.197569E+05  2.363897E+05  2.777567E+04  3.618725E+05 -5.843503E+04 -3.348407E+04
       111   3  4.439234E+05  2.584885E+05  8.814038E+04  2.745049E+05 -7.921830E+04 -5.563611E+04
       111   4  5.315091E+05  3.723424E+05  4.132087E+04  4.538048E+05 -2.838688E+04 -1.387972E+04
       111   5  5.375931E+05  3.566722E+05  7.041909E+04  4.375570E+05 -5.957709E+04 -3.434306E+04
       111   6  5.798205E+05  4.584546E+05  1.534876E+05  3.892372E+05 -8.621112E+04 -6.088764E+04
       111   7  6.325434E+05  4.141825E+05  6.632013E+04  4.904476E+05 -2.367839E+04 -1.035031E+04
       111   8  6.554450E+05  4.769736E+05  1.130605E+05  5.132607E+05 -6.071944E+04 -3.520240E+04
       111   9  7.157413E+05  6.584780E+05  2.188313E+05  5.040073E+05 -9.320582E+04 -6.614280E+04
       111  10  4.304863E+05  3.305038E+05  1.631879E+04  4.171671E+05 -1.637935E-10  4.854963E-11
       111  11  4.197529E+05  2.363876E+05  2.776716E+04  3.618710E+05 -7.542862E-10  7.458433E-11
       111  12  4.439158E+05  2.584835E+05  8.812279E+04  2.745013E+05 -1.244193E-10  1.260953E-10
       111  13  5.315082E+05  3.723420E+05  4.131900E+04  4.538045E+05 -6.519697E-10  6.654146E-11
       111  14  5.375890E+05  3.566700E+05  7.041022E+04  4.375554E+05  2.871161E-10  6.939612E-11
       111  15  5.798116E+05  4.584486E+05  1.534667E+05  3.892330E+05 -1.812494E-10  3.703271E-11
       111  16  6.325428E+05  4.141822E+05  6.631888E+04  4.904474E+05 -3.610968E-10 -1.126704E-12
       111  17  6.554407E+05  4.769713E+05  1.130513E+05  5.132590E+05 -8.224282E-10  1.417559E-10
       111  18  7.157309E+05  6.584709E+05  2.188068E+05  5.040024E+05  1.566737E-10  3.786595E-11
       111  19  4.304876E+05  3.305044E+05  1.632141E+04  4.171676E+05  3.309425E+04  1.740873E+04
       111  20  4.197569E+05  2.363897E+05  2.777567E+04  3.618725E+05  5.843503E+04  3.348407E+04
       111  21  4.439234E+05  2.584885E+05  8.814038E+04  2.745049E+05  7.921830E+04  5.563611E+04
       111  22  5.315091E+05  3.723424E+05  4.132087E+04  4.538048E+05  2.838688E+04  1.387972E+04
       111  23  5.375931E+05  3.566722E+05  7.041909E+04  4.375570E+05  5.957709E+04  3.434306E+04
       111  24  5.798205E+05  4.584546E+05  1.534876E+05  3.892372E+05  8.621112E+04  6.088764E+04
       111  25  6.325434E+05  4.141825E+05  6.632013E+04  4.904476E+05  2.367839E+04  1.035031E+04
       111  26  6.554450E+05  4.769736E+05  1.130605E+05  5.132607E+05  6.071944E+04  3.520240E+04
       111  27  7.157413E+05  6.584780E+05  2.188313E+05  5.040073E+05  9.320582E+04  6.614280E+04
       112   1  1.892606E+06  2.880024E+05  2.907051E+05  1.311108E+05  7.207411E+04 -1.218504E+04
       112   2  1.717821E+06  1.995623E+05  2.051804E+05  8.528223E+04  3.353109E+04 -3.672786E+04
       112   3  1.559616E+06  1.562835E+05  1.560284E+05  1.037090E+05 -4.986239E+03 -3.464349E+04
       112   4  9.076943E+05  4.371794E+04  5.247305E+04  1.098861E+05  3.560109E+04 -1.217183E+04
       112   5  9.016768E+05  4.269650E+02  2.440333E+04  7.775060E+04  2.270192E+04 -3.672924E+04
       112   6  9.077942E+05 -2.112006E+03  1.495549E+04  1.098714E+05  9.817340E+03 -3.464547E+04
       112   7 -7.632908E+04 -2.006350E+05 -1.858234E+05  8.869511E+04 -8.144427E+02 -1.215613E+04
       112   8  8.615334E+04 -1.987529E+05 -1.564145E+05  7.022896E+04  1.188678E+04 -3.673035E+04
       112   9  2.563705E+05 -1.605352E+05 -1.261418E+05  1.160271E+05  2.460561E+04 -3.464716E+04
       112  10  1.892600E+06  2.880009E+05  2.906951E+05  1.311115E+05 -1.001288E-11  3.434600E-11
       112  11  1.717819E+06  1.995605E+05  2.051758E+05  8.528322E+04  8.768408E-10  9.923281E-11
       112  12  1.559616E+06  1.562822E+05  1.560261E+05  1.037089E+05  2.152334E-10  2.502903E-10
       112  13  9.076929E+05  4.371744E+04  5.247039E+04  1.098864E+05 -6.196301E-10  1.420658E-10
       112  14  9.016758E+05  4.253775E+02  2.439982E+04  7.775127E+04  7.405939E-10  2.027535E-10
       112  15  9.077938E+05 -2.113322E+03  1.495305E+04  1.098716E+05  6.839944E-10  1.559573E-11
       112  16 -7.632913E+04 -2.006352E+05 -1.858237E+05  8.869510E+04  2.609745E-11  2.004011E-11
       112  17  8.615282E+04 -1.987544E+05 -1.564174E+05  7.022931E+04 -2.853167E-10  8.815461E-11
       112  18  2.563695E+05 -1.605367E+05 -1.261452E+05  1.160278E+05  3.789769E-10 -1.009608E-10
       112  19  1.892606E+06  2.880024E+05  2.907051E+05  1.311108E+05 -7.207411E+04  1.218504E+04
       112  20  1.717821E+06  1.995623E+05  2.051804E+05  8.528223E+04 -3.353109E+04  3.672786E+04
       112  21  1.559616E+06  1.562835E+05  1.560284E+05  1.037090E+05  4.986239E+03  3.464349E+04
       112  22  9.076943E+05  4.371794E+04  5.247305E+04  1.098861E+05 -3.560109E+04  1.217183E+04
       112  23  9.016768E+05  4.269650E+02  2.440333E+04  7.775060E+04 -2.270192E+04  3.672924E+04
       112  24  9.077942E+05 -2.112006E+03  1.495549E+04  1.098714E+05 -9.817340E+03  3.464547E+04
       112  25 -7.632908E+04 -2.006350E+05 -1.858234E+05  8.869511E+04  8.144427E+02  1.215613E+04
       112  26  8.615334E+04 -1.987529E+05 -1.564145E+05  7.022896E+04 -1.188678E+04  3.673035E+04
       112  27  2.563705E+05 -1.605352E+05 -1.261418E+05  1.160271E+05 -2.460561E+04  3.464716E+04
       113   1  1.424963E+06  1.285376E+05  1.253004E+05  1.109566E+05  4.099993E+02 -2.689433E+04
       113   2  1.258807E+06  8.596351E+04  8.500207E+04  7.779768E+04 -4.883902E+03 -1.879290E+04
       113   3  1.094045E+06  4.598606E+04  4.879814E+04  1.097754E+05 -1.018027E+04 -9.532852E+03
       113   4  9.053892E+05  2.178035E+03  1.238907E+04  1.100711E+05  7.640425E+03 -2.689484E+04
       113   5  9.048205E+05 -7.575637E+01  8.359138E+03  7.750194E+04  3.462663E+03 -1.879165E+04
       113   6  9.054256E+05  7.579340E+01  7.652110E+03  1.100716E+05 -7.189566E+02 -9.529441E+03
       113   7  3.860679E+05 -1.241994E+05 -1.005382E+05  1.091863E+05  1.486489E+04 -2.689537E+04
       113   8  5.509516E+05 -8.612325E+04 -6.829097E+04  7.720636E+04  1.180454E+04 -1.879040E+04
       113   9  7.168399E+05 -4.583679E+04 -3.349572E+04  1.103676E+05  8.739527E+03 -9.526021E+03
       113  10  1.424963E+06  1.285368E+05  1.252991E+05  1.109566E+05  1.097552E-10  9.142144E-11
       113  11  1.258807E+06  8.596312E+04  8.500136E+04  7.779760E+04 -1.559353E-10 -2.764213E-10
       113  12  1.094045E+06  4.598594E+04  4.879777E+04  1.097753E+05 -9.871649E-11 -1.462234E-10
       113  13  9.053889E+05  2.177243E+03  1.238760E+04  1.100713E+05  1.108446E-09  7.365984E-11
       113  14  9.048204E+05 -7.613895E+01  8.358452E+03  7.750199E+04  3.561099E-10 -1.644998E-11
       113  15  9.054256E+05  7.569571E+01  7.651938E+03  1.100716E+05 -2.508923E-10  2.437935E-10
       113  16  3.860675E+05 -1.242002E+05 -1.005400E+05  1.091867E+05 -1.614436E-10 -5.186646E-11
       113  17  5.509514E+05 -8.612366E+04 -6.829190E+04  7.720653E+04  6.947915E-11  2.450822E-10
       113  18  7.168398E+05 -4.583691E+04 -3.349604E+04  1.103677E+05  2.559744E-10  2.530832E-10
       113  19  1.424963E+06  1.285376E+05  1.253004E+05  1.109566E+05 -4.099993E+02  2.689433E+04
       113  20  1.258807E+06  8.596351E+04  8.500207E+04  7.779768E+04  4.883902E+03  1.879290E+04
       113  21  1.094045E+06  4.598606E+04  4.879814E+04  1.097754E+05  1.018027E+04  9.532852E+03
       113  22  9.053892E+05  2.178035E+03  1.238907E+04  1.100711E+05 -7.640425E+03  2.689484E+04
       113  23  9.048205E+05 -7.575637E+01  8.359138E+03  7.750194E+04 -3.462663E+03  1.879165E+04
       113  24  9.054256E+05  7.579340E+01  7.652110E+03  1.100716E+05  7.189566E+02  9.529441E+03
       113  25  3.860679E+05 -1.241994E+05 -1.005382E+05  1.091863E+05 -1.486489E+04  2.689537E+04
       113  26  5.509516E+05 -8.612325E+04 -6.829097E+04  7.720636E+04 -1.180454E+04  1.879040E+04
       113  27  7.168399E+05 -4.583679E+04 -3.349572E+04  1.103676E+05 -8.739527E+03  9.526021E+03
       114   1  9.629243E+05  1.381831E+04  2.012398E+04  1.107036E+05 -1.149037E+04 -3.744742E+03
       114   2  7.969335E+05 -2.627448E+04 -1.242257E+04  7.717334E+04 -1.617060E+04  5.576576E+03
       114   3  6.324214E+05 -6.289309E+04 -4.106589E+04  1.087350E+05 -2.084843E+04  1.403035E+04
       114   4  9.055272E+05 -4.894665E+01  8.127128E+03  1.100611E+05 -2.113996E+03 -3.740949E+03
       114   5  9.047209E+05 -5.067774E+01  1.100944E+04  7.751499E+04 -7.629723E+03  5.579450E+03
       114   6  9.055134E+05  3.568217E+03  1.837492E+04  1.100599E+05 -1.314427E+04  1.403245E+04
       114   7  8.481335E+05 -1.391637E+04 -3.869575E+03  1.094186E+05  7.261529E+03 -3.737174E+03
       114   8  1.012519E+06  2.617239E+04  3.444103E+04  7.785669E+04  9.126141E+02  5.582334E+03
       114   9  1.178675E+06  7.002462E+04  7.781148E+04  1.113853E+05 -5.436776E+03  1.403459E+04
       114  10  9.629241E+05  1.381826E+04  2.012371E+04  1.107036E+05  2.470348E-10  1.466681E-10
       114  11  7.969332E+05 -2.627458E+04 -1.242312E+04  7.717341E+04  4.232112E-12  4.229725E-10
       114  12  6.324208E+05 -6.289342E+04 -4.106708E+04  1.087353E+05 -4.297434E-10  2.570434E-10
       114  13  9.055272E+05 -4.896288E+01  8.127094E+03  1.100611E+05  4.402909E-10  2.394692E-11
       114  14  9.047208E+05 -5.072679E+01  1.100927E+04  7.751502E+04  5.913910E-10  6.644286E-11
       114  15  9.055131E+05  3.567960E+03  1.837422E+04  1.100600E+05 -7.003241E-11  9.033975E-11
       114  16  8.481335E+05 -1.391639E+04 -3.869701E+03  1.094187E+05 -1.334515E-10  1.716787E-10
       114  17  1.012519E+06  2.617236E+04  3.444097E+04  7.785669E+04 -3.699237E-10 -1.495493E-10
       114  18  1.178675E+06  7.002440E+04  7.781106E+04  1.113854E+05  3.282448E-10  9.203087E-11
       114  19  9.629243E+05  1.381831E+04  2.012398E+04  1.107036E+05  1.149037E+04  3.744742E+03
       114  20  7.969335E+05 -2.627448E+04 -1.242257E+04  7.717334E+04  1.617060E+04 -5.576576E+03
       114  21  6.324214E+05 -6.289309E+04 -4.106589E+04  1.087350E+05  2.084843E+04 -1.403035E+04
       114  22  9.055272E+05 -4.894665E+01  8.127128E+03  1.100611E+05  2.113996E+03  3.740949E+03
       114  23  9.047209E+05 -5.067774E+01  1.100944E+04  7.751499E+04  7.629723E+03 -5.579450E+03
       114  24  9.055134E+05  3.568217E+03  1.837492E+04  1.100599E+05  1.314427E+04 -1.403245E+04
       114  25  8.481335E+05 -1.391637E+04 -3.869575E+03  1.094186E+05 -7.261529E+03  3.737174E+03
       114  26  1.012519E+06  2.617239E+04  3.444103E+04  7.785669E+04 -9.126141E+02 -5.582334E+03
       114  27  1.178675E+06  7.002462E+04  7.781148E+04  1.113853E+05  5.436776E+03 -1.403459E+04
       115   1  5.045103E+05 -1.016683E+05 -6.506408E+04  1.196046E+05 -2.986711E+04  2.127056E+04
       115   2  3.309277E+05 -1.380985E+05 -8.818809E+04  6.556845E+04 -3.051321E+04  2.512994E+04
       115   3  1.728413E+05 -1.134900E+05 -9.560553E+04  7.590179E+04 -3.116167E+04  8.631569E+03
       115   4  9.093308E+05 -3.207227E+03  2.276052E+04  1.098975E+05 -1.639454E+04  2.127372E+04
       115   5  8.998660E+05  9.015616E+02  3.824279E+04  7.771759E+04 -3.660658E+04  2.512727E+04
       115   6  9.092435E+05  6.941120E+04  8.299225E+04  1.098984E+05 -5.682170E+04  8.631370E+03
       115   7  1.314306E+06  9.524349E+04  1.105761E+05  1.001840E+05 -2.913318E+03  2.127645E+04
       115   8  1.469106E+06  1.398803E+05  1.646537E+05  8.987796E+04 -4.270547E+04  2.512435E+04
       115   9  1.646144E+06  2.522773E+05  2.615540E+05  1.439355E+05 -8.251202E+04  8.628366E+03
       115  10  5.045092E+05 -1.016690E+05 -6.506660E+04  1.196051E+05 -2.261435E-11  2.525431E-10
       115  11  3.309265E+05 -1.380995E+05 -8.819103E+04  6.556907E+04  4.065878E-11  9.692684E-11
       115  12  1.728403E+05 -1.134903E+05 -9.560749E+04  7.590200E+04 -5.692428E-12  3.825366E-11
       115  13  9.093304E+05 -3.207786E+03  2.275917E+04  1.098978E+05 -8.418981E-12  2.158263E-10
       115  14  8.998644E+05  9.005240E+02  3.823909E+04  7.771833E+04  2.139930E-10  1.316341E-10
       115  15  9.092400E+05  6.941026E+04  8.298605E+04  1.098988E+05 -9.307241E-11  1.858231E-11
       115  16  1.314305E+06  9.524300E+04  1.105752E+05  1.001840E+05  5.072977E-10  2.628903E-10
       115  17  1.469104E+06  1.398792E+05  1.646491E+05  8.987883E+04  2.333393E-10  5.364123E-11
       115  18  1.646137E+06  2.522754E+05  2.615411E+05  1.439360E+05 -8.317204E-11 -7.375763E-12
       115  19  5.045103E+05 -1.016683E+05 -6.506408E+04  1.196046E+05  2.986711E+04 -2.127056E+04
       115  20  3.309277E+05 -1.380985E+05 -8.818809E+04  6.556845E+04  3.051321E+04 -2.512994E+04
       115  21  1.728413E+05 -1.134900E+05 -9.560553E+04  7.590179E+04  3.116167E+04 -8.631569E+03
       115  22  9.093308E+05 -3.207227E+03  2.276052E+04  1.098975E+05  1.639454E+04 -2.127372E+04
       115  23  8.998660E+05  9.015616E+02  3.824279E+04  7.771759E+04  3.660658E+04 -2.512727E+04
       115  24  9.092435E+05  6.941120E+04  8.299225E+04  1.098984E+05  5.682170E+04 -8.631370E+03
       115  25  1.314306E+06  9.524349E+04  1.105761E+05  1.001840E+05  2.913318E+03 -2.127645E+04
       115  26  1.469106E+06  1.398803E+05  1.646537E+05  8.987796E+04  4.270547E+04 -2.512435E+04
       115  27  1.646144E+06  2.522773E+05  2.615540E+05  1.439355E+05  8.251202E+04 -8.628366E+03
       116   1 -3.705806E+05 -1.097840E+06 -3.954948E+05  2.371251E+05 -1.004051E+04 -1.506844E+05
       116   2 -1.577361E+05 -8.277012E+05 -2.259068E+05  1.415569E+05 -2.771217E+04 -8.248776E+04
       116   3 -8.822119E+04 -6.023670E+05 -1.366305E+05  1.424841E+05 -2.036735E+04 -1.428614E+04
       116   4 -1.500798E+05 -2.108524E+05 -1.797659E+05  1.641839E+05 -9.990317E+03 -1.217625E+05
       116   5 -1.865377E+03 -1.904774E+05 -8.376772E+04  1.158397E+05 -2.770040E+04 -7.749734E+04
       116   6  7.262431E+03 -2.107462E+05 -5.137842E+04  1.640065E+05 -2.039511E+04 -3.325627E+04
       116   7  7.038364E+04  6.768680E+05  3.591203E+04  9.113782E+04 -9.946980E+03 -9.279926E+04
       116   8  1.539803E+05  4.471267E+05  5.834631E+04  9.009568E+04 -2.768905E+04 -7.250180E+04
       116   9  1.027378E+05  1.810202E+05  3.386603E+04  1.855427E+05 -2.042419E+04 -5.223820E+04
       116  10 -3.705868E+05 -1.097865E+06 -3.955377E+05  2.371239E+05  5.041981E-10 -2.726235E-10
       116  11 -1.577388E+05 -8.277087E+05 -2.259210E+05  1.415551E+05  7.287448E-10  1.303396E-10
       116  12 -8.822169E+04 -6.023674E+05 -1.366316E+05  1.424839E+05  3.774971E-10  4.738686E-10
       116  13 -1.500839E+05 -2.108683E+05 -1.797940E+05  1.641830E+05 -4.834961E-10  9.306079E-11
       116  14 -1.867814E+03 -1.904841E+05 -8.378045E+04  1.158380E+05 -1.141733E-09  1.425924E-10
       116  15  7.261688E+03 -2.107475E+05 -5.138128E+04  1.640060E+05 -1.197692E-11  2.633234E-10
       116  16  7.038123E+04  6.768588E+05  3.589568E+04  9.113708E+04 -1.685466E-10  2.851394E-10
       116  17  1.539781E+05  4.471209E+05  5.833500E+04  9.009407E+04 -8.398429E-10 -2.426888E-10
       116  18  1.027366E+05  1.810172E+05  3.386012E+04  1.855418E+05 -3.257647E-12 -5.631775E-10
       116  19 -3.705806E+05 -1.097840E+06 -3.954948E+05  2.371251E+05  1.004051E+04  1.506844E+05
       116  20 -1.577361E+05 -8.277012E+05 -2.259068E+05  1.415569E+05  2.771217E+04  8.248776E+04
       116  21 -8.822119E+04 -6.023670E+05 -1.366305E+05  1.424841E+05  2.036735E+04  1.428614E+04
       116  22 -1.500798E+05 -2.108524E+05 -1.797659E+05  1.641839E+05  9.990317E+03  1.217625E+05
       116  23 -1.865377E+03 -1.904774E+05 -8.376772E+04  1.158397E+05  2.770040E+04  7.749734E+04
       116  24  7.262431E+03 -2.107462E+05 -5.137842E+04  1.640065E+05  2.039511E+04  3.325627E+04
       116  25  7.038364E+04  6.768680E+05  3.591203E+04  9.113782E+04  9.946980E+03  9.279926E+04
       116  26  1.539803E+05  4.471267E+05  5.834631E+04  9.009568E+04  2.768905E+04  7.250180E+04
       116  27  1.027378E+05  1.810202E+05  3.386603E+04  1.855427E+05  2.042419E+04  5.223820E+04
       117   1 -5.443261E+04 -3.972346E+05 -8.516568E+04  1.673799E+05 -9.849538E+03 -1.361046E+04
       117   2  1.345214E+04 -1.472754E+05 -1.758006E+04  1.158816E+05  2.837172E+03  8.347994E+02
       117   3  7.077757E+04  9.792251E+04  3.787840E+04  1.619280E+05  1.539919E+04  1.528676E+04
       117   4 -7.039293E+03 -2.027667E+05 -4.267501E+04  1.642842E+05 -9.868085E+03 -2.582646E+04
       117   5  5.338477E+02 -2.003514E+05 -2.907936E+04  1.155077E+05  2.819208E+03 -1.126069E+04
       117   6 -2.468761E+03 -2.027738E+05 -2.768877E+04  1.642774E+05  1.538173E+04  3.306195E+03
       117   7  4.035163E+04 -8.262962E+03 -1.860599E+02  1.611875E+05 -9.886507E+03 -3.804624E+04
       117   8 -1.238455E+04 -2.534244E+05 -4.057829E+04  1.151337E+05  2.801257E+03 -2.335517E+04
       117   9 -7.572101E+04 -5.033850E+05 -9.326085E+04  1.666256E+05  1.536417E+04 -8.668642E+03
       117  10 -5.443277E+04 -3.972349E+05 -8.516621E+04  1.673798E+05  2.402741E-10 -2.068294E-10
       117  11  1.345213E+04 -1.472754E+05 -1.758007E+04  1.158816E+05  5.461671E-10  1.210767E-10
       117  12  7.077725E+04  9.792220E+04  3.787752E+04  1.619278E+05  1.253454E-10  1.303878E-10
       117  13 -7.039576E+03 -2.027674E+05 -4.267645E+04  1.642840E+05 -1.333854E-10  5.035092E-11
       117  14  5.338051E+02 -2.003515E+05 -2.907962E+04  1.155077E+05  1.575348E-10  1.084647E-10
       117  15 -2.469018E+03 -2.027738E+05 -2.768924E+04  1.642774E+05 -1.715362E-10  1.433269E-10
       117  16  4.035113E+04 -8.264543E+03 -1.889633E+02  1.611872E+05 -6.663281E-11  3.304914E-10
       117  17 -1.238471E+04 -2.534249E+05 -4.057933E+04  1.151338E+05  1.659402E-10 -1.598492E-10
       117  18 -7.572128E+04 -5.033851E+05 -9.326144E+04  1.666257E+05  1.715720E-10 -2.471711E-10
       117  19 -5.443261E+04 -3.972346E+05 -8.516568E+04  1.673799E+05  9.849538E+03  1.361046E+04
       117  20  1.345214E+04 -1.472754E+05 -1.758006E+04  1.158816E+05 -2.837172E+03 -8.347994E+02
       117  21  7.077757E+04  9.792251E+04  3.787840E+04  1.619280E+05 -1.539919E+04 -1.528676E+04
       117  22 -7.039293E+03 -2.027667E+05 -4.267501E+04  1.642842E+05  9.868085E+03  2.582646E+04
       117  23  5.338477E+02 -2.003514E+05 -2.907936E+04  1.155077E+05 -2.819208E+03  1.126069E+04
       117  24 -2.468761E+03 -2.027738E+05 -2.768877E+04  1.642774E+05 -1.538173E+04 -3.306195E+03
       117  25  4.035163E+04 -8.262962E+03 -1.860599E+02  1.611875E+05  9.886507E+03  3.804624E+04
       117  26 -1.238455E+04 -2.534244E+05 -4.057829E+04  1.151337E+05 -2.801257E+03  2.335517E+04
       117  27 -7.572101E+04 -5.033850E+05 -9.326085E+04  1.666256E+05 -1.536417E+04  8.668642E+03
       118   1  1.243768E+05  2.923579E+05  7.915887E+04  1.734809E+05  2.613438E+04  2.745593E+04
       118   2  1.810510E+05  5.467980E+05  1.260163E+05  1.048732E+05  3.261013E+04  2.161497E+04
       118   3  1.819331E+05  7.880770E+05  1.627113E+05  1.325755E+05  1.138889E+04  1.579618E+04
       118   4  3.101067E+03 -2.057003E+05 -2.904618E+04  1.639891E+05  2.610750E+04  7.918642E+03
       118   5 -7.086279E+02 -1.968300E+05 -3.947979E+04  1.158622E+05  3.262153E+04  2.866613E+04
       118   6 -6.496128E+04 -2.058151E+05 -7.855345E+04  1.640595E+05  1.142330E+04  4.943723E+04
       118   7 -1.181906E+05 -7.035248E+05 -1.372646E+05  1.545049E+05  2.608121E+04 -1.160318E+04
       118   8 -1.825053E+05 -9.399422E+05 -2.050101E+05  1.268377E+05  3.263319E+04  3.570892E+04
       118   9 -3.119238E+05 -1.198801E+06 -3.198847E+05  1.954927E+05  1.146116E+04  8.302458E+04
       118  10  1.243759E+05  2.923569E+05  7.915617E+04  1.734803E+05  5.757216E-10  3.151172E-12
       118  11  1.810498E+05  5.467973E+05  1.260134E+05  1.048726E+05  5.432612E-10  1.675306E-10
       118  12  1.819329E+05  7.880767E+05  1.627106E+05  1.325753E+05 -4.478920E-10 -2.322149E-10
       118  13  3.100318E+03 -2.057005E+05 -2.904758E+04  1.639889E+05  1.329921E-09  4.791535E-11
       118  14 -7.099910E+02 -1.968312E+05 -3.948334E+04  1.158615E+05  1.515591E-10  1.529845E-11
       118  15 -6.496208E+04 -2.058178E+05 -7.855829E+04  1.640591E+05 -5.628041E-11  3.481300E-11
       118  16 -1.181913E+05 -7.035251E+05 -1.372661E+05  1.545052E+05  3.073050E-10  1.113233E-10
       118  17 -1.825067E+05 -9.399439E+05 -2.050145E+05  1.268368E+05  1.548819E-11 -1.706935E-10
       118  18 -3.119258E+05 -1.198809E+06 -3.198980E+05  1.954919E+05  9.902123E-12  1.236598E-10
       118  19  1.243768E+05  2.923579E+05  7.915887E+04  1.734809E+05 -2.613438E+04 -2.745593E+04
       118  20  1.810510E+05  5.467980E+05  1.260163E+05  1.048732E+05 -3.261013E+04 -2.161497E+04
       118  21  1.819331E+05  7.880770E+05  1.627113E+05  1.325755E+05 -1.138889E+04 -1.579618E+04
       118  22  3.101067E+03 -2.057003E+05 -2.904618E+04  1.639891E+05 -2.610750E+04 -7.918642E+03
       118  23 -7.086279E+02 -1.968300E+05 -3.947979E+04  1.158622E+05 -3.262153E+04 -2.866613E+04
       118  24 -6.496128E+04 -2.058151E+05 -7.855345E+04  1.640595E+05 -1.142330E+04 -4.943723E+04
       118  25 -1.181906E+05 -7.035248E+05 -1.372646E+05  1.545049E+05 -2.608121E+04  1.160318E+04
       118  26 -1.825053E+05 -9.399422E+05 -2.050101E+05  1.268377E+05 -3.263319E+04 -3.570892E+04
       118  27 -3.119238E+05 -1.198801E+06 -3.198847E+05  1.954927E+05 -1.146116E+04 -8.302458E+04
       119   1  1.072774E+06  8.104007E+05  2.205587E+05  7.421100E+05  1.054074E+05  7.610570E+04
       119   2  1.043973E+06  6.525050E+05  1.170374E+05  7.844845E+05  7.006001E+04  4.343712E+04
       119   3  1.086595E+06  6.039320E+05  7.953879E+04  7.810821E+05  3.202512E+04  1.435876E+04
       119   4  1.018329E+06  6.509617E+05  1.792151E+05  6.595544E+05  9.986478E+04  7.193559E+04
       119   5  9.548092E+05  5.463937E+05  8.238063E+04  7.201429E+05  6.796684E+04  4.186490E+04
       119   6  9.619751E+05  5.504076E+05  4.858607E+04  7.349514E+05  3.338409E+04  1.537800E+04
       119   7  9.638957E+05  4.915676E+05  1.378726E+05  5.770143E+05  9.432270E+04  6.776794E+04
       119   8  8.656547E+05  4.402978E+05  4.772256E+04  6.558142E+05  6.587405E+04  4.029324E+04
       119   9  8.373718E+05  4.968854E+05  1.763202E+04  6.888284E+05  3.474270E+04  1.639712E+04
       119  10  1.072760E+06  8.103915E+05  2.205270E+05  7.421035E+05  1.079470E-11 -1.546213E-11
       119  11  1.043967E+06  6.525016E+05  1.170246E+05  7.844821E+05  8.336088E-10  3.035608E-10
       119  12  1.086594E+06  6.039315E+05  7.953648E+04  7.810817E+05  8.487957E-11 -6.282155E-10
       119  13  1.018317E+06  6.509535E+05  1.791867E+05  6.595486E+05 -1.319022E-09  1.250330E-10
       119  14  9.548038E+05  5.463906E+05  8.236868E+04  7.201407E+05  5.833417E-11  1.737637E-10
       119  15  9.619739E+05  5.504071E+05  4.858354E+04  7.349510E+05 -5.325185E-10  2.159233E-10
       119  16  9.638850E+05  4.915603E+05  1.378473E+05  5.770092E+05  8.809532E-10  2.040615E-10
       119  17  8.656496E+05  4.402948E+05  4.771137E+04  6.558121E+05 -7.074693E-10  4.323662E-10
       119  18  8.373704E+05  4.968848E+05  1.762926E+04  6.888280E+05 -1.034943E-10  9.715392E-10
       119  19  1.072774E+06  8.104007E+05  2.205587E+05  7.421100E+05 -1.054074E+05 -7.610570E+04
       119  20  1.043973E+06  6.525050E+05  1.170374E+05  7.844845E+05 -7.006001E+04 -4.343712E+04
       119  21  1.086595E+06  6.039320E+05  7.953879E+04  7.810821E+05 -3.202512E+04 -1.435876E+04
       119  22  1.018329E+06  6.509617E+05  1.792151E+05  6.595544E+05 -9.986478E+04 -7.193559E+04
       119  23  9.548092E+05  5.463937E+05  8.238063E+04  7.201429E+05 -6.796684E+04 -4.186490E+04
       119  24  9.619751E+05  5.504076E+05  4.858607E+04  7.349514E+05 -3.338409E+04 -1.537800E+04
       119  25  9.638957E+05  4.915676E+05  1.378726E+05  5.770143E+05 -9.432270E+04 -6.776794E+04
       119  26  8.656547E+05  4.402978E+05  4.772256E+04  6.558142E+05 -6.587405E+04 -4.029324E+04
       119  27  8.373718E+05  4.968854E+05  1.763202E+04  6.888284E+05 -3.474270E+04 -1.639712E+04
       120   1  1.055630E+06  6.275386E+05  6.762619E+04  7.727863E+05  2.703563E+04  1.165392E+04
       120   2  1.046283E+06  6.103300E+05  4.802200E+04  7.694464E+05  1.757515E+04  5.241980E+03
       120   3  1.036661E+06  6.043621E+05  3.773273E+04  7.656027E+05  7.996091E+03 -1.010879E+03
       120   4  9.619267E+05  5.568211E+05  3.891860E+04  7.239880E+05  2.737203E+04  1.190563E+04
       120   5  9.606301E+05  5.486270E+05  2.239817E+04  7.261855E+05  1.806588E+04  5.609477E+03
       120   6  9.590257E+05  5.516410E+05  1.506041E+04  7.278791E+05  8.640942E+03 -5.278227E+02
       120   7  8.682339E+05  4.861100E+05  1.021032E+04  6.751988E+05  2.770837E+04  1.215729E+04
       120   8  8.749855E+05  4.869286E+05 -3.226320E+03  6.829316E+05  1.855652E+04  5.976903E+03
       120   9  8.813966E+05  4.989230E+05 -7.612546E+03  6.901607E+05  9.285683E+03 -4.484461E+01
       120  10  1.055629E+06  6.275382E+05  6.762457E+04  7.727860E+05 -6.186840E-09 -6.305718E-09
       120  11  1.046283E+06  6.103299E+05  4.802137E+04  7.694463E+05 -3.196561E-09 -3.581936E-09
       120  12  1.036661E+06  6.043621E+05  3.773261E+04  7.656027E+05  3.352517E-09  3.304025E-09
       120  13  9.619259E+05  5.568207E+05  3.891693E+04  7.239877E+05 -1.550257E-09 -1.477092E-09
       120  14  9.606297E+05  5.486269E+05  2.239750E+04  7.261854E+05 -1.926450E-09 -3.518975E-09
       120  15  9.590256E+05  5.516410E+05  1.506027E+04  7.278791E+05 -1.440024E-09 -1.451818E-09
       120  16  8.682331E+05  4.861096E+05  1.020860E+04  6.751985E+05  3.487730E-09  3.585638E-09
       120  17  8.749851E+05  4.869285E+05 -3.227033E+03  6.829316E+05 -3.487268E-09 -3.794092E-09
       120  18  8.813965E+05  4.989230E+05 -7.612708E+03  6.901607E+05 -6.619895E-09 -6.531948E-09
       120  19  1.055630E+06  6.275386E+05  6.762619E+04  7.727863E+05 -2.703563E+04 -1.165392E+04
       120  20  1.046283E+06  6.103300E+05  4.802200E+04  7.694464E+05 -1.757515E+04 -5.241980E+03
       120  21  1.036661E+06  6.043621E+05  3.773273E+04  7.656027E+05 -7.996091E+03  1.010879E+03
       120  22  9.619267E+05  5.568211E+05  3.891860E+04  7.239880E+05 -2.737203E+04 -1.190563E+04
       120  23  9.606301E+05  5.486270E+05  2.239817E+04  7.261855E+05 -1.806588E+04 -5.609477E+03
       120  24  9.590257E+05  5.516410E+05  1.506041E+04  7.278791E+05 -8.640942E+03  5.278227E+02
       120  25  8.682339E+05  4.861100E+05  1.021032E+04  6.751988E+05 -2.770837E+04 -1.215729E+04
       120  26  8.749855E+05  4.869286E+05 -3.226320E+03  6.829316E+05 -1.855652E+04 -5.976903E+03
       120  27  8.813966E+05  4.989230E+05 -7.612546E+03  6.901607E+05 -9.285683E+03  4.484461E+01
       121   1  1.027401E+06  6.004108E+05  3.357478E+04  7.615023E+05  5.744023E+03 -2.101545E+03
       121   2  1.019630E+06  5.904845E+05  2.989138E+04  7.558173E+05  3.194093E+02 -5.195462E+03
       121   3  1.007810E+06  5.866839E+05  3.048909E+04  7.516445E+05 -5.108165E+03 -8.285460E+03
       121   4  9.589699E+05  5.518935E+05  1.329379E+04  7.272918E+05  6.339677E+03 -1.655330E+03
       121   5  9.610220E+05  5.488804E+05  1.248677E+04  7.264985E+05  9.194002E+02 -4.745953E+03
       121   6  9.590248E+05  5.519919E+05  1.595749E+04  7.272173E+05 -4.503891E+03 -7.832700E+03
       121   7  8.905434E+05  5.033784E+05 -6.987953E+03  6.930852E+05  6.935249E+03 -1.209177E+03
       121   8  9.024181E+05  5.072781E+05 -4.918228E+03  6.971828E+05  1.519314E+03 -4.296501E+03
       121   9  9.102428E+05  5.173017E+05  1.425793E+03  7.027926E+05 -3.899687E+03 -7.379992E+03
       121  10  1.027401E+06  6.004108E+05  3.357471E+04  7.615023E+05 -4.358021E-11  7.086454E-10
       121  11  1.019630E+06  5.904845E+05  2.989133E+04  7.558173E+05  3.855156E-10  5.862471E-10
       121  12  1.007810E+06  5.866838E+05  3.048892E+04  7.516445E+05  5.722239E-10  4.634511E-10
       121  13  9.589699E+05  5.518935E+05  1.329371E+04  7.272918E+05 -8.604049E-11 -1.017323E-10
       121  14  9.610220E+05  5.488803E+05  1.248672E+04  7.264985E+05  1.314432E-09  3.459888E-10
       121  15  9.590248E+05  5.519919E+05  1.595734E+04  7.272173E+05 -1.470738E-10  3.514430E-10
       121  16  8.905434E+05  5.033783E+05 -6.988046E+03  6.930852E+05  3.870707E-10 -6.194276E-10
       121  17  9.024181E+05  5.072781E+05 -4.918267E+03  6.971828E+05  4.729082E-10  2.608811E-10
       121  18  9.102428E+05  5.173016E+05  1.425663E+03  7.027925E+05 -3.737198E-10  1.360036E-10
       121  19  1.027401E+06  6.004108E+05  3.357478E+04  7.615023E+05 -5.744023E+03  2.101545E+03
       121  20  1.019630E+06  5.904845E+05  2.989138E+04  7.558173E+05 -3.194093E+02  5.195462E+03
       121  21  1.007810E+06  5.866839E+05  3.048909E+04  7.516445E+05  5.108165E+03  8.285460E+03
       121  22  9.589699E+05  5.518935E+05  1.329379E+04  7.272918E+05 -6.339677E+03  1.655330E+03
       121  23  9.610220E+05  5.488804E+05  1.248677E+04  7.264985E+05 -9.194002E+02  4.745953E+03
       121  24  9.590248E+05  5.519919E+05  1.595749E+04  7.272173E+05  4.503891E+03  7.832700E+03
       121  25  8.905434E+05  5.033784E+05 -6.987953E+03  6.930852E+05 -6.935249E+03  1.209177E+03
       121  26  9.024181E+05  5.072781E+05 -4.918228E+03  6.971828E+05 -1.519314E+03  4.296501E+03
       121  27  9.102428E+05  5.173017E+05  1.425793E+03  7.027926E+05  3.899687E+03  7.379992E+03
       122   1  9.983520E+05  5.826741E+05  3.140936E+04  7.492204E+05 -7.876514E+03 -9.788601E+03
       122   2  9.926120E+05  5.698773E+05  4.011536E+04  7.414790E+05 -2.068532E+04 -1.841755E+04
       122   3  9.887228E+05  5.707357E+05  6.154710E+04  7.322877E+05 -3.348427E+04 -2.705983E+04
       122   4  9.591793E+05  5.516041E+05  1.924651E+04  7.281051E+05 -7.272791E+03 -9.336188E+03
       122   5  9.603349E+05  5.484903E+05  3.079801E+04  7.260393E+05 -2.009363E+04 -1.797423E+04
       122   6  9.633439E+05  5.590346E+05  5.508605E+04  7.225234E+05 -3.290485E+04 -2.662596E+04
       122   7  9.200082E+05  5.205352E+05  7.083472E+03  7.069914E+05 -6.669120E+03 -8.883819E+03
       122   8  9.280586E+05  5.271036E+05  2.148049E+04  7.106004E+05 -1.950198E+04 -1.753094E+04
       122   9  9.379655E+05  5.473335E+05  4.862489E+04  7.127593E+05 -3.232545E+04 -2.619210E+04
       122  10  9.983519E+05  5.826740E+05  3.140907E+04  7.492203E+05 -3.890504E-10  1.123412E-10
       122  11  9.926115E+05  5.698768E+05  4.011393E+04  7.414787E+05  9.667208E-11 -6.368648E-11
       122  12  9.887214E+05  5.707347E+05  6.154362E+04  7.322870E+05 -8.218276E-10  5.775806E-11
       122  13  9.591792E+05  5.516040E+05  1.924625E+04  7.281050E+05 -2.131539E-10 -5.898129E-11
       122  14  9.603343E+05  5.484898E+05  3.079665E+04  7.260390E+05  8.510178E-10  1.214259E-11
       122  15  9.633425E+05  5.590335E+05  5.508270E+04  7.225227E+05  1.707222E-10  3.613565E-10
       122  16  9.200081E+05  5.205351E+05  7.083241E+03  7.069913E+05 -1.011445E-09 -3.268451E-10
       122  17  9.280582E+05  5.271032E+05  2.147920E+04  7.106001E+05  3.529088E-10  3.712044E-11
       122  18  9.379642E+05  5.473324E+05  4.862164E+04  7.127587E+05  4.217499E-10  7.937770E-10
       122  19  9.983520E+05  5.826741E+05  3.140936E+04  7.492204E+05  7.876514E+03  9.788601E+03
       122  20  9.926120E+05  5.698773E+05  4.011536E+04  7.414790E+05  2.068532E+04  1.841755E+04
       122  21  9.887228E+05  5.707357E+05  6.154710E+04  7.322877E+05  3.348427E+04  2.705983E+04
       122  22  9.591793E+05  5.516041E+05  1.924651E+04  7.281051E+05  7.272791E+03  9.336188E+03
       122  23  9.603349E+05  5.484903E+05  3.079801E+04  7.260393E+05  2.009363E+04  1.797423E+04
       122  24  9.633439E+05  5.590346E+05  5.508605E+04  7.225234E+05  3.290485E+04  2.662596E+04
       122  25  9.200082E+05  5.205352E+05  7.083472E+03  7.069914E+05  6.669120E+03  8.883819E+03
       122  26  9.280586E+05  5.271036E+05  2.148049E+04  7.106004E+05  1.950198E+04  1.753094E+04
       122  27  9.379655E+05  5.473335E+05  4.862489E+04  7.127593E+05  3.232545E+04  2.619210E+04
       123   1  9.482977E+05  5.889258E+05  7.327938E+04  7.537922E+05 -4.166075E+04 -3.259439E+04
       123   2  9.924520E+05  5.122575E+05  1.191665E+05  7.089959E+05 -9.172922E+04 -6.924680E+04
       123   3  1.140263E+06  5.889543E+05  2.551855E+05  5.978352E+05 -1.416115E+05 -1.061427E+05
       123   4  9.633995E+05  5.498655E+05  6.915303E+04  7.382618E+05 -4.101128E+04 -3.210446E+04
       123   5  9.519977E+05  5.452493E+05  1.179234E+05  7.173626E+05 -9.132007E+04 -6.894887E+04
       123   6  1.044290E+06  6.940374E+05  2.570357E+05  6.301021E+05 -1.414358E+05 -1.060486E+05
       123   7  9.785030E+05  5.108094E+05  6.502720E+04  7.227313E+05 -4.036178E+04 -3.161461E+04
       123   8  9.115480E+05  5.782450E+05  1.166812E+05  7.257280E+05 -9.091096E+04 -6.865089E+04
       123   9  9.483467E+05  7.991571E+05  2.588918E+05  6.623608E+05 -1.412602E+05 -1.059544E+05
       123  10  9.482956E+05  5.889242E+05  7.327413E+04  7.537911E+05 -2.163314E-10  4.262223E-10
       123  11  9.924417E+05  5.122501E+05  1.191417E+05  7.089908E+05  3.162257E-10  1.466759E-10
       123  12  1.140239E+06  5.889368E+05  2.551268E+05  5.978231E+05  1.515074E-10  2.115178E-10
       123  13  9.633974E+05  5.498639E+05  6.914794E+04  7.382607E+05 -2.789177E-10  4.508037E-10
       123  14  9.519875E+05  5.452419E+05  1.178989E+05  7.173575E+05 -8.313192E-10  3.596890E-10
       123  15  1.044266E+06  6.940200E+05  2.569771E+05  6.300901E+05  5.152911E-10  1.650012E-10
       123  16  9.785010E+05  5.108079E+05  6.502227E+04  7.227303E+05  2.358265E-12  4.846016E-10
       123  17  9.115378E+05  5.782377E+05  1.166568E+05  7.257230E+05  2.239984E-10  2.785523E-10
       123  18  9.483223E+05  7.991397E+05  2.588333E+05  6.623488E+05 -3.965393E-10  2.689549E-11
       123  19  9.482977E+05  5.889258E+05  7.327938E+04  7.537922E+05  4.166075E+04  3.259439E+04
       123  20  9.924520E+05  5.122575E+05  1.191665E+05  7.089959E+05  9.172922E+04  6.924680E+04
       123  21  1.140263E+06  5.889543E+05  2.551855E+05  5.978352E+05  1.416115E+05  1.061427E+05
       123  22  9.633995E+05  5.498655E+05  6.915303E+04  7.382618E+05  4.101128E+04  3.210446E+04
       123  23  9.519977E+05  5.452493E+05  1.179234E+05  7.173626E+05  9.132007E+04  6.894887E+04
       123  24  1.044290E+06  6.940374E+05  2.570357E+05  6.301021E+05  1.414358E+05  1.060486E+05
       123  25  9.785030E+05  5.108094E+05  6.502720E+04  7.227313E+05  4.036178E+04  3.161461E+04
       123  26  9.115480E+05  5.782450E+05  1.166812E+05  7.257280E+05  9.091096E+04  6.865089E+04
       123  27  9.483467E+05  7.991571E+05  2.588918E+05  6.623608E+05  1.412602E+05  1.059544E+05
       124   1  1.547987E+06  2.193361E+05  2.336383E+05  1.044812E+05  9.207012E+04 -6.439261E+03
       124   2  1.442921E+06  1.063478E+05  1.450318E+05  5.856447E+04  5.221141E+04 -1.935122E+04
       124   3  1.364388E+06  7.852244E+04  1.036302E+05  4.812174E+04  1.236300E+04 -1.806392E+04
       124   4  1.024070E+06  8.937437E+04  1.068738E+05  6.066999E+04  7.278435E+04 -6.442550E+03
       124   5  1.012017E+06  1.192853E+03  4.955159E+04  4.292980E+04  4.660107E+04 -1.935315E+04
       124   6  1.024139E+06 -4.165061E+03  2.997506E+04  6.065969E+04  2.042130E+04 -1.806370E+04
       124   7  5.004082E+05 -4.060005E+04 -1.990807E+04  1.689582E+04  5.351475E+04 -6.443127E+03
       124   8  5.812871E+05 -1.039737E+05 -4.593986E+04  2.730608E+04  4.099456E+04 -1.935480E+04
       124   9  6.839985E+05 -8.685958E+04 -4.368665E+04  7.319067E+04  2.847525E+04 -1.806314E+04
       124  10  1.547978E+06  2.193338E+05  2.336224E+05  1.044816E+05  9.604223E-11 -8.176907E-12
       124  11  1.442918E+06  1.063467E+05  1.450260E+05  5.856528E+04 -1.151791E-09 -8.133424E-11
       124  12  1.364388E+06  7.852205E+04  1.036293E+05  4.812192E+04  1.494011E-10  9.988995E-11
       124  13  1.024064E+06  8.937291E+04  1.068638E+05  6.067037E+04 -7.364111E-11  1.075231E-10
       124  14  1.012015E+06  1.191869E+03  4.954681E+04  4.293053E+04 -8.269598E-10  1.375058E-10
       124  15  1.024138E+06 -4.165524E+03  2.997366E+04  6.065998E+04  9.522748E-10  6.151302E-12
       124  16  5.004051E+05 -4.060086E+04 -1.991353E+04  1.689609E+04  1.717124E-10  4.811044E-11
       124  17  5.812852E+05 -1.039746E+05 -4.594372E+04  2.730672E+04  4.885919E-10  3.281482E-10
       124  18  6.839975E+05 -8.686014E+04 -4.368879E+04  7.319109E+04 -4.482218E-11 -1.282985E-10
       124  19  1.547987E+06  2.193361E+05  2.336383E+05  1.044812E+05 -9.207012E+04  6.439261E+03
       124  20  1.442921E+06  1.063478E+05  1.450318E+05  5.856447E+04 -5.221141E+04  1.935122E+04
       124  21  1.364388E+06  7.852244E+04  1.036302E+05  4.812174E+04 -1.236300E+04  1.806392E+04
       124  22  1.024070E+06  8.937437E+04  1.068738E+05  6.066999E+04 -7.278435E+04  6.442550E+03
       124  23  1.012017E+06  1.192853E+03  4.955159E+04  4.292980E+04 -4.660107E+04  1.935315E+04
       124  24  1.024139E+06 -4.165061E+03  2.997506E+04  6.065969E+04 -2.042130E+04  1.806370E+04
       124  25  5.004082E+05 -4.060005E+04 -1.990807E+04  1.689582E+04 -5.351475E+04  6.443127E+03
       124  26  5.812871E+05 -1.039737E+05 -4.593986E+04  2.730608E+04 -4.099456E+04  1.935480E+04
       124  27  6.839985E+05 -8.685958E+04 -4.368665E+04  7.319067E+04 -2.847525E+04  1.806314E+04
       125   1  1.286611E+06  6.955083E+04  8.269351E+04  6.248161E+04  1.207267E+04 -1.382867E+04
       125   2  1.194206E+06  4.265498E+04  5.398633E+04  4.329178E+04  3.542657E+03 -9.333687E+03
       125   3  1.104139E+06  2.064461E+04  3.204480E+04  6.002590E+04 -4.987330E+03 -4.222928E+03
       125   4  1.019264E+06  4.529480E+03  2.458875E+04  6.076306E+04  1.609549E+04 -1.382856E+04
       125   5  1.018156E+06 -1.361096E+02  1.586304E+04  4.280124E+04  8.160207E+03 -9.333029E+03
       125   6  1.019278E+06 -1.729896E+01  1.349345E+04  6.076384E+04  2.237360E+02 -4.221644E+03
       125   7  7.519844E+05 -6.049658E+04 -3.352023E+04  5.904525E+04  2.011661E+04 -1.382848E+04
       125   8  8.421355E+05 -4.292923E+04 -2.226201E+04  4.231084E+04  1.277647E+04 -9.332378E+03
       125   9  9.344235E+05 -2.067967E+04 -5.058233E+03  6.150169E+04  5.434099E+03 -4.220348E+03
       125  10  1.286611E+06  6.955059E+04  8.269288E+04  6.248175E+04 -3.649217E-10  1.286138E-10
       125  11  1.194206E+06  4.265488E+04  5.398614E+04  4.329180E+04 -5.017877E-10  5.098259E-11
       125  12  1.104139E+06  2.064458E+04  3.204472E+04  6.002588E+04 -5.044664E-10 -1.358101E-10
       125  13  1.019264E+06  4.529205E+03  2.458790E+04  6.076324E+04  4.388773E-11 -3.647850E-11
       125  14  1.018156E+06 -1.362210E+02  1.586275E+04  4.280130E+04  1.036268E-10  1.197099E-10
       125  15  1.019278E+06 -1.731812E+01  1.349342E+04  6.076384E+04 -1.671747E-10 -1.020228E-10
       125  16  7.519839E+05 -6.049690E+04 -3.352135E+04  5.904548E+04  7.393343E-10 -1.649264E-10
       125  17  8.421353E+05 -4.292937E+04 -2.226248E+04  4.231094E+04 -2.047895E-10 -1.467990E-10
       125  18  9.344235E+05 -2.067969E+04 -5.058322E+03  6.150171E+04 -3.406405E-10  5.494829E-12
       125  19  1.286611E+06  6.955083E+04  8.269351E+04  6.248161E+04 -1.207267E+04  1.382867E+04
       125  20  1.194206E+06  4.265498E+04  5.398633E+04  4.329178E+04 -3.542657E+03  9.333687E+03
       125  21  1.104139E+06  2.064461E+04  3.204480E+04  6.002590E+04  4.987330E+03  4.222928E+03
       125  22  1.019264E+06  4.529480E+03  2.458875E+04  6.076306E+04 -1.609549E+04  1.382856E+04
       125  23  1.018156E+06 -1.361096E+02  1.586304E+04  4.280124E+04 -8.160207E+03  9.333029E+03
       125  24  1.019278E+06 -1.729896E+01  1.349345E+04  6.076384E+04 -2.237360E+02  4.221644E+03
       125  25  7.519844E+05 -6.049658E+04 -3.352023E+04  5.904525E+04 -2.011661E+04  1.382848E+04
       125  26  8.421355E+05 -4.292923E+04 -2.226201E+04  4.231084E+04 -1.277647E+04  9.332378E+03
       125  27  9.344235E+05 -2.067967E+04 -5.058233E+03  6.150169E+04 -5.434099E+03  4.220348E+03
       126   1  1.031853E+06  2.889092E+03  1.630153E+04  6.170998E+04 -7.363773E+03 -1.031399E+03
       126   2  9.394622E+05 -1.925493E+04  6.269840E+02  4.227842E+04 -1.573780E+04  4.102984E+03
       126   3  8.495433E+05 -3.586105E+04 -8.220142E+03  5.874777E+04 -2.411017E+04  8.736480E+03
       126   4  1.019350E+06 -1.049858E+02  1.382262E+04  6.075859E+04 -2.186365E+03 -1.030019E+03
       126   5  1.018072E+06 -1.370109E+02  1.769103E+04  4.280779E+04 -1.104306E+04  4.103990E+03
       126   6  1.019340E+06  5.452391E+03  2.872084E+04  6.075739E+04 -1.989928E+04  8.737132E+03
       126   7  1.006847E+06 -3.099056E+03  1.134381E+04  5.980722E+04  2.990941E+03 -1.028655E+03
       126   8  1.096687E+06  1.898052E+04  3.475479E+04  4.333723E+04 -6.347724E+03  4.105004E+03
       126   9  1.189165E+06  4.676394E+04  6.566017E+04  6.276757E+04 -1.568725E+04  8.737811E+03
       126  10  1.031853E+06  2.889077E+03  1.630143E+04  6.170997E+04 -7.926937E-11 -8.820984E-11
       126  11  9.394619E+05 -1.925502E+04  6.264876E+02  4.227847E+04  4.831886E-10 -4.886181E-11
       126  12  8.495426E+05 -3.586128E+04 -8.221376E+03  5.874794E+04  6.298357E-10 -1.400099E-11
       126  13  1.019350E+06 -1.049882E+02  1.382261E+04  6.075859E+04  3.367361E-10 -5.870370E-11
       126  14  1.018072E+06 -1.370617E+02  1.769077E+04  4.280783E+04  8.114267E-10 -1.979503E-10
       126  15  1.019340E+06  5.452203E+03  2.871995E+04  6.075753E+04  7.465893E-10 -6.269073E-11
       126  16  1.006847E+06 -3.099059E+03  1.134379E+04  5.980723E+04  1.555781E-10 -7.087724E-11
       126  17  1.096687E+06  1.898049E+04  3.475468E+04  4.333725E+04  1.723493E-10 -1.017373E-10
       126  18  1.189164E+06  4.676379E+04  6.565956E+04  6.276768E+04  1.075808E-10  2.136737E-10
       126  19  1.031853E+06  2.889092E+03  1.630153E+04  6.170998E+04  7.363773E+03  1.031399E+03
       126  20  9.394622E+05 -1.925493E+04  6.269840E+02  4.227842E+04  1.573780E+04 -4.102984E+03
       126  21  8.495433E+05 -3.586105E+04 -8.220142E+03  5.874777E+04  2.411017E+04 -8.736480E+03
       126  22  1.019350E+06 -1.049858E+02  1.382262E+04  6.075859E+04  2.186365E+03  1.030019E+03
       126  23  1.018072E+06 -1.370109E+02  1.769103E+04  4.280779E+04  1.104306E+04 -4.103990E+03
       126  24  1.019340E+06  5.452391E+03  2.872084E+04  6.075739E+04  1.989928E+04 -8.737132E+03
       126  25  1.006847E+06 -3.099056E+03  1.134381E+04  5.980722E+04 -2.990941E+03  1.028655E+03
       126  26  1.096687E+06  1.898052E+04  3.475479E+04  4.333723E+04  6.347724E+03 -4.105004E+03
       126  27  1.189165E+06  4.676394E+04  6.566017E+04  6.276757E+04  1.568725E+04 -8.737811E+03
       127   1  7.827032E+05 -6.392339E+04 -1.721041E+04  7.569271E+04 -3.249801E+04  1.276805E+04
       127   2  6.776622E+05 -7.987692E+04 -1.485858E+04  2.418403E+04 -5.246495E+04  1.475951E+04
       127   3  5.995813E+05  1.419092E+03  2.480722E+04  8.184185E+03 -7.242880E+04  5.040828E+03
       127   4  1.025195E+06 -4.963987E+03  3.536542E+04  6.066973E+04 -2.496562E+04  1.276980E+04
       127   5  1.010718E+06  1.466086E+03  5.910063E+04  4.291737E+04 -5.619980E+04  1.475714E+04
       127   6  1.025123E+06  1.070660E+05  1.279488E+05  6.066844E+04 -8.743420E+04  5.034995E+03
       127   7  1.267743E+06  5.399242E+04  8.793808E+04  4.564080E+04 -1.743033E+04  1.277118E+04
       127   8  1.343878E+06  8.280293E+04  1.330532E+05  6.166085E+04 -5.993661E+04  1.475455E+04
       127   9  1.450836E+06  2.127100E+05  2.310798E+05  1.131887E+05 -1.024498E+05  5.026631E+03
       127  10  7.827020E+05 -6.392385E+04 -1.721270E+04  7.569305E+04  1.462068E-10 -1.414311E-10
       127  11  6.776592E+05 -7.987789E+04 -1.486416E+04  2.418466E+04  5.551003E-11 -8.791114E-11
       127  12  5.995757E+05  1.417658E+03  2.479732E+04  8.184479E+03 -3.112014E-10 -8.358600E-11
       127  13  1.025195E+06 -4.964329E+03  3.536394E+04  6.066998E+04 -4.684402E-11  6.208466E-11
       127  14  1.010714E+06  1.465006E+03  5.909429E+04  4.291804E+04 -1.828205E-10 -9.776694E-12
       127  15  1.025115E+06  1.070639E+05  1.279345E+05  6.066879E+04 -1.905287E-10  1.620669E-11
       127  16  1.267743E+06  5.399216E+04  8.793720E+04  4.564098E+04  6.055105E-11  2.458432E-10
       127  17  1.343874E+06  8.280173E+04  1.330460E+05  6.166157E+04 -3.931471E-10  1.318151E-11
       127  18  1.450825E+06  2.127072E+05  2.310600E+05  1.131891E+05 -1.181034E-10 -3.451853E-12
       127  19  7.827032E+05 -6.392339E+04 -1.721041E+04  7.569271E+04  3.249801E+04 -1.276805E+04
       127  20  6.776622E+05 -7.987692E+04 -1.485858E+04  2.418403E+04  5.246495E+04 -1.475951E+04
       127  21  5.995813E+05  1.419092E+03  2.480722E+04  8.184185E+03  7.242880E+04 -5.040828E+03
       127  22  1.025195E+06 -4.963987E+03  3.536542E+04  6.066973E+04  2.496562E+04 -1.276980E+04
       127  23  1.010718E+06  1.466086E+03  5.910063E+04  4.291737E+04  5.619980E+04 -1.475714E+04
       127  24  1.025123E+06  1.070660E+05  1.279488E+05  6.066844E+04  8.743420E+04 -5.034995E+03
       127  25  1.267743E+06  5.399242E+04  8.793808E+04  4.564080E+04  1.743033E+04 -1.277118E+04
       127  26  1.343878E+06  8.280293E+04  1.330532E+05  6.166085E+04  5.993661E+04 -1.475455E+04
       127  27  1.450836E+06  2.127100E+05  2.310798E+05  1.131887E+05  1.024498E+05 -5.026631E+03
       128   1 -3.923213E+05 -1.435654E+06 -4.301656E+05  2.249605E+05 -8.456145E+03 -1.935461E+05
       128   2 -1.353237E+05 -1.221423E+06 -2.406421E+05  1.225055E+05 -2.383146E+04 -1.108342E+05
       128   3 -7.805592E+04 -1.067929E+06 -1.549888E+05  9.156457E+04 -1.887019E+04 -2.810606E+04
       128   4 -2.114843E+05 -7.084573E+05 -2.533527E+05  1.215286E+05 -8.408495E+03 -1.691057E+05
       128   5 -2.788960E+03 -6.797301E+05 -1.199157E+05  8.568915E+04 -2.381962E+04 -1.058290E+05
       128   6  9.644532E+03 -7.083295E+05 -7.675968E+04  1.213850E+05 -1.888432E+04 -4.256282E+04
       128   7 -3.064561E+04  1.924721E+04 -7.657016E+04  1.797492E+04 -8.369047E+03 -1.446366E+05
       128   8  1.297310E+05 -1.377605E+05  7.931268E+02  4.884018E+04 -2.380838E+04 -1.008196E+05
       128   9  9.733983E+04 -3.486060E+05  1.462934E+03  1.512229E+05 -1.889984E+04 -5.702786E+04
       128  10 -3.923315E+05 -1.435694E+06 -4.302363E+05  2.249592E+05 -2.657891E-10 -2.464803E-10
       128  11 -1.353276E+05 -1.221436E+06 -2.406663E+05  1.225034E+05 -1.995312E-11  1.263695E-10
       128  12 -7.805652E+04 -1.067930E+06 -1.549909E+05  9.156414E+04  1.845400E-10  1.615516E-10
       128  13 -2.114921E+05 -7.084880E+05 -2.534067E+05  1.215275E+05 -4.939200E-10  1.318993E-10
       128  14 -2.792580E+03 -6.797423E+05 -1.199379E+05  8.568712E+04 -1.120538E-10  2.122065E-11
       128  15  9.643663E+03 -7.083316E+05 -7.676376E+04  1.213844E+05 -4.581534E-11  3.132197E-10
       128  16 -3.065130E+04  1.922473E+04 -7.660961E+04  1.797394E+04  1.240735E-10  1.050669E-10
       128  17  1.297276E+05 -1.377715E+05  7.729562E+02  4.883825E+04 -2.013412E-10 -3.892043E-10
       128  18  9.733857E+04 -3.486096E+05  1.456149E+03  1.512221E+05  9.119247E-10 -3.001831E-10
       128  19 -3.923213E+05 -1.435654E+06 -4.301656E+05  2.249605E+05  8.456145E+03  1.935461E+05
       128  20 -1.353237E+05 -1.221423E+06 -2.406421E+05  1.225055E+05  2.383146E+04  1.108342E+05
       128  21 -7.805592E+04 -1.067929E+06 -1.549888E+05  9.156457E+04  1.887019E+04  2.810606E+04
       128  22 -2.114843E+05 -7.084573E+05 -2.533527E+05  1.215286E+05  8.408495E+03  1.691057E+05
       128  23 -2.788960E+03 -6.797301E+05 -1.199157E+05  8.568915E+04  2.381962E+04  1.058290E+05
       128  24  9.644532E+03 -7.083295E+05 -7.675968E+04  1.213850E+05  1.888432E+04  4.256282E+04
       128  25 -3.064561E+04  1.924721E+04 -7.657016E+04  1.797492E+04  8.369047E+03  1.446366E+05
       128  26  1.297310E+05 -1.377605E+05  7.931268E+02  4.884018E+04  2.380838E+04  1.008196E+05
       128  27  9.733983E+04 -3.486060E+05  1.462934E+03  1.512229E+05  1.889984E+04  5.702786E+04
       129   1 -6.205807E+04 -9.105503E+05 -1.126114E+05  1.269366E+05 -1.091939E+04 -2.224752E+04
       129   2 -6.586768E+03 -7.225205E+05 -5.808587E+04  8.552001E+04 -1.560095E+03  3.751529E+03
       129   3  2.974239E+04 -5.427747E+05 -2.532464E+04  1.165853E+05  7.866745E+03  2.975772E+04
       129   4 -1.010425E+04 -6.974297E+05 -6.609304E+04  1.216335E+05 -1.092779E+04 -3.117110E+04
       129   5  5.344829E+02 -6.932756E+05 -5.174600E+04  8.539084E+04 -1.568845E+03 -5.233132E+03
       129   6 -7.954888E+03 -6.974250E+05 -5.911555E+04  1.216314E+05  7.857967E+03  2.070452E+04
       129   7  4.184671E+04 -4.842662E+05 -1.957712E+04  1.163285E+05 -1.093604E+04 -4.009770E+04
       129   8  7.655721E+03 -6.640296E+05 -4.540588E+04  8.526167E+04 -1.577591E+03 -1.421821E+04
       129   9 -4.565362E+04 -8.520526E+05 -9.290758E+04  1.266763E+05  7.849040E+03  1.165354E+04
       129  10 -6.205833E+04 -9.105509E+05 -1.126125E+05  1.269364E+05  2.941200E-10 -8.041763E-10
       129  11 -6.586775E+03 -7.225206E+05 -5.808590E+04  8.552002E+04 -1.327501E-10  4.593755E-10
       129  12  2.974209E+04 -5.427757E+05 -2.532642E+04  1.165851E+05  2.221912E-10  7.059709E-10
       129  13 -1.010464E+04 -6.974307E+05 -6.609509E+04  1.216332E+05 -7.712941E-10  1.741425E-10
       129  14  5.344729E+02 -6.932756E+05 -5.174606E+04  8.539084E+04 -2.192798E-10  6.461766E-11
       129  15 -7.955069E+03 -6.974255E+05 -5.911647E+04  1.216313E+05  1.424357E-10  2.911260E-10
       129  16  4.184615E+04 -4.842679E+05 -1.958037E+04  1.163281E+05  9.134591E-10  5.108856E-10
       129  17  7.655664E+03 -6.640299E+05 -4.540627E+04  8.526165E+04 -6.839130E-10 -5.977504E-10
       129  18 -4.565372E+04 -8.520528E+05 -9.290795E+04  1.266762E+05  5.678920E-11 -8.247755E-10
       129  19 -6.205807E+04 -9.105503E+05 -1.126114E+05  1.269366E+05  1.091939E+04  2.224752E+04
       129  20 -6.586768E+03 -7.225205E+05 -5.808587E+04  8.552001E+04  1.560095E+03 -3.751529E+03
       129  21  2.974239E+04 -5.427747E+05 -2.532464E+04  1.165853E+05 -7.866745E+03 -2.975772E+04
       129  22 -1.010425E+04 -6.974297E+05 -6.609304E+04  1.216335E+05  1.092779E+04  3.117110E+04
       129  23  5.344829E+02 -6.932756E+05 -5.174600E+04  8.539084E+04  1.568845E+03  5.233132E+03
       129  24 -7.954888E+03 -6.974250E+05 -5.911555E+04  1.216314E+05 -7.857967E+03 -2.070452E+04
       129  25  4.184671E+04 -4.842662E+05 -1.957712E+04  1.163285E+05  1.093604E+04  4.009770E+04
       129  26  7.655721E+03 -6.640296E+05 -4.540588E+04  8.526167E+04  1.577591E+03  1.421821E+04
       129  27 -4.565362E+04 -8.520526E+05 -9.290758E+04  1.266763E+05 -7.849040E+03 -1.165354E+04
       130   1  8.117524E+04 -4.047860E+05 -8.026131E+02  1.455672E+05  1.571681E+04  4.493439E+04
       130   2  1.160640E+05 -1.990594E+05  8.533875E+03  5.564214E+04  2.104852E+04  7.920820E+04
       130   3 -5.489513E+03 -3.688668E+04 -4.355793E+04  3.732819E+04  7.530450E+03  1.135043E+05
       130   4  7.733410E+03 -7.059790E+05 -6.636574E+04  1.214091E+05  1.570191E+04  3.078576E+04
       130   5 -2.209934E+03 -6.826457E+05 -9.929602E+04  8.565848E+04  2.105664E+04  8.311054E+04
       130   6 -1.718106E+05 -7.060878E+05 -2.062378E+05  1.215345E+05  7.560994E+03  1.354461E+05
       130   7 -6.571216E+04 -1.007085E+06 -1.319332E+05  9.726290E+04  1.568811E+04  1.664391E+04
       130   8 -1.204964E+05 -1.166012E+06 -2.071400E+05  1.156511E+05  2.106515E+04  8.700986E+04
       130   9 -3.381377E+05 -1.374864E+06 -3.689445E+05  2.056496E+05  7.597517E+03  1.573643E+05
       130  10  8.117443E+04 -4.047883E+05 -8.068733E+02  1.455667E+05 -1.730526E-10 -7.442453E-10
       130  11  1.160619E+05 -1.990662E+05  8.521249E+03  5.564079E+04  7.663316E-11  4.429530E-10
       130  12 -5.493033E+03 -3.690053E+04 -4.358225E+04  3.732750E+04  1.837066E-10  7.268144E-10
       130  13  7.732890E+03 -7.059801E+05 -6.636798E+04  1.214088E+05  6.385084E-10  2.147986E-10
       130  14 -2.212267E+03 -6.826532E+05 -9.930985E+04  8.565707E+04 -3.018000E-10 -5.110715E-11
       130  15 -1.718156E+05 -7.061075E+05 -2.062724E+05  1.215336E+05  4.298917E-11  1.444420E-10
       130  16 -6.571250E+04 -1.007086E+06 -1.319342E+05  9.726269E+04 -7.985391E-13  4.241315E-10
       130  17 -1.204989E+05 -1.166020E+06 -2.071551E+05  1.156497E+05 -8.182132E-10 -5.374302E-10
       130  18 -3.381444E+05 -1.374890E+06 -3.689912E+05  2.056486E+05 -2.030717E-10 -7.751525E-10
       130  19  8.117524E+04 -4.047860E+05 -8.026131E+02  1.455672E+05 -1.571681E+04 -4.493439E+04
       130  20  1.160640E+05 -1.990594E+05  8.533875E+03  5.564214E+04 -2.104852E+04 -7.920820E+04
       130  21 -5.489513E+03 -3.688668E+04 -4.355793E+04  3.732819E+04 -7.530450E+03 -1.135043E+05
       130  22  7.733410E+03 -7.059790E+05 -6.636574E+04  1.214091E+05 -1.570191E+04 -3.078576E+04
       130  23 -2.209934E+03 -6.826457E+05 -9.929602E+04  8.565848E+04 -2.105664E+04 -8.311054E+04
       130  24 -1.718106E+05 -7.060878E+05 -2.062378E+05  1.215345E+05 -7.560994E+03 -1.354461E+05
       130  25 -6.571216E+04 -1.007085E+06 -1.319332E+05  9.726290E+04 -1.568811E+04 -1.664391E+04
       130  26 -1.204964E+05 -1.166012E+06 -2.071400E+05  1.156511E+05 -2.106515E+04 -8.700986E+04
       130  27 -3.381377E+05 -1.374864E+06 -3.689445E+05  2.056496E+05 -7.597517E+03 -1.573643E+05
       131   1  7.023998E+05  5.101265E+05  1.223145E+05  5.011565E+05  7.601745E+04  5.837787E+04
       131   2  6.949396E+05  4.031585E+05  4.978932E+04  5.466371E+05  4.851755E+04  4.055179E+04
       131   3  7.542746E+05  3.730816E+05  2.641645E+04  5.522203E+05  2.250232E+04  2.074214E+04
       131   4  8.259934E+05  5.006134E+05  1.444377E+05  5.174978E+05  7.870373E+04  6.037964E+04
       131   5  7.696594E+05  4.214579E+05  6.636206E+04  5.678310E+05  4.928678E+04  4.112554E+04
       131   6  7.805244E+05  4.195966E+05  3.909046E+04  5.782687E+05  2.135789E+04  1.988556E+04
       131   7  9.496109E+05  4.911054E+05  1.665623E+05  5.338380E+05  8.139082E+04  6.238122E+04
       131   8  8.443860E+05  4.397578E+05  8.293469E+04  5.890264E+05  5.005613E+04  4.169930E+04
       131   9  8.067751E+05  4.661145E+05  5.176429E+04  6.043188E+05  2.021342E+04  1.902885E+04
       131  10  7.023927E+05  5.101213E+05  1.222973E+05  5.011529E+05 -1.518057E-09 -2.722456E-10
       131  11  6.949367E+05  4.031561E+05  4.978182E+04  5.466356E+05 -8.387837E-10  5.242415E-10
       131  12  7.542739E+05  3.730810E+05  2.641469E+04  5.522199E+05  7.565596E-10  5.277127E-10
       131  13  8.259858E+05  5.006079E+05  1.444192E+05  5.174940E+05  8.494107E-10  2.314607E-10
       131  14  7.696563E+05  4.214554E+05  6.635433E+04  5.678294E+05 -3.223828E-10  4.165863E-10
       131  15  7.805238E+05  4.195960E+05  3.908887E+04  5.782684E+05 -2.547996E-10  5.038650E-11
       131  16  9.496027E+05  4.910994E+05  1.665426E+05  5.338339E+05  6.018815E-10  6.994834E-10
       131  17  8.443829E+05  4.397553E+05  8.292673E+04  5.890248E+05  4.830670E-10  4.383016E-10
       131  18  8.067745E+05  4.661140E+05  5.176285E+04  6.043185E+05 -3.412774E-10 -3.592007E-10
       131  19  7.023998E+05  5.101265E+05  1.223145E+05  5.011565E+05 -7.601745E+04 -5.837787E+04
       131  20  6.949396E+05  4.031585E+05  4.978932E+04  5.466371E+05 -4.851755E+04 -4.055179E+04
       131  21  7.542746E+05  3.730816E+05  2.641645E+04  5.522203E+05 -2.250232E+04 -2.074214E+04
       131  22  8.259934E+05  5.006134E+05  1.444377E+05  5.174978E+05 -7.870373E+04 -6.037964E+04
       131  23  7.696594E+05  4.214579E+05  6.636206E+04  5.678310E+05 -4.928678E+04 -4.112554E+04
       131  24  7.805244E+05  4.195966E+05  3.909046E+04  5.782687E+05 -2.135789E+04 -1.988556E+04
       131  25  9.496109E+05  4.911054E+05  1.665623E+05  5.338380E+05 -8.139082E+04 -6.238122E+04
       131  26  8.443860E+05  4.397578E+05  8.293469E+04  5.890264E+05 -5.005613E+04 -4.169930E+04
       131  27  8.067751E+05  4.661145E+05  5.176429E+04  6.043188E+05 -2.021342E+04 -1.902885E+04
       132   1  7.453242E+05  4.033587E+05  2.138555E+04  5.535037E+05  1.795442E+04  1.639449E+04
       132   2  7.525705E+05  4.087746E+05  1.157222E+04  5.622596E+05  1.135209E+04  1.043600E+04
       132   3  7.698750E+05  4.128663E+05  9.034116E+03  5.675800E+05  4.816501E+03  4.388073E+03
       132   4  7.805199E+05  4.247336E+05  3.127572E+04  5.694222E+05  1.737584E+04  1.596081E+04
       132   5  7.743110E+05  4.232982E+05  1.789080E+04  5.727081E+05  1.068710E+04  9.937676E+03
       132   6  7.781784E+05  4.205569E+05  1.185543E+04  5.725583E+05  4.065274E+03  3.825170E+03
       132   7  8.157170E+05  4.461090E+05  4.116577E+04  5.853417E+05  1.679721E+04  1.552710E+04
       132   8  7.960520E+05  4.378221E+05  2.420936E+04  5.831570E+05  1.002207E+04  9.439324E+03
       132   9  7.864818E+05  4.282477E+05  1.467677E+04  5.775366E+05  3.314025E+03  3.262247E+03
       132  10  7.453238E+05  4.033583E+05  2.138444E+04  5.535035E+05  7.624608E-10 -2.791414E-10
       132  11  7.525703E+05  4.087745E+05  1.157178E+04  5.622595E+05  1.090696E-09  2.366059E-10
       132  12  7.698750E+05  4.128663E+05  9.034036E+03  5.675800E+05  3.068862E-10  2.567202E-10
       132  13  7.805195E+05  4.247332E+05  3.127467E+04  5.694220E+05  3.031470E-10  4.160904E-11
       132  14  7.743108E+05  4.232981E+05  1.789040E+04  5.727080E+05  1.492534E-10  2.226709E-10
       132  15  7.781783E+05  4.205569E+05  1.185537E+04  5.725582E+05  3.138230E-10  1.954086E-10
       132  16  8.157166E+05  4.461086E+05  4.116479E+04  5.853415E+05 -4.211966E-11  1.378609E-10
       132  17  7.960519E+05  4.378220E+05  2.420901E+04  5.831569E+05 -3.102716E-10 -2.272920E-11
       132  18  7.864818E+05  4.282477E+05  1.467673E+04  5.775366E+05 -5.934727E-10 -4.566343E-11
       132  19  7.453242E+05  4.033587E+05  2.138555E+04  5.535037E+05 -1.795442E+04 -1.639449E+04
       132  20  7.525705E+05  4.087746E+05  1.157222E+04  5.622596E+05 -1.135209E+04 -1.043600E+04
       132  21  7.698750E+05  4.128663E+05  9.034116E+03  5.675800E+05 -4.816501E+03 -4.388073E+03
       132  22  7.805199E+05  4.247336E+05  3.127572E+04  5.694222E+05 -1.737584E+04 -1.596081E+04
       132  23  7.743110E+05  4.232982E+05  1.789080E+04  5.727081E+05 -1.068710E+04 -9.937676E+03
       132  24  7.781784E+05  4.205569E+05  1.185543E+04  5.725583E+05 -4.065274E+03 -3.825170E+03
       132  25  8.157170E+05  4.461090E+05  4.116577E+04  5.853417E+05 -1.679721E+04 -1.552710E+04
       132  26  7.960520E+05  4.378221E+05  2.420936E+04  5.831570E+05 -1.002207E+04 -9.439324E+03
       132  27  7.864818E+05  4.282477E+05  1.467677E+04  5.775366E+05 -3.314025E+03 -3.262247E+03
       133   1  7.781615E+05  4.208472E+05  1.040216E+04  5.721178E+05  3.554466E+03  2.737698E+03
       133   2  7.865497E+05  4.319800E+05  1.295951E+04  5.789275E+05  3.832906E+02 -8.185968E+02
       133   3  8.018934E+05  4.377218E+05  1.874454E+04  5.839480E+05 -2.788704E+03 -4.373856E+03
       133   4  7.781155E+05  4.207725E+05  1.034237E+04  5.720821E+05  2.827387E+03  2.192878E+03
       133   5  7.746517E+05  4.234930E+05  9.417897E+03  5.729578E+05 -3.427285E+02 -1.362629E+03
       133   6  7.781432E+05  4.208223E+05  1.172031E+04  5.720443E+05 -3.513585E+03 -4.917043E+03
       133   7  7.780694E+05  4.206978E+05  1.028259E+04  5.720463E+05  2.100316E+03  1.648064E+03
       133   8  7.627538E+05  4.150060E+05  5.876297E+03  5.669882E+05 -1.068725E+03 -1.906643E+03
       133   9  7.543935E+05  4.039231E+05  4.696034E+03  5.601410E+05 -4.238430E+03 -5.460202E+03
       133  10  7.781615E+05  4.208472E+05  1.040212E+04  5.721178E+05 -2.784043E-10  7.511647E-11
       133  11  7.865497E+05  4.319800E+05  1.295951E+04  5.789275E+05 -6.964747E-10  4.888329E-10
       133  12  8.018934E+05  4.377218E+05  1.874449E+04  5.839480E+05  1.984364E-11  3.894171E-10
       133  13  7.781155E+05  4.207725E+05  1.034235E+04  5.720821E+05 -3.456505E-10  9.758828E-12
       133  14  7.746517E+05  4.234930E+05  9.417893E+03  5.729578E+05 -4.372284E-10  2.663494E-10
       133  15  7.781431E+05  4.208223E+05  1.172025E+04  5.720442E+05 -5.158695E-10  2.413334E-10
       133  16  7.780694E+05  4.206978E+05  1.028258E+04  5.720463E+05 -1.364720E-10  2.819391E-10
       133  17  7.627538E+05  4.150060E+05  5.876288E+03  5.669882E+05 -7.139925E-10  1.561491E-10
       133  18  7.543935E+05  4.039231E+05  4.695945E+03  5.601410E+05 -8.460256E-10  3.885271E-10
       133  19  7.781615E+05  4.208472E+05  1.040216E+04  5.721178E+05 -3.554466E+03 -2.737698E+03
       133  20  7.865497E+05  4.319800E+05  1.295951E+04  5.789275E+05 -3.832906E+02  8.185968E+02
       133  21  8.018934E+05  4.377218E+05  1.874454E+04  5.839480E+05  2.788704E+03  4.373856E+03
       133  22  7.781155E+05  4.207725E+05  1.034237E+04  5.720821E+05 -2.827387E+03 -2.192878E+03
       133  23  7.746517E+05  4.234930E+05  9.417897E+03  5.729578E+05  3.427285E+02  1.362629E+03
       133  24  7.781432E+05  4.208223E+05  1.172031E+04  5.720443E+05  3.513585E+03  4.917043E+03
       133  25  7.780694E+05  4.206978E+05  1.028259E+04  5.720463E+05 -2.100316E+03 -1.648064E+03
       133  26  7.627538E+05  4.150060E+05  5.876297E+03  5.669882E+05  1.068725E+03  1.906643E+03
       133  27  7.543935E+05  4.039231E+05  4.696034E+03  5.601410E+05  4.238430E+03  5.460202E+03
       134   1  8.100889E+05  4.454802E+05  2.392625E+04  5.896778E+05 -4.238376E+03 -6.169556E+03
       134   2  8.199403E+05  4.545614E+05  3.565829E+04  5.949881E+05 -1.272564E+04 -1.367010E+04
       134   3  8.409717E+05  4.636720E+05  5.667849E+04  5.963874E+05 -2.130249E+04 -2.105188E+04
       134   4  7.782480E+05  4.205457E+05  1.402112E+04  5.726789E+05 -4.997443E+03 -6.738356E+03
       134   5  7.741670E+05  4.232132E+05  2.223607E+04  5.726295E+05 -1.336950E+04 -1.415266E+04
       134   6  7.812416E+05  4.258854E+05  3.964018E+04  5.686688E+05 -2.183080E+04 -2.144801E+04
       134   7  7.464079E+05  3.956117E+05  4.115757E+03  5.556808E+05 -5.756464E+03 -7.307118E+03
       134   8  7.283960E+05  3.918660E+05  8.813628E+03  5.502726E+05 -1.401330E+04 -1.463517E+04
       134   9  7.215159E+05  3.881006E+05  2.260170E+04  5.409533E+05 -2.235902E+04 -2.184409E+04
       134  10  8.100889E+05  4.454801E+05  2.392614E+04  5.896777E+05  1.644948E-10  2.388626E-10
       134  11  8.199400E+05  4.545612E+05  3.565764E+04  5.949880E+05  5.186627E-10  2.302330E-10
       134  12  8.409711E+05  4.636714E+05  5.667681E+04  5.963870E+05  2.383044E-10 -6.778303E-11
       134  13  7.782479E+05  4.205457E+05  1.402099E+04  5.726788E+05 -5.173487E-10  2.887628E-10
       134  14  7.741667E+05  4.232129E+05  2.223536E+04  5.726293E+05  1.022272E-10  2.698059E-10
       134  15  7.812409E+05  4.258847E+05  3.963842E+04  5.686684E+05  1.781925E-10 -6.432850E-11
       134  16  7.464078E+05  3.956117E+05  4.115595E+03  5.556808E+05 -1.173632E-09  4.198303E-10
       134  17  7.283958E+05  3.918657E+05  8.812858E+03  5.502725E+05 -6.283318E-11  8.043537E-11
       134  18  7.215152E+05  3.881000E+05  2.259986E+04  5.409530E+05  6.833687E-11 -3.536519E-11
       134  19  8.100889E+05  4.454802E+05  2.392625E+04  5.896778E+05  4.238376E+03  6.169556E+03
       134  20  8.199403E+05  4.545614E+05  3.565829E+04  5.949881E+05  1.272564E+04  1.367010E+04
       134  21  8.409717E+05  4.636720E+05  5.667849E+04  5.963874E+05  2.130249E+04  2.105188E+04
       134  22  7.782480E+05  4.205457E+05  1.402112E+04  5.726789E+05  4.997443E+03  6.738356E+03
       134  23  7.741670E+05  4.232132E+05  2.223607E+04  5.726295E+05  1.336950E+04  1.415266E+04
       134  24  7.812416E+05  4.258854E+05  3.964018E+04  5.686688E+05  2.183080E+04  2.144801E+04
       134  25  7.464079E+05  3.956117E+05  4.115757E+03  5.556808E+05  5.756464E+03  7.307118E+03
       134  26  7.283960E+05  3.918660E+05  8.813628E+03  5.502726E+05  1.401330E+04  1.463517E+04
       134  27  7.215159E+05  3.881006E+05  2.260170E+04  5.409533E+05  2.235902E+04  2.184409E+04
       135   1  8.269568E+05  4.874275E+05  6.953132E+04  6.193722E+05 -2.567572E+04 -2.535901E+04
       135   2  8.726532E+05  4.505623E+05  1.086077E+05  5.979401E+05 -6.409100E+04 -5.416066E+04
       135   3  1.003149E+06  5.147846E+05  2.148331E+05  5.259790E+05 -1.045052E+05 -8.029823E+04
       135   4  7.812519E+05  4.193199E+05  4.973150E+04  5.799865E+05 -2.696248E+04 -2.632185E+04
       135   5  7.682089E+05  4.208495E+05  8.475023E+04  5.663913E+05 -6.281238E+04 -5.320698E+04
       135   6  8.394106E+05  5.229200E+05  1.847039E+05  5.022671E+05 -1.006557E+05 -7.743300E+04
       135   7  7.355500E+05  3.512193E+05  2.993144E+04  5.406053E+05 -2.824912E+04 -2.728446E+04
       135   8  6.637773E+05  3.911377E+05  6.089234E+04  5.348461E+05 -6.153406E+04 -5.225334E+04
       135   9  6.757093E+05  5.310634E+05  1.545764E+05  4.785536E+05 -9.680770E+04 -7.456738E+04
       135  10  8.269559E+05  4.874267E+05  6.952888E+04  6.193717E+05 -3.197730E-10 -1.685954E-10
       135  11  8.726480E+05  4.505581E+05  1.085945E+05  5.979373E+05  8.859526E-11 -4.187750E-10
       135  12  1.003136E+06  5.147748E+05  2.148005E+05  5.259723E+05  5.094970E-10 -8.698627E-11
       135  13  7.812509E+05  4.193189E+05  4.972884E+04  5.799859E+05 -2.175393E-10 -8.884081E-11
       135  14  7.682039E+05  4.208454E+05  8.473752E+04  5.663886E+05 -5.054574E-10 -1.498812E-10
       135  15  8.393981E+05  5.229108E+05  1.846736E+05  5.022609E+05 -6.751497E-10 -1.499454E-10
       135  16  7.355490E+05  3.512183E+05  2.992855E+04  5.406047E+05 -3.575541E-11 -5.770752E-11
       135  17  6.637725E+05  3.911338E+05  6.088011E+04  5.348435E+05 -3.060353E-11 -8.327577E-11
       135  18  6.756977E+05  5.310550E+05  1.545484E+05  4.785478E+05 -2.092007E-11  1.070586E-10
       135  19  8.269568E+05  4.874275E+05  6.953132E+04  6.193722E+05  2.567572E+04  2.535901E+04
       135  20  8.726532E+05  4.505623E+05  1.086077E+05  5.979401E+05  6.409100E+04  5.416066E+04
       135  21  1.003149E+06  5.147846E+05  2.148331E+05  5.259790E+05  1.045052E+05  8.029823E+04
       135  22  7.812519E+05  4.193199E+05  4.973150E+04  5.799865E+05  2.696248E+04  2.632185E+04
       135  23  7.682089E+05  4.208495E+05  8.475023E+04  5.663913E+05  6.281238E+04  5.320698E+04
       135  24  8.394106E+05  5.229200E+05  1.847039E+05  5.022671E+05  1.006557E+05  7.743300E+04
       135  25  7.355500E+05  3.512193E+05  2.993144E+04  5.406053E+05  2.824912E+04  2.728446E+04
       135  26  6.637773E+05  3.911377E+05  6.089234E+04  5.348461E+05  6.153406E+04  5.225334E+04
       135  27  6.757093E+05  5.310634E+05  1.545764E+05  4.785536E+05  9.680770E+04  7.456738E+04
       136   1  1.176158E+06  1.563178E+05  1.699963E+05  7.513496E+04  7.623930E+04 -3.788291E+03
       136   2  1.110207E+06  6.299939E+04  1.003534E+05  3.947121E+04  4.485413E+04 -1.138730E+04
       136   3  1.067145E+06  4.486281E+04  6.991536E+04  2.488112E+04  1.347243E+04 -1.060659E+04
       136   4  8.673102E+05  7.967704E+04  9.524270E+04  3.606228E+04  6.488808E+04 -3.792244E+03
       136   5  8.565813E+05  1.087284E+03  4.413597E+04  2.552469E+04  4.156758E+04 -1.138860E+04
       136   6  8.673528E+05 -3.703410E+03  2.665236E+04  3.605885E+04  1.824758E+04 -1.060623E+04
       136   7  5.585526E+05  3.035135E+03  2.048352E+04 -2.990933E+03  5.354247E+04 -3.794773E+03
       136   8  6.030161E+05 -6.082843E+04 -1.208526E+04  1.158393E+04  3.828236E+04 -1.138975E+04
       136   9  6.675978E+05 -5.227178E+04 -1.661286E+04  4.723293E+04  2.302121E+04 -1.060571E+04
       136  10  1.176152E+06  1.563162E+05  1.699854E+05  7.513519E+04  3.124386E-10  8.450781E-11
       136  11  1.110205E+06  6.299871E+04  1.003493E+05  3.947162E+04 -3.943929E-10  1.537980E-10
       136  12  1.067145E+06  4.486264E+04  6.991481E+04  2.488123E+04  6.230905E-10 -3.155692E-10
       136  13  8.673057E+05  7.967590E+04  9.523477E+04  3.606248E+04 -4.209496E-11  5.113629E-11
       136  14  8.565794E+05  1.086682E+03  4.413248E+04  2.552507E+04  3.513518E-10  3.997336E-11
       136  15  8.673524E+05 -3.703620E+03  2.665152E+04  3.605900E+04  1.973322E-10 -9.649077E-11
       136  16  5.585495E+05  3.034351E+03  2.047811E+04 -2.990769E+03  5.507986E-10  6.102318E-11
       136  17  6.030145E+05 -6.082896E+04 -1.208826E+04  1.158428E+04  3.320121E-10 -5.015651E-11
       136  18  6.675972E+05 -5.227204E+04 -1.661407E+04  4.723313E+04 -5.856581E-10  4.175443E-11
       136  19  1.176158E+06  1.563178E+05  1.699963E+05  7.513496E+04 -7.623930E+04  3.788291E+03
       136  20  1.110207E+06  6.299939E+04  1.003534E+05  3.947121E+04 -4.485413E+04  1.138730E+04
       136  21  1.067145E+06  4.486281E+04  6.991536E+04  2.488112E+04 -1.347243E+04  1.060659E+04
       136  22  8.673102E+05  7.967704E+04  9.524270E+04  3.606228E+04 -6.488808E+04  3.792244E+03
       136  23  8.565813E+05  1.087284E+03  4.413597E+04  2.552469E+04 -4.156758E+04  1.138860E+04
       136  24  8.673528E+05 -3.703410E+03  2.665236E+04  3.605885E+04 -1.824758E+04  1.060623E+04
       136  25  5.585526E+05  3.035135E+03  2.048352E+04 -2.990933E+03 -5.354247E+04  3.794773E+03
       136  26  6.030161E+05 -6.082843E+04 -1.208526E+04  1.158393E+04 -3.828236E+04  1.138975E+04
       136  27  6.675978E+05 -5.227178E+04 -1.661286E+04  4.723293E+04 -2.302121E+04  1.060571E+04
       137   1  1.019489E+06  4.210871E+04  5.585035E+04  3.764038E+04  1.201136E+04 -8.094318E+03
       137   2  9.642479E+05  2.472987E+04  3.613450E+04  2.586928E+04  4.660145E+03 -5.418813E+03
       137   3  9.110417E+05  1.166095E+04  2.227587E+04  3.545156E+04 -2.690805E+03 -2.379712E+03
       137   4  8.630107E+05  4.042285E+03  2.183254E+04  3.612218E+04  1.440686E+04 -8.094237E+03
       137   5  8.620280E+05 -1.215841E+02  1.399312E+04  2.544568E+04  7.406532E+03 -5.418518E+03
       137   6  8.630171E+05 -3.557491E+01  1.176880E+04  3.612269E+04  4.058431E+02 -2.379192E+03
       137   7  7.065555E+05 -3.402575E+04 -1.218672E+04  3.460436E+04  1.680177E+04 -8.094168E+03
       137   8  7.598179E+05 -2.497372E+04 -8.148853E+03  2.502215E+04  1.015247E+04 -5.418227E+03
       137   9  8.149947E+05 -1.173225E+04  1.261621E+03  3.679376E+04  3.502255E+03 -2.378664E+03
       137  10  1.019489E+06  4.210860E+04  5.584996E+04  3.764046E+04 -1.669034E-10 -1.621332E-10
       137  11  9.642478E+05  2.472983E+04  3.613441E+04  2.586930E+04  1.554476E-10  1.818468E-10
       137  12  9.110417E+05  1.166094E+04  2.227585E+04  3.545156E+04  5.235113E-10 -2.969097E-10
       137  13  8.630104E+05  4.042159E+03  2.183202E+04  3.612227E+04 -1.215563E-10  3.632368E-11
       137  14  8.620279E+05 -1.216304E+02  1.399296E+04  2.544571E+04  4.213505E-10  2.663161E-10
       137  15  8.630171E+05 -3.558104E+01  1.176879E+04  3.612269E+04  1.921222E-10 -9.308354E-11
       137  16  7.065551E+05 -3.402590E+04 -1.218737E+04  3.460447E+04 -6.897180E-11  1.792100E-10
       137  17  7.598177E+05 -2.497378E+04 -8.149101E+03  2.502220E+04 -2.282269E-10  7.095107E-11
       137  18  8.149947E+05 -1.173226E+04  1.261588E+03  3.679376E+04 -1.602866E-10 -1.833308E-11
       137  19  1.019489E+06  4.210871E+04  5.585035E+04  3.764038E+04 -1.201136E+04  8.094318E+03
       137  20  9.642479E+05  2.472987E+04  3.613450E+04  2.586928E+04 -4.660145E+03  5.418813E+03
       137  21  9.110417E+05  1.166095E+04  2.227587E+04  3.545156E+04  2.690805E+03  2.379712E+03
       137  22  8.630107E+05  4.042285E+03  2.183254E+04  3.612218E+04 -1.440686E+04  8.094237E+03
       137  23  8.620280E+05 -1.215841E+02  1.399312E+04  2.544568E+04 -7.406532E+03  5.418518E+03
       137  24  8.630171E+05 -3.557491E+01  1.176880E+04  3.612269E+04 -4.058431E+02  2.379192E+03
       137  25  7.065555E+05 -3.402575E+04 -1.218672E+04  3.460436E+04 -1.680177E+04  8.094168E+03
       137  26  7.598179E+05 -2.497372E+04 -8.148853E+03  2.502215E+04 -1.015247E+04  5.418227E+03
       137  27  8.149947E+05 -1.173225E+04  1.261621E+03  3.679376E+04 -3.502255E+03  2.378664E+03
       138   1  8.680720E+05  1.097677E+03  1.293394E+04  3.692654E+04 -4.767507E+03 -4.821473E+02
       138   2  8.128150E+05 -1.208101E+04  4.517345E+03  2.499763E+04 -1.207969E+04  2.569848E+03
       138   3  7.596950E+05 -2.051294E+04  2.042468E+03  3.441252E+04 -1.939098E+04  5.321101E+03
       138   4  8.630646E+05 -9.311684E+01  1.198406E+04  3.612052E+04 -1.688983E+03 -4.815925E+02
       138   5  8.619704E+05 -1.249650E+02  1.518720E+04  2.544839E+04 -9.290807E+03  2.570254E+03
       138   6  8.630591E+05  4.639783E+03  2.453233E+04  3.611982E+04 -1.689236E+04  5.321350E+03
       138   7  8.580573E+05 -1.283904E+03  1.103421E+04  3.531450E+04  1.389517E+03 -4.810457E+02
       138   8  9.111279E+05  1.183092E+04  2.585695E+04  2.589918E+04 -6.501710E+03  2.570665E+03
       138   9  9.664332E+05  2.979181E+04  4.702158E+04  3.782740E+04 -1.439333E+04  5.321614E+03
       138  10  8.680719E+05  1.097670E+03  1.293390E+04  3.692654E+04 -6.839338E-10 -4.432353E-10
       138  11  8.128149E+05 -1.208105E+04  4.517059E+03  2.499766E+04 -3.349166E-10  2.384716E-10
       138  12  7.596946E+05 -2.051307E+04  2.041709E+03  3.441260E+04  9.394580E-11  3.983094E-10
       138  13  8.630646E+05 -9.311785E+01  1.198405E+04  3.612052E+04  2.020070E-10 -3.654487E-10
       138  14  8.619703E+05 -1.249953E+02  1.518703E+04  2.544841E+04 -4.299561E-10 -2.143592E-11
       138  15  8.630588E+05  4.639676E+03  2.453174E+04  3.611989E+04  5.448610E-11  3.992805E-10
       138  16  8.580573E+05 -1.283905E+03  1.103420E+04  3.531450E+04  1.070787E-09 -7.717855E-11
       138  17  9.111279E+05  1.183090E+04  2.585686E+04  2.589919E+04  8.566367E-10  1.632926E-10
       138  18  9.664330E+05  2.979173E+04  4.702114E+04  3.782746E+04  3.129055E-10  3.001202E-10
       138  19  8.680720E+05  1.097677E+03  1.293394E+04  3.692654E+04  4.767507E+03  4.821473E+02
       138  20  8.128150E+05 -1.208101E+04  4.517345E+03  2.499763E+04  1.207969E+04 -2.569848E+03
       138  21  7.596950E+05 -2.051294E+04  2.042468E+03  3.441252E+04  1.939098E+04 -5.321101E+03
       138  22  8.630646E+05 -9.311684E+01  1.198406E+04  3.612052E+04  1.688983E+03  4.815925E+02
       138  23  8.619704E+05 -1.249650E+02  1.518720E+04  2.544839E+04  9.290807E+03 -2.570254E+03
       138  24  8.630591E+05  4.639783E+03  2.453233E+04  3.611982E+04  1.689236E+04 -5.321350E+03
       138  25  8.580573E+05 -1.283904E+03  1.103421E+04  3.531450E+04 -1.389517E+03  4.810457E+02
       138  26  9.111279E+05  1.183092E+04  2.585695E+04  2.589918E+04  6.501710E+03 -2.570665E+03
       138  27  9.664332E+05  2.979181E+04  4.702158E+04  3.782740E+04  1.439333E+04 -5.321614E+03
       139   1  7.214597E+05 -3.987562E+04 -1.608138E+03  4.887129E+04 -2.570782E+04  7.722642E+03
       139   2  6.553310E+05 -4.768896E+04  5.875080E+03  9.558165E+03 -4.557302E+04  8.888172E+03
       139   3  6.126329E+05  2.782675E+04  4.711876E+04 -8.663443E+03 -6.543655E+04  3.031165E+03
       139   4  8.680424E+05 -4.231909E+03  3.017484E+04  3.606421E+04 -2.121746E+04  7.723595E+03
       139   5  8.557253E+05  1.257953E+03  5.037515E+04  2.551808E+04 -4.783871E+04  8.886677E+03
       139   6  8.679967E+05  9.123067E+04  1.090146E+05  3.606182E+04 -7.446043E+04  3.026399E+03
       139   7  1.014646E+06  3.141101E+04  6.195671E+04  2.325408E+04 -1.672605E+04  7.724362E+03
       139   8  1.056158E+06  5.020311E+04  9.487288E+04  4.148320E+04 -5.010513E+04  8.885066E+03
       139   9  1.123424E+06  1.546374E+05  1.709070E+05  8.080552E+04 -8.348799E+04  3.020336E+03
       139  10  7.214590E+05 -3.987586E+04 -1.609490E+03  4.887145E+04  6.492533E-10  2.633753E-10
       139  11  6.553288E+05 -4.768960E+04  5.871032E+03  9.558491E+03 -1.278527E-10 -2.142729E-10
       139  12  6.126283E+05  2.782559E+04  4.711071E+04 -8.663283E+03 -1.872664E-10 -9.149561E-11
       139  13  8.680419E+05 -4.232094E+03  3.017388E+04  3.606434E+04  8.189052E-10  2.581021E-10
       139  14  8.557228E+05  1.257255E+03  5.037071E+04  2.551843E+04  4.495996E-10 -2.362949E-10
       139  15  8.679907E+05  9.122918E+04  1.090041E+05  3.606200E+04  2.334515E-10 -1.342930E-10
       139  16  1.014645E+06  3.141087E+04  6.195607E+04  2.325418E+04 -5.006726E-10  1.337147E-10
       139  17  1.056155E+06  5.020235E+04  9.486802E+04  4.148356E+04  2.074663E-10 -4.303572E-10
       139  18  1.123417E+06  1.546355E+05  1.708939E+05  8.080572E+04 -6.056717E-11 -1.916186E-10
       139  19  7.214597E+05 -3.987562E+04 -1.608138E+03  4.887129E+04  2.570782E+04 -7.722642E+03
       139  20  6.553310E+05 -4.768896E+04  5.875080E+03  9.558165E+03  4.557302E+04 -8.888172E+03
       139  21  6.126329E+05  2.782675E+04  4.711876E+04 -8.663443E+03  6.543655E+04 -3.031165E+03
       139  22  8.680424E+05 -4.231909E+03  3.017484E+04  3.606421E+04  2.121746E+04 -7.723595E+03
       139  23  8.557253E+05  1.257953E+03  5.037515E+04  2.551808E+04  4.783871E+04 -8.886677E+03
       139  24  8.679967E+05  9.123067E+04  1.090146E+05  3.606182E+04  7.446043E+04 -3.026399E+03
       139  25  1.014646E+06  3.141101E+04  6.195671E+04  2.325408E+04  1.672605E+04 -7.724362E+03
       139  26  1.056158E+06  5.020311E+04  9.487288E+04  4.148320E+04  5.010513E+04 -8.885066E+03
       139  27  1.123424E+06  1.546374E+05  1.709070E+05  8.080552E+04  8.348799E+04 -3.020336E+03
       140   1 -2.984571E+05 -1.107777E+06 -3.319335E+05  1.641795E+05 -5.474348E+03 -1.610880E+05
       140   2 -8.883746E+04 -9.687143E+05 -1.824219E+05  8.470668E+04 -1.558797E+04 -9.390535E+04
       140   3 -5.060088E+04 -8.812649E+05 -1.195465E+05  4.924764E+04 -1.268163E+04 -2.671282E+04
       140   4 -1.822072E+05 -6.402462E+05 -2.183149E+05  7.487278E+04 -5.445473E+03 -1.451720E+05
       140   5 -2.430084E+03 -6.154934E+05 -1.037532E+05  5.282363E+04 -1.558099E+04 -9.044466E+04
       140   6  8.174715E+03 -6.401689E+05 -6.712907E+04  7.480133E+04 -1.268742E+04 -3.572089E+04
       140   7 -6.594316E+04 -1.724973E+05 -1.047068E+05 -1.450148E+04 -5.421201E+03 -1.292440E+05
       140   8  8.397267E+04 -2.621538E+05 -2.509167E+04  2.092220E+04 -1.557437E+04 -8.698200E+04
       140   9  6.694895E+04 -3.990167E+05 -1.471449E+04  1.003651E+05 -1.269395E+04 -4.473241E+04
       140  10 -2.984642E+05 -1.107805E+06 -3.319824E+05  1.641788E+05 -2.811353E-10 -3.501363E-10
       140  11 -8.884010E+04 -9.687238E+05 -1.824390E+05  8.470550E+04 -4.856733E-11  1.594311E-10
       140  12 -5.060125E+04 -8.812657E+05 -1.195481E+05  4.924737E+04  5.265978E-10  1.006959E-09
       140  13 -1.822129E+05 -6.402688E+05 -2.183546E+05  7.487215E+04 -7.096232E-11  5.378315E-11
       140  14 -2.432544E+03 -6.155023E+05 -1.037690E+05  5.282249E+04 -5.215640E-10 -1.476632E-10
       140  15  8.174199E+03 -6.401703E+05 -6.713177E+04  7.480097E+04 -1.119907E-10  6.367883E-10
       140  16 -6.594768E+04 -1.725153E+05 -1.047382E+05 -1.450204E+04  5.751107E-11  3.606808E-10
       140  17  8.397038E+04 -2.621619E+05 -2.510635E+04  2.092111E+04  3.905565E-10 -4.383564E-10
       140  18  6.694823E+04 -3.990189E+05 -1.471856E+04  1.003646E+05  6.858860E-10 -1.219137E-09
       140  19 -2.984571E+05 -1.107777E+06 -3.319335E+05  1.641795E+05  5.474348E+03  1.610880E+05
       140  20 -8.883746E+04 -9.687143E+05 -1.824219E+05  8.470668E+04  1.558797E+04  9.390535E+04
       140  21 -5.060088E+04 -8.812649E+05 -1.195465E+05  4.924764E+04  1.268163E+04  2.671282E+04
       140  22 -1.822072E+05 -6.402462E+05 -2.183149E+05  7.487278E+04  5.445473E+03  1.451720E+05
       140  23 -2.430084E+03 -6.154934E+05 -1.037532E+05  5.282363E+04  1.558099E+04  9.044466E+04
       140  24  8.174715E+03 -6.401689E+05 -6.712907E+04  7.480133E+04  1.268742E+04  3.572089E+04
       140  25 -6.594316E+04 -1.724973E+05 -1.047068E+05 -1.450148E+04  5.421201E+03  1.292440E+05
       140  26  8.397267E+04 -2.621538E+05 -2.509167E+04  2.092220E+04  1.557437E+04  8.698200E+04
       140  27  6.694895E+04 -3.990167E+05 -1.471449E+04  1.003651E+05  1.269395E+04  4.473241E+04
       141   1 -4.552318E+04 -7.817083E+05 -9.120624E+04  7.976842E+04 -7.747758E+03 -2.024107E+04
       141   2 -8.752360E+03 -6.647047E+05 -5.516707E+04  5.268065E+04 -2.008154E+03  3.412248E+03
       141   3  1.056826E+04 -5.551871E+05 -3.891496E+04  7.023404E+04  3.818827E+03  2.706946E+04
       141   4 -8.752243E+03 -6.308497E+05 -5.829585E+04  7.495677E+04 -7.750720E+03 -2.569372E+04
       141   5  4.026244E+02 -6.271067E+05 -4.701688E+04  5.263558E+04 -2.011420E+03 -2.121533E+03
       141   6 -7.876853E+03 -6.308467E+05 -5.546573E+04  7.495626E+04  3.815575E+03  2.145037E+04
       141   7  2.801728E+04 -4.799697E+05 -2.538671E+04  7.014394E+04 -7.753597E+03 -3.114768E+04
       141   8  9.557532E+03 -5.895072E+05 -3.886667E+04  5.259051E+04 -2.014686E+03 -7.655645E+03
       141   9 -2.632225E+04 -7.065007E+05 -7.201673E+04  7.967790E+04  3.812237E+03  1.583196E+04
       141  10 -4.552336E+04 -7.817088E+05 -9.120712E+04  7.976829E+04  4.834832E-10 -5.468873E-10
       141  11 -8.752367E+03 -6.647048E+05 -5.516709E+04  5.268066E+04 -1.237145E-10 -1.294525E-10
       141  12  1.056805E+04 -5.551879E+05 -3.891636E+04  7.023396E+04  1.050350E-10  1.538202E-10
       141  13 -8.752485E+03 -6.308504E+05 -5.829721E+04  7.495661E+04 -8.493417E-11  2.258750E-10
       141  14  4.026188E+02 -6.271067E+05 -4.701690E+04  5.263558E+04 -3.110532E-10 -2.958404E-10
       141  15 -7.876992E+03 -6.308472E+05 -5.546663E+04  7.495620E+04 -1.093320E-10  6.294817E-10
       141  16  2.801696E+04 -4.799707E+05 -2.538865E+04  7.014374E+04  3.949960E-10  4.641607E-10
       141  17  9.557511E+03 -5.895073E+05 -3.886679E+04  5.259050E+04  1.803072E-11 -9.195737E-11
       141  18 -2.632233E+04 -7.065010E+05 -7.201723E+04  7.967785E+04  8.408221E-11 -4.284439E-10
       141  19 -4.552318E+04 -7.817083E+05 -9.120624E+04  7.976842E+04  7.747758E+03  2.024107E+04
       141  20 -8.752360E+03 -6.647047E+05 -5.516707E+04  5.268065E+04  2.008154E+03 -3.412248E+03
       141  21  1.056826E+04 -5.551871E+05 -3.891496E+04  7.023404E+04 -3.818827E+03 -2.706946E+04
       141  22 -8.752243E+03 -6.308497E+05 -5.829585E+04  7.495677E+04  7.750720E+03  2.569372E+04
       141  23  4.026244E+02 -6.271067E+05 -4.701688E+04  5.263558E+04  2.011420E+03  2.121533E+03
       141  24 -7.876853E+03 -6.308467E+05 -5.546573E+04  7.495626E+04 -3.815575E+03 -2.145037E+04
       141  25  2.801728E+04 -4.799697E+05 -2.538671E+04  7.014394E+04  7.753597E+03  3.114768E+04
       141  26  9.557532E+03 -5.895072E+05 -3.886667E+04  5.259051E+04  2.014686E+03  7.655645E+03
       141  27 -2.632225E+04 -7.065007E+05 -7.201673E+04  7.967790E+04 -3.812237E+03 -1.583196E+04
       142   1  4.786649E+04 -4.733112E+05 -2.677311E+04  9.807573E+04  8.615330E+03  3.955570E+04
       142   2  6.588841E+04 -3.383740E+05 -3.328704E+04  2.365604E+04  1.204275E+04  7.920156E+04
       142   3 -6.852249E+04 -2.467035E+05 -1.037256E+05 -6.619722E+03  4.355830E+03  1.188593E+05
       142   4  7.404564E+03 -6.392154E+05 -6.291377E+04  7.482771E+04  8.608863E+03  3.094601E+04
       142   5 -2.187329E+03 -6.166689E+05 -9.538919E+04  5.279021E+04  1.204788E+04  8.123136E+04
       142   6 -1.661095E+05 -6.392831E+05 -1.992064E+05  7.490374E+04  4.376998E+03  1.315206E+05
       142   7 -3.305713E+04 -8.050924E+05 -9.905552E+04  5.158598E+04  8.603040E+03  2.233860E+04
       142   8 -7.026513E+04 -8.948898E+05 -1.574957E+05  8.191116E+04  1.205319E+04  8.326026E+04
       142   9 -2.636827E+05 -1.031707E+06 -2.946943E+05  1.563755E+05  4.401504E+03  1.441739E+05
       142  10  4.786599E+04 -4.733129E+05 -2.677619E+04  9.807546E+04  8.103756E-10  1.026847E-10
       142  11  6.588657E+04 -3.383808E+05 -3.329911E+04  2.365528E+04  2.193660E-10 -7.652748E-11
       142  12 -6.852631E+04 -2.467187E+05 -1.037522E+05 -6.620139E+03 -1.104081E-10 -1.976309E-10
       142  13  7.404227E+03 -6.392164E+05 -6.291571E+04  7.482750E+04  3.339830E-10  2.509812E-10
       142  14 -2.189259E+03 -6.166761E+05 -9.540187E+04  5.278942E+04  5.098501E-11 -1.271843E-10
       142  15 -1.661142E+05 -6.393017E+05 -1.992390E+05  7.490328E+04 -4.968727E-11  4.267246E-10
       142  16 -3.305734E+04 -8.050929E+05 -9.905660E+04  5.158583E+04 -1.141282E-11 -1.107426E-10
       142  17 -7.026715E+04 -8.948972E+05 -1.575090E+05  8.191035E+04  2.119639E-11 -3.505824E-10
       142  18 -2.636883E+05 -1.031730E+06 -2.947334E+05  1.563750E+05 -1.264868E-10  2.504299E-11
       142  19  4.786649E+04 -4.733112E+05 -2.677311E+04  9.807573E+04 -8.615330E+03 -3.955570E+04
       142  20  6.588841E+04 -3.383740E+05 -3.328704E+04  2.365604E+04 -1.204275E+04 -7.920156E+04
       142  21 -6.852249E+04 -2.467035E+05 -1.037256E+05 -6.619722E+03 -4.355830E+03 -1.188593E+05
       142  22  7.404564E+03 -6.392154E+05 -6.291377E+04  7.482771E+04 -8.608863E+03 -3.094601E+04
       142  23 -2.187329E+03 -6.166689E+05 -9.538919E+04  5.279021E+04 -1.204788E+04 -8.123136E+04
       142  24 -1.661095E+05 -6.392831E+05 -1.992064E+05  7.490374E+04 -4.376998E+03 -1.315206E+05
       142  25 -3.305713E+04 -8.050924E+05 -9.905552E+04  5.158598E+04 -8.603040E+03 -2.233860E+04
       142  26 -7.026513E+04 -8.948898E+05 -1.574957E+05  8.191116E+04 -1.205319E+04 -8.326026E+04
       142  27 -2.636827E+05 -1.031707E+06 -2.946943E+05  1.563755E+05 -4.401504E+03 -1.441739E+05
       143   1  5.130306E+05  3.653758E+05  8.067674E+04  3.708745E+05  5.487785E+04  4.288902E+04
       143   2  5.099597E+05  2.889822E+05  2.854545E+04  4.064975E+05  3.457145E+04  3.123892E+04
       143   3  5.580215E+05  2.680326E+05  1.224101E+04  4.119586E+05  1.604953E+04  1.720777E+04
       143   4  6.362428E+05  3.805284E+05  1.074927E+05  3.985078E+05  5.823353E+04  4.539855E+04
       143   5  5.935001E+05  3.224189E+05  4.936773E+04  4.362014E+05  3.563214E+04  3.203253E+04
       143   6  6.023797E+05  3.202408E+05  2.905281E+04  4.437350E+05  1.481691E+04  1.628435E+04
       143   7  7.594734E+05  3.956829E+05  1.343087E+05  4.261429E+05  6.159013E+04  4.790803E+04
       143   8  6.770480E+05  3.558564E+05  7.018947E+04  4.659085E+05  3.669302E+04  3.282620E+04
       143   9  6.467403E+05  3.724528E+05  4.586434E+04  4.755146E+05  1.358418E+04  1.536077E+04
       143  10  5.130268E+05  3.653730E+05  8.066763E+04  3.708726E+05  2.943887E-10  1.339882E-10
       143  11  5.099582E+05  2.889808E+05  2.854137E+04  4.064966E+05  3.298945E-10 -1.950035E-11
       143  12  5.580211E+05  2.680322E+05  1.223997E+04  4.119584E+05  9.843201E-10 -2.674937E-10
       143  13  6.362386E+05  3.805253E+05  1.074825E+05  3.985057E+05 -1.806038E-10 -1.523730E-10
       143  14  5.934984E+05  3.224174E+05  4.936342E+04  4.362005E+05  5.664018E-10 -2.321051E-10
       143  15  6.023794E+05  3.202405E+05  2.905190E+04  4.437348E+05  2.586105E-10 -1.523208E-10
       143  16  7.594688E+05  3.956795E+05  1.342972E+05  4.261406E+05  1.727359E-10 -2.890712E-10
       143  17  6.770463E+05  3.558549E+05  7.018493E+04  4.659075E+05  3.643086E-10 -4.218309E-10
       143  18  6.467400E+05  3.724525E+05  4.586355E+04  4.755145E+05 -3.248526E-10 -1.882974E-11
       143  19  5.130306E+05  3.653758E+05  8.067674E+04  3.708745E+05 -5.487785E+04 -4.288902E+04
       143  20  5.099597E+05  2.889822E+05  2.854545E+04  4.064975E+05 -3.457145E+04 -3.123892E+04
       143  21  5.580215E+05  2.680326E+05  1.224101E+04  4.119586E+05 -1.604953E+04 -1.720777E+04
       143  22  6.362428E+05  3.805284E+05  1.074927E+05  3.985078E+05 -5.823353E+04 -4.539855E+04
       143  23  5.935001E+05  3.224189E+05  4.936773E+04  4.362014E+05 -3.563214E+04 -3.203253E+04
       143  24  6.023797E+05  3.202408E+05  2.905281E+04  4.437350E+05 -1.481691E+04 -1.628435E+04
       143  25  7.594734E+05  3.956829E+05  1.343087E+05  4.261429E+05 -6.159013E+04 -4.790803E+04
       143  26  6.770480E+05  3.558564E+05  7.018947E+04  4.659085E+05 -3.669302E+04 -3.282620E+04
       143  27  6.467403E+05  3.724528E+05  4.586434E+04  4.755146E+05 -1.358418E+04 -1.536077E+04
       144   1  5.538951E+05  2.923402E+05  9.202770E+03  4.141685E+05  1.255804E+04  1.359448E+04
       144   2  5.616253E+05  2.994257E+05  2.825016E+03  4.224945E+05  7.833607E+03  9.066795E+03
       144   3  5.784657E+05  3.038791E+05  1.799067E+03  4.277848E+05  3.189208E+03  4.431945E+03
       144   4  6.023881E+05  3.240535E+05  2.322359E+04  4.371469E+05  1.200358E+04  1.317877E+04
       144   5  5.969502E+05  3.238045E+05  1.322207E+04  4.398317E+05  7.175691E+03  8.573622E+03
       144   6  6.006442E+05  3.209454E+05  8.661427E+03  4.394806E+05  2.428037E+03  3.861428E+03
       144   7  6.508841E+05  3.557682E+05  3.724432E+04  4.601275E+05  1.144905E+04  1.276302E+04
       144   8  6.322765E+05  3.481839E+05  2.361899E+04  4.571700E+05  6.517724E+03  8.080411E+03
       144   9  6.228230E+05  3.380119E+05  1.552365E+04  4.511768E+05  1.666837E+03  3.290887E+03
       144  10  5.538949E+05  2.923399E+05  9.202127E+03  4.141684E+05  3.067444E-09  1.246274E-09
       144  11  5.616252E+05  2.994256E+05  2.824746E+03  4.224945E+05 -4.209220E-09 -3.279981E-09
       144  12  5.784657E+05  3.038791E+05  1.799011E+03  4.277848E+05 -6.263989E-09 -3.912057E-09
       144  13  6.023879E+05  3.240533E+05  2.322299E+04  4.371468E+05 -1.950934E-09 -1.363971E-09
       144  14  5.969501E+05  3.238044E+05  1.322184E+04  4.398317E+05 -5.519699E-09 -3.438527E-09
       144  15  6.006442E+05  3.209454E+05  8.661388E+03  4.394806E+05 -2.070326E-09 -1.379937E-09
       144  16  6.508839E+05  3.557680E+05  3.724377E+04  4.601274E+05 -6.846571E-09 -4.092519E-09
       144  17  6.322764E+05  3.481839E+05  2.361879E+04  4.571700E+05 -5.962490E-09 -3.635110E-09
       144  18  6.228230E+05  3.380119E+05  1.552363E+04  4.511768E+05  2.287278E-09  8.864878E-10
       144  19  5.538951E+05  2.923402E+05  9.202770E+03  4.141685E+05 -1.255804E+04 -1.359448E+04
       144  20  5.616253E+05  2.994257E+05  2.825016E+03  4.224945E+05 -7.833607E+03 -9.066795E+03
       144  21  5.784657E+05  3.038791E+05  1.799067E+03  4.277848E+05 -3.189208E+03 -4.431945E+03
       144  22  6.023881E+05  3.240535E+05  2.322359E+04  4.371469E+05 -1.200358E+04 -1.317877E+04
       144  23  5.969502E+05  3.238045E+05  1.322207E+04  4.398317E+05 -7.175691E+03 -8.573622E+03
       144  24  6.006442E+05  3.209454E+05  8.661427E+03  4.394806E+05 -2.428037E+03 -3.861428E+03
       144  25  6.508841E+05  3.557682E+05  3.724432E+04  4.601275E+05 -1.144905E+04 -1.276302E+04
       144  26  6.322765E+05  3.481839E+05  2.361899E+04  4.571700E+05 -6.517724E+03 -8.080411E+03
       144  27  6.228230E+05  3.380119E+05  1.552365E+04  4.511768E+05 -1.666837E+03 -3.290887E+03
       145   1  5.871175E+05  3.115777E+05  3.525062E+03  4.323945E+05  2.355869E+03  3.094442E+03
       145   2  5.956840E+05  3.228979E+05  6.190732E+03  4.392678E+05  2.928786E+02  3.596427E+02
       145   3  6.110235E+05  3.285488E+05  1.113177E+04  4.443346E+05 -1.770028E+03 -2.375439E+03
       145   4  6.005927E+05  3.211072E+05  7.484293E+03  4.391228E+05  1.624622E+03  2.546357E+03
       145   5  5.972124E+05  3.239526E+05  6.639643E+03  4.400181E+05 -4.386187E+02 -1.886299E+02
       145   6  6.006048E+05  3.211287E+05  8.070524E+03  4.391067E+05 -2.501720E+03 -2.923860E+03
       145   7  6.140682E+05  3.306368E+05  1.144351E+04  4.458512E+05  8.933535E+02  1.998257E+03
       145   8  5.987407E+05  3.250074E+05  7.088560E+03  4.407683E+05 -1.170122E+03 -7.369073E+02
       145   9  5.901860E+05  3.137085E+05  5.009234E+03  4.338788E+05 -3.233403E+03 -3.472274E+03
       145  10  5.871175E+05  3.115777E+05  3.525033E+03  4.323945E+05 -1.156005E-09 -6.532496E-11
       145  11  5.956840E+05  3.228979E+05  6.190731E+03  4.392678E+05 -1.000431E-10 -4.862143E-10
       145  12  6.110235E+05  3.285488E+05  1.113175E+04  4.443346E+05 -1.949581E-10 -2.461947E-10
       145  13  6.005927E+05  3.211072E+05  7.484276E+03  4.391228E+05  1.793741E-10 -2.663018E-10
       145  14  5.972124E+05  3.239526E+05  6.639643E+03  4.400181E+05 -7.408241E-10 -3.198469E-10
       145  15  6.006048E+05  3.211286E+05  8.070496E+03  4.391067E+05 -3.846657E-10 -2.716831E-10
       145  16  6.140682E+05  3.306368E+05  1.144350E+04  4.458512E+05  1.481119E-09 -2.892198E-10
       145  17  5.987407E+05  3.250074E+05  7.088556E+03  4.407683E+05  7.138417E-11  1.397835E-11
       145  18  5.901860E+05  3.137085E+05  5.009191E+03  4.338788E+05  3.017337E-10 -1.269724E-10
       145  19  5.871175E+05  3.115777E+05  3.525062E+03  4.323945E+05 -2.355869E+03 -3.094442E+03
       145  20  5.956840E+05  3.228979E+05  6.190732E+03  4.392678E+05 -2.928786E+02 -3.596427E+02
       145  21  6.110235E+05  3.285488E+05  1.113177E+04  4.443346E+05  1.770028E+03  2.375439E+03
       145  22  6.005927E+05  3.211072E+05  7.484293E+03  4.391228E+05 -1.624622E+03 -2.546357E+03
       145  23  5.972124E+05  3.239526E+05  6.639643E+03  4.400181E+05  4.386187E+02  1.886299E+02
       145  24  6.006048E+05  3.211287E+05  8.070524E+03  4.391067E+05  2.501720E+03  2.923860E+03
       145  25  6.140682E+05  3.306368E+05  1.144351E+04  4.458512E+05 -8.933535E+02 -1.998257E+03
       145  26  5.987407E+05  3.250074E+05  7.088560E+03  4.407683E+05  1.170122E+03  7.369073E+02
       145  27  5.901860E+05  3.137085E+05  5.009234E+03  4.338788E+05  3.233403E+03  3.472274E+03
       146   1  6.196871E+05  3.360177E+05  1.554933E+04  4.497642E+05 -2.650561E+03 -3.747861E+03
       146   2  6.292417E+05  3.459552E+05  2.456899E+04  4.556114E+05 -8.239893E+03 -9.092230E+03
       146   3  6.483954E+05  3.538733E+05  3.989807E+04  4.582235E+05 -1.390676E+04 -1.433332E+04
       146   4  6.006710E+05  3.209435E+05  9.582627E+03  4.395325E+05 -3.410822E+03 -4.317695E+03
       146   5  5.968931E+05  3.237656E+05  1.507075E+04  4.397973E+05 -8.900453E+03 -9.587377E+03
       146   6  6.026930E+05  3.245471E+05  2.678237E+04  4.368270E+05 -1.446747E+04 -1.475371E+04
       146   7  5.816555E+05  3.058698E+05  3.615951E+03  4.293012E+05 -4.171043E+03 -4.887496E+03
       146   8  5.645458E+05  3.015766E+05  5.572458E+03  4.239842E+05 -9.560963E+03 -1.008249E+04
       146   9  5.569929E+05  2.952217E+05  1.366646E+04  4.154322E+05 -1.502813E+04 -1.517406E+04
       146  10  6.196871E+05  3.360177E+05  1.554929E+04  4.497642E+05 -4.771826E-10 -4.028750E-10
       146  11  6.292416E+05  3.459551E+05  2.456871E+04  4.556114E+05 -3.334774E-10 -2.436588E-11
       146  12  6.483952E+05  3.538731E+05  3.989732E+04  4.582233E+05 -9.607100E-10  3.179207E-10
       146  13  6.006710E+05  3.209435E+05  9.582570E+03  4.395324E+05 -1.486343E-10 -1.162779E-10
       146  14  5.968930E+05  3.237654E+05  1.507043E+04  4.397973E+05 -1.318517E-11  2.752119E-10
       146  15  6.026927E+05  3.245468E+05  2.678157E+04  4.368268E+05 -2.454800E-10  3.117430E-10
       146  16  5.816555E+05  3.058697E+05  3.615874E+03  4.293012E+05  4.728678E-10  3.412484E-10
       146  17  5.645457E+05  3.015765E+05  5.572096E+03  4.239841E+05 -5.586274E-10  4.252766E-10
       146  18  5.569926E+05  2.952214E+05  1.366561E+04  4.154320E+05  5.231846E-10  2.957331E-10
       146  19  6.196871E+05  3.360177E+05  1.554933E+04  4.497642E+05  2.650561E+03  3.747861E+03
       146  20  6.292417E+05  3.459552E+05  2.456899E+04  4.556114E+05  8.239893E+03  9.092230E+03
       146  21  6.483954E+05  3.538733E+05  3.989807E+04  4.582235E+05  1.390676E+04  1.433332E+04
       146  22  6.006710E+05  3.209435E+05  9.582627E+03  4.395325E+05  3.410822E+03  4.317695E+03
       146  23  5.968931E+05  3.237656E+05  1.507075E+04  4.397973E+05  8.900453E+03  9.587377E+03
       146  24  6.026930E+05  3.245471E+05  2.678237E+04  4.368270E+05  1.446747E+04  1.475371E+04
       146  25  5.816555E+05  3.058698E+05  3.615951E+03  4.293012E+05  4.171043E+03  4.887496E+03
       146  26  5.645458E+05  3.015766E+05  5.572458E+03  4.239842E+05  9.560963E+03  1.008249E+04
       146  27  5.569929E+05  2.952217E+05  1.366646E+04  4.154322E+05  1.502813E+04  1.517406E+04
       147   1  6.420654E+05  3.721284E+05  4.948989E+04  4.752963E+05 -1.657805E+04 -1.732223E+04
       147   2  6.757940E+05  3.510433E+05  7.709281E+04  4.630792E+05 -4.289811E+04 -3.723153E+04
       147   3  7.688755E+05  3.962549E+05  1.504315E+05  4.161764E+05 -7.094334E+04 -5.484170E+04
       147   4  6.026904E+05  3.201228E+05  3.358011E+04  4.444657E+05 -1.779277E+04 -1.823211E+04
       147   5  5.928833E+05  3.221620E+05  5.719102E+04  4.355895E+05 -4.190058E+04 -3.648587E+04
       147   6  6.419509E+05  3.900237E+05  1.246249E+05  3.920276E+05 -6.773046E+04 -5.244232E+04
       147   7  5.633170E+05  2.681207E+05  1.766995E+04  4.136376E+05 -1.900741E+04 -1.914184E+04
       147   8  5.099807E+05  2.932816E+05  3.728892E+04  4.081027E+05 -4.090323E+04 -3.574025E+04
       147   9  5.150494E+05  3.837957E+05  9.881916E+04  3.678800E+05 -6.451856E+04 -5.004285E+04
       147  10  6.420650E+05  3.721280E+05  4.948881E+04  4.752961E+05 -8.223527E-10  2.279136E-10
       147  11  6.757916E+05  3.510414E+05  7.708676E+04  4.630780E+05 -4.797990E-10 -1.050279E-11
       147  12  7.688693E+05  3.962503E+05  1.504164E+05  4.161732E+05  2.900351E-10 -8.685838E-11
       147  13  6.026900E+05  3.201224E+05  3.357889E+04  4.444654E+05  3.200488E-10  1.155394E-10
       147  14  5.928810E+05  3.221601E+05  5.718523E+04  4.355883E+05  6.924287E-10 -3.728199E-11
       147  15  6.419452E+05  3.900196E+05  1.246111E+05  3.920248E+05 -1.358068E-11 -4.477544E-11
       147  16  5.633165E+05  2.681202E+05  1.766859E+04  4.136373E+05  8.003760E-10  1.242035E-10
       147  17  5.099785E+05  2.932797E+05  3.728338E+04  4.081015E+05 -2.412430E-10 -5.821281E-11
       147  18  5.150443E+05  3.837919E+05  9.880665E+04  3.678774E+05 -1.798583E-10  3.206659E-11
       147  19  6.420654E+05  3.721284E+05  4.948989E+04  4.752963E+05  1.657805E+04  1.732223E+04
       147  20  6.757940E+05  3.510433E+05  7.709281E+04  4.630792E+05  4.289811E+04  3.723153E+04
       147  21  7.688755E+05  3.962549E+05  1.504315E+05  4.161764E+05  7.094334E+04  5.484170E+04
       147  22  6.026904E+05  3.201228E+05  3.358011E+04  4.444657E+05  1.779277E+04  1.823211E+04
       147  23  5.928833E+05  3.221620E+05  5.719102E+04  4.355895E+05  4.190058E+04  3.648587E+04
       147  24  6.419509E+05  3.900237E+05  1.246249E+05  3.920276E+05  6.773046E+04  5.244232E+04
       147  25  5.633170E+05  2.681207E+05  1.766995E+04  4.136376E+05  1.900741E+04  1.914184E+04
       147  26  5.099807E+05  2.932816E+05  3.728892E+04  4.081027E+05  4.090323E+04  3.574025E+04
       147  27  5.150494E+05  3.837957E+05  9.881916E+04  3.678800E+05  6.451856E+04  5.004285E+04
       148   1  8.745184E+05  1.048579E+05  1.161865E+05  5.079950E+04  5.768385E+04 -2.049661E+03
       148   2  8.357515E+05  3.437478E+04  6.546493E+04  2.506910E+04  3.479414E+04 -6.158560E+03
       148   3  8.148032E+05  2.325282E+04  4.447213E+04  1.088506E+04  1.190585E+04 -5.718135E+03
       148   4  7.070536E+05  6.328790E+04  7.564012E+04  1.976640E+04  5.154251E+04 -2.052348E+03
       148   5  6.985344E+05  8.699077E+02  3.504029E+04  1.399335E+04  3.302809E+04 -6.159280E+03
       148   6  7.070783E+05 -2.939721E+03  2.113856E+04  1.976547E+04  1.451384E+04 -5.717909E+03
       148   7  5.396165E+05  2.171951E+04  3.509237E+04 -1.125832E+04  4.540282E+04 -2.054423E+03
       148   8  5.613351E+05 -3.263577E+04  4.614571E+03  2.920069E+03  3.126242E+04 -6.159938E+03
       148   9  5.993644E+05 -2.913273E+04 -2.195631E+03  2.864432E+04  1.712137E+04 -5.717608E+03
       148  10  8.745148E+05  1.048570E+05  1.161803E+05  5.079959E+04  1.683749E-10  3.581613E-11
       148  11  8.357502E+05  3.437441E+04  6.546258E+04  2.506927E+04  5.628141E-11  1.831869E-10
       148  12  8.148030E+05  2.325274E+04  4.447180E+04  1.088511E+04 -1.994149E-10  4.703118E-10
       148  13  7.070507E+05  6.328718E+04  7.563513E+04  1.976648E+04 -3.788103E-11  3.626873E-11
       148  14  6.985332E+05  8.695745E+02  3.503817E+04  1.399351E+04 -9.892249E-11  1.883223E-10
       148  15  7.070780E+05 -2.939813E+03  2.113810E+04  1.976554E+04 -3.346647E-10  2.830237E-10
       148  16  5.396143E+05  2.171896E+04  3.508849E+04 -1.125824E+04 -5.053329E-11  2.243553E-11
       148  17  5.613340E+05 -3.263607E+04  4.612664E+03  2.920224E+03  1.433997E-10  1.022795E-10
       148  18  5.993641E+05 -2.913284E+04 -2.196242E+03  2.864440E+04  5.818439E-10  1.187320E-10
       148  19  8.745184E+05  1.048579E+05  1.161865E+05  5.079950E+04 -5.768385E+04  2.049661E+03
       148  20  8.357515E+05  3.437478E+04  6.546493E+04  2.506910E+04 -3.479414E+04  6.158560E+03
       148  21  8.148032E+05  2.325282E+04  4.447213E+04  1.088506E+04 -1.190585E+04  5.718135E+03
       148  22  7.070536E+05  6.328790E+04  7.564012E+04  1.976640E+04 -5.154251E+04  2.052348E+03
       148  23  6.985344E+05  8.699077E+02  3.504029E+04  1.399335E+04 -3.302809E+04  6.159280E+03
       148  24  7.070783E+05 -2.939721E+03  2.113856E+04  1.976547E+04 -1.451384E+04  5.717909E+03
       148  25  5.396165E+05  2.171951E+04  3.509237E+04 -1.125832E+04 -4.540282E+04  2.054423E+03
       148  26  5.613351E+05 -3.263577E+04  4.614571E+03  2.920069E+03 -3.126242E+04  6.159938E+03
       148  27  5.993644E+05 -2.913273E+04 -2.195631E+03  2.864432E+04 -1.712137E+04  5.717608E+03
       149   1  7.876143E+05  2.364686E+04  3.556390E+04  2.100103E+04  1.015323E+04 -4.344395E+03
       149   2  7.570881E+05  1.309150E+04  2.279728E+04  1.427799E+04  4.436799E+03 -2.874525E+03
       149   3  7.281562E+05  5.937758E+03  1.459907E+04  1.926370E+04 -1.279376E+03 -1.207191E+03
       149   4  7.036304E+05  3.211480E+03  1.730143E+04  1.980198E+04  1.147025E+04 -4.344369E+03
       149   5  7.028518E+05 -9.715634E+01  1.104622E+04  1.394772E+04  5.944156E+03 -2.874426E+03
       149   6  7.036335E+05 -3.699255E+01  9.227771E+03  1.980223E+04  4.180530E+02 -1.207023E+03
       149   7  6.196532E+05 -1.722437E+04 -9.614630E+02  1.860309E+04  1.278709E+04 -4.344348E+03
       149   8  6.486183E+05 -1.328601E+04 -7.050119E+02  1.361748E+04  7.451382E+03 -2.874328E+03
       149   9  6.791113E+05 -6.011780E+03  3.856443E+03  2.034073E+04  2.115415E+03 -1.206852E+03
       149  10  7.876141E+05  2.364682E+04  3.556367E+04  2.100107E+04 -5.137402E-10  6.348129E-10
       149  11  7.570881E+05  1.309149E+04  2.279723E+04  1.427800E+04 -6.167009E-10  7.336919E-10
       149  12  7.281562E+05  5.937756E+03  1.459907E+04  1.926370E+04 -1.999512E-09  5.958439E-11
       149  13  7.036303E+05  3.211424E+03  1.730115E+04  1.980202E+04 -5.052031E-11  4.841042E-10
       149  14  7.028518E+05 -9.717468E+01  1.104614E+04  1.394774E+04 -5.353367E-10  6.072556E-10
       149  15  7.036335E+05 -3.699416E+01  9.227768E+03  1.980223E+04 -2.698866E-10  3.267885E-11
       149  16  6.196530E+05 -1.722443E+04 -9.618054E+02  1.860314E+04  1.072772E-09  3.894998E-10
       149  17  6.486182E+05 -1.328603E+04 -7.051317E+02  1.361750E+04  6.451183E-10  5.013409E-10
       149  18  6.791113E+05 -6.011783E+03  3.856432E+03  2.034073E+04  2.054732E-09  5.813240E-11
       149  19  7.876143E+05  2.364686E+04  3.556390E+04  2.100103E+04 -1.015323E+04  4.344395E+03
       149  20  7.570881E+05  1.309150E+04  2.279728E+04  1.427799E+04 -4.436799E+03  2.874525E+03
       149  21  7.281562E+05  5.937758E+03  1.459907E+04  1.926370E+04  1.279376E+03  1.207191E+03
       149  22  7.036304E+05  3.211480E+03  1.730143E+04  1.980198E+04 -1.147025E+04  4.344369E+03
       149  23  7.028518E+05 -9.715634E+01  1.104622E+04  1.394772E+04 -5.944156E+03  2.874426E+03
       149  24  7.036335E+05 -3.699255E+01  9.227771E+03  1.980223E+04 -4.180530E+02  1.207023E+03
       149  25  6.196532E+05 -1.722437E+04 -9.614630E+02  1.860309E+04 -1.278709E+04  4.344348E+03
       149  26  6.486183E+05 -1.328601E+04 -7.050119E+02  1.361748E+04 -7.451382E+03  2.874328E+03
       149  27  6.791113E+05 -6.011780E+03  3.856443E+03  2.034073E+04 -2.115415E+03  1.206852E+03
       150   1  7.045933E+05  1.386188E+02  9.491077E+03  2.042227E+04 -2.909931E+03 -1.663661E+02
       150   2  6.740434E+05 -7.099194E+03  5.548460E+03  1.360029E+04 -8.651193E+03  1.507229E+03
       150   3  6.451599E+05 -1.065407E+04  6.261002E+03  1.848361E+04 -1.439224E+04  3.013646E+03
       150   4  7.036633E+05 -7.309268E+01  9.362516E+03  1.980146E+04 -1.221132E+03 -1.661877E+02
       150   5  7.028149E+05 -1.002645E+02  1.179324E+04  1.394868E+04 -7.123272E+03  1.507356E+03
       150   6  7.036603E+05  3.583417E+03  1.899066E+04  1.980114E+04 -1.302546E+04  3.013712E+03
       150   7  7.027333E+05 -2.848012E+02  9.233966E+03  1.918065E+04  4.676655E+02 -1.660126E+02
       150   8  7.315873E+05  6.898612E+03  1.803798E+04  1.429709E+04 -5.595282E+03  1.507486E+03
       150   9  7.621639E+05  1.782068E+04  3.172013E+04  2.111880E+04 -1.165856E+04  3.013784E+03
       150  10  7.045933E+05  1.386165E+02  9.491061E+03  2.042227E+04 -1.782224E-08 -8.547910E-10
       150  11  6.740433E+05 -7.099217E+03  5.548315E+03  1.360030E+04 -3.416555E-10 -2.081824E-09
       150  12  6.451597E+05 -1.065414E+04  6.260596E+03  1.848365E+04  1.783662E-08 -9.603407E-10
       150  13  7.036633E+05 -7.309311E+01  9.362513E+03  1.980146E+04 -2.612962E-10 -9.848123E-10
       150  14  7.028149E+05 -1.002805E+02  1.179314E+04  1.394869E+04 -5.003297E-12 -2.132175E-09
       150  15  7.036601E+05  3.583362E+03  1.899033E+04  1.980117E+04  1.245846E-10 -8.225408E-10
       150  16  7.027332E+05 -2.848013E+02  9.233966E+03  1.918065E+04  1.835567E-08 -1.139771E-09
       150  17  7.315872E+05  6.898601E+03  1.803792E+04  1.429710E+04 -4.779454E-10 -2.243577E-09
       150  18  7.621638E+05  1.782064E+04  3.171986E+04  2.111883E+04 -1.843522E-08 -7.920917E-10
       150  19  7.045933E+05  1.386188E+02  9.491077E+03  2.042227E+04  2.909931E+03  1.663661E+02
       150  20  6.740434E+05 -7.099194E+03  5.548460E+03  1.360029E+04  8.651193E+03 -1.507229E+03
       150  21  6.451599E+05 -1.065407E+04  6.261002E+03  1.848361E+04  1.439224E+04 -3.013646E+03
       150  22  7.036633E+05 -7.309268E+01  9.362516E+03  1.980146E+04  1.221132E+03  1.661877E+02
       150  23  7.028149E+05 -1.002645E+02  1.179324E+04  1.394868E+04  7.123272E+03 -1.507356E+03
       150  24  7.036603E+05  3.583417E+03  1.899066E+04  1.980114E+04  1.302546E+04 -3.013712E+03
       150  25  7.027333E+05 -2.848012E+02  9.233966E+03  1.918065E+04 -4.676655E+02  1.660126E+02
       150  26  7.315873E+05  6.898612E+03  1.803798E+04  1.429709E+04  5.595282E+03 -1.507486E+03
       150  27  7.621639E+05  1.782068E+04  3.172013E+04  2.111880E+04  1.165856E+04 -3.013784E+03
       151   1  6.253079E+05 -2.326425E+04  5.518049E+03  2.967127E+04 -1.884388E+04  4.334413E+03
       151   2  5.862998E+05 -2.631137E+04  1.414007E+04  1.656266E+03 -3.567513E+04  4.960157E+03
       151   3  5.656482E+05  3.529513E+04  4.987813E+04 -1.479869E+04 -5.250541E+04  1.688450E+03
       151   4  7.075097E+05 -3.272830E+03  2.334260E+04  1.976914E+04 -1.637183E+04  4.334851E+03
       151   5  6.979962E+05  9.733585E+02  3.894354E+04  1.398880E+04 -3.695161E+04  4.959343E+03
       151   6  7.074829E+05  7.051505E+04  8.425768E+04  1.976783E+04 -5.753136E+04  1.685494E+03
       151   7  7.897181E+05  1.671851E+04  4.116682E+04  9.865679E+03 -1.389945E+04  4.335210E+03
       151   8  8.097045E+05  2.825782E+04  6.374633E+04  2.632358E+04 -3.822832E+04  4.958478E+03
       151   9  8.493386E+05  1.057380E+05  1.186365E+05  5.434226E+04 -6.255845E+04  1.681980E+03
       151  10  6.253075E+05 -2.326436E+04  5.517347E+03  2.967134E+04  1.544946E-09  3.659671E-10
       151  11  5.862985E+05 -2.631174E+04  1.413763E+04  1.656408E+03  2.367081E-10  1.085316E-09
       151  12  5.656452E+05  3.529439E+04  4.987294E+04 -1.479862E+04  8.971173E-10  4.635551E-10
       151  13  7.075094E+05 -3.272922E+03  2.334206E+04  1.976920E+04 -5.018369E-10  3.510218E-10
       151  14  6.979947E+05  9.729660E+02  3.894093E+04  1.398895E+04  2.595022E-10  1.014621E-09
       151  15  7.074794E+05  7.051416E+04  8.425147E+04  1.976790E+04  2.100801E-10  4.144607E-10
       151  16  7.897179E+05  1.671844E+04  4.116642E+04  9.865728E+03 -1.093447E-09  5.287561E-10
       151  17  8.097029E+05  2.825740E+04  6.374355E+04  2.632373E+04 -1.159775E-09  9.348412E-10
       151  18  8.493344E+05  1.057369E+05  1.186292E+05  5.434234E+04 -1.068607E-09  3.517012E-10
       151  19  6.253079E+05 -2.326425E+04  5.518049E+03  2.967127E+04  1.884388E+04 -4.334413E+03
       151  20  5.862998E+05 -2.631137E+04  1.414007E+04  1.656266E+03  3.567513E+04 -4.960157E+03
       151  21  5.656482E+05  3.529513E+04  4.987813E+04 -1.479869E+04  5.250541E+04 -1.688450E+03
       151  22  7.075097E+05 -3.272830E+03  2.334260E+04  1.976914E+04  1.637183E+04 -4.334851E+03
       151  23  6.979962E+05  9.733585E+02  3.894354E+04  1.398880E+04  3.695161E+04 -4.959343E+03
       151  24  7.074829E+05  7.051505E+04  8.425768E+04  1.976783E+04  5.753136E+04 -1.685494E+03
       151  25  7.897181E+05  1.671851E+04  4.116682E+04  9.865679E+03  1.389945E+04 -4.335210E+03
       151  26  8.097045E+05  2.825782E+04  6.374633E+04  2.632358E+04  3.822832E+04 -4.958478E+03
       151  27  8.493386E+05  1.057380E+05  1.186365E+05  5.434226E+04  6.255845E+04 -1.681980E+03
       152   1 -2.064917E+05 -7.110052E+05 -2.302349E+05  1.109250E+05 -3.684786E+03 -1.131194E+05
       152   2 -6.042339E+04 -6.206245E+05 -1.269179E+05  5.631223E+04 -1.062202E+04 -6.604641E+04
       152   3 -3.533703E+04 -5.666246E+05 -8.451503E+04  2.973070E+04 -8.884686E+03 -1.896851E+04
       152   4 -1.286997E+05 -3.980879E+05 -1.542410E+05  4.777344E+04 -3.671068E+03 -1.023164E+05
       152   5 -1.724888E+03 -3.806075E+05 -7.350674E+04  3.373985E+04 -1.061868E+04 -6.355133E+04
       152   6  5.732912E+03 -3.980545E+05 -4.789473E+04  4.774381E+04 -8.887058E+03 -2.478739E+04
       152   7 -5.089992E+04 -8.507236E+04 -7.825159E+04 -1.541009E+04 -3.659555E+03 -9.150799E+04
       152   8  5.697163E+04 -1.405355E+05 -2.009883E+04  1.115862E+04 -1.061552E+04 -6.105529E+04
       152   9  4.680220E+04 -2.294570E+05 -1.127581E+04  6.576187E+04 -8.889767E+03 -3.060782E+04
       152  10 -2.064951E+05 -7.110190E+05 -2.302590E+05  1.109247E+05 -9.313815E-11 -1.476636E-10
       152  11 -6.042469E+04 -6.206292E+05 -1.269264E+05  5.631167E+04 -2.468370E-10  4.188569E-10
       152  12 -3.533721E+04 -5.666250E+05 -8.451586E+04  2.973057E+04  3.848354E-12  5.467750E-10
       152  13 -1.287026E+05 -3.980992E+05 -1.542607E+05  4.777313E+04 -3.185254E-10 -1.231444E-11
       152  14 -1.726095E+03 -3.806118E+05 -7.351454E+04  3.373930E+04 -3.201151E-10  2.516046E-10
       152  15  5.732662E+03 -3.980552E+05 -4.789603E+04  4.774363E+04 -2.240548E-10  1.184056E-10
       152  16 -5.090219E+04 -8.508135E+04 -7.826735E+04 -1.541036E+04  5.088002E-11  1.245690E-10
       152  17  5.697051E+04 -1.405395E+05 -2.010605E+04  1.115810E+04 -1.915047E-10 -1.671772E-10
       152  18  4.680187E+04 -2.294580E+05 -1.127772E+04  6.576165E+04 -6.779432E-12 -4.800024E-10
       152  19 -2.064917E+05 -7.110052E+05 -2.302349E+05  1.109250E+05  3.684786E+03  1.131194E+05
       152  20 -6.042339E+04 -6.206245E+05 -1.269179E+05  5.631223E+04  1.062202E+04  6.604641E+04
       152  21 -3.533703E+04 -5.666246E+05 -8.451503E+04  2.973070E+04  8.884686E+03  1.896851E+04
       152  22 -1.286997E+05 -3.980879E+05 -1.542410E+05  4.777344E+04  3.671068E+03  1.023164E+05
       152  23 -1.724888E+03 -3.806075E+05 -7.350674E+04  3.373985E+04  1.061868E+04  6.355133E+04
       152  24  5.732912E+03 -3.980545E+05 -4.789473E+04  4.774381E+04  8.887058E+03  2.478739E+04
       152  25 -5.089992E+04 -8.507236E+04 -7.825159E+04 -1.541009E+04  3.659555E+03  9.150799E+04
       152  26  5.697163E+04 -1.405355E+05 -2.009883E+04  1.115862E+04  1.061552E+04  6.105529E+04
       152  27  4.680220E+04 -2.294570E+05 -1.127581E+04  6.576187E+04  8.889767E+03  3.060782E+04
       153   1 -3.324208E+04 -5.025647E+05 -6.603513E+04  5.134064E+04 -5.713472E+03 -1.416212E+04
       153   2 -9.192136E+03 -4.276664E+05 -4.279545E+04  3.362193E+04 -2.077385E+03  3.155720E+03
       153   3  2.089887E+03 -3.582322E+05 -3.403291E+04  4.434205E+04  1.649019E+03  2.047530E+04
       153   4 -6.179843E+03 -3.915055E+05 -4.182366E+04  4.784083E+04 -5.714589E+03 -1.760288E+04
       153   5  2.746528E+02 -3.887778E+05 -3.436777E+04  3.362124E+04 -2.078683E+03 -3.701240E+02
       153   6 -6.023076E+03 -3.915038E+05 -4.132846E+04  4.784078E+04  1.647715E+03  1.686243E+04
       153   7  2.088163E+04 -2.804347E+05 -1.761288E+04  4.434039E+04 -5.715667E+03 -2.104426E+04
       153   8  9.741348E+03 -3.498878E+05 -2.594014E+04  3.362055E+04 -2.079980E+03 -3.896186E+03
       153   9 -1.413606E+04 -4.247743E+05 -4.862402E+04  5.133932E+04  1.646371E+03  1.324975E+04
       153  10 -3.324217E+04 -5.025649E+05 -6.603557E+04  5.134057E+04  2.318400E-10 -3.511440E-10
       153  11 -9.192143E+03 -4.276665E+05 -4.279547E+04  3.362193E+04 -1.061816E-10  2.803290E-10
       153  12  2.089772E+03 -3.582326E+05 -3.403370E+04  4.434202E+04  2.248332E-10  1.328025E-10
       153  13 -6.179961E+03 -3.915059E+05 -4.182431E+04  4.784075E+04 -2.715566E-10  2.817786E-11
       153  14  2.746481E+02 -3.887778E+05 -3.436778E+04  3.362124E+04 -4.834111E-10  3.711197E-10
       153  15 -6.023156E+03 -3.915041E+05 -4.132900E+04  4.784076E+04 -6.530125E-10  1.230708E-10
       153  16  2.088147E+04 -2.804352E+05 -1.761378E+04  4.434029E+04 -1.545573E-11  2.487293E-10
       153  17  9.741339E+03 -3.498878E+05 -2.594018E+04  3.362054E+04 -3.781065E-11  2.134052E-10
       153  18 -1.413611E+04 -4.247745E+05 -4.862436E+04  5.133930E+04 -6.151680E-10 -1.462714E-10
       153  19 -3.324208E+04 -5.025647E+05 -6.603513E+04  5.134064E+04  5.713472E+03  1.416212E+04
       153  20 -9.192136E+03 -4.276664E+05 -4.279545E+04  3.362193E+04  2.077385E+03 -3.155720E+03
       153  21  2.089887E+03 -3.582322E+05 -3.403291E+04  4.434205E+04 -1.649019E+03 -2.047530E+04
       153  22 -6.179843E+03 -3.915055E+05 -4.182366E+04  4.784083E+04  5.714589E+03  1.760288E+04
       153  23  2.746528E+02 -3.887778E+05 -3.436777E+04  3.362124E+04  2.078683E+03  3.701240E+02
       153  24 -6.023076E+03 -3.915038E+05 -4.132846E+04  4.784078E+04 -1.647715E+03 -1.686243E+04
       153  25  2.088163E+04 -2.804347E+05 -1.761288E+04  4.434039E+04  5.715667E+03  2.104426E+04
       153  26  9.741348E+03 -3.498878E+05 -2.594014E+04  3.362055E+04  2.079980E+03  3.896186E+03
       153  27 -1.413606E+04 -4.247743E+05 -4.862402E+04  5.133932E+04 -1.646371E+03 -1.324975E+04
       154   1  2.773612E+04 -3.071262E+05 -2.736875E+04  6.536902E+04  4.674399E+03  2.935948E+04
       154   2  3.806009E+04 -2.183817E+05 -3.576702E+04  1.160858E+04  6.964328E+03  6.093013E+04
       154   3 -6.740304E+04 -1.626947E+05 -9.366811E+04 -1.399973E+04  2.555931E+03  9.250619E+04
       154   4  5.603099E+03 -3.978875E+05 -4.715772E+04  4.776801E+04  4.671547E+03  2.395397E+04
       154   5 -1.674622E+03 -3.808061E+05 -7.204284E+04  3.370929E+04  6.966956E+03  6.194077E+04
       154   6 -1.258770E+05 -3.979172E+05 -1.508993E+05  4.780555E+04  2.567291E+03  9.992894E+04
       154   7 -1.652929E+04 -4.886404E+05 -6.694691E+04  3.016960E+04  4.669002E+03  1.854923E+04
       154   8 -4.140929E+04 -5.432049E+05 -1.083200E+05  5.580416E+04  6.969657E+03  6.295114E+04
       154   9 -1.843407E+05 -6.330809E+05 -2.081322E+05  1.095873E+05  2.580133E+03  1.073489E+05
       154  10  2.773586E+04 -3.071271E+05 -2.737041E+04  6.536891E+04  4.877957E-10 -6.696348E-11
       154  11  3.805905E+04 -2.183857E+05 -3.577409E+04  1.160824E+04 -2.937107E-10  2.825028E-10
       154  12 -6.740535E+04 -1.627039E+05 -9.368420E+04 -1.399992E+04 -1.586675E-10  3.181996E-11
       154  13  5.602921E+03 -3.978882E+05 -4.715884E+04  4.776792E+04 -2.039931E-10  3.151814E-11
       154  14 -1.675705E+03 -3.808103E+05 -7.205014E+04  3.370895E+04 -2.414968E-10  1.948047E-10
       154  15 -1.258797E+05 -3.979279E+05 -1.509181E+05  4.780534E+04 -7.257732E-11  1.987882E-11
       154  16 -1.652941E+04 -4.886408E+05 -6.694760E+04  3.016953E+04 -7.160452E-10 -1.729366E-11
       154  17 -4.141041E+04 -5.432091E+05 -1.083276E+05  5.580380E+04  8.809099E-12 -3.523362E-12
       154  18 -1.843438E+05 -6.330933E+05 -2.081539E+05  1.095871E+05 -1.056815E-11  3.495535E-11
       154  19  2.773612E+04 -3.071262E+05 -2.736875E+04  6.536902E+04 -4.674399E+03 -2.935948E+04
       154  20  3.806009E+04 -2.183817E+05 -3.576702E+04  1.160858E+04 -6.964328E+03 -6.093013E+04
       154  21 -6.740304E+04 -1.626947E+05 -9.366811E+04 -1.399973E+04 -2.555931E+03 -9.250619E+04
       154  22  5.603099E+03 -3.978875E+05 -4.715772E+04  4.776801E+04 -4.671547E+03 -2.395397E+04
       154  23 -1.674622E+03 -3.808061E+05 -7.204284E+04  3.370929E+04 -6.966956E+03 -6.194077E+04
       154  24 -1.258770E+05 -3.979172E+05 -1.508993E+05  4.780555E+04 -2.567291E+03 -9.992894E+04
       154  25 -1.652929E+04 -4.886404E+05 -6.694691E+04  3.016960E+04 -4.669002E+03 -1.854923E+04
       154  26 -4.140929E+04 -5.432049E+05 -1.083200E+05  5.580416E+04 -6.969657E+03 -6.295114E+04
       154  27 -1.843407E+05 -6.330809E+05 -2.081322E+05  1.095873E+05 -2.580133E+03 -1.073489E+05
       155   1  3.631631E+05  2.496898E+05  4.612156E+04  2.660707E+05  3.256328E+04  2.564965E+04
       155   2  3.612101E+05  2.035925E+05  1.491374E+04  2.873917E+05  2.033684E+04  1.905708E+04
       155   3  3.898805E+05  1.909127E+05  5.095285E+03  2.905951E+05  9.336272E+03  1.082900E+04
       155   4  4.445966E+05  2.640168E+05  6.467275E+04  2.863185E+05  3.493756E+04  2.742775E+04
       155   5  4.189237E+05  2.290037E+05  2.970148E+04  3.089820E+05  2.113749E+04  1.965686E+04
       155   6  4.242122E+05  2.277457E+05  1.748194E+04  3.135286E+05  8.563832E+03  1.025003E+04
       155   7  5.260386E+05  2.783446E+05  8.322393E+04  3.065676E+05  3.731228E+04  2.920586E+04
       155   8  4.766414E+05  2.544156E+05  4.448909E+04  3.305742E+05  2.193824E+04  2.025668E+04
       155   9  4.585455E+05  2.645810E+05  2.986859E+04  3.364641E+05  7.791328E+03  9.670981E+03
       155  10  3.631618E+05  2.496889E+05  4.611833E+04  2.660700E+05 -1.715723E-10 -1.416369E-10
       155  11  3.612096E+05  2.035920E+05  1.491228E+04  2.873914E+05 -1.394221E-10  1.704295E-10
       155  12  3.898804E+05  1.909125E+05  5.094901E+03  2.905950E+05  5.334802E-10  2.703128E-10
       155  13  4.445951E+05  2.640157E+05  6.466904E+04  2.863177E+05  2.430987E-10  1.076435E-10
       155  14  4.189231E+05  2.290032E+05  2.969992E+04  3.089817E+05 -5.768181E-10  2.291099E-10
       155  15  4.242121E+05  2.277456E+05  1.748161E+04  3.135285E+05  2.546689E-10  2.598160E-11
       155  16  5.260368E+05  2.783433E+05  8.321972E+04  3.065667E+05  6.802962E-10  3.272909E-10
       155  17  4.766407E+05  2.544151E+05  4.448741E+04  3.305739E+05 -3.524336E-12  2.077660E-10
       155  18  4.585454E+05  2.645809E+05  2.986830E+04  3.364640E+05  3.044159E-10 -1.757566E-10
       155  19  3.631631E+05  2.496898E+05  4.612156E+04  2.660707E+05 -3.256328E+04 -2.564965E+04
       155  20  3.612101E+05  2.035925E+05  1.491374E+04  2.873917E+05 -2.033684E+04 -1.905708E+04
       155  21  3.898805E+05  1.909127E+05  5.095285E+03  2.905951E+05 -9.336272E+03 -1.082900E+04
       155  22  4.445966E+05  2.640168E+05  6.467275E+04  2.863185E+05 -3.493756E+04 -2.742775E+04
       155  23  4.189237E+05  2.290037E+05  2.970148E+04  3.089820E+05 -2.113749E+04 -1.965686E+04
       155  24  4.242122E+05  2.277457E+05  1.748194E+04  3.135286E+05 -8.563832E+03 -1.025003E+04
       155  25  5.260386E+05  2.783446E+05  8.322393E+04  3.065676E+05 -3.731228E+04 -2.920586E+04
       155  26  4.766414E+05  2.544156E+05  4.448909E+04  3.305742E+05 -2.193824E+04 -2.025668E+04
       155  27  4.585455E+05  2.645810E+05  2.986859E+04  3.364641E+05 -7.791328E+03 -9.670981E+03
       156   1  3.872730E+05  2.054433E+05  3.218478E+03  2.918589E+05  7.186075E+03  8.602323E+03
       156   2  3.917930E+05  2.095387E+05 -6.554005E+02  2.967661E+05  4.332049E+03  5.904652E+03
       156   3  4.017019E+05  2.121409E+05 -1.313214E+03  2.998745E+05  1.533124E+03  3.133478E+03
       156   4  4.242219E+05  2.300373E+05  1.397692E+04  3.095641E+05  6.878776E+03  8.371882E+03
       156   5  4.209946E+05  2.298410E+05  7.964316E+03  3.111655E+05  3.953884E+03  5.621111E+03
       156   6  4.231714E+05  2.281668E+05  5.229085E+03  3.109680E+05  1.084130E+03  2.796857E+03
       156   7  4.611719E+05  2.546316E+05  2.473508E+04  3.272703E+05  6.571456E+03  8.141426E+03
       156   8  4.501969E+05  2.501436E+05  1.658389E+04  3.255655E+05  3.575698E+03  5.337554E+03
       156   9  4.446414E+05  2.441931E+05  1.177133E+04  3.220620E+05  6.351159E+02  2.460219E+03
       156  10  3.872729E+05  2.054432E+05  3.218243E+03  2.918589E+05  1.727374E-10 -6.416610E-11
       156  11  3.917930E+05  2.095386E+05 -6.555012E+02  2.967661E+05  5.679346E-10  3.296633E-11
       156  12  4.017019E+05  2.121409E+05 -1.313237E+03  2.998745E+05  5.061436E-11  1.406971E-10
       156  13  4.242219E+05  2.300372E+05  1.397670E+04  3.095641E+05 -7.034149E-10 -6.160658E-11
       156  14  4.209945E+05  2.298410E+05  7.964227E+03  3.111654E+05  3.421367E-10  1.604909E-11
       156  15  4.231714E+05  2.281668E+05  5.229069E+03  3.109680E+05  4.059546E-11  2.134246E-10
       156  16  4.611719E+05  2.546315E+05  2.473488E+04  3.272703E+05  9.400960E-11 -9.680499E-11
       156  17  4.501969E+05  2.501436E+05  1.658381E+04  3.255655E+05 -5.144629E-10 -3.007585E-11
       156  18  4.446414E+05  2.441931E+05  1.177132E+04  3.220620E+05  1.515478E-10  2.877679E-10
       156  19  3.872730E+05  2.054433E+05  3.218478E+03  2.918589E+05 -7.186075E+03 -8.602323E+03
       156  20  3.917930E+05  2.095387E+05 -6.554005E+02  2.967661E+05 -4.332049E+03 -5.904652E+03
       156  21  4.017019E+05  2.121409E+05 -1.313214E+03  2.998745E+05 -1.533124E+03 -3.133478E+03
       156  22  4.242219E+05  2.300373E+05  1.397692E+04  3.095641E+05 -6.878776E+03 -8.371882E+03
       156  23  4.209946E+05  2.298410E+05  7.964316E+03  3.111655E+05 -3.953884E+03 -5.621111E+03
       156  24  4.231714E+05  2.281668E+05  5.229085E+03  3.109680E+05 -1.084130E+03 -2.796857E+03
       156  25  4.611719E+05  2.546316E+05  2.473508E+04  3.272703E+05 -6.571456E+03 -8.141426E+03
       156  26  4.501969E+05  2.501436E+05  1.658389E+04  3.255655E+05 -3.575698E+03 -5.337554E+03
       156  27  4.446414E+05  2.441931E+05  1.177133E+04  3.220620E+05 -6.351159E+02 -2.460219E+03
       157   1  4.067689E+05  2.166764E+05 -3.106666E+02  3.025797E+05  1.021934E+03  2.330297E+03
       157   2  4.117908E+05  2.233184E+05  1.261747E+03  3.066128E+05 -2.439737E+02  6.840948E+02
       157   3  4.208012E+05  2.266435E+05  4.217728E+03  3.095864E+05 -1.509264E+03 -9.630298E+02
       157   4  4.231411E+05  2.282639E+05  4.527155E+03  3.107531E+05  5.936321E+02  2.009190E+03
       157   5  4.211511E+05  2.299299E+05  4.038007E+03  3.112773E+05 -6.731801E+02  3.623129E+02
       157   6  4.231496E+05  2.282789E+05  4.933152E+03  3.107419E+05 -1.939337E+03 -1.285454E+03
       157   7  4.395138E+05  2.398517E+05  9.365005E+03  3.189268E+05  1.653104E+02  1.688069E+03
       157   8  4.305114E+05  2.365413E+05  6.814257E+03  3.159418E+05 -1.102395E+03  4.052445E+01
       157   9  4.254979E+05  2.299144E+05  5.648569E+03  3.118973E+05 -2.369407E+03 -1.607877E+03
       157  10  4.067689E+05  2.166764E+05 -3.106788E+02  3.025797E+05  7.532298E-11  4.088720E-10
       157  11  4.117908E+05  2.233184E+05  1.261746E+03  3.066128E+05  4.898465E-11  5.527303E-11
       157  12  4.208012E+05  2.266435E+05  4.217722E+03  3.095864E+05 -2.131598E-10 -1.345890E-10
       157  13  4.231411E+05  2.282639E+05  4.527147E+03  3.107531E+05 -3.606650E-10  1.865534E-10
       157  14  4.211511E+05  2.299299E+05  4.038006E+03  3.112773E+05  3.039420E-10 -1.680502E-10
       157  15  4.231495E+05  2.282789E+05  4.933142E+03  3.107419E+05 -1.359825E-10 -6.552686E-11
       157  16  4.395138E+05  2.398517E+05  9.364999E+03  3.189268E+05 -2.685028E-10 -5.879715E-11
       157  17  4.305114E+05  2.365413E+05  6.814255E+03  3.159418E+05 -1.604965E-10 -6.866055E-11
       157  18  4.254979E+05  2.299144E+05  5.648553E+03  3.118973E+05  2.249631E-10  7.671814E-11
       157  19  4.067689E+05  2.166764E+05 -3.106666E+02  3.025797E+05 -1.021934E+03 -2.330297E+03
       157  20  4.117908E+05  2.233184E+05  1.261747E+03  3.066128E+05  2.439737E+02 -6.840948E+02
       157  21  4.208012E+05  2.266435E+05  4.217728E+03  3.095864E+05  1.509264E+03  9.630298E+02
       157  22  4.231411E+05  2.282639E+05  4.527155E+03  3.107531E+05 -5.936321E+02 -2.009190E+03
       157  23  4.211511E+05  2.299299E+05  4.038007E+03  3.112773E+05  6.731801E+02 -3.623129E+02
       157  24  4.231496E+05  2.282789E+05  4.933152E+03  3.107419E+05  1.939337E+03  1.285454E+03
       157  25  4.395138E+05  2.398517E+05  9.365005E+03  3.189268E+05 -1.653104E+02 -1.688069E+03
       157  26  4.305114E+05  2.365413E+05  6.814257E+03  3.159418E+05  1.102395E+03 -4.052445E+01
       157  27  4.254979E+05  2.299144E+05  5.648569E+03  3.118973E+05  2.369407E+03  1.607877E+03
       158   1  4.258528E+05  2.310427E+05  6.855217E+03  3.127879E+05 -2.061155E+03 -1.793378E+03
       158   2  4.314704E+05  2.368197E+05  1.230020E+04  3.161845E+05 -5.488895E+03 -5.044960E+03
       158   3  4.428062E+05  2.415289E+05  2.160623E+04  3.176455E+05 -8.954198E+03 -8.246631E+03
       158   4  4.231890E+05  2.281669E+05  5.867059E+03  3.110042E+05 -2.504502E+03 -2.125751E+03
       158   5  4.209568E+05  2.298129E+05  9.244658E+03  3.111412E+05 -5.884134E+03 -5.341279E+03
       158   6  4.244324E+05  2.303809E+05  1.644166E+04  3.093426E+05 -9.301281E+03 -8.506877E+03
       158   7  4.205252E+05  2.252910E+05  4.878902E+03  3.092206E+05 -2.947848E+03 -2.458120E+03
       158   8  4.104433E+05  2.228062E+05  6.189084E+03  3.060980E+05 -6.279366E+03 -5.637593E+03
       158   9  4.060588E+05  2.192328E+05  1.127699E+04  3.010399E+05 -9.648354E+03 -8.767118E+03
       158  10  4.258528E+05  2.310427E+05  6.855203E+03  3.127879E+05 -2.266439E-10 -6.467314E-11
       158  11  4.314704E+05  2.368197E+05  1.230010E+04  3.161845E+05  4.159049E-10 -1.465840E-10
       158  12  4.428061E+05  2.415288E+05  2.160595E+04  3.176454E+05 -2.735849E-10 -1.185009E-10
       158  13  4.231890E+05  2.281669E+05  5.867039E+03  3.110042E+05 -5.967085E-10  4.432062E-11
       158  14  4.209568E+05  2.298129E+05  9.244539E+03  3.111412E+05 -5.051359E-10 -1.077355E-10
       158  15  4.244323E+05  2.303808E+05  1.644136E+04  3.093425E+05 -1.725261E-10 -4.614858E-11
       158  16  4.205252E+05  2.252910E+05  4.878874E+03  3.092206E+05  1.420275E-10 -8.438546E-11
       158  17  4.104433E+05  2.228061E+05  6.188950E+03  3.060980E+05 -1.699727E-10 -5.103587E-12
       158  18  4.060587E+05  2.192327E+05  1.127667E+04  3.010398E+05  2.141721E-10  5.058947E-11
       158  19  4.258528E+05  2.310427E+05  6.855217E+03  3.127879E+05  2.061155E+03  1.793378E+03
       158  20  4.314704E+05  2.368197E+05  1.230020E+04  3.161845E+05  5.488895E+03  5.044960E+03
       158  21  4.428062E+05  2.415289E+05  2.160623E+04  3.176455E+05  8.954198E+03  8.246631E+03
       158  22  4.231890E+05  2.281669E+05  5.867059E+03  3.110042E+05  2.504502E+03  2.125751E+03
       158  23  4.209568E+05  2.298129E+05  9.244658E+03  3.111412E+05  5.884134E+03  5.341279E+03
       158  24  4.244324E+05  2.303809E+05  1.644166E+04  3.093426E+05  9.301281E+03  8.506877E+03
       158  25  4.205252E+05  2.252910E+05  4.878902E+03  3.092206E+05  2.947848E+03  2.458120E+03
       158  26  4.104433E+05  2.228062E+05  6.189084E+03  3.060980E+05  6.279366E+03  5.637593E+03
       158  27  4.060588E+05  2.192328E+05  1.127699E+04  3.010399E+05  9.648354E+03  8.767118E+03
       159   1  4.386434E+05  2.525454E+05  2.743270E+04  3.279890E+05 -1.070678E+04 -1.010886E+04
       159   2  4.590958E+05  2.392629E+05  4.422019E+04  3.203019E+05 -2.652978E+04 -2.218181E+04
       159   3  5.157734E+05  2.668094E+05  8.884899E+04  2.913598E+05 -4.318544E+04 -3.314413E+04
       159   4  4.244299E+05  2.276624E+05  2.061747E+04  3.140338E+05 -1.136925E+04 -1.060528E+04
       159   5  4.184947E+05  2.288289E+05  3.511983E+04  3.085594E+05 -2.612480E+04 -2.187896E+04
       159   6  4.485534E+05  2.705940E+05  7.653922E+04  2.818301E+05 -4.171206E+04 -3.204290E+04
       159   7  4.102169E+05  2.027806E+05  1.380232E+04  3.000793E+05 -1.203169E+04 -1.110164E+04
       159   8  3.778958E+05  2.183952E+05  2.601949E+04  2.968174E+05 -2.571986E+04 -2.157613E+04
       159   9  3.813401E+05  2.743800E+05  6.422981E+04  2.723001E+05 -4.023891E+04 -3.094160E+04
       159  10  4.386433E+05  2.525452E+05  2.743229E+04  3.279889E+05  1.533047E-10  6.910569E-11
       159  11  4.590949E+05  2.392622E+05  4.421794E+04  3.203014E+05 -1.964147E-11 -7.168181E-11
       159  12  5.157711E+05  2.668077E+05  8.884343E+04  2.913587E+05  2.850583E-11 -9.240065E-11
       159  13  4.244298E+05  2.276622E+05  2.061702E+04  3.140337E+05 -2.482362E-10 -1.268474E-11
       159  14  4.184938E+05  2.288282E+05  3.511765E+04  3.085589E+05  1.607627E-10 -1.180757E-10
       159  15  4.485513E+05  2.705925E+05  7.653402E+04  2.818290E+05 -1.404505E-10 -2.285457E-11
       159  16  4.102168E+05  2.027804E+05  1.380182E+04  3.000792E+05  7.673373E-11 -7.622753E-11
       159  17  3.778950E+05  2.183945E+05  2.601737E+04  2.968169E+05 -1.611338E-10 -8.727677E-11
       159  18  3.813382E+05  2.743786E+05  6.422497E+04  2.722991E+05  3.485106E-11  2.478786E-11
       159  19  4.386434E+05  2.525454E+05  2.743270E+04  3.279890E+05  1.070678E+04  1.010886E+04
       159  20  4.590958E+05  2.392629E+05  4.422019E+04  3.203019E+05  2.652978E+04  2.218181E+04
       159  21  5.157734E+05  2.668094E+05  8.884899E+04  2.913598E+05  4.318544E+04  3.314413E+04
       159  22  4.244299E+05  2.276624E+05  2.061747E+04  3.140338E+05  1.136925E+04  1.060528E+04
       159  23  4.184947E+05  2.288289E+05  3.511983E+04  3.085594E+05  2.612480E+04  2.187896E+04
       159  24  4.485534E+05  2.705940E+05  7.653922E+04  2.818301E+05  4.171206E+04  3.204290E+04
       159  25  4.102169E+05  2.027806E+05  1.380232E+04  3.000793E+05  1.203169E+04  1.110164E+04
       159  26  3.778958E+05  2.183952E+05  2.601949E+04  2.968174E+05  2.571986E+04  2.157613E+04
       159  27  3.813401E+05  2.743800E+05  6.422981E+04  2.723001E+05  4.023891E+04  3.094160E+04
       160   1  7.163035E+05  7.748221E+04  8.863087E+04  3.824481E+04  5.101666E+04 -8.814354E+02
       160   2  6.943609E+05  1.519755E+04  4.594496E+04  1.684664E+04  3.173177E+04 -2.633196E+03
       160   3  6.887578E+05  8.247026E+03  2.963789E+04  7.823738E+02  1.244765E+04 -2.397717E+03
       160   4  6.434814E+05  5.940167E+04  7.099147E+04  9.119807E+03  4.837718E+04 -8.837759E+02
       160   5  6.354867E+05  8.191774E+02  3.288360E+04  6.452979E+03  3.100249E+04 -2.633741E+03
       160   6  6.435009E+05 -2.758862E+03  1.983091E+04  9.119049E+03  1.362807E+04 -2.397545E+03
       160   7  5.706660E+05  4.132393E+04  5.335216E+04 -2.000177E+04  4.573800E+04 -8.858692E+02
       160   8  5.766159E+05 -1.355902E+04  1.982209E+04 -3.939687E+03  3.027329E+04 -2.634262E+03
       160   9  5.982462E+05 -1.376462E+04  1.002385E+04  1.745511E+04  1.480841E+04 -2.397341E+03
       160  10  7.163007E+05  7.748151E+04  8.862598E+04  3.824484E+04 -6.751596E-11  3.895546E-11
       160  11  6.943598E+05  1.519727E+04  4.594306E+04  1.684671E+04  3.397966E-10  1.456708E-10
       160  12  6.887576E+05  8.246978E+03  2.963759E+04  7.823978E+02  3.212235E-10  8.375139E-11
       160  13  6.434789E+05  5.940104E+04  7.098707E+04  9.119841E+03 -2.272049E-10  7.001788E-11
       160  14  6.354856E+05  8.189123E+02  3.288179E+04  6.453045E+03  4.083164E-11  1.015757E-10
       160  15  6.435007E+05 -2.758918E+03  1.983055E+04  9.119075E+03  1.211771E-09  5.939629E-11
       160  16  5.706638E+05  4.132337E+04  5.334824E+04 -2.000174E+04  2.766894E-10  1.120909E-11
       160  17  5.766149E+05 -1.355928E+04  1.982035E+04 -3.939623E+03 -4.682917E-11  2.810442E-11
       160  18  5.982459E+05 -1.376469E+04  1.002343E+04  1.745514E+04  2.307723E-10 -1.454934E-11
       160  19  7.163035E+05  7.748221E+04  8.863087E+04  3.824481E+04 -5.101666E+04  8.814354E+02
       160  20  6.943609E+05  1.519755E+04  4.594496E+04  1.684664E+04 -3.173177E+04  2.633196E+03
       160  21  6.887578E+05  8.247026E+03  2.963789E+04  7.823738E+02 -1.244765E+04  2.397717E+03
       160  22  6.434814E+05  5.940167E+04  7.099147E+04  9.119807E+03 -4.837718E+04  8.837759E+02
       160  23  6.354867E+05  8.191774E+02  3.288360E+04  6.452979E+03 -3.100249E+04  2.633741E+03
       160  24  6.435009E+05 -2.758862E+03  1.983091E+04  9.119049E+03 -1.362807E+04  2.397545E+03
       160  25  5.706660E+05  4.132393E+04  5.335216E+04 -2.000177E+04 -4.573800E+04  8.858692E+02
       160  26  5.766159E+05 -1.355902E+04  1.982209E+04 -3.939687E+03 -3.027329E+04  2.634262E+03
       160  27  5.982462E+05 -1.376462E+04  1.002385E+04  1.745511E+04 -1.480841E+04  2.397341E+03
       161   1  6.745656E+05  1.136112E+04  2.368754E+04  1.025762E+04  1.015642E+04 -1.772400E+03
       161   2  6.601007E+05  4.909851E+03  1.480541E+04  6.739227E+03  4.897344E+03 -1.087056E+03
       161   3  6.471130E+05  1.632130E+03  1.013783E+04  8.628108E+03 -3.616970E+02 -3.158132E+02
       161   4  6.402655E+05  3.013944E+03  1.622682E+04  9.135756E+03  1.077341E+04 -1.772412E+03
       161   5  6.395349E+05 -9.196023E+01  1.034725E+04  6.432154E+03  5.597094E+03 -1.087042E+03
       161   6  6.402674E+05 -3.850897E+01  8.625060E+03  9.135833E+03  4.207039E+02 -3.157855E+02
       161   7  6.059664E+05 -5.333309E+03  8.766033E+03  8.013953E+03  1.139036E+04 -1.772425E+03
       161   8  6.189696E+05 -5.093799E+03  5.889068E+03  6.125091E+03  6.296821E+03 -1.087028E+03
       161   9  6.334219E+05 -1.709150E+03  7.112292E+03  9.643553E+03  1.203096E+03 -3.157566E+02
       161  10  6.745655E+05  1.136109E+04  2.368734E+04  1.025764E+04 -2.912661E-10 -6.169938E-11
       161  11  6.601007E+05  4.909843E+03  1.480536E+04  6.739232E+03  3.713315E-10 -1.046908E-10
       161  12  6.471130E+05  1.632130E+03  1.013783E+04  8.628108E+03 -3.509491E-10  9.155991E-11
       161  13  6.402653E+05  3.013909E+03  1.622660E+04  9.135771E+03  1.055139E-09 -5.046953E-11
       161  14  6.395349E+05 -9.196990E+01  1.034719E+04  6.432159E+03  1.019722E-09 -1.040603E-10
       161  15  6.402674E+05 -3.850913E+01  8.625060E+03  9.135833E+03  1.115387E-10 -3.480856E-11
       161  16  6.059663E+05 -5.333347E+03  8.765784E+03  8.013969E+03  1.867836E-10 -1.001083E-10
       161  17  6.189695E+05 -5.093811E+03  5.888991E+03  6.125097E+03  7.655445E-10 -1.025301E-10
       161  18  6.334219E+05 -1.709150E+03  7.112289E+03  9.643553E+03  3.169705E-10 -9.281591E-11
       161  19  6.745656E+05  1.136112E+04  2.368754E+04  1.025762E+04 -1.015642E+04  1.772400E+03
       161  20  6.601007E+05  4.909851E+03  1.480541E+04  6.739227E+03 -4.897344E+03  1.087056E+03
       161  21  6.471130E+05  1.632130E+03  1.013783E+04  8.628108E+03  3.616970E+02  3.158132E+02
       161  22  6.402655E+05  3.013944E+03  1.622682E+04  9.135756E+03 -1.077341E+04  1.772412E+03
       161  23  6.395349E+05 -9.196023E+01  1.034725E+04  6.432154E+03 -5.597094E+03  1.087042E+03
       161  24  6.402674E+05 -3.850897E+01  8.625060E+03  9.135833E+03 -4.207039E+02  3.157855E+02
       161  25  6.059664E+05 -5.333309E+03  8.766033E+03  8.013953E+03 -1.139036E+04  1.772425E+03
       161  26  6.189696E+05 -5.093799E+03  5.889068E+03  6.125091E+03 -6.296821E+03  1.087028E+03
       161  27  6.334219E+05 -1.709150E+03  7.112292E+03  9.643553E+03 -1.203096E+03  3.157566E+02
       162   1  6.362425E+05 -1.060777E+03  7.831992E+03  9.712645E+03 -1.891652E+03  1.649310E+02
       162   2  6.217335E+05 -4.417294E+03  7.134913E+03  6.108791E+03 -7.311306E+03  9.368852E+02
       162   3  6.087892E+05 -4.334598E+03  1.082355E+04  7.911769E+03 -1.273085E+04  1.626289E+03
       162   4  6.402930E+05 -6.955042E+01  8.740753E+03  9.135729E+03 -1.110204E+03  1.649610E+02
       162   5  6.395028E+05 -9.521047E+01  1.098839E+04  6.432283E+03 -6.609317E+03  9.368994E+02
       162   6  6.402908E+05  3.332054E+03  1.767677E+04  9.135638E+03 -1.210844E+04  1.626274E+03
       162   7  6.443435E+05  9.216768E+02  9.649514E+03  8.558810E+03 -3.287517E+02  1.649896E+02
       162   8  6.572724E+05  4.226853E+03  1.484185E+04  6.755785E+03 -5.907308E+03  9.369143E+02
       162   9  6.717934E+05  1.099865E+04  2.452993E+04  1.035957E+04 -1.148599E+04  1.626261E+03
       162  10  6.362425E+05 -1.060778E+03  7.831985E+03  9.712645E+03  2.048803E-10  1.926935E-10
       162  11  6.217334E+05 -4.417309E+03  7.134811E+03  6.108796E+03  3.119478E-10 -1.606588E-10
       162  12  6.087890E+05 -4.334644E+03  1.082325E+04  7.911786E+03 -1.260245E-10 -3.577179E-10
       162  13  6.402930E+05 -6.955078E+01  8.740750E+03  9.135729E+03 -1.683664E-11  1.915869E-11
       162  14  6.395028E+05 -9.522313E+01  1.098831E+04  6.432288E+03  1.161277E-10 -9.652778E-11
       162  15  6.402907E+05  3.332012E+03  1.767649E+04  9.135654E+03 -9.176123E-10 -1.764675E-10
       162  16  6.443435E+05  9.216767E+02  9.649514E+03  8.558810E+03 -6.310534E-10 -1.124436E-10
       162  17  6.572724E+05  4.226842E+03  1.484179E+04  6.755790E+03 -3.459522E-10 -9.300162E-11
       162  18  6.717933E+05  1.099861E+04  2.452968E+04  1.035958E+04 -1.596382E-10 -2.711997E-11
       162  19  6.362425E+05 -1.060777E+03  7.831992E+03  9.712645E+03  1.891652E+03 -1.649310E+02
       162  20  6.217335E+05 -4.417294E+03  7.134913E+03  6.108791E+03  7.311306E+03 -9.368852E+02
       162  21  6.087892E+05 -4.334598E+03  1.082355E+04  7.911769E+03  1.273085E+04 -1.626289E+03
       162  22  6.402930E+05 -6.955042E+01  8.740753E+03  9.135729E+03  1.110204E+03 -1.649610E+02
       162  23  6.395028E+05 -9.521047E+01  1.098839E+04  6.432283E+03  6.609317E+03 -9.368994E+02
       162  24  6.402908E+05  3.332054E+03  1.767677E+04  9.135638E+03  1.210844E+04 -1.626274E+03
       162  25  6.443435E+05  9.216768E+02  9.649514E+03  8.558810E+03  3.287517E+02 -1.649896E+02
       162  26  6.572724E+05  4.226853E+03  1.484185E+04  6.755785E+03  5.907308E+03 -9.369143E+02
       162  27  6.717934E+05  1.099865E+04  2.452993E+04  1.035957E+04  1.148599E+04 -1.626261E+03
       163   1  6.014178E+05 -1.337099E+04  1.252067E+04  1.833482E+04 -1.638814E+04  2.245409E+03
       163   2  5.789522E+05 -1.278924E+04  2.378922E+04 -5.019106E+03 -3.369454E+04  2.502649E+03
       163   3  5.738455E+05  4.822352E+04  6.142655E+04 -2.303699E+04 -5.100021E+04  8.462051E+02
       163   4  6.438712E+05 -3.046219E+03  2.172274E+04  9.119698E+03 -1.522271E+04  2.245662E+03
       163   5  6.350231E+05  9.059364E+02  3.623348E+04  6.452158E+03 -3.437014E+04  2.502012E+03
       163   6  6.438498E+05  6.560375E+04  7.838855E+04  9.120295E+03 -5.351727E+04  8.436031E+02
       163   7  6.863266E+05  7.278750E+03  3.092475E+04 -9.606745E+01 -1.405719E+04  2.245880E+03
       163   8  6.910971E+05  1.460139E+04  4.867763E+04  1.792447E+04 -3.504580E+04  2.501350E+03
       163   9  7.138608E+05  8.298752E+04  9.535078E+04  4.128121E+04 -5.603461E+04  8.407408E+02
       163  10  6.014175E+05 -1.337107E+04  1.252016E+04  1.833485E+04  2.702542E-10 -2.931428E-10
       163  11  5.789510E+05 -1.278955E+04  2.378707E+04 -5.019038E+03 -1.887874E-10 -3.988006E-11
       163  12  5.738427E+05  4.822282E+04  6.142167E+04 -2.303695E+04  7.959498E-12 -1.400398E-11
       163  13  6.438710E+05 -3.046287E+03  2.172230E+04  9.119725E+03 -9.753765E-10 -2.043751E-10
       163  14  6.350218E+05  9.056129E+02  3.623125E+04  6.452227E+03 -4.134563E-10 -1.258546E-10
       163  15  6.438467E+05  6.560298E+04  7.838317E+04  9.120331E+03 -1.512767E-10 -2.487455E-11
       163  16  6.863264E+05  7.278692E+03  3.092437E+04 -9.604203E+01 -3.492246E-10 -6.934366E-11
       163  17  6.910958E+05  1.460106E+04  4.867531E+04  1.792454E+04 -2.888792E-10 -2.122792E-10
       163  18  7.138574E+05  8.298668E+04  9.534488E+04  4.128125E+04 -1.311224E-10 -7.937894E-11
       163  19  6.014178E+05 -1.337099E+04  1.252067E+04  1.833482E+04  1.638814E+04 -2.245409E+03
       163  20  5.789522E+05 -1.278924E+04  2.378922E+04 -5.019106E+03  3.369454E+04 -2.502649E+03
       163  21  5.738455E+05  4.822352E+04  6.142655E+04 -2.303699E+04  5.100021E+04 -8.462051E+02
       163  22  6.438712E+05 -3.046219E+03  2.172274E+04  9.119698E+03  1.522271E+04 -2.245662E+03
       163  23  6.350231E+05  9.059364E+02  3.623348E+04  6.452158E+03  3.437014E+04 -2.502012E+03
       163  24  6.438498E+05  6.560375E+04  7.838855E+04  9.120295E+03  5.351727E+04 -8.436031E+02
       163  25  6.863266E+05  7.278750E+03  3.092475E+04 -9.606745E+01  1.405719E+04 -2.245880E+03
       163  26  6.910971E+05  1.460139E+04  4.867763E+04  1.792447E+04  3.504580E+04 -2.501350E+03
       163  27  7.138608E+05  8.298752E+04  9.535078E+04  4.128121E+04  5.603461E+04 -8.407408E+02
       164   1 -1.131442E+05 -2.962228E+05 -1.287046E+05  5.536665E+04 -1.530515E+03 -6.993766E+04
       164   2 -2.591610E+04 -2.621328E+05 -6.947493E+04  2.504586E+04 -4.563764E+03 -4.193276E+04
       164   3 -1.561751E+04 -2.509232E+05 -4.771450E+04  3.484703E+03 -4.208659E+03 -1.392664E+04
       164   4 -8.222612E+04 -1.717870E+05 -9.853856E+04  1.498676E+04 -1.525585E+03 -6.540256E+04
       164   5 -1.107266E+03 -1.606263E+05 -4.694137E+04  1.060186E+04 -4.562595E+03 -4.064693E+04
       164   6  3.651035E+03 -1.717795E+05 -3.055205E+04  1.497852E+04 -4.209159E+03 -1.589129E+04
       164   7 -5.130305E+04 -4.733339E+04 -6.837263E+04 -2.540126E+04 -1.521246E+03 -6.086656E+04
       164   8  2.370166E+04 -5.910986E+04 -2.440833E+04 -3.844525E+03 -4.561486E+03 -3.936089E+04
       164   9  2.291966E+04 -9.262969E+04 -1.338989E+04  2.647383E+04 -4.209732E+03 -1.785618E+04
       164  10 -1.131455E+05 -2.962281E+05 -1.287138E+05  5.536656E+04  2.036136E-10 -1.843760E-10
       164  11 -2.591659E+04 -2.621347E+05 -6.947827E+04  2.504570E+04  1.303489E-10  7.117470E-11
       164  12 -1.561758E+04 -2.509234E+05 -4.771489E+04  3.484656E+03  9.565587E-11  2.605229E-10
       164  13 -8.222727E+04 -1.717915E+05 -9.854660E+04  1.498668E+04 -3.102391E-10  5.397423E-11
       164  14 -1.107732E+03 -1.606281E+05 -4.694451E+04  1.060171E+04 -1.728912E-10  2.366150E-11
       164  15  3.650949E+03 -1.717798E+05 -3.055256E+04  1.497847E+04  3.801127E-10  1.483017E-10
       164  16 -5.130404E+04 -4.733737E+04 -6.837960E+04 -2.540133E+04 -2.399215E-11  2.133386E-10
       164  17  2.370122E+04 -5.911153E+04 -2.441128E+04 -3.844670E+03 -4.788802E-10 -1.554141E-11
       164  18  2.291956E+04 -9.263004E+04 -1.339052E+04  2.647377E+04 -4.303981E-10 -2.777069E-10
       164  19 -1.131442E+05 -2.962228E+05 -1.287046E+05  5.536665E+04  1.530515E+03  6.993766E+04
       164  20 -2.591610E+04 -2.621328E+05 -6.947493E+04  2.504586E+04  4.563764E+03  4.193276E+04
       164  21 -1.561751E+04 -2.509232E+05 -4.771450E+04  3.484703E+03  4.208659E+03  1.392664E+04
       164  22 -8.222612E+04 -1.717870E+05 -9.853856E+04  1.498676E+04  1.525585E+03  6.540256E+04
       164  23 -1.107266E+03 -1.606263E+05 -4.694137E+04  1.060186E+04  4.562595E+03  4.064693E+04
       164  24  3.651035E+03 -1.717795E+05 -3.055205E+04  1.497852E+04  4.209159E+03  1.589129E+04
       164  25 -5.130305E+04 -4.733339E+04 -6.837263E+04 -2.540126E+04  1.521246E+03  6.086656E+04
       164  26  2.370166E+04 -5.910986E+04 -2.440833E+04 -3.844525E+03  4.561486E+03  3.936089E+04
       164  27  2.291966E+04 -9.262969E+04 -1.338989E+04  2.647383E+04  4.209732E+03  1.785618E+04
       165   1 -1.884595E+04 -2.286849E+05 -3.995535E+04  1.725281E+04 -3.164130E+03 -1.028863E+04
       165   2 -9.197412E+03 -2.043219E+05 -3.016923E+04  1.056284E+04 -2.054982E+03  7.467632E+02
       165   3 -7.671003E+03 -1.834290E+05 -2.960017E+04  1.278856E+04 -8.567243E+02  1.178248E+04
       165   4 -3.964817E+03 -1.675895E+05 -2.665453E+04  1.501501E+04 -3.164229E+03 -1.130932E+04
       165   5  1.628215E+02 -1.658614E+05 -2.183643E+04  1.055713E+04 -2.055155E+03 -3.587450E+02
       165   6 -3.816596E+03 -1.675889E+05 -2.617596E+04  1.501498E+04 -8.568958E+02  1.059177E+04
       165   7  1.091609E+04 -1.064906E+05 -1.335394E+04  1.277698E+04 -3.164321E+03 -1.233012E+04
       165   8  9.522958E+03 -1.273996E+05 -1.350373E+04  1.055141E+04 -2.055328E+03 -1.464321E+03
       165   9  3.781384E+01 -1.517487E+05 -2.275176E+04  1.724147E+04 -8.570758E+02  9.401027E+03
       165  10 -1.884599E+04 -2.286850E+05 -3.995557E+04  1.725278E+04 -2.730467E-12 -6.414531E-11
       165  11 -9.197416E+03 -2.043219E+05 -3.016924E+04  1.056284E+04 -2.466331E-11  8.827375E-11
       165  12 -7.671041E+03 -1.834291E+05 -2.960043E+04  1.278857E+04 -6.745618E-12  1.071747E-11
       165  13 -3.964862E+03 -1.675896E+05 -2.665479E+04  1.501498E+04 -2.561910E-10  1.474274E-10
       165  14  1.628169E+02 -1.658614E+05 -2.183644E+04  1.055713E+04  2.701847E-11 -1.792783E-11
       165  15 -3.816627E+03 -1.675891E+05 -2.617617E+04  1.501499E+04  8.446157E-11  1.580974E-10
       165  16  1.091604E+04 -1.064907E+05 -1.335424E+04  1.277695E+04  3.490257E-11  1.576889E-10
       165  17  9.522952E+03 -1.273996E+05 -1.350374E+04  1.055141E+04 -1.631495E-10  3.000179E-11
       165  18  3.778932E+01 -1.517488E+05 -2.275193E+04  1.724147E+04 -1.826828E-10 -5.047616E-11
       165  19 -1.884595E+04 -2.286849E+05 -3.995535E+04  1.725281E+04  3.164130E+03  1.028863E+04
       165  20 -9.197412E+03 -2.043219E+05 -3.016923E+04  1.056284E+04  2.054982E+03 -7.467632E+02
       165  21 -7.671003E+03 -1.834290E+05 -2.960017E+04  1.278856E+04  8.567243E+02 -1.178248E+04
       165  22 -3.964817E+03 -1.675895E+05 -2.665453E+04  1.501501E+04  3.164229E+03  1.130932E+04
       165  23  1.628215E+02 -1.658614E+05 -2.183643E+04  1.055713E+04  2.055155E+03  3.587450E+02
       165  24 -3.816596E+03 -1.675889E+05 -2.617596E+04  1.501498E+04  8.568958E+02 -1.059177E+04
       165  25  1.091609E+04 -1.064906E+05 -1.335394E+04  1.277698E+04  3.164321E+03  1.233012E+04
       165  26  9.522958E+03 -1.273996E+05 -1.350373E+04  1.055141E+04  2.055328E+03  1.464321E+03
       165  27  3.781384E+01 -1.517487E+05 -2.275176E+04  1.724147E+04  8.570758E+02 -9.401027E+03
       166   1  4.063811E+03 -1.694500E+05 -2.931968E+04  2.610009E+04  4.105049E+01  1.663823E+04
       166   2  4.986844E+03 -1.361258E+05 -3.994141E+04 -3.406579E+03  9.489349E+02  3.927326E+04
       166   3 -6.769991E+04 -1.241536E+05 -8.370307E+04 -2.404785E+04  4.267467E+02  6.190912E+04
       166   4  3.521228E+03 -1.716183E+05 -2.983924E+04  1.500037E+04  4.046988E+01  1.508380E+04
       166   5 -1.065496E+03 -1.608248E+05 -4.552681E+04  1.057437E+04  9.497909E+02  3.908886E+04
       166   6 -7.950407E+04 -1.716245E+05 -9.530744E+04  1.501368E+04  4.308425E+02  6.309388E+04
       166   7  2.979108E+03 -1.737864E+05 -3.035874E+04  3.900687E+03  3.994486E+01  1.352939E+04
       166   8 -7.117142E+03 -1.855228E+05 -5.111214E+04  2.455475E+04  9.506386E+02  3.890446E+04
       166   9 -9.130265E+04 -2.190901E+05 -1.069112E+05  5.407223E+04  4.350877E+02  6.427855E+04
       166  10  4.063737E+03 -1.694503E+05 -2.932020E+04  2.610009E+04  4.900850E-10 -5.087232E-10
       166  11  4.986429E+03 -1.361274E+05 -3.994431E+04 -3.406609E+03  2.294311E-10  1.480203E-10
       166  12 -6.770094E+04 -1.241577E+05 -8.371027E+04 -2.404788E+04  1.213039E-10  4.688468E-10
       166  13  3.521166E+03 -1.716186E+05 -2.983967E+04  1.500037E+04  4.521653E-10  1.603857E-10
       166  14 -1.065907E+03 -1.608264E+05 -4.552968E+04  1.057434E+04  5.566554E-11  8.284991E-13
       166  15 -7.950514E+04 -1.716288E+05 -9.531492E+04  1.501366E+04 -3.809827E-10  1.309174E-10
       166  16  2.979059E+03 -1.737866E+05 -3.035908E+04  3.900687E+03 -1.772229E-10  5.806686E-10
       166  17 -7.117550E+03 -1.855244E+05 -5.111499E+04  2.455473E+04 -1.569762E-10 -1.176322E-11
       166  18 -9.130376E+04 -2.190946E+05 -1.069189E+05  5.407221E+04 -3.679609E-10 -4.845459E-10
       166  19  4.063811E+03 -1.694500E+05 -2.931968E+04  2.610009E+04 -4.105049E+01 -1.663823E+04
       166  20  4.986844E+03 -1.361258E+05 -3.994141E+04 -3.406579E+03 -9.489349E+02 -3.927326E+04
       166  21 -6.769991E+04 -1.241536E+05 -8.370307E+04 -2.404785E+04 -4.267467E+02 -6.190912E+04
       166  22  3.521228E+03 -1.716183E+05 -2.983924E+04  1.500037E+04 -4.046988E+01 -1.508380E+04
       166  23 -1.065496E+03 -1.608248E+05 -4.552681E+04  1.057437E+04 -9.497909E+02 -3.908886E+04
       166  24 -7.950407E+04 -1.716245E+05 -9.530744E+04  1.501368E+04 -4.308425E+02 -6.309388E+04
       166  25  2.979108E+03 -1.737864E+05 -3.035874E+04  3.900687E+03 -3.994486E+01 -1.352939E+04
       166  26 -7.117142E+03 -1.855228E+05 -5.111214E+04  2.455475E+04 -9.506386E+02 -3.890446E+04
       166  27 -9.130265E+04 -2.190901E+05 -1.069112E+05  5.407223E+04 -4.350877E+02 -6.427855E+04
       167   1  1.848073E+05  9.627713E+04 -6.031883E+03  1.441490E+05  7.455827E+03  7.382796E+03
       167   2  1.916195E+05  9.061871E+04 -1.158371E+04  1.566329E+05  3.855267E+03  8.379768E+03
       167   3  2.130889E+05  9.074701E+04 -1.162048E+04  1.616836E+05  2.083218E+03  6.938231E+03
       167   4  2.760411E+05  1.467282E+05  2.143637E+04  1.826353E+05  1.090079E+04  9.965928E+03
       167   5  2.650808E+05  1.375708E+05  9.856466E+03  1.908609E+05  4.957793E+03  9.206381E+03
       167   6  2.692840E+05  1.347071E+05  5.823093E+03  1.916534E+05  8.432919E+02  6.008523E+03
       167   7  3.672847E+05  1.971822E+05  4.890410E+04  2.211277E+05  1.434650E+04  1.254946E+04
       167   8  3.385480E+05  1.845252E+05  3.129607E+04  2.250932E+05  6.060496E+03  1.003311E+04
       167   9  3.254820E+05  1.786689E+05  2.326609E+04  2.216261E+05 -3.967728E+02  5.078695E+03
       167  10  1.848073E+05  9.627706E+04 -6.032090E+03  1.441489E+05  1.026358E-10 -4.888730E-11
       167  11  1.916195E+05  9.061863E+04 -1.158387E+04  1.566329E+05  2.473807E-10  1.354179E-10
       167  12  2.130888E+05  9.074695E+04 -1.162058E+04  1.616836E+05  2.979225E-10  1.880348E-10
       167  13  2.760409E+05  1.467281E+05  2.143596E+04  1.826353E+05  3.129974E-10  7.219540E-11
       167  14  2.650808E+05  1.375707E+05  9.856260E+03  1.908608E+05  3.667770E-10  7.718917E-11
       167  15  2.692840E+05  1.347070E+05  5.823024E+03  1.916534E+05 -2.377279E-11  3.496697E-11
       167  16  3.672844E+05  1.971820E+05  4.890342E+04  2.211276E+05  6.122323E-11  1.482070E-10
       167  17  3.385480E+05  1.845251E+05  3.129581E+04  2.250932E+05  3.485838E-10  1.091878E-10
       167  18  3.254820E+05  1.786689E+05  2.326605E+04  2.216261E+05  4.373326E-11 -1.677522E-10
       167  19  1.848073E+05  9.627713E+04 -6.031883E+03  1.441490E+05 -7.455827E+03 -7.382796E+03
       167  20  1.916195E+05  9.061871E+04 -1.158371E+04  1.566329E+05 -3.855267E+03 -8.379768E+03
       167  21  2.130889E+05  9.074701E+04 -1.162048E+04  1.616836E+05 -2.083218E+03 -6.938231E+03
       167  22  2.760411E+05  1.467282E+05  2.143637E+04  1.826353E+05 -1.090079E+04 -9.965928E+03
       167  23  2.650808E+05  1.375708E+05  9.856466E+03  1.908609E+05 -4.957793E+03 -9.206381E+03
       167  24  2.692840E+05  1.347071E+05  5.823093E+03  1.916534E+05 -8.432919E+02 -6.008523E+03
       167  25  3.672847E+05  1.971822E+05  4.890410E+04  2.211277E+05 -1.434650E+04 -1.254946E+04
       167  26  3.385480E+05  1.845252E+05  3.129607E+04  2.250932E+05 -6.060496E+03 -1.003311E+04
       167  27  3.254820E+05  1.786689E+05  2.326609E+04  2.216261E+05  3.967728E+02 -5.078695E+03
       168   1  2.199110E+05  1.009717E+05 -9.995788E+03  1.659290E+05  1.209383E+03  5.282886E+03
       168   2  2.285209E+05  1.116374E+05 -8.343480E+03  1.730743E+05  6.972278E+02  3.922478E+03
       168   3  2.438926E+05  1.168037E+05 -5.672828E+03  1.781686E+05  2.675277E+02  2.451954E+03
       168   4  2.693083E+05  1.354464E+05  4.672231E+03  1.903332E+05  6.621604E+02  4.872558E+03
       168   5  2.657421E+05  1.378752E+05  2.711933E+03  1.915913E+05  4.417198E+01  3.432829E+03
       168   6  2.689606E+05  1.348272E+05  1.861667E+03  1.907981E+05 -4.913433E+02  1.883000E+03
       168   7  3.187082E+05  1.699225E+05  1.933999E+04  2.147396E+05  1.148781E+02  4.462187E+03
       168   8  3.029651E+05  1.641138E+05  1.376726E+04  2.101096E+05 -6.089404E+02  2.943138E+03
       168   9  2.940295E+05  1.528513E+05  9.396183E+03  2.034284E+05 -1.250264E+03  1.314009E+03
       168  10  2.199110E+05  1.009717E+05 -9.995843E+03  1.659290E+05  1.632094E-10  4.184670E-13
       168  11  2.285208E+05  1.116374E+05 -8.343509E+03  1.730743E+05  1.112376E-10 -1.732914E-10
       168  12  2.438926E+05  1.168037E+05 -5.672839E+03  1.781686E+05 -2.559389E-10 -1.205706E-10
       168  13  2.693083E+05  1.354464E+05  4.672186E+03  1.903332E+05  3.979447E-10 -1.121124E-10
       168  14  2.657421E+05  1.378751E+05  2.711910E+03  1.915913E+05 -3.078482E-10 -2.405024E-10
       168  15  2.689606E+05  1.348272E+05  1.861660E+03  1.907981E+05 -5.570004E-10  3.572097E-11
       168  16  3.187082E+05  1.699224E+05  1.933995E+04  2.147396E+05 -2.346820E-10 -1.076409E-10
       168  17  3.029651E+05  1.641138E+05  1.376724E+04  2.101096E+05 -4.612795E-11  7.672022E-11
       168  18  2.940295E+05  1.528513E+05  9.396177E+03  2.034284E+05  2.333244E-10  2.083088E-10
       168  19  2.199110E+05  1.009717E+05 -9.995788E+03  1.659290E+05 -1.209383E+03 -5.282886E+03
       168  20  2.285209E+05  1.116374E+05 -8.343480E+03  1.730743E+05 -6.972278E+02 -3.922478E+03
       168  21  2.438926E+05  1.168037E+05 -5.672828E+03  1.781686E+05 -2.675277E+02 -2.451954E+03
       168  22  2.693083E+05  1.354464E+05  4.672231E+03  1.903332E+05 -6.621604E+02 -4.872558E+03
       168  23  2.657421E+05  1.378752E+05  2.711933E+03  1.915913E+05 -4.417198E+01 -3.432829E+03
       168  24  2.689606E+05  1.348272E+05  1.861667E+03  1.907981E+05  4.913433E+02 -1.883000E+03
       168  25  3.187082E+05  1.699225E+05  1.933999E+04  2.147396E+05 -1.148781E+02 -4.462187E+03
       168  26  3.029651E+05  1.641138E+05  1.376726E+04  2.101096E+05  6.089404E+02 -2.943138E+03
       168  27  2.940295E+05  1.528513E+05  9.396183E+03  2.034284E+05  1.250264E+03 -1.314009E+03
       169   1  2.531985E+05  1.237206E+05 -2.967057E+03  1.828684E+05  3.276940E+02  1.785813E+03
       169   2  2.619500E+05  1.352042E+05  4.985281E+02  1.897209E+05  2.485340E+02  5.412591E+02
       169   3  2.770384E+05  1.406227E+05  4.524317E+03  1.947656E+05  1.696176E+02 -7.036569E+02
       169   4  2.689530E+05  1.348598E+05  1.670425E+03  1.907300E+05 -4.008638E+02  1.239597E+03
       169   5  2.657896E+05  1.379013E+05  1.635005E+03  1.916271E+05 -4.803772E+02 -5.214991E+00
       169   6  2.689631E+05  1.348779E+05  2.160172E+03  1.907164E+05 -5.596326E+02 -1.250380E+03
       169   7  2.847077E+05  1.459991E+05  6.307828E+03  1.985917E+05 -1.129439E+03  6.933672E+02
       169   8  2.696292E+05  1.405984E+05  2.771477E+03  1.935333E+05 -1.209290E+03 -5.516907E+02
       169   9  2.608879E+05  1.291331E+05 -2.039757E+02  1.866672E+05 -1.288870E+03 -1.797092E+03
       169  10  2.531985E+05  1.237206E+05 -2.967064E+03  1.828684E+05 -2.464790E-10  1.697251E-10
       169  11  2.619500E+05  1.352042E+05  4.985274E+02  1.897209E+05 -1.760995E-11  2.480635E-11
       169  12  2.770384E+05  1.406227E+05  4.524316E+03  1.947656E+05  9.571300E-11 -1.306108E-10
       169  13  2.689530E+05  1.348598E+05  1.670422E+03  1.907300E+05 -3.368049E-10  4.103819E-11
       169  14  2.657896E+05  1.379013E+05  1.635005E+03  1.916271E+05 -4.220006E-10 -1.019164E-10
       169  15  2.689631E+05  1.348779E+05  2.160169E+03  1.907164E+05  3.115233E-10 -8.141607E-11
       169  16  2.847077E+05  1.459991E+05  6.307824E+03  1.985917E+05 -1.598942E-10  1.059230E-10
       169  17  2.696292E+05  1.405984E+05  2.771474E+03  1.935333E+05  3.200898E-10  9.404955E-11
       169  18  2.608879E+05  1.291331E+05 -2.039848E+02  1.866672E+05  6.365289E-10  9.828761E-13
       169  19  2.531985E+05  1.237206E+05 -2.967057E+03  1.828684E+05 -3.276940E+02 -1.785813E+03
       169  20  2.619500E+05  1.352042E+05  4.985281E+02  1.897209E+05 -2.485340E+02 -5.412591E+02
       169  21  2.770384E+05  1.406227E+05  4.524317E+03  1.947656E+05 -1.696176E+02  7.036569E+02
       169  22  2.689530E+05  1.348598E+05  1.670425E+03  1.907300E+05  4.008638E+02 -1.239597E+03
       169  23  2.657896E+05  1.379013E+05  1.635005E+03  1.916271E+05  4.803772E+02  5.214991E+00
       169  24  2.689631E+05  1.348779E+05  2.160172E+03  1.907164E+05  5.596326E+02  1.250380E+03
       169  25  2.847077E+05  1.459991E+05  6.307828E+03  1.985917E+05  1.129439E+03 -6.933672E+02
       169  26  2.696292E+05  1.405984E+05  2.771477E+03  1.935333E+05  1.209290E+03  5.516907E+02
       169  27  2.608879E+05  1.291331E+05 -2.039757E+02  1.866672E+05  1.288870E+03  1.797092E+03
       170   1  2.862734E+05  1.475455E+05  7.891378E+03  1.996840E+05  1.987321E+02 -1.391720E+03
       170   2  2.952965E+05  1.586146E+05  1.303450E+04  2.062452E+05 -1.051614E+03 -3.481395E+03
       170   3  3.115002E+05  1.647036E+05  2.002562E+04  2.105883E+05 -2.377232E+03 -5.470747E+03
       170   4  2.689837E+05  1.348256E+05  2.631371E+03  1.908416E+05 -5.579263E+02 -1.959000E+03
       170   5  2.656942E+05  1.378431E+05  4.256401E+03  1.915627E+05 -1.711787E+03 -3.976366E+03
       170   6  2.695642E+05  1.358593E+05  7.645817E+03  1.900656E+05 -2.940858E+03 -5.893357E+03
       170   7  2.516942E+05  1.221058E+05 -2.628729E+03  1.819994E+05 -1.314564E+03 -2.526262E+03
       170   8  2.360928E+05  1.170720E+05 -4.521795E+03  1.768811E+05 -2.371917E+03 -4.471306E+03
       170   9  2.276305E+05  1.070162E+05 -4.734033E+03  1.695447E+05 -3.504427E+03 -6.315926E+03
       170  10  2.862734E+05  1.475455E+05  7.891374E+03  1.996840E+05 -1.259045E-10 -1.065673E-10
       170  11  2.952965E+05  1.586146E+05  1.303448E+04  2.062452E+05  1.605129E-10 -2.607544E-10
       170  12  3.115002E+05  1.647035E+05  2.002555E+04  2.105883E+05  1.235668E-10 -3.122998E-10
       170  13  2.689837E+05  1.348256E+05  2.631363E+03  1.908416E+05  3.010843E-10 -6.182001E-11
       170  14  2.656942E+05  1.378431E+05  4.256365E+03  1.915627E+05  3.443031E-10 -2.375826E-10
       170  15  2.695642E+05  1.358592E+05  7.645735E+03  1.900656E+05  4.864679E-10 -1.067158E-10
       170  16  2.516942E+05  1.221058E+05 -2.628744E+03  1.819994E+05  3.371824E-10 -2.611448E-10
       170  17  2.360928E+05  1.170720E+05 -4.521843E+03  1.768811E+05  1.013275E-10 -2.576728E-10
       170  18  2.276305E+05  1.070161E+05 -4.734131E+03  1.695447E+05  6.894234E-11 -6.694005E-11
       170  19  2.862734E+05  1.475455E+05  7.891378E+03  1.996840E+05 -1.987321E+02  1.391720E+03
       170  20  2.952965E+05  1.586146E+05  1.303450E+04  2.062452E+05  1.051614E+03  3.481395E+03
       170  21  3.115002E+05  1.647036E+05  2.002562E+04  2.105883E+05  2.377232E+03  5.470747E+03
       170  22  2.689837E+05  1.348256E+05  2.631371E+03  1.908416E+05  5.579263E+02  1.959000E+03
       170  23  2.656942E+05  1.378431E+05  4.256401E+03  1.915627E+05  1.711787E+03  3.976366E+03
       170  24  2.695642E+05  1.358593E+05  7.645817E+03  1.900656E+05  2.940858E+03  5.893357E+03
       170  25  2.516942E+05  1.221058E+05 -2.628729E+03  1.819994E+05  1.314564E+03  2.526262E+03
       170  26  2.360928E+05  1.170720E+05 -4.521795E+03  1.768811E+05  2.371917E+03  4.471306E+03
       170  27  2.276305E+05  1.070162E+05 -4.734033E+03  1.695447E+05  3.504427E+03  6.315926E+03
       171   1  3.164433E+05  1.747585E+05  2.477088E+04  2.188792E+05 -2.362981E+03 -6.433231E+03
       171   2  3.323664E+05  1.768638E+05  3.550865E+04  2.201717E+05 -1.133422E+04 -1.336752E+04
       171   3  3.699837E+05  1.939878E+05  6.067137E+04  2.102472E+05 -2.197293E+04 -1.807882E+04
       171   4  2.695446E+05  1.346082E+05  9.605881E+03  1.922635E+05 -3.558147E+03 -7.329318E+03
       171   5  2.645652E+05  1.373571E+05  1.639324E+04  1.903507E+05 -1.039296E+04 -1.266198E+04
       171   6  2.808177E+05  1.546632E+05  3.575345E+04  1.772206E+05 -1.889490E+04 -1.577158E+04
       171   7  2.226482E+05  9.445984E+04 -5.559395E+03  1.656503E+05 -4.753193E+03 -8.225289E+03
       171   8  1.967687E+05  9.785165E+04 -2.722730E+03  1.605329E+05 -9.451834E+03 -1.195651E+04
       171   9  1.916597E+05  1.153396E+05  1.083468E+04  1.441977E+05 -1.581745E+04 -1.346455E+04
       171  10  3.164433E+05  1.747584E+05  2.477079E+04  2.188792E+05  3.639840E-10  4.071731E-11
       171  11  3.323662E+05  1.768636E+05  3.550808E+04  2.201715E+05 -1.229812E-10 -6.750286E-11
       171  12  3.699831E+05  1.939873E+05  6.066985E+04  2.102469E+05 -9.302623E-11 -9.034790E-11
       171  13  2.695445E+05  1.346081E+05  9.605756E+03  1.922635E+05  3.894254E-10 -1.027186E-10
       171  14  2.645651E+05  1.373569E+05  1.639274E+04  1.903506E+05 -8.116290E-12 -1.809638E-10
       171  15  2.808173E+05  1.546628E+05  3.575232E+04  1.772203E+05  1.649420E-10 -2.096180E-11
       171  16  2.226481E+05  9.445976E+04 -5.559565E+03  1.656503E+05 -2.469994E-10 -1.989612E-10
       171  17  1.967686E+05  9.785147E+04 -2.723166E+03  1.605328E+05  9.268302E-11 -4.604219E-11
       171  18  1.916594E+05  1.153393E+05  1.083387E+04  1.441975E+05  2.020308E-10  4.065372E-11
       171  19  3.164433E+05  1.747585E+05  2.477088E+04  2.188792E+05  2.362981E+03  6.433231E+03
       171  20  3.323664E+05  1.768638E+05  3.550865E+04  2.201717E+05  1.133422E+04  1.336752E+04
       171  21  3.699837E+05  1.939878E+05  6.067137E+04  2.102472E+05  2.197293E+04  1.807882E+04
       171  22  2.695446E+05  1.346082E+05  9.605881E+03  1.922635E+05  3.558147E+03  7.329318E+03
       171  23  2.645652E+05  1.373571E+05  1.639324E+04  1.903507E+05  1.039296E+04  1.266198E+04
       171  24  2.808177E+05  1.546632E+05  3.575345E+04  1.772206E+05  1.889490E+04  1.577158E+04
       171  25  2.226482E+05  9.445984E+04 -5.559395E+03  1.656503E+05  4.753193E+03  8.225289E+03
       171  26  1.967687E+05  9.785165E+04 -2.722730E+03  1.605329E+05  9.451834E+03  1.195651E+04
       171  27  1.916597E+05  1.153396E+05  1.083468E+04  1.441977E+05  1.581745E+04  1.346455E+04
       172   1  6.793443E+05  8.203781E+04  9.055527E+04  4.269253E+04  4.390121E+04 -1.631953E+03
       172   2  6.435902E+05  2.709914E+04  5.050260E+04  2.197566E+04  2.627970E+04 -4.805085E+03
       172   3  6.213705E+05  1.712732E+04  3.315571E+04  1.249913E+04  8.658821E+03 -4.195490E+03
       172   4  5.418033E+05  4.788014E+04  5.721515E+04  1.921824E+04  3.903176E+04 -1.633660E+03
       172   5  5.353577E+05  6.590369E+02  2.646662E+04  1.359888E+04  2.504675E+04 -4.805543E+03
       172   6  5.418181E+05 -2.222202E+03  1.590355E+04  1.921927E+04  1.106154E+04 -4.195259E+03
       172   7  4.042809E+05  1.372316E+04  2.387404E+04 -4.250835E+03  3.416338E+04 -1.635000E+03
       172   8  4.271364E+05 -2.578160E+04  2.429953E+03  5.223566E+03  2.381402E+04 -4.805967E+03
       172   9  4.622718E+05 -2.157197E+04 -1.348944E+03  2.593854E+04  1.346395E+04 -4.194975E+03
       172  10  6.793422E+05  8.203729E+04  9.055165E+04  4.269259E+04  5.043299E-11 -5.917570E-11
       172  11  6.435894E+05  2.709893E+04  5.050126E+04  2.197576E+04  8.156117E-10 -1.146714E-10
       172  12  6.213704E+05  1.712728E+04  3.315553E+04  1.249916E+04  1.151146E-10 -1.880087E-10
       172  13  5.418017E+05  4.787973E+04  5.721228E+04  1.921829E+04  5.684238E-11 -5.308540E-11
       172  14  5.353571E+05  6.588438E+02  2.646540E+04  1.359897E+04  3.223242E-10 -6.992414E-11
       172  15  5.418180E+05 -2.222254E+03  1.590328E+04  1.921931E+04 -3.834356E-10 -4.168916E-11
       172  16  4.042796E+05  1.372284E+04  2.387184E+04 -4.250790E+03 -4.362133E-11 -7.162189E-11
       172  17  4.271358E+05 -2.578177E+04  2.428845E+03  5.223658E+03 -1.178729E-10  9.441755E-12
       172  18  4.622716E+05 -2.157204E+04 -1.349318E+03  2.593858E+04 -7.282182E-11  3.345422E-10
       172  19  6.793443E+05  8.203781E+04  9.055527E+04  4.269253E+04 -4.390121E+04  1.631953E+03
       172  20  6.435902E+05  2.709914E+04  5.050260E+04  2.197566E+04 -2.627970E+04  4.805085E+03
       172  21  6.213705E+05  1.712732E+04  3.315571E+04  1.249913E+04 -8.658821E+03  4.195490E+03
       172  22  5.418033E+05  4.788014E+04  5.721515E+04  1.921824E+04 -3.903176E+04  1.633660E+03
       172  23  5.353577E+05  6.590369E+02  2.646662E+04  1.359888E+04 -2.504675E+04  4.805543E+03
       172  24  5.418181E+05 -2.222202E+03  1.590355E+04  1.921927E+04 -1.106154E+04  4.195259E+03
       172  25  4.042809E+05  1.372316E+04  2.387404E+04 -4.250835E+03 -3.416338E+04  1.635000E+03
       172  26  4.271364E+05 -2.578160E+04  2.429953E+03  5.223566E+03 -2.381402E+04  4.805967E+03
       172  27  4.622718E+05 -2.157197E+04 -1.348944E+03  2.593854E+04 -1.346395E+04  4.194975E+03
       173   1  5.957025E+05  1.618415E+04  2.526394E+04  2.015208E+04  7.447526E+03 -2.910955E+03
       173   2  5.662022E+05  6.639516E+03  1.412806E+04  1.379989E+04  3.217535E+03 -1.444708E+03
       173   3  5.378909E+05 -3.466229E+02  6.383320E+03  1.883552E+04 -1.012314E+03  1.837745E+02
       173   4  5.392067E+05  2.432981E+03  1.296884E+04  1.925185E+04  8.778116E+03 -2.910871E+03
       173   5  5.386269E+05 -6.945729E+01  8.141680E+03  1.355805E+04  4.704266E+03 -1.444579E+03
       173   6  5.392084E+05 -4.031462E+01  6.597600E+03  1.925207E+04  6.303670E+02  1.839445E+02
       173   7  4.827139E+05 -1.131839E+04  6.735677E+02  1.835171E+04  1.010859E+04 -2.910790E+03
       173   8  5.110523E+05 -6.778479E+03  2.155262E+03  1.331623E+04  6.190932E+03 -1.444451E+03
       173   9  5.405260E+05  2.659957E+02  6.811890E+03  1.966862E+04  2.273051E+03  1.841167E+02
       173  10  5.957025E+05  1.618412E+04  2.526382E+04  2.015210E+04  1.571237E-10 -1.347436E-10
       173  11  5.662022E+05  6.639511E+03  1.412804E+04  1.379989E+04  1.032360E-10  2.327667E-10
       173  12  5.378909E+05 -3.466232E+02  6.383318E+03  1.883552E+04  2.073594E-10 -2.350800E-11
       173  13  5.392066E+05  2.432951E+03  1.296868E+04  1.925188E+04  4.507285E-10  1.563966E-10
       173  14  5.386269E+05 -6.946546E+01  8.141635E+03  1.355806E+04  5.645004E-10  1.573825E-10
       173  15  5.392084E+05 -4.031476E+01  6.597600E+03  1.925207E+04 -5.237934E-10 -6.614303E-11
       173  16  4.827138E+05 -1.131843E+04  6.733599E+02  1.835174E+04 -2.544556E-10  2.369935E-10
       173  17  5.110523E+05 -6.778492E+03  2.155187E+03  1.331623E+04 -8.308169E-11  5.921652E-11
       173  18  5.405260E+05  2.659942E+02  6.811881E+03  1.966862E+04 -2.291254E-11  4.139390E-11
       173  19  5.957025E+05  1.618415E+04  2.526394E+04  2.015208E+04 -7.447526E+03  2.910955E+03
       173  20  5.662022E+05  6.639516E+03  1.412806E+04  1.379989E+04 -3.217535E+03  1.444708E+03
       173  21  5.378909E+05 -3.466229E+02  6.383320E+03  1.883552E+04  1.012314E+03 -1.837745E+02
       173  22  5.392067E+05  2.432981E+03  1.296884E+04  1.925185E+04 -8.778116E+03  2.910871E+03
       173  23  5.386269E+05 -6.945729E+01  8.141680E+03  1.355805E+04 -4.704266E+03  1.444579E+03
       173  24  5.392084E+05 -4.031462E+01  6.597600E+03  1.925207E+04 -6.303670E+02 -1.839445E+02
       173  25  4.827139E+05 -1.131839E+04  6.735677E+02  1.835171E+04 -1.010859E+04  2.910790E+03
       173  26  5.110523E+05 -6.778479E+03  2.155262E+03  1.331623E+04 -6.190932E+03  1.444451E+03
       173  27  5.405260E+05  2.659957E+02  6.811890E+03  1.966862E+04 -2.273051E+03 -1.841167E+02
       174   1  5.149351E+05 -5.950063E+03  1.265144E+03  1.965754E+04 -2.182663E+03  1.196505E+03
       174   2  4.854623E+05 -1.300190E+04 -3.473154E+03  1.331676E+04 -6.024571E+03  2.818768E+03
       174   3  4.571043E+05 -1.759646E+04 -5.097422E+03  1.836678E+04 -9.866150E+03  4.248254E+03
       174   4  5.392048E+05 -3.590461E+01  6.580993E+03  1.925270E+04 -5.314291E+02  1.196671E+03
       174   5  5.386309E+05 -6.968738E+01  8.049312E+03  1.355726E+04 -4.558849E+03  2.818865E+03
       174   6  5.392027E+05  2.385769E+03  1.276008E+04  1.925252E+04 -8.586110E+03  4.248285E+03
       174   7  5.634750E+05  5.878216E+03  1.189682E+04  1.884785E+04  1.119869E+03  1.196835E+03
       174   8  5.918022E+05  1.286234E+04  1.957162E+04  1.379778E+04 -3.093002E+03  2.818964E+03
       174   9  6.213074E+05  2.236755E+04  3.061719E+04  2.013837E+04 -7.305903E+03  4.248320E+03
       174  10  5.149351E+05 -5.950066E+03  1.265132E+03  1.965754E+04 -1.855252E-10 -1.741134E-10
       174  11  4.854622E+05 -1.300192E+04 -3.473237E+03  1.331677E+04 -4.980237E-10 -1.848750E-10
       174  12  4.571042E+05 -1.759650E+04 -5.097638E+03  1.836682E+04 -9.711501E-11  1.346875E-10
       174  13  5.392048E+05 -3.590623E+01  6.580990E+03  1.925270E+04 -1.856455E-10 -8.852193E-11
       174  14  5.386309E+05 -6.970149E+01  8.049258E+03  1.355727E+04 -5.351936E-10  1.857127E-11
       174  15  5.392026E+05  2.385730E+03  1.275991E+04  1.925255E+04 -5.153689E-10  3.959904E-11
       174  16  5.634750E+05  5.878215E+03  1.189681E+04  1.884785E+04 -1.079749E-10  2.229040E-11
       174  17  5.918022E+05  1.286233E+04  1.957159E+04  1.379779E+04 -5.727611E-10 -4.950525E-11
       174  18  6.213073E+05  2.236752E+04  3.061706E+04  2.013840E+04 -9.044982E-11  1.394391E-10
       174  19  5.149351E+05 -5.950063E+03  1.265144E+03  1.965754E+04  2.182663E+03 -1.196505E+03
       174  20  4.854623E+05 -1.300190E+04 -3.473154E+03  1.331676E+04  6.024571E+03 -2.818768E+03
       174  21  4.571043E+05 -1.759646E+04 -5.097422E+03  1.836678E+04  9.866150E+03 -4.248254E+03
       174  22  5.392048E+05 -3.590461E+01  6.580993E+03  1.925270E+04  5.314291E+02 -1.196671E+03
       174  23  5.386309E+05 -6.968738E+01  8.049312E+03  1.355726E+04  4.558849E+03 -2.818865E+03
       174  24  5.392027E+05  2.385769E+03  1.276008E+04  1.925252E+04  8.586110E+03 -4.248285E+03
       174  25  5.634750E+05  5.878216E+03  1.189682E+04  1.884785E+04 -1.119869E+03 -1.196835E+03
       174  26  5.918022E+05  1.286234E+04  1.957162E+04  1.379778E+04  3.093002E+03 -2.818964E+03
       174  27  6.213074E+05  2.236755E+04  3.061719E+04  2.013837E+04  7.305903E+03 -4.248320E+03
       175   1  4.365815E+05 -2.776494E+04 -7.158745E+03  2.580763E+04 -1.337028E+04  5.584849E+03
       175   2  4.015830E+05 -3.204645E+04 -3.701008E+03  5.387487E+03 -2.283749E+04  6.011227E+03
       175   3  3.785178E+05  6.452096E+03  1.661428E+04 -3.812525E+03 -3.230448E+04  2.002721E+03
       175   4  5.417646E+05 -2.182436E+03  1.563131E+04  1.921445E+04 -1.083232E+04  5.585050E+03
       175   5  5.354227E+05  6.446526E+02  2.598435E+04  1.360485E+04 -2.456197E+04  6.010825E+03
       175   6  5.417496E+05  4.698554E+04  5.615046E+04  1.921501E+04 -3.829201E+04  2.001694E+03
       175   7  6.469581E+05  2.339950E+04  3.842076E+04  1.262013E+04 -8.293924E+03  5.585196E+03
       175   8  6.692793E+05  3.333480E+04  5.566863E+04  2.182400E+04 -2.628682E+04  6.010377E+03
       175   9  7.050069E+05  8.751905E+04  9.568515E+04  4.224861E+04 -4.428111E+04  2.000223E+03
       175  10  4.365813E+05 -2.776502E+04 -7.159140E+03  2.580769E+04  1.103060E-10  1.675448E-10
       175  11  4.015824E+05 -3.204663E+04 -3.702055E+03  5.387597E+03 -1.479997E-10  1.499525E-10
       175  12  3.785167E+05  6.451812E+03  1.661231E+04 -3.812473E+03 -5.532286E-11  8.763438E-11
       175  13  5.417644E+05 -2.182501E+03  1.563103E+04  1.921449E+04 -1.262358E-10  1.456369E-10
       175  14  5.354220E+05  6.444520E+02  2.598314E+04  1.360497E+04  1.717925E-10  4.768137E-11
       175  15  5.417480E+05  4.698515E+04  5.614770E+04  1.921507E+04  2.721158E-10 -5.735429E-11
       175  16  6.469580E+05  2.339945E+04  3.842057E+04  1.262017E+04 -7.678486E-11  1.317715E-10
       175  17  6.692785E+05  3.333458E+04  5.566727E+04  2.182413E+04 -4.894763E-10 -7.395299E-11
       175  18  7.050048E+05  8.751852E+04  9.568146E+04  4.224868E+04  2.266347E-10 -5.351383E-11
       175  19  4.365815E+05 -2.776494E+04 -7.158745E+03  2.580763E+04  1.337028E+04 -5.584849E+03
       175  20  4.015830E+05 -3.204645E+04 -3.701008E+03  5.387487E+03  2.283749E+04 -6.011227E+03
       175  21  3.785178E+05  6.452096E+03  1.661428E+04 -3.812525E+03  3.230448E+04 -2.002721E+03
       175  22  5.417646E+05 -2.182436E+03  1.563131E+04  1.921445E+04  1.083232E+04 -5.585050E+03
       175  23  5.354227E+05  6.446526E+02  2.598435E+04  1.360485E+04  2.456197E+04 -6.010825E+03
       175  24  5.417496E+05  4.698554E+04  5.615046E+04  1.921501E+04  3.829201E+04 -2.001694E+03
       175  25  6.469581E+05  2.339950E+04  3.842076E+04  1.262013E+04  8.293924E+03 -5.585196E+03
       175  26  6.692793E+05  3.333480E+04  5.566863E+04  2.182400E+04  2.628682E+04 -6.010377E+03
       175  27  7.050069E+05  8.751905E+04  9.568515E+04  4.224861E+04  4.428111E+04 -2.000223E+03
       176   1 -7.622820E+04 -1.799310E+05 -9.225655E+04  3.468334E+04  1.536262E+02 -6.362180E+04
       176   2  1.279972E+03 -1.763307E+05 -4.367599E+04  1.072442E+04  3.814600E+02 -3.992268E+04
       176   3  4.165008E+03 -1.944724E+05 -2.918167E+04 -1.607718E+04  1.047863E+02 -1.622360E+04
       176   4 -8.045470E+04 -1.968904E+05 -9.639839E+04 -4.831542E+03  1.576636E+02 -6.407699E+04
       176   5 -1.084504E+03 -1.859731E+05 -4.584770E+04 -3.411858E+03  3.823705E+02 -3.989614E+04
       176   6  3.575724E+03 -1.968834E+05 -2.971887E+04 -4.834115E+03  1.045041E+02 -1.571502E+04
       176   7 -8.467535E+04 -2.138463E+05 -1.005394E+05 -4.434534E+04  1.617591E+02 -6.453217E+04
       176   8 -3.448236E+03 -1.956149E+05 -4.801931E+04 -1.754791E+04  3.832797E+02 -3.986960E+04
       176   9  2.986915E+03 -1.992941E+05 -3.025600E+04  6.408908E+03  1.042404E+02 -1.520645E+04
       176  10 -7.622929E+04 -1.799353E+05 -9.226415E+04  3.468335E+04  1.167432E-10 -3.408736E-11
       176  11  1.279544E+03 -1.763324E+05 -4.367898E+04  1.072443E+04  7.888305E-11  9.220410E-11
       176  12  4.164938E+03 -1.944727E+05 -2.918216E+04 -1.607718E+04 -3.823123E-11  2.034979E-10
       176  13 -8.045580E+04 -1.968949E+05 -9.640611E+04 -4.831534E+03 -4.542872E-12 -3.770497E-12
       176  14 -1.084932E+03 -1.859748E+05 -4.585069E+04 -3.411845E+03  2.982772E-10 -2.935312E-11
       176  15  3.575658E+03 -1.968837E+05 -2.971933E+04 -4.834113E+03 -1.320915E-10  6.586125E-11
       176  16 -8.467647E+04 -2.138508E+05 -1.005472E+05 -4.434533E+04 -1.028864E-10 -3.375540E-11
       176  17 -3.448664E+03 -1.956166E+05 -4.802230E+04 -1.754790E+04  3.241590E-11 -1.440211E-10
       176  18  2.986853E+03 -1.992944E+05 -3.025644E+04  6.408909E+03  4.084202E-10 -1.894624E-10
       176  19 -7.622820E+04 -1.799310E+05 -9.225655E+04  3.468334E+04 -1.536262E+02  6.362180E+04
       176  20  1.279972E+03 -1.763307E+05 -4.367599E+04  1.072442E+04 -3.814600E+02  3.992268E+04
       176  21  4.165008E+03 -1.944724E+05 -2.918167E+04 -1.607718E+04 -1.047863E+02  1.622360E+04
       176  22 -8.045470E+04 -1.968904E+05 -9.639839E+04 -4.831542E+03 -1.576636E+02  6.407699E+04
       176  23 -1.084504E+03 -1.859731E+05 -4.584770E+04 -3.411858E+03 -3.823705E+02  3.989614E+04
       176  24  3.575724E+03 -1.968834E+05 -2.971887E+04 -4.834115E+03 -1.045041E+02  1.571502E+04
       176  25 -8.467535E+04 -2.138463E+05 -1.005394E+05 -4.434534E+04 -1.617591E+02  6.453217E+04
       176  26 -3.448236E+03 -1.956149E+05 -4.801931E+04 -1.754791E+04 -3.832797E+02  3.986960E+04
       176  27  2.986915E+03 -1.992941E+05 -3.025600E+04  6.408908E+03 -1.042404E+02  1.520645E+04
       177   1 -4.713461E+03 -1.961487E+05 -2.657155E+04 -2.673771E+03 -1.868035E+02 -1.164667E+04
       177   2 -2.438050E+03 -2.017607E+05 -2.324869E+04 -3.384748E+03 -5.689260E+02 -1.120983E+03
       177   3 -7.944668E+03 -2.106889E+05 -2.872509E+04 -6.960022E+03 -9.264261E+02  9.404591E+03
       177   4 -3.892108E+03 -1.927702E+05 -2.584334E+04 -4.838371E+03 -1.867540E+02 -1.126787E+04
       177   5  1.530669E+02 -1.911142E+05 -2.094199E+04 -3.406215E+03 -5.689154E+02 -7.657874E+02
       177   6 -3.579635E+03 -1.927702E+05 -2.482345E+04 -4.838379E+03 -9.263820E+02  9.736300E+03
       177   7 -3.070738E+03 -1.893917E+05 -2.511513E+04 -7.002983E+03 -1.867072E+02 -1.088906E+04
       177   8  2.744177E+03 -1.804675E+05 -1.863530E+04 -3.427683E+03 -5.689049E+02 -4.105864E+02
       177   9  7.853943E+02 -1.748511E+05 -2.092183E+04 -2.716673E+03 -9.263357E+02  1.006802E+04
       177  10 -4.713497E+03 -1.961488E+05 -2.657181E+04 -2.673772E+03  8.264420E-11  4.981412E-11
       177  11 -2.438051E+03 -2.017607E+05 -2.324870E+04 -3.384749E+03  1.680264E-10  2.067332E-11
       177  12 -7.944693E+03 -2.106890E+05 -2.872525E+04 -6.960015E+03  2.341581E-10  2.971694E-11
       177  13 -3.892142E+03 -1.927703E+05 -2.584358E+04 -4.838372E+03  4.070549E-10  2.159364E-12
       177  14  1.530664E+02 -1.911142E+05 -2.094200E+04 -3.406216E+03  1.777016E-10 -1.252064E-11
       177  15 -3.579661E+03 -1.927703E+05 -2.482363E+04 -4.838372E+03  1.265655E-11  7.045264E-11
       177  16 -3.070770E+03 -1.893918E+05 -2.511535E+04 -7.002985E+03  4.301310E-10 -1.114182E-10
       177  17  2.744176E+03 -1.804675E+05 -1.863530E+04 -3.427683E+03  2.154837E-10 -6.068127E-11
       177  18  7.853662E+02 -1.748512E+05 -2.092202E+04 -2.716666E+03  3.304768E-10 -1.281883E-11
       177  19 -4.713461E+03 -1.961487E+05 -2.657155E+04 -2.673771E+03  1.868035E+02  1.164667E+04
       177  20 -2.438050E+03 -2.017607E+05 -2.324869E+04 -3.384748E+03  5.689260E+02  1.120983E+03
       177  21 -7.944668E+03 -2.106889E+05 -2.872509E+04 -6.960022E+03  9.264261E+02 -9.404591E+03
       177  22 -3.892108E+03 -1.927702E+05 -2.584334E+04 -4.838371E+03  1.867540E+02  1.126787E+04
       177  23  1.530669E+02 -1.911142E+05 -2.094199E+04 -3.406215E+03  5.689154E+02  7.657874E+02
       177  24 -3.579635E+03 -1.927702E+05 -2.482345E+04 -4.838379E+03  9.263820E+02 -9.736300E+03
       177  25 -3.070738E+03 -1.893917E+05 -2.511513E+04 -7.002983E+03  1.867072E+02  1.088906E+04
       177  26  2.744177E+03 -1.804675E+05 -1.863530E+04 -3.427683E+03  5.689049E+02  4.105864E+02
       177  27  7.853943E+02 -1.748511E+05 -2.092183E+04 -2.716673E+03  9.263357E+02 -1.006802E+04
       178   1 -2.478166E+03 -2.202589E+05 -3.334344E+04  5.588784E+03 -1.258275E+03  1.336968E+04
       178   2 -8.558557E+03 -2.173060E+05 -4.969639E+04 -1.655587E+04 -1.383277E+03  3.695439E+04
       178   3 -8.417256E+04 -2.348086E+05 -9.878977E+04 -4.151246E+04 -4.643901E+02  6.053847E+04
       178   4  3.294485E+03 -1.965400E+05 -2.819926E+04 -4.827993E+03 -1.258475E+03  1.399174E+04
       178   5 -1.002725E+03 -1.864025E+05 -4.283341E+04 -3.419541E+03 -1.382507E+03  3.657384E+04
       178   6 -7.465960E+04 -1.965466E+05 -8.951079E+04 -4.824215E+03 -4.608834E+02  5.915564E+04
       178   7  9.067507E+03 -1.728203E+05 -2.305506E+04 -1.524517E+04 -1.258695E+03  1.461383E+04
       178   8  6.553692E+03 -1.554978E+05 -3.597040E+04  9.717448E+03 -1.381753E+03  3.619327E+04
       178   9 -6.514168E+04 -1.582803E+05 -8.023118E+04  3.186630E+04 -4.575404E+02  5.777272E+04
       178  10 -2.478216E+03 -2.202591E+05 -3.334378E+04  5.588798E+03  2.178422E-10  1.280334E-10
       178  11 -8.558926E+03 -2.173075E+05 -4.969896E+04 -1.655583E+04  5.160501E-11 -8.921595E-11
       178  12 -8.417354E+04 -2.348126E+05 -9.879666E+04 -4.151244E+04 -1.980813E-11 -1.844960E-10
       178  13  3.294431E+03 -1.965402E+05 -2.819963E+04 -4.827979E+03 -4.600646E-11 -1.500644E-11
       178  14 -1.003086E+03 -1.864040E+05 -4.283593E+04 -3.419500E+03  1.907926E-10 -8.898525E-11
       178  15 -7.466054E+04 -1.965504E+05 -8.951737E+04 -4.824193E+03 -1.665034E-10  8.154206E-11
       178  16  9.067448E+03 -1.728205E+05 -2.305546E+04 -1.524516E+04  9.191046E-11 -1.723315E-10
       178  17  6.553338E+03 -1.554992E+05 -3.597287E+04  9.717488E+03  5.263048E-10 -1.134741E-12
       178  18 -6.514258E+04 -1.582839E+05 -8.023745E+04  3.186632E+04  1.553785E-10  2.394979E-10
       178  19 -2.478166E+03 -2.202589E+05 -3.334344E+04  5.588784E+03  1.258275E+03 -1.336968E+04
       178  20 -8.558557E+03 -2.173060E+05 -4.969639E+04 -1.655587E+04  1.383277E+03 -3.695439E+04
       178  21 -8.417256E+04 -2.348086E+05 -9.878977E+04 -4.151246E+04  4.643901E+02 -6.053847E+04
       178  22  3.294485E+03 -1.965400E+05 -2.819926E+04 -4.827993E+03  1.258475E+03 -1.399174E+04
       178  23 -1.002725E+03 -1.864025E+05 -4.283341E+04 -3.419541E+03  1.382507E+03 -3.657384E+04
       178  24 -7.465960E+04 -1.965466E+05 -8.951079E+04 -4.824215E+03  4.608834E+02 -5.915564E+04
       178  25  9.067507E+03 -1.728203E+05 -2.305506E+04 -1.524517E+04  1.258695E+03 -1.461383E+04
       178  26  6.553692E+03 -1.554978E+05 -3.597040E+04  9.717448E+03  1.381753E+03 -3.619327E+04
       178  27 -6.514168E+04 -1.582803E+05 -8.023118E+04  3.186630E+04  4.575404E+02 -5.777272E+04
       179   1  1.530677E+05  6.674828E+04 -1.208969E+04  1.210144E+05  1.073110E+04  1.083180E+04
       179   2  1.667599E+05  6.310872E+04 -1.857587E+04  1.422169E+05  5.654606E+03  1.263933E+04
       179   3  2.045381E+05  6.546618E+04 -1.718514E+04  1.517081E+05  3.517511E+03  1.052681E+04
       179   4  2.973360E+05  1.480271E+05  3.167003E+04  1.825559E+05  1.606777E+04  1.483314E+04
       179   5  2.798948E+05  1.357411E+05  1.453407E+04  1.950730E+05  7.225408E+03  1.381685E+04
       179   6  2.873533E+05  1.302661E+05  8.540666E+03  1.958794E+05  1.322356E+03  8.881037E+03
       179   7  4.416251E+05  2.293113E+05  7.542719E+04  2.441110E+05  2.140610E+04  1.883538E+04
       179   8  3.930430E+05  2.083786E+05  4.764246E+04  2.479392E+05  8.796592E+03  1.499462E+04
       179   9  3.701760E+05  1.950708E+05  3.426566E+04  2.400576E+05 -8.731929E+02  7.234928E+03
       179  10  1.530676E+05  6.674813E+04 -1.209013E+04  1.210143E+05  1.578465E-11 -3.331378E-11
       179  11  1.667598E+05  6.310854E+04 -1.857623E+04  1.422168E+05 -5.743701E-11  1.881107E-10
       179  12  2.045381E+05  6.546606E+04 -1.718538E+04  1.517081E+05  4.305309E-10  1.959659E-10
       179  13  2.973356E+05  1.480268E+05  3.166913E+04  1.825557E+05  4.800785E-10  2.952773E-11
       179  14  2.798947E+05  1.357409E+05  1.453362E+04  1.950729E+05  4.421544E-10  1.758637E-10
       179  15  2.873533E+05  1.302660E+05  8.540514E+03  1.958794E+05 -2.234409E-10  8.851376E-11
       179  16  4.416245E+05  2.293108E+05  7.542566E+04  2.441106E+05  3.645842E-10  9.673265E-11
       179  17  3.930429E+05  2.083784E+05  4.764189E+04  2.479391E+05  4.462318E-10 -2.770336E-11
       179  18  3.701760E+05  1.950708E+05  3.426556E+04  2.400576E+05  1.681205E-10 -2.835143E-10
       179  19  1.530677E+05  6.674828E+04 -1.208969E+04  1.210144E+05 -1.073110E+04 -1.083180E+04
       179  20  1.667599E+05  6.310872E+04 -1.857587E+04  1.422169E+05 -5.654606E+03 -1.263933E+04
       179  21  2.045381E+05  6.546618E+04 -1.718514E+04  1.517081E+05 -3.517511E+03 -1.052681E+04
       179  22  2.973360E+05  1.480271E+05  3.167003E+04  1.825559E+05 -1.606777E+04 -1.483314E+04
       179  23  2.798948E+05  1.357411E+05  1.453407E+04  1.950730E+05 -7.225408E+03 -1.381685E+04
       179  24  2.873533E+05  1.302661E+05  8.540666E+03  1.958794E+05 -1.322356E+03 -8.881037E+03
       179  25  4.416251E+05  2.293113E+05  7.542719E+04  2.441110E+05 -2.140610E+04 -1.883538E+04
       179  26  3.930430E+05  2.083786E+05  4.764246E+04  2.479392E+05 -8.796592E+03 -1.499462E+04
       179  27  3.701760E+05  1.950708E+05  3.426566E+04  2.400576E+05  8.731929E+02 -7.234928E+03
       180   1  2.184624E+05  8.328929E+04 -1.365080E+04  1.598930E+05  2.301603E+03  7.816126E+03
       180   2  2.347670E+05  1.037237E+05 -9.848961E+03  1.732293E+05  1.839764E+03  5.571357E+03
       180   3  2.635637E+05  1.135136E+05 -4.605653E+03  1.827979E+05  1.510409E+03  3.149501E+03
       180   4  2.873919E+05  1.313538E+05  6.816230E+03  1.939263E+05  1.219714E+03  7.004979E+03
       180   5  2.808717E+05  1.362009E+05  3.849381E+03  1.961538E+05  5.876451E+02  4.632658E+03
       180   6  2.868793E+05  1.304400E+05  2.471362E+03  1.946130E+05  8.812848E+01  2.083326E+03
       180   7  3.563273E+05  1.794214E+05  2.728297E+04  2.279642E+05  1.376502E+02  6.193703E+03
       180   8  3.269787E+05  1.686793E+05  1.754750E+04  2.190803E+05 -6.646001E+02  3.693865E+03
       180   9  3.101953E+05  1.473665E+05  9.548244E+03  2.064285E+05 -1.334210E+03  1.017106E+03
       180  10  2.184624E+05  8.328922E+04 -1.365092E+04  1.598930E+05 -1.206126E-10  5.262450E-11
       180  11  2.347670E+05  1.037237E+05 -9.849026E+03  1.732293E+05 -2.340454E-11  2.893385E-10
       180  12  2.635637E+05  1.135136E+05 -4.605676E+03  1.827979E+05  1.889316E-10  3.338225E-12
       180  13  2.873919E+05  1.313538E+05  6.816135E+03  1.939263E+05  4.682244E-10  7.877922E-12
       180  14  2.808717E+05  1.362009E+05  3.849340E+03  1.961538E+05 -6.183462E-11 -9.913296E-11
       180  15  2.868793E+05  1.304400E+05  2.471353E+03  1.946130E+05  1.646141E-10  1.322993E-11
       180  16  3.563273E+05  1.794214E+05  2.728290E+04  2.279642E+05  2.119789E-10  1.518107E-11
       180  17  3.269787E+05  1.686793E+05  1.754747E+04  2.190803E+05 -2.392734E-10  7.559300E-11
       180  18  3.101953E+05  1.473665E+05  9.548239E+03  2.064285E+05 -5.078326E-11 -1.861511E-10
       180  19  2.184624E+05  8.328929E+04 -1.365080E+04  1.598930E+05 -2.301603E+03 -7.816126E+03
       180  20  2.347670E+05  1.037237E+05 -9.848961E+03  1.732293E+05 -1.839764E+03 -5.571357E+03
       180  21  2.635637E+05  1.135136E+05 -4.605653E+03  1.827979E+05 -1.510409E+03 -3.149501E+03
       180  22  2.873919E+05  1.313538E+05  6.816230E+03  1.939263E+05 -1.219714E+03 -7.004979E+03
       180  23  2.808717E+05  1.362009E+05  3.849381E+03  1.961538E+05 -5.876451E+02 -4.632658E+03
       180  24  2.868793E+05  1.304400E+05  2.471362E+03  1.946130E+05 -8.812848E+01 -2.083326E+03
       180  25  3.563273E+05  1.794214E+05  2.728297E+04  2.279642E+05 -1.376502E+02 -6.193703E+03
       180  26  3.269787E+05  1.686793E+05  1.754750E+04  2.190803E+05  6.646001E+02 -3.693865E+03
       180  27  3.101953E+05  1.473665E+05  9.548244E+03  2.064285E+05  1.334210E+03 -1.017106E+03
       181   1  2.811544E+05  1.264403E+05  4.760067E+02  1.916415E+05  1.779523E+03  2.015925E+03
       181   2  2.976837E+05  1.480999E+05  6.740920E+03  2.045616E+05  2.147480E+03  5.799267E+01
       181   3  3.260387E+05  1.582303E+05  1.361459E+04  2.140746E+05  2.514198E+03 -1.898256E+03
       181   4  2.868641E+05  1.304861E+05  2.098945E+03  1.945050E+05  4.050906E+02  9.856346E+02
       181   5  2.809509E+05  1.362497E+05  1.771552E+03  1.962098E+05  7.746409E+02 -9.711363E+02
       181   6  2.868625E+05  1.304833E+05  2.051510E+03  1.945070E+05  1.142982E+03 -2.926202E+03
       181   7  2.925738E+05  1.345318E+05  3.721893E+03  1.973686E+05 -9.693592E+02 -4.466846E+01
       181   8  2.642184E+05  1.243995E+05 -3.197868E+03  1.878582E+05 -5.981559E+02 -2.000233E+03
       181   9  2.476876E+05  1.027369E+05 -9.511864E+03  1.749405E+05 -2.281304E+02 -3.954070E+03
       181  10  2.811544E+05  1.264403E+05  4.759931E+02  1.916415E+05  3.454940E-10 -1.457616E-10
       181  11  2.976837E+05  1.480999E+05  6.740911E+03  2.045616E+05  2.897679E-10 -2.709767E-10
       181  12  3.260387E+05  1.582303E+05  1.361457E+04  2.140746E+05 -3.185167E-10 -2.628772E-10
       181  13  2.868641E+05  1.304861E+05  2.098943E+03  1.945050E+05  3.753069E-10 -2.167563E-10
       181  14  2.809509E+05  1.362497E+05  1.771549E+03  1.962098E+05  9.780645E-11 -2.224167E-10
       181  15  2.868625E+05  1.304833E+05  2.051492E+03  1.945070E+05 -5.586340E-11 -2.462048E-10
       181  16  2.925738E+05  1.345318E+05  3.721891E+03  1.973686E+05 -3.734050E-10 -1.411717E-10
       181  17  2.642184E+05  1.243995E+05 -3.197876E+03  1.878582E+05 -2.327254E-10  6.578349E-11
       181  18  2.476876E+05  1.027369E+05 -9.511894E+03  1.749405E+05  4.772742E-10 -4.467847E-11
       181  19  2.811544E+05  1.264403E+05  4.760067E+02  1.916415E+05 -1.779523E+03 -2.015925E+03
       181  20  2.976837E+05  1.480999E+05  6.740920E+03  2.045616E+05 -2.147480E+03 -5.799267E+01
       181  21  3.260387E+05  1.582303E+05  1.361459E+04  2.140746E+05 -2.514198E+03  1.898256E+03
       181  22  2.868641E+05  1.304861E+05  2.098945E+03  1.945050E+05 -4.050906E+02 -9.856346E+02
       181  23  2.809509E+05  1.362497E+05  1.771552E+03  1.962098E+05 -7.746409E+02  9.711363E+02
       181  24  2.868625E+05  1.304833E+05  2.051510E+03  1.945070E+05 -1.142982E+03  2.926202E+03
       181  25  2.925738E+05  1.345318E+05  3.721893E+03  1.973686E+05  9.693592E+02  4.466846E+01
       181  26  2.642184E+05  1.243995E+05 -3.197868E+03  1.878582E+05  5.981559E+02  2.000233E+03
       181  27  2.476876E+05  1.027369E+05 -9.511864E+03  1.749405E+05  2.281304E+02  3.954070E+03
       182   1  3.436819E+05  1.710655E+05  1.941536E+04  2.231330E+05  2.903325E+03 -2.947489E+03
       182   2  3.604657E+05  1.924148E+05  2.735329E+04  2.358054E+05  2.244823E+03 -5.598772E+03
       182   3  3.897958E+05  2.031481E+05  3.699948E+04  2.447252E+05  1.422051E+03 -8.030733E+03
       182   4  2.868778E+05  1.304372E+05  2.396874E+03  1.946087E+05  1.471238E+03 -4.021117E+03
       182   5  2.808720E+05  1.362039E+05  3.699777E+03  1.961574E+05  1.023625E+03 -6.514420E+03
       182   6  2.873667E+05  1.313090E+05  6.528466E+03  1.939532E+05  4.118021E+02 -8.788334E+03
       182   7  2.300777E+05  8.981111E+04 -1.462176E+04  1.660877E+05  3.934376E+01 -5.094599E+03
       182   8  2.012856E+05  7.999672E+04 -1.995429E+04  1.565154E+05 -1.973543E+02 -7.429905E+03
       182   9  1.849490E+05  5.947560E+04 -2.394370E+04  1.431908E+05 -5.982207E+02 -9.545766E+03
       182  10  3.436819E+05  1.710655E+05  1.941532E+04  2.231330E+05  9.288447E-12 -9.444985E-11
       182  11  3.604657E+05  1.924148E+05  2.735322E+04  2.358054E+05  1.288273E-11 -2.130389E-10
       182  12  3.897958E+05  2.031480E+05  3.699935E+04  2.447252E+05  4.697359E-11 -3.463879E-10
       182  13  2.868778E+05  1.304372E+05  2.396840E+03  1.946087E+05 -1.257994E-10 -1.251804E-10
       182  14  2.808720E+05  1.362038E+05  3.699695E+03  1.961574E+05  3.424899E-11 -2.358037E-10
       182  15  2.873667E+05  1.313089E+05  6.528320E+03  1.939532E+05 -2.112331E-10 -3.958044E-11
       182  16  2.300777E+05  8.981108E+04 -1.462181E+04  1.660877E+05 -1.669918E-12 -1.689913E-10
       182  17  2.012856E+05  7.999666E+04 -1.995439E+04  1.565154E+05 -1.126642E-10 -5.633564E-11
       182  18  1.849490E+05  5.947550E+04 -2.394387E+04  1.431908E+05  2.119677E-10  2.119969E-10
       182  19  3.436819E+05  1.710655E+05  1.941536E+04  2.231330E+05 -2.903325E+03  2.947489E+03
       182  20  3.604657E+05  1.924148E+05  2.735329E+04  2.358054E+05 -2.244823E+03  5.598772E+03
       182  21  3.897958E+05  2.031481E+05  3.699948E+04  2.447252E+05 -1.422051E+03  8.030733E+03
       182  22  2.868778E+05  1.304372E+05  2.396874E+03  1.946087E+05 -1.471238E+03  4.021117E+03
       182  23  2.808720E+05  1.362039E+05  3.699777E+03  1.961574E+05 -1.023625E+03  6.514420E+03
       182  24  2.873667E+05  1.313090E+05  6.528466E+03  1.939532E+05 -4.118021E+02  8.788334E+03
       182  25  2.300777E+05  8.981111E+04 -1.462176E+04  1.660877E+05 -3.934376E+01  5.094599E+03
       182  26  2.012856E+05  7.999672E+04 -1.995429E+04  1.565154E+05  1.973543E+02  7.429905E+03
       182  27  1.849490E+05  5.947560E+04 -2.394370E+04  1.431908E+05  5.982207E+02  9.545766E+03
       183   1  4.038502E+05  2.187074E+05  4.386042E+04  2.567143E+05  2.797971E+03 -8.916295E+03
       183   2  4.264449E+05  2.323762E+05  5.717091E+04  2.647728E+05 -7.706203E+03 -1.688700E+04
       183   3  4.743380E+05  2.530984E+05  8.518742E+04  2.614987E+05 -2.185528E+04 -1.999954E+04
       183   4  2.873193E+05  1.302792E+05  8.174834E+03  1.958246E+05  4.069341E+02 -1.070931E+04
       183   5  2.799484E+05  1.357483E+05  1.390116E+04  1.951200E+05 -5.427429E+03 -1.517851E+04
       183   6  2.968656E+05  1.472612E+05  3.028514E+04  1.830817E+05 -1.490628E+04 -1.478861E+04
       183   7  1.708019E+05  4.185910E+04 -2.751274E+04  1.349476E+05 -1.983521E+03 -1.250184E+04
       183   8  1.334752E+05  3.913036E+04 -2.937091E+04  1.254852E+05 -3.149388E+03 -1.347051E+04
       183   9  1.194287E+05  4.143582E+04 -2.461991E+04  1.046885E+05 -7.960095E+03 -9.579348E+03
       183  10  4.038502E+05  2.187074E+05  4.386026E+04  2.567144E+05  1.625662E-10 -3.091115E-11
       183  11  4.264447E+05  2.323758E+05  5.717026E+04  2.647727E+05 -3.830495E-12 -1.891954E-10
       183  12  4.743373E+05  2.530978E+05  8.518577E+04  2.614984E+05  2.262470E-10 -3.088778E-12
       183  13  2.873192E+05  1.302791E+05  8.174618E+03  1.958246E+05 -1.580209E-10  5.387924E-12
       183  14  2.799483E+05  1.357481E+05  1.390067E+04  1.951200E+05  8.893538E-12  7.452450E-11
       183  15  2.968653E+05  1.472609E+05  3.028431E+04  1.830815E+05 -8.762276E-11  6.283739E-11
       183  16  1.708019E+05  4.185893E+04 -2.751304E+04  1.349476E+05  1.416155E-10  4.519601E-11
       183  17  1.334751E+05  3.913016E+04 -2.937127E+04  1.254851E+05  5.614509E-11  6.978548E-11
       183  18  1.194286E+05  4.143571E+04 -2.462020E+04  1.046884E+05  1.190485E-10  9.164738E-12
       183  19  4.038502E+05  2.187074E+05  4.386042E+04  2.567143E+05 -2.797971E+03  8.916295E+03
       183  20  4.264449E+05  2.323762E+05  5.717091E+04  2.647728E+05  7.706203E+03  1.688700E+04
       183  21  4.743380E+05  2.530984E+05  8.518742E+04  2.614987E+05  2.185528E+04  1.999954E+04
       183  22  2.873193E+05  1.302792E+05  8.174834E+03  1.958246E+05 -4.069341E+02  1.070931E+04
       183  23  2.799484E+05  1.357483E+05  1.390116E+04  1.951200E+05  5.427429E+03  1.517851E+04
       183  24  2.968656E+05  1.472612E+05  3.028514E+04  1.830817E+05  1.490628E+04  1.478861E+04
       183  25  1.708019E+05  4.185910E+04 -2.751274E+04  1.349476E+05  1.983521E+03  1.250184E+04
       183  26  1.334752E+05  3.913036E+04 -2.937091E+04  1.254852E+05  3.149388E+03  1.347051E+04
       183  27  1.194287E+05  4.143582E+04 -2.461991E+04  1.046885E+05  7.960095E+03  9.579348E+03
       184   1  2.793895E+05  2.527354E+04  1.288070E+04  2.278106E+04 -3.301866E+04 -3.715793E+03
       184   2  2.115597E+05  5.895185E+04  2.440416E+04  2.539780E+04 -2.571727E+04 -1.076897E+04
       184   3  1.306628E+05  4.405280E+04  1.903646E+04  5.688179E+04 -1.841697E+04 -8.958046E+03
       184   4 -3.994491E+04 -5.408563E+04 -6.461975E+04  4.927611E+04 -4.403289E+04 -3.717647E+03
       184   5 -3.266081E+04 -7.488096E+02 -2.991537E+04  3.483964E+04 -2.822646E+04 -1.076991E+04
       184   6 -3.993355E+04  2.522277E+03 -1.801471E+04  4.927282E+04 -1.242006E+04 -8.956900E+03
       184   7 -3.591845E+05 -1.334496E+05 -1.421267E+05  7.575750E+04 -5.504147E+04 -3.720442E+03
       184   8 -2.768255E+05 -6.045317E+04 -8.423854E+04  4.427772E+04 -3.073468E+04 -1.077092E+04
       184   9 -2.105024E+05 -3.900994E+04 -5.506746E+04  4.166596E+04 -6.424781E+03 -8.955901E+03
       184  10  2.793884E+05  2.527323E+04  1.287862E+04  2.278096E+04 -4.258050E-10  1.039950E-10
       184  11  2.115590E+05  5.895155E+04  2.440270E+04  2.539758E+04 -2.370179E-10  1.759391E-10
       184  12  1.306624E+05  4.405262E+04  1.903568E+04  5.688166E+04  1.052808E-10 -4.824462E-11
       184  13 -3.994700E+04 -5.408616E+04 -6.462342E+04  4.927598E+04 -1.579963E-10  1.615329E-11
       184  14 -3.266170E+04 -7.491481E+02 -2.991708E+04  3.483940E+04  4.943921E-11  2.136847E-10
       184  15 -3.993374E+04  2.522149E+03 -1.801515E+04  4.927273E+04  1.774315E-10  4.781833E-11
       184  16 -3.591878E+05 -1.334504E+05 -1.421325E+05  7.575733E+04  9.153889E-11  2.089959E-11
       184  17 -2.768266E+05 -6.045355E+04 -8.424054E+04  4.427746E+04 -7.329141E-11  9.600973E-12
       184  18 -2.105024E+05 -3.901003E+04 -5.506769E+04  4.166592E+04 -1.291903E-10 -4.005074E-11
       184  19  2.793895E+05  2.527354E+04  1.288070E+04  2.278106E+04  3.301866E+04  3.715793E+03
       184  20  2.115597E+05  5.895185E+04  2.440416E+04  2.539780E+04  2.571727E+04  1.076897E+04
       184  21  1.306628E+05  4.405280E+04  1.903646E+04  5.688179E+04  1.841697E+04  8.958046E+03
       184  22 -3.994491E+04 -5.408563E+04 -6.461975E+04  4.927611E+04  4.403289E+04  3.717647E+03
       184  23 -3.266081E+04 -7.488096E+02 -2.991537E+04  3.483964E+04  2.822646E+04  1.076991E+04
       184  24 -3.993355E+04  2.522277E+03 -1.801471E+04  4.927282E+04  1.242006E+04  8.956900E+03
       184  25 -3.591845E+05 -1.334496E+05 -1.421267E+05  7.575750E+04  5.504147E+04  3.720442E+03
       184  26 -2.768255E+05 -6.045317E+04 -8.423854E+04  4.427772E+04  3.073468E+04  1.077092E+04
       184  27 -2.105024E+05 -3.900994E+04 -5.506746E+04  4.166596E+04  6.424781E+03  8.955901E+03
       185   1  7.439556E+04  2.439834E+04  9.545940E+03  4.835925E+04 -1.331987E+04 -5.723984E+03
       185   2  7.543276E+02  9.127293E+03 -1.257881E+03  3.445469E+04 -9.009599E+03 -1.902723E+03
       185   3 -7.415089E+04 -8.945866E+03 -1.557035E+04  4.982368E+04 -4.700098E+03  2.295437E+03
       185   4 -3.699154E+04 -2.732101E+03 -1.472462E+04  4.936357E+04 -9.832094E+03 -5.723349E+03
       185   5 -3.632398E+04  9.528925E+01 -9.339716E+03  3.472641E+04 -5.160938E+03 -1.901927E+03
       185   6 -3.698985E+04  5.766881E+01 -7.714868E+03  4.936301E+04 -4.900581E+02  2.296413E+03
       185   7 -1.483670E+05 -2.986335E+04 -3.899588E+04  5.036771E+04 -6.344933E+03 -5.722702E+03
       185   8 -7.340097E+04 -8.936798E+03 -1.742158E+04  3.499811E+04 -1.312503E+03 -1.901128E+03
       185   9  1.725416E+02  9.061125E+03  1.406069E+02  4.890232E+04  3.720230E+03  2.297384E+03
       185  10  7.439537E+04  2.439825E+04  9.545545E+03  4.835919E+04 -1.668125E-10  1.496071E-10
       185  11  7.542395E+02  9.127268E+03 -1.258040E+03  3.445467E+04  7.895325E-11 -3.128205E-10
       185  12 -7.415092E+04 -8.945878E+03 -1.557041E+04  4.982369E+04  1.077079E-10  1.036143E-10
       185  13 -3.699165E+04 -2.732162E+03 -1.472486E+04  4.936352E+04  2.692347E-10  2.138965E-11
       185  14 -3.632401E+04  9.527821E+01 -9.339773E+03  3.472640E+04 -4.580664E-11 -5.344157E-11
       185  15 -3.698985E+04  5.766308E+01 -7.714878E+03  4.936301E+04 -1.127100E-10  1.211912E-11
       185  16 -1.483670E+05 -2.986340E+04 -3.899602E+04  5.036768E+04  1.255270E-10 -1.933035E-10
       185  17 -7.340097E+04 -8.936802E+03 -1.742159E+04  3.499811E+04 -1.849734E-10 -2.124591E-11
       185  18  1.725254E+02  9.061115E+03  1.405710E+02  4.890231E+04 -1.462235E-10  2.265639E-10
       185  19  7.439556E+04  2.439834E+04  9.545940E+03  4.835925E+04  1.331987E+04  5.723984E+03
       185  20  7.543276E+02  9.127293E+03 -1.257881E+03  3.445469E+04  9.009599E+03  1.902723E+03
       185  21 -7.415089E+04 -8.945866E+03 -1.557035E+04  4.982368E+04  4.700098E+03 -2.295437E+03
       185  22 -3.699154E+04 -2.732101E+03 -1.472462E+04  4.936357E+04  9.832094E+03  5.723349E+03
       185  23 -3.632398E+04  9.528925E+01 -9.339716E+03  3.472641E+04  5.160938E+03  1.901927E+03
       185  24 -3.698985E+04  5.766881E+01 -7.714868E+03  4.936301E+04  4.900581E+02 -2.296413E+03
       185  25 -1.483670E+05 -2.986335E+04 -3.899588E+04  5.036771E+04  6.344933E+03  5.722702E+03
       185  26 -7.340097E+04 -8.936798E+03 -1.742158E+04  3.499811E+04  1.312503E+03  1.901128E+03
       185  27  1.725416E+02  9.061125E+03  1.406069E+02  4.890232E+04 -3.720230E+03 -2.297384E+03
       186   1 -1.331664E+05 -2.335645E+04 -2.875952E+04  4.884146E+04 -3.379298E+03  4.900291E+03
       186   2 -2.066920E+05 -4.137982E+04 -4.663789E+04  3.499965E+04  1.989509E+03  9.063808E+03
       186   3 -2.816898E+05 -6.252542E+04 -6.879336E+04  5.042245E+04  7.358627E+03  1.268897E+04
       186   4 -3.700329E+04  7.434722E+01 -7.779392E+03  4.936091E+04  8.742416E+02  4.901174E+03
       186   5 -3.631405E+04  8.774126E+01 -9.701728E+03  3.472904E+04  5.727299E+03  9.064203E+03
       186   6 -3.701088E+04 -2.930319E+03 -1.554158E+04  4.936135E+04  1.058129E+04  1.268895E+04
       186   7  5.916851E+04  2.350454E+04  1.320025E+04  4.988045E+04  5.128432E+03  4.902064E+03
       186   8  1.340912E+05  4.155339E+04  2.723276E+04  3.445834E+04  9.466102E+03  9.064596E+03
       186   9  2.077243E+05  5.666082E+04  3.770664E+04  4.829982E+04  1.380520E+04  1.268892E+04
       186  10 -1.331664E+05 -2.335648E+04 -2.875959E+04  4.884147E+04  1.272194E-10  3.946387E-11
       186  11 -2.066920E+05 -4.137991E+04 -4.663805E+04  3.499964E+04 -2.631481E-10 -1.935054E-10
       186  12 -2.816899E+05 -6.252561E+04 -6.879376E+04  5.042237E+04  6.814299E-11 -2.192856E-10
       186  13 -3.700330E+04  7.432122E+01 -7.779438E+03  4.936091E+04 -1.346675E-10  1.652300E-11
       186  14 -3.631411E+04  8.764423E+01 -9.701944E+03  3.472900E+04  6.028152E-12 -1.847877E-10
       186  15 -3.701104E+04 -2.930522E+03 -1.554210E+04  4.936124E+04  2.516628E-10 -1.940902E-10
       186  16  5.916848E+04  2.350451E+04  1.320016E+04  4.988043E+04 -1.619269E-10  4.957477E-11
       186  17  1.340910E+05  4.155328E+04  2.723244E+04  3.445827E+04  4.127546E-10  1.746994E-10
       186  18  2.077240E+05  5.666060E+04  3.770598E+04  4.829968E+04  1.526110E-10 -2.030252E-10
       186  19 -1.331664E+05 -2.335645E+04 -2.875952E+04  4.884146E+04  3.379298E+03 -4.900291E+03
       186  20 -2.066920E+05 -4.137982E+04 -4.663789E+04  3.499965E+04 -1.989509E+03 -9.063808E+03
       186  21 -2.816898E+05 -6.252542E+04 -6.879336E+04  5.042245E+04 -7.358627E+03 -1.268897E+04
       186  22 -3.700329E+04  7.434722E+01 -7.779392E+03  4.936091E+04 -8.742416E+02 -4.901174E+03
       186  23 -3.631405E+04  8.774126E+01 -9.701728E+03  3.472904E+04 -5.727299E+03 -9.064203E+03
       186  24 -3.701088E+04 -2.930319E+03 -1.554158E+04  4.936135E+04 -1.058129E+04 -1.268895E+04
       186  25  5.916851E+04  2.350454E+04  1.320025E+04  4.988045E+04 -5.128432E+03 -4.902064E+03
       186  26  1.340912E+05  4.155339E+04  2.723276E+04  3.445834E+04 -9.466102E+03 -9.064596E+03
       186  27  2.077243E+05  5.666082E+04  3.770664E+04  4.829982E+04 -1.380520E+04 -1.268892E+04
       187   1 -3.440914E+05 -7.131897E+04 -8.496571E+04  4.114953E+04  6.620675E+03  1.619027E+04
       187   2 -4.096935E+05 -9.303994E+04 -1.155021E+05  4.496696E+04  3.518429E+04  1.703265E+04
       187   3 -4.927990E+05 -1.701109E+05 -1.784692E+05  7.747962E+04  6.374149E+04  5.614196E+03
       187   4 -4.014440E+04  2.662175E+03 -1.907937E+04  4.923676E+04  1.331562E+04  1.619018E+04
       187   5 -3.242518E+04 -8.253744E+02 -3.180510E+04  3.488515E+04  3.012300E+04  1.703168E+04
       187   6 -4.016158E+04 -5.760350E+04 -6.878428E+04  4.923025E+04  4.692779E+04  5.614007E+03
       187   7  2.638896E+05  7.663748E+04  4.680167E+04  5.732800E+04  2.001380E+04  1.619027E+04
       187   8  3.449763E+05  9.137997E+04  5.188322E+04  2.479713E+04  2.505866E+04  1.703087E+04
       187   9  4.126654E+05  5.489201E+04  4.088739E+04  2.096020E+04  3.010186E+04  5.615351E+03
       187  10 -3.440916E+05 -7.131926E+04 -8.496628E+04  4.114944E+04 -3.417245E-10  1.687702E-12
       187  11 -4.096949E+05 -9.304059E+04 -1.155050E+05  4.496648E+04  1.294078E-10  4.212669E-10
       187  12 -4.928033E+05 -1.701120E+05 -1.784769E+05  7.747933E+04  5.971464E-10  1.611418E-10
       187  13 -4.014466E+04  2.661846E+03 -1.908020E+04  4.923659E+04  1.916124E-11 -1.044288E-10
       187  14 -3.242623E+04 -8.259294E+02 -3.180735E+04  3.488473E+04  9.524249E-11 -4.126429E-11
       187  15 -4.016395E+04 -5.760413E+04 -6.878848E+04  4.923003E+04  1.186058E-10  2.239020E-11
       187  16  2.638891E+05  7.663709E+04  4.680043E+04  5.732774E+04  4.566480E-10 -1.053291E-10
       187  17  3.449756E+05  9.137949E+04  5.188150E+04  2.479679E+04  2.136481E-10 -4.298307E-11
       187  18  4.126644E+05  5.489173E+04  4.088563E+04  2.096007E+04 -4.241373E-10  2.703237E-10
       187  19 -3.440914E+05 -7.131897E+04 -8.496571E+04  4.114953E+04 -6.620675E+03 -1.619027E+04
       187  20 -4.096935E+05 -9.303994E+04 -1.155021E+05  4.496696E+04 -3.518429E+04 -1.703265E+04
       187  21 -4.927990E+05 -1.701109E+05 -1.784692E+05  7.747962E+04 -6.374149E+04 -5.614196E+03
       187  22 -4.014440E+04  2.662175E+03 -1.907937E+04  4.923676E+04 -1.331562E+04 -1.619018E+04
       187  23 -3.242518E+04 -8.253744E+02 -3.180510E+04  3.488515E+04 -3.012300E+04 -1.703168E+04
       187  24 -4.016158E+04 -5.760350E+04 -6.878428E+04  4.923025E+04 -4.692779E+04 -5.614007E+03
       187  25  2.638896E+05  7.663748E+04  4.680167E+04  5.732800E+04 -2.001380E+04 -1.619027E+04
       187  26  3.449763E+05  9.137997E+04  5.188322E+04  2.479713E+04 -2.505866E+04 -1.703087E+04
       187  27  4.126654E+05  5.489201E+04  4.088739E+04  2.096020E+04 -3.010186E+04 -5.615351E+03
       188   1 -1.371027E+05 -4.759478E+05 -1.590867E+05  8.211454E+04 -9.502731E+02 -9.238748E+04
       188   2 -1.538500E+04 -4.201610E+05 -7.732615E+04  3.862663E+04 -2.286955E+03 -5.558862E+04
       188   3  9.310205E+02 -3.955255E+05 -4.588551E+04  1.085167E+04 -7.641893E+02 -1.878731E+04
       188   4 -1.129601E+05 -3.788748E+05 -1.353899E+05  2.664147E+04 -9.416476E+02 -8.972820E+04
       188   5 -1.512511E+03 -3.635274E+05 -6.458539E+04  1.877555E+04 -2.285173E+03 -5.567187E+04
       188   6  5.011457E+03 -3.788539E+05 -4.219046E+04  2.662662E+04 -7.651429E+02 -2.161557E+04
       188   7 -8.880670E+04 -2.817865E+05 -1.116921E+05 -2.884030E+04 -9.334988E+02 -8.706850E+04
       188   8  1.236124E+04 -3.068900E+05 -5.184464E+04 -1.077355E+03 -2.283386E+03 -5.575512E+04
       188   9  9.092814E+03 -3.621814E+05 -3.849527E+04  4.240200E+04 -7.662404E+02 -2.444391E+04
       188  10 -1.371050E+05 -4.759569E+05 -1.591028E+05  8.211447E+04 -6.889185E-12  4.410593E-11
       188  11 -1.538584E+04 -4.201643E+05 -7.733197E+04  3.862653E+04  2.200775E-10  1.552201E-10
       188  12  9.309250E+02 -3.955259E+05 -4.588617E+04  1.085165E+04  4.067116E-10  5.496350E-10
       188  13 -1.129623E+05 -3.788834E+05 -1.354050E+05  2.664141E+04  2.275034E-10 -3.054475E-10
       188  14 -1.513349E+03 -3.635307E+05 -6.459123E+04  1.877545E+04  1.738755E-10  1.369462E-10
       188  15  5.011331E+03 -3.788544E+05 -4.219134E+04  2.662660E+04  7.286923E-11  3.089839E-10
       188  16 -8.880874E+04 -2.817947E+05 -1.117063E+05 -2.884036E+04  1.623584E-10  5.837005E-11
       188  17  1.236040E+04 -3.068933E+05 -5.185049E+04 -1.077458E+03 -9.521416E-11 -4.408491E-10
       188  18  9.092653E+03 -3.621821E+05 -3.849639E+04  4.240198E+04  1.771784E-10 -4.262111E-10
       188  19 -1.371027E+05 -4.759478E+05 -1.590867E+05  8.211454E+04  9.502731E+02  9.238748E+04
       188  20 -1.538500E+04 -4.201610E+05 -7.732615E+04  3.862663E+04  2.286955E+03  5.558862E+04
       188  21  9.310205E+02 -3.955255E+05 -4.588551E+04  1.085167E+04  7.641893E+02  1.878731E+04
       188  22 -1.129601E+05 -3.788748E+05 -1.353899E+05  2.664147E+04  9.416476E+02  8.972820E+04
       188  23 -1.512511E+03 -3.635274E+05 -6.458539E+04  1.877555E+04  2.285173E+03  5.567187E+04
       188  24  5.011457E+03 -3.788539E+05 -4.219046E+04  2.662662E+04  7.651429E+02  2.161557E+04
       188  25 -8.880670E+04 -2.817865E+05 -1.116921E+05 -2.884030E+04  9.334988E+02  8.706850E+04
       188  26  1.236124E+04 -3.068900E+05 -5.184464E+04 -1.077355E+03  2.283386E+03  5.575512E+04
       188  27  9.092814E+03 -3.621814E+05 -3.849527E+04  4.240200E+04  7.662404E+02  2.444391E+04
       189   1 -1.708406E+03 -3.578006E+05 -3.361924E+04  2.978134E+04  8.530196E+02 -1.319123E+04
       189   2  1.373147E+04 -3.152241E+05 -1.851356E+04  1.874487E+04  2.965117E+03  1.997334E+03
       189   3  1.785275E+04 -2.774573E+05 -1.613003E+04  2.353736E+04  4.948055E+03  1.718701E+04
       189   4 -5.432959E+03 -3.731151E+05 -3.691503E+04  2.665526E+04  8.527350E+02 -1.527692E+04
       189   5  2.279874E+02 -3.706992E+05 -3.053486E+04  1.874063E+04  2.964852E+03  3.464045E+01
       189   6 -5.451484E+03 -3.731164E+05 -3.696265E+04  2.665526E+04  4.947951E+03  1.534636E+04
       189   7 -9.157487E+03 -3.884293E+05 -4.021082E+04  2.352926E+04  8.524715E+02 -1.736256E+04
       189   8 -1.327570E+04 -4.261715E+05 -4.255632E+04  1.873639E+04  2.964587E+03 -1.927879E+03
       189   9 -2.875629E+04 -4.687669E+05 -5.779580E+04  2.977267E+04  4.947829E+03  1.350599E+04
       189  10 -1.708454E+03 -3.578008E+05 -3.361957E+04  2.978135E+04  4.314466E-10 -2.007481E-10
       189  11  1.373146E+04 -3.152241E+05 -1.851358E+04  1.874486E+04  1.764300E-10 -1.038126E-10
       189  12  1.785264E+04 -2.774577E+05 -1.613063E+04  2.353730E+04 -1.448640E-10  2.975400E-10
       189  13 -5.433022E+03 -3.731153E+05 -3.691547E+04  2.665527E+04  2.697054E-10 -4.101218E-10
       189  14  2.279779E+02 -3.706992E+05 -3.053487E+04  1.874063E+04 -5.190239E-11  1.475156E-10
       189  15 -5.451574E+03 -3.731167E+05 -3.696314E+04  2.665520E+04  3.063348E-10  2.208624E-10
       189  16 -9.157569E+03 -3.884296E+05 -4.021138E+04  2.352927E+04  3.147559E-10  3.502542E-10
       189  17 -1.327571E+04 -4.261715E+05 -4.255634E+04  1.873639E+04  1.938674E-10 -1.304744E-10
       189  18 -2.875636E+04 -4.687671E+05 -5.779619E+04  2.977261E+04  1.812884E-10 -1.956063E-10
       189  19 -1.708406E+03 -3.578006E+05 -3.361924E+04  2.978134E+04 -8.530196E+02  1.319123E+04
       189  20  1.373147E+04 -3.152241E+05 -1.851356E+04  1.874487E+04 -2.965117E+03 -1.997334E+03
       189  21  1.785275E+04 -2.774573E+05 -1.613003E+04  2.353736E+04 -4.948055E+03 -1.718701E+04
       189  22 -5.432959E+03 -3.731151E+05 -3.691503E+04  2.665526E+04 -8.527350E+02  1.527692E+04
       189  23  2.279874E+02 -3.706992E+05 -3.053486E+04  1.874063E+04 -2.964852E+03 -3.464045E+01
       189  24 -5.451484E+03 -3.731164E+05 -3.696265E+04  2.665526E+04 -4.947951E+03 -1.534636E+04
       189  25 -9.157487E+03 -3.884293E+05 -4.021082E+04  2.352926E+04 -8.524715E+02  1.736256E+04
       189  26 -1.327570E+04 -4.261715E+05 -4.255632E+04  1.873639E+04 -2.964587E+03  1.927879E+03
       189  27 -2.875629E+04 -4.687669E+05 -5.779580E+04  2.977267E+04 -4.947829E+03 -1.350599E+04
       190   1  3.611212E+04 -2.511732E+05 -1.455853E+04  4.241464E+04  6.778822E+03  2.511350E+04
       190   2  3.939818E+04 -1.961224E+05 -2.754658E+04 -1.082620E+03  7.492047E+03  5.378906E+04
       190   3 -6.151667E+04 -1.708439E+05 -8.525257E+04 -2.902902E+04  2.509265E+03  8.246650E+04
       190   4  5.019278E+03 -3.788700E+05 -4.226077E+04  2.659245E+04  6.777899E+03  2.169390E+04
       190   5 -1.524669E+03 -3.635150E+05 -6.472646E+04  1.881864E+04  7.494028E+03  5.582538E+04
       190   6 -1.132375E+05 -3.788936E+05 -1.357095E+05  2.659635E+04  2.516762E+03  8.995651E+04
       190   7 -2.607370E+04 -5.065510E+05 -6.996380E+04  1.077357E+04  6.777150E+03  1.827499E+04
       190   8 -4.244793E+04 -5.308806E+05 -1.019079E+05  3.871447E+04  7.496140E+03  5.786115E+04
       190   9 -1.649498E+05 -5.868970E+05 -1.861677E+05  8.220302E+04  2.525604E+03  9.744402E+04
       190  10  3.611190E+04 -2.511739E+05 -1.455980E+04  4.241450E+04 -6.761960E-11 -5.721517E-11
       190  11  3.939735E+04 -1.961255E+05 -2.755212E+04 -1.082945E+03 -2.841213E-10 -6.840722E-11
       190  12 -6.151851E+04 -1.708512E+05 -8.526537E+04 -2.902919E+04  9.438417E-11 -4.156531E-11
       190  13  5.019103E+03 -3.788706E+05 -4.226174E+04  2.659234E+04  3.536415E-10 -2.614878E-10
       190  14 -1.525567E+03 -3.635184E+05 -6.473242E+04  1.881830E+04  1.919117E-10 -2.619768E-11
       190  15 -1.132397E+05 -3.789023E+05 -1.357247E+05  2.659617E+04 -7.479869E-11 -1.241249E-10
       190  16 -2.607384E+04 -5.065514E+05 -6.996452E+04  1.077347E+04  3.384805E-10  1.386438E-10
       190  17 -4.244889E+04 -5.308843E+05 -1.019143E+05  3.871412E+04  1.689009E-10  1.121371E-12
       190  18 -1.649524E+05 -5.869072E+05 -1.861856E+05  8.220282E+04 -1.104214E-10  1.536489E-11
       190  19  3.611212E+04 -2.511732E+05 -1.455853E+04  4.241464E+04 -6.778822E+03 -2.511350E+04
       190  20  3.939818E+04 -1.961224E+05 -2.754658E+04 -1.082620E+03 -7.492047E+03 -5.378906E+04
       190  21 -6.151667E+04 -1.708439E+05 -8.525257E+04 -2.902902E+04 -2.509265E+03 -8.246650E+04
       190  22  5.019278E+03 -3.788700E+05 -4.226077E+04  2.659245E+04 -6.777899E+03 -2.169390E+04
       190  23 -1.524669E+03 -3.635150E+05 -6.472646E+04  1.881864E+04 -7.494028E+03 -5.582538E+04
       190  24 -1.132375E+05 -3.788936E+05 -1.357095E+05  2.659635E+04 -2.516762E+03 -8.995651E+04
       190  25 -2.607370E+04 -5.065510E+05 -6.996380E+04  1.077357E+04 -6.777150E+03 -1.827499E+04
       190  26 -4.244793E+04 -5.308806E+05 -1.019079E+05  3.871447E+04 -7.496140E+03 -5.786115E+04
       190  27 -1.649498E+05 -5.868970E+05 -1.861677E+05  8.220302E+04 -2.525604E+03 -9.744402E+04
       191   1  5.530080E+05  3.959184E+05  1.150356E+05  3.808975E+05  8.452497E+04  6.636931E+04
       191   2  5.645784E+05  2.989353E+05  4.164263E+04  4.485315E+05  5.422306E+04  4.910192E+04
       191   3  6.663736E+05  2.762728E+05  2.277146E+04  4.661752E+05  2.746844E+04  2.709690E+04
       191   4  7.728690E+05  4.401169E+05  1.663703E+05  4.380812E+05  9.018875E+04  7.060089E+04
       191   5  7.010685E+05  3.558193E+05  7.622671E+04  4.980819E+05  5.531720E+04  4.991846E+04
       191   6  7.204569E+05  3.468097E+05  4.454765E+04  5.080952E+05  2.399803E+04  2.449691E+04
       191   7  9.927901E+05  4.843205E+05  2.177045E+05  4.952760E+05  9.585537E+04  7.483267E+04
       191   8  8.375807E+05  4.127066E+05  1.108098E+05  5.476420E+05  5.641167E+04  5.073512E+04
       191   9  7.745445E+05  4.173546E+05  6.632377E+04  5.500210E+05  2.052720E+04  2.189626E+04
       191  10  5.529992E+05  3.959118E+05  1.150139E+05  3.808929E+05  3.392414E-10  5.675927E-11
       191  11  5.645746E+05  2.989319E+05  4.163259E+04  4.485294E+05 -6.235846E-11 -1.751099E-10
       191  12  6.663726E+05  2.762718E+05  2.276867E+04  4.661746E+05  1.336392E-10 -1.208805E-10
       191  13  7.728589E+05  4.401094E+05  1.663457E+05  4.380761E+05  5.516312E-10 -2.636464E-11
       191  14  7.010645E+05  3.558158E+05  7.621629E+04  4.980797E+05  8.707408E-10 -2.220033E-11
       191  15  7.204561E+05  3.468089E+05  4.454544E+04  5.080947E+05 -3.937944E-10  7.148325E-11
       191  16  9.927788E+05  4.843120E+05  2.176768E+05  4.952702E+05  2.433890E-10 -1.516877E-10
       191  17  8.375766E+05  4.127030E+05  1.107990E+05  5.476397E+05  2.386869E-10 -9.016719E-11
       191  18  7.745439E+05  4.173540E+05  6.632208E+04  5.500206E+05  1.457667E-11  2.879219E-10
       191  19  5.530080E+05  3.959184E+05  1.150356E+05  3.808975E+05 -8.452497E+04 -6.636931E+04
       191  20  5.645784E+05  2.989353E+05  4.164263E+04  4.485315E+05 -5.422306E+04 -4.910192E+04
       191  21  6.663736E+05  2.762728E+05  2.277146E+04  4.661752E+05 -2.746844E+04 -2.709690E+04
       191  22  7.728690E+05  4.401169E+05  1.663703E+05  4.380812E+05 -9.018875E+04 -7.060089E+04
       191  23  7.010685E+05  3.558193E+05  7.622671E+04  4.980819E+05 -5.531720E+04 -4.991846E+04
       191  24  7.204569E+05  3.468097E+05  4.454765E+04  5.080952E+05 -2.399803E+04 -2.449691E+04
       191  25  9.927901E+05  4.843205E+05  2.177045E+05  4.952760E+05 -9.585537E+04 -7.483267E+04
       191  26  8.375807E+05  4.127066E+05  1.108098E+05  5.476420E+05 -5.641167E+04 -5.073512E+04
       191  27  7.745445E+05  4.173546E+05  6.632377E+04  5.500210E+05 -2.052720E+04 -2.189626E+04
       192   1  6.773323E+05  3.261645E+05  2.315372E+04  4.782280E+05  2.251271E+04  2.043757E+04
       192   2  7.055033E+05  3.582542E+05  1.925132E+04  5.036804E+05  1.666903E+04  1.243792E+04
       192   3  7.590534E+05  3.748746E+05  2.324508E+04  5.210976E+05  1.098580E+04  4.223304E+03
       192   4  7.204748E+05  3.526921E+05  3.536394E+04  4.978861E+05  2.038940E+04  1.884580E+04
       192   5  7.064140E+05  3.579993E+05  1.940954E+04  5.037104E+05  1.433846E+04  1.069093E+04
       192   6  7.177753E+05  3.478814E+05  1.153013E+04  5.014984E+05  8.448625E+03  2.321518E+03
       192   7  7.636189E+05  3.792202E+05  4.757387E+04  5.175454E+05  1.826590E+04  1.725392E+04
       192   8  7.073248E+05  3.577444E+05  1.956779E+04  5.037405E+05  1.200789E+04  8.943952E+03
       192   9  6.764991E+05  3.208889E+05 -1.849597E+02  4.819006E+05  5.911677E+03  4.198861E+02
       192  10  6.773316E+05  3.261639E+05  2.315198E+04  4.782277E+05  5.993143E-10  3.477915E-10
       192  11  7.055029E+05  3.582539E+05  1.925050E+04  5.036802E+05  5.261293E-10 -1.307521E-10
       192  12  7.590533E+05  3.748746E+05  2.324482E+04  5.210976E+05 -1.851031E-10 -1.769216E-10
       192  13  7.204742E+05  3.526916E+05  3.536250E+04  4.978858E+05 -3.622905E-10  4.321147E-11
       192  14  7.064138E+05  3.579991E+05  1.940894E+04  5.037103E+05  6.512513E-10 -2.119254E-10
       192  15  7.177752E+05  3.478813E+05  1.152998E+04  5.014984E+05 -2.021772E-10  8.348260E-11
       192  16  7.636184E+05  3.792197E+05  4.757268E+04  5.175452E+05  2.679995E-11 -3.649184E-10
       192  17  7.073247E+05  3.577443E+05  1.956737E+04  5.037404E+05  4.889436E-10 -3.401678E-10
       192  18  6.764990E+05  3.208889E+05 -1.850257E+02  4.819006E+05  3.563671E-10  2.231214E-10
       192  19  6.773323E+05  3.261645E+05  2.315372E+04  4.782280E+05 -2.251271E+04 -2.043757E+04
       192  20  7.055033E+05  3.582542E+05  1.925132E+04  5.036804E+05 -1.666903E+04 -1.243792E+04
       192  21  7.590534E+05  3.748746E+05  2.324508E+04  5.210976E+05 -1.098580E+04 -4.223304E+03
       192  22  7.204748E+05  3.526921E+05  3.536394E+04  4.978861E+05 -2.038940E+04 -1.884580E+04
       192  23  7.064140E+05  3.579993E+05  1.940954E+04  5.037104E+05 -1.433846E+04 -1.069093E+04
       192  24  7.177753E+05  3.478814E+05  1.153013E+04  5.014984E+05 -8.448625E+03 -2.321518E+03
       192  25  7.636189E+05  3.792202E+05  4.757387E+04  5.175454E+05 -1.826590E+04 -1.725392E+04
       192  26  7.073248E+05  3.577444E+05  1.956779E+04  5.037405E+05 -1.200789E+04 -8.943952E+03
       192  27  6.764991E+05  3.208889E+05 -1.849597E+02  4.819006E+05 -5.911677E+03 -4.198861E+02
       193   1  7.898636E+05  3.990235E+05  3.062761E+04  5.368223E+05  1.062083E+04  1.561306E+03
       193   2  8.194869E+05  4.378708E+05  3.934256E+04  5.601755E+05  1.018519E+04 -2.793270E+03
       193   3  8.706541E+05  4.561785E+05  5.010557E+04  5.774014E+05  9.742995E+03 -7.138549E+03
       193   4  7.176798E+05  3.481100E+05  9.105573E+03  5.008971E+05  8.136430E+03 -3.010606E+02
       193   5  7.068614E+05  3.582977E+05  5.949321E+03  5.040230E+05  7.709934E+03 -4.649134E+03
       193   6  7.175833E+05  3.479419E+05  4.833338E+03  5.010196E+05  7.277093E+03 -8.987715E+03
       193   7  6.455010E+05  2.971989E+05 -1.241726E+04  4.649763E+05  5.652394E+03 -2.163154E+03
       193   8  5.942498E+05  2.787316E+05 -2.744529E+04  4.478820E+05  5.235283E+03 -6.504544E+03
       193   9  5.645397E+05  2.397194E+05 -4.044092E+04  4.246599E+05  4.812039E+03 -1.083625E+04
       193  10  7.898635E+05  3.990235E+05  3.062739E+04  5.368223E+05  6.015918E-12  3.449548E-10
       193  11  8.194868E+05  4.378708E+05  3.934235E+04  5.601756E+05 -1.316159E-10 -1.826520E-11
       193  12  8.706539E+05  4.561784E+05  5.010529E+04  5.774014E+05  2.220995E-10 -6.452332E-11
       193  13  7.176798E+05  3.481100E+05  9.105448E+03  5.008971E+05  2.732417E-10  1.515504E-10
       193  14  7.068614E+05  3.582976E+05  5.949168E+03  5.040231E+05  1.134583E-10  9.761954E-11
       193  15  7.175832E+05  3.479418E+05  4.833086E+03  5.010197E+05  1.786927E-10  4.846136E-11
       193  16  6.455009E+05  2.971989E+05 -1.241733E+04  4.649763E+05 -2.767172E-11  4.089924E-11
       193  17  5.942497E+05  2.787315E+05 -2.744543E+04  4.478821E+05  9.777685E-11  5.709836E-11
       193  18  5.645396E+05  2.397193E+05 -4.044119E+04  4.246600E+05 -1.070903E-11 -9.844162E-11
       193  19  7.898636E+05  3.990235E+05  3.062761E+04  5.368223E+05 -1.062083E+04 -1.561306E+03
       193  20  8.194869E+05  4.378708E+05  3.934256E+04  5.601755E+05 -1.018519E+04  2.793270E+03
       193  21  8.706541E+05  4.561785E+05  5.010557E+04  5.774014E+05 -9.742995E+03  7.138549E+03
       193  22  7.176798E+05  3.481100E+05  9.105573E+03  5.008971E+05 -8.136430E+03  3.010606E+02
       193  23  7.068614E+05  3.582977E+05  5.949321E+03  5.040230E+05 -7.709934E+03  4.649134E+03
       193  24  7.175833E+05  3.479419E+05  4.833338E+03  5.010196E+05 -7.277093E+03  8.987715E+03
       193  25  6.455010E+05  2.971989E+05 -1.241726E+04  4.649763E+05 -5.652394E+03  2.163154E+03
       193  26  5.942498E+05  2.787316E+05 -2.744529E+04  4.478820E+05 -5.235283E+03  6.504544E+03
       193  27  5.645397E+05  2.397194E+05 -4.044092E+04  4.246599E+05 -4.812039E+03  1.083625E+04
       194   1  9.025330E+05  4.792974E+05  5.992419E+04  5.936650E+05  1.036641E+04 -9.103764E+03
       194   2  9.327847E+05  5.181470E+05  7.307445E+04  6.167292E+05  9.363089E+03 -1.371126E+04
       194   3  9.854743E+05  5.374039E+05  8.901946E+04  6.331934E+05  7.988399E+03 -1.782232E+04
       194   4  7.176017E+05  3.478526E+05  4.819112E+03  5.011197E+05  7.755351E+03 -1.106208E+04
       194   5  7.067642E+05  3.582904E+05  5.937024E+03  5.039746E+05  7.230260E+03 -1.531161E+04
       194   6  7.182599E+05  3.490311E+05  9.436331E+03  5.002276E+05  6.333961E+03 -1.906440E+04
       194   7  5.327076E+05  2.164269E+05 -5.028979E+04  4.086055E+05  5.145338E+03 -1.301961E+04
       194   8  4.807980E+05  1.984613E+05 -6.120651E+04  3.912656E+05  5.098472E+03 -1.691118E+04
       194   9  4.511203E+05  1.606954E+05 -7.015575E+04  3.673249E+05  4.680471E+03 -2.030577E+04
       194  10  9.025329E+05  4.792973E+05  5.992383E+04  5.936651E+05 -9.941363E-12  3.022146E-11
       194  11  9.327846E+05  5.181468E+05  7.307394E+04  6.167293E+05  2.844940E-10  5.678545E-10
       194  12  9.854741E+05  5.374036E+05  8.901874E+04  6.331935E+05 -4.987359E-10 -5.538658E-10
       194  13  7.176016E+05  3.478524E+05  4.818769E+03  5.011197E+05  2.045217E-11  1.001785E-10
       194  14  7.067641E+05  3.582902E+05  5.936485E+03  5.039747E+05  4.353749E-11  4.996458E-11
       194  15  7.182597E+05  3.490307E+05  9.435573E+03  5.002277E+05  9.164583E-11  4.329996E-11
       194  16  5.327075E+05  2.164267E+05 -5.029016E+04  4.086055E+05  1.720956E-10  3.089514E-12
       194  17  4.807979E+05  1.984610E+05 -6.120709E+04  3.912657E+05 -2.323799E-10 -1.937468E-10
       194  18  4.511201E+05  1.606950E+05 -7.015656E+04  3.673250E+05  2.866091E-10  2.292101E-10
       194  19  9.025330E+05  4.792974E+05  5.992419E+04  5.936650E+05 -1.036641E+04  9.103764E+03
       194  20  9.327847E+05  5.181470E+05  7.307445E+04  6.167292E+05 -9.363089E+03  1.371126E+04
       194  21  9.854743E+05  5.374039E+05  8.901946E+04  6.331934E+05 -7.988399E+03  1.782232E+04
       194  22  7.176017E+05  3.478526E+05  4.819112E+03  5.011197E+05 -7.755351E+03  1.106208E+04
       194  23  7.067642E+05  3.582904E+05  5.937024E+03  5.039746E+05 -7.230260E+03  1.531161E+04
       194  24  7.182599E+05  3.490311E+05  9.436331E+03  5.002276E+05 -6.333961E+03  1.906440E+04
       194  25  5.327076E+05  2.164269E+05 -5.028979E+04  4.086055E+05 -5.145338E+03  1.301961E+04
       194  26  4.807980E+05  1.984613E+05 -6.120651E+04  3.912656E+05 -5.098472E+03  1.691118E+04
       194  27  4.511203E+05  1.606954E+05 -7.015575E+04  3.673249E+05 -4.680471E+03  2.030577E+04
       195   1  1.012753E+06  5.644744E+05  1.004952E+05  6.537007E+05  1.162793E+04 -1.885644E+04
       195   2  1.051140E+06  5.929192E+05  1.224386E+05  6.703659E+05 -7.576714E+03 -3.242847E+04
       195   3  1.130267E+06  6.269203E+05  1.683093E+05  6.700431E+05 -3.511095E+04 -3.490921E+04
       195   4  7.181717E+05  3.476268E+05  1.156562E+04  5.027953E+05  6.811064E+03 -2.247158E+04
       195   5  7.055006E+05  3.576347E+05  1.922524E+04  5.025458E+05 -1.716827E+03 -2.803252E+04
       195   6  7.312651E+05  3.708972E+05  4.156581E+04  4.853052E+05 -1.857480E+04 -2.249781E+04
       195   7  4.236875E+05  1.308347E+05 -7.737276E+04  3.519739E+05  1.997336E+03 -2.608424E+04
       195   8  3.599925E+05  1.224110E+05 -8.400074E+04  3.348299E+05  4.138599E+03 -2.363975E+04
       195   9  3.324325E+05  1.149395E+05 -8.519560E+04  3.006937E+05 -2.053240E+03 -1.009594E+04
       195  10  1.012753E+06  5.644740E+05  1.004943E+05  6.537009E+05 -1.446855E-10 -2.673331E-10
       195  11  1.051139E+06  5.929181E+05  1.224365E+05  6.703657E+05  7.447756E-11  2.161369E-10
       195  12  1.130265E+06  6.269187E+05  1.683047E+05  6.700421E+05 -4.514667E-11  1.958757E-10
       195  13  7.181715E+05  3.476263E+05  1.156459E+04  5.027955E+05 -1.101093E-10 -1.197308E-10
       195  14  7.055004E+05  3.576338E+05  1.922376E+04  5.025458E+05  5.761984E-10  1.096962E-09
       195  15  7.312646E+05  3.708966E+05  4.156421E+04  4.853049E+05  8.379844E-10  1.831037E-09
       195  16  4.236873E+05  1.308340E+05 -7.737404E+04  3.519739E+05  7.515115E-10  7.602658E-10
       195  17  3.599924E+05  1.224104E+05 -8.400182E+04  3.348300E+05  5.381897E-10  1.236528E-09
       195  18  3.324325E+05  1.149394E+05 -8.519580E+04  3.006937E+05  3.335201E-10  8.605791E-10
       195  19  1.012753E+06  5.644744E+05  1.004952E+05  6.537007E+05 -1.162793E+04  1.885644E+04
       195  20  1.051140E+06  5.929192E+05  1.224386E+05  6.703659E+05  7.576714E+03  3.242847E+04
       195  21  1.130267E+06  6.269203E+05  1.683093E+05  6.700431E+05  3.511095E+04  3.490921E+04
       195  22  7.181717E+05  3.476268E+05  1.156562E+04  5.027953E+05 -6.811064E+03  2.247158E+04
       195  23  7.055006E+05  3.576347E+05  1.922524E+04  5.025458E+05  1.716827E+03  2.803252E+04
       195  24  7.312651E+05  3.708972E+05  4.156581E+04  4.853052E+05  1.857480E+04  2.249781E+04
       195  25  4.236875E+05  1.308347E+05 -7.737276E+04  3.519739E+05 -1.997336E+03  2.608424E+04
       195  26  3.599925E+05  1.224110E+05 -8.400074E+04  3.348299E+05 -4.138599E+03  2.363975E+04
       195  27  3.324325E+05  1.149395E+05 -8.519560E+04  3.006937E+05  2.053240E+03  1.009594E+04
       196   1 -1.562678E+05 -2.535184E+05 -1.431276E+05  1.812226E+05 -8.250362E+03  1.755255E+04
       196   2 -1.249428E+05  5.087737E+04 -8.995234E+04  1.363960E+05 -2.115249E+04  2.720521E+04
       196   3 -5.244450E+04  3.643522E+05 -3.278491E+04  2.121931E+05 -1.007077E+04  3.684961E+04
       196   4  4.887394E+04  5.711572E+05  5.785152E+04  2.053702E+05 -8.232023E+03  4.148455E+04
       196   5  8.484258E+02  5.647287E+05  2.523626E+04  1.450828E+05 -2.115014E+04  2.810391E+04
       196   6 -2.023105E+03  5.712655E+05  1.259390E+04  2.054051E+05 -1.009382E+04  1.471022E+04
       196   7  2.539680E+05  1.396455E+06  2.587837E+05  2.295499E+05 -8.211839E+03  6.544823E+04
       196   8  1.266220E+05  1.078826E+06  1.404082E+05  1.537769E+05 -2.114776E+04  2.900333E+04
       196   9  4.839587E+04  7.782199E+05  5.797197E+04  1.986148E+05 -1.011639E+04 -7.436464E+03
       196  10 -1.562680E+05 -2.535187E+05 -1.431283E+05  1.812227E+05  1.138353E-10 -9.713586E-11
       196  11 -1.249435E+05  5.087645E+04 -8.995457E+04  1.363964E+05  4.913931E-10  5.226946E-10
       196  12 -5.244498E+04  3.643507E+05 -3.278765E+04  2.121934E+05 -2.542386E-10  1.691068E-10
       196  13  4.887340E+04  5.711553E+05  5.784816E+04  2.053705E+05  2.250328E-10  4.359974E-10
       196  14  8.477333E+02  5.647278E+05  2.523394E+04  1.450833E+05  4.554563E-11  1.222413E-09
       196  15 -2.023272E+03  5.712652E+05  1.259330E+04  2.054052E+05  2.054817E-11 -1.545473E-10
       196  16  2.539668E+05  1.396451E+06  2.587756E+05  2.295503E+05  3.584074E-10  1.096948E-10
       196  17  1.266213E+05  1.078825E+06  1.404058E+05  1.537774E+05  2.248381E-10  2.105684E-09
       196  18  4.839575E+04  7.782198E+05  5.797168E+04  1.986147E+05 -5.151177E-10  6.027706E-10
       196  19 -1.562678E+05 -2.535184E+05 -1.431276E+05  1.812226E+05  8.250362E+03 -1.755255E+04
       196  20 -1.249428E+05  5.087737E+04 -8.995234E+04  1.363960E+05  2.115249E+04 -2.720521E+04
       196  21 -5.244450E+04  3.643522E+05 -3.278491E+04  2.121931E+05  1.007077E+04 -3.684961E+04
       196  22  4.887394E+04  5.711572E+05  5.785152E+04  2.053702E+05  8.232023E+03 -4.148455E+04
       196  23  8.484258E+02  5.647287E+05  2.523626E+04  1.450828E+05  2.115014E+04 -2.810391E+04
       196  24 -2.023105E+03  5.712655E+05  1.259390E+04  2.054051E+05  1.009382E+04 -1.471022E+04
       196  25  2.539680E+05  1.396455E+06  2.587837E+05  2.295499E+05  8.211839E+03 -6.544823E+04
       196  26  1.266220E+05  1.078826E+06  1.404082E+05  1.537769E+05  2.114776E+04 -2.900333E+04
       196  27  4.839587E+04  7.782199E+05  5.797197E+04  1.986148E+05  1.011639E+04  7.436464E+03
       197   1  1.237844E+04  6.071292E+05  1.647712E+04  2.053360E+05  2.480045E+03  2.896897E+04
       197   2  8.469606E+04  9.159590E+05  7.473096E+04  1.446352E+05  1.857687E+04  2.844149E+04
       197   3  1.570835E+05  1.224839E+06  1.333026E+05  2.055222E+05  3.387813E+04  2.792121E+04
       197   4  2.997533E+03  5.683522E+05  8.319375E+03  2.056138E+05  2.463430E+03  1.311601E+04
       197   5  2.018085E+02  5.684095E+05 -4.891112E+02  1.448204E+05  1.856421E+04  1.334742E+04
       197   6 -2.651445E+03  5.682920E+05 -9.506920E+03  2.056188E+05  3.386891E+04  1.358627E+04
       197   7 -6.383333E+03  5.295771E+05  1.624941E+02  2.058916E+05  2.446800E+03 -2.735972E+03
       197   8 -8.430029E+04  2.209737E+05 -7.571549E+04  1.450053E+05  1.855155E+04 -1.738330E+03
       197   9 -1.624149E+05 -8.785108E+04 -1.523415E+05  2.057151E+05  3.385966E+04 -7.337344E+02
       197  10  1.237821E+04  6.071283E+05  1.647553E+04  2.053359E+05 -1.308552E-12  3.231752E-10
       197  11  8.469547E+04  9.159580E+05  7.472879E+04  1.446348E+05  1.459359E-10  9.230858E-10
       197  12  1.570821E+05  1.224838E+06  1.332990E+05  2.055214E+05  1.768694E-10  2.201629E-10
       197  13  2.997481E+03  5.683520E+05  8.319041E+03  2.056138E+05 -3.786366E-10  6.885489E-10
       197  14  2.013907E+02  5.684092E+05 -4.900932E+02  1.448202E+05  2.416322E-10  1.334312E-09
       197  15 -2.652726E+03  5.682915E+05 -9.509422E+03  2.056184E+05  1.807779E-10 -1.754627E-11
       197  16 -6.383341E+03  5.295771E+05  1.624688E+02  2.058916E+05 -3.091036E-11 -3.025116E-10
       197  17 -8.430066E+04  2.209736E+05 -7.571614E+04  1.450054E+05  5.029766E-10  1.890588E-09
       197  18 -1.624161E+05 -8.785139E+04 -1.523437E+05  2.057151E+05  1.726205E-10  3.635940E-10
       197  19  1.237844E+04  6.071292E+05  1.647712E+04  2.053360E+05 -2.480045E+03 -2.896897E+04
       197  20  8.469606E+04  9.159590E+05  7.473096E+04  1.446352E+05 -1.857687E+04 -2.844149E+04
       197  21  1.570835E+05  1.224839E+06  1.333026E+05  2.055222E+05 -3.387813E+04 -2.792121E+04
       197  22  2.997533E+03  5.683522E+05  8.319375E+03  2.056138E+05 -2.463430E+03 -1.311601E+04
       197  23  2.018085E+02  5.684095E+05 -4.891112E+02  1.448204E+05 -1.856421E+04 -1.334742E+04
       197  24 -2.651445E+03  5.682920E+05 -9.506920E+03  2.056188E+05 -3.386891E+04 -1.358627E+04
       197  25 -6.383333E+03  5.295771E+05  1.624941E+02  2.058916E+05 -2.446800E+03  2.735972E+03
       197  26 -8.430029E+04  2.209737E+05 -7.571549E+04  1.450053E+05 -1.855155E+04  1.738330E+03
       197  27 -1.624149E+05 -8.785108E+04 -1.523415E+05  2.057151E+05 -3.385966E+04  7.337344E+02
       198   1  2.221766E+05  1.468338E+06  1.817203E+05  2.131200E+05  4.779205E+04  4.125552E+04
       198   2  2.942776E+05  1.781567E+06  2.408914E+05  1.363449E+05  5.384531E+04  1.574154E+04
       198   3  3.252772E+05  2.088423E+06  3.064619E+05  1.795420E+05  1.820554E+04 -9.793058E+03
       198   4  2.631255E+03  5.652583E+05 -1.393726E+04  2.052611E+05  4.777895E+04  1.534305E+04
       198   5 -9.975012E+02  5.718729E+05 -2.747041E+04  1.452672E+05  5.385670E+04  2.992531E+04
       198   6 -5.271973E+04  5.650538E+05 -6.242635E+04  2.052667E+05  1.820369E+04  4.449840E+04
       198   7 -2.169673E+05 -3.370563E+05 -2.096407E+05  1.974134E+05  4.776649E+04 -1.053232E+04
       198   8 -2.963709E+05 -6.364583E+05 -2.959224E+05  1.541718E+05  5.386852E+04  4.408176E+04
       198   9 -4.308825E+05 -9.561938E+05 -4.314701E+05  2.309280E+05  1.820634E+04  9.865730E+04
       198  10  2.221737E+05  1.468336E+06  1.817128E+05  2.131184E+05 -8.006595E-11  2.118406E-11
       198  11  2.942744E+05  1.781566E+06  2.408855E+05  1.363443E+05 -5.974254E-10  2.714188E-10
       198  12  3.252768E+05  2.088423E+06  3.064610E+05  1.795421E+05 -1.258510E-10 -1.670209E-11
       198  13  2.628740E+03  5.652574E+05 -1.394199E+04  2.052605E+05  3.057219E-11  3.831874E-10
       198  14 -1.000856E+03  5.718712E+05 -2.747754E+04  1.452659E+05  4.851122E-11  6.944569E-12
       198  15 -5.272062E+04  5.650516E+05 -6.243069E+04  2.052661E+05 -1.507309E-10  1.365690E-10
       198  16 -2.169698E+05 -3.370571E+05 -2.096452E+05  1.974139E+05 -1.795692E-10  1.056565E-10
       198  17 -2.963745E+05 -6.364612E+05 -2.959315E+05  1.541699E+05 -1.658261E-10 -1.444643E-10
       198  18 -4.308854E+05 -9.562043E+05 -4.314890E+05  2.309266E+05  1.355707E-10 -4.616543E-10
       198  19  2.221766E+05  1.468338E+06  1.817203E+05  2.131200E+05 -4.779205E+04 -4.125552E+04
       198  20  2.942776E+05  1.781567E+06  2.408914E+05  1.363449E+05 -5.384531E+04 -1.574154E+04
       198  21  3.252772E+05  2.088423E+06  3.064619E+05  1.795420E+05 -1.820554E+04  9.793058E+03
       198  22  2.631255E+03  5.652583E+05 -1.393726E+04  2.052611E+05 -4.777895E+04 -1.534305E+04
       198  23 -9.975012E+02  5.718729E+05 -2.747041E+04  1.452672E+05 -5.385670E+04 -2.992531E+04
       198  24 -5.271973E+04  5.650538E+05 -6.242635E+04  2.052667E+05 -1.820369E+04 -4.449840E+04
       198  25 -2.169673E+05 -3.370563E+05 -2.096407E+05  1.974134E+05 -4.776649E+04  1.053232E+04
       198  26 -2.963709E+05 -6.364583E+05 -2.959224E+05  1.541718E+05 -5.386852E+04 -4.408176E+04
       198  27 -4.308825E+05 -9.561938E+05 -4.314701E+05  2.309280E+05 -1.820634E+04 -9.865730E+04
       199   1  1.065146E+05  5.342104E+04  4.418753E+04  2.256398E+04 -1.570325E+04 -4.438427E+03
       199   2  4.976736E+04  7.233663E+04  4.604332E+04  2.221044E+04 -1.445756E+04 -1.343278E+04
       199   3 -1.498774E+04  5.959468E+04  3.918367E+04  4.530871E+04 -1.320550E+04 -1.267030E+04
       199   4 -2.532197E+05 -3.599327E+04 -4.297803E+04  4.035559E+04 -2.901062E+04 -4.430387E+03
       199   5 -2.483914E+05 -5.393985E+02 -2.010544E+04  2.864020E+04 -1.840205E+04 -1.343116E+04
       199   6 -2.532046E+05  1.622574E+03 -1.245546E+04  4.037804E+04 -7.786702E+03 -1.267306E+04
       199   7 -6.128347E+05 -1.254158E+05 -1.301521E+05  5.813687E+04 -4.231030E+04 -4.423107E+03
       199   8 -5.464670E+05 -7.342128E+04 -8.625963E+04  3.506685E+04 -2.234467E+04 -1.342963E+04
       199   9 -4.913680E+05 -5.635317E+04 -6.409785E+04  3.544929E+04 -2.369951E+03 -1.267590E+04
       199  10  1.065144E+05  5.342096E+04  4.418703E+04  2.256392E+04  5.398979E-11  1.158179E-11
       199  11  4.976708E+04  7.233638E+04  4.604259E+04  2.221028E+04  1.605218E-10 -1.034136E-10
       199  12 -1.498797E+04  5.959446E+04  3.918304E+04  4.530857E+04  1.112691E-09 -4.787468E-10
       199  13 -2.532206E+05 -3.599351E+04 -4.297965E+04  4.035548E+04  2.776151E-10 -1.025425E-11
       199  14 -2.483918E+05 -5.396831E+02 -2.010641E+04  2.864000E+04  1.688861E-10 -1.451589E-10
       199  15 -2.532047E+05  1.622385E+03 -1.245588E+04  4.037796E+04 -3.500280E-10 -3.596989E-10
       199  16 -6.128366E+05 -1.254163E+05 -1.301555E+05  5.813672E+04  4.497512E-10 -3.230685E-11
       199  17 -5.464675E+05 -7.342160E+04 -8.626091E+04  3.506661E+04  7.147388E-11 -1.070528E-10
       199  18 -4.913681E+05 -5.635335E+04 -6.409816E+04  3.544927E+04 -4.550586E-10 -2.513446E-10
       199  19  1.065146E+05  5.342104E+04  4.418753E+04  2.256398E+04  1.570325E+04  4.438427E+03
       199  20  4.976736E+04  7.233663E+04  4.604332E+04  2.221044E+04  1.445756E+04  1.343278E+04
       199  21 -1.498774E+04  5.959468E+04  3.918367E+04  4.530871E+04  1.320550E+04  1.267030E+04
       199  22 -2.532197E+05 -3.599327E+04 -4.297803E+04  4.035559E+04  2.901062E+04  4.430387E+03
       199  23 -2.483914E+05 -5.393985E+02 -2.010544E+04  2.864020E+04  1.840205E+04  1.343116E+04
       199  24 -2.532046E+05  1.622574E+03 -1.245546E+04  4.037804E+04  7.786702E+03  1.267306E+04
       199  25 -6.128347E+05 -1.254158E+05 -1.301521E+05  5.813687E+04  4.231030E+04  4.423107E+03
       199  26 -5.464670E+05 -7.342128E+04 -8.625963E+04  3.506685E+04  2.234467E+04  1.342963E+04
       199  27 -4.913680E+05 -5.635317E+04 -6.409785E+04  3.544929E+04  2.369951E+03  1.267590E+04
       200   1 -6.153285E+04  4.435418E+04  3.084720E+04  3.969733E+04 -8.617701E+03 -9.830663E+03
       200   2 -1.218354E+05  3.143418E+04  2.055790E+04  2.824385E+04 -5.328805E+03 -6.852536E+03
       200   3 -1.830191E+05  1.655680E+04  7.645175E+03  4.072777E+04 -2.040539E+03 -3.446171E+03
       200   4 -2.512707E+05 -1.859751E+03 -1.044922E+04  4.047962E+04 -5.962028E+03 -9.832015E+03
       200   5 -2.507901E+05  4.553649E+01 -7.403413E+03  2.851110E+04 -2.263122E+03 -6.853840E+03
       200   6 -2.512657E+05 -7.787427E+01 -7.266309E+03  4.048034E+04  1.435467E+03 -3.447379E+03
       200   7 -4.409747E+05 -4.807607E+04 -5.174778E+04  4.126166E+04 -3.307156E+03 -9.833360E+03
       200   8 -3.797292E+05 -3.134421E+04 -3.536568E+04  2.877829E+04  8.019321E+02 -6.855141E+03
       200   9 -3.195079E+05 -1.671285E+04 -2.217803E+04  4.023294E+04  4.911095E+03 -3.448589E+03
       200  10 -6.153295E+04  4.435406E+04  3.084688E+04  3.969727E+04  3.401801E-10 -3.340406E-10
       200  11 -1.218354E+05  3.143412E+04  2.055776E+04  2.824382E+04  4.647819E-10  1.988919E-10
       200  12 -1.830191E+05  1.655679E+04  7.645145E+03  4.072776E+04  7.116560E-10  3.531570E-11
       200  13 -2.512708E+05 -1.859864E+03 -1.044947E+04  4.047957E+04  9.699788E-12 -2.601449E-10
       200  14 -2.507901E+05  4.548468E+01 -7.403511E+03  2.851109E+04  1.358073E-10  1.159611E-10
       200  15 -2.512657E+05 -7.788758E+01 -7.266335E+03  4.048035E+04 -2.879983E-10  9.852282E-12
       200  16 -4.409748E+05 -4.807617E+04 -5.174798E+04  4.126164E+04 -1.332007E-10 -2.375833E-10
       200  17 -3.797292E+05 -3.134426E+04 -3.536577E+04  2.877830E+04 -1.903794E-10 -1.016458E-11
       200  18 -3.195080E+05 -1.671287E+04 -2.217810E+04  4.023295E+04 -3.210268E-10  3.246546E-11
       200  19 -6.153285E+04  4.435418E+04  3.084720E+04  3.969733E+04  8.617701E+03  9.830663E+03
       200  20 -1.218354E+05  3.143418E+04  2.055790E+04  2.824385E+04  5.328805E+03  6.852536E+03
       200  21 -1.830191E+05  1.655680E+04  7.645175E+03  4.072777E+04  2.040539E+03  3.446171E+03
       200  22 -2.512707E+05 -1.859751E+03 -1.044922E+04  4.047962E+04  5.962028E+03  9.832015E+03
       200  23 -2.507901E+05  4.553649E+01 -7.403413E+03  2.851110E+04  2.263122E+03  6.853840E+03
       200  24 -2.512657E+05 -7.787427E+01 -7.266309E+03  4.048034E+04 -1.435467E+03  3.447379E+03
       200  25 -4.409747E+05 -4.807607E+04 -5.174778E+04  4.126166E+04  3.307156E+03  9.833360E+03
       200  26 -3.797292E+05 -3.134421E+04 -3.536568E+04  2.877829E+04 -8.019321E+02  6.855141E+03
       200  27 -3.195079E+05 -1.671285E+04 -2.217803E+04  4.023294E+04 -4.911095E+03  3.448589E+03
       201   1 -2.314525E+05  4.942937E+03 -3.802734E+03  3.978855E+04 -6.688798E+02 -1.315757E+03
       201   2 -2.913442E+05 -9.856635E+03 -2.019549E+04  2.884706E+04  5.311747E+03  2.113679E+03
       201   3 -3.529552E+05 -2.853667E+04 -4.144768E+04  4.185387E+04  1.129171E+04  5.222091E+03
       201   4 -2.514233E+05  1.127906E+02 -7.974442E+03  4.048291E+04  2.778467E+03 -1.316904E+03
       201   5 -2.505896E+05  7.097133E+01 -1.132577E+04  2.850805E+04  8.451156E+03  2.112555E+03
       201   6 -2.514257E+05 -3.797579E+03 -1.932228E+04  4.048151E+04  1.412375E+04  5.220992E+03
       201   7 -2.713937E+05 -4.717373E+03 -1.214613E+04  4.117724E+04  6.225704E+03 -1.318043E+03
       201   8 -2.098335E+05  9.998474E+03 -2.456107E+03  2.816901E+04  1.159077E+04  2.111427E+03
       201   9 -1.498866E+05  2.094084E+04  2.802526E+03  3.910891E+04  1.695626E+04  5.219880E+03
       201  10 -2.314525E+05  4.942935E+03 -3.802738E+03  3.978854E+04  3.784977E-10  3.383625E-11
       201  11 -2.913442E+05 -9.856648E+03 -2.019555E+04  2.884705E+04  4.954611E-10  1.048820E-10
       201  12 -3.529553E+05 -2.853674E+04 -4.144797E+04  4.185382E+04  7.265847E-11  7.316041E-11
       201  13 -2.514233E+05  1.127866E+02 -7.974459E+03  4.048291E+04  2.685311E-10  6.376913E-11
       201  14 -2.505897E+05  7.094735E+01 -1.132591E+04  2.850803E+04 -2.258778E-11  1.909993E-10
       201  15 -2.514259E+05 -3.797662E+03 -1.932271E+04  4.048145E+04  5.529011E-10  1.070829E-10
       201  16 -2.713937E+05 -4.717385E+03 -1.214620E+04  4.117725E+04 -3.037591E-10  8.638675E-11
       201  17 -2.098337E+05  9.998433E+03 -2.456368E+03  2.816899E+04 -4.579330E-10  1.451291E-10
       201  18 -1.498869E+05  2.094074E+04  2.801934E+03  3.910884E+04 -1.301272E-10  1.012003E-10
       201  19 -2.314525E+05  4.942937E+03 -3.802734E+03  3.978855E+04  6.688798E+02  1.315757E+03
       201  20 -2.913442E+05 -9.856635E+03 -2.019549E+04  2.884706E+04 -5.311747E+03 -2.113679E+03
       201  21 -3.529552E+05 -2.853667E+04 -4.144768E+04  4.185387E+04 -1.129171E+04 -5.222091E+03
       201  22 -2.514233E+05  1.127906E+02 -7.974442E+03  4.048291E+04 -2.778467E+03  1.316904E+03
       201  23 -2.505896E+05  7.097133E+01 -1.132577E+04  2.850805E+04 -8.451156E+03 -2.112555E+03
       201  24 -2.514257E+05 -3.797579E+03 -1.932228E+04  4.048151E+04 -1.412375E+04 -5.220992E+03
       201  25 -2.713937E+05 -4.717373E+03 -1.214613E+04  4.117724E+04 -6.225704E+03  1.318043E+03
       201  26 -2.098335E+05  9.998474E+03 -2.456107E+03  2.816901E+04 -1.159077E+04 -2.111427E+03
       201  27 -1.498866E+05  2.094084E+04  2.802526E+03  3.910891E+04 -1.695626E+04 -5.219880E+03
       202   1 -4.054376E+05 -3.311416E+04 -5.660530E+04  3.005744E+04  1.257882E+04  7.887284E+03
       202   2 -4.556325E+05 -5.244733E+04 -8.733980E+04  4.157369E+04  4.124998E+04  9.281136E+03
       202   3 -5.269502E+05 -1.414973E+05 -1.541700E+05  7.665015E+04  6.991452E+04  3.157585E+03
       202   4 -2.554702E+05  3.394848E+03 -2.403360E+04  4.040613E+04  1.753723E+04  7.885465E+03
       202   5 -2.455458E+05 -1.052144E+03 -4.060498E+04  2.860621E+04  3.900028E+04  9.281079E+03
       202   6 -2.554866E+05 -7.395213E+04 -8.825623E+04  4.036847E+04  6.045967E+04  3.158276E+03
       202   7 -1.054815E+05  3.990278E+04  8.536913E+03  5.075736E+04  2.249682E+04  7.883813E+03
       202   8 -3.541757E+04  5.034068E+04  6.127196E+03  1.563430E+04  3.674982E+04  9.281117E+03
       202   9  1.604732E+04 -6.407363E+03 -2.234675E+04  4.070882E+03  5.100069E+04  3.160073E+03
       202  10 -4.054377E+05 -3.311427E+04 -5.660572E+04  3.005736E+04  7.216964E-11  9.884915E-11
       202  11 -4.556343E+05 -5.244788E+04 -8.734316E+04  4.157338E+04 -1.416922E-10  1.274540E-10
       202  12 -5.269554E+05 -1.414987E+05 -1.541792E+05  7.664997E+04  3.422328E-12  7.938022E-11
       202  13 -2.554706E+05  3.394699E+03 -2.403429E+04  4.040602E+04  7.927291E-10  5.021699E-11
       202  14 -2.455475E+05 -1.052645E+03 -4.060800E+04  2.860592E+04  1.440774E-10  1.604726E-10
       202  15 -2.554905E+05 -7.395312E+04 -8.826312E+04  4.036832E+04  5.407553E-10  1.359935E-10
       202  16 -1.054820E+05  3.990258E+04  8.535845E+03  5.075722E+04  1.141964E-10 -1.861030E-11
       202  17 -3.541905E+04  5.034022E+04  6.124496E+03  1.563403E+04 -1.530349E-10 -7.237151E-11
       202  18  1.604452E+04 -6.408072E+03 -2.235165E+04  4.070752E+03 -1.176791E-10 -3.713810E-12
       202  19 -4.054376E+05 -3.311416E+04 -5.660530E+04  3.005744E+04 -1.257882E+04 -7.887284E+03
       202  20 -4.556325E+05 -5.244733E+04 -8.733980E+04  4.157369E+04 -4.124998E+04 -9.281136E+03
       202  21 -5.269502E+05 -1.414973E+05 -1.541700E+05  7.665015E+04 -6.991452E+04 -3.157585E+03
       202  22 -2.554702E+05  3.394848E+03 -2.403360E+04  4.040613E+04 -1.753723E+04 -7.885465E+03
       202  23 -2.455458E+05 -1.052144E+03 -4.060498E+04  2.860621E+04 -3.900028E+04 -9.281079E+03
       202  24 -2.554866E+05 -7.395213E+04 -8.825623E+04  4.036847E+04 -6.045967E+04 -3.158276E+03
       202  25 -1.054815E+05  3.990278E+04  8.536913E+03  5.075736E+04 -2.249682E+04 -7.883813E+03
       202  26 -3.541757E+04  5.034068E+04  6.127196E+03  1.563430E+04 -3.674982E+04 -9.281117E+03
       202  27  1.604732E+04 -6.407363E+03 -2.234675E+04  4.070882E+03 -5.100069E+04 -3.160073E+03
       203   1 -6.134084E+04 -3.536723E+05 -6.754242E+04  3.204779E+04 -1.296458E+03 -3.196440E+04
       203   2 -2.098236E+04 -3.256834E+05 -3.795783E+04  1.662131E+04 -3.744771E+03 -1.893942E+04
       203   3 -1.329702E+04 -3.075754E+05 -2.502674E+04  1.014569E+04 -3.237736E+03 -5.916020E+03
       203   4 -3.470571E+04 -2.464001E+05 -4.151576E+04  1.509261E+04 -1.292609E+03 -2.818941E+04
       203   5 -4.590150E+02 -2.417035E+05 -1.928919E+04  1.060244E+04 -3.743790E+03 -1.799908E+04
       203   6  1.608953E+03 -2.463948E+05 -1.174519E+04  1.506374E+04 -3.239345E+03 -7.810898E+03
       203   7 -8.070340E+03 -1.391168E+05 -1.548972E+04 -1.865505E+03 -1.288966E+03 -2.441376E+04
       203   8  2.006399E+04 -1.577170E+05 -6.209591E+02  4.582753E+03 -3.742828E+03 -1.705860E+04
       203   9  1.651477E+04 -1.852106E+05  1.536154E+03  1.998228E+04 -3.240984E+03 -9.705961E+03
       203  10 -6.134111E+04 -3.536734E+05 -6.754434E+04  3.204776E+04  9.292603E-11 -1.158780E-10
       203  11 -2.098247E+04 -3.256837E+05 -3.795853E+04  1.662125E+04  3.814131E-10  1.021668E-10
       203  12 -1.329704E+04 -3.075754E+05 -2.502682E+04  1.014568E+04 -6.126174E-11  4.865373E-10
       203  13 -3.470593E+04 -2.464010E+05 -4.151725E+04  1.509258E+04 -7.949775E-10  2.369047E-11
       203  14 -4.591170E+02 -2.417039E+05 -1.928982E+04  1.060239E+04 -4.360428E-10 -6.178596E-11
       203  15  1.608925E+03 -2.463948E+05 -1.174533E+04  1.506372E+04 -2.966396E-10 -1.990128E-11
       203  16 -8.070501E+03 -1.391174E+05 -1.549084E+04 -1.865530E+03 -4.155196E-11  9.335203E-11
       203  17  2.006390E+04 -1.577173E+05 -6.215324E+02  4.582701E+03 -6.409058E-10 -6.479308E-11
       203  18  1.651473E+04 -1.852107E+05  1.535957E+03  1.998226E+04  2.056643E-10 -4.863749E-10
       203  19 -6.134084E+04 -3.536723E+05 -6.754242E+04  3.204779E+04  1.296458E+03  3.196440E+04
       203  20 -2.098236E+04 -3.256834E+05 -3.795783E+04  1.662131E+04  3.744771E+03  1.893942E+04
       203  21 -1.329702E+04 -3.075754E+05 -2.502674E+04  1.014569E+04  3.237736E+03  5.916020E+03
       203  22 -3.470571E+04 -2.464001E+05 -4.151576E+04  1.509261E+04  1.292609E+03  2.818941E+04
       203  23 -4.590150E+02 -2.417035E+05 -1.928919E+04  1.060244E+04  3.743790E+03  1.799908E+04
       203  24  1.608953E+03 -2.463948E+05 -1.174519E+04  1.506374E+04  3.239345E+03  7.810898E+03
       203  25 -8.070340E+03 -1.391168E+05 -1.548972E+04 -1.865505E+03  1.288966E+03  2.441376E+04
       203  26  2.006399E+04 -1.577170E+05 -6.209591E+02  4.582753E+03  3.742828E+03  1.705860E+04
       203  27  1.651477E+04 -1.852106E+05  1.536154E+03  1.998228E+04  3.240984E+03  9.705961E+03
       204   1 -1.214587E+04 -2.873727E+05 -1.901990E+04  1.580951E+04 -2.211781E+03 -5.035614E+03
       204   2 -4.756697E+03 -2.638330E+05 -1.070175E+04  1.063190E+04 -1.060071E+03 -1.778589E+03
       204   3  2.590890E+02 -2.413292E+05 -5.102527E+03  1.452578E+04  1.374770E+02  1.478493E+03
       204   4 -1.711303E+03 -2.445375E+05 -9.687800E+03  1.509834E+04 -2.212679E+03 -6.116459E+03
       204   5  6.477866E+01 -2.440228E+05 -6.409404E+03  1.056208E+04 -1.061023E+03 -2.903264E+03
       204   6 -5.248045E+02 -2.445369E+05 -5.819305E+03  1.509733E+04  1.364744E+02  3.098701E+02
       204   7  8.723143E+03 -2.017005E+05 -3.558046E+02  1.438711E+04 -2.213574E+03 -7.197376E+03
       204   8  4.886229E+03 -2.242123E+05 -2.117072E+03  1.049226E+04 -1.061975E+03 -4.027974E+03
       204   9 -1.308697E+03 -2.477446E+05 -6.536079E+03  1.566888E+04  1.354696E+02 -8.587464E+02
       204  10 -1.214588E+04 -2.873727E+05 -1.901996E+04  1.580950E+04  3.096081E-10 -1.422516E-10
       204  11 -4.756699E+03 -2.638330E+05 -1.070176E+04  1.063189E+04 -2.083538E-10 -1.199266E-10
       204  12  2.590884E+02 -2.413292E+05 -5.102531E+03  1.452578E+04 -1.578270E-11  5.702951E-12
       204  13 -1.711318E+03 -2.445375E+05 -9.687879E+03  1.509832E+04  1.247133E-10 -3.187108E-11
       204  14  6.477519E+01 -2.440228E+05 -6.409422E+03  1.056208E+04 -4.107572E-10 -2.284227E-11
       204  15 -5.248045E+02 -2.445369E+05 -5.819305E+03  1.509733E+04  5.436397E-10 -8.489394E-11
       204  16  8.723123E+03 -2.017006E+05 -3.559112E+02  1.438710E+04  4.361087E-10  9.961470E-11
       204  17  4.886224E+03 -2.242123E+05 -2.117105E+03  1.049226E+04  6.264240E-10  6.612890E-11
       204  18 -1.308697E+03 -2.477446E+05 -6.536080E+03  1.566888E+04  1.774597E-10 -6.562345E-12
       204  19 -1.214587E+04 -2.873727E+05 -1.901990E+04  1.580951E+04  2.211781E+03  5.035614E+03
       204  20 -4.756697E+03 -2.638330E+05 -1.070175E+04  1.063190E+04  1.060071E+03  1.778589E+03
       204  21  2.590890E+02 -2.413292E+05 -5.102527E+03  1.452578E+04 -1.374770E+02 -1.478493E+03
       204  22 -1.711303E+03 -2.445375E+05 -9.687800E+03  1.509834E+04  2.212679E+03  6.116459E+03
       204  23  6.477866E+01 -2.440228E+05 -6.409404E+03  1.056208E+04  1.061023E+03  2.903264E+03
       204  24 -5.248045E+02 -2.445369E+05 -5.819305E+03  1.509733E+04 -1.364744E+02 -3.098701E+02
       204  25  8.723143E+03 -2.017005E+05 -3.558046E+02  1.438711E+04  2.213574E+03  7.197376E+03
       204  26  4.886229E+03 -2.242123E+05 -2.117072E+03  1.049226E+04  1.061975E+03  4.027974E+03
       204  27 -1.308697E+03 -2.477446E+05 -6.536079E+03  1.566888E+04 -1.354696E+02  8.587464E+02
       205   1  5.798666E+03 -2.235514E+05 -1.272498E+03  1.684075E+04  1.087986E+03  2.961169E+03
       205   2  1.072320E+04 -1.989102E+05  2.084730E+03  8.337646E+03  1.871743E+03  5.217537E+03
       205   3  4.085852E+03 -1.774710E+05  1.078129E+03  8.828094E+03  7.100694E+02  7.475554E+03
       205   4  5.440713E+02 -2.450919E+05 -5.981388E+03  1.507741E+04  1.086537E+03  1.277142E+03
       205   5 -1.462104E+02 -2.433295E+05 -7.854821E+03  1.058607E+04  1.871925E+03  5.400410E+03
       205   6 -1.272302E+04 -2.450940E+05 -1.538907E+04  1.508839E+04  7.118487E+02  9.525212E+03
       205   7 -4.710541E+03 -2.666319E+05 -1.069029E+04  1.331413E+04  1.085098E+03 -4.068280E+02
       205   8 -1.101574E+04 -2.877470E+05 -1.779449E+04  1.283433E+04  1.872108E+03  5.583271E+03
       205   9 -2.953207E+04 -3.127126E+05 -3.185657E+04  2.134800E+04  7.136696E+02  1.157465E+04
       205  10  5.798662E+03 -2.235514E+05 -1.272517E+03  1.684075E+04  1.317364E-10 -2.562935E-10
       205  11  1.072319E+04 -1.989102E+05  2.084672E+03  8.337639E+03 -2.026096E-10 -9.165224E-11
       205  12  4.085837E+03 -1.774711E+05  1.078023E+03  8.828090E+03 -7.985878E-11  1.955376E-10
       205  13  5.440696E+02 -2.450919E+05 -5.981393E+03  1.507741E+04 -3.377765E-10  1.980829E-11
       205  14 -1.462220E+02 -2.433295E+05 -7.854882E+03  1.058606E+04  2.359699E-10 -3.351195E-11
       205  15 -1.272304E+04 -2.450941E+05 -1.538924E+04  1.508838E+04 -2.227148E-10  2.612668E-12
       205  16 -4.710542E+03 -2.666319E+05 -1.069030E+04  1.331413E+04  4.241700E-10  2.024440E-10
       205  17 -1.101575E+04 -2.877470E+05 -1.779456E+04  1.283432E+04 -5.558492E-10  8.565898E-11
       205  18 -2.953211E+04 -3.127128E+05 -3.185682E+04  2.134799E+04 -1.307011E-10 -1.788789E-10
       205  19  5.798666E+03 -2.235514E+05 -1.272498E+03  1.684075E+04 -1.087986E+03 -2.961169E+03
       205  20  1.072320E+04 -1.989102E+05  2.084730E+03  8.337646E+03 -1.871743E+03 -5.217537E+03
       205  21  4.085852E+03 -1.774710E+05  1.078129E+03  8.828094E+03 -7.100694E+02 -7.475554E+03
       205  22  5.440713E+02 -2.450919E+05 -5.981388E+03  1.507741E+04 -1.086537E+03 -1.277142E+03
       205  23 -1.462104E+02 -2.433295E+05 -7.854821E+03  1.058607E+04 -1.871925E+03 -5.400410E+03
       205  24 -1.272302E+04 -2.450940E+05 -1.538907E+04  1.508839E+04 -7.118487E+02 -9.525212E+03
       205  25 -4.710541E+03 -2.666319E+05 -1.069029E+04  1.331413E+04 -1.085098E+03  4.068280E+02
       205  26 -1.101574E+04 -2.877470E+05 -1.779449E+04  1.283433E+04 -1.872108E+03 -5.583271E+03
       205  27 -2.953207E+04 -3.127126E+05 -3.185657E+04  2.134800E+04 -7.136696E+02 -1.157465E+04
       206   1  2.866734E+05  2.615319E+05  1.079469E+05  1.813402E+05  4.690967E+04  3.291416E+04
       206   2  2.709459E+05  1.904219E+05  6.157994E+04  1.967274E+05  3.181874E+04  1.682883E+04
       206   3  2.833837E+05  1.679517E+05  4.414382E+04  1.934617E+05  1.461626E+04  3.564684E+03
       206   4  2.186136E+05  1.623197E+05  7.557011E+04  1.242814E+05  4.260890E+04  2.968982E+04
       206   5  1.929275E+05  1.170798E+05  3.468101E+04  1.494991E+05  3.022789E+04  1.563652E+04
       206   6  1.948230E+05  1.198948E+05  2.037523E+04  1.560626E+05  1.573542E+04  4.403074E+03
       206   7  1.505608E+05  6.312302E+04  4.319301E+04  6.723297E+04  3.830879E+04  2.646664E+04
       206   8  1.149162E+05  4.374484E+04  7.781413E+03  1.022787E+05  2.863732E+04  1.444450E+04
       206   9  1.062711E+05  7.184015E+04 -3.394017E+03  1.186688E+05  1.685437E+04  5.241350E+03
       206  10  2.866708E+05  2.615302E+05  1.079407E+05  1.813389E+05 -2.110387E-09 -1.781834E-09
       206  11  2.709447E+05  1.904214E+05  6.157750E+04  1.967269E+05  5.862864E-09  4.149274E-09
       206  12  2.833834E+05  1.679517E+05  4.414339E+04  1.934617E+05  6.060923E-09  5.184065E-09
       206  13  2.186115E+05  1.623182E+05  7.556505E+04  1.242804E+05  1.790691E-09  1.677607E-09
       206  14  1.929264E+05  1.170793E+05  3.467883E+04  1.494987E+05  4.806503E-09  4.143465E-09
       206  15  1.948227E+05  1.198947E+05  2.037473E+04  1.560625E+05  1.889920E-09  1.567698E-09
       206  16  1.505591E+05  6.312188E+04  4.318894E+04  6.723215E+04  6.382198E-09  5.136773E-09
       206  17  1.149153E+05  4.374440E+04  7.779480E+03  1.022783E+05  5.098461E-09  4.183269E-09
       206  18  1.062708E+05  7.184005E+04 -3.394602E+03  1.186687E+05 -1.890423E-09 -2.005077E-09
       206  19  2.866734E+05  2.615319E+05  1.079469E+05  1.813402E+05 -4.690967E+04 -3.291416E+04
       206  20  2.709459E+05  1.904219E+05  6.157994E+04  1.967274E+05 -3.181874E+04 -1.682883E+04
       206  21  2.833837E+05  1.679517E+05  4.414382E+04  1.934617E+05 -1.461626E+04 -3.564684E+03
       206  22  2.186136E+05  1.623197E+05  7.557011E+04  1.242814E+05 -4.260890E+04 -2.968982E+04
       206  23  1.929275E+05  1.170798E+05  3.468101E+04  1.494991E+05 -3.022789E+04 -1.563652E+04
       206  24  1.948230E+05  1.198948E+05  2.037523E+04  1.560626E+05 -1.573542E+04 -4.403074E+03
       206  25  1.505608E+05  6.312302E+04  4.319301E+04  6.723297E+04 -3.830879E+04 -2.646664E+04
       206  26  1.149162E+05  4.374484E+04  7.781413E+03  1.022787E+05 -2.863732E+04 -1.444450E+04
       206  27  1.062711E+05  7.184015E+04 -3.394017E+03  1.186688E+05 -1.685437E+04 -5.241350E+03
       207   1  2.667116E+05  1.753823E+05  3.805686E+04  1.881668E+05  1.269962E+04  2.988461E+03
       207   2  2.594293E+05  1.637461E+05  2.828946E+04  1.841666E+05  8.598841E+03  5.353295E+02
       207   3  2.496882E+05  1.592011E+05  2.241776E+04  1.806349E+05  4.402779E+03 -1.790591E+03
       207   4  1.947819E+05  1.226254E+05  1.626092E+04  1.514443E+05  1.301807E+04  3.226885E+03
       207   5  1.954111E+05  1.179995E+05  9.179801E+03  1.520296E+05  9.039964E+03  8.656927E+02
       207   6  1.935553E+05  1.204384E+05  5.888438E+03  1.530833E+05  4.966539E+03 -1.368318E+03
       207   7  1.228571E+05  6.987103E+04 -5.535868E+03  1.147262E+05  1.333648E+04  3.465272E+03
       207   8  1.313974E+05  7.225521E+04 -9.930318E+03  1.198964E+05  9.481025E+03  1.196009E+03
       207   9  1.374265E+05  8.167776E+04 -1.064104E+04  1.255349E+05  5.530224E+03 -9.460990E+02
       207  10  2.667114E+05  1.753823E+05  3.805654E+04  1.881668E+05 -4.438164E-09 -2.805992E-09
       207  11  2.594292E+05  1.637461E+05  2.828932E+04  1.841666E+05  1.147365E-08  7.350278E-09
       207  12  2.496881E+05  1.592011E+05  2.241772E+04  1.806349E+05  1.450397E-08  8.520504E-09
       207  13  1.947817E+05  1.226253E+05  1.626059E+04  1.514442E+05  4.166750E-09  2.793732E-09
       207  14  1.954111E+05  1.179995E+05  9.179646E+03  1.520296E+05  1.049360E-08  7.068653E-09
       207  15  1.935553E+05  1.204384E+05  5.888388E+03  1.530833E+05  3.815805E-09  2.753522E-09
       207  16  1.228569E+05  6.987097E+04 -5.536225E+03  1.147262E+05  1.307556E-08  8.353763E-09
       207  17  1.313973E+05  7.225519E+04 -9.930489E+03  1.198964E+05  1.031664E-08  6.840929E-09
       207  18  1.374265E+05  8.167775E+04 -1.064110E+04  1.255349E+05 -5.457404E-09 -3.055862E-09
       207  19  2.667116E+05  1.753823E+05  3.805686E+04  1.881668E+05 -1.269962E+04 -2.988461E+03
       207  20  2.594293E+05  1.637461E+05  2.828946E+04  1.841666E+05 -8.598841E+03 -5.353295E+02
       207  21  2.496882E+05  1.592011E+05  2.241776E+04  1.806349E+05 -4.402779E+03  1.790591E+03
       207  22  1.947819E+05  1.226254E+05  1.626092E+04  1.514443E+05 -1.301807E+04 -3.226885E+03
       207  23  1.954111E+05  1.179995E+05  9.179801E+03  1.520296E+05 -9.039964E+03 -8.656927E+02
       207  24  1.935553E+05  1.204384E+05  5.888438E+03  1.530833E+05 -4.966539E+03  1.368318E+03
       207  25  1.228571E+05  6.987103E+04 -5.535868E+03  1.147262E+05 -1.333648E+04 -3.465272E+03
       207  26  1.313974E+05  7.225521E+04 -9.930318E+03  1.198964E+05 -9.481025E+03 -1.196009E+03
       207  27  1.374265E+05  8.167776E+04 -1.064104E+04  1.255349E+05 -5.530224E+03  9.460990E+02
       208   1  2.421752E+05  1.549674E+05  1.941576E+04  1.770968E+05  3.415994E+03 -2.005407E+03
       208   2  2.355576E+05  1.463882E+05  1.607396E+04  1.720947E+05  1.328881E+03 -2.708233E+03
       208   3  2.247747E+05  1.426787E+05  1.417986E+04  1.684237E+05 -7.613610E+02 -3.406929E+03
       208   4  1.935182E+05  1.205496E+05  4.997929E+03  1.528266E+05  3.943380E+03 -1.610366E+03
       208   5  1.956003E+05  1.181133E+05  4.210304E+03  1.521627E+05  1.860390E+03 -2.310076E+03
       208   6  1.935162E+05  1.205458E+05  4.866906E+03  1.528298E+05 -2.257692E+02 -3.005685E+03
       208   7  1.448637E+05  8.613318E+04 -9.420165E+03  1.285585E+05  4.470710E+03 -1.215366E+03
       208   8  1.556446E+05  8.983909E+04 -7.653604E+03  1.322320E+05  2.391856E+03 -1.911952E+03
       208   9  1.622585E+05  9.841320E+04 -4.446265E+03  1.372367E+05  3.097916E+02 -2.604464E+03
       208  10  2.421752E+05  1.549674E+05  1.941573E+04  1.770969E+05  1.668190E-09 -3.381154E-10
       208  11  2.355576E+05  1.463882E+05  1.607394E+04  1.720948E+05  6.391794E-10  8.546361E-10
       208  12  2.247747E+05  1.426787E+05  1.417983E+04  1.684237E+05  6.460337E-10  8.853369E-10
       208  13  1.935182E+05  1.205496E+05  4.997895E+03  1.528266E+05 -4.627365E-10  4.333259E-11
       208  14  1.956003E+05  1.181133E+05  4.210287E+03  1.521627E+05  1.690323E-10  3.846125E-10
       208  15  1.935162E+05  1.205458E+05  4.866889E+03  1.528298E+05  6.264958E-11  1.608482E-10
       208  16  1.448637E+05  8.613318E+04 -9.420205E+03  1.285585E+05 -2.094799E-09  4.250875E-10
       208  17  1.556446E+05  8.983909E+04 -7.653622E+03  1.322320E+05 -1.061517E-09 -3.082215E-11
       208  18  1.622585E+05  9.841320E+04 -4.446278E+03  1.372367E+05 -6.241473E-10 -4.980481E-10
       208  19  2.421752E+05  1.549674E+05  1.941576E+04  1.770968E+05 -3.415994E+03  2.005407E+03
       208  20  2.355576E+05  1.463882E+05  1.607396E+04  1.720947E+05 -1.328881E+03  2.708233E+03
       208  21  2.247747E+05  1.426787E+05  1.417986E+04  1.684237E+05  7.613610E+02  3.406929E+03
       208  22  1.935182E+05  1.205496E+05  4.997929E+03  1.528266E+05 -3.943380E+03  1.610366E+03
       208  23  1.956003E+05  1.181133E+05  4.210304E+03  1.521627E+05 -1.860390E+03  2.310076E+03
       208  24  1.935162E+05  1.205458E+05  4.866906E+03  1.528298E+05  2.257692E+02  3.005685E+03
       208  25  1.448637E+05  8.613318E+04 -9.420165E+03  1.285585E+05 -4.470710E+03  1.215366E+03
       208  26  1.556446E+05  8.983909E+04 -7.653604E+03  1.322320E+05 -2.391856E+03  1.911952E+03
       208  27  1.622585E+05  9.841320E+04 -4.446265E+03  1.372367E+05 -3.097916E+02  2.604464E+03
       209   1  2.173805E+05  1.382129E+05  1.288398E+04  1.653859E+05 -1.760137E+03 -3.643923E+03
       209   2  2.113544E+05  1.288682E+05  1.341823E+04  1.597918E+05 -5.662480E+03 -5.708321E+03
       209   3  2.027479E+05  1.264427E+05  1.754481E+04  1.547055E+05 -9.545103E+03 -7.798839E+03
       209   4  1.935525E+05  1.204373E+05  5.682308E+03  1.530704E+05 -1.218966E+03 -3.238483E+03
       209   5  1.954230E+05  1.180138E+05  8.766587E+03  1.520380E+05 -5.146376E+03 -5.321663E+03
       209   6  1.947182E+05  1.225147E+05  1.546491E+04  1.515134E+05 -9.054143E+03 -7.431033E+03
       209   7  1.697253E+05  1.026622E+05 -1.519342E+03  1.407555E+05 -6.778278E+02 -2.833070E+03
       209   8  1.794919E+05  1.071596E+05  4.114943E+03  1.442846E+05 -4.630293E+03 -4.935021E+03
       209   9  1.866886E+05  1.185868E+05  1.338502E+04  1.483213E+05 -8.563191E+03 -7.063231E+03
       209  10  2.173805E+05  1.382129E+05  1.288395E+04  1.653859E+05  3.886381E-10 -1.112512E-10
       209  11  2.113544E+05  1.288682E+05  1.341811E+04  1.597918E+05  1.605507E-09  1.067966E-09
       209  12  2.027478E+05  1.264426E+05  1.754452E+04  1.547055E+05 -5.749530E-10  5.706416E-11
       209  13  1.935525E+05  1.204372E+05  5.682285E+03  1.530704E+05  1.156139E-10  4.328174E-10
       209  14  1.954230E+05  1.180138E+05  8.766484E+03  1.520380E+05  1.724325E-11  1.639611E-10
       209  15  1.947181E+05  1.225146E+05  1.546466E+04  1.515133E+05 -4.349349E-09 -2.183733E-09
       209  16  1.697253E+05  1.026622E+05 -1.519358E+03  1.407555E+05  9.317903E-10  9.193859E-10
       209  17  1.794919E+05  1.071595E+05  4.114857E+03  1.442845E+05 -2.406966E-09 -6.212340E-10
       209  18  1.866885E+05  1.185867E+05  1.338478E+04  1.483212E+05 -7.190989E-09 -4.422803E-09
       209  19  2.173805E+05  1.382129E+05  1.288398E+04  1.653859E+05  1.760137E+03  3.643923E+03
       209  20  2.113544E+05  1.288682E+05  1.341823E+04  1.597918E+05  5.662480E+03  5.708321E+03
       209  21  2.027479E+05  1.264427E+05  1.754481E+04  1.547055E+05  9.545103E+03  7.798839E+03
       209  22  1.935525E+05  1.204373E+05  5.682308E+03  1.530704E+05  1.218966E+03  3.238483E+03
       209  23  1.954230E+05  1.180138E+05  8.766587E+03  1.520380E+05  5.146376E+03  5.321663E+03
       209  24  1.947182E+05  1.225147E+05  1.546491E+04  1.515134E+05  9.054143E+03  7.431033E+03
       209  25  1.697253E+05  1.026622E+05 -1.519342E+03  1.407555E+05  6.778278E+02  2.833070E+03
       209  26  1.794919E+05  1.071596E+05  4.114943E+03  1.442846E+05  4.630293E+03  4.935021E+03
       209  27  1.866886E+05  1.185868E+05  1.338502E+04  1.483213E+05  8.563191E+03  7.063231E+03
       210   1  1.867096E+05  1.281304E+05  1.936137E+04  1.583320E+05 -1.217809E+04 -9.193257E+03
       210   2  1.946035E+05  1.009944E+05  3.027075E+04  1.424327E+05 -2.584937E+04 -1.882178E+04
       210   3  2.282527E+05  1.196582E+05  6.593510E+04  1.089129E+05 -3.908778E+04 -2.902774E+04
       210   4  1.947349E+05  1.199451E+05  1.936251E+04  1.559034E+05 -1.152333E+04 -8.702439E+03
       210   5  1.930952E+05  1.171166E+05  3.293136E+04  1.496280E+05 -2.574993E+04 -1.874795E+04
       210   6  2.173295E+05  1.602066E+05  7.173661E+04  1.257326E+05 -3.954317E+04 -2.937181E+04
       210   7  2.027604E+05  1.117598E+05  1.936370E+04  1.534747E+05 -1.086855E+04 -8.211633E+03
       210   8  1.915870E+05  1.332393E+05  3.559201E+04  1.568234E+05 -2.565049E+04 -1.867412E+04
       210   9  2.064080E+05  2.007587E+05  7.753848E+04  1.425520E+05 -3.999855E+04 -2.971593E+04
       210  10  1.867094E+05  1.281303E+05  1.936094E+04  1.583320E+05 -7.246599E-09 -4.464944E-09
       210  11  1.946027E+05  1.009939E+05  3.026883E+04  1.424323E+05 -2.183697E-09 -6.658973E-10
       210  12  2.282509E+05  1.196569E+05  6.593065E+04  1.089120E+05  7.413599E-10  9.861730E-10
       210  13  1.947347E+05  1.199449E+05  1.936212E+04  1.559033E+05 -4.029825E-09 -2.227781E-09
       210  14  1.930944E+05  1.171160E+05  3.292945E+04  1.496277E+05  3.971253E-11  2.665679E-10
       210  15  2.173276E+05  1.602053E+05  7.173205E+04  1.257317E+05  8.495937E-10  2.921959E-10
       210  16  2.027603E+05  1.117597E+05  1.936335E+04  1.534746E+05 -7.839920E-10  8.169964E-11
       210  17  1.915862E+05  1.332388E+05  3.559012E+04  1.568230E+05  1.492034E-09  8.919363E-10
       210  18  2.064060E+05  2.007573E+05  7.753382E+04  1.425511E+05  8.650440E-11 -2.174503E-10
       210  19  1.867096E+05  1.281304E+05  1.936137E+04  1.583320E+05  1.217809E+04  9.193257E+03
       210  20  1.946035E+05  1.009944E+05  3.027075E+04  1.424327E+05  2.584937E+04  1.882178E+04
       210  21  2.282527E+05  1.196582E+05  6.593510E+04  1.089129E+05  3.908778E+04  2.902774E+04
       210  22  1.947349E+05  1.199451E+05  1.936251E+04  1.559034E+05  1.152333E+04  8.702439E+03
       210  23  1.930952E+05  1.171166E+05  3.293136E+04  1.496280E+05  2.574993E+04  1.874795E+04
       210  24  2.173295E+05  1.602066E+05  7.173661E+04  1.257326E+05  3.954317E+04  2.937181E+04
       210  25  2.027604E+05  1.117598E+05  1.936370E+04  1.534747E+05  1.086855E+04  8.211633E+03
       210  26  1.915870E+05  1.332393E+05  3.559201E+04  1.568234E+05  2.565049E+04  1.867412E+04
       210  27  2.064080E+05  2.007587E+05  7.753848E+04  1.425520E+05  3.999855E+04  2.971593E+04
       211   1  6.032824E+05  1.273106E+05  1.141357E+05  5.841254E+04 -1.164468E+04 -8.566497E+03
       211   2  4.852671E+05  1.394045E+05  1.017152E+05  4.931427E+04 -1.637448E+04 -2.578674E+04
       211   3  3.582108E+05  1.122023E+05  8.257445E+04  8.754292E+04 -2.109487E+04 -2.404879E+04
       211   4 -9.440790E+04 -4.601379E+04 -5.488221E+04  8.112914E+04 -3.726857E+04 -8.557085E+03
       211   5 -8.827293E+04 -7.265349E+02 -2.551763E+04  5.747057E+04 -2.379577E+04 -2.578686E+04
       211   6 -9.436462E+04  2.084803E+03 -1.552041E+04  8.114399E+04 -1.031414E+04 -2.405035E+04
       211   7 -7.916512E+05 -2.193716E+05 -2.239325E+05  1.038202E+05 -6.286376E+04 -8.549543E+03
       211   8 -6.615058E+05 -1.408795E+05 -1.527706E+05  6.561927E+04 -3.121027E+04 -2.578716E+04
       211   9 -5.467475E+05 -1.080460E+05 -1.136270E+05  7.474978E+04  4.588391E+02 -2.405214E+04
       211  10  6.032822E+05  1.273105E+05  1.141354E+05  5.841246E+04  2.264490E-10 -7.806080E-11
       211  11  4.852666E+05  1.394037E+05  1.017135E+05  4.931393E+04 -1.165813E-10 -2.129317E-10
       211  12  3.582101E+05  1.122016E+05  8.257253E+04  8.754251E+04 -2.551139E-10  1.251169E-10
       211  13 -9.440941E+04 -4.601424E+04 -5.488495E+04  8.112888E+04  1.168935E-11  1.339140E-10
       211  14 -8.827371E+04 -7.274009E+02 -2.551994E+04  5.747008E+04  2.399996E-10 -1.344400E-10
       211  15 -9.436489E+04  2.084153E+03 -1.552169E+04  8.114379E+04 -2.894976E-10  5.204688E-11
       211  16 -7.916555E+05 -2.193728E+05 -2.239400E+05  1.038197E+05 -1.614710E-10 -9.838129E-11
       211  17 -6.615070E+05 -1.408805E+05 -1.527737E+05  6.561862E+04 -3.166276E-10 -2.125631E-10
       211  18 -5.467477E+05 -1.080466E+05 -1.136281E+05  7.474979E+04 -1.712021E-10 -8.355770E-11
       211  19  6.032824E+05  1.273106E+05  1.141357E+05  5.841254E+04  1.164468E+04  8.566497E+03
       211  20  4.852671E+05  1.394045E+05  1.017152E+05  4.931427E+04  1.637448E+04  2.578674E+04
       211  21  3.582108E+05  1.122023E+05  8.257445E+04  8.754292E+04  2.109487E+04  2.404879E+04
       211  22 -9.440790E+04 -4.601379E+04 -5.488221E+04  8.112914E+04  3.726857E+04  8.557085E+03
       211  23 -8.827293E+04 -7.265349E+02 -2.551763E+04  5.747057E+04  2.379577E+04  2.578686E+04
       211  24 -9.436462E+04  2.084803E+03 -1.552041E+04  8.114399E+04  1.031414E+04  2.405035E+04
       211  25 -7.916512E+05 -2.193716E+05 -2.239325E+05  1.038202E+05  6.286376E+04  8.549543E+03
       211  26 -6.615058E+05 -1.408795E+05 -1.527706E+05  6.561927E+04  3.121027E+04  2.578716E+04
       211  27 -5.467475E+05 -1.080460E+05 -1.136270E+05  7.474978E+04 -4.588391E+02  2.405214E+04
       212   1  2.630062E+05  8.405579E+04  6.441123E+04  8.044627E+04 -1.347603E+04 -1.837865E+04
       212   2  1.411152E+05  5.663196E+04  4.189474E+04  5.697588E+04 -1.002003E+04 -1.233644E+04
       212   3  1.822665E+04  2.685773E+04  1.654591E+04  8.172681E+04 -6.566569E+03 -5.465692E+03
       212   4 -9.188657E+04 -2.360275E+03 -1.281644E+04  8.133808E+04 -8.068877E+03 -1.837929E+04
       212   5 -9.130198E+04  7.188813E+01 -8.497986E+03  5.722672E+04 -3.819888E+03 -1.233626E+04
       212   6 -9.186948E+04  1.562545E+01 -7.563975E+03  8.133793E+04  4.272146E+02 -5.464516E+03
       212   7 -4.466612E+05 -8.878468E+04 -9.005155E+04  8.222937E+04 -2.664777E+03 -1.837990E+04
       212   8 -3.236684E+05 -5.649174E+04 -5.889378E+04  5.747747E+04  2.377964E+03 -1.233608E+04
       212   9 -2.019541E+05 -2.682727E+04 -3.167442E+04  8.094913E+04  7.419773E+03 -5.463349E+03
       212  10  2.630059E+05  8.405538E+04  6.441026E+04  8.044607E+04  5.521533E-10  8.409767E-11
       212  11  1.411150E+05  5.663177E+04  4.189427E+04  5.697578E+04 -3.353591E-10  7.460071E-11
       212  12  1.822659E+04  2.685769E+04  1.654578E+04  8.172678E+04 -3.404259E-10 -3.827134E-12
       212  13 -9.188673E+04 -2.360655E+03 -1.281719E+04  8.133796E+04  5.311717E-10  1.560371E-10
       212  14 -9.130204E+04  7.172081E+01 -8.498299E+03  5.722669E+04  2.729643E-10  1.625548E-11
       212  15 -9.186949E+04  1.559333E+01 -7.564031E+03  8.133794E+04 -9.048117E-12  6.426097E-11
       212  16 -4.466613E+05 -8.878505E+04 -9.005219E+04  8.222933E+04 -2.773708E-10  1.548517E-11
       212  17 -3.236684E+05 -5.649191E+04 -5.889408E+04  5.747749E+04 -1.426688E-10 -3.521603E-11
       212  18 -2.019542E+05 -2.682731E+04 -3.167458E+04  8.094916E+04 -2.538640E-10  1.397278E-10
       212  19  2.630062E+05  8.405579E+04  6.441123E+04  8.044627E+04  1.347603E+04  1.837865E+04
       212  20  1.411152E+05  5.663196E+04  4.189474E+04  5.697588E+04  1.002003E+04  1.233644E+04
       212  21  1.822665E+04  2.685773E+04  1.654591E+04  8.172681E+04  6.566569E+03  5.465692E+03
       212  22 -9.188657E+04 -2.360275E+03 -1.281644E+04  8.133808E+04  8.068877E+03  1.837929E+04
       212  23 -9.130198E+04  7.188813E+01 -8.497986E+03  5.722672E+04  3.819888E+03  1.233626E+04
       212  24 -9.186948E+04  1.562545E+01 -7.563975E+03  8.133793E+04 -4.272146E+02  5.464516E+03
       212  25 -4.466612E+05 -8.878468E+04 -9.005155E+04  8.222937E+04  2.664777E+03  1.837990E+04
       212  26 -3.236684E+05 -5.649174E+04 -5.889378E+04  5.747747E+04 -2.377964E+03  1.233608E+04
       212  27 -2.019541E+05 -2.682727E+04 -3.167442E+04  8.094913E+04 -7.419773E+03  5.463349E+03
       213   1 -7.909334E+04  3.185260E+03 -5.454375E+03  8.074170E+04 -5.161778E+03 -1.173846E+03
       213   2 -2.006412E+05 -2.655494E+04 -3.434360E+04  5.752556E+04  7.738678E+02  5.731185E+03
       213   3 -3.238330E+05 -5.984178E+04 -6.798673E+04  8.254306E+04  6.709313E+03  1.195648E+04
       213   4 -9.195348E+04  1.167690E+02 -7.936707E+03  8.134027E+04  1.791352E+03 -1.172539E+03
       213   5 -9.118656E+04  9.685121E+01 -1.055703E+04  5.722384E+04  7.074819E+03  5.731960E+03
       213   6 -9.196171E+04 -3.354535E+03 -1.747643E+04  8.134070E+04  1.235921E+04  1.195681E+04
       213   7 -1.048134E+05 -2.951704E+03 -1.041887E+04  8.193883E+04  8.744341E+03 -1.171217E+03
       213   8  1.827942E+04  2.674787E+04  1.322897E+04  5.692207E+04  1.337687E+04  5.732729E+03
       213   9  1.399601E+05  5.312916E+04  3.303076E+04  8.013788E+04  1.801119E+04  1.195712E+04
       213  10 -7.909337E+04  3.185251E+03 -5.454427E+03  8.074170E+04  4.124383E-10 -6.440582E-12
       213  11 -2.006412E+05 -2.655498E+04 -3.434366E+04  5.752555E+04  3.061235E-10 -8.002915E-11
       213  12 -3.238331E+05 -5.984195E+04 -6.798708E+04  8.254300E+04 -1.180091E-11 -6.602529E-13
       213  13 -9.195349E+04  1.167666E+02 -7.936716E+03  8.134027E+04  2.767546E-10 -3.107059E-11
       213  14 -9.118663E+04  9.680249E+01 -1.055718E+04  5.722381E+04 -2.765691E-10 -2.419669E-10
       213  15 -9.196191E+04 -3.354729E+03 -1.747699E+04  8.134058E+04  5.132769E-10 -1.426384E-10
       213  16 -1.048134E+05 -2.951726E+03 -1.041901E+04  8.193884E+04 -5.539013E-10  3.002650E-11
       213  17  1.827922E+04  2.674779E+04  1.322857E+04  5.692201E+04 -4.083326E-10 -6.462546E-10
       213  18  1.399597E+05  5.312892E+04  3.302988E+04  8.013771E+04  8.039812E-10 -2.359062E-10
       213  19 -7.909334E+04  3.185260E+03 -5.454375E+03  8.074170E+04  5.161778E+03  1.173846E+03
       213  20 -2.006412E+05 -2.655494E+04 -3.434360E+04  5.752556E+04 -7.738678E+02 -5.731185E+03
       213  21 -3.238330E+05 -5.984178E+04 -6.798673E+04  8.254306E+04 -6.709313E+03 -1.195648E+04
       213  22 -9.195348E+04  1.167690E+02 -7.936707E+03  8.134027E+04 -1.791352E+03  1.172539E+03
       213  23 -9.118656E+04  9.685121E+01 -1.055703E+04  5.722384E+04 -7.074819E+03 -5.731960E+03
       213  24 -9.196171E+04 -3.354535E+03 -1.747643E+04  8.134070E+04 -1.235921E+04 -1.195681E+04
       213  25 -1.048134E+05 -2.951704E+03 -1.041887E+04  8.193883E+04 -8.744341E+03  1.171217E+03
       213  26  1.827942E+04  2.674787E+04  1.322897E+04  5.692207E+04 -1.337687E+04 -5.732729E+03
       213  27  1.399601E+05  5.312916E+04  3.303076E+04  8.013788E+04 -1.801119E+04 -1.195712E+04
       214   1 -4.249765E+05 -7.716663E+04 -9.312176E+04  7.192076E+04  5.307140E+03  1.738146E+04
       214   2 -5.372910E+05 -1.111403E+05 -1.364501E+05  6.896622E+04  3.967162E+04  2.001384E+04
       214   3 -6.698918E+05 -2.087318E+05 -2.180523E+05  1.134995E+05  7.402456E+04  6.803331E+03
       214   4 -9.555170E+04  3.042854E+03 -2.160260E+04  8.117841E+04  1.543877E+04  1.738154E+04
       214   5 -8.674670E+04 -9.616251E+02 -3.628048E+04  5.742790E+04  3.461521E+04  2.001254E+04
       214   6 -9.558683E+04 -6.592067E+04 -7.866477E+04  8.116767E+04  5.378742E+04  6.803488E+03
       214   7  2.339753E+05  8.324552E+04  4.991051E+04  9.044103E+04  2.557571E+04  1.738192E+04
       214   8  3.639874E+05  1.092038E+05  6.387664E+04  4.588109E+04  2.955516E+04  2.001142E+04
       214   9  4.790226E+05  7.687035E+04  6.070101E+04  4.880582E+04  3.353159E+04  6.805756E+03
       214  10 -4.249766E+05 -7.716696E+04 -9.312238E+04  7.192069E+04 -2.369434E-10 -7.346099E-11
       214  11 -5.372928E+05 -1.111411E+05 -1.364538E+05  6.896558E+04  2.180066E-10 -6.821092E-11
       214  12 -6.698977E+05 -2.087333E+05 -2.180627E+05  1.134991E+05  3.431063E-10  2.470060E-11
       214  13 -9.555204E+04  3.042465E+03 -2.160362E+04  8.117819E+04 -1.656164E-11  4.642021E-11
       214  14 -8.674810E+04 -9.623768E+02 -3.628349E+04  5.742734E+04 -2.013774E-10  7.646388E-11
       214  15 -9.558995E+04 -6.592150E+04 -7.867029E+04  8.116738E+04 -9.295748E-11  8.514662E-11
       214  16  2.339745E+05  8.324502E+04  4.990871E+04  9.044067E+04 -3.491196E-11 -4.134989E-11
       214  17  3.639864E+05  1.092031E+05  6.387424E+04  4.588062E+04  7.417924E-11 -2.771664E-11
       214  18  4.790214E+05  7.687000E+04  6.069881E+04  4.880564E+04 -2.890277E-10 -5.286354E-11
       214  19 -4.249765E+05 -7.716663E+04 -9.312176E+04  7.192076E+04 -5.307140E+03 -1.738146E+04
       214  20 -5.372910E+05 -1.111403E+05 -1.364501E+05  6.896622E+04 -3.967162E+04 -2.001384E+04
       214  21 -6.698918E+05 -2.087318E+05 -2.180523E+05  1.134995E+05 -7.402456E+04 -6.803331E+03
       214  22 -9.555170E+04  3.042854E+03 -2.160260E+04  8.117841E+04 -1.543877E+04 -1.738154E+04
       214  23 -8.674670E+04 -9.616251E+02 -3.628048E+04  5.742790E+04 -3.461521E+04 -2.001254E+04
       214  24 -9.558683E+04 -6.592067E+04 -7.866477E+04  8.116767E+04 -5.378742E+04 -6.803488E+03
       214  25  2.339753E+05  8.324552E+04  4.991051E+04  9.044103E+04 -2.557571E+04 -1.738192E+04
       214  26  3.639874E+05  1.092038E+05  6.387664E+04  4.588109E+04 -2.955516E+04 -2.001142E+04
       214  27  4.790226E+05  7.687035E+04  6.070101E+04  4.880582E+04 -3.353159E+04 -6.805756E+03
       215   1 -1.573741E+05 -5.559663E+05 -1.655833E+05  1.047849E+05 -4.684901E+03 -5.682240E+04
       215   2 -7.388679E+04 -4.285906E+05 -9.628823E+04  6.484240E+04 -1.296232E+04 -2.987374E+04
       215   3 -4.158156E+04 -3.175679E+05 -5.735500E+04  7.132969E+04 -9.395389E+03 -2.927806E+03
       215   4 -5.307344E+04 -1.364249E+05 -6.356259E+04  7.897301E+04 -4.671789E+03 -4.319440E+04
       215   5 -6.561708E+02 -1.292203E+05 -2.950927E+04  5.573496E+04 -1.295949E+04 -2.759939E+04
       215   6  2.565587E+03 -1.364005E+05 -1.791786E+04  7.892902E+04 -9.403959E+03 -1.201271E+04
       215   7  5.121691E+04  2.832790E+05  3.844648E+04  5.314361E+04 -4.659817E+03 -2.955719E+04
       215   8  7.256868E+04  1.702337E+05  3.726414E+04  4.662305E+04 -1.295673E+04 -2.532395E+04
       215   9  4.671081E+04  4.479793E+04  2.151765E+04  8.653059E+04 -9.412750E+03 -2.110023E+04
       215  10 -1.573750E+05 -5.559698E+05 -1.655895E+05  1.047847E+05 -9.472686E-11 -2.626252E-10
       215  11 -7.388721E+04 -4.285916E+05 -9.629022E+04  6.484208E+04  1.934730E-10  7.916176E-11
       215  12 -4.158166E+04 -3.175679E+05 -5.735518E+04  7.132967E+04  1.873505E-10  3.887509E-10
       215  13 -5.307397E+04 -1.364269E+05 -6.356614E+04  7.897285E+04 -3.026131E-10  1.334706E-11
       215  14 -6.565557E+02 -1.292212E+05 -2.951101E+04  5.573467E+04  1.219911E-10  2.814613E-11
       215  15  2.565453E+03 -1.364007E+05 -1.791830E+04  7.892893E+04  1.451333E-10  2.340254E-10
       215  16  5.121665E+04  2.832781E+05  3.844480E+04  5.314350E+04 -2.199344E-10  2.854635E-10
       215  17  7.256833E+04  1.702330E+05  3.726262E+04  4.662279E+04 -2.259145E-10 -2.564803E-10
       215  18  4.671060E+04  4.479743E+04  2.151664E+04  8.653043E+04  3.692449E-10 -4.300729E-10
       215  19 -1.573741E+05 -5.559663E+05 -1.655833E+05  1.047849E+05  4.684901E+03  5.682240E+04
       215  20 -7.388679E+04 -4.285906E+05 -9.628823E+04  6.484240E+04  1.296232E+04  2.987374E+04
       215  21 -4.158156E+04 -3.175679E+05 -5.735500E+04  7.132969E+04  9.395389E+03  2.927806E+03
       215  22 -5.307344E+04 -1.364249E+05 -6.356259E+04  7.897301E+04  4.671789E+03  4.319440E+04
       215  23 -6.561708E+02 -1.292203E+05 -2.950927E+04  5.573496E+04  1.295949E+04  2.759939E+04
       215  24  2.565587E+03 -1.364005E+05 -1.791786E+04  7.892902E+04  9.403959E+03  1.201271E+04
       215  25  5.121691E+04  2.832790E+05  3.844648E+04  5.314361E+04  4.659817E+03  2.955719E+04
       215  26  7.256868E+04  1.702337E+05  3.726414E+04  4.662305E+04  1.295673E+04  2.532395E+04
       215  27  4.671081E+04  4.479793E+04  2.151765E+04  8.653059E+04  9.412750E+03  2.110023E+04
       216   1 -2.354984E+04 -2.198472E+05 -3.360660E+04  8.011182E+04 -4.351010E+03 -3.543878E+03
       216   2  8.156824E+03 -9.994312E+04 -2.552716E+03  5.573875E+04  1.754159E+03  1.222397E+03
       216   3  3.636227E+04  1.838091E+04  2.449712E+04  7.829356E+04  7.783116E+03  5.989891E+03
       216   4 -2.518678E+03 -1.335557E+05 -1.474677E+04  7.905118E+04 -4.356772E+03 -9.436070E+03
       216   5  1.718548E+02 -1.327539E+05 -9.660932E+03  5.558618E+04  1.748595E+03 -4.596658E+03
       216   6 -6.505337E+02 -1.335578E+05 -8.628803E+03  7.904939E+04  7.777715E+03  2.430866E+02
       216   7  1.851201E+04 -4.725725E+04  4.112730E+03  7.799039E+04 -4.362514E+03 -1.532907E+04
       216   8 -7.813168E+03 -1.655637E+05 -1.676909E+04  5.543361E+04  1.743033E+03 -1.041541E+04
       216   9 -3.766485E+04 -2.854748E+05 -4.175599E+04  7.980502E+04  7.772299E+03 -5.502330E+03
       216  10 -2.354986E+04 -2.198472E+05 -3.360666E+04  8.011180E+04  3.061963E-10 -3.613114E-10
       216  11  8.156821E+03 -9.994312E+04 -2.552724E+03  5.573875E+04  4.475058E-10  1.799118E-10
       216  12  3.636220E+04  1.838085E+04  2.449693E+04  7.829353E+04  3.292801E-10  3.869485E-10
       216  13 -2.518722E+03 -1.335558E+05 -1.474698E+04  7.905115E+04  3.162182E-10  1.348874E-10
       216  14  1.718459E+02 -1.327540E+05 -9.660978E+03  5.558618E+04  2.406045E-10  1.741583E-10
       216  15 -6.505986E+02 -1.335578E+05 -8.628917E+03  7.904939E+04  4.375357E-10  1.445783E-10
       216  16  1.851193E+04 -4.725751E+04  4.112253E+03  7.799034E+04  5.713141E-10  4.222268E-10
       216  17 -7.813200E+03 -1.655638E+05 -1.676930E+04  5.543363E+04  1.121853E-10 -2.004950E-10
       216  18 -3.766493E+04 -2.854749E+05 -4.175616E+04  7.980505E+04  2.708758E-10 -3.058825E-10
       216  19 -2.354984E+04 -2.198472E+05 -3.360660E+04  8.011182E+04  4.351010E+03  3.543878E+03
       216  20  8.156824E+03 -9.994312E+04 -2.552716E+03  5.573875E+04 -1.754159E+03 -1.222397E+03
       216  21  3.636227E+04  1.838091E+04  2.449712E+04  7.829356E+04 -7.783116E+03 -5.989891E+03
       216  22 -2.518678E+03 -1.335557E+05 -1.474677E+04  7.905118E+04  4.356772E+03  9.436070E+03
       216  23  1.718548E+02 -1.327539E+05 -9.660932E+03  5.558618E+04 -1.748595E+03  4.596658E+03
       216  24 -6.505337E+02 -1.335578E+05 -8.628803E+03  7.904939E+04 -7.777715E+03 -2.430866E+02
       216  25  1.851201E+04 -4.725725E+04  4.112730E+03  7.799039E+04  4.362514E+03  1.532907E+04
       216  26 -7.813168E+03 -1.655637E+05 -1.676909E+04  5.543361E+04 -1.743033E+03  1.041541E+04
       216  27 -3.766485E+04 -2.854748E+05 -4.175599E+04  7.980502E+04 -7.772299E+03  5.502330E+03
       217   1  6.097987E+04  1.125471E+05  4.482996E+04  8.160193E+04  1.295815E+04  1.110442E+04
       217   2  8.905592E+04  2.331886E+05  6.980341E+04  5.267065E+04  1.602159E+04  4.129153E+03
       217   3  1.022917E+05  3.510060E+05  9.559718E+04  7.007066E+04  5.574527E+03 -2.838540E+03
       217   4  8.705310E+02 -1.343404E+05 -8.801148E+03  7.891407E+04  1.294972E+04  1.669338E+03
       217   5 -1.782159E+02 -1.318086E+05 -1.142708E+04  5.575416E+04  1.602510E+04  7.665648E+03
       217   6 -1.832296E+04 -1.343673E+05 -2.224158E+04  7.892815E+04  5.586282E+03  1.367063E+04
       217   7 -5.924277E+04 -3.811705E+05 -6.243556E+04  7.622728E+04  1.294137E+04 -7.762041E+03
       217   8 -8.942134E+04 -4.966814E+05 -9.266583E+04  5.883581E+04  1.602865E+04  1.120009E+04
       217   9 -1.389545E+05 -6.195247E+05 -1.400963E+05  8.777864E+04  5.598513E+03  3.016693E+04
       217  10  6.097965E+04  1.125469E+05  4.482942E+04  8.160181E+04  1.149575E-10  2.455055E-11
       217  11  8.905564E+04  2.331885E+05  6.980289E+04  5.267059E+04 -3.530179E-10  8.292696E-11
       217  12  1.022917E+05  3.510059E+05  9.559711E+04  7.007067E+04  2.549594E-11 -6.223034E-11
       217  13  8.703502E+02 -1.343405E+05 -8.801468E+03  7.891406E+04  2.187698E-10  7.791432E-11
       217  14 -1.785074E+02 -1.318087E+05 -1.142767E+04  5.575406E+04  3.026506E-10 -9.931222E-15
       217  15 -1.832304E+04 -1.343675E+05 -2.224199E+04  7.892808E+04 -7.109903E-11  6.841073E-11
       217  16 -5.924297E+04 -3.811706E+05 -6.243599E+04  7.622737E+04  6.544505E-10  3.275103E-11
       217  17 -8.942164E+04 -4.966816E+05 -9.266655E+04  5.883567E+04 -3.601631E-11 -5.246203E-11
       217  18 -1.389548E+05 -6.195256E+05 -1.400981E+05  8.777850E+04 -1.256176E-10  7.698381E-11
       217  19  6.097987E+04  1.125471E+05  4.482996E+04  8.160193E+04 -1.295815E+04 -1.110442E+04
       217  20  8.905592E+04  2.331886E+05  6.980341E+04  5.267065E+04 -1.602159E+04 -4.129153E+03
       217  21  1.022917E+05  3.510060E+05  9.559718E+04  7.007066E+04 -5.574527E+03  2.838540E+03
       217  22  8.705310E+02 -1.343404E+05 -8.801148E+03  7.891407E+04 -1.294972E+04 -1.669338E+03
       217  23 -1.782159E+02 -1.318086E+05 -1.142708E+04  5.575416E+04 -1.602510E+04 -7.665648E+03
       217  24 -1.832296E+04 -1.343673E+05 -2.224158E+04  7.892815E+04 -5.586282E+03 -1.367063E+04
       217  25 -5.924277E+04 -3.811705E+05 -6.243556E+04  7.622728E+04 -1.294137E+04  7.762041E+03
       217  26 -8.942134E+04 -4.966814E+05 -9.266583E+04  5.883581E+04 -1.602865E+04 -1.120009E+04
       217  27 -1.389545E+05 -6.195247E+05 -1.400963E+05  8.777864E+04 -5.598513E+03 -3.016693E+04
       218   1  6.245849E+05  5.188541E+05  1.764720E+05  4.163201E+05  7.753594E+04  5.468961E+04
       218   2  5.974279E+05  3.989572E+05  9.905200E+04  4.412286E+05  5.226929E+04  2.850458E+04
       218   3  6.165068E+05  3.608576E+05  6.966840E+04  4.352168E+05  2.370178E+04  6.728131E+03
       218   4  5.221738E+05  3.611337E+05  1.261225E+05  3.265769E+05  7.094547E+04  4.974263E+04
       218   5  4.796587E+05  2.853049E+05  5.792249E+04  3.685647E+05  4.991664E+04  2.673954E+04
       218   6  4.824711E+05  2.903637E+05  3.409198E+04  3.796291E+05  2.558741E+04  8.141524E+03
       218   7  4.197776E+05  2.034508E+05  7.577167E+04  2.368571E+05  6.435638E+04  4.479839E+04
       218   8  3.619042E+05  1.716686E+05  1.679081E+04  2.959183E+05  4.756457E+04  2.497516E+04
       218   9  3.484540E+05  2.198738E+05 -1.486322E+03  3.240527E+05  2.747250E+04  9.554652E+03
       218  10  6.245776E+05  5.188493E+05  1.764551E+05  4.163167E+05  3.569802E-10  1.217209E-10
       218  11  5.974248E+05  3.989555E+05  9.904535E+04  4.412274E+05  2.886386E-10 -2.888418E-10
       218  12  6.165062E+05  3.608574E+05  6.966726E+04  4.352167E+05 -9.525162E-11 -4.381247E-10
       218  13  5.221677E+05  3.611297E+05  1.261084E+05  3.265740E+05  8.949573E-11 -7.300167E-11
       218  14  4.796558E+05  2.853035E+05  5.791647E+04  3.685636E+05 -1.092289E-10 -1.515807E-10
       218  15  4.824704E+05  2.903634E+05  3.409063E+04  3.796290E+05 -9.204796E-11  7.706584E-12
       218  16  4.197726E+05  2.034475E+05  7.576013E+04  2.368547E+05 -8.588209E-11 -4.751994E-10
       218  17  3.619016E+05  1.716673E+05  1.678539E+04  2.959174E+05  1.745179E-10 -1.999946E-10
       218  18  3.484532E+05  2.198735E+05 -1.487911E+03  3.240525E+05 -2.723025E-10  2.612142E-10
       218  19  6.245849E+05  5.188541E+05  1.764720E+05  4.163201E+05 -7.753594E+04 -5.468961E+04
       218  20  5.974279E+05  3.989572E+05  9.905200E+04  4.412286E+05 -5.226929E+04 -2.850458E+04
       218  21  6.165068E+05  3.608576E+05  6.966840E+04  4.352168E+05 -2.370178E+04 -6.728131E+03
       218  22  5.221738E+05  3.611337E+05  1.261225E+05  3.265769E+05 -7.094547E+04 -4.974263E+04
       218  23  4.796587E+05  2.853049E+05  5.792249E+04  3.685647E+05 -4.991664E+04 -2.673954E+04
       218  24  4.824711E+05  2.903637E+05  3.409198E+04  3.796291E+05 -2.558741E+04 -8.141524E+03
       218  25  4.197776E+05  2.034508E+05  7.577167E+04  2.368571E+05 -6.435638E+04 -4.479839E+04
       218  26  3.619042E+05  1.716686E+05  1.679081E+04  2.959183E+05 -4.756457E+04 -2.497516E+04
       218  27  3.484540E+05  2.198738E+05 -1.486322E+03  3.240527E+05 -2.747250E+04 -9.554652E+03
       219   1  5.876849E+05  3.725327E+05  5.921578E+04  4.258702E+05  2.038588E+04  5.715938E+03
       219   2  5.745938E+05  3.518977E+05  4.265180E+04  4.184664E+05  1.339975E+04  1.666682E+03
       219   3  5.567515E+05  3.437537E+05  3.264235E+04  4.120377E+05  6.265753E+03 -2.184729E+03
       219   4  4.824152E+05  2.949033E+05  2.725493E+04  3.719173E+05  2.101836E+04  6.189650E+03
       219   5  4.837892E+05  2.868556E+05  1.552753E+04  3.727984E+05  1.422343E+04  2.283815E+03
       219   6  4.803708E+05  2.912579E+05  1.019000E+04  3.746542E+05  7.280379E+03 -1.424373E+03
       219   7  3.771586E+05  2.172815E+05 -4.706822E+03  3.179755E+05  2.165069E+04  6.663241E+03
       219   8  3.929942E+05  2.218185E+05 -1.159750E+04  3.271381E+05  1.504694E+04  2.900820E+03
       219   9  4.039965E+05  2.387652E+05 -1.226297E+04  3.372758E+05  8.294836E+03 -6.641399E+02
       219  10  5.876845E+05  3.725325E+05  5.921494E+04  4.258701E+05  4.730644E-10  6.221921E-12
       219  11  5.745936E+05  3.518977E+05  4.265146E+04  4.184664E+05  2.115330E-10  2.707602E-10
       219  12  5.567515E+05  3.437537E+05  3.264227E+04  4.120377E+05 -2.657558E-10  1.046728E-11
       219  13  4.824147E+05  2.949031E+05  2.725403E+04  3.719172E+05 -4.598921E-10  2.313027E-10
       219  14  4.837890E+05  2.868555E+05  1.552714E+04  3.727983E+05 -5.378801E-10 -9.042550E-11
       219  15  4.803708E+05  2.912579E+05  1.018990E+04  3.746542E+05  5.509550E-10 -1.508347E-10
       219  16  3.771581E+05  2.172813E+05 -4.707785E+03  3.179754E+05 -3.620773E-10  1.431458E-10
       219  17  3.929939E+05  2.218185E+05 -1.159794E+04  3.271381E+05  6.968083E-10 -5.633044E-11
       219  18  4.039964E+05  2.387651E+05 -1.226310E+04  3.372758E+05  4.408026E-11 -3.252817E-10
       219  19  5.876849E+05  3.725327E+05  5.921578E+04  4.258702E+05 -2.038588E+04 -5.715938E+03
       219  20  5.745938E+05  3.518977E+05  4.265180E+04  4.184664E+05 -1.339975E+04 -1.666682E+03
       219  21  5.567515E+05  3.437537E+05  3.264235E+04  4.120377E+05 -6.265753E+03  2.184729E+03
       219  22  4.824152E+05  2.949033E+05  2.725493E+04  3.719173E+05 -2.101836E+04 -6.189650E+03
       219  23  4.837892E+05  2.868556E+05  1.552753E+04  3.727984E+05 -1.422343E+04 -2.283815E+03
       219  24  4.803708E+05  2.912579E+05  1.019000E+04  3.746542E+05 -7.280379E+03  1.424373E+03
       219  25  3.771586E+05  2.172815E+05 -4.706822E+03  3.179755E+05 -2.165069E+04 -6.663241E+03
       219  26  3.929942E+05  2.218185E+05 -1.159750E+04  3.271381E+05 -1.504694E+04 -2.900820E+03
       219  27  4.039965E+05  2.387652E+05 -1.226297E+04  3.372758E+05 -8.294836E+03  6.641399E+02
       220   1  5.432363E+05  3.360008E+05  2.744832E+04  4.056537E+05  4.520588E+03 -2.547053E+03
       220   2  5.312684E+05  3.204880E+05  2.186889E+04  3.965894E+05  6.518130E+02 -3.887202E+03
       220   3  5.117841E+05  3.138010E+05  1.898610E+04  3.899288E+05 -3.220158E+03 -5.223101E+03
       220   4  4.803199E+05  2.914394E+05  8.818325E+03  3.742324E+05  5.477962E+03 -1.829561E+03
       220   5  4.840872E+05  2.870420E+05  7.856048E+03  3.730195E+05  1.613552E+03 -3.166381E+03
       220   6  4.803370E+05  2.914695E+05  9.586878E+03  3.742102E+05 -2.254125E+03 -4.499009E+03
       220   7  4.174073E+05  2.468798E+05 -9.812321E+03  3.428145E+05  6.435214E+03 -1.112161E+03
       220   8  4.369083E+05  2.535973E+05 -6.157037E+03  3.494517E+05  2.575193E+03 -2.445634E+03
       220   9  4.488912E+05  2.691388E+05  1.876633E+02  3.584926E+05 -1.288168E+03 -3.774975E+03
       220  10  5.432362E+05  3.360008E+05  2.744827E+04  4.056537E+05 -5.881896E-10 -3.288607E-10
       220  11  5.312684E+05  3.204880E+05  2.186886E+04  3.965894E+05 -3.203735E-10  1.783790E-10
       220  12  5.117841E+05  3.138009E+05  1.898602E+04  3.899288E+05  1.863854E-10  3.859511E-10
       220  13  4.803199E+05  2.914394E+05  8.818262E+03  3.742325E+05  4.421179E-10 -6.690297E-12
       220  14  4.840871E+05  2.870420E+05  7.856024E+03  3.730196E+05  5.431924E-11  1.531892E-10
       220  15  4.803369E+05  2.914694E+05  9.586831E+03  3.742101E+05 -3.853097E-10  1.288950E-10
       220  16  4.174073E+05  2.468798E+05 -9.812401E+03  3.428145E+05  7.028756E-10  6.135580E-11
       220  17  4.369083E+05  2.535973E+05 -6.157060E+03  3.494517E+05 -6.053421E-10  7.041869E-11
       220  18  4.488912E+05  2.691387E+05  1.876334E+02  3.584926E+05 -1.776718E-10 -9.488642E-11
       220  19  5.432363E+05  3.360008E+05  2.744832E+04  4.056537E+05 -4.520588E+03  2.547053E+03
       220  20  5.312684E+05  3.204880E+05  2.186889E+04  3.965894E+05 -6.518130E+02  3.887202E+03
       220  21  5.117841E+05  3.138010E+05  1.898610E+04  3.899288E+05  3.220158E+03  5.223101E+03
       220  22  4.803199E+05  2.914394E+05  8.818325E+03  3.742324E+05 -5.477962E+03  1.829561E+03
       220  23  4.840872E+05  2.870420E+05  7.856048E+03  3.730195E+05 -1.613552E+03  3.166381E+03
       220  24  4.803370E+05  2.914695E+05  9.586878E+03  3.742102E+05  2.254125E+03  4.499009E+03
       220  25  4.174073E+05  2.468798E+05 -9.812321E+03  3.428145E+05 -6.435214E+03  1.112161E+03
       220  26  4.369083E+05  2.535973E+05 -6.157037E+03  3.494517E+05 -2.575193E+03  2.445634E+03
       220  27  4.488912E+05  2.691388E+05  1.876633E+02  3.584926E+05  1.288168E+03  3.774975E+03
       221   1  4.982997E+05  3.058198E+05  1.698063E+04  3.845395E+05 -5.171978E+03 -5.757792E+03
       221   2  4.875177E+05  2.886648E+05  1.891767E+04  3.742656E+05 -1.303344E+04 -1.011070E+04
       221   3  4.725603E+05  2.846387E+05  2.820407E+04  3.646875E+05 -2.083542E+04 -1.454276E+04
       221   4  4.804189E+05  2.912466E+05  1.139753E+04  3.747178E+05 -4.186541E+03 -5.019123E+03
       221   5  4.837049E+05  2.868231E+05  1.795131E+04  3.727571E+05 -1.212410E+04 -9.429100E+03
       221   6  4.828315E+05  2.955448E+05  3.192032E+04  3.714919E+05 -2.000243E+04 -1.391847E+04
       221   7  4.625385E+05  2.766737E+05  5.814387E+03  3.648964E+05 -3.201142E+03 -4.280489E+03
       221   8  4.798920E+05  2.849814E+05  1.698495E+04  3.712485E+05 -1.121476E+04 -8.747500E+03
       221   9  4.931029E+05  3.064512E+05  3.563661E+04  3.782965E+05 -1.916940E+04 -1.329415E+04
       221  10  4.982996E+05  3.058198E+05  1.698052E+04  3.845395E+05 -4.236654E-10  6.743168E-11
       221  11  4.875175E+05  2.886647E+05  1.891716E+04  3.742655E+05 -6.989496E-10 -7.574877E-11
       221  12  4.725598E+05  2.846383E+05  2.820286E+04  3.646872E+05 -2.852304E-11 -2.592798E-10
       221  13  4.804189E+05  2.912466E+05  1.139745E+04  3.747178E+05 -1.224658E-10  1.167344E-10
       221  14  4.837047E+05  2.868230E+05  1.795087E+04  3.727570E+05  1.020929E-09 -1.700705E-10
       221  15  4.828310E+05  2.955445E+05  3.191921E+04  3.714916E+05  1.835566E-10 -2.253149E-10
       221  16  4.625385E+05  2.766736E+05  5.814334E+03  3.648963E+05  4.754433E-10 -1.506178E-10
       221  17  4.798919E+05  2.849813E+05  1.698457E+04  3.712484E+05  5.622979E-10 -5.008956E-11
       221  18  4.931025E+05  3.064509E+05  3.563558E+04  3.782963E+05  3.104029E-10 -3.003614E-10
       221  19  4.982997E+05  3.058198E+05  1.698063E+04  3.845395E+05  5.171978E+03  5.757792E+03
       221  20  4.875177E+05  2.886648E+05  1.891767E+04  3.742656E+05  1.303344E+04  1.011070E+04
       221  21  4.725603E+05  2.846387E+05  2.820407E+04  3.646875E+05  2.083542E+04  1.454276E+04
       221  22  4.804189E+05  2.912466E+05  1.139753E+04  3.747178E+05  4.186541E+03  5.019123E+03
       221  23  4.837049E+05  2.868231E+05  1.795131E+04  3.727571E+05  1.212410E+04  9.429100E+03
       221  24  4.828315E+05  2.955448E+05  3.192032E+04  3.714919E+05  2.000243E+04  1.391847E+04
       221  25  4.625385E+05  2.766737E+05  5.814387E+03  3.648964E+05  3.201142E+03  4.280489E+03
       221  26  4.798920E+05  2.849814E+05  1.698495E+04  3.712485E+05  1.121476E+04  8.747500E+03
       221  27  4.931029E+05  3.064512E+05  3.563661E+04  3.782965E+05  1.916940E+04  1.329415E+04
       222   1  4.411467E+05  2.894247E+05  3.258740E+04  3.730841E+05 -2.640105E+04 -1.758253E+04
       222   2  4.591983E+05  2.353960E+05  5.578335E+04  3.414863E+05 -5.394957E+04 -3.742930E+04
       222   3  5.316906E+05  2.748923E+05  1.297770E+05  2.730336E+05 -8.019043E+04 -5.901735E+04
       222   4  4.828701E+05  2.902270E+05  4.002647E+04  3.805863E+05 -2.507277E+04 -1.658577E+04
       222   5  4.788744E+05  2.849638E+05  6.817986E+04  3.677583E+05 -5.429918E+04 -3.769423E+04
       222   6  5.296740E+05  3.735780E+05  1.485829E+05  3.180769E+05 -8.221655E+04 -6.054817E+04
       222   7  5.245955E+05  2.910298E+05  4.746555E+04  3.880884E+05 -2.374437E+04 -1.558904E+04
       222   8  4.985515E+05  3.345356E+05  8.057636E+04  3.940319E+05 -5.464879E+04 -3.795920E+04
       222   9  5.276636E+05  4.722845E+05  1.673903E+05  3.631224E+05 -8.424262E+04 -6.207958E+04
       222  10  4.411458E+05  2.894242E+05  3.258551E+04  3.730838E+05 -4.326505E-10 -4.739760E-10
       222  11  4.591948E+05  2.353937E+05  5.577526E+04  3.414847E+05 -3.780001E-10  3.395546E-11
       222  12  5.316828E+05  2.748869E+05  1.297584E+05  2.730298E+05 -1.070037E-10  1.882562E-10
       222  13  4.828693E+05  2.902266E+05  4.002477E+04  3.805860E+05  1.570141E-10 -2.317857E-10
       222  14  4.788708E+05  2.849615E+05  6.817166E+04  3.677567E+05 -3.553236E-10  8.518312E-11
       222  15  5.296658E+05  3.735723E+05  1.485633E+05  3.180729E+05 -4.106363E-10  3.368578E-10
       222  16  5.245949E+05  2.910294E+05  4.746404E+04  3.880881E+05  6.955692E-10  2.406065E-10
       222  17  4.985479E+05  3.345333E+05  8.056805E+04  3.940302E+05  1.445342E-10  7.169872E-11
       222  18  5.276549E+05  4.722784E+05  1.673697E+05  3.631181E+05 -2.629270E-10 -1.572232E-10
       222  19  4.411467E+05  2.894247E+05  3.258740E+04  3.730841E+05  2.640105E+04  1.758253E+04
       222  20  4.591983E+05  2.353960E+05  5.578335E+04  3.414863E+05  5.394957E+04  3.742930E+04
       222  21  5.316906E+05  2.748923E+05  1.297770E+05  2.730336E+05  8.019043E+04  5.901735E+04
       222  22  4.828701E+05  2.902270E+05  4.002647E+04  3.805863E+05  2.507277E+04  1.658577E+04
       222  23  4.788744E+05  2.849638E+05  6.817986E+04  3.677583E+05  5.429918E+04  3.769423E+04
       222  24  5.296740E+05  3.735780E+05  1.485829E+05  3.180769E+05  8.221655E+04  6.054817E+04
       222  25  5.245955E+05  2.910298E+05  4.746555E+04  3.880884E+05  2.374437E+04  1.558904E+04
       222  26  4.985515E+05  3.345356E+05  8.057636E+04  3.940319E+05  5.464879E+04  3.795920E+04
       222  27  5.276636E+05  4.722845E+05  1.673903E+05  3.631224E+05  8.424262E+04  6.207958E+04
       223   1  9.964868E+05  1.732643E+05  1.709599E+05  8.334638E+04  3.134920E+04 -8.113568E+03
       223   2  8.740429E+05  1.324218E+05  1.249489E+05  5.754468E+04  1.150232E+04 -2.432157E+04
       223   3  7.570751E+05  1.026560E+05  9.463271E+04  7.800470E+04 -8.335405E+03 -2.249402E+04
       223   4  3.332237E+05  8.592606E+03  1.033857E+04  7.920109E+04  7.095642E+03 -8.109174E+03
       223   5  3.320144E+05  4.968239E+01  4.737216E+03  5.606882E+04  4.589072E+03 -2.432272E+04
       223   6  3.332633E+05 -4.184022E+02  2.804569E+03  7.919998E+04  2.087401E+03 -2.249382E+04
       223   7 -3.296368E+05 -1.561109E+05 -1.503122E+05  7.506024E+04 -1.713212E+04 -8.104455E+03
       223   8 -2.097401E+05 -1.323422E+05 -1.154925E+05  5.459425E+04 -2.318218E+03 -2.432383E+04
       223   9 -9.037984E+04 -1.035046E+05 -8.903385E+04  8.039442E+04  1.250319E+04 -2.249358E+04
       223  10  9.964857E+05  1.732640E+05  1.709579E+05  8.334659E+04  2.764961E-10 -2.104947E-10
       223  11  8.740426E+05  1.324211E+05  1.249476E+05  5.754490E+04  6.323746E-11 -8.837473E-11
       223  12  7.570749E+05  1.026554E+05  9.463163E+04  7.800455E+04  2.350461E-10  1.923283E-10
       223  13  3.332236E+05  8.592522E+03  1.033835E+04  7.920114E+04 -2.993978E-11 -5.973625E-11
       223  14  3.320142E+05  4.904136E+01  4.736064E+03  5.606891E+04  4.887136E-11 -2.096796E-10
       223  15  3.332632E+05 -4.189468E+02  2.803609E+03  7.920002E+04 -1.829158E-10  3.514115E-11
       223  16 -3.296372E+05 -1.561111E+05 -1.503128E+05  7.506013E+04 -9.135354E-11 -3.009519E-10
       223  17 -2.097403E+05 -1.323428E+05 -1.154937E+05  5.459421E+04 -9.275545E-11 -2.055140E-10
       223  18 -9.038014E+04 -1.035051E+05 -8.903509E+04  8.039465E+04 -5.962368E-10 -2.050257E-10
       223  19  9.964868E+05  1.732643E+05  1.709599E+05  8.334638E+04 -3.134920E+04  8.113568E+03
       223  20  8.740429E+05  1.324218E+05  1.249489E+05  5.754468E+04 -1.150232E+04  2.432157E+04
       223  21  7.570751E+05  1.026560E+05  9.463271E+04  7.800470E+04  8.335405E+03  2.249402E+04
       223  22  3.332237E+05  8.592606E+03  1.033857E+04  7.920109E+04 -7.095642E+03  8.109174E+03
       223  23  3.320144E+05  4.968239E+01  4.737216E+03  5.606882E+04 -4.589072E+03  2.432272E+04
       223  24  3.332633E+05 -4.184022E+02  2.804569E+03  7.919998E+04 -2.087401E+03  2.249382E+04
       223  25 -3.296368E+05 -1.561109E+05 -1.503122E+05  7.506024E+04  1.713212E+04  8.104455E+03
       223  26 -2.097401E+05 -1.323422E+05 -1.154925E+05  5.459425E+04  2.318218E+03  2.432383E+04
       223  27 -9.037984E+04 -1.035046E+05 -8.903385E+04  8.039442E+04 -1.250319E+04  2.249358E+04
       224   1  6.613161E+05  8.040172E+04  7.370498E+04  7.955750E+04 -3.617613E+03 -1.699889E+04
       224   2  5.418102E+05  5.087310E+04  4.661144E+04  5.592746E+04 -5.013822E+03 -1.108407E+04
       224   3  4.226439E+05  2.192742E+04  2.057008E+04  7.930731E+04 -6.411525E+03 -4.385001E+03
       224   4  3.327765E+05  4.384379E+02  2.240895E+03  7.936633E+04  1.687975E+03 -1.699849E+04
       224   5  3.326853E+05  3.289655E+00  1.283049E+03  5.586096E+04  1.045086E+03 -1.108285E+04
       224   6  3.327915E+05  2.182347E+01  8.558146E+02  7.936643E+04  4.004540E+02 -4.382784E+03
       224   7  4.338068E+03 -7.953199E+04 -6.922955E+04  7.917525E+04  6.990793E+03 -1.699810E+04
       224   8  1.236015E+05 -5.086940E+04 -4.404780E+04  5.579447E+04  7.101982E+03 -1.108163E+04
       224   9  2.429468E+05 -2.188429E+04 -1.885877E+04  7.942555E+04  7.211460E+03 -4.380566E+03
       224  10  6.613160E+05  8.040140E+04  7.370441E+04  7.955745E+04  7.093733E-10  1.973957E-10
       224  11  5.418102E+05  5.087296E+04  4.661116E+04  5.592741E+04  4.606664E-10  2.906772E-12
       224  12  4.226438E+05  2.192739E+04  2.056996E+04  7.930728E+04  1.503689E-11 -8.248987E-11
       224  13  3.327764E+05  4.381268E+02  2.240347E+03  7.936635E+04  4.742996E-10  1.642350E-10
       224  14  3.326853E+05  3.157443E+00  1.282816E+03  5.586096E+04  6.248589E-10  2.158101E-10
       224  15  3.327915E+05  2.180280E+01  8.557782E+02  7.936644E+04  4.025910E-10 -1.058082E-10
       224  16  4.337938E+03 -7.953231E+04 -6.923018E+04  7.917535E+04 -4.436628E-10 -1.590615E-10
       224  17  1.236014E+05 -5.086954E+04 -4.404813E+04  5.579454E+04  8.595153E-11 -4.201924E-11
       224  18  2.429467E+05 -2.188432E+04 -1.885890E+04  7.942558E+04  3.825158E-11 -4.494970E-11
       224  19  6.613161E+05  8.040172E+04  7.370498E+04  7.955750E+04  3.617613E+03  1.699889E+04
       224  20  5.418102E+05  5.087310E+04  4.661144E+04  5.592746E+04  5.013822E+03  1.108407E+04
       224  21  4.226439E+05  2.192742E+04  2.057008E+04  7.930731E+04  6.411525E+03  4.385001E+03
       224  22  3.327765E+05  4.384379E+02  2.240895E+03  7.936633E+04 -1.687975E+03  1.699849E+04
       224  23  3.326853E+05  3.289655E+00  1.283049E+03  5.586096E+04 -1.045086E+03  1.108285E+04
       224  24  3.327915E+05  2.182347E+01  8.558146E+02  7.936643E+04 -4.004540E+02  4.382784E+03
       224  25  4.338068E+03 -7.953199E+04 -6.922955E+04  7.917525E+04 -6.990793E+03  1.699810E+04
       224  26  1.236015E+05 -5.086940E+04 -4.404780E+04  5.579447E+04 -7.101982E+03  1.108163E+04
       224  27  2.429468E+05 -2.188429E+04 -1.885877E+04  7.942555E+04 -7.211460E+03  4.380566E+03
       225   1  3.278708E+05 -1.196459E+03 -6.039315E+02  7.937739E+04 -6.525973E+03 -2.038636E+02
       225   2  2.085927E+05 -3.019256E+04 -2.627262E+04  5.582017E+04 -6.208867E+03  6.518516E+03
       225   3  8.928935E+04 -5.912731E+04 -5.213770E+04  7.926965E+04 -5.890749E+03  1.255833E+04
       225   4  3.327661E+05  5.212889E+01  7.454182E+02  7.936536E+04  2.572364E+02 -2.015563E+02
       225   5  3.327241E+05  1.605162E+01  6.757671E+02  5.586230E+04 -8.168685E+01  6.520147E+03
       225   6  3.327573E+05  1.559985E+02  8.655555E+02  7.936534E+04 -4.195392E+02  1.255939E+04
       225   7  3.376616E+05  1.300739E+03  2.094939E+03  7.935334E+04  7.040500E+03 -1.992492E+02
       225   8  4.568701E+05  3.022366E+04  2.762338E+04  5.590444E+04  6.046702E+03  6.521778E+03
       225   9  5.762808E+05  5.943539E+04  5.386537E+04  7.946106E+04  5.053789E+03  1.256046E+04
       225  10  3.278707E+05 -1.196470E+03 -6.040116E+02  7.937739E+04  2.326392E-10 -7.487000E-11
       225  11  2.085926E+05 -3.019262E+04 -2.627277E+04  5.582020E+04 -5.498732E-11 -1.252226E-10
       225  12  8.928927E+04 -5.912749E+04 -5.213806E+04  7.926971E+04  2.958593E-10  2.865990E-11
       225  13  3.327661E+05  5.212882E+01  7.454180E+02  7.936536E+04  2.482649E-10  2.154004E-11
       225  14  3.327241E+05  1.600596E+01  6.756871E+02  5.586230E+04 -5.330366E-10 -1.435245E-10
       225  15  3.327572E+05  1.558291E+02  8.652587E+02  7.936534E+04 -1.008161E-10 -1.636609E-10
       225  16  3.376615E+05  1.300726E+03  2.094845E+03  7.935334E+04  3.689124E-10 -1.518205E-10
       225  17  4.568700E+05  3.022361E+04  2.762323E+04  5.590440E+04  1.464590E-10 -5.016111E-12
       225  18  5.762808E+05  5.943522E+04  5.386502E+04  7.946101E+04 -2.642783E-11 -8.959135E-11
       225  19  3.278708E+05 -1.196459E+03 -6.039315E+02  7.937739E+04  6.525973E+03  2.038636E+02
       225  20  2.085927E+05 -3.019256E+04 -2.627262E+04  5.582017E+04  6.208867E+03 -6.518516E+03
       225  21  8.928935E+04 -5.912731E+04 -5.213770E+04  7.926965E+04  5.890749E+03 -1.255833E+04
       225  22  3.327661E+05  5.212889E+01  7.454182E+02  7.936536E+04 -2.572364E+02  2.015563E+02
       225  23  3.327241E+05  1.605162E+01  6.757671E+02  5.586230E+04  8.168685E+01 -6.520147E+03
       225  24  3.327573E+05  1.559985E+02  8.655555E+02  7.936534E+04  4.195392E+02 -1.255939E+04
       225  25  3.376616E+05  1.300739E+03  2.094939E+03  7.935334E+04 -7.040500E+03  1.992492E+02
       225  26  4.568701E+05  3.022366E+04  2.762338E+04  5.590444E+04 -6.046702E+03 -6.521778E+03
       225  27  5.762808E+05  5.943539E+04  5.386537E+04  7.946106E+04 -5.053789E+03 -1.256046E+04
       226   1 -5.679019E+03 -8.252159E+04 -7.244828E+04  7.956423E+04 -1.054113E+04  1.788077E+04
       226   2 -1.243326E+05 -1.116553E+05 -9.992577E+04  5.555251E+04  3.881363E+03  2.032715E+04
       226   3 -2.447811E+05 -1.408193E+05 -1.367864E+05  7.789140E+04  1.829871E+04  6.890605E+03
       226   4  3.329143E+05 -1.230323E+02  1.008701E+03  7.921920E+04 -5.726077E+02  1.788212E+04
       226   5  3.324797E+05 -3.978744E+00  1.561859E+03  5.604498E+04 -1.394804E+03  2.032584E+04
       226   6  3.328816E+05  2.731409E+03  3.317863E+03  7.921925E+04 -2.219105E+03  6.891908E+03
       226   7  6.716154E+05  8.226799E+04  7.445923E+04  7.887396E+04  9.401281E+03  1.788346E+04
       226   8  7.894867E+05  1.116332E+05  1.030366E+05  5.653780E+04 -6.674810E+03  2.032452E+04
       226   9  9.108501E+05  1.462578E+05  1.433996E+05  8.054833E+04 -2.275595E+04  6.893124E+03
       226  10 -5.679224E+03 -8.252196E+04 -7.244909E+04  7.956439E+04  1.942023E-10  6.317330E-11
       226  11 -1.243327E+05 -1.116557E+05 -9.992657E+04  5.555244E+04 -5.136888E-11  5.027175E-11
       226  12 -2.447815E+05 -1.408194E+05 -1.367871E+05  7.789130E+04  1.300414E-10 -6.961279E-11
       226  13  3.329142E+05 -1.233758E+02  1.008100E+03  7.921920E+04  5.943762E-10  2.452715E-10
       226  14  3.324796E+05 -4.422979E+00  1.561079E+03  5.604500E+04  2.300921E-10  3.476298E-10
       226  15  3.328816E+05  2.731357E+03  3.317765E+03  7.921926E+04  3.245233E-10  3.409843E-11
       226  16  6.716152E+05  8.226762E+04  7.445846E+04  7.887382E+04  4.386529E-11  1.525639E-10
       226  17  7.894865E+05  1.116328E+05  1.030357E+05  5.653791E+04 -2.272268E-10  3.977696E-10
       226  18  9.108495E+05  1.462576E+05  1.433986E+05  8.054845E+04  1.072535E-10  1.388164E-10
       226  19 -5.679019E+03 -8.252159E+04 -7.244828E+04  7.956423E+04  1.054113E+04 -1.788077E+04
       226  20 -1.243326E+05 -1.116553E+05 -9.992577E+04  5.555251E+04 -3.881363E+03 -2.032715E+04
       226  21 -2.447811E+05 -1.408193E+05 -1.367864E+05  7.789140E+04 -1.829871E+04 -6.890605E+03
       226  22  3.329143E+05 -1.230323E+02  1.008701E+03  7.921920E+04  5.726077E+02 -1.788212E+04
       226  23  3.324797E+05 -3.978744E+00  1.561859E+03  5.604498E+04  1.394804E+03 -2.032584E+04
       226  24  3.328816E+05  2.731409E+03  3.317863E+03  7.921925E+04  2.219105E+03 -6.891908E+03
       226  25  6.716154E+05  8.226799E+04  7.445923E+04  7.887396E+04 -9.401281E+03 -1.788346E+04
       226  26  7.894867E+05  1.116332E+05  1.030366E+05  5.653780E+04  6.674810E+03 -2.032452E+04
       226  27  9.108501E+05  1.462578E+05  1.433996E+05  8.054833E+04  2.275595E+04 -6.893124E+03
       227   1 -2.692138E+05 -1.000475E+06 -2.887327E+05  1.687726E+05 -6.979169E+03 -1.132841E+05
       227   2 -1.107079E+05 -8.137134E+05 -1.647506E+05  9.926682E+04 -1.942640E+04 -6.222275E+04
       227   3 -6.243397E+04 -6.611908E+05 -1.016162E+05  9.581598E+04 -1.448651E+04 -1.115602E+04
       227   4 -1.156782E+05 -3.830410E+05 -1.385722E+05  1.122968E+05 -6.955310E+03 -9.302573E+04
       227   5 -1.497652E+03 -3.673374E+05 -6.519483E+04  7.922395E+04 -1.942061E+04 -5.860806E+04
       227   6  5.387496E+03 -3.829758E+05 -4.106037E+04  1.122150E+05 -1.449841E+04 -2.420002E+04
       227   7  3.784154E+04  2.347487E+05  1.156386E+04  5.576449E+04 -6.935157E+03 -7.274723E+04
       227   8  1.077006E+05  7.922551E+04  3.434869E+04  5.916646E+04 -1.941506E+04 -5.499080E+04
       227   9  7.320491E+04 -1.046872E+05  1.949162E+04  1.286214E+05 -1.451099E+04 -3.724979E+04
       227  10 -2.692173E+05 -1.000488E+06 -2.887569E+05  1.687720E+05 -3.019396E-11 -1.458595E-10
       227  11 -1.107093E+05 -8.137177E+05 -1.647586E+05  9.926584E+04  9.925282E-10  5.435727E-10
       227  12 -6.243423E+04 -6.611910E+05 -1.016169E+05  9.581585E+04  6.406379E-10  5.578952E-10
       227  13 -1.156806E+05 -3.830503E+05 -1.385886E+05  1.122963E+05  5.116149E-11  1.559094E-10
       227  14 -1.498979E+03 -3.673412E+05 -6.520200E+04  7.922304E+04  1.462413E-10 -2.024876E-11
       227  15  5.387113E+03 -3.829765E+05 -4.106187E+04  1.122147E+05  2.585938E-10  2.419783E-10
       227  16  3.784007E+04  2.347430E+05  1.155382E+04  5.576408E+04  2.250040E-10 -7.211564E-12
       227  17  1.076994E+05  7.922216E+04  3.434230E+04  5.916560E+04 -8.960307E-10 -7.217987E-10
       227  18  7.320432E+04 -1.046888E+05  1.948862E+04  1.286209E+05  4.158822E-11 -8.727656E-10
       227  19 -2.692138E+05 -1.000475E+06 -2.887327E+05  1.687726E+05  6.979169E+03  1.132841E+05
       227  20 -1.107079E+05 -8.137134E+05 -1.647506E+05  9.926682E+04  1.942640E+04  6.222275E+04
       227  21 -6.243397E+04 -6.611908E+05 -1.016162E+05  9.581598E+04  1.448651E+04  1.115602E+04
       227  22 -1.156782E+05 -3.830410E+05 -1.385722E+05  1.122968E+05  6.955310E+03  9.302573E+04
       227  23 -1.497652E+03 -3.673374E+05 -6.519483E+04  7.922395E+04  1.942061E+04  5.860806E+04
       227  24  5.387496E+03 -3.829758E+05 -4.106037E+04  1.122150E+05  1.449841E+04  2.420002E+04
       227  25  3.784154E+04  2.347487E+05  1.156386E+04  5.576449E+04  6.935157E+03  7.274723E+04
       227  26  1.077006E+05  7.922551E+04  3.434869E+04  5.916646E+04  1.941506E+04  5.499080E+04
       227  27  7.320491E+04 -1.046872E+05  1.949162E+04  1.286214E+05  1.451099E+04  3.724979E+04
       228   1 -4.038880E+04 -5.200726E+05 -6.615437E+04  1.151222E+05 -7.261822E+03 -9.818168E+03
       228   2  6.761884E+03 -3.483995E+05 -2.028738E+04  7.915458E+04  1.415556E+03  3.160163E+03
       228   3  4.434991E+04 -1.809058E+05  1.470166E+04  1.100109E+05  1.003100E+04  1.614231E+04
       228   4 -5.500119E+03 -3.769390E+05 -3.488557E+04  1.124057E+05 -7.269714E+03 -1.816318E+04
       228   5  3.273482E+02 -3.748319E+05 -2.601539E+04  7.899229E+04  1.407851E+03 -5.124871E+03
       228   6 -3.416223E+03 -3.769409E+05 -2.806220E+04  1.124038E+05  1.002349E+04  7.913822E+03
       228   7  2.938726E+04 -2.337861E+05 -3.617732E+03  1.096885E+05 -7.277532E+03 -2.651009E+04
       228   8 -6.107197E+03 -4.012634E+05 -3.174318E+04  7.883002E+04  1.400149E+03 -1.340956E+04
       228   9 -5.118485E+04 -5.729398E+05 -7.082813E+04  1.147958E+05  1.001592E+04 -3.121039E+02
       228  10 -4.038888E+04 -5.200727E+05 -6.615465E+04  1.151222E+05  6.971525E-10 -3.466342E-10
       228  11  6.761879E+03 -3.483995E+05 -2.028741E+04  7.915457E+04  9.479729E-11  5.938763E-10
       228  12  4.434973E+04 -1.809061E+05  1.470098E+04  1.100108E+05 -1.615564E-10  3.938442E-10
       228  13 -5.500264E+03 -3.769394E+05 -3.488629E+04  1.124056E+05  7.137132E-10  1.260743E-10
       228  14  3.273390E+02 -3.748319E+05 -2.601545E+04  7.899230E+04 -2.952413E-10  8.605610E-11
       228  15 -3.416347E+03 -3.769410E+05 -2.806251E+04  1.124037E+05  2.766674E-10  4.918717E-10
       228  16  2.938701E+04 -2.337869E+05 -3.619152E+03  1.096884E+05  7.248562E-10  1.546470E-10
       228  17 -6.107248E+03 -4.012636E+05 -3.174353E+04  7.883003E+04  3.225082E-11 -6.360296E-10
       228  18 -5.118496E+04 -5.729398E+05 -7.082831E+04  1.147959E+05 -1.152182E-10 -5.098169E-10
       228  19 -4.038880E+04 -5.200726E+05 -6.615437E+04  1.151222E+05  7.261822E+03  9.818168E+03
       228  20  6.761884E+03 -3.483995E+05 -2.028738E+04  7.915458E+04 -1.415556E+03 -3.160163E+03
       228  21  4.434991E+04 -1.809058E+05  1.470166E+04  1.100109E+05 -1.003100E+04 -1.614231E+04
       228  22 -5.500119E+03 -3.769390E+05 -3.488557E+04  1.124057E+05  7.269714E+03  1.816318E+04
       228  23  3.273482E+02 -3.748319E+05 -2.601539E+04  7.899229E+04 -1.407851E+03  5.124871E+03
       228  24 -3.416223E+03 -3.769409E+05 -2.806220E+04  1.124038E+05 -1.002349E+04 -7.913822E+03
       228  25  2.938726E+04 -2.337861E+05 -3.617732E+03  1.096885E+05  7.277532E+03  2.651009E+04
       228  26 -6.107197E+03 -4.012634E+05 -3.174318E+04  7.883002E+04 -1.400149E+03  1.340956E+04
       228  27 -5.118485E+04 -5.729398E+05 -7.082813E+04  1.147958E+05 -1.001592E+04  3.121039E+02
       229   1  8.417233E+04 -4.947181E+04  4.109618E+04  1.231123E+05  1.736366E+04  2.599584E+04
       229   2  1.211284E+05  1.291198E+05  6.615754E+04  6.588905E+04  2.187980E+04  3.174359E+04
       229   3  8.974706E+04  2.899048E+05  7.039039E+04  7.463264E+04  7.670175E+03  3.750301E+04
       229   4  3.496160E+03 -3.806780E+05 -3.089279E+04  1.122023E+05  1.735191E+04  1.266813E+04
       229   5 -9.662542E+02 -3.702234E+05 -4.502945E+04  7.923984E+04  2.188508E+04  3.637964E+04
       229   6 -7.691690E+04 -3.807417E+05 -9.248757E+04  1.122530E+05  7.686184E+03  6.010050E+04
       229   7 -7.718676E+04 -7.117806E+05 -1.028876E+05  1.012982E+05  1.734061E+04 -6.525625E+02
       229   8 -1.230771E+05 -8.693336E+05 -1.562319E+05  9.257973E+04  2.189057E+04  4.101199E+04
       229   9 -2.436083E+05 -1.050973E+06 -2.553954E+05  1.498326E+05  7.704943E+03  8.267364E+04
       229  10  8.417183E+04 -4.947261E+04  4.109434E+04  1.231120E+05  1.669660E-10 -5.286721E-10
       229  11  1.211276E+05  1.291186E+05  6.615475E+04  6.588849E+04 -1.365581E-10  2.788412E-10
       229  12  8.974662E+04  2.899032E+05  7.038764E+04  7.463241E+04 -1.783531E-10  2.762741E-10
       229  13  3.495794E+03 -3.806782E+05 -3.089366E+04  1.122021E+05 -1.681649E-10  1.582544E-10
       229  14 -9.671239E+02 -3.702249E+05 -4.503284E+04  7.923920E+04 -3.172439E-10 -3.348330E-11
       229  15 -7.691794E+04 -3.807456E+05 -9.249448E+04  1.122526E+05 -4.686100E-10  2.662268E-10
       229  16 -7.718708E+04 -7.117807E+05 -1.028882E+05  1.012982E+05  2.905322E-10  1.013270E-10
       229  17 -1.230781E+05 -8.693355E+05 -1.562359E+05  9.257901E+04 -5.636061E-10 -3.712256E-10
       229  18 -2.436102E+05 -1.050981E+06 -2.554083E+05  1.498321E+05 -2.957858E-10 -3.616145E-10
       229  19  8.417233E+04 -4.947181E+04  4.109618E+04  1.231123E+05 -1.736366E+04 -2.599584E+04
       229  20  1.211284E+05  1.291198E+05  6.615754E+04  6.588905E+04 -2.187980E+04 -3.174359E+04
       229  21  8.974706E+04  2.899048E+05  7.039039E+04  7.463264E+04 -7.670175E+03 -3.750301E+04
       229  22  3.496160E+03 -3.806780E+05 -3.089279E+04  1.122023E+05 -1.735191E+04 -1.266813E+04
       229  23 -9.662542E+02 -3.702234E+05 -4.502945E+04  7.923984E+04 -2.188508E+04 -3.637964E+04
       229  24 -7.691690E+04 -3.807417E+05 -9.248757E+04  1.122530E+05 -7.686184E+03 -6.010050E+04
       229  25 -7.718676E+04 -7.117806E+05 -1.028876E+05  1.012982E+05 -1.734061E+04  6.525625E+02
       229  26 -1.230771E+05 -8.693336E+05 -1.562319E+05  9.257973E+04 -2.189057E+04 -4.101199E+04
       229  27 -2.436083E+05 -1.050973E+06 -2.553954E+05  1.498326E+05 -7.704943E+03 -8.267364E+04
       230   1  6.765838E+05  5.382751E+05  1.662334E+05  4.638618E+05  8.417869E+04  6.177100E+04
       230   2  6.565424E+05  4.132071E+05  8.379782E+04  5.013319E+05  5.538052E+04  3.727671E+04
       230   3  6.973295E+05  3.753844E+05  5.453773E+04  5.004640E+05  2.535806E+04  1.441598E+04
       230   4  6.774455E+05  4.396008E+05  1.473260E+05  4.186053E+05  8.160752E+04  5.983150E+04
       230   5  6.240056E+05  3.548258E+05  6.766223E+04  4.687653E+05  5.437449E+04  3.651983E+04
       230   6  6.310565E+05  3.569557E+05  3.981637E+04  4.805863E+05  2.591985E+04  1.483799E+04
       230   7  6.783133E+05  3.409463E+05  1.284199E+05  3.733506E+05  7.903628E+04  5.789272E+04
       230   8  5.914706E+05  2.964500E+05  5.152655E+04  4.362016E+05  5.336852E+04  3.576312E+04
       230   9  5.647895E+05  3.385278E+05  2.509507E+04  4.607101E+05  2.648154E+04  1.525998E+04
       230  10  6.765752E+05  5.382691E+05  1.662130E+05  4.638576E+05 -7.514912E-10 -1.655091E-10
       230  11  6.565387E+05  4.132048E+05  8.378946E+04  5.013303E+05  1.281126E-10  5.558394E-10
       230  12  6.973287E+05  3.753840E+05  5.453614E+04  5.004637E+05  1.924740E-10  2.856262E-10
       230  13  6.774374E+05  4.395952E+05  1.473068E+05  4.186014E+05  2.600770E-10  7.981475E-11
       230  14  6.240021E+05  3.548236E+05  6.765418E+04  4.687637E+05 -6.558925E-11  4.756719E-11
       230  15  6.310557E+05  3.569553E+05  3.981470E+04  4.805859E+05 -3.732699E-10  1.961741E-11
       230  16  6.783057E+05  3.409411E+05  1.284019E+05  3.733469E+05  3.466156E-10  3.482800E-10
       230  17  5.914672E+05  2.964478E+05  5.151881E+04  4.362000E+05  5.136510E-10  4.537888E-10
       230  18  5.647886E+05  3.385273E+05  2.509332E+04  4.607098E+05 -1.414367E-11  8.792942E-11
       230  19  6.765838E+05  5.382751E+05  1.662334E+05  4.638618E+05 -8.417869E+04 -6.177100E+04
       230  20  6.565424E+05  4.132071E+05  8.379782E+04  5.013319E+05 -5.538052E+04 -3.727671E+04
       230  21  6.973295E+05  3.753844E+05  5.453773E+04  5.004640E+05 -2.535806E+04 -1.441598E+04
       230  22  6.774455E+05  4.396008E+05  1.473260E+05  4.186053E+05 -8.160752E+04 -5.983150E+04
       230  23  6.240056E+05  3.548258E+05  6.766223E+04  4.687653E+05 -5.437449E+04 -3.651983E+04
       230  24  6.310565E+05  3.569557E+05  3.981637E+04  4.805863E+05 -2.591985E+04 -1.483799E+04
       230  25  6.783133E+05  3.409463E+05  1.284199E+05  3.733506E+05 -7.903628E+04 -5.789272E+04
       230  26  5.914706E+05  2.964500E+05  5.152655E+04  4.362016E+05 -5.336852E+04 -3.576312E+04
       230  27  5.647895E+05  3.385278E+05  2.509507E+04  4.607101E+05 -2.648154E+04 -1.525998E+04
       231   1  6.755499E+05  3.973663E+05  4.574184E+04  4.954627E+05  2.111029E+04  1.165014E+04
       231   2  6.712565E+05  3.876198E+05  3.088778E+04  4.953347E+05  1.367166E+04  6.292924E+03
       231   3  6.690697E+05  3.847348E+05  2.354910E+04  4.940926E+05  6.178702E+03  1.008329E+03
       231   4  6.310251E+05  3.622236E+05  3.182615E+04  4.715703E+05  2.120829E+04  1.172345E+04
       231   5  6.287842E+05  3.566699E+05  1.811536E+04  4.737266E+05  1.384005E+04  6.419090E+03
       231   6  6.286348E+05  3.579629E+05  1.185950E+04  4.747690E+05  6.417414E+03  1.187243E+03
       231   7  5.865026E+05  3.270822E+05  1.791020E+04  4.476799E+05  2.130628E+04  1.179676E+04
       231   8  5.863136E+05  3.257209E+05  5.342646E+03  4.521202E+05  1.400843E+04  6.545245E+03
       231   9  5.882013E+05  3.311915E+05  1.695819E+02  4.554465E+05  6.656106E+03  1.366144E+03
       231  10  6.755493E+05  3.973660E+05  4.574075E+04  4.954625E+05  2.416744E-10 -9.481304E-11
       231  11  6.712563E+05  3.876197E+05  3.088735E+04  4.953346E+05  3.833800E-10 -8.841335E-11
       231  12  6.690696E+05  3.847348E+05  2.354903E+04  4.940926E+05  7.036275E-10 -2.764909E-11
       231  13  6.310246E+05  3.622233E+05  3.182505E+04  4.715701E+05 -7.963202E-10 -1.735666E-10
       231  14  6.287840E+05  3.566698E+05  1.811492E+04  4.737266E+05 -2.894218E-10 -1.085931E-10
       231  15  6.286348E+05  3.579629E+05  1.185942E+04  4.747690E+05 -5.172232E-11 -5.314965E-10
       231  16  5.865021E+05  3.270820E+05  1.790909E+04  4.476797E+05  2.158106E-10  1.702674E-10
       231  17  5.863134E+05  3.257208E+05  5.342197E+03  4.521201E+05 -1.863383E-10 -1.933073E-10
       231  18  5.882013E+05  3.311915E+05  1.694953E+02  4.554465E+05  2.025079E-10 -5.331578E-10
       231  19  6.755499E+05  3.973663E+05  4.574184E+04  4.954627E+05 -2.111029E+04 -1.165014E+04
       231  20  6.712565E+05  3.876198E+05  3.088778E+04  4.953347E+05 -1.367166E+04 -6.292924E+03
       231  21  6.690697E+05  3.847348E+05  2.354910E+04  4.940926E+05 -6.178702E+03 -1.008329E+03
       231  22  6.310251E+05  3.622236E+05  3.182615E+04  4.715703E+05 -2.120829E+04 -1.172345E+04
       231  23  6.287842E+05  3.566699E+05  1.811536E+04  4.737266E+05 -1.384005E+04 -6.419090E+03
       231  24  6.286348E+05  3.579629E+05  1.185950E+04  4.747690E+05 -6.417414E+03 -1.187243E+03
       231  25  5.865026E+05  3.270822E+05  1.791020E+04  4.476799E+05 -2.130628E+04 -1.179676E+04
       231  26  5.863136E+05  3.257209E+05  5.342646E+03  4.521202E+05 -1.400843E+04 -6.545245E+03
       231  27  5.882013E+05  3.311915E+05  1.695819E+02  4.554465E+05 -6.656106E+03 -1.366144E+03
       232   1  6.650447E+05  3.840151E+05  2.105944E+04  4.924929E+05  4.527169E+03 -9.487847E+00
       232   2  6.620020E+05  3.801950E+05  1.883526E+04  4.904126E+05  7.552109E+02 -2.482426E+03
       232   3  6.578524E+05  3.789911E+05  1.972298E+04  4.888927E+05 -3.018806E+03 -4.952459E+03
       232   4  6.285718E+05  3.581765E+05  1.024232E+04  4.742759E+05  4.743721E+03  1.528105E+02
       232   5  6.291336E+05  3.568829E+05  9.073027E+03  4.739851E+05  9.747388E+02 -2.317890E+03
       232   6  6.285878E+05  3.582049E+05  1.101320E+04  4.742546E+05 -2.796349E+03 -4.785719E+03
       232   7  5.921008E+05  3.323389E+05 -5.748244E+02  4.560603E+05  4.960254E+03  3.150942E+02
       232   8  5.962666E+05  3.335715E+05 -6.892670E+02  4.575587E+05  1.194250E+03 -2.153367E+03
       232   9  5.993242E+05  3.374192E+05  2.303337E+03  4.596173E+05 -2.573906E+03 -4.618989E+03
       232  10  6.650447E+05  3.840151E+05  2.105940E+04  4.924929E+05  2.202221E-11 -4.311812E-10
       232  11  6.620020E+05  3.801950E+05  1.883525E+04  4.904126E+05 -1.675394E-10 -3.587360E-10
       232  12  6.578524E+05  3.789911E+05  1.972292E+04  4.888927E+05 -2.290700E-10  6.880332E-11
       232  13  6.285718E+05  3.581765E+05  1.024228E+04  4.742759E+05 -3.727538E-10 -4.924224E-10
       232  14  6.291336E+05  3.568829E+05  9.073015E+03  4.739851E+05  5.327035E-10 -2.067184E-10
       232  15  6.285878E+05  3.582049E+05  1.101315E+04  4.742546E+05  6.607656E-10  1.240180E-10
       232  16  5.921007E+05  3.323389E+05 -5.748708E+02  4.560603E+05  3.987744E-10 -1.715704E-10
       232  17  5.962666E+05  3.335715E+05 -6.892784E+02  4.575587E+05 -2.069391E-10 -5.787862E-12
       232  18  5.993242E+05  3.374192E+05  2.303284E+03  4.596173E+05  3.618046E-10  1.629547E-10
       232  19  6.650447E+05  3.840151E+05  2.105944E+04  4.924929E+05 -4.527169E+03  9.487847E+00
       232  20  6.620020E+05  3.801950E+05  1.883526E+04  4.904126E+05 -7.552109E+02  2.482426E+03
       232  21  6.578524E+05  3.789911E+05  1.972298E+04  4.888927E+05  3.018806E+03  4.952459E+03
       232  22  6.285718E+05  3.581765E+05  1.024232E+04  4.742759E+05 -4.743721E+03 -1.528105E+02
       232  23  6.291336E+05  3.568829E+05  9.073027E+03  4.739851E+05 -9.747388E+02  2.317890E+03
       232  24  6.285878E+05  3.582049E+05  1.101320E+04  4.742546E+05  2.796349E+03  4.785719E+03
       232  25  5.921008E+05  3.323389E+05 -5.748244E+02  4.560603E+05 -4.960254E+03 -3.150942E+02
       232  26  5.962666E+05  3.335715E+05 -6.892670E+02  4.575587E+05 -1.194250E+03  2.153367E+03
       232  27  5.993242E+05  3.374192E+05  2.303337E+03  4.596173E+05  2.573906E+03  4.618989E+03
       233   1  6.538648E+05  3.779706E+05  2.091189E+04  4.884234E+05 -4.820539E+03 -6.095567E+03
       233   2  6.521875E+05  3.722887E+05  2.735045E+04  4.849599E+05 -1.324286E+04 -1.204808E+04
       233   3  6.532394E+05  3.741539E+05  4.228065E+04  4.801052E+05 -2.167254E+04 -1.799104E+04
       233   4  6.286813E+05  3.579497E+05  1.307087E+04  4.748338E+05 -4.602819E+03 -5.932353E+03
       233   5  6.286960E+05  3.566331E+05  2.054638E+04  4.736853E+05 -1.301557E+04 -1.187773E+04
       233   6  6.314380E+05  3.628617E+05  3.650552E+04  4.711457E+05 -2.143562E+04 -1.781358E+04
       233   7  6.034982E+05  3.379291E+05  5.229675E+03  4.612447E+05 -4.385108E+03 -5.769148E+03
       233   8  6.052050E+05  3.409778E+05  1.374224E+04  4.624112E+05 -1.278829E+04 -1.170738E+04
       233   9  6.096374E+05  3.515698E+05  3.073041E+04  4.621865E+05 -2.119872E+04 -1.763613E+04
       233  10  6.538648E+05  3.779705E+05  2.091178E+04  4.884234E+05 -1.476577E-10  3.982395E-10
       233  11  6.521873E+05  3.722885E+05  2.734985E+04  4.849598E+05 -4.263741E-10 -2.468009E-11
       233  12  6.532388E+05  3.741535E+05  4.227916E+04  4.801049E+05 -2.742827E-10 -1.822632E-10
       233  13  6.286813E+05  3.579497E+05  1.307076E+04  4.748338E+05  2.499770E-10  3.016678E-11
       233  14  6.286957E+05  3.566329E+05  2.054579E+04  4.736852E+05 -8.489338E-10 -7.781379E-11
       233  15  6.314375E+05  3.628613E+05  3.650406E+04  4.711453E+05 -5.603097E-11 -5.024671E-11
       233  16  6.034982E+05  3.379291E+05  5.229576E+03  4.612447E+05  2.327078E-10 -1.201593E-10
       233  17  6.052048E+05  3.409776E+05  1.374168E+04  4.624111E+05  1.954213E-10 -2.074911E-10
       233  18  6.096368E+05  3.515693E+05  3.072898E+04  4.621862E+05  9.393773E-11 -1.981219E-11
       233  19  6.538648E+05  3.779706E+05  2.091189E+04  4.884234E+05  4.820539E+03  6.095567E+03
       233  20  6.521875E+05  3.722887E+05  2.735045E+04  4.849599E+05  1.324286E+04  1.204808E+04
       233  21  6.532394E+05  3.741539E+05  4.228065E+04  4.801052E+05  2.167254E+04  1.799104E+04
       233  22  6.286813E+05  3.579497E+05  1.307087E+04  4.748338E+05  4.602819E+03  5.932353E+03
       233  23  6.286960E+05  3.566331E+05  2.054638E+04  4.736853E+05  1.301557E+04  1.187773E+04
       233  24  6.314380E+05  3.628617E+05  3.650552E+04  4.711457E+05  2.143562E+04  1.781358E+04
       233  25  6.034982E+05  3.379291E+05  5.229675E+03  4.612447E+05  4.385108E+03  5.769148E+03
       233  26  6.052050E+05  3.409778E+05  1.374224E+04  4.624112E+05  1.278829E+04  1.170738E+04
       233  27  6.096374E+05  3.515698E+05  3.073041E+04  4.621865E+05  2.119872E+04  1.763613E+04
       234   1  6.287842E+05  3.877803E+05  5.067153E+04  4.954428E+05 -2.687020E+04 -2.171057E+04
       234   2  6.600684E+05  3.398796E+05  8.186520E+04  4.674943E+05 -6.028453E+04 -4.629952E+04
       234   3  7.614313E+05  3.919387E+05  1.729716E+05  3.952543E+05 -9.387133E+04 -7.065800E+04
       234   4  6.314607E+05  3.568066E+05  4.576937E+04  4.815478E+05 -2.669892E+04 -2.158078E+04
       234   5  6.232015E+05  3.544837E+05  7.795005E+04  4.679590E+05 -5.989303E+04 -4.600983E+04
       234   6  6.849678E+05  4.520708E+05  1.698545E+05  4.100798E+05 -9.325641E+04 -7.021348E+04
       234   7  6.341380E+05  3.258350E+05  4.086738E+04  4.676528E+05 -2.652763E+04 -2.145101E+04
       234   8  5.863370E+05  3.690892E+05  7.403519E+04  4.684231E+05 -5.950157E+04 -4.572012E+04
       234   9  6.085183E+05  5.122175E+05  1.667399E+05  4.249014E+05 -9.264159E+04 -6.976882E+04
       234  10  6.287833E+05  3.877796E+05  5.066929E+04  4.954424E+05 -4.231436E-10 -4.872866E-11
       234  11  6.600639E+05  3.398764E+05  8.185436E+04  4.674921E+05 -1.384393E-10  3.302326E-11
       234  12  7.614205E+05  3.919310E+05  1.729457E+05  3.952490E+05  9.587940E-11  4.131378E-11
       234  13  6.314599E+05  3.568059E+05  4.576716E+04  4.815473E+05 -7.677582E-10  6.591371E-11
       234  14  6.231971E+05  3.544805E+05  7.793935E+04  4.679568E+05 -8.939795E-10 -6.318740E-11
       234  15  6.849572E+05  4.520632E+05  1.698289E+05  4.100746E+05  1.910804E-10 -7.414598E-11
       234  16  6.341371E+05  3.258343E+05  4.086520E+04  4.676524E+05  1.181801E-10  7.141641E-11
       234  17  5.863326E+05  3.690860E+05  7.402463E+04  4.684209E+05  2.010639E-10  1.964861E-10
       234  18  6.085078E+05  5.122100E+05  1.667147E+05  4.248962E+05  9.299249E-11 -4.854675E-11
       234  19  6.287842E+05  3.877803E+05  5.067153E+04  4.954428E+05  2.687020E+04  2.171057E+04
       234  20  6.600684E+05  3.398796E+05  8.186520E+04  4.674943E+05  6.028453E+04  4.629952E+04
       234  21  7.614313E+05  3.919387E+05  1.729716E+05  3.952543E+05  9.387133E+04  7.065800E+04
       234  22  6.314607E+05  3.568066E+05  4.576937E+04  4.815478E+05  2.669892E+04  2.158078E+04
       234  23  6.232015E+05  3.544837E+05  7.795005E+04  4.679590E+05  5.989303E+04  4.600983E+04
       234  24  6.849678E+05  4.520708E+05  1.698545E+05  4.100798E+05  9.325641E+04  7.021348E+04
       234  25  6.341380E+05  3.258350E+05  4.086738E+04  4.676528E+05  2.652763E+04  2.145101E+04
       234  26  5.863370E+05  3.690892E+05  7.403519E+04  4.684231E+05  5.950157E+04  4.572012E+04
       234  27  6.085183E+05  5.122175E+05  1.667399E+05  4.249014E+05  9.264159E+04  6.976882E+04
       235   1  1.002276E+06  1.588619E+05  1.607518E+05  7.778693E+04  4.085567E+04 -6.516411E+03
       235   2  8.993330E+05  1.065702E+05  1.109705E+05  5.057470E+04  1.921729E+04 -1.949901E+04
       235   3  8.059564E+05  8.100629E+04  8.195334E+04  6.132157E+04 -2.415509E+03 -1.793357E+04
       235   4  4.678041E+05  2.617566E+04  3.131776E+04  6.497337E+04  2.137372E+04 -6.515494E+03
       235   5  4.642496E+05  3.217861E+02  1.447236E+04  4.599316E+04  1.372554E+04 -1.950021E+04
       235   6  4.678354E+05 -1.219515E+03  8.693406E+03  6.497235E+04  6.079492E+03 -1.793290E+04
       235   7 -6.640615E+04 -1.065306E+05 -9.813527E+04  5.217085E+04  1.908469E+03 -6.513774E+03
       235   8  2.934274E+04 -1.059393E+05 -8.203739E+04  4.141487E+04  8.237598E+03 -1.950133E+04
       235   9  1.298217E+05 -8.345278E+04 -6.457305E+04  6.862109E+04  1.456993E+04 -1.793212E+04
       235  10  1.002274E+06  1.588614E+05  1.607485E+05  7.778715E+04 -2.533352E-10 -3.285203E-11
       235  11  8.993325E+05  1.065697E+05  1.109691E+05  5.057500E+04 -7.378444E-10 -1.789522E-10
       235  12  8.059563E+05  8.100594E+04  8.195273E+04  6.132154E+04 -7.581978E-11 -7.672698E-11
       235  13  4.678036E+05  2.617549E+04  3.131683E+04  6.497348E+04 -2.945679E-10 -6.975854E-11
       235  14  4.642493E+05  3.213271E+02  1.447129E+04  4.599338E+04  4.217286E-10 -2.131614E-10
       235  15  4.678353E+05 -1.219871E+03  8.692732E+03  6.497243E+04 -3.328552E-12 -1.358482E-10
       235  16 -6.640616E+04 -1.065307E+05 -9.813535E+04  5.217086E+04 -2.919365E-11 -4.222199E-11
       235  17  2.934256E+04 -1.059398E+05 -8.203823E+04  4.141500E+04  1.271394E-10 -2.896491E-10
       235  18  1.298213E+05 -8.345318E+04 -6.457405E+04  6.862131E+04 -2.011262E-10 -3.161026E-10
       235  19  1.002276E+06  1.588619E+05  1.607518E+05  7.778693E+04 -4.085567E+04  6.516411E+03
       235  20  8.993330E+05  1.065702E+05  1.109705E+05  5.057470E+04 -1.921729E+04  1.949901E+04
       235  21  8.059564E+05  8.100629E+04  8.195334E+04  6.132157E+04  2.415509E+03  1.793357E+04
       235  22  4.678041E+05  2.617566E+04  3.131776E+04  6.497337E+04 -2.137372E+04  6.515494E+03
       235  23  4.642496E+05  3.217861E+02  1.447236E+04  4.599316E+04 -1.372554E+04  1.950021E+04
       235  24  4.678354E+05 -1.219515E+03  8.693406E+03  6.497235E+04 -6.079492E+03  1.793290E+04
       235  25 -6.640615E+04 -1.065306E+05 -9.813527E+04  5.217085E+04 -1.908469E+03  6.513774E+03
       235  26  2.934274E+04 -1.059393E+05 -8.203739E+04  4.141487E+04 -8.237598E+03  1.950133E+04
       235  27  1.298217E+05 -8.345278E+04 -6.457305E+04  6.862109E+04 -1.456993E+04  1.793212E+04
       236   1  7.264301E+05  6.462100E+04  6.363693E+04  6.562350E+04  4.641004E+02 -1.344770E+04
       236   2  6.282420E+05  3.941640E+04  3.956486E+04  4.599027E+04 -2.353845E+03 -8.586632E+03
       236   3  5.307978E+05  1.571005E+04  1.769785E+04  6.488657E+04 -5.172494E+03 -3.094359E+03
       236   4  4.663979E+05  1.337866E+03  7.078145E+03  6.509933E+04  4.830858E+03 -1.344714E+04
       236   5  4.660880E+05 -2.381770E+01  4.417821E+03  4.583445E+04  2.619872E+03 -8.585516E+03
       236   6  4.664080E+05  8.357686E+00  3.542339E+03  6.509966E+04  4.077503E+02 -3.092574E+03
       236   7  2.064292E+05 -6.194974E+04 -4.948462E+04  6.457538E+04  9.195812E+03 -1.344660E+04
       236   8  3.039586E+05 -3.946576E+04 -3.073069E+04  4.567867E+04  7.592308E+03 -8.584403E+03
       236   9  4.020220E+05 -1.569359E+04 -1.061331E+04  6.531274E+04  5.987423E+03 -3.090784E+03
       236  10  7.264300E+05  6.462080E+04  6.363659E+04  6.562351E+04 -1.199946E-11  4.214808E-11
       236  11  6.282420E+05  3.941632E+04  3.956471E+04  4.599025E+04  1.236378E-11  2.044443E-10
       236  12  5.307978E+05  1.571003E+04  1.769778E+04  6.488655E+04  6.550594E-10  3.355575E-11
       236  13  4.663979E+05  1.337665E+03  7.077761E+03  6.509939E+04 -3.870136E-10 -1.451532E-10
       236  14  4.660879E+05 -2.389871E+01  4.417670E+03  4.583447E+04 -3.666790E-10  3.568562E-10
       236  15  4.664080E+05  8.347369E+00  3.542321E+03  6.509966E+04  3.696003E-11  2.827725E-10
       236  16  2.064290E+05 -6.194995E+04 -4.948512E+04  6.457548E+04  3.368767E-10 -1.660377E-10
       236  17  3.039585E+05 -3.946586E+04 -3.073094E+04  4.567872E+04 -5.604779E-10 -2.104184E-10
       236  18  4.020220E+05 -1.569361E+04 -1.061339E+04  6.531275E+04  5.772393E-11  1.194842E-10
       236  19  7.264301E+05  6.462100E+04  6.363693E+04  6.562350E+04 -4.641004E+02  1.344770E+04
       236  20  6.282420E+05  3.941640E+04  3.956486E+04  4.599027E+04  2.353845E+03  8.586632E+03
       236  21  5.307978E+05  1.571005E+04  1.769785E+04  6.488657E+04  5.172494E+03  3.094359E+03
       236  22  4.663979E+05  1.337866E+03  7.078145E+03  6.509933E+04 -4.830858E+03  1.344714E+04
       236  23  4.660880E+05 -2.381770E+01  4.417821E+03  4.583445E+04 -2.619872E+03  8.585516E+03
       236  24  4.664080E+05  8.357686E+00  3.542339E+03  6.509966E+04 -4.077503E+02  3.092574E+03
       236  25  2.064292E+05 -6.194974E+04 -4.948462E+04  6.457538E+04 -9.195812E+03  1.344660E+04
       236  26  3.039586E+05 -3.946576E+04 -3.073069E+04  4.567867E+04 -7.592308E+03  8.584403E+03
       236  27  4.020220E+05 -1.569359E+04 -1.061331E+04  6.531274E+04 -5.987423E+03  3.090784E+03
       237   1  4.531406E+05 -3.254015E+03  4.055905E+02  6.530400E+04 -5.778280E+03  3.319775E+02
       237   2  3.551053E+05 -2.702452E+04 -1.984472E+04  4.569046E+04 -7.353202E+03  5.838175E+03
       237   3  2.575774E+05 -4.957689E+04 -3.876975E+04  6.460405E+04 -8.927056E+03  1.077418E+04
       237   4  4.664004E+05  1.734401E+01  3.510086E+03  6.509889E+04 -2.154452E+02  3.338101E+02
       237   5  4.661009E+05 -1.815888E+01  4.241310E+03  4.583541E+04 -2.338711E+03  5.839493E+03
       237   6  4.663934E+05  1.259618E+03  6.678024E+03  6.509856E+04 -4.461139E+03  1.077506E+04
       237   7  4.796604E+05  3.288708E+03  6.614686E+03  6.489379E+04  5.347507E+03  3.356391E+02
       237   8  5.771082E+05  2.698740E+04  2.832670E+04  4.598039E+04  2.676665E+03  5.840813E+03
       237   9  6.752502E+05  5.209325E+04  5.212326E+04  6.559324E+04  6.259283E+00  1.077595E+04
       237  10  4.531405E+05 -3.254024E+03  4.055276E+02  6.530400E+04 -5.112967E-10 -1.194613E-10
       237  11  3.551052E+05 -2.702457E+04 -1.984489E+04  4.569050E+04 -4.505306E-11  3.606451E-10
       237  12  2.575773E+05 -4.957704E+04 -3.877012E+04  6.460412E+04  1.452667E-10  1.582870E-10
       237  13  4.664004E+05  1.734388E+01  3.510086E+03  6.509889E+04  5.343826E-10 -8.039558E-12
       237  14  4.661009E+05 -1.819697E+01  4.241236E+03  4.583542E+04  5.295776E-11 -2.041506E-10
       237  15  4.663933E+05  1.259488E+03  6.677768E+03  6.509860E+04 -2.930840E-10  1.381860E-11
       237  16  4.796604E+05  3.288700E+03  6.614632E+03  6.489378E+04  2.229560E-10  9.071980E-11
       237  17  5.771082E+05  2.698736E+04  2.832663E+04  4.598037E+04  5.924525E-10  7.187734E-11
       237  18  6.752502E+05  5.209312E+04  5.212304E+04  6.559324E+04 -1.180335E-10 -1.294230E-10
       237  19  4.531406E+05 -3.254015E+03  4.055905E+02  6.530400E+04  5.778280E+03 -3.319775E+02
       237  20  3.551053E+05 -2.702452E+04 -1.984472E+04  4.569046E+04  7.353202E+03 -5.838175E+03
       237  21  2.575774E+05 -4.957689E+04 -3.876975E+04  6.460405E+04  8.927056E+03 -1.077418E+04
       237  22  4.664004E+05  1.734401E+01  3.510086E+03  6.509889E+04  2.154452E+02 -3.338101E+02
       237  23  4.661009E+05 -1.815888E+01  4.241310E+03  4.583541E+04  2.338711E+03 -5.839493E+03
       237  24  4.663934E+05  1.259618E+03  6.678024E+03  6.509856E+04  4.461139E+03 -1.077506E+04
       237  25  4.796604E+05  3.288708E+03  6.614686E+03  6.489379E+04 -5.347507E+03 -3.356391E+02
       237  26  5.771082E+05  2.698740E+04  2.832670E+04  4.598039E+04 -2.676665E+03 -5.840813E+03
       237  27  6.752502E+05  5.209325E+04  5.212326E+04  6.559324E+04 -6.259283E+00 -1.077595E+04
       238   1  1.809275E+05 -7.090913E+04 -5.403122E+04  6.838059E+04 -1.385824E+04  1.515513E+04
       238   2  8.064185E+04 -9.346127E+04 -7.167563E+04  4.168458E+04 -8.290111E+03  1.709423E+04
       238   3 -1.518032E+04 -9.549336E+04 -8.780473E+04  5.298374E+04 -2.723621E+03  5.781394E+03
       238   4  4.677343E+05 -1.128985E+03  8.170707E+03  6.498019E+04 -5.638215E+03  1.515644E+04
       238   5  4.643903E+05  3.120532E+02  1.354917E+04  4.598345E+04 -1.279602E+04  1.709306E+04
       238   6  4.677063E+05  2.447525E+04  2.927458E+04  6.497951E+04 -1.995488E+04  5.781567E+03
       238   7  7.546183E+05  6.864580E+04  7.036800E+04  6.157819E+04  2.585559E+03  1.515766E+04
       238   8  8.482762E+05  9.407550E+04  9.876489E+04  5.028501E+04 -1.730468E+04  1.709184E+04
       238   9  9.508067E+05  1.444275E+05  1.463383E+05  7.698464E+04 -3.719950E+04  5.781076E+03
       238  10  1.809272E+05 -7.090943E+04 -5.403202E+04  6.838076E+04 -2.068812E-11  2.013872E-10
       238  11  8.064170E+04 -9.346160E+04 -7.167631E+04  4.168469E+04  1.733373E-10  9.195017E-11
       238  12 -1.518034E+04 -9.549340E+04 -8.780481E+04  5.298375E+04  3.023151E-12  3.467118E-11
       238  13  4.677342E+05 -1.129240E+03  8.170215E+03  6.498026E+04  1.626100E-10  1.434942E-10
       238  14  4.643901E+05  3.116955E+02  1.354831E+04  4.598363E+04 -1.697643E-11  1.835396E-10
       238  15  4.677059E+05  2.447511E+04  2.927377E+04  6.497961E+04  1.102674E-10  3.468286E-11
       238  16  7.546182E+05  6.864556E+04  7.036756E+04  6.157816E+04  1.177666E-10 -5.850680E-11
       238  17  8.482758E+05  9.407511E+04  9.876378E+04  5.028524E+04  1.343693E-10 -1.460864E-11
       238  18  9.508052E+05  1.444271E+05  1.463356E+05  7.698481E+04 -9.008635E-11  4.288714E-11
       238  19  1.809275E+05 -7.090913E+04 -5.403122E+04  6.838059E+04  1.385824E+04 -1.515513E+04
       238  20  8.064185E+04 -9.346127E+04 -7.167563E+04  4.168458E+04  8.290111E+03 -1.709423E+04
       238  21 -1.518032E+04 -9.549336E+04 -8.780473E+04  5.298374E+04  2.723621E+03 -5.781394E+03
       238  22  4.677343E+05 -1.128985E+03  8.170707E+03  6.498019E+04  5.638215E+03 -1.515644E+04
       238  23  4.643903E+05  3.120532E+02  1.354917E+04  4.598345E+04  1.279602E+04 -1.709306E+04
       238  24  4.677063E+05  2.447525E+04  2.927458E+04  6.497951E+04  1.995488E+04 -5.781567E+03
       238  25  7.546183E+05  6.864580E+04  7.036800E+04  6.157819E+04 -2.585559E+03 -1.515766E+04
       238  26  8.482762E+05  9.407550E+04  9.876489E+04  5.028501E+04  1.730468E+04 -1.709184E+04
       238  27  9.508067E+05  1.444275E+05  1.463383E+05  7.698464E+04  3.719950E+04 -5.781076E+03
       239   1 -2.847794E+05 -1.079734E+06 -3.104005E+05  1.722807E+05 -6.381224E+03 -1.342819E+05
       239   2 -1.017781E+05 -9.055524E+05 -1.732356E+05  9.677445E+04 -1.778804E+04 -7.575877E+04
       239   3 -5.589268E+04 -7.732920E+05 -1.085014E+05  8.091634E+04 -1.336111E+04 -1.722635E+04
       239   4 -1.448501E+05 -5.170613E+05 -1.735510E+05  1.013897E+05 -6.356537E+03 -1.157749E+05
       239   5 -1.909206E+03 -4.973877E+05 -8.220287E+04  7.152105E+04 -1.778212E+04 -7.240280E+04
       239   6  6.596504E+03 -5.169897E+05 -5.271330E+04  1.013121E+05 -1.337001E+04 -2.903696E+04
       239   7 -4.924891E+03  4.591221E+04 -3.672043E+04  3.043414E+04 -6.336098E+03 -9.725118E+04
       239   8  9.795075E+04 -8.906611E+04  8.819749E+03  4.625081E+04 -1.777648E+04 -6.904463E+04
       239   9  6.908295E+04 -2.606244E+05  3.071639E+03  1.217164E+05 -1.337968E+04 -4.085238E+04
       239  10 -2.847843E+05 -1.079753E+06 -3.104345E+05  1.722800E+05 -1.228526E-10 -2.627652E-10
       239  11 -1.017799E+05 -9.055587E+05 -1.732469E+05  9.677337E+04  8.930201E-11 -4.119214E-11
       239  12 -5.589295E+04 -7.732924E+05 -1.085023E+05  8.091615E+04  4.088501E-10  3.566490E-10
       239  13 -1.448537E+05 -5.170757E+05 -1.735763E+05  1.013891E+05 -5.161327E-10  1.890906E-10
       239  14 -1.910954E+03 -4.973934E+05 -8.221333E+04  7.152001E+04  5.078919E-10 -1.780313E-10
       239  15  6.596085E+03 -5.169906E+05 -5.271522E+04  1.013118E+05 -4.988047E-10  7.439570E-10
       239  16 -4.927473E+03  4.590204E+04 -3.673828E+04  3.043364E+04 -2.403318E-10  2.651735E-10
       239  17  9.794913E+04 -8.907132E+04  8.810196E+03  4.624982E+04 -9.819027E-10 -3.618505E-10
       239  18  6.908231E+04 -2.606263E+05  3.068166E+03  1.217160E+05 -1.797262E-10 -8.152649E-10
       239  19 -2.847794E+05 -1.079734E+06 -3.104005E+05  1.722807E+05  6.381224E+03  1.342819E+05
       239  20 -1.017781E+05 -9.055524E+05 -1.732356E+05  9.677445E+04  1.778804E+04  7.575877E+04
       239  21 -5.589268E+04 -7.732920E+05 -1.085014E+05  8.091634E+04  1.336111E+04  1.722635E+04
       239  22 -1.448501E+05 -5.170613E+05 -1.735510E+05  1.013897E+05  6.356537E+03  1.157749E+05
       239  23 -1.909206E+03 -4.973877E+05 -8.220287E+04  7.152105E+04  1.778212E+04  7.240280E+04
       239  24  6.596504E+03 -5.169897E+05 -5.271330E+04  1.013121E+05  1.337001E+04  2.903696E+04
       239  25 -4.924891E+03  4.591221E+04 -3.672043E+04  3.043414E+04  6.336098E+03  9.725118E+04
       239  26  9.795075E+04 -8.906611E+04  8.819749E+03  4.625081E+04  1.777648E+04  6.904463E+04
       239  27  6.908295E+04 -2.606244E+05  3.071639E+03  1.217164E+05  1.337968E+04  4.085238E+04
       240   1 -3.964934E+04 -6.438020E+05 -7.478485E+04  1.051763E+05 -6.823199E+03 -1.367620E+04
       240   2  4.963279E+03 -4.877608E+05 -3.167140E+04  7.140671E+04  1.013679E+03  4.210887E+03
       240   3  3.635606E+04 -3.374212E+05 -3.539190E+03  9.800774E+04  8.806100E+03  2.210250E+04
       240   4 -6.918156E+03 -5.095310E+05 -4.545302E+04  1.014906E+05 -6.828855E+03 -2.120414E+04
       240   5  3.604406E+02 -5.066662E+05 -3.576893E+04  7.130423E+04  1.008093E+03 -3.273521E+03
       240   6 -5.586709E+03 -5.095321E+05 -4.109391E+04  1.014896E+05  8.800713E+03  1.465735E+04
       240   7  2.581191E+04 -3.752431E+05 -1.612205E+04  9.780399E+04 -6.834422E+03 -2.873368E+04
       240   8 -4.242391E+03 -5.255712E+05 -3.986626E+04  7.120176E+04  1.002510E+03 -1.075770E+04
       240   9 -4.753138E+04 -6.816150E+05 -7.865021E+04  1.049704E+05  8.795242E+03  7.214234E+03
       240  10 -3.964944E+04 -6.438022E+05 -7.478529E+04  1.051762E+05 -3.247327E-11 -1.031605E-10
       240  11  4.963273E+03 -4.877609E+05 -3.167144E+04  7.140670E+04 -1.075429E-10  1.788949E-10
       240  12  3.635585E+04 -3.374218E+05 -3.540254E+03  9.800759E+04  5.061000E-10  3.052374E-10
       240  13 -6.918327E+03 -5.095315E+05 -4.545395E+04  1.014904E+05  4.117777E-10  3.884053E-10
       240  14  3.604366E+02 -5.066662E+05 -3.576895E+04  7.130423E+04  1.102353E-09 -3.752266E-10
       240  15 -5.586850E+03 -5.095324E+05 -4.109446E+04  1.014895E+05  5.242496E-10  7.921182E-10
       240  16  2.581164E+04 -3.752440E+05 -1.612369E+04  9.780383E+04  1.863910E-10  4.202925E-11
       240  17 -4.242423E+03 -5.255713E+05 -3.986648E+04  7.120177E+04  7.988942E-10 -6.142306E-10
       240  18 -4.753147E+04 -6.816151E+05 -7.865045E+04  1.049703E+05  1.279414E-10 -6.977679E-10
       240  19 -3.964934E+04 -6.438020E+05 -7.478485E+04  1.051763E+05  6.823199E+03  1.367620E+04
       240  20  4.963279E+03 -4.877608E+05 -3.167140E+04  7.140671E+04 -1.013679E+03 -4.210887E+03
       240  21  3.635606E+04 -3.374212E+05 -3.539190E+03  9.800774E+04 -8.806100E+03 -2.210250E+04
       240  22 -6.918156E+03 -5.095310E+05 -4.545302E+04  1.014906E+05  6.828855E+03  2.120414E+04
       240  23  3.604406E+02 -5.066662E+05 -3.576893E+04  7.130423E+04 -1.008093E+03  3.273521E+03
       240  24 -5.586709E+03 -5.095321E+05 -4.109391E+04  1.014896E+05 -8.800713E+03 -1.465735E+04
       240  25  2.581191E+04 -3.752431E+05 -1.612205E+04  9.780399E+04  6.834422E+03  2.873368E+04
       240  26 -4.242391E+03 -5.255712E+05 -3.986626E+04  7.120176E+04 -1.002510E+03  1.075770E+04
       240  27 -4.753138E+04 -6.816150E+05 -7.865021E+04  1.049704E+05 -8.795242E+03 -7.214234E+03
       241   1  7.707416E+04 -2.213127E+05  1.774818E+04  1.181924E+05  1.542230E+04  3.368567E+04
       241   2  1.075108E+05 -5.316889E+04  3.002867E+04  5.054513E+04  1.954290E+04  5.411807E+04
       241   3  2.923480E+04  8.517486E+04  1.832172E+03  4.248367E+04  6.866431E+03  7.456249E+04
       241   4  5.387945E+03 -5.155216E+05 -4.621784E+04  1.013017E+05  1.541327E+04  2.167100E+04
       241   5 -1.570258E+03 -4.992312E+05 -6.932086E+04  7.153403E+04  1.954803E+04  5.820321E+04
       241   6 -1.200858E+05 -5.155908E+05 -1.441102E+05  1.013620E+05  6.882805E+03  9.474143E+04
       241   7 -6.630288E+04 -8.096484E+05 -1.101883E+05  8.441909E+04  1.540488E+04  9.661953E+03
       241   8 -1.106632E+05 -9.451069E+05 -1.686825E+05  9.250765E+04  1.955344E+04  6.228543E+04
       241   9 -2.694198E+05 -1.116019E+06 -2.900752E+05  1.601831E+05  6.903019E+03  1.149009E+05
       241  10  7.707360E+04 -2.213140E+05  1.774560E+04  1.181920E+05  6.270574E-10 -4.165675E-10
       241  11  1.075096E+05 -5.317214E+04  3.002245E+04  5.054428E+04 -7.246835E-11 -1.158160E-10
       241  12  2.923326E+04  8.516888E+04  1.821638E+03  4.248325E+04 -1.446570E-11  3.257253E-11
       241  13  5.387564E+03 -5.155222E+05 -4.621917E+04  1.013015E+05  7.965555E-11  4.699373E-10
       241  14 -1.571579E+03 -4.992349E+05 -6.932795E+04  7.153311E+04 -6.950652E-11 -7.666864E-11
       241  15 -1.200883E+05 -5.156005E+05 -1.441272E+05  1.013614E+05 -2.543190E-10  3.781471E-10
       241  16 -6.630316E+04 -8.096485E+05 -1.101890E+05  8.441897E+04  2.408018E-10  2.183653E-10
       241  17 -1.106646E+05 -9.451111E+05 -1.686906E+05  9.250667E+04  6.475474E-11 -4.402038E-11
       241  18 -2.694234E+05 -1.116033E+06 -2.901002E+05  1.601824E+05 -1.988349E-10 -2.478241E-10
       241  19  7.707416E+04 -2.213127E+05  1.774818E+04  1.181924E+05 -1.542230E+04 -3.368567E+04
       241  20  1.075108E+05 -5.316889E+04  3.002867E+04  5.054513E+04 -1.954290E+04 -5.411807E+04
       241  21  2.923480E+04  8.517486E+04  1.832172E+03  4.248367E+04 -6.866431E+03 -7.456249E+04
       241  22  5.387945E+03 -5.155216E+05 -4.621784E+04  1.013017E+05 -1.541327E+04 -2.167100E+04
       241  23 -1.570258E+03 -4.992312E+05 -6.932086E+04  7.153403E+04 -1.954803E+04 -5.820321E+04
       241  24 -1.200858E+05 -5.155908E+05 -1.441102E+05  1.013620E+05 -6.882805E+03 -9.474143E+04
       241  25 -6.630288E+04 -8.096484E+05 -1.101883E+05  8.441909E+04 -1.540488E+04 -9.661953E+03
       241  26 -1.106632E+05 -9.451069E+05 -1.686825E+05  9.250765E+04 -1.955344E+04 -6.228543E+04
       241  27 -2.694198E+05 -1.116019E+06 -2.900752E+05  1.601831E+05 -6.903019E+03 -1.149009E+05
       242   1  6.360371E+05  4.946608E+05  1.436726E+05  4.431936E+05  7.957545E+04  5.968038E+04
       242   2  6.217513E+05  3.786714E+05  6.642921E+04  4.839068E+05  5.160442E+04  3.864080E+04
       242   3  6.704058E+05  3.445936E+05  4.001104E+04  4.859041E+05  2.372911E+04  1.747376E+04
       242   4  6.965073E+05  4.400262E+05  1.448301E+05  4.282058E+05  7.960501E+04  5.969066E+04
       242   5  6.422165E+05  3.584438E+05  6.649767E+04  4.780318E+05  5.150345E+04  3.856238E+04
       242   6  6.508906E+05  3.587934E+05  3.909883E+04  4.891428E+05  2.350026E+04  1.730323E+04
       242   7  7.569870E+05  3.854029E+05  1.459894E+05  4.132153E+05  7.963458E+04  5.970093E+04
       242   8  6.626829E+05  3.382177E+05  6.656637E+04  4.721565E+05  5.140248E+04  3.848396E+04
       242   9  6.313763E+05  3.729939E+05  3.818677E+04  4.923813E+05  2.327141E+04  1.713268E+04
       242  10  6.360294E+05  4.946553E+05  1.436541E+05  4.431898E+05  4.255212E-10  3.176495E-11
       242  11  6.217480E+05  3.786691E+05  6.642141E+04  4.839052E+05 -6.701447E-11  2.243956E-10
       242  12  6.704051E+05  3.445931E+05  4.000942E+04  4.859038E+05  7.300588E-10  7.334397E-11
       242  13  6.964996E+05  4.400207E+05  1.448115E+05  4.282020E+05  3.985280E-10 -8.135617E-11
       242  14  6.422133E+05  3.584415E+05  6.648990E+04  4.780302E+05  5.664024E-10  9.464521E-11
       242  15  6.508899E+05  3.587929E+05  3.909723E+04  4.891425E+05 -3.660836E-10  2.726130E-11
       242  16  7.569793E+05  3.853974E+05  1.459708E+05  4.132115E+05  1.429193E-10  4.582120E-11
       242  17  6.626796E+05  3.382154E+05  6.655864E+04  4.721549E+05  2.486932E-10  1.239635E-11
       242  18  6.313756E+05  3.729935E+05  3.818520E+04  4.923809E+05 -2.670056E-10  2.012365E-10
       242  19  6.360371E+05  4.946608E+05  1.436726E+05  4.431936E+05 -7.957545E+04 -5.968038E+04
       242  20  6.217513E+05  3.786714E+05  6.642921E+04  4.839068E+05 -5.160442E+04 -3.864080E+04
       242  21  6.704058E+05  3.445936E+05  4.001104E+04  4.859041E+05 -2.372911E+04 -1.747376E+04
       242  22  6.965073E+05  4.400262E+05  1.448301E+05  4.282058E+05 -7.960501E+04 -5.969066E+04
       242  23  6.422165E+05  3.584438E+05  6.649767E+04  4.780318E+05 -5.150345E+04 -3.856238E+04
       242  24  6.508906E+05  3.587934E+05  3.909883E+04  4.891428E+05 -2.350026E+04 -1.730323E+04
       242  25  7.569870E+05  3.854029E+05  1.459894E+05  4.132153E+05 -7.963458E+04 -5.970093E+04
       242  26  6.626829E+05  3.382177E+05  6.656637E+04  4.721565E+05 -5.140248E+04 -3.848396E+04
       242  27  6.313763E+05  3.729939E+05  3.818677E+04  4.923813E+05 -2.327141E+04 -1.713268E+04
       243   1  6.544989E+05  3.700682E+05  3.292391E+04  4.837260E+05  1.936307E+04  1.399562E+04
       243   2  6.553657E+05  3.671257E+05  2.036043E+04  4.875388E+05  1.242304E+04  8.477991E+03
       243   3  6.618375E+05  3.673507E+05  1.508444E+04  4.892135E+05  5.487604E+03  2.954126E+03
       243   4  6.508747E+05  3.639553E+05  3.122728E+04  4.802740E+05  1.917183E+04  1.385216E+04
       243   5  6.468964E+05  3.602767E+05  1.770008E+04  4.829153E+05  1.222579E+04  8.330121E+03
       243   6  6.485243E+05  3.597668E+05  1.146544E+04  4.834187E+05  5.284506E+03  2.801897E+03
       243   7  6.472506E+05  3.578423E+05  2.953063E+04  4.768219E+05  1.898058E+04  1.370871E+04
       243   8  6.384272E+05  3.534277E+05  1.503972E+04  4.782920E+05  1.202855E+04  8.182255E+03
       243   9  6.352113E+05  3.521830E+05  7.846470E+03  4.776240E+05  5.081417E+03  2.649673E+03
       243  10  6.544984E+05  3.700679E+05  3.292284E+04  4.837258E+05  1.684580E-10  9.290077E-11
       243  11  6.553655E+05  3.671256E+05  2.036001E+04  4.875387E+05  4.295048E-10 -1.003283E-10
       243  12  6.618375E+05  3.673507E+05  1.508436E+04  4.892135E+05  3.145692E-10 -5.923514E-11
       243  13  6.508743E+05  3.639550E+05  3.122623E+04  4.802738E+05  5.702565E-10 -1.422744E-10
       243  14  6.468962E+05  3.602765E+05  1.769967E+04  4.829153E+05  2.420812E-10 -2.621829E-10
       243  15  6.485242E+05  3.597668E+05  1.146537E+04  4.834187E+05  2.222106E-10 -1.140136E-10
       243  16  6.472501E+05  3.578420E+05  2.952960E+04  4.768217E+05 -8.828369E-11 -3.887684E-11
       243  17  6.384270E+05  3.534276E+05  1.503932E+04  4.782919E+05  2.103451E-10 -3.456792E-10
       243  18  6.352113E+05  3.521830E+05  7.846409E+03  4.776240E+05 -1.787985E-10  4.941316E-12
       243  19  6.544989E+05  3.700682E+05  3.292391E+04  4.837260E+05 -1.936307E+04 -1.399562E+04
       243  20  6.553657E+05  3.671257E+05  2.036043E+04  4.875388E+05 -1.242304E+04 -8.477991E+03
       243  21  6.618375E+05  3.673507E+05  1.508444E+04  4.892135E+05 -5.487604E+03 -2.954126E+03
       243  22  6.508747E+05  3.639553E+05  3.122728E+04  4.802740E+05 -1.917183E+04 -1.385216E+04
       243  23  6.468964E+05  3.602767E+05  1.770008E+04  4.829153E+05 -1.222579E+04 -8.330121E+03
       243  24  6.485243E+05  3.597668E+05  1.146544E+04  4.834187E+05 -5.284506E+03 -2.801897E+03
       243  25  6.472506E+05  3.578423E+05  2.953063E+04  4.768219E+05 -1.898058E+04 -1.370871E+04
       243  26  6.384272E+05  3.534277E+05  1.503972E+04  4.782920E+05 -1.202855E+04 -8.182255E+03
       243  27  6.352113E+05  3.521830E+05  7.846470E+03  4.776240E+05 -5.081417E+03 -2.649673E+03
       244   1  6.632938E+05  3.704761E+05  1.422698E+04  4.903320E+05  4.069848E+03  1.699273E+03
       244   2  6.653571E+05  3.733205E+05  1.385006E+04  4.922158E+05  8.643984E+02 -1.031047E+03
       244   3  6.698361E+05  3.751588E+05  1.637849E+04  4.936148E+05 -2.342138E+03 -3.760000E+03
       244   4  6.484560E+05  3.599797E+05  9.813650E+03  4.829308E+05  3.867527E+03  1.547611E+03
       244   5  6.472506E+05  3.604869E+05  8.473838E+03  4.831701E+05  6.635459E+02 -1.181613E+03
       244   6  6.484605E+05  3.599877E+05  1.003816E+04  4.829247E+05 -2.541515E+03 -3.909466E+03
       244   7  6.336185E+05  3.494834E+05  5.400294E+03  4.755297E+05  3.665213E+03  1.395954E+03
       244   8  6.291444E+05  3.476535E+05  3.097548E+03  4.741247E+05  4.627002E+02 -1.332174E+03
       244   9  6.270852E+05  3.448168E+05  3.697714E+03  4.722349E+05 -2.740884E+03 -4.058926E+03
       244  10  6.632937E+05  3.704761E+05  1.422694E+04  4.903320E+05  3.373276E-10  2.954114E-10
       244  11  6.653571E+05  3.733205E+05  1.385005E+04  4.922158E+05 -4.343833E-10 -1.813681E-10
       244  12  6.698361E+05  3.751588E+05  1.637845E+04  4.936148E+05 -4.007695E-10 -2.298734E-10
       244  13  6.484560E+05  3.599797E+05  9.813618E+03  4.829308E+05  1.124937E-11  8.519301E-12
       244  14  6.472506E+05  3.604869E+05  8.473835E+03  4.831701E+05  2.569292E-11 -2.493210E-10
       244  15  6.484605E+05  3.599877E+05  1.003812E+04  4.829247E+05 -9.128892E-11 -2.782548E-10
       244  16  6.336185E+05  3.494834E+05  5.400265E+03  4.755297E+05 -6.546585E-10 -2.687221E-10
       244  17  6.291444E+05  3.476535E+05  3.097545E+03  4.741247E+05 -3.435774E-10 -2.977422E-10
       244  18  6.270852E+05  3.448167E+05  3.697669E+03  4.722349E+05  7.071209E-11 -9.470027E-11
       244  19  6.632938E+05  3.704761E+05  1.422698E+04  4.903320E+05 -4.069848E+03 -1.699273E+03
       244  20  6.653571E+05  3.733205E+05  1.385006E+04  4.922158E+05 -8.643984E+02  1.031047E+03
       244  21  6.698361E+05  3.751588E+05  1.637849E+04  4.936148E+05  2.342138E+03  3.760000E+03
       244  22  6.484560E+05  3.599797E+05  9.813650E+03  4.829308E+05 -3.867527E+03 -1.547611E+03
       244  23  6.472506E+05  3.604869E+05  8.473838E+03  4.831701E+05 -6.635459E+02  1.181613E+03
       244  24  6.484605E+05  3.599877E+05  1.003816E+04  4.829247E+05  2.541515E+03  3.909466E+03
       244  25  6.336185E+05  3.494834E+05  5.400294E+03  4.755297E+05 -3.665213E+03 -1.395954E+03
       244  26  6.291444E+05  3.476535E+05  3.097548E+03  4.741247E+05 -4.627002E+02  1.332174E+03
       244  27  6.270852E+05  3.448168E+05  3.697714E+03  4.722349E+05  2.740884E+03  4.058926E+03
       245   1  6.714269E+05  3.779088E+05  1.895983E+04  4.957617E+05 -3.780594E+03 -5.037623E+03
       245   2  6.747176E+05  3.791110E+05  2.653182E+04  4.964004E+05 -1.106388E+04 -1.080642E+04
       245   3  6.838203E+05  3.836865E+05  4.173918E+04  4.948179E+05 -1.838584E+04 -1.652360E+04
       245   4  6.485397E+05  3.597605E+05  1.181825E+04  4.834371E+05 -3.995353E+03 -5.198608E+03
       245   5  6.468675E+05  3.602679E+05  1.840807E+04  4.829041E+05 -1.122865E+04 -1.092997E+04
       245   6  6.509966E+05  3.641381E+05  3.259029E+04  4.801500E+05 -1.850059E+04 -1.660974E+04
       245   7  6.256533E+05  3.416128E+05  4.676691E+03  4.711131E+05 -4.210098E+03 -5.359582E+03
       245   8  6.190183E+05  3.414254E+05  1.028428E+04  4.694086E+05 -1.139342E+04 -1.105351E+04
       245   9  6.181741E+05  3.445901E+05  2.344131E+04  4.654830E+05 -1.861533E+04 -1.669589E+04
       245  10  6.714269E+05  3.779088E+05  1.895976E+04  4.957617E+05 -2.451975E-10 -1.638052E-10
       245  11  6.747175E+05  3.791109E+05  2.653137E+04  4.964003E+05 -2.282564E-10  2.993374E-10
       245  12  6.838199E+05  3.836861E+05  4.173803E+04  4.948177E+05  1.796691E-10  1.782971E-10
       245  13  6.485397E+05  3.597605E+05  1.181817E+04  4.834371E+05  2.500042E-10 -7.764792E-11
       245  14  6.468673E+05  3.602678E+05  1.840760E+04  4.829040E+05  5.073526E-10  2.003786E-10
       245  15  6.509962E+05  3.641377E+05  3.258913E+04  4.801498E+05 -5.519191E-12  2.209588E-10
       245  16  6.256533E+05  3.416128E+05  4.676604E+03  4.711131E+05  3.315551E-10  1.335571E-10
       245  17  6.190181E+05  3.414252E+05  1.028380E+04  4.694085E+05  1.304041E-10 -5.234920E-11
       245  18  6.181736E+05  3.445897E+05  2.344014E+04  4.654827E+05 -4.925477E-10  2.344677E-10
       245  19  6.714269E+05  3.779088E+05  1.895983E+04  4.957617E+05  3.780594E+03  5.037623E+03
       245  20  6.747176E+05  3.791110E+05  2.653182E+04  4.964004E+05  1.106388E+04  1.080642E+04
       245  21  6.838203E+05  3.836865E+05  4.173918E+04  4.948179E+05  1.838584E+04  1.652360E+04
       245  22  6.485397E+05  3.597605E+05  1.181825E+04  4.834371E+05  3.995353E+03  5.198608E+03
       245  23  6.468675E+05  3.602679E+05  1.840807E+04  4.829041E+05  1.122865E+04  1.092997E+04
       245  24  6.509966E+05  3.641381E+05  3.259029E+04  4.801500E+05  1.850059E+04  1.660974E+04
       245  25  6.256533E+05  3.416128E+05  4.676691E+03  4.711131E+05  4.210098E+03  5.359582E+03
       245  26  6.190183E+05  3.414254E+05  1.028428E+04  4.694086E+05  1.139342E+04  1.105351E+04
       245  27  6.181741E+05  3.445901E+05  2.344131E+04  4.654830E+05  1.861533E+04  1.669589E+04
       246   1  6.671826E+05  3.995023E+05  5.072968E+04  5.110726E+05 -2.251580E+04 -1.995885E+04
       246   2  6.998596E+05  3.630586E+05  8.060920E+04  4.898493E+05 -5.311265E+04 -4.271472E+04
       246   3  7.985280E+05  4.125709E+05  1.646866E+05  4.281762E+05 -8.457793E+04 -6.431323E+04
       246   4  6.510079E+05  3.587491E+05  4.083287E+04  4.894235E+05 -2.295983E+04 -2.029067E+04
       246   5  6.419807E+05  3.583431E+05  6.949381E+04  4.777971E+05 -5.244373E+04 -4.221627E+04
       246   6  6.987015E+05  4.436534E+05  1.513915E+05  4.257218E+05 -8.279252E+04 -6.298793E+04
       246   7  6.348338E+05  3.179985E+05  3.093599E+04  4.677753E+05 -2.340385E+04 -2.062244E+04
       246   8  5.841062E+05  3.536281E+05  5.837852E+04  4.657452E+05 -5.177490E+04 -4.171782E+04
       246   9  5.988934E+05  4.747434E+05  1.380985E+05  4.232644E+05 -8.100756E+04 -6.166241E+04
       246  10  6.671820E+05  3.995017E+05  5.072798E+04  5.110722E+05  1.553753E-10  3.846588E-11
       246  11  6.998561E+05  3.630559E+05  8.060048E+04  4.898475E+05  2.156690E-10  2.532738E-10
       246  12  7.985193E+05  4.125645E+05  1.646654E+05  4.281719E+05  3.596740E-10  2.910358E-10
       246  13  6.510072E+05  3.587486E+05  4.083111E+04  4.894231E+05  2.432652E-10  3.023687E-10
       246  14  6.419772E+05  3.583404E+05  6.948530E+04  4.777953E+05 -2.894188E-10  2.107173E-10
       246  15  6.986930E+05  4.436473E+05  1.513712E+05  4.257176E+05  6.021585E-10  1.948070E-10
       246  16  6.348331E+05  3.179979E+05  3.093416E+04  4.677749E+05 -9.982856E-11  4.358294E-10
       246  17  5.841029E+05  3.536255E+05  5.837023E+04  4.657435E+05 -5.061461E-11  2.651538E-10
       246  18  5.988853E+05  4.747376E+05  1.380790E+05  4.232603E+05 -1.952521E-10 -1.195066E-10
       246  19  6.671826E+05  3.995023E+05  5.072968E+04  5.110726E+05  2.251580E+04  1.995885E+04
       246  20  6.998596E+05  3.630586E+05  8.060920E+04  4.898493E+05  5.311265E+04  4.271472E+04
       246  21  7.985280E+05  4.125709E+05  1.646866E+05  4.281762E+05  8.457793E+04  6.431323E+04
       246  22  6.510079E+05  3.587491E+05  4.083287E+04  4.894235E+05  2.295983E+04  2.029067E+04
       246  23  6.419807E+05  3.583431E+05  6.949381E+04  4.777971E+05  5.244373E+04  4.221627E+04
       246  24  6.987015E+05  4.436534E+05  1.513915E+05  4.257218E+05  8.279252E+04  6.298793E+04
       246  25  6.348338E+05  3.179985E+05  3.093599E+04  4.677753E+05  2.340385E+04  2.062244E+04
       246  26  5.841062E+05  3.536281E+05  5.837852E+04  4.657452E+05  5.177490E+04  4.171782E+04
       246  27  5.988934E+05  4.747434E+05  1.380985E+05  4.232644E+05  8.100756E+04  6.166241E+04
       247   1  7.535251E+05  1.032434E+05  1.021389E+05  5.125727E+04  1.931555E+04 -4.745140E+03
       247   2  6.790289E+05  7.739338E+04  7.379732E+04  3.520416E+04  7.213290E+03 -1.417900E+04
       247   3  6.080683E+05  5.923243E+04  5.525631E+04  4.728060E+04 -4.886431E+03 -1.297635E+04
       247   4  3.633164E+05  6.347403E+03  7.613912E+03  4.815089E+04  5.138393E+03 -4.744495E+03
       247   5  3.624441E+05  6.673642E+01  3.560385E+03  3.408578E+04  3.258423E+03 -1.417963E+04
       247   6  3.633311E+05 -2.957092E+02  2.215816E+03  4.815080E+04  1.379509E+03 -1.297589E+04
       247   7 -2.675294E+04 -9.055963E+04 -8.692123E+04  4.504647E+04 -9.029887E+03 -4.743708E+03
       247   8  4.595278E+04 -7.726666E+04 -6.668271E+04  3.296798E+04 -6.944522E+02 -1.418024E+04
       247   9  1.186501E+05 -5.982778E+04 -5.082809E+04  4.902064E+04  7.643014E+03 -1.297542E+04
       247  10  7.535247E+05  1.032433E+05  1.021381E+05  5.125735E+04 -3.744874E-11 -1.657682E-11
       247  11  6.790288E+05  7.739315E+04  7.379684E+04  3.520425E+04 -2.105264E-10  7.911175E-11
       247  12  6.080682E+05  5.923224E+04  5.525594E+04  4.728055E+04  2.741433E-10 -1.218140E-10
       247  13  3.633163E+05  6.347371E+03  7.613820E+03  4.815091E+04  1.263522E-11  8.531492E-11
       247  14  3.624440E+05  6.651763E+01  3.559987E+03  3.408582E+04  8.692578E-11  1.585080E-10
       247  15  3.633311E+05 -2.958905E+02  2.215496E+03  4.815081E+04 -4.818654E-11 -1.181865E-10
       247  16 -2.675303E+04 -9.055968E+04 -8.692143E+04  4.504643E+04  2.807305E-10  6.455039E-11
       247  17  4.595273E+04 -7.726687E+04 -6.668309E+04  3.296797E+04  3.405685E-10  2.523008E-10
       247  18  1.186500E+05 -5.982798E+04 -5.082851E+04  4.902072E+04  1.414022E-10 -1.265485E-10
       247  19  7.535251E+05  1.032434E+05  1.021389E+05  5.125727E+04 -1.931555E+04  4.745140E+03
       247  20  6.790289E+05  7.739338E+04  7.379732E+04  3.520416E+04 -7.213290E+03  1.417900E+04
       247  21  6.080683E+05  5.923243E+04  5.525631E+04  4.728060E+04  4.886431E+03  1.297635E+04
       247  22  3.633164E+05  6.347403E+03  7.613912E+03  4.815089E+04 -5.138393E+03  4.744495E+03
       247  23  3.624441E+05  6.673642E+01  3.560385E+03  3.408578E+04 -3.258423E+03  1.417963E+04
       247  24  3.633311E+05 -2.957092E+02  2.215816E+03  4.815080E+04 -1.379509E+03  1.297589E+04
       247  25 -2.675294E+04 -9.055963E+04 -8.692123E+04  4.504647E+04  9.029887E+03  4.743708E+03
       247  26  4.595278E+04 -7.726666E+04 -6.668271E+04  3.296798E+04  6.944522E+02  1.418024E+04
       247  27  1.186501E+05 -5.982778E+04 -5.082809E+04  4.902064E+04 -7.643014E+03  1.297542E+04
       248   1  5.498483E+05  4.581052E+04  4.251355E+04  4.839458E+04 -2.195644E+03 -9.662794E+03
       248   2  4.772103E+05  2.780376E+04  2.611082E+04  3.401999E+04 -3.301989E+03 -6.049909E+03
       248   3  4.048280E+05  1.023734E+04  1.053662E+04  4.820916E+04 -4.408792E+03 -1.975805E+03
       248   4  3.629839E+05  3.264385E+02  1.860743E+03  4.824724E+04  1.053458E+03 -9.662442E+03
       248   5  3.629000E+05 -4.102226E+00  1.327604E+03  3.396523E+04  3.901245E+02 -6.049256E+03
       248   6  3.629889E+05  2.893036E+01  1.315521E+03  4.824729E+04 -2.738001E+02 -1.974794E+03
       248   7  1.761522E+05 -4.515996E+04 -3.879411E+04  4.809994E+04  4.301596E+03 -9.662090E+03
       248   8  2.486019E+05 -2.781282E+04 -2.345634E+04  3.391047E+04  4.081567E+03 -6.048604E+03
       248   9  3.211514E+05 -1.017959E+04 -7.905620E+03  4.828542E+04  3.860916E+03 -1.973783E+03
       248  10  5.498482E+05  4.581042E+04  4.251336E+04  4.839456E+04 -1.159479E-10 -2.647029E-10
       248  11  4.772103E+05  2.780372E+04  2.611073E+04  3.401997E+04  3.408114E-10 -1.458198E-10
       248  12  4.048280E+05  1.023733E+04  1.053658E+04  4.820916E+04  5.397670E-11 -1.517484E-10
       248  13  3.629838E+05  3.263379E+02  1.860565E+03  4.824724E+04 -2.356029E-10 -2.605001E-10
       248  14  3.629000E+05 -4.141569E+00  1.327535E+03  3.396523E+04  5.048299E-10 -2.602508E-10
       248  15  3.629889E+05  2.892615E+01  1.315514E+03  4.824729E+04 -2.843839E-11 -1.865143E-10
       248  16  1.761522E+05 -4.516006E+04 -3.879432E+04  4.809997E+04 -9.202937E-12 -2.806391E-10
       248  17  2.486019E+05 -2.781287E+04 -2.345644E+04  3.391049E+04 -2.743140E-10 -4.425999E-10
       248  18  3.211514E+05 -1.017960E+04 -7.905655E+03  4.828542E+04  6.603886E-10  8.309162E-11
       248  19  5.498483E+05  4.581052E+04  4.251355E+04  4.839458E+04  2.195644E+03  9.662794E+03
       248  20  4.772103E+05  2.780376E+04  2.611082E+04  3.401999E+04  3.301989E+03  6.049909E+03
       248  21  4.048280E+05  1.023734E+04  1.053662E+04  4.820916E+04  4.408792E+03  1.975805E+03
       248  22  3.629839E+05  3.264385E+02  1.860743E+03  4.824724E+04 -1.053458E+03  9.662442E+03
       248  23  3.629000E+05 -4.102226E+00  1.327604E+03  3.396523E+04 -3.901245E+02  6.049256E+03
       248  24  3.629889E+05  2.893036E+01  1.315521E+03  4.824729E+04  2.738001E+02  1.974794E+03
       248  25  1.761522E+05 -4.515996E+04 -3.879411E+04  4.809994E+04 -4.301596E+03  9.662090E+03
       248  26  2.486019E+05 -2.781282E+04 -2.345634E+04  3.391047E+04 -4.081567E+03  6.048604E+03
       248  27  3.211514E+05 -1.017959E+04 -7.905620E+03  4.828542E+04 -3.860916E+03  1.973783E+03
       249   1  3.472846E+05 -3.867649E+03 -2.129560E+03  4.836902E+04 -4.644397E+03  5.648383E+02
       249   2  2.746731E+05 -2.146530E+04 -1.707022E+04  3.389430E+04 -5.266328E+03  4.646143E+03
       249   3  2.022971E+05 -3.843360E+04 -3.145144E+04  4.798282E+04 -5.887724E+03  8.297404E+03
       249   4  3.630182E+05 -6.637643E+00  1.448477E+03  4.824706E+04 -5.183042E+02  5.658669E+02
       249   5  3.628646E+05 -6.097583E+00  2.065259E+03  3.396551E+04 -1.553523E+03  4.646873E+03
       249   6  3.630141E+05  6.960134E+02  3.528693E+03  4.824692E+04 -2.588283E+03  8.297882E+03
       249   7  3.787520E+05  3.854365E+03  5.026562E+03  4.812510E+04  3.607892E+03  5.668938E+02
       249   8  4.510633E+05  2.145259E+04  2.120033E+04  3.403672E+04  2.159802E+03  4.647603E+03
       249   9  5.237554E+05  3.982392E+04  3.850732E+04  4.851109E+04  7.120010E+02  8.298362E+03
       249  10  3.472846E+05 -3.867655E+03 -2.129601E+03  4.836902E+04  3.488831E-10  1.741797E-10
       249  11  2.746731E+05 -2.146533E+04 -1.707032E+04  3.389432E+04 -4.405600E-10  9.298168E-11
       249  12  2.022970E+05 -3.843368E+04 -3.145164E+04  4.798286E+04 -2.035598E-10  4.606449E-11
       249  13  3.630182E+05 -6.638059E+00  1.448476E+03  4.824706E+04  5.385621E-10  1.067160E-11
       249  14  3.628646E+05 -6.121422E+00  2.065214E+03  3.396551E+04 -3.750721E-10  7.008076E-11
       249  15  3.630141E+05  6.959377E+02  3.528551E+03  4.824694E+04 -3.032988E-10  1.597682E-10
       249  16  3.787520E+05  3.854362E+03  5.026537E+03  4.812510E+04 -2.463331E-10 -3.210103E-12
       249  17  4.510633E+05  2.145257E+04  2.120028E+04  3.403672E+04 -2.731203E-11 -1.420105E-10
       249  18  5.237554E+05  3.982384E+04  3.850719E+04  4.851108E+04  1.331837E-10  3.972782E-12
       249  19  3.472846E+05 -3.867649E+03 -2.129560E+03  4.836902E+04  4.644397E+03 -5.648383E+02
       249  20  2.746731E+05 -2.146530E+04 -1.707022E+04  3.389430E+04  5.266328E+03 -4.646143E+03
       249  21  2.022971E+05 -3.843360E+04 -3.145144E+04  4.798282E+04  5.887724E+03 -8.297404E+03
       249  22  3.630182E+05 -6.637643E+00  1.448477E+03  4.824706E+04  5.183042E+02 -5.658669E+02
       249  23  3.628646E+05 -6.097583E+00  2.065259E+03  3.396551E+04  1.553523E+03 -4.646873E+03
       249  24  3.630141E+05  6.960134E+02  3.528693E+03  4.824692E+04  2.588283E+03 -8.297882E+03
       249  25  3.787520E+05  3.854365E+03  5.026562E+03  4.812510E+04 -3.607892E+03 -5.668938E+02
       249  26  4.510633E+05  2.145259E+04  2.120033E+04  3.403672E+04 -2.159802E+03 -4.647603E+03
       249  27  5.237554E+05  3.982392E+04  3.850732E+04  4.851109E+04 -7.120010E+02 -8.298362E+03
       250   1  1.452170E+05 -5.379672E+04 -4.300348E+04  5.003478E+04 -9.338326E+03  1.155747E+04
       250   2  7.153477E+04 -7.078813E+04 -5.706907E+04  3.171434E+04 -3.679154E+03  1.295152E+04
       250   3 -1.349479E+02 -7.691777E+04 -7.209738E+04  4.154921E+04  1.978824E+03  4.370524E+03
       250   4  3.637574E+05 -6.221829E+02  4.391899E+03  4.815616E+04 -3.213177E+03  1.155816E+04
       250   5  3.619159E+05  1.718049E+02  7.414551E+03  3.407899E+04 -7.131875E+03  1.295088E+04
       250   6  3.637425E+05  1.348730E+04  1.612289E+04  4.815590E+04 -1.105114E+04  4.370713E+03
       250   7  5.823428E+05  5.254923E+04  5.178458E+04  4.627686E+04  2.914099E+03  1.155882E+04
       250   8  6.523758E+05  7.112607E+04  7.189297E+04  3.644476E+04 -1.058619E+04  1.295021E+04
       250   9  7.277413E+05  1.038829E+05  1.043343E+05  5.476648E+04 -2.408872E+04  4.370625E+03
       250  10  1.452168E+05 -5.379688E+04 -4.300390E+04  5.003487E+04  3.978844E-10  6.183331E-11
       250  11  7.153472E+04 -7.078831E+04 -5.706941E+04  3.171438E+04 -8.480441E-12 -9.617421E-11
       250  12 -1.349572E+02 -7.691779E+04 -7.209742E+04  4.154920E+04 -1.145999E-11 -2.330124E-12
       250  13  3.637574E+05 -6.223291E+02  4.391629E+03  4.815619E+04  1.558704E-10 -1.772800E-11
       250  14  3.619158E+05  1.716111E+02  7.414140E+03  3.407907E+04  7.018451E-11 -1.281123E-10
       250  15  3.637424E+05  1.348724E+04  1.612262E+04  4.815594E+04  7.304788E-11 -9.450877E-11
       250  16  5.823428E+05  5.254908E+04  5.178431E+04  4.627683E+04  8.227367E-11  2.190781E-10
       250  17  6.523756E+05  7.112586E+04  7.189245E+04  3.644487E+04 -1.840571E-10 -2.218504E-10
       250  18  7.277407E+05  1.038827E+05  1.043331E+05  5.476656E+04  2.754746E-10 -1.614858E-10
       250  19  1.452170E+05 -5.379672E+04 -4.300348E+04  5.003478E+04  9.338326E+03 -1.155747E+04
       250  20  7.153477E+04 -7.078813E+04 -5.706907E+04  3.171434E+04  3.679154E+03 -1.295152E+04
       250  21 -1.349479E+02 -7.691777E+04 -7.209738E+04  4.154921E+04 -1.978824E+03 -4.370524E+03
       250  22  3.637574E+05 -6.221829E+02  4.391899E+03  4.815616E+04  3.213177E+03 -1.155816E+04
       250  23  3.619159E+05  1.718049E+02  7.414551E+03  3.407899E+04  7.131875E+03 -1.295088E+04
       250  24  3.637425E+05  1.348730E+04  1.612289E+04  4.815590E+04  1.105114E+04 -4.370713E+03
       250  25  5.823428E+05  5.254923E+04  5.178458E+04  4.627686E+04 -2.914099E+03 -1.155882E+04
       250  26  6.523758E+05  7.112607E+04  7.189297E+04  3.644476E+04  1.058619E+04 -1.295021E+04
       250  27  7.277413E+05  1.038829E+05  1.043343E+05  5.476648E+04  2.408872E+04 -4.370625E+03
       251   1 -2.652207E+05 -9.729279E+05 -2.889784E+05  1.589279E+05 -5.986325E+03 -1.243224E+05
       251   2 -9.587295E+04 -8.127905E+05 -1.623558E+05  8.919611E+04 -1.678585E+04 -6.976142E+04
       251   3 -5.370123E+04 -6.915592E+05 -1.030893E+05  7.421348E+04 -1.279781E+04 -1.519153E+04
       251   4 -1.342917E+05 -4.464462E+05 -1.609601E+05  9.314018E+04 -5.966137E+03 -1.068979E+05
       251   5 -1.778182E+03 -4.281987E+05 -7.660946E+04  6.573171E+04 -1.678088E+04 -6.649049E+04
       251   6  6.060298E+03 -4.463868E+05 -4.974264E+04  9.308237E+04 -1.280471E+04 -2.608757E+04
       251   7 -3.366565E+03  8.029882E+04 -3.295837E+04  2.729638E+04 -5.949659E+03 -8.945857E+04
       251   8  9.230862E+04 -4.346756E+04  9.127923E+03  4.225259E+04 -1.677615E+04 -6.321755E+04
       251   9  6.581923E+04 -2.011569E+05  3.601086E+03  1.119588E+05 -1.281226E+04 -3.698785E+04
       251  10 -2.652249E+05 -9.729445E+05 -2.890076E+05  1.589273E+05 -2.914055E-10 -4.728848E-10
       251  11 -9.587456E+04 -8.127958E+05 -1.623655E+05  8.919516E+04 -1.078775E-09  2.236474E-10
       251  12 -5.370147E+04 -6.915595E+05 -1.030901E+05  7.421332E+04  5.500083E-11  2.350086E-10
       251  13 -1.342948E+05 -4.464585E+05 -1.609817E+05  9.313967E+04 -2.741361E-10 -3.419253E-11
       251  14 -1.779672E+03 -4.282035E+05 -7.661830E+04  6.573081E+04 -3.546623E-10  3.662373E-10
       251  15  6.059939E+03 -4.463875E+05 -4.974423E+04  9.308210E+04 -2.729817E-10  9.395652E-11
       251  16 -3.368751E+03  8.029022E+04 -3.297348E+04  2.729595E+04 -2.280738E-10  4.362269E-10
       251  17  9.230725E+04 -4.347193E+04  9.119884E+03  4.225173E+04 -8.000656E-10  2.295772E-10
       251  18  6.581869E+04 -2.011584E+05  3.598207E+03  1.119584E+05 -9.322356E-11 -3.330451E-10
       251  19 -2.652207E+05 -9.729279E+05 -2.889784E+05  1.589279E+05  5.986325E+03  1.243224E+05
       251  20 -9.587295E+04 -8.127905E+05 -1.623558E+05  8.919611E+04  1.678585E+04  6.976142E+04
       251  21 -5.370123E+04 -6.915592E+05 -1.030893E+05  7.421348E+04  1.279781E+04  1.519153E+04
       251  22 -1.342917E+05 -4.464462E+05 -1.609601E+05  9.314018E+04  5.966137E+03  1.068979E+05
       251  23 -1.778182E+03 -4.281987E+05 -7.660946E+04  6.573171E+04  1.678088E+04  6.649049E+04
       251  24  6.060298E+03 -4.463868E+05 -4.974264E+04  9.308237E+04  1.280471E+04  2.608757E+04
       251  25 -3.366565E+03  8.029882E+04 -3.295837E+04  2.729638E+04  5.949659E+03  8.945857E+04
       251  26  9.230862E+04 -4.346756E+04  9.127923E+03  4.225259E+04  1.677615E+04  6.321755E+04
       251  27  6.581923E+04 -2.011569E+05  3.601086E+03  1.119588E+05  1.281226E+04  3.698785E+04
       252   1 -3.883748E+04 -5.726625E+05 -7.239270E+04  9.682709E+04 -6.776831E+03 -1.175392E+04
       252   2  2.164359E+03 -4.292052E+05 -3.365719E+04  6.556242E+04  4.054214E+02  5.918203E+03
       252   3  3.010722E+04 -2.913634E+05 -9.716082E+03  8.972371E+04  7.569965E+03  2.359429E+04
       252   4 -6.389133E+03 -4.395383E+05 -4.332309E+04  9.324568E+04 -6.781202E+03 -1.864362E+04
       252   5  3.348951E+02 -4.367200E+05 -3.528588E+04  6.553215E+04  4.010555E+02 -9.535893E+02
       252   6 -6.001749E+03 -4.395388E+05 -4.205351E+04  9.324544E+04  7.565741E+03  1.673653E+04
       252   7  2.605811E+04 -3.063974E+05 -1.425436E+04  8.966350E+04 -6.785494E+03 -2.553478E+04
       252   8 -1.494547E+03 -4.442348E+05 -3.691439E+04  6.550189E+04  3.966903E+02 -7.825299E+03
       252   9 -4.211210E+04 -5.876935E+05 -7.439207E+04  9.676631E+04  7.561438E+03  9.880387E+03
       252  10 -3.883757E+04 -5.726627E+05 -7.239305E+04  9.682702E+04  2.815696E-10 -2.761764E-11
       252  11  2.164349E+03 -4.292052E+05 -3.365726E+04  6.556242E+04  3.851427E-10  6.952275E-10
       252  12  3.010701E+04 -2.913640E+05 -9.717237E+03  8.972356E+04 -9.476697E-11 -3.344034E-11
       252  13 -6.389275E+03 -4.395387E+05 -4.332383E+04  9.324558E+04  2.031482E-12 -3.154659E-11
       252  14  3.348946E+02 -4.367200E+05 -3.528588E+04  6.553215E+04  4.495331E-10  4.443597E-10
       252  15 -6.001886E+03 -4.395391E+05 -4.205414E+04  9.324534E+04  1.885281E-10  2.020275E-10
       252  16  2.605789E+04 -3.063981E+05 -1.425568E+04  8.966336E+04  9.566534E-11 -2.106193E-10
       252  17 -1.494564E+03 -4.442348E+05 -3.691451E+04  6.550189E+04  2.731198E-10  5.631105E-11
       252  18 -4.211219E+04 -5.876936E+05 -7.439236E+04  9.676625E+04  6.197530E-11 -1.369661E-11
       252  19 -3.883748E+04 -5.726625E+05 -7.239270E+04  9.682709E+04  6.776831E+03  1.175392E+04
       252  20  2.164359E+03 -4.292052E+05 -3.365719E+04  6.556242E+04 -4.054214E+02 -5.918203E+03
       252  21  3.010722E+04 -2.913634E+05 -9.716082E+03  8.972371E+04 -7.569965E+03 -2.359429E+04
       252  22 -6.389133E+03 -4.395383E+05 -4.332309E+04  9.324568E+04  6.781202E+03  1.864362E+04
       252  23  3.348951E+02 -4.367200E+05 -3.528588E+04  6.553215E+04 -4.010555E+02  9.535893E+02
       252  24 -6.001749E+03 -4.395388E+05 -4.205351E+04  9.324544E+04 -7.565741E+03 -1.673653E+04
       252  25  2.605811E+04 -3.063974E+05 -1.425436E+04  8.966350E+04  6.785494E+03  2.553478E+04
       252  26 -1.494547E+03 -4.442348E+05 -3.691439E+04  6.550189E+04 -3.966903E+02  7.825299E+03
       252  27 -4.211210E+04 -5.876935E+05 -7.439207E+04  9.676631E+04 -7.561438E+03 -9.880387E+03
       253   1  6.912438E+04 -1.856867E+05  8.744887E+03  1.109317E+05  1.362511E+04  3.492172E+04
       253   2  9.607152E+04 -2.900104E+04  1.618995E+04  4.350469E+04  1.747962E+04  5.879321E+04
       253   3  7.579588E+03  9.575476E+04 -2.076070E+04  3.080382E+04  6.161696E+03  8.267536E+04
       253   4  5.707818E+03 -4.459592E+05 -4.785078E+04  9.307808E+04  1.361776E+04  2.394187E+04
       253   5 -1.680197E+03 -4.287364E+05 -7.285763E+04  6.573707E+04  1.748422E+04  6.235452E+04
       253   6 -1.270799E+05 -4.460185E+05 -1.523855E+05  9.313110E+04  6.176946E+03  1.007715E+05
       253   7 -5.771198E+04 -7.061673E+05 -1.044499E+05  7.523200E+04  1.361104E+04  1.296657E+04
       253   8 -9.944088E+04 -8.283216E+05 -1.619149E+05  8.795494E+04  1.748907E+04  6.591356E+04
       253   9 -2.617463E+05 -9.875147E+05 -2.840282E+05  1.554038E+05  6.195841E+03  1.188519E+05
       253  10  6.912385E+04 -1.856881E+05  8.742246E+03  1.109314E+05 -8.658471E-11  2.563943E-10
       253  11  9.607026E+04 -2.900484E+04  1.618288E+04  4.350387E+04 -2.018461E-10  5.610926E-10
       253  12  7.577712E+03  9.574741E+04 -2.077362E+04  3.080341E+04 -1.023831E-11 -1.491452E-10
       253  13  5.707465E+03 -4.459599E+05 -4.785220E+04  9.307782E+04 -2.446875E-10  1.067888E-10
       253  14 -1.681569E+03 -4.287407E+05 -7.286551E+04  6.573619E+04  2.729330E-10  2.494925E-10
       253  15 -1.270827E+05 -4.460294E+05 -1.524046E+05  9.313060E+04  2.316517E-10  8.138977E-11
       253  16 -5.771223E+04 -7.061675E+05 -1.044505E+05  7.523186E+04  1.082999E-10 -5.654514E-10
       253  17 -9.944238E+04 -8.283263E+05 -1.619236E+05  8.795401E+04 -3.491133E-10  5.529340E-11
       253  18 -2.617501E+05 -9.875299E+05 -2.840548E+05  1.554032E+05  5.105351E-11  1.702921E-10
       253  19  6.912438E+04 -1.856867E+05  8.744887E+03  1.109317E+05 -1.362511E+04 -3.492172E+04
       253  20  9.607152E+04 -2.900104E+04  1.618995E+04  4.350469E+04 -1.747962E+04 -5.879321E+04
       253  21  7.579588E+03  9.575476E+04 -2.076070E+04  3.080382E+04 -6.161696E+03 -8.267536E+04
       253  22  5.707818E+03 -4.459592E+05 -4.785078E+04  9.307808E+04 -1.361776E+04 -2.394187E+04
       253  23 -1.680197E+03 -4.287364E+05 -7.285763E+04  6.573707E+04 -1.748422E+04 -6.235452E+04
       253  24 -1.270799E+05 -4.460185E+05 -1.523855E+05  9.313110E+04 -6.176946E+03 -1.007715E+05
       253  25 -5.771198E+04 -7.061673E+05 -1.044499E+05  7.523200E+04 -1.361104E+04 -1.296657E+04
       253  26 -9.944088E+04 -8.283216E+05 -1.619149E+05  8.795494E+04 -1.748907E+04 -6.591356E+04
       253  27 -2.617463E+05 -9.875147E+05 -2.840282E+05  1.554038E+05 -6.195841E+03 -1.188519E+05
       254   1  6.479522E+05  5.104372E+05  1.473290E+05  4.539712E+05  7.933070E+04  5.923781E+04
       254   2  6.293315E+05  3.899174E+05  6.866698E+04  4.908488E+05  5.139749E+04  3.780636E+04
       254   3  6.699957E+05  3.535530E+05  4.067572E+04  4.903356E+05  2.318054E+04  1.675307E+04
       254   4  6.919701E+05  4.451890E+05  1.432081E+05  4.313599E+05  7.885925E+04  5.887265E+04
       254   5  6.398086E+05  3.629953E+05  6.573195E+04  4.801847E+05  5.128286E+04  3.771773E+04
       254   6  6.468527E+05  3.648745E+05  3.861399E+04  4.916192E+05  2.342495E+04  1.693729E+04
       254   7  7.359960E+05  3.799535E+05  1.390889E+05  4.087465E+05  7.838774E+04  5.850759E+04
       254   8  6.502866E+05  3.360749E+05  6.279712E+04  4.695205E+05  5.116822E+04  3.762911E+04
       254   9  6.237105E+05  3.761968E+05  3.655239E+04  4.929026E+05  2.366936E+04  1.712152E+04
       254  10  6.479445E+05  5.104317E+05  1.473106E+05  4.539674E+05 -2.088431E-10 -7.276811E-11
       254  11  6.293282E+05  3.899151E+05  6.865934E+04  4.908472E+05  2.892691E-10 -3.946683E-11
       254  12  6.699951E+05  3.535525E+05  4.067418E+04  4.903352E+05  7.130643E-10 -4.879409E-12
       254  13  6.919625E+05  4.451837E+05  1.431899E+05  4.313562E+05 -3.507167E-11  2.433827E-11
       254  14  6.398054E+05  3.629930E+05  6.572435E+04  4.801832E+05 -1.581774E-11  1.038852E-10
       254  15  6.468520E+05  3.648740E+05  3.861242E+04  4.916189E+05 -8.552634E-11 -2.553211E-10
       254  16  7.359884E+05  3.799482E+05  1.390710E+05  4.087429E+05  2.364449E-10  1.957112E-10
       254  17  6.502835E+05  3.360727E+05  6.278956E+04  4.695190E+05 -3.139897E-10  1.933041E-10
       254  18  6.237099E+05  3.761963E+05  3.655079E+04  4.929023E+05 -1.208320E-10 -4.134870E-10
       254  19  6.479522E+05  5.104372E+05  1.473290E+05  4.539712E+05 -7.933070E+04 -5.923781E+04
       254  20  6.293315E+05  3.899174E+05  6.866698E+04  4.908488E+05 -5.139749E+04 -3.780636E+04
       254  21  6.699957E+05  3.535530E+05  4.067572E+04  4.903356E+05 -2.318054E+04 -1.675307E+04
       254  22  6.919701E+05  4.451890E+05  1.432081E+05  4.313599E+05 -7.885925E+04 -5.887265E+04
       254  23  6.398086E+05  3.629953E+05  6.573195E+04  4.801847E+05 -5.128286E+04 -3.771773E+04
       254  24  6.468527E+05  3.648745E+05  3.861399E+04  4.916192E+05 -2.342495E+04 -1.693729E+04
       254  25  7.359960E+05  3.799535E+05  1.390889E+05  4.087465E+05 -7.838774E+04 -5.850759E+04
       254  26  6.502866E+05  3.360749E+05  6.279712E+04  4.695205E+05 -5.116822E+04 -3.762911E+04
       254  27  6.237105E+05  3.761968E+05  3.655239E+04  4.929026E+05 -2.366936E+04 -1.712152E+04
       255   1  6.495435E+05  3.754066E+05  3.223649E+04  4.858251E+05  1.881919E+04  1.368922E+04
       255   2  6.460041E+05  3.667401E+05  1.799494E+04  4.861756E+05  1.171773E+04  8.602873E+03
       255   3  6.449161E+05  3.642954E+05  1.093989E+04  4.853116E+05  4.603687E+03  3.533782E+03
       255   4  6.468314E+05  3.699826E+05  3.081268E+04  4.828498E+05  1.895739E+04  1.379274E+04
       255   5  6.444451E+05  3.648031E+05  1.738396E+04  4.850119E+05  1.187234E+04  8.718779E+03
       255   6  6.445068E+05  3.658418E+05  1.112761E+04  4.859595E+05  4.774671E+03  3.661988E+03
       255   7  6.441194E+05  3.645587E+05  2.938888E+04  4.798745E+05  1.909558E+04  1.389624E+04
       255   8  6.428862E+05  3.628661E+05  1.677299E+04  4.838482E+05  1.202696E+04  8.834683E+03
       255   9  6.440974E+05  3.673882E+05  1.131534E+04  4.866075E+05  4.945654E+03  3.790195E+03
       255  10  6.495430E+05  3.754063E+05  3.223548E+04  4.858249E+05  2.094236E-10 -4.366690E-10
       255  11  6.460039E+05  3.667400E+05  1.799454E+04  4.861755E+05  4.669746E-10  1.010797E-10
       255  12  6.449161E+05  3.642954E+05  1.093982E+04  4.853115E+05 -1.665405E-10  4.665114E-11
       255  13  6.468310E+05  3.699823E+05  3.081165E+04  4.828496E+05 -4.360102E-10 -3.744536E-10
       255  14  6.444450E+05  3.648030E+05  1.738356E+04  4.850118E+05  4.204921E-10 -4.153572E-11
       255  15  6.445068E+05  3.658418E+05  1.112754E+04  4.859595E+05 -2.222890E-10  1.492031E-10
       255  16  6.441189E+05  3.645584E+05  2.938783E+04  4.798743E+05  5.459277E-10 -1.467326E-10
       255  17  6.428860E+05  3.628660E+05  1.677257E+04  4.838481E+05  5.001053E-10 -1.563251E-10
       255  18  6.440974E+05  3.673881E+05  1.131526E+04  4.866075E+05 -1.815716E-10  2.387547E-10
       255  19  6.495435E+05  3.754066E+05  3.223649E+04  4.858251E+05 -1.881919E+04 -1.368922E+04
       255  20  6.460041E+05  3.667401E+05  1.799494E+04  4.861756E+05 -1.171773E+04 -8.602873E+03
       255  21  6.449161E+05  3.642954E+05  1.093989E+04  4.853116E+05 -4.603687E+03 -3.533782E+03
       255  22  6.468314E+05  3.699826E+05  3.081268E+04  4.828498E+05 -1.895739E+04 -1.379274E+04
       255  23  6.444451E+05  3.648031E+05  1.738396E+04  4.850119E+05 -1.187234E+04 -8.718779E+03
       255  24  6.445068E+05  3.658418E+05  1.112761E+04  4.859595E+05 -4.774671E+03 -3.661988E+03
       255  25  6.441194E+05  3.645587E+05  2.938888E+04  4.798745E+05 -1.909558E+04 -1.389624E+04
       255  26  6.428862E+05  3.628661E+05  1.677299E+04  4.838482E+05 -1.202696E+04 -8.834683E+03
       255  27  6.440974E+05  3.673882E+05  1.131534E+04  4.866075E+05 -4.945654E+03 -3.790195E+03
       256   1  6.416328E+05  3.640306E+05  8.579723E+03  4.840574E+05  3.073954E+03  2.547654E+03
       256   2  6.392799E+05  3.610848E+05  6.253022E+03  4.824981E+05 -1.870899E+02  3.729139E+02
       256   3  6.361764E+05  3.602018E+05  6.631948E+03  4.813635E+05 -3.447800E+03 -1.802294E+03
       256   4  6.444339E+05  3.660534E+05  9.426997E+03  4.854726E+05  3.240467E+03  2.672496E+03
       256   5  6.448056E+05  3.650155E+05  7.896206E+03  4.852651E+05 -2.105902E+01  4.973939E+02
       256   6  6.444266E+05  3.660404E+05  9.071443E+03  4.854824E+05 -3.282238E+03 -1.678167E+03
       256   7  6.472350E+05  3.680763E+05  1.027428E+04  4.868878E+05  3.406982E+03  2.797340E+03
       256   8  6.503312E+05  3.689462E+05  9.539387E+03  4.880322E+05  1.449738E+02  6.218754E+02
       256   9  6.526769E+05  3.718790E+05  1.151090E+04  4.896014E+05 -3.116674E+03 -1.554039E+03
       256  10  6.416327E+05  3.640305E+05  8.579693E+03  4.840574E+05 -3.935580E-11  1.036264E-10
       256  11  6.392799E+05  3.610848E+05  6.253022E+03  4.824981E+05 -2.773673E-10  2.815059E-10
       256  12  6.361764E+05  3.602018E+05  6.631919E+03  4.813635E+05 -1.866182E-10  2.750454E-10
       256  13  6.444339E+05  3.660534E+05  9.426964E+03  4.854726E+05  8.578672E-11  1.635829E-10
       256  14  6.448056E+05  3.650155E+05  7.896206E+03  4.852651E+05  6.769476E-10  2.394319E-10
       256  15  6.444266E+05  3.660404E+05  9.071417E+03  4.854824E+05  1.805858E-10  2.368604E-10
       256  16  6.472350E+05  3.680763E+05  1.027424E+04  4.868878E+05  1.066380E-10  2.133463E-10
       256  17  6.503312E+05  3.689462E+05  9.539386E+03  4.880322E+05  6.073239E-10  1.399226E-10
       256  18  6.526768E+05  3.718790E+05  1.151088E+04  4.896014E+05 -6.566048E-11  2.603382E-10
       256  19  6.416328E+05  3.640306E+05  8.579723E+03  4.840574E+05 -3.073954E+03 -2.547654E+03
       256  20  6.392799E+05  3.610848E+05  6.253022E+03  4.824981E+05  1.870899E+02 -3.729139E+02
       256  21  6.361764E+05  3.602018E+05  6.631948E+03  4.813635E+05  3.447800E+03  1.802294E+03
       256  22  6.444339E+05  3.660534E+05  9.426997E+03  4.854726E+05 -3.240467E+03 -2.672496E+03
       256  23  6.448056E+05  3.650155E+05  7.896206E+03  4.852651E+05  2.105902E+01 -4.973939E+02
       256  24  6.444266E+05  3.660404E+05  9.071443E+03  4.854824E+05  3.282238E+03  1.678167E+03
       256  25  6.472350E+05  3.680763E+05  1.027428E+04  4.868878E+05 -3.406982E+03 -2.797340E+03
       256  26  6.503312E+05  3.689462E+05  9.539387E+03  4.880322E+05 -1.449738E+02 -6.218754E+02
       256  27  6.526769E+05  3.718790E+05  1.151090E+04  4.896014E+05  3.116674E+03  1.554039E+03
       257   1  6.330894E+05  3.594570E+05  7.468605E+03  4.810192E+05 -4.928017E+03 -2.749155E+03
       257   2  6.318021E+05  3.550586E+05  1.235618E+04  4.783379E+05 -1.154322E+04 -7.449014E+03
       257   3  6.326761E+05  3.565359E+05  2.391572E+04  4.745657E+05 -1.813536E+04 -1.217978E+04
       257   4  6.444883E+05  3.658449E+05  1.056883E+04  4.859286E+05 -4.753467E+03 -2.618280E+03
       257   5  6.444824E+05  3.648242E+05  1.626271E+04  4.850320E+05 -1.139849E+04 -7.340518E+03
       257   6  6.466442E+05  3.696854E+05  2.865424E+04  4.830445E+05 -1.802048E+04 -1.209375E+04
       257   7  6.558874E+05  3.722329E+05  1.366904E+04  4.908381E+05 -4.578913E+03 -2.487402E+03
       257   8  6.571630E+05  3.745899E+05  2.016924E+04  4.917263E+05 -1.125375E+04 -7.232019E+03
       257   9  6.606127E+05  3.828353E+05  3.339279E+04  4.915236E+05 -1.790560E+04 -1.200771E+04
       257  10  6.330894E+05  3.594570E+05  7.468545E+03  4.810192E+05 -3.150272E-11  2.846017E-10
       257  11  6.318019E+05  3.550585E+05  1.235583E+04  4.783378E+05 -1.053763E-10  1.833554E-10
       257  12  6.326757E+05  3.565356E+05  2.391483E+04  4.745655E+05 -5.240486E-10  4.033223E-11
       257  13  6.444883E+05  3.658449E+05  1.056877E+04  4.859286E+05 -3.244431E-10  1.315596E-10
       257  14  6.444823E+05  3.648241E+05  1.626237E+04  4.850319E+05  1.001597E-11  1.696112E-10
       257  15  6.466438E+05  3.696851E+05  2.865336E+04  4.830443E+05  1.374175E-11  1.510659E-10
       257  16  6.558874E+05  3.722329E+05  1.366898E+04  4.908381E+05 -9.954516E-11  1.435864E-10
       257  17  6.571628E+05  3.745898E+05  2.016891E+04  4.917262E+05 -1.478860E-11  1.156434E-10
       257  18  6.606123E+05  3.828350E+05  3.339192E+04  4.915234E+05  6.061399E-10  1.559849E-10
       257  19  6.330894E+05  3.594570E+05  7.468605E+03  4.810192E+05  4.928017E+03  2.749155E+03
       257  20  6.318021E+05  3.550586E+05  1.235618E+04  4.783379E+05  1.154322E+04  7.449014E+03
       257  21  6.326761E+05  3.565359E+05  2.391572E+04  4.745657E+05  1.813536E+04  1.217978E+04
       257  22  6.444883E+05  3.658449E+05  1.056883E+04  4.859286E+05  4.753467E+03  2.618280E+03
       257  23  6.444824E+05  3.648242E+05  1.626271E+04  4.850320E+05  1.139849E+04  7.340518E+03
       257  24  6.466442E+05  3.696854E+05  2.865424E+04  4.830445E+05  1.802048E+04  1.209375E+04
       257  25  6.558874E+05  3.722329E+05  1.366904E+04  4.908381E+05  4.578913E+03  2.487402E+03
       257  26  6.571630E+05  3.745899E+05  2.016924E+04  4.917263E+05  1.125375E+04  7.232019E+03
       257  27  6.606127E+05  3.828353E+05  3.339279E+04  4.915236E+05  1.790560E+04  1.200771E+04
       258   1  6.135683E+05  3.671995E+05  3.050299E+04  4.865545E+05 -2.251031E+04 -1.521556E+04
       258   2  6.380508E+05  3.297855E+05  5.467626E+04  4.647572E+05 -4.763514E+04 -3.407956E+04
       258   3  7.172032E+05  3.703082E+05  1.249896E+05  4.083125E+05 -7.224603E+04 -5.362755E+04
       258   4  6.466653E+05  3.649450E+05  3.586817E+04  4.911760E+05 -2.220003E+04 -1.498209E+04
       258   5  6.401815E+05  3.631522E+05  6.098696E+04  4.805563E+05 -4.798505E+04 -3.434417E+04
       258   6  6.885052E+05  4.394333E+05  1.328172E+05  4.352908E+05 -7.325432E+04 -5.439330E+04
       258   7  6.797635E+05  3.626908E+05  4.123338E+04  4.957972E+05 -2.188973E+04 -1.474862E+04
       258   8  6.423128E+05  3.965209E+05  6.729778E+04  4.963556E+05 -4.833496E+04 -3.460882E+04
       258   9  6.598131E+05  5.085708E+05  1.406464E+05  4.622681E+05 -7.426254E+04 -5.515928E+04
       258  10  6.135677E+05  3.671991E+05  3.050160E+04  4.865543E+05 -2.706203E-10  1.484907E-10
       258  11  6.380480E+05  3.297837E+05  5.466982E+04  4.647559E+05 -4.348089E-11 -9.360626E-11
       258  12  7.171969E+05  3.703038E+05  1.249744E+05  4.083094E+05 -2.580019E-10 -2.009661E-10
       258  13  6.466647E+05  3.649446E+05  3.586682E+04  4.911757E+05 -1.164901E-10  5.029808E-12
       258  14  6.401787E+05  3.631503E+05  6.098043E+04  4.805549E+05  1.749981E-10 -1.365234E-10
       258  15  6.884987E+05  4.394287E+05  1.328016E+05  4.352876E+05  2.940793E-10 -5.976036E-11
       258  16  6.797629E+05  3.626904E+05  4.123208E+04  4.957970E+05  2.848214E-11 -1.109915E-11
       258  17  6.423100E+05  3.965190E+05  6.729115E+04  4.963542E+05  2.668939E-10 -9.966071E-11
       258  18  6.598064E+05  5.085660E+05  1.406303E+05  4.622648E+05  1.623856E-10  1.569345E-11
       258  19  6.135683E+05  3.671995E+05  3.050299E+04  4.865545E+05  2.251031E+04  1.521556E+04
       258  20  6.380508E+05  3.297855E+05  5.467626E+04  4.647572E+05  4.763514E+04  3.407956E+04
       258  21  7.172032E+05  3.703082E+05  1.249896E+05  4.083125E+05  7.224603E+04  5.362755E+04
       258  22  6.466653E+05  3.649450E+05  3.586817E+04  4.911760E+05  2.220003E+04  1.498209E+04
       258  23  6.401815E+05  3.631522E+05  6.098696E+04  4.805563E+05  4.798505E+04  3.434417E+04
       258  24  6.885052E+05  4.394333E+05  1.328172E+05  4.352908E+05  7.325432E+04  5.439330E+04
       258  25  6.797635E+05  3.626908E+05  4.123338E+04  4.957972E+05  2.188973E+04  1.474862E+04
       258  26  6.423128E+05  3.965209E+05  6.729778E+04  4.963556E+05  4.833496E+04  3.460882E+04
       258  27  6.598131E+05  5.085708E+05  1.406464E+05  4.622681E+05  7.426254E+04  5.515928E+04
       259   1  5.796876E+05  6.397433E+04  6.697606E+04  2.952825E+04  2.334135E+04 -2.150975E+03
       259   2  5.472445E+05  3.549713E+04  4.353648E+04  1.732535E+04  1.270741E+04 -6.496786E+03
       259   3  5.212092E+05  2.708432E+04  3.203274E+04  1.641163E+04  2.074669E+03 -6.135677E+03
       259   4  4.058577E+05  2.081229E+04  2.488663E+04  1.933095E+04  1.690204E+04 -2.150818E+03
       259   5  4.030493E+05  2.802202E+02  1.156748E+04  1.368581E+04  1.079150E+04 -6.496875E+03
       259   6  4.058645E+05 -9.698434E+02  7.046569E+03  1.932955E+04  4.681545E+03 -6.135748E+03
       259   7  2.320558E+05 -2.235154E+04 -1.720475E+04  9.136510E+03  1.046452E+04 -2.150449E+03
       259   8  2.588736E+05 -3.493804E+04 -2.040278E+04  1.004712E+04  8.876037E+03 -6.496943E+03
       259   9  2.905323E+05 -2.902485E+04 -1.794036E+04  2.224692E+04  7.287943E+03 -6.135795E+03
       259  10  5.796870E+05  6.397418E+04  6.697502E+04  2.952829E+04 -2.466801E-10 -3.083188E-11
       259  11  5.472443E+05  3.549704E+04  4.353610E+04  1.732541E+04  2.487988E-10 -8.468967E-11
       259  12  5.212091E+05  2.708427E+04  3.203266E+04  1.641164E+04  2.545201E-10 -6.823310E-11
       259  13  4.058574E+05  2.081221E+04  2.488609E+04  1.933098E+04 -1.237537E-10  8.364380E-11
       259  14  4.030492E+05  2.801436E+02  1.156719E+04  1.368586E+04  1.498743E-10 -6.268601E-11
       259  15  4.058644E+05 -9.698897E+02  7.046457E+03  1.932957E+04  3.992198E-10 -1.381989E-10
       259  16  2.320556E+05 -2.235158E+04 -1.720496E+04  9.136528E+03 -2.230461E-10 -8.266548E-11
       259  17  2.588735E+05 -3.493811E+04 -2.040301E+04  1.004716E+04 -2.642308E-10 -1.019664E-10
       259  18  2.905322E+05 -2.902490E+04 -1.794053E+04  2.224696E+04  1.072128E-11 -1.886106E-10
       259  19  5.796876E+05  6.397433E+04  6.697606E+04  2.952825E+04 -2.334135E+04  2.150975E+03
       259  20  5.472445E+05  3.549713E+04  4.353648E+04  1.732535E+04 -1.270741E+04  6.496786E+03
       259  21  5.212092E+05  2.708432E+04  3.203274E+04  1.641163E+04 -2.074669E+03  6.135677E+03
       259  22  4.058577E+05  2.081229E+04  2.488663E+04  1.933095E+04 -1.690204E+04  2.150818E+03
       259  23  4.030493E+05  2.802202E+02  1.156748E+04  1.368581E+04 -1.079150E+04  6.496875E+03
       259  24  4.058645E+05 -9.698434E+02  7.046569E+03  1.932955E+04 -4.681545E+03  6.135748E+03
       259  25  2.320558E+05 -2.235154E+04 -1.720475E+04  9.136510E+03 -1.046452E+04  2.150449E+03
       259  26  2.588736E+05 -3.493804E+04 -2.040278E+04  1.004712E+04 -8.876037E+03  6.496943E+03
       259  27  2.905323E+05 -2.902485E+04 -1.794036E+04  2.224692E+04 -7.287943E+03  6.135795E+03
       260   1  4.968102E+05  2.346405E+04  2.584516E+04  1.977352E+04  2.388977E+03 -4.769869E+03
       260   2  4.673901E+05  1.526916E+04  1.749820E+04  1.375004E+04  2.592122E+02 -3.342982E+03
       260   3  4.385388E+05  8.235693E+03  1.082745E+04  1.920412E+04 -1.870607E+03 -1.710499E+03
       260   4  4.047339E+05  1.052906E+03  5.819067E+03  1.937184E+04  3.660564E+03 -4.769897E+03
       260   5  4.044674E+05 -3.591101E+01  3.864670E+03  1.363305E+04  1.728514E+03 -3.342955E+03
       260   6  4.047353E+05  2.643376E+00  3.449580E+03  1.937187E+04 -2.036849E+02 -1.710405E+03
       260   7  3.126655E+05 -2.135880E+04 -1.420753E+04  1.897022E+04  4.931964E+03 -4.769926E+03
       260   8  3.415485E+05 -1.534124E+04 -9.769088E+03  1.351606E+04  3.197668E+03 -3.342928E+03
       260   9  3.709329E+05 -8.230481E+03 -3.928347E+03  1.953962E+04  1.463147E+03 -1.710311E+03
       260  10  4.968102E+05  2.346402E+04  2.584511E+04  1.977353E+04 -9.401086E-11 -2.041020E-11
       260  11  4.673901E+05  1.526915E+04  1.749818E+04  1.375004E+04  4.108054E-10  1.270749E-11
       260  12  4.385388E+05  8.235689E+03  1.082744E+04  1.920411E+04  5.053889E-10  1.483742E-10
       260  13  4.047339E+05  1.052878E+03  5.818999E+03  1.937185E+04  4.109627E-10 -5.143594E-11
       260  14  4.044674E+05 -3.592382E+01  3.864643E+03  1.363305E+04  4.864698E-10  7.957791E-11
       260  15  4.047353E+05  2.640223E+00  3.449574E+03  1.937187E+04  5.381306E-11  1.012566E-10
       260  16  3.126655E+05 -2.135883E+04 -1.420762E+04  1.897023E+04 -1.652788E-10 -8.456355E-11
       260  17  3.415485E+05 -1.534126E+04 -9.769129E+03  1.351607E+04 -1.726192E-10  6.728340E-11
       260  18  3.709329E+05 -8.230485E+03 -3.928356E+03  1.953962E+04  2.017036E-10  1.331157E-10
       260  19  4.968102E+05  2.346405E+04  2.584516E+04  1.977352E+04 -2.388977E+03  4.769869E+03
       260  20  4.673901E+05  1.526916E+04  1.749820E+04  1.375004E+04 -2.592122E+02  3.342982E+03
       260  21  4.385388E+05  8.235693E+03  1.082745E+04  1.920412E+04  1.870607E+03  1.710499E+03
       260  22  4.047339E+05  1.052906E+03  5.819067E+03  1.937184E+04 -3.660564E+03  4.769897E+03
       260  23  4.044674E+05 -3.591101E+01  3.864670E+03  1.363305E+04 -1.728514E+03  3.342955E+03
       260  24  4.047353E+05  2.643376E+00  3.449580E+03  1.937187E+04  2.036849E+02  1.710405E+03
       260  25  3.126655E+05 -2.135880E+04 -1.420753E+04  1.897022E+04 -4.931964E+03  4.769926E+03
       260  26  3.415485E+05 -1.534124E+04 -9.769088E+03  1.351606E+04 -3.197668E+03  3.342928E+03
       260  27  3.709329E+05 -8.230481E+03 -3.928347E+03  1.953962E+04 -1.463147E+03  1.710311E+03
       261   1  4.154480E+05  2.537483E+03  5.858877E+03  1.964405E+04 -2.479149E+03 -6.898667E+02
       261   2  3.859859E+05 -4.526958E+03  8.136959E+02  1.349273E+04 -4.747758E+03  9.538844E+02
       261   3  3.572047E+05 -1.004999E+04 -2.370040E+03  1.881592E+04 -7.016231E+03  2.445275E+03
       261   4  4.047736E+05 -4.370826E+01  3.622570E+03  1.937118E+04 -8.271016E+02 -6.897601E+02
       261   5  4.044204E+05 -3.961294E+01  4.823925E+03  1.363391E+04 -3.242140E+03  9.539625E+02
       261   6  4.047726E+05  1.531299E+03  7.988306E+03  1.937110E+04 -5.657147E+03  2.445326E+03
       261   7  3.940993E+05 -2.624905E+03  1.386267E+03  1.909832E+04  8.249181E+02 -6.896550E+02
       261   8  4.228553E+05  4.447711E+03  8.834143E+03  1.377509E+04 -1.736479E+03  9.540413E+02
       261   9  4.523427E+05  1.311244E+04  1.834652E+04  1.992632E+04 -4.297959E+03  2.445381E+03
       261  10  4.154480E+05  2.537481E+03  5.858864E+03  1.964405E+04  8.658779E-10  1.289857E-10
       261  11  3.859859E+05 -4.526965E+03  8.136519E+02  1.349274E+04  2.106408E-10 -1.510501E-10
       261  12  3.572046E+05 -1.005001E+04 -2.370144E+03  1.881594E+04  8.037686E-11 -1.338001E-10
       261  13  4.047736E+05 -4.370895E+01  3.622568E+03  1.937118E+04  8.416605E-12  3.225542E-11
       261  14  4.044204E+05 -3.961673E+01  4.823904E+03  1.363391E+04  7.395718E-10 -1.836261E-10
       261  15  4.047726E+05  1.531284E+03  7.988235E+03  1.937111E+04 -5.108812E-11 -8.593886E-11
       261  16  3.940993E+05 -2.624906E+03  1.386265E+03  1.909832E+04 -6.063225E-10 -1.763568E-11
       261  17  4.228553E+05  4.447710E+03  8.834136E+03  1.377509E+04  1.296780E-10 -1.919856E-10
       261  18  4.523427E+05  1.311243E+04  1.834648E+04  1.992633E+04 -3.543247E-13 -3.156327E-11
       261  19  4.154480E+05  2.537483E+03  5.858877E+03  1.964405E+04  2.479149E+03  6.898667E+02
       261  20  3.859859E+05 -4.526958E+03  8.136959E+02  1.349273E+04  4.747758E+03 -9.538844E+02
       261  21  3.572047E+05 -1.004999E+04 -2.370040E+03  1.881592E+04  7.016231E+03 -2.445275E+03
       261  22  4.047736E+05 -4.370826E+01  3.622570E+03  1.937118E+04  8.271016E+02  6.897601E+02
       261  23  4.044204E+05 -3.961294E+01  4.823925E+03  1.363391E+04  3.242140E+03 -9.539625E+02
       261  24  4.047726E+05  1.531299E+03  7.988306E+03  1.937110E+04  5.657147E+03 -2.445326E+03
       261  25  3.940993E+05 -2.624905E+03  1.386267E+03  1.909832E+04 -8.249181E+02  6.896550E+02
       261  26  4.228553E+05  4.447711E+03  8.834143E+03  1.377509E+04  1.736479E+03 -9.540413E+02
       261  27  4.523427E+05  1.311244E+04  1.834652E+04  1.992632E+04  4.297959E+03 -2.445381E+03
       262   1  3.356348E+05 -1.862023E+04 -5.486187E+03  2.356836E+04 -9.437768E+03  3.720395E+03
       262   2  3.026862E+05 -2.394458E+04 -5.576576E+03  8.416627E+03 -1.476757E+04  4.403433E+03
       262   3  2.772561E+05 -1.990756E+03  4.622535E+03  4.594292E+03 -2.009710E+04  1.513418E+03
       262   4  4.064187E+05 -1.397037E+03  9.876793E+03  1.933866E+04 -7.066712E+03  3.720527E+03
       262   5  4.023594E+05  4.135308E+02  1.657968E+04  1.367440E+04 -1.582927E+04  4.403251E+03
       262   6  4.064109E+05  3.009508E+04  3.595334E+04  1.933894E+04 -2.459181E+04  1.513016E+03
       262   7  4.772074E+05  1.582589E+04  2.523951E+04  1.510848E+04 -4.695389E+03  3.720627E+03
       262   8  5.020418E+05  2.477108E+04  3.873533E+04  1.893303E+04 -1.689114E+04  4.403051E+03
       262   9  5.355814E+05  6.218053E+04  6.728314E+04  3.408666E+04 -2.908744E+04  1.512402E+03
       262  10  3.356347E+05 -1.862027E+04 -5.486380E+03  2.356838E+04  5.772922E-10 -6.436242E-11
       262  11  3.026860E+05 -2.394466E+04 -5.577022E+03  8.416680E+03  2.811669E-10 -1.111816E-10
       262  12  2.772556E+05 -1.990867E+03  4.621772E+03  4.594317E+03  1.588712E-11 -6.204805E-11
       262  13  4.064187E+05 -1.397065E+03  9.876673E+03  1.933868E+04 -2.925566E-10 -6.219879E-11
       262  14  4.023591E+05  4.134428E+02  1.657917E+04  1.367446E+04 -1.281911E-10 -1.275173E-10
       262  15  4.064102E+05  3.009492E+04  3.595220E+04  1.933897E+04  2.500249E-12 -2.419857E-11
       262  16  4.772074E+05  1.582587E+04  2.523944E+04  1.510849E+04 -6.362299E-10 -6.040458E-11
       262  17  5.020415E+05  2.477098E+04  3.873476E+04  1.893309E+04 -6.603460E-10 -1.799009E-10
       262  18  5.355805E+05  6.218030E+04  6.728154E+04  3.408670E+04  1.611379E-10 -9.445209E-11
       262  19  3.356348E+05 -1.862023E+04 -5.486187E+03  2.356836E+04  9.437768E+03 -3.720395E+03
       262  20  3.026862E+05 -2.394458E+04 -5.576576E+03  8.416627E+03  1.476757E+04 -4.403433E+03
       262  21  2.772561E+05 -1.990756E+03  4.622535E+03  4.594292E+03  2.009710E+04 -1.513418E+03
       262  22  4.064187E+05 -1.397037E+03  9.876793E+03  1.933866E+04  7.066712E+03 -3.720527E+03
       262  23  4.023594E+05  4.135308E+02  1.657968E+04  1.367440E+04  1.582927E+04 -4.403251E+03
       262  24  4.064109E+05  3.009508E+04  3.595334E+04  1.933894E+04  2.459181E+04 -1.513016E+03
       262  25  4.772074E+05  1.582589E+04  2.523951E+04  1.510848E+04  4.695389E+03 -3.720627E+03
       262  26  5.020418E+05  2.477108E+04  3.873533E+04  1.893303E+04  1.689114E+04 -4.403051E+03
       262  27  5.355814E+05  6.218053E+04  6.728314E+04  3.408666E+04  2.908744E+04 -1.512402E+03
       263   1 -1.986399E+05 -6.270899E+05 -2.087609E+05  1.202995E+05 -6.154201E+03 -6.989913E+04
       263   2 -9.880970E+04 -4.839955E+05 -1.271788E+05  7.372214E+04 -1.757951E+04 -3.557796E+04
       263   3 -6.251273E+04 -3.612344E+05 -8.383939E+04  7.882476E+04 -1.409217E+04 -1.252690E+03
       263   4 -6.571328E+04 -9.245711E+04 -7.887785E+04  8.811580E+04 -6.144234E+03 -5.179811E+04
       263   5 -8.633277E+02 -8.351389E+04 -3.800241E+04  6.226151E+04 -1.757636E+04 -3.176714E+04
       263   6  2.959090E+03 -9.242324E+04 -2.542273E+04  8.809035E+04 -1.409786E+04 -1.174005E+04
       263   7  6.719638E+04  4.424398E+05  5.098632E+04  5.590426E+04 -6.136151E+03 -3.368152E+04
       263   8  9.707267E+04  3.171177E+05  5.116411E+04  5.079338E+04 -1.757336E+04 -2.795388E+04
       263   9  6.842649E+04  1.764561E+05  3.299007E+04  9.735999E+04 -1.410387E+04 -2.223190E+04
       263  10 -1.986412E+05 -6.270952E+05 -2.087702E+05  1.202991E+05  2.494970E-10  1.022284E-10
       263  11 -9.881037E+04 -4.839970E+05 -1.271818E+05  7.372164E+04  3.657089E-10  2.452499E-10
       263  12 -6.251294E+04 -3.612345E+05 -8.383977E+04  7.882475E+04 -1.695302E-10 -2.380209E-10
       263  13 -6.571404E+04 -9.246000E+04 -7.888297E+04  8.811555E+04 -3.867931E-10  1.948050E-10
       263  14 -8.639304E+02 -8.351506E+04 -3.800489E+04  6.226106E+04 -4.670548E-10 -5.389390E-11
       263  15  2.958839E+03 -9.242344E+04 -2.542336E+04  8.809022E+04 -4.717086E-10  4.825439E-10
       263  16  6.719604E+04  4.424386E+05  5.098412E+04  5.590410E+04 -1.631368E-10  2.303755E-12
       263  17  9.707213E+04  3.171168E+05  5.116206E+04  5.079298E+04 -7.201879E-10 -1.174456E-10
       263  18  6.842615E+04  1.764555E+05  3.298877E+04  9.735974E+04  4.533448E-11  1.438114E-10
       263  19 -1.986399E+05 -6.270899E+05 -2.087609E+05  1.202995E+05  6.154201E+03  6.989913E+04
       263  20 -9.880970E+04 -4.839955E+05 -1.271788E+05  7.372214E+04  1.757951E+04  3.557796E+04
       263  21 -6.251273E+04 -3.612344E+05 -8.383939E+04  7.882476E+04  1.409217E+04  1.252690E+03
       263  22 -6.571328E+04 -9.245711E+04 -7.887785E+04  8.811580E+04  6.144234E+03  5.179811E+04
       263  23 -8.633277E+02 -8.351389E+04 -3.800241E+04  6.226151E+04  1.757636E+04  3.176714E+04
       263  24  2.959090E+03 -9.242324E+04 -2.542273E+04  8.809035E+04  1.409786E+04  1.174005E+04
       263  25  6.719638E+04  4.424398E+05  5.098632E+04  5.590426E+04  6.136151E+03  3.368152E+04
       263  26  9.707267E+04  3.171177E+05  5.116411E+04  5.079338E+04  1.757336E+04  2.795388E+04
       263  27  6.842649E+04  1.764561E+05  3.299007E+04  9.735999E+04  1.410387E+04  2.223190E+04
       264   1 -4.273695E+04 -2.521271E+05 -5.820491E+04  9.014987E+04 -8.337593E+03 -1.451595E+03
       264   2 -7.120347E+03 -1.177007E+05 -2.641702E+04  6.200310E+04 -1.605227E+03  8.584940E+03
       264   3  2.114391E+04  1.353653E+04 -3.018933E+03  8.618932E+04  5.197124E+03  1.862325E+04
       264   4 -3.031109E+03 -8.915625E+04 -2.266447E+04  8.824131E+04 -8.341438E+03 -7.874622E+03
       264   5  2.149910E+02 -8.755802E+04 -1.988704E+04  6.207493E+04 -1.609198E+03  2.095374E+03
       264   6 -3.878356E+03 -8.915391E+04 -2.545188E+04  8.824183E+04  5.193030E+03  1.206506E+04
       264   7  3.667300E+04  7.383960E+04  1.287454E+04  8.633223E+04 -8.345243E+03 -1.429931E+04
       264   8  7.550291E+03 -5.741436E+04 -1.335695E+04  6.214677E+04 -1.613171E+03 -4.394503E+03
       264   9 -2.890129E+04 -1.918344E+05 -4.788530E+04  9.029400E+04  5.188892E+03  5.507947E+03
       264  10 -4.273703E+04 -2.521271E+05 -5.820504E+04  9.014986E+04  8.285768E-11  1.629683E-10
       264  11 -7.120369E+03 -1.177008E+05 -2.641716E+04  6.200311E+04 -1.966689E-10  5.501067E-10
       264  12  2.114379E+04  1.353615E+04 -3.019635E+03  8.618924E+04 -5.161314E-10 -5.386931E-13
       264  13 -3.031200E+03 -8.915634E+04 -2.266471E+04  8.824125E+04  7.123773E-11  4.884953E-10
       264  14  2.149870E+02 -8.755802E+04 -1.988705E+04  6.207493E+04  4.504467E-10  3.245794E-11
       264  15 -3.878424E+03 -8.915408E+04 -2.545220E+04  8.824178E+04 -2.562376E-10  5.783387E-10
       264  16  3.667287E+04  7.383936E+04  1.287402E+04  8.633213E+04 -1.159210E-10  9.393418E-11
       264  17  7.550283E+03 -5.741438E+04 -1.335699E+04  6.214676E+04  4.257007E-10  4.221551E-12
       264  18 -2.890133E+04 -1.918344E+05 -4.788541E+04  9.029397E+04 -1.639718E-10 -4.311552E-11
       264  19 -4.273695E+04 -2.521271E+05 -5.820491E+04  9.014987E+04  8.337593E+03  1.451595E+03
       264  20 -7.120347E+03 -1.177007E+05 -2.641702E+04  6.200310E+04  1.605227E+03 -8.584940E+03
       264  21  2.114391E+04  1.353653E+04 -3.018933E+03  8.618932E+04 -5.197124E+03 -1.862325E+04
       264  22 -3.031109E+03 -8.915625E+04 -2.266447E+04  8.824131E+04  8.341438E+03  7.874622E+03
       264  23  2.149910E+02 -8.755802E+04 -1.988704E+04  6.207493E+04  1.609198E+03 -2.095374E+03
       264  24 -3.878356E+03 -8.915391E+04 -2.545188E+04  8.824183E+04 -5.193030E+03 -1.206506E+04
       264  25  3.667300E+04  7.383960E+04  1.287454E+04  8.633223E+04  8.345243E+03  1.429931E+04
       264  26  7.550291E+03 -5.741436E+04 -1.335695E+04  6.214677E+04  1.613171E+03  4.394503E+03
       264  27 -2.890129E+04 -1.918344E+05 -4.788530E+04  9.029400E+04 -5.188892E+03 -5.507947E+03
       265   1  5.453240E+04  1.151698E+05  1.579420E+04  9.961311E+04  1.084051E+04  2.662542E+04
       265   2  8.216084E+04  2.580765E+05  2.964430E+04  4.803311E+04  1.474669E+04  3.819349E+04
       265   3  3.638364E+04  3.811432E+05  1.761323E+04  4.821053E+04  5.281353E+03  4.976891E+04
       265   4  3.736690E+03 -9.336165E+04 -2.957700E+04  8.810588E+04  1.083404E+04  1.645465E+04
       265   5 -1.072873E+03 -8.232676E+04 -4.624004E+04  6.224207E+04  1.474944E+04  4.085106E+04
       265   6 -8.153952E+04 -9.339125E+04 -9.770484E+04  8.814183E+04  5.291002E+03  6.525179E+04
       265   7 -4.706136E+04 -3.018519E+05 -7.495034E+04  7.660256E+04  1.082795E+04  6.287247E+03
       265   8 -8.431368E+04 -4.226215E+05 -1.221315E+05  7.644314E+04  1.475232E+04  4.350719E+04
       265   9 -1.994731E+05 -5.677163E+05 -2.130374E+05  1.280425E+05  5.302647E+03  8.072285E+04
       265  10  5.453209E+04  1.151690E+05  1.579265E+04  9.961288E+04 -9.485777E-11  6.568075E-10
       265  11  8.216022E+04  2.580748E+05  2.964115E+04  4.803265E+04  3.241822E-10  3.926354E-10
       265  12  3.638294E+04  3.811406E+05  1.760852E+04  4.821032E+04 -4.366229E-11 -2.322720E-10
       265  13  3.736492E+03 -9.336198E+04 -2.957773E+04  8.810574E+04 -2.020660E-10  5.326798E-10
       265  14 -1.073554E+03 -8.232862E+04 -4.624358E+04  6.224158E+04 -7.901689E-11  2.255936E-11
       265  15 -8.154069E+04 -9.339583E+04 -9.771290E+04  8.814155E+04  4.714545E-11  2.802087E-10
       265  16 -4.706149E+04 -3.018520E+05 -7.495064E+04  7.660251E+04 -2.135453E-10 -3.630730E-10
       265  17 -8.431443E+04 -4.226236E+05 -1.221355E+05  7.644262E+04 -5.638266E-10 -5.250719E-11
       265  18 -1.994749E+05 -5.677233E+05 -2.130498E+05  1.280422E+05 -1.270689E-10  1.277669E-10
       265  19  5.453240E+04  1.151698E+05  1.579420E+04  9.961311E+04 -1.084051E+04 -2.662542E+04
       265  20  8.216084E+04  2.580765E+05  2.964430E+04  4.803311E+04 -1.474669E+04 -3.819349E+04
       265  21  3.638364E+04  3.811432E+05  1.761323E+04  4.821053E+04 -5.281353E+03 -4.976891E+04
       265  22  3.736690E+03 -9.336165E+04 -2.957700E+04  8.810588E+04 -1.083404E+04 -1.645465E+04
       265  23 -1.072873E+03 -8.232676E+04 -4.624004E+04  6.224207E+04 -1.474944E+04 -4.085106E+04
       265  24 -8.153952E+04 -9.339125E+04 -9.770484E+04  8.814183E+04 -5.291002E+03 -6.525179E+04
       265  25 -4.706136E+04 -3.018519E+05 -7.495034E+04  7.660256E+04 -1.082795E+04 -6.287247E+03
       265  26 -8.431368E+04 -4.226215E+05 -1.221315E+05  7.644314E+04 -1.475232E+04 -4.350719E+04
       265  27 -1.994731E+05 -5.677163E+05 -2.130374E+05  1.280425E+05 -5.302647E+03 -8.072285E+04
       266   1  4.032933E+05  3.155688E+05  7.892156E+04  2.875914E+05  3.244610E+04  2.273095E+04
       266   2  3.829663E+05  2.541361E+05  4.272111E+04  2.909849E+05  2.139939E+04  1.141359E+04
       266   3  3.756535E+05  2.329392E+05  2.693113E+04  2.834035E+05  8.519954E+03  2.541297E+03
       266   4  3.434871E+05  2.378443E+05  5.219860E+04  2.418469E+05  2.940471E+04  2.044866E+04
       266   5  3.290071E+05  2.033450E+05  2.400653E+04  2.583138E+05  2.070731E+04  1.089419E+04
       266   6  3.270342E+05  2.085738E+05  1.418887E+04  2.638051E+05  1.017704E+04  3.784065E+03
       266   7  2.836848E+05  1.601275E+05  2.547480E+04  1.961084E+05  2.636368E+04  1.816696E+04
       266   8  2.750510E+05  1.525573E+05  5.291543E+03  2.256464E+05  2.001531E+04  1.037489E+04
       266   9  2.784181E+05  1.842092E+05  1.446582E+03  2.442083E+05  1.183393E+04  5.026737E+03
       266  10  4.032920E+05  3.155680E+05  7.891861E+04  2.875908E+05 -2.566445E-10  5.435457E-11
       266  11  3.829658E+05  2.541358E+05  4.272001E+04  2.909847E+05 -1.752222E-10  4.505462E-11
       266  12  3.756534E+05  2.329392E+05  2.693098E+04  2.834035E+05  7.318648E-10 -6.896548E-11
       266  13  3.434861E+05  2.378436E+05  5.219619E+04  2.418464E+05  7.132243E-10 -2.394839E-11
       266  14  3.290066E+05  2.033448E+05  2.400550E+04  2.583136E+05  5.518326E-10 -3.948252E-11
       266  15  3.270341E+05  2.085737E+05  1.418865E+04  2.638050E+05  3.429524E-10 -1.298771E-10
       266  16  2.836839E+05  1.601270E+05  2.547287E+04  1.961080E+05  7.542541E-11 -4.510169E-12
       266  17  2.750506E+05  1.525570E+05  5.290589E+03  2.256462E+05 -1.593702E-10 -1.355344E-10
       266  18  2.784179E+05  1.842091E+05  1.446271E+03  2.442082E+05 -1.868110E-10 -1.438722E-10
       266  19  4.032933E+05  3.155688E+05  7.892156E+04  2.875914E+05 -3.244610E+04 -2.273095E+04
       266  20  3.829663E+05  2.541361E+05  4.272111E+04  2.909849E+05 -2.139939E+04 -1.141359E+04
       266  21  3.756535E+05  2.329392E+05  2.693113E+04  2.834035E+05 -8.519954E+03 -2.541297E+03
       266  22  3.434871E+05  2.378443E+05  5.219860E+04  2.418469E+05 -2.940471E+04 -2.044866E+04
       266  23  3.290071E+05  2.033450E+05  2.400653E+04  2.583138E+05 -2.070731E+04 -1.089419E+04
       266  24  3.270342E+05  2.085738E+05  1.418887E+04  2.638051E+05 -1.017704E+04 -3.784065E+03
       266  25  2.836848E+05  1.601275E+05  2.547480E+04  1.961084E+05 -2.636368E+04 -1.816696E+04
       266  26  2.750510E+05  1.525573E+05  5.291543E+03  2.256464E+05 -2.001531E+04 -1.037489E+04
       266  27  2.784181E+05  1.842092E+05  1.446582E+03  2.442083E+05 -1.183393E+04 -5.026737E+03
       267   1  3.540769E+05  2.309392E+05  1.971731E+04  2.747242E+05  6.932916E+03  2.745983E+03
       267   2  3.396720E+05  2.106406E+05  9.364213E+03  2.646771E+05  3.378457E+03  1.733022E+03
       267   3  3.170037E+05  2.018377E+05  1.813089E+03  2.568772E+05 -2.586994E+02  8.304946E+02
       267   4  3.270055E+05  2.104627E+05  1.139020E+04  2.606178E+05  7.895849E+03  3.468101E+03
       267   5  3.307246E+05  2.039714E+05  6.626764E+03  2.600608E+05  4.447563E+03  2.534785E+03
       267   6  3.261570E+05  2.089530E+05  4.573471E+03  2.617510E+05  9.164557E+02  1.711811E+03
       267   7  2.999349E+05  1.899867E+05  3.063005E+03  2.465121E+05  8.858726E+03  4.190172E+03
       267   8  3.217772E+05  1.973023E+05  3.889296E+03  2.554446E+05  5.516654E+03  3.336535E+03
       267   9  3.353106E+05  2.160684E+05  7.333885E+03  2.666248E+05  2.091646E+03  2.593157E+03
       267  10  3.540768E+05  2.309391E+05  1.971721E+04  2.747242E+05  6.987498E-10 -2.616207E-10
       267  11  3.396720E+05  2.106406E+05  9.364186E+03  2.646770E+05  2.559988E-10 -8.560636E-11
       267  12  3.170037E+05  2.018377E+05  1.813088E+03  2.568772E+05  1.095771E-10 -2.781614E-11
       267  13  3.270054E+05  2.104626E+05  1.139006E+04  2.606178E+05  6.890489E-10 -6.644864E-11
       267  14  3.307246E+05  2.039714E+05  6.626715E+03  2.600608E+05  5.135639E-10  6.528869E-11
       267  15  3.261570E+05  2.089530E+05  4.573464E+03  2.617510E+05  1.366492E-10 -4.167836E-11
       267  16  2.999348E+05  1.899866E+05  3.062825E+03  2.465121E+05 -5.867546E-10 -3.054235E-11
       267  17  3.217772E+05  1.973023E+05  3.889218E+03  2.554446E+05  8.511594E-11 -1.358581E-11
       267  18  3.353106E+05  2.160684E+05  7.333864E+03  2.666248E+05  1.803964E-10 -4.522705E-11
       267  19  3.540769E+05  2.309392E+05  1.971731E+04  2.747242E+05 -6.932916E+03 -2.745983E+03
       267  20  3.396720E+05  2.106406E+05  9.364213E+03  2.646771E+05 -3.378457E+03 -1.733022E+03
       267  21  3.170037E+05  2.018377E+05  1.813089E+03  2.568772E+05  2.586994E+02 -8.304946E+02
       267  22  3.270055E+05  2.104627E+05  1.139020E+04  2.606178E+05 -7.895849E+03 -3.468101E+03
       267  23  3.307246E+05  2.039714E+05  6.626764E+03  2.600608E+05 -4.447563E+03 -2.534785E+03
       267  24  3.261570E+05  2.089530E+05  4.573471E+03  2.617510E+05 -9.164557E+02 -1.711811E+03
       267  25  2.999349E+05  1.899867E+05  3.063005E+03  2.465121E+05 -8.858726E+03 -4.190172E+03
       267  26  3.217772E+05  1.973023E+05  3.889296E+03  2.554446E+05 -5.516654E+03 -3.336535E+03
       267  27  3.353106E+05  2.160684E+05  7.333885E+03  2.666248E+05 -2.091646E+03 -2.593157E+03
       268   1  3.017490E+05  1.917979E+05 -3.177473E+03  2.494402E+05 -1.379054E+03  1.096816E+03
       268   2  2.877618E+05  1.735656E+05 -8.711428E+03  2.386660E+05 -3.883697E+03  1.080405E+03
       268   3  2.643952E+05  1.653918E+05 -1.285195E+04  2.307366E+05 -6.385012E+03  1.059946E+03
       268   4  3.261368E+05  2.090347E+05  4.120634E+03  2.615867E+05 -2.323012E+02  1.956817E+03
       268   5  3.308389E+05  2.040280E+05  4.073120E+03  2.601471E+05 -2.741077E+03  1.937239E+03
       268   6  3.261619E+05  2.090800E+05  5.422473E+03  2.615518E+05 -5.246601E+03  1.913564E+03
       268   7  3.505251E+05  2.262716E+05  1.141859E+04  2.737335E+05  9.145007E+02  2.816855E+03
       268   8  3.739179E+05  2.344912E+05  1.685739E+04  2.816298E+05 -1.598355E+03  2.794149E+03
       268   9  3.879327E+05  2.527703E+05  2.369648E+04  2.923706E+05 -4.108037E+03  2.767297E+03
       268  10  3.017490E+05  1.917979E+05 -3.177479E+03  2.494402E+05  9.793303E-11 -2.816673E-10
       268  11  2.877618E+05  1.735656E+05 -8.711459E+03  2.386660E+05 -1.104092E-11 -8.525353E-11
       268  12  2.643951E+05  1.653918E+05 -1.285203E+04  2.307366E+05 -1.188231E-10 -2.627619E-11
       268  13  3.261368E+05  2.090347E+05  4.120626E+03  2.615867E+05  1.049902E-10  2.635627E-11
       268  14  3.308389E+05  2.040280E+05  4.073099E+03  2.601471E+05  1.049373E-10  1.147042E-10
       268  15  3.261618E+05  2.090800E+05  5.422414E+03  2.615519E+05 -1.814681E-10 -2.671460E-11
       268  16  3.505251E+05  2.262716E+05  1.141858E+04  2.737335E+05  2.345113E-10  1.940630E-10
       268  17  3.739179E+05  2.344912E+05  1.685737E+04  2.816298E+05  2.782582E-10  2.473484E-10
       268  18  3.879327E+05  2.527703E+05  2.369643E+04  2.923706E+05  5.071284E-11 -2.580578E-11
       268  19  3.017490E+05  1.917979E+05 -3.177473E+03  2.494402E+05  1.379054E+03 -1.096816E+03
       268  20  2.877618E+05  1.735656E+05 -8.711428E+03  2.386660E+05  3.883697E+03 -1.080405E+03
       268  21  2.643952E+05  1.653918E+05 -1.285195E+04  2.307366E+05  6.385012E+03 -1.059946E+03
       268  22  3.261368E+05  2.090347E+05  4.120634E+03  2.615867E+05  2.323012E+02 -1.956817E+03
       268  23  3.308389E+05  2.040280E+05  4.073120E+03  2.601471E+05  2.741077E+03 -1.937239E+03
       268  24  3.261619E+05  2.090800E+05  5.422473E+03  2.615518E+05  5.246601E+03 -1.913564E+03
       268  25  3.505251E+05  2.262716E+05  1.141859E+04  2.737335E+05 -9.145007E+02 -2.816855E+03
       268  26  3.739179E+05  2.344912E+05  1.685739E+04  2.816298E+05  1.598355E+03 -2.794149E+03
       268  27  3.879327E+05  2.527703E+05  2.369648E+04  2.923706E+05  4.108037E+03 -2.767297E+03
       269   1  2.489268E+05  1.553708E+05 -1.619617E+04  2.238385E+05 -7.837412E+03  1.092380E+03
       269   2  2.355774E+05  1.360460E+05 -1.762269E+04  2.123154E+05 -1.278554E+04 -8.355863E+02
       269   3  2.148734E+05  1.294368E+05 -1.478125E+04  2.026069E+05 -1.756926E+04 -2.982271E+03
       269   4  3.262111E+05  2.089509E+05  6.619796E+03  2.618691E+05 -6.636873E+03  1.992538E+03
       269   5  3.305978E+05  2.038737E+05  1.073224E+04  2.599834E+05 -1.179607E+04 -9.382965E+01
       269   6  3.276749E+05  2.115575E+05  1.929516E+04  2.599121E+05 -1.679098E+04 -2.399004E+03
       269   7  4.035026E+05  2.625347E+05  2.943538E+04  2.999055E+05 -5.436118E+03  2.892852E+03
       269   8  4.256280E+05  2.717066E+05  3.908615E+04  3.076597E+05 -1.080639E+04  6.480824E+02
       269   9  4.404891E+05  2.936849E+05  5.336970E+04  3.172286E+05 -1.601252E+04 -1.815595E+03
       269  10  2.489268E+05  1.553707E+05 -1.619629E+04  2.238385E+05 -3.418263E-10 -1.867719E-10
       269  11  2.355772E+05  1.360459E+05 -1.762300E+04  2.123154E+05  2.361690E-10  2.594791E-10
       269  12  2.148731E+05  1.294367E+05 -1.478184E+04  2.026068E+05  4.121705E-10  6.752196E-11
       269  13  3.262110E+05  2.089508E+05  6.619706E+03  2.618692E+05 -1.343199E-10 -2.460247E-11
       269  14  3.305976E+05  2.038737E+05  1.073198E+04  2.599834E+05  3.770280E-10  5.109852E-11
       269  15  3.276746E+05  2.115574E+05  1.929462E+04  2.599120E+05  2.129548E-10 -2.054923E-11
       269  16  4.035026E+05  2.625347E+05  2.943531E+04  2.999055E+05  6.236245E-10  9.677846E-11
       269  17  4.256279E+05  2.717065E+05  3.908593E+04  3.076597E+05  4.167668E-10 -6.371477E-11
       269  18  4.404888E+05  2.936848E+05  5.336921E+04  3.172286E+05 -3.455266E-10 -2.995098E-10
       269  19  2.489268E+05  1.553708E+05 -1.619617E+04  2.238385E+05  7.837412E+03 -1.092380E+03
       269  20  2.355774E+05  1.360460E+05 -1.762269E+04  2.123154E+05  1.278554E+04  8.355863E+02
       269  21  2.148734E+05  1.294368E+05 -1.478125E+04  2.026069E+05  1.756926E+04  2.982271E+03
       269  22  3.262111E+05  2.089509E+05  6.619796E+03  2.618691E+05  6.636873E+03 -1.992538E+03
       269  23  3.305978E+05  2.038737E+05  1.073224E+04  2.599834E+05  1.179607E+04  9.382965E+01
       269  24  3.276749E+05  2.115575E+05  1.929516E+04  2.599121E+05  1.679098E+04  2.399004E+03
       269  25  4.035026E+05  2.625347E+05  2.943538E+04  2.999055E+05  5.436118E+03 -2.892852E+03
       269  26  4.256280E+05  2.717066E+05  3.908615E+04  3.076597E+05  1.080639E+04 -6.480824E+02
       269  27  4.404891E+05  2.936849E+05  5.336970E+04  3.172286E+05  1.601252E+04  1.815595E+03
       270   1  1.884076E+05  1.270674E+05 -1.413842E+04  2.039757E+05 -2.250434E+04 -4.982254E+03
       270   2  1.925781E+05  8.544350E+04 -3.498494E+03  1.796826E+05 -3.520043E+04 -1.477894E+04
       270   3  2.244333E+05  1.044787E+05  3.482984E+04  1.343460E+05 -4.425033E+04 -2.943926E+04
       270   4  3.277339E+05  2.082903E+05  2.424545E+04  2.654286E+05 -2.034408E+04 -3.362550E+03
       270   5  3.276097E+05  2.027794E+05  4.138353E+04  2.569618E+05 -3.771611E+04 -1.666589E+04
       270   6  3.561743E+05  2.589292E+05  9.026008E+04  2.274538E+05 -5.144259E+04 -3.483381E+04
       270   7  4.670816E+05  2.895199E+05  6.262757E+04  3.268958E+05 -1.818315E+04 -1.742464E+03
       270   8  4.626620E+05  3.201328E+05  8.626342E+04  3.342623E+05 -4.023254E+04 -1.855356E+04
       270   9  4.879368E+05  4.134136E+05  1.456882E+05  3.205904E+05 -5.863692E+04 -4.023125E+04
       270  10  1.884071E+05  1.270672E+05 -1.413942E+04  2.039756E+05  2.299744E-10 -1.435151E-11
       270  11  1.925767E+05  8.544293E+04 -3.501231E+03  1.796822E+05  3.003338E-10  1.202384E-10
       270  12  2.244310E+05  1.044772E+05  3.482454E+04  1.343450E+05 -1.145967E-10 -2.402876E-10
       270  13  3.277334E+05  2.082902E+05  2.424466E+04  2.654286E+05 -1.297749E-10 -2.665511E-10
       270  14  3.276081E+05  2.027788E+05  4.138034E+04  2.569613E+05  1.784757E-10 -6.564945E-10
       270  15  3.561712E+05  2.589271E+05  9.025284E+04  2.274524E+05 -8.393236E-12  1.637809E-10
       270  16  4.670812E+05  2.895199E+05  6.262694E+04  3.268958E+05 -2.846327E-10 -3.024541E-10
       270  17  4.626601E+05  3.201320E+05  8.625974E+04  3.342617E+05  8.634584E-11 -3.323600E-10
       270  18  4.879326E+05  4.134110E+05  1.456787E+05  3.205885E+05  7.948825E-11  1.007381E-10
       270  19  1.884076E+05  1.270674E+05 -1.413842E+04  2.039757E+05  2.250434E+04  4.982254E+03
       270  20  1.925781E+05  8.544350E+04 -3.498494E+03  1.796826E+05  3.520043E+04  1.477894E+04
       270  21  2.244333E+05  1.044787E+05  3.482984E+04  1.343460E+05  4.425033E+04  2.943926E+04
       270  22  3.277339E+05  2.082903E+05  2.424545E+04  2.654286E+05  2.034408E+04  3.362550E+03
       270  23  3.276097E+05  2.027794E+05  4.138353E+04  2.569618E+05  3.771611E+04  1.666589E+04
       270  24  3.561743E+05  2.589292E+05  9.026008E+04  2.274538E+05  5.144259E+04  3.483381E+04
       270  25  4.670816E+05  2.895199E+05  6.262757E+04  3.268958E+05  1.818315E+04  1.742464E+03
       270  26  4.626620E+05  3.201328E+05  8.626342E+04  3.342623E+05  4.023254E+04  1.855356E+04
       270  27  4.879368E+05  4.134136E+05  1.456882E+05  3.205904E+05  5.863692E+04  4.023125E+04
       271   1  7.283805E+05  8.898548E+04  1.041184E+05  3.914786E+04  6.622421E+04 -5.626103E+02
       271   2  7.170103E+05  1.066073E+04  5.232938E+04  1.410494E+04  4.216148E+04 -1.838941E+03
       271   3  7.271138E+05  5.726068E+03  3.454235E+04 -1.073229E+04  1.809845E+04 -2.093731E+03
       271   4  6.884223E+05  7.907792E+04  9.448970E+04  3.816725E+02  6.450686E+04 -5.666398E+02
       271   5  6.777840E+05  1.092925E+03  4.367959E+04  2.769157E+02  4.142513E+04 -1.839853E+03
       271   6  6.884493E+05 -3.671989E+03  2.619183E+04  3.776088E+02  1.834304E+04 -2.093426E+03
       271   7  6.484689E+05  6.917588E+04  8.486164E+04 -3.838202E+04  6.278962E+04 -5.704552E+02
       271   8  6.385597E+05 -8.474262E+03  3.502982E+04 -1.355022E+04  4.068883E+04 -1.840731E+03
       271   9  6.497864E+05 -1.306968E+04  1.784128E+04  1.148680E+04  1.858761E+04 -2.093112E+03
       271  10  7.283758E+05  8.898431E+04  1.041102E+05  3.914789E+04  2.140513E-11 -7.132387E-11
       271  11  7.170083E+05  1.066025E+04  5.232603E+04  1.410500E+04  3.736738E-10 -1.654765E-10
       271  12  7.271134E+05  5.725975E+03  3.454173E+04 -1.073226E+04 -1.239693E-10  7.604257E-11
       271  13  6.884179E+05  7.907680E+04  9.448188E+04  3.817020E+02  2.374744E-10 -1.328685E-10
       271  14  6.777822E+05  1.092461E+03  4.367636E+04  2.769770E+02  2.569010E-10 -2.140538E-10
       271  15  6.884489E+05 -3.672084E+03  2.619119E+04  3.776398E+02 -7.335711E-10  1.244724E-10
       271  16  6.484647E+05  6.917482E+04  8.485424E+04 -3.838199E+04 -1.946158E-10 -1.452916E-10
       271  17  6.385579E+05 -8.474709E+03  3.502670E+04 -1.355016E+04  4.703181E-11 -1.860883E-10
       271  18  6.497861E+05 -1.306978E+04  1.784063E+04  1.148683E+04  5.294866E-10  1.310269E-10
       271  19  7.283805E+05  8.898548E+04  1.041184E+05  3.914786E+04 -6.622421E+04  5.626103E+02
       271  20  7.170103E+05  1.066073E+04  5.232938E+04  1.410494E+04 -4.216148E+04  1.838941E+03
       271  21  7.271138E+05  5.726068E+03  3.454235E+04 -1.073229E+04 -1.809845E+04  2.093731E+03
       271  22  6.884223E+05  7.907792E+04  9.448970E+04  3.816725E+02 -6.450686E+04  5.666398E+02
       271  23  6.777840E+05  1.092925E+03  4.367959E+04  2.769157E+02 -4.142513E+04  1.839853E+03
       271  24  6.884493E+05 -3.671989E+03  2.619183E+04  3.776088E+02 -1.834304E+04  2.093426E+03
       271  25  6.484689E+05  6.917588E+04  8.486164E+04 -3.838202E+04 -6.278962E+04  5.704552E+02
       271  26  6.385597E+05 -8.474262E+03  3.502982E+04 -1.355022E+04 -4.068883E+04  1.840731E+03
       271  27  6.497864E+05 -1.306968E+04  1.784128E+04  1.148680E+04 -1.858761E+04  2.093112E+03
       272   1  7.222852E+05  1.329709E+04  2.960323E+04  1.859385E+03  1.463354E+04 -1.991560E+03
       272   2  7.207330E+05  9.012658E+03  2.138384E+04  6.578621E+02  7.950270E+03 -2.015150E+03
       272   3  7.210929E+05  8.899301E+03  1.855488E+04 -3.103116E+02  1.267038E+03 -1.991478E+03
       272   4  6.841338E+05  4.015756E+03  2.131749E+04  3.848387E+02  1.458741E+04 -1.991603E+03
       272   5  6.831829E+05 -1.155766E+02  1.326317E+04  2.681279E+02  7.949886E+03 -2.015164E+03
       272   6  6.841364E+05 -8.362186E+01  1.056775E+04  3.847689E+02  1.312401E+03 -1.991485E+03
       272   7  6.459837E+05 -5.265663E+03  1.303166E+04 -1.089616E+03  1.454127E+04 -1.991645E+03
       272   8  6.456341E+05 -9.243903E+03  5.142417E+03 -1.215825E+02  7.949503E+03 -2.015178E+03
       272   9  6.471812E+05 -9.066633E+03  2.580537E+03  1.079807E+03  1.357761E+03 -1.991493E+03
       272  10  7.222850E+05  1.329703E+04  2.960282E+04  1.859409E+03 -9.478480E-11  1.979785E-10
       272  11  7.207329E+05  9.012637E+03  2.138372E+04  6.578750E+02  3.051580E-10  4.824700E-11
       272  12  7.210929E+05  8.899296E+03  1.855487E+04 -3.103096E+02  1.545819E-10 -1.673933E-10
       272  13  6.841335E+05  4.015695E+03  2.131708E+04  3.848621E+02  3.890007E-10  1.245905E-10
       272  14  6.831828E+05 -1.155979E+02  1.326304E+04  2.681408E+02  7.859265E-10 -6.610149E-11
       272  15  6.841364E+05 -8.362658E+01  1.056774E+04  3.847710E+02  1.750770E-10 -8.435355E-11
       272  16  6.459834E+05 -5.265724E+03  1.303126E+04 -1.089593E+03 -2.639471E-10  6.515150E-11
       272  17  6.456341E+05 -9.243925E+03  5.142291E+03 -1.215696E+02 -1.569091E-10 -2.667728E-10
       272  18  6.471812E+05 -9.066638E+03  2.580526E+03  1.079810E+03 -1.860533E-10 -9.121670E-11
       272  19  7.222852E+05  1.329709E+04  2.960323E+04  1.859385E+03 -1.463354E+04  1.991560E+03
       272  20  7.207330E+05  9.012658E+03  2.138384E+04  6.578621E+02 -7.950270E+03  2.015150E+03
       272  21  7.210929E+05  8.899301E+03  1.855488E+04 -3.103116E+02 -1.267038E+03  1.991478E+03
       272  22  6.841338E+05  4.015756E+03  2.131749E+04  3.848387E+02 -1.458741E+04  1.991603E+03
       272  23  6.831829E+05 -1.155766E+02  1.326317E+04  2.681279E+02 -7.949886E+03  2.015164E+03
       272  24  6.841364E+05 -8.362186E+01  1.056775E+04  3.847689E+02 -1.312401E+03  1.991485E+03
       272  25  6.459837E+05 -5.265663E+03  1.303166E+04 -1.089616E+03 -1.454127E+04  1.991645E+03
       272  26  6.456341E+05 -9.243903E+03  5.142417E+03 -1.215825E+02 -7.949503E+03  2.015178E+03
       272  27  6.471812E+05 -9.066633E+03  2.580537E+03  1.079807E+03 -1.357761E+03  1.991493E+03
       273   1  7.206045E+05  8.821792E+03  1.832302E+04  9.999311E+02 -5.600411E+02 -1.971185E+03
       273   2  7.191513E+05  8.622943E+03  2.031442E+04 -1.003641E+02 -6.874663E+03 -1.929697E+03
       273   3  7.194799E+05  1.226495E+04  2.737387E+04 -9.779313E+02 -1.318922E+04 -1.848045E+03
       273   4  6.841077E+05 -4.882104E+01  1.043805E+04  3.824318E+02 -5.394350E+02 -1.971193E+03
       273   5  6.832190E+05 -1.118542E+02  1.254448E+04  2.710510E+02 -6.815162E+03 -1.929708E+03
       273   6  6.841054E+05  3.659350E+03  1.969215E+04  3.823815E+02 -1.309083E+04 -1.848079E+03
       273   7  6.476121E+05 -8.919520E+03  2.553006E+03 -2.350307E+02 -5.188301E+02 -1.971201E+03
       273   8  6.472879E+05 -8.846736E+03  4.774456E+03  6.424443E+02 -6.755665E+03 -1.929720E+03
       273   9  6.487321E+05 -4.946326E+03  1.201035E+04  1.742616E+03 -1.299244E+04 -1.848113E+03
       273  10  7.206045E+05  8.821787E+03  1.832301E+04  9.999302E+02 -2.872398E-10 -2.420994E-10
       273  11  7.191513E+05  8.622927E+03  2.031433E+04 -1.003748E+02 -5.042188E-10 -8.655408E-11
       273  12  7.194797E+05  1.226490E+04  2.737354E+04 -9.779509E+02  2.378769E-11 -7.792915E-11
       273  13  6.841077E+05 -4.882529E+01  1.043805E+04  3.824310E+02  6.500670E-12 -4.747328E-11
       273  14  6.832190E+05 -1.118706E+02  1.254438E+04  2.710404E+02 -1.465287E-10  7.745353E-11
       273  15  6.841052E+05  3.659300E+03  1.969182E+04  3.823620E+02 -5.853578E-10 -9.760992E-13
       273  16  6.476121E+05 -8.919524E+03  2.552998E+03 -2.350315E+02 -7.603780E-11  7.214282E-11
       273  17  6.472879E+05 -8.846753E+03  4.774364E+03  6.424338E+02 -6.596912E-11  1.769349E-10
       273  18  6.487319E+05 -4.946375E+03  1.201003E+04  1.742596E+03  1.800143E-10  1.752515E-10
       273  19  7.206045E+05  8.821792E+03  1.832302E+04  9.999311E+02  5.600411E+02  1.971185E+03
       273  20  7.191513E+05  8.622943E+03  2.031442E+04 -1.003641E+02  6.874663E+03  1.929697E+03
       273  21  7.194799E+05  1.226495E+04  2.737387E+04 -9.779313E+02  1.318922E+04  1.848045E+03
       273  22  6.841077E+05 -4.882104E+01  1.043805E+04  3.824318E+02  5.394350E+02  1.971193E+03
       273  23  6.832190E+05 -1.118542E+02  1.254448E+04  2.710510E+02  6.815162E+03  1.929708E+03
       273  24  6.841054E+05  3.659350E+03  1.969215E+04  3.823815E+02  1.309083E+04  1.848079E+03
       273  25  6.476121E+05 -8.919520E+03  2.553006E+03 -2.350307E+02  5.188301E+02  1.971201E+03
       273  26  6.472879E+05 -8.846736E+03  4.774456E+03  6.424443E+02  6.755665E+03  1.929720E+03
       273  27  6.487321E+05 -4.946326E+03  1.201035E+04  1.742616E+03  1.299244E+04  1.848113E+03
       274   1  7.229973E+05  5.148016E+03  3.161952E+04  1.051247E+04 -1.640980E+04 -1.897604E+03
       274   2  7.126788E+05  9.379205E+03  4.749795E+04 -1.235559E+04 -3.832702E+04 -1.621992E+03
       274   3  7.219391E+05  8.053759E+04  9.436640E+04 -3.497844E+04 -6.024457E+04 -4.897035E+02
       274   4  6.880342E+05 -3.349697E+03  2.407115E+04  3.883649E+02 -1.655546E+04 -1.897349E+03
       274   5  6.783040E+05  9.958994E+02  3.992450E+04  2.637505E+02 -3.765010E+04 -1.622749E+03
       274   6  6.880096E+05  7.212602E+04  8.619782E+04  3.851516E+02 -5.874503E+04 -4.930536E+02
       274   7  6.530725E+05 -1.184711E+04  1.652277E+04 -9.735160E+03 -1.670110E+04 -1.897090E+03
       274   8  6.439306E+05 -7.386887E+03  3.235107E+04  1.288238E+04 -3.697321E+04 -1.623477E+03
       274   9  6.540839E+05  6.371906E+04  7.802984E+04  3.574681E+04 -5.724556E+04 -4.962332E+02
       274  10  7.229970E+05  5.147940E+03  3.161901E+04  1.051244E+04  2.068350E-11 -8.019005E-11
       274  11  7.126773E+05  9.378808E+03  4.749519E+04 -1.235564E+04 -2.788307E-10 -1.017669E-10
       274  12  7.219352E+05  8.053661E+04  9.435959E+04 -3.497847E+04 -5.076676E-10 -3.083076E-11
       274  13  6.880339E+05 -3.349775E+03  2.407063E+04  3.883396E+02  1.430812E-10 -2.552038E-11
       274  14  6.783025E+05  9.955166E+02  3.992184E+04  2.637013E+02  6.972422E-11 -1.871454E-10
       274  15  6.880059E+05  7.212509E+04  8.619134E+04  3.851282E+02  4.389886E-10  2.536595E-11
       274  16  6.530722E+05 -1.184719E+04  1.652223E+04 -9.735185E+03 -6.297162E-11  2.624140E-11
       274  17  6.439291E+05 -7.387257E+03  3.234850E+04  1.288233E+04 -4.747853E-11 -1.576143E-10
       274  18  6.540804E+05  6.371818E+04  7.802369E+04  3.574678E+04  3.929077E-10 -3.876456E-11
       274  19  7.229973E+05  5.148016E+03  3.161952E+04  1.051247E+04  1.640980E+04  1.897604E+03
       274  20  7.126788E+05  9.379205E+03  4.749795E+04 -1.235559E+04  3.832702E+04  1.621992E+03
       274  21  7.219391E+05  8.053759E+04  9.436640E+04 -3.497844E+04  6.024457E+04  4.897035E+02
       274  22  6.880342E+05 -3.349697E+03  2.407115E+04  3.883649E+02  1.655546E+04  1.897349E+03
       274  23  6.783040E+05  9.958994E+02  3.992450E+04  2.637505E+02  3.765010E+04  1.622749E+03
       274  24  6.880096E+05  7.212602E+04  8.619782E+04  3.851516E+02  5.874503E+04  4.930536E+02
       274  25  6.530725E+05 -1.184711E+04  1.652277E+04 -9.735160E+03  1.670110E+04  1.897090E+03
       274  26  6.439306E+05 -7.386887E+03  3.235107E+04  1.288238E+04  3.697321E+04  1.623477E+03
       274  27  6.540839E+05  6.371906E+04  7.802984E+04  3.574681E+04  5.724556E+04  4.962332E+02
       275   1 -5.062308E+04 -3.355197E+04 -5.719904E+04  5.390178E+03 -1.040921E+03 -3.270196E+04
       275   2 -1.911626E+04 -4.716994E+04 -3.690017E+04 -2.355157E+03 -3.774530E+03 -2.080769E+04
       275   3 -2.147132E+04 -7.079815E+04 -3.280937E+04 -1.750986E+04 -5.215684E+03 -8.913543E+03
       275   4 -3.629511E+04  2.428944E+04 -4.338824E+04 -1.239903E+04 -1.039815E+03 -2.945818E+04
       275   5 -4.999307E+02  2.918601E+04 -2.016909E+04 -8.695934E+03 -3.774129E+03 -1.880418E+04
       275   6  1.650309E+03  2.428793E+04 -1.229599E+04 -1.240220E+04 -5.215622E+03 -8.150036E+03
       275   7 -2.196619E+04  8.213462E+04 -2.957747E+04 -3.018990E+04 -1.038896E+03 -2.621411E+04
       275   8  1.811616E+04  1.055475E+05 -3.438338E+03 -1.503750E+04 -3.773769E+03 -1.680044E+04
       275   9  2.477144E+04  1.193826E+05  8.216867E+03 -7.293748E+03 -5.215548E+03 -7.386413E+03
       275  10 -5.062337E+04 -3.355312E+04 -5.720105E+04  5.390151E+03  7.899012E-11 -1.866444E-10
       275  11 -1.911639E+04 -4.717041E+04 -3.690101E+04 -2.355221E+03 -1.595573E-10  1.334400E-10
       275  12 -2.147137E+04 -7.079824E+04 -3.280957E+04 -1.750990E+04  2.089017E-10  3.668070E-10
       275  13 -3.629534E+04  2.428851E+04 -4.338987E+04 -1.239905E+04 -2.110708E-10 -5.106828E-12
       275  14 -5.000409E+02  2.918563E+04 -2.016979E+04 -8.695992E+03  7.551331E-11 -1.187182E-10
       275  15  1.650262E+03  2.428785E+04 -1.229617E+04 -1.240223E+04 -2.827796E-10  1.832686E-10
       275  16 -2.196637E+04  8.213388E+04 -2.957876E+04 -3.018992E+04 -6.320082E-11  5.912128E-11
       275  17  1.811607E+04  1.055472E+05 -3.438895E+03 -1.503755E+04 -3.799412E-10 -2.777021E-10
       275  18  2.477139E+04  1.193825E+05  8.216713E+03 -7.293779E+03  1.838717E-10 -3.138558E-10
       275  19 -5.062308E+04 -3.355197E+04 -5.719904E+04  5.390178E+03  1.040921E+03  3.270196E+04
       275  20 -1.911626E+04 -4.716994E+04 -3.690017E+04 -2.355157E+03  3.774530E+03  2.080769E+04
       275  21 -2.147132E+04 -7.079815E+04 -3.280937E+04 -1.750986E+04  5.215684E+03  8.913543E+03
       275  22 -3.629511E+04  2.428944E+04 -4.338824E+04 -1.239903E+04  1.039815E+03  2.945818E+04
       275  23 -4.999307E+02  2.918601E+04 -2.016909E+04 -8.695934E+03  3.774129E+03  1.880418E+04
       275  24  1.650309E+03  2.428793E+04 -1.229599E+04 -1.240220E+04  5.215622E+03  8.150036E+03
       275  25 -2.196619E+04  8.213462E+04 -2.957747E+04 -3.018990E+04  1.038896E+03  2.621411E+04
       275  26  1.811616E+04  1.055475E+05 -3.438338E+03 -1.503750E+04  3.773769E+03  1.680044E+04
       275  27  2.477144E+04  1.193826E+05  8.216867E+03 -7.293748E+03  5.215548E+03  7.386413E+03
       276   1 -2.856359E+04 -8.363347E+04 -3.401476E+04 -1.162179E+04 -5.767638E+03 -7.568334E+03
       276   2 -3.122019E+04 -1.017215E+05 -3.457954E+04 -8.646511E+03 -6.864428E+03 -3.899414E+03
       276   3 -3.643322E+04 -1.209176E+05 -3.817028E+04 -1.301551E+04 -7.664297E+03 -2.304904E+02
       276   4 -1.818109E+03  2.622862E+04 -1.015238E+04 -1.238670E+04 -5.767413E+03 -6.373462E+03
       276   5  4.303704E+01  2.675727E+04 -6.748091E+03 -8.714693E+03 -6.864176E+03 -2.989016E+03
       276   6 -6.025587E+02  2.622714E+04 -6.171882E+03 -1.238689E+04 -7.664039E+03  3.955404E+02
       276   7  2.492657E+04  1.361020E+05  1.370929E+04 -1.315175E+04 -5.767191E+03 -5.178382E+03
       276   8  3.130517E+04  1.552516E+05  2.108238E+04 -8.782890E+03 -6.863923E+03 -2.078432E+03
       276   9  3.522667E+04  1.733922E+05  2.582522E+04 -1.175813E+04 -7.663779E+03  1.021718E+03
       276  10 -2.856364E+04 -8.363354E+04 -3.401493E+04 -1.162183E+04 -7.912974E-12 -6.037185E-10
       276  11 -3.122024E+04 -1.017216E+05 -3.457966E+04 -8.646532E+03 -2.724061E-10 -2.354311E-10
       276  12 -3.643329E+04 -1.209176E+05 -3.817039E+04 -1.301551E+04  7.515854E-11  1.607359E-10
       276  13 -1.818155E+03  2.622857E+04 -1.015252E+04 -1.238673E+04 -5.243889E-10 -1.684294E-11
       276  14  4.298405E+01  2.675724E+04 -6.748196E+03 -8.714710E+03 -2.875454E-10 -1.680435E-10
       276  15 -6.026218E+02  2.622712E+04 -6.171993E+03 -1.238689E+04  2.011333E-10  4.139337E-10
       276  16  2.492653E+04  1.361020E+05  1.370917E+04 -1.315177E+04 -1.003067E-10  3.905765E-10
       276  17  3.130512E+04  1.552515E+05  2.108228E+04 -8.782901E+03  8.848734E-11  9.715574E-11
       276  18  3.522661E+04  1.733922E+05  2.582511E+04 -1.175812E+04 -4.019460E-10 -1.212390E-11
       276  19 -2.856359E+04 -8.363347E+04 -3.401476E+04 -1.162179E+04  5.767638E+03  7.568334E+03
       276  20 -3.122019E+04 -1.017215E+05 -3.457954E+04 -8.646511E+03  6.864428E+03  3.899414E+03
       276  21 -3.643322E+04 -1.209176E+05 -3.817028E+04 -1.301551E+04  7.664297E+03  2.304904E+02
       276  22 -1.818109E+03  2.622862E+04 -1.015238E+04 -1.238670E+04  5.767413E+03  6.373462E+03
       276  23  4.303704E+01  2.675727E+04 -6.748091E+03 -8.714693E+03  6.864176E+03  2.989016E+03
       276  24 -6.025587E+02  2.622714E+04 -6.171882E+03 -1.238689E+04  7.664039E+03 -3.955404E+02
       276  25  2.492657E+04  1.361020E+05  1.370929E+04 -1.315175E+04  5.767191E+03  5.178382E+03
       276  26  3.130517E+04  1.552516E+05  2.108238E+04 -8.782890E+03  6.863923E+03  2.078432E+03
       276  27  3.522667E+04  1.733922E+05  2.582522E+04 -1.175813E+04  7.663779E+03 -1.021718E+03
       277   1 -3.888506E+04 -1.364529E+05 -4.144292E+04 -1.048559E+04 -8.711315E+03 -7.106013E+02
       277   2 -4.423940E+04 -1.528345E+05 -4.830223E+04 -1.126046E+04 -8.301791E+03  8.751621E+03
       277   3 -6.323464E+04 -1.738429E+05 -6.472967E+04 -1.913994E+04 -2.631099E+03  1.821147E+04
       277   4  5.480098E+02  2.562814E+04 -6.364419E+03 -1.233470E+04 -8.710658E+03  1.423677E+03
       277   5 -1.879948E+02  2.750204E+04 -8.404255E+03 -8.780216E+03 -8.302419E+03  5.837307E+03
       277   6 -1.368633E+04  2.562636E+04 -1.650478E+04 -1.233045E+04 -2.633567E+03  1.024897E+04
       277   7  3.997936E+04  1.877338E+05  2.871254E+04 -1.418431E+04 -8.710015E+03  3.558505E+03
       277   8  4.386125E+04  2.078690E+05  3.149175E+04 -6.299242E+03 -8.303070E+03  2.922155E+03
       277   9  3.585928E+04  2.251322E+05  3.171751E+04 -5.518758E+03 -2.636209E+03  2.283924E+03
       277  10 -3.888515E+04 -1.364529E+05 -4.144306E+04 -1.048559E+04 -1.224590E-10 -6.003865E-10
       277  11 -4.423949E+04 -1.528346E+05 -4.830251E+04 -1.126040E+04 -6.254549E-10 -1.741843E-10
       277  12 -6.323474E+04 -1.738432E+05 -6.473030E+04 -1.913990E+04 -3.278861E-10  1.880140E-10
       277  13  5.479278E+02  2.562812E+04 -6.364566E+03 -1.233469E+04 -3.539490E-10  7.401759E-12
       277  14 -1.880779E+02  2.750198E+04 -8.404448E+03 -8.780177E+03 -5.010008E-10 -3.130235E-10
       277  15 -1.368636E+04  2.562625E+04 -1.650499E+04 -1.233042E+04  4.534424E-11  6.470785E-10
       277  16  3.997928E+04  1.877338E+05  2.871237E+04 -1.418429E+04 -1.799080E-10  2.285348E-10
       277  17  4.386117E+04  2.078690E+05  3.149160E+04 -6.299223E+03 -5.505558E-10 -1.472510E-10
       277  18  3.585927E+04  2.251322E+05  3.171749E+04 -5.518753E+03  8.913075E-12  2.579518E-11
       277  19 -3.888506E+04 -1.364529E+05 -4.144292E+04 -1.048559E+04  8.711315E+03  7.106013E+02
       277  20 -4.423940E+04 -1.528345E+05 -4.830223E+04 -1.126046E+04  8.301791E+03 -8.751621E+03
       277  21 -6.323464E+04 -1.738429E+05 -6.472967E+04 -1.913994E+04  2.631099E+03 -1.821147E+04
       277  22  5.480098E+02  2.562814E+04 -6.364419E+03 -1.233470E+04  8.710658E+03 -1.423677E+03
       277  23 -1.879948E+02  2.750204E+04 -8.404255E+03 -8.780216E+03  8.302419E+03 -5.837307E+03
       277  24 -1.368633E+04  2.562636E+04 -1.650478E+04 -1.233045E+04  2.633567E+03 -1.024897E+04
       277  25  3.997936E+04  1.877338E+05  2.871254E+04 -1.418431E+04  8.710015E+03 -3.558505E+03
       277  26  4.386125E+04  2.078690E+05  3.149175E+04 -6.299242E+03  8.303070E+03 -2.922155E+03
       277  27  3.585928E+04  2.251322E+05  3.171751E+04 -5.518758E+03  2.636209E+03 -2.283924E+03
       278   1  1.028851E+04 -4.826670E+04 -4.916409E+04  1.727003E+04 -2.148147E+04 -1.527864E+04
       278   2  2.173145E+04 -9.660098E+03 -2.582472E+04  1.323629E+04 -1.419823E+04 -8.243901E+03
       278   3  2.287622E+04  3.333233E+03 -1.594692E+04  1.710121E+04 -5.966607E+03 -2.473770E+03
       278   4  3.792597E+04 -4.790712E+03 -3.533958E+04  4.187478E+04 -1.990793E+04 -1.409946E+04
       278   5  4.851899E+04  1.780077E+04 -1.612863E+04  3.048882E+04 -1.383868E+04 -7.974475E+03
       278   6  4.907812E+04  1.504313E+04 -9.325000E+03  2.700131E+04 -6.821038E+03 -3.114395E+03
       278   7  6.556425E+04  3.868769E+04 -2.151532E+04  6.648102E+04 -1.833432E+04 -1.292011E+04
       278   8  7.530719E+04  4.526247E+04 -6.432702E+03  4.774225E+04 -1.347911E+04 -7.705025E+03
       278   9  7.528079E+04  2.675316E+04 -2.703122E+03  3.690178E+04 -7.675518E+03 -3.755039E+03
       278  10  1.028795E+04 -4.826707E+04 -4.916540E+04  1.726976E+04  1.465026E-10 -2.904306E-11
       278  11  2.173121E+04 -9.660226E+03 -2.582523E+04  1.323619E+04  4.319191E-10  9.142115E-11
       278  12  2.287618E+04  3.333217E+03 -1.594700E+04  1.710119E+04 -3.814765E-11  1.239747E-10
       278  13  3.792549E+04 -4.791032E+03 -3.534070E+04  4.187455E+04  4.227287E-10 -5.213631E-11
       278  14  4.851876E+04  1.780065E+04 -1.612911E+04  3.048873E+04  1.097302E-10  2.898925E-10
       278  15  4.907806E+04  1.504311E+04 -9.325106E+03  2.700129E+04 -5.707541E-11  2.418277E-10
       278  16  6.556384E+04  3.868742E+04 -2.151626E+04  6.648083E+04  4.241261E-11 -1.027984E-11
       278  17  7.530698E+04  4.526236E+04 -6.433155E+03  4.774217E+04  8.272611E-11 -2.914317E-11
       278  18  7.528072E+04  2.675313E+04 -2.703260E+03  3.690176E+04  2.238132E-11  6.822705E-11
       278  19  1.028851E+04 -4.826670E+04 -4.916409E+04  1.727003E+04  2.148147E+04  1.527864E+04
       278  20  2.173145E+04 -9.660098E+03 -2.582472E+04  1.323629E+04  1.419823E+04  8.243901E+03
       278  21  2.287622E+04  3.333233E+03 -1.594692E+04  1.710121E+04  5.966607E+03  2.473770E+03
       278  22  3.792597E+04 -4.790712E+03 -3.533958E+04  4.187478E+04  1.990793E+04  1.409946E+04
       278  23  4.851899E+04  1.780077E+04 -1.612863E+04  3.048882E+04  1.383868E+04  7.974475E+03
       278  24  4.907812E+04  1.504313E+04 -9.325000E+03  2.700131E+04  6.821038E+03  3.114395E+03
       278  25  6.556425E+04  3.868769E+04 -2.151532E+04  6.648102E+04  1.833432E+04  1.292011E+04
       278  26  7.530719E+04  4.526247E+04 -6.432702E+03  4.774225E+04  1.347911E+04  7.705025E+03
       278  27  7.528079E+04  2.675316E+04 -2.703122E+03  3.690178E+04  7.675518E+03  3.755039E+03
       279   1  3.507180E+04  2.982469E+03 -1.167112E+04  2.177660E+04 -4.938367E+03 -2.421706E+03
       279   2  4.254843E+04  1.379615E+04 -5.250793E+03  2.683282E+04 -2.955926E+03 -1.786158E+03
       279   3  5.408681E+04  1.842859E+04 -4.839768E+02  3.084331E+04 -9.306066E+02 -1.207695E+03
       279   4  4.910004E+04  1.376877E+04 -7.323428E+03  2.916551E+04 -5.433953E+03 -2.793313E+03
       279   5  4.735085E+04  1.736496E+04 -3.783169E+03  2.930490E+04 -3.506299E+03 -2.198841E+03
       279   6  4.967514E+04  1.479171E+04 -1.848803E+03  2.839845E+04 -1.535817E+03 -1.661487E+03
       279   7  6.312864E+04  2.455531E+04 -2.975711E+03  3.655468E+04 -5.929558E+03 -3.164936E+03
       279   8  5.215330E+04  2.093377E+04 -2.315545E+03  3.177701E+04 -4.056678E+03 -2.611527E+03
       279   9  4.526355E+04  1.115489E+04 -3.213614E+03  2.595364E+04 -2.141015E+03 -2.115269E+03
       279  10  3.507177E+04  2.982456E+03 -1.167117E+04  2.177659E+04  3.177646E-11  3.172807E-10
       279  11  4.254842E+04  1.379615E+04 -5.250815E+03  2.683282E+04  4.076584E-10  1.836151E-10
       279  12  5.408680E+04  1.842859E+04 -4.839812E+02  3.084331E+04  1.154932E-10 -4.957047E-11
       279  13  4.910001E+04  1.376875E+04 -7.323498E+03  2.916549E+04 -4.202828E-11  1.017449E-10
       279  14  4.735084E+04  1.736495E+04 -3.783201E+03  2.930490E+04  1.112213E-11 -1.247404E-10
       279  15  4.967514E+04  1.479171E+04 -1.848813E+03  2.839845E+04  1.903007E-10  4.039535E-11
       279  16  6.312860E+04  2.455529E+04 -2.975796E+03  3.655466E+04 -2.056958E-10 -2.924541E-11
       279  17  5.215328E+04  2.093376E+04 -2.315589E+03  3.177700E+04  1.480646E-10 -1.243828E-12
       279  18  4.526354E+04  1.115488E+04 -3.213631E+03  2.595364E+04 -3.447766E-10 -8.596232E-11
       279  19  3.507180E+04  2.982469E+03 -1.167112E+04  2.177660E+04  4.938367E+03  2.421706E+03
       279  20  4.254843E+04  1.379615E+04 -5.250793E+03  2.683282E+04  2.955926E+03  1.786158E+03
       279  21  5.408681E+04  1.842859E+04 -4.839768E+02  3.084331E+04  9.306066E+02  1.207695E+03
       279  22  4.910004E+04  1.376877E+04 -7.323428E+03  2.916551E+04  5.433953E+03  2.793313E+03
       279  23  4.735085E+04  1.736496E+04 -3.783169E+03  2.930490E+04  3.506299E+03  2.198841E+03
       279  24  4.967514E+04  1.479171E+04 -1.848803E+03  2.839845E+04  1.535817E+03  1.661487E+03
       279  25  6.312864E+04  2.455531E+04 -2.975711E+03  3.655468E+04  5.929558E+03  3.164936E+03
       279  26  5.215330E+04  2.093377E+04 -2.315545E+03  3.177701E+04  4.056678E+03  2.611527E+03
       279  27  4.526355E+04  1.115489E+04 -3.213614E+03  2.595364E+04  2.141015E+03  2.115269E+03
       280   1  6.199485E+04  2.356888E+04  2.562047E+03  3.472339E+04 -4.629246E+02 -1.427092E+03
       280   2  6.912853E+04  3.292316E+04  6.644869E+03  4.022270E+04 -5.132185E+01 -2.077224E+03
       280   3  8.127669E+04  3.728431E+04  1.076983E+04  4.426214E+04  3.584354E+02 -2.724839E+03
       280   4  4.970910E+04  1.474178E+04 -1.141800E+03  2.853970E+04 -1.053307E+03 -1.869768E+03
       280   5  4.722833E+04  1.728519E+04  1.164590E+02  2.923477E+04 -6.392948E+02 -2.518112E+03
       280   6  4.976136E+04  1.483483E+04  1.414778E+03  2.846985E+04 -2.271270E+02 -3.163938E+03
       280   7  3.742352E+04  5.914773E+03 -4.845663E+03  2.235614E+04 -1.643673E+03 -2.312433E+03
       280   8  2.532853E+04  1.647404E+03 -6.412044E+03  1.824722E+04 -1.227243E+03 -2.958980E+03
       280   9  1.824679E+04 -7.614318E+03 -7.940501E+03  1.267830E+04 -8.126551E+02 -3.603011E+03
       280  10  6.199485E+04  2.356888E+04  2.562043E+03  3.472339E+04  1.046596E-10 -3.505466E-11
       280  11  6.912853E+04  3.292316E+04  6.644861E+03  4.022270E+04 -8.625000E-11 -1.187503E-10
       280  12  8.127669E+04  3.728430E+04  1.076982E+04  4.426214E+04  1.053179E-11 -8.913115E-11
       280  13  4.970910E+04  1.474178E+04 -1.141808E+03  2.853969E+04  1.126220E-10 -7.511462E-11
       280  14  4.722833E+04  1.728518E+04  1.164464E+02  2.923477E+04 -4.763929E-10 -5.546464E-11
       280  15  4.976136E+04  1.483482E+04  1.414759E+03  2.846985E+04 -1.535687E-10 -1.510939E-10
       280  16  3.742351E+04  5.914767E+03 -4.845678E+03  2.235614E+04 -1.462956E-10 -5.808179E-11
       280  17  2.532852E+04  1.647394E+03 -6.412063E+03  1.824721E+04 -4.814697E-11  1.655265E-10
       280  18  1.824678E+04 -7.614332E+03 -7.940526E+03  1.267830E+04  3.315743E-11 -8.923056E-11
       280  19  6.199485E+04  2.356888E+04  2.562047E+03  3.472339E+04  4.629246E+02  1.427092E+03
       280  20  6.912853E+04  3.292316E+04  6.644869E+03  4.022270E+04  5.132185E+01  2.077224E+03
       280  21  8.127669E+04  3.728431E+04  1.076983E+04  4.426214E+04 -3.584354E+02  2.724839E+03
       280  22  4.970910E+04  1.474178E+04 -1.141800E+03  2.853970E+04  1.053307E+03  1.869768E+03
       280  23  4.722833E+04  1.728519E+04  1.164590E+02  2.923477E+04  6.392948E+02  2.518112E+03
       280  24  4.976136E+04  1.483483E+04  1.414778E+03  2.846985E+04  2.271270E+02  3.163938E+03
       280  25  3.742352E+04  5.914773E+03 -4.845663E+03  2.235614E+04  1.643673E+03  2.312433E+03
       280  26  2.532853E+04  1.647404E+03 -6.412044E+03  1.824722E+04  1.227243E+03  2.958980E+03
       280  27  1.824679E+04 -7.614318E+03 -7.940501E+03  1.267830E+04  8.126551E+02  3.603011E+03
       281   1  8.869658E+04  4.291413E+04  1.386085E+04  4.830219E+04  4.157934E+02 -3.258626E+03
       281   2  9.605071E+04  5.170099E+04  1.881600E+04  5.350574E+04 -9.713401E+02 -5.214680E+03
       281   3  1.094661E+05  5.681704E+04  2.567607E+04  5.679073E+04 -2.443144E+03 -7.057767E+03
       281   4  4.979555E+04  1.478014E+04  2.168907E+03  2.862515E+04 -2.011776E+02 -3.721292E+03
       281   5  4.709688E+04  1.719695E+04  4.279503E+03  2.915698E+04 -1.479680E+03 -5.595917E+03
       281   6  5.043607E+04  1.591961E+04  8.200985E+03  2.777027E+04 -2.842826E+03 -7.357554E+03
       281   7  1.089657E+04 -1.335266E+04 -9.523066E+03  8.949720E+03 -8.180900E+02 -4.183913E+03
       281   8 -1.854068E+03 -1.730559E+04 -1.025717E+04  4.810519E+03 -1.987962E+03 -5.977112E+03
       281   9 -8.590190E+03 -2.497598E+04 -9.274473E+03 -1.247094E+03 -3.242456E+03 -7.657303E+03
       281  10  8.869657E+04  4.291412E+04  1.386083E+04  4.830219E+04 -1.854881E-11 -6.854183E-11
       281  11  9.605070E+04  5.170096E+04  1.881594E+04  5.350574E+04 -3.221777E-10  4.713059E-12
       281  12  1.094661E+05  5.681698E+04  2.567596E+04  5.679072E+04 -4.930355E-10 -1.159611E-10
       281  13  4.979554E+04  1.478013E+04  2.168881E+03  2.862515E+04  1.600224E-10 -3.462020E-11
       281  14  4.709687E+04  1.719691E+04  4.279440E+03  2.915697E+04  1.918729E-10  5.448009E-11
       281  15  5.043604E+04  1.591955E+04  8.200868E+03  2.777025E+04 -5.715282E-11 -2.797511E-11
       281  16  1.089657E+04 -1.335268E+04 -9.523100E+03  8.949718E+03 -1.200103E-10 -3.914808E-11
       281  17 -1.854082E+03 -1.730563E+04 -1.025724E+04  4.810510E+03  2.029395E-10 -4.753769E-11
       281  18 -8.590217E+03 -2.497604E+04 -9.274603E+03 -1.247114E+03  4.795442E-11 -9.861778E-11
       281  19  8.869658E+04  4.291413E+04  1.386085E+04  4.830219E+04 -4.157934E+02  3.258626E+03
       281  20  9.605071E+04  5.170099E+04  1.881600E+04  5.350574E+04  9.713401E+02  5.214680E+03
       281  21  1.094661E+05  5.681704E+04  2.567607E+04  5.679073E+04  2.443144E+03  7.057767E+03
       281  22  4.979555E+04  1.478014E+04  2.168907E+03  2.862515E+04  2.011776E+02  3.721292E+03
       281  23  4.709688E+04  1.719695E+04  4.279503E+03  2.915698E+04  1.479680E+03  5.595917E+03
       281  24  5.043607E+04  1.591961E+04  8.200985E+03  2.777027E+04  2.842826E+03  7.357554E+03
       281  25  1.089657E+04 -1.335266E+04 -9.523066E+03  8.949720E+03  8.180900E+02  4.183913E+03
       281  26 -1.854068E+03 -1.730559E+04 -1.025717E+04  4.810519E+03  1.987962E+03  5.977112E+03
       281  27 -8.590190E+03 -2.497598E+04 -9.274473E+03 -1.247094E+03  3.242456E+03  7.657303E+03
       282   1  1.121070E+05  6.591716E+04  3.010839E+04  6.453643E+04 -2.483409E+03 -7.959676E+03
       282   2  1.270370E+05  6.479717E+04  4.100602E+04  6.391703E+04 -1.256332E+04 -1.537390E+04
       282   3  1.640519E+05  8.209770E+04  6.782392E+04  5.146526E+04 -2.451419E+04 -2.029451E+04
       282   4  5.041398E+04  1.454481E+04  1.042453E+04  3.019778E+04 -3.590757E+03 -8.790133E+03
       282   5  4.585026E+04  1.665092E+04  1.799908E+04  2.782003E+04 -1.127500E+04 -1.440795E+04
       282   6  6.285316E+04  3.665991E+04  3.941627E+04  1.360939E+04 -2.082971E+04 -1.753202E+04
       282   7 -1.127555E+04 -3.682488E+04 -9.260042E+03 -4.137052E+03 -4.697968E+03 -9.620462E+03
       282   8 -3.532923E+04 -3.149298E+04 -5.008509E+03 -8.272086E+03 -9.986905E+03 -1.344213E+04
       282   9 -3.833313E+04 -8.775634E+03  1.100813E+04 -2.424062E+04 -1.714611E+04 -1.476988E+04
       282  10  1.121070E+05  6.591710E+04  3.010826E+04  6.453641E+04 -1.696472E-10 -1.390280E-10
       282  11  1.270367E+05  6.479687E+04  4.100528E+04  6.391688E+04  1.917343E-10 -5.087501E-11
       282  12  1.640511E+05  8.209710E+04  6.782202E+04  5.146486E+04  2.720612E-10  6.993903E-11
       282  13  5.041394E+04  1.454473E+04  1.042436E+04  3.019775E+04 -1.045346E-10 -6.436704E-11
       282  14  4.585007E+04  1.665067E+04  1.799845E+04  2.781990E+04 -3.146200E-10 -8.075220E-11
       282  15  6.285261E+04  3.665946E+04  3.941487E+04  1.360909E+04 -3.941952E-10  4.151001E-11
       282  16 -1.127560E+04 -3.682498E+04 -9.260257E+03 -4.137088E+03  3.215520E-10  2.800267E-11
       282  17 -3.532939E+04 -3.149320E+04 -5.009036E+03 -8.272194E+03  1.735654E-10  8.719383E-11
       282  18 -3.833350E+04 -8.775947E+03  1.100717E+04 -2.424082E+04 -1.113827E-10 -2.062700E-11
       282  19  1.121070E+05  6.591716E+04  3.010839E+04  6.453643E+04  2.483409E+03  7.959676E+03
       282  20  1.270370E+05  6.479717E+04  4.100602E+04  6.391703E+04  1.256332E+04  1.537390E+04
       282  21  1.640519E+05  8.209770E+04  6.782392E+04  5.146526E+04  2.451419E+04  2.029451E+04
       282  22  5.041398E+04  1.454481E+04  1.042453E+04  3.019778E+04  3.590757E+03  8.790133E+03
       282  23  4.585026E+04  1.665092E+04  1.799908E+04  2.782003E+04  1.127500E+04  1.440795E+04
       282  24  6.285316E+04  3.665991E+04  3.941627E+04  1.360939E+04  2.082971E+04  1.753202E+04
       282  25 -1.127555E+04 -3.682488E+04 -9.260042E+03 -4.137052E+03  4.697968E+03  9.620462E+03
       282  26 -3.532923E+04 -3.149298E+04 -5.008509E+03 -8.272086E+03  9.986905E+03  1.344213E+04
       282  27 -3.833313E+04 -8.775634E+03  1.100813E+04 -2.424062E+04  1.714611E+04  1.476988E+04
       283   1  1.118189E+06  1.578852E+05  1.802844E+05  5.900256E+04  1.058663E+05 -2.110722E+03
       283   2  1.102153E+06  3.802333E+04  9.906532E+04  2.103395E+04  6.721886E+04 -6.997763E+03
       283   3  1.119292E+06  3.078048E+04  7.113519E+04 -1.733249E+04  2.857137E+04 -8.115773E+03
       283   4  9.693855E+05  1.209797E+05  1.444549E+05 -3.045345E+02  9.935281E+04 -2.121297E+03
       283   5  9.531393E+05  1.682176E+03  6.623431E+04 -9.777188E+01  6.433151E+04 -7.000502E+03
       283   6  9.694435E+05 -5.616186E+03  3.879419E+04 -2.901795E+02  2.930986E+04 -8.115015E+03
       283   7  8.206103E+05  8.408578E+04  1.086260E+05 -5.959738E+04  9.284085E+04 -2.130632E+03
       283   8  8.041477E+05 -3.465879E+04  3.340220E+04 -2.122437E+04  6.144484E+04 -7.003046E+03
       283   9  8.196170E+05 -4.201324E+04  6.452028E+03  1.674797E+04  3.004817E+04 -8.114215E+03
       283  10  1.118177E+06  1.578822E+05  1.802633E+05  5.900274E+04 -3.490515E-10 -3.036529E-11
       283  11  1.102148E+06  3.802207E+04  9.905675E+04  2.103432E+04  3.868468E-10  2.120826E-10
       283  12  1.119291E+06  3.078019E+04  7.113354E+04 -1.733231E+04 -4.310734E-10 -3.862186E-11
       283  13  9.693749E+05  1.209770E+05  1.444364E+05 -3.043648E+02  7.042644E-10  1.697715E-10
       283  14  9.531348E+05  1.681014E+03  6.622645E+04 -9.740932E+01  7.738424E-10  3.017790E-10
       283  15  9.694426E+05 -5.616487E+03  3.879246E+04 -2.899880E+02  3.658892E-10  1.381956E-10
       283  16  8.206011E+05  8.408347E+04  1.086098E+05 -5.959722E+04  3.273582E-10  3.874271E-11
       283  17  8.041436E+05 -3.465986E+04  3.339502E+04 -2.122402E+04  1.534400E-10  6.806331E-12
       283  18  8.196160E+05 -4.201355E+04  6.450210E+03  1.674817E+04  3.210313E-10 -3.579198E-11
       283  19  1.118189E+06  1.578852E+05  1.802844E+05  5.900256E+04 -1.058663E+05  2.110722E+03
       283  20  1.102153E+06  3.802333E+04  9.906532E+04  2.103395E+04 -6.721886E+04  6.997763E+03
       283  21  1.119292E+06  3.078048E+04  7.113519E+04 -1.733249E+04 -2.857137E+04  8.115773E+03
       283  22  9.693855E+05  1.209797E+05  1.444549E+05 -3.045345E+02 -9.935281E+04  2.121297E+03
       283  23  9.531393E+05  1.682176E+03  6.623431E+04 -9.777188E+01 -6.433151E+04  7.000502E+03
       283  24  9.694435E+05 -5.616186E+03  3.879419E+04 -2.901795E+02 -2.930986E+04  8.115015E+03
       283  25  8.206103E+05  8.408578E+04  1.086260E+05 -5.959738E+04 -9.284085E+04  2.130632E+03
       283  26  8.041477E+05 -3.465879E+04  3.340220E+04 -2.122437E+04 -6.144484E+04  7.003046E+03
       283  27  8.196170E+05 -4.201324E+04  6.452028E+03  1.674797E+04 -3.004817E+04  8.114215E+03
       284   1  1.113056E+06  4.270640E+04  6.348476E+04  1.896878E+03  2.417288E+04 -7.839513E+03
       284   2  1.112472E+06  3.655897E+04  4.978473E+04  3.923703E+02  1.540839E+04 -8.100543E+03
       284   3  1.114568E+06  3.654896E+04  4.331955E+04 -1.418648E+03  6.644086E+03 -8.186878E+03
       284   4  9.627894E+05  6.163310E+03  3.086505E+04 -2.742327E+02  2.383565E+04 -7.839800E+03
       284   5  9.614670E+05 -1.354587E+02  1.714298E+04 -1.201974E+02  1.524091E+04 -8.100741E+03
       284   6  9.627960E+05 -3.253612E+02  1.053916E+04 -2.726908E+02  6.646360E+03 -8.187013E+03
       284   7  8.125445E+05 -3.038126E+04 -1.756003E+03 -2.444813E+03  2.349850E+04 -7.840086E+03
       284   8  8.104835E+05 -3.683139E+04 -1.550012E+04 -6.326402E+02  1.507347E+04 -8.100939E+03
       284   9  8.110452E+05 -3.720119E+04 -2.224259E+04  8.729812E+02  6.648635E+03 -8.187149E+03
       284  10  1.113055E+06  4.270618E+04  6.348355E+04  1.897031E+03 -9.004480E-11  2.267325E-10
       284  11  1.112472E+06  3.655884E+04  4.978416E+04  3.924708E+02 -1.075020E-09 -4.330145E-10
       284  12  1.114568E+06  3.654888E+04  4.331935E+04 -1.418604E+03  1.353958E-10  3.618683E-11
       284  13  9.627888E+05  6.163092E+03  3.086387E+04 -2.740822E+02  2.440778E-10  7.691382E-11
       284  14  9.614668E+05 -1.355915E+02  1.714242E+04 -1.200980E+02 -1.412783E-10 -1.312591E-10
       284  15  9.627960E+05 -3.254451E+02  1.053895E+04 -2.726470E+02 -1.574885E-10 -1.605414E-10
       284  16  8.125439E+05 -3.038147E+04 -1.757154E+03 -2.444665E+03  5.799557E-11 -1.884734E-10
       284  17  8.104833E+05 -3.683152E+04 -1.550067E+04 -6.325418E+02 -4.679028E-10 -8.611485E-11
       284  18  8.110451E+05 -3.720128E+04 -2.224280E+04  8.730250E+02 -1.787568E-10  9.489484E-11
       284  19  1.113056E+06  4.270640E+04  6.348476E+04  1.896878E+03 -2.417288E+04  7.839513E+03
       284  20  1.112472E+06  3.655897E+04  4.978473E+04  3.923703E+02 -1.540839E+04  8.100543E+03
       284  21  1.114568E+06  3.654896E+04  4.331955E+04 -1.418648E+03 -6.644086E+03  8.186878E+03
       284  22  9.627894E+05  6.163310E+03  3.086505E+04 -2.742327E+02 -2.383565E+04  7.839800E+03
       284  23  9.614670E+05 -1.354587E+02  1.714298E+04 -1.201974E+02 -1.524091E+04  8.100741E+03
       284  24  9.627960E+05 -3.253612E+02  1.053916E+04 -2.726908E+02 -6.646360E+03  8.187013E+03
       284  25  8.125445E+05 -3.038126E+04 -1.756003E+03 -2.444813E+03 -2.349850E+04  7.840086E+03
       284  26  8.104835E+05 -3.683139E+04 -1.550012E+04 -6.326402E+02 -1.507347E+04  8.100939E+03
       284  27  8.110452E+05 -3.720119E+04 -2.224259E+04  8.729812E+02 -6.648635E+03  8.187149E+03
       285   1  1.114817E+06  3.723761E+04  4.152496E+04 -2.348933E+02  5.060795E+03 -8.217263E+03
       285   2  1.115409E+06  3.719562E+04  3.952161E+04 -2.689509E+02  1.715090E+03 -8.230307E+03
       285   3  1.116745E+06  3.835854E+04  3.999667E+04 -6.725758E+02 -1.630735E+03 -8.057690E+03
       285   4  9.623650E+05  1.964087E+02  8.593362E+03 -2.870846E+02  4.959186E+03 -8.217444E+03
       285   5  9.620087E+05 -8.061930E+01  6.360819E+03 -1.024131E+02  1.792650E+03 -8.230429E+03
       285   6  9.623653E+05  8.163845E+02  6.482795E+03 -2.873107E+02 -1.373998E+03 -8.057733E+03
       285   7  8.099344E+05 -3.684632E+04 -2.433961E+04 -3.392646E+02  4.857601E+03 -8.217626E+03
       285   8  8.086303E+05 -3.735841E+04 -2.680136E+04  6.408114E+01  1.870191E+03 -8.230550E+03
       285   9  8.080082E+05 -3.672734E+04 -2.703250E+04  9.785524E+01 -1.117323E+03 -8.057776E+03
       285  10  1.114817E+06  3.723753E+04  4.152478E+04 -2.348599E+02  3.047841E-10 -1.131716E-10
       285  11  1.115409E+06  3.719555E+04  3.952147E+04 -2.689395E+02  3.621864E-10 -4.342407E-10
       285  12  1.116745E+06  3.835847E+04  3.999654E+04 -6.725863E+02  2.651289E-10 -5.064165E-10
       285  13  9.623650E+05  1.963296E+02  8.593189E+03 -2.870518E+02  2.529686E-11 -1.192053E-10
       285  14  9.620087E+05 -8.069293E+01  6.360686E+03 -1.024012E+02 -1.736857E-10 -2.872682E-10
       285  15  9.623653E+05  8.163143E+02  6.482670E+03 -2.873196E+02  3.364675E-11 -4.129521E-10
       285  16  8.099344E+05 -3.684640E+04 -2.433978E+04 -3.392324E+02 -1.484308E-10  2.417569E-11
       285  17  8.086303E+05 -3.735848E+04 -2.680150E+04  6.409353E+01  6.940402E-10  8.434108E-10
       285  18  8.080081E+05 -3.672741E+04 -2.703262E+04  9.784799E+01  1.659504E-10 -5.934533E-11
       285  19  1.114817E+06  3.723761E+04  4.152496E+04 -2.348933E+02 -5.060795E+03  8.217263E+03
       285  20  1.115409E+06  3.719562E+04  3.952161E+04 -2.689509E+02 -1.715090E+03  8.230307E+03
       285  21  1.116745E+06  3.835854E+04  3.999667E+04 -6.725758E+02  1.630735E+03  8.057690E+03
       285  22  9.623650E+05  1.964087E+02  8.593362E+03 -2.870846E+02 -4.959186E+03  8.217444E+03
       285  23  9.620087E+05 -8.061930E+01  6.360819E+03 -1.024131E+02 -1.792650E+03  8.230429E+03
       285  24  9.623653E+05  8.163845E+02  6.482795E+03 -2.873107E+02  1.373998E+03  8.057733E+03
       285  25  8.099344E+05 -3.684632E+04 -2.433961E+04 -3.392646E+02 -4.857601E+03  8.217626E+03
       285  26  8.086303E+05 -3.735841E+04 -2.680136E+04  6.408114E+01 -1.870191E+03  8.230550E+03
       285  27  8.080082E+05 -3.672734E+04 -2.703250E+04  9.785524E+01  1.117323E+03  8.057776E+03
       286   1  1.118544E+06  3.695131E+04  4.050910E+04  2.064917E+03 -1.587479E+03 -8.411398E+03
       286   2  1.117145E+06  3.830163E+04  4.432342E+04 -3.048730E+03 -1.065503E+04 -7.334989E+03
       286   3  1.120968E+06  5.580126E+04  5.807223E+04 -8.440604E+03 -1.972492E+04 -2.246438E+03
       286   4  9.632203E+05 -7.853052E+02  6.980035E+03 -2.647201E+02 -2.476843E+03 -8.411939E+03
       286   5  9.609392E+05  2.155635E+02  9.899493E+03 -1.299455E+02 -7.686391E+03 -7.333721E+03
       286   6  9.632124E+05  1.669883E+04  2.007882E+04 -2.733414E+02 -1.289821E+04 -2.243059E+03
       286   7  8.079193E+05 -3.852348E+04 -2.655045E+04 -2.593769E+03 -3.365989E+03 -8.412474E+03
       286   8  8.047559E+05 -3.787210E+04 -2.452589E+04  2.788094E+03 -4.718489E+03 -7.332425E+03
       286   9  8.054792E+05 -2.240514E+04 -1.791617E+04  7.891839E+03 -6.073214E+03 -2.239499E+03
       286  10  1.118544E+06  3.695123E+04  4.050897E+04  2.064906E+03  1.398309E-10 -9.186955E-10
       286  11  1.117145E+06  3.830154E+04  4.432310E+04 -3.048793E+03 -1.051774E-09 -1.804193E-09
       286  12  1.120968E+06  5.580115E+04  5.807149E+04 -8.440640E+03 -1.048911E-09 -5.578077E-10
       286  13  9.632203E+05 -7.853829E+02  6.979891E+03 -2.647369E+02 -1.156499E-09 -2.308220E-09
       286  14  9.609391E+05  2.154899E+02  9.899281E+03 -1.299909E+02  9.073667E-10  6.298582E-10
       286  15  9.632122E+05  1.669878E+04  2.007849E+04 -2.733647E+02  2.970604E-10 -1.637911E-10
       286  16  8.079193E+05 -3.852356E+04 -2.655061E+04 -2.593792E+03 -2.137688E-11 -6.878235E-10
       286  17  8.047559E+05 -3.787216E+04 -2.452603E+04  2.788067E+03  8.856023E-10  4.617935E-10
       286  18  8.054792E+05 -2.240515E+04 -1.791624E+04  7.891828E+03  7.136269E-10 -6.567176E-10
       286  19  1.118544E+06  3.695131E+04  4.050910E+04  2.064917E+03  1.587479E+03  8.411398E+03
       286  20  1.117145E+06  3.830163E+04  4.432342E+04 -3.048730E+03  1.065503E+04  7.334989E+03
       286  21  1.120968E+06  5.580126E+04  5.807223E+04 -8.440604E+03  1.972492E+04  2.246438E+03
       286  22  9.632203E+05 -7.853052E+02  6.980035E+03 -2.647201E+02  2.476843E+03  8.411939E+03
       286  23  9.609392E+05  2.155635E+02  9.899493E+03 -1.299455E+02  7.686391E+03  7.333721E+03
       286  24  9.632124E+05  1.669883E+04  2.007882E+04 -2.733414E+02  1.289821E+04  2.243059E+03
       286  25  8.079193E+05 -3.852348E+04 -2.655045E+04 -2.593769E+03  3.365989E+03  8.412474E+03
       286  26  8.047559E+05 -3.787210E+04 -2.452589E+04  2.788094E+03  4.718489E+03  7.332425E+03
       286  27  8.054792E+05 -2.240514E+04 -1.791617E+04  7.891839E+03  6.073214E+03  2.239499E+03
       287   1 -2.297615E+04  3.095219E+04 -4.119349E+04 -1.971369E+03  2.883361E+03 -6.195535E+04
       287   2  4.461434E+04 -2.474967E+04 -5.810343E+03 -1.618844E+04  8.175025E+03 -4.367372E+04
       287   3  3.349297E+04 -1.024986E+05 -2.002800E+03 -5.635813E+04  6.332790E+03 -2.539500E+04
       287   4 -8.626370E+04 -2.236508E+05 -1.030505E+05 -4.420575E+04  2.888938E+03 -7.044093E+04
       287   5 -1.180869E+03 -2.120181E+05 -4.752838E+04 -3.122075E+04  8.176592E+03 -4.532139E+04
       287   6  3.986304E+03 -2.236347E+05 -2.834084E+04 -4.419061E+04  6.330984E+03 -2.020245E+04
       287   7 -1.495493E+05 -4.781906E+05 -1.649109E+05 -8.642276E+04  2.895671E+03 -7.892304E+04
       287   8 -4.697761E+04 -3.992533E+05 -8.924848E+04 -4.624847E+04  8.178239E+03 -4.696857E+04
       287   9 -2.552077E+04 -3.447567E+05 -5.467958E+04 -3.202549E+04  6.329380E+03 -1.501090E+04
       287  10 -2.297719E+04  3.094806E+04 -4.120071E+04 -1.971225E+03 -1.085957E-10 -2.173748E-10
       287  11  4.461376E+04 -2.475174E+04 -5.814053E+03 -1.618816E+04  1.047428E-12  2.296176E-10
       287  12  3.349276E+04 -1.024993E+05 -2.004088E+03 -5.635800E+04  3.131737E-10  4.188100E-10
       287  13 -8.626505E+04 -2.236561E+05 -1.030598E+05 -4.420558E+04 -1.847236E-10  2.496152E-10
       287  14 -1.181492E+03 -2.120203E+05 -4.753237E+04 -3.122045E+04 -1.010934E-11 -1.852248E-10
       287  15  3.986152E+03 -2.236351E+05 -2.834169E+04 -4.419051E+04  1.955430E-10 -4.690790E-10
       287  16 -1.495510E+05 -4.781973E+05 -1.649226E+05 -8.642257E+04  8.487911E-11  1.103926E-10
       287  17 -4.697827E+04 -3.992557E+05 -8.925276E+04 -4.624816E+04  5.520964E-11  1.719735E-10
       287  18 -2.552087E+04 -3.447569E+05 -5.468008E+04 -3.202542E+04  3.573581E-10 -6.971130E-10
       287  19 -2.297615E+04  3.095219E+04 -4.119349E+04 -1.971369E+03 -2.883361E+03  6.195535E+04
       287  20  4.461434E+04 -2.474967E+04 -5.810343E+03 -1.618844E+04 -8.175025E+03  4.367372E+04
       287  21  3.349297E+04 -1.024986E+05 -2.002800E+03 -5.635813E+04 -6.332790E+03  2.539500E+04
       287  22 -8.626370E+04 -2.236508E+05 -1.030505E+05 -4.420575E+04 -2.888938E+03  7.044093E+04
       287  23 -1.180869E+03 -2.120181E+05 -4.752838E+04 -3.122075E+04 -8.176592E+03  4.532139E+04
       287  24  3.986304E+03 -2.236347E+05 -2.834084E+04 -4.419061E+04 -6.330984E+03  2.020245E+04
       287  25 -1.495493E+05 -4.781906E+05 -1.649109E+05 -8.642276E+04 -2.895671E+03  7.892304E+04
       287  26 -4.697761E+04 -3.992533E+05 -8.924848E+04 -4.624847E+04 -8.178239E+03  4.696857E+04
       287  27 -2.552077E+04 -3.447567E+05 -5.467958E+04 -3.202549E+04 -6.329380E+03  1.501090E+04
       288   1  1.223415E+04 -1.509573E+05 -8.094855E+03 -4.259445E+04  3.468800E+03 -1.942075E+04
       288   2  4.394725E+02 -2.165296E+05 -1.360770E+04 -3.086855E+04  7.423687E+01 -1.245538E+04
       288   3 -1.650567E+04 -2.843055E+05 -2.494690E+04 -4.541268E+04 -3.323072E+03 -5.490692E+03
       288   4 -4.335578E+03 -2.189585E+05 -2.293426E+04 -4.426480E+04  3.467945E+03 -1.616513E+04
       288   5  1.173970E+02 -2.178537E+05 -1.389465E+04 -3.112919E+04  7.333887E+01 -9.198011E+03
       288   6 -5.804109E+02 -2.189576E+05 -1.068326E+04 -4.426376E+04 -3.323996E+03 -2.230853E+03
       288   7 -2.090560E+04 -2.869552E+05 -3.777390E+04 -4.593497E+04  3.467072E+03 -1.290987E+04
       288   8 -2.046726E+02 -2.191777E+05 -1.418155E+04 -3.138983E+04  7.243814E+01 -5.940654E+03
       288   9  1.534457E+04 -1.536056E+05  3.580157E+03 -4.311472E+04 -3.324909E+03  1.029325E+03
       288  10  1.223404E+04 -1.509577E+05 -8.095586E+03 -4.259440E+04  6.339573E-10  9.613254E-10
       288  11  4.394308E+02 -2.165298E+05 -1.360799E+04 -3.086855E+04  8.571618E-10  1.085368E-09
       288  12 -1.650569E+04 -2.843055E+05 -2.494698E+04 -4.541269E+04  1.043410E-10  1.778177E-09
       288  13 -4.335661E+03 -2.189587E+05 -2.293477E+04 -4.426476E+04  6.556562E-10  6.658572E-10
       288  14  1.173743E+02 -2.178538E+05 -1.389480E+04 -3.112919E+04  8.114335E-10 -3.522567E-10
       288  15 -5.804241E+02 -2.189576E+05 -1.068329E+04 -4.426377E+04  1.483680E-10 -4.604729E-10
       288  16 -2.090565E+04 -2.869554E+05 -3.777423E+04 -4.593493E+04  8.321562E-10 -1.227079E-09
       288  17 -2.046821E+02 -2.191778E+05 -1.418161E+04 -3.138983E+04  7.664026E-10 -5.792631E-10
       288  18  1.534456E+04 -1.536056E+05  3.580134E+03 -4.311472E+04  7.176609E-10 -2.015283E-09
       288  19  1.223415E+04 -1.509573E+05 -8.094855E+03 -4.259445E+04 -3.468800E+03  1.942075E+04
       288  20  4.394725E+02 -2.165296E+05 -1.360770E+04 -3.086855E+04 -7.423687E+01  1.245538E+04
       288  21 -1.650567E+04 -2.843055E+05 -2.494690E+04 -4.541268E+04  3.323072E+03  5.490692E+03
       288  22 -4.335578E+03 -2.189585E+05 -2.293426E+04 -4.426480E+04 -3.467945E+03  1.616513E+04
       288  23  1.173970E+02 -2.178537E+05 -1.389465E+04 -3.112919E+04 -7.333887E+01  9.198011E+03
       288  24 -5.804109E+02 -2.189576E+05 -1.068326E+04 -4.426376E+04  3.323996E+03  2.230853E+03
       288  25 -2.090560E+04 -2.869552E+05 -3.777390E+04 -4.593497E+04 -3.467072E+03  1.290987E+04
       288  26 -2.046726E+02 -2.191777E+05 -1.418155E+04 -3.138983E+04 -7.243814E+01  5.940654E+03
       288  27  1.534457E+04 -1.536056E+05  3.580157E+03 -4.311472E+04  3.324909E+03 -1.029325E+03
       289   1 -2.824628E+04 -3.379836E+05 -3.585244E+04 -4.194224E+04 -6.179914E+03 -5.671112E+03
       289   2 -4.535138E+04 -4.017601E+05 -5.245575E+04 -3.423108E+04 -8.043765E+03  7.017953E+03
       289   3 -7.928625E+04 -4.713912E+05 -8.153134E+04 -5.247517E+04 -2.843649E+03  1.970633E+04
       289   4  6.105658E+02 -2.195088E+05 -1.008741E+04 -4.419331E+04 -6.181210E+03 -4.965167E+02
       289   5 -1.949827E+02 -2.171729E+05 -1.131904E+04 -3.121703E+04 -8.043234E+03  5.415697E+03
       289   6 -1.665058E+04 -2.195177E+05 -2.031349E+04 -4.419621E+04 -2.842019E+03  1.132872E+04
       289   7  2.946651E+04 -1.010208E+05  1.567689E+04 -4.644482E+04 -6.182543E+03  4.679053E+03
       289   8  4.495914E+04 -3.255391E+04  2.981555E+04 -2.820207E+04 -8.042719E+03  3.812969E+03
       289   9  4.598073E+04  3.241410E+04  4.090007E+04 -3.591387E+04 -2.840613E+03  2.947728E+03
       289  10 -2.824633E+04 -3.379836E+05 -3.585257E+04 -4.194227E+04 -7.526284E-10  1.936688E-08
       289  11 -4.535147E+04 -4.017602E+05 -5.245596E+04 -3.423103E+04 -4.983342E-10  1.189791E-09
       289  12 -7.928637E+04 -4.713916E+05 -8.153208E+04 -5.247513E+04 -3.733762E-10 -1.649262E-08
       289  13  6.105247E+02 -2.195088E+05 -1.008748E+04 -4.419332E+04 -2.177245E-10  6.438979E-10
       289  14 -1.950600E+02 -2.171730E+05 -1.131922E+04 -3.121699E+04 -7.434686E-10 -1.593947E-10
       289  15 -1.665062E+04 -2.195178E+05 -2.031374E+04 -4.419618E+04 -1.802512E-10 -1.340962E-10
       289  16  2.946647E+04 -1.010208E+05  1.567678E+04 -4.644480E+04 -3.002822E-10 -1.962244E-08
       289  17  4.495907E+04 -3.255394E+04  2.981540E+04 -2.820204E+04 -1.367845E-09 -8.317422E-10
       289  18  4.598072E+04  3.241409E+04  4.090004E+04 -3.591386E+04 -4.301773E-10  1.642772E-08
       289  19 -2.824628E+04 -3.379836E+05 -3.585244E+04 -4.194224E+04  6.179914E+03  5.671112E+03
       289  20 -4.535138E+04 -4.017601E+05 -5.245575E+04 -3.423108E+04  8.043765E+03 -7.017953E+03
       289  21 -7.928625E+04 -4.713912E+05 -8.153134E+04 -5.247517E+04  2.843649E+03 -1.970633E+04
       289  22  6.105658E+02 -2.195088E+05 -1.008741E+04 -4.419331E+04  6.181210E+03  4.965167E+02
       289  23 -1.949827E+02 -2.171729E+05 -1.131904E+04 -3.121703E+04  8.043234E+03 -5.415697E+03
       289  24 -1.665058E+04 -2.195177E+05 -2.031349E+04 -4.419621E+04  2.842019E+03 -1.132872E+04
       289  25  2.946651E+04 -1.010208E+05  1.567689E+04 -4.644482E+04  6.182543E+03 -4.679053E+03
       289  26  4.495914E+04 -3.255391E+04  2.981555E+04 -2.820207E+04  8.042719E+03 -3.812969E+03
       289  27  4.598073E+04  3.241410E+04  4.090007E+04 -3.591387E+04  2.840613E+03 -2.947728E+03
       290   1  1.642568E+05  5.791437E+04 -7.536369E+03  1.031248E+05 -1.007429E+04 -9.133809E+03
       290   2  1.764665E+05  9.102229E+04  8.588092E+03  1.038298E+05 -4.552318E+03 -9.035259E+03
       290   3  1.850245E+05  1.030044E+05  1.695981E+04  1.092488E+05 -5.610206E+01 -7.568769E+03
       290   4  1.000877E+05  2.934036E+04 -2.532439E+04  7.919808E+04 -1.321416E+04 -1.148920E+04
       290   5  1.060525E+05  4.714912E+04 -1.156749E+04  7.151228E+04 -6.379342E+03 -1.040587E+04
       290   6  1.080796E+05  4.354544E+04 -6.703377E+03  6.854079E+04 -5.703408E+02 -7.954604E+03
       290   7  3.592321E+04  7.670655E+02 -4.311269E+04  5.527355E+04 -1.635357E+04 -1.384442E+04
       290   8  3.564347E+04  3.277711E+03 -3.172368E+04  3.919852E+04 -8.206092E+03 -1.177630E+04
       290   9  3.114048E+04 -1.591001E+04 -3.036756E+04  2.783830E+04 -1.084499E+03 -8.340370E+03
       290  10  1.642566E+05  5.791425E+04 -7.536716E+03  1.031247E+05 -8.132876E-11 -1.508207E-11
       290  11  1.764664E+05  9.102220E+04  8.587899E+03  1.038297E+05 -3.816014E-10 -1.013833E-11
       290  12  1.850245E+05  1.030043E+05  1.695971E+04  1.092488E+05  4.432318E-12  2.755331E-10
       290  13  1.000875E+05  2.934017E+04 -2.532496E+04  7.919796E+04 -1.369527E-10  1.437445E-10
       290  14  1.060524E+05  4.714899E+04 -1.156777E+04  7.151222E+04 -3.139829E-10  4.680828E-10
       290  15  1.080796E+05  4.354537E+04 -6.703497E+03  6.854078E+04 -2.333353E-10  1.653287E-10
       290  16  3.592287E+04  7.667879E+02 -4.311355E+04  5.527337E+04  1.048349E-10  1.214331E-10
       290  17  3.564336E+04  3.277544E+03 -3.172406E+04  3.919844E+04  6.915804E-11  1.752462E-11
       290  18  3.114046E+04 -1.591009E+04 -3.036769E+04  2.783829E+04  2.248679E-10  1.215652E-10
       290  19  1.642568E+05  5.791437E+04 -7.536369E+03  1.031248E+05  1.007429E+04  9.133809E+03
       290  20  1.764665E+05  9.102229E+04  8.588092E+03  1.038298E+05  4.552318E+03  9.035259E+03
       290  21  1.850245E+05  1.030044E+05  1.695981E+04  1.092488E+05  5.610206E+01  7.568769E+03
       290  22  1.000877E+05  2.934036E+04 -2.532439E+04  7.919808E+04  1.321416E+04  1.148920E+04
       290  23  1.060525E+05  4.714912E+04 -1.156749E+04  7.151228E+04  6.379342E+03  1.040587E+04
       290  24  1.080796E+05  4.354544E+04 -6.703377E+03  6.854079E+04  5.703408E+02  7.954604E+03
       290  25  3.592321E+04  7.670655E+02 -4.311269E+04  5.527355E+04  1.635357E+04  1.384442E+04
       290  26  3.564347E+04  3.277711E+03 -3.172368E+04  3.919852E+04  8.206092E+03  1.177630E+04
       290  27  3.114048E+04 -1.591001E+04 -3.036756E+04  2.783830E+04  1.084499E+03  8.340370E+03
       291   1  1.984703E+05  1.061504E+05  2.160263E+04  1.149487E+05  1.363686E+03 -7.088838E+03
       291   2  2.082525E+05  1.197181E+05  2.783807E+04  1.220447E+05  3.095983E+03 -7.210791E+03
       291   3  2.241075E+05  1.257381E+05  3.295848E+04  1.274800E+05  4.781693E+03 -7.270335E+03
       291   4  1.080688E+05  4.265739E+04 -5.276927E+03  7.009852E+04  4.608132E+02 -7.766293E+03
       291   5  1.052439E+05  4.680223E+04 -2.764097E+03  7.065486E+04  2.252791E+03 -7.843571E+03
       291   6  1.084785E+05  4.338633E+04 -1.418095E+03  6.955054E+04  3.998154E+03 -7.858454E+03
       291   7  1.767724E+04 -2.083049E+04 -3.215707E+04  2.525615E+04 -4.418723E+02 -8.443608E+03
       291   8  2.247362E+03 -2.610738E+04 -3.336726E+04  1.927495E+04  1.409792E+03 -8.476205E+03
       291   9 -7.135744E+03 -3.895782E+04 -3.579615E+04  1.163334E+04  3.214813E+03 -8.446424E+03
       291  10  1.984703E+05  1.061503E+05  2.160253E+04  1.149487E+05  2.256266E-10  2.466862E-10
       291  11  2.082525E+05  1.197181E+05  2.783796E+04  1.220447E+05  4.823088E-10  6.961958E-11
       291  12  2.241074E+05  1.257380E+05  3.295834E+04  1.274800E+05  1.270556E-10  1.248204E-10
       291  13  1.080688E+05  4.265732E+04 -5.277040E+03  7.009852E+04 -1.658751E-10 -1.202424E-10
       291  14  1.052439E+05  4.680216E+04 -2.764222E+03  7.065488E+04  2.273212E-12  1.256095E-10
       291  15  1.084785E+05  4.338626E+04 -1.418241E+03  6.955057E+04 -1.975454E-11 -2.242044E-10
       291  16  1.767722E+04 -2.083056E+04 -3.215721E+04  2.525615E+04 -1.295550E-10  2.023100E-10
       291  17  2.247341E+03 -2.610746E+04 -3.336740E+04  1.927496E+04  1.303297E-11  4.448739E-10
       291  18 -7.135774E+03 -3.895790E+04 -3.579630E+04  1.163336E+04  8.052488E-11 -3.271258E-10
       291  19  1.984703E+05  1.061504E+05  2.160263E+04  1.149487E+05 -1.363686E+03  7.088838E+03
       291  20  2.082525E+05  1.197181E+05  2.783807E+04  1.220447E+05 -3.095983E+03  7.210791E+03
       291  21  2.241075E+05  1.257381E+05  3.295848E+04  1.274800E+05 -4.781693E+03  7.270335E+03
       291  22  1.080688E+05  4.265739E+04 -5.276927E+03  7.009852E+04 -4.608132E+02  7.766293E+03
       291  23  1.052439E+05  4.680223E+04 -2.764097E+03  7.065486E+04 -2.252791E+03  7.843571E+03
       291  24  1.084785E+05  4.338633E+04 -1.418095E+03  6.955054E+04 -3.998154E+03  7.858454E+03
       291  25  1.767724E+04 -2.083049E+04 -3.215707E+04  2.525615E+04  4.418723E+02  8.443608E+03
       291  26  2.247362E+03 -2.610738E+04 -3.336726E+04  1.927495E+04 -1.409792E+03  8.476205E+03
       291  27 -7.135744E+03 -3.895782E+04 -3.579615E+04  1.163334E+04 -3.214813E+03  8.446424E+03
       292   1  2.345629E+05  1.328229E+05  3.658547E+04  1.326459E+05  5.328887E+03 -7.609479E+03
       292   2  2.441340E+05  1.453939E+05  4.118871E+04  1.400710E+05  5.990289E+03 -8.412536E+03
       292   3  2.604384E+05  1.512306E+05  4.576260E+04  1.455421E+05  6.640321E+03 -9.200038E+03
       292   4  1.085034E+05  4.334900E+04 -9.407771E+02  6.965009E+04  4.523440E+03 -8.214111E+03
       292   5  1.051525E+05  4.674440E+04 -1.321019E+02  7.060634E+04  5.199694E+03 -9.006160E+03
       292   6  1.085317E+05  4.340165E+04  6.343752E+02  6.960820E+04  5.864570E+03 -9.782647E+03
       292   7 -1.753993E+04 -4.611691E+04 -3.846924E+04  6.668105E+03  3.718206E+03 -8.818582E+03
       292   8 -3.380800E+04 -5.189426E+04 -4.145507E+04  1.159258E+03  4.409338E+03 -9.599603E+03
       292   9 -4.334824E+04 -6.441326E+04 -4.449591E+04 -6.303889E+03  5.089085E+03 -1.036506E+04
       292  10  2.345628E+05  1.328228E+05  3.658531E+04  1.326460E+05  1.252947E-10 -2.519285E-11
       292  11  2.441339E+05  1.453938E+05  4.118851E+04  1.400711E+05  1.002578E-10 -3.037064E-10
       292  12  2.604383E+05  1.512305E+05  4.576236E+04  1.455422E+05  4.627555E-11  2.974089E-10
       292  13  1.085034E+05  4.334892E+04 -9.409424E+02  6.965012E+04  3.575537E-10  2.945076E-10
       292  14  1.051524E+05  4.674431E+04 -1.323051E+02  7.060637E+04  1.352019E-10  6.512692E-10
       292  15  1.085316E+05  4.340154E+04  6.341307E+02  6.960825E+04  4.369124E-10  1.216167E-10
       292  16 -1.753997E+04 -4.611700E+04 -3.846941E+04  6.668131E+03  1.401488E-10 -1.041413E-11
       292  17 -3.380804E+04 -5.189436E+04 -4.145528E+04  1.159292E+03 -7.928836E-12 -7.608589E-11
       292  18 -4.334830E+04 -6.441338E+04 -4.449616E+04 -6.303846E+03  7.798140E-11 -3.294479E-10
       292  19  2.345629E+05  1.328229E+05  3.658547E+04  1.326459E+05 -5.328887E+03  7.609479E+03
       292  20  2.441340E+05  1.453939E+05  4.118871E+04  1.400710E+05 -5.990289E+03  8.412536E+03
       292  21  2.604384E+05  1.512306E+05  4.576260E+04  1.455421E+05 -6.640321E+03  9.200038E+03
       292  22  1.085034E+05  4.334900E+04 -9.407771E+02  6.965009E+04 -4.523440E+03  8.214111E+03
       292  23  1.051525E+05  4.674440E+04 -1.321019E+02  7.060634E+04 -5.199694E+03  9.006160E+03
       292  24  1.085317E+05  4.340165E+04  6.343752E+02  6.960820E+04 -5.864570E+03  9.782647E+03
       292  25 -1.753993E+04 -4.611691E+04 -3.846924E+04  6.668105E+03 -3.718206E+03  8.818582E+03
       292  26 -3.380800E+04 -5.189426E+04 -4.145507E+04  1.159258E+03 -4.409338E+03  9.599603E+03
       292  27 -4.334824E+04 -6.441326E+04 -4.449591E+04 -6.303889E+03 -5.089085E+03  1.036506E+04
       293   1  2.706136E+05  1.586499E+05  4.932551E+04  1.508002E+05  6.987317E+03 -9.732957E+03
       293   2  2.803012E+05  1.709342E+05  5.433270E+04  1.580770E+05  6.386594E+03 -1.135713E+04
       293   3  2.973422E+05  1.772414E+05  6.052491E+04  1.631621E+05  5.567850E+03 -1.269055E+04
       293   4  1.085526E+05  4.337316E+04  1.058797E+03  6.969307E+04  6.127455E+03 -1.037879E+04
       293   5  1.050732E+05  4.668906E+04  2.203458E+03  7.056526E+04  5.806267E+03 -1.179328E+04
       293   6  1.088866E+05  4.396729E+04  4.290820E+03  6.924557E+04  5.267050E+03 -1.291694E+04
       293   7 -5.347991E+04 -7.188883E+04 -4.721089E+04 -1.139006E+04  5.267896E+03 -1.102440E+04
       293   8 -7.012217E+04 -7.753960E+04 -4.992955E+04 -1.691893E+04  5.226159E+03 -1.222926E+04
       293   9 -7.953233E+04 -8.928855E+04 -5.194794E+04 -2.463967E+04  4.966370E+03 -1.314323E+04
       293  10  2.706135E+05  1.586498E+05  4.932524E+04  1.508002E+05  2.235525E-10  5.581215E-10
       293  11  2.803011E+05  1.709340E+05  5.433238E+04  1.580770E+05  3.812161E-10  9.440135E-10
       293  12  2.973421E+05  1.772412E+05  6.052455E+04  1.631621E+05 -3.630140E-11 -7.251586E-10
       293  13  1.085525E+05  4.337303E+04  1.058524E+03  6.969312E+04  4.255936E-10  3.621417E-10
       293  14  1.050732E+05  4.668890E+04  2.203133E+03  7.056532E+04  2.052563E-10 -9.056440E-11
       293  15  1.088865E+05  4.396710E+04  4.290455E+03  6.924562E+04  7.456909E-11  7.693021E-11
       293  16 -5.347997E+04 -7.188896E+04 -4.721117E+04 -1.139001E+04  1.774079E-10 -2.939339E-10
       293  17 -7.012224E+04 -7.753977E+04 -4.992988E+04 -1.691888E+04  6.304451E-11 -6.908220E-10
       293  18 -7.953240E+04 -8.928874E+04 -5.194831E+04 -2.463962E+04 -4.889998E-11  1.510884E-10
       293  19  2.706136E+05  1.586499E+05  4.932551E+04  1.508002E+05 -6.987317E+03  9.732957E+03
       293  20  2.803012E+05  1.709342E+05  5.433270E+04  1.580770E+05 -6.386594E+03  1.135713E+04
       293  21  2.973422E+05  1.772414E+05  6.052491E+04  1.631621E+05 -5.567850E+03  1.269055E+04
       293  22  1.085526E+05  4.337316E+04  1.058797E+03  6.969307E+04 -6.127455E+03  1.037879E+04
       293  23  1.050732E+05  4.668906E+04  2.203458E+03  7.056526E+04 -5.806267E+03  1.179328E+04
       293  24  1.088866E+05  4.396729E+04  4.290820E+03  6.924557E+04 -5.267050E+03  1.291694E+04
       293  25 -5.347991E+04 -7.188883E+04 -4.721089E+04 -1.139006E+04 -5.267896E+03  1.102440E+04
       293  26 -7.012217E+04 -7.753960E+04 -4.992955E+04 -1.691893E+04 -5.226159E+03  1.222926E+04
       293  27 -7.953233E+04 -8.928855E+04 -5.194794E+04 -2.463967E+04 -4.966370E+03  1.314323E+04
       294   1  3.050523E+05  1.866183E+05  6.451921E+04  1.704849E+05  7.527836E+03 -1.277470E+04
       294   2  3.186424E+05  1.934927E+05  7.361577E+04  1.744169E+05 -3.390389E+03 -1.941443E+04
       294   3  3.487986E+05  2.072861E+05  9.535489E+04  1.710111E+05 -1.913126E+04 -1.963543E+04
       294   4  1.088159E+05  4.330005E+04  5.468126E+03  7.054049E+04  5.403775E+03 -1.437037E+04
       294   5  1.044808E+05  4.632316E+04  9.462052E+03  6.984054E+04  6.536821E+02 -1.637760E+04
       294   6  1.153759E+05  5.493046E+04  2.074615E+04  6.180199E+04 -8.919651E+03 -1.196477E+04
       294   7 -8.737649E+04 -9.999356E+04 -5.358664E+04 -2.936665E+04  3.280644E+03 -1.596531E+04
       294   8 -1.096299E+05 -1.008221E+05 -5.469637E+04 -3.469511E+04  4.695834E+03 -1.334216E+04
       294   9 -1.179890E+05 -9.740180E+04 -5.386874E+04 -4.736288E+04  1.286684E+03 -4.297632E+03
       294  10  3.050522E+05  1.866181E+05  6.451880E+04  1.704850E+05  9.656009E-10 -1.506914E-10
       294  11  3.186423E+05  1.934923E+05  7.361504E+04  1.744169E+05  3.514307E-10 -2.718491E-10
       294  12  3.487982E+05  2.072856E+05  9.535348E+04  1.710108E+05  4.522528E-11 -6.495764E-10
       294  13  1.088158E+05  4.329982E+04  5.467683E+03  7.054055E+04  3.968242E-11 -6.246446E-10
       294  14  1.044807E+05  4.632287E+04  9.461547E+03  6.984055E+04 -3.445166E-10  3.653103E-09
       294  15  1.153757E+05  5.493029E+04  2.074574E+04  6.180191E+04 -9.998559E-11  9.161393E-11
       294  16 -8.737657E+04 -9.999383E+04 -5.358714E+04 -2.936661E+04 -6.494820E-10  7.902973E-10
       294  17 -1.096300E+05 -1.008223E+05 -5.469675E+04 -3.469506E+04 -4.982070E-10  1.258037E-09
       294  18 -1.179890E+05 -9.740182E+04 -5.386878E+04 -4.736288E+04  5.152077E-10 -8.147163E-12
       294  19  3.050523E+05  1.866183E+05  6.451921E+04  1.704849E+05 -7.527836E+03  1.277470E+04
       294  20  3.186424E+05  1.934927E+05  7.361577E+04  1.744169E+05  3.390389E+03  1.941443E+04
       294  21  3.487986E+05  2.072861E+05  9.535489E+04  1.710111E+05  1.913126E+04  1.963543E+04
       294  22  1.088159E+05  4.330005E+04  5.468126E+03  7.054049E+04 -5.403775E+03  1.437037E+04
       294  23  1.044808E+05  4.632316E+04  9.462052E+03  6.984054E+04 -6.536821E+02  1.637760E+04
       294  24  1.153759E+05  5.493046E+04  2.074615E+04  6.180199E+04  8.919651E+03  1.196477E+04
       294  25 -8.737649E+04 -9.999356E+04 -5.358664E+04 -2.936665E+04 -3.280644E+03  1.596531E+04
       294  26 -1.096299E+05 -1.008221E+05 -5.469637E+04 -3.469511E+04 -4.695834E+03  1.334216E+04
       294  27 -1.179890E+05 -9.740180E+04 -5.386874E+04 -4.736288E+04 -1.286684E+03  4.297632E+03
       295   1  2.510464E+06  3.876280E+05  3.879135E+05  1.472142E+05  9.024023E+04 -1.742054E+04
       295   2  2.316173E+06  2.901028E+05  2.887276E+05  9.721075E+04  4.110756E+04 -5.390739E+04
       295   3  2.140950E+06  2.422436E+05  2.339260E+05  1.180838E+05 -8.036171E+03 -5.372480E+04
       295   4  1.135181E+06  4.666848E+04  5.573814E+04  1.233512E+05  3.744697E+04 -1.747283E+04
       295   5  1.128784E+06  5.605480E+02  2.618786E+04  8.793908E+04  2.366296E+04 -5.393677E+04
       295   6  1.135336E+06 -1.950932E+03  1.657034E+04  1.234059E+05  9.851336E+03 -5.370216E+04
       295   7 -2.383723E+05 -2.944255E+05 -2.765619E+05  9.954047E+04 -1.523018E+04 -1.752115E+04
       295   8 -5.729183E+04 -2.890760E+05 -2.364377E+05  7.868480E+04  6.251207E+03 -5.396567E+04
       295   9  1.306691E+05 -2.462117E+05 -2.008439E+05  1.287188E+05  2.771033E+04 -5.367919E+04
       295  10  2.510456E+06  3.876255E+05  3.878977E+05  1.472155E+05  7.345892E-10 -4.239589E-10
       295  11  2.316170E+06  2.900992E+05  2.887189E+05  9.721253E+04 -1.759362E-10 -2.703662E-09
       295  12  2.140949E+06  2.422405E+05  2.339204E+05  1.180835E+05  6.471375E-10 -2.656511E-09
       295  13  1.135179E+06  4.666777E+04  5.573494E+04  1.233517E+05  3.297487E-10  5.770321E-10
       295  14  1.128783E+06  5.572722E+02  2.618134E+04  8.794010E+04 -2.112556E-10 -1.485714E-09
       295  15  1.135335E+06 -1.954056E+03  1.656474E+04  1.234063E+05  6.903121E-10 -8.469432E-11
       295  16 -2.383726E+05 -2.944259E+05 -2.765629E+05  9.954026E+04 -9.143204E-10  2.525892E-10
       295  17 -5.729266E+04 -2.890791E+05 -2.364432E+05  7.868507E+04 -7.711590E-10 -3.388787E-09
       295  18  1.306675E+05 -2.462150E+05 -2.008508E+05  1.287200E+05 -5.774372E-10 -4.303677E-09
       295  19  2.510464E+06  3.876280E+05  3.879135E+05  1.472142E+05 -9.024023E+04  1.742054E+04
       295  20  2.316173E+06  2.901028E+05  2.887276E+05  9.721075E+04 -4.110756E+04  5.390739E+04
       295  21  2.140950E+06  2.422436E+05  2.339260E+05  1.180838E+05  8.036171E+03  5.372480E+04
       295  22  1.135181E+06  4.666848E+04  5.573814E+04  1.233512E+05 -3.744697E+04  1.747283E+04
       295  23  1.128784E+06  5.605480E+02  2.618786E+04  8.793908E+04 -2.366296E+04  5.393677E+04
       295  24  1.135336E+06 -1.950932E+03  1.657034E+04  1.234059E+05 -9.851336E+03  5.370216E+04
       295  25 -2.383723E+05 -2.944255E+05 -2.765619E+05  9.954047E+04  1.523018E+04  1.752115E+04
       295  26 -5.729183E+04 -2.890760E+05 -2.364377E+05  7.868480E+04 -6.251207E+03  5.396567E+04
       295  27  1.306691E+05 -2.462117E+05 -2.008439E+05  1.287188E+05 -2.771033E+04  5.367919E+04
       296   1  1.991752E+06  2.114059E+05  2.005991E+05  1.257166E+05 -5.795770E+01 -4.456535E+04
       296   2  1.808059E+06  1.643128E+05  1.567354E+05  8.894527E+04 -6.903331E+03 -3.604031E+04
       296   3  1.625912E+06  1.204471E+05  1.180814E+05  1.241474E+05 -1.375781E+04 -2.590288E+04
       296   4  1.132792E+06  2.613271E+03  1.409585E+04  1.236340E+05  7.375337E+03 -4.455650E+04
       296   5  1.132205E+06  1.313432E+02  1.057114E+04  8.764697E+04  2.086731E+03 -3.602535E+04
       296   6  1.132866E+06  6.120336E+02  1.118319E+04  1.236380E+05 -3.212913E+03 -2.588089E+04
       296   7  2.745215E+05 -2.062280E+05 -1.724513E+05  1.215539E+05  1.479850E+04 -4.454768E+04
       296   8  4.567775E+05 -1.640801E+05 -1.356198E+05  8.634987E+04  1.106716E+04 -3.601041E+04
       296   9  6.400482E+05 -1.192391E+05 -9.572910E+04  1.231288E+05  7.323737E+03 -2.585891E+04
       296  10  1.991751E+06  2.114037E+05  2.005954E+05  1.257166E+05 -2.682584E-09 -3.672224E-09
       296  11  1.808059E+06  1.643113E+05  1.567328E+05  8.894507E+04 -1.622130E-09  1.638569E-09
       296  12  1.625912E+06  1.204464E+05  1.180798E+05  1.241471E+05 -2.355504E-09  2.832923E-09
       296  13  1.132791E+06  2.611123E+03  1.409201E+04  1.236343E+05  3.714659E-11 -2.529664E-09
       296  14  1.132204E+06  1.299476E+02  1.056869E+04  8.764704E+04 -3.836272E-10 -3.652323E-10
       296  15  1.132866E+06  6.113112E+02  1.118191E+04  1.236379E+05 -7.240012E-10 -9.156724E-10
       296  16  2.745207E+05 -2.062302E+05 -1.724554E+05  1.215545E+05  2.204903E-09 -5.778626E-10
       296  17  4.567771E+05 -1.640815E+05 -1.356225E+05  8.635019E+04  1.606924E-09  7.724838E-10
       296  18  6.400480E+05 -1.192398E+05 -9.573046E+04  1.231290E+05  2.021093E-09  1.316835E-09
       296  19  1.991752E+06  2.114059E+05  2.005991E+05  1.257166E+05  5.795770E+01  4.456535E+04
       296  20  1.808059E+06  1.643128E+05  1.567354E+05  8.894527E+04  6.903331E+03  3.604031E+04
       296  21  1.625912E+06  1.204471E+05  1.180814E+05  1.241474E+05  1.375781E+04  2.590288E+04
       296  22  1.132792E+06  2.613271E+03  1.409585E+04  1.236340E+05 -7.375337E+03  4.455650E+04
       296  23  1.132205E+06  1.313432E+02  1.057114E+04  8.764697E+04 -2.086731E+03  3.602535E+04
       296  24  1.132866E+06  6.120336E+02  1.118319E+04  1.236380E+05  3.212913E+03  2.588089E+04
       296  25  2.745215E+05 -2.062280E+05 -1.724513E+05  1.215539E+05 -1.479850E+04  4.454768E+04
       296  26  4.567775E+05 -1.640801E+05 -1.356198E+05  8.634987E+04 -1.106716E+04  3.601041E+04
       296  27  6.400482E+05 -1.192391E+05 -9.572910E+04  1.231288E+05 -7.323737E+03  2.585891E+04
       297   1  1.481375E+06  8.472861E+04  8.737362E+04  1.253469E+05 -1.558271E+04 -1.952129E+04
       297   2  1.297980E+06  4.054931E+04  5.439860E+04  8.745487E+04 -2.435300E+04 -9.190268E+03
       297   3  1.117023E+06  2.931082E+03  2.867424E+04  1.213066E+05 -3.312174E+04  5.195008E+02
       297   4  1.133173E+06  2.342829E+02  1.262886E+04  1.235889E+05 -5.328746E+03 -1.949842E+04
       297   5  1.131925E+06  2.360986E+02  1.865007E+04  8.770900E+04 -1.469568E+04 -9.167962E+03
       297   6  1.133184E+06  6.904669E+03  3.233645E+04  1.235734E+05 -2.406353E+04  5.412308E+02
       297   7  7.850855E+05 -8.426791E+04 -6.212259E+04  1.218318E+05  4.919560E+03 -1.947560E+04
       297   8  9.658949E+05 -4.007887E+04 -1.709973E+04  8.796305E+04 -5.040892E+03 -9.145644E+03
       297   9  1.149345E+06  1.087830E+04  3.599895E+04  1.258404E+05 -1.500509E+04  5.630266E+02
       297  10  1.481375E+06  8.472813E+04  8.737245E+04  1.253467E+05 -7.091686E-10  4.301507E-09
       297  11  1.297980E+06  4.054906E+04  5.439733E+04  8.745469E+04 -6.178180E-11  2.630241E-09
       297  12  1.117022E+06  2.930788E+03  2.867218E+04  1.213066E+05  1.762171E-09 -7.596618E-10
       297  13  1.133173E+06  2.338668E+02  1.262809E+04  1.235888E+05 -6.482119E-10 -1.737374E-09
       297  14  1.131924E+06  2.359505E+02  1.864951E+04  8.770889E+04 -4.999128E-10  3.719564E-09
       297  15  1.133183E+06  6.904513E+03  3.233536E+04  1.235735E+05  3.022585E-10  4.514576E-09
       297  16  7.850853E+05 -8.426832E+04 -6.212335E+04  1.218319E+05  6.069871E-10  3.479166E-09
       297  17  9.658948E+05 -4.007897E+04 -1.709993E+04  8.796302E+04 -3.125372E-10  4.386117E-09
       297  18  1.149345E+06  1.087824E+04  3.599853E+04  1.258404E+05 -2.876292E-09  1.339146E-09
       297  19  1.481375E+06  8.472861E+04  8.737362E+04  1.253469E+05  1.558271E+04  1.952129E+04
       297  20  1.297980E+06  4.054931E+04  5.439860E+04  8.745487E+04  2.435300E+04  9.190268E+03
       297  21  1.117023E+06  2.931082E+03  2.867424E+04  1.213066E+05  3.312174E+04 -5.195008E+02
       297  22  1.133173E+06  2.342829E+02  1.262886E+04  1.235889E+05  5.328746E+03  1.949842E+04
       297  23  1.131925E+06  2.360986E+02  1.865007E+04  8.770900E+04  1.469568E+04  9.167962E+03
       297  24  1.133184E+06  6.904669E+03  3.233645E+04  1.235734E+05  2.406353E+04 -5.412308E+02
       297  25  7.850855E+05 -8.426791E+04 -6.212259E+04  1.218318E+05 -4.919560E+03  1.947560E+04
       297  26  9.658949E+05 -4.007887E+04 -1.709973E+04  8.796305E+04  5.040892E+03  9.145644E+03
       297  27  1.149345E+06  1.087830E+04  3.599895E+04  1.258404E+05  1.500509E+04 -5.630266E+02
       298   1  9.788999E+05 -4.435207E+04  5.137665E+03  1.407314E+05 -4.315136E+04  7.893746E+03
       298   2  7.812481E+05 -8.167555E+04 -8.148773E+03  6.553480E+04 -6.471411E+04  1.415620E+04
       298   3  6.143949E+05 -5.872430E+03  2.080343E+04  6.131926E+04 -8.623783E+04  5.251896E+03
       298   4  1.140024E+06 -5.221188E+03  4.035073E+04  1.234790E+05 -2.980791E+04  7.926778E+03
       298   5  1.123340E+06  2.092336E+03  6.836775E+04  8.785330E+04 -6.596577E+04  1.415055E+04
       298   6  1.139917E+06  1.250211E+05  1.487229E+05  1.231956E+05 -1.020912E+05  5.208583E+03
       298   7  1.301173E+06  3.390919E+04  7.556305E+04  1.062220E+05 -1.646105E+04  7.959065E+03
       298   8  1.465541E+06  8.585409E+04  1.448772E+05  1.101841E+05 -6.721809E+04  1.414481E+04
       298   9  1.665699E+06  2.559087E+05  2.766253E+05  1.851242E+05 -1.179580E+05  5.162137E+03
       298  10  9.788978E+05 -4.435263E+04  5.134054E+03  1.407317E+05  2.091956E-09 -3.614200E-10
       298  11  7.812435E+05 -8.167689E+04 -8.157010E+03  6.553554E+04  9.580264E-10  5.333179E-09
       298  12  6.143869E+05 -5.874454E+03  2.078941E+04  6.131963E+04 -5.510453E-10  2.123338E-09
       298  13  1.140023E+06 -5.221494E+03  4.034894E+04  1.234792E+05  1.522084E-11  7.713148E-10
       298  14  1.123335E+06  2.090955E+03  6.835921E+04  8.785405E+04  2.052766E-10  5.032890E-09
       298  15  1.139906E+06  1.250183E+05  1.487033E+05  1.231960E+05 -1.276488E-10 -1.493233E-09
       298  16  1.301173E+06  3.390905E+04  7.556242E+04  1.062221E+05 -2.537191E-09  7.580842E-10
       298  17  1.465536E+06  8.585267E+04  1.448683E+05  1.101849E+05 -6.305862E-10  1.268679E-10
       298  18  1.665684E+06  2.559050E+05  2.765992E+05  1.851247E+05  2.162546E-10 -1.870222E-09
       298  19  9.788999E+05 -4.435207E+04  5.137665E+03  1.407314E+05  4.315136E+04 -7.893746E+03
       298  20  7.812481E+05 -8.167555E+04 -8.148773E+03  6.553480E+04  6.471411E+04 -1.415620E+04
       298  21  6.143949E+05 -5.872430E+03  2.080343E+04  6.131926E+04  8.623783E+04 -5.251896E+03
       298  22  1.140024E+06 -5.221188E+03  4.035073E+04  1.234790E+05  2.980791E+04 -7.926778E+03
       298  23  1.123340E+06  2.092336E+03  6.836775E+04  8.785330E+04  6.596577E+04 -1.415055E+04
       298  24  1.139917E+06  1.250211E+05  1.487229E+05  1.231956E+05  1.020912E+05 -5.208583E+03
       298  25  1.301173E+06  3.390919E+04  7.556305E+04  1.062220E+05  1.646105E+04 -7.959065E+03
       298  26  1.465541E+06  8.585409E+04  1.448772E+05  1.101841E+05  6.721809E+04 -1.414481E+04
       298  27  1.665699E+06  2.559087E+05  2.766253E+05  1.851242E+05  1.179580E+05 -5.162137E+03
       299   1 -5.338881E+04  4.977164E+05 -7.137248E+04  3.823296E+04  2.019816E+03 -6.894536E+04
       299   2  3.218700E+04  5.015160E+05 -1.715019E+04  1.153264E+04  6.401032E+03 -4.743128E+04
       299   3  3.579873E+04  4.820336E+05  2.587162E+03 -1.808316E+04  7.007631E+03 -2.591957E+04
       299   4 -8.938521E+04  3.524353E+05 -1.064225E+05 -5.388022E+03  2.028161E+03 -7.496239E+04
       299   5 -1.258841E+03  3.643850E+05 -4.742876E+04 -3.902000E+03  6.403800E+03 -4.982953E+04
       299   6  4.262688E+03  3.524181E+05 -2.543740E+04 -5.330659E+03  7.006400E+03 -2.469848E+04
       299   7 -1.253760E+05  2.071777E+05 -1.414729E+05 -4.899877E+04  2.037352E+03 -8.097802E+04
       299   8 -3.470505E+04  2.272721E+05 -7.770834E+04 -1.933320E+04  6.406688E+03 -5.222725E+04
       299   9 -2.727385E+04  2.228187E+05 -5.346286E+04  7.419146E+03  7.005220E+03 -2.347764E+04
       299  10 -5.339009E+04  4.977113E+05 -7.138142E+04  3.823307E+04  2.137582E-11  1.922388E-10
       299  11  3.218636E+04  5.015136E+05 -1.715449E+04  1.153289E+04 -2.908349E-10 -4.050619E-10
       299  12  3.579849E+04  4.820329E+05  2.585808E+03 -1.808301E+04  6.958559E-11 -3.305888E-11
       299  13 -8.938672E+04  3.524293E+05 -1.064331E+05 -5.387900E+03  8.512643E-11 -6.109013E-10
       299  14 -1.259551E+03  3.643823E+05 -4.743350E+04 -3.901743E+03  2.153522E-10 -1.332042E-09
       299  15  4.262472E+03  3.524174E+05 -2.543863E+04 -5.330519E+03  2.886072E-10 -3.396947E-11
       299  16 -1.253777E+05  2.071707E+05 -1.414852E+05 -4.899864E+04 -1.134149E-10 -1.628321E-10
       299  17 -3.470583E+04  2.272692E+05 -7.771354E+04 -1.933293E+04  4.108402E-10 -2.092168E-09
       299  18 -2.727405E+04  2.228181E+05 -5.346399E+04  7.419278E+03  2.163583E-10 -7.832344E-10
       299  19 -5.338881E+04  4.977164E+05 -7.137248E+04  3.823296E+04 -2.019816E+03  6.894536E+04
       299  20  3.218700E+04  5.015160E+05 -1.715019E+04  1.153264E+04 -6.401032E+03  4.743128E+04
       299  21  3.579873E+04  4.820336E+05  2.587162E+03 -1.808316E+04 -7.007631E+03  2.591957E+04
       299  22 -8.938521E+04  3.524353E+05 -1.064225E+05 -5.388022E+03 -2.028161E+03  7.496239E+04
       299  23 -1.258841E+03  3.643850E+05 -4.742876E+04 -3.902000E+03 -6.403800E+03  4.982953E+04
       299  24  4.262688E+03  3.524181E+05 -2.543740E+04 -5.330659E+03 -7.006400E+03  2.469848E+04
       299  25 -1.253760E+05  2.071777E+05 -1.414729E+05 -4.899877E+04 -2.037352E+03  8.097802E+04
       299  26 -3.470505E+04  2.272721E+05 -7.770834E+04 -1.933320E+04 -6.406688E+03  5.222725E+04
       299  27 -2.727385E+04  2.228187E+05 -5.346286E+04  7.419146E+03 -7.005220E+03  2.347764E+04
       300   1  2.531833E+04  4.809721E+05  8.378801E+03 -4.406287E+03  6.450539E+03 -2.144907E+04
       300   2  2.817330E+04  4.736349E+05  2.020568E+04 -3.382710E+03  6.191282E+03 -1.927574E+04
       300   3  2.928113E+04  4.655773E+05  3.018168E+04 -5.389783E+03  5.665694E+03 -1.710265E+04
       300   4 -4.712466E+03  3.575657E+05 -1.843566E+04 -5.373368E+03  6.450585E+03 -2.132651E+04
       300   5  3.800105E+01  3.579469E+05 -4.841754E+03 -3.855239E+03  6.191111E+03 -1.889784E+04
       300   6  2.996778E+03  3.575630E+05  6.723678E+03 -5.367803E+03  5.665287E+03 -1.646939E+04
       300   7 -3.474426E+04  2.341736E+05 -4.525104E+04 -6.340253E+03  6.450631E+03 -2.120396E+04
       300   8 -2.809818E+04  2.422715E+05 -2.988998E+04 -4.327677E+03  6.190940E+03 -1.852001E+04
       300   9 -2.328835E+04  2.495597E+05 -1.673502E+04 -5.345826E+03  5.664880E+03 -1.583623E+04
       300  10  2.531816E+04  4.809716E+05  8.377859E+03 -4.406175E+03  1.046167E-10 -8.662471E-11
       300  11  2.817316E+04  4.736345E+05  2.020491E+04 -3.382614E+03 -4.740015E-10 -7.252332E-10
       300  12  2.928102E+04  4.655770E+05  3.018107E+04 -5.389705E+03 -9.360472E-11  9.749296E-11
       300  13 -4.712633E+03  3.575652E+05 -1.843660E+04 -5.373258E+03  3.223264E-10 -7.715892E-10
       300  14  3.786408E+01  3.579465E+05 -4.842496E+03 -3.855145E+03 -1.101920E-09 -1.530239E-09
       300  15  2.996671E+03  3.575627E+05  6.723108E+03 -5.367728E+03  1.923117E-10  2.521443E-11
       300  16 -3.474443E+04  2.341732E+05 -4.525196E+04 -6.340143E+03  1.123203E-10  6.660863E-11
       300  17 -2.809831E+04  2.422711E+05 -2.989070E+04 -4.327584E+03 -3.612758E-10 -2.259677E-09
       300  18 -2.328845E+04  2.495594E+05 -1.673555E+04 -5.345753E+03  4.198552E-10 -1.039451E-09
       300  19  2.531833E+04  4.809721E+05  8.378801E+03 -4.406287E+03 -6.450539E+03  2.144907E+04
       300  20  2.817330E+04  4.736349E+05  2.020568E+04 -3.382710E+03 -6.191282E+03  1.927574E+04
       300  21  2.928113E+04  4.655773E+05  3.018168E+04 -5.389783E+03 -5.665694E+03  1.710265E+04
       300  22 -4.712466E+03  3.575657E+05 -1.843566E+04 -5.373368E+03 -6.450585E+03  2.132651E+04
       300  23  3.800105E+01  3.579469E+05 -4.841754E+03 -3.855239E+03 -6.191111E+03  1.889784E+04
       300  24  2.996778E+03  3.575630E+05  6.723678E+03 -5.367803E+03 -5.665287E+03  1.646939E+04
       300  25 -3.474426E+04  2.341736E+05 -4.525104E+04 -6.340253E+03 -6.450631E+03  2.120396E+04
       300  26 -2.809818E+04  2.422715E+05 -2.988998E+04 -4.327677E+03 -6.190940E+03  1.852001E+04
       300  27 -2.328835E+04  2.495597E+05 -1.673502E+04 -5.345826E+03 -5.664880E+03  1.583623E+04
       301   1  2.213623E+04  4.628530E+05  3.406555E+04 -1.313198E+04  5.560674E+03 -1.781015E+04
       301   2  2.373577E+04  4.479822E+05  4.765525E+04  5.304726E+03  4.529180E+03 -3.417796E+04
       301   3  7.501680E+04  4.476567E+05  8.431574E+04  2.065866E+04  1.365405E+03 -5.054726E+04
       301   4 -2.664805E+03  3.608885E+05  1.205011E+04 -5.392730E+03  5.560536E+03 -1.782948E+04
       301   5  7.790929E+02  3.537884E+05  2.693505E+04 -3.828768E+03  4.528096E+03 -3.214818E+04
       301   6  5.355170E+04  3.608790E+05  6.347008E+04 -5.347386E+03  1.364117E+03 -4.646850E+04
       301   7 -2.746630E+04  2.589339E+05 -9.965917E+03  2.345238E+03  5.560398E+03 -1.784881E+04
       301   8 -2.217786E+04  2.596032E+05  6.214361E+03 -1.296086E+04  4.526952E+03 -3.011870E+04
       301   9  3.208860E+04  2.741098E+05  4.262431E+04 -3.134979E+04  1.362486E+03 -4.239029E+04
       301  10  2.213611E+04  4.628526E+05  3.406489E+04 -1.313190E+04  3.341488E-10  8.214171E-12
       301  11  2.373543E+04  4.479809E+05  4.765302E+04  5.304850E+03  1.100045E-10 -1.012080E-09
       301  12  7.501611E+04  4.476539E+05  8.431094E+04  2.065872E+04 -3.500978E-10 -1.260833E-10
       301  13 -2.664923E+03  3.608881E+05  1.204945E+04 -5.392650E+03 -8.363716E-11 -8.607972E-10
       301  14  7.787936E+02  3.537873E+05  2.693307E+04 -3.828651E+03 -9.130011E-11 -1.656132E-09
       301  15  5.355112E+04  3.608767E+05  6.346602E+04 -5.347335E+03  2.502542E-10  1.380405E-10
       301  16 -2.746642E+04  2.589335E+05 -9.966573E+03  2.345318E+03  5.329881E-10 -1.227580E-10
       301  17 -2.217812E+04  2.596022E+05  6.212618E+03 -1.296075E+04  3.640329E-10 -2.694524E-09
       301  18  3.208812E+04  2.741078E+05  4.262093E+04 -3.134974E+04 -1.373115E-10 -7.645794E-10
       301  19  2.213623E+04  4.628530E+05  3.406555E+04 -1.313198E+04 -5.560674E+03  1.781015E+04
       301  20  2.373577E+04  4.479822E+05  4.765525E+04  5.304726E+03 -4.529180E+03  3.417796E+04
       301  21  7.501680E+04  4.476567E+05  8.431574E+04  2.065866E+04 -1.365405E+03  5.054726E+04
       301  22 -2.664805E+03  3.608885E+05  1.205011E+04 -5.392730E+03 -5.560536E+03  1.782948E+04
       301  23  7.790929E+02  3.537884E+05  2.693505E+04 -3.828768E+03 -4.528096E+03  3.214818E+04
       301  24  5.355170E+04  3.608790E+05  6.347008E+04 -5.347386E+03 -1.364117E+03  4.646850E+04
       301  25 -2.746630E+04  2.589339E+05 -9.965917E+03  2.345238E+03 -5.560398E+03  1.784881E+04
       301  26 -2.217786E+04  2.596032E+05  6.214361E+03 -1.296086E+04 -4.526952E+03  3.011870E+04
       301  27  3.208860E+04  2.741098E+05  4.262431E+04 -3.134979E+04 -1.362486E+03  4.239029E+04
       302   1  1.206878E+06  8.866897E+05  2.319006E+05  8.067340E+05  5.968597E+04  3.291034E+04
       302   2  1.158687E+06  7.870228E+05  1.703163E+05  7.927955E+05  4.615101E+04 -2.775799E+03
       302   3  1.111428E+06  7.496466E+05  1.414951E+05  7.715961E+05  2.113936E+04 -2.317284E+04
       302   4  7.000729E+05  4.873409E+05  5.663588E+04  5.380126E+05  3.661481E+04  1.557772E+04
       302   5  6.922619E+05  4.419407E+05  2.619858E+04  5.535666E+05  3.780176E+04 -9.052863E+03
       302   6  6.822123E+05  4.556613E+05  1.578053E+04  5.618527E+05  2.750422E+04 -1.839081E+04
       302   7  1.935325E+05  8.816569E+04 -1.186649E+05  2.695455E+05  1.356893E+04 -1.733211E+03
       302   8  2.260719E+05  9.699227E+04 -1.179449E+05  3.145443E+05  2.946099E+04 -1.532321E+04
       302   9  2.532021E+05  1.617734E+05 -1.099523E+05  3.522726E+05  3.386305E+04 -1.361310E+04
       302  10  1.206874E+06  8.866876E+05  2.318918E+05  8.067325E+05  1.709896E-09 -7.688279E-12
       302  11  1.158685E+06  7.870222E+05  1.703123E+05  7.927956E+05  1.068385E-09 -6.063384E-10
       302  12  1.111427E+06  7.496459E+05  1.414932E+05  7.715965E+05 -2.228722E-09 -2.066332E-09
       302  13  7.000714E+05  4.873403E+05  5.663291E+04  5.380121E+05  4.841872E-10  2.926171E-10
       302  14  6.922604E+05  4.419403E+05  2.619574E+04  5.535669E+05  1.314014E-09  1.090682E-09
       302  15  6.822114E+05  4.556608E+05  1.577848E+04  5.618531E+05 -6.904348E-11  3.931708E-11
       302  16  1.935323E+05  8.816564E+04 -1.186653E+05  2.695455E+05 -1.172632E-09 -1.057513E-09
       302  17  2.260709E+05  9.699178E+04 -1.179470E+05  3.145446E+05  5.305440E-10 -1.594108E-09
       302  18  2.532008E+05  1.617729E+05 -1.099548E+05  3.522730E+05  1.746854E-09  3.576917E-10
       302  19  1.206878E+06  8.866897E+05  2.319006E+05  8.067340E+05 -5.968597E+04 -3.291034E+04
       302  20  1.158687E+06  7.870228E+05  1.703163E+05  7.927955E+05 -4.615101E+04  2.775799E+03
       302  21  1.111428E+06  7.496466E+05  1.414951E+05  7.715961E+05 -2.113936E+04  2.317284E+04
       302  22  7.000729E+05  4.873409E+05  5.663588E+04  5.380126E+05 -3.661481E+04 -1.557772E+04
       302  23  6.922619E+05  4.419407E+05  2.619858E+04  5.535666E+05 -3.780176E+04  9.052863E+03
       302  24  6.822123E+05  4.556613E+05  1.578053E+04  5.618527E+05 -2.750422E+04  1.839081E+04
       302  25  1.935325E+05  8.816569E+04 -1.186649E+05  2.695455E+05 -1.356893E+04  1.733211E+03
       302  26  2.260719E+05  9.699227E+04 -1.179449E+05  3.145443E+05 -2.946099E+04  1.532321E+04
       302  27  2.532021E+05  1.617734E+05 -1.099523E+05  3.522726E+05 -3.386305E+04  1.361310E+04
       303   1  1.062535E+06  7.296008E+05  1.267952E+05  7.494088E+05  2.131222E+04 -1.810844E+04
       303   2  1.023522E+06  6.770525E+05  1.061969E+05  7.204455E+05  1.557514E+04 -1.861970E+04
       303   3  9.594428E+05  6.534832E+05  8.943433E+04  6.986573E+05  9.324184E+03 -1.845021E+04
       303   4  6.821143E+05  4.577914E+05  1.288563E+04  5.584132E+05  2.331823E+04 -1.660227E+04
       303   5  6.942754E+05  4.425771E+05  8.138686E+03  5.554332E+05  1.823880E+04 -1.661799E+04
       303   6  6.812244E+05  4.562008E+05  6.659005E+03  5.596265E+05  1.264486E+04 -1.595306E+04
       303   7  3.018505E+05  1.860640E+05 -1.010404E+05  3.675502E+05  2.532257E+04 -1.509736E+04
       303   8  3.651448E+05  2.081615E+05 -8.993230E+04  3.905191E+05  2.090055E+04 -1.461772E+04
       303   9  4.030873E+05  2.589594E+05 -7.612592E+04  4.206647E+05  1.596355E+04 -1.345740E+04
       303  10  1.062535E+06  7.296003E+05  1.267937E+05  7.494091E+05 -1.508334E-09 -3.773338E-10
       303  11  1.023522E+06  6.770520E+05  1.061958E+05  7.204457E+05  2.908796E-10  2.429930E-09
       303  12  9.594426E+05  6.534828E+05  8.943352E+04  6.986574E+05  1.426261E-09  1.242246E-09
       303  13  6.821136E+05  4.577910E+05  1.288409E+04  5.584136E+05 -3.204543E-10  8.325240E-10
       303  14  6.942750E+05  4.425767E+05  8.137542E+03  5.554334E+05 -1.304640E-09  1.123617E-09
       303  15  6.812241E+05  4.562004E+05  6.658226E+03  5.596267E+05  6.120401E-10 -1.201067E-09
       303  16  3.018497E+05  1.860636E+05 -1.010420E+05  3.675505E+05 -3.018646E-10  1.288684E-09
       303  17  3.651443E+05  2.081611E+05 -8.993352E+04  3.905193E+05 -1.422100E-09 -1.393602E-10
       303  18  4.030870E+05  2.589591E+05 -7.612674E+04  4.206649E+05 -1.677438E-09 -2.689558E-10
       303  19  1.062535E+06  7.296008E+05  1.267952E+05  7.494088E+05 -2.131222E+04  1.810844E+04
       303  20  1.023522E+06  6.770525E+05  1.061969E+05  7.204455E+05 -1.557514E+04  1.861970E+04
       303  21  9.594428E+05  6.534832E+05  8.943433E+04  6.986573E+05 -9.324184E+03  1.845021E+04
       303  22  6.821143E+05  4.577914E+05  1.288563E+04  5.584132E+05 -2.331823E+04  1.660227E+04
       303  23  6.942754E+05  4.425771E+05  8.138686E+03  5.554332E+05 -1.823880E+04  1.661799E+04
       303  24  6.812244E+05  4.562008E+05  6.659005E+03  5.596265E+05 -1.264486E+04  1.595306E+04
       303  25  3.018505E+05  1.860640E+05 -1.010404E+05  3.675502E+05 -2.532257E+04  1.509736E+04
       303  26  3.651448E+05  2.081615E+05 -8.993230E+04  3.905191E+05 -2.090055E+04  1.461772E+04
       303  27  4.030873E+05  2.589594E+05 -7.612592E+04  4.206647E+05 -1.596355E+04  1.345740E+04
       304   1  9.181972E+05  6.250020E+05  7.702015E+04  6.782621E+05  7.086395E+03 -1.703935E+04
       304   2  8.800513E+05  5.750825E+05  6.358117E+04  6.486717E+05  1.332743E+03 -1.628039E+04
       304   3  8.159439E+05  5.525382E+05  5.300864E+04  6.267966E+05 -4.432517E+03 -1.550723E+04
       304   4  6.812713E+05  4.562501E+05  6.706495E+03  5.594689E+05  1.020429E+04 -1.469415E+04
       304   5  6.943279E+05  4.426881E+05  8.316664E+03  5.555236E+05  4.465469E+03 -1.392336E+04
       304   6  6.814153E+05  4.564967E+05  1.278058E+04  5.592908E+05 -1.285363E+03 -1.313863E+04
       304   7  4.444091E+05  2.875318E+05 -6.361252E+04  4.407283E+05  1.332054E+04 -1.235019E+04
       304   8  5.086431E+05  3.103139E+05 -4.695131E+04  4.624075E+05  7.596907E+03 -1.156731E+04
       304   9  5.469065E+05  3.604654E+05 -2.744944E+04  4.918017E+05  1.860866E+03 -1.077074E+04
       304  10  9.181971E+05  6.250016E+05  7.701951E+04  6.782622E+05  1.753020E-09  4.802497E-10
       304  11  8.800512E+05  5.750823E+05  6.358067E+04  6.486718E+05  5.844533E-10 -4.013171E-09
       304  12  8.159438E+05  5.525379E+05  5.300815E+04  6.267966E+05  1.879787E-10 -4.570524E-09
       304  13  6.812711E+05  4.562499E+05  6.705893E+03  5.594690E+05  1.530772E-09  5.423856E-10
       304  14  6.943279E+05  4.426879E+05  8.316263E+03  5.555236E+05  1.176131E-09  1.962816E-09
       304  15  6.814153E+05  4.564965E+05  1.278026E+04  5.592908E+05  2.070067E-09  2.786565E-10
       304  16  4.444088E+05  2.875316E+05 -6.361314E+04  4.407285E+05  5.169842E-10  2.789986E-10
       304  17  5.086430E+05  3.103138E+05 -4.695167E+04  4.624076E+05  2.695410E-09 -5.836147E-10
       304  18  5.469065E+05  3.604653E+05 -2.744966E+04  4.918017E+05  2.214082E-09  1.383312E-09
       304  19  9.181972E+05  6.250020E+05  7.702015E+04  6.782621E+05 -7.086395E+03  1.703935E+04
       304  20  8.800513E+05  5.750825E+05  6.358117E+04  6.486717E+05 -1.332743E+03  1.628039E+04
       304  21  8.159439E+05  5.525382E+05  5.300864E+04  6.267966E+05  4.432517E+03  1.550723E+04
       304  22  6.812713E+05  4.562501E+05  6.706495E+03  5.594689E+05 -1.020429E+04  1.469415E+04
       304  23  6.943279E+05  4.426881E+05  8.316664E+03  5.555236E+05 -4.465469E+03  1.392336E+04
       304  24  6.814153E+05  4.564967E+05  1.278058E+04  5.592908E+05  1.285363E+03  1.313863E+04
       304  25  4.444091E+05  2.875318E+05 -6.361252E+04  4.407283E+05 -1.332054E+04  1.235019E+04
       304  26  5.086431E+05  3.103139E+05 -4.695131E+04  4.624075E+05 -7.596907E+03  1.156731E+04
       304  27  5.469065E+05  3.604654E+05 -2.744944E+04  4.918017E+05 -1.860866E+03  1.077074E+04
       305   1  7.739164E+05  5.249629E+05  4.400794E+04  6.078496E+05 -7.977775E+03 -1.515476E+04
       305   2  7.376122E+05  4.723254E+05  4.009710E+04  5.765342E+05 -2.112297E+04 -2.001452E+04
       305   3  6.809518E+05  4.540196E+05  4.736071E+04  5.501881E+05 -3.410383E+04 -2.509128E+04
       305   4  6.815887E+05  4.561375E+05  1.619851E+04  5.601259E+05 -4.782274E+03 -1.274944E+04
       305   5  6.936562E+05  4.423259E+05  2.729354E+04  5.550972E+05 -1.813610E+04 -1.776619E+04
       305   6  6.854102E+05  4.628897E+05  4.974413E+04  5.550351E+05 -3.132657E+04 -2.300084E+04
       305   7  5.892695E+05  3.873168E+05 -1.161216E+04  5.124100E+05 -1.587384E+03 -1.034461E+04
       305   8  6.497025E+05  4.123274E+05  1.448983E+04  5.336619E+05 -1.514951E+04 -1.551806E+04
       305   9  6.898687E+05  4.717598E+05  5.212755E+04  5.598821E+05 -2.854932E+04 -2.091035E+04
       305  10  7.739163E+05  5.249626E+05  4.400739E+04  6.078495E+05  9.275787E-10  5.667779E-10
       305  11  7.376116E+05  4.723249E+05  4.009551E+04  5.765339E+05  5.131871E-11 -6.513284E-09
       305  12  6.809503E+05  4.540186E+05  4.735735E+04  5.501874E+05 -4.906106E-10 -3.971749E-10
       305  13  6.815887E+05  4.561373E+05  1.619816E+04  5.601259E+05  1.570578E-09 -1.890671E-09
       305  14  6.936558E+05  4.423255E+05  2.729233E+04  5.550970E+05  9.014412E-10 -2.852428E-09
       305  15  6.854090E+05  4.628889E+05  4.974129E+04  5.550345E+05  6.659171E-10  2.580442E-09
       305  16  5.892694E+05  3.873166E+05 -1.161236E+04  5.124100E+05  1.937105E-09  8.891512E-10
       305  17  6.497022E+05  4.123271E+05  1.448895E+04  5.336617E+05  2.308060E-10  7.199513E-10
       305  18  6.898677E+05  4.717591E+05  5.212521E+04  5.598816E+05  9.487744E-10  1.082172E-09
       305  19  7.739164E+05  5.249629E+05  4.400794E+04  6.078496E+05  7.977775E+03  1.515476E+04
       305  20  7.376122E+05  4.723254E+05  4.009710E+04  5.765342E+05  2.112297E+04  2.001452E+04
       305  21  6.809518E+05  4.540196E+05  4.736071E+04  5.501881E+05  3.410383E+04  2.509128E+04
       305  22  6.815887E+05  4.561375E+05  1.619851E+04  5.601259E+05  4.782274E+03  1.274944E+04
       305  23  6.936562E+05  4.423259E+05  2.729354E+04  5.550972E+05  1.813610E+04  1.776619E+04
       305  24  6.854102E+05  4.628897E+05  4.974413E+04  5.550351E+05  3.132657E+04  2.300084E+04
       305  25  5.892695E+05  3.873168E+05 -1.161216E+04  5.124100E+05  1.587384E+03  1.034461E+04
       305  26  6.497025E+05  4.123274E+05  1.448983E+04  5.336619E+05  1.514951E+04  1.551806E+04
       305  27  6.898687E+05  4.717598E+05  5.212755E+04  5.598821E+05  2.854932E+04  2.091035E+04
       306   1  6.105365E+05  4.467138E+05  4.812645E+04  5.528334E+05 -4.422748E+04 -2.913778E+04
       306   2  6.197931E+05  3.359053E+05  7.676406E+04  4.882375E+05 -8.639438E+04 -5.786293E+04
       306   3  7.010140E+05  3.853876E+05  1.836808E+05  3.693763E+05 -1.249789E+05 -9.133754E+04
       306   4  6.854466E+05  4.545561E+05  6.266627E+04  5.693789E+05 -4.010105E+04 -2.602853E+04
       306   5  6.860316E+05  4.393765E+05  1.072399E+05  5.472093E+05 -8.684790E+04 -5.821156E+04
       306   6  7.595454E+05  5.854447E+05  2.340559E+05  4.707759E+05 -1.300118E+05 -9.515558E+04
       306   7  7.603642E+05  4.623993E+05  7.720633E+04  5.859252E+05 -3.597392E+04 -2.291933E+04
       306   8  7.522769E+05  5.428648E+05  1.377154E+05  6.061915E+05 -8.730148E+04 -5.856031E+04
       306   9  8.180955E+05  7.855761E+05  2.844335E+05  5.721986E+05 -1.350452E+05 -9.897647E+04
       306  10  6.105342E+05  4.467124E+05  4.812119E+04  5.528324E+05  1.110004E-10  3.473463E-09
       306  11  6.197842E+05  3.358997E+05  7.674377E+04  4.882334E+05  6.968269E-11  3.684320E-09
       306  12  7.009950E+05  3.853744E+05  1.836358E+05  3.693671E+05 -2.890533E-10  5.102617E-10
       306  13  6.854447E+05  4.545549E+05  6.266198E+04  5.693781E+05  7.247292E-10 -9.656744E-11
       306  14  6.860226E+05  4.393709E+05  1.072194E+05  5.472052E+05 -2.098988E-10 -1.336371E-09
       306  15  7.595248E+05  5.854304E+05  2.340072E+05  4.707659E+05 -4.976395E-11 -4.636487E-11
       306  16  7.603627E+05  4.623984E+05  7.720292E+04  5.859245E+05 -3.874645E-10 -1.298453E-09
       306  17  7.522678E+05  5.428591E+05  1.376947E+05  6.061874E+05  3.398549E-10 -3.772761E-09
       306  18  8.180734E+05  7.855607E+05  2.843809E+05  5.721878E+05  1.258621E-09 -2.714166E-10
       306  19  6.105365E+05  4.467138E+05  4.812645E+04  5.528334E+05  4.422748E+04  2.913778E+04
       306  20  6.197931E+05  3.359053E+05  7.676406E+04  4.882375E+05  8.639438E+04  5.786293E+04
       306  21  7.010140E+05  3.853876E+05  1.836808E+05  3.693763E+05  1.249789E+05  9.133754E+04
       306  22  6.854466E+05  4.545561E+05  6.266627E+04  5.693789E+05  4.010105E+04  2.602853E+04
       306  23  6.860316E+05  4.393765E+05  1.072399E+05  5.472093E+05  8.684790E+04  5.821156E+04
       306  24  7.595454E+05  5.854447E+05  2.340559E+05  4.707759E+05  1.300118E+05  9.515558E+04
       306  25  7.603642E+05  4.623993E+05  7.720633E+04  5.859252E+05  3.597392E+04  2.291933E+04
       306  26  7.522769E+05  5.428648E+05  1.377154E+05  6.061915E+05  8.730148E+04  5.856031E+04
       306  27  8.180955E+05  7.855761E+05  2.844335E+05  5.721986E+05  1.350452E+05  9.897647E+04
       307   1  7.675851E+05  7.901620E+04  8.038218E+04  3.788569E+04  2.172109E+04 -3.103443E+03
       307   2  7.213552E+05  5.183077E+04  5.568588E+04  2.455164E+04  1.039434E+04 -9.476321E+03
       307   3  6.804285E+05  4.024403E+04  4.225062E+04  2.803467E+04 -9.454276E+02 -8.933743E+03
       307   4  5.124097E+05  1.562316E+04  1.859376E+04  2.987657E+04  1.229410E+04 -3.122689E+03
       307   5  5.103388E+05  2.857612E+02  8.901915E+03  2.148458E+04  7.614290E+03 -9.482339E+03
       307   6  5.124190E+05 -6.028261E+02  5.861182E+03  2.990971E+04  2.920689E+03 -8.925659E+03
       307   7  2.572941E+05 -4.777437E+04 -4.319897E+04  2.187072E+04  2.870974E+03 -3.141697E+03
       307   8  2.993639E+05 -5.126222E+04 -3.788478E+04  1.841856E+04  4.835170E+03 -9.488331E+03
       307   9  3.444361E+05 -4.145152E+04 -3.052988E+04  3.178421E+04  6.785774E+03 -8.917551E+03
       307  10  7.675846E+05  7.901606E+04  8.038128E+04  3.788574E+04  1.663861E-09 -1.073045E-09
       307  11  7.213551E+05  5.183064E+04  5.568551E+04  2.455172E+04 -9.203800E-11 -1.476752E-09
       307  12  6.804285E+05  4.024394E+04  4.225047E+04  2.803467E+04 -2.263285E-09 -1.803153E-09
       307  13  5.124096E+05  1.562311E+04  1.859346E+04  2.987660E+04  3.560082E-10  4.306006E-09
       307  14  5.103387E+05  2.856490E+02  8.901637E+03  2.148464E+04 -4.345646E-10 -1.603091E-10
       307  15  5.124190E+05 -6.029140E+02  5.861016E+03  2.990973E+04 -8.755350E-11 -2.071473E-09
       307  16  2.572941E+05 -4.777438E+04 -4.319901E+04  2.187072E+04 -1.965958E-09  7.249786E-10
       307  17  2.993639E+05 -5.126232E+04 -3.788499E+04  1.841860E+04 -3.463253E-10 -2.345781E-09
       307  18  3.444360E+05 -4.145162E+04 -3.053011E+04  3.178426E+04  1.703267E-09 -2.907717E-09
       307  19  7.675851E+05  7.901620E+04  8.038218E+04  3.788569E+04 -2.172109E+04  3.103443E+03
       307  20  7.213552E+05  5.183077E+04  5.568588E+04  2.455164E+04 -1.039434E+04  9.476321E+03
       307  21  6.804285E+05  4.024403E+04  4.225062E+04  2.803467E+04  9.454276E+02  8.933743E+03
       307  22  5.124097E+05  1.562316E+04  1.859376E+04  2.987657E+04 -1.229410E+04  3.122689E+03
       307  23  5.103388E+05  2.857612E+02  8.901915E+03  2.148458E+04 -7.614290E+03  9.482339E+03
       307  24  5.124190E+05 -6.028261E+02  5.861182E+03  2.990971E+04 -2.920689E+03  8.925659E+03
       307  25  2.572941E+05 -4.777437E+04 -4.319897E+04  2.187072E+04 -2.870974E+03  3.141697E+03
       307  26  2.993639E+05 -5.126222E+04 -3.788478E+04  1.841856E+04 -4.835170E+03  9.488331E+03
       307  27  3.444361E+05 -4.145152E+04 -3.052988E+04  3.178421E+04 -6.785774E+03  8.917551E+03
       308   1  6.449169E+05  3.334350E+04  3.416362E+04  3.053084E+04  1.215878E+02 -6.903725E+03
       308   2  6.012401E+05  2.189801E+04  2.385101E+04  2.170016E+04 -2.356387E+03 -4.776899E+03
       308   3  5.580697E+05  1.153976E+04  1.540145E+04  2.997255E+04 -4.835096E+03 -2.348627E+03
       308   4  5.115992E+05  8.963875E+02  5.170552E+03  2.996410E+04  2.024974E+03 -6.899711E+03
       308   5  5.113732E+05  4.066070E+01  4.380501E+03  2.141323E+04 -1.631040E+02 -4.772151E+03
       308   6  5.116016E+05  2.221097E+02  5.252595E+03  2.996557E+04 -2.352085E+03 -2.343120E+03
       308   7  3.782981E+05 -3.155190E+04 -2.382357E+04  2.939749E+04  3.927957E+03 -6.895701E+03
       308   8  4.215138E+05 -2.181721E+04 -1.509047E+04  2.112634E+04  2.029866E+03 -4.767406E+03
       308   9  4.651355E+05 -1.109568E+04 -4.896363E+03  2.995858E+04  1.307432E+02 -2.337614E+03
       308  10  6.449169E+05  3.334345E+04  3.416353E+04  3.053084E+04 -3.264634E-09  1.166765E-09
       308  11  6.012401E+05  2.189798E+04  2.385095E+04  2.170015E+04 -2.108202E-09  9.501274E-10
       308  12  5.580697E+05  1.153974E+04  1.540139E+04  2.997254E+04 -1.285308E-09  5.648441E-10
       308  13  5.115992E+05  8.963353E+02  5.170455E+03  2.996412E+04  2.050541E-13 -1.189455E-09
       308  14  5.113732E+05  4.063623E+01  4.380458E+03  2.141323E+04 -6.061807E-10  1.468190E-09
       308  15  5.116016E+05  2.221023E+02  5.252575E+03  2.996556E+04 -4.702834E-11  2.260164E-09
       308  16  3.782981E+05 -3.155196E+04 -2.382369E+04  2.939751E+04  3.231763E-09  7.265856E-10
       308  17  4.215138E+05 -2.181724E+04 -1.509052E+04  2.112635E+04  9.646865E-10 -4.732408E-09
       308  18  4.651355E+05 -1.109568E+04 -4.896373E+03  2.995858E+04  5.319470E-10  8.274461E-10
       308  19  6.449169E+05  3.334350E+04  3.416362E+04  3.053084E+04 -1.215878E+02  6.903725E+03
       308  20  6.012401E+05  2.189801E+04  2.385101E+04  2.170016E+04  2.356387E+03  4.776899E+03
       308  21  5.580697E+05  1.153976E+04  1.540145E+04  2.997255E+04  4.835096E+03  2.348627E+03
       308  22  5.115992E+05  8.963875E+02  5.170552E+03  2.996410E+04 -2.024974E+03  6.899711E+03
       308  23  5.113732E+05  4.066070E+01  4.380501E+03  2.141323E+04  1.631040E+02  4.772151E+03
       308  24  5.116016E+05  2.221097E+02  5.252595E+03  2.996557E+04  2.352085E+03  2.343120E+03
       308  25  3.782981E+05 -3.155190E+04 -2.382357E+04  2.939749E+04 -3.927957E+03  6.895701E+03
       308  26  4.215138E+05 -2.181721E+04 -1.509047E+04  2.112634E+04 -2.029866E+03  4.767406E+03
       308  27  4.651355E+05 -1.109568E+04 -4.896363E+03  2.995858E+04 -1.307432E+02  2.337614E+03
       309   1  5.238137E+05  2.864044E+03  8.701538E+03  3.063034E+04 -5.829518E+03 -8.299768E+02
       309   2  4.797310E+05 -7.621965E+03  2.885114E+03  2.108576E+04 -1.047613E+04  1.608290E+03
       309   3  4.370220E+05 -1.467040E+04  9.297778E+02  2.863606E+04 -1.512179E+04  3.814840E+03
       309   4  5.118143E+05 -3.555959E+01  6.213316E+03  2.996544E+04 -3.366212E+03 -8.244830E+02
       309   5  5.111082E+05  1.572319E+01  9.705635E+03  2.141410E+04 -8.235749E+03  1.613234E+03
       309   6  5.118116E+05  3.543012E+03  1.721330E+04  2.995752E+04 -1.310465E+04  3.819232E+03
       309   7  4.998151E+05 -2.935168E+03  3.725110E+03  2.930054E+04 -9.029527E+02 -8.189943E+02
       309   8  5.424863E+05  7.653350E+03  1.652612E+04  2.174247E+04 -5.995258E+03  1.618180E+03
       309   9  5.866065E+05  2.175606E+04  3.349651E+04  3.127914E+04 -1.108727E+04  3.823632E+03
       309  10  5.238137E+05  2.864034E+03  8.701472E+03  3.063034E+04 -3.161261E-09  4.052889E-09
       309  11  4.797309E+05 -7.621998E+03  2.884903E+03  2.108577E+04 -8.795109E-10  1.104406E-09
       309  12  4.370218E+05 -1.467047E+04  9.293210E+02  2.863610E+04  3.449927E-09  1.977705E-09
       309  13  5.118143E+05 -3.556336E+01  6.213294E+03  2.996543E+04 -5.041192E-12  2.335343E-09
       309  14  5.111081E+05  1.570221E+01  9.705503E+03  2.141411E+04 -5.653806E-10  1.975366E-09
       309  15  5.118114E+05  3.542950E+03  1.721295E+04  2.995756E+04 -1.496613E-10 -1.687728E-09
       309  16  4.998151E+05 -2.935168E+03  3.725107E+03  2.930054E+04  2.965666E-09  1.794715E-09
       309  17  5.424863E+05  7.653337E+03  1.652604E+04  2.174248E+04 -1.578684E-10 -1.191665E-09
       309  18  5.866063E+05  2.175601E+04  3.349625E+04  3.127917E+04 -4.189017E-09 -7.111353E-09
       309  19  5.238137E+05  2.864044E+03  8.701538E+03  3.063034E+04  5.829518E+03  8.299768E+02
       309  20  4.797310E+05 -7.621965E+03  2.885114E+03  2.108576E+04  1.047613E+04 -1.608290E+03
       309  21  4.370220E+05 -1.467040E+04  9.297778E+02  2.863606E+04  1.512179E+04 -3.814840E+03
       309  22  5.118143E+05 -3.555959E+01  6.213316E+03  2.996544E+04  3.366212E+03  8.244830E+02
       309  23  5.111082E+05  1.572319E+01  9.705635E+03  2.141410E+04  8.235749E+03 -1.613234E+03
       309  24  5.118116E+05  3.543012E+03  1.721330E+04  2.995752E+04  1.310465E+04 -3.819232E+03
       309  25  4.998151E+05 -2.935168E+03  3.725110E+03  2.930054E+04  9.029527E+02  8.189943E+02
       309  26  5.424863E+05  7.653350E+03  1.652612E+04  2.174247E+04  5.995258E+03 -1.618180E+03
       309  27  5.866065E+05  2.175606E+04  3.349651E+04  3.127914E+04  1.108727E+04 -3.823632E+03
       310   1  4.060573E+05 -2.955895E+04 -2.162654E+03  3.919409E+04 -1.971168E+04  5.712857E+03
       310   2  3.540883E+05 -3.628931E+04  2.847704E+03  9.523318E+03 -3.391791E+04  6.673441E+03
       310   3  3.191982E+05  1.821757E+04  3.239626E+04 -3.356760E+03 -4.811187E+04  2.211561E+03
       310   4  5.154943E+05 -2.984345E+03  2.157436E+04  2.993115E+04 -1.615838E+04  5.720868E+03
       310   5  5.064963E+05  1.014147E+03  3.672777E+04  2.146211E+04 -3.557740E+04  6.669138E+03
       310   6  5.154737E+05  6.714440E+04  8.003260E+04  2.978281E+04 -5.498539E+04  2.194572E+03
       310   7  6.249429E+05  2.358980E+04  4.531077E+04  2.066656E+04 -1.260445E+04  5.728773E+03
       310   8  6.589262E+05  3.831656E+04  7.060648E+04  3.340386E+04 -3.723730E+04  6.664772E+03
       310   9  7.117867E+05  1.160725E+05  1.276669E+05  6.293287E+04 -6.186108E+04  2.176853E+03
       310  10  4.060569E+05 -2.955909E+04 -2.163445E+03  3.919418E+04 -1.349460E-09  1.759337E-09
       310  11  3.540870E+05 -3.628967E+04  2.845460E+03  9.523501E+03 -1.047367E-09 -1.688212E-09
       310  12  3.191957E+05  1.821694E+04  3.239190E+04 -3.356674E+03 -1.854629E-10 -1.785109E-09
       310  13  5.154941E+05 -2.984451E+03  2.157381E+04  2.993123E+04  3.587291E-10  3.801397E-09
       310  14  5.064949E+05  1.013760E+03  3.672531E+04  2.146230E+04 -9.127448E-10 -6.607601E-09
       310  15  5.154704E+05  6.714359E+04  8.002691E+04  2.978291E+04  1.455412E-10  1.000422E-09
       310  16  6.249427E+05  2.358973E+04  4.531041E+04  2.066661E+04  1.423018E-09 -3.546099E-10
       310  17  6.589247E+05  3.831614E+04  7.060379E+04  3.340406E+04  6.409455E-10  1.129770E-09
       310  18  7.117826E+05  1.160715E+05  1.276597E+05  6.293298E+04 -4.850121E-10 -1.640645E-09
       310  19  4.060573E+05 -2.955895E+04 -2.162654E+03  3.919409E+04  1.971168E+04 -5.712857E+03
       310  20  3.540883E+05 -3.628931E+04  2.847704E+03  9.523318E+03  3.391791E+04 -6.673441E+03
       310  21  3.191982E+05  1.821757E+04  3.239626E+04 -3.356760E+03  4.811187E+04 -2.211561E+03
       310  22  5.154943E+05 -2.984345E+03  2.157436E+04  2.993115E+04  1.615838E+04 -5.720868E+03
       310  23  5.064963E+05  1.014147E+03  3.672777E+04  2.146211E+04  3.557740E+04 -6.669138E+03
       310  24  5.154737E+05  6.714440E+04  8.003260E+04  2.978281E+04  5.498539E+04 -2.194572E+03
       310  25  6.249429E+05  2.358980E+04  4.531077E+04  2.066656E+04  1.260445E+04 -5.728773E+03
       310  26  6.589262E+05  3.831656E+04  7.060648E+04  3.340386E+04  3.723730E+04 -6.664772E+03
       310  27  7.117867E+05  1.160725E+05  1.276669E+05  6.293287E+04  6.186108E+04 -2.176853E+03
       311   1 -3.591859E+05 -1.335746E+06 -3.904418E+05  1.908838E+05 -8.069748E+03 -1.726125E+05
       311   2 -1.376813E+05 -1.159935E+06 -2.257973E+05  1.039864E+05 -2.435654E+04 -9.962354E+04
       311   3 -9.011526E+04 -1.036802E+06 -1.521810E+05  7.491325E+04 -2.127353E+04 -2.658043E+04
       311   4 -1.841724E+05 -6.338882E+05 -2.199042E+05  9.991571E+04 -8.086213E+03 -1.479167E+05
       311   5 -2.775118E+03 -6.091232E+05 -1.032389E+05  7.115265E+04 -2.435941E+04 -9.344628E+04
       311   6  7.981166E+03 -6.337851E+05 -6.466443E+04  1.002291E+05 -2.125681E+04 -3.894129E+04
       311   7 -9.163947E+03  6.843879E+04 -4.939551E+04  8.844372E+03 -8.109929E+03 -1.231929E+05
       311   8  1.321145E+05 -5.802587E+04  1.930129E+04  3.828953E+04 -2.436293E+04 -8.726357E+04
       311   9  1.060693E+05 -2.306141E+05  2.284338E+04  1.255616E+05 -2.124112E+04 -5.131008E+04
       311  10 -3.591940E+05 -1.335778E+06 -3.904980E+05  1.908827E+05 -2.014218E-10  3.530818E-09
       311  11 -1.376846E+05 -1.159946E+06 -2.258171E+05  1.039844E+05 -1.441350E-09  3.438466E-09
       311  12 -9.011594E+04 -1.036803E+06 -1.521832E+05  7.491279E+04 -5.708428E-10 -8.265927E-10
       311  13 -1.841784E+05 -6.339118E+05 -2.199454E+05  9.991475E+04  3.783809E-10  5.791322E-10
       311  14 -2.778102E+03 -6.091328E+05 -1.032564E+05  7.115081E+04 -2.756959E-10  3.929124E-09
       311  15  7.980274E+03 -6.337869E+05 -6.466813E+04  1.002284E+05  2.247206E-10  3.963532E-09
       311  16 -9.168092E+03  6.842248E+04 -4.942415E+04  8.843567E+03  1.690239E-10 -1.164439E-09
       311  17  1.321118E+05 -5.803420E+04  1.928587E+04  3.828782E+04  1.778633E-09  6.786975E-10
       311  18  1.060682E+05 -2.306170E+05  2.283758E+04  1.255607E+05  5.806842E-10  4.442028E-10
       311  19 -3.591859E+05 -1.335746E+06 -3.904418E+05  1.908838E+05  8.069748E+03  1.726125E+05
       311  20 -1.376813E+05 -1.159935E+06 -2.257973E+05  1.039864E+05  2.435654E+04  9.962354E+04
       311  21 -9.011526E+04 -1.036802E+06 -1.521810E+05  7.491325E+04  2.127353E+04  2.658043E+04
       311  22 -1.841724E+05 -6.338882E+05 -2.199042E+05  9.991571E+04  8.086213E+03  1.479167E+05
       311  23 -2.775118E+03 -6.091232E+05 -1.032389E+05  7.115265E+04  2.435941E+04  9.344628E+04
       311  24  7.981166E+03 -6.337851E+05 -6.466443E+04  1.002291E+05  2.125681E+04  3.894129E+04
       311  25 -9.163947E+03  6.843879E+04 -4.939551E+04  8.844372E+03  8.109929E+03  1.231929E+05
       311  26  1.321145E+05 -5.802587E+04  1.930129E+04  3.828953E+04  2.436293E+04  8.726357E+04
       311  27  1.060693E+05 -2.306141E+05  2.284338E+04  1.255616E+05  2.124112E+04  5.131008E+04
       312   1 -7.848690E+04 -9.076988E+05 -1.164918E+05  1.050660E+05 -1.459756E+04 -2.241949E+04
       312   2 -3.246983E+04 -7.548298E+05 -6.904612E+04  7.130039E+04 -7.148938E+03 -2.034334E+03
       312   3 -1.564941E+03 -6.081569E+05 -3.861477E+04  9.655815E+04  6.109126E+02  1.835485E+04
       312   4 -9.354287E+03 -6.241629E+05 -5.468185E+04  1.004077E+05 -1.458781E+04 -2.944605E+04
       312   5  1.022727E+02 -6.210740E+05 -4.004980E+04  7.089838E+04 -7.139488E+03 -9.353483E+03
       312   6 -5.498428E+03 -6.241486E+05 -4.222275E+04  1.004127E+05  6.202361E+02  1.073835E+04
       312   7  5.977308E+04 -3.405515E+05  7.123513E+03  9.574731E+04 -1.457796E+04 -3.647579E+04
       312   8  3.267322E+04 -4.873013E+05 -1.105435E+04  7.049629E+04 -7.130030E+03 -1.667419E+04
       312   9 -9.431846E+03 -6.401399E+05 -4.583052E+04  1.042671E+05  6.294651E+02  3.122043E+03
       312  10 -7.848726E+04 -9.076994E+05 -1.164932E+05  1.050658E+05 -5.580773E-10  2.658525E-09
       312  11 -3.246989E+04 -7.548299E+05 -6.904622E+04  7.130038E+04 -1.925244E-10  2.894467E-09
       312  12 -1.565032E+03 -6.081573E+05 -3.861541E+04  9.655814E+04  5.263445E-10  7.225679E-10
       312  13 -9.354748E+03 -6.241639E+05 -5.468388E+04  1.004074E+05 -1.881108E-10 -2.695515E-10
       312  14  1.021945E+02 -6.210741E+05 -4.005006E+04  7.089833E+04 -1.159540E-09  2.345642E-09
       312  15 -5.498460E+03 -6.241487E+05 -4.222297E+04  1.004127E+05  1.029131E-09  2.822909E-09
       312  16  5.977249E+04 -3.405529E+05  7.120613E+03  9.574689E+04  8.991507E-11 -3.615916E-10
       312  17  3.267309E+04 -4.873016E+05 -1.105497E+04  7.049619E+04 -5.170436E-10 -2.440616E-10
       312  18 -9.431849E+03 -6.401399E+05 -4.583054E+04  1.042671E+05  6.209227E-10 -6.209361E-10
       312  19 -7.848690E+04 -9.076988E+05 -1.164918E+05  1.050660E+05  1.459756E+04  2.241949E+04
       312  20 -3.246983E+04 -7.548298E+05 -6.904612E+04  7.130039E+04  7.148938E+03  2.034334E+03
       312  21 -1.564941E+03 -6.081569E+05 -3.861477E+04  9.655815E+04 -6.109126E+02 -1.835485E+04
       312  22 -9.354287E+03 -6.241629E+05 -5.468185E+04  1.004077E+05  1.458781E+04  2.944605E+04
       312  23  1.022727E+02 -6.210740E+05 -4.004980E+04  7.089838E+04  7.139488E+03  9.353483E+03
       312  24 -5.498428E+03 -6.241486E+05 -4.222275E+04  1.004127E+05 -6.202361E+02 -1.073835E+04
       312  25  5.977308E+04 -3.405515E+05  7.123513E+03  9.574731E+04  1.457796E+04  3.647579E+04
       312  26  3.267322E+04 -4.873013E+05 -1.105435E+04  7.049629E+04  7.130030E+03  1.667419E+04
       312  27 -9.431846E+03 -6.401399E+05 -4.583052E+04  1.042671E+05 -6.294651E+02 -3.122043E+03
       313   1  3.756725E+04 -4.941799E+05 -1.649666E+04  1.158592E+05  6.770019E+03  2.882977E+04
       313   2  6.794444E+04 -3.301692E+05 -2.788342E+03  5.077323E+04  1.185974E+04  5.177563E+04
       313   3 -4.865975E+03 -1.946704E+05 -2.976449E+04  4.404391E+04  4.402029E+03  7.470876E+04
       313   4  4.593611E+03 -6.295870E+05 -4.610754E+04  1.003095E+05  6.782779E+03  1.789250E+04
       313   5 -1.701121E+03 -6.142940E+05 -6.641624E+04  7.104400E+04  1.186034E+04  5.286260E+04
       313   6 -1.133034E+05 -6.296457E+05 -1.357809E+05  1.001435E+05  4.390539E+03  8.781387E+04
       313   7 -2.838027E+04 -7.649761E+05 -7.571894E+04  8.476325E+04  6.796089E+03  6.957598E+03
       313   8 -7.135066E+04 -8.983427E+05 -1.300490E+05  9.130540E+04  1.186102E+04  5.394907E+04
       313   9 -2.217430E+05 -1.064441E+06 -2.418088E+05  1.562037E+05  4.381416E+03  1.009098E+05
       313  10  3.756698E+04 -4.941808E+05 -1.649831E+04  1.158590E+05  1.257839E-12  1.879252E-09
       313  11  6.794357E+04 -3.301721E+05 -2.793646E+03  5.077274E+04 -2.322441E-10  3.069302E-09
       313  12 -4.867495E+03 -1.946764E+05 -2.977502E+04  4.404365E+04 -5.653754E-10 -4.721652E-10
       313  13  4.593476E+03 -6.295873E+05 -4.610822E+04  1.003094E+05  7.476949E-10 -7.481548E-10
       313  14 -1.702023E+03 -6.142971E+05 -6.642176E+04  7.104349E+04 -1.528316E-10  3.206796E-09
       313  15 -1.133055E+05 -6.296540E+05 -1.357955E+05  1.001432E+05  5.759426E-11  3.739926E-09
       313  16 -2.838034E+04 -7.649761E+05 -7.571912E+04  8.476321E+04  8.997208E-10 -5.264245E-10
       313  17 -7.135159E+04 -8.983459E+05 -1.300548E+05  9.130488E+04  9.283863E-10  1.142635E-10
       313  18 -2.217457E+05 -1.064452E+06 -2.418280E+05  1.562034E+05 -4.366143E-10 -8.628083E-11
       313  19  3.756725E+04 -4.941799E+05 -1.649666E+04  1.158592E+05 -6.770019E+03 -2.882977E+04
       313  20  6.794444E+04 -3.301692E+05 -2.788342E+03  5.077323E+04 -1.185974E+04 -5.177563E+04
       313  21 -4.865975E+03 -1.946704E+05 -2.976449E+04  4.404391E+04 -4.402029E+03 -7.470876E+04
       313  22  4.593611E+03 -6.295870E+05 -4.610754E+04  1.003095E+05 -6.782779E+03 -1.789250E+04
       313  23 -1.701121E+03 -6.142940E+05 -6.641624E+04  7.104400E+04 -1.186034E+04 -5.286260E+04
       313  24 -1.133034E+05 -6.296457E+05 -1.357809E+05  1.001435E+05 -4.390539E+03 -8.781387E+04
       313  25 -2.838027E+04 -7.649761E+05 -7.571894E+04  8.476325E+04 -6.796089E+03 -6.957598E+03
       313  26 -7.135066E+04 -8.983427E+05 -1.300490E+05  9.130540E+04 -1.186102E+04 -5.394907E+04
       313  27 -2.217430E+05 -1.064441E+06 -2.418088E+05  1.562037E+05 -4.381416E+03 -1.009098E+05
       314   1  3.531644E+05  2.243080E+05  2.507289E+04  2.650025E+05  2.341771E+04  1.928609E+04
       314   2  3.551961E+05  1.933482E+05  3.338383E+03  2.842138E+05  1.413035E+04  1.572857E+04
       314   3  3.831947E+05  1.856502E+05 -2.579123E+03  2.887058E+05  6.507943E+03  9.959733E+03
       314   4  4.483149E+05  2.584212E+05  5.012008E+04  2.967308E+05  2.659046E+04  2.167387E+04
       314   5  4.271636E+05  2.325540E+05  2.312144E+04  3.146425E+05  1.517670E+04  1.651605E+04
       314   6  4.324381E+05  2.304067E+05  1.378469E+04  3.178356E+05  5.428241E+03  9.146917E+03
       314   7  5.434748E+05  2.925352E+05  7.516651E+04  3.284626E+05  2.976385E+04  2.406181E+04
       314   8  4.991364E+05  2.717610E+05  4.290391E+04  3.450745E+05  1.622322E+04  1.730362E+04
       314   9  4.816841E+05  2.751657E+05  3.014819E+04  3.469683E+05  4.348424E+03  8.333984E+03
       314  10  3.531637E+05  2.243075E+05  2.507117E+04  2.650021E+05 -9.678536E-10 -7.086296E-10
       314  11  3.551959E+05  1.933479E+05  3.337544E+03  2.842136E+05 -1.105166E-09  3.288177E-10
       314  12  3.831946E+05  1.856501E+05 -2.579389E+03  2.887058E+05 -1.507730E-09  4.844121E-11
       314  13  4.483140E+05  2.584205E+05  5.011787E+04  2.967303E+05 -1.216888E-10 -2.195248E-10
       314  14  4.271633E+05  2.325536E+05  2.312049E+04  3.146423E+05  8.028289E-10  3.470834E-09
       314  15  4.324380E+05  2.304066E+05  1.378448E+04  3.178356E+05  1.025568E-10  1.313610E-09
       314  16  5.434737E+05  2.925344E+05  7.516376E+04  3.284620E+05  4.155837E-10  1.651927E-09
       314  17  4.991360E+05  2.717606E+05  4.290286E+04  3.450743E+05  1.004537E-09 -1.622242E-09
       314  18  4.816841E+05  2.751657E+05  3.014803E+04  3.469683E+05  4.805598E-10 -2.679004E-10
       314  19  3.531644E+05  2.243080E+05  2.507289E+04  2.650025E+05 -2.341771E+04 -1.928609E+04
       314  20  3.551961E+05  1.933482E+05  3.338383E+03  2.842138E+05 -1.413035E+04 -1.572857E+04
       314  21  3.831947E+05  1.856502E+05 -2.579123E+03  2.887058E+05 -6.507943E+03 -9.959733E+03
       314  22  4.483149E+05  2.584212E+05  5.012008E+04  2.967308E+05 -2.659046E+04 -2.167387E+04
       314  23  4.271636E+05  2.325540E+05  2.312144E+04  3.146425E+05 -1.517670E+04 -1.651605E+04
       314  24  4.324381E+05  2.304067E+05  1.378469E+04  3.178356E+05 -5.428241E+03 -9.146917E+03
       314  25  5.434748E+05  2.925352E+05  7.516651E+04  3.284626E+05 -2.976385E+04 -2.406181E+04
       314  26  4.991364E+05  2.717610E+05  4.290391E+04  3.450745E+05 -1.622322E+04 -1.730362E+04
       314  27  4.816841E+05  2.751657E+05  3.014819E+04  3.469683E+05 -4.348424E+03 -8.333984E+03
       315   1  3.848879E+05  1.995421E+05 -2.863105E+03  2.915183E+05  4.722383E+03  7.748500E+03
       315   2  3.917826E+05  2.072525E+05 -4.191317E+03  2.979901E+05  2.504472E+03  5.264653E+03
       315   3  4.053001E+05  2.113944E+05 -2.868876E+03  3.023971E+05  3.613673E+02  2.681212E+03
       315   4  4.324719E+05  2.321627E+05  1.115874E+04  3.147612E+05  4.271519E+03  7.409009E+03
       315   5  4.287414E+05  2.332142E+05  6.765767E+03  3.163384E+05  1.957720E+03  4.853002E+03
       315   6  4.316539E+05  2.307178E+05  5.106433E+03  3.158507E+05 -2.811917E+02  2.197466E+03
       315   7  4.800590E+05  2.647848E+05  2.518051E+04  3.380064E+05  3.820603E+03  7.069481E+03
       315   8  4.657017E+05  2.591766E+05  1.772270E+04  3.346879E+05  1.410923E+03  4.441319E+03
       315   9  4.580082E+05  2.500415E+05  1.308157E+04  3.293047E+05 -9.237813E+02  1.713697E+03
       315  10  3.848878E+05  1.995421E+05 -2.863259E+03  2.915183E+05  7.588702E-10  3.124345E-09
       315  11  3.917826E+05  2.072524E+05 -4.191381E+03  2.979901E+05  3.055839E-10  2.587283E-09
       315  12  4.053001E+05  2.113944E+05 -2.868890E+03  3.023971E+05 -7.223865E-10  1.719266E-09
       315  13  4.324719E+05  2.321627E+05  1.115861E+04  3.147612E+05 -7.592638E-10  1.840870E-10
       315  14  4.287414E+05  2.332141E+05  6.765716E+03  3.163384E+05  3.772549E-10 -1.411445E-09
       315  15  4.316539E+05  2.307178E+05  5.106424E+03  3.158507E+05  2.759323E-10  1.236707E-09
       315  16  4.800589E+05  2.647847E+05  2.518039E+04  3.380064E+05 -1.000385E-09 -7.414903E-10
       315  17  4.657016E+05  2.591766E+05  1.772266E+04  3.346879E+05  3.960191E-10 -4.396188E-10
       315  18  4.580082E+05  2.500415E+05  1.308157E+04  3.293047E+05  1.152976E-09 -2.500860E-09
       315  19  3.848879E+05  1.995421E+05 -2.863105E+03  2.915183E+05 -4.722383E+03 -7.748500E+03
       315  20  3.917826E+05  2.072525E+05 -4.191317E+03  2.979901E+05 -2.504472E+03 -5.264653E+03
       315  21  4.053001E+05  2.113944E+05 -2.868876E+03  3.023971E+05 -3.613673E+02 -2.681212E+03
       315  22  4.324719E+05  2.321627E+05  1.115874E+04  3.147612E+05 -4.271519E+03 -7.409009E+03
       315  23  4.287414E+05  2.332142E+05  6.765767E+03  3.163384E+05 -1.957720E+03 -4.853002E+03
       315  24  4.316539E+05  2.307178E+05  5.106433E+03  3.158507E+05  2.811917E+02 -2.197466E+03
       315  25  4.800590E+05  2.647848E+05  2.518051E+04  3.380064E+05 -3.820603E+03 -7.069481E+03
       315  26  4.657017E+05  2.591766E+05  1.772270E+04  3.346879E+05 -1.410923E+03 -4.441319E+03
       315  27  4.580082E+05  2.500415E+05  1.308157E+04  3.293047E+05  9.237813E+02 -1.713697E+03
       316   1  4.128818E+05  2.175788E+05 -6.263900E+02  3.063685E+05 -8.884606E+01  1.739136E+03
       316   2  4.201063E+05  2.271954E+05  2.991009E+03  3.121180E+05 -1.807330E+03 -5.574972E+02
       316   3  4.330430E+05  2.320239E+05  8.513269E+03  3.163667E+05 -3.525236E+03 -2.855047E+03
       316   4  4.316480E+05  2.307969E+05  4.901000E+03  3.157089E+05 -7.034301E+02  1.276462E+03
       316   5  4.288251E+05  2.332496E+05  5.558915E+03  3.164149E+05 -2.422791E+03 -1.020826E+03
       316   6  4.317144E+05  2.309144E+05  8.122409E+03  3.156201E+05 -4.141536E+03 -3.319004E+03
       316   7  4.504147E+05  2.440151E+05  1.042836E+04  3.250496E+05 -1.318040E+03  8.137688E+02
       316   8  4.375441E+05  2.393039E+05  8.126830E+03  3.207120E+05 -3.038266E+03 -1.484166E+03
       316   9  4.303859E+05  2.298048E+05  7.731545E+03  3.148735E+05 -4.757840E+03 -3.782964E+03
       316  10  4.128818E+05  2.175788E+05 -6.263957E+02  3.063685E+05 -1.712415E-09  2.772681E-09
       316  11  4.201063E+05  2.271954E+05  2.991003E+03  3.121180E+05 -8.087402E-11  4.674213E-09
       316  12  4.330429E+05  2.320239E+05  8.513230E+03  3.163667E+05  1.441210E-09  8.773575E-10
       316  13  4.316480E+05  2.307969E+05  4.900996E+03  3.157089E+05  2.030011E-10 -3.131190E-09
       316  14  4.288251E+05  2.332496E+05  5.558902E+03  3.164149E+05 -5.704806E-10  3.830657E-09
       316  15  4.317144E+05  2.309144E+05  8.122356E+03  3.156201E+05 -1.867218E-10  1.092603E-09
       316  16  4.504147E+05  2.440151E+05  1.042835E+04  3.250496E+05  1.025866E-09 -1.825182E-09
       316  17  4.375441E+05  2.393039E+05  8.126809E+03  3.207120E+05 -5.630799E-10 -3.378669E-09
       316  18  4.303859E+05  2.298048E+05  7.731476E+03  3.148735E+05 -2.336318E-09 -3.968699E-09
       316  19  4.128818E+05  2.175788E+05 -6.263900E+02  3.063685E+05  8.884606E+01 -1.739136E+03
       316  20  4.201063E+05  2.271954E+05  2.991009E+03  3.121180E+05  1.807330E+03  5.574972E+02
       316  21  4.330430E+05  2.320239E+05  8.513269E+03  3.163667E+05  3.525236E+03  2.855047E+03
       316  22  4.316480E+05  2.307969E+05  4.901000E+03  3.157089E+05  7.034301E+02 -1.276462E+03
       316  23  4.288251E+05  2.332496E+05  5.558915E+03  3.164149E+05  2.422791E+03  1.020826E+03
       316  24  4.317144E+05  2.309144E+05  8.122409E+03  3.156201E+05  4.141536E+03  3.319004E+03
       316  25  4.504147E+05  2.440151E+05  1.042836E+04  3.250496E+05  1.318040E+03 -8.137688E+02
       316  26  4.375441E+05  2.393039E+05  8.126830E+03  3.207120E+05  3.038266E+03  1.484166E+03
       316  27  4.303859E+05  2.298048E+05  7.731545E+03  3.148735E+05  4.757840E+03  3.782964E+03
       317   1  4.400987E+05  2.385407E+05  1.300867E+04  3.211733E+05 -4.506755E+03 -4.194077E+03
       317   2  4.483675E+05  2.464029E+05  2.273615E+04  3.257702E+05 -1.089061E+04 -9.978356E+03
       317   3  4.657635E+05  2.538518E+05  3.956431E+04  3.272029E+05 -1.733317E+04 -1.568485E+04
       317   4  4.318032E+05  2.307069E+05  1.016890E+04  3.161360E+05 -5.144042E+03 -4.673823E+03
       317   5  4.284255E+05  2.330017E+05  1.692474E+04  3.161502E+05 -1.145284E+04 -1.040164E+04
       317   6  4.341590E+05  2.348672E+05  3.071649E+04  3.130004E+05 -1.782020E+04 -1.605162E+04
       317   7  4.235079E+05  2.228732E+05  7.329155E+03  3.110988E+05 -5.781312E+03 -5.153551E+03
       317   8  4.084841E+05  2.196008E+05  1.111333E+04  3.065307E+05 -1.201504E+04 -1.082490E+04
       317   9  4.025555E+05  2.158831E+05  2.186857E+04  2.987986E+05 -1.830720E+04 -1.641836E+04
       317  10  4.400986E+05  2.385407E+05  1.300860E+04  3.211733E+05  1.519481E-09  1.402809E-09
       317  11  4.483674E+05  2.464027E+05  2.273574E+04  3.257701E+05 -1.453135E-10 -4.942008E-09
       317  12  4.657631E+05  2.538514E+05  3.956329E+04  3.272026E+05 -4.230817E-09 -9.805243E-10
       317  13  4.318032E+05  2.307069E+05  1.016881E+04  3.161360E+05  6.131834E-10 -5.904449E-10
       317  14  4.284254E+05  2.330016E+05  1.692429E+04  3.161501E+05 -5.243390E-10 -4.356315E-10
       317  15  4.341586E+05  2.348669E+05  3.071541E+04  3.130001E+05 -2.030074E-09  8.837978E-09
       317  16  4.235079E+05  2.228732E+05  7.329042E+03  3.110987E+05 -1.931425E-09 -1.433816E-09
       317  17  4.084839E+05  2.196006E+05  1.111284E+04  3.065306E+05  4.907535E-10  3.071657E-09
       317  18  4.025551E+05  2.158827E+05  2.186743E+04  2.987984E+05 -2.758335E-10  6.045708E-09
       317  19  4.400987E+05  2.385407E+05  1.300867E+04  3.211733E+05  4.506755E+03  4.194077E+03
       317  20  4.483675E+05  2.464029E+05  2.273615E+04  3.257702E+05  1.089061E+04  9.978356E+03
       317  21  4.657635E+05  2.538518E+05  3.956431E+04  3.272029E+05  1.733317E+04  1.568485E+04
       317  22  4.318032E+05  2.307069E+05  1.016890E+04  3.161360E+05  5.144042E+03  4.673823E+03
       317  23  4.284255E+05  2.330017E+05  1.692474E+04  3.161502E+05  1.145284E+04  1.040164E+04
       317  24  4.341590E+05  2.348672E+05  3.071649E+04  3.130004E+05  1.782020E+04  1.605162E+04
       317  25  4.235079E+05  2.228732E+05  7.329155E+03  3.110988E+05  5.781312E+03  5.153551E+03
       317  26  4.084841E+05  2.196008E+05  1.111333E+04  3.065307E+05  1.201504E+04  1.082490E+04
       317  27  4.025555E+05  2.158831E+05  2.186857E+04  2.987986E+05  1.830720E+04  1.641836E+04
       318   1  4.553371E+05  2.729063E+05  4.987511E+04  3.453886E+05 -2.080888E+04 -1.910773E+04
       318   2  4.916431E+05  2.447706E+05  8.063965E+04  3.292384E+05 -5.028016E+04 -4.153680E+04
       318   3  5.947064E+05  2.949821E+05  1.635569E+05  2.734643E+05 -8.105366E+04 -6.223820E+04
       318   4  4.341280E+05  2.297766E+05  3.866514E+04  3.218564E+05 -2.178658E+04 -1.984285E+04
       318   5  4.237906E+05  2.311255E+05  6.611674E+04  3.112782E+05 -4.959637E+04 -4.102478E+04
       318   6  4.798486E+05  3.104646E+05  1.442826E+05  2.610766E+05 -7.870466E+04 -6.048180E+04
       318   7  4.129197E+05  1.866495E+05  2.745504E+04  2.983256E+05 -2.276426E+04 -2.057786E+04
       318   8  3.559438E+05  2.174809E+05  5.159381E+04  2.933190E+05 -4.891270E+04 -4.051277E+04
       318   9  3.650124E+05  3.259526E+05  1.250100E+05  2.486872E+05 -7.635631E+04 -5.872520E+04
       318  10  4.553366E+05  2.729058E+05  4.987361E+04  3.453882E+05  5.077051E-09  4.043990E-09
       318  11  4.916400E+05  2.447681E+05  8.063166E+04  3.292368E+05  2.585115E-09 -4.053224E-09
       318  12  5.946983E+05  2.949762E+05  1.635373E+05  2.734602E+05 -1.793221E-09 -3.185297E-09
       318  13  4.341274E+05  2.297760E+05  3.866351E+04  3.218561E+05 -6.152197E-10  2.105460E-09
       318  14  4.237875E+05  2.311230E+05  6.610896E+04  3.112765E+05  1.997581E-09  2.853243E-09
       318  15  4.798410E+05  3.104590E+05  1.442641E+05  2.610727E+05  4.784538E-10  1.818262E-09
       318  16  4.129190E+05  1.866489E+05  2.745328E+04  2.983252E+05 -6.993447E-09  3.897270E-09
       318  17  3.559408E+05  2.174785E+05  5.158624E+04  2.933174E+05  9.738485E-10  3.003721E-09
       318  18  3.650053E+05  3.259473E+05  1.249926E+05  2.486836E+05  3.565542E-09  2.963701E-09
       318  19  4.553371E+05  2.729063E+05  4.987511E+04  3.453886E+05  2.080888E+04  1.910773E+04
       318  20  4.916431E+05  2.447706E+05  8.063965E+04  3.292384E+05  5.028016E+04  4.153680E+04
       318  21  5.947064E+05  2.949821E+05  1.635569E+05  2.734643E+05  8.105366E+04  6.223820E+04
       318  22  4.341280E+05  2.297766E+05  3.866514E+04  3.218564E+05  2.178658E+04  1.984285E+04
       318  23  4.237906E+05  2.311255E+05  6.611674E+04  3.112782E+05  4.959637E+04  4.102478E+04
       318  24  4.798486E+05  3.104646E+05  1.442826E+05  2.610766E+05  7.870466E+04  6.048180E+04
       318  25  4.129197E+05  1.866495E+05  2.745504E+04  2.983256E+05  2.276426E+04  2.057786E+04
       318  26  3.559438E+05  2.174809E+05  5.159381E+04  2.933190E+05  4.891270E+04  4.051277E+04
       318  27  3.650124E+05  3.259526E+05  1.250100E+05  2.486872E+05  7.635631E+04  5.872520E+04
       319   1  3.734934E+05  5.870288E+04  5.819031E+04  2.955167E+04  1.149087E+04 -2.621978E+03
       319   2  3.322091E+05  4.328528E+04  4.190078E+04  2.027803E+04  4.384887E+03 -7.906055E+03
       319   3  2.931138E+05  3.320147E+04  3.156164E+04  2.654611E+04 -2.732904E+03 -7.267102E+03
       319   4  1.562214E+05  4.719542E+03  5.540061E+03  2.693977E+04  3.585252E+03 -2.638628E+03
       319   5  1.556232E+05  1.354898E+02  2.712859E+03  1.917395E+04  2.168640E+03 -7.910972E+03
       319   6  1.562259E+05 -1.012257E+02  1.887216E+03  2.695001E+04  7.397378E+02 -7.259566E+03
       319   7 -6.100744E+04 -4.926720E+04 -4.711335E+04  2.432877E+04 -4.317612E+03 -2.655214E+03
       319   8 -2.093359E+04 -4.301640E+04 -3.647698E+04  1.807018E+04 -4.698418E+01 -7.915883E+03
       319   9  1.935553E+04 -3.340515E+04 -2.778828E+04  2.735380E+04  4.211625E+03 -7.252025E+03
       319  10  3.734933E+05  5.870284E+04  5.819005E+04  2.955170E+04 -6.101914E-09  1.897104E-09
       319  11  3.322091E+05  4.328521E+04  4.190062E+04  2.027806E+04 -8.335863E-10  7.312283E-09
       319  12  2.931138E+05  3.320141E+04  3.156153E+04  2.654610E+04  3.644734E-09  3.488926E-09
       319  13  1.562214E+05  4.719532E+03  5.540024E+03  2.693978E+04 -1.241624E-10 -3.611645E-09
       319  14  1.556232E+05  1.354213E+02  2.712733E+03  1.917397E+04 -8.625530E-10 -7.109295E-09
       319  15  1.562259E+05 -1.012825E+02  1.887116E+03  2.695001E+04 -1.729984E-10  1.389584E-09
       319  16 -6.100746E+04 -4.926721E+04 -4.711340E+04  2.432876E+04  5.628320E-09  7.087059E-10
       319  17 -2.093361E+04 -4.301647E+04 -3.647709E+04  1.807018E+04  1.205524E-10  4.219327E-09
       319  18  1.935549E+04 -3.340521E+04 -2.778841E+04  2.735382E+04 -4.268898E-09 -2.004239E-12
       319  19  3.734934E+05  5.870288E+04  5.819031E+04  2.955167E+04 -1.149087E+04  2.621978E+03
       319  20  3.322091E+05  4.328528E+04  4.190078E+04  2.027803E+04 -4.384887E+03  7.906055E+03
       319  21  2.931138E+05  3.320147E+04  3.156164E+04  2.654611E+04  2.732904E+03  7.267102E+03
       319  22  1.562214E+05  4.719542E+03  5.540061E+03  2.693977E+04 -3.585252E+03  2.638628E+03
       319  23  1.556232E+05  1.354898E+02  2.712859E+03  1.917395E+04 -2.168640E+03  7.910972E+03
       319  24  1.562259E+05 -1.012258E+02  1.887216E+03  2.695001E+04 -7.397378E+02  7.259566E+03
       319  25 -6.100744E+04 -4.926720E+04 -4.711335E+04  2.432877E+04  4.317612E+03  2.655214E+03
       319  26 -2.093359E+04 -4.301640E+04 -3.647698E+04  1.807018E+04  4.698418E+01  7.915883E+03
       319  27  1.935553E+04 -3.340515E+04 -2.778828E+04  2.735380E+04 -4.211625E+03  7.252025E+03
       320   1  2.608641E+05  2.587942E+04  2.455727E+04  2.729682E+04 -1.354321E+03 -5.428206E+03
       320   2  2.206715E+05  1.581830E+04  1.569743E+04  1.926671E+04 -2.430945E+03 -3.433664E+03
       320   3  1.806421E+05  6.185596E+03  7.625475E+03  2.704000E+04 -3.508223E+03 -1.181866E+03
       320   4  1.559870E+05  3.434055E+02  1.734758E+03  2.700533E+04  4.397620E+02 -5.424277E+03
       320   5  1.559286E+05  6.397284E+01  1.657690E+03  1.910378E+04 -3.897965E+02 -3.429114E+03
       320   6  1.559885E+05  1.700357E+02  2.196916E+03  2.700571E+04 -1.220079E+03 -1.176679E+03
       320   7  5.112017E+04 -2.519334E+04 -2.108840E+04  2.671389E+04  2.233546E+03 -5.420349E+03
       320   8  9.118968E+04 -1.569063E+04 -1.238228E+04  1.894086E+04  1.651142E+03 -3.424566E+03
       320   9  1.313355E+05 -5.845562E+03 -3.231660E+03  2.697143E+04  1.067974E+03 -1.171492E+03
       320  10  2.608641E+05  2.587939E+04  2.455721E+04  2.729681E+04 -3.775420E-09 -1.561798E-09
       320  11  2.206714E+05  1.581829E+04  1.569740E+04  1.926670E+04  6.790879E-09  3.639510E-09
       320  12  1.806421E+05  6.185591E+03  7.625449E+03  2.704000E+04  1.566720E-08  8.042048E-09
       320  13  1.559870E+05  3.433739E+02  1.734703E+03  2.700533E+04  9.723337E-11  7.500325E-09
       320  14  1.559286E+05  6.396017E+01  1.657668E+03  1.910378E+04 -9.933274E-10 -1.183176E-08
       320  15  1.559885E+05  1.700338E+02  2.196911E+03  2.700571E+04  3.766908E-11  9.789013E-09
       320  16  5.112015E+04 -2.519337E+04 -2.108846E+04  2.671390E+04  3.219357E-09 -5.432448E-09
       320  17  9.118968E+04 -1.569065E+04 -1.238231E+04  1.894086E+04 -7.480547E-09 -1.743259E-09
       320  18  1.313355E+05 -5.845564E+03 -3.231665E+03  2.697143E+04 -1.604208E-08  3.561756E-09
       320  19  2.608641E+05  2.587942E+04  2.455727E+04  2.729682E+04  1.354321E+03  5.428206E+03
       320  20  2.206715E+05  1.581830E+04  1.569743E+04  1.926671E+04  2.430945E+03  3.433664E+03
       320  21  1.806421E+05  6.185596E+03  7.625475E+03  2.704000E+04  3.508223E+03  1.181866E+03
       320  22  1.559870E+05  3.434055E+02  1.734758E+03  2.700533E+04 -4.397620E+02  5.424277E+03
       320  23  1.559286E+05  6.397284E+01  1.657690E+03  1.910378E+04  3.897965E+02  3.429114E+03
       320  24  1.559885E+05  1.700357E+02  2.196916E+03  2.700571E+04  1.220079E+03  1.176679E+03
       320  25  5.112017E+04 -2.519334E+04 -2.108840E+04  2.671389E+04 -2.233546E+03  5.420349E+03
       320  26  9.118968E+04 -1.569063E+04 -1.238228E+04  1.894086E+04 -1.651142E+03  3.424566E+03
       320  27  1.313355E+05 -5.845562E+03 -3.231660E+03  2.697143E+04 -1.067974E+03  1.171492E+03
       321   1  1.488898E+05 -1.729997E+03  1.023911E+03  2.729019E+04 -3.935378E+03  2.231841E+02
       321   2  1.085050E+05 -1.145953E+04 -5.931067E+03  1.890078E+04 -5.885076E+03  2.477716E+03
       321   3  6.868096E+04 -1.961728E+04 -1.124472E+04  2.631359E+04 -7.834040E+03  4.495902E+03
       321   4  1.560955E+05  4.046106E+01  2.679603E+03  2.700631E+04 -1.653079E+03  2.283669E+02
       321   5  1.557952E+05  5.084541E+01  4.333049E+03  1.910340E+04 -3.829908E+03  2.482323E+03
       321   6  1.560941E+05  1.672579E+03  7.785556E+03  2.700264E+04 -6.006130E+03  4.499943E+03
       321   7  1.633012E+05  1.810918E+03  4.335312E+03  2.672242E+04  6.292463E+02  2.335476E+02
       321   8  2.030876E+05  1.156108E+04  1.459705E+04  1.930605E+04 -1.774587E+03  2.486930E+03
       321   9  2.435144E+05  2.296194E+04  2.681539E+04  2.769177E+04 -4.177966E+03  4.503988E+03
       321  10  1.488898E+05 -1.730001E+03  1.023881E+03  2.729020E+04 -9.917206E-09 -3.259902E-10
       321  11  1.085050E+05 -1.145955E+04 -5.931144E+03  1.890079E+04 -7.065384E-09 -3.790327E-09
       321  12  6.868089E+04 -1.961732E+04 -1.124488E+04  2.631362E+04 -1.028232E-09 -2.759631E-09
       321  13  1.560955E+05  4.046027E+01  2.679598E+03  2.700631E+04  2.593493E-11  1.024798E-09
       321  14  1.557952E+05  5.083486E+01  4.333010E+03  1.910341E+04 -7.429073E-10 -5.236834E-09
       321  15  1.560941E+05  1.672548E+03  7.785450E+03  2.700266E+04 -1.234088E-10 -3.268861E-09
       321  16  1.633012E+05  1.810918E+03  4.335311E+03  2.672242E+04  9.521079E-09 -1.354100E-09
       321  17  2.030876E+05  1.156107E+04  1.459703E+04  1.930605E+04  6.608152E-09  2.964090E-09
       321  18  2.435144E+05  2.296191E+04  2.681532E+04  2.769179E+04  5.803759E-10  5.176640E-09
       321  19  1.488898E+05 -1.729997E+03  1.023911E+03  2.729019E+04  3.935378E+03 -2.231841E+02
       321  20  1.085050E+05 -1.145953E+04 -5.931067E+03  1.890078E+04  5.885076E+03 -2.477716E+03
       321  21  6.868096E+04 -1.961728E+04 -1.124472E+04  2.631359E+04  7.834040E+03 -4.495902E+03
       321  22  1.560955E+05  4.046106E+01  2.679603E+03  2.700631E+04  1.653079E+03 -2.283669E+02
       321  23  1.557952E+05  5.084542E+01  4.333049E+03  1.910340E+04  3.829908E+03 -2.482323E+03
       321  24  1.560941E+05  1.672579E+03  7.785556E+03  2.700264E+04  6.006130E+03 -4.499943E+03
       321  25  1.633012E+05  1.810918E+03  4.335312E+03  2.672242E+04 -6.292463E+02 -2.335476E+02
       321  26  2.030876E+05  1.156108E+04  1.459705E+04  1.930605E+04  1.774587E+03 -2.486930E+03
       321  27  2.435144E+05  2.296194E+04  2.681539E+04  2.769177E+04  4.177966E+03 -4.503988E+03
       322   1  3.835103E+04 -3.033902E+04 -1.611870E+04  3.105866E+04 -1.076912E+04  6.290023E+03
       322   2 -5.406978E+03 -3.841578E+04 -1.864938E+04  1.358663E+04 -1.433454E+04  7.064037E+03
       322   3 -4.192201E+04 -1.908937E+04 -1.202351E+04  1.164075E+04 -1.788813E+04  2.359036E+03
       322   4  1.577715E+05 -1.299517E+03  9.782202E+03  2.696027E+04 -7.389913E+03  6.297513E+03
       322   5  1.536924E+05  4.985269E+02  1.669370E+04  1.916336E+04 -1.621709E+04  7.059709E+03
       322   6  1.577655E+05  3.060893E+04  3.641327E+04  2.689185E+04 -2.503273E+04  2.343409E+03
       322   7  2.772053E+05  2.773911E+04  3.568231E+04  2.286107E+04 -4.010063E+03  6.304957E+03
       322   8  3.128155E+05  3.941124E+04  5.203523E+04  2.474152E+04 -1.810011E+04  7.055348E+03
       322   9  3.574900E+05  8.030519E+04  8.484747E+04  4.214785E+04 -3.217962E+04  2.327433E+03
       322  10  3.835089E+04 -3.033909E+04 -1.611900E+04  3.105872E+04  1.844084E-09 -6.542070E-09
       322  11 -5.407212E+03 -3.841589E+04 -1.864986E+04  1.358671E+04 -2.112294E-09 -2.664583E-10
       322  12 -4.192235E+04 -1.908946E+04 -1.202412E+04  1.164079E+04 -3.630284E-09 -2.389552E-09
       322  13  1.577714E+05 -1.299574E+03  9.782025E+03  2.696031E+04 -9.782247E-11  6.021027E-10
       322  14  1.536921E+05  4.984028E+02  1.669311E+04  1.916345E+04 -7.804268E-10 -6.212616E-09
       322  15  1.577648E+05  3.060876E+04  3.641208E+04  2.689190E+04 -1.233084E-10 -2.172263E-09
       322  16  2.772053E+05  2.773906E+04  3.568221E+04  2.286109E+04 -2.364709E-09 -1.129622E-10
       322  17  3.128151E+05  3.941110E+04  5.203453E+04  2.474162E+04  1.617593E-09  2.706544E-09
       322  18  3.574889E+05  8.030491E+04  8.484552E+04  4.214791E+04  3.113943E-09  1.258816E-09
       322  19  3.835103E+04 -3.033902E+04 -1.611870E+04  3.105866E+04  1.076912E+04 -6.290023E+03
       322  20 -5.406978E+03 -3.841578E+04 -1.864938E+04  1.358663E+04  1.433454E+04 -7.064037E+03
       322  21 -4.192201E+04 -1.908937E+04 -1.202351E+04  1.164075E+04  1.788813E+04 -2.359036E+03
       322  22  1.577715E+05 -1.299517E+03  9.782202E+03  2.696027E+04  7.389913E+03 -6.297513E+03
       322  23  1.536924E+05  4.985269E+02  1.669370E+04  1.916336E+04  1.621709E+04 -7.059709E+03
       322  24  1.577655E+05  3.060893E+04  3.641327E+04  2.689185E+04  2.503273E+04 -2.343409E+03
       322  25  2.772053E+05  2.773911E+04  3.568231E+04  2.286107E+04  4.010063E+03 -6.304957E+03
       322  26  3.128155E+05  3.941124E+04  5.203523E+04  2.474152E+04  1.810011E+04 -7.055348E+03
       322  27  3.574900E+05  8.030519E+04  8.484747E+04  4.214785E+04  3.217962E+04 -2.327433E+03
       323   1 -2.137811E+05 -9.306682E+05 -2.342026E+05  1.159894E+05 -4.346494E+03 -1.073500E+05
       323   2 -7.500223E+04 -8.279174E+05 -1.328874E+05  6.235412E+04 -1.314114E+04 -6.213845E+04
       323   3 -4.698734E+04 -7.585732E+05 -8.870330E+04  4.201657E+04 -1.125300E+04 -1.689887E+04
       323   4 -1.175061E+05 -5.447278E+05 -1.404158E+05  5.791422E+04 -4.361915E+03 -9.390283E+04
       323   5 -1.751021E+03 -5.288957E+05 -6.633537E+04  4.137641E+04 -1.314448E+04 -5.891950E+04
       323   6  5.043867E+03 -5.446820E+05 -4.225539E+04  5.814244E+04 -1.124115E+04 -2.391517E+04
       323   7 -2.122936E+04 -1.586437E+05 -4.663730E+04 -1.971784E+02 -4.379853E+03 -8.044725E+04
       323   8  7.149575E+04 -2.297896E+05  2.113151E+02  2.038851E+04 -1.314803E+04 -5.569900E+04
       323   9  5.707306E+04 -3.307471E+05  4.190112E+03  7.427396E+04 -1.122966E+04 -3.093387E+04
       323  10 -2.137842E+05 -9.306806E+05 -2.342244E+05  1.159890E+05 -8.939703E-10 -6.532404E-10
       323  11 -7.500345E+04 -8.279216E+05 -1.328950E+05  6.235346E+04 -2.543496E-09  5.928336E-09
       323  12 -4.698755E+04 -7.585735E+05 -8.870408E+04  4.201641E+04  8.085935E-10  2.102336E-09
       323  13 -1.175085E+05 -5.447373E+05 -1.404324E+05  5.791389E+04 -1.942269E-10  4.369598E-09
       323  14 -1.752139E+03 -5.288995E+05 -6.634222E+04  4.137579E+04 -1.890164E-09 -4.131649E-09
       323  15  5.043578E+03 -5.446826E+05 -4.225671E+04  5.814222E+04  3.989265E-10  6.919607E-10
       323  16 -2.123112E+04 -1.586507E+05 -4.664951E+04 -1.974622E+02 -6.342771E-10  2.257682E-09
       323  17  7.149474E+04 -2.297930E+05  2.051581E+02  2.038792E+04 -6.475583E-11 -2.322895E-09
       323  18  5.707266E+04 -3.307482E+05  4.188076E+03  7.427368E+04 -9.193057E-10 -8.317166E-10
       323  19 -2.137811E+05 -9.306682E+05 -2.342026E+05  1.159894E+05  4.346494E+03  1.073500E+05
       323  20 -7.500223E+04 -8.279174E+05 -1.328874E+05  6.235412E+04  1.314114E+04  6.213845E+04
       323  21 -4.698734E+04 -7.585732E+05 -8.870330E+04  4.201657E+04  1.125300E+04  1.689887E+04
       323  22 -1.175061E+05 -5.447278E+05 -1.404158E+05  5.791422E+04  4.361915E+03  9.390283E+04
       323  23 -1.751021E+03 -5.288957E+05 -6.633537E+04  4.137641E+04  1.314448E+04  5.891950E+04
       323  24  5.043867E+03 -5.446820E+05 -4.225539E+04  5.814244E+04  1.124115E+04  2.391517E+04
       323  25 -2.122936E+04 -1.586437E+05 -4.663730E+04 -1.971784E+02  4.379853E+03  8.044725E+04
       323  26  7.149575E+04 -2.297896E+05  2.113151E+02  2.038851E+04  1.314803E+04  5.569900E+04
       323  27  5.707306E+04 -3.307471E+05  4.190112E+03  7.427396E+04  1.122966E+04  3.093387E+04
       324   1 -4.131203E+04 -6.837088E+05 -6.786804E+04  6.138193E+04 -7.447737E+03 -1.356581E+04
       324   2 -1.427220E+04 -5.953419E+05 -4.072187E+04  4.142523E+04 -3.148757E+03  5.903796E+02
       324   3  2.233565E+03 -5.112947E+05 -2.539778E+04  5.543617E+04  1.287057E+03  1.474841E+04
       324   4 -5.933517E+03 -5.386120E+05 -3.623422E+04  5.822879E+04 -7.440692E+03 -1.764888E+04
       324   5  6.518603E+01 -5.364584E+05 -2.795861E+04  4.124610E+04 -3.141688E+03 -3.622043E+03
       324   6 -4.446437E+03 -5.386082E+05 -3.141326E+04  5.823127E+04  1.294253E+03  1.040473E+04
       324   7  2.944364E+04 -3.934954E+05 -4.601598E+03  5.507490E+04 -7.433606E+03 -2.173289E+04
       324   8  1.440235E+04 -4.775715E+05 -1.519548E+04  4.106696E+04 -3.134617E+03 -7.834861E+03
       324   9 -1.112645E+04 -5.659209E+05 -3.742872E+04  6.102625E+04  1.301410E+03  6.061239E+03
       324  10 -4.131214E+04 -6.837090E+05 -6.786849E+04  6.138185E+04  1.104580E-09 -3.444572E-09
       324  11 -1.427221E+04 -5.953419E+05 -4.072189E+04  4.142523E+04 -6.979943E-10  2.188524E-09
       324  12  2.233505E+03 -5.112950E+05 -2.539819E+04  5.543616E+04  1.190359E-09  1.220580E-09
       324  13 -5.933660E+03 -5.386124E+05 -3.623491E+04  5.822868E+04  4.225709E-10  4.396228E-09
       324  14  6.517191E+01 -5.364584E+05 -2.795865E+04  4.124609E+04 -2.314306E-09 -4.500606E-09
       324  15 -4.446468E+03 -5.386083E+05 -3.141347E+04  5.823126E+04  8.197314E-11 -8.214421E-10
       324  16  2.944346E+04 -3.934960E+05 -4.602590E+03  5.507477E+04 -1.652846E-10  4.578754E-09
       324  17  1.440232E+04 -4.775716E+05 -1.519562E+04  4.106694E+04 -9.851570E-10 -1.698947E-09
       324  18 -1.112646E+04 -5.659209E+05 -3.742879E+04  6.102625E+04 -2.584167E-10  4.042913E-10
       324  19 -4.131203E+04 -6.837088E+05 -6.786804E+04  6.138193E+04  7.447737E+03  1.356581E+04
       324  20 -1.427220E+04 -5.953419E+05 -4.072187E+04  4.142523E+04  3.148757E+03 -5.903796E+02
       324  21  2.233565E+03 -5.112947E+05 -2.539778E+04  5.543617E+04 -1.287057E+03 -1.474841E+04
       324  22 -5.933517E+03 -5.386120E+05 -3.623422E+04  5.822879E+04  7.440692E+03  1.764888E+04
       324  23  6.518603E+01 -5.364584E+05 -2.795861E+04  4.124610E+04  3.141688E+03  3.622043E+03
       324  24 -4.446437E+03 -5.386082E+05 -3.141326E+04  5.823127E+04 -1.294253E+03 -1.040473E+04
       324  25  2.944364E+04 -3.934954E+05 -4.601598E+03  5.507490E+04  7.433606E+03  2.173289E+04
       324  26  1.440235E+04 -4.775715E+05 -1.519548E+04  4.106696E+04  3.134617E+03  7.834861E+03
       324  27 -1.112645E+04 -5.659209E+05 -3.742872E+04  6.102625E+04 -1.301410E+03 -6.061239E+03
       325   1  2.709348E+04 -4.469882E+05 -1.411446E+04  7.056585E+04  4.861411E+03  2.215568E+04
       325   2  4.317694E+04 -3.493258E+05 -1.147742E+04  2.524925E+04  7.643131E+03  4.223872E+04
       325   3 -2.312037E+04 -2.747021E+05 -4.247763E+04  1.345384E+04  2.741983E+03  6.231071E+04
       325   4  3.726874E+03 -5.430577E+05 -3.507404E+04  5.817615E+04  4.871579E+03  1.576484E+04
       325   5 -1.345141E+03 -5.309059E+05 -5.208660E+04  4.133117E+04  7.642695E+03  4.321160E+04
       325   6 -9.009361E+04 -5.430904E+05 -1.078613E+05  5.801065E+04  2.731773E+03  7.064420E+04
       325   7 -1.963974E+04 -6.391180E+05 -5.603394E+04  4.578838E+04  4.882002E+03  9.374984E+03
       325   8 -4.586850E+04 -7.124547E+05 -9.269772E+04  5.740834E+04  7.642310E+03  4.418419E+04
       325   9 -1.570647E+05 -8.114085E+05 -1.732489E+05  1.025482E+05  2.722759E+03  7.897410E+04
       325  10  2.709332E+04 -4.469888E+05 -1.411543E+04  7.056577E+04  1.948538E-09 -1.826601E-09
       325  11  4.317639E+04 -3.493278E+05 -1.148089E+04  2.524899E+04  4.347905E-10  3.388517E-09
       325  12 -2.312142E+04 -2.747063E+05 -4.248494E+04  1.345370E+04 -4.115673E-10  9.639825E-10
       325  13  3.726782E+03 -5.430580E+05 -3.507456E+04  5.817608E+04  1.094756E-09  3.820276E-09
       325  14 -1.345705E+03 -5.309079E+05 -5.209022E+04  4.133090E+04  1.203329E-10 -2.822831E-09
       325  15 -9.009496E+04 -5.430957E+05 -1.078707E+05  5.801050E+04  4.586872E-10 -6.492758E-10
       325  16 -1.963979E+04 -6.391182E+05 -5.603415E+04  4.578835E+04  1.024807E-10  3.521284E-09
       325  17 -4.586909E+04 -7.124568E+05 -9.270150E+04  5.740807E+04  8.947237E-10 -2.411515E-09
       325  18 -1.570664E+05 -8.114152E+05 -1.732607E+05  1.025480E+05 -1.236051E-10 -5.759376E-10
       325  19  2.709348E+04 -4.469882E+05 -1.411446E+04  7.056585E+04 -4.861411E+03 -2.215568E+04
       325  20  4.317694E+04 -3.493258E+05 -1.147742E+04  2.524925E+04 -7.643131E+03 -4.223872E+04
       325  21 -2.312037E+04 -2.747021E+05 -4.247763E+04  1.345384E+04 -2.741983E+03 -6.231071E+04
       325  22  3.726874E+03 -5.430577E+05 -3.507404E+04  5.817615E+04 -4.871579E+03 -1.576484E+04
       325  23 -1.345141E+03 -5.309059E+05 -5.208660E+04  4.133117E+04 -7.642695E+03 -4.321160E+04
       325  24 -9.009361E+04 -5.430904E+05 -1.078613E+05  5.801065E+04 -2.731773E+03 -7.064420E+04
       325  25 -1.963974E+04 -6.391180E+05 -5.603394E+04  4.578838E+04 -4.882002E+03 -9.374984E+03
       325  26 -4.586850E+04 -7.124547E+05 -9.269772E+04  5.740834E+04 -7.642310E+03 -4.418419E+04
       325  27 -1.570647E+05 -8.114085E+05 -1.732489E+05  1.025482E+05 -2.722759E+03 -7.897410E+04
       326   1  2.225458E+05  1.727865E+05  4.640595E+04  1.593081E+05  2.778150E+04  2.135097E+04
       326   2  2.177067E+05  1.312693E+05  1.903456E+04  1.744119E+05  1.764628E+04  1.463440E+04
       326   3  2.359071E+05  1.191212E+05  9.728060E+03  1.753802E+05  7.915602E+03  7.380324E+03
       326   4  2.619274E+05  1.653794E+05  5.259495E+04  1.626058E+05  2.860384E+04  2.196880E+04
       326   5  2.420146E+05  1.359378E+05  2.418396E+04  1.807490E+05  1.795123E+04  1.486371E+04
       326   6  2.452526E+05  1.359765E+05  1.428644E+04  1.847570E+05  7.703522E+03  7.220726E+03
       326   7  3.013118E+05  1.579732E+05  5.878422E+04  1.659033E+05  2.942627E+04  2.258661E+04
       326   8  2.663235E+05  1.406065E+05  2.933340E+04  1.870864E+05  1.825620E+04  1.509303E+04
       326   9  2.545984E+05  1.528324E+05  1.884485E+04  1.941341E+05  7.491436E+03  7.061117E+03
       326  10  2.225449E+05  1.727858E+05  4.640365E+04  1.593076E+05 -7.058668E-10 -1.995979E-09
       326  11  2.177063E+05  1.312690E+05  1.903357E+04  1.744117E+05 -9.108274E-10 -3.502970E-10
       326  12  2.359070E+05  1.191211E+05  9.727840E+03  1.753802E+05 -2.633178E-09 -5.363015E-09
       326  13  2.619264E+05  1.653787E+05  5.259251E+04  1.626053E+05  1.747498E-10  5.601668E-09
       326  14  2.420142E+05  1.359375E+05  2.418294E+04  1.807488E+05  4.496622E-10 -5.320103E-09
       326  15  2.452526E+05  1.359764E+05  1.428623E+04  1.847570E+05 -2.968480E-12  1.566200E-09
       326  16  3.013107E+05  1.579724E+05  5.878163E+04  1.659028E+05  9.442146E-11  9.212784E-10
       326  17  2.663231E+05  1.406061E+05  2.933235E+04  1.870861E+05  1.002996E-09  3.645236E-09
       326  18  2.545983E+05  1.528323E+05  1.884465E+04  1.941341E+05  1.261788E-09  3.015830E-09
       326  19  2.225458E+05  1.727865E+05  4.640595E+04  1.593081E+05 -2.778150E+04 -2.135097E+04
       326  20  2.177067E+05  1.312693E+05  1.903456E+04  1.744119E+05 -1.764628E+04 -1.463440E+04
       326  21  2.359071E+05  1.191212E+05  9.728060E+03  1.753802E+05 -7.915602E+03 -7.380324E+03
       326  22  2.619274E+05  1.653794E+05  5.259495E+04  1.626058E+05 -2.860384E+04 -2.196880E+04
       326  23  2.420146E+05  1.359378E+05  2.418396E+04  1.807490E+05 -1.795123E+04 -1.486371E+04
       326  24  2.452526E+05  1.359765E+05  1.428644E+04  1.847570E+05 -7.703522E+03 -7.220726E+03
       326  25  3.013118E+05  1.579732E+05  5.878422E+04  1.659033E+05 -2.942627E+04 -2.258661E+04
       326  26  2.663235E+05  1.406065E+05  2.933340E+04  1.870864E+05 -1.825620E+04 -1.509303E+04
       326  27  2.545984E+05  1.528324E+05  1.884485E+04  1.941341E+05 -7.491436E+03 -7.061117E+03
       327   1  2.305213E+05  1.286316E+05  7.276740E+03  1.747470E+05  6.221814E+03  5.941716E+03
       327   2  2.311555E+05  1.280129E+05  2.973271E+03  1.763926E+05  3.639035E+03  3.880535E+03
       327   3  2.340717E+05  1.283111E+05  1.373151E+03  1.772015E+05  1.074517E+03  1.795192E+03
       327   4  2.452694E+05  1.378343E+05  1.146340E+04  1.815323E+05  6.162511E+03  5.897036E+03
       327   5  2.436958E+05  1.366148E+05  6.653954E+03  1.825223E+05  3.556410E+03  3.818304E+03
       327   6  2.444092E+05  1.363172E+05  4.568082E+03  1.826756E+05  9.685716E+02  1.715402E+03
       327   7  2.600175E+05  1.470369E+05  1.564999E+04  1.883178E+05  6.103207E+03  5.852355E+03
       327   8  2.562362E+05  1.452167E+05  1.033460E+04  1.886521E+05  3.473784E+03  3.756071E+03
       327   9  2.547469E+05  1.443234E+05  7.762999E+03  1.881497E+05  8.626239E+02  1.635611E+03
       327  10  2.305212E+05  1.286316E+05  7.276601E+03  1.747470E+05 -1.242560E-09  5.296870E-10
       327  11  2.311555E+05  1.280129E+05  2.973218E+03  1.763926E+05 -2.107573E-09  2.597421E-09
       327  12  2.340717E+05  1.283111E+05  1.373143E+03  1.772015E+05 -5.470459E-10 -2.394603E-09
       327  13  2.452693E+05  1.378342E+05  1.146327E+04  1.815323E+05  3.562908E-11 -2.575175E-09
       327  14  2.436958E+05  1.366148E+05  6.653903E+03  1.825223E+05  1.796969E-10  1.615941E-09
       327  15  2.444092E+05  1.363172E+05  4.568075E+03  1.826756E+05  1.253790E-09  1.494349E-09
       327  16  2.600175E+05  1.470369E+05  1.564986E+04  1.883177E+05 -3.178946E-10  1.083475E-09
       327  17  2.562361E+05  1.452167E+05  1.033455E+04  1.886520E+05  1.110863E-09 -9.070150E-09
       327  18  2.547469E+05  1.443234E+05  7.762992E+03  1.881497E+05  6.954920E-10  2.826649E-09
       327  19  2.305213E+05  1.286316E+05  7.276740E+03  1.747470E+05 -6.221814E+03 -5.941716E+03
       327  20  2.311555E+05  1.280129E+05  2.973271E+03  1.763926E+05 -3.639035E+03 -3.880535E+03
       327  21  2.340717E+05  1.283111E+05  1.373151E+03  1.772015E+05 -1.074517E+03 -1.795192E+03
       327  22  2.452694E+05  1.378343E+05  1.146340E+04  1.815323E+05 -6.162511E+03 -5.897036E+03
       327  23  2.436958E+05  1.366148E+05  6.653954E+03  1.825223E+05 -3.556410E+03 -3.818304E+03
       327  24  2.444092E+05  1.363172E+05  4.568082E+03  1.826756E+05 -9.685716E+02 -1.715402E+03
       327  25  2.600175E+05  1.470369E+05  1.564999E+04  1.883178E+05 -6.103207E+03 -5.852355E+03
       327  26  2.562362E+05  1.452167E+05  1.033460E+04  1.886521E+05 -3.473784E+03 -3.756071E+03
       327  27  2.547469E+05  1.443234E+05  7.762999E+03  1.881497E+05 -8.626239E+02 -1.635611E+03
       328   1  2.349480E+05  1.297175E+05  1.301065E+03  1.777980E+05  5.004897E+02  1.263991E+03
       328   2  2.359922E+05  1.311673E+05  1.695838E+03  1.787205E+05 -1.009551E+03 -3.546998E+01
       328   3  2.382239E+05  1.320971E+05  3.466070E+03  1.794047E+05 -2.519015E+03 -1.335747E+03
       328   4  2.443913E+05  1.363960E+05  4.099153E+03  1.825079E+05  4.014780E+02  1.189422E+03
       328   5  2.438099E+05  1.366778E+05  4.013171E+03  1.826105E+05 -1.109364E+03 -1.106416E+02
       328   6  2.444162E+05  1.364399E+05  5.303318E+03  1.824748E+05 -2.619608E+03 -1.411505E+03
       328   7  2.538347E+05  1.430745E+05  6.897264E+03  1.872178E+05  3.024632E+02  1.114851E+03
       328   8  2.516277E+05  1.421884E+05  6.330498E+03  1.865005E+05 -1.209179E+03 -1.858144E+02
       328   9  2.506084E+05  1.407827E+05  7.140541E+03  1.855448E+05 -2.720201E+03 -1.487263E+03
       328  10  2.349480E+05  1.297175E+05  1.301061E+03  1.777980E+05 -2.402379E-10 -8.024333E-09
       328  11  2.359922E+05  1.311673E+05  1.695836E+03  1.787205E+05  4.863864E-10 -4.576701E-09
       328  12  2.382239E+05  1.320971E+05  3.466054E+03  1.794047E+05  3.107382E-09 -4.228213E-09
       328  13  2.443913E+05  1.363960E+05  4.099150E+03  1.825079E+05  1.475181E-10 -2.182475E-09
       328  14  2.438099E+05  1.366778E+05  4.013169E+03  1.826105E+05  3.383942E-10 -6.595587E-10
       328  15  2.444162E+05  1.364399E+05  5.303302E+03  1.824747E+05 -4.193452E-10 -2.691094E-09
       328  16  2.538347E+05  1.430745E+05  6.897261E+03  1.872178E+05 -6.472490E-11  5.138868E-09
       328  17  2.516277E+05  1.421884E+05  6.330495E+03  1.865005E+05 -1.606934E-09 -8.327295E-10
       328  18  2.506084E+05  1.407826E+05  7.140523E+03  1.855448E+05 -4.145643E-09 -3.032806E-09
       328  19  2.349480E+05  1.297175E+05  1.301065E+03  1.777980E+05 -5.004897E+02 -1.263991E+03
       328  20  2.359922E+05  1.311673E+05  1.695838E+03  1.787205E+05  1.009551E+03  3.546998E+01
       328  21  2.382239E+05  1.320971E+05  3.466070E+03  1.794047E+05  2.519015E+03  1.335747E+03
       328  22  2.443913E+05  1.363960E+05  4.099153E+03  1.825079E+05 -4.014780E+02 -1.189422E+03
       328  23  2.438099E+05  1.366778E+05  4.013171E+03  1.826105E+05  1.109364E+03  1.106416E+02
       328  24  2.444162E+05  1.364399E+05  5.303318E+03  1.824748E+05  2.619608E+03  1.411505E+03
       328  25  2.538347E+05  1.430745E+05  6.897264E+03  1.872178E+05 -3.024632E+02 -1.114851E+03
       328  26  2.516277E+05  1.421884E+05  6.330498E+03  1.865005E+05  1.209179E+03  1.858144E+02
       328  27  2.506084E+05  1.407827E+05  7.140541E+03  1.855448E+05  2.720201E+03  1.487263E+03
       329   1  2.389316E+05  1.335273E+05  5.020029E+03  1.805411E+05 -3.302763E+03 -2.022282E+03
       329   2  2.406353E+05  1.339439E+05  9.490341E+03  1.807496E+05 -7.413600E+03 -5.280172E+03
       329   3  2.455500E+05  1.364496E+05  1.829666E+04  1.797104E+05 -1.152792E+04 -8.533583E+03
       329   4  2.444650E+05  1.363131E+05  6.460434E+03  1.827824E+05 -3.404256E+03 -2.098711E+03
       329   5  2.435778E+05  1.365353E+05  1.045150E+04  1.824521E+05 -7.510753E+03 -5.353344E+03
       329   6  2.459006E+05  1.388455E+05  1.877478E+04  1.808741E+05 -1.162073E+04 -8.603515E+03
       329   7  2.499985E+05  1.390990E+05  7.900837E+03  1.850237E+05 -3.505749E+03 -2.175141E+03
       329   8  2.465203E+05  1.391267E+05  1.141266E+04  1.841546E+05 -7.607907E+03 -5.426516E+03
       329   9  2.462512E+05  1.412414E+05  1.925290E+04  1.820378E+05 -1.171354E+04 -8.673450E+03
       329  10  2.389316E+05  1.335273E+05  5.020001E+03  1.805411E+05  1.680595E-08  1.229093E-08
       329  11  2.406352E+05  1.339439E+05  9.490185E+03  1.807496E+05 -2.368600E-09  2.400572E-10
       329  12  2.455499E+05  1.364495E+05  1.829627E+04  1.797103E+05 -1.578247E-08 -2.353013E-08
       329  13  2.444650E+05  1.363131E+05  6.460404E+03  1.827824E+05 -2.046806E-09 -3.355667E-09
       329  14  2.435777E+05  1.365352E+05  1.045134E+04  1.824521E+05 -4.843387E-09 -7.309279E-09
       329  15  2.459005E+05  1.388453E+05  1.877438E+04  1.808740E+05  1.939040E-10 -2.351634E-09
       329  16  2.499985E+05  1.390990E+05  7.900805E+03  1.850237E+05 -2.138698E-08 -1.058910E-08
       329  17  2.465203E+05  1.391266E+05  1.141250E+04  1.841545E+05 -5.480416E-09  2.472651E-11
       329  18  2.462511E+05  1.412413E+05  1.925250E+04  1.820377E+05  1.650946E-08  1.524604E-08
       329  19  2.389316E+05  1.335273E+05  5.020029E+03  1.805411E+05  3.302763E+03  2.022282E+03
       329  20  2.406353E+05  1.339439E+05  9.490341E+03  1.807496E+05  7.413600E+03  5.280172E+03
       329  21  2.455500E+05  1.364496E+05  1.829666E+04  1.797104E+05  1.152792E+04  8.533583E+03
       329  22  2.444650E+05  1.363131E+05  6.460434E+03  1.827824E+05  3.404256E+03  2.098711E+03
       329  23  2.435778E+05  1.365353E+05  1.045150E+04  1.824521E+05  7.510753E+03  5.353344E+03
       329  24  2.459006E+05  1.388455E+05  1.877478E+04  1.808741E+05  1.162073E+04  8.603515E+03
       329  25  2.499985E+05  1.390990E+05  7.900837E+03  1.850237E+05  3.505749E+03  2.175141E+03
       329  26  2.465203E+05  1.391267E+05  1.141266E+04  1.841546E+05  7.607907E+03  5.426516E+03
       329  27  2.462512E+05  1.412414E+05  1.925290E+04  1.820378E+05  1.171354E+04  8.673450E+03
       330   1  2.356195E+05  1.454812E+05  2.350201E+04  1.889679E+05 -1.410560E+04 -1.058324E+04
       330   2  2.543940E+05  1.240161E+05  4.066986E+04  1.766063E+05 -3.114728E+04 -2.353507E+04
       330   3  3.113012E+05  1.523350E+05  8.879480E+04  1.407937E+05 -4.826532E+04 -3.638491E+04
       330   4  2.458866E+05  1.357387E+05  2.358767E+04  1.862601E+05 -1.422699E+04 -1.067430E+04
       330   5  2.407511E+05  1.354057E+05  4.025731E+04  1.794932E+05 -3.117145E+04 -2.355428E+04
       330   6  2.737257E+05  1.848342E+05  8.779988E+04  1.492759E+05 -4.819132E+04 -3.633357E+04
       330   7  2.561539E+05  1.259966E+05  2.367340E+04  1.835523E+05 -1.434838E+04 -1.076534E+04
       330   8  2.271087E+05  1.467958E+05  3.984484E+04  1.823800E+05 -3.119561E+04 -2.357349E+04
       330   9  2.361539E+05  2.173374E+05  8.680565E+04  1.577571E+05 -4.811733E+04 -3.628223E+04
       330  10  2.356193E+05  1.454810E+05  2.350142E+04  1.889677E+05 -4.301278E-09 -8.805564E-09
       330  11  2.543928E+05  1.240152E+05  4.066700E+04  1.766057E+05 -2.133609E-09 -4.593519E-09
       330  12  3.112984E+05  1.523329E+05  8.878794E+04  1.407923E+05  1.638758E-09  5.347297E-11
       330  13  2.458864E+05  1.357385E+05  2.358708E+04  1.862600E+05  3.488989E-09  7.987666E-10
       330  14  2.407499E+05  1.354049E+05  4.025444E+04  1.794926E+05  1.687456E-09  3.561211E-09
       330  15  2.737228E+05  1.848322E+05  8.779304E+04  1.492745E+05 -4.473706E-11  4.347501E-09
       330  16  2.561536E+05  1.259964E+05  2.367280E+04  1.835522E+05  9.189270E-09  6.553971E-09
       330  17  2.271075E+05  1.467950E+05  3.984197E+04  1.823795E+05  8.025165E-10 -3.068886E-09
       330  18  2.361511E+05  2.173353E+05  8.679883E+04  1.577557E+05 -1.561765E-09 -1.068788E-09
       330  19  2.356195E+05  1.454812E+05  2.350201E+04  1.889679E+05  1.410560E+04  1.058324E+04
       330  20  2.543940E+05  1.240161E+05  4.066986E+04  1.766063E+05  3.114728E+04  2.353507E+04
       330  21  3.113012E+05  1.523350E+05  8.879480E+04  1.407937E+05  4.826532E+04  3.638491E+04
       330  22  2.458866E+05  1.357387E+05  2.358767E+04  1.862601E+05  1.422699E+04  1.067430E+04
       330  23  2.407511E+05  1.354057E+05  4.025731E+04  1.794932E+05  3.117145E+04  2.355428E+04
       330  24  2.737257E+05  1.848342E+05  8.779988E+04  1.492759E+05  4.819132E+04  3.633357E+04
       330  25  2.561539E+05  1.259966E+05  2.367340E+04  1.835523E+05  1.434838E+04  1.076534E+04
       330  26  2.271087E+05  1.467958E+05  3.984484E+04  1.823800E+05  3.119561E+04  2.357349E+04
       330  27  2.361539E+05  2.173374E+05  8.680565E+04  1.577571E+05  4.811733E+04  3.628223E+04
       331   1  9.738958E+04  2.640777E+04  2.689116E+04  1.499065E+04  7.099311E+03 -9.881314E+02
       331   2  7.798897E+04  1.630037E+04  1.775758E+04  9.733529E+03  3.253356E+03 -2.929215E+03
       331   3  6.037259E+04  1.146730E+04  1.244156E+04  1.165147E+04 -5.972942E+02 -2.525595E+03
       331   4  1.245382E+04  5.286875E+03  6.282728E+03  1.228375E+04  4.117451E+03 -9.943904E+02
       331   5  1.175767E+04  1.052870E+02  3.034669E+03  8.701978E+03  2.522923E+03 -2.930780E+03
       331   6  1.245456E+04 -1.925355E+02  2.040998E+03  1.229523E+04  9.235444E+02 -2.522374E+03
       331   7 -7.247531E+04 -1.583452E+04 -1.432618E+04  9.577225E+03  1.135998E+03 -1.000624E+03
       331   8 -5.446953E+04 -1.609009E+04 -1.168851E+04  7.670536E+03  1.792567E+03 -2.932342E+03
       331   9 -3.546132E+04 -1.185252E+04 -8.359693E+03  1.293894E+04  2.444267E+03 -2.519149E+03
       331  10  9.738952E+04  2.640776E+04  2.689106E+04  1.499065E+04  7.483364E-10  8.010677E-10
       331  11  7.798895E+04  1.630035E+04  1.775754E+04  9.733536E+03 -6.700043E-11 -2.299520E-09
       331  12  6.037259E+04  1.146729E+04  1.244155E+04  1.165147E+04 -1.317330E-09 -5.230476E-10
       331  13  1.245381E+04  5.286870E+03  6.282694E+03  1.228376E+04  2.131053E-11  4.238759E-09
       331  14  1.175766E+04  1.052760E+02  3.034641E+03  8.701984E+03 -5.839681E-10 -2.413441E-09
       331  15  1.245455E+04 -1.925425E+02  2.040984E+03  1.229523E+04 -4.954877E-11 -1.656414E-09
       331  16 -7.247531E+04 -1.583452E+04 -1.432619E+04  9.577226E+03 -1.035606E-09  3.613945E-10
       331  17 -5.446953E+04 -1.609010E+04 -1.168854E+04  7.670540E+03 -4.770296E-10 -6.071547E-09
       331  18 -3.546133E+04 -1.185253E+04 -8.359716E+03  1.293894E+04  8.060386E-10 -5.966962E-09
       331  19  9.738958E+04  2.640777E+04  2.689116E+04  1.499065E+04 -7.099311E+03  9.881314E+02
       331  20  7.798897E+04  1.630037E+04  1.775758E+04  9.733529E+03 -3.253356E+03  2.929215E+03
       331  21  6.037259E+04  1.146730E+04  1.244156E+04  1.165147E+04  5.972942E+02  2.525595E+03
       331  22  1.245382E+04  5.286875E+03  6.282728E+03  1.228375E+04 -4.117451E+03  9.943904E+02
       331  23  1.175767E+04  1.052870E+02  3.034669E+03  8.701978E+03 -2.522923E+03  2.930780E+03
       331  24  1.245456E+04 -1.925355E+02  2.040998E+03  1.229523E+04 -9.235444E+02  2.522374E+03
       331  25 -7.247531E+04 -1.583452E+04 -1.432618E+04  9.577225E+03 -1.135998E+03  1.000624E+03
       331  26 -5.446953E+04 -1.609009E+04 -1.168851E+04  7.670536E+03 -1.792567E+03  2.932342E+03
       331  27 -3.546132E+04 -1.185252E+04 -8.359693E+03  1.293894E+04 -2.444267E+03  2.519149E+03
       332   1  4.535086E+04  8.391809E+03  9.055704E+03  1.249399E+04 -2.495056E+02 -1.709021E+03
       332   2  2.677089E+04  3.590413E+03  4.822128E+03  8.749680E+03 -1.161361E+03 -7.678628E+02
       332   3  8.367387E+03 -8.252438E+02  1.269528E+03  1.229312E+04 -2.073433E+03  2.736924E+02
       332   4  1.218074E+04  3.123196E+02  1.831105E+03  1.231712E+04  6.076965E+02 -1.707197E+03
       332   5  1.210098E+04  1.834608E+01  1.633026E+03  8.673475E+03 -2.077518E+02 -7.658257E+02
       332   6  1.218091E+04  9.347171E+01  2.049076E+03  1.231758E+04 -1.023443E+03  2.759444E+02
       332   7 -2.098834E+04 -7.767242E+03 -5.393557E+03  1.214026E+04  1.464853E+03 -1.705373E+03
       332   8 -2.568731E+03 -3.553735E+03 -1.556085E+03  8.597271E+03  7.458348E+02 -7.637890E+02
       332   9  1.599444E+04  1.012187E+03  2.828627E+03  1.234205E+04  2.655457E+01  2.781965E+02
       332  10  4.535086E+04  8.391806E+03  9.055699E+03  1.249399E+04 -7.704674E-09 -1.189523E-09
       332  11  2.677089E+04  3.590412E+03  4.822124E+03  8.749680E+03  4.861933E-09 -6.452244E-09
       332  12  8.367383E+03 -8.252450E+02  1.269520E+03  1.229312E+04  1.521271E-08  7.264598E-10
       332  13  1.218074E+04  3.123164E+02  1.831099E+03  1.231712E+04 -1.552786E-11 -1.714923E-09
       332  14  1.210098E+04  1.834544E+01  1.633025E+03  8.673475E+03 -5.207097E-10  3.512450E-10
       332  15  1.218090E+04  9.347135E+01  2.049074E+03  1.231758E+04 -1.147430E-10  2.802798E-09
       332  16 -2.098835E+04 -7.767246E+03 -5.393567E+03  1.214026E+04  7.424591E-09  3.424831E-09
       332  17 -2.568732E+03 -3.553736E+03 -1.556087E+03  8.597272E+03 -5.515945E-09 -3.977248E-09
       332  18  1.599444E+04  1.012187E+03  2.828627E+03  1.234205E+04 -1.577622E-08  2.622132E-09
       332  19  4.535086E+04  8.391809E+03  9.055704E+03  1.249399E+04  2.495056E+02  1.709021E+03
       332  20  2.677089E+04  3.590413E+03  4.822128E+03  8.749680E+03  1.161361E+03  7.678628E+02
       332  21  8.367387E+03 -8.252438E+02  1.269528E+03  1.229312E+04  2.073433E+03 -2.736924E+02
       332  22  1.218074E+04  3.123196E+02  1.831105E+03  1.231712E+04 -6.076965E+02  1.707197E+03
       332  23  1.210098E+04  1.834608E+01  1.633026E+03  8.673475E+03  2.077518E+02  7.658257E+02
       332  24  1.218091E+04  9.347171E+01  2.049076E+03  1.231758E+04  1.023443E+03 -2.759444E+02
       332  25 -2.098834E+04 -7.767242E+03 -5.393557E+03  1.214026E+04 -1.464853E+03  1.705373E+03
       332  26 -2.568731E+03 -3.553735E+03 -1.556085E+03  8.597271E+03 -7.458348E+02  7.637890E+02
       332  27  1.599444E+04  1.012187E+03  2.828627E+03  1.234205E+04 -2.655457E+01 -2.781965E+02
       333   1 -6.233005E+03 -4.525813E+03 -1.587593E+03  1.255120E+04 -2.479327E+03  9.212272E+02
       333   2 -2.499774E+04 -8.995254E+03 -4.112537E+03  8.503216E+03 -4.316718E+03  1.955033E+03
       333   3 -4.321368E+04 -1.207508E+04 -5.102834E+03  1.174056E+04 -6.153747E+03  2.861503E+03
       333   4  1.227193E+04 -1.673717E+01  2.459265E+03  1.231776E+04 -1.422057E+03  9.234919E+02
       333   5  1.198691E+04  6.211017E+00  3.906191E+03  8.673565E+03 -3.381810E+03  1.957013E+03
       333   6  1.227152E+04  1.439969E+03  6.972651E+03  1.231466E+04 -5.341254E+03  2.863201E+03
       333   7  3.077719E+04  4.492316E+03  6.506107E+03  1.208431E+04 -3.647557E+02  9.257558E+02
       333   8  4.897284E+04  9.007586E+03  1.192484E+04  8.843924E+03 -2.446847E+03  1.958994E+03
       333   9  6.775961E+04  1.495482E+04  1.904795E+04  1.288881E+04 -4.528690E+03  2.864901E+03
       333  10 -6.233012E+03 -4.525815E+03 -1.587606E+03  1.255120E+04 -1.002694E-08 -3.679607E-10
       333  11 -2.499776E+04 -8.995263E+03 -4.112580E+03  8.503223E+03 -8.305152E-09 -7.355787E-10
       333  12 -4.321372E+04 -1.207510E+04 -5.102921E+03  1.174057E+04 -2.193061E-09 -4.343343E-09
       333  13  1.227193E+04 -1.673863E+01  2.459260E+03  1.231776E+04 -1.142251E-10 -7.070768E-09
       333  14  1.198690E+04  6.203834E+00  3.906162E+03  8.673571E+03 -6.572038E-10  4.725742E-09
       333  15  1.227149E+04  1.439953E+03  6.972582E+03  1.231467E+04  1.746543E-11  1.485697E-09
       333  16  3.077718E+04  4.492316E+03  6.506105E+03  1.208431E+04  9.690579E-09 -2.612669E-09
       333  17  4.897283E+04  9.007580E+03  1.192482E+04  8.843928E+03  7.471541E-09 -6.212074E-09
       333  18  6.775958E+04  1.495480E+04  1.904790E+04  1.288882E+04  1.696130E-09  3.226259E-09
       333  19 -6.233005E+03 -4.525813E+03 -1.587593E+03  1.255120E+04  2.479327E+03 -9.212272E+02
       333  20 -2.499774E+04 -8.995254E+03 -4.112537E+03  8.503216E+03  4.316718E+03 -1.955033E+03
       333  21 -4.321368E+04 -1.207508E+04 -5.102834E+03  1.174056E+04  6.153747E+03 -2.861503E+03
       333  22  1.227193E+04 -1.673717E+01  2.459265E+03  1.231776E+04  1.422057E+03 -9.234919E+02
       333  23  1.198691E+04  6.211017E+00  3.906191E+03  8.673565E+03  3.381810E+03 -1.957013E+03
       333  24  1.227152E+04  1.439969E+03  6.972651E+03  1.231466E+04  5.341254E+03 -2.863201E+03
       333  25  3.077719E+04  4.492316E+03  6.506107E+03  1.208431E+04  3.647557E+02 -9.257558E+02
       333  26  4.897284E+04  9.007586E+03  1.192484E+04  8.843924E+03  2.446847E+03 -1.958994E+03
       333  27  6.775961E+04  1.495482E+04  1.904795E+04  1.288881E+04  4.528690E+03 -2.864901E+03
       334   1 -5.649235E+04 -1.829191E+04 -6.477196E+03  1.601969E+04 -8.215334E+03  3.717893E+03
       334   2 -7.838662E+04 -2.124260E+04 -4.726067E+03  3.817376E+03 -1.330374E+04  3.957436E+03
       334   3 -9.345935E+04  5.740105E+02  6.523194E+03 -1.264045E+03 -1.838591E+04  1.284715E+03
       334   4  1.376789E+04 -1.213185E+03  8.749737E+03  1.229451E+04 -6.578036E+03  3.721363E+03
       334   5  1.011487E+04  4.105335E+02  1.491450E+04  8.704792E+03 -1.446303E+04  3.954885E+03
       334   6  1.376697E+04  2.728478E+04  3.251837E+04  1.223560E+04 -2.234195E+04  1.276189E+03
       334   7  8.403280E+04  1.586527E+04  2.397639E+04  8.568901E+03 -4.940556E+03  3.724814E+03
       334   8  9.862373E+04  2.206322E+04  3.455460E+04  1.359291E+04 -1.562249E+04  3.952316E+03
       334   9  1.210042E+05  5.399539E+04  5.851288E+04  2.573758E+04 -2.629867E+04  1.267491E+03
       334  10 -5.649242E+04 -1.829194E+04 -6.477349E+03  1.601971E+04 -9.599956E-10 -2.888877E-09
       334  11 -7.838681E+04 -2.124266E+04 -4.726429E+03  3.817418E+03  2.474391E-09  5.345581E-10
       334  12 -9.345971E+04  5.739179E+02  6.522556E+03 -1.264026E+03  4.419690E-09  6.520341E-09
       334  13  1.376784E+04 -1.213211E+03  8.749630E+03  1.229453E+04  9.549229E-11  1.426085E-09
       334  14  1.011464E+04  4.104606E+02  1.491408E+04  8.704838E+03 -5.197842E-10  7.000615E-09
       334  15  1.376644E+04  2.728464E+04  3.251743E+04  1.223563E+04 -9.626648E-11  4.706191E-09
       334  16  8.403277E+04  1.586525E+04  2.397632E+04  8.568916E+03  7.428165E-10  2.970454E-09
       334  17  9.862346E+04  2.206314E+04  3.455411E+04  1.359296E+04 -3.042425E-09  1.381392E-09
       334  18  1.210035E+05  5.399520E+04  5.851157E+04  2.573761E+04 -5.000270E-09 -4.273248E-10
       334  19 -5.649235E+04 -1.829191E+04 -6.477196E+03  1.601969E+04  8.215334E+03 -3.717893E+03
       334  20 -7.838662E+04 -2.124260E+04 -4.726067E+03  3.817376E+03  1.330374E+04 -3.957436E+03
       334  21 -9.345935E+04  5.740105E+02  6.523194E+03 -1.264045E+03  1.838591E+04 -1.284715E+03
       334  22  1.376789E+04 -1.213185E+03  8.749737E+03  1.229451E+04  6.578036E+03 -3.721363E+03
       334  23  1.011487E+04  4.105335E+02  1.491450E+04  8.704792E+03  1.446303E+04 -3.954885E+03
       334  24  1.376697E+04  2.728478E+04  3.251837E+04  1.223560E+04  2.234195E+04 -1.276189E+03
       334  25  8.403280E+04  1.586527E+04  2.397639E+04  8.568901E+03  4.940556E+03 -3.724814E+03
       334  26  9.862373E+04  2.206322E+04  3.455460E+04  1.359291E+04  1.562249E+04 -3.952316E+03
       334  27  1.210042E+05  5.399539E+04  5.851288E+04  2.573758E+04  2.629867E+04 -1.267491E+03
       335   1 -1.261465E+05 -6.342144E+05 -1.370857E+05  7.070575E+04 -2.788265E+03 -5.946967E+04
       335   2 -4.766588E+04 -5.672657E+05 -7.888792E+04  3.934013E+04 -8.354535E+03 -3.363754E+04
       335   3 -2.978038E+04 -5.187128E+05 -5.265226E+04  3.034851E+04 -7.011200E+03 -7.788692E+03
       335   4 -6.407248E+04 -3.852377E+05 -7.658716E+04  3.895718E+04 -2.802140E+03 -5.087433E+04
       335   5 -9.733369E+02 -3.766072E+05 -3.644750E+04  2.783418E+04 -8.357531E+03 -3.166451E+04
       335   6  2.690583E+03 -3.852192E+05 -2.366071E+04  3.908736E+04 -7.002584E+03 -1.244067E+04
       335   7 -1.999237E+03 -1.362021E+05 -1.609228E+04  7.195847E+03 -2.816891E+03 -4.227555E+04
       335   8  4.571723E+04 -1.859146E+05  5.990729E+03  1.632467E+04 -8.360599E+03 -2.969088E+04
       335   9  3.516067E+04 -2.517086E+05  5.329910E+03  4.782812E+04 -6.994101E+03 -1.709363E+04
       335  10 -1.261475E+05 -6.342182E+05 -1.370924E+05  7.070562E+04 -7.787104E-10 -2.338557E-09
       335  11 -4.766625E+04 -5.672669E+05 -7.889018E+04  3.933991E+04 -2.512580E-09  9.389802E-09
       335  12 -2.978045E+04 -5.187129E+05 -5.265247E+04  3.034847E+04  3.285869E-10 -2.509562E-09
       335  13 -6.407319E+04 -3.852405E+05 -7.659205E+04  3.895706E+04 -3.416140E-10  3.330571E-09
       335  14 -9.736813E+02 -3.766083E+05 -3.644952E+04  2.783397E+04 -1.915373E-09 -2.170714E-09
       335  15  2.690488E+03 -3.852194E+05 -2.366109E+04  3.908729E+04  1.481051E-09  2.814717E-09
       335  16 -1.999725E+03 -1.362040E+05 -1.609565E+04  7.195751E+03 -9.725165E-10  1.782280E-09
       335  17  4.571691E+04 -1.859156E+05  5.988941E+03  1.632447E+04 -2.340072E-11 -3.010305E-09
       335  18  3.516054E+04 -2.517089E+05  5.329269E+03  4.782802E+04  2.054547E-09 -3.168913E-09
       335  19 -1.261465E+05 -6.342144E+05 -1.370857E+05  7.070575E+04  2.788265E+03  5.946967E+04
       335  20 -4.766588E+04 -5.672657E+05 -7.888792E+04  3.934013E+04  8.354535E+03  3.363754E+04
       335  21 -2.978038E+04 -5.187128E+05 -5.265226E+04  3.034851E+04  7.011200E+03  7.788692E+03
       335  22 -6.407248E+04 -3.852377E+05 -7.658716E+04  3.895718E+04  2.802140E+03  5.087433E+04
       335  23 -9.733369E+02 -3.766072E+05 -3.644750E+04  2.783418E+04  8.357531E+03  3.166451E+04
       335  24  2.690583E+03 -3.852192E+05 -2.366071E+04  3.908736E+04  7.002584E+03  1.244067E+04
       335  25 -1.999237E+03 -1.362021E+05 -1.609228E+04  7.195847E+03  2.816891E+03  4.227555E+04
       335  26  4.571723E+04 -1.859146E+05  5.990729E+03  1.632467E+04  8.360599E+03  2.969088E+04
       335  27  3.516067E+04 -2.517086E+05  5.329910E+03  4.782812E+04  6.994101E+03  1.709363E+04
       336   1 -2.453376E+04 -4.693189E+05 -3.964939E+04  4.099477E+04 -4.477514E+03 -6.133292E+03
       336   2 -7.169908E+03 -4.102138E+05 -2.316879E+04  2.780804E+04 -1.583063E+03  2.345292E+03
       336   3  3.866346E+03 -3.536833E+05 -1.376789E+04  3.740025E+04  1.379926E+03  1.082466E+04
       336   4 -3.235749E+03 -3.819577E+05 -2.060204E+04  3.914228E+04 -4.472396E+03 -8.893120E+03
       336   5  2.113905E+01 -3.806740E+05 -1.676719E+04  2.775293E+04 -1.577884E+03 -4.797111E+02
       336   6 -3.037806E+03 -3.819566E+05 -1.996615E+04  3.914264E+04  1.385201E+03  7.933719E+03
       336   7  1.806177E+04 -2.945892E+05 -1.555119E+03  3.728952E+04 -4.467261E+03 -1.165333E+04
       336   8  7.212133E+03 -3.511334E+05 -1.036562E+04  2.769782E+04 -1.572705E+03 -3.304847E+03
       336   9 -9.941996E+03 -4.102291E+05 -2.616443E+04  4.088494E+04  1.390460E+03  5.042907E+03
       336  10 -2.453379E+04 -4.693190E+05 -3.964950E+04  4.099475E+04  2.129979E-10 -7.604876E-09
       336  11 -7.169913E+03 -4.102138E+05 -2.316880E+04  2.780804E+04 -1.022038E-09  6.380698E-09
       336  12  3.866313E+03 -3.536834E+05 -1.376811E+04  3.740024E+04 -8.020954E-10 -2.312191E-09
       336  13 -3.235792E+03 -3.819578E+05 -2.060223E+04  3.914224E+04  1.507186E-09  4.097498E-09
       336  14  2.113631E+01 -3.806740E+05 -1.676720E+04  2.775293E+04 -1.689931E-10 -1.603533E-09
       336  15 -3.037825E+03 -3.819567E+05 -1.996627E+04  3.914263E+04  6.906010E-10  4.585096E-09
       336  16  1.806171E+04 -2.945894E+05 -1.555412E+03  3.728947E+04  2.027350E-09  4.350686E-09
       336  17  7.212128E+03 -3.511334E+05 -1.036565E+04  2.769781E+04 -9.769428E-10 -3.165244E-09
       336  18 -9.942005E+03 -4.102291E+05 -2.616448E+04  4.088493E+04  1.564305E-09 -6.459739E-10
       336  19 -2.453376E+04 -4.693189E+05 -3.964939E+04  4.099477E+04  4.477514E+03  6.133292E+03
       336  20 -7.169908E+03 -4.102138E+05 -2.316879E+04  2.780804E+04  1.583063E+03 -2.345292E+03
       336  21  3.866346E+03 -3.536833E+05 -1.376789E+04  3.740025E+04 -1.379926E+03 -1.082466E+04
       336  22 -3.235749E+03 -3.819577E+05 -2.060204E+04  3.914228E+04  4.472396E+03  8.893120E+03
       336  23  2.113905E+01 -3.806740E+05 -1.676719E+04  2.775293E+04  1.577884E+03  4.797111E+02
       336  24 -3.037806E+03 -3.819566E+05 -1.996615E+04  3.914264E+04 -1.385201E+03 -7.933719E+03
       336  25  1.806177E+04 -2.945892E+05 -1.555119E+03  3.728952E+04  4.467261E+03  1.165333E+04
       336  26  7.212133E+03 -3.511334E+05 -1.036562E+04  2.769782E+04  1.572705E+03  3.304847E+03
       336  27 -9.941996E+03 -4.102291E+05 -2.616443E+04  4.088494E+04 -1.390460E+03 -5.042907E+03
       337   1  2.060695E+04 -3.106184E+05 -6.506955E+03  4.741672E+04  3.794880E+03  1.570014E+04
       337   2  3.136939E+04 -2.451544E+05 -5.143437E+03  1.701719E+04  5.587701E+03  2.874494E+04
       337   3 -1.306325E+04 -1.950698E+05 -2.604771E+04  9.083192E+03  1.976101E+03  4.178049E+04
       337   4  2.519317E+03 -3.850048E+05 -2.271375E+04  3.910499E+04  3.802607E+03  1.136157E+04
       337   5 -9.157795E+02 -3.768689E+05 -3.456779E+04  2.781168E+04  5.586697E+03  2.958897E+04
       337   6 -6.045391E+04 -3.850207E+05 -7.229401E+04  3.898531E+04  1.966654E+03  4.780573E+04
       337   7 -1.556841E+04 -4.593859E+05 -3.892077E+04  3.079427E+04  3.810451E+03  7.023510E+03
       337   8 -3.320170E+04 -5.085670E+05 -6.399318E+04  3.860386E+04  5.585723E+03  3.043282E+04
       337   9 -1.078439E+05 -5.749367E+05 -1.185423E+05  6.887826E+04  1.957786E+03  5.382912E+04
       337  10  2.060687E+04 -3.106186E+05 -6.507446E+03  4.741667E+04 -5.118219E-10 -2.842907E-09
       337  11  3.136913E+04 -2.451553E+05 -5.145049E+03  1.701706E+04  3.275895E-10  6.757602E-09
       337  12 -1.306373E+04 -1.950716E+05 -2.605100E+04  9.083125E+03  1.230852E-10 -4.052980E-09
       337  13  2.519267E+03 -3.850050E+05 -2.271402E+04  3.910495E+04  1.595641E-09  4.106391E-09
       337  14 -9.160482E+02 -3.768699E+05 -3.456950E+04  2.781155E+04  6.716176E-10 -5.378625E-10
       337  15 -6.045453E+04 -3.850231E+05 -7.229831E+04  3.898523E+04  5.070175E-11  4.280047E-09
       337  16 -1.556844E+04 -4.593860E+05 -3.892089E+04  3.079425E+04  1.575258E-09  4.357393E-09
       337  17 -3.320198E+04 -5.085680E+05 -6.399498E+04  3.860372E+04  1.160228E-09 -3.059061E-09
       337  18 -1.078447E+05 -5.749398E+05 -1.185478E+05  6.887817E+04  3.863496E-10  3.992730E-11
       337  19  2.060695E+04 -3.106184E+05 -6.506955E+03  4.741672E+04 -3.794880E+03 -1.570014E+04
       337  20  3.136939E+04 -2.451544E+05 -5.143437E+03  1.701719E+04 -5.587701E+03 -2.874494E+04
       337  21 -1.306325E+04 -1.950698E+05 -2.604771E+04  9.083192E+03 -1.976101E+03 -4.178049E+04
       337  22  2.519317E+03 -3.850048E+05 -2.271375E+04  3.910499E+04 -3.802607E+03 -1.136157E+04
       337  23 -9.157795E+02 -3.768689E+05 -3.456779E+04  2.781168E+04 -5.586697E+03 -2.958897E+04
       337  24 -6.045391E+04 -3.850207E+05 -7.229401E+04  3.898531E+04 -1.966654E+03 -4.780573E+04
       337  25 -1.556841E+04 -4.593859E+05 -3.892077E+04  3.079427E+04 -3.810451E+03 -7.023510E+03
       337  26 -3.320170E+04 -5.085670E+05 -6.399318E+04  3.860386E+04 -5.585723E+03 -3.043282E+04
       337  27 -1.078439E+05 -5.749367E+05 -1.185423E+05  6.887826E+04 -1.957786E+03 -5.382912E+04
       338   1  6.040780E+04  6.097471E+04  2.384798E+04  4.415172E+04  1.625481E+04  1.285951E+04
       338   2  5.742167E+04  3.536588E+04  7.365459E+03  5.337342E+04  1.000521E+04  9.529102E+03
       338   3  6.847235E+04  2.784273E+04  1.679462E+03  5.390857E+04  4.304610E+03  5.469703E+03
       338   4  9.897223E+04  6.664370E+04  3.239878E+04  5.328672E+04  1.744951E+04  1.375883E+04
       338   5  8.674056E+04  4.846851E+04  1.489366E+04  6.445213E+04  1.049936E+04  9.901153E+03
       338   6  8.869711E+04  4.853033E+04  8.793380E+03  6.693121E+04  4.098353E+03  5.314397E+03
       338   7  1.375387E+05  7.231288E+04  4.094960E+04  6.242200E+04  1.864432E+04  1.465814E+04
       338   8  1.160603E+05  6.157126E+04  2.242177E+04  7.553127E+04  1.099353E+04  1.027322E+04
       338   9  1.089222E+05  6.921832E+04  1.590717E+04  7.995431E+04  3.892088E+03  5.159083E+03
       338  10  6.040747E+04  6.097446E+04  2.384717E+04  4.415155E+04 -4.338795E-11  3.076823E-10
       338  11  5.742154E+04  3.536575E+04  7.365101E+03  5.337335E+04  1.379873E-09 -9.199747E-09
       338  12  6.847232E+04  2.784269E+04  1.679371E+03  5.390855E+04  4.646017E-09 -9.825497E-09
       338  13  9.897186E+04  6.664341E+04  3.239785E+04  5.328653E+04 -4.835813E-10 -3.524199E-09
       338  14  8.674042E+04  4.846838E+04  1.489326E+04  6.445204E+04  2.128782E-10 -7.185902E-10
       338  15  8.869708E+04  4.853029E+04  8.793295E+03  6.693119E+04  2.737581E-09  3.329499E-11
       338  16  1.375382E+05  7.231256E+04  4.094854E+04  6.242178E+04 -2.000990E-10  4.860931E-09
       338  17  1.160602E+05  6.157112E+04  2.242134E+04  7.553118E+04 -2.511405E-10  9.256895E-09
       338  18  1.089221E+05  6.921829E+04  1.590710E+04  7.995429E+04  5.850550E-10 -1.855978E-09
       338  19  6.040780E+04  6.097471E+04  2.384798E+04  4.415172E+04 -1.625481E+04 -1.285951E+04
       338  20  5.742167E+04  3.536588E+04  7.365459E+03  5.337342E+04 -1.000521E+04 -9.529102E+03
       338  21  6.847235E+04  2.784273E+04  1.679462E+03  5.390857E+04 -4.304610E+03 -5.469703E+03
       338  22  9.897223E+04  6.664370E+04  3.239878E+04  5.328672E+04 -1.744951E+04 -1.375883E+04
       338  23  8.674056E+04  4.846851E+04  1.489366E+04  6.445213E+04 -1.049936E+04 -9.901153E+03
       338  24  8.869711E+04  4.853033E+04  8.793380E+03  6.693121E+04 -4.098353E+03 -5.314397E+03
       338  25  1.375387E+05  7.231288E+04  4.094960E+04  6.242200E+04 -1.864432E+04 -1.465814E+04
       338  26  1.160603E+05  6.157126E+04  2.242177E+04  7.553127E+04 -1.099353E+04 -1.027322E+04
       338  27  1.089222E+05  6.921832E+04  1.590717E+04  7.995431E+04 -3.892088E+03 -5.159083E+03
       339   1  6.508521E+04  3.364098E+04  1.202914E+02  5.348239E+04  3.170604E+03  4.471703E+03
       339   2  6.540473E+04  3.316443E+04 -2.548751E+03  5.443670E+04  1.581363E+03  3.249864E+03
       339   3  6.707188E+04  3.330194E+04 -3.572736E+03  5.489058E+04  1.697911E+01  1.994996E+03
       339   4  8.871235E+04  4.966997E+04  7.051978E+03  6.494309E+04  3.171371E+03  4.472267E+03
       339   5  8.777001E+04  4.889216E+04  4.082253E+03  6.554537E+04  1.550355E+03  3.226502E+03
       339   6  8.818219E+04  4.873523E+04  2.785150E+03  6.564721E+04 -4.580777E+01  1.947702E+03
       339   7  1.123401E+05  6.569926E+04  1.398361E+04  7.640429E+04  3.172137E+03  4.472832E+03
       339   8  1.101360E+05  6.462024E+04  1.071324E+04  7.665456E+04  1.519345E+03  3.203139E+03
       339   9  1.092932E+05  6.416894E+04  9.143062E+03  7.640437E+04 -1.085982E+02  1.900405E+03
       339  10  6.508520E+04  3.364095E+04  1.202349E+02  5.348238E+04 -1.368320E-09 -9.757440E-09
       339  11  6.540472E+04  3.316442E+04 -2.548776E+03  5.443670E+04 -1.973734E-09 -3.214961E-09
       339  12  6.707188E+04  3.330194E+04 -3.572744E+03  5.489058E+04 -2.660993E-10 -5.890638E-09
       339  13  8.871234E+04  4.966995E+04  7.051922E+03  6.494308E+04  1.672044E-09  8.402981E-10
       339  14  8.777000E+04  4.889214E+04  4.082229E+03  6.554537E+04 -3.761483E-10 -1.386012E-08
       339  15  8.818219E+04  4.873522E+04  2.785143E+03  6.564721E+04 -1.065555E-09  1.116257E-09
       339  16  1.123401E+05  6.569923E+04  1.398355E+04  7.640427E+04  4.822533E-09  2.585639E-09
       339  17  1.101359E+05  6.462023E+04  1.071322E+04  7.665455E+04  6.049505E-10  1.149971E-08
       339  18  1.092932E+05  6.416894E+04  9.143055E+03  7.640437E+04 -1.670328E-09  3.900631E-09
       339  19  6.508521E+04  3.364098E+04  1.202914E+02  5.348239E+04 -3.170604E+03 -4.471703E+03
       339  20  6.540473E+04  3.316443E+04 -2.548751E+03  5.443670E+04 -1.581363E+03 -3.249864E+03
       339  21  6.707188E+04  3.330194E+04 -3.572736E+03  5.489058E+04 -1.697911E+01 -1.994996E+03
       339  22  8.871235E+04  4.966997E+04  7.051978E+03  6.494309E+04 -3.171371E+03 -4.472267E+03
       339  23  8.777001E+04  4.889216E+04  4.082253E+03  6.554537E+04 -1.550355E+03 -3.226502E+03
       339  24  8.818219E+04  4.873523E+04  2.785150E+03  6.564721E+04  4.580777E+01 -1.947702E+03
       339  25  1.123401E+05  6.569926E+04  1.398361E+04  7.640429E+04 -3.172137E+03 -4.472832E+03
       339  26  1.101360E+05  6.462024E+04  1.071324E+04  7.665456E+04 -1.519345E+03 -3.203139E+03
       339  27  1.092932E+05  6.416894E+04  9.143062E+03  7.640437E+04  1.085982E+02 -1.900405E+03
       340   1  6.753319E+04  3.411118E+04 -3.651262E+03  5.521787E+04 -3.389405E+02  1.669813E+03
       340   2  6.810244E+04  3.490569E+04 -3.465271E+03  5.572788E+04 -1.247049E+03  8.974597E+02
       340   3  6.934402E+04  3.542826E+04 -2.455511E+03  5.610659E+04 -2.153516E+03  1.229498E+02
       340   4  8.817083E+04  4.878384E+04  2.487366E+03  6.554340E+04 -3.920545E+02  1.629804E+03
       340   5  8.784129E+04  4.893172E+04  2.406688E+03  6.559988E+04 -1.302280E+03  8.558583E+02
       340   6  8.818456E+04  4.880811E+04  3.151604E+03  6.552505E+04 -2.210866E+03  7.975360E+01
       340   7  1.088087E+05  6.345658E+04  8.625872E+03  7.586922E+04 -4.451704E+02  1.589794E+03
       340   8  1.075805E+05  6.295790E+04  8.278567E+03  7.547218E+04 -1.357513E+03  8.142554E+02
       340   9  1.070255E+05  6.218816E+04  8.758676E+03  7.494383E+04 -2.268219E+03  3.655564E+01
       340  10  6.753319E+04  3.411118E+04 -3.651267E+03  5.521787E+04 -3.453659E-09 -2.184910E-10
       340  11  6.810244E+04  3.490569E+04 -3.465275E+03  5.572788E+04  2.565953E-10  2.123007E-09
       340  12  6.934401E+04  3.542826E+04 -2.455520E+03  5.610659E+04  4.854686E-09  4.259167E-10
       340  13  8.817083E+04  4.878383E+04  2.487361E+03  6.554340E+04 -1.283049E-09 -7.915952E-09
       340  14  8.784129E+04  4.893172E+04  2.406684E+03  6.559988E+04 -3.233490E-09 -1.119694E-08
       340  15  8.818456E+04  4.880811E+04  3.151594E+03  6.552505E+04 -8.560007E-11 -4.964690E-09
       340  16  1.088087E+05  6.345657E+04  8.625867E+03  7.586922E+04 -4.026259E-11  2.923094E-09
       340  17  1.075805E+05  6.295790E+04  8.278562E+03  7.547218E+04 -4.187534E-09 -4.910755E-09
       340  18  1.070255E+05  6.218816E+04  8.758667E+03  7.494383E+04 -5.371081E-09 -3.746824E-09
       340  19  6.753319E+04  3.411118E+04 -3.651262E+03  5.521787E+04  3.389405E+02 -1.669813E+03
       340  20  6.810244E+04  3.490569E+04 -3.465271E+03  5.572788E+04  1.247049E+03 -8.974597E+02
       340  21  6.934402E+04  3.542826E+04 -2.455511E+03  5.610659E+04  2.153516E+03 -1.229498E+02
       340  22  8.817083E+04  4.878384E+04  2.487366E+03  6.554340E+04  3.920545E+02 -1.629804E+03
       340  23  8.784129E+04  4.893172E+04  2.406688E+03  6.559988E+04  1.302280E+03 -8.558583E+02
       340  24  8.818456E+04  4.880811E+04  3.151604E+03  6.552505E+04  2.210866E+03 -7.975360E+01
       340  25  1.088087E+05  6.345658E+04  8.625872E+03  7.586922E+04  4.451704E+02 -1.589794E+03
       340  26  1.075805E+05  6.295790E+04  8.278567E+03  7.547218E+04  1.357513E+03 -8.142554E+02
       340  27  1.070255E+05  6.218816E+04  8.758676E+03  7.494383E+04  2.268219E+03 -3.655564E+01
       341   1  6.971281E+04  3.623828E+04 -1.557453E+03  5.675273E+04 -2.627382E+03 -2.848457E+02
       341   2  7.067290E+04  3.642579E+04  1.051570E+03  5.684173E+04 -5.036583E+03 -2.197413E+03
       341   3  7.349428E+04  3.787380E+04  6.206652E+03  5.620333E+04 -7.433008E+03 -4.127028E+03
       341   4  8.821326E+04  4.873295E+04  3.829037E+03  6.570615E+04 -2.679416E+03 -3.240355E+02
       341   5  8.770482E+04  4.884850E+04  6.177079E+03  6.550678E+04 -5.105054E+03 -2.248985E+03
       341   6  8.906116E+04  5.022813E+04  1.108541E+04  6.458002E+04 -7.517884E+03 -4.190962E+03
       341   7  1.067143E+05  6.122791E+04  9.215554E+03  7.465995E+04 -2.731453E+03 -3.632272E+02
       341   8  1.047371E+05  6.127138E+04  1.130255E+04  7.417209E+04 -5.173527E+03 -2.300558E+03
       341   9  1.046281E+05  6.258252E+04  1.596409E+04  7.295687E+04 -7.602762E+03 -4.254899E+03
       341  10  6.971281E+04  3.623828E+04 -1.557466E+03  5.675273E+04 -1.238788E-10  3.544894E-10
       341  11  7.067287E+04  3.642578E+04  1.051514E+03  5.684173E+04 -3.706777E-09 -3.945220E-09
       341  12  7.349422E+04  3.787377E+04  6.206516E+03  5.620331E+04 -2.858670E-10 -1.117216E-08
       341  13  8.821325E+04  4.873294E+04  3.829024E+03  6.570615E+04  8.759240E-10 -1.177739E-09
       341  14  8.770479E+04  4.884849E+04  6.177020E+03  6.550677E+04  1.196234E-09 -1.345193E-09
       341  15  8.906110E+04  5.022810E+04  1.108527E+04  6.457999E+04  4.382486E-09 -3.503515E-09
       341  16  1.067143E+05  6.122791E+04  9.215540E+03  7.465995E+04  9.308568E-10  1.584512E-09
       341  17  1.047370E+05  6.127137E+04  1.130249E+04  7.417208E+04  4.330688E-09  2.605006E-09
       341  18  1.046281E+05  6.258248E+04  1.596395E+04  7.295684E+04  8.383981E-09  8.607099E-09
       341  19  6.971281E+04  3.623828E+04 -1.557453E+03  5.675273E+04  2.627382E+03  2.848457E+02
       341  20  7.067290E+04  3.642579E+04  1.051570E+03  5.684173E+04  5.036583E+03  2.197413E+03
       341  21  7.349428E+04  3.787380E+04  6.206652E+03  5.620333E+04  7.433008E+03  4.127028E+03
       341  22  8.821326E+04  4.873295E+04  3.829037E+03  6.570615E+04  2.679416E+03  3.240355E+02
       341  23  8.770482E+04  4.884850E+04  6.177079E+03  6.550678E+04  5.105054E+03  2.248985E+03
       341  24  8.906116E+04  5.022813E+04  1.108541E+04  6.458002E+04  7.517884E+03  4.190962E+03
       341  25  1.067143E+05  6.122791E+04  9.215554E+03  7.465995E+04  2.731453E+03  3.632272E+02
       341  26  1.047371E+05  6.127138E+04  1.130255E+04  7.417209E+04  5.173527E+03  2.300558E+03
       341  27  1.046281E+05  6.258252E+04  1.596409E+04  7.295687E+04  7.602762E+03  4.254899E+03
       342   1  6.757867E+04  4.315733E+04  9.285088E+03  6.163252E+04 -9.105985E+03 -5.392973E+03
       342   2  7.861920E+04  3.044978E+04  1.930936E+04  5.432804E+04 -1.865504E+04 -1.284220E+04
       342   3  1.120688E+05  4.704717E+04  4.724416E+04  3.318434E+04 -2.792126E+04 -2.066713E+04
       342   4  8.905719E+04  4.838877E+04  1.392449E+04  6.775745E+04 -9.084191E+03 -5.376435E+03
       342   5  8.603108E+04  4.818799E+04  2.376090E+04  6.376350E+04 -1.899434E+04 -1.309806E+04
       342   6  1.054914E+05  7.736996E+04  5.182150E+04  4.593061E+04 -2.862138E+04 -2.119584E+04
       342   7  1.105363E+05  5.362027E+04  1.856388E+04  7.388253E+04 -9.062396E+03 -5.359897E+03
       342   8  9.344315E+04  6.592685E+04  2.821248E+04  7.319923E+04 -1.933365E+04 -1.335393E+04
       342   9  9.891472E+04  1.076952E+05  5.639910E+04  5.867701E+04 -2.932149E+04 -2.172463E+04
       342  10  6.757857E+04  4.315728E+04  9.284878E+03  6.163248E+04  8.148196E-09  2.587816E-09
       342  11  7.861878E+04  3.044950E+04  1.930840E+04  5.432785E+04  2.466877E-09 -9.128163E-10
       342  12  1.120678E+05  4.704650E+04  4.724189E+04  3.318388E+04 -1.446426E-09 -4.082502E-09
       342  13  8.905710E+04  4.838872E+04  1.392428E+04  6.775741E+04  5.704385E-09  7.099926E-09
       342  14  8.603065E+04  4.818771E+04  2.375990E+04  6.376330E+04  2.502710E-09 -6.666434E-09
       342  15  1.054904E+05  7.736925E+04  5.181911E+04  4.593012E+04 -4.353397E-11 -3.353656E-09
       342  16  1.105362E+05  5.362022E+04  1.856367E+04  7.388249E+04 -4.681874E-10  9.277393E-10
       342  17  9.344271E+04  6.592656E+04  2.821145E+04  7.319902E+04 -4.728678E-10 -1.001307E-08
       342  18  9.891367E+04  1.076945E+05  5.639660E+04  5.867650E+04  1.377591E-09 -3.757085E-09
       342  19  6.757867E+04  4.315733E+04  9.285088E+03  6.163252E+04  9.105985E+03  5.392973E+03
       342  20  7.861920E+04  3.044978E+04  1.930936E+04  5.432804E+04  1.865504E+04  1.284220E+04
       342  21  1.120688E+05  4.704717E+04  4.724416E+04  3.318434E+04  2.792126E+04  2.066713E+04
       342  22  8.905719E+04  4.838877E+04  1.392449E+04  6.775745E+04  9.084191E+03  5.376435E+03
       342  23  8.603108E+04  4.818799E+04  2.376090E+04  6.376350E+04  1.899434E+04  1.309806E+04
       342  24  1.054914E+05  7.736996E+04  5.182150E+04  4.593061E+04  2.862138E+04  2.119584E+04
       342  25  1.105363E+05  5.362027E+04  1.856388E+04  7.388253E+04  9.062396E+03  5.359897E+03
       342  26  9.344315E+04  6.592685E+04  2.821248E+04  7.319923E+04  1.933365E+04  1.335393E+04
       342  27  9.891472E+04  1.076952E+05  5.639910E+04  5.867701E+04  2.932149E+04  2.172463E+04
       343   1 -5.453842E+04 -4.100662E+05 -5.935272E+04  2.772186E+04 -1.245080E+03 -2.588479E+04
       343   2 -2.154458E+04 -3.860016E+05 -3.528352E+04  1.504820E+04 -3.841563E+03 -1.460895E+04
       343   3 -1.500881E+04 -3.699812E+05 -2.516864E+04  1.010873E+04 -3.525654E+03 -3.326734E+03
       343   4 -2.796750E+04 -3.034525E+05 -3.348467E+04  1.384261E+04 -1.252187E+03 -2.201947E+04
       343   5 -4.127791E+02 -2.996707E+05 -1.610622E+04  1.000409E+04 -3.843516E+03 -1.353704E+04
       343   6  1.170833E+03 -3.034472E+05 -1.074004E+04  1.390019E+04 -3.522314E+03 -5.048672E+03
       343   7 -1.396681E+03 -1.968280E+05 -7.617278E+03 -3.903511E+01 -1.259466E+03 -1.815350E+04
       343   8  2.071861E+04 -2.133328E+05  3.070630E+03  4.959268E+03 -3.845486E+03 -1.246498E+04
       343   9  1.735024E+04 -2.369091E+05  3.688317E+03  1.769207E+04 -3.518995E+03 -6.770793E+03
       343  10 -5.453861E+04 -4.100669E+05 -5.935398E+04  2.772183E+04 -1.262335E-09  1.442462E-08
       343  11 -2.154465E+04 -3.860018E+05 -3.528395E+04  1.504815E+04 -5.594654E-09  3.255740E-09
       343  12 -1.500882E+04 -3.699812E+05 -2.516869E+04  1.010872E+04 -2.463494E-09 -2.248365E-08
       343  13 -2.796763E+04 -3.034530E+05 -3.348558E+04  1.384258E+04 -1.509328E-09 -2.143461E-09
       343  14 -4.128441E+02 -2.996709E+05 -1.610659E+04  1.000404E+04 -5.713854E-09  3.208349E-09
       343  15  1.170813E+03 -3.034473E+05 -1.074011E+04  1.390018E+04 -2.737082E-09 -3.180345E-09
       343  16 -1.396771E+03 -1.968283E+05 -7.617901E+03 -3.905352E+01 -2.274048E-09 -1.762598E-08
       343  17  2.071855E+04 -2.133329E+05  3.070311E+03  4.959229E+03 -4.382526E-09  6.150222E-09
       343  18  1.735021E+04 -2.369092E+05  3.688208E+03  1.769205E+04 -4.043910E-09  1.953389E-08
       343  19 -5.453842E+04 -4.100662E+05 -5.935272E+04  2.772186E+04  1.245080E+03  2.588479E+04
       343  20 -2.154458E+04 -3.860016E+05 -3.528352E+04  1.504820E+04  3.841563E+03  1.460895E+04
       343  21 -1.500881E+04 -3.699812E+05 -2.516864E+04  1.010873E+04  3.525654E+03  3.326734E+03
       343  22 -2.796750E+04 -3.034525E+05 -3.348467E+04  1.384261E+04  1.252187E+03  2.201947E+04
       343  23 -4.127791E+02 -2.996707E+05 -1.610622E+04  1.000409E+04  3.843516E+03  1.353704E+04
       343  24  1.170833E+03 -3.034472E+05 -1.074004E+04  1.390019E+04  3.522314E+03  5.048672E+03
       343  25 -1.396681E+03 -1.968280E+05 -7.617278E+03 -3.903511E+01  1.259466E+03  1.815350E+04
       343  26  2.071861E+04 -2.133328E+05  3.070630E+03  4.959268E+03  3.845486E+03  1.246498E+04
       343  27  1.735024E+04 -2.369091E+05  3.688317E+03  1.769207E+04  3.518995E+03  6.770793E+03
       344   1 -1.368975E+04 -3.525581E+05 -2.054703E+04  1.482596E+04 -2.608005E+03 -2.502033E+03
       344   2 -7.383271E+03 -3.318402E+05 -1.490309E+04  9.992760E+03 -1.629427E+03  1.734212E+03
       344   3 -4.205800E+03 -3.124172E+05 -1.279148E+04  1.306582E+04 -5.803227E+02  5.970684E+03
       344   4 -1.381264E+03 -3.020531E+05 -9.548220E+03  1.392326E+04 -2.606228E+03 -3.415222E+03
       344   5  2.342233E+01 -3.014112E+05 -8.309416E+03  9.969829E+03 -1.627540E+03  7.535617E+02
       344   6 -1.689068E+03 -3.020529E+05 -1.055593E+04  1.392267E+04 -5.783163E+02  4.922440E+03
       344   7  1.092706E+04 -2.515457E+05  1.450444E+03  1.302048E+04 -2.604449E+03 -4.328483E+03
       344   8  7.430055E+03 -2.709814E+05 -1.715796E+03  9.946898E+03 -1.625653E+03 -2.271357E+02
       344   9  8.276598E+02 -2.916884E+05 -8.320381E+03  1.477953E+04 -5.763128E+02  3.874178E+03
       344  10 -1.368976E+04 -3.525581E+05 -2.054706E+04  1.482596E+04  9.890375E-11 -1.220520E-08
       344  11 -7.383275E+03 -3.318402E+05 -1.490310E+04  9.992762E+03  1.910054E-09  1.200343E-10
       344  12 -4.205810E+03 -3.124172E+05 -1.279155E+04  1.306582E+04  2.414001E-09 -4.778550E-09
       344  13 -1.381274E+03 -3.020532E+05 -9.548255E+03  1.392325E+04 -1.029602E-09 -8.501082E-09
       344  14  2.341933E+01 -3.014112E+05 -8.309422E+03  9.969830E+03  8.841570E-10  5.266842E-09
       344  15 -1.689075E+03 -3.020529E+05 -1.055598E+04  1.392267E+04  2.380651E-09 -6.680733E-09
       344  16  1.092705E+04 -2.515458E+05  1.450396E+03  1.302047E+04 -1.452997E-09  6.404563E-09
       344  17  7.430052E+03 -2.709814E+05 -1.715801E+03  9.946897E+03 -1.929664E-09  4.699851E-09
       344  18  8.276554E+02 -2.916885E+05 -8.320410E+03  1.477953E+04  1.499679E-09  1.323459E-09
       344  19 -1.368975E+04 -3.525581E+05 -2.054703E+04  1.482596E+04  2.608005E+03  2.502033E+03
       344  20 -7.383271E+03 -3.318402E+05 -1.490309E+04  9.992760E+03  1.629427E+03 -1.734212E+03
       344  21 -4.205800E+03 -3.124172E+05 -1.279148E+04  1.306582E+04  5.803227E+02 -5.970684E+03
       344  22 -1.381264E+03 -3.020531E+05 -9.548220E+03  1.392326E+04  2.606228E+03  3.415222E+03
       344  23  2.342233E+01 -3.014112E+05 -8.309416E+03  9.969829E+03  1.627540E+03 -7.535617E+02
       344  24 -1.689068E+03 -3.020529E+05 -1.055593E+04  1.392267E+04  5.783163E+02 -4.922440E+03
       344  25  1.092706E+04 -2.515457E+05  1.450444E+03  1.302048E+04  2.604449E+03  4.328483E+03
       344  26  7.430055E+03 -2.709814E+05 -1.715796E+03  9.946898E+03  1.625653E+03  2.271357E+02
       344  27  8.276598E+02 -2.916884E+05 -8.320381E+03  1.477953E+04  5.763128E+02 -3.874178E+03
       345   1  2.809171E+03 -2.981449E+05 -1.098132E+04  1.861676E+04  2.182171E+02  8.143785E+03
       345   2  5.806412E+03 -2.736703E+05 -1.331473E+04  4.038705E+03  9.778683E+02  1.690651E+04
       345   3 -2.222743E+04 -2.580568E+05 -2.910378E+04 -2.727949E+03  3.758185E+02  2.566677E+04
       345   4  1.449904E+03 -3.037865E+05 -1.224167E+04  1.391973E+04  2.208199E+02  6.745103E+03
       345   5 -4.914077E+02 -2.992447E+05 -1.908464E+04  9.980153E+03  9.782094E+02  1.681396E+04
       345   6 -3.369177E+04 -3.037920E+05 -4.029113E+04  1.385207E+04  3.741726E+02  2.688006E+04
       345   7  9.071925E+01 -3.094281E+05 -1.350200E+04  9.222743E+03  2.234440E+02  5.346433E+03
       345   8 -6.789140E+03 -3.248185E+05 -2.485458E+04  1.592135E+04  9.785488E+02  1.672142E+04
       345   9 -4.515525E+04 -3.495246E+05 -5.147849E+04  3.043086E+04  3.725915E+02  2.809325E+04
       345  10  2.809153E+03 -2.981450E+05 -1.098144E+04  1.861676E+04  3.150140E-09 -7.241341E-09
       345  11  5.806334E+03 -2.736706E+05 -1.331527E+04  4.038692E+03  4.835490E-09  4.184489E-09
       345  12 -2.222760E+04 -2.580575E+05 -2.910502E+04 -2.727957E+03  1.213829E-09 -2.117435E-09
       345  13  1.449892E+03 -3.037866E+05 -1.224175E+04  1.391973E+04  3.448413E-09 -4.124534E-09
       345  14 -4.914847E+02 -2.992450E+05 -1.908518E+04  9.980140E+03  3.772455E-09  3.096278E-09
       345  15 -3.369197E+04 -3.037927E+05 -4.029249E+04  1.385206E+04  1.587023E-09 -2.627546E-09
       345  16  9.071151E+01 -3.094281E+05 -1.350205E+04  9.222742E+03  2.118124E-09  1.427043E-09
       345  17 -6.789216E+03 -3.248188E+05 -2.485511E+04  1.592134E+04  3.135166E-09  3.153948E-09
       345  18 -4.515546E+04 -3.495255E+05 -5.147997E+04  3.043085E+04 -5.288001E-12  7.490636E-11
       345  19  2.809171E+03 -2.981449E+05 -1.098132E+04  1.861676E+04 -2.182171E+02 -8.143785E+03
       345  20  5.806412E+03 -2.736703E+05 -1.331473E+04  4.038705E+03 -9.778683E+02 -1.690651E+04
       345  21 -2.222743E+04 -2.580568E+05 -2.910378E+04 -2.727949E+03 -3.758185E+02 -2.566677E+04
       345  22  1.449904E+03 -3.037865E+05 -1.224167E+04  1.391973E+04 -2.208199E+02 -6.745103E+03
       345  23 -4.914077E+02 -2.992447E+05 -1.908464E+04  9.980153E+03 -9.782094E+02 -1.681396E+04
       345  24 -3.369177E+04 -3.037920E+05 -4.029113E+04  1.385207E+04 -3.741726E+02 -2.688006E+04
       345  25  9.071925E+01 -3.094281E+05 -1.350200E+04  9.222743E+03 -2.234440E+02 -5.346433E+03
       345  26 -6.789140E+03 -3.248185E+05 -2.485458E+04  1.592135E+04 -9.785488E+02 -1.672142E+04
       345  27 -4.515525E+04 -3.495246E+05 -5.147849E+04  3.043086E+04 -3.725915E+02 -2.809325E+04
       346   1  1.662517E+05  8.984271E+04  8.454751E+04  3.568932E+04  4.554650E+03 -5.240546E+03
       346   2  1.028237E+05  8.589097E+04  7.031161E+04  2.772484E+04 -2.128846E+03 -1.596171E+04
       346   3  3.760019E+04  7.094684E+04  5.768941E+04  4.455187E+04 -8.803622E+03 -1.541743E+04
       346   4 -2.515276E+05 -1.396309E+04 -1.662994E+04  4.271771E+04 -1.114745E+04 -5.229894E+03
       346   5 -2.496810E+05 -2.494540E+02 -7.844633E+03  3.032592E+04 -7.015303E+03 -1.595950E+04
       346   6 -2.515125E+05  5.908751E+02 -4.957878E+03  4.272676E+04 -2.874923E+03 -1.542070E+04
       346   7 -6.691468E+05 -1.177814E+05 -1.178190E+05  4.974138E+04 -2.683902E+04 -5.219595E+03
       346   8 -6.020696E+05 -8.639823E+04 -8.600849E+04  3.292552E+04 -1.189902E+04 -1.595733E+04
       346   9 -5.405467E+05 -6.977058E+04 -6.761000E+04  4.090252E+04  3.051053E+03 -1.542401E+04
       346  10  1.662517E+05  8.984267E+04  8.454742E+04  3.568933E+04  1.212285E-10 -9.929332E-11
       346  11  1.028236E+05  8.589069E+04  7.031112E+04  2.772481E+04  4.418110E-10 -1.371018E-10
       346  12  3.760004E+04  7.094656E+04  5.768882E+04  4.455176E+04 -9.897272E-11  7.022209E-11
       346  13 -2.515277E+05 -1.396315E+04 -1.663022E+04  4.271766E+04 -2.608482E-10 -5.825596E-11
       346  14 -2.496811E+05 -2.497407E+02 -7.845204E+03  3.032583E+04  6.195115E-10 -6.470100E-11
       346  15 -2.515126E+05  5.906176E+02 -4.958340E+03  4.272673E+04 -3.672087E-11  1.729829E-10
       346  16 -6.691476E+05 -1.177816E+05 -1.178204E+05  4.974127E+04 -3.875571E-10 -6.022205E-11
       346  17 -6.020698E+05 -8.639854E+04 -8.600924E+04  3.292537E+04 -1.315659E-10 -4.446591E-11
       346  18 -5.405467E+05 -6.977084E+04 -6.761047E+04  4.090256E+04  4.161241E-10  2.550342E-10
       346  19  1.662517E+05  8.984271E+04  8.454751E+04  3.568932E+04 -4.554650E+03  5.240546E+03
       346  20  1.028237E+05  8.589097E+04  7.031161E+04  2.772484E+04  2.128846E+03  1.596171E+04
       346  21  3.760019E+04  7.094684E+04  5.768941E+04  4.455187E+04  8.803622E+03  1.541743E+04
       346  22 -2.515276E+05 -1.396309E+04 -1.662994E+04  4.271771E+04  1.114745E+04  5.229894E+03
       346  23 -2.496810E+05 -2.494540E+02 -7.844633E+03  3.032592E+04  7.015303E+03  1.595950E+04
       346  24 -2.515125E+05  5.908751E+02 -4.957878E+03  4.272676E+04  2.874923E+03  1.542070E+04
       346  25 -6.691468E+05 -1.177814E+05 -1.178190E+05  4.974138E+04  2.683902E+04  5.219595E+03
       346  26 -6.020696E+05 -8.639823E+04 -8.600849E+04  3.292552E+04  1.189902E+04  1.595733E+04
       346  27 -5.405467E+05 -6.977058E+04 -6.761000E+04  4.090252E+04 -3.051053E+03  1.542401E+04
       347   1 -1.300257E+04  5.715921E+04  4.750322E+04  4.247645E+04 -4.875895E+03 -1.233689E+04
       347   2 -7.716974E+04  4.220879E+04  3.437107E+04  3.002256E+04 -3.747199E+03 -9.237266E+03
       347   3 -1.416279E+05  2.651488E+04  2.032658E+04  4.291006E+04 -2.619131E+03 -5.639638E+03
       347   4 -2.507735E+05 -7.496768E+02 -4.236079E+03  4.284638E+04 -2.138397E+03 -1.233838E+04
       347   5 -2.505811E+05  3.029845E+00 -3.215359E+03  3.017558E+04 -5.322596E+02 -9.238656E+03
       347   6 -2.507667E+05 -7.056256E+01 -3.438749E+03  4.284664E+04  1.073364E+03 -5.640846E+03
       347   7 -4.884913E+05 -5.866231E+04 -5.597873E+04  4.321616E+04  5.980662E+02 -1.233987E+04
       347   8 -4.239642E+05 -4.220471E+04 -4.080354E+04  3.032856E+04  2.681794E+03 -9.240044E+03
       347   9 -3.598943E+05 -2.665679E+04 -2.720474E+04  4.278324E+04  4.765218E+03 -5.642054E+03
       347  10 -1.300264E+04  5.715904E+04  4.750288E+04  4.247640E+04  4.296994E-10  6.205869E-11
       347  11 -7.716978E+04  4.220869E+04  3.437089E+04  3.002253E+04  7.892916E-10 -1.438492E-10
       347  12 -1.416279E+05  2.651485E+04  2.032651E+04  4.291005E+04 -6.789242E-11 -1.913681E-10
       347  13 -2.507735E+05 -7.498415E+02 -4.236374E+03  4.284636E+04  3.948213E-10  1.624295E-10
       347  14 -2.505811E+05  2.938126E+00 -3.215520E+03  3.017558E+04  2.519669E-10 -1.300845E-10
       347  15 -2.507667E+05 -7.059703E+01 -3.438811E+03  4.284665E+04  2.643789E-10 -2.158817E-10
       347  16 -4.884914E+05 -5.866248E+04 -5.597902E+04  4.321617E+04 -4.212231E-10  1.928486E-10
       347  17 -4.239642E+05 -4.220481E+04 -4.080371E+04  3.032858E+04  1.553522E-11 -1.756281E-10
       347  18 -3.598943E+05 -2.665683E+04 -2.720485E+04  4.278326E+04  4.267199E-11 -2.371754E-10
       347  19 -1.300257E+04  5.715921E+04  4.750322E+04  4.247645E+04  4.875895E+03  1.233689E+04
       347  20 -7.716974E+04  4.220879E+04  3.437107E+04  3.002256E+04  3.747199E+03  9.237266E+03
       347  21 -1.416279E+05  2.651488E+04  2.032658E+04  4.291006E+04  2.619131E+03  5.639638E+03
       347  22 -2.507735E+05 -7.496768E+02 -4.236079E+03  4.284638E+04  2.138397E+03  1.233838E+04
       347  23 -2.505811E+05  3.029845E+00 -3.215359E+03  3.017558E+04  5.322596E+02  9.238656E+03
       347  24 -2.507667E+05 -7.056256E+01 -3.438749E+03  4.284664E+04 -1.073364E+03  5.640846E+03
       347  25 -4.884913E+05 -5.866231E+04 -5.597873E+04  4.321616E+04 -5.980662E+02  1.233987E+04
       347  26 -4.239642E+05 -4.220471E+04 -4.080354E+04  3.032856E+04 -2.681794E+03  9.240044E+03
       347  27 -3.598943E+05 -2.665679E+04 -2.720474E+04  4.278324E+04 -4.765218E+03  5.642054E+03
       348   1 -1.928504E+05  1.414269E+04  8.485093E+03  4.246616E+04 -1.917200E+03 -3.383686E+03
       348   2 -2.567312E+05 -1.513695E+03 -7.226727E+03  3.033838E+04  1.280727E+03  2.585686E+02
       348   3 -3.215167E+05 -1.923736E+04 -2.553282E+04  4.357248E+04  4.478183E+03  3.605595E+03
       348   4 -2.508720E+05  5.647202E+01 -3.908808E+03  4.285123E+04  1.721053E+03 -3.384772E+03
       348   5 -2.504423E+05  2.674338E+01 -5.815833E+03  3.016994E+04  4.635481E+03  2.575484E+02
       348   6 -2.508727E+05 -2.020954E+03 -1.012016E+04  4.285059E+04  7.549764E+03  3.604651E+03
       348   7 -3.088903E+05 -1.402995E+04 -1.630285E+04  4.323626E+04  5.358970E+03 -3.385854E+03
       348   8 -2.441533E+05  1.567186E+03 -4.404898E+03  3.000151E+04  7.990268E+03  2.565263E+02
       348   9 -1.802241E+05  1.519513E+04  5.292235E+03  4.212862E+04  1.062169E+04  3.603700E+03
       348  10 -1.928504E+05  1.414267E+04  8.485065E+03  4.246616E+04  3.784748E-11 -7.851402E-11
       348  11 -2.567312E+05 -1.513696E+03 -7.226730E+03  3.033838E+04  2.968105E-10 -2.741165E-11
       348  12 -3.215167E+05 -1.923738E+04 -2.553288E+04  4.357247E+04  1.195337E-10 -4.319074E-11
       348  13 -2.508720E+05  5.645892E+01 -3.908835E+03  4.285124E+04  2.685048E-10 -1.037594E-10
       348  14 -2.504423E+05  2.673754E+01 -5.815873E+03  3.016994E+04 -2.990562E-12 -1.511733E-12
       348  15 -2.508728E+05 -2.020984E+03 -1.012029E+04  4.285057E+04  3.846812E-10  1.209263E-10
       348  16 -3.088903E+05 -1.402997E+04 -1.630293E+04  4.323628E+04 -2.158865E-10 -1.427006E-10
       348  17 -2.441533E+05  1.567168E+03 -4.405018E+03  3.000151E+04 -3.126878E-10 -2.983609E-12
       348  18 -1.802242E+05  1.519508E+04  5.291999E+03  4.212859E+04 -8.366042E-11  1.275786E-10
       348  19 -1.928504E+05  1.414269E+04  8.485093E+03  4.246616E+04  1.917200E+03  3.383686E+03
       348  20 -2.567312E+05 -1.513695E+03 -7.226727E+03  3.033838E+04 -1.280727E+03 -2.585686E+02
       348  21 -3.215167E+05 -1.923736E+04 -2.553282E+04  4.357248E+04 -4.478183E+03 -3.605595E+03
       348  22 -2.508720E+05  5.647202E+01 -3.908808E+03  4.285123E+04 -1.721053E+03  3.384772E+03
       348  23 -2.504423E+05  2.674338E+01 -5.815833E+03  3.016994E+04 -4.635481E+03 -2.575484E+02
       348  24 -2.508727E+05 -2.020954E+03 -1.012016E+04  4.285059E+04 -7.549764E+03 -3.604651E+03
       348  25 -3.088903E+05 -1.402995E+04 -1.630285E+04  4.323626E+04 -5.358970E+03  3.385854E+03
       348  26 -2.441533E+05  1.567186E+03 -4.404898E+03  3.000151E+04 -7.990268E+03 -2.565263E+02
       348  27 -1.802241E+05  1.519513E+04  5.292235E+03  4.212862E+04 -1.062169E+04 -3.603700E+03
       349   1 -3.749261E+05 -2.790784E+04 -3.915264E+04  3.731069E+04  4.283546E+03  6.354602E+03
       349   2 -4.334489E+05 -4.599791E+04 -6.280478E+04  3.713158E+04  2.235119E+04  8.105339E+03
       349   3 -5.036302E+05 -1.014624E+05 -1.075617E+05  6.196987E+04  4.041390E+04  2.834083E+03
       349   4 -2.530134E+05  1.782160E+03 -1.263680E+04  4.277894E+04  9.339741E+03  6.352962E+03
       349   5 -2.477758E+05 -5.691210E+02 -2.143761E+04  3.026138E+04  2.067229E+04  8.105561E+03
       349   6 -2.530253E+05 -3.911863E+04 -4.665979E+04  4.276202E+04  3.200181E+04  2.836391E+03
       349   7 -1.310866E+05  3.147131E+04  1.387826E+04  4.824827E+04  1.439692E+04  6.351411E+03
       349   8 -6.207044E+04  4.485751E+04  1.992744E+04  2.338911E+04  1.899290E+04  8.105820E+03
       349   9 -2.362134E+03  2.322191E+04  1.423800E+04  2.354639E+04  2.358633E+04  2.839220E+03
       349  10 -3.749261E+05 -2.790789E+04 -3.915275E+04  3.731067E+04 -4.123485E-11 -2.089425E-11
       349  11 -4.334495E+05 -4.599811E+04 -6.280584E+04  3.713143E+04 -1.723587E-11 -7.157245E-11
       349  12 -5.036319E+05 -1.014628E+05 -1.075647E+05  6.196977E+04  2.231445E-10 -3.427282E-11
       349  13 -2.530135E+05  1.782093E+03 -1.263704E+04  4.277889E+04 -1.096098E-11  1.228187E-10
       349  14 -2.477763E+05 -5.693063E+02 -2.143853E+04  3.026125E+04  1.849842E-10  1.597971E-10
       349  15 -2.530264E+05 -3.911891E+04 -4.666173E+04  4.276194E+04  1.076695E-11  1.296487E-10
       349  16 -1.310869E+05  3.147121E+04  1.387780E+04  4.824820E+04  1.306262E-10  1.466270E-10
       349  17 -6.207084E+04  4.485734E+04  1.992664E+04  2.338899E+04 -2.194186E-10  9.321172E-11
       349  18 -2.362734E+03  2.322175E+04  1.423694E+04  2.354633E+04 -1.001559E-10  7.084504E-11
       349  19 -3.749261E+05 -2.790784E+04 -3.915264E+04  3.731069E+04 -4.283546E+03 -6.354602E+03
       349  20 -4.334489E+05 -4.599791E+04 -6.280478E+04  3.713158E+04 -2.235119E+04 -8.105339E+03
       349  21 -5.036302E+05 -1.014624E+05 -1.075617E+05  6.196987E+04 -4.041390E+04 -2.834083E+03
       349  22 -2.530134E+05  1.782160E+03 -1.263680E+04  4.277894E+04 -9.339741E+03 -6.352962E+03
       349  23 -2.477758E+05 -5.691210E+02 -2.143761E+04  3.026138E+04 -2.067229E+04 -8.105561E+03
       349  24 -2.530253E+05 -3.911863E+04 -4.665979E+04  4.276202E+04 -3.200181E+04 -2.836391E+03
       349  25 -1.310866E+05  3.147131E+04  1.387826E+04  4.824827E+04 -1.439692E+04 -6.351411E+03
       349  26 -6.207044E+04  4.485751E+04  1.992744E+04  2.338911E+04 -1.899290E+04 -8.105820E+03
       349  27 -2.362134E+03  2.322191E+04  1.423800E+04  2.354639E+04 -2.358633E+04 -2.839220E+03
       350   1 -1.703387E+05 -9.368303E+05 -1.763266E+05  1.069411E+05 -5.750696E+03 -5.591945E+04
       350   2 -9.129729E+04 -8.008354E+05 -1.064610E+05  6.748520E+04 -1.625083E+04 -2.985050E+04
       350   3 -5.689249E+04 -6.794625E+05 -6.475755E+04  7.810498E+04 -1.273778E+04 -3.788455E+03
       350   4 -4.582058E+04 -4.360987E+05 -5.461295E+04  8.491878E+04 -5.731872E+03 -3.912370E+04
       350   5 -5.541429E+02 -4.299324E+05 -2.380929E+04  5.985560E+04 -1.624611E+04 -2.648225E+04
       350   6  2.424858E+03 -4.360601E+05 -1.182221E+04  8.486967E+04 -1.274970E+04 -1.385364E+04
       350   7  7.868114E+04  6.486382E+04  6.708387E+04  6.287854E+04 -5.714250E+03 -2.231441E+04
       350   8  9.017990E+04 -5.890092E+04  5.883388E+04  5.222134E+04 -1.624147E+04 -2.311201E+04
       350   9  6.173849E+04 -1.926018E+05  4.110998E+04  9.163703E+04 -1.276185E+04 -2.392273E+04
       350  10 -1.703396E+05 -9.368337E+05 -1.763325E+05  1.069409E+05 -6.021729E-11  2.654357E-10
       350  11 -9.129781E+04 -8.008364E+05 -1.064632E+05  6.748481E+04  2.300389E-10 -1.221244E-11
       350  12 -5.689267E+04 -6.794626E+05 -6.475788E+04  7.810494E+04 -6.565710E-10 -2.344561E-10
       350  13 -4.582102E+04 -4.361003E+05 -5.461589E+04  8.491860E+04 -2.151086E-10  6.437748E-11
       350  14 -5.546147E+02 -4.299333E+05 -2.381111E+04  5.985525E+04  1.493377E-09 -1.457769E-10
       350  15  2.424632E+03 -4.360604E+05 -1.182288E+04  8.486953E+04 -3.039367E-10 -7.200101E-13
       350  16  7.868097E+04  6.486328E+04  6.708288E+04  6.287844E+04  2.759337E-10 -2.741649E-10
       350  17  9.017947E+04 -5.890157E+04  5.883238E+04  5.222104E+04  5.331731E-10 -3.322762E-11
       350  18  6.173816E+04 -1.926024E+05  4.110860E+04  9.163679E+04  1.568540E-10  3.500260E-10
       350  19 -1.703387E+05 -9.368303E+05 -1.763266E+05  1.069411E+05  5.750696E+03  5.591945E+04
       350  20 -9.129729E+04 -8.008354E+05 -1.064610E+05  6.748520E+04  1.625083E+04  2.985050E+04
       350  21 -5.689249E+04 -6.794625E+05 -6.475755E+04  7.810498E+04  1.273778E+04  3.788455E+03
       350  22 -4.582058E+04 -4.360987E+05 -5.461295E+04  8.491878E+04  5.731872E+03  3.912370E+04
       350  23 -5.541429E+02 -4.299324E+05 -2.380929E+04  5.985560E+04  1.624611E+04  2.648225E+04
       350  24  2.424858E+03 -4.360601E+05 -1.182221E+04  8.486967E+04  1.274970E+04  1.385364E+04
       350  25  7.868114E+04  6.486382E+04  6.708387E+04  6.287854E+04  5.714250E+03  2.231441E+04
       350  26  9.017990E+04 -5.890092E+04  5.883388E+04  5.222134E+04  1.624147E+04  2.311201E+04
       350  27  6.173849E+04 -1.926018E+05  4.110998E+04  9.163703E+04  1.276185E+04  2.392273E+04
       351   1 -3.663790E+04 -5.742144E+05 -3.853040E+04  8.520225E+04 -7.198242E+03 -6.129222E+03
       351   2 -2.837375E+03 -4.455399E+05 -2.104456E+03  6.001739E+04 -6.614769E+02 -6.383914E+03
       351   3  3.126725E+04 -3.168812E+05  3.452742E+04  8.553493E+04  5.902782E+03 -6.638791E+03
       351   4 -2.295435E+03 -4.333268E+05 -7.782310E+03  8.502308E+04 -7.205966E+03 -1.238862E+04
       351   5  1.382627E+02 -4.333123E+05  5.454636E+02  5.966872E+04 -6.692489E+02 -1.266946E+04
       351   6  2.882133E+03 -4.333233E+05  9.099345E+03  8.501668E+04  5.894905E+03 -1.295044E+04
       351   7  3.204573E+04 -2.924205E+05  2.296473E+04  8.484385E+04 -7.213686E+03 -1.864943E+04
       351   8  3.113912E+03 -4.210844E+05  3.195523E+03  5.932004E+04 -6.770136E+02 -1.895513E+04
       351   9 -2.550387E+04 -5.497526E+05 -1.632940E+04  8.449851E+04  5.887039E+03 -1.926091E+04
       351  10 -3.663797E+04 -5.742144E+05 -3.853057E+04  8.520222E+04 -1.203966E-10  5.343462E-10
       351  11 -2.837387E+03 -4.455400E+05 -2.104534E+03  6.001739E+04 -7.488024E-11  2.513461E-10
       351  12  3.126720E+04 -3.168812E+05  3.452728E+04  8.553496E+04  5.969517E-10 -9.163459E-11
       351  13 -2.295532E+03 -4.333270E+05 -7.782696E+03  8.502300E+04 -1.292391E-12 -2.088147E-11
       351  14  1.382191E+02 -4.333125E+05  5.451609E+02  5.966871E+04 -7.633518E-10  1.092742E-10
       351  15  2.882050E+03 -4.333235E+05  9.098964E+03  8.501674E+04 -8.273725E-10  1.562141E-10
       351  16  3.204558E+04 -2.924209E+05  2.296398E+04  8.484374E+04 -2.933360E-11 -6.048152E-10
       351  17  3.113815E+03 -4.210848E+05  3.194847E+03  5.932003E+04  4.884151E-10 -2.792774E-10
       351  18 -2.550400E+04 -5.497530E+05 -1.633017E+04  8.449861E+04  3.277019E-10  2.044368E-11
       351  19 -3.663790E+04 -5.742144E+05 -3.853040E+04  8.520225E+04  7.198242E+03  6.129222E+03
       351  20 -2.837375E+03 -4.455399E+05 -2.104456E+03  6.001739E+04  6.614769E+02  6.383914E+03
       351  21  3.126725E+04 -3.168812E+05  3.452742E+04  8.553493E+04 -5.902782E+03  6.638791E+03
       351  22 -2.295435E+03 -4.333268E+05 -7.782310E+03  8.502308E+04  7.205966E+03  1.238862E+04
       351  23  1.382627E+02 -4.333123E+05  5.454636E+02  5.966872E+04  6.692489E+02  1.266946E+04
       351  24  2.882133E+03 -4.333233E+05  9.099345E+03  8.501668E+04 -5.894905E+03  1.295044E+04
       351  25  3.204573E+04 -2.924205E+05  2.296473E+04  8.484385E+04  7.213686E+03  1.864943E+04
       351  26  3.113912E+03 -4.210844E+05  3.195523E+03  5.932004E+04  6.770136E+02  1.895513E+04
       351  27 -2.550387E+04 -5.497526E+05 -1.632940E+04  8.449851E+04 -5.887039E+03  1.926091E+04
       352   1  5.110148E+04 -2.113633E+05  6.096929E+04  7.797550E+04  1.139962E+04 -4.726870E+03
       352   2  8.561694E+04 -9.044559E+04  1.033482E+05  6.874125E+04  1.503043E+04 -3.141013E+04
       352   3  1.686208E+05  4.599650E+04  1.752013E+05  1.095686E+05  5.282175E+03 -5.808604E+04
       352   4 -2.223609E+03 -4.303736E+05  1.333046E+04  8.488985E+04  1.138765E+04 -1.465854E+04
       352   5  8.069937E+02 -4.370261E+05  2.609114E+04  5.983261E+04  1.503469E+04 -2.849303E+04
       352   6  5.011097E+04 -4.303881E+05  5.941153E+04  8.483546E+04  5.300656E+03 -4.231451E+04
       352   7 -5.555165E+04 -6.493385E+05 -3.431085E+04  9.180171E+04  1.137545E+04 -2.458676E+04
       352   8 -8.401082E+04 -7.834944E+05 -5.117335E+04  5.092896E+04  1.503885E+04 -2.557753E+04
       352   9 -6.841317E+04 -9.065636E+05 -5.639342E+04  6.012125E+04  5.317888E+03 -2.655503E+04
       352  10  5.110134E+04 -2.113633E+05  6.096901E+04  7.797555E+04 -5.179830E-11 -4.232924E-12
       352  11  8.561644E+04 -9.044671E+04  1.033459E+05  6.874163E+04 -2.383464E-10 -6.255470E-11
       352  12  1.686199E+05  4.599287E+04  1.751949E+05  1.095689E+05  2.158500E-10 -8.359693E-11
       352  13 -2.223806E+03 -4.303738E+05  1.332981E+04  8.488999E+04  8.627382E-10 -6.359093E-11
       352  14  8.065328E+02 -4.370270E+05  2.608919E+04  5.983295E+04 -4.095485E-10  6.746258E-11
       352  15  5.011046E+04 -4.303900E+05  5.940811E+04  8.483564E+04  2.165768E-10 -6.058436E-11
       352  16 -5.555195E+04 -6.493392E+05 -3.431224E+04  9.180193E+04 -1.824405E-10  8.394522E-11
       352  17 -8.401124E+04 -7.834951E+05 -5.117500E+04  5.092927E+04 -1.219645E-10  2.087300E-10
       352  18 -6.841339E+04 -9.065644E+05 -5.639481E+04  6.012137E+04  3.185019E-10  7.413122E-12
       352  19  5.110148E+04 -2.113633E+05  6.096929E+04  7.797550E+04 -1.139962E+04  4.726870E+03
       352  20  8.561694E+04 -9.044559E+04  1.033482E+05  6.874125E+04 -1.503043E+04  3.141013E+04
       352  21  1.686208E+05  4.599650E+04  1.752013E+05  1.095686E+05 -5.282175E+03  5.808604E+04
       352  22 -2.223609E+03 -4.303736E+05  1.333046E+04  8.488985E+04 -1.138765E+04  1.465854E+04
       352  23  8.069937E+02 -4.370261E+05  2.609114E+04  5.983261E+04 -1.503469E+04  2.849303E+04
       352  24  5.011097E+04 -4.303881E+05  5.941153E+04  8.483546E+04 -5.300656E+03  4.231451E+04
       352  25 -5.555165E+04 -6.493385E+05 -3.431085E+04  9.180171E+04 -1.137545E+04  2.458676E+04
       352  26 -8.401082E+04 -7.834944E+05 -5.117335E+04  5.092896E+04 -1.503885E+04  2.557753E+04
       352  27 -6.841317E+04 -9.065636E+05 -5.639342E+04  6.012125E+04 -5.317888E+03  2.655503E+04
       353   1  2.736726E+05  2.714896E+05  1.304960E+05  1.612345E+05  5.507545E+04  3.821820E+04
       353   2  2.558741E+05  1.901027E+05  7.681790E+04  1.792869E+05  3.770670E+04  1.860442E+04
       353   3  2.709141E+05  1.644905E+05  5.689322E+04  1.757863E+05  1.751742E+04  2.759381E+03
       353   4  1.763830E+05  1.438541E+05  8.697926E+04  8.619688E+04  4.919530E+04  3.381024E+04
       353   5  1.466641E+05  9.194334E+04  3.998381E+04  1.152608E+05  3.544722E+04  1.691110E+04
       353   6  1.490048E+05  9.502736E+04  2.360606E+04  1.227696E+05  1.887866E+04  3.779032E+03
       353   7  7.910617E+04  1.624303E+04  4.346152E+04  1.117736E+04  4.331641E+04  2.940427E+04
       353   8  3.746772E+04 -6.203502E+03  3.148358E+03  5.124918E+04  3.318828E+04  1.521833E+04
       353   9  2.711204E+04  2.556909E+04 -9.682418E+03  6.976360E+04  2.023953E+04  4.798478E+03
       353  10  2.736689E+05  2.714873E+05  1.304876E+05  1.612328E+05 -8.281224E-11 -7.200029E-11
       353  11  2.558725E+05  1.901019E+05  7.681458E+04  1.792864E+05  4.929589E-10  2.800836E-10
       353  12  2.709138E+05  1.644904E+05  5.689263E+04  1.757863E+05  3.192535E-10  3.926604E-10
       353  13  1.763801E+05  1.438522E+05  8.697257E+04  8.619554E+04  3.464895E-10  9.435546E-11
       353  14  1.466626E+05  9.194270E+04  3.998092E+04  1.152603E+05 -3.506999E-10  1.755238E-10
       353  15  1.490045E+05  9.502725E+04  2.360537E+04  1.227696E+05 -1.471417E-10  1.206884E-11
       353  16  7.910392E+04  1.624160E+04  4.345637E+04  1.117633E+04  3.549822E-10  2.629115E-10
       353  17  3.746647E+04 -6.204046E+03  3.145853E+03  5.124877E+04 -1.454181E-10  1.029453E-10
       353  18  2.711159E+04  2.556895E+04 -9.683231E+03  6.976352E+04  1.153994E-10 -3.542090E-10
       353  19  2.736726E+05  2.714896E+05  1.304960E+05  1.612345E+05 -5.507545E+04 -3.821820E+04
       353  20  2.558741E+05  1.901027E+05  7.681790E+04  1.792869E+05 -3.770670E+04 -1.860442E+04
       353  21  2.709141E+05  1.644905E+05  5.689322E+04  1.757863E+05 -1.751742E+04 -2.759381E+03
       353  22  1.763830E+05  1.438541E+05  8.697926E+04  8.619688E+04 -4.919530E+04 -3.381024E+04
       353  23  1.466641E+05  9.194334E+04  3.998381E+04  1.152608E+05 -3.544722E+04 -1.691110E+04
       353  24  1.490048E+05  9.502736E+04  2.360606E+04  1.227696E+05 -1.887866E+04 -3.779032E+03
       353  25  7.910617E+04  1.624303E+04  4.346152E+04  1.117736E+04 -4.331641E+04 -2.940427E+04
       353  26  3.746772E+04 -6.203502E+03  3.148358E+03  5.124918E+04 -3.318828E+04 -1.521833E+04
       353  27  2.711204E+04  2.556909E+04 -9.682418E+03  6.976360E+04 -2.023953E+04 -4.798478E+03
       354   1  2.521460E+05  1.733557E+05  5.010841E+04  1.699050E+05  1.541682E+04  2.207856E+03
       354   2  2.441423E+05  1.604902E+05  3.917754E+04  1.656145E+05  1.056879E+04 -8.138040E+02
       354   3  2.336204E+05  1.555221E+05  3.287857E+04  1.617900E+05  5.593374E+03 -3.665418E+03
       354   4  1.489544E+05  9.817850E+04  1.893039E+04  1.174591E+05  1.570860E+04  2.426212E+03
       354   5  1.495252E+05  9.298900E+04  1.095578E+04  1.181692E+05  1.102475E+04 -4.723989E+02
       354   6  1.475427E+05  9.566170E+04  7.471406E+03  1.193452E+05  6.213454E+03 -3.201000E+03
       354   7  4.577337E+04  2.300686E+04 -1.224921E+04  6.502258E+04  1.600033E+04  2.644518E+03
       354   8  5.491781E+04  2.549291E+04 -1.726698E+04  7.073209E+04  1.148061E+04 -1.310651E+02
       354   9  6.147405E+04  3.580585E+04 -1.793628E+04  7.690742E+04  6.833411E+03 -2.736671E+03
       354  10  2.521457E+05  1.733557E+05  5.010795E+04  1.699050E+05 -2.494994E-10  3.005231E-11
       354  11  2.441422E+05  1.604901E+05  3.917733E+04  1.656145E+05  2.454115E-11  2.680121E-11
       354  12  2.336203E+05  1.555221E+05  3.287849E+04  1.617900E+05 -7.808228E-12  7.633133E-11
       354  13  1.489541E+05  9.817843E+04  1.892992E+04  1.174590E+05  5.424665E-10 -3.581791E-11
       354  14  1.495250E+05  9.298896E+04  1.095555E+04  1.181692E+05 -5.460194E-10  3.300302E-11
       354  15  1.475427E+05  9.566168E+04  7.471314E+03  1.193452E+05  2.082939E-10  2.050354E-10
       354  16  4.577310E+04  2.300678E+04 -1.224970E+04  6.502255E+04  2.454944E-10 -1.516501E-10
       354  17  5.491767E+04  2.549288E+04 -1.726723E+04  7.073210E+04  1.805204E-10  2.767852E-11
       354  18  6.147400E+04  3.580583E+04 -1.793638E+04  7.690744E+04  3.692532E-11  2.795923E-10
       354  19  2.521460E+05  1.733557E+05  5.010841E+04  1.699050E+05 -1.541682E+04 -2.207856E+03
       354  20  2.441423E+05  1.604902E+05  3.917754E+04  1.656145E+05 -1.056879E+04  8.138040E+02
       354  21  2.336204E+05  1.555221E+05  3.287857E+04  1.617900E+05 -5.593374E+03  3.665418E+03
       354  22  1.489544E+05  9.817850E+04  1.893039E+04  1.174591E+05 -1.570860E+04 -2.426212E+03
       354  23  1.495252E+05  9.298900E+04  1.095578E+04  1.181692E+05 -1.102475E+04  4.723989E+02
       354  24  1.475427E+05  9.566170E+04  7.471406E+03  1.193452E+05 -6.213454E+03  3.201000E+03
       354  25  4.577337E+04  2.300686E+04 -1.224921E+04  6.502258E+04 -1.600033E+04 -2.644518E+03
       354  26  5.491781E+04  2.549291E+04 -1.726698E+04  7.073209E+04 -1.148061E+04  1.310651E+02
       354  27  6.147405E+04  3.580585E+04 -1.793628E+04  7.690742E+04 -6.833411E+03  2.736671E+03
       355   1  2.253956E+05  1.509822E+05  2.978064E+04  1.579567E+05  4.362416E+03 -4.013190E+03
       355   2  2.181329E+05  1.416094E+05  2.677747E+04  1.524878E+05  1.349997E+03 -5.335826E+03
       355   3  2.064966E+05  1.376909E+05  2.599226E+04  1.484704E+05 -1.667878E+03 -6.651270E+03
       355   4  1.475118E+05  9.579218E+04  6.669663E+03  1.190661E+05  4.933471E+03 -3.585468E+03
       355   5  1.497183E+05  9.309892E+04  6.446560E+03  1.183158E+05  1.928339E+03 -4.902596E+03
       355   6  1.475495E+05  9.585858E+04  8.435323E+03  1.190170E+05 -1.082316E+03 -6.212578E+03
       355   7  6.963469E+04  4.060557E+04 -1.644200E+04  8.018103E+04  5.504428E+03 -3.157818E+03
       355   8  8.130841E+04  4.459080E+04 -1.388500E+04  8.414782E+04  2.506597E+03 -4.469428E+03
       355   9  8.860547E+04  5.402779E+04 -9.122217E+03  8.956639E+04 -4.968235E+02 -5.773938E+03
       355  10  2.253956E+05  1.509821E+05  2.978057E+04  1.579567E+05  2.489105E-10  3.602796E-10
       355  11  2.181329E+05  1.416094E+05  2.677742E+04  1.524878E+05  6.876069E-10  6.725415E-11
       355  12  2.064966E+05  1.376908E+05  2.599218E+04  1.484704E+05  2.119177E-10 -5.142367E-11
       355  13  1.475118E+05  9.579216E+04  6.669593E+03  1.190661E+05  2.004962E-10  1.387657E-10
       355  14  1.497183E+05  9.309889E+04  6.446507E+03  1.183158E+05  6.994995E-11  5.172037E-11
       355  15  1.475495E+05  9.585854E+04  8.435248E+03  1.190169E+05 -1.060065E-11  7.905627E-11
       355  16  6.963465E+04  4.060555E+04 -1.644208E+04  8.018104E+04 -9.184952E-10 -9.659138E-12
       355  17  8.130839E+04  4.459078E+04 -1.388505E+04  8.414783E+04 -5.031627E-10  8.436181E-12
       355  18  8.860546E+04  5.402775E+04 -9.122280E+03  8.956639E+04  2.363458E-10  1.387486E-10
       355  19  2.253956E+05  1.509822E+05  2.978064E+04  1.579567E+05 -4.362416E+03  4.013190E+03
       355  20  2.181329E+05  1.416094E+05  2.677747E+04  1.524878E+05 -1.349997E+03  5.335826E+03
       355  21  2.064966E+05  1.376909E+05  2.599226E+04  1.484704E+05  1.667878E+03  6.651270E+03
       355  22  1.475118E+05  9.579218E+04  6.669663E+03  1.190661E+05 -4.933471E+03  3.585468E+03
       355  23  1.497183E+05  9.309892E+04  6.446560E+03  1.183158E+05 -1.928339E+03  4.902596E+03
       355  24  1.475495E+05  9.585858E+04  8.435323E+03  1.190170E+05  1.082316E+03  6.212578E+03
       355  25  6.963469E+04  4.060557E+04 -1.644200E+04  8.018103E+04 -5.504428E+03  3.157818E+03
       355  26  8.130841E+04  4.459080E+04 -1.388500E+04  8.414782E+04 -2.506597E+03  4.469428E+03
       355  27  8.860547E+04  5.402779E+04 -9.122217E+03  8.956639E+04  4.968235E+02  5.773938E+03
       356   1  1.980711E+05  1.331699E+05  2.550433E+04  1.455114E+05 -3.251408E+03 -7.285429E+03
       356   2  1.918726E+05  1.222044E+05  2.901639E+04  1.389223E+05 -1.033713E+04 -1.164638E+04
       356   3  1.844885E+05  1.207933E+05  3.937934E+04  1.321885E+05 -1.742494E+04 -1.600424E+04
       356   4  1.476308E+05  9.565253E+04  1.024573E+04  1.194993E+05 -2.669257E+03 -6.849254E+03
       356   5  1.493506E+05  9.288257E+04  1.652421E+04  1.180678E+05 -9.751604E+03 -1.120769E+04
       356   6  1.498840E+05  9.966627E+04  2.965091E+04  1.164913E+05 -1.683619E+04 -1.556318E+04
       356   7  9.719374E+04  5.813720E+04 -5.012968E+03  9.348997E+04 -2.087176E+03 -6.413134E+03
       356   8  1.068308E+05  6.356187E+04  4.031913E+03  9.721493E+04 -9.166140E+03 -1.076903E+04
       356   9  1.152809E+05  7.853975E+04  1.992236E+04  1.007949E+05 -1.624749E+04 -1.512215E+04
       356  10  1.980711E+05  1.331698E+05  2.550421E+04  1.455114E+05  5.010637E-10  1.285599E-10
       356  11  1.918724E+05  1.222042E+05  2.901593E+04  1.389222E+05  1.836387E-10 -1.152849E-10
       356  12  1.844881E+05  1.207929E+05  3.937829E+04  1.321883E+05 -4.235492E-10 -2.229218E-10
       356  13  1.476308E+05  9.565248E+04  1.024563E+04  1.194993E+05 -3.671351E-10 -3.061111E-11
       356  14  1.493505E+05  9.288241E+04  1.652379E+04  1.180677E+05  6.248685E-11 -1.139372E-10
       356  15  1.498836E+05  9.966593E+04  2.964992E+04  1.164910E+05 -3.319357E-10  8.351685E-11
       356  16  9.719372E+04  5.813715E+04 -5.013053E+03  9.348996E+04 -2.342777E-10 -6.861262E-11
       356  17  1.068307E+05  6.356172E+04  4.031537E+03  9.721485E+04  4.949897E-11 -1.897208E-10
       356  18  1.152805E+05  7.853944E+04  1.992143E+04  1.007947E+05  3.944230E-10 -3.002122E-12
       356  19  1.980711E+05  1.331699E+05  2.550433E+04  1.455114E+05  3.251408E+03  7.285429E+03
       356  20  1.918726E+05  1.222044E+05  2.901639E+04  1.389223E+05  1.033713E+04  1.164638E+04
       356  21  1.844885E+05  1.207933E+05  3.937934E+04  1.321885E+05  1.742494E+04  1.600424E+04
       356  22  1.476308E+05  9.565253E+04  1.024573E+04  1.194993E+05  2.669257E+03  6.849254E+03
       356  23  1.493506E+05  9.288257E+04  1.652421E+04  1.180678E+05  9.751604E+03  1.120769E+04
       356  24  1.498840E+05  9.966627E+04  2.965091E+04  1.164913E+05  1.683619E+04  1.556318E+04
       356  25  9.719374E+04  5.813720E+04 -5.012968E+03  9.348997E+04  2.087176E+03  6.413134E+03
       356  26  1.068308E+05  6.356187E+04  4.031913E+03  9.721493E+04  9.166140E+03  1.076903E+04
       356  27  1.152809E+05  7.853975E+04  1.992236E+04  1.007949E+05  1.624749E+04  1.512215E+04
       357   1  1.593399E+05  1.282101E+05  4.467284E+04  1.421200E+05 -2.186939E+04 -1.879358E+04
       357   2  1.800031E+05  8.281767E+04  6.823414E+04  1.155573E+05 -4.929403E+04 -3.836316E+04
       357   3  2.544343E+05  1.224100E+05  1.405947E+05  5.384519E+04 -7.677317E+04 -5.785895E+04
       357   4  1.499045E+05  9.471817E+04  3.724436E+04  1.249805E+05 -2.130160E+04 -1.836717E+04
       357   5  1.448659E+05  9.112586E+04  6.355450E+04  1.134066E+05 -4.865643E+04 -3.788791E+04
       357   6  1.935770E+05  1.725012E+05  1.386046E+05  6.668368E+04 -7.606376E+04 -5.733833E+04
       357   7  1.404695E+05  6.122804E+04  2.981589E+04  1.078415E+05 -2.073382E+04 -1.794081E+04
       357   8  1.097307E+05  9.943483E+04  5.887503E+04  1.112556E+05 -4.801889E+04 -3.741264E+04
       357   9  1.327294E+05  2.226018E+05  1.366163E+05  7.951946E+04 -7.535446E+04 -5.681759E+04
       357  10  1.593393E+05  1.282096E+05  4.467128E+04  1.421197E+05 -7.574166E-10 -1.294309E-10
       357  11  1.800001E+05  8.281544E+04  6.822681E+04  1.155557E+05 -5.007149E-10  6.901781E-11
       357  12  2.544271E+05  1.224048E+05  1.405773E+05  5.384161E+04 -9.763174E-12  3.265049E-10
       357  13  1.499039E+05  9.471769E+04  3.724287E+04  1.249802E+05 -3.686969E-10  7.649524E-11
       357  14  1.448630E+05  9.112368E+04  6.354736E+04  1.134051E+05 -3.047342E-10  3.426508E-10
       357  15  1.935699E+05  1.724961E+05  1.385876E+05  6.668017E+04  2.374510E-10  5.606410E-11
       357  16  1.404690E+05  6.122758E+04  2.981447E+04  1.078412E+05  3.793522E-10  3.859009E-10
       357  17  1.097278E+05  9.943271E+04  5.886807E+04  1.112542E+05  2.916925E-11  4.251369E-10
       357  18  1.327225E+05  2.225968E+05  1.365995E+05  7.951602E+04  2.635446E-11  1.169435E-10
       357  19  1.593399E+05  1.282101E+05  4.467284E+04  1.421200E+05  2.186939E+04  1.879358E+04
       357  20  1.800031E+05  8.281767E+04  6.823414E+04  1.155573E+05  4.929403E+04  3.836316E+04
       357  21  2.544343E+05  1.224100E+05  1.405947E+05  5.384519E+04  7.677317E+04  5.785895E+04
       357  22  1.499045E+05  9.471817E+04  3.724436E+04  1.249805E+05  2.130160E+04  1.836717E+04
       357  23  1.448659E+05  9.112586E+04  6.355450E+04  1.134066E+05  4.865643E+04  3.788791E+04
       357  24  1.935770E+05  1.725012E+05  1.386046E+05  6.668368E+04  7.606376E+04  5.733833E+04
       357  25  1.404695E+05  6.122804E+04  2.981589E+04  1.078415E+05  2.073382E+04  1.794081E+04
       357  26  1.097307E+05  9.943483E+04  5.887503E+04  1.112556E+05  4.801889E+04  3.741264E+04
       357  27  1.327294E+05  2.226018E+05  1.366163E+05  7.951946E+04  7.535446E+04  5.681759E+04
       358   1  2.145130E+05  7.924847E+04  6.759100E+04  3.437736E+04 -1.754335E+04 -6.129781E+03
       358   2  1.345514E+05  9.981231E+04  6.667075E+04  3.200209E+04 -1.752954E+04 -1.851788E+04
       358   3  4.501593E+04  8.171761E+04  5.609177E+04  6.234784E+04 -1.751022E+04 -1.741910E+04
       358   4 -2.824878E+05 -4.426114E+04 -5.283133E+04  5.618014E+04 -3.589504E+04 -6.123612E+03
       358   5 -2.765560E+05 -6.610356E+02 -2.453779E+04  3.982546E+04 -2.293836E+04 -1.851753E+04
       358   6 -2.824611E+05  2.018507E+03 -1.489934E+04  5.619467E+04 -9.975926E+03 -1.742056E+04
       358   7 -7.792611E+05 -1.677869E+05 -1.732699E+05  7.796543E+04 -5.423208E+04 -6.118731E+03
       358   8 -6.875054E+05 -1.011456E+05 -1.157567E+05  4.764359E+04 -2.834365E+04 -1.851731E+04
       358   9 -6.098374E+05 -7.768752E+04 -8.589659E+04  5.004479E+04 -2.445556E+03 -1.742217E+04
       358  10  2.145126E+05  7.924835E+04  6.759035E+04  3.437728E+04 -6.994143E-11 -5.214061E-11
       358  11  1.345510E+05  9.981186E+04  6.666952E+04  3.200183E+04  5.262881E-10  4.645069E-11
       358  12  4.501552E+04  8.171720E+04  5.609062E+04  6.234760E+04  4.211161E-11  2.996177E-10
       358  13 -2.824891E+05 -4.426152E+04 -5.283383E+04  5.617997E+04 -1.150483E-10  7.797749E-11
       358  14 -2.765566E+05 -6.615450E+02 -2.453943E+04  3.982512E+04  6.713511E-11  1.529435E-10
       358  15 -2.824613E+05  2.018154E+03 -1.490009E+04  5.619453E+04  4.204824E-10  8.003726E-11
       358  16 -7.792643E+05 -1.677877E+05 -1.732755E+05  7.796516E+04 -6.850644E-11  7.941903E-11
       358  17 -6.875064E+05 -1.011462E+05 -1.157589E+05  4.764317E+04  3.130016E-10  1.110727E-10
       358  18 -6.098375E+05 -7.768785E+04 -8.589717E+04  5.004475E+04  1.425015E-10  4.103645E-11
       358  19  2.145130E+05  7.924847E+04  6.759100E+04  3.437736E+04  1.754335E+04  6.129781E+03
       358  20  1.345514E+05  9.981231E+04  6.667075E+04  3.200209E+04  1.752954E+04  1.851788E+04
       358  21  4.501593E+04  8.171761E+04  5.609177E+04  6.234784E+04  1.751022E+04  1.741910E+04
       358  22 -2.824878E+05 -4.426114E+04 -5.283133E+04  5.618014E+04  3.589504E+04  6.123612E+03
       358  23 -2.765560E+05 -6.610356E+02 -2.453779E+04  3.982546E+04  2.293836E+04  1.851753E+04
       358  24 -2.824611E+05  2.018507E+03 -1.489934E+04  5.619467E+04  9.975926E+03  1.742056E+04
       358  25 -7.792611E+05 -1.677869E+05 -1.732699E+05  7.796543E+04  5.423208E+04  6.118731E+03
       358  26 -6.875054E+05 -1.011456E+05 -1.157567E+05  4.764359E+04  2.834365E+04  1.851731E+04
       358  27 -6.098374E+05 -7.768752E+04 -8.589659E+04  5.004479E+04  2.445556E+03  1.742217E+04
       359   1 -2.020907E+04  6.102305E+04  4.428122E+04  5.546958E+04 -1.153748E+04 -1.346569E+04
       359   2 -1.044447E+05  4.267604E+04  2.988986E+04  3.939260E+04 -8.067563E+03 -9.302766E+03
       359   3 -1.896767E+05  2.203688E+04  1.267078E+04  5.670557E+04 -4.599056E+03 -4.548265E+03
       359   4 -2.800682E+05 -2.268838E+03 -1.227774E+04  5.633902E+04 -7.822904E+03 -1.346639E+04
       359   5 -2.795118E+05  6.302257E+01 -8.071904E+03  3.964376E+04 -3.786825E+03 -9.303090E+03
       359   6 -2.800588E+05  3.980190E+00 -7.088168E+03  5.633912E+04  2.482970E+02 -4.548120E+03
       359   7 -5.398640E+05 -6.556520E+04 -6.884069E+04  5.720809E+04 -4.109864E+03 -1.346708E+04
       359   8 -4.545502E+05 -4.255201E+04 -4.603543E+04  3.989485E+04  4.927219E+02 -9.303411E+03
       359   9 -3.704333E+05 -2.202946E+04 -2.684753E+04  5.597273E+04  5.094954E+03 -4.547980E+03
       359  10 -2.020926E+04  6.102282E+04  4.428063E+04  5.546946E+04  5.566552E-10  1.360074E-10
       359  11 -1.044448E+05  4.267593E+04  2.988958E+04  3.939254E+04  4.291350E-10 -2.978001E-10
       359  12 -1.896767E+05  2.203686E+04  1.267071E+04  5.670555E+04 -1.136115E-10 -3.644085E-11
       359  13 -2.800683E+05 -2.269049E+03 -1.227819E+04  5.633894E+04  3.808141E-10  2.100142E-11
       359  14 -2.795119E+05  6.292580E+01 -8.072094E+03  3.964373E+04  3.064022E-10 -3.804557E-10
       359  15 -2.800588E+05  3.957964E+00 -7.088207E+03  5.633912E+04 -9.050171E-11 -5.529447E-11
       359  16 -5.398641E+05 -6.556540E+04 -6.884107E+04  5.720804E+04 -5.993300E-10 -1.415854E-10
       359  17 -4.545502E+05 -4.255210E+04 -4.603559E+04  3.989485E+04 -1.171348E-10 -2.173897E-10
       359  18 -3.704333E+05 -2.202949E+04 -2.684761E+04  5.597275E+04  1.206679E-10 -2.666723E-11
       359  19 -2.020907E+04  6.102305E+04  4.428122E+04  5.546958E+04  1.153748E+04  1.346569E+04
       359  20 -1.044447E+05  4.267604E+04  2.988986E+04  3.939260E+04  8.067563E+03  9.302766E+03
       359  21 -1.896767E+05  2.203688E+04  1.267078E+04  5.670557E+04  4.599056E+03  4.548265E+03
       359  22 -2.800682E+05 -2.268838E+03 -1.227774E+04  5.633902E+04  7.822904E+03  1.346639E+04
       359  23 -2.795118E+05  6.302257E+01 -8.071904E+03  3.964376E+04  3.786825E+03  9.303090E+03
       359  24 -2.800588E+05  3.980190E+00 -7.088168E+03  5.633912E+04 -2.482970E+02  4.548120E+03
       359  25 -5.398640E+05 -6.556520E+04 -6.884069E+04  5.720809E+04  4.109864E+03  1.346708E+04
       359  26 -4.545502E+05 -4.255201E+04 -4.603543E+04  3.989485E+04 -4.927219E+02  9.303411E+03
       359  27 -3.704333E+05 -2.202946E+04 -2.684753E+04  5.597273E+04 -5.094954E+03  4.547980E+03
       360   1 -2.570877E+05  5.648876E+03 -2.609265E+03  5.579959E+04 -3.287593E+03 -1.575702E+03
       360   2 -3.410891E+05 -1.494031E+04 -2.313354E+04  3.992453E+04  2.011086E+03  3.210127E+03
       360   3 -4.265733E+05 -3.875104E+04 -4.791390E+04  5.745604E+04  7.309425E+03  7.542116E+03
       360   4 -2.801257E+05  8.462196E+01 -7.385840E+03  5.634262E+04  1.522803E+03 -1.575469E+03
       360   5 -2.794216E+05  8.069739E+01 -9.717434E+03  3.963941E+04  6.386100E+03  3.210177E+03
       360   6 -2.801297E+05 -3.068096E+03 -1.600158E+04  5.634265E+04  1.124975E+04  7.542014E+03
       360   7 -3.031632E+05 -5.479652E+03 -1.216236E+04  5.688564E+04  6.333024E+03 -1.575227E+03
       360   8 -2.177506E+05  1.510146E+04  3.698519E+03  3.935426E+04  1.076154E+04  3.210223E+03
       360   9 -1.336659E+05  3.261344E+04  1.590951E+04  5.522900E+04  1.519100E+04  7.541898E+03
       360  10 -2.570877E+05  5.648870E+03 -2.609290E+03  5.579958E+04  3.141265E-10  5.803036E-11
       360  11 -3.410891E+05 -1.494032E+04 -2.313357E+04  3.992453E+04  4.311213E-10  7.347084E-11
       360  12 -4.265734E+05 -3.875112E+04 -4.791411E+04  5.745599E+04  2.557915E-10  1.830221E-10
       360  13 -2.801257E+05  8.461867E+01 -7.385849E+03  5.634263E+04 -1.095213E-10  1.634813E-10
       360  14 -2.794217E+05  8.067537E+01 -9.717530E+03  3.963940E+04  5.632025E-10  1.450153E-11
       360  15 -2.801298E+05 -3.068191E+03 -1.600192E+04  5.634258E+04 -2.461193E-11  3.254342E-11
       360  16 -3.031632E+05 -5.479665E+03 -1.216244E+04  5.688565E+04 -3.758666E-10  9.165809E-11
       360  17 -2.177507E+05  1.510142E+04  3.698282E+03  3.935424E+04 -4.793942E-11 -9.213744E-11
       360  18 -1.336662E+05  3.261331E+04  1.590897E+04  5.522891E+04 -1.121248E-10  1.047919E-10
       360  19 -2.570877E+05  5.648876E+03 -2.609265E+03  5.579959E+04  3.287593E+03  1.575702E+03
       360  20 -3.410891E+05 -1.494031E+04 -2.313354E+04  3.992453E+04 -2.011086E+03 -3.210127E+03
       360  21 -4.265733E+05 -3.875104E+04 -4.791390E+04  5.745604E+04 -7.309425E+03 -7.542116E+03
       360  22 -2.801257E+05  8.462196E+01 -7.385840E+03  5.634262E+04 -1.522803E+03  1.575469E+03
       360  23 -2.794216E+05  8.069739E+01 -9.717434E+03  3.963941E+04 -6.386100E+03 -3.210177E+03
       360  24 -2.801297E+05 -3.068096E+03 -1.600158E+04  5.634265E+04 -1.124975E+04 -7.542014E+03
       360  25 -3.031632E+05 -5.479652E+03 -1.216236E+04  5.688564E+04 -6.333024E+03  1.575227E+03
       360  26 -2.177506E+05  1.510146E+04  3.698519E+03  3.935426E+04 -1.076154E+04 -3.210223E+03
       360  27 -1.336659E+05  3.261344E+04  1.590951E+04  5.522900E+04 -1.519100E+04 -7.541898E+03
       361   1 -4.974048E+05 -4.933384E+04 -6.623800E+04  4.779150E+04  7.128944E+03  1.127048E+04
       361   2 -5.732006E+05 -7.370989E+04 -9.939315E+04  5.031252E+04  3.481478E+04  1.319411E+04
       361   3 -6.669248E+05 -1.555538E+05 -1.649431E+05  8.572027E+04  6.249395E+04  4.507701E+03
       361   4 -2.834104E+05  2.778798E+03 -1.975937E+04  5.623055E+04  1.406936E+04  1.127013E+04
       361   5 -2.753430E+05 -8.553148E+02 -3.313931E+04  3.978076E+04  3.158293E+04  1.319348E+04
       361   6 -2.834335E+05 -6.017549E+04 -7.183684E+04  5.621969E+04  4.909393E+04  4.507388E+03
       361   7 -6.937283E+04  5.488869E+04  2.671674E+04  6.467254E+04  2.101215E+04  1.126997E+04
       361   8  2.259758E+04  7.199367E+04  3.310909E+04  2.924388E+04  2.834954E+04  1.319297E+04
       361   9  1.001943E+05  3.519532E+04  2.125995E+04  2.670081E+04  3.568563E+04  4.508350E+03
       361  10 -4.974049E+05 -4.933399E+04 -6.623833E+04  4.779143E+04 -1.472537E-10  6.435289E-11
       361  11 -5.732019E+05 -7.371041E+04 -9.939575E+04  5.031215E+04  6.353944E-11  3.554819E-10
       361  12 -6.669290E+05 -1.555548E+05 -1.649505E+05  8.572004E+04  1.704141E-10  5.391456E-11
       361  13 -2.834107E+05  2.778609E+03 -1.975998E+04  5.623042E+04  1.346151E-10 -2.657163E-11
       361  14 -2.753442E+05 -8.557696E+02 -3.314151E+04  3.978042E+04  3.979367E-10  1.430547E-10
       361  15 -2.834361E+05 -6.017616E+04 -7.184141E+04  5.621951E+04  1.167642E-10  1.581516E-10
       361  16 -6.937334E+04  5.488844E+04  2.671567E+04  6.467235E+04  1.596100E-10  7.889573E-11
       361  17  2.259667E+04  7.199327E+04  3.310725E+04  2.924358E+04  2.908029E-10  5.779758E-14
       361  18  1.001930E+05  3.519496E+04  2.125751E+04  2.670068E+04 -5.842024E-11  7.750899E-11
       361  19 -4.974048E+05 -4.933384E+04 -6.623800E+04  4.779150E+04 -7.128944E+03 -1.127048E+04
       361  20 -5.732006E+05 -7.370989E+04 -9.939315E+04  5.031252E+04 -3.481478E+04 -1.319411E+04
       361  21 -6.669248E+05 -1.555538E+05 -1.649431E+05  8.572027E+04 -6.249395E+04 -4.507701E+03
       361  22 -2.834104E+05  2.778798E+03 -1.975937E+04  5.623055E+04 -1.406936E+04 -1.127013E+04
       361  23 -2.753430E+05 -8.553148E+02 -3.313931E+04  3.978076E+04 -3.158293E+04 -1.319348E+04
       361  24 -2.834335E+05 -6.017549E+04 -7.183684E+04  5.621969E+04 -4.909393E+04 -4.507388E+03
       361  25 -6.937283E+04  5.488869E+04  2.671674E+04  6.467254E+04 -2.101215E+04 -1.126997E+04
       361  26  2.259758E+04  7.199367E+04  3.310909E+04  2.924388E+04 -2.834954E+04 -1.319297E+04
       361  27  1.001943E+05  3.519532E+04  2.125995E+04  2.670081E+04 -3.568563E+04 -4.508350E+03
       362   1 -1.372243E+05 -6.223610E+05 -1.393041E+05  9.886393E+04 -5.026398E+03 -3.576796E+04
       362   2 -7.906639E+04 -4.862235E+05 -8.392337E+04  6.561321E+04 -1.389290E+04 -1.700286E+04
       362   3 -4.523423E+04 -3.586482E+05 -4.685959E+04  8.373151E+04 -9.890328E+03  1.758295E+03
       362   4 -2.408891E+04 -1.674533E+05 -2.865336E+04  8.734815E+04 -5.015081E+03 -2.108500E+04
       362   5 -2.789426E+02 -1.642245E+05 -1.206882E+04  6.165431E+04 -1.389041E+04 -1.465978E+04
       362   6  1.357074E+03 -1.674261E+05 -5.220408E+03  8.732962E+04 -9.899219E+03 -8.242836E+03
       362   7  8.903183E+04  2.876442E+05  8.198328E+04  7.582384E+04 -5.004313E+03 -6.391294E+03
       362   8  7.850153E+04  1.578712E+05  5.977925E+04  5.769331E+04 -1.388796E+04 -1.231550E+04
       362   9  4.794605E+04  2.383060E+04  3.641696E+04  9.092884E+04 -9.908225E+03 -1.824701E+04
       362  10 -1.372246E+05 -6.223624E+05 -1.393066E+05  9.886379E+04  9.091200E-11  1.066017E-10
       362  11 -7.906668E+04 -4.862239E+05 -8.392428E+04  6.561302E+04  1.395210E-10  1.880530E-10
       362  12 -4.523434E+04 -3.586482E+05 -4.685978E+04  8.373153E+04 -3.863433E-10 -7.797891E-11
       362  13 -2.408906E+04 -1.674538E+05 -2.865424E+04  8.734806E+04 -1.061842E-10  3.065227E-11
       362  14 -2.792074E+02 -1.642248E+05 -1.206959E+04  6.165414E+04  8.189124E-10  1.098355E-10
       362  15  1.356950E+03 -1.674262E+05 -5.220720E+03  8.732956E+04 -5.485400E-11  2.068498E-10
       362  16  8.903180E+04  2.876441E+05  8.198316E+04  7.582382E+04  2.332002E-11 -9.005142E-11
       362  17  7.850128E+04  1.578710E+05  5.977860E+04  5.769317E+04  1.533479E-10 -3.265958E-11
       362  18  4.794586E+04  2.383022E+04  3.641615E+04  9.092870E+04  5.455917E-10  2.722633E-10
       362  19 -1.372243E+05 -6.223610E+05 -1.393041E+05  9.886393E+04  5.026398E+03  3.576796E+04
       362  20 -7.906639E+04 -4.862235E+05 -8.392337E+04  6.561321E+04  1.389290E+04  1.700286E+04
       362  21 -4.523423E+04 -3.586482E+05 -4.685959E+04  8.373151E+04  9.890328E+03 -1.758295E+03
       362  22 -2.408891E+04 -1.674533E+05 -2.865336E+04  8.734815E+04  5.015081E+03  2.108500E+04
       362  23 -2.789426E+02 -1.642245E+05 -1.206882E+04  6.165431E+04  1.389041E+04  1.465978E+04
       362  24  1.357074E+03 -1.674261E+05 -5.220408E+03  8.732962E+04  9.899219E+03  8.242836E+03
       362  25  8.903183E+04  2.876442E+05  8.198328E+04  7.582384E+04  5.004313E+03  6.391294E+03
       362  26  7.850153E+04  1.578712E+05  5.977925E+04  5.769331E+04  1.388796E+04  1.231550E+04
       362  27  4.794605E+04  2.383060E+04  3.641696E+04  9.092884E+04  9.908225E+03  1.824701E+04
       363   1 -2.223901E+04 -2.521552E+05 -2.160056E+04  8.738288E+04 -4.328811E+03 -1.141660E+03
       363   2  1.116621E+04 -1.205566E+05  1.258009E+04  6.178084E+04  2.430295E+03 -2.610547E+03
       363   3  4.567123E+04  1.142575E+04  4.796587E+04  8.810040E+04  9.083549E+03 -4.079270E+03
       363   4 -1.214210E+03 -1.659131E+05 -2.739601E+03  8.745804E+04 -4.334903E+03 -7.681055E+03
       363   5  8.457490E+01 -1.660899E+05  2.715407E+03  6.149550E+04  2.424496E+03 -9.048395E+03
       363   6  2.466978E+03 -1.659159E+05  9.306615E+03  8.745471E+04  9.077982E+03 -1.041527E+04
       363   7  1.981012E+04 -7.966392E+04  1.612106E+04  8.753321E+04 -4.340997E+03 -1.422135E+04
       363   8 -1.099718E+04 -2.116211E+05 -7.149247E+03  6.121018E+04  2.418702E+03 -1.548578E+04
       363   9 -4.073934E+04 -3.432281E+05 -2.935438E+04  8.680921E+04  9.072426E+03 -1.674948E+04
       363  10 -2.223903E+04 -2.521552E+05 -2.160059E+04  8.738287E+04 -1.087415E-10  4.687429E-10
       363  11  1.116620E+04 -1.205566E+05  1.258007E+04  6.178085E+04  4.356559E-11  3.251593E-10
       363  12  4.567114E+04  1.142571E+04  4.796569E+04  8.810043E+04  4.489768E-10 -2.778188E-10
       363  13 -1.214246E+03 -1.659132E+05 -2.739747E+03  8.745801E+04 -1.504223E-10  1.430273E-10
       363  14  8.454660E+01 -1.660900E+05  2.715242E+03  6.149552E+04 -5.479985E-10  8.094156E-11
       363  15  2.466861E+03 -1.659161E+05  9.306256E+03  8.745479E+04 -3.815495E-10  2.426165E-10
       363  16  1.981004E+04 -7.966415E+04  1.612065E+04  8.753316E+04  5.669139E-11 -3.255329E-10
       363  17 -1.099725E+04 -2.116214E+05 -7.149709E+03  6.121021E+04  3.123152E-10 -2.336625E-10
       363  18 -4.073951E+04 -3.432284E+05 -2.935506E+04  8.680933E+04  2.316914E-10  2.345974E-10
       363  19 -2.223901E+04 -2.521552E+05 -2.160056E+04  8.738288E+04  4.328811E+03  1.141660E+03
       363  20  1.116621E+04 -1.205566E+05  1.258009E+04  6.178084E+04 -2.430295E+03  2.610547E+03
       363  21  4.567123E+04  1.142575E+04  4.796587E+04  8.810040E+04 -9.083549E+03  4.079270E+03
       363  22 -1.214210E+03 -1.659131E+05 -2.739601E+03  8.745804E+04  4.334903E+03  7.681055E+03
       363  23  8.457490E+01 -1.660899E+05  2.715407E+03  6.149550E+04 -2.424496E+03  9.048395E+03
       363  24  2.466978E+03 -1.659159E+05  9.306615E+03  8.745471E+04 -9.077982E+03  1.041527E+04
       363  25  1.981012E+04 -7.966392E+04  1.612106E+04  8.753321E+04  4.340997E+03  1.422135E+04
       363  26 -1.099718E+04 -2.116211E+05 -7.149247E+03  6.121018E+04 -2.418702E+03  1.548578E+04
       363  27 -4.073934E+04 -3.432281E+05 -2.935438E+04  8.680921E+04 -9.072426E+03  1.674948E+04
       364   1  6.676306E+04  1.190482E+05  7.406675E+04  8.120674E+04  1.482355E+04 -1.635149E+03
       364   2  1.016679E+05  2.437332E+05  1.154477E+05  6.956576E+04  1.813434E+04 -2.868398E+04
       364   3  1.801121E+05  3.828135E+05  1.853107E+05  1.091568E+05  6.266058E+03 -5.573013E+04
       364   4 -1.976210E+03 -1.633693E+05  1.273005E+04  8.730998E+04  1.481495E+04 -1.211864E+04
       364   5  6.681118E+02 -1.693139E+05  2.353754E+04  6.167932E+04  1.813850E+04 -2.458407E+04
       364   6  4.433765E+04 -1.633974E+05  5.271178E+04  8.727981E+04  6.279662E+03 -3.704095E+04
       364   7 -7.072056E+04 -4.457118E+05 -4.861099E+04  9.341038E+04  1.480614E+04 -2.259742E+04
       364   8 -1.003430E+05 -5.822017E+05 -6.838314E+04  5.379815E+04  1.814255E+04 -2.048685E+04
       364   9 -9.145680E+04 -7.093342E+05 -7.990709E+04  6.542205E+04  6.291957E+03 -1.836814E+04
       364  10  6.676283E+04  1.190481E+05  7.406634E+04  8.120676E+04 -1.418273E-12  2.782247E-12
       364  11  1.016673E+05  2.437322E+05  1.154455E+05  6.956618E+04 -1.694728E-10 -3.107315E-11
       364  12  1.801113E+05  3.828102E+05  1.853047E+05  1.091571E+05  3.398969E-11  4.131685E-11
       364  13 -1.976485E+03 -1.633696E+05  1.272936E+04  8.731012E+04  7.691704E-10  1.885844E-11
       364  14  6.675961E+02 -1.693146E+05  2.353579E+04  6.167968E+04 -1.499050E-10  1.030355E-10
       364  15  4.433724E+04 -1.633989E+05  5.270912E+04  8.727999E+04  2.899004E-11  7.544889E-12
       364  16 -7.072094E+04 -4.457124E+05 -4.861237E+04  9.341065E+04 -1.502857E-10  1.758155E-11
       364  17 -1.003434E+05 -5.822022E+05 -6.838454E+04  5.379845E+04 -2.661753E-10 -2.418743E-11
       364  18 -9.145693E+04 -7.093346E+05 -7.990780E+04  6.542214E+04  1.606865E-10 -4.740114E-11
       364  19  6.676306E+04  1.190482E+05  7.406675E+04  8.120674E+04 -1.482355E+04  1.635149E+03
       364  20  1.016679E+05  2.437332E+05  1.154477E+05  6.956576E+04 -1.813434E+04  2.868398E+04
       364  21  1.801121E+05  3.828135E+05  1.853107E+05  1.091568E+05 -6.266058E+03  5.573013E+04
       364  22 -1.976210E+03 -1.633693E+05  1.273005E+04  8.730998E+04 -1.481495E+04  1.211864E+04
       364  23  6.681118E+02 -1.693139E+05  2.353754E+04  6.167932E+04 -1.813850E+04  2.458407E+04
       364  24  4.433765E+04 -1.633974E+05  5.271178E+04  8.727981E+04 -6.279662E+03  3.704095E+04
       364  25 -7.072056E+04 -4.457118E+05 -4.861099E+04  9.341038E+04 -1.480614E+04  2.259742E+04
       364  26 -1.003430E+05 -5.822017E+05 -6.838314E+04  5.379815E+04 -1.814255E+04  2.048685E+04
       364  27 -9.145680E+04 -7.093342E+05 -7.990709E+04  6.542205E+04 -6.291957E+03  1.836814E+04
       365   1  3.478748E+05  3.117485E+05  1.257495E+05  2.192113E+05  5.071462E+04  3.474303E+04
       365   2  3.281369E+05  2.338670E+05  7.534263E+04  2.326652E+05  3.489751E+04  1.588827E+04
       365   3  3.355479E+05  2.086898E+05  5.587624E+04  2.275036E+05  1.596512E+04  1.192861E+03
       365   4  2.345737E+05  1.786667E+05  7.805781E+04  1.390071E+05  4.440331E+04  3.001035E+04
       365   5  2.091370E+05  1.308455E+05  3.588370E+04  1.647300E+05  3.258343E+04  1.415321E+04
       365   6  2.099887E+05  1.348682E+05  2.118797E+04  1.718354E+05  1.764800E+04  2.454095E+03
       365   7  1.212875E+05  4.560898E+04  3.036407E+04  5.882344E+04  3.809352E+04  2.527981E+04
       365   8  9.015185E+04  2.783640E+04 -3.577345E+03  9.681055E+04  3.026993E+04  1.241871E+04
       365   9  8.444563E+04  6.105141E+04 -1.350218E+04  1.161783E+05  1.933044E+04  3.715071E+03
       365  10  3.478717E+05  3.117465E+05  1.257424E+05  2.192099E+05  8.036589E-12  9.047839E-11
       365  11  3.281355E+05  2.338664E+05  7.533987E+04  2.326648E+05 -2.162345E-10  2.156518E-10
       365  12  3.355476E+05  2.086898E+05  5.587576E+04  2.275036E+05 -2.291650E-10  1.124549E-10
       365  13  2.345714E+05  1.786652E+05  7.805241E+04  1.390060E+05 -1.638002E-10  1.637327E-10
       365  14  2.091358E+05  1.308450E+05  3.588133E+04  1.647296E+05  2.145278E-11  1.495488E-11
       365  15  2.099884E+05  1.348682E+05  2.118738E+04  1.718354E+05  1.924639E-10  1.569047E-11
       365  16  1.212858E+05  4.560790E+04  3.036014E+04  5.882267E+04  3.475257E-10  1.921909E-11
       365  17  9.015083E+04  2.783598E+04 -3.579356E+03  9.681025E+04  4.762188E-10  1.098812E-10
       365  18  8.444522E+04  6.105130E+04 -1.350291E+04  1.161782E+05  2.365212E-10 -2.449914E-11
       365  19  3.478748E+05  3.117485E+05  1.257495E+05  2.192113E+05 -5.071462E+04 -3.474303E+04
       365  20  3.281369E+05  2.338670E+05  7.534263E+04  2.326652E+05 -3.489751E+04 -1.588827E+04
       365  21  3.355479E+05  2.086898E+05  5.587624E+04  2.275036E+05 -1.596512E+04 -1.192861E+03
       365  22  2.345737E+05  1.786667E+05  7.805781E+04  1.390071E+05 -4.440331E+04 -3.001035E+04
       365  23  2.091370E+05  1.308455E+05  3.588370E+04  1.647300E+05 -3.258343E+04 -1.415321E+04
       365  24  2.099887E+05  1.348682E+05  2.118797E+04  1.718354E+05 -1.764800E+04 -2.454095E+03
       365  25  1.212875E+05  4.560898E+04  3.036407E+04  5.882344E+04 -3.809352E+04 -2.527981E+04
       365  26  9.015185E+04  2.783640E+04 -3.577345E+03  9.681055E+04 -3.026993E+04 -1.241871E+04
       365  27  8.444563E+04  6.105141E+04 -1.350218E+04  1.161783E+05 -1.933044E+04 -3.715071E+03
       366   1  3.148181E+05  2.139029E+05  4.864583E+04  2.202809E+05  1.411839E+04  1.106904E+03
       366   2  3.040326E+05  1.976437E+05  3.737615E+04  2.136346E+05  9.532137E+03 -1.365832E+03
       366   3  2.884681E+05  1.910051E+05  3.029359E+04  2.081425E+05  4.805407E+03 -3.650932E+03
       366   4  2.099380E+05  1.376990E+05  1.699201E+04  1.670692E+05  1.462010E+04  1.482730E+03
       366   5  2.117141E+05  1.317800E+05  9.837561E+03  1.673389E+05  1.021479E+04 -8.543016E+02
       366   6  2.086718E+05  1.354427E+05  6.713929E+03  1.687626E+05  5.668857E+03 -3.003797E+03
       366   7  1.050710E+05  6.150238E+04 -1.466269E+04  1.138682E+05  1.512169E+04  1.858463E+03
       366   8  1.194054E+05  6.592157E+04 -1.770181E+04  1.210512E+05  1.089731E+04 -3.428785E+02
       366   9  1.288826E+05  7.988380E+04 -1.686642E+04  1.293884E+05  6.532155E+03 -2.356772E+03
       366  10  3.148179E+05  2.139028E+05  4.864546E+04  2.202809E+05  3.012852E-11 -3.317602E-11
       366  11  3.040325E+05  1.976437E+05  3.737598E+04  2.136346E+05 -1.512697E-10  3.599801E-10
       366  12  2.884680E+05  1.910051E+05  3.029352E+04  2.081425E+05  1.065467E-10  9.478248E-11
       366  13  2.099378E+05  1.376989E+05  1.699161E+04  1.670691E+05  3.750078E-11  1.042520E-10
       366  14  2.117140E+05  1.317800E+05  9.837364E+03  1.673389E+05 -2.740049E-11  1.706392E-10
       366  15  2.086718E+05  1.354427E+05  6.713852E+03  1.687626E+05 -9.146557E-12  4.469672E-10
       366  16  1.050707E+05  6.150232E+04 -1.466313E+04  1.138682E+05  1.895283E-10  7.243236E-11
       366  17  1.194053E+05  6.592154E+04 -1.770204E+04  1.210512E+05  2.906590E-11  9.896268E-11
       366  18  1.288825E+05  7.988378E+04 -1.686651E+04  1.293884E+05  2.560825E-11  3.692671E-11
       366  19  3.148181E+05  2.139029E+05  4.864583E+04  2.202809E+05 -1.411839E+04 -1.106904E+03
       366  20  3.040326E+05  1.976437E+05  3.737615E+04  2.136346E+05 -9.532137E+03  1.365832E+03
       366  21  2.884681E+05  1.910051E+05  3.029359E+04  2.081425E+05 -4.805407E+03  3.650932E+03
       366  22  2.099380E+05  1.376990E+05  1.699201E+04  1.670692E+05 -1.462010E+04 -1.482730E+03
       366  23  2.117141E+05  1.317800E+05  9.837561E+03  1.673389E+05 -1.021479E+04  8.543016E+02
       366  24  2.086718E+05  1.354427E+05  6.713929E+03  1.687626E+05 -5.668857E+03  3.003797E+03
       366  25  1.050710E+05  6.150238E+04 -1.466269E+04  1.138682E+05 -1.512169E+04 -1.858463E+03
       366  26  1.194054E+05  6.592157E+04 -1.770181E+04  1.210512E+05 -1.089731E+04  3.428785E+02
       366  27  1.288826E+05  7.988380E+04 -1.686642E+04  1.293884E+05 -6.532155E+03  2.356772E+03
       367   1  2.772312E+05  1.841932E+05  2.633637E+04  2.027798E+05  3.570541E+03 -3.772643E+03
       367   2  2.671291E+05  1.710850E+05  2.222577E+04  1.950806E+05  6.287134E+02 -4.656415E+03
       367   3  2.505796E+05  1.653946E+05  2.011086E+04  1.894183E+05 -2.317433E+03 -5.534506E+03
       367   4  2.086453E+05  1.355587E+05  5.996890E+03  1.685118E+05  4.380356E+03 -3.165666E+03
       367   5  2.118868E+05  1.318808E+05  5.804783E+03  1.674708E+05  1.444234E+03 -4.045103E+03
       367   6  2.086796E+05  1.356194E+05  7.603614E+03  1.684664E+05 -1.496246E+03 -4.918895E+03
       367   7  1.400639E+05  8.692633E+04 -1.434335E+04  1.342477E+05  5.190057E+03 -2.558774E+03
       367   8  1.566477E+05  9.267834E+04 -1.061654E+04  1.398637E+05  2.259657E+03 -3.433866E+03
       367   9  1.667820E+05  1.058455E+05 -4.903681E+03  1.475164E+05 -6.751435E+02 -4.303347E+03
       367  10  2.772312E+05  1.841932E+05  2.633632E+04  2.027798E+05 -9.688828E-11  3.475698E-11
       367  11  2.671291E+05  1.710850E+05  2.222573E+04  1.950806E+05  3.730243E-10  9.304786E-11
       367  12  2.505796E+05  1.653946E+05  2.011079E+04  1.894183E+05  2.504358E-10  5.653244E-11
       367  13  2.086453E+05  1.355587E+05  5.996835E+03  1.685118E+05  3.008147E-10 -2.375595E-11
       367  14  2.118868E+05  1.318808E+05  5.804748E+03  1.674708E+05  1.204485E-10  3.021763E-11
       367  15  2.086796E+05  1.356194E+05  7.603565E+03  1.684664E+05  1.760291E-10 -1.699279E-10
       367  16  1.400639E+05  8.692631E+04 -1.434341E+04  1.342477E+05  1.756005E-10  1.298201E-10
       367  17  1.566477E+05  9.267833E+04 -1.061657E+04  1.398637E+05 -9.540785E-11  9.523951E-11
       367  18  1.667819E+05  1.058455E+05 -4.903717E+03  1.475164E+05 -5.578400E-11 -3.264673E-10
       367  19  2.772312E+05  1.841932E+05  2.633637E+04  2.027798E+05 -3.570541E+03  3.772643E+03
       367  20  2.671291E+05  1.710850E+05  2.222577E+04  1.950806E+05 -6.287134E+02  4.656415E+03
       367  21  2.505796E+05  1.653946E+05  2.011086E+04  1.894183E+05  2.317433E+03  5.534506E+03
       367  22  2.086453E+05  1.355587E+05  5.996890E+03  1.685118E+05 -4.380356E+03  3.165666E+03
       367  23  2.118868E+05  1.318808E+05  5.804783E+03  1.674708E+05 -1.444234E+03  4.045103E+03
       367  24  2.086796E+05  1.356194E+05  7.603614E+03  1.684664E+05  1.496246E+03  4.918895E+03
       367  25  1.400639E+05  8.692633E+04 -1.434335E+04  1.342477E+05 -5.190057E+03  2.558774E+03
       367  26  1.566477E+05  9.267834E+04 -1.061654E+04  1.398637E+05 -2.259657E+03  3.433866E+03
       367  27  1.667820E+05  1.058455E+05 -4.903681E+03  1.475164E+05  6.751435E+02  4.303347E+03
       368   1  2.391607E+05  1.586046E+05  1.850496E+04  1.848450E+05 -3.897048E+03 -5.933036E+03
       368   2  2.300192E+05  1.440592E+05  2.025642E+04  1.761389E+05 -1.045933E+04 -9.537293E+03
       368   3  2.172998E+05  1.406191E+05  2.814460E+04  1.680292E+05 -1.698562E+04 -1.318946E+04
       368   4  2.087537E+05  1.354338E+05  9.238679E+03  1.689022E+05 -3.065061E+03 -5.309295E+03
       368   5  2.115543E+05  1.316855E+05  1.490479E+04  1.672470E+05 -9.673188E+03 -8.947931E+03
       368   6  2.107869E+05  1.390525E+05  2.674746E+04  1.661879E+05 -1.624551E+04 -1.263465E+04
       368   7  1.783477E+05  1.122637E+05 -2.771452E+01  1.529603E+05 -2.233128E+03 -4.685599E+03
       368   8  1.930897E+05  1.193119E+05  9.553107E+03  1.583552E+05 -8.887076E+03 -8.358588E+03
       368   9  2.042739E+05  1.374858E+05  2.535031E+04  1.643466E+05 -1.550540E+04 -1.207984E+04
       368  10  2.391607E+05  1.586045E+05  1.850487E+04  1.848450E+05 -2.215909E-10 -2.200387E-10
       368  11  2.300190E+05  1.440590E+05  2.025604E+04  1.761389E+05 -1.106225E-10  6.124653E-11
       368  12  2.172995E+05  1.406189E+05  2.814373E+04  1.680291E+05  8.477301E-11  9.829504E-11
       368  13  2.087537E+05  1.354338E+05  9.238609E+03  1.689022E+05 -7.269451E-11 -1.542154E-10
       368  14  2.115542E+05  1.316854E+05  1.490447E+04  1.672469E+05  2.751106E-10  1.938281E-10
       368  15  2.107866E+05  1.390522E+05  2.674667E+04  1.661878E+05 -3.842390E-11 -1.279556E-11
       368  16  1.783477E+05  1.122637E+05 -2.776513E+01  1.529602E+05  3.917434E-10 -4.277326E-11
       368  17  1.930896E+05  1.193118E+05  9.552827E+03  1.583552E+05  1.692308E-10 -1.243350E-10
       368  18  2.042736E+05  1.374856E+05  2.534959E+04  1.643465E+05  1.131617E-10 -9.119405E-11
       368  19  2.391607E+05  1.586046E+05  1.850496E+04  1.848450E+05  3.897048E+03  5.933036E+03
       368  20  2.300192E+05  1.440592E+05  2.025642E+04  1.761389E+05  1.045933E+04  9.537293E+03
       368  21  2.172998E+05  1.406191E+05  2.814460E+04  1.680292E+05  1.698562E+04  1.318946E+04
       368  22  2.087537E+05  1.354338E+05  9.238679E+03  1.689022E+05  3.065061E+03  5.309295E+03
       368  23  2.115543E+05  1.316855E+05  1.490479E+04  1.672470E+05  9.673188E+03  8.947931E+03
       368  24  2.107869E+05  1.390525E+05  2.674746E+04  1.661879E+05  1.624551E+04  1.263465E+04
       368  25  1.783477E+05  1.122637E+05 -2.771452E+01  1.529603E+05  2.233128E+03  4.685599E+03
       368  26  1.930897E+05  1.193119E+05  9.553107E+03  1.583552E+05  8.887076E+03  8.358588E+03
       368  27  2.042739E+05  1.374858E+05  2.535031E+04  1.643466E+05  1.550540E+04  1.207984E+04
       369   1  1.907841E+05  1.445868E+05  3.181163E+04  1.750580E+05 -2.151367E+04 -1.567625E+04
       369   2  2.058984E+05  9.901480E+04  5.142899E+04  1.484058E+05 -4.516710E+04 -3.253993E+04
       369   3  2.668543E+05  1.323062E+05  1.141347E+05  9.075303E+04 -6.803013E+04 -5.045563E+04
       369   4  2.108144E+05  1.345805E+05  3.359784E+04  1.738437E+05 -2.047461E+04 -1.489644E+04
       369   5  2.074938E+05  1.301132E+05  5.733182E+04  1.630447E+05 -4.514120E+04 -3.252257E+04
       369   6  2.502290E+05  2.047223E+05  1.250319E+05  1.212461E+05 -6.901626E+04 -5.120367E+04
       369   7  2.308453E+05  1.245749E+05  3.538415E+04  1.726291E+05 -1.943552E+04 -1.411668E+04
       369   8  2.090896E+05  1.612134E+05  6.323474E+04  1.776838E+05 -4.511531E+04 -3.250520E+04
       369   9  2.336086E+05  2.771503E+05  1.359302E+05  1.517389E+05 -7.000233E+04 -5.195192E+04
       369  10  1.907835E+05  1.445864E+05  3.181030E+04  1.750577E+05  1.370754E-10  2.011942E-11
       369  11  2.058959E+05  9.901311E+04  5.142317E+04  1.484046E+05  4.086143E-10  2.077154E-10
       369  12  2.668487E+05  1.323022E+05  1.141212E+05  9.075027E+04  3.328744E-11 -3.579709E-11
       369  13  2.108139E+05  1.345802E+05  3.359663E+04  1.738434E+05 -3.855924E-10 -2.665208E-10
       369  14  2.074913E+05  1.301116E+05  5.732601E+04  1.630435E+05 -2.205559E-10  1.765880E-10
       369  15  2.502232E+05  2.047182E+05  1.250180E+05  1.212433E+05 -1.756203E-10  9.464319E-11
       369  16  2.308448E+05  1.245745E+05  3.538306E+04  1.726289E+05  6.354097E-11  1.161563E-12
       369  17  2.090872E+05  1.612118E+05  6.322893E+04  1.776826E+05 -1.441569E-10 -9.435775E-11
       369  18  2.336026E+05  2.771461E+05  1.359159E+05  1.517360E+05  4.065510E-11  2.225501E-11
       369  19  1.907841E+05  1.445868E+05  3.181163E+04  1.750580E+05  2.151367E+04  1.567625E+04
       369  20  2.058984E+05  9.901480E+04  5.142899E+04  1.484058E+05  4.516710E+04  3.253993E+04
       369  21  2.668543E+05  1.323062E+05  1.141347E+05  9.075303E+04  6.803013E+04  5.045563E+04
       369  22  2.108144E+05  1.345805E+05  3.359784E+04  1.738437E+05  2.047461E+04  1.489644E+04
       369  23  2.074938E+05  1.301132E+05  5.733182E+04  1.630447E+05  4.514120E+04  3.252257E+04
       369  24  2.502290E+05  2.047223E+05  1.250319E+05  1.212461E+05  6.901626E+04  5.120367E+04
       369  25  2.308453E+05  1.245749E+05  3.538415E+04  1.726291E+05  1.943552E+04  1.411668E+04
       369  26  2.090896E+05  1.612134E+05  6.323474E+04  1.776838E+05  4.511531E+04  3.250520E+04
       369  27  2.336086E+05  2.771503E+05  1.359302E+05  1.517389E+05  7.000233E+04  5.195192E+04
       370   1  4.850953E+05  1.127110E+05  1.059644E+05  5.353440E+04  4.639559E+03 -6.453841E+03
       370   2  3.918931E+05  1.050956E+05  8.553641E+04  4.105102E+04 -3.763860E+03 -1.937314E+04
       370   3  2.962745E+05  8.310129E+04  6.699512E+04  6.505349E+04 -1.216262E+04 -1.795653E+04
       370   4 -4.186037E+04 -1.819122E+04 -2.170777E+04  6.250557E+04 -1.464874E+04 -6.450502E+03
       370   5 -3.943886E+04 -2.930367E+02 -1.016550E+04  4.426258E+04 -9.283680E+03 -1.937377E+04
       370   6 -4.183605E+04  8.310178E+02 -6.297535E+03  6.250776E+04 -3.915369E+03 -1.795651E+04
       370   7 -5.685616E+05 -1.491133E+05 -1.493985E+05  7.146912E+04 -3.392072E+04 -6.447719E+03
       370   8 -4.705971E+05 -1.056942E+05 -1.058789E+05  4.747188E+04 -1.479971E+04 -1.937445E+04
       370   9 -3.798392E+05 -8.144676E+04 -7.959673E+04  5.996342E+04  4.327449E+03 -1.795655E+04
       370  10  4.850953E+05  1.127110E+05  1.059643E+05  5.353442E+04 -2.222811E-10 -1.088439E-10
       370  11  3.918930E+05  1.050952E+05  8.553568E+04  4.105096E+04 -2.726611E-10 -9.588314E-11
       370  12  2.962742E+05  8.310091E+04  6.699423E+04  6.505331E+04 -1.268961E-10  1.077238E-10
       370  13 -4.186062E+04 -1.819132E+04 -2.170825E+04  6.250550E+04  1.379937E-10  1.338480E-10
       370  14 -3.943905E+04 -2.934629E+02 -1.016637E+04  4.426243E+04 -1.809861E-10  5.810835E-11
       370  15 -4.183615E+04  8.306675E+02 -6.298170E+03  6.250770E+04  1.569397E-10  1.863144E-11
       370  16 -5.685628E+05 -1.491137E+05 -1.494008E+05  7.146894E+04 -2.370142E-10 -1.011918E-10
       370  17 -4.705975E+05 -1.056946E+05 -1.058800E+05  4.747164E+04  2.821907E-10  1.498708E-10
       370  18 -3.798393E+05 -8.144711E+04 -7.959737E+04  5.996349E+04  7.138845E-11  1.762449E-10
       370  19  4.850953E+05  1.127110E+05  1.059644E+05  5.353440E+04 -4.639559E+03  6.453841E+03
       370  20  3.918931E+05  1.050956E+05  8.553641E+04  4.105102E+04  3.763860E+03  1.937314E+04
       370  21  2.962745E+05  8.310129E+04  6.699512E+04  6.505349E+04  1.216262E+04  1.795653E+04
       370  22 -4.186037E+04 -1.819122E+04 -2.170777E+04  6.250557E+04  1.464874E+04  6.450502E+03
       370  23 -3.943886E+04 -2.930367E+02 -1.016550E+04  4.426258E+04  9.283680E+03  1.937377E+04
       370  24 -4.183605E+04  8.310178E+02 -6.297535E+03  6.250776E+04  3.915369E+03  1.795651E+04
       370  25 -5.685616E+05 -1.491133E+05 -1.493985E+05  7.146912E+04  3.392072E+04  6.447719E+03
       370  26 -4.705971E+05 -1.056942E+05 -1.058789E+05  4.747188E+04  1.479971E+04  1.937445E+04
       370  27 -3.798392E+05 -8.144676E+04 -7.959673E+04  5.996342E+04 -4.327449E+03  1.795655E+04
       371   1  2.220069E+05  6.308892E+04  5.191603E+04  6.231009E+04 -7.178417E+03 -1.360896E+04
       371   2  1.279214E+05  4.105766E+04  3.278325E+04  4.398110E+04 -5.899036E+03 -8.938931E+03
       371   3  3.345207E+04  1.812047E+04  1.259056E+04  6.280148E+04 -4.620917E+03 -3.643682E+03
       371   4 -4.086530E+04 -9.206174E+02 -5.289858E+03  6.265431E+04 -2.993689E+03 -1.360880E+04
       371   5 -4.061307E+04  4.371059E+01 -3.761943E+03  4.407923E+04 -1.114874E+03 -8.938253E+03
       371   6 -4.085582E+04 -1.274799E+00 -3.709921E+03  6.265417E+04  7.628751E+02 -3.642377E+03
       371   7 -3.036727E+05 -6.493473E+04 -6.249982E+04  6.299838E+04  1.189291E+03 -1.360864E+04
       371   8 -2.091208E+05 -4.097210E+04 -4.030874E+04  4.417733E+04  3.668006E+03 -8.937574E+03
       371   9 -1.151585E+05 -1.812338E+04 -2.001063E+04  6.250688E+04  6.146031E+03 -3.641076E+03
       371  10  2.220068E+05  6.308871E+04  5.191559E+04  6.231001E+04  2.790173E-10  2.015322E-12
       371  11  1.279213E+05  4.105756E+04  3.278303E+04  4.398106E+04 -9.774675E-11 -9.256829E-11
       371  12  3.345204E+04  1.812045E+04  1.259050E+04  6.280147E+04  6.610853E-11 -1.764137E-10
       371  13 -4.086536E+04 -9.208187E+02 -5.290223E+03  6.265428E+04  1.413008E-10  2.498686E-11
       371  14 -4.061309E+04  4.362447E+01 -3.762096E+03  4.407922E+04 -5.940417E-11  1.493448E-10
       371  15 -4.085582E+04 -1.289201E+00 -3.709947E+03  6.265418E+04  1.762555E-10  1.825604E-10
       371  16 -3.036728E+05 -6.493493E+04 -6.250017E+04  6.299840E+04 -3.404156E-10  3.349961E-11
       371  17 -2.091208E+05 -4.097219E+04 -4.030892E+04  4.417736E+04  5.754891E-11 -2.238578E-11
       371  18 -1.151585E+05 -1.812340E+04 -2.001073E+04  6.250690E+04 -1.698854E-10  1.310559E-10
       371  19  2.220069E+05  6.308892E+04  5.191603E+04  6.231009E+04  7.178417E+03  1.360896E+04
       371  20  1.279214E+05  4.105766E+04  3.278325E+04  4.398110E+04  5.899036E+03  8.938931E+03
       371  21  3.345207E+04  1.812047E+04  1.259056E+04  6.280148E+04  4.620917E+03  3.643682E+03
       371  22 -4.086530E+04 -9.206174E+02 -5.289858E+03  6.265431E+04  2.993689E+03  1.360880E+04
       371  23 -4.061307E+04  4.371059E+01 -3.761943E+03  4.407923E+04  1.114874E+03  8.938253E+03
       371  24 -4.085582E+04 -1.274799E+00 -3.709921E+03  6.265417E+04 -7.628751E+02  3.642377E+03
       371  25 -3.036727E+05 -6.493473E+04 -6.249982E+04  6.299838E+04 -1.189291E+03  1.360864E+04
       371  26 -2.091208E+05 -4.097210E+04 -4.030874E+04  4.417733E+04 -3.668006E+03  8.937574E+03
       371  27 -1.151585E+05 -1.812338E+04 -2.001063E+04  6.250688E+04 -6.146031E+03  3.641076E+03
       372   1 -4.152631E+04 -9.028376E+01 -4.438605E+03  6.229798E+04 -3.911373E+03 -3.378648E+02
       372   2 -1.353125E+05 -2.302113E+04 -2.640954E+04  4.423443E+04 -4.849860E+02  4.978045E+03
       372   3 -2.300539E+05 -4.799270E+04 -5.112495E+04  6.332493E+04  2.941528E+03  9.757770E+03
       372   4 -4.093879E+04  9.892193E+01 -4.081168E+03  6.265495E+04  1.448012E+03 -3.365016E+02
       372   5 -4.050455E+04  6.094273E+01 -5.816375E+03  4.407827E+04  4.359784E+03  4.979005E+03
       372   6 -4.094417E+04 -1.927607E+03 -9.937919E+03  6.265536E+04  7.272189E+03  9.758390E+03
       372   7 -4.035120E+04  2.881435E+02 -3.723623E+03  6.301193E+04  6.807402E+03 -3.351322E+02
       372   8  5.431188E+04  2.314243E+04  1.477634E+04  4.392209E+04  9.205284E+03  4.979962E+03
       372   9  1.481992E+05  4.413513E+04  3.124703E+04  6.198559E+04  1.160415E+04  9.759000E+03
       372  10 -4.152633E+04 -9.028799E+01 -4.438634E+03  6.229798E+04  3.786131E-10  1.054173E-10
       372  11 -1.353125E+05 -2.302116E+04 -2.640959E+04  4.423443E+04  3.061841E-10  2.557141E-10
       372  12 -2.300540E+05 -4.799281E+04 -5.112514E+04  6.332491E+04 -4.185841E-12  7.952981E-11
       372  13 -4.093879E+04  9.892125E+01 -4.081172E+03  6.265495E+04 -1.354096E-10  1.166871E-10
       372  14 -4.050458E+04  6.091100E+01 -5.816457E+03  4.407826E+04  3.532680E-10 -1.713975E-10
       372  15 -4.094425E+04 -1.927723E+03 -9.938197E+03  6.265531E+04  5.455513E-10 -2.666224E-10
       372  16 -4.035125E+04  2.881309E+02 -3.723710E+03  6.301193E+04 -2.123807E-10  4.924501E-11
       372  17  5.431178E+04  2.314238E+04  1.477614E+04  4.392205E+04  1.235539E-10  1.716191E-11
       372  18  1.481990E+05  4.413499E+04  3.124660E+04  6.198550E+04  3.597311E-10 -8.026466E-11
       372  19 -4.152631E+04 -9.028376E+01 -4.438605E+03  6.229798E+04  3.911373E+03  3.378648E+02
       372  20 -1.353125E+05 -2.302113E+04 -2.640954E+04  4.423443E+04  4.849860E+02 -4.978045E+03
       372  21 -2.300539E+05 -4.799270E+04 -5.112495E+04  6.332493E+04 -2.941528E+03 -9.757770E+03
       372  22 -4.093879E+04  9.892193E+01 -4.081168E+03  6.265495E+04 -1.448012E+03  3.365016E+02
       372  23 -4.050455E+04  6.094273E+01 -5.816375E+03  4.407827E+04 -4.359784E+03 -4.979005E+03
       372  24 -4.094417E+04 -1.927607E+03 -9.937919E+03  6.265536E+04 -7.272189E+03 -9.758390E+03
       372  25 -4.035120E+04  2.881435E+02 -3.723623E+03  6.301193E+04 -6.807402E+03  3.351322E+02
       372  26  5.431188E+04  2.314243E+04  1.477634E+04  4.392209E+04 -9.205284E+03 -4.979962E+03
       372  27  1.481992E+05  4.413513E+04  3.124703E+04  6.198559E+04 -1.160415E+04 -9.759000E+03
       373   1 -3.072879E+05 -6.256874E+04 -6.972079E+04  5.715589E+04  1.167451E+03  1.395742E+04
       373   2 -3.955092E+05 -8.797731E+04 -1.003753E+05  5.087231E+04  2.417638E+04  1.591206E+04
       373   3 -4.959962E+05 -1.506696E+05 -1.553283E+05  8.117235E+04  4.717980E+04  5.397812E+03
       373   4 -4.302190E+04  1.768531E+03 -1.236313E+04  6.252903E+04  9.026115E+03  1.395819E+04
       373   5 -3.793695E+04 -5.502616E+02 -2.090287E+04  4.423631E+04  2.007607E+04  1.591103E+04
       373   6 -4.304243E+04 -3.806418E+04 -4.542671E+04  6.252812E+04  3.112445E+04  5.397330E+03
       373   7  2.213099E+05  6.610132E+04  4.499061E+04  6.790448E+04  1.688808E+04  1.395910E+04
       373   8  3.197548E+05  8.686831E+04  5.856170E+04  3.759644E+04  1.597341E+04  1.591010E+04
       373   9  4.101001E+05  7.452758E+04  6.446120E+04  4.387023E+04  1.505739E+04  5.397814E+03
       373  10 -3.072880E+05 -6.256895E+04 -6.972116E+04  5.715588E+04  1.749971E-11  3.973063E-11
       373  11 -3.955099E+05 -8.797774E+04 -1.003769E+05  5.087200E+04  3.161944E-11  1.748507E-10
       373  12 -4.959986E+05 -1.506702E+05 -1.553325E+05  8.117214E+04  9.179515E-11 -3.152292E-11
       373  13 -4.302204E+04  1.768300E+03 -1.236365E+04  6.252893E+04  2.677663E-10  2.000173E-10
       373  14 -3.793745E+04 -5.506417E+02 -2.090411E+04  4.423606E+04  4.651183E-11  2.313179E-10
       373  15 -4.304347E+04 -3.806447E+04 -4.542858E+04  6.252798E+04 -2.574978E-10 -8.706504E-11
       373  16  2.213095E+05  6.610103E+04  4.498971E+04  6.790429E+04  2.690391E-10  6.371233E-12
       373  17  3.197544E+05  8.686797E+04  5.856074E+04  3.759624E+04  4.222735E-10  7.542086E-11
       373  18  4.100998E+05  7.452749E+04  6.446072E+04  4.387016E+04 -2.964314E-11 -9.119022E-12
       373  19 -3.072879E+05 -6.256874E+04 -6.972079E+04  5.715589E+04 -1.167451E+03 -1.395742E+04
       373  20 -3.955092E+05 -8.797731E+04 -1.003753E+05  5.087231E+04 -2.417638E+04 -1.591206E+04
       373  21 -4.959962E+05 -1.506696E+05 -1.553283E+05  8.117235E+04 -4.717980E+04 -5.397812E+03
       373  22 -4.302190E+04  1.768531E+03 -1.236313E+04  6.252903E+04 -9.026115E+03 -1.395819E+04
       373  23 -3.793695E+04 -5.502616E+02 -2.090287E+04  4.423631E+04 -2.007607E+04 -1.591103E+04
       373  24 -4.304243E+04 -3.806418E+04 -4.542671E+04  6.252812E+04 -3.112445E+04 -5.397330E+03
       373  25  2.213099E+05  6.610132E+04  4.499061E+04  6.790448E+04 -1.688808E+04 -1.395910E+04
       373  26  3.197548E+05  8.686831E+04  5.856170E+04  3.759644E+04 -1.597341E+04 -1.591010E+04
       373  27  4.101001E+05  7.452758E+04  6.446120E+04  4.387023E+04 -1.505739E+04 -5.397814E+03
       374   1 -1.538633E+05 -6.405933E+05 -1.610031E+05  1.064872E+05 -4.660659E+03 -5.366482E+04
       374   2 -7.344087E+04 -5.079319E+05 -9.276513E+04  6.683013E+04 -1.281311E+04 -2.821621E+04
       374   3 -3.990320E+04 -3.903251E+05 -5.283546E+04  7.593222E+04 -8.955971E+03 -2.767373E+03
       374   4 -4.849315E+04 -2.168973E+05 -5.792497E+04  8.290221E+04 -4.651437E+03 -4.008536E+04
       374   5 -6.269021E+02 -2.103534E+05 -2.633850E+04  5.850815E+04 -1.281107E+04 -2.614846E+04
       374   6  2.367880E+03 -2.168702E+05 -1.505040E+04  8.287536E+04 -8.962444E+03 -1.221686E+04
       374   7  5.686597E+04  2.069644E+05  4.514114E+04  5.930100E+04 -4.643251E+03 -2.649665E+04
       374   8  7.218132E+04  8.730790E+04  4.008261E+04  5.018212E+04 -1.280909E+04 -2.407972E+04
       374   9  4.463719E+04 -4.338671E+04  2.273322E+04  8.982046E+04 -8.969127E+03 -2.166895E+04
       374  10 -1.538641E+05 -6.405964E+05 -1.610085E+05  1.064870E+05 -1.453738E-10 -2.974561E-10
       374  11 -7.344126E+04 -5.079328E+05 -9.276693E+04  6.682984E+04  2.564396E-11  2.287306E-10
       374  12 -3.990329E+04 -3.903251E+05 -5.283563E+04  7.593220E+04 -2.691984E-10  2.951926E-10
       374  13 -4.849360E+04 -2.168990E+05 -5.792803E+04  8.290206E+04 -2.310253E-10  1.356092E-10
       374  14 -6.272619E+02 -2.103542E+05 -2.634010E+04  5.850788E+04  2.314131E-10 -4.116595E-10
       374  15  2.367753E+03 -2.168703E+05 -1.505083E+04  8.287527E+04 -3.866848E-10 -3.216803E-11
       374  16  5.686575E+04  2.069636E+05  4.513978E+04  5.930090E+04  5.590725E-11  7.260851E-11
       374  17  7.218098E+04  8.730723E+04  4.008122E+04  5.018187E+04 -1.015089E-10 -4.370932E-10
       374  18  4.463697E+04 -4.338723E+04  2.273219E+04  8.982031E+04 -6.115126E-11 -3.290282E-10
       374  19 -1.538633E+05 -6.405933E+05 -1.610031E+05  1.064872E+05  4.660659E+03  5.366482E+04
       374  20 -7.344087E+04 -5.079319E+05 -9.276513E+04  6.683013E+04  1.281311E+04  2.821621E+04
       374  21 -3.990320E+04 -3.903251E+05 -5.283546E+04  7.593222E+04  8.955971E+03  2.767373E+03
       374  22 -4.849315E+04 -2.168973E+05 -5.792497E+04  8.290221E+04  4.651437E+03  4.008536E+04
       374  23 -6.269021E+02 -2.103534E+05 -2.633850E+04  5.850815E+04  1.281107E+04  2.614846E+04
       374  24  2.367880E+03 -2.168702E+05 -1.505040E+04  8.287536E+04  8.962444E+03  1.221686E+04
       374  25  5.686597E+04  2.069644E+05  4.514114E+04  5.930100E+04  4.643251E+03  2.649665E+04
       374  26  7.218132E+04  8.730790E+04  4.008261E+04  5.018212E+04  1.280909E+04  2.407972E+04
       374  27  4.463719E+04 -4.338671E+04  2.273322E+04  8.982046E+04  8.969127E+03  2.166895E+04
       375   1 -2.039282E+04 -2.880053E+05 -2.784754E+04  8.374753E+04 -3.691386E+03 -3.911038E+03
       375   2  1.258243E+04 -1.624779E+05  5.458631E+03  5.858944E+04  2.736083E+03 -1.201223E+03
       375   3  4.353304E+04 -3.786278E+04  3.647518E+04  8.270776E+04  9.044514E+03  1.509619E+03
       375   4 -2.392014E+03 -2.141735E+05 -1.168966E+04  8.299732E+04 -3.695857E+03 -1.013506E+04
       375   5  1.154867E+02 -2.137020E+05 -5.639507E+03  5.835791E+04  2.731895E+03 -7.311017E+03
       375   6  5.797066E+02 -2.141766E+05 -1.956908E+03  8.299527E+04  9.040556E+03 -4.486475E+03
       375   7  1.560845E+04 -1.403365E+05  4.468031E+03  8.224702E+04 -3.700313E+03 -1.635982E+04
       375   8 -1.235160E+04 -2.649235E+05 -1.673766E+04  5.812640E+04  2.727711E+03 -1.342031E+04
       375   9 -4.237567E+04 -3.904612E+05 -4.039074E+04  8.328269E+04  9.036592E+03 -1.048089E+04
       375  10 -2.039284E+04 -2.880053E+05 -2.784759E+04  8.374752E+04 -1.247587E-10  2.132744E-10
       375  11  1.258242E+04 -1.624779E+05  5.458614E+03  5.858944E+04 -3.712706E-10  5.593784E-10
       375  12  4.353295E+04 -3.786281E+04  3.647503E+04  8.270775E+04  6.929038E-13 -2.964012E-11
       375  13 -2.392056E+03 -2.141736E+05 -1.168988E+04  8.299729E+04  6.162941E-11  1.662788E-11
       375  14  1.154643E+02 -2.137021E+05 -5.639621E+03  5.835792E+04 -5.702470E-10  1.249994E-10
       375  15  5.796134E+02 -2.141766E+05 -1.957100E+03  8.299530E+04 -5.933236E-10  2.094276E-10
       375  16  1.560836E+04 -1.403368E+05  4.467502E+03  8.224697E+04  1.434477E-10 -6.315785E-10
       375  17 -1.235166E+04 -2.649237E+05 -1.673801E+04  5.812643E+04  2.679903E-10 -7.863907E-10
       375  18 -4.237579E+04 -3.904613E+05 -4.039110E+04  8.328277E+04  3.257035E-10 -1.907655E-10
       375  19 -2.039282E+04 -2.880053E+05 -2.784754E+04  8.374753E+04  3.691386E+03  3.911038E+03
       375  20  1.258243E+04 -1.624779E+05  5.458631E+03  5.858944E+04 -2.736083E+03  1.201223E+03
       375  21  4.353304E+04 -3.786278E+04  3.647518E+04  8.270776E+04 -9.044514E+03 -1.509619E+03
       375  22 -2.392014E+03 -2.141735E+05 -1.168966E+04  8.299732E+04  3.695857E+03  1.013506E+04
       375  23  1.154867E+02 -2.137020E+05 -5.639507E+03  5.835791E+04 -2.731895E+03  7.311017E+03
       375  24  5.797066E+02 -2.141766E+05 -1.956908E+03  8.299527E+04 -9.040556E+03  4.486475E+03
       375  25  1.560845E+04 -1.403365E+05  4.468031E+03  8.224702E+04  3.700313E+03  1.635982E+04
       375  26 -1.235160E+04 -2.649235E+05 -1.673766E+04  5.812640E+04 -2.727711E+03  1.342031E+04
       375  27 -4.237567E+04 -3.904612E+05 -4.039074E+04  8.328269E+04 -9.036592E+03  1.048089E+04
       376   1  6.686807E+04  6.243473E+04  5.939927E+04  8.195501E+04  1.450827E+04  5.758933E+03
       376   2  9.792650E+04  1.855057E+05  9.141764E+04  5.978092E+04  1.760264E+04 -9.597850E+03
       376   3  1.376126E+05  3.127502E+05  1.355872E+05  8.621998E+04  6.085253E+03 -2.495258E+04
       376   4 -3.292117E+02 -2.135926E+05 -5.470382E+02  8.284945E+04  1.450226E+04 -4.234634E+03
       376   5  1.321261E+02 -2.144706E+05  2.428183E+03  5.854054E+04  1.760551E+04 -5.559300E+03
       376   6  6.789579E+03 -2.136213E+05  7.813491E+03  8.284625E+04  6.092878E+03 -6.878918E+03
       376   7 -6.753149E+04 -4.895483E+05 -6.049752E+04  8.374347E+04  1.449623E+04 -1.422382E+04
       376   8 -9.767307E+04 -6.142977E+05 -8.657120E+04  5.730094E+04  1.760836E+04 -1.523322E+03
       376   9 -1.240536E+05 -7.397392E+05 -1.199790E+05  7.947535E+04  6.100311E+03  1.117947E+04
       376  10  6.686784E+04  6.243463E+04  5.939881E+04  8.195494E+04 -2.589719E-10 -2.726066E-10
       376  11  9.792614E+04  1.855056E+05  9.141688E+04  5.978105E+04 -2.924237E-10  3.997454E-10
       376  12  1.376124E+05  3.127495E+05  1.355859E+05  8.622011E+04  6.349630E-12  8.271010E-11
       376  13 -3.294424E+02 -2.135927E+05 -5.474672E+02  8.284950E+04  3.099657E-10  8.391035E-11
       376  14  1.317850E+02 -2.144707E+05  2.427543E+03  5.854062E+04 -9.997437E-11 -1.630024E-10
       376  15  6.789526E+03 -2.136214E+05  7.813332E+03  8.284629E+04 -2.177178E-10  4.201819E-11
       376  16 -6.753177E+04 -4.895486E+05 -6.049830E+04  8.374363E+04 -5.035286E-11  7.347175E-11
       376  17 -9.767341E+04 -6.142978E+05 -8.657179E+04  5.730096E+04 -8.863378E-11 -2.776439E-10
       376  18 -1.240537E+05 -7.397393E+05 -1.199793E+05  7.947529E+04  3.280314E-10 -4.062574E-11
       376  19  6.686807E+04  6.243473E+04  5.939927E+04  8.195501E+04 -1.450827E+04 -5.758933E+03
       376  20  9.792650E+04  1.855057E+05  9.141764E+04  5.978092E+04 -1.760264E+04  9.597850E+03
       376  21  1.376126E+05  3.127502E+05  1.355872E+05  8.621998E+04 -6.085253E+03  2.495258E+04
       376  22 -3.292117E+02 -2.135926E+05 -5.470382E+02  8.284945E+04 -1.450226E+04  4.234634E+03
       376  23  1.321261E+02 -2.144706E+05  2.428183E+03  5.854054E+04 -1.760551E+04  5.559300E+03
       376  24  6.789579E+03 -2.136213E+05  7.813491E+03  8.284625E+04 -6.092878E+03  6.878918E+03
       376  25 -6.753149E+04 -4.895483E+05 -6.049752E+04  8.374347E+04 -1.449623E+04  1.422382E+04
       376  26 -9.767307E+04 -6.142977E+05 -8.657120E+04  5.730094E+04 -1.760836E+04  1.523322E+03
       376  27 -1.240536E+05 -7.397392E+05 -1.199790E+05  7.947535E+04 -6.100311E+03 -1.117947E+04
       377   1  4.088842E+05  3.461253E+05  1.253089E+05  2.681496E+05  5.599400E+04  3.965344E+04
       377   2  3.916517E+05  2.622360E+05  7.029050E+04  2.881958E+05  3.778613E+04  2.097341E+04
       377   3  4.097281E+05  2.360355E+05  4.997036E+04  2.852412E+05  1.739295E+04  5.209628E+03
       377   4  3.435348E+05  2.378737E+05  9.172082E+04  2.074069E+05  5.149543E+04  3.627650E+04
       377   5  3.117314E+05  1.836040E+05  4.212589E+04  2.381992E+05  3.608934E+04  1.970028E+04
       377   6  3.146343E+05  1.864194E+05  2.480191E+04  2.459891E+05  1.849863E+04  6.038742E+03
       377   7  2.781912E+05  1.296391E+05  5.813191E+04  1.466740E+05  4.699742E+04  3.290082E+04
       377   8  2.318183E+05  1.049800E+05  1.396039E+04  1.882111E+05  3.439284E+04  1.842749E+04
       377   9  2.195516E+05  1.368062E+05 -3.669829E+02  2.067433E+05  1.960406E+04  6.867734E+03
       377  10  4.088805E+05  3.461228E+05  1.253000E+05  2.681478E+05  1.511010E-09  1.352677E-09
       377  11  3.916500E+05  2.622351E+05  7.028699E+04  2.881951E+05 -5.528194E-09 -3.809983E-09
       377  12  4.097278E+05  2.360354E+05  4.996974E+04  2.852411E+05 -7.273308E-09 -4.345417E-09
       377  13  3.435316E+05  2.378716E+05  9.171337E+04  2.074054E+05 -2.343117E-09 -1.327230E-09
       377  14  3.117299E+05  1.836032E+05  4.212272E+04  2.381986E+05 -5.295195E-09 -3.665884E-09
       377  15  3.146339E+05  1.864192E+05  2.480120E+04  2.459890E+05 -2.369636E-09 -1.439008E-09
       377  16  2.781886E+05  1.296373E+05  5.812573E+04  1.466728E+05 -5.995791E-09 -4.207772E-09
       377  17  2.318169E+05  1.049793E+05  1.395753E+04  1.882106E+05 -5.394480E-09 -3.504416E-09
       377  18  2.195511E+05  1.368060E+05 -3.677933E+02  2.067432E+05  2.715883E-09  1.309738E-09
       377  19  4.088842E+05  3.461253E+05  1.253089E+05  2.681496E+05 -5.599400E+04 -3.965344E+04
       377  20  3.916517E+05  2.622360E+05  7.029050E+04  2.881958E+05 -3.778613E+04 -2.097341E+04
       377  21  4.097281E+05  2.360355E+05  4.997036E+04  2.852412E+05 -1.739295E+04 -5.209628E+03
       377  22  3.435348E+05  2.378737E+05  9.172082E+04  2.074069E+05 -5.149543E+04 -3.627650E+04
       377  23  3.117314E+05  1.836040E+05  4.212589E+04  2.381992E+05 -3.608934E+04 -1.970028E+04
       377  24  3.146343E+05  1.864194E+05  2.480191E+04  2.459891E+05 -1.849863E+04 -6.038742E+03
       377  25  2.781912E+05  1.296391E+05  5.813191E+04  1.466740E+05 -4.699742E+04 -3.290082E+04
       377  26  2.318183E+05  1.049800E+05  1.396039E+04  1.882111E+05 -3.439284E+04 -1.842749E+04
       377  27  2.195516E+05  1.368062E+05 -3.669829E+02  2.067433E+05 -1.960406E+04 -6.867734E+03
       378   1  3.914226E+05  2.463981E+05  4.316658E+04  2.797601E+05  1.500832E+04  4.262401E+03
       378   2  3.843630E+05  2.346044E+05  3.212017E+04  2.762892E+05  1.007782E+04  1.121511E+03
       378   3  3.755733E+05  2.301695E+05  2.584035E+04  2.730214E+05  5.049085E+03 -1.888303E+03
       378   4  3.145974E+05  1.897210E+05  1.983500E+04  2.403817E+05  1.528563E+04  4.470159E+03
       378   5  3.147313E+05  1.847289E+05  1.131948E+04  2.412756E+05  1.048173E+04  1.424245E+03
       378   6  3.131079E+05  1.870687E+05  7.461360E+03  2.423725E+05  5.579490E+03 -1.490675E+03
       378   7  2.377786E+05  1.330475E+05 -3.497268E+03  2.010090E+05  1.556289E+04  4.677881E+03
       378   8  2.451045E+05  1.348559E+05 -9.481889E+03  2.062662E+05  1.088557E+04  1.726934E+03
       378   9  2.506461E+05  1.439694E+05 -1.091827E+04  2.117266E+05  6.109829E+03 -1.093095E+03
       378  10  3.914223E+05  2.463980E+05  4.316612E+04  2.797600E+05 -1.088925E-09  1.898066E-10
       378  11  3.843629E+05  2.346044E+05  3.211997E+04  2.762892E+05 -3.714341E-10 -3.712984E-10
       378  12  3.755733E+05  2.301695E+05  2.584029E+04  2.730214E+05  3.493846E-11 -4.187408E-10
       378  13  3.145972E+05  1.897209E+05  1.983453E+04  2.403817E+05  2.421242E-11  1.122852E-10
       378  14  3.147312E+05  1.847289E+05  1.131927E+04  2.412755E+05 -7.884787E-11 -2.703229E-10
       378  15  3.131079E+05  1.870686E+05  7.461297E+03  2.423725E+05 -4.252481E-11 -4.356694E-10
       378  16  2.377784E+05  1.330475E+05 -3.497764E+03  2.010090E+05  1.091108E-09 -3.246860E-10
       378  17  2.451044E+05  1.348558E+05 -9.482117E+03  2.062662E+05  2.613887E-10 -1.638135E-10
       378  18  2.506461E+05  1.439693E+05 -1.091835E+04  2.117267E+05  5.218598E-10 -3.413761E-11
       378  19  3.914226E+05  2.463981E+05  4.316658E+04  2.797601E+05 -1.500832E+04 -4.262401E+03
       378  20  3.843630E+05  2.346044E+05  3.212017E+04  2.762892E+05 -1.007782E+04 -1.121511E+03
       378  21  3.755733E+05  2.301695E+05  2.584035E+04  2.730214E+05 -5.049085E+03  1.888303E+03
       378  22  3.145974E+05  1.897210E+05  1.983500E+04  2.403817E+05 -1.528563E+04 -4.470159E+03
       378  23  3.147313E+05  1.847289E+05  1.131948E+04  2.412756E+05 -1.048173E+04 -1.424245E+03
       378  24  3.131079E+05  1.870687E+05  7.461360E+03  2.423725E+05 -5.579490E+03  1.490675E+03
       378  25  2.377786E+05  1.330475E+05 -3.497268E+03  2.010090E+05 -1.556289E+04 -4.677881E+03
       378  26  2.451045E+05  1.348559E+05 -9.481889E+03  2.062662E+05 -1.088557E+04 -1.726934E+03
       378  27  2.506461E+05  1.439694E+05 -1.091827E+04  2.117266E+05 -6.109829E+03  1.093095E+03
       379   1  3.683795E+05  2.264013E+05  2.288593E+04  2.696931E+05  3.862029E+03 -2.285892E+03
       379   2  3.621203E+05  2.183151E+05  1.984953E+04  2.650037E+05  1.158180E+03 -3.508884E+03
       379   3  3.521241E+05  2.149391E+05  1.881724E+04  2.615582E+05 -1.549158E+03 -4.727136E+03
       379   4  3.130699E+05  1.872017E+05  6.480784E+03  2.420669E+05  4.354259E+03 -1.916869E+03
       379   5  3.149467E+05  1.848605E+05  5.833003E+03  2.414352E+05  1.655146E+03 -3.136286E+03
       379   6  3.130852E+05  1.872285E+05  7.185309E+03  2.420472E+05 -1.047510E+03 -4.350999E+03
       379   7  2.577643E+05  1.480041E+05 -9.924499E+03  2.144437E+05  4.846424E+03 -1.547895E+03
       379   8  2.677758E+05  1.514072E+05 -8.183688E+03  2.178688E+05  2.152057E+03 -2.763728E+03
       379   9  2.740481E+05  1.595187E+05 -4.446784E+03  2.225377E+05 -5.459056E+02 -3.974895E+03
       379  10  3.683795E+05  2.264013E+05  2.288589E+04  2.696931E+05 -2.183663E-10 -2.645266E-10
       379  11  3.621203E+05  2.183151E+05  1.984951E+04  2.650037E+05 -1.554468E-10  2.845572E-10
       379  12  3.521241E+05  2.149391E+05  1.881719E+04  2.615582E+05  4.565817E-10 -6.837817E-11
       379  13  3.130699E+05  1.872017E+05  6.480742E+03  2.420669E+05  2.771890E-10 -3.383704E-10
       379  14  3.149467E+05  1.848604E+05  5.832979E+03  2.414352E+05  1.495023E-10  1.168149E-10
       379  15  3.130852E+05  1.872284E+05  7.185271E+03  2.420472E+05  1.860806E-10  1.353898E-11
       379  16  2.577643E+05  1.480041E+05 -9.924547E+03  2.144437E+05  4.451174E-10 -3.763827E-11
       379  17  2.677758E+05  1.514072E+05 -8.183711E+03  2.178688E+05  1.134313E-10 -3.601379E-12
       379  18  2.740481E+05  1.595187E+05 -4.446814E+03  2.225377E+05 -2.918786E-10  2.620585E-12
       379  19  3.683795E+05  2.264013E+05  2.288593E+04  2.696931E+05 -3.862029E+03  2.285892E+03
       379  20  3.621203E+05  2.183151E+05  1.984953E+04  2.650037E+05 -1.158180E+03  3.508884E+03
       379  21  3.521241E+05  2.149391E+05  1.881724E+04  2.615582E+05  1.549158E+03  4.727136E+03
       379  22  3.130699E+05  1.872017E+05  6.480784E+03  2.420669E+05 -4.354259E+03  1.916869E+03
       379  23  3.149467E+05  1.848605E+05  5.833003E+03  2.414352E+05 -1.655146E+03  3.136286E+03
       379  24  3.130852E+05  1.872285E+05  7.185309E+03  2.420472E+05  1.047510E+03  4.350999E+03
       379  25  2.577643E+05  1.480041E+05 -9.924499E+03  2.144437E+05 -4.846424E+03  1.547895E+03
       379  26  2.677758E+05  1.514072E+05 -8.183688E+03  2.178688E+05 -2.152057E+03  2.763728E+03
       379  27  2.740481E+05  1.595187E+05 -4.446784E+03  2.225377E+05  5.459056E+02  3.974895E+03
       380   1  3.449202E+05  2.110202E+05  1.822642E+04  2.589722E+05 -2.894519E+03 -5.259698E+03
       380   2  3.395589E+05  2.016926E+05  2.082266E+04  2.533725E+05 -8.699916E+03 -8.805059E+03
       380   3  3.330056E+05  2.003439E+05  2.900616E+04  2.477244E+05 -1.449623E+04 -1.236258E+04
       380   4  3.131482E+05  1.870600E+05  8.568200E+03  2.424320E+05 -2.391742E+03 -4.882690E+03
       380   5  3.146560E+05  1.846940E+05  1.354131E+04  2.412369E+05 -8.208598E+03 -8.436647E+03
       380   6  3.149743E+05  1.903095E+05  2.411180E+04  2.399933E+05 -1.401639E+04 -1.200282E+04
       380   7  2.813770E+05  1.631001E+05 -1.090248E+03  2.258926E+05 -1.888995E+03 -4.505707E+03
       380   8  2.897537E+05  1.676957E+05  6.259896E+03  2.291018E+05 -7.717307E+03 -8.068255E+03
       380   9  2.969435E+05  1.802753E+05  1.921747E+04  2.322625E+05 -1.353658E+04 -1.164307E+04
       380  10  3.449201E+05  2.110202E+05  1.822635E+04  2.589722E+05  4.163405E-11 -3.774579E-10
       380  11  3.395588E+05  2.016925E+05  2.082237E+04  2.533724E+05  3.658522E-12  2.188074E-11
       380  12  3.330054E+05  2.003437E+05  2.900548E+04  2.477243E+05  8.078345E-11  8.299406E-11
       380  13  3.131482E+05  1.870599E+05  8.568144E+03  2.424320E+05  7.539535E-11  1.410458E-10
       380  14  3.146559E+05  1.846939E+05  1.354105E+04  2.412368E+05  3.798222E-11  3.102515E-10
       380  15  3.149741E+05  1.903093E+05  2.411116E+04  2.399932E+05  3.938053E-11  2.093800E-10
       380  16  2.813770E+05  1.631001E+05 -1.090293E+03  2.258926E+05  4.073036E-10  2.671080E-10
       380  17  2.897536E+05  1.676956E+05  6.259662E+03  2.291017E+05 -8.042028E-11  2.317276E-10
       380  18  2.969433E+05  1.802751E+05  1.921687E+04  2.322624E+05 -1.607135E-10 -6.413571E-11
       380  19  3.449202E+05  2.110202E+05  1.822642E+04  2.589722E+05  2.894519E+03  5.259698E+03
       380  20  3.395589E+05  2.016926E+05  2.082266E+04  2.533725E+05  8.699916E+03  8.805059E+03
       380  21  3.330056E+05  2.003439E+05  2.900616E+04  2.477244E+05  1.449623E+04  1.236258E+04
       380  22  3.131482E+05  1.870600E+05  8.568200E+03  2.424320E+05  2.391742E+03  4.882690E+03
       380  23  3.146560E+05  1.846940E+05  1.354131E+04  2.412369E+05  8.208598E+03  8.436647E+03
       380  24  3.149743E+05  1.903095E+05  2.411180E+04  2.399933E+05  1.401639E+04  1.200282E+04
       380  25  2.813770E+05  1.631001E+05 -1.090248E+03  2.258926E+05  1.888995E+03  4.505707E+03
       380  26  2.897537E+05  1.676957E+05  6.259896E+03  2.291018E+05  7.717307E+03  8.068255E+03
       380  27  2.969435E+05  1.802753E+05  1.921747E+04  2.322625E+05  1.353658E+04  1.164307E+04
       381   1  3.122568E+05  2.061003E+05  3.318075E+04  2.555762E+05 -1.823087E+04 -1.465832E+04
       381   2  3.286895E+05  1.688726E+05  5.204250E+04  2.338230E+05 -4.010764E+04 -3.036604E+04
       381   3  3.884209E+05  2.006354E+05  1.101841E+05  1.836446E+05 -6.178838E+04 -4.633454E+04
       381   4  3.149894E+05  1.863014E+05  3.024268E+04  2.468717E+05 -1.767722E+04 -1.424252E+04
       381   5  3.110206E+05  1.832749E+05  5.152912E+04  2.374573E+05 -3.980545E+04 -3.014109E+04
       381   6  3.504020E+05  2.492915E+05  1.123138E+05  1.996179E+05 -6.173658E+04 -4.630285E+04
       381   7  3.177224E+05  1.665034E+05  2.730469E+04  2.381672E+05 -1.712357E+04 -1.382676E+04
       381   8  2.933523E+05  1.976780E+05  5.101587E+04  2.410914E+05 -3.950327E+04 -2.991612E+04
       381   9  3.123880E+05  2.979555E+05  1.144447E+05  2.155900E+05 -6.168478E+04 -4.627115E+04
       381  10  3.122564E+05  2.061000E+05  3.317973E+04  2.555760E+05  7.518019E-14  5.206771E-11
       381  11  3.286875E+05  1.688711E+05  5.203775E+04  2.338221E+05 -1.392594E-10  2.022312E-10
       381  12  3.884162E+05  2.006321E+05  1.101729E+05  1.836423E+05 -1.154707E-11  2.974306E-11
       381  13  3.149891E+05  1.863011E+05  3.024171E+04  2.468715E+05 -5.444317E-11  1.006488E-10
       381  14  3.110186E+05  1.832735E+05  5.152444E+04  2.374563E+05 -3.716503E-10 -2.191520E-11
       381  15  3.503974E+05  2.492882E+05  1.123026E+05  1.996156E+05 -3.347230E-10  1.019895E-10
       381  16  3.177220E+05  1.665031E+05  2.730378E+04  2.381671E+05 -9.763353E-11  1.167097E-10
       381  17  2.933504E+05  1.976767E+05  5.101126E+04  2.410904E+05  1.045536E-10  1.599694E-10
       381  18  3.123833E+05  2.979522E+05  1.144335E+05  2.155877E+05  7.821390E-11  6.017409E-11
       381  19  3.122568E+05  2.061003E+05  3.318075E+04  2.555762E+05  1.823087E+04  1.465832E+04
       381  20  3.286895E+05  1.688726E+05  5.204250E+04  2.338230E+05  4.010764E+04  3.036604E+04
       381  21  3.884209E+05  2.006354E+05  1.101841E+05  1.836446E+05  6.178838E+04  4.633454E+04
       381  22  3.149894E+05  1.863014E+05  3.024268E+04  2.468717E+05  1.767722E+04  1.424252E+04
       381  23  3.110206E+05  1.832749E+05  5.152912E+04  2.374573E+05  3.980545E+04  3.014109E+04
       381  24  3.504020E+05  2.492915E+05  1.123138E+05  1.996179E+05  6.173658E+04  4.630285E+04
       381  25  3.177224E+05  1.665034E+05  2.730469E+04  2.381672E+05  1.712357E+04  1.382676E+04
       381  26  2.933523E+05  1.976780E+05  5.101587E+04  2.410914E+05  3.950327E+04  2.991612E+04
       381  27  3.123880E+05  2.979555E+05  1.144447E+05  2.155900E+05  6.168478E+04  4.627115E+04
       382   1  7.514608E+05  1.375482E+05  1.369306E+05  6.821231E+04  2.862876E+04 -6.125952E+03
       382   2  6.547974E+05  9.996755E+04  9.745803E+04  4.615120E+04  1.184407E+04 -1.830513E+04
       382   3  5.638553E+05  7.629014E+04  7.238902E+04  6.037548E+04 -4.936658E+03 -1.675594E+04
       382   4  2.478311E+05  1.248114E+04  1.492381E+04  6.210937E+04  1.032527E+04 -6.125272E+03
       382   5  2.461285E+05  1.416792E+02  6.785374E+03  4.396624E+04  6.735735E+03 -1.830626E+04
       382   6  2.478552E+05 -5.777749E+02  3.898103E+03  6.210932E+04  3.147698E+03 -1.675506E+04
       382   7 -2.555664E+05 -1.126042E+05 -1.071000E+05  5.601138E+04 -7.963437E+03 -6.124232E+03
       382   8 -1.623847E+05 -9.969544E+04 -8.389755E+04  4.178273E+04  1.630725E+03 -1.830737E+04
       382   9 -6.805110E+04 -7.745225E+04 -6.459851E+04  6.384226E+04  1.122800E+04 -1.675413E+04
       382  10  7.514600E+05  1.375480E+05  1.369290E+05  6.821246E+04  1.938005E-11  6.810803E-11
       382  11  6.547972E+05  9.996715E+04  9.745713E+04  4.615137E+04  3.509743E-10  2.373641E-10
       382  12  5.638552E+05  7.628983E+04  7.238845E+04  6.037541E+04 -2.086615E-10  2.421904E-10
       382  13  2.478310E+05  1.248107E+04  1.492354E+04  6.210942E+04 -4.201748E-12  7.937240E-11
       382  14  2.461283E+05  1.413071E+02  6.784659E+03  4.396634E+04  9.358321E-11  4.691723E-11
       382  15  2.478552E+05 -5.780790E+02  3.897556E+03  6.210936E+04  5.013768E-10  1.703235E-10
       382  16 -2.555665E+05 -1.126043E+05 -1.071002E+05  5.601134E+04 -9.627961E-11  1.447645E-10
       382  17 -1.623848E+05 -9.969580E+04 -8.389819E+04  4.178275E+04  1.815932E-10  2.276678E-10
       382  18 -6.805131E+04 -7.745258E+04 -6.459927E+04  6.384241E+04  2.953427E-10  1.768141E-10
       382  19  7.514608E+05  1.375482E+05  1.369306E+05  6.821231E+04 -2.862876E+04  6.125952E+03
       382  20  6.547974E+05  9.996755E+04  9.745803E+04  4.615120E+04 -1.184407E+04  1.830513E+04
       382  21  5.638553E+05  7.629014E+04  7.238902E+04  6.037548E+04  4.936658E+03  1.675594E+04
       382  22  2.478311E+05  1.248114E+04  1.492381E+04  6.210937E+04 -1.032527E+04  6.125272E+03
       382  23  2.461285E+05  1.416792E+02  6.785374E+03  4.396624E+04 -6.735735E+03  1.830626E+04
       382  24  2.478552E+05 -5.777749E+02  3.898103E+03  6.210932E+04 -3.147698E+03  1.675506E+04
       382  25 -2.555664E+05 -1.126042E+05 -1.071000E+05  5.601138E+04  7.963437E+03  6.124232E+03
       382  26 -1.623847E+05 -9.969544E+04 -8.389755E+04  4.178273E+04 -1.630725E+03  1.830737E+04
       382  27 -6.805110E+04 -7.745225E+04 -6.459851E+04  6.384226E+04 -1.122800E+04  1.675413E+04
       383   1  4.884827E+05  5.939671E+04  5.553966E+04  6.248534E+04 -1.586815E+03 -1.248002E+04
       383   2  3.947421E+05  3.594197E+04  3.351514E+04  4.387175E+04 -2.907334E+03 -7.818117E+03
       383   3  3.013529E+05  1.320688E+04  1.252669E+04  6.211965E+04 -4.228668E+03 -2.560414E+03
       383   4  2.471563E+05  6.504415E+02  3.033397E+03  6.223723E+04  2.604705E+03 -1.247937E+04
       383   5  2.470385E+05  6.718173E+00  1.488593E+03  4.380632E+04  1.856476E+03 -7.816958E+03
       383   6  2.471647E+05 -1.599045E+01  5.832080E+02  6.223742E+04  1.107236E+03 -2.558649E+03
       383   7  5.884476E+03 -5.809968E+04 -4.947629E+04  6.198922E+04  6.794619E+03 -1.247872E+04
       383   8  9.935545E+04 -3.592997E+04 -3.053917E+04  4.374091E+04  6.619167E+03 -7.815800E+03
       383   9  1.929794E+05 -1.323905E+04 -1.136034E+04  6.235519E+04  6.442681E+03 -2.556883E+03
       383  10  4.884826E+05  5.939654E+04  5.553936E+04  6.248533E+04  3.622955E-10  2.638241E-10
       383  11  3.947421E+05  3.594190E+04  3.351501E+04  4.387173E+04  5.736562E-10 -4.619788E-12
       383  12  3.013528E+05  1.320687E+04  1.252664E+04  6.211964E+04  1.276189E-10  4.366538E-11
       383  13  2.471562E+05  6.502724E+02  3.033091E+03  6.223726E+04  3.551137E-10  4.620932E-11
       383  14  2.470385E+05  6.651623E+00  1.488472E+03  4.380633E+04  8.389838E-11  4.069780E-11
       383  15  2.471647E+05 -1.599781E+01  5.831934E+02  6.223742E+04 -3.023291E-10  2.769201E-11
       383  16  5.884384E+03 -5.809986E+04 -4.947667E+04  6.198928E+04 -4.059157E-10  1.514075E-10
       383  17  9.935538E+04 -3.593004E+04 -3.053936E+04  4.374095E+04  2.547639E-11 -3.302618E-10
       383  18  1.929793E+05 -1.323906E+04 -1.136043E+04  6.235520E+04 -3.602002E-12 -1.438838E-10
       383  19  4.884827E+05  5.939671E+04  5.553966E+04  6.248534E+04  1.586815E+03  1.248002E+04
       383  20  3.947421E+05  3.594197E+04  3.351514E+04  4.387175E+04  2.907334E+03  7.818117E+03
       383  21  3.013529E+05  1.320688E+04  1.252669E+04  6.211965E+04  4.228668E+03  2.560414E+03
       383  22  2.471563E+05  6.504415E+02  3.033397E+03  6.223723E+04 -2.604705E+03  1.247937E+04
       383  23  2.470385E+05  6.718173E+00  1.488593E+03  4.380632E+04 -1.856476E+03  7.816958E+03
       383  24  2.471647E+05 -1.599045E+01  5.832080E+02  6.223742E+04 -1.107236E+03  2.558649E+03
       383  25  5.884476E+03 -5.809968E+04 -4.947629E+04  6.198922E+04 -6.794619E+03  1.247872E+04
       383  26  9.935545E+04 -3.592997E+04 -3.053917E+04  4.374091E+04 -6.619167E+03  7.815800E+03
       383  27  1.929794E+05 -1.323905E+04 -1.136034E+04  6.235519E+04 -6.442681E+03  2.556883E+03
       384   1  2.269738E+05 -4.855723E+03 -4.352670E+03  6.214812E+04 -4.289782E+03  7.185888E+02
       384   2  1.335319E+05 -2.762792E+04 -2.515663E+04  4.379674E+04 -3.503782E+03  5.986281E+03
       384   3  3.988843E+04 -5.078384E+04 -4.657244E+04  6.230789E+04 -2.717109E+03  1.069906E+04
       384   4  2.470847E+05  8.075125E+01  2.236999E+02  6.223738E+04  1.034598E+03  7.203813E+02
       384   5  2.471409E+05  2.000885E+01 -5.023521E+02  4.380638E+04  1.287496E+03  5.987571E+03
       384   6  2.470785E+05 -3.316930E+02 -1.470112E+03  6.223750E+04  1.541189E+03  1.069993E+04
       384   7  2.671961E+05  5.017212E+03  4.800150E+03  6.232664E+04  6.359149E+03  7.221752E+02
       384   8  3.607621E+05  2.766710E+04  2.415125E+04  4.381602E+04  6.079639E+03  5.988861E+03
       384   9  4.543089E+05  5.011762E+04  4.362971E+04  6.216709E+04  5.800891E+03  1.070079E+04
       384  10  2.269738E+05 -4.855728E+03 -4.352706E+03  6.214813E+04  1.436904E-10 -6.911152E-11
       384  11  1.335318E+05 -2.762797E+04 -2.515672E+04  4.379676E+04  3.254792E-10  5.704801E-11
       384  12  3.988839E+04 -5.078397E+04 -4.657267E+04  6.230791E+04  1.862211E-10 -7.958872E-11
       384  13  2.470847E+05  8.075041E+01  2.236970E+02  6.223738E+04  2.650851E-10 -3.529934E-11
       384  14  2.471409E+05  1.996990E+01 -5.024226E+02  4.380637E+04  7.707697E-11 -3.750093E-10
       384  15  2.470785E+05 -3.318166E+02 -1.470331E+03  6.223749E+04  9.191688E-11  3.321370E-11
       384  16  2.671960E+05  5.017201E+03  4.800073E+03  6.232663E+04 -2.868565E-12 -1.021917E-10
       384  17  3.607621E+05  2.766705E+04  2.415111E+04  4.381599E+04  4.233826E-10 -2.024534E-10
       384  18  4.543088E+05  5.011749E+04  4.362943E+04  6.216704E+04 -7.200840E-11  1.930617E-10
       384  19  2.269738E+05 -4.855723E+03 -4.352670E+03  6.214812E+04  4.289782E+03 -7.185888E+02
       384  20  1.335319E+05 -2.762792E+04 -2.515663E+04  4.379674E+04  3.503782E+03 -5.986281E+03
       384  21  3.988843E+04 -5.078384E+04 -4.657244E+04  6.230789E+04  2.717109E+03 -1.069906E+04
       384  22  2.470847E+05  8.075125E+01  2.236999E+02  6.223738E+04 -1.034598E+03 -7.203813E+02
       384  23  2.471409E+05  2.000885E+01 -5.023521E+02  4.380638E+04 -1.287496E+03 -5.987571E+03
       384  24  2.470785E+05 -3.316930E+02 -1.470112E+03  6.223750E+04 -1.541189E+03 -1.069993E+04
       384  25  2.671961E+05  5.017212E+03  4.800150E+03  6.232664E+04 -6.359149E+03 -7.221752E+02
       384  26  3.607621E+05  2.766710E+04  2.415125E+04  4.381602E+04 -6.079639E+03 -5.988861E+03
       384  27  4.543089E+05  5.011762E+04  4.362971E+04  6.216709E+04 -5.800891E+03 -1.070079E+04
       385   1 -3.509127E+04 -6.825654E+04 -6.310355E+04  6.111562E+04 -6.097424E+03  1.490551E+04
       385   2 -1.268772E+05 -9.163841E+04 -8.678690E+04  4.511304E+04  8.170689E+03  1.670577E+04
       385   3 -2.225615E+05 -1.233880E+05 -1.218440E+05  6.542291E+04  2.243602E+04  5.637034E+03
       385   4  2.467058E+05  3.223708E+02 -1.978463E+03  6.211504E+04  1.804952E+03  1.490673E+04
       385   5  2.475754E+05 -1.183409E+02 -3.619096E+03  4.395944E+04  3.722533E+03  1.670465E+04
       385   6  2.466860E+05 -6.779071E+03 -8.054541E+03  6.211532E+04  5.639390E+03  5.636933E+03
       385   7  5.285775E+05  6.889607E+04  5.914213E+04  6.311490E+04  9.710867E+03  1.490798E+04
       385   8  6.221588E+05  9.139226E+04  7.954006E+04  4.280512E+04 -7.282764E+02  1.670353E+04
       385   9  7.161352E+05  1.098139E+05  1.057201E+05  5.880521E+04 -1.116990E+04  5.637011E+03
       385  10 -3.509137E+04 -6.825679E+04 -6.310404E+04  6.111569E+04  1.827389E-10 -6.504639E-11
       385  11 -1.268774E+05 -9.163872E+04 -8.678755E+04  4.511293E+04 -1.059333E-10  6.120506E-11
       385  12 -2.225620E+05 -1.233882E+05 -1.218450E+05  6.542281E+04  9.952609E-11  2.420841E-11
       385  13  2.467057E+05  3.221313E+02 -1.978887E+03  6.211501E+04  7.291384E-11  2.176072E-10
       385  14  2.475753E+05 -1.186443E+02 -3.619647E+03  4.395939E+04  4.673710E-12  7.410959E-11
       385  15  2.466859E+05 -6.779114E+03 -8.054661E+03  6.211529E+04 -1.625188E-10  2.171812E-11
       385  16  5.285773E+05  6.889580E+04  5.914153E+04  6.311479E+04 -1.372525E-10  2.086992E-10
       385  17  6.221587E+05  9.139196E+04  7.953953E+04  4.280513E+04 -6.460071E-12 -4.453946E-11
       385  18  7.161350E+05  1.098138E+05  1.057198E+05  5.880526E+04  5.946633E-11  9.658323E-12
       385  19 -3.509127E+04 -6.825654E+04 -6.310355E+04  6.111562E+04  6.097424E+03 -1.490551E+04
       385  20 -1.268772E+05 -9.163841E+04 -8.678690E+04  4.511304E+04 -8.170689E+03 -1.670577E+04
       385  21 -2.225615E+05 -1.233880E+05 -1.218440E+05  6.542291E+04 -2.243602E+04 -5.637034E+03
       385  22  2.467058E+05  3.223708E+02 -1.978463E+03  6.211504E+04 -1.804952E+03 -1.490673E+04
       385  23  2.475754E+05 -1.183409E+02 -3.619096E+03  4.395944E+04 -3.722533E+03 -1.670465E+04
       385  24  2.466860E+05 -6.779071E+03 -8.054541E+03  6.211532E+04 -5.639390E+03 -5.636933E+03
       385  25  5.285775E+05  6.889607E+04  5.914213E+04  6.311490E+04 -9.710867E+03 -1.490798E+04
       385  26  6.221588E+05  9.139226E+04  7.954006E+04  4.280512E+04  7.282764E+02 -1.670353E+04
       385  27  7.161352E+05  1.098139E+05  1.057201E+05  5.880521E+04  1.116990E+04 -5.637011E+03
       386   1 -1.744721E+05 -6.727914E+05 -1.892288E+05  1.147815E+05 -3.934748E+03 -7.972615E+04
       386   2 -6.216953E+04 -5.497617E+05 -1.032067E+05  6.649926E+04 -1.069296E+04 -4.481315E+04
       386   3 -3.014016E+04 -4.513612E+05 -6.000480E+04  6.137268E+04 -7.178043E+03 -9.896487E+03
       386   4 -8.468979E+04 -3.117729E+05 -1.013650E+05  7.333978E+04 -3.925033E+03 -6.832168E+04
       386   5 -1.123444E+03 -3.002996E+05 -4.748255E+04  5.174275E+04 -1.069091E+04 -4.325160E+04
       386   6  3.897328E+03 -3.117443E+05 -2.956519E+04  7.330616E+04 -7.182496E+03 -1.818454E+04
       386   7  5.089465E+03  4.936857E+04 -1.350921E+04  3.187385E+04 -3.916846E+03 -5.691057E+04
       386   8  5.991923E+04 -5.077901E+04  8.237854E+03  3.698024E+04 -1.068893E+04 -4.168942E+04
       386   9  3.793409E+04 -1.721087E+05  8.735679E+02  8.524236E+04 -7.187267E+03 -2.647443E+04
       386  10 -1.744738E+05 -6.727983E+05 -1.892408E+05  1.147813E+05  5.424710E-11 -5.099758E-11
       386  11 -6.217019E+04 -5.497639E+05 -1.032107E+05  6.649888E+04  2.253815E-10  5.810344E-11
       386  12 -3.014024E+04 -4.513613E+05 -6.000508E+04  6.137262E+04 -7.681780E-12  9.943271E-11
       386  13 -8.469106E+04 -3.117780E+05 -1.013738E+05  7.333957E+04  4.457926E-11  4.492563E-10
       386  14 -1.124069E+03 -3.003016E+05 -4.748628E+04  5.174238E+04  7.696685E-10 -1.405189E-10
       386  15  3.897184E+03 -3.117447E+05 -2.956591E+04  7.330606E+04  8.672286E-11  5.166632E-10
       386  16  5.088579E+03  4.936509E+04 -1.351532E+04  3.187367E+04  2.477925E-10 -1.521231E-11
       386  17  5.991864E+04 -5.078091E+04  8.234373E+03  3.697988E+04  2.682918E-10 -2.292396E-10
       386  18  3.793385E+04 -1.721094E+05  8.721535E+02  8.524221E+04  2.693107E-10 -2.315035E-10
       386  19 -1.744721E+05 -6.727914E+05 -1.892288E+05  1.147815E+05  3.934748E+03  7.972615E+04
       386  20 -6.216953E+04 -5.497617E+05 -1.032067E+05  6.649926E+04  1.069296E+04  4.481315E+04
       386  21 -3.014016E+04 -4.513612E+05 -6.000480E+04  6.137268E+04  7.178043E+03  9.896487E+03
       386  22 -8.468979E+04 -3.117729E+05 -1.013650E+05  7.333978E+04  3.925033E+03  6.832168E+04
       386  23 -1.123444E+03 -3.002996E+05 -4.748255E+04  5.174275E+04  1.069091E+04  4.325160E+04
       386  24  3.897328E+03 -3.117443E+05 -2.956519E+04  7.330616E+04  7.182496E+03  1.818454E+04
       386  25  5.089465E+03  4.936857E+04 -1.350921E+04  3.187385E+04  3.916846E+03  5.691057E+04
       386  26  5.991923E+04 -5.077901E+04  8.237854E+03  3.698024E+04  1.068893E+04  4.168942E+04
       386  27  3.793409E+04 -1.721087E+05  8.735679E+02  8.524236E+04  7.187267E+03  2.647443E+04
       387   1 -1.667276E+04 -3.587629E+05 -3.615831E+04  7.536281E+04 -2.544756E+03 -8.325578E+03
       387   2  1.457916E+04 -2.466926E+05 -5.037308E+03  5.177138E+04  3.161895E+03  4.946299E+02
       387   3  3.925185E+04 -1.374462E+05  1.868268E+04  7.178084E+04  8.730946E+03  9.316871E+03
       387   4 -4.118537E+03 -3.072850E+05 -2.487169E+04  7.341299E+04 -2.547742E+03 -1.386341E+04
       387   5  1.783850E+02 -3.058576E+05 -1.785721E+04  5.161174E+04  3.159159E+03 -4.911342E+03
       387   6 -2.126168E+03 -3.072883E+05 -1.833439E+04  7.341197E+04  8.728462E+03  4.041235E+03
       387   7  8.435537E+03 -2.558046E+05 -1.358512E+04  7.146301E+04 -2.550692E+03 -1.940169E+04
       387   8 -1.422261E+04 -3.650193E+05 -3.067721E+04  5.145212E+04  3.156425E+03 -1.031681E+04
       387   9 -4.350607E+04 -4.771033E+05 -5.535307E+04  7.504265E+04  8.725950E+03 -1.232976E+03
       387  10 -1.667278E+04 -3.587630E+05 -3.615845E+04  7.536280E+04  1.369471E-10  5.033663E-11
       387  11  1.457915E+04 -2.466926E+05 -5.037327E+03  5.177137E+04 -6.124881E-12  2.961666E-10
       387  12  3.925174E+04 -1.374463E+05  1.868237E+04  7.178078E+04  2.707324E-10  9.483930E-11
       387  13 -4.118596E+03 -3.072852E+05 -2.487206E+04  7.341297E+04  2.585084E-10  2.179204E-10
       387  14  1.783678E+02 -3.058577E+05 -1.785728E+04  5.161175E+04 -4.094813E-10  3.657279E-13
       387  15 -2.126254E+03 -3.072884E+05 -1.833456E+04  7.341194E+04 -3.206247E-10  7.735971E-10
       387  16  8.435429E+03 -2.558050E+05 -1.358584E+04  7.146297E+04  2.756704E-10 -5.420749E-11
       387  17 -1.422265E+04 -3.650194E+05 -3.067743E+04  5.145215E+04  3.386477E-10 -2.094566E-10
       387  18 -4.350616E+04 -4.771033E+05 -5.535322E+04  7.504265E+04  3.704739E-11 -2.464770E-10
       387  19 -1.667276E+04 -3.587629E+05 -3.615831E+04  7.536281E+04  2.544756E+03  8.325578E+03
       387  20  1.457916E+04 -2.466926E+05 -5.037308E+03  5.177138E+04 -3.161895E+03 -4.946299E+02
       387  21  3.925185E+04 -1.374462E+05  1.868268E+04  7.178084E+04 -8.730946E+03 -9.316871E+03
       387  22 -4.118537E+03 -3.072850E+05 -2.487169E+04  7.341299E+04  2.547742E+03  1.386341E+04
       387  23  1.783850E+02 -3.058576E+05 -1.785721E+04  5.161174E+04 -3.159159E+03  4.911342E+03
       387  24 -2.126168E+03 -3.072883E+05 -1.833439E+04  7.341197E+04 -8.728462E+03 -4.041235E+03
       387  25  8.435537E+03 -2.558046E+05 -1.358512E+04  7.146301E+04  2.550692E+03  1.940169E+04
       387  26 -1.422261E+04 -3.650193E+05 -3.067721E+04  5.145212E+04 -3.156425E+03  1.031681E+04
       387  27 -4.350607E+04 -4.771033E+05 -5.535307E+04  7.504265E+04 -8.725950E+03  1.232976E+03
       388   1  6.491761E+04 -5.147919E+04  3.621653E+04  7.994817E+04  1.359298E+04  1.605130E+04
       388   2  8.927180E+04  6.460324E+04  5.362313E+04  4.344460E+04  1.623694E+04  1.812272E+04
       388   3  7.161658E+04  1.699470E+05  5.918260E+04  4.992628E+04  5.595272E+03  2.019727E+04
       388   4  2.080123E+03 -3.095429E+05 -1.982310E+04  7.327245E+04  1.358904E+04  7.133386E+03
       388   5 -6.224299E+02 -3.030726E+05 -2.816209E+04  5.178492E+04  1.623916E+04  2.195314E+04
       388   6 -4.756191E+04 -3.095739E+05 -5.720940E+04  7.328632E+04  5.600230E+03  3.677524E+04
       388   7 -6.076157E+04 -5.675440E+05 -7.586639E+04  6.659953E+04  1.358530E+04 -1.780869E+03
       388   8 -9.052555E+04 -6.706220E+05 -1.099556E+05  6.012023E+04  1.624149E+04  2.578131E+04
       388   9 -1.667551E+05 -7.888831E+05 -1.736167E+05  9.662825E+04  5.606438E+03  5.334044E+04
       388  10  6.491734E+04 -5.147952E+04  3.621570E+04  7.994800E+04  1.219840E-10  1.565202E-10
       388  11  8.927143E+04  6.460282E+04  5.362202E+04  4.344436E+04  5.870394E-11 -1.127216E-10
       388  12  7.161644E+04  1.699466E+05  5.918178E+04  4.992619E+04  2.313870E-10 -2.559676E-10
       388  13  2.079911E+03 -3.095431E+05 -1.982355E+04  7.327238E+04  4.219496E-10  2.615149E-10
       388  14 -6.228425E+02 -3.030731E+05 -2.816349E+04  5.178463E+04  1.205928E-10  9.981022E-11
       388  15 -4.756231E+04 -3.095754E+05 -5.721200E+04  7.328616E+04  7.702592E-11  1.411478E-10
       388  16 -6.076177E+04 -5.675440E+05 -7.586675E+04  6.659955E+04 -1.426611E-10 -7.231926E-11
       388  17 -9.052601E+04 -6.706228E+05 -1.099574E+05  6.011990E+04  4.266766E-10 -7.238396E-11
       388  18 -1.667559E+05 -7.888862E+05 -1.736221E+05  9.662801E+04  2.409575E-10  2.050769E-10
       388  19  6.491761E+04 -5.147919E+04  3.621653E+04  7.994817E+04 -1.359298E+04 -1.605130E+04
       388  20  8.927180E+04  6.460324E+04  5.362313E+04  4.344460E+04 -1.623694E+04 -1.812272E+04
       388  21  7.161658E+04  1.699470E+05  5.918260E+04  4.992628E+04 -5.595272E+03 -2.019727E+04
       388  22  2.080123E+03 -3.095429E+05 -1.982310E+04  7.327245E+04 -1.358904E+04 -7.133386E+03
       388  23 -6.224299E+02 -3.030726E+05 -2.816209E+04  5.178492E+04 -1.623916E+04 -2.195314E+04
       388  24 -4.756191E+04 -3.095739E+05 -5.720940E+04  7.328632E+04 -5.600230E+03 -3.677524E+04
       388  25 -6.076157E+04 -5.675440E+05 -7.586639E+04  6.659953E+04 -1.358530E+04  1.780869E+03
       388  26 -9.052555E+04 -6.706220E+05 -1.099556E+05  6.012023E+04 -1.624149E+04 -2.578131E+04
       388  27 -1.667551E+05 -7.888831E+05 -1.736167E+05  9.662825E+04 -5.606438E+03 -5.334044E+04
       389   1  4.470934E+05  3.545509E+05  1.115407E+05  3.045034E+05  5.721086E+04  4.206451E+04
       389   2  4.354888E+05  2.720379E+05  5.632116E+04  3.316277E+05  3.774111E+04  2.555619E+04
       389   3  4.667380E+05  2.475091E+05  3.718391E+04  3.322048E+05  1.756745E+04  9.987506E+03
       389   4  4.528307E+05  2.909818E+05  1.003806E+05  2.762311E+05  5.558675E+04  4.084108E+04
       389   5  4.156838E+05  2.339347E+05  4.606176E+04  3.106215E+05  3.701705E+04  2.501202E+04
       389   6  4.211962E+05  2.346753E+05  2.704404E+04  3.184644E+05  1.774456E+04  1.012075E+04
       389   7  4.585708E+05  2.274222E+05  8.922144E+04  2.479597E+05  5.396263E+04  3.961798E+04
       389   8  3.958797E+05  1.958341E+05  3.580240E+04  2.896166E+05  3.629303E+04  2.446792E+04
       389   9  3.756569E+05  2.218418E+05  1.690413E+04  3.047247E+05  1.792165E+04  1.025398E+04
       389  10  4.470894E+05  3.545481E+05  1.115312E+05  3.045015E+05  2.531088E-10  8.897540E-11
       389  11  4.354871E+05  2.720368E+05  5.631726E+04  3.316269E+05  1.158929E-12 -4.509348E-11
       389  12  4.667376E+05  2.475089E+05  3.718315E+04  3.322047E+05 -2.061028E-10 -2.130828E-10
       389  13  4.528269E+05  2.909791E+05  1.003717E+05  2.762293E+05  4.098874E-10  1.955818E-12
       389  14  4.156822E+05  2.339337E+05  4.605801E+04  3.106208E+05  6.453760E-10 -2.574645E-10
       389  15  4.211958E+05  2.346751E+05  2.704326E+04  3.184643E+05  2.239641E-10 -2.230393E-10
       389  16  4.585673E+05  2.274198E+05  8.921303E+04  2.479579E+05 -1.794026E-10 -3.081862E-10
       389  17  3.958781E+05  1.958331E+05  3.579880E+04  2.896159E+05  1.987189E-11 -3.213268E-10
       389  18  3.756565E+05  2.218416E+05  1.690333E+04  3.047246E+05  7.817621E-10 -3.448499E-10
       389  19  4.470934E+05  3.545509E+05  1.115407E+05  3.045034E+05 -5.721086E+04 -4.206451E+04
       389  20  4.354888E+05  2.720379E+05  5.632116E+04  3.316277E+05 -3.774111E+04 -2.555619E+04
       389  21  4.667380E+05  2.475091E+05  3.718391E+04  3.322048E+05 -1.756745E+04 -9.987506E+03
       389  22  4.528307E+05  2.909818E+05  1.003806E+05  2.762311E+05 -5.558675E+04 -4.084108E+04
       389  23  4.156838E+05  2.339347E+05  4.606176E+04  3.106215E+05 -3.701705E+04 -2.501202E+04
       389  24  4.211962E+05  2.346753E+05  2.704404E+04  3.184644E+05 -1.774456E+04 -1.012075E+04
       389  25  4.585708E+05  2.274222E+05  8.922144E+04  2.479597E+05 -5.396263E+04 -3.961798E+04
       389  26  3.958797E+05  1.958341E+05  3.580240E+04  2.896166E+05 -3.629303E+04 -2.446792E+04
       389  27  3.756569E+05  2.218418E+05  1.690413E+04  3.047247E+05 -1.792165E+04 -1.025398E+04
       390   1  4.540932E+05  2.640359E+05  3.182056E+04  3.298823E+05  1.472727E+04  7.960206E+03
       390   2  4.532139E+05  2.600577E+05  2.242263E+04  3.313805E+05  9.874403E+03  4.210059E+03
       390   3  4.551893E+05  2.593155E+05  1.807265E+04  3.316960E+05  4.990131E+03  5.017683E+02
       390   4  4.211775E+05  2.382623E+05  2.156921E+04  3.123186E+05  1.463776E+04  7.893030E+03
       390   5  4.189390E+05  2.351969E+05  1.213575E+04  3.139996E+05  9.825389E+03  4.173285E+03
       390   6  4.195465E+05  2.353586E+05  7.715290E+03  3.144979E+05  4.981677E+03  4.954183E+02
       390   7  3.882627E+05  2.124893E+05  1.131761E+04  2.947559E+05  1.454825E+04  7.825858E+03
       390   8  3.846653E+05  2.103367E+05  1.848739E+03  2.966199E+05  9.776378E+03  4.136513E+03
       390   9  3.839055E+05  2.114025E+05 -2.642083E+03  2.973010E+05  4.973224E+03  4.890688E+02
       390  10  4.540930E+05  2.640357E+05  3.182004E+04  3.298822E+05 -1.143941E-10 -3.804118E-11
       390  11  4.532138E+05  2.600577E+05  2.242241E+04  3.313804E+05  4.888658E-10  1.198357E-10
       390  12  4.551893E+05  2.593155E+05  1.807260E+04  3.316960E+05  2.731522E-10  1.299878E-10
       390  13  4.211773E+05  2.382622E+05  2.156869E+04  3.123186E+05  5.676914E-10 -1.865163E-10
       390  14  4.189389E+05  2.351968E+05  1.213554E+04  3.139996E+05  9.208050E-13 -1.877139E-10
       390  15  4.195465E+05  2.353586E+05  7.715243E+03  3.144979E+05  2.354727E-10  6.572829E-11
       390  16  3.882624E+05  2.124892E+05  1.131710E+04  2.947558E+05  3.595095E-10 -3.845106E-10
       390  17  3.846652E+05  2.103367E+05  1.848528E+03  2.966198E+05 -1.566669E-11 -3.032229E-10
       390  18  3.839054E+05  2.114025E+05 -2.642129E+03  2.973010E+05 -1.712090E-10 -2.982725E-11
       390  19  4.540932E+05  2.640359E+05  3.182056E+04  3.298823E+05 -1.472727E+04 -7.960206E+03
       390  20  4.532139E+05  2.600577E+05  2.242263E+04  3.313805E+05 -9.874403E+03 -4.210059E+03
       390  21  4.551893E+05  2.593155E+05  1.807265E+04  3.316960E+05 -4.990131E+03 -5.017683E+02
       390  22  4.211775E+05  2.382623E+05  2.156921E+04  3.123186E+05 -1.463776E+04 -7.893030E+03
       390  23  4.189390E+05  2.351969E+05  1.213575E+04  3.139996E+05 -9.825389E+03 -4.173285E+03
       390  24  4.195465E+05  2.353586E+05  7.715290E+03  3.144979E+05 -4.981677E+03 -4.954183E+02
       390  25  3.882627E+05  2.124893E+05  1.131761E+04  2.947559E+05 -1.454825E+04 -7.825858E+03
       390  26  3.846653E+05  2.103367E+05  1.848739E+03  2.966199E+05 -9.776378E+03 -4.136513E+03
       390  27  3.839055E+05  2.114025E+05 -2.642083E+03  2.973010E+05 -4.973224E+03 -4.890688E+02
       391   1  4.546272E+05  2.603548E+05  1.692528E+04  3.316774E+05  4.002033E+03 -2.506367E+02
       391   2  4.546111E+05  2.604236E+05  1.585837E+04  3.318547E+05  1.895175E+03 -1.862816E+03
       391   3  4.551991E+05  2.607800E+05  1.662650E+04  3.319955E+05 -2.141494E+02 -3.471735E+03
       391   4  4.194971E+05  2.355038E+05  6.497260E+03  3.141538E+05  3.980350E+03 -2.669128E+02
       391   5  4.191906E+05  2.353517E+05  5.343732E+03  3.141786E+05  1.876791E+03 -1.876619E+03
       391   6  4.194875E+05  2.354865E+05  6.022471E+03  3.141670E+05 -2.292435E+02 -3.483073E+03
       391   7  3.843684E+05  2.106536E+05 -3.930902E+03  2.966313E+05  3.958669E+03 -2.831876E+02
       391   8  3.837712E+05  2.102804E+05 -5.171114E+03  2.965035E+05  1.858409E+03 -1.890422E+03
       391   9  3.837768E+05  2.101934E+05 -4.581827E+03  2.963394E+05 -2.443365E+02 -3.494410E+03
       391  10  4.546272E+05  2.603548E+05  1.692525E+04  3.316774E+05  3.274553E-10  2.556774E-10
       391  11  4.546111E+05  2.604236E+05  1.585836E+04  3.318547E+05  7.374333E-10  8.729514E-11
       391  12  4.551991E+05  2.607800E+05  1.662648E+04  3.319955E+05  2.726069E-10  3.312180E-12
       391  13  4.194971E+05  2.355038E+05  6.497231E+03  3.141538E+05 -1.247530E-10  2.278649E-10
       391  14  4.191906E+05  2.353517E+05  5.343719E+03  3.141786E+05 -2.876881E-10  8.049291E-11
       391  15  4.194875E+05  2.354865E+05  6.022448E+03  3.141670E+05  7.448094E-11 -4.201769E-11
       391  16  3.843684E+05  2.106536E+05 -3.930931E+03  2.966313E+05 -5.075504E-10  3.160602E-11
       391  17  3.837712E+05  2.102804E+05 -5.171127E+03  2.965035E+05 -6.307478E-11  5.000409E-11
       391  18  3.837768E+05  2.101934E+05 -4.581850E+03  2.963394E+05  1.135284E-10  1.222287E-11
       391  19  4.546272E+05  2.603548E+05  1.692528E+04  3.316774E+05 -4.002033E+03  2.506367E+02
       391  20  4.546111E+05  2.604236E+05  1.585837E+04  3.318547E+05 -1.895175E+03  1.862816E+03
       391  21  4.551991E+05  2.607800E+05  1.662650E+04  3.319955E+05  2.141494E+02  3.471735E+03
       391  22  4.194971E+05  2.355038E+05  6.497260E+03  3.141538E+05 -3.980350E+03  2.669128E+02
       391  23  4.191906E+05  2.353517E+05  5.343732E+03  3.141786E+05 -1.876791E+03  1.876619E+03
       391  24  4.194875E+05  2.354865E+05  6.022471E+03  3.141670E+05  2.292435E+02  3.483073E+03
       391  25  3.843684E+05  2.106536E+05 -3.930902E+03  2.966313E+05 -3.958669E+03  2.831876E+02
       391  26  3.837712E+05  2.102804E+05 -5.171114E+03  2.965035E+05 -1.858409E+03  1.890422E+03
       391  27  3.837768E+05  2.101934E+05 -4.581827E+03  2.963394E+05  2.443365E+02  3.494410E+03
       392   1  4.548543E+05  2.614744E+05  1.764920E+04  3.325991E+05 -1.109061E+03 -4.167092E+03
       392   2  4.555730E+05  2.606506E+05  2.142593E+04  3.320639E+05 -5.413506E+03 -7.406665E+03
       392   3  4.588112E+05  2.625757E+05  2.962086E+04  3.304998E+05 -9.753341E+03 -1.059895E+04
       392   4  4.195302E+05  2.353543E+05  6.969079E+03  3.144541E+05 -1.138914E+03 -4.189493E+03
       392   5  4.189783E+05  2.352357E+05  1.063844E+04  3.140295E+05 -5.397659E+03 -7.394808E+03
       392   6  4.209360E+05  2.378563E+05  1.868661E+04  3.125760E+05 -9.691804E+03 -1.055286E+04
       392   7  3.842079E+05  2.092352E+05 -3.711058E+03  2.963104E+05 -1.168765E+03 -4.211892E+03
       392   8  3.823851E+05  2.098216E+05 -1.491230E+02  2.959963E+05 -5.381814E+03 -7.382951E+03
       392   9  3.830623E+05  2.131376E+05  7.752217E+03  2.946533E+05 -9.630271E+03 -1.050677E+04
       392  10  4.548543E+05  2.614744E+05  1.764917E+04  3.325991E+05  1.960510E-10 -1.626863E-10
       392  11  4.555730E+05  2.606505E+05  2.142577E+04  3.320639E+05  2.067277E-10  2.909580E-10
       392  12  4.588111E+05  2.625756E+05  2.962047E+04  3.304998E+05  3.035350E-11  1.959262E-10
       392  13  4.195302E+05  2.353543E+05  6.969044E+03  3.144541E+05 -4.475249E-11 -1.791016E-10
       392  14  4.189782E+05  2.352356E+05  1.063829E+04  3.140295E+05  1.767351E-10  5.407868E-11
       392  15  4.209359E+05  2.378562E+05  1.868623E+04  3.125759E+05 -1.674343E-11  1.230085E-10
       392  16  3.842078E+05  2.092352E+05 -3.711094E+03  2.963104E+05  1.629531E-10  1.323279E-10
       392  17  3.823851E+05  2.098215E+05 -1.492797E+02  2.959963E+05 -1.950696E-10  1.422915E-10
       392  18  3.830622E+05  2.131374E+05  7.751835E+03  2.946532E+05 -8.695698E-11  6.166359E-11
       392  19  4.548543E+05  2.614744E+05  1.764920E+04  3.325991E+05  1.109061E+03  4.167092E+03
       392  20  4.555730E+05  2.606506E+05  2.142593E+04  3.320639E+05  5.413506E+03  7.406665E+03
       392  21  4.588112E+05  2.625757E+05  2.962086E+04  3.304998E+05  9.753341E+03  1.059895E+04
       392  22  4.195302E+05  2.353543E+05  6.969079E+03  3.144541E+05  1.138914E+03  4.189493E+03
       392  23  4.189783E+05  2.352357E+05  1.063844E+04  3.140295E+05  5.397659E+03  7.394808E+03
       392  24  4.209360E+05  2.378563E+05  1.868661E+04  3.125760E+05  9.691804E+03  1.055286E+04
       392  25  3.842079E+05  2.092352E+05 -3.711058E+03  2.963104E+05  1.168765E+03  4.211892E+03
       392  26  3.823851E+05  2.098216E+05 -1.491230E+02  2.959963E+05  5.381814E+03  7.382951E+03
       392  27  3.830623E+05  2.131376E+05  7.752217E+03  2.946533E+05  9.630271E+03  1.050677E+04
       393   1  4.480685E+05  2.707426E+05  3.433873E+04  3.391759E+05 -1.202759E+04 -1.245610E+04
       393   2  4.655791E+05  2.484009E+05  5.100699E+04  3.261413E+05 -3.005351E+04 -2.553831E+04
       393   3  5.200603E+05  2.760846E+05  9.898396E+04  2.902354E+05 -4.887176E+04 -3.756427E+04
       393   4  4.209348E+05  2.347807E+05  2.337703E+04  3.178756E+05 -1.226667E+04 -1.263505E+04
       393   5  4.161949E+05  2.341311E+05  3.972462E+04  3.111133E+05 -2.927706E+04 -2.495704E+04
       393   6  4.482058E+05  2.832883E+05  8.650196E+04  2.814797E+05 -4.707867E+04 -3.622392E+04
       393   7  3.938018E+05  1.988205E+05  1.241514E+04  2.965764E+05 -1.250574E+04 -1.281399E+04
       393   8  3.668135E+05  2.198616E+05  2.844214E+04  2.960861E+05 -2.850070E+04 -2.437578E+04
       393   9  3.763592E+05  2.904939E+05  7.402048E+04  2.727234E+05 -4.528588E+04 -3.488348E+04
       393  10  4.480683E+05  2.707424E+05  3.433816E+04  3.391758E+05 -1.124665E-10  2.117793E-10
       393  11  4.655780E+05  2.484000E+05  5.100407E+04  3.261407E+05 -2.006491E-10  9.190313E-11
       393  12  5.200574E+05  2.760825E+05  9.897683E+04  2.902339E+05  2.974229E-11  2.194832E-10
       393  13  4.209346E+05  2.347805E+05  2.337645E+04  3.178754E+05 -1.173847E-10  8.642093E-11
       393  14  4.161938E+05  2.341302E+05  3.972184E+04  3.111127E+05  5.402772E-10  1.818280E-10
       393  15  4.482030E+05  2.832863E+05  8.649533E+04  2.814783E+05  2.092142E-10  1.567767E-10
       393  16  3.938016E+05  1.988203E+05  1.241453E+04  2.965763E+05  1.231024E-10  3.689250E-11
       393  17  3.668125E+05  2.198607E+05  2.843950E+04  2.960856E+05  1.823120E-10  5.695157E-11
       393  18  3.763566E+05  2.904921E+05  7.401434E+04  2.727222E+05 -8.768545E-11  9.598174E-11
       393  19  4.480685E+05  2.707426E+05  3.433873E+04  3.391759E+05  1.202759E+04  1.245610E+04
       393  20  4.655791E+05  2.484009E+05  5.100699E+04  3.261413E+05  3.005351E+04  2.553831E+04
       393  21  5.200603E+05  2.760846E+05  9.898396E+04  2.902354E+05  4.887176E+04  3.756427E+04
       393  22  4.209348E+05  2.347807E+05  2.337703E+04  3.178756E+05  1.226667E+04  1.263505E+04
       393  23  4.161949E+05  2.341311E+05  3.972462E+04  3.111133E+05  2.927706E+04  2.495704E+04
       393  24  4.482058E+05  2.832883E+05  8.650196E+04  2.814797E+05  4.707867E+04  3.622392E+04
       393  25  3.938018E+05  1.988205E+05  1.241514E+04  2.965764E+05  1.250574E+04  1.281399E+04
       393  26  3.668135E+05  2.198616E+05  2.844214E+04  2.960861E+05  2.850070E+04  2.437578E+04
       393  27  3.763592E+05  2.904939E+05  7.402048E+04  2.727234E+05  4.528588E+04  3.488348E+04
       394   1  8.635502E+05  1.400066E+05  1.384029E+05  7.376007E+04  2.579170E+04 -6.385087E+03
       394   2  7.558792E+05  1.037975E+05  9.862959E+04  5.082784E+04  9.493548E+03 -1.893847E+04
       394   3  6.528920E+05  7.758654E+04  7.196577E+04  6.867621E+04 -6.801062E+03 -1.695135E+04
       394   4  3.324096E+05  8.111786E+03  9.699820E+03  6.977395E+04  6.738633E+03 -6.385618E+03
       394   5  3.312973E+05  8.562082E+01  4.387964E+03  4.938334E+04  4.417325E+03 -1.894003E+04
       394   6  3.324374E+05 -3.624086E+02  2.491015E+03  6.977450E+04  2.096682E+03 -1.694961E+04
       394   7 -1.984727E+05 -1.238035E+05 -1.190222E+05  6.579123E+04 -1.229820E+04 -6.385905E+03
       394   8 -9.311652E+04 -1.036384E+05 -8.986477E+04  4.793983E+04 -6.554688E+02 -1.894156E+04
       394   9  1.207916E+04 -7.831810E+04 -6.698955E+04  7.087221E+04  1.098990E+04 -1.694784E+04
       394  10  8.635495E+05  1.400064E+05  1.384016E+05  7.376020E+04  2.481509E-10 -6.171936E-11
       394  11  7.558790E+05  1.037971E+05  9.862874E+04  5.082798E+04  1.211811E-10 -2.799495E-10
       394  12  6.528919E+05  7.758622E+04  7.196514E+04  6.867612E+04 -1.019077E-10 -1.815865E-10
       394  13  3.324096E+05  8.111730E+03  9.699658E+03  6.977399E+04 -1.683204E-11  1.174439E-12
       394  14  3.312972E+05  8.523031E+01  4.387253E+03  4.938341E+04 -1.854041E-10 -1.268313E-10
       394  15  3.324373E+05 -3.627183E+02  2.490466E+03  6.977453E+04 -4.567807E-10 -1.098812E-10
       394  16 -1.984729E+05 -1.238036E+05 -1.190226E+05  6.579117E+04 -8.968397E-11  7.286713E-11
       394  17 -9.311662E+04 -1.036388E+05 -8.986544E+04  4.793982E+04 -3.464273E-10  8.338344E-11
       394  18  1.207896E+04 -7.831844E+04 -6.699032E+04  7.087236E+04 -2.510492E-11 -6.998014E-11
       394  19  8.635502E+05  1.400066E+05  1.384029E+05  7.376007E+04 -2.579170E+04  6.385087E+03
       394  20  7.558792E+05  1.037975E+05  9.862959E+04  5.082784E+04 -9.493548E+03  1.893847E+04
       394  21  6.528920E+05  7.758654E+04  7.196577E+04  6.867621E+04  6.801062E+03  1.695135E+04
       394  22  3.324096E+05  8.111786E+03  9.699820E+03  6.977395E+04 -6.738633E+03  6.385618E+03
       394  23  3.312973E+05  8.562082E+01  4.387964E+03  4.938334E+04 -4.417325E+03  1.894003E+04
       394  24  3.324374E+05 -3.624086E+02  2.491015E+03  6.977450E+04 -2.096682E+03  1.694961E+04
       394  25 -1.984727E+05 -1.238035E+05 -1.190222E+05  6.579123E+04  1.229820E+04  6.385905E+03
       394  26 -9.311652E+04 -1.036384E+05 -8.986477E+04  4.793983E+04  6.554688E+02  1.894156E+04
       394  27  1.207916E+04 -7.831810E+04 -6.698955E+04  7.087221E+04 -1.098990E+04  1.694784E+04
       395   1  5.686180E+05  5.804314E+04  5.340350E+04  7.009039E+04 -3.022687E+03 -1.221960E+04
       395   2  4.634451E+05  3.202350E+04  2.939025E+04  4.926783E+04 -4.056886E+03 -6.935655E+03
       395   3  3.585276E+05  6.512754E+03  6.171762E+03  6.982813E+04 -5.091950E+03 -1.024205E+03
       395   4  3.319778E+05  4.407655E+02  1.910566E+03  6.990801E+04  1.751804E+03 -1.221841E+04
       395   5  3.319125E+05  2.194021E+01  8.558233E+02  4.921639E+04  1.320170E+03 -6.933903E+03
       395   6  3.319862E+05  7.812393E+00  1.777864E+02  6.990816E+04  8.874915E+02 -1.021790E+03
       395   7  9.539010E+04 -5.716531E+04 -4.958564E+04  6.972568E+04  6.524500E+03 -1.221722E+04
       395   8  2.003962E+05 -3.198075E+04 -2.767952E+04  4.916497E+04  6.696103E+03 -6.932151E+03
       395   9  3.054455E+05 -6.497158E+03 -5.816100E+03  6.998820E+04  6.866680E+03 -1.019374E+03
       395  10  5.686179E+05  5.804298E+04  5.340320E+04  7.009037E+04 -7.373812E-11 -2.823309E-11
       395  11  4.634451E+05  3.202345E+04  2.939013E+04  4.926781E+04 -6.687203E-11  4.520898E-10
       395  12  3.585276E+05  6.512746E+03  6.171712E+03  6.982812E+04  2.273605E-11  5.352765E-11
       395  13  3.319777E+05  4.406043E+02  1.910279E+03  6.990802E+04 -4.165285E-10 -9.675589E-12
       395  14  3.319125E+05  2.188810E+01  8.557297E+02  4.921640E+04 -2.634693E-10  5.748973E-11
       395  15  3.319862E+05  7.811060E+00  1.777830E+02  6.990817E+04 -1.275008E-10 -1.212449E-10
       395  16  9.539002E+04 -5.716548E+04 -4.958600E+04  6.972575E+04  2.086434E-10 -1.612388E-11
       395  17  2.003961E+05 -3.198081E+04 -2.767970E+04  4.916500E+04  5.022787E-10 -4.004753E-10
       395  18  3.054455E+05 -6.497172E+03 -5.816191E+03  6.998820E+04  2.790622E-11  1.915686E-11
       395  19  5.686180E+05  5.804314E+04  5.340350E+04  7.009039E+04  3.022687E+03  1.221960E+04
       395  20  4.634451E+05  3.202350E+04  2.939025E+04  4.926783E+04  4.056886E+03  6.935655E+03
       395  21  3.585276E+05  6.512754E+03  6.171762E+03  6.982813E+04  5.091950E+03  1.024205E+03
       395  22  3.319778E+05  4.407655E+02  1.910566E+03  6.990801E+04 -1.751804E+03  1.221841E+04
       395  23  3.319125E+05  2.194021E+01  8.558233E+02  4.921639E+04 -1.320170E+03  6.933903E+03
       395  24  3.319862E+05  7.812393E+00  1.777864E+02  6.990816E+04 -8.874915E+02  1.021790E+03
       395  25  9.539010E+04 -5.716531E+04 -4.958564E+04  6.972568E+04 -6.524500E+03  1.221722E+04
       395  26  2.003962E+05 -3.198075E+04 -2.767952E+04  4.916497E+04 -6.696103E+03  6.932151E+03
       395  27  3.054455E+05 -6.497158E+03 -5.816100E+03  6.998820E+04 -6.866680E+03  1.019374E+03
       396   1  2.750496E+05 -1.379343E+04 -1.266999E+04  6.980268E+04 -5.108906E+03  2.657025E+03
       396   2  1.701440E+05 -3.935316E+04 -3.588871E+04  4.920184E+04 -4.075259E+03  8.562412E+03
       396   3  6.498304E+04 -6.537419E+04 -5.990126E+04  6.998612E+04 -3.040504E+03  1.380375E+04
       396   4  3.319207E+05  8.726871E+01 -1.189536E+02  6.990834E+04  8.802813E+02  2.659412E+03
       396   5  3.319924E+05  2.738119E+01 -7.900654E+02  4.921618E+04  1.276052E+03  8.564032E+03
       396   6  3.319108E+05 -3.819492E+02 -1.811253E+03  6.990849E+04  1.673093E+03  1.380472E+04
       396   7  3.887949E+05  1.396777E+04  1.243202E+04  7.001401E+04  6.870010E+03  2.661801E+03
       396   8  4.938654E+05  3.940620E+04  3.430713E+04  4.923052E+04  6.628740E+03  8.565652E+03
       396   9  5.989053E+05  6.460558E+04  5.627457E+04  6.983083E+04  6.388689E+03  1.380569E+04
       396  10  2.750495E+05 -1.379344E+04 -1.267006E+04  6.980269E+04  6.144697E-10  2.241041E-10
       396  11  1.701439E+05 -3.935324E+04 -3.588888E+04  4.920186E+04 -6.396776E-11 -1.594226E-10
       396  12  6.498298E+04 -6.537440E+04 -5.990163E+04  6.998615E+04 -3.023432E-10 -2.861776E-10
       396  13  3.319207E+05  8.726090E+01 -1.189684E+02  6.990834E+04 -1.681788E-11 -6.154219E-11
       396  14  3.319924E+05  2.730199E+01 -7.902063E+02  4.921617E+04  1.398921E-10 -2.130986E-10
       396  15  3.319107E+05 -3.821546E+02 -1.811616E+03  6.990848E+04  1.486338E-10 -6.935696E-11
       396  16  3.887949E+05  1.396775E+04  1.243192E+04  7.001399E+04 -1.001025E-10 -1.869694E-10
       396  17  4.938654E+05  3.940611E+04  3.430691E+04  4.923048E+04  1.257699E-10 -3.551354E-10
       396  18  5.989052E+05  6.460536E+04  5.627413E+04  6.983076E+04  2.849869E-10 -1.662249E-10
       396  19  2.750496E+05 -1.379343E+04 -1.266999E+04  6.980268E+04  5.108906E+03 -2.657025E+03
       396  20  1.701440E+05 -3.935316E+04 -3.588871E+04  4.920184E+04  4.075259E+03 -8.562412E+03
       396  21  6.498304E+04 -6.537419E+04 -5.990126E+04  6.998612E+04  3.040504E+03 -1.380375E+04
       396  22  3.319207E+05  8.726871E+01 -1.189536E+02  6.990834E+04 -8.802813E+02 -2.659412E+03
       396  23  3.319924E+05  2.738119E+01 -7.900654E+02  4.921618E+04 -1.276052E+03 -8.564032E+03
       396  24  3.319108E+05 -3.819492E+02 -1.811253E+03  6.990849E+04 -1.673093E+03 -1.380472E+04
       396  25  3.887949E+05  1.396777E+04  1.243202E+04  7.001401E+04 -6.870010E+03 -2.661801E+03
       396  26  4.938654E+05  3.940620E+04  3.430713E+04  4.923052E+04 -6.628740E+03 -8.565652E+03
       396  27  5.989053E+05  6.460558E+04  5.627457E+04  6.983083E+04 -6.388689E+03 -1.380569E+04
       397   1 -1.924032E+04 -8.497508E+04 -7.840872E+04  6.861264E+04 -7.059840E+03  1.859639E+04
       397   2 -1.222658E+05 -1.112745E+05 -1.051561E+05  5.072561E+04  9.877532E+03  2.037004E+04
       397   3 -2.298479E+05 -1.472892E+05 -1.453470E+05  7.359167E+04  2.681046E+04  6.819202E+03
       397   4  3.314863E+05  3.684273E+02 -2.364759E+03  6.976781E+04  1.995007E+03  1.859778E+04
       397   5  3.324784E+05 -1.458383E+02 -4.211783E+03  4.939201E+04  4.225709E+03  2.036848E+04
       397   6  3.314594E+05 -7.817952E+03 -9.287220E+03  6.976804E+04  6.454966E+03  6.819578E+03
       397   7  6.823284E+05  8.570385E+04  7.367219E+04  7.092363E+04  1.105490E+04  1.859922E+04
       397   8  7.874156E+05  1.109688E+05  9.671981E+04  4.805741E+04 -1.430209E+03  2.036695E+04
       397   9  8.930553E+05  1.316305E+05  1.267514E+05  6.594092E+04 -1.391889E+04  6.820206E+03
       397  10 -1.924047E+04 -8.497547E+04 -7.840946E+04  6.861274E+04  2.527111E-10  5.678211E-13
       397  11 -1.222660E+05 -1.112749E+05 -1.051571E+05  5.072544E+04 -1.878678E-10  4.084682E-11
       397  12 -2.298486E+05 -1.472895E+05 -1.453485E+05  7.359153E+04  1.408373E-10  9.347400E-11
       397  13  3.314862E+05  3.680547E+02 -2.365417E+03  6.976778E+04  2.258007E-11 -1.703805E-10
       397  14  3.324783E+05 -1.462887E+02 -4.212597E+03  4.939194E+04  2.086374E-10 -1.636529E-11
       397  15  3.314593E+05 -7.818013E+03 -9.287386E+03  6.976800E+04  2.820182E-10 -7.736681E-11
       397  16  6.823282E+05  8.570345E+04  7.367131E+04  7.092346E+04  1.188915E-10  2.238192E-10
       397  17  7.874155E+05  1.109684E+05  9.671903E+04  4.805743E+04  2.038409E-10 -1.684814E-10
       397  18  8.930551E+05  1.316304E+05  1.267510E+05  6.594100E+04  2.009112E-10 -1.757732E-10
       397  19 -1.924032E+04 -8.497508E+04 -7.840872E+04  6.861264E+04  7.059840E+03 -1.859639E+04
       397  20 -1.222658E+05 -1.112745E+05 -1.051561E+05  5.072561E+04 -9.877532E+03 -2.037004E+04
       397  21 -2.298479E+05 -1.472892E+05 -1.453470E+05  7.359167E+04 -2.681046E+04 -6.819202E+03
       397  22  3.314863E+05  3.684273E+02 -2.364759E+03  6.976781E+04 -1.995007E+03 -1.859778E+04
       397  23  3.324784E+05 -1.458383E+02 -4.211783E+03  4.939201E+04 -4.225709E+03 -2.036848E+04
       397  24  3.314594E+05 -7.817952E+03 -9.287220E+03  6.976804E+04 -6.454966E+03 -6.819578E+03
       397  25  6.823284E+05  8.570385E+04  7.367219E+04  7.092363E+04 -1.105490E+04 -1.859922E+04
       397  26  7.874156E+05  1.109688E+05  9.671981E+04  4.805741E+04  1.430209E+03 -2.036695E+04
       397  27  8.930553E+05  1.316305E+05  1.267514E+05  6.594092E+04  1.391889E+04 -6.820206E+03
       398   1 -1.958031E+05 -7.080907E+05 -2.177740E+05  1.225106E+05 -3.358212E+03 -1.043530E+05
       398   2 -5.336924E+04 -5.942858E+05 -1.150774E+05  6.611656E+04 -9.048919E+03 -6.015343E+04
       398   3 -2.282302E+04 -5.142242E+05 -6.915397E+04  4.751145E+04 -5.919367E+03 -1.594835E+04
       398   4 -1.188915E+05 -3.988128E+05 -1.424836E+05  6.419705E+04 -3.345422E+03 -9.466964E+04
       398   5 -1.579871E+03 -3.826608E+05 -6.778434E+04  4.528040E+04 -9.046243E+03 -5.891846E+04
       398   6  5.330578E+03 -3.987789E+05 -4.396949E+04  6.415970E+04 -5.922813E+03 -2.316920E+04
       398   7 -4.197415E+04 -8.943998E+04 -6.719800E+04  5.854336E+03 -3.334458E+03 -8.498142E+04
       398   8  5.020808E+04 -1.709932E+05 -2.049388E+04  2.443706E+04 -9.043650E+03 -5.768308E+04
       398   9  3.348436E+04 -2.833204E+05 -1.878547E+04  8.081108E+04 -5.926646E+03 -3.039138E+04
       398  10 -1.958060E+05 -7.081024E+05 -2.177945E+05  1.225103E+05 -9.907043E-11 -4.554211E-11
       398  11 -5.337030E+04 -5.942897E+05 -1.150843E+05  6.611612E+04 -1.645753E-10  3.615274E-10
       398  12 -2.282313E+04 -5.142245E+05 -6.915451E+04  4.751137E+04 -6.875208E-11  3.631040E-10
       398  13 -1.188939E+05 -3.988224E+05 -1.425005E+05  6.419680E+04  2.050544E-10  5.826609E-11
       398  14 -1.580892E+03 -3.826646E+05 -6.779102E+04  4.527997E+04  6.407136E-10  2.394779E-10
       398  15  5.330396E+03 -3.987795E+05 -4.397057E+04  6.415959E+04 -2.391308E-10  1.523997E-10
       398  16 -4.197610E+04 -8.944774E+04 -6.721159E+04  5.854107E+03  3.181332E-11 -4.323618E-12
       398  17  5.020710E+04 -1.709968E+05 -2.050029E+04  2.443664E+04  8.090966E-11  5.698352E-11
       398  18  3.348407E+04 -2.833214E+05 -1.878727E+04  8.081094E+04  3.051175E-10 -2.029867E-10
       398  19 -1.958031E+05 -7.080907E+05 -2.177740E+05  1.225106E+05  3.358212E+03  1.043530E+05
       398  20 -5.336924E+04 -5.942858E+05 -1.150774E+05  6.611656E+04  9.048919E+03  6.015343E+04
       398  21 -2.282302E+04 -5.142242E+05 -6.915397E+04  4.751145E+04  5.919367E+03  1.594835E+04
       398  22 -1.188915E+05 -3.988128E+05 -1.424836E+05  6.419705E+04  3.345422E+03  9.466964E+04
       398  23 -1.579871E+03 -3.826608E+05 -6.778434E+04  4.528040E+04  9.046243E+03  5.891846E+04
       398  24  5.330578E+03 -3.987789E+05 -4.396949E+04  6.415970E+04  5.922813E+03  2.316920E+04
       398  25 -4.197415E+04 -8.943998E+04 -6.719800E+04  5.854336E+03  3.334458E+03  8.498142E+04
       398  26  5.020808E+04 -1.709932E+05 -2.049388E+04  2.443706E+04  9.043650E+03  5.768308E+04
       398  27  3.348436E+04 -2.833204E+05 -1.878547E+04  8.081108E+04  5.926646E+03  3.039138E+04
       399   1 -1.503894E+04 -4.309884E+05 -4.666667E+04  6.745226E+04 -1.874694E+03 -1.172692E+04
       399   2  1.452096E+04 -3.316561E+05 -1.837628E+04  4.521053E+04  3.132502E+03  3.721590E+03
       399   3  3.258171E+04 -2.372304E+05 -3.030166E+03  6.114309E+04  8.003246E+03  1.917286E+04
       399   4 -5.701117E+03 -3.927066E+05 -3.826032E+04  6.425346E+04 -1.876783E+03 -1.659050E+04
       399   5  2.606720E+02 -3.902391E+05 -3.107130E+04  4.516587E+04  3.130585E+03 -1.011620E+03
       399   6 -5.299205E+03 -3.927098E+05 -3.691673E+04  6.425329E+04  8.001620E+03  1.456768E+04
       399   7  3.636654E+03 -3.544233E+05 -2.985397E+04  6.105445E+04 -1.878822E+03 -2.145437E+04
       399   8 -1.399983E+04 -4.488188E+05 -4.376645E+04  4.512121E+04  3.128668E+03 -5.744389E+03
       399   9 -4.318168E+04 -5.481665E+05 -7.080466E+04  6.736269E+04  7.999947E+03  9.963643E+03
       399  10 -1.503898E+04 -4.309885E+05 -4.666693E+04  6.745225E+04 -1.249727E-10  4.276825E-10
       399  11  1.452094E+04 -3.316562E+05 -1.837632E+04  4.521053E+04 -1.900816E-10  5.955759E-10
       399  12  3.258154E+04 -2.372308E+05 -3.030978E+03  6.114297E+04  3.329253E-10 -1.815482E-10
       399  13 -5.701195E+03 -3.927069E+05 -3.826085E+04  6.425343E+04  1.820342E-11 -7.571465E-11
       399  14  2.606612E+02 -3.902391E+05 -3.107132E+04  4.516587E+04 -3.371364E-10  6.746538E-10
       399  15 -5.299331E+03 -3.927100E+05 -3.691725E+04  6.425319E+04 -2.591860E-10  2.493719E-10
       399  16  3.636527E+03 -3.544238E+05 -2.985485E+04  6.105442E+04  8.402228E-11 -4.273317E-10
       399  17 -1.399985E+04 -4.488188E+05 -4.376653E+04  4.512122E+04 -1.335863E-11  2.463415E-11
       399  18 -4.318178E+04 -5.481666E+05 -7.080496E+04  6.736263E+04 -1.831046E-11  2.363328E-10
       399  19 -1.503894E+04 -4.309884E+05 -4.666667E+04  6.745226E+04  1.874694E+03  1.172692E+04
       399  20  1.452096E+04 -3.316561E+05 -1.837628E+04  4.521053E+04 -3.132502E+03 -3.721590E+03
       399  21  3.258171E+04 -2.372304E+05 -3.030166E+03  6.114309E+04 -8.003246E+03 -1.917286E+04
       399  22 -5.701117E+03 -3.927066E+05 -3.826032E+04  6.425346E+04  1.876783E+03  1.659050E+04
       399  23  2.606720E+02 -3.902391E+05 -3.107130E+04  4.516587E+04 -3.130585E+03  1.011620E+03
       399  24 -5.299205E+03 -3.927098E+05 -3.691673E+04  6.425329E+04 -8.001620E+03 -1.456768E+04
       399  25  3.636654E+03 -3.544233E+05 -2.985397E+04  6.105445E+04  1.878822E+03  2.145437E+04
       399  26 -1.399983E+04 -4.488188E+05 -4.376645E+04  4.512121E+04 -3.128668E+03  5.744389E+03
       399  27 -4.318168E+04 -5.481665E+05 -7.080466E+04  6.736269E+04 -7.999947E+03 -9.963643E+03
       400   1  6.162365E+04 -1.656140E+05  8.569373E+03  7.971178E+04  1.227469E+04  2.874015E+04
       400   2  7.885821E+04 -5.460649E+04  9.282645E+03  2.580424E+04  1.454225E+04  5.106288E+04
       400   3 -5.247106E+03  2.819604E+04 -2.986497E+04  9.511147E+03  4.997928E+03  7.339095E+04
       400   4  4.946726E+03 -3.983268E+05 -4.196602E+04  6.412367E+04  1.227141E+04  2.089371E+04
       400   5 -1.493164E+03 -3.832456E+05 -6.381438E+04  4.532580E+04  1.454529E+04  5.453781E+04
       400   6 -1.112734E+05 -3.983659E+05 -1.334050E+05  6.414719E+04  5.007012E+03  8.818307E+04
       400   7 -5.173284E+04 -6.309880E+05 -9.250430E+04  4.854147E+04  1.226851E+04  1.305017E+04
       400   8 -8.185041E+04 -7.117831E+05 -1.369179E+05  6.483691E+04  1.454855E+04  5.801090E+04
       400   9 -2.173017E+05 -8.247548E+05 -2.369558E+05  1.187456E+05  5.018706E+03  1.029650E+05
       400  10  6.162326E+04 -1.656149E+05  8.567538E+03  7.971150E+04  1.311189E-10  7.839861E-11
       400  11  7.885728E+04 -5.460934E+04  9.277348E+03  2.580364E+04  1.362587E-10  1.443371E-10
       400  12 -5.248579E+03  2.819025E+04 -2.987514E+04  9.510851E+03 -2.019333E-11 -3.460463E-11
       400  13  4.946447E+03 -3.983273E+05 -4.196713E+04  6.412346E+04  2.269458E-10  8.822371E-12
       400  14 -1.494190E+03 -3.832489E+05 -6.382037E+04  4.532517E+04 -2.799554E-10  4.982966E-10
       400  15 -1.112755E+05 -3.983743E+05 -1.334197E+05  6.414684E+04 -8.323245E-11 -7.609313E-11
       400  16 -5.173305E+04 -6.309883E+05 -9.250490E+04  4.854134E+04 -3.597609E-10 -3.852405E-11
       400  17 -8.185154E+04 -7.117868E+05 -1.369246E+05  6.483623E+04 -1.153038E-10  1.454906E-10
       400  18 -2.173045E+05 -8.247662E+05 -2.369758E+05  1.187452E+05  7.947803E-11 -3.427370E-11
       400  19  6.162365E+04 -1.656140E+05  8.569373E+03  7.971178E+04 -1.227469E+04 -2.874015E+04
       400  20  7.885821E+04 -5.460649E+04  9.282645E+03  2.580424E+04 -1.454225E+04 -5.106288E+04
       400  21 -5.247106E+03  2.819604E+04 -2.986497E+04  9.511147E+03 -4.997928E+03 -7.339095E+04
       400  22  4.946726E+03 -3.983268E+05 -4.196602E+04  6.412367E+04 -1.227141E+04 -2.089371E+04
       400  23 -1.493164E+03 -3.832456E+05 -6.381438E+04  4.532580E+04 -1.454529E+04 -5.453781E+04
       400  24 -1.112734E+05 -3.983659E+05 -1.334050E+05  6.414719E+04 -5.007012E+03 -8.818307E+04
       400  25 -5.173284E+04 -6.309880E+05 -9.250430E+04  4.854147E+04 -1.226851E+04 -1.305017E+04
       400  26 -8.185041E+04 -7.117831E+05 -1.369179E+05  6.483691E+04 -1.454855E+04 -5.801090E+04
       400  27 -2.173017E+05 -8.247548E+05 -2.369558E+05  1.187456E+05 -5.018706E+03 -1.029650E+05
       401   1  5.449870E+05  4.144713E+05  1.175100E+05  3.815103E+05  7.166690E+04  5.476653E+04
       401   2  5.385973E+05  3.155291E+05  4.971308E+04  4.244550E+05  4.612897E+04  3.755999E+04
       401   3  5.950343E+05  2.878713E+05  2.794594E+04  4.300500E+05  2.176397E+04  1.878679E+04
       401   4  6.496580E+05  3.981228E+05  1.346677E+05  3.915461E+05  7.362846E+04  5.622710E+04
       401   5  5.968692E+05  3.245532E+05  6.173281E+04  4.385545E+05  4.657674E+04  3.789330E+04
       401   6  6.072266E+05  3.225867E+05  3.613283E+04  4.482148E+05  2.070060E+04  1.799053E+04
       401   7  7.543462E+05  3.817794E+05  1.518268E+05  4.015802E+05  7.559051E+04  5.768748E+04
       401   8  6.551457E+05  3.335778E+05  7.375264E+04  4.526548E+05  4.702457E+04  3.822662E+04
       401   9  6.194196E+05  3.573046E+05  4.431987E+04  4.663805E+05  1.963720E+04  1.719416E+04
       401  10  5.449807E+05  4.144667E+05  1.174948E+05  3.815071E+05 -2.393894E-10  3.143253E-12
       401  11  5.385947E+05  3.155270E+05  4.970644E+04  4.244536E+05 -4.078362E-10  7.111132E-11
       401  12  5.950337E+05  2.878708E+05  2.794439E+04  4.300497E+05 -7.585649E-11 -1.262308E-11
       401  13  6.496513E+05  3.981180E+05  1.346516E+05  3.915428E+05  2.703208E-10  4.364104E-11
       401  14  5.968664E+05  3.245511E+05  6.172605E+04  4.385531E+05  1.806664E-10  1.338106E-10
       401  15  6.072261E+05  3.225862E+05  3.613142E+04  4.482145E+05  9.690756E-11 -9.007222E-12
       401  16  7.543392E+05  3.817743E+05  1.518098E+05  4.015767E+05  2.940549E-10  4.216623E-11
       401  17  6.551429E+05  3.335757E+05  7.374575E+04  4.526534E+05  3.103700E-10  2.399365E-10
       401  18  6.194191E+05  3.573042E+05  4.431859E+04  4.663802E+05  8.226347E-11  1.042696E-10
       401  19  5.449870E+05  4.144713E+05  1.175100E+05  3.815103E+05 -7.166690E+04 -5.476653E+04
       401  20  5.385973E+05  3.155291E+05  4.971308E+04  4.244550E+05 -4.612897E+04 -3.755999E+04
       401  21  5.950343E+05  2.878713E+05  2.794594E+04  4.300500E+05 -2.176397E+04 -1.878679E+04
       401  22  6.496580E+05  3.981228E+05  1.346677E+05  3.915461E+05 -7.362846E+04 -5.622710E+04
       401  23  5.968692E+05  3.245532E+05  6.173281E+04  4.385545E+05 -4.657674E+04 -3.789330E+04
       401  24  6.072266E+05  3.225867E+05  3.613283E+04  4.482148E+05 -2.070060E+04 -1.799053E+04
       401  25  7.543462E+05  3.817794E+05  1.518268E+05  4.015802E+05 -7.559051E+04 -5.768748E+04
       401  26  6.551457E+05  3.335778E+05  7.375264E+04  4.526548E+05 -4.702457E+04 -3.822662E+04
       401  27  6.194196E+05  3.573046E+05  4.431987E+04  4.663805E+05 -1.963720E+04 -1.719416E+04
       402   1  5.873979E+05  3.166025E+05  2.337316E+04  4.315840E+05  1.766948E+04  1.482393E+04
       402   2  5.948532E+05  3.225235E+05  1.412770E+04  4.402722E+05  1.186744E+04  9.415307E+03
       402   3  6.121221E+05  3.267122E+05  1.142268E+04  4.456027E+05  6.118438E+03  3.935918E+03
       402   4  6.072213E+05  3.273715E+05  2.872893E+04  4.399596E+05  1.705226E+04  1.436114E+04
       402   5  6.012143E+05  3.262831E+05  1.590098E+04  4.431003E+05  1.118189E+04  8.901372E+03
       402   6  6.050355E+05  3.234772E+05  9.672477E+03  4.428834E+05  5.364708E+03  3.370911E+03
       402   7  6.270450E+05  3.381404E+05  3.408461E+04  4.483353E+05  1.643502E+04  1.389833E+04
       402   8  6.075754E+05  3.300427E+05  1.767425E+04  4.459285E+05  1.049633E+04  8.387434E+03
       402   9  5.979489E+05  3.202423E+05  7.922269E+03  4.401641E+05  4.610991E+03  2.805909E+03
       402  10  5.873975E+05  3.166022E+05  2.337216E+04  4.315838E+05  1.656722E-10 -2.854119E-11
       402  11  5.948530E+05  3.225233E+05  1.412727E+04  4.402721E+05  5.032689E-11 -1.000065E-10
       402  12  6.121221E+05  3.267122E+05  1.142259E+04  4.456027E+05 -1.665395E-10 -1.603908E-10
       402  13  6.072209E+05  3.273712E+05  2.872800E+04  4.399594E+05 -5.106098E-10 -3.867536E-11
       402  14  6.012141E+05  3.262830E+05  1.590060E+04  4.431003E+05  1.364158E-10 -8.492698E-11
       402  15  6.050354E+05  3.234772E+05  9.672401E+03  4.428834E+05 -6.935686E-11 -3.686796E-11
       402  16  6.270446E+05  3.381401E+05  3.408374E+04  4.483351E+05 -6.038599E-12 -8.265656E-11
       402  17  6.075753E+05  3.300426E+05  1.767391E+04  4.459284E+05  3.785167E-10 -1.546726E-10
       402  18  5.979489E+05  3.202423E+05  7.922215E+03  4.401641E+05  4.832295E-10  5.810887E-11
       402  19  5.873979E+05  3.166025E+05  2.337316E+04  4.315840E+05 -1.766948E+04 -1.482393E+04
       402  20  5.948532E+05  3.225235E+05  1.412770E+04  4.402722E+05 -1.186744E+04 -9.415307E+03
       402  21  6.121221E+05  3.267122E+05  1.142268E+04  4.456027E+05 -6.118438E+03 -3.935918E+03
       402  22  6.072213E+05  3.273715E+05  2.872893E+04  4.399596E+05 -1.705226E+04 -1.436114E+04
       402  23  6.012143E+05  3.262831E+05  1.590098E+04  4.431003E+05 -1.118189E+04 -8.901372E+03
       402  24  6.050355E+05  3.234772E+05  9.672477E+03  4.428834E+05 -5.364708E+03 -3.370911E+03
       402  25  6.270450E+05  3.381404E+05  3.408461E+04  4.483353E+05 -1.643502E+04 -1.389833E+04
       402  26  6.075754E+05  3.300427E+05  1.767425E+04  4.459285E+05 -1.049633E+04 -8.387434E+03
       402  27  5.979489E+05  3.202423E+05  7.922269E+03  4.401641E+05 -4.610991E+03 -2.805909E+03
       403   1  6.205894E+05  3.346131E+05  1.247705E+04  4.501448E+05  5.203435E+03  2.540850E+03
       403   2  6.291920E+05  3.459509E+05  1.377854E+04  4.570804E+05  3.552156E+03  1.093360E+02
       403   3  6.444993E+05  3.515172E+05  1.700201E+04  4.622043E+05  1.899077E+03 -2.319861E+03
       403   4  6.049563E+05  3.236708E+05  7.819336E+03  4.424061E+05  4.467719E+03  1.989324E+03
       403   5  6.015783E+05  3.265107E+05  5.601736E+03  4.433469E+05  2.818768E+03 -4.404735E+02
       403   6  6.049043E+05  3.235782E+05  5.304089E+03  4.424756E+05  1.168092E+03 -2.867890E+03
       403   7  5.893233E+05  3.127286E+05  3.161546E+03  4.346676E+05  3.732021E+03  1.437811E+03
       403   8  5.739655E+05  3.070708E+05 -2.575145E+03  4.296140E+05  2.085423E+03 -9.902502E+02
       403   9  5.653114E+05  2.956403E+05 -6.393868E+03  4.227486E+05  4.371766E+02 -3.415866E+03
       403  10  6.205893E+05  3.346130E+05  1.247699E+04  4.501448E+05 -4.011978E-10 -1.904378E-10
       403  11  6.291920E+05  3.459509E+05  1.377851E+04  4.570804E+05  3.375830E-10  8.528544E-11
       403  12  6.444993E+05  3.515172E+05  1.700199E+04  4.622043E+05  8.122268E-11  6.966276E-11
       403  13  6.049563E+05  3.236708E+05  7.819291E+03  4.424061E+05 -1.015153E-10 -3.094286E-11
       403  14  6.015783E+05  3.265107E+05  5.601721E+03  4.433469E+05  9.801272E-10  2.305221E-10
       403  15  6.049043E+05  3.235782E+05  5.304071E+03  4.424756E+05  3.075334E-10  1.825352E-12
       403  16  5.893233E+05  3.127286E+05  3.161516E+03  4.346676E+05  4.483258E-10  1.245412E-10
       403  17  5.739655E+05  3.070708E+05 -2.575155E+03  4.296140E+05  1.433314E-10  1.640170E-10
       403  18  5.653114E+05  2.956403E+05 -6.393891E+03  4.227486E+05 -1.989075E-10 -1.119308E-10
       403  19  6.205894E+05  3.346131E+05  1.247705E+04  4.501448E+05 -5.203435E+03 -2.540850E+03
       403  20  6.291920E+05  3.459509E+05  1.377854E+04  4.570804E+05 -3.552156E+03 -1.093360E+02
       403  21  6.444993E+05  3.515172E+05  1.700201E+04  4.622043E+05 -1.899077E+03  2.319861E+03
       403  22  6.049563E+05  3.236708E+05  7.819336E+03  4.424061E+05 -4.467719E+03 -1.989324E+03
       403  23  6.015783E+05  3.265107E+05  5.601736E+03  4.433469E+05 -2.818768E+03  4.404735E+02
       403  24  6.049043E+05  3.235782E+05  5.304089E+03  4.424756E+05 -1.168092E+03  2.867890E+03
       403  25  5.893233E+05  3.127286E+05  3.161546E+03  4.346676E+05 -3.732021E+03 -1.437811E+03
       403  26  5.739655E+05  3.070708E+05 -2.575145E+03  4.296140E+05 -2.085423E+03  9.902502E+02
       403  27  5.653114E+05  2.956403E+05 -6.393868E+03  4.227486E+05 -4.371766E+02  3.415866E+03
       404   1  6.535781E+05  3.586647E+05  2.033040E+04  4.672824E+05  1.500277E+03 -3.338488E+03
       404   2  6.627971E+05  3.695109E+05  2.613894E+04  4.736945E+05 -1.277770E+03 -6.565746E+03
       404   3  6.799797E+05  3.762056E+05  3.530605E+04  4.775996E+05 -4.160702E+03 -9.653205E+03
       404   4  6.049237E+05  3.234801E+05  5.719899E+03  4.426598E+05  7.289311E+02 -3.916796E+03
       404   5  6.014526E+05  3.264541E+05  7.969123E+03  4.432497E+05 -1.914299E+03 -7.043038E+03
       404   6  6.059158E+05  3.252474E+05  1.346036E+04  4.413325E+05 -4.662345E+03 -1.002943E+04
       404   7  5.562719E+05  2.882969E+05 -8.890874E+03  4.180393E+05 -4.233353E+01 -4.495042E+03
       404   8  5.401118E+05  2.833991E+05 -1.020123E+04  4.128081E+05 -2.550748E+03 -7.520269E+03
       404   9  5.318570E+05  2.742915E+05 -8.386194E+03  4.050698E+05 -5.163912E+03 -1.040559E+04
       404  10  6.535781E+05  3.586647E+05  2.033037E+04  4.672824E+05 -6.008305E-11  1.034295E-10
       404  11  6.627971E+05  3.695109E+05  2.613886E+04  4.736945E+05  1.907900E-10  1.572345E-10
       404  12  6.799797E+05  3.762055E+05  3.530584E+04  4.775996E+05  3.923692E-10  1.601668E-10
       404  13  6.049237E+05  3.234801E+05  5.719869E+03  4.426598E+05 -2.427987E-10 -3.944097E-11
       404  14  6.014525E+05  3.264540E+05  7.969023E+03  4.432497E+05 -1.995726E-10  5.997285E-11
       404  15  6.059157E+05  3.252473E+05  1.346013E+04  4.413324E+05 -2.343281E-11 -1.718663E-10
       404  16  5.562719E+05  2.882969E+05 -8.890912E+03  4.180393E+05  3.294541E-10  1.082575E-10
       404  17  5.401118E+05  2.833990E+05 -1.020135E+04  4.128081E+05 -2.436307E-11  8.438182E-11
       404  18  5.318570E+05  2.742913E+05 -8.386447E+03  4.050697E+05  1.221794E-10 -2.713683E-10
       404  19  6.535781E+05  3.586647E+05  2.033040E+04  4.672824E+05 -1.500277E+03  3.338488E+03
       404  20  6.627971E+05  3.695109E+05  2.613894E+04  4.736945E+05  1.277770E+03  6.565746E+03
       404  21  6.799797E+05  3.762056E+05  3.530605E+04  4.775996E+05  4.160702E+03  9.653205E+03
       404  22  6.049237E+05  3.234801E+05  5.719899E+03  4.426598E+05 -7.289311E+02  3.916796E+03
       404  23  6.014526E+05  3.264541E+05  7.969123E+03  4.432497E+05  1.914299E+03  7.043038E+03
       404  24  6.059158E+05  3.252474E+05  1.346036E+04  4.413325E+05  4.662345E+03  1.002943E+04
       404  25  5.562719E+05  2.882969E+05 -8.890874E+03  4.180393E+05  4.233353E+01  4.495042E+03
       404  26  5.401118E+05  2.833991E+05 -1.020123E+04  4.128081E+05  2.550748E+03  7.520269E+03
       404  27  5.318570E+05  2.742915E+05 -8.386194E+03  4.050698E+05  5.163912E+03  1.040559E+04
       405   1  6.818168E+05  3.886967E+05  4.132848E+04  4.884693E+05 -4.650027E+03 -1.111372E+04
       405   2  7.029294E+05  3.842968E+05  5.697520E+04  4.859440E+05 -1.965336E+04 -2.218597E+04
       405   3  7.567231E+05  4.097080E+05  9.676134E+04  4.654895E+05 -3.699989E+04 -3.013439E+04
       405   4  6.058923E+05  3.230898E+05  1.670903E+04  4.450817E+05 -6.040992E+03 -1.215665E+04
       405   5  5.995117E+05  3.256532E+05  2.816790E+04  4.411799E+05 -1.803948E+04 -2.097639E+04
       405   6  6.251638E+05  3.573807E+05  6.116432E+04  4.193484E+05 -3.238030E+04 -2.667246E+04
       405   7  5.299749E+05  2.574887E+05 -7.910907E+03  4.017012E+05 -7.431717E+03 -1.319934E+04
       405   8  4.961066E+05  2.670135E+05 -6.401061E+02  3.964238E+05 -1.642597E+04 -1.976702E+04
       405   9  4.936253E+05  3.050562E+05  2.556652E+04  3.732158E+05 -2.776213E+04 -2.321100E+04
       405  10  6.818167E+05  3.886966E+05  4.132821E+04  4.884692E+05  1.320602E-10 -9.049299E-11
       405  11  7.029288E+05  3.842962E+05  5.697355E+04  4.859436E+05 -7.209714E-11 -1.354549E-10
       405  12  7.567214E+05  4.097066E+05  9.675707E+04  4.654886E+05 -9.385900E-11 -3.459068E-11
       405  13  6.058923E+05  3.230896E+05  1.670868E+04  4.450817E+05 -1.204367E-10 -3.221570E-10
       405  14  5.995112E+05  3.256527E+05  2.816646E+04  4.411796E+05  3.047394E-10  9.185252E-11
       405  15  6.251625E+05  3.573796E+05  6.116102E+04  4.193477E+05 -8.805451E-11 -3.281635E-11
       405  16  5.299747E+05  2.574885E+05 -7.911338E+03  4.017011E+05  6.561331E-11 -3.242993E-10
       405  17  4.961062E+05  2.670130E+05 -6.413459E+02  3.964236E+05  1.532532E-10 -1.545400E-10
       405  18  4.936243E+05  3.050554E+05  2.556406E+04  3.732153E+05  1.541870E-10 -2.338419E-11
       405  19  6.818168E+05  3.886967E+05  4.132848E+04  4.884693E+05  4.650027E+03  1.111372E+04
       405  20  7.029294E+05  3.842968E+05  5.697520E+04  4.859440E+05  1.965336E+04  2.218597E+04
       405  21  7.567231E+05  4.097080E+05  9.676134E+04  4.654895E+05  3.699989E+04  3.013439E+04
       405  22  6.058923E+05  3.230898E+05  1.670903E+04  4.450817E+05  6.040992E+03  1.215665E+04
       405  23  5.995117E+05  3.256532E+05  2.816790E+04  4.411799E+05  1.803948E+04  2.097639E+04
       405  24  6.251638E+05  3.573807E+05  6.116432E+04  4.193484E+05  3.238030E+04  2.667246E+04
       405  25  5.299749E+05  2.574887E+05 -7.910907E+03  4.017012E+05  7.431717E+03  1.319934E+04
       405  26  4.961066E+05  2.670135E+05 -6.401061E+02  3.964238E+05  1.642597E+04  1.976702E+04
       405  27  4.936253E+05  3.050562E+05  2.556652E+04  3.732158E+05  2.776213E+04  2.321100E+04
       406   1  1.910319E+05 -7.095625E+01 -2.336961E+04  9.029733E+03 -7.230282E+04 -5.076699E+03
       406   2  1.117034E+05  8.068760E+04  1.594185E+04  2.478596E+04 -5.260686E+04 -1.491845E+04
       406   3  5.632905E+03  6.448097E+04  1.820645E+04  7.647399E+04 -3.291352E+04 -1.289388E+04
       406   4 -2.388502E+05 -1.069270E+05 -1.276668E+05  6.141569E+04 -8.740541E+04 -5.081937E+03
       406   5 -2.244609E+05 -1.492918E+03 -5.878113E+04  4.344849E+04 -5.633589E+04 -1.492069E+04
       406   6 -2.388205E+05  4.966555E+03 -3.486113E+04  6.141862E+04 -2.526567E+04 -1.289238E+04
       406   7 -6.685572E+05 -2.137862E+05 -2.319749E+05  1.137653E+05 -1.024975E+05 -5.089728E+03
       406   8 -5.605191E+05 -8.367977E+04 -1.335109E+05  6.210081E+04 -6.006291E+04 -1.492316E+04
       406   9 -4.832173E+05 -5.455094E+04 -8.793194E+04  4.636924E+04 -1.762080E+04 -1.289125E+04
       406  10  1.910263E+05 -7.238684E+01 -2.337948E+04  9.029437E+03  3.038456E-10 -2.446740E-11
       406  11  1.117004E+05  8.068662E+04  1.593624E+04  2.478532E+04 -2.869669E-10 -1.419755E-10
       406  12  5.631697E+03  6.448050E+04  1.820410E+04  7.647365E+04 -4.977149E-10  1.272128E-11
       406  13 -2.388584E+05 -1.069291E+05 -1.276812E+05  6.141533E+04 -6.205772E-11  2.023328E-11
       406  14 -2.244644E+05 -1.494009E+03 -5.878752E+04  4.344781E+04 -2.639366E-11 -1.579701E-10
       406  15 -2.388212E+05  4.966205E+03 -3.486265E+04  6.141835E+04 -3.991541E-10  2.703729E-10
       406  16 -6.685685E+05 -2.137890E+05 -2.319947E+05  1.137648E+05 -3.358646E-10 -1.250300E-10
       406  17 -5.605230E+05 -8.368098E+04 -1.335181E+05  6.210009E+04  2.292487E-10 -1.919246E-10
       406  18 -4.832176E+05 -5.455120E+04 -8.793284E+04  4.636906E+04  4.506183E-10  1.832288E-10
       406  19  1.910319E+05 -7.095625E+01 -2.336961E+04  9.029733E+03  7.230282E+04  5.076699E+03
       406  20  1.117034E+05  8.068760E+04  1.594185E+04  2.478596E+04  5.260686E+04  1.491845E+04
       406  21  5.632905E+03  6.448097E+04  1.820645E+04  7.647399E+04  3.291352E+04  1.289388E+04
       406  22 -2.388502E+05 -1.069270E+05 -1.276668E+05  6.141569E+04  8.740541E+04  5.081937E+03
       406  23 -2.244609E+05 -1.492918E+03 -5.878113E+04  4.344849E+04  5.633589E+04  1.492069E+04
       406  24 -2.388205E+05  4.966555E+03 -3.486113E+04  6.141862E+04  2.526567E+04  1.289238E+04
       406  25 -6.685572E+05 -2.137862E+05 -2.319749E+05  1.137653E+05  1.024975E+05  5.089728E+03
       406  26 -5.605191E+05 -8.367977E+04 -1.335109E+05  6.210081E+04  6.006291E+04  1.492316E+04
       406  27 -4.832173E+05 -5.455094E+04 -8.793194E+04  4.636924E+04  1.762080E+04  1.289125E+04
       407   1 -6.239514E+04  3.611918E+04  9.074825E+03  5.961297E+04 -2.459878E+04 -8.795831E+03
       407   2 -1.538455E+05  1.911797E+04  3.091838E+02  4.281472E+04 -1.676185E+04 -4.075084E+03
       407   3 -2.476736E+05 -3.318895E+03 -1.491978E+04  6.253202E+04 -8.926388E+03  1.154192E+03
       407   4 -2.329763E+05 -5.433210E+03 -2.808332E+04  6.154660E+04 -2.030974E+04 -8.795316E+03
       407   5 -2.317385E+05  1.497803E+02 -1.662362E+04  4.328806E+04 -1.198711E+04 -4.074229E+03
       407   6 -2.329708E+05  2.127346E+02 -1.196590E+04  6.154557E+04 -3.664803E+03  1.155410E+03
       407   7 -4.035301E+05 -4.698751E+04 -6.524315E+04  6.347969E+04 -1.602186E+04 -8.794774E+03
       407   8 -3.096257E+05 -1.881880E+04 -3.355670E+04  4.376134E+04 -7.212960E+03 -4.073366E+03
       407   9 -2.182678E+05  3.744369E+03 -9.011931E+03  6.055910E+04  1.596905E+03  1.156611E+03
       407  10 -6.239581E+04  3.611893E+04  9.073543E+03  5.961280E+04  5.274998E-10 -5.203779E-11
       407  11 -1.538458E+05  1.911788E+04  3.086245E+02  4.281466E+04 -2.309940E-11 -4.428623E-11
       407  12 -2.476736E+05 -3.318918E+03 -1.491993E+04  6.253203E+04  1.012081E-10 -1.118164E-10
       407  13 -2.329768E+05 -5.433404E+03 -2.808424E+04  6.154646E+04  5.835103E-11  2.635071E-10
       407  14 -2.317386E+05  1.497239E+02 -1.662392E+04  4.328802E+04 -2.425148E-10  1.338382E-10
       407  15 -2.329708E+05  2.127296E+02 -1.196593E+04  6.154557E+04  4.075726E-11 -1.843190E-10
       407  16 -4.035304E+05 -4.698766E+04 -6.524378E+04  6.347957E+04 -2.711678E-10  7.945320E-11
       407  17 -3.096258E+05 -1.881883E+04 -3.355683E+04  4.376132E+04  2.568561E-10  9.720445E-11
       407  18 -2.182678E+05  3.744367E+03 -9.011938E+03  6.055909E+04  1.947485E-10 -4.909182E-13
       407  19 -6.239514E+04  3.611918E+04  9.074825E+03  5.961297E+04  2.459878E+04  8.795831E+03
       407  20 -1.538455E+05  1.911797E+04  3.091838E+02  4.281472E+04  1.676185E+04  4.075084E+03
       407  21 -2.476736E+05 -3.318895E+03 -1.491978E+04  6.253202E+04  8.926388E+03 -1.154192E+03
       407  22 -2.329763E+05 -5.433210E+03 -2.808332E+04  6.154660E+04  2.030974E+04  8.795316E+03
       407  23 -2.317385E+05  1.497803E+02 -1.662362E+04  4.328806E+04  1.198711E+04  4.074229E+03
       407  24 -2.329708E+05  2.127346E+02 -1.196590E+04  6.154557E+04  3.664803E+03 -1.155410E+03
       407  25 -4.035301E+05 -4.698751E+04 -6.524315E+04  6.347969E+04  1.602186E+04  8.794774E+03
       407  26 -3.096257E+05 -1.881880E+04 -3.355670E+04  4.376134E+04  7.212960E+03  4.073366E+03
       407  27 -2.182678E+05  3.744369E+03 -9.011931E+03  6.055910E+04 -1.596905E+03 -1.156611E+03
       408   1 -3.210775E+05 -2.155993E+04 -3.040543E+04  6.107350E+04 -6.930929E+03  4.403972E+03
       408   2 -4.128525E+05 -4.391558E+04 -5.092139E+04  4.363232E+04 -4.825860E+02  9.606148E+03
       408   3 -5.062953E+05 -6.963802E+04 -7.647919E+04  6.269504E+04  5.965941E+03  1.417422E+04
       408   4 -2.327724E+05 -2.717704E+01 -1.107557E+04  6.154288E+04 -1.636339E+03  4.405084E+03
       408   5 -2.319928E+05  1.151442E+02 -1.169337E+04  4.329138E+04  4.204530E+03  9.606632E+03
       408   6 -2.327829E+05 -3.002647E+03 -1.692978E+04  6.154325E+04  1.004652E+04  1.417418E+04
       408   7 -1.444600E+05  2.150507E+04  8.253921E+03  6.201231E+04  3.658995E+03  4.406203E+03
       408   8 -5.110237E+04  4.414371E+04  2.753278E+04  4.295034E+04  8.892993E+03  9.607111E+03
       408   9  4.079970E+04  6.362777E+04  4.261520E+04  6.039094E+04  1.412887E+04  1.417412E+04
       408  10 -3.210776E+05 -2.155997E+04 -3.040556E+04  6.107353E+04  1.206536E-10  1.392643E-10
       408  11 -4.128525E+05 -4.391568E+04 -5.092157E+04  4.363233E+04  2.251637E-10 -1.478779E-11
       408  12 -5.062954E+05 -6.963824E+04 -7.647964E+04  6.269497E+04 -1.130879E-10  7.715885E-11
       408  13 -2.327724E+05 -2.719860E+01 -1.107561E+04  6.154288E+04  2.104674E-12 -5.136655E-11
       408  14 -2.319928E+05  1.150404E+02 -1.169358E+04  4.329135E+04 -7.014811E-11  5.719803E-11
       408  15 -2.327831E+05 -3.002890E+03 -1.693035E+04  6.154313E+04 -1.704949E-10  6.490673E-11
       408  16 -1.444600E+05  2.150505E+04  8.253859E+03  6.201230E+04 -1.812456E-10 -1.253625E-11
       408  17 -5.110248E+04  4.414359E+04  2.753246E+04  4.295027E+04  6.617606E-11 -3.358280E-11
       408  18  4.079943E+04  6.362750E+04  4.261445E+04  6.039078E+04  3.775921E-10  1.143372E-10
       408  19 -3.210775E+05 -2.155993E+04 -3.040543E+04  6.107350E+04  6.930929E+03 -4.403972E+03
       408  20 -4.128525E+05 -4.391558E+04 -5.092139E+04  4.363232E+04  4.825860E+02 -9.606148E+03
       408  21 -5.062953E+05 -6.963802E+04 -7.647919E+04  6.269504E+04 -5.965941E+03 -1.417422E+04
       408  22 -2.327724E+05 -2.717704E+01 -1.107557E+04  6.154288E+04  1.636339E+03 -4.405084E+03
       408  23 -2.319928E+05  1.151442E+02 -1.169337E+04  4.329138E+04 -4.204530E+03 -9.606632E+03
       408  24 -2.327829E+05 -3.002647E+03 -1.692978E+04  6.154325E+04 -1.004652E+04 -1.417418E+04
       408  25 -1.444600E+05  2.150507E+04  8.253921E+03  6.201231E+04 -3.658995E+03 -4.406203E+03
       408  26 -5.110237E+04  4.414371E+04  2.753278E+04  4.295034E+04 -8.892993E+03 -9.607111E+03
       408  27  4.079970E+04  6.362777E+04  4.261520E+04  6.039094E+04 -1.412887E+04 -1.417412E+04
       409   1 -5.833604E+05 -8.184637E+04 -9.564813E+04  5.311749E+04  4.826042E+03  1.847670E+04
       409   2 -6.668385E+05 -1.081447E+05 -1.304234E+05  5.388675E+04  3.614565E+04  1.975479E+04
       409   3 -7.686197E+05 -1.916497E+05 -1.998900E+05  9.045352E+04  6.745568E+04  6.547428E+03
       409   4 -2.359733E+05  2.732407E+03 -2.030702E+04  6.138918E+04  1.300523E+04  1.847638E+04
       409   5 -2.280454E+05 -8.560535E+02 -3.301472E+04  4.348466E+04  3.044016E+04  1.975378E+04
       409   6 -2.360039E+05 -5.921796E+04 -7.075331E+04  6.137959E+04  4.787089E+04  6.548436E+03
       409   7  1.115273E+05  8.730349E+04  5.502718E+04  6.966557E+04  2.118894E+04  1.847628E+04
       409   8  2.109279E+05  1.064199E+05  6.438217E+04  3.307512E+04  2.473068E+04  1.975297E+04
       409   9  2.968740E+05  7.319631E+04  5.836486E+04  3.228062E+04  2.826932E+04  6.551282E+03
       409  10 -5.833605E+05 -8.184674E+04 -9.564881E+04  5.311741E+04  1.450439E-10  4.302204E-11
       409  11 -6.668400E+05 -1.081454E+05 -1.304266E+05  5.388617E+04 -4.379466E-10 -1.121439E-10
       409  12 -7.686246E+05 -1.916510E+05 -1.998987E+05  9.045316E+04 -3.720661E-10 -1.874017E-10
       409  13 -2.359736E+05  2.731995E+03 -2.030798E+04  6.138899E+04  4.291951E-10  7.727762E-11
       409  14 -2.280465E+05 -8.567213E+02 -3.301719E+04  4.348417E+04  1.079644E-10 -9.112787E-11
       409  15 -2.360063E+05 -5.921863E+04 -7.075770E+04  6.137934E+04 -1.343421E-10  4.262758E-11
       409  16  1.115268E+05  8.730300E+04  5.502569E+04  6.966525E+04  8.857314E-11  7.860037E-11
       409  17  2.109271E+05  1.064194E+05  6.438029E+04  3.307473E+04  3.083749E-10  2.061630E-11
       409  18  2.968731E+05  7.319605E+04  5.836328E+04  3.228048E+04  3.848402E-10 -2.856102E-10
       409  19 -5.833604E+05 -8.184637E+04 -9.564813E+04  5.311749E+04 -4.826042E+03 -1.847670E+04
       409  20 -6.668385E+05 -1.081447E+05 -1.304234E+05  5.388675E+04 -3.614565E+04 -1.975479E+04
       409  21 -7.686197E+05 -1.916497E+05 -1.998900E+05  9.045352E+04 -6.745568E+04 -6.547428E+03
       409  22 -2.359733E+05  2.732407E+03 -2.030702E+04  6.138918E+04 -1.300523E+04 -1.847638E+04
       409  23 -2.280454E+05 -8.560535E+02 -3.301472E+04  4.348466E+04 -3.044016E+04 -1.975378E+04
       409  24 -2.360039E+05 -5.921796E+04 -7.075331E+04  6.137959E+04 -4.787089E+04 -6.548436E+03
       409  25  1.115273E+05  8.730349E+04  5.502718E+04  6.966557E+04 -2.118894E+04 -1.847628E+04
       409  26  2.109279E+05  1.064199E+05  6.438217E+04  3.307512E+04 -2.473068E+04 -1.975297E+04
       409  27  2.968740E+05  7.319631E+04  5.836486E+04  3.228062E+04 -2.826932E+04 -6.551282E+03
       410   1 -2.745716E+05 -9.944501E+05 -3.027834E+05  1.748114E+05 -5.320180E+03 -1.360732E+05
       410   2 -8.404508E+04 -8.221686E+05 -1.638944E+05  9.709347E+04 -1.437478E+04 -7.591729E+04
       410   3 -3.860117E+04 -6.940152E+05 -1.004892E+05  7.793274E+04 -9.569120E+03 -1.575049E+04
       410   4 -1.535582E+05 -5.078919E+05 -1.843258E+05  9.946458E+04 -5.296925E+03 -1.207605E+05
       410   5 -2.003628E+03 -4.869526E+05 -8.898829E+04  7.014514E+04 -1.436988E+04 -7.386868E+04
       410   6  6.813935E+03 -5.078268E+05 -5.987793E+04  9.939577E+04 -9.576543E+03 -2.698151E+04
       410   7 -3.254077E+04 -2.110469E+04 -6.588138E+04  2.405845E+04 -5.277406E+03 -1.054357E+05
       410   8  8.003292E+04 -1.516303E+05 -1.408880E+04  4.318207E+04 -1.436516E+04 -7.181897E+04
       410   9  5.222852E+04 -3.216046E+05 -1.926800E+04  1.208653E+05 -9.584742E+03 -3.821586E+04
       410  10 -2.745766E+05 -9.944700E+05 -3.028183E+05  1.748108E+05 -1.348581E-11  2.775830E-10
       410  11 -8.404685E+04 -8.221748E+05 -1.639057E+05  9.709259E+04  2.397096E-10  1.269180E-10
       410  12 -3.860133E+04 -6.940155E+05 -1.004899E+05  7.793262E+04 -1.815508E-10 -4.618325E-10
       410  13 -1.535622E+05 -5.079076E+05 -1.843533E+05  9.946407E+04 -1.840525E-10  3.584639E-10
       410  14 -2.005316E+03 -4.869586E+05 -8.899894E+04  7.014429E+04  8.550564E-10 -1.610508E-10
       410  15  6.813641E+03 -5.078276E+05 -5.987947E+04  9.939556E+04  3.704355E-10  4.985845E-10
       410  16 -3.254379E+04 -2.111664E+04 -6.590232E+04  2.405800E+04  1.109747E-10 -1.240352E-10
       410  17  8.003132E+04 -1.516359E+05 -1.409888E+04  4.318124E+04  4.728351E-10  1.391000E-10
       410  18  5.222803E+04 -3.216062E+05 -1.927091E+04  1.208650E+05  2.129732E-10  3.935041E-10
       410  19 -2.745716E+05 -9.944501E+05 -3.027834E+05  1.748114E+05  5.320180E+03  1.360732E+05
       410  20 -8.404508E+04 -8.221686E+05 -1.638944E+05  9.709347E+04  1.437478E+04  7.591729E+04
       410  21 -3.860117E+04 -6.940152E+05 -1.004892E+05  7.793274E+04  9.569120E+03  1.575049E+04
       410  22 -1.535582E+05 -5.078919E+05 -1.843258E+05  9.946458E+04  5.296925E+03  1.207605E+05
       410  23 -2.003628E+03 -4.869526E+05 -8.898829E+04  7.014514E+04  1.436988E+04  7.386868E+04
       410  24  6.813935E+03 -5.078268E+05 -5.987793E+04  9.939577E+04  9.576543E+03  2.698151E+04
       410  25 -3.254077E+04 -2.110469E+04 -6.588138E+04  2.405845E+04  5.277406E+03  1.054357E+05
       410  26  8.003292E+04 -1.516303E+05 -1.408880E+04  4.318207E+04  1.436516E+04  7.181897E+04
       410  27  5.222852E+04 -3.216046E+05 -1.926800E+04  1.208653E+05  9.584742E+03  3.821586E+04
       411   1 -2.339667E+04 -5.668091E+05 -6.820899E+04  1.042258E+05 -3.284241E+03 -1.032654E+04
       411   2  2.076360E+04 -4.128831E+05 -2.952300E+04  6.982275E+04  4.474077E+03  1.336769E+04
       411   3  4.730583E+04 -2.664897E+05 -1.069201E+04  9.459284E+04  1.203767E+04  3.706829E+04
       411   4 -7.156585E+03 -5.002208E+05 -5.360068E+04  9.954725E+04 -3.289064E+03 -1.784902E+04
       411   5  4.244290E+02 -4.964315E+05 -4.763012E+04  6.996060E+04  4.469689E+03  6.030341E+03
       411   6 -9.644733E+03 -5.002294E+05 -6.164308E+04  9.954874E+04  1.203400E+04  2.991051E+04
       411   7  9.083314E+03 -4.336282E+05 -3.899242E+04  9.486824E+04 -3.293773E+03 -2.537229E+04
       411   8 -1.991518E+04 -5.799732E+05 -6.573745E+04  7.009844E+04  4.465297E+03 -1.306036E+03
       411   9 -6.659881E+04 -7.339178E+05 -1.125972E+05  1.045027E+05  1.203021E+04  2.275539E+04
       411  10 -2.339671E+04 -5.668092E+05 -6.820921E+04  1.042257E+05  8.695179E-11  2.161092E-10
       411  11  2.076353E+04 -4.128833E+05 -2.952338E+04  6.982270E+04  2.016298E-10  4.496247E-10
       411  12  4.730530E+04 -2.664912E+05 -1.069487E+04  9.459248E+04  2.726194E-10 -1.824754E-10
       411  13 -7.156683E+03 -5.002212E+05 -5.360130E+04  9.954721E+04  2.044631E-10  5.550513E-10
       411  14  4.243978E+02 -4.964315E+05 -4.763023E+04  6.996058E+04  8.167766E-10 -2.369276E-10
       411  15 -9.645129E+03 -5.002304E+05 -6.164504E+04  9.954845E+04 -4.824422E-10  6.687334E-10
       411  16  9.083130E+03 -4.336289E+05 -3.899365E+04  9.486817E+04  1.066540E-10  1.666087E-11
       411  17 -1.991520E+04 -5.799732E+05 -6.573749E+04  7.009844E+04  2.399034E-10  4.042342E-11
       411  18 -6.659910E+04 -7.339184E+05 -1.125985E+05  1.045025E+05  8.126479E-11  5.431489E-11
       411  19 -2.339667E+04 -5.668091E+05 -6.820899E+04  1.042258E+05  3.284241E+03  1.032654E+04
       411  20  2.076360E+04 -4.128831E+05 -2.952300E+04  6.982275E+04 -4.474077E+03 -1.336769E+04
       411  21  4.730583E+04 -2.664897E+05 -1.069201E+04  9.459284E+04 -1.203767E+04 -3.706829E+04
       411  22 -7.156585E+03 -5.002208E+05 -5.360068E+04  9.954725E+04  3.289064E+03  1.784902E+04
       411  23  4.244290E+02 -4.964315E+05 -4.763012E+04  6.996060E+04 -4.469689E+03 -6.030341E+03
       411  24 -9.644733E+03 -5.002294E+05 -6.164308E+04  9.954874E+04 -1.203400E+04 -2.991051E+04
       411  25  9.083314E+03 -4.336282E+05 -3.899242E+04  9.486824E+04  3.293773E+03  2.537229E+04
       411  26 -1.991518E+04 -5.799732E+05 -6.573745E+04  7.009844E+04 -4.465297E+03  1.306036E+03
       411  27 -6.659881E+04 -7.339178E+05 -1.125972E+05  1.045027E+05 -1.203021E+04 -2.275539E+04
       412   1  9.510451E+04 -1.570885E+05  4.911349E+03  1.273690E+05  1.864925E+04  5.268467E+04
       412   2  1.200661E+05  1.852077E+04 -1.058254E+03  3.536833E+04  2.221481E+04  9.482349E+04
       412   3 -3.676996E+04  1.432918E+05 -7.988706E+04  1.659146E+03  7.644891E+03  1.369770E+05
       412   4  9.001263E+03 -5.105362E+05 -7.185657E+04  9.933926E+04  1.864103E+04  4.055366E+04
       412   5 -2.695939E+03 -4.836126E+05 -1.127563E+05  7.021723E+04  2.222336E+04  1.000540E+05
       412   6 -1.993032E+05 -5.106260E+05 -2.386240E+05  9.939958E+04  7.672169E+03  1.595571E+05
       412   7 -7.710725E+04 -8.638646E+05 -1.486310E+05  7.132567E+04  1.863391E+04  2.842947E+04
       412   8 -1.254705E+05 -9.855080E+05 -2.244694E+05  1.050376E+05  2.223250E+04  1.052803E+05
       412   9 -3.618316E+05 -1.164132E+06 -3.973847E+05  1.970367E+05  7.706583E+03  1.821134E+05
       412  10  9.510339E+04 -1.570916E+05  4.905479E+03  1.273682E+05 -1.787956E-10  7.079846E-11
       412  11  1.200632E+05  1.851098E+04 -1.076078E+03  3.536663E+04  1.839409E-10  2.168452E-11
       412  12 -3.677506E+04  1.432716E+05 -7.992242E+04  1.658303E+03  6.199118E-11 -5.781868E-12
       412  13  9.000448E+03 -5.105380E+05 -7.186031E+04  9.933865E+04  2.392647E-10  3.480091E-10
       412  14 -2.699159E+03 -4.836235E+05 -1.127761E+05  7.021544E+04  3.719096E-10 -5.391017E-12
       412  15 -1.993101E+05 -5.106534E+05 -2.386720E+05  9.939860E+04 -9.230330E-11 -3.740332E-11
       412  16 -7.710784E+04 -8.638655E+05 -1.486331E+05  7.132524E+04 -2.901483E-10  2.101195E-10
       412  17 -1.254740E+05 -9.855200E+05 -2.244912E+05  1.050357E+05 -1.593993E-10  3.011875E-10
       412  18 -3.618406E+05 -1.164167E+06 -3.974473E+05  1.970356E+05  5.171852E-11 -8.234983E-11
       412  19  9.510451E+04 -1.570885E+05  4.911349E+03  1.273690E+05 -1.864925E+04 -5.268467E+04
       412  20  1.200661E+05  1.852077E+04 -1.058254E+03  3.536833E+04 -2.221481E+04 -9.482349E+04
       412  21 -3.676996E+04  1.432918E+05 -7.988706E+04  1.659146E+03 -7.644891E+03 -1.369770E+05
       412  22  9.001263E+03 -5.105362E+05 -7.185657E+04  9.933926E+04 -1.864103E+04 -4.055366E+04
       412  23 -2.695939E+03 -4.836126E+05 -1.127563E+05  7.021723E+04 -2.222336E+04 -1.000540E+05
       412  24 -1.993032E+05 -5.106260E+05 -2.386240E+05  9.939958E+04 -7.672169E+03 -1.595571E+05
       412  25 -7.710725E+04 -8.638646E+05 -1.486310E+05  7.132567E+04 -1.863391E+04 -2.842947E+04
       412  26 -1.254705E+05 -9.855080E+05 -2.244694E+05  1.050376E+05 -2.223250E+04 -1.052803E+05
       412  27 -3.618316E+05 -1.164132E+06 -3.973847E+05  1.970367E+05 -7.706583E+03 -1.821134E+05
       413   1  1.046368E+06  8.639150E+05  2.703596E+05  7.341650E+05  1.513132E+05  1.141492E+05
       413   2  1.011152E+06  6.308305E+05  1.192475E+05  8.061955E+05  9.706619E+04  7.512887E+04
       413   3  1.091151E+06  5.605473E+05  6.543304E+04  8.054969E+05  4.326886E+04  3.550716E+04
       413   4  1.179930E+06  7.712187E+05  2.782034E+05  7.139763E+05  1.526706E+05  1.151232E+05
       413   5  1.078480E+06  6.117767E+05  1.277587E+05  8.088784E+05  9.781461E+04  7.567989E+04
       413   6  1.092359E+06  6.152371E+05  7.511903E+04  8.310558E+05  4.341801E+04  3.562264E+04
       413   7  1.313534E+06  6.785575E+05  2.860541E+05  6.937762E+05  1.540283E+05  1.160968E+05
       413   8  1.145815E+06  5.927262E+05  1.362708E+05  8.115600E+05  9.856316E+04  7.623085E+04
       413   9  1.093568E+06  6.699327E+05  8.480537E+04  8.566153E+05  4.356716E+04  3.573814E+04
       413  10  1.046340E+06  8.638949E+05  2.702922E+05  7.341511E+05  2.275462E-10  1.423236E-10
       413  11  1.011141E+06  6.308219E+05  1.192192E+05  8.061896E+05  3.659405E-10 -1.164538E-10
       413  12  1.091149E+06  5.605454E+05  6.542717E+04  8.054957E+05 -1.316462E-10 -2.251111E-11
       413  13  1.179901E+06  7.711983E+05  2.781348E+05  7.139622E+05  1.137997E-10 -1.176360E-10
       413  14  1.078468E+06  6.117680E+05  1.277301E+05  8.088724E+05  6.896353E-11 -3.122748E-10
       413  15  1.092356E+06  6.152353E+05  7.511312E+04  8.310545E+05 -1.256817E-10 -3.427053E-11
       413  16  1.313505E+06  6.785367E+05  2.859844E+05  6.937618E+05  4.506529E-10 -1.817930E-10
       413  17  1.145803E+06  5.927174E+05  1.362417E+05  8.115540E+05  1.064839E-09 -7.262410E-11
       413  18  1.093565E+06  6.699309E+05  8.479942E+04  8.566140E+05  7.981287E-10  3.514549E-10
       413  19  1.046368E+06  8.639150E+05  2.703596E+05  7.341650E+05 -1.513132E+05 -1.141492E+05
       413  20  1.011152E+06  6.308305E+05  1.192475E+05  8.061955E+05 -9.706619E+04 -7.512887E+04
       413  21  1.091151E+06  5.605473E+05  6.543304E+04  8.054969E+05 -4.326886E+04 -3.550716E+04
       413  22  1.179930E+06  7.712187E+05  2.782034E+05  7.139763E+05 -1.526706E+05 -1.151232E+05
       413  23  1.078480E+06  6.117767E+05  1.277587E+05  8.088784E+05 -9.781461E+04 -7.567989E+04
       413  24  1.092359E+06  6.152371E+05  7.511903E+04  8.310558E+05 -4.341801E+04 -3.562264E+04
       413  25  1.313534E+06  6.785575E+05  2.860541E+05  6.937762E+05 -1.540283E+05 -1.160968E+05
       413  26  1.145815E+06  5.927262E+05  1.362708E+05  8.115600E+05 -9.856316E+04 -7.623085E+04
       413  27  1.093568E+06  6.699327E+05  8.480537E+04  8.566153E+05 -4.356716E+04 -3.573814E+04
       414   1  1.052047E+06  6.034447E+05  4.918436E+04  7.970753E+05  3.448939E+04  2.911506E+04
       414   2  1.045727E+06  5.873469E+05  2.189647E+04  7.981775E+05  2.063341E+04  1.923623E+04
       414   3  1.044547E+06  5.829419E+05  8.588777E+03  7.968163E+05  6.796910E+03  9.332068E+03
       414   4  1.092312E+06  6.251506E+05  5.999407E+04  8.140238E+05  3.481703E+04  2.936027E+04
       414   5  1.087485E+06  6.152824E+05  3.400440E+04  8.182765E+05  2.093529E+04  1.946244E+04
       414   6  1.087805E+06  6.171119E+05  2.201656E+04  8.200659E+05  7.072932E+03  9.538983E+03
       414   7  1.132579E+06  6.468570E+05  7.080364E+04  8.309735E+05  3.514470E+04  2.960549E+04
       414   8  1.129246E+06  6.432189E+05  4.611221E+04  8.383772E+05  2.123720E+04  1.968866E+04
       414   9  1.131065E+06  6.512837E+05  3.544427E+04  8.433177E+05  7.348984E+03  9.745923E+03
       414  10  1.052046E+06  6.034434E+05  4.918054E+04  7.970745E+05  4.399361E-10  5.549819E-10
       414  11  1.045726E+06  5.873464E+05  2.189498E+04  7.981772E+05  3.113383E-10  1.992066E-10
       414  12  1.044547E+06  5.829418E+05  8.588527E+03  7.968163E+05 -7.116327E-10 -2.224049E-11
       414  13  1.092311E+06  6.251494E+05  5.999018E+04  8.140230E+05  2.344928E-10  2.366420E-10
       414  14  1.087485E+06  6.152819E+05  3.400287E+04  8.182762E+05  3.850696E-10  1.968986E-10
       414  15  1.087805E+06  6.171118E+05  2.201629E+04  8.200659E+05 -1.403477E-10  3.732711E-10
       414  16  1.132577E+06  6.468558E+05  7.079969E+04  8.309727E+05 -5.898240E-10 -3.158914E-10
       414  17  1.129246E+06  6.432183E+05  4.611064E+04  8.383768E+05 -3.067493E-10 -2.035661E-11
       414  18  1.131065E+06  6.512836E+05  3.544399E+04  8.433177E+05  7.739994E-10  7.960926E-10
       414  19  1.052047E+06  6.034447E+05  4.918436E+04  7.970753E+05 -3.448939E+04 -2.911506E+04
       414  20  1.045727E+06  5.873469E+05  2.189647E+04  7.981775E+05 -2.063341E+04 -1.923623E+04
       414  21  1.044547E+06  5.829419E+05  8.588777E+03  7.968163E+05 -6.796910E+03 -9.332068E+03
       414  22  1.092312E+06  6.251506E+05  5.999407E+04  8.140238E+05 -3.481703E+04 -2.936027E+04
       414  23  1.087485E+06  6.152824E+05  3.400440E+04  8.182765E+05 -2.093529E+04 -1.946244E+04
       414  24  1.087805E+06  6.171119E+05  2.201656E+04  8.200659E+05 -7.072932E+03 -9.538983E+03
       414  25  1.132579E+06  6.468570E+05  7.080364E+04  8.309735E+05 -3.514470E+04 -2.960549E+04
       414  26  1.129246E+06  6.432189E+05  4.611221E+04  8.383772E+05 -2.123720E+04 -1.968866E+04
       414  27  1.131065E+06  6.512837E+05  3.544427E+04  8.433177E+05 -7.348984E+03 -9.745923E+03
       415   1  1.038715E+06  5.828562E+05  4.297838E+03  7.946801E+05  3.759649E+03  7.319712E+03
       415   2  1.034578E+06  5.777282E+05  3.422007E+02  7.919964E+05 -2.902885E+03  2.789410E+03
       415   3  1.029384E+06  5.763540E+05  1.946712E+03  7.900459E+05 -9.562929E+03 -1.743796E+03
       415   4  1.087657E+06  6.175371E+05  1.883584E+04  8.191338E+05  4.047132E+03  7.535160E+03
       415   5  1.088188E+06  6.156664E+05  1.624053E+04  8.187622E+05 -2.618975E+03  3.002159E+03
       415   6  1.087664E+06  6.175499E+05  1.920807E+04  8.191237E+05 -9.282690E+03 -1.533816E+03
       415   7  1.136601E+06  6.522190E+05  3.337341E+04  8.435895E+05  4.334643E+03  7.750629E+03
       415   8  1.141802E+06  6.536060E+05  3.213844E+04  8.455305E+05 -2.335034E+03  3.214932E+03
       415   9  1.145948E+06  6.587477E+05  3.646904E+04  8.482046E+05 -9.002416E+03 -1.323810E+03
       415  10  1.038715E+06  5.828562E+05  4.297711E+03  7.946801E+05 -1.080261E-11  3.414711E-10
       415  11  1.034578E+06  5.777282E+05  3.421702E+02  7.919964E+05 -1.231886E-10 -4.006103E-10
       415  12  1.029384E+06  5.763540E+05  1.946534E+03  7.900459E+05 -4.525628E-10 -5.192403E-10
       415  13  1.087657E+06  6.175370E+05  1.883571E+04  8.191338E+05 -3.569757E-11  2.471330E-10
       415  14  1.088188E+06  6.156664E+05  1.624050E+04  8.187622E+05  9.405624E-10 -1.585935E-10
       415  15  1.087664E+06  6.175499E+05  1.920790E+04  8.191237E+05  1.570951E-10 -1.716097E-10
       415  16  1.136601E+06  6.522189E+05  3.337326E+04  8.435894E+05 -2.736783E-10 -5.830479E-12
       415  17  1.141802E+06  6.536060E+05  3.213841E+04  8.455305E+05  4.177796E-10 -4.594817E-11
       415  18  1.145947E+06  6.587477E+05  3.646888E+04  8.482046E+05  1.031203E-09  9.425379E-11
       415  19  1.038715E+06  5.828562E+05  4.297838E+03  7.946801E+05 -3.759649E+03 -7.319712E+03
       415  20  1.034578E+06  5.777282E+05  3.422007E+02  7.919964E+05  2.902885E+03 -2.789410E+03
       415  21  1.029384E+06  5.763540E+05  1.946712E+03  7.900459E+05  9.562929E+03  1.743796E+03
       415  22  1.087657E+06  6.175371E+05  1.883584E+04  8.191338E+05 -4.047132E+03 -7.535160E+03
       415  23  1.088188E+06  6.156664E+05  1.624053E+04  8.187622E+05  2.618975E+03 -3.002159E+03
       415  24  1.087664E+06  6.175499E+05  1.920807E+04  8.191237E+05  9.282690E+03  1.533816E+03
       415  25  1.136601E+06  6.522190E+05  3.337341E+04  8.435895E+05 -4.334643E+03 -7.750629E+03
       415  26  1.141802E+06  6.536060E+05  3.213844E+04  8.455305E+05  2.335034E+03 -3.214932E+03
       415  27  1.145948E+06  6.587477E+05  3.646904E+04  8.482046E+05  9.002416E+03  1.323810E+03
       416   1  1.023640E+06  5.754181E+05  4.201249E+03  7.897862E+05 -1.270198E+04 -3.807917E+03
       416   2  1.021701E+06  5.669715E+05  1.535411E+04  7.846188E+05 -2.691364E+04 -1.402998E+04
       416   3  1.025048E+06  5.706867E+05  4.091683E+04  7.768989E+05 -4.104579E+04 -2.435863E+04
       416   4  1.087794E+06  6.171371E+05  2.260178E+04  8.201072E+05 -1.238754E+04 -3.572264E+03
       416   5  1.087481E+06  6.152219E+05  3.517819E+04  8.182448E+05 -2.670356E+04 -1.387268E+04
       416   6  1.092475E+06  6.254901E+05  6.225347E+04  8.138302E+05 -4.093997E+04 -2.427982E+04
       416   7  1.151954E+06  6.588583E+05  4.100209E+04  8.504319E+05 -1.207306E+04 -3.336580E+03
       416   8  1.153266E+06  6.634749E+05  5.500178E+04  8.518749E+05 -2.649346E+04 -1.371535E+04
       416   9  1.159907E+06  6.802966E+05  8.358930E+04  8.507658E+05 -4.083414E+04 -2.420100E+04
       416  10  1.023640E+06  5.754181E+05  4.200919E+03  7.897862E+05  3.901002E-10  1.074884E-11
       416  11  1.021700E+06  5.669711E+05  1.535238E+04  7.846185E+05  3.963818E-10 -2.387441E-10
       416  12  1.025046E+06  5.706856E+05  4.091256E+04  7.768981E+05  7.999440E-10 -4.256722E-10
       416  13  1.087794E+06  6.171370E+05  2.260146E+04  8.201072E+05 -3.964087E-10 -2.074415E-10
       416  14  1.087480E+06  6.152215E+05  3.517650E+04  8.182445E+05  4.321336E-10 -3.679935E-10
       416  15  1.092474E+06  6.254890E+05  6.224923E+04  8.138294E+05 -9.094158E-11 -5.100957E-10
       416  16  1.151954E+06  6.588583E+05  4.100180E+04  8.504319E+05  1.699126E-10 -3.644450E-10
       416  17  1.153265E+06  6.634745E+05  5.500011E+04  8.518746E+05 -3.080691E-10 -4.915901E-10
       416  18  1.159905E+06  6.802955E+05  8.358508E+04  8.507650E+05  6.232607E-10 -6.413583E-10
       416  19  1.023640E+06  5.754181E+05  4.201249E+03  7.897862E+05  1.270198E+04  3.807917E+03
       416  20  1.021701E+06  5.669715E+05  1.535411E+04  7.846188E+05  2.691364E+04  1.402998E+04
       416  21  1.025048E+06  5.706867E+05  4.091683E+04  7.768989E+05  4.104579E+04  2.435863E+04
       416  22  1.087794E+06  6.171371E+05  2.260178E+04  8.201072E+05  1.238754E+04  3.572264E+03
       416  23  1.087481E+06  6.152219E+05  3.517819E+04  8.182448E+05  2.670356E+04  1.387268E+04
       416  24  1.092475E+06  6.254901E+05  6.225347E+04  8.138302E+05  4.093997E+04  2.427982E+04
       416  25  1.151954E+06  6.588583E+05  4.100209E+04  8.504319E+05  1.207306E+04  3.336580E+03
       416  26  1.153266E+06  6.634749E+05  5.500178E+04  8.518749E+05  2.649346E+04  1.371535E+04
       416  27  1.159907E+06  6.802966E+05  8.358930E+04  8.507658E+05  4.083414E+04  2.420100E+04
       417   1  9.843078E+05  5.945038E+05  5.560549E+04  8.034188E+05 -5.085456E+04 -3.112732E+04
       417   2  1.038376E+06  5.141081E+05  1.083922E+05  7.565649E+05 -1.043931E+05 -7.181995E+04
       417   3  1.211759E+06  6.025619E+05  2.607820E+05  6.341486E+05 -1.561190E+05 -1.149293E+05
       417   4  1.092535E+06  6.151787E+05  7.799339E+04  8.315258E+05 -5.005658E+04 -3.052539E+04
       417   5  1.078111E+06  6.115846E+05  1.327262E+05  8.084816E+05 -1.059342E+05 -7.298552E+04
       417   6  1.183472E+06  7.773174E+05  2.890800E+05  7.098851E+05 -1.599907E+05 -1.178764E+05
       417   7  1.200778E+06  6.358550E+05  1.003813E+05  8.596356E+05 -4.925840E+04 -2.992345E+04
       417   8  1.117850E+06  7.090781E+05  1.570606E+05  8.604052E+05 -1.074755E+05 -7.415151E+04
       417   9  1.155210E+06  9.521449E+05  3.173850E+05  7.856243E+05 -1.638622E+05 -1.208255E+05
       417  10  9.843048E+05  5.945021E+05  5.559883E+04  8.034175E+05  9.487981E-10 -1.750188E-10
       417  11  1.038363E+06  5.140997E+05  1.083621E+05  7.565589E+05  8.548923E-10  2.133814E-11
       417  12  1.211729E+06  6.025412E+05  2.607116E+05  6.341342E+05  3.102325E-10 -3.144636E-10
       417  13  1.092532E+06  6.151770E+05  7.798695E+04  8.315246E+05 -1.829014E-10 -6.379230E-10
       417  14  1.078097E+06  6.115759E+05  1.326952E+05  8.084754E+05  8.620306E-10 -6.687910E-10
       417  15  1.183441E+06  7.772957E+05  2.890060E+05  7.098699E+05  9.096962E-11  1.487096E-10
       417  16  1.200775E+06  6.358533E+05  1.003751E+05  8.596344E+05  5.251504E-11 -7.093445E-10
       417  17  1.117836E+06  7.090691E+05  1.570286E+05  8.603988E+05 -5.462525E-10 -1.589036E-10
       417  18  1.155177E+06  9.521221E+05  3.173073E+05  7.856084E+05  1.870489E-10  1.522849E-10
       417  19  9.843078E+05  5.945038E+05  5.560549E+04  8.034188E+05  5.085456E+04  3.112732E+04
       417  20  1.038376E+06  5.141081E+05  1.083922E+05  7.565649E+05  1.043931E+05  7.181995E+04
       417  21  1.211759E+06  6.025619E+05  2.607820E+05  6.341486E+05  1.561190E+05  1.149293E+05
       417  22  1.092535E+06  6.151787E+05  7.799339E+04  8.315258E+05  5.005658E+04  3.052539E+04
       417  23  1.078111E+06  6.115846E+05  1.327262E+05  8.084816E+05  1.059342E+05  7.298552E+04
       417  24  1.183472E+06  7.773174E+05  2.890800E+05  7.098851E+05  1.599907E+05  1.178764E+05
       417  25  1.200778E+06  6.358550E+05  1.003813E+05  8.596356E+05  4.925840E+04  2.992345E+04
       417  26  1.117850E+06  7.090781E+05  1.570606E+05  8.604052E+05  1.074755E+05  7.415151E+04
       417  27  1.155210E+06  9.521449E+05  3.173850E+05  7.856243E+05  1.638622E+05  1.208255E+05
       418   1  9.016938E+04  1.834546E+04  6.622809E+03 -6.573894E+03 -3.073519E+04 -3.659029E+03
       418   2  6.851123E+04  6.049548E+04  2.752665E+04  4.215977E+03 -2.305150E+04 -1.151661E+04
       418   3  3.439114E+04  5.668251E+04  3.194291E+04  2.562093E+04 -1.536568E+04 -1.199682E+04
       418   4 -1.889362E+05 -5.099807E+04 -6.086738E+04  1.845488E+04 -4.180484E+04 -3.656780E+03
       418   5 -1.820832E+05 -7.218541E+02 -2.792531E+04  1.315423E+04 -2.704397E+04 -1.151628E+04
       418   6 -1.889276E+05  2.351491E+03 -1.639149E+04  1.846907E+04 -1.228031E+04 -1.199748E+04
       418   7 -4.679690E+05 -1.203449E+05 -1.283624E+05  4.347236E+04 -5.286952E+04 -3.655423E+03
       418   8 -4.326188E+05 -6.194312E+04 -8.338105E+04  2.208884E+04 -3.103484E+04 -1.151607E+04
       418   9 -4.121993E+05 -5.198262E+04 -6.472880E+04  1.131983E+04 -9.196031E+03 -1.199820E+04
       418  10  9.016836E+04  1.834519E+04  6.621009E+03 -6.573984E+03 -3.005896E-10  2.896966E-10
       418  11  6.851062E+04  6.049520E+04  2.752540E+04  4.215764E+03  4.030576E-10 -1.417550E-10
       418  12  3.439085E+04  5.668229E+04  3.194220E+04  2.562078E+04  5.134678E-10  1.485239E-10
       418  13 -1.889381E+05 -5.099856E+04 -6.087069E+04  1.845475E+04  2.086233E-10 -2.762545E-10
       418  14 -1.820841E+05 -7.221929E+02 -2.792694E+04  1.315398E+04  8.680524E-11 -7.834789E-11
       418  15 -1.889278E+05  2.351296E+03 -1.639205E+04  1.846895E+04  5.142194E-11  1.522109E-10
       418  16 -4.679720E+05 -1.203457E+05 -1.283677E+05  4.347221E+04  1.770956E-10 -2.526913E-10
       418  17 -4.326199E+05 -6.194352E+04 -8.338311E+04  2.208855E+04 -5.030551E-10 -1.256287E-10
       418  18 -4.121995E+05 -5.198280E+04 -6.472922E+04  1.131974E+04 -6.738735E-10 -4.502230E-10
       418  19  9.016938E+04  1.834546E+04  6.622809E+03 -6.573894E+03  3.073519E+04  3.659029E+03
       418  20  6.851123E+04  6.049548E+04  2.752665E+04  4.215977E+03  2.305150E+04  1.151661E+04
       418  21  3.439114E+04  5.668251E+04  3.194291E+04  2.562093E+04  1.536568E+04  1.199682E+04
       418  22 -1.889362E+05 -5.099807E+04 -6.086738E+04  1.845488E+04  4.180484E+04  3.656780E+03
       418  23 -1.820832E+05 -7.218541E+02 -2.792531E+04  1.315423E+04  2.704397E+04  1.151628E+04
       418  24 -1.889276E+05  2.351491E+03 -1.639149E+04  1.846907E+04  1.228031E+04  1.199748E+04
       418  25 -4.679690E+05 -1.203449E+05 -1.283624E+05  4.347236E+04  5.286952E+04  3.655423E+03
       418  26 -4.326188E+05 -6.194312E+04 -8.338105E+04  2.208884E+04  3.103484E+04  1.151607E+04
       418  27 -4.121993E+05 -5.198262E+04 -6.472880E+04  1.131983E+04  9.196031E+03  1.199820E+04
       419   1  1.487317E+04  4.633484E+04  3.064248E+04  1.761515E+04 -1.095947E+04 -1.046443E+04
       419   2 -1.248104E+04  4.216781E+04  3.013613E+04  1.283525E+04 -7.596213E+03 -9.265081E+03
       419   3 -4.089269E+04  3.546943E+04  2.681034E+04  1.903596E+04 -4.233360E+03 -7.731134E+03
       419   4 -1.861301E+05 -2.612465E+03 -1.307198E+04  1.854660E+04 -9.966130E+03 -1.046483E+04
       419   5 -1.855713E+05  4.894706E+01 -7.350072E+03  1.305628E+04 -6.282762E+03 -9.265374E+03
       419   6 -1.861267E+05  1.229713E+02 -4.670647E+03  1.854681E+04 -2.599655E+03 -7.731292E+03
       419   7 -3.870954E+05 -5.156244E+04 -5.678886E+04  1.947774E+04 -8.973104E+03 -1.046521E+04
       419   8 -3.586334E+05 -4.207189E+04 -4.483804E+04  1.327726E+04 -4.969673E+03 -9.265667E+03
       419   9 -3.313409E+05 -3.522488E+04 -3.615287E+04  1.805778E+04 -9.663264E+02 -7.731452E+03
       419  10  1.487301E+04  4.633469E+04  3.064205E+04  1.761506E+04  1.085415E-10  2.515911E-11
       419  11 -1.248113E+04  4.216770E+04  3.013586E+04  1.283519E+04  4.173677E-10 -1.368314E-10
       419  12 -4.089273E+04  3.546936E+04  2.681019E+04  1.903593E+04  5.628824E-11  7.404349E-11
       419  13 -1.861302E+05 -2.612609E+03 -1.307237E+04  1.854651E+04  3.277925E-10 -3.030027E-10
       419  14 -1.855713E+05  4.884428E+01 -7.350307E+03  1.305624E+04 -4.375710E-11 -1.822671E-10
       419  15 -1.861267E+05  1.229053E+02 -4.670772E+03  1.854679E+04  3.054318E-10  1.393577E-10
       419  16 -3.870955E+05 -5.156258E+04 -5.678922E+04  1.947766E+04 -7.136006E-11 -2.822754E-10
       419  17 -3.586334E+05 -4.207199E+04 -4.483825E+04  1.327722E+04 -3.471201E-10 -4.635613E-11
       419  18 -3.313409E+05 -3.522494E+04 -3.615299E+04  1.805777E+04  2.447116E-10  1.705180E-10
       419  19  1.487317E+04  4.633484E+04  3.064248E+04  1.761515E+04  1.095947E+04  1.046443E+04
       419  20 -1.248104E+04  4.216781E+04  3.013613E+04  1.283525E+04  7.596213E+03  9.265081E+03
       419  21 -4.089269E+04  3.546943E+04  2.681034E+04  1.903596E+04  4.233360E+03  7.731134E+03
       419  22 -1.861301E+05 -2.612465E+03 -1.307198E+04  1.854660E+04  9.966130E+03  1.046483E+04
       419  23 -1.855713E+05  4.894706E+01 -7.350072E+03  1.305628E+04  6.282762E+03  9.265374E+03
       419  24 -1.861267E+05  1.229713E+02 -4.670647E+03  1.854681E+04  2.599655E+03  7.731292E+03
       419  25 -3.870954E+05 -5.156244E+04 -5.678886E+04  1.947774E+04  8.973104E+03  1.046521E+04
       419  26 -3.586334E+05 -4.207189E+04 -4.483804E+04  1.327726E+04  4.969673E+03  9.265667E+03
       419  27 -3.313409E+05 -3.522488E+04 -3.615287E+04  1.805778E+04  9.663264E+02  7.731452E+03
       420   1 -6.289708E+04  2.984929E+04  2.262508E+04  1.850647E+04 -3.388916E+03 -6.752778E+03
       420   2 -9.062189E+04  2.318239E+04  1.736117E+04  1.315295E+04 -1.778337E+03 -5.146785E+03
       420   3 -1.187255E+05  1.582341E+04  1.087629E+04  1.880751E+04 -1.680402E+02 -3.550307E+03
       420   4 -1.859619E+05 -7.694153E+01 -3.924848E+03  1.855282E+04 -1.842478E+03 -6.752865E+03
       420   5 -1.857719E+05  3.464551E+01 -3.213255E+03  1.304873E+04 -2.413327E+02 -5.146791E+03
       420   6 -1.859603E+05 -5.443595E+02 -3.716321E+03  1.855283E+04  1.359601E+03 -3.550230E+03
       420   7 -3.090124E+05 -3.000417E+04 -3.047566E+04  1.859917E+04 -2.963428E+02 -6.752952E+03
       420   8 -2.809133E+05 -2.311370E+04 -2.378821E+04  1.294453E+04  1.295439E+03 -5.146797E+03
       420   9 -2.531908E+05 -1.691243E+04 -1.830919E+04  1.829818E+04  2.887080E+03 -3.550155E+03
       420  10 -6.289711E+04  2.984923E+04  2.262498E+04  1.850645E+04  1.690038E-10  7.208543E-11
       420  11 -9.062190E+04  2.318236E+04  1.736111E+04  1.315295E+04  4.003042E-10 -1.377472E-10
       420  12 -1.187255E+05  1.582339E+04  1.087627E+04  1.880751E+04 -3.270602E-10  2.982520E-11
       420  13 -1.859619E+05 -7.699141E+01 -3.924940E+03  1.855281E+04 -8.031663E-11  3.687428E-11
       420  14 -1.857719E+05  3.461705E+01 -3.213305E+03  1.304873E+04  2.681965E-10 -9.446047E-11
       420  15 -1.859603E+05 -5.443736E+02 -3.716348E+03  1.855283E+04 -1.210014E-10 -1.821582E-10
       420  16 -3.090124E+05 -3.000422E+04 -3.047575E+04  1.859916E+04  2.667419E-11  6.365923E-11
       420  17 -2.809134E+05 -2.311373E+04 -2.378826E+04  1.294454E+04  1.476035E-10 -5.795322E-11
       420  18 -2.531908E+05 -1.691244E+04 -1.830923E+04  1.829819E+04  3.401243E-10 -1.326762E-10
       420  19 -6.289708E+04  2.984929E+04  2.262508E+04  1.850647E+04  3.388916E+03  6.752778E+03
       420  20 -9.062189E+04  2.318239E+04  1.736117E+04  1.315295E+04  1.778337E+03  5.146785E+03
       420  21 -1.187255E+05  1.582341E+04  1.087629E+04  1.880751E+04  1.680402E+02  3.550307E+03
       420  22 -1.859619E+05 -7.694153E+01 -3.924848E+03  1.855282E+04  1.842478E+03  6.752865E+03
       420  23 -1.857719E+05  3.464551E+01 -3.213255E+03  1.304873E+04  2.413327E+02  5.146791E+03
       420  24 -1.859603E+05 -5.443595E+02 -3.716321E+03  1.855283E+04 -1.359601E+03  3.550230E+03
       420  25 -3.090124E+05 -3.000417E+04 -3.047566E+04  1.859917E+04  2.963428E+02  6.752952E+03
       420  26 -2.809133E+05 -2.311370E+04 -2.378821E+04  1.294453E+04 -1.295439E+03  5.146797E+03
       420  27 -2.531908E+05 -1.691243E+04 -1.830919E+04  1.829818E+04 -2.887080E+03  3.550155E+03
       421   1 -1.414941E+05  1.145517E+04  5.480702E+03  1.704022E+04  3.169405E+02 -2.554136E+03
       421   2 -1.678959E+05  4.010597E+03 -2.693238E+03  1.498846E+04  4.174555E+03 -1.079875E+03
       421   3 -1.973612E+05 -1.367316E+04 -1.593946E+04  2.392748E+04  8.032054E+03 -1.617555E+02
       421   4 -1.865357E+05  5.122718E+02 -4.185370E+03  1.854881E+04  1.998535E+03 -2.554016E+03
       421   5 -1.850506E+05 -1.442546E+02 -6.307659E+03  1.305375E+04  5.322223E+03 -1.079798E+03
       421   6 -1.865364E+05 -1.094723E+04 -1.313123E+04  1.854960E+04  8.645952E+03 -1.617696E+02
       421   7 -2.315753E+05 -1.043075E+04 -1.385155E+04  2.005730E+04  3.680009E+03 -2.553888E+03
       421   8 -2.022049E+05 -4.299111E+03 -9.922089E+03  1.111909E+04  6.469859E+03 -1.079729E+03
       421   9 -1.757114E+05 -8.221208E+03 -1.032298E+04  1.317162E+04  9.259862E+03 -1.617943E+02
       421  10 -1.414941E+05  1.145516E+04  5.480690E+03  1.704022E+04  1.283088E-10  3.120284E-11
       421  11 -1.678960E+05  4.010591E+03 -2.693273E+03  1.498846E+04  3.490206E-11 -5.104567E-11
       421  12 -1.973613E+05 -1.367318E+04 -1.593958E+04  2.392748E+04  1.759496E-10 -1.239129E-10
       421  13 -1.865357E+05  5.122637E+02 -4.185389E+03  1.854882E+04  1.346113E-10 -4.001092E-12
       421  14 -1.850506E+05 -1.442635E+02 -6.307714E+03  1.305375E+04 -3.312359E-10 -5.341951E-11
       421  15 -1.865365E+05 -1.094725E+04 -1.313137E+04  1.854960E+04  8.127963E-11  1.181702E-10
       421  16 -2.315753E+05 -1.043076E+04 -1.385159E+04  2.005731E+04 -2.117777E-10 -7.514167E-11
       421  17 -2.022050E+05 -4.299123E+03 -9.922170E+03  1.111910E+04 -1.430506E-10 -5.455584E-11
       421  18 -1.757115E+05 -8.221231E+03 -1.032314E+04  1.317162E+04  1.809390E-10  1.860347E-11
       421  19 -1.414941E+05  1.145517E+04  5.480702E+03  1.704022E+04 -3.169405E+02  2.554136E+03
       421  20 -1.678959E+05  4.010597E+03 -2.693238E+03  1.498846E+04 -4.174555E+03  1.079875E+03
       421  21 -1.973612E+05 -1.367316E+04 -1.593946E+04  2.392748E+04 -8.032054E+03  1.617555E+02
       421  22 -1.865357E+05  5.122718E+02 -4.185370E+03  1.854881E+04 -1.998535E+03  2.554016E+03
       421  23 -1.850506E+05 -1.442546E+02 -6.307659E+03  1.305375E+04 -5.322223E+03  1.079798E+03
       421  24 -1.865364E+05 -1.094723E+04 -1.313123E+04  1.854960E+04 -8.645952E+03  1.617696E+02
       421  25 -2.315753E+05 -1.043075E+04 -1.385155E+04  2.005730E+04 -3.680009E+03  2.553888E+03
       421  26 -2.022049E+05 -4.299111E+03 -9.922089E+03  1.111909E+04 -6.469859E+03  1.079729E+03
       421  27 -1.757114E+05 -8.221208E+03 -1.032298E+04  1.317162E+04 -9.259862E+03  1.617943E+02
       422   1 -3.066434E+05 -1.081491E+06 -2.938544E+05  2.114134E+05 -1.537068E+04 -2.227775E+04
       422   2 -2.446238E+05 -7.421408E+05 -2.083720E+05  1.540978E+05 -4.385730E+04  5.934528E+03
       422   3 -1.627191E+05 -4.013117E+05 -1.362920E+05  2.290804E+05 -3.477093E+04  3.413513E+04
       422   4  2.792488E+04  2.636620E+05  3.301318E+04  2.258226E+05 -1.532945E+04  2.310459E+04
       422   5  5.105391E+02  2.599568E+05  1.481698E+04  1.596963E+05 -4.384153E+04  1.528801E+04
       422   6 -7.724149E+02  2.638671E+05  8.251606E+03  2.258506E+05 -3.480861E+04  7.443968E+03
       422   7  3.623619E+05  1.610473E+06  3.597578E+05  2.402626E+05 -1.528617E+04  6.858505E+04
       422   8  2.455769E+05  1.262992E+06  2.379435E+05  1.653035E+05 -4.382561E+04  2.465642E+04
       422   9  1.611454E+05  9.294625E+05  1.527715E+05  2.226171E+05 -3.484598E+04 -1.927543E+04
       422  10 -3.066438E+05 -1.081492E+06 -2.938558E+05  2.114131E+05 -1.047929E-10 -9.031325E-10
       422  11 -2.446258E+05 -7.421413E+05 -2.083757E+05  1.540980E+05 -6.827256E-11 -1.648601E-10
       422  12 -1.627207E+05 -4.013133E+05 -1.362965E+05  2.290814E+05 -1.325508E-10  4.961031E-10
       422  13  2.792448E+04  2.636613E+05  3.301173E+04  2.258229E+05 -5.789618E-10 -3.149890E-11
       422  14  5.084120E+02  2.599561E+05  1.481293E+04  1.596968E+05  8.569116E-10 -8.572508E-10
       422  15 -7.737312E+02  2.638667E+05  8.249225E+03  2.258508E+05  2.027227E-10  2.012815E-09
       422  16  3.623604E+05  1.610468E+06  3.597485E+05  2.402634E+05 -2.472291E-10  9.864463E-11
       422  17  2.455747E+05  1.262990E+06  2.379388E+05  1.653044E+05 -7.671308E-10 -9.495260E-10
       422  18  1.611440E+05  9.294618E+05  1.527685E+05  2.226166E+05  5.584771E-10  3.166912E-10
       422  19 -3.066434E+05 -1.081491E+06 -2.938544E+05  2.114134E+05  1.537068E+04  2.227775E+04
       422  20 -2.446238E+05 -7.421408E+05 -2.083720E+05  1.540978E+05  4.385730E+04 -5.934528E+03
       422  21 -1.627191E+05 -4.013117E+05 -1.362920E+05  2.290804E+05  3.477093E+04 -3.413513E+04
       422  22  2.792488E+04  2.636620E+05  3.301318E+04  2.258226E+05  1.532945E+04 -2.310459E+04
       422  23  5.105391E+02  2.599568E+05  1.481698E+04  1.596963E+05  4.384153E+04 -1.528801E+04
       422  24 -7.724149E+02  2.638671E+05  8.251606E+03  2.258506E+05  3.480861E+04 -7.443968E+03
       422  25  3.623619E+05  1.610473E+06  3.597578E+05  2.402626E+05  1.528617E+04 -6.858505E+04
       422  26  2.455769E+05  1.262992E+06  2.379435E+05  1.653035E+05  4.382561E+04 -2.465642E+04
       422  27  1.611454E+05  9.294625E+05  1.527715E+05  2.226171E+05  3.484598E+04  1.927543E+04
       423   1 -9.406659E+04 -1.322677E+05 -7.985097E+04  2.253926E+05 -2.011315E+04  2.276423E+04
       423   2 -1.288882E+04  2.074443E+05 -9.557482E+03  1.590707E+05 -2.891895E+03  2.171281E+04
       423   3  6.941280E+04  5.472856E+05  6.159393E+04  2.265801E+05  1.445689E+04  2.065947E+04
       423   4  2.039911E+03  2.622468E+05  6.177901E+03  2.261869E+05 -2.013863E+04  6.293186E+03
       423   5  4.394505E+02  2.622320E+05  2.306548E+03  1.592734E+05 -2.917905E+03  5.113922E+03
       423   6 -8.748800E+00  2.622584E+05 -6.160949E+02  2.261901E+05  1.442996E+04  3.933294E+03
       423   7  9.813621E+04  6.569076E+05  9.219843E+04  2.269816E+05 -2.016414E+04 -1.018820E+04
       423   8  1.376767E+04  3.170232E+05  1.417143E+04  1.594760E+05 -2.943925E+03 -1.148641E+04
       423   9 -6.943555E+04 -2.269206E+04 -6.282997E+04  2.258002E+05  1.440303E+04 -1.278531E+04
       423  10 -9.406717E+04 -1.322683E+05 -7.985271E+04  2.253929E+05  2.738991E-10 -2.268392E-09
       423  11 -1.288895E+04  2.074438E+05 -9.558383E+03  1.590708E+05 -1.061319E-09 -1.052180E-09
       423  12  6.941246E+04  5.472851E+05  6.159274E+04  2.265799E+05  7.537091E-10  8.518002E-10
       423  13  2.039464E+03  2.622466E+05  6.177065E+03  2.261870E+05  2.664752E-10  2.706597E-11
       423  14  4.394343E+02  2.622320E+05  2.306483E+03  1.592734E+05 -1.579092E-09 -1.517386E-09
       423  15 -8.976542E+00  2.622584E+05 -6.165152E+02  2.261901E+05 -9.496770E-10  2.133134E-09
       423  16  9.813575E+04  6.569074E+05  9.219747E+04  2.269815E+05  3.179743E-10  2.539319E-10
       423  17  1.376762E+04  3.170231E+05  1.417117E+04  1.594760E+05  2.522772E-10 -3.660386E-10
       423  18 -6.943582E+04 -2.269229E+04 -6.283067E+04  2.258004E+05  5.408791E-10 -1.323421E-10
       423  19 -9.406659E+04 -1.322677E+05 -7.985097E+04  2.253926E+05  2.011315E+04 -2.276423E+04
       423  20 -1.288882E+04  2.074443E+05 -9.557482E+03  1.590707E+05  2.891895E+03 -2.171281E+04
       423  21  6.941280E+04  5.472856E+05  6.159393E+04  2.265801E+05 -1.445689E+04 -2.065947E+04
       423  22  2.039911E+03  2.622468E+05  6.177901E+03  2.261869E+05  2.013863E+04 -6.293186E+03
       423  23  4.394505E+02  2.622320E+05  2.306548E+03  1.592734E+05  2.917905E+03 -5.113922E+03
       423  24 -8.748800E+00  2.622584E+05 -6.160949E+02  2.261901E+05 -1.442996E+04 -3.933294E+03
       423  25  9.813621E+04  6.569076E+05  9.219843E+04  2.269816E+05  2.016414E+04  1.018820E+04
       423  26  1.376767E+04  3.170232E+05  1.417143E+04  1.594760E+05  2.943925E+03  1.148641E+04
       423  27 -6.943555E+04 -2.269206E+04 -6.282997E+04  2.258002E+05 -1.440303E+04  1.278531E+04
       424   1  1.364127E+05  8.174219E+05  1.189474E+05  2.280527E+05  2.892943E+04  3.020015E+04
       424   2  2.183609E+05  1.156317E+06  1.937181E+05  1.585794E+05  3.870692E+04 -3.871525E+02
       424   3  2.965612E+05  1.498324E+06  2.874148E+05  2.214997E+05  1.375010E+04 -3.096129E+04
       424   4  1.143141E+03  2.615807E+05 -1.876896E+03  2.258700E+05  2.889045E+04  4.061021E+03
       424   5  3.122873E+01  2.628824E+05 -5.262097E+03  1.596727E+05  3.871981E+04  6.864143E+03
       424   6 -1.061637E+04  2.614027E+05 -1.288377E+04  2.258824E+05  1.379210E+04  9.696712E+03
       424   7 -1.341465E+05 -2.939697E+05 -1.227171E+05  2.236891E+05  2.885163E+04 -2.205503E+04
       424   8 -2.183525E+05 -6.298085E+05 -2.042920E+05  1.607641E+05  3.873273E+04  1.410513E+04
       424   9 -3.179053E+05 -9.741209E+05 -3.132866E+05  2.302558E+05  1.383474E+04  5.027407E+04
       424  10  1.364115E+05  8.174207E+05  1.189441E+05  2.280520E+05  1.436855E-10 -2.105990E-09
       424  11  2.183593E+05  1.156316E+06  1.937153E+05  1.585794E+05 -9.443995E-10 -1.303984E-09
       424  12  2.965608E+05  1.498323E+06  2.874126E+05  2.215000E+05 -2.702420E-10  2.635223E-10
       424  13  1.142240E+03  2.615804E+05 -1.878495E+03  2.258699E+05  1.051142E-09  4.723396E-11
       424  14  2.960608E+01  2.628820E+05 -5.265003E+03  1.596725E+05 -1.205459E-09 -1.095740E-09
       424  15 -1.061660E+04  2.614026E+05 -1.288430E+04  2.258823E+05 -1.282138E-10  1.114966E-09
       424  16 -1.341475E+05 -2.939704E+05 -1.227196E+05  2.236896E+05 -1.992727E-10  1.453383E-10
       424  17 -2.183541E+05 -6.298091E+05 -2.042952E+05  1.607637E+05 -9.166354E-10  3.262219E-10
       424  18 -3.179062E+05 -9.741237E+05 -3.132917E+05  2.302553E+05 -3.092150E-11  1.495925E-10
       424  19  1.364127E+05  8.174219E+05  1.189474E+05  2.280527E+05 -2.892943E+04 -3.020015E+04
       424  20  2.183609E+05  1.156317E+06  1.937181E+05  1.585794E+05 -3.870692E+04  3.871525E+02
       424  21  2.965612E+05  1.498324E+06  2.874148E+05  2.214997E+05 -1.375010E+04  3.096129E+04
       424  22  1.143141E+03  2.615807E+05 -1.876896E+03  2.258700E+05 -2.889045E+04 -4.061021E+03
       424  23  3.122873E+01  2.628824E+05 -5.262097E+03  1.596727E+05 -3.871981E+04 -6.864143E+03
       424  24 -1.061637E+04  2.614027E+05 -1.288377E+04  2.258824E+05 -1.379210E+04 -9.696712E+03
       424  25 -1.341465E+05 -2.939697E+05 -1.227171E+05  2.236891E+05 -2.885163E+04  2.205503E+04
       424  26 -2.183525E+05 -6.298085E+05 -2.042920E+05  1.607641E+05 -3.873273E+04 -1.410513E+04
       424  27 -3.179053E+05 -9.741209E+05 -3.132866E+05  2.302558E+05 -1.383474E+04 -5.027407E+04
       425   1  2.494737E+05  1.948655E+05  6.369529E+04  1.598574E+05  1.904814E+04  1.145497E+04
       425   2  2.385810E+05  1.656819E+05  4.496845E+04  1.602789E+05  1.403317E+04  1.586206E+03
       425   3  2.329387E+05  1.555046E+05  3.729764E+04  1.562114E+05  6.354185E+03 -4.727081E+03
       425   4  1.348712E+05  9.806615E+04  2.278096E+04  9.613652E+04  1.358131E+04  7.357341E+03
       425   5  1.290332E+05  8.255419E+04  1.073208E+04  1.031634E+05  1.198200E+04  4.855685E+01
       425   6  1.277064E+05  8.530947E+04  6.777605E+03  1.057008E+05  7.718193E+03 -3.704765E+03
       425   7  2.028372E+04  1.278693E+03 -1.813476E+04  3.243058E+04  8.115907E+03  3.261035E+03
       425   8  1.949895E+04 -5.652010E+02 -2.350553E+04  4.606006E+04  9.931332E+03 -1.488683E+03
       425   9  2.248627E+04  1.511965E+04 -2.374358E+04  5.519959E+04  9.081885E+03 -2.682666E+03
       425  10  2.494733E+05  1.948652E+05  6.369436E+04  1.598572E+05 -3.811313E-11 -1.954177E-10
       425  11  2.385808E+05  1.656819E+05  4.496808E+04  1.602788E+05  7.872331E-12  2.246595E-10
       425  12  2.329387E+05  1.555046E+05  3.729752E+04  1.562114E+05 -9.024750E-11  1.623206E-10
       425  13  1.348710E+05  9.806605E+04  2.278051E+04  9.613644E+04  1.182976E-10 -3.112222E-10
       425  14  1.290330E+05  8.255415E+04  1.073181E+04  1.031634E+05 -1.995483E-10  9.539795E-10
       425  15  1.277064E+05  8.530944E+04  6.777468E+03  1.057008E+05 -1.489042E-11  4.139705E-10
       425  16  2.028365E+04  1.278663E+03 -1.813490E+04  3.243056E+04  3.032109E-10 -8.932535E-11
       425  17  1.949884E+04 -5.652298E+02 -2.350572E+04  4.606008E+04  1.444927E-10 -2.812972E-10
       425  18  2.248618E+04  1.511962E+04 -2.374375E+04  5.519961E+04  3.986446E-10 -1.428124E-10
       425  19  2.494737E+05  1.948655E+05  6.369529E+04  1.598574E+05 -1.904814E+04 -1.145497E+04
       425  20  2.385810E+05  1.656819E+05  4.496845E+04  1.602789E+05 -1.403317E+04 -1.586206E+03
       425  21  2.329387E+05  1.555046E+05  3.729764E+04  1.562114E+05 -6.354185E+03  4.727081E+03
       425  22  1.348712E+05  9.806615E+04  2.278096E+04  9.613652E+04 -1.358131E+04 -7.357341E+03
       425  23  1.290332E+05  8.255419E+04  1.073208E+04  1.031634E+05 -1.198200E+04 -4.855685E+01
       425  24  1.277064E+05  8.530947E+04  6.777605E+03  1.057008E+05 -7.718193E+03  3.704765E+03
       425  25  2.028372E+04  1.278693E+03 -1.813476E+04  3.243058E+04 -8.115907E+03 -3.261035E+03
       425  26  1.949895E+04 -5.652010E+02 -2.350553E+04  4.606006E+04 -9.931332E+03  1.488683E+03
       425  27  2.248627E+04  1.511965E+04 -2.374358E+04  5.519959E+04 -9.081885E+03  2.682666E+03
       426   1  2.218072E+05  1.534777E+05  3.400267E+04  1.515812E+05  6.060680E+03 -3.909035E+03
       426   2  2.138963E+05  1.426131E+05  2.942378E+04  1.460075E+05  3.828242E+03 -4.880229E+03
       426   3  2.014131E+05  1.379134E+05  2.664346E+04  1.417647E+05  1.475299E+03 -5.690802E+03
       426   4  1.276783E+05  8.616822E+04  5.781156E+03  1.043296E+05  6.415121E+03 -3.643462E+03
       426   5  1.297963E+05  8.277364E+04  4.363745E+03  1.039109E+05  4.337264E+03 -4.498721E+03
       426   6  1.273088E+05  8.551036E+04  4.611034E+03  1.048231E+05  2.138870E+03 -5.193365E+03
       426   7  3.355817E+04  1.886306E+04 -2.244169E+04  5.708569E+04  6.769493E+03 -3.377942E+03
       426   8  4.570404E+04  2.293811E+04 -2.069708E+04  6.182087E+04  4.846192E+03 -4.117283E+03
       426   9  5.321115E+04  3.311088E+04 -1.742175E+04  6.788687E+04  2.802327E+03 -4.696014E+03
       426  10  2.218071E+05  1.534777E+05  3.400257E+04  1.515812E+05  2.405140E-10  3.203562E-10
       426  11  2.138962E+05  1.426131E+05  2.942371E+04  1.460075E+05  3.586576E-10  1.321466E-10
       426  12  2.014131E+05  1.379134E+05  2.664339E+04  1.417647E+05 -2.110347E-10 -1.815155E-10
       426  13  1.276783E+05  8.616820E+04  5.781054E+03  1.043296E+05  5.542842E-11 -4.052421E-11
       426  14  1.297963E+05  8.277361E+04  4.363672E+03  1.039110E+05 -1.436514E-10 -4.468495E-10
       426  15  1.273088E+05  8.551033E+04  4.610975E+03  1.048231E+05  4.346671E-10  6.290152E-11
       426  16  3.355811E+04  1.886304E+04 -2.244179E+04  5.708570E+04  5.354732E-11 -2.467469E-10
       426  17  4.570401E+04  2.293809E+04 -2.069716E+04  6.182088E+04  4.335829E-10 -2.114684E-10
       426  18  5.321114E+04  3.311085E+04 -1.742180E+04  6.788688E+04  2.415654E-10 -9.476254E-12
       426  19  2.218072E+05  1.534777E+05  3.400267E+04  1.515812E+05 -6.060680E+03  3.909035E+03
       426  20  2.138963E+05  1.426131E+05  2.942378E+04  1.460075E+05 -3.828242E+03  4.880229E+03
       426  21  2.014131E+05  1.379134E+05  2.664346E+04  1.417647E+05 -1.475299E+03  5.690802E+03
       426  22  1.276783E+05  8.616822E+04  5.781156E+03  1.043296E+05 -6.415121E+03  3.643462E+03
       426  23  1.297963E+05  8.277364E+04  4.363745E+03  1.039109E+05 -4.337264E+03  4.498721E+03
       426  24  1.273088E+05  8.551036E+04  4.611034E+03  1.048231E+05 -2.138870E+03  5.193365E+03
       426  25  3.355817E+04  1.886306E+04 -2.244169E+04  5.708569E+04 -6.769493E+03  3.377942E+03
       426  26  4.570404E+04  2.293811E+04 -2.069708E+04  6.182087E+04 -4.846192E+03  4.117283E+03
       426  27  5.321115E+04  3.311088E+04 -1.742175E+04  6.788687E+04 -2.802327E+03  4.696014E+03
       427   1  1.930782E+05  1.324651E+05  2.481025E+04  1.377899E+05  5.173045E+02 -5.792579E+03
       427   2  1.852768E+05  1.224275E+05  2.436711E+04  1.318132E+05 -3.068621E+03 -7.472256E+03
       427   3  1.728289E+05  1.183419E+05  2.660731E+04  1.273983E+05 -6.658978E+03 -9.146099E+03
       427   4  1.273464E+05  8.555336E+04  5.253835E+03  1.048127E+05  1.134951E+03 -5.329542E+03
       427   5  1.297510E+05  8.272117E+04  7.807532E+03  1.039246E+05 -2.445017E+03 -7.004708E+03
       427   6  1.275076E+05  8.583977E+04  1.303958E+04  1.045982E+05 -6.029501E+03 -8.674099E+03
       427   7  6.161926E+04  3.864407E+04 -1.430307E+04  7.183950E+04  1.752510E+03 -4.866572E+03
       427   8  7.422816E+04  4.301635E+04 -8.752490E+03  7.603863E+04 -1.821485E+03 -6.537215E+03
       427   9  8.218798E+04  5.333848E+04 -5.285432E+02  8.179979E+04 -5.400081E+03 -8.202142E+03
       427  10  1.930782E+05  1.324651E+05  2.481019E+04  1.377899E+05  3.084459E-10  3.935612E-11
       427  11  1.852768E+05  1.224275E+05  2.436698E+04  1.318132E+05  6.118422E-10 -1.275513E-10
       427  12  1.728289E+05  1.183418E+05  2.660706E+04  1.273983E+05 -6.151610E-11 -1.086275E-10
       427  13  1.273464E+05  8.555333E+04  5.253779E+03  1.048127E+05 -4.935412E-11 -1.026103E-10
       427  14  1.297509E+05  8.272111E+04  7.807429E+03  1.039246E+05  3.550320E-10 -1.177803E-10
       427  15  1.275075E+05  8.583968E+04  1.303937E+04  1.045982E+05 -8.472027E-11 -9.689444E-11
       427  16  6.161925E+04  3.864405E+04 -1.430312E+04  7.183950E+04 -4.789575E-10 -7.093198E-11
       427  17  7.422814E+04  4.301630E+04 -8.752577E+03  7.603862E+04 -4.536593E-10  7.153764E-11
       427  18  8.218793E+04  5.333840E+04 -5.287244E+02  8.179975E+04  3.221190E-10 -4.695169E-12
       427  19  1.930782E+05  1.324651E+05  2.481025E+04  1.377899E+05 -5.173045E+02  5.792579E+03
       427  20  1.852768E+05  1.224275E+05  2.436711E+04  1.318132E+05  3.068621E+03  7.472256E+03
       427  21  1.728289E+05  1.183419E+05  2.660731E+04  1.273983E+05  6.658978E+03  9.146099E+03
       427  22  1.273464E+05  8.555336E+04  5.253835E+03  1.048127E+05 -1.134951E+03  5.329542E+03
       427  23  1.297510E+05  8.272117E+04  7.807532E+03  1.039246E+05  2.445017E+03  7.004708E+03
       427  24  1.275076E+05  8.583977E+04  1.303958E+04  1.045982E+05  6.029501E+03  8.674099E+03
       427  25  6.161926E+04  3.864407E+04 -1.430307E+04  7.183950E+04 -1.752510E+03  4.866572E+03
       427  26  7.422816E+04  4.301635E+04 -8.752490E+03  7.603863E+04  1.821485E+03  6.537215E+03
       427  27  8.218798E+04  5.333848E+04 -5.285432E+02  8.179979E+04  5.400081E+03  8.202142E+03
       428   1  1.631526E+05  1.139958E+05  2.793559E+04  1.247935E+05 -9.057954E+03 -1.034639E+04
       428   2  1.570875E+05  1.008178E+05  3.701781E+04  1.168505E+05 -2.112540E+04 -1.838216E+04
       428   3  1.524000E+05  1.012893E+05  5.815140E+04  1.075731E+05 -3.317787E+04 -2.643748E+04
       428   4  1.276806E+05  8.547631E+04  1.684613E+04  1.055107E+05 -8.425182E+03 -9.871844E+03
       428   5  1.290271E+05  8.227293E+04  2.891821E+04  1.034604E+05 -2.051102E+04 -1.792150E+04
       428   6  1.317550E+05  9.272287E+04  5.305782E+04  1.000754E+05 -3.258212E+04 -2.599103E+04
       428   7  9.221032E+04  5.695808E+04  5.756658E+03  8.622934E+04 -7.792465E+03 -9.397351E+03
       428   8  1.009677E+05  6.372852E+04  2.081857E+04  9.007104E+04 -1.989669E+04 -1.746087E+04
       428   9  1.111104E+05  8.415649E+04  4.796422E+04  9.257793E+04 -3.198639E+04 -2.554460E+04
       428  10  1.631525E+05  1.139957E+05  2.793523E+04  1.247934E+05 -2.403940E-10 -6.948259E-11
       428  11  1.570870E+05  1.008173E+05  3.701634E+04  1.168502E+05  1.524850E-10 -2.102853E-11
       428  12  1.523986E+05  1.012883E+05  5.814802E+04  1.075724E+05  2.888020E-10 -3.574035E-11
       428  13  1.276805E+05  8.547618E+04  1.684582E+04  1.055106E+05  1.914602E-10  3.039004E-11
       428  14  1.290266E+05  8.227247E+04  2.891681E+04  1.034601E+05 -9.450646E-11 -7.679888E-11
       428  15  1.317536E+05  9.272186E+04  5.305456E+04  1.000747E+05  2.775885E-10 -7.430633E-11
       428  16  9.221023E+04  5.695797E+04  5.756378E+03  8.622929E+04  9.535103E-11  5.039550E-11
       428  17  1.009672E+05  6.372809E+04  2.081725E+04  9.007077E+04 -1.869594E-10  2.451654E-11
       428  18  1.111092E+05  8.415552E+04  4.796107E+04  9.257727E+04  1.129928E-10 -1.064162E-10
       428  19  1.631526E+05  1.139958E+05  2.793559E+04  1.247935E+05  9.057954E+03  1.034639E+04
       428  20  1.570875E+05  1.008178E+05  3.701781E+04  1.168505E+05  2.112540E+04  1.838216E+04
       428  21  1.524000E+05  1.012893E+05  5.815140E+04  1.075731E+05  3.317787E+04  2.643748E+04
       428  22  1.276806E+05  8.547631E+04  1.684613E+04  1.055107E+05  8.425182E+03  9.871844E+03
       428  23  1.290271E+05  8.227293E+04  2.891821E+04  1.034604E+05  2.051102E+04  1.792150E+04
       428  24  1.317550E+05  9.272287E+04  5.305782E+04  1.000754E+05  3.258212E+04  2.599103E+04
       428  25  9.221032E+04  5.695808E+04  5.756658E+03  8.622934E+04  7.792465E+03  9.397351E+03
       428  26  1.009677E+05  6.372852E+04  2.081857E+04  9.007104E+04  1.989669E+04  1.746087E+04
       428  27  1.111104E+05  8.415649E+04  4.796422E+04  9.257793E+04  3.198639E+04  2.554460E+04
       429   1  1.124036E+05  1.185620E+05  6.956078E+04  1.282060E+05 -4.114057E+04 -3.176424E+04
       429   2  1.548619E+05  4.316345E+04  1.142469E+05  8.423341E+04 -8.962831E+04 -6.728451E+04
       429   3  2.980107E+05  1.175839E+05  2.466015E+05 -2.433287E+04 -1.377998E+05 -1.032239E+05
       429   4  1.317939E+05  8.379261E+04  6.692232E+04  1.154233E+05 -4.042490E+04 -3.122445E+04
       429   5  1.209091E+05  7.908451E+04  1.146783E+05  9.503770E+04 -8.932069E+04 -6.706206E+04
       429   6  2.107884E+05  2.242732E+05  2.504583E+05  1.006200E+04 -1.378933E+05 -1.033297E+05
       429   7  1.511862E+05  4.902635E+04  6.428430E+04  1.026400E+05 -3.970918E+04 -3.068473E+04
       429   8  8.695978E+04  1.150100E+05  1.151103E+05  1.058410E+05 -8.901309E+04 -6.683957E+04
       429   9  1.235927E+05  3.309983E+05  2.543206E+05  4.444950E+04 -1.379869E+05 -1.034355E+05
       429  10  1.124016E+05  1.185604E+05  6.955570E+04  1.282049E+05 -4.752907E-10 -2.388108E-10
       429  11  1.548521E+05  4.315643E+04  1.142233E+05  8.422856E+04 -1.477562E-10  3.889419E-10
       429  12  2.979875E+05  1.175674E+05  2.465459E+05 -2.434432E+04  3.669444E-10  4.154013E-10
       429  13  1.317919E+05  8.379112E+04  6.691742E+04  1.154222E+05 -1.277936E-11  1.142930E-10
       429  14  1.208993E+05  7.907754E+04  1.146548E+05  9.503287E+04  3.522416E-11  2.263538E-10
       429  15  2.107651E+05  2.242566E+05  2.504025E+05  1.005053E+04  1.703614E-10  1.481150E-10
       429  16  1.511842E+05  4.902492E+04  6.427957E+04  1.026390E+05  3.823868E-10  4.085205E-10
       429  17  8.695007E+04  1.150031E+05  1.150871E+05  1.058362E+05 -2.135490E-10  3.764560E-10
       429  18  1.235694E+05  3.309817E+05  2.542648E+05  4.443801E+04 -5.666717E-10 -1.616543E-10
       429  19  1.124036E+05  1.185620E+05  6.956078E+04  1.282060E+05  4.114057E+04  3.176424E+04
       429  20  1.548619E+05  4.316345E+04  1.142469E+05  8.423341E+04  8.962831E+04  6.728451E+04
       429  21  2.980107E+05  1.175839E+05  2.466015E+05 -2.433287E+04  1.377998E+05  1.032239E+05
       429  22  1.317939E+05  8.379261E+04  6.692232E+04  1.154233E+05  4.042490E+04  3.122445E+04
       429  23  1.209091E+05  7.908451E+04  1.146783E+05  9.503770E+04  8.932069E+04  6.706206E+04
       429  24  2.107884E+05  2.242732E+05  2.504583E+05  1.006200E+04  1.378933E+05  1.033297E+05
       429  25  1.511862E+05  4.902635E+04  6.428430E+04  1.026400E+05  3.970918E+04  3.068473E+04
       429  26  8.695978E+04  1.150100E+05  1.151103E+05  1.058410E+05  8.901309E+04  6.683957E+04
       429  27  1.235927E+05  3.309983E+05  2.543206E+05  4.444950E+04  1.379869E+05  1.034355E+05
       430   1  3.986332E+04  4.579260E+04  4.170117E+04 -6.703908E+03  4.657936E+02 -3.349212E+03
       430   2  4.189780E+04  5.698805E+04  4.468893E+04 -2.517158E+03 -1.557340E+03 -1.102943E+04
       430   3  4.163029E+04  5.785077E+04  4.641514E+04  1.017800E+03 -3.580721E+03 -1.277681E+04
       430   4 -1.939036E+05 -1.223397E+04 -1.465157E+04 -7.173433E+02 -9.752830E+03 -3.350099E+03
       430   5 -1.922572E+05 -1.755515E+02 -6.960872E+03 -3.923505E+02 -6.080941E+03 -1.103044E+04
       430   6 -1.939026E+05  5.591583E+02 -4.487870E+03 -7.192587E+02 -2.409264E+03 -1.277690E+04
       430   7 -4.276203E+05 -7.026433E+04 -7.100780E+04  5.266958E+03 -1.996762E+04 -3.351184E+03
       430   8 -4.263609E+05 -5.734281E+04 -5.861396E+04  1.731644E+03 -1.060286E+04 -1.103147E+04
       430   9 -4.293834E+05 -5.673610E+04 -5.539415E+04 -2.455653E+03 -1.238244E+03 -1.277699E+04
       430  10  3.986332E+04  4.579258E+04  4.170115E+04 -6.703907E+03  2.036876E-09  1.273973E-10
       430  11  4.189777E+04  5.698791E+04  4.468869E+04 -2.517171E+03 -7.345342E-09  1.271812E-10
       430  12  4.163023E+04  5.785059E+04  4.641481E+04  1.017764E+03 -1.412716E-08 -1.383243E-09
       430  13 -1.939037E+05 -1.223400E+04 -1.465177E+04 -7.173696E+02 -4.007752E-10  2.770576E-10
       430  14 -1.922573E+05 -1.756921E+02 -6.961171E+03 -3.924045E+02  4.517797E-10  2.430195E-10
       430  15 -1.939027E+05  5.589815E+02 -4.488188E+03 -7.192835E+02  2.657605E-10 -1.250039E-09
       430  16 -4.276207E+05 -7.026445E+04 -7.100857E+04  5.266904E+03 -2.302000E-09  1.975696E-10
       430  17 -4.263611E+05 -5.734297E+04 -5.861440E+04  1.731550E+03  7.230768E-09 -2.645757E-10
       430  18 -4.293835E+05 -5.673628E+04 -5.539446E+04 -2.455665E+03  1.398509E-08 -1.473274E-09
       430  19  3.986332E+04  4.579260E+04  4.170117E+04 -6.703908E+03 -4.657936E+02  3.349212E+03
       430  20  4.189780E+04  5.698805E+04  4.468893E+04 -2.517158E+03  1.557340E+03  1.102943E+04
       430  21  4.163029E+04  5.785077E+04  4.641514E+04  1.017800E+03  3.580721E+03  1.277681E+04
       430  22 -1.939036E+05 -1.223397E+04 -1.465157E+04 -7.173433E+02  9.752830E+03  3.350099E+03
       430  23 -1.922572E+05 -1.755515E+02 -6.960872E+03 -3.923505E+02  6.080941E+03  1.103044E+04
       430  24 -1.939026E+05  5.591583E+02 -4.487870E+03 -7.192587E+02  2.409264E+03  1.277690E+04
       430  25 -4.276203E+05 -7.026433E+04 -7.100780E+04  5.266958E+03  1.996762E+04  3.351184E+03
       430  26 -4.263609E+05 -5.734281E+04 -5.861396E+04  1.731644E+03  1.060286E+04  1.103147E+04
       430  27 -4.293834E+05 -5.673610E+04 -5.539415E+04 -2.455653E+03  1.238244E+03  1.277699E+04
       431   1  4.285581E+04  5.686617E+04  4.742549E+04 -8.708045E+02 -1.221549E+03 -1.233807E+04
       431   2  4.389138E+04  5.767460E+04  4.815721E+04 -5.099369E+02  6.798628E+01 -1.273203E+04
       431   3  4.460627E+04  5.779984E+04  4.788286E+04 -5.094360E+02  1.357451E+03 -1.284271E+04
       431   4 -1.932531E+05 -6.230552E+02 -3.895102E+03 -6.538502E+02 -1.735643E+03 -1.233855E+04
       431   5 -1.930692E+05  2.168521E+01 -3.129834E+03 -4.737610E+02 -1.746389E+02 -1.273248E+04
       431   6 -1.932532E+05 -6.406952E+01 -3.559429E+03 -6.540443E+02  1.386289E+03 -1.284306E+04
       431   7 -4.293098E+05 -5.811598E+04 -5.521903E+04 -4.369829E+02 -2.249544E+03 -1.233904E+04
       431   8 -4.299771E+05 -5.763494E+04 -5.442020E+04 -4.376035E+02 -4.171726E+02 -1.273292E+04
       431   9 -4.310596E+05 -5.793171E+04 -5.500507E+04 -7.986020E+02  1.415116E+03 -1.284342E+04
       431  10  4.285577E+04  5.686601E+04  4.742521E+04 -8.708167E+02  1.367303E-08 -1.088564E-09
       431  11  4.389133E+04  5.767443E+04  4.815690E+04 -5.099362E+02  6.787623E-09 -7.534878E-10
       431  12  4.460622E+04  5.779966E+04  4.788255E+04 -5.094220E+02 -2.435509E-09  6.436015E-10
       431  13 -1.932532E+05 -6.232195E+02 -3.895394E+03 -6.538674E+02  2.645599E-10 -1.322528E-09
       431  14 -1.930693E+05  2.151113E+01 -3.130139E+03 -4.737628E+02 -1.176522E-10 -2.349079E-10
       431  15 -1.932533E+05 -6.424714E+01 -3.559742E+03 -6.540300E+02 -1.868612E-10  4.418097E-10
       431  16 -4.293099E+05 -5.811614E+04 -5.521933E+04 -4.370052E+02 -1.317493E-08 -1.673399E-09
       431  17 -4.299771E+05 -5.763511E+04 -5.442051E+04 -4.376078E+02 -6.519978E-09 -1.090314E-10
       431  18 -4.310596E+05 -5.793189E+04 -5.500539E+04 -7.985873E+02  2.370518E-09  9.489845E-10
       431  19  4.285581E+04  5.686617E+04  4.742549E+04 -8.708045E+02  1.221549E+03  1.233807E+04
       431  20  4.389138E+04  5.767460E+04  4.815721E+04 -5.099369E+02 -6.798628E+01  1.273203E+04
       431  21  4.460627E+04  5.779984E+04  4.788286E+04 -5.094360E+02 -1.357451E+03  1.284271E+04
       431  22 -1.932531E+05 -6.230552E+02 -3.895102E+03 -6.538502E+02  1.735643E+03  1.233855E+04
       431  23 -1.930692E+05  2.168521E+01 -3.129834E+03 -4.737610E+02  1.746389E+02  1.273248E+04
       431  24 -1.932532E+05 -6.406952E+01 -3.559429E+03 -6.540443E+02 -1.386289E+03  1.284306E+04
       431  25 -4.293098E+05 -5.811598E+04 -5.521903E+04 -4.369829E+02  2.249544E+03  1.233904E+04
       431  26 -4.299771E+05 -5.763494E+04 -5.442020E+04 -4.376035E+02  4.171726E+02  1.273292E+04
       431  27 -4.310596E+05 -5.793171E+04 -5.500507E+04 -7.986020E+02 -1.415116E+03  1.284342E+04
       432   1  4.515068E+04  5.811890E+04  4.745476E+04 -9.716644E+02  2.190421E+03 -1.287195E+04
       432   2  4.641352E+04  5.826608E+04  4.546844E+04 -2.097246E+02  5.081319E+03 -1.285428E+04
       432   3  4.678133E+04  5.626453E+04  4.106725E+04  2.470458E+02  7.972076E+03 -1.254265E+04
       432   4 -1.933813E+05  9.112335E+01 -4.137022E+03 -6.420601E+02  2.064440E+03 -1.287237E+04
       432   5 -1.929095E+05  3.786133E+01 -6.331217E+03 -4.888401E+02  5.236477E+03 -1.285457E+04
       432   6 -1.933819E+05 -2.213456E+03 -1.113618E+04 -6.408078E+02  8.408373E+03 -1.254275E+04
       432   7 -4.318599E+05 -5.794041E+04 -5.573217E+04 -3.125903E+02  1.938507E+03 -1.287280E+04
       432   8 -4.321788E+05 -5.819414E+04 -5.813427E+04 -7.678538E+02  5.391577E+03 -1.285485E+04
       432   9 -4.334911E+05 -6.069526E+04 -6.334306E+04 -1.528322E+03  8.844503E+03 -1.254285E+04
       432  10  4.515063E+04  5.811872E+04  4.745444E+04 -9.716417E+02  8.941341E-10  4.592926E-10
       432  11  4.641345E+04  5.826589E+04  4.546808E+04 -2.096720E+02  1.847884E-10 -4.578637E-10
       432  12  4.678122E+04  5.626434E+04  4.106684E+04  2.471263E+02  3.095704E-10 -9.950440E-10
       432  13 -1.933814E+05  9.094429E+01 -4.137341E+03 -6.420387E+02  1.940690E-12  3.644371E-10
       432  14 -1.929096E+05  3.767654E+01 -6.331579E+03 -4.887859E+02 -8.305219E-10 -4.781792E-10
       432  15 -1.933820E+05 -2.213644E+03 -1.113661E+04 -6.407228E+02 -1.115181E-10 -7.098315E-10
       432  16 -4.318600E+05 -5.794059E+04 -5.573249E+04 -3.125702E+02 -6.986753E-10  5.420772E-10
       432  17 -4.321789E+05 -5.819432E+04 -5.813464E+04 -7.677980E+02 -7.083157E-10  9.673050E-10
       432  18 -4.334912E+05 -6.069545E+04 -6.334350E+04 -1.528232E+03 -8.789245E-10 -1.578339E-10
       432  19  4.515068E+04  5.811890E+04  4.745476E+04 -9.716644E+02 -2.190421E+03  1.287195E+04
       432  20  4.641352E+04  5.826608E+04  4.546844E+04 -2.097246E+02 -5.081319E+03  1.285428E+04
       432  21  4.678133E+04  5.626453E+04  4.106725E+04  2.470458E+02 -7.972076E+03  1.254265E+04
       432  22 -1.933813E+05  9.112335E+01 -4.137022E+03 -6.420601E+02 -2.064440E+03  1.287237E+04
       432  23 -1.929095E+05  3.786133E+01 -6.331217E+03 -4.888401E+02 -5.236477E+03  1.285457E+04
       432  24 -1.933819E+05 -2.213456E+03 -1.113618E+04 -6.408078E+02 -8.408373E+03  1.254275E+04
       432  25 -4.318599E+05 -5.794041E+04 -5.573217E+04 -3.125903E+02 -1.938507E+03  1.287280E+04
       432  26 -4.321788E+05 -5.819414E+04 -5.813427E+04 -7.678538E+02 -5.391577E+03  1.285485E+04
       432  27 -4.334911E+05 -6.069526E+04 -6.334306E+04 -1.528322E+03 -8.844503E+03  1.254285E+04
       433   1  4.519431E+04  6.059325E+04  3.813966E+04 -6.542573E+03  1.169688E+04 -1.305510E+04
       433   2  5.127334E+04  5.829732E+04  2.952940E+04  7.100008E+03  1.829545E+04 -1.133251E+04
       433   3  4.676912E+04  1.702843E+04  6.884050E+03  2.076338E+04  2.488894E+04 -3.434510E+03
       433   4 -1.957528E+05  1.994838E+03 -1.393587E+04 -5.773323E+02  1.037901E+04 -1.305623E+04
       433   5 -1.899468E+05 -6.075973E+02 -2.369147E+04 -5.710389E+02  2.290235E+04 -1.132965E+04
       433   6 -1.957569E+05 -4.322047E+04 -5.160087E+04 -5.436940E+02  3.542041E+04 -3.426858E+03
       433   7 -4.366453E+05 -5.660726E+04 -6.601481E+04  5.385553E+03  9.061640E+03 -1.305740E+04
       433   8 -4.311123E+05 -5.951619E+04 -7.691580E+04 -8.239081E+03  2.750748E+04 -1.132690E+04
       433   9 -4.382280E+05 -1.034719E+05 -1.100893E+05 -2.184242E+04  4.594779E+04 -3.419927E+03
       433  10  4.519412E+04  6.059303E+04  3.813908E+04 -6.542450E+03  3.976816E-10 -1.457092E-09
       433  11  5.127295E+04  5.829709E+04  2.952853E+04  7.100175E+03 -2.916923E-10 -2.469813E-09
       433  12  4.676845E+04  1.702825E+04  6.882863E+03  2.076345E+04 -1.126000E-09 -6.107704E-10
       433  13 -1.957530E+05  1.994626E+03 -1.393639E+04 -5.772231E+02 -6.689137E-11 -3.307243E-09
       433  14 -1.899474E+05 -6.078760E+02 -2.369269E+04 -5.708299E+02 -7.337045E-10  1.355698E-09
       433  15 -1.957583E+05 -4.322082E+04 -5.160325E+04 -5.435962E+02  3.597103E-10 -1.185505E-10
       433  16 -4.366455E+05 -5.660747E+04 -6.601528E+04  5.385648E+03 -8.274088E-10 -5.955245E-10
       433  17 -4.311131E+05 -5.951653E+04 -7.691746E+04 -8.238830E+03  1.012798E-10  1.001566E-09
       433  18 -4.382303E+05 -1.034725E+05 -1.100933E+05 -2.184230E+04  8.557299E-10 -7.685875E-10
       433  19  4.519431E+04  6.059325E+04  3.813966E+04 -6.542573E+03 -1.169688E+04  1.305510E+04
       433  20  5.127334E+04  5.829732E+04  2.952940E+04  7.100008E+03 -1.829545E+04  1.133251E+04
       433  21  4.676912E+04  1.702843E+04  6.884050E+03  2.076338E+04 -2.488894E+04  3.434510E+03
       433  22 -1.957528E+05  1.994838E+03 -1.393587E+04 -5.773323E+02 -1.037901E+04  1.305623E+04
       433  23 -1.899468E+05 -6.075973E+02 -2.369147E+04 -5.710389E+02 -2.290235E+04  1.132965E+04
       433  24 -1.957569E+05 -4.322047E+04 -5.160087E+04 -5.436940E+02 -3.542041E+04  3.426858E+03
       433  25 -4.366453E+05 -5.660726E+04 -6.601481E+04  5.385553E+03 -9.061640E+03  1.305740E+04
       433  26 -4.311123E+05 -5.951619E+04 -7.691580E+04 -8.239081E+03 -2.750748E+04  1.132690E+04
       433  27 -4.382280E+05 -1.034719E+05 -1.100893E+05 -2.184242E+04 -4.594779E+04  3.419927E+03
       434   1 -1.536135E+05 -7.438299E+05 -1.496627E+05  9.826008E+04 -7.057218E+03 -2.632083E+04
       434   2 -1.131159E+05 -5.948894E+05 -9.994243E+04  6.908452E+04 -2.032395E+04 -1.143700E+04
       434   3 -7.650016E+04 -4.487881E+05 -6.088354E+04  9.725125E+04 -1.659218E+04  3.449104E+03
       434   4 -1.670367E+03 -1.328462E+05 -1.246979E+03  9.778777E+04 -7.053471E+03 -5.443986E+03
       434   5 -8.729277E+01 -1.328125E+05  2.925453E+03  6.911753E+04 -2.032158E+04 -6.862536E+03
       434   6  4.486226E+02 -1.328055E+05  7.767720E+03  9.778718E+04 -1.659683E+04 -8.282731E+03
       434   7  1.502456E+05  4.784795E+05  1.471434E+05  9.731495E+04 -7.049760E+03  1.545337E+04
       434   8  1.129268E+05  3.294638E+05  1.057801E+05  6.915054E+04 -2.031920E+04 -2.284698E+03
       434   9  7.739086E+04  1.832711E+05  7.641354E+04  9.832336E+04 -1.660150E+04 -2.002046E+04
       434  10 -1.536138E+05 -7.438307E+05 -1.496641E+05  9.825993E+04 -1.217146E-10 -2.925851E-10
       434  11 -1.131164E+05 -5.948896E+05 -9.994346E+04  6.908434E+04  6.339957E-12  1.354527E-11
       434  12 -7.650046E+04 -4.487882E+05 -6.088408E+04  9.725129E+04  7.306722E-11  6.943250E-10
       434  13 -1.670429E+03 -1.328463E+05 -1.247129E+03  9.778774E+04  3.296669E-10  8.089800E-11
       434  14 -8.774882E+01 -1.328126E+05  2.924588E+03  6.911742E+04  2.082145E-11  1.930118E-10
       434  15  4.483085E+02 -1.328057E+05  7.767074E+03  9.778707E+04 -1.969328E-10  6.551223E-10
       434  16  1.502455E+05  4.784792E+05  1.471428E+05  9.731503E+04 -5.008803E-11  2.958542E-10
       434  17  1.129264E+05  3.294636E+05  1.057793E+05  6.915050E+04 -5.905954E-11 -4.101071E-10
       434  18  7.739046E+04  1.832705E+05  7.641226E+04  9.832310E+04  2.421874E-10 -2.928976E-10
       434  19 -1.536135E+05 -7.438299E+05 -1.496627E+05  9.826008E+04  7.057218E+03  2.632083E+04
       434  20 -1.131159E+05 -5.948894E+05 -9.994243E+04  6.908452E+04  2.032395E+04  1.143700E+04
       434  21 -7.650016E+04 -4.487881E+05 -6.088354E+04  9.725125E+04  1.659218E+04 -3.449104E+03
       434  22 -1.670367E+03 -1.328462E+05 -1.246979E+03  9.778777E+04  7.053471E+03  5.443986E+03
       434  23 -8.729277E+01 -1.328125E+05  2.925453E+03  6.911753E+04  2.032158E+04  6.862536E+03
       434  24  4.486226E+02 -1.328055E+05  7.767720E+03  9.778718E+04  1.659683E+04  8.282731E+03
       434  25  1.502456E+05  4.784795E+05  1.471434E+05  9.731495E+04  7.049760E+03 -1.545337E+04
       434  26  1.129268E+05  3.294638E+05  1.057801E+05  6.915054E+04  2.031920E+04  2.284698E+03
       434  27  7.739086E+04  1.832711E+05  7.641354E+04  9.832336E+04  1.660150E+04  2.002046E+04
       435   1 -4.880708E+04 -3.305692E+05 -3.245591E+04  9.642195E+04 -1.017366E+04 -2.839912E+03
       435   2 -1.250390E+04 -1.846734E+05  8.857126E+03  6.945576E+04 -2.732528E+03 -1.271524E+04
       435   3  3.120554E+04 -3.566755E+04  5.843752E+04  1.005830E+05  4.824648E+03 -2.259349E+04
       435   4 -4.449778E+02 -1.320949E+05  1.081843E+04  9.795543E+04 -1.017695E+04 -9.930901E+03
       435   5 -8.652535E+01 -1.336474E+05  1.991216E+04  6.890709E+04 -2.736032E+03 -1.991877E+04
       435   6  7.699446E+03 -1.320888E+05  3.735355E+04  9.795144E+04  4.820922E+03 -2.990731E+04
       435   7  4.791454E+04  6.641646E+04  5.409059E+04  9.948941E+04 -1.018028E+04 -1.702413E+04
       435   8  1.233071E+04 -8.261878E+04  3.096723E+04  6.835838E+04 -2.739523E+03 -2.712289E+04
       435   9 -1.580721E+04 -2.285012E+05  1.626922E+04  9.532025E+04  4.817257E+03 -3.722000E+04
       435  10 -4.880719E+04 -3.305693E+05 -3.245612E+04  9.642193E+04  4.609255E-10 -1.203790E-10
       435  11 -1.250395E+04 -1.846736E+05  8.856808E+03  6.945574E+04  2.454945E-10 -1.764486E-10
       435  12  3.120538E+04 -3.566811E+04  5.843652E+04  1.005831E+05  4.333192E-10  5.618009E-10
       435  13 -4.451155E+02 -1.320950E+05  1.081805E+04  9.795535E+04  2.321419E-10 -1.070110E-09
       435  14 -8.663992E+01 -1.336478E+05  1.991140E+04  6.890705E+04  1.995473E-10  3.840822E-10
       435  15  7.699181E+03 -1.320898E+05  3.735182E+04  9.795156E+04 -4.814793E-10  8.928902E-10
       435  16  4.791435E+04  6.641612E+04  5.408986E+04  9.948927E+04  7.146965E-12  5.041424E-10
       435  17  1.233050E+04 -8.261957E+04  3.096583E+04  6.835832E+04 -1.788071E-10 -6.026904E-10
       435  18 -1.580761E+04 -2.285027E+05  1.626657E+04  9.532040E+04 -2.320607E-10 -1.637523E-10
       435  19 -4.880708E+04 -3.305692E+05 -3.245591E+04  9.642195E+04  1.017366E+04  2.839912E+03
       435  20 -1.250390E+04 -1.846734E+05  8.857126E+03  6.945576E+04  2.732528E+03  1.271524E+04
       435  21  3.120554E+04 -3.566755E+04  5.843752E+04  1.005830E+05 -4.824648E+03  2.259349E+04
       435  22 -4.449778E+02 -1.320949E+05  1.081843E+04  9.795543E+04  1.017695E+04  9.930901E+03
       435  23 -8.652535E+01 -1.336474E+05  1.991216E+04  6.890709E+04  2.736032E+03  1.991877E+04
       435  24  7.699446E+03 -1.320888E+05  3.735355E+04  9.795144E+04 -4.820922E+03  2.990731E+04
       435  25  4.791454E+04  6.641646E+04  5.409059E+04  9.948941E+04  1.018028E+04  1.702413E+04
       435  26  1.233071E+04 -8.261878E+04  3.096723E+04  6.835838E+04  2.739523E+03  2.712289E+04
       435  27 -1.580721E+04 -2.285012E+05  1.626922E+04  9.532025E+04 -4.817257E+03  3.722000E+04
       436   1  4.523351E+04  9.006259E+04  9.386832E+04  7.686401E+04  1.104772E+04 -2.536360E+04
       436   2  9.023051E+04  2.163511E+05  1.617398E+05  9.513472E+04  1.548611E+04 -8.220834E+04
       436   3  2.757015E+05  3.851740E+05  3.017288E+05  1.708767E+05  5.538022E+03 -1.390633E+05
       436   4 -6.843397E+03 -1.238679E+05  4.730347E+04  9.782335E+04  1.104154E+04 -3.654519E+04
       436   5  2.076865E+03 -1.439505E+05  8.136879E+04  6.907004E+04  1.549115E+04 -7.956068E+04
       436   6  1.491119E+05 -1.238862E+05  1.779784E+05  9.777757E+04  5.559153E+03 -1.225723E+05
       436   7 -5.892162E+04 -3.377543E+05  7.365923E+02  1.187754E+05  1.103460E+04 -4.772297E+04
       436   8 -8.608305E+04 -5.041297E+05  9.899826E+02  4.302063E+04  1.549598E+04 -7.691453E+04
       436   9  2.252349E+04 -6.326979E+05  5.421314E+04  2.473846E+04  5.576417E+03 -1.060947E+05
       436  10  4.523320E+04  9.006186E+04  9.386688E+04  7.686423E+04  1.233417E-10  3.729934E-10
       436  11  9.022843E+04  2.163438E+05  1.617267E+05  9.513575E+04 -1.171883E-11 -1.286956E-10
       436  12  2.756963E+05  3.851533E+05  3.016924E+05  1.708774E+05 -1.721143E-11 -6.369809E-11
       436  13 -6.843887E+03 -1.238694E+05  4.730073E+04  9.782367E+04  1.304087E-10 -1.210623E-09
       436  14  2.074908E+03 -1.439574E+05  8.135644E+04  6.907104E+04  3.529202E-10  2.516422E-10
       436  15  1.491079E+05 -1.239023E+05  1.779501E+05  9.777812E+04 -2.681596E-11  2.423098E-10
       436  16 -5.892236E+04 -3.377568E+05  7.320810E+02  1.187758E+05 -1.683769E-10 -3.501871E-11
       436  17 -8.608489E+04 -5.041361E+05  9.784055E+02  4.302159E+04  3.577373E-10 -3.510788E-10
       436  18  2.252043E+04 -6.327100E+05  5.419191E+04  2.473894E+04  2.876021E-11  1.355589E-10
       436  19  4.523351E+04  9.006259E+04  9.386832E+04  7.686401E+04 -1.104772E+04  2.536360E+04
       436  20  9.023051E+04  2.163511E+05  1.617398E+05  9.513472E+04 -1.548611E+04  8.220834E+04
       436  21  2.757015E+05  3.851740E+05  3.017288E+05  1.708767E+05 -5.538022E+03  1.390633E+05
       436  22 -6.843397E+03 -1.238679E+05  4.730347E+04  9.782335E+04 -1.104154E+04  3.654519E+04
       436  23  2.076865E+03 -1.439505E+05  8.136879E+04  6.907004E+04 -1.549115E+04  7.956068E+04
       436  24  1.491119E+05 -1.238862E+05  1.779784E+05  9.777757E+04 -5.559153E+03  1.225723E+05
       436  25 -5.892162E+04 -3.377543E+05  7.365923E+02  1.187754E+05 -1.103460E+04  4.772297E+04
       436  26 -8.608305E+04 -5.041297E+05  9.899826E+02  4.302063E+04 -1.549598E+04  7.691453E+04
       436  27  2.252349E+04 -6.326979E+05  5.421314E+04  2.473846E+04 -5.576417E+03  1.060947E+05
       437   1  1.323761E+05  1.248974E+05  7.262701E+04  5.738293E+04  1.656834E+04  8.062598E+03
       437   2  1.236599E+05  1.064110E+05  5.874173E+04  5.575472E+04  1.389985E+04 -3.636048E+03
       437   3  1.166268E+05  9.974947E+04  5.327924E+04  5.239279E+04  7.286174E+03 -1.007475E+04
       437   4 -4.847170E+04 -1.140015E+04  1.129729E+04 -3.559527E+04  8.083521E+03  1.697470E+03
       437   5 -5.054336E+04 -1.992434E+04  5.387481E+03 -3.235755E+04  1.046686E+04 -6.212124E+03
       437   6 -5.202695E+04 -1.771794E+04  3.516807E+03 -3.085394E+04  8.904196E+03 -8.861031E+03
       437   7 -2.292851E+05 -1.476775E+05 -5.003665E+04 -1.285423E+05 -3.979397E+02 -4.664940E+03
       437   8 -2.247147E+05 -1.462426E+05 -4.797062E+04 -1.204420E+05  7.035156E+03 -8.787204E+03
       437   9 -2.206514E+05 -1.351714E+05 -4.624934E+04 -1.140761E+05  1.052164E+04 -7.647733E+03
       437  10  1.323758E+05  1.248973E+05  7.262637E+04  5.738282E+04 -2.675044E-10 -7.075507E-11
       437  11  1.236597E+05  1.064109E+05  5.874134E+04  5.575476E+04 -1.658991E-10  1.084177E-10
       437  12  1.166267E+05  9.974935E+04  5.327895E+04  5.239285E+04  1.694980E-10  6.199862E-10
       437  13 -4.847177E+04 -1.140017E+04  1.129716E+04 -3.559528E+04 -1.042502E-10  1.305043E-10
       437  14 -5.054349E+04 -1.992441E+04  5.387202E+03 -3.235750E+04 -1.007288E-11  7.324555E-10
       437  15 -5.202706E+04 -1.771804E+04  3.516511E+03 -3.085388E+04 -8.436782E-11  1.853584E-10
       437  16 -2.292851E+05 -1.476775E+05 -5.003669E+04 -1.285423E+05  6.450349E-11  2.489182E-10
       437  17 -2.247148E+05 -1.462427E+05 -4.797086E+04 -1.204420E+05  5.176175E-11  1.615334E-10
       437  18 -2.206516E+05 -1.351715E+05 -4.624966E+04 -1.140761E+05 -5.351831E-10 -9.227535E-11
       437  19  1.323761E+05  1.248974E+05  7.262701E+04  5.738293E+04 -1.656834E+04 -8.062598E+03
       437  20  1.236599E+05  1.064110E+05  5.874173E+04  5.575472E+04 -1.389985E+04  3.636048E+03
       437  21  1.166268E+05  9.974947E+04  5.327924E+04  5.239279E+04 -7.286174E+03  1.007475E+04
       437  22 -4.847170E+04 -1.140015E+04  1.129729E+04 -3.559527E+04 -8.083521E+03 -1.697470E+03
       437  23 -5.054336E+04 -1.992434E+04  5.387481E+03 -3.235755E+04 -1.046686E+04  6.212124E+03
       437  24 -5.202695E+04 -1.771794E+04  3.516807E+03 -3.085394E+04 -8.904196E+03  8.861031E+03
       437  25 -2.292851E+05 -1.476775E+05 -5.003665E+04 -1.285423E+05  3.979397E+02  4.664940E+03
       437  26 -2.247147E+05 -1.462426E+05 -4.797062E+04 -1.204420E+05 -7.035156E+03  8.787204E+03
       437  27 -2.206514E+05 -1.351714E+05 -4.624934E+04 -1.140761E+05 -1.052164E+04  7.647733E+03
       438   1  1.081418E+05  9.673777E+04  5.101849E+04  4.862803E+04  7.796172E+03 -8.533531E+03
       438   2  1.014935E+05  8.783430E+04  4.769995E+04  4.379646E+04  6.361174E+03 -9.218520E+03
       438   3  9.076983E+04  8.390894E+04  4.553653E+04  4.017902E+04  4.746730E+03 -9.664557E+03
       438   4 -5.208351E+04 -1.724675E+04  3.081937E+03 -3.151993E+04  7.922099E+03 -8.439407E+03
       438   5 -5.011146E+04 -1.987294E+04  2.554371E+03 -3.200461E+04  6.716885E+03 -8.951889E+03
       438   6 -5.226505E+04 -1.757067E+04  2.982601E+03 -3.127521E+04  5.332164E+03 -9.225408E+03
       438   7 -2.122792E+05 -1.312156E+05 -4.485695E+04 -1.116436E+05  8.047980E+03 -8.345316E+03
       438   8 -2.016906E+05 -1.275667E+05 -4.259350E+04 -1.077843E+05  7.072476E+03 -8.685348E+03
       438   9 -1.952776E+05 -1.190388E+05 -3.957360E+04 -1.027108E+05  5.917416E+03 -8.786397E+03
       438  10  1.081417E+05  9.673768E+04  5.101824E+04  4.862808E+04  2.990240E-10  3.868411E-10
       438  11  1.014935E+05  8.783420E+04  4.769971E+04  4.379650E+04  3.027246E-10  1.883555E-10
       438  12  9.076978E+04  8.390884E+04  4.553631E+04  4.017906E+04  5.443556E-11  1.558028E-10
       438  13 -5.208359E+04 -1.724685E+04  3.081685E+03 -3.151987E+04 -1.060550E-10 -2.472040E-10
       438  14 -5.011153E+04 -1.987304E+04  2.554136E+03 -3.200456E+04  3.074726E-10  2.242444E-10
       438  15 -5.226510E+04 -1.757077E+04  2.982387E+03 -3.127517E+04 -7.972779E-11 -3.783661E-10
       438  16 -2.122793E+05 -1.312157E+05 -4.485720E+04 -1.116435E+05 -1.392479E-10  2.835937E-10
       438  17 -2.016906E+05 -1.275668E+05 -4.259374E+04 -1.077842E+05  2.261461E-10  8.011396E-10
       438  18 -1.952776E+05 -1.190389E+05 -3.957381E+04 -1.027107E+05 -3.393310E-11 -5.549746E-10
       438  19  1.081418E+05  9.673777E+04  5.101849E+04  4.862803E+04 -7.796172E+03  8.533531E+03
       438  20  1.014935E+05  8.783430E+04  4.769995E+04  4.379646E+04 -6.361174E+03  9.218520E+03
       438  21  9.076983E+04  8.390894E+04  4.553653E+04  4.017902E+04 -4.746730E+03  9.664557E+03
       438  22 -5.208351E+04 -1.724675E+04  3.081937E+03 -3.151993E+04 -7.922099E+03  8.439407E+03
       438  23 -5.011146E+04 -1.987294E+04  2.554371E+03 -3.200461E+04 -6.716885E+03  8.951889E+03
       438  24 -5.226505E+04 -1.757067E+04  2.982601E+03 -3.127521E+04 -5.332164E+03  9.225408E+03
       438  25 -2.122792E+05 -1.312156E+05 -4.485695E+04 -1.116436E+05 -8.047980E+03  8.345316E+03
       438  26 -2.016906E+05 -1.275667E+05 -4.259350E+04 -1.077843E+05 -7.072476E+03  8.685348E+03
       438  27 -1.952776E+05 -1.190388E+05 -3.957360E+04 -1.027108E+05 -5.917416E+03  8.786397E+03
       439   1  8.373898E+04  7.919443E+04  4.397694E+04  3.679643E+04  4.090044E+03 -9.620697E+03
       439   2  7.713021E+04  7.066878E+04  4.336964E+04  3.171604E+04  1.495899E+03 -1.071550E+04
       439   3  6.646828E+04  6.712611E+04  4.465594E+04  2.796243E+04 -1.109414E+03 -1.179566E+04
       439   4 -5.223911E+04 -1.754170E+04  3.525143E+03 -3.126239E+04  4.607008E+03 -9.232888E+03
       439   5 -5.015053E+04 -1.992421E+04  5.476320E+03 -3.200617E+04  2.027490E+03 -1.031663E+04
       439   6 -5.211792E+04 -1.732706E+04  9.308720E+03 -3.142325E+04 -5.632136E+02 -1.138574E+04
       439   7 -1.881984E+05 -1.142684E+05 -3.692919E+04 -9.930498E+04  5.123824E+03 -8.845192E+03
       439   8 -1.774136E+05 -1.105081E+05 -3.241882E+04 -9.571354E+04  2.558934E+03 -9.917867E+03
       439   9 -1.706876E+05 -1.017714E+05 -2.603967E+04 -9.079547E+04 -1.715975E+01 -1.097592E+04
       439  10  8.373894E+04  7.919432E+04  4.397673E+04  3.679646E+04  3.709697E-10 -9.296661E-11
       439  11  7.713018E+04  7.066866E+04  4.336942E+04  3.171605E+04  8.689951E-12 -4.991840E-10
       439  12  6.646824E+04  6.712596E+04  4.465568E+04  2.796242E+04  4.734127E-10  1.489538E-10
       439  13 -5.223916E+04 -1.754180E+04  3.524943E+03 -3.126236E+04  3.404170E-10  2.903840E-10
       439  14 -5.015056E+04 -1.992433E+04  5.476112E+03 -3.200615E+04 -4.043480E-10  7.269992E-10
       439  15 -5.211796E+04 -1.732719E+04  9.308476E+03 -3.142326E+04  1.176310E-10  1.549303E-10
       439  16 -1.881985E+05 -1.142685E+05 -3.692939E+04 -9.930494E+04  1.499075E-10 -2.777441E-10
       439  17 -1.774136E+05 -1.105082E+05 -3.241902E+04 -9.571352E+04  1.631862E-10 -4.485402E-10
       439  18 -1.706876E+05 -1.017716E+05 -2.603990E+04 -9.079547E+04 -1.643315E-10 -2.495325E-10
       439  19  8.373898E+04  7.919443E+04  4.397694E+04  3.679643E+04 -4.090044E+03  9.620697E+03
       439  20  7.713021E+04  7.066878E+04  4.336964E+04  3.171604E+04 -1.495899E+03  1.071550E+04
       439  21  6.646828E+04  6.712611E+04  4.465594E+04  2.796243E+04  1.109414E+03  1.179566E+04
       439  22 -5.223911E+04 -1.754170E+04  3.525143E+03 -3.126239E+04 -4.607008E+03  9.232888E+03
       439  23 -5.015053E+04 -1.992421E+04  5.476320E+03 -3.200617E+04 -2.027490E+03  1.031663E+04
       439  24 -5.211792E+04 -1.732706E+04  9.308720E+03 -3.142325E+04  5.632136E+02  1.138574E+04
       439  25 -1.881984E+05 -1.142684E+05 -3.692919E+04 -9.930498E+04 -5.123824E+03  8.845192E+03
       439  26 -1.774136E+05 -1.105081E+05 -3.241882E+04 -9.571354E+04 -2.558934E+03  9.917867E+03
       439  27 -1.706876E+05 -1.017714E+05 -2.603967E+04 -9.079547E+04  1.715975E+01  1.097592E+04
       440   1  5.841911E+04  6.323076E+04  4.529642E+04  2.555029E+04 -2.829335E+03 -1.258796E+04
       440   2  5.304368E+04  5.240479E+04  5.148512E+04  1.904050E+04 -1.168568E+04 -1.832823E+04
       440   3  4.797097E+04  5.215243E+04  6.643012E+04  1.177244E+04 -2.060570E+04 -2.398398E+04
       440   4 -5.199634E+04 -1.758363E+04  1.207130E+04 -3.076237E+04 -2.309923E+03 -1.219808E+04
       440   5 -5.066649E+04 -2.025219E+04  2.079510E+04 -3.234220E+04 -1.108337E+04 -1.787608E+04
       440   6 -4.905142E+04 -1.236413E+04  3.820436E+04 -3.468051E+04 -1.992065E+04 -2.346975E+04
       440   7 -1.623985E+05 -9.839067E+04 -2.115524E+04 -8.706353E+04 -1.790636E+03 -1.180830E+04
       440   8 -1.543655E+05 -9.290373E+04 -9.896301E+03 -8.371550E+04 -1.048119E+04 -1.742403E+04
       440   9 -1.460646E+05 -7.687689E+04  9.977260E+03 -8.112596E+04 -1.923573E+04 -2.295561E+04
       440  10  5.841906E+04  6.323059E+04  4.529611E+04  2.555026E+04  9.665336E-10  6.810944E-10
       440  11  5.304344E+04  5.240439E+04  5.148424E+04  1.904033E+04  6.971044E-10  9.691899E-10
       440  12  4.797036E+04  5.215170E+04  6.642824E+04  1.177204E+04 -4.709925E-10 -1.146547E-09
       440  13 -5.199638E+04 -1.758379E+04  1.207101E+04 -3.076239E+04  3.839819E-10  4.644269E-10
       440  14 -5.066670E+04 -2.025256E+04  2.079427E+04 -3.234236E+04  7.369130E-11 -2.388364E-10
       440  15 -4.905200E+04 -1.236482E+04  3.820258E+04 -3.468088E+04 -1.195420E-10 -1.732103E-11
       440  16 -1.623986E+05 -9.839083E+04 -2.115551E+04 -8.706354E+04 -5.530845E-10 -3.612528E-10
       440  17 -1.543657E+05 -9.290408E+04 -9.897078E+03 -8.371565E+04  4.211802E-10 -1.007783E-09
       440  18 -1.460651E+05 -7.687755E+04  9.975574E+03 -8.112631E+04 -1.922556E-10  2.858767E-10
       440  19  5.841911E+04  6.323076E+04  4.529642E+04  2.555029E+04  2.829335E+03  1.258796E+04
       440  20  5.304368E+04  5.240479E+04  5.148512E+04  1.904050E+04  1.168568E+04  1.832823E+04
       440  21  4.797097E+04  5.215243E+04  6.643012E+04  1.177244E+04  2.060570E+04  2.398398E+04
       440  22 -5.199634E+04 -1.758363E+04  1.207130E+04 -3.076237E+04  2.309923E+03  1.219808E+04
       440  23 -5.066649E+04 -2.025219E+04  2.079510E+04 -3.234220E+04  1.108337E+04  1.787608E+04
       440  24 -4.905142E+04 -1.236413E+04  3.820436E+04 -3.468051E+04  1.992065E+04  2.346975E+04
       440  25 -1.623985E+05 -9.839067E+04 -2.115524E+04 -8.706353E+04  1.790636E+03  1.180830E+04
       440  26 -1.543655E+05 -9.290373E+04 -9.896301E+03 -8.371550E+04  1.048119E+04  1.742403E+04
       440  27 -1.460646E+05 -7.687689E+04  9.977260E+03 -8.112596E+04  1.923573E+04  2.295561E+04
       441   1  1.804942E+04  6.388899E+04  7.420179E+04  2.610991E+04 -2.562836E+04 -2.748060E+04
       441   2  4.761827E+04  8.085581E+03  1.064350E+05 -6.427641E+03 -6.315957E+04 -5.395925E+04
       441   3  1.494301E+05  6.144844E+04  2.036501E+05 -8.528985E+04 -1.020931E+05 -7.856892E+04
       441   4 -4.906954E+04 -1.875793E+04  4.819760E+04 -2.360956E+04 -2.547247E+04 -2.736204E+04
       441   5 -5.646949E+04 -2.259150E+04  8.261020E+04 -3.841814E+04 -6.120766E+04 -5.249752E+04
       441   6  7.984431E+03  8.235423E+04  1.804517E+05 -9.955275E+04 -9.834152E+04 -7.576988E+04
       441   7 -1.161823E+05 -1.013944E+05  2.219306E+04 -7.332078E+04 -2.531660E+04 -2.724351E+04
       441   8 -1.605432E+05 -5.326712E+04  5.878533E+04 -7.040454E+04 -5.925622E+04 -5.103590E+04
       441   9 -1.334288E+05  1.032688E+05  1.572559E+05 -1.138185E+05 -9.459119E+04 -7.297041E+04
       441  10  1.804851E+04  6.388801E+04  7.419913E+04  2.610934E+04  4.602108E-11 -7.946039E-11
       441  11  4.761320E+04  8.081384E+03  1.064220E+05 -6.430385E+03 -5.952881E-10  1.594679E-10
       441  12  1.494173E+05  6.143902E+04  2.036189E+05 -8.529631E+04 -6.537355E-11 -5.554448E-11
       441  13 -4.907043E+04 -1.875891E+04  4.819497E+04 -2.361012E+04  5.099209E-10  2.922298E-11
       441  14 -5.647425E+04 -2.259547E+04  8.259798E+04 -3.842072E+04  4.564039E-10  1.176025E-09
       441  15  7.972506E+03  8.234547E+04  1.804228E+05 -9.955876E+04  1.078365E-09  1.936132E-09
       441  16 -1.161832E+05 -1.013953E+05  2.219046E+04 -7.332134E+04  4.757497E-10  7.183066E-10
       441  17 -1.605477E+05 -5.327086E+04  5.877383E+04 -7.040697E+04  6.866904E-11  1.969834E-09
       441  18 -1.334398E+05  1.032607E+05  1.572291E+05 -1.138241E+05  2.118084E-10  3.399293E-10
       441  19  1.804942E+04  6.388899E+04  7.420179E+04  2.610991E+04  2.562836E+04  2.748060E+04
       441  20  4.761827E+04  8.085581E+03  1.064350E+05 -6.427641E+03  6.315957E+04  5.395925E+04
       441  21  1.494301E+05  6.144844E+04  2.036501E+05 -8.528985E+04  1.020931E+05  7.856892E+04
       441  22 -4.906954E+04 -1.875793E+04  4.819760E+04 -2.360956E+04  2.547247E+04  2.736204E+04
       441  23 -5.646949E+04 -2.259150E+04  8.261020E+04 -3.841814E+04  6.120766E+04  5.249752E+04
       441  24  7.984431E+03  8.235423E+04  1.804517E+05 -9.955275E+04  9.834152E+04  7.576988E+04
       441  25 -1.161823E+05 -1.013944E+05  2.219306E+04 -7.332078E+04  2.531660E+04  2.724351E+04
       441  26 -1.605432E+05 -5.326712E+04  5.878533E+04 -7.040454E+04  5.925622E+04  5.103590E+04
       441  27 -1.334288E+05  1.032688E+05  1.572559E+05 -1.138185E+05  9.459119E+04  7.297041E+04
       442   1  3.220196E+05  1.106678E+05  8.534200E+04  2.918687E+04 -5.050524E+04 -1.092172E+04
       442   2  2.142335E+05  1.780805E+05  1.064159E+05  3.828149E+04 -4.272602E+04 -3.346785E+04
       442   3  8.291167E+04  1.551124E+05  9.986379E+04  9.336402E+04 -3.497198E+04 -3.304005E+04
       442   4 -5.341204E+05 -1.019103E+05 -1.218942E+05  7.848610E+04 -8.311919E+04 -1.096087E+04
       442   5 -5.203747E+05 -1.366254E+03 -5.637025E+04  5.542418E+04 -5.330911E+04 -3.348528E+04
       442   6 -5.340424E+05  4.907922E+03 -3.380712E+04  7.835855E+04 -2.352195E+04 -3.302436E+04
       442   7 -1.389583E+06 -3.145323E+05 -3.291778E+05  1.277169E+05 -1.156883E+05 -1.100523E+04
       442   8 -1.254478E+06 -1.808482E+05 -2.191893E+05  7.254618E+04 -6.387980E+04 -3.350331E+04
       442   9 -1.150638E+06 -1.453209E+05 -1.675001E+05  6.336804E+04 -1.208314E+04 -3.300922E+04
       442  10  3.220168E+05  1.106670E+05  8.533699E+04  2.918643E+04  2.461042E-10 -7.415381E-12
       442  11  2.142312E+05  1.780788E+05  1.064104E+05  3.828034E+04  2.618132E-10 -1.832409E-09
       442  12  8.291006E+04  1.551109E+05  9.985944E+04  9.336309E+04  1.581732E-09 -2.466109E-09
       442  13 -5.341279E+05 -1.019123E+05 -1.219074E+05  7.848537E+04 -4.626302E-10  9.095708E-10
       442  14 -5.203780E+05 -1.368222E+03 -5.637770E+04  5.542274E+04 -1.150715E-09 -1.114234E-09
       442  15 -5.340433E+05  4.906602E+03 -3.381021E+04  7.835793E+04 -3.353759E-10 -6.976368E-11
       442  16 -1.389597E+06 -3.145360E+05 -3.292032E+05  1.277159E+05 -3.833001E-10  3.950927E-10
       442  17 -1.254483E+06 -1.808505E+05 -2.191991E+05  7.254445E+04  9.020852E-10 -3.324779E-09
       442  18 -1.150639E+06 -1.453221E+05 -1.675024E+05  6.336772E+04 -1.115726E-09 -4.162733E-09
       442  19  3.220196E+05  1.106678E+05  8.534200E+04  2.918687E+04  5.050524E+04  1.092172E+04
       442  20  2.142335E+05  1.780805E+05  1.064159E+05  3.828149E+04  4.272602E+04  3.346785E+04
       442  21  8.291167E+04  1.551124E+05  9.986379E+04  9.336402E+04  3.497198E+04  3.304005E+04
       442  22 -5.341204E+05 -1.019103E+05 -1.218942E+05  7.848610E+04  8.311919E+04  1.096087E+04
       442  23 -5.203747E+05 -1.366254E+03 -5.637025E+04  5.542418E+04  5.330911E+04  3.348528E+04
       442  24 -5.340424E+05  4.907922E+03 -3.380712E+04  7.835855E+04  2.352195E+04  3.302436E+04
       442  25 -1.389583E+06 -3.145323E+05 -3.291778E+05  1.277169E+05  1.156883E+05  1.100523E+04
       442  26 -1.254478E+06 -1.808482E+05 -2.191893E+05  7.254618E+04  6.387980E+04  3.350331E+04
       442  27 -1.150638E+06 -1.453209E+05 -1.675001E+05  6.336804E+04  1.208314E+04  3.300922E+04
       443   1 -7.027554E+03  1.220175E+05  8.592819E+04  7.736216E+04 -2.363000E+04 -2.713200E+04
       443   2 -1.254999E+05  9.808393E+04  6.985779E+04  5.506963E+04 -1.601000E+04 -2.146900E+04
       443   3 -2.463531E+05  6.909578E+04  4.753046E+04  7.993105E+04 -8.396045E+03 -1.478013E+04
       443   4 -5.285012E+05 -4.994091E+03 -2.754359E+04  7.865307E+04 -1.868784E+04 -2.712576E+04
       443   5 -5.272031E+05  3.045008E+02 -1.720306E+04  5.507047E+04 -1.008983E+04 -2.145982E+04
       443   6 -5.284700E+05  3.773441E+02 -1.380236E+04  7.864394E+04 -1.496431E+03 -1.476769E+04
       443   7 -1.049720E+06 -1.320237E+05 -1.410316E+05  7.994277E+04 -1.374977E+04 -2.711950E+04
       443   8 -9.287546E+05 -9.748559E+04 -1.042734E+05  5.507124E+04 -4.173441E+03 -2.145064E+04
       443   9 -8.105122E+05 -6.834635E+04 -7.513975E+04  7.735738E+04  5.400087E+03 -1.475528E+04
       443  10 -7.028351E+03  1.220166E+05  8.592575E+04  7.736164E+04 -1.943208E-09 -3.676255E-09
       443  11 -1.255003E+05  9.808337E+04  6.985644E+04  5.506935E+04 -1.693594E-09  1.049766E-09
       443  12 -2.463532E+05  6.909553E+04  4.752991E+04  7.993095E+04 -1.285218E-09  2.500514E-09
       443  13 -5.285018E+05 -4.994974E+03 -2.754563E+04  7.865266E+04  1.587751E-11 -2.569553E-09
       443  14 -5.272033E+05  3.039791E+02 -1.720412E+04  5.507030E+04 -1.402069E-09 -1.932320E-10
       443  15 -5.284701E+05  3.771094E+02 -1.380277E+04  7.864392E+04 -9.800594E-11 -1.496789E-09
       443  16 -1.049720E+06 -1.320246E+05 -1.410333E+05  7.994247E+04  2.104988E-09 -4.812818E-10
       443  17 -9.287548E+05 -9.748609E+04 -1.042743E+05  5.507117E+04  1.818831E-09  6.915149E-10
       443  18 -8.105123E+05 -6.834659E+04 -7.514022E+04  7.735745E+04  1.322077E-09  4.345579E-10
       443  19 -7.027554E+03  1.220175E+05  8.592819E+04  7.736216E+04  2.363000E+04  2.713200E+04
       443  20 -1.254999E+05  9.808393E+04  6.985779E+04  5.506963E+04  1.601000E+04  2.146900E+04
       443  21 -2.463531E+05  6.909578E+04  4.753046E+04  7.993105E+04  8.396045E+03  1.478013E+04
       443  22 -5.285012E+05 -4.994091E+03 -2.754359E+04  7.865307E+04  1.868784E+04  2.712576E+04
       443  23 -5.272031E+05  3.045008E+02 -1.720306E+04  5.507047E+04  1.008983E+04  2.145982E+04
       443  24 -5.284700E+05  3.773441E+02 -1.380236E+04  7.864394E+04  1.496431E+03  1.476769E+04
       443  25 -1.049720E+06 -1.320237E+05 -1.410316E+05  7.994277E+04  1.374977E+04  2.711950E+04
       443  26 -9.287546E+05 -9.748559E+04 -1.042734E+05  5.507124E+04  4.173441E+03  2.145064E+04
       443  27 -8.105122E+05 -6.834635E+04 -7.513975E+04  7.735738E+04 -5.400087E+03  1.475528E+04
       444   1 -3.415166E+05  4.578574E+04  2.645565E+04  7.809648E+04 -5.831854E+03 -1.057439E+04
       444   2 -4.600316E+05  1.668569E+04 -2.151263E+03  5.563107E+04  2.895184E+03 -3.751274E+03
       444   3 -5.811376E+05 -1.743767E+04 -3.775045E+04  8.041287E+04  1.162076E+04  2.618773E+03
       444   4 -5.284519E+05  3.532040E+02 -1.369838E+04  7.866425E+04  9.167802E+02 -1.056170E+04
       444   5 -5.271866E+05  3.547502E+02 -1.660176E+04  5.504508E+04  9.207487E+03 -3.739195E+03
       444   6 -5.284495E+05 -4.590492E+03 -2.619387E+04  7.867367E+04  1.749837E+04  2.630238E+03
       444   7 -7.153543E+05 -4.508160E+04 -5.385428E+04  7.923182E+04  7.663410E+03 -1.054900E+04
       444   8 -5.943372E+05 -1.597647E+04 -3.105237E+04  5.445916E+04  1.551912E+04 -3.727128E+03
       444   9 -4.757587E+05  8.256529E+03 -1.463732E+04  7.693431E+04  2.337647E+04  2.641669E+03
       444  10 -3.415166E+05  4.578561E+04  2.645538E+04  7.809643E+04 -1.433613E-09  3.711883E-09
       444  11 -4.600316E+05  1.668568E+04 -2.151305E+03  5.563108E+04 -2.762224E-10  2.283132E-09
       444  12 -5.811378E+05 -1.743771E+04 -3.775072E+04  8.041285E+04  2.731200E-09 -5.487609E-10
       444  13 -5.284520E+05  3.530840E+02 -1.369859E+04  7.866426E+04  6.642282E-10 -1.653691E-09
       444  14 -5.271867E+05  3.547124E+02 -1.660194E+04  5.504511E+04 -9.680609E-10  3.355417E-09
       444  15 -5.284498E+05 -4.590582E+03 -2.619445E+04  7.867363E+04 -2.996110E-10  3.919445E-09
       444  16 -7.153544E+05 -4.508174E+04 -5.385460E+04  7.923189E+04  1.846159E-09  1.782304E-09
       444  17 -5.943375E+05 -1.597655E+04 -3.105285E+04  5.445921E+04  5.719419E-10  4.003337E-09
       444  18 -4.757593E+05  8.256375E+03 -1.463836E+04  7.693426E+04 -2.529396E-09  1.407693E-09
       444  19 -3.415166E+05  4.578574E+04  2.645565E+04  7.809648E+04  5.831854E+03  1.057439E+04
       444  20 -4.600316E+05  1.668569E+04 -2.151263E+03  5.563107E+04 -2.895184E+03  3.751274E+03
       444  21 -5.811376E+05 -1.743767E+04 -3.775045E+04  8.041287E+04 -1.162076E+04 -2.618773E+03
       444  22 -5.284519E+05  3.532040E+02 -1.369838E+04  7.866425E+04 -9.167802E+02  1.056170E+04
       444  23 -5.271866E+05  3.547502E+02 -1.660176E+04  5.504508E+04 -9.207487E+03  3.739195E+03
       444  24 -5.284495E+05 -4.590492E+03 -2.619387E+04  7.867367E+04 -1.749837E+04 -2.630238E+03
       444  25 -7.153543E+05 -4.508160E+04 -5.385428E+04  7.923182E+04 -7.663410E+03  1.054900E+04
       444  26 -5.943372E+05 -1.597647E+04 -3.105237E+04  5.445916E+04 -1.551912E+04  3.727128E+03
       444  27 -4.757587E+05  8.256529E+03 -1.463732E+04  7.693431E+04 -2.337647E+04 -2.641669E+03
       445   1 -6.817576E+05 -3.139701E+04 -6.438573E+04  6.481331E+04  1.308691E+04  7.584146E+03
       445   2 -7.877227E+05 -6.644151E+04 -1.129112E+05  7.166119E+04  5.182071E+04  1.150350E+04
       445   3 -9.216259E+05 -1.923350E+05 -2.094314E+05  1.253229E+05  9.056519E+04  4.349094E+03
       445   4 -5.336858E+05  4.766308E+03 -3.205323E+04  7.852898E+04  2.209147E+04  7.601770E+03
       445   5 -5.206615E+05 -1.128497E+03 -5.323864E+04  5.520878E+04  5.021180E+04  1.149878E+04
       445   6 -5.337299E+05 -9.600797E+04 -1.150282E+05  7.870828E+04  7.835084E+04  4.320408E+03
       445   7 -3.855929E+05  4.092890E+04  2.783491E+02  9.224796E+04  3.109815E+04  7.619789E+03
       445   8 -2.535331E+05  6.418070E+04  6.429627E+03  3.874918E+04  4.860220E+04  1.149415E+04
       445   9 -1.456914E+05  3.163098E+02 -2.063423E+04  3.206438E+04  6.612885E+04  4.293569E+03
       445  10 -6.817578E+05 -3.139711E+04 -6.438616E+04  6.481323E+04  2.114151E-09 -3.435851E-10
       445  11 -7.877256E+05 -6.644238E+04 -1.129165E+05  7.166071E+04 -1.972551E-10  4.801954E-09
       445  12 -9.216347E+05 -1.923372E+05 -2.094469E+05  1.253226E+05 -2.002265E-10  2.109255E-09
       445  13 -5.336863E+05  4.766115E+03 -3.205426E+04  7.852885E+04  2.633690E-10  3.595950E-10
       445  14 -5.206642E+05 -1.129317E+03 -5.324364E+04  5.520832E+04 -1.160835E-09  4.608993E-09
       445  15 -5.337365E+05 -9.600964E+04 -1.150398E+05  7.870801E+04  1.553758E-10 -5.465325E-10
       445  16 -3.855939E+05  4.092858E+04  2.764217E+02  9.224777E+04 -1.500762E-09  7.603011E-10
       445  17 -2.535357E+05  6.417993E+04  6.424938E+03  3.874873E+04 -3.551083E-10 -1.712476E-10
       445  18 -1.456961E+05  3.151157E+02 -2.064249E+04  3.206415E+04 -7.187180E-11 -1.382902E-09
       445  19 -6.817576E+05 -3.139701E+04 -6.438573E+04  6.481331E+04 -1.308691E+04 -7.584146E+03
       445  20 -7.877227E+05 -6.644151E+04 -1.129112E+05  7.166119E+04 -5.182071E+04 -1.150350E+04
       445  21 -9.216259E+05 -1.923350E+05 -2.094314E+05  1.253229E+05 -9.056519E+04 -4.349094E+03
       445  22 -5.336858E+05  4.766308E+03 -3.205323E+04  7.852898E+04 -2.209147E+04 -7.601770E+03
       445  23 -5.206615E+05 -1.128497E+03 -5.323864E+04  5.520878E+04 -5.021180E+04 -1.149878E+04
       445  24 -5.337299E+05 -9.600797E+04 -1.150282E+05  7.870828E+04 -7.835084E+04 -4.320408E+03
       445  25 -3.855929E+05  4.092890E+04  2.783491E+02  9.224796E+04 -3.109815E+04 -7.619789E+03
       445  26 -2.535331E+05  6.418070E+04  6.429627E+03  3.874918E+04 -4.860220E+04 -1.149415E+04
       445  27 -1.456914E+05  3.163098E+02 -2.063423E+04  3.206438E+04 -6.612885E+04 -4.293569E+03
       446   1 -1.685857E+05 -6.184094E+05 -1.629864E+05  1.145316E+05 -7.850124E+03 -2.546792E+04
       446   2 -1.256883E+05 -4.424306E+05 -1.080591E+05  8.139573E+04 -2.245182E+04 -1.014357E+04
       446   3 -8.260006E+04 -2.681800E+05 -6.304038E+04  1.163686E+05 -1.778209E+04  5.198174E+03
       446   4  2.966873E+03  7.151208E+04  4.634446E+03  1.160869E+05 -7.863247E+03 -2.225842E+03
       446   5 -1.558642E+02  7.081199E+04  6.245232E+03  8.203352E+04 -2.245264E+04 -5.387892E+03
       446   6  1.244584E+02  7.156518E+04  1.079323E+04  1.160852E+05 -1.777780E+04 -8.537299E+03
       446   7  1.744848E+05  7.618695E+05  1.722230E+05  1.176441E+05 -7.876247E+03  2.104201E+04
       446   8  1.253587E+05  5.843004E+05  1.205331E+05  8.267186E+04 -2.245344E+04 -6.283246E+02
       446   9  8.284143E+04  4.114190E+05  8.462065E+04  1.158016E+05 -1.777349E+04 -2.228019E+04
       446  10 -1.685860E+05 -6.184101E+05 -1.629878E+05  1.145314E+05 -2.221521E-10 -4.609807E-11
       446  11 -1.256888E+05 -4.424308E+05 -1.080602E+05  8.139555E+04 -5.115216E-10 -2.810858E-10
       446  12 -8.260041E+04 -2.681801E+05 -6.304103E+04  1.163687E+05 -3.145699E-11  7.079617E-10
       446  13  2.966805E+03  7.151206E+04  4.634321E+03  1.160869E+05  3.987678E-10 -1.000839E-09
       446  14 -1.564133E+02  7.081183E+04  6.244230E+03  8.203343E+04 -6.251006E-10 -1.497316E-09
       446  15  1.240995E+02  7.156502E+04  1.079250E+04  1.160850E+05  1.171634E-10  2.065239E-11
       446  16  1.744846E+05  7.618690E+05  1.722220E+05  1.176442E+05 -2.205976E-10  8.733024E-11
       446  17  1.253581E+05  5.843002E+05  1.205322E+05  8.267185E+04 -2.663834E-10 -2.257692E-09
       446  18  8.284096E+04  4.114184E+05  8.461913E+04  1.158013E+05  2.047847E-10 -1.306725E-09
       446  19 -1.685857E+05 -6.184094E+05 -1.629864E+05  1.145316E+05  7.850124E+03  2.546792E+04
       446  20 -1.256883E+05 -4.424306E+05 -1.080591E+05  8.139573E+04  2.245182E+04  1.014357E+04
       446  21 -8.260006E+04 -2.681800E+05 -6.304038E+04  1.163686E+05  1.778209E+04 -5.198174E+03
       446  22  2.966873E+03  7.151208E+04  4.634446E+03  1.160869E+05  7.863247E+03  2.225842E+03
       446  23 -1.558642E+02  7.081199E+04  6.245232E+03  8.203352E+04  2.245264E+04  5.387892E+03
       446  24  1.244584E+02  7.156518E+04  1.079323E+04  1.160852E+05  1.777780E+04  8.537299E+03
       446  25  1.744848E+05  7.618695E+05  1.722230E+05  1.176441E+05  7.876247E+03 -2.104201E+04
       446  26  1.253587E+05  5.843004E+05  1.205331E+05  8.267186E+04  2.245344E+04  6.283246E+02
       446  27  8.284143E+04  4.114190E+05  8.462065E+04  1.158016E+05  1.777349E+04  2.228019E+04
       447   1 -4.923758E+04 -1.282185E+05 -2.964031E+04  1.144889E+05 -1.022927E+04 -2.213890E+03
       447   2 -6.401747E+03  4.479963E+04  1.868838E+04  8.245847E+04 -1.352782E+03 -1.428497E+04
       447   3  4.533543E+04  2.217154E+05  7.711228E+04  1.193540E+05  7.579900E+03 -2.635979E+04
       447   4 -4.304122E+02  7.212136E+04  1.405255E+04  1.162669E+05 -1.022725E+04 -1.070590E+04
       447   5 -2.256486E+02  7.018198E+04  2.418658E+04  8.180540E+04 -1.350797E+03 -2.283211E+04
       447   6  8.892669E+03  7.212376E+04  4.445732E+04  1.162691E+05  7.581836E+03 -3.495877E+04
       447   7  4.837414E+04  2.724990E+05  5.774326E+04  1.180455E+05 -1.022527E+04 -1.920061E+04
       447   8  5.950448E+03  9.556510E+04  2.968502E+04  8.115231E+04 -1.348794E+03 -3.137959E+04
       447   9 -2.755151E+04 -7.744675E+04  1.180129E+04  1.131849E+05  7.583858E+03 -4.355569E+04
       447  10 -4.923769E+04 -1.282185E+05 -2.964051E+04  1.144889E+05 -6.676171E-11  1.469529E-10
       447  11 -6.401804E+03  4.479941E+04  1.868799E+04  8.245845E+04 -5.920737E-10  2.296587E-11
       447  12  4.533518E+04  2.217146E+05  7.711087E+04  1.193542E+05  3.348455E-10  6.949804E-10
       447  13 -4.305553E+02  7.212121E+04  1.405214E+04  1.162668E+05 -2.073023E-11 -4.466150E-10
       447  14 -2.257905E+02  7.018142E+04  2.418560E+04  8.180538E+04  2.515590E-10 -7.959249E-10
       447  15  8.892279E+03  7.212243E+04  4.445491E+04  1.162693E+05  2.274528E-10 -4.177939E-11
       447  16  4.837392E+04  2.724986E+05  5.774237E+04  1.180453E+05 -2.627678E-11 -1.061884E-10
       447  17  5.950182E+03  9.556404E+04  2.968317E+04  8.115228E+04  2.130303E-10 -1.427373E-09
       447  18 -2.755208E+04 -7.744880E+04  1.179761E+04  1.131851E+05  4.097263E-10 -1.117323E-09
       447  19 -4.923758E+04 -1.282185E+05 -2.964031E+04  1.144889E+05  1.022927E+04  2.213890E+03
       447  20 -6.401747E+03  4.479963E+04  1.868838E+04  8.245847E+04  1.352782E+03  1.428497E+04
       447  21  4.533543E+04  2.217154E+05  7.711228E+04  1.193540E+05 -7.579900E+03  2.635979E+04
       447  22 -4.304122E+02  7.212136E+04  1.405255E+04  1.162669E+05  1.022725E+04  1.070590E+04
       447  23 -2.256486E+02  7.018198E+04  2.418658E+04  8.180540E+04  1.350797E+03  2.283211E+04
       447  24  8.892669E+03  7.212376E+04  4.445732E+04  1.162691E+05 -7.581836E+03  3.495877E+04
       447  25  4.837414E+04  2.724990E+05  5.774326E+04  1.180455E+05  1.022527E+04  1.920061E+04
       447  26  5.950448E+03  9.556510E+04  2.968502E+04  8.115231E+04  1.348794E+03  3.137959E+04
       447  27 -2.755151E+04 -7.744675E+04  1.180129E+04  1.131849E+05 -7.583858E+03  4.355569E+04
       448   1  6.213094E+04  3.708028E+05  1.189379E+05  9.121842E+04  1.503253E+04 -2.939246E+04
       448   2  1.154263E+05  5.208014E+05  1.992305E+05  1.125168E+05  2.009740E+04 -9.747964E+04
       448   3  3.345049E+05  7.212772E+05  3.653030E+05  2.020787E+05  7.201533E+03 -1.655967E+05
       448   4 -8.239438E+03  8.180482E+04  5.609639E+04  1.160931E+05  1.503503E+04 -4.284620E+04
       448   5  2.312863E+03  5.802983E+04  9.612888E+04  8.201391E+04  2.010172E+04 -9.365712E+04
       448   6  1.757132E+05  8.175459E+04  2.099927E+05  1.161838E+05  7.213804E+03 -1.444777E+05
       448   7 -7.861294E+04 -2.071132E+05 -6.749127E+03  1.409560E+05  1.503646E+04 -5.629377E+04
       448   8 -1.108116E+05 -4.045401E+05 -6.985566E+03  5.153396E+04  2.010567E+04 -8.983740E+04
       448   9  1.691955E+04 -5.573780E+05  5.465854E+04  3.037745E+04  7.220252E+03 -1.233803E+05
       448  10  6.213047E+04  3.708018E+05  1.189359E+05  9.121878E+04 -2.833251E-11  8.851053E-11
       448  11  1.154234E+05  5.207911E+05  1.992119E+05  1.125184E+05 -5.265079E-10 -2.963449E-10
       448  12  3.344975E+05  7.212477E+05  3.652514E+05  2.020797E+05 -1.213615E-10 -4.461000E-11
       448  13 -8.240173E+03  8.180279E+04  5.609251E+04  1.160936E+05  1.323118E-10 -2.885473E-10
       448  14  2.310074E+03  5.802031E+04  9.611163E+04  8.201542E+04  4.047186E-10 -1.309158E-09
       448  15  1.757076E+05  8.173217E+04  2.099534E+05  1.161846E+05 -3.916182E-10  1.159493E-10
       448  16 -7.861403E+04 -2.071167E+05 -6.755510E+03  1.409566E+05  2.706480E-10 -9.739321E-11
       448  17 -1.108142E+05 -4.045489E+05 -7.001502E+03  5.153542E+04 -5.297767E-10 -2.008780E-09
       448  18  1.691541E+04 -5.573944E+05  5.462981E+04  3.037817E+04 -2.341719E-10 -7.970105E-10
       448  19  6.213094E+04  3.708028E+05  1.189379E+05  9.121842E+04 -1.503253E+04  2.939246E+04
       448  20  1.154263E+05  5.208014E+05  1.992305E+05  1.125168E+05 -2.009740E+04  9.747964E+04
       448  21  3.345049E+05  7.212772E+05  3.653030E+05  2.020787E+05 -7.201533E+03  1.655967E+05
       448  22 -8.239438E+03  8.180482E+04  5.609639E+04  1.160931E+05 -1.503503E+04  4.284620E+04
       448  23  2.312863E+03  5.802983E+04  9.612888E+04  8.201391E+04 -2.010172E+04  9.365712E+04
       448  24  1.757132E+05  8.175459E+04  2.099927E+05  1.161838E+05 -7.213804E+03  1.444777E+05
       448  25 -7.861294E+04 -2.071132E+05 -6.749127E+03  1.409560E+05 -1.503646E+04  5.629377E+04
       448  26 -1.108116E+05 -4.045401E+05 -6.985566E+03  5.153396E+04 -2.010567E+04  8.983740E+04
       448  27  1.691955E+04 -5.573780E+05  5.465854E+04  3.037745E+04 -7.220252E+03  1.233803E+05
       449   1  6.144426E+05  5.290086E+05  2.028806E+05  3.830301E+05  6.651957E+04  4.204298E+04
       449   2  5.781248E+05  4.243238E+05  1.361037E+05  3.880104E+05  4.810178E+04  1.112557E+04
       449   3  5.640902E+05  3.882849E+05  1.083040E+05  3.749517E+05  2.207614E+04 -9.662279E+03
       449   4  2.977837E+05  2.447732E+05  8.659309E+04  1.993031E+05  5.114579E+04  3.048426E+04
       449   5  2.740068E+05  1.872679E+05  3.994371E+04  2.265472E+05  4.247169E+04  6.891220E+03
       449   6  2.704184E+05  1.963128E+05  2.382993E+04  2.357460E+05  2.618663E+04 -6.572640E+03
       449   7 -1.877174E+04 -3.936858E+04 -2.971013E+04  1.569091E+04  3.578239E+04  1.893609E+04
       449   8 -3.001101E+04 -4.972324E+04 -5.622770E+04  6.517727E+04  3.684533E+04  2.660019E+03
       449   9 -2.315612E+04  4.382025E+03 -6.065210E+04  9.661336E+04  3.029443E+04 -3.484815E+03
       449  10  6.144373E+05  5.290056E+05  2.028689E+05  3.830279E+05  6.889157E-10 -2.799401E-10
       449  11  5.781222E+05  4.243231E+05  1.360992E+05  3.880100E+05  1.299203E-10 -1.390337E-09
       449  12  5.640897E+05  3.882847E+05  1.083030E+05  3.749518E+05 -3.143457E-10 -1.192810E-09
       449  13  2.977806E+05  2.447715E+05  8.658643E+04  1.993018E+05  7.095578E-10  9.322113E-10
       449  14  2.740049E+05  1.872674E+05  3.994024E+04  2.265469E+05 -3.584541E-11  2.360071E-09
       449  15  2.704176E+05  1.963126E+05  2.382856E+04  2.357461E+05 -7.600416E-10  3.898711E-10
       449  16 -1.877321E+04 -3.936931E+04 -2.971321E+04  1.569037E+04 -4.058725E-10 -2.014795E-10
       449  17 -3.001247E+04 -4.972361E+04 -5.623026E+04  6.517719E+04  4.591257E-10 -1.516522E-09
       449  18 -2.315711E+04  4.381765E+03 -6.065385E+04  9.661345E+04  2.232137E-10 -2.547011E-10
       449  19  6.144426E+05  5.290086E+05  2.028806E+05  3.830301E+05 -6.651957E+04 -4.204298E+04
       449  20  5.781248E+05  4.243238E+05  1.361037E+05  3.880104E+05 -4.810178E+04 -1.112557E+04
       449  21  5.640902E+05  3.882849E+05  1.083040E+05  3.749517E+05 -2.207614E+04  9.662279E+03
       449  22  2.977837E+05  2.447732E+05  8.659309E+04  1.993031E+05 -5.114579E+04 -3.048426E+04
       449  23  2.740068E+05  1.872679E+05  3.994371E+04  2.265472E+05 -4.247169E+04 -6.891220E+03
       449  24  2.704184E+05  1.963128E+05  2.382993E+04  2.357460E+05 -2.618663E+04  6.572640E+03
       449  25 -1.877174E+04 -3.936858E+04 -2.971013E+04  1.569091E+04 -3.578239E+04 -1.893609E+04
       449  26 -3.001101E+04 -4.972324E+04 -5.622770E+04  6.517727E+04 -3.684533E+04 -2.660019E+03
       449  27 -2.315612E+04  4.382025E+03 -6.065210E+04  9.661336E+04 -3.029443E+04  3.484815E+03
       450   1  5.266904E+05  3.839244E+05  9.633205E+04  3.597022E+05  2.070669E+04 -7.514293E+03
       450   2  5.014175E+05  3.484715E+05  7.868382E+04  3.420371E+05  1.444038E+04 -9.857684E+03
       450   3  4.616404E+05  3.331048E+05  6.615936E+04  3.283473E+05  7.830990E+03 -1.174567E+04
       450   4  2.703333E+05  1.994952E+05  1.929832E+04  2.304735E+05  2.193823E+04 -6.589187E+03
       450   5  2.769339E+05  1.882584E+05  1.172364E+04  2.294233E+05  1.611199E+04 -8.601172E+03
       450   6  2.689342E+05  1.970140E+05  8.892685E+03  2.323476E+05  9.942212E+03 -1.015794E+04
       450   7  1.404743E+04  1.510396E+04 -5.774294E+04  1.013055E+05  2.316908E+04 -5.664609E+03
       450   8  5.250393E+04  2.807309E+04 -5.524262E+04  1.168550E+05  1.778279E+04 -7.345274E+03
       450   9  7.626650E+04  6.094223E+04 -4.837880E+04  1.363806E+05  1.205257E+04 -8.570857E+03
       450  10  5.266900E+05  3.839242E+05  9.633114E+04  3.597023E+05 -5.914678E-10 -9.430420E-10
       450  11  5.014173E+05  3.484713E+05  7.868324E+04  3.420373E+05 -2.025587E-10  2.215014E-09
       450  12  4.616403E+05  3.331047E+05  6.615898E+04  3.283474E+05  1.978091E-09  1.295592E-09
       450  13  2.703327E+05  1.994951E+05  1.929734E+04  2.304736E+05 -5.276755E-10  7.102134E-10
       450  14  2.769336E+05  1.882583E+05  1.172301E+04  2.294234E+05  2.382737E-10  1.048015E-09
       450  15  2.689341E+05  1.970139E+05  8.892305E+03  2.323477E+05 -4.730451E-10 -6.935209E-10
       450  16  1.404685E+04  1.510378E+04 -5.774401E+04  1.013056E+05  1.187432E-11  1.461348E-09
       450  17  5.250358E+04  2.807295E+04 -5.524331E+04  1.168551E+05 -8.548405E-10 -3.096032E-10
       450  18  7.626633E+04  6.094211E+04 -4.837922E+04  1.363806E+05 -2.471274E-09 -2.841235E-10
       450  19  5.266904E+05  3.839244E+05  9.633205E+04  3.597022E+05 -2.070669E+04  7.514293E+03
       450  20  5.014175E+05  3.484715E+05  7.868382E+04  3.420371E+05 -1.444038E+04  9.857684E+03
       450  21  4.616404E+05  3.331048E+05  6.615936E+04  3.283473E+05 -7.830990E+03  1.174567E+04
       450  22  2.703333E+05  1.994952E+05  1.929832E+04  2.304735E+05 -2.193823E+04  6.589187E+03
       450  23  2.769339E+05  1.882584E+05  1.172364E+04  2.294233E+05 -1.611199E+04  8.601172E+03
       450  24  2.689342E+05  1.970140E+05  8.892685E+03  2.323476E+05 -9.942212E+03  1.015794E+04
       450  25  1.404743E+04  1.510396E+04 -5.774294E+04  1.013055E+05 -2.316908E+04  5.664609E+03
       450  26  5.250393E+04  2.807309E+04 -5.524262E+04  1.168550E+05 -1.778279E+04  7.345274E+03
       450  27  7.626650E+04  6.094223E+04 -4.837880E+04  1.363806E+05 -1.205257E+04  8.570857E+03
       451   1  4.349995E+05  3.154881E+05  5.789926E+04  3.153538E+05  5.773946E+03 -1.132359E+04
       451   2  4.105494E+05  2.835630E+05  4.951781E+04  2.964990E+05  3.380084E+02 -1.217604E+04
       451   3  3.699414E+05  2.694383E+05  4.449780E+04  2.825636E+05 -5.107918E+03 -1.301547E+04
       451   4  2.689346E+05  1.971390E+05  8.558872E+03  2.320982E+05  7.753961E+03 -9.834296E+03
       451   5  2.770800E+05  1.883514E+05  9.764621E+03  2.295575E+05  2.331459E+03 -1.067633E+04
       451   6  2.690625E+05  1.973608E+05  1.432048E+04  2.319350E+05 -3.101333E+03 -1.150556E+04
       451   7  1.029017E+05  7.880666E+04 -4.078398E+04  1.488687E+05  9.733238E+03 -8.345561E+03
       451   8  1.436307E+05  9.315043E+04 -2.999029E+04  1.626326E+05  4.324318E+03 -9.177072E+03
       451   9  1.681947E+05  1.252892E+05 -1.585796E+04  1.813157E+05 -1.095192E+03 -9.995982E+03
       451  10  4.349994E+05  3.154880E+05  5.789896E+04  3.153538E+05  2.140596E-09 -2.760342E-10
       451  11  4.105493E+05  2.835628E+05  4.951753E+04  2.964990E+05  1.056997E-09 -3.915714E-09
       451  12  3.699413E+05  2.694381E+05  4.449744E+04  2.825636E+05 -2.100458E-10 -2.222838E-09
       451  13  2.689346E+05  1.971388E+05  8.558577E+03  2.320982E+05  6.277179E-10  1.039287E-09
       451  14  2.770799E+05  1.883513E+05  9.764397E+03  2.295575E+05  1.331935E-09  6.785236E-09
       451  15  2.690624E+05  1.973607E+05  1.432021E+04  2.319349E+05  1.156544E-09 -3.666217E-10
       451  16  1.029015E+05  7.880656E+04 -4.078429E+04  1.488688E+05 -1.040087E-09 -1.422144E-09
       451  17  1.436307E+05  9.315034E+04 -2.999049E+04  1.626327E+05  1.818268E-09  4.261720E-09
       451  18  1.681947E+05  1.252891E+05 -1.585815E+04  1.813157E+05  2.485763E-09 -7.737247E-10
       451  19  4.349995E+05  3.154881E+05  5.789926E+04  3.153538E+05 -5.773946E+03  1.132359E+04
       451  20  4.105494E+05  2.835630E+05  4.951781E+04  2.964990E+05 -3.380084E+02  1.217604E+04
       451  21  3.699414E+05  2.694383E+05  4.449780E+04  2.825636E+05  5.107918E+03  1.301547E+04
       451  22  2.689346E+05  1.971390E+05  8.558872E+03  2.320982E+05 -7.753961E+03  9.834296E+03
       451  23  2.770800E+05  1.883514E+05  9.764621E+03  2.295575E+05 -2.331459E+03  1.067633E+04
       451  24  2.690625E+05  1.973608E+05  1.432048E+04  2.319350E+05  3.101333E+03  1.150556E+04
       451  25  1.029017E+05  7.880666E+04 -4.078398E+04  1.488687E+05 -9.733238E+03  8.345561E+03
       451  26  1.436307E+05  9.315043E+04 -2.999029E+04  1.626326E+05 -4.324318E+03  9.177072E+03
       451  27  1.681947E+05  1.252892E+05 -1.585796E+04  1.813157E+05  1.095192E+03  9.995982E+03
       452   1  3.424391E+05  2.524699E+05  4.019663E+04  2.710846E+05 -8.335902E+03 -1.352056E+04
       452   2  3.198959E+05  2.174959E+05  4.257481E+04  2.502407E+05 -2.174304E+04 -2.039025E+04
       452   3  2.872081E+05  2.079636E+05  5.728499E+04  2.313587E+05 -3.506013E+04 -2.737887E+04
       452   4  2.692286E+05  1.969858E+05  1.794425E+04  2.328441E+05 -6.302844E+03 -1.199053E+04
       452   5  2.763727E+05  1.879332E+05  2.989431E+04  2.290925E+05 -1.982380E+04 -1.894588E+04
       452   6  2.733960E+05  2.043464E+05  5.427553E+04  2.273015E+05 -3.325532E+04 -2.602083E+04
       452   7  1.960232E+05  1.415047E+05 -4.308998E+03  1.946086E+05 -4.270088E+03 -1.046075E+04
       452   8  2.328516E+05  1.583714E+05  1.721364E+04  2.079460E+05 -1.790474E+04 -1.750164E+04
       452   9  2.595844E+05  2.007292E+05  5.126612E+04  2.232445E+05 -3.145059E+04 -2.466280E+04
       452  10  3.424389E+05  2.524696E+05  4.019616E+04  2.710845E+05  1.153148E-09  1.994395E-10
       452  11  3.198953E+05  2.174953E+05  4.257314E+04  2.502404E+05  1.843135E-09 -5.258317E-09
       452  12  2.872066E+05  2.079624E+05  5.728128E+04  2.313579E+05  4.949530E-10 -4.172068E-10
       452  13  2.692285E+05  1.969856E+05  1.794390E+04  2.328441E+05  2.209550E-09 -1.407140E-09
       452  14  2.763722E+05  1.879327E+05  2.989290E+04  2.290922E+05  2.851855E-10 -1.369812E-09
       452  15  2.733947E+05  2.043453E+05  5.427218E+04  2.273008E+05  8.516631E-10  2.300478E-09
       452  16  1.960232E+05  1.415045E+05 -4.309238E+03  1.946086E+05  1.657403E-09  1.062577E-09
       452  17  2.328511E+05  1.583710E+05  1.721246E+04  2.079457E+05  4.649756E-10  1.932260E-09
       452  18  2.595832E+05  2.007283E+05  5.126312E+04  2.232438E+05 -6.155601E-10  1.136310E-09
       452  19  3.424391E+05  2.524699E+05  4.019663E+04  2.710846E+05  8.335902E+03  1.352056E+04
       452  20  3.198959E+05  2.174959E+05  4.257481E+04  2.502407E+05  2.174304E+04  2.039025E+04
       452  21  2.872081E+05  2.079636E+05  5.728499E+04  2.313587E+05  3.506013E+04  2.737887E+04
       452  22  2.692286E+05  1.969858E+05  1.794425E+04  2.328441E+05  6.302844E+03  1.199053E+04
       452  23  2.763727E+05  1.879332E+05  2.989431E+04  2.290925E+05  1.982380E+04  1.894588E+04
       452  24  2.733960E+05  2.043464E+05  5.427553E+04  2.273015E+05  3.325532E+04  2.602083E+04
       452  25  1.960232E+05  1.415047E+05 -4.308998E+03  1.946086E+05  4.270088E+03  1.046075E+04
       452  26  2.328516E+05  1.583714E+05  1.721364E+04  2.079460E+05  1.790474E+04  1.750164E+04
       452  27  2.595844E+05  2.007292E+05  5.126612E+04  2.232445E+05  3.145059E+04  2.466280E+04
       453   1  2.287915E+05  2.130474E+05  6.355199E+04  2.434286E+05 -4.456256E+04 -3.230454E+04
       453   2  2.558458E+05  1.146716E+05  1.020057E+05  1.862147E+05 -9.241857E+04 -6.620382E+04
       453   3  3.737453E+05  1.796064E+05  2.279252E+05  6.645187E+04 -1.383107E+05 -1.027051E+05
       453   4  2.734055E+05  1.952827E+05  6.832596E+04  2.429341E+05 -4.201916E+04 -3.038692E+04
       453   5  2.681098E+05  1.846945E+05  1.168537E+05  2.205101E+05 -9.238547E+04 -6.618746E+04
       453   6  3.541806E+05  3.379364E+05  2.550219E+05  1.355400E+05 -1.407842E+05 -1.046029E+05
       453   7  3.180234E+05  1.775200E+05  7.310044E+04  2.424389E+05 -3.947548E+04 -2.846949E+04
       453   8  2.803762E+05  2.547273E+05  1.317023E+05  2.548079E+05 -9.235237E+04 -6.617109E+04
       453   9  3.346343E+05  4.963244E+05  2.821238E+05  2.046315E+05 -1.432574E+05 -1.065018E+05
       453  10  2.287891E+05  2.130457E+05  6.354630E+04  2.434274E+05  1.693703E-09  4.170157E-09
       453  11  2.558355E+05  1.146646E+05  1.019815E+05  1.862097E+05  6.575079E-10  2.235953E-09
       453  12  3.737219E+05  1.795900E+05  2.278695E+05  6.644044E+04 -1.550742E-09 -1.095980E-09
       453  13  2.734034E+05  1.952812E+05  6.832091E+04  2.429331E+05  2.058716E-09 -1.063418E-09
       453  14  2.680994E+05  1.846875E+05  1.168295E+05  2.205052E+05  1.719320E-09  1.176398E-10
       453  15  3.541564E+05  3.379194E+05  2.549641E+05  1.355282E+05 -1.109404E-09 -2.545936E-09
       453  16  3.180215E+05  1.775187E+05  7.309599E+04  2.424380E+05 -1.081660E-09 -2.084181E-09
       453  17  2.803659E+05  2.547203E+05  1.316781E+05  2.548030E+05  1.518266E-09 -4.582066E-09
       453  18  3.346093E+05  4.963067E+05  2.820640E+05  2.046192E+05  1.930534E-09  5.948910E-10
       453  19  2.287915E+05  2.130474E+05  6.355199E+04  2.434286E+05  4.456256E+04  3.230454E+04
       453  20  2.558458E+05  1.146716E+05  1.020057E+05  1.862147E+05  9.241857E+04  6.620382E+04
       453  21  3.737453E+05  1.796064E+05  2.279252E+05  6.645187E+04  1.383107E+05  1.027051E+05
       453  22  2.734055E+05  1.952827E+05  6.832596E+04  2.429341E+05  4.201916E+04  3.038692E+04
       453  23  2.681098E+05  1.846945E+05  1.168537E+05  2.205101E+05  9.238547E+04  6.618746E+04
       453  24  3.541806E+05  3.379364E+05  2.550219E+05  1.355400E+05  1.407842E+05  1.046029E+05
       453  25  3.180234E+05  1.775200E+05  7.310044E+04  2.424389E+05  3.947548E+04  2.846949E+04
       453  26  2.803762E+05  2.547273E+05  1.317023E+05  2.548079E+05  9.235237E+04  6.617109E+04
       453  27  3.346343E+05  4.963244E+05  2.821238E+05  2.046315E+05  1.432574E+05  1.065018E+05
       454   1  4.654679E+05  1.292339E+05  1.164235E+05  5.689641E+04 -9.403237E+03 -8.578604E+03
       454   2  3.527915E+05  1.397644E+05  1.036085E+05  4.770108E+04 -1.486964E+04 -2.589818E+04
       454   3  2.316497E+05  1.139200E+05  8.525747E+04  8.367361E+04 -2.036803E+04 -2.444748E+04
       454   4 -2.270068E+05 -4.269834E+04 -5.129960E+04  7.699424E+04 -3.501848E+04 -8.625532E+03
       454   5 -2.211767E+05 -4.454057E+02 -2.369566E+04  5.436544E+04 -2.246480E+04 -2.591497E+04
       454   6 -2.269625E+05  2.285900E+03 -1.414882E+04  7.690894E+04 -9.943589E+03 -2.442611E+04
       454   7 -9.190413E+05 -2.146638E+05 -2.190546E+05  9.706937E+04 -6.060523E+04 -8.674145E+03
       454   8 -7.948372E+05 -1.406772E+05 -1.510200E+05  6.102342E+04 -3.005302E+04 -2.593194E+04
       454   9 -6.853770E+05 -1.093619E+05 -1.135672E+05  7.014921E+04  4.732564E+02 -2.440496E+04
       454  10  4.654678E+05  1.292338E+05  1.164232E+05  5.689635E+04  2.622000E-09 -1.206974E-09
       454  11  3.527910E+05  1.397636E+05  1.036068E+05  4.770077E+04  1.734275E-10 -5.628138E-10
       454  12  2.316491E+05  1.139192E+05  8.525556E+04  8.367321E+04 -2.436046E-09 -2.014467E-09
       454  13 -2.270082E+05 -4.269875E+04 -5.130205E+04  7.699399E+04 -1.590139E-10  3.134249E-09
       454  14 -2.211774E+05 -4.462622E+02 -2.369787E+04  5.436498E+04 -1.471708E-09 -1.833702E-10
       454  15 -2.269627E+05  2.285233E+03 -1.415012E+04  7.690874E+04  6.580867E-10 -2.694591E-09
       454  16 -9.190452E+05 -2.146649E+05 -2.190616E+05  9.706895E+04 -2.555881E-09  9.388363E-10
       454  17 -7.948383E+05 -1.406782E+05 -1.510230E+05  6.102279E+04  4.587739E-11 -1.617376E-09
       454  18 -6.853772E+05 -1.093625E+05 -1.135683E+05  7.014922E+04  2.918003E-09 -3.508167E-09
       454  19  4.654679E+05  1.292339E+05  1.164235E+05  5.689641E+04  9.403237E+03  8.578604E+03
       454  20  3.527915E+05  1.397644E+05  1.036085E+05  4.770108E+04  1.486964E+04  2.589818E+04
       454  21  2.316497E+05  1.139200E+05  8.525747E+04  8.367361E+04  2.036803E+04  2.444748E+04
       454  22 -2.270068E+05 -4.269834E+04 -5.129960E+04  7.699424E+04  3.501848E+04  8.625532E+03
       454  23 -2.211767E+05 -4.454057E+02 -2.369566E+04  5.436544E+04  2.246480E+04  2.591497E+04
       454  24 -2.269625E+05  2.285900E+03 -1.414882E+04  7.690894E+04  9.943589E+03  2.442611E+04
       454  25 -9.190413E+05 -2.146638E+05 -2.190546E+05  9.706937E+04  6.060523E+04  8.674145E+03
       454  26 -7.948372E+05 -1.406772E+05 -1.510200E+05  6.102342E+04  3.005302E+04  2.593194E+04
       454  27 -6.853770E+05 -1.093619E+05 -1.135672E+05  7.014921E+04 -4.732564E+02  2.440496E+04
       455   1  1.407978E+05  8.711437E+04  6.803863E+04  7.692860E+04 -1.304014E+04 -1.896749E+04
       455   2  2.453256E+04  6.078639E+04  4.684211E+04  5.432237E+04 -1.031415E+04 -1.323476E+04
       455   3 -9.278318E+04  3.254712E+04  2.333893E+04  7.773737E+04 -7.592352E+03 -6.678432E+03
       455   4 -2.246320E+05 -1.875876E+03 -1.148533E+04  7.712191E+04 -7.934328E+03 -1.895691E+04
       455   5 -2.240225E+05  2.927581E+02 -7.046379E+03  5.410810E+04 -4.419884E+03 -1.322162E+04
       455   6 -2.246142E+05  4.132695E+02 -5.462589E+03  7.711673E+04 -9.091293E+02 -6.662535E+03
       455   7 -5.899365E+05 -9.087497E+04 -9.101721E+04  7.731503E+04 -2.831486E+03 -1.894633E+04
       455   8 -4.725195E+05 -6.020494E+04 -6.093842E+04  5.389387E+04  1.472053E+03 -1.320849E+04
       455   9 -3.564288E+05 -3.172172E+04 -3.426499E+04  7.649620E+04  5.772691E+03 -6.646650E+03
       455  10  1.407975E+05  8.711393E+04  6.803764E+04  7.692840E+04 -2.065723E-09  1.943176E-09
       455  11  2.453240E+04  6.078617E+04  4.684158E+04  5.432226E+04 -2.031104E-09 -1.918300E-10
       455  12 -9.278325E+04  3.254706E+04  2.333874E+04  7.773733E+04 -1.250155E-09  4.925846E-10
       455  13 -2.246321E+05 -1.876279E+03 -1.148613E+04  7.712179E+04  2.738473E-10 -2.071241E-10
       455  14 -2.240226E+05  2.925652E+02 -7.046744E+03  5.410805E+04 -1.580949E-09 -3.808689E-10
       455  15 -2.246142E+05  4.132216E+02 -5.462674E+03  7.711672E+04  1.472059E-10  2.146739E-09
       455  16 -5.899366E+05 -9.087536E+04 -9.101790E+04  7.731499E+04  2.733150E-09  7.323811E-10
       455  17 -4.725196E+05 -6.020513E+04 -6.093875E+04  5.389389E+04  2.586363E-09 -6.113059E-09
       455  18 -3.564289E+05 -3.172177E+04 -3.426514E+04  7.649624E+04  1.072004E-09 -1.171247E-11
       455  19  1.407978E+05  8.711437E+04  6.803863E+04  7.692860E+04  1.304014E+04  1.896749E+04
       455  20  2.453256E+04  6.078639E+04  4.684211E+04  5.432237E+04  1.031415E+04  1.323476E+04
       455  21 -9.278318E+04  3.254712E+04  2.333893E+04  7.773737E+04  7.592352E+03  6.678432E+03
       455  22 -2.246320E+05 -1.875876E+03 -1.148533E+04  7.712191E+04  7.934328E+03  1.895691E+04
       455  23 -2.240225E+05  2.927581E+02 -7.046379E+03  5.410810E+04  4.419884E+03  1.322162E+04
       455  24 -2.246142E+05  4.132695E+02 -5.462589E+03  7.711673E+04  9.091293E+02  6.662535E+03
       455  25 -5.899365E+05 -9.087497E+04 -9.101721E+04  7.731503E+04  2.831486E+03  1.894633E+04
       455  26 -4.725195E+05 -6.020494E+04 -6.093842E+04  5.389387E+04 -1.472053E+03  1.320849E+04
       455  27 -3.564288E+05 -3.172172E+04 -3.426499E+04  7.649620E+04 -5.772691E+03  6.646650E+03
       456   1 -1.855558E+05  9.810911E+03  2.844611E+03  7.689592E+04 -6.597836E+03 -2.579811E+03
       456   2 -3.017649E+05 -1.862280E+04 -2.311525E+04  5.415146E+04 -2.920510E+03  4.025994E+03
       456   3 -4.191368E+05 -4.881932E+04 -5.197317E+04  7.744918E+04  7.580446E+02  1.001517E+04
       456   4 -2.245825E+05  3.740517E+02 -5.311650E+03  7.712130E+04  2.943828E+01 -2.563859E+03
       456   5 -2.240482E+05  3.073462E+02 -6.200922E+03  5.410246E+04  3.114661E+03  4.040237E+03
       456   6 -2.245882E+05 -1.418765E+03 -9.576687E+03  7.712550E+04  6.201795E+03  1.002778E+04
       456   7 -2.636076E+05 -9.062881E+03 -1.346783E+04  7.734667E+04  6.656303E+03 -2.547902E+03
       456   8 -1.463258E+05  1.923711E+04  1.071318E+04  5.405345E+04  9.150578E+03  4.054479E+03
       456   9 -3.000412E+04  4.597929E+04  3.281763E+04  7.680169E+04  1.164723E+04  1.004039E+04
       456  10 -1.855558E+05  9.810892E+03  2.844517E+03  7.689590E+04 -3.633381E-09  4.069793E-09
       456  11 -3.017649E+05 -1.862282E+04 -2.311529E+04  5.415147E+04 -5.962613E-10  1.753216E-09
       456  12 -4.191368E+05 -4.881943E+04 -5.197336E+04  7.744918E+04  3.550159E-09  4.512232E-09
       456  13 -2.245825E+05  3.740446E+02 -5.311662E+03  7.712130E+04  5.411621E-10  2.559459E-09
       456  14 -2.240483E+05  3.073261E+02 -6.200970E+03  5.410245E+04 -9.478754E-10  2.363436E-09
       456  15 -2.245883E+05 -1.418883E+03 -9.576948E+03  7.712545E+04  5.338473E-11 -9.858325E-10
       456  16 -2.636077E+05 -9.062900E+03 -1.346793E+04  7.734668E+04  4.445115E-09  1.484116E-09
       456  17 -1.463259E+05  1.923707E+04  1.071299E+04  5.405342E+04  1.405031E-09 -5.682276E-10
       456  18 -3.000429E+04  4.597914E+04  3.281719E+04  7.680159E+04 -3.803528E-09 -5.694132E-09
       456  19 -1.855558E+05  9.810911E+03  2.844611E+03  7.689592E+04  6.597836E+03  2.579811E+03
       456  20 -3.017649E+05 -1.862280E+04 -2.311525E+04  5.415146E+04  2.920510E+03 -4.025994E+03
       456  21 -4.191368E+05 -4.881932E+04 -5.197317E+04  7.744918E+04 -7.580446E+02 -1.001517E+04
       456  22 -2.245825E+05  3.740517E+02 -5.311650E+03  7.712130E+04 -2.943828E+01  2.563859E+03
       456  23 -2.240482E+05  3.073462E+02 -6.200922E+03  5.410246E+04 -3.114661E+03 -4.040237E+03
       456  24 -2.245882E+05 -1.418765E+03 -9.576687E+03  7.712550E+04 -6.201795E+03 -1.002778E+04
       456  25 -2.636076E+05 -9.062881E+03 -1.346783E+04  7.734667E+04 -6.656303E+03  2.547902E+03
       456  26 -1.463258E+05  1.923711E+04  1.071318E+04  5.405345E+04 -9.150578E+03 -4.054479E+03
       456  27 -3.000412E+04  4.597929E+04  3.281763E+04  7.680169E+04 -1.164723E+04 -1.004039E+04
       457   1 -5.140822E+05 -6.811861E+04 -7.414011E+04  7.159356E+04 -1.654917E+03  1.513346E+04
       457   2 -6.250056E+05 -9.888159E+04 -1.089894E+05  5.972825E+04  2.236946E+04  1.789509E+04
       457   3 -7.478351E+05 -1.640446E+05 -1.681325E+05  9.326202E+04  4.641844E+04  6.219257E+03
       457   4 -2.264706E+05  1.952089E+03 -1.166110E+04  7.696129E+04  7.870020E+03  1.515498E+04
       457   5 -2.217349E+05 -2.761347E+02 -1.928145E+04  5.430006E+04  1.805083E+04  1.788466E+04
       457   6 -2.265024E+05 -3.448618E+04 -4.156808E+04  7.703815E+04  2.826084E+04  6.180253E+03
       457   7  6.121889E+04  7.201745E+04  5.081332E+04  8.233151E+04  1.739931E+04  1.517666E+04
       457   8  1.816878E+05  9.831844E+04  7.041648E+04  4.886822E+04  1.372943E+04  1.787432E+04
       457   9  2.950800E+05  9.505351E+04  8.497809E+04  6.080047E+04  1.008802E+04  6.142217E+03
       457  10 -5.140822E+05 -6.811886E+04 -7.414055E+04  7.159358E+04 -1.604286E-09  2.693377E-09
       457  11 -6.250062E+05 -9.888207E+04 -1.089910E+05  5.972793E+04 -7.818570E-10 -1.373994E-09
       457  12 -7.478374E+05 -1.640453E+05 -1.681366E+05  9.326179E+04  6.723907E-10 -9.825051E-10
       457  13 -2.264707E+05  1.951826E+03 -1.166165E+04  7.696120E+04 -1.604571E-10  2.824166E-09
       457  14 -2.217353E+05 -2.765656E+02 -1.928267E+04  5.429980E+04 -6.738023E-10 -5.744009E-09
       457  15 -2.265033E+05 -3.448644E+04 -4.156965E+04  7.703801E+04 -2.962535E-10  3.348238E-09
       457  16  6.121850E+04  7.201712E+04  5.081232E+04  8.233129E+04  1.630757E-09  8.061830E-10
       457  17  1.816875E+05  9.831804E+04  7.041553E+04  4.886803E+04  7.757312E-10  3.060822E-09
       457  18  2.950799E+05  9.505344E+04  8.497783E+04  6.080042E+04 -9.900233E-10 -4.003363E-10
       457  19 -5.140822E+05 -6.811861E+04 -7.414011E+04  7.159356E+04  1.654917E+03 -1.513346E+04
       457  20 -6.250056E+05 -9.888159E+04 -1.089894E+05  5.972825E+04 -2.236946E+04 -1.789509E+04
       457  21 -7.478351E+05 -1.640446E+05 -1.681325E+05  9.326202E+04 -4.641844E+04 -6.219257E+03
       457  22 -2.264706E+05  1.952089E+03 -1.166110E+04  7.696129E+04 -7.870020E+03 -1.515498E+04
       457  23 -2.217349E+05 -2.761347E+02 -1.928145E+04  5.430006E+04 -1.805083E+04 -1.788466E+04
       457  24 -2.265024E+05 -3.448618E+04 -4.156808E+04  7.703815E+04 -2.826084E+04 -6.180253E+03
       457  25  6.121889E+04  7.201745E+04  5.081332E+04  8.233151E+04 -1.739931E+04 -1.517666E+04
       457  26  1.816878E+05  9.831844E+04  7.041648E+04  4.886822E+04 -1.372943E+04 -1.787432E+04
       457  27  2.950800E+05  9.505351E+04  8.497809E+04  6.080047E+04 -1.008802E+04 -6.142217E+03
       458   1 -3.141271E+05 -1.337939E+06 -3.183547E+05  2.081325E+05 -1.155977E+04 -8.344089E+04
       458   2 -1.867445E+05 -1.058245E+06 -1.981667E+05  1.373536E+05 -3.303816E+04 -4.029416E+04
       458   3 -1.170050E+05 -7.980142E+05 -1.204516E+05  1.716027E+05 -2.561965E+04  2.911418E+03
       458   4 -5.768262E+04 -3.077058E+05 -6.781298E+04  1.793859E+05 -1.159662E+04 -4.909882E+04
       458   5 -1.214337E+03 -3.002946E+05 -2.919462E+04  1.269059E+05 -3.304141E+04 -3.362056E+04
       458   6  2.464999E+03 -3.075758E+05 -1.377686E+04  1.794548E+05 -2.560260E+04 -1.810358E+04
       458   7  1.986873E+05  7.235016E+05  1.826567E+05  1.505915E+05 -1.163664E+04 -1.469977E+04
       458   8  1.842772E+05  4.581923E+05  1.397417E+05  1.164454E+05 -3.304490E+04 -2.693888E+04
       458   9  1.219195E+05  1.830895E+05  9.288512E+04  1.873131E+05 -2.558609E+04 -3.913497E+04
       458  10 -3.141291E+05 -1.337946E+06 -3.183681E+05  2.081317E+05 -2.531833E-10  2.440445E-09
       458  11 -1.867461E+05 -1.058247E+06 -1.981718E+05  1.373525E+05 -8.820667E-10  2.308910E-09
       458  12 -1.170057E+05 -7.980144E+05 -1.204528E+05  1.716028E+05  6.427852E-10  1.639483E-09
       458  13 -5.768342E+04 -3.077085E+05 -6.781777E+04  1.793854E+05  5.532770E-10  3.257870E-10
       458  14 -1.215812E+03 -3.002961E+05 -2.919879E+04  1.269050E+05 -1.802178E-09  2.682703E-09
       458  15  2.464207E+03 -3.075763E+05 -1.377871E+04  1.794544E+05  2.158657E-10  3.010529E-09
       458  16  1.986871E+05  7.235013E+05  1.826561E+05  1.505913E+05 -2.539197E-10 -7.321700E-11
       458  17  1.842759E+05  4.581913E+05  1.397383E+05  1.164447E+05 -5.566255E-10 -4.220136E-10
       458  18  1.219184E+05  1.830877E+05  9.288102E+04  1.873123E+05  3.827833E-10 -1.100428E-09
       458  19 -3.141271E+05 -1.337939E+06 -3.183547E+05  2.081325E+05  1.155977E+04  8.344089E+04
       458  20 -1.867445E+05 -1.058245E+06 -1.981667E+05  1.373536E+05  3.303816E+04  4.029416E+04
       458  21 -1.170050E+05 -7.980142E+05 -1.204516E+05  1.716027E+05  2.561965E+04 -2.911418E+03
       458  22 -5.768262E+04 -3.077058E+05 -6.781298E+04  1.793859E+05  1.159662E+04  4.909882E+04
       458  23 -1.214337E+03 -3.002946E+05 -2.919462E+04  1.269059E+05  3.304141E+04  3.362056E+04
       458  24  2.464999E+03 -3.075758E+05 -1.377686E+04  1.794548E+05  2.560260E+04  1.810358E+04
       458  25  1.986873E+05  7.235016E+05  1.826567E+05  1.505915E+05  1.163664E+04  1.469977E+04
       458  26  1.842772E+05  4.581923E+05  1.397417E+05  1.164454E+05  3.304490E+04  2.693888E+04
       458  27  1.219195E+05  1.830895E+05  9.288512E+04  1.873131E+05  2.558609E+04  3.913497E+04
       459   1 -7.056859E+04 -5.794308E+05 -6.853765E+04  1.801283E+05 -1.402259E+04 -3.278036E+03
       459   2 -1.521117E+03 -3.097735E+05  1.724211E+03  1.270537E+05 -2.810672E+02 -4.697894E+03
       459   3  6.835782E+04 -3.938711E+04  7.316727E+04  1.803747E+05  1.347033E+04 -6.118458E+03
       459   4 -3.460381E+03 -3.041279E+05 -8.441661E+03  1.797381E+05 -1.401334E+04 -1.645897E+04
       459   5 -2.266649E+02 -3.044591E+05  2.876226E+03  1.265429E+05 -2.717243E+02 -1.788869E+04
       459   6  3.846146E+03 -3.041244E+05  1.538872E+04  1.797432E+05  1.347952E+04 -1.931852E+04
       459   7  6.364287E+04 -2.875361E+04  5.165041E+04  1.793476E+05 -1.400408E+04 -2.964568E+04
       459   8  1.067880E+03 -2.991443E+05  4.028893E+03  1.260321E+05 -2.623597E+02 -3.107960E+04
       459   9 -6.067010E+04 -5.687957E+05 -4.239339E+04  1.791120E+05  1.348874E+04 -3.251301E+04
       459  10 -7.056880E+04 -5.794308E+05 -6.853804E+04  1.801283E+05  5.279148E-10  1.652357E-09
       459  11 -1.521123E+03 -3.097735E+05  1.724170E+03  1.270537E+05 -5.604829E-10  2.192168E-09
       459  12  6.835761E+04 -3.938720E+04  7.316685E+04  1.803748E+05 -3.147390E-10  8.218245E-11
       459  13 -3.460664E+03 -3.041282E+05 -8.442539E+03  1.797379E+05  6.084825E-10  5.222642E-10
       459  14 -2.267509E+02 -3.044594E+05  2.875624E+03  1.265429E+05 -6.110102E-10  1.974261E-09
       459  15  3.845851E+03 -3.041249E+05  1.538768E+04  1.797434E+05  1.246463E-09  2.368462E-09
       459  16  6.364242E+04 -2.875460E+04  5.164840E+04  1.793473E+05  5.826257E-10  3.769544E-11
       459  17  1.067620E+03 -2.991454E+05  4.027077E+03  1.260321E+05  4.206562E-10  3.865847E-10
       459  18 -6.067058E+04 -5.687969E+05 -4.239572E+04  1.791124E+05 -1.179906E-10  1.624944E-10
       459  19 -7.056859E+04 -5.794308E+05 -6.853765E+04  1.801283E+05  1.402259E+04  3.278036E+03
       459  20 -1.521117E+03 -3.097735E+05  1.724211E+03  1.270537E+05  2.810672E+02  4.697894E+03
       459  21  6.835782E+04 -3.938711E+04  7.316727E+04  1.803747E+05 -1.347033E+04  6.118458E+03
       459  22 -3.460381E+03 -3.041279E+05 -8.441661E+03  1.797381E+05  1.401334E+04  1.645897E+04
       459  23 -2.266649E+02 -3.044591E+05  2.876226E+03  1.265429E+05  2.717243E+02  1.788869E+04
       459  24  3.846146E+03 -3.041244E+05  1.538872E+04  1.797432E+05 -1.347952E+04  1.931852E+04
       459  25  6.364287E+04 -2.875361E+04  5.165041E+04  1.793476E+05  1.400408E+04  2.964568E+04
       459  26  1.067880E+03 -2.991443E+05  4.028893E+03  1.260321E+05  2.623597E+02  3.107960E+04
       459  27 -6.067010E+04 -5.687957E+05 -4.239339E+04  1.791120E+05 -1.348874E+04  3.251301E+04
       460   1  1.127932E+05  1.804195E+05  1.260851E+05  1.680229E+05  2.503395E+04 -1.201666E+03
       460   2  1.835600E+05  4.376001E+05  2.078404E+05  1.398373E+05  3.261592E+04 -5.051585E+04
       460   3  3.312558E+05  7.209980E+05  3.410159E+05  2.168371E+05  1.161645E+04 -9.988957E+04
       460   4 -4.098030E+03 -2.995491E+05  2.172953E+04  1.794465E+05  2.505071E+04 -2.215387E+04
       460   5  7.064549E+02 -3.103136E+05  4.124598E+04  1.269021E+05  3.261324E+04 -4.399291E+04
       460   6  7.772746E+04 -2.996551E+05  9.314226E+04  1.795400E+05  1.158276E+04 -6.586937E+04
       460   7 -1.210038E+05 -7.793005E+05 -8.263813E+04  1.908612E+05  2.506671E+04 -4.309008E+04
       460   8 -1.821844E+05 -1.057705E+06 -1.253832E+05  1.139827E+05  3.261029E+04 -3.747771E+04
       460   9 -1.758715E+05 -1.319352E+06 -1.548016E+05  1.423045E+05  1.154496E+04 -3.190481E+04
       460  10  1.127925E+05  1.804193E+05  1.260839E+05  1.680229E+05  7.229074E-11  3.985446E-10
       460  11  1.835582E+05  4.375971E+05  2.078336E+05  1.398386E+05 -1.738804E-09  2.754817E-09
       460  12  3.312530E+05  7.209872E+05  3.409969E+05  2.168380E+05 -4.298780E-10  8.053703E-10
       460  13 -4.098836E+03 -2.995498E+05  2.172743E+04  1.794470E+05 -8.645062E-10  2.276483E-10
       460  14  7.047926E+02 -3.103159E+05  4.124034E+04  1.269032E+05 -2.174175E-09  1.904146E-09
       460  15  7.772615E+04 -2.996598E+05  9.313385E+04  1.795406E+05 -1.046078E-09  4.374089E-09
       460  16 -1.210050E+05 -7.793026E+05 -8.264280E+04  1.908620E+05  1.634529E-10  1.063705E-09
       460  17 -1.821859E+05 -1.057707E+06 -1.253878E+05  1.139836E+05  1.763291E-10  3.556301E-10
       460  18 -1.758719E+05 -1.319353E+06 -1.548037E+05  1.423048E+05 -3.549019E-10 -3.641858E-10
       460  19  1.127932E+05  1.804195E+05  1.260851E+05  1.680229E+05 -2.503395E+04  1.201666E+03
       460  20  1.835600E+05  4.376001E+05  2.078404E+05  1.398373E+05 -3.261592E+04  5.051585E+04
       460  21  3.312558E+05  7.209980E+05  3.410159E+05  2.168371E+05 -1.161645E+04  9.988957E+04
       460  22 -4.098030E+03 -2.995491E+05  2.172953E+04  1.794465E+05 -2.505071E+04  2.215387E+04
       460  23  7.064549E+02 -3.103136E+05  4.124598E+04  1.269021E+05 -3.261324E+04  4.399291E+04
       460  24  7.772746E+04 -2.996551E+05  9.314226E+04  1.795400E+05 -1.158276E+04  6.586937E+04
       460  25 -1.210038E+05 -7.793005E+05 -8.263813E+04  1.908612E+05 -2.506671E+04  4.309008E+04
       460  26 -1.821844E+05 -1.057705E+06 -1.253832E+05  1.139827E+05 -3.261029E+04  3.747771E+04
       460  27 -1.758715E+05 -1.319352E+06 -1.548016E+05  1.423045E+05 -1.154496E+04  3.190481E+04
       461   1  5.514818E+05  4.838774E+05  1.839465E+05  3.583991E+05  8.086024E+04  5.728063E+04
       461   2  5.250234E+05  3.614031E+05  1.040088E+05  3.862219E+05  5.461556E+04  2.979210E+04
       461   3  5.484422E+05  3.228107E+05  7.424029E+04  3.812440E+05  2.496252E+04  6.836047E+03
       461   4  4.462285E+05  3.196204E+05  1.318008E+05  2.654235E+05  7.393130E+04  5.205518E+04
       461   5  4.008891E+05  2.412961E+05  6.061983E+04  3.095770E+05  5.204239E+04  2.785271E+04
       461   6  4.044920E+05  2.459157E+05  3.583249E+04  3.209265E+05  2.674573E+04  8.178887E+03
       461   7  3.409923E+05  1.554059E+05  7.965409E+04  1.724738E+05  6.700392E+04  4.683279E+04
       461   8  2.767725E+05  1.212082E+05  1.722903E+04  2.329525E+05  4.946991E+04  2.591410E+04
       461   9  2.605649E+05  1.690264E+05 -2.577005E+03  2.606228E+05  2.852837E+04  9.521436E+03
       461  10  5.514739E+05  4.838721E+05  1.839281E+05  3.583954E+05  6.037009E-11  1.000489E-10
       461  11  5.250200E+05  3.614013E+05  1.040015E+05  3.862206E+05 -1.152223E-11  7.773879E-10
       461  12  5.484415E+05  3.228105E+05  7.423903E+04  3.812438E+05 -5.209731E-10 -3.016584E-10
       461  13  4.462219E+05  3.196161E+05  1.317854E+05  2.654204E+05 -5.259056E-10  5.042828E-10
       461  14  4.008860E+05  2.412946E+05  6.061329E+04  3.095758E+05  1.148749E-09  4.342426E-09
       461  15  4.044912E+05  2.459154E+05  3.583102E+04  3.209263E+05 -8.502233E-10  2.693356E-09
       461  16  3.409869E+05  1.554023E+05  7.964154E+04  1.724713E+05 -3.154419E-11  1.093616E-09
       461  17  2.767697E+05  1.212069E+05  1.722317E+04  2.329515E+05  6.255784E-10 -1.495951E-09
       461  18  2.605641E+05  1.690261E+05 -2.578703E+03  2.606225E+05 -1.001794E-09  3.088893E-10
       461  19  5.514818E+05  4.838774E+05  1.839465E+05  3.583991E+05 -8.086024E+04 -5.728063E+04
       461  20  5.250234E+05  3.614031E+05  1.040088E+05  3.862219E+05 -5.461556E+04 -2.979210E+04
       461  21  5.484422E+05  3.228107E+05  7.424029E+04  3.812440E+05 -2.496252E+04 -6.836047E+03
       461  22  4.462285E+05  3.196204E+05  1.318008E+05  2.654235E+05 -7.393130E+04 -5.205518E+04
       461  23  4.008891E+05  2.412961E+05  6.061983E+04  3.095770E+05 -5.204239E+04 -2.785271E+04
       461  24  4.044920E+05  2.459157E+05  3.583249E+04  3.209265E+05 -2.674573E+04 -8.178887E+03
       461  25  3.409923E+05  1.554059E+05  7.965409E+04  1.724738E+05 -6.700392E+04 -4.683279E+04
       461  26  2.767725E+05  1.212082E+05  1.722903E+04  2.329525E+05 -4.946991E+04 -2.591410E+04
       461  27  2.605649E+05  1.690264E+05 -2.577005E+03  2.606228E+05 -2.852837E+04 -9.521436E+03
       462   1  5.205429E+05  3.365176E+05  6.405877E+04  3.724743E+05  2.152537E+04  5.620972E+03
       462   2  5.088953E+05  3.175854E+05  4.779144E+04  3.663311E+05  1.416106E+04  1.048835E+03
       462   3  4.937337E+05  3.103036E+05  3.854258E+04  3.607692E+05  6.643863E+03 -3.320097E+03
       462   4  4.044745E+05  2.506286E+05  2.876805E+04  3.128629E+05  2.202113E+04  5.993903E+03
       462   5  4.051771E+05  2.429256E+05  1.674727E+04  3.140037E+05  1.485349E+04  1.569980E+03
       462   6  4.023238E+05  2.468308E+05  1.157543E+04  3.157256E+05  7.532833E+03 -2.650855E+03
       462   7  2.884196E+05  1.647471E+05 -6.524650E+03  2.532637E+05  2.251677E+04  6.366737E+03
       462   8  3.014706E+05  1.682720E+05 -1.429811E+04  2.616863E+05  1.554576E+04  2.091004E+03
       462   9  3.109240E+05  1.833631E+05 -1.539232E+04  2.706900E+05  8.421615E+03 -1.981750E+03
       462  10  5.205424E+05  3.365174E+05  6.405785E+04  3.724742E+05  1.371928E-10  2.474139E-09
       462  11  5.088951E+05  3.175854E+05  4.779106E+04  3.663311E+05  1.578898E-10  2.303681E-09
       462  12  4.937336E+05  3.103036E+05  3.854248E+04  3.607692E+05  1.937691E-09  1.554574E-09
       462  13  4.044740E+05  2.506284E+05  2.876707E+04  3.128628E+05 -1.947444E-09  1.241070E-09
       462  14  4.051768E+05  2.429255E+05  1.674685E+04  3.140037E+05  2.037009E-09 -1.586179E-09
       462  15  4.023238E+05  2.468308E+05  1.157531E+04  3.157257E+05 -8.492929E-10  9.309958E-10
       462  16  2.884190E+05  1.647469E+05 -6.525679E+03  2.532636E+05 -6.025153E-10  1.468727E-09
       462  17  3.014703E+05  1.682719E+05 -1.429858E+04  2.616863E+05 -6.152835E-10  1.280915E-10
       462  18  3.109239E+05  1.833630E+05 -1.539246E+04  2.706900E+05 -1.290928E-09 -2.681028E-09
       462  19  5.205429E+05  3.365176E+05  6.405877E+04  3.724743E+05 -2.152537E+04 -5.620972E+03
       462  20  5.088953E+05  3.175854E+05  4.779144E+04  3.663311E+05 -1.416106E+04 -1.048835E+03
       462  21  4.937337E+05  3.103036E+05  3.854258E+04  3.607692E+05 -6.643863E+03  3.320097E+03
       462  22  4.044745E+05  2.506286E+05  2.876805E+04  3.128629E+05 -2.202113E+04 -5.993903E+03
       462  23  4.051771E+05  2.429256E+05  1.674727E+04  3.140037E+05 -1.485349E+04 -1.569980E+03
       462  24  4.023238E+05  2.468308E+05  1.157543E+04  3.157256E+05 -7.532833E+03  2.650855E+03
       462  25  2.884196E+05  1.647471E+05 -6.524650E+03  2.532637E+05 -2.251677E+04 -6.366737E+03
       462  26  3.014706E+05  1.682720E+05 -1.429811E+04  2.616863E+05 -1.554576E+04 -2.091004E+03
       462  27  3.109240E+05  1.833631E+05 -1.539232E+04  2.706900E+05 -8.421615E+03  1.981750E+03
       463   1  4.817961E+05  3.037532E+05  3.407874E+04  3.552007E+05  4.742710E+03 -3.922647E+03
       463   2  4.712836E+05  2.901185E+05  2.996398E+04  3.472762E+05 -1.352912E+01 -6.145895E+03
       463   3  4.545114E+05  2.844714E+05  2.940276E+04  3.414196E+05 -4.774331E+03 -8.363128E+03
       463   4  4.022878E+05  2.470223E+05  1.044034E+04  3.153066E+05  5.572427E+03 -3.297976E+03
       463   5  4.054540E+05  2.430915E+05  1.034782E+04  3.142259E+05  8.225329E+02 -5.516378E+03
       463   6  4.023589E+05  2.471472E+05  1.380367E+04  3.152130E+05 -3.932068E+03 -7.728867E+03
       463   7  3.227864E+05  1.902950E+05 -1.319878E+04  2.754183E+05  6.402000E+03 -2.673413E+03
       463   8  3.396287E+05  1.960668E+05 -9.268954E+03  2.811794E+05  1.658479E+03 -4.886948E+03
       463   9  3.502088E+05  2.098242E+05 -1.795897E+03  2.890087E+05 -3.089892E+03 -7.094672E+03
       463  10  4.817961E+05  3.037532E+05  3.407867E+04  3.552008E+05 -3.883060E-10  4.544434E-10
       463  11  4.712836E+05  2.901185E+05  2.996391E+04  3.472762E+05 -1.457245E-09  2.798928E-09
       463  12  4.545113E+05  2.844713E+05  2.940258E+04  3.414195E+05 -6.295323E-10 -1.188366E-09
       463  13  4.022878E+05  2.470223E+05  1.044026E+04  3.153066E+05 -5.836526E-10 -2.290448E-09
       463  14  4.054540E+05  2.430915E+05  1.034776E+04  3.142259E+05 -2.793427E-10  2.482322E-09
       463  15  4.023589E+05  2.471471E+05  1.380353E+04  3.152130E+05  2.413928E-10 -6.024012E-10
       463  16  3.227864E+05  1.902950E+05 -1.319887E+04  2.754183E+05  1.804834E-09  3.796031E-10
       463  17  3.396287E+05  1.960668E+05 -9.269004E+03  2.811794E+05  1.793452E-09 -7.513579E-09
       463  18  3.502088E+05  2.098242E+05 -1.796010E+03  2.890087E+05 -1.045604E-09  3.197155E-10
       463  19  4.817961E+05  3.037532E+05  3.407874E+04  3.552007E+05 -4.742710E+03  3.922647E+03
       463  20  4.712836E+05  2.901185E+05  2.996398E+04  3.472762E+05  1.352912E+01  6.145895E+03
       463  21  4.545114E+05  2.844714E+05  2.940276E+04  3.414196E+05  4.774331E+03  8.363128E+03
       463  22  4.022878E+05  2.470223E+05  1.044034E+04  3.153066E+05 -5.572427E+03  3.297976E+03
       463  23  4.054540E+05  2.430915E+05  1.034782E+04  3.142259E+05 -8.225329E+02  5.516378E+03
       463  24  4.023589E+05  2.471472E+05  1.380367E+04  3.152130E+05  3.932068E+03  7.728867E+03
       463  25  3.227864E+05  1.902950E+05 -1.319878E+04  2.754183E+05 -6.402000E+03  2.673413E+03
       463  26  3.396287E+05  1.960668E+05 -9.268954E+03  2.811794E+05 -1.658479E+03  4.886948E+03
       463  27  3.502088E+05  2.098242E+05 -1.795897E+03  2.890087E+05  3.089892E+03  7.094672E+03
       464   1  4.421587E+05  2.780769E+05  2.913915E+04  3.372914E+05 -7.334494E+03 -9.485955E+03
       464   2  4.334131E+05  2.617783E+05  3.562480E+04  3.275329E+05 -1.890264E+04 -1.684263E+04
       464   3  4.237389E+05  2.602714E+05  5.341897E+04  3.171863E+05 -3.044222E+04 -2.423662E+04
       464   4  4.024948E+05  2.468082E+05  1.686050E+04  3.160184E+05 -6.485132E+03 -8.846277E+03
       464   5  4.048358E+05  2.427263E+05  2.735410E+04  3.138118E+05 -1.808886E+04 -1.622980E+04
       464   6  4.062555E+05  2.534434E+05  4.918725E+04  3.110167E+05 -2.966432E+04 -2.365102E+04
       464   7  3.628332E+05  2.155411E+05  4.581809E+03  2.947471E+05 -5.635851E+03 -8.206669E+03
       464   8  3.762595E+05  2.236747E+05  1.908336E+04  3.000914E+05 -1.727513E+04 -1.561702E+04
       464   9  3.887725E+05  2.466154E+05  4.495551E+04  3.048473E+05 -2.888645E+04 -2.306544E+04
       464  10  4.421586E+05  2.780768E+05  2.913888E+04  3.372914E+05  8.762233E-10  3.910531E-11
       464  11  4.334126E+05  2.617779E+05  3.562360E+04  3.275326E+05 -3.539143E-10 -5.358099E-09
       464  12  4.237377E+05  2.602706E+05  5.341613E+04  3.171857E+05 -2.680983E-09 -1.812391E-10
       464  13  4.024948E+05  2.468082E+05  1.686027E+04  3.160183E+05  9.471363E-10 -5.360112E-10
       464  14  4.048354E+05  2.427259E+05  2.735299E+04  3.138115E+05  1.009433E-09  1.444272E-09
       464  15  4.062544E+05  2.534426E+05  4.918454E+04  3.110161E+05 -7.788423E-11  1.067551E-08
       464  16  3.628331E+05  2.155410E+05  4.581623E+03  2.947471E+05 -2.468571E-09 -2.253874E-10
       464  17  3.762591E+05  2.236744E+05  1.908234E+04  3.000912E+05  1.720815E-09  2.633994E-09
       464  18  3.887714E+05  2.466146E+05  4.495295E+04  3.048467E+05 -2.103497E-10  4.423902E-09
       464  19  4.421587E+05  2.780769E+05  2.913915E+04  3.372914E+05  7.334494E+03  9.485955E+03
       464  20  4.334131E+05  2.617783E+05  3.562480E+04  3.275329E+05  1.890264E+04  1.684263E+04
       464  21  4.237389E+05  2.602714E+05  5.341897E+04  3.171863E+05  3.044222E+04  2.423662E+04
       464  22  4.024948E+05  2.468082E+05  1.686050E+04  3.160184E+05  6.485132E+03  8.846277E+03
       464  23  4.048358E+05  2.427263E+05  2.735410E+04  3.138118E+05  1.808886E+04  1.622980E+04
       464  24  4.062555E+05  2.534434E+05  4.918725E+04  3.110167E+05  2.966432E+04  2.365102E+04
       464  25  3.628332E+05  2.155411E+05  4.581809E+03  2.947471E+05  5.635851E+03  8.206669E+03
       464  26  3.762595E+05  2.236747E+05  1.908336E+04  3.000914E+05  1.727513E+04  1.561702E+04
       464  27  3.887725E+05  2.466154E+05  4.495551E+04  3.048473E+05  2.888645E+04  2.306544E+04
       465   1  3.835036E+05  2.737981E+05  6.276662E+04  3.343248E+05 -3.807123E+04 -2.908581E+04
       465   2  4.195368E+05  2.002034E+05  1.023114E+05  2.916893E+05 -8.232971E+04 -6.140313E+04
       465   3  5.460114E+05  2.661118E+05  2.220784E+05  1.902600E+05 -1.259778E+05 -9.452779E+04
       465   4  4.062361E+05  2.452911E+05  6.180926E+04  3.251275E+05 -3.706360E+04 -2.832429E+04
       465   5  3.974094E+05  2.397852E+05  1.055149E+05  3.060559E+05 -8.210346E+04 -6.123970E+04
       465   6  4.791798E+05  3.739405E+05  2.301214E+05  2.281935E+05 -1.265276E+05 -9.497184E+04
       465   7  4.289706E+05  2.167865E+05  6.085229E+04  3.159296E+05 -3.605589E+04 -2.756286E+04
       465   8  3.752844E+05  2.793715E+05  1.087189E+05  3.204220E+05 -8.187723E+04 -6.107624E+04
       465   9  4.123683E+05  4.818024E+05  2.381690E+05  2.661219E+05 -1.270773E+05 -9.541607E+04
       465  10  3.835019E+05  2.737968E+05  6.276231E+04  3.343239E+05  4.772738E-09 -1.629781E-09
       465  11  4.195285E+05  2.001975E+05  1.022916E+05  2.916853E+05  3.221722E-09 -7.671477E-09
       465  12  5.459920E+05  2.660980E+05  2.220319E+05  1.902504E+05 -1.479043E-09 -3.949836E-09
       465  13  4.062344E+05  2.452899E+05  6.180518E+04  3.251267E+05  1.001786E-09  2.504267E-09
       465  14  3.974012E+05  2.397794E+05  1.054952E+05  3.060519E+05  1.834516E-09  3.454378E-09
       465  15  4.791602E+05  3.739266E+05  2.300744E+05  2.281838E+05  3.732756E-10  8.275335E-10
       465  16  4.289690E+05  2.167853E+05  6.084842E+04  3.159288E+05 -6.385223E-09  5.450726E-09
       465  17  3.752762E+05  2.793657E+05  1.086993E+05  3.204180E+05 -1.285273E-09  6.598463E-09
       465  18  4.123485E+05  4.817883E+05  2.381216E+05  2.661122E+05  2.528443E-09  5.244398E-09
       465  19  3.835036E+05  2.737981E+05  6.276662E+04  3.343248E+05  3.807123E+04  2.908581E+04
       465  20  4.195368E+05  2.002034E+05  1.023114E+05  2.916893E+05  8.232971E+04  6.140313E+04
       465  21  5.460114E+05  2.661118E+05  2.220784E+05  1.902600E+05  1.259778E+05  9.452779E+04
       465  22  4.062361E+05  2.452911E+05  6.180926E+04  3.251275E+05  3.706360E+04  2.832429E+04
       465  23  3.974094E+05  2.397852E+05  1.055149E+05  3.060559E+05  8.210346E+04  6.123970E+04
       465  24  4.791798E+05  3.739405E+05  2.301214E+05  2.281935E+05  1.265276E+05  9.497184E+04
       465  25  4.289706E+05  2.167865E+05  6.085229E+04  3.159296E+05  3.605589E+04  2.756286E+04
       465  26  3.752844E+05  2.793715E+05  1.087189E+05  3.204220E+05  8.187723E+04  6.107624E+04
       465  27  4.123683E+05  4.818024E+05  2.381690E+05  2.661219E+05  1.270773E+05  9.541607E+04
       466   1  3.263356E+05  9.556029E+04  8.906223E+04  4.592425E+04  1.941771E+03 -5.590267E+03
       466   2  2.456670E+05  9.121930E+04  7.293748E+04  3.563992E+04 -4.684587E+03 -1.679990E+04
       466   3  1.621161E+05  7.232636E+04  5.747857E+04  5.711241E+04 -1.133473E+04 -1.557298E+04
       466   4 -1.306534E+05 -1.793102E+04 -2.166612E+04  5.411397E+04 -1.477535E+04 -5.624206E+03
       466   5 -1.281615E+05 -1.162173E+02 -1.001561E+04  3.821494E+04 -9.460062E+03 -1.681078E+04
       466   6 -1.306340E+05  1.068936E+03 -5.993053E+03  5.407450E+04 -4.169376E+03 -1.555734E+04
       466   7 -5.874509E+05 -1.314372E+05 -1.324084E+05  6.229755E+04 -3.148020E+04 -5.658599E+03
       466   8 -5.018595E+05 -9.146114E+04 -9.297730E+04  4.078832E+04 -1.423269E+04 -1.682171E+04
       466   9 -4.233036E+05 -7.019410E+04 -6.946958E+04  5.103799E+04  2.992642E+03 -1.554176E+04
       466  10  3.263356E+05  9.556025E+04  8.906216E+04  4.592426E+04 -4.711655E-09  1.424427E-09
       466  11  2.456669E+05  9.121899E+04  7.293691E+04  3.563986E+04 -1.504843E-09  4.509781E-09
       466  12  1.621159E+05  7.232606E+04  5.747787E+04  5.711227E+04  2.676819E-09  2.221381E-09
       466  13 -1.306536E+05 -1.793112E+04 -2.166659E+04  5.411391E+04  8.818288E-11 -3.239865E-09
       466  14 -1.281617E+05 -1.165448E+02 -1.001631E+04  3.821481E+04 -1.003507E-09 -6.250389E-09
       466  15 -1.306341E+05  1.068672E+03 -5.993541E+03  5.407445E+04 -5.094648E-10 -3.345246E-10
       466  16 -5.874520E+05 -1.314375E+05 -1.324103E+05  6.229740E+04  4.740436E-09 -7.274734E-11
       466  17 -5.018598E+05 -9.146150E+04 -9.297821E+04  4.078813E+04  5.272247E-10  6.553884E-09
       466  18 -4.233037E+05 -7.019436E+04 -6.947005E+04  5.103803E+04 -2.990199E-09 -5.609094E-11
       466  19  3.263356E+05  9.556029E+04  8.906223E+04  4.592425E+04 -1.941771E+03  5.590267E+03
       466  20  2.456670E+05  9.121930E+04  7.293748E+04  3.563992E+04  4.684587E+03  1.679990E+04
       466  21  1.621161E+05  7.232636E+04  5.747857E+04  5.711241E+04  1.133473E+04  1.557298E+04
       466  22 -1.306534E+05 -1.793102E+04 -2.166612E+04  5.411397E+04  1.477535E+04  5.624206E+03
       466  23 -1.281615E+05 -1.162173E+02 -1.001561E+04  3.821494E+04  9.460062E+03  1.681078E+04
       466  24 -1.306340E+05  1.068936E+03 -5.993053E+03  5.407450E+04  4.169376E+03  1.555734E+04
       466  25 -5.874509E+05 -1.314372E+05 -1.324084E+05  6.229755E+04  3.148020E+04  5.658599E+03
       466  26 -5.018595E+05 -9.146114E+04 -9.297730E+04  4.078832E+04  1.423269E+04  1.682171E+04
       466  27 -4.233036E+05 -7.019410E+04 -6.946958E+04  5.103799E+04 -2.992642E+03  1.554176E+04
       467   1  9.767797E+04  5.467308E+04  4.460245E+04  5.426041E+04 -6.962909E+03 -1.178457E+04
       467   2  1.590992E+04  3.555476E+04  2.848490E+04  3.821389E+04 -5.980833E+03 -7.718049E+03
       467   3 -6.633344E+04  1.571857E+04  1.150761E+04  5.448181E+04 -5.000899E+03 -3.109013E+03
       467   4 -1.296510E+05 -6.877096E+02 -4.874938E+03  5.420918E+04 -3.320524E+03 -1.177651E+04
       467   5 -1.293606E+05  1.978570E+02 -3.019925E+03  3.805061E+04 -1.818331E+03 -7.708468E+03
       467   6 -1.296437E+05  2.751442E+02 -2.386325E+03  5.420696E+04 -3.181614E+02 -3.097828E+03
       467   7 -3.569314E+05 -5.605192E+04 -5.435537E+04  5.415795E+04  3.205455E+02 -1.176845E+04
       467   8 -2.746114E+05 -3.516044E+04 -3.452594E+04  3.788736E+04  2.343210E+03 -7.698887E+03
       467   9 -1.929503E+05 -1.516854E+04 -1.628042E+04  5.393214E+04  4.364104E+03 -3.086646E+03
       467  10  9.767788E+04  5.467292E+04  4.460209E+04  5.426034E+04 -6.799348E-10 -2.344458E-09
       467  11  1.590986E+04  3.555469E+04  2.848472E+04  3.821385E+04 -4.693136E-10  2.219001E-09
       467  12 -6.633347E+04  1.571856E+04  1.150754E+04  5.448179E+04  2.701044E-09  8.005538E-09
       467  13 -1.296510E+05 -6.878615E+02 -4.875219E+03  5.420915E+04 -1.003703E-10  7.304098E-09
       467  14 -1.293607E+05  1.977923E+02 -3.020043E+03  3.805060E+04 -9.197325E-10 -1.400978E-08
       467  15 -1.296437E+05  2.751339E+02 -2.386343E+03  5.420696E+04  3.070191E-10  6.403041E-09
       467  16 -3.569315E+05 -5.605207E+04 -5.435563E+04  5.415795E+04  1.377504E-09 -3.593273E-09
       467  17 -2.746114E+05 -3.516050E+04 -3.452606E+04  3.788738E+04  6.079506E-10 -6.762267E-10
       467  18 -1.929503E+05 -1.516856E+04 -1.628047E+04  5.393215E+04 -3.098806E-09  1.212984E-09
       467  19  9.767797E+04  5.467308E+04  4.460245E+04  5.426041E+04  6.962909E+03  1.178457E+04
       467  20  1.590992E+04  3.555476E+04  2.848490E+04  3.821389E+04  5.980833E+03  7.718049E+03
       467  21 -6.633344E+04  1.571857E+04  1.150761E+04  5.448181E+04  5.000899E+03  3.109013E+03
       467  22 -1.296510E+05 -6.877096E+02 -4.874938E+03  5.420918E+04  3.320524E+03  1.177651E+04
       467  23 -1.293606E+05  1.978570E+02 -3.019925E+03  3.805061E+04  1.818331E+03  7.708468E+03
       467  24 -1.296437E+05  2.751442E+02 -2.386325E+03  5.420696E+04  3.181614E+02  3.097828E+03
       467  25 -3.569314E+05 -5.605192E+04 -5.435537E+04  5.415795E+04 -3.205455E+02  1.176845E+04
       467  26 -2.746114E+05 -3.516044E+04 -3.452594E+04  3.788736E+04 -2.343210E+03  7.698887E+03
       467  27 -1.929503E+05 -1.516854E+04 -1.628042E+04  5.393214E+04 -4.364104E+03  3.086646E+03
       468   1 -1.314798E+05 -2.246713E+02 -2.946571E+03  5.406701E+04 -4.570831E+03 -2.321290E+02
       468   2 -2.131716E+05 -2.020326E+04 -2.100385E+04  3.798504E+04 -2.731763E+03  4.395900E+03
       468   3 -2.954767E+05 -4.096798E+04 -4.049961E+04  5.422404E+04 -8.913949E+02  8.555660E+03
       468   4 -1.296355E+05  2.649407E+02 -2.347080E+03  5.420832E+04  9.163229E+01 -2.209449E+02
       468   5 -1.293675E+05  2.015103E+02 -2.800175E+03  3.804894E+04  1.481185E+03  4.405797E+03
       468   6 -1.296397E+05 -5.691833E+02 -4.378830E+03  5.421027E+04  2.872268E+03  8.564321E+03
       468   7 -1.277912E+05  7.545642E+02 -1.747508E+03  5.434963E+04  4.754110E+03 -2.097587E+02
       468   8 -4.555670E+04  2.060583E+04  1.540315E+04  3.811284E+04  5.694694E+03  4.415693E+03
       468   9  3.622319E+04  3.982780E+04  3.174035E+04  5.419648E+04  6.636924E+03  8.572979E+03
       468  10 -1.314798E+05 -2.246770E+02 -2.946610E+03  5.406701E+04  2.474457E-09 -2.710740E-09
       468  11 -2.131716E+05 -2.020329E+04 -2.100390E+04  3.798505E+04  5.567102E-10 -2.730715E-09
       468  12 -2.954768E+05 -4.096806E+04 -4.049974E+04  5.422405E+04  1.060577E-09 -1.304627E-09
       468  13 -1.296355E+05  2.649407E+02 -2.347080E+03  5.420832E+04 -3.919425E-12  3.372156E-10
       468  14 -1.293675E+05  2.014889E+02 -2.800216E+03  3.804893E+04 -5.044276E-10 -2.993553E-09
       468  15 -1.296397E+05 -5.692642E+02 -4.378984E+03  5.421025E+04  2.816620E-10 -1.382395E-09
       468  16 -1.277912E+05  7.545581E+02 -1.747551E+03  5.434963E+04 -1.681244E-09 -1.633860E-09
       468  17 -4.555674E+04  2.060580E+04  1.540305E+04  3.811282E+04 -4.249746E-10  2.924750E-09
       468  18  3.622313E+04  3.982771E+04  3.174013E+04  5.419643E+04 -4.590232E-10  6.840787E-09
       468  19 -1.314798E+05 -2.246713E+02 -2.946571E+03  5.406701E+04  4.570831E+03  2.321290E+02
       468  20 -2.131716E+05 -2.020326E+04 -2.100385E+04  3.798504E+04  2.731763E+03 -4.395900E+03
       468  21 -2.954767E+05 -4.096798E+04 -4.049961E+04  5.422404E+04  8.913949E+02 -8.555660E+03
       468  22 -1.296355E+05  2.649407E+02 -2.347080E+03  5.420832E+04 -9.163229E+01  2.209449E+02
       468  23 -1.293675E+05  2.015103E+02 -2.800175E+03  3.804894E+04 -1.481185E+03 -4.405797E+03
       468  24 -1.296397E+05 -5.691833E+02 -4.378830E+03  5.421027E+04 -2.872268E+03 -8.564321E+03
       468  25 -1.277912E+05  7.545642E+02 -1.747508E+03  5.434963E+04 -4.754110E+03  2.097587E+02
       468  26 -4.555670E+04  2.060583E+04  1.540315E+04  3.811284E+04 -5.694694E+03 -4.415693E+03
       468  27  3.622319E+04  3.982780E+04  3.174035E+04  5.419648E+04 -6.636924E+03 -8.572979E+03
       469   1 -3.617071E+05 -5.532211E+04 -5.553246E+04  5.144952E+04 -3.208260E+03  1.220633E+04
       469   2 -4.406705E+05 -7.643762E+04 -7.829298E+04  4.047727E+04  1.190974E+04  1.392956E+04
       469   3 -5.258585E+05 -1.140404E+05 -1.150530E+05  6.134281E+04  2.704822E+04  4.773747E+03
       469   4 -1.305063E+05  9.818874E+02 -5.346395E+03  5.409282E+04  3.632509E+03  1.222178E+04
       469   5 -1.283069E+05 -7.258594E+01 -8.868195E+03  3.819212E+04  8.314635E+03  1.392110E+04
       469   6 -1.305225E+05 -1.579685E+04 -1.913657E+04  5.412896E+04  1.301934E+04  4.743597E+03
       469   7  1.007449E+05  5.728240E+04  4.483666E+04  5.673708E+04  1.047579E+04  1.223728E+04
       469   8  1.841478E+05  7.628587E+04  6.055056E+04  3.590576E+04  4.717736E+03  1.391267E+04
       469   9  2.649568E+05  8.243549E+04  7.676938E+04  4.691042E+04 -1.018455E+03  4.713783E+03
       469  10 -3.617072E+05 -5.532228E+04 -5.553276E+04  5.144955E+04  6.742918E-09 -6.517753E-09
       469  11 -4.406707E+05 -7.643787E+04 -7.829361E+04  4.047714E+04 -4.644436E-10 -4.183273E-09
       469  12 -5.258592E+05 -1.140406E+05 -1.150544E+05  6.134270E+04 -3.864544E-09 -2.393889E-09
       469  13 -1.305063E+05  9.817234E+02 -5.346700E+03  5.409278E+04  4.011771E-12  1.188000E-09
       469  14 -1.283071E+05 -7.281259E+01 -8.868689E+03  3.819203E+04 -9.018506E-10 -6.162124E-09
       469  15 -1.305227E+05 -1.579692E+04 -1.913693E+04  5.412891E+04  2.685596E-11 -1.264564E-09
       469  16  1.007447E+05  5.728221E+04  4.483618E+04  5.673698E+04 -5.441976E-09  2.077695E-09
       469  17  1.841477E+05  7.628566E+04  6.055015E+04  3.590571E+04  1.063216E-09  4.952869E-09
       469  18  2.649568E+05  8.243547E+04  7.676934E+04  4.691042E+04  3.498374E-09  1.994622E-09
       469  19 -3.617071E+05 -5.532211E+04 -5.553246E+04  5.144952E+04  3.208260E+03 -1.220633E+04
       469  20 -4.406705E+05 -7.643762E+04 -7.829298E+04  4.047727E+04 -1.190974E+04 -1.392956E+04
       469  21 -5.258585E+05 -1.140404E+05 -1.150530E+05  6.134281E+04 -2.704822E+04 -4.773747E+03
       469  22 -1.305063E+05  9.818874E+02 -5.346395E+03  5.409282E+04 -3.632509E+03 -1.222178E+04
       469  23 -1.283069E+05 -7.258594E+01 -8.868195E+03  3.819212E+04 -8.314635E+03 -1.392110E+04
       469  24 -1.305225E+05 -1.579685E+04 -1.913657E+04  5.412896E+04 -1.301934E+04 -4.743597E+03
       469  25  1.007449E+05  5.728240E+04  4.483666E+04  5.673708E+04 -1.047579E+04 -1.223728E+04
       469  26  1.841478E+05  7.628587E+04  6.055056E+04  3.590576E+04 -4.717736E+03 -1.391267E+04
       469  27  2.649568E+05  8.243549E+04  7.676938E+04  4.691042E+04  1.018455E+03 -4.713783E+03
       470   1 -2.452046E+05 -1.127553E+06 -2.539414E+05  1.651412E+05 -7.753793E+03 -7.970837E+04
       470   2 -1.259954E+05 -9.206740E+05 -1.509675E+05  1.051389E+05 -2.202613E+04 -4.089150E+04
       470   3 -7.386072E+04 -7.352016E+05 -9.001021E+04  1.214748E+05 -1.635987E+04 -2.027465E+03
       470   4 -6.911294E+04 -4.204533E+05 -8.190020E+04  1.307237E+05 -7.786113E+03 -5.656038E+04
       470   5 -1.285320E+03 -4.113659E+05 -3.733439E+04  9.260911E+04 -2.203002E+04 -3.683755E+04
       470   6  2.819694E+03 -4.203798E+05 -2.148498E+04  1.308366E+05 -1.633995E+04 -1.708074E+04
       470   7  1.069465E+05  2.871069E+05  9.010738E+04  9.626697E+04 -7.820989E+03 -3.338602E+04
       470   8  1.234077E+05  9.818469E+04  7.628255E+04  8.006901E+04 -2.203408E+04 -3.278030E+04
       470   9  7.949398E+04 -1.054643E+05  4.703520E+04  1.402033E+05 -1.632048E+04 -3.214155E+04
       470  10 -2.452063E+05 -1.127560E+06 -2.539535E+05  1.651407E+05 -1.325750E-09 -1.180753E-09
       470  11 -1.259964E+05 -9.206759E+05 -1.509715E+05  1.051382E+05 -3.002770E-09  4.423601E-09
       470  12 -7.386101E+04 -7.352016E+05 -9.001072E+04  1.214748E+05  1.117469E-09  1.653976E-09
       470  13 -6.911386E+04 -4.204568E+05 -8.190633E+04  1.307234E+05 -1.494591E-10  3.477952E-09
       470  14 -1.286205E+03 -4.113675E+05 -3.733786E+04  9.260846E+04 -3.870948E-09 -3.761033E-09
       470  15  2.819329E+03 -4.203802E+05 -2.148603E+04  1.308364E+05 -5.700617E-11  1.220993E-09
       470  16  1.069461E+05  2.871056E+05  9.010517E+04  9.626676E+04 -6.552148E-10  3.692698E-09
       470  17  1.234069E+05  9.818340E+04  7.627962E+04  8.006842E+04 -1.332853E-09 -2.693311E-09
       470  18  7.949342E+04 -1.054655E+05  4.703276E+04  1.402028E+05 -1.360521E-09 -1.477815E-09
       470  19 -2.452046E+05 -1.127553E+06 -2.539414E+05  1.651412E+05  7.753793E+03  7.970837E+04
       470  20 -1.259954E+05 -9.206740E+05 -1.509675E+05  1.051389E+05  2.202613E+04  4.089150E+04
       470  21 -7.386072E+04 -7.352016E+05 -9.001021E+04  1.214748E+05  1.635987E+04  2.027465E+03
       470  22 -6.911294E+04 -4.204533E+05 -8.190020E+04  1.307237E+05  7.786113E+03  5.656038E+04
       470  23 -1.285320E+03 -4.113659E+05 -3.733439E+04  9.260911E+04  2.203002E+04  3.683755E+04
       470  24  2.819694E+03 -4.203798E+05 -2.148498E+04  1.308366E+05  1.633995E+04  1.708074E+04
       470  25  1.069465E+05  2.871069E+05  9.010738E+04  9.626697E+04  7.820989E+03  3.338602E+04
       470  26  1.234077E+05  9.818469E+04  7.628255E+04  8.006901E+04  2.203408E+04  3.278030E+04
       470  27  7.949398E+04 -1.054643E+05  4.703520E+04  1.402033E+05  1.632048E+04  3.214155E+04
       471   1 -4.251466E+04 -5.750218E+05 -5.143615E+04  1.323390E+05 -8.010693E+03 -4.407468E+03
       471   2  9.012516E+03 -3.782346E+05 -3.061771E+02  9.260016E+04  2.020299E+03 -2.173622E+02
       471   3  5.715466E+04 -1.825115E+05  4.730875E+04  1.301923E+05  1.196265E+04  3.974401E+03
       471   4 -3.882625E+03 -4.165909E+05 -1.681470E+04  1.310247E+05 -7.998533E+03 -1.408002E+04
       471   5 -1.885184E+02 -4.160353E+05 -8.497750E+03  9.236142E+04  2.032618E+03 -9.804820E+03
       471   6  1.087125E+02 -4.165935E+05 -3.751629E+03  1.310298E+05  1.197500E+04 -5.529245E+03
       471   7  3.474779E+04 -2.581362E+05  1.780558E+04  1.297100E+05 -7.986333E+03 -2.375500E+04
       471   8 -9.389597E+03 -4.538345E+05 -1.668906E+04  9.212269E+04  2.044944E+03 -1.939170E+04
       471   9 -5.694083E+04 -6.506239E+05 -5.481497E+04  1.318670E+05  1.198734E+04 -1.502935E+04
       471  10 -4.251473E+04 -5.750219E+05 -5.143630E+04  1.323390E+05  1.278946E-09 -2.084787E-08
       471  11  9.012511E+03 -3.782346E+05 -3.061849E+02  9.260016E+04  9.659321E-10  2.411405E-09
       471  12  5.715450E+04 -1.825115E+05  4.730846E+04  1.301923E+05  2.144777E-09  2.101013E-08
       471  13 -3.882746E+03 -4.165911E+05 -1.681519E+04  1.310246E+05  5.528314E-10  3.153716E-09
       471  14 -1.885487E+02 -4.160354E+05 -8.497938E+03  9.236144E+04  1.501748E-09 -2.031093E-09
       471  15  1.085503E+02 -4.165935E+05 -3.751956E+03  1.310299E+05  2.909230E-09 -1.313745E-09
       471  16  3.474757E+04 -2.581368E+05  1.780440E+04  1.297099E+05  5.014086E-10  2.239103E-08
       471  17 -9.389703E+03 -4.538349E+05 -1.668978E+04  9.212272E+04  6.674413E-10 -3.146739E-09
       471  18 -5.694104E+04 -6.506241E+05 -5.481567E+04  1.318671E+05  8.583773E-11 -2.001459E-08
       471  19 -4.251466E+04 -5.750218E+05 -5.143615E+04  1.323390E+05  8.010693E+03  4.407468E+03
       471  20  9.012516E+03 -3.782346E+05 -3.061771E+02  9.260016E+04 -2.020299E+03  2.173622E+02
       471  21  5.715466E+04 -1.825115E+05  4.730875E+04  1.301923E+05 -1.196265E+04 -3.974401E+03
       471  22 -3.882625E+03 -4.165909E+05 -1.681470E+04  1.310247E+05  7.998533E+03  1.408002E+04
       471  23 -1.885184E+02 -4.160353E+05 -8.497750E+03  9.236142E+04 -2.032618E+03  9.804820E+03
       471  24  1.087125E+02 -4.165935E+05 -3.751629E+03  1.310298E+05 -1.197500E+04  5.529245E+03
       471  25  3.474779E+04 -2.581362E+05  1.780558E+04  1.297100E+05  7.986333E+03  2.375500E+04
       471  26 -9.389597E+03 -4.538345E+05 -1.668906E+04  9.212269E+04 -2.044944E+03  1.939170E+04
       471  27 -5.694083E+04 -6.506239E+05 -5.481497E+04  1.318670E+05 -1.198734E+04  1.502935E+04
       472   1  9.430738E+04 -2.543588E+04  8.285504E+04  1.295038E+05  2.044240E+04  1.047026E+04
       472   2  1.428168E+05  1.681964E+05  1.315422E+05  9.280544E+04  2.564910E+04 -1.122666E+04
       472   3  1.997858E+05  3.672434E+05  1.965569E+05  1.324286E+05  9.012411E+03 -3.296911E+04
       472   4 -7.979594E+02 -4.159803E+05 -2.019501E+03  1.308020E+05  2.046381E+04 -4.983742E+03
       472   5 -2.642490E+02 -4.168853E+05  1.275440E+03  9.264411E+04  2.564236E+04 -5.704265E+03
       472   6  5.094619E+03 -4.160466E+05  6.335235E+03  1.308116E+05  8.968381E+03 -6.463592E+03
       472   7 -9.591329E+04 -8.063812E+05 -8.690226E+04  1.320993E+05  2.048516E+04 -2.042815E+04
       472   8 -1.433684E+05 -1.001648E+06 -1.290126E+05  9.248303E+04  2.563561E+04 -1.870099E+02
       472   9 -1.896413E+05 -1.198775E+06 -1.839281E+05  1.291969E+05  8.924189E+03  2.000860E+04
       472  10  9.430690E+04 -2.543611E+04  8.285405E+04  1.295037E+05  1.648061E-09 -2.557359E-10
       472  11  1.428160E+05  1.681961E+05  1.315407E+05  9.280567E+04 -2.151120E-09  5.345892E-09
       472  12  1.997854E+05  3.672423E+05  1.965547E+05  1.324288E+05 -2.254574E-09  3.090169E-09
       472  13 -7.984157E+02 -4.159805E+05 -2.020335E+03  1.308021E+05 -1.443281E-10  2.747900E-09
       472  14 -2.649637E+02 -4.168856E+05  1.274143E+03  9.264422E+04 -7.684619E-10 -3.670980E-09
       472  15  5.094521E+03 -4.160467E+05  6.335006E+03  1.308117E+05 -1.187210E-09  1.038260E-09
       472  16 -9.591385E+04 -8.063817E+05 -8.690384E+04  1.320997E+05  4.401906E-10  2.841474E-09
       472  17 -1.433692E+05 -1.001648E+06 -1.290138E+05  9.248303E+04 -2.424243E-10 -1.742340E-09
       472  18 -1.896415E+05 -1.198775E+06 -1.839290E+05  1.291968E+05 -2.294032E-10 -3.177578E-09
       472  19  9.430738E+04 -2.543588E+04  8.285504E+04  1.295038E+05 -2.044240E+04 -1.047026E+04
       472  20  1.428168E+05  1.681964E+05  1.315422E+05  9.280544E+04 -2.564910E+04  1.122666E+04
       472  21  1.997858E+05  3.672434E+05  1.965569E+05  1.324286E+05 -9.012411E+03  3.296911E+04
       472  22 -7.979594E+02 -4.159803E+05 -2.019501E+03  1.308020E+05 -2.046381E+04  4.983742E+03
       472  23 -2.642490E+02 -4.168853E+05  1.275440E+03  9.264411E+04 -2.564236E+04  5.704265E+03
       472  24  5.094619E+03 -4.160466E+05  6.335235E+03  1.308116E+05 -8.968381E+03  6.463592E+03
       472  25 -9.591329E+04 -8.063812E+05 -8.690226E+04  1.320993E+05 -2.048516E+04  2.042815E+04
       472  26 -1.433684E+05 -1.001648E+06 -1.290126E+05  9.248303E+04 -2.563561E+04  1.870099E+02
       472  27 -1.896413E+05 -1.198775E+06 -1.839281E+05  1.291969E+05 -8.924189E+03 -2.000860E+04
       473   1  3.718514E+05  3.361843E+05  1.321240E+05  2.427683E+05  6.207523E+04  4.489536E+04
       473   2  3.536030E+05  2.421968E+05  7.068355E+04  2.669459E+05  4.134265E+04  2.529451E+04
       473   3  3.766633E+05  2.130371E+05  4.818178E+04  2.644440E+05  1.883845E+04  8.047087E+03
       473   4  3.318079E+05  2.365235E+05  1.050853E+05  1.904212E+05  5.849940E+04  4.219615E+04
       473   5  2.947438E+05  1.749765E+05  4.827876E+04  2.258910E+05  4.002660E+04  2.430193E+04
       473   6  2.985015E+05  1.777694E+05  2.844970E+04  2.346801E+05  1.978300E+04  8.758842E+03
       473   7  2.917690E+05  1.368796E+05  7.804670E+04  1.380807E+05  5.492382E+04  3.949792E+04
       473   8  2.358885E+05  1.077621E+05  2.587333E+04  1.848414E+05  3.871071E+04  2.330957E+04
       473   9  2.203459E+05  1.425025E+05  8.716988E+03  2.049194E+05  2.072738E+04  9.470539E+03
       473  10  3.718467E+05  3.361811E+05  1.321130E+05  2.427661E+05 -1.168280E-09 -7.880709E-10
       473  11  3.536010E+05  2.421956E+05  7.067914E+04  2.669450E+05 -1.642949E-09 -4.633563E-10
       473  12  3.766629E+05  2.130369E+05  4.818099E+04  2.644438E+05 -1.360698E-09 -3.863728E-09
       473  13  3.318037E+05  2.365206E+05  1.050755E+05  1.904192E+05  7.494528E-10  6.046365E-09
       473  14  2.947420E+05  1.749754E+05  4.827464E+04  2.258902E+05 -3.705261E-11 -1.061386E-08
       473  15  2.985011E+05  1.777692E+05  2.844883E+04  2.346800E+05 -2.237397E-09  2.040496E-09
       473  16  2.917653E+05  1.368771E+05  7.803810E+04  1.380790E+05  1.483214E-10  1.671281E-09
       473  17  2.358867E+05  1.077611E+05  2.586949E+04  1.848407E+05  3.198275E-10  2.474848E-09
       473  18  2.203455E+05  1.425023E+05  8.716013E+03  2.049192E+05 -2.020676E-09  3.216565E-09
       473  19  3.718514E+05  3.361843E+05  1.321240E+05  2.427683E+05 -6.207523E+04 -4.489536E+04
       473  20  3.536030E+05  2.421968E+05  7.068355E+04  2.669459E+05 -4.134265E+04 -2.529451E+04
       473  21  3.766633E+05  2.130371E+05  4.818178E+04  2.644440E+05 -1.883845E+04 -8.047087E+03
       473  22  3.318079E+05  2.365235E+05  1.050853E+05  1.904212E+05 -5.849940E+04 -4.219615E+04
       473  23  2.947438E+05  1.749765E+05  4.827876E+04  2.258910E+05 -4.002660E+04 -2.430193E+04
       473  24  2.985015E+05  1.777694E+05  2.844970E+04  2.346801E+05 -1.978300E+04 -8.758842E+03
       473  25  2.917690E+05  1.368796E+05  7.804670E+04  1.380807E+05 -5.492382E+04 -3.949792E+04
       473  26  2.358885E+05  1.077621E+05  2.587333E+04  1.848414E+05 -3.871071E+04 -2.330957E+04
       473  27  2.203459E+05  1.425025E+05  8.716988E+03  2.049194E+05 -2.072738E+04 -9.470539E+03
       474   1  3.572670E+05  2.259621E+05  4.081310E+04  2.588652E+05  1.593617E+04  6.592005E+03
       474   2  3.506018E+05  2.142824E+05  2.879915E+04  2.559898E+05  1.035228E+04  2.922462E+03
       474   3  3.429336E+05  2.100395E+05  2.223689E+04  2.530415E+05  4.688798E+03 -6.410436E+02
       474   4  2.984972E+05  1.815138E+05  2.277221E+04  2.282446E+05  1.621260E+04  6.800078E+03
       474   5  2.981511E+05  1.762915E+05  1.305549E+04  2.294231E+05  1.073101E+04  3.207655E+03
       474   6  2.967800E+05  1.784842E+05  8.702071E+03  2.305286E+05  5.169745E+03 -2.788302E+02
       474   7  2.397317E+05  1.370682E+05  4.731135E+03  1.976277E+05  1.648898E+04  7.008119E+03
       474   8  2.457037E+05  1.383025E+05 -2.688392E+03  2.028591E+05  1.110971E+04  3.492813E+03
       474   9  2.506287E+05  1.469300E+05 -4.832972E+03  2.080175E+05  5.650644E+03  8.334821E+01
       474  10  3.572667E+05  2.259620E+05  4.081254E+04  2.588651E+05 -3.639422E-10  1.828036E-09
       474  11  3.506017E+05  2.142823E+05  2.879893E+04  2.559897E+05 -2.357249E-09  3.631268E-09
       474  12  3.429336E+05  2.100395E+05  2.223685E+04  2.530415E+05 -2.043289E-09 -2.260084E-09
       474  13  2.984969E+05  1.815137E+05  2.277163E+04  2.282445E+05 -4.329270E-10  1.607067E-09
       474  14  2.981510E+05  1.762915E+05  1.305525E+04  2.294230E+05 -8.056164E-10 -7.845312E-10
       474  15  2.967799E+05  1.784842E+05  8.702020E+03  2.305286E+05 -3.613751E-10  1.135006E-09
       474  16  2.397314E+05  1.370681E+05  4.730532E+03  1.976276E+05 -2.037401E-09  5.670153E-10
       474  17  2.457036E+05  1.383025E+05 -2.688647E+03  2.028591E+05  1.101190E-10 -6.273793E-09
       474  18  2.506286E+05  1.469300E+05 -4.833032E+03  2.080175E+05 -5.740872E-10  4.773330E-09
       474  19  3.572670E+05  2.259621E+05  4.081310E+04  2.588652E+05 -1.593617E+04 -6.592005E+03
       474  20  3.506018E+05  2.142824E+05  2.879915E+04  2.559898E+05 -1.035228E+04 -2.922462E+03
       474  21  3.429336E+05  2.100395E+05  2.223689E+04  2.530415E+05 -4.688798E+03  6.410436E+02
       474  22  2.984972E+05  1.815138E+05  2.277221E+04  2.282446E+05 -1.621260E+04 -6.800078E+03
       474  23  2.981511E+05  1.762915E+05  1.305549E+04  2.294231E+05 -1.073101E+04 -3.207655E+03
       474  24  2.967800E+05  1.784842E+05  8.702071E+03  2.305286E+05 -5.169745E+03  2.788302E+02
       474  25  2.397317E+05  1.370682E+05  4.731135E+03  1.976277E+05 -1.648898E+04 -7.008119E+03
       474  26  2.457037E+05  1.383025E+05 -2.688392E+03  2.028591E+05 -1.110971E+04 -3.492813E+03
       474  27  2.506287E+05  1.469300E+05 -4.832972E+03  2.080175E+05 -5.650644E+03 -8.334821E+01
       475   1  3.361975E+05  2.067765E+05  1.935701E+04  2.499720E+05  3.346580E+03 -1.202822E+03
       475   2  3.304272E+05  1.993080E+05  1.658343E+04  2.456801E+05  2.026864E+02 -2.833258E+03
       475   3  3.213774E+05  1.962918E+05  1.622572E+04  2.425113E+05 -2.943614E+03 -4.460522E+03
       475   4  2.967396E+05  1.786378E+05  7.628427E+03  2.301829E+05  3.797004E+03 -8.635888E+02
       475   5  2.983925E+05  1.764348E+05  7.037855E+03  2.296042E+05  6.563321E+02 -2.491579E+03
       475   6  2.967654E+05  1.786833E+05  8.860497E+03  2.301485E+05 -2.486762E+03 -4.116411E+03
       475   7  2.572831E+05  1.504997E+05 -4.100469E+03  2.103949E+05  4.247393E+03 -5.243814E+02
       475   8  2.663590E+05  1.535622E+05 -2.507832E+03  2.135292E+05  1.109946E+03 -2.149923E+03
       475   9  2.721542E+05  1.610754E+05  1.495293E+03  2.177864E+05 -2.029939E+03 -3.772321E+03
       475  10  3.361975E+05  2.067765E+05  1.935699E+04  2.499720E+05 -5.348047E-10 -7.050870E-09
       475  11  3.304272E+05  1.993080E+05  1.658341E+04  2.456801E+05 -6.299662E-10 -4.968444E-09
       475  12  3.213774E+05  1.962917E+05  1.622567E+04  2.425113E+05  3.569350E-09 -3.979741E-09
       475  13  2.967396E+05  1.786378E+05  7.628399E+03  2.301829E+05 -2.702861E-09 -4.074934E-09
       475  14  2.983925E+05  1.764348E+05  7.037843E+03  2.296042E+05 -9.306911E-10 -3.035156E-10
       475  15  2.967654E+05  1.786833E+05  8.860454E+03  2.301485E+05  4.480669E-10 -1.989436E-09
       475  16  2.572830E+05  1.504997E+05 -4.100503E+03  2.103949E+05 -3.171323E-10  4.683101E-09
       475  17  2.663590E+05  1.535621E+05 -2.507843E+03  2.135292E+05 -1.448957E-09  3.981560E-09
       475  18  2.721542E+05  1.610754E+05  1.495259E+03  2.177864E+05 -4.814386E-09 -1.315034E-09
       475  19  3.361975E+05  2.067765E+05  1.935701E+04  2.499720E+05 -3.346580E+03  1.202822E+03
       475  20  3.304272E+05  1.993080E+05  1.658343E+04  2.456801E+05 -2.026864E+02  2.833258E+03
       475  21  3.213774E+05  1.962918E+05  1.622572E+04  2.425113E+05  2.943614E+03  4.460522E+03
       475  22  2.967396E+05  1.786378E+05  7.628427E+03  2.301829E+05 -3.797004E+03  8.635888E+02
       475  23  2.983925E+05  1.764348E+05  7.037855E+03  2.296042E+05 -6.563321E+02  2.491579E+03
       475  24  2.967654E+05  1.786833E+05  8.860497E+03  2.301485E+05  2.486762E+03  4.116411E+03
       475  25  2.572831E+05  1.504997E+05 -4.100469E+03  2.103949E+05 -4.247393E+03  5.243814E+02
       475  26  2.663590E+05  1.535622E+05 -2.507832E+03  2.135292E+05 -1.109946E+03  2.149923E+03
       475  27  2.721542E+05  1.610754E+05  1.495293E+03  2.177864E+05  2.029939E+03  3.772321E+03
       476   1  3.145408E+05  1.929175E+05  1.619827E+04  2.403531E+05 -4.537800E+03 -5.223194E+03
       476   2  3.098733E+05  1.838462E+05  2.032164E+04  2.349168E+05 -1.164831E+04 -9.844591E+03
       476   3  3.051405E+05  1.833566E+05  3.143323E+04  2.289804E+05 -1.873998E+04 -1.449103E+04
       476   4  2.968422E+05  1.784763E+05  1.063828E+04  2.306362E+05 -4.075524E+03 -4.874976E+03
       476   5  2.980260E+05  1.762172E+05  1.694109E+04  2.293528E+05 -1.120992E+04 -9.514392E+03
       476   6  2.991496E+05  1.825451E+05  3.025293E+04  2.275690E+05 -1.832560E+04 -1.417899E+04
       476   7  2.791440E+05  1.640353E+05  5.078245E+03  2.209196E+05 -3.613265E+03 -4.526775E+03
       476   8  2.861787E+05  1.685883E+05  1.356051E+04  2.237888E+05 -1.077155E+04 -9.184198E+03
       476   9  2.931586E+05  1.817336E+05  2.907262E+04  2.261577E+05 -1.791122E+04 -1.386695E+04
       476  10  3.145407E+05  1.929174E+05  1.619818E+04  2.403530E+05  1.415400E-09 -2.385859E-09
       476  11  3.098731E+05  1.838461E+05  2.032120E+04  2.349167E+05  3.864732E-09  4.302998E-09
       476  12  3.051401E+05  1.833563E+05  3.143218E+04  2.289802E+05  8.271282E-09 -5.394487E-10
       476  13  2.968422E+05  1.784763E+05  1.063820E+04  2.306362E+05  1.921987E-09 -6.407058E-09
       476  14  2.980258E+05  1.762171E+05  1.694069E+04  2.293527E+05  7.354944E-10 -6.363333E-09
       476  15  2.991491E+05  1.825448E+05  3.025192E+04  2.275688E+05  2.991821E-09 -2.452662E-09
       476  16  2.791439E+05  1.640353E+05  5.078182E+03  2.209196E+05 -1.414039E-09  3.970689E-09
       476  17  2.861786E+05  1.685881E+05  1.356014E+04  2.237887E+05 -5.143863E-10 -6.829917E-09
       476  18  2.931582E+05  1.817333E+05  2.907166E+04  2.261575E+05 -6.655090E-09 -6.380527E-09
       476  19  3.145408E+05  1.929175E+05  1.619827E+04  2.403531E+05  4.537800E+03  5.223194E+03
       476  20  3.098733E+05  1.838462E+05  2.032164E+04  2.349168E+05  1.164831E+04  9.844591E+03
       476  21  3.051405E+05  1.833566E+05  3.143323E+04  2.289804E+05  1.873998E+04  1.449103E+04
       476  22  2.968422E+05  1.784763E+05  1.063828E+04  2.306362E+05  4.075524E+03  4.874976E+03
       476  23  2.980260E+05  1.762172E+05  1.694109E+04  2.293528E+05  1.120992E+04  9.514392E+03
       476  24  2.991496E+05  1.825451E+05  3.025293E+04  2.275690E+05  1.832560E+04  1.417899E+04
       476  25  2.791440E+05  1.640353E+05  5.078245E+03  2.209196E+05  3.613265E+03  4.526775E+03
       476  26  2.861787E+05  1.685883E+05  1.356051E+04  2.237888E+05  1.077155E+04  9.184198E+03
       476  27  2.931586E+05  1.817336E+05  2.907262E+04  2.261577E+05  1.791122E+04  1.386695E+04
       477   1  2.812187E+05  1.921883E+05  3.737296E+04  2.398632E+05 -2.341870E+04 -1.751427E+04
       477   2  3.040112E+05  1.479803E+05  6.184770E+04  2.142752E+05 -5.046455E+04 -3.738287E+04
       477   3  3.827560E+05  1.888099E+05  1.354867E+05  1.524905E+05 -7.709857E+04 -5.779630E+04
       477   4  2.991336E+05  1.775454E+05  3.796613E+04  2.362214E+05 -2.284907E+04 -1.708421E+04
       477   5  2.934755E+05  1.744143E+05  6.472540E+04  2.245996E+05 -5.042092E+04 -3.735262E+04
       477   6  3.438783E+05  2.564292E+05  1.411056E+05  1.767826E+05 -7.757897E+04 -5.816940E+04
       477   7  3.170492E+05  1.629035E+05  3.855944E+04  2.325794E+05 -2.227943E+04 -1.665418E+04
       477   8  2.829407E+05  2.008500E+05  6.760329E+04  2.349238E+05 -5.037730E+04 -3.732236E+04
       477   9  3.050083E+05  3.240608E+05  1.467262E+05  2.010726E+05 -7.805932E+04 -5.854260E+04
       477  10  2.812180E+05  1.921878E+05  3.737135E+04  2.398629E+05  3.391978E-08  2.329812E-08
       477  11  3.040081E+05  1.479781E+05  6.184029E+04  2.142737E+05  2.104777E-09 -3.138448E-09
       477  12  3.827487E+05  1.888047E+05  1.354693E+05  1.524869E+05 -2.639161E-08 -2.294292E-08
       477  13  2.991330E+05  1.775450E+05  3.796460E+04  2.362211E+05  4.251203E-09  4.642574E-09
       477  14  2.934724E+05  1.744122E+05  6.471800E+04  2.245981E+05  1.625832E-09  7.131156E-09
       477  15  3.438709E+05  2.564240E+05  1.410879E+05  1.767789E+05  2.400326E-09  6.436805E-09
       477  16  3.170486E+05  1.629030E+05  3.855799E+04  2.325791E+05 -2.854893E-08 -1.809678E-08
       477  17  2.829376E+05  2.008478E+05  6.759591E+04  2.349223E+05  1.975571E-09  3.774445E-09
       477  18  3.050008E+05  3.240555E+05  1.467083E+05  2.010689E+05  2.803843E-08  2.394693E-08
       477  19  2.812187E+05  1.921883E+05  3.737296E+04  2.398632E+05  2.341870E+04  1.751427E+04
       477  20  3.040112E+05  1.479803E+05  6.184770E+04  2.142752E+05  5.046455E+04  3.738287E+04
       477  21  3.827560E+05  1.888099E+05  1.354867E+05  1.524905E+05  7.709857E+04  5.779630E+04
       477  22  2.991336E+05  1.775454E+05  3.796613E+04  2.362214E+05  2.284907E+04  1.708421E+04
       477  23  2.934755E+05  1.744143E+05  6.472540E+04  2.245996E+05  5.042092E+04  3.735262E+04
       477  24  3.438783E+05  2.564292E+05  1.411056E+05  1.767826E+05  7.757897E+04  5.816940E+04
       477  25  3.170492E+05  1.629035E+05  3.855944E+04  2.325794E+05  2.227943E+04  1.665418E+04
       477  26  2.829407E+05  2.008500E+05  6.760329E+04  2.349238E+05  5.037730E+04  3.732236E+04
       477  27  3.050083E+05  3.240608E+05  1.467262E+05  2.010726E+05  7.805932E+04  5.854260E+04
       478   1  1.330870E+05  4.645724E+04  4.333098E+04  2.569958E+04  6.847019E+02 -2.656430E+03
       478   2  8.876160E+04  4.305762E+04  3.440132E+04  1.966794E+04 -2.628129E+03 -7.865011E+03
       478   3  4.303406E+04  3.262667E+04  2.586137E+04  3.108835E+04 -5.953085E+03 -6.982488E+03
       478   4 -8.880274E+04 -8.660136E+03 -1.047436E+04  2.965290E+04 -7.232314E+03 -2.672755E+03
       478   5 -8.758988E+04 -4.015933E+01 -4.772642E+03  2.091706E+04 -4.697186E+03 -7.869531E+03
       478   6 -8.879762E+04  5.320367E+02 -2.742751E+03  2.963377E+04 -2.174496E+03 -6.974399E+03
       478   7 -3.106474E+05 -6.378102E+04 -6.428300E+04  3.360478E+04 -1.514651E+04 -2.689184E+03
       478   8 -2.639123E+05 -4.314003E+04 -4.394852E+04  2.216580E+04 -6.765662E+03 -7.874061E+03
       478   9 -2.206130E+05 -3.156373E+04 -3.134785E+04  2.817950E+04  1.603301E+03 -6.966326E+03
       478  10  1.330870E+05  4.645723E+04  4.333096E+04  2.569958E+04  1.253997E-09  8.500339E-10
       478  11  8.876157E+04  4.305755E+04  3.440119E+04  1.966792E+04 -9.260646E-10 -2.823152E-09
       478  12  4.303401E+04  3.262661E+04  2.586121E+04  3.108831E+04 -2.455366E-09 -1.441980E-09
       478  13 -8.880279E+04 -8.660158E+03 -1.047447E+04  2.965288E+04 -6.611914E-11  5.344029E-09
       478  14 -8.758992E+04 -4.023175E+01 -4.772800E+03  2.091703E+04 -1.107133E-09 -4.304514E-09
       478  15 -8.879763E+04  5.319832E+02 -2.742851E+03  2.963376E+04  7.288664E-12  6.498460E-10
       478  16 -3.106476E+05 -6.378109E+04 -6.428345E+04  3.360474E+04 -4.749225E-10 -1.350921E-10
       478  17 -2.639124E+05 -4.314011E+04 -4.394873E+04  2.216576E+04  1.024809E-09 -1.037084E-08
       478  18 -2.206130E+05 -3.156379E+04 -3.134795E+04  2.817951E+04  2.438091E-09 -1.304652E-09
       478  19  1.330870E+05  4.645724E+04  4.333098E+04  2.569958E+04 -6.847019E+02  2.656430E+03
       478  20  8.876160E+04  4.305762E+04  3.440132E+04  1.966794E+04  2.628129E+03  7.865011E+03
       478  21  4.303406E+04  3.262667E+04  2.586137E+04  3.108835E+04  5.953085E+03  6.982488E+03
       478  22 -8.880274E+04 -8.660136E+03 -1.047436E+04  2.965290E+04  7.232314E+03  2.672755E+03
       478  23 -8.758988E+04 -4.015933E+01 -4.772642E+03  2.091706E+04  4.697186E+03  7.869531E+03
       478  24 -8.879762E+04  5.320367E+02 -2.742751E+03  2.963377E+04  2.174496E+03  6.974399E+03
       478  25 -3.106474E+05 -6.378102E+04 -6.428300E+04  3.360478E+04  1.514651E+04  2.689184E+03
       478  26 -2.639123E+05 -4.314003E+04 -4.394852E+04  2.216580E+04  6.765662E+03  7.874061E+03
       478  27 -2.206130E+05 -3.156373E+04 -3.134785E+04  2.817950E+04 -1.603301E+03  6.966326E+03
       479   1  7.659247E+03  2.305226E+04  1.875501E+04  2.970641E+04 -3.851708E+03 -4.963301E+03
       479   2 -3.720546E+04  1.250867E+04  9.998095E+03  2.089181E+04 -3.570945E+03 -2.691650E+03
       479   3 -8.227777E+04  1.655240E+03  9.585858E+02  2.980055E+04 -3.290912E+03 -1.572745E+02
       479   4 -8.831412E+04 -3.223185E+02 -2.142493E+03  2.969932E+04 -1.797501E+03 -4.958865E+03
       479   5 -8.818708E+04  9.780441E+01 -1.070841E+03  2.083707E+04 -1.264669E+03 -2.686600E+03
       479   6 -8.831271E+04  1.645720E+02 -4.566836E+02  2.969825E+04 -7.325422E+02 -1.515942E+02
       479   7 -1.842789E+05 -2.369750E+04 -2.304053E+04  2.969223E+04  2.563930E+02 -4.954428E+03
       479   8 -1.391663E+05 -1.231323E+04 -1.213991E+04  2.078233E+04  1.041421E+03 -2.681550E+03
       479   9 -9.434759E+04 -1.326095E+03 -1.871931E+03  2.959595E+04  1.825803E+03 -1.459147E+02
       479  10  7.659224E+03  2.305223E+04  1.875493E+04  2.970639E+04 -5.130047E-10  9.698358E-10
       479  11 -3.720547E+04  1.250866E+04  9.998057E+03  2.089180E+04 -7.952376E-09 -4.056251E-09
       479  12 -8.227778E+04  1.655237E+03  9.585654E+02  2.980055E+04 -1.150640E-08 -3.593327E-09
       479  13 -8.831413E+04 -3.223458E+02 -2.142545E+03  2.969931E+04  2.674847E-10  4.245046E-10
       479  14 -8.818708E+04  9.779623E+01 -1.070858E+03  2.083707E+04 -8.355141E-11 -5.961168E-10
       479  15 -8.831271E+04  1.645718E+02 -4.566847E+02  2.969825E+04  3.696780E-10 -3.514203E-09
       479  16 -1.842789E+05 -2.369753E+04 -2.304058E+04  2.969223E+04  6.500060E-10  4.033995E-09
       479  17 -1.391663E+05 -1.231324E+04 -1.213993E+04  2.078234E+04  8.622145E-09 -7.445468E-09
       479  18 -9.434760E+04 -1.326096E+03 -1.871937E+03  2.959595E+04  1.139436E-08  7.516889E-10
       479  19  7.659247E+03  2.305226E+04  1.875501E+04  2.970641E+04  3.851708E+03  4.963301E+03
       479  20 -3.720546E+04  1.250867E+04  9.998095E+03  2.089181E+04  3.570945E+03  2.691650E+03
       479  21 -8.227777E+04  1.655240E+03  9.585858E+02  2.980055E+04  3.290912E+03  1.572745E+02
       479  22 -8.831412E+04 -3.223185E+02 -2.142493E+03  2.969932E+04  1.797501E+03  4.958865E+03
       479  23 -8.818708E+04  9.780441E+01 -1.070841E+03  2.083707E+04  1.264669E+03  2.686600E+03
       479  24 -8.831271E+04  1.645720E+02 -4.566836E+02  2.969825E+04  7.325422E+02  1.515942E+02
       479  25 -1.842789E+05 -2.369750E+04 -2.304053E+04  2.969223E+04 -2.563930E+02  4.954428E+03
       479  26 -1.391663E+05 -1.231323E+04 -1.213991E+04  2.078233E+04 -1.041421E+03  2.681550E+03
       479  27 -9.434759E+04 -1.326095E+03 -1.871931E+03  2.959595E+04 -1.825803E+03  1.459147E+02
       480   1 -1.179508E+05 -7.143949E+03 -6.752134E+03  2.969741E+04 -3.242465E+03  1.419783E+03
       480   2 -1.628828E+05 -1.807604E+04 -1.595093E+04  2.071074E+04 -3.089035E+03  3.947851E+03
       480   3 -2.078771E+05 -2.881054E+04 -2.522261E+04  2.944480E+04 -2.934772E+03  6.184526E+03
       480   4 -8.826022E+04  1.010534E+02 -2.205251E+02  2.969804E+04 -6.764803E+02  1.425469E+03
       480   5 -8.825339E+04  9.002656E+01  2.375406E+02  2.083751E+04 -8.028382E+02  3.952816E+03
       480   6 -8.826219E+04  3.252723E+02  8.170754E+02  2.969755E+04 -9.283522E+02  6.188792E+03
       480   7 -5.856882E+04  7.346000E+03  6.311054E+03  2.969868E+04  1.889625E+03  1.431156E+03
       480   8 -1.361874E+04  1.825573E+04  1.642570E+04  2.096428E+04  1.483629E+03  3.957782E+03
       480   9  3.136614E+04  2.946014E+04  2.685591E+04  2.995033E+04  1.078449E+03  6.193060E+03
       480  10 -1.179508E+05 -7.143954E+03 -6.752157E+03  2.969741E+04  1.361331E-08 -2.473515E-09
       480  11 -1.628828E+05 -1.807606E+04 -1.595098E+04  2.071075E+04  1.285737E-08  4.607907E-09
       480  12 -2.078771E+05 -2.881059E+04 -2.522269E+04  2.944481E+04  1.040986E-08  5.985886E-10
       480  13 -8.826022E+04  1.010511E+02 -2.205297E+02  2.969804E+04  5.918989E-10 -1.094371E-08
       480  14 -8.825340E+04  9.000961E+01  2.375101E+02  2.083751E+04 -1.523887E-09  6.295142E-09
       480  15 -8.826220E+04  3.252309E+02  8.170018E+02  2.969755E+04 -1.581098E-10  1.545779E-09
       480  16 -5.856882E+04  7.345997E+03  6.311044E+03  2.969868E+04 -1.265973E-08 -3.787121E-09
       480  17 -1.361875E+04  1.825571E+04  1.642566E+04  2.096428E+04 -1.258376E-08 -5.504687E-09
       480  18  3.136613E+04  2.946010E+04  2.685584E+04  2.995033E+04 -1.104501E-08  3.499873E-09
       480  19 -1.179508E+05 -7.143949E+03 -6.752134E+03  2.969741E+04  3.242465E+03 -1.419783E+03
       480  20 -1.628828E+05 -1.807604E+04 -1.595093E+04  2.071074E+04  3.089035E+03 -3.947851E+03
       480  21 -2.078771E+05 -2.881054E+04 -2.522261E+04  2.944480E+04  2.934772E+03 -6.184526E+03
       480  22 -8.826022E+04  1.010534E+02 -2.205251E+02  2.969804E+04  6.764803E+02 -1.425469E+03
       480  23 -8.825339E+04  9.002656E+01  2.375406E+02  2.083751E+04  8.028382E+02 -3.952816E+03
       480  24 -8.826219E+04  3.252723E+02  8.170754E+02  2.969755E+04  9.283522E+02 -6.188792E+03
       480  25 -5.856882E+04  7.346000E+03  6.311054E+03  2.969868E+04 -1.889625E+03 -1.431156E+03
       480  26 -1.361874E+04  1.825573E+04  1.642570E+04  2.096428E+04 -1.483629E+03 -3.957782E+03
       480  27  3.136614E+04  2.946014E+04  2.685591E+04  2.995033E+04 -1.078449E+03 -6.193060E+03
       481   1 -2.435269E+05 -3.790223E+04 -3.260104E+04  2.993418E+04 -4.982508E+03  8.242430E+03
       481   2 -2.884636E+05 -4.874229E+04 -4.232095E+04  1.993767E+04  3.464744E+02  8.971952E+03
       481   3 -3.335270E+05 -5.701990E+04 -5.488664E+04  2.735054E+04  5.688363E+03  3.007484E+03
       481   4 -8.804177E+04 -5.738627E+01  1.119027E+03  2.963065E+04 -1.081487E+03  8.250649E+03
       481   5 -8.853744E+04  1.331235E+02  2.065374E+03  2.092201E+04 -2.176566E+03  8.966509E+03
       481   6 -8.804689E+04  4.001094E+03  4.627882E+03  2.962232E+04 -3.258259E+03  2.989368E+03
       481   7  6.746607E+04  3.778586E+04  3.483771E+04  2.932703E+04  2.820499E+03  8.258863E+03
       481   8  1.114261E+05  4.900584E+04  4.644924E+04  2.190665E+04 -4.700409E+03  8.961059E+03
       481   9  1.574885E+05  6.501773E+04  6.413836E+04  3.189497E+04 -1.220841E+04  2.971190E+03
       481  10 -2.435269E+05 -3.790231E+04 -3.260121E+04  2.993421E+04 -1.180983E-08  3.796088E-10
       481  11 -2.884636E+05 -4.874237E+04 -4.232110E+04  1.993767E+04 -3.965924E-09 -2.836669E-09
       481  12 -3.335270E+05 -5.701992E+04 -5.488672E+04  2.735052E+04  5.095497E-09  3.160505E-09
       481  13 -8.804179E+04 -5.745968E+01  1.118897E+03  2.963066E+04  1.498792E-11  1.485215E-09
       481  14 -8.853746E+04  1.330359E+02  2.065214E+03  2.092202E+04 -1.232773E-09  5.519057E-09
       481  15 -8.804690E+04  4.001082E+03  4.627845E+03  2.962233E+04 -1.149497E-10  5.339143E-10
       481  16  6.746605E+04  3.778579E+04  3.483757E+04  2.932701E+04  1.224272E-08  6.299081E-09
       481  17  1.114260E+05  4.900575E+04  4.644904E+04  2.190668E+04  4.172997E-09  6.367455E-09
       481  18  1.574883E+05  6.501768E+04  6.413807E+04  3.189500E+04 -5.371389E-09 -6.773461E-10
       481  19 -2.435269E+05 -3.790223E+04 -3.260104E+04  2.993418E+04  4.982508E+03 -8.242430E+03
       481  20 -2.884636E+05 -4.874229E+04 -4.232095E+04  1.993767E+04 -3.464744E+02 -8.971952E+03
       481  21 -3.335270E+05 -5.701990E+04 -5.488664E+04  2.735054E+04 -5.688363E+03 -3.007484E+03
       481  22 -8.804177E+04 -5.738627E+01  1.119027E+03  2.963065E+04  1.081487E+03 -8.250649E+03
       481  23 -8.853744E+04  1.331235E+02  2.065374E+03  2.092201E+04  2.176566E+03 -8.966509E+03
       481  24 -8.804689E+04  4.001094E+03  4.627882E+03  2.962232E+04  3.258259E+03 -2.989368E+03
       481  25  6.746607E+04  3.778586E+04  3.483771E+04  2.932703E+04 -2.820499E+03 -8.258863E+03
       481  26  1.114261E+05  4.900584E+04  4.644924E+04  2.190665E+04  4.700409E+03 -8.961059E+03
       481  27  1.574885E+05  6.501773E+04  6.413836E+04  3.189497E+04  1.220841E+04 -2.971190E+03
       482   1 -1.540318E+05 -7.369904E+05 -1.604769E+05  1.046856E+05 -4.646183E+03 -5.211098E+04
       482   2 -7.573177E+04 -6.083343E+05 -9.443387E+04  6.608860E+04 -1.317465E+04 -2.669589E+04
       482   3 -4.327248E+04 -4.941941E+05 -5.637509E+04  7.473085E+04 -9.610465E+03 -1.252645E+03
       482   4 -4.741181E+04 -3.088338E+05 -5.631194E+04  8.102365E+04 -4.669301E+03 -3.818903E+04
       482   5 -8.651719E+02 -3.025655E+05 -2.620604E+04  5.744727E+04 -1.317787E+04 -2.436394E+04
       482   6  1.867719E+03 -3.088046E+05 -1.601940E+04  8.111208E+04 -9.595248E+03 -1.051609E+04
       482   7  5.919682E+04  1.194919E+05  4.784074E+04  5.734538E+04 -4.693475E+03 -2.425749E+04
       482   8  7.399534E+04  3.290759E+03  4.201597E+04  4.880166E+04 -1.318117E+04 -2.203086E+04
       482   9  4.700584E+04 -1.233825E+05  2.433457E+04  8.749525E+04 -9.580224E+03 -1.978226E+04
       482  10 -1.540325E+05 -7.369933E+05 -1.604820E+05  1.046854E+05 -9.655038E-10 -1.376953E-09
       482  11 -7.573215E+04 -6.083351E+05 -9.443554E+04  6.608832E+04 -2.390569E-09  8.063775E-09
       482  12 -4.327258E+04 -4.941941E+05 -5.637527E+04  7.473085E+04 -2.953522E-10  1.667572E-09
       482  13 -4.741222E+04 -3.088353E+05 -5.631473E+04  8.102350E+04  8.062636E-10  5.348247E-09
       482  14 -8.655178E+02 -3.025662E+05 -2.620749E+04  5.744701E+04 -3.628703E-09 -1.114711E-10
       482  15  1.867591E+03 -3.088047E+05 -1.601979E+04  8.111200E+04  6.535866E-10  1.516318E-09
       482  16  5.919663E+04  1.194913E+05  4.783959E+04  5.734529E+04 -7.017561E-10  2.978424E-09
       482  17  7.399503E+04  3.290191E+03  4.201473E+04  4.880143E+04 -2.011659E-09 -6.527158E-09
       482  18  4.700564E+04 -1.233830E+05  2.433366E+04  8.749509E+04  3.043254E-10 -4.408767E-09
       482  19 -1.540318E+05 -7.369904E+05 -1.604769E+05  1.046856E+05  4.646183E+03  5.211098E+04
       482  20 -7.573177E+04 -6.083343E+05 -9.443387E+04  6.608860E+04  1.317465E+04  2.669589E+04
       482  21 -4.327248E+04 -4.941941E+05 -5.637509E+04  7.473085E+04  9.610465E+03  1.252645E+03
       482  22 -4.741181E+04 -3.088338E+05 -5.631194E+04  8.102365E+04  4.669301E+03  3.818903E+04
       482  23 -8.651719E+02 -3.025655E+05 -2.620604E+04  5.744727E+04  1.317787E+04  2.436394E+04
       482  24  1.867719E+03 -3.088046E+05 -1.601940E+04  8.111208E+04  9.595248E+03  1.051609E+04
       482  25  5.919682E+04  1.194919E+05  4.784074E+04  5.734538E+04  4.693475E+03  2.425749E+04
       482  26  7.399534E+04  3.290759E+03  4.201597E+04  4.880166E+04  1.318117E+04  2.203086E+04
       482  27  4.700584E+04 -1.233825E+05  2.433457E+04  8.749525E+04  9.580224E+03  1.978226E+04
       483   1 -2.423289E+04 -3.949218E+05 -3.263887E+04  8.235235E+04 -4.464048E+03 -2.185930E+03
       483   2  7.853179E+03 -2.728939E+05 -1.819837E+03  5.736574E+04  1.748128E+03  2.226144E+03
       483   3  3.646520E+04 -1.520833E+05  2.530384E+04  8.021775E+04  7.884107E+03  6.639189E+03
       483   4 -2.621904E+03 -3.062969E+05 -1.326487E+04  8.122063E+04 -4.454415E+03 -8.190787E+03
       483   5 -1.256824E+02 -3.056760E+05 -8.923122E+03  5.730236E+04  1.757776E+03 -3.705684E+03
       483   6 -1.115190E+03 -3.062987E+05 -8.326412E+03  8.122308E+04  7.893733E+03  7.795561E+02
       483   7  1.898858E+04 -2.176645E+05  6.108797E+03  8.008876E+04 -4.444762E+03 -1.419649E+04
       483   8 -8.104596E+03 -3.384571E+05 -1.602634E+04  5.723900E+04  1.767426E+03 -9.637203E+03
       483   9 -3.869714E+04 -4.604918E+05 -4.195796E+04  8.222817E+04  7.903340E+03 -5.078639E+03
       483  10 -2.423291E+04 -3.949219E+05 -3.263892E+04  8.235234E+04 -1.779714E-09  1.163533E-08
       483  11  7.853174E+03 -2.728939E+05 -1.819852E+03  5.736573E+04 -3.378111E-09  6.683695E-09
       483  12  3.646512E+04 -1.520834E+05  2.530364E+04  8.021771E+04 -2.920450E-09 -2.112819E-08
       483  13 -2.621943E+03 -3.062970E+05 -1.326503E+04  8.122060E+04 -9.362427E-10  5.405822E-10
       483  14 -1.256894E+02 -3.056761E+05 -8.923153E+03  5.730237E+04 -3.081915E-09 -4.386186E-10
       483  15 -1.115257E+03 -3.062988E+05 -8.326531E+03  8.122308E+04 -6.801667E-12  2.018999E-09
       483  16  1.898850E+04 -2.176647E+05  6.108382E+03  8.008871E+04  1.413285E-10 -1.323675E-08
       483  17 -8.104624E+03 -3.384572E+05 -1.602652E+04  5.723901E+04 -4.149527E-09 -2.875891E-09
       483  18 -3.869722E+04 -4.604918E+05 -4.195813E+04  8.222820E+04 -9.887808E-10  1.694185E-08
       483  19 -2.423289E+04 -3.949218E+05 -3.263887E+04  8.235235E+04  4.464048E+03  2.185930E+03
       483  20  7.853179E+03 -2.728939E+05 -1.819837E+03  5.736574E+04 -1.748128E+03 -2.226144E+03
       483  21  3.646520E+04 -1.520833E+05  2.530384E+04  8.021775E+04 -7.884107E+03 -6.639189E+03
       483  22 -2.621904E+03 -3.062969E+05 -1.326487E+04  8.122063E+04  4.454415E+03  8.190787E+03
       483  23 -1.256824E+02 -3.056760E+05 -8.923122E+03  5.730236E+04 -1.757776E+03  3.705684E+03
       483  24 -1.115190E+03 -3.062987E+05 -8.326412E+03  8.122308E+04 -7.893733E+03 -7.795561E+02
       483  25  1.898858E+04 -2.176645E+05  6.108797E+03  8.008876E+04  4.444762E+03  1.419649E+04
       483  26 -8.104596E+03 -3.384571E+05 -1.602634E+04  5.723900E+04 -1.767426E+03  9.637203E+03
       483  27 -3.869714E+04 -4.604918E+05 -4.195796E+04  8.222817E+04 -7.903340E+03  5.078639E+03
       484   1  6.160966E+04 -5.611737E+04  4.587831E+04  8.338327E+04  1.314533E+04  1.178975E+04
       484   2  9.034311E+04  6.668904E+04  7.105393E+04  5.357188E+04  1.629113E+04  4.690511E+03
       484   3  1.034752E+05  1.868042E+05  9.700757E+04  7.094484E+04  5.680315E+03 -2.436639E+03
       484   4  4.974350E+02 -3.071416E+05 -8.660166E+03  8.108724E+04  1.316158E+04  2.176694E+03
       484   5 -4.832093E+02 -3.046566E+05 -1.160998E+04  5.747533E+04  1.628542E+04  8.282605E+03
       484   6 -1.936223E+04 -3.071711E+05 -2.295491E+04  8.105051E+04  5.648828E+03  1.436173E+04
       484   7 -6.061890E+04 -5.581065E+05 -6.320206E+04  7.879217E+04  1.317790E+04 -7.432524E+03
       484   8 -9.131882E+04 -6.758736E+05 -9.428247E+04  6.137647E+04  1.627976E+04  1.187257E+04
       484   9 -1.422171E+05 -8.009228E+05 -1.429339E+05  9.114822E+04  5.617875E+03  3.114678E+04
       484  10  6.160944E+04 -5.611757E+04  4.587773E+04  8.338315E+04  3.362921E-10 -3.377020E-09
       484  11  9.034281E+04  6.668894E+04  7.105339E+04  5.357182E+04  7.459209E-10  2.230146E-09
       484  12  1.034752E+05  1.868042E+05  9.700750E+04  7.094485E+04  3.826049E-10 -5.224167E-09
       484  13  4.972477E+02 -3.071416E+05 -8.660501E+03  8.108722E+04 -5.514151E-10  2.758806E-09
       484  14 -4.835125E+02 -3.046567E+05 -1.161061E+04  5.747522E+04  1.193394E-09 -2.635054E-09
       484  15 -1.936232E+04 -3.071713E+05 -2.295536E+04  8.105045E+04 -2.639825E-10  4.095371E-09
       484  16 -6.061910E+04 -5.581066E+05 -6.320249E+04  7.879225E+04  1.857978E-09  5.590015E-09
       484  17 -9.131914E+04 -6.758738E+05 -9.428323E+04  6.137631E+04  2.631936E-09 -4.406268E-10
       484  18 -1.422174E+05 -8.009238E+05 -1.429358E+05  9.114807E+04 -1.013591E-09 -2.844233E-10
       484  19  6.160966E+04 -5.611737E+04  4.587831E+04  8.338327E+04 -1.314533E+04 -1.178975E+04
       484  20  9.034311E+04  6.668904E+04  7.105393E+04  5.357188E+04 -1.629113E+04 -4.690511E+03
       484  21  1.034752E+05  1.868042E+05  9.700757E+04  7.094484E+04 -5.680315E+03  2.436639E+03
       484  22  4.974350E+02 -3.071416E+05 -8.660166E+03  8.108724E+04 -1.316158E+04 -2.176694E+03
       484  23 -4.832093E+02 -3.046566E+05 -1.160998E+04  5.747533E+04 -1.628542E+04 -8.282605E+03
       484  24 -1.936223E+04 -3.071711E+05 -2.295491E+04  8.105051E+04 -5.648828E+03 -1.436173E+04
       484  25 -6.061890E+04 -5.581065E+05 -6.320206E+04  7.879217E+04 -1.317790E+04  7.432524E+03
       484  26 -9.131882E+04 -6.758736E+05 -9.428247E+04  6.137647E+04 -1.627976E+04 -1.187257E+04
       484  27 -1.422171E+05 -8.009228E+05 -1.429339E+05  9.114822E+04 -5.617875E+03 -3.114678E+04
       485   1  1.943570E+05  1.835432E+05  7.409459E+04  1.292812E+05  3.823053E+04  2.839950E+04
       485   2  1.841824E+05  1.248153E+05  3.591478E+04  1.460020E+05  2.491883E+04  1.756513E+04
       485   3  2.015069E+05  1.068483E+05  2.210384E+04  1.451788E+05  1.119668E+04  7.275621E+03
       485   4  2.027656E+05  1.435971E+05  6.797851E+04  1.124560E+05  3.747509E+04  2.782789E+04
       485   5  1.782952E+05  1.042689E+05  3.120595E+04  1.355438E+05  2.468537E+04  1.738870E+04
       485   6  1.812104E+05  1.055878E+05  1.834810E+04  1.410875E+05  1.148583E+04  7.493605E+03
       485   7  2.111757E+05  1.036543E+05  6.186274E+04  9.563062E+04  3.671962E+04  2.725636E+04
       485   8  1.724082E+05  8.372336E+04  2.649715E+04  1.250859E+05  2.445192E+04  1.721228E+04
       485   9  1.609148E+05  1.043273E+05  1.459242E+04  1.369963E+05  1.177497E+04  7.711588E+03
       485  10  1.943552E+05  1.835419E+05  7.409033E+04  1.292803E+05 -1.038937E-09 -3.462379E-11
       485  11  1.841816E+05  1.248148E+05  3.591303E+04  1.460017E+05 -1.051042E-09 -4.400682E-09
       485  12  2.015067E+05  1.068482E+05  2.210351E+04  1.451788E+05  2.649223E-10 -5.365039E-09
       485  13  2.027639E+05  1.435958E+05  6.797442E+04  1.124551E+05  8.697849E-10 -2.166117E-09
       485  14  1.782945E+05  1.042684E+05  3.120424E+04  1.355435E+05 -2.105383E-10 -1.254777E-09
       485  15  1.812103E+05  1.055877E+05  1.834774E+04  1.410875E+05  1.374393E-09 -2.089959E-10
       485  16  2.111740E+05  1.036531E+05  6.185881E+04  9.562981E+04 -1.573425E-11  2.949571E-09
       485  17  1.724075E+05  8.372288E+04  2.649547E+04  1.250855E+05  8.086489E-10  8.675785E-09
       485  18  1.609146E+05  1.043272E+05  1.459204E+04  1.369962E+05  9.658259E-10  1.009239E-09
       485  19  1.943570E+05  1.835432E+05  7.409459E+04  1.292812E+05 -3.823053E+04 -2.839950E+04
       485  20  1.841824E+05  1.248153E+05  3.591478E+04  1.460020E+05 -2.491883E+04 -1.756513E+04
       485  21  2.015069E+05  1.068483E+05  2.210384E+04  1.451788E+05 -1.119668E+04 -7.275621E+03
       485  22  2.027656E+05  1.435971E+05  6.797851E+04  1.124560E+05 -3.747509E+04 -2.782789E+04
       485  23  1.782952E+05  1.042689E+05  3.120595E+04  1.355438E+05 -2.468537E+04 -1.738870E+04
       485  24  1.812104E+05  1.055878E+05  1.834810E+04  1.410875E+05 -1.148583E+04 -7.493605E+03
       485  25  2.111757E+05  1.036543E+05  6.186274E+04  9.563062E+04 -3.671962E+04 -2.725636E+04
       485  26  1.724082E+05  8.372336E+04  2.649715E+04  1.250859E+05 -2.445192E+04 -1.721228E+04
       485  27  1.609148E+05  1.043273E+05  1.459242E+04  1.369963E+05 -1.177497E+04 -7.711588E+03
       486   1  1.905400E+05  1.163132E+05  1.773959E+04  1.423581E+05  9.164843E+03  5.981614E+03
       486   2  1.876826E+05  1.106567E+05  1.052403E+04  1.416186E+05  5.701435E+03  3.612564E+03
       486   3  1.851736E+05  1.087837E+05  6.753890E+03  1.405370E+05  2.219533E+03  1.268089E+03
       486   4  1.812165E+05  1.080013E+05  1.465478E+04  1.369212E+05  9.299625E+03  6.083100E+03
       486   5  1.804889E+05  1.051317E+05  8.307549E+03  1.378310E+05  5.859881E+03  3.731893E+03
       486   6  1.801046E+05  1.060404E+05  5.385270E+03  1.383987E+05  2.401612E+03  1.405226E+03
       486   7  1.718930E+05  9.968938E+04  1.156995E+04  1.314844E+05  9.434405E+03  6.184583E+03
       486   8  1.732952E+05  9.960657E+04  6.091051E+03  1.340434E+05  6.018326E+03  3.851221E+03
       486   9  1.750356E+05  1.032972E+05  4.016632E+03  1.362603E+05  2.583691E+03  1.542363E+03
       486  10  1.905399E+05  1.163132E+05  1.773937E+04  1.423580E+05 -2.706704E-09 -5.980983E-09
       486  11  1.876826E+05  1.106567E+05  1.052394E+04  1.416186E+05 -2.164098E-09 -1.726185E-09
       486  12  1.851736E+05  1.087837E+05  6.753877E+03  1.405370E+05  1.019626E-09 -3.268520E-09
       486  13  1.812164E+05  1.080012E+05  1.465454E+04  1.369211E+05  6.219118E-10  3.758188E-09
       486  14  1.804888E+05  1.051316E+05  8.307458E+03  1.378310E+05  2.887538E-10 -1.454377E-08
       486  15  1.801046E+05  1.060404E+05  5.385256E+03  1.383987E+05  8.600528E-11  1.238486E-10
       486  16  1.718929E+05  9.968932E+04  1.156971E+04  1.314843E+05  4.130166E-09  2.912330E-09
       486  17  1.732951E+05  9.960655E+04  6.090955E+03  1.340434E+05 -5.859630E-10  1.059084E-08
       486  18  1.750356E+05  1.032971E+05  4.016615E+03  1.362603E+05 -2.167007E-09  2.763256E-09
       486  19  1.905400E+05  1.163132E+05  1.773959E+04  1.423581E+05 -9.164843E+03 -5.981614E+03
       486  20  1.876826E+05  1.106567E+05  1.052403E+04  1.416186E+05 -5.701435E+03 -3.612564E+03
       486  21  1.851736E+05  1.087837E+05  6.753890E+03  1.405370E+05 -2.219533E+03 -1.268089E+03
       486  22  1.812165E+05  1.080013E+05  1.465478E+04  1.369212E+05 -9.299625E+03 -6.083100E+03
       486  23  1.804889E+05  1.051317E+05  8.307549E+03  1.378310E+05 -5.859881E+03 -3.731893E+03
       486  24  1.801046E+05  1.060404E+05  5.385270E+03  1.383987E+05 -2.401612E+03 -1.405226E+03
       486  25  1.718930E+05  9.968938E+04  1.156995E+04  1.314844E+05 -9.434405E+03 -6.184583E+03
       486  26  1.732952E+05  9.960657E+04  6.091051E+03  1.340434E+05 -6.018326E+03 -3.851221E+03
       486  27  1.750356E+05  1.032972E+05  4.016632E+03  1.362603E+05 -2.583691E+03 -1.542363E+03
       487   1  1.823615E+05  1.077650E+05  5.283895E+03  1.393152E+05  1.436467E+03  8.497129E+02
       487   2  1.800718E+05  1.048199E+05  3.818880E+03  1.376603E+05 -2.811955E+02 -1.577671E+02
       487   3  1.766200E+05  1.037014E+05  3.722673E+03  1.364417E+05 -1.998797E+03 -1.165249E+03
       487   4  1.800728E+05  1.061404E+05  4.612713E+03  1.381696E+05  1.611841E+03  9.817978E+02
       487   5  1.806552E+05  1.052294E+05  3.991513E+03  1.379498E+05 -1.058492E+02 -2.570468E+01
       487   6  1.800754E+05  1.061450E+05  4.739139E+03  1.381662E+05 -1.823496E+03 -1.033222E+03
       487   7  1.777841E+05  1.045158E+05  3.941539E+03  1.370241E+05  1.787213E+03  1.113881E+03
       487   8  1.812385E+05  1.056389E+05  4.164146E+03  1.382392E+05  6.949634E+01  1.063572E+02
       487   9  1.835308E+05  1.085886E+05  5.755603E+03  1.398907E+05 -1.648195E+03 -9.011939E+02
       487  10  1.823615E+05  1.077650E+05  5.283890E+03  1.393152E+05 -1.682594E-09  6.250300E-09
       487  11  1.800718E+05  1.048199E+05  3.818880E+03  1.376603E+05  5.533375E-09  2.217771E-09
       487  12  1.766200E+05  1.037014E+05  3.722663E+03  1.364417E+05  3.024175E-09  2.543546E-09
       487  13  1.800728E+05  1.061404E+05  4.612706E+03  1.381696E+05  2.713343E-09 -5.341106E-09
       487  14  1.806552E+05  1.052294E+05  3.991513E+03  1.379498E+05  3.773640E-09 -1.465109E-08
       487  15  1.800754E+05  1.061450E+05  4.739130E+03  1.381662E+05  4.789715E-10 -2.344855E-09
       487  16  1.777841E+05  1.045158E+05  3.941531E+03  1.370241E+05  6.784531E-09  4.031916E-09
       487  17  1.812385E+05  1.056389E+05  4.164146E+03  1.382392E+05  5.369628E-09 -2.375214E-09
       487  18  1.835308E+05  1.085886E+05  5.755596E+03  1.398907E+05 -4.077503E-09 -5.864703E-09
       487  19  1.823615E+05  1.077650E+05  5.283895E+03  1.393152E+05 -1.436467E+03 -8.497129E+02
       487  20  1.800718E+05  1.048199E+05  3.818880E+03  1.376603E+05  2.811955E+02  1.577671E+02
       487  21  1.766200E+05  1.037014E+05  3.722673E+03  1.364417E+05  1.998797E+03  1.165249E+03
       487  22  1.800728E+05  1.061404E+05  4.612713E+03  1.381696E+05 -1.611841E+03 -9.817978E+02
       487  23  1.806552E+05  1.052294E+05  3.991513E+03  1.379498E+05  1.058492E+02  2.570468E+01
       487  24  1.800754E+05  1.061450E+05  4.739139E+03  1.381662E+05  1.823496E+03  1.033222E+03
       487  25  1.777841E+05  1.045158E+05  3.941539E+03  1.370241E+05 -1.787213E+03 -1.113881E+03
       487  26  1.812385E+05  1.056389E+05  4.164146E+03  1.382392E+05 -6.949634E+01 -1.063572E+02
       487  27  1.835308E+05  1.085886E+05  5.755603E+03  1.398907E+05  1.648195E+03  9.011939E+02
       488   1  1.738479E+05  1.024999E+05  3.869200E+03  1.356981E+05 -2.818532E+03 -1.611019E+03
       488   2  1.721310E+05  9.876079E+04  6.143592E+03  1.334512E+05 -6.411226E+03 -4.039544E+03
       488   3  1.708497E+05  9.891620E+04  1.199000E+04  1.308188E+05 -9.984345E+03 -6.494118E+03
       488   4  1.801106E+05  1.060398E+05  5.583941E+03  1.384098E+05 -2.636124E+03 -1.473635E+03
       488   5  1.804763E+05  1.051235E+05  8.706263E+03  1.378237E+05 -6.253895E+03 -3.921056E+03
       488   6  1.812829E+05  1.081073E+05  1.542236E+04  1.368520E+05 -9.852071E+03 -6.394525E+03
       488   7  1.863734E+05  1.095798E+05  7.298699E+03  1.411215E+05 -2.453711E+03 -1.336248E+03
       488   8  1.888216E+05  1.114863E+05  1.126893E+04  1.421962E+05 -6.096562E+03 -3.802565E+03
       488   9  1.917162E+05  1.172983E+05  1.885467E+04  1.428854E+05 -9.719796E+03 -6.294930E+03
       488  10  1.738479E+05  1.024999E+05  3.869180E+03  1.356981E+05  3.846025E-09  4.867368E-10
       488  11  1.721310E+05  9.876076E+04  6.143484E+03  1.334512E+05  3.868148E-09  1.256288E-10
       488  12  1.708496E+05  9.891612E+04  1.198973E+04  1.308187E+05  7.384284E-10 -8.402462E-09
       488  13  1.801106E+05  1.060398E+05  5.583924E+03  1.384098E+05  5.232153E-10 -3.268585E-09
       488  14  1.804762E+05  1.051235E+05  8.706161E+03  1.378237E+05  5.768509E-10  1.412546E-09
       488  15  1.812828E+05  1.081072E+05  1.542210E+04  1.368520E+05 -1.080686E-09 -1.085643E-08
       488  16  1.863734E+05  1.095798E+05  7.298684E+03  1.411215E+05 -5.152474E-09 -5.300406E-09
       488  17  1.888216E+05  1.114863E+05  1.126883E+04  1.421962E+05 -1.658169E-09 -1.063180E-09
       488  18  1.917161E+05  1.172982E+05  1.885442E+04  1.428853E+05 -6.650198E-09 -1.767035E-09
       488  19  1.738479E+05  1.024999E+05  3.869200E+03  1.356981E+05  2.818532E+03  1.611019E+03
       488  20  1.721310E+05  9.876079E+04  6.143592E+03  1.334512E+05  6.411226E+03  4.039544E+03
       488  21  1.708497E+05  9.891620E+04  1.199000E+04  1.308188E+05  9.984345E+03  6.494118E+03
       488  22  1.801106E+05  1.060398E+05  5.583941E+03  1.384098E+05  2.636124E+03  1.473635E+03
       488  23  1.804763E+05  1.051235E+05  8.706263E+03  1.378237E+05  6.253895E+03  3.921056E+03
       488  24  1.812829E+05  1.081073E+05  1.542236E+04  1.368520E+05  9.852071E+03  6.394525E+03
       488  25  1.863734E+05  1.095798E+05  7.298699E+03  1.411215E+05  2.453711E+03  1.336248E+03
       488  26  1.888216E+05  1.114863E+05  1.126893E+04  1.421962E+05  6.096562E+03  3.802565E+03
       488  27  1.917162E+05  1.172983E+05  1.885467E+04  1.428854E+05  9.719796E+03  6.294930E+03
       489   1  1.593980E+05  1.038947E+05  1.522293E+04  1.366926E+05 -1.244515E+04 -8.107610E+03
       489   2  1.716314E+05  8.232028E+04  2.783171E+04  1.242234E+05 -2.579667E+04 -1.813065E+04
       489   3  2.127020E+05  1.034038E+05  6.517181E+04  9.323159E+04 -3.871430E+04 -2.872972E+04
       489   4  1.812768E+05  1.055629E+05  1.932460E+04  1.412454E+05 -1.214931E+04 -7.884556E+03
       489   5  1.781629E+05  1.042128E+05  3.289360E+04  1.354119E+05 -2.605474E+04 -1.832567E+04
       489   6  2.040045E+05  1.456395E+05  7.167490E+04  1.110562E+05 -3.952584E+04 -2.934376E+04
       489   7  2.031562E+05  1.072312E+05  2.342628E+04  1.457983E+05 -1.185346E+04 -7.661503E+03
       489   8  1.846946E+05  1.261063E+05  3.795554E+04  1.466008E+05 -2.631281E+04 -1.852071E+04
       489   9  1.953085E+05  1.878798E+05  7.817848E+04  1.288811E+05 -4.033736E+04 -2.995791E+04
       489  10  1.593978E+05  1.038946E+05  1.522252E+04  1.366925E+05 -3.023396E-09 -7.346454E-09
       489  11  1.716306E+05  8.231975E+04  2.782984E+04  1.242230E+05 -1.693344E-09 -4.813545E-09
       489  12  2.127001E+05  1.034026E+05  6.516745E+04  9.323069E+04 -9.796837E-10 -3.204756E-09
       489  13  1.812766E+05  1.055628E+05  1.932420E+04  1.412453E+05 -1.019082E-09  1.228939E-09
       489  14  1.781621E+05  1.042123E+05  3.289169E+04  1.354115E+05  6.118241E-10 -3.864809E-09
       489  15  2.040026E+05  1.456382E+05  7.167035E+04  1.110553E+05  1.938673E-09 -3.949836E-09
       489  16  2.031560E+05  1.072311E+05  2.342591E+04  1.457983E+05 -2.295784E-09 -1.696698E-09
       489  17  1.846938E+05  1.261058E+05  3.795360E+04  1.466004E+05  3.073018E-09 -1.017174E-08
       489  18  1.953065E+05  1.878784E+05  7.817374E+04  1.288801E+05  2.483850E-09 -5.226470E-09
       489  19  1.593980E+05  1.038947E+05  1.522293E+04  1.366926E+05  1.244515E+04  8.107610E+03
       489  20  1.716314E+05  8.232028E+04  2.783171E+04  1.242234E+05  2.579667E+04  1.813065E+04
       489  21  2.127020E+05  1.034038E+05  6.517181E+04  9.323159E+04  3.871430E+04  2.872972E+04
       489  22  1.812768E+05  1.055629E+05  1.932460E+04  1.412454E+05  1.214931E+04  7.884556E+03
       489  23  1.781629E+05  1.042128E+05  3.289360E+04  1.354119E+05  2.605474E+04  1.832567E+04
       489  24  2.040045E+05  1.456395E+05  7.167490E+04  1.110562E+05  3.952584E+04  2.934376E+04
       489  25  2.031562E+05  1.072312E+05  2.342628E+04  1.457983E+05  1.185346E+04  7.661503E+03
       489  26  1.846946E+05  1.261063E+05  3.795554E+04  1.466008E+05  2.631281E+04  1.852071E+04
       489  27  1.953085E+05  1.878798E+05  7.817848E+04  1.288811E+05  4.033736E+04  2.995791E+04
       490   1 -6.596061E+04 -4.002284E+05 -6.762738E+04  4.625923E+04 -2.239658E+03 -1.815568E+04
       490   2 -3.623448E+04 -3.399413E+05 -4.143585E+04  3.027787E+04 -6.335713E+03 -8.039024E+03
       490   3 -2.128945E+04 -2.845525E+05 -2.551201E+04  3.680591E+04 -4.644422E+03  2.089703E+03
       490   4 -1.490908E+04 -1.950955E+05 -1.774034E+04  3.870373E+04 -2.251873E+03 -1.146883E+04
       490   5 -3.003433E+02 -1.931242E+05 -8.686688E+03  2.746322E+04 -6.337646E+03 -6.903890E+03
       490   6  4.935409E+02 -1.950891E+05 -6.042244E+03  3.873232E+04 -4.636535E+03 -2.327940E+03
       490   7  3.613958E+04  1.007591E+04  3.214385E+04  3.114575E+04 -2.264248E+03 -4.779779E+03
       490   8  3.563235E+04 -4.628688E+04  2.406113E+04  2.464791E+04 -6.339589E+03 -5.768491E+03
       490   9  2.227602E+04 -1.056181E+05  1.342711E+04  4.065901E+04 -4.628675E+03 -6.746211E+03
       490  10 -6.596070E+04 -4.002287E+05 -6.762801E+04  4.625920E+04 -2.745092E-09 -2.398640E-09
       490  11 -3.623454E+04 -3.399414E+05 -4.143605E+04  3.027783E+04 -5.522700E-09  3.089129E-09
       490  12 -2.128947E+04 -2.845525E+05 -2.551206E+04  3.680592E+04 -9.398215E-10 -3.336016E-10
       490  13 -1.490912E+04 -1.950957E+05 -1.774060E+04  3.870371E+04 -1.093555E-09 -4.130412E-09
       490  14 -3.003992E+02 -1.931242E+05 -8.686854E+03  2.746319E+04 -6.378246E-09  6.141005E-09
       490  15  4.935164E+02 -1.950891E+05 -6.042295E+03  3.873231E+04 -1.953773E-10 -3.093849E-09
       490  16  3.613957E+04  1.007588E+04  3.214380E+04  3.114574E+04 -1.422356E-09  9.102128E-10
       490  17  3.563230E+04 -4.628693E+04  2.406100E+04  2.464788E+04 -3.208739E-09  6.075128E-09
       490  18  2.227599E+04 -1.056182E+05  1.342699E+04  4.065898E+04 -1.122993E-09 -1.111996E-09
       490  19 -6.596061E+04 -4.002284E+05 -6.762738E+04  4.625923E+04  2.239658E+03  1.815568E+04
       490  20 -3.623448E+04 -3.399413E+05 -4.143585E+04  3.027787E+04  6.335713E+03  8.039024E+03
       490  21 -2.128945E+04 -2.845525E+05 -2.551201E+04  3.680591E+04  4.644422E+03 -2.089703E+03
       490  22 -1.490908E+04 -1.950955E+05 -1.774034E+04  3.870373E+04  2.251873E+03  1.146883E+04
       490  23 -3.003433E+02 -1.931242E+05 -8.686688E+03  2.746322E+04  6.337646E+03  6.903890E+03
       490  24  4.935409E+02 -1.950891E+05 -6.042244E+03  3.873232E+04  4.636535E+03  2.327940E+03
       490  25  3.613958E+04  1.007591E+04  3.214385E+04  3.114575E+04  2.264248E+03  4.779779E+03
       490  26  3.563235E+04 -4.628688E+04  2.406113E+04  2.464791E+04  6.339589E+03  5.768491E+03
       490  27  2.227602E+04 -1.056181E+05  1.342711E+04  4.065901E+04  4.628675E+03  6.746211E+03
       491   1 -1.139924E+04 -2.377618E+05 -1.502206E+04  3.934862E+04 -2.191193E+03  1.471237E+03
       491   2  3.455072E+03 -1.795659E+05 -2.148392E+03  2.733877E+04  7.642507E+02  4.090844E+03
       491   3  1.627065E+04 -1.221123E+05  8.533753E+03  3.810986E+04  3.686321E+03  6.710679E+03
       491   4 -8.223905E+02 -1.943801E+05 -5.541362E+03  3.878530E+04 -2.186154E+03 -1.385742E+03
       491   5 -5.919837E+01 -1.940049E+05 -5.276780E+03  2.739433E+04  7.692640E+02  1.265798E+03
       491   6 -1.340121E+03 -1.943807E+05 -7.225809E+03  3.878439E+04  3.691302E+03  3.917329E+03
       491   7  9.754343E+03 -1.509967E+05  3.939253E+03  3.822195E+04 -2.181110E+03 -4.242918E+03
       491   8 -3.573478E+03 -2.084437E+05 -8.405151E+03  2.744989E+04  7.742768E+02 -1.559183E+03
       491   9 -1.895123E+04 -2.666442E+05 -2.298565E+04  3.945883E+04  3.696276E+03  1.124301E+03
       491  10 -1.139925E+04 -2.377618E+05 -1.502207E+04  3.934862E+04  1.637924E-09 -2.584350E-08
       491  11  3.455067E+03 -1.795660E+05 -2.148425E+03  2.733877E+04  3.979909E-09  4.078992E-10
       491  12  1.627062E+04 -1.221124E+05  8.533643E+03  3.810984E+04  1.538581E-09  1.273189E-08
       491  13 -8.223961E+02 -1.943801E+05 -5.541375E+03  3.878530E+04  1.835438E-09 -5.034018E-09
       491  14 -5.919943E+01 -1.940049E+05 -5.276785E+03  2.739433E+04  3.907161E-09  5.052602E-09
       491  15 -1.340139E+03 -1.943807E+05 -7.225863E+03  3.878438E+04  3.067080E-09 -3.047083E-09
       491  16  9.754333E+03 -1.509967E+05  3.939210E+03  3.822194E+04  5.987222E-10  2.078950E-08
       491  17 -3.573479E+03 -2.084437E+05 -8.405157E+03  2.744989E+04 -1.016914E-09  7.166894E-09
       491  18 -1.895125E+04 -2.666442E+05 -2.298568E+04  3.945883E+04 -3.296876E-11 -1.487083E-08
       491  19 -1.139924E+04 -2.377618E+05 -1.502206E+04  3.934862E+04  2.191193E+03 -1.471237E+03
       491  20  3.455072E+03 -1.795659E+05 -2.148392E+03  2.733877E+04 -7.642507E+02 -4.090844E+03
       491  21  1.627065E+04 -1.221123E+05  8.533753E+03  3.810986E+04 -3.686321E+03 -6.710679E+03
       491  22 -8.223905E+02 -1.943801E+05 -5.541362E+03  3.878530E+04  2.186154E+03  1.385742E+03
       491  23 -5.919837E+01 -1.940049E+05 -5.276780E+03  2.739433E+04 -7.692640E+02 -1.265798E+03
       491  24 -1.340121E+03 -1.943807E+05 -7.225809E+03  3.878439E+04 -3.691302E+03 -3.917329E+03
       491  25  9.754343E+03 -1.509967E+05  3.939253E+03  3.822195E+04  2.181110E+03  4.242918E+03
       491  26 -3.573478E+03 -2.084437E+05 -8.405151E+03  2.744989E+04 -7.742768E+02  1.559183E+03
       491  27 -1.895123E+04 -2.666442E+05 -2.298565E+04  3.945883E+04 -3.696276E+03 -1.124301E+03
       492   1  2.976372E+04 -7.727920E+04  1.716550E+04  4.197506E+04  6.188347E+03  9.748638E+03
       492   2  4.254063E+04 -1.674686E+04  2.544436E+04  2.296149E+04  7.687341E+03  1.070524E+04
       492   3  3.375893E+04  3.839224E+04  2.773606E+04  2.640630E+04  2.663837E+03  1.164945E+04
       492   4  9.557229E+02 -1.956565E+05 -8.551788E+03  3.872583E+04  6.196553E+03  5.176290E+03
       492   5 -4.390383E+02 -1.924182E+05 -1.366564E+04  2.747228E+04  7.684447E+03  1.239272E+04
       492   6 -2.448264E+04 -1.956649E+05 -2.911595E+04  3.867801E+04  2.649039E+03  1.959651E+04
       492   7 -2.785315E+04 -3.140205E+05 -3.426983E+04  3.547724E+04  6.204807E+03  6.048020E+02
       492   8 -4.342072E+04 -3.680607E+05 -5.277755E+04  3.198178E+04  7.681576E+03  1.407973E+04
       492   9 -8.272765E+04 -4.296715E+05 -8.597160E+04  5.094511E+04  2.634552E+03  2.754059E+04
       492  10  2.976366E+04 -7.727931E+04  1.716525E+04  4.197501E+04  5.069432E-10 -1.735936E-09
       492  11  4.254053E+04 -1.674700E+04  2.544404E+04  2.296143E+04  1.228155E-10  1.834392E-09
       492  12  3.375888E+04  3.839210E+04  2.773579E+04  2.640627E+04 -4.164808E-10 -1.348166E-09
       492  13  9.556744E+02 -1.956565E+05 -8.551910E+03  3.872581E+04 -6.832212E-11 -4.025537E-09
       492  14 -4.391429E+02 -1.924184E+05 -1.366604E+04  2.747220E+04  2.104750E-09  1.998256E-09
       492  15 -2.448275E+04 -1.956653E+05 -2.911668E+04  3.867797E+04 -1.354116E-10 -2.671327E-09
       492  16 -2.785320E+04 -3.140205E+05 -3.426990E+04  3.547723E+04  7.814153E-10 -2.767171E-09
       492  17 -4.342084E+04 -3.680609E+05 -5.277803E+04  3.198170E+04  2.008224E-09  5.102391E-09
       492  18 -8.272786E+04 -4.296724E+05 -8.597304E+04  5.094505E+04  3.853060E-10 -4.471764E-09
       492  19  2.976372E+04 -7.727920E+04  1.716550E+04  4.197506E+04 -6.188347E+03 -9.748638E+03
       492  20  4.254063E+04 -1.674686E+04  2.544436E+04  2.296149E+04 -7.687341E+03 -1.070524E+04
       492  21  3.375893E+04  3.839224E+04  2.773606E+04  2.640630E+04 -2.663837E+03 -1.164945E+04
       492  22  9.557229E+02 -1.956565E+05 -8.551788E+03  3.872583E+04 -6.196553E+03 -5.176290E+03
       492  23 -4.390383E+02 -1.924182E+05 -1.366564E+04  2.747228E+04 -7.684447E+03 -1.239272E+04
       492  24 -2.448264E+04 -1.956649E+05 -2.911595E+04  3.867801E+04 -2.649039E+03 -1.959651E+04
       492  25 -2.785315E+04 -3.140205E+05 -3.426983E+04  3.547724E+04 -6.204807E+03 -6.048020E+02
       492  26 -4.342072E+04 -3.680607E+05 -5.277755E+04  3.198178E+04 -7.681576E+03 -1.407973E+04
       492  27 -8.272765E+04 -4.296715E+05 -8.597160E+04  5.094511E+04 -2.634552E+03 -2.754059E+04
       493   1 -5.144551E+05  7.254176E+04  5.931908E+04  2.233415E+04 -2.263352E+04 -6.310090E+03
       493   2 -5.800620E+05  1.035765E+05  6.581507E+04  2.490688E+04 -2.030225E+04 -1.939137E+04
       493   3 -6.572396E+05  8.912108E+04  5.943617E+04  5.494995E+04 -1.796154E+04 -1.904454E+04
       493   4 -1.013667E+06 -5.162268E+04 -6.164365E+04  4.784544E+04 -4.160076E+04 -6.297975E+03
       493   5 -1.006734E+06 -7.724677E+02 -2.882249E+04  3.412581E+04 -2.639614E+04 -1.938909E+04
       493   6 -1.013623E+06  2.332537E+03 -1.783368E+04  4.787883E+04 -1.118130E+04 -1.904809E+04
       493   7 -1.512650E+06 -1.758028E+05 -1.826227E+05  7.333617E+04 -6.055278E+04 -6.287417E+03
       493   8 -1.433235E+06 -1.051334E+05 -1.234712E+05  4.333834E+04 -3.248589E+04 -1.938700E+04
       493   9 -1.369888E+06 -8.446420E+04 -9.511090E+04  4.081184E+04 -4.404902E+03 -1.905179E+04
       493  10 -5.144556E+05  7.254158E+04  5.931804E+04  2.233403E+04  1.459507E-12  2.385788E-11
       493  11 -5.800625E+05  1.035759E+05  6.581359E+04  2.490656E+04  8.322426E-11 -1.637502E-11
       493  12 -6.572400E+05  8.912060E+04  5.943488E+04  5.494967E+04  2.440653E-10  5.499525E-11
       493  13 -1.013669E+06 -5.162319E+04 -6.164699E+04  4.784523E+04  4.084962E-10  3.138820E-11
       493  14 -1.006735E+06 -7.730586E+02 -2.882451E+04  3.412540E+04  3.247164E-10  5.255464E-11
       493  15 -1.013624E+06  2.332114E+03 -1.783460E+04  4.787866E+04  1.997473E-10  1.649802E-11
       493  16 -1.512654E+06 -1.758038E+05 -1.826296E+05  7.333586E+04 -2.370070E-10 -3.536382E-11
       493  17 -1.433237E+06 -1.051341E+05 -1.234739E+05  4.333784E+04  3.266782E-10 -1.266305E-11
       493  18 -1.369888E+06 -8.446460E+04 -9.511162E+04  4.081177E+04 -8.790307E-11 -4.603495E-11
       493  19 -5.144551E+05  7.254176E+04  5.931908E+04  2.233415E+04  2.263352E+04  6.310090E+03
       493  20 -5.800620E+05  1.035765E+05  6.581507E+04  2.490688E+04  2.030225E+04  1.939137E+04
       493  21 -6.572396E+05  8.912108E+04  5.943617E+04  5.494995E+04  1.796154E+04  1.904454E+04
       493  22 -1.013667E+06 -5.162268E+04 -6.164365E+04  4.784544E+04  4.160076E+04  6.297975E+03
       493  23 -1.006734E+06 -7.724677E+02 -2.882249E+04  3.412581E+04  2.639614E+04  1.938909E+04
       493  24 -1.013623E+06  2.332537E+03 -1.783368E+04  4.787883E+04  1.118130E+04  1.904809E+04
       493  25 -1.512650E+06 -1.758028E+05 -1.826227E+05  7.333617E+04  6.055278E+04  6.287417E+03
       493  26 -1.433235E+06 -1.051334E+05 -1.234712E+05  4.333834E+04  3.248589E+04  1.938700E+04
       493  27 -1.369888E+06 -8.446420E+04 -9.511090E+04  4.081184E+04  4.404902E+03  1.905179E+04
       494   1 -7.116897E+05  7.025642E+04  5.019766E+04  4.693196E+04 -1.155816E+04 -1.554351E+04
       494   2 -7.828135E+05  5.544669E+04  3.875682E+04  3.352588E+04 -6.862115E+03 -1.213494E+04
       494   3 -8.551991E+05  3.784201E+04  2.356721E+04  4.840593E+04 -2.167430E+03 -8.125195E+03
       494   4 -1.010852E+06 -2.662940E+03 -1.494756E+04  4.805086E+04 -8.572758E+03 -1.554519E+04
       494   5 -1.010162E+06  6.980048E+01 -1.055169E+04  3.390785E+04 -3.302387E+03 -1.213639E+04
       494   6 -1.010840E+06 -9.269413E+01 -1.030504E+04  4.805170E+04  1.967156E+03 -8.126287E+03
       494   7 -1.309929E+06 -7.558824E+04 -8.009813E+04  4.916921E+04 -5.588779E+03 -1.554687E+04
       494   8 -1.237462E+06 -5.531051E+04 -5.986322E+04  3.428968E+04  2.560549E+02 -1.213783E+04
       494   9 -1.166458E+06 -3.802900E+04 -4.417867E+04  4.769756E+04  6.100718E+03 -8.127384E+03
       494  10 -7.116899E+05  7.025612E+04  5.019696E+04  4.693181E+04  1.084857E-10 -2.429940E-11
       494  11 -7.828136E+05  5.544652E+04  3.875645E+04  3.352581E+04 -1.313648E-11 -5.743033E-11
       494  12 -8.551992E+05  3.784194E+04  2.356707E+04  4.840592E+04  1.811028E-11  5.450317E-12
       494  13 -1.010852E+06 -2.663219E+03 -1.494816E+04  4.805075E+04  2.568669E-10 -6.413860E-11
       494  14 -1.010162E+06  6.963945E+01 -1.055198E+04  3.390781E+04  2.303951E-10 -3.148293E-11
       494  15 -1.010840E+06 -9.276606E+01 -1.030517E+04  4.805172E+04 -4.529403E-12 -1.944724E-10
       494  16 -1.309929E+06 -7.558851E+04 -8.009864E+04  4.916914E+04 -1.894424E-10 -5.927526E-11
       494  17 -1.237462E+06 -5.531067E+04 -5.986350E+04  3.428968E+04  1.941606E-10 -2.349023E-10
       494  18 -1.166458E+06 -3.802908E+04 -4.417886E+04  4.769760E+04  6.955198E-11 -2.471530E-10
       494  19 -7.116897E+05  7.025642E+04  5.019766E+04  4.693196E+04  1.155816E+04  1.554351E+04
       494  20 -7.828135E+05  5.544669E+04  3.875682E+04  3.352588E+04  6.862115E+03  1.213494E+04
       494  21 -8.551991E+05  3.784201E+04  2.356721E+04  4.840593E+04  2.167430E+03  8.125195E+03
       494  22 -1.010852E+06 -2.662940E+03 -1.494756E+04  4.805086E+04  8.572758E+03  1.554519E+04
       494  23 -1.010162E+06  6.980048E+01 -1.055169E+04  3.390785E+04  3.302387E+03  1.213639E+04
       494  24 -1.010840E+06 -9.269413E+01 -1.030504E+04  4.805170E+04 -1.967156E+03  8.126287E+03
       494  25 -1.309929E+06 -7.558824E+04 -8.009813E+04  4.916921E+04  5.588779E+03  1.554687E+04
       494  26 -1.237462E+06 -5.531051E+04 -5.986322E+04  3.428968E+04 -2.560549E+02  1.213783E+04
       494  27 -1.166458E+06 -3.802900E+04 -4.417867E+04  4.769756E+04 -6.100718E+03  8.127384E+03
       495   1 -9.125660E+05  2.412279E+04  9.861562E+03  4.708342E+04 -1.869175E+02 -5.602717E+03
       495   2 -9.832878E+05  6.580195E+03 -1.028027E+04  3.434176E+04  8.094113E+03 -1.519783E+03
       495   3 -1.056423E+06 -1.639902E+04 -3.717458E+04  4.997144E+04  1.637380E+04  2.274808E+03
       495   4 -1.011060E+06  1.727239E+02 -1.128685E+04  4.807068E+04  3.868080E+03 -5.603612E+03
       495   5 -1.009876E+06  1.156205E+02 -1.598592E+04  3.388430E+04  1.187204E+04 -1.520577E+03
       495   6 -1.011064E+06 -5.329853E+03 -2.724471E+04  4.806952E+04  1.987559E+04  2.274089E+03
       495   7 -1.109544E+06 -2.377797E+04 -3.243577E+04  4.905778E+04  7.922443E+03 -5.604495E+03
       495   8 -1.036464E+06 -6.348991E+03 -2.169155E+04  3.342686E+04  1.564981E+04 -1.521377E+03
       495   9 -9.657031E+05  5.739194E+03 -1.731491E+04  4.616745E+04  2.337764E+04  2.273349E+03
       495  10 -9.125660E+05  2.412275E+04  9.861503E+03  4.708342E+04 -9.585320E-11  5.317976E-11
       495  11 -9.832879E+05  6.580174E+03 -1.028040E+04  3.434177E+04 -1.373708E-10  5.591711E-11
       495  12 -1.056423E+06 -1.639910E+04 -3.717510E+04  4.997141E+04  1.114131E-10  1.933412E-10
       495  13 -1.011060E+06  1.726861E+02 -1.128694E+04  4.807070E+04  2.119808E-10 -3.264060E-11
       495  14 -1.009877E+06  1.155801E+02 -1.598619E+04  3.388432E+04  1.678999E-10  1.213591E-10
       495  15 -1.011064E+06 -5.329965E+03 -2.724546E+04  4.806948E+04  6.636219E-11  9.389710E-11
       495  16 -1.109544E+06 -2.377802E+04 -3.243594E+04  4.905781E+04  8.817558E-11 -4.830978E-11
       495  17 -1.036465E+06 -6.349060E+03 -2.169201E+04  3.342688E+04  1.466078E-10  4.588671E-11
       495  18 -9.657037E+05  5.739041E+03 -1.731595E+04  4.616741E+04  3.604411E-11 -6.093330E-11
       495  19 -9.125660E+05  2.412279E+04  9.861562E+03  4.708342E+04  1.869175E+02  5.602717E+03
       495  20 -9.832878E+05  6.580195E+03 -1.028027E+04  3.434176E+04 -8.094113E+03  1.519783E+03
       495  21 -1.056423E+06 -1.639902E+04 -3.717458E+04  4.997144E+04 -1.637380E+04 -2.274808E+03
       495  22 -1.011060E+06  1.727239E+02 -1.128685E+04  4.807068E+04 -3.868080E+03  5.603612E+03
       495  23 -1.009876E+06  1.156205E+02 -1.598592E+04  3.388430E+04 -1.187204E+04  1.520577E+03
       495  24 -1.011064E+06 -5.329853E+03 -2.724471E+04  4.806952E+04 -1.987559E+04 -2.274089E+03
       495  25 -1.109544E+06 -2.377797E+04 -3.243577E+04  4.905778E+04 -7.922443E+03  5.604495E+03
       495  26 -1.036464E+06 -6.348991E+03 -2.169155E+04  3.342686E+04 -1.564981E+04  1.521377E+03
       495  27 -9.657031E+05  5.739194E+03 -1.731491E+04  4.616745E+04 -2.337764E+04 -2.273349E+03
       496   1 -1.119453E+06 -2.021964E+04 -5.627926E+04  3.336429E+04  1.920702E+04  5.282136E+03
       496   2 -1.176731E+06 -4.406625E+04 -9.609413E+04  5.218109E+04  5.615763E+04  7.483923E+03
       496   3 -1.263229E+06 -1.656047E+05 -1.844145E+05  9.898130E+04  9.310197E+04  2.686740E+03
       496   4 -1.016763E+06  4.814503E+03 -3.388121E+04  4.799346E+04  2.468428E+04  5.281422E+03
       496   5 -1.002769E+06 -1.447500E+03 -5.723226E+04  3.398336E+04  5.492939E+04  7.482454E+03
       496   6 -1.016823E+06 -1.042230E+05 -1.244162E+05  4.796053E+04  8.517269E+04  2.681485E+03
       496   7 -9.140630E+05  2.984876E+04 -1.148357E+04  6.262508E+04  3.016243E+04  5.280967E+03
       496   8 -8.287789E+05  4.117043E+04 -1.837211E+04  1.578048E+04  5.370081E+04  7.481058E+03
       496   9 -7.703564E+05 -4.283588E+04 -6.442067E+04 -3.080581E+03  7.724027E+04  2.677537E+03
       496  10 -1.119453E+06 -2.021977E+04 -5.628001E+04  3.336420E+04 -1.692728E-10  1.618184E-10
       496  11 -1.176734E+06 -4.406716E+04 -9.610017E+04  5.218075E+04 -1.413190E-10 -6.518541E-12
       496  12 -1.263238E+06 -1.656070E+05 -1.844309E+05  9.898109E+04  2.413092E-10 -8.749832E-12
       496  13 -1.016764E+06  4.814309E+03 -3.388241E+04  4.799335E+04  1.090578E-10  1.130607E-10
       496  14 -1.002773E+06 -1.448372E+03 -5.723804E+04  3.398303E+04  2.619858E-10 -2.320709E-12
       496  15 -1.016831E+06 -1.042249E+05 -1.244299E+05  4.796034E+04  1.421053E-11 -3.233810E-11
       496  16 -9.140640E+05  2.984849E+04 -1.148533E+04  6.262496E+04 -7.048940E-12 -1.264756E-10
       496  17 -8.287820E+05  4.116960E+04 -1.837764E+04  1.578015E+04  8.324947E-11 -1.173978E-10
       496  18 -7.703628E+05 -4.283749E+04 -6.443191E+04 -3.080748E+03 -2.020034E-10 -9.007006E-11
       496  19 -1.119453E+06 -2.021964E+04 -5.627926E+04  3.336429E+04 -1.920702E+04 -5.282136E+03
       496  20 -1.176731E+06 -4.406625E+04 -9.609413E+04  5.218109E+04 -5.615763E+04 -7.483923E+03
       496  21 -1.263229E+06 -1.656047E+05 -1.844145E+05  9.898130E+04 -9.310197E+04 -2.686740E+03
       496  22 -1.016763E+06  4.814503E+03 -3.388121E+04  4.799346E+04 -2.468428E+04 -5.281422E+03
       496  23 -1.002769E+06 -1.447500E+03 -5.723226E+04  3.398336E+04 -5.492939E+04 -7.482454E+03
       496  24 -1.016823E+06 -1.042230E+05 -1.244162E+05  4.796053E+04 -8.517269E+04 -2.681485E+03
       496  25 -9.140630E+05  2.984876E+04 -1.148357E+04  6.262508E+04 -3.016243E+04 -5.280967E+03
       496  26 -8.287789E+05  4.117043E+04 -1.837211E+04  1.578048E+04 -5.370081E+04 -7.481058E+03
       496  27 -7.703564E+05 -4.283588E+04 -6.442067E+04 -3.080581E+03 -7.724027E+04 -2.677537E+03
       497   1 -4.399637E+05  1.916975E+04  6.018378E+03  3.415318E+03 -3.499546E+04 -3.852620E+03
       497   2 -4.804036E+05  6.276633E+04  2.574791E+04  1.238565E+04 -2.611442E+04 -1.177409E+04
       497   3 -5.349142E+05  5.455931E+04  2.674868E+04  3.965322E+04 -1.723135E+04 -1.137383E+04
       497   4 -7.481273E+05 -5.746479E+04 -6.866206E+04  3.162642E+04 -4.656906E+04 -3.850481E+03
       497   5 -7.403795E+05 -8.054638E+02 -3.192861E+04  2.248558E+04 -2.971090E+04 -1.177395E+04
       497   6 -7.480986E+05  2.650931E+03 -1.947487E+04  3.164342E+04 -1.284979E+04 -1.137463E+04
       497   7 -1.056202E+06 -1.341032E+05 -1.433484E+05  5.982346E+04 -5.813692E+04 -3.849396E+03
       497   8 -1.000292E+06 -6.438144E+04 -8.960924E+04  3.258123E+04 -3.330588E+04 -1.177392E+04
       497   9 -9.612402E+05 -4.926021E+04 -6.570102E+04  2.363641E+04 -8.469722E+03 -1.137555E+04
       497  10 -4.399650E+05  1.916941E+04  6.016047E+03  3.415209E+03  1.806092E-10  5.868407E-11
       497  11 -4.804044E+05  6.276600E+04  2.574637E+04  1.238540E+04 -7.953233E-11  1.643892E-11
       497  12 -5.349145E+05  5.455909E+04  2.674788E+04  3.965306E+04  2.069629E-13  1.240294E-10
       497  13 -7.481297E+05 -5.746539E+04 -6.866617E+04  3.162627E+04  1.954019E-10  1.172034E-10
       497  14 -7.403804E+05 -8.058499E+02 -3.193054E+04  2.248530E+04  2.650289E-10 -1.275101E-10
       497  15 -7.480989E+05  2.650748E+03 -1.947542E+04  3.164331E+04  1.550962E-10  1.361280E-11
       497  16 -1.056206E+06 -1.341042E+05 -1.433548E+05  5.982328E+04 -2.297884E-10 -7.296124E-11
       497  17 -1.000293E+06 -6.438189E+04 -8.961158E+04  3.258091E+04  2.003385E-10 -2.094665E-11
       497  18 -9.612403E+05 -4.926036E+04 -6.570140E+04  2.363634E+04  6.245303E-11 -4.884635E-11
       497  19 -4.399637E+05  1.916975E+04  6.018378E+03  3.415318E+03  3.499546E+04  3.852620E+03
       497  20 -4.804036E+05  6.276633E+04  2.574791E+04  1.238565E+04  2.611442E+04  1.177409E+04
       497  21 -5.349142E+05  5.455931E+04  2.674868E+04  3.965322E+04  1.723135E+04  1.137383E+04
       497  22 -7.481273E+05 -5.746479E+04 -6.866206E+04  3.162642E+04  4.656906E+04  3.850481E+03
       497  23 -7.403795E+05 -8.054638E+02 -3.192861E+04  2.248558E+04  2.971090E+04  1.177395E+04
       497  24 -7.480986E+05  2.650931E+03 -1.947487E+04  3.164342E+04  1.284979E+04  1.137463E+04
       497  25 -1.056202E+06 -1.341032E+05 -1.433484E+05  5.982346E+04  5.813692E+04  3.849396E+03
       497  26 -1.000292E+06 -6.438144E+04 -8.960924E+04  3.258123E+04  3.330588E+04  1.177392E+04
       497  27 -9.612402E+05 -4.926021E+04 -6.570102E+04  2.363641E+04  8.469722E+03  1.137555E+04
       498   1 -5.697863E+05  3.976900E+04  2.203948E+04  3.061213E+04 -1.205693E+04 -9.094939E+03
       498   2 -6.166976E+05  3.115473E+04  1.689542E+04  2.202349E+04 -7.028601E+03 -6.798283E+03
       498   3 -6.650152E+05  1.947534E+04  7.712209E+03  3.220282E+04 -2.001048E+03 -4.132209E+03
       498   4 -7.449888E+05 -2.926948E+03 -1.610827E+04  3.174327E+04 -1.002843E+04 -9.095417E+03
       498   5 -7.442505E+05  9.212274E+01 -1.076786E+04  2.235929E+04 -4.647103E+03 -6.798625E+03
       498   6 -7.449834E+05 -1.581738E+01 -9.712947E+03  3.174359E+04  7.338137E+02 -4.132384E+03
       498   7 -9.201625E+05 -4.562493E+04 -5.425785E+04  3.287409E+04 -8.000489E+03 -9.095888E+03
       498   8 -8.717881E+05 -3.097156E+04 -3.843209E+04  2.269502E+04 -2.266087E+03 -6.798965E+03
       498   9 -8.249455E+05 -1.950740E+04 -2.713846E+04  3.128442E+04  3.468328E+03 -4.132564E+03
       498  10 -5.697865E+05  3.976887E+04  2.203905E+04  3.061205E+04  5.424337E-11  8.307437E-11
       498  11 -6.166976E+05  3.115467E+04  1.689524E+04  2.202345E+04  1.637928E-11 -1.608019E-11
       498  12 -6.650152E+05  1.947532E+04  7.712169E+03  3.220281E+04 -1.920938E-10  7.463651E-11
       498  13 -7.449889E+05 -2.927064E+03 -1.610861E+04  3.174320E+04  1.768807E-10  7.319781E-11
       498  14 -7.442505E+05  9.206732E+01 -1.076799E+04  2.235927E+04  2.139470E-10  1.305198E-10
       498  15 -7.449834E+05 -1.583585E+01 -9.712981E+03  3.174359E+04 -1.154144E-10 -1.004361E-10
       498  16 -9.201625E+05 -4.562503E+04 -5.425812E+04  3.287403E+04 -9.195093E-11  3.603484E-11
       498  17 -8.717882E+05 -3.097161E+04 -3.843218E+04  2.269501E+04  5.774198E-11 -8.882739E-11
       498  18 -8.249455E+05 -1.950742E+04 -2.713851E+04  3.128443E+04  3.654723E-11 -1.291305E-10
       498  19 -5.697863E+05  3.976900E+04  2.203948E+04  3.061213E+04  1.205693E+04  9.094939E+03
       498  20 -6.166976E+05  3.115473E+04  1.689542E+04  2.202349E+04  7.028601E+03  6.798283E+03
       498  21 -6.650152E+05  1.947534E+04  7.712209E+03  3.220282E+04  2.001048E+03  4.132209E+03
       498  22 -7.449888E+05 -2.926948E+03 -1.610827E+04  3.174327E+04  1.002843E+04  9.095417E+03
       498  23 -7.442505E+05  9.212274E+01 -1.076786E+04  2.235929E+04  4.647103E+03  6.798625E+03
       498  24 -7.449834E+05 -1.581738E+01 -9.712947E+03  3.174359E+04 -7.338137E+02  4.132384E+03
       498  25 -9.201625E+05 -4.562493E+04 -5.425785E+04  3.287409E+04  8.000489E+03  9.095888E+03
       498  26 -8.717881E+05 -3.097156E+04 -3.843209E+04  2.269502E+04  2.266087E+03  6.798965E+03
       498  27 -8.249455E+05 -1.950740E+04 -2.713846E+04  3.128442E+04 -3.468328E+03  4.132564E+03
       499   1 -7.030233E+05  1.035183E+04 -1.263686E+03  3.096204E+04 -2.041226E+02 -2.459699E+03
       499   2 -7.496715E+05 -1.251627E+03 -1.501533E+04  2.275189E+04  6.898919E+03  2.409801E+02
       499   3 -7.983753E+05 -1.739668E+04 -3.453017E+04  3.334289E+04  1.400148E+04  2.721816E+03
       499   4 -7.451043E+05  1.304304E+02 -1.025522E+04  3.175091E+04  2.492005E+03 -2.459817E+03
       499   5 -7.440960E+05  1.133090E+02 -1.377101E+04  2.235019E+04  9.384122E+03  2.408551E+02
       499   6 -7.451077E+05 -4.408317E+03 -2.290288E+04  3.175067E+04  1.627629E+04  2.721665E+03
       499   7 -7.871835E+05 -1.009108E+04 -1.924683E+04  3.253972E+04  5.187953E+03 -2.459929E+03
       499   8 -7.385204E+05  1.478247E+03 -1.252667E+04  2.194848E+04  1.186935E+04  2.407269E+02
       499   9 -6.918375E+05  8.579872E+03 -1.127575E+04  3.015831E+04  1.855129E+04  2.721504E+03
       499  10 -7.030233E+05  1.035183E+04 -1.263697E+03  3.096204E+04 -1.185717E-10 -2.306365E-11
       499  11 -7.496715E+05 -1.251640E+03 -1.501541E+04  2.275189E+04 -1.903529E-10 -1.806633E-10
       499  12 -7.983755E+05 -1.739674E+04 -3.453055E+04  3.334286E+04 -6.519926E-12 -1.176243E-10
       499  13 -7.451043E+05  1.304223E+02 -1.025524E+04  3.175091E+04  1.855408E-10 -1.615715E-11
       499  14 -7.440961E+05  1.132852E+02 -1.377117E+04  2.235018E+04  1.196416E-10 -1.724452E-10
       499  15 -7.451080E+05 -4.408396E+03 -2.290339E+04  3.175063E+04  7.811367E-12 -2.671236E-10
       499  16 -7.871835E+05 -1.009109E+04 -1.924689E+04  3.253973E+04  9.290870E-11 -1.376342E-10
       499  17 -7.385206E+05  1.478209E+03 -1.252693E+04  2.194848E+04  2.778658E-10  2.006834E-10
       499  18 -6.918379E+05  8.579772E+03 -1.127641E+04  3.015827E+04 -7.335068E-11 -2.046778E-10
       499  19 -7.030233E+05  1.035183E+04 -1.263686E+03  3.096204E+04  2.041226E+02  2.459699E+03
       499  20 -7.496715E+05 -1.251627E+03 -1.501533E+04  2.275189E+04 -6.898919E+03 -2.409801E+02
       499  21 -7.983753E+05 -1.739668E+04 -3.453017E+04  3.334289E+04 -1.400148E+04 -2.721816E+03
       499  22 -7.451043E+05  1.304304E+02 -1.025522E+04  3.175091E+04 -2.492005E+03  2.459817E+03
       499  23 -7.440960E+05  1.133090E+02 -1.377101E+04  2.235019E+04 -9.384122E+03 -2.408551E+02
       499  24 -7.451077E+05 -4.408317E+03 -2.290288E+04  3.175067E+04 -1.627629E+04 -2.721665E+03
       499  25 -7.871835E+05 -1.009108E+04 -1.924683E+04  3.253972E+04 -5.187953E+03  2.459929E+03
       499  26 -7.385204E+05  1.478247E+03 -1.252667E+04  2.194848E+04 -1.186935E+04 -2.407269E+02
       499  27 -6.918375E+05  8.579872E+03 -1.127575E+04  3.015831E+04 -1.855129E+04 -2.721504E+03
       500   1 -8.410980E+05 -1.822634E+04 -4.820101E+04  1.954139E+04  1.656197E+04  4.761011E+03
       500   2 -8.766617E+05 -3.508529E+04 -7.848900E+04  3.753033E+04  4.673955E+04  6.054385E+03
       500   3 -9.364078E+05 -1.329623E+05 -1.486954E+05  7.404142E+04  7.691386E+04  2.120229E+03
       500   4 -7.498341E+05  4.012523E+03 -2.834107E+04  3.169254E+04  2.031350E+04  4.761073E+03
       500   5 -7.381983E+05 -1.191235E+03 -4.762635E+04  2.242428E+04  4.548051E+04  6.053285E+03
       500   6 -7.498701E+05 -8.653452E+04 -1.033411E+05  3.168071E+04  7.064677E+04  2.115837E+03
       500   7 -6.585619E+05  2.625140E+04 -8.481492E+03  4.384551E+04  2.406558E+04  4.761283E+03
       500   8 -5.997164E+05  3.270238E+04 -1.676477E+04  7.314821E+03  4.422120E+04  6.052246E+03
       500   9 -5.632967E+05 -4.010250E+04 -5.798816E+04 -1.069277E+04  6.437780E+04  2.112302E+03
       500  10 -8.410983E+05 -1.822644E+04 -4.820157E+04  1.954132E+04 -6.453595E-11 -2.015268E-10
       500  11 -8.766641E+05 -3.508592E+04 -7.849318E+04  3.753010E+04 -1.703837E-12 -5.147010E-11
       500  12 -9.364141E+05 -1.329639E+05 -1.487065E+05  7.404129E+04  1.255952E-11  7.237010E-11
       500  13 -7.498345E+05  4.012388E+03 -2.834189E+04  3.169247E+04  6.030160E-11 -2.940604E-10
       500  14 -7.382005E+05 -1.191831E+03 -4.763031E+04  2.242406E+04 -1.772041E-11 -1.985241E-10
       500  15 -7.498754E+05 -8.653587E+04 -1.033505E+05  3.168059E+04  1.347067E-10 -1.377459E-11
       500  16 -6.585626E+05  2.625122E+04 -8.482624E+03  4.384542E+04 -7.355607E-11 -3.350053E-10
       500  17 -5.997185E+05  3.270181E+04 -1.676851E+04  7.314605E+03 -9.682243E-11 -2.576906E-10
       500  18 -5.633011E+05 -4.010362E+04 -5.799596E+04 -1.069288E+04  3.081363E-11 -9.584660E-11
       500  19 -8.410980E+05 -1.822634E+04 -4.820101E+04  1.954139E+04 -1.656197E+04 -4.761011E+03
       500  20 -8.766617E+05 -3.508529E+04 -7.848900E+04  3.753033E+04 -4.673955E+04 -6.054385E+03
       500  21 -9.364078E+05 -1.329623E+05 -1.486954E+05  7.404142E+04 -7.691386E+04 -2.120229E+03
       500  22 -7.498341E+05  4.012523E+03 -2.834107E+04  3.169254E+04 -2.031350E+04 -4.761073E+03
       500  23 -7.381983E+05 -1.191235E+03 -4.762635E+04  2.242428E+04 -4.548051E+04 -6.053285E+03
       500  24 -7.498701E+05 -8.653452E+04 -1.033411E+05  3.168071E+04 -7.064677E+04 -2.115837E+03
       500  25 -6.585619E+05  2.625140E+04 -8.481492E+03  4.384551E+04 -2.406558E+04 -4.761283E+03
       500  26 -5.997164E+05  3.270238E+04 -1.676477E+04  7.314821E+03 -4.422120E+04 -6.052246E+03
       500  27 -5.632967E+05 -4.010250E+04 -5.798816E+04 -1.069277E+04 -6.437780E+04 -2.112302E+03
       501   1 -1.064118E+05  4.767887E+04  4.060270E+04  1.957940E+04 -1.030629E+04 -3.710574E+03
       501   2 -1.527900E+05  6.049091E+04  4.029218E+04  1.846428E+04 -1.018601E+04 -1.124108E+04
       501   3 -2.049774E+05  5.001470E+04  3.408638E+04  3.637023E+04 -1.006457E+04 -1.067312E+04
       501   4 -4.053899E+05 -2.662751E+04 -3.184348E+04  3.265720E+04 -2.141456E+04 -3.709440E+03
       501   5 -4.018011E+05 -3.760915E+02 -1.495366E+04  2.314732E+04 -1.352352E+04 -1.124128E+04
       501   6 -4.053773E+05  1.231977E+03 -9.360130E+03  3.265962E+04 -5.631332E+03 -1.067320E+04
       501   7 -7.042857E+05 -1.009397E+05 -1.042955E+05  4.572869E+04 -3.251750E+04 -3.708775E+03
       501   8 -6.507542E+05 -6.124719E+04 -7.020330E+04  2.782846E+04 -1.685971E+04 -1.124153E+04
       501   9 -6.057395E+05 -4.755334E+04 -5.280894E+04  2.895023E+04 -1.199505E+03 -1.067333E+04
       501  10 -1.064119E+05  4.767882E+04  4.060247E+04  1.957937E+04  9.073842E-11 -5.605009E-11
       501  11 -1.527902E+05  6.049074E+04  4.029175E+04  1.846419E+04 -4.964277E-12 -6.008904E-11
       501  12 -2.049775E+05  5.001455E+04  3.408597E+04  3.637014E+04  1.399351E-10 -7.032556E-11
       501  13 -4.053904E+05 -2.662764E+04 -3.184437E+04  3.265714E+04  1.507699E-10 -6.004512E-11
       501  14 -4.018013E+05 -3.762763E+02 -1.495424E+04  2.314720E+04  5.961169E-11 -1.891443E-10
       501  15 -4.053774E+05  1.231846E+03 -9.360404E+03  3.265957E+04  3.441765E-10  1.093788E-10
       501  16 -7.042868E+05 -1.009400E+05 -1.042976E+05  4.572859E+04 -2.657545E-10 -1.292034E-11
       501  17 -6.507545E+05 -6.124740E+04 -7.020407E+04  2.782830E+04  9.004632E-11 -2.536357E-10
       501  18 -6.057395E+05 -4.755346E+04 -5.280916E+04  2.895022E+04 -2.647976E-12 -7.745769E-11
       501  19 -1.064118E+05  4.767887E+04  4.060270E+04  1.957940E+04  1.030629E+04  3.710574E+03
       501  20 -1.527900E+05  6.049091E+04  4.029218E+04  1.846428E+04  1.018601E+04  1.124108E+04
       501  21 -2.049774E+05  5.001470E+04  3.408638E+04  3.637023E+04  1.006457E+04  1.067312E+04
       501  22 -4.053899E+05 -2.662751E+04 -3.184348E+04  3.265720E+04  2.141456E+04  3.709440E+03
       501  23 -4.018011E+05 -3.760915E+02 -1.495366E+04  2.314732E+04  1.352352E+04  1.124128E+04
       501  24 -4.053773E+05  1.231977E+03 -9.360130E+03  3.265962E+04  5.631332E+03  1.067320E+04
       501  25 -7.042857E+05 -1.009397E+05 -1.042955E+05  4.572869E+04  3.251750E+04  3.708775E+03
       501  26 -6.507542E+05 -6.124719E+04 -7.020330E+04  2.782846E+04  1.685971E+04  1.124153E+04
       501  27 -6.057395E+05 -4.755334E+04 -5.280894E+04  2.895023E+04  1.199505E+03  1.067333E+04
       502   1 -2.428931E+05  3.788919E+04  2.713487E+04  3.221218E+04 -6.393190E+03 -8.352387E+03
       502   2 -2.918545E+05  2.725616E+04  1.840945E+04  2.285933E+04 -3.831500E+03 -5.943694E+03
       502   3 -3.415089E+05  1.516955E+04  7.652562E+03  3.294071E+04 -1.270343E+03 -3.178456E+03
       502   4 -4.039504E+05 -1.345395E+03 -7.923957E+03  3.275066E+04 -4.252098E+03 -8.352425E+03
       502   5 -4.035715E+05  5.910156E+01 -5.816069E+03  2.303337E+04 -1.348908E+03 -5.943558E+03
       502   6 -4.039468E+05 -4.917720E+01 -5.977017E+03  3.275056E+04  1.553952E+03 -3.178111E+03
       502   7 -5.649834E+05 -4.058170E+04 -4.298432E+04  3.328899E+04 -2.111555E+03 -8.352460E+03
       502   8 -5.152769E+05 -2.713878E+04 -3.004231E+04  2.320738E+04  1.133242E+03 -5.943421E+03
       502   9 -4.663810E+05 -1.526816E+04 -1.960680E+04  3.256044E+04  4.377966E+03 -3.177767E+03
       502  10 -2.428932E+05  3.788911E+04  2.713466E+04  3.221214E+04  5.442247E-10 -1.781153E-10
       502  11 -2.918545E+05  2.725612E+04  1.840936E+04  2.285931E+04 -1.050147E-10 -6.290395E-11
       502  12 -3.415089E+05  1.516954E+04  7.652540E+03  3.294071E+04 -1.955656E-10  1.255673E-10
       502  13 -4.039505E+05 -1.345475E+03 -7.924122E+03  3.275063E+04  6.355383E-10 -1.100073E-10
       502  14 -4.035716E+05  5.906315E+01 -5.816139E+03  2.303337E+04 -1.653509E-10  6.231922E-11
       502  15 -4.039468E+05 -4.918869E+01 -5.977041E+03  3.275057E+04 -2.790136E-11  2.166496E-10
       502  16 -5.649834E+05 -4.058178E+04 -4.298446E+04  3.328898E+04 -3.060926E-10 -2.022828E-10
       502  17 -5.152769E+05 -2.713882E+04 -3.004238E+04  2.320739E+04 -1.957005E-10 -3.894099E-10
       502  18 -4.663811E+05 -1.526817E+04 -1.960686E+04  3.256045E+04  2.357728E-10  1.138627E-10
       502  19 -2.428931E+05  3.788919E+04  2.713487E+04  3.221218E+04  6.393190E+03  8.352387E+03
       502  20 -2.918545E+05  2.725616E+04  1.840945E+04  2.285933E+04  3.831500E+03  5.943694E+03
       502  21 -3.415089E+05  1.516955E+04  7.652562E+03  3.294071E+04  1.270343E+03  3.178456E+03
       502  22 -4.039504E+05 -1.345395E+03 -7.923957E+03  3.275066E+04  4.252098E+03  8.352425E+03
       502  23 -4.035715E+05  5.910156E+01 -5.816069E+03  2.303337E+04  1.348908E+03  5.943558E+03
       502  24 -4.039468E+05 -4.917720E+01 -5.977017E+03  3.275056E+04 -1.553952E+03  3.178111E+03
       502  25 -5.649834E+05 -4.058170E+04 -4.298432E+04  3.328899E+04  2.111555E+03  8.352460E+03
       502  26 -5.152769E+05 -2.713878E+04 -3.004231E+04  2.320738E+04 -1.133242E+03  5.943421E+03
       502  27 -4.663810E+05 -1.526816E+04 -1.960680E+04  3.256044E+04 -4.377966E+03  3.177767E+03
       503   1 -3.808663E+05  5.772750E+03 -1.779188E+03  3.214716E+04 -1.277813E+02 -1.447927E+03
       503   2 -4.294410E+05 -6.269167E+03 -1.542836E+04  2.330830E+04  4.994672E+03  1.341217E+03
       503   3 -4.795236E+05 -2.166801E+04 -3.325456E+04  3.391747E+04  1.011680E+04  3.878136E+03
       503   4 -4.041046E+05  1.417928E+02 -6.686368E+03  3.275352E+04  2.668895E+03 -1.447544E+03
       503   5 -4.033718E+05  8.352434E+01 -9.745819E+03  2.302970E+04  7.549416E+03  1.341523E+03
       503   6 -4.041068E+05 -3.289334E+03 -1.681382E+04  3.275393E+04  1.243001E+04  3.878364E+03
       503   7 -4.273424E+05 -5.489193E+03 -1.159355E+04  3.335985E+04  5.465468E+03 -1.447156E+03
       503   8 -3.773020E+05  6.436174E+03 -4.063293E+03  2.275109E+04  1.010427E+04  1.341826E+03
       503   9 -3.286846E+05  1.508897E+04 -3.734053E+02  3.159024E+04  1.474350E+04  3.878583E+03
       503  10 -3.808663E+05  5.772747E+03 -1.779192E+03  3.214716E+04  2.519998E-10  9.385362E-11
       503  11 -4.294410E+05 -6.269175E+03 -1.542841E+04  2.330830E+04 -9.888646E-11 -3.086327E-10
       503  12 -4.795237E+05 -2.166806E+04 -3.325478E+04  3.391744E+04 -1.707087E-10 -5.399594E-11
       503  13 -4.041046E+05  1.417886E+02 -6.686386E+03  3.275352E+04 -1.694521E-10  1.282115E-10
       503  14 -4.033719E+05  8.350710E+01 -9.745929E+03  2.302969E+04  2.088272E-10 -2.972595E-10
       503  15 -4.041069E+05 -3.289392E+03 -1.681414E+04  3.275389E+04  1.727806E-10 -2.787546E-10
       503  16 -4.273424E+05 -5.489204E+03 -1.159361E+04  3.335986E+04 -2.495492E-10  5.075362E-12
       503  17 -3.773021E+05  6.436144E+03 -4.063488E+03  2.275108E+04 -2.406448E-10 -2.014613E-10
       503  18 -3.286849E+05  1.508890E+04 -3.738423E+02  3.159019E+04  2.419959E-10 -7.735964E-11
       503  19 -3.808663E+05  5.772750E+03 -1.779188E+03  3.214716E+04  1.277813E+02  1.447927E+03
       503  20 -4.294410E+05 -6.269167E+03 -1.542836E+04  2.330830E+04 -4.994672E+03 -1.341217E+03
       503  21 -4.795236E+05 -2.166801E+04 -3.325456E+04  3.391747E+04 -1.011680E+04 -3.878136E+03
       503  22 -4.041046E+05  1.417928E+02 -6.686368E+03  3.275352E+04 -2.668895E+03  1.447544E+03
       503  23 -4.033718E+05  8.352434E+01 -9.745819E+03  2.302970E+04 -7.549416E+03 -1.341523E+03
       503  24 -4.041068E+05 -3.289334E+03 -1.681382E+04  3.275393E+04 -1.243001E+04 -3.878364E+03
       503  25 -4.273424E+05 -5.489193E+03 -1.159355E+04  3.335985E+04 -5.465468E+03  1.447156E+03
       503  26 -3.773020E+05  6.436174E+03 -4.063293E+03  2.275109E+04 -1.010427E+04 -1.341826E+03
       503  27 -3.286846E+05  1.508897E+04 -3.734053E+02  3.159024E+04 -1.474350E+04 -3.878583E+03
       504   1 -5.223804E+05 -2.494135E+04 -4.589161E+04  2.358477E+04  1.141221E+04  6.028661E+03
       504   2 -5.625164E+05 -4.090096E+04 -7.189291E+04  3.438228E+04  3.585357E+04  7.223051E+03
       504   3 -6.210479E+05 -1.177287E+05 -1.290322E+05  6.433594E+04  6.029238E+04  2.492528E+03
       504   4 -4.076481E+05  3.005349E+03 -2.095997E+04  3.268910E+04  1.540053E+04  6.029161E+03
       504   5 -3.989538E+05 -8.918708E+02 -3.549250E+04  2.311070E+04  3.416078E+04  7.222187E+03
       504   6 -4.076657E+05 -6.466277E+04 -7.721033E+04  3.269047E+04  5.292068E+04  2.489393E+03
       504   7 -2.929031E+05  3.095149E+04  3.970986E+03  4.179513E+04  1.938958E+04  6.029778E+03
       504   8 -2.353660E+05  3.911588E+04  9.063218E+02  1.183612E+04  3.246754E+04  7.221384E+03
       504   9 -1.942396E+05 -1.159637E+04 -2.539106E+04  1.034071E+03  4.554645E+04  2.487011E+03
       504  10 -5.223806E+05 -2.494142E+04 -4.589193E+04  2.358472E+04 -1.028305E-11 -2.009685E-11
       504  11 -5.625178E+05 -4.090136E+04 -7.189543E+04  3.438207E+04  1.650878E-10  3.716878E-11
       504  12 -6.210518E+05 -1.177297E+05 -1.290390E+05  6.433582E+04  1.436087E-10  2.365533E-12
       504  13 -4.076483E+05  3.005247E+03 -2.096049E+04  3.268902E+04 -3.649143E-10 -2.670718E-12
       504  14 -3.989551E+05 -8.922403E+02 -3.549479E+04  2.311050E+04  7.376123E-11 -2.082526E-10
       504  15 -4.076687E+05 -6.466353E+04 -7.721561E+04  3.269036E+04  8.110217E-11 -2.545214E-11
       504  16 -2.929036E+05  3.095135E+04  3.970211E+03  4.179504E+04 -2.450779E-10 -7.217532E-11
       504  17 -2.353672E+05  3.911554E+04  9.042421E+02  1.183593E+04 -3.744348E-11 -7.486693E-11
       504  18 -1.942418E+05 -1.159693E+04 -2.539497E+04  1.033980E+03 -1.624857E-10 -2.207553E-11
       504  19 -5.223804E+05 -2.494135E+04 -4.589161E+04  2.358477E+04 -1.141221E+04 -6.028661E+03
       504  20 -5.625164E+05 -4.090096E+04 -7.189291E+04  3.438228E+04 -3.585357E+04 -7.223051E+03
       504  21 -6.210479E+05 -1.177287E+05 -1.290322E+05  6.433594E+04 -6.029238E+04 -2.492528E+03
       504  22 -4.076481E+05  3.005349E+03 -2.095997E+04  3.268910E+04 -1.540053E+04 -6.029161E+03
       504  23 -3.989538E+05 -8.918708E+02 -3.549250E+04  2.311070E+04 -3.416078E+04 -7.222187E+03
       504  24 -4.076657E+05 -6.466277E+04 -7.721033E+04  3.269047E+04 -5.292068E+04 -2.489393E+03
       504  25 -2.929031E+05  3.095149E+04  3.970986E+03  4.179513E+04 -1.938958E+04 -6.029778E+03
       504  26 -2.353660E+05  3.911588E+04  9.063218E+02  1.183612E+04 -3.246754E+04 -7.221384E+03
       504  27 -1.942396E+05 -1.159637E+04 -2.539106E+04  1.034071E+03 -4.554645E+04 -2.487011E+03
       505   1  3.159633E+05  8.043705E+04  8.194366E+04  3.880264E+04  2.293994E+04 -3.166855E+03
       505   2  2.665173E+05  5.193156E+04  5.556039E+04  2.469276E+04  1.161698E+04 -9.500977E+03
       505   3  2.225857E+05  3.953342E+04  4.057535E+04  2.863769E+04  2.949202E+02 -8.788649E+03
       505   4  5.704618E+04  1.611834E+04  1.920820E+04  3.091782E+04  1.347030E+04 -3.167248E+03
       505   5  5.487911E+04  2.193557E+02  8.599543E+03  2.189072E+04  8.916464E+03 -9.501429E+03
       505   6  5.705244E+04 -7.438205E+02  4.691979E+03  3.091846E+04  4.362702E+03 -8.788269E+03
       505   7 -2.018094E+05 -4.820499E+04 -4.353171E+04  2.303630E+04  4.004587E+03 -3.167401E+03
       505   8 -1.567172E+05 -5.149584E+04 -3.836406E+04  1.908965E+04  6.216853E+03 -9.501857E+03
       505   9 -1.084551E+05 -4.102285E+04 -3.119296E+04  3.319860E+04  8.429414E+03 -8.787859E+03
       505  10  3.159628E+05  8.043690E+04  8.194265E+04  3.880270E+04  3.821508E-11 -1.221791E-11
       505  11  2.665171E+05  5.193143E+04  5.555997E+04  2.469285E+04 -4.384933E-11 -1.463512E-11
       505  12  2.225857E+05  3.953334E+04  4.057520E+04  2.863769E+04 -1.323862E-10  1.335471E-10
       505  13  5.704598E+04  1.611828E+04  1.920784E+04  3.091786E+04 -1.050455E-10 -6.567712E-11
       505  14  5.487900E+04  2.192374E+02  8.599224E+03  2.189079E+04 -2.624431E-10 -6.493830E-11
       505  15  5.705240E+04 -7.439086E+02  4.691798E+03  3.091849E+04  1.007748E-10 -7.526654E-11
       505  16 -2.018095E+05 -4.820501E+04 -4.353176E+04  2.303631E+04 -1.932590E-10 -7.878526E-11
       505  17 -1.567173E+05 -5.149595E+04 -3.836430E+04  1.908970E+04  5.725188E-11 -2.279700E-10
       505  18 -1.084552E+05 -4.102295E+04 -3.119324E+04  3.319866E+04  1.368575E-10 -9.257576E-11
       505  19  3.159633E+05  8.043705E+04  8.194366E+04  3.880264E+04 -2.293994E+04  3.166855E+03
       505  20  2.665173E+05  5.193156E+04  5.556039E+04  2.469276E+04 -1.161698E+04  9.500977E+03
       505  21  2.225857E+05  3.953342E+04  4.057535E+04  2.863769E+04 -2.949202E+02  8.788649E+03
       505  22  5.704618E+04  1.611834E+04  1.920820E+04  3.091782E+04 -1.347030E+04  3.167248E+03
       505  23  5.487911E+04  2.193557E+02  8.599543E+03  2.189072E+04 -8.916464E+03  9.501429E+03
       505  24  5.705244E+04 -7.438205E+02  4.691979E+03  3.091846E+04 -4.362702E+03  8.788269E+03
       505  25 -2.018094E+05 -4.820499E+04 -4.353171E+04  2.303630E+04 -4.004587E+03  3.167401E+03
       505  26 -1.567172E+05 -5.149584E+04 -3.836406E+04  1.908965E+04 -6.216853E+03  9.501857E+03
       505  27 -1.084551E+05 -4.102285E+04 -3.119296E+04  3.319860E+04 -8.429414E+03  8.787859E+03
       506   1  1.844842E+05  3.208599E+04  3.138812E+04  3.124728E+04  1.664052E+03 -6.642295E+03
       506   2  1.377235E+05  1.988684E+04  1.882674E+04  2.183758E+04  8.055979E+02 -4.331325E+03
       506   3  9.126590E+04  8.461105E+03  7.016246E+03  3.079331E+04 -5.308289E+01 -1.713360E+03
       506   4  5.614582E+04  8.361305E+02  3.459690E+03  3.098729E+04  3.735350E+03 -6.642059E+03
       506   5  5.602194E+04  5.171254E+00  1.110841E+03  2.180460E+04  3.171762E+03 -4.330938E+03
       506   6  5.614816E+04 -1.033222E+02 -6.915831E+02  3.098747E+04  2.607885E+03 -1.712795E+03
       506   7 -7.217713E+04 -3.041482E+04 -2.446972E+04  3.072735E+04  5.806226E+03 -6.641825E+03
       506   8 -2.567332E+04 -1.987694E+04 -1.660543E+04  2.177161E+04  5.537619E+03 -4.330551E+03
       506   9  2.103159E+04 -8.667828E+03 -8.399461E+03  3.118161E+04  5.268704E+03 -1.712229E+03
       506  10  1.844842E+05  3.208594E+04  3.138804E+04  3.124729E+04  2.331511E-10  1.018685E-10
       506  11  1.377235E+05  1.988682E+04  1.882670E+04  2.183759E+04 -6.726481E-11 -1.204740E-10
       506  12  9.126590E+04  8.461102E+03  7.016241E+03  3.079331E+04 -3.780711E-10 -1.365957E-10
       506  13  5.614579E+04  8.360793E+02  3.459581E+03  3.098731E+04  3.323569E-10 -7.639850E-11
       506  14  5.602192E+04  5.148411E+00  1.110787E+03  2.180461E+04 -1.967805E-10 -2.440806E-10
       506  15  5.614815E+04 -1.033272E+02 -6.916014E+02  3.098747E+04 -3.696537E-11  1.983284E-11
       506  16 -7.217718E+04 -3.041488E+04 -2.446986E+04  3.072738E+04  9.468126E-11 -7.490662E-11
       506  17 -2.567335E+04 -1.987696E+04 -1.660553E+04  2.177163E+04  1.093594E-10 -2.307368E-10
       506  18  2.103156E+04 -8.667839E+03 -8.399519E+03  3.118162E+04  2.349579E-10 -6.387156E-11
       506  19  1.844842E+05  3.208599E+04  3.138812E+04  3.124728E+04 -1.664052E+03  6.642295E+03
       506  20  1.377235E+05  1.988684E+04  1.882674E+04  2.183758E+04 -8.055979E+02  4.331325E+03
       506  21  9.126590E+04  8.461105E+03  7.016246E+03  3.079331E+04  5.308289E+01  1.713360E+03
       506  22  5.614582E+04  8.361305E+02  3.459690E+03  3.098729E+04 -3.735350E+03  6.642059E+03
       506  23  5.602194E+04  5.171254E+00  1.110841E+03  2.180460E+04 -3.171762E+03  4.330938E+03
       506  24  5.614816E+04 -1.033222E+02 -6.915831E+02  3.098747E+04 -2.607885E+03  1.712795E+03
       506  25 -7.217713E+04 -3.041482E+04 -2.446972E+04  3.072735E+04 -5.806226E+03  6.641825E+03
       506  26 -2.567332E+04 -1.987694E+04 -1.660543E+04  2.177161E+04 -5.537619E+03  4.330551E+03
       506  27  2.103159E+04 -8.667828E+03 -8.399461E+03  3.118161E+04 -5.268704E+03  1.712229E+03
       507   1  5.404117E+04 -3.452673E+02 -2.126950E+03  3.064345E+04  1.593636E+02 -7.926377E+01
       507   2  7.788199E+03 -1.177024E+04 -1.445831E+04  2.190440E+04  2.388285E+03  2.548032E+03
       507   3 -3.916622E+04 -2.482683E+04 -2.865040E+04  3.153260E+04  4.617191E+03  4.908474E+03
       507   4  5.594629E+04  1.410742E+02 -1.601096E+03  3.098771E+04  2.809426E+03 -7.868604E+01
       507   5  5.627545E+04  3.267222E+01 -3.929096E+03  2.180429E+04  4.782237E+03  2.548484E+03
       507   6  5.594508E+04 -1.662810E+03 -7.939856E+03  3.098806E+04  6.755199E+03  4.908814E+03
       507   7  5.785142E+04  6.274196E+02 -1.075216E+03  3.133197E+04  5.459497E+03 -7.810538E+01
       507   8  1.047649E+05  1.183543E+04  6.600004E+03  2.170416E+04  7.176374E+03  2.548936E+03
       507   9  1.510649E+05  2.150061E+04  1.277016E+04  3.044344E+04  8.893530E+03  4.909151E+03
       507  10  5.404117E+04 -3.452673E+02 -2.126950E+03  3.064345E+04 -1.262537E-10 -1.906240E-10
       507  11  7.788192E+03 -1.177024E+04 -1.445834E+04  2.190439E+04 -3.083802E-11 -1.453933E-10
       507  12 -3.916625E+04 -2.482686E+04 -2.865048E+04  3.153258E+04 -8.119673E-11 -8.620603E-11
       507  13  5.594628E+04  1.410721E+02 -1.601111E+03  3.098771E+04  4.888026E-11 -1.800333E-10
       507  14  5.627542E+04  3.265911E+01 -3.929151E+03  2.180428E+04 -4.356772E-10 -4.591686E-10
       507  15  5.594503E+04 -1.662848E+03 -7.939988E+03  3.098804E+04 -1.778909E-10 -6.154378E-11
       507  16  5.785139E+04  6.274116E+02 -1.075272E+03  3.133197E+04  1.084638E-10 -2.878135E-11
       507  17  1.047649E+05  1.183541E+04  6.599895E+03  2.170415E+04 -3.104020E-10 -4.202697E-11
       507  18  1.510648E+05  2.150057E+04  1.276996E+04  3.044341E+04 -1.298798E-10  2.702643E-11
       507  19  5.404117E+04 -3.452673E+02 -2.126950E+03  3.064345E+04 -1.593636E+02  7.926377E+01
       507  20  7.788199E+03 -1.177024E+04 -1.445831E+04  2.190440E+04 -2.388285E+03 -2.548032E+03
       507  21 -3.916622E+04 -2.482683E+04 -2.865040E+04  3.153260E+04 -4.617191E+03 -4.908474E+03
       507  22  5.594629E+04  1.410742E+02 -1.601096E+03  3.098771E+04 -2.809426E+03  7.868604E+01
       507  23  5.627545E+04  3.267222E+01 -3.929096E+03  2.180429E+04 -4.782237E+03 -2.548484E+03
       507  24  5.594508E+04 -1.662810E+03 -7.939856E+03  3.098806E+04 -6.755199E+03 -4.908814E+03
       507  25  5.785142E+04  6.274196E+02 -1.075216E+03  3.133197E+04 -5.459497E+03  7.810538E+01
       507  26  1.047649E+05  1.183543E+04  6.600004E+03  2.170416E+04 -7.176374E+03 -2.548936E+03
       507  27  1.510649E+05  2.150061E+04  1.277016E+04  3.044344E+04 -8.893530E+03 -4.909151E+03
       508   1 -7.813264E+04 -3.067693E+04 -3.888485E+04  2.629650E+04  4.275217E+03  6.987888E+03
       508   2 -1.199003E+05 -4.406982E+04 -5.738310E+04  2.755197E+04  1.961185E+04  7.943767E+03
       508   3 -1.714722E+05 -8.872166E+04 -9.368091E+04  4.689614E+04  3.494768E+04  2.695299E+03
       508   4  5.414104E+04  1.520477E+03 -1.018228E+04  3.092547E+04  8.169669E+03  6.988457E+03
       508   5  5.852349E+04 -4.560823E+02 -1.773868E+04  2.188227E+04  1.755310E+04  7.943212E+03
       508   6  5.413721E+04 -3.265300E+04 -3.895707E+04  3.092816E+04  2.693689E+04  2.693911E+03
       508   7  1.864312E+05  3.371681E+04  1.851932E+04  3.555543E+04  1.206494E+04  6.989083E+03
       508   8  2.369771E+05  4.315563E+04  2.190379E+04  1.621091E+04  1.549376E+04  7.942695E+03
       508   9  2.797938E+05  2.341292E+04  1.576348E+04  1.495437E+04  1.892320E+04  2.692936E+03
       508  10 -7.813267E+04 -3.067698E+04 -3.888498E+04  2.629647E+04  2.492827E-10  1.858460E-10
       508  11 -1.199007E+05 -4.406999E+04 -5.738394E+04  2.755185E+04 -9.658995E-11  1.285930E-10
       508  12 -1.714735E+05 -8.872199E+04 -9.368322E+04  4.689606E+04 -1.029829E-10 -8.512461E-11
       508  13  5.414095E+04  1.520406E+03 -1.018249E+04  3.092542E+04 -1.753230E-10  2.837476E-10
       508  14  5.852314E+04 -4.562328E+02 -1.773937E+04  2.188215E+04 -6.422467E-11  8.119476E-11
       508  15  5.413643E+04 -3.265320E+04 -3.895845E+04  3.092810E+04 -1.905083E-10  1.763748E-11
       508  16  1.864310E+05  3.371672E+04  1.851896E+04  3.555537E+04 -2.509655E-10  7.172743E-11
       508  17  2.369768E+05  4.315549E+04  2.190322E+04  1.621081E+04 -9.555651E-11 -2.811251E-10
       508  18  2.797934E+05  2.341281E+04  1.576279E+04  1.495433E+04 -5.844599E-12 -2.454992E-11
       508  19 -7.813264E+04 -3.067693E+04 -3.888485E+04  2.629650E+04 -4.275217E+03 -6.987888E+03
       508  20 -1.199003E+05 -4.406982E+04 -5.738310E+04  2.755197E+04 -1.961185E+04 -7.943767E+03
       508  21 -1.714722E+05 -8.872166E+04 -9.368091E+04  4.689614E+04 -3.494768E+04 -2.695299E+03
       508  22  5.414104E+04  1.520477E+03 -1.018228E+04  3.092547E+04 -8.169669E+03 -6.988457E+03
       508  23  5.852349E+04 -4.560823E+02 -1.773868E+04  2.188227E+04 -1.755310E+04 -7.943212E+03
       508  24  5.413721E+04 -3.265300E+04 -3.895707E+04  3.092816E+04 -2.693689E+04 -2.693911E+03
       508  25  1.864312E+05  3.371681E+04  1.851932E+04  3.555543E+04 -1.206494E+04 -6.989083E+03
       508  26  2.369771E+05  4.315563E+04  2.190379E+04  1.621091E+04 -1.549376E+04 -7.942695E+03
       508  27  2.797938E+05  2.341292E+04  1.576348E+04  1.495437E+04 -1.892320E+04 -2.692936E+03
       509   1  8.935631E+05  1.320864E+05  1.439436E+05  6.588458E+04  6.600158E+04 -3.063626E+03
       509   2  8.354487E+05  5.096802E+04  8.320304E+04  3.474669E+04  3.937097E+04 -9.150979E+03
       509   3  7.970897E+05  3.499896E+04  5.607148E+04  2.227894E+04  1.274237E+04 -8.318723E+03
       509   4  6.399625E+05  6.912069E+04  8.251775E+04  3.200470E+04  5.681711E+04 -3.067829E+03
       509   5  6.306733E+05  9.576610E+02  3.777443E+04  2.267376E+04  3.684259E+04 -9.152250E+03
       509   6  6.399904E+05 -3.199783E+03  2.203041E+04  3.201120E+04  1.686777E+04 -8.317908E+03
       509   7  3.864233E+05  6.154664E+03  2.108816E+04 -1.861324E+03  4.763637E+04 -3.071033E+03
       509   8  4.259374E+05 -4.905498E+04 -7.656676E+03  1.060486E+04  3.431504E+04 -9.153423E+03
       509   9  4.829145E+05 -4.139979E+04 -1.201201E+04  4.174097E+04  2.099214E+04 -8.316964E+03
       509  10  8.935584E+05  1.320852E+05  1.439355E+05  6.588474E+04  2.228567E-11  6.073592E-11
       509  11  8.354470E+05  5.096752E+04  8.319997E+04  3.474698E+04 -2.387972E-10 -2.186672E-10
       509  12  7.970895E+05  3.499884E+04  5.607104E+04  2.227903E+04  6.998980E-12 -1.725114E-10
       509  13  6.399591E+05  6.911982E+04  8.251167E+04  3.200484E+04  8.011429E-12 -6.519206E-11
       509  14  6.306719E+05  9.572071E+02  3.777173E+04  2.267403E+04 -3.729883E-10 -1.380308E-10
       509  15  6.399901E+05 -3.199933E+03  2.202975E+04  3.201132E+04  2.184244E-10  3.625862E-12
       509  16  3.864208E+05  6.154045E+03  2.108388E+04 -1.861207E+03  1.756772E-10 -9.808935E-12
       509  17  4.259361E+05 -4.905539E+04 -7.659045E+03  1.060511E+04 -2.103907E-10 -6.319563E-11
       509  18  4.829140E+05 -4.139998E+04 -1.201297E+04  4.174111E+04  3.235172E-12  1.023493E-10
       509  19  8.935631E+05  1.320864E+05  1.439436E+05  6.588458E+04 -6.600158E+04  3.063626E+03
       509  20  8.354487E+05  5.096802E+04  8.320304E+04  3.474669E+04 -3.937097E+04  9.150979E+03
       509  21  7.970897E+05  3.499896E+04  5.607148E+04  2.227894E+04 -1.274237E+04  8.318723E+03
       509  22  6.399625E+05  6.912069E+04  8.251775E+04  3.200470E+04 -5.681711E+04  3.067829E+03
       509  23  6.306733E+05  9.576610E+02  3.777443E+04  2.267376E+04 -3.684259E+04  9.152250E+03
       509  24  6.399904E+05 -3.199783E+03  2.203041E+04  3.201120E+04 -1.686777E+04  8.317908E+03
       509  25  3.864233E+05  6.154664E+03  2.108816E+04 -1.861324E+03 -4.763637E+04  3.071033E+03
       509  26  4.259374E+05 -4.905498E+04 -7.656676E+03  1.060486E+04 -3.431504E+04  9.153423E+03
       509  27  4.829145E+05 -4.139979E+04 -1.201201E+04  4.174097E+04 -2.099214E+04  8.316964E+03
       510   1  7.549185E+05  3.242980E+04  4.327749E+04  3.330135E+04  1.160648E+04 -6.132800E+03
       510   2  7.060934E+05  1.712023E+04  2.478358E+04  2.287952E+04  6.569286E+03 -3.732041E+03
       510   3  6.587989E+05  5.330588E+03  1.044421E+04  3.138753E+04  1.532296E+03 -1.032062E+03
       510   4  6.361828E+05  3.535458E+03  1.745162E+04  3.206736E+04  1.376910E+04 -6.132450E+03
       510   5  6.354460E+05 -6.175641E+01  9.468627E+03  2.260284E+04  9.020185E+03 -3.731519E+03
       510   6  6.361875E+05 -1.886948E+02  5.440844E+03  3.206821E+04  4.271096E+03 -1.031358E+03
       510   7  5.174603E+05 -2.535981E+04 -8.375076E+03  3.083361E+04  1.593130E+04 -6.132108E+03
       510   8  5.648033E+05 -1.724407E+04 -5.846597E+03  2.232620E+04  1.147081E+04 -3.730998E+03
       510   9  6.135765E+05 -5.708006E+03  4.374758E+02  3.274886E+04  7.009798E+03 -1.030649E+03
       510  10  7.549184E+05  3.242972E+04  4.327717E+04  3.330140E+04  2.310776E-10 -2.942518E-10
       510  11  7.060933E+05  1.712021E+04  2.478347E+04  2.287954E+04  7.284639E-11  2.404734E-11
       510  12  6.587989E+05  5.330586E+03  1.044420E+04  3.138753E+04 -3.157227E-10 -7.490425E-11
       510  13  6.361826E+05  3.535367E+03  1.745120E+04  3.206743E+04  4.230097E-11  2.102187E-11
       510  14  6.354459E+05 -6.179318E+01  9.468448E+03  2.260287E+04 -1.633288E-10  2.644231E-11
       510  15  6.361874E+05 -1.887008E+02  5.440808E+03  3.206821E+04 -3.368817E-10 -8.240105E-11
       510  16  5.174601E+05 -2.535991E+04 -8.375623E+03  3.083369E+04  3.803111E-11  3.401668E-10
       510  17  5.648031E+05 -1.724412E+04 -5.846870E+03  2.232623E+04 -8.452517E-11 -1.741200E-10
       510  18  6.135765E+05 -5.708021E+03  4.373816E+02  3.274887E+04  2.838503E-10  1.909561E-10
       510  19  7.549185E+05  3.242980E+04  4.327749E+04  3.330135E+04 -1.160648E+04  6.132800E+03
       510  20  7.060934E+05  1.712023E+04  2.478358E+04  2.287952E+04 -6.569286E+03  3.732041E+03
       510  21  6.587989E+05  5.330588E+03  1.044421E+04  3.138753E+04 -1.532296E+03  1.032062E+03
       510  22  6.361828E+05  3.535458E+03  1.745162E+04  3.206736E+04 -1.376910E+04  6.132450E+03
       510  23  6.354460E+05 -6.175641E+01  9.468627E+03  2.260284E+04 -9.020185E+03  3.731519E+03
       510  24  6.361875E+05 -1.886948E+02  5.440844E+03  3.206821E+04 -4.271096E+03  1.031358E+03
       510  25  5.174603E+05 -2.535981E+04 -8.375076E+03  3.083361E+04 -1.593130E+04  6.132108E+03
       510  26  5.648033E+05 -1.724407E+04 -5.846597E+03  2.232620E+04 -1.147081E+04  3.730998E+03
       510  27  6.135765E+05 -5.708006E+03  4.374758E+02  3.274886E+04 -7.009798E+03  1.030649E+03
       511   1  6.203634E+05 -3.642599E+03  6.745743E+02  3.197817E+04  6.886197E+02  6.510955E+02
       511   2  5.722376E+05 -1.548680E+04 -1.147226E+04  2.251121E+04 -1.790393E+02  3.353823E+03
       511   3  5.242551E+05 -2.718610E+04 -2.302070E+04  3.197376E+04 -1.046392E+03  5.765902E+03
       511   4  6.359012E+05  1.578241E+02  4.149503E+03  3.206788E+04  3.425058E+03  6.517998E+02
       511   5  6.358054E+05 -2.474060E+01  2.312816E+03  2.260322E+04  2.278109E+03  3.354363E+03
       511   6  6.358999E+05 -1.361358E+01  1.268672E+03  3.206794E+04  1.131396E+03  5.766299E+03
       511   7  6.514393E+05  3.958234E+03  7.624445E+03  3.215760E+04  6.161565E+03  6.525049E+02
       511   8  6.993770E+05  1.543705E+04  1.609767E+04  2.269524E+04  4.735504E+03  3.354903E+03
       511   9  7.475564E+05  2.715805E+04  2.555731E+04  3.216214E+04  3.309570E+03  5.766697E+03
       511  10  6.203634E+05 -3.642599E+03  6.745726E+02  3.197817E+04  4.953108E-10  3.928773E-10
       511  11  5.722376E+05 -1.548681E+04 -1.147228E+04  2.251121E+04  2.815372E-10 -1.997026E-11
       511  12  5.242551E+05 -2.718614E+04 -2.302076E+04  3.197376E+04 -1.445844E-10 -5.364253E-11
       511  13  6.359012E+05  1.578205E+02  4.149480E+03  3.206788E+04 -3.525052E-10  6.637395E-11
       511  14  6.358054E+05 -2.475408E+01  2.312785E+03  2.260321E+04 -1.763566E-10  6.344355E-11
       511  15  6.358999E+05 -1.364964E+01  1.268608E+03  3.206794E+04 -8.097851E-11  3.157291E-11
       511  16  6.514393E+05  3.958224E+03  7.624372E+03  3.215759E+04 -3.241700E-10  4.251535E-12
       511  17  6.993769E+05  1.543704E+04  1.609761E+04  2.269522E+04 -5.185076E-10 -1.878545E-10
       511  18  7.475564E+05  2.715802E+04  2.555723E+04  3.216213E+04  1.283997E-10 -1.012568E-10
       511  19  6.203634E+05 -3.642599E+03  6.745743E+02  3.197817E+04 -6.886197E+02 -6.510955E+02
       511  20  5.722376E+05 -1.548680E+04 -1.147226E+04  2.251121E+04  1.790393E+02 -3.353823E+03
       511  21  5.242551E+05 -2.718610E+04 -2.302070E+04  3.197376E+04  1.046392E+03 -5.765902E+03
       511  22  6.359012E+05  1.578241E+02  4.149503E+03  3.206788E+04 -3.425058E+03 -6.517998E+02
       511  23  6.358054E+05 -2.474060E+01  2.312816E+03  2.260322E+04 -2.278109E+03 -3.354363E+03
       511  24  6.358999E+05 -1.361358E+01  1.268672E+03  3.206794E+04 -1.131396E+03 -5.766299E+03
       511  25  6.514393E+05  3.958234E+03  7.624445E+03  3.215760E+04 -6.161565E+03 -6.525049E+02
       511  26  6.993770E+05  1.543705E+04  1.609767E+04  2.269524E+04 -4.735504E+03 -3.354903E+03
       511  27  7.475564E+05  2.715805E+04  2.555731E+04  3.216214E+04 -3.309570E+03 -5.766697E+03
       512   1  4.858713E+05 -3.647266E+04 -3.159756E+04  3.193189E+04 -3.156984E+03  7.937237E+03
       512   2  4.381930E+05 -4.829295E+04 -4.348472E+04  2.264034E+04  3.130900E+03  8.825070E+03
       512   3  3.894091E+05 -6.130753E+04 -5.976025E+04  3.202171E+04  9.418596E+03  2.970633E+03
       512   4  6.358589E+05  8.750956E+00  9.148582E+02  3.201086E+04  9.329200E+02  7.937885E+03
       512   5  6.358483E+05 -1.141405E+01  3.844320E+02  2.267457E+04  7.450303E+02  8.824573E+03
       512   6  6.358535E+05 -1.019859E+02 -3.984174E+01  3.201088E+04  5.574561E+02  2.969952E+03
       512   7  7.858677E+05  3.648868E+04  3.342600E+04  3.208985E+04  5.023798E+03  7.938535E+03
       512   8  8.335401E+05  4.826748E+04  4.425118E+04  2.270882E+04 -1.641590E+03  8.824076E+03
       512   9  8.823535E+05  6.109915E+04  5.967649E+04  3.200003E+04 -8.307189E+03  2.969271E+03
       512  10  4.858713E+05 -3.647273E+04 -3.159770E+04  3.193191E+04  1.837394E-11  5.696363E-11
       512  11  4.381930E+05 -4.829303E+04 -4.348489E+04  2.264032E+04 -2.248335E-10 -1.420457E-10
       512  12  3.894090E+05 -6.130756E+04 -5.976043E+04  3.202169E+04 -3.049768E-10 -1.436369E-10
       512  13  6.358589E+05  8.683041E+00  9.147381E+02  3.201085E+04 -1.435725E-10 -1.308167E-10
       512  14  6.358483E+05 -1.149785E+01  3.842846E+02  2.267457E+04  7.521595E-12  9.946723E-11
       512  15  6.358535E+05 -1.019954E+02 -3.985890E+01  3.201087E+04  1.950952E-10  1.475641E-11
       512  16  7.858676E+05  3.648861E+04  3.342584E+04  3.208981E+04  4.526655E-10  3.107861E-10
       512  17  8.335400E+05  4.826740E+04  4.425103E+04  2.270883E+04 -2.806898E-11 -9.777495E-11
       512  18  8.823534E+05  6.109912E+04  5.967634E+04  3.200005E+04  3.698340E-10  8.540926E-11
       512  19  4.858713E+05 -3.647266E+04 -3.159756E+04  3.193189E+04  3.156984E+03 -7.937237E+03
       512  20  4.381930E+05 -4.829295E+04 -4.348472E+04  2.264034E+04 -3.130900E+03 -8.825070E+03
       512  21  3.894091E+05 -6.130753E+04 -5.976025E+04  3.202171E+04 -9.418596E+03 -2.970633E+03
       512  22  6.358589E+05  8.750956E+00  9.148582E+02  3.201086E+04 -9.329200E+02 -7.937885E+03
       512  23  6.358483E+05 -1.141405E+01  3.844320E+02  2.267457E+04 -7.450303E+02 -8.824573E+03
       512  24  6.358535E+05 -1.019859E+02 -3.984174E+01  3.201088E+04 -5.574561E+02 -2.969952E+03
       512  25  7.858677E+05  3.648868E+04  3.342600E+04  3.208985E+04 -5.023798E+03 -7.938535E+03
       512  26  8.335401E+05  4.826748E+04  4.425118E+04  2.270882E+04  1.641590E+03 -8.824076E+03
       512  27  8.823535E+05  6.109915E+04  5.967649E+04  3.200003E+04  8.307189E+03 -2.969271E+03
       513   1  2.027213E+06  2.822543E+05  3.076952E+05  1.621119E+05  1.376241E+05 -6.225954E+03
       513   2  1.870634E+06  1.023215E+05  1.725692E+05  8.960971E+04  7.999261E+04 -1.794033E+04
       513   3  1.756061E+06  6.042672E+04  1.093881E+05  6.977361E+04  2.237311E+04 -1.441946E+04
       513   4  1.479460E+06  1.463396E+05  1.749442E+05  9.018116E+04  1.189835E+05 -6.245734E+03
       513   5  1.459791E+06  2.030520E+03  8.128152E+04  6.387129E+04  7.604211E+04 -1.794565E+04
       513   6  1.479601E+06 -6.738251E+03  4.942276E+04  9.021682E+04  3.309903E+04 -1.441437E+04
       513   7  9.319923E+05  1.042256E+04  4.217571E+04  1.831390E+04  1.003591E+05 -6.261222E+03
       513   8  1.049107E+06 -9.826935E+04 -1.001632E+04  3.815003E+04  7.209418E+04 -1.795066E+04
       513   9  1.203213E+06 -7.390664E+04 -1.054651E+04  1.106508E+05  4.382025E+04 -1.440858E+04
       513  10  2.027193E+06  2.822492E+05  3.076597E+05  1.621126E+05  1.769845E-10 -8.563798E-11
       513  11  1.870627E+06  1.023194E+05  1.725567E+05  8.961087E+04  2.188910E-10 -5.226571E-13
       513  12  1.756060E+06  6.042637E+04  1.093868E+05  6.977387E+04  3.991870E-11  4.946996E-10
       513  13  1.479445E+06  1.463358E+05  1.749176E+05  9.018176E+04 -4.709201E-10 -1.762650E-10
       513  14  1.459785E+06  2.028626E+03  8.127007E+04  6.387239E+04 -6.082764E-10 -3.591274E-10
       513  15  1.479599E+06 -6.738768E+03  4.942032E+04  9.021720E+04  6.418921E-10  8.372783E-10
       513  16  9.319814E+05  1.041982E+04  4.215674E+04  1.831440E+04 -2.313858E-10 -4.005534E-11
       513  17  1.049101E+06 -9.827108E+04 -1.002667E+04  3.815107E+04 -7.851873E-10 -3.721230E-10
       513  18  1.203211E+06 -7.390737E+04 -1.055051E+04  1.106513E+05  2.047355E-10  1.610790E-10
       513  19  2.027213E+06  2.822543E+05  3.076952E+05  1.621119E+05 -1.376241E+05  6.225954E+03
       513  20  1.870634E+06  1.023215E+05  1.725692E+05  8.960971E+04 -7.999261E+04  1.794033E+04
       513  21  1.756061E+06  6.042672E+04  1.093881E+05  6.977361E+04 -2.237311E+04  1.441946E+04
       513  22  1.479460E+06  1.463396E+05  1.749442E+05  9.018116E+04 -1.189835E+05  6.245734E+03
       513  23  1.459791E+06  2.030520E+03  8.128152E+04  6.387129E+04 -7.604211E+04  1.794565E+04
       513  24  1.479601E+06 -6.738251E+03  4.942276E+04  9.021682E+04 -3.309903E+04  1.441437E+04
       513  25  9.319923E+05  1.042256E+04  4.217571E+04  1.831390E+04 -1.003591E+05  6.261222E+03
       513  26  1.049107E+06 -9.826935E+04 -1.001632E+04  3.815003E+04 -7.209418E+04  1.795066E+04
       513  27  1.203213E+06 -7.390664E+04 -1.054651E+04  1.106508E+05 -4.382025E+04  1.440858E+04
       514   1  1.640468E+06  4.853660E+04  7.748018E+04  9.318077E+04  1.953366E+04 -8.616372E+03
       514   2  1.503546E+06  8.025360E+03  3.423915E+04  6.455388E+04  5.482349E+03 -1.640896E+03
       514   3  1.370425E+06 -2.446164E+04  2.121214E+03  8.909017E+04 -8.566586E+03  5.978667E+03
       514   4  1.471638E+06  7.477907E+03  4.073848E+04  9.031973E+04  2.593659E+04 -8.613489E+03
       514   5  1.469804E+06 -1.916973E+02  2.684495E+04  6.373995E+04  1.250703E+04 -1.637538E+03
       514   6  1.471650E+06  5.786518E+01  2.364752E+04  9.032314E+04 -9.231030E+02  5.982492E+03
       514   7  1.302834E+06 -3.358262E+04  3.995236E+03  8.745948E+04  3.233781E+04 -8.610665E+03
       514   8  1.436063E+06 -8.408802E+03  1.945088E+04  6.292607E+04  1.953134E+04 -1.634197E+03
       514   9  1.572884E+06  2.457674E+04  4.517346E+04  9.155630E+04  6.721605E+03  5.986346E+03
       514  10  1.640467E+06  4.853642E+04  7.747932E+04  9.318091E+04  8.860004E-11  3.582927E-11
       514  11  1.503546E+06  8.025349E+03  3.423909E+04  6.455389E+04  5.952537E-10  1.679871E-10
       514  12  1.370425E+06 -2.446170E+04  2.121009E+03  8.909021E+04 -9.045945E-12  6.181741E-11
       514  13  1.471637E+06  7.477647E+03  4.073708E+04  9.031991E+04  3.163339E-10  6.577573E-10
       514  14  1.469804E+06 -1.917420E+02  2.684466E+04  6.373997E+04  5.414842E-10  6.741303E-10
       514  15  1.471650E+06  5.782649E+01  2.364745E+04  9.032314E+04 -3.090402E-10 -1.802008E-10
       514  16  1.302833E+06 -3.358298E+04  3.993136E+03  8.745970E+04 -6.547840E-10 -1.158524E-10
       514  17  1.436062E+06 -8.408907E+03  1.945016E+04  6.292609E+04  1.291248E-10  6.618708E-10
       514  18  1.572884E+06  2.457669E+04  4.517331E+04  9.155627E+04  1.600980E-10 -1.654169E-11
       514  19  1.640468E+06  4.853660E+04  7.748018E+04  9.318077E+04 -1.953366E+04  8.616372E+03
       514  20  1.503546E+06  8.025360E+03  3.423915E+04  6.455388E+04 -5.482349E+03  1.640896E+03
       514  21  1.370425E+06 -2.446164E+04  2.121214E+03  8.909017E+04  8.566586E+03 -5.978667E+03
       514  22  1.471638E+06  7.477907E+03  4.073848E+04  9.031973E+04 -2.593659E+04  8.613489E+03
       514  23  1.469804E+06 -1.916973E+02  2.684495E+04  6.373995E+04 -1.250703E+04  1.637538E+03
       514  24  1.471650E+06  5.786518E+01  2.364752E+04  9.032314E+04  9.231030E+02 -5.982492E+03
       514  25  1.302834E+06 -3.358262E+04  3.995236E+03  8.745948E+04 -3.233781E+04  8.610665E+03
       514  26  1.436063E+06 -8.408802E+03  1.945088E+04  6.292607E+04 -1.953134E+04  1.634197E+03
       514  27  1.572884E+06  2.457674E+04  4.517346E+04  9.155630E+04 -6.721605E+03 -5.986346E+03
       515   1  1.263469E+06 -5.090177E+04 -2.065543E+04  9.208767E+04 -1.293936E+04  1.070565E+04
       515   2  1.125843E+06 -8.376443E+04 -4.186489E+04  6.268660E+04 -2.824146E+04  1.825890E+04
       515   3  9.928177E+05 -1.062891E+05 -5.054024E+04  8.656307E+04 -4.353728E+04  2.480536E+04
       515   4  1.471880E+06 -2.192772E+02  2.467191E+04  9.034808E+04 -5.189096E+03  1.070917E+04
       515   5  1.469484E+06 -2.601505E+02  3.250225E+04  6.370875E+04 -2.146762E+04  1.826051E+04
       515   6  1.471838E+06  1.020309E+04  5.353819E+04  9.034452E+04 -3.774311E+04  2.480524E+04
       515   7  1.680332E+06  5.046038E+04  6.999688E+04  8.860789E+04  2.563731E+03  1.071265E+04
       515   8  1.813237E+06  8.323637E+04  1.068626E+05  6.473145E+04 -1.469009E+04  1.826213E+04
       515   9  1.951072E+06  1.266802E+05  1.576030E+05  9.412890E+04 -3.194452E+04  2.480519E+04
       515  10  1.263469E+06 -5.090193E+04 -2.065596E+04  9.208778E+04  9.141894E-10  7.310956E-10
       515  11  1.125842E+06 -8.376500E+04 -4.186701E+04  6.268701E+04  1.008102E-11 -1.841998E-10
       515  12  9.928155E+05 -1.062903E+05 -5.054495E+04  8.656394E+04 -2.869427E-10 -4.115786E-10
       515  13  1.471880E+06 -2.194077E+02  2.467164E+04  9.034812E+04 -2.350470E-11 -3.610509E-11
       515  14  1.469484E+06 -2.606322E+02  3.250076E+04  6.370906E+04  1.142506E-10 -8.853301E-11
       515  15  1.471836E+06  1.020205E+04  5.353436E+04  9.034528E+04 -3.732505E-10 -4.638655E-10
       515  16  1.680332E+06  5.046025E+04  6.999665E+04  8.860786E+04 -2.561417E-10 -2.211384E-10
       515  17  1.813236E+06  8.323595E+04  1.068615E+05  6.473167E+04 -1.063882E-10 -3.152072E-10
       515  18  1.951071E+06  1.266793E+05  1.576000E+05  9.412954E+04  5.646098E-10 -2.158312E-10
       515  19  1.263469E+06 -5.090177E+04 -2.065543E+04  9.208767E+04  1.293936E+04 -1.070565E+04
       515  20  1.125843E+06 -8.376443E+04 -4.186489E+04  6.268660E+04  2.824146E+04 -1.825890E+04
       515  21  9.928177E+05 -1.062891E+05 -5.054024E+04  8.656307E+04  4.353728E+04 -2.480536E+04
       515  22  1.471880E+06 -2.192772E+02  2.467191E+04  9.034808E+04  5.189096E+03 -1.070917E+04
       515  23  1.469484E+06 -2.601505E+02  3.250225E+04  6.370875E+04  2.146762E+04 -1.826051E+04
       515  24  1.471838E+06  1.020309E+04  5.353819E+04  9.034452E+04  3.774311E+04 -2.480524E+04
       515  25  1.680332E+06  5.046038E+04  6.999688E+04  8.860789E+04 -2.563731E+03 -1.071265E+04
       515  26  1.813237E+06  8.323637E+04  1.068626E+05  6.473145E+04  1.469009E+04 -1.826213E+04
       515  27  1.951072E+06  1.266802E+05  1.576030E+05  9.412890E+04  3.194452E+04 -2.480519E+04
       516   1  8.955969E+05 -1.520714E+05 -6.094353E+04  1.184418E+05 -5.958106E+04  3.125565E+04
       516   2  7.336394E+05 -1.735034E+05 -4.904987E+04  2.877040E+04 -9.584901E+04  3.259697E+04
       516   3  6.222535E+05 -1.243517E+04  3.211695E+04 -8.149525E+03 -1.321140E+05  1.077841E+04
       516   4  1.482858E+06 -9.366799E+03  6.612971E+04  9.021815E+04 -4.720085E+04  3.125826E+04
       516   5  1.455585E+06  2.684390E+03  1.108471E+05  6.386559E+04 -1.057850E+05  3.258963E+04
       516   6  1.482653E+06  2.009722E+05  2.402488E+05  9.025050E+04 -1.643761E+05  1.076579E+04
       516   7  2.070443E+06  1.333181E+05  1.931835E+05  6.196747E+04 -3.480909E+04  3.125974E+04
       516   8  2.178020E+06  1.788418E+05  2.707128E+05  9.900198E+04 -1.157323E+05  3.258117E+04
       516   9  2.343751E+06  4.143625E+05  4.483366E+05  1.887872E+05 -1.966825E+05  1.074297E+04
       516  10  8.955928E+05 -1.520734E+05 -6.095203E+04  1.184433E+05  2.005797E-10 -5.681604E-10
       516  11  7.336293E+05 -1.735070E+05 -4.906911E+04  2.877292E+04  2.243374E-10 -6.177356E-10
       516  12  6.222347E+05 -1.243997E+04  3.208397E+04 -8.148379E+03 -7.083958E-11 -4.552388E-10
       516  13  1.482855E+06 -9.368446E+03  6.612369E+04  9.021934E+04 -1.090761E-09 -7.681869E-10
       516  14  1.455573E+06  2.680253E+03  1.108241E+05  6.386836E+04  1.182308E-10 -6.410367E-10
       516  15  1.482624E+06  2.009649E+05  2.401979E+05  9.025192E+04 -1.800652E-11 -7.047659E-11
       516  16  2.070442E+06  1.333168E+05  1.931794E+05  6.196835E+04 -3.306786E-10 -4.773592E-10
       516  17  2.178005E+06  1.788370E+05  2.706857E+05  9.900502E+04 -5.706852E-10 -5.161485E-10
       516  18  2.343710E+06  4.143520E+05  4.482639E+05  1.887889E+05  8.996969E-10 -3.826344E-10
       516  19  8.955969E+05 -1.520714E+05 -6.094353E+04  1.184418E+05  5.958106E+04 -3.125565E+04
       516  20  7.336394E+05 -1.735034E+05 -4.904987E+04  2.877040E+04  9.584901E+04 -3.259697E+04
       516  21  6.222535E+05 -1.243517E+04  3.211695E+04 -8.149525E+03  1.321140E+05 -1.077841E+04
       516  22  1.482858E+06 -9.366799E+03  6.612971E+04  9.021815E+04  4.720085E+04 -3.125826E+04
       516  23  1.455585E+06  2.684390E+03  1.108471E+05  6.386559E+04  1.057850E+05 -3.258963E+04
       516  24  1.482653E+06  2.009722E+05  2.402488E+05  9.025050E+04  1.643761E+05 -1.076579E+04
       516  25  2.070443E+06  1.333181E+05  1.931835E+05  6.196747E+04  3.480909E+04 -3.125974E+04
       516  26  2.178020E+06  1.788418E+05  2.707128E+05  9.900198E+04  1.157323E+05 -3.258117E+04
       516  27  2.343751E+06  4.143625E+05  4.483366E+05  1.887872E+05  1.966825E+05 -1.074297E+04
       517   1 -1.840825E+06 -3.523114E+05 -4.385018E+05 -1.877675E+05 -3.409811E+05 -3.946306E+03
       517   2 -1.818133E+06  6.427620E+04 -1.740083E+05 -5.812478E+04 -2.236346E+05 -1.306202E+04
       517   3 -1.910595E+06  8.147229E+04 -8.586420E+04  8.483887E+04 -1.062935E+05 -1.352482E+04
       517   4 -2.162923E+06 -4.328138E+05 -5.166237E+05  2.389144E+04 -3.535757E+05 -4.057331E+03
       517   5 -2.104355E+06 -5.868099E+03 -2.375089E+05  1.732364E+04 -2.280487E+05 -1.308809E+04
       517   6 -2.162466E+06  2.008983E+04 -1.405082E+05  2.406443E+04 -1.025182E+05 -1.351579E+04
       517   7 -2.484829E+06 -5.131550E+05 -5.947283E+05  2.354400E+05 -3.661637E+05 -4.177021E+03
       517   8 -2.390489E+06 -7.599651E+04 -3.010116E+05  9.273678E+04 -2.324608E+05 -1.311525E+04
       517   9 -2.414270E+06 -4.128289E+04 -1.951539E+05 -3.668495E+04 -9.874438E+04 -1.350749E+04
       517  10 -1.840950E+06 -3.523427E+05 -4.387210E+05 -1.877686E+05 -7.811460E-10  7.152307E-10
       517  11 -1.818187E+06  6.426254E+04 -1.741028E+05 -5.812713E+04 -7.200522E-10  1.706541E-10
       517  12 -1.910607E+06  8.146905E+04 -8.588584E+04  8.483771E+04  2.009136E-09  1.192487E-10
       517  13 -2.163057E+06 -4.328475E+05 -5.168594E+05  2.389028E+04 -5.055398E-10 -1.036421E-10
       517  14 -2.104411E+06 -5.882305E+03 -2.376073E+05  1.732123E+04 -5.333772E-10  4.390456E-10
       517  15 -2.162477E+06  2.008680E+04 -1.405284E+05  2.406332E+04  9.600953E-10  3.590889E-11
       517  16 -2.484973E+06 -5.131912E+05 -5.949813E+05  2.354387E+05  7.563162E-11  2.540712E-11
       517  17 -2.390547E+06 -7.601127E+04 -3.011139E+05  9.273432E+04 -8.535504E-10  2.857240E-10
       517  18 -2.414280E+06 -4.128572E+04 -1.951727E+05 -3.668602E+04 -2.749957E-09 -1.277120E-09
       517  19 -1.840825E+06 -3.523114E+05 -4.385018E+05 -1.877675E+05  3.409811E+05  3.946306E+03
       517  20 -1.818133E+06  6.427620E+04 -1.740083E+05 -5.812478E+04  2.236346E+05  1.306202E+04
       517  21 -1.910595E+06  8.147229E+04 -8.586420E+04  8.483887E+04  1.062935E+05  1.352482E+04
       517  22 -2.162923E+06 -4.328138E+05 -5.166237E+05  2.389144E+04  3.535757E+05  4.057331E+03
       517  23 -2.104355E+06 -5.868099E+03 -2.375089E+05  1.732364E+04  2.280487E+05  1.308809E+04
       517  24 -2.162466E+06  2.008983E+04 -1.405082E+05  2.406443E+04  1.025182E+05  1.351579E+04
       517  25 -2.484829E+06 -5.131550E+05 -5.947283E+05  2.354400E+05  3.661637E+05  4.177021E+03
       517  26 -2.390489E+06 -7.599651E+04 -3.010116E+05  9.273678E+04  2.324608E+05  1.311525E+04
       517  27 -2.414270E+06 -4.128289E+04 -1.951539E+05 -3.668495E+04  9.874438E+04  1.350749E+04
       518   1 -1.915434E+06  3.243406E+04 -6.420944E+04  1.630413E+04 -8.396704E+04 -1.162869E+04
       518   2 -1.946313E+06  4.626522E+04 -2.527788E+04  1.520528E+04 -5.131263E+04 -1.004525E+04
       518   3 -1.986997E+06  3.786075E+04 -1.320364E+04  2.822501E+04 -1.865935E+04 -8.062567E+03
       518   4 -2.138809E+06 -2.208510E+04 -1.129039E+05  2.419902E+04 -8.261419E+04 -1.163037E+04
       518   5 -2.133845E+06  5.311428E+02 -6.598626E+04  1.714133E+04 -4.958881E+04 -1.004592E+04
       518   6 -2.138756E+06  8.423170E+02 -4.619175E+04  2.420291E+04 -1.656271E+04 -8.062804E+03
       518   7 -2.362136E+06 -7.660736E+04 -1.616013E+05  3.209103E+04 -8.126182E+04 -1.163201E+04
       518   8 -2.321343E+06 -4.520525E+04 -1.066967E+05  1.907678E+04 -4.786550E+04 -1.004658E+04
       518   9 -2.290494E+06 -3.617758E+04 -7.918121E+04  2.018181E+04 -1.446657E+04 -8.063068E+03
       518  10 -1.915442E+06  3.243202E+04 -6.422298E+04  1.630334E+04 -5.584143E-12 -4.014598E-10
       518  11 -1.946316E+06  4.626440E+04 -2.528304E+04  1.520486E+04 -6.093964E-10 -4.799470E-10
       518  12 -1.986997E+06  3.786059E+04 -1.320441E+04  2.822489E+04 -4.636468E-10  6.118776E-10
       518  13 -2.138816E+06 -2.208709E+04 -1.129170E+05  2.419825E+04 -4.912293E-10 -8.775486E-10
       518  14 -2.133847E+06  5.303716E+02 -6.599108E+04  1.714092E+04 -9.570006E-10 -2.325414E-10
       518  15 -2.138757E+06  8.421733E+02 -4.619239E+04  2.420280E+04  1.004121E-09  5.771132E-10
       518  16 -2.362143E+06 -7.660928E+04 -1.616140E+05  3.209027E+04  3.374097E-10 -1.000933E-09
       518  17 -2.321346E+06 -4.520598E+04 -1.067012E+05  1.907639E+04 -1.571590E-10  1.640968E-10
       518  18 -2.290494E+06 -3.617771E+04 -7.918173E+04  2.018172E+04  4.837780E-10  1.679625E-10
       518  19 -1.915434E+06  3.243406E+04 -6.420944E+04  1.630413E+04  8.396704E+04  1.162869E+04
       518  20 -1.946313E+06  4.626522E+04 -2.527788E+04  1.520528E+04  5.131263E+04  1.004525E+04
       518  21 -1.986997E+06  3.786075E+04 -1.320364E+04  2.822501E+04  1.865935E+04  8.062567E+03
       518  22 -2.138809E+06 -2.208510E+04 -1.129039E+05  2.419902E+04  8.261419E+04  1.163037E+04
       518  23 -2.133845E+06  5.311428E+02 -6.598626E+04  1.714133E+04  4.958881E+04  1.004592E+04
       518  24 -2.138756E+06  8.423170E+02 -4.619175E+04  2.420291E+04  1.656271E+04  8.062804E+03
       518  25 -2.362136E+06 -7.660736E+04 -1.616013E+05  3.209103E+04  8.126182E+04  1.163201E+04
       518  26 -2.321343E+06 -4.520525E+04 -1.066967E+05  1.907678E+04  4.786550E+04  1.004658E+04
       518  27 -2.290494E+06 -3.617758E+04 -7.918121E+04  2.018181E+04  1.446657E+04  8.063068E+03
       519   1 -2.014736E+06  2.968158E+04 -1.532949E+04  2.274979E+04 -1.082876E+04 -6.796270E+03
       519   2 -2.048153E+06  2.159001E+04 -2.349318E+04  1.838280E+04  1.033795E+04 -4.721599E+03
       519   3 -2.087186E+06  2.071905E+03 -4.832470E+04  2.831639E+04  3.150278E+04 -2.698225E+03
       519   4 -2.137807E+06 -3.086534E+02 -4.192168E+04  2.424237E+04 -8.814494E+03 -6.796549E+03
       519   5 -2.135010E+06  4.151443E+02 -4.230806E+04  1.709161E+04  1.229985E+04 -4.721774E+03
       519   6 -2.137821E+06 -1.027951E+04 -5.932746E+04  2.424175E+04  3.341352E+04 -2.698486E+03
       519   7 -2.260865E+06 -3.029988E+04 -6.851476E+04  2.573465E+04 -6.800625E+03 -6.796818E+03
       519   8 -2.221859E+06 -2.076021E+04 -6.112337E+04  1.580060E+04  1.426148E+04 -4.721958E+03
       519   9 -2.188454E+06 -2.263102E+04 -7.033036E+04  2.016745E+04  3.532410E+04 -2.698773E+03
       519  10 -2.014736E+06  2.968150E+04 -1.532980E+04  2.274973E+04  8.847047E-10  6.992821E-10
       519  11 -2.048153E+06  2.158995E+04 -2.349342E+04  1.838284E+04  1.877617E-09  3.863315E-10
       519  12 -2.087187E+06  2.071630E+03 -4.832658E+04  2.831646E+04  9.018771E-11  2.182186E-10
       519  13 -2.137808E+06 -3.087239E+02 -4.192192E+04  2.424232E+04  1.000475E-09  4.775529E-10
       519  14 -2.135010E+06  4.150796E+02 -4.230838E+04  1.709165E+04  2.166656E-10  5.503336E-11
       519  15 -2.137822E+06 -1.027981E+04 -5.932958E+04  2.424182E+04  1.634537E-09 -4.955065E-11
       519  16 -2.260865E+06 -3.029994E+04 -6.851493E+04  2.573461E+04  4.110808E-10 -1.020880E-10
       519  17 -2.221860E+06 -2.076029E+04 -6.112379E+04  1.580065E+04  7.469042E-10 -1.691171E-10
       519  18 -2.188455E+06 -2.263137E+04 -7.033272E+04  2.016752E+04  4.818956E-10 -4.832266E-10
       519  19 -2.014736E+06  2.968158E+04 -1.532949E+04  2.274979E+04  1.082876E+04  6.796270E+03
       519  20 -2.048153E+06  2.159001E+04 -2.349318E+04  1.838280E+04 -1.033795E+04  4.721599E+03
       519  21 -2.087186E+06  2.071905E+03 -4.832470E+04  2.831639E+04 -3.150278E+04  2.698225E+03
       519  22 -2.137807E+06 -3.086534E+02 -4.192168E+04  2.424237E+04  8.814494E+03  6.796549E+03
       519  23 -2.135010E+06  4.151443E+02 -4.230806E+04  1.709161E+04 -1.229985E+04  4.721774E+03
       519  24 -2.137821E+06 -1.027951E+04 -5.932746E+04  2.424175E+04 -3.341352E+04  2.698486E+03
       519  25 -2.260865E+06 -3.029988E+04 -6.851476E+04  2.573465E+04  6.800625E+03  6.796818E+03
       519  26 -2.221859E+06 -2.076021E+04 -6.112337E+04  1.580060E+04 -1.426148E+04  4.721958E+03
       519  27 -2.188454E+06 -2.263102E+04 -7.033036E+04  2.016745E+04 -3.532410E+04  2.698773E+03
       520   1 -2.127047E+06  1.473826E+04 -6.599621E+04 -4.112823E+03  4.136610E+04 -1.327162E+03
       520   2 -2.135860E+06 -6.300959E+03 -1.171694E+05  5.266430E+04  1.029806E+05  3.326937E+02
       520   3 -2.199929E+06 -2.160298E+05 -2.557220E+05  1.236972E+05  1.645930E+05  3.393903E+02
       520   4 -2.148755E+06  9.460993E+03 -7.060898E+04  2.423625E+04  4.374679E+04 -1.325301E+03
       520   5 -2.121372E+06 -2.710959E+03 -1.137432E+05  1.710074E+04  1.037676E+05  3.267563E+02
       520   6 -2.148971E+06 -2.033065E+05 -2.431456E+05  2.422785E+04  1.637899E+05  3.129467E+02
       520   7 -2.170461E+06  4.186731E+03 -7.522132E+04  5.258431E+04  4.612739E+04 -1.323223E+03
       520   8 -2.106881E+06  8.837959E+02 -1.103163E+05 -1.846366E+04  1.045547E+05  3.207284E+02
       520   9 -2.097989E+06 -1.905460E+05 -2.305641E+05 -7.524967E+04  1.629867E+05  2.867632E+02
       520  10 -2.127049E+06  1.473780E+04 -6.599944E+04 -4.112779E+03 -6.369904E-10  1.274743E-10
       520  11 -2.135872E+06 -6.303818E+03 -1.171894E+05  5.266427E+04  5.294346E-11 -7.981333E-15
       520  12 -2.199958E+06 -2.160371E+05 -2.557731E+05  1.236971E+05  8.093261E-10 -6.867276E-11
       520  13 -2.148757E+06  9.460475E+03 -7.061259E+04  2.423629E+04  6.365714E-11 -2.239131E-12
       520  14 -2.121384E+06 -2.713862E+03 -1.137635E+05  1.710071E+04  6.135527E-10  1.955654E-10
       520  15 -2.149000E+06 -2.033137E+05 -2.431962E+05  2.422781E+04 -8.650960E-10  7.486599E-11
       520  16 -2.170463E+06  4.186155E+03 -7.522534E+04  5.258436E+04  9.381329E-11 -2.557851E-10
       520  17 -2.106893E+06  8.808487E+02 -1.103369E+05 -1.846369E+04  7.068877E-10  3.787292E-10
       520  18 -2.098017E+06 -1.905531E+05 -2.306141E+05 -7.524970E+04 -5.856601E-10  4.182301E-11
       520  19 -2.127047E+06  1.473826E+04 -6.599621E+04 -4.112823E+03 -4.136610E+04  1.327162E+03
       520  20 -2.135860E+06 -6.300959E+03 -1.171694E+05  5.266430E+04 -1.029806E+05 -3.326937E+02
       520  21 -2.199929E+06 -2.160298E+05 -2.557220E+05  1.236972E+05 -1.645930E+05 -3.393903E+02
       520  22 -2.148755E+06  9.460993E+03 -7.060898E+04  2.423625E+04 -4.374679E+04  1.325301E+03
       520  23 -2.121372E+06 -2.710959E+03 -1.137432E+05  1.710074E+04 -1.037676E+05 -3.267563E+02
       520  24 -2.148971E+06 -2.033065E+05 -2.431456E+05  2.422785E+04 -1.637899E+05 -3.129467E+02
       520  25 -2.170461E+06  4.186731E+03 -7.522132E+04  5.258431E+04 -4.612739E+04  1.323223E+03
       520  26 -2.106881E+06  8.837959E+02 -1.103163E+05 -1.846366E+04 -1.045547E+05 -3.207284E+02
       520  27 -2.097989E+06 -1.905460E+05 -2.305641E+05 -7.524967E+04 -1.629867E+05 -2.867632E+02
       521   1 -1.430367E+06 -4.339245E+04 -7.751716E+04 -5.213062E+04 -1.107580E+05 -6.206078E+03
       521   2 -1.449282E+06  1.018449E+05  6.173925E+03 -9.456158E+03 -7.600910E+04 -1.967655E+04
       521   3 -1.509037E+06  1.016832E+05  3.087416E+04  4.813378E+04 -4.126357E+04 -2.086058E+04
       521   4 -1.895989E+06 -1.592486E+05 -1.902517E+05  2.575112E+04 -1.294777E+05 -6.220656E+03
       521   5 -1.874449E+06 -2.175655E+03 -8.802207E+04  1.828267E+04 -8.298940E+04 -1.968197E+04
       521   6 -1.895829E+06  7.391688E+03 -5.298374E+04  2.573071E+04 -3.650110E+04 -2.085869E+04
       521   7 -2.361398E+06 -2.750977E+05 -3.029973E+05  1.035741E+05 -1.481833E+05 -6.239953E+03
       521   8 -2.299444E+06 -1.062055E+05 -1.822287E+05  4.600224E+04 -8.996495E+04 -1.968803E+04
       521   9 -2.282478E+06 -8.690789E+04 -1.368502E+05  3.341812E+03 -3.174155E+04 -2.085713E+04
       521  10 -1.430380E+06 -4.339580E+04 -7.754034E+04 -5.213117E+04  2.717190E-10  2.032817E-10
       521  11 -1.449288E+06  1.018429E+05  6.162315E+03 -9.457363E+03 -1.053016E-09  3.449377E-10
       521  12 -1.509039E+06  1.016823E+05  3.087014E+04  4.813309E+04 -1.168445E-10  3.095800E-10
       521  13 -1.896007E+06 -1.592532E+05 -1.902834E+05  2.575047E+04 -1.327691E-09  2.465201E-11
       521  14 -1.874456E+06 -2.177926E+03 -8.803578E+04  1.828136E+04 -1.333132E-09  4.863846E-10
       521  15 -1.895830E+06  7.390862E+03 -5.298707E+04  2.573010E+04  1.961156E-11  4.807568E-10
       521  16 -2.361422E+06 -2.751037E+05 -3.030388E+05  1.035734E+05 -8.453197E-10 -1.898030E-11
       521  17 -2.299453E+06 -1.062081E+05 -1.822447E+05  4.600082E+04  5.916966E-10 -4.587002E-11
       521  18 -2.282480E+06 -8.690862E+04 -1.368529E+05  3.341278E+03  6.577825E-10  1.662553E-10
       521  19 -1.430367E+06 -4.339245E+04 -7.751716E+04 -5.213062E+04  1.107580E+05  6.206078E+03
       521  20 -1.449282E+06  1.018449E+05  6.173925E+03 -9.456158E+03  7.600910E+04  1.967655E+04
       521  21 -1.509037E+06  1.016832E+05  3.087416E+04  4.813378E+04  4.126357E+04  2.086058E+04
       521  22 -1.895989E+06 -1.592486E+05 -1.902517E+05  2.575112E+04  1.294777E+05  6.220656E+03
       521  23 -1.874449E+06 -2.175655E+03 -8.802207E+04  1.828267E+04  8.298940E+04  1.968197E+04
       521  24 -1.895829E+06  7.391688E+03 -5.298374E+04  2.573071E+04  3.650110E+04  2.085869E+04
       521  25 -2.361398E+06 -2.750977E+05 -3.029973E+05  1.035741E+05  1.481833E+05  6.239953E+03
       521  26 -2.299444E+06 -1.062055E+05 -1.822287E+05  4.600224E+04  8.996495E+04  1.968803E+04
       521  27 -2.282478E+06 -8.690789E+04 -1.368502E+05  3.341812E+03  3.174155E+04  2.085713E+04
       522   1 -1.532333E+06  7.846419E+04  3.401577E+04  2.304324E+04 -3.020464E+04 -1.852642E+04
       522   2 -1.570691E+06  7.691420E+04  4.081366E+04  1.730366E+04 -1.704131E+04 -1.688648E+04
       522   3 -1.612837E+06  6.701750E+04  3.694390E+04  2.743016E+04 -3.879933E+03 -1.467068E+04
       522   4 -1.887175E+06 -8.098352E+03 -4.329277E+04  2.594925E+04 -2.890237E+04 -1.852689E+04
       522   5 -1.885220E+06  2.411461E+02 -2.742193E+04  1.801404E+04 -1.519431E+04 -1.688630E+04
       522   6 -1.887153E+06  1.361992E+02 -2.260240E+04  2.594559E+04 -1.487369E+03 -1.466982E+04
       522   7 -2.241898E+06 -9.466925E+04 -1.206089E+05  2.885356E+04 -2.760083E+04 -1.852734E+04
       522   8 -2.199656E+06 -7.643847E+04 -9.566342E+04  1.872404E+04 -1.334823E+04 -1.688612E+04
       522   9 -2.161398E+06 -6.675009E+04 -8.215317E+04  2.446168E+04  9.041490E+02 -1.466897E+04
       522  10 -1.532334E+06  7.846358E+04  3.401341E+04  2.304279E+04 -4.660410E-10  7.428241E-10
       522  11 -1.570692E+06  7.691382E+04  4.081258E+04  1.730342E+04  1.162204E-09 -8.344061E-10
       522  12 -1.612837E+06  6.701727E+04  3.694347E+04  2.743012E+04  3.477434E-10 -4.732826E-10
       522  13 -1.887176E+06 -8.098945E+03 -4.329499E+04  2.594882E+04 -2.853847E-10  5.169137E-10
       522  14 -1.885220E+06  2.407780E+02 -2.742290E+04  1.801383E+04  1.219250E-10 -7.198756E-11
       522  15 -1.887153E+06  1.359677E+02 -2.260280E+04  2.594557E+04 -1.515412E-10 -4.444915E-10
       522  16 -2.241899E+06 -9.466983E+04 -1.206109E+05  2.885315E+04  1.086213E-09  3.595042E-11
       522  17 -2.199656E+06 -7.643883E+04 -9.566429E+04  1.872386E+04  6.842186E-10  1.356219E-10
       522  18 -2.161398E+06 -6.675032E+04 -8.215357E+04  2.446169E+04 -9.406776E-10  5.122919E-10
       522  19 -1.532333E+06  7.846419E+04  3.401577E+04  2.304324E+04  3.020464E+04  1.852642E+04
       522  20 -1.570691E+06  7.691420E+04  4.081366E+04  1.730366E+04  1.704131E+04  1.688648E+04
       522  21 -1.612837E+06  6.701750E+04  3.694390E+04  2.743016E+04  3.879933E+03  1.467068E+04
       522  22 -1.887175E+06 -8.098352E+03 -4.329277E+04  2.594925E+04  2.890237E+04  1.852689E+04
       522  23 -1.885220E+06  2.411461E+02 -2.742193E+04  1.801404E+04  1.519431E+04  1.688630E+04
       522  24 -1.887153E+06  1.361992E+02 -2.260240E+04  2.594559E+04  1.487369E+03  1.466982E+04
       522  25 -2.241898E+06 -9.466925E+04 -1.206089E+05  2.885356E+04  2.760083E+04  1.852734E+04
       522  26 -2.199656E+06 -7.643847E+04 -9.566342E+04  1.872404E+04  1.334823E+04  1.688612E+04
       522  27 -2.161398E+06 -6.675009E+04 -8.215317E+04  2.446168E+04 -9.041490E+02  1.466897E+04
       523   1 -1.645205E+06  5.914221E+04  2.957000E+04  2.464994E+04  2.656469E+02 -1.324071E+04
       523   2 -1.684120E+06  4.926805E+04  1.521845E+04  1.886440E+04  1.437491E+04 -1.086124E+04
       523   3 -1.727104E+06  3.053775E+04 -1.055414E+04  2.925185E+04  2.848270E+04 -8.411107E+03
       523   4 -1.887192E+06  1.831552E+02 -2.277107E+04  2.601325E+04  2.502931E+03 -1.323973E+04
       523   5 -1.885157E+06  2.659491E+02 -2.834772E+04  1.792941E+04  1.667556E+04 -1.085999E+04
       523   6 -1.887203E+06 -8.519790E+03 -4.539143E+04  2.601900E+04  3.084761E+04 -8.409674E+03
       523   7 -2.129125E+06 -5.877976E+04 -7.511559E+04  2.737600E+04  4.739354E+03 -1.323875E+04
       523   8 -2.086155E+06 -4.873882E+04 -7.191626E+04  1.699472E+04  1.897547E+04 -1.085875E+04
       523   9 -2.047277E+06 -4.757900E+04 -8.023022E+04  2.278698E+04  3.321192E+04 -8.408265E+03
       523  10 -1.645205E+06  5.914202E+04  2.956967E+04  2.464994E+04  1.255264E-10 -5.035689E-10
       523  11 -1.684120E+06  4.926787E+04  1.521784E+04  1.886452E+04 -1.788600E-10 -4.541591E-10
       523  12 -1.727105E+06  3.053746E+04 -1.055580E+04  2.925205E+04  1.338844E-11 -9.716527E-10
       523  13 -1.887192E+06  1.829654E+02 -2.277141E+04  2.601327E+04 -2.501783E-10 -4.761781E-10
       523  14 -1.885157E+06  2.657476E+02 -2.834846E+04  1.792955E+04 -3.347586E-10 -8.057971E-10
       523  15 -1.887204E+06 -8.520122E+03 -4.539335E+04  2.601921E+04 -6.596484E-11 -3.869237E-10
       523  16 -2.129125E+06 -5.877996E+04 -7.511596E+04  2.737605E+04 -3.570311E-10 -2.316582E-10
       523  17 -2.086156E+06 -4.873905E+04 -7.191716E+04  1.699489E+04 -1.584410E-09  5.924369E-10
       523  18 -2.047279E+06 -4.757937E+04 -8.023244E+04  2.278721E+04 -9.335704E-10  2.972618E-10
       523  19 -1.645205E+06  5.914221E+04  2.957000E+04  2.464994E+04 -2.656469E+02  1.324071E+04
       523  20 -1.684120E+06  4.926805E+04  1.521845E+04  1.886440E+04 -1.437491E+04  1.086124E+04
       523  21 -1.727104E+06  3.053775E+04 -1.055414E+04  2.925185E+04 -2.848270E+04  8.411107E+03
       523  22 -1.887192E+06  1.831552E+02 -2.277107E+04  2.601325E+04 -2.502931E+03  1.323973E+04
       523  23 -1.885157E+06  2.659491E+02 -2.834772E+04  1.792941E+04 -1.667556E+04  1.085999E+04
       523  24 -1.887203E+06 -8.519790E+03 -4.539143E+04  2.601900E+04 -3.084761E+04  8.409674E+03
       523  25 -2.129125E+06 -5.877976E+04 -7.511559E+04  2.737600E+04 -4.739354E+03  1.323875E+04
       523  26 -2.086155E+06 -4.873882E+04 -7.191626E+04  1.699472E+04 -1.897547E+04  1.085875E+04
       523  27 -2.047277E+06 -4.757900E+04 -8.023022E+04  2.278698E+04 -3.321192E+04  8.408265E+03
       524   1 -1.768948E+06  3.884569E+04 -2.824065E+04  2.520666E+03  3.666165E+04 -7.056657E+03
       524   2 -1.787772E+06  1.879362E+04 -7.410998E+04  4.727665E+04  8.501522E+04 -4.389841E+03
       524   3 -1.851891E+06 -1.569706E+05 -1.904573E+05  1.084669E+05  1.333655E+05 -9.842674E+02
       524   4 -1.896361E+06  7.855871E+03 -5.572468E+04  2.604206E+04  3.882173E+04 -7.053723E+03
       524   5 -1.873728E+06 -2.240226E+03 -9.286645E+04  1.788912E+04  8.786954E+04 -4.391680E+03
       524   6 -1.896518E+06 -1.681898E+05 -2.009742E+05  2.617694E+04  1.369169E+05 -9.990927E+02
       524   7 -2.023758E+06 -2.313292E+04 -8.320936E+04  4.955854E+04  4.098137E+04 -7.050624E+03
       524   8 -1.959674E+06 -2.327131E+04 -1.116229E+05 -1.149428E+04  9.072347E+04 -4.393790E+03
       524   9 -1.941129E+06 -1.793835E+05 -2.114875E+05 -5.610706E+04  1.404681E+05 -1.014863E+03
       524  10 -1.768949E+06  3.884527E+04 -2.824328E+04  2.520874E+03  1.237550E-09 -1.668434E-09
       524  11 -1.787780E+06  1.879166E+04 -7.412363E+04  4.727695E+04  9.146398E-10 -2.613428E-09
       524  12 -1.851910E+06 -1.569754E+05 -1.904908E+05  1.084670E+05 -1.217356E-09 -6.948955E-10
       524  13 -1.896363E+06  7.855411E+03 -5.572762E+04  2.604228E+04  2.419464E-09 -3.276149E-09
       524  14 -1.873736E+06 -2.242327E+03 -9.288104E+04  1.788943E+04 -2.410356E-09  1.477815E-09
       524  15 -1.896538E+06 -1.681948E+05 -2.010095E+05  2.617705E+04 -1.565841E-10 -7.754605E-11
       524  16 -2.023760E+06 -2.313343E+04 -8.321262E+04  4.955878E+04 -1.141267E-09  5.505911E-11
       524  17 -1.959683E+06 -2.327355E+04 -1.116384E+05 -1.149396E+04 -2.081393E-09  1.235360E-09
       524  18 -1.941150E+06 -1.793889E+05 -2.115247E+05 -5.610694E+04  1.304768E-09 -7.448403E-10
       524  19 -1.768948E+06  3.884569E+04 -2.824065E+04  2.520666E+03 -3.666165E+04  7.056657E+03
       524  20 -1.787772E+06  1.879362E+04 -7.410998E+04  4.727665E+04 -8.501522E+04  4.389841E+03
       524  21 -1.851891E+06 -1.569706E+05 -1.904573E+05  1.084669E+05 -1.333655E+05  9.842674E+02
       524  22 -1.896361E+06  7.855871E+03 -5.572468E+04  2.604206E+04 -3.882173E+04  7.053723E+03
       524  23 -1.873728E+06 -2.240226E+03 -9.286645E+04  1.788912E+04 -8.786954E+04  4.391680E+03
       524  24 -1.896518E+06 -1.681898E+05 -2.009742E+05  2.617694E+04 -1.369169E+05  9.990927E+02
       524  25 -2.023758E+06 -2.313292E+04 -8.320936E+04  4.955854E+04 -4.098137E+04  7.050624E+03
       524  26 -1.959674E+06 -2.327131E+04 -1.116229E+05 -1.149428E+04 -9.072347E+04  4.393790E+03
       524  27 -1.941129E+06 -1.793835E+05 -2.114875E+05 -5.610706E+04 -1.404681E+05  1.014863E+03
       525   1 -1.066552E+06  3.511964E+04 -1.289804E+03 -1.207257E+04 -1.004885E+05 -1.020080E+04
       525   2 -1.149599E+06  1.651212E+05  6.254381E+04  1.872568E+04 -7.360282E+04 -3.132661E+04
       525   3 -1.272445E+06  1.497090E+05  7.253434E+04  8.912859E+04 -4.674296E+04 -3.129538E+04
       525   4 -1.855308E+06 -1.609562E+05 -1.924390E+05  6.615457E+04 -1.307901E+05 -1.024349E+04
       525   5 -1.833518E+06 -2.155380E+03 -8.917882E+04  4.625501E+04 -8.367374E+04 -3.134415E+04
       525   6 -1.855118E+06  7.613582E+03 -5.388842E+04  6.596881E+04 -3.657728E+04 -3.128168E+04
       525   7 -2.643479E+06 -3.570541E+05 -3.836262E+05  1.442817E+05 -1.610532E+05 -1.029386E+04
       525   8 -2.516998E+06 -1.694606E+05 -2.409297E+05  7.375348E+04 -9.373365E+04 -3.136260E+04
       525   9 -2.437469E+06 -1.345024E+05 -1.803308E+05  4.283097E+04 -2.642102E+04 -3.126874E+04
       525  10 -1.066563E+06  3.511681E+04 -1.309008E+03 -1.207339E+04  1.695038E-10 -1.348366E-10
       525  11 -1.149605E+06  1.651187E+05  6.253177E+04  1.872382E+04  8.981474E-10 -1.911720E-09
       525  12 -1.272448E+06  1.497074E+05  7.252839E+04  8.912741E+04  3.786865E-10 -2.214679E-09
       525  13 -1.855327E+06 -1.609609E+05 -1.924714E+05  6.615349E+04 -5.871588E-10  8.996444E-10
       525  14 -1.833526E+06 -2.158321E+03 -8.919386E+04  4.625290E+04 -5.676209E-10 -8.852224E-10
       525  15 -1.855119E+06  7.612172E+03 -5.389277E+04  6.596788E+04 -1.349773E-09 -2.279087E-10
       525  16 -2.643507E+06 -3.570612E+05 -3.836753E+05  1.442804E+05 -5.518424E-10  3.947070E-10
       525  17 -2.517007E+06 -1.694641E+05 -2.409482E+05  7.375111E+04 -6.062916E-10 -2.780126E-09
       525  18 -2.437470E+06 -1.345036E+05 -1.803339E+05  4.283030E+04 -8.123721E-11 -4.012487E-09
       525  19 -1.066552E+06  3.511964E+04 -1.289804E+03 -1.207257E+04  1.004885E+05  1.020080E+04
       525  20 -1.149599E+06  1.651212E+05  6.254381E+04  1.872568E+04  7.360282E+04  3.132661E+04
       525  21 -1.272445E+06  1.497090E+05  7.253434E+04  8.912859E+04  4.674296E+04  3.129538E+04
       525  22 -1.855308E+06 -1.609562E+05 -1.924390E+05  6.615457E+04  1.307901E+05  1.024349E+04
       525  23 -1.833518E+06 -2.155380E+03 -8.917882E+04  4.625501E+04  8.367374E+04  3.134415E+04
       525  24 -1.855118E+06  7.613582E+03 -5.388842E+04  6.596881E+04  3.657728E+04  3.128168E+04
       525  25 -2.643479E+06 -3.570541E+05 -3.836262E+05  1.442817E+05  1.610532E+05  1.029386E+04
       525  26 -2.516998E+06 -1.694606E+05 -2.409297E+05  7.375348E+04  9.373365E+04  3.136260E+04
       525  27 -2.437469E+06 -1.345024E+05 -1.803308E+05  4.283097E+04  2.642102E+04  3.126874E+04
       526   1 -1.346490E+06  1.139000E+05  6.473097E+04  6.383368E+04 -3.303616E+04 -2.606923E+04
       526   2 -1.448615E+06  9.683551E+04  5.739289E+04  4.542412E+04 -1.971664E+04 -2.119968E+04
       526   3 -1.554655E+06  7.144236E+04  3.926335E+04  6.806937E+04 -6.403108E+03 -1.536760E+04
       526   4 -1.846389E+06 -8.033742E+03 -4.420389E+04  6.634332E+04 -2.883427E+04 -2.606466E+04
       526   5 -1.844327E+06  3.748099E+02 -2.848759E+04  4.580836E+04 -1.460266E+04 -2.119250E+04
       526   6 -1.846351E+06  2.929823E+02 -2.420343E+04  6.633015E+04 -3.748363E+02 -1.535759E+04
       526   7 -2.346054E+06 -1.299841E+05 -1.531537E+05  6.885081E+04 -2.463573E+04 -2.606006E+04
       526   8 -2.239891E+06 -9.609627E+04 -1.143773E+05  4.619228E+04 -9.491894E+03 -2.118532E+04
       526   9 -2.137966E+06 -7.086203E+04 -8.767518E+04  6.459173E+04  5.650634E+03 -1.534760E+04
       526  10 -1.346491E+06  1.138989E+05  6.472764E+04  6.383299E+04 -1.953154E-09 -3.215050E-09
       526  11 -1.448615E+06  9.683492E+04  5.739132E+04  4.542379E+04 -1.297551E-09  1.066545E-09
       526  12 -1.554655E+06  7.144210E+04  3.926283E+04  6.806929E+04 -1.956707E-09  1.921208E-09
       526  13 -1.846390E+06 -8.034695E+03 -4.420673E+04  6.634271E+04 -6.688630E-10 -2.184607E-09
       526  14 -1.844327E+06  3.742706E+02 -2.848883E+04  4.580811E+04 -4.028556E-10 -1.124357E-10
       526  15 -1.846351E+06  2.927292E+02 -2.420388E+04  6.633015E+04  7.536043E-10 -1.716984E-09
       526  16 -2.346054E+06 -1.299850E+05 -1.531561E+05  6.885029E+04  2.025979E-09 -8.457939E-10
       526  17 -2.239891E+06 -9.609677E+04 -1.143783E+05  4.619212E+04  1.616468E-10  5.483671E-10
       526  18 -2.137966E+06 -7.086229E+04 -8.767569E+04  6.459180E+04  1.102546E-09 -2.967806E-11
       526  19 -1.346490E+06  1.139000E+05  6.473097E+04  6.383368E+04  3.303616E+04  2.606923E+04
       526  20 -1.448615E+06  9.683551E+04  5.739289E+04  4.542412E+04  1.971664E+04  2.119968E+04
       526  21 -1.554655E+06  7.144236E+04  3.926335E+04  6.806937E+04  6.403108E+03  1.536760E+04
       526  22 -1.846389E+06 -8.033742E+03 -4.420389E+04  6.634332E+04  2.883427E+04  2.606466E+04
       526  23 -1.844327E+06  3.748099E+02 -2.848759E+04  4.580836E+04  1.460266E+04  2.119250E+04
       526  24 -1.846351E+06  2.929823E+02 -2.420343E+04  6.633015E+04  3.748363E+02  1.535759E+04
       526  25 -2.346054E+06 -1.299841E+05 -1.531537E+05  6.885081E+04  2.463573E+04  2.606006E+04
       526  26 -2.239891E+06 -9.609627E+04 -1.143773E+05  4.619228E+04  9.491894E+03  2.118532E+04
       526  27 -2.137966E+06 -7.086203E+04 -8.767518E+04  6.459173E+04 -5.650634E+03  1.534760E+04
       527   1 -1.637916E+06  5.123282E+04  2.014591E+04  6.495618E+04 -1.949200E+03 -1.168891E+04
       527   2 -1.740253E+06  2.575046E+04 -9.295418E+03  4.680124E+04  1.424052E+04 -5.693344E+03
       527   3 -1.847380E+06 -9.770573E+03 -5.185053E+04  6.998803E+04  3.042717E+04 -3.399480E+01
       527   4 -1.846487E+06  4.560395E+02 -2.479451E+04  6.639243E+04  3.927982E+03 -1.167866E+04
       527   5 -1.844122E+06  4.415757E+02 -3.174124E+04  4.573015E+04  1.979245E+04 -5.683382E+03
       527   6 -1.846498E+06 -9.554908E+03 -5.157557E+04  6.641044E+04  3.565650E+04 -2.443948E+01
       527   7 -2.055017E+06 -5.032358E+04 -6.973736E+04  6.782817E+04  9.803213E+03 -1.166839E+04
       527   8 -1.947980E+06 -2.486800E+04 -5.418758E+04  4.465923E+04  2.534346E+04 -5.673438E+03
       527   9 -1.845617E+06 -9.339180E+03 -5.130050E+04  6.283284E+04  4.088584E+04 -1.494460E+01
       527  10 -1.637916E+06  5.123267E+04  2.014565E+04  6.495616E+04 -2.209322E-09  3.014135E-09
       527  11 -1.740254E+06  2.575037E+04 -9.295861E+03  4.680130E+04  5.102792E-10  2.439093E-09
       527  12 -1.847381E+06 -9.770822E+03 -5.185228E+04  6.998803E+04  1.498035E-09 -5.305863E-10
       527  13 -1.846487E+06  4.558890E+02 -2.479479E+04  6.639247E+04  7.661903E-10 -1.829652E-09
       527  14 -1.844122E+06  4.414355E+02 -3.174204E+04  4.573024E+04 -1.142620E-10  2.978684E-09
       527  15 -1.846499E+06 -9.555250E+03 -5.157797E+04  6.641044E+04 -7.990578E-10  3.690039E-09
       527  16 -2.055017E+06 -5.032375E+04 -6.973779E+04  6.782826E+04  2.446517E-09  1.156867E-09
       527  17 -1.947981E+06 -2.486821E+04 -5.418885E+04  4.465935E+04 -1.728530E-09  3.779351E-09
       527  18 -1.845618E+06 -9.339630E+03 -5.130366E+04  6.283284E+04 -7.233564E-10  1.918286E-09
       527  19 -1.637916E+06  5.123282E+04  2.014591E+04  6.495618E+04  1.949200E+03  1.168891E+04
       527  20 -1.740253E+06  2.575046E+04 -9.295418E+03  4.680124E+04 -1.424052E+04  5.693344E+03
       527  21 -1.847380E+06 -9.770573E+03 -5.185053E+04  6.998803E+04 -3.042717E+04  3.399480E+01
       527  22 -1.846487E+06  4.560395E+02 -2.479451E+04  6.639243E+04 -3.927982E+03  1.167866E+04
       527  23 -1.844122E+06  4.415757E+02 -3.174124E+04  4.573015E+04 -1.979245E+04  5.683382E+03
       527  24 -1.846498E+06 -9.554908E+03 -5.157557E+04  6.641044E+04 -3.565650E+04  2.443948E+01
       527  25 -2.055017E+06 -5.032358E+04 -6.973736E+04  6.782817E+04 -9.803213E+03  1.166839E+04
       527  26 -1.947980E+06 -2.486800E+04 -5.418758E+04  4.465923E+04 -2.534346E+04  5.673438E+03
       527  27 -1.845617E+06 -9.339180E+03 -5.130050E+04  6.283284E+04 -4.088584E+04  1.494460E+01
       528   1 -1.941279E+06 -1.152244E+04 -8.205170E+04  3.912123E+04  3.707857E+04  4.232449E+03
       528   2 -2.019484E+06 -4.852248E+04 -1.484705E+05  7.921035E+04  1.013456E+05  8.049606E+03
       528   3 -2.151218E+06 -2.652948E+05 -3.018068E+05  1.603955E+05  1.656151E+05  3.327773E+03
       528   4 -1.856993E+06  9.196177E+03 -6.351315E+04  6.626265E+04  4.471737E+04  4.248180E+03
       528   5 -1.831039E+06 -2.441335E+03 -1.061984E+05  4.588166E+04  1.008103E+05  8.042983E+03
       528   6 -1.857183E+06 -1.924089E+05 -2.300919E+05  6.661061E+04  1.569172E+05  3.287401E+03
       528   7 -1.772698E+06  2.991711E+04 -4.497442E+04  9.340781E+04  5.235720E+04  4.264579E+03
       528   8 -1.642559E+06  4.364159E+04 -6.392804E+04  1.254271E+04  1.002748E+05  8.036420E+03
       528   9 -1.563050E+06 -1.194960E+05 -1.583784E+05 -2.721898E+04  1.482151E+05  3.249680E+03
       528  10 -1.941281E+06 -1.152283E+04 -8.205432E+04  3.912111E+04  1.562901E-09 -6.205036E-10
       528  11 -2.019495E+06 -4.852532E+04 -1.484899E+05  7.920970E+04 -1.515038E-09  4.181167E-09
       528  12 -2.151247E+06 -2.653022E+05 -3.018585E+05  1.603951E+05 -1.875970E-09  1.586941E-09
       528  13 -1.856995E+06  9.195619E+03 -6.351695E+04  6.626250E+04 -1.248571E-10  8.013781E-10
       528  14 -1.831050E+06 -2.444143E+03 -1.062177E+05  4.588101E+04 -1.806184E-09  4.380578E-09
       528  15 -1.857209E+06 -1.924155E+05 -2.301384E+05  6.661019E+04 -3.269911E-10 -1.306205E-09
       528  16 -1.772701E+06  2.991635E+04 -4.497962E+04  9.340763E+04 -6.908945E-10  1.305761E-09
       528  17 -1.642569E+06  4.363882E+04 -6.394710E+04  1.254206E+04 -1.546694E-09  2.189224E-11
       528  18 -1.563073E+06 -1.195019E+05 -1.584198E+05 -2.721936E+04  1.012449E-09 -1.273229E-09
       528  19 -1.941279E+06 -1.152244E+04 -8.205170E+04  3.912123E+04 -3.707857E+04 -4.232449E+03
       528  20 -2.019484E+06 -4.852248E+04 -1.484705E+05  7.921035E+04 -1.013456E+05 -8.049606E+03
       528  21 -2.151218E+06 -2.652948E+05 -3.018068E+05  1.603955E+05 -1.656151E+05 -3.327773E+03
       528  22 -1.856993E+06  9.196177E+03 -6.351315E+04  6.626265E+04 -4.471737E+04 -4.248180E+03
       528  23 -1.831039E+06 -2.441335E+03 -1.061984E+05  4.588166E+04 -1.008103E+05 -8.042983E+03
       528  24 -1.857183E+06 -1.924089E+05 -2.300919E+05  6.661061E+04 -1.569172E+05 -3.287401E+03
       528  25 -1.772698E+06  2.991711E+04 -4.497442E+04  9.340781E+04 -5.235720E+04 -4.264579E+03
       528  26 -1.642559E+06  4.364159E+04 -6.392804E+04  1.254271E+04 -1.002748E+05 -8.036420E+03
       528  27 -1.563050E+06 -1.194960E+05 -1.583784E+05 -2.721898E+04 -1.482151E+05 -3.249680E+03
       529   1 -7.142283E+05  5.298116E+04  2.902023E+04  1.269388E+04 -5.958142E+04 -7.932065E+03
       529   2 -7.990921E+05  1.273697E+05  5.983811E+04  2.596159E+04 -4.566503E+04 -2.393319E+04
       529   3 -9.088021E+05  1.099045E+05  5.863198E+04  7.683100E+04 -3.178036E+04 -2.303650E+04
       529   4 -1.339195E+06 -1.022498E+05 -1.224610E+05  6.202712E+04 -8.299788E+04 -7.978490E+03
       529   5 -1.325298E+06 -1.271653E+03 -5.694852E+04  4.312432E+04 -5.290005E+04 -2.394977E+04
       529   6 -1.339096E+06  4.992532E+03 -3.473678E+04  6.182840E+04 -2.283071E+04 -2.301825E+04
       529   7 -1.963798E+06 -2.574998E+05 -2.739670E+05  1.113103E+05 -1.063908E+05 -8.028668E+03
       529   8 -1.851243E+06 -1.299306E+05 -1.737520E+05  6.027219E+04 -6.012898E+04 -2.396677E+04
       529   9 -1.769216E+06 -9.993088E+04 -1.281162E+05  4.683625E+04 -1.388718E+04 -2.300042E+04
       529  10 -7.142322E+05  5.298014E+04  2.901343E+04  1.269350E+04  3.020405E-09 -1.409939E-09
       529  11 -7.990945E+05  1.273686E+05  5.983311E+04  2.596071E+04  8.906418E-10 -8.704395E-10
       529  12 -9.088033E+05  1.099037E+05  5.862908E+04  7.683041E+04 -2.759091E-09 -1.482053E-09
       529  13 -1.339203E+06 -1.022517E+05 -1.224741E+05  6.202658E+04 -1.532364E-09  3.490190E-09
       529  14 -1.325301E+06 -1.273021E+03 -5.695487E+04  4.312330E+04 -3.695303E-10 -3.921180E-10
       529  15 -1.339097E+06  4.991823E+03 -3.473876E+04  6.182797E+04 -5.850732E-10 -1.685128E-09
       529  16 -1.963810E+06 -2.575029E+05 -2.739884E+05  1.113096E+05 -2.444272E-09  1.312225E-11
       529  17 -1.851247E+06 -1.299322E+05 -1.737599E+05  6.027103E+04 -1.982294E-09 -2.446358E-09
       529  18 -1.769216E+06 -9.993150E+04 -1.281175E+05  4.683599E+04  2.937270E-09 -1.997994E-09
       529  19 -7.142283E+05  5.298116E+04  2.902023E+04  1.269388E+04  5.958142E+04  7.932065E+03
       529  20 -7.990921E+05  1.273697E+05  5.983811E+04  2.596159E+04  4.566503E+04  2.393319E+04
       529  21 -9.088021E+05  1.099045E+05  5.863198E+04  7.683100E+04  3.178036E+04  2.303650E+04
       529  22 -1.339195E+06 -1.022498E+05 -1.224610E+05  6.202712E+04  8.299788E+04  7.978490E+03
       529  23 -1.325298E+06 -1.271653E+03 -5.694852E+04  4.312432E+04  5.290005E+04  2.394977E+04
       529  24 -1.339096E+06  4.992532E+03 -3.473678E+04  6.182840E+04  2.283071E+04  2.301825E+04
       529  25 -1.963798E+06 -2.574998E+05 -2.739670E+05  1.113103E+05  1.063908E+05  8.028668E+03
       529  26 -1.851243E+06 -1.299306E+05 -1.737520E+05  6.027219E+04  6.012898E+04  2.396677E+04
       529  27 -1.769216E+06 -9.993088E+04 -1.281162E+05  4.683625E+04  1.388718E+04  2.300042E+04
       530   1 -9.811061E+05  8.097843E+04  4.804462E+04  6.067661E+04 -2.199036E+04 -1.835293E+04
       530   2 -1.077537E+06  6.240170E+04  3.602285E+04  4.265280E+04 -1.310850E+04 -1.360538E+04
       530   3 -1.176622E+06  3.854336E+04  1.684850E+04  6.318146E+04 -4.231201E+03 -8.104463E+03
       530   4 -1.333560E+06 -4.950850E+03 -2.874068E+04  6.209484E+04 -1.781139E+04 -1.834474E+04
       530   5 -1.332154E+06  3.610580E+02 -1.923220E+04  4.281227E+04 -8.212205E+03 -1.359490E+04
       530   6 -1.333539E+06  2.654098E+02 -1.737807E+04  6.208336E+04  1.383792E+03 -8.091558E+03
       530   7 -1.685896E+06 -9.088838E+04 -1.055334E+05  6.351219E+04 -1.363477E+04 -1.833652E+04
       530   8 -1.586711E+06 -6.168387E+04 -7.449103E+04  4.297164E+04 -3.317891E+03 -1.358441E+04
       530   9 -1.490433E+06 -3.801416E+04 -5.160600E+04  6.098553E+04  6.997383E+03 -8.078670E+03
       530  10 -9.811067E+05  8.097794E+04  4.804308E+04  6.067628E+04 -2.040516E-09  1.850940E-09
       530  11 -1.077537E+06  6.240145E+04  3.602218E+04  4.265265E+04 -1.438524E-09  5.620436E-10
       530  12 -1.176622E+06  3.854328E+04  1.684834E+04  6.318144E+04 -1.594234E-09 -3.484271E-10
       530  13 -1.333560E+06 -4.951297E+03 -2.874191E+04  6.209458E+04 -5.636481E-10  2.217466E-11
       530  14 -1.332154E+06  3.608415E+02 -1.923268E+04  4.281218E+04 -3.399974E-10  9.151558E-10
       530  15 -1.333539E+06  2.653391E+02 -1.737819E+04  6.208337E+04  4.486227E-10  5.650099E-10
       530  16 -1.685897E+06 -9.088879E+04 -1.055344E+05  6.351199E+04  2.304236E-09  1.329304E-09
       530  17 -1.586711E+06 -6.168407E+04 -7.449140E+04  4.297160E+04  2.265919E-09 -5.892281E-09
       530  18 -1.490433E+06 -3.801424E+04 -5.160621E+04  6.098557E+04  1.817645E-09 -1.322717E-09
       530  19 -9.811061E+05  8.097843E+04  4.804462E+04  6.067661E+04  2.199036E+04  1.835293E+04
       530  20 -1.077537E+06  6.240170E+04  3.602285E+04  4.265280E+04  1.310850E+04  1.360538E+04
       530  21 -1.176622E+06  3.854336E+04  1.684850E+04  6.318146E+04  4.231201E+03  8.104463E+03
       530  22 -1.333560E+06 -4.950850E+03 -2.874068E+04  6.209484E+04  1.781139E+04  1.834474E+04
       530  23 -1.332154E+06  3.610580E+02 -1.923220E+04  4.281227E+04  8.212205E+03  1.359490E+04
       530  24 -1.333539E+06  2.654098E+02 -1.737807E+04  6.208336E+04 -1.383792E+03  8.091558E+03
       530  25 -1.685896E+06 -9.088838E+04 -1.055334E+05  6.351219E+04  1.363477E+04  1.833652E+04
       530  26 -1.586711E+06 -6.168387E+04 -7.449103E+04  4.297164E+04  3.317891E+03  1.358441E+04
       530  27 -1.490433E+06 -3.801416E+04 -5.160600E+04  6.098553E+04 -6.997383E+03  8.078670E+03
       531   1 -1.254705E+06  1.973599E+04 -1.485299E+03  6.082663E+04 -1.021236E+03 -4.658577E+03
       531   2 -1.350740E+06 -4.198771E+03 -2.886749E+04  4.347276E+04  1.176814E+04  9.227719E+02
       531   3 -1.450651E+06 -3.612820E+04 -6.664013E+04  6.477657E+04  2.455635E+04  6.043415E+03
       531   4 -1.333761E+06  5.332065E+02 -1.836649E+04  6.210456E+04  4.520762E+03 -4.645621E+03
       531   5 -1.331863E+06  4.116654E+02 -2.470118E+04  4.278503E+04  1.686832E+04  9.346127E+02
       531   6 -1.333773E+06 -7.627001E+03 -4.111813E+04  6.212344E+04  2.921669E+04  6.054097E+03
       531   7 -1.412811E+06 -1.866996E+04 -3.524792E+04  6.338232E+04  1.006206E+04 -4.632641E+03
       531   8 -1.312985E+06  5.022093E+03 -2.053479E+04  4.209727E+04  2.196866E+04  9.464420E+02
       531   9 -1.216882E+06  2.087333E+04 -1.559686E+04  5.946979E+04  3.387790E+04  6.064738E+03
       531  10 -1.254705E+06  1.973597E+04 -1.485342E+03  6.082663E+04 -3.155087E-09  3.689455E-09
       531  11 -1.350741E+06 -4.198809E+03 -2.886775E+04  4.347276E+04 -5.998212E-10  4.564990E-10
       531  12 -1.450651E+06 -3.612840E+04 -6.664133E+04  6.477645E+04  2.605880E-10  3.904584E-09
       531  13 -1.333761E+06  5.331778E+02 -1.836657E+04  6.210458E+04 -1.279412E-10  1.136316E-09
       531  14 -1.331863E+06  4.115878E+02 -2.470171E+04  4.278502E+04 -9.334184E-10  2.858089E-09
       531  15 -1.333773E+06 -7.627270E+03 -4.111980E+04  6.212329E+04 -1.044914E-09 -4.710557E-10
       531  16 -1.412811E+06 -1.867001E+04 -3.524815E+04  6.338235E+04  4.218583E-09  1.027206E-09
       531  17 -1.312986E+06  5.021962E+03 -2.053570E+04  4.209726E+04  6.935750E-10 -6.982566E-11
       531  18 -1.216883E+06  2.087298E+04 -1.559909E+04  5.946962E+04 -6.044669E-10 -4.457242E-09
       531  19 -1.254705E+06  1.973599E+04 -1.485299E+03  6.082663E+04  1.021236E+03  4.658577E+03
       531  20 -1.350740E+06 -4.198771E+03 -2.886749E+04  4.347276E+04 -1.176814E+04 -9.227719E+02
       531  21 -1.450651E+06 -3.612820E+04 -6.664013E+04  6.477657E+04 -2.455635E+04 -6.043415E+03
       531  22 -1.333761E+06  5.332065E+02 -1.836649E+04  6.210456E+04 -4.520762E+03  4.645621E+03
       531  23 -1.331863E+06  4.116654E+02 -2.470118E+04  4.278503E+04 -1.686832E+04 -9.346127E+02
       531  24 -1.333773E+06 -7.627001E+03 -4.111813E+04  6.212344E+04 -2.921669E+04 -6.054097E+03
       531  25 -1.412811E+06 -1.866996E+04 -3.524792E+04  6.338232E+04 -1.006206E+04  4.632641E+03
       531  26 -1.312985E+06  5.022093E+03 -2.053479E+04  4.209727E+04 -2.196866E+04 -9.464420E+02
       531  27 -1.216882E+06  2.087333E+04 -1.559686E+04  5.946979E+04 -3.387790E+04 -6.064738E+03
       532   1 -1.537097E+06 -4.013700E+04 -9.333369E+04  3.976915E+04  2.870483E+04  1.025956E+04
       532   2 -1.613180E+06 -7.328020E+04 -1.506053E+05  6.960435E+04  8.436374E+04  1.299265E+04
       532   3 -1.733140E+06 -2.520906E+05 -2.806359E+05  1.376723E+05  1.400370E+05  4.790469E+03
       532   4 -1.342257E+06  7.502662E+03 -5.088957E+04  6.193340E+04  3.645097E+04  1.027819E+04
       532   5 -1.321297E+06 -1.936647E+03 -8.554202E+04  4.298767E+04  8.164341E+04  1.298255E+04
       532   6 -1.342377E+06 -1.551911E+05 -1.856488E+05  6.228282E+04  1.268596E+05  4.745161E+03
       532   7 -1.147379E+06  5.514166E+04 -8.447238E+03  8.410470E+04  4.419952E+04  1.029737E+04
       532   8 -1.029332E+06  6.940383E+04 -2.048366E+04  1.635827E+04  7.892179E+04  1.297268E+04
       532   9 -9.514620E+05 -5.828124E+04 -9.066910E+04 -1.315442E+04  1.136738E+05  4.703080E+03
       532  10 -1.537098E+06 -4.013734E+04 -9.333544E+04  3.976891E+04 -1.768547E-09  3.490703E-09
       532  11 -1.613188E+06 -7.328230E+04 -1.506190E+05  6.960347E+04 -2.725043E-10 -1.958342E-10
       532  12 -1.733161E+06 -2.520959E+05 -2.806729E+05  1.376717E+05 -7.093840E-10  5.213145E-10
       532  13 -1.342258E+06  7.502191E+03 -5.089227E+04  6.193310E+04 -2.142881E-09  5.269142E-09
       532  14 -1.321304E+06 -1.938622E+03 -8.555489E+04  4.298682E+04 -1.993735E-10 -3.617451E-09
       532  15 -1.342395E+06 -1.551955E+05 -1.856792E+05  6.228233E+04 -5.436096E-10  4.487064E-09
       532  16 -1.147381E+06  5.514102E+04 -8.451115E+03  8.410433E+04  2.386261E-09  7.325004E-10
       532  17 -1.029339E+06  6.940197E+04 -2.049570E+04  1.635744E+04 -4.935368E-10  1.117955E-09
       532  18 -9.514759E+05 -5.828473E+04 -9.069346E+04 -1.315485E+04  1.019727E-10 -1.655071E-09
       532  19 -1.537097E+06 -4.013700E+04 -9.333369E+04  3.976915E+04 -2.870483E+04 -1.025956E+04
       532  20 -1.613180E+06 -7.328020E+04 -1.506053E+05  6.960435E+04 -8.436374E+04 -1.299265E+04
       532  21 -1.733140E+06 -2.520906E+05 -2.806359E+05  1.376723E+05 -1.400370E+05 -4.790469E+03
       532  22 -1.342257E+06  7.502662E+03 -5.088957E+04  6.193340E+04 -3.645097E+04 -1.027819E+04
       532  23 -1.321297E+06 -1.936647E+03 -8.554202E+04  4.298767E+04 -8.164341E+04 -1.298255E+04
       532  24 -1.342377E+06 -1.551911E+05 -1.856488E+05  6.228282E+04 -1.268596E+05 -4.745161E+03
       532  25 -1.147379E+06  5.514166E+04 -8.447238E+03  8.410470E+04 -4.419952E+04 -1.029737E+04
       532  26 -1.029332E+06  6.940383E+04 -2.048366E+04  1.635827E+04 -7.892179E+04 -1.297268E+04
       532  27 -9.514620E+05 -5.828124E+04 -9.066910E+04 -1.315442E+04 -1.136738E+05 -4.703080E+03
       533   1 -3.444767E+05  4.551455E+04  3.428720E+04  1.999238E+04 -2.330466E+04 -4.533557E+03
       533   2 -4.042950E+05  7.272987E+04  4.113073E+04  2.154813E+04 -1.942519E+04 -1.351741E+04
       533   3 -4.747918E+05  5.963866E+04  3.536356E+04  4.833804E+04 -1.556678E+04 -1.254416E+04
       533   4 -7.101461E+05 -4.528273E+04 -5.435694E+04  4.169136E+04 -3.669595E+04 -4.562445E+03
       533   5 -7.039577E+05 -5.052980E+02 -2.540069E+04  2.902259E+04 -2.326819E+04 -1.352646E+04
       533   6 -7.101182E+05  2.295173E+03 -1.569660E+04  4.158994E+04 -9.860884E+03 -1.253139E+04
       533   7 -1.075692E+06 -1.360879E+05 -1.430098E+05  6.337746E+04 -5.007937E+04 -4.592279E+03
       533   8 -1.003536E+06 -7.374631E+04 -9.193761E+04  3.649336E+04 -2.710935E+04 -1.353560E+04
       533   9 -9.453925E+05 -5.505180E+04 -6.675992E+04  3.484440E+04 -4.157121E+03 -1.251874E+04
       533  10 -3.444773E+05  4.551439E+04  3.428614E+04  1.999229E+04 -4.288111E-09  6.146884E-10
       533  11 -4.042955E+05  7.272957E+04  4.112968E+04  2.154791E+04 -9.442915E-10  6.541673E-09
       533  12 -4.747921E+05  5.963842E+04  3.536281E+04  4.833789E+04  1.074909E-09  3.036874E-09
       533  13 -7.101475E+05 -4.528312E+04 -5.435952E+04  4.169123E+04 -5.771787E-10 -2.502501E-09
       533  14 -7.039583E+05 -5.056399E+02 -2.540205E+04  2.902234E+04 -9.420335E-10 -7.686335E-09
       533  15 -7.101184E+05  2.294978E+03 -1.569708E+04  4.158984E+04  1.651357E-10  1.242273E-09
       533  16 -1.075694E+06 -1.360886E+05 -1.430146E+05  6.337728E+04  5.764116E-09 -3.224344E-10
       533  17 -1.003537E+06 -7.374670E+04 -9.193934E+04  3.649307E+04 -3.553397E-10  4.993235E-09
       533  18 -9.453926E+05 -5.505197E+04 -6.676025E+04  3.484436E+04 -1.277146E-09  3.061234E-10
       533  19 -3.444767E+05  4.551455E+04  3.428720E+04  1.999238E+04  2.330466E+04  4.533557E+03
       533  20 -4.042950E+05  7.272987E+04  4.113073E+04  2.154813E+04  1.942519E+04  1.351741E+04
       533  21 -4.747918E+05  5.963866E+04  3.536356E+04  4.833804E+04  1.556678E+04  1.254416E+04
       533  22 -7.101461E+05 -4.528273E+04 -5.435694E+04  4.169136E+04  3.669595E+04  4.562445E+03
       533  23 -7.039577E+05 -5.052980E+02 -2.540069E+04  2.902259E+04  2.326819E+04  1.352646E+04
       533  24 -7.101182E+05  2.295173E+03 -1.569660E+04  4.158994E+04  9.860884E+03  1.253139E+04
       533  25 -1.075692E+06 -1.360879E+05 -1.430098E+05  6.337746E+04  5.007937E+04  4.592279E+03
       533  26 -1.003536E+06 -7.374631E+04 -9.193761E+04  3.649336E+04  2.710935E+04  1.353560E+04
       533  27 -9.453925E+05 -5.505180E+04 -6.675992E+04  3.484440E+04  4.157121E+03  1.251874E+04
       534   1 -5.243148E+05  4.256718E+04  2.679423E+04  4.113652E+04 -1.046513E+04 -9.523144E+03
       534   2 -5.888937E+05  2.898642E+04  1.640223E+04  2.879066E+04 -6.282055E+03 -6.283697E+03
       534   3 -6.547396E+05  1.306647E+04  2.667426E+03  4.215420E+04 -2.100963E+03 -2.607893E+03
       534   4 -7.076709E+05 -2.111501E+03 -1.313878E+04  4.172350E+04 -7.574480E+03 -9.516687E+03
       534   5 -7.069955E+05  2.243382E+02 -9.226382E+03  2.886600E+04 -2.974071E+03 -6.276054E+03
       534   6 -7.076651E+05  1.480901E+02 -8.947732E+03  4.171827E+04  1.624780E+03 -2.599018E+03
       534   7 -8.909954E+05 -4.679241E+04 -5.307378E+04  4.231029E+04 -4.684678E+03 -9.510223E+03
       534   8 -8.250841E+05 -2.853866E+04 -3.485579E+04  2.894132E+04  3.332907E+02 -6.268409E+03
       534   9 -7.605879E+05 -1.277047E+04 -2.056301E+04  4.128237E+04  5.350209E+03 -2.590148E+03
       534  10 -5.243149E+05  4.256706E+04  2.679385E+04  4.113644E+04  1.728881E-10 -7.497009E-10
       534  11 -5.888937E+05  2.898636E+04  1.640209E+04  2.879063E+04 -1.439246E-10  3.827388E-09
       534  12 -6.547396E+05  1.306646E+04  2.667405E+03  4.215420E+04  1.088164E-09  5.274776E-09
       534  13 -7.076710E+05 -2.111613E+03 -1.313906E+04  4.172345E+04 -1.183703E-09  7.874977E-09
       534  14 -7.069955E+05  2.242936E+02 -9.226472E+03  2.886598E+04 -7.544337E-10 -1.515928E-08
       534  15 -7.076651E+05  1.480821E+02 -8.947750E+03  4.171827E+04 -2.098023E-10  5.014231E-09
       534  16 -8.909954E+05 -4.679252E+04 -5.307399E+04  4.231025E+04  1.704522E-09 -4.691085E-09
       534  17 -8.250842E+05 -2.853870E+04 -3.485586E+04  2.894132E+04 -1.456785E-09 -5.144482E-09
       534  18 -7.605879E+05 -1.277049E+04 -2.056307E+04  4.128238E+04 -2.277880E-09  4.261081E-10
       534  19 -5.243148E+05  4.256718E+04  2.679423E+04  4.113652E+04  1.046513E+04  9.523144E+03
       534  20 -5.888937E+05  2.898642E+04  1.640223E+04  2.879066E+04  6.282055E+03  6.283697E+03
       534  21 -6.547396E+05  1.306647E+04  2.667426E+03  4.215420E+04  2.100963E+03  2.607893E+03
       534  22 -7.076709E+05 -2.111501E+03 -1.313878E+04  4.172350E+04  7.574480E+03  9.516687E+03
       534  23 -7.069955E+05  2.243382E+02 -9.226382E+03  2.886600E+04  2.974071E+03  6.276054E+03
       534  24 -7.076651E+05  1.480901E+02 -8.947732E+03  4.171827E+04 -1.624780E+03  2.599018E+03
       534  25 -8.909954E+05 -4.679241E+04 -5.307378E+04  4.231029E+04  4.684678E+03  9.510223E+03
       534  26 -8.250841E+05 -2.853866E+04 -3.485579E+04  2.894132E+04 -3.332907E+02  6.268409E+03
       534  27 -7.605879E+05 -1.277047E+04 -2.056301E+04  4.128237E+04 -5.350209E+03  2.590148E+03
       535   1 -7.067759E+05  5.931896E+02 -9.697345E+03  4.089073E+04 -4.413758E+02 -3.144198E+02
       535   2 -7.708980E+05 -1.537200E+04 -2.771631E+04  2.914831E+04  6.800957E+03  3.384092E+03
       535   3 -8.372490E+05 -3.589834E+04 -5.163050E+04  4.313263E+04  1.404373E+04  6.712434E+03
       535   4 -7.078476E+05  3.691390E+02 -9.768671E+03  4.172043E+04  3.267157E+03 -3.055529E+02
       535   5 -7.067657E+05  2.513646E+02 -1.377513E+04  2.886266E+04  1.015492E+04  3.391978E+03
       535   6 -7.078535E+05 -4.365001E+03 -2.342925E+04  4.173157E+04  1.704386E+04  6.719345E+03
       535   7 -7.089193E+05  1.450984E+02 -9.839945E+03  4.255012E+04  6.975683E+03 -2.966760E+02
       535   8 -6.426296E+05  1.587446E+04  1.658420E+02  2.857697E+04  1.350922E+04  3.399861E+03
       535   9 -5.784423E+05  2.716724E+04  4.771030E+03  4.033019E+04  2.004461E+04  6.726242E+03
       535  10 -7.067759E+05  5.931895E+02 -9.697345E+03  4.089073E+04  2.723022E-09 -5.354671E-09
       535  11 -7.708980E+05 -1.537203E+04 -2.771642E+04  2.914829E+04 -1.644174E-09 -4.344223E-09
       535  12 -8.372492E+05 -3.589844E+04 -5.163096E+04  4.313256E+04 -4.849464E-09 -1.663451E-09
       535  13 -7.078477E+05  3.691361E+02 -9.768691E+03  4.172043E+04 -6.861550E-10 -9.010631E-10
       535  14 -7.067659E+05  2.513245E+02 -1.377535E+04  2.886263E+04 -9.656357E-10 -2.433088E-09
       535  15 -7.078539E+05 -4.365128E+03 -2.342988E+04  4.173147E+04 -6.303381E-10 -1.190542E-09
       535  16 -7.089194E+05  1.450852E+02 -9.840036E+03  4.255012E+04 -6.174140E-10 -4.258005E-09
       535  17 -6.426298E+05  1.587440E+04  1.654770E+02  2.857693E+04  1.633829E-10  4.573609E-09
       535  18 -5.784428E+05  2.716708E+04  4.770190E+03  4.033009E+04  4.518152E-09  6.713665E-09
       535  19 -7.067759E+05  5.931896E+02 -9.697345E+03  4.089073E+04  4.413758E+02  3.144198E+02
       535  20 -7.708980E+05 -1.537200E+04 -2.771631E+04  2.914831E+04 -6.800957E+03 -3.384092E+03
       535  21 -8.372490E+05 -3.589834E+04 -5.163050E+04  4.313263E+04 -1.404373E+04 -6.712434E+03
       535  22 -7.078476E+05  3.691390E+02 -9.768671E+03  4.172043E+04 -3.267157E+03  3.055529E+02
       535  23 -7.067657E+05  2.513646E+02 -1.377513E+04  2.886266E+04 -1.015492E+04 -3.391978E+03
       535  24 -7.078535E+05 -4.365001E+03 -2.342925E+04  4.173157E+04 -1.704386E+04 -6.719345E+03
       535  25 -7.089193E+05  1.450984E+02 -9.839945E+03  4.255012E+04 -6.975683E+03  2.966760E+02
       535  26 -6.426296E+05  1.587446E+04  1.658420E+02  2.857697E+04 -1.350922E+04 -3.399861E+03
       535  27 -5.784423E+05  2.716724E+04  4.771030E+03  4.033019E+04 -2.004461E+04 -6.726242E+03
       536   1 -8.940734E+05 -3.990239E+04 -6.852233E+04  2.870330E+04  1.574441E+04  9.619458E+03
       536   2 -9.465449E+05 -6.117740E+04 -1.038467E+05  4.419833E+04  4.996240E+04  1.105755E+04
       536   3 -1.024656E+06 -1.666637E+05 -1.825513E+05  8.508576E+04  8.419489E+04  3.904673E+03
       536   4 -7.127477E+05  4.345505E+03 -2.912382E+04  4.160039E+04  2.117209E+04  9.632170E+03
       536   5 -7.006674E+05 -1.104736E+03 -4.917621E+04  2.900565E+04  4.715867E+04  1.104971E+04
       536   6 -7.127891E+05 -8.931954E+04 -1.068759E+05  4.180641E+04  7.316374E+04  3.874717E+03
       536   7 -5.313908E+05  4.859184E+04  1.027292E+04  5.450128E+04  2.660133E+04  9.645106E+03
       536   8 -4.547328E+05  5.896473E+04  5.490709E+03  1.380685E+04  4.435385E+04  1.104202E+04
       536   9 -4.008285E+05 -1.197529E+04 -3.120608E+04 -1.494821E+03  6.212705E+04  3.846309E+03
       536  10 -8.940736E+05 -3.990255E+04 -6.852297E+04  2.870318E+04  3.018737E-09 -6.115480E-09
       536  11 -9.465476E+05 -6.117821E+04 -1.038517E+05  4.419789E+04 -2.331402E-09 -2.055730E-09
       536  12 -1.024664E+06 -1.666657E+05 -1.825647E+05  8.508549E+04 -5.085964E-09 -1.028335E-09
       536  13 -7.127482E+05  4.345285E+03 -2.912484E+04  4.160023E+04 -6.630630E-10  1.673578E-09
       536  14 -7.006698E+05 -1.105465E+03 -4.918063E+04  2.900523E+04  1.225908E-09 -7.731252E-09
       536  15 -7.127949E+05 -8.932100E+04 -1.068860E+05  4.180618E+04 -6.128392E-10 -2.554031E-09
       536  16 -5.313916E+05  4.859155E+04  1.027141E+04  5.450107E+04 -1.530745E-09  4.098829E-09
       536  17 -4.547349E+05  5.896407E+04  5.486780E+03  1.380646E+04  1.475824E-10  7.038723E-09
       536  18 -4.008326E+05 -1.197635E+04 -3.121337E+04 -1.495013E+03  3.312217E-09  7.670508E-10
       536  19 -8.940734E+05 -3.990239E+04 -6.852233E+04  2.870330E+04 -1.574441E+04 -9.619458E+03
       536  20 -9.465449E+05 -6.117740E+04 -1.038467E+05  4.419833E+04 -4.996240E+04 -1.105755E+04
       536  21 -1.024656E+06 -1.666637E+05 -1.825513E+05  8.508576E+04 -8.419489E+04 -3.904673E+03
       536  22 -7.127477E+05  4.345505E+03 -2.912382E+04  4.160039E+04 -2.117209E+04 -9.632170E+03
       536  23 -7.006674E+05 -1.104736E+03 -4.917621E+04  2.900565E+04 -4.715867E+04 -1.104971E+04
       536  24 -7.127891E+05 -8.931954E+04 -1.068759E+05  4.180641E+04 -7.316374E+04 -3.874717E+03
       536  25 -5.313908E+05  4.859184E+04  1.027292E+04  5.450128E+04 -2.660133E+04 -9.645106E+03
       536  26 -4.547328E+05  5.896473E+04  5.490709E+03  1.380685E+04 -4.435385E+04 -1.104202E+04
       536  27 -4.008285E+05 -1.197529E+04 -3.120608E+04 -1.494821E+03 -6.212705E+04 -3.846309E+03
       537   1 -9.846232E+04  2.957009E+04  2.635422E+04  1.838024E+04 -3.125009E+03 -1.923635E+03
       537   2 -1.336597E+05  3.080857E+04  2.183828E+04  1.473162E+04 -4.143763E+03 -5.602072E+03
       537   3 -1.711440E+05  2.263560E+04  1.562410E+04  2.519538E+04 -5.171957E+03 -4.769620E+03
       537   4 -2.615459E+05 -1.094131E+04 -1.322096E+04  2.353748E+04 -8.817287E+03 -1.935766E+03
       537   5 -2.600233E+05 -8.006452E+01 -6.261778E+03  1.646874E+04 -5.506686E+03 -5.605104E+03
       537   6 -2.615417E+05  6.167339E+02 -4.008674E+03  2.351278E+04 -2.205633E+03 -4.763131E+03
       537   7 -4.246051E+05 -5.145454E+04 -5.279793E+04  2.869335E+04 -1.450807E+04 -1.947993E+03
       537   8 -3.863719E+05 -3.096977E+04 -3.436283E+04  1.820550E+04 -6.869334E+03 -5.608144E+03
       537   9 -3.519318E+05 -2.140266E+04 -2.364190E+04  2.183043E+04  7.602637E+02 -4.756657E+03
       537  10 -9.846233E+04  2.957008E+04  2.635420E+04  1.838023E+04  1.238791E-09  1.076906E-10
       537  11 -1.336598E+05  3.080853E+04  2.183819E+04  1.473160E+04 -1.136707E-09 -2.434172E-09
       537  12 -1.711440E+05  2.263557E+04  1.562400E+04  2.519536E+04 -4.137253E-09 -2.526621E-09
       537  13 -2.615460E+05 -1.094133E+04 -1.322111E+04  2.353746E+04 -1.846131E-09  4.194324E-09
       537  14 -2.600233E+05 -8.010640E+01 -6.261895E+03  1.646872E+04 -6.536754E-11 -4.779131E-11
       537  15 -2.615417E+05  6.167083E+02 -4.008725E+03  2.351278E+04 -6.747470E-10 -3.314048E-09
       537  16 -4.246054E+05 -5.145460E+04 -5.279833E+04  2.869332E+04  2.589733E-10  1.346775E-09
       537  17 -3.863719E+05 -3.096981E+04 -3.436298E+04  1.820547E+04  5.579657E-10 -7.014349E-09
       537  18 -3.519318E+05 -2.140268E+04 -2.364194E+04  2.183044E+04  4.116665E-09 -3.100727E-09
       537  19 -9.846232E+04  2.957009E+04  2.635422E+04  1.838024E+04  3.125009E+03  1.923635E+03
       537  20 -1.336597E+05  3.080857E+04  2.183828E+04  1.473162E+04  4.143763E+03  5.602072E+03
       537  21 -1.711440E+05  2.263560E+04  1.562410E+04  2.519538E+04  5.171957E+03  4.769620E+03
       537  22 -2.615459E+05 -1.094131E+04 -1.322096E+04  2.353748E+04  8.817287E+03  1.935766E+03
       537  23 -2.600233E+05 -8.006452E+01 -6.261778E+03  1.646874E+04  5.506686E+03  5.605104E+03
       537  24 -2.615417E+05  6.167339E+02 -4.008674E+03  2.351278E+04  2.205633E+03  4.763131E+03
       537  25 -4.246051E+05 -5.145454E+04 -5.279793E+04  2.869335E+04  1.450807E+04  1.947993E+03
       537  26 -3.863719E+05 -3.096977E+04 -3.436283E+04  1.820550E+04  6.869334E+03  5.608144E+03
       537  27 -3.519318E+05 -2.140266E+04 -2.364190E+04  2.183043E+04 -7.602637E+02  4.756657E+03
       538   1 -1.994968E+05  1.452140E+04  9.932109E+03  2.343055E+04 -3.300505E+03 -3.170872E+03
       538   2 -2.356221E+05  6.223088E+03  2.746892E+03  1.636331E+04 -2.132219E+03 -1.310570E+03
       538   3 -2.721170E+05 -2.634933E+03 -5.357487E+03  2.360985E+04 -9.644609E+02  7.426278E+02
       538   4 -2.609546E+05 -4.505275E+02 -3.458896E+03  2.356430E+04 -1.610047E+03 -3.167152E+03
       538   5 -2.607531E+05  1.021765E+02 -2.721402E+03  1.640682E+04 -2.567574E+02 -1.306416E+03
       538   6 -2.609540E+05  6.323167E+01 -3.031455E+03  2.356316E+04  1.096073E+03  7.472234E+02
       538   7 -3.224090E+05 -1.542270E+04 -1.685012E+04  2.369802E+04  8.024670E+01 -3.163432E+03
       538   8 -2.858835E+05 -6.018775E+03 -8.189721E+03  1.645032E+04  1.618629E+03 -1.302262E+03
       538   9 -2.497909E+05  2.761391E+03 -7.054146E+02  2.351647E+04  3.156644E+03  7.518187E+02
       538  10 -1.994968E+05  1.452138E+04  9.932070E+03  2.343055E+04 -3.670177E-09 -8.425339E-10
       538  11 -2.356221E+05  6.223085E+03  2.746881E+03  1.636331E+04 -2.617252E-09 -2.708441E-09
       538  12 -2.721170E+05 -2.634934E+03 -5.357490E+03  2.360986E+04 -2.459074E-09  2.657343E-10
       538  13 -2.609546E+05 -4.505390E+02 -3.458920E+03  2.356429E+04 -6.358413E-10 -8.262054E-10
       538  14 -2.607531E+05  1.021746E+02 -2.721405E+03  1.640682E+04  9.764326E-10  2.144128E-09
       538  15 -2.609540E+05  6.323075E+01 -3.031459E+03  2.356316E+04 -6.100913E-10  4.370822E-09
       538  16 -3.224090E+05 -1.542271E+04 -1.685014E+04  2.369802E+04  3.768399E-09  5.531416E-09
       538  17 -2.858835E+05 -6.018777E+03 -8.189729E+03  1.645032E+04  1.463217E-09 -7.151973E-10
       538  18 -2.497910E+05  2.761388E+03 -7.054344E+02  2.351647E+04  1.930071E-09  3.698633E-09
       538  19 -1.994968E+05  1.452140E+04  9.932109E+03  2.343055E+04  3.300505E+03  3.170872E+03
       538  20 -2.356221E+05  6.223088E+03  2.746892E+03  1.636331E+04  2.132219E+03  1.310570E+03
       538  21 -2.721170E+05 -2.634933E+03 -5.357487E+03  2.360985E+04  9.644609E+02 -7.426278E+02
       538  22 -2.609546E+05 -4.505275E+02 -3.458896E+03  2.356430E+04  1.610047E+03  3.167152E+03
       538  23 -2.607531E+05  1.021765E+02 -2.721402E+03  1.640682E+04  2.567574E+02  1.306416E+03
       538  24 -2.609540E+05  6.323167E+01 -3.031455E+03  2.356316E+04 -1.096073E+03 -7.472234E+02
       538  25 -3.224090E+05 -1.542270E+04 -1.685012E+04  2.369802E+04 -8.024670E+01  3.163432E+03
       538  26 -2.858835E+05 -6.018775E+03 -8.189721E+03  1.645032E+04 -1.618629E+03  1.302262E+03
       538  27 -2.497909E+05  2.761391E+03 -7.054146E+02  2.351647E+04 -3.156644E+03 -7.518187E+02
       539   1 -3.010682E+05 -9.567594E+03 -1.224162E+04  2.315080E+04 -4.088808E+02  2.017428E+03
       539   2 -3.369160E+05 -1.845782E+04 -2.184531E+04  1.643490E+04  2.486552E+03  4.060730E+03
       539   3 -3.736700E+05 -2.916510E+04 -3.380721E+04  2.402796E+04  5.382545E+03  5.849068E+03
       539   4 -2.610571E+05  1.881367E+02 -3.496709E+03  2.356122E+04  1.668196E+03  2.022042E+03
       539   5 -2.606258E+05  1.137842E+02 -5.300873E+03  1.640889E+04  4.319209E+03  4.064717E+03
       539   6 -2.610593E+05 -1.734930E+03 -9.293142E+03  2.356544E+04  6.970948E+03  5.852443E+03
       539   7 -2.210445E+05  9.943764E+03  5.248120E+03  2.397167E+04  3.745405E+03  2.026659E+03
       539   8 -1.843301E+05  1.868500E+04  1.124323E+04  1.638288E+04  6.152089E+03  4.068703E+03
       539   9 -1.484366E+05  2.569440E+04  1.522017E+04  2.310283E+04  8.559635E+03  5.855815E+03
       539  10 -3.010682E+05 -9.567599E+03 -1.224163E+04  2.315080E+04 -1.077120E-08 -1.254468E-09
       539  11 -3.369160E+05 -1.845784E+04 -2.184535E+04  1.643489E+04  2.269882E-09  3.138500E-09
       539  12 -3.736700E+05 -2.916515E+04 -3.380733E+04  2.402793E+04  1.381737E-08 -3.055428E-09
       539  13 -2.610571E+05  1.881316E+02 -3.496722E+03  2.356122E+04 -4.475491E-10 -4.846201E-09
       539  14 -2.606258E+05  1.137615E+02 -5.300939E+03  1.640888E+04 -6.617985E-10  1.627949E-09
       539  15 -2.610593E+05 -1.734980E+03 -9.293298E+03  2.356541E+04 -1.132646E-09  7.023968E-10
       539  16 -2.210445E+05  9.943756E+03  5.248086E+03  2.397166E+04  1.195061E-08 -5.181267E-09
       539  17 -1.843302E+05  1.868497E+04  1.124313E+04  1.638286E+04 -3.332894E-09 -1.210636E-08
       539  18 -1.484367E+05  2.569435E+04  1.521997E+04  2.310279E+04 -1.518727E-08  5.455703E-10
       539  19 -3.010682E+05 -9.567594E+03 -1.224162E+04  2.315080E+04  4.088808E+02 -2.017428E+03
       539  20 -3.369160E+05 -1.845782E+04 -2.184531E+04  1.643490E+04 -2.486552E+03 -4.060730E+03
       539  21 -3.736700E+05 -2.916510E+04 -3.380721E+04  2.402796E+04 -5.382545E+03 -5.849068E+03
       539  22 -2.610571E+05  1.881367E+02 -3.496709E+03  2.356122E+04 -1.668196E+03 -2.022042E+03
       539  23 -2.606258E+05  1.137842E+02 -5.300873E+03  1.640889E+04 -4.319209E+03 -4.064717E+03
       539  24 -2.610593E+05 -1.734930E+03 -9.293142E+03  2.356544E+04 -6.970948E+03 -5.852443E+03
       539  25 -2.210445E+05  9.943764E+03  5.248120E+03  2.397167E+04 -3.745405E+03 -2.026659E+03
       539  26 -1.843301E+05  1.868500E+04  1.124323E+04  1.638288E+04 -6.152089E+03 -4.068703E+03
       539  27 -1.484366E+05  2.569440E+04  1.522017E+04  2.310283E+04 -8.559635E+03 -5.855815E+03
       540   1 -4.045789E+05 -3.271602E+04 -4.231765E+04  1.819412E+04  5.377341E+03  7.545967E+03
       540   2 -4.355773E+05 -4.377063E+04 -5.910838E+04  2.249171E+04  2.138771E+04  8.042172E+03
       540   3 -4.772876E+05 -8.907619E+04 -9.490347E+04  4.086316E+04  3.740857E+04  2.725540E+03
       540   4 -2.630328E+05  1.769935E+03 -1.162087E+04  2.349151E+04  8.610884E+03  7.552849E+03
       540   5 -2.581661E+05 -4.319841E+02 -1.974231E+04  1.649327E+04  1.904611E+04  8.036892E+03
       540   6 -2.630414E+05 -3.591159E+04 -4.299184E+04  2.356961E+04  2.949295E+04  2.708259E+03
       540   7 -1.214677E+05  3.625467E+04  1.907477E+04  2.879011E+04  1.184515E+04  7.559785E+03
       540   8 -8.072536E+04  4.290468E+04  1.962185E+04  1.049308E+04  1.670384E+04  8.031657E+03
       540   9 -4.875244E+04  1.725082E+04  8.916891E+03  6.270057E+03  2.157461E+04  2.691422E+03
       540  10 -4.045790E+05 -3.271608E+04 -4.231781E+04  1.819409E+04  2.709844E-09 -3.601437E-10
       540  11 -4.355779E+05 -4.377082E+04 -5.910936E+04  2.249157E+04  3.336996E-09  1.307664E-09
       540  12 -4.772891E+05 -8.907657E+04 -9.490612E+04  4.086307E+04  2.762608E-09  4.693122E-09
       540  13 -2.630328E+05  1.769854E+03 -1.162112E+04  2.349146E+04 -1.678071E-09  3.425209E-09
       540  14 -2.581665E+05 -4.321508E+02 -1.974311E+04  1.649315E+04 -1.652075E-09  4.541522E-09
       540  15 -2.630423E+05 -3.591183E+04 -4.299349E+04  2.356955E+04 -1.323754E-10  5.004003E-09
       540  16 -1.214678E+05  3.625457E+04  1.907439E+04  2.879004E+04 -2.385619E-09  3.885321E-09
       540  17 -8.072567E+04  4.290454E+04  1.962121E+04  1.049298E+04 -4.477519E-09  7.803175E-09
       540  18 -4.875295E+04  1.725069E+04  8.916003E+03  6.270010E+03 -3.979119E-09  1.900593E-10
       540  19 -4.045789E+05 -3.271602E+04 -4.231765E+04  1.819412E+04 -5.377341E+03 -7.545967E+03
       540  20 -4.355773E+05 -4.377063E+04 -5.910838E+04  2.249171E+04 -2.138771E+04 -8.042172E+03
       540  21 -4.772876E+05 -8.907619E+04 -9.490347E+04  4.086316E+04 -3.740857E+04 -2.725540E+03
       540  22 -2.630328E+05  1.769935E+03 -1.162087E+04  2.349151E+04 -8.610884E+03 -7.552849E+03
       540  23 -2.581661E+05 -4.319841E+02 -1.974231E+04  1.649327E+04 -1.904611E+04 -8.036892E+03
       540  24 -2.630414E+05 -3.591159E+04 -4.299184E+04  2.356961E+04 -2.949295E+04 -2.708259E+03
       540  25 -1.214677E+05  3.625467E+04  1.907477E+04  2.879011E+04 -1.184515E+04 -7.559785E+03
       540  26 -8.072536E+04  4.290468E+04  1.962185E+04  1.049308E+04 -1.670384E+04 -8.031657E+03
       540  27 -4.875244E+04  1.725082E+04  8.916891E+03  6.270057E+03 -2.157461E+04 -2.691422E+03
