
 stresses (elem, integ.pnt.,sxx,syy,szz,sxy,sxz,syz) for set ELALL and time  0.1000000E+01

         1   1  5.027696E+06  3.483822E+05  4.164053E+05  1.715390E+05  2.847242E+05  7.806876E+01
         1   2  4.981319E+06  5.018486E+03  1.930768E+05  6.125071E+04  1.826083E+05  1.787871E+01
         1   3  5.028546E+06 -1.614188E+04  1.164198E+05 -4.902754E+04  8.048898E+04 -6.307349E+00
         1   4  5.027664E+06  3.483274E+05  4.163975E+05 -3.946925E-08  2.847242E+05 -8.225166E-10
         1   5  4.981315E+06  5.011491E+03  1.930758E+05  1.788160E-08  1.826083E+05 -2.413970E-09
         1   6  5.028544E+06 -1.614636E+04  1.164191E+05  7.262157E-08  8.048898E+04 -1.921037E-09
         1   7  5.027696E+06  3.483822E+05  4.164053E+05 -1.715390E+05  2.847242E+05 -7.806876E+01
         1   8  4.981319E+06  5.018486E+03  1.930768E+05 -6.125071E+04  1.826083E+05 -1.787871E+01
         1   9  5.028546E+06 -1.614188E+04  1.164198E+05  4.902754E+04  8.048898E+04  6.307349E+00
         1  10  5.027609E+06  3.483607E+05  4.162542E+05  1.715390E+05  6.310451E-09  2.474861E-10
         1  11  4.981283E+06  5.009622E+03  1.930146E+05  6.125071E+04 -7.511492E-09 -5.584174E-10
         1  12  5.028539E+06 -1.614360E+04  1.164077E+05 -4.902754E+04 -1.649253E-08 -2.823691E-09
         1  13  5.027578E+06  3.483058E+05  4.162464E+05 -5.744397E-09  6.758483E-11 -7.229759E-10
         1  14  4.981279E+06  5.002627E+03  1.930136E+05 -9.646384E-09  2.186466E-09 -2.038563E-09
         1  15  5.028537E+06 -1.614808E+04  1.164071E+05 -4.883209E-09  9.628854E-10 -1.763429E-09
         1  16  5.027609E+06  3.483607E+05  4.162542E+05 -1.715390E+05 -6.240346E-09 -1.564014E-09
         1  17  4.981283E+06  5.009622E+03  1.930146E+05 -6.125071E+04  9.645839E-09 -3.656804E-09
         1  18  5.028539E+06 -1.614360E+04  1.164077E+05  4.902754E+04  1.432914E-08 -6.302609E-10
         1  19  5.027696E+06  3.483822E+05  4.164053E+05  1.715390E+05 -2.847242E+05 -7.806876E+01
         1  20  4.981319E+06  5.018486E+03  1.930768E+05  6.125071E+04 -1.826083E+05 -1.787871E+01
         1  21  5.028546E+06 -1.614188E+04  1.164198E+05 -4.902754E+04 -8.048898E+04  6.307349E+00
         1  22  5.027664E+06  3.483274E+05  4.163975E+05  1.508831E-08 -2.847242E+05 -6.642569E-10
         1  23  4.981315E+06  5.011491E+03  1.930758E+05  1.679740E-09 -1.826083E+05 -1.645627E-09
         1  24  5.028544E+06 -1.614636E+04  1.164191E+05 -6.570022E-08 -8.048898E+04 -1.570545E-09
         1  25  5.027696E+06  3.483822E+05  4.164053E+05 -1.715390E+05 -2.847242E+05  7.806876E+01
         1  26  4.981319E+06  5.018486E+03  1.930768E+05 -6.125071E+04 -1.826083E+05  1.787871E+01
         1  27  5.028546E+06 -1.614188E+04  1.164198E+05  4.902754E+04 -8.048898E+04 -6.307349E+00
         2   1  5.009496E+06  1.763465E+04  9.521533E+04  6.569174E+03  6.366861E+04  6.685278E-01
         2   2  5.005275E+06 -5.284452E+02  6.059614E+04  1.788437E+03  3.330950E+04  9.521963E-02
         2   3  5.009579E+06 -2.520167E+02  5.023755E+04 -2.992343E+03  2.951016E+03 -1.411446E-02
         2   4  5.009496E+06  1.763457E+04  9.521531E+04 -4.234855E-08  6.366861E+04 -1.328387E-09
         2   5  5.005275E+06 -5.284511E+02  6.059614E+04 -1.642724E-08  3.330950E+04 -3.519739E-10
         2   6  5.009579E+06 -2.520334E+02  5.023754E+04 -2.122672E-08  2.951016E+03  2.340929E-09
         2   7  5.009496E+06  1.763465E+04  9.521533E+04 -6.569174E+03  6.366861E+04 -6.685279E-01
         2   8  5.005275E+06 -5.284452E+02  6.059614E+04 -1.788437E+03  3.330950E+04 -9.521963E-02
         2   9  5.009579E+06 -2.520167E+02  5.023755E+04  2.992343E+03  2.951016E+03  1.411447E-02
         2  10  5.009492E+06  1.763357E+04  9.520777E+04  6.569174E+03  1.534421E-08 -3.139508E-09
         2  11  5.005274E+06 -5.287401E+02  6.059407E+04  1.788437E+03  8.538083E-09 -1.021298E-09
         2  12  5.009579E+06 -2.520191E+02  5.023753E+04 -2.992343E+03 -5.966096E-09  9.631645E-10
         2  13  5.009491E+06  1.763349E+04  9.520776E+04 -9.326025E-09 -4.564695E-09 -1.211679E-09
         2  14  5.005274E+06 -5.287461E+02  6.059407E+04 -1.258680E-08  8.351884E-09 -5.653856E-10
         2  15  5.009579E+06 -2.520357E+02  5.023753E+04 -9.474315E-09 -3.536361E-09  4.800626E-10
         2  16  5.009492E+06  1.763357E+04  9.520777E+04 -6.569174E+03 -1.527665E-08  7.974202E-10
         2  17  5.005274E+06 -5.287401E+02  6.059407E+04 -1.788437E+03 -4.635337E-09 -2.568172E-10
         2  18  5.009579E+06 -2.520191E+02  5.023753E+04  2.992343E+03  4.948612E-09 -1.149372E-10
         2  19  5.009496E+06  1.763465E+04  9.521533E+04  6.569174E+03 -6.366861E+04 -6.685279E-01
         2  20  5.005275E+06 -5.284452E+02  6.059614E+04  1.788437E+03 -3.330950E+04 -9.521964E-02
         2  21  5.009579E+06 -2.520167E+02  5.023755E+04 -2.992343E+03 -2.951016E+03  1.411447E-02
         2  22  5.009496E+06  1.763457E+04  9.521531E+04  5.838866E-08 -6.366861E+04 -9.875434E-10
         2  23  5.005275E+06 -5.284511E+02  6.059614E+04  8.561688E-09 -3.330950E+04 -6.617919E-10
         2  24  5.009579E+06 -2.520334E+02  5.023754E+04 -4.448617E-08 -2.951016E+03 -1.391392E-09
         2  25  5.009496E+06  1.763465E+04  9.521533E+04 -6.569174E+03 -6.366861E+04  6.685279E-01
         2  26  5.005275E+06 -5.284452E+02  6.059614E+04 -1.788437E+03 -3.330950E+04  9.521963E-02
         2  27  5.009579E+06 -2.520167E+02  5.023755E+04  2.992343E+03 -2.951016E+03 -1.411447E-02
         3   1  5.009690E+06 -3.869491E+02  5.074437E+04  3.295579E+03 -5.985844E+03 -3.153106E-02
         3   2  5.005132E+06 -5.421325E+02  6.340249E+04 -1.859410E+03 -3.775882E+04  1.122221E-01
         3   3  5.009598E+06  1.901944E+04  1.015564E+05 -7.014267E+03 -6.953208E+04  7.795627E-01
         3   4  5.009690E+06 -3.869693E+02  5.074437E+04  3.278597E-09 -5.985844E+03  2.814928E-09
         3   5  5.005132E+06 -5.421390E+02  6.340249E+04 -5.321311E-09 -3.775882E+04  2.474819E-09
         3   6  5.009598E+06  1.901935E+04  1.015564E+05 -3.716447E-08 -6.953208E+04  4.898305E-09
         3   7  5.009690E+06 -3.869491E+02  5.074437E+04 -3.295579E+03 -5.985844E+03  3.153107E-02
         3   8  5.005132E+06 -5.421325E+02  6.340249E+04  1.859410E+03 -3.775882E+04 -1.122221E-01
         3   9  5.009598E+06  1.901944E+04  1.015564E+05  7.014267E+03 -6.953208E+04 -7.795627E-01
         3  10  5.009690E+06 -3.869586E+02  5.074430E+04  3.295579E+03 -1.164209E-09  1.496592E-09
         3  11  5.005130E+06 -5.425115E+02  6.339983E+04 -1.859410E+03  1.654195E-09  1.034733E-09
         3  12  5.009593E+06  1.901815E+04  1.015474E+05 -7.014267E+03  6.956988E-09  3.091003E-10
         3  13  5.009690E+06 -3.869788E+02  5.074430E+04  3.532038E-09  2.252209E-11  1.183227E-09
         3  14  5.005130E+06 -5.425180E+02  6.339983E+04 -9.794500E-10  4.316777E-09  1.772030E-09
         3  15  5.009593E+06  1.901806E+04  1.015474E+05 -3.132200E-08  1.146805E-09  1.304965E-09
         3  16  5.009690E+06 -3.869586E+02  5.074430E+04 -3.295579E+03  3.164875E-09  9.033288E-10
         3  17  5.005130E+06 -5.425115E+02  6.339983E+04  1.859410E+03 -2.052985E-09  2.067742E-09
         3  18  5.009593E+06  1.901815E+04  1.015474E+05  7.014267E+03 -2.912444E-09  2.001867E-09
         3  19  5.009690E+06 -3.869491E+02  5.074437E+04  3.295579E+03  5.985844E+03  3.153106E-02
         3  20  5.005132E+06 -5.421325E+02  6.340249E+04 -1.859410E+03  3.775882E+04 -1.122221E-01
         3  21  5.009598E+06  1.901944E+04  1.015564E+05 -7.014267E+03  6.953208E+04 -7.795627E-01
         3  22  5.009690E+06 -3.869693E+02  5.074437E+04  3.726330E-09  5.985844E+03 -4.188776E-10
         3  23  5.005132E+06 -5.421390E+02  6.340249E+04 -9.540714E-10  3.775882E+04  1.186782E-09
         3  24  5.009598E+06  1.901935E+04  1.015564E+05 -5.476804E-08  6.953208E+04 -2.284947E-09
         3  25  5.009690E+06 -3.869491E+02  5.074437E+04 -3.295579E+03  5.985844E+03 -3.153107E-02
         3  26  5.005132E+06 -5.421325E+02  6.340249E+04  1.859410E+03  3.775882E+04  1.122221E-01
         3  27  5.009598E+06  1.901944E+04  1.015564E+05  7.014267E+03  6.953208E+04  7.795627E-01
         4   1  5.030159E+06 -1.739255E+04  1.246946E+05  5.287317E+04 -8.749555E+04 -7.394193E+00
         4   2  4.979275E+06  5.416437E+03  2.077283E+05 -6.598094E+04 -1.973694E+05  2.081636E+01
         4   3  5.029245E+06  3.754621E+05  4.487145E+05 -1.848504E+05 -3.072428E+05  9.078053E+01
         4   4  5.030156E+06 -1.739776E+04  1.246939E+05 -7.212791E-09 -8.749555E+04  3.124427E-09
         4   5  4.979270E+06  5.408320E+03  2.077272E+05  1.698777E-09 -1.973694E+05 -2.716394E-09
         4   6  5.029209E+06  3.753984E+05  4.487055E+05  4.674176E-09 -3.072428E+05 -1.493466E-09
         4   7  5.030159E+06 -1.739255E+04  1.246946E+05 -5.287317E+04 -8.749555E+04  7.394193E+00
         4   8  4.979275E+06  5.416437E+03  2.077283E+05  6.598094E+04 -1.973694E+05 -2.081636E+01
         4   9  5.029245E+06  3.754621E+05  4.487145E+05  1.848504E+05 -3.072428E+05 -9.078053E+01
         4  10  5.030151E+06 -1.739458E+04  1.246804E+05  5.287317E+04  4.725574E-09 -1.554834E-10
         4  11  4.979233E+06  5.406082E+03  2.076557E+05 -6.598094E+04  1.234367E-09 -1.119249E-09
         4  12  5.029144E+06  3.754370E+05  4.485386E+05 -1.848504E+05 -3.737439E-09 -5.927197E-10
         4  13  5.030148E+06 -1.739979E+04  1.246796E+05 -3.614278E-09  8.789327E-09  8.122824E-11
         4  14  4.979229E+06  5.397965E+03  2.076545E+05  3.184395E-08  1.935813E-09 -1.582732E-09
         4  15  5.029108E+06  3.753733E+05  4.485295E+05  3.490312E-08  1.503567E-09 -6.889145E-10
         4  16  5.030151E+06 -1.739458E+04  1.246804E+05 -5.287317E+04 -5.632767E-09  4.573521E-10
         4  17  4.979233E+06  5.406082E+03  2.076557E+05  6.598094E+04  4.187992E-10 -1.767999E-09
         4  18  5.029144E+06  3.754370E+05  4.485386E+05  1.848504E+05  2.252117E-09 -1.088485E-09
         4  19  5.030159E+06 -1.739255E+04  1.246946E+05  5.287317E+04  8.749555E+04  7.394193E+00
         4  20  4.979275E+06  5.416437E+03  2.077283E+05 -6.598094E+04  1.973694E+05 -2.081636E+01
         4  21  5.029245E+06  3.754621E+05  4.487145E+05 -1.848504E+05  3.072428E+05 -9.078053E+01
         4  22  5.030156E+06 -1.739776E+04  1.246939E+05 -1.287224E-08  8.749555E+04 -2.975263E-09
         4  23  4.979270E+06  5.408320E+03  2.077272E+05 -6.371707E-10  1.973694E+05 -3.022604E-10
         4  24  5.029209E+06  3.753984E+05  4.487055E+05  8.883152E-09  3.072428E+05  1.027542E-10
         4  25  5.030159E+06 -1.739255E+04  1.246946E+05 -5.287317E+04  8.749555E+04 -7.394193E+00
         4  26  4.979275E+06  5.416437E+03  2.077283E+05  6.598094E+04  1.973694E+05  2.081636E+01
         4  27  5.029245E+06  3.754621E+05  4.487145E+05  1.848504E+05  3.072428E+05  9.078053E+01
         5   1 -3.025763E+06 -9.722229E+06 -3.030519E+06  1.576193E+06 -1.314531E+05 -6.705565E+05
         5   2 -2.103953E+06 -7.518324E+06 -2.098471E+06  1.042503E+06 -3.841599E+05 -2.873382E+05
         5   3 -1.536337E+06 -5.434077E+06 -1.504166E+06  1.343008E+06 -3.405107E+05  9.658781E+04
         5   4 -3.535504E+05  9.763240E+05 -4.222505E+05  1.432425E+06 -1.298595E+05 -2.916038E+05
         5   5 -9.644113E+03  1.018115E+06 -1.947658E+05  1.014559E+06 -3.831778E+05 -1.873569E+05
         5   6  3.208760E+04  9.869944E+05 -1.074708E+05  1.430660E+06 -3.418168E+05 -8.380855E+04
         5   7  2.310373E+06  1.178062E+07  2.178269E+06  1.285941E+06 -1.284639E+05  9.397408E+04
         5   8  2.079724E+06  9.622997E+06  1.704419E+06  9.860740E+05 -3.822138E+05 -8.598958E+04
         5   9  1.597809E+06  7.446988E+06  1.286883E+06  1.519112E+06 -3.431659E+05 -2.660548E+05
         5  10 -3.025904E+06 -9.722723E+06 -3.031408E+06  1.576121E+06  6.612769E-10 -9.264080E-10
         5  11 -2.104134E+06 -7.518452E+06 -2.098904E+06  1.042414E+06 -3.034323E-09 -1.076419E-08
         5  12 -1.536464E+06 -5.434118E+06 -1.504402E+06  1.343034E+06 -6.883120E-09 -1.710332E-08
         5  13 -3.535912E+05  9.762284E+05 -4.224413E+05  1.432395E+06 -3.811234E-09 -1.396218E-10
         5  14 -9.811109E+03  1.018038E+06 -1.951071E+05  1.014501E+06 -4.269850E-09 -5.603948E-11
         5  15  3.196029E+04  9.869555E+05 -1.077033E+05  1.430637E+06  5.145657E-10 -1.697339E-10
         5  16  2.310353E+06  1.178060E+07  2.178222E+06  1.285950E+06 -2.674462E-09  1.094677E-09
         5  17  2.079565E+06  9.622949E+06  1.704130E+06  9.860477E+05 -2.179616E-09  1.095348E-08
         5  18  1.597664E+06  7.446881E+06  1.286531E+06  1.519039E+06 -2.243859E-09  1.692207E-08
         5  19 -3.025763E+06 -9.722229E+06 -3.030519E+06  1.576193E+06  1.314531E+05  6.705565E+05
         5  20 -2.103953E+06 -7.518324E+06 -2.098471E+06  1.042503E+06  3.841599E+05  2.873382E+05
         5  21 -1.536337E+06 -5.434077E+06 -1.504166E+06  1.343008E+06  3.405107E+05 -9.658781E+04
         5  22 -3.535504E+05  9.763240E+05 -4.222505E+05  1.432425E+06  1.298595E+05  2.916038E+05
         5  23 -9.644113E+03  1.018115E+06 -1.947658E+05  1.014559E+06  3.831778E+05  1.873569E+05
         5  24  3.208760E+04  9.869944E+05 -1.074708E+05  1.430660E+06  3.418168E+05  8.380855E+04
         5  25  2.310373E+06  1.178062E+07  2.178269E+06  1.285941E+06  1.284639E+05 -9.397408E+04
         5  26  2.079724E+06  9.622997E+06  1.704419E+06  9.860740E+05  3.822138E+05  8.598958E+04
         5  27  1.597809E+06  7.446988E+06  1.286883E+06  1.519112E+06  3.431659E+05  2.660548E+05
         6   1 -1.150668E+06 -3.716616E+06 -1.113586E+06  1.407899E+06 -2.439702E+05  2.873378E+04
         6   2 -6.112912E+05 -1.570105E+06 -5.996875E+05  9.949463E+05 -1.375933E+05  5.356779E+04
         6   3 -7.508549E+04  5.620822E+05 -1.068093E+05  1.425746E+06 -2.530562E+04  7.807850E+04
         6   4  1.067223E+03  1.003542E+06 -8.408086E+04  1.433282E+06 -2.447997E+05 -7.023504E+04
         6   5  1.788148E+04  1.013940E+06 -3.970075E+04  1.011379E+06 -1.386227E+05 -5.105034E+04
         6   6  3.287131E+04  1.006813E+06 -1.207768E+04  1.432998E+06 -2.656204E+04 -3.227369E+04
         6   7  1.151326E+06  5.744661E+06  9.441219E+05  1.458788E+06 -2.456337E+05 -1.699484E+05
         6   8  6.466192E+05  3.604279E+06  5.199304E+05  1.027860E+06 -1.396552E+05 -1.560986E+05
         6   9  1.408219E+05  1.451756E+06  8.268824E+04  1.440255E+06 -2.782048E+04 -1.427037E+05
         6  10 -1.150732E+06 -3.716633E+06 -1.113700E+06  1.407905E+06 -3.167589E-09 -5.143270E-09
         6  11 -6.113124E+05 -1.570114E+06 -5.997286E+05  9.949522E+05 -3.873846E-10  1.021824E-08
         6  12 -7.508782E+04  5.620755E+05 -1.068219E+05  1.425747E+06 -4.094458E-10  2.148562E-08
         6  13  1.001578E+03  1.003521E+06 -8.420260E+04  1.433268E+06  7.993279E-09 -1.687918E-10
         6  14  1.786016E+04  1.013932E+06 -3.974172E+04  1.011373E+06 -1.896801E-09  2.147977E-10
         6  15  3.287027E+04  1.006812E+06 -1.208096E+04  1.432998E+06  1.395542E-09 -2.369351E-11
         6  16  1.151254E+06  5.744615E+06  9.439551E+05  1.458754E+06  6.346937E-11  5.143342E-09
         6  17  6.465918E+05  3.604248E+06  5.198483E+05  1.027843E+06  7.798275E-10 -9.775757E-09
         6  18  1.408156E+05  1.451734E+06  8.264865E+04  1.440252E+06  1.336749E-09 -2.189558E-08
         6  19 -1.150668E+06 -3.716616E+06 -1.113586E+06  1.407899E+06  2.439702E+05 -2.873378E+04
         6  20 -6.112912E+05 -1.570105E+06 -5.996875E+05  9.949463E+05  1.375933E+05 -5.356779E+04
         6  21 -7.508549E+04  5.620822E+05 -1.068093E+05  1.425746E+06  2.530562E+04 -7.807850E+04
         6  22  1.067223E+03  1.003542E+06 -8.408086E+04  1.433282E+06  2.447997E+05  7.023504E+04
         6  23  1.788148E+04  1.013940E+06 -3.970075E+04  1.011379E+06  1.386227E+05  5.105034E+04
         6  24  3.287131E+04  1.006813E+06 -1.207768E+04  1.432998E+06  2.656204E+04  3.227369E+04
         6  25  1.151326E+06  5.744661E+06  9.441219E+05  1.458788E+06  2.456337E+05  1.699484E+05
         6  26  6.466192E+05  3.604279E+06  5.199304E+05  1.027860E+06  1.396552E+05  1.560986E+05
         6  27  1.408219E+05  1.451756E+06  8.268824E+04  1.440255E+06  2.782048E+04  1.427037E+05
         7   1  3.321627E+05  2.271449E+06  2.747750E+05  1.434526E+06  6.192023E+04  1.207777E+05
         7   2  8.462896E+05  4.402295E+06  7.785475E+05  1.045350E+06  1.380546E+05 -4.576150E+04
         7   3  1.450726E+06  6.569141E+06  1.409234E+06  1.492713E+06  5.279366E+04 -2.115938E+05
         7   4  2.542236E+04  1.011537E+06 -1.770920E+03  1.431681E+06  6.020005E+04 -3.205588E+04
         7   5  1.696055E+04  1.006829E+06  1.886280E+04  1.013075E+06  1.381376E+05 -4.285967E+04
         7   6  7.239545E+04  1.007209E+06  5.898380E+04  1.431217E+06  5.429404E+04 -5.237981E+04
         7   7 -2.814114E+05 -2.468445E+05 -2.783260E+05  1.428837E+06  5.847918E+04 -1.845839E+05
         7   8 -8.131497E+05 -2.377958E+06 -7.415490E+05  9.809429E+05  1.382206E+05 -3.997299E+04
         7   9 -1.308179E+06 -4.526646E+06 -1.293404E+06  1.370175E+06  5.577119E+04  1.054249E+05
         7  10  3.321547E+05  2.271433E+06  2.747406E+05  1.434520E+06  5.685875E-10 -7.599263E-11
         7  11  8.462686E+05  4.402288E+06  7.785077E+05  1.045355E+06 -7.909250E-10 -3.014696E-10
         7  12  1.450711E+06  6.569093E+06  1.409145E+06  1.492722E+06  1.863052E-10  1.250627E-09
         7  13  2.541818E+04  1.011535E+06 -1.779683E+03  1.431683E+06  9.173299E-10 -1.003632E-10
         7  14  1.693955E+04  1.006822E+06  1.882343E+04  1.013080E+06  3.595949E-09 -8.001153E-12
         7  15  7.239154E+04  1.007205E+06  5.897308E+04  1.431219E+06 -2.662082E-09 -1.595111E-10
         7  16 -2.814242E+05 -2.468820E+05 -2.783966E+05  1.428846E+06  1.252517E-09 -7.883029E-11
         7  17 -8.131706E+05 -2.377965E+06 -7.415880E+05  9.809473E+05 -9.279658E-10  1.495852E-10
         7  18 -1.308186E+06 -4.526658E+06 -1.293431E+06  1.370170E+06  2.907915E-10 -1.299962E-09
         7  19  3.321627E+05  2.271449E+06  2.747750E+05  1.434526E+06 -6.192023E+04 -1.207777E+05
         7  20  8.462896E+05  4.402295E+06  7.785475E+05  1.045350E+06 -1.380546E+05  4.576150E+04
         7  21  1.450726E+06  6.569141E+06  1.409234E+06  1.492713E+06 -5.279366E+04  2.115938E+05
         7  22  2.542236E+04  1.011537E+06 -1.770920E+03  1.431681E+06 -6.020005E+04  3.205588E+04
         7  23  1.696055E+04  1.006829E+06  1.886280E+04  1.013075E+06 -1.381376E+05  4.285967E+04
         7  24  7.239545E+04  1.007209E+06  5.898380E+04  1.431217E+06 -5.429404E+04  5.237981E+04
         7  25 -2.814114E+05 -2.468445E+05 -2.783260E+05  1.428837E+06 -5.847918E+04  1.845839E+05
         7  26 -8.131497E+05 -2.377958E+06 -7.415490E+05  9.809429E+05 -1.382206E+05  3.997299E+04
         7  27 -1.308179E+06 -4.526646E+06 -1.293404E+06  1.370175E+06 -5.577119E+04 -1.054249E+05
         8   1  3.904506E+06  1.809328E+05  2.163423E+05  8.903025E+04  1.471379E+05  2.097438E+01
         8   2  3.880337E+06  2.568971E+03  1.008040E+05  3.181940E+04  9.384836E+04  4.781381E+00
         8   3  3.904855E+06 -8.393917E+03  6.165748E+04 -2.538825E+04  4.055829E+04 -1.648653E+00
         8   4  3.904498E+06  1.809180E+05  2.163402E+05 -2.219766E-09  1.471379E+05 -2.125891E-11
         8   5  3.880336E+06  2.567080E+03  1.008037E+05  1.101653E-08  9.384836E+04 -5.611419E-10
         8   6  3.904854E+06 -8.395120E+03  6.165731E+04  2.153109E-08  4.055829E+04 -2.193740E-09
         8   7  3.904506E+06  1.809328E+05  2.163423E+05 -8.903025E+04  1.471379E+05 -2.097438E+01
         8   8  3.880337E+06  2.568971E+03  1.008040E+05 -3.181940E+04  9.384836E+04 -4.781381E+00
         8   9  3.904855E+06 -8.393917E+03  6.165748E+04  2.538825E+04  4.055829E+04  1.648653E+00
         8  10  3.904483E+06  1.809271E+05  2.163019E+05  8.903025E+04  1.802209E-09 -2.931793E-10
         8  11  3.880328E+06  2.566624E+03  1.007875E+05  3.181940E+04 -2.647825E-09 -7.283276E-10
         8  12  3.904853E+06 -8.394355E+03  6.165441E+04 -2.538825E+04  7.174905E-09 -1.855902E-09
         8  13  3.904475E+06  1.809123E+05  2.162997E+05 -2.363246E-09 -2.202142E-09 -2.416311E-10
         8  14  3.880327E+06  2.564733E+03  1.007873E+05  1.952309E-08 -6.646659E-09 -9.136241E-10
         8  15  3.904852E+06 -8.395559E+03  6.165423E+04  3.706158E-08  2.774459E-09 -1.526095E-09
         8  16  3.904483E+06  1.809271E+05  2.163019E+05 -8.903025E+04  4.424553E-10 -3.641170E-10
         8  17  3.880328E+06  2.566624E+03  1.007875E+05 -3.181940E+04 -3.328795E-09 -8.916620E-10
         8  18  3.904853E+06 -8.394355E+03  6.165441E+04  2.538825E+04 -4.983895E-09 -1.184039E-09
         8  19  3.904506E+06  1.809328E+05  2.163423E+05  8.903025E+04 -1.471379E+05 -2.097438E+01
         8  20  3.880337E+06  2.568971E+03  1.008040E+05  3.181940E+04 -9.384836E+04 -4.781381E+00
         8  21  3.904855E+06 -8.393917E+03  6.165748E+04 -2.538825E+04 -4.055829E+04  1.648653E+00
         8  22  3.904498E+06  1.809180E+05  2.163402E+05 -2.557324E-09 -1.471379E+05 -3.858436E-10
         8  23  3.880336E+06  2.567080E+03  1.008037E+05  1.719294E-08 -9.384836E+04 -1.275888E-09
         8  24  3.904854E+06 -8.395120E+03  6.165731E+04 -1.045719E-08 -4.055829E+04 -8.802511E-10
         8  25  3.904506E+06  1.809328E+05  2.163423E+05 -8.903025E+04 -1.471379E+05  2.097438E+01
         8  26  3.880337E+06  2.568971E+03  1.008040E+05 -3.181940E+04 -9.384836E+04  4.781381E+00
         8  27  3.904855E+06 -8.393917E+03  6.165748E+04  2.538825E+04 -4.055829E+04 -1.648653E+00
         9   1  3.895018E+06  9.142036E+03  5.109958E+04  3.515092E+03  3.157420E+04  1.777022E-01
         9   2  3.892690E+06 -3.188283E+02  3.445751E+04  1.036387E+03  1.433058E+04  2.377990E-02
         9   3  3.895048E+06  5.304969E+01  3.144862E+04 -1.442290E+03 -2.912645E+03  6.726097E-03
         9   4  3.895018E+06  9.142013E+03  5.109958E+04 -4.916927E-08  3.157420E+04 -1.705659E-09
         9   5  3.892690E+06 -3.188303E+02  3.445751E+04  1.533988E-08  1.433058E+04  1.235851E-09
         9   6  3.895048E+06  5.304581E+01  3.144862E+04  6.041686E-08 -2.912645E+03  2.860901E-09
         9   7  3.895018E+06  9.142036E+03  5.109958E+04 -3.515092E+03  3.157420E+04 -1.777022E-01
         9   8  3.892690E+06 -3.188283E+02  3.445751E+04 -1.036387E+03  1.433058E+04 -2.377990E-02
         9   9  3.895048E+06  5.304969E+01  3.144862E+04  1.442290E+03 -2.912645E+03 -6.726091E-03
         9  10  3.895017E+06  9.141771E+03  5.109772E+04  3.515092E+03  1.935072E-08 -6.851253E-10
         9  11  3.892690E+06 -3.188830E+02  3.445713E+04  1.036387E+03  3.817863E-10  2.790923E-09
         9  12  3.895048E+06  5.304743E+01  3.144860E+04 -1.442290E+03 -2.046332E-08  4.403022E-09
         9  13  3.895017E+06  9.141747E+03  5.109771E+04  1.039151E-08  2.495025E-10 -3.637900E-10
         9  14  3.892690E+06 -3.188850E+02  3.445713E+04  1.150216E-08  1.326129E-08  2.682710E-09
         9  15  3.895048E+06  5.304355E+01  3.144860E+04  7.270313E-09  7.686653E-10  3.762101E-09
         9  16  3.895017E+06  9.141771E+03  5.109772E+04 -3.515092E+03 -1.619244E-08 -1.819608E-10
         9  17  3.892690E+06 -3.188830E+02  3.445713E+04 -1.036387E+03  6.441127E-09  2.908835E-09
         9  18  3.895048E+06  5.304743E+01  3.144860E+04  1.442290E+03  2.681378E-08  3.173012E-09
         9  19  3.895018E+06  9.142036E+03  5.109958E+04  3.515092E+03 -3.157420E+04 -1.777022E-01
         9  20  3.892690E+06 -3.188283E+02  3.445751E+04  1.036387E+03 -1.433058E+04 -2.377989E-02
         9  21  3.895048E+06  5.304969E+01  3.144862E+04 -1.442290E+03  2.912645E+03 -6.726089E-03
         9  22  3.895018E+06  9.142013E+03  5.109958E+04  4.403519E-08 -3.157420E+04  8.735632E-10
         9  23  3.892690E+06 -3.188303E+02  3.445751E+04  1.198319E-08 -1.433058E+04  4.301693E-09
         9  24  3.895048E+06  5.304581E+01  3.144862E+04 -4.218115E-08  2.912645E+03  4.643017E-09
         9  25  3.895018E+06  9.142036E+03  5.109958E+04 -3.515092E+03 -3.157420E+04  1.777022E-01
         9  26  3.892690E+06 -3.188283E+02  3.445751E+04 -1.036387E+03 -1.433058E+04  2.377990E-02
         9  27  3.895048E+06  5.304969E+01  3.144862E+04  1.442290E+03  2.912645E+03  6.726098E-03
        10   1  3.895474E+06 -4.625139E+02  3.338103E+04  2.598047E+03 -8.644742E+03 -3.596016E-02
        10   2  3.892144E+06 -3.716707E+02  4.515962E+04 -1.308149E+03 -3.128025E+04  6.551679E-02
        10   3  3.895416E+06  1.443055E+04  7.528650E+04 -5.214366E+03 -5.391655E+04  4.501403E-01
        10   4  3.895474E+06 -4.625265E+02  3.338102E+04  4.447516E-08 -8.644742E+03  1.101596E-09
        10   5  3.892144E+06 -3.716739E+02  4.515962E+04 -1.647576E-08 -3.128025E+04 -2.579531E-09
        10   6  3.895416E+06  1.443049E+04  7.528649E+04 -8.497663E-08 -5.391655E+04 -1.223385E-09
        10   7  3.895474E+06 -4.625139E+02  3.338103E+04 -2.598047E+03 -8.644742E+03  3.596017E-02
        10   8  3.892144E+06 -3.716707E+02  4.515962E+04  1.308149E+03 -3.128025E+04 -6.551680E-02
        10   9  3.895416E+06  1.443055E+04  7.528650E+04  5.214366E+03 -5.391655E+04 -4.501403E-01
        10  10  3.895474E+06 -4.625338E+02  3.338089E+04  2.598047E+03 -1.551275E-08  2.350577E-09
        10  11  3.892143E+06 -3.719314E+02  4.515780E+04 -1.308149E+03  1.520584E-09 -2.601025E-09
        10  12  3.895413E+06  1.442977E+04  7.528107E+04 -5.214366E+03  2.081119E-08 -9.998781E-10
        10  13  3.895474E+06 -4.625464E+02  3.338088E+04 -1.548253E-08 -3.167760E-10  1.667548E-09
        10  14  3.892143E+06 -3.719346E+02  4.515780E+04 -3.798021E-09  2.332667E-09 -1.794327E-09
        10  15  3.895413E+06  1.442972E+04  7.528106E+04  5.762878E-09  4.466746E-09 -3.544314E-10
        10  16  3.895474E+06 -4.625338E+02  3.338089E+04 -2.598047E+03  1.790646E-08  1.169715E-09
        10  17  3.892143E+06 -3.719314E+02  4.515780E+04  1.308149E+03  3.434729E-09 -1.342275E-09
        10  18  3.895413E+06  1.442977E+04  7.528107E+04  5.214366E+03 -1.341331E-08  2.953951E-10
        10  19  3.895474E+06 -4.625139E+02  3.338103E+04  2.598047E+03  8.644742E+03  3.596017E-02
        10  20  3.892144E+06 -3.716707E+02  4.515962E+04 -1.308149E+03  3.128025E+04 -6.551680E-02
        10  21  3.895416E+06  1.443055E+04  7.528650E+04 -5.214366E+03  5.391655E+04 -4.501403E-01
        10  22  3.895474E+06 -4.625265E+02  3.338102E+04 -4.955272E-08  8.644742E+03  2.241856E-09
        10  23  3.892144E+06 -3.716739E+02  4.515962E+04 -1.695272E-08  3.128025E+04 -1.199443E-09
        10  24  3.895416E+06  1.443049E+04  7.528649E+04  6.097486E-08  5.391655E+04  5.006662E-10
        10  25  3.895474E+06 -4.625139E+02  3.338103E+04 -2.598047E+03  8.644742E+03 -3.596016E-02
        10  26  3.892144E+06 -3.716707E+02  4.515962E+04  1.308149E+03  3.128025E+04  6.551679E-02
        10  27  3.895416E+06  1.443055E+04  7.528650E+04  5.214366E+03  5.391655E+04  4.501403E-01
        11   1  3.911013E+06 -1.317202E+04  9.321768E+04  4.005972E+04 -6.724946E+04 -4.313307E+00
        11   2  3.872554E+06  4.064611E+03  1.566798E+05 -4.985021E+04 -1.501226E+05  1.198270E+01
        11   3  3.910473E+06  2.842662E+05  3.396084E+05 -1.397679E+05 -2.329946E+05  5.214143E+01
        11   4  3.911011E+06 -1.317502E+04  9.321725E+04  8.046928E-08 -6.724946E+04 -9.567185E-10
        11   5  3.872551E+06  4.059970E+03  1.566791E+05 -1.251471E-09 -1.501226E+05 -2.417675E-09
        11   6  3.910452E+06  2.842297E+05  3.396032E+05 -6.567901E-08 -2.329946E+05 -8.303299E-10
        11   7  3.911013E+06 -1.317202E+04  9.321768E+04 -4.005972E+04 -6.724946E+04  4.313307E+00
        11   8  3.872554E+06  4.064611E+03  1.566798E+05  4.985021E+04 -1.501226E+05 -1.198270E+01
        11   9  3.910473E+06  2.842662E+05  3.396084E+05  1.397679E+05 -2.329946E+05 -5.214143E+01
        11  10  3.911008E+06 -1.317322E+04  9.320923E+04  4.005972E+04 -1.839483E-08 -3.774700E-10
        11  11  3.872530E+06  4.058607E+03  1.566377E+05 -4.985021E+04  1.725974E-09 -1.826507E-09
        11  12  3.910415E+06  2.842517E+05  3.395070E+05 -1.397679E+05  1.887006E-08 -7.467231E-10
        11  13  3.911006E+06 -1.317622E+04  9.320881E+04  3.980392E-09  4.213725E-09  8.059413E-11
        11  14  3.872527E+06  4.053966E+03  1.566370E+05 -1.340378E-09  1.061448E-08 -1.625657E-09
        11  15  3.910394E+06  2.842152E+05  3.395018E+05  3.107618E-08  2.672913E-09 -7.490949E-10
        11  16  3.911008E+06 -1.317322E+04  9.320923E+04 -4.005972E+04  1.742643E-08  2.605346E-10
        11  17  3.872530E+06  4.058607E+03  1.566377E+05  4.985021E+04  3.648658E-09 -1.286096E-09
        11  18  3.910415E+06  2.842517E+05  3.395070E+05  1.397679E+05 -1.699145E-08 -8.121593E-10
        11  19  3.911013E+06 -1.317202E+04  9.321768E+04  4.005972E+04  6.724946E+04  4.313307E+00
        11  20  3.872554E+06  4.064611E+03  1.566798E+05 -4.985021E+04  1.501226E+05 -1.198270E+01
        11  21  3.910473E+06  2.842662E+05  3.396084E+05 -1.397679E+05  2.329946E+05 -5.214143E+01
        11  22  3.911011E+06 -1.317502E+04  9.321725E+04 -5.521257E-08  6.724946E+04  1.000172E-09
        11  23  3.872551E+06  4.059970E+03  1.566791E+05  2.444852E-08  1.501226E+05 -8.433903E-10
        11  24  3.910452E+06  2.842297E+05  3.396032E+05  8.639176E-08  2.329946E+05 -6.001793E-10
        11  25  3.911013E+06 -1.317202E+04  9.321768E+04 -4.005972E+04  6.724946E+04 -4.313307E+00
        11  26  3.872554E+06  4.064611E+03  1.566798E+05  4.985021E+04  1.501226E+05  1.198270E+01
        11  27  3.910473E+06  2.842662E+05  3.396084E+05  1.397679E+05  2.329946E+05  5.214143E+01
        12   1 -2.753019E+06 -9.151754E+06 -2.812424E+06  1.534786E+06 -1.065101E+05 -7.614617E+05
        12   2 -1.685677E+06 -7.137303E+06 -1.837049E+06  9.803497E+05 -3.060753E+05 -3.655865E+05
        12   3 -1.166598E+06 -5.300052E+06 -1.257587E+06  1.175612E+06 -2.608387E+05  3.109346E+04
        12   4 -5.619490E+05 -3.809536E+05 -6.721838E+05  1.280724E+06 -1.051911E+05 -4.580981E+05
        12   5 -9.724635E+03 -3.080882E+05 -3.122033E+05  9.046805E+05 -3.054217E+05 -2.922624E+05
        12   6  3.821436E+04 -3.730691E+05 -1.844279E+05  1.278452E+06 -2.618252E+05 -1.269379E+05
        12   7  1.623738E+06  8.461044E+06  1.462848E+06  1.022901E+06 -1.041372E+05 -1.503746E+05
        12   8  1.663082E+06  6.564967E+06  1.209740E+06  8.280810E+05 -3.047909E+05 -2.181195E+05
        12   9  1.241455E+06  4.576871E+06  8.873720E+05  1.382061E+06 -2.628594E+05 -2.862121E+05
        12  10 -2.753189E+06 -9.152387E+06 -2.813550E+06  1.534720E+06  2.319243E-09  1.084327E-09
        12  11 -1.685814E+06 -7.137473E+06 -1.837478E+06  9.802593E+05 -7.687017E-09  3.388372E-09
        12  12 -1.166672E+06 -5.300071E+06 -1.257717E+06  1.175619E+06  2.114683E-09  3.002170E-09
        12  13 -5.620171E+05 -3.811820E+05 -6.725987E+05  1.280685E+06  4.370353E-09  2.127377E-11
        12  14 -9.847569E+03 -3.082048E+05 -3.125385E+05  9.046087E+05  1.117337E-09  9.680271E-11
        12  15  3.813653E+04 -3.731047E+05 -1.845867E+05  1.278425E+06 -3.062641E-09  6.708740E-10
        12  16  1.623721E+06  8.461017E+06  1.462786E+06  1.022888E+06 -1.958529E-09 -1.076479E-09
        12  17  1.662969E+06  6.564892E+06  1.209477E+06  8.280277E+05 -5.828346E-09 -3.333400E-09
        12  18  1.241359E+06  4.576765E+06  8.870901E+05  1.382001E+06 -1.955369E-09 -3.782701E-09
        12  19 -2.753019E+06 -9.151754E+06 -2.812424E+06  1.534786E+06  1.065101E+05  7.614617E+05
        12  20 -1.685677E+06 -7.137303E+06 -1.837049E+06  9.803497E+05  3.060753E+05  3.655865E+05
        12  21 -1.166598E+06 -5.300052E+06 -1.257587E+06  1.175612E+06  2.608387E+05 -3.109346E+04
        12  22 -5.619490E+05 -3.809536E+05 -6.721838E+05  1.280724E+06  1.051911E+05  4.580981E+05
        12  23 -9.724635E+03 -3.080882E+05 -3.122033E+05  9.046805E+05  3.054217E+05  2.922624E+05
        12  24  3.821436E+04 -3.730691E+05 -1.844279E+05  1.278452E+06  2.618252E+05  1.269379E+05
        12  25  1.623738E+06  8.461044E+06  1.462848E+06  1.022901E+06  1.041372E+05  1.503746E+05
        12  26  1.663082E+06  6.564967E+06  1.209740E+06  8.280810E+05  3.047909E+05  2.181195E+05
        12  27  1.241455E+06  4.576871E+06  8.873720E+05  1.382061E+06  2.628594E+05  2.862121E+05
        13   1 -8.419834E+05 -3.738518E+06 -8.914571E+05  1.274811E+06 -1.752894E+05 -1.036829E+04
        13   2 -3.436170E+05 -1.798556E+06 -4.107112E+05  8.945316E+05 -7.814171E+04  3.870366E+04
        13   3  1.280504E+05  1.209345E+05  2.822617E+04  1.275477E+06  2.239794E+04  8.772067E+04
        13   4 -1.344479E+04 -3.447973E+05 -1.503921E+05  1.281590E+06 -1.759493E+05 -1.015722E+05
        13   5  1.363635E+04 -3.322982E+05 -9.269534E+04  9.009212E+05 -7.889955E+04 -5.565288E+04
        13   6  1.489129E+04 -3.431019E+05 -7.427639E+04  1.281376E+06  2.152654E+04 -9.937869E+03
        13   7  8.143302E+05  3.059777E+06  5.900097E+05  1.288375E+06 -1.766090E+05 -1.932695E+05
        13   8  3.707521E+05  1.136001E+06  2.252260E+05  9.073208E+05 -7.965827E+04 -1.502297E+05
        13   9 -9.827694E+04 -8.069165E+05 -1.767563E+05  1.287270E+06  2.065288E+04 -1.075243E+05
        13  10 -8.420164E+05 -3.738527E+06 -8.915150E+05  1.274809E+06  2.292224E-09  3.046967E-10
        13  11 -3.436240E+05 -1.798560E+06 -4.107255E+05  8.945340E+05 -1.261431E-10  2.054875E-09
        13  12  1.280478E+05  1.209261E+05  2.821079E+04  1.275475E+06  2.330798E-09  1.305526E-09
        13  13 -1.348075E+04 -3.448167E+05 -1.504695E+05  1.281575E+06 -1.397163E-09 -5.090440E-11
        13  14  1.362884E+04 -3.323032E+05 -9.271283E+04  9.009177E+05 -2.582841E-09 -6.748130E-11
        13  15  1.489077E+04 -3.431021E+05 -7.427745E+04  1.281376E+06  7.743152E-09  6.788220E-10
        13  16  8.142868E+05  3.059729E+06  5.898816E+05  1.288348E+06  4.488931E-09  3.940116E-11
        13  17  3.707393E+05  1.135975E+06  2.251718E+05  9.073112E+05 -4.240803E-09 -2.114719E-09
        13  18 -9.828051E+04 -8.069290E+05 -1.767789E+05  1.287272E+06  6.655866E-09 -1.844797E-09
        13  19 -8.419834E+05 -3.738518E+06 -8.914571E+05  1.274811E+06  1.752894E+05  1.036829E+04
        13  20 -3.436170E+05 -1.798556E+06 -4.107112E+05  8.945316E+05  7.814171E+04 -3.870366E+04
        13  21  1.280504E+05  1.209345E+05  2.822617E+04  1.275477E+06 -2.239794E+04 -8.772067E+04
        13  22 -1.344479E+04 -3.447973E+05 -1.503921E+05  1.281590E+06  1.759493E+05  1.015722E+05
        13  23  1.363635E+04 -3.322982E+05 -9.269534E+04  9.009212E+05  7.889955E+04  5.565288E+04
        13  24  1.489129E+04 -3.431019E+05 -7.427639E+04  1.281376E+06 -2.152654E+04  9.937869E+03
        13  25  8.143302E+05  3.059777E+06  5.900097E+05  1.288375E+06  1.766090E+05  1.932695E+05
        13  26  3.707521E+05  1.136001E+06  2.252260E+05  9.073208E+05  7.965827E+04  1.502297E+05
        13  27 -9.827694E+04 -8.069165E+05 -1.767563E+05  1.287270E+06 -2.065288E+04  1.075243E+05
        14   1  5.123539E+05  1.656761E+06  3.653658E+05  1.309923E+06  1.028919E+05  1.438052E+05
        14   2  9.660515E+05  3.597679E+06  7.895137E+05  8.987115E+05  1.660059E+05  2.746042E+04
        14   3  1.337156E+06  5.531964E+06  1.266834E+06  1.241121E+06  6.128335E+04 -8.835461E+04
        14   4  2.397615E+04 -3.472702E+05 -7.183854E+04  1.279635E+06  1.016692E+05  1.218568E+03
        14   5  6.987326E+03 -3.303759E+05 -8.690184E+04  9.030547E+05  1.662184E+05  4.646387E+04
        14   6 -1.207240E+05 -3.517841E+05 -1.608091E+05  1.280509E+06  6.243897E+04  9.259793E+04
        14   7 -4.646556E+05 -2.347500E+06 -5.092085E+05  1.249435E+06  1.004580E+05 -1.409145E+05
        14   8 -9.531228E+05 -4.244098E+06 -9.642848E+05  9.073354E+05  1.664321E+05  6.534817E+04
        14   9 -1.581114E+06 -6.204020E+06 -1.590828E+06  1.319447E+06  6.362432E+04  2.718485E+05
        14  10  5.123371E+05  1.656736E+06  3.653073E+05  1.309911E+06  4.752270E-09 -4.199993E-09
        14  11  9.660217E+05  3.597671E+06  7.894605E+05  8.987079E+05 -5.063040E-09 -3.085121E-10
        14  12  1.337150E+06  5.531954E+06  1.266813E+06  1.241125E+06 -1.481728E-09  1.949674E-09
        14  13  2.396505E+04 -3.472729E+05 -7.185796E+04  1.279635E+06  1.781780E-09 -3.990702E-11
        14  14  6.957098E+03 -3.303856E+05 -8.695775E+04  9.030485E+05  2.281341E-11  7.123127E-11
        14  15 -1.207305E+05 -3.517943E+05 -1.608325E+05  1.280504E+06 -4.847775E-10  5.514766E-10
        14  16 -4.646719E+05 -2.347524E+06 -5.092650E+05  1.249446E+06  5.266774E-09  4.483774E-09
        14  17 -9.531536E+05 -4.244110E+06 -9.643449E+05  9.073266E+05 -1.372219E-09  2.276272E-10
        14  18 -1.581138E+06 -6.204101E+06 -1.590975E+06  1.319433E+06  1.665972E-09 -2.189909E-09
        14  19  5.123539E+05  1.656761E+06  3.653658E+05  1.309923E+06 -1.028919E+05 -1.438052E+05
        14  20  9.660515E+05  3.597679E+06  7.895137E+05  8.987115E+05 -1.660059E+05 -2.746042E+04
        14  21  1.337156E+06  5.531964E+06  1.266834E+06  1.241121E+06 -6.128335E+04  8.835461E+04
        14  22  2.397615E+04 -3.472702E+05 -7.183854E+04  1.279635E+06 -1.016692E+05 -1.218568E+03
        14  23  6.987326E+03 -3.303759E+05 -8.690184E+04  9.030547E+05 -1.662184E+05 -4.646387E+04
        14  24 -1.207240E+05 -3.517841E+05 -1.608091E+05  1.280509E+06 -6.243897E+04 -9.259793E+04
        14  25 -4.646556E+05 -2.347500E+06 -5.092085E+05  1.249435E+06 -1.004580E+05  1.409145E+05
        14  26 -9.531228E+05 -4.244098E+06 -9.642848E+05  9.073354E+05 -1.664321E+05 -6.534817E+04
        14  27 -1.581114E+06 -6.204020E+06 -1.590828E+06  1.319447E+06 -6.362432E+04 -2.718485E+05
        15   1  3.054780E+06  1.361113E+05  1.627541E+05  6.692219E+04  1.105598E+05  1.186201E+01
        15   2  3.036557E+06  1.916507E+03  7.586428E+04  2.391816E+04  7.046460E+04  2.702062E+00
        15   3  3.054985E+06 -6.317447E+03  4.647764E+04 -1.908342E+04  3.036969E+04 -9.291372E-01
        15   4  3.054775E+06  1.361029E+05  1.627529E+05  3.804100E-08  1.105598E+05 -5.484046E-10
        15   5  3.036557E+06  1.915437E+03  7.586412E+04 -1.219742E-08  7.046460E+04 -1.915087E-09
        15   6  3.054984E+06 -6.318128E+03  4.647755E+04 -1.093575E-07  3.036969E+04 -2.137486E-09
        15   7  3.054780E+06  1.361113E+05  1.627541E+05 -6.692219E+04  1.105598E+05 -1.186201E+01
        15   8  3.036557E+06  1.916507E+03  7.586428E+04 -2.391816E+04  7.046460E+04 -2.702062E+00
        15   9  3.054985E+06 -6.317447E+03  4.647764E+04  1.908342E+04  3.036969E+04  9.291371E-01
        15  10  3.054767E+06  1.361081E+05  1.627313E+05  6.692219E+04 -3.260615E-10 -2.816834E-10
        15  11  3.036552E+06  1.915182E+03  7.585499E+04  2.391816E+04  2.029163E-08  2.925280E-10
        15  12  3.054984E+06 -6.317694E+03  4.647592E+04 -1.908342E+04  3.294127E-08  3.385916E-09
        15  13  3.054762E+06  1.360997E+05  1.627301E+05 -8.350105E-10 -3.402597E-10 -9.483189E-10
        15  14  3.036551E+06  1.914112E+03  7.585484E+04  1.049845E-08 -2.156708E-09 -1.734954E-09
        15  15  3.054983E+06 -6.318375E+03  4.647582E+04 -4.096917E-09  1.448868E-08  1.595896E-09
        15  16  3.054767E+06  1.361081E+05  1.627313E+05 -6.692219E+04  1.040399E-09 -1.763224E-09
        15  17  3.036552E+06  1.915182E+03  7.585499E+04 -2.391816E+04 -1.227846E-08 -3.757299E-09
        15  18  3.054984E+06 -6.317694E+03  4.647592E+04  1.908342E+04 -2.561475E-08 -1.482510E-10
        15  19  3.054780E+06  1.361113E+05  1.627541E+05  6.692219E+04 -1.105598E+05 -1.186201E+01
        15  20  3.036557E+06  1.916507E+03  7.586428E+04  2.391816E+04 -7.046460E+04 -2.702062E+00
        15  21  3.054985E+06 -6.317447E+03  4.647764E+04 -1.908342E+04 -3.036969E+04  9.291372E-01
        15  22  3.054775E+06  1.361029E+05  1.627529E+05 -3.534697E-08 -1.105598E+05 -1.337226E-09
        15  23  3.036557E+06  1.915437E+03  7.586412E+04  3.533815E-08 -7.046460E+04 -1.435484E-09
        15  24  3.054984E+06 -6.318128E+03  4.647755E+04  8.934048E-08 -3.036969E+04  5.237998E-09
        15  25  3.054780E+06  1.361113E+05  1.627541E+05 -6.692219E+04 -1.105598E+05  1.186201E+01
        15  26  3.036557E+06  1.916507E+03  7.586428E+04 -2.391816E+04 -7.046460E+04  2.702062E+00
        15  27  3.054985E+06 -6.317447E+03  4.647764E+04  1.908342E+04 -3.036969E+04 -9.291371E-01
        16   1  3.047595E+06  6.878334E+03  3.857801E+04  2.653426E+03  2.359477E+04  1.003716E-01
        16   2  3.045828E+06 -2.444524E+02  2.618156E+04  7.893243E+02  1.049772E+04  1.328432E-02
        16   3  3.047612E+06  5.745867E+01  2.413766E+04 -1.074809E+03 -2.599449E+03  4.479196E-03
        16   4  3.047595E+06  6.878321E+03  3.857801E+04  8.921891E-08  2.359477E+04 -3.627113E-10
        16   5  3.045828E+06 -2.444536E+02  2.618156E+04  3.071337E-08  1.049772E+04  1.738251E-09
        16   6  3.047612E+06  5.745651E+01  2.413766E+04 -5.039839E-08 -2.599449E+03 -1.226278E-09
        16   7  3.047595E+06  6.878334E+03  3.857801E+04 -2.653426E+03  2.359477E+04 -1.003716E-01
        16   8  3.045828E+06 -2.444524E+02  2.618156E+04 -7.893243E+02  1.049772E+04 -1.328431E-02
        16   9  3.047612E+06  5.745867E+01  2.413766E+04  1.074809E+03 -2.599449E+03 -4.479198E-03
        16  10  3.047595E+06  6.878186E+03  3.857697E+04  2.653426E+03 -2.098654E-08  1.929290E-09
        16  11  3.045828E+06 -2.444818E+02  2.618135E+04  7.893243E+02 -7.650593E-09 -3.635292E-09
        16  12  3.047612E+06  5.745686E+01  2.413765E+04 -1.074809E+03  6.598024E-09 -2.979051E-09
        16  13  3.047595E+06  6.878173E+03  3.857697E+04 -2.016028E-08  1.016670E-08  2.721230E-09
        16  14  3.045828E+06 -2.444830E+02  2.618135E+04 -2.669476E-08 -1.058497E-09  5.705443E-10
        16  15  3.047612E+06  5.745470E+01  2.413765E+04 -2.136822E-08 -2.191525E-09 -1.854829E-09
        16  16  3.047595E+06  6.878186E+03  3.857697E+04 -2.653426E+03  2.880472E-08  3.672023E-09
        16  17  3.045828E+06 -2.444818E+02  2.618135E+04 -7.893243E+02  1.498594E-08  4.771916E-09
        16  18  3.047612E+06  5.745686E+01  2.413765E+04  1.074809E+03 -1.067602E-08 -7.943278E-10
        16  19  3.047595E+06  6.878334E+03  3.857801E+04  2.653426E+03 -2.359477E+04 -1.003716E-01
        16  20  3.045828E+06 -2.444524E+02  2.618156E+04  7.893243E+02 -1.049772E+04 -1.328432E-02
        16  21  3.047612E+06  5.745867E+01  2.413766E+04 -1.074809E+03  2.599449E+03 -4.479202E-03
        16  22  3.047595E+06  6.878321E+03  3.857801E+04 -1.424832E-07 -2.359477E+04  5.734912E-09
        16  23  3.045828E+06 -2.444536E+02  2.618156E+04 -4.531005E-08 -1.049772E+04 -6.054920E-10
        16  24  3.047612E+06  5.745651E+01  2.413766E+04  1.573220E-08  2.599449E+03 -2.577907E-09
        16  25  3.047595E+06  6.878334E+03  3.857801E+04 -2.653426E+03 -2.359477E+04  1.003716E-01
        16  26  3.045828E+06 -2.444524E+02  2.618156E+04 -7.893243E+02 -1.049772E+04  1.328432E-02
        16  27  3.047612E+06  5.745867E+01  2.413766E+04  1.074809E+03  2.599449E+03  4.479197E-03
        17   1  3.047967E+06 -3.720779E+02  2.574521E+04  2.036059E+03 -7.006346E+03 -2.287017E-02
        17   2  3.045376E+06 -2.888751E+02  3.508600E+04 -1.016070E+03 -2.458900E+04  4.005476E-02
        17   3  3.047932E+06  1.128291E+04  5.870577E+04 -4.068176E+03 -4.217194E+04  2.750503E-01
        17   4  3.047967E+06 -3.720857E+02  2.574521E+04 -3.167006E-08 -7.006346E+03 -1.230500E-09
        17   5  3.045376E+06 -2.888770E+02  3.508600E+04  2.447461E-09 -2.458900E+04  2.016334E-09
        17   6  3.047932E+06  1.128288E+04  5.870576E+04 -1.626641E-08 -4.217194E+04  6.245443E-10
        17   7  3.047967E+06 -3.720779E+02  2.574521E+04 -2.036059E+03 -7.006346E+03  2.287016E-02
        17   8  3.045376E+06 -2.888751E+02  3.508600E+04  1.016070E+03 -2.458900E+04 -4.005475E-02
        17   9  3.047932E+06  1.128291E+04  5.870577E+04  4.068176E+03 -4.217194E+04 -2.750503E-01
        17  10  3.047967E+06 -3.720910E+02  2.574512E+04  2.036059E+03 -6.884893E-09 -7.585953E-10
        17  11  3.045375E+06 -2.890364E+02  3.508487E+04 -1.016070E+03 -5.839938E-09  1.026448E-09
        17  12  3.047930E+06  1.128244E+04  5.870244E+04 -4.068176E+03  2.692002E-09  8.906820E-10
        17  13  3.047967E+06 -3.720988E+02  2.574512E+04 -2.643758E-08 -1.064821E-08 -1.400917E-09
        17  14  3.045375E+06 -2.890383E+02  3.508487E+04 -7.972594E-09 -1.901329E-09  1.506794E-09
        17  15  3.047930E+06  1.128241E+04  5.870244E+04 -1.429117E-08 -4.094316E-09  1.999675E-09
        17  16  3.047967E+06 -3.720910E+02  2.574512E+04 -2.036059E+03  1.546134E-09 -2.107014E-09
        17  17  3.045375E+06 -2.890364E+02  3.508487E+04  1.016070E+03  3.177869E-09  1.920928E-09
        17  18  3.047930E+06  1.128244E+04  5.870244E+04  4.068176E+03 -7.995924E-10  2.795487E-09
        17  19  3.047967E+06 -3.720779E+02  2.574521E+04  2.036059E+03  7.006346E+03  2.287016E-02
        17  20  3.045376E+06 -2.888751E+02  3.508600E+04 -1.016070E+03  2.458900E+04 -4.005475E-02
        17  21  3.047932E+06  1.128291E+04  5.870577E+04 -4.068176E+03  4.217194E+04 -2.750503E-01
        17  22  3.047967E+06 -3.720857E+02  2.574521E+04 -1.695946E-08  7.006346E+03 -1.573065E-09
        17  23  3.045376E+06 -2.888770E+02  3.508600E+04 -1.114933E-09  2.458900E+04  9.034378E-10
        17  24  3.047932E+06  1.128288E+04  5.870576E+04 -1.711327E-08  4.217194E+04  3.445203E-09
        17  25  3.047967E+06 -3.720779E+02  2.574521E+04 -2.036059E+03  7.006346E+03 -2.287017E-02
        17  26  3.045376E+06 -2.888751E+02  3.508600E+04  1.016070E+03  2.458900E+04  4.005476E-02
        17  27  3.047932E+06  1.128291E+04  5.870577E+04  4.068176E+03  4.217194E+04  2.750503E-01
        18   1  3.060114E+06 -1.029727E+04  7.274083E+04  3.129122E+04 -5.256211E+04 -2.636791E+00
        18   2  3.030091E+06  3.150673E+03  1.223632E+05 -3.891439E+04 -1.172738E+05  7.316671E+00
        18   3  3.059784E+06  2.221303E+05  2.653588E+05 -1.091237E+05 -1.819838E+05  3.183792E+01
        18   4  3.060112E+06 -1.029910E+04  7.274056E+04  2.948965E-09 -5.256211E+04 -1.708766E-09
        18   5  3.030089E+06  3.147841E+03  1.223628E+05 -3.710174E-09 -1.172738E+05 -3.184692E-09
        18   6  3.059771E+06  2.221081E+05  2.653557E+05 -1.740156E-09 -1.819838E+05 -1.002585E-09
        18   7  3.060114E+06 -1.029727E+04  7.274083E+04 -3.129122E+04 -5.256211E+04  2.636791E+00
        18   8  3.030091E+06  3.150673E+03  1.223632E+05  3.891439E+04 -1.172738E+05 -7.316671E+00
        18   9  3.059784E+06  2.221303E+05  2.653588E+05  1.091237E+05 -1.819838E+05 -3.183792E+01
        18  10  3.060111E+06 -1.029800E+04  7.273566E+04  3.129122E+04  4.506719E-09  1.377804E-11
        18  11  3.030076E+06  3.147003E+03  1.223374E+05 -3.891439E+04 -6.228158E-11 -2.017288E-09
        18  12  3.059748E+06  2.221215E+05  2.652969E+05 -1.091237E+05 -4.697451E-09 -8.840792E-10
        18  13  3.060110E+06 -1.029983E+04  7.273540E+04  6.266680E-09  4.923620E-09  3.984932E-10
        18  14  3.030074E+06  3.144171E+03  1.223370E+05 -1.462356E-08 -5.426823E-10 -2.059870E-09
        18  15  3.059735E+06  2.220992E+05  2.652937E+05 -2.131274E-09 -4.244872E-09 -9.904675E-10
        18  16  3.060111E+06 -1.029800E+04  7.273566E+04 -3.129122E+04 -4.089134E-09  7.914017E-10
        18  17  3.030076E+06  3.147003E+03  1.223374E+05  3.891439E+04  6.148566E-10 -2.120759E-09
        18  18  3.059748E+06  2.221215E+05  2.652969E+05  1.091237E+05  1.313115E-09 -9.335094E-10
        18  19  3.060114E+06 -1.029727E+04  7.274083E+04  3.129122E+04  5.256211E+04  2.636791E+00
        18  20  3.030091E+06  3.150673E+03  1.223632E+05 -3.891439E+04  1.172738E+05 -7.316671E+00
        18  21  3.059784E+06  2.221303E+05  2.653588E+05 -1.091237E+05  1.819838E+05 -3.183792E+01
        18  22  3.060112E+06 -1.029910E+04  7.274056E+04 -3.333446E-09  5.256211E+04  2.435447E-09
        18  23  3.030089E+06  3.147841E+03  1.223628E+05 -4.009966E-09  1.172738E+05 -9.034172E-10
        18  24  3.059771E+06  2.221081E+05  2.653557E+05 -9.565567E-09  1.819838E+05 -9.410694E-10
        18  25  3.060114E+06 -1.029727E+04  7.274083E+04 -3.129122E+04  5.256211E+04 -2.636791E+00
        18  26  3.030091E+06  3.150673E+03  1.223632E+05  3.891439E+04  1.172738E+05  7.316671E+00
        18  27  3.059784E+06  2.221303E+05  2.653588E+05  1.091237E+05  1.819838E+05  3.183792E+01
        19   1 -2.135522E+06 -7.035241E+06 -2.178558E+06  1.169337E+06 -8.312404E+04 -5.849018E+05
        19   2 -1.325977E+06 -5.501281E+06 -1.435683E+06  7.488748E+05 -2.409039E+05 -2.796474E+05
        19   3 -9.334850E+05 -4.104231E+06 -9.963593E+05  8.982480E+05 -2.081980E+05  2.607528E+04
        19   4 -4.246202E+05 -1.777878E+05 -5.078090E+05  9.740762E+05 -8.233481E+04 -3.454297E+05
        19   5 -7.269990E+03 -1.224464E+05 -2.362792E+05  6.884649E+05 -2.404979E+05 -2.200703E+05
        19   6  2.665440E+04 -1.730980E+05 -1.410354E+05  9.727436E+05 -2.087802E+05 -9.501506E+04
        19   7  1.282991E+06  6.723098E+06  1.159766E+06  7.765778E+05 -8.170408E+04 -1.032799E+05
        19   8  1.309489E+06  5.283540E+06  9.613290E+05  6.274835E+05 -2.401059E+05 -1.599727E+05
        19   9  9.857911E+05  3.772629E+06  7.134200E+05  1.047689E+06 -2.093893E+05 -2.168645E+05
        19  10 -2.135622E+06 -7.035614E+06 -2.179220E+06  1.169297E+06 -2.543695E-09  1.745802E-08
        19  11 -1.326061E+06 -5.501381E+06 -1.435940E+06  7.488203E+05 -8.056054E-09  1.949546E-09
        19  12 -9.335317E+05 -4.104244E+06 -9.964421E+05  8.982524E+05  1.240561E-10 -1.794431E-08
        19  13 -4.246594E+05 -1.779178E+05 -5.080458E+05  9.740533E+05 -2.526254E-09  2.120661E-10
        19  14 -7.345026E+03 -1.225139E+05 -2.364787E+05  6.884223E+05 -1.225974E-08  1.941747E-11
        19  15  2.660521E+04 -1.731194E+05 -1.411342E+05  9.727277E+05 -3.824245E-09  1.697369E-09
        19  16  1.282981E+06  6.723085E+06  1.159734E+06  7.765710E+05  1.645831E-09 -1.793077E-08
        19  17  1.309420E+06  5.283497E+06  9.611732E+05  6.274527E+05  6.284063E-10 -2.309087E-09
        19  18  9.857316E+05  3.772567E+06  7.132501E+05  1.047653E+06  2.246426E-10  1.707599E-08
        19  19 -2.135522E+06 -7.035241E+06 -2.178558E+06  1.169337E+06  8.312404E+04  5.849018E+05
        19  20 -1.325977E+06 -5.501281E+06 -1.435683E+06  7.488748E+05  2.409039E+05  2.796474E+05
        19  21 -9.334850E+05 -4.104231E+06 -9.963593E+05  8.982480E+05  2.081980E+05 -2.607528E+04
        19  22 -4.246202E+05 -1.777878E+05 -5.078090E+05  9.740762E+05  8.233481E+04  3.454297E+05
        19  23 -7.269990E+03 -1.224464E+05 -2.362792E+05  6.884649E+05  2.404979E+05  2.200703E+05
        19  24  2.665440E+04 -1.730980E+05 -1.410354E+05  9.727436E+05  2.087802E+05  9.501506E+04
        19  25  1.282991E+06  6.723098E+06  1.159766E+06  7.765778E+05  8.170408E+04  1.032799E+05
        19  26  1.309489E+06  5.283540E+06  9.613290E+05  6.274835E+05  2.401059E+05  1.599727E+05
        19  27  9.857911E+05  3.772629E+06  7.134200E+05  1.047689E+06  2.093893E+05  2.168645E+05
        20   1 -6.871270E+05 -2.916163E+06 -7.189688E+05  9.722130E+05 -1.428115E+05 -6.455862E+03
        20   2 -3.081608E+05 -1.441666E+06 -3.553920E+05  6.812506E+05 -6.927063E+04  3.300349E+04
        20   3  4.801385E+04  1.752989E+04 -2.508040E+04  9.687677E+05  7.280872E+03  7.241547E+04
        20   4 -1.259705E+04 -1.515419E+05 -1.157333E+05  9.750066E+05 -1.431957E+05 -7.534899E+04
        20   5  8.248887E+03 -1.425921E+05 -7.372704E+04  6.857412E+05 -6.972175E+04 -3.870672E+04
        20   6  6.984966E+03 -1.504042E+05 -6.282784E+04  9.748900E+05  6.753109E+03 -2.202877E+03
        20   7  6.614264E+05  2.620273E+06  4.870598E+05  9.777966E+05 -1.435794E+05 -1.445455E+05
        20   8  3.245496E+05  1.158079E+06  2.078568E+05  6.902381E+05 -7.017336E+04 -1.105652E+05
        20   9 -3.404270E+04 -3.183000E+05 -1.005561E+05  9.810105E+05  6.223789E+03 -7.680124E+04
        20  10 -6.871489E+05 -2.916168E+06 -7.190072E+05  9.722123E+05  4.436409E-09 -2.448929E-09
        20  11 -3.081662E+05 -1.441669E+06 -3.554031E+05  6.812524E+05  2.880939E-09 -6.399390E-09
        20  12  4.801239E+04  1.752425E+04 -2.509035E+04  9.687673E+05  1.998941E-09 -1.381888E-08
        20  13 -1.262057E+04 -1.515535E+05 -1.157824E+05  9.749979E+05  5.078827E-09  1.213687E-09
        20  14  8.243270E+03 -1.425950E+05 -7.373898E+04  6.857390E+05  1.064719E-09  6.082860E-11
        20  15  6.984916E+03 -1.504042E+05 -6.282793E+04  9.748900E+05  1.358055E-09  2.147854E-09
        20  16  6.613987E+05  2.620245E+06  4.869822E+05  9.777799E+05  6.401627E-11  3.883618E-10
        20  17  3.245411E+05  1.158065E+06  2.078246E+05  6.902319E+05 -5.525559E-09  5.835230E-09
        20  18 -3.404433E+04 -3.183064E+05 -1.005673E+05  9.810109E+05  2.521266E-09  1.285119E-08
        20  19 -6.871270E+05 -2.916163E+06 -7.189688E+05  9.722130E+05  1.428115E+05  6.455862E+03
        20  20 -3.081608E+05 -1.441666E+06 -3.553920E+05  6.812506E+05  6.927063E+04 -3.300349E+04
        20  21  4.801385E+04  1.752989E+04 -2.508040E+04  9.687677E+05 -7.280872E+03 -7.241547E+04
        20  22 -1.259705E+04 -1.515419E+05 -1.157333E+05  9.750066E+05  1.431957E+05  7.534899E+04
        20  23  8.248887E+03 -1.425921E+05 -7.372704E+04  6.857412E+05  6.972175E+04  3.870672E+04
        20  24  6.984966E+03 -1.504042E+05 -6.282784E+04  9.748900E+05 -6.753109E+03  2.202877E+03
        20  25  6.614264E+05  2.620273E+06  4.870598E+05  9.777966E+05  1.435794E+05  1.445455E+05
        20  26  3.245496E+05  1.158079E+06  2.078568E+05  6.902381E+05  7.017336E+04  1.105652E+05
        20  27 -3.404270E+04 -3.183000E+05 -1.005561E+05  9.810105E+05 -6.223789E+03  7.680124E+04
        21   1  3.427416E+05  1.182470E+06  2.295110E+05  9.974479E+05  6.802507E+04  1.149202E+05
        21   2  6.880016E+05  2.661292E+06  5.457680E+05  6.760857E+05  1.175526E+05  3.830302E+04
        21   3  9.440966E+05  4.126295E+06  8.883428E+05  9.278661E+05  4.415318E+04 -3.794766E+04
        21   4  1.661211E+04 -1.551718E+05 -6.275848E+04  9.736316E+05  6.728725E+04  7.582930E+03
        21   5  4.123987E+03 -1.381550E+05 -7.967270E+04  6.872750E+05  1.176554E+05  4.919042E+04
        21   6 -1.181532E+05 -1.576150E+05 -1.522970E+05  9.743090E+05  4.483782E+04  9.134224E+04
        21   7 -3.096287E+05 -1.491114E+06 -3.550927E+05  9.498633E+05  6.655669E+04 -9.952632E+04
        21   8 -6.802849E+05 -2.930318E+06 -7.056060E+05  6.983994E+05  1.177588E+05  6.002902E+04
        21   9 -1.181730E+06 -4.424801E+06 -1.194199E+06  1.020399E+06  4.554466E+04  2.197452E+05
        21  10  3.427331E+05  1.182454E+06  2.294776E+05  9.974416E+05  4.977100E-09  1.465764E-08
        21  11  6.879864E+05  2.661286E+06  5.457393E+05  6.760820E+05  1.002387E-09  1.010016E-08
        21  12  9.440941E+05  4.126293E+06  8.883364E+05  9.278675E+05 -6.089608E-10 -2.892032E-09
        21  13  1.660723E+04 -1.551730E+05 -6.276709E+04  9.736312E+05  3.979887E-09  1.332096E-09
        21  14  4.108483E+03 -1.381613E+05 -7.970323E+04  6.872703E+05  4.999168E-09 -1.687523E-10
        21  15 -1.181576E+05 -1.576245E+05 -1.523165E+05  9.743057E+05 -3.428933E-09  1.402860E-09
        21  16 -3.096362E+05 -1.491126E+06 -3.551197E+05  9.498686E+05 -2.510433E-10 -1.674134E-08
        21  17 -6.803008E+05 -2.930326E+06 -7.056388E+05  6.983937E+05 -4.565149E-09 -1.054818E-08
        21  18 -1.181745E+06 -4.424853E+06 -1.194295E+06  1.020391E+06 -2.478553E-09  2.160798E-09
        21  19  3.427416E+05  1.182470E+06  2.295110E+05  9.974479E+05 -6.802507E+04 -1.149202E+05
        21  20  6.880016E+05  2.661292E+06  5.457680E+05  6.760857E+05 -1.175526E+05 -3.830302E+04
        21  21  9.440966E+05  4.126295E+06  8.883428E+05  9.278661E+05 -4.415318E+04  3.794766E+04
        21  22  1.661211E+04 -1.551718E+05 -6.275848E+04  9.736316E+05 -6.728725E+04 -7.582930E+03
        21  23  4.123987E+03 -1.381550E+05 -7.967270E+04  6.872750E+05 -1.176554E+05 -4.919042E+04
        21  24 -1.181532E+05 -1.576150E+05 -1.522970E+05  9.743090E+05 -4.483782E+04 -9.134224E+04
        21  25 -3.096287E+05 -1.491114E+06 -3.550927E+05  9.498633E+05 -6.655669E+04  9.952632E+04
        21  26 -6.802849E+05 -2.930318E+06 -7.056060E+05  6.983994E+05 -1.177588E+05 -6.002902E+04
        21  27 -1.181730E+06 -4.424801E+06 -1.194199E+06  1.020399E+06 -4.554466E+04 -2.197452E+05
        22   1  2.369148E+06  1.024539E+05  1.225137E+05  5.034111E+04  8.313106E+04  6.716335E+00
        22   2  2.355406E+06  1.431923E+03  5.713346E+04  1.799300E+04  5.294213E+04  1.528817E+00
        22   3  2.369268E+06 -4.757234E+03  3.506339E+04 -1.435457E+04  2.275259E+04 -5.241571E-01
        22   4  2.369145E+06  1.024492E+05  1.225130E+05 -1.248572E-08  8.313106E+04 -2.546130E-11
        22   5  2.355405E+06  1.431317E+03  5.713337E+04 -1.829380E-09  5.294213E+04 -4.761937E-10
        22   6  2.369268E+06 -4.757619E+03  3.506333E+04 -1.866660E-08  2.275259E+04 -1.830352E-09
        22   7  2.369148E+06  1.024539E+05  1.225137E+05 -5.034111E+04  8.313106E+04 -6.716335E+00
        22   8  2.355406E+06  1.431923E+03  5.713346E+04 -1.799300E+04  5.294213E+04 -1.528817E+00
        22   9  2.369268E+06 -4.757234E+03  3.506339E+04  1.435457E+04  2.275259E+04  5.241571E-01
        22  10  2.369141E+06  1.024521E+05  1.225008E+05  5.034111E+04 -3.088792E-10 -5.339569E-10
        22  11  2.355403E+06  1.431174E+03  5.712821E+04  1.799300E+04  5.817546E-09 -1.194939E-09
        22  12  2.369267E+06 -4.757372E+03  3.506242E+04 -1.435457E+04 -3.225459E-09 -4.368251E-10
        22  13  2.369138E+06  1.024473E+05  1.225001E+05 -4.350363E-09 -2.054965E-09 -7.759111E-10
        22  14  2.355402E+06  1.430568E+03  5.712813E+04 -6.191821E-09 -1.521142E-09 -2.037186E-09
        22  15  2.369267E+06 -4.757758E+03  3.506236E+04  5.900837E-10  5.428833E-09 -1.177190E-09
        22  16  2.369141E+06  1.024521E+05  1.225008E+05 -5.034111E+04 -4.485660E-09 -1.015557E-09
        22  17  2.355403E+06  1.431174E+03  5.712821E+04 -1.799300E+04 -1.920212E-09 -3.015057E-09
        22  18  2.369267E+06 -4.757372E+03  3.506242E+04  1.435457E+04  2.249466E-09 -1.971027E-09
        22  19  2.369148E+06  1.024539E+05  1.225137E+05  5.034111E+04 -8.313106E+04 -6.716335E+00
        22  20  2.355406E+06  1.431923E+03  5.713346E+04  1.799300E+04 -5.294213E+04 -1.528817E+00
        22  21  2.369268E+06 -4.757234E+03  3.506339E+04 -1.435457E+04 -2.275259E+04  5.241571E-01
        22  22  2.369145E+06  1.024492E+05  1.225130E+05 -1.778827E-08 -8.313106E+04 -1.486896E-09
        22  23  2.355405E+06  1.431317E+03  5.713337E+04 -1.054992E-08 -5.294213E+04 -3.490311E-09
        22  24  2.369268E+06 -4.757619E+03  3.506333E+04  3.685460E-09 -2.275259E+04 -5.403075E-10
        22  25  2.369148E+06  1.024539E+05  1.225137E+05 -5.034111E+04 -8.313106E+04  6.716335E+00
        22  26  2.355406E+06  1.431923E+03  5.713346E+04 -1.799300E+04 -5.294213E+04  1.528817E+00
        22  27  2.369268E+06 -4.757234E+03  3.506339E+04  1.435457E+04 -2.275259E+04 -5.241571E-01
        23   1  2.363712E+06  5.177747E+03  2.915136E+04  2.004713E+03  1.763914E+04  5.675106E-02
        23   2  2.362370E+06 -1.875511E+02  1.991874E+04  6.019164E+02  7.678071E+03  7.417081E-03
        23   3  2.363722E+06  5.721376E+01  1.855573E+04 -8.008828E+02 -2.282951E+03  2.934333E-03
        23   4  2.363712E+06  5.177740E+03  2.915136E+04  4.806833E-08  1.763914E+04 -1.981284E-09
        23   5  2.362370E+06 -1.875518E+02  1.991874E+04  3.713553E-09  7.678071E+03 -6.642023E-10
        23   6  2.363722E+06  5.721256E+01  1.855573E+04 -7.029874E-08 -2.282951E+03  2.265543E-10
        23   7  2.363712E+06  5.177747E+03  2.915136E+04 -2.004713E+03  1.763914E+04 -5.675106E-02
        23   8  2.362370E+06 -1.875511E+02  1.991874E+04 -6.019164E+02  7.678071E+03 -7.417082E-03
        23   9  2.363722E+06  5.721376E+01  1.855573E+04  8.008828E+02 -2.282951E+03 -2.934333E-03
        23  10  2.363712E+06  5.177664E+03  2.915078E+04  2.004713E+03 -1.642511E-08 -7.950185E-10
        23  11  2.362370E+06 -1.875668E+02  1.991863E+04  6.019164E+02  1.478941E-09 -1.488245E-09
        23  12  2.363722E+06  5.721237E+01  1.855573E+04 -8.008828E+02  1.802353E-08  8.780558E-11
        23  13  2.363712E+06  5.177656E+03  2.915078E+04 -2.014469E-09  1.797539E-09 -9.338572E-10
        23  14  2.362370E+06 -1.875675E+02  1.991863E+04 -4.087269E-10  3.922209E-10 -1.012694E-09
        23  15  2.363722E+06  5.721117E+01  1.855572E+04  5.483702E-09 -1.935443E-09  8.082816E-10
        23  16  2.363712E+06  5.177664E+03  2.915078E+04 -2.004713E+03  2.087207E-08 -1.151103E-09
        23  17  2.362370E+06 -1.875668E+02  1.991863E+04 -6.019164E+02 -2.330823E-09 -4.017721E-10
        23  18  2.363722E+06  5.721237E+01  1.855573E+04  8.008828E+02 -1.811264E-08  1.632689E-09
        23  19  2.363712E+06  5.177747E+03  2.915136E+04  2.004713E+03 -1.763914E+04 -5.675106E-02
        23  20  2.362370E+06 -1.875511E+02  1.991874E+04  6.019164E+02 -7.678071E+03 -7.417085E-03
        23  21  2.363722E+06  5.721376E+01  1.855573E+04 -8.008828E+02  2.282951E+03 -2.934333E-03
        23  22  2.363712E+06  5.177740E+03  2.915136E+04 -7.792058E-08 -1.763914E+04  8.269285E-11
        23  23  2.362370E+06 -1.875518E+02  1.991874E+04 -4.518359E-09 -7.678071E+03 -1.244149E-09
        23  24  2.363722E+06  5.721256E+01  1.855573E+04  5.652085E-08  2.282951E+03  1.343251E-09
        23  25  2.363712E+06  5.177747E+03  2.915136E+04 -2.004713E+03 -1.763914E+04  5.675106E-02
        23  26  2.362370E+06 -1.875511E+02  1.991874E+04 -6.019164E+02 -7.678071E+03  7.417082E-03
        23  27  2.363722E+06  5.721376E+01  1.855573E+04  8.008828E+02  2.282951E+03  2.934336E-03
        24   1  2.364017E+06 -2.994156E+02  1.988888E+04  1.597923E+03 -5.677254E+03 -1.455921E-02
        24   2  2.361996E+06 -2.246976E+02  2.730407E+04 -7.904066E+02 -1.935790E+04  2.455580E-02
        24   3  2.363995E+06  8.833799E+03  4.584759E+04 -3.178686E+03 -3.303851E+04  1.685438E-01
        24   4  2.364017E+06 -2.994204E+02  1.988888E+04  4.745972E-09 -5.677254E+03  1.077883E-09
        24   5  2.361996E+06 -2.246988E+02  2.730407E+04  2.134893E-08 -1.935790E+04  1.687169E-09
        24   6  2.363995E+06  8.833780E+03  4.584759E+04 -8.430894E-09 -3.303851E+04  3.603603E-11
        24   7  2.364017E+06 -2.994156E+02  1.988888E+04 -1.597923E+03 -5.677254E+03  1.455921E-02
        24   8  2.361996E+06 -2.246976E+02  2.730407E+04  7.904066E+02 -1.935790E+04 -2.455579E-02
        24   9  2.363995E+06  8.833799E+03  4.584759E+04  3.178686E+03 -3.303851E+04 -1.685438E-01
        24  10  2.364017E+06 -2.994242E+02  1.988882E+04  1.597923E+03  3.265522E-09  9.672197E-10
        24  11  2.361996E+06 -2.247977E+02  2.730337E+04 -7.904066E+02  2.010278E-09  1.122611E-09
        24  12  2.363994E+06  8.833507E+03  4.584555E+04 -3.178686E+03 -1.964267E-09  3.779169E-10
        24  13  2.364017E+06 -2.994290E+02  1.988882E+04  1.308328E-08  2.156031E-09  1.224073E-09
        24  14  2.361996E+06 -2.247989E+02  2.730337E+04  2.127309E-08 -4.085285E-09  3.311822E-10
        24  15  2.363994E+06  8.833488E+03  4.584554E+04  1.332692E-08 -3.450409E-09  5.752873E-10
        24  16  2.364017E+06 -2.994242E+02  1.988882E+04 -1.597923E+03 -9.914725E-10  1.347718E-09
        24  17  2.361996E+06 -2.247977E+02  2.730337E+04  7.904066E+02 -3.960513E-09 -3.636156E-10
        24  18  2.363994E+06  8.833507E+03  4.584555E+04  3.178686E+03  8.045558E-10  7.936702E-10
        24  19  2.364017E+06 -2.994156E+02  1.988888E+04  1.597923E+03  5.677254E+03  1.455921E-02
        24  20  2.361996E+06 -2.246976E+02  2.730407E+04 -7.904066E+02  1.935790E+04 -2.455580E-02
        24  21  2.363995E+06  8.833799E+03  4.584759E+04 -3.178686E+03  3.303851E+04 -1.685438E-01
        24  22  2.364017E+06 -2.994204E+02  1.988888E+04 -1.312143E-08  5.677254E+03  1.342408E-09
        24  23  2.361996E+06 -2.246988E+02  2.730407E+04  2.119721E-08  1.935790E+04 -9.768693E-10
        24  24  2.363995E+06  8.833780E+03  4.584759E+04  3.764171E-09  3.303851E+04  1.120825E-09
        24  25  2.364017E+06 -2.994156E+02  1.988888E+04 -1.597923E+03  5.677254E+03 -1.455921E-02
        24  26  2.361996E+06 -2.246976E+02  2.730407E+04  7.904066E+02  1.935790E+04  2.455579E-02
        24  27  2.363995E+06  8.833799E+03  4.584759E+04  3.178686E+03  3.303851E+04  1.685438E-01
        25   1  2.373524E+06 -8.060608E+03  5.684925E+04  2.447872E+04 -4.115003E+04 -1.616580E+00
        25   2  2.350050E+06  2.450358E+03  9.570745E+04 -3.042682E+04 -9.175712E+04  4.480759E+00
        25   3  2.373324E+06  1.738271E+05  2.076442E+05 -8.533607E+04 -1.423645E+05  1.949766E+01
        25   4  2.373523E+06 -8.061729E+03  5.684909E+04 -1.707057E-09 -4.115003E+04 -1.337856E-09
        25   5  2.350049E+06  2.448624E+03  9.570720E+04  2.635984E-08 -9.175712E+04 -1.950288E-09
        25   6  2.373316E+06  1.738135E+05  2.076423E+05 -2.166327E-09 -1.423645E+05 -5.213355E-10
        25   7  2.373524E+06 -8.060608E+03  5.684925E+04 -2.447872E+04 -4.115003E+04  1.616580E+00
        25   8  2.350050E+06  2.450358E+03  9.570745E+04  3.042682E+04 -9.175712E+04 -4.480759E+00
        25   9  2.373324E+06  1.738271E+05  2.076442E+05  8.533607E+04 -1.423645E+05 -1.949766E+01
        25  10  2.373522E+06 -8.061060E+03  5.684608E+04  2.447872E+04 -6.486238E-10 -4.197684E-11
        25  11  2.350041E+06  2.448108E+03  9.569169E+04 -3.042681E+04 -9.946887E-10  1.624979E-10
        25  12  2.373302E+06  1.738217E+05  2.076063E+05 -8.533607E+04 -1.282957E-09  8.925689E-11
        25  13  2.373522E+06 -8.062182E+03  5.684592E+04  2.813889E-08 -3.436691E-09  3.785955E-10
        25  14  2.350040E+06  2.446375E+03  9.569144E+04  2.413004E-08 -8.934029E-10 -5.162774E-10
        25  15  2.373294E+06  1.738081E+05  2.076043E+05  1.576074E-08 -6.780064E-10 -2.612611E-10
        25  16  2.373522E+06 -8.061060E+03  5.684608E+04 -2.447872E+04  1.681910E-10  6.655036E-10
        25  17  2.350041E+06  2.448108E+03  9.569169E+04  3.042681E+04  1.099886E-09 -1.128823E-09
        25  18  2.373302E+06  1.738217E+05  2.076063E+05  8.533607E+04 -7.487869E-10 -5.950282E-10
        25  19  2.373524E+06 -8.060608E+03  5.684925E+04  2.447872E+04  4.115003E+04  1.616580E+00
        25  20  2.350050E+06  2.450358E+03  9.570745E+04 -3.042682E+04  9.175712E+04 -4.480759E+00
        25  21  2.373324E+06  1.738271E+05  2.076442E+05 -8.533607E+04  1.423645E+05 -1.949766E+01
        25  22  2.373523E+06 -8.061729E+03  5.684909E+04  1.985267E-09  4.115003E+04  2.113480E-09
        25  23  2.350049E+06  2.448624E+03  9.570720E+04  2.621226E-08  9.175712E+04  1.000357E-09
        25  24  2.373316E+06  1.738135E+05  2.076423E+05 -2.393511E-09  1.423645E+05  3.003412E-11
        25  25  2.373524E+06 -8.060608E+03  5.684925E+04 -2.447872E+04  4.115003E+04 -1.616580E+00
        25  26  2.350050E+06  2.450358E+03  9.570745E+04  3.042682E+04  9.175712E+04  4.480759E+00
        25  27  2.373324E+06  1.738271E+05  2.076442E+05  8.533607E+04  1.423645E+05  1.949766E+01
        26   1 -1.733573E+06 -5.748960E+06 -1.764618E+06  9.382219E+05 -6.826269E+04 -4.642805E+05
        26   2 -1.094387E+06 -4.511697E+06 -1.173067E+06  6.037332E+05 -1.989329E+05 -2.193413E+05
        26   3 -7.795700E+05 -3.382547E+06 -8.223790E+05  7.289976E+05 -1.734647E+05  2.589647E+04
        26   4 -3.279519E+05 -1.109594E+05 -3.922427E+05  7.860366E+05 -6.774446E+04 -2.661377E+05
        26   5 -5.564200E+03 -6.807208E+04 -1.829773E+05  5.557280E+05 -1.986571E+05 -1.691342E+05
        26   6  1.967486E+04 -1.078403E+05 -1.103283E+05  7.851942E+05 -1.738489E+05 -7.233241E+04
        26   7  1.075437E+06  5.556360E+06  9.779903E+05  6.324248E+05 -6.732760E+04 -6.617897E+04
        26   8  1.081928E+06  4.394066E+06  8.058884E+05  5.073519E+05 -1.983904E+05 -1.185663E+05
        26   9  8.182224E+05  3.176984E+06  6.011184E+05  8.416751E+05 -1.742497E+05 -1.710740E+05
        26  10 -1.733636E+06 -5.749194E+06 -1.765035E+06  9.381963E+05  8.921885E-10 -5.382671E-10
        26  11 -1.094442E+06 -4.511759E+06 -1.173232E+06  6.036979E+05  2.145670E-10 -4.271665E-10
        26  12 -7.796025E+05 -3.382556E+06 -8.224368E+05  7.290013E+05 -1.710807E-09 -9.810648E-10
        26  13 -3.279758E+05 -1.110367E+05 -3.923844E+05  7.860221E+05 -6.618800E-09  2.674931E-10
        26  14 -5.614220E+03 -6.811335E+04 -1.831051E+05  5.557009E+05 -2.372864E-09 -1.149978E-09
        26  15  1.964102E+04 -1.078541E+05 -1.103948E+05  7.851841E+05 -4.133037E-09  4.306342E-09
        26  16  1.075431E+06  5.556354E+06  9.779736E+05  6.324212E+05 -4.473264E-09  5.868563E-10
        26  17  1.081882E+06  4.394040E+06  8.057883E+05  5.073331E+05 -2.882809E-09 -1.034717E-09
        26  18  8.181820E+05  3.176945E+06  6.010068E+05  8.416512E+05  7.538323E-10 -1.181605E-09
        26  19 -1.733573E+06 -5.748960E+06 -1.764618E+06  9.382219E+05  6.826269E+04  4.642805E+05
        26  20 -1.094387E+06 -4.511697E+06 -1.173067E+06  6.037332E+05  1.989329E+05  2.193413E+05
        26  21 -7.795700E+05 -3.382547E+06 -8.223790E+05  7.289976E+05  1.734647E+05 -2.589647E+04
        26  22 -3.279519E+05 -1.109594E+05 -3.922427E+05  7.860366E+05  6.774446E+04  2.661377E+05
        26  23 -5.564200E+03 -6.807208E+04 -1.829773E+05  5.557280E+05  1.986571E+05  1.691342E+05
        26  24  1.967486E+04 -1.078403E+05 -1.103283E+05  7.851942E+05  1.738489E+05  7.233241E+04
        26  25  1.075437E+06  5.556360E+06  9.779903E+05  6.324248E+05  6.732760E+04  6.617897E+04
        26  26  1.081928E+06  4.394066E+06  8.058884E+05  5.073519E+05  1.983904E+05  1.185663E+05
        26  27  8.182224E+05  3.176984E+06  6.011184E+05  8.416751E+05  1.742497E+05  1.710740E+05
        27   1 -5.796514E+05 -2.423991E+06 -6.000114E+05  7.859219E+05 -1.205046E+05 -1.444705E+03
        27   2 -2.744841E+05 -1.234258E+06 -3.094748E+05  5.502430E+05 -6.132737E+04  3.103006E+04
        27   3  1.133831E+04 -5.656780E+04 -4.615186E+04  7.813122E+05  5.173782E+02  6.346588E+04
        27   4 -1.066512E+04 -9.116675E+04 -9.120948E+04  7.869668E+05 -1.207558E+05 -5.679313E+04
        27   5  5.553218E+03 -8.432052E+04 -6.018557E+04  5.535822E+05 -6.162685E+04 -2.682816E+04
        27   6  2.988498E+03 -9.035503E+04 -5.450222E+04  7.868997E+05  1.629916E+02  3.037477E+03
        27   7  5.579606E+05  2.246777E+06  4.172765E+05  7.880062E+05 -1.210066E+05 -1.123472E+05
        27   8  2.855048E+05  1.066866E+06  1.890375E+05  5.569256E+05 -6.192664E+04 -8.479225E+04
        27   9 -5.359315E+03 -1.241333E+05 -6.283892E+04  7.924869E+05 -1.924940E+02 -5.738764E+04
        27  10 -5.796670E+05 -2.423995E+06 -6.000387E+05  7.859217E+05 -9.250156E-10 -5.578123E-09
        27  11 -2.744884E+05 -1.234260E+06 -3.094837E+05  5.502445E+05 -2.563990E-09 -1.595114E-09
        27  12  1.133723E+04 -5.657213E+04 -4.615943E+04  7.813122E+05 -2.656719E-10  1.087043E-09
        27  13 -1.068164E+04 -9.117412E+04 -9.124290E+04  7.869613E+05 -4.470193E-09  2.062270E-09
        27  14  5.548948E+03 -8.432231E+04 -6.019406E+04  5.535809E+05 -1.184808E-09 -2.416456E-09
        27  15  2.988495E+03 -9.035504E+04 -5.450224E+04  7.868997E+05 -1.069755E-09  5.817886E-09
        27  16  5.579415E+05  2.246760E+06  4.172255E+05  7.879953E+05  1.713821E-10  5.600485E-09
        27  17  2.854988E+05  1.066858E+06  1.890169E+05  5.569214E+05  2.317163E-10 -1.500930E-09
        27  18 -5.360200E+03 -1.241368E+05 -6.284511E+04  7.924869E+05 -1.649618E-09 -4.085895E-09
        27  19 -5.796514E+05 -2.423991E+06 -6.000114E+05  7.859219E+05  1.205046E+05  1.444705E+03
        27  20 -2.744841E+05 -1.234258E+06 -3.094748E+05  5.502430E+05  6.132737E+04 -3.103006E+04
        27  21  1.133831E+04 -5.656780E+04 -4.615186E+04  7.813122E+05 -5.173782E+02 -6.346588E+04
        27  22 -1.066512E+04 -9.116675E+04 -9.120948E+04  7.869668E+05  1.207558E+05  5.679313E+04
        27  23  5.553218E+03 -8.432052E+04 -6.018557E+04  5.535822E+05  6.162685E+04  2.682816E+04
        27  24  2.988498E+03 -9.035503E+04 -5.450222E+04  7.868997E+05 -1.629916E+02 -3.037477E+03
        27  25  5.579606E+05  2.246777E+06  4.172765E+05  7.880062E+05  1.210066E+05  1.123472E+05
        27  26  2.855048E+05  1.066866E+06  1.890375E+05  5.569256E+05  6.192664E+04  8.479225E+04
        27  27 -5.359315E+03 -1.241333E+05 -6.283892E+04  7.924869E+05  1.924940E+02  5.738764E+04
        28   1  2.511763E+05  8.819223E+05  1.577929E+05  8.065495E+05  4.929683E+04  9.776702E+04
        28   2  5.295273E+05  2.077740E+06  4.079829E+05  5.406674E+05  9.010770E+04  4.378579E+04
        28   3  7.167154E+05  3.256452E+06  6.696340E+05  7.374286E+05  3.428605E+04 -9.928899E+03
        28   4  1.280044E+04 -9.540056E+04 -5.602767E+04  7.859128E+05  4.880263E+04  1.172224E+04
        28   5  2.488415E+03 -7.883711E+04 -7.430529E+04  5.547816E+05  9.016517E+04  5.061748E+04
        28   6 -1.152085E+05 -9.691890E+04 -1.455985E+05  7.864622E+05  3.473764E+04  8.987917E+04
        28   7 -2.256338E+05 -1.071813E+06 -2.698781E+05  7.653072E+05  4.831367E+04 -7.418893E+04
        28   8 -5.248656E+05 -2.231090E+06 -5.568863E+05  5.688395E+05  9.022307E+04  5.742551E+04
        28   9 -9.479422E+05 -3.440034E+06 -9.616060E+05  8.352141E+05  3.520645E+04  1.891507E+05
        28  10  2.511711E+05  8.819114E+05  1.577704E+05  8.065456E+05  3.116118E-10 -5.375855E-09
        28  11  5.295181E+05  2.077735E+06  4.079641E+05  5.406642E+05  8.087126E-10 -2.040742E-09
        28  12  7.167141E+05  3.256452E+06  6.696316E+05  7.374288E+05  5.446111E-10  1.462421E-09
        28  13  1.279784E+04 -9.540135E+04 -5.603240E+04  7.859123E+05  4.797323E-09  2.391698E-09
        28  14  2.479003E+03 -7.884204E+04 -7.432536E+04  5.547780E+05 -5.323538E-09 -2.212425E-09
        28  15 -1.152119E+05 -9.692789E+04 -1.456159E+05  7.864597E+05 -2.257123E-10  4.004553E-09
        28  16 -2.256378E+05 -1.071820E+06 -2.698929E+05  7.653101E+05  7.116631E-09  5.305529E-09
        28  17 -5.248752E+05 -2.231095E+06 -5.569078E+05  5.688353E+05  2.368565E-09 -6.768470E-10
        28  18 -9.479532E+05 -3.440073E+06 -9.616759E+05  8.352088E+05  1.020693E-09 -3.369187E-09
        28  19  2.511763E+05  8.819223E+05  1.577929E+05  8.065495E+05 -4.929683E+04 -9.776702E+04
        28  20  5.295273E+05  2.077740E+06  4.079829E+05  5.406674E+05 -9.010770E+04 -4.378579E+04
        28  21  7.167154E+05  3.256452E+06  6.696340E+05  7.374286E+05 -3.428605E+04  9.928899E+03
        28  22  1.280044E+04 -9.540056E+04 -5.602767E+04  7.859128E+05 -4.880263E+04 -1.172224E+04
        28  23  2.488415E+03 -7.883711E+04 -7.430529E+04  5.547816E+05 -9.016517E+04 -5.061748E+04
        28  24 -1.152085E+05 -9.691890E+04 -1.455985E+05  7.864622E+05 -3.473764E+04 -8.987917E+04
        28  25 -2.256338E+05 -1.071813E+06 -2.698781E+05  7.653072E+05 -4.831367E+04  7.418893E+04
        28  26 -5.248656E+05 -2.231090E+06 -5.568863E+05  5.688395E+05 -9.022307E+04 -5.742551E+04
        28  27 -9.479422E+05 -3.440034E+06 -9.616060E+05  8.352141E+05 -3.520645E+04 -1.891507E+05
        29   1  1.787441E+06  7.223269E+04  8.638709E+04  3.547544E+04  5.850593E+04  3.333963E+00
        29   2  1.777736E+06  1.002712E+03  4.034500E+04  1.268282E+04  3.719315E+04  7.577309E-01
        29   3  1.787505E+06 -3.355430E+03  2.486821E+04 -1.010928E+04  1.588029E+04 -2.578741E-01
        29   4  1.787440E+06  7.223033E+04  8.638676E+04 -9.581055E-09  5.850593E+04 -9.871660E-10
        29   5  1.777736E+06  1.002410E+03  4.034495E+04  2.196388E-09  3.719315E+04 -2.172810E-09
        29   6  1.787505E+06 -3.355621E+03  2.486818E+04 -8.633745E-09  1.588029E+04 -2.928972E-10
        29   7  1.787441E+06  7.223269E+04  8.638709E+04 -3.547544E+04  5.850593E+04 -3.333963E+00
        29   8  1.777736E+06  1.002712E+03  4.034500E+04 -1.268282E+04  3.719315E+04 -7.577309E-01
        29   9  1.787505E+06 -3.355430E+03  2.486821E+04  1.010928E+04  1.588029E+04  2.578741E-01
        29  10  1.787438E+06  7.223177E+04  8.638068E+04  3.547544E+04  4.478926E-10 -1.056173E-09
        29  11  1.777735E+06  1.002341E+03  4.034240E+04  1.268282E+04 -4.436258E-09 -2.052593E-09
        29  12  1.787505E+06 -3.355497E+03  2.486773E+04 -1.010928E+04 -3.803616E-09  8.542350E-10
        29  13  1.787436E+06  7.222941E+04  8.638034E+04 -1.350623E-09 -2.172436E-09 -5.639924E-10
        29  14  1.777734E+06  1.002040E+03  4.034236E+04  1.307905E-08 -4.192205E-09 -1.153541E-09
        29  15  1.787505E+06 -3.355689E+03  2.486771E+04  9.182976E-09 -5.157854E-10  3.323454E-10
        29  16  1.787438E+06  7.223177E+04  8.638068E+04 -3.547544E+04 -4.563437E-10 -1.794395E-10
        29  17  1.777735E+06  1.002341E+03  4.034240E+04 -1.268282E+04  3.717088E-09 -2.456269E-10
        29  18  1.787505E+06 -3.355497E+03  2.486773E+04  1.010928E+04  1.445177E-09 -1.593760E-10
        29  19  1.787441E+06  7.223269E+04  8.638709E+04  3.547544E+04 -5.850593E+04 -3.333963E+00
        29  20  1.777736E+06  1.002712E+03  4.034500E+04  1.268282E+04 -3.719315E+04 -7.577309E-01
        29  21  1.787505E+06 -3.355430E+03  2.486821E+04 -1.010928E+04 -1.588029E+04  2.578741E-01
        29  22  1.787440E+06  7.223033E+04  8.638676E+04 -1.465043E-08 -5.850593E+04 -1.811776E-10
        29  23  1.777736E+06  1.002410E+03  4.034495E+04  6.722227E-09 -3.719315E+04 -1.995381E-10
        29  24  1.787505E+06 -3.355621E+03  2.486818E+04 -1.177350E-08 -1.588029E+04  9.445294E-10
        29  25  1.787441E+06  7.223269E+04  8.638709E+04 -3.547544E+04 -5.850593E+04  3.333963E+00
        29  26  1.777736E+06  1.002712E+03  4.034500E+04 -1.268282E+04 -3.719315E+04  7.577309E-01
        29  27  1.787505E+06 -3.355430E+03  2.486821E+04  1.010928E+04 -1.588029E+04 -2.578741E-01
        30   1  1.783596E+06  3.648752E+03  2.075743E+04  1.426311E+03  1.224511E+04  2.805491E-02
        30   2  1.782633E+06 -1.378991E+02  1.441689E+04  4.377997E+02  5.038385E+03  3.543224E-03
        30   3  1.783601E+06  6.386120E+01  1.375543E+04 -5.506981E+02 -2.168214E+03  1.917996E-03
        30   4  1.783596E+06  3.648748E+03  2.075743E+04  8.699603E-10  1.224511E+04 -1.217984E-09
        30   5  1.782633E+06 -1.378995E+02  1.441689E+04  1.326878E-08  5.038385E+03 -3.750630E-09
        30   6  1.783601E+06  6.386064E+01  1.375543E+04  1.217481E-08 -2.168214E+03  1.177028E-09
        30   7  1.783596E+06  3.648752E+03  2.075743E+04 -1.426311E+03  1.224511E+04 -2.805491E-02
        30   8  1.782633E+06 -1.378991E+02  1.441689E+04 -4.377997E+02  5.038385E+03 -3.543231E-03
        30   9  1.783601E+06  6.386120E+01  1.375543E+04  5.506981E+02 -2.168214E+03 -1.917994E-03
        30  10  1.783596E+06  3.648712E+03  2.075715E+04  1.426311E+03  2.402972E-09  1.450769E-09
        30  11  1.782633E+06 -1.379059E+02  1.441685E+04  4.377997E+02  2.707347E-09 -1.250712E-10
        30  12  1.783601E+06  6.385995E+01  1.375542E+04 -5.506981E+02  1.302027E-09  1.376346E-09
        30  13  1.783596E+06  3.648708E+03  2.075715E+04  8.819937E-09 -2.222935E-09  1.957460E-10
        30  14  1.782633E+06 -1.379063E+02  1.441685E+04  8.936771E-09  6.483406E-09 -1.256840E-09
        30  15  1.783601E+06  6.385938E+01  1.375542E+04 -9.251123E-09 -1.698485E-09  7.667619E-11
        30  16  1.783596E+06  3.648712E+03  2.075715E+04 -1.426311E+03 -1.206595E-09 -1.044790E-09
        30  17  1.782633E+06 -1.379059E+02  1.441685E+04 -4.377997E+02 -5.015177E-09 -2.431113E-09
        30  18  1.783601E+06  6.385995E+01  1.375542E+04  5.506981E+02  3.802879E-09 -1.226740E-09
        30  19  1.783596E+06  3.648752E+03  2.075743E+04  1.426311E+03 -1.224511E+04 -2.805490E-02
        30  20  1.782633E+06 -1.378991E+02  1.441689E+04  4.377997E+02 -5.038385E+03 -3.543224E-03
        30  21  1.783601E+06  6.386120E+01  1.375543E+04 -5.506981E+02  2.168214E+03 -1.917993E-03
        30  22  1.783596E+06  3.648748E+03  2.075743E+04 -1.771994E-08 -1.224511E+04  1.605904E-09
        30  23  1.782633E+06 -1.378995E+02  1.441689E+04  2.447154E-09 -5.038385E+03  1.237243E-09
        30  24  1.783601E+06  6.386064E+01  1.375543E+04 -8.097164E-09  2.168214E+03 -1.047431E-09
        30  25  1.783596E+06  3.648752E+03  2.075743E+04 -1.426311E+03 -1.224511E+04  2.805491E-02
        30  26  1.782633E+06 -1.378991E+02  1.441689E+04 -4.377997E+02 -5.038385E+03  3.543227E-03
        30  27  1.783601E+06  6.386120E+01  1.375543E+04  5.506981E+02  2.168214E+03  1.917991E-03
        31   1  1.783856E+06 -2.442509E+02  1.490602E+04  1.238472E+03 -4.697626E+03 -9.345351E-03
        31   2  1.782311E+06 -1.701585E+02  2.079159E+04 -6.008235E+02 -1.511421E+04  1.458696E-02
        31   3  1.783843E+06  6.806701E+03  3.517048E+04 -2.440137E+03 -2.553106E+04  1.000726E-01
        31   4  1.783856E+06 -2.442537E+02  1.490602E+04  4.772141E-09 -4.697626E+03  1.826758E-09
        31   5  1.782311E+06 -1.701592E+02  2.079159E+04  1.083273E-08 -1.511421E+04 -2.113380E-09
        31   6  1.783843E+06  6.806690E+03  3.517048E+04  6.084348E-09 -2.553106E+04 -5.505828E-10
        31   7  1.783856E+06 -2.442509E+02  1.490602E+04 -1.238472E+03 -4.697626E+03  9.345355E-03
        31   8  1.782311E+06 -1.701585E+02  2.079159E+04  6.008235E+02 -1.511421E+04 -1.458697E-02
        31   9  1.783843E+06  6.806701E+03  3.517048E+04  2.440137E+03 -2.553106E+04 -1.000726E-01
        31  10  1.783856E+06 -2.442568E+02  1.490598E+04  1.238472E+03  7.813044E-09  4.906677E-10
        31  11  1.782311E+06 -1.702196E+02  2.079117E+04 -6.008235E+02  4.592950E-09 -2.403550E-09
        31  12  1.783842E+06  6.806527E+03  3.516926E+04 -2.440137E+03 -7.463618E-10 -1.316260E-10
        31  13  1.783856E+06 -2.442596E+02  1.490598E+04 -3.266343E-10  6.483412E-09 -2.173670E-10
        31  14  1.782311E+06 -1.702203E+02  2.079117E+04 -1.497612E-08 -5.084483E-09 -1.834444E-09
        31  15  1.783842E+06  6.806516E+03  3.516926E+04 -1.023052E-08  1.861521E-09  3.518672E-10
        31  16  1.783856E+06 -2.442568E+02  1.490598E+04 -1.238472E+03 -2.153611E-09 -9.407910E-10
        31  17  1.782311E+06 -1.702196E+02  2.079117E+04  6.008235E+02 -2.815707E-09 -1.267556E-09
        31  18  1.783842E+06  6.806527E+03  3.516926E+04  2.440137E+03 -2.608560E-09  8.666537E-10
        31  19  1.783856E+06 -2.442509E+02  1.490602E+04  1.238472E+03  4.697626E+03  9.345353E-03
        31  20  1.782311E+06 -1.701585E+02  2.079159E+04 -6.008235E+02  1.511421E+04 -1.458697E-02
        31  21  1.783843E+06  6.806701E+03  3.517048E+04 -2.440137E+03  2.553106E+04 -1.000726E-01
        31  22  1.783856E+06 -2.442537E+02  1.490602E+04 -1.406420E-08  4.697626E+03 -2.247488E-09
        31  23  1.782311E+06 -1.701592E+02  2.079159E+04 -2.353063E-08  1.511421E+04 -1.581784E-09
        31  24  1.783843E+06  6.806690E+03  3.517048E+04 -3.947188E-08  2.553106E+04  1.255490E-09
        31  25  1.783856E+06 -2.442509E+02  1.490602E+04 -1.238472E+03  4.697626E+03 -9.345357E-03
        31  26  1.782311E+06 -1.701585E+02  2.079159E+04  6.008235E+02  1.511421E+04  1.458696E-02
        31  27  1.783843E+06  6.806701E+03  3.517048E+04  2.440137E+03  2.553106E+04  1.000726E-01
        32   1  1.791181E+06 -6.208878E+03  4.367459E+04  1.884846E+04 -3.175222E+04 -9.613400E-01
        32   2  1.773117E+06  1.876443E+03  7.364424E+04 -2.341208E+04 -7.069008E+04  2.658512E+00
        32   3  1.791065E+06  1.338597E+05  1.598894E+05 -6.567434E+04 -1.096277E+05  1.156513E+01
        32   4  1.791181E+06 -6.209544E+03  4.367449E+04  2.351869E-09 -3.175222E+04  1.200783E-09
        32   5  1.773117E+06  1.875416E+03  7.364409E+04  1.465780E-08 -7.069008E+04  1.214405E-09
        32   6  1.791060E+06  1.338516E+05  1.598882E+05 -2.666649E-09 -1.096277E+05  7.190901E-10
        32   7  1.791181E+06 -6.208878E+03  4.367459E+04 -1.884846E+04 -3.175222E+04  9.613400E-01
        32   8  1.773117E+06  1.876443E+03  7.364424E+04  2.341208E+04 -7.069008E+04 -2.658512E+00
        32   9  1.791065E+06  1.338597E+05  1.598894E+05  6.567434E+04 -1.096277E+05 -1.156513E+01
        32  10  1.791180E+06 -6.209148E+03  4.367270E+04  1.884846E+04  1.206916E-09  1.233290E-09
        32  11  1.773112E+06  1.875106E+03  7.363487E+04 -2.341208E+04  4.584867E-09  8.504521E-10
        32  12  1.791052E+06  1.338565E+05  1.598669E+05 -6.567434E+04 -8.400648E-10  2.238449E-10
        32  13  1.791180E+06 -6.209814E+03  4.367261E+04  6.603823E-09 -2.790702E-09  1.649501E-09
        32  14  1.773111E+06  1.874079E+03  7.363473E+04  5.892935E-09  3.550981E-09  1.173613E-09
        32  15  1.791048E+06  1.338484E+05  1.598657E+05 -2.059124E-10 -2.044912E-10  3.191676E-10
        32  16  1.791180E+06 -6.209148E+03  4.367270E+04 -1.884846E+04 -2.801907E-09  1.995120E-09
        32  17  1.773112E+06  1.875106E+03  7.363487E+04  2.341208E+04 -4.150602E-09  1.597460E-09
        32  18  1.791052E+06  1.338565E+05  1.598669E+05  6.567434E+04 -4.097519E-10  4.863366E-10
        32  19  1.791181E+06 -6.208878E+03  4.367459E+04  1.884846E+04  3.175222E+04  9.613400E-01
        32  20  1.773117E+06  1.876443E+03  7.364424E+04 -2.341208E+04  7.069008E+04 -2.658512E+00
        32  21  1.791065E+06  1.338597E+05  1.598894E+05 -6.567434E+04  1.096277E+05 -1.156513E+01
        32  22  1.791181E+06 -6.209544E+03  4.367449E+04 -2.796340E-08  3.175222E+04  2.092265E-09
        32  23  1.773117E+06  1.875416E+03  7.364409E+04  1.428383E-09  7.069008E+04  1.126640E-09
        32  24  1.791060E+06  1.338516E+05  1.598882E+05 -2.591117E-09  1.096277E+05 -5.884936E-11
        32  25  1.791181E+06 -6.208878E+03  4.367459E+04 -1.884846E+04  3.175222E+04 -9.613400E-01
        32  26  1.773117E+06  1.876443E+03  7.364424E+04  2.341208E+04  7.069008E+04  2.658512E+00
        32  27  1.791065E+06  1.338597E+05  1.598894E+05  6.567434E+04  1.096277E+05  1.156513E+01
        33   1 -1.459134E+06 -4.918810E+06 -1.479175E+06  7.824544E+05 -5.876955E+04 -3.730342E+05
        33   2 -9.455900E+05 -3.872535E+06 -9.950759E+05  5.080853E+05 -1.720081E+05 -1.717867E+05
        33   3 -6.808231E+05 -2.910973E+06 -7.043514E+05  6.236313E+05 -1.510476E+05  2.966170E+04
        33   4 -2.488473E+05 -6.205769E+04 -2.976963E+05  6.667085E+05 -5.840269E+04 -2.014747E+05
        33   5 -4.257355E+03 -2.951482E+04 -1.392633E+05  4.714779E+05 -1.718041E+05 -1.276727E+05
        33   6  1.471397E+04 -5.977391E+04 -8.465977E+04  6.661592E+05 -1.513269E+05 -5.401801E+04
        33   7  9.597695E+05  4.816426E+06  8.821925E+05  5.500296E+05 -5.810234E+04 -2.856388E+04
        33   8  9.360797E+05  3.827343E+06  7.156345E+05  4.346266E+05 -1.716062E+05 -8.328545E+04
        33   9  7.097208E+05  2.799090E+06  5.345729E+05  7.088746E+05 -1.516170E+05 -1.380779E+05
        33  10 -1.459175E+06 -4.918961E+06 -1.479444E+06  7.824367E+05  1.554580E-09  1.113673E-09
        33  11 -9.456297E+05 -3.872575E+06 -9.951872E+05  5.080615E+05 -1.526087E-09  1.069750E-09
        33  12 -6.808478E+05 -2.910980E+06 -7.043959E+05  6.236349E+05 -8.223535E-10 -2.847912E-09
        33  13 -2.488618E+05 -6.210219E+04 -2.977789E+05  6.666990E+05  2.615182E-09  1.192350E-12
        33  14 -4.293405E+03 -2.954022E+04 -1.393493E+05  4.714603E+05 -1.434124E-09  2.098361E-09
        33  15  1.468861E+04 -5.978317E+04 -8.470825E+04  6.661527E+05  3.106118E-09  1.165270E-09
        33  16  9.597657E+05  4.816424E+06  8.821847E+05  5.500283E+05 -6.135665E-10 -1.186702E-09
        33  17  9.360462E+05  3.827328E+06  7.155663E+05  4.346152E+05  1.239699E-09  2.029102E-09
        33  18  7.096910E+05  2.799064E+06  5.344942E+05  7.088578E+05  1.272363E-09  3.022314E-09
        33  19 -1.459134E+06 -4.918810E+06 -1.479175E+06  7.824544E+05  5.876955E+04  3.730342E+05
        33  20 -9.455900E+05 -3.872535E+06 -9.950759E+05  5.080853E+05  1.720081E+05  1.717867E+05
        33  21 -6.808231E+05 -2.910973E+06 -7.043514E+05  6.236313E+05  1.510476E+05 -2.966170E+04
        33  22 -2.488473E+05 -6.205769E+04 -2.976963E+05  6.667085E+05  5.840269E+04  2.014747E+05
        33  23 -4.257355E+03 -2.951482E+04 -1.392633E+05  4.714779E+05  1.718041E+05  1.276727E+05
        33  24  1.471397E+04 -5.977391E+04 -8.465977E+04  6.661592E+05  1.513269E+05  5.401801E+04
        33  25  9.597695E+05  4.816426E+06  8.821925E+05  5.500296E+05  5.810234E+04  2.856388E+04
        33  26  9.360797E+05  3.827343E+06  7.156345E+05  4.346266E+05  1.716062E+05  8.328545E+04
        33  27  7.097208E+05  2.799090E+06  5.345729E+05  7.088746E+05  1.516170E+05  1.380779E+05
        34   1 -5.086153E+05 -2.099143E+06 -5.178915E+05  6.669910E+05 -1.059900E+05  4.746951E+03
        34   2 -2.512220E+05 -1.090352E+06 -2.752113E+05  4.669656E+05 -5.591658E+04  3.093090E+04
        34   3 -9.468719E+03 -9.106321E+04 -5.438007E+04  6.627989E+05 -3.410686E+03  5.707896E+04
        34   4 -8.239531E+03 -4.717750E+04 -7.047790E+04  6.676245E+05 -1.061713E+05 -4.202009E+04
        34   5  4.083411E+03 -4.185329E+04 -4.793786E+04  4.696931E+05 -5.613546E+04 -1.813735E+04
        34   6  1.255074E+03 -4.655013E+04 -4.555957E+04  6.675845E+05 -3.672191E+03  5.668235E+03
        34   7  4.918573E+05  2.008747E+06  3.766906E+05  6.682538E+05 -1.063523E+05 -8.893994E+04
        34   8  2.593174E+05  1.007684E+06  1.792792E+05  4.724238E+05 -5.635455E+04 -6.728746E+04
        34   9  1.198025E+04 -2.029444E+03 -3.672923E+04  6.723704E+05 -3.934478E+03 -4.574610E+04
        34  10 -5.086274E+05 -2.099146E+06 -5.179126E+05  6.669914E+05 -1.118340E-09  1.116100E-09
        34  11 -2.512256E+05 -1.090354E+06 -2.752190E+05  4.669670E+05  1.748173E-09  7.176778E-09
        34  12 -9.469606E+03 -9.106671E+04 -5.438621E+04  6.627991E+05 -1.243307E-10  2.991791E-09
        34  13 -8.252103E+03 -4.718242E+04 -7.050238E+04  6.676209E+05 -3.173206E-10  1.507138E-10
        34  14  4.079940E+03 -4.185449E+04 -4.794440E+04  4.696923E+05 -3.838189E-09  4.148905E-09
        34  15  1.255051E+03 -4.655017E+04 -4.555966E+04  6.675845E+05  1.454725E-09  1.241634E-09
        34  16  4.918430E+05  2.008735E+06  3.766546E+05  6.682462E+05 -4.340008E-09 -1.864676E-09
        34  17  2.593128E+05  1.007678E+06  1.792648E+05  4.724207E+05 -4.095861E-09 -9.986031E-10
        34  18  1.197967E+04 -2.031695E+03 -3.673319E+04  6.723702E+05  3.674855E-10 -3.027980E-09
        34  19 -5.086153E+05 -2.099143E+06 -5.178915E+05  6.669910E+05  1.059900E+05 -4.746951E+03
        34  20 -2.512220E+05 -1.090352E+06 -2.752113E+05  4.669656E+05  5.591658E+04 -3.093090E+04
        34  21 -9.468719E+03 -9.106321E+04 -5.438007E+04  6.627989E+05  3.410686E+03 -5.707896E+04
        34  22 -8.239531E+03 -4.717750E+04 -7.047790E+04  6.676245E+05  1.061713E+05  4.202009E+04
        34  23  4.083411E+03 -4.185329E+04 -4.793786E+04  4.696931E+05  5.613546E+04  1.813735E+04
        34  24  1.255074E+03 -4.655013E+04 -4.555957E+04  6.675845E+05  3.672191E+03 -5.668235E+03
        34  25  4.918573E+05  2.008747E+06  3.766906E+05  6.682538E+05  1.063523E+05  8.893994E+04
        34  26  2.593174E+05  1.007684E+06  1.792792E+05  4.724238E+05  5.635455E+04  6.728746E+04
        34  27  1.198025E+04 -2.029444E+03 -3.672923E+04  6.723704E+05  3.934478E+03  4.574610E+04
        35   1  1.947011E+05  7.042700E+05  1.176842E+05  6.844493E+05  3.779558E+04  8.559142E+04
        35   2  4.308838E+05  1.719281E+06  3.274807E+05  4.567557E+05  7.298800E+04  4.293409E+04
        35   3  5.834334E+05  2.717746E+06  5.434550E+05  6.215622E+05  2.807188E+04  4.804801E+02
        35   4  1.035414E+04 -5.132177E+04 -4.783459E+04  6.667729E+05  3.743196E+04  1.301693E+04
        35   5  1.691258E+03 -3.637886E+04 -6.546783E+04  4.706796E+05  7.302306E+04  4.733124E+04
        35   6 -1.040433E+05 -5.236892E+04 -1.303678E+05  6.672078E+05  2.839899E+04  8.191573E+04
        35   7 -1.740271E+05 -8.063677E+05 -2.133681E+05  6.491175E+05  3.707221E+04 -5.947041E+04
        35   8 -4.277101E+05 -1.789172E+06 -4.586107E+05  4.845597E+05  7.305839E+04  5.171597E+04
        35   9 -7.920715E+05 -2.815482E+06 -8.047203E+05  7.126397E+05  2.873894E+04  1.629891E+05
        35  10  1.946976E+05  7.042617E+05  1.176677E+05  6.844467E+05  1.908181E-09 -9.657251E-10
        35  11  4.308776E+05  1.719277E+06  3.274673E+05  4.567532E+05  1.655387E-09  4.257616E-09
        35  12  5.834326E+05  2.717746E+06  5.434535E+05  6.215622E+05 -4.092841E-10  5.655371E-10
        35  13  1.035259E+04 -5.132233E+04 -4.783753E+04  6.667725E+05  9.628569E-10 -7.278478E-11
        35  14  1.684934E+03 -3.638269E+04 -6.548204E+04  4.706768E+05  4.669194E-09  3.778972E-09
        35  15 -1.040460E+05 -5.237634E+04 -1.303819E+05  6.672060E+05 -1.337773E-09  9.110463E-10
        35  16 -1.740295E+05 -8.063719E+05 -2.133773E+05  6.491193E+05  2.162771E-09 -1.752634E-10
        35  17 -4.277165E+05 -1.789176E+06 -4.586258E+05  4.845567E+05 -5.263622E-11  1.542142E-09
        35  18 -7.920796E+05 -2.815511E+06 -8.047719E+05  7.126359E+05 -5.989273E-11 -5.926163E-10
        35  19  1.947011E+05  7.042700E+05  1.176842E+05  6.844493E+05 -3.779558E+04 -8.559142E+04
        35  20  4.308838E+05  1.719281E+06  3.274807E+05  4.567557E+05 -7.298800E+04 -4.293409E+04
        35  21  5.834334E+05  2.717746E+06  5.434550E+05  6.215622E+05 -2.807188E+04 -4.804801E+02
        35  22  1.035414E+04 -5.132177E+04 -4.783459E+04  6.667729E+05 -3.743196E+04 -1.301693E+04
        35  23  1.691258E+03 -3.637886E+04 -6.546783E+04  4.706796E+05 -7.302306E+04 -4.733124E+04
        35  24 -1.040433E+05 -5.236892E+04 -1.303678E+05  6.672078E+05 -2.839899E+04 -8.191573E+04
        35  25 -1.740271E+05 -8.063677E+05 -2.133681E+05  6.491175E+05 -3.707221E+04  5.947041E+04
        35  26 -4.277101E+05 -1.789172E+06 -4.586107E+05  4.845597E+05 -7.305839E+04 -5.171597E+04
        35  27 -7.920715E+05 -2.815482E+06 -8.047203E+05  7.126397E+05 -2.873894E+04 -1.629891E+05
        36   1  1.268470E+06  4.318562E+04  5.167334E+04  2.120703E+04  3.481264E+04  1.186848E+00
        36   2  1.262655E+06  5.943423E+02  2.425875E+04  7.589552E+03  2.200400E+04  2.684713E-01
        36   3  1.268497E+06 -2.007663E+03  1.516809E+04 -6.027538E+03  9.195516E+03 -8.910291E-02
        36   4  1.268470E+06  4.318478E+04  5.167322E+04 -1.796714E-08  3.481264E+04 -9.998732E-10
        36   5  1.262655E+06  5.942343E+02  2.425873E+04  7.324924E-09  2.200400E+04 -1.393462E-09
        36   6  1.268497E+06 -2.007731E+03  1.516808E+04 -2.396074E-09  9.195516E+03  2.392200E-09
        36   7  1.268470E+06  4.318562E+04  5.167334E+04 -2.120703E+04  3.481264E+04 -1.186848E+00
        36   8  1.262655E+06  5.943423E+02  2.425875E+04 -7.589552E+03  2.200400E+04 -2.684713E-01
        36   9  1.268497E+06 -2.007663E+03  1.516809E+04  6.027538E+03  9.195516E+03  8.910292E-02
        36  10  1.268469E+06  4.318530E+04  5.167106E+04  2.120703E+04  2.051042E-09 -3.990333E-10
        36  11  1.262655E+06  5.942127E+02  2.425784E+04  7.589552E+03 -2.353916E-10 -3.254183E-10
        36  12  1.268497E+06 -2.007686E+03  1.516793E+04 -6.027538E+03  5.565591E-10  1.935288E-09
        36  13  1.268468E+06  4.318446E+04  5.167094E+04 -1.393490E-08 -2.592666E-09 -4.308209E-10
        36  14  1.262655E+06  5.941046E+02  2.425783E+04  1.020958E-09  2.778222E-09 -6.656786E-10
        36  15  1.268497E+06 -2.007754E+03  1.516792E+04  1.973203E-09  3.627983E-09  1.028932E-09
        36  16  1.268469E+06  4.318530E+04  5.167106E+04 -2.120703E+04 -9.819123E-10 -5.060168E-10
        36  17  1.262655E+06  5.942127E+02  2.425784E+04 -7.589552E+03  2.154855E-09 -1.005699E-09
        36  18  1.268497E+06 -2.007686E+03  1.516793E+04  6.027538E+03  1.171145E-09  4.900073E-11
        36  19  1.268470E+06  4.318562E+04  5.167334E+04  2.120703E+04 -3.481264E+04 -1.186848E+00
        36  20  1.262655E+06  5.943423E+02  2.425875E+04  7.589552E+03 -2.200400E+04 -2.684713E-01
        36  21  1.268497E+06 -2.007663E+03  1.516809E+04 -6.027538E+03 -9.195516E+03  8.910292E-02
        36  22  1.268470E+06  4.318478E+04  5.167322E+04 -2.282263E-08 -3.481264E+04  1.523795E-10
        36  23  1.262655E+06  5.942343E+02  2.425873E+04 -5.279876E-09 -2.200400E+04  8.387185E-11
        36  24  1.268497E+06 -2.007731E+03  1.516808E+04 -9.830762E-09 -9.195516E+03 -3.672553E-10
        36  25  1.268470E+06  4.318562E+04  5.167334E+04 -2.120703E+04 -3.481264E+04  1.186848E+00
        36  26  1.262655E+06  5.943423E+02  2.425875E+04 -7.589552E+03 -2.200400E+04  2.684713E-01
        36  27  1.268497E+06 -2.007663E+03  1.516809E+04  6.027538E+03 -9.195516E+03 -8.910292E-02
        37   1  1.266173E+06  2.176367E+03  1.282225E+04  8.782236E+02  6.958657E+03  9.824447E-03
        37   2  1.265564E+06 -9.333285E+01  9.362813E+03  2.881931E+02  2.282227E+03  1.057352E-03
        37   3  1.266175E+06  8.411497E+01  9.555190E+03 -3.018464E+02 -2.394267E+03  1.161810E-03
        37   4  1.266173E+06  2.176365E+03  1.282225E+04  1.682359E-08  6.958657E+03  3.106241E-09
        37   5  1.265564E+06 -9.333301E+01  9.362813E+03  4.399786E-09  2.282227E+03  2.021668E-11
        37   6  1.266175E+06  8.411480E+01  9.555190E+03 -3.173051E-09 -2.394267E+03 -1.573701E-09
        37   7  1.266173E+06  2.176367E+03  1.282225E+04 -8.782236E+02  6.958657E+03 -9.824441E-03
        37   8  1.265564E+06 -9.333285E+01  9.362813E+03 -2.881931E+02  2.282227E+03 -1.057352E-03
        37   9  1.266175E+06  8.411497E+01  9.555190E+03  3.018464E+02 -2.394267E+03 -1.161813E-03
        37  10  1.266173E+06  2.176354E+03  1.282216E+04  8.782236E+02  8.083720E-10  1.387973E-09
        37  11  1.265564E+06 -9.333425E+01  9.362803E+03  2.881931E+02  2.733749E-09 -1.754875E-09
        37  12  1.266175E+06  8.411344E+01  9.555180E+03 -3.018464E+02  6.803164E-10 -1.204205E-09
        37  13  1.266173E+06  2.176352E+03  1.282216E+04 -9.768251E-10  4.565722E-10  1.093086E-09
        37  14  1.265564E+06 -9.333440E+01  9.362803E+03 -6.594381E-09 -2.547731E-09 -6.264095E-10
        37  15  1.266175E+06  8.411327E+01  9.555180E+03  5.019934E-09 -6.619559E-09 -8.450529E-10
        37  16  1.266173E+06  2.176354E+03  1.282216E+04 -8.782236E+02 -3.500463E-09  7.830535E-10
        37  17  1.265564E+06 -9.333425E+01  9.362803E+03 -2.881931E+02 -3.100250E-10  4.096445E-10
        37  18  1.266175E+06  8.411344E+01  9.555180E+03  3.018464E+02 -5.965248E-10 -4.614746E-10
        37  19  1.266173E+06  2.176367E+03  1.282225E+04  8.782236E+02 -6.958657E+03 -9.824444E-03
        37  20  1.265564E+06 -9.333285E+01  9.362813E+03  2.881931E+02 -2.282227E+03 -1.057356E-03
        37  21  1.266175E+06  8.411497E+01  9.555190E+03 -3.018464E+02  2.394267E+03 -1.161812E-03
        37  22  1.266173E+06  2.176365E+03  1.282225E+04  7.070611E-09 -6.958657E+03 -9.080840E-10
        37  23  1.265564E+06 -9.333301E+01  9.362813E+03 -1.543772E-08 -2.282227E+03 -1.256277E-09
        37  24  1.266175E+06  8.411480E+01  9.555190E+03 -1.154685E-08  2.394267E+03 -1.492981E-10
        37  25  1.266173E+06  2.176367E+03  1.282225E+04 -8.782236E+02 -6.958657E+03  9.824443E-03
        37  26  1.265564E+06 -9.333285E+01  9.362813E+03 -2.881931E+02 -2.282227E+03  1.057353E-03
        37  27  1.266175E+06  8.411497E+01  9.555190E+03  3.018464E+02  2.394267E+03  1.161812E-03
        38   1  1.266419E+06 -2.112141E+02  1.065704E+04  9.603959E+02 -4.177074E+03 -6.449109E-03
        38   2  1.265257E+06 -1.244267E+02  1.546807E+04 -4.445866E+02 -1.192747E+04  8.524769E-03
        38   3  1.266412E+06  5.202674E+03  2.662767E+04 -1.849564E+03 -1.967792E+04  5.850947E-02
        38   4  1.266419E+06 -2.112159E+02  1.065704E+04 -1.387133E-08 -4.177074E+03 -1.151940E-09
        38   5  1.265257E+06 -1.244270E+02  1.546807E+04  3.131013E-09 -1.192747E+04  5.694300E-10
        38   6  1.266412E+06  5.202667E+03  2.662767E+04  1.261176E-08 -1.967792E+04  1.674641E-09
        38   7  1.266419E+06 -2.112141E+02  1.065704E+04 -9.603959E+02 -4.177074E+03  6.449106E-03
        38   8  1.265257E+06 -1.244267E+02  1.546807E+04  4.445866E+02 -1.192747E+04 -8.524767E-03
        38   9  1.266412E+06  5.202674E+03  2.662767E+04  1.849564E+03 -1.967792E+04 -5.850947E-02
        38  10  1.266419E+06 -2.112188E+02  1.065701E+04  9.603959E+02 -1.500395E-09  1.863322E-10
        38  11  1.265257E+06 -1.244648E+02  1.546781E+04 -4.445866E+02  1.605202E-09  1.081733E-09
        38  12  1.266411E+06  5.202570E+03  2.662694E+04 -1.849564E+03  2.264461E-09  1.953921E-10
        38  13  1.266419E+06 -2.112205E+02  1.065701E+04 -4.838487E-09  2.138220E-09 -1.291479E-11
        38  14  1.265257E+06 -1.244651E+02  1.546781E+04  7.523200E-09 -1.927058E-09  1.126193E-09
        38  15  1.266411E+06  5.202564E+03  2.662694E+04  1.233384E-08 -2.595485E-09  7.145304E-10
        38  16  1.266419E+06 -2.112188E+02  1.065701E+04 -9.603959E+02  2.991842E-09 -1.953977E-10
        38  17  1.265257E+06 -1.244648E+02  1.546781E+04  4.445866E+02  1.952396E-11  1.036006E-09
        38  18  1.266411E+06  5.202570E+03  2.662694E+04  1.849564E+03 -3.414504E-09  1.253600E-09
        38  19  1.266419E+06 -2.112141E+02  1.065704E+04  9.603959E+02  4.177074E+03  6.449109E-03
        38  20  1.265257E+06 -1.244267E+02  1.546807E+04 -4.445866E+02  1.192747E+04 -8.524766E-03
        38  21  1.266412E+06  5.202674E+03  2.662767E+04 -1.849564E+03  1.967792E+04 -5.850947E-02
        38  22  1.266419E+06 -2.112159E+02  1.065704E+04 -8.716908E-09  4.177074E+03  1.121271E-09
        38  23  1.265257E+06 -1.244270E+02  1.546807E+04  3.297377E-09  1.192747E+04  1.685932E-09
        38  24  1.266412E+06  5.202667E+03  2.662767E+04 -1.368830E-09  1.967792E+04 -2.223252E-10
        38  25  1.266419E+06 -2.112141E+02  1.065704E+04 -9.603959E+02  4.177074E+03 -6.449107E-03
        38  26  1.265257E+06 -1.244267E+02  1.546807E+04  4.445866E+02  1.192747E+04  8.524770E-03
        38  27  1.266412E+06  5.202674E+03  2.662767E+04  1.849564E+03  1.967792E+04  5.850947E-02
        39   1  1.272020E+06 -4.742294E+03  3.318146E+04  1.439762E+04 -2.439023E+04 -5.645216E-01
        39   2  1.258236E+06  1.426898E+03  5.615446E+04 -1.786285E+04 -5.407990E+04  1.552997E+00
        39   3  1.271957E+06  1.022261E+05  1.220879E+05 -5.012385E+04 -8.376899E+04  6.750055E+00
        39   4  1.272020E+06 -4.742683E+03  3.318141E+04  7.830104E-09 -2.439023E+04  1.492360E-09
        39   5  1.258235E+06  1.426299E+03  5.615437E+04  1.100336E-08 -5.407990E+04  4.771233E-10
        39   6  1.271955E+06  1.022213E+05  1.220872E+05  8.250503E-09 -8.376899E+04  1.081177E-10
        39   7  1.272020E+06 -4.742294E+03  3.318146E+04 -1.439762E+04 -2.439023E+04  5.645216E-01
        39   8  1.258236E+06  1.426898E+03  5.615446E+04  1.786285E+04 -5.407990E+04 -1.552997E+00
        39   9  1.271957E+06  1.022261E+05  1.220879E+05  5.012385E+04 -8.376899E+04 -6.750055E+00
        39  10  1.272019E+06 -4.742453E+03  3.318035E+04  1.439762E+04  2.886447E-09 -4.602865E-10
        39  11  1.258233E+06  1.426114E+03  5.614897E+04 -1.786285E+04  5.362694E-10 -3.923827E-10
        39  12  1.271950E+06  1.022242E+05  1.220747E+05 -5.012385E+04  1.718216E-09 -1.076772E-10
        39  13  1.272019E+06 -4.742842E+03  3.318029E+04  3.288491E-09  1.254201E-09 -3.493178E-11
        39  14  1.258232E+06  1.425516E+03  5.614889E+04  2.356035E-09 -1.077568E-09 -6.169787E-10
        39  15  1.271947E+06  1.022195E+05  1.220740E+05  2.299130E-08 -6.078806E-09 -2.787182E-10
        39  16  1.272019E+06 -4.742453E+03  3.318035E+04 -1.439762E+04 -4.172396E-09  4.060822E-10
        39  17  1.258233E+06  1.426114E+03  5.614897E+04  1.786285E+04  7.422319E-10 -8.896455E-10
        39  18  1.271950E+06  1.022242E+05  1.220747E+05  5.012385E+04 -3.324520E-09 -4.133584E-10
        39  19  1.272020E+06 -4.742294E+03  3.318146E+04  1.439762E+04  2.439023E+04  5.645216E-01
        39  20  1.258236E+06  1.426898E+03  5.615446E+04 -1.786285E+04  5.407990E+04 -1.552997E+00
        39  21  1.271957E+06  1.022261E+05  1.220879E+05 -5.012385E+04  8.376899E+04 -6.750055E+00
        39  22  1.272020E+06 -4.742683E+03  3.318141E+04 -2.280964E-08  2.439023E+04 -1.562726E-09
        39  23  1.258235E+06  1.426299E+03  5.615437E+04 -6.289278E-09  5.407990E+04 -1.745132E-09
        39  24  1.271955E+06  1.022213E+05  1.220872E+05  9.707035E-09  8.376899E+04 -6.602308E-10
        39  25  1.272020E+06 -4.742294E+03  3.318146E+04 -1.439762E+04  2.439023E+04 -5.645216E-01
        39  26  1.258236E+06  1.426898E+03  5.615446E+04  1.786285E+04  5.407990E+04  1.552997E+00
        39  27  1.271957E+06  1.022261E+05  1.220879E+05  5.012385E+04  8.376899E+04  6.750055E+00
        40   1 -1.271781E+06 -4.398150E+06 -1.280931E+06  6.775752E+05 -5.303718E+04 -3.003997E+05
        40   2 -8.555262E+05 -3.470367E+06 -8.755726E+05  4.463470E+05 -1.557530E+05 -1.319125E+05
        40   3 -6.221501E+05 -2.607165E+06 -6.256868E+05  5.628336E+05 -1.375129E+05  3.671528E+04
        40   4 -1.793944E+05 -1.328635E+04 -2.146840E+05  5.946032E+05 -5.275646E+04 -1.448792E+05
        40   5 -3.183196E+03  1.006093E+04 -1.007855E+05  4.205797E+05 -1.555884E+05 -9.146208E+04
        40   6  1.083590E+04 -1.144481E+04 -6.169783E+04  5.942459E+05 -1.377370E+05 -3.816349E+04
        40   7  9.116161E+05  4.389275E+06  8.502662E+05  5.110262E+05 -5.251903E+04  1.174545E+04
        40   8  8.483417E+05  3.501833E+06  6.732516E+05  3.946556E+05 -1.554278E+05 -5.078533E+04
        40   9  6.433809E+05  2.590625E+06  5.019101E+05  6.257833E+05 -1.379681E+05 -1.133520E+05
        40  10 -1.271809E+06 -4.398249E+06 -1.281107E+06  6.775624E+05 -1.028457E-09 -3.451233E-09
        40  11 -8.555569E+05 -3.470392E+06 -8.756510E+05  4.463304E+05  8.408238E-10  1.126091E-08
        40  12 -6.221708E+05 -2.607171E+06 -6.257249E+05  5.628377E+05  2.281642E-10  1.875786E-08
        40  13 -1.794030E+05 -1.330963E+04 -2.147286E+05  5.945971E+05  2.245458E-09  4.659497E-10
        40  14 -3.211425E+03  1.004546E+04 -1.008467E+05  4.205682E+05  2.369098E-09  2.022669E-11
        40  15  1.081515E+04 -1.145146E+04 -6.173620E+04  5.942417E+05  1.855569E-09  2.926718E-09
        40  16  9.116131E+05  4.389274E+06  8.502607E+05  5.110267E+05 -2.113463E-09  3.727778E-09
        40  17  8.483151E+05  3.501823E+06  6.732014E+05  3.946492E+05 -2.888108E-09 -9.865253E-09
        40  18  6.433570E+05  2.590606E+06  5.018503E+05  6.257708E+05 -5.949125E-10 -1.914109E-08
        40  19 -1.271781E+06 -4.398150E+06 -1.280931E+06  6.775752E+05  5.303718E+04  3.003997E+05
        40  20 -8.555262E+05 -3.470367E+06 -8.755726E+05  4.463470E+05  1.557530E+05  1.319125E+05
        40  21 -6.221501E+05 -2.607165E+06 -6.256868E+05  5.628336E+05  1.375129E+05 -3.671528E+04
        40  22 -1.793944E+05 -1.328635E+04 -2.146840E+05  5.946032E+05  5.275646E+04  1.448792E+05
        40  23 -3.183196E+03  1.006093E+04 -1.007855E+05  4.205797E+05  1.555884E+05  9.146208E+04
        40  24  1.083590E+04 -1.144481E+04 -6.169783E+04  5.942459E+05  1.377370E+05  3.816349E+04
        40  25  9.116161E+05  4.389275E+06  8.502662E+05  5.110262E+05  5.251903E+04 -1.174545E+04
        40  26  8.483417E+05  3.501833E+06  6.732516E+05  3.946556E+05  1.554278E+05  5.078533E+04
        40  27  6.433809E+05  2.590625E+06  5.019101E+05  6.257833E+05  1.379681E+05  1.133520E+05
        41   1 -4.646244E+05 -1.885232E+06 -4.621788E+05  5.945229E+05 -9.723575E+04  1.217713E+04
        41   2 -2.372339E+05 -9.861589E+05 -2.503439E+05  4.165703E+05 -5.267085E+04  3.240889E+04
        41   3 -2.158788E+04 -9.441243E+04 -5.532459E+04  5.916189E+05 -5.815204E+03  5.260402E+04
        41   4 -5.575627E+03 -2.477677E+03 -5.174580E+04  5.955174E+05 -9.738024E+04 -2.939652E+04
        41   5  3.267728E+03  1.627970E+03 -3.624933E+04  4.190205E+05 -5.284707E+04 -1.134397E+04
        41   6  8.126853E+02 -1.950813E+03 -3.599139E+04  5.954936E+05 -6.027412E+03  6.643512E+03
        41   7  4.532383E+05  1.883609E+06  3.584806E+05  5.965102E+05 -9.752461E+04 -7.109482E+04
        41   8  2.437059E+05  9.903355E+05  1.777944E+05  4.214734E+05 -5.302348E+04 -5.516560E+04
        41   9  2.321389E+04  9.052345E+04 -1.665071E+04  5.993688E+05 -6.240175E+03 -3.932373E+04
        41  10 -4.646346E+05 -1.885235E+06 -4.621969E+05  5.945238E+05  1.484107E-09 -1.538706E-08
        41  11 -2.372372E+05 -9.861608E+05 -2.503511E+05  4.165717E+05 -2.642900E-09 -4.796894E-09
        41  12 -2.158866E+04 -9.441541E+04 -5.532986E+04  5.916192E+05 -6.751627E-09  3.397865E-09
        41  13 -5.586038E+03 -2.481146E+03 -5.176524E+04  5.955151E+05 -3.006345E-09  3.360723E-09
        41  14  3.264695E+03  1.627083E+03 -3.625482E+04  4.190200E+05 -4.934025E-09  4.422753E-11
        41  15  8.126344E+02 -1.950870E+03 -3.599154E+04  5.954936E+05  1.397734E-09  3.850842E-09
        41  16  4.532267E+05  1.883601E+06  3.584533E+05  5.965046E+05 -4.840456E-09  1.709889E-08
        41  17  2.437020E+05  9.903315E+05  1.777834E+05  4.214710E+05  2.861239E-09  7.686259E-09
        41  18  2.321343E+04  9.052178E+04 -1.665369E+04  5.993686E+05  6.948084E-10 -4.155753E-09
        41  19 -4.646244E+05 -1.885232E+06 -4.621788E+05  5.945229E+05  9.723575E+04 -1.217713E+04
        41  20 -2.372339E+05 -9.861589E+05 -2.503439E+05  4.165703E+05  5.267085E+04 -3.240889E+04
        41  21 -2.158788E+04 -9.441243E+04 -5.532459E+04  5.916189E+05  5.815204E+03 -5.260402E+04
        41  22 -5.575627E+03 -2.477677E+03 -5.174580E+04  5.955174E+05  9.738024E+04  2.939652E+04
        41  23  3.267728E+03  1.627970E+03 -3.624933E+04  4.190205E+05  5.284707E+04  1.134397E+04
        41  24  8.126853E+02 -1.950813E+03 -3.599139E+04  5.954936E+05  6.027412E+03 -6.643512E+03
        41  25  4.532383E+05  1.883609E+06  3.584806E+05  5.965102E+05  9.752461E+04  7.109482E+04
        41  26  2.437059E+05  9.903355E+05  1.777944E+05  4.214734E+05  5.302348E+04  5.516560E+04
        41  27  2.321389E+04  9.052345E+04 -1.665071E+04  5.993688E+05  6.240175E+03  3.932373E+04
        42   1  1.601229E+05  6.148655E+05  9.770436E+04  6.094056E+05  3.081108E+04  7.690624E+04
        42   2  3.712922E+05  1.519207E+06  2.847028E+05  4.080103E+05  6.259031E+04  3.793091E+04
        42   3  5.128272E+05  2.410115E+06  4.790879E+05  5.566957E+05  2.427358E+04 -8.798964E+02
        42   4  8.600903E+03 -6.088254E+03 -3.847761E+04  5.947931E+05  3.051700E+04  1.247809E+04
        42   5  1.397471E+03  6.475786E+03 -5.409248E+04  4.198742E+05  6.261373E+04  4.084951E+04
        42   6 -8.718065E+04 -6.891031E+03 -1.090775E+05  5.951285E+05  2.453402E+04  6.943958E+04
        42   7 -1.429439E+05 -6.266721E+05 -1.746674E+05  5.801947E+05  3.022577E+04 -5.188646E+04
        42   8 -3.686524E+05 -1.504127E+06 -3.930323E+05  4.317062E+05  6.263731E+04  4.376098E+04
        42   9 -6.876091E+05 -2.418566E+06 -6.976469E+05  6.334046E+05  2.480376E+04  1.394864E+05
        42  10  1.601203E+05  6.148589E+05  9.769148E+04  6.094037E+05 -2.411677E-09  4.139747E-09
        42  11  3.712876E+05  1.519204E+06  2.846928E+05  4.080084E+05 -1.879513E-09  3.598059E-09
        42  12  5.128265E+05  2.410115E+06  4.790867E+05  5.566958E+05  2.925151E-09 -1.684180E-09
        42  13  8.599862E+03 -6.088671E+03 -3.847965E+04  5.947928E+05 -2.294437E-09  3.842489E-09
        42  14  1.392816E+03  6.472944E+03 -5.410298E+04  4.198721E+05  1.152750E-09 -6.281101E-11
        42  15 -8.718258E+04 -6.896368E+03 -1.090877E+05  5.951272E+05  8.203854E-10  2.839218E-09
        42  16 -1.429456E+05 -6.266753E+05 -1.746741E+05  5.801960E+05  4.276811E-09 -2.289379E-09
        42  17 -3.686571E+05 -1.504130E+06 -3.930432E+05  4.317040E+05  3.402855E-09 -9.293737E-10
        42  18 -6.876150E+05 -2.418587E+06 -6.976847E+05  6.334019E+05  8.756015E-10  1.258734E-09
        42  19  1.601229E+05  6.148655E+05  9.770436E+04  6.094056E+05 -3.081108E+04 -7.690624E+04
        42  20  3.712922E+05  1.519207E+06  2.847028E+05  4.080103E+05 -6.259031E+04 -3.793091E+04
        42  21  5.128272E+05  2.410115E+06  4.790879E+05  5.566957E+05 -2.427358E+04  8.798964E+02
        42  22  8.600903E+03 -6.088254E+03 -3.847761E+04  5.947931E+05 -3.051700E+04 -1.247809E+04
        42  23  1.397471E+03  6.475786E+03 -5.409248E+04  4.198742E+05 -6.261373E+04 -4.084951E+04
        42  24 -8.718065E+04 -6.891031E+03 -1.090775E+05  5.951285E+05 -2.453402E+04 -6.943958E+04
        42  25 -1.429439E+05 -6.266721E+05 -1.746674E+05  5.801947E+05 -3.022577E+04  5.188646E+04
        42  26 -3.686524E+05 -1.504127E+06 -3.930323E+05  4.317062E+05 -6.263731E+04 -4.376098E+04
        42  27 -6.876091E+05 -2.418566E+06 -6.976469E+05  6.334046E+05 -2.480376E+04 -1.394864E+05
        43   1  7.863768E+05  1.792831E+04  2.149218E+04  8.812328E+03  1.421092E+04  2.014708E-01
        43   2  7.839520E+05  2.419972E+02  1.028882E+04  3.166584E+03  8.786444E+03  4.476145E-02
        43   3  7.863837E+05 -8.353436E+02  6.766090E+03 -2.479212E+03  3.361880E+03 -1.340893E-02
        43   4  7.863767E+05  1.792816E+04  2.149216E+04  7.519092E-09  1.421092E+04 -3.403982E-10
        43   5  7.839520E+05  2.419784E+02  1.028882E+04  2.658790E-08  8.786444E+03 -4.449456E-10
        43   6  7.863837E+05 -8.353552E+02  6.766088E+03  6.857837E-09  3.361880E+03  9.905789E-10
        43   7  7.863768E+05  1.792831E+04  2.149218E+04 -8.812328E+03  1.421092E+04 -2.014708E-01
        43   8  7.839520E+05  2.419972E+02  1.028882E+04 -3.166584E+03  8.786444E+03 -4.476145E-02
        43   9  7.863837E+05 -8.353436E+02  6.766090E+03  2.479212E+03  3.361880E+03  1.340893E-02
        43  10  7.863766E+05  1.792825E+04  2.149180E+04  8.812328E+03  1.594679E-09 -7.187613E-10
        43  11  7.839519E+05  2.419765E+02  1.028867E+04  3.166584E+03  7.739446E-09 -9.454856E-10
        43  12  7.863837E+05 -8.353467E+02  6.766068E+03 -2.479212E+03  1.391683E-09  1.955233E-09
        43  13  7.863765E+05  1.792811E+04  2.149178E+04  3.060370E-09  2.909285E-10 -2.721922E-10
        43  14  7.839519E+05  2.419577E+02  1.028867E+04  1.385593E-08 -6.181426E-09 -2.212552E-10
        43  15  7.863837E+05 -8.353582E+02  6.766067E+03  1.387631E-08 -4.383039E-09  1.412068E-09
        43  16  7.863766E+05  1.792825E+04  2.149180E+04 -8.812328E+03 -3.561777E-09  1.262122E-10
        43  17  7.839519E+05  2.419765E+02  1.028867E+04 -3.166584E+03 -3.258334E-09  5.193539E-10
        43  18  7.863837E+05 -8.353467E+02  6.766068E+03  2.479212E+03 -1.412999E-09  8.995464E-10
        43  19  7.863768E+05  1.792831E+04  2.149218E+04  8.812328E+03 -1.421092E+04 -2.014708E-01
        43  20  7.839520E+05  2.419972E+02  1.028882E+04  3.166584E+03 -8.786444E+03 -4.476145E-02
        43  21  7.863837E+05 -8.353436E+02  6.766090E+03 -2.479212E+03 -3.361880E+03  1.340893E-02
        43  22  7.863767E+05  1.792816E+04  2.149216E+04 -1.004008E-08 -1.421092E+04 -2.073253E-10
        43  23  7.839520E+05  2.419784E+02  1.028882E+04 -1.181218E-08 -8.786444E+03  9.143942E-12
        43  24  7.863837E+05 -8.353552E+02  6.766088E+03 -1.305525E-08 -3.361880E+03  1.845085E-09
        43  25  7.863768E+05  1.792831E+04  2.149218E+04 -8.812328E+03 -1.421092E+04  2.014708E-01
        43  26  7.839520E+05  2.419972E+02  1.028882E+04 -3.166584E+03 -8.786444E+03  4.476145E-02
        43  27  7.863837E+05 -8.353436E+02  6.766090E+03  2.479212E+03 -3.361880E+03 -1.340893E-02
        44   1  7.854377E+05  8.949152E+02  5.965291E+03  4.041681E+02  2.333395E+03  1.517224E-03
        44   2  7.851354E+05 -5.547110E+01  5.042576E+03  1.606379E+02 -1.805716E+02 -4.666556E-05
        44   3  7.854379E+05  1.060194E+02  6.033010E+03 -8.289223E+01 -2.694539E+03  3.593341E-04
        44   4  7.854377E+05  8.949149E+02  5.965291E+03  1.468977E-08  2.333395E+03  8.153321E-10
        44   5  7.851354E+05 -5.547115E+01  5.042576E+03  5.869209E-09 -1.805716E+02 -5.852386E-10
        44   6  7.854379E+05  1.060194E+02  6.033010E+03  4.052231E-09 -2.694539E+03  4.193569E-10
        44   7  7.854377E+05  8.949152E+02  5.965291E+03 -4.041681E+02  2.333395E+03 -1.517223E-03
        44   8  7.851354E+05 -5.547110E+01  5.042576E+03 -1.606379E+02 -1.805716E+02  4.666440E-05
        44   9  7.854379E+05  1.060194E+02  6.033010E+03  8.289223E+01 -2.694539E+03 -3.593333E-04
        44  10  7.854377E+05  8.949138E+02  5.965281E+03  4.041681E+02  2.810672E-10  2.300801E-09
        44  11  7.851354E+05 -5.547111E+01  5.042576E+03  1.606379E+02  1.109349E-09  2.366773E-10
        44  12  7.854379E+05  1.060175E+02  6.032997E+03 -8.289223E+01 -7.291411E-10  1.184768E-09
        44  13  7.854377E+05  8.949135E+02  5.965281E+03  2.266947E-08 -1.879721E-09  1.263816E-09
        44  14  7.851354E+05 -5.547116E+01  5.042576E+03  5.790279E-09 -6.523130E-10 -2.910147E-10
        44  15  7.854379E+05  1.060175E+02  6.032997E+03  3.987154E-09 -3.835142E-09  6.273176E-10
        44  16  7.854377E+05  8.949138E+02  5.965281E+03 -4.041681E+02 -2.535278E-09  2.330190E-10
        44  17  7.851354E+05 -5.547111E+01  5.042576E+03 -1.606379E+02  1.470295E-09 -7.519838E-10
        44  18  7.854379E+05  1.060175E+02  6.032997E+03  8.289223E+01 -8.945713E-10  4.586771E-11
        44  19  7.854377E+05  8.949152E+02  5.965291E+03  4.041681E+02 -2.333395E+03 -1.517220E-03
        44  20  7.851354E+05 -5.547110E+01  5.042576E+03  1.606379E+02  1.805716E+02  4.666600E-05
        44  21  7.854379E+05  1.060194E+02  6.033010E+03 -8.289223E+01  2.694539E+03 -3.593317E-04
        44  22  7.854377E+05  8.949149E+02  5.965291E+03  9.117643E-09 -2.333395E+03  1.707461E-09
        44  23  7.851354E+05 -5.547115E+01  5.042576E+03  5.721873E-09  1.805716E+02 -4.861106E-12
        44  24  7.854379E+05  1.060194E+02  6.033010E+03 -4.147239E-09  2.694539E+03  8.429986E-10
        44  25  7.854377E+05  8.949152E+02  5.965291E+03 -4.041681E+02 -2.333395E+03  1.517223E-03
        44  26  7.851354E+05 -5.547110E+01  5.042576E+03 -1.606379E+02  1.805716E+02 -4.666604E-05
        44  27  7.854379E+05  1.060194E+02  6.033010E+03  8.289223E+01  2.694539E+03  3.593336E-04
        45   1  7.856814E+05 -1.887357E+02  7.131817E+03  7.395453E+02 -3.855228E+03 -4.586841E-03
        45   2  7.848296E+05 -8.665587E+01  1.113149E+04 -3.168595E+02 -9.434470E+03  4.809320E-03
        45   3  7.856780E+05  3.914804E+03  1.973509E+04 -1.373245E+03 -1.501366E+04  3.316913E-02
        45   4  7.856814E+05 -1.887367E+02  7.131817E+03  7.118708E-09 -3.855228E+03  5.280197E-10
        45   5  7.848296E+05 -8.665606E+01  1.113149E+04  1.968872E-08 -9.434470E+03 -1.296550E-10
        45   6  7.856780E+05  3.914801E+03  1.973509E+04 -1.190674E-08 -1.501366E+04  1.539569E-09
        45   7  7.856814E+05 -1.887357E+02  7.131817E+03 -7.395453E+02 -3.855228E+03  4.586842E-03
        45   8  7.848296E+05 -8.665587E+01  1.113149E+04  3.168595E+02 -9.434470E+03 -4.809320E-03
        45   9  7.856780E+05  3.914804E+03  1.973509E+04  1.373245E+03 -1.501366E+04 -3.316913E-02
        45  10  7.856814E+05 -1.887397E+02  7.131790E+03  7.395453E+02  3.427373E-09  8.403292E-10
        45  11  7.848295E+05 -8.667973E+01  1.113132E+04 -3.168595E+02 -5.722368E-11 -1.680513E-09
        45  12  7.856777E+05  3.914744E+03  1.973467E+04 -1.373245E+03  1.499693E-09 -2.081011E-09
        45  13  7.856814E+05 -1.887407E+02  7.131789E+03  1.108172E-08 -2.479530E-09  8.913486E-10
        45  14  7.848295E+05 -8.667992E+01  1.113132E+04  2.210767E-09 -1.077324E-09 -4.146384E-10
        45  15  7.856777E+05  3.914741E+03  1.973467E+04 -2.066516E-08  2.171595E-10 -1.259431E-09
        45  16  7.856814E+05 -1.887397E+02  7.131790E+03 -7.395453E+02 -2.719516E-09  9.363833E-10
        45  17  7.848295E+05 -8.667973E+01  1.113132E+04  3.168595E+02  7.583502E-10  8.761493E-10
        45  18  7.856777E+05  3.914744E+03  1.973467E+04  1.373245E+03 -5.134856E-09 -3.775230E-10
        45  19  7.856814E+05 -1.887357E+02  7.131817E+03  7.395453E+02  3.855228E+03  4.586842E-03
        45  20  7.848296E+05 -8.665587E+01  1.113149E+04 -3.168595E+02  9.434470E+03 -4.809323E-03
        45  21  7.856780E+05  3.914804E+03  1.973509E+04 -1.373245E+03  1.501366E+04 -3.316914E-02
        45  22  7.856814E+05 -1.887367E+02  7.131817E+03 -2.195412E-09  3.855228E+03  1.249308E-09
        45  23  7.848296E+05 -8.665606E+01  1.113149E+04  1.964502E-09  9.434470E+03 -6.963409E-10
        45  24  7.856780E+05  3.914801E+03  1.973509E+04 -2.888395E-08  1.501366E+04 -4.060402E-09
        45  25  7.856814E+05 -1.887357E+02  7.131817E+03 -7.395453E+02  3.855228E+03 -4.586840E-03
        45  26  7.848296E+05 -8.665587E+01  1.113149E+04  3.168595E+02  9.434470E+03  4.809322E-03
        45  27  7.856780E+05  3.914804E+03  1.973509E+04  1.373245E+03  1.501366E+04  3.316913E-02
        46   1  7.898988E+05 -3.564125E+03  2.473309E+04  1.082645E+04 -1.851055E+04 -3.224051E-01
        46   2  7.795485E+05  1.069125E+03  4.210367E+04 -1.340998E+04 -4.077144E+04  8.796057E-01
        46   3  7.898698E+05  7.682766E+04  9.173618E+04 -3.764733E+04 -6.303257E+04  3.817684E+00
        46   4  7.898986E+05 -3.564345E+03  2.473306E+04 -2.357605E-08 -1.851055E+04  1.385921E-09
        46   5  7.795483E+05  1.068787E+03  4.210362E+04  3.875329E-09 -4.077144E+04 -8.181076E-10
        46   6  7.898683E+05  7.682500E+04  9.173580E+04 -4.768599E-09 -6.303257E+04 -4.492701E-10
        46   7  7.898988E+05 -3.564125E+03  2.473309E+04 -1.082645E+04 -1.851055E+04  3.224051E-01
        46   8  7.795485E+05  1.069125E+03  4.210367E+04  1.340998E+04 -4.077144E+04 -8.796057E-01
        46   9  7.898698E+05  7.682766E+04  9.173618E+04  3.764733E+04 -6.303257E+04 -3.817684E+00
        46  10  7.898984E+05 -3.564217E+03  2.473244E+04  1.082645E+04  1.536703E-09 -4.701883E-10
        46  11  7.795467E+05  1.068679E+03  4.210055E+04 -1.340998E+04 -1.781528E-09  2.048029E-09
        46  12  7.898656E+05  7.682660E+04  9.172872E+04 -3.764733E+04  2.190697E-09  1.000198E-09
        46  13  7.898983E+05 -3.564437E+03  2.473241E+04 -1.427461E-08  2.154679E-09 -4.279462E-10
        46  14  7.795465E+05  1.068342E+03  4.210050E+04 -4.619928E-09 -2.293981E-09  1.349956E-09
        46  15  7.898641E+05  7.682394E+04  9.172834E+04 -7.897672E-09 -1.016468E-09  6.687562E-10
        46  16  7.898984E+05 -3.564217E+03  2.473244E+04 -1.082645E+04  7.025324E-10 -3.648412E-10
        46  17  7.795467E+05  1.068679E+03  4.210055E+04  1.340998E+04 -1.724890E-09  7.244380E-10
        46  18  7.898656E+05  7.682660E+04  9.172872E+04  3.764733E+04 -4.024276E-09  3.718493E-10
        46  19  7.898988E+05 -3.564125E+03  2.473309E+04  1.082645E+04  1.851055E+04  3.224051E-01
        46  20  7.795485E+05  1.069125E+03  4.210367E+04 -1.340998E+04  4.077144E+04 -8.796057E-01
        46  21  7.898698E+05  7.682766E+04  9.173618E+04 -3.764733E+04  6.303257E+04 -3.817684E+00
        46  22  7.898986E+05 -3.564345E+03  2.473306E+04 -3.512823E-08  1.851055E+04 -2.251751E-09
        46  23  7.795483E+05  1.068787E+03  4.210362E+04 -4.493526E-09  4.077144E+04  3.564945E-09
        46  24  7.898683E+05  7.682500E+04  9.173580E+04 -9.957708E-09  6.303257E+04  1.784878E-09
        46  25  7.898988E+05 -3.564125E+03  2.473309E+04 -1.082645E+04  1.851055E+04 -3.224051E-01
        46  26  7.795485E+05  1.069125E+03  4.210367E+04  1.340998E+04  4.077144E+04  8.796057E-01
        46  27  7.898698E+05  7.682766E+04  9.173618E+04  3.764733E+04  6.303257E+04  3.817684E+00
        47   1 -1.151268E+06 -4.151529E+06 -1.150647E+06  6.080583E+05 -4.999824E+04 -2.454634E+05
        47   2 -8.080854E+05 -3.295191E+06 -8.014251E+05  4.072284E+05 -1.472816E+05 -1.004249E+05
        47   3 -5.939184E+05 -2.487195E+06 -5.788744E+05  5.294710E+05 -1.307779E+05  4.471587E+04
        47   4 -1.222561E+05 -2.063180E+04 -1.463837E+05  5.524321E+05 -4.976429E+04 -9.835060E+04
        47   5 -2.352996E+03 -4.914839E+03 -6.912057E+04  3.908025E+05 -1.471365E+05 -6.169151E+04
        47   6  7.850932E+03 -1.901222E+04 -4.268743E+04  5.522023E+05 -1.309735E+05 -2.513627E+04
        47   7  9.055225E+05  4.125963E+06  8.567286E+05  4.964212E+05 -4.955801E+04  4.974504E+04
        47   8  8.026470E+05  3.295498E+06  6.625138E+05  3.742797E+05 -1.469939E+05 -2.275357E+04
        47   9  6.092203E+05  2.454910E+06  4.931543E+05  5.750184E+05 -1.311736E+05 -9.526313E+04
        47  10 -1.151287E+06 -4.151595E+06 -1.150766E+06  6.080484E+05  1.695960E-09 -1.265952E-09
        47  11 -8.081114E+05 -3.295208E+06 -8.014849E+05  4.072165E+05  1.373800E-09  2.202866E-09
        47  12 -5.939373E+05 -2.487202E+06 -5.789104E+05  5.294758E+05  4.813443E-09  5.310346E-09
        47  13 -1.222613E+05 -2.064284E+04 -1.464065E+05  5.524281E+05 -4.219948E-10 -8.436133E-12
        47  14 -2.377258E+03 -4.924729E+03 -6.916838E+04  3.907952E+05 -2.759554E-09 -1.781384E-09
        47  15  7.832346E+03 -1.901750E+04 -4.272084E+04  5.521997E+05  6.211946E-09  4.271030E-09
        47  16  9.055192E+05  4.125959E+06  8.567193E+05  4.964231E+05 -2.589000E-09  6.647191E-10
        47  17  8.026237E+05  3.295492E+06  6.624723E+05  3.742770E+05 -7.267471E-10 -3.802727E-09
        47  18  6.091994E+05  2.454896E+06  4.931050E+05  5.750083E+05  5.541633E-09 -4.038355E-09
        47  19 -1.151268E+06 -4.151529E+06 -1.150647E+06  6.080583E+05  4.999824E+04  2.454634E+05
        47  20 -8.080854E+05 -3.295191E+06 -8.014251E+05  4.072284E+05  1.472816E+05  1.004249E+05
        47  21 -5.939184E+05 -2.487195E+06 -5.788744E+05  5.294710E+05  1.307779E+05 -4.471587E+04
        47  22 -1.222561E+05 -2.063180E+04 -1.463837E+05  5.524321E+05  4.976429E+04  9.835060E+04
        47  23 -2.352996E+03 -4.914839E+03 -6.912057E+04  3.908025E+05  1.471365E+05  6.169151E+04
        47  24  7.850932E+03 -1.901222E+04 -4.268743E+04  5.522023E+05  1.309735E+05  2.513627E+04
        47  25  9.055225E+05  4.125963E+06  8.567286E+05  4.964212E+05  4.955801E+04 -4.974504E+04
        47  26  8.026470E+05  3.295498E+06  6.625138E+05  3.742797E+05  1.469939E+05  2.275357E+04
        47  27  6.092203E+05  2.454910E+06  4.931543E+05  5.750184E+05  1.311736E+05  9.526313E+04
        48   1 -4.433434E+05 -1.818564E+06 -4.297527E+05  5.516904E+05 -9.324792E+04  1.942797E+04
        48   2 -2.342713E+05 -9.836514E+05 -2.374518E+05  3.869373E+05 -5.191754E+04  3.471348E+04
        48   3 -3.350994E+04 -1.543431E+05 -5.778994E+04  5.502284E+05 -8.329009E+03  4.995913E+04
        48   4 -3.141281E+03 -1.306374E+04 -3.619746E+04  5.533725E+05 -9.337296E+04 -1.906798E+04
        48   5  2.817896E+03 -9.887434E+03 -2.639590E+04  3.893584E+05 -5.207182E+04 -5.940719E+03
        48   6  8.960261E+02 -1.258098E+04 -2.768669E+04  5.533589E+05 -8.516449E+03  7.126717E+03
        48   7  4.368448E+05  1.795500E+06  3.571674E+05  5.550554E+05 -9.349798E+04 -5.767464E+04
        48   8  2.398453E+05  9.647708E+05  1.846099E+05  3.917823E+05 -5.222628E+04 -4.665791E+04
        48   9  3.530170E+04  1.292040E+05  2.422312E+03  5.564901E+05 -8.704294E+03 -3.571534E+04
        48  10 -4.433529E+05 -1.818567E+06 -4.297698E+05  5.516918E+05  4.385005E-09 -1.265933E-08
        48  11 -2.342745E+05 -9.836534E+05 -2.374592E+05  3.869387E+05 -7.377052E-10  4.636864E-09
        48  12 -3.351068E+04 -1.543458E+05 -5.779476E+04  5.502287E+05  2.041223E-10  2.006114E-08
        48  13 -3.150739E+03 -1.306647E+04 -3.621452E+04  5.533710E+05  4.189472E-09 -5.297022E-11
        48  14  2.814975E+03 -9.888200E+03 -2.640106E+04  3.893581E+05  4.480991E-09 -3.708461E-09
        48  15  8.959345E+02 -1.258106E+04 -2.768692E+04  5.533590E+05 -1.951220E-10  6.001389E-09
        48  16  4.368345E+05  1.795495E+06  3.571448E+05  5.550511E+05  4.475813E-09  7.996128E-09
        48  17  2.398417E+05  9.647677E+05  1.846007E+05  3.917803E+05 -4.449271E-09 -8.200373E-09
        48  18  3.530128E+04  1.292026E+05  2.419775E+03  5.564899E+05  4.409125E-09 -1.837312E-08
        48  19 -4.433434E+05 -1.818564E+06 -4.297527E+05  5.516904E+05  9.324792E+04 -1.942797E+04
        48  20 -2.342713E+05 -9.836514E+05 -2.374518E+05  3.869373E+05  5.191754E+04 -3.471348E+04
        48  21 -3.350994E+04 -1.543431E+05 -5.778994E+04  5.502284E+05  8.329009E+03 -4.995913E+04
        48  22 -3.141281E+03 -1.306374E+04 -3.619746E+04  5.533725E+05  9.337296E+04  1.906798E+04
        48  23  2.817896E+03 -9.887434E+03 -2.639590E+04  3.893584E+05  5.207182E+04  5.940719E+03
        48  24  8.960261E+02 -1.258098E+04 -2.768669E+04  5.533589E+05  8.516449E+03 -7.126717E+03
        48  25  4.368448E+05  1.795500E+06  3.571674E+05  5.550554E+05  9.349798E+04  5.767464E+04
        48  26  2.398453E+05  9.647708E+05  1.846099E+05  3.917823E+05  5.222628E+04  4.665791E+04
        48  27  3.530170E+04  1.292040E+05  2.422312E+03  5.564901E+05  8.704294E+03  3.571534E+04
        49   1  1.346440E+05  5.050650E+05  8.424363E+04  5.647465E+05  2.558997E+04  7.119009E+04
        49   2  3.315308E+05  1.344170E+06  2.587130E+05  3.805541E+05  5.552825E+04  3.297699E+04
        49   3  4.723467E+05  2.173134E+06  4.435092E+05  5.217558E+05  2.174526E+04 -5.093332E+03
        49   4  7.435530E+03 -1.609912E+04 -3.023842E+04  5.527292E+05  2.533132E+04  1.162201E+04
        49   5  1.365833E+03 -5.705165E+03 -4.384419E+04  3.901279E+05  5.554383E+04  3.462725E+04
        49   6 -7.142981E+04 -1.676526E+04 -8.962059E+04  5.529950E+05  2.196974E+04  5.782474E+04
        49   7 -1.197888E+05 -5.370015E+05 -1.447237E+05  5.407218E+05  2.507484E+04 -4.789671E+04
        49   8 -3.289228E+05 -1.353886E+06 -3.465166E+05  3.996787E+05  5.555948E+04  3.627390E+04
        49   9 -6.155528E+05 -2.202288E+06 -6.230827E+05  5.841185E+05  2.220102E+04  1.205217E+05
        49  10  1.346420E+05  5.050594E+05  8.423289E+04  5.647450E+05  9.336302E-11 -2.281034E-08
        49  11  3.315272E+05  1.344168E+06  2.587052E+05  3.805526E+05  2.777006E-09 -1.128090E-08
        49  12  4.723461E+05  2.173134E+06  4.435082E+05  5.217559E+05 -1.633780E-10  2.955588E-09
        49  13  7.434805E+03 -1.609944E+04 -3.023988E+04  5.527290E+05  3.540878E-09 -1.096178E-10
        49  14  1.362200E+03 -5.707279E+03 -4.385223E+04  3.901264E+05 -2.770635E-09 -3.445138E-09
        49  15 -7.143123E+04 -1.676897E+04 -8.962777E+04  5.529940E+05 -2.011346E-09  4.546286E-09
        49  16 -1.197901E+05 -5.370041E+05 -1.447292E+05  5.407228E+05  1.571900E-09  1.702426E-08
        49  17 -3.289265E+05 -1.353888E+06 -3.465249E+05  3.996770E+05 -1.028824E-09  7.840666E-09
        49  18 -6.155572E+05 -2.202304E+06 -6.231110E+05  5.841164E+05  2.073264E-09 -1.576970E-09
        49  19  1.346440E+05  5.050650E+05  8.424363E+04  5.647465E+05 -2.558997E+04 -7.119009E+04
        49  20  3.315308E+05  1.344170E+06  2.587130E+05  3.805541E+05 -5.552825E+04 -3.297699E+04
        49  21  4.723467E+05  2.173134E+06  4.435092E+05  5.217558E+05 -2.174526E+04  5.093332E+03
        49  22  7.435530E+03 -1.609912E+04 -3.023842E+04  5.527292E+05 -2.533132E+04 -1.162201E+04
        49  23  1.365833E+03 -5.705165E+03 -4.384419E+04  3.901279E+05 -5.554383E+04 -3.462725E+04
        49  24 -7.142981E+04 -1.676526E+04 -8.962059E+04  5.529950E+05 -2.196974E+04 -5.782474E+04
        49  25 -1.197888E+05 -5.370015E+05 -1.447237E+05  5.407218E+05 -2.507484E+04  4.789671E+04
        49  26 -3.289228E+05 -1.353886E+06 -3.465166E+05  3.996787E+05 -5.555948E+04 -3.627390E+04
        49  27 -6.155528E+05 -2.202288E+06 -6.230827E+05  5.841185E+05 -2.220102E+04 -1.205217E+05
        50   1  3.010107E+05 -8.083756E+03 -9.611555E+03 -3.946856E+03 -6.864182E+03  4.361770E-02
        50   2  3.020902E+05 -1.153628E+02 -4.211118E+03 -1.392862E+03 -4.630246E+03  1.038328E-02
        50   3  3.010094E+05  3.735010E+02 -2.134404E+03  1.161137E+03 -2.396311E+03 -4.479707E-03
        50   4  3.010107E+05 -8.083785E+03 -9.611559E+03  9.154402E-09 -6.864182E+03 -2.216892E-10
        50   5  3.020902E+05 -1.153664E+02 -4.211118E+03  9.783509E-09 -4.630246E+03  3.032858E-10
        50   6  3.010094E+05  3.734984E+02 -2.134405E+03  2.332188E-09 -2.396311E+03  3.057192E-09
        50   7  3.010107E+05 -8.083756E+03 -9.611555E+03  3.946856E+03 -6.864182E+03 -4.361770E-02
        50   8  3.020902E+05 -1.153628E+02 -4.211118E+03  1.392862E+03 -4.630246E+03 -1.038328E-02
        50   9  3.010094E+05  3.735010E+02 -2.134404E+03 -1.161137E+03 -2.396311E+03  4.479713E-03
        50  10  3.010106E+05 -8.083769E+03 -9.611644E+03 -3.946856E+03  7.096394E-10  3.045168E-10
        50  11  3.020902E+05 -1.153685E+02 -4.211158E+03 -1.392862E+03 -9.812673E-11  1.048738E-09
        50  12  3.010094E+05  3.734994E+02 -2.134415E+03  1.161137E+03 -3.154515E-10  1.316063E-09
        50  13  3.010106E+05 -8.083798E+03 -9.611648E+03  9.225936E-09  2.356328E-09  7.145059E-11
        50  14  3.020902E+05 -1.153722E+02 -4.211158E+03 -2.977136E-09  1.291854E-09  5.872796E-10
        50  15  3.010094E+05  3.734969E+02 -2.134415E+03  7.439011E-09  3.229546E-10  1.545405E-09
        50  16  3.010106E+05 -8.083769E+03 -9.611644E+03  3.946856E+03 -6.275492E-10 -1.536203E-10
        50  17  3.020902E+05 -1.153685E+02 -4.211158E+03  1.392862E+03 -3.835810E-10  1.307674E-10
        50  18  3.010094E+05  3.734994E+02 -2.134415E+03 -1.161137E+03  1.181075E-09  1.780872E-09
        50  19  3.010107E+05 -8.083756E+03 -9.611555E+03 -3.946856E+03  6.864182E+03 -4.361770E-02
        50  20  3.020902E+05 -1.153628E+02 -4.211118E+03 -1.392862E+03  4.630246E+03 -1.038328E-02
        50  21  3.010094E+05  3.735010E+02 -2.134404E+03  1.161137E+03  2.396311E+03  4.479709E-03
        50  22  3.010107E+05 -8.083785E+03 -9.611559E+03  6.753988E-10  6.864182E+03  3.653454E-10
        50  23  3.020902E+05 -1.153664E+02 -4.211118E+03 -9.273033E-09  4.630246E+03  8.806428E-10
        50  24  3.010094E+05  3.734984E+02 -2.134405E+03 -1.453918E-09  2.396311E+03  3.953592E-11
        50  25  3.010107E+05 -8.083756E+03 -9.611555E+03  3.946856E+03  6.864182E+03  4.361770E-02
        50  26  3.020902E+05 -1.153628E+02 -4.211118E+03  1.392862E+03  4.630246E+03  1.038328E-02
        50  27  3.010094E+05  3.735010E+02 -2.134404E+03 -1.161137E+03  2.396311E+03 -4.479709E-03
        51   1  3.014716E+05 -4.208275E+02 -1.436858E+03 -1.051743E+02 -2.128532E+03  3.604252E-04
        51   2  3.015120E+05 -7.435535E+00 -2.158248E+01  7.360893E+00 -2.111379E+03 -2.502250E-05
        51   3  3.014714E+05  9.050233E+01  1.303679E+03  1.198943E+02 -2.094226E+03 -4.042444E-04
        51   4  3.014716E+05 -4.208275E+02 -1.436858E+03 -3.536268E-09 -2.128532E+03  2.419209E-09
        51   5  3.015120E+05 -7.435535E+00 -2.158248E+01  3.752997E-10 -2.111379E+03 -9.126071E-10
        51   6  3.014714E+05  9.050231E+01  1.303679E+03 -1.887194E-08 -2.094226E+03  4.166144E-10
        51   7  3.014716E+05 -4.208275E+02 -1.436858E+03  1.051743E+02 -2.128532E+03 -3.604204E-04
        51   8  3.015120E+05 -7.435535E+00 -2.158248E+01 -7.360893E+00 -2.111379E+03  2.502077E-05
        51   9  3.014714E+05  9.050233E+01  1.303679E+03 -1.198943E+02 -2.094226E+03  4.042453E-04
        51  10  3.014716E+05 -4.208287E+02 -1.436867E+03 -1.051743E+02  1.408119E-09  6.579917E-10
        51  11  3.015120E+05 -7.436731E+00 -2.159085E+01  7.360893E+00  1.545886E-09 -2.323693E-10
        51  12  3.014714E+05  9.050116E+01  1.303671E+03  1.198943E+02 -5.650692E-09  1.026718E-09
        51  13  3.014716E+05 -4.208287E+02 -1.436867E+03  4.467794E-09 -2.154208E-09  1.015575E-09
        51  14  3.015120E+05 -7.436731E+00 -2.159085E+01  6.786380E-09  4.199458E-09 -4.438141E-10
        51  15  3.014714E+05  9.050113E+01  1.303671E+03  8.033119E-09  2.021725E-10  5.610611E-10
        51  16  3.014716E+05 -4.208287E+02 -1.436867E+03  1.051743E+02 -2.535496E-09  1.362701E-09
        51  17  3.015120E+05 -7.436731E+00 -2.159085E+01 -7.360893E+00  4.585652E-09 -6.774419E-10
        51  18  3.014714E+05  9.050116E+01  1.303671E+03 -1.198943E+02  3.826549E-09  1.050484E-10
        51  19  3.014716E+05 -4.208275E+02 -1.436858E+03 -1.051743E+02  2.128532E+03 -3.604239E-04
        51  20  3.015120E+05 -7.435535E+00 -2.158248E+01  7.360893E+00  2.111379E+03  2.502203E-05
        51  21  3.014714E+05  9.050233E+01  1.303679E+03  1.198943E+02  2.094226E+03  4.042464E-04
        51  22  3.014716E+05 -4.208275E+02 -1.436858E+03  8.161853E-09  2.128532E+03 -3.914777E-10
        51  23  3.015120E+05 -7.435535E+00 -2.158248E+01  1.966062E-08  2.111379E+03  2.934176E-11
        51  24  3.014714E+05  9.050231E+01  1.303679E+03 -7.560482E-11  2.094226E+03  6.957773E-10
        51  25  3.014716E+05 -4.208275E+02 -1.436858E+03  1.051743E+02  2.128532E+03  3.604231E-04
        51  26  3.015120E+05 -7.435535E+00 -2.158248E+01 -7.360893E+00  2.111379E+03 -2.502197E-05
        51  27  3.014714E+05  9.050233E+01  1.303679E+03 -1.198943E+02  2.094226E+03 -4.042451E-04
        52   1  3.016383E+05 -1.115959E+02  2.056428E+03  3.298855E+02 -2.390366E+03 -1.269552E-03
        52   2  3.013030E+05 -2.890827E+01  4.150021E+03 -1.145722E+02 -4.472946E+03  8.250791E-04
        52   3  3.016377E+05  1.649362E+03  7.997876E+03 -5.590359E+02 -6.555563E+03  5.900285E-03
        52   4  3.016383E+05 -1.115961E+02  2.056428E+03 -1.442170E-08 -2.390366E+03  7.539452E-10
        52   5  3.013030E+05 -2.890829E+01  4.150021E+03  2.187347E-09 -4.472946E+03 -1.281572E-10
        52   6  3.016377E+05  1.649361E+03  7.997876E+03  4.792967E-09 -6.555563E+03  2.561690E-09
        52   7  3.016383E+05 -1.115959E+02  2.056428E+03 -3.298855E+02 -2.390366E+03  1.269553E-03
        52   8  3.013030E+05 -2.890827E+01  4.150021E+03  1.145722E+02 -4.472946E+03 -8.250793E-04
        52   9  3.016377E+05  1.649362E+03  7.997876E+03  5.590359E+02 -6.555563E+03 -5.900280E-03
        52  10  3.016383E+05 -1.115975E+02  2.056417E+03  3.298855E+02  4.463751E-09 -1.214438E-10
        52  11  3.013030E+05 -2.891364E+01  4.149984E+03 -1.145722E+02 -5.426757E-10 -2.696992E-09
        52  12  3.016376E+05  1.649350E+03  7.997795E+03 -5.590359E+02 -1.841359E-09  6.706008E-10
        52  13  3.016383E+05 -1.115977E+02  2.056417E+03  1.490247E-08  2.873788E-27  9.041291E-11
        52  14  3.013030E+05 -2.891366E+01  4.149984E+03  5.628454E-11 -1.072900E-09 -1.701970E-09
        52  15  3.016376E+05  1.649349E+03  7.997795E+03  7.827173E-09 -2.107763E-10  2.771840E-10
        52  16  3.016383E+05 -1.115975E+02  2.056417E+03 -3.298855E+02 -9.471939E-11  3.005290E-10
        52  17  3.013030E+05 -2.891364E+01  4.149984E+03  1.145722E+02  4.045466E-09 -6.996069E-10
        52  18  3.016376E+05  1.649350E+03  7.997795E+03  5.590359E+02  3.055153E-09 -1.341564E-10
        52  19  3.016383E+05 -1.115959E+02  2.056428E+03  3.298855E+02  2.390366E+03  1.269551E-03
        52  20  3.013030E+05 -2.890827E+01  4.150021E+03 -1.145722E+02  4.472946E+03 -8.250847E-04
        52  21  3.016377E+05  1.649362E+03  7.997876E+03 -5.590359E+02  6.555563E+03 -5.900284E-03
        52  22  3.016383E+05 -1.115961E+02  2.056428E+03 -3.160165E-09  2.390366E+03 -5.734473E-10
        52  23  3.013030E+05 -2.890829E+01  4.150021E+03  1.515728E-08  4.472946E+03 -3.276636E-09
        52  24  3.016377E+05  1.649361E+03  7.997876E+03  2.780978E-09  6.555563E+03 -2.006368E-09
        52  25  3.016383E+05 -1.115959E+02  2.056428E+03 -3.298855E+02  2.390366E+03 -1.269552E-03
        52  26  3.013030E+05 -2.890827E+01  4.150021E+03  1.145722E+02  4.472946E+03  8.250780E-04
        52  27  3.016377E+05  1.649362E+03  7.997876E+03  5.590359E+02  6.555563E+03  5.900280E-03
        53   1  3.034188E+05 -1.497195E+03  1.017600E+04  4.557839E+03 -7.978037E+03 -5.854326E-02
        53   2  2.990758E+05  4.484976E+02  1.758771E+04 -5.623410E+03 -1.727967E+04  1.564445E-01
        53   3  3.034142E+05  3.228032E+04  3.852483E+04 -1.580476E+04 -2.658129E+04  6.763750E-01
        53   4  3.034188E+05 -1.497234E+03  1.017599E+04  5.491247E-10 -7.978037E+03  1.753505E-09
        53   5  2.990757E+05  4.484382E+02  1.758770E+04 -1.234496E-08 -1.727967E+04 -2.516151E-09
        53   6  3.034139E+05  3.227985E+04  3.852476E+04 -1.823200E-08 -2.658129E+04 -1.248488E-09
        53   7  3.034188E+05 -1.497195E+03  1.017600E+04 -4.557839E+03 -7.978037E+03  5.854326E-02
        53   8  2.990758E+05  4.484976E+02  1.758771E+04  5.623410E+03 -1.727967E+04 -1.564445E-01
        53   9  3.034142E+05  3.228032E+04  3.852483E+04  1.580476E+04 -2.658129E+04 -6.763750E-01
        53  10  3.034187E+05 -1.497212E+03  1.017588E+04  4.557839E+03  1.467609E-09  1.569196E-09
        53  11  2.990754E+05  4.484175E+02  1.758715E+04 -5.623410E+03 -1.250466E-10 -8.660514E-10
        53  12  3.034134E+05  3.228013E+04  3.852350E+04 -1.580476E+04 -9.283581E-10 -5.832763E-10
        53  13  3.034187E+05 -1.497251E+03  1.017587E+04 -8.708323E-09 -8.933043E-09  6.501220E-10
        53  14  2.990754E+05  4.483581E+02  1.758714E+04 -8.172838E-09 -1.833907E-09 -1.060461E-09
        53  15  3.034131E+05  3.227966E+04  3.852344E+04 -2.256159E-09 -1.024460E-09 -5.618969E-10
        53  16  3.034187E+05 -1.497212E+03  1.017588E+04 -4.557839E+03 -2.488173E-09 -2.727422E-10
        53  17  2.990754E+05  4.484175E+02  1.758715E+04  5.623410E+03 -8.452971E-10 -1.241998E-09
        53  18  3.034134E+05  3.228013E+04  3.852350E+04  1.580476E+04  1.102106E-09 -5.351389E-10
        53  19  3.034188E+05 -1.497195E+03  1.017600E+04  4.557839E+03  7.978037E+03  5.854326E-02
        53  20  2.990758E+05  4.484976E+02  1.758771E+04 -5.623410E+03  1.727967E+04 -1.564445E-01
        53  21  3.034142E+05  3.228032E+04  3.852483E+04 -1.580476E+04  2.658129E+04 -6.763750E-01
        53  22  3.034188E+05 -1.497234E+03  1.017599E+04 -9.345302E-09  7.978037E+03 -4.500175E-10
        53  23  2.990757E+05  4.484382E+02  1.758770E+04 -8.310642E-09  1.727967E+04  3.960180E-10
        53  24  3.034139E+05  3.227985E+04  3.852476E+04 -1.374046E-08  2.658129E+04  1.770026E-10
        53  25  3.034188E+05 -1.497195E+03  1.017600E+04 -4.557839E+03  7.978037E+03 -5.854326E-02
        53  26  2.990758E+05  4.484976E+02  1.758771E+04  5.623410E+03  1.727967E+04  1.564445E-01
        53  27  3.034142E+05  3.228032E+04  3.852483E+04  1.580476E+04  2.658129E+04  6.763750E-01
        54   1 -1.095783E+06 -4.174163E+06 -1.085188E+06  5.865816E+05 -4.963825E+04 -2.029083E+05
        54   2 -8.021167E+05 -3.319148E+06 -7.679544E+05  4.008810E+05 -1.461339E+05 -7.332772E+04
        54   3 -5.894968E+05 -2.498447E+06 -5.552923E+05  5.405815E+05 -1.292187E+05  5.633253E+04
        54   4 -7.068656E+04 -5.938072E+04 -8.474480E+04  5.561397E+05 -4.941728E+04 -5.658861E+04
        54   5 -1.613300E+03 -5.059981E+04 -4.038399E+04  3.934052E+05 -1.459929E+05 -3.511139E+04
        54   6  5.537748E+03 -5.775792E+04 -2.504024E+04  5.560058E+05 -1.294156E+05 -1.373818E+04
        54   7  9.531774E+05  4.070973E+06  9.145540E+05  5.254828E+05 -4.921184E+04  9.070407E+04
        54   8  7.981662E+05  3.227951E+06  6.865246E+05  3.858810E+05 -1.458533E+05  3.305117E+03
        54   9  6.001803E+05  2.388543E+06  5.048746E+05  5.714849E+05 -1.296155E+05 -8.408149E+04
        54  10 -1.095796E+06 -4.174208E+06 -1.085270E+06  5.865735E+05  2.017512E-09  5.721481E-10
        54  11 -8.021410E+05 -3.319159E+06 -7.680046E+05  4.008724E+05 -9.350951E-12  2.141497E-09
        54  12 -5.895156E+05 -2.498455E+06 -5.553297E+05  5.405874E+05  3.212243E-09  6.177929E-09
        54  13 -7.069004E+04 -5.938481E+04 -8.475540E+04  5.561374E+05  1.931873E-09 -1.315234E-09
        54  14 -1.636513E+03 -5.060685E+04 -4.042635E+04  3.934010E+05 -2.724974E-09  1.698106E-09
        54  15  5.519715E+03 -5.776262E+04 -2.507206E+04  5.560044E+05  2.714693E-09  5.614148E-09
        54  16  9.531726E+05  4.070963E+06  9.145341E+05  5.254864E+05  9.491382E-10 -1.256178E-10
        54  17  7.981433E+05  3.227945E+06  6.864846E+05  3.858814E+05  6.517148E-09 -5.434978E-09
        54  18  6.001604E+05  2.388531E+06  5.048298E+05  5.714761E+05  4.357928E-09 -3.425609E-09
        54  19 -1.095783E+06 -4.174163E+06 -1.085188E+06  5.865816E+05  4.963825E+04  2.029083E+05
        54  20 -8.021167E+05 -3.319148E+06 -7.679544E+05  4.008810E+05  1.461339E+05  7.332772E+04
        54  21 -5.894968E+05 -2.498447E+06 -5.552923E+05  5.405815E+05  1.292187E+05 -5.633253E+04
        54  22 -7.068656E+04 -5.938072E+04 -8.474480E+04  5.561397E+05  4.941728E+04  5.658861E+04
        54  23 -1.613300E+03 -5.059981E+04 -4.038399E+04  3.934052E+05  1.459929E+05  3.511139E+04
        54  24  5.537748E+03 -5.775792E+04 -2.504024E+04  5.560058E+05  1.294156E+05  1.373818E+04
        54  25  9.531774E+05  4.070973E+06  9.145540E+05  5.254828E+05  4.921184E+04 -9.070407E+04
        54  26  7.981662E+05  3.227951E+06  6.865246E+05  3.858810E+05  1.458533E+05 -3.305117E+03
        54  27  6.001803E+05  2.388543E+06  5.048746E+05  5.714849E+05  1.296155E+05  8.408149E+04
        55   1 -4.329233E+05 -1.827848E+06 -4.080940E+05  5.544490E+05 -9.151902E+04  2.862127E+04
        55   2 -2.250599E+05 -9.878127E+05 -2.191712E+05  3.895714E+05 -4.986418E+04  3.880633E+04
        55   3 -2.178444E+04 -1.517856E+05 -3.863347E+04  5.550709E+05 -6.039849E+03  4.894700E+04
        55   4 -5.470928E+02 -5.454859E+04 -2.152944E+04  5.571548E+05 -9.164556E+04 -1.023135E+04
        55   5  2.755718E+03 -5.216402E+04 -1.637201E+04  3.919777E+05 -5.001893E+04 -2.132267E+03
        55   6  1.882967E+03 -5.408116E+04 -1.811248E+04  5.571475E+05 -6.226685E+03  5.909008E+03
        55   7  4.316207E+05  1.721707E+06  3.648517E+05  5.598644E+05 -9.177222E+04 -4.919374E+04
        55   8  2.305143E+05  8.843106E+05  1.863815E+05  3.943866E+05 -5.017385E+04 -4.313181E+04
        55   9  2.555077E+04  4.363632E+04  2.414938E+03  5.592245E+05 -6.413791E+03 -3.713565E+04
        55  10 -4.329325E+05 -1.827851E+06 -4.081112E+05  5.544511E+05  4.005450E-09 -4.302204E-09
        55  11 -2.250630E+05 -9.878150E+05 -2.191788E+05  3.895730E+05 -1.688279E-09 -1.290083E-09
        55  12 -2.178512E+04 -1.517882E+05 -3.863804E+04  5.550711E+05 -4.684302E-09  8.338348E-09
        55  13 -5.561385E+02 -5.455096E+04 -2.154542E+04  5.571540E+05  1.632973E-09 -9.244156E-09
        55  14  2.753030E+03 -5.216469E+04 -1.637672E+04  3.919776E+05 -4.527903E-09  3.527466E-09
        55  15  1.882916E+03 -5.408121E+04 -1.811262E+04  5.571476E+05 -2.332370E-09  7.842431E-09
        55  16  4.316110E+05  1.721702E+06  3.648313E+05  5.598608E+05  1.922516E-09  7.359829E-09
        55  17  2.305111E+05  8.843079E+05  1.863732E+05  3.943849E+05  1.044312E-09 -5.723246E-09
        55  18  2.555035E+04  4.363483E+04  2.412271E+03  5.592243E+05 -4.768797E-10 -4.520346E-09
        55  19 -4.329233E+05 -1.827848E+06 -4.080940E+05  5.544490E+05  9.151902E+04 -2.862127E+04
        55  20 -2.250599E+05 -9.878127E+05 -2.191712E+05  3.895714E+05  4.986418E+04 -3.880633E+04
        55  21 -2.178444E+04 -1.517856E+05 -3.863347E+04  5.550709E+05  6.039849E+03 -4.894700E+04
        55  22 -5.470928E+02 -5.454859E+04 -2.152944E+04  5.571548E+05  9.164556E+04  1.023135E+04
        55  23  2.755718E+03 -5.216402E+04 -1.637201E+04  3.919777E+05  5.001893E+04  2.132267E+03
        55  24  1.882967E+03 -5.408116E+04 -1.811248E+04  5.571475E+05  6.226685E+03 -5.909008E+03
        55  25  4.316207E+05  1.721707E+06  3.648517E+05  5.598644E+05  9.177222E+04  4.919374E+04
        55  26  2.305143E+05  8.843106E+05  1.863815E+05  3.943866E+05  5.017385E+04  4.313181E+04
        55  27  2.555077E+04  4.363632E+04  2.414938E+03  5.592245E+05  6.413791E+03  3.713565E+04
        56   1  1.455296E+05  5.134817E+05  1.048814E+05  5.655344E+05  2.819988E+04  6.903022E+04
        56   2  3.451445E+05  1.355196E+06  2.844847E+05  3.872914E+05  5.799849E+04  2.208139E+04
        56   3  5.100409E+05  2.193328E+06  4.854461E+05  5.366705E+05  2.247933E+04 -2.473711E+04
        56   4  6.463710E+03 -5.656118E+04 -2.017321E+04  5.565129E+05  2.794189E+04  8.799343E+03
        56   5  1.596783E+03 -4.933536E+04 -3.016535E+04  3.927592E+05  5.801764E+04  2.461735E+04
        56   6 -4.888464E+04 -5.726036E+04 -6.235445E+04  5.566950E+05  2.270661E+04  4.062760E+04
        56   7 -1.326217E+05 -6.262922E+05 -1.452339E+05  5.474994E+05  2.768550E+04 -5.137695E+04
        56   8 -3.420852E+05 -1.452032E+06 -3.449401E+05  3.982123E+05  5.803686E+04  2.714759E+04
        56   9 -6.081786E+05 -2.303227E+06 -6.105060E+05  5.766411E+05  2.293859E+04  1.057564E+05
        56  10  1.455275E+05  5.134764E+05  1.048709E+05  5.655328E+05 -2.357513E-09 -1.867763E-10
        56  11  3.451408E+05  1.355195E+06  2.844775E+05  3.872903E+05  3.183862E-10 -9.955791E-11
        56  12  5.100401E+05  2.193327E+06  4.854440E+05  5.366709E+05  1.420398E-09  5.958401E-09
        56  13  6.462852E+03 -5.656147E+04 -2.017482E+04  5.565127E+05 -1.168906E-09 -1.105716E-08
        56  14  1.593008E+03 -4.933691E+04 -3.017281E+04  3.927580E+05 -3.059697E-09  3.321346E-09
        56  15 -4.888563E+04 -5.726227E+04 -6.235851E+04  5.566943E+05  6.639869E-10  5.758093E-09
        56  16 -1.326233E+05 -6.262953E+05 -1.452403E+05  5.475005E+05 -2.099046E-09  3.987991E-09
        56  17 -3.420890E+05 -1.452034E+06 -3.449478E+05  3.982110E+05 -8.043392E-10 -6.486742E-09
        56  18 -6.081822E+05 -2.303239E+06 -6.105281E+05  5.766392E+05 -2.815891E-09 -2.995919E-09
        56  19  1.455296E+05  5.134817E+05  1.048814E+05  5.655344E+05 -2.819988E+04 -6.903022E+04
        56  20  3.451445E+05  1.355196E+06  2.844847E+05  3.872914E+05 -5.799849E+04 -2.208139E+04
        56  21  5.100409E+05  2.193328E+06  4.854461E+05  5.366705E+05 -2.247933E+04  2.473711E+04
        56  22  6.463710E+03 -5.656118E+04 -2.017321E+04  5.565129E+05 -2.794189E+04 -8.799343E+03
        56  23  1.596783E+03 -4.933536E+04 -3.016535E+04  3.927592E+05 -5.801764E+04 -2.461735E+04
        56  24 -4.888464E+04 -5.726036E+04 -6.235445E+04  5.566950E+05 -2.270661E+04 -4.062760E+04
        56  25 -1.326217E+05 -6.262922E+05 -1.452339E+05  5.474994E+05 -2.768550E+04  5.137695E+04
        56  26 -3.420852E+05 -1.452032E+06 -3.449401E+05  3.982123E+05 -5.803686E+04 -2.714759E+04
        56  27 -6.081786E+05 -2.303227E+06 -6.105060E+05  5.766411E+05 -2.293859E+04 -1.057564E+05
        57   1 -9.123112E+05 -3.605387E+06 -8.968227E+05  3.605229E+05 -4.465710E+04 -1.596012E+05
        57   2 -7.347585E+05 -3.071712E+06 -6.859640E+05  2.477906E+05 -1.362361E+05 -5.769063E+04
        57   3 -6.025255E+05 -2.560249E+06 -5.525532E+05  3.367465E+05 -1.325988E+05  4.425619E+04
        57   4 -3.455691E+04 -7.988734E+04 -4.133364E+04  3.463247E+05 -4.451792E+04 -2.654227E+04
        57   5 -1.479573E+03 -7.615252E+04 -2.073568E+04  2.454741E+05 -1.361136E+05 -1.550314E+04
        57   6  2.239083E+03 -7.896250E+04 -1.418698E+04  3.462703E+05 -1.326952E+05 -4.519522E+03
        57   7  8.422938E+05  3.457046E+06  8.133252E+05  3.320398E+05 -4.438543E+04  1.072737E+05
        57   8  7.311928E+05  2.927812E+06  6.439413E+05  2.431411E+05 -1.359918E+05  2.688653E+04
        57   9  6.065972E+05  2.408121E+06  5.238214E+05  3.558274E+05 -1.327929E+05 -5.348817E+04
        57  10 -9.123202E+05 -3.605416E+06 -8.968745E+05  3.605172E+05 -3.922278E-10 -4.862486E-09
        57  11 -7.347794E+05 -3.071721E+06 -6.860052E+05  2.477842E+05 -4.528240E-09  2.103964E-09
        57  12 -6.025449E+05 -2.560255E+06 -5.525900E+05  3.367513E+05  1.735778E-09  7.196429E-09
        57  13 -3.455923E+04 -7.988862E+04 -4.133868E+04  3.463238E+05  7.197135E-10  3.207615E-10
        57  14 -1.499531E+03 -7.615775E+04 -2.077094E+04  2.454724E+05  2.630472E-09  2.914687E-09
        57  15  2.220171E+03 -7.896725E+04 -1.422010E+04  3.462699E+05  8.441239E-10 -3.632455E-10
        57  16  8.422886E+05  3.457033E+06  8.133000E+05  3.320436E+05 -3.579534E-09  4.923718E-09
        57  17  7.311727E+05  2.927807E+06  6.439051E+05  2.431441E+05 -2.309907E-09  3.815470E-09
        57  18  6.065775E+05  2.408113E+06  5.237829E+05  3.558217E+05  5.897719E-10 -4.771167E-09
        57  19 -9.123112E+05 -3.605387E+06 -8.968227E+05  3.605229E+05  4.465710E+04  1.596012E+05
        57  20 -7.347585E+05 -3.071712E+06 -6.859640E+05  2.477906E+05  1.362361E+05  5.769063E+04
        57  21 -6.025255E+05 -2.560249E+06 -5.525532E+05  3.367465E+05  1.325988E+05 -4.425619E+04
        57  22 -3.455691E+04 -7.988734E+04 -4.133364E+04  3.463247E+05  4.451792E+04  2.654227E+04
        57  23 -1.479573E+03 -7.615252E+04 -2.073568E+04  2.454741E+05  1.361136E+05  1.550314E+04
        57  24  2.239083E+03 -7.896250E+04 -1.418698E+04  3.462703E+05  1.326952E+05  4.519522E+03
        57  25  8.422938E+05  3.457046E+06  8.133252E+05  3.320398E+05  4.438543E+04 -1.072737E+05
        57  26  7.311928E+05  2.927812E+06  6.439413E+05  2.431411E+05  1.359918E+05 -2.688653E+04
        57  27  6.065972E+05  2.408121E+06  5.238214E+05  3.558274E+05  1.327929E+05  5.348817E+04
        58   1 -5.038809E+05 -2.142336E+06 -4.630221E+05  3.438178E+05 -1.072568E+05  1.967954E+04
        58   2 -3.744316E+05 -1.618595E+06 -3.473836E+05  2.402366E+05 -8.237636E+04  2.953318E+04
        58   3 -2.490114E+05 -1.097709E+06 -2.393898E+05  3.426649E+05 -5.391756E+04  3.933120E+04
        58   4 -4.261122E+02 -7.764680E+04 -1.323115E+04  3.472464E+05 -1.073014E+05 -2.407278E+03
        58   5  1.278922E+03 -7.615047E+04 -1.292739E+04  2.442579E+05 -8.245348E+04  4.027114E+03
        58   6 -4.260269E+02 -7.716619E+04 -1.787069E+04  3.472483E+05 -5.403221E+04  1.039782E+04
        58   7  5.027455E+05  1.991048E+06  4.363057E+05  3.506823E+05 -1.073462E+05 -2.456678E+04
        58   8  3.768323E+05  1.468532E+06  3.213896E+05  2.482869E+05 -8.253082E+04 -2.154161E+04
        58   9  2.480908E+05  9.443570E+05  2.035894E+05  3.518381E+05 -5.414717E+04 -1.858256E+04
        58  10 -5.038934E+05 -2.142339E+06 -4.630445E+05  3.438195E+05 -2.233621E-10 -7.165111E-09
        58  11 -3.744391E+05 -1.618598E+06 -3.473980E+05  2.402385E+05 -5.983240E-09  4.428958E-10
        58  12 -2.490149E+05 -1.097712E+06 -2.393982E+05  3.426666E+05  2.071528E-09  1.161788E-09
        58  13 -4.384768E+02 -7.764989E+04 -1.325279E+04  3.472462E+05  3.877827E-09  2.820077E-09
        58  14  1.271617E+03 -7.615231E+04 -1.294020E+04  2.442581E+05 -7.380369E-10  6.910937E-09
        58  15 -4.291914E+02 -7.716709E+04 -1.787639E+04  3.472488E+05  7.776957E-10 -6.015815E-10
        58  16  5.027329E+05  1.991044E+06  4.362829E+05  3.506802E+05  4.133419E-09  7.167813E-09
        58  17  3.768249E+05  1.468530E+06  3.213760E+05  2.482855E+05  1.641102E-09  1.347035E-08
        58  18  2.480876E+05  9.443558E+05  2.035833E+05  3.518373E+05  2.921832E-09  2.927248E-09
        58  19 -5.038809E+05 -2.142336E+06 -4.630221E+05  3.438178E+05  1.072568E+05 -1.967954E+04
        58  20 -3.744316E+05 -1.618595E+06 -3.473836E+05  2.402366E+05  8.237636E+04 -2.953318E+04
        58  21 -2.490114E+05 -1.097709E+06 -2.393898E+05  3.426649E+05  5.391756E+04 -3.933120E+04
        58  22 -4.261122E+02 -7.764680E+04 -1.323115E+04  3.472464E+05  1.073014E+05  2.407278E+03
        58  23  1.278922E+03 -7.615047E+04 -1.292739E+04  2.442579E+05  8.245348E+04 -4.027114E+03
        58  24 -4.260269E+02 -7.716619E+04 -1.787069E+04  3.472483E+05  5.403221E+04 -1.039782E+04
        58  25  5.027455E+05  1.991048E+06  4.363057E+05  3.506823E+05  1.073462E+05  2.456678E+04
        58  26  3.768323E+05  1.468532E+06  3.213896E+05  2.482869E+05  8.253082E+04  2.154161E+04
        58  27  2.480908E+05  9.443570E+05  2.035894E+05  3.518381E+05  5.414717E+04  1.858256E+04
        59   1 -1.415156E+05 -6.856689E+05 -1.510378E+05  3.538629E+05 -3.442878E+04  4.581518E+04
        59   2 -1.871678E+04 -1.549645E+05 -4.961198E+04  2.334563E+05 -8.789860E+03  4.822388E+04
        59   3  5.143297E+04  3.606210E+05  3.661240E+04  3.186382E+05  5.630584E+02  5.068804E+04
        59   4  5.439726E+03 -8.047918E+04 -2.133019E+04  3.470977E+05 -3.456760E+04  1.341596E+04
        59   5  1.161919E+03 -7.141792E+04 -3.432553E+04  2.444263E+05 -8.860862E+03  3.144391E+04
        59   6 -5.846251E+04 -8.045595E+04 -7.336995E+04  3.473574E+05  5.604273E+02  4.952522E+04
        59   7  1.523719E+05  5.250577E+05  1.083601E+05  3.403254E+05 -3.470564E+04 -1.901442E+04
        59   8  2.104082E+04  1.213633E+04 -1.903824E+04  2.553977E+05 -8.932452E+03  1.466174E+04
        59   9 -1.683694E+05 -5.213546E+05 -1.833664E+05  3.760559E+05  5.576882E+02  4.836323E+04
        59  10 -1.415175E+05 -6.856715E+05 -1.510440E+05  3.538642E+05  4.777787E-09 -2.607212E-08
        59  11 -1.871749E+04 -1.549671E+05 -4.961650E+04  2.334567E+05  1.295973E-09  8.135863E-10
        59  12  5.143228E+04  3.606182E+05  3.660758E+04  3.186382E+05  2.143715E-09  1.858171E-08
        59  13  5.438394E+03 -8.047970E+04 -2.133277E+04  3.470981E+05  2.852072E-09  3.959862E-09
        59  14  1.161569E+03 -7.141901E+04 -3.432754E+04  2.444265E+05  5.403839E-09  8.298921E-09
        59  15 -5.846317E+04 -8.045859E+04 -7.337456E+04  3.473574E+05 -1.588015E-09 -5.237015E-10
        59  16  1.523705E+05  5.250570E+05  1.083572E+05  3.403249E+05  4.137891E-09  2.590676E-08
        59  17  2.104067E+04  1.213607E+04 -1.903880E+04  2.553979E+05  2.849975E-09  1.605166E-08
        59  18 -1.683700E+05 -5.213571E+05 -1.833708E+05  3.760559E+05  1.937219E-09 -1.408507E-08
        59  19 -1.415156E+05 -6.856689E+05 -1.510378E+05  3.538629E+05  3.442878E+04 -4.581518E+04
        59  20 -1.871678E+04 -1.549645E+05 -4.961198E+04  2.334563E+05  8.789860E+03 -4.822388E+04
        59  21  5.143297E+04  3.606210E+05  3.661240E+04  3.186382E+05 -5.630584E+02 -5.068804E+04
        59  22  5.439726E+03 -8.047918E+04 -2.133019E+04  3.470977E+05  3.456760E+04 -1.341596E+04
        59  23  1.161919E+03 -7.141792E+04 -3.432553E+04  2.444263E+05  8.860862E+03 -3.144391E+04
        59  24 -5.846251E+04 -8.045595E+04 -7.336995E+04  3.473574E+05 -5.604273E+02 -4.952522E+04
        59  25  1.523719E+05  5.250577E+05  1.083601E+05  3.403254E+05  3.470564E+04  1.901442E+04
        59  26  2.104082E+04  1.213633E+04 -1.903824E+04  2.553977E+05  8.932452E+03 -1.466174E+04
        59  27 -1.683694E+05 -5.213546E+05 -1.833664E+05  3.760559E+05 -5.576882E+02 -4.836323E+04
        60   1  8.668512E+06  1.937328E+06  1.905239E+06  8.713675E+05  3.043821E+05 -9.697583E+04
        60   2  7.292139E+06  1.554955E+06  1.431936E+06  6.165205E+05  9.456609E+04 -2.888166E+05
        60   3  5.977075E+06  1.232393E+06  1.111779E+06  8.791266E+05 -1.137694E+05 -2.707845E+05
        60   4  8.609194E+05  8.367211E+03  2.399497E+04  8.848683E+05  1.567411E+04 -9.584756E+04
        60   5  8.510683E+05 -1.152058E+04  9.767816E+03  6.259494E+05  9.902737E+03 -2.888309E+05
        60   6  8.659877E+05 -6.378274E+03  8.391933E+03  8.847919E+05  5.154647E+03 -2.709653E+05
        60   7 -6.891288E+06 -1.924978E+06 -1.861290E+06  8.982210E+05 -2.694549E+05 -9.472669E+04
        60   8 -5.551555E+06 -1.580773E+06 -1.414930E+06  6.352852E+05 -7.390064E+04 -2.888486E+05
        60   9 -4.220712E+06 -1.246857E+06 -1.096486E+06  8.903951E+05  1.231199E+05 -2.711445E+05
        60  10  8.668411E+06  1.937293E+06  1.905049E+06  8.713911E+05  9.787694E-10  3.114297E-11
        60  11  7.292107E+06  1.554863E+06  1.431763E+06  6.165424E+05  5.645318E-09  3.260134E-10
        60  12  5.977042E+06  1.232311E+06  1.111617E+06  8.791019E+05  1.854469E-09  2.336286E-10
        60  13  8.609166E+05  8.357273E+03  2.397723E+04  8.848695E+05  5.306442E-11 -1.407757E-10
        60  14  8.510458E+05 -1.161023E+04  9.610784E+03  6.259518E+05 -5.634456E-09 -3.235808E-10
        60  15  8.659679E+05 -6.457159E+03  8.253842E+03  8.847931E+05 -2.019666E-09  3.249722E-10
        60  16 -6.891369E+06 -1.925007E+06 -1.861445E+06  8.982003E+05  1.247675E-09 -5.921119E-10
        60  17 -5.551583E+06 -1.580864E+06 -1.415098E+06  6.352679E+05 -2.522637E-09 -9.639330E-10
        60  18 -4.220748E+06 -1.246941E+06 -1.096653E+06  8.904221E+05 -1.631264E-09  5.050997E-10
        60  19  8.668512E+06  1.937328E+06  1.905239E+06  8.713675E+05 -3.043821E+05  9.697583E+04
        60  20  7.292139E+06  1.554955E+06  1.431936E+06  6.165205E+05 -9.456609E+04  2.888166E+05
        60  21  5.977075E+06  1.232393E+06  1.111779E+06  8.791266E+05  1.137694E+05  2.707845E+05
        60  22  8.609194E+05  8.367211E+03  2.399497E+04  8.848683E+05 -1.567411E+04  9.584756E+04
        60  23  8.510683E+05 -1.152058E+04  9.767816E+03  6.259494E+05 -9.902737E+03  2.888309E+05
        60  24  8.659877E+05 -6.378274E+03  8.391933E+03  8.847919E+05 -5.154647E+03  2.709653E+05
        60  25 -6.891288E+06 -1.924978E+06 -1.861290E+06  8.982210E+05  2.694549E+05  9.472669E+04
        60  26 -5.551555E+06 -1.580773E+06 -1.414930E+06  6.352852E+05  7.390064E+04  2.888486E+05
        60  27 -4.220712E+06 -1.246857E+06 -1.096486E+06  8.903951E+05 -1.231199E+05  2.711445E+05
        61   1  4.904917E+06  9.783137E+05  8.833823E+05  8.871185E+05 -5.504765E+04 -2.087582E+05
        61   2  3.566423E+06  6.557444E+05  5.903373E+05  6.255388E+05 -6.656467E+04 -1.433362E+05
        61   3  2.234286E+06  3.359584E+05  3.058412E+05  8.887690E+05 -7.829319E+04 -6.877734E+04
        61   4  8.633301E+05 -2.563393E+03  6.860698E+03  8.864108E+05  3.694404E+03 -2.088162E+05
        61   5  8.628170E+05 -4.996394E+02  5.710687E+03  6.239317E+05  9.535492E+02 -1.432907E+05
        61   6  8.654684E+05  2.935552E+03  7.108148E+03  8.864074E+05 -2.023388E+03 -6.860362E+04
        61   7 -3.163017E+06 -9.845164E+05 -8.706214E+05  8.856950E+05  6.206133E+04 -2.088745E+05
        61   8 -1.833949E+06 -6.572225E+05 -5.793319E+05  6.223262E+05  6.818299E+04 -1.432454E+05
        61   9 -5.015872E+05 -3.302086E+05 -2.917160E+05  8.840488E+05  7.408086E+04 -6.843020E+04
        61  10  4.904902E+06  9.782661E+05  8.832948E+05  8.871093E+05  1.792308E-09 -3.484880E-10
        61  11  3.566413E+06  6.557212E+05  5.902904E+05  6.255311E+05  2.592914E-10 -1.394075E-09
        61  12  2.234278E+06  3.359517E+05  3.058209E+05  8.887647E+05 -1.735759E-09 -1.118798E-09
        61  13  8.633184E+05 -2.610241E+03  6.778693E+03  8.864114E+05  2.186108E-09  3.052483E-10
        61  14  8.628114E+05 -5.216967E+02  5.672085E+03  6.239318E+05 -3.272470E-09 -1.323131E-09
        61  15  8.654671E+05  2.930495E+03  7.099293E+03  8.864073E+05 -6.301339E-11 -5.627633E-10
        61  16 -3.163033E+06 -9.845644E+05 -8.707108E+05  8.857055E+05 -2.767629E-09  7.330802E-10
        61  17 -1.833959E+06 -6.572458E+05 -5.793793E+05  6.223341E+05 -1.412419E-09 -5.239421E-10
        61  18 -5.015943E+05 -3.302152E+05 -2.917352E+05  8.840529E+05  1.977416E-09 -2.071938E-10
        61  19  4.904917E+06  9.783137E+05  8.833823E+05  8.871185E+05  5.504765E+04  2.087582E+05
        61  20  3.566423E+06  6.557444E+05  5.903373E+05  6.255388E+05  6.656467E+04  1.433362E+05
        61  21  2.234286E+06  3.359584E+05  3.058412E+05  8.887690E+05  7.829319E+04  6.877734E+04
        61  22  8.633301E+05 -2.563393E+03  6.860698E+03  8.864108E+05 -3.694404E+03  2.088162E+05
        61  23  8.628170E+05 -4.996394E+02  5.710687E+03  6.239317E+05 -9.535492E+02  1.432907E+05
        61  24  8.654684E+05  2.935552E+03  7.108148E+03  8.864074E+05  2.023388E+03  6.860362E+04
        61  25 -3.163017E+06 -9.845164E+05 -8.706214E+05  8.856950E+05 -6.206133E+04  2.088745E+05
        61  26 -1.833949E+06 -6.572225E+05 -5.793319E+05  6.223262E+05 -6.818299E+04  1.432454E+05
        61  27 -5.015872E+05 -3.302086E+05 -2.917160E+05  8.840488E+05 -7.408086E+04  6.843020E+04
        62   1  1.176050E+06  7.764981E+04  7.187449E+04  8.870966E+05 -7.919280E+04 -2.214546E+04
        62   2 -1.559902E+05 -2.467619E+05 -2.099798E+05  6.225967E+05 -7.824320E+04  5.299931E+04
        62   3 -1.486113E+06 -5.682066E+05 -4.920737E+05  8.827893E+05 -7.720357E+04  1.209604E+05
        62   4  8.654745E+05  2.836187E+03  8.023985E+03  8.863376E+05 -3.559892E+03 -2.195131E+04
        62   5  8.643580E+05  1.593273E+03  1.178193E+04  6.240167E+05 -9.586562E+03  5.313324E+04
        62   6  8.646632E+05  4.621284E+03  2.017793E+04  8.863316E+05 -1.552110E+04  1.210458E+05
        62   7  5.550026E+05 -7.198044E+04 -5.581022E+04  8.855789E+05  7.203591E+04 -2.175727E+04
        62   8  1.885692E+06  2.498820E+05  2.334992E+05  6.254381E+05  5.918146E+04  5.326733E+04
        62   9  3.220630E+06  5.770841E+05  5.321120E+05  8.898816E+05  4.639239E+04  1.211317E+05
        62  10  1.176043E+06  7.764761E+04  7.186182E+04  8.870952E+05 -1.613468E-09 -2.642932E-10
        62  11 -1.559975E+05 -2.467666E+05 -2.099966E+05  6.226000E+05  3.176933E-09  1.125599E-09
        62  12 -1.486123E+06 -5.682240E+05 -4.921125E+05  8.827968E+05  2.065668E-09 -2.667502E-10
        62  13  8.654744E+05  2.835666E+03  8.023056E+03  8.863376E+05 -2.165816E-09  1.455817E-10
        62  14  8.643571E+05  1.590214E+03  1.177644E+04  6.240171E+05  3.277984E-09  1.176035E-09
        62  15  8.646590E+05  4.605476E+03  2.014992E+04  8.863331E+05  1.469023E-09  5.226611E-10
        62  16  5.549969E+05 -7.198234E+04 -5.582087E+04  8.855802E+05 -6.357370E-10  3.584781E-10
        62  17  1.885687E+06  2.498780E+05  2.334873E+05  6.254356E+05 -3.797986E-09  1.223940E-09
        62  18  3.220624E+06  5.770678E+05  5.320805E+05  8.898771E+05 -5.727722E-09  1.322005E-09
        62  19  1.176050E+06  7.764981E+04  7.187449E+04  8.870966E+05  7.919280E+04  2.214546E+04
        62  20 -1.559902E+05 -2.467619E+05 -2.099798E+05  6.225967E+05  7.824320E+04 -5.299931E+04
        62  21 -1.486113E+06 -5.682066E+05 -4.920737E+05  8.827893E+05  7.720357E+04 -1.209604E+05
        62  22  8.654745E+05  2.836187E+03  8.023985E+03  8.863376E+05  3.559892E+03  2.195131E+04
        62  23  8.643580E+05  1.593273E+03  1.178193E+04  6.240167E+05  9.586562E+03 -5.313324E+04
        62  24  8.646632E+05  4.621284E+03  2.017793E+04  8.863316E+05  1.552110E+04 -1.210458E+05
        62  25  5.550026E+05 -7.198044E+04 -5.581022E+04  8.855789E+05 -7.203591E+04  2.175727E+04
        62  26  1.885692E+06  2.498820E+05  2.334992E+05  6.254381E+05 -5.918146E+04 -5.326733E+04
        62  27  3.220630E+06  5.770841E+05  5.321120E+05  8.898816E+05 -4.639239E+04 -1.211317E+05
        63   1 -2.540226E+06 -8.349621E+05 -7.155506E+05  8.935159E+05 -1.284992E+05  1.796386E+05
        63   2 -3.875680E+06 -1.162475E+06 -1.012098E+06  6.147441E+05  1.100463E+04  2.098018E+05
        63   3 -5.206534E+06 -1.442754E+06 -1.386229E+06  8.548317E+05  1.498456E+05  7.150146E+04
        63   4  8.698710E+05 -4.014879E+03  2.547537E+04  8.849678E+05 -1.938844E+04  1.797207E+05
        63   5  8.525294E+05 -4.402479E+03  4.105426E+04  6.257137E+05 -4.087183E+04  2.097024E+05
        63   6  8.661052E+05  7.036232E+04  9.108400E+04  8.850503E+05 -6.271869E+04  7.180423E+04
        63   7  4.290920E+06  8.261684E+05  7.658518E+05  8.763610E+05  9.031581E+04  1.797992E+05
        63   8  5.601661E+06  1.152155E+06  1.092820E+06  6.367600E+05 -9.313994E+04  2.096019E+05
        63   9  6.972659E+06  1.580790E+06  1.565898E+06  9.155581E+05 -2.773670E+05  7.208590E+04
        63  10 -2.540252E+06 -8.350013E+05 -7.156425E+05  8.935345E+05  3.899856E-10 -6.856730E-10
        63  11 -3.875691E+06 -1.162523E+06 -1.012181E+06  6.147423E+05 -4.411828E-10 -3.836315E-11
        63  12 -5.206560E+06 -1.442765E+06 -1.386281E+06  8.548230E+05 -8.526067E-10 -6.733801E-11
        63  13  8.698619E+05 -4.049685E+03  2.541392E+04  8.849706E+05  6.325283E-11 -7.181792E-11
        63  14  8.525158E+05 -4.450179E+03  4.096841E+04  6.257206E+05 -1.219750E-09 -2.921704E-10
        63  15  8.660995E+05  7.035572E+04  9.106689E+04  8.850539E+05 -1.569195E-09  2.053465E-10
        63  16  4.290902E+06  8.261315E+05  7.657759E+05  8.763480E+05 -3.671843E-09  5.895725E-10
        63  17  5.601640E+06  1.152106E+06  1.092721E+06  6.367757E+05  3.364174E-09 -1.006243E-09
        63  18  6.972576E+06  1.580764E+06  1.565745E+06  9.155742E+05  3.099719E-09 -4.738898E-10
        63  19 -2.540226E+06 -8.349621E+05 -7.155506E+05  8.935159E+05  1.284992E+05 -1.796386E+05
        63  20 -3.875680E+06 -1.162475E+06 -1.012098E+06  6.147441E+05 -1.100463E+04 -2.098018E+05
        63  21 -5.206534E+06 -1.442754E+06 -1.386229E+06  8.548317E+05 -1.498456E+05 -7.150146E+04
        63  22  8.698710E+05 -4.014879E+03  2.547537E+04  8.849678E+05  1.938844E+04 -1.797207E+05
        63  23  8.525294E+05 -4.402479E+03  4.105426E+04  6.257137E+05  4.087183E+04 -2.097024E+05
        63  24  8.661052E+05  7.036232E+04  9.108400E+04  8.850503E+05  6.271869E+04 -7.180423E+04
        63  25  4.290920E+06  8.261684E+05  7.658518E+05  8.763610E+05 -9.031581E+04 -1.797992E+05
        63  26  5.601661E+06  1.152155E+06  1.092820E+06  6.367600E+05  9.313994E+04 -2.096019E+05
        63  27  6.972659E+06  1.580790E+06  1.565898E+06  9.155581E+05  2.773670E+05 -7.208590E+04
        64   1 -4.887078E+05 -1.408260E+06 -5.030730E+05  4.693690E+05 -1.698938E+04 -1.164455E+05
        64   2 -2.398898E+05 -7.362732E+05 -2.677148E+05  3.178437E+05 -4.070920E+04 -4.619462E+04
        64   3 -7.304791E+04 -9.753916E+04 -9.943615E+04  4.226231E+05 -1.599125E+04  2.380192E+04
        64   4 -7.817807E+04  2.432831E+05 -1.000929E+05  4.371725E+05 -1.664446E+04 -7.010217E+04
        64   5  3.049555E+03  2.562320E+05 -4.477479E+04  3.087058E+05 -4.070363E+04 -4.621348E+04
        64   6  1.047222E+04  2.436607E+05 -2.420562E+04  4.365437E+05 -1.635452E+04 -2.265476E+04
        64   7  3.321565E+05  1.897324E+06  3.026977E+05  4.048848E+05 -1.630486E+04 -2.363546E+04
        64   8  2.459221E+05  1.249655E+06  1.781028E+05  2.995514E+05 -4.069806E+04 -4.623231E+04
        64   9  9.398633E+04  5.849744E+05  5.102594E+04  4.504717E+05 -1.671977E+04 -6.913666E+04
        64  10 -4.887118E+05 -1.408275E+06 -5.030991E+05  4.693674E+05  1.757801E-11 -4.461956E-09
        64  11 -2.398921E+05 -7.362759E+05 -2.677220E+05  3.178421E+05  2.092812E-10  7.074413E-11
        64  12 -7.304833E+04 -9.753983E+04 -9.943770E+04  4.226234E+05 -1.427501E-09  5.768362E-09
        64  13 -7.817969E+04  2.432778E+05 -1.001026E+05  4.371716E+05 -5.246970E-10  5.190187E-11
        64  14  3.047204E+03  2.562293E+05 -4.478191E+04  3.087043E+05 -5.434764E-09  1.817379E-10
        64  15  1.047180E+04  2.436601E+05 -2.420709E+04  4.365434E+05 -8.681280E-10  1.741627E-11
        64  16  3.321560E+05  1.897324E+06  3.026961E+05  4.048845E+05  1.112498E-10  4.657644E-09
        64  17  2.459198E+05  1.249652E+06  1.780957E+05  2.995499E+05  2.530741E-10  3.227440E-10
        64  18  9.398475E+04  5.849692E+05  5.101644E+04  4.504708E+05  5.574645E-10 -5.553579E-09
        64  19 -4.887078E+05 -1.408260E+06 -5.030730E+05  4.693690E+05  1.698938E+04  1.164455E+05
        64  20 -2.398898E+05 -7.362732E+05 -2.677148E+05  3.178437E+05  4.070920E+04  4.619462E+04
        64  21 -7.304791E+04 -9.753916E+04 -9.943615E+04  4.226231E+05  1.599125E+04 -2.380192E+04
        64  22 -7.817807E+04  2.432831E+05 -1.000929E+05  4.371725E+05  1.664446E+04  7.010217E+04
        64  23  3.049555E+03  2.562320E+05 -4.477479E+04  3.087058E+05  4.070363E+04  4.621348E+04
        64  24  1.047222E+04  2.436607E+05 -2.420562E+04  4.365437E+05  1.635452E+04  2.265476E+04
        64  25  3.321565E+05  1.897324E+06  3.026977E+05  4.048848E+05  1.630486E+04  2.363546E+04
        64  26  2.459221E+05  1.249655E+06  1.781028E+05  2.995514E+05  4.069806E+04  4.623231E+04
        64  27  9.398633E+04  5.849744E+05  5.102594E+04  4.504717E+05  1.671977E+04  6.913666E+04
        65   1  4.581927E+04  4.282324E+05  2.073388E+04  4.392676E+05  1.040205E+04  1.419129E+04
        65   2  2.073835E+05  1.085228E+06  1.751735E+05  3.130863E+05  4.468059E+04  1.487174E+04
        65   3  3.706432E+05  1.738787E+06  3.285402E+05  4.448359E+05  7.703189E+04  1.560189E+04
        65   4  2.140107E+03  2.484278E+05 -1.777434E+04  4.370847E+05  1.013625E+04 -1.965483E+04
        65   5  4.348154E+03  2.503405E+05 -5.539042E+03  3.080863E+05  4.444530E+04 -1.713352E+04
        65   6  7.960172E+03  2.481004E+05  4.368632E+03  4.370380E+05  7.682442E+04 -1.456339E+04
        65   7 -4.154055E+04  6.865611E+04 -5.628013E+04  4.349024E+05  9.870652E+03 -5.349130E+04
        65   8 -1.987326E+05 -5.838916E+05 -1.862891E+05  3.030918E+05  4.421034E+04 -4.909637E+04
        65   9 -3.548695E+05 -1.240505E+06 -3.199326E+05  4.292546E+05  7.661742E+04 -4.465730E+04
        65  10  4.581910E+04  4.282321E+05  2.073330E+04  4.392675E+05  4.016806E-10 -2.803167E-09
        65  11  2.073813E+05  1.085227E+06  1.751693E+05  3.130858E+05 -2.125688E-09 -9.889296E-10
        65  12  3.706367E+05  1.738786E+06  3.285286E+05  4.448349E+05 -6.093217E-10  1.820565E-09
        65  13  2.139892E+03  2.484274E+05 -1.777526E+04  4.370849E+05 -1.524881E-09  2.244994E-11
        65  14  4.345953E+03  2.503396E+05 -5.543308E+03  3.080869E+05 -4.040343E-10  3.240554E-11
        65  15  7.953776E+03  2.480986E+05  4.357138E+03  4.370389E+05 -6.229808E-09  1.233811E-10
        65  16 -4.154142E+04  6.865301E+04 -5.628569E+04  4.349029E+05  9.393747E-10  2.838267E-09
        65  17 -1.987353E+05 -5.838947E+05 -1.862973E+05  3.030935E+05 -2.360093E-09  1.183610E-09
        65  18 -3.548764E+05 -1.240509E+06 -3.199474E+05  4.292574E+05 -2.125384E-09 -1.895072E-09
        65  19  4.581927E+04  4.282324E+05  2.073388E+04  4.392676E+05 -1.040205E+04 -1.419129E+04
        65  20  2.073835E+05  1.085228E+06  1.751735E+05  3.130863E+05 -4.468059E+04 -1.487174E+04
        65  21  3.706432E+05  1.738787E+06  3.285402E+05  4.448359E+05 -7.703189E+04 -1.560189E+04
        65  22  2.140107E+03  2.484278E+05 -1.777434E+04  4.370847E+05 -1.013625E+04  1.965483E+04
        65  23  4.348154E+03  2.503405E+05 -5.539042E+03  3.080863E+05 -4.444530E+04  1.713352E+04
        65  24  7.960172E+03  2.481004E+05  4.368632E+03  4.370380E+05 -7.682442E+04  1.456339E+04
        65  25 -4.154055E+04  6.865611E+04 -5.628013E+04  4.349024E+05 -9.870652E+03  5.349130E+04
        65  26 -1.987326E+05 -5.838916E+05 -1.862891E+05  3.030918E+05 -4.421034E+04  4.909637E+04
        65  27 -3.548695E+05 -1.240505E+06 -3.199326E+05  4.292546E+05 -7.661742E+04  4.465730E+04
        66   1  4.924961E+05  2.265188E+06  4.450931E+05  4.404263E+05  1.068688E+05  3.967836E+04
        66   2  6.529347E+05  2.909191E+06  6.111893E+05  3.282105E+05  1.184057E+05 -5.882884E+04
        66   3  8.718162E+05  3.579751E+06  8.555204E+05  4.700336E+05  3.916100E+04 -1.569863E+05
        66   4  3.068599E+03  2.510865E+05  8.943609E+03  4.362610E+05  1.065065E+05 -1.576046E+04
        66   5  2.795228E+03  2.450182E+05  2.058998E+04  3.090921E+05  1.186376E+05 -2.672834E+04
        66   6  4.595148E+04  2.500528E+05  4.991315E+04  4.360099E+05  3.981696E+04 -3.723869E+04
        66   7 -4.866249E+05 -1.759211E+06 -4.274353E+05  4.321015E+05  1.061442E+05 -7.102225E+04
        66   8 -6.478216E+05 -2.412549E+06 -5.704459E+05  2.900451E+05  1.188681E+05  5.236628E+03
        66   9 -7.807132E+05 -3.069523E+06 -7.564369E+05  4.021518E+05  4.046182E+04  8.187193E+04
        66  10  4.924834E+05  2.265183E+06  4.450687E+05  4.404229E+05  1.783495E-09 -1.333797E-09
        66  11  6.529187E+05  2.909184E+06  6.111565E+05  3.282161E+05  2.348018E-09  3.538290E-10
        66  12  8.718079E+05  3.579724E+06  8.554714E+05  4.700386E+05  2.777927E-10  1.729731E-09
        66  13  3.056348E+03  2.510832E+05  8.921818E+03  4.362623E+05  5.117452E-09  9.352141E-11
        66  14  2.779918E+03  2.450137E+05  2.056218E+04  3.090947E+05  2.133319E-11  2.613620E-11
        66  15  4.594941E+04  2.500509E+05  4.990756E+04  4.360110E+05  1.918639E-09 -8.016530E-11
        66  16 -4.866384E+05 -1.759220E+06 -4.274660E+05  4.321076E+05 -1.973404E-09  1.315914E-09
        66  17 -6.478367E+05 -2.412552E+06 -5.704725E+05  2.900446E+05 -3.767886E-10 -4.348036E-10
        66  18 -7.807168E+05 -3.069530E+06 -7.564526E+05  4.021491E+05 -1.288804E-09 -1.617226E-09
        66  19  4.924961E+05  2.265188E+06  4.450931E+05  4.404263E+05 -1.068688E+05 -3.967836E+04
        66  20  6.529347E+05  2.909191E+06  6.111893E+05  3.282105E+05 -1.184057E+05  5.882884E+04
        66  21  8.718162E+05  3.579751E+06  8.555204E+05  4.700336E+05 -3.916100E+04  1.569863E+05
        66  22  3.068599E+03  2.510865E+05  8.943609E+03  4.362610E+05 -1.065065E+05  1.576046E+04
        66  23  2.795228E+03  2.450182E+05  2.058998E+04  3.090921E+05 -1.186376E+05  2.672834E+04
        66  24  4.595148E+04  2.500528E+05  4.991315E+04  4.360099E+05 -3.981696E+04  3.723869E+04
        66  25 -4.866249E+05 -1.759211E+06 -4.274353E+05  4.321015E+05 -1.061442E+05  7.102225E+04
        66  26 -6.478216E+05 -2.412549E+06 -5.704459E+05  2.900451E+05 -1.188681E+05 -5.236628E+03
        66  27 -7.807132E+05 -3.069523E+06 -7.564369E+05  4.021518E+05 -4.046182E+04 -8.187193E+04
        67   1  6.460385E+06  1.431791E+06  1.430724E+06  7.132228E+05  2.996716E+05 -6.432987E+04
        67   2  5.431044E+06  1.035803E+06  1.015696E+06  4.833716E+05  1.226808E+05 -1.903795E+05
        67   3  4.469970E+06  7.885999E+05  7.534551E+05  6.376139E+05 -5.365648E+04 -1.735415E+05
        67   4  1.185050E+06  1.272314E+05  1.576832E+05  6.559029E+05  1.077853E+05 -6.400287E+04
        67   5  1.164416E+06 -2.900604E+03  7.211712E+04  4.637152E+05  6.948730E+04 -1.904321E+05
        67   6  1.187613E+06 -7.574772E+03  4.402787E+04  6.557111E+05  3.154757E+04 -1.735559E+05
        67   7 -4.064950E+06 -1.179320E+06 -1.117209E+06  5.990678E+05 -8.249192E+04 -6.364006E+04
        67   8 -3.085318E+06 -1.042824E+06 -8.725755E+05  4.441923E+05  1.665147E+04 -1.904818E+05
        67   9 -2.084671E+06 -8.044527E+05 -6.660097E+05  6.737054E+05  1.163094E+05 -1.735654E+05
        67  10  6.460288E+06  1.431762E+06  1.430549E+06  7.132383E+05  6.343406E-09 -3.464226E-10
        67  11  5.431018E+06  1.035760E+06  1.015600E+06  4.833903E+05  4.842580E-09 -7.942253E-10
        67  12  4.469958E+06  7.885668E+05  7.533931E+05  6.376065E+05 -4.734411E-10 -1.856206E-10
        67  13  1.185037E+06  1.272239E+05  1.576537E+05  6.559085E+05 -7.046627E-11  4.266916E-10
        67  14  1.164401E+06 -2.940873E+03  7.203983E+04  4.637259E+05 -2.333189E-09 -3.531768E-10
        67  15  1.187604E+06 -7.607410E+03  4.396934E+04  6.557155E+05 -9.880053E-10  2.820904E-10
        67  16 -4.064959E+06 -1.179326E+06 -1.117229E+06  5.990635E+05 -2.046874E-09 -3.590585E-10
        67  17 -3.085328E+06 -1.042863E+06 -8.726443E+05  4.441949E+05 -5.615871E-09 -2.210846E-10
        67  18 -2.084694E+06 -8.044888E+05 -6.660920E+05  6.737217E+05 -1.361070E-09  8.963653E-10
        67  19  6.460385E+06  1.431791E+06  1.430724E+06  7.132228E+05 -2.996716E+05  6.432987E+04
        67  20  5.431044E+06  1.035803E+06  1.015696E+06  4.833716E+05 -1.226808E+05  1.903795E+05
        67  21  4.469970E+06  7.885999E+05  7.534551E+05  6.376139E+05  5.365648E+04  1.735415E+05
        67  22  1.185050E+06  1.272314E+05  1.576832E+05  6.559029E+05 -1.077853E+05  6.400287E+04
        67  23  1.164416E+06 -2.900604E+03  7.211712E+04  4.637152E+05 -6.948730E+04  1.904321E+05
        67  24  1.187613E+06 -7.574772E+03  4.402787E+04  6.557111E+05 -3.154757E+04  1.735559E+05
        67  25 -4.064950E+06 -1.179320E+06 -1.117209E+06  5.990678E+05  8.249192E+04  6.364006E+04
        67  26 -3.085318E+06 -1.042824E+06 -8.725755E+05  4.441923E+05 -1.665147E+04  1.904818E+05
        67  27 -2.084671E+06 -8.044527E+05 -6.660097E+05  6.737054E+05 -1.163094E+05  1.735654E+05
        68   1  3.672157E+06  6.114388E+05  5.765512E+05  6.604699E+05 -1.925253E+04 -1.285890E+05
        68   2  2.681925E+06  3.655252E+05  3.473665E+05  4.642805E+05 -3.616782E+04 -7.944414E+04
        68   3  1.697191E+06  1.278148E+05  1.311635E+05  6.564726E+05 -5.315651E+04 -2.412736E+04
        68   4  1.179651E+06  6.134072E+03  3.554469E+04  6.567041E+05  2.510901E+04 -1.285746E+05
        68   5  1.178317E+06  3.795672E+02  2.192084E+04  4.624892E+05  1.414868E+04 -7.938306E+04
        68   6  1.180539E+06  1.867275E+03  1.721682E+04  6.567117E+05  3.088651E+03 -2.400926E+04
        68   7 -1.307052E+06 -5.995798E+05 -5.058251E+05  6.529490E+05  6.929545E+04 -1.285608E+05
        68   8 -3.231716E+05 -3.649137E+05 -3.036495E+05  4.607008E+05  6.434533E+04 -7.932217E+04
        68   9  6.641419E+05 -1.240965E+05 -9.673439E+04  6.569504E+05  5.928765E+04 -2.389104E+04
        68  10  3.672152E+06  6.114209E+05  5.765195E+05  6.604679E+05  1.641764E-08  1.620396E-09
        68  11  2.681922E+06  3.655181E+05  3.473522E+05  4.642782E+05 -4.323882E-09  3.385816E-09
        68  12  1.697188E+06  1.278134E+05  1.311571E+05  6.564715E+05 -1.981167E-08  7.208062E-10
        68  13  1.179646E+06  6.116137E+03  3.551241E+04  6.567067E+05  1.242108E-10  1.581928E-09
        68  14  1.178315E+06  3.727418E+02  2.190861E+04  4.624901E+05  2.305183E-09  2.736379E-09
        68  15  1.180539E+06  1.866653E+03  1.721572E+04  6.567118E+05 -3.221121E-09  2.144890E-09
        68  16 -1.307061E+06 -5.995989E+05 -5.058653E+05  6.529562E+05 -2.166173E-08  1.220836E-09
        68  17 -3.231777E+05 -3.649215E+05 -3.036691E+05  4.607050E+05 -3.753928E-09  1.420991E-09
        68  18  6.641380E+05 -1.240980E+05 -9.674207E+04  6.569516E+05  1.813478E-08  2.412898E-09
        68  19  3.672157E+06  6.114388E+05  5.765512E+05  6.604699E+05  1.925253E+04  1.285890E+05
        68  20  2.681925E+06  3.655252E+05  3.473665E+05  4.642805E+05  3.616782E+04  7.944414E+04
        68  21  1.697191E+06  1.278148E+05  1.311635E+05  6.564726E+05  5.315651E+04  2.412736E+04
        68  22  1.179651E+06  6.134072E+03  3.554469E+04  6.567041E+05 -2.510901E+04  1.285746E+05
        68  23  1.178317E+06  3.795672E+02  2.192084E+04  4.624892E+05 -1.414868E+04  7.938306E+04
        68  24  1.180539E+06  1.867275E+03  1.721682E+04  6.567117E+05 -3.088651E+03  2.400926E+04
        68  25 -1.307052E+06 -5.995798E+05 -5.058251E+05  6.529490E+05 -6.929545E+04  1.285608E+05
        68  26 -3.231716E+05 -3.649137E+05 -3.036495E+05  4.607008E+05 -6.434533E+04  7.932217E+04
        68  27  6.641419E+05 -1.240965E+05 -9.673439E+04  6.569504E+05 -5.928765E+04  2.389104E+04
        69   1  9.144456E+05 -6.307521E+04 -4.313883E+04  6.569659E+05 -5.614936E+04  1.038542E+04
        69   2 -7.243437E+04 -3.037266E+05 -2.521869E+05  4.608828E+05 -6.011494E+04  6.586697E+04
        69   3 -1.056642E+06 -5.394230E+05 -4.575776E+05  6.532196E+05 -6.399060E+04  1.154538E+05
        69   4  1.180403E+06  2.021533E+03  1.670133E+04  6.566963E+05 -2.453777E+01  1.050586E+04
        69   5  1.178659E+06  6.281266E+02  1.917456E+04  4.625087E+05 -9.701255E+03  6.593772E+04
        69   6  1.179665E+06  5.233881E+03  2.928918E+04  6.566903E+05 -1.929420E+04  1.154838E+05
        69   7  1.446433E+06  6.711513E+04  7.654880E+04  6.564266E+05  5.612406E+04  1.062621E+04
        69   8  2.431225E+06  3.048808E+05  2.904524E+05  4.641368E+05  4.081269E+04  6.600864E+04
        69   9  3.420664E+06  5.495601E+05  5.158637E+05  6.601697E+05  2.556139E+04  1.155141E+05
        69  10  9.144422E+05 -6.307617E+04 -4.314495E+04  6.569663E+05  3.187862E-10 -7.607315E-10
        69  11 -7.243942E+04 -3.037322E+05 -2.522019E+05  4.608860E+05 -5.395797E-09 -5.378884E-10
        69  12 -1.056650E+06 -5.394384E+05 -4.576104E+05  6.532256E+05  2.382428E-10 -1.466780E-09
        69  13  1.180403E+06  2.021414E+03  1.670112E+04  6.566963E+05 -1.400875E-10 -5.569439E-11
        69  14  1.178658E+06  6.234294E+02  1.916621E+04  4.625092E+05  1.171232E-09 -1.109815E-09
        69  15  1.179661E+06  5.219449E+03  2.926339E+04  6.566921E+05  1.088244E-09 -7.277549E-10
        69  16  1.446429E+06  6.711416E+04  7.654269E+04  6.564261E+05 -1.350923E-09  1.427648E-09
        69  17  2.431222E+06  3.048756E+05  2.904411E+05  4.641346E+05  3.898451E-10 -2.521058E-09
        69  18  3.420659E+06  5.495456E+05  5.158374E+05  6.601674E+05  2.418512E-10  1.830797E-10
        69  19  9.144456E+05 -6.307521E+04 -4.313883E+04  6.569659E+05  5.614936E+04 -1.038542E+04
        69  20 -7.243437E+04 -3.037266E+05 -2.521869E+05  4.608828E+05  6.011494E+04 -6.586697E+04
        69  21 -1.056642E+06 -5.394230E+05 -4.575776E+05  6.532196E+05  6.399060E+04 -1.154538E+05
        69  22  1.180403E+06  2.021533E+03  1.670133E+04  6.566963E+05  2.453777E+01 -1.050586E+04
        69  23  1.178659E+06  6.281266E+02  1.917456E+04  4.625087E+05  9.701255E+03 -6.593772E+04
        69  24  1.179665E+06  5.233881E+03  2.928918E+04  6.566903E+05  1.929420E+04 -1.154838E+05
        69  25  1.446433E+06  6.711513E+04  7.654880E+04  6.564266E+05 -5.612406E+04 -1.062621E+04
        69  26  2.431225E+06  3.048808E+05  2.904524E+05  4.641368E+05 -4.081269E+04 -6.600864E+04
        69  27  3.420664E+06  5.495601E+05  5.158637E+05  6.601697E+05 -2.556139E+04 -1.155141E+05
        70   1 -1.835539E+06 -7.415358E+05 -6.198997E+05  6.694285E+05 -1.080755E+05  1.599252E+05
        70   2 -2.832035E+06 -9.811053E+05 -8.314742E+05  4.477189E+05 -6.968644E+03  1.786531E+05
        70   3 -3.814700E+06 -1.142883E+06 -1.088285E+06  6.103456E+05  9.369092E+04  6.005498E+04
        70   4  1.186070E+06 -5.782761E+03  3.583308E+04  6.557235E+05 -2.461294E+04  1.599432E+05
        70   5  1.167051E+06 -2.578598E+03  5.772062E+04  4.637076E+05 -5.495486E+04  1.785960E+05
        70   6  1.183670E+06  1.010388E+05  1.256808E+05  6.558422E+05 -8.558408E+04  6.032864E+04
        70   7  4.216265E+06  7.293707E+05  6.910484E+05  6.419448E+05  5.925150E+04  1.599573E+05
        70   8  5.181091E+06  9.748678E+05  9.459281E+05  4.797978E+05 -1.032469E+05  1.785368E+05
        70   9  6.204992E+06  1.343151E+06  1.337965E+06  7.017060E+05 -2.663025E+05  6.057545E+04
        70  10 -1.835558E+06 -7.415664E+05 -6.199699E+05  6.694424E+05  3.202498E-09 -5.212002E-10
        70  11 -2.832044E+06 -9.811396E+05 -8.315343E+05  4.477199E+05  1.043799E-09  1.686556E-09
        70  12 -3.814710E+06 -1.142890E+06 -1.088308E+06  6.103410E+05 -4.087153E-11  1.227676E-09
        70  13  1.186062E+06 -5.810415E+03  3.578382E+04  6.557267E+05 -2.205278E-09  4.265874E-10
        70  14  1.167040E+06 -2.613686E+03  5.765494E+04  4.637155E+05  9.223936E-10  1.152587E-09
        70  15  1.183661E+06  1.010329E+05  1.256602E+05  6.558463E+05 -7.213889E-10  3.509295E-10
        70  16  4.216255E+06  7.293423E+05  6.909938E+05  6.419372E+05  1.914069E-10  1.425564E-09
        70  17  5.181072E+06  9.748307E+05  9.458482E+05  4.798126E+05  4.617135E-09 -1.115432E-10
        70  18  6.204915E+06  1.343128E+06  1.337826E+06  7.017189E+05 -1.292723E-11 -1.307009E-10
        70  19 -1.835539E+06 -7.415358E+05 -6.198997E+05  6.694285E+05  1.080755E+05 -1.599252E+05
        70  20 -2.832035E+06 -9.811053E+05 -8.314742E+05  4.477189E+05  6.968644E+03 -1.786531E+05
        70  21 -3.814700E+06 -1.142883E+06 -1.088285E+06  6.103456E+05 -9.369092E+04 -6.005498E+04
        70  22  1.186070E+06 -5.782761E+03  3.583308E+04  6.557235E+05  2.461294E+04 -1.599432E+05
        70  23  1.167051E+06 -2.578598E+03  5.772062E+04  4.637076E+05  5.495486E+04 -1.785960E+05
        70  24  1.183670E+06  1.010388E+05  1.256808E+05  6.558422E+05  8.558408E+04 -6.032864E+04
        70  25  4.216265E+06  7.293707E+05  6.910484E+05  6.419448E+05 -5.925150E+04 -1.599573E+05
        70  26  5.181091E+06  9.748678E+05  9.459281E+05  4.797978E+05  1.032469E+05 -1.785368E+05
        70  27  6.204992E+06  1.343151E+06  1.337965E+06  7.017060E+05  2.663025E+05 -6.057545E+04
        71   1 -1.356822E+06 -5.228757E+06 -1.355213E+06  9.447114E+05 -5.843172E+04 -2.456507E+05
        71   2 -9.007327E+05 -3.821783E+06 -8.785012E+05  6.481321E+05 -1.611449E+05 -7.976250E+04
        71   3 -5.493173E+05 -2.463474E+06 -5.370641E+05  8.910618E+05 -1.202786E+05  8.579336E+04
        71   4 -8.969731E+04 -1.464440E+05 -1.162704E+05  9.183070E+05 -5.745145E+04 -7.857644E+04
        71   5  3.746661E+03 -1.317844E+05 -5.419844E+04  6.483127E+05 -1.608750E+05 -4.933262E+04
        71   6  1.685964E+04 -1.434048E+05 -3.167466E+04  9.176982E+05 -1.210867E+05 -2.080041E+04
        71   7  1.175539E+06  4.959626E+06  1.120902E+06  8.916351E+05 -5.649037E+04  8.987293E+04
        71   8  9.072995E+05  3.570959E+06  7.692520E+05  6.484676E+05 -1.606061E+05 -1.872227E+04
        71   9  5.826862E+05  2.181748E+06  4.734345E+05  9.444226E+05 -1.219022E+05 -1.277885E+05
        71  10 -1.356842E+06 -5.228823E+06 -1.355334E+06  9.446998E+05 -1.858353E-10 -1.501231E-09
        71  11 -9.007623E+05 -3.821797E+06 -8.785620E+05  6.481218E+05  1.209132E-09  1.570601E-09
        71  12 -5.493348E+05 -2.463486E+06 -5.371052E+05  8.910701E+05  3.450548E-09  4.300294E-09
        71  13 -8.970250E+04 -1.464515E+05 -1.162882E+05  9.183033E+05  4.537989E-09  1.501398E-11
        71  14  3.718229E+03 -1.317940E+05 -5.425160E+04  6.483063E+05  2.506597E-10  1.365892E-11
        71  15  1.684378E+04 -1.434091E+05 -3.170301E+04  9.176962E+05  1.068606E-09  7.350831E-10
        71  16  1.175534E+06  4.959616E+06  1.120881E+06  8.916391E+05  2.002717E-09  1.925882E-09
        71  17  9.072718E+05  3.570951E+06  7.692029E+05  6.484652E+05 -3.043595E-10 -1.830067E-09
        71  18  5.826660E+05  2.181727E+06  4.733761E+05  9.444101E+05  4.424991E-10 -5.001403E-09
        71  19 -1.356822E+06 -5.228757E+06 -1.355213E+06  9.447114E+05  5.843172E+04  2.456507E+05
        71  20 -9.007327E+05 -3.821783E+06 -8.785012E+05  6.481321E+05  1.611449E+05  7.976250E+04
        71  21 -5.493173E+05 -2.463474E+06 -5.370641E+05  8.910618E+05  1.202786E+05 -8.579336E+04
        71  22 -8.969731E+04 -1.464440E+05 -1.162704E+05  9.183070E+05  5.745145E+04  7.857644E+04
        71  23  3.746661E+03 -1.317844E+05 -5.419844E+04  6.483127E+05  1.608750E+05  4.933262E+04
        71  24  1.685964E+04 -1.434048E+05 -3.167466E+04  9.176982E+05  1.210867E+05  2.080041E+04
        71  25  1.175539E+06  4.959626E+06  1.120902E+06  8.916351E+05  5.649037E+04 -8.987293E+04
        71  26  9.072995E+05  3.570959E+06  7.692520E+05  6.484676E+05  1.606061E+05  1.872227E+04
        71  27  5.826862E+05  2.181748E+06  4.734345E+05  9.444226E+05  1.219022E+05  1.277885E+05
        72   1 -2.889360E+05 -1.357838E+06 -2.923274E+05  9.144599E+05 -6.144958E+04  5.106442E+04
        72   2  4.981470E+04  3.059641E+04  1.931194E+04  6.476438E+05  9.263189E+03  5.845810E+04
        72   3  3.890589E+05  1.411195E+06  3.239185E+05  9.262274E+05  7.959435E+04  6.588598E+04
        72   4  8.365304E+03 -1.388548E+05 -2.597599E+04  9.191936E+05 -6.200087E+04 -1.688883E+04
        72   5  9.730803E+03 -1.340784E+05 -1.636855E+04  6.464796E+05  8.724337E+03 -9.183776E+03
        72   6  1.165496E+04 -1.389902E+05 -1.393061E+04  9.191658E+05  7.906124E+04 -1.461265E+03
        72   7  3.055700E+05  1.081532E+06  2.403031E+05  9.239329E+05 -6.255255E+04 -8.497402E+04
        72   8 -3.035243E+04 -2.987180E+05 -5.203346E+04  6.453157E+05  8.185657E+03 -7.680795E+04
        72   9 -3.659062E+05 -1.686916E+06 -3.519072E+05  9.121161E+05  7.852889E+04 -6.864277E+04
        72  10 -2.889408E+05 -1.357842E+06 -2.923395E+05  9.144625E+05  1.589146E-09  1.435509E-08
        72  11  4.981369E+04  3.059271E+04  1.930536E+04  6.476434E+05 -1.284260E-09 -3.428859E-10
        72  12  3.890510E+05  1.411188E+06  3.238985E+05  9.262232E+05 -4.611921E-09 -1.694869E-08
        72  13  8.361102E+03 -1.388561E+05 -2.598374E+04  9.191927E+05 -2.672822E-09  9.118363E-11
        72  14  9.730698E+03 -1.340785E+05 -1.636885E+04  6.464797E+05 -1.199837E-09  2.187243E-10
        72  15  1.164825E+04 -1.389918E+05 -1.394236E+04  9.191659E+05 -2.429845E-09  8.648204E-10
        72  16  3.055639E+05  1.081523E+06  2.402822E+05  9.239286E+05 -2.638771E-10 -1.382912E-08
        72  17 -3.035409E+04 -2.987244E+05 -5.204468E+04  6.453163E+05 -6.363468E-09  5.600478E-10
        72  18 -3.659141E+05 -1.686923E+06 -3.519277E+05  9.121205E+05  9.337814E-10  1.633832E-08
        72  19 -2.889360E+05 -1.357838E+06 -2.923274E+05  9.144599E+05  6.144958E+04 -5.106442E+04
        72  20  4.981470E+04  3.059641E+04  1.931194E+04  6.476438E+05 -9.263189E+03 -5.845810E+04
        72  21  3.890589E+05  1.411195E+06  3.239185E+05  9.262274E+05 -7.959435E+04 -6.588598E+04
        72  22  8.365304E+03 -1.388548E+05 -2.597599E+04  9.191936E+05  6.200087E+04  1.688883E+04
        72  23  9.730803E+03 -1.340784E+05 -1.636855E+04  6.464796E+05 -8.724337E+03  9.183776E+03
        72  24  1.165496E+04 -1.389902E+05 -1.393061E+04  9.191658E+05 -7.906124E+04  1.461265E+03
        72  25  3.055700E+05  1.081532E+06  2.403031E+05  9.239329E+05  6.255255E+04  8.497402E+04
        72  26 -3.035243E+04 -2.987180E+05 -5.203346E+04  6.453157E+05 -8.185657E+03  7.680795E+04
        72  27 -3.659062E+05 -1.686916E+06 -3.519072E+05  9.121161E+05 -7.852889E+04  6.864277E+04
        73   1  6.587877E+05  2.516221E+06  5.626340E+05  9.360687E+05  1.395578E+05  1.088947E+05
        73   2  9.877916E+05  3.895028E+06  8.773034E+05  6.611219E+05  1.757596E+05 -2.716780E+04
        73   3  1.325259E+06  5.294062E+06  1.281724E+06  9.247393E+05  6.084425E+04 -1.628375E+05
        73   4  1.299782E+04 -1.393622E+05 -1.366243E+04  9.176649E+05  1.387592E+05  1.774864E+02
        73   5  3.863481E+03 -1.376393E+05 -1.863209E+04  6.483590E+05  1.760731E+05  9.885660E+03
        73   6 -2.194891E+04 -1.426633E+05 -3.472566E+04  9.178443E+05  6.182612E+04  2.029233E+04
        73   7 -6.332517E+05 -2.788321E+06 -5.903354E+05  8.993238E+05  1.379649E+05 -1.080822E+05
        73   8 -9.811626E+05 -4.155191E+06 -9.155760E+05  6.356490E+05  1.763863E+05  4.670205E+04
        73   9 -1.371301E+06 -5.552460E+06 -1.353177E+06  9.109566E+05  6.280923E+04  2.018330E+05
        73  10  6.587636E+05  2.516203E+06  5.625753E+05  9.360565E+05  4.272822E-10 -1.619724E-09
        73  11  9.877582E+05  3.895019E+06  8.772440E+05  6.611258E+05  2.833419E-09  2.762563E-10
        73  12  1.325247E+06  5.294033E+06  1.281668E+06  9.247473E+05  9.375441E-10 -5.887738E-10
        73  13  1.297715E+04 -1.393674E+05 -1.369861E+04  9.176649E+05  3.210647E-09 -1.883749E-11
        73  14  3.830169E+03 -1.376478E+05 -1.869052E+04  6.483576E+05  4.790677E-09 -9.703593E-11
        73  15 -2.195312E+04 -1.426648E+05 -3.473361E+04  9.178433E+05  2.031607E-09  4.003135E-10
        73  16 -6.332753E+05 -2.788339E+06 -5.903933E+05  8.993358E+05  1.496474E-09  2.129324E-09
        73  17 -9.811966E+05 -4.155202E+06 -9.156386E+05  6.356423E+05  1.972209E-09 -4.551793E-10
        73  18 -1.371316E+06 -5.552506E+06 -1.353262E+06  9.109463E+05 -4.713317E-10  3.696368E-10
        73  19  6.587877E+05  2.516221E+06  5.626340E+05  9.360687E+05 -1.395578E+05 -1.088947E+05
        73  20  9.877916E+05  3.895028E+06  8.773034E+05  6.611219E+05 -1.757596E+05  2.716780E+04
        73  21  1.325259E+06  5.294062E+06  1.281724E+06  9.247393E+05 -6.084425E+04  1.628375E+05
        73  22  1.299782E+04 -1.393622E+05 -1.366243E+04  9.176649E+05 -1.387592E+05 -1.774864E+02
        73  23  3.863481E+03 -1.376393E+05 -1.863209E+04  6.483590E+05 -1.760731E+05 -9.885660E+03
        73  24 -2.194891E+04 -1.426633E+05 -3.472566E+04  9.178443E+05 -6.182612E+04 -2.029233E+04
        73  25 -6.332517E+05 -2.788321E+06 -5.903354E+05  8.993238E+05 -1.379649E+05  1.080822E+05
        73  26 -9.811626E+05 -4.155191E+06 -9.155760E+05  6.356490E+05 -1.763863E+05 -4.670205E+04
        73  27 -1.371301E+06 -5.552460E+06 -1.353177E+06  9.109566E+05 -6.280923E+04 -2.018330E+05
        74   1  5.893496E+06  1.260660E+06  1.259929E+06  6.281263E+05  2.656442E+05 -5.640843E+04
        74   2  4.990516E+06  9.096413E+05  8.935996E+05  4.249475E+05  1.092815E+05 -1.670877E+05
        74   3  4.147475E+06  6.921415E+05  6.626991E+05  5.587420E+05 -4.656996E+04 -1.523246E+05
        74   4  1.264886E+06  1.156619E+05  1.426191E+05  5.753796E+05  9.734881E+04 -5.615273E+04
        74   5  1.246605E+06 -2.012291E+03  6.543595E+04  4.067820E+05  6.262320E+04 -1.671271E+05
        74   6  1.266875E+06 -6.691419E+03  4.001264E+04  5.752241E+05  2.817784E+04 -1.523381E+05
        74   7 -3.344212E+06 -1.030870E+06 -9.761162E+05  5.230248E+05 -6.970732E+04 -5.586818E+04
        74   8 -2.484294E+06 -9.146049E+05 -7.635855E+05  3.887251E+05  1.624040E+04 -1.671640E+05
        74   9 -1.605966E+06 -7.060660E+05 -5.831440E+05  5.916247E+05  1.025850E+05 -1.523475E+05
        74  10  5.893419E+06  1.260638E+06  1.259792E+06  6.281383E+05  1.315976E-09 -6.536673E-10
        74  11  4.990496E+06  9.096081E+05  8.935248E+05  4.249622E+05  2.248876E-09 -6.743756E-11
        74  12  4.147467E+06  6.921160E+05  6.626515E+05  5.587363E+05  2.395475E-09  1.467049E-09
        74  13  1.264875E+06  1.156559E+05  1.425954E+05  5.753840E+05 -6.032373E-11  6.205454E-10
        74  14  1.246593E+06 -2.043361E+03  6.537604E+04  4.067904E+05  2.043484E-09  3.313947E-10
        74  15  1.266868E+06 -6.716572E+03  3.996750E+04  5.752275E+05  2.525073E-09  5.711472E-10
        74  16 -3.344218E+06 -1.030875E+06 -9.761313E+05  5.230216E+05 -2.544799E-09 -4.986252E-10
        74  17 -2.484301E+06 -9.146350E+05 -7.636385E+05  3.887273E+05 -1.796502E-09  1.042460E-09
        74  18 -1.605984E+06 -7.060938E+05 -5.832076E+05  5.916373E+05 -3.280688E-09 -3.240515E-10
        74  19  5.893496E+06  1.260660E+06  1.259929E+06  6.281263E+05 -2.656442E+05  5.640843E+04
        74  20  4.990516E+06  9.096413E+05  8.935996E+05  4.249475E+05 -1.092815E+05  1.670877E+05
        74  21  4.147475E+06  6.921415E+05  6.626991E+05  5.587420E+05  4.656996E+04  1.523246E+05
        74  22  1.264886E+06  1.156619E+05  1.426191E+05  5.753796E+05 -9.734881E+04  5.615273E+04
        74  23  1.246605E+06 -2.012291E+03  6.543595E+04  4.067820E+05 -6.262320E+04  1.671271E+05
        74  24  1.266875E+06 -6.691419E+03  4.001264E+04  5.752241E+05 -2.817784E+04  1.523381E+05
        74  25 -3.344212E+06 -1.030870E+06 -9.761162E+05  5.230248E+05  6.970732E+04  5.586818E+04
        74  26 -2.484294E+06 -9.146049E+05 -7.635855E+05  3.887251E+05 -1.624040E+04  1.671640E+05
        74  27 -1.605966E+06 -7.060660E+05 -5.831440E+05  5.916247E+05 -1.025850E+05  1.523475E+05
        75   1  3.447690E+06  5.369643E+05  5.074091E+05  5.792860E+05 -1.658138E+04 -1.128853E+05
        75   2  2.579169E+06  3.209563E+05  3.062881E+05  4.071773E+05 -3.202099E+04 -6.977460E+04
        75   3  1.715465E+06  1.123296E+05  1.169991E+05  5.757638E+05 -4.751663E+04 -2.124990E+04
        75   4  1.259785E+06  5.583210E+03  3.247422E+04  5.760847E+05  2.232717E+04 -1.128754E+05
        75   5  1.258510E+06  2.331959E+02  2.043566E+04  4.057187E+05  1.211143E+04 -6.972893E+04
        75   6  1.260470E+06  1.420471E+03  1.666616E+04  5.760907E+05  1.818751E+03 -2.116046E+04
        75   7 -9.236471E+05 -5.261132E+05 -4.427406E+05  5.728918E+05  6.110089E+04 -1.128660E+05
        75   8 -6.051378E+04 -3.206038E+05 -2.655130E+05  4.042622E+05  5.615151E+04 -6.968339E+04
        75   9  8.056742E+05 -1.095013E+05 -8.367039E+04  5.764173E+05  5.111849E+04 -2.107093E+04
        75  10  3.447686E+06  5.369505E+05  5.073847E+05  5.792845E+05  5.484461E-09  1.571506E-09
        75  11  2.579167E+06  3.209508E+05  3.062771E+05  4.071755E+05 -2.430907E-10 -2.039296E-10
        75  12  1.715462E+06  1.123286E+05  1.169940E+05  5.757629E+05 -2.559409E-09 -1.885156E-09
        75  13  1.259781E+06  5.569384E+03  3.244932E+04  5.760868E+05  1.894920E-09  3.799927E-11
        75  14  1.258509E+06  2.279317E+02  2.042624E+04  4.057194E+05  1.558062E-09  6.368386E-10
        75  15  1.260470E+06  1.419989E+03  1.666531E+04  5.760908E+05  6.396441E-10  6.581092E-11
        75  16 -9.236546E+05 -5.261279E+05 -4.427716E+05  5.728974E+05 -3.314105E-09 -9.620512E-10
        75  17 -6.051847E+04 -3.206099E+05 -2.655281E+05  4.042654E+05  1.429983E-09 -1.344223E-10
        75  18  8.056713E+05 -1.095025E+05 -8.367613E+04  5.764182E+05 -1.512901E-09  2.147179E-09
        75  19  3.447690E+06  5.369643E+05  5.074091E+05  5.792860E+05  1.658138E+04  1.128853E+05
        75  20  2.579169E+06  3.209563E+05  3.062881E+05  4.071773E+05  3.202099E+04  6.977460E+04
        75  21  1.715465E+06  1.123296E+05  1.169991E+05  5.757638E+05  4.751663E+04  2.124990E+04
        75  22  1.259785E+06  5.583210E+03  3.247422E+04  5.760847E+05 -2.232717E+04  1.128754E+05
        75  23  1.258510E+06  2.331959E+02  2.043566E+04  4.057187E+05 -1.211143E+04  6.972893E+04
        75  24  1.260470E+06  1.420471E+03  1.666616E+04  5.760907E+05 -1.818751E+03  2.116046E+04
        75  25 -9.236471E+05 -5.261132E+05 -4.427406E+05  5.728918E+05 -6.110089E+04  1.128660E+05
        75  26 -6.051378E+04 -3.206038E+05 -2.655130E+05  4.042622E+05 -5.615151E+04  6.968339E+04
        75  27  8.056742E+05 -1.095013E+05 -8.367039E+04  5.764173E+05 -5.111849E+04  2.107093E+04
        76   1  1.029017E+06 -5.517674E+04 -3.551668E+04  5.765986E+05 -5.043594E+04  9.020709E+03
        76   2  1.630533E+05 -2.660696E+05 -2.176578E+05  4.043630E+05 -5.547668E+04  5.767825E+04
        76   3 -7.001593E+05 -4.715439E+05 -3.952800E+05  5.728294E+05 -6.044635E+04  1.011699E+05
        76   4  1.260430E+06  1.460987E+03  1.656184E+04  5.760740E+05 -1.204675E+03  9.112000E+03
        76   5  1.258694E+06  4.191972E+02  1.994377E+04  4.057396E+05 -1.124909E+04  5.773148E+04
        76   6  1.259861E+06  5.700169E+03  3.132636E+04  5.760677E+05 -2.122923E+04  1.011919E+05
        76   7  1.491898E+06  5.809636E+04  6.864605E+04  5.755493E+05  4.804473E+04  9.203185E+03
        76   8  2.355465E+06  2.668297E+05  2.574813E+05  4.071179E+05  3.305550E+04  5.778484E+04
        76   9  3.223484E+06  4.826903E+05  4.577083E+05  5.793138E+05  1.811026E+04  1.012143E+05
        76  10  1.029015E+06 -5.517751E+04 -3.552161E+04  5.765989E+05  1.119050E-09 -7.573917E-10
        76  11  1.630491E+05 -2.660740E+05 -2.176699E+05  4.043656E+05  7.637347E-10 -2.746909E-10
        76  12 -7.001660E+05 -4.715558E+05 -3.953061E+05  5.728343E+05 -2.031870E-09 -2.033105E-09
        76  13  1.260430E+06  1.460897E+03  1.656168E+04  5.760741E+05  1.681076E-11  1.059406E-10
        76  14  1.258693E+06  4.155816E+02  1.993726E+04  4.057401E+05 -1.367071E-09 -1.786640E-09
        76  15  1.259857E+06  5.689043E+03  3.130625E+04  5.760694E+05  2.009140E-09 -2.151514E-09
        76  16  1.491896E+06  5.809565E+04  6.864156E+04  5.755489E+05 -1.015097E-09  1.097829E-09
        76  17  2.355462E+06  2.668258E+05  2.574730E+05  4.071164E+05 -2.448201E-09 -1.614861E-09
        76  18  3.223481E+06  4.826792E+05  4.576885E+05  5.793124E+05  7.050730E-09 -7.475244E-10
        76  19  1.029017E+06 -5.517674E+04 -3.551668E+04  5.765986E+05  5.043594E+04 -9.020709E+03
        76  20  1.630533E+05 -2.660696E+05 -2.176578E+05  4.043630E+05  5.547668E+04 -5.767825E+04
        76  21 -7.001593E+05 -4.715439E+05 -3.952800E+05  5.728294E+05  6.044635E+04 -1.011699E+05
        76  22  1.260430E+06  1.460987E+03  1.656184E+04  5.760740E+05  1.204675E+03 -9.112000E+03
        76  23  1.258694E+06  4.191972E+02  1.994377E+04  4.057396E+05  1.124909E+04 -5.773148E+04
        76  24  1.259861E+06  5.700169E+03  3.132636E+04  5.760677E+05  2.122923E+04 -1.011919E+05
        76  25  1.491898E+06  5.809636E+04  6.864605E+04  5.755493E+05 -4.804473E+04 -9.203185E+03
        76  26  2.355465E+06  2.668297E+05  2.574813E+05  4.071179E+05 -3.305550E+04 -5.778484E+04
        76  27  3.223484E+06  4.826903E+05  4.577083E+05  5.793138E+05 -1.811026E+04 -1.012143E+05
        77   1 -1.382494E+06 -6.508796E+05 -5.362262E+05  5.905522E+05 -1.001021E+05  1.401744E+05
        77   2 -2.259686E+06 -8.593556E+05 -7.166866E+05  3.886810E+05 -1.786948E+04  1.566128E+05
        77   3 -3.119610E+06 -9.793930E+05 -9.276579E+05  5.240595E+05  6.402526E+04  5.268980E+04
        77   4  1.266624E+06 -6.031643E+03  3.848936E+04  5.752466E+05 -2.687506E+04  1.401870E+05
        77   5  1.247468E+06 -1.535144E+03  6.282814E+04  4.067561E+05 -5.995702E+04  1.565697E+05
        77   6  1.264753E+06  1.111903E+05  1.366915E+05  5.753620E+05 -9.326243E+04  5.290423E+04
        77   7  3.922339E+06  6.383561E+05  6.128074E+05  5.598707E+05  4.666096E+04  1.401958E+05
        77   8  4.766116E+06  8.554554E+05  8.415840E+05  4.249327E+05 -1.022795E+05  1.565243E+05
        77   9  5.666767E+06  1.200386E+06  1.199749E+06  6.270281E+05 -2.516598E+05  5.309225E+04
        77  10 -1.382510E+06 -6.509034E+05 -5.362821E+05  5.905635E+05 -1.587096E-09 -1.099164E-09
        77  11 -2.259693E+06 -8.593820E+05 -7.167333E+05  3.886833E+05 -1.158929E-09  2.958712E-09
        77  12 -3.119616E+06 -9.793971E+05 -9.276708E+05  5.240568E+05  2.656796E-09  9.476459E-10
        77  13  1.266617E+06 -6.052957E+03  3.845104E+04  5.752497E+05 -1.898898E-09 -3.330582E-10
        77  14  1.247457E+06 -1.562454E+03  6.277528E+04  4.067637E+05  7.802540E-10  1.900823E-09
        77  15  1.264743E+06  1.111849E+05  1.366699E+05  5.753660E+05 -3.156158E-09  3.061087E-10
        77  16  3.922331E+06  6.383344E+05  6.127664E+05  5.598655E+05  5.624527E-09 -8.202767E-11
        77  17  4.766098E+06  8.554263E+05  8.415184E+05  4.249456E+05 -3.473344E-09  1.693477E-10
        77  18  5.666699E+06  1.200366E+06  1.199625E+06  6.270389E+05 -2.195409E-09 -4.316475E-10
        77  19 -1.382494E+06 -6.508796E+05 -5.362262E+05  5.905522E+05  1.001021E+05 -1.401744E+05
        77  20 -2.259686E+06 -8.593556E+05 -7.166866E+05  3.886810E+05  1.786948E+04 -1.566128E+05
        77  21 -3.119610E+06 -9.793930E+05 -9.276579E+05  5.240595E+05 -6.402526E+04 -5.268980E+04
        77  22  1.266624E+06 -6.031643E+03  3.848936E+04  5.752466E+05  2.687506E+04 -1.401870E+05
        77  23  1.247468E+06 -1.535144E+03  6.282814E+04  4.067561E+05  5.995702E+04 -1.565697E+05
        77  24  1.264753E+06  1.111903E+05  1.366915E+05  5.753620E+05  9.326243E+04 -5.290423E+04
        77  25  3.922339E+06  6.383561E+05  6.128074E+05  5.598707E+05 -4.666096E+04 -1.401958E+05
        77  26  4.766116E+06  8.554554E+05  8.415840E+05  4.249327E+05  1.022795E+05 -1.565243E+05
        77  27  5.666767E+06  1.200386E+06  1.199749E+06  6.270281E+05  2.516598E+05 -5.309225E+04
        78   1 -1.346850E+06 -5.059897E+06 -1.347951E+06  9.188725E+05 -5.741372E+04 -2.564225E+05
        78   2 -8.881068E+05 -3.706035E+06 -8.752587E+05  6.271741E+05 -1.590848E+05 -8.886862E+04
        78   3 -5.497967E+05 -2.404456E+06 -5.427248E+05  8.533801E+05 -1.205481E+05  7.842282E+04
        78   4 -1.074370E+05 -8.764968E+04 -1.361845E+05  8.821167E+05 -5.652446E+04 -9.204262E+04
        78   5  2.706994E+03 -7.106596E+04 -6.354506E+04  6.228915E+05 -1.588279E+05 -5.791764E+04
        78   6  1.623150E+04 -8.477816E+04 -3.757315E+04  8.814628E+05 -1.212733E+05 -2.442429E+04
        78   7  1.130173E+06  4.907335E+06  1.073889E+06  8.450199E+05 -5.565916E+04  7.366092E+04
        78   8  8.926225E+05  3.576270E+06  7.473423E+05  6.185593E+05 -1.585724E+05 -2.678579E+04
        78   9  5.819095E+05  2.239980E+06  4.672956E+05  9.096397E+05 -1.220062E+05 -1.276517E+05
        78  10 -1.346871E+06 -5.059969E+06 -1.348081E+06  9.188607E+05  4.525725E-10  1.514899E-08
        78  11 -8.881361E+05 -3.706051E+06 -8.753211E+05  6.271627E+05  2.391394E-09  2.977108E-09
        78  12 -5.498140E+05 -2.404466E+06 -5.427637E+05  8.533878E+05  2.504274E-09 -1.573198E-08
        78  13 -1.074427E+05 -8.765963E+04 -1.362064E+05  8.821125E+05  6.126962E-09  1.039171E-09
        78  14  2.679019E+03 -7.107632E+04 -6.359872E+04  6.228841E+05 -1.671277E-09  1.231084E-11
        78  15  1.621555E+04 -8.478274E+04 -3.760188E+04  8.814604E+05  3.588037E-10  2.369900E-09
        78  16  1.130168E+06  4.907329E+06  1.073873E+06  8.450232E+05  2.427815E-09 -1.683876E-08
        78  17  8.925953E+05  3.576262E+06  7.472938E+05  6.185559E+05 -2.376838E-09 -3.650683E-09
        78  18  5.818892E+05  2.239958E+06  4.672372E+05  9.096272E+05  3.519751E-09  1.462875E-08
        78  19 -1.346850E+06 -5.059897E+06 -1.347951E+06  9.188725E+05  5.741372E+04  2.564225E+05
        78  20 -8.881068E+05 -3.706035E+06 -8.752587E+05  6.271741E+05  1.590848E+05  8.886862E+04
        78  21 -5.497967E+05 -2.404456E+06 -5.427248E+05  8.533801E+05  1.205481E+05 -7.842282E+04
        78  22 -1.074370E+05 -8.764968E+04 -1.361845E+05  8.821167E+05  5.652446E+04  9.204262E+04
        78  23  2.706994E+03 -7.106596E+04 -6.354506E+04  6.228915E+05  1.588279E+05  5.791764E+04
        78  24  1.623150E+04 -8.477816E+04 -3.757315E+04  8.814628E+05  1.212733E+05  2.442429E+04
        78  25  1.130173E+06  4.907335E+06  1.073889E+06  8.450199E+05  5.565916E+04 -7.366092E+04
        78  26  8.926225E+05  3.576270E+06  7.473423E+05  6.185593E+05  1.585724E+05  2.678579E+04
        78  27  5.819095E+05  2.239980E+06  4.672956E+05  9.096397E+05  1.220062E+05  1.276517E+05
        79   1 -3.017528E+05 -1.341868E+06 -3.067276E+05  8.787681E+05 -6.387056E+04  4.545105E+04
        79   2  2.484921E+04 -8.740944E+03 -5.726678E+03  6.217252E+05  3.928463E+03  5.492868E+04
        79   3  3.498876E+05  1.316507E+06  2.865993E+05  8.883058E+05  7.157380E+04  6.443336E+04
        79   4  6.130701E+03 -7.932958E+04 -3.095980E+04  8.829275E+05 -6.436384E+04 -1.958943E+04
        79   5  8.820464E+03 -7.457984E+04 -1.999549E+04  6.211021E+05  3.441653E+03 -1.001088E+04
        79   6  1.004038E+04 -7.938142E+04 -1.769907E+04  8.828976E+05  7.108734E+04 -4.255775E+02
        79   7  3.139103E+05  1.184713E+06  2.447277E+05  8.870916E+05 -6.485740E+04 -8.476069E+04
        79   8 -7.206308E+03 -1.404056E+05 -3.424870E+04  6.204791E+05  2.954943E+03 -7.494363E+04
        79   9 -3.299341E+05 -1.473437E+06 -3.220989E+05  8.774971E+05  7.060137E+04 -6.514077E+04
        79  10 -3.017578E+05 -1.341871E+06 -3.067392E+05  8.787705E+05  3.663206E-09 -4.474298E-09
        79  11  2.484839E+04 -8.744188E+03 -5.732376E+03  6.217250E+05  7.698804E-09  9.467288E-09
        79  12  3.498810E+05  1.316501E+06  2.865819E+05  8.883021E+05  4.847957E-09  1.095465E-08
        79  13  6.126152E+03 -7.933110E+04 -3.096830E+04  8.829265E+05  1.832644E-10  1.621149E-09
        79  14  8.820424E+03 -7.457995E+04 -1.999570E+04  6.211021E+05  7.852347E-10  7.231028E-12
        79  15  1.003495E+04 -7.938278E+04 -1.770857E+04  8.828976E+05  5.281264E-10  2.610098E-09
        79  16  3.139038E+05  1.184704E+06  2.447064E+05  8.870872E+05  4.176886E-09  1.950337E-09
        79  17 -7.207826E+03 -1.404116E+05 -3.425928E+04  6.204793E+05 -4.486761E-09 -9.847574E-09
        79  18 -3.299406E+05 -1.473443E+06 -3.221163E+05  8.775008E+05 -4.144633E-10 -1.209177E-08
        79  19 -3.017528E+05 -1.341868E+06 -3.067276E+05  8.787681E+05  6.387056E+04 -4.545105E+04
        79  20  2.484921E+04 -8.740944E+03 -5.726678E+03  6.217252E+05 -3.928463E+03 -5.492868E+04
        79  21  3.498876E+05  1.316507E+06  2.865993E+05  8.883058E+05 -7.157380E+04 -6.443336E+04
        79  22  6.130701E+03 -7.932958E+04 -3.095980E+04  8.829275E+05  6.436384E+04  1.958943E+04
        79  23  8.820464E+03 -7.457984E+04 -1.999549E+04  6.211021E+05 -3.441653E+03  1.001088E+04
        79  24  1.004038E+04 -7.938142E+04 -1.769907E+04  8.828976E+05 -7.108734E+04  4.255775E+02
        79  25  3.139103E+05  1.184713E+06  2.447277E+05  8.870916E+05  6.485740E+04  8.476069E+04
        79  26 -7.206308E+03 -1.404056E+05 -3.424870E+04  6.204791E+05 -2.954943E+03  7.494363E+04
        79  27 -3.299341E+05 -1.473437E+06 -3.220989E+05  8.774971E+05 -7.060137E+04  6.514077E+04
        80   1  6.099142E+05  2.376600E+06  5.155298E+05  8.994498E+05  1.289532E+05  1.057939E+05
        80   2  9.255982E+05  3.702198E+06  8.155044E+05  6.318531E+05  1.644615E+05 -1.914507E+04
        80   3  1.238185E+06  5.043551E+06  1.195163E+06  8.815098E+05  5.720038E+04 -1.437266E+05
        80   4  1.236952E+04 -8.031826E+04 -1.779022E+04  8.814857E+05  1.282287E+05  1.913161E+03
        80   5  3.447386E+03 -7.694933E+04 -2.436624E+04  6.228640E+05  1.647333E+05  1.463854E+04
        80   6 -3.235620E+04 -8.328903E+04 -4.655834E+04  8.817084E+05  5.807437E+04  2.798990E+04
        80   7 -5.855682E+05 -2.531565E+06 -5.514302E+05  8.635796E+05  1.275085E+05 -1.015630E+05
        80   8 -9.196681E+05 -3.842822E+06 -8.651232E+05  6.139046E+05  1.650052E+05  4.821946E+04
        80   9 -1.304805E+06 -5.186180E+06 -1.290062E+06  8.818604E+05  5.895291E+04  1.983006E+05
        80  10  6.098934E+05  2.376583E+06  5.154777E+05  8.994389E+05  1.740983E-09 -1.729405E-08
        80  11  9.255691E+05  3.702190E+06  8.154529E+05  6.318556E+05 -1.829192E-09 -5.722241E-09
        80  12  1.238176E+06  5.043528E+06  1.195118E+06  8.815164E+05 -6.824729E-10  2.193332E-09
        80  13  1.235186E+04 -8.032267E+04 -1.782113E+04  8.814855E+05  7.934026E-10  1.666092E-09
        80  14  3.418192E+03 -7.695684E+04 -2.441763E+04  6.228621E+05  4.114974E-09  1.878401E-12
        80  15 -3.236002E+04 -8.329077E+04 -4.656614E+04  8.817070E+05 -9.773859E-10  1.370271E-09
        80  16 -5.855885E+05 -2.531580E+06 -5.514803E+05  8.635900E+05 -1.912287E-10  1.484628E-08
        80  17 -9.196980E+05 -3.842831E+06 -8.651787E+05  6.138982E+05 -1.360265E-09  5.026292E-09
        80  18 -1.304819E+06 -5.186223E+06 -1.290143E+06  8.818510E+05 -8.012703E-10 -2.695735E-09
        80  19  6.099142E+05  2.376600E+06  5.155298E+05  8.994498E+05 -1.289532E+05 -1.057939E+05
        80  20  9.255982E+05  3.702198E+06  8.155044E+05  6.318531E+05 -1.644615E+05  1.914507E+04
        80  21  1.238185E+06  5.043551E+06  1.195163E+06  8.815098E+05 -5.720038E+04  1.437266E+05
        80  22  1.236952E+04 -8.031826E+04 -1.779022E+04  8.814857E+05 -1.282287E+05 -1.913161E+03
        80  23  3.447386E+03 -7.694933E+04 -2.436624E+04  6.228640E+05 -1.647333E+05 -1.463854E+04
        80  24 -3.235620E+04 -8.328903E+04 -4.655834E+04  8.817084E+05 -5.807437E+04 -2.798990E+04
        80  25 -5.855682E+05 -2.531565E+06 -5.514302E+05  8.635796E+05 -1.275085E+05  1.015630E+05
        80  26 -9.196681E+05 -3.842822E+06 -8.651232E+05  6.139046E+05 -1.650052E+05 -4.821946E+04
        80  27 -1.304805E+06 -5.186180E+06 -1.290062E+06  8.818604E+05 -5.895291E+04 -1.983006E+05
        81   1  5.341451E+06  1.123887E+06  1.122850E+06  5.633754E+05  2.363229E+05 -5.017433E+04
        81   2  4.532853E+06  8.100199E+05  7.955278E+05  3.811447E+05  9.698200E+04 -1.486592E+05
        81   3  3.776967E+06  6.148620E+05  5.887837E+05  5.010047E+05 -4.195824E+04 -1.352590E+05
        81   4  1.217566E+06  1.033423E+05  1.269882E+05  5.157831E+05  8.660956E+04 -4.997526E+04
        81   5  1.201512E+06 -1.424214E+03  5.837222E+04  3.646506E+05  5.565107E+04 -1.486914E+05
        81   6  1.219157E+06 -5.819715E+03  3.571762E+04  5.156621E+05  2.491174E+04 -1.352678E+05
        81   7 -2.890823E+06 -9.184202E+05 -8.700060E+05  4.685059E+05 -6.212062E+04 -4.975307E+04
        81   8 -2.119522E+06 -8.136122E+05 -6.794629E+05  3.482444E+05  1.453753E+04 -1.487216E+05
        81   9 -1.332533E+06 -6.269286E+05 -5.177191E+05  5.302556E+05  9.151106E+04 -1.352734E+05
        81  10  5.341390E+06  1.123869E+06  1.122741E+06  5.633849E+05  1.861689E-08  4.875375E-10
        81  11  4.532837E+06  8.099936E+05  7.954687E+05  3.811562E+05 -3.153627E-09  1.509065E-09
        81  12  3.776960E+06  6.148418E+05  5.887460E+05  5.010002E+05 -1.988456E-08  1.743144E-09
        81  13  1.217557E+06  1.033376E+05  1.269694E+05  5.157866E+05 -2.161672E-09  5.262314E-11
        81  14  1.201503E+06 -1.448805E+03  5.832482E+04  3.646572E+05  2.038367E-10 -4.964291E-10
        81  15  1.219151E+06 -5.839544E+03  3.568204E+04  5.156649E+05  7.813543E-09  8.453945E-10
        81  16 -2.890827E+06 -9.184239E+05 -8.700179E+05  4.685034E+05 -1.440516E-08  7.215792E-10
        81  17 -2.119529E+06 -8.136360E+05 -6.795049E+05  3.482462E+05 -4.464549E-09 -4.650393E-10
        81  18 -1.332547E+06 -6.269505E+05 -5.177693E+05  5.302656E+05  2.370482E-08 -8.552683E-11
        81  19  5.341451E+06  1.123887E+06  1.122850E+06  5.633754E+05 -2.363229E+05  5.017433E+04
        81  20  4.532853E+06  8.100199E+05  7.955278E+05  3.811447E+05 -9.698200E+04  1.486592E+05
        81  21  3.776967E+06  6.148620E+05  5.887837E+05  5.010047E+05  4.195824E+04  1.352590E+05
        81  22  1.217566E+06  1.033423E+05  1.269882E+05  5.157831E+05 -8.660956E+04  4.997526E+04
        81  23  1.201512E+06 -1.424214E+03  5.837222E+04  3.646506E+05 -5.565107E+04  1.486914E+05
        81  24  1.219157E+06 -5.819715E+03  3.571762E+04  5.156621E+05 -2.491174E+04  1.352678E+05
        81  25 -2.890823E+06 -9.184202E+05 -8.700060E+05  4.685059E+05  6.212062E+04  4.975307E+04
        81  26 -2.119522E+06 -8.136122E+05 -6.794629E+05  3.482444E+05 -1.453753E+04  1.487216E+05
        81  27 -1.332533E+06 -6.269286E+05 -5.177191E+05  5.302556E+05 -9.151106E+04  1.352734E+05
        82   1  3.149945E+06  4.755934E+05  4.496473E+05  5.192190E+05 -1.523663E+04 -9.994834E+04
        82   2  2.371451E+06  2.818631E+05  2.695579E+05  3.649253E+05 -2.913783E+04 -6.125846E+04
        82   3  1.597172E+06  9.471881E+04  1.001087E+05  5.160702E+05 -4.308261E+04 -1.774098E+04
        82   4  1.212905E+06  5.043035E+03  2.907369E+04  5.164320E+05  1.968964E+04 -9.993934E+04
        82   5  1.211747E+06  1.837754E+02  1.849400E+04  3.636982E+05  1.044377E+04 -6.122111E+04
        82   6  1.213445E+06  1.150126E+03  1.537077E+04  5.164368E+05  1.137404E+03 -1.766904E+04
        82   7 -7.206295E+05 -4.657545E+05 -3.917193E+05  5.136515E+05  5.450872E+04 -9.993061E+04
        82   8  5.330450E+04 -2.815834E+05 -2.326439E+05  3.624727E+05  4.995263E+04 -6.118387E+04
        82   9  8.298582E+05 -9.242740E+04 -6.936889E+04  5.168031E+05  4.533046E+04 -1.759701E+04
        82  10  3.149942E+06  4.755826E+05  4.496281E+05  5.192178E+05  1.148143E-09  1.363776E-09
        82  11  2.371449E+06  2.818589E+05  2.695493E+05  3.649238E+05 -3.101884E-09 -9.615969E-10
        82  12  1.597170E+06  9.471798E+04  1.001046E+05  5.160696E+05  7.051766E-10 -1.429111E-09
        82  13  1.212902E+06  5.032197E+03  2.905417E+04  5.164335E+05 -2.516833E-10  4.578964E-10
        82  14  1.211746E+06  1.797187E+02  1.848675E+04  3.636987E+05 -8.344123E-10  2.116057E-10
        82  15  1.213445E+06  1.149790E+03  1.537018E+04  5.164369E+05  2.923984E-09 -4.985255E-10
        82  16 -7.206354E+05 -4.657661E+05 -3.917437E+05  5.136559E+05  2.472958E-09 -4.439458E-11
        82  17  5.330081E+04 -2.815881E+05 -2.326556E+05  3.624752E+05 -1.383228E-10 -5.281255E-10
        82  18  8.298559E+05 -9.242828E+04 -6.937333E+04  5.168038E+05  2.865893E-09 -1.081221E-09
        82  19  3.149945E+06  4.755934E+05  4.496473E+05  5.192190E+05  1.523663E+04  9.994834E+04
        82  20  2.371451E+06  2.818631E+05  2.695579E+05  3.649253E+05  2.913783E+04  6.125846E+04
        82  21  1.597172E+06  9.471881E+04  1.001087E+05  5.160702E+05  4.308261E+04  1.774098E+04
        82  22  1.212905E+06  5.043035E+03  2.907369E+04  5.164320E+05 -1.968964E+04  9.993934E+04
        82  23  1.211747E+06  1.837754E+02  1.849400E+04  3.636982E+05 -1.044377E+04  6.122111E+04
        82  24  1.213445E+06  1.150126E+03  1.537077E+04  5.164368E+05 -1.137404E+03  1.766904E+04
        82  25 -7.206295E+05 -4.657545E+05 -3.917193E+05  5.136515E+05 -5.450872E+04  9.993061E+04
        82  26  5.330450E+04 -2.815834E+05 -2.326439E+05  3.624727E+05 -4.995263E+04  6.118387E+04
        82  27  8.298582E+05 -9.242740E+04 -6.936889E+04  5.168031E+05 -4.533046E+04  1.759701E+04
        83   1  9.817902E+05 -5.552348E+04 -3.646178E+04  5.170045E+05 -4.580203E+04  9.400159E+03
        83   2  2.053046E+05 -2.445141E+05 -1.992352E+05  3.625103E+05 -5.086305E+04  5.301757E+04
        83   3 -5.685736E+05 -4.282383E+05 -3.574833E+05  5.134824E+05 -5.586502E+04  9.197447E+04
        83   4  1.213453E+06  1.134716E+03  1.545690E+04  5.164284E+05 -1.655947E+03  9.473260E+03
        83   5  1.211818E+06  2.929584E+02  1.902371E+04  3.637086E+05 -1.122869E+04  5.305950E+04
        83   6  1.212983E+06  5.525587E+03  3.024982E+04  5.164227E+05 -2.074843E+04  9.199082E+04
        83   7  1.445171E+06  5.779030E+04  6.737949E+04  5.158520E+05  4.250641E+04  9.546261E+03
        83   8  2.219284E+06  2.450339E+05  2.372282E+05  3.649084E+05  2.846906E+04  5.310154E+04
        83   9  2.997517E+06  4.390797E+05  4.177975E+05  5.193697E+05  1.446776E+04  9.200746E+04
        83  10  9.817879E+05 -5.552414E+04 -3.646589E+04  5.170048E+05  1.472517E-09 -2.187729E-09
        83  11  2.053010E+05 -2.445178E+05 -1.992454E+05  3.625125E+05 -1.721290E-09 -6.082279E-10
        83  12 -5.685792E+05 -4.282482E+05 -3.575051E+05  5.134866E+05  4.129150E-09  6.102406E-10
        83  13  1.213453E+06  1.134618E+03  1.545672E+04  5.164284E+05  2.155717E-09 -1.876959E-09
        83  14  1.211817E+06  2.898993E+02  1.901818E+04  3.637091E+05  1.747866E-09 -2.119034E-09
        83  15  1.212981E+06  5.516377E+03  3.023310E+04  5.164242E+05  1.449016E-09 -7.151515E-11
        83  16  1.445169E+06  5.778972E+04  6.737594E+04  5.158517E+05  4.056615E-09 -1.615907E-09
        83  17  2.219282E+06  2.450307E+05  2.372214E+05  3.649072E+05 -1.396489E-09 -7.438083E-10
        83  18  2.997514E+06  4.390705E+05  4.177812E+05  5.193686E+05 -6.014509E-10 -7.824173E-10
        83  19  9.817902E+05 -5.552348E+04 -3.646178E+04  5.170045E+05  4.580203E+04 -9.400159E+03
        83  20  2.053046E+05 -2.445141E+05 -1.992352E+05  3.625103E+05  5.086305E+04 -5.301757E+04
        83  21 -5.685736E+05 -4.282383E+05 -3.574833E+05  5.134824E+05  5.586502E+04 -9.197447E+04
        83  22  1.213453E+06  1.134716E+03  1.545690E+04  5.164284E+05  1.655947E+03 -9.473260E+03
        83  23  1.211818E+06  2.929584E+02  1.902371E+04  3.637086E+05  1.122869E+04 -5.305950E+04
        83  24  1.212983E+06  5.525587E+03  3.024982E+04  5.164227E+05  2.074843E+04 -9.199082E+04
        83  25  1.445171E+06  5.779030E+04  6.737949E+04  5.158520E+05 -4.250641E+04 -9.546261E+03
        83  26  2.219284E+06  2.450339E+05  2.372282E+05  3.649084E+05 -2.846906E+04 -5.310154E+04
        83  27  2.997517E+06  4.390797E+05  4.177975E+05  5.193697E+05 -1.446776E+04 -9.200746E+04
        84   1 -1.180027E+06 -5.898178E+05 -4.832586E+05  5.307184E+05 -9.197056E+04  1.269932E+05
        84   2 -1.967410E+06 -7.759654E+05 -6.430579E+05  3.468447E+05 -2.018068E+04  1.415472E+05
        84   3 -2.737604E+06 -8.750727E+05 -8.270794E+05  4.652097E+05  5.133702E+04  4.759885E+04
        84   4  1.219482E+06 -5.788948E+03  3.723693E+04  5.156587E+05 -2.618286E+04  1.270012E+05
        84   5  1.201438E+06 -1.019532E+03  6.111771E+04  3.646547E+05 -5.838403E+04  1.415130E+05
        84   6  1.217958E+06  1.086384E+05  1.329435E+05  5.157629E+05 -9.077125E+04  4.777807E+04
        84   7  3.624403E+06  5.778625E+05  5.574061E+05  5.005370E+05  3.985623E+04  1.270060E+05
        84   8  4.379667E+06  7.732492E+05  7.646740E+05  3.825555E+05 -9.678004E+04  1.414768E+05
        84   9  5.187883E+06  1.091222E+06  1.091916E+06  5.666396E+05 -2.337837E+05  4.793383E+04
        84  10 -1.180040E+06 -5.898374E+05 -4.833049E+05  5.307278E+05  2.049746E-08  1.167514E-09
        84  11 -1.967415E+06 -7.759870E+05 -6.430963E+05  3.468470E+05  1.101404E-09  7.603317E-10
        84  12 -2.737608E+06 -8.750759E+05 -8.270887E+05  4.652077E+05 -1.848138E-08  6.265760E-10
        84  13  1.219477E+06 -5.806466E+03  3.720531E+04  5.156613E+05  4.738369E-09  6.011283E-10
        84  14  1.201429E+06 -1.041968E+03  6.107364E+04  3.646614E+05  8.084054E-09 -7.763363E-10
        84  15  1.217949E+06  1.086338E+05  1.329237E+05  5.157664E+05  7.806015E-10  4.496808E-10
        84  16  3.624397E+06  5.778447E+05  5.573729E+05  5.005329E+05 -2.204698E-08 -3.754341E-10
        84  17  4.379651E+06  7.732252E+05  7.646189E+05  3.825665E+05  2.794305E-10  3.024205E-10
        84  18  5.187824E+06  1.091205E+06  1.091809E+06  5.666486E+05  1.916762E-08  8.307559E-10
        84  19 -1.180027E+06 -5.898178E+05 -4.832586E+05  5.307184E+05  9.197056E+04 -1.269932E+05
        84  20 -1.967410E+06 -7.759654E+05 -6.430579E+05  3.468447E+05  2.018068E+04 -1.415472E+05
        84  21 -2.737604E+06 -8.750727E+05 -8.270794E+05  4.652097E+05 -5.133702E+04 -4.759885E+04
        84  22  1.219482E+06 -5.788948E+03  3.723693E+04  5.156587E+05  2.618286E+04 -1.270012E+05
        84  23  1.201438E+06 -1.019532E+03  6.111771E+04  3.646547E+05  5.838403E+04 -1.415130E+05
        84  24  1.217958E+06  1.086384E+05  1.329435E+05  5.157629E+05  9.077125E+04 -4.777807E+04
        84  25  3.624403E+06  5.778625E+05  5.574061E+05  5.005370E+05 -3.985623E+04 -1.270060E+05
        84  26  4.379667E+06  7.732492E+05  7.646740E+05  3.825555E+05  9.678004E+04 -1.414768E+05
        84  27  5.187883E+06  1.091222E+06  1.091916E+06  5.666396E+05  2.337837E+05 -4.793383E+04
        85   1 -1.311429E+06 -4.881431E+06 -1.311811E+06  8.781925E+05 -5.601019E+04 -2.512022E+05
        85   2 -8.704149E+05 -3.591520E+06 -8.575152E+05  5.989172E+05 -1.561180E+05 -8.806647E+04
        85   3 -5.482688E+05 -2.352468E+06 -5.399531E+05  8.127004E+05 -1.201907E+05  7.485593E+04
        85   4 -1.065856E+05 -4.722748E+04 -1.340201E+05  8.402057E+05 -5.521328E+04 -9.034862E+04
        85   5  1.994095E+03 -3.117434E+04 -6.275383E+04  5.934304E+05 -1.558757E+05 -5.670189E+04
        85   6  1.479952E+04 -4.455240E+04 -3.751937E+04  8.396147E+05 -1.208350E+05 -2.361144E+04
        85   7  1.096554E+06  4.808467E+06  1.042174E+06  8.018822E+05 -5.444002E+04  7.176391E+04
        85   8  8.735417E+05  3.541034E+06  7.312156E+05  5.878901E+05 -1.556349E+05 -2.515785E+04
        85   9  5.775208E+05  2.268390E+06  4.646316E+05  8.666191E+05 -1.214865E+05 -1.224410E+05
        85  10 -1.311449E+06 -4.881500E+06 -1.311937E+06  8.781811E+05 -2.054061E-09 -4.695422E-09
        85  11 -8.704432E+05 -3.591534E+06 -8.575756E+05  5.989061E+05 -7.992498E-09 -8.358954E-10
        85  12 -5.482859E+05 -2.352478E+06 -5.399908E+05  8.127077E+05 -3.223571E-09  4.550924E-09
        85  13 -1.065910E+05 -4.723706E+04 -1.340411E+05  8.402017E+05 -9.943359E-10  1.809951E-09
        85  14  1.967153E+03 -3.118431E+04 -6.280549E+04  5.934233E+05 -8.103227E-09 -2.511801E-09
        85  15  1.478370E+04 -4.455691E+04 -3.754783E+04  8.396124E+05 -6.170554E-09  6.987257E-09
        85  16  1.096550E+06  4.808461E+06  1.042158E+06  8.018854E+05  8.306763E-10  4.914423E-09
        85  17  8.735156E+05  3.541026E+06  7.311689E+05  5.878870E+05  1.880060E-09 -2.459651E-09
        85  18  5.775010E+05  2.268370E+06  4.645759E+05  8.666072E+05 -2.688446E-09 -8.049741E-09
        85  19 -1.311429E+06 -4.881431E+06 -1.311811E+06  8.781925E+05  5.601019E+04  2.512022E+05
        85  20 -8.704149E+05 -3.591520E+06 -8.575152E+05  5.989172E+05  1.561180E+05  8.806647E+04
        85  21 -5.482688E+05 -2.352468E+06 -5.399531E+05  8.127004E+05  1.201907E+05 -7.485593E+04
        85  22 -1.065856E+05 -4.722748E+04 -1.340201E+05  8.402057E+05  5.521328E+04  9.034862E+04
        85  23  1.994095E+03 -3.117434E+04 -6.275383E+04  5.934304E+05  1.558757E+05  5.670189E+04
        85  24  1.479952E+04 -4.455240E+04 -3.751937E+04  8.396147E+05  1.208350E+05  2.361144E+04
        85  25  1.096554E+06  4.808467E+06  1.042174E+06  8.018822E+05  5.444002E+04 -7.176391E+04
        85  26  8.735417E+05  3.541034E+06  7.312156E+05  5.878901E+05  1.556349E+05  2.515785E+04
        85  27  5.775208E+05  2.268390E+06  4.646316E+05  8.666191E+05  1.214865E+05  1.224410E+05
        86   1 -3.124061E+05 -1.340413E+06 -3.153079E+05  8.371327E+05 -6.601769E+04  4.302120E+04
        86   2 -9.222659E+02 -7.100172E+04 -2.879375E+04  5.917744E+05 -1.565789E+03  5.324331E+04
        86   3  3.079737E+05  1.190878E+06  2.485314E+05  8.450327E+05  6.296969E+04  6.348276E+04
        86   4  4.878789E+03 -3.920984E+04 -3.118946E+04  8.410242E+05 -6.645419E+04 -1.869358E+04
        86   5  7.910719E+03 -3.469008E+04 -2.093323E+04  5.917065E+05 -2.001479E+03 -8.592028E+03
        86   6  8.477255E+03 -3.918235E+04 -1.971157E+04  8.409990E+05  6.252928E+04  1.506124E+03
        86   7  3.220529E+05  1.263590E+06  2.528412E+05  8.449202E+05 -6.689092E+04 -8.053624E+04
        86   8  1.674567E+04  1.631009E+03 -1.305843E+04  5.916386E+05 -2.437141E+03 -7.043094E+04
        86   9 -2.911177E+05 -1.267818E+06 -2.880312E+05  8.369700E+05  6.208916E+04 -6.034946E+04
        86  10 -3.124113E+05 -1.340416E+06 -3.153196E+05  8.371350E+05  6.285010E-10  3.390949E-10
        86  11 -9.230299E+02 -7.100476E+04 -2.879908E+04  5.917745E+05  2.360801E-09  2.268049E-10
        86  12  3.079684E+05  1.190872E+06  2.485164E+05  8.450295E+05  1.887372E-09 -4.101186E-10
        86  13  4.873956E+03 -3.921140E+04 -3.119841E+04  8.410232E+05 -3.288836E-09  3.022395E-09
        86  14  7.910695E+03 -3.469016E+04 -2.093338E+04  5.917065E+05 -6.836750E-10 -3.161227E-09
        86  15  8.473056E+03 -3.918340E+04 -1.971892E+04  8.409989E+05  2.501711E-09  7.450734E-09
        86  16  3.220464E+05  1.263582E+06  2.528206E+05  8.449159E+05 -1.080052E-09 -4.442735E-10
        86  17  1.674433E+04  1.625681E+03 -1.306776E+04  5.916384E+05 -1.109284E-09 -4.620341E-09
        86  18 -2.911228E+05 -1.267823E+06 -2.880453E+05  8.369730E+05  3.232127E-09 -3.375711E-09
        86  19 -3.124061E+05 -1.340413E+06 -3.153079E+05  8.371327E+05  6.601769E+04 -4.302120E+04
        86  20 -9.222659E+02 -7.100172E+04 -2.879375E+04  5.917744E+05  1.565789E+03 -5.324331E+04
        86  21  3.079737E+05  1.190878E+06  2.485314E+05  8.450327E+05 -6.296969E+04 -6.348276E+04
        86  22  4.878789E+03 -3.920984E+04 -3.118946E+04  8.410242E+05  6.645419E+04  1.869358E+04
        86  23  7.910719E+03 -3.469008E+04 -2.093323E+04  5.917065E+05  2.001479E+03  8.592028E+03
        86  24  8.477255E+03 -3.918235E+04 -1.971157E+04  8.409990E+05 -6.252928E+04 -1.506124E+03
        86  25  3.220529E+05  1.263590E+06  2.528412E+05  8.449202E+05  6.689092E+04  8.053624E+04
        86  26  1.674567E+04  1.631009E+03 -1.305843E+04  5.916386E+05  2.437141E+03  7.043094E+04
        86  27 -2.911177E+05 -1.267818E+06 -2.880312E+05  8.369700E+05 -6.208916E+04  6.034946E+04
        87   1  5.566601E+05  2.199485E+06  4.660023E+05  8.570991E+05  1.174055E+05  1.026520E+05
        87   2  8.570698E+05  3.463448E+06  7.491556E+05  5.989586E+05  1.520065E+05 -1.090156E+04
        87   3  1.144076E+06  4.738890E+06  1.102059E+06  8.335448E+05  5.314464E+04 -1.241275E+05
        87   4  1.174659E+04 -4.068502E+04 -2.043091E+04  8.396802E+05  1.167533E+05  4.267836E+03
        87   5  3.090375E+03 -3.584786E+04 -2.882413E+04  5.933466E+05  1.522382E+05  1.934984E+04
        87   6 -4.122922E+04 -4.330460E+04 -5.655135E+04  8.399346E+05  5.391779E+04  3.499110E+04
        87   7 -5.334934E+05 -2.276139E+06 -5.071276E+05  8.223140E+05  1.161053E+05 -9.376691E+04
        87   8 -8.517165E+05 -3.523760E+06 -8.075644E+05  5.877458E+05  1.524702E+05  4.943308E+04
        87   9 -1.228194E+06 -4.804658E+06 -1.216714E+06  8.462380E+05  5.469786E+04  1.928939E+05
        87  10  5.566425E+05  2.199470E+06  4.659568E+05  8.570894E+05  3.204793E-09 -2.837115E-09
        87  11  8.570450E+05  3.463441E+06  7.491119E+05  5.989599E+05 -1.205608E-09 -4.576320E-10
        87  12  1.144069E+06  4.738873E+06  1.102025E+06  8.335501E+05 -3.006149E-09  1.003804E-09
        87  13  1.173195E+04 -4.068870E+04 -2.045655E+04  8.396798E+05  1.282956E-09  2.946398E-09
        87  14  3.065391E+03 -3.585448E+04 -2.886838E+04  5.933443E+05  3.300808E-09 -2.476317E-09
        87  15 -4.123266E+04 -4.330669E+04 -5.655910E+04  8.399330E+05  2.739879E-10  4.269197E-09
        87  16 -5.335102E+05 -2.276152E+06 -5.071696E+05  8.223228E+05  1.642006E-09  2.845345E-09
        87  17 -8.517421E+05 -3.523769E+06 -8.076127E+05  5.877397E+05  1.088363E-09 -3.166448E-09
        87  18 -1.228207E+06 -4.804699E+06 -1.216790E+06  8.462295E+05 -3.270425E-10 -3.083384E-09
        87  19  5.566601E+05  2.199485E+06  4.660023E+05  8.570991E+05 -1.174055E+05 -1.026520E+05
        87  20  8.570698E+05  3.463448E+06  7.491556E+05  5.989586E+05 -1.520065E+05  1.090156E+04
        87  21  1.144076E+06  4.738890E+06  1.102059E+06  8.335448E+05 -5.314464E+04  1.241275E+05
        87  22  1.174659E+04 -4.068502E+04 -2.043091E+04  8.396802E+05 -1.167533E+05 -4.267836E+03
        87  23  3.090375E+03 -3.584786E+04 -2.882413E+04  5.933466E+05 -1.522382E+05 -1.934984E+04
        87  24 -4.122922E+04 -4.330460E+04 -5.655135E+04  8.399346E+05 -5.391779E+04 -3.499110E+04
        87  25 -5.334934E+05 -2.276139E+06 -5.071276E+05  8.223140E+05 -1.161053E+05  9.376691E+04
        87  26 -8.517165E+05 -3.523760E+06 -8.075644E+05  5.877458E+05 -1.524702E+05 -4.943308E+04
        87  27 -1.228194E+06 -4.804658E+06 -1.216714E+06  8.462380E+05 -5.469786E+04 -1.928939E+05
        88   1  4.889503E+06  1.026834E+06  1.024145E+06  5.180932E+05  2.108796E+05 -4.608410E+04
        88   2  4.142351E+06  7.444598E+05  7.269221E+05  3.518095E+05  8.489291E+04 -1.365455E+05
        88   3  3.441257E+06  5.641052E+05  5.373927E+05  4.652167E+05 -4.075761E+04 -1.239656E+05
        88   4  1.095685E+06  8.761472E+04  1.076464E+05  4.776834E+05  7.337215E+04 -4.591806E+04
        88   5  1.082085E+06 -1.188239E+03  4.951554E+04  3.377680E+05  4.711499E+04 -1.365735E+05
        88   6  1.097033E+06 -4.902445E+03  3.035407E+04  4.775913E+05  2.104098E+04 -1.239710E+05
        88   7 -2.685012E+06 -8.526377E+05 -8.098113E+05  4.375196E+05 -6.330393E+04 -4.573399E+04
        88   8 -1.969480E+06 -7.474645E+05 -6.284649E+05  3.237953E+05  9.519766E+03 -1.365999E+05
        88   9 -1.242047E+06 -5.742692E+05 -4.769959E+05  4.899164E+05  8.261025E+04 -1.239740E+05
        88  10  4.889455E+06  1.026820E+06  1.024058E+06  5.181010E+05  2.327256E-09 -1.007544E-09
        88  11  4.142338E+06  7.444378E+05  7.268735E+05  3.518188E+05  3.657771E-09 -1.316221E-09
        88  12  3.441251E+06  5.640883E+05  5.373607E+05  4.652126E+05  3.339426E-09 -4.588289E-10
        88  13  1.095679E+06  8.761101E+04  1.076323E+05  4.776861E+05  7.521017E-12 -3.706848E-10
        88  14  1.082077E+06 -1.208877E+03  4.947629E+04  3.377732E+05 -1.748023E-09  2.897236E-10
        88  15  1.097029E+06 -4.919078E+03  3.032433E+04  4.775934E+05  4.549647E-09 -7.486398E-10
        88  16 -2.685017E+06 -8.526410E+05 -8.098228E+05  4.375173E+05 -1.060473E-10  2.817542E-10
        88  17 -1.969485E+06 -7.474846E+05 -6.285002E+05  3.237963E+05 -2.051547E-09  8.301211E-11
        88  18 -1.242058E+06 -5.742876E+05 -4.770377E+05  4.899247E+05 -2.622807E-09 -1.122968E-09
        88  19  4.889503E+06  1.026834E+06  1.024145E+06  5.180932E+05 -2.108796E+05  4.608410E+04
        88  20  4.142351E+06  7.444598E+05  7.269221E+05  3.518095E+05 -8.489291E+04  1.365455E+05
        88  21  3.441257E+06  5.641052E+05  5.373927E+05  4.652167E+05  4.075761E+04  1.239656E+05
        88  22  1.095685E+06  8.761472E+04  1.076464E+05  4.776834E+05 -7.337215E+04  4.591806E+04
        88  23  1.082085E+06 -1.188239E+03  4.951554E+04  3.377680E+05 -4.711499E+04  1.365735E+05
        88  24  1.097033E+06 -4.902445E+03  3.035407E+04  4.775913E+05 -2.104098E+04  1.239710E+05
        88  25 -2.685012E+06 -8.526377E+05 -8.098113E+05  4.375196E+05  6.330393E+04  4.573399E+04
        88  26 -1.969480E+06 -7.474645E+05 -6.284649E+05  3.237953E+05 -9.519766E+03  1.365999E+05
        88  27 -1.242047E+06 -5.742692E+05 -4.769959E+05  4.899164E+05 -8.261025E+04  1.239740E+05
        89   1  2.861101E+06  4.342261E+05  4.090194E+05  4.807278E+05 -1.580490E+04 -9.130465E+04
        89   2  2.140124E+06  2.551083E+05  2.431057E+05  3.378934E+05 -2.802266E+04 -5.542095E+04
        89   3  1.422793E+06  8.165530E+04  8.651235E+04  4.780194E+05 -4.027725E+04 -1.509052E+04
        89   4  1.091738E+06  4.305191E+03  2.475133E+04  4.783365E+05  1.659698E+04 -9.129574E+04
        89   5  1.090756E+06  1.744839E+02  1.586935E+04  3.368440E+05  8.663322E+03 -5.538815E+04
        89   6  1.092190E+06  1.002203E+03  1.337010E+04  4.783404E+05  6.789974E+02 -1.502856E+04
        89   7 -6.746993E+05 -4.258221E+05 -3.596998E+05  4.759505E+05  4.890801E+04 -9.128705E+04
        89   8  4.242032E+04 -2.548312E+05 -2.114273E+05  3.357960E+05  4.528829E+04 -5.535543E+04
        89   9  7.616918E+05 -7.965734E+04 -5.977261E+04  4.786611E+05  4.161372E+04 -1.496654E+04
        89  10  2.861098E+06  4.342171E+05  4.090033E+05  4.807266E+05  4.174186E-09  3.830696E-10
        89  11  2.140123E+06  2.551048E+05  2.430985E+05  3.378921E+05  4.659669E-09  1.409737E-09
        89  12  1.422791E+06  8.165462E+04  8.650888E+04  4.780189E+05  1.572575E-09  2.131070E-09
        89  13  1.091735E+06  4.296161E+03  2.473514E+04  4.783377E+05 -2.188681E-09 -2.025209E-10
        89  14  1.090755E+06  1.711675E+02  1.586344E+04  3.368444E+05  2.349322E-11  8.510650E-10
        89  15  1.092190E+06  1.001961E+03  1.336967E+04  4.783404E+05 -1.729583E-09  8.009793E-10
        89  16 -6.747042E+05 -4.258317E+05 -3.597199E+05  4.759541E+05 -5.400270E-09 -6.192667E-10
        89  17  4.241729E+04 -2.548351E+05 -2.114370E+05  3.357980E+05 -4.738421E-09 -5.051874E-11
        89  18  7.616899E+05 -7.965805E+04 -5.977628E+04  4.786616E+05  1.870575E-09  7.704141E-10
        89  19  2.861101E+06  4.342261E+05  4.090194E+05  4.807278E+05  1.580490E+04  9.130465E+04
        89  20  2.140124E+06  2.551083E+05  2.431057E+05  3.378934E+05  2.802266E+04  5.542095E+04
        89  21  1.422793E+06  8.165530E+04  8.651235E+04  4.780194E+05  4.027725E+04  1.509052E+04
        89  22  1.091738E+06  4.305191E+03  2.475133E+04  4.783365E+05 -1.659698E+04  9.129574E+04
        89  23  1.090756E+06  1.744839E+02  1.586935E+04  3.368440E+05 -8.663322E+03  5.538815E+04
        89  24  1.092190E+06  1.002203E+03  1.337010E+04  4.783404E+05 -6.789974E+02  1.502856E+04
        89  25 -6.746993E+05 -4.258221E+05 -3.596998E+05  4.759505E+05 -4.890801E+04  9.128705E+04
        89  26  4.242032E+04 -2.548312E+05 -2.114273E+05  3.357960E+05 -4.528829E+04  5.535543E+04
        89  27  7.616918E+05 -7.965734E+04 -5.977261E+04  4.786611E+05 -4.161372E+04  1.496654E+04
        90   1  8.526594E+05 -5.760091E+04 -3.994470E+04  4.788520E+05 -4.266545E+04  1.005867E+04
        90   2  1.333575E+05 -2.326517E+05 -1.907168E+05  3.357982E+05 -4.696110E+04  5.046635E+04
        90   3 -5.836715E+05 -4.030261E+05 -3.375965E+05  4.757390E+05 -5.120547E+04  8.652418E+04
        90   4  1.092224E+06  9.580174E+02  1.355080E+04  4.783355E+05 -1.759185E+03  1.012129E+04
        90   5  1.090758E+06  2.312803E+02  1.689975E+04  3.368500E+05 -1.026206E+04  5.050167E+04
        90   6  1.091810E+06  4.938009E+03  2.706934E+04  4.783308E+05 -1.871852E+04  8.653708E+04
        90   7  1.331845E+06  5.951395E+04  6.704898E+04  4.778187E+05  3.916267E+04  1.018383E+04
        90   8  2.049020E+06  2.330545E+05  2.244668E+05  3.379031E+05  2.649282E+04  5.053707E+04
        90   9  2.769924E+06  4.127166E+05  3.915709E+05  4.809280E+05  1.385507E+04  8.655022E+04
        90  10  8.526574E+05 -5.760151E+04 -3.994831E+04  4.788523E+05  5.274674E-09  2.804117E-09
        90  11  1.333544E+05 -2.326551E+05 -1.907257E+05  3.358001E+05  1.986745E-09 -6.145121E-10
        90  12 -5.836763E+05 -4.030349E+05 -3.376155E+05  4.757426E+05 -2.456787E-09 -3.629268E-10
        90  13  1.092224E+06  9.579065E+02  1.355060E+04  4.783355E+05 -5.072078E-11  5.780137E-10
        90  14  1.090757E+06  2.285116E+02  1.689476E+04  3.368504E+05 -1.931999E-09 -6.936181E-10
        90  15  1.091808E+06  4.929868E+03  2.705459E+04  4.783321E+05 -4.215971E-10  1.172314E-09
        90  16  1.331844E+06  5.951343E+04  6.704591E+04  4.778184E+05 -9.816371E-10 -9.936426E-10
        90  17  2.049019E+06  2.330515E+05  2.244607E+05  3.379020E+05 -1.324468E-09 -1.318861E-09
        90  18  2.769922E+06  4.127085E+05  3.915565E+05  4.809271E+05  2.125322E-09  1.787588E-09
        90  19  8.526594E+05 -5.760091E+04 -3.994470E+04  4.788520E+05  4.266545E+04 -1.005867E+04
        90  20  1.333575E+05 -2.326517E+05 -1.907168E+05  3.357982E+05  4.696110E+04 -5.046635E+04
        90  21 -5.836715E+05 -4.030261E+05 -3.375965E+05  4.757390E+05  5.120547E+04 -8.652418E+04
        90  22  1.092224E+06  9.580174E+02  1.355080E+04  4.783355E+05  1.759185E+03 -1.012129E+04
        90  23  1.090758E+06  2.312803E+02  1.689975E+04  3.368500E+05  1.026206E+04 -5.050167E+04
        90  24  1.091810E+06  4.938009E+03  2.706934E+04  4.783308E+05  1.871852E+04 -8.653708E+04
        90  25  1.331845E+06  5.951395E+04  6.704898E+04  4.778187E+05 -3.916267E+04 -1.018383E+04
        90  26  2.049020E+06  2.330545E+05  2.244668E+05  3.379031E+05 -2.649282E+04 -5.053707E+04
        90  27  2.769924E+06  4.127166E+05  3.915709E+05  4.809280E+05 -1.385507E+04 -8.655022E+04
        91   1 -1.150364E+06 -5.523919E+05 -4.542663E+05  4.911904E+05 -8.465910E+04  1.190177E+05
        91   2 -1.878998E+06 -7.248591E+05 -6.029577E+05  3.217701E+05 -1.663817E+04  1.323087E+05
        91   3 -2.592934E+06 -8.197971E+05 -7.758910E+05  4.322303E+05  5.114137E+04  4.445236E+04
        91   4  1.097639E+06 -5.215485E+03  3.337008E+04  4.775986E+05 -2.357868E+04  1.190225E+05
        91   5  1.081510E+06 -8.639360E+02  5.488657E+04  3.377575E+05 -5.250030E+04  1.322799E+05
        91   6  1.096324E+06  9.767545E+04  1.194461E+05  4.776886E+05 -8.158619E+04  4.461255E+04
        91   7  3.350393E+06  5.416295E+05  5.207198E+05  4.639545E+05  3.772038E+04  1.190245E+05
        91   8  4.050207E+06  7.225401E+05  7.121903E+05  3.538212E+05 -8.853145E+04  1.322495E+05
        91   9  4.798076E+06  1.014166E+06  1.013869E+06  5.234182E+05 -2.151014E+05  4.475303E+04
        91  10 -1.150376E+06 -5.524091E+05 -4.543065E+05  4.911985E+05  3.575927E-09  4.538749E-10
        91  11 -1.879003E+06 -7.248780E+05 -6.029911E+05  3.217718E+05 -1.732787E-09  3.173790E-10
        91  12 -2.592937E+06 -8.197999E+05 -7.758996E+05  4.322285E+05 -2.880411E-09  7.304171E-10
        91  13  1.097635E+06 -5.230857E+03  3.334239E+04  4.776009E+05 -3.520497E-10  8.517698E-10
        91  14  1.081503E+06 -8.834786E+02  5.484848E+04  3.377631E+05  1.187259E-09 -1.640107E-09
        91  15  1.096317E+06  9.767152E+04  1.194299E+05  4.776915E+05  2.691518E-09 -1.588796E-09
        91  16  3.350387E+06  5.416139E+05  5.206905E+05  4.639509E+05 -2.065520E-09  1.893142E-09
        91  17  4.050194E+06  7.225192E+05  7.121428E+05  3.538306E+05 -1.726736E-09 -1.954616E-09
        91  18  4.798026E+06  1.014152E+06  1.013779E+06  5.234259E+05  3.973916E-09 -2.666005E-09
        91  19 -1.150364E+06 -5.523919E+05 -4.542663E+05  4.911904E+05  8.465910E+04 -1.190177E+05
        91  20 -1.878998E+06 -7.248591E+05 -6.029577E+05  3.217701E+05  1.663817E+04 -1.323087E+05
        91  21 -2.592934E+06 -8.197971E+05 -7.758910E+05  4.322303E+05 -5.114137E+04 -4.445236E+04
        91  22  1.097639E+06 -5.215485E+03  3.337008E+04  4.775986E+05  2.357868E+04 -1.190225E+05
        91  23  1.081510E+06 -8.639360E+02  5.488657E+04  3.377575E+05  5.250030E+04 -1.322799E+05
        91  24  1.096324E+06  9.767545E+04  1.194461E+05  4.776886E+05  8.158619E+04 -4.461255E+04
        91  25  3.350393E+06  5.416295E+05  5.207198E+05  4.639545E+05 -3.772038E+04 -1.190245E+05
        91  26  4.050207E+06  7.225401E+05  7.121903E+05  3.538212E+05  8.853145E+04 -1.322495E+05
        91  27  4.798076E+06  1.014166E+06  1.013869E+06  5.234182E+05  2.151014E+05 -4.475303E+04
        92   1 -1.266913E+06 -4.712187E+06 -1.265601E+06  8.414464E+05 -5.438424E+04 -2.392666E+05
        92   2 -8.478834E+05 -3.474975E+06 -8.318234E+05  5.746939E+05 -1.521506E+05 -8.266094E+04
        92   3 -5.392484E+05 -2.285414E+06 -5.282993E+05  7.809675E+05 -1.180995E+05  7.376033E+04
        92   4 -9.815763E+04 -2.237895E+04 -1.232077E+05  8.062730E+05 -5.366128E+04 -8.266545E+04
        92   5  1.643890E+03 -7.713543E+03 -5.801079E+04  5.695536E+05 -1.519241E+05 -5.157817E+04
        92   6  1.339942E+04 -1.988124E+04 -3.518643E+04  8.057646E+05 -1.186838E+05 -2.099121E+04
        92   7  1.068994E+06  4.687651E+06  1.017683E+06  7.707977E+05 -5.295957E+04  7.512425E+04
        92   8  8.503545E+05  3.470798E+06  7.150512E+05  5.643647E+05 -1.516990E+05 -2.032230E+04
        92   9  5.657125E+05  2.250495E+06  4.576527E+05  8.306430E+05 -1.192745E+05 -1.160849E+05
        92  10 -1.266932E+06 -4.712249E+06 -1.265715E+06  8.414359E+05  5.499098E-10 -7.998694E-10
        92  11 -8.479101E+05 -3.474989E+06 -8.318798E+05  5.746838E+05  3.813708E-09  4.217096E-09
        92  12 -5.392649E+05 -2.285424E+06 -5.283358E+05  7.809745E+05 -1.714296E-09  1.266937E-09
        92  13 -9.816255E+04 -2.238705E+04 -1.232259E+05  8.062694E+05  2.555213E-09 -1.343772E-11
        92  14  1.618401E+03 -7.722585E+03 -5.805912E+04  5.695473E+05 -4.805986E-10  4.737524E-09
        92  15  1.338418E+04 -1.988549E+04 -3.521371E+04  8.057626E+05 -1.952770E-09  1.704125E-09
        92  16  1.068990E+06  4.687645E+06  1.017667E+06  7.708009E+05  4.365534E-09  1.503239E-10
        92  17  8.503297E+05  3.470791E+06  7.150072E+05  5.643623E+05 -1.367553E-09  2.692946E-09
        92  18  5.656936E+05  2.250477E+06  4.576008E+05  8.306319E+05 -1.304418E-09 -1.239881E-09
        92  19 -1.266913E+06 -4.712187E+06 -1.265601E+06  8.414464E+05  5.438424E+04  2.392666E+05
        92  20 -8.478834E+05 -3.474975E+06 -8.318234E+05  5.746939E+05  1.521506E+05  8.266094E+04
        92  21 -5.392484E+05 -2.285414E+06 -5.282993E+05  7.809675E+05  1.180995E+05 -7.376033E+04
        92  22 -9.815763E+04 -2.237895E+04 -1.232077E+05  8.062730E+05  5.366128E+04  8.266545E+04
        92  23  1.643890E+03 -7.713543E+03 -5.801079E+04  5.695536E+05  1.519241E+05  5.157817E+04
        92  24  1.339942E+04 -1.988124E+04 -3.518643E+04  8.057646E+05  1.186838E+05  2.099121E+04
        92  25  1.068994E+06  4.687651E+06  1.017683E+06  7.707977E+05  5.295957E+04 -7.512425E+04
        92  26  8.503545E+05  3.470798E+06  7.150512E+05  5.643647E+05  1.516990E+05  2.032230E+04
        92  27  5.657125E+05  2.250495E+06  4.576527E+05  8.306430E+05  1.192745E+05  1.160849E+05
        93   1 -3.124881E+05 -1.314557E+06 -3.133309E+05  8.034939E+05 -6.601480E+04  4.277948E+04
        93   2 -1.367715E+04 -9.661235E+04 -3.956466E+04  5.676783E+05 -4.231808E+03  5.316798E+04
        93   3  2.820314E+05  1.114182E+06  2.249490E+05  8.102885E+05  5.775085E+04  6.356882E+04
        93   4  4.366143E+03 -1.504279E+04 -2.963170E+04  8.071153E+05 -6.640985E+04 -1.632173E+04
        93   5  7.212710E+03 -1.076453E+04 -2.097273E+04  5.678973E+05 -4.628585E+03 -6.162021E+03
        93   6  7.089749E+03 -1.498066E+04 -2.134368E+04  8.070976E+05  5.734725E+04  3.989870E+03
        93   7  3.211098E+05  1.286063E+06  2.539788E+05  8.107408E+05 -6.680510E+04 -7.554526E+04
        93   8  2.810397E+04  7.509777E+04 -2.368004E+03  5.681164E+05 -5.025373E+03 -6.550012E+04
        93   9 -2.679348E+05 -1.142942E+06 -2.676998E+05  8.039098E+05  5.694383E+04 -5.548225E+04
        93  10 -3.124933E+05 -1.314560E+06 -3.133425E+05  8.034962E+05 -1.623936E-10  4.292371E-09
        93  11 -1.367792E+04 -9.661539E+04 -3.957001E+04  5.676785E+05  4.471816E-09  9.153495E-09
        93  12  2.820268E+05  1.114176E+06  2.249352E+05  8.102855E+05  2.330431E-09 -9.897348E-10
        93  13  4.361337E+03 -1.504426E+04 -2.964048E+04  8.071144E+05  1.916639E-09 -1.031452E-10
        93  14  7.212677E+03 -1.076458E+04 -2.097284E+04  5.678973E+05  4.014108E-10  6.089219E-09
        93  15  7.086213E+03 -1.498156E+04 -2.134989E+04  8.070974E+05  4.811251E-09  1.865079E-09
        93  16  3.211035E+05  1.286056E+06  2.539597E+05  8.107367E+05 -3.225492E-10 -5.958561E-09
        93  17  2.810279E+04  7.509316E+04 -2.376111E+03  5.681162E+05 -3.846892E-09  1.890235E-10
        93  18 -2.679391E+05 -1.142946E+06 -2.677118E+05  8.039124E+05  1.009638E-09  7.761722E-10
        93  19 -3.124881E+05 -1.314557E+06 -3.133309E+05  8.034939E+05  6.601480E+04 -4.277948E+04
        93  20 -1.367715E+04 -9.661235E+04 -3.956466E+04  5.676783E+05  4.231808E+03 -5.316798E+04
        93  21  2.820314E+05  1.114182E+06  2.249490E+05  8.102885E+05 -5.775085E+04 -6.356882E+04
        93  22  4.366143E+03 -1.504279E+04 -2.963170E+04  8.071153E+05  6.640985E+04  1.632173E+04
        93  23  7.212710E+03 -1.076453E+04 -2.097273E+04  5.678973E+05  4.628585E+03  6.162021E+03
        93  24  7.089749E+03 -1.498066E+04 -2.134368E+04  8.070976E+05 -5.734725E+04 -3.989870E+03
        93  25  3.211098E+05  1.286063E+06  2.539788E+05  8.107408E+05  6.680510E+04  7.554526E+04
        93  26  2.810397E+04  7.509777E+04 -2.368004E+03  5.681164E+05  5.025373E+03  6.550012E+04
        93  27 -2.679348E+05 -1.142942E+06 -2.676998E+05  8.039098E+05 -5.694383E+04  5.548225E+04
        94   1  5.218068E+05  2.081137E+06  4.328359E+05  8.233762E+05  1.098751E+05  1.012311E+05
        94   2  8.096611E+05  3.295517E+06  7.017587E+05  5.721132E+05  1.434992E+05 -3.361044E+03
        94   3  1.073900E+06  4.517598E+06  1.032110E+06  7.937237E+05  5.034097E+04 -1.076496E+05
        94   4  1.136414E+04 -1.708453E+04 -2.286738E+04  8.058406E+05  1.092792E+05  7.104947E+03
        94   5  2.701415E+03 -1.084356E+04 -3.349983E+04  5.694555E+05  1.437045E+05  2.466942E+04
        94   6 -5.074869E+04 -1.945928E+04 -6.733104E+04  8.061278E+05  5.103917E+04  4.274143E+04
        94   7 -4.993647E+05 -2.111167E+06 -4.788005E+05  7.883558E+05  1.086875E+05 -8.670805E+04
        94   8 -8.049971E+05 -3.307040E+06 -7.694378E+05  5.667944E+05  1.439104E+05  5.255257E+04
        94   9 -1.176891E+06 -4.537754E+06 -1.168170E+06  8.184094E+05  5.174649E+04  1.920418E+05
        94  10  5.217912E+05  2.081123E+06  4.327941E+05  8.233673E+05  4.968884E-09 -7.875952E-10
        94  11  8.096390E+05  3.295511E+06  7.017200E+05  5.721136E+05  8.120338E-10  5.610919E-09
        94  12  1.073895E+06  4.517585E+06  1.032083E+06  7.937281E+05 -1.264401E-11 -1.570168E-10
        94  13  1.135130E+04 -1.708779E+04 -2.288991E+04  8.058400E+05  8.617479E-10 -3.767073E-11
        94  14  2.679081E+03 -1.084975E+04 -3.353977E+04  5.694527E+05  2.076550E-09  4.798715E-09
        94  15 -5.075197E+04 -1.946193E+04 -6.733935E+04  8.061261E+05  5.432829E-10  9.893132E-10
        94  16 -4.993794E+05 -2.111178E+06 -4.788369E+05  7.883634E+05  2.287268E-09 -5.053458E-10
        94  17 -8.050201E+05 -3.307049E+06 -7.694819E+05  5.667883E+05  3.627868E-09  1.425377E-09
        94  18 -1.176904E+06 -4.537795E+06 -1.168244E+06  8.184014E+05 -1.313572E-10 -9.478696E-13
        94  19  5.218068E+05  2.081137E+06  4.328359E+05  8.233762E+05 -1.098751E+05 -1.012311E+05
        94  20  8.096611E+05  3.295517E+06  7.017587E+05  5.721132E+05 -1.434992E+05  3.361044E+03
        94  21  1.073900E+06  4.517598E+06  1.032110E+06  7.937237E+05 -5.034097E+04  1.076496E+05
        94  22  1.136414E+04 -1.708453E+04 -2.286738E+04  8.058406E+05 -1.092792E+05 -7.104947E+03
        94  23  2.701415E+03 -1.084356E+04 -3.349983E+04  5.694555E+05 -1.437045E+05 -2.466942E+04
        94  24 -5.074869E+04 -1.945928E+04 -6.733104E+04  8.061278E+05 -5.103917E+04 -4.274143E+04
        94  25 -4.993647E+05 -2.111167E+06 -4.788005E+05  7.883558E+05 -1.086875E+05  8.670805E+04
        94  26 -8.049971E+05 -3.307040E+06 -7.694378E+05  5.667944E+05 -1.439104E+05 -5.255257E+04
        94  27 -1.176891E+06 -4.537754E+06 -1.168170E+06  8.184094E+05 -5.174649E+04 -1.920418E+05
        95   1  4.526329E+06  9.597766E+05  9.542048E+05  4.886469E+05  1.876088E+05 -4.363624E+04
        95   2  3.813561E+06  7.049714E+05  6.804104E+05  3.343137E+05  7.235194E+04 -1.292409E+05
        95   3  3.140315E+06  5.331872E+05  5.025826E+05  4.476863E+05 -4.260693E+04 -1.169682E+05
        95   4  9.270049E+05  6.838542E+04  8.437687E+04  4.573786E+05  5.742955E+04 -4.348723E+04
        95   5  9.161759E+05 -1.203647E+03  3.883178E+04  3.234679E+05  3.683182E+04 -1.292664E+05
        95   6  9.282154E+05 -3.901168E+03  2.396370E+04  4.573114E+05  1.639720E+04 -1.169713E+05
        95   7 -2.660506E+06 -8.239379E+05 -7.863158E+05  4.262909E+05 -7.200242E+04 -4.332497E+04
        95   8 -1.973407E+06 -7.079424E+05 -6.032618E+05  3.126722E+05  1.474500E+03 -1.292907E+05
        95   9 -1.279303E+06 -5.413096E+05 -4.549323E+05  4.668997E+05  7.519465E+04 -1.169726E+05
        95  10  4.526291E+06  9.597652E+05  9.541355E+05  4.886535E+05  1.348299E-09 -3.373820E-10
        95  11  3.813551E+06  7.049521E+05  6.803692E+05  3.343212E+05 -1.187931E-09 -1.176183E-09
        95  12  3.140310E+06  5.331720E+05  5.025535E+05  4.476823E+05 -1.629582E-09  1.126766E-09
        95  13  9.270008E+05  6.838251E+04  8.436711E+04  4.573806E+05 -3.527684E-10  1.644797E-09
        95  14  9.161700E+05 -1.221965E+03  3.879781E+04  3.234717E+05 -2.566122E-09  7.685662E-10
        95  15  9.282115E+05 -3.915941E+03  2.393747E+04  4.573129E+05  1.212018E-09  1.560993E-09
        95  16 -2.660512E+06 -8.239413E+05 -7.863291E+05  4.262883E+05 -1.829058E-09 -8.325968E-11
        95  17 -1.973411E+06 -7.079604E+05 -6.032932E+05  3.126724E+05 -4.185675E-10  1.414490E-09
        95  18 -1.279313E+06 -5.413259E+05 -4.549687E+05  4.669068E+05  2.218527E-09  1.720989E-09
        95  19  4.526329E+06  9.597766E+05  9.542048E+05  4.886469E+05 -1.876088E+05  4.363624E+04
        95  20  3.813561E+06  7.049714E+05  6.804104E+05  3.343137E+05 -7.235194E+04  1.292409E+05
        95  21  3.140315E+06  5.331872E+05  5.025826E+05  4.476863E+05  4.260693E+04  1.169682E+05
        95  22  9.270049E+05  6.838542E+04  8.437687E+04  4.573786E+05 -5.742955E+04  4.348723E+04
        95  23  9.161759E+05 -1.203647E+03  3.883178E+04  3.234679E+05 -3.683182E+04  1.292664E+05
        95  24  9.282154E+05 -3.901168E+03  2.396370E+04  4.573114E+05 -1.639720E+04  1.169713E+05
        95  25 -2.660506E+06 -8.239379E+05 -7.863158E+05  4.262909E+05  7.200242E+04  4.332497E+04
        95  26 -1.973407E+06 -7.079424E+05 -6.032618E+05  3.126722E+05 -1.474500E+03  1.292907E+05
        95  27 -1.279303E+06 -5.413096E+05 -4.549323E+05  4.668997E+05 -7.519465E+04  1.169726E+05
        96   1  2.585661E+06  4.072169E+05  3.805840E+05  4.600494E+05 -1.823082E+04 -8.575125E+04
        96   2  1.895344E+06  2.364033E+05  2.233728E+05  3.234176E+05 -2.869626E+04 -5.132467E+04
        96   3  1.208088E+06  7.019045E+04  7.407453E+04  4.578640E+05 -3.919565E+04 -1.267380E+04
        96   4  9.240255E+05  3.368031E+03  1.960828E+04  4.580725E+05  1.286989E+04 -8.574202E+04
        96   5  9.232618E+05  1.869064E+02  1.280507E+04  3.225220E+05  6.469935E+03 -5.129413E+04
        96   6  9.244256E+05  9.385946E+02  1.112792E+04  4.580752E+05  2.478876E+01 -1.261724E+04
        96   7 -7.350280E+05 -4.006629E+05 -3.415287E+05  4.560995E+05  4.388868E+04 -8.573297E+04
        96   8 -4.793355E+04 -2.360912E+05 -1.978141E+05  3.216275E+05  4.158193E+04 -5.126366E+04
        96   9  6.408416E+05 -6.831787E+04 -5.181792E+04  4.582863E+05  3.922754E+04 -1.256064E+04
        96  10  2.585659E+06  4.072089E+05  3.805695E+05  4.600481E+05  8.788732E-10  1.150946E-09
        96  11  1.895342E+06  2.364003E+05  2.233663E+05  3.234164E+05  6.275435E-10  1.898840E-10
        96  12  1.208086E+06  7.018987E+04  7.407135E+04  4.578636E+05 -3.954697E-10 -1.919768E-10
        96  13  9.240233E+05  3.360087E+03  1.959415E+04  4.580733E+05  4.642653E-09  2.033827E-09
        96  14  9.232610E+05  1.840684E+02  1.280004E+04  3.225223E+05  5.908579E-09  1.532620E-09
        96  15  9.244255E+05  9.384236E+02  1.112762E+04  4.580752E+05  2.520521E-10 -6.414175E-10
        96  16 -7.350321E+05 -4.006713E+05 -3.415462E+05  4.561025E+05 -2.727504E-10  1.334384E-09
        96  17 -4.793612E+04 -2.360945E+05 -1.978223E+05  3.216292E+05 -8.757314E-10  1.926449E-09
        96  18  6.408399E+05 -6.831845E+04 -5.182111E+04  4.582867E+05 -3.877740E-11  8.689589E-11
        96  19  2.585661E+06  4.072169E+05  3.805840E+05  4.600494E+05  1.823082E+04  8.575125E+04
        96  20  1.895344E+06  2.364033E+05  2.233728E+05  3.234176E+05  2.869626E+04  5.132467E+04
        96  21  1.208088E+06  7.019045E+04  7.407453E+04  4.578640E+05  3.919565E+04  1.267380E+04
        96  22  9.240255E+05  3.368031E+03  1.960828E+04  4.580725E+05 -1.286989E+04  8.574202E+04
        96  23  9.232618E+05  1.869064E+02  1.280507E+04  3.225220E+05 -6.469935E+03  5.129413E+04
        96  24  9.244256E+05  9.385946E+02  1.112792E+04  4.580752E+05 -2.478876E+01  1.261724E+04
        96  25 -7.350280E+05 -4.006629E+05 -3.415287E+05  4.560995E+05 -4.388868E+04  8.573297E+04
        96  26 -4.793355E+04 -2.360912E+05 -1.978141E+05  3.216275E+05 -4.158193E+04  5.126366E+04
        96  27  6.408416E+05 -6.831787E+04 -5.181792E+04  4.582863E+05 -3.922754E+04  1.256064E+04
        97   1  6.619345E+05 -6.329677E+04 -4.693990E+04  4.585039E+05 -4.122123E+04  1.142316E+04
        97   2 -2.699582E+04 -2.309728E+05 -1.913986E+05  3.215869E+05 -4.453654E+04  5.013058E+04
        97   3 -7.139329E+05 -3.945901E+05 -3.327406E+05  4.557903E+05 -4.780416E+04  8.462853E+04
        97   4  9.244986E+05  8.495582E+02  1.146342E+04  4.580732E+05 -2.025538E+03  1.147991E+04
        97   5  9.231800E+05  1.911049E+02  1.467063E+04  3.225244E+05 -9.409790E+03  5.016162E+04
        97   6  9.241059E+05  4.320092E+03  2.382439E+04  4.580693E+05 -1.674990E+04  8.463849E+04
        97   7  1.187130E+06  6.499205E+04  6.986821E+04  4.576422E+05  3.718654E+04  1.153659E+04
        97   8  1.874205E+06  2.312960E+05  2.206907E+05  3.234630E+05  2.577001E+04  5.019273E+04
        97   9  2.564662E+06  4.030528E+05  3.802322E+05  4.603529E+05  1.438534E+04  8.464864E+04
        97  10  6.619327E+05 -6.329737E+04 -4.694334E+04  4.585043E+05  6.686049E-10  4.609957E-10
        97  11 -2.699863E+04 -2.309760E+05 -1.914070E+05  3.215887E+05  1.666474E-09 -2.085035E-09
        97  12 -7.139373E+05 -3.945984E+05 -3.327583E+05  4.557936E+05 -1.514713E-09 -2.568759E-10
        97  13  9.244986E+05  8.494155E+02  1.146316E+04  4.580732E+05  1.707373E-11 -7.566222E-10
        97  14  9.231792E+05  1.883777E+02  1.466573E+04  3.225248E+05  4.490949E-09 -6.968869E-10
        97  15  9.241037E+05  4.312319E+03  2.381039E+04  4.580704E+05  1.376182E-10  2.688219E-10
        97  16  1.187129E+06  6.499154E+04  6.986537E+04  4.576419E+05 -8.702544E-10 -7.771170E-10
        97  17  1.874203E+06  2.312931E+05  2.206848E+05  3.234620E+05 -3.022864E-09 -1.512056E-10
        97  18  2.564660E+06  4.030451E+05  3.802183E+05  4.603519E+05  4.479204E-10  1.183571E-09
        97  19  6.619345E+05 -6.329677E+04 -4.693990E+04  4.585039E+05  4.122123E+04 -1.142316E+04
        97  20 -2.699582E+04 -2.309728E+05 -1.913986E+05  3.215869E+05  4.453654E+04 -5.013058E+04
        97  21 -7.139329E+05 -3.945901E+05 -3.327406E+05  4.557903E+05  4.780416E+04 -8.462853E+04
        97  22  9.244986E+05  8.495582E+02  1.146342E+04  4.580732E+05  2.025538E+03 -1.147991E+04
        97  23  9.231800E+05  1.911049E+02  1.467063E+04  3.225244E+05  9.409790E+03 -5.016162E+04
        97  24  9.241059E+05  4.320092E+03  2.382439E+04  4.580693E+05  1.674990E+04 -8.463849E+04
        97  25  1.187130E+06  6.499205E+04  6.986821E+04  4.576422E+05 -3.718654E+04 -1.153659E+04
        97  26  1.874205E+06  2.312960E+05  2.206907E+05  3.234630E+05 -2.577001E+04 -5.019273E+04
        97  27  2.564662E+06  4.030528E+05  3.802322E+05  4.603529E+05 -1.438534E+04 -8.464864E+04
        98   1 -1.257170E+06 -5.369808E+05 -4.448744E+05  4.694345E+05 -7.970864E+04  1.158228E+05
        98   2 -1.953687E+06 -7.024988E+05 -5.888659E+05  3.094577E+05 -1.165002E+04  1.283011E+05
        98   3 -2.638280E+06 -8.005693E+05 -7.596882E+05  4.174149E+05  5.617472E+04  4.304588E+04
        98   4  9.292948E+05 -4.704315E+03  2.946295E+04  4.573250E+05 -2.103285E+04  1.158236E+05
        98   5  9.148640E+05 -9.097114E+02  4.857618E+04  3.234478E+05 -4.662569E+04  1.282760E+05
        98   6  9.280847E+05  8.644979E+04  1.058787E+05  4.574066E+05 -7.237671E+04  4.320291E+04
        98   7  3.120255E+06  5.272584E+05  5.035287E+05  4.451701E+05  3.784724E+04  1.158221E+05
        98   8  3.791105E+06  7.001241E+05  6.855108E+05  3.375026E+05 -8.176115E+04  1.282495E+05
        98   9  4.506125E+06  9.725502E+05  9.705913E+05  4.976291E+05 -2.016658E+05  4.334310E+04
        98  10 -1.257181E+06 -5.369970E+05 -4.449117E+05  4.694419E+05  3.365381E-09  5.175335E-10
        98  11 -1.953692E+06 -7.025165E+05 -5.888971E+05  3.094589E+05  4.199494E-10 -2.749718E-10
        98  12 -2.638284E+06 -8.005721E+05 -7.596977E+05  4.174130E+05 -2.032988E-09 -9.821468E-10
        98  13  9.292908E+05 -4.718848E+03  2.943689E+04  4.573270E+05  1.468258E-09  2.048813E-10
        98  14  9.148572E+05 -9.279751E+02  4.854115E+04  3.234526E+05 -2.237825E-09 -8.277147E-10
        98  15  9.280786E+05  8.644637E+04  1.058654E+05  4.574091E+05 -1.169518E-09  2.386231E-10
        98  16  3.120249E+06  5.272436E+05  5.035008E+05  4.451666E+05 -5.241139E-09  3.659940E-10
        98  17  3.791093E+06  7.001047E+05  6.854673E+05  3.375111E+05 -1.814918E-09 -6.569868E-10
        98  18  4.506082E+06  9.725373E+05  9.705118E+05  4.976362E+05  2.709617E-09 -1.896250E-09
        98  19 -1.257170E+06 -5.369808E+05 -4.448744E+05  4.694345E+05  7.970864E+04 -1.158228E+05
        98  20 -1.953687E+06 -7.024988E+05 -5.888659E+05  3.094577E+05  1.165002E+04 -1.283011E+05
        98  21 -2.638280E+06 -8.005693E+05 -7.596882E+05  4.174149E+05 -5.617472E+04 -4.304588E+04
        98  22  9.292948E+05 -4.704315E+03  2.946295E+04  4.573250E+05  2.103285E+04 -1.158236E+05
        98  23  9.148640E+05 -9.097114E+02  4.857618E+04  3.234478E+05  4.662569E+04 -1.282760E+05
        98  24  9.280847E+05  8.644979E+04  1.058787E+05  4.574066E+05  7.237671E+04 -4.320291E+04
        98  25  3.120255E+06  5.272584E+05  5.035287E+05  4.451701E+05 -3.784724E+04 -1.158221E+05
        98  26  3.791105E+06  7.001241E+05  6.855108E+05  3.375026E+05  8.176115E+04 -1.282495E+05
        98  27  4.506125E+06  9.725502E+05  9.705913E+05  4.976291E+05  2.016658E+05 -4.334310E+04
        99   1 -1.230097E+06 -4.593152E+06 -1.226017E+06  8.165545E+05 -5.330522E+04 -2.240879E+05
        99   2 -8.328666E+05 -3.386262E+06 -8.101997E+05  5.597980E+05 -1.494562E+05 -7.408450E+04
        99   3 -5.322420E+05 -2.222578E+06 -5.168179E+05  7.650611E+05 -1.163772E+05  7.574622E+04
        99   4 -8.370496E+04  7.061703E+03 -1.055694E+05  7.876563E+05 -5.262795E+04 -7.024007E+04
        99   5  1.596424E+03  1.965476E+04 -5.016441E+04  5.564871E+05 -1.492404E+05 -4.333706E+04
        99   6  1.216009E+04  9.456462E+03 -3.105195E+04  7.872381E+05 -1.169279E+05 -1.690195E+04
        99   7  1.061143E+06  4.626730E+06  1.013432E+06  7.585106E+05 -5.196822E+04  8.475264E+04
        99   8  8.352713E+05  3.436425E+06  7.091467E+05  5.531398E+05 -1.490257E+05 -1.242156E+04
        99   9  5.562369E+05  2.246192E+06  4.544479E+05  8.094862E+05 -1.174841E+05 -1.098797E+05
        99  10 -1.230113E+06 -4.593207E+06 -1.226117E+06  8.165449E+05  2.467959E-10  2.100247E-09
        99  11 -8.328921E+05 -3.386274E+06 -8.102520E+05  5.597891E+05 -4.402168E-10  3.286942E-09
        99  12 -5.322581E+05 -2.222588E+06 -5.168543E+05  7.650682E+05 -4.851236E-09 -4.044088E-09
        99  13 -8.370925E+04  7.055669E+03 -1.055839E+05  7.876533E+05  2.734015E-09  3.118515E-09
        99  14  1.572011E+03  1.964677E+04 -5.020977E+04  5.564819E+05  1.232924E-09 -2.044428E-11
        99  15  1.214534E+04  9.452489E+03 -3.107817E+04  7.872365E+05  3.114733E-09  5.402272E-09
        99  16  1.061138E+06  4.626721E+06  1.013414E+06  7.585142E+05  2.242149E-09 -7.936202E-10
        99  17  8.352475E+05  3.436419E+06  7.091047E+05  5.531383E+05  1.925441E-09  3.122185E-10
        99  18  5.562189E+05  2.246175E+06  4.543994E+05  8.094758E+05  1.576508E-09  3.034476E-09
        99  19 -1.230097E+06 -4.593152E+06 -1.226017E+06  8.165545E+05  5.330522E+04  2.240879E+05
        99  20 -8.328666E+05 -3.386262E+06 -8.101997E+05  5.597980E+05  1.494562E+05  7.408450E+04
        99  21 -5.322420E+05 -2.222578E+06 -5.168179E+05  7.650611E+05  1.163772E+05 -7.574622E+04
        99  22 -8.370496E+04  7.061703E+03 -1.055694E+05  7.876563E+05  5.262795E+04  7.024007E+04
        99  23  1.596424E+03  1.965476E+04 -5.016441E+04  5.564871E+05  1.492404E+05  4.333706E+04
        99  24  1.216009E+04  9.456462E+03 -3.105195E+04  7.872381E+05  1.169279E+05  1.690195E+04
        99  25  1.061143E+06  4.626730E+06  1.013432E+06  7.585106E+05  5.196822E+04 -8.475264E+04
        99  26  8.352713E+05  3.436425E+06  7.091467E+05  5.531398E+05  1.490257E+05  1.242156E+04
        99  27  5.562369E+05  2.246192E+06  4.544479E+05  8.094862E+05  1.174841E+05  1.098797E+05
       100   1 -3.095340E+05 -1.274927E+06 -3.079139E+05  7.850135E+05 -6.546347E+04  4.493282E+04
       100   2 -1.822638E+04 -8.534439E+04 -4.260341E+04  5.545098E+05 -5.141321E+03  5.505558E+04
       100   3  2.699371E+05  1.097424E+06  2.137178E+05  7.913207E+05  5.542187E+04  6.518831E+04
       100   4  4.592639E+03  1.345969E+04 -2.667036E+04  7.885411E+05 -6.583563E+04 -1.275085E+04
       100   5  6.810801E+03  1.754131E+04 -2.032101E+04  5.548834E+05 -5.516029E+03 -2.896598E+03
       100   6  6.019225E+03  1.353237E+04 -2.271690E+04  7.885325E+05  5.503976E+04  6.948465E+03
       100   7  3.186105E+05  1.303411E+06  2.544857E+05  7.920727E+05 -6.620800E+04 -7.055287E+04
       100   8  3.184909E+04  1.204442E+05  1.973388E+03  5.552572E+05 -5.890770E+03 -6.085825E+04
       100   9 -2.579749E+05 -1.069252E+06 -2.592096E+05  7.857468E+05  5.465777E+04 -5.119114E+04
       100  10 -3.095391E+05 -1.274930E+06 -3.079258E+05  7.850159E+05 -3.492095E-09  9.432053E-10
       100  11 -1.822722E+04 -8.534766E+04 -4.260916E+04  5.545100E+05  1.725915E-09  3.793431E-09
       100  12  2.699327E+05  1.097418E+06  2.137040E+05  7.913178E+05 -1.573896E-09 -3.040174E-09
       100  13  4.587943E+03  1.345835E+04 -2.667881E+04  7.885405E+05 -5.144204E-10  5.711978E-09
       100  14  6.810766E+03  1.754130E+04 -2.032108E+04  5.548834E+05  9.070479E-10  7.364187E-13
       100  15  6.015959E+03  1.353151E+04 -2.272268E+04  7.885322E+05 -3.229772E-09  5.839990E-09
       100  16  3.186045E+05  1.303404E+06  2.544681E+05  7.920690E+05 -1.203802E-09  2.077045E-09
       100  17  3.184806E+04  1.204402E+05  1.966366E+03  5.552569E+05 -3.863584E-09  8.839887E-10
       100  18 -2.579788E+05 -1.069256E+06 -2.592202E+05  7.857491E+05 -1.560228E-09  1.994131E-09
       100  19 -3.095340E+05 -1.274927E+06 -3.079139E+05  7.850135E+05  6.546347E+04 -4.493282E+04
       100  20 -1.822638E+04 -8.534439E+04 -4.260341E+04  5.545098E+05  5.141321E+03 -5.505558E+04
       100  21  2.699371E+05  1.097424E+06  2.137178E+05  7.913207E+05 -5.542187E+04 -6.518831E+04
       100  22  4.592639E+03  1.345969E+04 -2.667036E+04  7.885411E+05  6.583563E+04  1.275085E+04
       100  23  6.810801E+03  1.754131E+04 -2.032101E+04  5.548834E+05  5.516029E+03  2.896598E+03
       100  24  6.019225E+03  1.353237E+04 -2.271690E+04  7.885325E+05 -5.503976E+04 -6.948465E+03
       100  25  3.186105E+05  1.303411E+06  2.544857E+05  7.920727E+05  6.620800E+04  7.055287E+04
       100  26  3.184909E+04  1.204442E+05  1.973388E+03  5.552572E+05  5.890770E+03  6.085825E+04
       100  27 -2.579749E+05 -1.069252E+06 -2.592096E+05  7.857468E+05 -5.465777E+04  5.119114E+04
       101   1  5.053273E+05  2.041177E+06  4.158047E+05  8.056289E+05  1.062942E+05  1.022049E+05
       101   2  7.859425E+05  3.228930E+06  6.755415E+05  5.565939E+05  1.393113E+05  3.566441E+03
       101   3  1.032935E+06  4.421142E+06  9.903788E+05  7.695116E+05  4.896171E+04 -9.478246E+04
       101   4  1.136139E+04  1.079472E+04 -2.519629E+04  7.873050E+05  1.057307E+05  1.036069E+04
       101   5  2.371381E+03  1.841078E+04 -3.846142E+04  5.564006E+05  1.395034E+05  3.056492E+04
       101   6 -6.087059E+04  8.543346E+03 -7.897898E+04  7.876301E+05  4.961698E+04  5.124588E+04
       101   7 -4.828723E+05 -2.015712E+06 -4.664120E+05  7.690335E+05  1.051715E+05 -8.118783E+04
       101   8 -7.818964E+05 -3.182525E+06 -7.531050E+05  5.561921E+05  1.396961E+05  5.742555E+04
       101   9 -1.156089E+06 -4.386307E+06 -1.149659E+06  8.055905E+05  5.028360E+04  1.962439E+05
       101  10  5.053124E+05  2.041163E+06  4.157640E+05  8.056202E+05  1.111298E-09  1.548223E-09
       101  11  7.859217E+05  3.228925E+06  6.755050E+05  5.565935E+05  1.065643E-09  3.198919E-09
       101  12  1.032930E+06  4.421132E+06  9.903575E+05  7.695154E+05  1.264983E-09 -7.695448E-10
       101  13  1.134936E+04  1.079161E+04 -2.521750E+04  7.873041E+05  1.006119E-09  5.563873E-09
       101  14  2.350237E+03  1.840456E+04 -3.849972E+04  5.563972E+05 -9.380903E-10  6.956331E-11
       101  15 -6.087394E+04  8.539870E+03 -7.898853E+04  7.876280E+05 -7.649172E-11  3.342473E-09
       101  16 -4.828859E+05 -2.015722E+06 -4.664452E+05  7.690404E+05 -1.593199E-09  1.218125E-09
       101  17 -7.819182E+05 -3.182534E+06 -7.531479E+05  5.561856E+05 -1.001112E-09  4.251624E-10
       101  18 -1.156102E+06 -4.386349E+06 -1.149737E+06  8.055826E+05 -1.076427E-09  2.392681E-10
       101  19  5.053273E+05  2.041177E+06  4.158047E+05  8.056289E+05 -1.062942E+05 -1.022049E+05
       101  20  7.859425E+05  3.228930E+06  6.755415E+05  5.565939E+05 -1.393113E+05 -3.566441E+03
       101  21  1.032935E+06  4.421142E+06  9.903788E+05  7.695116E+05 -4.896171E+04  9.478246E+04
       101  22  1.136139E+04  1.079472E+04 -2.519629E+04  7.873050E+05 -1.057307E+05 -1.036069E+04
       101  23  2.371381E+03  1.841078E+04 -3.846142E+04  5.564006E+05 -1.395034E+05 -3.056492E+04
       101  24 -6.087059E+04  8.543346E+03 -7.897898E+04  7.876301E+05 -4.961698E+04 -5.124588E+04
       101  25 -4.828723E+05 -2.015712E+06 -4.664120E+05  7.690335E+05 -1.051715E+05  8.118783E+04
       101  26 -7.818964E+05 -3.182525E+06 -7.531050E+05  5.561921E+05 -1.396961E+05 -5.742555E+04
       101  27 -1.156089E+06 -4.386307E+06 -1.149659E+06  8.055905E+05 -5.028360E+04 -1.962439E+05
       102   1  4.223978E+06  9.187977E+05  9.099460E+05  4.655533E+05  1.689363E+05 -4.258070E+04
       102   2  3.535378E+06  6.881487E+05  6.548923E+05  3.212384E+05  6.159474E+04 -1.262462E+05
       102   3  2.880616E+06  5.225719E+05  4.861930E+05  4.364279E+05 -4.547081E+04 -1.144842E+05
       102   4  7.152972E+05  4.957260E+04  6.179845E+04  4.434908E+05  4.192386E+04 -4.243205E+04
       102   5  7.070590E+05 -1.379861E+03  2.846559E+04  3.136878E+05  2.680890E+04 -1.262690E+05
       102   6  7.164305E+05 -3.022557E+03  1.782639E+04  4.434411E+05  1.185131E+04 -1.144890E+05
       102   7 -2.782153E+06 -8.205406E+05 -7.871715E+05  4.215527E+05 -8.437735E+04 -4.227421E+04
       102   8 -2.113822E+06 -6.914461E+05 -5.984520E+05  3.061711E+05 -7.821163E+03 -1.262911E+05
       102   9 -1.443368E+06 -5.289238E+05 -4.508057E+05  4.504277E+05  6.897694E+04 -1.144924E+05
       102  10  4.223947E+06  9.187882E+05  9.098893E+05  4.655591E+05  1.571423E-10  1.495564E-09
       102  11  3.535370E+06  6.881306E+05  6.548552E+05  3.212447E+05 -1.405583E-09 -2.646545E-11
       102  12  2.880610E+06  5.225573E+05  4.861645E+05  4.364237E+05  3.649642E-10 -2.776955E-10
       102  13  7.152948E+05  4.957020E+04  6.179176E+04  4.434922E+05  2.788531E-10 -1.250238E-09
       102  14  7.070539E+05 -1.397182E+03  2.843426E+04  3.136905E+05 -3.052461E-09  4.022338E-10
       102  15  7.164269E+05 -3.036676E+03  1.780149E+04  4.434422E+05 -2.004862E-09 -8.838213E-11
       102  16 -2.782161E+06 -8.205444E+05 -7.871883E+05  4.215498E+05  7.510253E-10 -1.298408E-09
       102  17 -2.113826E+06 -6.914633E+05 -5.984821E+05  3.061703E+05 -5.629137E-10  5.243788E-10
       102  18 -1.443377E+06 -5.289391E+05 -4.508394E+05  4.504341E+05 -2.746673E-09  4.622792E-10
       102  19  4.223978E+06  9.187977E+05  9.099460E+05  4.655533E+05 -1.689363E+05  4.258070E+04
       102  20  3.535378E+06  6.881487E+05  6.548923E+05  3.212384E+05 -6.159474E+04  1.262462E+05
       102  21  2.880616E+06  5.225719E+05  4.861930E+05  4.364279E+05  4.547081E+04  1.144842E+05
       102  22  7.152972E+05  4.957260E+04  6.179845E+04  4.434908E+05 -4.192386E+04  4.243205E+04
       102  23  7.070590E+05 -1.379861E+03  2.846559E+04  3.136878E+05 -2.680890E+04  1.262690E+05
       102  24  7.164305E+05 -3.022557E+03  1.782639E+04  4.434411E+05 -1.185131E+04  1.144890E+05
       102  25 -2.782153E+06 -8.205406E+05 -7.871715E+05  4.215527E+05  8.437735E+04  4.227421E+04
       102  26 -2.113822E+06 -6.914461E+05 -5.984520E+05  3.061711E+05  7.821163E+03  1.262911E+05
       102  27 -1.443368E+06 -5.289238E+05 -4.508057E+05  4.504277E+05 -6.897694E+04  1.144924E+05
       103   1  2.343595E+06  3.987187E+05  3.689486E+05  4.458019E+05 -2.093373E+04 -8.416577E+04
       103   2  1.674135E+06  2.338505E+05  2.182650E+05  3.134975E+05 -2.987712E+04 -5.078941E+04
       103   3  1.007291E+06  7.259155E+04  7.426988E+04  4.441833E+05 -3.885434E+04 -1.328862E+04
       103   4  7.132963E+05  2.386981E+03  1.469479E+04  4.442221E+05  9.199677E+03 -8.415815E+04
       103   5  7.127314E+05  1.747156E+02  9.969609E+03  3.127155E+05  4.221520E+03 -5.076144E+04
       103   6  7.136791E+05  9.151351E+02  9.207891E+03  4.442238E+05 -7.998606E+02 -1.323579E+04
       103   7 -9.145159E+05 -3.941201E+05 -3.397145E+05  4.426451E+05  3.925519E+04 -8.415066E+04
       103   8 -2.478047E+05 -2.335615E+05 -1.983764E+05  3.119343E+05  3.826816E+04 -5.073353E+04
       103   9  4.201510E+05 -7.076632E+04 -5.585400E+04  4.442641E+05  3.723685E+04 -1.318294E+04
       103  10  2.343593E+06  3.987110E+05  3.689345E+05  4.458005E+05 -1.690178E-08 -1.180449E-09
       103  11  1.674134E+06  2.338475E+05  2.182585E+05  3.134963E+05  1.551597E-09  2.763261E-10
       103  12  1.007289E+06  7.259096E+04  7.426671E+04  4.441829E+05  2.379329E-08 -9.876893E-10
       103  13  7.132943E+05  2.379350E+03  1.468132E+04  4.442227E+05 -1.923708E-09 -2.540476E-10
       103  14  7.127307E+05  1.719428E+02  9.964731E+03  3.127157E+05 -1.764094E-09  2.069420E-10
       103  15  7.136791E+05  9.149468E+02  9.207560E+03  4.442238E+05 -3.869325E-10 -2.721361E-09
       103  16 -9.145194E+05 -3.941282E+05 -3.397307E+05  4.426478E+05  1.871885E-08 -5.463535E-10
       103  17 -2.478070E+05 -2.335646E+05 -1.983839E+05  3.119359E+05 -2.149128E-09 -1.220339E-09
       103  18  4.201495E+05 -7.076688E+04 -5.585694E+04  4.442645E+05 -2.108988E-08 -2.392754E-09
       103  19  2.343595E+06  3.987187E+05  3.689486E+05  4.458019E+05  2.093373E+04  8.416577E+04
       103  20  1.674135E+06  2.338505E+05  2.182650E+05  3.134975E+05  2.987712E+04  5.078941E+04
       103  21  1.007291E+06  7.259155E+04  7.426988E+04  4.441833E+05  3.885434E+04  1.328862E+04
       103  22  7.132963E+05  2.386981E+03  1.469479E+04  4.442221E+05 -9.199677E+03  8.415815E+04
       103  23  7.127314E+05  1.747156E+02  9.969609E+03  3.127155E+05 -4.221520E+03  5.076144E+04
       103  24  7.136791E+05  9.151351E+02  9.207891E+03  4.442238E+05  7.998606E+02  1.323579E+04
       103  25 -9.145159E+05 -3.941201E+05 -3.397145E+05  4.426451E+05 -3.925519E+04  8.415066E+04
       103  26 -2.478047E+05 -2.335615E+05 -1.983764E+05  3.119343E+05 -3.826816E+04  5.073353E+04
       103  27  4.201510E+05 -7.076632E+04 -5.585400E+04  4.442641E+05 -3.723685E+04  1.318294E+04
       104   1  4.774082E+05 -5.702047E+04 -4.294549E+04  4.446473E+05 -4.054595E+04  1.009443E+04
       104   2 -1.908042E+05 -2.196393E+05 -1.829001E+05  3.118673E+05 -4.320359E+04  4.765680E+04
       104   3 -8.572370E+05 -3.785810E+05 -3.202577E+05  4.421231E+05 -4.581771E+04  8.115304E+04
       104   4  7.137995E+05  7.679620E+02  9.765835E+03  4.442232E+05 -2.527270E+03  1.014765E+04
       104   5  7.126068E+05  1.950457E+02  1.307844E+04  3.127159E+05 -9.113528E+03  4.768622E+04
       104   6  7.134378E+05  4.000179E+03  2.171835E+04  4.442196E+05 -1.565896E+04  8.116295E+04
       104   7  9.502459E+05  5.855338E+04  6.247909E+04  4.437990E+05  3.550572E+04  1.020081E+04
       104   8  1.616786E+06  2.199760E+05  2.090127E+05  3.135654E+05  2.502550E+04  4.771571E+04
       104   9  2.286428E+06  3.864181E+05  3.635499E+05  4.463203E+05  1.457521E+04  8.117304E+04
       104  10  4.774064E+05 -5.702102E+04 -4.294877E+04  4.446477E+05  3.691095E-09 -1.800171E-09
       104  11 -1.908068E+05 -2.196422E+05 -1.829079E+05  3.118689E+05  3.065228E-09 -1.097925E-09
       104  12 -8.572411E+05 -3.785886E+05 -3.202740E+05  4.421261E+05  4.002258E-09  1.904972E-09
       104  13  7.137994E+05  7.678496E+02  9.765629E+03  4.442233E+05  1.872794E-09 -2.008881E-09
       104  14  7.126061E+05  1.925805E+02  1.307401E+04  3.127162E+05  2.221567E-11  1.411560E-09
       104  15  7.134358E+05  3.993036E+03  2.170550E+04  4.442207E+05 -7.292632E-10  1.139004E-09
       104  16  9.502445E+05  5.855293E+04  6.247653E+04  4.437987E+05 -4.451027E-10 -1.584336E-09
       104  17  1.616784E+06  2.199734E+05  2.090073E+05  3.135645E+05 -2.795218E-09  1.207002E-09
       104  18  2.286426E+06  3.864109E+05  3.635371E+05  4.463194E+05 -1.784253E-09  2.180999E-09
       104  19  4.774082E+05 -5.702047E+04 -4.294549E+04  4.446473E+05  4.054595E+04 -1.009443E+04
       104  20 -1.908042E+05 -2.196393E+05 -1.829001E+05  3.118673E+05  4.320359E+04 -4.765680E+04
       104  21 -8.572370E+05 -3.785810E+05 -3.202577E+05  4.421231E+05  4.581771E+04 -8.115304E+04
       104  22  7.137995E+05  7.679620E+02  9.765835E+03  4.442232E+05  2.527270E+03 -1.014765E+04
       104  23  7.126068E+05  1.950457E+02  1.307844E+04  3.127159E+05  9.113528E+03 -4.768622E+04
       104  24  7.134378E+05  4.000179E+03  2.171835E+04  4.442196E+05  1.565896E+04 -8.116295E+04
       104  25  9.502459E+05  5.855338E+04  6.247909E+04  4.437990E+05 -3.550572E+04 -1.020081E+04
       104  26  1.616786E+06  2.199760E+05  2.090127E+05  3.135654E+05 -2.502550E+04 -4.771571E+04
       104  27  2.286428E+06  3.864181E+05  3.635499E+05  4.463203E+05 -1.457521E+04 -8.117304E+04
       105   1 -1.384373E+06 -5.162897E+05 -4.292622E+05  4.545968E+05 -7.637512E+04  1.113733E+05
       105   2 -2.058846E+06 -6.769315E+05 -5.695802E+05  3.007817E+05 -9.553433E+03  1.236002E+05
       105   3 -2.723020E+06 -7.760769E+05 -7.374723E+05  4.066431E+05  5.705184E+04  4.149481E+04
       105   4  7.182318E+05 -4.329157E+03  2.698591E+04  4.434407E+05 -1.957011E+04  1.113749E+05
       105   5  7.049110E+05 -8.504957E+02  4.470302E+04  3.136834E+05 -4.312264E+04  1.235765E+05
       105   6  7.171104E+05  7.970038E+04  9.761532E+04  4.435125E+05 -6.682199E+04  4.163925E+04
       105   7  2.824994E+06  5.073411E+05  4.829829E+05  4.322444E+05  3.742513E+04  1.113744E+05
       105   8  3.475808E+06  6.747147E+05  6.585149E+05  3.266424E+05 -7.683964E+04  1.235516E+05
       105   9  4.168107E+06  9.346219E+05  9.319074E+05  4.805872E+05 -1.913816E+05  4.176873E+04
       105  10 -1.384382E+06 -5.163046E+05 -4.292965E+05  4.546037E+05  2.414248E-09  2.021356E-09
       105  11 -2.058850E+06 -6.769479E+05 -5.696091E+05  3.007827E+05  5.176889E-10  1.874376E-09
       105  12 -2.723024E+06 -7.760796E+05 -7.374817E+05  4.066412E+05  2.136226E-09  1.859243E-09
       105  13  7.182280E+05 -4.342586E+03  2.696187E+04  4.434425E+05 -2.136671E-09  1.950660E-09
       105  14  7.049048E+05 -8.674017E+02  4.467080E+04  3.136876E+05 -1.279512E-09  1.905996E-09
       105  15  7.171051E+05  7.969732E+04  9.760367E+04  4.435147E+05  2.781340E-09 -1.553638E-09
       105  16  2.824989E+06  5.073274E+05  4.829569E+05  4.322411E+05 -1.842101E-09  2.036015E-09
       105  17  3.475798E+06  6.746967E+05  6.584751E+05  3.266501E+05 -1.568564E-10  1.854608E-09
       105  18  4.168068E+06  9.346103E+05  9.318357E+05  4.805936E+05  4.382309E-10 -4.540616E-10
       105  19 -1.384373E+06 -5.162897E+05 -4.292622E+05  4.545968E+05  7.637512E+04 -1.113733E+05
       105  20 -2.058846E+06 -6.769315E+05 -5.695802E+05  3.007817E+05  9.553433E+03 -1.236002E+05
       105  21 -2.723020E+06 -7.760769E+05 -7.374723E+05  4.066431E+05 -5.705184E+04 -4.149481E+04
       105  22  7.182318E+05 -4.329157E+03  2.698591E+04  4.434407E+05  1.957011E+04 -1.113749E+05
       105  23  7.049110E+05 -8.504957E+02  4.470302E+04  3.136834E+05  4.312264E+04 -1.235765E+05
       105  24  7.171104E+05  7.970038E+04  9.761532E+04  4.435125E+05  6.682199E+04 -4.163925E+04
       105  25  2.824994E+06  5.073411E+05  4.829829E+05  4.322444E+05 -3.742513E+04 -1.113744E+05
       105  26  3.475808E+06  6.747147E+05  6.585149E+05  3.266424E+05  7.683964E+04 -1.235516E+05
       105  27  4.168107E+06  9.346219E+05  9.319074E+05  4.805872E+05  1.913816E+05 -4.176873E+04
       106   1 -1.218308E+06 -4.621828E+06 -1.211323E+06  8.165865E+05 -5.330207E+04 -2.113586E+05
       106   2 -8.330948E+05 -3.405820E+06 -8.028953E+05  5.624238E+05 -1.493775E+05 -6.503634E+04
       106   3 -5.306019E+05 -2.229021E+06 -5.110254E+05  7.746639E+05 -1.157888E+05  8.110980E+04
       106   4 -6.863541E+04 -8.880554E+03 -8.768064E+04  7.949598E+05 -5.263069E+04 -5.734409E+04
       106   5  1.827218E+03  1.715427E+03 -4.241389E+04  5.616406E+05 -1.491643E+05 -3.455900E+04
       106   6  1.147071E+04 -6.461643E+03 -2.728574E+04  7.946143E+05 -1.163426E+05 -1.223994E+04
       106   7  1.079483E+06  4.623628E+06  1.034507E+06  7.731394E+05 -5.197323E+04  9.781949E+04
       106   8  8.359600E+05  3.420115E+06  7.173424E+05  5.608351E+05 -1.489519E+05 -3.915089E+03
       106   9  5.532207E+05  2.220758E+06  4.561907E+05  8.146274E+05 -1.169012E+05 -1.059204E+05
       106  10 -1.218324E+06 -4.621877E+06 -1.211413E+06  8.165774E+05  2.067587E-09 -4.953385E-09
       106  11 -8.331199E+05 -3.405831E+06 -8.029452E+05  5.624160E+05  5.209393E-09  2.950937E-10
       106  12 -5.306181E+05 -2.229032E+06 -5.110631E+05  7.746715E+05  4.935861E-09  6.505664E-09
       106  13 -6.863926E+04 -8.884823E+03 -8.769201E+04  7.949573E+05  1.860403E-09 -6.929666E-12
       106  14  1.803011E+03  1.708179E+03 -4.245793E+04  5.616365E+05 -2.297521E-09 -4.489597E-09
       106  15  1.145614E+04 -6.465434E+03 -2.731145E+04  7.946131E+05 -3.755587E-10  8.693969E-09
       106  16  1.079477E+06  4.623617E+06  1.034484E+06  7.731434E+05 -6.224642E-10  4.203009E-10
       106  17  8.359362E+05  3.420109E+06  7.173007E+05  5.608347E+05 -3.238275E-09 -4.719662E-09
       106  18  5.532030E+05  2.220743E+06  4.561441E+05  8.146174E+05  4.955848E-09 -3.615020E-09
       106  19 -1.218308E+06 -4.621828E+06 -1.211323E+06  8.165865E+05  5.330207E+04  2.113586E+05
       106  20 -8.330948E+05 -3.405820E+06 -8.028953E+05  5.624238E+05  1.493775E+05  6.503634E+04
       106  21 -5.306019E+05 -2.229021E+06 -5.110254E+05  7.746639E+05  1.157888E+05 -8.110980E+04
       106  22 -6.863541E+04 -8.880554E+03 -8.768064E+04  7.949598E+05  5.263069E+04  5.734409E+04
       106  23  1.827218E+03  1.715427E+03 -4.241389E+04  5.616406E+05  1.491643E+05  3.455900E+04
       106  24  1.147071E+04 -6.461643E+03 -2.728574E+04  7.946143E+05  1.163426E+05  1.223994E+04
       106  25  1.079483E+06  4.623628E+06  1.034507E+06  7.731394E+05  5.197323E+04 -9.781949E+04
       106  26  8.359600E+05  3.420115E+06  7.173424E+05  5.608351E+05  1.489519E+05  3.915089E+03
       106  27  5.532207E+05  2.220758E+06  4.561907E+05  8.146274E+05  1.169012E+05  1.059204E+05
       107   1 -3.041738E+05 -1.273325E+06 -3.015182E+05  7.924215E+05 -6.445322E+04  4.974063E+04
       107   2 -1.098138E+04 -7.246411E+04 -3.663867E+04  5.596752E+05 -3.525186E+03  6.003529E+04
       107   3  2.789010E+05  1.121544E+06  2.190968E+05  7.986752E+05  5.757825E+04  7.034300E+04
       107   4  5.466955E+03 -3.367851E+03 -2.427213E+04  7.959090E+05 -6.482842E+04 -8.552189E+03
       107   5  6.835100E+03  7.428480E+02 -2.078585E+04  5.600408E+05 -3.901494E+03  1.533104E+03
       107   6  5.016956E+03 -3.315630E+03 -2.624462E+04  7.959123E+05  5.719588E+04  1.161178E+04
       107   7  3.150022E+05  1.268110E+06  2.528895E+05  7.994004E+05 -6.520381E+04 -6.696291E+04
       107   8  2.465306E+04  7.396218E+04 -4.920478E+03  5.604065E+05 -4.277846E+03 -5.697589E+04
       107   9 -2.689494E+05 -1.126984E+06 -2.716493E+05  7.931518E+05  5.681362E+04 -4.701454E+04
       107  10 -3.041790E+05 -1.273329E+06 -3.015307E+05  7.924241E+05  1.731413E-09 -1.187732E-08
       107  11 -1.098236E+04 -7.246798E+04 -3.664547E+04  5.596754E+05 -3.764252E-09 -3.596815E-09
       107  12  2.788961E+05  1.121538E+06  2.190813E+05  7.986719E+05  2.876264E-09  6.743644E-09
       107  13  5.462424E+03 -3.369057E+03 -2.428016E+04  7.959085E+05  9.877839E-10 -4.132896E-11
       107  14  6.835083E+03  7.428414E+02 -2.078588E+04  5.600408E+05 -2.974981E-09 -5.934326E-09
       107  15  5.013408E+03 -3.316652E+03 -2.625102E+04  7.959117E+05  6.626626E-09  9.052734E-09
       107  16  3.149964E+05  1.268104E+06  2.528731E+05  7.993969E+05  6.805874E-09  3.475382E-09
       107  17  2.465217E+04  7.395869E+04 -4.926611E+03  5.604063E+05  5.962965E-10 -2.410116E-09
       107  18 -2.689534E+05 -1.126987E+06 -2.716595E+05  7.931540E+05  2.380680E-09 -4.267312E-09
       107  19 -3.041738E+05 -1.273325E+06 -3.015182E+05  7.924215E+05  6.445322E+04 -4.974063E+04
       107  20 -1.098138E+04 -7.246411E+04 -3.663867E+04  5.596752E+05  3.525186E+03 -6.003529E+04
       107  21  2.789010E+05  1.121544E+06  2.190968E+05  7.986752E+05 -5.757825E+04 -7.034300E+04
       107  22  5.466955E+03 -3.367851E+03 -2.427213E+04  7.959090E+05  6.482842E+04  8.552189E+03
       107  23  6.835100E+03  7.428480E+02 -2.078585E+04  5.600408E+05  3.901494E+03 -1.533104E+03
       107  24  5.016956E+03 -3.315630E+03 -2.624462E+04  7.959123E+05 -5.719588E+04 -1.161178E+04
       107  25  3.150022E+05  1.268110E+06  2.528895E+05  7.994004E+05  6.520381E+04  6.696291E+04
       107  26  2.465306E+04  7.396218E+04 -4.920478E+03  5.604065E+05  4.277846E+03  5.697589E+04
       107  27 -2.689494E+05 -1.126984E+06 -2.716493E+05  7.931518E+05 -5.681362E+04  4.701454E+04
       108   1  5.183690E+05  2.073242E+06  4.215693E+05  8.157508E+05  1.089959E+05  1.085674E+05
       108   2  8.004302E+05  3.274538E+06  6.792883E+05  5.586163E+05  1.421255E+05  1.324540E+04
       108   3  1.032152E+06  4.475912E+06  9.858177E+05  7.677793E+05  4.993310E+04 -8.178550E+04
       108   4  1.222281E+04 -7.120701E+03 -3.024972E+04  7.946443E+05  1.084311E+05  1.567350E+04
       108   5  1.996056E+03  2.847854E+03 -4.823020E+04  5.616015E+05  1.423221E+05  4.106230E+04
       108   6 -7.957619E+04 -9.436509E+03 -1.010770E+05  7.950528E+05  5.058721E+04  6.692383E+04
       108   7 -4.942042E+05 -2.083414E+06 -4.822949E+05  7.736005E+05  1.078715E+05 -7.691400E+04
       108   8 -7.971612E+05 -3.258891E+06 -7.764138E+05  5.645541E+05  1.425197E+05  6.873436E+04
       108   9 -1.192762E+06 -4.476445E+06 -1.189337E+06  8.220996E+05  5.125726E+04  2.145664E+05
       108  10  5.183531E+05  2.073226E+06  4.215249E+05  8.157413E+05  4.667153E-09 -1.223787E-08
       108  11  8.004084E+05  3.274533E+06  6.792500E+05  5.586148E+05 -5.857849E-09 -5.684640E-09
       108  12  1.032148E+06  4.475904E+06  9.858005E+05  7.677826E+05 -2.794698E-09  2.452230E-09
       108  13  1.221012E+04 -7.124118E+03 -3.027226E+04  7.946429E+05  4.620592E-09 -2.373171E-10
       108  14  1.973860E+03  2.840614E+03 -4.827141E+04  5.615968E+05  2.071611E-09 -4.633284E-09
       108  15 -7.958013E+04 -9.441999E+03 -1.010902E+05  7.950500E+05 -1.391026E-09  5.293999E-09
       108  16 -4.942183E+05 -2.083424E+06 -4.823280E+05  7.736072E+05  3.710642E-09  3.690272E-09
       108  17 -7.971843E+05 -3.258901E+06 -7.764609E+05  5.645462E+05 -2.844630E-09  1.212434E-09
       108  18 -1.192777E+06 -4.476496E+06 -1.189429E+06  8.220907E+05 -1.436544E-09 -7.666121E-10
       108  19  5.183690E+05  2.073242E+06  4.215693E+05  8.157508E+05 -1.089959E+05 -1.085674E+05
       108  20  8.004302E+05  3.274538E+06  6.792883E+05  5.586163E+05 -1.421255E+05 -1.324540E+04
       108  21  1.032152E+06  4.475912E+06  9.858177E+05  7.677793E+05 -4.993310E+04  8.178550E+04
       108  22  1.222281E+04 -7.120701E+03 -3.024972E+04  7.946443E+05 -1.084311E+05 -1.567350E+04
       108  23  1.996056E+03  2.847854E+03 -4.823020E+04  5.616015E+05 -1.423221E+05 -4.106230E+04
       108  24 -7.957619E+04 -9.436509E+03 -1.010770E+05  7.950528E+05 -5.058721E+04 -6.692383E+04
       108  25 -4.942042E+05 -2.083414E+06 -4.822949E+05  7.736005E+05 -1.078715E+05  7.691400E+04
       108  26 -7.971612E+05 -3.258891E+06 -7.764138E+05  5.645541E+05 -1.425197E+05 -6.873436E+04
       108  27 -1.192762E+06 -4.476445E+06 -1.189337E+06  8.220996E+05 -5.125726E+04 -2.145664E+05
       109   1  4.521265E+06  1.041450E+06  1.026819E+06  5.915236E+05  1.725315E+05 -4.825904E+04
       109   2  3.631611E+06  7.754708E+05  7.258601E+05  4.134853E+05  5.445209E+04 -1.411480E+05
       109   3  2.775259E+06  5.627024E+05  5.153347E+05  5.732510E+05 -6.330637E+04 -1.223669E+05
       109   4  4.501266E+05  3.273500E+04  4.207629E+04  5.770648E+05  2.880488E+04 -4.814269E+04
       109   5  4.439174E+05 -1.882630E+03  1.907936E+04  4.081075E+05  1.866799E+04 -1.411966E+05
       109   6  4.517698E+05 -1.765491E+03  1.200525E+04  5.770430E+05  8.682554E+03 -1.223271E+05
       109   7 -3.605899E+06 -9.771787E+05 -9.437792E+05  5.626976E+05 -1.139879E+05 -4.801965E+04
       109   8 -2.734329E+06 -7.799203E+05 -6.883273E+05  4.027549E+05 -1.693544E+04 -1.412447E+05
       109   9 -1.866659E+06 -5.665868E+05 -4.916258E+05  5.808172E+05  8.040652E+04 -1.222862E+05
       109  10  4.521232E+06  1.041439E+06  1.026759E+06  5.915303E+05 -4.068350E-09  2.098758E-09
       109  11  3.631603E+06  7.754486E+05  7.258171E+05  4.134914E+05 -1.403553E-09  1.229417E-09
       109  12  2.775251E+06  5.626852E+05  5.152991E+05  5.732448E+05  1.011392E-09 -4.331455E-11
       109  13  4.501251E+05  3.273228E+04  4.207037E+04  5.770659E+05  3.126792E-10 -2.817801E-09
       109  14  4.439117E+05 -1.904138E+03  1.904122E+04  4.081096E+05  4.563954E-09 -2.246547E-10
       109  15  4.517657E+05 -1.781584E+03  1.197698E+04  5.770439E+05  7.055614E-09  4.624063E-10
       109  16 -3.605914E+06 -9.771847E+05 -9.438081E+05  5.626932E+05 -2.234801E-09 -2.310551E-09
       109  17 -2.734335E+06 -7.799418E+05 -6.883653E+05  4.027530E+05  1.614076E-09  4.102429E-12
       109  18 -1.866670E+06 -5.666046E+05 -4.916661E+05  5.808251E+05  1.623667E-09  8.467044E-11
       109  19  4.521265E+06  1.041450E+06  1.026819E+06  5.915236E+05 -1.725315E+05  4.825904E+04
       109  20  3.631611E+06  7.754708E+05  7.258601E+05  4.134853E+05 -5.445209E+04  1.411480E+05
       109  21  2.775259E+06  5.627024E+05  5.153347E+05  5.732510E+05  6.330637E+04  1.223669E+05
       109  22  4.501266E+05  3.273500E+04  4.207629E+04  5.770648E+05 -2.880488E+04  4.814269E+04
       109  23  4.439174E+05 -1.882630E+03  1.907936E+04  4.081075E+05 -1.866799E+04  1.411966E+05
       109  24  4.517698E+05 -1.765491E+03  1.200525E+04  5.770430E+05 -8.682554E+03  1.223271E+05
       109  25 -3.605899E+06 -9.771787E+05 -9.437792E+05  5.626976E+05  1.139879E+05  4.801965E+04
       109  26 -2.734329E+06 -7.799203E+05 -6.883273E+05  4.027549E+05  1.693544E+04  1.412447E+05
       109  27 -1.866659E+06 -5.665868E+05 -4.916258E+05  5.808172E+05 -8.040652E+04  1.222862E+05
       110   1  2.078582E+06  3.984128E+05  3.639536E+05  5.798625E+05 -3.334736E+04 -8.389217E+04
       110   2  1.208056E+06  1.853334E+05  1.708159E+05  4.076548E+05 -4.099703E+04 -3.972014E+04
       110   3  3.397017E+05 -2.485518E+04 -1.678609E+04  5.778003E+05 -4.868158E+04  9.241547E+03
       110   4  4.493935E+05  2.198829E+03  9.664529E+03  5.780450E+05  6.847382E+03 -8.385220E+04
       110   5  4.492627E+05  7.734379E+02  6.084140E+03  4.068566E+05  3.785324E+03 -3.965655E+04
       110   6  4.497863E+05  1.487898E+03  4.885992E+03  5.780467E+05  6.778532E+02  9.334112E+03
       110   7 -1.177310E+06 -3.941901E+05 -3.447774E+05  5.762303E+05  4.693826E+04 -8.381239E+04
       110   8 -3.089873E+05 -1.838235E+05 -1.586744E+05  4.060590E+05  4.851374E+04 -3.959303E+04
       110   9  5.598877E+05  2.783155E+04  2.656664E+04  5.782932E+05  5.004585E+04  9.426705E+03
       110  10  2.078579E+06  3.984050E+05  3.639383E+05  5.798602E+05  1.140729E-10  1.098981E-10
       110  11  1.208054E+06  1.853312E+05  1.708097E+05  4.076534E+05 -8.689393E-10 -3.600566E-09
       110  12  3.396992E+05 -2.485591E+04 -1.679071E+04  5.778006E+05  1.394358E-09 -4.408792E-10
       110  13  4.493916E+05  2.191264E+03  9.651223E+03  5.780454E+05  4.283448E-09 -1.139450E-10
       110  14  4.492623E+05  7.717448E+02  6.081157E+03  4.068567E+05  2.029812E-09 -1.357977E-09
       110  15  4.497863E+05  1.487805E+03  4.885828E+03  5.780467E+05  2.795163E-09 -1.037018E-09
       110  16 -1.177314E+06 -3.941983E+05 -3.447948E+05  5.762335E+05  3.407078E-09 -7.106452E-10
       110  17 -3.089902E+05 -1.838258E+05 -1.586818E+05  4.060606E+05  3.432899E-10 -3.836993E-10
       110  18  5.598850E+05  2.783078E+04  2.656177E+04  5.782929E+05 -1.125705E-09  6.660491E-10
       110  19  2.078582E+06  3.984128E+05  3.639536E+05  5.798625E+05  3.334736E+04  8.389217E+04
       110  20  1.208056E+06  1.853334E+05  1.708159E+05  4.076548E+05  4.099703E+04  3.972014E+04
       110  21  3.397017E+05 -2.485518E+04 -1.678609E+04  5.778003E+05  4.868158E+04 -9.241547E+03
       110  22  4.493935E+05  2.198829E+03  9.664529E+03  5.780450E+05 -6.847382E+03  8.385220E+04
       110  23  4.492627E+05  7.734379E+02  6.084140E+03  4.068566E+05 -3.785324E+03  3.965655E+04
       110  24  4.497863E+05  1.487898E+03  4.885992E+03  5.780467E+05 -6.778532E+02 -9.334112E+03
       110  25 -1.177310E+06 -3.941901E+05 -3.447774E+05  5.762303E+05 -4.693826E+04  8.381239E+04
       110  26 -3.089873E+05 -1.838235E+05 -1.586744E+05  4.060590E+05 -4.851374E+04  3.959303E+04
       110  27  5.598877E+05  2.783155E+04  2.656664E+04  5.782932E+05 -5.004585E+04 -9.426705E+03
       111   1 -3.500666E+05 -1.935476E+05 -1.702759E+05  5.772189E+05 -4.990686E+04  3.970160E+04
       111   2 -1.219086E+06 -4.060477E+05 -3.563971E+05  4.058000E+05 -4.698017E+04  8.851877E+04
       111   3 -2.086858E+06 -6.178050E+05 -5.442083E+05  5.768771E+05 -4.396081E+04  1.314422E+05
       111   4  4.498419E+05  1.452684E+03  4.823245E+03  5.780601E+05 -2.705419E+02  3.978693E+04
       111   5  4.486443E+05  2.505480E+01  5.383913E+03  4.068402E+05 -3.027852E+03  8.855073E+04
       111   6  4.489785E+05  3.746649E+02  8.227166E+03  5.780600E+05 -5.688589E+03  1.314307E+05
       111   7  1.250355E+06  1.964116E+05  1.798929E+05  5.789019E+05  4.942896E+04  3.987231E+04
       111   8  2.118990E+06  4.059148E+05  3.670066E+05  4.078819E+05  4.104114E+04  8.858276E+04
       111   9  2.990856E+06  6.181277E+05  5.602821E+05  5.792442E+05  3.273837E+04  1.314193E+05
       111  10 -3.500697E+05 -1.935499E+05 -1.702836E+05  5.772205E+05  1.626217E-09 -1.401260E-10
       111  11 -1.219090E+06 -4.060567E+05 -3.564160E+05  4.058033E+05  2.449447E-10 -9.415236E-10
       111  12 -2.086865E+06 -6.178241E+05 -5.442444E+05  5.768817E+05  2.887797E-11 -9.322051E-10
       111  13  4.498415E+05  1.450984E+03  4.820270E+03  5.780601E+05 -4.022624E-12 -3.926530E-10
       111  14  4.486422E+05  1.663022E+01  5.369156E+03  4.068405E+05  1.089429E-09 -4.535478E-10
       111  15  4.489739E+05  3.561021E+02  8.194634E+03  5.780607E+05  1.919847E-09 -1.722803E-10
       111  16  1.250352E+06  1.964092E+05  1.798853E+05  5.789003E+05 -2.916534E-09 -8.158349E-11
       111  17  2.118986E+06  4.059059E+05  3.669887E+05  4.078789E+05  3.370101E-09  2.003599E-09
       111  18  2.990851E+06  6.181089E+05  5.602477E+05  5.792408E+05  8.112213E-10  6.254815E-10
       111  19 -3.500666E+05 -1.935476E+05 -1.702759E+05  5.772189E+05  4.990686E+04 -3.970160E+04
       111  20 -1.219086E+06 -4.060477E+05 -3.563971E+05  4.058000E+05  4.698017E+04 -8.851877E+04
       111  21 -2.086858E+06 -6.178050E+05 -5.442083E+05  5.768771E+05  4.396081E+04 -1.314422E+05
       111  22  4.498419E+05  1.452684E+03  4.823245E+03  5.780601E+05  2.705419E+02 -3.978693E+04
       111  23  4.486443E+05  2.505480E+01  5.383913E+03  4.068402E+05  3.027852E+03 -8.855073E+04
       111  24  4.489785E+05  3.746649E+02  8.227166E+03  5.780600E+05  5.688589E+03 -1.314307E+05
       111  25  1.250355E+06  1.964116E+05  1.798929E+05  5.789019E+05 -4.942896E+04 -3.987231E+04
       111  26  2.118990E+06  4.059148E+05  3.670066E+05  4.078819E+05 -4.104114E+04 -8.858276E+04
       111  27  2.990856E+06  6.181277E+05  5.602821E+05  5.792442E+05 -3.273837E+04 -1.314193E+05
       112   1 -2.776770E+06 -7.899419E+05 -6.905265E+05  5.814448E+05 -8.374157E+04  1.718143E+05
       112   2 -3.643911E+06 -1.004769E+06 -8.929228E+05  4.075937E+05  3.767598E+04  1.840793E+05
       112   3 -4.517277E+06 -1.212180E+06 -1.171364E+06  5.710276E+05  1.585387E+05  6.079972E+04
       112   4  4.512303E+05 -3.250359E+03  1.023324E+04  5.768718E+05 -7.259399E+03  1.717641E+05
       112   5  4.423562E+05 -4.201061E+03  1.557621E+04  4.083218E+05 -1.532680E+04  1.840568E+05
       112   6  4.491218E+05  2.481150E+04  3.504364E+04  5.769268E+05 -2.377430E+04  6.120715E+04
       112   7  3.689042E+06  7.827539E+05  7.103938E+05  5.722700E+05  6.961658E+04  1.717129E+05
       112   8  4.544261E+06  9.952372E+05  9.230455E+05  4.090547E+05 -6.867582E+04  1.840345E+05
       112   9  5.438210E+06  1.260006E+06  1.239794E+06  5.828771E+05 -2.075488E+05  6.161000E+04
       112  10 -2.776785E+06 -7.899755E+05 -6.905952E+05  5.814564E+05 -2.177418E-09  1.274790E-09
       112  11 -3.643921E+06 -1.004806E+06 -8.929892E+05  4.075881E+05 -4.954496E-10  6.469216E-09
       112  12 -4.517305E+06 -1.212191E+06 -1.171418E+06  5.710198E+05  4.771005E-09  2.522216E-09
       112  13  4.512223E+05 -3.282063E+03  1.017769E+04  5.768729E+05 -2.607229E-09  1.846703E-09
       112  14  4.423468E+05 -4.237512E+03  1.551208E+04  4.083241E+05  3.247578E-10 -2.162839E-09
       112  15  4.491201E+05  2.480732E+04  3.503553E+04  5.769279E+05 -1.832655E-10  3.850661E-11
       112  16  3.689029E+06  7.827210E+05  7.103293E+05  5.722604E+05  1.894131E-09  5.573026E-10
       112  17  4.544246E+06  9.951995E+05  9.229730E+05  4.090649E+05 -1.359984E-09 -2.407215E-09
       112  18  5.438163E+06  1.259991E+06  1.239707E+06  5.828874E+05 -1.913344E-09  2.457237E-09
       112  19 -2.776770E+06 -7.899419E+05 -6.905265E+05  5.814448E+05  8.374157E+04 -1.718143E+05
       112  20 -3.643911E+06 -1.004769E+06 -8.929228E+05  4.075937E+05 -3.767598E+04 -1.840793E+05
       112  21 -4.517277E+06 -1.212180E+06 -1.171364E+06  5.710276E+05 -1.585387E+05 -6.079972E+04
       112  22  4.512303E+05 -3.250359E+03  1.023324E+04  5.768718E+05  7.259399E+03 -1.717641E+05
       112  23  4.423562E+05 -4.201061E+03  1.557621E+04  4.083218E+05  1.532680E+04 -1.840568E+05
       112  24  4.491218E+05  2.481150E+04  3.504364E+04  5.769268E+05  2.377430E+04 -6.120715E+04
       112  25  3.689042E+06  7.827539E+05  7.103938E+05  5.722700E+05 -6.961658E+04 -1.717129E+05
       112  26  4.544261E+06  9.952372E+05  9.230455E+05  4.090547E+05  6.867582E+04 -1.840345E+05
       112  27  5.438210E+06  1.260006E+06  1.239794E+06  5.828771E+05  2.075488E+05 -6.161000E+04
       113   1 -1.318593E+06 -5.193983E+06 -1.309735E+06  8.798846E+05 -5.801695E+04 -2.237794E+05
       113   2 -9.073849E+05 -3.879159E+06 -8.717520E+05  6.065842E+05 -1.627558E+05 -6.616972E+04
       113   3 -5.799734E+05 -2.604790E+06 -5.580013E+05  8.380969E+05 -1.265120E+05  9.126965E+04
       113   4 -6.839504E+04 -1.799474E+05 -8.790438E+04  8.596174E+05 -5.727572E+04 -5.615921E+04
       113   5  1.945251E+03 -1.693469E+05 -4.354665E+04  6.071011E+05 -1.625125E+05 -3.276420E+04
       113   6  1.231063E+04 -1.770890E+05 -2.946962E+04  8.592646E+05 -1.271331E+05 -9.877107E+03
       113   7  1.179964E+06  4.857214E+06  1.132207E+06  8.391461E+05 -5.654930E+04  1.128213E+05
       113   8  9.103393E+05  3.553350E+06  7.837987E+05  6.075990E+05 -1.622700E+05  8.401984E+02
       113   9  6.042093E+05  2.256176E+06  4.987472E+05  8.805041E+05 -1.277598E+05 -1.114155E+05
       113  10 -1.318610E+06 -5.194038E+06 -1.309836E+06  8.798742E+05  2.720555E-10 -3.625242E-09
       113  11 -9.074145E+05 -3.879171E+06 -8.718100E+05  6.065755E+05  2.340474E-09  8.037551E-09
       113  12 -5.799929E+05 -2.604804E+06 -5.580471E+05  8.381062E+05  2.380831E-10  2.574380E-08
       113  13 -6.839940E+04 -1.799517E+05 -8.791645E+04  8.596148E+05 -4.297826E-09 -9.042013E-09
       113  14  1.916611E+03 -1.693552E+05 -4.359827E+04  6.070969E+05 -2.446715E-09  4.612112E-09
       113  15  1.229325E+04 -1.770935E+05 -2.950017E+04  8.592636E+05 -1.043033E-09  1.160662E-08
       113  16  1.179957E+06  4.857200E+06  1.132177E+06  8.391512E+05 -3.845807E-10  6.275190E-09
       113  17  9.103110E+05  3.553343E+06  7.837493E+05  6.075991E+05 -1.844515E-09 -1.705196E-08
       113  18  6.041885E+05  2.256158E+06  4.986934E+05  8.804926E+05  2.563824E-10 -2.024292E-08
       113  19 -1.318593E+06 -5.193983E+06 -1.309735E+06  8.798846E+05  5.801695E+04  2.237794E+05
       113  20 -9.073849E+05 -3.879159E+06 -8.717520E+05  6.065842E+05  1.627558E+05  6.616972E+04
       113  21 -5.799734E+05 -2.604790E+06 -5.580013E+05  8.380969E+05  1.265120E+05 -9.126965E+04
       113  22 -6.839504E+04 -1.799474E+05 -8.790438E+04  8.596174E+05  5.727572E+04  5.615921E+04
       113  23  1.945251E+03 -1.693469E+05 -4.354665E+04  6.071011E+05  1.625125E+05  3.276420E+04
       113  24  1.231063E+04 -1.770890E+05 -2.946962E+04  8.592646E+05  1.271331E+05  9.877107E+03
       113  25  1.179964E+06  4.857214E+06  1.132207E+06  8.391461E+05  5.654930E+04 -1.128213E+05
       113  26  9.103393E+05  3.553350E+06  7.837987E+05  6.075990E+05  1.622700E+05 -8.401984E+02
       113  27  6.042093E+05  2.256176E+06  4.987472E+05  8.805041E+05  1.277598E+05  1.114155E+05
       114   1 -3.339342E+05 -1.570744E+06 -3.322326E+05  8.568448E+05 -7.088840E+04  5.725858E+04
       114   2 -1.686151E+04 -2.703147E+05 -4.812412E+04  6.046562E+05 -4.919566E+03  7.033902E+04
       114   3  2.953456E+05  1.022049E+06  2.244419E+05  8.632766E+05  6.129409E+04  8.343655E+04
       114   4  6.638948E+03 -1.742740E+05 -2.730370E+04  8.607066E+05 -7.131034E+04 -5.794107E+03
       114   5  7.698227E+03 -1.694315E+05 -2.627267E+04  6.053152E+05 -5.343863E+03  7.002255E+03
       114   6  4.042136E+03 -1.741965E+05 -3.652834E+04  8.607246E+05  6.086164E+04  1.978874E+04
       114   7  3.470843E+05  1.224035E+06  2.775225E+05  8.645729E+05 -7.173250E+04 -6.898709E+04
       114   8  3.225945E+04 -6.853014E+04 -4.406746E+03  6.059743E+05 -5.768254E+03 -5.634467E+04
       114   9 -2.873543E+05 -1.369094E+06 -2.975696E+05  8.581745E+05  6.042922E+04 -4.373816E+04
       114  10 -3.339405E+05 -1.570749E+06 -3.322482E+05  8.568481E+05  1.090111E-09 -1.281341E-08
       114  11 -1.686287E+04 -2.703200E+05 -4.813347E+04  6.046565E+05  4.484511E-10 -7.320143E-09
       114  12  2.953397E+05  1.022041E+06  2.244218E+05  8.632725E+05  1.080583E-09  1.205112E-08
       114  13  6.633479E+03 -1.742754E+05 -2.731332E+04  8.607062E+05  3.097507E-09 -1.794427E-08
       114  14  7.698183E+03 -1.694316E+05 -2.627282E+04  6.053153E+05  1.958151E-10  6.121925E-09
       114  15  4.038056E+03 -1.741980E+05 -3.653602E+04  8.607236E+05  4.650590E-09  1.269992E-08
       114  16  3.470775E+05  1.224029E+06  2.775039E+05  8.645689E+05  5.271616E-09  1.862889E-08
       114  17  3.225856E+04 -6.853356E+04 -4.412774E+03  6.059741E+05  2.462147E-09 -4.745246E-09
       114  18 -2.873587E+05 -1.369097E+06 -2.975800E+05  8.581766E+05  3.747378E-09 -5.815696E-09
       114  19 -3.339342E+05 -1.570744E+06 -3.322326E+05  8.568448E+05  7.088840E+04 -5.725858E+04
       114  20 -1.686151E+04 -2.703147E+05 -4.812412E+04  6.046562E+05  4.919566E+03 -7.033902E+04
       114  21  2.953456E+05  1.022049E+06  2.244419E+05  8.632766E+05 -6.129409E+04 -8.343655E+04
       114  22  6.638948E+03 -1.742740E+05 -2.730370E+04  8.607066E+05  7.131034E+04  5.794107E+03
       114  23  7.698227E+03 -1.694315E+05 -2.627267E+04  6.053152E+05  5.343863E+03 -7.002255E+03
       114  24  4.042136E+03 -1.741965E+05 -3.652834E+04  8.607246E+05 -6.086164E+04 -1.978874E+04
       114  25  3.470843E+05  1.224035E+06  2.775225E+05  8.645729E+05  7.173250E+04  6.898709E+04
       114  26  3.225945E+04 -6.853014E+04 -4.406746E+03  6.059743E+05  5.768254E+03  5.634467E+04
       114  27 -2.873543E+05 -1.369094E+06 -2.975696E+05  8.581745E+05 -6.042922E+04  4.373816E+04
       115   1  5.580713E+05  2.050644E+06  4.413451E+05  8.872894E+05  1.169483E+05  1.260954E+05
       115   2  8.608324E+05  3.355590E+06  7.121405E+05  5.981824E+05  1.529870E+05  3.327855E+04
       115   3  1.077722E+06  4.651769E+06  1.021230E+06  8.138655E+05  5.387702E+04 -5.920840E+04
       115   4  1.516397E+04 -1.801875E+05 -4.325113E+04  8.592843E+05  1.163106E+05  2.561022E+04
       115   5  1.692161E+03 -1.650140E+05 -7.078934E+04  6.070753E+05  1.532077E+05  6.292671E+04
       115   6 -1.204141E+05 -1.828968E+05 -1.503123E+05  8.599077E+05  5.460076E+04  1.007626E+05
       115   7 -5.280656E+05 -2.406339E+06 -5.281069E+05  8.313705E+05  1.156806E+05 -7.451958E+04
       115   8 -8.582850E+05 -3.674094E+06 -8.544894E+05  6.158973E+05  1.534300E+05  9.240848E+04
       115   9 -1.320238E+06 -4.996253E+06 -1.323441E+06  9.055558E+05  5.535165E+04  2.594961E+05
       115  10  5.580524E+05  2.050623E+06  4.412898E+05  8.872775E+05  3.591612E-09 -1.068522E-09
       115  11  8.608069E+05  3.355583E+06  7.120944E+05  5.981783E+05  1.383504E-09 -2.441990E-09
       115  12  1.077718E+06  4.651764E+06  1.021218E+06  8.138680E+05 -4.594529E-10  5.039663E-09
       115  13  1.514927E+04 -1.801919E+05 -4.327776E+04  8.592819E+05  5.623796E-09 -1.695371E-08
       115  14  1.665907E+03 -1.650245E+05 -7.084085E+04  6.070675E+05 -8.190648E-10  4.827094E-09
       115  15 -1.204200E+05 -1.829085E+05 -1.503369E+05  8.599032E+05 -6.220657E-10  6.898022E-09
       115  16 -5.280815E+05 -2.406348E+06 -5.281426E+05  8.313775E+05  1.506032E-09  6.751654E-09
       115  17 -8.583126E+05 -3.674109E+06 -8.545497E+05  6.158859E+05 -2.789242E-09 -6.803303E-09
       115  18 -1.320259E+06 -4.996326E+06 -1.323574E+06  9.055442E+05 -1.544367E-09 -1.509060E-09
       115  19  5.580713E+05  2.050644E+06  4.413451E+05  8.872894E+05 -1.169483E+05 -1.260954E+05
       115  20  8.608324E+05  3.355590E+06  7.121405E+05  5.981824E+05 -1.529870E+05 -3.327855E+04
       115  21  1.077722E+06  4.651769E+06  1.021230E+06  8.138655E+05 -5.387702E+04  5.920840E+04
       115  22  1.516397E+04 -1.801875E+05 -4.325113E+04  8.592843E+05 -1.163106E+05 -2.561022E+04
       115  23  1.692161E+03 -1.650140E+05 -7.078934E+04  6.070753E+05 -1.532077E+05 -6.292671E+04
       115  24 -1.204141E+05 -1.828968E+05 -1.503123E+05  8.599077E+05 -5.460076E+04 -1.007626E+05
       115  25 -5.280656E+05 -2.406339E+06 -5.281069E+05  8.313705E+05 -1.156806E+05  7.451958E+04
       115  26 -8.582850E+05 -3.674094E+06 -8.544894E+05  6.158973E+05 -1.534300E+05 -9.240848E+04
       115  27 -1.320238E+06 -4.996253E+06 -1.323441E+06  9.055558E+05 -5.535165E+04 -2.594961E+05
       116   1 -1.000807E+06 -3.731152E+06 -9.812079E+05  8.341462E+05 -4.521810E+04 -1.055609E+05
       116   2 -6.917252E+05 -2.427789E+06 -6.249089E+05  5.937379E+05 -1.215071E+05  1.944249E+03
       116   3 -3.704934E+05 -1.137382E+06 -3.365603E+05  8.596701E+05 -7.914080E+04  1.090867E+05
       116   4  3.394065E+04  4.205948E+05  3.097113E+04  8.638964E+05 -4.447384E+04  2.477964E+04
       116   5  5.852097E+03  4.190826E+05  1.177507E+04  6.108841E+05 -1.213606E+05  1.890888E+04
       116   6  9.738482E+03  4.227914E+05  3.679286E+03  8.640458E+05 -7.984005E+04  1.245026E+04
       116   7  1.067426E+06  4.588157E+06  1.041962E+06  8.938148E+05 -4.372003E+04  1.559931E+05
       116   8  7.028781E+05  3.273522E+06  6.479496E+05  6.280949E+05 -1.212135E+05  3.595057E+04
       116   9  3.898135E+05  1.985268E+06  3.438076E+05  8.684272E+05 -8.053962E+04 -8.442627E+04
       116  10 -1.000812E+06 -3.731165E+06 -9.812328E+05  8.341423E+05  1.720920E-09 -2.278076E-09
       116  11 -6.917410E+05 -2.427793E+06 -6.249366E+05  5.937381E+05  1.626580E-09  5.153426E-09
       116  12 -3.705033E+05 -1.137397E+06 -3.365945E+05  8.596771E+05 -2.313041E-09  3.114325E-09
       116  13  3.393836E+04  4.205936E+05  3.096625E+04  8.638973E+05  3.225396E-09  4.576406E-09
       116  14  5.836179E+03  4.190783E+05  1.174671E+04  6.108860E+05  1.868009E-09  1.145157E-08
       116  15  9.731592E+03  4.227895E+05  3.667007E+03  8.640466E+05 -2.831984E-09 -6.671829E-10
       116  16  1.067418E+06  4.588131E+06  1.041913E+06  8.938203E+05  1.716852E-09  2.341937E-09
       116  17  7.028619E+05  3.273517E+06  6.479196E+05  6.280984E+05  1.280987E-09  1.770614E-08
       116  18  3.898047E+05  1.985259E+06  3.437821E+05  8.684217E+05 -1.289932E-09  3.978433E-09
       116  19 -1.000807E+06 -3.731152E+06 -9.812079E+05  8.341462E+05  4.521810E+04  1.055609E+05
       116  20 -6.917252E+05 -2.427789E+06 -6.249089E+05  5.937379E+05  1.215071E+05 -1.944249E+03
       116  21 -3.704934E+05 -1.137382E+06 -3.365603E+05  8.596701E+05  7.914080E+04 -1.090867E+05
       116  22  3.394065E+04  4.205948E+05  3.097113E+04  8.638964E+05  4.447384E+04 -2.477964E+04
       116  23  5.852097E+03  4.190826E+05  1.177507E+04  6.108841E+05  1.213606E+05 -1.890888E+04
       116  24  9.738482E+03  4.227914E+05  3.679286E+03  8.640458E+05  7.984005E+04 -1.245026E+04
       116  25  1.067426E+06  4.588157E+06  1.041962E+06  8.938148E+05  4.372003E+04 -1.559931E+05
       116  26  7.028781E+05  3.273522E+06  6.479496E+05  6.280949E+05  1.212135E+05 -3.595057E+04
       116  27  3.898135E+05  1.985268E+06  3.438076E+05  8.684272E+05  8.053962E+04  8.442627E+04
       117   1 -1.154253E+05 -1.073936E+05 -1.159040E+05  8.631012E+05 -2.522274E+04  7.681086E+04
       117   2  1.951253E+05  1.193473E+06  1.575679E+05  6.129001E+05  4.164859E+04  7.926898E+04
       117   3  5.080460E+05  2.489108E+06  4.281311E+05  8.736789E+05  1.067670E+05  8.180790E+04
       117   4  1.331641E+04  4.205258E+05 -8.024652E+01  8.650658E+05 -2.571412E+04  1.175113E+04
       117   5  7.999922E+03  4.237890E+05 -9.009298E+03  6.095877E+05  4.120040E+04  1.582228E+04
       117   6  4.864966E+03  4.199345E+05 -2.193051E+04  8.651209E+05  1.063551E+05  1.996869E+04
       117   7  1.420417E+05  9.487150E+05  1.157425E+05  8.670315E+05 -2.620566E+04 -5.336325E+04
       117   8 -1.791624E+05 -3.453307E+05 -1.756065E+05  6.062781E+05  4.075256E+04 -4.754693E+04
       117   9 -4.985976E+05 -1.645229E+06 -4.722343E+05  8.565822E+05  1.059442E+05 -4.166781E+04
       117  10 -1.154275E+05 -1.074001E+05 -1.159163E+05  8.631028E+05 -2.477748E-09  1.102512E-09
       117  11  1.951218E+05  1.193465E+06  1.575529E+05  6.128975E+05 -1.246531E-10  7.005464E-09
       117  12  5.080320E+05  2.489098E+06  4.280972E+05  8.736719E+05  2.626519E-10 -7.505554E-11
       117  13  1.331566E+04  4.205255E+05 -8.175066E+01  8.650661E+05  4.433057E-10  6.819617E-09
       117  14  7.998033E+03  4.237883E+05 -9.012956E+03  6.095871E+05  6.229351E-09  1.329147E-08
       117  15  4.852715E+03  4.199310E+05 -2.195251E+04  8.651192E+05  1.386319E-09 -7.811554E-10
       117  16  1.420402E+05  9.487118E+05  1.157359E+05  8.670304E+05  2.046887E-09 -8.782035E-10
       117  17 -1.791648E+05 -3.453336E+05 -1.756139E+05  6.062797E+05  6.063187E-09  1.958233E-08
       117  18 -4.986101E+05 -1.645234E+06 -4.722587E+05  8.565857E+05  1.608041E-09  6.192366E-09
       117  19 -1.154253E+05 -1.073936E+05 -1.159040E+05  8.631012E+05  2.522274E+04 -7.681086E+04
       117  20  1.951253E+05  1.193473E+06  1.575679E+05  6.129001E+05 -4.164859E+04 -7.926898E+04
       117  21  5.080460E+05  2.489108E+06  4.281311E+05  8.736789E+05 -1.067670E+05 -8.180790E+04
       117  22  1.331641E+04  4.205258E+05 -8.024652E+01  8.650658E+05  2.571412E+04 -1.175113E+04
       117  23  7.999922E+03  4.237890E+05 -9.009298E+03  6.095877E+05 -4.120040E+04 -1.582228E+04
       117  24  4.864966E+03  4.199345E+05 -2.193051E+04  8.651209E+05 -1.063551E+05 -1.996869E+04
       117  25  1.420417E+05  9.487150E+05  1.157425E+05  8.670315E+05  2.620566E+04  5.336325E+04
       117  26 -1.791624E+05 -3.453307E+05 -1.756065E+05  6.062781E+05 -4.075256E+04  4.754693E+04
       117  27 -4.985976E+05 -1.645229E+06 -4.722343E+05  8.565822E+05 -1.059442E+05  4.166781E+04
       118   1  7.680135E+05  3.521534E+06  6.441733E+05  8.916833E+05  1.641328E+05  1.287148E+05
       118   2  1.072174E+06  4.823210E+06  9.221118E+05  6.100423E+05  1.937753E+05  4.990637E+03
       118   3  1.322217E+06  6.130543E+06  1.266771E+06  8.330546E+05  6.615131E+04 -1.184724E+05
       118   4  1.338240E+04  4.153782E+05 -2.859262E+04  8.636437E+05  1.634943E+05  2.334290E+04
       118   5  3.506462E+02  4.248491E+05 -5.295902E+04  6.114088E+05  1.941068E+05  5.140933E+04
       118   6 -9.323267E+04  4.120297E+05 -1.157024E+05  8.641006E+05  6.694167E+04  7.999357E+04
       118   7 -7.418775E+05 -2.681737E+06 -7.018905E+05  8.357253E+05  1.628634E+05 -8.151133E+04
       118   8 -1.072775E+06 -3.955548E+06 -1.029222E+06  6.127353E+05  1.944400E+05  9.750378E+04
       118   9 -1.511042E+06 -5.276715E+06 -1.500374E+06  8.948149E+05  6.775644E+04  2.766482E+05
       118  10  7.679802E+05  3.521509E+06  6.440918E+05  8.916664E+05  9.645634E-10  8.942317E-10
       118  11  1.072134E+06  4.823200E+06  9.220412E+05  6.100416E+05 -3.271045E-09  5.779700E-09
       118  12  1.322208E+06  6.130527E+06  1.266737E+06  8.330609E+05 -2.264446E-09 -1.491142E-10
       118  13  1.335356E+04  4.153705E+05 -2.864386E+04  8.636407E+05  2.450827E-09  5.597373E-09
       118  14  3.094835E+02  4.248361E+05 -5.303475E+04  6.114008E+05  1.085539E-09  8.631955E-09
       118  15 -9.323919E+04  4.120216E+05 -1.157228E+05  8.640963E+05  1.426632E-09 -3.578240E-10
       118  16 -7.419079E+05 -2.681751E+06 -7.019530E+05  8.357360E+05 -1.227709E-09 -8.846444E-10
       118  17 -1.072818E+06 -3.955568E+06 -1.029311E+06  6.127200E+05  6.175378E-09  1.117347E-08
       118  18 -1.511068E+06 -5.276799E+06 -1.500528E+06  8.947998E+05  4.721741E-10  2.869877E-09
       118  19  7.680135E+05  3.521534E+06  6.441733E+05  8.916833E+05 -1.641328E+05 -1.287148E+05
       118  20  1.072174E+06  4.823210E+06  9.221118E+05  6.100423E+05 -1.937753E+05 -4.990637E+03
       118  21  1.322217E+06  6.130543E+06  1.266771E+06  8.330546E+05 -6.615131E+04  1.184724E+05
       118  22  1.338240E+04  4.153782E+05 -2.859262E+04  8.636437E+05 -1.634943E+05 -2.334290E+04
       118  23  3.506462E+02  4.248491E+05 -5.295902E+04  6.114088E+05 -1.941068E+05 -5.140933E+04
       118  24 -9.323267E+04  4.120297E+05 -1.157024E+05  8.641006E+05 -6.694167E+04 -7.999357E+04
       118  25 -7.418775E+05 -2.681737E+06 -7.018905E+05  8.357253E+05 -1.628634E+05  8.151133E+04
       118  26 -1.072775E+06 -3.955548E+06 -1.029222E+06  6.127353E+05 -1.944400E+05 -9.750378E+04
       118  27 -1.511042E+06 -5.276715E+06 -1.500374E+06  8.948149E+05 -6.775644E+04 -2.766482E+05
       119   1  5.376349E+06  1.318372E+06  1.293089E+06  6.264590E+05  2.009395E+05 -6.537584E+04
       119   2  4.399546E+06  1.052874E+06  9.645481E+05  4.438183E+05  5.957399E+04 -1.945491E+05
       119   3  3.458590E+06  8.214326E+05  7.373491E+05  6.309054E+05 -8.110490E+04 -1.798517E+05
       119   4  6.214940E+04  2.251410E+03  9.319441E+03  6.332365E+05  6.283677E+03 -6.487060E+04
       119   5  5.783696E+04 -5.349327E+03  3.554083E+03  4.482879E+05  4.126699E+03 -1.945604E+05
       119   6  6.459130E+04 -2.790486E+03  3.043425E+03  6.332161E+05  2.436570E+03 -1.799280E+05
       119   7 -5.226301E+06 -1.315910E+06 -1.276334E+06  6.399616E+05 -1.867224E+05 -6.436811E+04
       119   8 -4.266346E+06 -1.064840E+06 -9.585954E+05  4.527269E+05 -5.093939E+04 -1.945729E+05
       119   9 -3.318620E+06 -8.277693E+05 -7.319197E+05  6.355090E+05  8.552933E+04 -1.800038E+05
       119  10  5.376305E+06  1.318357E+06  1.293006E+06  6.264696E+05  2.725410E-09 -1.154501E-10
       119  11  4.399532E+06  1.052833E+06  9.644703E+05  4.438276E+05 -9.379463E-10 -4.344423E-10
       119  12  3.458574E+06  8.213962E+05  7.372761E+05  6.308937E+05  1.255241E-09 -4.997630E-10
       119  13  6.214822E+04  2.246880E+03  9.311456E+03  6.332368E+05 -4.124738E-13 -1.869428E-10
       119  14  5.782678E+04 -5.389982E+03  3.482911E+03  4.482885E+05  6.790073E-10 -5.582607E-10
       119  15  6.458260E+04 -2.825254E+03  2.982572E+03  6.332164E+05  1.658681E-09 -5.067201E-10
       119  16 -5.226339E+06 -1.315924E+06 -1.276408E+06  6.399519E+05  1.021345E-09 -2.342658E-10
       119  17 -4.266359E+06 -1.064882E+06 -9.586714E+05  4.527189E+05 -1.676096E-09 -7.189837E-10
       119  18 -3.318637E+06 -8.278061E+05 -7.319944E+05  6.355214E+05  7.974196E-10 -6.593962E-10
       119  19  5.376349E+06  1.318372E+06  1.293089E+06  6.264590E+05 -2.009395E+05  6.537584E+04
       119  20  4.399546E+06  1.052874E+06  9.645481E+05  4.438183E+05 -5.957399E+04  1.945491E+05
       119  21  3.458590E+06  8.214326E+05  7.373491E+05  6.309054E+05  8.110490E+04  1.798517E+05
       119  22  6.214940E+04  2.251410E+03  9.319441E+03  6.332365E+05 -6.283677E+03  6.487060E+04
       119  23  5.783696E+04 -5.349327E+03  3.554083E+03  4.482879E+05 -4.126699E+03  1.945604E+05
       119  24  6.459130E+04 -2.790486E+03  3.043425E+03  6.332161E+05 -2.436570E+03  1.799280E+05
       119  25 -5.226301E+06 -1.315910E+06 -1.276334E+06  6.399616E+05  1.867224E+05  6.436811E+04
       119  26 -4.266346E+06 -1.064840E+06 -9.585954E+05  4.527269E+05  5.093939E+04  1.945729E+05
       119  27 -3.318620E+06 -8.277693E+05 -7.319197E+05  6.355090E+05 -8.552933E+04  1.800038E+05
       120   1  2.693409E+06  6.382752E+05  5.737392E+05  6.349003E+05 -4.062406E+04 -1.359435E+05
       120   2  1.736069E+06  4.065566E+05  3.638621E+05  4.471011E+05 -4.733334E+04 -8.864148E+04
       120   3  7.818505E+05  1.761863E+05  1.588224E+05  6.354623E+05 -5.413661E+04 -3.506553E+04
       120   4  6.341588E+04 -1.143376E+03  2.278812E+03  6.346320E+05  1.900770E+03 -1.359639E+05
       120   5  6.328104E+04 -1.136288E+02  1.487740E+03  4.465196E+05  1.204360E+03 -8.861565E+04
       120   6  6.436596E+04  1.277124E+03  1.399656E+03  6.346313E+05  4.037256E+02 -3.498238E+04
       120   7 -2.560106E+06 -6.410189E+05 -5.695885E+05  6.343611E+05  4.424838E+04 -1.359844E+05
       120   8 -1.606881E+06 -4.069674E+05 -3.610441E+05  4.459382E+05  4.961330E+04 -8.858985E+04
       120   9 -6.526310E+05 -1.736649E+05 -1.560432E+05  6.338009E+05  5.488186E+04 -3.489930E+04
       120  10  2.693402E+06  6.382549E+05  5.737014E+05  6.348958E+05  1.158958E-09 -6.647280E-11
       120  11  1.736064E+06  4.065475E+05  3.638431E+05  4.470977E+05  2.581137E-10  3.419782E-10
       120  12  7.818470E+05  1.761842E+05  1.588146E+05  6.354608E+05  7.002531E-10  1.296471E-10
       120  13  6.341091E+04 -1.163229E+03  2.244063E+03  6.346323E+05  3.231923E-09 -2.446376E-10
       120  14  6.327893E+04 -1.220620E+02  1.472979E+03  4.465197E+05  1.085062E-09 -7.230282E-11
       120  15  6.436564E+04  1.275810E+03  1.397356E+03  6.346313E+05  2.133715E-09  1.751944E-10
       120  16 -2.560113E+06 -6.410393E+05 -5.696270E+05  6.343659E+05  5.394237E-10 -5.977224E-10
       120  17 -1.606886E+06 -4.069765E+05 -3.610635E+05  4.459417E+05 -1.064765E-09 -4.390498E-10
       120  18 -6.526345E+05 -1.736670E+05 -1.560512E+05  6.338025E+05  5.040359E-10  9.975830E-11
       120  19  2.693409E+06  6.382752E+05  5.737392E+05  6.349003E+05  4.062406E+04  1.359435E+05
       120  20  1.736069E+06  4.065566E+05  3.638621E+05  4.471011E+05  4.733334E+04  8.864148E+04
       120  21  7.818505E+05  1.761863E+05  1.588224E+05  6.354623E+05  5.413661E+04  3.506553E+04
       120  22  6.341588E+04 -1.143376E+03  2.278812E+03  6.346320E+05 -1.900770E+03  1.359639E+05
       120  23  6.328104E+04 -1.136288E+02  1.487740E+03  4.465196E+05 -1.204360E+03  8.861565E+04
       120  24  6.436596E+04  1.277124E+03  1.399656E+03  6.346313E+05 -4.037256E+02  3.498238E+04
       120  25 -2.560106E+06 -6.410189E+05 -5.695885E+05  6.343611E+05 -4.424838E+04  1.359844E+05
       120  26 -1.606881E+06 -4.069674E+05 -3.610441E+05  4.459382E+05 -4.961330E+04  8.858985E+04
       120  27 -6.526310E+05 -1.736649E+05 -1.560432E+05  6.338009E+05 -5.488186E+04  3.489930E+04
       121   1  2.313074E+04 -9.135918E+03 -9.914429E+03  6.344040E+05 -5.421951E+04 -1.598465E+03
       121   2 -9.311377E+05 -2.418331E+05 -2.148776E+05  4.459397E+05 -4.963364E+04  5.224804E+04
       121   3 -1.885083E+06 -4.751913E+05 -4.230910E+05  6.337644E+05 -4.499186E+04  1.006175E+05
       121   4  6.429018E+04  1.342896E+03  1.313708E+03  6.346374E+05  6.624495E+01 -1.509364E+03
       121   5  6.382393E+04  5.012241E+02  1.299035E+03  4.465118E+05 -6.374870E+02  5.229940E+04
       121   6  6.372433E+04 -3.218613E+01  1.732395E+03  6.346379E+05 -1.278380E+03  1.006383E+05
       121   7  1.054575E+05  1.182315E+04  1.255278E+04  6.348708E+05  5.435564E+04 -1.420227E+03
       121   8  1.059720E+06  2.427712E+05  2.174255E+05  4.470843E+05  4.843625E+04  5.235078E+04
       121   9  2.016101E+06  4.748753E+05  4.263347E+05  6.355117E+05  4.257087E+04  1.006592E+05
       121  10  2.312758E+04 -9.136710E+03 -9.919958E+03  6.344039E+05  1.429618E-09  2.047772E-10
       121  11 -9.311411E+05 -2.418367E+05 -2.148874E+05  4.459418E+05 -2.979236E-10  8.633585E-10
       121  12 -1.885087E+06 -4.752027E+05 -4.231138E+05  6.337680E+05  4.593411E-10  1.480888E-10
       121  13  6.429018E+04  1.342894E+03  1.313704E+03  6.346374E+05  1.084467E-09  7.568516E-11
       121  14  6.382319E+04  4.982868E+02  1.293894E+03  4.465118E+05  1.558322E-09  3.041411E-10
       121  15  6.372161E+04 -4.306288E+01  1.713358E+03  6.346380E+05  4.576976E-09  2.025828E-10
       121  16  1.054543E+05  1.182236E+04  1.254722E+04  6.348709E+05 -4.052434E-10 -3.806483E-11
       121  17  1.059717E+06  2.427676E+05  2.174160E+05  4.470823E+05 -5.683583E-10 -2.602562E-10
       121  18  2.016097E+06  4.748639E+05  4.263122E+05  6.355082E+05  7.100642E-10  2.857347E-10
       121  19  2.313074E+04 -9.135918E+03 -9.914429E+03  6.344040E+05  5.421951E+04  1.598465E+03
       121  20 -9.311377E+05 -2.418331E+05 -2.148776E+05  4.459397E+05  4.963364E+04 -5.224804E+04
       121  21 -1.885083E+06 -4.751913E+05 -4.230910E+05  6.337644E+05  4.499186E+04 -1.006175E+05
       121  22  6.429018E+04  1.342896E+03  1.313708E+03  6.346374E+05 -6.624495E+01  1.509364E+03
       121  23  6.382393E+04  5.012241E+02  1.299035E+03  4.465118E+05  6.374870E+02 -5.229940E+04
       121  24  6.372433E+04 -3.218613E+01  1.732395E+03  6.346379E+05  1.278380E+03 -1.006383E+05
       121  25  1.054575E+05  1.182315E+04  1.255278E+04  6.348708E+05 -5.435564E+04  1.420227E+03
       121  26  1.059720E+06  2.427712E+05  2.174255E+05  4.470843E+05 -4.843625E+04 -5.235078E+04
       121  27  2.016101E+06  4.748753E+05  4.263347E+05  6.355117E+05 -4.257087E+04 -1.006592E+05
       122   1 -2.643922E+06 -6.615182E+05 -5.863792E+05  6.337665E+05 -8.131996E+04  1.432388E+05
       122   2 -3.591593E+06 -8.979829E+05 -8.105535E+05  4.498281E+05  3.928271E+04  1.628124E+05
       122   3 -4.551888E+06 -1.148496E+06 -1.115920E+06  6.365947E+05  1.594237E+05  5.493392E+04
       122   4  6.459342E+04 -1.238468E+03  2.246210E+03  6.333759E+05 -1.722662E+03  1.432386E+05
       122   5  5.965722E+04 -3.562654E+03  2.439388E+03  4.480891E+05 -2.873125E+03  1.627738E+05
       122   6  6.252999E+04  1.355753E+03  6.284492E+03  6.333846E+05 -4.297031E+03  5.519261E+04
       122   7  2.780021E+06  6.585579E+05  5.904571E+05  6.329792E+05  7.821847E+04  1.432383E+05
       122   8  3.723391E+06  8.899535E+05  8.146059E+05  4.463378E+05 -4.527520E+04  1.627357E+05
       122   9  4.696533E+06  1.149653E+06  1.127048E+06  6.301495E+05 -1.692379E+05  5.545253E+04
       122  10 -2.643935E+06 -6.615421E+05 -5.864303E+05  6.337759E+05  1.826762E-09 -1.661416E-10
       122  11 -3.591601E+06 -8.980118E+05 -8.106062E+05  4.498230E+05 -9.837070E-10  4.607718E-11
       122  12 -4.551917E+06 -1.148506E+06 -1.115973E+06  6.365876E+05  2.057166E-11 -3.638658E-11
       122  13  6.458791E+04 -1.260501E+03  2.207646E+03  6.333761E+05  3.226389E-09  1.843944E-10
       122  14  5.965010E+04 -3.591109E+03  2.389580E+03  4.480895E+05  4.229931E-09  4.914633E-10
       122  15  6.252915E+04  1.352477E+03  6.278731E+03  6.333848E+05  9.001293E-10  4.706998E-10
       122  16  2.780009E+06  6.585342E+05  5.904071E+05  6.329702E+05  9.307261E-10  5.813320E-10
       122  17  3.723381E+06  8.899245E+05  8.145522E+05  4.463438E+05  2.995098E-10  2.443763E-10
       122  18  4.696501E+06  1.149642E+06  1.126989E+06  6.301570E+05 -3.525718E-10  7.018884E-11
       122  19 -2.643922E+06 -6.615182E+05 -5.863792E+05  6.337665E+05  8.131996E+04 -1.432388E+05
       122  20 -3.591593E+06 -8.979829E+05 -8.105535E+05  4.498281E+05 -3.928271E+04 -1.628124E+05
       122  21 -4.551888E+06 -1.148496E+06 -1.115920E+06  6.365947E+05 -1.594237E+05 -5.493392E+04
       122  22  6.459342E+04 -1.238468E+03  2.246210E+03  6.333759E+05  1.722662E+03 -1.432386E+05
       122  23  5.965722E+04 -3.562654E+03  2.439388E+03  4.480891E+05  2.873125E+03 -1.627738E+05
       122  24  6.252999E+04  1.355753E+03  6.284492E+03  6.333846E+05  4.297031E+03 -5.519261E+04
       122  25  2.780021E+06  6.585579E+05  5.904571E+05  6.329792E+05 -7.821847E+04 -1.432383E+05
       122  26  3.723391E+06  8.899535E+05  8.146059E+05  4.463378E+05  4.527520E+04 -1.627357E+05
       122  27  4.696533E+06  1.149653E+06  1.127048E+06  6.301495E+05  1.692379E+05 -5.545253E+04
       123   1 -5.178942E+05 -2.180763E+06 -5.215848E+05  3.824712E+05 -2.111861E+04 -1.051797E+05
       123   2 -3.222955E+05 -1.619405E+06 -3.248058E+05  2.600033E+05 -5.720135E+04 -3.856778E+04
       123   3 -1.832852E+05 -1.082636E+06 -1.859925E+05  3.516907E+05 -4.007728E+04  2.784870E+04
       123   4 -5.105829E+04 -3.047866E+05 -6.481701E+04  3.630326E+05 -2.080430E+04 -4.489906E+04
       123   5  1.567298E+03 -2.965881E+05 -2.936060E+04  2.558146E+05 -5.714123E+04 -2.917543E+04
       123   6  6.549065E+03 -3.043470E+05 -1.638775E+04  3.627384E+05 -4.031885E+04 -1.370810E+04
       123   7  4.155220E+05  1.574418E+06  3.917094E+05  3.435299E+05 -2.049430E+04  1.556389E+04
       123   8  3.253113E+05  1.027864E+06  2.659750E+05  2.516144E+05 -5.708130E+04 -1.976318E+04
       123   9  1.963443E+05  4.745139E+05  1.531872E+05  3.737993E+05 -4.056173E+04 -5.531639E+04
       123  10 -5.178976E+05 -2.180775E+06 -5.216065E+05  3.824694E+05  2.175724E-10 -1.741526E-08
       123  11 -3.222994E+05 -1.619408E+06 -3.248148E+05  2.600015E+05  4.330950E-09  2.614466E-09
       123  12 -1.832871E+05 -1.082637E+06 -1.859970E+05  3.516916E+05  4.313625E-09  2.405753E-08
       123  13 -5.105929E+04 -3.047889E+05 -6.482161E+04  3.630318E+05 -2.169364E-09 -1.857217E-11
       123  14  1.563565E+03 -2.965899E+05 -2.936833E+04  2.558133E+05  1.762822E-09 -8.099207E-12
       123  15  6.547269E+03 -3.043477E+05 -1.639116E+04  3.627380E+05  3.072200E-09 -3.852333E-11
       123  16  4.155215E+05  1.574417E+06  3.917082E+05  3.435302E+05 -6.821662E-10  1.736873E-08
       123  17  3.253077E+05  1.027862E+06  2.659681E+05  2.516135E+05 -4.481728E-09 -2.942088E-09
       123  18  1.963417E+05  4.745101E+05  1.531783E+05  3.737975E+05  8.649132E-10 -2.398144E-08
       123  19 -5.178942E+05 -2.180763E+06 -5.215848E+05  3.824712E+05  2.111861E+04  1.051797E+05
       123  20 -3.222955E+05 -1.619405E+06 -3.248058E+05  2.600033E+05  5.720135E+04  3.856778E+04
       123  21 -1.832852E+05 -1.082636E+06 -1.859925E+05  3.516907E+05  4.007728E+04 -2.784870E+04
       123  22 -5.105829E+04 -3.047866E+05 -6.481701E+04  3.630326E+05  2.080430E+04  4.489906E+04
       123  23  1.567298E+03 -2.965881E+05 -2.936060E+04  2.558146E+05  5.714123E+04  2.917543E+04
       123  24  6.549065E+03 -3.043470E+05 -1.638775E+04  3.627384E+05  4.031885E+04  1.370810E+04
       123  25  4.155220E+05  1.574418E+06  3.917094E+05  3.435299E+05  2.049430E+04 -1.556389E+04
       123  26  3.253113E+05  1.027864E+06  2.659750E+05  2.516144E+05  5.708130E+04  1.976318E+04
       123  27  1.963443E+05  4.745139E+05  1.531872E+05  3.737993E+05  4.056173E+04  5.531639E+04
       124   1 -8.189029E+04 -6.425107E+05 -8.717474E+04  3.626908E+05 -1.699223E+04  1.565996E+04
       124   2  5.352717E+04 -9.197491E+04  3.964704E+04  2.562601E+05  1.121172E+04  1.775142E+04
       124   3  1.892165E+05  4.557945E+05  1.644633E+05  3.661735E+05  3.893251E+04  1.985480E+04
       124   4  1.298334E+03 -3.013891E+05 -1.252704E+04  3.633102E+05 -1.715567E+04 -1.162257E+04
       124   5  2.923935E+03 -2.998593E+05 -5.395105E+03  2.551261E+05  1.105473E+04 -9.075269E+03
       124   6  4.761679E+03 -3.014558E+05 -5.706845E+02  3.632894E+05  3.878087E+04 -6.517939E+03
       124   7  8.447959E+04  3.984317E+04  6.211641E+04  3.639299E+05 -1.731912E+04 -3.891991E+04
       124   8 -4.768177E+04 -5.077015E+05 -5.043712E+04  2.539924E+05  1.089781E+04 -3.589309E+04
       124   9 -1.797308E+05 -1.058167E+06 -1.656365E+05  3.604080E+05  3.862937E+04 -3.285894E+04
       124  10 -8.189067E+04 -6.425111E+05 -8.717574E+04  3.626910E+05  3.609300E-09 -7.307839E-10
       124  11  5.352695E+04 -9.197529E+04  3.964622E+04  2.562599E+05 -1.359785E-09  8.223561E-10
       124  12  1.892147E+05  4.557937E+05  1.644597E+05  3.661729E+05 -7.336927E-10  3.891692E-09
       124  13  1.297982E+03 -3.013893E+05 -1.252784E+04  3.633101E+05  1.266900E-09 -1.865620E-11
       124  14  2.923781E+03 -2.998594E+05 -5.395489E+03  2.551262E+05 -2.861979E-09 -1.607283E-11
       124  15  4.760053E+03 -3.014562E+05 -5.735909E+02  3.632896E+05 -8.281855E-10 -5.982807E-11
       124  16  8.447887E+04  3.984147E+04  6.211300E+04  3.639293E+05  9.838489E-10  7.799009E-10
       124  17 -4.768224E+04 -5.077029E+05 -5.043976E+04  2.539927E+05 -1.362773E-09 -5.073736E-10
       124  18 -1.797327E+05 -1.058169E+06 -1.656414E+05  3.604090E+05 -6.295461E-10 -3.875346E-09
       124  19 -8.189029E+04 -6.425107E+05 -8.717474E+04  3.626908E+05  1.699223E+04 -1.565996E+04
       124  20  5.352717E+04 -9.197491E+04  3.964704E+04  2.562601E+05 -1.121172E+04 -1.775142E+04
       124  21  1.892165E+05  4.557945E+05  1.644633E+05  3.661735E+05 -3.893251E+04 -1.985480E+04
       124  22  1.298334E+03 -3.013891E+05 -1.252704E+04  3.633102E+05  1.715567E+04  1.162257E+04
       124  23  2.923935E+03 -2.998593E+05 -5.395105E+03  2.551261E+05 -1.105473E+04  9.075269E+03
       124  24  4.761679E+03 -3.014558E+05 -5.706845E+02  3.632894E+05 -3.878087E+04  6.517939E+03
       124  25  8.447959E+04  3.984317E+04  6.211641E+04  3.639299E+05  1.731912E+04  3.891991E+04
       124  26 -4.768177E+04 -5.077015E+05 -5.043712E+04  2.539924E+05 -1.089781E+04  3.589309E+04
       124  27 -1.797308E+05 -1.058167E+06 -1.656365E+05  3.604080E+05 -3.862937E+04  3.285894E+04
       125   1  2.938601E+05  8.950066E+05  2.609581E+05  3.656084E+05  6.296732E+04  3.712334E+04
       125   2  4.272890E+05  1.437954E+06  3.928466E+05  2.646933E+05  7.635714E+04 -2.735174E+04
       125   3  5.865942E+05  1.994574E+06  5.727572E+05  3.771362E+05  2.609133E+04 -9.160600E+04
       125   4  2.981787E+03 -3.003261E+05  1.459405E+03  3.626562E+05  6.272662E+04 -6.686319E+03
       125   5  2.102269E+03 -3.020115E+05  5.962353E+03  2.559280E+05  7.646093E+04 -9.923602E+03
       125   6  1.653125E+04 -3.008874E+05  1.603561E+04  3.625886E+05  2.646067E+04 -1.288234E+04
       125   7 -2.879901E+05 -1.494316E+06 -2.581174E+05  3.597075E+05  6.248607E+04 -5.041281E+04
       125   8 -4.232891E+05 -2.039156E+06 -3.811097E+05  2.471834E+05  7.656441E+04  7.456346E+03
       125   9 -5.539145E+05 -2.591532E+06 -5.410430E+05  3.480881E+05  2.682708E+04  6.555187E+04
       125  10  2.938554E+05  8.950041E+05  2.609481E+05  3.656065E+05  1.315966E-09 -7.897377E-10
       125  11  4.272825E+05  1.437952E+06  3.928342E+05  2.646950E+05 -2.996497E-09 -8.232346E-10
       125  12  5.865912E+05  1.994565E+06  5.727402E+05  3.771381E+05 -8.702425E-10  8.389104E-10
       125  13  2.977550E+03 -3.003272E+05  1.451926E+03  3.626565E+05 -1.990031E-09 -3.534809E-11
       125  14  2.095965E+03 -3.020132E+05  5.951181E+03  2.559286E+05 -2.978627E-09 -3.043338E-11
       125  15  1.653046E+04 -3.008877E+05  1.603398E+04  3.625889E+05 -1.483939E-09 -3.402805E-11
       125  16 -2.879950E+05 -1.494319E+06 -2.581295E+05  3.597101E+05  2.096384E-09  6.211970E-10
       125  17 -4.232954E+05 -2.039158E+06 -3.811208E+05  2.471829E+05 -2.394679E-09  9.278260E-10
       125  18 -5.539164E+05 -2.591537E+06 -5.410524E+05  3.480867E+05 -1.732402E-09 -5.357713E-10
       125  19  2.938601E+05  8.950066E+05  2.609581E+05  3.656084E+05 -6.296732E+04 -3.712334E+04
       125  20  4.272890E+05  1.437954E+06  3.928466E+05  2.646933E+05 -7.635714E+04  2.735174E+04
       125  21  5.865942E+05  1.994574E+06  5.727572E+05  3.771362E+05 -2.609133E+04  9.160600E+04
       125  22  2.981787E+03 -3.003261E+05  1.459405E+03  3.626562E+05 -6.272662E+04  6.686319E+03
       125  23  2.102269E+03 -3.020115E+05  5.962353E+03  2.559280E+05 -7.646093E+04  9.923602E+03
       125  24  1.653125E+04 -3.008874E+05  1.603561E+04  3.625886E+05 -2.646067E+04  1.288234E+04
       125  25 -2.879901E+05 -1.494316E+06 -2.581174E+05  3.597075E+05 -6.248607E+04  5.041281E+04
       125  26 -4.232891E+05 -2.039156E+06 -3.811097E+05  2.471834E+05 -7.656441E+04 -7.456346E+03
       125  27 -5.539145E+05 -2.591532E+06 -5.410430E+05  3.480881E+05 -2.682708E+04 -6.555187E+04
       126   1  5.049974E+06  1.222546E+06  1.205049E+06  6.171256E+05  2.053694E+05 -5.829256E+04
       126   2  4.115449E+06  9.397754E+05  8.773831E+05  4.316291E+05  6.821714E+04 -1.727321E+05
       126   3  3.220528E+06  7.170525E+05  6.545217E+05  5.992991E+05 -6.844252E+04 -1.568316E+05
       126   4  2.541864E+05  3.472932E+04  4.608110E+04  6.041874E+05  3.157592E+04 -5.801944E+04
       126   5  2.466288E+05 -3.315980E+03  2.062998E+04  4.275231E+05  2.053050E+04 -1.727772E+05
       126   6  2.562679E+05 -2.871995E+03  1.298009E+04  6.041379E+05  9.770582E+03 -1.568350E+05
       126   7 -4.520630E+06 -1.154749E+06 -1.114424E+06  5.913485E+05 -1.408884E+05 -5.773858E+04
       126   8 -3.608276E+06 -9.474139E+05 -8.370419E+05  4.234408E+05 -2.686413E+04 -1.728220E+05
       126   9 -2.699762E+06 -7.233725E+05 -6.290602E+05  6.089484E+05  8.761662E+04 -1.568371E+05
       126  10  5.049928E+06  1.222531E+06  1.204964E+06  6.171352E+05 -5.215920E-10 -3.704171E-10
       126  11  4.115436E+06  9.397421E+05  8.773183E+05  4.316386E+05 -2.170622E-09 -8.941029E-10
       126  12  3.220516E+06  7.170248E+05  6.544668E+05  5.992905E+05  6.483608E-10 -1.476877E-10
       126  13  2.541844E+05  3.472544E+04  4.607289E+04  6.041889E+05  1.066923E-09  3.680215E-10
       126  14  2.466204E+05 -3.348156E+03  2.057307E+04  4.275259E+05  1.499412E-09 -5.868370E-10
       126  15  2.562612E+05 -2.898439E+03  1.293367E+04  6.041392E+05  1.443063E-09 -8.703757E-10
       126  16 -4.520652E+06 -1.154758E+06 -1.114468E+06  5.913420E+05  1.931075E-09 -2.089515E-10
       126  17 -3.608284E+06 -9.474462E+05 -8.370994E+05  4.234370E+05  2.632500E-09 -3.885512E-10
       126  18 -2.699777E+06 -7.234010E+05 -6.291210E+05  6.089595E+05  1.463861E-09 -1.385596E-09
       126  19  5.049974E+06  1.222546E+06  1.205049E+06  6.171256E+05 -2.053694E+05  5.829256E+04
       126  20  4.115449E+06  9.397754E+05  8.773831E+05  4.316291E+05 -6.821714E+04  1.727321E+05
       126  21  3.220528E+06  7.170525E+05  6.545217E+05  5.992991E+05  6.844252E+04  1.568316E+05
       126  22  2.541864E+05  3.472932E+04  4.608110E+04  6.041874E+05 -3.157592E+04  5.801944E+04
       126  23  2.466288E+05 -3.315980E+03  2.062998E+04  4.275231E+05 -2.053050E+04  1.727772E+05
       126  24  2.562679E+05 -2.871995E+03  1.298009E+04  6.041379E+05 -9.770582E+03  1.568350E+05
       126  25 -4.520630E+06 -1.154749E+06 -1.114424E+06  5.913485E+05  1.408884E+05  5.773858E+04
       126  26 -3.608276E+06 -9.474139E+05 -8.370419E+05  4.234408E+05  2.686413E+04  1.728220E+05
       126  27 -2.699762E+06 -7.233725E+05 -6.290602E+05  6.089484E+05 -8.761662E+04  1.568371E+05
       127   1  2.489637E+06  5.453021E+05  4.962589E+05  6.072599E+05 -3.326292E+04 -1.154753E+05
       127   2  1.577000E+06  3.223314E+05  2.930202E+05  4.271636E+05 -4.176010E+04 -6.997755E+04
       127   3  6.672429E+05  1.025470E+05  9.604481E+04  6.057294E+05 -5.032657E+04 -1.882748E+04
       127   4  2.535347E+05  1.616619E+03  1.029402E+04  6.053567E+05  7.807824E+03 -1.154585E+05
       127   5  2.533181E+05  5.076112E+02  6.154622E+03  4.260028E+05  4.732848E+03 -6.992213E+04
       127   6  2.542518E+05  1.695097E+03  4.552751E+03  6.053580E+05  1.576279E+03 -1.872493E+04
       127   7 -1.977889E+06 -5.423991E+05 -4.759637E+05  6.034571E+05  4.873298E+04 -1.154419E+05
       127   8 -1.068718E+06 -3.214308E+05 -2.808071E+05  4.248435E+05  5.112817E+04 -6.986680E+04
       127   9 -1.585745E+05 -9.916691E+04 -8.693976E+04  6.049867E+05  5.344502E+04 -1.862240E+04
       127  10  2.489633E+06  5.452875E+05  4.962318E+05  6.072568E+05  1.905582E-09 -5.186999E-10
       127  11  1.576997E+06  3.223257E+05  2.930077E+05  4.271612E+05  2.212658E-09 -1.432323E-09
       127  12  6.672401E+05  1.025460E+05  9.603939E+04  6.057287E+05 -3.018169E-09  5.640661E-10
       127  13  2.535311E+05  1.602285E+03  1.026885E+04  6.053575E+05  2.180815E-09 -8.936637E-10
       127  14  2.533167E+05  5.023542E+02  6.145390E+03  4.260031E+05  4.240848E-10 -1.021244E-09
       127  15  2.542517E+05  1.694720E+03  4.552087E+03  6.053581E+05 -5.483162E-10  3.359552E-10
       127  16 -1.977895E+06 -5.424140E+05 -4.759932E+05  6.034616E+05 -2.807526E-10 -1.558557E-09
       127  17 -1.068722E+06 -3.214367E+05 -2.808212E+05  4.248464E+05 -1.032931E-09 -7.316948E-10
       127  18 -1.585776E+05 -9.916805E+04 -8.694578E+04  6.049876E+05  1.890307E-09 -7.853868E-10
       127  19  2.489637E+06  5.453021E+05  4.962589E+05  6.072599E+05  3.326292E+04  1.154753E+05
       127  20  1.577000E+06  3.223314E+05  2.930202E+05  4.271636E+05  4.176010E+04  6.997755E+04
       127  21  6.672429E+05  1.025470E+05  9.604481E+04  6.057294E+05  5.032657E+04  1.882748E+04
       127  22  2.535347E+05  1.616619E+03  1.029402E+04  6.053567E+05 -7.807824E+03  1.154585E+05
       127  23  2.533181E+05  5.076112E+02  6.154622E+03  4.260028E+05 -4.732848E+03  6.992213E+04
       127  24  2.542518E+05  1.695097E+03  4.552751E+03  6.053580E+05 -1.576279E+03  1.872493E+04
       127  25 -1.977889E+06 -5.423991E+05 -4.759637E+05  6.034571E+05 -4.873298E+04  1.154419E+05
       127  26 -1.068718E+06 -3.214308E+05 -2.808071E+05  4.248435E+05 -5.112817E+04  6.986680E+04
       127  27 -1.585745E+05 -9.916691E+04 -8.693976E+04  6.049867E+05 -5.344502E+04  1.862240E+04
       128   1 -5.592799E+04 -7.406318E+04 -6.510139E+04  6.048873E+05 -5.113643E+04  1.307987E+04
       128   2 -9.658758E+05 -2.963237E+05 -2.606434E+05  4.249344E+05 -4.789332E+04  6.434820E+04
       128   3 -1.875326E+06 -5.182182E+05 -4.583384E+05  6.037333E+05 -4.457922E+04  1.100720E+05
       128   4  2.541586E+05  1.804163E+03  4.169536E+03  6.053575E+05  7.031141E+02  1.318325E+04
       128   5  2.534997E+05  6.073001E+02  4.072569E+03  4.260036E+05 -1.405240E+03  6.440728E+04
       128   6  2.534976E+05  7.580164E+02  5.567759E+03  6.053578E+05 -3.438033E+03  1.100947E+05
       128   7  5.643405E+05  7.766641E+04  7.344452E+04  6.058279E+05  5.256828E+04  1.328666E+04
       128   8  1.474276E+06  2.974409E+05  2.687080E+05  4.270741E+05  4.517305E+04  6.446644E+04
       128   9  2.386580E+06  5.194338E+05  4.692081E+05  6.069848E+05  3.784275E+04  1.101176E+05
       128  10 -5.593085E+04 -7.406407E+04 -6.510663E+04  6.048879E+05 -9.823084E-10  1.702887E-09
       128  11 -9.658793E+05 -2.963287E+05 -2.606555E+05  4.249369E+05  1.211250E-09  1.134808E-09
       128  12 -1.875332E+06 -5.182317E+05 -4.583650E+05  6.037373E+05 -1.619941E-10 -6.796281E-10
       128  13  2.541586E+05  1.803976E+03  4.169208E+03  6.053575E+05 -1.091846E-09  9.382867E-11
       128  14  2.534986E+05  6.028444E+02  4.064769E+03  4.260037E+05  5.249978E-09  1.750986E-10
       128  15  2.534943E+05  7.449955E+02  5.544955E+03  6.053581E+05  5.496259E-09 -2.024544E-10
       128  16  5.643375E+05  7.766548E+04  7.343900E+04  6.058273E+05 -2.239592E-10 -6.820063E-10
       128  17  1.474272E+06  2.974359E+05  2.686964E+05  4.270718E+05 -1.323026E-09 -1.476339E-09
       128  18  2.386575E+06  5.194204E+05  4.691826E+05  6.069814E+05  3.196178E-09  3.759303E-10
       128  19 -5.592799E+04 -7.406318E+04 -6.510139E+04  6.048873E+05  5.113643E+04 -1.307987E+04
       128  20 -9.658758E+05 -2.963237E+05 -2.606434E+05  4.249344E+05  4.789332E+04 -6.434820E+04
       128  21 -1.875326E+06 -5.182182E+05 -4.583384E+05  6.037333E+05  4.457922E+04 -1.100720E+05
       128  22  2.541586E+05  1.804163E+03  4.169536E+03  6.053575E+05 -7.031141E+02 -1.318325E+04
       128  23  2.534997E+05  6.073001E+02  4.072569E+03  4.260036E+05  1.405240E+03 -6.440728E+04
       128  24  2.534976E+05  7.580164E+02  5.567759E+03  6.053578E+05  3.438033E+03 -1.100947E+05
       128  25  5.643405E+05  7.766641E+04  7.344452E+04  6.058279E+05 -5.256828E+04 -1.328666E+04
       128  26  1.474276E+06  2.974409E+05  2.687080E+05  4.270741E+05 -4.517305E+04 -6.446644E+04
       128  27  2.386580E+06  5.194338E+05  4.692081E+05  6.069848E+05 -3.784275E+04 -1.101176E+05
       129   1 -2.598336E+06 -6.971906E+05 -6.129938E+05  6.059200E+05 -8.188432E+04  1.512556E+05
       129   2 -3.504119E+06 -9.223287E+05 -8.252522E+05  4.265076E+05  3.584333E+04  1.679881E+05
       129   3 -4.419156E+06 -1.149214E+06 -1.113723E+06  6.005582E+05  1.531355E+05  5.627227E+04
       129   4  2.550813E+05 -1.725541E+03  6.801024E+03  6.041592E+05 -4.554889E+03  1.512638E+05
       129   5  2.483775E+05 -3.334405E+03  9.731138E+03  4.275012E+05 -9.555350E+03  1.679403E+05
       129   6  2.530573E+05  1.471879E+04  2.193073E+04  6.041815E+05 -1.481450E+04  5.651770E+04
       129   7  3.116167E+06  6.932029E+05  6.261324E+05  6.023852E+05  7.312643E+04  1.512715E+05
       129   8  4.014059E+06  9.147059E+05  8.438435E+05  4.284985E+05 -5.522643E+04  1.678927E+05
       129   9  4.945347E+06  1.177059E+06  1.156111E+06  6.078312E+05 -1.840313E+05  5.676073E+04
       129  10 -2.598349E+06 -6.972170E+05 -6.130495E+05  6.059300E+05  3.363676E-10 -7.493400E-10
       129  11 -3.504128E+06 -9.223594E+05 -8.253076E+05  4.265028E+05 -6.493253E-11 -1.563363E-10
       129  12 -4.419183E+06 -1.149224E+06 -1.113773E+06  6.005512E+05 -4.061130E-10  4.196974E-10
       129  13  2.550751E+05 -1.750121E+03  6.757979E+03  6.041598E+05  4.310480E-09  2.623171E-11
       129  14  2.483698E+05 -3.364721E+03  9.677954E+03  4.275025E+05  5.233517E-09  2.053369E-10
       129  15  2.530562E+05  1.471530E+04  2.192431E+04  6.041822E+05  1.172280E-09 -4.812363E-11
       129  16  3.116155E+06  6.931769E+05  6.260794E+05  6.023763E+05  2.395639E-09  8.901963E-10
       129  17  4.014048E+06  9.146749E+05  8.437847E+05  4.285059E+05  7.955723E-11 -1.255374E-10
       129  18  4.945310E+06  1.177047E+06  1.156042E+06  6.078396E+05 -1.341835E-09 -6.155401E-11
       129  19 -2.598336E+06 -6.971906E+05 -6.129938E+05  6.059200E+05  8.188432E+04 -1.512556E+05
       129  20 -3.504119E+06 -9.223287E+05 -8.252522E+05  4.265076E+05 -3.584333E+04 -1.679881E+05
       129  21 -4.419156E+06 -1.149214E+06 -1.113723E+06  6.005582E+05 -1.531355E+05 -5.627227E+04
       129  22  2.550813E+05 -1.725541E+03  6.801024E+03  6.041592E+05  4.554889E+03 -1.512638E+05
       129  23  2.483775E+05 -3.334405E+03  9.731138E+03  4.275012E+05  9.555350E+03 -1.679403E+05
       129  24  2.530573E+05  1.471879E+04  2.193073E+04  6.041815E+05  1.481450E+04 -5.651770E+04
       129  25  3.116167E+06  6.932029E+05  6.261324E+05  6.023852E+05 -7.312643E+04 -1.512715E+05
       129  26  4.014059E+06  9.147059E+05  8.438435E+05  4.284985E+05  5.522643E+04 -1.678927E+05
       129  27  4.945347E+06  1.177059E+06  1.156111E+06  6.078312E+05  1.840313E+05 -5.676073E+04
       130   1 -9.538306E+05 -3.865733E+06 -9.426842E+05  6.978796E+05 -4.238186E+04 -1.412671E+05
       130   2 -6.563923E+05 -2.800226E+06 -6.144793E+05  4.876566E+05 -1.168230E+05 -3.254269E+04
       130   3 -3.928405E+05 -1.758417E+06 -3.662103E+05  6.884370E+05 -8.509026E+04  7.592240E+04
       130   4 -1.861089E+04 -1.128015E+05 -2.830434E+04  6.993815E+05 -4.178956E+04 -1.893824E+04
       130   5  3.154722E+03 -1.084664E+05 -1.326148E+04  4.938657E+05 -1.166736E+05 -1.156594E+04
       130   6  8.853546E+03 -1.111165E+05 -7.397855E+03  6.992549E+05 -8.558816E+04 -4.640982E+03
       130   7  9.155772E+05  3.653065E+06  8.851090E+05  7.008708E+05 -4.119882E+04  1.041320E+05
       130   8  6.622088E+05  2.590067E+06  5.875026E+05  5.000906E+05 -1.165241E+05  9.501177E+03
       130   9  4.103709E+05  1.538747E+06  3.512762E+05  7.100967E+05 -8.608810E+04 -8.541582E+04
       130  10 -9.538379E+05 -3.865755E+06 -9.427252E+05  6.978747E+05 -1.124534E-09 -3.145854E-09
       130  11 -6.564072E+05 -2.800231E+06 -6.145069E+05  4.876536E+05  3.282314E-09  7.771969E-09
       130  12 -3.928499E+05 -1.758425E+06 -3.662348E+05  6.884422E+05  1.594384E-10  1.610766E-08
       130  13 -1.861286E+04 -1.128023E+05 -2.830829E+04  6.993809E+05  2.442153E-10  8.312516E-11
       130  14  3.140071E+03 -1.084702E+05 -1.328731E+04  4.938646E+05  4.981818E-10  1.457447E-11
       130  15  8.845675E+03 -1.111185E+05 -7.411659E+03  6.992546E+05 -9.112541E-11  6.417141E-10
       130  16  9.155725E+05  3.653053E+06  8.850855E+05  7.008742E+05  5.231283E-10  3.453346E-09
       130  17  6.621942E+05  2.590064E+06  5.874769E+05  5.000915E+05 -4.757867E-09 -8.947944E-09
       130  18  4.103610E+05  1.538737E+06  3.512486E+05  7.100908E+05 -9.301695E-10 -1.659663E-08
       130  19 -9.538306E+05 -3.865733E+06 -9.426842E+05  6.978796E+05  4.238186E+04  1.412671E+05
       130  20 -6.563923E+05 -2.800226E+06 -6.144793E+05  4.876566E+05  1.168230E+05  3.254269E+04
       130  21 -3.928405E+05 -1.758417E+06 -3.662103E+05  6.884370E+05  8.509026E+04 -7.592240E+04
       130  22 -1.861089E+04 -1.128015E+05 -2.830434E+04  6.993815E+05  4.178956E+04  1.893824E+04
       130  23  3.154722E+03 -1.084664E+05 -1.326148E+04  4.938657E+05  1.166736E+05  1.156594E+04
       130  24  8.853546E+03 -1.111165E+05 -7.397855E+03  6.992549E+05  8.558816E+04  4.640982E+03
       130  25  9.155772E+05  3.653065E+06  8.851090E+05  7.008708E+05  4.119882E+04 -1.041320E+05
       130  26  6.622088E+05  2.590067E+06  5.875026E+05  5.000906E+05  1.165241E+05 -9.501177E+03
       130  27  4.103709E+05  1.538747E+06  3.512762E+05  7.100967E+05  8.608810E+04  8.541582E+04
       131   1 -1.900278E+05 -9.182939E+05 -1.826892E+05  6.971970E+05 -4.049504E+04  4.806960E+04
       131   2  6.579245E+04  1.383196E+05  4.963578E+04  4.937236E+05  1.346137E+04  4.909734E+04
       131   3  3.243749E+05  1.191128E+06  2.805552E+05  7.056942E+05  6.685140E+04  5.014708E+04
       131   4  7.032757E+03 -1.102058E+05 -6.052259E+03  7.002955E+05 -4.083575E+04 -3.964070E+03
       131   5  5.896126E+03 -1.078126E+05 -3.683393E+03  4.925689E+05  1.313323E+04 -2.430293E+03
       131   6  7.500897E+03 -1.103603E+05 -3.032061E+03  7.002912E+05  6.653190E+04 -8.765629E+02
       131   7  2.040512E+05  6.985003E+05  1.705554E+05  7.033968E+05 -4.117671E+04 -5.606470E+04
       131   8 -5.400278E+04 -3.538822E+05 -5.699619E+04  4.914145E+05  1.280520E+04 -5.393777E+04
       131   9 -3.094842E+05 -1.410257E+06 -2.867114E+05  6.948964E+05  6.621289E+04 -5.179476E+04
       131  10 -1.900302E+05 -9.182968E+05 -1.826967E+05  6.971986E+05  1.954544E-09 -1.483409E-08
       131  11  6.579161E+04  1.383169E+05  4.963091E+04  4.937231E+05  3.016296E-09 -6.340455E-09
       131  12  3.243694E+05  1.191124E+06  2.805421E+05  7.056915E+05  3.179836E-09  3.439778E-09
       131  13  7.030962E+03 -1.102063E+05 -6.055421E+03  7.002954E+05  1.583631E-10  9.484417E-12
       131  14  5.895939E+03 -1.078126E+05 -3.683728E+03  4.925689E+05 -3.299451E-10 -8.292684E-11
       131  15  7.496143E+03 -1.103615E+05 -3.040380E+03  7.002913E+05  2.438704E-09  5.170261E-10
       131  16  2.040486E+05  6.984965E+05  1.705463E+05  7.033949E+05 -2.433003E-11  1.504157E-08
       131  17 -5.400373E+04 -3.538853E+05 -5.700197E+04  4.914150E+05  2.512575E-09  6.139492E-09
       131  18 -3.094896E+05 -1.410261E+06 -2.867247E+05  6.948992E+05  1.133714E-09 -3.955553E-09
       131  19 -1.900278E+05 -9.182939E+05 -1.826892E+05  6.971970E+05  4.049504E+04 -4.806960E+04
       131  20  6.579245E+04  1.383196E+05  4.963578E+04  4.937236E+05 -1.346137E+04 -4.909734E+04
       131  21  3.243749E+05  1.191128E+06  2.805552E+05  7.056942E+05 -6.685140E+04 -5.014708E+04
       131  22  7.032757E+03 -1.102058E+05 -6.052259E+03  7.002955E+05  4.083575E+04  3.964070E+03
       131  23  5.896126E+03 -1.078126E+05 -3.683393E+03  4.925689E+05 -1.313323E+04  2.430293E+03
       131  24  7.500897E+03 -1.103603E+05 -3.032061E+03  7.002912E+05 -6.653190E+04  8.765629E+02
       131  25  2.040512E+05  6.985003E+05  1.705554E+05  7.033968E+05  4.117671E+04  5.606470E+04
       131  26 -5.400278E+04 -3.538822E+05 -5.699619E+04  4.914145E+05 -1.280520E+04  5.393777E+04
       131  27 -3.094842E+05 -1.410257E+06 -2.867114E+05  6.948964E+05 -6.621289E+04  5.179476E+04
       132   1  5.286592E+05  2.033220E+06  4.622813E+05  7.092853E+05  1.127103E+05  8.264307E+04
       132   2  7.814388E+05  3.080804E+06  7.047565E+05  5.041941E+05  1.395425E+05 -2.905985E+04
       132   3  1.054168E+06  4.148148E+06  1.024374E+06  7.092292E+05  4.813911E+04 -1.405178E+05
       132   4  7.403337E+03 -1.101145E+05 -2.823702E+03  6.991325E+05  1.122263E+05 -7.774175E+02
       132   5  2.427807E+03 -1.106317E+05 -4.373891E+03  4.940233E+05  1.397458E+05  1.483236E+03
       132   6 -2.239950E+03 -1.121033E+05 -7.680233E+03  6.991684E+05  4.875670E+04  4.180268E+03
       132   7 -5.141526E+05 -2.249134E+06 -4.681767E+05  6.890064E+05  1.117441E+05 -8.391440E+04
       132   8 -7.772711E+05 -3.292593E+06 -7.141357E+05  4.838901E+05  1.399488E+05  3.187161E+04
       132   9 -1.059966E+06 -4.355800E+06 -1.040963E+06  6.891510E+05  4.937220E+04  1.478932E+05
       132  10  5.286437E+05  2.033210E+06  4.622447E+05  7.092778E+05  2.412231E-09 -2.731105E-09
       132  11  7.814176E+05  3.080798E+06  7.047184E+05  5.041974E+05 -2.544215E-09 -1.212807E-09
       132  12  1.054161E+06  4.148126E+06  1.024332E+06  7.092346E+05 -5.095167E-10  8.040816E-10
       132  13  7.389813E+03 -1.101179E+05 -2.847370E+03  6.991325E+05 -2.112331E-09 -1.414391E-10
       132  14  2.406837E+03 -1.106370E+05 -4.410591E+03  4.940231E+05 -2.061855E-10 -8.110927E-11
       132  15 -2.242507E+03 -1.121039E+05 -7.684732E+03  6.991682E+05 -4.358456E-10  2.350055E-10
       132  16 -5.141679E+05 -2.249145E+06 -4.682135E+05  6.890140E+05  3.684275E-09  2.621632E-09
       132  17 -7.772924E+05 -3.292600E+06 -7.141744E+05  4.838865E+05 -6.184415E-10  9.177715E-10
       132  18 -1.059974E+06 -4.355825E+06 -1.041009E+06  6.891451E+05 -1.420101E-09 -8.268091E-10
       132  19  5.286592E+05  2.033220E+06  4.622813E+05  7.092853E+05 -1.127103E+05 -8.264307E+04
       132  20  7.814388E+05  3.080804E+06  7.047565E+05  5.041941E+05 -1.395425E+05  2.905985E+04
       132  21  1.054168E+06  4.148148E+06  1.024374E+06  7.092292E+05 -4.813911E+04  1.405178E+05
       132  22  7.403337E+03 -1.101145E+05 -2.823702E+03  6.991325E+05 -1.122263E+05  7.774175E+02
       132  23  2.427807E+03 -1.106317E+05 -4.373891E+03  4.940233E+05 -1.397458E+05 -1.483236E+03
       132  24 -2.239950E+03 -1.121033E+05 -7.680233E+03  6.991684E+05 -4.875670E+04 -4.180268E+03
       132  25 -5.141526E+05 -2.249134E+06 -4.681767E+05  6.890064E+05 -1.117441E+05  8.391440E+04
       132  26 -7.772711E+05 -3.292593E+06 -7.141357E+05  4.838901E+05 -1.399488E+05 -3.187161E+04
       132  27 -1.059966E+06 -4.355800E+06 -1.040963E+06  6.891510E+05 -4.937220E+04 -1.478932E+05
       133   1  4.913571E+06  1.158003E+06  1.143063E+06  5.863644E+05  1.998715E+05 -5.475905E+04
       133   2  4.031271E+06  8.831112E+05  8.289871E+05  4.085552E+05  6.841134E+04 -1.622196E+05
       133   3  3.188094E+06  6.723684E+05  6.169516E+05  5.638630E+05 -6.260438E+04 -1.471201E+05
       133   4  4.050576E+05  4.134644E+04  5.349802E+04  5.697450E+05  3.660149E+04 -5.451611E+04
       133   5  3.969364E+05 -2.798991E+03  2.415925E+04  4.031114E+05  2.370612E+04 -1.622586E+05
       133   6  4.069064E+05 -3.055388E+03  1.506041E+04  5.696907E+05  1.106584E+04 -1.471246E+05
       133   7 -4.084921E+06 -1.076778E+06 -1.037425E+06  5.532458E+05 -1.254946E+05 -5.426403E+04
       133   8 -3.225119E+06 -8.895972E+05 -7.814792E+05  3.976981E+05 -2.074196E+04 -1.622971E+05
       133   9 -2.367037E+06 -6.789861E+05 -5.872695E+05  5.754879E+05  8.441164E+04 -1.471276E+05
       133  10  4.913527E+06  1.157989E+06  1.142983E+06  5.863732E+05  7.318629E-10 -4.820188E-10
       133  11  4.031259E+06  8.830817E+05  8.289288E+05  4.085641E+05  2.174473E-09 -1.354486E-10
       133  12  3.188084E+06  6.723441E+05  6.169037E+05  5.638556E+05  2.354034E-09 -5.461431E-10
       133  13  4.050553E+05  4.134289E+04  5.348991E+04  5.697466E+05  1.011548E-09  1.579758E-10
       133  14  3.969287E+05 -2.827422E+03  2.410870E+04  4.031145E+05  4.148009E-10 -8.831828E-10
       133  15  4.069005E+05 -3.078672E+03  1.501949E+04  5.696920E+05 -1.748479E-09 -1.614045E-10
       133  16 -4.084939E+06 -1.076785E+06 -1.037460E+06  5.532403E+05 -2.741109E-09 -1.548119E-09
       133  17 -3.225126E+06 -8.896257E+05 -7.815295E+05  3.976954E+05 -1.103207E-09 -9.956307E-10
       133  18 -2.367050E+06 -6.790113E+05 -5.873237E+05  5.754980E+05  5.644698E-11  2.422567E-10
       133  19  4.913571E+06  1.158003E+06  1.143063E+06  5.863644E+05 -1.998715E+05  5.475905E+04
       133  20  4.031271E+06  8.831112E+05  8.289871E+05  4.085552E+05 -6.841134E+04  1.622196E+05
       133  21  3.188094E+06  6.723684E+05  6.169516E+05  5.638630E+05  6.260438E+04  1.471201E+05
       133  22  4.050576E+05  4.134644E+04  5.349802E+04  5.697450E+05 -3.660149E+04  5.451611E+04
       133  23  3.969364E+05 -2.798991E+03  2.415925E+04  4.031114E+05 -2.370612E+04  1.622586E+05
       133  24  4.069064E+05 -3.055388E+03  1.506041E+04  5.696907E+05 -1.106584E+04  1.471246E+05
       133  25 -4.084921E+06 -1.076778E+06 -1.037425E+06  5.532458E+05  1.254946E+05  5.426403E+04
       133  26 -3.225119E+06 -8.895972E+05 -7.814792E+05  3.976981E+05  2.074196E+04  1.622971E+05
       133  27 -2.367037E+06 -6.789861E+05 -5.872695E+05  5.754879E+05 -8.441164E+04  1.471276E+05
       134   1  2.498651E+06  5.112231E+05  4.672533E+05  5.726439E+05 -2.992911E+04 -1.081570E+05
       134   2  1.638250E+06  3.005665E+05  2.749023E+05  4.027750E+05 -3.869773E+04 -6.524862E+04
       134   3  7.807045E+05  9.332119E+04  8.905073E+04  5.710208E+05 -4.752623E+04 -1.703170E+04
       134   4  4.039091E+05  1.949481E+03  1.204507E+04  5.708026E+05  8.813474E+03 -1.081428E+05
       134   5  4.035769E+05  4.160299E+02  7.350345E+03  4.017255E+05  5.140954E+03 -6.520050E+04
       134   6  4.045399E+05  1.462221E+03  5.660194E+03  5.708043E+05  1.396764E+03 -1.694225E+04
       134   7 -1.686728E+06 -5.076138E+05 -4.434199E+05  5.689647E+05  4.742740E+04 -1.081287E+05
       134   8 -8.296652E+05 -2.998341E+05 -2.602851E+05  4.006773E+05  4.889379E+04 -6.515246E+04
       134   9  2.851241E+04 -9.040502E+04 -7.773014E+04  5.705878E+05  5.029048E+04 -1.685281E+04
       134  10  2.498647E+06  5.112103E+05  4.672296E+05  5.726413E+05  1.193876E-09 -2.314189E-10
       134  11  1.638248E+06  3.005615E+05  2.748915E+05  4.027730E+05  7.960994E-10  4.121624E-10
       134  12  7.807020E+05  9.332028E+04  8.904595E+04  5.710201E+05  7.232297E-10 -1.199032E-09
       134  13  4.039059E+05  1.936898E+03  1.202294E+04  5.708034E+05  1.025750E-09  2.463349E-10
       134  14  4.035757E+05  4.114567E+02  7.342305E+03  4.017258E+05 -2.667105E-09  1.567043E-09
       134  15  4.045398E+05  1.461913E+03  5.659651E+03  5.708043E+05 -4.114859E-10 -5.368582E-10
       134  16 -1.686733E+06 -5.076270E+05 -4.434462E+05  5.689688E+05 -1.743063E-09  1.194430E-09
       134  17 -8.296689E+05 -2.998393E+05 -2.602976E+05  4.006798E+05 -1.382059E-09  8.663839E-10
       134  18  2.850962E+04 -9.040600E+04 -7.773543E+04  5.705885E+05 -1.346880E-09  1.668309E-10
       134  19  2.498651E+06  5.112231E+05  4.672533E+05  5.726439E+05  2.992911E+04  1.081570E+05
       134  20  1.638250E+06  3.005665E+05  2.749023E+05  4.027750E+05  3.869773E+04  6.524862E+04
       134  21  7.807045E+05  9.332119E+04  8.905073E+04  5.710208E+05  4.752623E+04  1.703170E+04
       134  22  4.039091E+05  1.949481E+03  1.204507E+04  5.708026E+05 -8.813474E+03  1.081428E+05
       134  23  4.035769E+05  4.160299E+02  7.350345E+03  4.017255E+05 -5.140954E+03  6.520050E+04
       134  24  4.045399E+05  1.462221E+03  5.660194E+03  5.708043E+05 -1.396764E+03  1.694225E+04
       134  25 -1.686728E+06 -5.076138E+05 -4.434199E+05  5.689647E+05 -4.742740E+04  1.081287E+05
       134  26 -8.296652E+05 -2.998341E+05 -2.602851E+05  4.006773E+05 -4.889379E+04  6.515246E+04
       134  27  2.851241E+04 -9.040502E+04 -7.773014E+04  5.705878E+05 -5.029048E+04  1.685281E+04
       135   1  9.910821E+04 -7.313476E+04 -6.273975E+04  5.704938E+05 -4.854018E+04  1.304111E+04
       135   2 -7.589127E+05 -2.825694E+05 -2.465695E+05  4.007432E+05 -4.643008E+04  6.135737E+04
       135   3 -1.616181E+06 -4.910671E+05 -4.316429E+05  5.691768E+05 -4.425514E+04  1.044356E+05
       135   4  4.044701E+05  1.544242E+03  5.369484E+03  5.708016E+05  3.329386E+02  1.313110E+04
       135   5  4.037064E+05  4.818457E+02  5.766328E+03  4.017291E+05 -2.613741E+03  6.140783E+04
       135   6  4.038759E+05  1.276741E+03  8.451380E+03  5.708010E+05 -5.492722E+03  1.044537E+05
       135   7  7.099240E+05  7.621820E+04  7.348184E+04  5.711095E+05  4.922984E+04  1.322110E+04
       135   8  1.567598E+06  2.834447E+05  2.580288E+05  4.027159E+05  4.128364E+04  6.145837E+04
       135   9  2.427766E+06  4.933502E+05  4.483063E+05  5.724279E+05  3.339446E+04  1.044719E+05
       135  10  9.910564E+04 -7.313558E+04 -6.274450E+04  5.704943E+05 -2.256614E-09 -4.160467E-10
       135  11 -7.589160E+05 -2.825741E+05 -2.465806E+05  4.007455E+05 -3.908470E-09  2.017705E-10
       135  12 -1.616186E+06 -4.910794E+05 -4.316671E+05  5.691805E+05 -1.224598E-10 -6.071463E-10
       135  13  4.044701E+05  1.544057E+03  5.369160E+03  5.708016E+05  1.089978E-09 -5.042300E-10
       135  14  4.037054E+05  4.777937E+02  5.759227E+03  4.017292E+05 -1.313571E-09 -5.748551E-10
       135  15  4.038729E+05  1.265014E+03  8.430814E+03  5.708015E+05 -1.077546E-09 -8.352695E-10
       135  16  7.099214E+05  7.621736E+04  7.347697E+04  5.711089E+05  4.907142E-10 -4.057324E-10
       135  17  1.567595E+06  2.834402E+05  2.580185E+05  4.027139E+05  1.358397E-09  1.731135E-10
       135  18  2.427761E+06  4.933382E+05  4.482837E+05  5.724251E+05 -1.783919E-09  4.457427E-10
       135  19  9.910821E+04 -7.313476E+04 -6.273975E+04  5.704938E+05  4.854018E+04 -1.304111E+04
       135  20 -7.589127E+05 -2.825694E+05 -2.465695E+05  4.007432E+05  4.643008E+04 -6.135737E+04
       135  21 -1.616181E+06 -4.910671E+05 -4.316429E+05  5.691768E+05  4.425514E+04 -1.044356E+05
       135  22  4.044701E+05  1.544242E+03  5.369484E+03  5.708016E+05 -3.329386E+02 -1.313110E+04
       135  23  4.037064E+05  4.818457E+02  5.766328E+03  4.017291E+05  2.613741E+03 -6.140783E+04
       135  24  4.038759E+05  1.276741E+03  8.451380E+03  5.708010E+05  5.492722E+03 -1.044537E+05
       135  25  7.099240E+05  7.621820E+04  7.348184E+04  5.711095E+05 -4.922984E+04 -1.322110E+04
       135  26  1.567598E+06  2.834447E+05  2.580288E+05  4.027159E+05 -4.128364E+04 -6.145837E+04
       135  27  2.427766E+06  4.933502E+05  4.483063E+05  5.724279E+05 -3.339446E+04 -1.044719E+05
       136   1 -2.297329E+06 -6.609160E+05 -5.766640E+05  5.732141E+05 -8.009233E+04  1.432886E+05
       136   2 -3.153318E+06 -8.723679E+05 -7.741564E+05  4.000631E+05  2.771297E+04  1.589707E+05
       136   3 -4.015104E+06 -1.074430E+06 -1.038672E+06  5.603296E+05  1.351272E+05  5.325181E+04
       136   4  4.060021E+05 -2.207223E+03  1.036338E+04  5.697164E+05 -7.101520E+03  1.432923E+05
       136   5  3.982396E+05 -2.842932E+03  1.586965E+04  4.030828E+05 -1.536048E+04  1.589302E+05
       136   6  4.041921E+05  2.610886E+04  3.513990E+04  5.697500E+05 -2.385676E+04  5.348083E+04
       136   7  3.116213E+06  6.560202E+05  5.969748E+05  5.661991E+05  6.620385E+04  1.432950E+05
       136   8  3.961602E+06  8.658281E+05  8.051160E+05  4.061181E+05 -5.867835E+04  1.588895E+05
       136   9  4.841442E+06  1.125224E+06  1.107635E+06  5.792373E+05 -1.839741E+05  5.370461E+04
       136  10 -2.297341E+06 -6.609398E+05 -5.767147E+05  5.732234E+05 -2.971870E-10 -6.991023E-10
       136  11 -3.153325E+06 -8.723953E+05 -7.742054E+05  4.000596E+05 -4.798455E-11  9.788934E-10
       136  12 -4.015125E+06 -1.074438E+06 -1.038711E+06  5.603238E+05 -8.669188E-10 -2.607280E-11
       136  13  4.059965E+05 -2.229291E+03  1.032469E+04  5.697172E+05  1.152420E-09  4.231906E-11
       136  14  3.982326E+05 -2.870126E+03  1.582172E+04  4.030847E+05  3.186565E-10  1.087015E-09
       136  15  4.041907E+05  2.610563E+04  3.513345E+04  5.697510E+05 -3.064836E-10 -1.391454E-10
       136  16  3.116203E+06  6.559970E+05  5.969281E+05  5.661915E+05 -2.576814E-10  2.554743E-10
       136  17  3.961591E+06  8.658000E+05  8.050621E+05  4.061256E+05  1.697455E-09  6.940998E-10
       136  18  4.841405E+06  1.125212E+06  1.107566E+06  5.792452E+05 -2.244807E-09 -3.154975E-10
       136  19 -2.297329E+06 -6.609160E+05 -5.766640E+05  5.732141E+05  8.009233E+04 -1.432886E+05
       136  20 -3.153318E+06 -8.723679E+05 -7.741564E+05  4.000631E+05 -2.771297E+04 -1.589707E+05
       136  21 -4.015104E+06 -1.074430E+06 -1.038672E+06  5.603296E+05 -1.351272E+05 -5.325181E+04
       136  22  4.060021E+05 -2.207223E+03  1.036338E+04  5.697164E+05  7.101520E+03 -1.432923E+05
       136  23  3.982396E+05 -2.842932E+03  1.586965E+04  4.030828E+05  1.536048E+04 -1.589302E+05
       136  24  4.041921E+05  2.610886E+04  3.513990E+04  5.697500E+05  2.385676E+04 -5.348083E+04
       136  25  3.116213E+06  6.560202E+05  5.969748E+05  5.661991E+05 -6.620385E+04 -1.432950E+05
       136  26  3.961602E+06  8.658281E+05  8.051160E+05  4.061181E+05  5.867835E+04 -1.588895E+05
       136  27  4.841442E+06  1.125224E+06  1.107635E+06  5.792373E+05  1.839741E+05 -5.370461E+04
       137   1 -9.777446E+05 -3.861524E+06 -9.679063E+05  7.122517E+05 -4.308458E+04 -1.508026E+05
       137   2 -6.675239E+05 -2.780670E+06 -6.294051E+05  4.962888E+05 -1.188088E+05 -3.788721E+04
       137   3 -3.999818E+05 -1.726067E+06 -3.757540E+05  6.968004E+05 -8.672163E+04  7.478866E+04
       137   4 -2.794764E+04 -4.977606E+04 -3.925157E+04  7.090605E+05 -4.249952E+04 -2.648767E+04
       137   5  2.905394E+03 -4.426953E+04 -1.826713E+04  5.007869E+05 -1.186585E+05 -1.647256E+04
       137   6  9.195426E+03 -4.804100E+04 -1.027923E+04  7.088917E+05 -8.721614E+04 -6.895145E+03
       137   7  9.207856E+05  3.775315E+06  8.884064E+05  7.058274E+05 -4.191791E+04  9.859250E+04
       137   8  6.728253E+05  2.699131E+06  5.924020E+05  5.052935E+05 -1.185083E+05  5.035914E+03
       137   9  4.181893E+05  1.632643E+06  3.550517E+05  7.210108E+05 -8.771305E+04 -8.879733E+04
       137  10 -9.777528E+05 -3.861549E+06 -9.679528E+05  7.122465E+05  5.994523E-10 -2.884042E-09
       137  11 -6.675394E+05 -2.780675E+06 -6.294343E+05  4.962852E+05  4.333754E-09  4.062176E-09
       137  12 -3.999914E+05 -1.726075E+06 -3.757787E+05  6.968057E+05  1.719233E-09  6.660326E-09
       137  13 -2.794976E+04 -4.977730E+04 -3.925628E+04  7.090596E+05 -3.375934E-09  9.315201E-10
       137  14  2.890204E+03 -4.427360E+04 -1.829409E+04  5.007854E+05  8.127083E-10 -1.535340E-11
       137  15  9.187246E+03 -4.804309E+04 -1.029361E+04  7.088913E+05  1.088058E-09  2.094355E-09
       137  16  9.207811E+05  3.775304E+06  8.883849E+05  7.058307E+05 -4.638032E-10  1.554261E-09
       137  17  6.728102E+05  2.699127E+06  5.923756E+05  5.052940E+05 -4.035414E-09 -5.541725E-09
       137  18  4.181790E+05  1.632633E+06  3.550225E+05  7.210045E+05  8.372770E-10 -7.685864E-09
       137  19 -9.777446E+05 -3.861524E+06 -9.679063E+05  7.122517E+05  4.308458E+04  1.508026E+05
       137  20 -6.675239E+05 -2.780670E+06 -6.294051E+05  4.962888E+05  1.188088E+05  3.788721E+04
       137  21 -3.999818E+05 -1.726067E+06 -3.757540E+05  6.968004E+05  8.672163E+04 -7.478866E+04
       137  22 -2.794764E+04 -4.977606E+04 -3.925157E+04  7.090605E+05  4.249952E+04  2.648767E+04
       137  23  2.905394E+03 -4.426953E+04 -1.826713E+04  5.007869E+05  1.186585E+05  1.647256E+04
       137  24  9.195426E+03 -4.804100E+04 -1.027923E+04  7.088917E+05  8.721614E+04  6.895145E+03
       137  25  9.207856E+05  3.775315E+06  8.884064E+05  7.058274E+05  4.191791E+04 -9.859250E+04
       137  26  6.728253E+05  2.699131E+06  5.924020E+05  5.052935E+05  1.185083E+05 -5.035914E+03
       137  27  4.181893E+05  1.632643E+06  3.550517E+05  7.210108E+05  8.771305E+04  8.879733E+04
       138   1 -1.953438E+05 -8.743802E+05 -1.892329E+05  7.069938E+05 -4.151458E+04  4.688767E+04
       138   2  6.436954E+04  1.962566E+05  4.721954E+04  5.006186E+05  1.314663E+04  4.852113E+04
       138   3  3.263445E+05  1.262977E+06  2.817568E+05  7.151730E+05  6.725422E+04  5.017731E+04
       138   4  6.493039E+03 -4.663532E+04 -8.320018E+03  7.099466E+05 -4.185349E+04 -5.816397E+03
       138   5  5.864526E+03 -4.417359E+04 -4.860952E+03  4.994755E+05  1.282014E+04 -3.689103E+03
       138   6  7.481221E+03 -4.678830E+04 -3.618094E+03  7.099392E+05  6.693611E+04 -1.542169E+03
       138   7  2.082857E+05  7.817578E+05  1.725619E+05  7.129020E+05 -4.219262E+04 -5.858992E+04
       138   8 -5.264285E+04 -2.845437E+05 -5.693464E+04  4.983328E+05  1.249377E+04 -5.587939E+04
       138   9 -3.114946E+05 -1.354942E+06 -2.890860E+05  7.047132E+05  6.661848E+04 -5.315409E+04
       138  10 -1.953463E+05 -8.743830E+05 -1.892402E+05  7.069953E+05  4.650049E-09 -3.143280E-09
       138  11  6.436872E+04  1.962540E+05  4.721480E+04  5.006181E+05  2.755980E-09  4.014145E-09
       138  12  3.263390E+05  1.262973E+06  2.817435E+05  7.151703E+05  2.522382E-09  4.092084E-09
       138  13  6.491150E+03 -4.663583E+04 -8.323372E+03  7.099464E+05  3.352474E-09  1.533762E-09
       138  14  5.864345E+03 -4.417365E+04 -4.861286E+03  4.994755E+05 -6.221355E-10  1.534030E-10
       138  15  7.476409E+03 -4.678951E+04 -3.626519E+03  7.099393E+05  1.833184E-09  2.190503E-09
       138  16  2.082829E+05  7.817537E+05  1.725521E+05  7.129000E+05  5.235662E-09  9.166336E-10
       138  17 -5.264385E+04 -2.845471E+05 -5.694081E+04  4.983334E+05  5.055431E-09 -4.377434E-09
       138  18 -3.115001E+05 -1.354947E+06 -2.890997E+05  7.047161E+05  1.269603E-09 -5.047133E-09
       138  19 -1.953438E+05 -8.743802E+05 -1.892329E+05  7.069938E+05  4.151458E+04 -4.688767E+04
       138  20  6.436954E+04  1.962566E+05  4.721954E+04  5.006186E+05 -1.314663E+04 -4.852113E+04
       138  21  3.263445E+05  1.262977E+06  2.817568E+05  7.151730E+05 -6.725422E+04 -5.017731E+04
       138  22  6.493039E+03 -4.663532E+04 -8.320018E+03  7.099466E+05  4.185349E+04  5.816397E+03
       138  23  5.864526E+03 -4.417359E+04 -4.860952E+03  4.994755E+05 -1.282014E+04  3.689103E+03
       138  24  7.481221E+03 -4.678830E+04 -3.618094E+03  7.099392E+05 -6.693611E+04  1.542169E+03
       138  25  2.082857E+05  7.817578E+05  1.725619E+05  7.129020E+05  4.219262E+04  5.858992E+04
       138  26 -5.264285E+04 -2.845437E+05 -5.693464E+04  4.983328E+05 -1.249377E+04  5.587939E+04
       138  27 -3.114946E+05 -1.354942E+06 -2.890860E+05  7.047132E+05 -6.661848E+04  5.315409E+04
       139   1  5.332236E+05  2.116292E+06  4.660902E+05  7.187586E+05  1.136979E+05  8.312574E+04
       139   2  7.894444E+05  3.177813E+06  7.121218E+05  5.109519E+05  1.409650E+05 -2.986034E+04
       139   3  1.066153E+06  4.259581E+06  1.036284E+06  7.187552E+05  4.866470E+04 -1.426182E+05
       139   4  7.288462E+03 -4.647261E+04 -3.200078E+03  7.087822E+05  1.132175E+05 -1.357150E+03
       139   5  2.323849E+03 -4.713374E+04 -4.408523E+03  5.009284E+05  1.411666E+05  9.179198E+02
       139   6 -2.014095E+03 -4.850886E+04 -7.272993E+03  7.088156E+05  4.926942E+04  3.617406E+03
       139   7 -5.189522E+05 -2.204844E+06 -4.727426E+05  6.988322E+05  1.127388E+05 -8.555035E+04
       139   8 -7.854990E+05 -3.262407E+06 -7.215835E+05  4.909422E+05  1.413680E+05  3.153866E+04
       139   9 -1.071528E+06 -4.339674E+06 -1.052086E+06  6.989193E+05  4.987206E+04  1.488464E+05
       139  10  5.332079E+05  2.116281E+06  4.660530E+05  7.187510E+05  2.152247E-09 -1.181886E-09
       139  11  7.894228E+05  3.177807E+06  7.120828E+05  5.109553E+05 -2.151755E-09  6.257841E-10
       139  12  1.066145E+06  4.259559E+06  1.036241E+06  7.187608E+05 -1.330716E-09 -1.753929E-10
       139  13  7.274697E+03 -4.647605E+04 -3.224170E+03  7.087823E+05 -4.413928E-10  1.270093E-09
       139  14  2.302450E+03 -4.713909E+04 -4.445972E+03  5.009283E+05 -9.369876E-10 -7.035586E-11
       139  15 -2.016705E+03 -4.850952E+04 -7.277579E+03  7.088155E+05 -1.972573E-09  1.180518E-09
       139  16 -5.189678E+05 -2.204855E+06 -4.727803E+05  6.988400E+05  2.811849E-09 -1.087447E-09
       139  17 -7.855207E+05 -3.262414E+06 -7.216229E+05  4.909386E+05 -2.126357E-09 -1.387715E-09
       139  18 -1.071537E+06 -4.339699E+06 -1.052133E+06  6.989133E+05 -1.353847E-09 -1.111053E-10
       139  19  5.332236E+05  2.116292E+06  4.660902E+05  7.187586E+05 -1.136979E+05 -8.312574E+04
       139  20  7.894444E+05  3.177813E+06  7.121218E+05  5.109519E+05 -1.409650E+05  2.986034E+04
       139  21  1.066153E+06  4.259581E+06  1.036284E+06  7.187552E+05 -4.866470E+04  1.426182E+05
       139  22  7.288462E+03 -4.647261E+04 -3.200078E+03  7.087822E+05 -1.132175E+05  1.357150E+03
       139  23  2.323849E+03 -4.713374E+04 -4.408523E+03  5.009284E+05 -1.411666E+05 -9.179198E+02
       139  24 -2.014095E+03 -4.850886E+04 -7.272993E+03  7.088156E+05 -4.926942E+04 -3.617406E+03
       139  25 -5.189522E+05 -2.204844E+06 -4.727426E+05  6.988322E+05 -1.127388E+05  8.555035E+04
       139  26 -7.854990E+05 -3.262407E+06 -7.215835E+05  4.909422E+05 -1.413680E+05 -3.153866E+04
       139  27 -1.071528E+06 -4.339674E+06 -1.052086E+06  6.989193E+05 -4.987206E+04 -1.488464E+05
       140   1  4.854930E+06  1.118649E+06  1.106138E+06  5.658665E+05  1.993759E+05 -5.243677E+04
       140   2  4.009690E+06  8.459973E+05  7.993321E+05  3.925050E+05  7.064846E+04 -1.553598E+05
       140   3  3.204239E+06  6.436900E+05  5.942730E+05  5.379027E+05 -5.766941E+04 -1.409458E+05
       140   4  5.379879E+05  4.949794E+04  6.291486E+04  5.449658E+05  4.301054E+04 -5.221366E+04
       140   5  5.289770E+05 -2.415675E+03  2.857092E+04  3.855136E+05  2.779341E+04 -1.553953E+05
       140   6  5.396875E+05 -3.355756E+03  1.767651E+04  5.449044E+05  1.281131E+04 -1.409510E+05
       140   7 -3.761961E+06 -1.020998E+06 -9.815530E+05  5.242098E+05 -1.122784E+05 -5.197970E+04
       140   8 -2.940473E+06 -8.516430E+05 -7.429336E+05  3.785603E+05 -1.482562E+04 -1.554300E+05
       140   9 -2.118216E+06 -6.508666E+05 -5.593227E+05  5.518722E+05  8.299468E+04 -1.409546E+05
       140  10  4.854886E+06  1.118636E+06  1.106059E+06  5.658749E+05 -1.126267E-09  1.088398E-09
       140  11  4.009678E+06  8.459701E+05  7.992773E+05  3.925138E+05  1.945724E-09  2.037701E-09
       140  12  3.204231E+06  6.436678E+05  5.942295E+05  5.378962E+05  2.867098E-09 -3.613959E-10
       140  13  5.379852E+05  4.949452E+04  6.290625E+04  5.449676E+05  3.246545E-11  3.481423E-10
       140  14  5.289697E+05 -2.441822E+03  2.852407E+04  3.855171E+05  5.396836E-10 -2.389803E-10
       140  15  5.396820E+05 -3.377141E+03  1.763885E+04  5.449059E+05  1.304789E-09 -4.172364E-10
       140  16 -3.761975E+06 -1.021005E+06 -9.815819E+05  5.242051E+05  8.565556E-10  6.686057E-10
       140  17 -2.940480E+06 -8.516690E+05 -7.429794E+05  3.785585E+05 -1.453996E-09 -4.839973E-10
       140  18 -2.118228E+06 -6.508898E+05 -5.593730E+05  5.518817E+05 -3.060358E-10 -3.698599E-10
       140  19  4.854930E+06  1.118649E+06  1.106138E+06  5.658665E+05 -1.993759E+05  5.243677E+04
       140  20  4.009690E+06  8.459973E+05  7.993321E+05  3.925050E+05 -7.064846E+04  1.553598E+05
       140  21  3.204239E+06  6.436900E+05  5.942730E+05  5.379027E+05  5.766941E+04  1.409458E+05
       140  22  5.379879E+05  4.949794E+04  6.291486E+04  5.449658E+05 -4.301054E+04  5.221366E+04
       140  23  5.289770E+05 -2.415675E+03  2.857092E+04  3.855136E+05 -2.779341E+04  1.553953E+05
       140  24  5.396875E+05 -3.355756E+03  1.767651E+04  5.449044E+05 -1.281131E+04  1.409510E+05
       140  25 -3.761961E+06 -1.020998E+06 -9.815530E+05  5.242098E+05  1.122784E+05  5.197970E+04
       140  26 -2.940473E+06 -8.516430E+05 -7.429336E+05  3.785603E+05  1.482562E+04  1.554300E+05
       140  27 -2.118216E+06 -6.508666E+05 -5.593227E+05  5.518722E+05 -8.299468E+04  1.409546E+05
       141   1  2.544448E+06  4.905318E+05  4.505501E+05  5.478045E+05 -2.684526E+04 -1.036759E+05
       141   2  1.721595E+06  2.885718E+05  2.656619E+05  3.852678E+05 -3.609572E+04 -6.265608E+04
       141   3  9.016981E+05  9.038650E+04  8.768525E+04  5.460182E+05 -4.539991E+04 -1.655734E+04
       141   4  5.363069E+05  2.359708E+03  1.420614E+04  5.459156E+05  1.019036E+04 -1.036634E+05
       141   5  5.358556E+05  3.520339E+02  8.747848E+03  3.842543E+05  5.818715E+03 -6.261260E+04
       141   6  5.368866E+05  1.318772E+03  6.852822E+03  5.459178E+05  1.381378E+03 -1.647601E+04
       141   7 -1.468061E+06 -4.860785E+05 -4.223737E+05  5.440304E+05  4.710808E+04 -1.036511E+05
       141   8 -6.485634E+05 -2.879596E+05 -2.482432E+05  3.832420E+05  4.765433E+04 -6.256920E+04
       141   9  1.722038E+05 -8.775676E+04 -7.397964E+04  5.458173E+05  4.813552E+04 -1.639466E+04
       141  10  2.544444E+06  4.905200E+05  4.505285E+05  5.478023E+05 -1.026962E-09 -7.378595E-10
       141  11  1.721592E+06  2.885672E+05  2.656521E+05  3.852659E+05  3.979745E-10 -4.823957E-10
       141  12  9.016958E+05  9.038565E+04  8.768087E+04  5.460176E+05  2.269580E-09  1.446145E-11
       141  13  5.363039E+05  2.348136E+03  1.418574E+04  5.459165E+05  2.053548E-09 -8.744352E-10
       141  14  5.358545E+05  3.478137E+02  8.740415E+03  3.842546E+05 -1.630628E-09  4.735932E-10
       141  15  5.368865E+05  1.318480E+03  6.852308E+03  5.459178E+05  7.701687E-10  1.016350E-09
       141  16 -1.468067E+06 -4.860906E+05 -4.223981E+05  5.440343E+05  1.936574E-09 -4.740494E-10
       141  17 -6.485669E+05 -2.879644E+05 -2.482548E+05  3.832444E+05  1.665662E-09 -8.560345E-10
       141  18  1.722013E+05 -8.775767E+04 -7.398450E+04  5.458180E+05 -1.430895E-10  3.767293E-10
       141  19  2.544448E+06  4.905318E+05  4.505501E+05  5.478045E+05  2.684526E+04  1.036759E+05
       141  20  1.721595E+06  2.885718E+05  2.656619E+05  3.852678E+05  3.609572E+04  6.265608E+04
       141  21  9.016981E+05  9.038650E+04  8.768525E+04  5.460182E+05  4.539991E+04  1.655734E+04
       141  22  5.363069E+05  2.359708E+03  1.420614E+04  5.459156E+05 -1.019036E+04  1.036634E+05
       141  23  5.358556E+05  3.520339E+02  8.747848E+03  3.842543E+05 -5.818715E+03  6.261260E+04
       141  24  5.368866E+05  1.318772E+03  6.852822E+03  5.459178E+05 -1.381378E+03  1.647601E+04
       141  25 -1.468061E+06 -4.860785E+05 -4.223737E+05  5.440304E+05 -4.710808E+04  1.036511E+05
       141  26 -6.485634E+05 -2.879596E+05 -2.482432E+05  3.832420E+05 -4.765433E+04  6.256920E+04
       141  27  1.722038E+05 -8.775676E+04 -7.397964E+04  5.458173E+05 -4.813552E+04  1.639466E+04
       142   1  2.500343E+05 -6.874228E+04 -5.738962E+04  5.457532E+05 -4.661966E+04  1.219303E+04
       142   2 -5.705892E+05 -2.689364E+05 -2.327437E+05  3.833002E+05 -4.554383E+04  5.838488E+04
       142   3 -1.390243E+06 -4.676492E+05 -4.085190E+05  5.442067E+05 -4.440784E+04  9.957817E+04
       142   4  5.368253E+05  1.390339E+03  6.601813E+03  5.459173E+05  1.118055E+02  1.227496E+04
       142   5  5.359768E+05  4.197954E+02  7.385332E+03  3.842550E+05 -3.639506E+03  5.843084E+04
       142   6  5.362842E+05  1.803127E+03  1.111290E+04  5.459160E+05 -7.329194E+03  9.959464E+04
       142   7  8.236977E+05  7.151855E+04  7.059629E+04  5.460814E+05  4.686462E+04  1.235687E+04
       142   8  1.643695E+06  2.696959E+05  2.474479E+05  3.852109E+05  3.833857E+04  5.847687E+04
       142   9  2.466297E+06  4.710096E+05  4.305273E+05  5.476284E+05  2.986324E+04  9.961127E+04
       142  10  2.500319E+05 -6.874302E+04 -5.739399E+04  5.457537E+05 -1.052985E-09 -7.031636E-10
       142  11 -5.705923E+05 -2.689406E+05 -2.327540E+05  3.833023E+05 -2.065627E-09  9.257652E-10
       142  12 -1.390248E+06 -4.676604E+05 -4.085414E+05  5.442102E+05 -1.165448E-10  9.154083E-10
       142  13  5.368253E+05  1.390177E+03  6.601530E+03  5.459173E+05  1.085753E-09 -2.766489E-10
       142  14  5.359758E+05  4.161246E+02  7.378889E+03  3.842552E+05  2.254691E-10 -9.387873E-10
       142  15  5.362815E+05  1.792458E+03  1.109415E+04  5.459166E+05  2.163631E-09  1.133847E-09
       142  16  8.236953E+05  7.151779E+04  7.059189E+04  5.460809E+05 -1.081623E-09  1.177996E-10
       142  17  1.643693E+06  2.696918E+05  2.474388E+05  3.852091E+05 -1.073701E-09  1.016813E-10
       142  18  2.466293E+06  4.709988E+05  4.305070E+05  5.476260E+05  1.418664E-10  1.219050E-09
       142  19  2.500343E+05 -6.874228E+04 -5.738962E+04  5.457532E+05  4.661966E+04 -1.219303E+04
       142  20 -5.705892E+05 -2.689364E+05 -2.327437E+05  3.833002E+05  4.554383E+04 -5.838488E+04
       142  21 -1.390243E+06 -4.676492E+05 -4.085190E+05  5.442067E+05  4.440784E+04 -9.957817E+04
       142  22  5.368253E+05  1.390339E+03  6.601813E+03  5.459173E+05 -1.118055E+02 -1.227496E+04
       142  23  5.359768E+05  4.197954E+02  7.385332E+03  3.842550E+05  3.639506E+03 -5.843084E+04
       142  24  5.362842E+05  1.803127E+03  1.111290E+04  5.459160E+05  7.329194E+03 -9.959464E+04
       142  25  8.236977E+05  7.151855E+04  7.059629E+04  5.460814E+05 -4.686462E+04 -1.235687E+04
       142  26  1.643695E+06  2.696959E+05  2.474479E+05  3.852109E+05 -3.833857E+04 -5.847687E+04
       142  27  2.466297E+06  4.710096E+05  4.305273E+05  5.476284E+05 -2.986324E+04 -9.961127E+04
       143   1 -2.041119E+06 -6.311223E+05 -5.464961E+05  5.498679E+05 -7.918103E+04  1.367198E+05
       143   2 -2.861551E+06 -8.325987E+05 -7.328491E+05  3.805707E+05  2.049942E+04  1.517605E+05
       143   3 -3.684744E+06 -1.014690E+06 -9.784918E+05  5.302033E+05  1.198306E+05  5.086618E+04
       143   4  5.389115E+05 -2.599528E+03  1.363211E+04  5.449045E+05 -9.396555E+03  1.367233E+05
       143   5  5.301292E+05 -2.420285E+03  2.143886E+04  3.855164E+05 -2.060954E+04  1.517237E+05
       143   6  5.372531E+05  3.640974E+04  4.710959E+04  5.449468E+05 -3.203954E+04  5.107626E+04
       143   7  3.125206E+06  6.254851E+05  5.733817E+05  5.399166E+05  6.067486E+04  1.367256E+05
       143   8  3.932572E+06  8.269797E+05  7.750161E+05  3.904879E+05 -6.194112E+04  1.516866E+05
       143   9  4.775630E+06  1.086211E+06  1.071510E+06  5.597908E+05 -1.849435E+05  5.127876E+04
       143  10 -2.041130E+06 -6.311441E+05 -5.465431E+05  5.498767E+05  1.909493E-09  1.179407E-09
       143  11 -2.861558E+06 -8.326236E+05 -7.328932E+05  3.805682E+05 -7.519007E-11  9.432360E-10
       143  12 -3.684761E+06 -1.014696E+06 -9.785238E+05  5.301984E+05  1.634352E-10  7.810933E-10
       143  13  5.389064E+05 -2.619631E+03  1.359680E+04  5.449056E+05 -8.616264E-10  1.492164E-09
       143  14  5.301226E+05 -2.445127E+03  2.139479E+04  3.855189E+05  2.276727E-09 -7.108030E-10
       143  15  5.372513E+05  3.640667E+04  4.710275E+04  5.449481E+05 -6.047547E-10  4.111444E-10
       143  16  3.125197E+06  6.254640E+05  5.733398E+05  5.399100E+05 -9.606210E-10  1.546707E-09
       143  17  3.932561E+06  8.269540E+05  7.749656E+05  3.904954E+05  9.058688E-10  3.659760E-10
       143  18  4.775593E+06  1.086200E+06  1.071441E+06  5.597984E+05 -1.814219E-09  7.257415E-10
       143  19 -2.041119E+06 -6.311223E+05 -5.464961E+05  5.498679E+05  7.918103E+04 -1.367198E+05
       143  20 -2.861551E+06 -8.325987E+05 -7.328491E+05  3.805707E+05 -2.049942E+04 -1.517605E+05
       143  21 -3.684744E+06 -1.014690E+06 -9.784918E+05  5.302033E+05 -1.198306E+05 -5.086618E+04
       143  22  5.389115E+05 -2.599528E+03  1.363211E+04  5.449045E+05  9.396555E+03 -1.367233E+05
       143  23  5.301292E+05 -2.420285E+03  2.143886E+04  3.855164E+05  2.060954E+04 -1.517237E+05
       143  24  5.372531E+05  3.640974E+04  4.710959E+04  5.449468E+05  3.203954E+04 -5.107626E+04
       143  25  3.125206E+06  6.254851E+05  5.733817E+05  5.399166E+05 -6.067486E+04 -1.367256E+05
       143  26  3.932572E+06  8.269797E+05  7.750161E+05  3.904879E+05  6.194112E+04 -1.516866E+05
       143  27  4.775630E+06  1.086211E+06  1.071510E+06  5.597908E+05  1.849435E+05 -5.127876E+04
       144   1 -9.633461E+05 -3.732210E+06 -9.556985E+05  6.966997E+05 -4.203540E+04 -1.558087E+05
       144   2 -6.515818E+05 -2.682335E+06 -6.200880E+05  4.836769E+05 -1.160083E+05 -4.268682E+04
       144   3 -3.916134E+05 -1.660933E+06 -3.717044E+05  6.745634E+05 -8.501177E+04  7.021713E+04
       144   4 -3.823219E+04 -1.894427E+04 -5.116051E+04  6.878690E+05 -4.148307E+04 -3.455018E+04
       144   5  2.536362E+03 -1.217472E+04 -2.383052E+04  4.858518E+05 -1.158651E+05 -2.161774E+04
       144   6  9.165965E+03 -1.730283E+04 -1.376054E+04  6.876587E+05 -8.547596E+04 -9.096281E+03
       144   7  8.858730E+05  3.706982E+06  8.524320E+05  6.789648E+05 -4.093620E+04  8.743552E+04
       144   8  6.561697E+05  2.664651E+06  5.719807E+05  4.880253E+05 -1.157222E+05 -4.585512E+02
       144   9  4.097696E+05  1.628878E+06  3.440449E+05  7.007842E+05 -8.594277E+04 -8.861736E+04
       144  10 -9.633545E+05 -3.732236E+06 -9.557476E+05  6.966944E+05 -1.052101E-09 -3.043671E-09
       144  11 -6.515968E+05 -2.682341E+06 -6.201168E+05  4.836730E+05  7.751555E-10 -1.454761E-09
       144  12 -3.916225E+05 -1.660941E+06 -3.717273E+05  6.745683E+05  1.769758E-09  9.515634E-10
       144  13 -3.823435E+04 -1.894601E+04 -5.116598E+04  6.878678E+05 -1.220974E-09  1.823402E-09
       144  14  2.521824E+03 -1.217882E+04 -2.385662E+04  4.858497E+05 -2.696519E-09 -2.121572E-09
       144  15  9.158099E+03 -1.730488E+04 -1.377442E+04  6.876581E+05 -1.339173E-09  6.373095E-09
       144  16  8.858691E+05  3.706973E+06  8.524146E+05  6.789677E+05 -1.033833E-09  3.054689E-09
       144  17  6.561553E+05  2.664647E+06  5.719556E+05  4.880253E+05 -6.024011E-09 -2.472338E-09
       144  18  4.097595E+05  1.628868E+06  3.440163E+05  7.007781E+05 -5.413790E-10 -4.086576E-09
       144  19 -9.633461E+05 -3.732210E+06 -9.556985E+05  6.966997E+05  4.203540E+04  1.558087E+05
       144  20 -6.515818E+05 -2.682335E+06 -6.200880E+05  4.836769E+05  1.160083E+05  4.268682E+04
       144  21 -3.916134E+05 -1.660933E+06 -3.717044E+05  6.745634E+05  8.501177E+04 -7.021713E+04
       144  22 -3.823219E+04 -1.894427E+04 -5.116051E+04  6.878690E+05  4.148307E+04  3.455018E+04
       144  23  2.536362E+03 -1.217472E+04 -2.383052E+04  4.858518E+05  1.158651E+05  2.161774E+04
       144  24  9.165965E+03 -1.730283E+04 -1.376054E+04  6.876587E+05  8.547596E+04  9.096281E+03
       144  25  8.858730E+05  3.706982E+06  8.524320E+05  6.789648E+05  4.093620E+04 -8.743552E+04
       144  26  6.561697E+05  2.664651E+06  5.719807E+05  4.880253E+05  1.157222E+05  4.585512E+02
       144  27  4.097696E+05  1.628878E+06  3.440449E+05  7.007842E+05  8.594277E+04  8.861736E+04
       145   1 -1.941943E+05 -8.343604E+05 -1.902151E+05  6.861109E+05 -4.113073E+04  4.359312E+04
       145   2  5.831635E+04  2.040824E+05  4.006135E+04  4.856033E+05  1.186839E+04  4.633067E+04
       145   3  3.120719E+05  1.238467E+06  2.675338E+05  6.933162E+05  6.436763E+04  4.909017E+04
       145   4  5.495830E+03 -1.535260E+04 -1.123708E+04  6.886904E+05 -4.144863E+04 -7.486537E+03
       145   5  5.531108E+03 -1.284663E+04 -6.927563E+03  4.845734E+05  1.156149E+04 -4.303481E+03
       145   6  6.799320E+03 -1.548648E+04 -5.690842E+03  6.886815E+05  6.406795E+04 -1.103236E+03
       145   7  2.051427E+05  8.042896E+05  1.677102E+05  6.912721E+05 -4.176670E+04 -5.863279E+04
       145   8 -4.725587E+04 -2.297260E+05 -5.390963E+04  4.835437E+05  1.125470E+04 -5.492018E+04
       145   9 -2.985763E+05 -1.267963E+06 -2.790005E+05  6.840532E+05  6.376867E+04 -5.119671E+04
       145  10 -1.941967E+05 -8.343629E+05 -1.902218E+05  6.861123E+05  4.888313E-09 -1.895692E-08
       145  11  5.831563E+04  2.040801E+05  4.005705E+04  4.856029E+05  3.289789E-09  7.710535E-10
       145  12  3.120668E+05  1.238463E+06  2.675215E+05  6.933137E+05  1.767198E-09  1.948860E-08
       145  13  5.493971E+03 -1.535312E+04 -1.124041E+04  6.886901E+05  3.704829E-09  2.811205E-09
       145  14  5.530959E+03 -1.284669E+04 -6.927849E+03  4.845734E+05  1.274445E-08 -2.762850E-09
       145  15  6.794912E+03 -1.548758E+04 -5.698558E+03  6.886815E+05  4.538261E-09  6.509944E-09
       145  16  2.051399E+05  8.042855E+05  1.677005E+05  6.912701E+05  1.872043E-09  1.897042E-08
       145  17 -4.725682E+04 -2.297293E+05 -5.391554E+04  4.835442E+05  7.872454E-09 -4.294479E-09
       145  18 -2.985814E+05 -1.267966E+06 -2.790131E+05  6.840559E+05  9.692468E-10 -2.269379E-08
       145  19 -1.941943E+05 -8.343604E+05 -1.902151E+05  6.861109E+05  4.113073E+04 -4.359312E+04
       145  20  5.831635E+04  2.040824E+05  4.006135E+04  4.856033E+05 -1.186839E+04 -4.633067E+04
       145  21  3.120719E+05  1.238467E+06  2.675338E+05  6.933162E+05 -6.436763E+04 -4.909017E+04
       145  22  5.495830E+03 -1.535260E+04 -1.123708E+04  6.886904E+05  4.144863E+04  7.486537E+03
       145  23  5.531108E+03 -1.284663E+04 -6.927563E+03  4.845734E+05 -1.156149E+04  4.303481E+03
       145  24  6.799320E+03 -1.548648E+04 -5.690842E+03  6.886815E+05 -6.406795E+04  1.103236E+03
       145  25  2.051427E+05  8.042896E+05  1.677102E+05  6.912721E+05  4.176670E+04  5.863279E+04
       145  26 -4.725587E+04 -2.297260E+05 -5.390963E+04  4.835437E+05 -1.125470E+04  5.492018E+04
       145  27 -2.985763E+05 -1.267963E+06 -2.790005E+05  6.840532E+05 -6.376867E+04  5.119671E+04
       146   1  5.132053E+05  2.065688E+06  4.461703E+05  6.976546E+05  1.093752E+05  8.130117E+04
       146   2  7.615396E+05  3.096001E+06  6.838591E+05  4.943790E+05  1.359648E+05 -2.618766E+04
       146   3  1.024496E+06  4.144320E+06  9.946605E+05  6.942195E+05  4.699789E+04 -1.334578E+05
       146   4  7.102907E+03 -1.544829E+04 -5.432540E+03  6.875656E+05  1.089230E+05 -5.447808E+02
       146   5  2.142952E+03 -1.528388E+04 -7.471669E+03  4.859722E+05  1.361527E+05  3.341826E+03
       146   6 -7.404023E+03 -1.735361E+04 -1.350871E+04  6.876203E+05  4.756509E+04  7.627772E+03
       146   7 -4.992823E+05 -2.092516E+06 -4.572686E+05  6.775031E+05  1.084726E+05 -8.212067E+04
       146   8 -7.579075E+05 -3.117566E+06 -6.994025E+05  4.775941E+05  1.363403E+05  3.272548E+04
       146   9 -1.040562E+06 -4.163232E+06 -1.022851E+06  6.810421E+05  4.813164E+04  1.477751E+05
       146  10  5.131908E+05  2.065677E+06  4.461354E+05  6.976474E+05  1.460817E-09  1.114575E-09
       146  11  7.615196E+05  3.095996E+06  6.838231E+05  4.943818E+05 -2.698652E-09  1.905098E-10
       146  12  1.024489E+06  4.144300E+06  9.946231E+05  6.942246E+05 -1.283550E-09  1.506904E-09
       146  13  7.090167E+03 -1.545147E+04 -5.454836E+03  6.875657E+05 -1.878853E-09  2.592212E-09
       146  14  2.123044E+03 -1.528887E+04 -7.506524E+03  4.859718E+05 -3.147312E-09 -2.120021E-09
       146  15 -7.406467E+03 -1.735428E+04 -1.351307E+04  6.876201E+05 -1.463213E-09  3.578198E-09
       146  16 -4.992968E+05 -2.092526E+06 -4.573035E+05  6.775102E+05  1.574634E-09 -1.312830E-09
       146  17 -7.579277E+05 -3.117572E+06 -6.994395E+05  4.775905E+05 -1.612713E-09 -2.877626E-09
       146  18 -1.040570E+06 -4.163257E+06 -1.022896E+06  6.810364E+05 -9.098812E-10 -2.934358E-09
       146  19  5.132053E+05  2.065688E+06  4.461703E+05  6.976546E+05 -1.093752E+05 -8.130117E+04
       146  20  7.615396E+05  3.096001E+06  6.838591E+05  4.943790E+05 -1.359648E+05  2.618766E+04
       146  21  1.024496E+06  4.144320E+06  9.946605E+05  6.942195E+05 -4.699789E+04  1.334578E+05
       146  22  7.102907E+03 -1.544829E+04 -5.432540E+03  6.875656E+05 -1.089230E+05  5.447808E+02
       146  23  2.142952E+03 -1.528388E+04 -7.471669E+03  4.859722E+05 -1.361527E+05 -3.341826E+03
       146  24 -7.404023E+03 -1.735361E+04 -1.350871E+04  6.876203E+05 -4.756509E+04 -7.627772E+03
       146  25 -4.992823E+05 -2.092516E+06 -4.572686E+05  6.775031E+05 -1.084726E+05  8.212067E+04
       146  26 -7.579075E+05 -3.117566E+06 -6.994025E+05  4.775941E+05 -1.363403E+05 -3.272548E+04
       146  27 -1.040562E+06 -4.163232E+06 -1.022851E+06  6.810421E+05 -4.813164E+04 -1.477751E+05
       147   1  4.802685E+06  1.083315E+06  1.073444E+06  5.486659E+05  2.003191E+05 -5.022303E+04
       147   2  3.990287E+06  8.105692E+05  7.719228E+05  3.786120E+05  7.363990E+04 -1.487829E+05
       147   3  3.218832E+06  6.156825E+05  5.726362E+05  5.144161E+05 -5.265723E+04 -1.349152E+05
       147   4  6.664320E+05  5.896979E+04  7.391779E+04  5.228063E+05  5.053275E+04 -5.002147E+04
       147   5  6.563455E+05 -2.024375E+03  3.369279E+04  3.698071E+05  3.261861E+04 -1.488160E+05
       147   6  6.680014E+05 -3.700620E+03  2.068971E+04  5.227381E+05  1.491967E+04 -1.349196E+05
       147   7 -3.454221E+06 -9.666093E+05 -9.267510E+05  4.971183E+05 -9.826570E+04 -4.980718E+04
       147   8 -2.667264E+06 -8.153648E+05 -7.052191E+05  3.610486E+05 -8.186336E+03 -1.488481E+05
       147   9 -1.876737E+06 -6.235098E+05 -5.316257E+05  5.310224E+05  8.222364E+04 -1.349221E+05
       147  10  4.802641E+06  1.083302E+06  1.073365E+06  5.486740E+05  4.785297E-10 -5.023916E-10
       147  11  3.990275E+06  8.105440E+05  7.718710E+05  3.786208E+05 -1.011977E-09  3.166954E-10
       147  12  3.218825E+06  6.156622E+05  5.725968E+05  5.144104E+05 -1.608787E-10  5.613953E-10
       147  13  6.664286E+05  5.896642E+04  7.390828E+04  5.228083E+05  1.097788E-09 -2.375095E-10
       147  14  6.563384E+05 -2.048452E+03  3.364915E+04  3.698110E+05  1.648742E-09  1.189162E-09
       147  15  6.679962E+05 -3.720235E+03  2.065506E+04  5.227397E+05 -6.498993E-10  7.051614E-10
       147  16 -3.454232E+06 -9.666145E+05 -9.267739E+05  4.971143E+05 -1.600316E-10  8.117841E-11
       147  17 -2.667270E+06 -8.153886E+05 -7.052609E+05  3.610476E+05 -1.022141E-10  2.688954E-10
       147  18 -1.876749E+06 -6.235312E+05 -5.316727E+05  5.310313E+05  1.986986E-09  8.318219E-10
       147  19  4.802685E+06  1.083315E+06  1.073444E+06  5.486659E+05 -2.003191E+05  5.022303E+04
       147  20  3.990287E+06  8.105692E+05  7.719228E+05  3.786120E+05 -7.363990E+04  1.487829E+05
       147  21  3.218832E+06  6.156825E+05  5.726362E+05  5.144161E+05  5.265723E+04  1.349152E+05
       147  22  6.664320E+05  5.896979E+04  7.391779E+04  5.228063E+05 -5.053275E+04  5.002147E+04
       147  23  6.563455E+05 -2.024375E+03  3.369279E+04  3.698071E+05 -3.261861E+04  1.488160E+05
       147  24  6.680014E+05 -3.700620E+03  2.068971E+04  5.227381E+05 -1.491967E+04  1.349196E+05
       147  25 -3.454221E+06 -9.666093E+05 -9.267510E+05  4.971183E+05  9.826570E+04  4.980718E+04
       147  26 -2.667264E+06 -8.153648E+05 -7.052191E+05  3.610486E+05  8.186336E+03  1.488481E+05
       147  27 -1.876737E+06 -6.235098E+05 -5.316257E+05  5.310224E+05 -8.222364E+04  1.349221E+05
       148   1  2.585435E+06  4.698750E+05  4.340949E+05  5.256640E+05 -2.365335E+04 -9.917746E+04
       148   2  1.796141E+06  2.755715E+05  2.556190E+05  3.696398E+05 -3.345377E+04 -5.983256E+04
       148   3  1.009922E+06  8.547803E+04  8.452340E+04  5.236440E+05 -4.330208E+04 -1.562493E+04
       148   4  6.641586E+05  2.861067E+03  1.666291E+04  5.236734E+05  1.187443E+04 -9.916570E+04
       148   5  6.635856E+05  3.092666E+02  1.025362E+04  3.686434E+05  6.748084E+03 -5.979238E+04
       148   6  6.646902E+05  1.197194E+03  8.015029E+03  5.236761E+05  1.561634E+03 -1.555007E+04
       148   7 -1.253666E+06 -4.643964E+05 -4.009850E+05  5.216868E+05  4.729401E+04 -9.915412E+04
       148   8 -4.677652E+05 -2.750368E+05 -2.351819E+05  3.676482E+05  4.687773E+04 -5.975228E+04
       148   9  3.195738E+05 -8.309060E+04 -6.849318E+04  5.237080E+05  4.640071E+04 -1.547517E+04
       148  10  2.585432E+06  4.698643E+05  4.340754E+05  5.256621E+05  6.937777E-09  7.566748E-10
       148  11  1.796138E+06  2.755674E+05  2.556101E+05  3.696382E+05 -1.103286E-08  5.417545E-11
       148  12  1.009920E+06  8.547726E+04  8.451943E+04  5.236435E+05 -2.689731E-08 -2.623173E-09
       148  13  6.641558E+05  2.850464E+03  1.664415E+04  5.236743E+05 -1.042976E-09  9.678778E-10
       148  14  6.635846E+05  3.054137E+02  1.024682E+04  3.686437E+05  9.697383E-10 -2.627212E-10
       148  15  6.646901E+05  1.196933E+03  8.014569E+03  5.236761E+05  9.102456E-10 -2.878369E-09
       148  16 -1.253671E+06 -4.644076E+05 -4.010078E+05  5.216906E+05 -8.236436E-09  1.332477E-09
       148  17 -4.677685E+05 -2.750412E+05 -2.351927E+05  3.676504E+05  1.338004E-08 -7.862156E-10
       148  18  3.195714E+05 -8.309143E+04 -6.849767E+04  5.237086E+05  2.821007E-08 -1.734999E-09
       148  19  2.585435E+06  4.698750E+05  4.340949E+05  5.256640E+05  2.365335E+04  9.917746E+04
       148  20  1.796141E+06  2.755715E+05  2.556190E+05  3.696398E+05  3.345377E+04  5.983256E+04
       148  21  1.009922E+06  8.547803E+04  8.452340E+04  5.236440E+05  4.330208E+04  1.562493E+04
       148  22  6.641586E+05  2.861067E+03  1.666291E+04  5.236734E+05 -1.187443E+04  9.916570E+04
       148  23  6.635856E+05  3.092666E+02  1.025362E+04  3.686434E+05 -6.748084E+03  5.979238E+04
       148  24  6.646902E+05  1.197194E+03  8.015029E+03  5.236761E+05 -1.561634E+03  1.555007E+04
       148  25 -1.253666E+06 -4.643964E+05 -4.009850E+05  5.216868E+05 -4.729401E+04  9.915412E+04
       148  26 -4.677652E+05 -2.750368E+05 -2.351819E+05  3.676482E+05 -4.687773E+04  5.975228E+04
       148  27  3.195738E+05 -8.309060E+04 -6.849318E+04  5.237080E+05 -4.640071E+04  1.547517E+04
       149   1  3.849908E+05 -6.708998E+04 -5.461595E+04  5.236093E+05 -4.472367E+04  1.194384E+04
       149   2 -4.021868E+05 -2.590452E+05 -2.225272E+05  3.677079E+05 -4.451266E+04  5.623568E+04
       149   3 -1.188253E+06 -4.490951E+05 -3.901868E+05  5.218946E+05 -4.424507E+04  9.573115E+04
       149   4  6.646239E+05  1.275296E+03  7.736539E+03  5.236741E+05  9.603896E+01  1.201919E+04
       149   5  6.637045E+05  3.660534E+02  8.733345E+03  3.686460E+05 -4.324979E+03  5.627785E+04
       149   6  6.641237E+05  2.203209E+03  1.321529E+04  5.236723E+05 -8.689208E+03  9.574609E+04
       149   7  9.443342E+05  6.963634E+04  7.009168E+04  5.237389E+05  4.493570E+04  1.209453E+04
       149   8  1.730665E+06  2.597030E+05  2.399323E+05  3.695851E+05  3.593082E+04  5.632008E+04
       149   9  2.519721E+06  4.532743E+05  4.164163E+05  5.254534E+05  2.697155E+04  9.576120E+04
       149  10  3.849886E+05 -6.709067E+04 -5.461998E+04  5.236097E+05  3.142325E-08 -1.009486E-09
       149  11 -4.021898E+05 -2.590491E+05 -2.225369E+05  3.677100E+05  1.465883E-08 -3.513065E-10
       149  12 -1.188258E+06 -4.491055E+05 -3.902077E+05  5.218980E+05 -3.975229E-09 -4.004123E-10
       149  13  6.646239E+05  1.275141E+03  7.736267E+03  5.236741E+05 -1.052324E-09 -2.358954E-09
       149  14  6.637036E+05  3.626461E+02  8.727356E+03  3.686462E+05  5.155986E-12 -5.895916E-10
       149  15  6.641211E+05  2.193340E+03  1.319791E+04  5.236730E+05  5.736283E-11  3.881606E-10
       149  16  9.443320E+05  6.963565E+04  7.008761E+04  5.237384E+05 -3.211305E-08 -2.985822E-09
       149  17  1.730663E+06  2.596993E+05  2.399239E+05  3.695835E+05 -1.437817E-08 -1.676624E-09
       149  18  2.519718E+06  4.532643E+05  4.163977E+05  5.254513E+05  4.613248E-09  6.954940E-11
       149  19  3.849908E+05 -6.708998E+04 -5.461595E+04  5.236093E+05  4.472367E+04 -1.194384E+04
       149  20 -4.021868E+05 -2.590452E+05 -2.225272E+05  3.677079E+05  4.451266E+04 -5.623568E+04
       149  21 -1.188253E+06 -4.490951E+05 -3.901868E+05  5.218946E+05  4.424507E+04 -9.573115E+04
       149  22  6.646239E+05  1.275296E+03  7.736539E+03  5.236741E+05 -9.603896E+01 -1.201919E+04
       149  23  6.637045E+05  3.660534E+02  8.733345E+03  3.686460E+05  4.324979E+03 -5.627785E+04
       149  24  6.641237E+05  2.203209E+03  1.321529E+04  5.236723E+05  8.689208E+03 -9.574609E+04
       149  25  9.443342E+05  6.963634E+04  7.009168E+04  5.237389E+05 -4.493570E+04 -1.209453E+04
       149  26  1.730665E+06  2.597030E+05  2.399323E+05  3.695851E+05 -3.593082E+04 -5.632008E+04
       149  27  2.519721E+06  4.532743E+05  4.164163E+05  5.254534E+05 -2.697155E+04 -9.576120E+04
       150   1 -1.812115E+06 -6.067469E+05 -5.219464E+05  5.288382E+05 -7.808787E+04  1.313629E+05
       150   2 -2.600603E+06 -7.994063E+05 -6.986934E+05  3.633671E+05  1.491941E+04  1.457618E+05
       150   3 -3.389439E+06 -9.649280E+05 -9.284857E+05  5.039458E+05  1.076069E+05  4.886553E+04
       150   4  6.671324E+05 -2.901919E+03  1.618448E+04  5.227469E+05 -1.111698E+04  1.313660E+05
       150   5  6.575797E+05 -2.085468E+03  2.573888E+04  3.697992E+05 -2.461109E+04  1.457281E+05
       150   6  6.655984E+05  4.433871E+04  5.630983E+04  5.227951E+05 -3.830557E+04  4.906051E+04
       150   7  3.152163E+06  6.005386E+05  5.539659E+05  5.166277E+05  5.611846E+04  1.313677E+05
       150   8  3.925691E+06  7.945175E+05  7.495156E+05  3.762642E+05 -6.434712E+04  1.456938E+05
       150   9  4.735740E+06  1.052410E+06  1.039998E+06  5.417679E+05 -1.851715E+05  4.924629E+04
       150  10 -1.812126E+06 -6.067671E+05 -5.219904E+05  5.288465E+05  3.790155E-09  1.367226E-10
       150  11 -2.600609E+06 -7.994292E+05 -6.987337E+05  3.633653E+05  1.700504E-09  8.116271E-10
       150  12 -3.389452E+06 -9.649337E+05 -9.285121E+05  5.039415E+05  2.319671E-10  9.985620E-10
       150  13  6.671276E+05 -2.920490E+03  1.615180E+04  5.227481E+05  8.420440E-10 -1.668877E-10
       150  14  6.575733E+05 -2.108445E+03  2.569781E+04  3.698021E+05  1.017082E-09 -1.293739E-09
       150  15  6.655961E+05  4.433573E+04  5.630254E+04  5.227966E+05  2.317148E-09 -1.400543E-09
       150  16  3.152155E+06  6.005192E+05  5.539276E+05  5.166218E+05 -2.801241E-09  2.108652E-10
       150  17  3.925681E+06  7.944936E+05  7.494679E+05  3.762717E+05 -4.276536E-09 -1.594481E-09
       150  18  4.735703E+06  1.052398E+06  1.039930E+06  5.417752E+05  1.313700E-09 -2.432508E-09
       150  19 -1.812115E+06 -6.067469E+05 -5.219464E+05  5.288382E+05  7.808787E+04 -1.313629E+05
       150  20 -2.600603E+06 -7.994063E+05 -6.986934E+05  3.633671E+05 -1.491941E+04 -1.457618E+05
       150  21 -3.389439E+06 -9.649280E+05 -9.284857E+05  5.039458E+05 -1.076069E+05 -4.886553E+04
       150  22  6.671324E+05 -2.901919E+03  1.618448E+04  5.227469E+05  1.111698E+04 -1.313660E+05
       150  23  6.575797E+05 -2.085468E+03  2.573888E+04  3.697992E+05  2.461109E+04 -1.457281E+05
       150  24  6.655984E+05  4.433871E+04  5.630983E+04  5.227951E+05  3.830557E+04 -4.906051E+04
       150  25  3.152163E+06  6.005386E+05  5.539659E+05  5.166277E+05 -5.611846E+04 -1.313677E+05
       150  26  3.925691E+06  7.945175E+05  7.495156E+05  3.762642E+05  6.434712E+04 -1.456938E+05
       150  27  4.735740E+06  1.052410E+06  1.039998E+06  5.417679E+05  1.851715E+05 -4.924629E+04
       151   1 -9.422424E+05 -3.587114E+06 -9.367525E+05  6.736444E+05 -4.073859E+04 -1.598003E+05
       151   2 -6.321746E+05 -2.579408E+06 -6.073010E+05  4.658285E+05 -1.126375E+05 -4.732360E+04
       151   3 -3.825550E+05 -1.602158E+06 -3.667706E+05  6.450213E+05 -8.316638E+04  6.495731E+04
       151   4 -4.814580E+04  2.241938E+03 -6.255191E+04  6.592620E+05 -4.022413E+04 -4.227054E+04
       151   5  2.125763E+03  1.019882E+04 -2.914977E+04  4.656718E+05 -1.125021E+05 -2.655216E+04
       151   6  9.017022E+03  3.766643E+03 -1.709470E+04  6.590171E+05 -8.359407E+04 -1.121396E+04
       151   7  8.450092E+05  3.603427E+06  8.107659E+05  6.447777E+05 -3.971693E+04  7.594046E+04
       151   8  6.359702E+05  2.606074E+06  5.485819E+05  4.655047E+05 -1.123669E+05 -5.694556E+03
       151   9  4.004212E+05  1.612126E+06  3.324484E+05  6.730450E+05 -8.402454E+04 -8.758008E+04
       151  10 -9.422510E+05 -3.587142E+06 -9.368038E+05  6.736391E+05 -9.985973E-10  2.511249E-10
       151  11 -6.321888E+05 -2.579414E+06 -6.073290E+05  4.658242E+05  1.262091E-10 -2.647063E-09
       151  12 -3.825635E+05 -1.602165E+06 -3.667916E+05  6.450257E+05  9.728702E-10 -1.179571E-08
       151  13 -4.814801E+04  2.239588E+03 -6.255830E+04  6.592606E+05 -3.833191E-09  5.360840E-12
       151  14  2.111986E+03  1.019466E+04 -2.917487E+04  4.656693E+05  2.435926E-10  4.564928E-09
       151  15  9.009486E+03  3.764634E+03 -1.710807E+04  6.590163E+05  2.115026E-09  1.729539E-09
       151  16  8.450060E+05  3.603420E+06  8.107522E+05  6.447802E+05 -4.830625E-10 -1.039222E-09
       151  17  6.359567E+05  2.606071E+06  5.485581E+05  4.655042E+05 -2.060328E-09  8.439101E-09
       151  18  4.004116E+05  1.612116E+06  3.324208E+05  6.730390E+05  1.802556E-09  1.169489E-08
       151  19 -9.422424E+05 -3.587114E+06 -9.367525E+05  6.736444E+05  4.073859E+04  1.598003E+05
       151  20 -6.321746E+05 -2.579408E+06 -6.073010E+05  4.658285E+05  1.126375E+05  4.732360E+04
       151  21 -3.825550E+05 -1.602158E+06 -3.667706E+05  6.450213E+05  8.316638E+04 -6.495731E+04
       151  22 -4.814580E+04  2.241938E+03 -6.255191E+04  6.592620E+05  4.022413E+04  4.227054E+04
       151  23  2.125763E+03  1.019882E+04 -2.914977E+04  4.656718E+05  1.125021E+05  2.655216E+04
       151  24  9.017022E+03  3.766643E+03 -1.709470E+04  6.590171E+05  8.359407E+04  1.121396E+04
       151  25  8.450092E+05  3.603427E+06  8.107659E+05  6.447777E+05  3.971693E+04 -7.594046E+04
       151  26  6.359702E+05  2.606074E+06  5.485819E+05  4.655047E+05  1.123669E+05  5.694556E+03
       151  27  4.004212E+05  1.612126E+06  3.324484E+05  6.730450E+05  8.402454E+04  8.758008E+04
       152   1 -1.944653E+05 -8.095094E+05 -1.922572E+05  6.577907E+05 -4.105234E+04  3.978823E+04
       152   2  4.816983E+04  1.856468E+05  2.941517E+04  4.652864E+05  9.702988E+03  4.362207E+04
       152   3  2.910211E+05  1.176637E+06  2.474132E+05  6.639384E+05  6.005038E+04  4.747559E+04
       152   4  4.414866E+03  6.242486E+03 -1.402889E+04  6.600192E+05 -4.134462E+04 -9.089871E+03
       152   5  5.129741E+03  8.767676E+03 -8.898873E+03  4.644339E+05  9.419576E+03 -4.894813E+03
       152   6  6.058444E+03  6.137856E+03 -7.655516E+03  6.600088E+05  5.977238E+04 -6.863021E+02
       152   7  2.032520E+05  8.226233E+05  1.641682E+05  6.622493E+05 -4.163702E+04 -5.803144E+04
       152   8 -3.791115E+04 -1.680771E+05 -4.720593E+04  4.635817E+05  9.136251E+03 -5.339806E+04
       152   9 -2.789939E+05 -1.163074E+06 -2.627979E+05  6.560841E+05  5.949468E+04 -4.875868E+04
       152  10 -1.944676E+05 -8.095115E+05 -1.922634E+05  6.577920E+05  2.399393E-09  1.597234E-08
       152  11  4.816922E+04  1.856447E+05  2.941142E+04  4.652860E+05 -1.329395E-09  1.430217E-08
       152  12  2.910166E+05  1.176634E+06  2.474022E+05  6.639361E+05 -2.020388E-09 -3.416245E-09
       152  13  4.413009E+03  6.241939E+03 -1.403225E+04  6.600188E+05  3.181798E-09  1.322752E-10
       152  14  5.129639E+03  8.767627E+03 -8.899085E+03  4.644339E+05  5.449275E-09  5.512656E-09
       152  15  6.054607E+03  6.136897E+03 -7.662231E+03  6.600088E+05  9.448751E-10  1.516058E-09
       152  16  2.032493E+05  8.226192E+05  1.641587E+05  6.622474E+05  1.671546E-09 -1.724691E-08
       152  17 -3.791200E+04 -1.680801E+05 -4.721144E+04  4.635821E+05  5.181420E-09 -5.987533E-09
       152  18 -2.789984E+05 -1.163078E+06 -2.628090E+05  6.560865E+05 -5.317750E-10  3.248816E-09
       152  19 -1.944653E+05 -8.095094E+05 -1.922572E+05  6.577907E+05  4.105234E+04 -3.978823E+04
       152  20  4.816983E+04  1.856468E+05  2.941517E+04  4.652864E+05 -9.702988E+03 -4.362207E+04
       152  21  2.910211E+05  1.176637E+06  2.474132E+05  6.639384E+05 -6.005038E+04 -4.747559E+04
       152  22  4.414866E+03  6.242486E+03 -1.402889E+04  6.600192E+05  4.134462E+04  9.089871E+03
       152  23  5.129741E+03  8.767676E+03 -8.898873E+03  4.644339E+05 -9.419576E+03  4.894813E+03
       152  24  6.058444E+03  6.137856E+03 -7.655516E+03  6.600088E+05 -5.977238E+04  6.863021E+02
       152  25  2.032520E+05  8.226233E+05  1.641682E+05  6.622493E+05  4.163702E+04  5.803144E+04
       152  26 -3.791115E+04 -1.680771E+05 -4.720593E+04  4.635817E+05 -9.136251E+03  5.339806E+04
       152  27 -2.789939E+05 -1.163074E+06 -2.627979E+05  6.560841E+05 -5.949468E+04  4.875868E+04
       153   1  4.842538E+05  1.968909E+06  4.184755E+05  6.689587E+05  1.031136E+05  7.848883E+04
       153   2  7.220867E+05  2.957000E+06  6.452825E+05  4.724782E+05  1.288456E+05 -2.206626E+04
       153   3  9.686201E+05  3.960575E+06  9.392311E+05  6.623261E+05  4.462448E+04 -1.224116E+05
       153   4  6.843152E+03  5.902539E+03 -7.548339E+03  6.589477E+05  1.026948E+05  2.327938E+02
       153   5  1.982874E+03  6.910676E+03 -1.033891E+04  4.657617E+05  1.290160E+05  5.626065E+03
       153   6 -1.246865E+04  4.171331E+03 -1.935788E+04  6.590209E+05  4.514833E+04  1.139072E+04
       153   7 -4.708190E+05 -1.953484E+06 -4.337791E+05  6.489620E+05  1.022778E+05 -7.777965E+04
       153   8 -7.187089E+05 -2.935083E+06 -6.665001E+05  4.590655E+05  1.291862E+05  3.318867E+04
       153   9 -9.946940E+05 -3.937956E+06 -9.790073E+05  6.557165E+05  4.567280E+04  1.443468E+05
       153  10  4.842408E+05  1.968899E+06  4.184440E+05  6.689522E+05 -7.920759E-10  2.351254E-09
       153  11  7.220688E+05  2.956995E+06  6.452504E+05  4.724804E+05 -1.651877E-09  6.056860E-09
       153  12  9.686140E+05  3.960559E+06  9.391993E+05  6.623305E+05 -8.274502E-10  4.736507E-10
       153  13  6.831827E+03  5.899708E+03 -7.568158E+03  6.589477E+05 -3.306424E-09 -6.859413E-11
       153  14  1.964992E+03  6.906174E+03 -1.037024E+04  4.657611E+05 -1.579393E-09  4.145859E-09
       153  15 -1.247087E+04  4.170645E+03 -1.936195E+04  6.590205E+05  6.689480E-10  8.908955E-10
       153  16 -4.708319E+05 -1.953493E+06 -4.338102E+05  6.489684E+05  3.197415E-10 -3.856194E-09
       153  17 -7.187271E+05 -2.935089E+06 -6.665335E+05  4.590620E+05 -1.100118E-09  8.677148E-12
       153  18 -9.947019E+05 -3.937979E+06 -9.790506E+05  6.557112E+05 -3.677486E-10 -1.542791E-10
       153  19  4.842538E+05  1.968909E+06  4.184755E+05  6.689587E+05 -1.031136E+05 -7.848883E+04
       153  20  7.220867E+05  2.957000E+06  6.452825E+05  4.724782E+05 -1.288456E+05  2.206626E+04
       153  21  9.686201E+05  3.960575E+06  9.392311E+05  6.623261E+05 -4.462448E+04  1.224116E+05
       153  22  6.843152E+03  5.902539E+03 -7.548339E+03  6.589477E+05 -1.026948E+05 -2.327938E+02
       153  23  1.982874E+03  6.910676E+03 -1.033891E+04  4.657617E+05 -1.290160E+05 -5.626065E+03
       153  24 -1.246865E+04  4.171331E+03 -1.935788E+04  6.590209E+05 -4.514833E+04 -1.139072E+04
       153  25 -4.708190E+05 -1.953484E+06 -4.337791E+05  6.489620E+05 -1.022778E+05  7.777965E+04
       153  26 -7.187089E+05 -2.935083E+06 -6.665001E+05  4.590655E+05 -1.291862E+05 -3.318867E+04
       153  27 -9.946940E+05 -3.937956E+06 -9.790073E+05  6.557165E+05 -4.567280E+04 -1.443468E+05
       154   1  4.759832E+06  1.046799E+06  1.040300E+06  5.299172E+05  2.032386E+05 -4.782095E+04
       154   2  3.984404E+06  7.720622E+05  7.434198E+05  3.630596E+05  7.814982E+04 -1.416528E+05
       154   3  3.251827E+06  5.854877E+05  5.502528E+05  4.874142E+05 -4.658174E+04 -1.284523E+05
       154   4  8.215200E+05  7.155600E+04  8.866482E+04  4.976376E+05  6.060397E+04 -4.763753E+04
       154   5  8.099349E+05 -1.600613E+03  4.055337E+04  3.519623E+05  3.907144E+04 -1.416822E+05
       154   6  8.229544E+05 -4.221936E+03  2.475279E+04  4.975582E+05  1.773708E+04 -1.284581E+05
       154   7 -3.102649E+06 -9.048029E+05 -8.640057E+05  4.655620E+05 -8.113506E+04 -4.743907E+04
       154   8 -2.355168E+06 -7.759402E+05 -6.629311E+05  3.409210E+05  1.892361E+02 -1.417104E+05
       154   9 -1.600395E+06 -5.943176E+05 -5.010815E+05  5.076594E+05  8.180856E+04 -1.284617E+05
       154  10  4.759787E+06  1.046785E+06  1.040219E+06  5.299250E+05 -1.908432E-09  5.434805E-11
       154  11  3.984392E+06  7.720391E+05  7.433706E+05  3.630685E+05 -1.314467E-09 -1.068654E-09
       154  12  3.251820E+06  5.854694E+05  5.502177E+05  4.874094E+05  9.245030E-10 -1.068142E-09
       154  13  8.215154E+05  7.155258E+04  8.865365E+04  4.976399E+05  1.874382E-09  1.835422E-09
       154  14  8.099278E+05 -1.622590E+03  4.051275E+04  3.519667E+05  2.237321E-09  1.508265E-10
       154  15  8.229496E+05 -4.239749E+03  2.472117E+04  4.975600E+05  4.169564E-11 -9.124162E-10
       154  16 -3.102657E+06 -9.048071E+05 -8.640224E+05  4.655589E+05  5.826502E-10 -4.917632E-10
       154  17 -2.355174E+06 -7.759618E+05 -6.629689E+05  3.409210E+05 -6.147186E-10 -7.305909E-11
       154  18 -1.600407E+06 -5.943371E+05 -5.011252E+05  5.076678E+05 -1.701656E-09 -1.052217E-09
       154  19  4.759832E+06  1.046799E+06  1.040300E+06  5.299172E+05 -2.032386E+05  4.782095E+04
       154  20  3.984404E+06  7.720622E+05  7.434198E+05  3.630596E+05 -7.814982E+04  1.416528E+05
       154  21  3.251827E+06  5.854877E+05  5.502528E+05  4.874142E+05  4.658174E+04  1.284523E+05
       154  22  8.215200E+05  7.155600E+04  8.866482E+04  4.976376E+05 -6.060397E+04  4.763753E+04
       154  23  8.099349E+05 -1.600613E+03  4.055337E+04  3.519623E+05 -3.907144E+04  1.416822E+05
       154  24  8.229544E+05 -4.221936E+03  2.475279E+04  4.975582E+05 -1.773708E+04  1.284581E+05
       154  25 -3.102649E+06 -9.048029E+05 -8.640057E+05  4.655620E+05  8.113506E+04  4.743907E+04
       154  26 -2.355168E+06 -7.759402E+05 -6.629311E+05  3.409210E+05 -1.892361E+02  1.417104E+05
       154  27 -1.600395E+06 -5.943176E+05 -5.010815E+05  5.076594E+05 -8.180856E+04  1.284617E+05
       155   1  2.648235E+06  4.482024E+05  4.174800E+05  5.005232E+05 -1.968530E+04 -9.444010E+04
       155   2  1.896994E+06  2.625073E+05  2.461016E+05  3.518665E+05 -3.029430E+04 -5.700549E+04
       155   3  1.149005E+06  8.159557E+04  8.277425E+04  4.982258E+05 -4.094540E+04 -1.494570E+04
       155   4  8.184809E+05  3.487474E+03  1.998201E+04  4.984170E+05  1.411728E+04 -9.443035E+04
       155   5  8.177369E+05  2.355411E+02  1.231700E+04  3.508953E+05  7.958566E+03 -5.697010E+04
       155   6  8.189640E+05  1.038785E+03  9.654477E+03  4.984203E+05  1.745335E+03 -1.487901E+04
       155   7 -1.008142E+06 -4.414483E+05 -3.777117E+05  4.963153E+05  4.782181E+04 -9.442079E+04
       155   8 -2.604276E+05 -2.621123E+05 -2.215313E+05  3.499251E+05  4.614597E+04 -5.693480E+04
       155   9  4.890282E+05 -7.952437E+04 -6.346520E+04  4.986145E+05  4.441367E+04 -1.481227E+04
       155  10  2.648232E+06  4.481927E+05  4.174625E+05  5.005217E+05 -2.350743E-09 -3.632285E-10
       155  11  1.896993E+06  2.625036E+05  2.460938E+05  3.518651E+05  7.406094E-10  1.655045E-09
       155  12  1.149003E+06  8.159488E+04  8.277068E+04  4.982253E+05  4.540036E-09  1.139512E-10
       155  13  8.184783E+05  3.477841E+03  1.996486E+04  4.984181E+05  2.432378E-09  3.398924E-10
       155  14  8.177359E+05  2.320372E+02  1.231078E+04  3.508956E+05 -1.840586E-10  2.552657E-09
       155  15  8.189639E+05  1.038546E+03  9.654055E+03  4.984203E+05 -1.085157E-09 -3.640630E-10
       155  16 -1.008147E+06 -4.414585E+05 -3.777328E+05  4.963189E+05  8.052023E-10 -6.636258E-10
       155  17 -2.604307E+05 -2.621163E+05 -2.215414E+05  3.499273E+05 -5.857939E-10  2.313761E-09
       155  18  4.890260E+05 -7.952513E+04 -6.346932E+04  4.986150E+05 -1.853377E-09  5.808662E-10
       155  19  2.648235E+06  4.482024E+05  4.174800E+05  5.005232E+05  1.968530E+04  9.444010E+04
       155  20  1.896994E+06  2.625073E+05  2.461016E+05  3.518665E+05  3.029430E+04  5.700549E+04
       155  21  1.149005E+06  8.159557E+04  8.277425E+04  4.982258E+05  4.094540E+04  1.494570E+04
       155  22  8.184809E+05  3.487474E+03  1.998201E+04  4.984170E+05 -1.411728E+04  9.443035E+04
       155  23  8.177369E+05  2.355411E+02  1.231700E+04  3.508953E+05 -7.958566E+03  5.697010E+04
       155  24  8.189640E+05  1.038785E+03  9.654477E+03  4.984203E+05 -1.745335E+03  1.487901E+04
       155  25 -1.008142E+06 -4.414483E+05 -3.777117E+05  4.963153E+05 -4.782181E+04  9.442079E+04
       155  26 -2.604276E+05 -2.621123E+05 -2.215313E+05  3.499251E+05 -4.614597E+04  5.693480E+04
       155  27  4.890282E+05 -7.952437E+04 -6.346520E+04  4.986145E+05 -4.441367E+04  1.481227E+04
       156   1  5.544306E+05 -6.352592E+04 -4.960800E+04  4.985003E+05 -4.264873E+04  1.128193E+04
       156   2 -1.948485E+05 -2.461268E+05 -2.089623E+05  3.499875E+05 -4.365170E+04  5.341926E+04
       156   3 -9.427367E+05 -4.261974E+05 -3.671035E+05  4.965343E+05 -4.460224E+04  9.099854E+04
       156   4  8.188947E+05  1.120600E+03  9.361361E+03  4.984162E+05 -1.985648E-01  1.134911E+04
       156   5  8.178578E+05  2.903024E+02  1.071460E+04  3.509005E+05 -5.406603E+03  5.345652E+04
       156   6  8.184416E+05  2.784277E+03  1.634923E+04  4.984138E+05 -1.076173E+04  9.101130E+04
       156   7  1.083428E+06  6.576335E+04  6.833316E+04  4.983319E+05  4.266629E+04  1.141625E+04
       156   8  1.831529E+06  2.466404E+05  2.303359E+05  3.518145E+05  3.290007E+04  5.349386E+04
       156   9  2.582531E+06  4.315608E+05  3.996202E+05  5.002970E+05  2.317366E+04  9.102423E+04
       156  10  5.544286E+05 -6.352655E+04 -4.961165E+04  4.985007E+05  1.840700E-09  5.100305E-10
       156  11 -1.948513E+05 -2.461304E+05 -2.089713E+05  3.499894E+05 -3.228824E-10 -1.077541E-09
       156  12 -9.427410E+05 -4.262069E+05 -3.671228E+05  4.965376E+05 -1.007819E-09 -8.536497E-10
       156  13  8.188947E+05  1.120462E+03  9.361119E+03  4.984162E+05 -1.085420E-09 -9.702329E-10
       156  14  8.178570E+05  2.872246E+02  1.070917E+04  3.509007E+05  1.113960E-09 -7.174126E-10
       156  15  8.184393E+05  2.775347E+03  1.633344E+04  4.984146E+05 -1.711763E-09 -3.902637E-10
       156  16  1.083426E+06  6.576273E+04  6.832951E+04  4.983315E+05 -1.631755E-09 -1.220418E-09
       156  17  1.831527E+06  2.466370E+05  2.303285E+05  3.518131E+05 -1.063041E-09 -1.408672E-09
       156  18  2.582528E+06  4.315517E+05  3.996037E+05  5.002953E+05  1.123242E-09  4.921089E-10
       156  19  5.544306E+05 -6.352592E+04 -4.960800E+04  4.985003E+05  4.264873E+04 -1.128193E+04
       156  20 -1.948485E+05 -2.461268E+05 -2.089623E+05  3.499875E+05  4.365170E+04 -5.341926E+04
       156  21 -9.427367E+05 -4.261974E+05 -3.671035E+05  4.965343E+05  4.460224E+04 -9.099854E+04
       156  22  8.188947E+05  1.120600E+03  9.361361E+03  4.984162E+05  1.985648E-01 -1.134911E+04
       156  23  8.178578E+05  2.903024E+02  1.071460E+04  3.509005E+05  5.406603E+03 -5.345652E+04
       156  24  8.184416E+05  2.784277E+03  1.634923E+04  4.984138E+05  1.076173E+04 -9.101130E+04
       156  25  1.083428E+06  6.576335E+04  6.833316E+04  4.983319E+05 -4.266629E+04 -1.141625E+04
       156  26  1.831529E+06  2.466404E+05  2.303359E+05  3.518145E+05 -3.290007E+04 -5.349386E+04
       156  27  2.582531E+06  4.315608E+05  3.996202E+05  5.002970E+05 -2.317366E+04 -9.102423E+04
       157   1 -1.535802E+06 -5.775240E+05 -4.916440E+05  5.053768E+05 -7.746882E+04  1.249029E+05
       157   2 -2.288413E+06 -7.599966E+05 -6.568296E+05  3.433754E+05  6.973743E+03  1.386230E+05
       157   3 -3.037827E+06 -9.039051E+05 -8.666683E+05  4.728017E+05  9.112883E+04  4.649482E+04
       157   4  8.220378E+05 -3.392390E+03  2.000619E+04  4.975765E+05 -1.373046E+04  1.249046E+05
       157   5  8.112219E+05 -1.680522E+03  3.217080E+04  3.519425E+05 -3.063336E+04  1.385933E+05
       157   6  8.206388E+05  5.612850E+04  7.011417E+04  4.976345E+05 -4.771970E+04  4.667504E+04
       157   7  3.185106E+06  5.703737E+05  5.313405E+05  4.897435E+05  5.024726E+04  1.249046E+05
       157   8  3.919838E+06  7.559863E+05  7.205782E+05  3.605518E+05 -6.842634E+04  1.385628E+05
       157   9  4.692775E+06  1.015081E+06  1.005895E+06  5.226223E+05 -1.874310E+05  4.684383E+04
       157  10 -1.535813E+06 -5.775424E+05 -4.916847E+05  5.053846E+05  4.894007E-10 -5.306667E-10
       157  11 -2.288418E+06 -7.600172E+05 -6.568658E+05  3.433747E+05 -1.335163E-09 -3.016226E-10
       157  12 -3.037836E+06 -9.039096E+05 -8.666880E+05  4.727983E+05 -2.091809E-09 -9.248669E-10
       157  13  8.220334E+05 -3.409202E+03  1.997650E+04  4.975779E+05  1.582524E-09 -3.061246E-10
       157  14  8.112157E+05 -1.701411E+03  3.213292E+04  3.519459E+05 -2.343072E-09 -3.357306E-10
       157  15  8.206358E+05  5.612555E+04  7.010580E+04  4.976363E+05 -1.498894E-10  5.458791E-10
       157  16  3.185099E+06  5.703563E+05  5.313065E+05  4.897384E+05 -1.142967E-10  6.126996E-10
       157  17  3.919828E+06  7.559644E+05  7.205333E+05  3.605595E+05  1.486715E-09  2.141824E-10
       157  18  4.692736E+06  1.015069E+06  1.005825E+06  5.226293E+05  2.770191E-09 -1.635790E-09
       157  19 -1.535802E+06 -5.775240E+05 -4.916440E+05  5.053768E+05  7.746882E+04 -1.249029E+05
       157  20 -2.288413E+06 -7.599966E+05 -6.568296E+05  3.433754E+05 -6.973743E+03 -1.386230E+05
       157  21 -3.037827E+06 -9.039051E+05 -8.666683E+05  4.728017E+05 -9.112883E+04 -4.649482E+04
       157  22  8.220378E+05 -3.392390E+03  2.000619E+04  4.975765E+05  1.373046E+04 -1.249046E+05
       157  23  8.112219E+05 -1.680522E+03  3.217080E+04  3.519425E+05  3.063336E+04 -1.385933E+05
       157  24  8.206388E+05  5.612850E+04  7.011417E+04  4.976345E+05  4.771970E+04 -4.667504E+04
       157  25  3.185106E+06  5.703737E+05  5.313405E+05  4.897435E+05 -5.024726E+04 -1.249046E+05
       157  26  3.919838E+06  7.559863E+05  7.205782E+05  3.605518E+05  6.842634E+04 -1.385628E+05
       157  27  4.692775E+06  1.015081E+06  1.005895E+06  5.226223E+05  1.874310E+05 -4.684383E+04
       158   1 -8.951589E+05 -3.328620E+06 -8.922279E+05  6.305190E+05 -3.828466E+04 -1.605231E+05
       158   2 -5.949220E+05 -2.393884E+06 -5.778997E+05  4.338892E+05 -1.061131E+05 -5.165185E+04
       158   3 -3.632970E+05 -1.491131E+06 -3.521191E+05  5.954216E+05 -7.912926E+04  5.704609E+04
       158   4 -5.797894E+04  3.308208E+04 -7.369734E+04  6.103524E+05 -3.782338E+04 -5.004077E+04
       158   5  1.651131E+03  4.218198E+04 -3.419183E+04  4.311633E+05 -1.059901E+05 -3.168671E+04
       158   6  8.646137E+03  3.440814E+04 -2.002446E+04  6.100790E+05 -7.950500E+04 -1.367178E+04
       158   7  7.783765E+05  3.405158E+06  7.440598E+05  5.900608E+05 -3.737080E+04  6.104127E+04
       158   8  5.978211E+05  2.483794E+06  5.091451E+05  4.284185E+05 -1.058676E+05 -1.164366E+04
       158   9  3.804379E+05  1.562143E+06  3.119495E+05  6.247690E+05 -7.988354E+04 -8.456146E+04
       158  10 -8.951674E+05 -3.328648E+06 -8.922793E+05  6.305141E+05  4.514082E-10  3.733352E-09
       158  11 -5.949348E+05 -2.393890E+06 -5.779259E+05  4.338848E+05  5.184384E-09  4.448887E-09
       158  12 -3.633046E+05 -1.491136E+06 -3.521370E+05  5.954252E+05  1.291330E-09 -7.718527E-10
       158  13 -5.798114E+04  3.307901E+04 -7.370472E+04  6.103508E+05 -2.845455E-09  3.174960E-09
       158  14  1.638801E+03  4.217789E+04 -3.421482E+04  4.311606E+05  1.579567E-09 -4.627500E-11
       158  15  8.639300E+03  3.440624E+04 -2.003668E+04  6.100781E+05  8.680372E-10  4.878922E-09
       158  16  7.783740E+05  3.405154E+06  7.440502E+05  5.900626E+05 -1.145171E-10 -2.209331E-09
       158  17  5.978090E+05  2.483791E+06  5.091238E+05  4.284175E+05 -1.889662E-09 -2.376742E-09
       158  18  3.804291E+05  1.562134E+06  3.119241E+05  6.247636E+05  3.903880E-09  1.043060E-10
       158  19 -8.951589E+05 -3.328620E+06 -8.922279E+05  6.305190E+05  3.828466E+04  1.605231E+05
       158  20 -5.949220E+05 -2.393884E+06 -5.778997E+05  4.338892E+05  1.061131E+05  5.165185E+04
       158  21 -3.632970E+05 -1.491131E+06 -3.521191E+05  5.954216E+05  7.912926E+04 -5.704609E+04
       158  22 -5.797894E+04  3.308208E+04 -7.369734E+04  6.103524E+05  3.782338E+04  5.004077E+04
       158  23  1.651131E+03  4.218198E+04 -3.419183E+04  4.311633E+05  1.059901E+05  3.168671E+04
       158  24  8.646137E+03  3.440814E+04 -2.002446E+04  6.100790E+05  7.950500E+04  1.367178E+04
       158  25  7.783765E+05  3.405158E+06  7.440598E+05  5.900608E+05  3.737080E+04 -6.104127E+04
       158  26  5.978211E+05  2.483794E+06  5.091451E+05  4.284185E+05  1.058676E+05  1.164366E+04
       158  27  3.804379E+05  1.562143E+06  3.119495E+05  6.247690E+05  7.988354E+04  8.456146E+04
       159   1 -1.905246E+05 -7.567290E+05 -1.897564E+05  6.091754E+05 -4.006897E+04  3.405312E+04
       159   2  3.484374E+04  1.643873E+05  1.701184E+04  4.306620E+05  6.865825E+03  3.856249E+04
       159   3  2.596242E+05  1.081443E+06  2.196087E+05  6.141694E+05  5.351263E+04  4.308739E+04
       159   4  3.074261E+03  3.744550E+04 -1.629121E+04  6.110216E+05 -4.032463E+04 -1.110101E+04
       159   5  4.541696E+03  3.985971E+04 -9.962613E+03  4.300033E+05  6.616334E+03 -6.339607E+03
       159   6  5.430058E+03  3.737724E+04 -7.945340E+03  6.110080E+05  5.326636E+04 -1.569373E+03
       159   7  1.966322E+05  8.322156E+05  1.571436E+05  6.128691E+05 -4.058036E+04 -5.631223E+04
       159   8 -2.576029E+04 -8.464901E+04 -3.693041E+04  4.293448E+05  6.366909E+03 -5.123282E+04
       159   9 -2.488355E+05 -1.005664E+06 -2.355575E+05  6.078502E+05  5.302030E+04 -4.615209E+04
       159  10 -1.905266E+05 -7.567307E+05 -1.897616E+05  6.091765E+05  1.601412E-09  2.503356E-09
       159  11  3.484329E+04  1.643857E+05  1.700896E+04  4.306618E+05  4.425895E-11  3.393350E-09
       159  12  2.596207E+05  1.081440E+06  2.195999E+05  6.141675E+05 -1.867720E-09 -3.389680E-09
       159  13  3.072483E+03  3.744494E+04 -1.629450E+04  6.110212E+05  4.153828E-09  5.044062E-09
       159  14  4.541638E+03  3.985966E+04 -9.962771E+03  4.300034E+05  6.816684E-09 -1.716127E-10
       159  15  5.427010E+03  3.737648E+04 -7.950677E+03  6.110081E+05 -1.456392E-09  4.897476E-09
       159  16  1.966296E+05  8.322118E+05  1.571346E+05  6.128672E+05  2.146780E-09  1.359171E-10
       159  17 -2.576104E+04 -8.465184E+04 -3.693542E+04  4.293451E+05  2.392911E-09  5.898233E-10
       159  18 -2.488391E+05 -1.005667E+06 -2.355668E+05  6.078522E+05 -1.159741E-09  2.403504E-09
       159  19 -1.905246E+05 -7.567290E+05 -1.897564E+05  6.091754E+05  4.006897E+04 -3.405312E+04
       159  20  3.484374E+04  1.643873E+05  1.701184E+04  4.306620E+05 -6.865825E+03 -3.856249E+04
       159  21  2.596242E+05  1.081443E+06  2.196087E+05  6.141694E+05 -5.351263E+04 -4.308739E+04
       159  22  3.074261E+03  3.744550E+04 -1.629121E+04  6.110216E+05  4.032463E+04  1.110101E+04
       159  23  4.541696E+03  3.985971E+04 -9.962613E+03  4.300033E+05 -6.616334E+03  6.339607E+03
       159  24  5.430058E+03  3.737724E+04 -7.945340E+03  6.110080E+05 -5.326636E+04  1.569373E+03
       159  25  1.966322E+05  8.322156E+05  1.571436E+05  6.128691E+05  4.058036E+04  5.631223E+04
       159  26 -2.576029E+04 -8.464901E+04 -3.693041E+04  4.293448E+05 -6.366909E+03  5.123282E+04
       159  27 -2.488355E+05 -1.005664E+06 -2.355575E+05  6.078502E+05 -5.302030E+04  4.615209E+04
       160   1  4.383854E+05  1.814627E+06  3.782610E+05  6.187456E+05  9.328711E+04  7.163615E+04
       160   2  6.588345E+05  2.729202E+06  5.886374E+05  4.371005E+05  1.174130E+05 -2.048725E+04
       160   3  8.874232E+05  3.657763E+06  8.605476E+05  6.130825E+05  4.075475E+04 -1.124132E+05
       160   4  6.074545E+03  3.721175E+04 -7.556569E+03  6.100427E+05  9.291650E+04 -5.722844E+02
       160   5  1.896146E+03  3.827400E+04 -9.541747E+03  4.312112E+05  1.175591E+05  4.388780E+03
       160   6 -1.090878E+04  3.575030E+04 -1.723679E+04  6.101053E+05  4.122060E+04  9.684207E+03
       160   7 -4.264424E+05 -1.737235E+06 -3.935431E+05  6.013597E+05  9.254729E+04 -7.257716E+04
       160   8 -6.555315E+05 -2.645918E+06 -6.081702E+05  4.253381E+05  1.177051E+05  2.915849E+04
       160   9 -9.101937E+05 -3.574294E+06 -8.959106E+05  6.071290E+05  4.168694E+04  1.310745E+05
       160  10  4.383747E+05  1.814619E+06  3.782351E+05  6.187403E+05  3.799110E-10  5.421025E-09
       160  11  6.588196E+05  2.729198E+06  5.886107E+05  4.371024E+05  1.164088E-09  3.056929E-09
       160  12  8.874181E+05  3.657749E+06  8.605208E+05  6.130862E+05  2.370801E-10 -2.532155E-09
       160  13  6.065274E+03  3.720943E+04 -7.572794E+03  6.100427E+05 -1.803209E-09  4.677417E-09
       160  14  1.881301E+03  3.827026E+04 -9.567752E+03  4.312107E+05  1.307720E-09 -4.305266E-11
       160  15 -1.091063E+04  3.574975E+04 -1.724015E+04  6.101050E+05  2.857342E-10  2.920060E-09
       160  16 -4.264530E+05 -1.737243E+06 -3.935692E+05  6.013651E+05 -4.871568E-10 -3.070534E-09
       160  17 -6.555466E+05 -2.645922E+06 -6.081978E+05  4.253354E+05 -1.523208E-09 -4.309443E-11
       160  18 -9.102002E+05 -3.574313E+06 -8.959463E+05  6.071246E+05  8.111185E-10  1.826132E-09
       160  19  4.383854E+05  1.814627E+06  3.782610E+05  6.187456E+05 -9.328711E+04 -7.163615E+04
       160  20  6.588345E+05  2.729202E+06  5.886374E+05  4.371005E+05 -1.174130E+05  2.048725E+04
       160  21  8.874232E+05  3.657763E+06  8.605476E+05  6.130825E+05 -4.075475E+04  1.124132E+05
       160  22  6.074545E+03  3.721175E+04 -7.556569E+03  6.100427E+05 -9.291650E+04  5.722844E+02
       160  23  1.896146E+03  3.827400E+04 -9.541747E+03  4.312112E+05 -1.175591E+05 -4.388780E+03
       160  24 -1.090878E+04  3.575030E+04 -1.723679E+04  6.101053E+05 -4.122060E+04 -9.684207E+03
       160  25 -4.264424E+05 -1.737235E+06 -3.935431E+05  6.013597E+05 -9.254729E+04  7.257716E+04
       160  26 -6.555315E+05 -2.645918E+06 -6.081702E+05  4.253381E+05 -1.177051E+05 -2.915849E+04
       160  27 -9.101937E+05 -3.574294E+06 -8.959106E+05  6.071290E+05 -4.168694E+04 -1.310745E+05
       161   1  4.811550E+06  1.026133E+06  1.025943E+06  5.222713E+05  2.181917E+05 -4.542961E+04
       161   2  4.065244E+06  7.334527E+05  7.228859E+05  3.527426E+05  9.017372E+04 -1.344084E+05
       161   3  3.367689E+06  5.529105E+05  5.313544E+05  4.621684E+05 -3.750998E+04 -1.215875E+05
       161   4  1.066278E+06  9.889286E+04  1.210752E+05  4.763028E+05  8.269603E+04 -4.526805E+04
       161   5  1.051205E+06 -9.841152E+02  5.561852E+04  3.367517E+05  5.321054E+04 -1.344352E+05
       161   6  1.067608E+06 -5.421577E+03  3.380474E+04  4.761978E+05  2.390550E+04 -1.215939E+05
       161   7 -2.666204E+06 -8.293524E+05 -7.847282E+05  4.306106E+05 -5.199098E+04 -4.508632E+04
       161   8 -1.954393E+06 -7.360302E+05 -6.122057E+05  3.208381E+05  1.642340E+04 -1.344602E+05
       161   9 -1.227521E+06 -5.640992E+05 -4.640443E+05  4.901726E+05  8.509733E+04 -1.215974E+05
       161  10  4.811499E+06  1.026119E+06  1.025851E+06  5.222793E+05 -3.579786E-10  1.209615E-09
       161  11  4.065231E+06  7.334311E+05  7.228367E+05  3.527523E+05  3.247855E-09 -6.489132E-10
       161  12  3.367684E+06  5.528943E+05  5.313240E+05  4.621647E+05  2.158352E-09  7.800698E-10
       161  13  1.066270E+06  9.888882E+04  1.210585E+05  4.763058E+05 -6.945827E-10 -1.934871E-09
       161  14  1.051197E+06 -1.004295E+03  5.557921E+04  3.367575E+05  1.979525E-10 -5.846706E-10
       161  15  1.067603E+06 -5.437618E+03  3.377585E+04  4.762002E+05 -1.558147E-10  8.733315E-10
       161  16 -2.666208E+06 -8.293553E+05 -7.847372E+05  4.306087E+05 -2.827312E-09 -2.156080E-09
       161  17 -1.954398E+06 -7.360497E+05 -6.122402E+05  3.208399E+05 -2.529696E-09 -1.025651E-09
       161  18 -1.227533E+06 -5.641171E+05 -4.640858E+05  4.901809E+05 -7.701910E-10  1.150663E-09
       161  19  4.811550E+06  1.026133E+06  1.025943E+06  5.222713E+05 -2.181917E+05  4.542961E+04
       161  20  4.065244E+06  7.334527E+05  7.228859E+05  3.527426E+05 -9.017372E+04  1.344084E+05
       161  21  3.367689E+06  5.529105E+05  5.313544E+05  4.621684E+05  3.750998E+04  1.215875E+05
       161  22  1.066278E+06  9.889286E+04  1.210752E+05  4.763028E+05 -8.269603E+04  4.526805E+04
       161  23  1.051205E+06 -9.841152E+02  5.561852E+04  3.367517E+05 -5.321054E+04  1.344352E+05
       161  24  1.067608E+06 -5.421577E+03  3.380474E+04  4.761978E+05 -2.390550E+04  1.215939E+05
       161  25 -2.666204E+06 -8.293524E+05 -7.847282E+05  4.306106E+05  5.199098E+04  4.508632E+04
       161  26 -1.954393E+06 -7.360302E+05 -6.122057E+05  3.208381E+05 -1.642340E+04  1.344602E+05
       161  27 -1.227521E+06 -5.640992E+05 -4.640443E+05  4.901726E+05 -8.509733E+04  1.215974E+05
       162   1  2.788596E+06  4.245044E+05  4.024908E+05  4.794496E+05 -1.339267E+04 -8.909497E+04
       162   2  2.069539E+06  2.452795E+05  2.355960E+05  3.368516E+05 -2.616756E+04 -5.325449E+04
       162   3  1.354319E+06  7.220894E+04  7.850531E+04  4.764486E+05 -3.897656E+04 -1.302266E+04
       162   4  1.061696E+06  4.873966E+03  2.741033E+04  4.769408E+05  1.898789E+04 -8.908645E+04
       162   5  1.060599E+06  1.489781E+02  1.708165E+04  3.358320E+05  1.044504E+04 -5.322315E+04
       162   6  1.062131E+06  8.843269E+02  1.365965E+04  4.769452E+05  1.853717E+03 -1.296343E+04
       162   7 -6.624146E+05 -4.149531E+05 -3.478443E+05  4.744376E+05  5.127983E+04 -8.907818E+04
       162   8  5.261328E+04 -2.450480E+05 -2.014881E+05  3.348136E+05  4.699908E+04 -5.319190E+04
       162   9  7.700260E+05 -7.044515E+04 -5.118506E+04  4.774415E+05  4.266503E+04 -1.290411E+04
       162  10  2.788593E+06  4.244958E+05  4.024755E+05  4.794486E+05  2.023621E-09  2.767217E-10
       162  11  2.069538E+06  2.452763E+05  2.355894E+05  3.368504E+05 -1.465631E-10  7.836983E-10
       162  12  1.354317E+06  7.220835E+04  7.850215E+04  4.764482E+05  8.062545E-10 -2.594966E-10
       162  13  1.061694E+06  4.865341E+03  2.739472E+04  4.769422E+05  3.569645E-10  1.176383E-09
       162  14  1.060598E+06  1.459051E+02  1.707612E+04  3.358324E+05 -4.683780E-11  8.788534E-10
       162  15  1.062131E+06  8.841454E+02  1.365933E+04  4.769452E+05  8.427418E-10 -1.523795E-09
       162  16 -6.624196E+05 -4.149623E+05 -3.478642E+05  4.744412E+05 -4.554569E-09  8.416690E-10
       162  17  5.261014E+04 -2.450516E+05 -2.014976E+05  3.348156E+05 -8.032735E-10 -2.269978E-10
       162  18  7.700240E+05 -7.044582E+04 -5.118880E+04  4.774419E+05 -8.748365E-10 -8.143236E-10
       162  19  2.788596E+06  4.245044E+05  4.024908E+05  4.794496E+05  1.339267E+04  8.909497E+04
       162  20  2.069539E+06  2.452795E+05  2.355960E+05  3.368516E+05  2.616756E+04  5.325449E+04
       162  21  1.354319E+06  7.220894E+04  7.850531E+04  4.764486E+05  3.897656E+04  1.302266E+04
       162  22  1.061696E+06  4.873966E+03  2.741033E+04  4.769408E+05 -1.898789E+04  8.908645E+04
       162  23  1.060599E+06  1.489781E+02  1.708165E+04  3.358320E+05 -1.044504E+04  5.322315E+04
       162  24  1.062131E+06  8.843269E+02  1.365965E+04  4.769452E+05 -1.853717E+03  1.296343E+04
       162  25 -6.624146E+05 -4.149531E+05 -3.478443E+05  4.744376E+05 -5.127983E+04  8.907818E+04
       162  26  5.261328E+04 -2.450480E+05 -2.014881E+05  3.348136E+05 -4.699908E+04  5.319190E+04
       162  27  7.700260E+05 -7.044515E+04 -5.118506E+04  4.774415E+05 -4.266503E+04  1.290411E+04
       163   1  7.856737E+05 -6.657364E+04 -4.800442E+04  4.773303E+05 -4.140567E+04  1.205941E+04
       163   2  6.837507E+04 -2.412130E+05 -1.992535E+05  3.348462E+05 -4.517419E+04  5.235044E+04
       163   3 -6.467490E+05 -4.116805E+05 -3.470572E+05  4.746151E+05 -4.889070E+04  8.825910E+04
       163   4  1.062083E+06  9.415288E+02  1.344910E+04  4.769455E+05 -5.987994E+02  1.211881E+04
       163   5  1.060666E+06  1.656196E+02  1.591993E+04  3.358317E+05 -8.605257E+03  5.238214E+04
       163   6  1.061656E+06  4.319048E+03  2.478122E+04  4.769418E+05 -1.656383E+04  8.826813E+04
       163   7  1.338568E+06  6.845243E+04  7.490410E+04  4.765605E+05  4.022602E+04  1.217815E+04
       163   8  2.053884E+06  2.414799E+05  2.310398E+05  3.368184E+05  2.802135E+04  5.241393E+04
       163   9  2.772799E+06  4.201256E+05  3.964487E+05  4.792734E+05  1.585094E+04  8.827737E+04
       163  10  7.856718E+05 -6.657426E+04 -4.800791E+04  4.773307E+05 -1.382134E-09 -3.639590E-10
       163  11  6.837214E+04 -2.412165E+05 -1.992625E+05  3.348481E+05  1.307848E-09 -2.833016E-10
       163  12 -6.467537E+05 -4.116895E+05 -3.470763E+05  4.746186E+05  2.187634E-09 -4.773038E-10
       163  13  1.062083E+06  9.413709E+02  1.344882E+04  4.769455E+05  6.275766E-10 -6.713941E-10
       163  14  1.060666E+06  1.626515E+02  1.591463E+04  3.358321E+05  1.532940E-09  1.494091E-09
       163  15  1.061654E+06  4.310602E+03  2.476605E+04  4.769429E+05 -2.800917E-09 -5.891529E-10
       163  16  1.338566E+06  6.845184E+04  7.490079E+04  4.765601E+05  1.601989E-09 -4.078626E-10
       163  17  2.053882E+06  2.414768E+05  2.310332E+05  3.368172E+05 -2.014831E-09  4.670201E-10
       163  18  2.772797E+06  4.201172E+05  3.964336E+05  4.792723E+05 -2.100390E-09  1.050339E-09
       163  19  7.856737E+05 -6.657364E+04 -4.800442E+04  4.773303E+05  4.140567E+04 -1.205941E+04
       163  20  6.837507E+04 -2.412130E+05 -1.992535E+05  3.348462E+05  4.517419E+04 -5.235044E+04
       163  21 -6.467490E+05 -4.116805E+05 -3.470572E+05  4.746151E+05  4.889070E+04 -8.825910E+04
       163  22  1.062083E+06  9.415288E+02  1.344910E+04  4.769455E+05  5.987994E+02 -1.211881E+04
       163  23  1.060666E+06  1.656196E+02  1.591993E+04  3.358317E+05  8.605257E+03 -5.238214E+04
       163  24  1.061656E+06  4.319048E+03  2.478122E+04  4.769418E+05  1.656383E+04 -8.826813E+04
       163  25  1.338568E+06  6.845243E+04  7.490410E+04  4.765605E+05 -4.022602E+04 -1.217815E+04
       163  26  2.053884E+06  2.414799E+05  2.310398E+05  3.368184E+05 -2.802135E+04 -5.241393E+04
       163  27  2.772799E+06  4.201256E+05  3.964487E+05  4.792734E+05 -1.585094E+04 -8.827737E+04
       164   1 -1.212477E+06 -5.597264E+05 -4.640763E+05  4.885471E+05 -8.212559E+04  1.207457E+05
       164   2 -1.937805E+06 -7.323131E+05 -6.148021E+05  3.227528E+05 -1.063110E+04  1.337177E+05
       164   3 -2.651110E+06 -8.366783E+05 -7.943423E+05  4.359971E+05  6.060533E+04  4.484997E+04
       164   4  1.066939E+06 -4.875394E+03  3.037286E+04  4.761877E+05 -2.101052E+04  1.207432E+05
       164   5  1.052075E+06 -1.110102E+03  4.954691E+04  3.367666E+05 -4.710291E+04  1.336925E+05
       164   6  1.065622E+06  8.767461E+04  1.076597E+05  4.762792E+05 -7.337334E+04  4.502773E+04
       164   7  3.351240E+06  5.496346E+05  5.245268E+05  4.637799E+05  4.032637E+04  1.207382E+05
       164   8  4.050309E+06  7.294897E+05  7.133447E+05  3.508479E+05 -8.374838E+04  1.336658E+05
       164   9  4.795035E+06  1.011030E+06  1.008734E+06  5.168039E+05 -2.081532E+05  4.518778E+04
       164  10 -1.212488E+06 -5.597439E+05 -4.641164E+05  4.885551E+05  8.114311E-10 -1.010364E-09
       164  11 -1.937810E+06 -7.323323E+05 -6.148359E+05  3.227540E+05  2.197891E-09  1.048442E-09
       164  12 -2.651115E+06 -8.366814E+05 -7.943530E+05  4.359950E+05  2.378823E-09  2.038915E-09
       164  13  1.066935E+06 -4.891178E+03  3.034461E+04  4.761897E+05  1.119514E-09 -6.791026E-11
       164  14  1.052068E+06 -1.129904E+03  4.950913E+04  3.367717E+05 -1.438942E-09  9.017352E-10
       164  15  1.065616E+06  8.767099E+04  1.076458E+05  4.762819E+05 -1.260329E-09 -1.988056E-09
       164  16  3.351234E+06  5.496185E+05  5.244964E+05  4.637760E+05  4.860069E-10  8.349660E-10
       164  17  4.050297E+06  7.294687E+05  7.132980E+05  3.508569E+05 -4.437535E-09  7.468980E-10
       164  18  4.794988E+06  1.011016E+06  1.008649E+06  5.168114E+05  5.812919E-10 -9.167087E-10
       164  19 -1.212477E+06 -5.597264E+05 -4.640763E+05  4.885471E+05  8.212559E+04 -1.207457E+05
       164  20 -1.937805E+06 -7.323131E+05 -6.148021E+05  3.227528E+05  1.063110E+04 -1.337177E+05
       164  21 -2.651110E+06 -8.366783E+05 -7.943423E+05  4.359971E+05 -6.060533E+04 -4.484997E+04
       164  22  1.066939E+06 -4.875394E+03  3.037286E+04  4.761877E+05  2.101052E+04 -1.207432E+05
       164  23  1.052075E+06 -1.110102E+03  4.954691E+04  3.367666E+05  4.710291E+04 -1.336925E+05
       164  24  1.065622E+06  8.767461E+04  1.076597E+05  4.762792E+05  7.337334E+04 -4.502773E+04
       164  25  3.351240E+06  5.496346E+05  5.245268E+05  4.637799E+05 -4.032637E+04 -1.207382E+05
       164  26  4.050309E+06  7.294897E+05  7.133447E+05  3.508479E+05  8.374838E+04 -1.336658E+05
       164  27  4.795035E+06  1.011030E+06  1.008734E+06  5.168039E+05  2.081532E+05 -4.518778E+04
       165   1 -8.060683E+05 -2.912863E+06 -8.084045E+05  5.470446E+05 -3.362250E+04 -1.629668E+05
       165   2 -5.238203E+05 -2.118825E+06 -5.224431E+05  3.717753E+05 -9.369874E+04 -6.070688E+04
       165   3 -3.267084E+05 -1.360025E+06 -3.247538E+05  4.990258E+05 -7.151334E+04  4.141082E+04
       165   4 -7.778125E+04  1.281787E+04 -9.639083E+04  5.156513E+05 -3.324469E+04 -6.593530E+04
       165   5  8.489345E+02  2.430429E+04 -4.439224E+04  3.642425E+05 -9.359571E+04 -4.223229E+04
       165   6  8.228861E+03  1.380283E+04 -2.581142E+04  5.153220E+05 -7.180436E+04 -1.880413E+04
       165   7  6.498847E+05  2.946356E+06  6.150386E+05  4.840988E+05 -3.287780E+04  3.155448E+04
       165   8  5.252067E+05  2.171726E+06  4.333720E+05  3.566776E+05 -9.349336E+04 -2.369426E+04
       165   9  3.430435E+05  1.389411E+06  2.730316E+05  5.316520E+05 -7.209817E+04 -7.915078E+04
       165  10 -8.060767E+05 -2.912892E+06 -8.084567E+05  5.470402E+05 -2.992972E-10 -2.283553E-08
       165  11 -5.238307E+05 -2.118832E+06 -5.224666E+05  3.717707E+05  1.453889E-09  1.887503E-10
       165  12 -3.267144E+05 -1.360028E+06 -3.247666E+05  4.990282E+05  3.586618E-09  2.415087E-08
       165  13 -7.778360E+04  1.281291E+04 -9.640107E+04  5.156495E+05 -3.956738E-09 -1.384272E-11
       165  14  8.390519E+02  2.430002E+04 -4.441204E+04  3.642393E+05 -1.825335E-10 -3.931077E-09
       165  15  8.223231E+03  1.380107E+04 -2.582176E+04  5.153209E+05  2.363925E-09  7.363632E-09
       165  16  6.498833E+05  2.946355E+06  6.150347E+05  4.840997E+05 -1.780509E-09  1.840085E-08
       165  17  5.251972E+05  2.171723E+06  4.333546E+05  3.566758E+05 -5.245929E-09 -4.824183E-09
       165  18  3.430362E+05  1.389402E+06  2.730101E+05  5.316474E+05  3.774463E-09 -2.209571E-08
       165  19 -8.060683E+05 -2.912863E+06 -8.084045E+05  5.470446E+05  3.362250E+04  1.629668E+05
       165  20 -5.238203E+05 -2.118825E+06 -5.224431E+05  3.717753E+05  9.369874E+04  6.070688E+04
       165  21 -3.267084E+05 -1.360025E+06 -3.247538E+05  4.990258E+05  7.151334E+04 -4.141082E+04
       165  22 -7.778125E+04  1.281787E+04 -9.639083E+04  5.156513E+05  3.324469E+04  6.593530E+04
       165  23  8.489345E+02  2.430429E+04 -4.439224E+04  3.642425E+05  9.359571E+04  4.223229E+04
       165  24  8.228861E+03  1.380283E+04 -2.581142E+04  5.153220E+05  7.180436E+04  1.880413E+04
       165  25  6.498847E+05  2.946356E+06  6.150386E+05  4.840988E+05  3.287780E+04 -3.155448E+04
       165  26  5.252067E+05  2.171726E+06  4.333720E+05  3.566776E+05  9.349336E+04  2.369426E+04
       165  27  3.430435E+05  1.389411E+06  2.730316E+05  5.316520E+05  7.209817E+04  7.915078E+04
       166   1 -1.835496E+05 -7.378528E+05 -1.856713E+05  5.149490E+05 -3.833717E+04  2.259075E+04
       166   2  8.529298E+03  4.055720E+04 -7.313182E+03  3.635649E+05  1.230310E+03  2.825424E+04
       166   3  1.987015E+05  8.150552E+05  1.660276E+05  5.180491E+05  4.074869E+04  3.392604E+04
       166   4  6.816815E+02  1.798471E+04 -2.066343E+04  5.161621E+05 -3.853266E+04 -1.537591E+04
       166   5  3.577077E+03  2.021994E+04 -1.172046E+04  3.632181E+05  1.036515E+03 -9.679446E+03
       166   6  4.599195E+03  1.797522E+04 -7.788616E+03  5.161420E+05  4.055452E+04 -3.981699E+03
       166   7  1.848756E+05  7.743609E+05  1.443154E+05  5.173759E+05 -3.872817E+04 -5.338824E+04
       166   8 -1.374399E+03 -1.138428E+02 -1.612235E+04  3.628713E+05  8.427599E+02 -4.761191E+04
       166   9 -1.895446E+05 -7.785068E+05 -1.816376E+05  5.142363E+05  4.036044E+04 -4.184143E+04
       166  10 -1.835513E+05 -7.378538E+05 -1.856750E+05  5.149496E+05  3.028202E-09 -2.590537E-08
       166  11  8.529082E+03  4.055635E+04 -7.314685E+03  3.635648E+05  6.422570E-10  6.608382E-09
       166  12  1.986994E+05  8.150535E+05  1.660223E+05  5.180480E+05  1.594219E-09  3.990679E-08
       166  13  6.800244E+02  1.798406E+04 -2.066666E+04  5.161616E+05  3.810838E-09 -5.876354E-11
       166  14  3.577050E+03  2.021984E+04 -1.172064E+04  3.632181E+05  1.538579E-09 -4.760469E-09
       166  15  4.597424E+03  1.797476E+04 -7.791738E+03  5.161421E+05  1.374668E-09  7.879831E-09
       166  16  1.848733E+05  7.743575E+05  1.443073E+05  5.173742E+05  4.041123E-09  1.879431E-08
       166  17 -1.375009E+03 -1.162773E+02 -1.612661E+04  3.628713E+05  2.044169E-09 -1.132879E-08
       166  18 -1.895468E+05 -7.785092E+05 -1.816440E+05  5.142377E+05 -1.350323E-09 -3.723821E-08
       166  19 -1.835496E+05 -7.378528E+05 -1.856713E+05  5.149490E+05  3.833717E+04 -2.259075E+04
       166  20  8.529298E+03  4.055720E+04 -7.313182E+03  3.635649E+05 -1.230310E+03 -2.825424E+04
       166  21  1.987015E+05  8.150552E+05  1.660276E+05  5.180491E+05 -4.074869E+04 -3.392604E+04
       166  22  6.816815E+02  1.798471E+04 -2.066343E+04  5.161621E+05  3.853266E+04  1.537591E+04
       166  23  3.577077E+03  2.021994E+04 -1.172046E+04  3.632181E+05 -1.036515E+03  9.679446E+03
       166  24  4.599195E+03  1.797522E+04 -7.788616E+03  5.161420E+05 -4.055452E+04  3.981699E+03
       166  25  1.848756E+05  7.743609E+05  1.443154E+05  5.173759E+05  3.872817E+04  5.338824E+04
       166  26 -1.374399E+03 -1.138428E+02 -1.612235E+04  3.628713E+05 -8.427599E+02  4.761191E+04
       166  27 -1.895446E+05 -7.785068E+05 -1.816376E+05  5.142363E+05 -4.036044E+04  4.184143E+04
       167   1  3.492460E+05  1.434573E+06  3.010054E+05  5.213678E+05  7.418223E+04  5.755603E+04
       167   2  5.362069E+05  2.206860E+06  4.803803E+05  3.693688E+05  9.521229E+04 -1.911614E+04
       167   3  7.332833E+05  2.991139E+06  7.117578E+05  5.196158E+05  3.322468E+04 -9.560982E+04
       167   4  4.644295E+03  1.813716E+04 -6.623719E+03  5.153499E+05  7.389080E+04 -2.974904E+03
       167   5  1.827692E+03  1.882966E+04 -6.341471E+03  3.642099E+05  9.531790E+04  2.719530E+02
       167   6 -4.678103E+03  1.713308E+04 -9.432138E+03  5.153821E+05  3.359570E+04  3.793511E+03
       167   7 -3.400883E+05 -1.396412E+06 -3.143590E+05  5.093429E+05  7.360015E+04 -6.336977E+04
       167   8 -5.328753E+05 -2.164745E+06 -4.933608E+05  3.590636E+05  9.542342E+04  1.959264E+04
       167   9 -7.432825E+05 -2.948799E+06 -7.312230E+05  5.111584E+05  3.396642E+04  1.027238E+05
       167  10  3.492392E+05  1.434567E+06  3.009889E+05  5.213644E+05 -1.497941E-09 -1.279000E-09
       167  11  5.361971E+05  2.206857E+06  4.803626E+05  3.693702E+05 -8.480200E-09 -9.969194E-09
       167  12  7.332796E+05  2.991129E+06  7.117386E+05  5.196184E+05 -2.638131E-09 -1.174083E-08
       167  13  4.638429E+03  1.813569E+04 -6.633997E+03  5.153501E+05 -3.637474E-09  1.045576E-10
       167  14  1.817935E+03  1.882722E+04 -6.358544E+03  3.642099E+05 -7.018493E-09 -3.922850E-09
       167  15 -4.679319E+03  1.713277E+04 -9.434286E+03  5.153820E+05 -3.013368E-09  4.916353E-09
       167  16 -3.400952E+05 -1.396417E+06 -3.143767E+05  5.093467E+05 -2.836515E-09 -5.511102E-09
       167  17 -5.328852E+05 -2.164748E+06 -4.933786E+05  3.590621E+05 -5.626858E-09  5.980132E-09
       167  18 -7.432866E+05 -2.948811E+06 -7.312450E+05  5.111556E+05 -1.718964E-09  1.292911E-08
       167  19  3.492460E+05  1.434573E+06  3.010054E+05  5.213678E+05 -7.418223E+04 -5.755603E+04
       167  20  5.362069E+05  2.206860E+06  4.803803E+05  3.693688E+05 -9.521229E+04  1.911614E+04
       167  21  7.332833E+05  2.991139E+06  7.117578E+05  5.196158E+05 -3.322468E+04  9.560982E+04
       167  22  4.644295E+03  1.813716E+04 -6.623719E+03  5.153499E+05 -7.389080E+04  2.974904E+03
       167  23  1.827692E+03  1.882966E+04 -6.341471E+03  3.642099E+05 -9.531790E+04 -2.719530E+02
       167  24 -4.678103E+03  1.713308E+04 -9.432138E+03  5.153821E+05 -3.359570E+04 -3.793511E+03
       167  25 -3.400883E+05 -1.396412E+06 -3.143590E+05  5.093429E+05 -7.360015E+04  6.336977E+04
       167  26 -5.328753E+05 -2.164745E+06 -4.933608E+05  3.590636E+05 -9.542342E+04 -1.959264E+04
       167  27 -7.432825E+05 -2.948799E+06 -7.312230E+05  5.111584E+05 -3.396642E+04 -1.027238E+05
       168   1  5.143985E+06  1.070834E+06  1.080244E+06  5.203275E+05  2.602236E+05 -4.562251E+04
       168   2  4.430720E+06  7.386409E+05  7.539982E+05  3.426837E+05  1.186262E+05 -1.356665E+05
       168   3  3.779338E+06  5.646606E+05  5.595492E+05  4.284798E+05 -2.262611E+04 -1.249006E+05
       168   4  1.418659E+06  1.490438E+05  1.808131E+05  4.497385E+05  1.239579E+05 -4.547080E+04
       168   5  1.396877E+06 -2.614270E+02  8.288243E+04  3.179306E+05  8.004803E+04 -1.356952E+05
       168   6  1.419978E+06 -7.781371E+03  4.955234E+04  4.495839E+05  3.631859E+04 -1.249101E+05
       168   7 -2.294012E+06 -7.737276E+05 -7.195389E+05  3.795719E+05 -1.149989E+04 -4.528813E+04
       168   8 -1.628416E+06 -7.397788E+05 -5.887960E+05  2.932984E+05  4.165448E+04 -1.357210E+05
       168   9 -9.341743E+05 -5.805858E+05 -4.607607E+05  4.706049E+05  9.504317E+04 -1.249157E+05
       168  10  5.143913E+06  1.070814E+06  1.080114E+06  5.203370E+05 -5.566428E-10  1.036060E-09
       168  11  4.430700E+06  7.386174E+05  7.539373E+05  3.426966E+05 -1.325712E-09 -2.880771E-09
       168  12  3.779333E+06  5.646437E+05  5.595189E+05  4.284775E+05 -4.132278E-09 -2.152225E-09
       168  13  1.418642E+06  1.490375E+05  1.807804E+05  4.497431E+05 -3.376002E-11 -4.485571E-09
       168  14  1.396866E+06 -2.829350E+02  8.283577E+04  3.179393E+05  2.684410E-10 -3.383649E-09
       168  15  1.419973E+06 -7.798494E+03  4.952051E+04  4.495876E+05  1.393442E-09 -8.895535E-10
       168  16 -2.294013E+06 -7.737299E+05 -7.195430E+05  3.795715E+05 -1.322456E-09 -3.194514E-09
       168  17 -1.628422E+06 -7.397991E+05 -5.888339E+05  2.933029E+05  2.192082E-09 -5.129569E-10
       168  18 -9.341882E+05 -5.806050E+05 -4.608071E+05  4.706145E+05  2.540498E-09  2.186674E-10
       168  19  5.143985E+06  1.070834E+06  1.080244E+06  5.203275E+05 -2.602236E+05  4.562251E+04
       168  20  4.430720E+06  7.386409E+05  7.539982E+05  3.426837E+05 -1.186262E+05  1.356665E+05
       168  21  3.779338E+06  5.646606E+05  5.595492E+05  4.284798E+05  2.262611E+04  1.249006E+05
       168  22  1.418659E+06  1.490438E+05  1.808131E+05  4.497385E+05 -1.239579E+05  4.547080E+04
       168  23  1.396877E+06 -2.614270E+02  8.288243E+04  3.179306E+05 -8.004803E+04  1.356952E+05
       168  24  1.419978E+06 -7.781371E+03  4.955234E+04  4.495839E+05 -3.631859E+04  1.249101E+05
       168  25 -2.294012E+06 -7.737276E+05 -7.195389E+05  3.795719E+05  1.149989E+04  4.528813E+04
       168  26 -1.628416E+06 -7.397788E+05 -5.887960E+05  2.932984E+05 -4.165448E+04  1.357210E+05
       168  27 -9.341743E+05 -5.805858E+05 -4.607607E+05  4.706049E+05 -9.504317E+04  1.249157E+05
       169   1  3.229577E+06  4.490016E+05  4.344531E+05  4.536671E+05 -9.575819E+02 -9.386307E+04
       169   2  2.550635E+06  2.771162E+05  2.703314E+05  3.184799E+05 -1.690970E+04 -6.034730E+04
       169   3  1.876556E+06  1.139234E+05  1.187205E+05  4.493897E+05 -3.289674E+04 -2.247584E+04
       169   4  1.411308E+06  7.377396E+03  3.977327E+04  4.502139E+05  2.920206E+04 -9.385823E+04
       169   5  1.409686E+06  6.362052E+01  2.344848E+04  3.171551E+05  1.746257E+04 -6.031823E+04
       169   6  1.411777E+06  7.512320E+02  1.675661E+04  4.502215E+05  5.671211E+03 -2.241732E+04
       169   7 -4.038731E+05 -4.344646E+05 -3.551004E+05  4.467693E+05  5.927481E+04 -9.385370E+04
       169   8  2.699574E+05 -2.770741E+05 -2.235072E+05  3.158322E+05  5.177271E+04 -6.028927E+04
       169   9  9.472015E+05 -1.124345E+05 -8.521482E+04  4.510524E+05  4.421071E+04 -2.235867E+04
       169  10  3.229575E+06  4.489921E+05  4.344366E+05  4.536670E+05 -1.835404E-10 -7.011060E-10
       169  11  2.550633E+06  2.771122E+05  2.703240E+05  3.184791E+05 -4.101138E-09 -2.089761E-09
       169  12  1.876555E+06  1.139225E+05  1.187175E+05  4.493891E+05 -5.542923E-10  5.303017E-10
       169  13  1.411305E+06  7.367699E+03  3.975509E+04  4.502161E+05 -1.010409E-09 -6.479835E-10
       169  14  1.409685E+06  5.962865E+01  2.344106E+04  3.171560E+05 -3.308372E-09 -1.132340E-09
       169  15  1.411777E+06  7.506832E+02  1.675560E+04  4.502216E+05 -3.259975E-09  5.953063E-11
       169  16 -4.038793E+05 -4.344750E+05 -3.551236E+05  4.467738E+05  4.763954E-10 -6.234084E-10
       169  17  2.699535E+05 -2.770787E+05 -2.235191E+05  3.158347E+05 -2.040790E-09 -1.226139E-09
       169  18  9.471993E+05 -1.124356E+05 -8.521944E+04  4.510532E+05 -1.354375E-10  1.472310E-09
       169  19  3.229577E+06  4.490016E+05  4.344531E+05  4.536671E+05  9.575819E+02  9.386307E+04
       169  20  2.550635E+06  2.771162E+05  2.703314E+05  3.184799E+05  1.690970E+04  6.034730E+04
       169  21  1.876556E+06  1.139234E+05  1.187205E+05  4.493897E+05  3.289674E+04  2.247584E+04
       169  22  1.411308E+06  7.377396E+03  3.977327E+04  4.502139E+05 -2.920206E+04  9.385823E+04
       169  23  1.409686E+06  6.362052E+01  2.344848E+04  3.171551E+05 -1.746257E+04  6.031823E+04
       169  24  1.411777E+06  7.512320E+02  1.675661E+04  4.502215E+05 -5.671211E+03  2.241732E+04
       169  25 -4.038731E+05 -4.344646E+05 -3.551004E+05  4.467693E+05 -5.927481E+04  9.385370E+04
       169  26  2.699574E+05 -2.770741E+05 -2.235072E+05  3.158322E+05 -5.177271E+04  6.028927E+04
       169  27  9.472015E+05 -1.124345E+05 -8.521482E+04  4.510524E+05 -4.421071E+04  2.235867E+04
       170   1  1.340153E+06 -1.649230E+04 -1.693401E+03  4.505705E+05 -3.563597E+04  1.160104E+03
       170   2  6.639638E+05 -1.811164E+05 -1.461470E+05  3.161984E+05 -3.975806E+04  3.917215E+04
       170   3 -1.046961E+04 -3.419450E+05 -2.870835E+05  4.478406E+05 -4.384100E+04  7.328371E+04
       170   4  1.411439E+06  1.148510E+03  1.533826E+04  4.501915E+05  2.780368E+03  1.221090E+03
       170   5  1.410295E+06  3.551995E+02  1.570817E+04  3.171931E+05 -5.113097E+03  3.921175E+04
       170   6  1.411136E+06  4.037485E+03  2.222239E+04  4.501880E+05 -1.297178E+04  7.330570E+04
       170   7  1.482733E+06  1.878974E+04  3.237510E+04  4.498125E+05  4.120109E+04  1.282024E+03
       170   8  2.157151E+06  1.817907E+05  1.775347E+05  3.181887E+05  2.957293E+04  3.925144E+04
       170   9  2.834636E+06  3.498866E+05  3.314109E+05  4.525396E+05  1.796722E+04  7.332788E+04
       170  10  1.340152E+06 -1.649264E+04 -1.695785E+03  4.505705E+05  3.185666E-09  4.092118E-10
       170  11  6.639617E+05 -1.811185E+05 -1.461529E+05  3.161996E+05  2.374695E-10 -1.020742E-09
       170  12 -1.047312E+04 -3.419513E+05 -2.870972E+05  4.478432E+05 -4.310001E-10 -1.832201E-09
       170  13  1.411439E+06  1.148506E+03  1.533824E+04  4.501915E+05 -1.060925E-09  3.719988E-10
       170  14  1.410295E+06  3.535402E+02  1.570523E+04  3.171932E+05 -6.884773E-10 -1.182348E-09
       170  15  1.411134E+06  4.031665E+03  2.221197E+04  4.501887E+05  1.489367E-09 -1.115785E-09
       170  16  1.482732E+06  1.878928E+04  3.237191E+04  4.498124E+05 -2.016310E-09  9.289764E-10
       170  17  2.157150E+06  1.817888E+05  1.775302E+05  3.181878E+05  1.920395E-09  1.449376E-09
       170  18  2.834634E+06  3.498807E+05  3.314002E+05  4.525386E+05  8.409305E-10 -1.968916E-10
       170  19  1.340153E+06 -1.649230E+04 -1.693401E+03  4.505705E+05  3.563597E+04 -1.160104E+03
       170  20  6.639638E+05 -1.811164E+05 -1.461470E+05  3.161984E+05  3.975806E+04 -3.917215E+04
       170  21 -1.046961E+04 -3.419450E+05 -2.870835E+05  4.478406E+05  4.384100E+04 -7.328371E+04
       170  22  1.411439E+06  1.148510E+03  1.533826E+04  4.501915E+05 -2.780368E+03 -1.221090E+03
       170  23  1.410295E+06  3.551995E+02  1.570817E+04  3.171931E+05  5.113097E+03 -3.921175E+04
       170  24  1.411136E+06  4.037485E+03  2.222239E+04  4.501880E+05  1.297178E+04 -7.330570E+04
       170  25  1.482733E+06  1.878974E+04  3.237510E+04  4.498125E+05 -4.120109E+04 -1.282024E+03
       170  26  2.157151E+06  1.817907E+05  1.775347E+05  3.181887E+05 -2.957293E+04 -3.925144E+04
       170  27  2.834636E+06  3.498866E+05  3.314109E+05  4.525396E+05 -1.796722E+04 -7.332788E+04
       171   1 -5.443884E+05 -4.805373E+05 -3.984250E+05  4.594708E+05 -7.361308E+04  1.035111E+05
       171   2 -1.227641E+06 -6.436385E+05 -5.421021E+05  3.051821E+05 -8.519324E+03  1.171338E+05
       171   3 -1.901920E+06 -7.497795E+05 -7.134172E+05  4.143009E+05  5.639910E+04  3.960044E+04
       171   4  1.415557E+06 -3.710473E+03  2.661665E+04  4.495846E+05 -1.694229E+04  1.035338E+05
       171   5  1.403179E+06 -5.685776E+02  4.239307E+04  3.179441E+05 -3.926647E+04  1.171020E+05
       171   6  1.414450E+06  7.459841E+04  9.119518E+04  4.496236E+05 -6.169583E+04  3.969170E+04
       171   7  3.379112E+06  4.728647E+05  4.514419E+05  4.396648E+05  3.990517E+04  1.035546E+05
       171   8  4.040459E+06  6.420347E+05  6.264613E+05  3.307596E+05 -7.014236E+04  1.170690E+05
       171   9  4.740904E+06  8.981820E+05  8.950680E+05  4.851347E+05 -1.804204E+05  3.976945E+04
       171  10 -5.443971E+05 -4.805503E+05 -3.984554E+05  4.594769E+05 -2.465257E-09 -6.973742E-10
       171  11 -1.227645E+06 -6.436533E+05 -5.421280E+05  3.051829E+05  1.306194E-09  2.256014E-09
       171  12 -1.901924E+06 -7.497821E+05 -7.134261E+05  4.142991E+05  3.150871E-09  1.148403E-09
       171  13  1.415554E+06 -3.722070E+03  2.659594E+04  4.495860E+05 -2.538744E-09 -1.719464E-09
       171  14  1.403174E+06 -5.837284E+02  4.236439E+04  3.179478E+05  2.256113E-09  2.996721E-10
       171  15  1.414446E+06  7.459569E+04  9.118507E+04  4.496256E+05  4.816767E-10  2.483532E-10
       171  16  3.379107E+06  4.728528E+05  4.514188E+05  4.396615E+05  2.582797E-09  3.006932E-10
       171  17  4.040450E+06  6.420187E+05  6.264263E+05  3.307662E+05  2.172665E-09  5.261227E-10
       171  18  4.740869E+06  8.981716E+05  8.950043E+05  4.851405E+05 -2.760405E-09  1.449237E-09
       171  19 -5.443884E+05 -4.805373E+05 -3.984250E+05  4.594708E+05  7.361308E+04 -1.035111E+05
       171  20 -1.227641E+06 -6.436385E+05 -5.421021E+05  3.051821E+05  8.519324E+03 -1.171338E+05
       171  21 -1.901920E+06 -7.497795E+05 -7.134172E+05  4.143009E+05 -5.639910E+04 -3.960044E+04
       171  22  1.415557E+06 -3.710473E+03  2.661665E+04  4.495846E+05  1.694229E+04 -1.035338E+05
       171  23  1.403179E+06 -5.685776E+02  4.239307E+04  3.179441E+05  3.926647E+04 -1.171020E+05
       171  24  1.414450E+06  7.459841E+04  9.119518E+04  4.496236E+05  6.169583E+04 -3.969170E+04
       171  25  3.379112E+06  4.728647E+05  4.514419E+05  4.396648E+05 -3.990517E+04 -1.035546E+05
       171  26  4.040459E+06  6.420347E+05  6.264613E+05  3.307596E+05  7.014236E+04 -1.170690E+05
       171  27  4.740904E+06  8.981820E+05  8.950680E+05  4.851347E+05  1.804204E+05 -3.976945E+04
       172   1 -7.116962E+05 -2.538759E+06 -7.250078E+05  5.109468E+05 -2.687813E+04 -1.757567E+05
       172   2 -4.132530E+05 -1.826213E+06 -4.435024E+05  3.394608E+05 -7.316962E+04 -7.595402E+04
       172   3 -2.356230E+05 -1.157763E+06 -2.576094E+05  4.372647E+05 -5.187860E+04  2.374818E+04
       172   4 -1.183653E+05 -1.543652E+05 -1.444275E+05  4.580531E+05 -2.658496E+04 -9.896459E+04
       172   5  1.477230E+02 -1.374370E+05 -6.637596E+04  3.231797E+05 -7.310444E+04 -6.370316E+04
       172   6  9.303415E+03 -1.536655E+05 -3.883989E+04  4.575944E+05 -5.211194E+04 -2.865773E+04
       172   7  4.745613E+05  2.235250E+06  4.357643E+05  4.049488E+05 -2.630559E+04 -2.187682E+04
       172   8  4.133558E+05  1.554003E+06  3.105721E+05  3.068504E+05 -7.304001E+04 -5.141906E+04
       172   9  2.541656E+05  8.513845E+05  1.798796E+05  4.779561E+05 -5.234849E+04 -8.114740E+04
       172  10 -7.117053E+05 -2.538792E+06 -7.250675E+05  5.109430E+05  8.117186E-10  1.395373E-09
       172  11 -4.132603E+05 -1.826220E+06 -4.435233E+05  3.394563E+05  4.038450E-09  8.072375E-11
       172  12 -2.356261E+05 -1.157764E+06 -2.576155E+05  4.372657E+05  2.153706E-09  6.723062E-09
       172  13 -1.183687E+05 -1.543759E+05 -1.444473E+05  4.580510E+05 -1.398529E-09 -9.000253E-09
       172  14  1.408982E+02 -1.374428E+05 -6.639362E+04  3.231759E+05  3.113835E-09  3.615288E-09
       172  15  9.300280E+03 -1.536671E+05 -3.884653E+04  4.575932E+05 -2.888566E-10  8.824183E-09
       172  16  4.745605E+05  2.235249E+06  4.357621E+05  4.049483E+05 -1.354356E-09  1.470082E-09
       172  17  4.133494E+05  1.553999E+06  3.105571E+05  3.068474E+05 -6.334533E-09 -8.153866E-09
       172  18  2.541609E+05  8.513767E+05  1.798621E+05  4.779527E+05 -1.033598E-09 -2.277482E-09
       172  19 -7.116962E+05 -2.538759E+06 -7.250078E+05  5.109468E+05  2.687813E+04  1.757567E+05
       172  20 -4.132530E+05 -1.826213E+06 -4.435024E+05  3.394608E+05  7.316962E+04  7.595402E+04
       172  21 -2.356230E+05 -1.157763E+06 -2.576094E+05  4.372647E+05  5.187860E+04 -2.374818E+04
       172  22 -1.183653E+05 -1.543652E+05 -1.444275E+05  4.580531E+05  2.658496E+04  9.896459E+04
       172  23  1.477230E+02 -1.374370E+05 -6.637596E+04  3.231797E+05  7.310444E+04  6.370316E+04
       172  24  9.303415E+03 -1.536655E+05 -3.883989E+04  4.575944E+05  5.211194E+04  2.865773E+04
       172  25  4.745613E+05  2.235250E+06  4.357643E+05  4.049488E+05  2.630559E+04  2.187682E+04
       172  26  4.133558E+05  1.554003E+06  3.105721E+05  3.068504E+05  7.304001E+04  5.141906E+04
       172  27  2.541656E+05  8.513845E+05  1.798796E+05  4.779561E+05  5.234849E+04  8.114740E+04
       173   1 -1.130578E+05 -6.017202E+05 -1.304657E+05  4.591250E+05 -2.276947E+04  1.091040E+04
       173   2  6.025852E+04  9.098884E+04  3.345121E+04  3.234613E+05  1.268423E+04  1.908568E+04
       173   3  2.290455E+05  7.793867E+05  1.902358E+05  4.598196E+05  4.758776E+04  2.728270E+04
       173   4 -2.248304E+03 -1.471981E+05 -3.104920E+04  4.583279E+05 -2.292994E+04 -2.334302E+04
       173   5  2.870397E+03 -1.448246E+05 -1.763209E+04  3.223005E+05  1.253160E+04 -1.464968E+04
       173   6  3.401012E+03 -1.472943E+05 -1.168081E+04  4.583017E+05  4.744123E+04 -5.943519E+03
       173   7  1.085480E+05  3.075200E+05  6.835917E+04  4.575299E+05 -2.309024E+04 -5.762122E+04
       173   8 -5.452078E+04 -3.805835E+05 -6.871441E+04  3.211400E+05  1.237905E+04 -4.837240E+04
       173   9 -2.223000E+05 -1.073169E+06 -2.136449E+05  4.567849E+05  4.729474E+04 -3.912082E+04
       173  10 -1.130584E+05 -6.017204E+05 -1.304669E+05  4.591252E+05  1.536637E-09  3.599733E-10
       173  11  6.025824E+04  9.098841E+04  3.345022E+04  3.234611E+05 -1.225814E-10 -1.107716E-09
       173  12  2.290429E+05  7.793853E+05  1.902302E+05  4.598185E+05 -9.933272E-10  5.853495E-09
       173  13 -2.249014E+03 -1.471989E+05 -3.105121E+04  4.583275E+05  1.517318E-09 -1.281246E-08
       173  14  2.870170E+03 -1.448249E+05 -1.763279E+04  3.223006E+05  4.499084E-09  4.406727E-09
       173  15  3.398585E+03 -1.472949E+05 -1.168510E+04  4.583019E+05  6.113260E-10  8.681085E-09
       173  16  1.085466E+05  3.075163E+05  6.835194E+04  4.575289E+05  1.032120E-09  4.060491E-09
       173  17 -5.452158E+04 -3.805860E+05 -6.871910E+04  3.211405E+05  1.721534E-09 -7.678145E-09
       173  18 -2.223028E+05 -1.073171E+06 -2.136520E+05  4.567864E+05 -1.405123E-09 -1.606796E-09
       173  19 -1.130578E+05 -6.017202E+05 -1.304657E+05  4.591250E+05  2.276947E+04 -1.091040E+04
       173  20  6.025852E+04  9.098884E+04  3.345121E+04  3.234613E+05 -1.268423E+04 -1.908568E+04
       173  21  2.290455E+05  7.793867E+05  1.902358E+05  4.598196E+05 -4.758776E+04 -2.728270E+04
       173  22 -2.248304E+03 -1.471981E+05 -3.104920E+04  4.583279E+05  2.292994E+04  2.334302E+04
       173  23  2.870397E+03 -1.448246E+05 -1.763209E+04  3.223005E+05 -1.253160E+04  1.464968E+04
       173  24  3.401012E+03 -1.472943E+05 -1.168081E+04  4.583017E+05 -4.744123E+04  5.943519E+03
       173  25  1.085480E+05  3.075200E+05  6.835917E+04  4.575299E+05  2.309024E+04  5.762122E+04
       173  26 -5.452078E+04 -3.805835E+05 -6.871441E+04  3.211400E+05 -1.237905E+04  4.837240E+04
       173  27 -2.223000E+05 -1.073169E+06 -2.136449E+05  4.567849E+05 -4.729474E+04  3.912082E+04
       174   1  3.630606E+05  1.330464E+06  3.107656E+05  4.634195E+05  7.773543E+04  5.070364E+04
       174   2  5.293829E+05  2.016930E+06  4.716397E+05  3.267194E+05  9.490230E+04 -2.096702E+04
       174   3  7.014922E+05  2.714169E+06  6.803567E+05  4.584563E+05  3.269483E+04 -9.250415E+04
       174   4  3.578742E+03 -1.471525E+05 -9.935345E+03  4.575146E+05  7.751005E+04 -4.276387E+03
       174   5  1.098401E+03 -1.461495E+05 -9.156416E+03  3.232851E+05  9.500212E+04  4.482024E+02
       174   6 -8.807130E+03 -1.480355E+05 -1.348636E+04  4.575517E+05  3.299514E+04  5.386380E+03
       174   7 -3.560459E+05 -1.622717E+06 -3.307553E+05  4.516210E+05  7.728540E+04 -5.912748E+04
       174   8 -5.275024E+05 -2.304872E+06 -4.902426E+05  3.198581E+05  9.510192E+04  2.178982E+04
       174   9 -7.197019E+05 -3.002758E+06 -7.078841E+05  4.566432E+05  3.329599E+04  1.028284E+05
       174  10  3.630534E+05  1.330460E+06  3.107495E+05  4.634163E+05  1.878218E-09  3.159205E-09
       174  11  5.293732E+05  2.016927E+06  4.716220E+05  3.267210E+05  3.521836E-11 -5.481261E-10
       174  12  7.014888E+05  2.714160E+06  6.803387E+05  4.584587E+05  6.196189E-10  2.343308E-09
       174  13  3.572285E+03 -1.471541E+05 -9.946669E+03  4.575148E+05 -1.057117E-09 -1.173224E-08
       174  14  1.088710E+03 -1.461519E+05 -9.173375E+03  3.232851E+05 -9.045983E-10  3.283708E-09
       174  15 -8.808307E+03 -1.480358E+05 -1.348846E+04  4.575515E+05  7.644466E-10  5.109070E-09
       174  16 -3.560533E+05 -1.622723E+06 -3.307731E+05  4.516247E+05 -1.963900E-09  6.066146E-10
       174  17 -5.275123E+05 -2.304875E+06 -4.902605E+05  3.198565E+05 -2.701076E-09 -5.963687E-09
       174  18 -7.197059E+05 -3.002770E+06 -7.079062E+05  4.566404E+05  2.943935E-11  7.011497E-12
       174  19  3.630606E+05  1.330464E+06  3.107656E+05  4.634195E+05 -7.773543E+04 -5.070364E+04
       174  20  5.293829E+05  2.016930E+06  4.716397E+05  3.267194E+05 -9.490230E+04  2.096702E+04
       174  21  7.014922E+05  2.714169E+06  6.803567E+05  4.584563E+05 -3.269483E+04  9.250415E+04
       174  22  3.578742E+03 -1.471525E+05 -9.935345E+03  4.575146E+05 -7.751005E+04  4.276387E+03
       174  23  1.098401E+03 -1.461495E+05 -9.156416E+03  3.232851E+05 -9.500212E+04 -4.482024E+02
       174  24 -8.807130E+03 -1.480355E+05 -1.348636E+04  4.575517E+05 -3.299514E+04 -5.386380E+03
       174  25 -3.560459E+05 -1.622717E+06 -3.307553E+05  4.516210E+05 -7.728540E+04  5.912748E+04
       174  26 -5.275024E+05 -2.304872E+06 -4.902426E+05  3.198581E+05 -9.510192E+04 -2.178982E+04
       174  27 -7.197019E+05 -3.002758E+06 -7.078841E+05  4.566432E+05 -3.329599E+04 -1.028284E+05
       175   1  6.884786E+06  1.403542E+06  1.399086E+06  6.026021E+05  2.987777E+05 -6.430577E+04
       175   2  6.033763E+06  1.053286E+06  1.027754E+06  4.077208E+05  1.272632E+05 -1.950493E+05
       175   3  5.247831E+06  8.491092E+05  8.048381E+05  5.274592E+05 -4.387192E+04 -1.875170E+05
       175   4  1.716963E+06  1.262310E+05  1.536880E+05  5.407065E+05  1.047437E+05 -6.426461E+04
       175   5  1.697212E+06 -1.623249E+03  7.046709E+04  3.833768E+05  6.752190E+04 -1.951930E+05
       175   6  1.719146E+06 -5.992851E+03  4.339638E+04  5.407369E+05  3.043776E+04 -1.874343E+05
       175   7 -3.426557E+06 -1.152986E+06 -1.093473E+06  4.793166E+05 -8.769742E+04 -6.418554E+04
       175   8 -2.621899E+06 -1.057788E+06 -8.879640E+05  3.591955E+05  8.188639E+03 -1.953328E+05
       175   9 -1.797915E+06 -8.619077E+05 -7.187592E+05  5.539277E+05  1.043332E+05 -1.873482E+05
       175  10  6.884690E+06  1.403514E+06  1.398913E+06  6.026176E+05  6.179778E-10 -6.875849E-10
       175  11  6.033735E+06  1.053241E+06  1.027652E+06  4.077408E+05 -5.276372E-10 -3.129985E-09
       175  12  5.247820E+06  8.490709E+05  8.047684E+05  5.274526E+05  2.835203E-09 -4.386064E-09
       175  13  1.716950E+06  1.262236E+05  1.536597E+05  5.407119E+05  6.070714E-10 -1.439488E-09
       175  14  1.697197E+06 -1.665425E+03  7.038685E+04  3.833874E+05 -2.659207E-09 -2.028357E-09
       175  15  1.719136E+06 -6.030861E+03  4.332855E+04  5.407415E+05  2.163948E-09 -1.228917E-09
       175  16 -3.426567E+06 -1.152992E+06 -1.093496E+06  4.793120E+05 -2.447762E-09 -6.290777E-10
       175  17 -2.621909E+06 -1.057829E+06 -8.880359E+05  3.591968E+05  1.922555E-10 -1.822604E-09
       175  18 -1.797937E+06 -8.619484E+05 -7.188458E+05  5.539435E+05  1.490529E-10 -6.026651E-09
       175  19  6.884786E+06  1.403542E+06  1.399086E+06  6.026021E+05 -2.987777E+05  6.430577E+04
       175  20  6.033763E+06  1.053286E+06  1.027754E+06  4.077208E+05 -1.272632E+05  1.950493E+05
       175  21  5.247831E+06  8.491092E+05  8.048381E+05  5.274592E+05  4.387192E+04  1.875170E+05
       175  22  1.716963E+06  1.262310E+05  1.536880E+05  5.407065E+05 -1.047437E+05  6.426461E+04
       175  23  1.697212E+06 -1.623249E+03  7.046709E+04  3.833768E+05 -6.752190E+04  1.951930E+05
       175  24  1.719146E+06 -5.992851E+03  4.339638E+04  5.407369E+05 -3.043776E+04  1.874343E+05
       175  25 -3.426557E+06 -1.152986E+06 -1.093473E+06  4.793166E+05  8.769742E+04  6.418554E+04
       175  26 -2.621899E+06 -1.057788E+06 -8.879640E+05  3.591955E+05 -8.188639E+03  1.953328E+05
       175  27 -1.797915E+06 -8.619077E+05 -7.187592E+05  5.539277E+05 -1.043332E+05  1.873482E+05
       176   1  4.591744E+06  7.061657E+05  6.597432E+05  5.490940E+05 -1.065965E+04 -1.489392E+05
       176   2  3.780888E+06  5.034646E+05  4.699935E+05  3.877458E+05 -2.788157E+04 -1.099935E+05
       176   3  2.974675E+06  3.103039E+05  2.935873E+05  5.441234E+05 -4.520615E+04 -6.504341E+04
       176   4  1.711453E+06  7.300286E+03  3.536875E+04  5.414078E+05  2.401212E+04 -1.488936E+05
       176   5  1.710426E+06  1.199551E+03  2.270089E+04  3.825211E+05  1.261126E+04 -1.098868E+05
       176   6  1.712454E+06  3.692327E+03  1.941051E+04  5.414229E+05  1.086039E+03 -6.486418E+04
       176   7 -1.161101E+06 -6.921110E+05 -5.894949E+05  5.337492E+05  5.852589E+04 -1.488487E+05
       176   8 -3.560293E+05 -5.013463E+05 -4.248390E+05  3.773096E+05  5.297147E+04 -1.097806E+05
       176   9  4.517234E+05 -3.030234E+05 -2.548534E+05  5.387258E+05  4.728570E+04 -6.468513E+04
       176  10  4.591738E+06  7.061418E+05  6.597013E+05  5.490927E+05 -4.108358E-09 -5.457587E-09
       176  11  3.780884E+06  5.034514E+05  4.699693E+05  3.877433E+05  1.617263E-09  2.132291E-09
       176  12  2.974672E+06  3.102988E+05  2.935755E+05  5.441210E+05 -2.297781E-09  5.232524E-09
       176  13  1.711447E+06  7.276302E+03  3.532596E+04  5.414107E+05  5.623805E-11 -4.281270E-09
       176  14  1.710423E+06  1.186531E+03  2.267788E+04  3.825222E+05 -6.673793E-10 -5.559108E-10
       176  15  1.712452E+06  3.687805E+03  1.940260E+04  5.414229E+05 -3.633114E-10 -2.248910E-09
       176  16 -1.161111E+06 -6.921358E+05 -5.895430E+05  5.337563E+05  2.164330E-09 -1.558693E-09
       176  17 -3.560355E+05 -5.013600E+05 -4.248670E+05  3.773143E+05  5.516765E-10  8.335882E-10
       176  18  4.517199E+05 -3.030285E+05 -2.548655E+05  5.387283E+05  1.811782E-09  2.238236E-09
       176  19  4.591744E+06  7.061657E+05  6.597432E+05  5.490940E+05  1.065965E+04  1.489392E+05
       176  20  3.780888E+06  5.034646E+05  4.699935E+05  3.877458E+05  2.788157E+04  1.099935E+05
       176  21  2.974675E+06  3.103039E+05  2.935873E+05  5.441234E+05  4.520615E+04  6.504341E+04
       176  22  1.711453E+06  7.300286E+03  3.536875E+04  5.414078E+05 -2.401212E+04  1.488936E+05
       176  23  1.710426E+06  1.199551E+03  2.270089E+04  3.825211E+05 -1.261126E+04  1.098868E+05
       176  24  1.712454E+06  3.692327E+03  1.941051E+04  5.414229E+05 -1.086039E+03  6.486418E+04
       176  25 -1.161101E+06 -6.921110E+05 -5.894949E+05  5.337492E+05 -5.852589E+04  1.488487E+05
       176  26 -3.560293E+05 -5.013463E+05 -4.248390E+05  3.773096E+05 -5.297147E+04  1.097806E+05
       176  27  4.517234E+05 -3.030234E+05 -2.548534E+05  5.387258E+05 -4.728570E+04  6.468513E+04
       177   1  2.334822E+06  1.544074E+05  1.520200E+05  5.442412E+05 -4.811554E+04 -3.687625E+04
       177   2  1.528995E+06 -4.184008E+04 -1.518529E+04  3.815010E+05 -5.702544E+04  8.567788E+03
       177   3  7.246736E+05 -2.290971E+05 -1.750341E+05  5.357297E+05 -6.590380E+04  5.018932E+04
       177   4  1.712381E+06  3.717375E+03  1.968031E+04  5.412411E+05 -2.510829E+03 -3.668485E+04
       177   5  1.711568E+06  2.630437E+03  2.487205E+04  3.827470E+05 -1.512563E+04  8.738103E+03
       177   6  1.712281E+06  1.120937E+04  3.999914E+04  5.412108E+05 -2.771992E+04  5.034129E+04
       177   7  1.090307E+06 -1.469966E+05 -1.126738E+05  5.382436E+05  4.304898E+04 -3.649378E+04
       177   8  1.894176E+06  4.709968E+04  6.493395E+04  3.839933E+05  2.678632E+04  8.908558E+03
       177   9  2.700804E+06  2.514521E+05  2.549794E+05  5.466995E+05  1.052388E+04  5.049379E+04
       177  10  2.334819E+06  1.544053E+05  1.520131E+05  5.442398E+05 -2.504557E-10  7.904392E-09
       177  11  1.528992E+06 -4.184103E+04 -1.519152E+04  3.815014E+05 -5.996368E-10  4.702623E-09
       177  12  7.246683E+05 -2.291010E+05 -1.750470E+05  5.357323E+05  5.514073E-09 -1.432640E-09
       177  13  1.712380E+06  3.715927E+03  1.967777E+04  5.412410E+05  9.666646E-10 -2.671903E-09
       177  14  1.711568E+06  2.630294E+03  2.487148E+04  3.827471E+05 -8.933007E-10  5.338576E-09
       177  15  1.712280E+06  1.120644E+04  3.999293E+04  5.412119E+05  3.981653E-09  7.900335E-09
       177  16  1.090305E+06 -1.469985E+05 -1.126798E+05  5.382448E+05 -6.416953E-10  5.598737E-09
       177  17  1.894175E+06  4.709940E+04  6.493246E+04  3.839931E+05  8.779565E-11  7.380267E-09
       177  18  2.700803E+06  2.514493E+05  2.549744E+05  5.466990E+05 -6.043441E-09  2.721027E-09
       177  19  2.334822E+06  1.544074E+05  1.520200E+05  5.442412E+05  4.811554E+04  3.687625E+04
       177  20  1.528995E+06 -4.184008E+04 -1.518529E+04  3.815010E+05  5.702544E+04 -8.567788E+03
       177  21  7.246736E+05 -2.290971E+05 -1.750341E+05  5.357297E+05  6.590380E+04 -5.018932E+04
       177  22  1.712381E+06  3.717375E+03  1.968031E+04  5.412411E+05  2.510829E+03  3.668485E+04
       177  23  1.711568E+06  2.630437E+03  2.487205E+04  3.827470E+05  1.512563E+04 -8.738103E+03
       177  24  1.712281E+06  1.120937E+04  3.999914E+04  5.412108E+05  2.771992E+04 -5.034129E+04
       177  25  1.090307E+06 -1.469966E+05 -1.126738E+05  5.382436E+05 -4.304898E+04  3.649378E+04
       177  26  1.894176E+06  4.709968E+04  6.493395E+04  3.839933E+05 -2.678632E+04 -8.908558E+03
       177  27  2.700804E+06  2.514521E+05  2.549794E+05  5.466995E+05 -1.052388E+04 -5.049379E+04
       178   1  9.214602E+04 -3.994506E+05 -3.043048E+05  5.570262E+05 -9.875587E+04  8.464610E+04
       178   2 -7.288033E+05 -5.908022E+05 -4.589093E+05  3.524858E+05 -5.491842E+04  1.061245E+05
       178   3 -1.523268E+06 -6.569430E+05 -6.107851E+05  4.621208E+05 -1.095116E+04  3.709598E+04
       178   4  1.720652E+06 -3.511890E+03  4.923821E+04  5.406761E+05 -3.497741E+04  8.488172E+04
       178   5  1.699627E+06  2.959104E+03  8.152007E+04  3.834530E+05 -7.806952E+04  1.060228E+05
       178   6  1.719367E+06  1.494736E+05  1.767372E+05  5.402736E+05 -1.209778E+05  3.682196E+04
       178   7  3.351651E+06  3.922550E+05  4.026386E+05  5.242792E+05  2.896618E+04  8.511361E+04
       178   8  4.133556E+06  5.963247E+05  6.215839E+05  4.145372E+05 -1.013098E+05  1.059191E+05
       178   9  4.971640E+06  9.551465E+05  9.635488E+05  6.188270E+05 -2.315772E+05  3.652116E+04
       178  10  9.213361E+04 -3.994609E+05 -3.043366E+05  5.570329E+05  4.910551E-09 -1.789789E-09
       178  11 -7.288095E+05 -5.908151E+05 -4.589362E+05  3.524905E+05  7.289635E-10  4.343189E-09
       178  12 -1.523268E+06 -6.569446E+05 -6.107879E+05  4.621211E+05 -1.250377E-09  1.462640E-09
       178  13  1.720649E+06 -3.519964E+03  4.922235E+04  5.406785E+05 -7.015790E-11  1.997215E-09
       178  14  1.699618E+06  2.945385E+03  8.148748E+04  3.834597E+05  8.416563E-11  4.997300E-09
       178  15  1.719351E+06  1.494682E+05  1.767072E+05  5.402772E+05  1.737744E-09 -1.055807E-09
       178  16  3.351648E+06  3.922470E+05  4.026234E+05  5.242772E+05 -2.912369E-09  2.310150E-09
       178  17  4.133542E+06  5.963099E+05  6.215436E+05  4.145458E+05 -1.552454E-10  4.458900E-10
       178  18  4.971583E+06  9.551308E+05  9.634463E+05  6.188338E+05 -7.861361E-10 -1.685678E-09
       178  19  9.214602E+04 -3.994506E+05 -3.043048E+05  5.570262E+05  9.875587E+04 -8.464610E+04
       178  20 -7.288033E+05 -5.908022E+05 -4.589093E+05  3.524858E+05  5.491842E+04 -1.061245E+05
       178  21 -1.523268E+06 -6.569430E+05 -6.107851E+05  4.621208E+05  1.095116E+04 -3.709598E+04
       178  22  1.720652E+06 -3.511890E+03  4.923821E+04  5.406761E+05  3.497741E+04 -8.488172E+04
       178  23  1.699627E+06  2.959104E+03  8.152007E+04  3.834530E+05  7.806952E+04 -1.060228E+05
       178  24  1.719367E+06  1.494736E+05  1.767372E+05  5.402736E+05  1.209778E+05 -3.682196E+04
       178  25  3.351651E+06  3.922550E+05  4.026386E+05  5.242792E+05 -2.896618E+04 -8.511361E+04
       178  26  4.133556E+06  5.963247E+05  6.215839E+05  4.145372E+05  1.013098E+05 -1.059191E+05
       178  27  4.971640E+06  9.551465E+05  9.635488E+05  6.188270E+05  2.315772E+05 -3.652116E+04
       179   1 -7.400347E+05 -2.203575E+06 -7.499288E+05  5.650197E+05 -2.801720E+04 -1.719975E+05
       179   2 -4.304299E+05 -1.406036E+06 -4.518038E+05  3.800549E+05 -7.554960E+04 -7.155259E+04
       179   3 -2.321561E+05 -6.498972E+05 -2.472973E+05  4.981079E+05 -5.070252E+04  2.883377E+04
       179   4 -1.076989E+05  3.379034E+05 -1.310587E+05  5.169121E+05 -2.775608E+04 -9.173188E+04
       179   5  1.158376E+02  3.531886E+05 -5.878253E+04  3.652313E+05 -7.549414E+04 -6.045088E+04
       179   6  8.857296E+03  3.386921E+05 -3.182670E+04  5.165591E+05 -5.093379E+04 -2.935858E+04
       179   7  5.241742E+05  2.885306E+06  4.873686E+05  4.685999E+05 -2.750810E+04 -1.113710E+04
       179   8  4.304523E+05  2.115301E+06  3.340448E+05  3.503620E+05 -7.543931E+04 -4.931780E+04
       179   9  2.498087E+05  1.328205E+06  1.835980E+05  5.350388E+05 -5.116830E+04 -8.764244E+04
       179  10 -7.400435E+05 -2.203607E+06 -7.499860E+05  5.650158E+05  2.063562E-10 -1.029956E-09
       179  11 -4.304374E+05 -1.406043E+06 -4.518242E+05  3.800506E+05  2.717425E-09  3.002683E-09
       179  12 -2.321591E+05 -6.498987E+05 -2.473037E+05  4.981090E+05 -2.381167E-10  2.531500E-09
       179  13 -1.077020E+05  3.378941E+05 -1.310760E+05  5.169101E+05  5.108535E-10  2.273353E-09
       179  14  1.087400E+02  3.531832E+05 -5.880009E+04  3.652276E+05  1.649003E-09  6.113124E-09
       179  15  8.854280E+03  3.386905E+05 -3.183319E+04  5.165579E+05 -1.281298E-09 -5.213164E-10
       179  16  5.241733E+05  2.885306E+06  4.873669E+05  4.685997E+05  2.375141E-10  9.423500E-10
       179  17  4.304455E+05  2.115297E+06  3.340296E+05  3.503590E+05 -1.322793E-09  8.429116E-09
       179  18  2.498038E+05  1.328196E+06  1.835787E+05  5.350352E+05 -1.119575E-09  1.093551E-09
       179  19 -7.400347E+05 -2.203575E+06 -7.499288E+05  5.650197E+05  2.801720E+04  1.719975E+05
       179  20 -4.304299E+05 -1.406036E+06 -4.518038E+05  3.800549E+05  7.554960E+04  7.155259E+04
       179  21 -2.321561E+05 -6.498972E+05 -2.472973E+05  4.981079E+05  5.070252E+04 -2.883377E+04
       179  22 -1.076989E+05  3.379034E+05 -1.310587E+05  5.169121E+05  2.775608E+04  9.173188E+04
       179  23  1.158376E+02  3.531886E+05 -5.878253E+04  3.652313E+05  7.549414E+04  6.045088E+04
       179  24  8.857296E+03  3.386921E+05 -3.182670E+04  5.165591E+05  5.093379E+04  2.935858E+04
       179  25  5.241742E+05  2.885306E+06  4.873686E+05  4.685999E+05  2.750810E+04  1.113710E+04
       179  26  4.304523E+05  2.115301E+06  3.340448E+05  3.503620E+05  7.543931E+04  4.931780E+04
       179  27  2.498087E+05  1.328205E+06  1.835980E+05  5.350388E+05  5.116830E+04  8.764244E+04
       180   1 -9.228787E+04 -2.590456E+04 -1.047407E+05  5.177105E+05 -1.825161E+04  1.356223E+04
       180   2  1.013460E+05  7.519431E+05  8.018966E+04  3.660644E+05  2.172328E+04  1.635243E+04
       180   3  2.940520E+05  1.527423E+06  2.624226E+05  5.202125E+05  6.075681E+04  1.916969E+04
       180   4 -1.922013E+03  3.448148E+05 -2.351893E+04  5.172782E+05 -1.841454E+04 -2.526853E+04
       180   5  2.685856E+03  3.462582E+05 -7.632775E+03  3.643586E+05  2.157394E+04 -2.158681E+04
       180   6  6.251939E+03  3.446240E+05  4.972144E+03  5.172448E+05  6.061868E+04 -1.788152E+04
       180   7  8.843549E+04  7.156660E+05  5.770016E+04  5.168454E+05 -1.857736E+04 -6.412218E+04
       180   8 -9.598437E+04 -5.926923E+04 -9.545958E+04  3.626538E+05  2.142474E+04 -5.950161E+04
       180   9 -2.816402E+05 -8.368634E+05 -2.525571E+05  5.142811E+05  6.048075E+04 -5.486316E+04
       180  10 -9.228828E+04 -2.590485E+04 -1.047417E+05  5.177107E+05  1.319568E-10  2.061267E-10
       180  11  1.013454E+05  7.519427E+05  8.018828E+04  3.660641E+05 -1.944267E-10  3.744094E-09
       180  12  2.940480E+05  1.527422E+06  2.624150E+05  5.202115E+05 -2.732837E-10  7.275911E-11
       180  13 -1.922547E+03  3.448140E+05 -2.352076E+04  5.172778E+05 -4.137330E-10  3.613728E-09
       180  14  2.685231E+03  3.462576E+05 -7.634526E+03  3.643590E+05  6.946722E-09  7.319739E-09
       180  15  6.247905E+03  3.446227E+05  4.964633E+03  5.172457E+05  1.821544E-09 -5.782879E-10
       180  16  8.843402E+04  7.156615E+05  5.769180E+04  5.168444E+05 -2.317948E-10 -1.239828E-10
       180  17 -9.598582E+04 -5.927315E+04 -9.546710E+04  3.626549E+05  1.920452E-09  1.076109E-08
       180  18 -2.816450E+05 -8.368676E+05 -2.525696E+05  5.142837E+05 -5.987849E-10  3.151972E-09
       180  19 -9.228787E+04 -2.590456E+04 -1.047407E+05  5.177105E+05  1.825161E+04 -1.356223E+04
       180  20  1.013460E+05  7.519431E+05  8.018966E+04  3.660644E+05 -2.172328E+04 -1.635243E+04
       180  21  2.940520E+05  1.527423E+06  2.624226E+05  5.202125E+05 -6.075681E+04 -1.916969E+04
       180  22 -1.922013E+03  3.448148E+05 -2.351893E+04  5.172782E+05  1.841454E+04  2.526853E+04
       180  23  2.685856E+03  3.462582E+05 -7.632775E+03  3.643586E+05 -2.157394E+04  2.158681E+04
       180  24  6.251939E+03  3.446240E+05  4.972144E+03  5.172448E+05 -6.061868E+04  1.788152E+04
       180  25  8.843549E+04  7.156660E+05  5.770016E+04  5.168454E+05  1.857736E+04  6.412218E+04
       180  26 -9.598437E+04 -5.926923E+04 -9.545958E+04  3.626538E+05 -2.142474E+04  5.950161E+04
       180  27 -2.816402E+05 -8.368634E+05 -2.525571E+05  5.142811E+05 -6.048075E+04  5.486316E+04
       181   1  4.383836E+05  2.150975E+06  4.015109E+05  5.135249E+05  9.489244E+04  4.343609E+04
       181   2  6.295241E+05  2.914588E+06  5.969167E+05  3.792426E+05  1.131956E+05 -5.951376E+04
       181   3  8.869601E+05  3.709267E+06  8.757434E+05  5.469296E+05  3.873156E+04 -1.624349E+05
       181   4  2.614773E+02  3.482659E+05  1.071520E+04  5.164468E+05  9.468287E+04 -1.916139E+04
       181   5  1.241734E+03  3.401007E+05  2.537919E+04  3.653716E+05  1.133039E+05 -3.266045E+04
       181   6  5.320498E+04  3.470761E+05  6.160436E+04  5.163194E+05  3.899081E+04 -4.599878E+04
       181   7 -4.380731E+05 -1.451393E+06 -3.802592E+05  5.193563E+05  9.447234E+04 -8.157994E+04
       181   8 -6.274873E+05 -2.228221E+06 -5.465679E+05  3.515527E+05  1.134113E+05 -5.916637E+03
       181   9 -7.813670E+05 -3.004800E+06 -7.532969E+05  4.858655E+05  3.923955E+04  6.981214E+04
       181  10  4.383734E+05  2.150970E+06  4.014904E+05  5.135216E+05 -1.334637E-09 -5.577983E-10
       181  11  6.295094E+05  2.914581E+06  5.968860E+05  3.792481E+05  3.418988E-10  3.004997E-09
       181  12  8.869514E+05  3.709238E+06  8.756913E+05  5.469347E+05  5.516073E-11  9.271097E-10
       181  13  2.517482E+02  3.482631E+05  1.069765E+04  5.164483E+05  3.631294E-10  2.958175E-09
       181  14  1.227657E+03  3.400961E+05  2.535305E+04  3.653746E+05  1.966327E-09  4.594744E-09
       181  15  5.320277E+04  3.470734E+05  6.159752E+04  5.163209E+05  1.561337E-09 -2.307216E-10
       181  16 -4.380845E+05 -1.451403E+06 -3.802886E+05  5.193625E+05 -1.210262E-09  2.300487E-10
       181  17 -6.275011E+05 -2.228225E+06 -5.465922E+05  3.515532E+05 -1.525307E-09  6.207734E-09
       181  18 -7.813700E+05 -3.004806E+06 -7.533090E+05  4.858633E+05  9.978311E-10  1.580628E-10
       181  19  4.383836E+05  2.150975E+06  4.015109E+05  5.135249E+05 -9.489244E+04 -4.343609E+04
       181  20  6.295241E+05  2.914588E+06  5.969167E+05  3.792426E+05 -1.131956E+05  5.951376E+04
       181  21  8.869601E+05  3.709267E+06  8.757434E+05  5.469296E+05 -3.873156E+04  1.624349E+05
       181  22  2.614773E+02  3.482659E+05  1.071520E+04  5.164468E+05 -9.468287E+04  1.916139E+04
       181  23  1.241734E+03  3.401007E+05  2.537919E+04  3.653716E+05 -1.133039E+05  3.266045E+04
       181  24  5.320498E+04  3.470761E+05  6.160436E+04  5.163194E+05 -3.899081E+04  4.599878E+04
       181  25 -4.380731E+05 -1.451393E+06 -3.802592E+05  5.193563E+05 -9.447234E+04  8.157994E+04
       181  26 -6.274873E+05 -2.228221E+06 -5.465679E+05  3.515527E+05 -1.134113E+05  5.916637E+03
       181  27 -7.813670E+05 -3.004800E+06 -7.532969E+05  4.858655E+05 -3.923955E+04 -6.981214E+04
       182   1  3.099922E+06  5.452814E+05  5.361565E+05  3.079205E+05  9.150791E+04 -2.490391E+04
       182   2  2.649920E+06  4.066657E+05  3.811028E+05  2.155498E+05  2.945974E+04 -7.377974E+04
       182   3  2.215818E+06  2.984800E+05  2.739565E+05  2.942632E+05 -3.264080E+04 -6.477598E+04
       182   4  9.883004E+05  2.171119E+04  2.515642E+04  2.945807E+05  1.661750E+04 -2.505046E+04
       182   5  9.854689E+05  6.306584E+02  1.201620E+04  2.090504E+05  1.038601E+04 -7.383840E+04
       182   6  9.887432E+05  3.747222E+02  8.181056E+03  2.946261E+05  4.057444E+03 -6.467861E+04
       182   7 -1.119252E+06 -5.021814E+05 -4.861429E+05  2.812834E+05 -5.802006E+04 -2.519411E+04
       182   8 -6.764046E+05 -4.055908E+05 -3.572410E+05  2.025666E+05 -8.637354E+03 -7.389675E+04
       182   9 -2.369204E+05 -2.978292E+05 -2.576788E+05  2.949870E+05  4.068432E+04 -6.458110E+04
       182  10  3.099913E+06  5.452785E+05  5.361396E+05  3.079224E+05  9.302536E-10 -1.028100E-09
       182  11  2.649917E+06  4.066597E+05  3.810909E+05  2.155515E+05 -1.306301E-09 -7.540976E-10
       182  12  2.215816E+06  2.984753E+05  2.739466E+05  2.942615E+05 -2.340170E-09 -2.864574E-09
       182  13  9.882999E+05  2.171044E+04  2.515472E+04  2.945810E+05 -3.776338E-10  3.719993E-09
       182  14  9.854673E+05  6.247719E+02  1.200575E+04  2.090510E+05 -6.847309E-10 -4.620103E-11
       182  15  9.887421E+05  3.702234E+02  8.173160E+03  2.946264E+05 -3.076815E-10 -3.096392E-09
       182  16 -1.119255E+06 -5.021830E+05 -4.861504E+05  2.812822E+05 -1.469800E-09  7.488967E-10
       182  17 -6.764062E+05 -4.055967E+05 -3.572514E+05  2.025661E+05 -6.306347E-10 -3.671056E-09
       182  18 -2.369233E+05 -2.978341E+05 -2.576897E+05  2.949891E+05  1.993643E-09 -3.129395E-09
       182  19  3.099922E+06  5.452814E+05  5.361565E+05  3.079205E+05 -9.150791E+04  2.490391E+04
       182  20  2.649920E+06  4.066657E+05  3.811028E+05  2.155498E+05 -2.945974E+04  7.377974E+04
       182  21  2.215818E+06  2.984800E+05  2.739565E+05  2.942632E+05  3.264080E+04  6.477598E+04
       182  22  9.883004E+05  2.171119E+04  2.515642E+04  2.945807E+05 -1.661750E+04  2.505046E+04
       182  23  9.854689E+05  6.306584E+02  1.201620E+04  2.090504E+05 -1.038601E+04  7.383840E+04
       182  24  9.887432E+05  3.747222E+02  8.181056E+03  2.946261E+05 -4.057444E+03  6.467861E+04
       182  25 -1.119252E+06 -5.021814E+05 -4.861429E+05  2.812834E+05  5.802006E+04  2.519411E+04
       182  26 -6.764046E+05 -4.055908E+05 -3.572410E+05  2.025666E+05  8.637354E+03  7.389675E+04
       182  27 -2.369204E+05 -2.978292E+05 -2.576788E+05  2.949870E+05 -4.068432E+04  6.458110E+04
       183   1  1.863500E+06  2.155510E+05  1.977049E+05  2.974640E+05 -1.750031E+04 -4.517032E+04
       183   2  1.423508E+06  1.071020E+05  1.009186E+05  2.096780E+05 -2.311784E+04 -2.291910E+04
       183   3  9.839826E+05  1.304042E+03  8.164294E+03  2.950260E+05 -2.875070E+04  1.811842E+03
       183   4  9.875187E+05  2.542648E+03  7.262994E+03  2.950653E+05  2.727102E+03 -4.511211E+04
       183   5  9.876400E+05  1.134616E+03  6.377621E+03  2.084958E+05 -5.088888E+02 -2.284844E+04
       183   6  9.876326E+05  1.977092E+03  7.881207E+03  2.950673E+05 -3.764063E+03  1.896415E+03
       183   7  1.122561E+05 -2.105162E+05 -1.832233E+05  2.926693E+05  2.292641E+04 -4.505400E+04
       183   8  5.519505E+05 -1.048451E+05 -8.817276E+04  2.073144E+05  2.208442E+04 -2.277785E+04
       183   9  9.912840E+05  2.650475E+03  7.600465E+03  2.951086E+05  2.122271E+04  1.980991E+03
       183  10  1.863499E+06  2.155487E+05  1.977005E+05  2.974634E+05 -3.181386E-09  3.757742E-10
       183  11  1.423508E+06  1.071013E+05  1.009166E+05  2.096776E+05 -3.094248E-09  9.171736E-10
       183  12  9.839817E+05  1.303817E+03  8.162737E+03  2.950260E+05 -2.624083E-09  3.486333E-09
       183  13  9.875182E+05  2.540460E+03  7.259154E+03  2.950654E+05  1.061882E-09  6.359098E-10
       183  14  9.876398E+05  1.134055E+03  6.376639E+03  2.084958E+05 -2.341068E-09  1.520622E-09
       183  15  9.876326E+05  1.977084E+03  7.881174E+03  2.950673E+05 -1.334855E-09  3.928558E-09
       183  16  1.122550E+05 -2.105186E+05 -1.832281E+05  2.926701E+05  4.074137E-09  3.590335E-09
       183  17  5.519499E+05 -1.048457E+05 -8.817465E+04  2.073148E+05  1.232667E-09 -5.215135E-09
       183  18  9.912835E+05  2.650351E+03  7.599613E+03  2.951086E+05  8.764863E-10  2.788490E-10
       183  19  1.863500E+06  2.155510E+05  1.977049E+05  2.974640E+05  1.750031E+04  4.517032E+04
       183  20  1.423508E+06  1.071020E+05  1.009186E+05  2.096780E+05  2.311784E+04  2.291910E+04
       183  21  9.839826E+05  1.304042E+03  8.164294E+03  2.950260E+05  2.875070E+04 -1.811842E+03
       183  22  9.875187E+05  2.542648E+03  7.262994E+03  2.950653E+05 -2.727102E+03  4.511211E+04
       183  23  9.876400E+05  1.134616E+03  6.377621E+03  2.084958E+05  5.088888E+02  2.284844E+04
       183  24  9.876326E+05  1.977092E+03  7.881207E+03  2.950673E+05  3.764063E+03 -1.896415E+03
       183  25  1.122561E+05 -2.105162E+05 -1.832233E+05  2.926693E+05 -2.292641E+04  4.505400E+04
       183  26  5.519505E+05 -1.048451E+05 -8.817276E+04  2.073144E+05 -2.208442E+04  2.277785E+04
       183  27  9.912840E+05  2.650475E+03  7.600465E+03  2.951086E+05 -2.122271E+04 -1.980991E+03
       184   1  6.354578E+05 -8.432641E+04 -6.783146E+04  2.951732E+05 -3.044991E+04  1.720290E+04
       184   2  1.951584E+05 -1.916774E+05 -1.568799E+05  2.063651E+05 -3.510774E+04  4.187226E+04
       184   3 -2.438588E+05 -2.934501E+05 -2.417476E+05  2.907928E+05 -3.973206E+04  6.363446E+04
       184   4  9.879834E+05  1.558863E+03  9.403044E+03  2.950884E+05 -5.349467E+03  1.728637E+04
       184   5  9.870903E+05  9.429540E+02  1.474063E+04  2.084704E+05 -1.281522E+04  4.193587E+04
       184   6  9.877707E+05  6.397026E+03  2.620365E+04  2.950731E+05 -2.025059E+04  6.368057E+04
       184   7  1.340627E+06  8.743619E+04  8.663237E+04  2.950035E+05  1.976504E+04  1.736981E+04
       184   8  1.779611E+06  1.935222E+05  1.863257E+05  2.105778E+05  9.505349E+03  4.199958E+04
       184   9  2.220822E+06  3.061439E+05  2.940655E+05  2.993606E+05 -7.309380E+02  6.372690E+04
       184  10  6.354567E+05 -8.432698E+04 -6.783375E+04  2.951736E+05 -2.460370E-09  7.017413E-09
       184  11  1.951566E+05 -1.916796E+05 -1.568855E+05  2.063663E+05  7.930665E-11  9.717565E-10
       184  12 -2.438615E+05 -2.934549E+05 -2.417582E+05  2.907948E+05  4.614128E-09  3.922300E-09
       184  13  9.879833E+05  1.558534E+03  9.402428E+03  2.950885E+05 -2.764611E-11  4.082242E-09
       184  14  9.870897E+05  9.410204E+02  1.473701E+04  2.084708E+05  9.110918E-10  4.661868E-09
       184  15  9.877691E+05  6.392559E+03  2.619525E+04  2.950741E+05 -1.735428E-09 -6.214939E-10
       184  16  1.340626E+06  8.743576E+04  8.663107E+04  2.950032E+05  2.398953E-09  2.647100E-09
       184  17  1.779611E+06  1.935202E+05  1.863222E+05  2.105775E+05 -1.525122E-10 -8.439284E-10
       184  18  2.220821E+06  3.061395E+05  2.940578E+05  2.993607E+05 -6.024665E-09 -6.181928E-09
       184  19  6.354578E+05 -8.432641E+04 -6.783146E+04  2.951732E+05  3.044991E+04 -1.720290E+04
       184  20  1.951584E+05 -1.916774E+05 -1.568799E+05  2.063651E+05  3.510774E+04 -4.187226E+04
       184  21 -2.438588E+05 -2.934501E+05 -2.417476E+05  2.907928E+05  3.973206E+04 -6.363446E+04
       184  22  9.879834E+05  1.558863E+03  9.403044E+03  2.950884E+05  5.349467E+03 -1.728637E+04
       184  23  9.870903E+05  9.429540E+02  1.474063E+04  2.084704E+05  1.281522E+04 -4.193587E+04
       184  24  9.877707E+05  6.397026E+03  2.620365E+04  2.950731E+05  2.025059E+04 -6.368057E+04
       184  25  1.340627E+06  8.743619E+04  8.663237E+04  2.950035E+05 -1.976504E+04 -1.736981E+04
       184  26  1.779611E+06  1.935222E+05  1.863257E+05  2.105778E+05 -9.505349E+03 -4.199958E+04
       184  27  2.220822E+06  3.061439E+05  2.940655E+05  2.993606E+05  7.309380E+02 -6.372690E+04
       185   1 -5.890321E+05 -3.887228E+05 -3.101045E+05  3.061117E+05 -6.346529E+04  8.389044E+04
       185   2 -1.039639E+06 -4.921507E+05 -3.923224E+05  1.885634E+05 -2.850195E+04  9.061092E+04
       185   3 -1.472671E+06 -5.106367E+05 -4.759460E+05  2.419809E+05  6.513339E+03  3.020640E+04
       185   4  9.935434E+05 -3.729002E+03  3.291560E+04  2.946123E+05 -2.497747E+04  8.397577E+04
       185   5  9.790078E+05  1.327324E+03  5.574161E+04  2.090672E+05 -5.442695E+04  9.054001E+04
       185   6  9.929672E+05  1.023642E+05  1.218313E+05  2.944362E+05 -8.380289E+04  3.008056E+04
       185   7  2.578472E+06  3.811007E+05  3.757925E+05  2.830811E+05  1.360727E+04  8.405956E+04
       185   8  3.001460E+06  4.945318E+05  5.035552E+05  2.296361E+05 -8.043518E+04  9.046752E+04
       185   9  3.464184E+06  7.149337E+05  7.192026E+05  3.470978E+05 -1.744768E+05  2.993977E+04
       185  10 -5.890384E+05 -3.887314E+05 -3.101253E+05  3.061160E+05 -4.100479E-09  3.707138E-09
       185  11 -1.039642E+06 -4.921598E+05 -3.923394E+05  1.885655E+05 -1.116389E-09  7.888530E-10
       185  12 -1.472671E+06 -5.106377E+05 -4.759478E+05  2.419807E+05  3.041869E-09 -3.095193E-11
       185  13  9.935408E+05 -3.736747E+03  3.290117E+04  2.946140E+05 -4.284358E-10  5.055292E-09
       185  14  9.790024E+05  1.317721E+03  5.572063E+04  2.090712E+05  1.069382E-09 -2.305512E-09
       185  15  9.929594E+05  1.023613E+05  1.218164E+05  2.944382E+05  2.401881E-10  2.099078E-09
       185  16  2.578470E+06  3.810931E+05  3.757789E+05  2.830802E+05  3.967730E-09  1.478069E-11
       185  17  3.001451E+06  4.945213E+05  5.035277E+05  2.296420E+05  1.656272E-09  2.042738E-10
       185  18  3.464152E+06  7.149246E+05  7.191440E+05  3.471020E+05 -1.471833E-09 -1.522125E-09
       185  19 -5.890321E+05 -3.887228E+05 -3.101045E+05  3.061117E+05  6.346529E+04 -8.389044E+04
       185  20 -1.039639E+06 -4.921507E+05 -3.923224E+05  1.885634E+05  2.850195E+04 -9.061092E+04
       185  21 -1.472671E+06 -5.106367E+05 -4.759460E+05  2.419809E+05 -6.513339E+03 -3.020640E+04
       185  22  9.935434E+05 -3.729002E+03  3.291560E+04  2.946123E+05  2.497747E+04 -8.397577E+04
       185  23  9.790078E+05  1.327324E+03  5.574161E+04  2.090672E+05  5.442695E+04 -9.054001E+04
       185  24  9.929672E+05  1.023642E+05  1.218313E+05  2.944362E+05  8.380289E+04 -3.008056E+04
       185  25  2.578472E+06  3.811007E+05  3.757925E+05  2.830811E+05 -1.360727E+04 -8.405956E+04
       185  26  3.001460E+06  4.945318E+05  5.035552E+05  2.296361E+05  8.043518E+04 -9.046752E+04
       185  27  3.464184E+06  7.149337E+05  7.192026E+05  3.470978E+05  1.744768E+05 -2.993977E+04
       186   1 -1.504843E+06 -5.456254E+06 -1.505386E+06  9.143486E+05 -6.249666E+04 -3.233802E+05
       186   2 -1.003457E+06 -4.169418E+06 -1.003262E+06  6.147030E+05 -1.804140E+05 -1.318906E+05
       186   3 -6.806547E+05 -2.946343E+06 -6.705114E+05  8.035871E+05 -1.492206E+05  5.998647E+04
       186   4 -1.724916E+05 -1.137260E+05 -2.041525E+05  8.337383E+05 -6.229664E+04 -1.402993E+05
       186   5 -4.161795E+03 -9.221507E+04 -9.392607E+04  5.894044E+05 -1.802488E+05 -9.049286E+04
       186   6  1.108227E+04 -1.106853E+05 -5.363282E+04  8.335284E+05 -1.494948E+05 -4.070604E+04
       186   7  1.157796E+06  5.255081E+06  1.095140E+06  7.524067E+05 -6.214627E+04  4.436754E+04
       186   8  9.940064E+05  4.000561E+06  8.143753E+05  5.639234E+05 -1.800879E+05 -4.882327E+04
       186   9  7.022931E+05  2.732558E+06  5.628028E+05  8.635980E+05 -1.497780E+05 -1.418538E+05
       186  10 -1.504876E+06 -5.456368E+06 -1.505591E+06  9.143323E+05 -1.099709E-09  1.389141E-09
       186  11 -1.003496E+06 -4.169446E+06 -1.003356E+06  6.146838E+05  4.396338E-10 -3.239152E-09
       186  12 -6.806796E+05 -2.946352E+06 -6.705601E+05  8.035943E+05  1.890264E-09 -4.874341E-10
       186  13 -1.725010E+05 -1.137481E+05 -2.041967E+05  8.337313E+05 -2.650347E-10  5.533664E-10
       186  14 -4.198860E+03 -9.223256E+04 -9.400244E+04  5.893913E+05  1.649892E-09 -2.120011E-09
       186  15  1.105784E+04 -1.106930E+05 -5.367789E+04  8.335235E+05  2.722509E-09 -4.451372E-09
       186  16  1.157792E+06  5.255078E+06  1.095129E+06  7.524089E+05  9.572971E-10  7.925846E-11
       186  17  9.939710E+05  4.000549E+06  8.143100E+05  5.639163E+05 -8.259774E-10  1.080643E-10
       186  18  7.022637E+05  2.732531E+06  5.627231E+05  8.635810E+05  1.076760E-09  3.329135E-10
       186  19 -1.504843E+06 -5.456254E+06 -1.505386E+06  9.143486E+05  6.249666E+04  3.233802E+05
       186  20 -1.003457E+06 -4.169418E+06 -1.003262E+06  6.147030E+05  1.804140E+05  1.318906E+05
       186  21 -6.806547E+05 -2.946343E+06 -6.705114E+05  8.035871E+05  1.492206E+05 -5.998647E+04
       186  22 -1.724916E+05 -1.137260E+05 -2.041525E+05  8.337383E+05  6.229664E+04  1.402993E+05
       186  23 -4.161795E+03 -9.221507E+04 -9.392607E+04  5.894044E+05  1.802488E+05  9.049286E+04
       186  24  1.108227E+04 -1.106853E+05 -5.363282E+04  8.335284E+05  1.494948E+05  4.070604E+04
       186  25  1.157796E+06  5.255081E+06  1.095140E+06  7.524067E+05  6.214627E+04 -4.436754E+04
       186  26  9.940064E+05  4.000561E+06  8.143753E+05  5.639234E+05  1.800879E+05  4.882327E+04
       186  27  7.022931E+05  2.732558E+06  5.628028E+05  8.635980E+05  1.497780E+05  1.418538E+05
       187   1 -4.524156E+05 -1.938087E+06 -4.431394E+05  8.339273E+05 -9.425480E+04  2.657580E+04
       187   2 -1.374865E+05 -6.794649E+05 -1.483920E+05  5.867850E+05 -3.088674E+04  3.905152E+04
       187   3  1.706813E+05  5.746065E+05  1.356635E+05  8.348158E+05  3.381730E+04  5.150123E+04
       187   4 -4.649964E+03 -1.020521E+05 -4.253080E+04  8.350721E+05 -9.445566E+04 -3.351068E+04
       187   5  3.831392E+03 -9.894154E+04 -2.258814E+04  5.874809E+05 -3.110980E+04 -2.233602E+04
       187   6  5.888838E+03 -1.016169E+05 -1.234031E+04  8.350356E+05  3.356611E+04 -1.121200E+04
       187   7  4.428931E+05  1.737156E+06  3.578883E+05  8.362155E+05 -9.465635E+04 -9.377290E+04
       187   8  1.451290E+05  4.819064E+05  1.032099E+05  5.881770E+05 -3.133286E+04 -8.378025E+04
       187   9 -1.589320E+05 -7.774039E+05 -1.603570E+05  8.352546E+05  3.331471E+04 -7.385782E+04
       187  10 -4.524253E+05 -1.938090E+06 -4.431574E+05  8.339294E+05  2.410201E-09 -8.138491E-09
       187  11 -1.374879E+05 -6.794668E+05 -1.483967E+05  5.867860E+05 -1.310964E-09 -6.643952E-09
       187  12  1.706794E+05  5.746034E+05  1.356564E+05  8.348144E+05 -3.320957E-09  2.175156E-09
       187  13 -4.659840E+03 -1.020557E+05 -4.254966E+04  8.350696E+05  1.448784E-09  1.055560E-13
       187  14  3.830220E+03 -9.894233E+04 -2.259090E+04  5.874803E+05  3.965803E-09 -5.172835E-09
       187  15  5.887593E+03 -1.016173E+05 -1.234267E+04  8.350360E+05 -9.342605E-10 -7.932125E-09
       187  16  4.428812E+05  1.737144E+06  3.578551E+05  8.362084E+05  2.687140E-10  4.175419E-09
       187  17  1.451261E+05  4.818986E+05  1.031949E+05  5.881748E+05  2.618107E-09 -1.265376E-09
       187  18 -1.589347E+05 -7.774101E+05 -1.603694E+05  8.352566E+05 -9.014976E-10 -1.738469E-09
       187  19 -4.524156E+05 -1.938087E+06 -4.431394E+05  8.339273E+05  9.425480E+04 -2.657580E+04
       187  20 -1.374865E+05 -6.794649E+05 -1.483920E+05  5.867850E+05  3.088674E+04 -3.905152E+04
       187  21  1.706813E+05  5.746065E+05  1.356635E+05  8.348158E+05 -3.381730E+04 -5.150123E+04
       187  22 -4.649964E+03 -1.020521E+05 -4.253080E+04  8.350721E+05  9.445566E+04  3.351068E+04
       187  23  3.831392E+03 -9.894154E+04 -2.258814E+04  5.874809E+05  3.110980E+04  2.233602E+04
       187  24  5.888838E+03 -1.016169E+05 -1.234031E+04  8.350356E+05 -3.356611E+04  1.121200E+04
       187  25  4.428931E+05  1.737156E+06  3.578883E+05  8.362155E+05  9.465635E+04  9.377290E+04
       187  26  1.451290E+05  4.819064E+05  1.032099E+05  5.881770E+05  3.133286E+04  8.378025E+04
       187  27 -1.589320E+05 -7.774039E+05 -1.603570E+05  8.352546E+05 -3.331471E+04  7.385782E+04
       188   1  4.129690E+05  1.578051E+06  3.564292E+05  8.380040E+05  8.669469E+04  8.503947E+04
       188   2  7.163652E+05  2.826551E+06  6.480608E+05  5.938401E+05  1.253468E+05 -2.703121E+04
       188   3  1.043202E+06  4.097952E+06  1.018254E+06  8.395502E+05  4.529199E+04 -1.391626E+05
       188   4  4.498216E+03 -1.004746E+05 -8.858828E+03  8.339045E+05  8.634911E+04 -9.672940E+03
       188   5  9.995477E+02 -1.024124E+05 -4.588005E+03  5.888971E+05  1.254424E+05 -7.387489E+03
       188   6  1.273439E+03 -1.026510E+05 -9.139195E+02  8.339069E+05  4.557706E+04 -4.935031E+03
       188   7 -4.041547E+05 -1.776343E+06 -3.742822E+05  8.298122E+05  8.600417E+04 -1.041330E+05
       188   8 -7.149474E+05 -3.023400E+06 -6.577728E+05  5.839688E+05  1.255379E+05  1.216494E+04
       188   9 -1.041940E+06 -4.287171E+06 -1.021288E+06  8.282838E+05  4.586116E+04  1.283915E+05
       188  10  4.129590E+05  1.578041E+06  3.564016E+05  8.379981E+05 -8.422949E-11 -4.711383E-09
       188  11  7.163482E+05  2.826546E+06  6.480299E+05  5.938428E+05 -1.832217E-09 -1.147283E-09
       188  12  1.043195E+06  4.097931E+06  1.018214E+06  8.395552E+05  4.641889E-10  1.930592E-09
       188  13  4.490183E+03 -1.004767E+05 -8.873020E+03  8.339052E+05 -1.800451E-09  2.244117E-11
       188  14  9.826349E+02 -1.024166E+05 -4.617681E+03  5.888978E+05 -2.757980E-10 -4.424519E-09
       188  15  1.271201E+03 -1.026516E+05 -9.178701E+02  8.339071E+05  7.106265E-10 -1.948216E-09
       188  16 -4.041656E+05 -1.776357E+06 -3.743166E+05  8.298194E+05 -2.308002E-09 -7.064251E-11
       188  17 -7.149644E+05 -3.023404E+06 -6.578027E+05  5.839675E+05 -4.710352E-10 -3.138928E-09
       188  18 -1.041946E+06 -4.287189E+06 -1.021323E+06  8.282790E+05 -5.252581E-10 -1.468160E-09
       188  19  4.129690E+05  1.578051E+06  3.564292E+05  8.380040E+05 -8.669469E+04 -8.503947E+04
       188  20  7.163652E+05  2.826551E+06  6.480608E+05  5.938401E+05 -1.253468E+05  2.703121E+04
       188  21  1.043202E+06  4.097952E+06  1.018254E+06  8.395502E+05 -4.529199E+04  1.391626E+05
       188  22  4.498216E+03 -1.004746E+05 -8.858828E+03  8.339045E+05 -8.634911E+04  9.672940E+03
       188  23  9.995477E+02 -1.024124E+05 -4.588005E+03  5.888971E+05 -1.254424E+05  7.387489E+03
       188  24  1.273439E+03 -1.026510E+05 -9.139195E+02  8.339069E+05 -4.557706E+04  4.935031E+03
       188  25 -4.041547E+05 -1.776343E+06 -3.742822E+05  8.298122E+05 -8.600417E+04  1.041330E+05
       188  26 -7.149474E+05 -3.023400E+06 -6.577728E+05  5.839688E+05 -1.255379E+05 -1.216494E+04
       188  27 -1.041940E+06 -4.287171E+06 -1.021288E+06  8.282838E+05 -4.586116E+04 -1.283915E+05
       189   1  1.854655E+06  3.559620E+05  3.493675E+05  2.112060E+05  5.612384E+04 -1.633125E+04
       189   2  1.540592E+06  2.645914E+05  2.458530E+05  1.481954E+05  1.624537E+04 -4.784123E+04
       189   3  1.235771E+06  1.888847E+05  1.721822E+05  2.051362E+05 -2.364897E+04 -4.086605E+04
       189   4  4.593549E+05  9.645236E+03  1.125299E+04  2.054531E+05  7.330058E+03 -1.638628E+04
       189   5  4.580809E+05  2.546511E+02  5.454067E+03  1.454778E+05  4.496534E+03 -4.786332E+04
       189   6  4.595544E+05  1.279072E+02  3.834121E+03  2.054648E+05  1.626785E+03 -4.082551E+04
       189   7 -9.341661E+05 -3.368128E+05 -3.269927E+05  1.997124E+05 -4.135466E+04 -1.644048E+04
       189   8 -6.233390E+05 -2.641612E+05 -2.350173E+05  1.427646E+05 -7.232086E+03 -4.788532E+04
       189   9 -3.160968E+05 -1.886684E+05 -1.645474E+05  2.057926E+05  2.687140E+04 -4.078491E+04
       189  10  1.854652E+06  3.559609E+05  3.493611E+05  2.112067E+05 -3.396766E-09  1.654178E-09
       189  11  1.540591E+06  2.645889E+05  2.458482E+05  1.481960E+05 -6.533927E-10  4.273449E-09
       189  12  1.235770E+06  1.888828E+05  1.721780E+05  2.051354E+05  2.105311E-09 -1.007505E-09
       189  13  4.593547E+05  9.644933E+03  1.125238E+04  2.054532E+05  1.837236E-09 -5.241077E-10
       189  14  4.580803E+05  2.521851E+02  5.449723E+03  1.454780E+05 -2.189576E-09 -8.358147E-10
       189  15  4.595539E+05  1.261163E+02  3.830983E+03  2.054648E+05  5.246858E-11 -8.065495E-10
       189  16 -9.341680E+05 -3.368135E+05 -3.269965E+05  1.997118E+05  3.295913E-09  1.371410E-09
       189  17 -6.233397E+05 -2.641637E+05 -2.350217E+05  1.427643E+05 -8.029046E-10  4.889478E-10
       189  18 -3.160980E+05 -1.886703E+05 -1.645519E+05  2.057935E+05 -3.522270E-09 -3.334480E-10
       189  19  1.854655E+06  3.559620E+05  3.493675E+05  2.112060E+05 -5.612384E+04  1.633125E+04
       189  20  1.540592E+06  2.645914E+05  2.458530E+05  1.481954E+05 -1.624537E+04  4.784123E+04
       189  21  1.235771E+06  1.888847E+05  1.721822E+05  2.051362E+05  2.364897E+04  4.086605E+04
       189  22  4.593549E+05  9.645236E+03  1.125299E+04  2.054531E+05 -7.330058E+03  1.638628E+04
       189  23  4.580809E+05  2.546511E+02  5.454067E+03  1.454778E+05 -4.496534E+03  4.786332E+04
       189  24  4.595544E+05  1.279072E+02  3.834121E+03  2.054648E+05 -1.626785E+03  4.082551E+04
       189  25 -9.341661E+05 -3.368128E+05 -3.269927E+05  1.997124E+05  4.135466E+04  1.644048E+04
       189  26 -6.233390E+05 -2.641612E+05 -2.350173E+05  1.427646E+05  7.232086E+03  4.788532E+04
       189  27 -3.160968E+05 -1.886684E+05 -1.645474E+05  2.057926E+05 -2.687140E+04  4.078491E+04
       190   1  9.891294E+05  1.301052E+05  1.188672E+05  2.067286E+05 -1.335750E+04 -2.729111E+04
       190   2  6.804374E+05  5.434373E+04  5.141146E+04  1.454451E+05 -1.659600E+04 -1.153969E+04
       190   3  3.721190E+05 -2.014997E+04 -1.373875E+04  2.056891E+05 -1.983988E+04  5.855348E+03
       190   4  4.590157E+05  1.093153E+03  3.490043E+03  2.058099E+05  9.956981E+02 -2.726589E+04
       190   5  4.590331E+05  4.659200E+02  3.288294E+03  1.450451E+05 -6.660128E+02 -1.150976E+04
       190   6  4.590563E+05  8.376052E+02  4.300257E+03  2.058103E+05 -2.334669E+03  5.890588E+03
       190   7 -7.083452E+04 -1.279374E+05 -1.119032E+05  2.048917E+05  1.533681E+04 -2.724070E+04
       190   8  2.376753E+05 -5.341500E+04 -4.483685E+04  1.446452E+05  1.525838E+04 -1.147985E+04
       190   9  5.460013E+05  2.182486E+04  2.234000E+04  2.059316E+05  1.517295E+04  5.925831E+03
       190  10  9.891290E+05  1.301044E+05  1.188655E+05  2.067283E+05 -1.653195E-09 -4.007116E-09
       190  11  6.804371E+05  5.434351E+04  5.141069E+04  1.454449E+05 -1.772028E-09  2.809533E-09
       190  12  3.721186E+05 -2.015011E+04 -1.373955E+04  2.056892E+05  1.014717E-09  4.505587E-09
       190  13  4.590155E+05  1.092355E+03  3.488643E+03  2.058099E+05 -1.833360E-09  5.847301E-09
       190  14  4.590331E+05  4.657776E+02  3.288044E+03  1.450451E+05 -1.412577E-09 -1.030914E-08
       190  15  4.590562E+05  8.375665E+02  4.300181E+03  2.058103E+05  2.208807E-09  6.759169E-09
       190  16 -7.083497E+04 -1.279383E+05 -1.119050E+05  2.048921E+05  1.264919E-09 -4.950967E-09
       190  17  2.376750E+05 -5.341520E+04 -4.483753E+04  1.446453E+05  2.063132E-09 -3.407799E-09
       190  18  5.460010E+05  2.182477E+04  2.233950E+04  2.059315E+05 -5.426657E-10 -2.783368E-11
       190  19  9.891294E+05  1.301052E+05  1.188672E+05  2.067286E+05  1.335750E+04  2.729111E+04
       190  20  6.804374E+05  5.434373E+04  5.141146E+04  1.454451E+05  1.659600E+04  1.153969E+04
       190  21  3.721190E+05 -2.014997E+04 -1.373875E+04  2.056891E+05  1.983988E+04 -5.855348E+03
       190  22  4.590157E+05  1.093153E+03  3.490043E+03  2.058099E+05 -9.956981E+02  2.726589E+04
       190  23  4.590331E+05  4.659200E+02  3.288294E+03  1.450451E+05  6.660128E+02  1.150976E+04
       190  24  4.590563E+05  8.376052E+02  4.300257E+03  2.058103E+05  2.334669E+03 -5.890588E+03
       190  25 -7.083452E+04 -1.279374E+05 -1.119032E+05  2.048917E+05 -1.533681E+04  2.724070E+04
       190  26  2.376753E+05 -5.341500E+04 -4.483685E+04  1.446452E+05 -1.525838E+04  1.147985E+04
       190  27  5.460013E+05  2.182486E+04  2.234000E+04  2.059316E+05 -1.517295E+04 -5.925831E+03
       191   1  1.274114E+05 -8.026850E+04 -6.727164E+04  2.058931E+05 -2.084171E+04  1.666508E+04
       191   2 -1.814684E+05 -1.554494E+05 -1.304042E+05  1.440374E+05 -2.299266E+04  3.396703E+04
       191   3 -4.895377E+05 -2.276811E+05 -1.914860E+05  2.037471E+05 -2.512665E+04  4.912164E+04
       191   4  4.592726E+05  5.809198E+02  5.224998E+03  2.058175E+05 -3.200450E+03  1.669934E+04
       191   5  4.586723E+05  3.170435E+02  8.355348E+03  1.450364E+05 -7.419874E+03  3.399130E+04
       191   6  4.591535E+05  3.366020E+03  1.497351E+04  2.058125E+05 -1.162338E+04  4.913729E+04
       191   7  7.912376E+05  8.142317E+04  7.771615E+04  2.057418E+05  1.445011E+04  1.673358E+04
       191   8  1.099198E+06  1.560565E+05  1.470915E+05  1.460362E+05  8.168764E+03  3.401562E+04
       191   9  1.408689E+06  2.343535E+05  2.213797E+05  2.078806E+05  1.900270E+03  4.915301E+04
       191  10  1.274109E+05 -8.026891E+04 -6.727297E+04  2.058934E+05  1.785937E-09 -3.117547E-09
       191  11 -1.814693E+05 -1.554508E+05 -1.304074E+05  1.440380E+05  6.807800E-09 -1.397662E-09
       191  12 -4.895390E+05 -2.276838E+05 -1.914917E+05  2.037481E+05  1.151100E-08 -5.630386E-10
       191  13  4.592725E+05  5.806175E+02  5.224455E+03  2.058176E+05  4.674181E-13 -3.152115E-10
       191  14  4.586720E+05  3.157877E+02  8.353073E+03  1.450366E+05 -1.079392E-09 -3.195985E-09
       191  15  4.591527E+05  3.363390E+03  1.496871E+04  2.058130E+05 -6.495357E-10  8.311745E-10
       191  16  7.912373E+05  8.142282E+04  7.771524E+04  2.057416E+05 -1.502769E-09 -3.138444E-09
       191  17  1.099198E+06  1.560553E+05  1.470892E+05  1.460360E+05 -7.561662E-09 -5.960299E-11
       191  18  1.408688E+06  2.343509E+05  2.213752E+05  2.078805E+05 -1.376340E-08  3.955117E-09
       191  19  1.274114E+05 -8.026850E+04 -6.727164E+04  2.058931E+05  2.084171E+04 -1.666508E+04
       191  20 -1.814684E+05 -1.554494E+05 -1.304042E+05  1.440374E+05  2.299266E+04 -3.396703E+04
       191  21 -4.895377E+05 -2.276811E+05 -1.914860E+05  2.037471E+05  2.512665E+04 -4.912164E+04
       191  22  4.592726E+05  5.809198E+02  5.224998E+03  2.058175E+05  3.200450E+03 -1.669934E+04
       191  23  4.586723E+05  3.170435E+02  8.355348E+03  1.450364E+05  7.419874E+03 -3.399130E+04
       191  24  4.591535E+05  3.366020E+03  1.497351E+04  2.058125E+05  1.162338E+04 -4.913729E+04
       191  25  7.912376E+05  8.142317E+04  7.771615E+04  2.057418E+05 -1.445011E+04 -1.673358E+04
       191  26  1.099198E+06  1.560565E+05  1.470915E+05  1.460362E+05 -8.168764E+03 -3.401562E+04
       191  27  1.408689E+06  2.343535E+05  2.213797E+05  2.078806E+05 -1.900270E+03 -4.915301E+04
       192   1 -7.324263E+05 -2.932479E+05 -2.402021E+05  2.125240E+05 -4.174950E+04  6.351925E+04
       192   2 -1.046063E+06 -3.661807E+05 -3.009838E+05  1.344760E+05 -1.140248E+04  6.757971E+04
       192   3 -1.351310E+06 -3.923697E+05 -3.697402E+05  1.760766E+05  1.894349E+04  2.240276E+04
       192   4  4.624586E+05 -2.437926E+03  1.883467E+04  2.053959E+05 -1.431217E+04  6.354843E+04
       192   5  4.540805E+05  5.774764E+02  3.195704E+04  1.455628E+05 -3.119206E+04  6.755088E+04
       192   6  4.621716E+05  5.847983E+04  6.988929E+04  2.053539E+05 -4.805868E+04  2.237103E+04
       192   7  1.658685E+06  2.882783E+05  2.777894E+05  1.982531E+05  1.317733E+04  6.357695E+04
       192   8  1.956327E+06  3.671842E+05  3.647596E+05  1.566761E+05 -5.102891E+04  6.752139E+04
       192   9  2.278672E+06  5.090937E+05  5.092991E+05  2.347164E+05 -1.152561E+05  2.233304E+04
       192  10 -7.324293E+05 -2.932527E+05 -2.402130E+05  2.125262E+05 -1.568582E-08 -1.145877E-09
       192  11 -1.046065E+06 -3.661856E+05 -3.009927E+05  1.344766E+05 -6.493765E-09  1.763067E-09
       192  12 -1.351311E+06 -3.923704E+05 -3.697418E+05  1.760762E+05  4.163764E-09  1.655792E-09
       192  13  4.624573E+05 -2.442318E+03  1.882669E+04  2.053966E+05  2.975943E-11  2.874611E-09
       192  14  4.540782E+05  5.723138E+02  3.194663E+04  1.455645E+05 -1.541963E-09  2.516036E-09
       192  15  4.621690E+05  5.847867E+04  6.988401E+04  2.053548E+05  4.901616E-11  4.337397E-09
       192  16  1.658684E+06  2.882739E+05  2.777815E+05  1.982525E+05  1.472582E-08  3.165520E-09
       192  17  1.956323E+06  3.671786E+05  3.647462E+05  1.566788E+05  6.306528E-09  5.839027E-09
       192  18  2.278658E+06  5.090896E+05  5.092733E+05  2.347184E+05 -6.067169E-09  2.457199E-09
       192  19 -7.324263E+05 -2.932479E+05 -2.402021E+05  2.125240E+05  4.174950E+04 -6.351925E+04
       192  20 -1.046063E+06 -3.661807E+05 -3.009838E+05  1.344760E+05  1.140248E+04 -6.757971E+04
       192  21 -1.351310E+06 -3.923697E+05 -3.697402E+05  1.760766E+05 -1.894349E+04 -2.240276E+04
       192  22  4.624586E+05 -2.437926E+03  1.883467E+04  2.053959E+05  1.431217E+04 -6.354843E+04
       192  23  4.540805E+05  5.774764E+02  3.195704E+04  1.455628E+05  3.119206E+04 -6.755088E+04
       192  24  4.621716E+05  5.847983E+04  6.988929E+04  2.053539E+05  4.805868E+04 -2.237103E+04
       192  25  1.658685E+06  2.882783E+05  2.777894E+05  1.982531E+05 -1.317733E+04 -6.357695E+04
       192  26  1.956327E+06  3.671842E+05  3.647596E+05  1.566761E+05  5.102891E+04 -6.752139E+04
       192  27  2.278672E+06  5.090937E+05  5.092991E+05  2.347164E+05  1.152561E+05 -2.233304E+04
       193   1 -1.058213E+06 -4.035243E+06 -1.057913E+06  6.614078E+05 -4.401975E+04 -2.213126E+05
       193   2 -7.044925E+05 -3.096498E+06 -7.018166E+05  4.468647E+05 -1.264148E+05 -8.723728E+04
       193   3 -4.707154E+05 -2.202471E+06 -4.630814E+05  5.890201E+05 -1.029197E+05  4.700885E+04
       193   4 -1.135460E+05 -2.442572E+05 -1.351362E+05  6.082845E+05 -4.388767E+04 -9.219843E+04
       193   5 -2.196507E+03 -2.296385E+05 -6.259054E+04  4.298930E+05 -1.263274E+05 -5.903336E+04
       193   6  7.165266E+03 -2.426876E+05 -3.679963E+04  6.081580E+05 -1.030806E+05 -2.590491E+04
       193   7  8.300814E+05  3.559943E+06  7.866626E+05  5.548257E+05 -4.377853E+04  3.770725E+04
       193   8  6.995425E+05  2.644913E+06  5.761237E+05  4.128363E+05 -1.262419E+05 -3.069963E+04
       193   9  4.847948E+05  1.720718E+06  3.892724E+05  6.273534E+05 -1.032456E+05 -9.904637E+04
       193  10 -1.058229E+06 -4.035297E+06 -1.058009E+06  6.613999E+05  2.346245E-10  1.931457E-08
       193  11 -7.045117E+05 -3.096511E+06 -7.018610E+05  4.468558E+05  1.947291E-09 -4.583498E-09
       193  12 -4.707274E+05 -2.202476E+06 -4.631055E+05  5.890240E+05 -2.170413E-09 -2.081998E-08
       193  13 -1.135504E+05 -2.442668E+05 -1.351558E+05  6.082812E+05 -9.667697E-10  7.605510E-10
       193  14 -2.214571E+03 -2.296465E+05 -6.262705E+04  4.298870E+05 -2.754027E-11  1.238745E-10
       193  15  7.153680E+03 -2.426912E+05 -3.682085E+04  6.081558E+05 -2.488654E-09 -1.478660E-09
       193  16  8.300789E+05  3.559941E+06  7.866563E+05  5.548270E+05 -6.260396E-10 -1.961018E-08
       193  17  6.995252E+05  2.644908E+06  5.760920E+05  4.128332E+05 -8.483911E-10 -3.716979E-10
       193  18  4.847808E+05  1.720704E+06  3.892340E+05  6.273451E+05  1.216858E-09  2.105267E-08
       193  19 -1.058213E+06 -4.035243E+06 -1.057913E+06  6.614078E+05  4.401975E+04  2.213126E+05
       193  20 -7.044925E+05 -3.096498E+06 -7.018166E+05  4.468647E+05  1.264148E+05  8.723728E+04
       193  21 -4.707154E+05 -2.202471E+06 -4.630814E+05  5.890201E+05  1.029197E+05 -4.700885E+04
       193  22 -1.135460E+05 -2.442572E+05 -1.351362E+05  6.082845E+05  4.388767E+04  9.219843E+04
       193  23 -2.196507E+03 -2.296385E+05 -6.259054E+04  4.298930E+05  1.263274E+05  5.903336E+04
       193  24  7.165266E+03 -2.426876E+05 -3.679963E+04  6.081580E+05  1.030806E+05  2.590491E+04
       193  25  8.300814E+05  3.559943E+06  7.866626E+05  5.548257E+05  4.377853E+04 -3.770725E+04
       193  26  6.995425E+05  2.644913E+06  5.761237E+05  4.128363E+05  1.262419E+05  3.069963E+04
       193  27  4.847948E+05  1.720718E+06  3.892724E+05  6.273534E+05  1.032456E+05  9.904637E+04
       194   1 -3.031062E+05 -1.466589E+06 -2.981535E+05  6.093088E+05 -6.300396E+04  2.326653E+04
       194   2 -7.393767E+04 -5.475978E+05 -8.577915E+04  4.283026E+05 -1.662711E+04  3.290395E+04
       194   3  1.494995E+05  3.679097E+05  1.183871E+05  6.087829E+05  3.047219E+04  4.253523E+04
       194   4 -3.277618E+03 -2.369462E+05 -2.984856E+04  6.092629E+05 -6.312053E+04 -2.084101E+04
       194   5  2.209359E+03 -2.347881E+05 -1.799188E+04  4.285174E+05 -1.675214E+04 -1.190990E+04
       194   6  2.145108E+03 -2.367740E+05 -1.380719E+04  6.092484E+05  3.033569E+04 -2.998790E+03
       194   7  2.964513E+05  9.941204E+05  2.383726E+05  6.092153E+05 -6.323695E+04 -6.503493E+04
       194   8  7.835099E+04  7.811791E+04  4.979712E+04  4.287321E+05 -1.687716E+04 -5.674604E+04
       194   9 -1.452326E+05 -8.411109E+05 -1.460158E+05  6.097130E+05  3.019904E+04 -4.848903E+04
       194  10 -3.031106E+05 -1.466591E+06 -2.981620E+05  6.093100E+05 -1.750057E-09  4.673795E-10
       194  11 -7.393826E+04 -5.475991E+05 -8.578171E+04  4.283031E+05  2.417937E-09 -2.806206E-09
       194  12  1.494981E+05  3.679075E+05  1.183820E+05  6.087818E+05  5.234293E-10 -3.954421E-10
       194  13 -3.282010E+03 -2.369477E+05 -2.985685E+04  6.092619E+05 -5.879354E-10 -5.967315E-09
       194  14  2.209020E+03 -2.347883E+05 -1.799268E+04  4.285172E+05  2.759151E-09  1.253412E-09
       194  15  2.144117E+03 -2.367743E+05 -1.380894E+04  6.092484E+05  2.834816E-09  2.999228E-12
       194  16  2.964459E+05  9.941148E+05  2.383572E+05  6.092120E+05  1.881415E-09 -5.316250E-09
       194  17  7.834982E+04  7.811438E+04  4.979053E+04  4.287313E+05  2.769801E-09 -2.365878E-10
       194  18 -1.452342E+05 -8.411137E+05 -1.460220E+05  6.097142E+05  4.758534E-10 -1.200147E-09
       194  19 -3.031062E+05 -1.466589E+06 -2.981535E+05  6.093088E+05  6.300396E+04 -2.326653E+04
       194  20 -7.393767E+04 -5.475978E+05 -8.577915E+04  4.283026E+05  1.662711E+04 -3.290395E+04
       194  21  1.494995E+05  3.679097E+05  1.183871E+05  6.087829E+05 -3.047219E+04 -4.253523E+04
       194  22 -3.277618E+03 -2.369462E+05 -2.984856E+04  6.092629E+05  6.312053E+04  2.084101E+04
       194  23  2.209359E+03 -2.347881E+05 -1.799188E+04  4.285174E+05  1.675214E+04  1.190990E+04
       194  24  2.145108E+03 -2.367740E+05 -1.380719E+04  6.092484E+05 -3.033569E+04  2.998790E+03
       194  25  2.964513E+05  9.941204E+05  2.383726E+05  6.092153E+05  6.323695E+04  6.503493E+04
       194  26  7.835099E+04  7.811791E+04  4.979712E+04  4.287321E+05  1.687716E+04  5.674604E+04
       194  27 -1.452326E+05 -8.411109E+05 -1.460158E+05  6.097130E+05 -3.019904E+04  4.848903E+04
       195   1  3.287131E+05  1.099031E+06  2.777532E+05  6.139145E+05  6.927514E+04  6.877463E+04
       195   2  5.495050E+05  2.012857E+06  4.858218E+05  4.285568E+05  9.677264E+04 -9.466414E+03
       195   3  7.667680E+05  2.937430E+06  7.438493E+05  6.006326E+05  3.473301E+04 -8.772987E+04
       195   4  3.427363E+03 -2.372677E+05 -1.298075E+04  6.083644E+05  6.908592E+04 -9.425752E+02
       195   5  1.673770E+02 -2.354009E+05 -1.513577E+04  4.296214E+05  9.683081E+04  6.970623E+03
       195   6 -2.152240E+04 -2.384900E+05 -2.705341E+04  6.084018E+05  3.489114E+04  1.497652E+04
       195   7 -3.219742E+05 -1.571883E+06 -3.038035E+05  6.028244E+05  6.889769E+04 -7.051185E+04
       195   8 -5.495128E+05 -2.478954E+06 -5.164090E+05  4.306783E+05  9.688917E+04  2.334889E+04
       195   9 -8.105472E+05 -3.405205E+06 -7.986452E+05  6.161238E+05  3.505245E+04  1.171607E+05
       195  10  3.287067E+05  1.099024E+06  2.777353E+05  6.139107E+05 -9.691685E-10  5.330465E-10
       195  11  5.494949E+05  2.012854E+06  4.858040E+05  4.285575E+05 -3.121154E-10 -2.942130E-09
       195  12  7.667647E+05  2.937422E+06  7.438326E+05  6.006351E+05  1.178573E-10  9.606561E-10
       195  13  3.422238E+03 -2.372690E+05 -1.298972E+04  6.083644E+05  3.512125E-10 -3.840721E-09
       195  14  1.572972E+02 -2.354035E+05 -1.515347E+04  4.296209E+05 -4.573169E-11  6.093087E-09
       195  15 -2.152377E+04 -2.384905E+05 -2.705612E+04  6.084014E+05 -1.657234E-09 -9.239254E-10
       195  16 -3.219806E+05 -1.571890E+06 -3.038218E+05  6.028283E+05  3.070945E-11 -4.230548E-09
       195  17 -5.495230E+05 -2.478957E+06 -5.164276E+05  4.306765E+05 -1.428644E-09 -6.411548E-10
       195  18 -8.105522E+05 -3.405220E+06 -7.986734E+05  6.161205E+05 -7.811085E-10 -1.172899E-09
       195  19  3.287131E+05  1.099031E+06  2.777532E+05  6.139145E+05 -6.927514E+04 -6.877463E+04
       195  20  5.495050E+05  2.012857E+06  4.858218E+05  4.285568E+05 -9.677264E+04  9.466414E+03
       195  21  7.667680E+05  2.937430E+06  7.438493E+05  6.006326E+05 -3.473301E+04  8.772987E+04
       195  22  3.427363E+03 -2.372677E+05 -1.298075E+04  6.083644E+05 -6.908592E+04  9.425752E+02
       195  23  1.673770E+02 -2.354009E+05 -1.513577E+04  4.296214E+05 -9.683081E+04 -6.970623E+03
       195  24 -2.152240E+04 -2.384900E+05 -2.705341E+04  6.084018E+05 -3.489114E+04 -1.497652E+04
       195  25 -3.219742E+05 -1.571883E+06 -3.038035E+05  6.028244E+05 -6.889769E+04  7.051185E+04
       195  26 -5.495128E+05 -2.478954E+06 -5.164090E+05  4.306783E+05 -9.688917E+04 -2.334889E+04
       195  27 -8.105472E+05 -3.405205E+06 -7.986452E+05  6.161238E+05 -3.505245E+04 -1.171607E+05
       196   1  6.931925E+05  1.404408E+05  1.376745E+05  1.017429E+05  1.956328E+04 -6.245368E+03
       196   2  5.394673E+05  9.906321E+04  9.135195E+04  7.164556E+04  3.895202E+03 -1.757235E+04
       196   3  3.888934E+05  6.188408E+04  5.627709E+04  1.007300E+05 -1.176990E+04 -1.318432E+04
       196   4  1.345589E+05  1.631268E+03  1.988646E+03  1.008748E+05  1.133242E+03 -6.248295E+03
       196   5  1.343225E+05  1.347502E+01  1.089040E+03  7.128295E+04  5.662163E+02 -1.757399E+04
       196   6  1.345955E+05 -2.343294E+01  9.590833E+02  1.008751E+05 -1.938311E+00 -1.318008E+04
       196   7 -4.237893E+05 -1.372011E+05 -1.337185E+05  1.000074E+05 -1.728027E+04 -6.251174E+03
       196   8 -2.706694E+05 -9.904738E+04 -8.918410E+04  7.092057E+04 -2.760623E+03 -1.757562E+04
       196   9 -1.196416E+05 -6.193516E+04 -5.436228E+04  1.010201E+05  1.176127E+04 -1.317584E+04
       196  10  6.931921E+05  1.404407E+05  1.376738E+05  1.017430E+05 -1.867687E-08  1.554223E-09
       196  11  5.394672E+05  9.906287E+04  9.135134E+04  7.164562E+04  8.180147E-11  2.115455E-09
       196  12  3.888932E+05  6.188385E+04  5.627651E+04  1.007298E+05  2.063425E-08 -2.120261E-09
       196  13  1.345589E+05  1.631226E+03  1.988570E+03  1.008748E+05  9.718026E-11  1.412008E-09
       196  14  1.343224E+05  1.314326E+01  1.088459E+03  7.128296E+04 -1.102497E-09  2.943083E-09
       196  15  1.345954E+05 -2.361949E+01  9.587568E+02  1.008751E+05  3.792459E-10 -2.237932E-09
       196  16 -4.237896E+05 -1.372012E+05 -1.337192E+05  1.000074E+05  1.804579E-08  1.752860E-09
       196  17 -2.706695E+05 -9.904771E+04 -8.918470E+04  7.092053E+04 -1.869314E-09 -5.870019E-10
       196  18 -1.196418E+05 -6.193538E+04 -5.436287E+04  1.010202E+05 -2.166564E-08 -1.374665E-09
       196  19  6.931925E+05  1.404408E+05  1.376745E+05  1.017429E+05 -1.956328E+04  6.245368E+03
       196  20  5.394673E+05  9.906321E+04  9.135195E+04  7.164556E+04 -3.895202E+03  1.757235E+04
       196  21  3.888934E+05  6.188408E+04  5.627709E+04  1.007300E+05  1.176990E+04  1.318432E+04
       196  22  1.345589E+05  1.631268E+03  1.988646E+03  1.008748E+05 -1.133242E+03  6.248295E+03
       196  23  1.343225E+05  1.347502E+01  1.089040E+03  7.128295E+04 -5.662163E+02  1.757399E+04
       196  24  1.345955E+05 -2.343294E+01  9.590833E+02  1.008751E+05  1.938311E+00  1.318008E+04
       196  25 -4.237893E+05 -1.372011E+05 -1.337185E+05  1.000074E+05  1.728027E+04  6.251174E+03
       196  26 -2.706694E+05 -9.904738E+04 -8.918410E+04  7.092057E+04  2.760623E+03  1.757562E+04
       196  27 -1.196416E+05 -6.193516E+04 -5.436228E+04  1.010201E+05 -1.176127E+04  1.317584E+04
       197   1  2.677496E+05  3.259613E+04  3.008322E+04  1.011270E+05 -7.493313E+03 -6.761196E+03
       197   2  1.157113E+05 -4.506882E+03 -2.657273E+03  7.112932E+04 -8.763329E+03  1.190552E+03
       197   3 -3.610145E+04 -4.131033E+04 -3.450801E+04  1.010115E+05 -1.003297E+04  9.799100E+03
       197   4  1.345141E+05  1.396236E+02  1.005691E+03  1.010296E+05 -1.726374E+02 -6.758152E+03
       197   5  1.344649E+05  3.156707E+01  1.284054E+03  7.108973E+04 -8.127932E+02  1.193732E+03
       197   6  1.345123E+05  1.156526E+02  2.016130E+03  1.010296E+05 -1.452864E+03  9.802489E+03
       197   7  1.295285E+03 -3.231803E+04 -2.807271E+04  1.009323E+05  7.146488E+03 -6.755109E+03
       197   8  1.532190E+05  4.570027E+03  5.225599E+03  7.105014E+04  7.137979E+03  1.196911E+03
       197   9  3.051536E+05  4.153978E+04  3.853885E+04  1.010476E+05  7.129563E+03  9.805878E+03
       197  10  2.677495E+05  3.259606E+04  3.008303E+04  1.011269E+05  1.739066E-10 -1.611834E-09
       197  11  1.157112E+05 -4.506904E+03 -2.657420E+03  7.112933E+04  1.103537E-09  4.896934E-10
       197  12 -3.610159E+04 -4.131046E+04 -3.450838E+04  1.010116E+05  6.650131E-09  1.362902E-09
       197  13  1.345140E+05  1.395746E+02  1.005605E+03  1.010296E+05  3.930824E-12 -1.610188E-09
       197  14  1.344649E+05  3.156537E+01  1.284050E+03  7.108973E+04 -6.665671E-11  3.562825E-09
       197  15  1.345123E+05  1.155489E+02  2.015945E+03  1.010296E+05  3.975060E-10 -7.653782E-10
       197  16  1.295218E+03 -3.231810E+04 -2.807289E+04  1.009323E+05 -6.405895E-10  3.431563E-09
       197  17  1.532189E+05  4.570012E+03  5.225500E+03  7.105013E+04 -1.924017E-09  6.680360E-10
       197  18  3.051536E+05  4.153966E+04  3.853858E+04  1.010476E+05 -6.274707E-09  1.517797E-09
       197  19  2.677496E+05  3.259613E+04  3.008322E+04  1.011270E+05  7.493313E+03  6.761196E+03
       197  20  1.157113E+05 -4.506882E+03 -2.657273E+03  7.112932E+04  8.763329E+03 -1.190552E+03
       197  21 -3.610145E+04 -4.131033E+04 -3.450801E+04  1.010115E+05  1.003297E+04 -9.799100E+03
       197  22  1.345141E+05  1.396236E+02  1.005691E+03  1.010296E+05  1.726374E+02  6.758152E+03
       197  23  1.344649E+05  3.156707E+01  1.284054E+03  7.108973E+04  8.127932E+02 -1.193732E+03
       197  24  1.345123E+05  1.156526E+02  2.016130E+03  1.010296E+05  1.452864E+03 -9.802489E+03
       197  25  1.295285E+03 -3.231803E+04 -2.807271E+04  1.009323E+05 -7.146488E+03  6.755109E+03
       197  26  1.532190E+05  4.570027E+03  5.225599E+03  7.105014E+04 -7.137979E+03 -1.196911E+03
       197  27  3.051536E+05  4.153978E+04  3.853885E+04  1.010476E+05 -7.129563E+03 -9.805878E+03
       198   1 -1.566398E+05 -7.096912E+04 -6.079286E+04  1.012590E+05 -1.059153E+04  1.512651E+04
       198   2 -3.088509E+05 -1.078877E+05 -9.168955E+04  7.092353E+04 -1.160130E+04  2.361815E+04
       198   3 -4.605068E+05 -1.434224E+05 -1.215741E+05  1.004646E+05 -1.260636E+04  3.089629E+04
       198   4  1.346419E+05 -3.841014E+01  2.572531E+03  1.010283E+05 -1.860323E+03  1.512927E+04
       198   5  1.342541E+05 -5.092943E+01  4.336386E+03  7.109126E+04 -4.036879E+03  2.361850E+04
       198   6  1.346016E+05  1.523609E+03  7.922317E+03  1.010280E+05 -6.208957E+03  3.089469E+04
       198   7  4.260033E+05  7.088671E+04  6.593312E+04  1.007975E+05  6.874933E+03  1.513202E+04
       198   8  5.775435E+05  1.077729E+05  1.003509E+05  7.125908E+04  3.532876E+03  2.361885E+04
       198   9  7.300421E+05  1.464461E+05  1.373977E+05  1.015919E+05  1.945004E+02  3.089311E+04
       198  10 -1.566400E+05 -7.096940E+04 -6.079350E+04  1.012591E+05  2.294008E-08  3.542479E-10
       198  11 -3.088512E+05 -1.078883E+05 -9.169085E+04  7.092376E+04  1.120809E-09  1.503556E-09
       198  12 -4.605072E+05 -1.434235E+05 -1.215762E+05  1.004649E+05 -1.814422E-08 -1.112521E-09
       198  13  1.346418E+05 -3.865689E+01  2.572094E+03  1.010284E+05  9.838789E-10 -5.151607E-10
       198  14  1.342540E+05 -5.153287E+01  4.335307E+03  7.109133E+04  1.746490E-09  1.037637E-09
       198  15  1.346013E+05  1.522573E+03  7.920450E+03  1.010282E+05  1.209698E-09 -1.484650E-09
       198  16  4.260032E+05  7.088646E+04  6.593260E+04  1.007975E+05 -2.290082E-08  1.815381E-10
       198  17  5.775434E+05  1.077723E+05  1.003498E+05  7.125902E+04 -9.178093E-10 -1.438279E-10
       198  18  7.300419E+05  1.464451E+05  1.373959E+05  1.015919E+05  1.830703E-08 -1.180266E-09
       198  19 -1.566398E+05 -7.096912E+04 -6.079286E+04  1.012590E+05  1.059153E+04 -1.512651E+04
       198  20 -3.088509E+05 -1.078877E+05 -9.168955E+04  7.092353E+04  1.160130E+04 -2.361815E+04
       198  21 -4.605068E+05 -1.434224E+05 -1.215741E+05  1.004646E+05  1.260636E+04 -3.089629E+04
       198  22  1.346419E+05 -3.841014E+01  2.572531E+03  1.010283E+05  1.860323E+03 -1.512927E+04
       198  23  1.342541E+05 -5.092943E+01  4.336386E+03  7.109126E+04  4.036879E+03 -2.361850E+04
       198  24  1.346016E+05  1.523609E+03  7.922317E+03  1.010280E+05  6.208957E+03 -3.089469E+04
       198  25  4.260033E+05  7.088671E+04  6.593312E+04  1.007975E+05 -6.874933E+03 -1.513202E+04
       198  26  5.775435E+05  1.077729E+05  1.003509E+05  7.125908E+04 -3.532876E+03 -2.361885E+04
       198  27  7.300421E+05  1.464461E+05  1.373977E+05  1.015919E+05 -1.945004E+02 -3.089311E+04
       199   1 -5.800849E+05 -1.759293E+05 -1.452557E+05  1.052224E+05 -2.179974E+04  3.825350E+04
       199   2 -7.344650E+05 -2.115363E+05 -1.750641E+05  6.620658E+04 -4.433740E+03  3.929836E+04
       199   3 -8.846473E+05 -2.226472E+05 -2.099966E+05  8.590434E+04  1.290973E+04  1.284914E+04
       199   4  1.363468E+05 -1.552078E+03  9.993053E+03  1.007654E+05 -7.618025E+03  3.825000E+04
       199   5  1.319343E+05  2.282927E+02  1.705410E+04  7.141864E+04 -1.662816E+04  3.929831E+04
       199   6  1.362671E+05  3.106673E+04  3.730679E+04  1.007788E+05 -2.565640E+04  1.287030E+04
       199   7  8.532608E+05  1.727914E+05  1.652120E+05  9.630312E+04  6.579857E+03  3.824630E+04
       199   8  9.990352E+05  2.119423E+05  2.091262E+05  7.663809E+04 -2.883941E+04  3.929807E+04
       199   9  1.158138E+06  2.847059E+05  2.845408E+05  1.156778E+05 -6.428578E+04  1.288960E+04
       199  10 -5.800858E+05 -1.759310E+05 -1.452593E+05  1.052231E+05 -3.090031E-09 -5.131919E-10
       199  11 -7.344654E+05 -2.115379E+05 -1.750670E+05  6.620672E+04  3.041081E-10  1.043048E-09
       199  12 -8.846476E+05 -2.226474E+05 -2.099972E+05  8.590421E+04 -5.906635E-10 -2.166932E-09
       199  13  1.363463E+05 -1.553665E+03  9.990194E+03  1.007656E+05  5.923399E-13 -3.206347E-09
       199  14  1.319336E+05  2.265600E+02  1.705068E+04  7.141917E+04  1.204915E-09 -2.453776E-09
       199  15  1.362663E+05  3.106638E+04  3.730524E+04  1.007790E+05 -5.900411E-10 -2.267870E-09
       199  16  8.532603E+05  1.727898E+05  1.652092E+05  9.630292E+04  3.867093E-09 -1.725523E-09
       199  17  9.990339E+05  2.119405E+05  2.091218E+05  7.663900E+04  2.599123E-10 -2.933220E-09
       199  18  1.158134E+06  2.847046E+05  2.845328E+05  1.156785E+05  2.738564E-10  1.174713E-10
       199  19 -5.800849E+05 -1.759293E+05 -1.452557E+05  1.052224E+05  2.179974E+04 -3.825350E+04
       199  20 -7.344650E+05 -2.115363E+05 -1.750641E+05  6.620658E+04  4.433740E+03 -3.929836E+04
       199  21 -8.846473E+05 -2.226472E+05 -2.099966E+05  8.590434E+04 -1.290973E+04 -1.284914E+04
       199  22  1.363468E+05 -1.552078E+03  9.993053E+03  1.007654E+05  7.618025E+03 -3.825000E+04
       199  23  1.319343E+05  2.282927E+02  1.705410E+04  7.141864E+04  1.662816E+04 -3.929831E+04
       199  24  1.362671E+05  3.106673E+04  3.730679E+04  1.007788E+05  2.565640E+04 -1.287030E+04
       199  25  8.532608E+05  1.727914E+05  1.652120E+05  9.630312E+04 -6.579857E+03 -3.824630E+04
       199  26  9.990352E+05  2.119423E+05  2.091262E+05  7.663809E+04  2.883941E+04 -3.929807E+04
       199  27  1.158138E+06  2.847059E+05  2.845408E+05  1.156778E+05  6.428578E+04 -1.288960E+04
       200   1 -6.411639E+05 -2.557091E+06 -6.398543E+05  4.018390E+05 -2.705331E+04 -1.290089E+05
       200   2 -4.323195E+05 -1.980737E+06 -4.267618E+05  2.729908E+05 -7.764849E+04 -4.886187E+04
       200   3 -2.897796E+05 -1.430602E+06 -2.824903E+05  3.632610E+05 -6.325272E+04  3.131840E+04
       200   4 -6.091265E+04 -2.263195E+05 -7.303442E+04  3.735427E+05 -2.696876E+04 -4.950743E+04
       200   5 -8.395612E+02 -2.182099E+05 -3.403992E+04  2.639575E+05 -7.760783E+04 -3.147226E+04
       200   6  3.864714E+03 -2.257252E+05 -2.053896E+04  3.734720E+05 -6.333370E+04 -1.348012E+04
       200   7  5.189450E+05  2.109440E+06  4.934162E+05  3.451371E+05 -2.689172E+04  3.029290E+04
       200   8  4.304300E+05  1.547221E+06  3.584887E+05  2.548968E+05 -7.756776E+04 -1.403361E+04
       200   9  2.974141E+05  9.805199E+05  2.413331E+05  3.837022E+05 -6.341605E+04 -5.836459E+04
       200  10 -6.411692E+05 -2.557109E+06 -6.398871E+05  4.018362E+05  8.606330E-10  1.117077E-09
       200  11 -4.323266E+05 -1.980741E+06 -4.267776E+05  2.729877E+05  8.796609E-10 -3.526903E-09
       200  12 -2.897841E+05 -1.430604E+06 -2.824997E+05  3.632625E+05  5.474012E-10  2.346477E-09
       200  13 -6.091409E+04 -2.263223E+05 -7.304039E+04  3.735417E+05  1.071704E-09 -4.926435E-10
       200  14 -8.462928E+02 -2.182126E+05 -3.405309E+04  2.639556E+05  1.290538E-09  5.306336E-10
       200  15  3.860359E+03 -2.257264E+05 -2.054684E+04  3.734714E+05 -8.241788E-10 -3.049163E-09
       200  16  5.189440E+05  2.109439E+06  4.934132E+05  3.451377E+05  3.844760E-11 -6.062011E-11
       200  17  4.304235E+05  1.547219E+06  3.584771E+05  2.548959E+05  7.333596E-11  6.059179E-10
       200  18  2.974088E+05  9.805152E+05  2.413192E+05  3.836992E+05 -5.967086E-10 -1.586937E-09
       200  19 -6.411639E+05 -2.557091E+06 -6.398543E+05  4.018390E+05  2.705331E+04  1.290089E+05
       200  20 -4.323195E+05 -1.980737E+06 -4.267618E+05  2.729908E+05  7.764849E+04  4.886187E+04
       200  21 -2.897796E+05 -1.430602E+06 -2.824903E+05  3.632610E+05  6.325272E+04 -3.131840E+04
       200  22 -6.091265E+04 -2.263195E+05 -7.303442E+04  3.735427E+05  2.696876E+04  4.950743E+04
       200  23 -8.395612E+02 -2.182099E+05 -3.403992E+04  2.639575E+05  7.760783E+04  3.147226E+04
       200  24  3.864714E+03 -2.257252E+05 -2.053896E+04  3.734720E+05  6.333370E+04  1.348012E+04
       200  25  5.189450E+05  2.109440E+06  4.934162E+05  3.451371E+05  2.689172E+04 -3.029290E+04
       200  26  4.304300E+05  1.547221E+06  3.584887E+05  2.548968E+05  7.756776E+04  1.403361E+04
       200  27  2.974141E+05  9.805199E+05  2.413331E+05  3.837022E+05  6.341605E+04  5.836459E+04
       201   1 -1.861162E+05 -9.787550E+05 -1.819165E+05  3.743679E+05 -3.873507E+04  1.649943E+04
       201   2 -4.583717E+04 -4.141905E+05 -5.301362E+04  2.629928E+05 -1.025721E+04  2.251542E+04
       201   3  9.080379E+04  1.481288E+05  7.081616E+04  3.736476E+05  1.866706E+04  2.852895E+04
       201   4 -1.796451E+03 -2.226073E+05 -1.697756E+04  3.741413E+05 -3.879130E+04 -1.059313E+04
       201   5  1.104225E+03 -2.213416E+05 -1.122568E+04  2.631258E+05 -1.031683E+04 -5.011058E+03
       201   6  4.633762E+02 -2.225421E+05 -1.022946E+04  3.741365E+05  1.860291E+04  5.632312E+02
       201   7  1.824857E+05  5.340784E+05  1.479297E+05  3.739139E+05 -3.884747E+04 -3.771830E+04
       201   8  4.804356E+04 -2.845607E+04  3.056290E+04  2.632588E+05 -1.037645E+04 -3.254598E+04
       201   9 -8.988577E+04 -5.930825E+05 -9.128046E+04  3.746251E+05  1.853869E+04 -2.738600E+04
       201  10 -1.861179E+05 -9.787557E+05 -1.819198E+05  3.743684E+05  5.324657E-10  4.249234E-09
       201  11 -4.583742E+04 -4.141911E+05 -5.301477E+04  2.629930E+05  1.858184E-09 -2.718014E-09
       201  12  9.080319E+04  1.481278E+05  7.081398E+04  3.736472E+05  6.249880E-10  1.754786E-09
       201  13 -1.798096E+03 -2.226078E+05 -1.698060E+04  3.741409E+05  1.114430E-09 -4.398529E-09
       201  14  1.104104E+03 -2.213416E+05 -1.122593E+04  2.631258E+05  2.099672E-09  5.488473E-10
       201  15  4.630045E+02 -2.225422E+05 -1.023011E+04  3.741365E+05  4.449120E-10 -4.115511E-09
       201  16  1.824837E+05  5.340765E+05  1.479242E+05  3.739127E+05 -2.551036E-10 -5.343117E-09
       201  17  4.804316E+04 -2.845723E+04  3.056071E+04  2.632585E+05  2.607090E-09  9.406326E-11
       201  18 -8.988634E+04 -5.930834E+05 -9.128251E+04  3.746255E+05 -1.601376E-09 -4.683226E-10
       201  19 -1.861162E+05 -9.787550E+05 -1.819165E+05  3.743679E+05  3.873507E+04 -1.649943E+04
       201  20 -4.583717E+04 -4.141905E+05 -5.301362E+04  2.629928E+05  1.025721E+04 -2.251542E+04
       201  21  9.080379E+04  1.481288E+05  7.081616E+04  3.736476E+05 -1.866706E+04 -2.852895E+04
       201  22 -1.796451E+03 -2.226073E+05 -1.697756E+04  3.741413E+05  3.879130E+04  1.059313E+04
       201  23  1.104225E+03 -2.213416E+05 -1.122568E+04  2.631258E+05  1.031683E+04  5.011058E+03
       201  24  4.633762E+02 -2.225421E+05 -1.022946E+04  3.741365E+05 -1.860291E+04 -5.632312E+02
       201  25  1.824857E+05  5.340784E+05  1.479297E+05  3.739139E+05  3.884747E+04  3.771830E+04
       201  26  4.804356E+04 -2.845607E+04  3.056290E+04  2.632588E+05  1.037645E+04  3.254598E+04
       201  27 -8.988577E+04 -5.930825E+05 -9.128046E+04  3.746251E+05 -1.853869E+04  2.738600E+04
       202   1  2.019048E+05  5.964391E+05  1.679170E+05  3.779802E+05  4.249313E+04  4.498799E+04
       202   2  3.373901E+05  1.159022E+06  2.935038E+05  2.613239E+05  5.942332E+04 -5.011902E+02
       202   3  4.618512E+05  1.725068E+06  4.458644E+05  3.642414E+05  2.134235E+04 -4.597112E+04
       202   4  2.263806E+03 -2.234460E+05 -1.051558E+04  3.735922E+05  4.240228E+04  2.184907E+03
       202   5  1.096890E+02 -2.206753E+05 -1.407826E+04  2.638043E+05  5.944982E+04  9.571670E+03
       202   6 -2.223863E+04 -2.239084E+05 -2.755540E+04  3.736263E+05  2.143025E+04  1.701829E+04
       202   7 -1.974208E+05 -1.042697E+06 -1.889816E+05  3.692096E+05  4.231196E+04 -4.056242E+04
       202   8 -3.372999E+05 -1.598599E+06 -3.217793E+05  2.662781E+05  5.947644E+04  1.962240E+04
       202   9 -5.066050E+05 -2.169415E+06 -5.012350E+05  3.829797E+05  2.152023E+04  7.981085E+04
       202  10  2.019023E+05  5.964365E+05  1.679098E+05  3.779787E+05 -2.096087E-10  6.679688E-09
       202  11  3.373864E+05  1.159021E+06  2.934972E+05  2.613239E+05 -1.486148E-09 -3.579689E-09
       202  12  4.618501E+05  1.725066E+06  4.458596E+05  3.642422E+05 -1.724315E-10 -3.855358E-12
       202  13  2.261874E+03 -2.234465E+05 -1.051896E+04  3.735922E+05 -3.465986E-09 -1.169825E-09
       202  14  1.058699E+02 -2.206763E+05 -1.408508E+04  2.638039E+05 -1.687591E-09 -2.154001E-09
       202  15 -2.223920E+04 -2.239089E+05 -2.755681E+04  3.736261E+05 -8.344954E-10 -1.191165E-09
       202  16 -1.974232E+05 -1.042700E+06 -1.889881E+05  3.692110E+05 -1.684998E-09 -4.668005E-09
       202  17 -3.373038E+05 -1.598601E+06 -3.217867E+05  2.662771E+05 -3.273052E-10 -6.927602E-10
       202  18 -5.066072E+05 -2.169421E+06 -5.012479E+05  3.829783E+05 -1.087978E-10  1.095966E-09
       202  19  2.019048E+05  5.964391E+05  1.679170E+05  3.779802E+05 -4.249313E+04 -4.498799E+04
       202  20  3.373901E+05  1.159022E+06  2.935038E+05  2.613239E+05 -5.942332E+04  5.011902E+02
       202  21  4.618512E+05  1.725068E+06  4.458644E+05  3.642414E+05 -2.134235E+04  4.597112E+04
       202  22  2.263806E+03 -2.234460E+05 -1.051558E+04  3.735922E+05 -4.240228E+04 -2.184907E+03
       202  23  1.096890E+02 -2.206753E+05 -1.407826E+04  2.638043E+05 -5.944982E+04 -9.571670E+03
       202  24 -2.223863E+04 -2.239084E+05 -2.755540E+04  3.736263E+05 -2.143025E+04 -1.701829E+04
       202  25 -1.974208E+05 -1.042697E+06 -1.889816E+05  3.692096E+05 -4.231196E+04  4.056242E+04
       202  26 -3.372999E+05 -1.598599E+06 -3.217793E+05  2.662781E+05 -5.947644E+04 -1.962240E+04
       202  27 -5.066050E+05 -2.169415E+06 -5.012350E+05  3.829797E+05 -2.152023E+04 -7.981085E+04
       203   1 -2.774393E+05 -1.215715E+06 -2.782766E+05  1.694520E+05 -1.154529E+04 -5.950894E+04
       203   2 -1.844082E+05 -9.754120E+05 -1.855004E+05  1.141090E+05 -3.321000E+04 -2.369967E+04
       203   3 -1.251246E+05 -7.482460E+05 -1.245152E+05  1.496203E+05 -2.739779E+04  1.209443E+04
       203   4 -3.153683E+04 -2.270486E+05 -3.807888E+04  1.547338E+05 -1.150260E+04 -2.555158E+04
       203   5 -2.612908E+02 -2.226961E+05 -1.792650E+04  1.092868E+05 -3.319634E+04 -1.606320E+04
       203   6  1.867624E+03 -2.269410E+05 -1.124689E+04  1.546917E+05 -2.742696E+04 -6.604365E+03
       203   7  2.142952E+05  7.625145E+05  2.020526E+05  1.399917E+05 -1.146156E+04  8.459814E+03
       203   8  1.838473E+05  5.305492E+05  1.496122E+05  1.044585E+05 -3.318281E+04 -8.417545E+03
       203   9  1.288421E+05  2.946199E+05  1.020065E+05  1.597672E+05 -2.745641E+04 -2.531867E+04
       203  10 -2.774404E+05 -1.215719E+06 -2.782835E+05  1.694514E+05  2.835912E-10  2.871986E-09
       203  11 -1.844095E+05 -9.754129E+05 -1.855035E+05  1.141084E+05  2.649884E-09  1.287984E-09
       203  12 -1.251254E+05 -7.482463E+05 -1.245169E+05  1.496206E+05  2.753391E-10  3.434896E-09
       203  13 -3.153714E+04 -2.270493E+05 -3.808036E+04  1.547336E+05 -8.016738E-10  1.969193E-09
       203  14 -2.625432E+02 -2.226966E+05 -1.792906E+04  1.092864E+05  4.515577E-09 -3.010797E-09
       203  15  1.866805E+03 -2.269412E+05 -1.124839E+04  1.546915E+05  5.844543E-10 -1.029883E-09
       203  16  2.142950E+05  7.625143E+05  2.020522E+05  1.399918E+05  6.217238E-10 -1.396524E-09
       203  17  1.838461E+05  5.305488E+05  1.496100E+05  1.044583E+05  2.240889E-10 -2.712723E-09
       203  18  1.288411E+05  2.946190E+05  1.020039E+05  1.597666E+05  1.865524E-09 -2.344998E-10
       203  19 -2.774393E+05 -1.215715E+06 -2.782766E+05  1.694520E+05  1.154529E+04  5.950894E+04
       203  20 -1.844082E+05 -9.754120E+05 -1.855004E+05  1.141090E+05  3.321000E+04  2.369967E+04
       203  21 -1.251246E+05 -7.482460E+05 -1.245152E+05  1.496203E+05  2.739779E+04 -1.209443E+04
       203  22 -3.153683E+04 -2.270486E+05 -3.807888E+04  1.547338E+05  1.150260E+04  2.555158E+04
       203  23 -2.612908E+02 -2.226961E+05 -1.792650E+04  1.092868E+05  3.319634E+04  1.606320E+04
       203  24  1.867624E+03 -2.269410E+05 -1.124689E+04  1.546917E+05  2.742696E+04  6.604365E+03
       203  25  2.142952E+05  7.625145E+05  2.020526E+05  1.399917E+05  1.146156E+04 -8.459814E+03
       203  26  1.838473E+05  5.305492E+05  1.496122E+05  1.044585E+05  3.318281E+04  8.417545E+03
       203  27  1.288421E+05  2.946199E+05  1.020065E+05  1.597672E+05  2.745641E+04  2.531867E+04
       204   1 -8.275799E+04 -5.604105E+05 -8.261762E+04  1.553381E+05 -1.718879E+04  6.219375E+03
       204   2 -2.428087E+04 -3.260343E+05 -2.907615E+04  1.088524E+05 -5.402998E+03  9.987042E+03
       204   3  3.177792E+04 -9.303905E+04  2.132066E+04  1.544475E+05  6.617708E+03  1.375420E+04
       204   4 -1.095919E+03 -2.253053E+05 -9.552999E+03  1.549759E+05 -1.720753E+04 -4.970841E+03
       204   5  4.077256E+02 -2.246017E+05 -7.097806E+03  1.089353E+05 -5.422686E+03 -1.429159E+03
       204   6 -4.639406E+02 -2.252910E+05 -7.627363E+03  1.549748E+05  6.596875E+03  2.110629E+03
       204   7  8.055875E+04  1.099056E+05  6.350533E+04  1.546134E+05 -1.722625E+04 -1.616702E+04
       204   8  2.509571E+04 -1.231593E+05  1.488041E+04  1.090183E+05 -5.442374E+03 -1.284720E+04
       204   9 -3.270690E+04 -3.575262E+05 -3.657593E+04  1.555020E+05  6.576019E+03 -9.530488E+03
       204  10 -8.275831E+04 -5.604106E+05 -8.261824E+04  1.553381E+05  5.375440E-11  2.580937E-09
       204  11 -2.428093E+04 -3.260344E+05 -2.907639E+04  1.088525E+05 -8.964872E-10 -5.054068E-09
       204  12  3.177783E+04 -9.303926E+04  2.132022E+04  1.544474E+05  2.190582E-10  2.887119E-09
       204  13 -1.096243E+03 -2.253054E+05 -9.553602E+03  1.549758E+05 -8.191824E-12  2.074064E-09
       204  14  4.076935E+02 -2.246018E+05 -7.097865E+03  1.089353E+05  9.928376E-10 -4.818320E-09
       204  15 -4.639885E+02 -2.252910E+05 -7.627453E+03  1.549748E+05  2.143153E-09 -3.630954E-09
       204  16  8.055836E+04  1.099052E+05  6.350428E+04  1.546132E+05  4.705236E-11  6.755595E-11
       204  17  2.509564E+04 -1.231595E+05  1.488005E+04  1.090182E+05  7.597788E-10 -6.224388E-09
       204  18 -3.270697E+04 -3.575264E+05 -3.657618E+04  1.555020E+05 -2.532749E-10 -1.712063E-09
       204  19 -8.275799E+04 -5.604105E+05 -8.261762E+04  1.553381E+05  1.718879E+04 -6.219375E+03
       204  20 -2.428087E+04 -3.260343E+05 -2.907615E+04  1.088524E+05  5.402998E+03 -9.987042E+03
       204  21  3.177792E+04 -9.303905E+04  2.132066E+04  1.544475E+05 -6.617708E+03 -1.375420E+04
       204  22 -1.095919E+03 -2.253053E+05 -9.552999E+03  1.549759E+05  1.720753E+04  4.970841E+03
       204  23  4.077256E+02 -2.246017E+05 -7.097806E+03  1.089353E+05  5.422686E+03  1.429159E+03
       204  24 -4.639406E+02 -2.252910E+05 -7.627363E+03  1.549748E+05 -6.596875E+03 -2.110629E+03
       204  25  8.055875E+04  1.099056E+05  6.350533E+04  1.546134E+05  1.722625E+04  1.616702E+04
       204  26  2.509571E+04 -1.231593E+05  1.488041E+04  1.090183E+05  5.442374E+03  1.284720E+04
       204  27 -3.270690E+04 -3.575262E+05 -3.657593E+04  1.555020E+05 -6.576019E+03  9.530488E+03
       205   1  7.897676E+04  9.217965E+04  6.097897E+04  1.580598E+05  1.645695E+04  2.101355E+04
       205   2  1.346407E+05  3.271260E+05  1.106191E+05  1.061348E+05  2.364818E+04  6.052420E+03
       205   3  1.749291E+05  5.600274E+05  1.661002E+05  1.453188E+05  8.558310E+03 -8.885005E+03
       205   4  1.393518E+03 -2.262911E+05 -8.384520E+03  1.547528E+05  1.642649E+04  3.383176E+03
       205   5 -1.786232E+01 -2.234246E+05 -1.223123E+04  1.092103E+05  2.365554E+04  9.816285E+03
       205   6 -2.052304E+04 -2.263696E+05 -2.509433E+04  1.547841E+05  8.594309E+03  1.627834E+04
       205   7 -7.619626E+04 -5.446662E+05 -7.775293E+04  1.514474E+05  1.639621E+04 -1.423827E+04
       205   8 -1.346969E+05 -7.736925E+05 -1.351006E+05  1.122830E+05  2.366295E+04  1.357685E+04
       205   9 -2.160200E+05 -1.012201E+06 -2.163312E+05  1.642371E+05  8.631100E+03  4.140991E+04
       205  10  7.897635E+04  9.217910E+04  6.097763E+04  1.580595E+05 -3.040135E-10  2.419862E-09
       205  11  1.346401E+05  3.271258E+05  1.106180E+05  1.061347E+05 -2.125900E-09 -3.118344E-09
       205  12  1.749290E+05  5.600273E+05  1.660999E+05  1.453189E+05 -1.850932E-09  7.515256E-10
       205  13  1.393226E+03 -2.262912E+05 -8.385048E+03  1.547527E+05 -9.056383E-10  5.379320E-09
       205  14 -1.848897E+01 -2.234248E+05 -1.223246E+04  1.092102E+05  5.519042E-10 -4.430927E-09
       205  15 -2.052319E+04 -2.263699E+05 -2.509497E+04  1.547840E+05  6.886483E-10  1.104096E-10
       205  16 -7.619660E+04 -5.446665E+05 -7.775381E+04  1.514476E+05  1.706014E-09 -2.002120E-09
       205  17 -1.346976E+05 -7.736929E+05 -1.351020E+05  1.122827E+05  1.249240E-09 -5.443746E-09
       205  18 -2.160205E+05 -1.012203E+06 -2.163346E+05  1.642368E+05  6.288604E-10  1.914300E-09
       205  19  7.897676E+04  9.217965E+04  6.097897E+04  1.580598E+05 -1.645695E+04 -2.101355E+04
       205  20  1.346407E+05  3.271260E+05  1.106191E+05  1.061348E+05 -2.364818E+04 -6.052420E+03
       205  21  1.749291E+05  5.600274E+05  1.661002E+05  1.453188E+05 -8.558310E+03  8.885005E+03
       205  22  1.393518E+03 -2.262911E+05 -8.384520E+03  1.547528E+05 -1.642649E+04 -3.383176E+03
       205  23 -1.786232E+01 -2.234246E+05 -1.223123E+04  1.092103E+05 -2.365554E+04 -9.816285E+03
       205  24 -2.052304E+04 -2.263696E+05 -2.509433E+04  1.547841E+05 -8.594309E+03 -1.627834E+04
       205  25 -7.619626E+04 -5.446662E+05 -7.775293E+04  1.514474E+05 -1.639621E+04  1.423827E+04
       205  26 -1.346969E+05 -7.736925E+05 -1.351006E+05  1.122830E+05 -2.366295E+04 -1.357685E+04
       205  27 -2.160200E+05 -1.012201E+06 -2.163312E+05  1.642371E+05 -8.631100E+03 -4.140991E+04
       206   1  4.511064E+06  1.183414E+06  1.169867E+06  5.541845E+05  2.114480E+05 -5.660268E+04
       206   2  3.678187E+06  9.130548E+05  8.602421E+05  3.845054E+05  7.649106E+04 -1.686865E+05
       206   3  2.887293E+06  7.138473E+05  6.568255E+05  5.280483E+05 -5.792676E+04 -1.567870E+05
       206   4 -7.067224E+04  4.822403E+04  6.254582E+04  5.366538E+05  4.296406E+04 -5.621682E+04
       206   5 -8.019016E+04 -3.399847E+03  2.806163E+04  3.799457E+05  2.790968E+04 -1.686913E+05
       206   6 -6.888322E+04 -4.344397E+03  1.703475E+04  5.365495E+05  1.321396E+04 -1.568517E+05
       206   7 -4.633248E+06 -1.088482E+06 -1.046175E+06  5.192562E+05 -1.242882E+05 -5.582051E+04
       206   8 -3.825423E+06 -9.208047E+05 -8.049850E+05  3.754148E+05 -2.038263E+04 -1.686955E+05
       206   9 -3.016871E+06 -7.231097E+05 -6.232558E+05  5.450067E+05  8.402151E+04 -1.569145E+05
       206  10  4.511015E+06  1.183399E+06  1.169777E+06  5.541942E+05  8.231264E-12 -3.454957E-10
       206  11  3.678173E+06  9.130227E+05  8.601777E+05  3.845158E+05  8.955227E-10 -8.226890E-10
       206  12  2.887283E+06  7.138200E+05  6.567731E+05  5.280410E+05  3.027350E-11 -8.800488E-10
       206  13 -7.067507E+04  4.822014E+04  6.253641E+04  5.366558E+05  5.421055E-10 -1.550959E-10
       206  14 -8.019864E+04 -3.430616E+03  2.800668E+04  3.799495E+05  1.382504E-10 -4.349974E-10
       206  15 -6.889001E+04 -4.370864E+03  1.698818E+04  5.365512E+05 -6.719162E-10 -1.925694E-10
       206  16 -4.633265E+06 -1.088490E+06 -1.046210E+06  5.192506E+05  1.252295E-10 -4.915885E-11
       206  17 -3.825431E+06 -9.208354E+05 -8.050392E+05  3.754120E+05  1.353059E-09  3.378586E-11
       206  18 -3.016885E+06 -7.231380E+05 -6.233155E+05  5.450174E+05  7.021688E-10  5.720492E-10
       206  19  4.511064E+06  1.183414E+06  1.169867E+06  5.541845E+05 -2.114480E+05  5.660268E+04
       206  20  3.678187E+06  9.130548E+05  8.602421E+05  3.845054E+05 -7.649106E+04  1.686865E+05
       206  21  2.887293E+06  7.138473E+05  6.568255E+05  5.280483E+05  5.792676E+04  1.567870E+05
       206  22 -7.067224E+04  4.822403E+04  6.254582E+04  5.366538E+05 -4.296406E+04  5.621682E+04
       206  23 -8.019016E+04 -3.399847E+03  2.806163E+04  3.799457E+05 -2.790968E+04  1.686913E+05
       206  24 -6.888322E+04 -4.344397E+03  1.703475E+04  5.365495E+05 -1.321396E+04  1.568517E+05
       206  25 -4.633248E+06 -1.088482E+06 -1.046175E+06  5.192562E+05  1.242882E+05  5.582051E+04
       206  26 -3.825423E+06 -9.208047E+05 -8.049850E+05  3.754148E+05  2.038263E+04  1.686955E+05
       206  27 -3.016871E+06 -7.231097E+05 -6.232558E+05  5.450067E+05 -8.402151E+04  1.569145E+05
       207   1  2.236680E+06  5.629862E+05  5.152203E+05  5.387040E+05 -2.509613E+04 -1.194149E+05
       207   2  1.425024E+06  3.640491E+05  3.318684E+05  3.789371E+05 -3.393180E+04 -7.943810E+04
       207   3  6.168586E+05  1.685498E+05  1.552425E+05  5.379925E+05 -4.283502E+04 -3.404153E+04
       207   4 -7.232080E+04  1.419225E+03  1.335827E+04  5.378114E+05  1.074945E+04 -1.194345E+05
       207   5 -7.294812E+04 -2.094083E+02  7.316396E+03  3.783771E+05  7.120800E+03 -7.942305E+04
       207   6 -7.159943E+04  7.417731E+02  4.423945E+03  5.378127E+05  3.413266E+03 -3.398345E+04
       207   7 -2.376331E+06 -5.605003E+05 -4.888179E+05  5.369196E+05  4.646376E+04 -1.194542E+05
       207   8 -1.568814E+06 -3.646153E+05 -3.173627E+05  3.778175E+05  4.807582E+04 -7.940803E+04
       207   9 -7.596094E+05 -1.670967E+05 -1.464153E+05  5.376328E+05  4.961094E+04 -3.392534E+04
       207  10  2.236676E+06  5.629707E+05  5.151923E+05  5.387016E+05  3.282043E-10 -5.507250E-10
       207  11  1.425022E+06  3.640420E+05  3.318544E+05  3.789350E+05 -4.761359E-10 -2.456958E-11
       207  12  6.168563E+05  1.685480E+05  1.552369E+05  5.379913E+05 -6.752659E-11  2.383081E-10
       207  13 -7.232476E+04  1.403875E+03  1.333125E+04  5.378124E+05 -1.073302E-09 -1.401061E-10
       207  14 -7.294987E+04 -2.161959E+02  7.304445E+03  3.783776E+05  8.714395E-10 -4.251280E-10
       207  15 -7.159976E+04  7.405297E+02  4.421752E+03  5.378128E+05 -3.866346E-11  1.438108E-10
       207  16 -2.376337E+06 -5.605162E+05 -4.888489E+05  5.369241E+05 -4.973129E-10  2.608638E-10
       207  17 -1.568819E+06 -3.646227E+05 -3.173789E+05  3.778206E+05  2.818288E-10 -6.277390E-10
       207  18 -7.596124E+05 -1.670986E+05 -1.464221E+05  5.376341E+05 -9.887871E-10 -1.886592E-10
       207  19  2.236680E+06  5.629862E+05  5.152203E+05  5.387040E+05  2.509613E+04  1.194149E+05
       207  20  1.425024E+06  3.640491E+05  3.318684E+05  3.789371E+05  3.393180E+04  7.943810E+04
       207  21  6.168586E+05  1.685498E+05  1.552425E+05  5.379925E+05  4.283502E+04  3.404153E+04
       207  22 -7.232080E+04  1.419225E+03  1.335827E+04  5.378114E+05 -1.074945E+04  1.194345E+05
       207  23 -7.294812E+04 -2.094083E+02  7.316396E+03  3.783771E+05 -7.120800E+03  7.942305E+04
       207  24 -7.159943E+04  7.417731E+02  4.423945E+03  5.378127E+05 -3.413266E+03  3.398345E+04
       207  25 -2.376331E+06 -5.605003E+05 -4.888179E+05  5.369196E+05 -4.646376E+04  1.194542E+05
       207  26 -1.568814E+06 -3.646153E+05 -3.173627E+05  3.778175E+05 -4.807582E+04  7.940803E+04
       207  27 -7.596094E+05 -1.670967E+05 -1.464153E+05  5.376328E+05 -4.961094E+04  3.392534E+04
       208   1 -2.650853E+04  1.169753E+04  1.123682E+04  5.376207E+05 -4.333295E+04 -5.672619E+03
       208   2 -8.353356E+05 -1.855046E+05 -1.639742E+05  3.779380E+05 -3.992630E+04  3.998507E+04
       208   3 -1.644048E+06 -3.833776E+05 -3.416546E+05  5.372050E+05 -3.648317E+04  8.109747E+04
       208   4 -7.187906E+04  1.056558E+03  3.398548E+03  5.378248E+05  2.654042E+03 -5.609017E+03
       208   5 -7.218652E+04  3.832575E+02  1.897872E+03  3.783625E+05  1.675294E+03  4.002360E+04
       208   6 -7.224742E+04 -1.627982E+02  9.922882E+02  5.378257E+05  7.374175E+02  8.111581E+04
       208   7 -1.172430E+05 -9.583387E+03 -4.431846E+03  5.380289E+05  4.863777E+04 -5.545381E+03
       208   8  6.915130E+05  1.862334E+05  1.677416E+05  3.787873E+05  4.332741E+04  4.006216E+04
       208   9  1.501875E+06  3.828883E+05  3.434958E+05  5.384465E+05  3.805122E+04  8.113419E+04
       208  10 -2.651055E+04  1.169699E+04  1.123323E+04  5.376205E+05  1.501693E-10  3.293468E-11
       208  11 -8.353378E+05 -1.855068E+05 -1.639802E+05  3.779393E+05  7.731115E-10 -7.365202E-11
       208  12 -1.644051E+06 -3.833850E+05 -3.416694E+05  5.372074E+05 -1.184568E-09  2.358020E-11
       208  13 -7.187908E+04  1.056522E+03  3.398475E+03  5.378248E+05  3.731339E-12  1.555919E-10
       208  14 -7.218695E+04  3.815367E+02  1.894856E+03  3.783625E+05  1.659337E-10  1.141448E-10
       208  15 -7.224919E+04 -1.698636E+02  9.799232E+02  5.378256E+05 -1.983857E-10  3.440585E-11
       208  16 -1.172456E+05 -9.584055E+03 -4.436351E+03  5.380291E+05 -2.175735E-11  2.234660E-10
       208  17  6.915105E+05  1.862312E+05  1.677351E+05  3.787859E+05 -7.929883E-10  3.621904E-10
       208  18  1.501872E+06  3.828809E+05  3.434807E+05  5.384440E+05 -6.233598E-11  4.394506E-11
       208  19 -2.650853E+04  1.169753E+04  1.123682E+04  5.376207E+05  4.333295E+04  5.672619E+03
       208  20 -8.353356E+05 -1.855046E+05 -1.639742E+05  3.779380E+05  3.992630E+04 -3.998507E+04
       208  21 -1.644048E+06 -3.833776E+05 -3.416546E+05  5.372050E+05  3.648317E+04 -8.109747E+04
       208  22 -7.187906E+04  1.056558E+03  3.398548E+03  5.378248E+05 -2.654042E+03  5.609017E+03
       208  23 -7.218652E+04  3.832575E+02  1.897872E+03  3.783625E+05 -1.675294E+03 -4.002360E+04
       208  24 -7.224742E+04 -1.627982E+02  9.922882E+02  5.378257E+05 -7.374175E+02 -8.111581E+04
       208  25 -1.172430E+05 -9.583387E+03 -4.431846E+03  5.380289E+05 -4.863777E+04  5.545381E+03
       208  26  6.915130E+05  1.862334E+05  1.677416E+05  3.787873E+05 -4.332741E+04 -4.006216E+04
       208  27  1.501875E+06  3.828883E+05  3.434958E+05  5.384465E+05 -3.805122E+04 -8.113419E+04
       209   1 -2.287776E+06 -5.406825E+05 -4.807426E+05  5.362692E+05 -6.657842E+04  1.170545E+05
       209   2 -3.089803E+06 -7.408955E+05 -6.716829E+05  3.814858E+05  3.498742E+04  1.342219E+05
       209   3 -3.904722E+06 -9.578110E+05 -9.323743E+05  5.408449E+05  1.362383E+05  4.545911E+04
       209   4 -7.191186E+04 -5.642360E+02  8.220913E+02  5.367439E+05  4.816651E+02  1.170603E+05
       209   5 -7.472990E+04 -2.463914E+03 -3.760648E+02  3.797154E+05  7.861837E+02  1.341929E+05
       209   6 -7.335619E+04 -3.362588E+03 -7.841827E+02  5.367444E+05  9.098827E+02  4.562547E+04
       209   7  2.148578E+06  5.392306E+05  4.821103E+05  5.372178E+05  6.777863E+04  1.170661E+05
       209   8  2.948852E+06  7.353512E+05  6.703670E+05  3.779350E+05 -3.357995E+04  1.341643E+05
       209   9  3.771504E+06  9.500141E+05  9.298122E+05  5.326176E+05 -1.352553E+05  4.579340E+04
       209  10 -2.287785E+06 -5.406984E+05 -4.807768E+05  5.362754E+05 -5.618079E-10 -1.510705E-10
       209  11 -3.089809E+06 -7.409151E+05 -6.717190E+05  3.814820E+05  4.516402E-10 -7.891326E-10
       209  12 -3.904742E+06 -9.578182E+05 -9.324133E+05  5.408399E+05  6.379132E-10 -3.961438E-10
       209  13 -7.191553E+04 -5.789503E+02  7.963411E+02  5.367438E+05  5.391546E-10 -1.027481E-10
       209  14 -7.473473E+04 -2.483250E+03 -4.099046E+02  3.797153E+05  1.960154E-10 -1.950709E-10
       209  15 -7.335675E+04 -3.364824E+03 -7.880959E+02  5.367444E+05 -5.820521E-11  1.358151E-10
       209  16  2.148570E+06  5.392146E+05  4.820759E+05  5.372115E+05 -8.995686E-10 -1.093110E-10
       209  17  2.948846E+06  7.353315E+05  6.703311E+05  3.779386E+05  1.062627E-10 -1.904208E-10
       209  18  3.771483E+06  9.500070E+05  9.297740E+05  5.326226E+05  7.986640E-11 -2.686190E-11
       209  19 -2.287776E+06 -5.406825E+05 -4.807426E+05  5.362692E+05  6.657842E+04 -1.170545E+05
       209  20 -3.089803E+06 -7.408955E+05 -6.716829E+05  3.814858E+05 -3.498742E+04 -1.342219E+05
       209  21 -3.904722E+06 -9.578110E+05 -9.323743E+05  5.408449E+05 -1.362383E+05 -4.545911E+04
       209  22 -7.191186E+04 -5.642360E+02  8.220913E+02  5.367439E+05 -4.816651E+02 -1.170603E+05
       209  23 -7.472990E+04 -2.463914E+03 -3.760648E+02  3.797154E+05 -7.861837E+02 -1.341929E+05
       209  24 -7.335619E+04 -3.362588E+03 -7.841827E+02  5.367444E+05 -9.098827E+02 -4.562547E+04
       209  25  2.148578E+06  5.392306E+05  4.821103E+05  5.372178E+05 -6.777863E+04 -1.170661E+05
       209  26  2.948852E+06  7.353512E+05  6.703670E+05  3.779350E+05  3.357995E+04 -1.341643E+05
       209  27  3.771504E+06  9.500141E+05  9.298122E+05  5.326176E+05  1.352553E+05 -4.579340E+04
       210   1 -5.906161E+05 -2.884822E+06 -5.962884E+05  4.718050E+05 -2.310562E+04 -1.228805E+05
       210   2 -3.488548E+05 -2.193286E+06 -3.562462E+05  3.201242E+05 -6.110574E+04 -4.576642E+04
       210   3 -1.773906E+05 -1.531209E+06 -1.845689E+05  4.327691E+05 -3.857967E+04  3.116862E+04
       210   4 -6.464626E+04 -7.728909E+05 -8.131233E+04  4.459197E+05 -2.278439E+04 -5.731732E+04
       210   5  1.676710E+03 -7.627224E+05 -3.605146E+04  3.135934E+05 -6.105553E+04 -3.803294E+04
       210   6  7.899622E+03 -7.722883E+05 -1.878040E+04  4.455775E+05 -3.885824E+04 -1.901417E+04
       210   7  4.609995E+05  1.343135E+06  4.333560E+05  4.199396E+05 -2.246927E+04  8.469370E+03
       210   8  3.520689E+05  6.697532E+05  2.840143E+05  3.070446E+05 -6.100555E+04 -3.028170E+04
       210   9  1.931533E+05 -1.282104E+04  1.469829E+05  4.584008E+05 -3.913869E+04 -6.925763E+04
       210  10 -5.906208E+05 -2.884839E+06 -5.963179E+05  4.718027E+05 -3.415179E-10  6.193319E-10
       210  11 -3.488594E+05 -2.193289E+06 -3.562571E+05  3.201219E+05  1.706117E-10 -6.712163E-10
       210  12 -1.773925E+05 -1.531211E+06 -1.845735E+05  4.327700E+05 -3.917791E-09 -1.830492E-09
       210  13 -6.464770E+04 -7.728946E+05 -8.131948E+04  4.459186E+05 -1.862585E-09  9.872006E-11
       210  14  1.672322E+03 -7.627249E+05 -3.606118E+04  3.135916E+05  4.372557E-09 -2.496477E-10
       210  15  7.897904E+03 -7.722891E+05 -1.878391E+04  4.455769E+05 -3.284047E-09 -8.129082E-11
       210  16  4.609990E+05  1.343135E+06  4.333550E+05  4.199397E+05 -9.320398E-11 -5.302523E-10
       210  17  3.520647E+05  6.697512E+05  2.840056E+05  3.070431E+05  1.459194E-09  2.098516E-10
       210  18  1.931504E+05 -1.282660E+04  1.469710E+05  4.583987E+05 -2.304090E-11  1.948806E-09
       210  19 -5.906161E+05 -2.884822E+06 -5.962884E+05  4.718050E+05  2.310562E+04  1.228805E+05
       210  20 -3.488548E+05 -2.193286E+06 -3.562462E+05  3.201242E+05  6.110574E+04  4.576642E+04
       210  21 -1.773906E+05 -1.531209E+06 -1.845689E+05  4.327691E+05  3.857967E+04 -3.116862E+04
       210  22 -6.464626E+04 -7.728909E+05 -8.131233E+04  4.459197E+05  2.278439E+04  5.731732E+04
       210  23  1.676710E+03 -7.627224E+05 -3.605146E+04  3.135934E+05  6.105553E+04  3.803294E+04
       210  24  7.899622E+03 -7.722883E+05 -1.878040E+04  4.455775E+05  3.885824E+04  1.901417E+04
       210  25  4.609995E+05  1.343135E+06  4.333560E+05  4.199396E+05  2.246927E+04 -8.469370E+03
       210  26  3.520689E+05  6.697532E+05  2.840143E+05  3.070446E+05  6.100555E+04  3.028170E+04
       210  27  1.931533E+05 -1.282104E+04  1.469829E+05  4.584008E+05  3.913869E+04  6.925763E+04
       211   1 -5.250787E+04 -9.880647E+05 -6.164301E+04  4.461412E+05 -1.046921E+04  1.733720E+04
       211   2  1.146556E+05 -3.095861E+05  9.674634E+04  3.150005E+05  2.454799E+04  1.735102E+04
       211   3  2.835097E+05  3.666411E+05  2.547467E+05  4.507494E+05  5.849772E+04  1.739033E+04
       211   4  1.130513E+03 -7.684247E+05 -1.328431E+04  4.462493E+05 -1.066407E+04 -1.676057E+04
       211   5  3.253151E+03 -7.670878E+05 -2.416144E+03  3.127830E+05  2.436839E+04 -1.573365E+04
       211   6  6.921054E+03 -7.686035E+05  7.383479E+03  4.462165E+05  5.833143E+04 -1.468140E+04
       211   7  5.476628E+04 -5.487370E+05  3.507581E+04  4.463574E+05 -1.085889E+04 -5.087027E+04
       211   8 -1.081626E+05 -1.224391E+06 -1.015870E+05  3.105668E+05  2.418895E+04 -4.879425E+04
       211   9 -2.697528E+05 -1.902638E+06 -2.400534E+05  4.416900E+05  5.816544E+04 -4.669524E+04
       211  10 -5.250807E+04 -9.880651E+05 -6.164379E+04  4.461413E+05 -1.510677E-09  2.740592E-09
       211  11  1.146549E+05 -3.095866E+05  9.674464E+04  3.150002E+05 -7.570649E-10  9.541858E-10
       211  12  2.835060E+05  3.666399E+05  2.547398E+05  4.507486E+05  2.142667E-09 -8.441833E-10
       211  13  1.130316E+03 -7.684250E+05 -1.328505E+04  4.462492E+05 -1.715897E-09 -1.996510E-11
       211  14  3.252447E+03 -7.670883E+05 -2.417726E+03  3.127833E+05 -4.187970E-09  8.660289E-11
       211  15  6.917342E+03 -7.686046E+05  7.376679E+03  4.462172E+05 -3.998299E-09  2.194123E-10
       211  16  5.476546E+04 -5.487398E+05  3.507073E+04  4.463570E+05 -7.978675E-10 -2.845033E-09
       211  17 -1.081638E+05 -1.224393E+06 -1.015925E+05  3.105678E+05  2.531632E-09 -1.117076E-09
       211  18 -2.697570E+05 -1.902641E+06 -2.400639E+05  4.416921E+05  1.240921E-09  7.120623E-10
       211  19 -5.250787E+04 -9.880647E+05 -6.164301E+04  4.461412E+05  1.046921E+04 -1.733720E+04
       211  20  1.146556E+05 -3.095861E+05  9.674634E+04  3.150005E+05 -2.454799E+04 -1.735102E+04
       211  21  2.835097E+05  3.666411E+05  2.547467E+05  4.507494E+05 -5.849772E+04 -1.739033E+04
       211  22  1.130513E+03 -7.684247E+05 -1.328431E+04  4.462493E+05  1.066407E+04  1.676057E+04
       211  23  3.253151E+03 -7.670878E+05 -2.416144E+03  3.127830E+05 -2.436839E+04  1.573365E+04
       211  24  6.921054E+03 -7.686035E+05  7.383479E+03  4.462165E+05 -5.833143E+04  1.468140E+04
       211  25  5.476628E+04 -5.487370E+05  3.507581E+04  4.463574E+05  1.085889E+04  5.087027E+04
       211  26 -1.081626E+05 -1.224391E+06 -1.015870E+05  3.105668E+05 -2.418895E+04  4.879425E+04
       211  27 -2.697528E+05 -1.902638E+06 -2.400534E+05  4.416900E+05 -5.816544E+04  4.669524E+04
       212   1  4.092564E+05  9.104564E+05  3.757828E+05  4.444526E+05  8.851019E+04  3.873986E+04
       212   2  5.755907E+05  1.573878E+06  5.464049E+05  3.297810E+05  1.035560E+05 -5.500252E+04
       212   3  8.047089E+05  2.264929E+06  7.934468E+05  4.776413E+05  3.502264E+04 -1.485653E+05
       212   4  1.462898E+03 -7.653421E+05  1.210175E+04  4.453188E+05  8.824368E+04 -1.632533E+04
       212   5  2.175035E+03 -7.724742E+05  2.499326E+04  3.139305E+05  1.036947E+05 -2.960824E+04
       212   6  5.186503E+04 -7.662567E+05  5.857013E+04  4.451152E+05  3.542957E+04 -4.260650E+04
       212   7 -4.065150E+05 -2.438500E+06 -3.517354E+05  4.461783E+05  8.797661E+04 -7.124395E+04
       212   8 -5.716124E+05 -3.113694E+06 -4.967592E+05  2.981339E+05  1.038324E+05 -4.308540E+03
       212   9 -7.016440E+05 -3.789039E+06 -6.769270E+05  4.127375E+05  3.582660E+04  6.283823E+04
       212  10  4.092476E+05  9.104527E+05  3.757652E+05  4.444499E+05 -4.530252E-10 -4.492343E-11
       212  11  5.755783E+05  1.573872E+06  5.463791E+05  3.297856E+05 -1.042546E-09 -3.651335E-10
       212  12  8.047017E+05  2.264905E+06  7.934032E+05  4.776455E+05  4.422453E-10 -2.149237E-10
       212  13  1.454466E+03 -7.653445E+05  1.208662E+04  4.453199E+05  3.025700E-09 -2.042253E-10
       212  14  2.163255E+03 -7.724780E+05  2.497140E+04  3.139330E+05 -2.025509E-09  8.399415E-11
       212  15  5.186320E+04 -7.662590E+05  5.856435E+04  4.451164E+05  6.958080E-10  4.684493E-12
       212  16 -4.065247E+05 -2.438508E+06 -3.517596E+05  4.461834E+05 -1.389802E-09  2.562795E-10
       212  17 -5.716240E+05 -3.113696E+06 -4.967795E+05  2.981343E+05 -7.332433E-10  6.371064E-10
       212  18 -7.016464E+05 -3.789043E+06 -6.769369E+05  4.127356E+05  1.090572E-09  3.355533E-11
       212  19  4.092564E+05  9.104564E+05  3.757828E+05  4.444526E+05 -8.851019E+04 -3.873986E+04
       212  20  5.755907E+05  1.573878E+06  5.464049E+05  3.297810E+05 -1.035560E+05  5.500252E+04
       212  21  8.047089E+05  2.264929E+06  7.934468E+05  4.776413E+05 -3.502264E+04  1.485653E+05
       212  22  1.462898E+03 -7.653421E+05  1.210175E+04  4.453188E+05 -8.824368E+04  1.632533E+04
       212  23  2.175035E+03 -7.724742E+05  2.499326E+04  3.139305E+05 -1.036947E+05  2.960824E+04
       212  24  5.186503E+04 -7.662567E+05  5.857013E+04  4.451152E+05 -3.542957E+04  4.260650E+04
       212  25 -4.065150E+05 -2.438500E+06 -3.517354E+05  4.461783E+05 -8.797661E+04  7.124395E+04
       212  26 -5.716124E+05 -3.113694E+06 -4.967592E+05  2.981339E+05 -1.038324E+05  4.308540E+03
       212  27 -7.016440E+05 -3.789039E+06 -6.769270E+05  4.127375E+05 -3.582660E+04 -6.283823E+04
       213   1  3.877539E+06  9.741208E+05  9.538124E+05  4.917392E+05  1.456544E+05 -4.765205E+04
       213   2  3.118968E+06  7.698267E+05  7.035288E+05  3.484057E+05  4.147470E+04 -1.414706E+05
       213   3  2.384386E+06  5.891225E+05  5.273539E+05  4.934382E+05 -6.238852E+04 -1.285312E+05
       213   4 -4.479020E+04  1.737042E+03  5.116165E+03  4.936061E+05  3.568567E+03 -4.746876E+04
       213   5 -4.694514E+04 -2.503104E+03  1.920935E+03  3.493778E+05  2.458937E+03 -1.415014E+05
       213   6 -4.340142E+04 -9.021604E+02  1.569698E+03  4.936004E+05  1.538175E+03 -1.285318E+05
       213   7 -3.953074E+06 -9.717608E+05 -9.446098E+05  4.954609E+05 -1.376267E+05 -4.728602E+04
       213   8 -3.203529E+06 -7.755080E+05 -7.003030E+05  3.503437E+05 -3.636089E+04 -1.415325E+05
       213   9 -2.465662E+06 -5.913139E+05 -5.245495E+05  4.937591E+05  6.521892E+04 -1.285323E+05
       213  10  3.877516E+06  9.741127E+05  9.537685E+05  4.917448E+05 -1.064356E-09 -3.077918E-10
       213  11  3.118961E+06  7.698047E+05  7.034879E+05  3.484104E+05  1.587432E-09 -3.750614E-10
       213  12  2.384377E+06  5.891038E+05  5.273156E+05  4.934317E+05  4.974265E-10  1.955544E-10
       213  13 -4.479082E+04  1.734619E+03  5.111906E+03  4.936062E+05 -5.350184E-10  4.301833E-10
       213  14 -4.695052E+04 -2.524606E+03  1.883296E+03  3.493781E+05  1.778270E-09  8.411920E-12
       213  15 -4.340586E+04 -9.199010E+02  1.538648E+03  4.936005E+05 -7.834508E-10  5.314006E-11
       213  16 -3.953095E+06 -9.717683E+05 -9.446498E+05  4.954556E+05 -1.459363E-10  3.677356E-11
       213  17 -3.203536E+06 -7.755298E+05 -7.003431E+05  3.503396E+05  1.762127E-09  5.006226E-10
       213  18 -2.465671E+06 -5.913328E+05 -5.245886E+05  4.937659E+05  1.337730E-09  2.334526E-10
       213  19  3.877539E+06  9.741208E+05  9.538124E+05  4.917392E+05 -1.456544E+05  4.765205E+04
       213  20  3.118968E+06  7.698267E+05  7.035288E+05  3.484057E+05 -4.147470E+04  1.414706E+05
       213  21  2.384386E+06  5.891225E+05  5.273539E+05  4.934382E+05  6.238852E+04  1.285312E+05
       213  22 -4.479020E+04  1.737042E+03  5.116165E+03  4.936061E+05 -3.568567E+03  4.746876E+04
       213  23 -4.694514E+04 -2.503104E+03  1.920935E+03  3.493778E+05 -2.458937E+03  1.415014E+05
       213  24 -4.340142E+04 -9.021604E+02  1.569698E+03  4.936004E+05 -1.538175E+03  1.285318E+05
       213  25 -3.953074E+06 -9.717608E+05 -9.446098E+05  4.954609E+05  1.376267E+05  4.728602E+04
       213  26 -3.203529E+06 -7.755080E+05 -7.003030E+05  3.503437E+05  3.636089E+04  1.415325E+05
       213  27 -2.465662E+06 -5.913139E+05 -5.245495E+05  4.937591E+05 -6.521892E+04  1.285323E+05
       214   1  1.788852E+06  4.459174E+05  3.996746E+05  4.955894E+05 -3.231587E+04 -9.470884E+04
       214   2  1.043291E+06  2.648461E+05  2.362718E+05  3.487238E+05 -3.702455E+04 -5.750402E+04
       214   3  2.992769E+05  8.493687E+04  7.618360E+04  4.951310E+05 -4.178259E+04 -1.566293E+04
       214   4 -4.405542E+04  9.215154E+00  1.103694E+03  4.946803E+05  1.243191E+03 -9.469694E+04
       214   5 -4.393557E+04  3.864582E+02  5.401665E+02  3.480277E+05  9.753476E+02 -5.746604E+04
       214   6 -4.357387E+04  1.186143E+03  2.276014E+02  4.946798E+05  6.525264E+02 -1.559316E+04
       214   7 -1.873816E+06 -4.461211E+05 -3.976642E+05  4.937721E+05  3.470467E+04 -9.468511E+04
       214   8 -1.130052E+06 -2.641506E+05 -2.352564E+05  3.473322E+05  3.890967E+04 -5.742810E+04
       214   9 -3.863110E+05 -8.257155E+04 -7.572892E+04  4.942288E+05  4.306448E+04 -1.552341E+04
       214  10  1.788848E+06  4.459075E+05  3.996558E+05  4.955869E+05  5.194674E-10  2.263314E-10
       214  11  1.043289E+06  2.648422E+05  2.362630E+05  3.487221E+05  4.192738E-10 -3.774280E-10
       214  12  2.992749E+05  8.493614E+04  7.617986E+04  4.951305E+05  1.767782E-10 -2.665578E-10
       214  13 -4.405783E+04 -4.147477E-01  1.086840E+03  4.946804E+05 -1.080430E-09  1.276654E-10
       214  14 -4.393645E+04  3.829118E+02  5.339589E+02  3.480277E+05  8.390645E-10 -2.018001E-10
       214  15 -4.357393E+04  1.185882E+03  2.271436E+02  4.946798E+05 -9.879471E-10  1.552379E-10
       214  16 -1.873820E+06 -4.461310E+05 -3.976833E+05  4.937747E+05  4.037369E-11 -1.302056E-10
       214  17 -1.130054E+06 -2.641545E+05 -2.352655E+05  3.473340E+05 -1.439423E-09 -1.445697E-10
       214  18 -3.863131E+05 -8.257231E+04 -7.573286E+04  4.942293E+05 -2.507536E-10 -2.751037E-10
       214  19  1.788852E+06  4.459174E+05  3.996746E+05  4.955894E+05  3.231587E+04  9.470884E+04
       214  20  1.043291E+06  2.648461E+05  2.362718E+05  3.487238E+05  3.702455E+04  5.750402E+04
       214  21  2.992769E+05  8.493687E+04  7.618360E+04  4.951310E+05  4.178259E+04  1.566293E+04
       214  22 -4.405542E+04  9.215154E+00  1.103694E+03  4.946803E+05 -1.243191E+03  9.469694E+04
       214  23 -4.393557E+04  3.864582E+02  5.401665E+02  3.480277E+05 -9.753476E+02  5.746604E+04
       214  24 -4.357387E+04  1.186143E+03  2.276014E+02  4.946798E+05 -6.525264E+02  1.559316E+04
       214  25 -1.873816E+06 -4.461211E+05 -3.976642E+05  4.937721E+05 -3.470467E+04  9.468511E+04
       214  26 -1.130052E+06 -2.641506E+05 -2.352564E+05  3.473322E+05 -3.890967E+04  5.742810E+04
       214  27 -3.863110E+05 -8.257155E+04 -7.572892E+04  4.942288E+05 -4.306448E+04  1.552341E+04
       215   1 -2.921101E+05 -5.957596E+04 -5.554140E+04  4.942079E+05 -4.182481E+04  1.043561E+04
       215   2 -1.035764E+06 -2.411367E+05 -2.159473E+05  3.473883E+05 -3.722706E+04  5.236324E+04
       215   3 -1.779710E+06 -4.235705E+05 -3.796627E+05  4.939092E+05 -3.258418E+04  8.975786E+04
       215   4 -4.362527E+04  1.245593E+03  2.362576E+01  4.946812E+05  5.597591E+02  1.050599E+04
       215   5 -4.382258E+04  4.588960E+02 -5.590437E+02  3.480260E+05  7.903566E+02  5.240400E+04
       215   6 -4.406508E+04 -4.055048E+02 -1.395535E+03  4.946824E+05  1.071395E+03  8.977428E+04
       215   7  2.049210E+05  6.206390E+04  5.559151E+04  4.951547E+05  4.296112E+04  1.057642E+04
       215   8  9.490456E+05  2.419901E+05  2.147760E+05  3.486642E+05  3.886779E+04  5.244479E+04
       215   9  1.694411E+06  4.225597E+05  3.766948E+05  4.954561E+05  3.482005E+04  8.979073E+04
       215  10 -2.921120E+05 -5.957654E+04 -5.554489E+04  4.942082E+05  1.316946E-09 -5.876238E-11
       215  11 -1.035766E+06 -2.411400E+05 -2.159551E+05  3.473899E+05  4.097870E-11  1.837576E-10
       215  12 -1.779714E+06 -4.235795E+05 -3.796798E+05  4.939116E+05 -1.368790E-09  7.304063E-10
       215  13 -4.362530E+04  1.245474E+03  2.341778E+01  4.946812E+05 -1.077255E-09 -4.073124E-10
       215  14 -4.382332E+04  4.559470E+02 -5.642053E+02  3.480260E+05 -5.276019E-10 -9.457700E-12
       215  15 -4.406725E+04 -4.141592E+02 -1.410682E+03  4.946824E+05 -8.875898E-10  4.089757E-10
       215  16  2.049189E+05  6.206329E+04  5.558784E+04  4.951543E+05 -5.662186E-10 -4.370503E-11
       215  17  9.490432E+05  2.419867E+05  2.147680E+05  3.486626E+05 -3.172566E-10 -7.882480E-10
       215  18  1.694408E+06  4.225508E+05  3.766774E+05  4.954536E+05  3.671167E-10  2.418443E-10
       215  19 -2.921101E+05 -5.957596E+04 -5.554140E+04  4.942079E+05  4.182481E+04 -1.043561E+04
       215  20 -1.035764E+06 -2.411367E+05 -2.159473E+05  3.473883E+05  3.722706E+04 -5.236324E+04
       215  21 -1.779710E+06 -4.235705E+05 -3.796627E+05  4.939092E+05  3.258418E+04 -8.975786E+04
       215  22 -4.362527E+04  1.245593E+03  2.362576E+01  4.946812E+05 -5.597591E+02 -1.050599E+04
       215  23 -4.382258E+04  4.588960E+02 -5.590437E+02  3.480260E+05 -7.903566E+02 -5.240400E+04
       215  24 -4.406508E+04 -4.055048E+02 -1.395535E+03  4.946824E+05 -1.071395E+03 -8.977428E+04
       215  25  2.049210E+05  6.206390E+04  5.559151E+04  4.951547E+05 -4.296112E+04 -1.057642E+04
       215  26  9.490456E+05  2.419901E+05  2.147760E+05  3.486642E+05 -3.886779E+04 -5.244479E+04
       215  27  1.694411E+06  4.225597E+05  3.766948E+05  4.954561E+05 -3.482005E+04 -8.979073E+04
       216   1 -2.372171E+06 -5.677054E+05 -5.074219E+05  4.921304E+05 -6.197675E+04  1.234128E+05
       216   2 -3.108681E+06 -7.524567E+05 -6.852751E+05  3.518588E+05  4.034894E+04  1.371039E+05
       216   3 -3.859642E+06 -9.588742E+05 -9.346257E+05  5.002139E+05  1.423794E+05  4.595297E+04
       216   4 -4.402445E+04 -2.495004E+02 -1.700444E+03  4.936256E+05  1.223388E+03  1.234201E+05
       216   5 -4.596839E+04 -2.454332E+03 -3.837642E+03  3.493481E+05  3.343998E+03  1.370706E+05
       216   6 -4.537251E+04 -8.800219E+03 -7.663504E+03  4.936216E+05  5.295786E+03  4.610966E+04
       216   7  2.289227E+06  5.668490E+05  5.037124E+05  4.951238E+05  6.465809E+04  1.234277E+05
       216   8  3.025526E+06  7.469125E+05  6.770195E+05  3.468236E+05 -3.384220E+04  1.370378E+05
       216   9  3.782273E+06  9.402126E+05  9.183170E+05  4.869877E+05 -1.326317E+05  4.626907E+04
       216  10 -2.372179E+06 -5.677228E+05 -5.074578E+05  4.921366E+05 -4.872354E-10  7.317657E-10
       216  11 -3.108688E+06 -7.524773E+05 -6.853135E+05  3.518543E+05  5.073953E-10 -3.716169E-10
       216  12 -3.859664E+06 -9.588820E+05 -9.346679E+05  5.002086E+05 -2.923926E-10  5.985577E-11
       216  13 -4.402854E+04 -2.658574E+02 -1.729071E+03  4.936255E+05 -1.076128E-09  5.674920E-10
       216  14 -4.597344E+04 -2.474510E+03 -3.872968E+03  3.493478E+05 -7.062699E-10  1.081680E-10
       216  15 -4.537311E+04 -8.802509E+03 -7.667551E+03  4.936214E+05  1.158299E-09 -1.130127E-10
       216  16  2.289219E+06  5.668316E+05  5.036760E+05  4.951174E+05 -1.174983E-10  4.961493E-10
       216  17  3.025520E+06  7.468920E+05  6.769821E+05  3.468273E+05 -6.227110E-10  2.962953E-11
       216  18  3.782254E+06  9.402057E+05  9.182801E+05  4.869927E+05 -3.727304E-10  1.478399E-11
       216  19 -2.372171E+06 -5.677054E+05 -5.074219E+05  4.921304E+05  6.197675E+04 -1.234128E+05
       216  20 -3.108681E+06 -7.524567E+05 -6.852751E+05  3.518588E+05 -4.034894E+04 -1.371039E+05
       216  21 -3.859642E+06 -9.588742E+05 -9.346257E+05  5.002139E+05 -1.423794E+05 -4.595297E+04
       216  22 -4.402445E+04 -2.495004E+02 -1.700444E+03  4.936256E+05 -1.223388E+03 -1.234201E+05
       216  23 -4.596839E+04 -2.454332E+03 -3.837642E+03  3.493481E+05 -3.343998E+03 -1.370706E+05
       216  24 -4.537251E+04 -8.800219E+03 -7.663504E+03  4.936216E+05 -5.295786E+03 -4.610966E+04
       216  25  2.289227E+06  5.668490E+05  5.037124E+05  4.951238E+05 -6.465809E+04 -1.234277E+05
       216  26  3.025526E+06  7.469125E+05  6.770195E+05  3.468236E+05  3.384220E+04 -1.370378E+05
       216  27  3.782273E+06  9.402126E+05  9.183170E+05  4.869877E+05  1.326317E+05 -4.626907E+04
       217   1 -8.165999E+05 -3.368104E+06 -8.020779E+05  6.564316E+05 -3.614845E+04 -1.068520E+05
       217   2 -5.569774E+05 -2.356595E+06 -5.077049E+05  4.630245E+05 -9.800032E+04 -1.838666E+04
       217   3 -3.077251E+05 -1.360010E+06 -2.740980E+05  6.615057E+05 -6.591597E+04  6.989386E+04
       217   4  4.577927E+03 -7.256675E+04  1.178988E+03  6.665711E+05 -3.572005E+04 -2.437121E+03
       217   5  2.861261E+03 -7.178780E+04  3.140094E+03  4.706708E+05 -9.790772E+04 -3.746474E+03
       217   6  6.496771E+03 -7.120553E+04  6.941266E+03  6.665672E+05 -6.631491E+04 -5.385975E+03
       217   7  8.249599E+05  3.232937E+06  8.036876E+05  6.767500E+05 -3.528961E+04  1.025329E+05
       217   8  5.623445E+05  2.217896E+06  5.136571E+05  4.783383E+05 -9.781497E+04  1.094720E+04
       217   9  3.206112E+05  1.219170E+06  2.879020E+05  6.716365E+05 -6.671459E+04 -8.082034E+04
       217  10 -8.166044E+05 -3.368117E+06 -8.021019E+05  6.564284E+05 -3.296025E-10  8.432306E-10
       217  11 -5.569878E+05 -2.356597E+06 -5.077236E+05  4.630231E+05  4.605152E-10  4.720493E-10
       217  12 -3.077311E+05 -1.360017E+06 -2.741154E+05  6.615095E+05 -3.240570E-09 -1.561054E-09
       217  13  4.576556E+03 -7.256710E+04  1.176580E+03  6.665710E+05 -2.035430E-09 -2.248110E-11
       217  14  2.850964E+03 -7.179039E+04  3.122056E+03  4.706705E+05  4.638560E-09 -6.662245E-11
       217  15  6.492041E+03 -7.120674E+04  6.932950E+03  6.665669E+05 -1.125521E-09  4.875202E-10
       217  16  8.249558E+05  3.232925E+06  8.036656E+05  6.767529E+05  4.715985E-10 -6.993607E-10
       217  17  5.623342E+05  2.217893E+06  5.136389E+05  4.783392E+05  1.379505E-09 -4.896071E-10
       217  18  3.206046E+05  1.219162E+06  2.878814E+05  6.716322E+05  1.104032E-09  1.846413E-09
       217  19 -8.165999E+05 -3.368104E+06 -8.020779E+05  6.564316E+05  3.614845E+04  1.068520E+05
       217  20 -5.569774E+05 -2.356595E+06 -5.077049E+05  4.630245E+05  9.800032E+04  1.838666E+04
       217  21 -3.077251E+05 -1.360010E+06 -2.740980E+05  6.615057E+05  6.591597E+04 -6.989386E+04
       217  22  4.577927E+03 -7.256675E+04  1.178988E+03  6.665711E+05  3.572005E+04  2.437121E+03
       217  23  2.861261E+03 -7.178780E+04  3.140094E+03  4.706708E+05  9.790772E+04  3.746474E+03
       217  24  6.496771E+03 -7.120553E+04  6.941266E+03  6.665672E+05  6.631491E+04  5.385975E+03
       217  25  8.249599E+05  3.232937E+06  8.036876E+05  6.767500E+05  3.528961E+04 -1.025329E+05
       217  26  5.623445E+05  2.217896E+06  5.136571E+05  4.783383E+05  9.781497E+04 -1.094720E+04
       217  27  3.206112E+05  1.219170E+06  2.879020E+05  6.716365E+05  6.671459E+04  8.082034E+04
       218   1 -1.130126E+05 -5.601379E+05 -9.810308E+04  6.645793E+05 -2.395570E+04  4.310895E+04
       218   2  1.298360E+05  4.446928E+05  1.274717E+05  4.718402E+05  2.770748E+04  3.379920E+04
       218   3  3.818054E+05  1.449907E+06  3.602779E+05  6.748799E+05  7.817800E+04  2.451388E+04
       218   4  6.314224E+03 -7.101367E+04  9.101285E+03  6.674612E+05 -2.423540E+04 -7.099803E+03
       218   5  4.419919E+03 -7.079237E+04  1.583275E+04  4.695503E+05  2.745013E+04 -1.529301E+04
       218   6  1.151940E+04 -7.132121E+04  2.906626E+04  6.674318E+05  7.793918E+04 -2.344746E+04
       218   7  1.256264E+05  4.183400E+05  1.163006E+05  6.703451E+05 -2.451543E+04 -5.734765E+04
       218   8 -1.210125E+05 -5.860231E+05 -9.581293E+04  4.672620E+05  2.719301E+04 -6.434503E+04
       218   9 -3.589189E+05 -1.590378E+06 -3.022757E+05  6.599983E+05  7.770115E+04 -7.129294E+04
       218  10 -1.130137E+05 -5.601400E+05 -9.810766E+04  6.645801E+05 -6.854091E-10  2.534767E-09
       218  11  1.298349E+05  4.446913E+05  1.274681E+05  4.718394E+05 -7.122457E-10  1.273536E-09
       218  12  3.817987E+05  1.449905E+06  3.602653E+05  6.748783E+05  1.727419E-09 -1.000934E-09
       218  13  6.313580E+03 -7.101388E+04  9.100087E+03  6.674611E+05 -1.367075E-09  9.323318E-12
       218  14  4.419047E+03 -7.079282E+04  1.583089E+04  4.695507E+05 -3.183600E-09  2.679408E-12
       218  15  1.151273E+04 -7.132343E+04  2.905380E+04  6.674332E+05 -3.789181E-09  6.157963E-10
       218  16  1.256249E+05  4.183363E+05  1.162933E+05  6.703439E+05  1.026706E-10 -2.175874E-09
       218  17 -1.210144E+05 -5.860277E+05 -9.582211E+04  4.672635E+05  2.116800E-09 -1.322607E-09
       218  18 -3.589267E+05 -1.590385E+06 -3.022966E+05  6.600027E+05  1.802702E-09  7.443670E-10
       218  19 -1.130126E+05 -5.601379E+05 -9.810308E+04  6.645793E+05  2.395570E+04 -4.310895E+04
       218  20  1.298360E+05  4.446928E+05  1.274717E+05  4.718402E+05 -2.770748E+04 -3.379920E+04
       218  21  3.818054E+05  1.449907E+06  3.602779E+05  6.748799E+05 -7.817800E+04 -2.451388E+04
       218  22  6.314224E+03 -7.101367E+04  9.101285E+03  6.674612E+05  2.423540E+04  7.099803E+03
       218  23  4.419919E+03 -7.079237E+04  1.583275E+04  4.695503E+05 -2.745013E+04  1.529301E+04
       218  24  1.151940E+04 -7.132121E+04  2.906626E+04  6.674318E+05 -7.793918E+04  2.344746E+04
       218  25  1.256264E+05  4.183400E+05  1.163006E+05  6.703451E+05  2.451543E+04  5.734765E+04
       218  26 -1.210125E+05 -5.860231E+05 -9.581293E+04  4.672620E+05 -2.719301E+04  6.434503E+04
       218  27 -3.589189E+05 -1.590378E+06 -3.022757E+05  6.599983E+05 -7.770115E+04  7.129294E+04
       219   1  5.645130E+05  2.259204E+06  5.406561E+05  6.581156E+05  1.223430E+05  5.197739E+04
       219   2  8.133114E+05  3.239756E+06  7.995422E+05  4.995728E+05  1.458833E+05 -9.639006E+04
       219   3  1.192826E+06  4.273926E+06  1.187385E+06  7.313947E+05  4.971385E+04 -2.447179E+05
       219   4 -2.351641E+02 -6.451193E+04  3.683734E+04  6.663496E+05  1.219805E+05 -2.893398E+04
       219   5  2.533353E+03 -8.197221E+04  6.207958E+04  4.709453E+05  1.460709E+05 -6.173486E+04
       219   6  1.164334E+05 -6.647490E+04  1.364796E+05  6.659710E+05  5.018160E+04 -9.424809E+04
       219   7 -5.653361E+05 -2.383159E+06 -4.672783E+05  6.745440E+05  1.216150E+05 -1.095472E+05
       219   8 -8.089872E+05 -3.393435E+06 -6.760651E+05  4.424592E+05  1.462560E+05 -2.726163E+04
       219   9 -9.613122E+05 -4.389684E+06 -9.156957E+05  6.009831E+05  5.061994E+04  5.518024E+04
       219  10  5.644962E+05  2.259197E+06  5.406230E+05  6.581105E+05 -2.251478E-10 -3.546598E-10
       219  11  8.132861E+05  3.239741E+06  7.994848E+05  4.995841E+05 -2.896885E-10 -1.762210E-10
       219  12  1.192808E+06  4.273862E+06  1.187269E+06  7.314045E+05  4.595855E-10 -2.099701E-10
       219  13 -2.513715E+02 -6.451683E+04  3.680779E+04  6.663525E+05  3.570956E-09  4.281000E-11
       219  14  2.509409E+03 -8.198204E+04  6.203229E+04  4.709526E+05 -1.085810E-09  3.674584E-11
       219  15  1.164283E+05 -6.648512E+04  1.364581E+05  6.659748E+05  6.371770E-10  1.938021E-10
       219  16 -5.653553E+05 -2.383176E+06 -4.673288E+05  6.745547E+05 -7.427962E-10  6.615774E-10
       219  17 -8.090103E+05 -3.393442E+06 -6.761067E+05  4.424624E+05 -7.028647E-10  5.081139E-10
       219  18 -9.613158E+05 -4.389688E+06 -9.157063E+05  6.009808E+05  5.787217E-10  6.529274E-11
       219  19  5.645130E+05  2.259204E+06  5.406561E+05  6.581156E+05 -1.223430E+05 -5.197739E+04
       219  20  8.133114E+05  3.239756E+06  7.995422E+05  4.995728E+05 -1.458833E+05  9.639006E+04
       219  21  1.192826E+06  4.273926E+06  1.187385E+06  7.313947E+05 -4.971385E+04  2.447179E+05
       219  22 -2.351641E+02 -6.451193E+04  3.683734E+04  6.663496E+05 -1.219805E+05  2.893398E+04
       219  23  2.533353E+03 -8.197221E+04  6.207958E+04  4.709453E+05 -1.460709E+05  6.173486E+04
       219  24  1.164334E+05 -6.647490E+04  1.364796E+05  6.659710E+05 -5.018160E+04  9.424809E+04
       219  25 -5.653361E+05 -2.383159E+06 -4.672783E+05  6.745440E+05 -1.216150E+05  1.095472E+05
       219  26 -8.089872E+05 -3.393435E+06 -6.760651E+05  4.424592E+05 -1.462560E+05  2.726163E+04
       219  27 -9.613122E+05 -4.389684E+06 -9.156957E+05  6.009831E+05 -5.061994E+04 -5.518024E+04
       220   1  3.711743E+06  9.158538E+05  8.979482E+05  4.657985E+05  1.406662E+05 -4.443803E+04
       220   2  2.997424E+06  7.179449E+05  6.592474E+05  3.288963E+05  4.158894E+04 -1.318268E+05
       220   3  2.306821E+06  5.474326E+05  4.922235E+05  4.633627E+05 -5.720642E+04 -1.194533E+05
       220   4  4.862878E+04  7.690062E+03  1.186952E+04  4.644168E+05  8.175014E+03 -4.427759E+04
       220   5  4.591446E+04 -2.105762E+03  5.097248E+03  3.286912E+05  5.397935E+03 -1.318531E+05
       220   6  4.984757E+04 -1.081771E+03  3.414613E+03  4.644065E+05  2.786926E+03 -1.194544E+05
       220   7 -3.602234E+06 -9.014454E+05 -8.751075E+05  4.630431E+05 -1.235405E+05 -4.411633E+04
       220   8 -2.897486E+06 -7.227431E+05 -6.495885E+05  3.284862E+05 -3.062363E+04 -1.318796E+05
       220   9 -2.202350E+06 -5.499306E+05 -4.856836E+05  4.654442E+05  6.256567E+04 -1.194551E+05
       220  10  3.711721E+06  9.158464E+05  8.979075E+05  4.658036E+05  1.943951E-10 -2.676494E-10
       220  11  2.997418E+06  7.179257E+05  6.592115E+05  3.289007E+05  2.416220E-09  5.526258E-10
       220  12  2.306814E+06  5.474164E+05  4.921906E+05  4.633572E+05  5.170874E-10  8.689171E-10
       220  13  4.862818E+04  7.687938E+03  1.186571E+04  4.644171E+05  1.171221E-11  4.745835E-10
       220  14  4.590976E+04 -2.124439E+03  5.064520E+03  3.286918E+05  2.278079E-09  4.492233E-10
       220  15  4.984373E+04 -1.097097E+03  3.387781E+03  4.644068E+05 -1.174778E-10  7.083073E-10
       220  16 -3.602251E+06 -9.014516E+05 -8.751400E+05  4.630387E+05 -1.279240E-09 -6.500180E-10
       220  17 -2.897492E+06 -7.227620E+05 -6.496229E+05  3.284829E+05  2.936451E-10  5.807432E-10
       220  18 -2.202358E+06 -5.499470E+05 -4.857178E+05  4.654502E+05 -8.086272E-11  4.834035E-10
       220  19  3.711743E+06  9.158538E+05  8.979482E+05  4.657985E+05 -1.406662E+05  4.443803E+04
       220  20  2.997424E+06  7.179449E+05  6.592474E+05  3.288963E+05 -4.158894E+04  1.318268E+05
       220  21  2.306821E+06  5.474326E+05  4.922235E+05  4.633627E+05  5.720642E+04  1.194533E+05
       220  22  4.862878E+04  7.690062E+03  1.186952E+04  4.644168E+05 -8.175014E+03  4.427759E+04
       220  23  4.591446E+04 -2.105762E+03  5.097248E+03  3.286912E+05 -5.397935E+03  1.318531E+05
       220  24  4.984757E+04 -1.081771E+03  3.414613E+03  4.644065E+05 -2.786926E+03  1.194544E+05
       220  25 -3.602234E+06 -9.014454E+05 -8.751075E+05  4.630431E+05  1.235405E+05  4.411633E+04
       220  26 -2.897486E+06 -7.227431E+05 -6.495885E+05  3.284862E+05  3.062363E+04  1.318796E+05
       220  27 -2.202350E+06 -5.499306E+05 -4.856836E+05  4.654442E+05 -6.256567E+04  1.194551E+05
       221   1  1.746361E+06  4.132569E+05  3.717312E+05  4.662765E+05 -2.938125E+04 -8.768997E+04
       221   2  1.045027E+06  2.425986E+05  2.174573E+05  3.280534E+05 -3.427062E+04 -5.265389E+04
       221   3  3.452248E+05  7.330065E+04  6.666575E+04  4.657106E+05 -3.920189E+04 -1.329081E+04
       221   4  4.893804E+04  3.167266E+02  2.622196E+03  4.654016E+05  2.237046E+03 -8.767958E+04
       221   5  4.896546E+04  3.232451E+02  1.488695E+03  3.274477E+05  1.494593E+03 -5.262107E+04
       221   6  4.935302E+04  1.003492E+03  9.821459E+02  4.654015E+05  7.048743E+02 -1.323061E+04
       221   7 -1.645786E+06 -4.128139E+05 -3.666556E+05  4.645276E+05  3.377019E+04 -8.766925E+04
       221   8 -9.461640E+05 -2.420171E+05 -2.145342E+05  3.268426E+05  3.720325E+04 -5.258828E+04
       221   9 -2.464336E+05 -7.129873E+04 -6.470092E+04  4.650926E+05  4.059284E+04 -1.317044E+04
       221  10  1.746358E+06  4.132484E+05  3.717151E+05  4.662744E+05  7.545732E-10  4.715563E-10
       221  11  1.045025E+06  2.425954E+05  2.174499E+05  3.280520E+05 -2.917142E-10 -5.962632E-10
       221  12  3.452231E+05  7.330005E+04  6.666253E+04  4.657102E+05  2.089243E-10 -1.110082E-09
       221  13  4.893597E+04  3.084696E+02  2.607738E+03  4.654018E+05 -1.811138E-11  2.277718E-10
       221  14  4.896471E+04  3.202709E+02  1.483487E+03  3.274478E+05  3.514618E-10  3.728125E-10
       221  15  4.935297E+04  1.003303E+03  9.818160E+02  4.654015E+05 -1.756086E-10 -5.084423E-10
       221  16 -1.645789E+06 -4.128224E+05 -3.666722E+05  4.645300E+05 -7.356651E-10  2.552781E-10
       221  17 -9.461663E+05 -2.420204E+05 -2.145420E+05  3.268441E+05 -1.113600E-10 -6.322325E-11
       221  18 -2.464355E+05 -7.129936E+04 -6.470434E+04  4.650930E+05 -2.795373E-10  2.230127E-10
       221  19  1.746361E+06  4.132569E+05  3.717312E+05  4.662765E+05  2.938125E+04  8.768997E+04
       221  20  1.045027E+06  2.425986E+05  2.174573E+05  3.280534E+05  3.427062E+04  5.265389E+04
       221  21  3.452248E+05  7.330065E+04  6.666575E+04  4.657106E+05  3.920189E+04  1.329081E+04
       221  22  4.893804E+04  3.167266E+02  2.622196E+03  4.654016E+05 -2.237046E+03  8.767958E+04
       221  23  4.896546E+04  3.232451E+02  1.488695E+03  3.274477E+05 -1.494593E+03  5.262107E+04
       221  24  4.935302E+04  1.003492E+03  9.821459E+02  4.654015E+05 -7.048743E+02  1.323061E+04
       221  25 -1.645786E+06 -4.128139E+05 -3.666556E+05  4.645276E+05 -3.377019E+04  8.766925E+04
       221  26 -9.461640E+05 -2.420171E+05 -2.145342E+05  3.268426E+05 -3.720325E+04  5.258828E+04
       221  27 -2.464336E+05 -7.129873E+04 -6.470092E+04  4.650926E+05 -4.059284E+04  1.317044E+04
       222   1 -2.109924E+05 -6.260866E+04 -5.722469E+04  4.650059E+05 -3.938947E+04  1.125601E+04
       222   2 -9.106254E+05 -2.333502E+05 -2.079503E+05  3.268815E+05 -3.548888E+04  5.068286E+04
       222   3 -1.610384E+06 -4.046690E+05 -3.614315E+05  4.646869E+05 -3.154694E+04  8.581603E+04
       222   4  4.930638E+04  1.058973E+03  7.816982E+02  4.654005E+05  4.880411E+02  1.131640E+04
       222   5  4.904104E+04  3.525668E+02  3.888582E+02  3.274491E+05  2.519544E+02  5.071665E+04
       222   6  4.890623E+04 -1.828490E+02  1.299832E+02  4.654012E+05  6.151445E+01  8.582799E+04
       222   7  3.096717E+05  6.472287E+04  5.878983E+04  4.657952E+05  4.038210E+04  1.137683E+04
       222   8  1.009575E+06  2.339951E+05  2.086779E+05  3.280172E+05  3.604737E+04  5.075046E+04
       222   9  1.710783E+06  4.041208E+05  3.615298E+05  4.661160E+05  3.175352E+04  8.583999E+04
       222  10 -2.109941E+05 -6.260922E+04 -5.722785E+04  4.650062E+05  5.133795E-10  6.454457E-11
       222  11 -9.106275E+05 -2.333533E+05 -2.079575E+05  3.268830E+05 -6.171376E-10  3.614923E-10
       222  12 -1.610387E+06 -4.046772E+05 -3.614472E+05  4.646891E+05  4.281239E-10 -7.173760E-11
       222  13  4.930634E+04  1.058835E+03  7.814571E+02  4.654005E+05 -1.080160E-09 -1.050613E-11
       222  14  4.904035E+04  3.498047E+02  3.840243E+02  3.274491E+05 -2.381061E-09 -3.449202E-10
       222  15  4.890425E+04 -1.907595E+02  1.161399E+02  4.654012E+05 -2.897460E-10 -5.045133E-10
       222  16  3.096699E+05  6.472229E+04  5.878652E+04  4.657948E+05  1.816457E-10  9.951676E-11
       222  17  1.009573E+06  2.339919E+05  2.086706E+05  3.280157E+05 -8.911681E-10  3.078018E-10
       222  18  1.710780E+06  4.041126E+05  3.615141E+05  4.661138E+05 -8.967140E-10  3.219879E-10
       222  19 -2.109924E+05 -6.260866E+04 -5.722469E+04  4.650059E+05  3.938947E+04 -1.125601E+04
       222  20 -9.106254E+05 -2.333502E+05 -2.079503E+05  3.268815E+05  3.548888E+04 -5.068286E+04
       222  21 -1.610384E+06 -4.046690E+05 -3.614315E+05  4.646869E+05  3.154694E+04 -8.581603E+04
       222  22  4.930638E+04  1.058973E+03  7.816982E+02  4.654005E+05 -4.880411E+02 -1.131640E+04
       222  23  4.904104E+04  3.525668E+02  3.888582E+02  3.274491E+05 -2.519544E+02 -5.071665E+04
       222  24  4.890623E+04 -1.828490E+02  1.299832E+02  4.654012E+05 -6.151445E+01 -8.582799E+04
       222  25  3.096717E+05  6.472287E+04  5.878983E+04  4.657952E+05 -4.038210E+04 -1.137683E+04
       222  26  1.009575E+06  2.339951E+05  2.086779E+05  3.280172E+05 -3.604737E+04 -5.075046E+04
       222  27  1.710783E+06  4.041208E+05  3.615298E+05  4.661160E+05 -3.175352E+04 -8.583999E+04
       223   1 -2.167538E+06 -5.407387E+05 -4.812593E+05  4.639040E+05 -5.964473E+04  1.175298E+05
       223   2 -2.861263E+06 -7.141601E+05 -6.475128E+05  3.302022E+05  3.571903E+04  1.302117E+05
       223   3 -3.567409E+06 -9.032411E+05 -8.792592E+05  4.680833E+05  1.308118E+05  4.360739E+04
       223   4  4.921646E+04 -5.318977E+02  1.595341E+02  4.644256E+05 -4.217209E+01  1.175317E+05
       223   5  4.677364E+04 -2.184318E+03 -6.554401E+02  3.286692E+05  3.887899E+02  1.301843E+05
       223   6  4.801253E+04 -2.917711E+03 -8.564800E+02  4.644261E+05  6.608561E+02  4.375872E+04
       223   7  2.270598E+06  5.393510E+05  4.812985E+05  4.649468E+05  5.977096E+04  1.175337E+05
       223   8  2.962725E+06  7.092187E+05  6.456790E+05  3.271279E+05 -3.510569E+04  1.301573E+05
       223   9  3.675448E+06  8.964527E+05  8.766650E+05  4.607471E+05 -1.302492E+05  4.391137E+04
       223  10 -2.167545E+06 -5.407545E+05 -4.812920E+05  4.639096E+05  1.504228E-09 -4.048226E-10
       223  11 -2.861269E+06 -7.141786E+05 -6.475470E+05  3.301985E+05  2.506932E-09  1.242302E-10
       223  12 -3.567428E+06 -9.032477E+05 -8.792951E+05  4.680787E+05 -4.143761E-10 -3.178119E-10
       223  13  4.921275E+04 -5.467316E+02  1.335748E+02  4.644256E+05 -1.068309E-09 -1.794747E-10
       223  14  4.676909E+04 -2.202518E+03 -6.872896E+02  3.286692E+05  9.369979E-11  5.842539E-11
       223  15  4.801201E+04 -2.919767E+03 -8.600791E+02  4.644261E+05  4.888471E-10 -4.650704E-10
       223  16  2.270590E+06  5.393353E+05  4.812658E+05  4.649412E+05 -1.034766E-09 -2.011341E-10
       223  17  2.962719E+06  7.092002E+05  6.456449E+05  3.271316E+05 -5.245169E-10 -4.005825E-10
       223  18  3.675429E+06  8.964461E+05  8.766296E+05  4.607517E+05  2.820028E-10 -6.196181E-10
       223  19 -2.167538E+06 -5.407387E+05 -4.812593E+05  4.639040E+05  5.964473E+04 -1.175298E+05
       223  20 -2.861263E+06 -7.141601E+05 -6.475128E+05  3.302022E+05 -3.571903E+04 -1.302117E+05
       223  21 -3.567409E+06 -9.032411E+05 -8.792592E+05  4.680833E+05 -1.308118E+05 -4.360739E+04
       223  22  4.921646E+04 -5.318977E+02  1.595341E+02  4.644256E+05  4.217209E+01 -1.175317E+05
       223  23  4.677364E+04 -2.184318E+03 -6.554401E+02  3.286692E+05 -3.887899E+02 -1.301843E+05
       223  24  4.801253E+04 -2.917711E+03 -8.564800E+02  4.644261E+05 -6.608561E+02 -4.375872E+04
       223  25  2.270598E+06  5.393510E+05  4.812985E+05  4.649468E+05 -5.977096E+04 -1.175337E+05
       223  26  2.962725E+06  7.092187E+05  6.456790E+05  3.271279E+05  3.510569E+04 -1.301573E+05
       223  27  3.675448E+06  8.964527E+05  8.766650E+05  4.607471E+05  1.302492E+05 -4.391137E+04
       224   1 -7.358728E+05 -2.983640E+06 -7.231774E+05  5.946008E+05 -3.241956E+04 -9.597632E+04
       224   2 -4.998285E+05 -2.069634E+06 -4.575666E+05  4.192734E+05 -8.784966E+04 -1.535152E+04
       224   3 -2.750403E+05 -1.169700E+06 -2.477460E+05  5.978903E+05 -5.880686E+04  6.511688E+04
       224   4  2.307043E+03 -2.039292E+04 -1.070446E+03  6.022239E+05 -3.206319E+04 -2.240748E+03
       224   5  2.415257E+03 -1.946616E+04  7.608184E+02  4.252840E+05 -8.777429E+04 -2.384616E+03
       224   6  5.402319E+03 -1.928990E+04  3.102237E+03  6.022152E+05 -5.913802E+04 -2.804583E+03
       224   7  7.398437E+05  2.950909E+06  7.204317E+05  6.098726E+05 -3.170553E+04  9.194273E+04
       224   8  5.043729E+05  2.034627E+06  4.588242E+05  4.313095E+05 -8.769882E+04  1.062477E+04
       224   9  2.857594E+05  1.132372E+06  2.538882E+05  6.065461E+05 -5.946976E+04 -7.085047E+04
       224  10 -7.358764E+05 -2.983651E+06 -7.231968E+05  5.945982E+05 -3.024967E-10 -9.745930E-10
       224  11 -4.998369E+05 -2.069637E+06 -4.575815E+05  4.192723E+05  1.035590E-09  2.002856E-09
       224  12 -2.750452E+05 -1.169706E+06 -2.477605E+05  5.978934E+05 -1.414061E-09  6.052350E-10
       224  13  2.305938E+03 -2.039320E+04 -1.072387E+03  6.022238E+05 -1.302007E-09  7.462149E-10
       224  14  2.406983E+03 -1.946824E+04  7.463307E+02  4.252838E+05  3.191324E-09 -8.520328E-11
       224  15  5.398561E+03 -1.929085E+04  3.095651E+03  6.022150E+05 -1.356864E-09  1.558987E-09
       224  16  7.398403E+05  2.950899E+06  7.204140E+05  6.098749E+05 -3.019045E-10 -1.724278E-10
       224  17  5.043646E+05  2.034625E+06  4.588095E+05  4.313102E+05 -1.255064E-09 -2.403430E-09
       224  18  2.857543E+05  1.132366E+06  2.538722E+05  6.065427E+05  6.993015E-10 -1.122671E-09
       224  19 -7.358728E+05 -2.983640E+06 -7.231774E+05  5.946008E+05  3.241956E+04  9.597632E+04
       224  20 -4.998285E+05 -2.069634E+06 -4.575666E+05  4.192734E+05  8.784966E+04  1.535152E+04
       224  21 -2.750403E+05 -1.169700E+06 -2.477460E+05  5.978903E+05  5.880686E+04 -6.511688E+04
       224  22  2.307043E+03 -2.039292E+04 -1.070446E+03  6.022239E+05  3.206319E+04  2.240748E+03
       224  23  2.415257E+03 -1.946616E+04  7.608184E+02  4.252840E+05  8.777429E+04  2.384616E+03
       224  24  5.402319E+03 -1.928990E+04  3.102237E+03  6.022152E+05  5.913802E+04  2.804583E+03
       224  25  7.398437E+05  2.950909E+06  7.204317E+05  6.098726E+05  3.170553E+04 -9.194273E+04
       224  26  5.043729E+05  2.034627E+06  4.588242E+05  4.313095E+05  8.769882E+04 -1.062477E+04
       224  27  2.857594E+05  1.132372E+06  2.538882E+05  6.065461E+05  5.946976E+04  7.085047E+04
       225   1 -9.915733E+04 -4.473684E+05 -8.962356E+04  6.010852E+05 -2.092649E+04  4.166752E+04
       225   2  1.202742E+05  4.605527E+05  1.114471E+05  4.260918E+05  2.576541E+04  3.656751E+04
       225   3  3.452854E+05  1.367933E+06  3.163151E+05  6.085311E+05  7.135166E+04  3.149314E+04
       225   4  5.284903E+03 -1.920225E+04  4.234228E+03  6.030133E+05 -2.115871E+04 -3.708380E+03
       225   5  3.709613E+03 -1.858563E+04  7.683810E+03  4.242843E+05  2.555202E+04 -7.772677E+03
       225   6  7.586346E+03 -1.946097E+04  1.424444E+04  6.030007E+05  7.115392E+04 -1.180430E+04
       225   7  1.097160E+05  4.091399E+05  9.808862E+04  6.049424E+05 -2.139111E+04 -4.911520E+04
       225   8 -1.128691E+05 -4.975043E+05 -9.608573E+04  4.224778E+05  2.533880E+04 -5.207912E+04
       225   9 -3.302395E+05 -1.405049E+06 -2.879347E+05  5.974798E+05  7.095669E+04 -5.500637E+04
       225  10 -9.915827E+04 -4.473703E+05 -8.962765E+04  6.010859E+05 -5.111110E-11  6.096395E-10
       225  11  1.202731E+05  4.605510E+05  1.114433E+05  4.260911E+05 -6.441049E-10  3.317123E-09
       225  12  3.452797E+05  1.367930E+06  3.163037E+05  6.085293E+05  2.054966E-09  1.235100E-09
       225  13  5.284419E+03 -1.920238E+04  4.233361E+03  6.030132E+05 -1.330773E-09  1.091694E-09
       225  14  3.708896E+03 -1.858587E+04  7.682469E+03  4.242844E+05 -3.209117E-09  3.886198E-11
       225  15  7.580870E+03 -1.946248E+04  1.423466E+04  6.030014E+05 -3.151020E-09  1.544230E-09
       225  16  1.097149E+05  4.091372E+05  9.808323E+04  6.049416E+05 -1.294773E-10 -2.404304E-09
       225  17 -1.128705E+05 -4.975074E+05 -9.609204E+04  4.224789E+05  1.219509E-09 -3.814739E-09
       225  18 -3.302457E+05 -1.405054E+06 -2.879499E+05  5.974830E+05  1.400562E-09 -1.951309E-09
       225  19 -9.915733E+04 -4.473684E+05 -8.962356E+04  6.010852E+05  2.092649E+04 -4.166752E+04
       225  20  1.202742E+05  4.605527E+05  1.114471E+05  4.260918E+05 -2.576541E+04 -3.656751E+04
       225  21  3.452854E+05  1.367933E+06  3.163151E+05  6.085311E+05 -7.135166E+04 -3.149314E+04
       225  22  5.284903E+03 -1.920225E+04  4.234228E+03  6.030133E+05  2.115871E+04  3.708380E+03
       225  23  3.709613E+03 -1.858563E+04  7.683810E+03  4.242843E+05 -2.555202E+04  7.772677E+03
       225  24  7.586346E+03 -1.946097E+04  1.424444E+04  6.030007E+05 -7.115392E+04  1.180430E+04
       225  25  1.097160E+05  4.091399E+05  9.808862E+04  6.049424E+05  2.139111E+04  4.911520E+04
       225  26 -1.128691E+05 -4.975043E+05 -9.608573E+04  4.224778E+05 -2.533880E+04  5.207912E+04
       225  27 -3.302395E+05 -1.405049E+06 -2.879347E+05  5.974798E+05 -7.095669E+04  5.500637E+04
       226   1  5.150157E+05  2.096048E+06  4.760893E+05  6.006851E+05  1.112693E+05  5.856733E+04
       226   2  7.370919E+05  2.988127E+06  6.993194E+05  4.426081E+05  1.325158E+05 -6.208556E+04
       226   3  1.033337E+06  3.915791E+06  1.019408E+06  6.371300E+05  4.525263E+04 -1.826767E+05
       226   4  1.610336E+03 -1.594420E+04  1.814168E+04  6.019907E+05  1.109678E+05 -1.460600E+04
       226   5  1.596763E+03 -2.517659E+04  3.028433E+04  4.255685E+05  1.326706E+05 -3.060480E+04
       226   6  5.785807E+04 -1.755730E+04  6.691650E+04  6.018208E+05  4.563441E+04 -4.636135E+04
       226   7 -5.120870E+05 -2.123749E+06 -4.400515E+05  6.032854E+05  1.106654E+05 -8.753427E+04
       226   8 -7.345105E+05 -3.030032E+06 -6.393122E+05  4.086025E+05  1.328242E+05  7.256750E+02
       226   9 -9.187398E+05 -3.936787E+06 -8.866189E+05  5.667195E+05  4.600232E+04  8.909783E+04
       226  10  5.150015E+05  2.096041E+06  4.760596E+05  6.006799E+05  2.160001E-12 -8.789134E-10
       226  11  7.370720E+05  2.988118E+06  6.992792E+05  4.426147E+05 -7.758418E-10  8.600052E-10
       226  12  1.033326E+06  3.915755E+06  1.019342E+06  6.371366E+05  1.220326E-10  6.428322E-11
       226  13  1.597053E+03 -1.594774E+04  1.811813E+04  6.019920E+05  2.766814E-09  9.327269E-10
       226  14  1.577607E+03 -2.518233E+04  3.024948E+04  4.255718E+05 -1.774303E-09  2.504861E-12
       226  15  5.785525E+04 -1.756017E+04  6.690854E+04  6.018225E+05  4.722262E-10  6.428910E-10
       226  16 -5.121022E+05 -2.123761E+06 -4.400890E+05  6.032932E+05 -2.510441E-10 -6.455008E-10
       226  17 -7.345294E+05 -3.030036E+06 -6.393453E+05  4.086024E+05 -9.536581E-10 -9.048601E-10
       226  18 -9.187442E+05 -3.936797E+06 -8.866378E+05  5.667162E+05  7.876888E-10 -3.182705E-10
       226  19  5.150157E+05  2.096048E+06  4.760893E+05  6.006851E+05 -1.112693E+05 -5.856733E+04
       226  20  7.370919E+05  2.988127E+06  6.993194E+05  4.426081E+05 -1.325158E+05  6.208556E+04
       226  21  1.033337E+06  3.915791E+06  1.019408E+06  6.371300E+05 -4.525263E+04  1.826767E+05
       226  22  1.610336E+03 -1.594420E+04  1.814168E+04  6.019907E+05 -1.109678E+05  1.460600E+04
       226  23  1.596763E+03 -2.517659E+04  3.028433E+04  4.255685E+05 -1.326706E+05  3.060480E+04
       226  24  5.785807E+04 -1.755730E+04  6.691650E+04  6.018208E+05 -4.563441E+04  4.636135E+04
       226  25 -5.120870E+05 -2.123749E+06 -4.400515E+05  6.032854E+05 -1.106654E+05  8.753427E+04
       226  26 -7.345105E+05 -3.030032E+06 -6.393122E+05  4.086025E+05 -1.328242E+05 -7.256750E+02
       226  27 -9.187398E+05 -3.936787E+06 -8.866189E+05  5.667195E+05 -4.600232E+04 -8.909783E+04
       227   1  3.718485E+06  8.997453E+05  8.835743E+05  4.586951E+05  1.425775E+05 -4.330802E+04
       227   2  3.019376E+06  6.997221E+05  6.461436E+05  3.226507E+05  4.398017E+04 -1.284306E+05
       227   3  2.345075E+06  5.325938E+05  4.814188E+05  4.519591E+05 -5.434909E+04 -1.162711E+05
       227   4  1.467226E+05  1.428849E+04  1.963046E+04  4.539533E+05  1.345289E+04 -4.315626E+04
       227   5  1.432020E+05 -1.906556E+03  8.716760E+03  3.212358E+05  8.767771E+03 -1.284556E+05
       227   6  1.478844E+05 -1.352581E+03  5.588318E+03  4.539374E+05  4.240551E+03 -1.162722E+05
       227   7 -3.413393E+06 -8.720919E+05 -8.451674E+05  4.492386E+05 -1.149347E+05 -4.300231E+04
       227   8 -2.725273E+06 -7.040923E+05 -6.292186E+05  3.198265E+05 -2.628402E+04 -1.284807E+05
       227   9 -2.044781E+06 -5.356158E+05 -4.705162E+05  4.559066E+05  6.262617E+04 -1.162728E+05
       227  10  3.718463E+06  8.997379E+05  8.835328E+05  4.587000E+05 -2.056860E-10  5.919017E-10
       227  11  3.019370E+06  6.997039E+05  6.461090E+05  3.226553E+05 -1.904155E-10  1.268545E-09
       227  12  2.345069E+06  5.325785E+05  4.813879E+05  4.519540E+05 -9.347302E-10  6.232722E-10
       227  13  1.467219E+05  1.428644E+04  1.962661E+04  4.539538E+05 -5.541569E-10  6.009307E-11
       227  14  1.431974E+05 -1.924297E+03  8.685603E+03  3.212367E+05 -6.564238E-10 -4.009131E-10
       227  15  1.478808E+05 -1.367105E+03  5.562875E+03  4.539378E+05  4.750165E-10  3.973047E-10
       227  16 -3.413408E+06 -8.720975E+05 -8.451958E+05  4.492346E+05  1.488008E-10  4.810239E-10
       227  17 -2.725278E+06 -7.041102E+05 -6.292509E+05  3.198238E+05 -8.946518E-10 -2.042903E-10
       227  18 -2.044788E+06 -5.356314E+05 -4.705490E+05  4.559124E+05  9.401469E-10  2.373826E-10
       227  19  3.718485E+06  8.997453E+05  8.835743E+05  4.586951E+05 -1.425775E+05  4.330802E+04
       227  20  3.019376E+06  6.997221E+05  6.461436E+05  3.226507E+05 -4.398017E+04  1.284306E+05
       227  21  2.345075E+06  5.325938E+05  4.814188E+05  4.519591E+05  5.434909E+04  1.162711E+05
       227  22  1.467226E+05  1.428849E+04  1.963046E+04  4.539533E+05 -1.345289E+04  4.315626E+04
       227  23  1.432020E+05 -1.906556E+03  8.716760E+03  3.212358E+05 -8.767771E+03  1.284556E+05
       227  24  1.478844E+05 -1.352581E+03  5.588318E+03  4.539374E+05 -4.240551E+03  1.162722E+05
       227  25 -3.413393E+06 -8.720919E+05 -8.451674E+05  4.492386E+05  1.149347E+05  4.300231E+04
       227  26 -2.725273E+06 -7.040923E+05 -6.292186E+05  3.198265E+05  2.628402E+04  1.284807E+05
       227  27 -2.044781E+06 -5.356158E+05 -4.705162E+05  4.559066E+05 -6.262617E+04  1.162728E+05
       228   1  1.797009E+06  4.021170E+05  3.632653E+05  4.558297E+05 -2.753502E+04 -8.524657E+04
       228   2  1.111556E+06  2.349903E+05  2.118719E+05  3.206732E+05 -3.290480E+04 -5.099771E+04
       228   3  4.277595E+05  6.954471E+04  6.435615E+04  4.550993E+05 -3.831347E+04 -1.253248E+04
       228   4  1.466396E+05  6.555164E+02  4.415122E+03  4.548723E+05  3.379981E+03 -8.523660E+04
       228   5  1.465781E+05  2.959382E+02  2.657843E+03  3.200682E+05  2.052752E+03 -5.096653E+04
       228   6  1.470325E+05  9.457155E+02  1.993023E+03  4.548725E+05  6.808220E+02 -1.247539E+04
       228   7 -1.501179E+06 -4.009860E+05 -3.545946E+05  4.539160E+05  3.421404E+04 -8.522670E+04
       228   8 -8.175244E+05 -2.344593E+05 -2.066070E+05  3.194637E+05  3.695676E+04 -5.093537E+04
       228   9 -1.336177E+05 -6.765779E+04 -6.036930E+04  4.546459E+05  3.965769E+04 -1.241831E+04
       228  10  1.797006E+06  4.021090E+05  3.632502E+05  4.558278E+05 -4.330369E-10  5.088787E-10
       228  11  1.111554E+06  2.349872E+05  2.118650E+05  3.206718E+05  6.890308E-10 -3.483502E-10
       228  12  4.277579E+05  6.954415E+04  6.435310E+04  4.550989E+05  3.324169E-10 -4.122462E-10
       228  13  1.466377E+05  6.477108E+02  4.401445E+03  4.548725E+05 -5.648398E-10 -7.204965E-12
       228  14  1.465774E+05  2.931474E+02  2.652953E+03  3.200682E+05  3.711357E-10  1.881144E-11
       228  15  1.470325E+05  9.455483E+02  1.992730E+03  4.548726E+05 -1.139864E-09  2.624417E-10
       228  16 -1.501183E+06 -4.009941E+05 -3.546104E+05  4.539184E+05 -5.529706E-11 -8.249315E-11
       228  17 -8.175266E+05 -2.344625E+05 -2.066145E+05  3.194652E+05 -7.735023E-10 -1.252648E-09
       228  18 -1.336194E+05 -6.765838E+04 -6.037255E+04  4.546463E+05  1.010398E-10 -3.639302E-10
       228  19  1.797009E+06  4.021170E+05  3.632653E+05  4.558297E+05  2.753502E+04  8.524657E+04
       228  20  1.111556E+06  2.349903E+05  2.118719E+05  3.206732E+05  3.290480E+04  5.099771E+04
       228  21  4.277595E+05  6.954471E+04  6.435615E+04  4.550993E+05  3.831347E+04  1.253248E+04
       228  22  1.466396E+05  6.555164E+02  4.415122E+03  4.548723E+05 -3.379981E+03  8.523660E+04
       228  23  1.465781E+05  2.959382E+02  2.657843E+03  3.200682E+05 -2.052752E+03  5.096653E+04
       228  24  1.470325E+05  9.457155E+02  1.993023E+03  4.548725E+05 -6.808220E+02  1.247539E+04
       228  25 -1.501179E+06 -4.009860E+05 -3.545946E+05  4.539160E+05 -3.421404E+04  8.522670E+04
       228  26 -8.175244E+05 -2.344593E+05 -2.066070E+05  3.194637E+05 -3.695676E+04  5.093537E+04
       228  27 -1.336177E+05 -6.765779E+04 -6.036930E+04  4.546459E+05 -3.965769E+04  1.241831E+04
       229   1 -1.157280E+05 -6.325223E+04 -5.665413E+04  4.545668E+05 -3.868636E+04  1.145203E+04
       229   2 -7.995550E+05 -2.300803E+05 -2.036204E+05  3.194897E+05 -3.555706E+04  4.997328E+04
       229   3 -1.483294E+06 -3.970368E+05 -3.527182E+05  4.540522E+05 -3.238726E+04  8.429087E+04
       229   4  1.469954E+05  9.901174E+02  1.830714E+03  4.548737E+05  2.855075E+02  1.150922E+04
       229   5  1.466330E+05  3.122167E+02  1.763787E+03  3.200668E+05 -6.363925E+02  5.000493E+04
       229   6  1.466100E+05  2.346789E+02  2.390724E+03  4.548739E+05 -1.514370E+03  8.430157E+04
       229   7  4.097865E+05  6.522860E+04  6.031696E+04  4.551807E+05  3.927369E+04  1.156643E+04
       229   8  1.093664E+06  2.306461E+05  2.070991E+05  3.206444E+05  3.433684E+04  5.003661E+04
       229   9  1.779009E+06  3.973300E+05  3.573437E+05  4.556965E+05  2.943868E+04  8.431233E+04
       229  10 -1.157296E+05 -6.325277E+04 -5.665719E+04  4.545671E+05  1.620644E-10 -6.521246E-10
       229  11 -7.995570E+05 -2.300833E+05 -2.036274E+05  3.194911E+05 -5.453750E-10  8.099458E-10
       229  12 -1.483297E+06 -3.970447E+05 -3.527335E+05  4.540544E+05  9.775519E-10 -4.608095E-11
       229  13  1.469954E+05  9.899751E+02  1.830465E+03  4.548737E+05 -1.035308E-11 -5.043611E-10
       229  14  1.466323E+05  3.095313E+02  1.759087E+03  3.200668E+05 -7.934210E-10 -8.557684E-10
       229  15  1.466081E+05  2.270462E+02  2.377364E+03  4.548741E+05 -9.417487E-10  1.770868E-10
       229  16  4.097848E+05  6.522804E+04  6.031381E+04  4.551803E+05 -3.640917E-10 -3.306797E-10
       229  17  1.093662E+06  2.306431E+05  2.070922E+05  3.206430E+05  3.731486E-10 -1.419607E-10
       229  18  1.779006E+06  3.973222E+05  3.573287E+05  4.556945E+05 -5.546360E-10  4.668784E-10
       229  19 -1.157280E+05 -6.325223E+04 -5.665413E+04  4.545668E+05  3.868636E+04 -1.145203E+04
       229  20 -7.995550E+05 -2.300803E+05 -2.036204E+05  3.194897E+05  3.555706E+04 -4.997328E+04
       229  21 -1.483294E+06 -3.970368E+05 -3.527182E+05  4.540522E+05  3.238726E+04 -8.429087E+04
       229  22  1.469954E+05  9.901174E+02  1.830714E+03  4.548737E+05 -2.855075E+02 -1.150922E+04
       229  23  1.466330E+05  3.122167E+02  1.763787E+03  3.200668E+05  6.363925E+02 -5.000493E+04
       229  24  1.466100E+05  2.346789E+02  2.390724E+03  4.548739E+05  1.514370E+03 -8.430157E+04
       229  25  4.097865E+05  6.522860E+04  6.031696E+04  4.551807E+05 -3.927369E+04 -1.156643E+04
       229  26  1.093664E+06  2.306461E+05  2.070991E+05  3.206444E+05 -3.433684E+04 -5.003661E+04
       229  27  1.779009E+06  3.973300E+05  3.573437E+05  4.556965E+05 -2.943868E+04 -8.431233E+04
       230   1 -2.027385E+06 -5.308213E+05 -4.692800E+05  4.546496E+05 -6.030926E+04  1.153005E+05
       230   2 -2.706719E+06 -6.998017E+05 -6.299371E+05  3.212832E+05  3.063147E+04  1.276369E+05
       230   3 -3.396013E+06 -8.762866E+05 -8.511772E+05  4.533652E+05  1.213163E+05  4.274155E+04
       230   4  1.473700E+05 -9.236934E+02  2.945290E+03  4.539309E+05 -2.012464E+03  1.153011E+05
       230   5  1.438799E+05 -1.992749E+03  4.042190E+03  3.212454E+05 -4.067043E+03  1.276115E+05
       230   6  1.462160E+05  5.654692E+03  9.296601E+03  4.539388E+05 -6.276106E+03  4.289035E+04
       230   7  2.326578E+06  5.286622E+05  4.749011E+05  4.532075E+05  5.648636E+04  1.153016E+05
       230   8  3.002082E+06  6.952660E+05  6.375192E+05  3.212066E+05 -3.892360E+04  1.275861E+05
       230   9  3.699975E+06  8.866815E+05  8.689248E+05  4.545154E+05 -1.345973E+05  4.303869E+04
       230  10 -2.027393E+06 -5.308366E+05 -4.693118E+05  4.546553E+05 -2.561093E-10 -2.523045E-10
       230  11 -2.706724E+06 -6.998194E+05 -6.299695E+05  3.212800E+05  8.512533E-10 -2.005526E-11
       230  12 -3.396029E+06 -8.762926E+05 -8.512084E+05  4.533610E+05  4.505089E-10  4.547120E-10
       230  13  1.473665E+05 -9.379715E+02  2.920297E+03  4.539311E+05 -4.870744E-10  3.374531E-10
       230  14  1.438755E+05 -2.010242E+03  4.011553E+03  3.212458E+05  7.145081E-10 -1.154208E-09
       230  15  1.462154E+05  5.652706E+03  9.293069E+03  4.539390E+05  1.133682E-10  2.863350E-10
       230  16  2.326571E+06  5.286471E+05  4.748702E+05  4.532022E+05  7.409885E-10  7.416111E-10
       230  17  3.002076E+06  6.952481E+05  6.374858E+05  3.212106E+05  1.030488E-09  1.439150E-10
       230  18  3.699955E+06  8.866747E+05  8.688874E+05  4.545201E+05 -7.681889E-10  6.406893E-10
       230  19 -2.027385E+06 -5.308213E+05 -4.692800E+05  4.546496E+05  6.030926E+04 -1.153005E+05
       230  20 -2.706719E+06 -6.998017E+05 -6.299371E+05  3.212832E+05 -3.063147E+04 -1.276369E+05
       230  21 -3.396013E+06 -8.762866E+05 -8.511772E+05  4.533652E+05 -1.213163E+05 -4.274155E+04
       230  22  1.473700E+05 -9.236934E+02  2.945290E+03  4.539309E+05  2.012464E+03 -1.153011E+05
       230  23  1.438799E+05 -1.992749E+03  4.042190E+03  3.212454E+05  4.067043E+03 -1.276115E+05
       230  24  1.462160E+05  5.654692E+03  9.296601E+03  4.539388E+05  6.276106E+03 -4.289035E+04
       230  25  2.326578E+06  5.286622E+05  4.749011E+05  4.532075E+05 -5.648636E+04 -1.153016E+05
       230  26  3.002082E+06  6.952660E+05  6.375192E+05  3.212066E+05  3.892360E+04 -1.275861E+05
       230  27  3.699975E+06  8.866815E+05  8.689248E+05  4.545154E+05  1.345973E+05 -4.303869E+04
       231   1 -7.094180E+05 -2.829974E+06 -6.991315E+05  5.725641E+05 -3.087681E+04 -9.652698E+04
       231   2 -4.758881E+05 -1.955358E+06 -4.413991E+05  4.024002E+05 -8.359382E+04 -1.662829E+04
       231   3 -2.608848E+05 -1.096525E+06 -2.407734E+05  5.704586E+05 -5.578942E+04  6.312844E+04
       231   4 -5.983496E+03 -5.796459E+03 -1.097041E+04  5.755323E+05 -3.054757E+04 -7.287104E+03
       231   5  2.155940E+03 -3.771199E+03 -5.125805E+03  4.064336E+05 -8.352512E+04 -4.383986E+03
       231   6  5.252776E+03 -4.793178E+03 -2.717500E+03  5.754942E+05 -5.609451E+04 -1.736252E+03
       231   7  6.968667E+05  2.825696E+06  6.766413E+05  5.785044E+05 -3.021837E+04  8.235914E+04
       231   8  4.799407E+05  1.951372E+06  4.309082E+05  4.104753E+05 -8.345640E+04  7.898513E+03
       231   9  2.713134E+05  1.088066E+06  2.352825E+05  5.805370E+05 -5.640034E+04 -6.671370E+04
       231  10 -7.094215E+05 -2.829985E+06 -6.991509E+05  5.725617E+05  7.532284E-11  5.202748E-10
       231  11 -4.758957E+05 -1.955360E+06 -4.414127E+05  4.023991E+05 -7.868968E-10 -1.396315E-10
       231  12 -2.608892E+05 -1.096530E+06 -2.407868E+05  5.704615E+05 -2.869832E-09 -5.711279E-10
       231  13 -5.984512E+03 -5.796766E+03 -1.097226E+04  5.755321E+05 -1.398106E-09  1.443188E-09
       231  14  2.148444E+03 -3.773092E+03 -5.138950E+03  4.064333E+05  3.963473E-09 -1.889438E-09
       231  15  5.249396E+03 -4.794026E+03 -2.723419E+03  5.754941E+05 -4.078005E-10  4.885841E-09
       231  16  6.968639E+05  2.825689E+06  6.766269E+05  5.785064E+05  6.078820E-10 -5.426306E-10
       231  17  4.799332E+05  1.951370E+06  4.308950E+05  4.104758E+05  1.121592E-09 -2.267401E-09
       231  18  2.713088E+05  1.088060E+06  2.352682E+05  5.805340E+05  4.483726E-10 -1.660766E-09
       231  19 -7.094180E+05 -2.829974E+06 -6.991315E+05  5.725641E+05  3.087681E+04  9.652698E+04
       231  20 -4.758881E+05 -1.955358E+06 -4.413991E+05  4.024002E+05  8.359382E+04  1.662829E+04
       231  21 -2.608848E+05 -1.096525E+06 -2.407734E+05  5.704586E+05  5.578942E+04 -6.312844E+04
       231  22 -5.983496E+03 -5.796459E+03 -1.097041E+04  5.755323E+05  3.054757E+04  7.287104E+03
       231  23  2.155940E+03 -3.771199E+03 -5.125805E+03  4.064336E+05  8.352512E+04  4.383986E+03
       231  24  5.252776E+03 -4.793178E+03 -2.717500E+03  5.754942E+05  5.609451E+04  1.736252E+03
       231  25  6.968667E+05  2.825696E+06  6.766413E+05  5.785044E+05  3.021837E+04 -8.235914E+04
       231  26  4.799407E+05  1.951372E+06  4.309082E+05  4.104753E+05  8.345640E+04 -7.898513E+03
       231  27  2.713134E+05  1.088066E+06  2.352825E+05  5.805370E+05  5.640034E+04  6.671370E+04
       232   1 -9.333755E+04 -4.060883E+05 -9.023617E+04  5.751886E+05 -1.959923E+04  4.178888E+04
       232   2  1.166904E+05  4.621093E+05  9.950750E+04  4.070000E+05  2.504623E+04  4.122974E+04
       232   3  3.287769E+05  1.328491E+06  2.892876E+05  5.803525E+05  6.861981E+04  4.070039E+04
       232   4  4.615250E+03 -4.487561E+03 -2.192243E+03  5.762572E+05 -1.981331E+04 -1.586489E+03
       232   5  3.479762E+03 -3.258408E+03 -1.272836E+03  4.054801E+05  2.484970E+04 -1.142798E+03
       232   6  4.273573E+03 -4.727813E+03 -9.878925E+02  5.762575E+05  6.843786E+04 -6.687282E+02
       232   7  1.025583E+05  3.972682E+05  8.584895E+04  5.773262E+05 -2.002746E+04 -4.498958E+04
       232   8 -1.097442E+05 -4.684191E+05 -1.020593E+05  4.039612E+05  2.465328E+04 -4.348402E+04
       232   9 -3.203468E+05 -1.336280E+06 -2.913637E+05  5.721688E+05  6.825623E+04 -4.195029E+04
       232  10 -9.333844E+04 -4.060903E+05 -9.024018E+04  5.751893E+05 -5.081515E-10  2.151817E-09
       232  11  1.166893E+05  4.621073E+05  9.950313E+04  4.069992E+05 -2.624005E-10  6.456905E-10
       232  12  3.287714E+05  1.328488E+06  2.892757E+05  5.803503E+05  1.843678E-09 -9.683691E-10
       232  13  4.614828E+03 -4.487670E+03 -2.192986E+03  5.762572E+05 -4.240644E-10  2.107155E-09
       232  14  3.479099E+03 -3.258575E+03 -1.273999E+03  4.054802E+05 -2.429504E-09 -2.273328E-09
       232  15  4.268543E+03 -4.729071E+03 -9.966952E+02  5.762575E+05 -3.315157E-09  4.720836E-09
       232  16  1.025573E+05  3.972659E+05  8.584440E+04  5.773255E+05  2.386100E-10 -2.306226E-09
       232  17 -1.097454E+05 -4.684213E+05 -1.020640E+05  4.039620E+05  2.421754E-09 -3.453907E-09
       232  18 -3.203522E+05 -1.336283E+06 -2.913758E+05  5.721711E+05  2.012685E-10 -1.339548E-09
       232  19 -9.333755E+04 -4.060883E+05 -9.023617E+04  5.751886E+05  1.959923E+04 -4.178888E+04
       232  20  1.166904E+05  4.621093E+05  9.950750E+04  4.070000E+05 -2.504623E+04 -4.122974E+04
       232  21  3.287769E+05  1.328491E+06  2.892876E+05  5.803525E+05 -6.861981E+04 -4.070039E+04
       232  22  4.615250E+03 -4.487561E+03 -2.192243E+03  5.762572E+05  1.981331E+04  1.586489E+03
       232  23  3.479762E+03 -3.258408E+03 -1.272836E+03  4.054801E+05 -2.484970E+04  1.142798E+03
       232  24  4.273573E+03 -4.727813E+03 -9.878925E+02  5.762575E+05 -6.843786E+04  6.687282E+02
       232  25  1.025583E+05  3.972682E+05  8.584895E+04  5.773262E+05  2.002746E+04  4.498958E+04
       232  26 -1.097442E+05 -4.684191E+05 -1.020593E+05  4.039612E+05 -2.465328E+04  4.348402E+04
       232  27 -3.203468E+05 -1.336280E+06 -2.913637E+05  5.721688E+05 -6.825623E+04  4.195029E+04
       233   1  4.964420E+05  2.021099E+06  4.384123E+05  5.816507E+05  1.067880E+05  6.922969E+04
       233   2  7.053090E+05  2.881106E+06  6.393243E+05  4.130797E+05  1.270949E+05 -3.004955E+04
       233   3  9.335495E+05  3.760140E+06  9.095402E+05  5.814570E+05  4.348726E+04 -1.292439E+05
       233   4  3.960969E+03 -4.411057E+03 -8.078230E+02  5.752545E+05  1.065093E+05 -7.598879E+02
       233   5  7.448985E+02 -5.667812E+03 -1.627439E+03  4.067385E+05  1.272369E+05  1.055689E+02
       233   6 -3.678344E+02 -5.889073E+03 -2.484870E+03  5.752643E+05  4.383313E+04  1.195847E+03
       233   7 -4.887886E+05 -2.026070E+06 -4.402540E+05  5.688736E+05  1.062315E+05 -7.052469E+04
       233   8 -7.043816E+05 -2.884687E+06 -6.430945E+05  4.004184E+05  1.273787E+05  3.012251E+04
       233   9 -9.353143E+05 -3.758976E+06 -9.154671E+05  5.690955E+05  4.417777E+04  1.308503E+05
       233  10  4.964285E+05  2.021091E+06  4.383820E+05  5.816448E+05 -2.345133E-10  6.415087E-10
       233  11  7.052914E+05  2.881100E+06  6.392922E+05  4.130828E+05  9.720997E-11 -1.966345E-10
       233  12  9.335430E+05  3.760122E+06  9.095054E+05  5.814615E+05  5.607777E-10 -4.155742E-10
       233  13  3.948787E+03 -4.414104E+03 -8.291423E+02  5.752546E+05  2.435405E-09  1.837891E-09
       233  14  7.275141E+02 -5.672158E+03 -1.657861E+03  4.067385E+05 -1.308833E-09 -1.276514E-09
       233  15 -3.698979E+02 -5.889590E+03 -2.488483E+03  5.752642E+05  7.170047E-10  2.019499E-09
       233  16 -4.888021E+05 -2.026078E+06 -4.402846E+05  5.688797E+05 -1.723684E-09 -5.447713E-10
       233  17 -7.043992E+05 -2.884692E+06 -6.431266E+05  4.004153E+05  3.783672E-10 -1.396122E-09
       233  18 -9.353210E+05 -3.758995E+06 -9.155031E+05  5.690908E+05  1.035055E-09 -4.979452E-10
       233  19  4.964420E+05  2.021099E+06  4.384123E+05  5.816507E+05 -1.067880E+05 -6.922969E+04
       233  20  7.053090E+05  2.881106E+06  6.393243E+05  4.130797E+05 -1.270949E+05  3.004955E+04
       233  21  9.335495E+05  3.760140E+06  9.095402E+05  5.814570E+05 -4.348726E+04  1.292439E+05
       233  22  3.960969E+03 -4.411057E+03 -8.078230E+02  5.752545E+05 -1.065093E+05  7.598879E+02
       233  23  7.448985E+02 -5.667812E+03 -1.627439E+03  4.067385E+05 -1.272369E+05 -1.055689E+02
       233  24 -3.678344E+02 -5.889073E+03 -2.484870E+03  5.752643E+05 -4.383313E+04 -1.195847E+03
       233  25 -4.887886E+05 -2.026070E+06 -4.402540E+05  5.688736E+05 -1.062315E+05  7.052469E+04
       233  26 -7.043816E+05 -2.884687E+06 -6.430945E+05  4.004184E+05 -1.273787E+05 -3.012251E+04
       233  27 -9.353143E+05 -3.758976E+06 -9.154671E+05  5.690955E+05 -4.417777E+04 -1.308503E+05
       234   1  3.759792E+06  8.970371E+05  8.812845E+05  4.593459E+05  1.431275E+05 -4.305600E+04
       234   2  3.060807E+06  6.955675E+05  6.432764E+05  3.228151E+05  4.446835E+04 -1.276200E+05
       234   3  2.386957E+06  5.284183E+05  4.783607E+05  4.515180E+05 -5.392469E+04 -1.153555E+05
       234   4  2.054769E+05  1.595249E+04  2.158666E+04  4.537141E+05  1.475153E+04 -4.290876E+04
       234   5  2.017560E+05 -1.850255E+03  9.655629E+03  3.210560E+05  9.573809E+03 -1.276455E+05
       234   6  2.066320E+05 -1.401876E+03  6.198256E+03  4.536972E+05  4.550564E+03 -1.153552E+05
       234   7 -3.337306E+06 -8.660466E+05 -8.389569E+05  4.481142E+05 -1.128953E+05 -4.275900E+04
       234   8 -2.649688E+06 -6.998184E+05 -6.244676E+05  3.193042E+05 -2.516253E+04 -1.276709E+05
       234   9 -1.969236E+06 -5.315340E+05 -4.662338E+05  4.558665E+05  6.282377E+04 -1.153544E+05
       234  10  3.759769E+06  8.970297E+05  8.812428E+05  4.593508E+05 -6.090490E-10 -3.632021E-10
       234  11  3.060801E+06  6.955494E+05  6.432421E+05  3.228197E+05 -4.833099E-10  1.435879E-10
       234  12  2.386950E+06  5.284033E+05  4.783302E+05  4.515130E+05  5.504629E-10 -7.563408E-10
       234  13  2.054762E+05  1.595045E+04  2.158279E+04  4.537146E+05 -5.565855E-10 -6.250951E-11
       234  14  2.017515E+05 -1.867778E+03  9.624833E+03  3.210570E+05 -8.573652E-12  9.712632E-10
       234  15  2.066284E+05 -1.416173E+03  6.173206E+03  4.536976E+05 -1.652433E-09 -2.921372E-10
       234  16 -3.337320E+06 -8.660520E+05 -8.389844E+05  4.481103E+05 -2.316207E-10  1.886625E-10
       234  17 -2.649693E+06 -6.998360E+05 -6.244994E+05  3.193016E+05 -1.745992E-09  3.133244E-10
       234  18 -1.969244E+06 -5.315494E+05 -4.662663E+05  4.558723E+05 -4.992302E-10  1.572066E-10
       234  19  3.759792E+06  8.970371E+05  8.812845E+05  4.593459E+05 -1.431275E+05  4.305600E+04
       234  20  3.060807E+06  6.955675E+05  6.432764E+05  3.228151E+05 -4.446835E+04  1.276200E+05
       234  21  2.386957E+06  5.284183E+05  4.783607E+05  4.515180E+05  5.392469E+04  1.153555E+05
       234  22  2.054769E+05  1.595249E+04  2.158666E+04  4.537141E+05 -1.475153E+04  4.290876E+04
       234  23  2.017560E+05 -1.850255E+03  9.655629E+03  3.210560E+05 -9.573809E+03  1.276455E+05
       234  24  2.066320E+05 -1.401876E+03  6.198256E+03  4.536972E+05 -4.550564E+03  1.153552E+05
       234  25 -3.337306E+06 -8.660466E+05 -8.389569E+05  4.481142E+05  1.128953E+05  4.275900E+04
       234  26 -2.649688E+06 -6.998184E+05 -6.244676E+05  3.193042E+05  2.516253E+04  1.276709E+05
       234  27 -1.969236E+06 -5.315340E+05 -4.662338E+05  4.558665E+05 -6.282377E+04  1.153544E+05
       235   1  1.839159E+06  3.981835E+05  3.601962E+05  4.556191E+05 -2.732918E+04 -8.438105E+04
       235   2  1.154129E+06  2.310776E+05  2.088317E+05  3.205249E+05 -3.290125E+04 -5.013338E+04
       235   3  4.708005E+05  6.575411E+04  6.149985E+04  4.548211E+05 -3.851118E+04 -1.169177E+04
       235   4  2.053039E+05  7.600980E+02  4.951432E+03  4.546161E+05  3.597314E+03 -8.437033E+04
       235   5  2.052194E+05  3.024605E+02  3.104644E+03  3.199084E+05  2.046574E+03 -5.010172E+04
       235   6  2.056900E+05  9.565528E+02  2.517564E+03  4.546165E+05  4.518915E+02 -1.163456E+04
       235   7 -1.426052E+06 -3.968397E+05 -3.504495E+05  4.536144E+05  3.444365E+04 -8.435967E+04
       235   8 -7.428438E+05 -2.305316E+05 -2.026714E+05  3.192924E+05  3.694176E+04 -5.007009E+04
       235   9 -5.935166E+04 -6.384495E+04 -5.646341E+04  4.544118E+05  3.939852E+04 -1.157737E+04
       235  10  1.839157E+06  3.981756E+05  3.601814E+05  4.556173E+05  2.175546E-10 -3.942703E-10
       235  11  1.154127E+06  2.310746E+05  2.088249E+05  3.205236E+05  1.226015E-09  9.139176E-10
       235  12  4.707989E+05  6.575356E+04  6.149681E+04  4.548208E+05  8.080820E-10 -2.680296E-10
       235  13  2.053020E+05  7.524496E+02  4.938028E+03  4.546164E+05 -1.064443E-09 -1.610913E-11
       235  14  2.052187E+05  2.997635E+02  3.099918E+03  3.199085E+05 -1.275666E-09  2.057425E-10
       235  15  2.056900E+05  9.564073E+02  2.517309E+03  4.546165E+05 -3.484987E-11 -8.710476E-10
       235  16 -1.426055E+06 -3.968476E+05 -3.504651E+05  4.536168E+05 -1.219344E-09  3.952718E-10
       235  17 -7.428460E+05 -2.305346E+05 -2.026787E+05  3.192939E+05  1.159811E-09 -6.230211E-10
       235  18 -5.935336E+04 -6.384551E+04 -5.646658E+04  4.544122E+05  5.924114E-11 -2.330677E-10
       235  19  1.839159E+06  3.981835E+05  3.601962E+05  4.556191E+05  2.732918E+04  8.438105E+04
       235  20  1.154129E+06  2.310776E+05  2.088317E+05  3.205249E+05  3.290125E+04  5.013338E+04
       235  21  4.708005E+05  6.575411E+04  6.149985E+04  4.548211E+05  3.851118E+04  1.169177E+04
       235  22  2.053039E+05  7.600980E+02  4.951432E+03  4.546161E+05 -3.597314E+03  8.437033E+04
       235  23  2.052194E+05  3.024605E+02  3.104644E+03  3.199084E+05 -2.046574E+03  5.010172E+04
       235  24  2.056900E+05  9.565528E+02  2.517564E+03  4.546165E+05 -4.518915E+02  1.163456E+04
       235  25 -1.426052E+06 -3.968397E+05 -3.504495E+05  4.536144E+05 -3.444365E+04  8.435967E+04
       235  26 -7.428438E+05 -2.305316E+05 -2.026714E+05  3.192924E+05 -3.694176E+04  5.007009E+04
       235  27 -5.935166E+04 -6.384495E+04 -5.646341E+04  4.544118E+05 -3.939852E+04  1.157737E+04
       236   1 -7.228224E+04 -6.696951E+04 -5.932538E+04  4.543589E+05 -3.899474E+04  1.227538E+04
       236   2 -7.557407E+05 -2.336814E+05 -2.058508E+05  3.192991E+05 -3.633088E+04  5.076515E+04
       236   3 -1.438976E+06 -4.001934E+05 -3.541237E+05  4.536810E+05 -3.362531E+04  8.503632E+04
       236   4  2.056757E+05  9.743378E+02  2.449179E+03  4.546164E+05 -4.416508E+01  1.233249E+04
       236   5  2.052313E+05  2.960541E+02  2.721721E+03  3.199085E+05 -1.446136E+03  5.079642E+04
       236   6  2.052844E+05  5.535898E+02  4.087004E+03  4.546163E+05 -2.803588E+03  8.504641E+04
       236   7  4.837089E+05  6.891377E+04  6.422462E+04  4.548740E+05  3.892365E+04  1.238962E+04
       236   8  1.167073E+06  2.342130E+05  2.112437E+05  3.205184E+05  3.349194E+04  5.082773E+04
       236   9  1.852084E+06  4.011213E+05  3.621389E+05  4.555527E+05  2.809886E+04  8.505656E+04
       236  10 -7.228392E+04 -6.697008E+04 -5.932852E+04  4.543593E+05  2.673769E-10  7.156140E-10
       236  11 -7.557428E+05 -2.336845E+05 -2.058581E+05  3.193006E+05  5.705044E-11 -1.948209E-10
       236  12 -1.438979E+06 -4.002014E+05 -3.541394E+05  4.536833E+05  9.109076E-11 -9.366948E-10
       236  13  2.056756E+05  9.741745E+02  2.448893E+03  4.546164E+05 -6.127883E-12 -5.736825E-10
       236  14  2.052306E+05  2.932825E+02  2.716868E+03  3.199085E+05  1.187831E-09 -3.543015E-10
       236  15  2.052824E+05  5.458198E+02  4.073395E+03  4.546165E+05  1.225982E-09  2.514024E-11
       236  16  4.837072E+05  6.891320E+04  6.422149E+04  4.548736E+05  3.255555E-10 -1.236342E-09
       236  17  1.167071E+06  2.342099E+05  2.112367E+05  3.205170E+05  1.901797E-09 -1.172154E-09
       236  18  1.852081E+06  4.011134E+05  3.621238E+05  4.555508E+05  1.429829E-09 -6.588688E-11
       236  19 -7.228224E+04 -6.696951E+04 -5.932538E+04  4.543589E+05  3.899474E+04 -1.227538E+04
       236  20 -7.557407E+05 -2.336814E+05 -2.058508E+05  3.192991E+05  3.633088E+04 -5.076515E+04
       236  21 -1.438976E+06 -4.001934E+05 -3.541237E+05  4.536810E+05  3.362531E+04 -8.503632E+04
       236  22  2.056757E+05  9.743378E+02  2.449179E+03  4.546164E+05  4.416508E+01 -1.233249E+04
       236  23  2.052313E+05  2.960541E+02  2.721721E+03  3.199085E+05  1.446136E+03 -5.079642E+04
       236  24  2.052844E+05  5.535898E+02  4.087004E+03  4.546163E+05  2.803588E+03 -8.504641E+04
       236  25  4.837089E+05  6.891377E+04  6.422462E+04  4.548740E+05 -3.892365E+04 -1.238962E+04
       236  26  1.167073E+06  2.342130E+05  2.112437E+05  3.205184E+05 -3.349194E+04 -5.082773E+04
       236  27  1.852084E+06  4.011213E+05  3.621389E+05  4.555527E+05 -2.809886E+04 -8.505656E+04
       237   1 -1.982369E+06 -5.345305E+05 -4.701576E+05  4.553586E+05 -6.194478E+04  1.160579E+05
       237   2 -2.662316E+06 -7.030503E+05 -6.293178E+05  3.199896E+05  2.741260E+04  1.282782E+05
       237   3 -3.350446E+06 -8.729909E+05 -8.464920E+05  4.499731E+05  1.165122E+05  4.293742E+04
       237   4  2.064093E+05 -1.250186E+03  5.071504E+03  4.536939E+05 -3.601907E+03  1.160576E+05
       237   5  2.020096E+05 -1.926737E+03  7.656298E+03  3.210607E+05 -7.566461E+03  1.282531E+05
       237   6  2.052494E+05  1.223437E+04  1.717942E+04  4.537079E+05 -1.168804E+04  4.309003E+04
       237   7  2.399698E+06  5.317145E+05  4.800276E+05  4.520212E+05  5.494445E+04  1.160570E+05
       237   8  3.074012E+06  6.986414E+05  6.441234E+05  3.221359E+05 -4.270557E+04  1.282279E+05
       237   9  3.772562E+06  8.965384E+05  8.799991E+05  4.574640E+05 -1.406233E+05  4.324088E+04
       237  10 -1.982377E+06 -5.345460E+05 -4.701902E+05  4.553644E+05  1.233631E-09 -1.823427E-10
       237  11 -2.662321E+06 -7.030682E+05 -6.293501E+05  3.199867E+05  1.456274E-09  1.069307E-09
       237  12 -3.350462E+06 -8.729966E+05 -8.465211E+05  4.499691E+05  7.355348E-10  1.131297E-09
       237  13  2.064057E+05 -1.264655E+03  5.046164E+03  4.536943E+05 -5.940347E-11 -9.435228E-11
       237  14  2.020052E+05 -1.944418E+03  7.625274E+03  3.210615E+05  2.028244E-09 -5.282563E-10
       237  15  2.052488E+05  1.223234E+04  1.717568E+04  4.537083E+05  9.200814E-10 -9.373323E-10
       237  16  2.399691E+06  5.316992E+05  4.799967E+05  4.520161E+05  7.215886E-10  4.062354E-10
       237  17  3.074005E+06  6.986233E+05  6.440891E+05  3.221403E+05  2.925513E-11 -4.696045E-10
       237  18  3.772540E+06  8.965312E+05  8.799586E+05  4.574689E+05 -3.059872E-10 -1.745088E-09
       237  19 -1.982369E+06 -5.345305E+05 -4.701576E+05  4.553586E+05  6.194478E+04 -1.160579E+05
       237  20 -2.662316E+06 -7.030503E+05 -6.293178E+05  3.199896E+05 -2.741260E+04 -1.282782E+05
       237  21 -3.350446E+06 -8.729909E+05 -8.464920E+05  4.499731E+05 -1.165122E+05 -4.293742E+04
       237  22  2.064093E+05 -1.250186E+03  5.071504E+03  4.536939E+05  3.601907E+03 -1.160576E+05
       237  23  2.020096E+05 -1.926737E+03  7.656298E+03  3.210607E+05  7.566461E+03 -1.282531E+05
       237  24  2.052494E+05  1.223437E+04  1.717942E+04  4.537079E+05  1.168804E+04 -4.309003E+04
       237  25  2.399698E+06  5.317145E+05  4.800276E+05  4.520212E+05 -5.494445E+04 -1.160570E+05
       237  26  3.074012E+06  6.986414E+05  6.441234E+05  3.221359E+05  4.270557E+04 -1.282279E+05
       237  27  3.772562E+06  8.965384E+05  8.799991E+05  4.574640E+05  1.406233E+05 -4.324088E+04
       238   1 -7.444082E+05 -2.932744E+06 -7.350694E+05  5.917354E+05 -3.227061E+04 -1.043054E+05
       238   2 -4.979836E+05 -2.032661E+06 -4.665153E+05  4.147963E+05 -8.761559E+04 -1.875940E+04
       238   3 -2.766340E+05 -1.150668E+06 -2.603931E+05  5.855413E+05 -5.926525E+04  6.664607E+04
       238   4 -1.242282E+04  6.055995E+03 -1.901910E+04  5.917471E+05 -3.192482E+04 -1.103316E+04
       238   5  2.119985E+03  9.023333E+03 -1.017874E+04  4.179061E+05 -8.754045E+04 -5.496146E+03
       238   6  5.614577E+03  7.134998E+03 -7.984354E+03  5.916844E+05 -5.958332E+04 -2.245272E+02
       238   7  7.189300E+05  2.952778E+06  6.964367E+05  5.917483E+05 -3.158002E+04  8.268113E+04
       238   8  5.019399E+05  2.054601E+06  4.458962E+05  4.210212E+05 -8.746533E+04  7.810400E+03
       238   9  2.877765E+05  1.166205E+06  2.443606E+05  5.978372E+05 -5.990235E+04 -6.721841E+04
       238  10 -7.444123E+05 -2.932756E+06 -7.350919E+05  5.917327E+05  1.216250E-10  1.193716E-09
       238  11 -4.979920E+05 -2.032664E+06 -4.665304E+05  4.147949E+05 -2.270352E-10  3.672630E-09
       238  12 -2.766390E+05 -1.150674E+06 -2.604081E+05  5.855444E+05 -2.479402E-09 -1.763693E-09
       238  13 -1.242395E+04  6.055592E+03 -1.902124E+04  5.917468E+05 -5.532085E-10  4.622590E-11
       238  14  2.111748E+03  9.021244E+03 -1.019320E+04  4.179057E+05  4.938557E-09  3.698548E-09
       238  15  5.610765E+03  7.134045E+03 -7.991026E+03  5.916844E+05 -2.437357E-09  1.247111E-09
       238  16  7.189271E+05  2.952770E+06  6.964220E+05  5.917504E+05  9.268238E-10 -1.946241E-09
       238  17  5.019316E+05  2.054599E+06  4.458817E+05  4.210217E+05  1.260169E-09  1.863123E-09
       238  18  2.877714E+05  1.166199E+06  2.443454E+05  5.978340E+05  8.394757E-10  2.018418E-09
       238  19 -7.444082E+05 -2.932744E+06 -7.350694E+05  5.917354E+05  3.227061E+04  1.043054E+05
       238  20 -4.979836E+05 -2.032661E+06 -4.665153E+05  4.147963E+05  8.761559E+04  1.875940E+04
       238  21 -2.766340E+05 -1.150668E+06 -2.603931E+05  5.855413E+05  5.926525E+04 -6.664607E+04
       238  22 -1.242282E+04  6.055995E+03 -1.901910E+04  5.917471E+05  3.192482E+04  1.103316E+04
       238  23  2.119985E+03  9.023333E+03 -1.017874E+04  4.179061E+05  8.754045E+04  5.496146E+03
       238  24  5.614577E+03  7.134998E+03 -7.984354E+03  5.916844E+05  5.958332E+04  2.245272E+02
       238  25  7.189300E+05  2.952778E+06  6.964367E+05  5.917483E+05  3.158002E+04 -8.268113E+04
       238  26  5.019399E+05  2.054601E+06  4.458962E+05  4.210212E+05  8.746533E+04 -7.810400E+03
       238  27  2.877765E+05  1.166205E+06  2.443606E+05  5.978372E+05  5.990235E+04  6.721841E+04
       239   1 -1.046783E+05 -4.408017E+05 -1.064015E+05  5.919301E+05 -2.198780E+04  4.537961E+04
       239   2  1.114576E+05  4.524577E+05  8.596898E+04  4.181915E+05  2.389096E+04  4.922423E+04
       239   3  3.265155E+05  1.342449E+06  2.746906E+05  5.955826E+05  6.875203E+04  5.310402E+04
       239   4  4.654524E+03  7.535725E+03 -8.176434E+03  5.924792E+05 -2.221067E+04  8.677513E+02
       239   5  3.703749E+03  9.512006E+03 -9.956283E+03  4.169141E+05  2.368533E+04  5.658763E+03
       239   6  1.555391E+03  7.300664E+03 -1.602038E+04  5.924926E+05  6.856056E+04  1.047942E+04
       239   7  1.139750E+05  4.560657E+05  9.004391E+04  5.930285E+05 -2.243353E+04 -4.367588E+04
       239   8 -1.040620E+05 -4.332456E+05 -1.058861E+05  4.156373E+05  2.347979E+04 -3.787606E+04
       239   9 -3.235221E+05 -1.326175E+06 -3.068315E+05  5.894067E+05  6.836927E+04 -3.205486E+04
       239  10 -1.046794E+05 -4.408041E+05 -1.064063E+05  5.919309E+05 -8.405073E-10  2.225013E-09
       239  11  1.114563E+05  4.524549E+05  8.596336E+04  4.181906E+05 -9.019862E-10  6.092184E-09
       239  12  3.265097E+05  1.342444E+06  2.746764E+05  5.955797E+05  1.977234E-09 -4.010184E-10
       239  13  4.653994E+03  7.535592E+03 -8.177363E+03  5.924792E+05 -1.443963E-09 -7.640278E-11
       239  14  3.703138E+03  9.511821E+03 -9.957397E+03  4.169140E+05 -2.863587E-09  4.381118E-09
       239  15  1.550315E+03  7.299286E+03 -1.602941E+04  5.924921E+05 -3.377558E-09  1.146875E-09
       239  16  1.139739E+05  4.560635E+05  9.003938E+04  5.930277E+05 -5.186044E-10 -3.380407E-09
       239  17 -1.040630E+05 -4.332473E+05 -1.058898E+05  4.156381E+05  1.771002E-09  5.616562E-10
       239  18 -3.235274E+05 -1.326177E+06 -3.068422E+05  5.894084E+05  1.324191E-09  3.222749E-10
       239  19 -1.046783E+05 -4.408017E+05 -1.064015E+05  5.919301E+05  2.198780E+04 -4.537961E+04
       239  20  1.114576E+05  4.524577E+05  8.596898E+04  4.181915E+05 -2.389096E+04 -4.922423E+04
       239  21  3.265155E+05  1.342449E+06  2.746906E+05  5.955826E+05 -6.875203E+04 -5.310402E+04
       239  22  4.654524E+03  7.535725E+03 -8.176434E+03  5.924792E+05  2.221067E+04 -8.677513E+02
       239  23  3.703749E+03  9.512006E+03 -9.956283E+03  4.169141E+05 -2.368533E+04 -5.658763E+03
       239  24  1.555391E+03  7.300664E+03 -1.602038E+04  5.924926E+05 -6.856056E+04 -1.047942E+04
       239  25  1.139750E+05  4.560657E+05  9.004391E+04  5.930285E+05  2.243353E+04  4.367588E+04
       239  26 -1.040620E+05 -4.332456E+05 -1.058861E+05  4.156373E+05 -2.347979E+04  3.787606E+04
       239  27 -3.235221E+05 -1.326175E+06 -3.068315E+05  5.894067E+05 -6.836927E+04  3.205486E+04
       240   1  5.045767E+05  2.051278E+06  4.243186E+05  6.061908E+05  1.079392E+05  8.483322E+04
       240   2  7.156257E+05  2.943430E+06  6.176964E+05  4.146841E+05  1.291101E+05  4.520070E+02
       240   3  8.930387E+05  3.839509E+06  8.574586E+05  5.696574E+05  4.432469E+04 -8.381476E+04
       240   4  6.836223E+03  4.470767E+03 -1.955895E+04  5.914339E+05  1.076458E+05  1.303251E+04
       240   5  1.202432E+01  1.096568E+04 -3.342293E+04  4.182261E+05  1.292559E+05  3.070535E+04
       240   6 -5.819093E+04  2.927413E+03 -7.164643E+04  5.916216E+05  4.468023E+04  4.861242E+04
       240   7 -4.911780E+05 -2.038403E+06 -4.636668E+05  5.767202E+05  1.073552E+05 -5.853526E+04
       240   8 -7.161818E+05 -2.913498E+06 -6.850741E+05  4.217423E+05  1.294025E+05  6.081762E+04
       240   9 -1.010486E+06 -3.820223E+06 -1.001745E+06  6.134359E+05  4.504652E+04  1.802268E+05
       240  10  5.045623E+05  2.051267E+06  4.242833E+05  6.061834E+05  2.288213E-10  2.640302E-10
       240  11  7.156078E+05  2.943426E+06  6.176651E+05  4.146840E+05 -4.285695E-10  3.564048E-09
       240  12  8.930347E+05  3.839501E+06  8.574418E+05  5.696604E+05  3.890672E-10  1.705274E-11
       240  13  6.823736E+03  4.467476E+03 -1.958104E+04  5.914328E+05  2.937281E-09 -6.327292E-11
       240  14 -6.165757E+00  1.096019E+04 -3.345609E+04  4.182230E+05 -7.937334E-10  2.942430E-09
       240  15 -5.819370E+04  2.924343E+03 -7.165462E+04  5.916198E+05  8.316848E-10  5.664007E-10
       240  16 -4.911913E+05 -2.038410E+06 -4.636950E+05  5.767253E+05 -1.132262E-09 -1.210006E-09
       240  17 -7.162008E+05 -2.913506E+06 -6.851125E+05  4.217359E+05  3.308761E-10  1.031348E-09
       240  18 -1.010497E+06 -3.820259E+06 -1.001810E+06  6.134293E+05  1.396436E-09  2.825461E-11
       240  19  5.045767E+05  2.051278E+06  4.243186E+05  6.061908E+05 -1.079392E+05 -8.483322E+04
       240  20  7.156257E+05  2.943430E+06  6.176964E+05  4.146841E+05 -1.291101E+05 -4.520070E+02
       240  21  8.930387E+05  3.839509E+06  8.574586E+05  5.696574E+05 -4.432469E+04  8.381476E+04
       240  22  6.836223E+03  4.470767E+03 -1.955895E+04  5.914339E+05 -1.076458E+05 -1.303251E+04
       240  23  1.202432E+01  1.096568E+04 -3.342293E+04  4.182261E+05 -1.292559E+05 -3.070535E+04
       240  24 -5.819093E+04  2.927413E+03 -7.164643E+04  5.916216E+05 -4.468023E+04 -4.861242E+04
       240  25 -4.911780E+05 -2.038403E+06 -4.636668E+05  5.767202E+05 -1.073552E+05  5.853526E+04
       240  26 -7.161818E+05 -2.913498E+06 -6.850741E+05  4.217423E+05 -1.294025E+05 -6.081762E+04
       240  27 -1.010486E+06 -3.820223E+06 -1.001745E+06  6.134359E+05 -4.504652E+04 -1.802268E+05
       241   1  3.752832E+06  8.944137E+05  8.765939E+05  4.631308E+05  1.355617E+05 -4.333111E+04
       241   2  3.041807E+06  6.995581E+05  6.415831E+05  3.272664E+05  3.895800E+04 -1.282896E+05
       241   3  2.353441E+06  5.298253E+05  4.760442E+05  4.617732E+05 -5.737659E+04 -1.155110E+05
       241   4  1.682024E+05  5.761857E+03  9.485406E+03  4.625216E+05  6.398196E+03 -4.318139E+04
       241   5  1.658290E+05 -2.023022E+03  4.135445E+03  3.272963E+05  4.139375E+03 -1.283155E+05
       241   6  1.693861E+05 -9.294563E+02  3.023611E+03  4.625135E+05  2.037277E+03 -1.155097E+05
       241   7 -3.404698E+06 -8.838205E+05 -8.584837E+05  4.619155E+05 -1.220253E+05 -4.303120E+04
       241   8 -2.702451E+06 -7.041611E+05 -6.338208E+05  3.273253E+05 -3.052041E+04 -1.283414E+05
       241   9 -2.010196E+06 -5.319972E+05 -4.702672E+05  4.632490E+05  6.124551E+04 -1.155083E+05
       241  10  3.752812E+06  8.944068E+05  8.765560E+05  4.631356E+05  2.265417E-10 -8.449338E-11
       241  11  3.041800E+06  6.995400E+05  6.415493E+05  3.272704E+05  1.035152E-10 -1.087026E-09
       241  12  2.353434E+06  5.298101E+05  4.760130E+05  4.617679E+05 -1.396737E-09 -3.530956E-10
       241  13  1.682018E+05  5.759844E+03  9.481824E+03  4.625218E+05 -5.722298E-10  1.595751E-09
       241  14  1.658245E+05 -2.040709E+03  4.104468E+03  3.272968E+05 -2.220392E-10  3.107122E-10
       241  15  1.693825E+05 -9.437864E+02  2.998527E+03  4.625137E+05 -3.692574E-10  2.143031E-10
       241  16 -3.404714E+06 -8.838265E+05 -8.585153E+05  4.619112E+05 -7.027480E-10 -2.596006E-10
       241  17 -2.702456E+06 -7.041791E+05 -6.338535E+05  3.273221E+05  2.167081E-10  7.306654E-10
       241  18 -2.010204E+06 -5.320125E+05 -4.702994E+05  4.632547E+05  8.443893E-10  4.808556E-10
       241  19  3.752832E+06  8.944137E+05  8.765939E+05  4.631308E+05 -1.355617E+05  4.333111E+04
       241  20  3.041807E+06  6.995581E+05  6.415831E+05  3.272664E+05 -3.895800E+04  1.282896E+05
       241  21  2.353441E+06  5.298253E+05  4.760442E+05  4.617732E+05  5.737659E+04  1.155110E+05
       241  22  1.682024E+05  5.761857E+03  9.485406E+03  4.625216E+05 -6.398196E+03  4.318139E+04
       241  23  1.658290E+05 -2.023022E+03  4.135445E+03  3.272963E+05 -4.139375E+03  1.283155E+05
       241  24  1.693861E+05 -9.294563E+02  3.023611E+03  4.625135E+05 -2.037277E+03  1.155097E+05
       241  25 -3.404698E+06 -8.838205E+05 -8.584837E+05  4.619155E+05  1.220253E+05  4.303120E+04
       241  26 -2.702451E+06 -7.041611E+05 -6.338208E+05  3.273253E+05  3.052041E+04  1.283414E+05
       241  27 -2.010196E+06 -5.319972E+05 -4.702672E+05  4.632490E+05 -6.124551E+04  1.155083E+05
       242   1  1.795566E+06  3.960166E+05  3.562379E+05  4.642835E+05 -3.008432E+04 -8.401022E+04
       242   2  1.097310E+06  2.261952E+05  2.032153E+05  3.266779E+05 -3.505477E+04 -4.903546E+04
       242   3  4.005447E+05  5.764590E+04  5.369986E+04  4.637414E+05 -4.006360E+04 -9.831157E+03
       242   4  1.686118E+05  2.518212E+02  2.463995E+03  4.634604E+05  1.524651E+03 -8.399856E+04
       242   5  1.686342E+05  3.247901E+02  1.842346E+03  3.261129E+05  6.075641E+02 -4.900286E+04
       242   6  1.689972E+05  9.991134E+02  1.937066E+03  4.634602E+05 -3.533286E+02 -9.772987E+03
       242   7 -1.455863E+06 -3.956879E+05 -3.514646E+05  4.626381E+05  3.305204E+04 -8.398695E+04
       242   8 -7.592304E+05 -2.256020E+05 -1.995772E+05  3.255485E+05  3.621733E+04 -4.897030E+04
       242   9 -6.249700E+04 -5.565047E+04 -4.982318E+04  4.631790E+05  3.934230E+04 -9.714838E+03
       242  10  1.795563E+06  3.960088E+05  3.562229E+05  4.642815E+05  4.704426E-10 -2.261341E-10
       242  11  1.097308E+06  2.261923E+05  2.032084E+05  3.266765E+05 -5.363940E-10  5.884865E-10
       242  12  4.005429E+05  5.764537E+04  5.369667E+04  4.637411E+05 -1.574352E-10 -2.978936E-10
       242  13  1.686099E+05  2.442432E+02  2.450730E+03  4.634605E+05 -4.818641E-10  7.954585E-10
       242  14  1.686336E+05  3.222112E+02  1.837832E+03  3.261130E+05 -6.437966E-10  1.390061E-09
       242  15  1.689972E+05  9.990108E+02  1.936886E+03  4.634602E+05 -9.396496E-10 -7.597677E-10
       242  16 -1.455866E+06 -3.956958E+05 -3.514800E+05  4.626404E+05 -8.987497E-11  6.176780E-11
       242  17 -7.592325E+05 -2.256049E+05 -1.995841E+05  3.255499E+05  1.198709E-10  1.159473E-09
       242  18 -6.249869E+04 -5.565099E+04 -4.982627E+04  4.631793E+05 -1.971772E-10 -6.395391E-12
       242  19  1.795566E+06  3.960166E+05  3.562379E+05  4.642835E+05  3.008432E+04  8.401022E+04
       242  20  1.097310E+06  2.261952E+05  2.032153E+05  3.266779E+05  3.505477E+04  4.903546E+04
       242  21  4.005447E+05  5.764590E+04  5.369986E+04  4.637414E+05  4.006360E+04  9.831157E+03
       242  22  1.686118E+05  2.518212E+02  2.463995E+03  4.634604E+05 -1.524651E+03  8.399856E+04
       242  23  1.686342E+05  3.247901E+02  1.842346E+03  3.261129E+05 -6.075641E+02  4.900286E+04
       242  24  1.689972E+05  9.991134E+02  1.937066E+03  4.634602E+05  3.533286E+02  9.772987E+03
       242  25 -1.455863E+06 -3.956879E+05 -3.514646E+05  4.626381E+05 -3.305204E+04  8.398695E+04
       242  26 -7.592304E+05 -2.256020E+05 -1.995772E+05  3.255485E+05 -3.621733E+04  4.897030E+04
       242  27 -6.249700E+04 -5.565047E+04 -4.982318E+04  4.631790E+05 -3.934230E+04  9.714838E+03
       243   1 -1.530649E+05 -7.775083E+04 -6.923337E+04  4.632075E+05 -4.049330E+04  1.460552E+04
       243   2 -8.498916E+05 -2.477207E+05 -2.181748E+05  3.255032E+05 -3.777645E+04  5.383966E+04
       243   3 -1.546382E+06 -4.173810E+05 -3.688569E+05  4.625162E+05 -3.501470E+04  8.872511E+04
       243   4  1.690447E+05  9.440982E+02  2.126255E+03  4.634590E+05 -7.710232E+02  1.466310E+04
       243   5  1.685308E+05  2.593307E+02  2.862707E+03  3.261143E+05 -2.245694E+03  5.386970E+04
       243   6  1.686214E+05  6.401451E+02  4.783514E+03  4.634587E+05 -3.672490E+03  8.873260E+04
       243   7  4.912545E+05  7.963287E+04  7.348538E+04  4.637106E+05  3.897164E+04  1.472069E+04
       243   8  1.187930E+06  2.481713E+05  2.238431E+05  3.267259E+05  3.334264E+04  5.389977E+04
       243   9  1.886387E+06  4.184663E+05  3.782510E+05  4.644024E+05  2.775536E+04  8.874017E+04
       243  10 -1.530667E+05 -7.775150E+04 -6.923685E+04  4.632080E+05 -4.261898E-10  5.778687E-10
       243  11 -8.498939E+05 -2.477242E+05 -2.181829E+05  3.255049E+05  1.472713E-11 -6.213297E-10
       243  12 -1.546385E+06 -4.173898E+05 -3.688740E+05  4.625187E+05 -1.784724E-09  3.597939E-10
       243  13  1.690446E+05  9.438672E+02  2.125850E+03  4.634590E+05  1.075158E-09 -6.893830E-10
       243  14  1.685300E+05  2.562128E+02  2.857244E+03  3.261144E+05 -6.760816E-10 -2.293895E-10
       243  15  1.686193E+05  6.316858E+02  4.768691E+03  4.634590E+05  1.690555E-10  3.221086E-10
       243  16  4.912528E+05  7.963223E+04  7.348213E+04  4.637102E+05  1.222457E-10 -7.867439E-10
       243  17  1.187928E+06  2.481679E+05  2.238355E+05  3.267244E+05  1.645766E-09 -6.200523E-10
       243  18  1.886384E+06  4.184576E+05  3.782348E+05  4.644004E+05  2.811633E-09  5.508054E-10
       243  19 -1.530649E+05 -7.775083E+04 -6.923337E+04  4.632075E+05  4.049330E+04 -1.460552E+04
       243  20 -8.498916E+05 -2.477207E+05 -2.181748E+05  3.255032E+05  3.777645E+04 -5.383966E+04
       243  21 -1.546382E+06 -4.173810E+05 -3.688569E+05  4.625162E+05  3.501470E+04 -8.872511E+04
       243  22  1.690447E+05  9.440982E+02  2.126255E+03  4.634590E+05  7.710232E+02 -1.466310E+04
       243  23  1.685308E+05  2.593307E+02  2.862707E+03  3.261143E+05  2.245694E+03 -5.386970E+04
       243  24  1.686214E+05  6.401451E+02  4.783514E+03  4.634587E+05  3.672490E+03 -8.873260E+04
       243  25  4.912545E+05  7.963287E+04  7.348538E+04  4.637106E+05 -3.897164E+04 -1.472069E+04
       243  26  1.187930E+06  2.481713E+05  2.238431E+05  3.267259E+05 -3.334264E+04 -5.389977E+04
       243  27  1.886387E+06  4.184663E+05  3.782510E+05  4.644024E+05 -2.775536E+04 -8.874017E+04
       244   1 -2.100161E+06 -5.546751E+05 -4.868480E+05  4.647759E+05 -6.427461E+04  1.204326E+05
       244   2 -2.793709E+06 -7.263306E+05 -6.484743E+05  3.259003E+05  2.687974E+04  1.326034E+05
       244   3 -3.494677E+06 -8.965774E+05 -8.685305E+05  4.575113E+05  1.177531E+05  4.431660E+04
       244   4  1.699646E+05 -1.530962E+03  6.058377E+03  4.625030E+05 -4.600024E+03  1.204269E+05
       244   5  1.649267E+05 -2.062883E+03  9.480331E+03  3.273076E+05 -9.525410E+03  1.325796E+05
       244   6  1.687431E+05  1.554461E+04  2.134480E+04  4.625221E+05 -1.462567E+04  4.449042E+04
       244   7  2.444942E+06  5.512736E+05  4.986707E+05  4.602195E+05  5.529046E+04  1.204207E+05
       244   8  3.131754E+06  7.216123E+05  6.668941E+05  3.287210E+05 -4.610262E+04  1.325557E+05
       244   9  3.844497E+06  9.266887E+05  9.103162E+05  4.675628E+05 -1.477864E+05  4.466182E+04
       244  10 -2.100170E+06 -5.546918E+05 -4.868830E+05  4.647821E+05  8.091516E-10  3.890841E-10
       244  11 -2.793715E+06 -7.263497E+05 -6.485087E+05  3.258974E+05  2.299897E-10 -6.826457E-10
       244  12 -3.494692E+06 -8.965832E+05 -8.685604E+05  4.575071E+05 -1.774768E-09 -1.181230E-09
       244  13  1.699606E+05 -1.546542E+03  6.031080E+03  4.625035E+05 -6.572162E-10  1.123527E-10
       244  14  1.649219E+05 -2.081785E+03  9.447123E+03  3.273086E+05  4.348653E-10 -8.597679E-10
       244  15  1.687423E+05  1.554243E+04  2.134067E+04  4.625227E+05 -8.115759E-10  3.410063E-10
       244  16  2.444935E+06  5.512572E+05  4.986377E+05  4.602142E+05  8.602018E-11  2.039505E-10
       244  17  3.131747E+06  7.215928E+05  6.668571E+05  3.287259E+05  1.589428E-09 -3.847869E-10
       244  18  3.844473E+06  9.266807E+05  9.102716E+05  4.675681E+05  1.875055E-09 -1.804780E-09
       244  19 -2.100161E+06 -5.546751E+05 -4.868480E+05  4.647759E+05  6.427461E+04 -1.204326E+05
       244  20 -2.793709E+06 -7.263306E+05 -6.484743E+05  3.259003E+05 -2.687974E+04 -1.326034E+05
       244  21 -3.494677E+06 -8.965774E+05 -8.685305E+05  4.575113E+05 -1.177531E+05 -4.431660E+04
       244  22  1.699646E+05 -1.530962E+03  6.058377E+03  4.625030E+05  4.600024E+03 -1.204269E+05
       244  23  1.649267E+05 -2.062883E+03  9.480331E+03  3.273076E+05  9.525410E+03 -1.325796E+05
       244  24  1.687431E+05  1.554461E+04  2.134480E+04  4.625221E+05  1.462567E+04 -4.449042E+04
       244  25  2.444942E+06  5.512736E+05  4.986707E+05  4.602195E+05 -5.529046E+04 -1.204207E+05
       244  26  3.131754E+06  7.216123E+05  6.668941E+05  3.287210E+05  4.610262E+04 -1.325557E+05
       244  27  3.844497E+06  9.266887E+05  9.103162E+05  4.675628E+05  1.477864E+05 -4.466182E+04
       245   1 -8.370689E+05 -3.284662E+06 -8.262098E+05  6.509921E+05 -3.664913E+04 -1.151243E+05
       245   2 -5.669158E+05 -2.292737E+06 -5.309468E+05  4.565695E+05 -1.000522E+05 -1.886358E+04
       245   3 -3.227945E+05 -1.320397E+06 -3.053807E+05  6.453512E+05 -6.928782E+04  7.724203E+04
       245   4 -1.175499E+04  2.825912E+04 -1.899946E+04  6.524046E+05 -3.623838E+04 -9.118549E+03
       245   5  2.402487E+03  3.131651E+04 -1.161500E+04  4.608110E+05 -9.995585E+04 -2.831061E+03
       245   6  6.314180E+03  2.961296E+04 -1.116939E+04  6.523397E+05 -6.966288E+04  3.146649E+03
       245   7  8.127551E+05  3.351251E+06  7.874561E+05  6.538105E+05 -3.582849E+04  9.745380E+04
       245   8  5.713533E+05  2.360415E+06  5.073780E+05  4.650615E+05 -9.985945E+04  1.326102E+04
       245   9  3.353047E+05  1.381345E+06  2.829530E+05  6.593406E+05 -7.003913E+04 -7.110804E+04
       245  10 -8.370740E+05 -3.284676E+06 -8.262374E+05  6.509887E+05  7.913343E-10  3.595904E-09
       245  11 -5.669267E+05 -2.292740E+06 -5.309663E+05  4.565680E+05  2.845248E-09  2.714076E-09
       245  12 -3.228013E+05 -1.320404E+06 -3.054009E+05  6.453555E+05 -1.067129E-09 -4.722315E-09
       245  13 -1.175642E+04  2.825868E+04 -1.900208E+04  6.524043E+05 -1.614007E-09  2.908864E-09
       245  14  2.391756E+03  3.131382E+04 -1.163379E+04  4.608108E+05  4.831058E-09  1.431659E-11
       245  15  6.308966E+03  2.961165E+04 -1.117853E+04  6.523399E+05 -4.782390E-10  4.557075E-09
       245  16  8.127512E+05  3.351240E+06  7.874359E+05  6.538133E+05  4.913179E-10 -2.222161E-09
       245  17  5.713425E+05  2.360413E+06  5.073589E+05  4.650626E+05  5.732510E-10  1.374338E-10
       245  18  3.352981E+05  1.381338E+06  2.829344E+05  6.593366E+05 -1.987416E-10  4.321481E-09
       245  19 -8.370689E+05 -3.284662E+06 -8.262098E+05  6.509921E+05  3.664913E+04  1.151243E+05
       245  20 -5.669158E+05 -2.292737E+06 -5.309468E+05  4.565695E+05  1.000522E+05  1.886358E+04
       245  21 -3.227945E+05 -1.320397E+06 -3.053807E+05  6.453512E+05  6.928782E+04 -7.724203E+04
       245  22 -1.175499E+04  2.825912E+04 -1.899946E+04  6.524046E+05  3.623838E+04  9.118549E+03
       245  23  2.402487E+03  3.131651E+04 -1.161500E+04  4.608110E+05  9.995585E+04  2.831061E+03
       245  24  6.314180E+03  2.961296E+04 -1.116939E+04  6.523397E+05  6.966288E+04 -3.146649E+03
       245  25  8.127551E+05  3.351251E+06  7.874561E+05  6.538105E+05  3.582849E+04 -9.745380E+04
       245  26  5.713533E+05  2.360415E+06  5.073780E+05  4.650615E+05  9.985945E+04 -1.326102E+04
       245  27  3.353047E+05  1.381345E+06  2.829530E+05  6.593406E+05  7.003913E+04  7.110804E+04
       246   1 -1.327343E+05 -5.383159E+05 -1.369078E+05  6.527490E+05 -2.805723E+04  5.375925E+04
       246   2  1.052651E+05  4.470113E+05  7.177347E+04  4.607551E+05  2.245268E+04  6.167420E+04
       246   3  3.396170E+05  1.427471E+06  2.733564E+05  6.558370E+05  7.201507E+04  6.963190E+04
       246   4  5.756786E+03  2.968266E+04 -1.258657E+04  6.532290E+05 -2.831925E+04  4.860720E+03
       246   5  4.439464E+03  3.253266E+04 -1.798770E+04  4.596992E+05  2.220857E+04  1.364539E+04
       246   6 -6.248095E+02  2.944043E+04 -3.107017E+04  6.532602E+05  7.178526E+04  2.246045E+04
       246   7  1.442276E+05  5.979886E+05  1.117241E+05  6.537089E+05 -2.858121E+04 -4.408202E+04
       246   8 -9.639629E+04 -3.817799E+05 -1.077504E+05  4.586438E+05  2.196452E+04 -3.435180E+04
       246   9 -3.409951E+05 -1.366756E+06 -3.356057E+05  6.506862E+05  7.155554E+04 -2.460636E+04
       246  10 -1.327359E+05 -5.383193E+05 -1.369147E+05  6.527502E+05  2.812933E-10  4.543509E-09
       246  11  1.052635E+05  4.470071E+05  7.176538E+04  4.607540E+05  2.613559E-10  3.375696E-09
       246  12  3.396101E+05  1.427464E+06  2.733376E+05  6.558330E+05  9.922854E-10 -3.967793E-09
       246  13  5.755918E+03  2.968242E+04 -1.258813E+04  6.532291E+05 -7.687448E-10  4.720966E-09
       246  14  4.438885E+03  3.253233E+04 -1.798898E+04  4.596990E+05  8.108068E-09  6.970543E-11
       246  15 -6.304760E+02  2.943851E+04 -3.108079E+04  6.532589E+05 -4.348543E-09  4.477882E-09
       246  16  1.442262E+05  5.979863E+05  1.117189E+05  6.537079E+05 -1.352757E-09 -2.112636E-09
       246  17 -9.639713E+04 -3.817813E+05 -1.077535E+05  4.586444E+05  1.872014E-09  3.371071E-10
       246  18 -3.410008E+05 -1.366758E+06 -3.356165E+05  6.506876E+05  1.006438E-09  3.431619E-09
       246  19 -1.327343E+05 -5.383159E+05 -1.369078E+05  6.527490E+05  2.805723E+04 -5.375925E+04
       246  20  1.052651E+05  4.470113E+05  7.177347E+04  4.607551E+05 -2.245268E+04 -6.167420E+04
       246  21  3.396170E+05  1.427471E+06  2.733564E+05  6.558370E+05 -7.201507E+04 -6.963190E+04
       246  22  5.756786E+03  2.968266E+04 -1.258657E+04  6.532290E+05  2.831925E+04 -4.860720E+03
       246  23  4.439464E+03  3.253266E+04 -1.798770E+04  4.596992E+05 -2.220857E+04 -1.364539E+04
       246  24 -6.248095E+02  2.944043E+04 -3.107017E+04  6.532602E+05 -7.178526E+04 -2.246045E+04
       246  25  1.442276E+05  5.979886E+05  1.117241E+05  6.537089E+05  2.858121E+04  4.408202E+04
       246  26 -9.639629E+04 -3.817799E+05 -1.077504E+05  4.586438E+05 -2.196452E+04  3.435180E+04
       246  27 -3.409951E+05 -1.366756E+06 -3.356057E+05  6.506862E+05 -7.155554E+04  2.460636E+04
       247   1  5.412426E+05  2.205887E+06  4.347572E+05  6.762976E+05  1.150952E+05  1.064406E+05
       247   2  7.701731E+05  3.197013E+06  6.351901E+05  4.482326E+05  1.389793E+05  3.083506E+04
       247   3  9.121402E+05  4.177869E+06  8.629711E+05  6.022421E+05  4.792102E+04 -4.461097E+04
       247   4  1.043764E+04  2.336554E+04 -3.859308E+04  6.520747E+05  1.147441E+05  2.763546E+04
       247   5 -6.099289E+02  3.769620E+04 -6.630576E+04  4.611524E+05  1.391473E+05  6.269958E+04
       247   6 -1.180143E+05  2.153518E+04 -1.434614E+05  6.524775E+05  4.833697E+04  9.803865E+04
       247   7 -5.206773E+05 -2.154684E+06 -5.122039E+05  6.279306E+05  1.143983E+05 -5.089717E+04
       247   8 -7.720655E+05 -3.112336E+06 -7.684188E+05  4.739946E+05  1.393173E+05  9.440376E+04
       247   9 -1.149411E+06 -4.119037E+06 -1.151059E+06  7.023589E+05  4.877771E+04  2.397393E+05
       247  10  5.412254E+05  2.205871E+06  4.347112E+05  6.762877E+05 -7.072414E-10  3.142385E-09
       247  11  7.701522E+05  3.197007E+06  6.351520E+05  4.482292E+05  2.044597E-09  1.947256E-09
       247  12  9.121372E+05  4.177867E+06  8.629630E+05  6.022438E+05  1.474456E-09 -1.724465E-09
       247  13  1.042330E+04  2.336119E+04 -3.861924E+04  6.520722E+05  1.725836E-09  4.109184E-09
       247  14 -6.317672E+02  3.768679E+04 -6.634950E+04  4.611454E+05  3.140741E-09  4.249039E-11
       247  15 -1.180194E+05  2.152424E+04 -1.434838E+05  6.524737E+05  1.267949E-09  1.878657E-09
       247  16 -5.206921E+05 -2.154690E+06 -5.122334E+05  6.279353E+05 -1.559714E-09 -1.095343E-09
       247  17 -7.720887E+05 -3.112351E+06 -7.684721E+05  4.739840E+05 -5.951823E-10  7.356706E-10
       247  18 -1.149429E+06 -4.119100E+06 -1.151172E+06  7.023495E+05  8.322960E-10  1.479381E-09
       247  19  5.412426E+05  2.205887E+06  4.347572E+05  6.762976E+05 -1.150952E+05 -1.064406E+05
       247  20  7.701731E+05  3.197013E+06  6.351901E+05  4.482326E+05 -1.389793E+05 -3.083506E+04
       247  21  9.121402E+05  4.177869E+06  8.629711E+05  6.022421E+05 -4.792102E+04  4.461097E+04
       247  22  1.043764E+04  2.336554E+04 -3.859308E+04  6.520747E+05 -1.147441E+05 -2.763546E+04
       247  23 -6.099289E+02  3.769620E+04 -6.630576E+04  4.611524E+05 -1.391473E+05 -6.269958E+04
       247  24 -1.180143E+05  2.153518E+04 -1.434614E+05  6.524775E+05 -4.833697E+04 -9.803865E+04
       247  25 -5.206773E+05 -2.154684E+06 -5.122039E+05  6.279306E+05 -1.143983E+05  5.089717E+04
       247  26 -7.720655E+05 -3.112336E+06 -7.684188E+05  4.739946E+05 -1.393173E+05 -9.440376E+04
       247  27 -1.149411E+06 -4.119037E+06 -1.151059E+06  7.023589E+05 -4.877771E+04 -2.397393E+05
       248   1  3.356280E+06  8.201005E+05  7.988643E+05  3.973560E+05  1.112024E+05 -4.126996E+04
       248   2  2.731384E+06  6.681660E+05  6.008275E+05  2.845461E+05  2.700970E+04 -1.231164E+05
       248   3  2.121768E+06  5.194855E+05  4.587433E+05  4.100374E+05 -5.693124E+04 -1.133398E+05
       248   4 -1.707900E+04 -1.644748E+04 -1.712880E+04  4.081220E+05 -1.190138E+04 -4.109272E+04
       248   5 -1.640870E+04 -2.278273E+03 -8.067680E+03  2.889464E+05 -7.727259E+03 -1.231287E+05
       248   6 -1.608191E+04 -1.312837E+02 -4.215659E+03  4.081374E+05 -3.384819E+03 -1.133583E+05
       248   7 -3.380043E+06 -8.538192E+05 -8.338828E+05  4.188303E+05 -1.343409E+05 -4.091942E+04
       248   8 -2.757171E+06 -6.732309E+05 -6.174266E+05  2.933268E+05 -4.231266E+04 -1.231416E+05
       248   9 -2.149646E+06 -5.200483E+05 -4.674354E+05  4.062425E+05  4.998016E+04 -1.133771E+05
       248  10  3.356267E+06  8.200954E+05  7.988380E+05  3.973597E+05 -6.152578E-10  1.146951E-09
       248  11  2.731380E+06  6.681495E+05  6.007976E+05  2.845488E+05  3.022390E-09 -1.165334E-09
       248  12  2.121761E+06  5.194709E+05  4.587131E+05  4.100322E+05  2.601704E-09  8.675003E-10
       248  13 -1.707960E+04 -1.644933E+04 -1.713224E+04  4.081216E+05  5.426469E-10 -1.897831E-09
       248  14 -1.641284E+04 -2.294569E+03 -8.096280E+03  2.889456E+05  1.286031E-09 -6.041924E-10
       248  15 -1.608537E+04 -1.450851E+02 -4.239827E+03  4.081371E+05 -7.732872E-10  6.756939E-10
       248  16 -3.380063E+06 -8.538259E+05 -8.339200E+05  4.188259E+05 -1.590817E-09 -1.857484E-09
       248  17 -2.757177E+06 -6.732477E+05 -6.174584E+05  2.933226E+05 -3.425766E-09 -6.064019E-10
       248  18 -2.149653E+06 -5.200628E+05 -4.674643E+05  4.062470E+05 -3.012885E-09  2.297153E-10
       248  19  3.356280E+06  8.201005E+05  7.988643E+05  3.973560E+05 -1.112024E+05  4.126996E+04
       248  20  2.731384E+06  6.681660E+05  6.008275E+05  2.845461E+05 -2.700970E+04  1.231164E+05
       248  21  2.121768E+06  5.194855E+05  4.587433E+05  4.100374E+05  5.693124E+04  1.133398E+05
       248  22 -1.707900E+04 -1.644748E+04 -1.712880E+04  4.081220E+05  1.190138E+04  4.109272E+04
       248  23 -1.640870E+04 -2.278273E+03 -8.067680E+03  2.889464E+05  7.727259E+03  1.231287E+05
       248  24 -1.608191E+04 -1.312837E+02 -4.215659E+03  4.081374E+05  3.384819E+03  1.133583E+05
       248  25 -3.380043E+06 -8.538192E+05 -8.338828E+05  4.188303E+05  1.343409E+05  4.091942E+04
       248  26 -2.757171E+06 -6.732309E+05 -6.174266E+05  2.933268E+05  4.231266E+04  1.231416E+05
       248  27 -2.149646E+06 -5.200483E+05 -4.674354E+05  4.062425E+05 -4.998016E+04  1.133771E+05
       249   1  1.630376E+06  3.992792E+05  3.545875E+05  4.091263E+05 -3.034427E+04 -8.511641E+04
       249   2  1.014027E+06  2.504892E+05  2.216639E+05  2.881215E+05 -3.341387E+04 -5.454189E+04
       249   3  3.987289E+05  1.017209E+05  9.076672E+04  4.096140E+05 -3.652256E+04 -1.997721E+04
       249   4 -1.558898E+04 -1.172774E+03 -3.317193E+03  4.090571E+05 -2.852443E+03 -8.511814E+04
       249   5 -1.541442E+04  9.881098E+01 -1.470570E+03  2.877952E+05 -2.099751E+03 -5.452442E+04
       249   6 -1.521174E+04  7.505675E+02 -2.381410E+02  4.090560E+05 -1.389171E+03 -1.993614E+04
       249   7 -1.659017E+06 -4.018039E+05 -3.613812E+05  4.089869E+05  2.456760E+04 -8.511987E+04
       249   8 -1.043861E+06 -2.503611E+05 -2.246644E+05  2.874690E+05  2.916320E+04 -5.450696E+04
       249   9 -4.289895E+05 -1.002305E+05 -9.124884E+04  4.084983E+05  3.372109E+04 -1.989511E+04
       249  10  1.630373E+06  3.992712E+05  3.545721E+05  4.091242E+05  2.599882E-09  5.943229E-10
       249  11  1.014025E+06  2.504857E+05  2.216562E+05  2.881200E+05  1.879407E-09  1.077407E-09
       249  12  3.987274E+05  1.017201E+05  9.076347E+04  4.096134E+05  6.788139E-10  1.031340E-09
       249  13 -1.559093E+04 -1.180556E+03 -3.330822E+03  4.090569E+05 -4.083593E-12  8.645233E-10
       249  14 -1.541523E+04  9.561751E+01 -1.476164E+03  2.877951E+05 -3.558478E-10  1.346747E-09
       249  15 -1.521185E+04  7.501402E+02 -2.388914E+02  4.090560E+05  7.118573E-10 -3.990774E-10
       249  16 -1.659019E+06 -4.018119E+05 -3.613960E+05  4.089886E+05 -2.801194E-09  3.272990E-10
       249  17 -1.043863E+06 -2.503645E+05 -2.246716E+05  2.874703E+05 -1.725702E-09  8.223226E-10
       249  18 -4.289909E+05 -1.002313E+05 -9.125172E+04  4.084988E+05  3.726330E-10 -2.024859E-10
       249  19  1.630376E+06  3.992792E+05  3.545875E+05  4.091263E+05  3.034427E+04  8.511641E+04
       249  20  1.014027E+06  2.504892E+05  2.216639E+05  2.881215E+05  3.341387E+04  5.454189E+04
       249  21  3.987289E+05  1.017209E+05  9.076672E+04  4.096140E+05  3.652256E+04  1.997721E+04
       249  22 -1.558898E+04 -1.172774E+03 -3.317193E+03  4.090571E+05  2.852443E+03  8.511814E+04
       249  23 -1.541442E+04  9.881098E+01 -1.470570E+03  2.877952E+05  2.099751E+03  5.452442E+04
       249  24 -1.521174E+04  7.505675E+02 -2.381410E+02  4.090560E+05  1.389171E+03  1.993614E+04
       249  25 -1.659017E+06 -4.018039E+05 -3.613812E+05  4.089869E+05 -2.456760E+04  8.511987E+04
       249  26 -1.043861E+06 -2.503611E+05 -2.246644E+05  2.874690E+05 -2.916320E+04  5.450696E+04
       249  27 -4.289895E+05 -1.002305E+05 -9.124884E+04  4.084983E+05 -3.372109E+04  1.989511E+04
       250   1 -9.017243E+04 -1.791971E+04 -1.749849E+04  4.090396E+05 -3.644196E+04  1.600447E+03
       250   2 -7.053233E+05 -1.677378E+05 -1.486169E+05  2.874386E+05 -3.363552E+04  3.629425E+04
       250   3 -1.320455E+06 -3.175431E+05 -2.816174E+05  4.083995E+05 -3.080317E+04  6.739865E+04
       250   4 -1.512529E+04  6.375497E+02  2.340759E+02  4.090612E+05 -1.433468E+03  1.643419E+03
       250   5 -1.537756E+04  2.832245E+02  1.239449E+03  2.877884E+05 -2.086216E+03  3.632001E+04
       250   6 -1.537824E+04  5.619226E+02  2.773707E+03  4.090608E+05 -2.710288E+03  6.741037E+04
       250   7  5.992966E+04  1.919506E+04  1.797086E+04  4.090828E+05  3.357923E+04  1.686388E+03
       250   8  6.750171E+05  1.682732E+05  1.510711E+05  2.881385E+05  2.949772E+04  3.634579E+04
       250   9  1.291299E+06  3.185541E+05  2.870654E+05  4.097227E+05  2.544099E+04  6.742214E+04
       250  10 -9.017386E+04 -1.792007E+04 -1.750099E+04  4.090396E+05  1.321643E-09  2.461250E-10
       250  11 -7.053248E+05 -1.677395E+05 -1.486215E+05  2.874395E+05  2.356777E-09 -1.309043E-09
       250  12 -1.320457E+06 -3.175483E+05 -2.816277E+05  4.084012E+05  4.004684E-10 -1.413352E-10
       250  13 -1.512529E+04  6.375462E+02  2.340670E+02  4.090612E+05  5.504240E-10 -5.918139E-10
       250  14 -1.537792E+04  2.818068E+02  1.236962E+03  2.877885E+05  1.193011E-09  2.195533E-10
       250  15 -1.537947E+04  5.570409E+02  2.765153E+03  4.090610E+05  1.395514E-10 -7.072281E-10
       250  16  5.992845E+04  1.919476E+04  1.796873E+04  4.090827E+05  5.934249E-10 -8.573016E-10
       250  17  6.750158E+05  1.682715E+05  1.510670E+05  2.881377E+05  9.298032E-10 -6.530169E-10
       250  18  1.291297E+06  3.185491E+05  2.870556E+05  4.097213E+05 -4.889114E-10  6.030315E-10
       250  19 -9.017243E+04 -1.791971E+04 -1.749849E+04  4.090396E+05  3.644196E+04 -1.600447E+03
       250  20 -7.053233E+05 -1.677378E+05 -1.486169E+05  2.874386E+05  3.363552E+04 -3.629425E+04
       250  21 -1.320455E+06 -3.175431E+05 -2.816174E+05  4.083995E+05  3.080317E+04 -6.739865E+04
       250  22 -1.512529E+04  6.375497E+02  2.340759E+02  4.090612E+05  1.433468E+03 -1.643419E+03
       250  23 -1.537756E+04  2.832245E+02  1.239449E+03  2.877884E+05  2.086216E+03 -3.632001E+04
       250  24 -1.537824E+04  5.619226E+02  2.773707E+03  4.090608E+05  2.710288E+03 -6.741037E+04
       250  25  5.992966E+04  1.919506E+04  1.797086E+04  4.090828E+05 -3.357923E+04 -1.686388E+03
       250  26  6.750171E+05  1.682732E+05  1.510711E+05  2.881385E+05 -2.949772E+04 -3.634579E+04
       250  27  1.291299E+06  3.185541E+05  2.870654E+05  4.097227E+05 -2.544099E+04 -6.742214E+04
       251   1 -1.809637E+06 -4.382819E+05 -3.862050E+05  4.095477E+05 -5.486099E+04  9.496237E+04
       251   2 -2.421028E+06 -5.896100E+05 -5.286091E+05  2.877397E+05  2.171874E+04  1.072278E+05
       251   3 -3.040153E+06 -7.429674E+05 -7.210308E+05  4.047617E+05  9.811490E+04  3.617694E+04
       251   4 -1.448003E+04 -8.727787E+02  3.704507E+03  4.082209E+05 -3.270726E+03  9.496807E+04
       251   5 -1.782183E+04 -1.327658E+03  6.053186E+03  2.888378E+05 -6.416901E+03  1.072078E+05
       251   6 -1.535480E+04  1.007946E+04  1.387038E+04  4.082296E+05 -9.670386E+03  3.627657E+04
       251   7  1.783711E+06  4.363241E+05  3.934316E+05  4.068888E+05  4.846709E+04  9.497351E+04
       251   8  2.390787E+06  5.865635E+05  5.403580E+05  2.899395E+05 -3.466053E+04  1.071879E+05
       251   9  3.017848E+06  7.624592E+05  7.481537E+05  4.117141E+05 -1.179812E+05  3.637488E+04
       251  10 -1.809642E+06 -4.382924E+05 -3.862276E+05  4.095519E+05 -4.290062E-10  2.500867E-10
       251  11 -2.421031E+06 -5.896225E+05 -5.286316E+05  2.877378E+05  1.187972E-09  1.369694E-09
       251  12 -3.040164E+06 -7.429714E+05 -7.210514E+05  4.047589E+05  1.685664E-09  1.659547E-09
       251  13 -1.448246E+04 -8.824666E+02  3.687538E+03  4.082211E+05  1.072004E-09  6.115644E-10
       251  14 -1.782496E+04 -1.340011E+03  6.031508E+03  2.888383E+05 -4.825876E-12  1.244206E-09
       251  15 -1.535526E+04  1.007802E+04  1.386773E+04  4.082299E+05  1.116005E-09 -1.302713E-09
       251  16  1.783706E+06  4.363138E+05  3.934103E+05  4.068851E+05  1.033434E-09  1.072589E-09
       251  17  2.390782E+06  5.865508E+05  5.403341E+05  2.899425E+05 -1.934555E-09  1.108219E-09
       251  18  3.017833E+06  7.624541E+05  7.481251E+05  4.117175E+05 -8.236233E-10 -5.165032E-10
       251  19 -1.809637E+06 -4.382819E+05 -3.862050E+05  4.095477E+05  5.486099E+04 -9.496237E+04
       251  20 -2.421028E+06 -5.896100E+05 -5.286091E+05  2.877397E+05 -2.171874E+04 -1.072278E+05
       251  21 -3.040153E+06 -7.429674E+05 -7.210308E+05  4.047617E+05 -9.811490E+04 -3.617694E+04
       251  22 -1.448003E+04 -8.727787E+02  3.704507E+03  4.082209E+05  3.270726E+03 -9.496807E+04
       251  23 -1.782183E+04 -1.327658E+03  6.053186E+03  2.888378E+05  6.416901E+03 -1.072078E+05
       251  24 -1.535480E+04  1.007946E+04  1.387038E+04  4.082296E+05  9.670386E+03 -3.627657E+04
       251  25  1.783711E+06  4.363241E+05  3.934316E+05  4.068888E+05 -4.846709E+04 -9.497351E+04
       251  26  2.390787E+06  5.865635E+05  5.403580E+05  2.899395E+05  3.466053E+04 -1.071879E+05
       251  27  3.017848E+06  7.624592E+05  7.481537E+05  4.117141E+05  1.179812E+05 -3.637488E+04
       252   1 -9.518485E+05 -3.776162E+06 -9.343809E+05  7.152771E+05 -4.298912E+04 -1.258902E+05
       252   2 -6.676594E+05 -2.673364E+06 -6.092770E+05  5.043819E+05 -1.184686E+05 -2.276672E+04
       252   3 -3.954131E+05 -1.587329E+06 -3.548684E+05  7.204240E+05 -8.520846E+04  8.015345E+04
       252   4  4.847849E+03  6.297489E+04  1.001836E+03  7.272209E+05 -4.246628E+04 -1.352273E+03
       252   5  2.956392E+03  6.373271E+04  2.113961E+03  5.138082E+05 -1.183325E+05 -2.082717E+03
       252   6  7.323702E+03  6.475137E+04  4.984353E+03  7.272157E+05 -8.567486E+04 -3.201228E+03
       252   7  9.604649E+05  3.915644E+06  9.353726E+05  7.392182E+05 -4.194063E+04  1.239574E+05
       252   8  6.730626E+05  2.807831E+06  6.130356E+05  5.232658E+05 -1.181962E+05  1.869182E+04
       252   9  4.098828E+05  1.719409E+06  3.646995E+05  7.340207E+05 -8.614235E+04 -8.677528E+04
       252  10 -9.518547E+05 -3.776180E+06 -9.344143E+05  7.152727E+05 -1.238397E-09 -4.536174E-09
       252  11 -6.676746E+05 -2.673368E+06 -6.093043E+05  5.043797E+05 -8.846311E-10 -1.984766E-09
       252  12 -3.954226E+05 -1.587338E+06 -3.548942E+05  7.204295E+05 -4.938259E-12  1.221231E-09
       252  13  4.845912E+03  6.297440E+04  9.984443E+02  7.272209E+05 -2.481991E-09 -1.188878E-11
       252  14  2.941354E+03  6.372895E+04  2.087640E+03  5.138080E+05  2.761234E-09 -4.313541E-09
       252  15  7.315817E+03  6.474938E+04  4.970542E+03  7.272155E+05  2.743960E-09  8.005956E-09
       252  16  9.604589E+05  3.915627E+06  9.353406E+05  7.392223E+05 -1.495738E-09 -8.874018E-11
       252  17  6.730475E+05  2.807827E+06  6.130087E+05  5.232676E+05 -3.547307E-09 -2.724895E-09
       252  18  4.098729E+05  1.719399E+06  3.646714E+05  7.340147E+05  2.444690E-09  1.486753E-09
       252  19 -9.518485E+05 -3.776162E+06 -9.343809E+05  7.152771E+05  4.298912E+04  1.258902E+05
       252  20 -6.676594E+05 -2.673364E+06 -6.092770E+05  5.043819E+05  1.184686E+05  2.276672E+04
       252  21 -3.954131E+05 -1.587329E+06 -3.548684E+05  7.204240E+05  8.520846E+04 -8.015345E+04
       252  22  4.847849E+03  6.297489E+04  1.001836E+03  7.272209E+05  4.246628E+04  1.352273E+03
       252  23  2.956392E+03  6.373271E+04  2.113961E+03  5.138082E+05  1.183325E+05  2.082717E+03
       252  24  7.323702E+03  6.475137E+04  4.984353E+03  7.272157E+05  8.567486E+04  3.201228E+03
       252  25  9.604649E+05  3.915644E+06  9.353726E+05  7.392182E+05  4.194063E+04 -1.239574E+05
       252  26  6.730626E+05  2.807831E+06  6.130356E+05  5.232658E+05  1.181962E+05 -1.869182E+04
       252  27  4.098828E+05  1.719409E+06  3.646995E+05  7.340207E+05  8.614235E+04  8.677528E+04
       253   1 -1.828801E+05 -7.159138E+05 -1.642832E+05  7.243783E+05 -3.901101E+04  4.960540E+04
       253   2  8.181612E+04  3.799455E+05  7.898108E+04  5.140553E+05  1.703145E+04  4.318043E+04
       253   3  3.542861E+05  1.474831E+06  3.270493E+05  7.351138E+05  7.234802E+04  3.677059E+04
       253   4  7.459936E+03  6.467183E+04  6.372815E+03  7.282341E+05 -3.933361E+04 -4.562521E+03
       253   5  5.355402E+03  6.567451E+04  1.091906E+04  5.125295E+05  1.672442E+04 -1.032985E+04
       253   6  1.098606E+04  6.446687E+04  1.986035E+04  7.282125E+05  7.205234E+04 -1.607140E+04
       253   7  1.977610E+05  8.458348E+05  1.770030E+05  7.320937E+05 -3.965665E+04 -5.879775E+04
       253   8 -7.111030E+04 -2.484977E+05 -5.713808E+04  5.110044E+05  1.641756E+04 -6.381342E+04
       253   9 -3.324445E+05 -1.344030E+06 -2.874376E+05  7.213233E+05  7.175743E+04 -6.879508E+04
       253  10 -1.828824E+05 -7.159169E+05 -1.642907E+05  7.243798E+05  1.361049E-09 -9.112121E-09
       253  11  8.181531E+04  3.799434E+05  7.897704E+04  5.140548E+05 -4.091110E-09 -3.911762E-09
       253  12  3.542802E+05  1.474829E+06  3.270370E+05  7.351117E+05  2.547530E-09  3.618017E-09
       253  13  7.458269E+03  6.467139E+04  6.369870E+03  7.282340E+05  1.629405E-09 -1.042539E-10
       253  14  5.355073E+03  6.567432E+04  1.091833E+04  5.125297E+05 -5.861444E-09 -5.391585E-09
       253  15  1.098041E+04  6.446520E+04  1.985010E+04  7.282134E+05 -3.508202E-09  8.057059E-09
       253  16  1.977584E+05  8.458307E+05  1.769936E+05  7.320919E+05  2.172048E-09  9.989320E-10
       253  17 -7.111168E+04 -2.485021E+05 -5.714624E+04  5.110052E+05  1.675562E-09 -1.673352E-09
       253  18 -3.324513E+05 -1.344037E+06 -2.874562E+05  7.213273E+05  2.215228E-09 -1.160510E-09
       253  19 -1.828801E+05 -7.159138E+05 -1.642832E+05  7.243783E+05  3.901101E+04 -4.960540E+04
       253  20  8.181612E+04  3.799455E+05  7.898108E+04  5.140553E+05 -1.703145E+04 -4.318043E+04
       253  21  3.542861E+05  1.474831E+06  3.270493E+05  7.351138E+05 -7.234802E+04 -3.677059E+04
       253  22  7.459936E+03  6.467183E+04  6.372815E+03  7.282341E+05  3.933361E+04  4.562521E+03
       253  23  5.355402E+03  6.567451E+04  1.091906E+04  5.125295E+05 -1.672442E+04  1.032985E+04
       253  24  1.098606E+04  6.446687E+04  1.986035E+04  7.282125E+05 -7.205234E+04  1.607140E+04
       253  25  1.977610E+05  8.458348E+05  1.770030E+05  7.320937E+05  3.965665E+04  5.879775E+04
       253  26 -7.111030E+04 -2.484977E+05 -5.713808E+04  5.110044E+05 -1.641756E+04  6.381342E+04
       253  27 -3.324445E+05 -1.344030E+06 -2.874376E+05  7.213233E+05 -7.175743E+04  6.879508E+04
       254   1  5.581238E+05  2.354136E+06  5.207563E+05  7.248880E+05  1.200315E+05  6.693546E+04
       254   2  8.261139E+05  3.430521E+06  7.912325E+05  5.375579E+05  1.474607E+05 -7.511758E+04
       254   3  1.192218E+06  4.551168E+06  1.178241E+06  7.761395E+05  5.068343E+04 -2.170675E+05
       254   4  2.789889E+03  6.927325E+04  2.517935E+04  7.271024E+05  1.195890E+05 -1.998144E+04
       254   5  2.757082E+03  5.686998E+04  4.193055E+04  5.139525E+05  1.476597E+05 -4.215421E+04
       254   6  8.042740E+04  6.709076E+04  9.239421E+04  7.268092E+05  5.123259E+04 -6.396721E+04
       254   7 -5.528849E+05 -2.210688E+06 -4.706804E+05  7.292993E+05  1.191449E+05 -1.065835E+05
       254   8 -8.213667E+05 -3.306197E+06 -7.080761E+05  4.904612E+05  1.478569E+05 -9.366766E+03
       254   9 -1.032814E+06 -4.398652E+06 -9.948114E+05  6.778092E+05  5.176008E+04  8.803807E+04
       254  10  5.581071E+05  2.354127E+06  5.207209E+05  7.248816E+05  7.675931E-10 -7.778205E-09
       254  11  8.260890E+05  3.430509E+06  7.911810E+05  5.375668E+05 -3.250546E-09 -4.950825E-09
       254  12  1.192202E+06  4.551117E+06  1.178148E+06  7.761484E+05 -8.210419E-10  8.715278E-10
       254  13  2.774420E+03  6.926898E+04  2.515171E+04  7.271043E+05  4.018115E-09 -4.632279E-12
       254  14  2.733185E+03  5.686221E+04  4.188621E+04  5.139575E+05 -4.643175E-09 -3.748985E-09
       254  15  8.042348E+04  6.708566E+04  9.238157E+04  7.268119E+05 -7.137992E-10  3.830306E-09
       254  16 -5.529032E+05 -2.210704E+06 -4.707285E+05  7.293096E+05 -4.587154E-10  7.714765E-10
       254  17 -8.213902E+05 -3.306203E+06 -7.081173E+05  4.904623E+05 -3.399481E-09  1.632863E-09
       254  18 -1.032819E+06 -4.398661E+06 -9.948311E+05  6.778055E+05 -3.807309E-10  5.206812E-10
       254  19  5.581238E+05  2.354136E+06  5.207563E+05  7.248880E+05 -1.200315E+05 -6.693546E+04
       254  20  8.261139E+05  3.430521E+06  7.912325E+05  5.375579E+05 -1.474607E+05  7.511758E+04
       254  21  1.192218E+06  4.551168E+06  1.178241E+06  7.761395E+05 -5.068343E+04  2.170675E+05
       254  22  2.789889E+03  6.927325E+04  2.517935E+04  7.271024E+05 -1.195890E+05  1.998144E+04
       254  23  2.757082E+03  5.686998E+04  4.193055E+04  5.139525E+05 -1.476597E+05  4.215421E+04
       254  24  8.042740E+04  6.709076E+04  9.239421E+04  7.268092E+05 -5.123259E+04  6.396721E+04
       254  25 -5.528849E+05 -2.210688E+06 -4.706804E+05  7.292993E+05 -1.191449E+05  1.065835E+05
       254  26 -8.213667E+05 -3.306197E+06 -7.080761E+05  4.904612E+05 -1.478569E+05  9.366766E+03
       254  27 -1.032814E+06 -4.398652E+06 -9.948114E+05  6.778092E+05 -5.176008E+04 -8.803807E+04
       255   1  2.754857E+06  7.037735E+05  6.869337E+05  3.183891E+05  1.033170E+05 -3.530291E+04
       255   2  2.260318E+06  5.744882E+05  5.209054E+05  2.265931E+05  2.986829E+04 -1.061880E+05
       255   3  1.780548E+06  4.564233E+05  4.057317E+05  3.226838E+05 -4.341164E+04 -9.986178E+04
       255   4 -9.914079E+04 -4.189009E+03 -3.449936E+03  3.221645E+05 -2.200530E+03 -3.518863E+04
       255   5 -9.964452E+04 -1.458707E+03 -1.956318E+03  2.282013E+05 -1.230185E+03 -1.062012E+05
       255   6 -9.846516E+04 -3.682397E+02 -1.139402E+03  3.221661E+05 -1.499846E+02 -9.987055E+04
       255   7 -2.945692E+06 -7.127414E+05 -6.943772E+05  3.259229E+05 -1.072362E+05 -3.507548E+04
       255   8 -2.454418E+06 -5.777807E+05 -5.251597E+05  2.298031E+05 -3.221210E+04 -1.062148E+05
       255   9 -1.974167E+06 -4.573919E+05 -4.082132E+05  3.216489E+05  4.298277E+04 -9.987940E+04
       255  10  2.754846E+06  7.037693E+05  6.869114E+05  3.183921E+05 -4.498155E-11  8.685817E-10
       255  11  2.260314E+06  5.744759E+05  5.208825E+05  2.265957E+05  3.110446E-11 -1.877657E-09
       255  12  1.780544E+06  4.564121E+05  4.057094E+05  3.226804E+05 -1.711065E-09 -9.776407E-10
       255  13 -9.914113E+04 -4.190340E+03 -3.452271E+03  3.221645E+05 -5.902009E-10 -3.460447E-09
       255  14 -9.964755E+04 -1.470818E+03 -1.977514E+03  2.282012E+05 -1.149296E-09 -2.459937E-09
       255  15 -9.846783E+04 -3.789497E+02 -1.158144E+03  3.221661E+05  6.701756E-10 -3.813015E-10
       255  16 -2.945705E+06 -7.127459E+05 -6.944012E+05  3.259199E+05 -2.342208E-09 -2.348054E-09
       255  17 -2.454422E+06 -5.777931E+05 -5.251828E+05  2.298003E+05 -1.179328E-10 -2.055714E-10
       255  18 -1.974172E+06 -4.574031E+05 -4.082355E+05  3.216524E+05  6.233069E-10  4.696562E-11
       255  19  2.754857E+06  7.037735E+05  6.869337E+05  3.183891E+05 -1.033170E+05  3.530291E+04
       255  20  2.260318E+06  5.744882E+05  5.209054E+05  2.265931E+05 -2.986829E+04  1.061880E+05
       255  21  1.780548E+06  4.564233E+05  4.057317E+05  3.226838E+05  4.341164E+04  9.986178E+04
       255  22 -9.914079E+04 -4.189009E+03 -3.449936E+03  3.221645E+05  2.200530E+03  3.518863E+04
       255  23 -9.964452E+04 -1.458707E+03 -1.956318E+03  2.282013E+05  1.230185E+03  1.062012E+05
       255  24 -9.846516E+04 -3.682397E+02 -1.139402E+03  3.221661E+05  1.499846E+02  9.987055E+04
       255  25 -2.945692E+06 -7.127414E+05 -6.943772E+05  3.259229E+05  1.072362E+05  3.507548E+04
       255  26 -2.454418E+06 -5.777807E+05 -5.251597E+05  2.298031E+05  3.221210E+04  1.062148E+05
       255  27 -1.974167E+06 -4.573919E+05 -4.082132E+05  3.216489E+05 -4.298277E+04  9.987940E+04
       256   1  1.392065E+06  3.623211E+05  3.229641E+05  3.233297E+05 -2.132014E+04 -7.718772E+04
       256   2  9.053554E+05  2.442760E+05  2.162947E+05  2.276456E+05 -2.395615E+04 -5.332343E+04
       256   3  4.195073E+05  1.267328E+05  1.114797E+05  3.234422E+05 -2.662337E+04 -2.607496E+04
       256   4 -9.853536E+04 -3.880391E+02 -1.158972E+03  3.229595E+05  8.201924E-01 -7.718803E+04
       256   5 -9.842455E+04  1.182022E+02 -1.212819E+03  2.272092E+05  6.097510E+02 -5.330849E+04
       256   6 -9.824504E+04  5.754579E+02 -1.657713E+03  3.229590E+05  1.185384E+03 -2.604141E+04
       256   7 -1.587055E+06 -3.632442E+05 -3.254134E+05  3.225893E+05  2.127135E+04 -7.718837E+04
       256   8 -1.101259E+06 -2.441059E+05 -2.187780E+05  2.267733E+05  2.513650E+04 -5.329357E+04
       256   9 -6.157448E+05 -1.255993E+05 -1.148084E+05  3.224762E+05  2.897125E+04 -2.600788E+04
       256  10  1.392063E+06  3.623146E+05  3.229521E+05  3.233284E+05 -9.009218E-10  1.268498E-10
       256  11  9.053540E+05  2.442728E+05  2.162883E+05  2.276445E+05 -6.415523E-10 -1.340316E-09
       256  12  4.195064E+05  1.267318E+05  1.114771E+05  3.234416E+05  8.394409E-10  1.488414E-11
       256  13 -9.853696E+04 -3.944366E+02 -1.170167E+03  3.229595E+05  1.619610E-09  5.195975E-11
       256  14 -9.842531E+04  1.151506E+02 -1.218160E+03  2.272093E+05 -1.509853E-09 -3.737497E-10
       256  15 -9.824522E+04  5.747293E+02 -1.658990E+03  3.229591E+05  6.409989E-10 -4.909880E-10
       256  16 -1.587057E+06 -3.632508E+05 -3.254255E+05  3.225906E+05  1.430549E-09 -2.092373E-10
       256  17 -1.101260E+06 -2.441091E+05 -2.187846E+05  2.267743E+05  1.006807E-09 -1.200029E-10
       256  18 -6.157459E+05 -1.256002E+05 -1.148112E+05  3.224768E+05 -1.194045E-09  6.394607E-10
       256  19  1.392065E+06  3.623211E+05  3.229641E+05  3.233297E+05  2.132014E+04  7.718772E+04
       256  20  9.053554E+05  2.442760E+05  2.162947E+05  2.276456E+05  2.395615E+04  5.332343E+04
       256  21  4.195073E+05  1.267328E+05  1.114797E+05  3.234422E+05  2.662337E+04  2.607496E+04
       256  22 -9.853536E+04 -3.880391E+02 -1.158972E+03  3.229595E+05 -8.201924E-01  7.718803E+04
       256  23 -9.842455E+04  1.182022E+02 -1.212819E+03  2.272092E+05 -6.097510E+02  5.330849E+04
       256  24 -9.824504E+04  5.754579E+02 -1.657713E+03  3.229590E+05 -1.185384E+03  2.604141E+04
       256  25 -1.587055E+06 -3.632442E+05 -3.254134E+05  3.225893E+05 -2.127135E+04  7.718837E+04
       256  26 -1.101259E+06 -2.441059E+05 -2.187780E+05  2.267733E+05 -2.513650E+04  5.329357E+04
       256  27 -6.157448E+05 -1.255993E+05 -1.148084E+05  3.224762E+05 -2.897125E+04  2.600788E+04
       257   1  3.313002E+04  3.246785E+04  2.514660E+04  3.227702E+05 -2.610518E+04 -9.033731E+03
       257   2 -4.522772E+05 -8.585097E+04 -8.062083E+04  2.270529E+05 -2.184133E+04  1.841479E+04
       257   3 -9.386597E+05 -2.057300E+05 -1.896525E+05  3.228994E+05 -1.756798E+04  4.325991E+04
       257   4 -9.837232E+04  7.169705E+02 -2.106543E+03  3.229714E+05  1.483587E+03 -8.997367E+03
       257   5 -9.804640E+04  4.304402E+02 -3.559766E+03  2.271937E+05  3.241256E+03  1.844247E+04
       257   6 -9.847499E+04 -9.644034E+02 -6.525909E+03  3.229732E+05  5.011636E+03  4.328042E+04
       257   7 -2.298566E+05 -3.103460E+04 -2.935777E+04  3.231727E+05  2.906661E+04 -8.960981E+03
       257   8  2.563035E+05  8.670386E+04  7.349614E+04  2.273346E+05  2.833797E+04  1.847015E+04
       257   9  7.423730E+05  2.037545E+05  1.765602E+05  3.230467E+05  2.762145E+04  4.330092E+04
       257  10  3.312927E+04  3.246758E+04  2.514517E+04  3.227700E+05  1.646373E-09 -1.529936E-10
       257  11 -4.522778E+05 -8.585146E+04 -8.062236E+04  2.270532E+05 -4.398400E-10 -1.181703E-09
       257  12 -9.386605E+05 -2.057321E+05 -1.896566E+05  3.229000E+05  1.124971E-09 -2.027138E-09
       257  13 -9.837235E+04  7.168830E+02 -2.106699E+03  3.229715E+05 -5.403595E-10 -4.088565E-10
       257  14 -9.804650E+04  4.300722E+02 -3.560425E+03  2.271937E+05  1.936131E-10 -1.137095E-09
       257  15 -9.847552E+04 -9.664214E+02 -6.529475E+03  3.229730E+05  7.549994E-10 -1.101905E-09
       257  16 -2.298576E+05 -3.103491E+04 -2.935951E+04  3.231729E+05 -1.734040E-10 -1.079076E-10
       257  17  2.563025E+05  8.670328E+04  7.349399E+04  2.273342E+05  1.771787E-09  1.447938E-09
       257  18  7.423717E+05  2.037523E+05  1.765552E+05  3.230457E+05 -5.129140E-10  2.012487E-10
       257  19  3.313002E+04  3.246785E+04  2.514660E+04  3.227702E+05  2.610518E+04  9.033731E+03
       257  20 -4.522772E+05 -8.585097E+04 -8.062083E+04  2.270529E+05  2.184133E+04 -1.841479E+04
       257  21 -9.386597E+05 -2.057300E+05 -1.896525E+05  3.228994E+05  1.756798E+04 -4.325991E+04
       257  22 -9.837232E+04  7.169705E+02 -2.106543E+03  3.229714E+05 -1.483587E+03  8.997367E+03
       257  23 -9.804640E+04  4.304402E+02 -3.559766E+03  2.271937E+05 -3.241256E+03 -1.844247E+04
       257  24 -9.847499E+04 -9.644034E+02 -6.525909E+03  3.229732E+05 -5.011636E+03 -4.328042E+04
       257  25 -2.298566E+05 -3.103460E+04 -2.935777E+04  3.231727E+05 -2.906661E+04  8.960981E+03
       257  26  2.563035E+05  8.670386E+04  7.349614E+04  2.273346E+05 -2.833797E+04 -1.847015E+04
       257  27  7.423730E+05  2.037545E+05  1.765602E+05  3.230467E+05 -2.762145E+04 -4.330092E+04
       258   1 -1.327032E+06 -2.976009E+05 -2.748460E+05  3.180447E+05 -3.365045E+04  6.463533E+04
       258   2 -1.805100E+06 -4.189037E+05 -3.944426E+05  2.322730E+05  3.224744E+04  7.572929E+04
       258   3 -2.298904E+06 -5.736783E+05 -5.652064E+05  3.352763E+05  9.806896E+04  2.590581E+04
       258   4 -9.976692E+04  1.402053E+03 -8.183276E+03  3.223492E+05  6.121039E+03  6.466174E+04
       258   5 -9.712715E+04 -8.897323E+02 -1.428464E+04  2.279742E+05  1.369809E+04  7.570861E+04
       258   6 -1.002591E+05 -2.645003E+04 -3.095656E+04  3.223508E+05  2.125199E+04  2.591137E+04
       258   7  1.128917E+06  3.003061E+05  2.583954E+05  3.266615E+05  4.597023E+04  6.468866E+04
       258   8  1.613573E+06  4.169266E+05  3.656924E+05  2.236627E+05 -4.901893E+03  7.568824E+04
       258   9  2.102822E+06  5.204263E+05  5.029659E+05  3.093783E+05 -5.583711E+04  2.592018E+04
       258  10 -1.327035E+06 -2.976057E+05 -2.748560E+05  3.180465E+05  7.415958E-10 -1.511651E-09
       258  11 -1.805103E+06 -4.189101E+05 -3.944554E+05  2.322710E+05  2.025055E-09  2.320393E-10
       258  12 -2.298914E+06 -5.736816E+05 -5.652258E+05  3.352742E+05  1.523055E-10  5.231488E-10
       258  13 -9.976809E+04  1.397554E+03 -8.191202E+03  3.223488E+05 -4.336782E-10 -3.058796E-09
       258  14 -9.712889E+04 -8.959368E+02 -1.429576E+04  2.279733E+05 -2.607734E-10  7.500223E-10
       258  15 -1.002597E+05 -2.645087E+04 -3.095867E+04  3.223503E+05  1.018306E-10  5.191599E-11
       258  16  1.128913E+06  3.003010E+05  2.583835E+05  3.266592E+05  9.521681E-10 -1.144227E-10
       258  17  1.613571E+06  4.169205E+05  3.656816E+05  2.236630E+05  2.069202E-09  2.875008E-10
       258  18  2.102819E+06  5.204247E+05  5.029588E+05  3.093795E+05 -1.695142E-09  4.462976E-10
       258  19 -1.327032E+06 -2.976009E+05 -2.748460E+05  3.180447E+05  3.365045E+04 -6.463533E+04
       258  20 -1.805100E+06 -4.189037E+05 -3.944426E+05  2.322730E+05 -3.224744E+04 -7.572929E+04
       258  21 -2.298904E+06 -5.736783E+05 -5.652064E+05  3.352763E+05 -9.806896E+04 -2.590581E+04
       258  22 -9.976692E+04  1.402053E+03 -8.183276E+03  3.223492E+05 -6.121039E+03 -6.466174E+04
       258  23 -9.712715E+04 -8.897323E+02 -1.428464E+04  2.279742E+05 -1.369809E+04 -7.570861E+04
       258  24 -1.002591E+05 -2.645003E+04 -3.095656E+04  3.223508E+05 -2.125199E+04 -2.591137E+04
       258  25  1.128917E+06  3.003061E+05  2.583954E+05  3.266615E+05 -4.597023E+04 -6.468866E+04
       258  26  1.613573E+06  4.169266E+05  3.656924E+05  2.236627E+05  4.901893E+03 -7.568824E+04
       258  27  2.102822E+06  5.204263E+05  5.029659E+05  3.093783E+05  5.583711E+04 -2.592018E+04
       259   1 -7.048645E+05 -2.921795E+06 -6.900176E+05  5.448763E+05 -3.157560E+04 -9.668515E+04
       259   2 -4.906288E+05 -2.082635E+06 -4.411576E+05  3.845940E+05 -8.669517E+04 -2.314216E+04
       259   3 -2.839051E+05 -1.255240E+06 -2.424120E+05  5.493348E+05 -6.097593E+04  5.027926E+04
       259   4  4.856836E+03 -7.255600E+04  4.021563E+03  5.530601E+05 -3.127952E+04 -5.052756E+03
       259   5  1.735410E+03 -7.259469E+04  7.874745E+03  3.905828E+05 -8.662287E+04 -8.817267E+03
       259   6  4.618308E+03 -7.156263E+04  1.549139E+04  5.530619E+05 -6.124530E+04 -1.280440E+04
       259   7  7.139838E+05  2.784130E+06  6.975029E+05  5.612728E+05 -3.098186E+04  8.700062E+04
       259   8  4.938248E+05  1.941220E+06  4.566538E+05  3.965867E+05 -8.655043E+04  5.553667E+03
       259   9  2.930507E+05  1.113439E+06  2.733256E+05  5.567943E+05 -6.151512E+04 -7.600696E+04
       259  10 -7.048681E+05 -2.921805E+06 -6.900371E+05  5.448738E+05  3.041178E-10  1.345618E-09
       259  11 -4.906370E+05 -2.082638E+06 -4.411727E+05  3.845924E+05  1.403437E-09  1.191218E-11
       259  12 -2.839098E+05 -1.255244E+06 -2.424237E+05  5.493373E+05  1.009366E-10  4.852366E-09
       259  13  4.855779E+03 -7.255629E+04  4.019677E+03  5.530600E+05 -9.377725E-10 -7.193775E-09
       259  14  1.727333E+03 -7.259679E+04  7.860502E+03  3.905822E+05  3.226930E-09  3.286227E-09
       259  15  4.614237E+03 -7.156381E+04  1.548404E+04  5.530613E+05  1.172162E-09  8.052732E-09
       259  16  7.139808E+05  2.784122E+06  6.974870E+05  5.612750E+05  3.793625E-11  1.046328E-09
       259  17  4.938167E+05  1.941218E+06  4.566397E+05  3.965870E+05 -1.662132E-10 -6.477476E-09
       259  18  2.930451E+05  1.113431E+06  2.733076E+05  5.567906E+05  1.241185E-09 -5.595454E-10
       259  19 -7.048645E+05 -2.921795E+06 -6.900176E+05  5.448763E+05  3.157560E+04  9.668515E+04
       259  20 -4.906288E+05 -2.082635E+06 -4.411576E+05  3.845940E+05  8.669517E+04  2.314216E+04
       259  21 -2.839051E+05 -1.255240E+06 -2.424120E+05  5.493348E+05  6.097593E+04 -5.027926E+04
       259  22  4.856836E+03 -7.255600E+04  4.021563E+03  5.530601E+05  3.127952E+04  5.052756E+03
       259  23  1.735410E+03 -7.259469E+04  7.874745E+03  3.905828E+05  8.662287E+04  8.817267E+03
       259  24  4.618308E+03 -7.156263E+04  1.549139E+04  5.530619E+05  6.124530E+04  1.280440E+04
       259  25  7.139838E+05  2.784130E+06  6.975029E+05  5.612728E+05  3.098186E+04 -8.700062E+04
       259  26  4.938248E+05  1.941220E+06  4.566538E+05  3.965867E+05  8.655043E+04 -5.553667E+03
       259  27  2.930507E+05  1.113439E+06  2.733256E+05  5.567943E+05  6.151512E+04  7.600696E+04
       260   1 -1.230379E+05 -5.908216E+05 -9.335881E+04  5.496507E+05 -2.593131E+04  2.525186E+04
       260   2  7.912678E+04  2.409057E+05  1.035801E+05  3.915058E+05  1.676888E+04  6.498410E+03
       260   3  2.967144E+05  1.076789E+06  3.158154E+05  5.617584E+05  5.873482E+04 -1.226010E+04
       260   4  3.800343E+03 -7.079385E+04  2.042427E+04  5.538395E+05 -2.611865E+04 -1.615982E+04
       260   5  2.843874E+03 -7.257230E+04  3.568272E+04  3.896096E+05  1.659305E+04 -3.422225E+04
       260   6  1.724324E+04 -7.094693E+04  6.580290E+04  5.537804E+05  5.856824E+04 -5.226550E+04
       260   7  1.306215E+05  4.494910E+05  1.341974E+05  5.580314E+05 -2.630646E+04 -5.760578E+04
       260   8 -7.344462E+04 -3.859545E+05 -3.221429E+04  3.877144E+05  1.641742E+04 -7.492264E+04
       260   9 -2.623144E+05 -1.217446E+06 -1.842827E+05  5.458155E+05  5.840251E+04 -9.219792E+04
       260  10 -1.230388E+05 -5.908225E+05 -9.336127E+04  5.496512E+05  1.054634E-09  1.460781E-09
       260  11  7.912646E+04  2.409056E+05  1.035795E+05  3.915057E+05 -1.380655E-09 -5.193333E-10
       260  12  2.967107E+05  1.076788E+06  3.158086E+05  5.617590E+05  1.977547E-09  5.713574E-09
       260  13  3.799541E+03 -7.079432E+04  2.042250E+04  5.538391E+05  9.057012E-10 -1.181008E-08
       260  14  2.843263E+03 -7.257363E+04  3.568000E+04  3.896101E+05  6.211454E-09  4.127748E-09
       260  15  1.723882E+04 -7.095079E+04  6.579131E+04  5.537829E+05 -2.729091E-09  8.059843E-09
       260  16  1.306198E+05  4.494873E+05  1.341899E+05  5.580302E+05  6.597400E-10  2.452556E-09
       260  17 -7.344642E+04 -3.859607E+05 -3.222536E+04  3.877154E+05  1.055816E-09 -7.294643E-09
       260  18 -2.623204E+05 -1.217456E+06 -1.843051E+05  5.458198E+05  1.919849E-10 -1.611865E-09
       260  19 -1.230379E+05 -5.908216E+05 -9.335881E+04  5.496507E+05  2.593131E+04 -2.525186E+04
       260  20  7.912678E+04  2.409057E+05  1.035801E+05  3.915058E+05 -1.676888E+04 -6.498410E+03
       260  21  2.967144E+05  1.076789E+06  3.158154E+05  5.617584E+05 -5.873482E+04  1.226010E+04
       260  22  3.800343E+03 -7.079385E+04  2.042427E+04  5.538395E+05  2.611865E+04  1.615982E+04
       260  23  2.843874E+03 -7.257230E+04  3.568272E+04  3.896096E+05 -1.659305E+04  3.422225E+04
       260  24  1.724324E+04 -7.094693E+04  6.580290E+04  5.537804E+05 -5.856824E+04  5.226550E+04
       260  25  1.306215E+05  4.494910E+05  1.341974E+05  5.580314E+05  2.630646E+04  5.760578E+04
       260  26 -7.344462E+04 -3.859545E+05 -3.221429E+04  3.877144E+05 -1.641742E+04  7.492264E+04
       260  27 -2.623144E+05 -1.217446E+06 -1.842827E+05  5.458155E+05 -5.840251E+04  9.219792E+04
       261   1  4.321543E+05  1.757084E+06  4.765388E+05  5.213974E+05  9.511193E+04  2.261628E+03
       261   2  6.495517E+05  2.548432E+06  7.288144E+05  4.418951E+05  1.154330E+05 -1.659099E+05
       261   3  1.126983E+06  3.427421E+06  1.155224E+06  6.863952E+05  3.932989E+04 -3.341170E+05
       261   4 -8.501962E+03 -5.629401E+04  8.318262E+04  5.530037E+05  9.486086E+04 -6.416499E+04
       261   5  4.412764E+03 -9.258546E+04  1.419930E+05  3.906505E+05  1.155639E+05 -1.392094E+05
       261   6  2.618634E+05 -5.757387E+04  3.107802E+05  5.522673E+05  3.970298E+04 -2.140520E+05
       261   7 -4.493689E+05 -1.866580E+06 -3.103523E+05  5.845123E+05  9.460259E+04 -1.304003E+05
       261   8 -6.411887E+05 -2.727106E+06 -4.452593E+05  3.396188E+05  1.156906E+05 -1.126199E+05
       261   9 -6.040741E+05 -3.531446E+06 -5.344764E+05  4.188801E+05  4.002580E+04 -9.465348E+04
       261  10  4.321446E+05  1.757082E+06  4.765218E+05  5.213972E+05  1.301723E-09  2.098746E-09
       261  11  6.495300E+05  2.548399E+06  7.287378E+05  4.419105E+05 -2.225820E-11 -9.685103E-10
       261  12  1.126952E+06  3.427302E+06  1.155013E+06  6.864058E+05  3.583545E-10  1.610927E-09
       261  13 -8.512737E+03 -5.630086E+04  8.315794E+04  5.530086E+05  3.093135E-09 -1.036545E-08
       261  14  4.393207E+03 -9.260987E+04  1.419314E+05  3.906635E+05  2.137282E-09  2.739930E-09
       261  15  2.618494E+05 -5.762350E+04  3.106911E+05  5.522741E+05  2.487346E-10  3.438534E-09
       261  16 -4.493831E+05 -1.866601E+06 -3.104012E+05  5.845223E+05 -5.555932E-10  1.411974E-09
       261  17 -6.412065E+05 -2.727123E+06 -4.453085E+05  3.396293E+05 -6.105592E-10 -4.148840E-09
       261  18 -6.040782E+05 -3.531457E+06 -5.344963E+05  4.188832E+05  5.475006E-10  1.549033E-10
       261  19  4.321543E+05  1.757084E+06  4.765388E+05  5.213974E+05 -9.511193E+04 -2.261628E+03
       261  20  6.495517E+05  2.548432E+06  7.288144E+05  4.418951E+05 -1.154330E+05  1.659099E+05
       261  21  1.126983E+06  3.427421E+06  1.155224E+06  6.863952E+05 -3.932989E+04  3.341170E+05
       261  22 -8.501962E+03 -5.629401E+04  8.318262E+04  5.530037E+05 -9.486086E+04  6.416499E+04
       261  23  4.412764E+03 -9.258546E+04  1.419930E+05  3.906505E+05 -1.155639E+05  1.392094E+05
       261  24  2.618634E+05 -5.757387E+04  3.107802E+05  5.522673E+05 -3.970298E+04  2.140520E+05
       261  25 -4.493689E+05 -1.866580E+06 -3.103523E+05  5.845123E+05 -9.460259E+04  1.304003E+05
       261  26 -6.411887E+05 -2.727106E+06 -4.452593E+05  3.396188E+05 -1.156906E+05  1.126199E+05
       261  27 -6.040741E+05 -3.531446E+06 -5.344764E+05  4.188801E+05 -4.002580E+04  9.465348E+04
       262   1  4.362130E+06  1.086433E+06  1.051247E+06  5.348378E+05  1.305996E+05 -5.548717E+04
       262   2  3.515373E+06  9.032387E+05  7.979742E+05  3.884455E+05  2.406488E+04 -1.662181E+05
       262   3  2.682994E+06  7.041266E+05  6.104999E+05  5.659411E+05 -8.232700E+04 -1.530251E+05
       262   4 -2.024415E+05 -4.489720E+04 -5.236094E+04  5.545826E+05 -3.580201E+04 -5.557865E+04
       262   5 -1.980223E+05 -2.436433E+03 -2.460409E+04  3.925477E+05 -2.269076E+04 -1.663579E+05
       262   6 -2.006063E+05  3.365101E+03 -1.383499E+04  5.545316E+05 -9.583717E+03 -1.528755E+05
       262   7 -4.747995E+06 -1.177734E+06 -1.157361E+06  5.741726E+05 -2.009898E+05 -5.568146E+04
       262   8 -3.898584E+06 -9.090397E+05 -8.480290E+05  3.966169E+05 -6.917078E+04 -1.664988E+05
       262   9 -3.076413E+06 -6.979423E+05 -6.386441E+05  5.431670E+05  6.282738E+04 -1.527282E+05
       262  10  4.362111E+06  1.086425E+06  1.051209E+06  5.348437E+05 -9.293882E-11 -3.690631E-10
       262  11  3.515365E+06  9.032089E+05  7.979212E+05  3.884487E+05 -1.008831E-10 -3.334725E-09
       262  12  2.682981E+06  7.040997E+05  6.104433E+05  5.659310E+05  3.262659E-09 -5.191092E-09
       262  13 -2.024437E+05 -4.490086E+04 -5.236914E+04  5.545809E+05 -8.168356E-11 -1.485773E-10
       262  14 -1.980303E+05 -2.466284E+03 -2.465705E+04  3.925447E+05 -5.977915E-10 -1.688950E-09
       262  15 -2.006126E+05  3.339984E+03 -1.387907E+04  5.545304E+05 -1.084000E-09 -1.513246E-09
       262  16 -4.748039E+06 -1.177748E+06 -1.157443E+06  5.741636E+05 -6.594488E-10  2.361047E-10
       262  17 -3.898597E+06 -9.090708E+05 -8.480901E+05  3.966076E+05  2.395471E-09 -3.212282E-09
       262  18 -3.076423E+06 -6.979684E+05 -6.386955E+05  5.431748E+05 -2.600697E-09 -8.207239E-09
       262  19  4.362130E+06  1.086433E+06  1.051247E+06  5.348378E+05 -1.305996E+05  5.548717E+04
       262  20  3.515373E+06  9.032387E+05  7.979742E+05  3.884455E+05 -2.406488E+04  1.662181E+05
       262  21  2.682994E+06  7.041266E+05  6.104999E+05  5.659411E+05  8.232700E+04  1.530251E+05
       262  22 -2.024415E+05 -4.489720E+04 -5.236094E+04  5.545826E+05  3.580201E+04  5.557865E+04
       262  23 -1.980223E+05 -2.436433E+03 -2.460409E+04  3.925477E+05  2.269076E+04  1.663579E+05
       262  24 -2.006063E+05  3.365101E+03 -1.383499E+04  5.545316E+05  9.583717E+03  1.528755E+05
       262  25 -4.747995E+06 -1.177734E+06 -1.157361E+06  5.741726E+05  2.009898E+05  5.568146E+04
       262  26 -3.898584E+06 -9.090397E+05 -8.480290E+05  3.966169E+05  6.917078E+04  1.664988E+05
       262  27 -3.076413E+06 -6.979423E+05 -6.386441E+05  5.431670E+05 -6.282738E+04  1.527282E+05
       263   1  2.015450E+06  5.384026E+05  4.701907E+05  5.598290E+05 -4.527808E+04 -1.145996E+05
       263   2  1.177847E+06  3.366884E+05  2.917086E+05  3.939577E+05 -4.732227E+04 -7.297748E+04
       263   3  3.396962E+05  1.353493E+05  1.142105E+05  5.579943E+05 -4.945382E+04 -2.595399E+04
       263   4 -1.987655E+05 -2.373312E+02 -1.122138E+04  5.558649E+05 -7.807890E+03 -1.145084E+05
       263   5 -1.973728E+05  2.184080E+03 -6.387400E+03  3.908823E+05 -4.689681E+03 -7.283833E+04
       263   6 -1.980796E+05  4.125506E+03 -4.131751E+03  5.558524E+05 -1.661447E+03 -2.575894E+04
       263   7 -2.408390E+06 -5.392015E+05 -4.929218E+05  5.519095E+05  2.953076E+04 -1.144174E+05
       263   8 -1.570816E+06 -3.324443E+05 -3.045892E+05  3.878117E+05  3.784987E+04 -7.269943E+04
       263   9 -7.355801E+05 -1.271165E+05 -1.224832E+05  5.537121E+05  4.609004E+04 -2.556412E+04
       263  10  2.015444E+06  5.383880E+05  4.701622E+05  5.598249E+05 -5.299178E-09 -6.883207E-09
       263  11  1.177843E+06  3.366821E+05  2.916944E+05  3.939550E+05 -2.422974E-09  2.422015E-09
       263  12  3.396934E+05  1.353479E+05  1.142047E+05  5.579933E+05 -2.687830E-09  4.661062E-09
       263  13 -1.987691E+05 -2.514254E+02 -1.124613E+04  5.558642E+05  1.582002E-11 -5.345444E-09
       263  14 -1.973742E+05  2.178377E+03 -6.397410E+03  3.908820E+05 -3.603313E-09 -5.804645E-10
       263  15 -1.980798E+05  4.124793E+03 -4.133003E+03  5.558524E+05  1.839726E-09 -2.793206E-09
       263  16 -2.408395E+06 -5.392158E+05 -4.929481E+05  5.519122E+05  4.143968E-09 -2.332198E-09
       263  17 -1.570819E+06 -3.324504E+05 -3.046018E+05  3.878139E+05  4.404294E-09  1.526821E-09
       263  18 -7.355826E+05 -1.271177E+05 -1.224884E+05  5.537130E+05  3.163626E-09  1.531484E-09
       263  19  2.015450E+06  5.384026E+05  4.701907E+05  5.598290E+05  4.527808E+04  1.145996E+05
       263  20  1.177847E+06  3.366884E+05  2.917086E+05  3.939577E+05  4.732227E+04  7.297748E+04
       263  21  3.396962E+05  1.353493E+05  1.142105E+05  5.579943E+05  4.945382E+04  2.595399E+04
       263  22 -1.987655E+05 -2.373312E+02 -1.122138E+04  5.558649E+05  7.807890E+03  1.145084E+05
       263  23 -1.973728E+05  2.184080E+03 -6.387400E+03  3.908823E+05  4.689681E+03  7.283833E+04
       263  24 -1.980796E+05  4.125506E+03 -4.131751E+03  5.558524E+05  1.661447E+03  2.575894E+04
       263  25 -2.408390E+06 -5.392015E+05 -4.929218E+05  5.519095E+05 -2.953076E+04  1.144174E+05
       263  26 -1.570816E+06 -3.324443E+05 -3.045892E+05  3.878117E+05 -3.784987E+04  7.269943E+04
       263  27 -7.355801E+05 -1.271165E+05 -1.224832E+05  5.537121E+05 -4.609004E+04  2.556412E+04
       264   1 -3.255728E+05 -2.743406E+04 -3.329720E+04  5.551933E+05 -4.876411E+04  3.409940E+03
       264   2 -1.161151E+06 -2.323368E+05 -2.130248E+05  3.885741E+05 -4.239572E+04  5.063976E+04
       264   3 -1.998925E+06 -4.372906E+05 -3.975076E+05  5.519733E+05 -3.596916E+04  9.294999E+04
       264   4 -1.980043E+05  4.020601E+03 -3.656369E+03  5.558610E+05 -1.131147E+03  3.607666E+03
       264   5 -1.972282E+05  2.496263E+03 -3.599696E+03  3.908713E+05  4.948095E+02  5.079322E+04
       264   6 -1.984854E+05  1.787771E+03 -4.979602E+03  5.558669E+05  2.187430E+03  9.306518E+04
       264   7 -7.041584E+04  3.547534E+04  2.599190E+04  5.565288E+05  4.651154E+04  3.805471E+03
       264   8  7.675708E+05  2.372687E+05  2.057768E+05  3.931711E+05  4.345115E+04  5.094686E+04
       264   9  1.605002E+06  4.406511E+05  3.873589E+05  5.597680E+05  4.045352E+04  9.318064E+04
       264  10 -3.255754E+05 -2.743472E+04 -3.330169E+04  5.551934E+05 -2.503015E-09  7.037360E-09
       264  11 -1.161153E+06 -2.323400E+05 -2.130330E+05  3.885759E+05  2.097201E-10  4.865898E-09
       264  12 -1.998929E+06 -4.373002E+05 -3.975262E+05  5.519760E+05  5.554961E-09 -2.206368E-09
       264  13 -1.980043E+05  4.020587E+03 -3.656396E+03  5.558610E+05  1.226889E-09 -3.652998E-09
       264  14 -1.972289E+05  2.493493E+03 -3.604544E+03  3.908713E+05 -1.555342E-09  4.284043E-09
       264  15 -1.984877E+05  1.778470E+03 -4.995885E+03  5.558667E+05 -4.492170E-10  5.452545E-09
       264  16 -7.041817E+04  3.547474E+04  2.598780E+04  5.565287E+05  3.422296E-09  3.876384E-09
       264  17  7.675681E+05  2.372654E+05  2.057684E+05  3.931693E+05 -1.221660E-10  5.769749E-09
       264  18  1.604998E+06  4.406414E+05  3.873395E+05  5.597649E+05 -5.221243E-09  2.632982E-09
       264  19 -3.255728E+05 -2.743406E+04 -3.329720E+04  5.551933E+05  4.876411E+04 -3.409940E+03
       264  20 -1.161151E+06 -2.323368E+05 -2.130248E+05  3.885741E+05  4.239572E+04 -5.063976E+04
       264  21 -1.998925E+06 -4.372906E+05 -3.975076E+05  5.519733E+05  3.596916E+04 -9.294999E+04
       264  22 -1.980043E+05  4.020601E+03 -3.656369E+03  5.558610E+05  1.131147E+03 -3.607666E+03
       264  23 -1.972282E+05  2.496263E+03 -3.599696E+03  3.908713E+05 -4.948095E+02 -5.079322E+04
       264  24 -1.984854E+05  1.787771E+03 -4.979602E+03  5.558669E+05 -2.187430E+03 -9.306518E+04
       264  25 -7.041584E+04  3.547534E+04  2.599190E+04  5.565288E+05 -4.651154E+04 -3.805471E+03
       264  26  7.675708E+05  2.372687E+05  2.057768E+05  3.931711E+05 -4.345115E+04 -5.094686E+04
       264  27  1.605002E+06  4.406511E+05  3.873589E+05  5.597680E+05 -4.045352E+04 -9.318064E+04
       265   1 -2.665635E+06 -5.985427E+05 -5.418197E+05  5.470883E+05 -6.743263E+04  1.304263E+05
       265   2 -3.491832E+06 -8.077059E+05 -7.431583E+05  3.909931E+05  4.693987E+04  1.472043E+05
       265   3 -4.337663E+06 -1.048298E+06 -1.026630E+06  5.596431E+05  1.612307E+05  4.989793E+04
       265   4 -1.989366E+05  2.895523E+03 -5.735508E+03  5.546750E+05  2.844264E+03  1.306085E+05
       265   5 -1.991393E+05 -1.099018E+03 -1.010405E+04  3.923625E+05  8.243846E+03  1.470713E+05
       265   6 -2.005687E+05 -1.742181E+04 -2.064261E+04  5.547059E+05  1.372181E+04  4.971876E+04
       265   7  2.273496E+06  6.039325E+05  5.300036E+05  5.622855E+05  7.339761E+04  1.307920E+05
       265   8  3.103707E+06  8.047725E+05  7.222784E+05  3.937314E+05 -3.065612E+04  1.469387E+05
       265   9  3.952269E+06  1.012205E+06  9.841873E+05  5.497249E+05 -1.347728E+05  4.954292E+04
       265  10 -2.665645E+06 -5.985622E+05 -5.418603E+05  5.470954E+05  3.537945E-09 -2.897757E-09
       265  11 -3.491840E+06 -8.077297E+05 -7.432032E+05  3.909876E+05  2.519971E-10  3.118722E-09
       265  12 -4.337691E+06 -1.048308E+06 -1.026684E+06  5.596366E+05  6.245896E-10  8.889740E-10
       265  13 -1.989412E+05  2.877205E+03 -5.767575E+03  5.546747E+05  5.476013E-10  1.088397E-09
       265  14 -1.991452E+05 -1.122260E+03 -1.014482E+04  3.923615E+05 -4.736105E-10  3.506518E-09
       265  15 -2.005696E+05 -1.742451E+04 -2.064761E+04  5.547054E+05  1.500174E-09 -1.920011E-10
       265  16  2.273485E+06  6.039128E+05  5.299614E+05  5.622778E+05 -1.620100E-09  2.430897E-09
       265  17  3.103700E+06  8.047491E+05  7.222360E+05  3.937350E+05 -2.238362E-10  6.422074E-10
       265  18  3.952249E+06  1.012197E+06  9.841487E+05  5.497303E+05 -3.662358E-10 -6.745737E-10
       265  19 -2.665635E+06 -5.985427E+05 -5.418197E+05  5.470883E+05  6.743263E+04 -1.304263E+05
       265  20 -3.491832E+06 -8.077059E+05 -7.431583E+05  3.909931E+05 -4.693987E+04 -1.472043E+05
       265  21 -4.337663E+06 -1.048298E+06 -1.026630E+06  5.596431E+05 -1.612307E+05 -4.989793E+04
       265  22 -1.989366E+05  2.895523E+03 -5.735508E+03  5.546750E+05 -2.844264E+03 -1.306085E+05
       265  23 -1.991393E+05 -1.099018E+03 -1.010405E+04  3.923625E+05 -8.243846E+03 -1.470713E+05
       265  24 -2.005687E+05 -1.742181E+04 -2.064261E+04  5.547059E+05 -1.372181E+04 -4.971876E+04
       265  25  2.273496E+06  6.039325E+05  5.300036E+05  5.622855E+05 -7.339761E+04 -1.307920E+05
       265  26  3.103707E+06  8.047725E+05  7.222784E+05  3.937314E+05  3.065612E+04 -1.469387E+05
       265  27  3.952269E+06  1.012205E+06  9.841873E+05  5.497249E+05  1.347728E+05 -4.954292E+04
       266   1 -7.872840E+05 -3.090713E+06 -7.668098E+05  6.156170E+05 -3.568446E+04 -9.631683E+04
       266   2 -5.571133E+05 -2.139085E+06 -4.945256E+05  4.370673E+05 -9.824324E+04 -1.603016E+04
       266   3 -3.232195E+05 -1.196149E+06 -2.738216E+05  6.280431E+05 -6.904262E+04  6.421627E+04
       266   4  1.820237E+04  1.429494E+05  2.087580E+04  6.293826E+05 -3.544213E+04  7.630564E+03
       266   5  1.292267E+03  1.407118E+05  1.474668E+04  4.446832E+05 -9.817194E+04  1.710348E+02
       266   6  3.428359E+03  1.442303E+05  1.818096E+04  6.294179E+05 -6.929509E+04 -7.453652E+03
       266   7  8.229237E+05  3.386205E+06  8.078430E+05  6.432105E+05 -3.519603E+04  1.121199E+05
       266   8  5.593445E+05  2.425363E+06  5.236932E+05  4.523225E+05 -9.810042E+04  1.643125E+04
       266   9  3.299596E+05  1.486307E+06  3.100949E+05  6.307935E+05 -6.954753E+04 -7.927652E+04
       266  10 -7.872879E+05 -3.090723E+06 -7.668297E+05  6.156142E+05  1.330627E-10 -8.034859E-11
       266  11 -5.571238E+05 -2.139088E+06 -4.945442E+05  4.370660E+05  1.657023E-09  1.313913E-09
       266  12 -3.232257E+05 -1.196155E+06 -2.738383E+05  6.280467E+05 -2.391862E-09 -7.754412E-10
       266  13  1.820100E+04  1.429490E+05  2.087332E+04  6.293828E+05  1.712663E-10  1.252871E-09
       266  14  1.281918E+03  1.407092E+05  1.472857E+04  4.446832E+05  1.635836E-09  4.510300E-09
       266  15  3.423189E+03  1.442290E+05  1.817183E+04  6.294175E+05 -1.186940E-09 -3.603353E-10
       266  16  8.229190E+05  3.386191E+06  8.078172E+05  6.432137E+05  1.356447E-10  5.287510E-11
       266  17  5.593341E+05  2.425360E+06  5.236746E+05  4.523238E+05 -7.544568E-10  7.240042E-09
       266  18  3.299527E+05  1.486299E+06  3.100741E+05  6.307890E+05  6.224516E-10  4.092797E-09
       266  19 -7.872840E+05 -3.090713E+06 -7.668098E+05  6.156170E+05  3.568446E+04  9.631683E+04
       266  20 -5.571133E+05 -2.139085E+06 -4.945256E+05  4.370673E+05  9.824324E+04  1.603016E+04
       266  21 -3.232195E+05 -1.196149E+06 -2.738216E+05  6.280431E+05  6.904262E+04 -6.421627E+04
       266  22  1.820237E+04  1.429494E+05  2.087580E+04  6.293826E+05  3.544213E+04 -7.630564E+03
       266  23  1.292267E+03  1.407118E+05  1.474668E+04  4.446832E+05  9.817194E+04 -1.710348E+02
       266  24  3.428359E+03  1.442303E+05  1.818096E+04  6.294179E+05  6.929509E+04  7.453652E+03
       266  25  8.229237E+05  3.386205E+06  8.078430E+05  6.432105E+05  3.519603E+04 -1.121199E+05
       266  26  5.593445E+05  2.425363E+06  5.236932E+05  4.523225E+05  9.810042E+04 -1.643125E+04
       266  27  3.299596E+05  1.486307E+06  3.100949E+05  6.307935E+05  6.954753E+04  7.927652E+04
       267   1 -1.386884E+05 -4.421685E+05 -1.067718E+05  6.263379E+05 -2.920244E+04  3.600928E+04
       267   2  9.046692E+04  5.035105E+05  1.112097E+05  4.452552E+05  1.935449E+04  1.852917E+04
       267   3  3.336618E+05  1.453472E+06  3.433838E+05  6.374139E+05  6.707067E+04  1.047540E+03
       267   4  4.244805E+03  1.440108E+05  2.146394E+04  6.302637E+05 -2.938164E+04 -1.106780E+04
       267   5  2.586572E+03  1.422477E+05  3.298368E+04  4.436205E+05  1.918923E+04 -2.776288E+04
       267   6  1.489587E+04  1.438062E+05  5.820085E+04  6.302247E+05  6.691629E+04 -4.443374E+04
       267   7  1.471563E+05  7.305167E+05  1.496872E+05  6.341929E+05 -2.956133E+04 -5.818879E+04
       267   8 -8.530124E+04 -2.188881E+05 -4.524203E+04  4.419867E+05  1.902416E+04 -7.402835E+04
       267   9 -3.039827E+05 -1.164250E+06 -2.270773E+05  6.230486E+05  6.676276E+04 -8.982042E+04
       267  10 -1.386897E+05 -4.421701E+05 -1.067758E+05  6.263387E+05 -1.245512E-09  3.214845E-09
       267  11  9.046643E+04  5.035100E+05  1.112083E+05  4.452549E+05 -8.737749E-10 -3.788402E-09
       267  12  3.336570E+05  1.453471E+06  3.433754E+05  6.374138E+05  2.774332E-09 -1.363724E-08
       267  13  4.243846E+03  1.440104E+05  2.146209E+04  6.302635E+05 -7.337487E-11  3.014819E-09
       267  14  2.585969E+03  1.422468E+05  3.298154E+04  4.436210E+05 -5.159454E-10  6.094390E-09
       267  15  1.489053E+04  1.438029E+05  5.818871E+04  6.302271E+05 -7.640088E-10 -5.125642E-10
       267  16  1.471545E+05  7.305129E+05  1.496792E+05  6.341915E+05  6.968620E-10 -3.289989E-09
       267  17 -8.530311E+04 -2.188940E+05 -4.525301E+04  4.419878E+05  3.718648E-09  1.623990E-08
       267  18 -3.039897E+05 -1.164260E+06 -2.271009E+05  6.230534E+05  1.456786E-09  1.668743E-08
       267  19 -1.386884E+05 -4.421685E+05 -1.067718E+05  6.263379E+05  2.920244E+04 -3.600928E+04
       267  20  9.046692E+04  5.035105E+05  1.112097E+05  4.452552E+05 -1.935449E+04 -1.852917E+04
       267  21  3.336618E+05  1.453472E+06  3.433838E+05  6.374139E+05 -6.707067E+04 -1.047540E+03
       267  22  4.244805E+03  1.440108E+05  2.146394E+04  6.302637E+05  2.938164E+04  1.106780E+04
       267  23  2.586572E+03  1.422477E+05  3.298368E+04  4.436205E+05 -1.918923E+04  2.776288E+04
       267  24  1.489587E+04  1.438062E+05  5.820085E+04  6.302247E+05 -6.691629E+04  4.443374E+04
       267  25  1.471563E+05  7.305167E+05  1.496872E+05  6.341929E+05  2.956133E+04  5.818879E+04
       267  26 -8.530124E+04 -2.188881E+05 -4.524203E+04  4.419867E+05 -1.902416E+04  7.402835E+04
       267  27 -3.039827E+05 -1.164250E+06 -2.270773E+05  6.230486E+05 -6.676276E+04  8.982042E+04
       268   1  4.945722E+05  2.222908E+06  5.210882E+05  6.020538E+05  1.084191E+05  2.061819E+04
       268   2  7.372507E+05  3.132190E+06  7.913443E+05  4.886742E+05  1.316885E+05 -1.505078E+05
       268   3  1.210031E+06  4.123540E+06  1.230358E+06  7.439246E+05  4.525653E+04 -3.217942E+05
       268   4 -7.502312E+03  1.565816E+05  7.301909E+04  6.293135E+05  1.081966E+05 -5.496890E+04
       268   5  2.976078E+03  1.240698E+05  1.233014E+05  4.447962E+05  1.318110E+05 -1.200965E+05
       268   6  2.258576E+05  1.548890E+05  2.693114E+05  6.289051E+05  4.552442E+04 -1.851117E+05
       268   7 -5.098527E+05 -1.905735E+06 -3.752823E+05  6.564763E+05  1.079671E+05 -1.303082E+05
       268   8 -7.319029E+05 -2.875631E+06 -5.453005E+05  4.011250E+05  1.319296E+05 -8.982933E+04
       268   9 -7.594111E+05 -3.799369E+06 -6.927922E+05  5.146074E+05  4.574321E+04 -4.929280E+04
       268  10  4.945595E+05  2.222905E+06  5.210653E+05  6.020520E+05  6.640748E-10  1.471898E-08
       268  11  7.372260E+05  3.132161E+06  7.912693E+05  4.886902E+05 -4.588041E-10  9.315683E-09
       268  12  1.210001E+06  4.123428E+06  1.230160E+06  7.439363E+05 -1.897859E-10 -2.531768E-09
       268  13 -7.515703E+03  1.565752E+05  7.299138E+04  6.293183E+05  2.660877E-09  2.483631E-09
       268  14  2.953534E+03  1.240497E+05  1.232416E+05  4.448090E+05 -5.745309E-10  3.186596E-09
       268  15  2.258462E+05  1.548516E+05  2.692431E+05  6.289119E+05 -3.108820E-10 -3.390787E-11
       268  16 -5.098698E+05 -1.905756E+06 -3.753363E+05  6.564877E+05 -2.170904E-10 -1.467755E-08
       268  17 -7.319238E+05 -2.875644E+06 -5.453485E+05  4.011346E+05 -1.383994E-10 -2.653950E-09
       268  18 -7.594140E+05 -3.799372E+06 -6.928007E+05  5.146092E+05  1.336244E-10  3.098440E-09
       268  19  4.945722E+05  2.222908E+06  5.210882E+05  6.020538E+05 -1.084191E+05 -2.061819E+04
       268  20  7.372507E+05  3.132190E+06  7.913443E+05  4.886742E+05 -1.316885E+05  1.505078E+05
       268  21  1.210031E+06  4.123540E+06  1.230358E+06  7.439246E+05 -4.525653E+04  3.217942E+05
       268  22 -7.502312E+03  1.565816E+05  7.301909E+04  6.293135E+05 -1.081966E+05  5.496890E+04
       268  23  2.976078E+03  1.240698E+05  1.233014E+05  4.447962E+05 -1.318110E+05  1.200965E+05
       268  24  2.258576E+05  1.548890E+05  2.693114E+05  6.289051E+05 -4.552442E+04  1.851117E+05
       268  25 -5.098527E+05 -1.905735E+06 -3.752823E+05  6.564763E+05 -1.079671E+05  1.303082E+05
       268  26 -7.319029E+05 -2.875631E+06 -5.453005E+05  4.011250E+05 -1.319296E+05  8.982933E+04
       268  27 -7.594111E+05 -3.799369E+06 -6.927922E+05  5.146074E+05 -4.574321E+04  4.929280E+04
       269   1  3.807938E+06  9.681132E+05  9.452322E+05  4.973553E+05  1.428252E+05 -4.695705E+04
       269   2  3.050595E+06  7.654283E+05  6.969563E+05  3.533731E+05  4.007298E+04 -1.402124E+05
       269   3  2.315140E+06  5.855571E+05  5.214676E+05  4.977543E+05 -6.261754E+04 -1.273380E+05
       269   4 -8.913261E+04  1.917059E+03  2.553133E+03  4.933471E+05  1.840043E+03 -4.710727E+04
       269   5 -9.029862E+04 -8.610395E+02  8.141982E+02  3.491239E+05  1.537920E+03 -1.403331E+05
       269   6 -8.775475E+04  1.528299E+03  1.019718E+03  4.933477E+05  1.172533E+03 -1.271885E+05
       269   7 -3.972337E+06 -9.653790E+05 -9.411428E+05  4.893557E+05 -1.382671E+05 -4.725645E+04
       269   8 -3.222009E+06 -7.678149E+05 -6.959345E+05  3.448898E+05 -3.680512E+04 -1.404537E+05
       269   9 -2.485235E+06 -5.828796E+05 -5.197562E+05  4.889526E+05  6.471968E+04 -1.270395E+05
       269  10  3.807915E+06  9.681054E+05  9.451899E+05  4.973607E+05  1.025916E-09 -1.464940E-09
       269  11  3.050588E+06  7.654068E+05  6.969164E+05  3.533777E+05  1.239724E-10 -1.431665E-09
       269  12  2.315131E+06  5.855386E+05  5.214298E+05  4.977479E+05 -2.221507E-09 -1.996447E-09
       269  13 -8.913321E+04  1.914675E+03  2.548956E+03  4.933471E+05 -1.145346E-09  1.441014E-09
       269  14 -9.030391E+04 -8.821867E+02  7.771870E+02  3.491241E+05  4.800436E-10  6.229300E-10
       269  15 -8.775909E+04  1.510928E+03  9.893167E+02  4.933479E+05 -5.938183E-10 -3.891432E-09
       269  16 -3.972358E+06 -9.653866E+05 -9.411831E+05  4.893504E+05 -2.562760E-09  4.634632E-10
       269  17 -3.222016E+06 -7.678365E+05 -6.959741E+05  3.448857E+05  3.553801E-10 -2.756406E-09
       269  18 -2.485244E+06 -5.828981E+05 -5.197944E+05  4.889592E+05  2.768362E-09 -4.870093E-09
       269  19  3.807938E+06  9.681132E+05  9.452322E+05  4.973553E+05 -1.428252E+05  4.695705E+04
       269  20  3.050595E+06  7.654283E+05  6.969563E+05  3.533731E+05 -4.007298E+04  1.402124E+05
       269  21  2.315140E+06  5.855571E+05  5.214676E+05  4.977543E+05  6.261754E+04  1.273380E+05
       269  22 -8.913261E+04  1.917059E+03  2.553133E+03  4.933471E+05 -1.840043E+03  4.710727E+04
       269  23 -9.029862E+04 -8.610395E+02  8.141982E+02  3.491239E+05 -1.537920E+03  1.403331E+05
       269  24 -8.775475E+04  1.528299E+03  1.019718E+03  4.933477E+05 -1.172533E+03  1.271885E+05
       269  25 -3.972337E+06 -9.653790E+05 -9.411428E+05  4.893557E+05  1.382671E+05  4.725645E+04
       269  26 -3.222009E+06 -7.678149E+05 -6.959345E+05  3.448898E+05  3.680512E+04  1.404537E+05
       269  27 -2.485235E+06 -5.828796E+05 -5.197562E+05  4.889526E+05 -6.471968E+04  1.270395E+05
       270   1  1.719796E+06  4.421385E+05  3.939569E+05  4.984955E+05 -3.274014E+04 -9.349672E+04
       270   2  9.749918E+05  2.604795E+05  2.309772E+05  3.503288E+05 -3.752876E+04 -5.626632E+04
       270   3  2.303163E+05  8.125760E+04  7.127890E+04  4.954418E+05 -4.237631E+04 -1.442912E+04
       270   4 -8.828478E+04  2.226959E+03  7.492442E+02  4.944270E+05  8.659263E+02 -9.340566E+04
       270   5 -8.746937E+04  2.015913E+03  5.861221E+02  3.477709E+05  4.894499E+02 -5.613939E+04
       270   6 -8.781404E+04  3.510043E+03  6.628656E+02  4.944245E+05  4.847874E+01 -1.426074E+04
       270   7 -1.893303E+06 -4.379007E+05 -3.926500E+05  4.903669E+05  3.437559E+04 -9.331488E+04
       270   8 -1.148869E+06 -2.565215E+05 -2.298668E+05  3.452162E+05  3.844353E+04 -5.601265E+04
       270   9 -4.058461E+05 -7.424339E+04 -6.995270E+04  4.934076E+05  4.245178E+04 -1.409244E+04
       270  10  1.719792E+06  4.421288E+05  3.939385E+05  4.984931E+05 -3.505368E-09  2.465593E-09
       270  11  9.749894E+05  2.604757E+05  2.309686E+05  3.503271E+05 -2.045502E-09 -1.596463E-10
       270  12  2.303143E+05  8.125690E+04  7.127514E+04  4.954413E+05 -1.745306E-09  3.423055E-10
       270  13 -8.828712E+04  2.217591E+03  7.328480E+02  4.944271E+05  1.078592E-09 -1.423968E-09
       270  14 -8.747022E+04  2.012529E+03  5.801993E+02  3.477709E+05 -1.764472E-09  1.929177E-09
       270  15 -8.781409E+04  3.509825E+03  6.624835E+02  4.944245E+05  2.369680E-10  1.308484E-09
       270  16 -1.893307E+06 -4.379104E+05 -3.926686E+05  4.903695E+05  3.922658E-09  7.313692E-10
       270  17 -1.148872E+06 -2.565253E+05 -2.298754E+05  3.452180E+05  5.164858E-09 -8.624914E-09
       270  18 -4.058480E+05 -7.424409E+04 -6.995647E+04  4.934080E+05  2.402171E-09 -4.882992E-10
       270  19  1.719796E+06  4.421385E+05  3.939569E+05  4.984955E+05  3.274014E+04  9.349672E+04
       270  20  9.749918E+05  2.604795E+05  2.309772E+05  3.503288E+05  3.752876E+04  5.626632E+04
       270  21  2.303163E+05  8.125760E+04  7.127890E+04  4.954418E+05  4.237631E+04  1.442912E+04
       270  22 -8.828478E+04  2.226959E+03  7.492442E+02  4.944270E+05 -8.659263E+02  9.340566E+04
       270  23 -8.746937E+04  2.015913E+03  5.861221E+02  3.477709E+05 -4.894499E+02  5.613939E+04
       270  24 -8.781404E+04  3.510043E+03  6.628656E+02  4.944245E+05 -4.847874E+01  1.426074E+04
       270  25 -1.893303E+06 -4.379007E+05 -3.926500E+05  4.903669E+05 -3.437559E+04  9.331488E+04
       270  26 -1.148869E+06 -2.565215E+05 -2.298668E+05  3.452162E+05 -3.844353E+04  5.601265E+04
       270  27 -4.058461E+05 -7.424339E+04 -6.995270E+04  4.934076E+05 -4.245178E+04  1.409244E+04
       271   1 -3.609893E+05 -6.333179E+04 -6.022135E+04  4.935515E+05 -4.259215E+04  1.166957E+04
       271   2 -1.104035E+06 -2.455727E+05 -2.199928E+05  3.453022E+05 -3.871669E+04  5.359996E+04
       271   3 -1.848483E+06 -4.268268E+05 -3.825317E+05  4.904024E+05 -3.478372E+04  9.096686E+04
       271   4 -8.781110E+04  3.505153E+03  6.893631E+02  4.944265E+05 -2.018290E+02  1.183814E+04
       271   5 -8.744984E+04  2.046837E+03  7.478588E+02  3.477683E+05 -7.241320E+02  5.372813E+04
       271   6 -8.826193E+04  2.369626E+03  1.108877E+03  4.944286E+05 -1.184224E+03  9.106002E+04
       271   7  1.854406E+05  7.033800E+04  6.160216E+04  4.953018E+05  4.220695E+04  1.200679E+04
       271   8  9.301086E+05  2.495987E+05  2.214323E+05  3.502374E+05  3.732990E+04  5.385648E+04
       271   9  1.674871E+06  4.313605E+05  3.845675E+05  4.984630E+05  3.250952E+04  9.115346E+04
       271  10 -3.609913E+05 -6.333243E+04 -6.022502E+04  4.935519E+05 -5.961127E-09  5.303008E-09
       271  11 -1.104037E+06 -2.455762E+05 -2.200011E+05  3.453038E+05 -3.490298E-10  2.385399E-09
       271  12 -1.848487E+06 -4.268360E+05 -3.825495E+05  4.904050E+05  3.016283E-09  4.927368E-09
       271  13 -8.781114E+04  3.505003E+03  6.890997E+02  4.944265E+05 -5.492896E-10  2.747597E-09
       271  14 -8.745061E+04  2.043737E+03  7.424333E+02  3.477683E+05 -2.048700E-09  5.492650E-09
       271  15 -8.826416E+04  2.360722E+03  1.093293E+03  4.944287E+05 -5.500260E-10 -1.266464E-09
       271  16  1.854386E+05  7.033737E+04  6.159854E+04  4.953014E+05  6.049702E-09  2.494708E-09
       271  17  9.301063E+05  2.495952E+05  2.214242E+05  3.502358E+05  1.829033E-09 -1.660101E-09
       271  18  1.674868E+06  4.313513E+05  3.845499E+05  4.984606E+05 -5.029132E-09 -6.286318E-09
       271  19 -3.609893E+05 -6.333179E+04 -6.022135E+04  4.935515E+05  4.259215E+04 -1.166957E+04
       271  20 -1.104035E+06 -2.455727E+05 -2.199928E+05  3.453022E+05  3.871669E+04 -5.359996E+04
       271  21 -1.848483E+06 -4.268268E+05 -3.825317E+05  4.904024E+05  3.478372E+04 -9.096686E+04
       271  22 -8.781110E+04  3.505153E+03  6.893631E+02  4.944265E+05  2.018290E+02 -1.183814E+04
       271  23 -8.744984E+04  2.046837E+03  7.478588E+02  3.477683E+05  7.241320E+02 -5.372813E+04
       271  24 -8.826193E+04  2.369626E+03  1.108877E+03  4.944286E+05  1.184224E+03 -9.106002E+04
       271  25  1.854406E+05  7.033800E+04  6.160216E+04  4.953018E+05 -4.220695E+04 -1.200679E+04
       271  26  9.301086E+05  2.495987E+05  2.214323E+05  3.502374E+05 -3.732990E+04 -5.385648E+04
       271  27  1.674871E+06  4.313605E+05  3.845675E+05  4.984630E+05 -3.250952E+04 -9.115346E+04
       272   1 -2.440348E+06 -5.719491E+05 -5.095832E+05  4.891829E+05 -6.486827E+04  1.246001E+05
       272   2 -3.177371E+06 -7.567548E+05 -6.852051E+05  3.445518E+05  3.511985E+04  1.383421E+05
       272   3 -3.927499E+06 -9.526140E+05 -9.284892E+05  4.884554E+05  1.350570E+05  4.662075E+04
       272   4 -8.765555E+04  1.531667E+03  1.484607E+03  4.933496E+05 -1.555335E+03  1.247524E+05
       272   5 -9.032826E+04 -7.455658E+02  1.652795E+03  3.491212E+05 -2.367910E+03  1.382224E+05
       272   6 -8.901386E+04  3.530422E+03  4.375427E+03  4.933464E+05 -3.110355E+03  4.646444E+04
       272   7  2.270251E+06  5.746474E+05  5.122370E+05  4.975266E+05  6.199510E+04  1.249052E+05
       272   8  3.005637E+06  7.546179E+05  6.879211E+05  3.537074E+05 -4.004072E+04  1.381027E+05
       272   9  3.763019E+06  9.586000E+05  9.362460E+05  4.982595E+05 -1.421336E+05  4.630672E+04
       272  10 -2.440357E+06 -5.719669E+05 -5.096204E+05  4.891895E+05 -3.123698E-09  3.145014E-09
       272  11 -3.177378E+06 -7.567756E+05 -6.852433E+05  3.445479E+05 -5.836647E-10  2.747085E-10
       272  12 -3.927519E+06 -9.526213E+05 -9.285277E+05  4.884503E+05  1.347818E-09  1.132814E-09
       272  13 -8.765973E+04  1.514955E+03  1.455356E+03  4.933497E+05 -1.116614E-09  4.867378E-09
       272  14 -9.033340E+04 -7.660826E+02  1.616882E+03  3.491215E+05 -1.873745E-09 -1.863714E-09
       272  15 -8.901445E+04  3.528101E+03  4.371351E+03  4.933465E+05  1.223880E-11  1.989775E-09
       272  16  2.270242E+06  5.746296E+05  5.122005E+05  4.975203E+05  3.361717E-09  7.613931E-10
       272  17  3.005630E+06  7.545970E+05  6.878823E+05  3.537118E+05  2.603603E-09  3.197817E-09
       272  18  3.762997E+06  9.585923E+05  9.362042E+05  4.982647E+05 -2.495639E-09 -5.548274E-10
       272  19 -2.440348E+06 -5.719491E+05 -5.095832E+05  4.891829E+05  6.486827E+04 -1.246001E+05
       272  20 -3.177371E+06 -7.567548E+05 -6.852051E+05  3.445518E+05 -3.511985E+04 -1.383421E+05
       272  21 -3.927499E+06 -9.526140E+05 -9.284892E+05  4.884554E+05 -1.350570E+05 -4.662075E+04
       272  22 -8.765555E+04  1.531667E+03  1.484607E+03  4.933496E+05  1.555335E+03 -1.247524E+05
       272  23 -9.032826E+04 -7.455658E+02  1.652795E+03  3.491212E+05  2.367910E+03 -1.382224E+05
       272  24 -8.901386E+04  3.530422E+03  4.375427E+03  4.933464E+05  3.110355E+03 -4.646444E+04
       272  25  2.270251E+06  5.746474E+05  5.122370E+05  4.975266E+05 -6.199510E+04 -1.249052E+05
       272  26  3.005637E+06  7.546179E+05  6.879211E+05  3.537074E+05  4.004072E+04 -1.381027E+05
       272  27  3.763019E+06  9.586000E+05  9.362460E+05  4.982595E+05  1.421336E+05 -4.630672E+04
       273   1 -8.721774E+05 -3.589435E+06 -8.513588E+05  6.983324E+05 -3.873916E+04 -1.084651E+05
       273   2 -6.042961E+05 -2.518351E+06 -5.435273E+05  4.940495E+05 -1.060662E+05 -1.638045E+04
       273   3 -3.410315E+05 -1.458673E+06 -2.970183E+05  7.055968E+05 -7.254932E+04  7.574186E+04
       273   4  1.046543E+04 -4.746384E+04  1.196384E+04  7.075616E+05 -3.853240E+04  4.298925E+03
       273   5  8.000205E+02 -4.885649E+04  8.534966E+03  4.997068E+05 -1.059976E+05  2.394820E+01
       273   6  3.382483E+03 -4.590327E+04  1.098418E+04  7.075753E+05 -7.280005E+04 -4.374412E+03
       273   7  8.921890E+05  3.506022E+06  8.744226E+05  7.168329E+05 -3.832317E+04  1.177074E+05
       273   8  6.054809E+05  2.426336E+06  5.602143E+05  5.053814E+05 -1.059289E+05  1.649310E+04
       273   9  3.476671E+05  1.368753E+06  3.188908E+05  7.095559E+05 -7.305092E+04 -8.467098E+04
       273  10 -8.721822E+05 -3.589448E+06 -8.513838E+05  6.983290E+05 -4.495199E-10 -1.673288E-09
       273  11 -6.043082E+05 -2.518354E+06 -5.435490E+05  4.940482E+05 -2.816124E-11 -3.926131E-09
       273  12 -3.410387E+05 -1.458680E+06 -2.970391E+05  7.056012E+05  1.916221E-10  1.088182E-09
       273  13  1.046383E+04 -4.746426E+04  1.196101E+04  7.075618E+05 -1.226957E-09 -5.376645E-10
       273  14  7.879559E+02 -4.885950E+04  8.513853E+03  4.997068E+05  3.153994E-10 -4.317231E-09
       273  15  3.376787E+03 -4.590472E+04  1.097418E+04  7.075751E+05 -3.488113E-10 -5.930488E-09
       273  16  8.921837E+05  3.506007E+06  8.743940E+05  7.168365E+05 -1.934999E-10  1.046566E-09
       273  17  6.054688E+05  2.426333E+06  5.601927E+05  5.053828E+05 -4.263263E-10 -5.546994E-10
       273  18  3.476595E+05  1.368744E+06  3.188674E+05  7.095509E+05 -3.081178E-10 -4.244150E-10
       273  19 -8.721774E+05 -3.589435E+06 -8.513588E+05  6.983324E+05  3.873916E+04  1.084651E+05
       273  20 -6.042961E+05 -2.518351E+06 -5.435273E+05  4.940495E+05  1.060662E+05  1.638045E+04
       273  21 -3.410315E+05 -1.458673E+06 -2.970183E+05  7.055968E+05  7.254932E+04 -7.574186E+04
       273  22  1.046543E+04 -4.746384E+04  1.196384E+04  7.075616E+05  3.853240E+04 -4.298925E+03
       273  23  8.000205E+02 -4.885649E+04  8.534966E+03  4.997068E+05  1.059976E+05 -2.394820E+01
       273  24  3.382483E+03 -4.590327E+04  1.098418E+04  7.075753E+05  7.280005E+04  4.374412E+03
       273  25  8.921890E+05  3.506022E+06  8.744226E+05  7.168329E+05  3.832317E+04 -1.177074E+05
       273  26  6.054809E+05  2.426336E+06  5.602143E+05  5.053814E+05  1.059289E+05 -1.649310E+04
       273  27  3.476671E+05  1.368753E+06  3.188908E+05  7.095559E+05  7.305092E+04  8.467098E+04
       274   1 -1.336005E+05 -6.103766E+05 -1.106427E+05  7.059329E+05 -2.787685E+04  4.651558E+04
       274   2  1.245990E+05  4.547513E+05  1.285387E+05  4.999701E+05  2.690916E+04  3.532508E+04
       274   3  3.917189E+05  1.522655E+06  3.765891E+05  7.140084E+05  8.053376E+04  2.415319E+04
       274   4  4.019686E+03 -4.615750E+04  1.294150E+04  7.085287E+05 -2.805910E+04 -6.661441E+03
       274   5  2.515742E+03 -4.708146E+04  1.985970E+04  4.985108E+05  2.674742E+04 -1.676942E+04
       274   6  9.819895E+03 -4.647526E+04  3.494695E+04  7.085093E+05  8.038828E+04 -2.684024E+04
       274   7  1.416202E+05  5.183659E+05  1.365170E+05  7.111266E+05 -2.824169E+04 -5.988623E+04
       274   8 -1.195827E+05 -5.486721E+05 -8.882410E+04  4.970525E+05  2.658583E+04 -6.882239E+04
       274   9 -3.722411E+05 -1.613295E+06 -3.068332E+05  7.030212E+05  8.024347E+04 -7.770663E+04
       274  10 -1.336019E+05 -6.103791E+05 -1.106483E+05  7.059339E+05  1.386797E-09 -5.953743E-09
       274  11  1.245979E+05  4.547497E+05  1.285350E+05  4.999693E+05 -7.070491E-10 -5.058890E-09
       274  12  3.917118E+05  1.522652E+06  3.765759E+05  7.140068E+05  1.493283E-09  2.019245E-09
       274  13  4.018829E+03 -4.615776E+04  1.293994E+04  7.085286E+05 -8.698826E-10 -5.447183E-10
       274  14  2.514898E+03 -4.708196E+04  1.985783E+04  4.985112E+05  2.561559E-09 -3.900234E-09
       274  15  9.812759E+03 -4.647777E+04  3.493345E+04  7.085110E+05 -1.129440E-09 -4.867988E-09
       274  16  1.416183E+05  5.183618E+05  1.365088E+05  7.111252E+05 -6.034660E-10  1.878968E-09
       274  17 -1.195847E+05 -5.486774E+05 -8.883435E+04  4.970539E+05  8.903089E-10 -1.540314E-09
       274  18 -3.722497E+05 -1.613304E+06 -3.068568E+05  7.030262E+05  8.938977E-10 -1.609432E-10
       274  19 -1.336005E+05 -6.103766E+05 -1.106427E+05  7.059329E+05  2.787685E+04 -4.651558E+04
       274  20  1.245990E+05  4.547513E+05  1.285387E+05  4.999701E+05 -2.690916E+04 -3.532508E+04
       274  21  3.917189E+05  1.522655E+06  3.765891E+05  7.140084E+05 -8.053376E+04 -2.415319E+04
       274  22  4.019686E+03 -4.615750E+04  1.294150E+04  7.085287E+05  2.805910E+04  6.661441E+03
       274  23  2.515742E+03 -4.708146E+04  1.985970E+04  4.985108E+05 -2.674742E+04  1.676942E+04
       274  24  9.819895E+03 -4.647526E+04  3.494695E+04  7.085093E+05 -8.038828E+04  2.684024E+04
       274  25  1.416202E+05  5.183659E+05  1.365170E+05  7.111266E+05  2.824169E+04  5.988623E+04
       274  26 -1.195827E+05 -5.486721E+05 -8.882410E+04  4.970525E+05 -2.658583E+04  6.882239E+04
       274  27 -3.722411E+05 -1.613295E+06 -3.068332E+05  7.030212E+05 -8.024347E+04  7.770663E+04
       275   1  5.843628E+05  2.382146E+06  5.687720E+05  6.925814E+05  1.272452E+05  5.233747E+04
       275   2  8.498023E+05  3.420223E+06  8.461116E+05  5.267982E+05  1.528906E+05 -1.079900E+05
       275   3  1.264542E+06  4.520734E+06  1.265313E+06  7.755330E+05  5.267810E+04 -2.685850E+05
       275   4 -3.950684E+03 -3.852444E+04  4.392569E+04  7.073423E+05  1.270459E+05 -3.327981E+04
       275   5  5.713286E+02 -5.995728E+04  7.350495E+04  4.999823E+05  1.530103E+05 -7.205093E+04
       275   6  1.338612E+05 -4.070882E+04  1.610631E+05  7.072075E+05  5.282167E+04 -1.108053E+05
       275   7 -5.926464E+05 -2.453695E+06 -4.812419E+05  7.220385E+05  1.268421E+05 -1.185684E+05
       275   8 -8.494747E+05 -3.528871E+06 -6.998503E+05  4.733093E+05  1.531274E+05 -3.630939E+04
       275   9 -9.983113E+05 -4.583167E+06 -9.445885E+05  6.393698E+05  5.293180E+04  4.582738E+04
       275  10  5.843447E+05  2.382139E+06  5.687365E+05  6.925760E+05  7.825039E-10 -4.220660E-09
       275  11  8.497741E+05  3.420204E+06  8.460458E+05  5.268115E+05 -4.587565E-10 -1.205438E-09
       275  12  1.264519E+06  4.520656E+06  1.265173E+06  7.755444E+05 -4.633362E-11  5.670761E-10
       275  13 -3.968320E+03 -3.852997E+04  4.389325E+04  7.073457E+05  1.962809E-09  5.287938E-10
       275  14  5.447829E+02 -5.996916E+04  7.345116E+04  4.999912E+05  1.053318E-09  1.437998E-10
       275  15  1.338549E+05 -4.072276E+04  1.610348E+05  7.072122E+05 -4.395985E-10  1.479549E-09
       275  16 -5.926675E+05 -2.453714E+06 -4.812988E+05  7.220506E+05  1.250048E-10  3.113307E-09
       275  17 -8.495003E+05 -3.528879E+06 -6.998969E+05  4.733138E+05  1.865317E-10 -4.468571E-10
       275  18 -9.983149E+05 -4.583170E+06 -9.445978E+05  6.393679E+05  1.631516E-10 -2.163899E-10
       275  19  5.843628E+05  2.382146E+06  5.687720E+05  6.925814E+05 -1.272452E+05 -5.233747E+04
       275  20  8.498023E+05  3.420223E+06  8.461116E+05  5.267982E+05 -1.528906E+05  1.079900E+05
       275  21  1.264542E+06  4.520734E+06  1.265313E+06  7.755330E+05 -5.267810E+04  2.685850E+05
       275  22 -3.950684E+03 -3.852444E+04  4.392569E+04  7.073423E+05 -1.270459E+05  3.327981E+04
       275  23  5.713286E+02 -5.995728E+04  7.350495E+04  4.999823E+05 -1.530103E+05  7.205093E+04
       275  24  1.338612E+05 -4.070882E+04  1.610631E+05  7.072075E+05 -5.282167E+04  1.108053E+05
       275  25 -5.926464E+05 -2.453695E+06 -4.812419E+05  7.220385E+05 -1.268421E+05  1.185684E+05
       275  26 -8.494747E+05 -3.528871E+06 -6.998503E+05  4.733093E+05 -1.531274E+05  3.630939E+04
       275  27 -9.983113E+05 -4.583167E+06 -9.445885E+05  6.393698E+05 -5.293180E+04 -4.582738E+04
       276   1  2.366089E+06  6.098693E+05  5.975955E+05  3.294472E+05  9.517051E+04 -2.884801E+04
       276   2  1.870238E+06  4.687234E+05  4.319203E+05  2.318771E+05  2.846087E+04 -8.548305E+04
       276   3  1.389688E+06  3.497784E+05  3.152792E+05  3.232367E+05 -3.821988E+04 -7.601089E+04
       276   4 -4.836080E+04  1.071153E+04  1.288315E+04  3.230118E+05  8.858043E+03 -2.890687E+04
       276   5 -5.012369E+04 -1.549335E+02  5.805007E+03  2.285360E+05  5.838270E+03 -8.552755E+04
       276   6 -4.780910E+04  1.928838E+02  3.660064E+03  3.230211E+05  2.793545E+03 -7.595001E+04
       276   7 -2.457481E+06 -5.888690E+05 -5.722208E+05  3.165994E+05 -7.712080E+04 -2.896413E+04
       276   8 -1.967049E+06 -4.692820E+05 -4.205376E+05  2.252037E+05 -1.671532E+04 -8.557190E+04
       276   9 -1.483367E+06 -3.495283E+05 -3.080758E+05  3.228046E+05  4.371341E+04 -7.588906E+04
       276  10  2.366079E+06  6.098660E+05  5.975769E+05  3.294494E+05 -5.371783E-09  2.336974E-09
       276  11  1.870235E+06  4.687153E+05  4.319050E+05  2.318791E+05  3.881721E-10  4.435239E-09
       276  12  1.389685E+06  3.497718E+05  3.152656E+05  3.232344E+05  2.188174E-09  9.816781E-10
       276  13 -4.836111E+04  1.071062E+04  1.288143E+04  3.230120E+05  5.791242E-10 -2.736219E-10
       276  14 -5.012569E+04 -1.627977E+02  5.791196E+03  2.285364E+05 -1.322013E-09 -1.739361E-09
       276  15 -4.781066E+04  1.866875E+02  3.649209E+03  3.230212E+05 -3.341703E-10 -1.852653E-09
       276  16 -2.457488E+06 -5.888715E+05 -5.722336E+05  3.165976E+05  4.753822E-09  6.657174E-10
       276  17 -1.967052E+06 -4.692899E+05 -4.205519E+05  2.252025E+05 -4.540816E-10  5.585870E-09
       276  18 -1.483370E+06 -3.495350E+05 -3.080902E+05  3.228073E+05 -3.310493E-09 -1.482604E-10
       276  19  2.366089E+06  6.098693E+05  5.975955E+05  3.294472E+05 -9.517051E+04  2.884801E+04
       276  20  1.870238E+06  4.687234E+05  4.319203E+05  2.318771E+05 -2.846087E+04  8.548305E+04
       276  21  1.389688E+06  3.497784E+05  3.152792E+05  3.232367E+05  3.821988E+04  7.601089E+04
       276  22 -4.836080E+04  1.071153E+04  1.288315E+04  3.230118E+05 -8.858043E+03  2.890687E+04
       276  23 -5.012369E+04 -1.549335E+02  5.805007E+03  2.285360E+05 -5.838270E+03  8.552755E+04
       276  24 -4.780910E+04  1.928838E+02  3.660064E+03  3.230211E+05 -2.793545E+03  7.595001E+04
       276  25 -2.457481E+06 -5.888690E+05 -5.722208E+05  3.165994E+05  7.712080E+04  2.896413E+04
       276  26 -1.967049E+06 -4.692820E+05 -4.205376E+05  2.252037E+05  1.671532E+04  8.557190E+04
       276  27 -1.483367E+06 -3.495283E+05 -3.080758E+05  3.228046E+05 -4.371341E+04  7.588906E+04
       277   1  1.000023E+06  2.566670E+05  2.311048E+05  3.253049E+05 -2.004155E+04 -5.414849E+04
       277   2  5.125270E+05  1.372972E+05  1.235350E+05  2.285609E+05 -2.371666E+04 -2.957559E+04
       277   3  2.547830E+04  1.955139E+04  1.857940E+04  3.237735E+05 -2.741140E+04 -2.148485E+03
       277   4 -4.855910E+04  1.432925E+03  2.927355E+03  3.236861E+05  2.206973E+03 -5.410995E+04
       277   5 -4.834880E+04  8.067492E+02  1.807900E+03  2.277029E+05  1.267524E+03 -2.952420E+04
       277   6 -4.839649E+04  1.342781E+03  1.411159E+03  3.236867E+05  3.056136E+02 -2.082229E+03
       277   7 -1.096111E+06 -2.538738E+05 -2.253142E+05  3.220693E+05  2.441845E+04 -5.407149E+04
       277   8 -6.089284E+05 -1.357042E+05 -1.199356E+05  2.268455E+05  2.622945E+04 -2.947286E+04
       277   9 -1.222646E+05 -1.686580E+04 -1.575456E+04  3.235999E+05  2.801935E+04 -2.015976E+03
       277  10  1.000022E+06  2.566638E+05  2.310986E+05  3.253040E+05 -1.932009E-09 -3.908093E-09
       277  11  5.125262E+05  1.372961E+05  1.235323E+05  2.285603E+05 -9.039746E-10 -2.226400E-09
       277  12  2.547749E+04  1.955118E+04  1.857798E+04  3.237734E+05  1.817216E-09  6.321818E-09
       277  13 -4.855989E+04  1.429779E+03  2.921844E+03  3.236862E+05 -3.695119E-11  4.508637E-09
       277  14 -4.834904E+04  8.058127E+02  1.806259E+03  2.277029E+05 -7.658417E-10 -1.214927E-08
       277  15 -4.839649E+04  1.342776E+03  1.411151E+03  3.236867E+05 -1.638372E-10  4.067703E-09
       277  16 -1.096112E+06 -2.538771E+05 -2.253208E+05  3.220703E+05  2.770377E-09 -5.499131E-09
       277  17 -6.089294E+05 -1.357053E+05 -1.199386E+05  2.268461E+05  1.126304E-09 -3.255963E-09
       277  18 -1.222654E+05 -1.686601E+04 -1.575605E+04  3.235999E+05 -1.680210E-09  1.463217E-09
       277  19  1.000023E+06  2.566670E+05  2.311048E+05  3.253049E+05  2.004155E+04  5.414849E+04
       277  20  5.125270E+05  1.372972E+05  1.235350E+05  2.285609E+05  2.371666E+04  2.957559E+04
       277  21  2.547830E+04  1.955139E+04  1.857940E+04  3.237735E+05  2.741140E+04  2.148485E+03
       277  22 -4.855910E+04  1.432925E+03  2.927355E+03  3.236861E+05 -2.206973E+03  5.410995E+04
       277  23 -4.834880E+04  8.067492E+02  1.807900E+03  2.277029E+05 -1.267524E+03  2.952420E+04
       277  24 -4.839649E+04  1.342781E+03  1.411159E+03  3.236867E+05 -3.056136E+02  2.082229E+03
       277  25 -1.096111E+06 -2.538738E+05 -2.253142E+05  3.220693E+05 -2.441845E+04  5.407149E+04
       277  26 -6.089284E+05 -1.357042E+05 -1.199356E+05  2.268455E+05 -2.622945E+04  2.947286E+04
       277  27 -1.222646E+05 -1.686580E+04 -1.575456E+04  3.235999E+05 -2.801935E+04  2.015976E+03
       278   1 -3.614715E+05 -7.506396E+04 -6.755592E+04  3.231639E+05 -2.777715E+04  1.493288E+04
       278   2 -8.480739E+05 -1.940261E+05 -1.720779E+05  2.265770E+05 -2.553129E+04  4.233109E+04
       278   3 -1.335160E+06 -3.125375E+05 -2.781171E+05  3.219556E+05 -2.325675E+04  6.658160E+04
       278   4 -4.839845E+04  1.349829E+03  1.356131E+03  3.236827E+05  9.521192E+00  1.499816E+04
       278   5 -4.842730E+04  6.977468E+02  1.450996E+03  2.277079E+05 -7.730164E+02  4.237750E+04
       278   6 -4.863045E+04  1.038189E+03  2.141715E+03  3.236828E+05 -1.525166E+03  6.661185E+04
       278   7  2.647680E+05  7.775746E+04  7.026508E+04  3.242018E+05  2.781004E+04  1.506346E+04
       278   8  7.518210E+05  1.953795E+05  1.749441E+05  2.288398E+05  2.401676E+04  4.242396E+04
       278   9  1.239453E+06  3.145041E+05  2.823029E+05  3.254126E+05  2.025094E+04  6.664219E+04
       278  10 -3.614724E+05 -7.506441E+04 -6.755779E+04  3.231643E+05  2.512519E-09 -2.441799E-09
       278  11 -8.480751E+05 -1.940282E+05 -1.720825E+05  2.265779E+05  1.930933E-09 -4.554556E-09
       278  12 -1.335161E+06 -3.125424E+05 -2.781265E+05  3.219568E+05  2.882163E-09 -3.525606E-09
       278  13 -4.839851E+04  1.349587E+03  1.355709E+03  3.236827E+05  5.386252E-10 -2.601229E-09
       278  14 -4.842778E+04  6.958182E+02  1.447620E+03  2.277079E+05  5.358879E-10 -4.048313E-09
       278  15 -4.863165E+04  1.033423E+03  2.133373E+03  3.236829E+05  8.818469E-10  3.157223E-10
       278  16  2.647671E+05  7.775701E+04  7.026320E+04  3.242014E+05 -1.720613E-09 -2.982619E-09
       278  17  7.518199E+05  1.953774E+05  1.749396E+05  2.288390E+05 -1.682808E-10  1.635491E-09
       278  18  1.239452E+06  3.144992E+05  2.822938E+05  3.254115E+05 -1.316941E-09  1.926241E-09
       278  19 -3.614715E+05 -7.506396E+04 -6.755592E+04  3.231639E+05  2.777715E+04 -1.493288E+04
       278  20 -8.480739E+05 -1.940261E+05 -1.720779E+05  2.265770E+05  2.553129E+04 -4.233109E+04
       278  21 -1.335160E+06 -3.125375E+05 -2.781171E+05  3.219556E+05  2.325675E+04 -6.658160E+04
       278  22 -4.839845E+04  1.349829E+03  1.356131E+03  3.236827E+05 -9.521192E+00 -1.499816E+04
       278  23 -4.842730E+04  6.977468E+02  1.450996E+03  2.277079E+05  7.730164E+02 -4.237750E+04
       278  24 -4.863045E+04  1.038189E+03  2.141715E+03  3.236828E+05  1.525166E+03 -6.661185E+04
       278  25  2.647680E+05  7.775746E+04  7.026508E+04  3.242018E+05 -2.781004E+04 -1.506346E+04
       278  26  7.518210E+05  1.953795E+05  1.749441E+05  2.288398E+05 -2.401676E+04 -4.242396E+04
       278  27  1.239453E+06  3.145041E+05  2.823029E+05  3.254126E+05 -2.025094E+04 -6.664219E+04
       279   1 -1.722621E+06 -4.078851E+05 -3.608427E+05  3.222648E+05 -4.413494E+04  8.888393E+04
       279   2 -2.205550E+06 -5.280117E+05 -4.751123E+05  2.261516E+05  2.309964E+04  9.682112E+04
       279   3 -2.696678E+06 -6.519700E+05 -6.339550E+05  3.187421E+05  9.027975E+04  3.236011E+04
       279   4 -4.803524E+04  8.784658E+01  2.650167E+03  3.229545E+05 -1.970634E+03  8.893311E+04
       279   5 -5.017011E+04 -5.298367E+02  3.963076E+03  2.286198E+05 -4.028969E+03  9.677438E+04
       279   6 -4.865528E+04  7.089633E+03  8.918873E+03  3.229507E+05 -6.087790E+03  3.233056E+04
       279   7  1.629189E+06  4.078759E+05  3.659824E+05  3.236444E+05  4.030615E+04  8.898230E+04
       279   8  2.109556E+06  5.266377E+05  4.827517E+05  2.310950E+05 -3.125095E+04  9.672755E+04
       279   9  2.605808E+06  6.656386E+05  6.513213E+05  3.271755E+05 -1.028665E+05  3.229986E+04
       279  10 -1.722625E+06 -4.078941E+05 -3.608612E+05  3.222680E+05 -2.502013E-09 -2.739148E-09
       279  11 -2.205553E+06 -5.280219E+05 -4.751309E+05  2.261498E+05 -3.630569E-10  3.175030E-09
       279  12 -2.696687E+06 -6.519733E+05 -6.339724E+05  3.187397E+05  4.736208E-09  1.201882E-09
       279  13 -4.803737E+04  7.935262E+01  2.635297E+03  3.229546E+05  1.079587E-09  6.506189E-10
       279  14 -5.017265E+04 -5.398977E+02  3.945446E+03  2.286201E+05 -6.799554E-10  3.450725E-09
       279  15 -4.865560E+04  7.088500E+03  8.916838E+03  3.229509E+05 -8.120673E-10  3.441796E-09
       279  16  1.629186E+06  4.078670E+05  3.659645E+05  3.236415E+05  3.091562E-09  1.586478E-09
       279  17  2.109552E+06  5.266274E+05  4.827323E+05  2.310974E+05  8.242608E-10  8.293591E-09
       279  18  2.605797E+06  6.656347E+05  6.512995E+05  3.271782E+05 -3.913321E-09  3.020462E-09
       279  19 -1.722621E+06 -4.078851E+05 -3.608427E+05  3.222648E+05  4.413494E+04 -8.888393E+04
       279  20 -2.205550E+06 -5.280117E+05 -4.751123E+05  2.261516E+05 -2.309964E+04 -9.682112E+04
       279  21 -2.696678E+06 -6.519700E+05 -6.339550E+05  3.187421E+05 -9.027975E+04 -3.236011E+04
       279  22 -4.803524E+04  8.784658E+01  2.650167E+03  3.229545E+05  1.970634E+03 -8.893311E+04
       279  23 -5.017011E+04 -5.298367E+02  3.963076E+03  2.286198E+05  4.028969E+03 -9.677438E+04
       279  24 -4.865528E+04  7.089633E+03  8.918873E+03  3.229507E+05  6.087790E+03 -3.233056E+04
       279  25  1.629189E+06  4.078759E+05  3.659824E+05  3.236444E+05 -4.030615E+04 -8.898230E+04
       279  26  2.109556E+06  5.266377E+05  4.827517E+05  2.310950E+05  3.125095E+04 -9.672755E+04
       279  27  2.605808E+06  6.656386E+05  6.513213E+05  3.271755E+05  1.028665E+05 -3.229986E+04
       280   1 -7.101756E+05 -2.957234E+06 -6.939909E+05  5.594353E+05 -3.148911E+04 -9.033543E+04
       280   2 -4.926922E+05 -2.101969E+06 -4.460867E+05  3.952468E+05 -8.662521E+04 -1.423048E+04
       280   3 -2.830387E+05 -1.257405E+06 -2.498227E+05  5.626303E+05 -6.024636E+04  6.190278E+04
       280   4  4.485885E+03 -8.820512E+04  4.964346E+03  5.642343E+05 -3.135645E+04  1.527997E+03
       280   5  4.452918E+02 -8.880450E+04  3.742931E+03  3.984840E+05 -8.657926E+04 -3.149930E+02
       280   6  2.202013E+03 -8.719074E+04  5.204421E+03  5.642381E+05 -6.040614E+04 -2.236056E+03
       280   7  7.185445E+05  2.788376E+06  7.033536E+05  5.690499E+05 -3.122283E+04  9.381637E+04
       280   8  4.933070E+05  1.928145E+06  4.533184E+05  4.017290E+05 -8.653326E+04  1.364526E+04
       280   9  2.873538E+05  1.084317E+06  2.601647E+05  5.658477E+05 -6.056606E+04 -6.649441E+04
       280  10 -7.101788E+05 -2.957243E+06 -6.940081E+05  5.594330E+05  8.337221E-10 -5.705121E-11
       280  11 -4.927003E+05 -2.101971E+06 -4.461012E+05  3.952458E+05  1.618226E-09 -3.717915E-09
       280  12 -2.830436E+05 -1.257410E+06 -2.498367E+05  5.626333E+05 -1.512163E-09 -9.180663E-10
       280  13  4.484829E+03 -8.820539E+04  4.962494E+03  5.642344E+05 -7.907296E-10 -1.796952E-09
       280  14  4.372428E+02 -8.880651E+04  3.728845E+03  3.984840E+05  3.077366E-09 -6.776769E-11
       280  15  2.198094E+03 -8.719172E+04  5.197555E+03  5.642380E+05 -1.247029E-10 -1.739213E-09
       280  16  7.185411E+05  2.788366E+06  7.033353E+05  5.690523E+05  1.749737E-11 -8.533930E-10
       280  17  4.932989E+05  1.928143E+06  4.533039E+05  4.017299E+05  2.997508E-10  1.759099E-09
       280  18  2.873487E+05  1.084312E+06  2.601495E+05  5.658444E+05  5.046201E-10 -3.798511E-10
       280  19 -7.101756E+05 -2.957234E+06 -6.939909E+05  5.594353E+05  3.148911E+04  9.033543E+04
       280  20 -4.926922E+05 -2.101969E+06 -4.460867E+05  3.952468E+05  8.662521E+04  1.423048E+04
       280  21 -2.830387E+05 -1.257405E+06 -2.498227E+05  5.626303E+05  6.024636E+04 -6.190278E+04
       280  22  4.485885E+03 -8.820512E+04  4.964346E+03  5.642343E+05  3.135645E+04 -1.527997E+03
       280  23  4.452918E+02 -8.880450E+04  3.742931E+03  3.984840E+05  8.657926E+04  3.149930E+02
       280  24  2.202013E+03 -8.719074E+04  5.204421E+03  5.642381E+05  6.040614E+04  2.236056E+03
       280  25  7.185445E+05  2.788376E+06  7.033536E+05  5.690499E+05  3.122283E+04 -9.381637E+04
       280  26  4.933070E+05  1.928145E+06  4.533184E+05  4.017290E+05  8.653326E+04 -1.364526E+04
       280  27  2.873538E+05  1.084317E+06  2.601647E+05  5.658477E+05  6.056606E+04  6.649441E+04
       281   1 -1.177943E+05 -5.806311E+05 -1.017873E+05  5.635169E+05 -2.451773E+04  3.895044E+04
       281   2  8.849050E+04  2.692699E+05  8.696636E+04  3.983107E+05  1.914760E+04  3.324339E+04
       281   3  2.993772E+05  1.120455E+06  2.801708E+05  5.680996E+05  6.198819E+04  2.754994E+04
       281   4  2.508302E+03 -8.732787E+04  6.194282E+03  5.650159E+05 -2.463374E+04 -3.367539E+03
       281   5  1.650002E+03 -8.765503E+04  9.658674E+03  3.975098E+05  1.904339E+04 -8.305792E+03
       281   6  5.306134E+03 -8.750813E+04  1.706932E+04  5.650082E+05  6.189309E+04 -1.322291E+04
       281   7  1.227957E+05  4.062072E+05  1.141678E+05  5.665159E+05 -2.474990E+04 -4.571875E+04
       281   8 -8.519799E+04 -4.444568E+05 -6.765009E+04  3.967093E+05  1.893924E+04 -4.983141E+04
       281   9 -2.888609E+05 -1.294102E+06 -2.461136E+05  5.619216E+05  6.179828E+04 -5.391754E+04
       281  10 -1.177954E+05 -5.806329E+05 -1.017912E+05  5.635176E+05 -7.376296E-10  2.373161E-09
       281  11  8.848981E+04  2.692687E+05  8.696360E+04  3.983102E+05  2.781793E-10 -4.289137E-09
       281  12  2.993729E+05  1.120453E+06  2.801622E+05  5.680982E+05  6.066639E-10  8.500364E-10
       281  13  2.507647E+03 -8.732805E+04  6.193121E+03  5.650158E+05 -1.030115E-09 -4.904985E-09
       281  14  1.649594E+03 -8.765520E+04  9.657863E+03  3.975100E+05 -3.392400E-09  1.986507E-09
       281  15  5.301973E+03 -8.750935E+04  1.706179E+04  5.650089E+05 -2.286633E-09 -9.139910E-10
       281  16  1.227944E+05  4.062048E+05  1.141627E+05  5.665150E+05 -2.239042E-10 -2.655619E-09
       281  17 -8.519904E+04 -4.444595E+05 -6.765544E+04  3.967101E+05  1.035020E-11  1.152107E-09
       281  18 -2.888658E+05 -1.294106E+06 -2.461262E+05  5.619243E+05  1.539262E-10  2.792600E-10
       281  19 -1.177943E+05 -5.806311E+05 -1.017873E+05  5.635169E+05  2.451773E+04 -3.895044E+04
       281  20  8.849050E+04  2.692699E+05  8.696636E+04  3.983107E+05 -1.914760E+04 -3.324339E+04
       281  21  2.993772E+05  1.120455E+06  2.801708E+05  5.680996E+05 -6.198819E+04 -2.754994E+04
       281  22  2.508302E+03 -8.732787E+04  6.194282E+03  5.650159E+05  2.463374E+04  3.367539E+03
       281  23  1.650002E+03 -8.765503E+04  9.658674E+03  3.975098E+05 -1.904339E+04  8.305792E+03
       281  24  5.306134E+03 -8.750813E+04  1.706932E+04  5.650082E+05 -6.189309E+04  1.322291E+04
       281  25  1.227957E+05  4.062072E+05  1.141678E+05  5.665159E+05  2.474990E+04  4.571875E+04
       281  26 -8.519799E+04 -4.444568E+05 -6.765009E+04  3.967093E+05 -1.893924E+04  4.983141E+04
       281  27 -2.888609E+05 -1.294102E+06 -2.461136E+05  5.619216E+05 -6.179828E+04  5.391754E+04
       282   1  4.572688E+05  1.803255E+06  4.307910E+05  5.574914E+05  9.916308E+04  5.165453E+04
       282   2  6.669963E+05  2.636920E+06  6.425815E+05  4.123690E+05  1.199868E+05 -6.304427E+04
       282   3  9.565572E+05  3.508087E+06  9.491161E+05  5.978353E+05  4.144415E+04 -1.778857E+05
       282   4 -1.515377E+03 -8.354657E+04  2.149496E+04  5.640570E+05  9.903220E+04 -1.640738E+04
       282   5  1.857704E+02 -9.442508E+04  3.584324E+04  3.987047E+05  1.200609E+05 -3.530718E+04
       282   6  6.535167E+04 -8.491448E+04  7.867993E+04  5.640005E+05  4.153468E+04 -5.418902E+04
       282   7 -4.605323E+05 -1.967004E+06 -3.879959E+05  5.705991E+05  9.889963E+04 -8.426556E+04
       282   8 -6.671281E+05 -2.818827E+06 -5.713568E+05  3.850967E+05  1.201341E+05 -7.690122E+03
       282   9 -8.267871E+05 -3.666130E+06 -7.926282E+05  5.303547E+05  4.161231E+04  6.879772E+04
       282  10  4.572575E+05  1.803249E+06  4.307676E+05  5.574873E+05 -6.990291E-10  2.457315E-09
       282  11  6.669798E+05  2.636912E+06  6.425470E+05  4.123751E+05 -1.917735E-10 -8.515704E-11
       282  12  9.565469E+05  3.508053E+06  9.490537E+05  5.978412E+05 -2.416661E-10  6.581820E-10
       282  13 -1.525982E+03 -8.354950E+04  2.147602E+04  5.640583E+05  1.290793E-09 -2.747991E-09
       282  14  1.699538E+02 -9.443029E+04  3.581379E+04  3.987081E+05 -1.066891E-10  1.413878E-09
       282  15  6.534902E+04 -8.491810E+04  7.867116E+04  5.640023E+05 -3.664060E-10 -1.585297E-10
       282  16 -4.605447E+05 -1.967015E+06 -3.880277E+05  5.706058E+05  1.022750E-10 -4.333790E-09
       282  17 -6.671436E+05 -2.818831E+06 -5.713841E+05  3.850975E+05 -4.847874E-10  4.337062E-10
       282  18 -8.267903E+05 -3.666136E+06 -7.926404E+05  5.303524E+05  1.058008E-10 -1.008967E-09
       282  19  4.572688E+05  1.803255E+06  4.307910E+05  5.574914E+05 -9.916308E+04 -5.165453E+04
       282  20  6.669963E+05  2.636920E+06  6.425815E+05  4.123690E+05 -1.199868E+05  6.304427E+04
       282  21  9.565572E+05  3.508087E+06  9.491161E+05  5.978353E+05 -4.144415E+04  1.778857E+05
       282  22 -1.515377E+03 -8.354657E+04  2.149496E+04  5.640570E+05 -9.903220E+04  1.640738E+04
       282  23  1.857704E+02 -9.442508E+04  3.584324E+04  3.987047E+05 -1.200609E+05  3.530718E+04
       282  24  6.535167E+04 -8.491448E+04  7.867993E+04  5.640005E+05 -4.153468E+04  5.418902E+04
       282  25 -4.605323E+05 -1.967004E+06 -3.879959E+05  5.705991E+05 -9.889963E+04  8.426556E+04
       282  26 -6.671281E+05 -2.818827E+06 -5.713568E+05  3.850967E+05 -1.201341E+05  7.690122E+03
       282  27 -8.267871E+05 -3.666130E+06 -7.926282E+05  5.303547E+05 -4.161231E+04 -6.879772E+04
       283   1  1.145120E+06  3.015503E+05  2.973761E+05  1.753160E+05  5.122315E+04 -1.371353E+04
       283   2  8.850996E+05  2.211431E+05  2.081731E+05  1.218940E+05  1.661777E+04 -4.007549E+04
       283   3  6.342957E+05  1.581459E+05  1.458724E+05  1.675073E+05 -1.796360E+04 -3.434586E+04
       283   4 -1.811065E+04  1.265887E+04  1.533160E+04  1.691610E+05  1.044221E+04 -1.370882E+04
       283   5 -1.994819E+04  9.121996E+00  7.078303E+03  1.196397E+05  6.701518E+03 -4.008053E+04
       283   6 -1.797446E+04 -5.668346E+02  4.327468E+03  1.691603E+05  2.969748E+03 -3.434012E+04
       283   7 -1.180104E+06 -2.763308E+05 -2.668042E+05  1.630175E+05 -3.026268E+04 -1.370331E+04
       283   8 -9.242323E+05 -2.211802E+05 -1.940672E+05  1.173885E+05 -3.200458E+03 -4.008551E+04
       283   9 -6.698448E+05 -1.593075E+05 -1.372412E+05  1.708115E+05  2.388141E+04 -3.433426E+04
       283  10  1.145117E+06  3.015494E+05  2.973708E+05  1.753165E+05  6.895885E-11  1.302327E-11
       283  11  8.850989E+05  2.211413E+05  2.081696E+05  1.218945E+05 -2.452010E-11 -1.379494E-09
       283  12  6.342950E+05  1.581445E+05  1.458696E+05  1.675068E+05 -1.364033E-09  3.748269E-09
       283  13 -1.811081E+04  1.265864E+04  1.533104E+04  1.691611E+05 -1.230634E-11 -2.614564E-11
       283  14 -1.994867E+04  7.384840E+00  7.075199E+03  1.196399E+05  9.795230E-11  2.630172E-09
       283  15 -1.797479E+04 -5.681033E+02  4.325236E+03  1.691604E+05 -1.326737E-10  9.195523E-10
       283  16 -1.180105E+06 -2.763312E+05 -2.668063E+05  1.630172E+05  3.073839E-10  5.296983E-10
       283  17 -9.242327E+05 -2.211819E+05 -1.940702E+05  1.173884E+05  7.317164E-10 -3.083533E-11
       283  18 -6.698457E+05 -1.593089E+05 -1.372445E+05  1.708121E+05  8.972301E-10 -8.523268E-11
       283  19  1.145120E+06  3.015503E+05  2.973761E+05  1.753160E+05 -5.122315E+04  1.371353E+04
       283  20  8.850996E+05  2.211431E+05  2.081731E+05  1.218940E+05 -1.661777E+04  4.007549E+04
       283  21  6.342957E+05  1.581459E+05  1.458724E+05  1.675073E+05  1.796360E+04  3.434586E+04
       283  22 -1.811065E+04  1.265887E+04  1.533160E+04  1.691610E+05 -1.044221E+04  1.370882E+04
       283  23 -1.994819E+04  9.121996E+00  7.078303E+03  1.196397E+05 -6.701518E+03  4.008053E+04
       283  24 -1.797446E+04 -5.668346E+02  4.327468E+03  1.691603E+05 -2.969748E+03  3.434012E+04
       283  25 -1.180104E+06 -2.763308E+05 -2.668042E+05  1.630175E+05  3.026268E+04  1.370331E+04
       283  26 -9.242323E+05 -2.211802E+05 -1.940672E+05  1.173885E+05  3.200458E+03  4.008551E+04
       283  27 -6.698448E+05 -1.593075E+05 -1.372412E+05  1.708115E+05 -2.388141E+04  3.433426E+04
       284   1  4.301606E+05  1.100257E+05  1.012887E+05  1.698534E+05 -9.504880E+03 -2.311277E+04
       284   2  1.748613E+05  4.723203E+04  4.440383E+04  1.193626E+05 -1.197153E+04 -1.009783E+04
       284   3 -7.987074E+04 -1.461086E+04 -1.065879E+04  1.693681E+05 -1.444076E+04  4.291022E+03
       284   4 -1.870937E+04  7.244918E+02  3.541769E+03  1.694840E+05  2.335192E+03 -2.310800E+04
       284   5 -1.883539E+04  7.384498E+01  2.291316E+03  1.192351E+05  1.186471E+03 -1.009111E+04
       284   6 -1.867999E+04  1.503455E+02  1.951879E+03  1.694843E+05  3.419811E+01  4.300100E+03
       284   7 -4.673903E+05 -1.085900E+05 -9.421675E+04  1.691149E+05  1.416682E+04 -2.310324E+04
       284   8 -2.124965E+05 -4.708673E+04 -3.982279E+04  1.191076E+05  1.434042E+04 -1.008441E+04
       284   9  4.251477E+04  1.491143E+04  1.456314E+04  1.696006E+05  1.451056E+04  4.309184E+03
       284  10  4.301604E+05  1.100251E+05  1.012875E+05  1.698533E+05  1.047087E-09  2.527988E-09
       284  11  1.748611E+05  4.723188E+04  4.440337E+04  1.193625E+05 -7.175618E-09 -2.518992E-09
       284  12 -7.987097E+04 -1.461094E+04 -1.065922E+04  1.693681E+05 -1.137791E-08 -6.795801E-10
       284  13 -1.870952E+04  7.239170E+02  3.540755E+03  1.694841E+05  1.077259E-09 -1.635610E-10
       284  14 -1.883542E+04  7.373526E+01  2.291122E+03  1.192351E+05  1.253405E-10  8.010362E-10
       284  15 -1.867999E+04  1.503257E+02  1.951844E+03  1.694843E+05  1.086153E-10 -1.189533E-09
       284  16 -4.673907E+05 -1.085906E+05 -9.421813E+04  1.691151E+05 -1.404466E-09  2.919210E-09
       284  17 -2.124967E+05 -4.708690E+04 -3.982337E+04  1.191077E+05  6.346442E-09 -1.281866E-10
       284  18  4.251454E+04  1.491135E+04  1.456270E+04  1.696006E+05  1.145768E-08 -6.053768E-10
       284  19  4.301606E+05  1.100257E+05  1.012887E+05  1.698534E+05  9.504880E+03  2.311277E+04
       284  20  1.748613E+05  4.723203E+04  4.440383E+04  1.193626E+05  1.197153E+04  1.009783E+04
       284  21 -7.987074E+04 -1.461086E+04 -1.065879E+04  1.693681E+05  1.444076E+04 -4.291022E+03
       284  22 -1.870937E+04  7.244918E+02  3.541769E+03  1.694840E+05 -2.335192E+03  2.310800E+04
       284  23 -1.883539E+04  7.384498E+01  2.291316E+03  1.192351E+05 -1.186471E+03  1.009111E+04
       284  24 -1.867999E+04  1.503455E+02  1.951879E+03  1.694843E+05 -3.419811E+01 -4.300100E+03
       284  25 -4.673903E+05 -1.085900E+05 -9.421675E+04  1.691149E+05 -1.416682E+04  2.310324E+04
       284  26 -2.124965E+05 -4.708673E+04 -3.982279E+04  1.191076E+05 -1.434042E+04  1.008441E+04
       284  27  4.251477E+04  1.491143E+04  1.456314E+04  1.696006E+05 -1.451056E+04 -4.309184E+03
       285   1 -2.823927E+05 -6.415754E+04 -5.566749E+04  1.694968E+05 -1.490145E+04  1.323263E+04
       285   2 -5.373904E+05 -1.262247E+05 -1.099184E+05  1.190610E+05 -1.447255E+04  2.754365E+04
       285   3 -7.921927E+05 -1.877606E+05 -1.643146E+05  1.691096E+05 -1.403490E+04  4.008729E+04
       285   4 -1.866188E+04  1.317499E+02  2.000674E+03  1.694801E+05 -3.226582E+02  1.324097E+04
       285   5 -1.891556E+04 -6.174781E+00  2.524828E+03  1.192404E+05 -1.592684E+03  2.754703E+04
       285   6 -1.874059E+04  6.857461E+02  4.085294E+03  1.694798E+05 -2.853789E+03  4.008661E+04
       285   7  2.451345E+05  6.441651E+04  5.966543E+04  1.694633E+05  1.426225E+04  1.324929E+04
       285   8  4.998120E+05  1.261947E+05  1.149527E+05  1.194199E+05  1.129780E+04  2.755041E+04
       285   9  7.552730E+05  1.890924E+05  1.724498E+05  1.698504E+05  8.341091E+03  4.008596E+04
       285  10 -2.823930E+05 -6.415778E+04 -5.566823E+04  1.694970E+05  1.614682E-08 -1.636148E-09
       285  11 -5.373908E+05 -1.262256E+05 -1.099202E+05  1.190614E+05  8.012211E-09 -1.518100E-10
       285  12 -7.921933E+05 -1.877623E+05 -1.643180E+05  1.691100E+05 -5.249269E-10 -8.220291E-10
       285  13 -1.866193E+04  1.315616E+02  2.000344E+03  1.694801E+05  1.089470E-09 -3.903112E-09
       285  14 -1.891576E+04 -6.990327E+00  2.523397E+03  1.192404E+05 -9.487687E-11 -2.692883E-10
       285  15 -1.874103E+04  6.840183E+02  4.082259E+03  1.694799E+05 -8.047095E-10 -1.585010E-10
       285  16  2.451342E+05  6.441627E+04  5.966471E+04  1.694631E+05 -1.651289E-08 -1.972296E-09
       285  17  4.998117E+05  1.261938E+05  1.149510E+05  1.194196E+05 -9.147484E-09 -6.864070E-10
       285  18  7.552725E+05  1.890906E+05  1.724466E+05  1.698502E+05  4.472961E-11 -3.325032E-09
       285  19 -2.823927E+05 -6.415754E+04 -5.566749E+04  1.694968E+05  1.490145E+04 -1.323263E+04
       285  20 -5.373904E+05 -1.262247E+05 -1.099184E+05  1.190610E+05  1.447255E+04 -2.754365E+04
       285  21 -7.921927E+05 -1.877606E+05 -1.643146E+05  1.691096E+05  1.403490E+04 -4.008729E+04
       285  22 -1.866188E+04  1.317499E+02  2.000674E+03  1.694801E+05  3.226582E+02 -1.324097E+04
       285  23 -1.891556E+04 -6.174781E+00  2.524828E+03  1.192404E+05  1.592684E+03 -2.754703E+04
       285  24 -1.874059E+04  6.857461E+02  4.085294E+03  1.694798E+05  2.853789E+03 -4.008661E+04
       285  25  2.451345E+05  6.441651E+04  5.966543E+04  1.694633E+05 -1.426225E+04 -1.324929E+04
       285  26  4.998120E+05  1.261947E+05  1.149527E+05  1.194199E+05 -1.129780E+04 -2.755041E+04
       285  27  7.552730E+05  1.890924E+05  1.724498E+05  1.698504E+05 -8.341091E+03 -4.008596E+04
       286   1 -9.946281E+05 -2.387052E+05 -2.068068E+05  1.712127E+05 -2.619158E+04  5.197605E+04
       286   2 -1.248830E+06 -3.006292E+05 -2.644417E+05  1.174449E+05  8.165297E+03  5.535820E+04
       286   3 -1.504923E+06 -3.549540E+05 -3.424455E+05  1.623591E+05  4.247518E+04  1.832616E+04
       286   4 -1.785377E+04 -8.599945E+02  5.047457E+03  1.690759E+05 -3.584938E+03  5.197252E+04
       286   5 -2.033299E+04 -1.919926E+02  8.315144E+03  1.197448E+05 -7.964351E+03  5.535548E+04
       286   6 -1.803846E+04  1.479942E+04  1.813675E+04  1.690832E+05 -1.237587E+04  1.836061E+04
       286   7  9.598177E+05  2.369224E+05  2.168468E+05  1.669355E+05  1.905685E+04  5.196883E+04
       286   8  1.209574E+06  3.001432E+05  2.809792E+05  1.220494E+05 -2.412559E+04  5.535265E+04
       286   9  1.470875E+06  3.843923E+05  3.785709E+05  1.758236E+05 -6.735809E+04  1.839385E+04
       286  10 -9.946296E+05 -2.387083E+05 -2.068132E+05  1.712138E+05  1.209074E-09  2.188022E-09
       286  11 -1.248830E+06 -3.006325E+05 -2.644476E+05  1.174445E+05  1.025033E-09  1.470027E-10
       286  12 -1.504925E+06 -3.549548E+05 -3.424496E+05  1.623585E+05 -2.822930E-09 -1.473922E-09
       286  13 -1.785451E+04 -8.628985E+02  5.042356E+03  1.690760E+05 -1.084353E-09  1.110723E-09
       286  14 -2.033388E+04 -1.953001E+02  8.309267E+03  1.197452E+05  1.388750E-09  9.558634E-10
       286  15 -1.803872E+04  1.479902E+04  1.813583E+04  1.690834E+05  7.278514E-10 -2.693782E-09
       286  16  9.598166E+05  2.369194E+05  2.168411E+05  1.669347E+05 -2.480347E-09 -3.829378E-09
       286  17  1.209573E+06  3.001398E+05  2.809723E+05  1.220504E+05  1.513482E-10 -2.759030E-09
       286  18  1.470870E+06  3.843907E+05  3.785618E+05  1.758246E+05  1.486370E-09 -1.315867E-09
       286  19 -9.946281E+05 -2.387052E+05 -2.068068E+05  1.712127E+05  2.619158E+04 -5.197605E+04
       286  20 -1.248830E+06 -3.006292E+05 -2.644417E+05  1.174449E+05 -8.165297E+03 -5.535820E+04
       286  21 -1.504923E+06 -3.549540E+05 -3.424455E+05  1.623591E+05 -4.247518E+04 -1.832616E+04
       286  22 -1.785377E+04 -8.599945E+02  5.047457E+03  1.690759E+05  3.584938E+03 -5.197252E+04
       286  23 -2.033299E+04 -1.919926E+02  8.315144E+03  1.197448E+05  7.964351E+03 -5.535548E+04
       286  24 -1.803846E+04  1.479942E+04  1.813675E+04  1.690832E+05  1.237587E+04 -1.836061E+04
       286  25  9.598177E+05  2.369224E+05  2.168468E+05  1.669355E+05 -1.905685E+04 -5.196883E+04
       286  26  1.209574E+06  3.001432E+05  2.809792E+05  1.220494E+05  2.412559E+04 -5.535265E+04
       286  27  1.470875E+06  3.843923E+05  3.785709E+05  1.758236E+05  6.735809E+04 -1.839385E+04
       287   1 -4.300827E+05 -1.821100E+06 -4.208958E+05  3.380927E+05 -1.901037E+04 -5.545014E+04
       287   2 -2.974329E+05 -1.304759E+06 -2.707684E+05  2.386970E+05 -5.232222E+04 -8.764736E+03
       287   3 -1.713727E+05 -7.959429E+05 -1.527686E+05  3.391514E+05 -3.646355E+04  3.790946E+04
       287   4  1.227856E+03 -8.838684E+04  9.366780E+02  3.400777E+05 -1.893669E+04  7.720820E+01
       287   5  3.712890E+02 -8.841420E+04  8.788966E+02  2.401649E+05 -5.230159E+04 -3.257803E+02
       287   6  1.136032E+03 -8.801750E+04  1.465756E+03  3.400781E+05 -3.653929E+04 -7.795494E+02
       287   7  4.323187E+05  1.647077E+06  4.225630E+05  3.420667E+05 -1.886279E+04  5.575947E+04
       287   8  2.980749E+05  1.129311E+06  2.724334E+05  2.416350E+05 -5.228094E+04  8.129559E+03
       287   9  1.736123E+05  6.203813E+05  1.556757E+05  3.410054E+05 -3.661509E+04 -3.951215E+04
       287  10 -4.300839E+05 -1.821103E+06 -4.209023E+05  3.380919E+05  9.119671E-10  2.187709E-09
       287  11 -2.974359E+05 -1.304760E+06 -2.707737E+05  2.386966E+05  1.973114E-09 -4.208267E-09
       287  12 -1.713746E+05 -7.959449E+05 -1.527738E+05  3.391525E+05 -1.430163E-09  2.849600E-09
       287  13  1.227471E+03 -8.838693E+04  9.360041E+02  3.400777E+05 -3.601929E-10 -3.574053E-09
       287  14  3.683517E+02 -8.841493E+04  8.737562E+02  2.401649E+05  3.169525E-09 -1.650969E-09
       287  15  1.134598E+03 -8.801786E+04  1.463246E+03  3.400781E+05 -7.195170E-10 -3.364179E-09
       287  16  4.323175E+05  1.647074E+06  4.225565E+05  3.420675E+05  9.183063E-10 -1.112929E-09
       287  17  2.980720E+05  1.129310E+06  2.724282E+05  2.416354E+05  3.081849E-09  2.754348E-11
       287  18  1.736104E+05  6.203793E+05  1.556702E+05  3.410043E+05 -1.546103E-09  1.246662E-09
       287  19 -4.300827E+05 -1.821100E+06 -4.208958E+05  3.380927E+05  1.901037E+04  5.545014E+04
       287  20 -2.974329E+05 -1.304759E+06 -2.707684E+05  2.386970E+05  5.232222E+04  8.764736E+03
       287  21 -1.713727E+05 -7.959429E+05 -1.527686E+05  3.391514E+05  3.646355E+04 -3.790946E+04
       287  22  1.227856E+03 -8.838684E+04  9.366780E+02  3.400777E+05  1.893669E+04 -7.720820E+01
       287  23  3.712890E+02 -8.841420E+04  8.788966E+02  2.401649E+05  5.230159E+04  3.257803E+02
       287  24  1.136032E+03 -8.801750E+04  1.465756E+03  3.400781E+05  3.653929E+04  7.795494E+02
       287  25  4.323187E+05  1.647077E+06  4.225630E+05  3.420667E+05  1.886279E+04 -5.575947E+04
       287  26  2.980749E+05  1.129311E+06  2.724334E+05  2.416350E+05  5.228094E+04 -8.129559E+03
       287  27  1.736123E+05  6.203813E+05  1.556757E+05  3.410054E+05  3.661509E+04  3.951215E+04
       288   1 -7.189500E+04 -3.878034E+05 -6.380324E+04  3.399457E+05 -1.491602E+04  2.437983E+04
       288   2  5.259438E+04  1.247447E+05  4.901756E+04  2.399285E+05  1.140991E+04  2.240165E+04
       288   3  1.787578E+05  6.375152E+05  1.633405E+05  3.418486E+05  3.724466E+04  2.042972E+04
       288   4  1.196613E+03 -8.804400E+04  1.801839E+03  3.405482E+05 -1.496984E+04 -1.127563E+03
       288   5  8.235853E+02 -8.802400E+04  2.929551E+03  2.395768E+05  1.136057E+04 -2.643077E+03
       288   6  2.060488E+03 -8.810882E+04  5.247812E+03  3.405464E+05  3.719881E+04 -4.150764E+03
       288   7  7.428257E+04  2.118010E+05  6.740392E+04  3.411510E+05 -1.502368E+04 -2.664713E+04
       288   8 -5.094986E+04 -3.007489E+05 -4.315880E+04  2.392252E+05  1.131124E+04 -2.767933E+04
       288   9 -1.746715E+05 -8.132384E+05 -1.528743E+05  3.392453E+05  3.715303E+04 -2.870291E+04
       288  10 -7.189539E+04 -3.878041E+05 -6.380478E+04  3.399460E+05  1.428680E-09  6.877832E-09
       288  11  5.259411E+04  1.247442E+05  4.901638E+04  2.399283E+05  1.874783E-09 -3.162256E-09
       288  12  1.787562E+05  6.375144E+05  1.633371E+05  3.418480E+05  7.523386E-10  5.487024E-09
       288  13  1.196372E+03 -8.804407E+04  1.801415E+03  3.405482E+05 -4.210899E-10 -2.214824E-09
       288  14  8.234448E+02 -8.802404E+04  2.929295E+03  2.395768E+05 -5.292597E-10 -1.055311E-09
       288  15  2.058997E+03 -8.810921E+04  5.245179E+03  3.405465E+05 -4.977180E-10 -6.342939E-09
       288  16  7.428214E+04  2.118001E+05  6.740217E+04  3.411507E+05 -1.509988E-09 -6.881350E-09
       288  17 -5.095021E+04 -3.007498E+05 -4.316048E+04  2.392254E+05  3.075386E-09 -2.680120E-09
       288  18 -1.746732E+05 -8.132397E+05 -1.528784E+05  3.392462E+05  1.671852E-09 -1.670755E-09
       288  19 -7.189500E+04 -3.878034E+05 -6.380324E+04  3.399457E+05  1.491602E+04 -2.437983E+04
       288  20  5.259438E+04  1.247447E+05  4.901756E+04  2.399285E+05 -1.140991E+04 -2.240165E+04
       288  21  1.787578E+05  6.375152E+05  1.633405E+05  3.418486E+05 -3.724466E+04 -2.042972E+04
       288  22  1.196613E+03 -8.804400E+04  1.801839E+03  3.405482E+05  1.496984E+04  1.127563E+03
       288  23  8.235853E+02 -8.802400E+04  2.929551E+03  2.395768E+05 -1.136057E+04  2.643077E+03
       288  24  2.060488E+03 -8.810882E+04  5.247812E+03  3.405464E+05 -3.719881E+04  4.150764E+03
       288  25  7.428257E+04  2.118010E+05  6.740392E+04  3.411510E+05  1.502368E+04  2.664713E+04
       288  26 -5.094986E+04 -3.007489E+05 -4.315880E+04  2.392252E+05 -1.131124E+04  2.767933E+04
       288  27 -1.746715E+05 -8.132384E+05 -1.528743E+05  3.392453E+05 -3.715303E+04  2.870291E+04
       289   1  2.759487E+05  1.047721E+06  2.528691E+05  3.384782E+05  5.965149E+04  3.585551E+04
       289   2  4.016642E+05  1.553010E+06  3.763204E+05  2.452107E+05  7.224586E+04 -2.760905E+04
       289   3  5.572375E+05  2.074750E+06  5.485548E+05  3.512144E+05  2.494310E+04 -9.109235E+04
       289   4 -7.271031E+01 -8.686347E+04  6.631381E+03  3.399648E+05  5.958498E+04 -5.149990E+03
       289   5  2.409703E+02 -9.023979E+04  1.104818E+04  2.403060E+05  7.228010E+04 -1.097968E+04
       289   6  2.047551E+04 -8.736013E+04  2.430537E+04  3.399447E+05  2.500829E+04 -1.677525E+04
       289   7 -2.761784E+05 -1.220239E+06 -2.396768E+05  3.414479E+05  5.951820E+04 -4.608163E+04
       289   8 -4.013648E+05 -1.730974E+06 -3.543914E+05  2.354133E+05  7.231415E+04  5.606260E+03
       289   9 -5.166259E+05 -2.245198E+06 -5.002604E+05  3.287124E+05  2.507096E+04  5.728453E+04
       289  10  2.759445E+05  1.047719E+06  2.528600E+05  3.384765E+05 -1.198899E-09  2.191107E-08
       289  11  4.016584E+05  1.553008E+06  3.763092E+05  2.452123E+05 -1.561686E-09  2.028223E-09
       289  12  5.572346E+05  2.074741E+06  5.485381E+05  3.512162E+05  1.694296E-10 -1.424271E-08
       289  13 -7.653000E+01 -8.686446E+04  6.624659E+03  3.399651E+05  1.417122E-10 -3.732697E-09
       289  14  2.353276E+02 -9.024132E+04  1.103814E+04  2.403067E+05 -1.597530E-09 -2.146676E-09
       289  15  2.047476E+04 -8.736060E+04  2.430367E+04  3.399450E+05 -5.837857E-10  2.825900E-10
       289  16 -2.761828E+05 -1.220242E+06 -2.396875E+05  3.414501E+05 -1.801865E-09 -2.348946E-08
       289  17 -4.013704E+05 -1.730975E+06 -3.544013E+05  2.354130E+05 -2.265819E-09 -4.483274E-09
       289  18 -5.166275E+05 -2.245202E+06 -5.002678E+05  3.287112E+05 -7.913229E-10  1.530176E-08
       289  19  2.759487E+05  1.047721E+06  2.528691E+05  3.384782E+05 -5.965149E+04 -3.585551E+04
       289  20  4.016642E+05  1.553010E+06  3.763204E+05  2.452107E+05 -7.224586E+04  2.760905E+04
       289  21  5.572375E+05  2.074750E+06  5.485548E+05  3.512144E+05 -2.494310E+04  9.109235E+04
       289  22 -7.271031E+01 -8.686347E+04  6.631381E+03  3.399648E+05 -5.958498E+04  5.149990E+03
       289  23  2.409703E+02 -9.023979E+04  1.104818E+04  2.403060E+05 -7.228010E+04  1.097968E+04
       289  24  2.047551E+04 -8.736013E+04  2.430537E+04  3.399447E+05 -2.500829E+04  1.677525E+04
       289  25 -2.761784E+05 -1.220239E+06 -2.396768E+05  3.414479E+05 -5.951820E+04  4.608163E+04
       289  26 -4.013648E+05 -1.730974E+06 -3.543914E+05  2.354133E+05 -7.231415E+04 -5.606260E+03
       289  27 -5.166259E+05 -2.245198E+06 -5.002604E+05  3.287124E+05 -2.507096E+04 -5.728453E+04
       290   1 -1.515588E+05 -7.079245E+05 -1.475285E+05  1.301667E+05 -6.741909E+03 -1.565270E+04
       290   2 -1.044527E+05 -5.060798E+05 -9.285379E+04  9.272660E+04 -1.819364E+04  1.639164E+02
       290   3 -5.548872E+04 -3.059749E+05 -4.805327E+04  1.336622E+05 -1.163643E+04  1.596316E+04
       290   4  5.269159E+03 -7.758160E+04  5.931193E+03  1.332322E+05 -6.714833E+03  3.992893E+03
       290   5  2.922728E+02 -7.816664E+04  2.790919E+03  9.404981E+04 -1.818927E+04  2.535856E+03
       290   6  1.750722E+02 -7.753088E+04  1.780666E+03  1.332392E+05 -1.166043E+04  1.056067E+03
       290   7  1.620681E+05  5.531250E+05  1.593635E+05  1.363006E+05 -6.687579E+03  2.365840E+04
       290   8  1.050248E+05  3.499172E+05  9.842412E+04  9.537388E+04 -1.818489E+04  4.909414E+03
       290   9  5.583551E+04  1.509625E+05  5.161229E+04  1.328161E+05 -1.168441E+04 -1.385644E+04
       290  10 -1.515589E+05 -7.079248E+05 -1.475291E+05  1.301666E+05  1.096240E-09  1.458952E-09
       290  11 -1.044531E+05 -5.060799E+05 -9.285441E+04  9.272660E+04  1.325475E-09 -2.126841E-09
       290  12 -5.548894E+04 -3.059752E+05 -4.805400E+04  1.336623E+05  5.401885E-10  1.371466E-09
       290  13  5.269107E+03 -7.758163E+04  5.931079E+03  1.332322E+05  1.151431E-09  2.435692E-09
       290  14  2.919158E+02 -7.816673E+04  2.790285E+03  9.404985E+04  2.550859E-09 -3.281222E-09
       290  15  1.749259E+02 -7.753092E+04  1.780408E+03  1.332392E+05  1.943256E-09 -2.381723E-09
       290  16  1.620679E+05  5.531244E+05  1.593624E+05  1.363007E+05  8.249336E-10  4.140848E-10
       290  17  1.050244E+05  3.499171E+05  9.842346E+04  9.537395E+04  2.201719E-09 -1.702447E-09
       290  18  5.583532E+04  1.509622E+05  5.161167E+04  1.328159E+05  4.561491E-10  6.241210E-10
       290  19 -1.515588E+05 -7.079245E+05 -1.475285E+05  1.301667E+05  6.741909E+03  1.565270E+04
       290  20 -1.044527E+05 -5.060798E+05 -9.285379E+04  9.272660E+04  1.819364E+04 -1.639164E+02
       290  21 -5.548872E+04 -3.059749E+05 -4.805327E+04  1.336622E+05  1.163643E+04 -1.596316E+04
       290  22  5.269159E+03 -7.758160E+04  5.931193E+03  1.332322E+05  6.714833E+03 -3.992893E+03
       290  23  2.922728E+02 -7.816664E+04  2.790919E+03  9.404981E+04  1.818927E+04 -2.535856E+03
       290  24  1.750722E+02 -7.753088E+04  1.780666E+03  1.332392E+05  1.166043E+04 -1.056067E+03
       290  25  1.620681E+05  5.531250E+05  1.593635E+05  1.363006E+05  6.687579E+03 -2.365840E+04
       290  26  1.050248E+05  3.499172E+05  9.842412E+04  9.537388E+04  1.818489E+04 -4.909414E+03
       290  27  5.583551E+04  1.509625E+05  5.161229E+04  1.328161E+05  1.168441E+04  1.385644E+04
       291   1 -1.604979E+04 -1.462501E+05 -1.353412E+04  1.332139E+05 -3.284910E+03  1.088358E+04
       291   2  3.249212E+04  5.462876E+04  2.982564E+04  9.398021E+04  7.089703E+03  1.000331E+04
       291   3  8.171493E+04  2.555654E+05  7.386071E+04  1.338883E+05  1.715860E+04  9.124927E+03
       291   4  6.530411E+02 -7.779852E+04  1.516537E+03  1.334087E+05 -3.301637E+03  7.765018E+02
       291   5  2.709443E+02 -7.779095E+04  1.141452E+03  9.383734E+04  7.074270E+03  1.882684E+02
       291   6  5.214790E+02 -7.781436E+04  1.240155E+03  1.334088E+05  1.714429E+04 -3.978082E+02
       291   7  1.735561E+04 -9.342339E+03  1.656729E+04  1.336034E+05 -3.318368E+03 -9.331676E+03
       291   8 -3.195134E+04 -2.101940E+05 -2.754342E+04  9.369449E+04  7.058840E+03 -9.624709E+03
       291   9 -8.067931E+04 -4.110898E+05 -7.138674E+04  1.329295E+05  1.713000E+04 -9.915497E+03
       291  10 -1.604983E+04 -1.462502E+05 -1.353436E+04  1.332140E+05 -6.797174E-10  2.070382E-09
       291  11  3.249204E+04  5.462864E+04  2.982536E+04  9.398016E+04 -3.384797E-09  6.998653E-10
       291  12  8.171459E+04  2.555653E+05  7.386000E+04  1.338882E+05  5.137664E-11  5.891961E-09
       291  13  6.530293E+02 -7.779852E+04  1.516515E+03  1.334087E+05 -6.117739E-10  3.065464E-09
       291  14  2.708905E+02 -7.779097E+04  1.141358E+03  9.383734E+04 -3.517509E-09 -4.024040E-09
       291  15  5.211633E+02 -7.781444E+04  1.239602E+03  1.334088E+05 -5.947002E-10  2.987105E-10
       291  16  1.735558E+04 -9.342435E+03  1.656711E+04  1.336034E+05 -1.137118E-09 -7.828359E-11
       291  17 -3.195142E+04 -2.101941E+05 -2.754369E+04  9.369455E+04 -1.883416E-09 -7.446124E-09
       291  18 -8.067965E+04 -4.110900E+05 -7.138748E+04  1.329297E+05  2.709595E-10 -6.005624E-09
       291  19 -1.604979E+04 -1.462501E+05 -1.353412E+04  1.332139E+05  3.284910E+03 -1.088358E+04
       291  20  3.249212E+04  5.462876E+04  2.982564E+04  9.398021E+04 -7.089703E+03 -1.000331E+04
       291  21  8.171493E+04  2.555654E+05  7.386071E+04  1.338883E+05 -1.715860E+04 -9.124927E+03
       291  22  6.530411E+02 -7.779852E+04  1.516537E+03  1.334087E+05  3.301637E+03 -7.765018E+02
       291  23  2.709443E+02 -7.779095E+04  1.141452E+03  9.383734E+04 -7.074270E+03 -1.882684E+02
       291  24  5.214790E+02 -7.781436E+04  1.240155E+03  1.334088E+05 -1.714429E+04  3.978082E+02
       291  25  1.735561E+04 -9.342339E+03  1.656729E+04  1.336034E+05  3.318368E+03  9.331676E+03
       291  26 -3.195134E+04 -2.101940E+05 -2.754342E+04  9.369449E+04 -7.058840E+03  9.624709E+03
       291  27 -8.067931E+04 -4.110898E+05 -7.138674E+04  1.329295E+05 -1.713000E+04  9.915497E+03
       292   1  1.203110E+05  4.159808E+05  1.084947E+05  1.332207E+05  2.603535E+04  1.569940E+04
       292   2  1.694670E+05  6.145795E+05  1.559465E+05  9.536774E+04  3.062375E+04 -9.112310E+03
       292   3  2.262058E+05  8.182853E+05  2.214199E+05  1.355566E+05  1.047058E+04 -3.390777E+04
       292   4  1.878342E+02 -7.762543E+04  1.376453E+03  1.331663E+05  2.601245E+04 -6.266122E+02
       292   5  1.706743E+02 -7.814204E+04  1.969922E+03  9.414103E+04  3.063551E+04 -1.665185E+03
       292   6  3.617870E+03 -7.770752E+04  4.087786E+03  1.331623E+05  1.050469E+04 -2.679644E+03
       292   7 -1.199513E+05 -5.710027E+05 -1.057553E+05  1.331118E+05  2.598955E+04 -1.693982E+04
       292   8 -1.691581E+05 -7.704160E+05 -1.520364E+05  9.291553E+04  3.064724E+04  5.773730E+03
       292   9 -2.190284E+05 -9.729656E+05 -2.132986E+05  1.307712E+05  1.053859E+04  2.850360E+04
       292  10  1.203102E+05  4.159804E+05  1.084930E+05  1.332203E+05  3.891702E-10  1.655986E-09
       292  11  1.694660E+05  6.145791E+05  1.559446E+05  9.536796E+04 -1.856756E-09 -1.053572E-09
       292  12  2.262053E+05  8.182840E+05  2.214175E+05  1.355569E+05 -7.092651E-10  1.646707E-09
       292  13  1.871075E+02 -7.762561E+04  1.375181E+03  1.331663E+05  7.937305E-10  1.618988E-09
       292  14  1.696657E+02 -7.814229E+04  1.968153E+03  9.414107E+04 -1.373145E-09 -3.843210E-09
       292  15  3.617749E+03 -7.770756E+04  4.087565E+03  1.331623E+05 -1.156162E-09  1.741039E-09
       292  16 -1.199521E+05 -5.710031E+05 -1.057572E+05  1.331122E+05 -1.442214E-10 -1.084203E-09
       292  17 -1.691592E+05 -7.704163E+05 -1.520382E+05  9.291539E+04 -1.338040E-09 -2.284808E-09
       292  18 -2.190287E+05 -9.729665E+05 -2.133003E+05  1.307710E+05  8.967055E-10  2.697972E-10
       292  19  1.203110E+05  4.159808E+05  1.084947E+05  1.332207E+05 -2.603535E+04 -1.569940E+04
       292  20  1.694670E+05  6.145795E+05  1.559465E+05  9.536774E+04 -3.062375E+04  9.112310E+03
       292  21  2.262058E+05  8.182853E+05  2.214199E+05  1.355566E+05 -1.047058E+04  3.390777E+04
       292  22  1.878342E+02 -7.762543E+04  1.376453E+03  1.331663E+05 -2.601245E+04  6.266122E+02
       292  23  1.706743E+02 -7.814204E+04  1.969922E+03  9.414103E+04 -3.063551E+04  1.665185E+03
       292  24  3.617870E+03 -7.770752E+04  4.087786E+03  1.331623E+05 -1.050469E+04  2.679644E+03
       292  25 -1.199513E+05 -5.710027E+05 -1.057553E+05  1.331118E+05 -2.598955E+04  1.693982E+04
       292  26 -1.691581E+05 -7.704160E+05 -1.520364E+05  9.291553E+04 -3.064724E+04 -5.773730E+03
       292  27 -2.190284E+05 -9.729656E+05 -2.132986E+05  1.307712E+05 -1.053859E+04 -2.850360E+04
       293   1  1.747855E+06  7.145274E+05  6.868164E+05  3.124564E+05  7.239714E+04 -3.851759E+04
       293   2  1.231197E+06  6.262223E+05  5.410595E+05  2.314724E+05  7.348917E+03 -1.161237E+05
       293   3  7.176971E+05  5.041663E+05  4.296197E+05  3.491219E+05 -5.747132E+04 -1.099101E+05
       293   4 -1.348324E+06 -5.458427E+04 -6.301050E+04  3.423669E+05 -4.254021E+04 -3.831632E+04
       293   5 -1.342359E+06 -2.649534E+03 -2.974004E+04  2.430575E+05 -2.695617E+04 -1.161208E+05
       293   6 -1.347506E+06  1.475829E+03 -1.812415E+04  3.424412E+05 -1.119634E+04 -1.099458E+05
       293   7 -4.435720E+06 -8.243892E+05 -8.134782E+05  3.721298E+05 -1.569068E+05 -3.812573E+04
       293   8 -3.909730E+06 -6.319682E+05 -6.009468E+05  2.545946E+05 -6.112066E+04 -1.161193E+05
       293   9 -3.408701E+06 -5.014959E+05 -4.661141E+05  3.357821E+05  3.492689E+04 -1.099825E+05
       293  10  1.747849E+06  7.145244E+05  6.868038E+05  3.124586E+05 -9.927718E-11 -8.628021E-12
       293  11  1.231193E+06  6.262078E+05  5.410341E+05  2.314731E+05  1.335664E-10  1.389240E-10
       293  12  7.176903E+05  5.041525E+05  4.295909E+05  3.491168E+05  5.175262E-10  4.216846E-11
       293  13 -1.348326E+06 -5.458633E+04 -6.301666E+04  3.423656E+05  1.255745E-09  7.052906E-11
       293  14 -1.342363E+06 -2.664199E+03 -2.976673E+04  2.430550E+05  7.795856E-10  8.621136E-11
       293  15 -1.347510E+06  1.462824E+03 -1.814709E+04  3.424402E+05  2.957928E-10 -1.433741E-10
       293  16 -4.435747E+06 -8.243974E+05 -8.135275E+05  3.721250E+05 -5.458950E-10 -7.470204E-11
       293  17 -3.909738E+06 -6.319837E+05 -6.009792E+05  2.545888E+05  6.784231E-10 -9.590917E-11
       293  18 -3.408706E+06 -5.015092E+05 -4.661392E+05  3.357852E+05 -2.805595E-10 -2.628365E-10
       293  19  1.747855E+06  7.145274E+05  6.868164E+05  3.124564E+05 -7.239714E+04  3.851759E+04
       293  20  1.231197E+06  6.262223E+05  5.410595E+05  2.314724E+05 -7.348917E+03  1.161237E+05
       293  21  7.176971E+05  5.041663E+05  4.296197E+05  3.491219E+05  5.747132E+04  1.099101E+05
       293  22 -1.348324E+06 -5.458427E+04 -6.301050E+04  3.423669E+05  4.254021E+04  3.831632E+04
       293  23 -1.342359E+06 -2.649534E+03 -2.974004E+04  2.430575E+05  2.695617E+04  1.161208E+05
       293  24 -1.347506E+06  1.475829E+03 -1.812415E+04  3.424412E+05  1.119634E+04  1.099458E+05
       293  25 -4.435720E+06 -8.243892E+05 -8.134782E+05  3.721298E+05  1.569068E+05  3.812573E+04
       293  26 -3.909730E+06 -6.319682E+05 -6.009468E+05  2.545946E+05  6.112066E+04  1.161193E+05
       293  27 -3.408701E+06 -5.014959E+05 -4.661141E+05  3.357821E+05 -3.492689E+04  1.099825E+05
       294   1  3.075575E+05  3.992796E+05  3.445037E+05  3.424189E+05 -3.111215E+04 -8.568546E+04
       294   2 -2.098361E+05  2.762504E+05  2.352886E+05  2.414319E+05 -2.923092E+04 -6.036735E+04
       294   3 -7.273189E+05  1.508740E+05  1.243495E+05  3.443630E+05 -2.738937E+04 -3.133328E+04
       294   4 -1.344917E+06 -3.339388E+03 -1.527969E+04  3.435887E+05 -8.570320E+03 -8.569908E+04
       294   5 -1.344259E+06 -4.375049E+01 -1.083160E+04  2.416171E+05 -3.141571E+03 -6.036444E+04
       294   6 -1.344565E+06  3.000657E+02 -1.057082E+04  3.435877E+05  2.248979E+03 -3.130977E+04
       294   7 -2.994829E+06 -4.061397E+05 -3.752251E+05  3.447546E+05  1.391232E+04 -8.571262E+04
       294   8 -2.477472E+06 -2.764229E+05 -2.570260E+05  2.418017E+05  2.290072E+04 -6.036151E+04
       294   9 -1.961451E+06 -1.502988E+05 -1.455109E+05  3.428131E+05  3.185820E+04 -3.128631E+04
       294  10  3.075545E+05  3.992715E+05  3.444881E+05  3.424167E+05 -1.975124E-10 -1.791289E-10
       294  11 -2.098380E+05  2.762463E+05  2.352801E+05  2.414304E+05 -4.529855E-11 -1.450862E-10
       294  12 -7.273199E+05  1.508727E+05  1.243462E+05  3.443623E+05 -2.140287E-11 -1.521863E-10
       294  13 -1.344920E+06 -3.347289E+03 -1.529361E+04  3.435881E+05  2.174842E-10 -1.626632E-11
       294  14 -1.344260E+06 -4.766348E+01 -1.083846E+04  2.416170E+05  7.080661E-11 -3.302864E-11
       294  15 -1.344565E+06  2.990122E+02 -1.057267E+04  3.435878E+05 -1.684611E-10  5.748010E-11
       294  16 -2.994832E+06 -4.061477E+05 -3.752393E+05  3.447556E+05 -1.199991E-10 -3.502380E-11
       294  17 -2.477474E+06 -2.764269E+05 -2.570338E+05  2.418029E+05  3.922607E-11 -1.099479E-10
       294  18 -1.961452E+06 -1.503001E+05 -1.455146E+05  3.428139E+05 -1.064535E-11  2.573581E-11
       294  19  3.075575E+05  3.992796E+05  3.445037E+05  3.424189E+05  3.111215E+04  8.568546E+04
       294  20 -2.098361E+05  2.762504E+05  2.352886E+05  2.414319E+05  2.923092E+04  6.036735E+04
       294  21 -7.273189E+05  1.508740E+05  1.243495E+05  3.443630E+05  2.738937E+04  3.133328E+04
       294  22 -1.344917E+06 -3.339388E+03 -1.527969E+04  3.435887E+05  8.570320E+03  8.569908E+04
       294  23 -1.344259E+06 -4.375049E+01 -1.083160E+04  2.416171E+05  3.141571E+03  6.036444E+04
       294  24 -1.344565E+06  3.000657E+02 -1.057082E+04  3.435877E+05 -2.248979E+03  3.130977E+04
       294  25 -2.994829E+06 -4.061397E+05 -3.752251E+05  3.447546E+05 -1.391232E+04  8.571262E+04
       294  26 -2.477472E+06 -2.764229E+05 -2.570260E+05  2.418017E+05 -2.290072E+04  6.036151E+04
       294  27 -1.961451E+06 -1.502988E+05 -1.455109E+05  3.428131E+05 -3.185820E+04  3.128631E+04
       295   1 -1.139521E+06  5.037942E+04  3.154287E+04  3.426924E+05 -2.520072E+04 -1.315125E+04
       295   2 -1.655886E+06 -7.578575E+04 -8.474975E+04  2.418786E+05 -1.428277E+04  1.615715E+04
       295   3 -2.175003E+06 -2.080240E+05 -2.097398E+05  3.453673E+05 -3.363021E+03  4.276314E+04
       295   4 -1.344843E+06  6.206377E+02 -1.165552E+04  3.436661E+05  4.175743E+03 -1.312382E+04
       295   5 -1.343618E+06  3.919359E+02 -1.665482E+04  2.415196E+05  1.249714E+04  1.617705E+04
       295   6 -1.344949E+06 -5.441113E+03 -2.853376E+04  3.436704E+05  2.082924E+04  4.277701E+04
       295   7 -1.550124E+06 -4.914039E+04 -5.485303E+04  3.446394E+05  3.354263E+04 -1.309629E+04
       295   8 -1.031257E+06  7.656351E+04  5.143694E+04  2.411603E+05  3.929037E+04  1.619690E+04
       295   9 -5.142457E+05  1.970961E+05  1.526330E+05  3.419708E+05  4.505351E+04  4.279073E+04
       295  10 -1.139521E+06  5.037906E+04  3.154135E+04  3.426922E+05  6.187988E-11 -1.212789E-10
       295  11 -1.655886E+06 -7.578609E+04 -8.475063E+04  2.418788E+05 -5.438036E-11 -1.111695E-10
       295  12 -2.175003E+06 -2.080260E+05 -2.097433E+05  3.453674E+05 -6.052237E-11 -6.016186E-11
       295  13 -1.344843E+06  6.204481E+02 -1.165587E+04  3.436661E+05 -2.179702E-10  1.652770E-11
       295  14 -1.343618E+06  3.916132E+02 -1.665561E+04  2.415194E+05 -1.780122E-10 -2.114740E-11
       295  15 -1.344950E+06 -5.443193E+03 -2.853801E+04  3.436697E+05 -4.210013E-11 -9.928921E-11
       295  16 -1.550125E+06 -4.914088E+04 -5.485547E+04  3.446397E+05  1.713126E-10 -5.676526E-11
       295  17 -1.031259E+06  7.656281E+04  5.143354E+04  2.411598E+05 -1.042317E-10 -1.330692E-11
       295  18 -5.142483E+05  1.970936E+05  1.526257E+05  3.419693E+05  9.199851E-11 -1.147176E-10
       295  19 -1.139521E+06  5.037942E+04  3.154287E+04  3.426924E+05  2.520072E+04  1.315125E+04
       295  20 -1.655886E+06 -7.578575E+04 -8.474975E+04  2.418786E+05  1.428277E+04 -1.615715E+04
       295  21 -2.175003E+06 -2.080240E+05 -2.097398E+05  3.453673E+05  3.363021E+03 -4.276314E+04
       295  22 -1.344843E+06  6.206377E+02 -1.165552E+04  3.436661E+05 -4.175743E+03  1.312382E+04
       295  23 -1.343618E+06  3.919359E+02 -1.665482E+04  2.415196E+05 -1.249714E+04 -1.617705E+04
       295  24 -1.344949E+06 -5.441113E+03 -2.853376E+04  3.436704E+05 -2.082924E+04 -4.277701E+04
       295  25 -1.550124E+06 -4.914039E+04 -5.485303E+04  3.446394E+05 -3.354263E+04  1.309629E+04
       295  26 -1.031257E+06  7.656351E+04  5.143694E+04  2.411603E+05 -3.929037E+04 -1.619690E+04
       295  27 -5.142457E+05  1.970961E+05  1.526330E+05  3.419708E+05 -4.505351E+04 -4.279073E+04
       296   1 -2.593187E+06 -2.980804E+05 -3.058844E+05  3.271456E+05 -1.617747E+04  6.542651E+04
       296   2 -3.089899E+06 -4.318674E+05 -4.510682E+05  2.618989E+05  7.615155E+04  7.767289E+04
       296   3 -3.625122E+06 -6.772303E+05 -6.842383E+05  3.972230E+05  1.683521E+05  2.662376E+04
       296   4 -1.350801E+06  5.058125E+03 -3.547308E+04  3.428517E+05  2.582160E+04  6.543966E+04
       296   5 -1.337061E+06 -2.236864E+03 -6.027022E+04  2.425487E+05  5.769954E+04  7.765615E+04
       296   6 -1.351413E+06 -1.103906E+05 -1.308341E+05  3.428129E+05  8.952912E+04  2.664699E+04
       296   7 -1.069586E+05  3.080958E+05  2.348524E+05  3.585891E+05  6.790387E+04  6.545491E+04
       296   8  4.186552E+05  4.271861E+05  3.303366E+05  2.231425E+05  3.919562E+04  7.764062E+04
       296   9  9.270564E+05  4.560816E+05  4.222198E+05  2.882014E+05  1.041643E+04  2.668413E+04
       296  10 -2.593188E+06 -2.980851E+05 -3.058929E+05  3.271465E+05 -3.826143E-11 -2.265888E-10
       296  11 -3.089907E+06 -4.318754E+05 -4.510904E+05  2.618941E+05 -1.531379E-10 -2.657395E-10
       296  12 -3.625153E+06 -6.772387E+05 -6.842931E+05  3.972194E+05  3.499307E-10 -1.612500E-10
       296  13 -1.350803E+06  5.053351E+03 -3.548237E+04  3.428503E+05  1.200259E-10 -1.062875E-10
       296  14 -1.337067E+06 -2.244229E+03 -6.028781E+04  2.425450E+05  3.207490E-10  9.779290E-12
       296  15 -1.351422E+06 -1.103936E+05 -1.308505E+05  3.428110E+05  2.222236E-10 -1.392128E-10
       296  16 -1.069647E+05  3.080899E+05  2.348357E+05  3.585855E+05 -1.073278E-11 -1.925747E-10
       296  17  4.186519E+05  4.271792E+05  3.303224E+05  2.231400E+05  9.399722E-11 -9.722239E-11
       296  18  9.270561E+05  4.560808E+05  4.222183E+05  2.882011E+05 -2.787162E-10 -2.529558E-11
       296  19 -2.593187E+06 -2.980804E+05 -3.058844E+05  3.271456E+05  1.617747E+04 -6.542651E+04
       296  20 -3.089899E+06 -4.318674E+05 -4.510682E+05  2.618989E+05 -7.615155E+04 -7.767289E+04
       296  21 -3.625122E+06 -6.772303E+05 -6.842383E+05  3.972230E+05 -1.683521E+05 -2.662376E+04
       296  22 -1.350801E+06  5.058125E+03 -3.547308E+04  3.428517E+05 -2.582160E+04 -6.543966E+04
       296  23 -1.337061E+06 -2.236864E+03 -6.027022E+04  2.425487E+05 -5.769954E+04 -7.765615E+04
       296  24 -1.351413E+06 -1.103906E+05 -1.308341E+05  3.428129E+05 -8.952912E+04 -2.664699E+04
       296  25 -1.069586E+05  3.080958E+05  2.348524E+05  3.585891E+05 -6.790387E+04 -6.545491E+04
       296  26  4.186552E+05  4.271861E+05  3.303366E+05  2.231425E+05 -3.919562E+04 -7.764062E+04
       296  27  9.270564E+05  4.560816E+05  4.222198E+05  2.882014E+05 -1.041643E+04 -2.668413E+04
       297   1  1.328737E+06  5.119313E+05  4.983764E+05  2.595599E+05  7.006509E+04 -2.543376E+04
       297   2  9.253377E+05  4.122993E+05  3.705255E+05  1.854077E+05  1.751956E+04 -7.566545E+04
       297   3  5.308193E+05  3.156815E+05  2.777819E+05  2.655802E+05 -3.494096E+04 -6.870003E+04
       297   4 -7.657996E+05 -8.323069E+03 -9.188300E+03  2.643639E+05 -5.744963E+03 -2.538536E+04
       297   5 -7.651975E+05 -8.081753E+02 -4.752195E+03  1.871903E+05 -3.272800E+03 -7.567548E+04
       297   6 -7.653996E+05  1.878811E+02 -3.370210E+03  2.643672E+05 -7.499907E+02 -6.869809E+04
       297   7 -2.856319E+06 -5.288962E+05 -5.170477E+05  2.691517E+05 -8.130039E+04 -2.533810E+04
       297   8 -2.453065E+06 -4.141088E+05 -3.802061E+05  1.889678E+05 -2.400923E+04 -7.568566E+04
       297   9 -2.060040E+06 -3.154163E+05 -2.846180E+05  2.631563E+05  3.337058E+04 -6.869627E+04
       297  10  1.328731E+06  5.119293E+05  4.983660E+05  2.595613E+05  1.120787E-10  1.353748E-10
       297  11  9.253358E+05  4.122931E+05  3.705142E+05  1.854087E+05  1.192948E-11 -6.241200E-11
       297  12  5.308167E+05  3.156761E+05  2.777707E+05  2.655782E+05 -1.832621E-10  1.463120E-10
       297  13 -7.657998E+05 -8.323769E+03 -9.189573E+03  2.643638E+05  5.994237E-10  2.042928E-10
       297  14 -7.651990E+05 -8.143254E+02 -4.762973E+03  1.871901E+05  3.773418E-10 -4.315156E-11
       297  15 -7.654009E+05  1.828149E+02 -3.379076E+03  2.643671E+05  1.643345E-10  2.897153E-10
       297  16 -2.856326E+06 -5.288986E+05 -5.170613E+05  2.691500E+05 -5.471080E-10 -1.399105E-10
       297  17 -2.453068E+06 -4.141151E+05 -3.802180E+05  1.889663E+05  3.563253E-10 -1.660781E-10
       297  18 -2.060042E+06 -3.154217E+05 -2.846290E+05  2.631582E+05  8.958891E-11  1.165349E-10
       297  19  1.328737E+06  5.119313E+05  4.983764E+05  2.595599E+05 -7.006509E+04  2.543376E+04
       297  20  9.253377E+05  4.122993E+05  3.705255E+05  1.854077E+05 -1.751956E+04  7.566545E+04
       297  21  5.308193E+05  3.156815E+05  2.777819E+05  2.655802E+05  3.494096E+04  6.870003E+04
       297  22 -7.657996E+05 -8.323069E+03 -9.188300E+03  2.643639E+05  5.744963E+03  2.538536E+04
       297  23 -7.651975E+05 -8.081753E+02 -4.752195E+03  1.871903E+05  3.272800E+03  7.567548E+04
       297  24 -7.653996E+05  1.878811E+02 -3.370210E+03  2.643672E+05  7.499907E+02  6.869809E+04
       297  25 -2.856319E+06 -5.288962E+05 -5.170477E+05  2.691517E+05  8.130039E+04  2.533810E+04
       297  26 -2.453065E+06 -4.141088E+05 -3.802061E+05  1.889678E+05  2.400923E+04  7.568566E+04
       297  27 -2.060040E+06 -3.154163E+05 -2.846180E+05  2.631563E+05 -3.337058E+04  6.869627E+04
       298   1  2.124559E+05  2.377460E+05  2.095825E+05  2.651102E+05 -1.821870E+04 -5.056619E+04
       298   2 -1.870405E+05  1.408939E+05  1.219169E+05  1.864419E+05 -1.885689E+04 -3.058102E+04
       298   3 -5.863159E+05  4.393944E+04  3.462527E+04  2.651796E+05 -1.951050E+04 -8.102983E+03
       298   4 -7.651391E+05 -3.982767E+02 -3.285113E+03  2.650474E+05 -2.260341E+02 -5.056168E+04
       298   5 -7.648954E+05  1.778838E+02 -3.516199E+03  1.863397E+05  1.521857E+03 -3.056890E+04
       298   6 -7.650019E+05  2.449372E+02 -5.027546E+03  2.650472E+05  3.253879E+03 -8.081626E+03
       298   7 -1.741837E+06 -2.386059E+05 -2.162089E+05  2.649843E+05  1.773867E+04 -5.055717E+04
       298   8 -1.342436E+06 -1.405601E+05 -1.289677E+05  1.862376E+05  2.188188E+04 -3.055679E+04
       298   9 -9.436569E+05 -4.345145E+04 -4.468040E+04  2.649150E+05  2.601177E+04 -8.060275E+03
       298  10  2.124549E+05  2.377431E+05  2.095771E+05  2.651095E+05  4.907057E-10  2.955729E-10
       298  11 -1.870411E+05  1.408928E+05  1.219145E+05  1.864414E+05  7.408662E-11  1.059281E-10
       298  12 -5.863163E+05  4.393926E+04  3.462444E+04  2.651794E+05 -6.680058E-10  1.834903E-10
       298  13 -7.651398E+05 -4.010210E+02 -3.289916E+03  2.650474E+05  1.754739E-10  3.721136E-10
       298  14 -7.648956E+05  1.768801E+02 -3.517959E+03  1.863398E+05 -9.996006E-11  2.526453E-10
       298  15 -7.650019E+05  2.448642E+02 -5.027689E+03  2.650473E+05 -2.033333E-10  2.637468E-10
       298  16 -1.741838E+06 -2.386087E+05 -2.162143E+05  2.649851E+05 -3.609047E-10  1.804172E-10
       298  17 -1.342437E+06 -1.405612E+05 -1.289703E+05  1.862381E+05 -1.220135E-10  2.410386E-10
       298  18 -9.436576E+05 -4.345170E+04 -4.468180E+04  2.649151E+05  5.088179E-10  1.963230E-10
       298  19  2.124559E+05  2.377460E+05  2.095825E+05  2.651102E+05  1.821870E+04  5.056619E+04
       298  20 -1.870405E+05  1.408939E+05  1.219169E+05  1.864419E+05  1.885689E+04  3.058102E+04
       298  21 -5.863159E+05  4.393944E+04  3.462527E+04  2.651796E+05  1.951050E+04  8.102983E+03
       298  22 -7.651391E+05 -3.982767E+02 -3.285113E+03  2.650474E+05  2.260341E+02  5.056168E+04
       298  23 -7.648954E+05  1.778838E+02 -3.516199E+03  1.863397E+05 -1.521857E+03  3.056890E+04
       298  24 -7.650019E+05  2.449372E+02 -5.027546E+03  2.650472E+05 -3.253879E+03  8.081626E+03
       298  25 -1.741837E+06 -2.386059E+05 -2.162089E+05  2.649843E+05 -1.773867E+04  5.055717E+04
       298  26 -1.342436E+06 -1.405601E+05 -1.289677E+05  1.862376E+05 -2.188188E+04  3.055679E+04
       298  27 -9.436569E+05 -4.345145E+04 -4.468040E+04  2.649150E+05 -2.601177E+04  8.060275E+03
       299   1 -9.040842E+05 -3.340899E+04 -3.731019E+04  2.641901E+05 -1.851802E+04  5.914826E+03
       299   2 -1.302264E+06 -1.308077E+05 -1.273019E+05  1.864232E+05 -1.093610E+04  2.842333E+04
       299   3 -1.702337E+06 -2.323310E+05 -2.233022E+05  2.660906E+05 -3.344031E+03  4.848596E+04
       299   4 -7.652824E+05  5.842663E+02 -6.285062E+03  2.650493E+05  4.228828E+03  5.936301E+03
       299   5 -7.645351E+05  2.293542E+02 -1.047945E+04  1.863375E+05  9.464681E+03  2.843610E+04
       299   6 -7.654139E+05 -3.828448E+03 -1.904001E+04  2.650523E+05  1.471539E+04  4.849152E+04
       299   7 -6.264616E+05  3.457649E+04  2.474080E+04  2.659086E+05  2.698072E+04  5.957836E+03
       299   8 -2.265338E+05  1.312474E+05  1.063273E+05  1.862516E+05  2.988292E+04  2.844884E+04
       299   9  1.723347E+05  2.246159E+05  1.851706E+05  2.640121E+05  3.280176E+04  4.849701E+04
       299  10 -9.040845E+05 -3.340912E+04 -3.731090E+04  2.641902E+05  2.740713E-10  4.494937E-11
       299  11 -1.302264E+06 -1.308086E+05 -1.273036E+05  1.864234E+05 -1.002592E-10  1.556519E-10
       299  12 -1.702338E+06 -2.323336E+05 -2.233066E+05  2.660907E+05 -2.088273E-10 -2.170547E-10
       299  13 -7.652825E+05  5.842237E+02 -6.285162E+03  2.650493E+05 -1.805887E-10 -2.360370E-11
       299  14 -7.645354E+05  2.284623E+02 -1.048113E+04  1.863373E+05  9.987766E-12  5.174244E-11
       299  15 -7.654148E+05 -3.831030E+03 -1.904483E+04  2.650517E+05 -1.124636E-10 -2.290101E-10
       299  16 -6.264624E+05  3.457626E+04  2.473936E+04  2.659085E+05 -3.594962E-11  2.831009E-10
       299  17 -2.265349E+05  1.312463E+05  1.063241E+05  1.862510E+05 -1.050631E-10 -5.216657E-10
       299  18  1.723329E+05  2.246131E+05  1.851642E+05  2.640108E+05 -1.653813E-10 -1.040934E-10
       299  19 -9.040842E+05 -3.340899E+04 -3.731019E+04  2.641901E+05  1.851802E+04 -5.914826E+03
       299  20 -1.302264E+06 -1.308077E+05 -1.273019E+05  1.864232E+05  1.093610E+04 -2.842333E+04
       299  21 -1.702337E+06 -2.323310E+05 -2.233022E+05  2.660906E+05  3.344031E+03 -4.848596E+04
       299  22 -7.652824E+05  5.842663E+02 -6.285062E+03  2.650493E+05 -4.228828E+03 -5.936301E+03
       299  23 -7.645351E+05  2.293542E+02 -1.047945E+04  1.863375E+05 -9.464681E+03 -2.843610E+04
       299  24 -7.654139E+05 -3.828448E+03 -1.904001E+04  2.650523E+05 -1.471539E+04 -4.849152E+04
       299  25 -6.264616E+05  3.457649E+04  2.474080E+04  2.659086E+05 -2.698072E+04 -5.957836E+03
       299  26 -2.265338E+05  1.312474E+05  1.063273E+05  1.862516E+05 -2.988292E+04 -2.844884E+04
       299  27  1.723347E+05  2.246159E+05  1.851706E+05  2.640121E+05 -3.280176E+04 -4.849701E+04
       300   1 -2.024323E+06 -3.025726E+05 -2.965710E+05  2.536007E+05 -1.588283E+04  6.654803E+04
       300   2 -2.408396E+06 -4.053032E+05 -4.078450E+05  2.005813E+05  5.976773E+04  7.382031E+04
       300   3 -2.820774E+06 -5.865095E+05 -5.879126E+05  3.019395E+05  1.353206E+05  2.474886E+04
       300   4 -7.694234E+05  3.350357E+03 -2.392911E+04  2.643804E+05  1.805874E+04  6.655144E+04
       300   5 -7.601346E+05 -1.695913E+03 -4.115247E+04  1.871802E+05  3.983902E+04  7.380845E+04
       300   6 -7.698407E+05 -7.572234E+04 -8.960540E+04  2.643503E+05  6.157321E+04  2.478299E+04
       300   7  4.869597E+05  3.091698E+05  2.486230E+05  2.751817E+05  5.206816E+04  6.655603E+04
       300   8  8.906705E+05  4.017279E+05  3.253720E+05  1.737428E+05  1.985773E+04  7.379750E+04
       300   9  1.284962E+06  4.347631E+05  4.084186E+05  2.266359E+05 -1.241824E+04  2.482607E+04
       300  10 -2.024324E+06 -3.025774E+05 -2.965798E+05  2.536016E+05 -1.686915E-10 -1.371651E-10
       300  11 -2.408401E+06 -4.053100E+05 -4.078619E+05  2.005777E+05  1.788085E-11  5.478869E-11
       300  12 -2.820794E+06 -5.865151E+05 -5.879483E+05  3.019368E+05  5.302257E-10 -1.743734E-11
       300  13 -7.694249E+05  3.345516E+03 -2.393804E+04  2.643794E+05 -1.250047E-10 -1.484759E-10
       300  14 -7.601377E+05 -1.702186E+03 -4.116568E+04  1.871778E+05  2.831265E-10 -4.731215E-11
       300  15 -7.698449E+05 -7.572401E+04 -8.961368E+04  2.643490E+05  5.335314E-10 -3.333886E-11
       300  16  4.869556E+05  3.091643E+05  2.486096E+05  2.751789E+05 -4.703508E-11 -1.480947E-10
       300  17  8.906686E+05  4.017220E+05  3.253610E+05  1.737416E+05  5.353579E-10 -3.634920E-10
       300  18  1.284961E+06  4.347624E+05  4.084172E+05  2.266362E+05 -1.416215E-11 -1.186806E-10
       300  19 -2.024323E+06 -3.025726E+05 -2.965710E+05  2.536007E+05  1.588283E+04 -6.654803E+04
       300  20 -2.408396E+06 -4.053032E+05 -4.078450E+05  2.005813E+05 -5.976773E+04 -7.382031E+04
       300  21 -2.820774E+06 -5.865095E+05 -5.879126E+05  3.019395E+05 -1.353206E+05 -2.474886E+04
       300  22 -7.694234E+05  3.350357E+03 -2.392911E+04  2.643804E+05 -1.805874E+04 -6.655144E+04
       300  23 -7.601346E+05 -1.695913E+03 -4.115247E+04  1.871802E+05 -3.983902E+04 -7.380845E+04
       300  24 -7.698407E+05 -7.572234E+04 -8.960540E+04  2.643503E+05 -6.157321E+04 -2.478299E+04
       300  25  4.869597E+05  3.091698E+05  2.486230E+05  2.751817E+05 -5.206816E+04 -6.655603E+04
       300  26  8.906705E+05  4.017279E+05  3.253720E+05  1.737428E+05 -1.985773E+04 -7.379750E+04
       300  27  1.284962E+06  4.347631E+05  4.084186E+05  2.266359E+05  1.241824E+04 -2.482607E+04
       301   1  1.690301E+06  4.957275E+05  4.879210E+05  2.525947E+05  8.404225E+04 -2.341358E+04
       301   2  1.312635E+06  3.796629E+05  3.541558E+05  1.761286E+05  2.856568E+04 -6.957219E+04
       301   3  9.495153E+05  2.885131E+05  2.628317E+05  2.429260E+05 -2.683091E+04 -6.302054E+04
       301   4 -2.407042E+05  1.634720E+04  2.019810E+04  2.452339E+05  1.423366E+04 -2.337147E+04
       301   5 -2.433581E+05 -3.780274E+02  8.896433E+03  1.735894E+05  9.498961E+03 -6.958011E+04
       301   6 -2.403669E+05 -9.459022E+02  4.877144E+03  2.452260E+05  4.809300E+03 -6.302012E+04
       301   7 -2.168298E+06 -4.633036E+05 -4.477750E+05  2.378960E+05 -5.535897E+04 -2.332768E+04
       301   8 -1.797093E+06 -3.805823E+05 -3.365121E+05  1.710565E+05 -9.520608E+03 -6.958791E+04
       301   9 -1.428920E+06 -2.904980E+05 -2.531580E+05  2.475211E+05  3.638974E+04 -6.301947E+04
       301  10  1.690294E+06  4.957251E+05  4.879068E+05  2.525963E+05 -2.355917E-11 -5.076938E-11
       301  11  1.312632E+06  3.796575E+05  3.541452E+05  1.761302E+05  2.170036E-11  4.258793E-10
       301  12  9.495134E+05  2.885086E+05  2.628229E+05  2.429246E+05  2.826344E-10  3.637609E-10
       301  13 -2.407046E+05  1.634655E+04  2.019669E+04  2.452342E+05  4.822985E-10  2.720095E-10
       301  14 -2.433595E+05 -3.832501E+02  8.887166E+03  1.735900E+05  6.069287E-10  4.698703E-11
       301  15 -2.403680E+05 -9.501728E+02  4.869637E+03  2.452262E+05  2.582160E-10  2.252220E-10
       301  16 -2.168301E+06 -4.633050E+05 -4.477818E+05  2.378949E+05 -5.293035E-10 -3.904853E-10
       301  17 -1.797095E+06 -3.805876E+05 -3.365213E+05  1.710560E+05  2.981034E-10  5.353572E-11
       301  18 -1.428922E+06 -2.905026E+05 -2.531679E+05  2.475230E+05  2.095162E-11  1.163178E-10
       301  19  1.690301E+06  4.957275E+05  4.879210E+05  2.525947E+05 -8.404225E+04  2.341358E+04
       301  20  1.312635E+06  3.796629E+05  3.541558E+05  1.761286E+05 -2.856568E+04  6.957219E+04
       301  21  9.495153E+05  2.885131E+05  2.628317E+05  2.429260E+05  2.683091E+04  6.302054E+04
       301  22 -2.407042E+05  1.634720E+04  2.019810E+04  2.452339E+05 -1.423366E+04  2.337147E+04
       301  23 -2.433581E+05 -3.780274E+02  8.896433E+03  1.735894E+05 -9.498961E+03  6.958011E+04
       301  24 -2.403669E+05 -9.459022E+02  4.877144E+03  2.452260E+05 -4.809300E+03  6.302012E+04
       301  25 -2.168298E+06 -4.633036E+05 -4.477750E+05  2.378960E+05  5.535897E+04  2.332768E+04
       301  26 -1.797093E+06 -3.805823E+05 -3.365121E+05  1.710565E+05  9.520608E+03  6.958791E+04
       301  27 -1.428920E+06 -2.904980E+05 -2.531580E+05  2.475211E+05 -3.638974E+04  6.301947E+04
       302   1  6.531561E+05  2.186417E+05  1.981859E+05  2.462477E+05 -1.254572E+04 -4.624074E+04
       302   2  2.827456E+05  1.276981E+05  1.146322E+05  1.730679E+05 -1.519702E+04 -2.771681E+04
       302   3 -8.688830E+04  3.791007E+04  3.307915E+04  2.456825E+05 -1.786001E+04 -6.903617E+03
       302   4 -2.414244E+05  8.361216E+02  3.497775E+03  2.457881E+05  4.147609E+03 -4.623742E+04
       302   5 -2.415034E+05  1.053150E+02  8.930100E+02  1.728875E+05  3.692021E+03 -2.770720E+04
       302   6 -2.413093E+05  1.594001E+02 -1.227865E+03  2.457887E+05  3.223226E+03 -6.886336E+03
       302   7 -1.135255E+06 -2.170225E+05 -1.912373E+05  2.453290E+05  2.081721E+04 -4.623413E+04
       302   8 -7.654938E+05 -1.275055E+05 -1.128612E+05  1.727071E+05  2.256532E+04 -2.769760E+04
       302   9 -3.957071E+05 -3.759264E+04 -3.553469E+04  2.458949E+05  2.430127E+04 -6.869044E+03
       302  10  6.531553E+05  2.186394E+05  1.981816E+05  2.462472E+05  3.227165E-10  2.773399E-10
       302  11  2.827451E+05  1.276972E+05  1.146303E+05  1.730676E+05  8.706125E-11  7.444436E-11
       302  12 -8.688865E+04  3.790993E+04  3.307846E+04  2.456824E+05  3.229508E-10 -3.158549E-10
       302  13 -2.414250E+05  8.338214E+02  3.493726E+03  2.457883E+05  2.692278E-10  9.442559E-11
       302  14 -2.415036E+05  1.044871E+02  8.915418E+02  1.728875E+05 -1.407157E-10  4.530664E-10
       302  15 -2.413093E+05  1.593464E+02 -1.227974E+03  2.457887E+05  5.074927E-11 -1.794661E-10
       302  16 -1.135256E+06 -2.170249E+05 -1.912421E+05  2.453298E+05 -3.729394E-10  1.969944E-10
       302  17 -7.654946E+05 -1.275064E+05 -1.128636E+05  1.727076E+05 -1.568589E-10  4.351519E-11
       302  18 -3.957077E+05 -3.759285E+04 -3.553589E+04  2.458950E+05 -6.595198E-11  2.956592E-11
       302  19  6.531561E+05  2.186417E+05  1.981859E+05  2.462477E+05  1.254572E+04  4.624074E+04
       302  20  2.827456E+05  1.276981E+05  1.146322E+05  1.730679E+05  1.519702E+04  2.771681E+04
       302  21 -8.688830E+04  3.791007E+04  3.307915E+04  2.456825E+05  1.786001E+04  6.903617E+03
       302  22 -2.414244E+05  8.361216E+02  3.497775E+03  2.457881E+05 -4.147609E+03  4.623742E+04
       302  23 -2.415034E+05  1.053150E+02  8.930100E+02  1.728875E+05 -3.692021E+03  2.770720E+04
       302  24 -2.413093E+05  1.594001E+02 -1.227865E+03  2.457887E+05 -3.223226E+03  6.886336E+03
       302  25 -1.135255E+06 -2.170225E+05 -1.912373E+05  2.453290E+05 -2.081721E+04  4.623413E+04
       302  26 -7.654938E+05 -1.275055E+05 -1.128612E+05  1.727071E+05 -2.256532E+04  2.769760E+04
       302  27 -3.957071E+05 -3.759264E+04 -3.553469E+04  2.458949E+05 -2.430127E+04  6.869044E+03
       303   1 -3.810895E+05 -3.367040E+04 -3.345078E+04  2.452254E+05 -1.755221E+04  6.072047E+03
       303   2 -7.503160E+05 -1.238490E+05 -1.159191E+05  1.728719E+05 -1.267929E+04  2.690542E+04
       303   3 -1.120660E+06 -2.165088E+05 -2.022053E+05  2.463265E+05 -7.796371E+03  4.546589E+04
       303   4 -2.415612E+05  4.642069E+02 -2.360739E+03  2.457882E+05  3.521887E+03  6.089368E+03
       303   5 -2.411852E+05  1.430732E+02 -5.383415E+03  1.728884E+05  6.211828E+03  2.691525E+04
       303   6 -2.416741E+05 -2.270288E+03 -1.070005E+04  2.457897E+05  8.914605E+03  4.546956E+04
       303   7 -1.020137E+05  3.459773E+04  2.872975E+04  2.463511E+05  2.460067E+04  6.106724E+03
       303   8  2.681897E+05  1.241181E+05  1.051382E+05  1.729049E+05  2.511825E+04  2.692507E+04
       303   9  6.380373E+05  2.119170E+05  1.807598E+05  2.452520E+05  2.564896E+04  4.547320E+04
       303  10 -3.810899E+05 -3.367052E+04 -3.345143E+04  2.452255E+05  5.657063E-11 -6.444276E-11
       303  11 -7.503163E+05 -1.238498E+05 -1.159208E+05  1.728722E+05  1.197445E-10 -2.058205E-10
       303  12 -1.120660E+06 -2.165111E+05 -2.022093E+05  2.463268E+05  1.385163E-10  8.742690E-11
       303  13 -2.415612E+05  4.641638E+02 -2.360832E+03  2.457881E+05  1.949584E-10 -4.066403E-11
       303  14 -2.411854E+05  1.422851E+02 -5.384849E+03  1.728883E+05 -1.282784E-10 -2.524966E-10
       303  15 -2.416747E+05 -2.272529E+03 -1.070409E+04  2.457894E+05 -1.861873E-11 -1.677458E-10
       303  16 -1.020143E+05  3.459753E+04  2.872854E+04  2.463509E+05  7.929039E-11  7.432369E-12
       303  17  2.681888E+05  1.241172E+05  1.051356E+05  1.729044E+05 -1.754128E-10  4.423524E-10
       303  18  6.380360E+05  2.119146E+05  1.807547E+05  2.452511E+05 -1.155093E-10  2.360556E-10
       303  19 -3.810895E+05 -3.367040E+04 -3.345078E+04  2.452254E+05  1.755221E+04 -6.072047E+03
       303  20 -7.503160E+05 -1.238490E+05 -1.159191E+05  1.728719E+05  1.267929E+04 -2.690542E+04
       303  21 -1.120660E+06 -2.165088E+05 -2.022053E+05  2.463265E+05  7.796371E+03 -4.546589E+04
       303  22 -2.415612E+05  4.642069E+02 -2.360739E+03  2.457882E+05 -3.521887E+03 -6.089368E+03
       303  23 -2.411852E+05  1.430732E+02 -5.383415E+03  1.728884E+05 -6.211828E+03 -2.691525E+04
       303  24 -2.416741E+05 -2.270288E+03 -1.070005E+04  2.457897E+05 -8.914605E+03 -4.546956E+04
       303  25 -1.020137E+05  3.459773E+04  2.872975E+04  2.463511E+05 -2.460067E+04 -6.106724E+03
       303  26  2.681897E+05  1.241181E+05  1.051382E+05  1.729049E+05 -2.511825E+04 -2.692507E+04
       303  27  6.380373E+05  2.119170E+05  1.807598E+05  2.452520E+05 -2.564896E+04 -4.547320E+04
       304   1 -1.417709E+06 -2.840594E+05 -2.684743E+05  2.389211E+05 -2.072982E+04  6.222306E+04
       304   2 -1.777732E+06 -3.777913E+05 -3.660409E+05  1.815689E+05  4.215862E+04  6.888980E+04
       304   3 -2.157108E+06 -5.204264E+05 -5.166657E+05  2.675070E+05  1.049633E+05  2.308923E+04
       304   4 -2.439933E+05  1.882942E+03 -1.364881E+04  2.452340E+05  1.079510E+04  6.222400E+04
       304   5 -2.388129E+05 -1.206762E+03 -2.390725E+04  1.735849E+05  2.346239E+04  6.888126E+04
       304   6 -2.443348E+05 -4.439573E+04 -5.225483E+04  2.452149E+05  3.608612E+04  2.312665E+04
       304   7  9.310187E+05  2.877346E+05  2.410983E+05  2.515587E+05  4.237892E+04  6.222557E+04
       304   8  1.302322E+06  3.752178E+05  3.180801E+05  1.655808E+05  4.720178E+03  6.887322E+04
       304   9  1.671799E+06  4.313702E+05  4.119098E+05  2.228536E+05 -3.300339E+04  2.316900E+04
       304  10 -1.417710E+06 -2.840637E+05 -2.684824E+05  2.389221E+05  1.460084E-10  1.339883E-10
       304  11 -1.777736E+06 -3.777969E+05 -3.660532E+05  1.815665E+05  4.695857E-10  2.163296E-10
       304  12 -2.157120E+06 -5.204300E+05 -5.166875E+05  2.675051E+05  5.146004E-10 -1.518591E-10
       304  13 -2.439944E+05  1.878754E+03 -1.365630E+04  2.452335E+05 -3.727674E-10  1.637788E-10
       304  14 -2.388148E+05 -1.212003E+03 -2.391720E+04  1.735836E+05  1.682690E-10  2.727870E-10
       304  15 -2.443363E+05 -4.439665E+04 -5.225828E+04  2.452142E+05  3.658944E-10 -1.635292E-10
       304  16  9.310157E+05  2.877300E+05  2.410876E+05  2.515566E+05 -3.414537E-10 -1.791954E-11
       304  17  1.302320E+06  3.752127E+05  3.180712E+05  1.655805E+05 -6.996778E-10  1.072342E-10
       304  18  1.671797E+06  4.313693E+05  4.119067E+05  2.228542E+05 -2.690020E-10 -2.025666E-10
       304  19 -1.417709E+06 -2.840594E+05 -2.684743E+05  2.389211E+05  2.072982E+04 -6.222306E+04
       304  20 -1.777732E+06 -3.777913E+05 -3.660409E+05  1.815689E+05 -4.215862E+04 -6.888980E+04
       304  21 -2.157108E+06 -5.204264E+05 -5.166657E+05  2.675070E+05 -1.049633E+05 -2.308923E+04
       304  22 -2.439933E+05  1.882942E+03 -1.364881E+04  2.452340E+05 -1.079510E+04 -6.222400E+04
       304  23 -2.388129E+05 -1.206762E+03 -2.390725E+04  1.735849E+05 -2.346239E+04 -6.888126E+04
       304  24 -2.443348E+05 -4.439573E+04 -5.225483E+04  2.452149E+05 -3.608612E+04 -2.312665E+04
       304  25  9.310187E+05  2.877346E+05  2.410983E+05  2.515587E+05 -4.237892E+04 -6.222557E+04
       304  26  1.302322E+06  3.752178E+05  3.180801E+05  1.655808E+05 -4.720178E+03 -6.887322E+04
       304  27  1.671799E+06  4.313702E+05  4.119098E+05  2.228536E+05  3.300339E+04 -2.316900E+04
       305   1  2.159972E+06  5.145640E+05  5.122697E+05  2.638515E+05  1.048677E+05 -2.297821E+04
       305   2  1.781614E+06  3.726840E+05  3.624822E+05  1.793315E+05  4.228353E+04 -6.817572E+04
       305   3  1.424888E+06  2.806305E+05  2.659490E+05  2.370034E+05 -2.021963E+04 -6.156234E+04
       305   4  2.612987E+05  4.348718E+04  5.260740E+04  2.431368E+05  3.633558E+04 -2.294058E+04
       305   5  2.550095E+05  1.937373E+01  2.389935E+04  1.720248E+05  2.367470E+04 -6.818381E+04
       305   6  2.616345E+05 -2.195756E+03  1.389915E+04  2.431168E+05  1.105677E+04 -6.156177E+04
       305   7 -1.634078E+06 -4.278493E+05 -4.072964E+05  2.224853E+05 -3.198824E+04 -2.289837E+04
       305   8 -1.269423E+06 -3.728022E+05 -3.148269E+05  1.647360E+05  5.110955E+03 -6.819148E+04
       305   9 -9.003491E+05 -2.851107E+05 -2.382275E+05  2.492184E+05  4.227544E+04 -6.156057E+04
       305  10  2.159960E+06  5.145605E+05  5.122482E+05  2.638535E+05 -2.467922E-10  2.920725E-10
       305  11  1.781610E+06  3.726786E+05  3.624701E+05  1.793338E+05 -4.606631E-10  5.721853E-10
       305  12  1.424886E+06  2.806263E+05  2.659412E+05  2.370024E+05  5.543971E-10  1.549502E-10
       305  13  2.612972E+05  4.348626E+04  5.260393E+04  2.431375E+05  8.501435E-10  6.311755E-11
       305  14  2.550076E+05  1.422991E+01  2.388955E+04  1.720261E+05  5.346964E-10 -1.209747E-10
       305  15  2.616333E+05 -2.199859E+03  1.389179E+04  2.431174E+05  3.911639E-10 -5.782863E-11
       305  16 -1.634079E+06 -4.278501E+05 -4.072993E+05  2.224847E+05 -3.074911E-10  3.001372E-10
       305  17 -1.269424E+06 -3.728072E+05 -3.148357E+05  1.647363E+05 -3.753761E-10 -1.783705E-10
       305  18 -9.003521E+05 -2.851153E+05 -2.382380E+05  2.492205E+05 -2.906215E-10 -1.846861E-10
       305  19  2.159972E+06  5.145640E+05  5.122697E+05  2.638515E+05 -1.048677E+05  2.297821E+04
       305  20  1.781614E+06  3.726840E+05  3.624822E+05  1.793315E+05 -4.228353E+04  6.817572E+04
       305  21  1.424888E+06  2.806305E+05  2.659490E+05  2.370034E+05  2.021963E+04  6.156234E+04
       305  22  2.612987E+05  4.348718E+04  5.260740E+04  2.431368E+05 -3.633558E+04  2.294058E+04
       305  23  2.550095E+05  1.937373E+01  2.389935E+04  1.720248E+05 -2.367470E+04  6.818381E+04
       305  24  2.616345E+05 -2.195756E+03  1.389915E+04  2.431168E+05 -1.105677E+04  6.156177E+04
       305  25 -1.634078E+06 -4.278493E+05 -4.072964E+05  2.224853E+05  3.198824E+04  2.289837E+04
       305  26 -1.269423E+06 -3.728022E+05 -3.148269E+05  1.647360E+05 -5.110955E+03  6.819148E+04
       305  27 -9.003491E+05 -2.851107E+05 -2.382275E+05  2.492184E+05 -4.227544E+04  6.156057E+04
       306   1  1.129804E+06  2.140955E+05  2.002554E+05  2.445585E+05 -7.465232E+03 -4.497322E+04
       306   2  7.626205E+05  1.226451E+05  1.148210E+05  1.717319E+05 -1.240221E+04 -2.661369E+04
       306   3  3.968660E+05  3.377572E+04  3.322873E+04  2.432475E+05 -1.734888E+04 -6.011361E+03
       306   4  2.591018E+05  2.218208E+03  1.086454E+04  2.435984E+05  9.099205E+03 -4.496980E+04
       306   5  2.586917E+05  6.330180E+01  5.542700E+03  1.714245E+05  6.317299E+03 -2.660428E+04
       306   6  2.592124E+05  1.255267E+02  2.576174E+03  2.435998E+05  3.522856E+03 -5.994647E+03
       306   7 -6.108896E+05 -2.097092E+05 -1.785707E+05  2.426395E+05  2.564074E+04 -4.496643E+04
       306   8 -2.449984E+05 -1.225351E+05 -1.037494E+05  1.711173E+05  2.502183E+04 -2.659488E+04
       306   9  1.215773E+05 -3.352571E+04 -2.807593E+04  2.439520E+05  2.439002E+04 -5.977907E+03
       306  10  1.129803E+06  2.140933E+05  2.002515E+05  2.445583E+05 -4.232966E-11  1.864880E-10
       306  11  7.626202E+05  1.226443E+05  1.148193E+05  1.717316E+05  1.758966E-11  3.254706E-12
       306  12  3.968657E+05  3.377560E+04  3.322810E+04  2.432474E+05  2.192423E-10 -1.656116E-10
       306  13  2.591012E+05  2.216013E+03  1.086058E+04  2.435988E+05  1.865540E-10 -1.640010E-10
       306  14  2.586914E+05  6.253089E+01  5.541294E+03  1.714247E+05  3.344985E-10  3.092943E-10
       306  15  2.592123E+05  1.254848E+02  2.576083E+03  2.435998E+05 -2.398852E-10  2.971900E-10
       306  16 -6.108908E+05 -2.097116E+05 -1.785757E+05  2.426404E+05  4.347223E-10 -2.093170E-10
       306  17 -2.449993E+05 -1.225361E+05 -1.037519E+05  1.711179E+05  1.469358E-11 -4.227498E-10
       306  18  1.215766E+05 -3.352591E+04 -2.807711E+04  2.439521E+05 -2.691976E-10  4.722716E-11
       306  19  1.129804E+06  2.140955E+05  2.002554E+05  2.445585E+05  7.465232E+03  4.497322E+04
       306  20  7.626205E+05  1.226451E+05  1.148210E+05  1.717319E+05  1.240221E+04  2.661369E+04
       306  21  3.968660E+05  3.377572E+04  3.322873E+04  2.432475E+05  1.734888E+04  6.011361E+03
       306  22  2.591018E+05  2.218208E+03  1.086454E+04  2.435984E+05 -9.099205E+03  4.496980E+04
       306  23  2.586917E+05  6.330180E+01  5.542700E+03  1.714245E+05 -6.317299E+03  2.660428E+04
       306  24  2.592124E+05  1.255267E+02  2.576174E+03  2.435998E+05 -3.522856E+03  5.994647E+03
       306  25 -6.108896E+05 -2.097092E+05 -1.785707E+05  2.426395E+05 -2.564074E+04  4.496643E+04
       306  26 -2.449984E+05 -1.225351E+05 -1.037494E+05  1.711173E+05 -2.502183E+04  2.659488E+04
       306  27  1.215773E+05 -3.352571E+04 -2.807593E+04  2.439520E+05 -2.439002E+04  5.977907E+03
       307   1  1.056740E+05 -3.703427E+04 -3.258165E+04  2.432752E+05 -1.772228E+04  6.828857E+03
       307   2 -2.603450E+05 -1.263176E+05 -1.133490E+05  1.712744E+05 -1.521434E+04  2.744265E+04
       307   3 -6.267908E+05 -2.166145E+05 -1.960207E+05  2.436335E+05 -1.269496E+04  4.579337E+04
       307   4  2.589645E+05  4.259119E+02  1.456015E+03  2.436002E+05  3.150590E+03  6.845521E+03
       307   5  2.589980E+05  8.984543E+01 -6.676919E+02  1.714243E+05  3.482072E+03  2.745183E+04
       307   6  2.588516E+05 -8.745615E+02 -3.180407E+03  2.436010E+05  3.826469E+03  4.579640E+04
       307   7  4.122778E+05  3.788474E+04  3.549386E+04  2.439253E+05  2.402855E+04  6.862204E+03
       307   8  7.785949E+05  1.264796E+05  1.119989E+05  1.715742E+05  2.219392E+04  2.746101E+04
       307   9  1.145230E+06  2.148134E+05  1.896139E+05  2.435681E+05  2.037117E+04  4.579943E+04
       307  10  1.056736E+05 -3.703441E+04 -3.258233E+04  2.432753E+05 -1.497784E-10 -3.716202E-10
       307  11 -2.603455E+05 -1.263185E+05 -1.133509E+05  1.712747E+05 -1.265863E-10  5.275109E-10
       307  12 -6.267915E+05 -2.166168E+05 -1.960250E+05  2.436340E+05  7.233585E-11  1.849171E-10
       307  13  2.589644E+05  4.258589E+02  1.455908E+03  2.436002E+05 -2.138402E-10 -2.509463E-10
       307  14  2.589978E+05  8.903289E+01 -6.691309E+02  1.714242E+05 -2.734693E-10 -4.769887E-10
       307  15  2.588511E+05 -8.768177E+02 -3.184376E+03  2.436008E+05  4.151793E-11  1.487276E-10
       307  16  4.122772E+05  3.788454E+04  3.549269E+04  2.439252E+05  4.651588E-10 -6.645734E-11
       307  17  7.785941E+05  1.264787E+05  1.119965E+05  1.715737E+05 -1.093008E-10 -7.704590E-11
       307  18  1.145229E+06  2.148110E+05  1.896092E+05  2.435674E+05  1.303173E-10  1.013470E-10
       307  19  1.056740E+05 -3.703427E+04 -3.258165E+04  2.432752E+05  1.772228E+04 -6.828857E+03
       307  20 -2.603450E+05 -1.263176E+05 -1.133490E+05  1.712744E+05  1.521434E+04 -2.744265E+04
       307  21 -6.267908E+05 -2.166145E+05 -1.960207E+05  2.436335E+05  1.269496E+04 -4.579337E+04
       307  22  2.589645E+05  4.259119E+02  1.456015E+03  2.436002E+05 -3.150590E+03 -6.845521E+03
       307  23  2.589980E+05  8.984543E+01 -6.676919E+02  1.714243E+05 -3.482072E+03 -2.745183E+04
       307  24  2.588516E+05 -8.745615E+02 -3.180407E+03  2.436010E+05 -3.826469E+03 -4.579640E+04
       307  25  4.122778E+05  3.788474E+04  3.549386E+04  2.439253E+05 -2.402855E+04 -6.862204E+03
       307  26  7.785949E+05  1.264796E+05  1.119989E+05  1.715742E+05 -2.219392E+04 -2.746101E+04
       307  27  1.145230E+06  2.148134E+05  1.896139E+05  2.435681E+05 -2.037117E+04 -4.579943E+04
       308   1 -9.196149E+05 -2.861610E+05 -2.599470E+05  2.407139E+05 -2.693570E+04  6.242140E+04
       308   2 -1.280583E+06 -3.774848E+05 -3.507336E+05  1.752120E+05  2.776596E+04  6.892664E+04
       308   3 -1.653374E+06 -4.919268E+05 -4.827684E+05  2.518433E+05  8.239008E+04  2.309012E+04
       308   4  2.580463E+05  5.763394E+02 -4.425924E+03  2.431058E+05  4.385068E+03  6.242142E+04
       308   5  2.594819E+05 -8.358078E+02 -8.552831E+03  1.720440E+05  8.940393E+03  6.891906E+04
       308   6  2.577150E+05 -1.661337E+04 -1.904939E+04  2.430985E+05  1.345097E+04  2.313217E+04
       308   7  1.437012E+06  2.872224E+05  2.510162E+05  2.455020E+05  3.576452E+04  6.242167E+04
       308   8  1.801763E+06  3.756529E+05  3.334816E+05  1.688679E+05 -9.931448E+03  6.891170E+04
       308   9  2.172155E+06  4.584346E+05  4.444239E+05  2.343266E+05 -5.570019E+04  2.317614E+04
       308  10 -9.196168E+05 -2.861654E+05 -2.599557E+05  2.407152E+05  3.875402E-10  5.365485E-11
       308  11 -1.280586E+06 -3.774901E+05 -3.507440E+05  1.752105E+05 -4.433960E-11 -5.454823E-11
       308  12 -1.653382E+06 -4.919292E+05 -4.827821E+05  2.518417E+05  5.274383E-10  1.941727E-10
       308  13  2.580453E+05  5.721498E+02 -4.433282E+03  2.431056E+05  1.771470E-10  1.382767E-10
       308  14  2.594806E+05 -8.409302E+02 -8.561908E+03  1.720435E+05  4.870944E-10 -7.641575E-10
       308  15  2.577147E+05 -1.661400E+04 -1.905073E+04  2.430982E+05  2.776887E-10  6.690390E-11
       308  16  1.437009E+06  2.872179E+05  2.510065E+05  2.455002E+05 -1.030145E-10  1.800003E-10
       308  17  1.801762E+06  3.756478E+05  3.334725E+05  1.688684E+05  4.779144E-10 -1.629524E-10
       308  18  2.172151E+06  4.584332E+05  4.444171E+05  2.343277E+05 -1.315929E-10  2.447139E-10
       308  19 -9.196149E+05 -2.861610E+05 -2.599470E+05  2.407139E+05  2.693570E+04 -6.242140E+04
       308  20 -1.280583E+06 -3.774848E+05 -3.507336E+05  1.752120E+05 -2.776596E+04 -6.892664E+04
       308  21 -1.653374E+06 -4.919268E+05 -4.827684E+05  2.518433E+05 -8.239008E+04 -2.309012E+04
       308  22  2.580463E+05  5.763394E+02 -4.425924E+03  2.431058E+05 -4.385068E+03 -6.242142E+04
       308  23  2.594819E+05 -8.358078E+02 -8.552831E+03  1.720440E+05 -8.940393E+03 -6.891906E+04
       308  24  2.577150E+05 -1.661337E+04 -1.904939E+04  2.430985E+05 -1.345097E+04 -2.313217E+04
       308  25  1.437012E+06  2.872224E+05  2.510162E+05  2.455020E+05 -3.576452E+04 -6.242167E+04
       308  26  1.801763E+06  3.756529E+05  3.334816E+05  1.688679E+05  9.931448E+03 -6.891170E+04
       308  27  2.172155E+06  4.584346E+05  4.444239E+05  2.343266E+05  5.570019E+04 -2.317614E+04
       309   1  2.751386E+06  5.630442E+05  5.662799E+05  2.908604E+05  1.321128E+05 -2.383187E+04
       309   2  2.349978E+06  3.865484E+05  3.914340E+05  1.931899E+05  5.869522E+04 -7.058296E+04
       309   3  1.978741E+06  2.881791E+05  2.839280E+05  2.449676E+05 -1.462901E+04 -6.349074E+04
       309   4  7.775782E+05  7.365227E+04  8.869878E+04  2.553349E+05  6.100332E+04 -2.379705E+04
       309   5  7.672114E+05  4.032614E+02  4.057348E+04  1.805907E+05  3.952859E+04 -7.059278E+04
       309   6  7.779665E+05 -3.594262E+03  2.389515E+04  2.553019E+05  1.809898E+04 -6.348914E+04
       309   7 -1.192668E+06 -4.160169E+05 -3.891425E+05  2.199221E+05 -9.881761E+03 -2.375411E+04
       309   8 -8.132227E+05 -3.859099E+05 -3.104410E+05  1.680236E+05  2.041004E+04 -7.060185E+04
       309   9 -4.214565E+05 -2.954617E+05 -2.362193E+05  2.656156E+05  5.076466E+04 -6.348644E+04
       309  10  2.751367E+06  5.630389E+05  5.662462E+05  2.908630E+05  2.742139E-11 -6.835397E-11
       309  11  2.349973E+06  3.865421E+05  3.914182E+05  1.931933E+05 -2.282266E-10  2.830497E-10
       309  12  1.978740E+06  2.881747E+05  2.839200E+05  2.449668E+05  7.450228E-10 -2.452851E-10
       309  13  7.775741E+05  7.365066E+04  8.869073E+04  2.553360E+05  5.271156E-10  5.551315E-11
       309  14  7.672084E+05  3.974884E+02  4.056118E+04  1.805929E+05  5.659131E-11  6.417396E-10
       309  15  7.779651E+05 -3.598680E+03  2.388696E+04  2.553028E+05 -5.708028E-11 -2.286107E-10
       309  16 -1.192669E+06 -4.160175E+05 -3.891438E+05  2.199219E+05 -2.718061E-10  1.993938E-10
       309  17 -8.132245E+05 -3.859154E+05 -3.104511E+05  1.680248E+05 -5.598788E-10  3.168963E-10
       309  18 -4.214603E+05 -2.954667E+05 -2.362317E+05  2.656182E+05 -7.988742E-10 -2.121077E-10
       309  19  2.751386E+06  5.630442E+05  5.662799E+05  2.908604E+05 -1.321128E+05  2.383187E+04
       309  20  2.349978E+06  3.865484E+05  3.914340E+05  1.931899E+05 -5.869522E+04  7.058296E+04
       309  21  1.978741E+06  2.881791E+05  2.839280E+05  2.449676E+05  1.462901E+04  6.349074E+04
       309  22  7.775782E+05  7.365227E+04  8.869878E+04  2.553349E+05 -6.100332E+04  2.379705E+04
       309  23  7.672114E+05  4.032614E+02  4.057348E+04  1.805907E+05 -3.952859E+04  7.059278E+04
       309  24  7.779665E+05 -3.594262E+03  2.389515E+04  2.553019E+05 -1.809898E+04  6.348914E+04
       309  25 -1.192668E+06 -4.160169E+05 -3.891425E+05  2.199221E+05  9.881761E+03  2.375411E+04
       309  26 -8.132227E+05 -3.859099E+05 -3.104410E+05  1.680236E+05 -2.041004E+04  7.060185E+04
       309  27 -4.214565E+05 -2.954617E+05 -2.362193E+05  2.656156E+05 -5.076466E+04  6.348644E+04
       310   1  1.667555E+06  2.211310E+05  2.132889E+05  2.572844E+05 -2.710917E+03 -4.612674E+04
       310   2  1.282024E+06  1.237874E+05  1.208971E+05  1.805202E+05 -1.024647E+04 -2.684856E+04
       310   3  8.986675E+05  3.063027E+04  3.443193E+04  2.551185E+05 -1.779066E+04 -5.247287E+03
       310   4  7.737755E+05  3.764411E+03  1.898847E+04  2.557354E+05  1.470605E+04 -4.612243E+04
       310   5  7.730120E+05  3.836124E+01  1.057024E+04  1.800518E+05  9.406900E+03 -2.683785E+04
       310   6  7.738951E+05  1.217631E+02  6.538016E+03  2.557377E+05  4.094542E+03 -5.228787E+03
       310   7 -1.192559E+05 -2.136549E+05 -1.753587E+05  2.541884E+05  3.209832E+04 -4.611821E+04
       310   8  2.642436E+05 -1.237276E+05 -9.977061E+04  1.795837E+05  2.904440E+04 -2.682716E+04
       310   9  6.491382E+05 -3.038754E+04 -2.135508E+04  2.563568E+05  2.597540E+04 -5.210241E+03
       310  10  1.667554E+06  2.211287E+05  2.132849E+05  2.572843E+05 -1.307448E-10 -3.274734E-10
       310  11  1.282024E+06  1.237866E+05  1.208956E+05  1.805200E+05  1.801515E-10  2.366443E-10
       310  12  8.986672E+05  3.063016E+04  3.443129E+04  2.551185E+05 -2.856445E-10 -1.536184E-10
       310  13  7.737747E+05  3.762068E+03  1.898406E+04  2.557359E+05  1.436157E-12 -3.050533E-10
       310  14  7.730117E+05  3.756369E+01  1.056872E+04  1.800520E+05 -1.275384E-10 -1.355539E-10
       310  15  7.738951E+05  1.217292E+02  6.537933E+03  2.557378E+05 -3.334648E-10 -3.330142E-10
       310  16 -1.192576E+05 -2.136574E+05 -1.753646E+05  2.541896E+05  6.166013E-11 -1.589224E-10
       310  17  2.642425E+05 -1.237286E+05 -9.977354E+04  1.795843E+05 -1.904274E-10 -6.174050E-10
       310  18  6.491375E+05 -3.038775E+04 -2.135640E+04  2.563569E+05  7.360203E-11  2.731201E-10
       310  19  1.667555E+06  2.211310E+05  2.132889E+05  2.572844E+05  2.710917E+03  4.612674E+04
       310  20  1.282024E+06  1.237874E+05  1.208971E+05  1.805202E+05  1.024647E+04  2.684856E+04
       310  21  8.986675E+05  3.063027E+04  3.443193E+04  2.551185E+05  1.779066E+04  5.247287E+03
       310  22  7.737755E+05  3.764411E+03  1.898847E+04  2.557354E+05 -1.470605E+04  4.612243E+04
       310  23  7.730120E+05  3.836124E+01  1.057024E+04  1.800518E+05 -9.406900E+03  2.683785E+04
       310  24  7.738951E+05  1.217631E+02  6.538016E+03  2.557377E+05 -4.094542E+03  5.228787E+03
       310  25 -1.192559E+05 -2.136549E+05 -1.753587E+05  2.541884E+05 -3.209832E+04  4.611821E+04
       310  26  2.642436E+05 -1.237276E+05 -9.977061E+04  1.795837E+05 -2.904440E+04  2.682716E+04
       310  27  6.491382E+05 -3.038754E+04 -2.135508E+04  2.563568E+05 -2.597540E+04  5.210241E+03
       311   1  5.933726E+05 -4.356163E+04 -3.454482E+04  2.556147E+05 -1.887115E+04  8.211565E+03
       311   2  2.090495E+05 -1.372151E+05 -1.184124E+05  1.797435E+05 -1.854358E+04  2.981664E+04
       311   3 -1.750585E+05 -2.305052E+05 -2.024222E+05  2.552595E+05 -1.820151E+04  4.903091E+04
       311   4  7.736322E+05  4.409082E+02  5.343180E+03  2.557394E+05  3.028320E+03  8.229888E+03
       311   5  7.733275E+05  5.211430E+01  3.939717E+03  1.800501E+05  1.053760E+03  2.982649E+04
       311   6  7.735036E+05  4.361165E+02  3.997867E+03  2.557394E+05 -9.061285E+02  4.903381E+04
       311   7  9.539232E+05  4.444151E+04  4.523097E+04  2.558641E+05  2.493407E+04  8.248216E+03
       311   8  1.337905E+06  1.372985E+05  1.262744E+05  1.803568E+05  2.066867E+04  2.983635E+04
       311   9  1.722909E+06  2.313180E+05  2.103652E+05  2.562198E+05  1.641534E+04  4.903673E+04
       311  10  5.933722E+05 -4.356179E+04 -3.454561E+04  2.556148E+05  8.647276E-10  5.613545E-10
       311  11  2.090488E+05 -1.372161E+05 -1.184148E+05  1.797439E+05  1.653518E-10 -3.100979E-11
       311  12 -1.750595E+05 -2.305079E+05 -2.024274E+05  2.552603E+05 -8.844365E-10 -8.774062E-11
       311  13  7.736322E+05  4.408330E+02  5.343036E+03  2.557393E+05 -6.863164E-11 -7.331699E-12
       311  14  7.733272E+05  5.115838E+01  3.938042E+03  1.800500E+05  3.272518E-11  2.794930E-11
       311  15  7.735030E+05  4.335335E+02  3.993345E+03  2.557394E+05  6.640183E-11  1.563083E-10
       311  16  9.539225E+05  4.444127E+04  4.522967E+04  2.558639E+05 -6.951844E-10 -1.523896E-10
       311  17  1.337904E+06  1.372974E+05  1.262719E+05  1.803563E+05 -1.182947E-10 -3.083683E-10
       311  18  1.722909E+06  2.313153E+05  2.103602E+05  2.562191E+05  6.277322E-10 -1.021910E-10
       311  19  5.933726E+05 -4.356163E+04 -3.454482E+04  2.556147E+05  1.887115E+04 -8.211565E+03
       311  20  2.090495E+05 -1.372151E+05 -1.184124E+05  1.797435E+05  1.854358E+04 -2.981664E+04
       311  21 -1.750585E+05 -2.305052E+05 -2.024222E+05  2.552595E+05  1.820151E+04 -4.903091E+04
       311  22  7.736322E+05  4.409082E+02  5.343180E+03  2.557394E+05 -3.028320E+03 -8.229888E+03
       311  23  7.733275E+05  5.211430E+01  3.939717E+03  1.800501E+05 -1.053760E+03 -2.982649E+04
       311  24  7.735036E+05  4.361165E+02  3.997867E+03  2.557394E+05  9.061285E+02 -4.903381E+04
       311  25  9.539232E+05  4.444151E+04  4.523097E+04  2.558641E+05 -2.493407E+04 -8.248216E+03
       311  26  1.337905E+06  1.372985E+05  1.262744E+05  1.803568E+05 -2.066867E+04 -2.983635E+04
       311  27  1.722909E+06  2.313180E+05  2.103652E+05  2.562198E+05 -1.641534E+04 -4.903673E+04
       312   1 -4.808991E+05 -3.060788E+05 -2.678043E+05  2.565710E+05 -3.459497E+04  6.651695E+04
       312   2 -8.640426E+05 -4.004525E+05 -3.573512E+05  1.792732E+05  1.543335E+04  7.321610E+04
       312   3 -1.252285E+06 -4.941299E+05 -4.790998E+05  2.513727E+05  6.537864E+04  2.450908E+04
       312   4  7.741354E+05 -6.707575E+02  4.338192E+03  2.552925E+05 -1.611993E+03  6.651642E+04
       312   5  7.719513E+05 -5.564632E+02  5.933540E+03  1.806084E+05 -4.707793E+03  7.320814E+04
       312   6  7.737596E+05  9.485100E+03  1.223536E+04  2.552979E+05 -7.854914E+03  2.455949E+04
       312   7  2.030650E+06  3.046337E+05  2.763910E+05  2.540109E+05  3.143681E+04  6.651576E+04
       312   8  2.410444E+06  3.991589E+05  3.690533E+05  1.819471E+05 -2.490145E+04  7.320012E+04
       312   9  2.803567E+06  5.128020E+05  5.032949E+05  2.592360E+05 -8.132704E+04  2.460894E+04
       312  10 -4.809015E+05 -3.060839E+05 -2.678149E+05  2.565729E+05  3.304020E-10  2.513494E-10
       312  11 -8.640443E+05 -4.004583E+05 -3.573617E+05  1.792723E+05  1.255203E-10  4.071477E-10
       312  12 -1.252290E+06 -4.941317E+05 -4.791090E+05  2.513715E+05  3.752775E-10  4.419374E-10
       312  13  7.741342E+05 -6.755111E+02  4.329869E+03  2.552926E+05 -1.290001E-10  2.639389E-12
       312  14  7.719499E+05 -5.622264E+02  5.923423E+03  1.806087E+05  3.740154E-10 -5.029362E-10
       312  15  7.737593E+05  9.484436E+03  1.223411E+04  2.552981E+05  5.950263E-10 -6.701659E-10
       312  16  2.030647E+06  3.046287E+05  2.763809E+05  2.540092E+05  4.400290E-10  9.611976E-12
       312  17  2.410442E+06  3.991530E+05  3.690421E+05  1.819486E+05 -8.522653E-11 -4.833556E-10
       312  18  2.803560E+06  5.127995E+05  5.032814E+05  2.592376E+05  8.175521E-10 -1.078452E-09
       312  19 -4.808991E+05 -3.060788E+05 -2.678043E+05  2.565710E+05  3.459497E+04 -6.651695E+04
       312  20 -8.640426E+05 -4.004525E+05 -3.573512E+05  1.792732E+05 -1.543335E+04 -7.321610E+04
       312  21 -1.252285E+06 -4.941299E+05 -4.790998E+05  2.513727E+05 -6.537864E+04 -2.450908E+04
       312  22  7.741354E+05 -6.707575E+02  4.338192E+03  2.552925E+05  1.611993E+03 -6.651642E+04
       312  23  7.719513E+05 -5.564632E+02  5.933540E+03  1.806084E+05  4.707793E+03 -7.320814E+04
       312  24  7.737596E+05  9.485100E+03  1.223536E+04  2.552979E+05  7.854914E+03 -2.455949E+04
       312  25  2.030650E+06  3.046337E+05  2.763910E+05  2.540109E+05 -3.143681E+04 -6.651576E+04
       312  26  2.410444E+06  3.991589E+05  3.690533E+05  1.819471E+05  2.490145E+04 -7.320012E+04
       312  27  2.803567E+06  5.128020E+05  5.032949E+05  2.592360E+05  8.132704E+04 -2.460894E+04
       313   1  3.529705E+06  6.496618E+05  6.591177E+05  3.468130E+05  1.661073E+05 -2.613728E+04
       313   2  3.064225E+06  4.231571E+05  4.456701E+05  2.266993E+05  7.586517E+04 -7.697663E+04
       313   3  2.639757E+06  3.085607E+05  3.189015E+05  2.787823E+05 -1.425569E+04 -6.817635E+04
       313   4  1.346960E+06  1.088820E+05  1.312633E+05  2.939034E+05  8.812185E+04 -2.610486E+04
       313   5  1.331732E+06  7.615096E+02  6.175806E+04  2.077796E+05  5.550221E+04 -7.699036E+04
       313   6  1.347487E+06 -5.236199E+03  3.918531E+04  2.938546E+05  2.293477E+04 -6.817162E+04
       313   7 -8.314319E+05 -4.322317E+05 -3.969087E+05  2.411792E+05  1.040806E+04 -2.605922E+04
       313   8 -3.979691E+05 -4.218346E+05 -3.223382E+05  1.889128E+05  3.519505E+04 -7.700289E+04
       313   9  5.678127E+04 -3.191415E+05 -2.406246E+05  3.088948E+05  6.004907E+04 -6.816508E+04
       313  10  3.529675E+06  6.496537E+05  6.590649E+05  3.468165E+05 -1.228654E-10  5.854240E-11
       313  11  3.064217E+06  4.231492E+05  4.456482E+05  2.267040E+05 -5.578283E-11 -3.127325E-10
       313  12  2.639756E+06  3.085556E+05  3.188924E+05  2.787815E+05  1.825194E-10  2.172011E-10
       313  13  1.346952E+06  1.088792E+05  1.312474E+05  2.939052E+05  5.038612E-11  9.157882E-10
       313  14  1.331727E+06  7.543138E+02  6.174113E+04  2.077831E+05 -4.132992E-10  3.360829E-10
       313  15  1.347485E+06 -5.241334E+03  3.917558E+04  2.938559E+05  7.234484E-10  4.573068E-10
       313  16 -8.314322E+05 -4.322325E+05 -3.969102E+05  2.411795E+05 -5.369420E-10 -9.372312E-11
       313  17 -3.979720E+05 -4.218413E+05 -3.223517E+05  1.889150E+05  6.563592E-11  3.753076E-10
       313  18  5.677614E+04 -3.191474E+05 -2.406402E+05  3.088981E+05 -8.958859E-11  2.401381E-10
       313  19  3.529705E+06  6.496618E+05  6.591177E+05  3.468130E+05 -1.661073E+05  2.613728E+04
       313  20  3.064225E+06  4.231571E+05  4.456701E+05  2.266993E+05 -7.586517E+04  7.697663E+04
       313  21  2.639757E+06  3.085607E+05  3.189015E+05  2.787823E+05  1.425569E+04  6.817635E+04
       313  22  1.346960E+06  1.088820E+05  1.312633E+05  2.939034E+05 -8.812185E+04  2.610486E+04
       313  23  1.331732E+06  7.615096E+02  6.175806E+04  2.077796E+05 -5.550221E+04  7.699036E+04
       313  24  1.347487E+06 -5.236199E+03  3.918531E+04  2.938546E+05 -2.293477E+04  6.817162E+04
       313  25 -8.314319E+05 -4.322317E+05 -3.969087E+05  2.411792E+05 -1.040806E+04  2.605922E+04
       313  26 -3.979691E+05 -4.218346E+05 -3.223382E+05  1.889128E+05 -3.519505E+04  7.700289E+04
       313  27  5.678127E+04 -3.191415E+05 -2.406246E+05  3.088948E+05 -6.004907E+04  6.816508E+04
       314   1  2.280730E+06  2.338138E+05  2.374714E+05  2.968278E+05 -3.116228E+03 -4.839290E+04
       314   2  1.836805E+06  1.206489E+05  1.329175E+05  2.082430E+05 -1.818580E+04 -2.611593E+04
       314   3  1.396696E+06  1.428785E+04  3.982163E+04  2.936337E+05 -3.326010E+04 -1.283217E+03
       314   4  1.341478E+06  5.531729E+03  3.339142E+04  2.942634E+05  1.708929E+04 -4.838566E+04
       314   5  1.339936E+06 -8.344226E+01  2.523889E+04  2.072732E+05  4.487127E+03 -2.610132E+04
       314   6  1.341612E+06  6.957875E+02  2.685286E+04  2.942661E+05 -8.130127E+03 -1.259685E+03
       314   7  4.030499E+05 -2.228084E+05 -1.707397E+05  2.917025E+05  3.726471E+04 -4.837858E+04
       314   8  8.432998E+05 -1.208318E+05 -8.245244E+04  2.063041E+05  2.714220E+04 -2.608678E+04
       314   9  1.286532E+06 -1.289615E+04  1.388626E+04  2.948984E+05  1.699764E+04 -1.236099E+03
       314  10  2.280730E+06  2.338113E+05  2.374670E+05  2.968277E+05 -3.648353E-10  1.001353E-10
       314  11  1.836805E+06  1.206481E+05  1.329156E+05  2.082426E+05  6.439515E-10  4.041457E-10
       314  12  1.396695E+06  1.428755E+04  3.981955E+04  2.936337E+05  4.024756E-10 -1.914572E-10
       314  13  1.341477E+06  5.529135E+03  3.338647E+04  2.942640E+05  4.932956E-10  6.338528E-10
       314  14  1.339936E+06 -8.417973E+01  2.523757E+04  2.072733E+05  5.822484E-10  9.600156E-10
       314  15  1.341612E+06  6.957681E+02  2.685274E+04  2.942661E+05 -3.052444E-10 -5.257127E-10
       314  16  4.030478E+05 -2.228113E+05 -1.707468E+05  2.917040E+05 -3.010008E-10 -9.806590E-11
       314  17  8.432988E+05 -1.208327E+05 -8.245510E+04  2.063047E+05 -1.135642E-10  8.696988E-10
       314  18  1.286532E+06 -1.289623E+04  1.388571E+04  2.948985E+05 -4.052668E-10 -3.644107E-11
       314  19  2.280730E+06  2.338138E+05  2.374714E+05  2.968278E+05  3.116228E+03  4.839290E+04
       314  20  1.836805E+06  1.206489E+05  1.329175E+05  2.082430E+05  1.818580E+04  2.611593E+04
       314  21  1.396696E+06  1.428785E+04  3.982163E+04  2.936337E+05  3.326010E+04  1.283217E+03
       314  22  1.341478E+06  5.531729E+03  3.339142E+04  2.942634E+05 -1.708929E+04  4.838566E+04
       314  23  1.339936E+06 -8.344226E+01  2.523889E+04  2.072732E+05 -4.487127E+03  2.610132E+04
       314  24  1.341612E+06  6.957875E+02  2.685286E+04  2.942661E+05  8.130127E+03  1.259685E+03
       314  25  4.030499E+05 -2.228084E+05 -1.707397E+05  2.917025E+05 -3.726471E+04  4.837858E+04
       314  26  8.432998E+05 -1.208318E+05 -8.245244E+04  2.063041E+05 -2.714220E+04  2.608678E+04
       314  27  1.286532E+06 -1.289615E+04  1.388626E+04  2.948984E+05 -1.699764E+04  1.236099E+03
       315   1  1.046987E+06 -7.224706E+04 -3.444155E+04  2.969142E+05 -3.841023E+04  1.417669E+04
       315   2  6.017650E+05 -1.794886E+05 -1.146694E+05  2.057409E+05 -5.822092E+04  3.897511E+04
       315   3  1.631742E+05 -2.717707E+05 -1.782669E+05  2.886419E+05 -7.799667E+04  6.092857E+04
       315   4  1.342414E+06 -2.700305E+02  3.043122E+04  2.942838E+05 -1.320698E+04  1.419946E+04
       315   5  1.338853E+06 -2.851987E+02  4.501929E+04  2.072499E+05 -3.578289E+04  3.898534E+04
       315   6  1.342198E+06  1.513546E+04  7.813885E+04  2.942746E+05 -5.833753E+04  6.092824E+04
       315   7  1.637924E+06  7.170154E+04  9.530106E+04  2.916522E+05  1.200809E+04  1.422201E+04
       315   8  2.076450E+06  1.788827E+05  2.046776E+05  2.087606E+05 -1.331858E+04  3.899566E+04
       315   9  2.522525E+06  3.019499E+05  3.344629E+05  2.999177E+05 -3.864148E+04  6.092826E+04
       315  10  1.046985E+06 -7.224767E+04 -3.444469E+04  2.969146E+05  4.323446E-10  5.918964E-10
       315  11  6.017609E+05 -1.794912E+05 -1.146786E+05  2.057427E+05 -3.371372E-11 -1.412858E-13
       315  12  1.631667E+05 -2.717763E+05 -1.782853E+05  2.886457E+05 -4.423953E-10 -4.779349E-10
       315  13  1.342413E+06 -2.702940E+02  3.043052E+04  2.942840E+05 -2.308771E-10 -3.111291E-10
       315  14  1.338851E+06 -2.871753E+02  4.501403E+04  2.072511E+05  2.026326E-10  5.061247E-12
       315  15  1.342194E+06  1.513056E+04  7.812548E+04  2.942774E+05 -1.693547E-10 -5.343721E-10
       315  16  1.637923E+06  7.170128E+04  9.530041E+04  2.916520E+05  1.469796E-10 -4.459157E-10
       315  17  2.076450E+06  1.788810E+05  2.046744E+05  2.087610E+05  1.536600E-10 -2.971457E-10
       315  18  2.522522E+06  3.019455E+05  3.344531E+05  2.999196E+05  1.034541E-09 -4.025255E-10
       315  19  1.046987E+06 -7.224706E+04 -3.444155E+04  2.969142E+05  3.841023E+04 -1.417669E+04
       315  20  6.017650E+05 -1.794886E+05 -1.146694E+05  2.057409E+05  5.822092E+04 -3.897511E+04
       315  21  1.631742E+05 -2.717707E+05 -1.782669E+05  2.886419E+05  7.799667E+04 -6.092857E+04
       315  22  1.342414E+06 -2.700305E+02  3.043122E+04  2.942838E+05  1.320698E+04 -1.419946E+04
       315  23  1.338853E+06 -2.851987E+02  4.501929E+04  2.072499E+05  3.578289E+04 -3.898534E+04
       315  24  1.342198E+06  1.513546E+04  7.813885E+04  2.942746E+05  5.833753E+04 -6.092824E+04
       315  25  1.637924E+06  7.170154E+04  9.530106E+04  2.916522E+05 -1.200809E+04 -1.422201E+04
       315  26  2.076450E+06  1.788827E+05  2.046776E+05  2.087606E+05  1.331858E+04 -3.899566E+04
       315  27  2.522525E+06  3.019499E+05  3.344629E+05  2.999177E+05  3.864148E+04 -6.092826E+04
       316   1 -1.727796E+05 -3.868567E+05 -2.342957E+05  3.362146E+05 -1.105255E+05  8.121448E+04
       316   2 -6.537721E+05 -4.783133E+05 -2.722054E+05  1.561257E+05 -1.343752E+05  8.839074E+04
       316   3 -1.062482E+06 -3.009495E+05 -2.269806E+05  1.485755E+05 -1.582802E+05  2.970468E+04
       316   4  1.358883E+06 -1.433663E+04  9.758832E+04  2.938599E+05 -7.220842E+04  8.121491E+04
       316   5  1.317136E+06  3.158868E+03  1.651373E+05  2.077491E+05 -1.594616E+05  8.837155E+04
       316   6  1.358170E+06  2.999744E+05  3.595766E+05  2.940874E+05 -2.467948E+05  2.975226E+04
       316   7  2.892751E+06  3.580361E+05  4.293395E+05  2.513987E+05 -3.379790E+04  8.121009E+04
       316   8  3.291675E+06  4.843792E+05  6.022426E+05  2.595383E+05 -1.846261E+05  8.834824E+04
       316   9  3.784239E+06  9.005539E+05  9.457533E+05  4.401693E+05 -3.356523E+05  2.975837E+04
       316  10 -1.727945E+05 -3.868670E+05 -2.343311E+05  3.362218E+05 -5.806304E-11 -8.742580E-10
       316  11 -6.537936E+05 -4.783265E+05 -2.722541E+05  1.561352E+05 -2.430581E-10 -1.343388E-09
       316  12 -1.062509E+06 -3.009572E+05 -2.270295E+05  1.485793E+05 -4.802549E-10 -1.170235E-09
       316  13  1.358875E+06 -1.434511E+04  9.756612E+04  2.938646E+05 -8.054413E-10 -9.048086E-10
       316  14  1.317107E+06  3.143663E+03  1.650749E+05  2.077604E+05  5.075883E-10 -1.247039E-09
       316  15  1.358105E+06  2.999572E+05  3.594607E+05  2.940934E+05  3.538790E-10  6.685974E-11
       316  16  2.892748E+06  3.580287E+05  4.293249E+05  2.514009E+05 -2.682969E-11 -8.952870E-10
       316  17  3.291637E+06  4.843618E+05  6.021642E+05  2.595514E+05  2.244448E-10 -6.109663E-10
       316  18  3.784118E+06  9.005230E+05  9.455411E+05  4.401774E+05  1.762119E-09 -1.245051E-09
       316  19 -1.727796E+05 -3.868567E+05 -2.342957E+05  3.362146E+05  1.105255E+05 -8.121448E+04
       316  20 -6.537721E+05 -4.783133E+05 -2.722054E+05  1.561257E+05  1.343752E+05 -8.839074E+04
       316  21 -1.062482E+06 -3.009495E+05 -2.269806E+05  1.485755E+05  1.582802E+05 -2.970468E+04
       316  22  1.358883E+06 -1.433663E+04  9.758832E+04  2.938599E+05  7.220842E+04 -8.121491E+04
       316  23  1.317136E+06  3.158868E+03  1.651373E+05  2.077491E+05  1.594616E+05 -8.837155E+04
       316  24  1.358170E+06  2.999744E+05  3.595766E+05  2.940874E+05  2.467948E+05 -2.975226E+04
       316  25  2.892751E+06  3.580361E+05  4.293395E+05  2.513987E+05  3.379790E+04 -8.121009E+04
       316  26  3.291675E+06  4.843792E+05  6.022426E+05  2.595383E+05  1.846261E+05 -8.834824E+04
       316  27  3.784239E+06  9.005539E+05  9.457533E+05  4.401693E+05  3.356523E+05 -2.975837E+04
       317   1 -4.067382E+05  1.558898E+05  6.896142E+04  6.540377E+04 -2.329096E+05 -2.628368E+04
       317   2 -7.419376E+05  4.286750E+05  1.849955E+05  1.131747E+05 -1.785213E+05 -7.991981E+04
       317   3 -1.168338E+06  3.585384E+05  1.801869E+05  3.078554E+05 -1.241001E+05 -7.447934E+04
       317   4 -2.568430E+06 -3.827541E+05 -4.558355E+05  2.540104E+05 -3.118955E+05 -2.626976E+04
       317   5 -2.517231E+06 -6.040751E+03 -2.096337E+05  1.806815E+05 -2.011669E+05 -7.994128E+04
       317   6 -2.567549E+06  1.734213E+04 -1.238087E+05  2.543430E+05 -9.036054E+04 -7.448147E+04
       317   7 -4.725756E+06 -9.216064E+05 -9.809285E+05  4.419580E+05 -3.906055E+05 -2.630405E+04
       317   8 -4.289564E+06 -4.409533E+05 -6.044554E+05  2.479929E+05 -2.237478E+05 -7.996776E+04
       317   9 -3.964909E+06 -3.239730E+05 -4.279157E+05  2.009526E+05 -5.669600E+04 -7.448942E+04
       317  10 -4.067967E+05  1.558745E+05  6.885811E+04  6.539884E+04 -1.290196E-09  1.395863E-09
       317  11 -7.419735E+05  4.286596E+05  1.849235E+05  1.131632E+05  3.360513E-10  1.261596E-10
       317  12 -1.168356E+06  3.585284E+05  1.801475E+05  3.078480E+05  3.480457E-09  2.306531E-10
       317  13 -2.568535E+06 -3.827811E+05 -4.560204E+05  2.540038E+05 -2.130082E-11 -8.978462E-10
       317  14 -2.517276E+06 -6.058520E+03 -2.097221E+05  1.806685E+05 -3.713765E-10  4.348622E-10
       317  15 -2.567560E+06  1.733398E+04 -1.238345E+05  2.543376E+05  1.200677E-09  1.602200E-10
       317  16 -4.725921E+06 -9.216485E+05 -9.812186E+05  4.419498E+05 -6.475777E-10 -8.741006E-10
       317  17 -4.289620E+06 -4.409737E+05 -6.045621E+05  2.479785E+05 -1.761374E-09  1.310346E-10
       317  18 -3.964914E+06 -3.239798E+05 -4.279322E+05  2.009492E+05 -4.771775E-09 -8.462200E-10
       317  19 -4.067382E+05  1.558898E+05  6.896142E+04  6.540377E+04  2.329096E+05  2.628368E+04
       317  20 -7.419376E+05  4.286750E+05  1.849955E+05  1.131747E+05  1.785213E+05  7.991981E+04
       317  21 -1.168338E+06  3.585384E+05  1.801869E+05  3.078554E+05  1.241001E+05  7.447934E+04
       317  22 -2.568430E+06 -3.827541E+05 -4.558355E+05  2.540104E+05  3.118955E+05  2.626976E+04
       317  23 -2.517231E+06 -6.040751E+03 -2.096337E+05  1.806815E+05  2.011669E+05  7.994128E+04
       317  24 -2.567549E+06  1.734213E+04 -1.238087E+05  2.543430E+05  9.036054E+04  7.448147E+04
       317  25 -4.725756E+06 -9.216064E+05 -9.809285E+05  4.419580E+05  3.906055E+05  2.630405E+04
       317  26 -4.289564E+06 -4.409533E+05 -6.044554E+05  2.479929E+05  2.237478E+05  7.996776E+04
       317  27 -3.964909E+06 -3.239730E+05 -4.279157E+05  2.009526E+05  5.669600E+04  7.448942E+04
       318   1 -1.454142E+06  2.469488E+05  1.388717E+05  2.484397E+05 -8.993410E+04 -5.671666E+04
       318   2 -1.834929E+06  1.730602E+05  9.578615E+04  1.778406E+05 -6.335383E+04 -3.765290E+04
       318   3 -2.223665E+06  7.994669E+04  3.059747E+04  2.590610E+05 -3.680667E+04 -1.597099E+04
       318   4 -2.546801E+06 -1.972891E+04 -9.947620E+04  2.553347E+05 -7.284964E+04 -5.672128E+04
       318   5 -2.542423E+06  4.622250E+02 -5.800775E+04  1.794141E+05 -4.381336E+04 -3.764869E+04
       318   6 -2.546586E+06  9.890438E+02 -4.038584E+04  2.553273E+05 -1.479416E+04 -1.595651E+04
       318   7 -3.638337E+06 -2.864859E+05 -3.378950E+05  2.622170E+05 -5.579485E+04 -5.672553E+04
       318   8 -3.249444E+06 -1.721689E+05 -2.118302E+05  1.809857E+05 -2.429491E+04 -3.764438E+04
       318   9 -2.869408E+06 -7.797531E+04 -1.113737E+05  2.515955E+05  7.207011E+03 -1.594229E+04
       318  10 -1.454151E+06  2.469431E+05  1.388505E+05  2.484356E+05  7.723632E-10 -4.458183E-10
       318  11 -1.834934E+06  1.730576E+05  9.577593E+04  1.778387E+05 -4.118323E-10  1.599332E-10
       318  12 -2.223666E+06  7.994605E+04  3.059443E+04  2.590605E+05 -6.191038E-10  7.789500E-10
       318  13 -2.546808E+06 -1.973379E+04 -9.949224E+04  2.553313E+05 -8.592822E-10 -4.848256E-10
       318  14 -2.542425E+06  4.601875E+02 -5.801403E+04  1.794128E+05 -1.505050E-09  6.035453E-10
       318  15 -2.546586E+06  9.887118E+02 -4.038673E+04  2.553271E+05  8.071023E-10  2.527700E-10
       318  16 -3.638341E+06 -2.864902E+05 -3.379069E+05  2.622144E+05 -5.685510E-10 -6.143801E-10
       318  17 -3.249445E+06 -1.721705E+05 -2.118340E+05  1.809850E+05 -9.602124E-10  6.458602E-10
       318  18 -2.869409E+06 -7.797559E+04 -1.113743E+05  2.515956E+05  5.762084E-10  8.119532E-11
       318  19 -1.454142E+06  2.469488E+05  1.388717E+05  2.484397E+05  8.993410E+04  5.671666E+04
       318  20 -1.834929E+06  1.730602E+05  9.578615E+04  1.778406E+05  6.335383E+04  3.765290E+04
       318  21 -2.223665E+06  7.994669E+04  3.059747E+04  2.590610E+05  3.680667E+04  1.597099E+04
       318  22 -2.546801E+06 -1.972891E+04 -9.947620E+04  2.553347E+05  7.284964E+04  5.672128E+04
       318  23 -2.542423E+06  4.622250E+02 -5.800775E+04  1.794141E+05  4.381336E+04  3.764869E+04
       318  24 -2.546586E+06  9.890438E+02 -4.038584E+04  2.553273E+05  1.479416E+04  1.595651E+04
       318  25 -3.638337E+06 -2.864859E+05 -3.378950E+05  2.622170E+05  5.579485E+04  5.672553E+04
       318  26 -3.249444E+06 -1.721689E+05 -2.118302E+05  1.809857E+05  2.429491E+04  3.764438E+04
       318  27 -2.869408E+06 -7.797531E+04 -1.113737E+05  2.515955E+05 -7.207011E+03  1.594229E+04
       319   1 -2.529622E+06  3.701143E+03 -3.399365E+04  2.540908E+05 -2.995450E+04 -2.413920E+03
       319   2 -2.912216E+06 -8.959591E+04 -1.170038E+05  1.803675E+05 -9.587897E+03  1.939674E+04
       319   3 -3.299879E+06 -1.930961E+05 -2.158897E+05  2.587462E+05  1.077552E+04  3.901380E+04
       319   4 -2.545742E+06 -3.950534E+01 -3.654120E+04  2.553862E+05 -8.048730E+03 -2.398491E+03
       319   5 -2.543371E+06  4.733997E+02 -3.663247E+04  1.793392E+05  1.021945E+04  1.940636E+04
       319   6 -2.545842E+06 -8.839803E+03 -5.112923E+04  2.553899E+05  2.849678E+04  3.901858E+04
       319   7 -2.561861E+06 -3.779901E+03 -3.908693E+04  2.566817E+05  1.385649E+04 -2.382969E+03
       319   8 -2.174396E+06  9.053385E+04  4.373218E+04  1.783101E+05  3.003845E+04  1.941592E+04
       319   9 -1.791270E+06  1.753787E+05  1.135981E+05  2.520293E+05  4.623938E+04  3.902315E+04
       319  10 -2.529623E+06  3.700895E+03 -3.399536E+04  2.540907E+05  9.736586E-10  6.784251E-10
       319  11 -2.912217E+06 -8.959634E+04 -1.170047E+05  1.803677E+05  2.263062E-09 -3.789542E-10
       319  12 -3.299879E+06 -1.930978E+05 -2.158928E+05  2.587459E+05 -4.959690E-11  3.399021E-10
       319  13 -2.545742E+06 -3.952897E+01 -3.654133E+04  2.553862E+05  8.146844E-10  1.361344E-10
       319  14 -2.543371E+06  4.729677E+02 -3.663338E+04  1.793390E+05 -3.904538E-11  2.411951E-10
       319  15 -2.545844E+06 -8.841654E+03 -5.113362E+04  2.553890E+05  1.887037E-09 -3.915702E-10
       319  16 -2.561861E+06 -3.779959E+03 -3.908731E+04  2.566817E+05  6.275197E-10 -4.071276E-10
       319  17 -2.174397E+06  9.053320E+04  4.372977E+04  1.783097E+05  5.653649E-10 -5.006363E-10
       319  18 -1.791273E+06  1.753765E+05  1.135912E+05  2.520278E+05  2.336576E-10 -1.282062E-10
       319  19 -2.529622E+06  3.701143E+03 -3.399365E+04  2.540908E+05  2.995450E+04  2.413920E+03
       319  20 -2.912216E+06 -8.959591E+04 -1.170038E+05  1.803675E+05  9.587897E+03 -1.939674E+04
       319  21 -3.299879E+06 -1.930961E+05 -2.158897E+05  2.587462E+05 -1.077552E+04 -3.901380E+04
       319  22 -2.545742E+06 -3.950534E+01 -3.654120E+04  2.553862E+05  8.048730E+03  2.398491E+03
       319  23 -2.543371E+06  4.733997E+02 -3.663247E+04  1.793392E+05 -1.021945E+04 -1.940636E+04
       319  24 -2.545842E+06 -8.839803E+03 -5.112923E+04  2.553899E+05 -2.849678E+04 -3.901858E+04
       319  25 -2.561861E+06 -3.779901E+03 -3.908693E+04  2.566817E+05 -1.385649E+04  2.382969E+03
       319  26 -2.174396E+06  9.053385E+04  4.373218E+04  1.783101E+05 -3.003845E+04 -1.941592E+04
       319  27 -1.791270E+06  1.753787E+05  1.135981E+05  2.520293E+05 -4.623938E+04 -3.902315E+04
       320   1 -3.615778E+06 -2.510648E+05 -2.917573E+05  2.301385E+05  5.461172E+03  5.614709E+04
       320   2 -3.970610E+06 -3.557764E+05 -4.187036E+05  2.112187E+05  1.053479E+05  6.422019E+04
       320   3 -4.380177E+06 -6.307242E+05 -6.533767E+05  3.406689E+05  2.051308E+05  2.172600E+04
       320   4 -2.555143E+06  8.020643E+03 -6.074677E+04  2.545844E+05  3.737236E+04  5.614977E+04
       320   5 -2.532264E+06 -2.862418E+03 -9.790850E+04  1.803538E+05  8.904764E+04  6.420766E+04
       320   6 -2.555692E+06 -1.753552E+05 -2.090432E+05  2.545093E+05  1.406849E+05  2.173311E+04
       320   7 -1.493443E+06  2.670338E+05  1.702003E+05  2.790726E+05  6.933758E+04  5.615497E+04
       320   8 -1.091974E+06  3.499142E+05  2.227583E+05  1.494160E+05  7.270968E+04  6.419678E+04
       320   9 -7.281235E+05  2.797974E+05  2.350678E+05  1.680940E+05  7.604856E+04  2.175827E+04
       320  10 -3.615779E+06 -2.510682E+05 -2.917632E+05  2.301383E+05 -5.301357E-10  2.408953E-10
       320  11 -3.970623E+06 -3.557838E+05 -4.187323E+05  2.112133E+05  9.411988E-10  4.882948E-10
       320  12 -4.380223E+06 -6.307361E+05 -6.534572E+05  3.406653E+05  2.113163E-09  8.377486E-10
       320  13 -2.555145E+06  8.016886E+03 -6.075532E+04  2.545827E+05  3.159376E-10  3.646986E-10
       320  14 -2.532274E+06 -2.868977E+03 -9.793119E+04  1.803492E+05  8.483356E-10  7.771762E-10
       320  15 -2.555713E+06 -1.753611E+05 -2.090814E+05  2.545068E+05 -4.960175E-10 -7.270616E-10
       320  16 -1.493449E+06  2.670291E+05  1.701853E+05  2.790694E+05  3.652736E-10  2.537935E-10
       320  17 -1.091981E+06  3.499083E+05  2.227406E+05  1.494123E+05  5.303062E-10  8.797861E-10
       320  18 -7.281299E+05  2.797954E+05  2.350560E+05  1.680927E+05 -7.655074E-10 -2.711505E-10
       320  19 -3.615778E+06 -2.510648E+05 -2.917573E+05  2.301385E+05 -5.461172E+03 -5.614709E+04
       320  20 -3.970610E+06 -3.557764E+05 -4.187036E+05  2.112187E+05 -1.053479E+05 -6.422019E+04
       320  21 -4.380177E+06 -6.307242E+05 -6.533767E+05  3.406689E+05 -2.051308E+05 -2.172600E+04
       320  22 -2.555143E+06  8.020643E+03 -6.074677E+04  2.545844E+05 -3.737236E+04 -5.614977E+04
       320  23 -2.532264E+06 -2.862418E+03 -9.790850E+04  1.803538E+05 -8.904764E+04 -6.420766E+04
       320  24 -2.555692E+06 -1.753552E+05 -2.090432E+05  2.545093E+05 -1.406849E+05 -2.173311E+04
       320  25 -1.493443E+06  2.670338E+05  1.702003E+05  2.790726E+05 -6.933758E+04 -5.615497E+04
       320  26 -1.091974E+06  3.499142E+05  2.227583E+05  1.494160E+05 -7.270968E+04 -6.419678E+04
       320  27 -7.281235E+05  2.797974E+05  2.350678E+05  1.680940E+05 -7.604856E+04 -2.175827E+04
       321   1 -3.380339E+05  3.403456E+05  3.121910E+05  1.292201E+05 -7.559283E+03 -2.179800E+04
       321   2 -5.922752E+05  3.569168E+05  2.750655E+05  1.076158E+05 -2.585826E+04 -6.653510E+04
       321   3 -8.620258E+05  2.982884E+05  2.312149E+05  1.869440E+05 -4.410900E+04 -6.450831E+04
       321   4 -2.069906E+06 -9.054921E+04 -1.077260E+05  1.742579E+05 -7.280351E+04 -2.175316E+04
       321   5 -2.058031E+06 -1.739505E+03 -5.031461E+04  1.238018E+05 -4.627282E+04 -6.654043E+04
       321   6 -2.069586E+06  3.976312E+03 -3.085086E+04  1.743022E+05 -1.970006E+04 -6.451245E+04
       321   7 -3.799019E+06 -5.216549E+05 -5.278425E+05  2.191697E+05 -1.378659E+05 -2.171775E+04
       321   8 -3.521775E+06 -3.605403E+05 -3.758268E+05  1.399492E+05 -6.663958E+04 -6.654685E+04
       321   9 -3.275773E+06 -2.904316E+05 -2.930014E+05  1.616852E+05  4.661996E+03 -6.451759E+04
       321  10 -3.380341E+05  3.403451E+05  3.121900E+05  1.292200E+05  1.141025E-10  8.651766E-10
       321  11 -5.922771E+05  3.569119E+05  2.750559E+05  1.076144E+05 -1.481277E-09 -7.099123E-10
       321  12 -8.620290E+05  2.982834E+05  2.312034E+05  1.869417E+05 -1.131235E-09  2.575265E-10
       321  13 -2.069912E+06 -9.055114E+04 -1.077368E+05  1.742566E+05 -1.010829E-09 -2.028709E-09
       321  14 -2.058034E+06 -1.744831E+03 -5.032696E+04  1.237994E+05 -1.025604E-09 -1.037915E-09
       321  15 -2.069588E+06  3.971743E+03 -3.085940E+04  1.743012E+05 -2.165565E-10  3.920173E-10
       321  16 -3.799040E+06 -5.216605E+05 -5.278793E+05  2.191673E+05 -1.953205E-09 -1.492893E-09
       321  17 -3.521781E+06 -3.605463E+05 -3.758435E+05  1.399456E+05  9.591324E-10 -6.253287E-12
       321  18 -3.275774E+06 -2.904361E+05 -2.930092E+05  1.616854E+05  1.488473E-09  2.223940E-10
       321  19 -3.380339E+05  3.403456E+05  3.121910E+05  1.292201E+05  7.559283E+03  2.179800E+04
       321  20 -5.922752E+05  3.569168E+05  2.750655E+05  1.076158E+05  2.585826E+04  6.653510E+04
       321  21 -8.620258E+05  2.982884E+05  2.312149E+05  1.869440E+05  4.410900E+04  6.450831E+04
       321  22 -2.069906E+06 -9.054921E+04 -1.077260E+05  1.742579E+05  7.280351E+04  2.175316E+04
       321  23 -2.058031E+06 -1.739505E+03 -5.031461E+04  1.238018E+05  4.627282E+04  6.654043E+04
       321  24 -2.069586E+06  3.976312E+03 -3.085086E+04  1.743022E+05  1.970006E+04  6.451245E+04
       321  25 -3.799019E+06 -5.216549E+05 -5.278425E+05  2.191697E+05  1.378659E+05  2.171775E+04
       321  26 -3.521775E+06 -3.605403E+05 -3.758268E+05  1.399492E+05  6.663958E+04  6.654685E+04
       321  27 -3.275773E+06 -2.904316E+05 -2.930014E+05  1.616852E+05 -4.661996E+03  6.451759E+04
       322   1 -1.068004E+06  2.384645E+05  1.915226E+05  1.734816E+05 -2.644395E+04 -5.181238E+04
       322   2 -1.331785E+06  1.785907E+05  1.411333E+05  1.225619E+05 -1.958027E+04 -3.906988E+04
       322   3 -1.597427E+06  1.141784E+05  8.515319E+04  1.760332E+05 -1.273287E+04 -2.422346E+04
       322   4 -2.064800E+06 -4.685384E+03 -2.573110E+04  1.750570E+05 -1.522271E+04 -5.181434E+04
       322   5 -2.063596E+06  1.778066E+02 -1.775311E+04  1.228561E+05 -6.356326E+03 -3.906573E+04
       322   6 -2.064677E+06  1.529148E+02 -1.676585E+04  1.750546E+05  2.496574E+03 -2.421186E+04
       322   7 -3.060661E+06 -2.479015E+05 -2.430441E+05  1.766296E+05 -4.019257E+03 -5.181624E+04
       322   8 -2.794903E+06 -1.782705E+05 -1.766709E+05  1.231499E+05  6.852206E+03 -3.906158E+04
       322   9 -2.531721E+06 -1.138870E+05 -1.186972E+05  1.740766E+05  1.771468E+04 -2.420030E+04
       322  10 -1.068006E+06  2.384615E+05  1.915162E+05  1.734805E+05 -5.167372E-10  7.054291E-10
       322  11 -1.331785E+06  1.785889E+05  1.411297E+05  1.225612E+05  4.840847E-10 -1.056003E-09
       322  12 -1.597427E+06  1.141777E+05  8.515179E+04  1.760330E+05  3.019573E-10 -5.230243E-10
       322  13 -2.064801E+06 -4.688326E+03 -2.573658E+04  1.750564E+05  2.879131E-11  5.670543E-10
       322  14 -2.063596E+06  1.761586E+02 -1.775605E+04  1.228559E+05  8.501270E-10 -2.347408E-10
       322  15 -2.064677E+06  1.522842E+02 -1.676696E+04  1.750546E+05  3.937408E-10 -7.061340E-10
       322  16 -3.060662E+06 -2.479043E+05 -2.430492E+05  1.766294E+05  1.512076E-09  2.219770E-10
       322  17 -2.794903E+06 -1.782722E+05 -1.766738E+05  1.231501E+05  6.100531E-10 -1.969684E-10
       322  18 -2.531722E+06 -1.138877E+05 -1.186989E+05  1.740770E+05 -6.515908E-10  2.565395E-10
       322  19 -1.068004E+06  2.384645E+05  1.915226E+05  1.734816E+05  2.644395E+04  5.181238E+04
       322  20 -1.331785E+06  1.785907E+05  1.411333E+05  1.225619E+05  1.958027E+04  3.906988E+04
       322  21 -1.597427E+06  1.141784E+05  8.515319E+04  1.760332E+05  1.273287E+04  2.422346E+04
       322  22 -2.064800E+06 -4.685384E+03 -2.573110E+04  1.750570E+05  1.522271E+04  5.181434E+04
       322  23 -2.063596E+06  1.778066E+02 -1.775311E+04  1.228561E+05  6.356326E+03  3.906573E+04
       322  24 -2.064677E+06  1.529148E+02 -1.676585E+04  1.750546E+05 -2.496574E+03  2.421186E+04
       322  25 -3.060661E+06 -2.479015E+05 -2.430441E+05  1.766296E+05  4.019257E+03  5.181624E+04
       322  26 -2.794903E+06 -1.782705E+05 -1.766709E+05  1.231499E+05 -6.852206E+03  3.906158E+04
       322  27 -2.531721E+06 -1.138870E+05 -1.186972E+05  1.740766E+05 -1.771468E+04  2.420030E+04
       323   1 -1.808976E+06  6.281069E+04  3.672039E+04  1.738007E+05 -9.459149E+03 -1.489460E+04
       323   2 -2.072623E+06 -1.968696E+03 -2.744937E+04  1.234529E+05  4.276449E+03  1.930112E+02
       323   3 -2.340280E+06 -7.524357E+04 -1.027555E+05  1.779693E+05  1.800708E+04  1.408287E+04
       323   4 -2.064995E+06  5.310381E+02 -1.811968E+04  1.751570E+05  5.553213E+03 -1.488132E+04
       323   5 -2.063069E+06  3.999361E+02 -2.517358E+04  1.227281E+05  1.813903E+04  2.050918E+02
       323   6 -2.065014E+06 -8.020156E+03 -4.255776E+04  1.751642E+05  3.072559E+04  1.409391E+04
       323   7 -2.320951E+06 -6.175279E+04 -7.296271E+04  1.765126E+05  2.055946E+04 -1.486797E+04
       323   8 -2.053516E+06  2.768667E+03 -2.289707E+04  1.220033E+05  3.200182E+04  2.171397E+02
       323   9 -1.789676E+06  5.919831E+04  1.763601E+04  1.723579E+05  4.344967E+04  1.410483E+04
       323  10 -1.808976E+06  6.281043E+04  3.671981E+04  1.738006E+05  1.981847E-10 -5.967293E-10
       323  11 -2.072623E+06 -1.968701E+03 -2.744941E+04  1.234529E+05 -4.691883E-11 -8.797616E-10
       323  12 -2.340281E+06 -7.524387E+04 -1.027565E+05  1.779691E+05  1.172645E-10 -1.477148E-09
       323  13 -2.064995E+06  5.307922E+02 -1.812015E+04  1.751570E+05 -1.227651E-10 -7.132001E-10
       323  14 -2.063070E+06  3.998474E+02 -2.517420E+04  1.227281E+05 -4.571254E-10 -1.218477E-09
       323  15 -2.065015E+06 -8.020623E+03 -4.255992E+04  1.751639E+05 -5.725954E-10 -8.421735E-10
       323  16 -2.320952E+06 -6.175314E+04 -7.296392E+04  1.765128E+05 -2.740375E-10 -5.879811E-10
       323  17 -2.053517E+06  2.768391E+03 -2.289900E+04  1.220033E+05 -2.199906E-09  4.152617E-10
       323  18 -1.789678E+06  5.919759E+04  1.763208E+04  1.723574E+05 -1.465325E-09  4.416817E-13
       323  19 -1.808976E+06  6.281069E+04  3.672039E+04  1.738007E+05  9.459149E+03  1.489460E+04
       323  20 -2.072623E+06 -1.968696E+03 -2.744937E+04  1.234529E+05 -4.276449E+03 -1.930112E+02
       323  21 -2.340280E+06 -7.524357E+04 -1.027555E+05  1.779693E+05 -1.800708E+04 -1.408287E+04
       323  22 -2.064995E+06  5.310381E+02 -1.811968E+04  1.751570E+05 -5.553213E+03  1.488132E+04
       323  23 -2.063069E+06  3.999361E+02 -2.517358E+04  1.227281E+05 -1.813903E+04 -2.050918E+02
       323  24 -2.065014E+06 -8.020156E+03 -4.255776E+04  1.751642E+05 -3.072559E+04 -1.409391E+04
       323  25 -2.320951E+06 -6.175279E+04 -7.296271E+04  1.765126E+05 -2.055946E+04  1.486797E+04
       323  26 -2.053516E+06  2.768667E+03 -2.289707E+04  1.220033E+05 -3.200182E+04 -2.171397E+02
       323  27 -1.789676E+06  5.919831E+04  1.763601E+04  1.723579E+05 -4.344967E+04 -1.410483E+04
       324   1 -2.560787E+06 -1.111737E+05 -1.590200E+05  1.517124E+05  1.743430E+04  2.541665E+04
       324   2 -2.801438E+06 -1.858781E+05 -2.564919E+05  1.511833E+05  9.188678E+04  3.283989E+04
       324   3 -3.090455E+06 -4.155184E+05 -4.413216E+05  2.537767E+05  1.663129E+05  1.163274E+04
       324   4 -2.073849E+06  7.748911E+03 -5.283061E+04  1.747607E+05  3.820869E+04  2.543326E+04
       324   5 -2.052196E+06 -2.186961E+03 -8.915400E+04  1.232277E+05  8.531027E+04  3.282914E+04
       324   6 -2.074135E+06 -1.621930E+05 -1.937173E+05  1.748338E+05  1.324194E+05  1.159789E+04
       324   7 -1.586685E+06  1.266579E+05  5.334636E+04  1.978274E+05  5.899920E+04  2.545140E+04
       324   8 -1.302427E+06  1.814689E+05  7.814919E+04  9.523768E+04  7.872583E+04  3.281899E+04
       324   9 -1.056853E+06  9.108027E+04  5.381950E+04  9.576044E+04  9.847017E+04  1.157175E+04
       324  10 -2.560788E+06 -1.111745E+05 -1.590217E+05  1.517120E+05  3.182983E-10 -1.767226E-09
       324  11 -2.801447E+06 -1.858815E+05 -2.565099E+05  1.511809E+05  1.930076E-09 -1.244922E-09
       324  12 -3.090485E+06 -4.155260E+05 -4.413741E+05  2.537751E+05  1.156062E-09 -9.211018E-11
       324  13 -2.073851E+06  7.747824E+03 -5.283457E+04  1.747599E+05  2.157834E-09 -3.128302E-09
       324  14 -2.052204E+06 -2.190079E+03 -8.916975E+04  1.232254E+05 -2.361949E-09  1.374252E-09
       324  15 -2.074154E+06 -1.621978E+05 -1.937507E+05  1.748325E+05  2.616266E-10  9.324225E-11
       324  16 -1.586689E+06  1.266563E+05  5.333859E+04  1.978261E+05 -1.143131E-09  1.472255E-10
       324  17 -1.302434E+06  1.814660E+05  7.813550E+04  9.523560E+04 -1.423626E-09  1.318695E-09
       324  18 -1.056863E+06  9.107752E+04  5.380100E+04  9.575952E+04  5.823551E-11 -2.933659E-11
       324  19 -2.560787E+06 -1.111737E+05 -1.590200E+05  1.517124E+05 -1.743430E+04 -2.541665E+04
       324  20 -2.801438E+06 -1.858781E+05 -2.564919E+05  1.511833E+05 -9.188678E+04 -3.283989E+04
       324  21 -3.090455E+06 -4.155184E+05 -4.413216E+05  2.537767E+05 -1.663129E+05 -1.163274E+04
       324  22 -2.073849E+06  7.748911E+03 -5.283061E+04  1.747607E+05 -3.820869E+04 -2.543326E+04
       324  23 -2.052196E+06 -2.186961E+03 -8.915400E+04  1.232277E+05 -8.531027E+04 -3.282914E+04
       324  24 -2.074135E+06 -1.621930E+05 -1.937173E+05  1.748338E+05 -1.324194E+05 -1.159789E+04
       324  25 -1.586685E+06  1.266579E+05  5.334636E+04  1.978274E+05 -5.899920E+04 -2.545140E+04
       324  26 -1.302427E+06  1.814689E+05  7.814919E+04  9.523768E+04 -7.872583E+04 -3.281899E+04
       324  27 -1.056853E+06  9.108027E+04  5.381950E+04  9.576044E+04 -9.847017E+04 -1.157175E+04
       325   1  1.493267E+06  6.829203E+05  6.514720E+05  3.108049E+05  5.779570E+04 -3.716087E+04
       325   2  9.753860E+05  6.070495E+05  5.152658E+05  2.321094E+05 -1.173270E+03 -1.121722E+05
       325   3  4.555090E+05  4.855036E+05  4.063029E+05  3.536883E+05 -6.013928E+04 -1.053245E+05
       325   4 -1.522890E+06 -6.633598E+04 -7.923642E+04  3.412722E+05 -5.347932E+04 -3.726062E+04
       325   5 -1.514497E+06 -1.480794E+03 -3.722071E+04  2.410598E+05 -3.374414E+04 -1.122546E+05
       325   6 -1.522078E+06  3.941191E+03 -2.263104E+04  3.411841E+05 -1.405585E+04 -1.052380E+05
       325   7 -4.530709E+06 -8.162498E+05 -8.105537E+05  3.715875E+05 -1.642158E+05 -3.737164E+04
       325   8 -3.998589E+06 -6.104297E+05 -5.900889E+05  2.499707E+05 -6.618577E+04 -1.123381E+05
       325   9 -3.495987E+06 -4.778788E+05 -4.517902E+05  3.287172E+05  3.188284E+04 -1.051531E+05
       325  10  1.493263E+06  6.829179E+05  6.514631E+05  3.108066E+05  6.896004E-10 -2.458226E-10
       325  11  9.753826E+05  6.070360E+05  5.152422E+05  2.321093E+05  8.118573E-10 -2.934240E-09
       325  12  4.555021E+05  4.854907E+05  4.062753E+05  3.536832E+05  1.667326E-09 -4.343046E-09
       325  13 -1.522893E+06 -6.633824E+04 -7.924441E+04  3.412706E+05 -5.081554E-10  4.563016E-10
       325  14 -1.514501E+06 -1.494620E+03 -3.724651E+04  2.410567E+05 -8.065877E-10 -1.554619E-09
       325  15 -1.522081E+06  3.929254E+03 -2.265221E+04  3.411829E+05 -1.161176E-09 -9.411748E-10
       325  16 -4.530738E+06 -8.162586E+05 -8.106074E+05  3.715826E+05 -8.803907E-10  1.671321E-10
       325  17 -3.998597E+06 -6.104445E+05 -5.901209E+05  2.499647E+05 -2.408590E-10 -3.931164E-09
       325  18 -3.495991E+06 -4.778910E+05 -4.518129E+05  3.287199E+05 -6.097365E-10 -7.036543E-09
       325  19  1.493267E+06  6.829203E+05  6.514720E+05  3.108049E+05 -5.779570E+04  3.716087E+04
       325  20  9.753860E+05  6.070495E+05  5.152658E+05  2.321094E+05  1.173270E+03  1.121722E+05
       325  21  4.555090E+05  4.855036E+05  4.063029E+05  3.536883E+05  6.013928E+04  1.053245E+05
       325  22 -1.522890E+06 -6.633598E+04 -7.923642E+04  3.412722E+05  5.347932E+04  3.726062E+04
       325  23 -1.514497E+06 -1.480794E+03 -3.722071E+04  2.410598E+05  3.374414E+04  1.122546E+05
       325  24 -1.522078E+06  3.941191E+03 -2.263104E+04  3.411841E+05  1.405585E+04  1.052380E+05
       325  25 -4.530709E+06 -8.162498E+05 -8.105537E+05  3.715875E+05  1.642158E+05  3.737164E+04
       325  26 -3.998589E+06 -6.104297E+05 -5.900889E+05  2.499707E+05  6.618577E+04  1.123381E+05
       325  27 -3.495987E+06 -4.778788E+05 -4.517902E+05  3.287172E+05 -3.188284E+04  1.051531E+05
       326   1  4.307742E+04  3.784303E+05  3.212078E+05  3.439969E+05 -3.376854E+04 -8.104940E+04
       326   2 -4.775419E+05  2.545797E+05  2.125615E+05  2.413263E+05 -3.071188E+04 -5.537005E+04
       326   3 -9.997146E+05  1.286759E+05  1.011771E+05  3.441901E+05 -2.770217E+04 -2.606952E+04
       326   4 -1.518746E+06 -2.202283E+03 -1.895134E+04  3.423699E+05 -1.084705E+04 -8.100199E+04
       326   5 -1.517378E+06  1.247471E+03 -1.313161E+04  2.395863E+05 -4.336953E+03 -5.529840E+04
       326   6 -1.518418E+06  2.057315E+03 -1.244801E+04  3.423587E+05  2.128750E+03 -2.596990E+04
       326   7 -3.078279E+06 -3.829969E+05 -3.592551E+05  3.407450E+05  1.201753E+04 -8.095463E+04
       326   8 -2.556196E+06 -2.521561E+05 -2.388866E+05  2.378484E+05  2.199436E+04 -5.522684E+04
       326   9 -2.036868E+06 -1.245788E+05 -1.260862E+05  3.405286E+05  3.193502E+04 -2.587039E+04
       326  10  4.307443E+04  3.784230E+05  3.211933E+05  3.439947E+05 -4.767381E-09 -5.889598E-09
       326  11 -4.775437E+05  2.545761E+05  2.125539E+05  2.413249E+05 -2.763827E-09  2.487848E-09
       326  12 -9.997156E+05  1.286750E+05  1.011744E+05  3.441895E+05 -3.777339E-09  4.363854E-09
       326  13 -1.518748E+06 -2.209354E+03 -1.896388E+04  3.423692E+05 -1.182096E-09 -4.412810E-09
       326  14 -1.517379E+06  1.244185E+03 -1.313739E+04  2.395861E+05 -1.048173E-09 -8.411824E-11
       326  15 -1.518419E+06  2.056590E+03 -1.244929E+04  3.423588E+05 -1.322225E-10 -2.443788E-09
       326  16 -3.078281E+06 -3.830040E+05 -3.592677E+05  3.407458E+05  4.360265E-09 -1.465186E-09
       326  17 -2.556198E+06 -2.521595E+05 -2.388933E+05  2.378493E+05  8.396198E-10  1.271767E-09
       326  18 -2.036869E+06 -1.245798E+05 -1.260893E+05  3.405293E+05  3.165614E-09  1.315662E-09
       326  19  4.307742E+04  3.784303E+05  3.212078E+05  3.439969E+05  3.376854E+04  8.104940E+04
       326  20 -4.775419E+05  2.545797E+05  2.125615E+05  2.413263E+05  3.071188E+04  5.537005E+04
       326  21 -9.997146E+05  1.286759E+05  1.011771E+05  3.441901E+05  2.770217E+04  2.606952E+04
       326  22 -1.518746E+06 -2.202283E+03 -1.895134E+04  3.423699E+05  1.084705E+04  8.100199E+04
       326  23 -1.517378E+06  1.247471E+03 -1.313161E+04  2.395863E+05  4.336953E+03  5.529840E+04
       326  24 -1.518418E+06  2.057315E+03 -1.244801E+04  3.423587E+05 -2.128750E+03  2.596990E+04
       326  25 -3.078279E+06 -3.829969E+05 -3.592551E+05  3.407450E+05 -1.201753E+04  8.095463E+04
       326  26 -2.556196E+06 -2.521561E+05 -2.388866E+05  2.378484E+05 -2.199436E+04  5.522684E+04
       326  27 -2.036868E+06 -1.245788E+05 -1.260862E+05  3.405286E+05 -3.193502E+04  2.587039E+04
       327   1 -1.415075E+06  2.734987E+04  7.639543E+03  3.414694E+05 -2.529382E+04 -7.736819E+03
       327   2 -1.934614E+06 -1.003338E+05 -1.099550E+05  2.391144E+05 -1.315966E+04  2.180495E+04
       327   3 -2.458252E+06 -2.338117E+05 -2.372726E+05  3.426180E+05 -1.013811E+03  4.849373E+04
       327   4 -1.518686E+06  2.369568E+03 -1.352471E+04  3.424215E+05  4.338012E+03 -7.634723E+03
       327   5 -1.516819E+06  1.587151E+03 -1.895592E+04  2.395069E+05  1.373427E+04  2.189086E+04
       327   6 -1.518827E+06 -4.492713E+03 -3.218965E+04  3.424430E+05  2.315220E+04  4.856525E+04
       327   7 -1.622286E+06 -2.261093E+04 -3.468622E+04  3.433735E+05  3.396498E+04 -7.532526E+03
       327   8 -1.098860E+06  1.034969E+05  7.203539E+04  2.398995E+05  4.064611E+04  2.197677E+04
       327   9 -5.785700E+05  2.247677E+05  1.728422E+05  3.422668E+05  4.735442E+04  4.863669E+04
       327  10 -1.415076E+06  2.734964E+04  7.638226E+03  3.414692E+05 -3.227894E-09  6.088902E-09
       327  11 -1.934614E+06 -1.003344E+05 -1.099562E+05  2.391146E+05 -5.453996E-10  4.210549E-09
       327  12 -2.458253E+06 -2.338142E+05 -2.372770E+05  3.426181E+05  3.371663E-09 -1.067668E-09
       327  13 -1.518686E+06  2.369500E+03 -1.352485E+04  3.424216E+05  4.903294E-10 -3.073838E-09
       327  14 -1.516820E+06  1.586586E+03 -1.895717E+04  2.395066E+05 -6.590273E-10  4.352706E-09
       327  15 -1.518828E+06 -4.495387E+03 -3.219509E+04  3.424421E+05 -1.219695E-09  6.805696E-09
       327  16 -1.622287E+06 -2.261131E+04 -3.468850E+04  3.433737E+05  3.988806E-09  3.026027E-09
       327  17 -1.098862E+06  1.034959E+05  7.203138E+04  2.398988E+05 -1.499885E-09  5.530469E-09
       327  18 -5.785731E+05  2.247646E+05  1.728336E+05  3.422650E+05 -2.818923E-09  2.787688E-09
       327  19 -1.415075E+06  2.734987E+04  7.639543E+03  3.414694E+05  2.529382E+04  7.736819E+03
       327  20 -1.934614E+06 -1.003338E+05 -1.099550E+05  2.391144E+05  1.315966E+04 -2.180495E+04
       327  21 -2.458252E+06 -2.338117E+05 -2.372726E+05  3.426180E+05  1.013811E+03 -4.849373E+04
       327  22 -1.518686E+06  2.369568E+03 -1.352471E+04  3.424215E+05 -4.338012E+03  7.634723E+03
       327  23 -1.516819E+06  1.587151E+03 -1.895592E+04  2.395069E+05 -1.373427E+04 -2.189086E+04
       327  24 -1.518827E+06 -4.492713E+03 -3.218965E+04  3.424430E+05 -2.315220E+04 -4.856525E+04
       327  25 -1.622286E+06 -2.261093E+04 -3.468622E+04  3.433735E+05 -3.396498E+04  7.532526E+03
       327  26 -1.098860E+06  1.034969E+05  7.203539E+04  2.398995E+05 -4.064611E+04 -2.197677E+04
       327  27 -5.785700E+05  2.247677E+05  1.728422E+05  3.422668E+05 -4.735442E+04 -4.863669E+04
       328   1 -2.880055E+06 -3.234155E+05 -3.347874E+05  3.214217E+05 -1.411119E+04  7.150077E+04
       328   2 -3.377852E+06 -4.592682E+05 -4.841981E+05  2.590044E+05  8.507317E+04  8.331704E+04
       328   3 -3.919123E+06 -7.186843E+05 -7.293187E+05  3.985764E+05  1.842720E+05  2.872667E+04
       328   4 -1.525392E+06  7.297766E+03 -3.994604E+04  3.415107E+05  2.872745E+04  7.161600E+04
       328   5 -1.509459E+06 -1.350293E+03 -6.773701E+04  2.406480E+05  6.452399E+04  8.324874E+04
       328   6 -1.526063E+06 -1.223017E+05 -1.469451E+05  3.417732E+05  1.004239E+05  2.855226E+04
       328   7 -1.689965E+05  3.378912E+05  2.547923E+05  3.616426E+05  7.165864E+04  7.173386E+04
       328   8  3.622076E+05  4.563317E+05  3.485071E+05  2.222330E+05  4.391315E+04  8.318180E+04
       328   9  8.722754E+05  4.736746E+05  4.350413E+05  2.847456E+05  1.625126E+04  2.839371E+04
       328  10 -2.880057E+06 -3.234211E+05 -3.347974E+05  3.214225E+05  3.585611E-09 -1.105667E-09
       328  11 -3.377862E+06 -4.592776E+05 -4.842248E+05  2.589987E+05 -3.729177E-10  5.231032E-09
       328  12 -3.919160E+06 -7.186944E+05 -7.293844E+05  3.985721E+05 -8.658720E-10  1.952152E-09
       328  13 -1.525395E+06  7.292042E+03 -3.995722E+04  3.415091E+05 -1.525165E-09  1.168906E-09
       328  14 -1.509465E+06 -1.358848E+03 -6.775786E+04  2.406436E+05 -2.035010E-09  6.865144E-09
       328  15 -1.526074E+06 -1.223053E+05 -1.469656E+05  3.417709E+05  5.990105E-10 -5.748629E-10
       328  16 -1.690033E+05  3.378843E+05  2.547730E+05  3.616385E+05 -1.972814E-09  2.828407E-09
       328  17  3.622037E+05  4.563238E+05  3.484905E+05  2.222300E+05 -2.434470E-09  1.161201E-09
       328  18  8.722749E+05  4.736737E+05  4.350393E+05  2.847453E+05 -3.881330E-10 -7.789286E-10
       328  19 -2.880055E+06 -3.234155E+05 -3.347874E+05  3.214217E+05  1.411119E+04 -7.150077E+04
       328  20 -3.377852E+06 -4.592682E+05 -4.841981E+05  2.590044E+05 -8.507317E+04 -8.331704E+04
       328  21 -3.919123E+06 -7.186843E+05 -7.293187E+05  3.985764E+05 -1.842720E+05 -2.872667E+04
       328  22 -1.525392E+06  7.297766E+03 -3.994604E+04  3.415107E+05 -2.872745E+04 -7.161600E+04
       328  23 -1.509459E+06 -1.350293E+03 -6.773701E+04  2.406480E+05 -6.452399E+04 -8.324874E+04
       328  24 -1.526063E+06 -1.223017E+05 -1.469451E+05  3.417732E+05 -1.004239E+05 -2.855226E+04
       328  25 -1.689965E+05  3.378912E+05  2.547923E+05  3.616426E+05 -7.165864E+04 -7.173386E+04
       328  26  3.622076E+05  4.563317E+05  3.485071E+05  2.222330E+05 -4.391315E+04 -8.318180E+04
       328  27  8.722754E+05  4.736746E+05  4.350413E+05  2.847456E+05 -1.625126E+04 -2.839371E+04
       329   1  1.298005E+06  5.328086E+05  5.160427E+05  2.850831E+05  6.731371E+04 -2.634698E+04
       329   2  8.545444E+05  4.293886E+05  3.814776E+05  2.044233E+05  1.395474E+04 -7.836134E+04
       329   3  4.178889E+05  3.236880E+05  2.811198E+05  2.941566E+05 -3.945625E+04 -7.002080E+04
       329   4 -9.042323E+05 -1.424417E+04 -1.780796E+04  2.895451E+05 -1.158867E+04 -2.648446E+04
       329   5 -9.022820E+05  1.091064E+01 -8.712459E+03  2.043177E+05 -6.900792E+03 -7.842245E+04
       329   6 -9.037696E+05  1.919867E+03 -5.678864E+03  2.895144E+05 -2.302565E+03 -6.992805E+04
       329   7 -3.102029E+06 -5.616495E+05 -5.519850E+05  2.939884E+05 -9.021237E+04 -2.662337E+04
       329   8 -2.656228E+06 -4.295755E+05 -3.990932E+05  2.042105E+05 -2.769800E+04 -7.848366E+04
       329   9 -2.223786E+06 -3.199632E+05 -2.925766E+05  2.848806E+05  3.477310E+04 -6.983575E+04
       329  10  1.298000E+06  5.328066E+05  5.160329E+05  2.850845E+05  4.098391E-09 -1.274298E-09
       329  11  8.545425E+05  4.293819E+05  3.814657E+05  2.044242E+05 -7.648147E-09 -2.486776E-09
       329  12  4.178859E+05  3.236823E+05  2.811077E+05  2.941544E+05 -1.655114E-08 -2.641145E-09
       329  13 -9.042327E+05 -1.424496E+04 -1.780953E+04  2.895448E+05 -7.126539E-10  2.727267E-09
       329  14 -9.022837E+05  4.296738E+00 -8.724100E+03  2.043173E+05 -1.255599E-09 -3.875555E-10
       329  15 -9.037709E+05  1.914617E+03 -5.688059E+03  2.895142E+05  2.565441E-10 -3.994599E-09
       329  16 -3.102038E+06 -5.616524E+05 -5.520017E+05  2.939865E+05 -5.387608E-09 -5.373662E-10
       329  17 -2.656230E+06 -4.295823E+05 -3.991062E+05  2.042087E+05  5.725869E-09 -2.757239E-09
       329  18 -2.223789E+06 -3.199688E+05 -2.925880E+05  2.848826E+05  1.669093E-08 -4.365044E-09
       329  19  1.298005E+06  5.328086E+05  5.160427E+05  2.850831E+05 -6.731371E+04  2.634698E+04
       329  20  8.545444E+05  4.293886E+05  3.814776E+05  2.044233E+05 -1.395474E+04  7.836134E+04
       329  21  4.178889E+05  3.236880E+05  2.811198E+05  2.941566E+05  3.945625E+04  7.002080E+04
       329  22 -9.042323E+05 -1.424417E+04 -1.780796E+04  2.895451E+05  1.158867E+04  2.648446E+04
       329  23 -9.022820E+05  1.091064E+01 -8.712459E+03  2.043177E+05  6.900792E+03  7.842245E+04
       329  24 -9.037696E+05  1.919867E+03 -5.678864E+03  2.895144E+05  2.302565E+03  6.992805E+04
       329  25 -3.102029E+06 -5.616495E+05 -5.519850E+05  2.939884E+05  9.021237E+04  2.662337E+04
       329  26 -2.656228E+06 -4.295755E+05 -3.990932E+05  2.042105E+05  2.769800E+04  7.848366E+04
       329  27 -2.223786E+06 -3.199632E+05 -2.925766E+05  2.848806E+05 -3.477310E+04  6.983575E+04
       330   1  6.706035E+04  2.370401E+05  2.061969E+05  2.919425E+05 -2.157152E+04 -5.018706E+04
       330   2 -3.731797E+05  1.301010E+05  1.103991E+05  2.044086E+05 -2.186333E+04 -2.797533E+04
       330   3 -8.141570E+05  2.352687E+04  1.461583E+04  2.905632E+05 -2.217712E+04 -3.144507E+03
       330   4 -9.031301E+05  6.503822E+02 -5.129662E+03  2.902500E+05 -1.504389E+03 -5.013260E+04
       330   5 -9.023822E+05  1.194355E+03 -4.552491E+03  2.034001E+05  7.087103E+02 -2.790709E+04
       330   6 -9.029909E+05  1.679339E+03 -5.695978E+03  2.902475E+05  2.899639E+03 -3.060770E+03
       330   7 -1.872437E+06 -2.358017E+05 -2.165113E+05  2.885594E+05  1.853179E+04 -5.007819E+04
       330   8 -1.431321E+06 -1.277306E+05 -1.195190E+05  2.023923E+05  2.326175E+04 -2.783888E+04
       330   9 -9.918162E+05 -2.016840E+04 -2.600594E+04  2.899320E+05  2.797284E+04 -2.977052E+03
       330  10  6.705917E+04  2.370373E+05  2.061913E+05  2.919416E+05  1.207003E-08  1.471472E-09
       330  11 -3.731804E+05  1.301000E+05  1.103968E+05  2.044081E+05  4.600813E-09  9.076682E-10
       330  12 -8.141576E+05  2.352672E+04  1.461488E+04  2.905631E+05 -6.507015E-09  2.502396E-09
       330  13 -9.031307E+05  6.476839E+02 -5.134387E+03  2.902500E+05 -7.973736E-10 -1.203083E-09
       330  14 -9.023824E+05  1.193519E+03 -4.553955E+03  2.034002E+05 -8.934390E-10  1.632972E-09
       330  15 -9.029910E+05  1.679327E+03 -5.696011E+03  2.902475E+05  2.232960E-10  3.518895E-09
       330  16 -1.872438E+06 -2.358045E+05 -2.165167E+05  2.885602E+05 -1.179191E-08 -1.374979E-09
       330  17 -1.431321E+06 -1.277315E+05 -1.195214E+05  2.023928E+05 -4.854881E-09 -8.219010E-09
       330  18 -9.918170E+05 -2.016862E+04 -2.600742E+04  2.899320E+05  6.703740E-09 -3.911725E-10
       330  19  6.706035E+04  2.370401E+05  2.061969E+05  2.919425E+05  2.157152E+04  5.018706E+04
       330  20 -3.731797E+05  1.301010E+05  1.103991E+05  2.044086E+05  2.186333E+04  2.797533E+04
       330  21 -8.141570E+05  2.352687E+04  1.461583E+04  2.905632E+05  2.217712E+04  3.144507E+03
       330  22 -9.031301E+05  6.503822E+02 -5.129662E+03  2.902500E+05  1.504389E+03  5.013260E+04
       330  23 -9.023822E+05  1.194355E+03 -4.552491E+03  2.034001E+05 -7.087103E+02  2.790709E+04
       330  24 -9.029909E+05  1.679339E+03 -5.695978E+03  2.902475E+05 -2.899639E+03  3.060770E+03
       330  25 -1.872437E+06 -2.358017E+05 -2.165113E+05  2.885594E+05 -1.853179E+04  5.007819E+04
       330  26 -1.431321E+06 -1.277306E+05 -1.195190E+05  2.023923E+05 -2.326175E+04  2.783888E+04
       330  27 -9.918162E+05 -2.016840E+04 -2.600594E+04  2.899320E+05 -2.797284E+04  2.977052E+03
       331   1 -1.164634E+06 -6.189983E+04 -6.452822E+04  2.888165E+05 -2.118199E+04  1.232494E+04
       331   2 -1.603440E+06 -1.697795E+05 -1.633188E+05  2.022350E+05 -1.304089E+04  3.714857E+04
       331   3 -2.044953E+06 -2.811572E+05 -2.685539E+05  2.893188E+05 -4.878026E+03  5.913895E+04
       331   4 -9.032403E+05  1.984464E+03 -6.849264E+03  2.902351E+05  3.942954E+03  1.240805E+04
       331   5 -9.021251E+05  1.155552E+03 -1.097915E+04  2.034151E+05  9.367494E+03  3.721338E+04
       331   6 -9.034288E+05 -2.685307E+03 -1.965408E+04  2.902486E+05  1.481951E+04  5.918759E+04
       331   7 -6.417812E+05  6.586450E+04  5.082786E+04  2.916543E+05  2.907837E+04  1.249127E+04
       331   8 -2.003462E+05  1.720583E+05  1.413330E+05  2.045961E+05  3.180091E+04  3.727823E+04
       331   9  2.393215E+05  2.757000E+05  2.291688E+05  2.911789E+05  3.455287E+04  5.923625E+04
       331  10 -1.164635E+06 -6.190011E+04 -6.452935E+04  2.888167E+05 -6.363063E-10  7.342795E-09
       331  11 -1.603441E+06 -1.697811E+05 -1.633217E+05  2.022354E+05 -6.064509E-09  2.245785E-09
       331  12 -2.044954E+06 -2.811610E+05 -2.685605E+05  2.893191E+05 -1.263235E-08  3.083318E-09
       331  13 -9.032404E+05  1.984294E+03 -6.849582E+03  2.902351E+05 -1.012499E-09  4.455237E-09
       331  14 -9.021256E+05  1.154042E+03 -1.098192E+04  2.034148E+05 -8.609196E-10  1.860497E-09
       331  15 -9.034299E+05 -2.689126E+03 -1.966107E+04  2.902479E+05 -9.236809E-10 -3.758216E-09
       331  16 -6.417821E+05  6.586410E+04  5.082598E+04  2.916540E+05  2.060937E-09  3.043587E-09
       331  17 -2.003476E+05  1.720565E+05  1.413285E+05  2.045952E+05  5.988733E-09 -2.499437E-09
       331  18  2.393193E+05  2.756959E+05  2.291600E+05  2.911773E+05  1.159745E-08 -6.880249E-09
       331  19 -1.164634E+06 -6.189983E+04 -6.452822E+04  2.888165E+05  2.118199E+04 -1.232494E+04
       331  20 -1.603440E+06 -1.697795E+05 -1.633188E+05  2.022350E+05  1.304089E+04 -3.714857E+04
       331  21 -2.044953E+06 -2.811572E+05 -2.685539E+05  2.893188E+05  4.878026E+03 -5.913895E+04
       331  22 -9.032403E+05  1.984464E+03 -6.849264E+03  2.902351E+05 -3.942954E+03 -1.240805E+04
       331  23 -9.021251E+05  1.155552E+03 -1.097915E+04  2.034151E+05 -9.367494E+03 -3.721338E+04
       331  24 -9.034288E+05 -2.685307E+03 -1.965408E+04  2.902486E+05 -1.481951E+04 -5.918759E+04
       331  25 -6.417812E+05  6.586450E+04  5.082786E+04  2.916543E+05 -2.907837E+04 -1.249127E+04
       331  26 -2.003462E+05  1.720583E+05  1.413330E+05  2.045961E+05 -3.180091E+04 -3.727823E+04
       331  27  2.393215E+05  2.757000E+05  2.291688E+05  2.911789E+05 -3.455287E+04 -5.923625E+04
       332   1 -2.399588E+06 -3.592714E+05 -3.488186E+05  2.758403E+05 -1.976437E+04  7.924292E+04
       332   2 -2.823207E+06 -4.725743E+05 -4.705943E+05  2.151406E+05  6.463268E+04  8.665380E+04
       332   3 -3.277393E+06 -6.666525E+05 -6.675935E+05  3.245395E+05  1.490460E+05  2.915200E+04
       332   4 -9.074992E+05  4.632383E+03 -2.462037E+04  2.894156E+05  1.821686E+04  7.932840E+04
       332   5 -8.978466E+05 -1.060762E+03 -4.229081E+04  2.044424E+05  4.058908E+04  8.658596E+04
       332   6 -9.080344E+05 -7.658341E+04 -9.191234E+04  2.895552E+05  6.304002E+04  2.901457E+04
       332   7  5.866875E+05  3.683896E+05  2.994503E+05  3.030223E+05  5.628842E+04  7.941543E+04
       332   8  1.030987E+06  4.702020E+05  3.857835E+05  1.937083E+05  1.647131E+04  8.651908E+04
       332   9  1.466490E+06  5.130809E+05  4.833912E+05  2.544336E+05 -2.329499E+04  2.888720E+04
       332  10 -2.399590E+06 -3.592782E+05 -3.488311E+05  2.758415E+05  1.320332E-08  1.518032E-09
       332  11 -2.823214E+06 -4.725835E+05 -4.706163E+05  2.151361E+05  8.018432E-09 -1.747524E-09
       332  12 -3.277417E+06 -6.666594E+05 -6.676370E+05  3.245360E+05 -2.855066E-09  1.489384E-10
       332  13 -9.075012E+05  4.625540E+03 -2.463281E+04  2.894144E+05 -7.191503E-10  2.080024E-09
       332  14 -8.978504E+05 -1.069251E+03 -4.230799E+04  2.044396E+05  3.820553E-10 -2.567741E-09
       332  15 -9.080389E+05 -7.658538E+04 -9.192139E+04  2.895538E+05 -4.253070E-10  1.250333E-09
       332  16  5.866824E+05  3.683820E+05  2.994325E+05  3.030187E+05 -1.251987E-08  6.720493E-11
       332  17  1.030984E+06  4.701939E+05  3.857689E+05  1.937072E+05 -7.606785E-09  4.826135E-10
       332  18  1.466489E+06  5.130799E+05  4.833886E+05  2.544341E+05  2.529583E-09 -9.668451E-10
       332  19 -2.399588E+06 -3.592714E+05 -3.488186E+05  2.758403E+05  1.976437E+04 -7.924292E+04
       332  20 -2.823207E+06 -4.725743E+05 -4.705943E+05  2.151406E+05 -6.463268E+04 -8.665380E+04
       332  21 -3.277393E+06 -6.666525E+05 -6.675935E+05  3.245395E+05 -1.490460E+05 -2.915200E+04
       332  22 -9.074992E+05  4.632383E+03 -2.462037E+04  2.894156E+05 -1.821686E+04 -7.932840E+04
       332  23 -8.978466E+05 -1.060762E+03 -4.229081E+04  2.044424E+05 -4.058908E+04 -8.658596E+04
       332  24 -9.080344E+05 -7.658341E+04 -9.191234E+04  2.895552E+05 -6.304002E+04 -2.901457E+04
       332  25  5.866875E+05  3.683896E+05  2.994503E+05  3.030223E+05 -5.628842E+04 -7.941543E+04
       332  26  1.030987E+06  4.702020E+05  3.857835E+05  1.937083E+05 -1.647131E+04 -8.651908E+04
       332  27  1.466490E+06  5.130809E+05  4.833912E+05  2.544336E+05  2.329499E+04 -2.888720E+04
       333   1  8.543395E+05  3.241837E+05  3.182470E+05  1.956342E+05  5.198739E+04 -1.475198E+04
       333   2  5.625122E+05  2.386754E+05  2.216971E+05  1.367647E+05  1.575911E+04 -4.305938E+04
       333   3  2.792250E+05  1.681967E+05  1.524763E+05  1.894782E+05 -2.048783E+04 -3.632795E+04
       333   4 -4.114195E+05  9.680022E+03  1.115693E+04  1.899547E+05  7.983916E+03 -1.480462E+04
       333   5 -4.126525E+05  2.935042E+02  4.862025E+03  1.341649E+05  5.441115E+03 -4.307882E+04
       333   6 -4.112560E+05  1.095142E+02  2.531183E+03  1.899670E+05  2.862429E+03 -3.628985E+04
       333   7 -1.675712E+06 -3.049402E+05 -2.960415E+05  1.842862E+05 -3.593021E+04 -1.485651E+04
       333   8 -1.386930E+06 -2.381527E+05 -2.120320E+05  1.315688E+05 -4.860863E+03 -4.309819E+04
       333   9 -1.101289E+06 -1.680090E+05 -1.474404E+05  1.904550E+05  2.618707E+04 -3.625170E+04
       333  10  8.543366E+05  3.241827E+05  3.182415E+05  1.956348E+05 -3.778435E-09  1.844577E-09
       333  11  5.625114E+05  2.386734E+05  2.216932E+05  1.367653E+05 -5.583896E-10  5.108426E-09
       333  12  2.792242E+05  1.681952E+05  1.524730E+05  1.894776E+05  2.454308E-09  1.141824E-09
       333  13 -4.114196E+05  9.679769E+03  1.115640E+04  1.899548E+05 -6.650333E-10 -2.468142E-09
       333  14 -4.126530E+05  2.915038E+02  4.858483E+03  1.341651E+05 -3.877469E-10 -2.903155E-09
       333  15 -4.112563E+05  1.080980E+02  2.528693E+03  1.899671E+05  8.927276E-10  5.063306E-10
       333  16 -1.675713E+06 -3.049408E+05 -2.960443E+05  1.842858E+05  4.329332E-09  5.870492E-10
       333  17 -1.386931E+06 -2.381547E+05 -2.120356E+05  1.315687E+05 -2.099827E-09  3.386460E-09
       333  18 -1.101290E+06 -1.680106E+05 -1.474441E+05  1.904558E+05 -3.002034E-09 -1.566417E-09
       333  19  8.543395E+05  3.241837E+05  3.182470E+05  1.956342E+05 -5.198739E+04  1.475198E+04
       333  20  5.625122E+05  2.386754E+05  2.216971E+05  1.367647E+05 -1.575911E+04  4.305938E+04
       333  21  2.792250E+05  1.681967E+05  1.524763E+05  1.894782E+05  2.048783E+04  3.632795E+04
       333  22 -4.114195E+05  9.680022E+03  1.115693E+04  1.899547E+05 -7.983916E+03  1.480462E+04
       333  23 -4.126525E+05  2.935042E+02  4.862025E+03  1.341649E+05 -5.441115E+03  4.307882E+04
       333  24 -4.112560E+05  1.095142E+02  2.531183E+03  1.899670E+05 -2.862429E+03  3.628985E+04
       333  25 -1.675712E+06 -3.049402E+05 -2.960415E+05  1.842862E+05  3.593021E+04  1.485651E+04
       333  26 -1.386930E+06 -2.381527E+05 -2.120320E+05  1.315688E+05  4.860863E+03  4.309819E+04
       333  27 -1.101289E+06 -1.680090E+05 -1.474404E+05  1.904550E+05 -2.618707E+04  3.625170E+04
       334   1  4.942872E+04  1.134594E+05  1.022239E+05  1.910641E+05 -1.091985E+04 -2.374227E+04
       334   2 -2.380420E+05  4.278265E+04  3.790792E+04  1.339149E+05 -1.242928E+04 -9.002722E+03
       334   3 -5.254292E+05 -2.693801E+04 -2.529758E+04  1.900678E+05 -1.394355E+04  7.233571E+03
       334   4 -4.118366E+05  1.085489E+03  1.712296E+03  1.903439E+05  2.512830E+03 -2.371847E+04
       334   5 -4.116983E+05  4.750868E+02  9.017367E+01  1.336925E+05  2.437438E+03 -8.974988E+03
       334   6 -4.118073E+05  5.758270E+02 -1.415361E+03  1.903449E+05  2.356511E+03  7.265722E+03
       334   7 -8.729021E+05 -1.113024E+05 -9.881146E+04  1.896240E+05  1.593566E+04 -2.369470E+04
       334   8 -5.853258E+05 -4.183436E+04 -3.772855E+04  1.334701E+05  1.730005E+04 -8.947260E+03
       334   9 -2.981726E+05  2.808898E+04  2.246714E+04  1.906221E+05  1.865951E+04  7.297884E+03
       334  10  4.942844E+04  1.134587E+05  1.022227E+05  1.910639E+05 -6.064584E-10  2.382075E-10
       334  11 -2.380422E+05  4.278252E+04  3.790748E+04  1.339149E+05 -5.215586E-11  3.614157E-09
       334  12 -5.254294E+05 -2.693812E+04 -2.529805E+04  1.900679E+05 -4.580074E-10  4.733535E-09
       334  13 -4.118368E+05  1.084883E+03  1.711227E+03  1.903439E+05 -1.654540E-09  3.026967E-09
       334  14 -4.116983E+05  4.749988E+02  9.001113E+01  1.336925E+05 -4.915380E-10 -1.294119E-08
       334  15 -4.118073E+05  5.757689E+02 -1.415470E+03  1.903449E+05 -8.725673E-10  3.989235E-09
       334  16 -8.729025E+05 -1.113031E+05 -9.881299E+04  1.896243E+05  1.338606E-09 -5.299953E-09
       334  17 -5.853261E+05 -4.183452E+04 -3.772927E+04  1.334702E+05 -3.253715E-10 -5.027386E-09
       334  18 -2.981730E+05  2.808883E+04  2.246638E+04  1.906220E+05 -4.318420E-10  5.484487E-10
       334  19  4.942872E+04  1.134594E+05  1.022239E+05  1.910641E+05  1.091985E+04  2.374227E+04
       334  20 -2.380420E+05  4.278265E+04  3.790792E+04  1.339149E+05  1.242928E+04  9.002722E+03
       334  21 -5.254292E+05 -2.693801E+04 -2.529758E+04  1.900678E+05  1.394355E+04 -7.233571E+03
       334  22 -4.118366E+05  1.085489E+03  1.712296E+03  1.903439E+05 -2.512830E+03  2.371847E+04
       334  23 -4.116983E+05  4.750868E+02  9.017367E+01  1.336925E+05 -2.437438E+03  8.974988E+03
       334  24 -4.118073E+05  5.758270E+02 -1.415361E+03  1.903449E+05 -2.356511E+03 -7.265722E+03
       334  25 -8.729021E+05 -1.113024E+05 -9.881146E+04  1.896240E+05 -1.593566E+04  2.369470E+04
       334  26 -5.853258E+05 -4.183436E+04 -3.772855E+04  1.334701E+05 -1.730005E+04  8.947260E+03
       334  27 -2.981726E+05  2.808898E+04  2.246714E+04  1.906221E+05 -1.865951E+04 -7.297884E+03
       335   1 -7.539429E+05 -8.258718E+04 -7.696957E+04  1.894586E+05 -1.378719E+04  1.731712E+04
       335   2 -1.040497E+06 -1.528072E+05 -1.411125E+05  1.331072E+05 -9.509274E+03  3.344622E+04
       335   3 -1.328259E+06 -2.248515E+05 -2.085800E+05  1.899886E+05 -5.218495E+03  4.752364E+04
       335   4 -4.119837E+05  7.946865E+02 -2.262173E+03  1.903265E+05  2.656738E+03  1.734825E+04
       335   5 -4.115694E+05  3.751805E+02 -4.661691E+03  1.337154E+05  4.966883E+03  3.346819E+04
       335   6 -4.120923E+05 -1.519060E+03 -9.012026E+03  1.903302E+05  7.291801E+03  4.753768E+04
       335   7 -6.991421E+04  8.416891E+04  7.243917E+04  1.911948E+05  1.910962E+04  1.737942E+04
       335   8  2.177303E+05  1.535315E+05  1.317663E+05  1.343240E+05  1.945753E+04  3.349017E+04
       335   9  5.048624E+05  2.217576E+05  1.905062E+05  1.906719E+05  1.982034E+04  4.755173E+04
       335  10 -7.539432E+05 -8.258756E+04 -7.697049E+04  1.894588E+05  1.367855E-09 -3.787254E-09
       335  11 -1.040497E+06 -1.528084E+05 -1.411147E+05  1.331074E+05 -1.640429E-10 -1.883857E-09
       335  12 -1.328259E+06 -2.248539E+05 -2.085843E+05  1.899888E+05 -2.209027E-10 -2.259696E-09
       335  13 -4.119838E+05  7.943615E+02 -2.262752E+03  1.903265E+05 -3.553185E-10 -1.536380E-09
       335  14 -4.115697E+05  3.739714E+02 -4.663842E+03  1.337152E+05 -6.025591E-10 -3.625372E-09
       335  15 -4.120930E+05 -1.521501E+03 -9.016371E+03  1.903299E+05  4.025010E-10 -2.369063E-09
       335  16 -6.991468E+04  8.416849E+04  7.243792E+04  1.911945E+05 -7.518091E-10 -2.736530E-09
       335  17  2.177296E+05  1.535302E+05  1.317635E+05  1.343235E+05 -1.144376E-09  2.699397E-09
       335  18  5.048614E+05  2.217551E+05  1.905012E+05  1.906711E+05 -1.430370E-10  1.207609E-09
       335  19 -7.539429E+05 -8.258718E+04 -7.696957E+04  1.894586E+05  1.378719E+04 -1.731712E+04
       335  20 -1.040497E+06 -1.528072E+05 -1.411125E+05  1.331072E+05  9.509274E+03 -3.344622E+04
       335  21 -1.328259E+06 -2.248515E+05 -2.085800E+05  1.899886E+05  5.218495E+03 -4.752364E+04
       335  22 -4.119837E+05  7.946865E+02 -2.262173E+03  1.903265E+05 -2.656738E+03 -1.734825E+04
       335  23 -4.115694E+05  3.751805E+02 -4.661691E+03  1.337154E+05 -4.966883E+03 -3.346819E+04
       335  24 -4.120923E+05 -1.519060E+03 -9.012026E+03  1.903302E+05 -7.291801E+03 -4.753768E+04
       335  25 -6.991421E+04  8.416891E+04  7.243917E+04  1.911948E+05 -1.910962E+04 -1.737942E+04
       335  26  2.177303E+05  1.535315E+05  1.317663E+05  1.343240E+05 -1.945753E+04 -3.349017E+04
       335  27  5.048624E+05  2.217576E+05  1.905062E+05  1.906719E+05 -1.982034E+04 -4.755173E+04
       336   1 -1.559128E+06 -2.770542E+05 -2.599223E+05  1.836105E+05 -1.683052E+04  6.099172E+04
       336   2 -1.837569E+06 -3.501113E+05 -3.371140E+05  1.398628E+05  3.842166E+04  6.452371E+04
       336   3 -2.132912E+06 -4.641347E+05 -4.604939E+05  2.070168E+05  9.366048E+04  2.136616E+04
       336   4 -4.140250E+05  1.943991E+03 -1.144480E+04  1.898037E+05  8.862156E+03  6.101779E+04
       336   5 -4.095649E+05 -7.110618E+02 -1.994758E+04  1.343705E+05  1.942531E+04  6.449646E+04
       336   6 -4.142744E+05 -3.650634E+04 -4.352234E+04  1.898304E+05  3.000220E+04  2.133169E+04
       336   7  7.323120E+05  2.808558E+05  2.369570E+05  1.960078E+05  3.460168E+04  6.104435E+04
       336   8  1.020347E+06  3.485514E+05  2.970933E+05  1.288648E+05  3.856127E+02  6.446958E+04
       336   9  1.307078E+06  3.909082E+05  3.732515E+05  1.725955E+05 -3.383234E+04  2.130082E+04
       336  10 -1.559129E+06 -2.770583E+05 -2.599299E+05  1.836113E+05  9.746539E-10 -2.124088E-09
       336  11 -1.837572E+06 -3.501161E+05 -3.371246E+05  1.398608E+05 -1.037909E-09  1.470090E-09
       336  12 -2.132922E+06 -4.641376E+05 -4.605113E+05  2.070152E+05  8.230476E-10  3.844380E-10
       336  13 -4.140261E+05  1.939973E+03 -1.145195E+04  1.898032E+05 -1.737549E-11 -1.312782E-09
       336  14 -4.095664E+05 -7.156289E+02 -1.995611E+04  1.343695E+05 -2.750395E-10  2.195076E-09
       336  15 -4.142755E+05 -3.650707E+04 -4.352488E+04  1.898299E+05 -3.219132E-10  2.113003E-09
       336  16  7.323097E+05  2.808515E+05  2.369478E+05  1.960061E+05  5.460648E-10 -5.182592E-10
       336  17  1.020346E+06  3.485469E+05  2.970855E+05  1.288648E+05  1.667478E-10  2.811546E-09
       336  18  1.307076E+06  3.909074E+05  3.732485E+05  1.725961E+05 -7.993855E-10  1.039416E-09
       336  19 -1.559128E+06 -2.770542E+05 -2.599223E+05  1.836105E+05  1.683052E+04 -6.099172E+04
       336  20 -1.837569E+06 -3.501113E+05 -3.371140E+05  1.398628E+05 -3.842166E+04 -6.452371E+04
       336  21 -2.132912E+06 -4.641347E+05 -4.604939E+05  2.070168E+05 -9.366048E+04 -2.136616E+04
       336  22 -4.140250E+05  1.943991E+03 -1.144480E+04  1.898037E+05 -8.862156E+03 -6.101779E+04
       336  23 -4.095649E+05 -7.110618E+02 -1.994758E+04  1.343705E+05 -1.942531E+04 -6.449646E+04
       336  24 -4.142744E+05 -3.650634E+04 -4.352234E+04  1.898304E+05 -3.000220E+04 -2.133169E+04
       336  25  7.323120E+05  2.808558E+05  2.369570E+05  1.960078E+05 -3.460168E+04 -6.104435E+04
       336  26  1.020347E+06  3.485514E+05  2.970933E+05  1.288648E+05 -3.856127E+02 -6.446958E+04
       336  27  1.307078E+06  3.909082E+05  3.732515E+05  1.725955E+05  3.383234E+04 -2.130082E+04
       337   1  3.615077E+05  1.340235E+05  1.343949E+05  9.695888E+04  2.835958E+04 -5.270215E+03
       337   2  2.235771E+05  8.352726E+04  8.444280E+04  6.583019E+04  1.094103E+04 -1.471044E+04
       337   3  9.213320E+04  4.974822E+04  5.000790E+04  8.712817E+04 -6.474738E+03 -1.069191E+04
       337   4 -1.149367E+05  1.558902E+04  1.859960E+04  8.927356E+04  1.282790E+04 -5.273313E+03
       337   5 -1.170376E+05  2.175459E+02  8.491305E+03  6.306141E+04  8.339497E+03 -1.471171E+04
       337   6 -1.149105E+05 -6.748437E+02  4.928053E+03  8.927653E+04  3.849799E+03 -1.068831E+04
       337   7 -5.911733E+05 -1.028618E+05 -9.721119E+04  8.159413E+04 -2.691907E+03 -5.276028E+03
       337   8 -4.575441E+05 -8.310001E+04 -6.746743E+04  6.029416E+04  5.739373E+03 -1.471296E+04
       337   9 -3.219138E+05 -5.110068E+04 -4.015396E+04  9.142417E+04  1.417094E+04 -1.068464E+04
       337  10  3.615068E+05  1.340233E+05  1.343933E+05  9.695900E+04  2.902044E-10  5.307289E-10
       337  11  2.235770E+05  8.352699E+04  8.444217E+04  6.583032E+04 -1.840105E-10  2.329603E-09
       337  12  9.213312E+04  4.974808E+04  5.000760E+04  8.712811E+04 -6.610791E-10  8.961765E-10
       337  13 -1.149369E+05  1.558894E+04  1.859924E+04  8.927361E+04 -9.125819E-11  4.259544E-10
       337  14 -1.170377E+05  2.172948E+02  8.490767E+03  6.306151E+04  7.463947E-10  2.117455E-09
       337  15 -1.149106E+05 -6.749704E+02  4.927810E+03  8.927657E+04 -9.227381E-10 -6.216908E-10
       337  16 -5.911733E+05 -1.028619E+05 -9.721125E+04  8.159412E+04  1.029295E-10  1.283107E-09
       337  17 -4.575442E+05 -8.310025E+04 -6.746790E+04  6.029422E+04  3.880916E-10 -1.952970E-09
       337  18 -3.219141E+05 -5.110085E+04 -4.015455E+04  9.142429E+04  3.590028E-10 -2.031303E-09
       337  19  3.615077E+05  1.340235E+05  1.343949E+05  9.695888E+04 -2.835958E+04  5.270215E+03
       337  20  2.235771E+05  8.352726E+04  8.444280E+04  6.583019E+04 -1.094103E+04  1.471044E+04
       337  21  9.213320E+04  4.974822E+04  5.000790E+04  8.712817E+04  6.474738E+03  1.069191E+04
       337  22 -1.149367E+05  1.558902E+04  1.859960E+04  8.927356E+04 -1.282790E+04  5.273313E+03
       337  23 -1.170376E+05  2.175459E+02  8.491305E+03  6.306141E+04 -8.339497E+03  1.471171E+04
       337  24 -1.149105E+05 -6.748437E+02  4.928053E+03  8.927653E+04 -3.849799E+03  1.068831E+04
       337  25 -5.911733E+05 -1.028618E+05 -9.721119E+04  8.159413E+04  2.691907E+03  5.276028E+03
       337  26 -4.575441E+05 -8.310001E+04 -6.746743E+04  6.029416E+04 -5.739373E+03  1.471296E+04
       337  27 -3.219138E+05 -5.110068E+04 -4.015396E+04  9.142417E+04 -1.417094E+04  1.068464E+04
       338   1 -1.595048E+04  2.518049E+04  2.568771E+04  8.970629E+04 -3.362610E+03 -5.038723E+03
       338   2 -1.507121E+05 -8.417316E+03 -5.396502E+03  6.293926E+04 -4.919887E+03  2.032444E+03
       338   3 -2.850640E+05 -4.113135E+04 -3.525593E+04  8.921733E+04 -6.476620E+03  9.663508E+03
       338   4 -1.157757E+05  8.518848E+02  3.878043E+03  8.941299E+04  3.156799E+03 -5.036143E+03
       338   5 -1.159279E+05  2.571404E+01  2.029389E+03  6.289070E+04  2.136538E+03  2.035062E+03
       338   6 -1.157786E+05 -8.259349E+00  1.033949E+03  8.941331E+04  1.116501E+03  9.666213E+03
       338   7 -2.155914E+05 -2.347736E+04 -1.793206E+04  8.911974E+04  9.675173E+03 -5.033569E+03
       338   8 -8.114243E+04  8.468692E+03  9.455398E+03  6.284215E+04  9.193352E+03  2.037679E+03
       338   9  5.353395E+04  4.111299E+04  3.732237E+04  8.960934E+04  8.711663E+03  9.668922E+03
       338  10 -1.595050E+04  2.518046E+04  2.568764E+04  8.970627E+04 -9.038257E-10 -8.465018E-13
       338  11 -1.507121E+05 -8.417327E+03 -5.396555E+03  6.293926E+04 -3.295682E-10 -1.914637E-09
       338  12 -2.850641E+05 -4.113146E+04 -3.525618E+04  8.921738E+04 -1.041100E-09  7.655854E-10
       338  13 -1.157757E+05  8.518549E+02  3.877977E+03  8.941300E+04 -1.283997E-10  5.681993E-12
       338  14 -1.159279E+05  2.570837E+01  2.029373E+03  6.289070E+04 -1.470726E-09  2.731327E-09
       338  15 -1.157786E+05 -8.360009E+00  1.033771E+03  8.941330E+04 -4.152572E-12  9.794354E-10
       338  16 -2.155915E+05 -2.347742E+04 -1.793229E+04  8.911978E+04  9.050175E-10  1.598187E-10
       338  17 -8.114252E+04  8.468665E+03  9.455231E+03  6.284213E+04  6.664188E-10  1.509116E-09
       338  18  5.353385E+04  4.111287E+04  3.732205E+04  8.960927E+04  6.540386E-10  1.979621E-09
       338  19 -1.595048E+04  2.518049E+04  2.568771E+04  8.970629E+04  3.362610E+03  5.038723E+03
       338  20 -1.507121E+05 -8.417316E+03 -5.396502E+03  6.293926E+04  4.919887E+03 -2.032444E+03
       338  21 -2.850640E+05 -4.113135E+04 -3.525593E+04  8.921733E+04  6.476620E+03 -9.663508E+03
       338  22 -1.157757E+05  8.518848E+02  3.878043E+03  8.941299E+04 -3.156799E+03  5.036143E+03
       338  23 -1.159279E+05  2.571404E+01  2.029389E+03  6.289070E+04 -2.136538E+03 -2.035062E+03
       338  24 -1.157786E+05 -8.259349E+00  1.033949E+03  8.941331E+04 -1.116501E+03 -9.666213E+03
       338  25 -2.155914E+05 -2.347736E+04 -1.793206E+04  8.911974E+04 -9.675173E+03  5.033569E+03
       338  26 -8.114243E+04  8.468692E+03  9.455398E+03  6.284215E+04 -9.193352E+03 -2.037679E+03
       338  27  5.353395E+04  4.111299E+04  3.732237E+04  8.960934E+04 -8.711663E+03 -9.668922E+03
       339   1 -3.920143E+05 -6.718181E+04 -5.938585E+04  8.928684E+04 -6.774971E+03  1.438253E+04
       339   2 -5.264367E+05 -9.996197E+04 -8.892304E+04  6.285708E+04 -5.753441E+03  2.189781E+04
       339   3 -6.610011E+05 -1.330364E+05 -1.191920E+05  8.943761E+04 -4.728447E+03  2.831431E+04
       339   4 -1.158507E+05  8.153892E+01  6.849181E+02  8.940507E+04  9.625945E+02  1.438470E+04
       339   5 -1.158794E+05 -2.116080E+01  6.824098E+01  6.290103E+04  9.294059E+02  2.189800E+04
       339   6 -1.158837E+05 -2.336896E+02 -5.466989E+02  8.940513E+04  8.998969E+02  2.831293E+04
       339   7  1.603845E+05  6.733986E+04  6.075134E+04  8.952334E+04  8.703559E+03  1.438687E+04
       339   8  2.948364E+05  9.990853E+04  8.904966E+04  6.294499E+04  7.616616E+03  2.189819E+04
       339   9  4.295126E+05  1.325493E+05  1.180809E+05  8.937261E+04  6.533122E+03  2.831155E+04
       339  10 -3.920144E+05 -6.718205E+04 -5.938632E+04  8.928692E+04  2.351007E-10  1.464868E-09
       339  11 -5.264369E+05 -9.996250E+04 -8.892400E+04  6.285718E+04 -7.501831E-11  5.801682E-10
       339  12 -6.610013E+05 -1.330372E+05 -1.191935E+05  8.943771E+04  7.383878E-10  7.096654E-10
       339  13 -1.158508E+05  8.131649E+01  6.845275E+02  8.940506E+04 -1.723439E-11 -9.847490E-10
       339  14 -1.158795E+05 -2.167593E+01  6.733830E+01  6.290101E+04 -1.228888E-09  9.243250E-10
       339  15 -1.158839E+05 -2.345506E+02 -5.482067E+02  8.940511E+04 -2.515972E-10 -1.215535E-09
       339  16  1.603844E+05  6.733962E+04  6.075081E+04  8.952324E+04  2.671814E-10  2.360472E-10
       339  17  2.948362E+05  9.990799E+04  8.904865E+04  6.294486E+04 -7.612627E-10 -1.232558E-09
       339  18  4.295124E+05  1.325484E+05  1.180793E+05  8.937246E+04 -1.031619E-09 -1.643152E-09
       339  19 -3.920143E+05 -6.718181E+04 -5.938585E+04  8.928684E+04  6.774971E+03 -1.438253E+04
       339  20 -5.264367E+05 -9.996197E+04 -8.892304E+04  6.285708E+04  5.753441E+03 -2.189781E+04
       339  21 -6.610011E+05 -1.330364E+05 -1.191920E+05  8.943761E+04  4.728447E+03 -2.831431E+04
       339  22 -1.158507E+05  8.153892E+01  6.849181E+02  8.940507E+04 -9.625945E+02 -1.438470E+04
       339  23 -1.158794E+05 -2.116080E+01  6.824098E+01  6.290103E+04 -9.294059E+02 -2.189800E+04
       339  24 -1.158837E+05 -2.336896E+02 -5.466989E+02  8.940513E+04 -8.998969E+02 -2.831293E+04
       339  25  1.603845E+05  6.733986E+04  6.075134E+04  8.952334E+04 -8.703559E+03 -1.438687E+04
       339  26  2.948364E+05  9.990853E+04  8.904966E+04  6.294499E+04 -7.616616E+03 -2.189819E+04
       339  27  4.295126E+05  1.325493E+05  1.180809E+05  8.937261E+04 -6.533122E+03 -2.831155E+04
       340   1 -7.685377E+05 -1.587801E+05 -1.422553E+05  8.871678E+04 -1.164752E+04  3.486197E+04
       340   2 -9.007693E+05 -1.921256E+05 -1.758321E+05  6.398567E+04  1.306659E+04  3.564508E+04
       340   3 -1.037733E+06 -2.325876E+05 -2.272405E+05  9.111358E+04  3.775965E+04  1.162291E+04
       340   4 -1.160541E+05  6.870493E+01 -8.375461E+02  8.914937E+04  9.998170E+02  3.485886E+04
       340   5 -1.157779E+05 -2.147150E+02 -1.746208E+03  6.322083E+04  1.932030E+03  3.564514E+04
       340   6 -1.161165E+05 -3.477821E+03 -3.956185E+03  8.914811E+04  2.849160E+03  1.164013E+04
       340   7  5.368298E+05  1.588894E+05  1.405555E+05  8.958240E+04  1.366028E+04  3.485576E+04
       340   8  6.697896E+05  1.916546E+05  1.723019E+05  6.245503E+04 -9.216470E+03  3.564524E+04
       340   9  8.062798E+05  2.255703E+05  2.192715E+05  8.717975E+04 -3.211306E+04  1.165757E+04
       340  10 -7.685382E+05 -1.587814E+05 -1.422579E+05  8.871711E+04 -3.273385E-09  8.314094E-10
       340  11 -9.007698E+05 -1.921270E+05 -1.758348E+05  6.398530E+04 -2.253808E-10  2.032897E-09
       340  12 -1.037735E+06 -2.325881E+05 -2.272434E+05  9.111323E+04  1.794143E-09 -9.843298E-10
       340  13 -1.160544E+05  6.739989E+01 -8.398314E+02  8.914934E+04  1.066666E-10  1.364558E-09
       340  14 -1.157782E+05 -2.160803E+02 -1.748603E+03  6.322078E+04  7.746768E-10  3.915138E-09
       340  15 -1.161165E+05 -3.477969E+03 -3.956455E+03  8.914808E+04  1.832799E-10 -6.567431E-10
       340  16  5.368292E+05  1.588880E+05  1.405529E+05  8.958201E+04  3.417464E-09 -4.199078E-10
       340  17  6.697892E+05  1.916532E+05  1.722993E+05  6.245529E+04  1.377940E-09  1.032743E-09
       340  18  8.062786E+05  2.255699E+05  2.192693E+05  8.718005E+04 -1.935889E-09  2.808302E-09
       340  19 -7.685377E+05 -1.587801E+05 -1.422553E+05  8.871678E+04  1.164752E+04 -3.486197E+04
       340  20 -9.007693E+05 -1.921256E+05 -1.758321E+05  6.398567E+04 -1.306659E+04 -3.564508E+04
       340  21 -1.037733E+06 -2.325876E+05 -2.272405E+05  9.111358E+04 -3.775965E+04 -1.162291E+04
       340  22 -1.160541E+05  6.870493E+01 -8.375461E+02  8.914937E+04 -9.998170E+02 -3.485886E+04
       340  23 -1.157779E+05 -2.147150E+02 -1.746208E+03  6.322083E+04 -1.932030E+03 -3.564514E+04
       340  24 -1.161165E+05 -3.477821E+03 -3.956185E+03  8.914811E+04 -2.849160E+03 -1.164013E+04
       340  25  5.368298E+05  1.588894E+05  1.405555E+05  8.958240E+04 -1.366028E+04 -3.485576E+04
       340  26  6.697896E+05  1.916546E+05  1.723019E+05  6.245503E+04  9.216470E+03 -3.564524E+04
       340  27  8.062798E+05  2.255703E+05  2.192715E+05  8.717975E+04  3.211306E+04 -1.165757E+04
