    1C
    1UUSER                                                              
    1UDATE              12.september.2022                               
    1UTIME              21:48:36                                        
    1UHOST                                                              
    1UPGM               CalculiX                                        
    1UVERSION           Version 2.19                             
    1UCOMPILETIME       Fri Dec 17 13:15:26 CET 2021                    
    1UDIR                                                               
    1UDBN                                                               
    1UMAT    1MESH_MATERIAL                                             
    2C                          1001                                     1
 -1         1 0.00000E+00 0.00000E+00 0.00000E+00
 -1         2 8.33333E-03 0.00000E+00 0.00000E+00
 -1         3 1.66667E-02 0.00000E+00 0.00000E+00
 -1         4 2.50000E-02 0.00000E+00 0.00000E+00
 -1         5 3.33333E-02 0.00000E+00 0.00000E+00
 -1         6 4.16667E-02 0.00000E+00 0.00000E+00
 -1         7 5.00000E-02 0.00000E+00 0.00000E+00
 -1         8 5.83333E-02 0.00000E+00 0.00000E+00
 -1         9 6.66667E-02 0.00000E+00 0.00000E+00
 -1        14 0.00000E+00 6.25000E-03 0.00000E+00
 -1        15 8.33333E-03 6.25000E-03 0.00000E+00
 -1        16 1.66667E-02 6.25000E-03 0.00000E+00
 -1        17 2.50000E-02 6.25000E-03 0.00000E+00
 -1        18 3.33333E-02 6.25000E-03 0.00000E+00
 -1        19 4.16667E-02 6.25000E-03 0.00000E+00
 -1        20 5.00000E-02 6.25000E-03 0.00000E+00
 -1        21 5.83333E-02 6.25000E-03 0.00000E+00
 -1        22 6.66667E-02 6.25000E-03 0.00000E+00
 -1        27 0.00000E+00 1.25000E-02 0.00000E+00
 -1        28 8.33333E-03 1.25000E-02 0.00000E+00
 -1        29 1.66667E-02 1.25000E-02 0.00000E+00
 -1        30 2.50000E-02 1.25000E-02 0.00000E+00
 -1        31 3.33333E-02 1.25000E-02 0.00000E+00
 -1        32 4.16667E-02 1.25000E-02 0.00000E+00
 -1        33 5.00000E-02 1.25000E-02 0.00000E+00
 -1        34 5.83333E-02 1.25000E-02 0.00000E+00
 -1        35 6.66667E-02 1.25000E-02 0.00000E+00
 -1        36 7.50000E-02 1.25000E-02 0.00000E+00
 -1        37 8.33333E-02 1.25000E-02 0.00000E+00
 -1        38 9.16667E-02 1.25000E-02 0.00000E+00
 -1        39 1.00000E-01 1.25000E-02 0.00000E+00
 -1        40 0.00000E+00 1.87500E-02 0.00000E+00
 -1        41 8.33333E-03 1.87500E-02 0.00000E+00
 -1        42 1.66667E-02 1.87500E-02 0.00000E+00
 -1        43 2.50000E-02 1.87500E-02 0.00000E+00
 -1        44 3.33333E-02 1.87500E-02 0.00000E+00
 -1        45 4.16667E-02 1.87500E-02 0.00000E+00
 -1        46 5.00000E-02 1.87500E-02 0.00000E+00
 -1        47 5.83333E-02 1.87500E-02 0.00000E+00
 -1        48 6.66667E-02 1.87500E-02 0.00000E+00
 -1        49 7.50000E-02 1.87500E-02 0.00000E+00
 -1        50 8.33333E-02 1.87500E-02 0.00000E+00
 -1        51 9.16667E-02 1.87500E-02 0.00000E+00
 -1        52 1.00000E-01 1.87500E-02 0.00000E+00
 -1        53 0.00000E+00 2.50000E-02 0.00000E+00
 -1        54 8.33333E-03 2.50000E-02 0.00000E+00
 -1        55 1.66667E-02 2.50000E-02 0.00000E+00
 -1        56 2.50000E-02 2.50000E-02 0.00000E+00
 -1        57 3.33333E-02 2.50000E-02 0.00000E+00
 -1        58 4.16667E-02 2.50000E-02 0.00000E+00
 -1        59 5.00000E-02 2.50000E-02 0.00000E+00
 -1        60 5.83333E-02 2.50000E-02 0.00000E+00
 -1        61 6.66667E-02 2.50000E-02 0.00000E+00
 -1        62 7.50000E-02 2.50000E-02 0.00000E+00
 -1        63 8.33333E-02 2.50000E-02 0.00000E+00
 -1        64 9.16667E-02 2.50000E-02 0.00000E+00
 -1        65 1.00000E-01 2.50000E-02 0.00000E+00
 -1        66 1.04167E-03 0.00000E+00 0.00000E+00
 -1        67 2.08333E-03 0.00000E+00 0.00000E+00
 -1        68 3.12500E-03 0.00000E+00 0.00000E+00
 -1        69 4.16667E-03 0.00000E+00 0.00000E+00
 -1        70 5.20833E-03 0.00000E+00 0.00000E+00
 -1        71 6.25000E-03 0.00000E+00 0.00000E+00
 -1        72 7.29167E-03 0.00000E+00 0.00000E+00
 -1        73 0.00000E+00 1.04167E-03 0.00000E+00
 -1        74 0.00000E+00 2.08333E-03 0.00000E+00
 -1        75 0.00000E+00 3.12500E-03 0.00000E+00
 -1        76 0.00000E+00 4.16667E-03 0.00000E+00
 -1        77 0.00000E+00 5.20833E-03 0.00000E+00
 -1        78 8.33330E-04 6.25000E-04 0.00000E+00
 -1        79 1.66667E-03 1.25000E-03 0.00000E+00
 -1        80 2.50000E-03 1.87500E-03 0.00000E+00
 -1        81 3.33333E-03 2.50000E-03 0.00000E+00
 -1        82 4.16667E-03 3.12500E-03 0.00000E+00
 -1        83 5.00000E-03 3.75000E-03 0.00000E+00
 -1        84 5.83333E-03 4.37500E-03 0.00000E+00
 -1        85 6.66667E-03 5.00000E-03 0.00000E+00
 -1        86 7.50000E-03 5.62500E-03 0.00000E+00
 -1        87 9.37500E-03 0.00000E+00 0.00000E+00
 -1        88 1.04167E-02 0.00000E+00 0.00000E+00
 -1        89 1.14583E-02 0.00000E+00 0.00000E+00
 -1        90 1.25000E-02 0.00000E+00 0.00000E+00
 -1        91 1.35417E-02 0.00000E+00 0.00000E+00
 -1        92 1.45833E-02 0.00000E+00 0.00000E+00
 -1        93 1.56250E-02 0.00000E+00 0.00000E+00
 -1        94 8.33333E-03 1.04167E-03 0.00000E+00
 -1        95 8.33333E-03 2.08333E-03 0.00000E+00
 -1        96 8.33333E-03 3.12500E-03 0.00000E+00
 -1        97 8.33333E-03 4.16667E-03 0.00000E+00
 -1        98 8.33333E-03 5.20833E-03 0.00000E+00
 -1        99 9.16667E-03 6.25000E-04 0.00000E+00
 -1       100 1.00000E-02 1.25000E-03 0.00000E+00
 -1       101 1.08333E-02 1.87500E-03 0.00000E+00
 -1       102 1.16667E-02 2.50000E-03 0.00000E+00
 -1       103 1.25000E-02 3.12500E-03 0.00000E+00
 -1       104 1.33333E-02 3.75000E-03 0.00000E+00
 -1       105 1.41667E-02 4.37500E-03 0.00000E+00
 -1       106 1.50000E-02 5.00000E-03 0.00000E+00
 -1       107 1.58333E-02 5.62500E-03 0.00000E+00
 -1       108 1.77083E-02 0.00000E+00 0.00000E+00
 -1       109 1.87500E-02 0.00000E+00 0.00000E+00
 -1       110 1.97917E-02 0.00000E+00 0.00000E+00
 -1       111 2.08333E-02 0.00000E+00 0.00000E+00
 -1       112 2.18750E-02 0.00000E+00 0.00000E+00
 -1       113 2.29167E-02 0.00000E+00 0.00000E+00
 -1       114 2.39583E-02 0.00000E+00 0.00000E+00
 -1       115 1.66667E-02 1.04167E-03 0.00000E+00
 -1       116 1.66667E-02 2.08333E-03 0.00000E+00
 -1       117 1.66667E-02 3.12500E-03 0.00000E+00
 -1       118 1.66667E-02 4.16667E-03 0.00000E+00
 -1       119 1.66667E-02 5.20833E-03 0.00000E+00
 -1       120 1.75000E-02 6.25000E-04 0.00000E+00
 -1       121 1.83333E-02 1.25000E-03 0.00000E+00
 -1       122 1.91667E-02 1.87500E-03 0.00000E+00
 -1       123 2.00000E-02 2.50000E-03 0.00000E+00
 -1       124 2.08333E-02 3.12500E-03 0.00000E+00
 -1       125 2.16667E-02 3.75000E-03 0.00000E+00
 -1       126 2.25000E-02 4.37500E-03 0.00000E+00
 -1       127 2.33333E-02 5.00000E-03 0.00000E+00
 -1       128 2.41667E-02 5.62500E-03 0.00000E+00
 -1       129 2.60417E-02 0.00000E+00 0.00000E+00
 -1       130 2.70833E-02 0.00000E+00 0.00000E+00
 -1       131 2.81250E-02 0.00000E+00 0.00000E+00
 -1       132 2.91667E-02 0.00000E+00 0.00000E+00
 -1       133 3.02083E-02 0.00000E+00 0.00000E+00
 -1       134 3.12500E-02 0.00000E+00 0.00000E+00
 -1       135 3.22917E-02 0.00000E+00 0.00000E+00
 -1       136 2.50000E-02 1.04167E-03 0.00000E+00
 -1       137 2.50000E-02 2.08333E-03 0.00000E+00
 -1       138 2.50000E-02 3.12500E-03 0.00000E+00
 -1       139 2.50000E-02 4.16667E-03 0.00000E+00
 -1       140 2.50000E-02 5.20833E-03 0.00000E+00
 -1       141 2.58333E-02 6.25000E-04 0.00000E+00
 -1       142 2.66667E-02 1.25000E-03 0.00000E+00
 -1       143 2.75000E-02 1.87500E-03 0.00000E+00
 -1       144 2.83333E-02 2.50000E-03 0.00000E+00
 -1       145 2.91667E-02 3.12500E-03 0.00000E+00
 -1       146 3.00000E-02 3.75000E-03 0.00000E+00
 -1       147 3.08333E-02 4.37500E-03 0.00000E+00
 -1       148 3.16667E-02 5.00000E-03 0.00000E+00
 -1       149 3.25000E-02 5.62500E-03 0.00000E+00
 -1       150 3.43750E-02 0.00000E+00 0.00000E+00
 -1       151 3.54167E-02 0.00000E+00 0.00000E+00
 -1       152 3.64583E-02 0.00000E+00 0.00000E+00
 -1       153 3.75000E-02 0.00000E+00 0.00000E+00
 -1       154 3.85417E-02 0.00000E+00 0.00000E+00
 -1       155 3.95833E-02 0.00000E+00 0.00000E+00
 -1       156 4.06250E-02 0.00000E+00 0.00000E+00
 -1       157 3.33333E-02 1.04167E-03 0.00000E+00
 -1       158 3.33333E-02 2.08333E-03 0.00000E+00
 -1       159 3.33333E-02 3.12500E-03 0.00000E+00
 -1       160 3.33333E-02 4.16667E-03 0.00000E+00
 -1       161 3.33333E-02 5.20833E-03 0.00000E+00
 -1       162 3.41667E-02 6.25000E-04 0.00000E+00
 -1       163 3.50000E-02 1.25000E-03 0.00000E+00
 -1       164 3.58333E-02 1.87500E-03 0.00000E+00
 -1       165 3.66667E-02 2.50000E-03 0.00000E+00
 -1       166 3.75000E-02 3.12500E-03 0.00000E+00
 -1       167 3.83333E-02 3.75000E-03 0.00000E+00
 -1       168 3.91667E-02 4.37500E-03 0.00000E+00
 -1       169 4.00000E-02 5.00000E-03 0.00000E+00
 -1       170 4.08333E-02 5.62500E-03 0.00000E+00
 -1       171 4.27083E-02 0.00000E+00 0.00000E+00
 -1       172 4.37500E-02 0.00000E+00 0.00000E+00
 -1       173 4.47917E-02 0.00000E+00 0.00000E+00
 -1       174 4.58333E-02 0.00000E+00 0.00000E+00
 -1       175 4.68750E-02 0.00000E+00 0.00000E+00
 -1       176 4.79167E-02 0.00000E+00 0.00000E+00
 -1       177 4.89583E-02 0.00000E+00 0.00000E+00
 -1       178 4.16667E-02 1.04167E-03 0.00000E+00
 -1       179 4.16667E-02 2.08333E-03 0.00000E+00
 -1       180 4.16667E-02 3.12500E-03 0.00000E+00
 -1       181 4.16667E-02 4.16667E-03 0.00000E+00
 -1       182 4.16667E-02 5.20833E-03 0.00000E+00
 -1       183 4.25000E-02 6.25000E-04 0.00000E+00
 -1       184 4.33333E-02 1.25000E-03 0.00000E+00
 -1       185 4.41667E-02 1.87500E-03 0.00000E+00
 -1       186 4.50000E-02 2.50000E-03 0.00000E+00
 -1       187 4.58333E-02 3.12500E-03 0.00000E+00
 -1       188 4.66667E-02 3.75000E-03 0.00000E+00
 -1       189 4.75000E-02 4.37500E-03 0.00000E+00
 -1       190 4.83333E-02 5.00000E-03 0.00000E+00
 -1       191 4.91667E-02 5.62500E-03 0.00000E+00
 -1       192 5.10417E-02 0.00000E+00 0.00000E+00
 -1       193 5.20833E-02 0.00000E+00 0.00000E+00
 -1       194 5.31250E-02 0.00000E+00 0.00000E+00
 -1       195 5.41667E-02 0.00000E+00 0.00000E+00
 -1       196 5.52083E-02 0.00000E+00 0.00000E+00
 -1       197 5.62500E-02 0.00000E+00 0.00000E+00
 -1       198 5.72917E-02 0.00000E+00 0.00000E+00
 -1       199 5.00000E-02 1.04167E-03 0.00000E+00
 -1       200 5.00000E-02 2.08333E-03 0.00000E+00
 -1       201 5.00000E-02 3.12500E-03 0.00000E+00
 -1       202 5.00000E-02 4.16667E-03 0.00000E+00
 -1       203 5.00000E-02 5.20833E-03 0.00000E+00
 -1       204 5.08333E-02 6.25000E-04 0.00000E+00
 -1       205 5.16667E-02 1.25000E-03 0.00000E+00
 -1       206 5.25000E-02 1.87500E-03 0.00000E+00
 -1       207 5.33333E-02 2.50000E-03 0.00000E+00
 -1       208 5.41667E-02 3.12500E-03 0.00000E+00
 -1       209 5.50000E-02 3.75000E-03 0.00000E+00
 -1       210 5.58333E-02 4.37500E-03 0.00000E+00
 -1       211 5.66667E-02 5.00000E-03 0.00000E+00
 -1       212 5.75000E-02 5.62500E-03 0.00000E+00
 -1       213 5.93750E-02 0.00000E+00 0.00000E+00
 -1       214 6.04167E-02 0.00000E+00 0.00000E+00
 -1       215 6.14583E-02 0.00000E+00 0.00000E+00
 -1       216 6.25000E-02 0.00000E+00 0.00000E+00
 -1       217 6.35417E-02 0.00000E+00 0.00000E+00
 -1       218 6.45833E-02 0.00000E+00 0.00000E+00
 -1       219 6.56250E-02 0.00000E+00 0.00000E+00
 -1       220 5.83333E-02 1.04167E-03 0.00000E+00
 -1       221 5.83333E-02 2.08333E-03 0.00000E+00
 -1       222 5.83333E-02 3.12500E-03 0.00000E+00
 -1       223 5.83333E-02 4.16667E-03 0.00000E+00
 -1       224 5.83333E-02 5.20833E-03 0.00000E+00
 -1       225 5.91667E-02 6.25000E-04 0.00000E+00
 -1       226 6.00000E-02 1.25000E-03 0.00000E+00
 -1       227 6.08333E-02 1.87500E-03 0.00000E+00
 -1       228 6.16667E-02 2.50000E-03 0.00000E+00
 -1       229 6.25000E-02 3.12500E-03 0.00000E+00
 -1       230 6.33333E-02 3.75000E-03 0.00000E+00
 -1       231 6.41667E-02 4.37500E-03 0.00000E+00
 -1       232 6.50000E-02 5.00000E-03 0.00000E+00
 -1       233 6.58333E-02 5.62500E-03 0.00000E+00
 -1       241 6.66667E-02 1.04167E-03 0.00000E+00
 -1       242 6.66667E-02 2.08333E-03 0.00000E+00
 -1       243 6.66667E-02 3.12500E-03 0.00000E+00
 -1       244 6.66667E-02 4.16667E-03 0.00000E+00
 -1       245 6.66667E-02 5.20833E-03 0.00000E+00
 -1       323 1.04167E-03 6.25000E-03 0.00000E+00
 -1       324 2.08333E-03 6.25000E-03 0.00000E+00
 -1       325 3.12500E-03 6.25000E-03 0.00000E+00
 -1       326 4.16667E-03 6.25000E-03 0.00000E+00
 -1       327 5.20833E-03 6.25000E-03 0.00000E+00
 -1       328 6.25000E-03 6.25000E-03 0.00000E+00
 -1       329 7.29167E-03 6.25000E-03 0.00000E+00
 -1       330 0.00000E+00 7.29167E-03 0.00000E+00
 -1       331 0.00000E+00 8.33333E-03 0.00000E+00
 -1       332 0.00000E+00 9.37500E-03 0.00000E+00
 -1       333 0.00000E+00 1.04167E-02 0.00000E+00
 -1       334 0.00000E+00 1.14583E-02 0.00000E+00
 -1       335 8.33330E-04 6.87500E-03 0.00000E+00
 -1       336 1.66667E-03 7.50000E-03 0.00000E+00
 -1       337 2.50000E-03 8.12500E-03 0.00000E+00
 -1       338 3.33333E-03 8.75000E-03 0.00000E+00
 -1       339 4.16667E-03 9.37500E-03 0.00000E+00
 -1       340 5.00000E-03 1.00000E-02 0.00000E+00
 -1       341 5.83333E-03 1.06250E-02 0.00000E+00
 -1       342 6.66667E-03 1.12500E-02 0.00000E+00
 -1       343 7.50000E-03 1.18750E-02 0.00000E+00
 -1       344 9.37500E-03 6.25000E-03 0.00000E+00
 -1       345 1.04167E-02 6.25000E-03 0.00000E+00
 -1       346 1.14583E-02 6.25000E-03 0.00000E+00
 -1       347 1.25000E-02 6.25000E-03 0.00000E+00
 -1       348 1.35417E-02 6.25000E-03 0.00000E+00
 -1       349 1.45833E-02 6.25000E-03 0.00000E+00
 -1       350 1.56250E-02 6.25000E-03 0.00000E+00
 -1       351 8.33333E-03 7.29167E-03 0.00000E+00
 -1       352 8.33333E-03 8.33333E-03 0.00000E+00
 -1       353 8.33333E-03 9.37500E-03 0.00000E+00
 -1       354 8.33333E-03 1.04167E-02 0.00000E+00
 -1       355 8.33333E-03 1.14583E-02 0.00000E+00
 -1       356 9.16667E-03 6.87500E-03 0.00000E+00
 -1       357 1.00000E-02 7.50000E-03 0.00000E+00
 -1       358 1.08333E-02 8.12500E-03 0.00000E+00
 -1       359 1.16667E-02 8.75000E-03 0.00000E+00
 -1       360 1.25000E-02 9.37500E-03 0.00000E+00
 -1       361 1.33333E-02 1.00000E-02 0.00000E+00
 -1       362 1.41667E-02 1.06250E-02 0.00000E+00
 -1       363 1.50000E-02 1.12500E-02 0.00000E+00
 -1       364 1.58333E-02 1.18750E-02 0.00000E+00
 -1       365 1.77083E-02 6.25000E-03 0.00000E+00
 -1       366 1.87500E-02 6.25000E-03 0.00000E+00
 -1       367 1.97917E-02 6.25000E-03 0.00000E+00
 -1       368 2.08333E-02 6.25000E-03 0.00000E+00
 -1       369 2.18750E-02 6.25000E-03 0.00000E+00
 -1       370 2.29167E-02 6.25000E-03 0.00000E+00
 -1       371 2.39583E-02 6.25000E-03 0.00000E+00
 -1       372 1.66667E-02 7.29167E-03 0.00000E+00
 -1       373 1.66667E-02 8.33333E-03 0.00000E+00
 -1       374 1.66667E-02 9.37500E-03 0.00000E+00
 -1       375 1.66667E-02 1.04167E-02 0.00000E+00
 -1       376 1.66667E-02 1.14583E-02 0.00000E+00
 -1       377 1.75000E-02 6.87500E-03 0.00000E+00
 -1       378 1.83333E-02 7.50000E-03 0.00000E+00
 -1       379 1.91667E-02 8.12500E-03 0.00000E+00
 -1       380 2.00000E-02 8.75000E-03 0.00000E+00
 -1       381 2.08333E-02 9.37500E-03 0.00000E+00
 -1       382 2.16667E-02 1.00000E-02 0.00000E+00
 -1       383 2.25000E-02 1.06250E-02 0.00000E+00
 -1       384 2.33333E-02 1.12500E-02 0.00000E+00
 -1       385 2.41667E-02 1.18750E-02 0.00000E+00
 -1       386 2.60417E-02 6.25000E-03 0.00000E+00
 -1       387 2.70833E-02 6.25000E-03 0.00000E+00
 -1       388 2.81250E-02 6.25000E-03 0.00000E+00
 -1       389 2.91667E-02 6.25000E-03 0.00000E+00
 -1       390 3.02083E-02 6.25000E-03 0.00000E+00
 -1       391 3.12500E-02 6.25000E-03 0.00000E+00
 -1       392 3.22917E-02 6.25000E-03 0.00000E+00
 -1       393 2.50000E-02 7.29167E-03 0.00000E+00
 -1       394 2.50000E-02 8.33333E-03 0.00000E+00
 -1       395 2.50000E-02 9.37500E-03 0.00000E+00
 -1       396 2.50000E-02 1.04167E-02 0.00000E+00
 -1       397 2.50000E-02 1.14583E-02 0.00000E+00
 -1       398 2.58333E-02 6.87500E-03 0.00000E+00
 -1       399 2.66667E-02 7.50000E-03 0.00000E+00
 -1       400 2.75000E-02 8.12500E-03 0.00000E+00
 -1       401 2.83333E-02 8.75000E-03 0.00000E+00
 -1       402 2.91667E-02 9.37500E-03 0.00000E+00
 -1       403 3.00000E-02 1.00000E-02 0.00000E+00
 -1       404 3.08333E-02 1.06250E-02 0.00000E+00
 -1       405 3.16667E-02 1.12500E-02 0.00000E+00
 -1       406 3.25000E-02 1.18750E-02 0.00000E+00
 -1       407 3.43750E-02 6.25000E-03 0.00000E+00
 -1       408 3.54167E-02 6.25000E-03 0.00000E+00
 -1       409 3.64583E-02 6.25000E-03 0.00000E+00
 -1       410 3.75000E-02 6.25000E-03 0.00000E+00
 -1       411 3.85417E-02 6.25000E-03 0.00000E+00
 -1       412 3.95833E-02 6.25000E-03 0.00000E+00
 -1       413 4.06250E-02 6.25000E-03 0.00000E+00
 -1       414 3.33333E-02 7.29167E-03 0.00000E+00
 -1       415 3.33333E-02 8.33333E-03 0.00000E+00
 -1       416 3.33333E-02 9.37500E-03 0.00000E+00
 -1       417 3.33333E-02 1.04167E-02 0.00000E+00
 -1       418 3.33333E-02 1.14583E-02 0.00000E+00
 -1       419 3.41667E-02 6.87500E-03 0.00000E+00
 -1       420 3.50000E-02 7.50000E-03 0.00000E+00
 -1       421 3.58333E-02 8.12500E-03 0.00000E+00
 -1       422 3.66667E-02 8.75000E-03 0.00000E+00
 -1       423 3.75000E-02 9.37500E-03 0.00000E+00
 -1       424 3.83333E-02 1.00000E-02 0.00000E+00
 -1       425 3.91667E-02 1.06250E-02 0.00000E+00
 -1       426 4.00000E-02 1.12500E-02 0.00000E+00
 -1       427 4.08333E-02 1.18750E-02 0.00000E+00
 -1       428 4.27083E-02 6.25000E-03 0.00000E+00
 -1       429 4.37500E-02 6.25000E-03 0.00000E+00
 -1       430 4.47917E-02 6.25000E-03 0.00000E+00
 -1       431 4.58333E-02 6.25000E-03 0.00000E+00
 -1       432 4.68750E-02 6.25000E-03 0.00000E+00
 -1       433 4.79167E-02 6.25000E-03 0.00000E+00
 -1       434 4.89583E-02 6.25000E-03 0.00000E+00
 -1       435 4.16667E-02 7.29167E-03 0.00000E+00
 -1       436 4.16667E-02 8.33333E-03 0.00000E+00
 -1       437 4.16667E-02 9.37500E-03 0.00000E+00
 -1       438 4.16667E-02 1.04167E-02 0.00000E+00
 -1       439 4.16667E-02 1.14583E-02 0.00000E+00
 -1       440 4.25000E-02 6.87500E-03 0.00000E+00
 -1       441 4.33333E-02 7.50000E-03 0.00000E+00
 -1       442 4.41667E-02 8.12500E-03 0.00000E+00
 -1       443 4.50000E-02 8.75000E-03 0.00000E+00
 -1       444 4.58333E-02 9.37500E-03 0.00000E+00
 -1       445 4.66667E-02 1.00000E-02 0.00000E+00
 -1       446 4.75000E-02 1.06250E-02 0.00000E+00
 -1       447 4.83333E-02 1.12500E-02 0.00000E+00
 -1       448 4.91667E-02 1.18750E-02 0.00000E+00
 -1       449 5.10417E-02 6.25000E-03 0.00000E+00
 -1       450 5.20833E-02 6.25000E-03 0.00000E+00
 -1       451 5.31250E-02 6.25000E-03 0.00000E+00
 -1       452 5.41667E-02 6.25000E-03 0.00000E+00
 -1       453 5.52083E-02 6.25000E-03 0.00000E+00
 -1       454 5.62500E-02 6.25000E-03 0.00000E+00
 -1       455 5.72917E-02 6.25000E-03 0.00000E+00
 -1       456 5.00000E-02 7.29167E-03 0.00000E+00
 -1       457 5.00000E-02 8.33333E-03 0.00000E+00
 -1       458 5.00000E-02 9.37500E-03 0.00000E+00
 -1       459 5.00000E-02 1.04167E-02 0.00000E+00
 -1       460 5.00000E-02 1.14583E-02 0.00000E+00
 -1       461 5.08333E-02 6.87500E-03 0.00000E+00
 -1       462 5.16667E-02 7.50000E-03 0.00000E+00
 -1       463 5.25000E-02 8.12500E-03 0.00000E+00
 -1       464 5.33333E-02 8.75000E-03 0.00000E+00
 -1       465 5.41667E-02 9.37500E-03 0.00000E+00
 -1       466 5.50000E-02 1.00000E-02 0.00000E+00
 -1       467 5.58333E-02 1.06250E-02 0.00000E+00
 -1       468 5.66667E-02 1.12500E-02 0.00000E+00
 -1       469 5.75000E-02 1.18750E-02 0.00000E+00
 -1       470 5.93750E-02 6.25000E-03 0.00000E+00
 -1       471 6.04167E-02 6.25000E-03 0.00000E+00
 -1       472 6.14583E-02 6.25000E-03 0.00000E+00
 -1       473 6.25000E-02 6.25000E-03 0.00000E+00
 -1       474 6.35417E-02 6.25000E-03 0.00000E+00
 -1       475 6.45833E-02 6.25000E-03 0.00000E+00
 -1       476 6.56250E-02 6.25000E-03 0.00000E+00
 -1       477 5.83333E-02 7.29167E-03 0.00000E+00
 -1       478 5.83333E-02 8.33333E-03 0.00000E+00
 -1       479 5.83333E-02 9.37500E-03 0.00000E+00
 -1       480 5.83333E-02 1.04167E-02 0.00000E+00
 -1       481 5.83333E-02 1.14583E-02 0.00000E+00
 -1       482 5.91667E-02 6.87500E-03 0.00000E+00
 -1       483 6.00000E-02 7.50000E-03 0.00000E+00
 -1       484 6.08333E-02 8.12500E-03 0.00000E+00
 -1       485 6.16667E-02 8.75000E-03 0.00000E+00
 -1       486 6.25000E-02 9.37500E-03 0.00000E+00
 -1       487 6.33333E-02 1.00000E-02 0.00000E+00
 -1       488 6.41667E-02 1.06250E-02 0.00000E+00
 -1       489 6.50000E-02 1.12500E-02 0.00000E+00
 -1       490 6.58333E-02 1.18750E-02 0.00000E+00
 -1       498 6.66667E-02 7.29167E-03 0.00000E+00
 -1       499 6.66667E-02 8.33333E-03 0.00000E+00
 -1       500 6.66667E-02 9.37500E-03 0.00000E+00
 -1       501 6.66667E-02 1.04167E-02 0.00000E+00
 -1       502 6.66667E-02 1.14583E-02 0.00000E+00
 -1       580 1.04167E-03 1.25000E-02 0.00000E+00
 -1       581 2.08333E-03 1.25000E-02 0.00000E+00
 -1       582 3.12500E-03 1.25000E-02 0.00000E+00
 -1       583 4.16667E-03 1.25000E-02 0.00000E+00
 -1       584 5.20833E-03 1.25000E-02 0.00000E+00
 -1       585 6.25000E-03 1.25000E-02 0.00000E+00
 -1       586 7.29167E-03 1.25000E-02 0.00000E+00
 -1       587 0.00000E+00 1.35417E-02 0.00000E+00
 -1       588 0.00000E+00 1.45833E-02 0.00000E+00
 -1       589 0.00000E+00 1.56250E-02 0.00000E+00
 -1       590 0.00000E+00 1.66667E-02 0.00000E+00
 -1       591 0.00000E+00 1.77083E-02 0.00000E+00
 -1       592 8.33330E-04 1.31250E-02 0.00000E+00
 -1       593 1.66667E-03 1.37500E-02 0.00000E+00
 -1       594 2.50000E-03 1.43750E-02 0.00000E+00
 -1       595 3.33333E-03 1.50000E-02 0.00000E+00
 -1       596 4.16667E-03 1.56250E-02 0.00000E+00
 -1       597 5.00000E-03 1.62500E-02 0.00000E+00
 -1       598 5.83333E-03 1.68750E-02 0.00000E+00
 -1       599 6.66667E-03 1.75000E-02 0.00000E+00
 -1       600 7.50000E-03 1.81250E-02 0.00000E+00
 -1       601 9.37500E-03 1.25000E-02 0.00000E+00
 -1       602 1.04167E-02 1.25000E-02 0.00000E+00
 -1       603 1.14583E-02 1.25000E-02 0.00000E+00
 -1       604 1.25000E-02 1.25000E-02 0.00000E+00
 -1       605 1.35417E-02 1.25000E-02 0.00000E+00
 -1       606 1.45833E-02 1.25000E-02 0.00000E+00
 -1       607 1.56250E-02 1.25000E-02 0.00000E+00
 -1       608 8.33333E-03 1.35417E-02 0.00000E+00
 -1       609 8.33333E-03 1.45833E-02 0.00000E+00
 -1       610 8.33333E-03 1.56250E-02 0.00000E+00
 -1       611 8.33333E-03 1.66667E-02 0.00000E+00
 -1       612 8.33333E-03 1.77083E-02 0.00000E+00
 -1       613 9.16667E-03 1.31250E-02 0.00000E+00
 -1       614 1.00000E-02 1.37500E-02 0.00000E+00
 -1       615 1.08333E-02 1.43750E-02 0.00000E+00
 -1       616 1.16667E-02 1.50000E-02 0.00000E+00
 -1       617 1.25000E-02 1.56250E-02 0.00000E+00
 -1       618 1.33333E-02 1.62500E-02 0.00000E+00
 -1       619 1.41667E-02 1.68750E-02 0.00000E+00
 -1       620 1.50000E-02 1.75000E-02 0.00000E+00
 -1       621 1.58333E-02 1.81250E-02 0.00000E+00
 -1       622 1.77083E-02 1.25000E-02 0.00000E+00
 -1       623 1.87500E-02 1.25000E-02 0.00000E+00
 -1       624 1.97917E-02 1.25000E-02 0.00000E+00
 -1       625 2.08333E-02 1.25000E-02 0.00000E+00
 -1       626 2.18750E-02 1.25000E-02 0.00000E+00
 -1       627 2.29167E-02 1.25000E-02 0.00000E+00
 -1       628 2.39583E-02 1.25000E-02 0.00000E+00
 -1       629 1.66667E-02 1.35417E-02 0.00000E+00
 -1       630 1.66667E-02 1.45833E-02 0.00000E+00
 -1       631 1.66667E-02 1.56250E-02 0.00000E+00
 -1       632 1.66667E-02 1.66667E-02 0.00000E+00
 -1       633 1.66667E-02 1.77083E-02 0.00000E+00
 -1       634 1.75000E-02 1.31250E-02 0.00000E+00
 -1       635 1.83333E-02 1.37500E-02 0.00000E+00
 -1       636 1.91667E-02 1.43750E-02 0.00000E+00
 -1       637 2.00000E-02 1.50000E-02 0.00000E+00
 -1       638 2.08333E-02 1.56250E-02 0.00000E+00
 -1       639 2.16667E-02 1.62500E-02 0.00000E+00
 -1       640 2.25000E-02 1.68750E-02 0.00000E+00
 -1       641 2.33333E-02 1.75000E-02 0.00000E+00
 -1       642 2.41667E-02 1.81250E-02 0.00000E+00
 -1       643 2.60417E-02 1.25000E-02 0.00000E+00
 -1       644 2.70833E-02 1.25000E-02 0.00000E+00
 -1       645 2.81250E-02 1.25000E-02 0.00000E+00
 -1       646 2.91667E-02 1.25000E-02 0.00000E+00
 -1       647 3.02083E-02 1.25000E-02 0.00000E+00
 -1       648 3.12500E-02 1.25000E-02 0.00000E+00
 -1       649 3.22917E-02 1.25000E-02 0.00000E+00
 -1       650 2.50000E-02 1.35417E-02 0.00000E+00
 -1       651 2.50000E-02 1.45833E-02 0.00000E+00
 -1       652 2.50000E-02 1.56250E-02 0.00000E+00
 -1       653 2.50000E-02 1.66667E-02 0.00000E+00
 -1       654 2.50000E-02 1.77083E-02 0.00000E+00
 -1       655 2.58333E-02 1.31250E-02 0.00000E+00
 -1       656 2.66667E-02 1.37500E-02 0.00000E+00
 -1       657 2.75000E-02 1.43750E-02 0.00000E+00
 -1       658 2.83333E-02 1.50000E-02 0.00000E+00
 -1       659 2.91667E-02 1.56250E-02 0.00000E+00
 -1       660 3.00000E-02 1.62500E-02 0.00000E+00
 -1       661 3.08333E-02 1.68750E-02 0.00000E+00
 -1       662 3.16667E-02 1.75000E-02 0.00000E+00
 -1       663 3.25000E-02 1.81250E-02 0.00000E+00
 -1       664 3.43750E-02 1.25000E-02 0.00000E+00
 -1       665 3.54167E-02 1.25000E-02 0.00000E+00
 -1       666 3.64583E-02 1.25000E-02 0.00000E+00
 -1       667 3.75000E-02 1.25000E-02 0.00000E+00
 -1       668 3.85417E-02 1.25000E-02 0.00000E+00
 -1       669 3.95833E-02 1.25000E-02 0.00000E+00
 -1       670 4.06250E-02 1.25000E-02 0.00000E+00
 -1       671 3.33333E-02 1.35417E-02 0.00000E+00
 -1       672 3.33333E-02 1.45833E-02 0.00000E+00
 -1       673 3.33333E-02 1.56250E-02 0.00000E+00
 -1       674 3.33333E-02 1.66667E-02 0.00000E+00
 -1       675 3.33333E-02 1.77083E-02 0.00000E+00
 -1       676 3.41667E-02 1.31250E-02 0.00000E+00
 -1       677 3.50000E-02 1.37500E-02 0.00000E+00
 -1       678 3.58333E-02 1.43750E-02 0.00000E+00
 -1       679 3.66667E-02 1.50000E-02 0.00000E+00
 -1       680 3.75000E-02 1.56250E-02 0.00000E+00
 -1       681 3.83333E-02 1.62500E-02 0.00000E+00
 -1       682 3.91667E-02 1.68750E-02 0.00000E+00
 -1       683 4.00000E-02 1.75000E-02 0.00000E+00
 -1       684 4.08333E-02 1.81250E-02 0.00000E+00
 -1       685 4.27083E-02 1.25000E-02 0.00000E+00
 -1       686 4.37500E-02 1.25000E-02 0.00000E+00
 -1       687 4.47917E-02 1.25000E-02 0.00000E+00
 -1       688 4.58333E-02 1.25000E-02 0.00000E+00
 -1       689 4.68750E-02 1.25000E-02 0.00000E+00
 -1       690 4.79167E-02 1.25000E-02 0.00000E+00
 -1       691 4.89583E-02 1.25000E-02 0.00000E+00
 -1       692 4.16667E-02 1.35417E-02 0.00000E+00
 -1       693 4.16667E-02 1.45833E-02 0.00000E+00
 -1       694 4.16667E-02 1.56250E-02 0.00000E+00
 -1       695 4.16667E-02 1.66667E-02 0.00000E+00
 -1       696 4.16667E-02 1.77083E-02 0.00000E+00
 -1       697 4.25000E-02 1.31250E-02 0.00000E+00
 -1       698 4.33333E-02 1.37500E-02 0.00000E+00
 -1       699 4.41667E-02 1.43750E-02 0.00000E+00
 -1       700 4.50000E-02 1.50000E-02 0.00000E+00
 -1       701 4.58333E-02 1.56250E-02 0.00000E+00
 -1       702 4.66667E-02 1.62500E-02 0.00000E+00
 -1       703 4.75000E-02 1.68750E-02 0.00000E+00
 -1       704 4.83333E-02 1.75000E-02 0.00000E+00
 -1       705 4.91667E-02 1.81250E-02 0.00000E+00
 -1       706 5.10417E-02 1.25000E-02 0.00000E+00
 -1       707 5.20833E-02 1.25000E-02 0.00000E+00
 -1       708 5.31250E-02 1.25000E-02 0.00000E+00
 -1       709 5.41667E-02 1.25000E-02 0.00000E+00
 -1       710 5.52083E-02 1.25000E-02 0.00000E+00
 -1       711 5.62500E-02 1.25000E-02 0.00000E+00
 -1       712 5.72917E-02 1.25000E-02 0.00000E+00
 -1       713 5.00000E-02 1.35417E-02 0.00000E+00
 -1       714 5.00000E-02 1.45833E-02 0.00000E+00
 -1       715 5.00000E-02 1.56250E-02 0.00000E+00
 -1       716 5.00000E-02 1.66667E-02 0.00000E+00
 -1       717 5.00000E-02 1.77083E-02 0.00000E+00
 -1       718 5.08333E-02 1.31250E-02 0.00000E+00
 -1       719 5.16667E-02 1.37500E-02 0.00000E+00
 -1       720 5.25000E-02 1.43750E-02 0.00000E+00
 -1       721 5.33333E-02 1.50000E-02 0.00000E+00
 -1       722 5.41667E-02 1.56250E-02 0.00000E+00
 -1       723 5.50000E-02 1.62500E-02 0.00000E+00
 -1       724 5.58333E-02 1.68750E-02 0.00000E+00
 -1       725 5.66667E-02 1.75000E-02 0.00000E+00
 -1       726 5.75000E-02 1.81250E-02 0.00000E+00
 -1       727 5.93750E-02 1.25000E-02 0.00000E+00
 -1       728 6.04167E-02 1.25000E-02 0.00000E+00
 -1       729 6.14583E-02 1.25000E-02 0.00000E+00
 -1       730 6.25000E-02 1.25000E-02 0.00000E+00
 -1       731 6.35417E-02 1.25000E-02 0.00000E+00
 -1       732 6.45833E-02 1.25000E-02 0.00000E+00
 -1       733 6.56250E-02 1.25000E-02 0.00000E+00
 -1       734 5.83333E-02 1.35417E-02 0.00000E+00
 -1       735 5.83333E-02 1.45833E-02 0.00000E+00
 -1       736 5.83333E-02 1.56250E-02 0.00000E+00
 -1       737 5.83333E-02 1.66667E-02 0.00000E+00
 -1       738 5.83333E-02 1.77083E-02 0.00000E+00
 -1       739 5.91667E-02 1.31250E-02 0.00000E+00
 -1       740 6.00000E-02 1.37500E-02 0.00000E+00
 -1       741 6.08333E-02 1.43750E-02 0.00000E+00
 -1       742 6.16667E-02 1.50000E-02 0.00000E+00
 -1       743 6.25000E-02 1.56250E-02 0.00000E+00
 -1       744 6.33333E-02 1.62500E-02 0.00000E+00
 -1       745 6.41667E-02 1.68750E-02 0.00000E+00
 -1       746 6.50000E-02 1.75000E-02 0.00000E+00
 -1       747 6.58333E-02 1.81250E-02 0.00000E+00
 -1       748 6.77083E-02 1.25000E-02 0.00000E+00
 -1       749 6.87500E-02 1.25000E-02 0.00000E+00
 -1       750 6.97917E-02 1.25000E-02 0.00000E+00
 -1       751 7.08333E-02 1.25000E-02 0.00000E+00
 -1       752 7.18750E-02 1.25000E-02 0.00000E+00
 -1       753 7.29167E-02 1.25000E-02 0.00000E+00
 -1       754 7.39583E-02 1.25000E-02 0.00000E+00
 -1       755 6.66667E-02 1.35417E-02 0.00000E+00
 -1       756 6.66667E-02 1.45833E-02 0.00000E+00
 -1       757 6.66667E-02 1.56250E-02 0.00000E+00
 -1       758 6.66667E-02 1.66667E-02 0.00000E+00
 -1       759 6.66667E-02 1.77083E-02 0.00000E+00
 -1       760 6.75000E-02 1.31250E-02 0.00000E+00
 -1       761 6.83333E-02 1.37500E-02 0.00000E+00
 -1       762 6.91667E-02 1.43750E-02 0.00000E+00
 -1       763 7.00000E-02 1.50000E-02 0.00000E+00
 -1       764 7.08333E-02 1.56250E-02 0.00000E+00
 -1       765 7.16667E-02 1.62500E-02 0.00000E+00
 -1       766 7.25000E-02 1.68750E-02 0.00000E+00
 -1       767 7.33333E-02 1.75000E-02 0.00000E+00
 -1       768 7.41667E-02 1.81250E-02 0.00000E+00
 -1       769 7.60417E-02 1.25000E-02 0.00000E+00
 -1       770 7.70833E-02 1.25000E-02 0.00000E+00
 -1       771 7.81250E-02 1.25000E-02 0.00000E+00
 -1       772 7.91667E-02 1.25000E-02 0.00000E+00
 -1       773 8.02083E-02 1.25000E-02 0.00000E+00
 -1       774 8.12500E-02 1.25000E-02 0.00000E+00
 -1       775 8.22917E-02 1.25000E-02 0.00000E+00
 -1       776 7.50000E-02 1.35417E-02 0.00000E+00
 -1       777 7.50000E-02 1.45833E-02 0.00000E+00
 -1       778 7.50000E-02 1.56250E-02 0.00000E+00
 -1       779 7.50000E-02 1.66667E-02 0.00000E+00
 -1       780 7.50000E-02 1.77083E-02 0.00000E+00
 -1       781 7.58333E-02 1.31250E-02 0.00000E+00
 -1       782 7.66667E-02 1.37500E-02 0.00000E+00
 -1       783 7.75000E-02 1.43750E-02 0.00000E+00
 -1       784 7.83333E-02 1.50000E-02 0.00000E+00
 -1       785 7.91667E-02 1.56250E-02 0.00000E+00
 -1       786 8.00000E-02 1.62500E-02 0.00000E+00
 -1       787 8.08333E-02 1.68750E-02 0.00000E+00
 -1       788 8.16667E-02 1.75000E-02 0.00000E+00
 -1       789 8.25000E-02 1.81250E-02 0.00000E+00
 -1       790 8.43750E-02 1.25000E-02 0.00000E+00
 -1       791 8.54167E-02 1.25000E-02 0.00000E+00
 -1       792 8.64583E-02 1.25000E-02 0.00000E+00
 -1       793 8.75000E-02 1.25000E-02 0.00000E+00
 -1       794 8.85417E-02 1.25000E-02 0.00000E+00
 -1       795 8.95833E-02 1.25000E-02 0.00000E+00
 -1       796 9.06250E-02 1.25000E-02 0.00000E+00
 -1       797 8.33333E-02 1.35417E-02 0.00000E+00
 -1       798 8.33333E-02 1.45833E-02 0.00000E+00
 -1       799 8.33333E-02 1.56250E-02 0.00000E+00
 -1       800 8.33333E-02 1.66667E-02 0.00000E+00
 -1       801 8.33333E-02 1.77083E-02 0.00000E+00
 -1       802 8.41667E-02 1.31250E-02 0.00000E+00
 -1       803 8.50000E-02 1.37500E-02 0.00000E+00
 -1       804 8.58333E-02 1.43750E-02 0.00000E+00
 -1       805 8.66667E-02 1.50000E-02 0.00000E+00
 -1       806 8.75000E-02 1.56250E-02 0.00000E+00
 -1       807 8.83333E-02 1.62500E-02 0.00000E+00
 -1       808 8.91667E-02 1.68750E-02 0.00000E+00
 -1       809 9.00000E-02 1.75000E-02 0.00000E+00
 -1       810 9.08333E-02 1.81250E-02 0.00000E+00
 -1       811 9.27083E-02 1.25000E-02 0.00000E+00
 -1       812 9.37500E-02 1.25000E-02 0.00000E+00
 -1       813 9.47917E-02 1.25000E-02 0.00000E+00
 -1       814 9.58333E-02 1.25000E-02 0.00000E+00
 -1       815 9.68750E-02 1.25000E-02 0.00000E+00
 -1       816 9.79167E-02 1.25000E-02 0.00000E+00
 -1       817 9.89583E-02 1.25000E-02 0.00000E+00
 -1       818 9.16667E-02 1.35417E-02 0.00000E+00
 -1       819 9.16667E-02 1.45833E-02 0.00000E+00
 -1       820 9.16667E-02 1.56250E-02 0.00000E+00
 -1       821 9.16667E-02 1.66667E-02 0.00000E+00
 -1       822 9.16667E-02 1.77083E-02 0.00000E+00
 -1       823 9.25000E-02 1.31250E-02 0.00000E+00
 -1       824 9.33333E-02 1.37500E-02 0.00000E+00
 -1       825 9.41667E-02 1.43750E-02 0.00000E+00
 -1       826 9.50000E-02 1.50000E-02 0.00000E+00
 -1       827 9.58333E-02 1.56250E-02 0.00000E+00
 -1       828 9.66667E-02 1.62500E-02 0.00000E+00
 -1       829 9.75000E-02 1.68750E-02 0.00000E+00
 -1       830 9.83333E-02 1.75000E-02 0.00000E+00
 -1       831 9.91667E-02 1.81250E-02 0.00000E+00
 -1       832 1.00000E-01 1.35417E-02 0.00000E+00
 -1       833 1.00000E-01 1.45833E-02 0.00000E+00
 -1       834 1.00000E-01 1.56250E-02 0.00000E+00
 -1       835 1.00000E-01 1.66667E-02 0.00000E+00
 -1       836 1.00000E-01 1.77083E-02 0.00000E+00
 -1       837 1.04167E-03 1.87500E-02 0.00000E+00
 -1       838 2.08333E-03 1.87500E-02 0.00000E+00
 -1       839 3.12500E-03 1.87500E-02 0.00000E+00
 -1       840 4.16667E-03 1.87500E-02 0.00000E+00
 -1       841 5.20833E-03 1.87500E-02 0.00000E+00
 -1       842 6.25000E-03 1.87500E-02 0.00000E+00
 -1       843 7.29167E-03 1.87500E-02 0.00000E+00
 -1       844 0.00000E+00 1.97917E-02 0.00000E+00
 -1       845 0.00000E+00 2.08333E-02 0.00000E+00
 -1       846 0.00000E+00 2.18750E-02 0.00000E+00
 -1       847 0.00000E+00 2.29167E-02 0.00000E+00
 -1       848 0.00000E+00 2.39583E-02 0.00000E+00
 -1       849 8.33330E-04 1.93750E-02 0.00000E+00
 -1       850 1.66667E-03 2.00000E-02 0.00000E+00
 -1       851 2.50000E-03 2.06250E-02 0.00000E+00
 -1       852 3.33333E-03 2.12500E-02 0.00000E+00
 -1       853 4.16667E-03 2.18750E-02 0.00000E+00
 -1       854 5.00000E-03 2.25000E-02 0.00000E+00
 -1       855 5.83333E-03 2.31250E-02 0.00000E+00
 -1       856 6.66667E-03 2.37500E-02 0.00000E+00
 -1       857 7.50000E-03 2.43750E-02 0.00000E+00
 -1       858 9.37500E-03 1.87500E-02 0.00000E+00
 -1       859 1.04167E-02 1.87500E-02 0.00000E+00
 -1       860 1.14583E-02 1.87500E-02 0.00000E+00
 -1       861 1.25000E-02 1.87500E-02 0.00000E+00
 -1       862 1.35417E-02 1.87500E-02 0.00000E+00
 -1       863 1.45833E-02 1.87500E-02 0.00000E+00
 -1       864 1.56250E-02 1.87500E-02 0.00000E+00
 -1       865 8.33333E-03 1.97917E-02 0.00000E+00
 -1       866 8.33333E-03 2.08333E-02 0.00000E+00
 -1       867 8.33333E-03 2.18750E-02 0.00000E+00
 -1       868 8.33333E-03 2.29167E-02 0.00000E+00
 -1       869 8.33333E-03 2.39583E-02 0.00000E+00
 -1       870 9.16667E-03 1.93750E-02 0.00000E+00
 -1       871 1.00000E-02 2.00000E-02 0.00000E+00
 -1       872 1.08333E-02 2.06250E-02 0.00000E+00
 -1       873 1.16667E-02 2.12500E-02 0.00000E+00
 -1       874 1.25000E-02 2.18750E-02 0.00000E+00
 -1       875 1.33333E-02 2.25000E-02 0.00000E+00
 -1       876 1.41667E-02 2.31250E-02 0.00000E+00
 -1       877 1.50000E-02 2.37500E-02 0.00000E+00
 -1       878 1.58333E-02 2.43750E-02 0.00000E+00
 -1       879 1.77083E-02 1.87500E-02 0.00000E+00
 -1       880 1.87500E-02 1.87500E-02 0.00000E+00
 -1       881 1.97917E-02 1.87500E-02 0.00000E+00
 -1       882 2.08333E-02 1.87500E-02 0.00000E+00
 -1       883 2.18750E-02 1.87500E-02 0.00000E+00
 -1       884 2.29167E-02 1.87500E-02 0.00000E+00
 -1       885 2.39583E-02 1.87500E-02 0.00000E+00
 -1       886 1.66667E-02 1.97917E-02 0.00000E+00
 -1       887 1.66667E-02 2.08333E-02 0.00000E+00
 -1       888 1.66667E-02 2.18750E-02 0.00000E+00
 -1       889 1.66667E-02 2.29167E-02 0.00000E+00
 -1       890 1.66667E-02 2.39583E-02 0.00000E+00
 -1       891 1.75000E-02 1.93750E-02 0.00000E+00
 -1       892 1.83333E-02 2.00000E-02 0.00000E+00
 -1       893 1.91667E-02 2.06250E-02 0.00000E+00
 -1       894 2.00000E-02 2.12500E-02 0.00000E+00
 -1       895 2.08333E-02 2.18750E-02 0.00000E+00
 -1       896 2.16667E-02 2.25000E-02 0.00000E+00
 -1       897 2.25000E-02 2.31250E-02 0.00000E+00
 -1       898 2.33333E-02 2.37500E-02 0.00000E+00
 -1       899 2.41667E-02 2.43750E-02 0.00000E+00
 -1       900 2.60417E-02 1.87500E-02 0.00000E+00
 -1       901 2.70833E-02 1.87500E-02 0.00000E+00
 -1       902 2.81250E-02 1.87500E-02 0.00000E+00
 -1       903 2.91667E-02 1.87500E-02 0.00000E+00
 -1       904 3.02083E-02 1.87500E-02 0.00000E+00
 -1       905 3.12500E-02 1.87500E-02 0.00000E+00
 -1       906 3.22917E-02 1.87500E-02 0.00000E+00
 -1       907 2.50000E-02 1.97917E-02 0.00000E+00
 -1       908 2.50000E-02 2.08333E-02 0.00000E+00
 -1       909 2.50000E-02 2.18750E-02 0.00000E+00
 -1       910 2.50000E-02 2.29167E-02 0.00000E+00
 -1       911 2.50000E-02 2.39583E-02 0.00000E+00
 -1       912 2.58333E-02 1.93750E-02 0.00000E+00
 -1       913 2.66667E-02 2.00000E-02 0.00000E+00
 -1       914 2.75000E-02 2.06250E-02 0.00000E+00
 -1       915 2.83333E-02 2.12500E-02 0.00000E+00
 -1       916 2.91667E-02 2.18750E-02 0.00000E+00
 -1       917 3.00000E-02 2.25000E-02 0.00000E+00
 -1       918 3.08333E-02 2.31250E-02 0.00000E+00
 -1       919 3.16667E-02 2.37500E-02 0.00000E+00
 -1       920 3.25000E-02 2.43750E-02 0.00000E+00
 -1       921 3.43750E-02 1.87500E-02 0.00000E+00
 -1       922 3.54167E-02 1.87500E-02 0.00000E+00
 -1       923 3.64583E-02 1.87500E-02 0.00000E+00
 -1       924 3.75000E-02 1.87500E-02 0.00000E+00
 -1       925 3.85417E-02 1.87500E-02 0.00000E+00
 -1       926 3.95833E-02 1.87500E-02 0.00000E+00
 -1       927 4.06250E-02 1.87500E-02 0.00000E+00
 -1       928 3.33333E-02 1.97917E-02 0.00000E+00
 -1       929 3.33333E-02 2.08333E-02 0.00000E+00
 -1       930 3.33333E-02 2.18750E-02 0.00000E+00
 -1       931 3.33333E-02 2.29167E-02 0.00000E+00
 -1       932 3.33333E-02 2.39583E-02 0.00000E+00
 -1       933 3.41667E-02 1.93750E-02 0.00000E+00
 -1       934 3.50000E-02 2.00000E-02 0.00000E+00
 -1       935 3.58333E-02 2.06250E-02 0.00000E+00
 -1       936 3.66667E-02 2.12500E-02 0.00000E+00
 -1       937 3.75000E-02 2.18750E-02 0.00000E+00
 -1       938 3.83333E-02 2.25000E-02 0.00000E+00
 -1       939 3.91667E-02 2.31250E-02 0.00000E+00
 -1       940 4.00000E-02 2.37500E-02 0.00000E+00
 -1       941 4.08333E-02 2.43750E-02 0.00000E+00
 -1       942 4.27083E-02 1.87500E-02 0.00000E+00
 -1       943 4.37500E-02 1.87500E-02 0.00000E+00
 -1       944 4.47917E-02 1.87500E-02 0.00000E+00
 -1       945 4.58333E-02 1.87500E-02 0.00000E+00
 -1       946 4.68750E-02 1.87500E-02 0.00000E+00
 -1       947 4.79167E-02 1.87500E-02 0.00000E+00
 -1       948 4.89583E-02 1.87500E-02 0.00000E+00
 -1       949 4.16667E-02 1.97917E-02 0.00000E+00
 -1       950 4.16667E-02 2.08333E-02 0.00000E+00
 -1       951 4.16667E-02 2.18750E-02 0.00000E+00
 -1       952 4.16667E-02 2.29167E-02 0.00000E+00
 -1       953 4.16667E-02 2.39583E-02 0.00000E+00
 -1       954 4.25000E-02 1.93750E-02 0.00000E+00
 -1       955 4.33333E-02 2.00000E-02 0.00000E+00
 -1       956 4.41667E-02 2.06250E-02 0.00000E+00
 -1       957 4.50000E-02 2.12500E-02 0.00000E+00
 -1       958 4.58333E-02 2.18750E-02 0.00000E+00
 -1       959 4.66667E-02 2.25000E-02 0.00000E+00
 -1       960 4.75000E-02 2.31250E-02 0.00000E+00
 -1       961 4.83333E-02 2.37500E-02 0.00000E+00
 -1       962 4.91667E-02 2.43750E-02 0.00000E+00
 -1       963 5.10417E-02 1.87500E-02 0.00000E+00
 -1       964 5.20833E-02 1.87500E-02 0.00000E+00
 -1       965 5.31250E-02 1.87500E-02 0.00000E+00
 -1       966 5.41667E-02 1.87500E-02 0.00000E+00
 -1       967 5.52083E-02 1.87500E-02 0.00000E+00
 -1       968 5.62500E-02 1.87500E-02 0.00000E+00
 -1       969 5.72917E-02 1.87500E-02 0.00000E+00
 -1       970 5.00000E-02 1.97917E-02 0.00000E+00
 -1       971 5.00000E-02 2.08333E-02 0.00000E+00
 -1       972 5.00000E-02 2.18750E-02 0.00000E+00
 -1       973 5.00000E-02 2.29167E-02 0.00000E+00
 -1       974 5.00000E-02 2.39583E-02 0.00000E+00
 -1       975 5.08333E-02 1.93750E-02 0.00000E+00
 -1       976 5.16667E-02 2.00000E-02 0.00000E+00
 -1       977 5.25000E-02 2.06250E-02 0.00000E+00
 -1       978 5.33333E-02 2.12500E-02 0.00000E+00
 -1       979 5.41667E-02 2.18750E-02 0.00000E+00
 -1       980 5.50000E-02 2.25000E-02 0.00000E+00
 -1       981 5.58333E-02 2.31250E-02 0.00000E+00
 -1       982 5.66667E-02 2.37500E-02 0.00000E+00
 -1       983 5.75000E-02 2.43750E-02 0.00000E+00
 -1       984 5.93750E-02 1.87500E-02 0.00000E+00
 -1       985 6.04167E-02 1.87500E-02 0.00000E+00
 -1       986 6.14583E-02 1.87500E-02 0.00000E+00
 -1       987 6.25000E-02 1.87500E-02 0.00000E+00
 -1       988 6.35417E-02 1.87500E-02 0.00000E+00
 -1       989 6.45833E-02 1.87500E-02 0.00000E+00
 -1       990 6.56250E-02 1.87500E-02 0.00000E+00
 -1       991 5.83333E-02 1.97917E-02 0.00000E+00
 -1       992 5.83333E-02 2.08333E-02 0.00000E+00
 -1       993 5.83333E-02 2.18750E-02 0.00000E+00
 -1       994 5.83333E-02 2.29167E-02 0.00000E+00
 -1       995 5.83333E-02 2.39583E-02 0.00000E+00
 -1       996 5.91667E-02 1.93750E-02 0.00000E+00
 -1       997 6.00000E-02 2.00000E-02 0.00000E+00
 -1       998 6.08333E-02 2.06250E-02 0.00000E+00
 -1       999 6.16667E-02 2.12500E-02 0.00000E+00
 -1      1000 6.25000E-02 2.18750E-02 0.00000E+00
 -1      1001 6.33333E-02 2.25000E-02 0.00000E+00
 -1      1002 6.41667E-02 2.31250E-02 0.00000E+00
 -1      1003 6.50000E-02 2.37500E-02 0.00000E+00
 -1      1004 6.58333E-02 2.43750E-02 0.00000E+00
 -1      1005 6.77083E-02 1.87500E-02 0.00000E+00
 -1      1006 6.87500E-02 1.87500E-02 0.00000E+00
 -1      1007 6.97917E-02 1.87500E-02 0.00000E+00
 -1      1008 7.08333E-02 1.87500E-02 0.00000E+00
 -1      1009 7.18750E-02 1.87500E-02 0.00000E+00
 -1      1010 7.29167E-02 1.87500E-02 0.00000E+00
 -1      1011 7.39583E-02 1.87500E-02 0.00000E+00
 -1      1012 6.66667E-02 1.97917E-02 0.00000E+00
 -1      1013 6.66667E-02 2.08333E-02 0.00000E+00
 -1      1014 6.66667E-02 2.18750E-02 0.00000E+00
 -1      1015 6.66667E-02 2.29167E-02 0.00000E+00
 -1      1016 6.66667E-02 2.39583E-02 0.00000E+00
 -1      1017 6.75000E-02 1.93750E-02 0.00000E+00
 -1      1018 6.83333E-02 2.00000E-02 0.00000E+00
 -1      1019 6.91667E-02 2.06250E-02 0.00000E+00
 -1      1020 7.00000E-02 2.12500E-02 0.00000E+00
 -1      1021 7.08333E-02 2.18750E-02 0.00000E+00
 -1      1022 7.16667E-02 2.25000E-02 0.00000E+00
 -1      1023 7.25000E-02 2.31250E-02 0.00000E+00
 -1      1024 7.33333E-02 2.37500E-02 0.00000E+00
 -1      1025 7.41667E-02 2.43750E-02 0.00000E+00
 -1      1026 7.60417E-02 1.87500E-02 0.00000E+00
 -1      1027 7.70833E-02 1.87500E-02 0.00000E+00
 -1      1028 7.81250E-02 1.87500E-02 0.00000E+00
 -1      1029 7.91667E-02 1.87500E-02 0.00000E+00
 -1      1030 8.02083E-02 1.87500E-02 0.00000E+00
 -1      1031 8.12500E-02 1.87500E-02 0.00000E+00
 -1      1032 8.22917E-02 1.87500E-02 0.00000E+00
 -1      1033 7.50000E-02 1.97917E-02 0.00000E+00
 -1      1034 7.50000E-02 2.08333E-02 0.00000E+00
 -1      1035 7.50000E-02 2.18750E-02 0.00000E+00
 -1      1036 7.50000E-02 2.29167E-02 0.00000E+00
 -1      1037 7.50000E-02 2.39583E-02 0.00000E+00
 -1      1038 7.58333E-02 1.93750E-02 0.00000E+00
 -1      1039 7.66667E-02 2.00000E-02 0.00000E+00
 -1      1040 7.75000E-02 2.06250E-02 0.00000E+00
 -1      1041 7.83333E-02 2.12500E-02 0.00000E+00
 -1      1042 7.91667E-02 2.18750E-02 0.00000E+00
 -1      1043 8.00000E-02 2.25000E-02 0.00000E+00
 -1      1044 8.08333E-02 2.31250E-02 0.00000E+00
 -1      1045 8.16667E-02 2.37500E-02 0.00000E+00
 -1      1046 8.25000E-02 2.43750E-02 0.00000E+00
 -1      1047 8.43750E-02 1.87500E-02 0.00000E+00
 -1      1048 8.54167E-02 1.87500E-02 0.00000E+00
 -1      1049 8.64583E-02 1.87500E-02 0.00000E+00
 -1      1050 8.75000E-02 1.87500E-02 0.00000E+00
 -1      1051 8.85417E-02 1.87500E-02 0.00000E+00
 -1      1052 8.95833E-02 1.87500E-02 0.00000E+00
 -1      1053 9.06250E-02 1.87500E-02 0.00000E+00
 -1      1054 8.33333E-02 1.97917E-02 0.00000E+00
 -1      1055 8.33333E-02 2.08333E-02 0.00000E+00
 -1      1056 8.33333E-02 2.18750E-02 0.00000E+00
 -1      1057 8.33333E-02 2.29167E-02 0.00000E+00
 -1      1058 8.33333E-02 2.39583E-02 0.00000E+00
 -1      1059 8.41667E-02 1.93750E-02 0.00000E+00
 -1      1060 8.50000E-02 2.00000E-02 0.00000E+00
 -1      1061 8.58333E-02 2.06250E-02 0.00000E+00
 -1      1062 8.66667E-02 2.12500E-02 0.00000E+00
 -1      1063 8.75000E-02 2.18750E-02 0.00000E+00
 -1      1064 8.83333E-02 2.25000E-02 0.00000E+00
 -1      1065 8.91667E-02 2.31250E-02 0.00000E+00
 -1      1066 9.00000E-02 2.37500E-02 0.00000E+00
 -1      1067 9.08333E-02 2.43750E-02 0.00000E+00
 -1      1068 9.27083E-02 1.87500E-02 0.00000E+00
 -1      1069 9.37500E-02 1.87500E-02 0.00000E+00
 -1      1070 9.47917E-02 1.87500E-02 0.00000E+00
 -1      1071 9.58333E-02 1.87500E-02 0.00000E+00
 -1      1072 9.68750E-02 1.87500E-02 0.00000E+00
 -1      1073 9.79167E-02 1.87500E-02 0.00000E+00
 -1      1074 9.89583E-02 1.87500E-02 0.00000E+00
 -1      1075 9.16667E-02 1.97917E-02 0.00000E+00
 -1      1076 9.16667E-02 2.08333E-02 0.00000E+00
 -1      1077 9.16667E-02 2.18750E-02 0.00000E+00
 -1      1078 9.16667E-02 2.29167E-02 0.00000E+00
 -1      1079 9.16667E-02 2.39583E-02 0.00000E+00
 -1      1080 9.25000E-02 1.93750E-02 0.00000E+00
 -1      1081 9.33333E-02 2.00000E-02 0.00000E+00
 -1      1082 9.41667E-02 2.06250E-02 0.00000E+00
 -1      1083 9.50000E-02 2.12500E-02 0.00000E+00
 -1      1084 9.58333E-02 2.18750E-02 0.00000E+00
 -1      1085 9.66667E-02 2.25000E-02 0.00000E+00
 -1      1086 9.75000E-02 2.31250E-02 0.00000E+00
 -1      1087 9.83333E-02 2.37500E-02 0.00000E+00
 -1      1088 9.91667E-02 2.43750E-02 0.00000E+00
 -1      1089 1.00000E-01 1.97917E-02 0.00000E+00
 -1      1090 1.00000E-01 2.08333E-02 0.00000E+00
 -1      1091 1.00000E-01 2.18750E-02 0.00000E+00
 -1      1092 1.00000E-01 2.29167E-02 0.00000E+00
 -1      1093 1.00000E-01 2.39583E-02 0.00000E+00
 -1      1094 1.04167E-03 2.50000E-02 0.00000E+00
 -1      1095 2.08333E-03 2.50000E-02 0.00000E+00
 -1      1096 3.12500E-03 2.50000E-02 0.00000E+00
 -1      1097 4.16667E-03 2.50000E-02 0.00000E+00
 -1      1098 5.20833E-03 2.50000E-02 0.00000E+00
 -1      1099 6.25000E-03 2.50000E-02 0.00000E+00
 -1      1100 7.29167E-03 2.50000E-02 0.00000E+00
 -1      1101 9.37500E-03 2.50000E-02 0.00000E+00
 -1      1102 1.04167E-02 2.50000E-02 0.00000E+00
 -1      1103 1.14583E-02 2.50000E-02 0.00000E+00
 -1      1104 1.25000E-02 2.50000E-02 0.00000E+00
 -1      1105 1.35417E-02 2.50000E-02 0.00000E+00
 -1      1106 1.45833E-02 2.50000E-02 0.00000E+00
 -1      1107 1.56250E-02 2.50000E-02 0.00000E+00
 -1      1108 1.77083E-02 2.50000E-02 0.00000E+00
 -1      1109 1.87500E-02 2.50000E-02 0.00000E+00
 -1      1110 1.97917E-02 2.50000E-02 0.00000E+00
 -1      1111 2.08333E-02 2.50000E-02 0.00000E+00
 -1      1112 2.18750E-02 2.50000E-02 0.00000E+00
 -1      1113 2.29167E-02 2.50000E-02 0.00000E+00
 -1      1114 2.39583E-02 2.50000E-02 0.00000E+00
 -1      1115 2.60417E-02 2.50000E-02 0.00000E+00
 -1      1116 2.70833E-02 2.50000E-02 0.00000E+00
 -1      1117 2.81250E-02 2.50000E-02 0.00000E+00
 -1      1118 2.91667E-02 2.50000E-02 0.00000E+00
 -1      1119 3.02083E-02 2.50000E-02 0.00000E+00
 -1      1120 3.12500E-02 2.50000E-02 0.00000E+00
 -1      1121 3.22917E-02 2.50000E-02 0.00000E+00
 -1      1122 3.43750E-02 2.50000E-02 0.00000E+00
 -1      1123 3.54167E-02 2.50000E-02 0.00000E+00
 -1      1124 3.64583E-02 2.50000E-02 0.00000E+00
 -1      1125 3.75000E-02 2.50000E-02 0.00000E+00
 -1      1126 3.85417E-02 2.50000E-02 0.00000E+00
 -1      1127 3.95833E-02 2.50000E-02 0.00000E+00
 -1      1128 4.06250E-02 2.50000E-02 0.00000E+00
 -1      1129 4.27083E-02 2.50000E-02 0.00000E+00
 -1      1130 4.37500E-02 2.50000E-02 0.00000E+00
 -1      1131 4.47917E-02 2.50000E-02 0.00000E+00
 -1      1132 4.58333E-02 2.50000E-02 0.00000E+00
 -1      1133 4.68750E-02 2.50000E-02 0.00000E+00
 -1      1134 4.79167E-02 2.50000E-02 0.00000E+00
 -1      1135 4.89583E-02 2.50000E-02 0.00000E+00
 -1      1136 5.10417E-02 2.50000E-02 0.00000E+00
 -1      1137 5.20833E-02 2.50000E-02 0.00000E+00
 -1      1138 5.31250E-02 2.50000E-02 0.00000E+00
 -1      1139 5.41667E-02 2.50000E-02 0.00000E+00
 -1      1140 5.52083E-02 2.50000E-02 0.00000E+00
 -1      1141 5.62500E-02 2.50000E-02 0.00000E+00
 -1      1142 5.72917E-02 2.50000E-02 0.00000E+00
 -1      1143 5.93750E-02 2.50000E-02 0.00000E+00
 -1      1144 6.04167E-02 2.50000E-02 0.00000E+00
 -1      1145 6.14583E-02 2.50000E-02 0.00000E+00
 -1      1146 6.25000E-02 2.50000E-02 0.00000E+00
 -1      1147 6.35417E-02 2.50000E-02 0.00000E+00
 -1      1148 6.45833E-02 2.50000E-02 0.00000E+00
 -1      1149 6.56250E-02 2.50000E-02 0.00000E+00
 -1      1150 6.77083E-02 2.50000E-02 0.00000E+00
 -1      1151 6.87500E-02 2.50000E-02 0.00000E+00
 -1      1152 6.97917E-02 2.50000E-02 0.00000E+00
 -1      1153 7.08333E-02 2.50000E-02 0.00000E+00
 -1      1154 7.18750E-02 2.50000E-02 0.00000E+00
 -1      1155 7.29167E-02 2.50000E-02 0.00000E+00
 -1      1156 7.39583E-02 2.50000E-02 0.00000E+00
 -1      1157 7.60417E-02 2.50000E-02 0.00000E+00
 -1      1158 7.70833E-02 2.50000E-02 0.00000E+00
 -1      1159 7.81250E-02 2.50000E-02 0.00000E+00
 -1      1160 7.91667E-02 2.50000E-02 0.00000E+00
 -1      1161 8.02083E-02 2.50000E-02 0.00000E+00
 -1      1162 8.12500E-02 2.50000E-02 0.00000E+00
 -1      1163 8.22917E-02 2.50000E-02 0.00000E+00
 -1      1164 8.43750E-02 2.50000E-02 0.00000E+00
 -1      1165 8.54167E-02 2.50000E-02 0.00000E+00
 -1      1166 8.64583E-02 2.50000E-02 0.00000E+00
 -1      1167 8.75000E-02 2.50000E-02 0.00000E+00
 -1      1168 8.85417E-02 2.50000E-02 0.00000E+00
 -1      1169 8.95833E-02 2.50000E-02 0.00000E+00
 -1      1170 9.06250E-02 2.50000E-02 0.00000E+00
 -1      1171 9.27083E-02 2.50000E-02 0.00000E+00
 -1      1172 9.37500E-02 2.50000E-02 0.00000E+00
 -1      1173 9.47917E-02 2.50000E-02 0.00000E+00
 -1      1174 9.58333E-02 2.50000E-02 0.00000E+00
 -1      1175 9.68750E-02 2.50000E-02 0.00000E+00
 -1      1176 9.79167E-02 2.50000E-02 0.00000E+00
 -1      1177 9.89583E-02 2.50000E-02 0.00000E+00
 -3
    3C                           540                                     1
 -1         1   12    0    1
 -2         1        67        66
 -1         2   12    0    1
 -2        67        69        68
 -1         3   12    0    1
 -2        69        71        70
 -1         4   12    0    1
 -2        71         2        72
 -1         5   12    0    1
 -2         1        74        73
 -1         6   12    0    1
 -2        74        76        75
 -1         7   12    0    1
 -2        76        14        77
 -1         8   12    0    1
 -2         1        79        78
 -1         9   12    0    1
 -2        79        81        80
 -1        10   12    0    1
 -2        81        83        82
 -1        11   12    0    1
 -2        83        85        84
 -1        12   12    0    1
 -2        85        15        86
 -1        13   12    0    1
 -2         2        88        87
 -1        14   12    0    1
 -2        88        90        89
 -1        15   12    0    1
 -2        90        92        91
 -1        16   12    0    1
 -2        92         3        93
 -1        17   12    0    1
 -2         2        95        94
 -1        18   12    0    1
 -2        95        97        96
 -1        19   12    0    1
 -2        97        15        98
 -1        20   12    0    1
 -2         2       100        99
 -1        21   12    0    1
 -2       100       102       101
 -1        22   12    0    1
 -2       102       104       103
 -1        23   12    0    1
 -2       104       106       105
 -1        24   12    0    1
 -2       106        16       107
 -1        25   12    0    1
 -2         3       109       108
 -1        26   12    0    1
 -2       109       111       110
 -1        27   12    0    1
 -2       111       113       112
 -1        28   12    0    1
 -2       113         4       114
 -1        29   12    0    1
 -2         3       116       115
 -1        30   12    0    1
 -2       116       118       117
 -1        31   12    0    1
 -2       118        16       119
 -1        32   12    0    1
 -2         3       121       120
 -1        33   12    0    1
 -2       121       123       122
 -1        34   12    0    1
 -2       123       125       124
 -1        35   12    0    1
 -2       125       127       126
 -1        36   12    0    1
 -2       127        17       128
 -1        37   12    0    1
 -2         4       130       129
 -1        38   12    0    1
 -2       130       132       131
 -1        39   12    0    1
 -2       132       134       133
 -1        40   12    0    1
 -2       134         5       135
 -1        41   12    0    1
 -2         4       137       136
 -1        42   12    0    1
 -2       137       139       138
 -1        43   12    0    1
 -2       139        17       140
 -1        44   12    0    1
 -2         4       142       141
 -1        45   12    0    1
 -2       142       144       143
 -1        46   12    0    1
 -2       144       146       145
 -1        47   12    0    1
 -2       146       148       147
 -1        48   12    0    1
 -2       148        18       149
 -1        49   12    0    1
 -2         5       151       150
 -1        50   12    0    1
 -2       151       153       152
 -1        51   12    0    1
 -2       153       155       154
 -1        52   12    0    1
 -2       155         6       156
 -1        53   12    0    1
 -2         5       158       157
 -1        54   12    0    1
 -2       158       160       159
 -1        55   12    0    1
 -2       160        18       161
 -1        56   12    0    1
 -2         5       163       162
 -1        57   12    0    1
 -2       163       165       164
 -1        58   12    0    1
 -2       165       167       166
 -1        59   12    0    1
 -2       167       169       168
 -1        60   12    0    1
 -2       169        19       170
 -1        61   12    0    1
 -2         6       172       171
 -1        62   12    0    1
 -2       172       174       173
 -1        63   12    0    1
 -2       174       176       175
 -1        64   12    0    1
 -2       176         7       177
 -1        65   12    0    1
 -2         6       179       178
 -1        66   12    0    1
 -2       179       181       180
 -1        67   12    0    1
 -2       181        19       182
 -1        68   12    0    1
 -2         6       184       183
 -1        69   12    0    1
 -2       184       186       185
 -1        70   12    0    1
 -2       186       188       187
 -1        71   12    0    1
 -2       188       190       189
 -1        72   12    0    1
 -2       190        20       191
 -1        73   12    0    1
 -2         7       193       192
 -1        74   12    0    1
 -2       193       195       194
 -1        75   12    0    1
 -2       195       197       196
 -1        76   12    0    1
 -2       197         8       198
 -1        77   12    0    1
 -2         7       200       199
 -1        78   12    0    1
 -2       200       202       201
 -1        79   12    0    1
 -2       202        20       203
 -1        80   12    0    1
 -2         7       205       204
 -1        81   12    0    1
 -2       205       207       206
 -1        82   12    0    1
 -2       207       209       208
 -1        83   12    0    1
 -2       209       211       210
 -1        84   12    0    1
 -2       211        21       212
 -1        85   12    0    1
 -2         8       214       213
 -1        86   12    0    1
 -2       214       216       215
 -1        87   12    0    1
 -2       216       218       217
 -1        88   12    0    1
 -2       218         9       219
 -1        89   12    0    1
 -2         8       221       220
 -1        90   12    0    1
 -2       221       223       222
 -1        91   12    0    1
 -2       223        21       224
 -1        92   12    0    1
 -2         8       226       225
 -1        93   12    0    1
 -2       226       228       227
 -1        94   12    0    1
 -2       228       230       229
 -1        95   12    0    1
 -2       230       232       231
 -1        96   12    0    1
 -2       232        22       233
 -1        97   12    0    1
 -2         9       242       241
 -1        98   12    0    1
 -2       242       244       243
 -1        99   12    0    1
 -2       244        22       245
 -1       100   12    0    1
 -2        14       324       323
 -1       101   12    0    1
 -2       324       326       325
 -1       102   12    0    1
 -2       326       328       327
 -1       103   12    0    1
 -2       328        15       329
 -1       104   12    0    1
 -2        14       331       330
 -1       105   12    0    1
 -2       331       333       332
 -1       106   12    0    1
 -2       333        27       334
 -1       107   12    0    1
 -2        14       336       335
 -1       108   12    0    1
 -2       336       338       337
 -1       109   12    0    1
 -2       338       340       339
 -1       110   12    0    1
 -2       340       342       341
 -1       111   12    0    1
 -2       342        28       343
 -1       112   12    0    1
 -2        15       345       344
 -1       113   12    0    1
 -2       345       347       346
 -1       114   12    0    1
 -2       347       349       348
 -1       115   12    0    1
 -2       349        16       350
 -1       116   12    0    1
 -2        15       352       351
 -1       117   12    0    1
 -2       352       354       353
 -1       118   12    0    1
 -2       354        28       355
 -1       119   12    0    1
 -2        15       357       356
 -1       120   12    0    1
 -2       357       359       358
 -1       121   12    0    1
 -2       359       361       360
 -1       122   12    0    1
 -2       361       363       362
 -1       123   12    0    1
 -2       363        29       364
 -1       124   12    0    1
 -2        16       366       365
 -1       125   12    0    1
 -2       366       368       367
 -1       126   12    0    1
 -2       368       370       369
 -1       127   12    0    1
 -2       370        17       371
 -1       128   12    0    1
 -2        16       373       372
 -1       129   12    0    1
 -2       373       375       374
 -1       130   12    0    1
 -2       375        29       376
 -1       131   12    0    1
 -2        16       378       377
 -1       132   12    0    1
 -2       378       380       379
 -1       133   12    0    1
 -2       380       382       381
 -1       134   12    0    1
 -2       382       384       383
 -1       135   12    0    1
 -2       384        30       385
 -1       136   12    0    1
 -2        17       387       386
 -1       137   12    0    1
 -2       387       389       388
 -1       138   12    0    1
 -2       389       391       390
 -1       139   12    0    1
 -2       391        18       392
 -1       140   12    0    1
 -2        17       394       393
 -1       141   12    0    1
 -2       394       396       395
 -1       142   12    0    1
 -2       396        30       397
 -1       143   12    0    1
 -2        17       399       398
 -1       144   12    0    1
 -2       399       401       400
 -1       145   12    0    1
 -2       401       403       402
 -1       146   12    0    1
 -2       403       405       404
 -1       147   12    0    1
 -2       405        31       406
 -1       148   12    0    1
 -2        18       408       407
 -1       149   12    0    1
 -2       408       410       409
 -1       150   12    0    1
 -2       410       412       411
 -1       151   12    0    1
 -2       412        19       413
 -1       152   12    0    1
 -2        18       415       414
 -1       153   12    0    1
 -2       415       417       416
 -1       154   12    0    1
 -2       417        31       418
 -1       155   12    0    1
 -2        18       420       419
 -1       156   12    0    1
 -2       420       422       421
 -1       157   12    0    1
 -2       422       424       423
 -1       158   12    0    1
 -2       424       426       425
 -1       159   12    0    1
 -2       426        32       427
 -1       160   12    0    1
 -2        19       429       428
 -1       161   12    0    1
 -2       429       431       430
 -1       162   12    0    1
 -2       431       433       432
 -1       163   12    0    1
 -2       433        20       434
 -1       164   12    0    1
 -2        19       436       435
 -1       165   12    0    1
 -2       436       438       437
 -1       166   12    0    1
 -2       438        32       439
 -1       167   12    0    1
 -2        19       441       440
 -1       168   12    0    1
 -2       441       443       442
 -1       169   12    0    1
 -2       443       445       444
 -1       170   12    0    1
 -2       445       447       446
 -1       171   12    0    1
 -2       447        33       448
 -1       172   12    0    1
 -2        20       450       449
 -1       173   12    0    1
 -2       450       452       451
 -1       174   12    0    1
 -2       452       454       453
 -1       175   12    0    1
 -2       454        21       455
 -1       176   12    0    1
 -2        20       457       456
 -1       177   12    0    1
 -2       457       459       458
 -1       178   12    0    1
 -2       459        33       460
 -1       179   12    0    1
 -2        20       462       461
 -1       180   12    0    1
 -2       462       464       463
 -1       181   12    0    1
 -2       464       466       465
 -1       182   12    0    1
 -2       466       468       467
 -1       183   12    0    1
 -2       468        34       469
 -1       184   12    0    1
 -2        21       471       470
 -1       185   12    0    1
 -2       471       473       472
 -1       186   12    0    1
 -2       473       475       474
 -1       187   12    0    1
 -2       475        22       476
 -1       188   12    0    1
 -2        21       478       477
 -1       189   12    0    1
 -2       478       480       479
 -1       190   12    0    1
 -2       480        34       481
 -1       191   12    0    1
 -2        21       483       482
 -1       192   12    0    1
 -2       483       485       484
 -1       193   12    0    1
 -2       485       487       486
 -1       194   12    0    1
 -2       487       489       488
 -1       195   12    0    1
 -2       489        35       490
 -1       196   12    0    1
 -2        22       499       498
 -1       197   12    0    1
 -2       499       501       500
 -1       198   12    0    1
 -2       501        35       502
 -1       199   12    0    1
 -2        27       581       580
 -1       200   12    0    1
 -2       581       583       582
 -1       201   12    0    1
 -2       583       585       584
 -1       202   12    0    1
 -2       585        28       586
 -1       203   12    0    1
 -2        27       588       587
 -1       204   12    0    1
 -2       588       590       589
 -1       205   12    0    1
 -2       590        40       591
 -1       206   12    0    1
 -2        27       593       592
 -1       207   12    0    1
 -2       593       595       594
 -1       208   12    0    1
 -2       595       597       596
 -1       209   12    0    1
 -2       597       599       598
 -1       210   12    0    1
 -2       599        41       600
 -1       211   12    0    1
 -2        28       602       601
 -1       212   12    0    1
 -2       602       604       603
 -1       213   12    0    1
 -2       604       606       605
 -1       214   12    0    1
 -2       606        29       607
 -1       215   12    0    1
 -2        28       609       608
 -1       216   12    0    1
 -2       609       611       610
 -1       217   12    0    1
 -2       611        41       612
 -1       218   12    0    1
 -2        28       614       613
 -1       219   12    0    1
 -2       614       616       615
 -1       220   12    0    1
 -2       616       618       617
 -1       221   12    0    1
 -2       618       620       619
 -1       222   12    0    1
 -2       620        42       621
 -1       223   12    0    1
 -2        29       623       622
 -1       224   12    0    1
 -2       623       625       624
 -1       225   12    0    1
 -2       625       627       626
 -1       226   12    0    1
 -2       627        30       628
 -1       227   12    0    1
 -2        29       630       629
 -1       228   12    0    1
 -2       630       632       631
 -1       229   12    0    1
 -2       632        42       633
 -1       230   12    0    1
 -2        29       635       634
 -1       231   12    0    1
 -2       635       637       636
 -1       232   12    0    1
 -2       637       639       638
 -1       233   12    0    1
 -2       639       641       640
 -1       234   12    0    1
 -2       641        43       642
 -1       235   12    0    1
 -2        30       644       643
 -1       236   12    0    1
 -2       644       646       645
 -1       237   12    0    1
 -2       646       648       647
 -1       238   12    0    1
 -2       648        31       649
 -1       239   12    0    1
 -2        30       651       650
 -1       240   12    0    1
 -2       651       653       652
 -1       241   12    0    1
 -2       653        43       654
 -1       242   12    0    1
 -2        30       656       655
 -1       243   12    0    1
 -2       656       658       657
 -1       244   12    0    1
 -2       658       660       659
 -1       245   12    0    1
 -2       660       662       661
 -1       246   12    0    1
 -2       662        44       663
 -1       247   12    0    1
 -2        31       665       664
 -1       248   12    0    1
 -2       665       667       666
 -1       249   12    0    1
 -2       667       669       668
 -1       250   12    0    1
 -2       669        32       670
 -1       251   12    0    1
 -2        31       672       671
 -1       252   12    0    1
 -2       672       674       673
 -1       253   12    0    1
 -2       674        44       675
 -1       254   12    0    1
 -2        31       677       676
 -1       255   12    0    1
 -2       677       679       678
 -1       256   12    0    1
 -2       679       681       680
 -1       257   12    0    1
 -2       681       683       682
 -1       258   12    0    1
 -2       683        45       684
 -1       259   12    0    1
 -2        32       686       685
 -1       260   12    0    1
 -2       686       688       687
 -1       261   12    0    1
 -2       688       690       689
 -1       262   12    0    1
 -2       690        33       691
 -1       263   12    0    1
 -2        32       693       692
 -1       264   12    0    1
 -2       693       695       694
 -1       265   12    0    1
 -2       695        45       696
 -1       266   12    0    1
 -2        32       698       697
 -1       267   12    0    1
 -2       698       700       699
 -1       268   12    0    1
 -2       700       702       701
 -1       269   12    0    1
 -2       702       704       703
 -1       270   12    0    1
 -2       704        46       705
 -1       271   12    0    1
 -2        33       707       706
 -1       272   12    0    1
 -2       707       709       708
 -1       273   12    0    1
 -2       709       711       710
 -1       274   12    0    1
 -2       711        34       712
 -1       275   12    0    1
 -2        33       714       713
 -1       276   12    0    1
 -2       714       716       715
 -1       277   12    0    1
 -2       716        46       717
 -1       278   12    0    1
 -2        33       719       718
 -1       279   12    0    1
 -2       719       721       720
 -1       280   12    0    1
 -2       721       723       722
 -1       281   12    0    1
 -2       723       725       724
 -1       282   12    0    1
 -2       725        47       726
 -1       283   12    0    1
 -2        34       728       727
 -1       284   12    0    1
 -2       728       730       729
 -1       285   12    0    1
 -2       730       732       731
 -1       286   12    0    1
 -2       732        35       733
 -1       287   12    0    1
 -2        34       735       734
 -1       288   12    0    1
 -2       735       737       736
 -1       289   12    0    1
 -2       737        47       738
 -1       290   12    0    1
 -2        34       740       739
 -1       291   12    0    1
 -2       740       742       741
 -1       292   12    0    1
 -2       742       744       743
 -1       293   12    0    1
 -2       744       746       745
 -1       294   12    0    1
 -2       746        48       747
 -1       295   12    0    1
 -2        35       749       748
 -1       296   12    0    1
 -2       749       751       750
 -1       297   12    0    1
 -2       751       753       752
 -1       298   12    0    1
 -2       753        36       754
 -1       299   12    0    1
 -2        35       756       755
 -1       300   12    0    1
 -2       756       758       757
 -1       301   12    0    1
 -2       758        48       759
 -1       302   12    0    1
 -2        35       761       760
 -1       303   12    0    1
 -2       761       763       762
 -1       304   12    0    1
 -2       763       765       764
 -1       305   12    0    1
 -2       765       767       766
 -1       306   12    0    1
 -2       767        49       768
 -1       307   12    0    1
 -2        36       770       769
 -1       308   12    0    1
 -2       770       772       771
 -1       309   12    0    1
 -2       772       774       773
 -1       310   12    0    1
 -2       774        37       775
 -1       311   12    0    1
 -2        36       777       776
 -1       312   12    0    1
 -2       777       779       778
 -1       313   12    0    1
 -2       779        49       780
 -1       314   12    0    1
 -2        36       782       781
 -1       315   12    0    1
 -2       782       784       783
 -1       316   12    0    1
 -2       784       786       785
 -1       317   12    0    1
 -2       786       788       787
 -1       318   12    0    1
 -2       788        50       789
 -1       319   12    0    1
 -2        37       791       790
 -1       320   12    0    1
 -2       791       793       792
 -1       321   12    0    1
 -2       793       795       794
 -1       322   12    0    1
 -2       795        38       796
 -1       323   12    0    1
 -2        37       798       797
 -1       324   12    0    1
 -2       798       800       799
 -1       325   12    0    1
 -2       800        50       801
 -1       326   12    0    1
 -2        37       803       802
 -1       327   12    0    1
 -2       803       805       804
 -1       328   12    0    1
 -2       805       807       806
 -1       329   12    0    1
 -2       807       809       808
 -1       330   12    0    1
 -2       809        51       810
 -1       331   12    0    1
 -2        38       812       811
 -1       332   12    0    1
 -2       812       814       813
 -1       333   12    0    1
 -2       814       816       815
 -1       334   12    0    1
 -2       816        39       817
 -1       335   12    0    1
 -2        38       819       818
 -1       336   12    0    1
 -2       819       821       820
 -1       337   12    0    1
 -2       821        51       822
 -1       338   12    0    1
 -2        38       824       823
 -1       339   12    0    1
 -2       824       826       825
 -1       340   12    0    1
 -2       826       828       827
 -1       341   12    0    1
 -2       828       830       829
 -1       342   12    0    1
 -2       830        52       831
 -1       343   12    0    1
 -2        39       833       832
 -1       344   12    0    1
 -2       833       835       834
 -1       345   12    0    1
 -2       835        52       836
 -1       346   12    0    1
 -2        40       838       837
 -1       347   12    0    1
 -2       838       840       839
 -1       348   12    0    1
 -2       840       842       841
 -1       349   12    0    1
 -2       842        41       843
 -1       350   12    0    1
 -2        40       845       844
 -1       351   12    0    1
 -2       845       847       846
 -1       352   12    0    1
 -2       847        53       848
 -1       353   12    0    1
 -2        40       850       849
 -1       354   12    0    1
 -2       850       852       851
 -1       355   12    0    1
 -2       852       854       853
 -1       356   12    0    1
 -2       854       856       855
 -1       357   12    0    1
 -2       856        54       857
 -1       358   12    0    1
 -2        41       859       858
 -1       359   12    0    1
 -2       859       861       860
 -1       360   12    0    1
 -2       861       863       862
 -1       361   12    0    1
 -2       863        42       864
 -1       362   12    0    1
 -2        41       866       865
 -1       363   12    0    1
 -2       866       868       867
 -1       364   12    0    1
 -2       868        54       869
 -1       365   12    0    1
 -2        41       871       870
 -1       366   12    0    1
 -2       871       873       872
 -1       367   12    0    1
 -2       873       875       874
 -1       368   12    0    1
 -2       875       877       876
 -1       369   12    0    1
 -2       877        55       878
 -1       370   12    0    1
 -2        42       880       879
 -1       371   12    0    1
 -2       880       882       881
 -1       372   12    0    1
 -2       882       884       883
 -1       373   12    0    1
 -2       884        43       885
 -1       374   12    0    1
 -2        42       887       886
 -1       375   12    0    1
 -2       887       889       888
 -1       376   12    0    1
 -2       889        55       890
 -1       377   12    0    1
 -2        42       892       891
 -1       378   12    0    1
 -2       892       894       893
 -1       379   12    0    1
 -2       894       896       895
 -1       380   12    0    1
 -2       896       898       897
 -1       381   12    0    1
 -2       898        56       899
 -1       382   12    0    1
 -2        43       901       900
 -1       383   12    0    1
 -2       901       903       902
 -1       384   12    0    1
 -2       903       905       904
 -1       385   12    0    1
 -2       905        44       906
 -1       386   12    0    1
 -2        43       908       907
 -1       387   12    0    1
 -2       908       910       909
 -1       388   12    0    1
 -2       910        56       911
 -1       389   12    0    1
 -2        43       913       912
 -1       390   12    0    1
 -2       913       915       914
 -1       391   12    0    1
 -2       915       917       916
 -1       392   12    0    1
 -2       917       919       918
 -1       393   12    0    1
 -2       919        57       920
 -1       394   12    0    1
 -2        44       922       921
 -1       395   12    0    1
 -2       922       924       923
 -1       396   12    0    1
 -2       924       926       925
 -1       397   12    0    1
 -2       926        45       927
 -1       398   12    0    1
 -2        44       929       928
 -1       399   12    0    1
 -2       929       931       930
 -1       400   12    0    1
 -2       931        57       932
 -1       401   12    0    1
 -2        44       934       933
 -1       402   12    0    1
 -2       934       936       935
 -1       403   12    0    1
 -2       936       938       937
 -1       404   12    0    1
 -2       938       940       939
 -1       405   12    0    1
 -2       940        58       941
 -1       406   12    0    1
 -2        45       943       942
 -1       407   12    0    1
 -2       943       945       944
 -1       408   12    0    1
 -2       945       947       946
 -1       409   12    0    1
 -2       947        46       948
 -1       410   12    0    1
 -2        45       950       949
 -1       411   12    0    1
 -2       950       952       951
 -1       412   12    0    1
 -2       952        58       953
 -1       413   12    0    1
 -2        45       955       954
 -1       414   12    0    1
 -2       955       957       956
 -1       415   12    0    1
 -2       957       959       958
 -1       416   12    0    1
 -2       959       961       960
 -1       417   12    0    1
 -2       961        59       962
 -1       418   12    0    1
 -2        46       964       963
 -1       419   12    0    1
 -2       964       966       965
 -1       420   12    0    1
 -2       966       968       967
 -1       421   12    0    1
 -2       968        47       969
 -1       422   12    0    1
 -2        46       971       970
 -1       423   12    0    1
 -2       971       973       972
 -1       424   12    0    1
 -2       973        59       974
 -1       425   12    0    1
 -2        46       976       975
 -1       426   12    0    1
 -2       976       978       977
 -1       427   12    0    1
 -2       978       980       979
 -1       428   12    0    1
 -2       980       982       981
 -1       429   12    0    1
 -2       982        60       983
 -1       430   12    0    1
 -2        47       985       984
 -1       431   12    0    1
 -2       985       987       986
 -1       432   12    0    1
 -2       987       989       988
 -1       433   12    0    1
 -2       989        48       990
 -1       434   12    0    1
 -2        47       992       991
 -1       435   12    0    1
 -2       992       994       993
 -1       436   12    0    1
 -2       994        60       995
 -1       437   12    0    1
 -2        47       997       996
 -1       438   12    0    1
 -2       997       999       998
 -1       439   12    0    1
 -2       999      1001      1000
 -1       440   12    0    1
 -2      1001      1003      1002
 -1       441   12    0    1
 -2      1003        61      1004
 -1       442   12    0    1
 -2        48      1006      1005
 -1       443   12    0    1
 -2      1006      1008      1007
 -1       444   12    0    1
 -2      1008      1010      1009
 -1       445   12    0    1
 -2      1010        49      1011
 -1       446   12    0    1
 -2        48      1013      1012
 -1       447   12    0    1
 -2      1013      1015      1014
 -1       448   12    0    1
 -2      1015        61      1016
 -1       449   12    0    1
 -2        48      1018      1017
 -1       450   12    0    1
 -2      1018      1020      1019
 -1       451   12    0    1
 -2      1020      1022      1021
 -1       452   12    0    1
 -2      1022      1024      1023
 -1       453   12    0    1
 -2      1024        62      1025
 -1       454   12    0    1
 -2        49      1027      1026
 -1       455   12    0    1
 -2      1027      1029      1028
 -1       456   12    0    1
 -2      1029      1031      1030
 -1       457   12    0    1
 -2      1031        50      1032
 -1       458   12    0    1
 -2        49      1034      1033
 -1       459   12    0    1
 -2      1034      1036      1035
 -1       460   12    0    1
 -2      1036        62      1037
 -1       461   12    0    1
 -2        49      1039      1038
 -1       462   12    0    1
 -2      1039      1041      1040
 -1       463   12    0    1
 -2      1041      1043      1042
 -1       464   12    0    1
 -2      1043      1045      1044
 -1       465   12    0    1
 -2      1045        63      1046
 -1       466   12    0    1
 -2        50      1048      1047
 -1       467   12    0    1
 -2      1048      1050      1049
 -1       468   12    0    1
 -2      1050      1052      1051
 -1       469   12    0    1
 -2      1052        51      1053
 -1       470   12    0    1
 -2        50      1055      1054
 -1       471   12    0    1
 -2      1055      1057      1056
 -1       472   12    0    1
 -2      1057        63      1058
 -1       473   12    0    1
 -2        50      1060      1059
 -1       474   12    0    1
 -2      1060      1062      1061
 -1       475   12    0    1
 -2      1062      1064      1063
 -1       476   12    0    1
 -2      1064      1066      1065
 -1       477   12    0    1
 -2      1066        64      1067
 -1       478   12    0    1
 -2        51      1069      1068
 -1       479   12    0    1
 -2      1069      1071      1070
 -1       480   12    0    1
 -2      1071      1073      1072
 -1       481   12    0    1
 -2      1073        52      1074
 -1       482   12    0    1
 -2        51      1076      1075
 -1       483   12    0    1
 -2      1076      1078      1077
 -1       484   12    0    1
 -2      1078        64      1079
 -1       485   12    0    1
 -2        51      1081      1080
 -1       486   12    0    1
 -2      1081      1083      1082
 -1       487   12    0    1
 -2      1083      1085      1084
 -1       488   12    0    1
 -2      1085      1087      1086
 -1       489   12    0    1
 -2      1087        65      1088
 -1       490   12    0    1
 -2        52      1090      1089
 -1       491   12    0    1
 -2      1090      1092      1091
 -1       492   12    0    1
 -2      1092        65      1093
 -1       493   12    0    1
 -2        53      1095      1094
 -1       494   12    0    1
 -2      1095      1097      1096
 -1       495   12    0    1
 -2      1097      1099      1098
 -1       496   12    0    1
 -2      1099        54      1100
 -1       497   12    0    1
 -2        54      1102      1101
 -1       498   12    0    1
 -2      1102      1104      1103
 -1       499   12    0    1
 -2      1104      1106      1105
 -1       500   12    0    1
 -2      1106        55      1107
 -1       501   12    0    1
 -2        55      1109      1108
 -1       502   12    0    1
 -2      1109      1111      1110
 -1       503   12    0    1
 -2      1111      1113      1112
 -1       504   12    0    1
 -2      1113        56      1114
 -1       505   12    0    1
 -2        56      1116      1115
 -1       506   12    0    1
 -2      1116      1118      1117
 -1       507   12    0    1
 -2      1118      1120      1119
 -1       508   12    0    1
 -2      1120        57      1121
 -1       509   12    0    1
 -2        57      1123      1122
 -1       510   12    0    1
 -2      1123      1125      1124
 -1       511   12    0    1
 -2      1125      1127      1126
 -1       512   12    0    1
 -2      1127        58      1128
 -1       513   12    0    1
 -2        58      1130      1129
 -1       514   12    0    1
 -2      1130      1132      1131
 -1       515   12    0    1
 -2      1132      1134      1133
 -1       516   12    0    1
 -2      1134        59      1135
 -1       517   12    0    1
 -2        59      1137      1136
 -1       518   12    0    1
 -2      1137      1139      1138
 -1       519   12    0    1
 -2      1139      1141      1140
 -1       520   12    0    1
 -2      1141        60      1142
 -1       521   12    0    1
 -2        60      1144      1143
 -1       522   12    0    1
 -2      1144      1146      1145
 -1       523   12    0    1
 -2      1146      1148      1147
 -1       524   12    0    1
 -2      1148        61      1149
 -1       525   12    0    1
 -2        61      1151      1150
 -1       526   12    0    1
 -2      1151      1153      1152
 -1       527   12    0    1
 -2      1153      1155      1154
 -1       528   12    0    1
 -2      1155        62      1156
 -1       529   12    0    1
 -2        62      1158      1157
 -1       530   12    0    1
 -2      1158      1160      1159
 -1       531   12    0    1
 -2      1160      1162      1161
 -1       532   12    0    1
 -2      1162        63      1163
 -1       533   12    0    1
 -2        63      1165      1164
 -1       534   12    0    1
 -2      1165      1167      1166
 -1       535   12    0    1
 -2      1167      1169      1168
 -1       536   12    0    1
 -2      1169        64      1170
 -1       537   12    0    1
 -2        64      1172      1171
 -1       538   12    0    1
 -2      1172      1174      1173
 -1       539   12    0    1
 -2      1174      1176      1175
 -1       540   12    0    1
 -2      1176        65      1177
 -3
    1PSTEP                         1           1           1          
  100CL  101 1.000000000        1001                     0    1           1
 -4  DISP        4    1
 -5  D1          1    2    1    0
 -5  D2          1    2    2    0
 -5  D3          1    2    3    0
 -5  ALL         1    2    0    0    1ALL
 -1         1-3.45183E-05 0.00000E+00 0.00000E+00
 -1         2-2.50948E-05 0.00000E+00 0.00000E+00
 -1         3-1.91936E-05 0.00000E+00 0.00000E+00
 -1         4-1.51808E-05 0.00000E+00 0.00000E+00
 -1         5-1.23172E-05 0.00000E+00 0.00000E+00
 -1         6-1.02248E-05 0.00000E+00 0.00000E+00
 -1         7-8.75693E-06 0.00000E+00 0.00000E+00
 -1         8-8.08812E-06 0.00000E+00 0.00000E+00
 -1         9-8.10001E-06 0.00000E+00 0.00000E+00
 -1        14-1.94580E-05 1.44850E-06 0.00000E+00
 -1        15-2.01730E-05-2.05698E-06 0.00000E+00
 -1        16-1.76618E-05-1.68566E-06 0.00000E+00
 -1        17-1.48462E-05-1.12750E-06 0.00000E+00
 -1        18-1.24628E-05-6.18854E-07 0.00000E+00
 -1        19-1.05184E-05-2.87062E-07 0.00000E+00
 -1        20-8.74954E-06-2.28191E-07 0.00000E+00
 -1        21-7.25811E-06 1.17246E-07 0.00000E+00
 -1        22-7.34296E-06 6.99180E-07 0.00000E+00
 -1        27-1.19586E-05 1.42021E-06 0.00000E+00
 -1        28-1.26442E-05-2.45021E-06 0.00000E+00
 -1        29-1.28828E-05-3.08641E-06 0.00000E+00
 -1        30-1.19545E-05-2.39337E-06 0.00000E+00
 -1        31-1.06593E-05-1.39777E-06 0.00000E+00
 -1        32-9.64780E-06-6.11569E-07 0.00000E+00
 -1        33-8.52477E-06-6.06580E-07 0.00000E+00
 -1        34-6.63784E-06-6.27644E-07 0.00000E+00
 -1        35-3.97123E-06 1.89026E-06 0.00000E+00
 -1        36-8.48362E-07 1.75787E-05 0.00000E+00
 -1        37 5.49652E-07 3.53615E-05 0.00000E+00
 -1        38 9.60514E-07 5.35642E-05 0.00000E+00
 -1        39 9.70948E-07 7.11035E-05 0.00000E+00
 -1        40-6.81535E-06 9.13143E-07 0.00000E+00
 -1        41-7.50896E-06-2.72026E-06 0.00000E+00
 -1        42-8.27511E-06-3.84637E-06 0.00000E+00
 -1        43-8.38019E-06-3.41887E-06 0.00000E+00
 -1        44-7.69034E-06-2.27672E-06 0.00000E+00
 -1        45-6.76253E-06-7.74481E-07 0.00000E+00
 -1        46-7.38614E-06-5.43351E-07 0.00000E+00
 -1        47-7.89619E-06-1.06981E-06 0.00000E+00
 -1        48-8.42861E-06 2.64442E-06 0.00000E+00
 -1        49-9.88458E-06 1.63115E-05 0.00000E+00
 -1        50-1.05183E-05 3.42558E-05 0.00000E+00
 -1        51-1.08952E-05 5.27722E-05 0.00000E+00
 -1        52-1.11597E-05 7.04683E-05 0.00000E+00
 -1        53 0.00000E+00 0.00000E+00 0.00000E+00
 -1        54-2.80357E-06-3.07321E-06 0.00000E+00
 -1        55-4.86406E-06-4.28944E-06 0.00000E+00
 -1        56-5.97893E-06-4.04173E-06 0.00000E+00
 -1        57-5.81950E-06-3.06226E-06 0.00000E+00
 -1        58-4.05324E-06-1.76538E-06 0.00000E+00
 -1        59 0.00000E+00 0.00000E+00 0.00000E+00
 -1        60-5.88134E-06-1.37185E-06 0.00000E+00
 -1        61-1.11114E-05 2.76478E-06 0.00000E+00
 -1        62-1.62314E-05 1.56657E-05 0.00000E+00
 -1        63-1.99390E-05 3.33843E-05 0.00000E+00
 -1        64-2.19171E-05 5.21303E-05 0.00000E+00
 -1        65-2.26583E-05 7.00562E-05 0.00000E+00
 -1        66-3.33502E-05-3.44107E-22 0.00000E+00
 -1        67-3.21661E-05 1.76024E-21 0.00000E+00
 -1        68-3.09814E-05 2.21684E-21 0.00000E+00
 -1        69-2.97955E-05-1.98523E-22 0.00000E+00
 -1        70-2.86099E-05 1.21099E-21 0.00000E+00
 -1        71-2.74275E-05 2.73962E-21 1.32349E-23
 -1        72-2.62467E-05 8.20563E-22 2.64698E-23
 -1        73-3.34366E-05 2.68908E-07 1.32349E-23
 -1        74-3.11912E-05 5.11169E-07 3.30872E-24
 -1        75-2.82248E-05 7.50331E-07 0.00000E+00
 -1        76-2.49836E-05 9.85147E-07 0.00000E+00
 -1        77-2.19135E-05 1.21917E-06 0.00000E+00
 -1        78-3.35449E-05 4.04087E-07 2.64698E-23
 -1        79-3.23493E-05 5.27117E-07-1.32349E-23
 -1        80-3.09811E-05 4.20588E-07 0.00000E+00
 -1        81-2.94827E-05 1.41616E-07 1.32349E-23
 -1        82-2.78971E-05-2.53962E-07-2.64698E-23
 -1        83-2.62666E-05-7.10436E-07 0.00000E+00
 -1        84-2.46335E-05-1.17220E-06 2.64698E-23
 -1        85-2.30420E-05-1.58519E-06 0.00000E+00
 -1        86-2.15324E-05-1.89217E-06-2.64698E-23
 -1        87-2.43629E-05 7.08067E-22-2.64698E-23
 -1        88-2.36213E-05 1.31025E-21 0.00000E+00
 -1        89-2.28793E-05-1.11173E-21 0.00000E+00
 -1        90-2.21365E-05-2.11758E-21-1.32349E-23
 -1        91-2.13941E-05-2.44845E-21 0.00000E+00
 -1        92-2.06536E-05-2.76609E-21 0.00000E+00
 -1        93-1.99142E-05 9.92617E-23 0.00000E+00
 -1        94-2.47869E-05-3.13662E-07 3.30872E-24
 -1        95-2.41201E-05-6.65133E-07 0.00000E+00
 -1        96-2.32093E-05-1.01817E-06 0.00000E+00
 -1        97-2.21705E-05-1.37283E-06 0.00000E+00
 -1        98-2.11198E-05-1.72729E-06 1.65436E-24
 -1        99-2.46025E-05 1.72403E-07 0.00000E+00
 -1       100-2.39831E-05 1.73456E-07 6.61744E-24
 -1       101-2.32625E-05 3.93989E-08-1.32349E-23
 -1       102-2.24678E-05-1.93850E-07 6.61744E-24
 -1       103-2.16258E-05-4.90436E-07-1.32349E-23
 -1       104-2.07636E-05-8.14715E-07-6.61744E-24
 -1       105-1.99079E-05-1.13105E-06 0.00000E+00
 -1       106-1.90864E-05-1.40442E-06 0.00000E+00
 -1       107-1.83253E-05-1.59854E-06 1.32349E-23
 -1       108-1.86978E-05 2.05141E-22 1.32349E-23
 -1       109-1.81936E-05 4.20208E-22 0.00000E+00
 -1       110-1.76890E-05 8.56959E-22 0.00000E+00
 -1       111-1.71836E-05 1.41944E-21 0.00000E+00
 -1       112-1.66784E-05 1.49223E-21-1.32349E-23
 -1       113-1.61745E-05 1.23084E-21-6.61744E-24
 -1       114-1.56713E-05 1.01578E-21 0.00000E+00
 -1       115-1.91188E-05-2.61858E-07-1.03398E-25
 -1       116-1.89429E-05-5.49582E-07 0.00000E+00
 -1       117-1.86872E-05-8.38195E-07-6.61744E-24
 -1       118-1.83738E-05-1.12752E-06-1.65436E-24
 -1       119-1.80247E-05-1.41653E-06 0.00000E+00
 -1       120-1.89083E-05 9.07959E-08 0.00000E+00
 -1       121-1.85446E-05 7.47878E-08 3.30872E-24
 -1       122-1.81186E-05-2.45087E-08 0.00000E+00
 -1       123-1.76476E-05-1.84116E-07-3.30872E-24
 -1       124-1.71487E-05-3.81017E-07-6.61744E-24
 -1       125-1.66393E-05-5.92307E-07 3.30872E-24
 -1       126-1.61366E-05-7.95070E-07 0.00000E+00
 -1       127-1.56581E-05-9.66681E-07 3.30872E-24
 -1       128-1.52207E-05-1.08395E-06 6.61744E-24
 -1       129-1.48274E-05 2.34919E-21-6.61744E-24
 -1       130-1.44677E-05 3.29218E-21 0.00000E+00
 -1       131-1.41077E-05 2.47823E-21-1.32349E-23
 -1       132-1.37470E-05 1.51539E-21 6.61744E-24
 -1       133-1.33865E-05 8.56959E-22 0.00000E+00
 -1       134-1.30269E-05 2.01832E-22-3.30872E-24
 -1       135-1.26677E-05 2.87859E-22 6.61744E-24
 -1       136-1.51849E-05-1.75214E-07 0.00000E+00
 -1       137-1.51769E-05-3.67968E-07 1.65436E-24
 -1       138-1.51480E-05-5.61288E-07 0.00000E+00
 -1       139-1.50892E-05-7.54981E-07 0.00000E+00
 -1       140-1.49915E-05-9.48409E-07 0.00000E+00
 -1       141-1.49977E-05 5.98066E-08 6.61744E-24
 -1       142-1.47662E-05 5.26317E-08 0.00000E+00
 -1       143-1.44962E-05-6.05769E-09 0.00000E+00
 -1       144-1.41988E-05-1.01497E-07 3.30872E-24
 -1       145-1.38852E-05-2.18831E-07 6.61744E-24
 -1       146-1.35663E-05-3.43287E-07 3.30872E-24
 -1       147-1.32532E-05-4.60090E-07-6.61744E-24
 -1       148-1.29573E-05-5.54596E-07 0.00000E+00
 -1       149-1.26895E-05-6.11905E-07 0.00000E+00
 -1       150-1.20588E-05 1.19776E-21 6.61744E-24
 -1       151-1.17960E-05 1.67090E-21-3.30872E-24
 -1       152-1.15331E-05 1.35658E-21-6.61744E-24
 -1       153-1.12697E-05 2.02659E-21 0.00000E+00
 -1       154-1.10064E-05 1.45253E-21-6.61744E-24
 -1       155-1.07437E-05 4.81419E-22 0.00000E+00
 -1       156-1.04813E-05 5.65792E-22-6.61744E-24
 -1       157-1.23482E-05-9.48484E-08 0.00000E+00
 -1       158-1.24006E-05-2.01238E-07 0.00000E+00
 -1       159-1.24564E-05-3.07993E-07 0.00000E+00
 -1       160-1.24974E-05-4.14965E-07 0.00000E+00
 -1       161-1.25055E-05-5.21746E-07 0.00000E+00
 -1       162-1.21908E-05 4.56374E-08-3.30872E-24
 -1       163-1.20344E-05 4.87585E-08 0.00000E+00
 -1       164-1.18540E-05 1.96435E-08 0.00000E+00
 -1       165-1.16568E-05-3.22230E-08 0.00000E+00
 -1       166-1.14498E-05-9.72427E-08 3.30872E-24
 -1       167-1.12401E-05-1.65893E-07 1.65436E-24
 -1       168-1.10349E-05-2.28646E-07-3.30872E-24
 -1       169-1.08413E-05-2.76028E-07 1.65436E-24
 -1       170-1.06666E-05-2.98471E-07-3.30872E-24
 -1       171-1.00430E-05 6.00533E-22 6.61744E-24
 -1       172-9.85869E-06 8.45379E-22 0.00000E+00
 -1       173-9.67422E-06 2.23339E-22-6.61744E-24
 -1       174-9.48953E-06 5.27741E-22 3.30872E-24
 -1       175-9.30490E-06-4.96308E-24 0.00000E+00
 -1       176-9.12071E-06-3.45761E-22 3.30872E-24
 -1       177-8.93674E-06-3.68923E-22 0.00000E+00
 -1       178-1.02611E-05-4.24845E-08 0.00000E+00
 -1       179-1.03275E-05-9.25413E-08 0.00000E+00
 -1       180-1.04054E-05-1.42827E-07 4.13590E-25
 -1       181-1.04757E-05-1.93220E-07 0.00000E+00
 -1       182-1.05197E-05-2.43468E-07-8.27181E-25
 -1       183-1.01215E-05 3.79493E-08-3.30872E-24
 -1       184-9.99375E-06 4.17315E-08 0.00000E+00
 -1       185-9.84647E-06 1.94082E-08-3.30872E-24
 -1       186-9.68545E-06-2.14269E-08 1.65436E-24
 -1       187-9.51634E-06-7.31135E-08 0.00000E+00
 -1       188-9.34484E-06-1.28036E-07 0.00000E+00
 -1       189-9.17666E-06-1.78577E-07 0.00000E+00
 -1       190-9.01753E-06-2.17147E-07 1.65436E-24
 -1       191-8.87315E-06-2.36108E-07-3.30872E-24
 -1       192-8.67275E-06-5.98879E-22 0.00000E+00
 -1       193-8.58883E-06 9.76073E-23-1.65436E-24
 -1       194-8.50493E-06 8.60268E-23 3.30872E-24
 -1       195-8.42109E-06-2.27475E-22-1.65436E-24
 -1       196-8.33731E-06 4.73974E-22 0.00000E+00
 -1       197-8.25371E-06 2.10104E-22 0.00000E+00
 -1       198-8.17019E-06 2.15894E-22 0.00000E+00
 -1       199-8.76415E-06-3.43346E-08 0.00000E+00
 -1       200-8.77465E-06-7.42090E-08-2.58494E-26
 -1       201-8.78343E-06-1.14223E-07 0.00000E+00
 -1       202-8.78550E-06-1.54217E-07 0.00000E+00
 -1       203-8.77585E-06-1.94057E-07 0.00000E+00
 -1       204-8.64615E-06 6.13400E-08 3.30872E-24
 -1       205-8.51885E-06 1.03434E-07-1.65436E-24
 -1       206-8.37881E-06 1.28691E-07 3.30872E-24
 -1       207-8.22851E-06 1.40571E-07 1.65436E-24
 -1       208-8.07059E-06 1.42378E-07 3.30872E-24
 -1       209-7.90764E-06 1.37480E-07 0.00000E+00
 -1       210-7.74223E-06 1.29245E-07 0.00000E+00
 -1       211-7.57700E-06 1.20983E-07 0.00000E+00
 -1       212-7.41443E-06 1.16130E-07 0.00000E+00
 -1       213-8.08782E-06-3.95186E-22-8.27181E-25
 -1       214-8.08983E-06-8.37663E-22 0.00000E+00
 -1       215-8.09196E-06-1.23206E-21-2.06795E-25
 -1       216-8.09431E-06-4.04698E-22-5.16988E-26
 -1       217-8.09665E-06 5.68170E-23 0.00000E+00
 -1       218-8.09873E-06-1.30591E-22 2.06795E-25
 -1       219-8.10067E-06 2.62682E-22 0.00000E+00
 -1       220-8.02720E-06 1.99213E-08 0.00000E+00
 -1       221-7.90142E-06 3.85049E-08 0.00000E+00
 -1       222-7.73609E-06 5.71158E-08-8.27181E-25
 -1       223-7.55677E-06 7.59541E-08 0.00000E+00
 -1       224-7.38899E-06 9.49463E-08 0.00000E+00
 -1       225-8.03365E-06 9.26972E-08-3.30872E-24
 -1       226-8.00261E-06 2.20345E-07 1.65436E-24
 -1       227-7.98577E-06 3.67142E-07 3.30872E-24
 -1       228-7.97203E-06 5.18509E-07 0.00000E+00
 -1       229-7.95055E-06 6.59682E-07-3.30872E-24
 -1       230-7.91036E-06 7.75994E-07 0.00000E+00
 -1       231-7.84049E-06 8.52767E-07-3.30872E-24
 -1       232-7.72995E-06 8.75325E-07 1.65436E-24
 -1       233-7.56772E-06 8.28961E-07-3.30872E-24
 -1       241-8.09061E-06 1.14257E-07-3.30872E-24
 -1       242-8.04491E-06 2.31111E-07-1.65436E-24
 -1       243-7.95508E-06 3.48098E-07 0.00000E+00
 -1       244-7.81333E-06 4.65310E-07 1.65436E-24
 -1       245-7.61185E-06 5.82560E-07 0.00000E+00
 -1       323-1.95419E-05 1.83377E-07 0.00000E+00
 -1       324-1.96343E-05-5.94665E-07-2.06795E-25
 -1       325-1.97270E-05-1.01004E-06-1.24077E-24
 -1       326-1.98203E-05-1.18880E-06 8.27181E-25
 -1       327-1.99134E-05-1.25691E-06 0.00000E+00
 -1       328-2.00050E-05-1.34041E-06 0.00000E+00
 -1       329-2.00960E-05-1.56541E-06 0.00000E+00
 -1       330-1.78615E-05 1.44855E-06 0.00000E+00
 -1       331-1.63909E-05 1.44344E-06-1.65436E-24
 -1       332-1.50560E-05 1.43817E-06 0.00000E+00
 -1       333-1.38661E-05 1.43238E-06 0.00000E+00
 -1       334-1.28307E-05 1.42653E-06 0.00000E+00
 -1       335-1.83427E-05 4.66880E-07 0.00000E+00
 -1       336-1.73915E-05-2.80874E-07 0.00000E+00
 -1       337-1.65837E-05-8.36256E-07-1.32349E-23
 -1       338-1.58912E-05-1.23608E-06 0.00000E+00
 -1       339-1.52870E-05-1.51770E-06-1.32349E-23
 -1       340-1.47437E-05-1.71803E-06 0.00000E+00
 -1       341-1.42341E-05-1.87395E-06 6.61744E-24
 -1       342-1.37314E-05-2.02268E-06 3.30872E-24
 -1       343-1.32078E-05-2.20052E-06 6.61744E-24
 -1       344-1.98618E-05-2.53843E-06-1.32349E-23
 -1       345-1.95466E-05-2.67261E-06 0.00000E+00
 -1       346-1.92312E-05-2.55732E-06-1.32349E-23
 -1       347-1.89156E-05-2.29117E-06 0.00000E+00
 -1       348-1.86000E-05-1.97258E-06-6.61744E-24
 -1       349-1.82850E-05-1.69992E-06 0.00000E+00
 -1       350-1.79704E-05-1.57169E-06 0.00000E+00
 -1       351-1.91070E-05-2.11159E-06-1.65436E-24
 -1       352-1.77693E-05-2.17936E-06-2.06795E-25
 -1       353-1.63067E-05-2.24786E-06 4.13590E-25
 -1       354-1.48666E-05-2.31722E-06-1.55096E-25
 -1       355-1.35970E-05-2.38650E-06 0.00000E+00
 -1       356-1.93304E-05-2.32896E-06 0.00000E+00
 -1       357-1.85175E-05-2.53971E-06 0.00000E+00
 -1       358-1.77391E-05-2.70306E-06 0.00000E+00
 -1       359-1.69898E-05-2.82513E-06 0.00000E+00
 -1       360-1.62658E-05-2.91314E-06-1.32349E-23
 -1       361-1.55625E-05-2.97375E-06 0.00000E+00
 -1       362-1.48753E-05-3.01357E-06-1.32349E-23
 -1       363-1.42009E-05-3.03995E-06-6.61744E-24
 -1       364-1.35336E-05-3.05862E-06 1.32349E-23
 -1       365-1.73156E-05-1.87840E-06 0.00000E+00
 -1       366-1.69618E-05-1.88779E-06 0.00000E+00
 -1       367-1.66076E-05-1.76777E-06-1.32349E-23
 -1       368-1.62527E-05-1.57274E-06 0.00000E+00
 -1       369-1.58978E-05-1.35696E-06 1.32349E-23
 -1       370-1.55439E-05-1.17468E-06-3.30872E-24
 -1       371-1.51904E-05-1.08021E-06-6.61744E-24
 -1       372-1.70788E-05-1.90594E-06 0.00000E+00
 -1       373-1.62648E-05-2.14428E-06-1.65436E-24
 -1       374-1.53285E-05-2.38329E-06 0.00000E+00
 -1       375-1.43796E-05-2.62273E-06 0.00000E+00
 -1       376-1.35281E-05-2.86184E-06 1.65436E-24
 -1       377-1.71141E-05-1.74025E-06 6.61744E-24
 -1       378-1.65389E-05-1.81402E-06-6.61744E-24
 -1       379-1.59500E-05-1.90517E-06 0.00000E+00
 -1       380-1.53527E-05-2.00556E-06 6.61744E-24
 -1       381-1.47536E-05-2.10799E-06 0.00000E+00
 -1       382-1.41587E-05-2.20487E-06-6.61744E-24
 -1       383-1.35741E-05-2.28859E-06-1.32349E-23
 -1       384-1.30066E-05-2.35208E-06 0.00000E+00
 -1       385-1.24614E-05-2.38707E-06 6.61744E-24
 -1       386-1.45535E-05-1.21635E-06-6.61744E-24
 -1       387-1.42540E-05-1.19725E-06 3.30872E-24
 -1       388-1.39541E-05-1.10225E-06 0.00000E+00
 -1       389-1.36536E-05-9.63684E-07 0.00000E+00
 -1       390-1.33532E-05-8.13814E-07 0.00000E+00
 -1       391-1.30535E-05-6.84893E-07-3.30872E-24
 -1       392-1.27542E-05-6.09220E-07-6.61744E-24
 -1       393-1.45167E-05-1.32763E-06 0.00000E+00
 -1       394-1.40365E-05-1.54323E-06 0.00000E+00
 -1       395-1.34726E-05-1.75931E-06 0.00000E+00
 -1       396-1.28926E-05-1.97556E-06 0.00000E+00
 -1       397-1.23642E-05-2.19148E-06 1.65436E-24
 -1       398-1.44705E-05-1.10832E-06-6.61744E-24
 -1       399-1.40645E-05-1.11650E-06-3.30872E-24
 -1       400-1.36400E-05-1.14865E-06 6.61744E-24
 -1       401-1.32025E-05-1.19666E-06-3.30872E-24
 -1       402-1.27585E-05-1.25311E-06 6.61744E-24
 -1       403-1.23140E-05-1.31027E-06 0.00000E+00
 -1       404-1.18750E-05-1.36045E-06-6.61744E-24
 -1       405-1.14480E-05-1.39629E-06-3.30872E-24
 -1       406-1.10385E-05-1.40962E-06 6.61744E-24
 -1       407-1.22239E-05-6.58263E-07-6.61744E-24
 -1       408-1.19796E-05-6.39249E-07 0.00000E+00
 -1       409-1.17351E-05-5.79386E-07 0.00000E+00
 -1       410-1.14900E-05-4.96399E-07 3.30872E-24
 -1       411-1.12450E-05-4.07985E-07 0.00000E+00
 -1       412-1.10005E-05-3.31838E-07-3.30872E-24
 -1       413-1.07564E-05-2.85670E-07 0.00000E+00
 -1       414-1.22752E-05-7.41247E-07 0.00000E+00
 -1       415-1.19853E-05-8.74522E-07 0.00000E+00
 -1       416-1.16357E-05-1.00810E-06-3.30872E-24
 -1       417-1.12695E-05-1.14172E-06 8.27181E-25
 -1       418-1.09298E-05-1.27506E-06 0.00000E+00
 -1       419-1.22199E-05-5.73181E-07 6.61744E-24
 -1       420-1.19563E-05-5.47463E-07 0.00000E+00
 -1       421-1.16788E-05-5.39786E-07 0.00000E+00
 -1       422-1.13907E-05-5.45380E-07 0.00000E+00
 -1       423-1.10958E-05-5.59894E-07 0.00000E+00
 -1       424-1.07976E-05-5.78805E-07 3.30872E-24
 -1       425-1.04997E-05-5.97587E-07 0.00000E+00
 -1       426-1.02059E-05-6.11940E-07 3.30872E-24
 -1       427-9.91938E-06-6.17077E-07 0.00000E+00
 -1       428-1.03012E-05-3.10366E-07 0.00000E+00
 -1       429-1.00790E-05-3.08601E-07 0.00000E+00
 -1       430-9.85648E-06-2.89883E-07-6.61744E-24
 -1       431-9.63350E-06-2.62397E-07-3.30872E-24
 -1       432-9.41053E-06-2.34314E-07-6.61744E-24
 -1       433-9.18812E-06-2.13807E-07 3.30872E-24
 -1       434-8.96600E-06-2.09061E-07 0.00000E+00
 -1       435-1.04367E-05-3.36386E-07 4.13590E-25
 -1       436-1.03118E-05-3.92657E-07 0.00000E+00
 -1       437-1.01569E-05-4.49121E-07-8.27181E-25
 -1       438-9.98567E-06-5.05616E-07 0.00000E+00
 -1       439-9.81148E-06-5.61943E-07 8.27181E-25
 -1       440-1.03611E-05-2.64805E-07 3.30872E-24
 -1       441-1.01779E-05-2.74603E-07 1.65436E-24
 -1       442-9.97571E-06-3.09598E-07 3.30872E-24
 -1       443-9.76030E-06-3.61910E-07 1.65436E-24
 -1       444-9.53766E-06-4.23814E-07 0.00000E+00
 -1       445-9.31370E-06-4.87528E-07-1.65436E-24
 -1       446-9.09431E-06-5.45267E-07 0.00000E+00
 -1       447-8.88552E-06-5.89357E-07-1.65436E-24
 -1       448-8.69309E-06-6.11887E-07 0.00000E+00
 -1       449-8.56642E-06-2.26097E-07-3.30872E-24
 -1       450-8.37919E-06-1.77913E-07 0.00000E+00
 -1       451-8.19174E-06-1.00736E-07 0.00000E+00
 -1       452-8.00389E-06-1.18002E-08 0.00000E+00
 -1       453-7.81604E-06 7.16778E-08 0.00000E+00
 -1       454-7.62858E-06 1.32482E-07 0.00000E+00
 -1       455-7.44132E-06 1.53366E-07 0.00000E+00
 -1       456-8.71622E-06-2.86524E-07 4.13590E-25
 -1       457-8.68702E-06-3.51658E-07 0.00000E+00
 -1       458-8.65760E-06-4.16988E-07 0.00000E+00
 -1       459-8.62364E-06-4.82377E-07 4.13590E-25
 -1       460-8.58079E-06-5.47620E-07 2.06795E-25
 -1       461-8.57964E-06-2.16507E-07 3.30872E-24
 -1       462-8.36975E-06-2.54331E-07 0.00000E+00
 -1       463-8.13254E-06-3.28377E-07 0.00000E+00
 -1       464-7.87894E-06-4.23837E-07-1.65436E-24
 -1       465-7.62016E-06-5.26129E-07 0.00000E+00
 -1       466-7.36725E-06-6.20570E-07-1.65436E-24
 -1       467-7.13131E-06-6.92480E-07-3.30872E-24
 -1       468-6.92351E-06-7.27259E-07 0.00000E+00
 -1       469-6.75482E-06-7.10089E-07 0.00000E+00
 -1       470-7.26506E-06 1.34806E-07 0.00000E+00
 -1       471-7.27666E-06 2.56439E-07 0.00000E+00
 -1       472-7.28850E-06 4.38205E-07 2.06795E-25
 -1       473-7.30079E-06 6.35793E-07 0.00000E+00
 -1       474-7.31306E-06 8.04924E-07 0.00000E+00
 -1       475-7.32484E-06 9.01323E-07-1.29247E-25
 -1       476-7.33637E-06 8.80674E-07-8.27181E-25
 -1       477-7.13539E-06-4.73737E-10 0.00000E+00
 -1       478-6.98855E-06-1.27724E-07 8.27181E-25
 -1       479-6.84143E-06-2.55224E-07 0.00000E+00
 -1       480-6.71800E-06-3.82718E-07-8.27181E-25
 -1       481-6.64223E-06-5.09958E-07 1.03398E-25
 -1       482-6.88009E-06 2.08227E-07-6.61744E-24
 -1       483-6.45274E-06 2.53543E-07 3.30872E-24
 -1       484-6.00485E-06 2.72669E-07-1.32349E-23
 -1       485-5.55570E-06 2.92469E-07 0.00000E+00
 -1       486-5.12594E-06 3.38747E-07 0.00000E+00
 -1       487-4.73555E-06 4.37869E-07 0.00000E+00
 -1       488-4.40456E-06 6.16233E-07-1.32349E-23
 -1       489-4.15318E-06 9.00237E-07-6.61744E-24
 -1       490-4.00136E-06 1.31668E-06 1.32349E-23
 -1       498-6.71648E-06 8.92384E-07 3.30872E-24
 -1       499-5.87124E-06 1.08983E-06 3.30872E-24
 -1       500-4.99025E-06 1.28767E-06 6.61744E-24
 -1       501-4.25746E-06 1.48664E-06 0.00000E+00
 -1       502-3.85693E-06 1.68614E-06 0.00000E+00
 -1       580-1.20426E-05 7.44003E-07-8.27181E-25
 -1       581-1.21297E-05 1.94920E-07 8.27181E-25
 -1       582-1.22169E-05-2.62858E-07-1.65436E-24
 -1       583-1.23043E-05-6.65580E-07 8.27181E-25
 -1       584-1.23915E-05-1.04946E-06 0.00000E+00
 -1       585-1.24781E-05-1.45075E-06 0.00000E+00
 -1       586-1.25643E-05-1.90569E-06-8.27181E-25
 -1       587-1.11453E-05 1.33827E-06 1.65436E-24
 -1       588-1.02962E-05 1.25332E-06 0.00000E+00
 -1       589-9.42499E-06 1.16821E-06-1.65436E-24
 -1       590-8.54528E-06 1.08287E-06 0.00000E+00
 -1       591-7.67085E-06 9.97485E-07-1.65436E-24
 -1       592-1.14287E-05 8.84689E-07 0.00000E+00
 -1       593-1.09256E-05 3.93937E-07 0.00000E+00
 -1       594-1.04491E-05-6.07478E-08 3.30872E-24
 -1       595-9.99462E-06-4.84912E-07 0.00000E+00
 -1       596-9.55839E-06-8.84559E-07 0.00000E+00
 -1       597-9.13619E-06-1.26546E-06-1.65436E-24
 -1       598-8.72386E-06-1.63338E-06 0.00000E+00
 -1       599-8.31751E-06-1.99430E-06-1.65436E-24
 -1       600-7.91265E-06-2.35372E-06 0.00000E+00
 -1       601-1.26714E-05-2.87644E-06 0.00000E+00
 -1       602-1.27024E-05-3.05824E-06 0.00000E+00
 -1       603-1.27335E-05-3.06781E-06 9.04729E-26
 -1       604-1.27650E-05-2.97818E-06 0.00000E+00
 -1       605-1.27965E-05-2.86230E-06 0.00000E+00
 -1       606-1.28273E-05-2.79315E-06 0.00000E+00
 -1       607-1.28579E-05-2.84374E-06 2.06795E-25
 -1       608-1.18714E-05-2.49124E-06 0.00000E+00
 -1       609-1.09710E-05-2.53694E-06 0.00000E+00
 -1       610-1.00136E-05-2.58290E-06 0.00000E+00
 -1       611-9.07014E-06-2.62921E-06 0.00000E+00
 -1       612-8.21178E-06-2.67553E-06 7.23783E-25
 -1       613-1.20924E-05-2.75609E-06 0.00000E+00
 -1       614-1.15809E-05-2.99310E-06 0.00000E+00
 -1       615-1.11087E-05-3.17665E-06 6.61744E-24
 -1       616-1.06677E-05-3.31681E-06 0.00000E+00
 -1       617-1.02509E-05-3.42441E-06 6.61744E-24
 -1       618-9.85073E-06-3.50991E-06-3.30872E-24
 -1       619-9.45963E-06-3.58373E-06 6.61744E-24
 -1       620-9.07068E-06-3.65673E-06-3.30872E-24
 -1       621-8.67569E-06-3.73884E-06 0.00000E+00
 -1       622-1.27675E-05-3.31166E-06 3.30872E-24
 -1       623-1.26514E-05-3.30605E-06 0.00000E+00
 -1       624-1.25353E-05-3.14007E-06 0.00000E+00
 -1       625-1.24191E-05-2.88489E-06 0.00000E+00
 -1       626-1.23029E-05-2.61158E-06 0.00000E+00
 -1       627-1.21867E-05-2.39123E-06 0.00000E+00
 -1       628-1.20705E-05-2.29498E-06 0.00000E+00
 -1       629-1.22548E-05-3.20541E-06 0.00000E+00
 -1       630-1.14364E-05-3.33437E-06 0.00000E+00
 -1       631-1.05282E-05-3.46377E-06 0.00000E+00
 -1       632-9.63122E-06-3.59356E-06 0.00000E+00
 -1       633-8.84674E-06-3.72322E-06 8.27181E-25
 -1       634-1.23771E-05-3.20880E-06-6.61744E-24
 -1       635-1.18816E-05-3.29989E-06 3.30872E-24
 -1       636-1.14025E-05-3.36807E-06 2.64698E-23
 -1       637-1.09375E-05-3.41538E-06 6.61744E-24
 -1       638-1.04857E-05-3.44478E-06 0.00000E+00
 -1       639-1.00454E-05-3.45878E-06 0.00000E+00
 -1       640-9.61515E-06-3.45990E-06 0.00000E+00
 -1       641-9.19410E-06-3.45112E-06-3.30872E-24
 -1       642-8.77993E-06-3.43435E-06-6.61744E-24
 -1       643-1.17944E-05-2.51072E-06 0.00000E+00
 -1       644-1.16321E-05-2.44280E-06 0.00000E+00
 -1       645-1.14697E-05-2.24739E-06 0.00000E+00
 -1       646-1.13070E-05-1.98283E-06-3.30872E-24
 -1       647-1.11444E-05-1.70737E-06 0.00000E+00
 -1       648-1.09819E-05-1.47924E-06-1.65436E-24
 -1       649-1.08195E-05-1.35677E-06-3.30872E-24
 -1       650-1.14905E-05-2.55534E-06 0.00000E+00
 -1       651-1.08524E-05-2.72967E-06-1.65436E-24
 -1       652-1.01310E-05-2.90444E-06 0.00000E+00
 -1       653-9.41769E-06-3.07946E-06-1.65436E-24
 -1       654-8.80386E-06-3.25424E-06 0.00000E+00
 -1       655-1.15164E-05-2.41262E-06 6.61744E-24
 -1       656-1.10699E-05-2.42564E-06-3.30872E-24
 -1       657-1.06244E-05-2.43623E-06 0.00000E+00
 -1       658-1.01811E-05-2.44191E-06 0.00000E+00
 -1       659-9.74239E-06-2.44109E-06 0.00000E+00
 -1       660-9.31005E-06-2.43180E-06-6.61744E-24
 -1       661-8.88589E-06-2.41202E-06 0.00000E+00
 -1       662-8.47234E-06-2.38017E-06 0.00000E+00
 -1       663-8.07053E-06-2.33372E-06 0.00000E+00
 -1       664-1.05331E-05-1.46996E-06-3.30872E-24
 -1       665-1.04064E-05-1.40730E-06 0.00000E+00
 -1       666-1.02797E-05-1.25264E-06-3.30872E-24
 -1       667-1.01530E-05-1.04923E-06 0.00000E+00
 -1       668-1.00263E-05-8.40239E-07 3.30872E-24
 -1       669-9.89970E-06-6.68874E-07 1.65436E-24
 -1       670-9.77317E-06-5.78365E-07 3.30872E-24
 -1       671-1.02959E-05-1.53638E-06 0.00000E+00
 -1       672-9.76849E-06-1.68639E-06-1.65436E-24
 -1       673-9.16037E-06-1.83675E-06-3.30872E-24
 -1       674-8.55546E-06-1.98719E-06-8.27181E-25
 -1       675-8.03770E-06-2.13733E-06-1.42172E-25
 -1       676-1.02778E-05-1.34000E-06 0.00000E+00
 -1       677-9.89146E-06-1.27150E-06-3.30872E-24
 -1       678-9.50666E-06-1.19990E-06 0.00000E+00
 -1       679-9.12164E-06-1.12664E-06 0.00000E+00
 -1       680-8.73579E-06-1.05404E-06 0.00000E+00
 -1       681-8.34799E-06-9.84028E-07-6.61744E-24
 -1       682-7.95709E-06-9.18522E-07 0.00000E+00
 -1       683-7.56244E-06-8.59824E-07 3.30872E-24
 -1       684-7.16228E-06-8.09407E-07 0.00000E+00
 -1       685-9.50868E-06-7.04808E-07-3.30872E-24
 -1       686-9.36776E-06-7.36626E-07 0.00000E+00
 -1       687-9.22676E-06-7.24227E-07 0.00000E+00
 -1       688-9.08561E-06-6.84989E-07 1.65436E-24
 -1       689-8.94448E-06-6.36263E-07 0.00000E+00
 -1       690-8.80362E-06-5.95399E-07 0.00000E+00
 -1       691-8.66290E-06-5.79761E-07 3.30872E-24
 -1       692-9.33072E-06-6.35327E-07-4.13590E-25
 -1       693-8.84294E-06-6.64642E-07 1.55096E-25
 -1       694-8.26305E-06-6.94091E-07-5.16988E-26
 -1       695-7.67029E-06-7.23383E-07 0.00000E+00
 -1       696-7.14390E-06-7.52417E-07 1.65436E-24
 -1       697-9.43705E-06-5.88917E-07 0.00000E+00
 -1       698-9.24477E-06-5.35319E-07-3.30872E-24
 -1       699-9.06472E-06-4.65066E-07-6.61744E-24
 -1       700-8.88755E-06-3.90282E-07 3.30872E-24
 -1       701-8.70437E-06-3.23406E-07-6.61744E-24
 -1       702-8.50610E-06-2.76755E-07 0.00000E+00
 -1       703-8.28365E-06-2.62652E-07 6.61744E-24
 -1       704-8.02829E-06-2.93703E-07 0.00000E+00
 -1       705-7.73051E-06-3.81991E-07-3.30872E-24
 -1       706-8.29449E-06-6.65274E-07 0.00000E+00
 -1       707-8.05739E-06-7.07261E-07 0.00000E+00
 -1       708-7.81994E-06-7.32875E-07 6.61744E-24
 -1       709-7.58182E-06-7.42477E-07 3.30872E-24
 -1       710-7.34368E-06-7.36417E-07-6.61744E-24
 -1       711-7.10612E-06-7.15035E-07 3.30872E-24
 -1       712-6.86887E-06-6.78660E-07 6.61744E-24
 -1       713-8.45352E-06-5.93378E-07 0.00000E+00
 -1       714-8.34970E-06-5.83295E-07-4.13590E-25
 -1       715-8.20215E-06-5.73367E-07-8.27181E-25
 -1       716-7.99976E-06-5.63684E-07 3.10193E-25
 -1       717-7.73139E-06-5.54055E-07-8.27181E-25
 -1       718-8.45284E-06-6.59544E-07 0.00000E+00
 -1       719-8.37183E-06-7.28914E-07 4.13590E-25
 -1       720-8.28449E-06-8.06987E-07-8.27181E-25
 -1       721-8.19568E-06-8.87548E-07 4.13590E-25
 -1       722-8.10997E-06-9.64171E-07 0.00000E+00
 -1       723-8.03209E-06-1.03056E-06-4.13590E-25
 -1       724-7.96676E-06-1.08039E-06 8.27181E-25
 -1       725-7.91890E-06-1.10753E-06 0.00000E+00
 -1       726-7.89310E-06-1.10553E-06-2.06795E-25
 -1       727-6.31485E-06-5.38348E-07 0.00000E+00
 -1       728-5.98139E-06-3.85605E-07 0.00000E+00
 -1       729-5.64733E-06-1.68921E-07 0.00000E+00
 -1       730-5.31207E-06 1.12123E-07 0.00000E+00
 -1       731-4.97653E-06 4.58007E-07 0.00000E+00
 -1       732-4.64095E-06 8.69266E-07 0.00000E+00
 -1       733-4.30539E-06 1.34651E-06 0.00000E+00
 -1       734-6.78006E-06-6.94645E-07 0.00000E+00
 -1       735-7.00209E-06-7.69099E-07-4.13590E-25
 -1       736-7.26447E-06-8.43963E-07 0.00000E+00
 -1       737-7.52742E-06-9.19550E-07-8.27181E-25
 -1       738-7.75115E-06-9.95306E-07 1.65436E-24
 -1       739-6.63293E-06-5.41857E-07 0.00000E+00
 -1       740-6.65300E-06-4.25835E-07 0.00000E+00
 -1       741-6.70307E-06-2.70034E-07-1.65436E-24
 -1       742-6.78955E-06-6.60628E-08 8.27181E-25
 -1       743-6.91869E-06 1.94629E-07 0.00000E+00
 -1       744-7.09686E-06 5.20516E-07 0.00000E+00
 -1       745-7.33041E-06 9.20087E-07 0.00000E+00
 -1       746-7.62583E-06 1.40174E-06 0.00000E+00
 -1       747-7.98945E-06 1.97404E-06 0.00000E+00
 -1       748-3.58116E-06 2.84323E-06-1.32349E-23
 -1       749-3.18762E-06 4.30124E-06-6.61744E-24
 -1       750-2.79453E-06 6.15621E-06 0.00000E+00
 -1       751-2.40172E-06 8.29904E-06 6.61744E-24
 -1       752-2.00950E-06 1.06211E-05 0.00000E+00
 -1       753-1.61861E-06 1.30140E-05 0.00000E+00
 -1       754-1.22825E-06 1.53691E-05 6.61744E-24
 -1       755-4.58319E-06 2.02477E-06 0.00000E+00
 -1       756-5.25356E-06 2.15136E-06-3.30872E-24
 -1       757-5.97789E-06 2.27728E-06-3.30872E-24
 -1       758-6.75156E-06 2.40168E-06 0.00000E+00
 -1       759-7.57002E-06 2.52549E-06 0.00000E+00
 -1       760-4.11643E-06 2.73685E-06 0.00000E+00
 -1       761-4.42510E-06 3.80780E-06 0.00000E+00
 -1       762-4.87518E-06 5.06725E-06 1.32349E-23
 -1       763-5.44106E-06 6.48135E-06 0.00000E+00
 -1       764-6.09777E-06 8.01615E-06 1.32349E-23
 -1       765-6.82028E-06 9.63793E-06 0.00000E+00
 -1       766-7.58359E-06 1.13130E-05-1.32349E-23
 -1       767-8.36374E-06 1.30072E-05 0.00000E+00
 -1       768-9.13481E-06 1.46877E-05 6.61744E-24
 -1       769-6.73383E-07 1.96675E-05 6.61744E-24
 -1       770-4.97280E-07 2.18462E-05 0.00000E+00
 -1       771-3.21285E-07 2.40891E-05 6.61744E-24
 -1       772-1.45345E-07 2.63703E-05 3.30872E-24
 -1       773 3.04179E-08 2.86640E-05 0.00000E+00
 -1       774 2.05554E-07 3.09443E-05 1.65436E-24
 -1       775 3.80437E-07 3.31854E-05 3.30872E-24
 -1       776-2.64565E-06 1.73793E-05-1.65436E-24
 -1       777-4.20783E-06 1.71646E-05 0.00000E+00
 -1       778-5.62345E-06 1.69495E-05 0.00000E+00
 -1       779-6.98193E-06 1.67338E-05 1.65436E-24
 -1       780-8.37266E-06 1.65181E-05 0.00000E+00
 -1       781-1.86043E-06 1.93030E-05 6.61744E-24
 -1       782-2.84671E-06 2.09991E-05 0.00000E+00
 -1       783-3.81488E-06 2.26715E-05-6.61744E-24
 -1       784-4.76977E-06 2.43269E-05 3.30872E-24
 -1       785-5.71662E-06 2.59716E-05 6.61744E-24
 -1       786-6.66055E-06 2.76122E-05 0.00000E+00
 -1       787-7.60665E-06 2.92551E-05 0.00000E+00
 -1       788-8.56060E-06 3.09065E-05 0.00000E+00
 -1       789-9.52689E-06 3.25732E-05 0.00000E+00
 -1       790 6.01410E-07 3.75402E-05-1.65436E-24
 -1       791 6.53392E-07 3.97943E-05-8.27181E-25
 -1       792 7.05261E-07 4.20999E-05 0.00000E+00
 -1       793 7.57057E-07 4.44331E-05-8.27181E-25
 -1       794 8.08771E-07 4.67700E-05 0.00000E+00
 -1       795 8.60224E-07 4.90867E-05 4.13590E-25
 -1       796 9.11618E-07 5.13594E-05 0.00000E+00
 -1       797-1.44333E-06 3.51843E-05 0.00000E+00
 -1       798-3.30870E-06 3.49974E-05 0.00000E+00
 -1       799-5.09746E-06 3.48103E-05 0.00000E+00
 -1       800-6.86106E-06 3.46230E-05 0.00000E+00
 -1       801-8.65096E-06 3.44357E-05 0.00000E+00
 -1       802-6.14367E-07 3.71237E-05-3.30872E-24
 -1       803-1.76937E-06 3.88802E-05 0.00000E+00
 -1       804-2.91904E-06 4.06300E-05 0.00000E+00
 -1       805-4.06400E-06 4.23743E-05 1.65436E-24
 -1       806-5.20535E-06 4.41139E-05 0.00000E+00
 -1       807-6.34399E-06 4.58498E-05 0.00000E+00
 -1       808-7.48083E-06 4.75830E-05 0.00000E+00
 -1       809-8.61712E-06 4.93142E-05 0.00000E+00
 -1       810-9.75336E-06 5.10448E-05 0.00000E+00
 -1       811 9.61939E-07 5.57348E-05 0.00000E+00
 -1       812 9.63744E-07 5.79336E-05 0.00000E+00
 -1       813 9.65516E-07 6.01496E-05 5.16988E-26
 -1       814 9.67276E-07 6.23720E-05 0.00000E+00
 -1       815 9.68982E-07 6.45895E-05 0.00000E+00
 -1       816 9.70452E-07 6.67913E-05 0.00000E+00
 -1       817 9.71840E-07 6.89663E-05 1.65436E-24
 -1       818-1.10428E-06 5.34358E-05 0.00000E+00
 -1       819-3.08772E-06 5.33021E-05-1.65436E-24
 -1       820-5.02406E-06 5.31683E-05 3.30872E-24
 -1       821-6.94778E-06 5.30346E-05-1.65436E-24
 -1       822-8.89337E-06 5.29009E-05-1.65436E-24
 -1       823-2.87010E-07 5.52988E-05 8.27181E-25
 -1       824-1.52391E-06 5.70231E-05-4.13590E-25
 -1       825-2.75240E-06 5.87365E-05-1.65436E-24
 -1       826-3.97281E-06 6.04395E-05-8.27181E-25
 -1       827-5.18576E-06 6.21328E-05-1.65436E-24
 -1       828-6.39177E-06 6.38168E-05-8.27181E-25
 -1       829-7.59133E-06 6.54920E-05 8.27181E-25
 -1       830-8.78516E-06 6.71589E-05 4.13590E-25
 -1       831-9.97352E-06 6.88182E-05-1.03398E-25
 -1       832-1.10319E-06 7.09990E-05 0.00000E+00
 -1       833-3.14048E-06 7.08922E-05 1.65436E-24
 -1       834-5.15282E-06 7.07854E-05 0.00000E+00
 -1       835-7.15216E-06 7.06787E-05 0.00000E+00
 -1       836-9.15046E-06 7.05721E-05 0.00000E+00
 -1       837-6.90174E-06 2.00196E-07 0.00000E+00
 -1       838-6.98922E-06-3.62453E-07-8.27181E-25
 -1       839-7.07667E-06-8.12688E-07 1.65436E-24
 -1       840-7.16416E-06-1.18889E-06 0.00000E+00
 -1       841-7.25157E-06-1.52939E-06-3.30872E-24
 -1       842-7.33860E-06-1.87258E-06 8.27181E-25
 -1       843-7.42545E-06-2.25684E-06 0.00000E+00
 -1       844-5.82006E-06 7.66144E-07 0.00000E+00
 -1       845-4.66661E-06 6.14893E-07 0.00000E+00
 -1       846-3.43115E-06 4.63160E-07-3.30872E-24
 -1       847-2.19046E-06 3.10426E-07 0.00000E+00
 -1       848-1.02135E-06 1.57365E-07 0.00000E+00
 -1       849-6.28195E-06 3.29840E-07-8.27181E-25
 -1       850-5.78609E-06-1.92839E-07-8.27181E-25
 -1       851-5.32797E-06-6.64535E-07 0.00000E+00
 -1       852-4.90264E-06-1.09128E-06 1.65436E-24
 -1       853-4.50593E-06-1.47965E-06 3.30872E-24
 -1       854-4.13336E-06-1.83594E-06 8.27181E-25
 -1       855-3.78042E-06-2.16647E-06 0.00000E+00
 -1       856-3.44320E-06-2.47796E-06-4.13590E-25
 -1       857-3.11660E-06-2.77626E-06 0.00000E+00
 -1       858-7.60208E-06-3.12223E-06-8.27181E-25
 -1       859-7.69893E-06-3.34892E-06 0.00000E+00
 -1       860-7.79593E-06-3.45029E-06-1.65436E-24
 -1       861-7.89326E-06-3.47692E-06-1.65436E-24
 -1       862-7.99054E-06-3.47933E-06 0.00000E+00
 -1       863-8.08730E-06-3.50806E-06-1.65436E-24
 -1       864-8.18378E-06-3.61371E-06 1.65436E-24
 -1       865-6.80681E-06-2.77592E-06 0.00000E+00
 -1       866-5.96740E-06-2.83386E-06-8.27181E-25
 -1       867-5.06882E-06-2.89211E-06 0.00000E+00
 -1       868-4.18968E-06-2.95105E-06 0.00000E+00
 -1       869-3.40861E-06-3.01023E-06 1.65436E-24
 -1       870-7.12118E-06-3.04900E-06 0.00000E+00
 -1       871-6.77446E-06-3.31349E-06-3.30872E-24
 -1       872-6.46662E-06-3.52558E-06 0.00000E+00
 -1       873-6.19084E-06-3.69386E-06 0.00000E+00
 -1       874-5.94097E-06-3.82739E-06-3.30872E-24
 -1       875-5.71060E-06-3.93504E-06 1.65436E-24
 -1       876-5.49332E-06-4.02564E-06 0.00000E+00
 -1       877-5.28323E-06-4.10839E-06 0.00000E+00
 -1       878-5.07337E-06-4.19172E-06 0.00000E+00
 -1       879-8.28741E-06-4.04433E-06 0.00000E+00
 -1       880-8.30124E-06-4.05847E-06 0.00000E+00
 -1       881-8.31512E-06-3.94442E-06 0.00000E+00
 -1       882-8.32913E-06-3.75845E-06-5.16988E-26
 -1       883-8.34307E-06-3.55674E-06 0.00000E+00
 -1       884-8.35666E-06-3.39550E-06 0.00000E+00
 -1       885-8.37006E-06-3.33097E-06 3.61892E-25
 -1       886-7.77595E-06-3.91601E-06 0.00000E+00
 -1       887-7.14995E-06-3.98993E-06 0.00000E+00
 -1       888-6.47121E-06-4.06416E-06-1.65436E-24
 -1       889-5.81434E-06-4.13895E-06 0.00000E+00
 -1       890-5.25396E-06-4.21388E-06-1.65436E-24
 -1       891-7.95128E-06-4.00092E-06 0.00000E+00
 -1       892-7.65470E-06-4.10804E-06 0.00000E+00
 -1       893-7.38643E-06-4.17676E-06-6.61744E-24
 -1       894-7.14215E-06-4.21223E-06-3.30872E-24
 -1       895-6.91836E-06-4.22015E-06 0.00000E+00
 -1       896-6.71118E-06-4.20595E-06 0.00000E+00
 -1       897-6.51678E-06-4.17506E-06 3.30872E-24
 -1       898-6.33175E-06-4.13323E-06 1.65436E-24
 -1       899-6.15174E-06-4.08549E-06 0.00000E+00
 -1       900-8.29520E-06-3.49637E-06-3.30872E-24
 -1       901-8.20911E-06-3.39978E-06 0.00000E+00
 -1       902-8.12297E-06-3.18437E-06 0.00000E+00
 -1       903-8.03669E-06-2.90595E-06 0.00000E+00
 -1       904-7.95036E-06-2.62027E-06-3.30872E-24
 -1       905-7.86392E-06-2.38305E-06 8.27181E-25
 -1       906-7.77743E-06-2.25010E-06-1.65436E-24
 -1       907-8.02658E-06-3.51689E-06 8.27181E-25
 -1       908-7.56663E-06-3.62218E-06 8.27181E-25
 -1       909-7.06593E-06-3.72778E-06 1.65436E-24
 -1       910-6.59049E-06-3.83377E-06 0.00000E+00
 -1       911-6.20634E-06-3.93973E-06 0.00000E+00
 -1       912-8.07419E-06-3.46084E-06-3.30872E-24
 -1       913-7.77427E-06-3.48258E-06 0.00000E+00
 -1       914-7.48605E-06-3.48800E-06 6.61744E-24
 -1       915-7.20933E-06-3.47670E-06 0.00000E+00
 -1       916-6.94477E-06-3.44887E-06 6.61744E-24
 -1       917-6.69265E-06-3.40443E-06 0.00000E+00
 -1       918-6.45324E-06-3.34327E-06 0.00000E+00
 -1       919-6.22715E-06-3.26551E-06 0.00000E+00
 -1       920-6.01428E-06-3.17072E-06 0.00000E+00
 -1       921-7.57523E-06-2.28502E-06 3.30872E-24
 -1       922-7.45941E-06-2.11249E-06 0.00000E+00
 -1       923-7.34355E-06-1.82121E-06 0.00000E+00
 -1       924-7.22761E-06-1.47383E-06-1.65436E-24
 -1       925-7.11163E-06-1.13291E-06 0.00000E+00
 -1       926-6.99553E-06-8.61047E-07-1.65436E-24
 -1       927-6.87937E-06-7.20881E-07-3.30872E-24
 -1       928-7.41210E-06-2.40066E-06 0.00000E+00
 -1       929-7.04365E-06-2.53468E-06 0.00000E+00
 -1       930-6.64240E-06-2.66899E-06-3.30872E-24
 -1       931-6.26618E-06-2.80337E-06 0.00000E+00
 -1       932-5.97279E-06-2.93751E-06 6.20385E-25
 -1       933-7.32599E-06-2.24248E-06 0.00000E+00
 -1       934-6.94001E-06-2.22079E-06 0.00000E+00
 -1       935-6.54561E-06-2.20939E-06 0.00000E+00
 -1       936-6.14822E-06-2.20008E-06 0.00000E+00
 -1       937-5.75440E-06-2.18553E-06 1.32349E-23
 -1       938-5.37016E-06-2.15801E-06 6.61744E-24
 -1       939-5.00154E-06-2.10975E-06 0.00000E+00
 -1       940-4.65477E-06-2.03313E-06 0.00000E+00
 -1       941-4.33560E-06-1.92011E-06-6.61744E-24
 -1       942-6.83218E-06-8.61681E-07 0.00000E+00
 -1       943-6.91105E-06-8.05589E-07 0.00000E+00
 -1       944-6.99043E-06-6.60959E-07 0.00000E+00
 -1       945-7.07079E-06-4.83080E-07 8.27181E-25
 -1       946-7.15129E-06-3.27192E-07 1.65436E-24
 -1       947-7.23139E-06-2.48531E-07-8.27181E-25
 -1       948-7.31128E-06-3.02375E-07 1.65436E-24
 -1       949-6.37075E-06-9.32015E-07-8.27181E-25
 -1       950-5.83604E-06-1.10245E-06 0.00000E+00
 -1       951-5.24741E-06-1.27310E-06 0.00000E+00
 -1       952-4.69446E-06-1.44326E-06-8.27181E-25
 -1       953-4.26681E-06-1.61280E-06 0.00000E+00
 -1       954-6.17184E-06-6.12377E-07 0.00000E+00
 -1       955-5.55511E-06-4.51400E-07 6.61744E-24
 -1       956-4.92533E-06-3.05878E-07-1.32349E-23
 -1       957-4.27942E-06-1.78095E-07 0.00000E+00
 -1       958-3.61657E-06-7.21071E-08 0.00000E+00
 -1       959-2.93493E-06 8.77218E-09 6.61744E-24
 -1       960-2.23259E-06 6.11944E-08 1.32349E-23
 -1       961-1.50873E-06 8.09310E-08 6.61744E-24
 -1       962-7.60050E-07 6.55202E-08 0.00000E+00
 -1       963-7.44564E-06-8.67524E-07-1.42172E-25
 -1       964-7.50952E-06-1.08485E-06-8.27181E-25
 -1       965-7.57364E-06-1.21163E-06 0.00000E+00
 -1       966-7.63826E-06-1.26452E-06 8.27181E-25
 -1       967-7.70299E-06-1.26013E-06-1.65436E-24
 -1       968-7.76770E-06-1.21512E-06-8.27181E-25
 -1       969-7.83241E-06-1.14613E-06 1.65436E-24
 -1       970-6.55021E-06-4.55028E-07-4.13590E-25
 -1       971-5.28721E-06-3.64602E-07 0.00000E+00
 -1       972-3.79825E-06-2.74234E-07 3.30872E-24
 -1       973-2.28591E-06-1.83494E-07 1.65436E-24
 -1       974-9.52762E-07-9.24148E-08-3.30872E-24
 -1       975-7.11611E-06-7.83011E-07 0.00000E+00
 -1       976-6.88437E-06-9.68891E-07 8.27181E-25
 -1       977-6.68725E-06-1.10850E-06 0.00000E+00
 -1       978-6.51967E-06-1.20852E-06 0.00000E+00
 -1       979-6.37681E-06-1.27578E-06 1.65436E-24
 -1       980-6.25385E-06-1.31710E-06 0.00000E+00
 -1       981-6.14597E-06-1.33930E-06-8.27181E-25
 -1       982-6.04940E-06-1.34998E-06-4.13590E-25
 -1       983-5.95829E-06-1.35520E-06-3.30872E-24
 -1       984-7.96239E-06-9.59314E-07 1.65436E-24
 -1       985-8.02964E-06-7.48957E-07 0.00000E+00
 -1       986-8.09694E-06-4.37954E-07 1.65436E-24
 -1       987-8.16432E-06-2.57813E-08-8.27181E-25
 -1       988-8.23166E-06 4.88086E-07-1.65436E-24
 -1       989-8.29863E-06 1.10412E-06 4.13590E-25
 -1       990-8.36545E-06 1.82283E-06-4.13590E-25
 -1       991-7.76096E-06-1.11619E-06 0.00000E+00
 -1       992-7.42873E-06-1.16310E-06 0.00000E+00
 -1       993-6.98674E-06-1.21050E-06 3.30872E-24
 -1       994-6.52298E-06-1.25946E-06 0.00000E+00
 -1       995-6.12538E-06-1.30920E-06 0.00000E+00
 -1       996-7.98894E-06-9.88579E-07 4.13590E-25
 -1       997-8.14286E-06-8.24488E-07 4.13590E-25
 -1       998-8.35448E-06-5.83481E-07 4.13590E-25
 -1       999-8.61952E-06-2.71249E-07-2.06795E-25
 -1      1000-8.93381E-06 1.06446E-07 0.00000E+00
 -1      1001-9.29325E-06 5.43801E-07-4.13590E-25
 -1      1002-9.69367E-06 1.03503E-06-1.65436E-24
 -1      1003-1.01317E-05 1.57376E-06 1.65436E-24
 -1      1004-1.06024E-05 2.15473E-06 6.61744E-24
 -1      1005-8.60267E-06 3.75334E-06 8.27181E-25
 -1      1006-8.78588E-06 5.17553E-06-1.65436E-24
 -1      1007-8.96987E-06 6.84068E-06 3.30872E-24
 -1      1008-9.15500E-06 8.67739E-06-3.30872E-24
 -1      1009-9.34031E-06 1.06143E-05 0.00000E+00
 -1      1010-9.52489E-06 1.25799E-05 0.00000E+00
 -1      1011-9.70898E-06 1.45026E-05-3.30872E-24
 -1      1012-9.07621E-06 2.66857E-06 0.00000E+00
 -1      1013-9.50506E-06 2.69271E-06 0.00000E+00
 -1      1014-9.81873E-06 2.71639E-06-8.27181E-25
 -1      1015-1.01216E-05 2.73828E-06-8.27181E-25
 -1      1016-1.05179E-05 2.75922E-06-3.30872E-24
 -1      1017-8.90281E-06 3.53401E-06-3.30872E-24
 -1      1018-9.48334E-06 4.57547E-06-1.65436E-24
 -1      1019-1.01591E-05 5.74411E-06 6.61744E-24
 -1      1020-1.09136E-05 7.01861E-06 3.30872E-24
 -1      1021-1.17313E-05 8.37720E-06 0.00000E+00
 -1      1022-1.25964E-05 9.79834E-06 0.00000E+00
 -1      1023-1.34931E-05 1.12605E-05-3.30872E-24
 -1      1024-1.44066E-05 1.27414E-05 0.00000E+00
 -1      1025-1.53201E-05 1.42204E-05 0.00000E+00
 -1      1026-9.95996E-06 1.81838E-05-4.39440E-25
 -1      1027-1.00395E-05 2.03006E-05 0.00000E+00
 -1      1028-1.01196E-05 2.25933E-05-1.65436E-24
 -1      1029-1.02003E-05 2.49921E-05 0.00000E+00
 -1      1030-1.02811E-05 2.74273E-05 0.00000E+00
 -1      1031-1.03615E-05 2.98294E-05-8.27181E-25
 -1      1032-1.04416E-05 3.21286E-05 1.65436E-24
 -1      1033-1.12158E-05 1.62102E-05 3.30872E-24
 -1      1034-1.22237E-05 1.61042E-05 0.00000E+00
 -1      1035-1.30682E-05 1.59979E-05-3.30872E-24
 -1      1036-1.39104E-05 1.58901E-05 0.00000E+00
 -1      1037-1.49115E-05 1.57816E-05 3.30872E-24
 -1      1038-1.07503E-05 1.78214E-05 0.00000E+00
 -1      1039-1.16588E-05 1.94038E-05 3.30872E-24
 -1      1040-1.26103E-05 2.10444E-05 0.00000E+00
 -1      1041-1.35979E-05 2.27346E-05 0.00000E+00
 -1      1042-1.46153E-05 2.44647E-05 0.00000E+00
 -1      1043-1.56562E-05 2.62257E-05 3.30872E-24
 -1      1044-1.67140E-05 2.80084E-05-6.61744E-24
 -1      1045-1.77832E-05 2.98029E-05 1.65436E-24
 -1      1046-1.88562E-05 3.16010E-05-8.27181E-25
 -1      1047-1.05637E-05 3.63537E-05 2.06795E-25
 -1      1048-1.06109E-05 3.86109E-05 0.00000E+00
 -1      1049-1.06585E-05 4.09790E-05 0.00000E+00
 -1      1050-1.07064E-05 4.34091E-05 0.00000E+00
 -1      1051-1.07543E-05 4.58524E-05 0.00000E+00
 -1      1052-1.08019E-05 4.82598E-05 0.00000E+00
 -1      1053-1.08494E-05 5.05826E-05 0.00000E+00
 -1      1054-1.22427E-05 3.41161E-05 0.00000E+00
 -1      1055-1.37499E-05 3.39708E-05 0.00000E+00
 -1      1056-1.51561E-05 3.38253E-05 0.00000E+00
 -1      1057-1.65784E-05 3.36790E-05 0.00000E+00
 -1      1058-1.81340E-05 3.35322E-05 0.00000E+00
 -1      1059-1.15902E-05 3.59426E-05 0.00000E+00
 -1      1060-1.26820E-05 3.76684E-05 0.00000E+00
 -1      1061-1.37957E-05 3.94241E-05 0.00000E+00
 -1      1062-1.49275E-05 4.12052E-05 3.30872E-24
 -1      1063-1.60741E-05 4.30062E-05 0.00000E+00
 -1      1064-1.72321E-05 4.48223E-05-1.65436E-24
 -1      1065-1.83980E-05 4.66484E-05 0.00000E+00
 -1      1066-1.95688E-05 4.84791E-05-1.65436E-24
 -1      1067-2.07405E-05 5.03100E-05 0.00000E+00
 -1      1068-1.09272E-05 5.49082E-05 8.27181E-25
 -1      1069-1.09602E-05 5.71193E-05 0.00000E+00
 -1      1070-1.09933E-05 5.93791E-05 8.27181E-25
 -1      1071-1.10266E-05 6.16606E-05 4.13590E-25
 -1      1072-1.10599E-05 6.39371E-05-8.27181E-25
 -1      1073-1.10932E-05 6.61817E-05 0.00000E+00
 -1      1074-1.11263E-05 6.83676E-05 0.00000E+00
 -1      1075-1.28176E-05 5.26684E-05 0.00000E+00
 -1      1076-1.46096E-05 5.25609E-05 0.00000E+00
 -1      1077-1.63432E-05 5.24533E-05 0.00000E+00
 -1      1078-1.80908E-05 5.23454E-05 0.00000E+00
 -1      1079-1.99248E-05 5.22372E-05-3.30872E-24
 -1      1080-1.20673E-05 5.44879E-05 1.65436E-24
 -1      1081-1.32410E-05 5.62139E-05 0.00000E+00
 -1      1082-1.44186E-05 5.79454E-05 0.00000E+00
 -1      1083-1.55983E-05 5.96808E-05-1.65436E-24
 -1      1084-1.67791E-05 6.14178E-05 3.30872E-24
 -1      1085-1.79597E-05 6.31545E-05 0.00000E+00
 -1      1086-1.91388E-05 6.48890E-05 3.30872E-24
 -1      1087-2.03153E-05 6.66191E-05 0.00000E+00
 -1      1088-2.14877E-05 6.83431E-05-1.65436E-24
 -1      1089-1.31181E-05 7.04002E-05 0.00000E+00
 -1      1090-1.50138E-05 7.03309E-05 0.00000E+00
 -1      1091-1.68813E-05 7.02617E-05 1.65436E-24
 -1      1092-1.87549E-05 7.01926E-05 0.00000E+00
 -1      1093-2.06691E-05 7.01234E-05 8.27181E-25
 -1      1094-3.48125E-07-7.23503E-07 6.61744E-24
 -1      1095-7.00539E-07-1.26488E-06-3.30872E-24
 -1      1096-1.05307E-06-1.66624E-06-1.32349E-23
 -1      1097-1.40588E-06-1.97042E-06 0.00000E+00
 -1      1098-1.75852E-06-2.22028E-06 0.00000E+00
 -1      1099-2.11019E-06-2.45877E-06 0.00000E+00
 -1      1100-2.46137E-06-2.72887E-06-6.61744E-24
 -1      1101-3.05780E-06-3.41562E-06-6.61744E-24
 -1      1102-3.31693E-06-3.64709E-06 0.00000E+00
 -1      1103-3.57626E-06-3.79563E-06 0.00000E+00
 -1      1104-3.83601E-06-3.88967E-06 3.30872E-24
 -1      1105-4.09567E-06-3.95763E-06 6.61744E-24
 -1      1106-4.35455E-06-4.02797E-06 0.00000E+00
 -1      1107-4.61304E-06-4.12917E-06 6.61744E-24
 -1      1108-5.00235E-06-4.42518E-06 0.00000E+00
 -1      1109-5.14290E-06-4.45473E-06 1.65436E-24
 -1      1110-5.28353E-06-4.40713E-06 0.00000E+00
 -1      1111-5.42431E-06-4.31183E-06 0.00000E+00
 -1      1112-5.56498E-06-4.19823E-06 0.00000E+00
 -1      1113-5.70504E-06-4.09576E-06 0.00000E+00
 -1      1114-5.84478E-06-4.03387E-06 3.30872E-24
 -1      1115-5.96107E-06-4.04116E-06 0.00000E+00
 -1      1116-5.94180E-06-3.95041E-06 0.00000E+00
 -1      1117-5.92242E-06-3.79698E-06 0.00000E+00
 -1      1118-5.90281E-06-3.60868E-06 4.13590E-25
 -1      1119-5.88307E-06-3.41330E-06 8.27181E-25
 -1      1120-5.86295E-06-3.23861E-06-4.13590E-25
 -1      1121-5.84265E-06-3.11242E-06 0.00000E+00
 -1      1122-5.60484E-06-3.00548E-06 0.00000E+00
 -1      1123-5.38419E-06-2.86151E-06 0.00000E+00
 -1      1124-5.16319E-06-2.65877E-06-6.61744E-24
 -1      1125-4.94148E-06-2.42589E-06 0.00000E+00
 -1      1126-4.71957E-06-2.19152E-06 6.61744E-24
 -1      1127-4.49752E-06-1.98424E-06 0.00000E+00
 -1      1128-4.27541E-06-1.83272E-06-6.61744E-24
 -1      1129-3.55554E-06-1.59456E-06 1.32349E-23
 -1      1130-3.04530E-06-1.24907E-06-6.61744E-24
 -1      1131-2.53449E-06-8.08824E-07 0.00000E+00
 -1      1132-2.02259E-06-3.54224E-07 6.61744E-24
 -1      1133-1.51081E-06 3.44252E-08 1.32349E-23
 -1      1134-1.00079E-06 2.76702E-07-6.61744E-24
 -1      1135-4.91686E-07 2.91937E-07 1.32349E-23
 -1      1136-7.00898E-07-4.51501E-07 6.61744E-24
 -1      1137-1.43917E-06-7.80588E-07 0.00000E+00
 -1      1138-2.17949E-06-1.00800E-06 1.32349E-23
 -1      1139-2.92385E-06-1.15512E-06 0.00000E+00
 -1      1140-3.66884E-06-1.24341E-06 0.00000E+00
 -1      1141-4.41260E-06-1.29450E-06 0.00000E+00
 -1      1142-5.15567E-06-1.33009E-06 0.00000E+00
 -1      1143-6.52416E-06-1.32438E-06-1.32349E-23
 -1      1144-7.18072E-06-1.09517E-06 6.61744E-24
 -1      1145-7.83800E-06-7.07354E-07 1.32349E-23
 -1      1146-8.49664E-06-1.84912E-07 0.00000E+00
 -1      1147-9.15532E-06 4.48009E-07-1.32349E-23
 -1      1148-9.81263E-06 1.16698E-06 6.61744E-24
 -1      1149-1.04692E-05 1.94747E-06-1.32349E-23
 -1      1150-1.17402E-05 3.78665E-06 0.00000E+00
 -1      1151-1.23831E-05 5.10074E-06 6.61744E-24
 -1      1152-1.30271E-05 6.64633E-06 0.00000E+00
 -1      1153-1.36725E-05 8.36124E-06 0.00000E+00
 -1      1154-1.43180E-05 1.01832E-05 0.00000E+00
 -1      1155-1.49620E-05 1.20497E-05 0.00000E+00
 -1      1156-1.56051E-05 1.38979E-05 0.00000E+00
 -1      1157-1.66881E-05 1.75005E-05-1.32349E-23
 -1      1158-1.71540E-05 1.95599E-05 6.61744E-24
 -1      1159-1.76207E-05 2.17866E-05 0.00000E+00
 -1      1160-1.80883E-05 2.41222E-05 0.00000E+00
 -1      1161-1.85559E-05 2.65082E-05 1.32349E-23
 -1      1162-1.90221E-05 2.88862E-05-6.61744E-24
 -1      1163-1.94874E-05 3.11976E-05-1.32349E-23
 -1      1164-2.01837E-05 3.55514E-05 6.61744E-24
 -1      1165-2.04325E-05 3.78462E-05 3.30872E-24
 -1      1166-2.06816E-05 4.02305E-05 0.00000E+00
 -1      1167-2.09311E-05 4.26652E-05-3.30872E-24
 -1      1168-2.11806E-05 4.51114E-05 0.00000E+00
 -1      1169-2.14291E-05 4.75302E-05-3.30872E-24
 -1      1170-2.16771E-05 4.98827E-05 0.00000E+00
 -1      1171-2.20094E-05 5.43336E-05-1.65436E-24
 -1      1172-2.21028E-05 5.65908E-05 0.00000E+00
 -1      1173-2.21962E-05 5.88804E-05 0.00000E+00
 -1      1174-2.22897E-05 6.11806E-05 0.00000E+00
 -1      1175-2.23831E-05 6.34700E-05 0.00000E+00
 -1      1176-2.24761E-05 6.57268E-05-1.65436E-24
 -1      1177-2.25688E-05 6.79293E-05-1.65436E-24
 -3
    1PSTEP                         2           1           1          
  100CL  101 1.000000000        1001                     0    1           1
 -4  STRESS      6    1
 -5  SXX         1    4    1    1
 -5  SYY         1    4    2    2
 -5  SZZ         1    4    3    3
 -5  SXY         1    4    1    2
 -5  SYZ         1    4    2    3
 -5  SZX         1    4    3    1
 -1         1 1.68808E+06 6.66237E+05 1.04254E+03 6.40483E+05-2.57690E-10-8.19152E-10
 -1         2 1.47968E+06-5.32404E+02-1.70197E+03 2.06275E+05-3.45608E-11-8.41737E-10
 -1         3 9.31656E+05-4.76556E+04-1.40727E+03 1.03426E+05-3.09228E-11 7.36691E-11
 -1         4 6.39874E+05-3.20754E+04-9.71106E+02 5.99323E+04-5.91172E-11-1.38016E-10
 -1         5 4.62476E+05-3.61475E+03-6.29193E+02 3.90721E+04-4.88853E-11 1.04296E-09
 -1         6 3.41355E+05 1.65955E+04-4.25837E+02 3.03231E+04-1.11186E-10 5.78893E-10
 -1         7 2.32782E+05 2.06194E+04-4.29674E+02 3.87015E+04-1.55751E-11 2.04523E-10
 -1         8 9.65504E+04 4.70583E+04-3.67006E+02 4.11709E+04-9.00400E-11 4.29736E-11
 -1         9 1.60396E+04 1.48378E+05 1.09729E+01-5.20795E+03 9.23137E-11 1.88152E-10
 -1        14 7.44085E+04 2.48664E+05-2.81206E+03 2.90944E+05 2.36469E-11 1.27329E-11
 -1        15 5.42398E+05 9.95097E+04-2.79889E+03 4.03598E+05-6.36646E-11-5.82077E-11
 -1        16 5.35564E+05-3.75710E+04-2.32631E+03 2.39643E+05 6.51805E-11 4.81426E-10
 -1        17 4.41084E+05-4.09870E+04-1.71940E+03 1.51135E+05 1.64922E-10 1.71303E-09
 -1        18 3.43942E+05-7.01789E+03-1.16974E+03 9.96530E+04-1.34378E-10-1.16537E-09
 -1        19 2.77075E+05 2.09017E+04-7.12679E+02 6.14717E+04-1.26477E-10 4.77485E-11
 -1        20 2.48860E+05 1.43880E+04-5.90644E+02 5.57093E+04 5.11591E-12-1.49991E-10
 -1        21 2.23332E+05 4.45900E+04-6.85077E+02 1.20358E+05-3.06197E-10-4.01390E-10
 -1        22 5.03118E+04 2.39501E+05-3.19612E+02 1.10230E+05-5.12955E-10 2.30765E-10
 -1        27-1.69482E+04-3.30420E+04-7.05401E+02 4.79807E+04-8.41283E-11 6.73026E-10
 -1        28 1.01533E+05 6.35626E+04-9.98874E+02 1.85561E+05 6.79089E-11 4.19883E-11
 -1        29 2.67992E+05 8.10833E+03-1.54106E+03 2.43368E+05 3.81988E-11-1.60981E-10
 -1        30 3.24905E+05-1.51854E+04-1.50368E+03 2.10602E+05 8.09450E-11 9.98928E-10
 -1        31 3.06570E+05 1.40823E+04-1.24777E+03 1.81104E+05-1.25813E-10 5.32661E-10
 -1        32 2.29106E+05 5.31421E+04-7.75913E+02 1.18160E+05-8.86757E-11 4.79910E-10
 -1        33 2.10826E+05 2.05891E+04-3.55579E+02 3.68171E+04 2.09184E-11-1.62800E-10
 -1        34 2.97858E+05-2.77343E+04-5.48691E+02 3.97903E+04-2.40258E-10-2.42532E-12
 -1        35 5.57736E+05 3.14450E+05 8.52298E+02 2.32499E+05 4.04119E-10-1.94480E-10
 -1        36 4.63860E+05-4.35527E+04-6.57720E+02 1.47532E+05-4.55861E-09-9.82027E-10
 -1        37 1.94636E+05-6.76768E+04-5.89790E+02 7.27737E+04 1.49771E-09 5.95264E-10
 -1        38 4.62578E+04-6.57904E+04-3.90762E+02 3.53804E+04 6.54813E-09 5.94355E-10
 -1        39-1.23261E+04-1.33051E+05-5.04117E+02 1.55060E+04 2.85336E-08-7.50724E-10
 -1        40-3.67773E+04-1.34325E+05 8.38385E+01 6.10905E+04-4.04725E-11 3.59250E-10
 -1        41-2.14246E+04-7.22619E+03-1.10619E+02 9.34143E+04 1.77351E-11 3.18323E-11
 -1        42 6.64651E+04-6.91542E+03-6.45557E+02 1.44331E+05-8.88273E-11-9.24653E-12
 -1        43 1.81890E+05-1.08528E+04-1.00748E+03 1.67321E+05-1.54917E-10 5.18412E-11
 -1        44 2.70764E+05 8.79894E+03-1.25389E+03 1.86578E+05-3.01497E-10-4.95675E-11
 -1        45 2.80519E+05 8.91275E+04-1.39384E+03 2.44878E+05 3.48336E-10-4.37770E-10
 -1        46 1.55826E+04 8.73331E+04-3.82583E+02 1.09782E+05 5.96477E-11-9.60275E-11
 -1        47-6.41786E+04-5.80774E+04 2.32962E+02 9.29173E+03 1.17628E-10-1.37031E-10
 -1        48-3.82551E+04 9.30883E+04 3.24771E+02 7.86439E+04 1.22054E-09 2.13731E-11
 -1        49 4.01412E+04-2.29706E+04-7.26636E+02 2.00832E+05 2.43169E-09 7.39722E-10
 -1        50 4.41413E+04-7.31920E+04-6.41277E+02 1.32703E+05 2.35589E-09-1.09382E-09
 -1        51 2.10939E+04-6.13033E+04-4.28106E+02 8.03175E+04-5.44954E-09-1.28694E-09
 -1        52-1.08176E+04-1.01494E+05-4.13710E+02 3.40518E+04 1.62358E-08-1.42126E-09
 -1        53-4.72449E+05-2.50574E+05-1.17492E+03 7.92530E+04-1.45178E-10-1.42336E-10
 -1        54-3.74166E+05-4.58093E+04-4.65093E+02 6.14552E+04 1.96032E-10-3.76076E-10
 -1        55-2.21020E+05-3.42071E+04-6.14697E+02 6.97841E+04-1.87779E-10 1.54614E-11
 -1        56-1.36023E+04-2.57849E+04-7.59764E+02 8.67149E+04 7.21279E-10 2.39197E-10
 -1        57 2.49809E+05-1.20097E+04-8.75534E+02 1.05098E+05-2.58296E-10-6.82121E-11
 -1        58 6.19026E+05 1.43820E+04-6.80753E+02 1.68594E+05 4.62599E-11 2.35559E-10
 -1        59 1.30205E+05 1.95152E+05-8.44132E+01 2.68286E+05-2.93781E-10-2.11003E-09
 -1        60-9.00874E+05-8.63039E+04-1.29548E+03 3.74548E+04 3.91861E-10 9.86802E-11
 -1        61-8.70933E+05-6.24005E+04-7.85395E+02 3.09886E+04 3.79044E-10-1.81899E-11
 -1        62-6.78099E+05-7.72137E+04-1.16545E+03 1.17149E+05-3.14481E-09 5.13774E-09
 -1        63-3.85700E+05-6.71711E+04-9.37642E+02 1.18968E+05 6.11161E-09 1.54796E-09
 -1        64-1.60608E+05-3.97181E+04-5.12320E+02 8.28367E+04 6.63825E-09 5.92081E-10
 -1        65-2.83394E+04-2.81769E+04-1.52434E+02 5.83009E+04 2.07319E-08 1.79110E-09
 -1        66 3.39317E+06 2.63511E+03 1.03963E+05 5.30235E-09-4.59717E-11 9.20409E-10
 -1        67 3.42222E+06 1.72873E+04 6.40147E+04-5.54428E-09-6.55702E-10 4.33829E-10
 -1        68 3.40582E+06-3.49539E+02 3.69085E+04-2.09639E-10 5.41038E-11-7.75799E-10
 -1        69 3.41043E+06 2.40554E+03 3.73348E+04-4.33886E-10-6.05056E-11 3.63116E-10
 -1        70 3.40503E+06-4.26413E+02 5.24630E+04 7.49463E-09 2.08703E-10-3.03771E-10
 -1        71 3.43417E+06 3.11706E+04 1.08752E+05 1.01754E-08 3.73314E-10 1.16415E-10
 -1        72 3.38190E+06 4.82052E+03 1.85220E+05-1.66619E-09 3.92209E-10-5.09317E-10
 -1        73-4.85540E+03 7.07742E+05-1.58320E+05 3.53002E+05-5.82077E-11-5.02041E-10
 -1        74-2.40753E+04 6.60517E+05-8.69597E+04 5.96791E+05-7.86713E-11-3.68163E-09
 -1        75 2.19382E+03 6.83982E+05-3.10118E+04 3.52101E+05 7.50333E-12 6.31189E-10
 -1        76 8.11134E+03 6.84260E+05-2.18779E+02 5.97000E+05-1.75532E-10 1.64800E-09
 -1        77 2.27729E+03 6.78974E+05 2.57022E+04 3.52792E+05 1.30967E-10-3.54703E-09
 -1        78 1.94668E+06 1.00773E+06 5.96311E+04 1.40037E+06 4.32919E-10-2.35650E-09
 -1        79 1.99787E+06 9.81828E+05 3.55820E+04 1.39327E+06 3.74712E-10-8.92669E-10
 -1        80 1.95072E+06 1.00938E+06 1.82143E+04 1.40456E+06-2.98314E-10-1.48282E-09
 -1        81 1.98931E+06 9.73121E+05 1.47922E+04 1.39395E+06-1.61890E-10-1.54535E-09
 -1        82 1.95098E+06 1.00931E+06 1.75384E+04 1.40462E+06 8.36735E-10 2.94222E-10
 -1        83 1.99068E+06 9.74729E+05 3.08584E+04 1.39411E+06 1.69621E-10 3.34467E-10
 -1        84 1.94962E+06 1.00846E+06 5.64277E+04 1.40371E+06 1.09139E-10 2.88856E-09
 -1        85 2.02246E+06 1.00828E+06 1.27440E+05 1.39141E+06-2.46473E-10-1.50612E-09
 -1        86 1.93410E+06 1.00232E+06 2.21268E+05 1.38740E+06-1.09139E-10-1.67347E-09
 -1        87 2.12366E+06 1.57927E+03 6.32614E+04 2.18188E-09 1.09284E-10-2.40470E-09
 -1        88 2.14131E+06 1.05208E+04 3.91148E+04 4.24689E-09 2.90410E-10-6.45286E-10
 -1        89 2.13133E+06-2.19582E+02 2.28579E+04 2.73576E-09-2.37427E-10-8.94488E-10
 -1        90 2.13422E+06 1.52576E+03 2.36126E+04-9.61450E-10 1.95127E-10 7.48059E-10
 -1        91 2.13078E+06-2.73871E+02 3.36695E+04 1.69848E-10 1.39055E-10-1.17143E-09
 -1        92 2.14964E+06 2.01863E+04 7.02250E+04-9.97443E-09 3.93022E-10-1.17507E-09
 -1        93 2.11584E+06 3.07509E+03 1.19749E+05 2.05546E-09 4.47519E-10-1.25874E-09
 -1        94-6.00407E+03-1.00105E+06-2.49191E+05 9.04165E+04-1.01863E-10-1.54978E-09
 -1        95-4.23069E+04-1.07210E+06-1.58461E+05 1.53493E+05-1.10049E-10 1.99725E-09
 -1        96 8.79431E+02-1.03027E+06-9.97643E+04 9.00261E+04-2.28738E-10 2.16733E-09
 -1        97-2.92941E+04-1.06157E+06-1.22583E+05 1.53761E+05-2.60115E-10 4.72937E-11
 -1        98-3.72691E+03-1.01220E+06-1.73286E+05 9.01777E+04-5.82077E-10 3.46972E-10
 -1        99 9.44395E+05 4.76868E+05-6.10240E+03 6.72279E+05 7.28505E-10-1.41699E-09
 -1       100 9.66399E+05 4.52106E+05-2.99134E+03 6.64899E+05-9.15406E-10-7.91260E-10
 -1       101 9.43794E+05 4.76784E+05-2.55376E+02 6.71769E+05 3.14776E-09 5.26234E-09
 -1       102 9.67425E+05 4.53053E+05 1.95494E+03 6.64770E+05-1.21645E-10-2.61366E-09
 -1       103 9.43684E+05 4.76661E+05 5.06980E+03 6.71680E+05 3.95175E-10-1.90994E-09
 -1       104 9.68289E+05 4.53930E+05 1.12466E+04 6.64867E+05-2.11060E-10-4.39769E-10
 -1       105 9.43117E+05 4.76301E+05 2.18413E+04 6.71322E+05-4.72937E-11-5.01132E-10
 -1       106 9.80854E+05 4.67295E+05 5.01740E+04 6.63840E+05-1.01863E-10-1.32218E-09
 -1       107 9.37037E+05 4.73782E+05 8.73809E+04 6.64891E+05-3.99450E-09-6.14818E-09
 -1       108 1.44303E+06 1.36544E+03 5.46065E+04-3.26509E-10-1.16535E-11-5.09317E-11
 -1       109 1.45833E+06 9.12469E+03 3.32403E+04-4.06726E-09-2.76112E-10 2.51021E-10
 -1       110 1.44970E+06-1.70530E+02 1.84096E+04 3.89508E-09 1.03428E-10 1.25965E-10
 -1       111 1.45193E+06 1.13174E+03 1.74879E+04 5.71589E-10 8.24993E-11-6.53472E-10
 -1       112 1.44944E+06-1.96102E+02 2.34569E+04-1.61140E-09 1.32107E-10-8.69477E-10
 -1       113 1.46222E+06 1.36409E+04 4.77677E+04 7.15499E-09-1.65800E-10-1.74896E-09
 -1       114 1.43938E+06 2.05796E+03 8.09796E+04 5.33510E-09-2.02045E-10-1.29876E-09
 -1       115-4.08219E+03-8.20967E+05-1.72327E+05 1.70663E+04 3.63798E-11 2.91038E-10
 -1       116-2.93850E+04-8.69967E+05-1.11296E+05 2.89167E+04-8.45830E-11-5.27643E-09
 -1       117 5.42383E+02-8.40698E+05-7.31745E+04 1.69601E+04 3.02407E-10-1.99816E-09
 -1       118-2.34660E+04-8.65027E+05-9.48381E+04 2.90347E+04 2.54659E-10 2.73303E-09
 -1       119-3.12728E+03-8.25962E+05-1.37514E+05 1.69586E+04 1.74623E-10 1.33241E-10
 -1       120 5.37617E+05 2.67898E+05-8.15486E+03 3.80445E+05-1.13005E-10 2.18279E-10
 -1       121 5.50680E+05 2.51259E+05-4.46289E+03 3.75460E+05-3.54703E-10-1.01988E-09
 -1       122 5.36929E+05 2.67752E+05-1.49127E+03 3.79834E+05-4.22460E-10-1.46611E-09
 -1       123 5.51971E+05 2.52459E+05 1.28538E+02 3.75326E+05-6.98151E-10-2.05773E-09
 -1       124 5.36840E+05 2.67680E+05 1.85892E+03 3.79776E+05 5.09658E-10-1.16725E-09
 -1       125 5.52408E+05 2.52886E+05 4.71256E+03 3.75375E+05-3.64884E-09-7.83820E-09
 -1       126 5.36590E+05 2.67519E+05 9.40838E+03 3.79621E+05-2.04636E-11-1.52409E-09
 -1       127 5.57848E+05 2.58738E+05 2.17724E+04 3.74942E+05-1.14983E-09 2.54570E-09
 -1       128 5.33977E+05 2.66383E+05 3.79674E+04 3.76819E+05-1.98270E-10 1.51704E-09
 -1       129 1.02920E+06 1.02657E+03 4.11367E+04 1.42791E-09-1.99937E-11-3.58341E-10
 -1       130 1.04073E+06 6.88628E+03 2.49109E+04 6.37328E-09-7.30778E-11 3.49246E-10
 -1       131 1.03424E+06-1.23795E+02 1.35377E+04 1.15608E-09-1.48437E-10 6.75755E-10
 -1       132 1.03585E+06 8.06497E+02 1.24505E+04-4.58613E-10 2.77082E-10-4.76120E-10
 -1       133 1.03410E+06-1.37715E+02 1.62696E+04 5.41493E-09 8.12347E-11 3.58341E-10
 -1       134 1.04284E+06 9.33184E+03 3.27751E+04-5.37011E-09 1.61113E-10-7.04858E-10
 -1       135 1.02722E+06 1.40018E+03 5.54127E+04 1.13323E-09 1.68329E-10-6.62112E-10
 -1       136-2.77591E+03-5.50202E+05-1.17328E+05-7.02384E+03-2.18279E-11 8.92442E-10
 -1       137-2.00060E+04-5.83550E+05-7.62565E+04-1.19579E+04-1.45519E-11 1.77374E-09
 -1       138 3.72411E+02-5.63538E+05-5.10196E+04-7.03136E+03-7.34417E-11 3.32420E-10
 -1       139-1.68494E+04-5.80890E+05-6.74540E+04-1.19013E+04-5.04770E-11 1.43359E-10
 -1       140-2.27841E+03-5.52853E+05-9.87054E+04-7.07665E+03-2.36469E-10 9.15406E-10
 -1       141 3.45549E+05 1.72218E+05-9.14120E+03 2.44645E+05 2.68130E-10-4.02906E-10
 -1       142 3.53036E+05 1.60764E+05-5.15454E+03 2.41184E+05 1.11868E-10-1.90994E-09
 -1       143 3.44830E+05 1.72023E+05-2.04990E+03 2.43976E+05 2.40334E-10-1.51203E-10
 -1       144 3.54432E+05 1.62109E+05-6.71136E+02 2.41048E+05-1.53705E-10 1.59588E-10
 -1       145 3.44755E+05 1.71971E+05 4.69618E+02 2.43929E+05 1.15165E-10 2.47624E-10
 -1       146 3.54680E+05 1.62346E+05 1.89393E+03 2.41077E+05 2.60115E-10 1.83718E-10
 -1       147 3.44640E+05 1.71895E+05 4.04910E+03 2.43860E+05 1.88720E-10 2.72877E-10
 -1       148 3.57056E+05 1.64942E+05 9.52682E+03 2.40896E+05 3.45608E-11 3.77156E-11
 -1       149 3.43511E+05 1.71374E+05 1.66688E+04 2.42624E+05 1.00044E-11 1.43245E-10
 -1       150 7.51663E+05 7.11738E+02 2.86013E+04 1.13096E-09-1.59405E-10 6.80302E-10
 -1       151 7.59681E+05 4.78968E+03 1.73138E+04 1.91881E-09-7.75793E-11 6.82121E-13
 -1       152 7.55165E+05-8.59149E+01 9.39575E+03-1.81488E-09-2.45469E-10 9.23137E-11
 -1       153 7.56277E+05 5.58809E+02 8.62130E+03-1.17268E-09 1.18862E-10 1.42779E-09
 -1       154 7.55072E+05-9.53641E+01 1.12446E+04 2.56553E-09 1.79699E-10 2.28283E-10
 -1       155 7.61107E+05 6.44543E+03 2.26366E+04-1.12368E-09 3.06632E-10 3.01725E-10
 -1       156 7.50327E+05 9.63407E+02 3.82627E+04-3.02862E-10-9.60704E-11 6.20275E-10
 -1       157-1.83333E+03-3.03638E+05-7.73314E+04-1.42438E+04 3.63798E-12 7.88759E-10
 -1       158-1.31785E+04-3.25622E+05-5.03894E+04-2.41782E+04 7.23048E-11 1.96994E-09
 -1       159 2.49656E+02-3.12407E+05-3.39541E+04-1.42170E+04 2.56932E-11-1.17348E-09
 -1       160-1.13345E+04-3.24065E+05-4.52433E+04-2.41526E+04 7.50333E-11 8.39123E-10
 -1       161-1.54297E+03-3.05186E+05-6.64421E+04-1.42683E+04-1.30967E-10 8.75161E-10
 -1       162 2.41637E+05 1.21655E+05-9.55128E+03 1.71973E+05-2.29306E-10 7.90806E-10
 -1       163 2.45593E+05 1.13566E+05-5.45472E+03 1.69498E+05-2.29647E-10 2.15323E-10
 -1       164 2.40915E+05 1.21427E+05-2.31171E+03 1.71276E+05 9.66338E-11-1.89164E-09
 -1       165 2.47021E+05 1.14983E+05-1.06673E+03 1.69366E+05 7.42375E-11-1.12578E-10
 -1       166 2.40847E+05 1.21385E+05-2.33657E+02 1.71234E+05-7.60281E-11-7.47349E-11
 -1       167 2.47169E+05 1.15123E+05 4.58369E+02 1.69383E+05 9.50280E-11 4.75779E-11
 -1       168 2.40802E+05 1.21352E+05 1.31462E+03 1.71208E+05 2.05887E-10 4.05862E-11
 -1       169 2.47987E+05 1.16051E+05 3.27577E+03 1.69329E+05-1.66210E-10-6.45741E-10
 -1       170 2.40425E+05 1.21152E+05 5.79525E+03 1.70773E+05 8.68567E-11 4.54747E-13
 -1       171 5.27354E+05 4.09283E+02 1.65683E+04 8.12179E-10-8.61455E-11 7.36691E-10
 -1       172 5.31984E+05 2.76794E+03 1.01299E+04-1.59343E-09 5.42388E-11 3.82897E-10
 -1       173 5.29370E+05-5.35525E+01 5.69523E+03-4.60346E-10 3.53127E-11 1.82695E-10
 -1       174 5.30064E+05 3.59909E+02 5.54981E+03-4.76581E-09 5.21171E-11-8.88804E-10
 -1       175 5.29275E+05-6.32777E+01 7.59176E+03-4.91553E-10 4.79500E-11-4.42697E-10
 -1       176 5.33447E+05 4.46688E+03 1.55905E+04 1.51590E-09-1.97656E-10-2.21462E-10
 -1       177 5.25983E+05 6.66559E+02 2.64788E+04 2.01908E-09-1.81653E-10 3.00133E-10
 -1       178-1.20611E+03-1.42776E+05-5.08847E+04-1.48628E+04 5.45697E-12 3.18323E-10
 -1       179-8.66852E+03-1.57246E+05-3.33295E+04-2.52081E+04 1.27784E-10-6.50800E-10
 -1       180 1.68591E+02-1.48519E+05-2.27714E+04-1.48284E+04 1.77351E-11-6.59952E-11
 -1       181-7.76345E+03-1.56482E+05-3.08032E+04-2.51958E+04 1.18234E-10 5.32737E-10
 -1       182-1.06328E+03-1.43536E+05-4.55380E+04-1.48747E+04 3.63798E-11-6.13454E-10
 -1       183 1.98635E+05 1.00354E+05-5.91507E+03 1.41550E+05 6.12772E-11 6.39375E-10
 -1       184 2.02200E+05 9.42252E+04-3.38093E+03 1.39688E+05-1.34833E-10 1.05445E-10
 -1       185 1.98181E+05 1.00223E+05-1.43896E+03 1.41121E+05 1.90767E-10 3.66640E-10
 -1       186 2.03091E+05 9.50937E+04-6.77046E+02 1.39603E+05 3.65276E-10-1.16060E-10
 -1       187 1.98139E+05 1.00197E+05-1.77236E+02 1.41095E+05 9.25127E-11 1.01835E-09
 -1       188 2.03178E+05 9.51757E+04 2.15483E+02 1.39613E+05-6.60592E-11 3.62093E-11
 -1       189 1.98114E+05 1.00178E+05 6.83070E+02 1.41081E+05 1.20792E-10-1.60412E-10
 -1       190 2.03602E+05 9.56787E+04 1.72850E+03 1.39589E+05 1.77522E-10 3.42197E-11
 -1       191 1.97924E+05 1.00061E+05 3.06607E+03 1.40848E+05 1.40517E-10-3.39355E-10
 -1       192 2.40211E+05-3.95224E+01-1.38516E+03-8.17920E-10 7.60072E-11 5.55019E-10
 -1       193 2.39782E+05-2.50460E+02-5.85087E+02-1.54967E-09 2.25087E-10-4.59352E-10
 -1       194 2.40012E+05-5.27774E+00 1.84681E+02 5.14980E-10-4.63686E-11 3.51065E-10
 -1       195 2.40081E+05 6.41685E+01 9.88843E+02-1.18824E-10 5.92888E-11-1.87924E-10
 -1       196 2.39912E+05-1.55649E+01 2.18276E+03 6.20432E-10 3.38298E-11-1.21759E-10
 -1       197 2.41324E+05 1.54008E+03 5.16851E+03-6.76891E-10-1.12725E-10-8.65953E-10
 -1       198 2.38767E+05 2.30691E+02 9.05626E+03 8.22411E-10-8.90151E-11 4.81123E-10
 -1       199-8.83461E+02-1.13848E+05-3.76257E+04-3.92702E+03-7.27596E-12 3.37167E-10
 -1       200-6.41450E+03-1.24543E+05-2.51192E+04-6.66907E+03-2.91038E-11 6.25732E-10
 -1       201 1.31638E+02-1.18015E+05-1.80010E+04-3.92169E+03 1.77067E-11 6.98094E-10
 -1       202-6.57932E+03-1.24680E+05-2.55778E+04-6.65825E+03 2.18279E-11 7.38964E-13
 -1       203-9.10436E+02-1.13708E+05-3.85966E+04-3.93751E+03 2.36469E-11-3.35149E-10
 -1       204 2.35955E+05 1.27775E+05 1.05162E+04 1.73390E+05 4.18368E-11 4.89536E-10
 -1       205 2.40599E+05 1.27603E+05 6.09476E+03 1.73438E+05 8.64020E-11 1.88095E-10
 -1       206 2.36676E+05 1.28085E+05 2.76954E+03 1.74166E+05-3.56977E-11 2.73417E-10
 -1       207 2.39108E+05 1.25997E+05 1.65843E+03 1.73567E+05-1.95996E-10 1.22059E-09
 -1       208 2.36735E+05 1.28119E+05 1.21631E+03 1.74206E+05 2.18279E-11 1.70417E-10
 -1       209 2.39091E+05 1.25985E+05 1.50915E+03 1.73566E+05 1.94234E-10 1.75163E-10
 -1       210 2.36689E+05 1.28091E+05 2.41459E+03 1.74171E+05-1.36424E-12-5.29894E-10
 -1       211 2.40370E+05 1.27352E+05 5.23981E+03 1.73451E+05-5.66729E-11-1.24544E-10
 -1       212 2.36064E+05 1.27834E+05 9.01372E+03 1.73509E+05-1.81899E-12 3.39696E-10
 -1       213-5.50455E+03-3.68339E+02-1.48678E+04 2.89219E-09 1.71999E-10-3.09228E-10
 -1       214-9.71138E+03-2.49730E+03-8.92564E+03 5.77870E-10-9.74111E-13-2.11003E-10
 -1       215-7.33209E+03 4.19888E+01-4.69343E+03-6.93305E-10-1.88676E-11-6.80757E-10
 -1       216-7.90134E+03-2.63884E+02-4.06414E+03 3.31944E-10 1.16348E-10-4.96840E-10
 -1       217-7.31491E+03 4.37623E+01-5.03687E+03 6.83862E-10 2.88554E-11-5.58771E-10
 -1       218-9.97658E+03-2.80516E+03-9.91468E+03-3.13639E-09-3.07205E-11-2.76486E-10
 -1       219-5.25643E+03-4.14605E+02-1.66624E+04-8.98126E-10 1.41124E-10 4.01087E-10
 -1       220-2.16189E+02 5.30726E+04-9.96877E+03 2.00996E+04-2.01453E-10 6.26187E-10
 -1       221-1.69573E+03 5.02273E+04-7.73566E+03 3.40253E+04-3.73120E-10 1.45064E-10
 -1       222 6.05197E+01 5.21345E+04-7.42181E+03 2.00354E+04-3.08319E-10 5.82418E-10
 -1       223-3.64001E+03 4.85835E+04-1.31651E+04 3.40466E+04-5.91399E-10 7.09576E-10
 -1       224-5.23531E+02 5.47030E+04-2.14617E+04 2.00786E+04-2.00089E-10-5.74119E-10
 -1       225 1.71806E+05 1.18459E+05 1.40446E+04 1.43029E+05-3.30374E-10-3.01043E-10
 -1       226 1.65474E+05 1.30792E+05 8.07183E+03 1.46759E+05 6.42331E-12-4.98630E-10
 -1       227 1.72840E+05 1.18811E+05 3.52529E+03 1.44046E+05-2.36383E-10-5.53712E-10
 -1       228 1.63397E+05 1.28701E+05 1.84076E+03 1.46946E+05 1.74452E-10-2.68642E-10
 -1       229 1.72934E+05 1.18864E+05 8.81247E+02 1.44105E+05-3.86910E-09-5.44969E-09
 -1       230 1.63261E+05 1.28578E+05 4.55005E+02 1.46938E+05-3.10706E-10-1.83263E-10
 -1       231 1.72952E+05 1.18874E+05 2.29972E+02 1.44117E+05-2.04409E-10 1.01772E-09
 -1       232 1.63346E+05 1.28503E+05 1.41621E+02 1.46924E+05-1.88265E-10 7.37373E-10
 -1       233 1.72875E+05 1.18948E+05 1.00009E+02 1.44149E+05 4.91127E-10 5.18071E-10
 -1       241 4.14536E+02 3.34097E+05 1.66930E+04-6.06585E+03 5.18412E-11-2.54659E-11
 -1       242 2.83476E+03 3.38823E+05 9.98553E+03-1.03989E+04-9.66338E-11 2.00089E-10
 -1       243-4.27136E+01 3.36138E+05 5.14849E+03-6.08452E+03 1.86446E-10-1.13596E-09
 -1       244 8.69461E+02 3.37182E+05 4.51508E+03-1.03306E+04-2.67164E-10-9.74069E-10
 -1       245 9.02695E+01 3.35756E+05 5.10830E+03-6.13457E+03 4.01656E-10 2.21462E-10
 -1       323-2.61775E+05-1.97819E+03-5.92886E+04 9.93315E+04-1.01863E-10-2.01908E-10
 -1       324-2.78419E+05-1.02107E+04-3.60489E+04 1.67741E+05 7.00311E-11-7.34872E-10
 -1       325-2.69453E+05 5.05272E+01-2.00432E+04 9.88698E+04-1.29148E-10-3.34694E-10
 -1       326-2.72076E+05-1.28684E+03-1.91299E+04 1.68244E+05-2.07820E-10-4.96584E-10
 -1       327-2.69313E+05 2.01068E+02-2.58100E+04 9.88520E+04 5.08180E-11-3.67436E-10
 -1       328-2.83430E+05-1.51497E+04-5.27253E+04 1.67959E+05 2.49656E-10-6.76209E-10
 -1       329-2.58021E+05-2.39405E+03-8.94684E+04 9.91385E+04-1.47338E-10 7.71252E-10
 -1       330-8.53271E+02-1.08223E+04-3.34576E+04 7.26383E+03-3.91083E-11-2.71029E-10
 -1       331-5.67034E+03-2.03235E+04-1.88912E+04 1.26073E+04-1.31649E-10-6.31189E-10
 -1       332 4.35557E+01-1.50721E+04-7.57844E+03 7.34649E+03 1.77351E-11 7.01220E-10
 -1       333 2.22225E+02-1.53330E+04-2.42868E+03 1.23809E+04-7.67386E-12-7.38510E-10
 -1       334 7.37245E+01-1.57598E+04 1.38889E+03 7.47944E+03 4.18368E-11-7.39419E-10
 -1       335 5.38913E+05 3.57241E+05 5.45596E+04 4.39020E+05 9.91349E-11-5.02041E-10
 -1       336 5.27610E+05 3.91906E+05 3.17719E+04 4.49704E+05-1.84173E-10-1.06002E-09
 -1       337 5.42890E+05 3.58572E+05 1.47116E+04 4.42869E+05 1.75532E-10-1.04592E-10
 -1       338 5.19608E+05 3.83822E+05 9.35704E+03 4.50339E+05 5.87988E-10 1.04728E-09
 -1       339 5.43107E+05 3.58776E+05 7.78704E+03 4.43021E+05 2.03727E-10 4.36444E-10
 -1       340 5.19777E+05 3.83905E+05 1.09318E+04 4.50276E+05 1.49157E-10-9.43828E-10
 -1       341 5.42680E+05 3.58567E+05 1.84694E+04 4.42730E+05 3.58341E-10 3.85626E-10
 -1       342 5.29980E+05 3.94434E+05 4.07815E+04 4.49334E+05-2.74667E-10 1.30967E-10
 -1       343 5.37638E+05 3.56713E+05 7.04291E+04 4.37597E+05 2.91038E-11-7.71252E-10
 -1       344 9.02247E+05 3.89708E+02 2.43715E+04 7.77644E+04 6.73026E-11 4.16549E-10
 -1       345 9.09034E+05 4.02773E+03 1.49302E+04 1.31527E+05 8.45830E-11 6.48015E-10
 -1       346 9.04972E+05-8.29102E+01 8.35361E+03 7.75066E+04-3.81988E-11-3.00133E-11
 -1       347 9.05905E+05 6.01676E+02 8.10029E+03 1.31767E+05 4.51109E-10-2.13367E-09
 -1       348 9.04784E+05-5.17602E+01 1.10094E+04 7.75196E+04 2.56705E-10-1.46883E-09
 -1       349 9.10876E+05 6.49215E+03 2.25513E+04 1.31545E+05-3.40151E-10-4.83851E-10
 -1       350 9.00172E+05 8.84548E+02 3.82302E+04 7.77332E+04 4.91127E-11-3.98359E-10
 -1       351-1.88532E+03-1.90145E+05-8.37843E+04 1.15818E+05-6.07542E-10 2.76486E-10
 -1       352-1.37194E+04-2.14281E+05-5.14117E+04 1.96482E+05-1.75760E-10 2.17597E-09
 -1       353 5.32514E+02-2.00340E+05-2.90812E+04 1.15514E+05-3.80169E-10-2.77623E-10
 -1       354-6.24176E+03-2.07905E+05-3.04861E+04 1.96440E+05-1.20963E-10 8.98581E-10
 -1       355-7.41206E+02-1.96391E+05-3.95101E+04 1.15855E+05 3.81988E-11-3.05590E-10
 -1       356 9.54871E+05 5.46441E+05 8.23950E+04 7.20191E+05 7.27596E-10-1.07684E-09
 -1       357 9.69765E+05 5.66619E+05 4.80175E+04 7.26936E+05-4.13138E-10-3.57386E-09
 -1       358 9.60686E+05 5.48658E+05 2.23994E+04 7.26228E+05-3.59273E-09-2.32194E-09
 -1       359 9.58023E+05 5.54252E+05 1.44895E+04 7.28017E+05-2.48633E-10 1.28443E-09
 -1       360 9.61073E+05 5.48910E+05 1.24872E+04 7.26537E+05 1.55296E-10 2.05915E-11
 -1       361 9.58401E+05 5.54541E+05 1.80230E+04 7.28045E+05 4.06999E-11 9.74069E-10
 -1       362 9.60384E+05 5.48519E+05 3.08007E+04 7.26077E+05 4.63842E-11 8.53106E-10
 -1       363 9.75341E+05 5.72323E+05 6.82326E+04 7.26525E+05 3.67436E-10-1.09139E-10
 -1       364 9.52063E+05 5.45293E+05 1.17953E+05 7.17400E+05 6.54836E-11 1.14596E-09
 -1       365 1.01222E+06 1.18533E+03 4.95487E+04 4.29426E+04 1.01863E-10 3.67436E-10
 -1       366 1.02613E+06 8.30416E+03 2.98393E+04 7.26021E+04-3.07864E-10 9.18135E-10
 -1       367 1.01823E+06-1.37848E+02 1.58626E+04 4.28039E+04-3.22871E-11 2.39197E-10
 -1       368 1.02007E+06 9.38138E+02 1.40192E+04 7.27299E+04-9.14611E-11-1.51704E-09
 -1       369 1.01813E+06-1.37408E+02 1.76919E+04 4.28104E+04-3.40606E-10-2.11003E-09
 -1       370 1.02750E+06 9.96076E+03 3.51001E+04 7.26072E+04 1.04819E-10 1.08776E-09
 -1       371 1.01086E+06 1.46391E+03 5.91037E+04 4.29298E+04-2.65572E-10-2.32831E-10
 -1       372-2.79611E+03-6.79510E+05-1.19918E+05 8.56611E+04 1.96451E-10 1.97360E-10
 -1       373-2.01997E+04-7.13734E+05-7.77540E+04 1.45513E+05 9.45874E-11 1.09139E-09
 -1       374 5.33783E+02-6.93298E+05-5.17483E+04 8.53954E+04 3.08319E-10 3.39014E-10
 -1       375-1.66909E+04-7.10821E+05-6.80116E+04 1.45535E+05 1.27329E-10-4.01087E-10
 -1       376-2.21763E+03-6.82478E+05-9.93015E+04 8.56388E+04 8.29459E-10-2.06910E-09
 -1       377 7.69709E+05 4.21483E+05 6.63728E+04 5.67861E+05 4.89308E-10 9.24047E-10
 -1       378 7.90232E+05 4.29224E+05 3.86213E+04 5.70795E+05-3.58341E-10 2.09684E-09
 -1       379 7.74350E+05 4.23320E+05 1.78921E+04 5.72737E+05 2.91038E-11 1.43700E-09
 -1       380 7.80782E+05 4.19224E+05 1.13479E+04 5.71657E+05 1.10276E-10-1.63595E-10
 -1       381 7.74691E+05 4.23514E+05 9.41843E+03 5.72987E+05 8.21899E-10 5.18867E-10
 -1       382 7.80968E+05 4.19385E+05 1.31756E+04 5.71678E+05 6.28575E-10-7.38510E-10
 -1       383 7.74208E+05 4.23236E+05 2.22377E+04 5.72660E+05-3.18323E-11-4.01542E-10
 -1       384 7.93103E+05 4.32198E+05 4.90806E+04 5.70598E+05-2.36469E-10 2.00089E-11
 -1       385 7.68266E+05 4.20878E+05 8.47661E+04 5.66424E+05 1.56433E-10 4.18368E-10
 -1       386 8.56678E+05 1.08618E+03 4.41382E+04 2.55316E+04 1.35969E-10 5.82077E-11
 -1       387 8.69085E+05 7.40617E+03 2.65213E+04 4.31570E+04-3.58341E-10-1.12959E-09
 -1       388 8.62080E+05-1.22139E+02 1.39935E+04 2.54472E+04-7.27596E-11-9.15634E-10
 -1       389 8.63699E+05 8.02403E+02 1.21902E+04 4.32365E+04-6.54296E-10-1.87106E-09
 -1       390 8.62016E+05-1.25079E+02 1.51881E+04 2.54499E+04 6.79847E-11-1.29876E-09
 -1       391 8.69992E+05 8.48183E+03 2.99585E+04 4.31606E+04 3.11957E-10 2.91038E-11
 -1       392 8.55804E+05 1.25888E+03 5.03800E+04 2.55246E+04-3.08773E-10-1.20053E-10
 -1       393-2.43001E+03-6.15412E+05-1.03751E+05 5.28083E+04-8.36735E-10 1.33878E-09
 -1       394-1.76041E+04-6.44941E+05-6.81970E+04 8.96577E+04-4.41560E-10 4.80213E-10
 -1       395 4.02278E+02-6.27132E+05-4.70189E+04 5.26384E+04-9.74296E-10 4.46789E-10
 -1       396-1.61764E+04-6.43770E+05-6.42457E+04 8.96884E+04-1.01863E-10-8.09564E-10
 -1       397-2.18600E+03-6.16626E+05-9.53867E+04 5.27793E+04-5.89353E-10-5.14319E-10
 -1       398 5.93539E+05 3.22438E+05 4.93740E+04 4.36226E+05-4.36557E-11-6.60293E-10
 -1       399 6.10150E+05 3.26863E+05 2.86976E+04 4.38014E+05 1.07320E-10-1.18052E-09
 -1       400 5.96981E+05 3.23821E+05 1.32229E+04 4.39855E+05-3.48155E-09-4.37967E-09
 -1       401 6.03118E+05 3.19406E+05 8.25633E+03 4.38648E+05-1.68257E-10 8.35598E-10
 -1       402 5.97242E+05 3.23969E+05 6.64001E+03 4.40040E+05-1.32445E-11 1.54307E-09
 -1       403 6.03193E+05 3.19478E+05 9.03392E+03 4.38658E+05 3.72893E-11 3.94522E-10
 -1       404 5.96924E+05 3.23782E+05 1.50718E+04 4.39820E+05 3.71074E-10-5.18412E-11
 -1       405 6.11367E+05 3.28131E+05 3.31476E+04 4.37929E+05-2.72848E-11-4.78622E-10
 -1       406 5.92924E+05 3.22182E+05 5.71992E+04 4.35614E+05 2.91038E-11-4.00178E-11
 -1       407 6.98586E+05 8.70590E+02 3.50433E+04 1.39965E+04-1.35515E-10 3.16504E-10
 -1       408 7.08438E+05 5.88274E+03 2.10298E+04 2.36574E+04 3.06727E-10 4.77712E-10
 -1       409 7.02890E+05-9.72878E+01 1.10468E+04 1.39486E+04 6.54950E-10 3.96312E-10
 -1       410 7.04163E+05 6.22530E+02 9.54069E+03 2.37035E+04-1.48077E-11 4.50541E-10
 -1       411 7.02851E+05-1.00276E+02 1.17939E+04 1.39495E+04-2.17608E-09-3.77440E-11
 -1       412 7.09011E+05 6.55352E+03 2.31805E+04 2.36609E+04 2.87628E-11-2.06910E-10
 -1       413 6.98043E+05 9.74745E+02 3.89475E+04 1.39918E+04 8.44466E-10 1.69166E-10
 -1       414-1.72493E+03-3.80574E+05-7.35066E+04 3.37331E+04-2.94676E-10-9.36780E-11
 -1       415-1.25000E+04-4.01480E+05-4.87476E+04 5.72052E+04-5.80712E-10 7.18501E-10
 -1       416 2.74427E+02-3.88794E+05-3.43694E+04 3.36231E+04-3.43334E-10-4.43606E-10
 -1       417-1.22456E+04-4.01285E+05-4.80564E+04 5.72348E+04-6.53017E-10 1.16131E-10
 -1       418-1.67307E+03-3.80798E+05-7.20413E+04 3.37050E+04-9.82254E-11-3.25144E-10
 -1       419 4.18949E+05 2.29017E+05 2.97045E+04 3.08999E+05 1.83718E-10-1.54614E-11
 -1       420 4.28855E+05 2.31760E+05 1.72697E+04 3.10094E+05-1.34378E-10 6.99401E-10
 -1       421 4.21016E+05 2.29853E+05 7.96470E+03 3.11182E+05 1.56206E-10 3.34239E-10
 -1       422 4.24628E+05 2.27270E+05 4.98884E+03 3.10475E+05 1.36765E-10-2.82625E-10
 -1       423 4.21172E+05 2.29941E+05 4.03823E+03 3.11293E+05-9.03810E-11-5.02581E-10
 -1       424 4.24679E+05 2.27321E+05 5.52731E+03 3.10481E+05 1.23919E-11-2.74213E-10
 -1       425 4.20978E+05 2.29824E+05 9.24523E+03 3.11157E+05-9.20863E-11 6.57792E-10
 -1       426 4.29700E+05 2.32637E+05 2.03520E+04 3.10033E+05-1.16643E-10 9.26775E-10
 -1       427 4.18519E+05 2.28842E+05 3.51238E+04 3.08575E+05-5.63887E-11 6.60293E-10
 -1       428 6.35523E+05 8.20570E+02 3.28870E+04 6.45430E+03-8.77662E-11 3.09228E-11
 -1       429 6.44772E+05 5.52087E+03 1.97274E+04 1.09166E+04-2.31921E-11-3.65617E-10
 -1       430 6.39567E+05-9.19478E+01 1.03479E+04 6.43254E+03-1.37788E-10-1.61208E-10
 -1       431 6.40762E+05 5.78443E+02 8.91227E+03 1.09378E+04 1.30401E-10 4.40650E-10
 -1       432 6.39535E+05-9.51865E+01 1.09891E+04 6.43267E+03 3.79714E-11 9.99535E-10
 -1       433 6.45267E+05 6.09529E+03 2.15735E+04 1.09172E+04-1.10674E-10 4.21096E-10
 -1       434 6.35059E+05 9.07630E+02 3.62375E+04 6.45354E+03-1.61322E-10-9.82254E-11
 -1       435-1.10678E+03-1.60624E+05-4.69415E+04 1.06002E+04-6.91216E-11 7.73070E-12
 -1       436-7.99783E+03-1.73969E+05-3.10854E+04 1.79430E+04-2.38515E-10-3.59705E-10
 -1       437 1.62688E+02-1.65868E+05-2.18375E+04 1.05577E+04-4.87717E-11 1.60185E-10
 -1       438-7.75617E+03-1.73772E+05-3.04173E+04 1.79699E+04-2.21917E-10-6.25960E-10
 -1       439-1.06456E+03-1.60830E+05-4.55266E+04 1.05742E+04 2.00089E-11 4.00746E-10
 -1       440 2.65099E+05 1.37580E+05 9.85673E+03 1.90874E+05 6.36646E-11 3.98813E-10
 -1       441 2.72479E+05 1.34379E+05 5.75836E+03 1.90029E+05-1.36424E-10 8.19682E-10
 -1       442 2.65757E+05 1.37883E+05 2.71201E+03 1.91602E+05 8.79936E-11 7.67557E-10
 -1       443 2.71107E+05 1.32868E+05 1.80427E+03 1.90148E+05 4.45937E-10 9.64206E-11
 -1       444 2.65803E+05 1.37908E+05 1.63508E+03 1.91637E+05 5.64512E-10-5.19265E-11
 -1       445 2.71171E+05 1.32928E+05 2.45392E+03 1.90156E+05-5.82077E-11-6.88487E-10
 -1       446 2.65708E+05 1.37850E+05 4.25659E+03 1.91573E+05-3.79714E-11-8.63395E-10
 -1       447 2.73499E+05 1.35438E+05 9.47733E+03 1.89957E+05 1.43700E-10-7.20974E-10
 -1       448 2.64583E+05 1.37365E+05 1.63941E+04 1.90363E+05-1.72804E-11-6.65750E-10
 -1       449 5.35395E+05 6.59480E+02 2.64686E+04 1.36011E+04 3.72893E-11 3.87445E-10
 -1       450 5.42840E+05 4.45172E+03 1.58046E+04 2.30055E+04-9.09495E-12-9.26207E-10
 -1       451 5.38655E+05-6.94841E+01 8.14213E+03 1.35589E+04 7.74207E-11-8.07404E-10
 -1       452 5.39570E+05 4.42567E+02 6.76347E+03 2.30481E+04-4.69100E-11-7.96035E-10
 -1       453 5.38660E+05-6.98251E+01 8.04966E+03 1.35581E+04 5.37739E-11-5.27507E-11
 -1       454 5.42772E+05 4.36727E+03 1.55388E+04 2.30003E+04 3.96881E-10 1.02978E-09
 -1       455 5.35465E+05 6.44714E+02 2.59860E+04 1.36073E+04 5.50244E-11 1.10049E-10
 -1       456-1.08349E+03-1.85980E+05-4.58474E+04-3.41178E+03-2.91038E-11-7.94785E-10
 -1       457-7.81524E+03-1.99009E+05-3.02040E+04-5.78739E+03 3.56977E-11-3.49152E-10
 -1       458 1.53015E+02-1.91124E+05-2.09430E+04-3.40641E+03 3.40492E-11 7.82222E-10
 -1       459-7.30454E+03-1.98579E+05-2.87800E+04-5.77983E+03 1.35060E-10 1.05376E-09
 -1       460-1.00196E+03-1.86409E+05-4.28334E+04-3.41911E+03 1.27329E-11 5.93786E-10
 -1       461 2.79921E+05 1.35752E+05 1.45339E+04 1.95091E+05 4.86580E-11 3.20597E-10
 -1       462 2.92915E+05 1.28950E+05 8.43298E+03 1.93239E+05-1.61435E-11 9.27230E-10
 -1       463 2.80888E+05 1.36209E+05 3.84944E+03 1.96165E+05 4.86580E-10 5.08066E-10
 -1       464 2.90882E+05 1.26702E+05 2.33839E+03 1.93405E+05 2.93767E-10-2.53522E-11
 -1       465 2.80965E+05 1.36256E+05 1.77158E+03 1.96220E+05 2.84999E-10-6.13909E-10
 -1       466 2.90879E+05 1.26694E+05 2.27543E+03 1.93406E+05 3.21961E-10-5.50472E-10
 -1       467 2.80892E+05 1.36214E+05 3.69954E+03 1.96172E+05 1.19599E-10-1.20053E-10
 -1       468 2.92814E+05 1.28853E+05 8.07259E+03 1.93255E+05-2.95586E-11-3.09228E-11
 -1       469 2.79983E+05 1.35764E+05 1.39004E+04 1.95145E+05 1.38243E-10 3.59250E-10
 -1       470-3.26135E+04-7.52052E+02-2.99189E+04 3.48379E+04 1.64619E-10-1.06411E-10
 -1       471-4.10957E+04-5.01193E+03-1.79162E+04 5.90086E+04 5.34783E-10-3.89264E-10
 -1       472-3.63229E+04 9.50977E+01-9.34026E+03 3.47284E+04-6.25846E-10 1.05956E-10
 -1       473-3.74467E+04-4.95223E+02-7.95168E+03 5.91165E+04-2.44995E-10 2.30330E-10
 -1       474-3.62914E+04 8.60741E+01-9.70357E+03 3.47310E+04-1.68257E-11-4.33488E-10
 -1       475-4.13259E+04-5.35869E+03-1.89565E+04 5.89610E+04-1.26420E-10-7.63919E-10
 -1       476-3.23134E+04-8.33187E+02-3.18126E+04 3.48814E+04-2.00089E-10-5.12955E-10
 -1       477-1.51027E+03-3.63538E+05-6.45836E+04 1.87744E+04-2.58296E-10 5.13410E-10
 -1       478-1.10037E+04-3.81887E+05-4.29706E+04 3.18973E+04-4.41560E-10 1.64785E-09
 -1       479 2.27745E+02-3.70715E+05-3.05364E+04 1.87417E+04-1.42222E-10-2.48974E-11
 -1       480-1.10325E+04-3.81896E+05-4.30368E+04 3.18553E+04-2.87400E-10 1.70985E-10
 -1       481-1.52382E+03-3.63507E+05-6.47259E+04 1.88146E+04 1.52795E-10-5.00222E-11
 -1       482 7.01130E+05 3.55844E+05 7.62395E+04 4.98116E+05-2.43745E-10-1.73168E-09
 -1       483 7.36254E+05 3.53279E+05 4.39139E+04 4.98134E+05 3.78350E-10-1.00772E-09
 -1       484 7.06450E+05 3.58017E+05 1.94111E+04 5.03736E+05-1.63709E-10 9.00400E-11
 -1       485 7.25338E+05 3.41650E+05 1.05797E+04 4.99072E+05 2.30102E-10 8.25821E-10
 -1       486 7.06909E+05 3.58322E+05 5.94861E+03 5.04058E+05-6.74163E-11-9.93168E-10
 -1       487 7.24847E+05 3.41092E+05 4.91415E+03 4.99023E+05-5.90262E-10-8.71751E-10
 -1       488 7.06846E+05 3.58331E+05 5.93253E+03 5.04038E+05 8.12179E-10 3.90173E-10
 -1       489 7.27480E+05 3.44007E+05 1.14909E+04 4.98827E+05 2.78897E-09 1.76669E-09
 -1       490 7.05646E+05 3.57704E+05 1.92166E+04 5.02658E+05-5.23869E-10-2.00089E-11
 -1       498 8.31975E+02 5.64992E+05 2.52230E+04 1.45100E+05 7.67614E-10 2.28283E-10
 -1       499 4.71428E+03 5.71893E+05 1.17584E+04 2.45868E+05-9.82254E-10-4.35364E-10
 -1       500 1.93609E+02 5.68563E+05-4.95331E+02 1.44829E+05 9.74978E-10 5.38421E-10
 -1       501-4.44680E+03 5.64929E+05-1.31182E+04 2.45706E+05-9.91349E-10 1.17325E-10
 -1       502-1.08247E+03 5.73066E+05-2.75469E+04 1.45259E+05-2.72848E-11 6.18456E-11
 -1       580-2.48333E+05-5.44509E+02-2.01106E+04 2.86390E+04-1.01863E-10 1.85537E-10
 -1       581-2.53959E+05-3.40044E+03-1.24865E+04 4.83289E+04-4.54747E-10 7.73070E-11
 -1       582-2.50788E+05 4.45652E+01-7.40459E+03 2.85127E+04 1.55069E-10-8.44693E-10
 -1       583-2.51772E+05-5.44292E+02-7.82182E+03 4.84613E+04-7.75913E-11-9.84244E-10
 -1       584-2.50600E+05 7.07983E+01-1.13264E+04 2.85097E+04 1.64505E-10-1.00317E-09
 -1       585-2.57015E+05-6.90573E+03-2.37850E+04 4.83655E+04 3.44130E-10 8.09450E-11
 -1       586-2.45521E+05-1.05393E+03-4.06070E+04 2.86035E+04 1.25056E-10-1.62981E-09
 -1       587-4.59433E+02-2.41710E+05-1.92901E+04 1.06023E+04-4.91127E-11-4.34284E-11
 -1       588-3.25290E+03-2.47190E+05-1.17268E+04 1.80827E+04 2.27374E-10-2.34672E-09
 -1       589 6.47311E+01-2.44035E+05-6.40975E+03 1.05627E+04 5.40581E-11-1.25755E-09
 -1       590-1.31413E+03-2.45564E+05-6.32569E+03 1.80969E+04-3.71756E-11 7.08056E-10
 -1       591-1.46419E+02-2.43340E+05-7.85532E+03 1.05865E+04-9.61791E-11 9.75206E-10
 -1       592 1.92944E+05 1.17093E+05 3.46844E+04 1.49513E+05 4.09818E-09 5.31691E-09
 -1       593 1.97342E+05 1.27516E+05 2.01175E+04 1.52913E+05-1.36652E-10-1.15779E-09
 -1       594 1.95425E+05 1.18007E+05 9.18003E+03 1.52040E+05 7.18205E-09 1.18280E-08
 -1       595 1.92334E+05 1.22321E+05 5.57001E+03 1.53370E+05-6.23004E-11 3.75053E-10
 -1       596 1.95611E+05 1.18120E+05 4.21034E+03 1.52171E+05 5.02268E-10-1.09139E-11
 -1       597 1.92319E+05 1.22301E+05 5.39605E+03 1.53364E+05 1.15051E-10-3.42595E-10
 -1       598 1.95433E+05 1.18020E+05 8.76716E+03 1.52046E+05 3.50838E-10-1.09139E-11
 -1       599 1.97043E+05 1.27254E+05 1.91224E+04 1.52932E+05-3.31852E-09-5.25279E-09
 -1       600 1.93106E+05 1.17124E+05 3.29350E+04 1.49636E+05-4.12001E-10-5.00222E-10
 -1       601-8.80166E+04-7.45372E+02-2.55350E+04 5.74668E+04-8.54925E-11 5.62977E-10
 -1       602-9.52286E+04-4.31306E+03-1.54847E+04 9.71686E+04 2.18279E-11 3.36513E-10
 -1       603-9.12595E+04 6.87082E+01-8.50103E+03 5.72300E+04 4.22915E-10 6.36646E-12
 -1       604-9.23589E+04-4.94769E+02-7.95404E+03 9.74122E+04 2.95245E-10-5.95719E-11
 -1       605-9.11769E+04 9.59134E+01-1.05582E+04 5.72271E+04-3.09228E-10-2.13390E-10
 -1       606-9.68938E+04-6.12540E+03-2.14183E+04 9.72154E+04-2.85581E-10 3.60387E-10
 -1       607-8.65873E+04-9.72964E+02-3.62912E+04 5.74230E+04-5.45697E-11 6.38465E-10
 -1       608-6.61394E+02-1.29152E+05-2.95146E+04 5.57335E+04-5.60249E-10-1.37334E-10
 -1       609-4.84951E+03-1.37628E+05-1.78753E+04 9.45463E+04 6.91784E-11-1.98452E-09
 -1       610 1.71508E+02-1.32755E+05-9.66158E+03 5.55894E+04-4.43379E-11-1.43575E-09
 -1       611-1.79397E+03-1.35033E+05-9.33310E+03 9.45222E+04 1.15506E-10 7.26004E-10
 -1       612-1.86260E+02-1.31707E+05-1.14348E+04 5.57555E+04-1.75760E-10 9.09495E-11
 -1       613 4.79698E+05 2.85336E+05 5.79294E+04 3.68598E+05 1.03682E-10 4.29281E-10
 -1       614 4.86454E+05 3.03297E+05 3.36763E+04 3.74436E+05-6.46878E-11 1.79352E-09
 -1       615 4.83822E+05 2.86874E+05 1.55281E+04 3.72824E+05-2.51930E-10 1.97360E-10
 -1       616 4.78128E+05 2.94617E+05 9.71950E+03 3.75195E+05 2.04182E-10 9.91349E-10
 -1       617 4.84113E+05 2.87058E+05 7.85627E+03 3.73040E+05 2.75577E-10-5.07328E-10
 -1       618 4.78239E+05 2.94698E+05 1.07392E+04 3.75199E+05-6.73026E-11-3.24690E-10
 -1       619 4.83729E+05 2.86838E+05 1.79527E+04 3.72776E+05-3.68345E-11 1.06957E-09
 -1       620 4.88042E+05 3.04959E+05 3.95103E+04 3.74311E+05-6.50289E-11 1.39789E-09
 -1       621 4.78904E+05 2.84987E+05 6.81911E+04 3.67779E+05 6.00267E-11 1.22964E-09
 -1       622 3.32263E+05 3.28212E+01 4.72237E+03 5.60733E+04-3.63798E-12 1.16415E-10
 -1       623 3.33556E+05 7.99368E+02 2.76957E+03 9.48253E+04 3.32875E-10 3.54703E-11
 -1       624 3.32741E+05 6.94388E-01 1.28098E+03 5.58642E+04 6.00267E-11-8.78117E-10
 -1       625 3.32808E+05 1.04406E+02 8.23166E+02 9.50325E+04 7.91260E-11-1.95541E-11
 -1       626 3.32757E+05 1.49626E+01 6.74976E+02 5.58656E+04-4.13820E-10 1.63709E-11
 -1       627 3.33036E+05 2.77925E+02 1.01849E+03 9.48483E+04-3.61069E-10-1.15324E-09
 -1       628 3.32663E+05-1.61531E+01 1.55102E+03 5.60486E+04 1.17325E-10-8.84484E-10
 -1       629-1.50717E+03-3.67188E+05-6.52033E+04 7.92134E+04 2.29193E-10-7.48514E-10
 -1       630-1.08787E+04-3.85842E+05-4.14012E+04 1.34455E+05 2.24077E-10-1.34423E-09
 -1       631 3.26723E+02-3.74841E+05-2.60168E+04 7.89967E+04 6.67114E-10-1.03228E-09
 -1       632-7.47031E+03-3.82947E+05-3.18737E+04 1.34433E+05-4.36557E-10 2.35559E-10
 -1       633-9.80336E+02-3.70038E+05-4.50430E+04 7.92334E+04 2.76486E-10 9.76797E-10
 -1       634 6.24043E+05 3.54853E+05 6.76733E+04 4.68792E+05 1.72804E-10 4.36557E-11
 -1       635 6.38248E+05 3.69497E+05 3.93285E+04 4.73762E+05 4.75211E-11 1.82808E-10
 -1       636 6.28817E+05 3.56689E+05 1.81165E+04 4.73752E+05-1.44382E-10-3.44698E-10
 -1       637 6.28568E+05 3.59321E+05 1.13022E+04 4.74646E+05-2.65324E-10 2.39083E-10
 -1       638 6.29166E+05 3.56901E+05 9.07350E+03 4.74010E+05-1.17097E-11 8.78799E-11
 -1       639 6.28680E+05 3.59401E+05 1.23246E+04 4.74654E+05 5.62977E-10-1.53375E-09
 -1       640 6.28728E+05 3.56651E+05 2.05480E+04 4.73710E+05 1.47338E-10 4.50200E-10
 -1       641 6.39857E+05 3.71156E+05 4.51798E+04 4.73646E+05-1.56888E-10 1.49203E-09
 -1       642 6.23241E+05 3.54509E+05 7.79644E+04 4.67983E+05 2.72848E-11 4.36557E-11
 -1       643 4.64423E+05 3.11298E+02 1.44637E+04 4.59989E+04-2.92857E-10 4.04725E-10
 -1       644 4.68460E+05 2.44286E+03 8.63498E+03 7.77801E+04-1.79170E-10-6.49379E-10
 -1       645 4.66135E+05-2.53848E+01 4.41678E+03 4.58372E+04-1.36424E-10 6.59384E-11
 -1       646 4.66587E+05 2.77189E+02 3.62034E+03 7.79397E+04-7.64345E-10 4.49745E-10
 -1       647 4.66137E+05-1.89828E+01 4.24090E+03 4.58381E+04-1.00272E-10 1.18598E-09
 -1       648 4.68299E+05 2.29591E+03 8.12555E+03 7.77890E+04-1.42791E-10 1.13687E-10
 -1       649 4.64531E+05 3.03875E+02 1.35425E+04 4.59887E+04 1.26420E-10-2.62389E-10
 -1       650-1.91488E+03-4.97269E+05-8.22072E+04 7.15078E+04-7.78527E-10 1.09139E-09
 -1       651-1.38505E+04-5.20717E+05-5.34198E+04 1.21405E+05-2.33172E-10-2.23531E-09
 -1       652 3.59933E+02-5.06684E+05-3.57707E+04 7.13082E+04-6.63931E-10-1.82217E-09
 -1       653-1.16728E+04-5.18867E+05-4.73329E+04 1.21389E+05-9.13133E-10 4.61341E-10
 -1       654-1.57938E+03-4.99090E+05-6.93292E+04 7.15226E+04-1.35697E-09 3.56522E-10
 -1       655 6.42254E+05 3.58467E+05 6.65087E+04 4.78056E+05-1.40062E-10-3.56522E-10
 -1       656 6.59137E+05 3.69938E+05 3.86105E+04 4.82085E+05 3.41970E-10-1.87720E-09
 -1       657 6.46929E+05 3.60295E+05 1.77014E+04 4.82940E+05-2.72848E-12-1.01181E-09
 -1       658 6.49630E+05 3.59914E+05 1.08843E+04 4.82948E+05-1.47793E-11 5.41149E-10
 -1       659 6.47283E+05 3.60505E+05 8.47425E+03 4.83194E+05-8.65725E-11 3.20256E-10
 -1       660 6.49666E+05 3.59935E+05 1.11821E+04 4.82950E+05 4.91127E-11 7.85349E-10
 -1       661 6.46901E+05 3.60287E+05 1.84094E+04 4.82929E+05-2.77396E-11-1.10367E-09
 -1       662 6.59609E+05 3.70418E+05 4.03148E+04 4.82052E+05 1.41881E-10-6.36646E-10
 -1       663 6.42022E+05 3.58366E+05 6.95055E+04 4.77822E+05 1.52795E-10 1.01500E-09
 -1       664 3.62542E+05 6.10079E+01 3.55542E+03 3.40883E+04-1.09139E-11 5.91172E-11
 -1       665 3.63500E+05 5.98439E+02 2.22164E+03 5.76460E+04-8.09450E-11-6.48015E-10
 -1       666 3.62930E+05-4.89480E+00 1.32703E+03 3.39672E+04-5.45697E-11-2.76714E-10
 -1       667 3.63067E+05 1.16057E+02 1.41905E+03 5.77666E+04 6.27836E-10 3.71529E-10
 -1       668 3.62890E+05-6.60464E+00 2.06497E+03 3.39675E+04 5.45697E-11 8.39009E-10
 -1       669 3.64060E+05 1.26366E+03 4.34535E+03 5.76521E+04 3.13094E-10 7.45786E-11
 -1       670 3.62001E+05 1.67078E+02 7.41067E+03 3.40820E+04-5.09317E-11-2.55682E-10
 -1       671-1.78342E+03-4.28093E+05-7.66138E+04 6.57204E+04-3.92902E-10-9.11314E-10
 -1       672-1.29384E+04-4.49934E+05-5.05815E+04 1.11527E+05-9.60199E-10-1.00704E-09
 -1       673 3.34471E+02-4.36735E+05-3.52876E+04 6.55358E+04-2.41016E-10-1.20275E-09
 -1       674-1.23047E+04-4.49394E+05-4.88087E+04 1.11521E+05-1.36424E-09-8.09905E-10
 -1       675-1.68656E+03-4.28622E+05-7.28633E+04 6.57261E+04-2.91038E-10 8.50378E-10
 -1       676 6.39846E+05 3.63019E+05 6.57428E+04 4.80209E+05-1.34605E-10-5.67525E-10
 -1       677 6.53978E+05 3.76920E+05 3.81220E+04 4.84939E+05-2.78760E-10 4.28372E-10
 -1       678 6.44478E+05 3.64822E+05 1.73853E+04 4.85036E+05-1.70076E-10-1.12777E-10
 -1       679 6.44559E+05 3.67013E+05 1.05169E+04 4.85791E+05 2.23054E-10 1.35969E-10
 -1       680 6.44838E+05 3.65034E+05 7.89664E+03 4.85289E+05 1.49754E-10-2.63526E-10
 -1       681 6.44510E+05 3.66972E+05 1.00452E+04 4.85786E+05 1.27784E-10-1.45781E-09
 -1       682 6.44515E+05 3.64843E+05 1.62639E+04 4.85056E+05 1.24601E-10 3.97449E-10
 -1       683 6.53238E+05 3.76153E+05 3.54230E+04 4.84991E+05 1.61890E-10 4.34284E-10
 -1       684 6.40218E+05 3.63176E+05 6.09964E+04 4.80581E+05-1.14596E-10 9.51331E-10
 -1       685 4.03086E+05 2.79355E+02 1.15673E+04 1.36874E+04-8.27640E-11-5.49335E-10
 -1       686 4.06318E+05 1.93418E+03 7.02942E+03 2.31439E+04-1.15392E-10 5.16735E-10
 -1       687 4.04491E+05-3.61271E+01 3.86470E+03 1.36339E+04 1.08457E-10-6.83514E-10
 -1       688 4.04945E+05 2.37493E+02 3.62961E+03 2.31962E+04 3.96312E-10-7.51129E-10
 -1       689 4.04441E+05-3.96302E+01 4.82418E+03 1.36347E+04 6.30962E-12 1.06661E-09
 -1       690 4.07052E+05 2.79660E+03 9.79138E+03 2.31543E+04 9.54969E-12 1.20735E-10
 -1       691 4.02388E+05 4.13502E+02 1.65805E+04 1.36760E+04-1.81672E-10-3.57431E-10
 -1       692-8.72374E+02-8.33868E+04-3.80113E+04 6.22576E+04-1.87356E-10-6.19366E-10
 -1       693-6.37430E+03-9.42631E+04-2.60585E+04 1.05500E+05-1.08366E-09-1.00135E-09
 -1       694 2.14565E+02-8.75560E+04-1.98882E+04 6.20785E+04-1.38243E-10-1.12323E-09
 -1       695-7.76150E+03-9.54566E+04-2.99507E+04 1.05521E+05-1.02136E-09-7.14863E-10
 -1       696-1.07889E+03-8.22334E+04-4.62460E+04 6.22374E+04-2.05546E-10 7.63976E-11
 -1       697 3.29027E+05 2.03359E+05 2.40084E+04 2.58330E+05 3.00133E-11-2.18279E-11
 -1       698 3.26576E+05 2.16024E+05 1.40335E+04 2.62262E+05-5.25802E-11 8.76753E-10
 -1       699 3.30741E+05 2.03982E+05 6.62715E+03 2.60074E+05-1.70644E-10-6.36646E-12
 -1       700 3.23126E+05 2.12461E+05 4.44065E+03 2.62592E+05-2.24205E-10-8.90793E-10
 -1       701 3.30857E+05 2.04039E+05 4.07313E+03 2.60162E+05-2.99565E-11-2.42835E-10
 -1       702 3.23292E+05 2.12626E+05 6.16768E+03 2.62620E+05-2.15834E-10-4.88853E-11
 -1       703 3.30623E+05 2.03888E+05 1.07321E+04 2.60003E+05 1.81444E-10-2.75577E-10
 -1       704 3.29306E+05 2.18829E+05 2.39184E+04 2.62086E+05 2.79215E-10 2.99679E-10
 -1       705 3.27645E+05 2.02806E+05 4.13869E+04 2.56993E+05-1.53705E-10-1.90994E-10
 -1       706 6.77822E+05 1.09540E+03 4.36850E+04 2.77653E+02 3.78577E-11 5.67525E-10
 -1       707 6.90135E+05 7.34658E+03 2.60131E+04 4.53586E+02 4.97892E-10-5.45697E-11
 -1       708 6.83218E+05-1.15594E+02 1.32640E+04 2.68155E+02 1.01181E-11 1.81899E-11
 -1       709 6.84709E+05 6.98570E+02 1.07803E+04 4.59592E+02-2.08672E-10-6.68926E-10
 -1       710 6.83254E+05-1.11873E+02 1.25452E+04 2.71056E+02 8.25366E-11-1.20508E-10
 -1       711 6.89580E+05 6.70290E+03 2.39438E+04 4.64088E+02 2.22201E-10 9.75206E-10
 -1       712 6.78341E+05 9.98030E+02 3.99292E+04 2.63202E+02 1.09935E-10 2.78305E-10
 -1       713-5.00240E+02 2.91925E+04-2.01699E+04-8.69696E+03-5.45697E-12-4.36785E-10
 -1       714-3.43740E+03 2.34563E+04-1.22807E+04-1.48527E+04 1.53705E-10 3.87445E-10
 -1       715 4.21335E+01 2.67716E+04-6.74920E+03-8.71520E+03 6.59384E-11-5.91172E-11
 -1       716-1.44927E+03 2.51438E+04-6.72304E+03-1.47691E+04 4.35989E-10-3.00815E-10
 -1       717-1.89911E+02 2.75288E+04-8.40628E+03-8.78009E+03 1.42336E-10-1.30967E-10
 -1       718 4.85221E+04 1.78024E+04-1.61293E+04 3.04913E+04 5.91172E-11 9.33142E-10
 -1       719 4.88638E+04 1.05209E+04-9.16500E+03 2.81982E+04 7.96376E-11-1.09139E-10
 -1       720 4.73534E+04 1.73658E+04-3.78334E+03 2.93064E+04 3.59705E-10 6.99174E-10
 -1       721 5.12428E+04 1.29733E+04-1.54389E+03 2.79996E+04 2.77851E-10-5.21922E-10
 -1       722 4.72311E+04 1.72862E+04 1.16388E+02 2.92366E+04 2.00316E-10 1.03967E-10
 -1       723 5.15767E+04 1.32834E+04 1.84730E+03 2.80413E+04 1.35515E-10 2.48576E-10
 -1       724 4.71017E+04 1.71991E+04 4.27963E+03 2.91604E+04 8.43556E-11 2.22599E-10
 -1       725 5.41680E+04 1.60756E+04 1.02503E+04 2.78385E+04-9.34506E-11-5.39529E-10
 -1       726 4.58592E+04 1.66541E+04 1.80001E+04 2.78255E+04 4.72937E-11 1.24601E-10
 -1       727 9.53210E+05 1.68633E+03 6.62442E+04-9.36594E+01-8.71751E-10-1.34241E-09
 -1       728 9.71966E+05 1.12182E+04 3.82677E+04-4.01635E+02 6.76664E-10 1.29239E-09
 -1       729 9.61533E+05-1.36552E+02 1.71432E+04-1.20168E+02-8.17636E-10-6.98492E-10
 -1       730 9.63121E+05 6.30918E+02 9.81826E+03-3.92613E+02-3.18323E-10 8.75389E-12
 -1       731 9.62075E+05-8.18543E+01 6.36010E+03-1.02466E+02-1.74168E-10 3.59705E-10
 -1       732 9.63652E+05 1.56337E+03 7.22583E+03-3.82976E+02-2.08570E-09-3.00389E-10
 -1       733 9.61006E+05 2.14456E+02 9.89900E+03-1.30563E+02 2.54204E-10 8.89031E-10
 -1       734-1.18173E+03-2.11998E+05-4.75294E+04-3.12179E+04 4.49290E-10-5.92081E-10
 -1       735-8.05969E+03-2.25525E+05-2.81198E+04-5.29314E+04 8.18545E-10 1.12470E-09
 -1       736 1.17293E+02-2.17863E+05-1.38953E+04-3.11310E+04 5.09317E-10 1.23872E-09
 -1       737-1.92293E+03-2.20367E+05-1.10149E+04-5.29313E+04 8.14225E-10-5.76165E-10
 -1       738-1.97135E+02-2.17156E+05-1.13215E+04-3.12179E+04 1.17325E-10-1.58798E-09
 -1       739 1.06062E+05 4.71529E+04-1.15684E+04 7.15191E+04-4.03816E-10 1.47566E-10
 -1       740 1.08982E+05 3.92549E+04-6.59307E+03 6.90958E+04 6.91216E-11-3.81846E-10
 -1       741 1.05259E+05 4.68098E+04-2.76500E+03 7.06667E+04-1.61435E-10 9.52696E-11
 -1       742 1.10659E+05 4.10383E+04-1.21624E+03 6.89689E+04 6.07088E-11 5.30349E-10
 -1       743 1.05175E+05 4.67558E+04-1.33763E+02 7.06246E+04-1.56388E-09 3.86990E-10
 -1       744 1.10876E+05 4.12292E+04 8.74279E+02 6.90054E+04-1.65164E-09 7.31688E-10
 -1       745 1.05106E+05 4.67052E+04 2.20063E+03 7.05917E+04 1.10822E-09 5.43423E-10
 -1       746 1.12181E+05 4.27717E+04 5.37182E+03 6.89336E+04 2.20803E-09 8.37417E-10
 -1       747 1.04529E+05 4.63458E+04 9.45892E+03 6.98779E+04 5.22050E-10 4.02451E-10
 -1       748 1.12994E+06 4.81762E+02 2.61194E+04 8.79598E+04-7.06859E-09-9.73159E-10
 -1       749 1.13706E+06 4.65549E+03 1.66692E+04 1.47322E+05-2.36105E-09 6.59384E-10
 -1       750 1.13263E+06 1.06532E+02 1.05504E+04 8.76531E+04 7.88532E-09 2.32967E-09
 -1       751 1.13373E+06 1.38884E+03 1.22198E+04 1.47565E+05-2.96313E-09 3.10138E-10
 -1       752 1.13201E+06 2.34187E+02 1.86500E+04 8.77142E+04-1.45960E-08-1.93904E-09
 -1       753 1.14252E+06 1.22319E+04 3.98922E+04 1.47321E+05-2.38665E-08-1.93904E-09
 -1       754 1.12350E+06 2.09051E+03 6.83724E+04 8.78723E+04-1.01199E-08-8.11269E-10
 -1       755-1.25848E+03 3.64421E+05-4.74283E+04-3.89933E+03-9.11314E-10-3.70619E-10
 -1       756-8.03926E+03 3.50875E+05-2.43799E+04-6.34087E+03 1.05319E-09 1.60276E-09
 -1       757 3.73388E+01 3.57976E+05-4.84218E+03-3.85545E+03-1.01500E-09-5.79803E-11
 -1       758 4.55900E+03 3.61458E+05 1.07457E+04-6.40276E+03 1.39926E-09 2.75122E-10
 -1       759 7.79978E+02 3.53814E+05 2.69378E+04-3.82794E+03-1.44792E-09-2.85809E-10
 -1       760 6.92493E+05 4.42076E+05 2.61800E+04 5.53767E+05 4.47574E-09 1.87356E-09
 -1       761 6.76479E+05 4.69252E+05 1.56814E+04 5.61862E+05-3.19278E-09-1.81353E-09
 -1       762 6.94408E+05 4.42650E+05 8.12919E+03 5.55544E+05-4.14730E-10-1.51340E-09
 -1       763 6.72674E+05 4.65472E+05 6.80205E+03 5.62157E+05 7.63521E-10 1.26192E-10
 -1       764 6.94396E+05 4.42728E+05 8.31447E+03 5.55579E+05 2.77305E-09 1.10145E-09
 -1       765 6.73503E+05 4.66122E+05 1.48571E+04 5.62165E+05-8.47740E-09 3.92447E-10
 -1       766 6.93694E+05 4.42350E+05 2.72958E+04 5.55127E+05-3.30510E-09-1.66710E-09
 -1       767 6.89059E+05 4.82273E+05 6.17720E+04 5.60770E+05-8.50150E-09-2.81580E-09
 -1       768 6.86082E+05 4.39426E+05 1.07264E+05 5.47249E+05 1.00008E-08 1.03319E-09
 -1       769 5.10400E+05 2.83430E+02 8.90025E+03 2.14868E+04-2.30875E-09 8.64475E-10
 -1       770 5.12774E+05 1.59517E+03 5.96789E+03 3.55911E+04 9.04947E-09 2.03107E-09
 -1       771 5.11406E+05 4.02085E+01 4.38035E+03 2.14145E+04-6.87487E-09 3.50155E-10
 -1       772 5.11998E+05 5.36057E+02 5.88461E+03 3.56648E+04-2.54920E-09 1.52215E-09
 -1       773 5.11135E+05 1.56884E+01 9.70621E+03 2.14154E+04-1.38891E-09 9.77252E-10
 -1       774 5.16870E+05 6.37155E+03 2.13008E+04 3.55995E+04-4.35648E-10 1.93586E-09
 -1       775 5.06542E+05 1.01474E+03 3.67309E+04 2.14662E+04 3.26281E-09 1.38789E-09
 -1       776-2.78516E+03-6.08899E+05-1.03245E+05 7.11282E+04 9.87347E-09-7.63976E-11
 -1       777-1.79422E+04-6.38126E+05-6.51045E+04 1.19828E+05 7.93079E-09 3.53566E-09
 -1       778 1.00853E+02-6.21084E+05-4.00524E+04 7.09022E+04 7.65132E-09 9.73159E-10
 -1       779-1.16546E+04-6.32978E+05-4.77098E+04 1.19939E+05 2.94131E-09 1.21321E-09
 -1       780-1.70389E+03-6.14251E+05-6.64194E+04 7.10376E+04 8.76753E-09-1.07366E-09
 -1       781 4.27190E+05 2.32567E+05 2.31231E+04 3.14661E+05-1.82172E-09-5.25688E-10
 -1       782 4.36856E+05 2.32706E+05 1.36670E+04 3.14947E+05 8.88031E-09-1.92131E-09
 -1       783 4.28764E+05 2.33226E+05 6.76606E+03 3.16355E+05 2.61184E-09 5.64114E-10
 -1       784 4.33629E+05 2.29245E+05 5.10187E+03 3.15259E+05-4.98540E-09 4.87482E-10
 -1       785 4.28847E+05 2.33261E+05 5.55923E+03 3.16431E+05-6.28290E-10 1.99179E-10
 -1       786 4.34046E+05 2.29638E+05 9.37489E+03 3.15310E+05-1.68671E-09 1.99412E-09
 -1       787 4.28448E+05 2.33014E+05 1.69260E+04 3.16166E+05-2.72530E-09 2.72848E-11
 -1       788 4.43555E+05 2.39673E+05 3.81242E+04 3.14479E+05-1.51704E-09-7.27596E-10
 -1       789 4.23822E+05 2.31142E+05 6.61275E+04 3.11295E+05-5.07862E-09 3.57613E-09
 -1       790 1.55656E+05 1.33741E+02 2.71141E+03 1.91753E+04-1.04078E-08 7.81938E-10
 -1       791 1.56331E+05 5.71067E+02 1.94725E+03 3.22016E+04-1.06021E-08 1.39175E-09
 -1       792 1.55940E+05 6.37260E+01 1.65757E+03 1.91049E+04-9.65861E-09 7.92170E-10
 -1       793 1.56155E+05 3.06737E+02 2.50290E+03 3.22729E+04 6.10723E-09 1.77351E-09
 -1       794 1.55805E+05 5.07180E+01 4.33319E+03 1.91045E+04 3.77679E-09 1.33696E-09
 -1       795 1.58393E+05 2.97050E+03 9.65150E+03 3.22058E+04-1.16421E-08 1.33696E-09
 -1       796 1.53721E+05 4.97629E+02 1.66938E+04 1.91658E+04 7.82666E-09 1.11322E-09
 -1       797-1.75356E+03-5.28846E+05-6.63376E+04 4.13688E+04-1.22163E-08-2.56932E-09
 -1       798-1.15501E+04-5.47588E+05-4.27425E+04 6.94165E+04-1.03080E-08 2.23577E-09
 -1       799 6.48048E+01-5.36480E+05-2.79601E+04 4.12484E+04-1.36622E-08-1.84627E-10
 -1       800-9.12339E+03-5.45583E+05-3.60117E+04 6.94646E+04-4.83851E-09 1.62572E-09
 -1       801-1.34585E+03-5.30902E+05-5.20879E+04 4.13284E+04-1.44737E-08-9.23137E-10
 -1       802 2.42028E+05 1.35945E+05 2.41863E+04 1.80758E+05-8.72205E-10-1.46338E-09
 -1       803 2.48340E+05 1.39938E+05 1.41283E+04 1.82171E+05 7.40465E-09-1.20917E-09
 -1       804 2.43708E+05 1.36622E+05 6.65433E+03 1.82532E+05 4.58704E-09 7.01220E-10
 -1       805 2.44905E+05 1.36305E+05 4.42742E+03 1.82491E+05-4.69242E-09-1.83633E-10
 -1       806 2.43822E+05 1.36685E+05 4.01339E+03 1.82620E+05 5.53438E-09-9.02958E-10
 -1       807 2.45061E+05 1.36451E+05 6.02464E+03 1.82510E+05 1.29538E-08 5.00222E-10
 -1       808 2.43590E+05 1.36542E+05 1.04522E+04 1.82461E+05 7.67204E-09-5.59203E-09
 -1       809 2.50849E+05 1.42540E+05 2.32717E+04 1.81995E+05 8.73388E-09 2.38470E-09
 -1       810 2.40765E+05 1.35415E+05 4.02623E+04 1.79502E+05-1.31058E-08-2.71393E-09
 -1       811 1.17618E+04 1.05091E+02 3.03462E+03 8.70259E+03 6.08259E-09 1.27034E-09
 -1       812 1.25771E+04 5.52554E+02 2.08952E+03 1.47170E+04 8.35843E-09 1.74873E-09
 -1       813 1.21019E+04 1.83329E+01 1.63310E+03 8.67398E+03-1.03992E-09 1.33190E-09
 -1       814 1.23475E+04 2.13114E+02 2.31383E+03 1.47463E+04 8.00071E-10 1.80535E-09
 -1       815 1.19887E+04 6.14897E+00 3.90636E+03 8.67408E+03 2.15016E-09 9.92031E-10
 -1       816 1.43346E+04 2.58931E+03 8.63616E+03 1.47088E+04-8.63128E-09 1.56410E-09
 -1       817 1.01219E+04 4.10569E+02 1.49153E+04 8.70595E+03 6.85986E-09 8.98581E-10
 -1       818-9.74974E+02-3.76595E+05-3.64497E+04 2.78323E+04-1.86174E-08-2.01499E-09
 -1       819-6.38861E+03-3.86865E+05-2.40577E+04 4.66503E+04-1.17546E-08 7.25322E-09
 -1       820 2.09828E+01-3.80691E+05-1.67681E+04 2.77545E+04-7.62861E-09 1.37049E-09
 -1       821-6.06634E+03-3.86606E+05-2.31701E+04 4.66731E+04-7.38237E-09 1.21173E-09
 -1       822-9.16436E+02-3.76872E+05-3.45691E+04 2.78108E+04-1.42791E-08-2.72030E-09
 -1       823 8.67460E+04 4.84714E+04 1.48948E+04 6.44557E+04 1.07611E-08 1.63664E-09
 -1       824 9.05829E+04 5.09916E+04 8.69479E+03 6.53453E+04-2.62253E-09 2.34786E-09
 -1       825 8.77750E+04 4.88949E+04 4.08248E+03 6.55491E+04 8.26617E-09 1.29080E-09
 -1       826 8.84717E+04 4.87463E+04 2.69370E+03 6.55403E+04 5.73965E-09-5.76648E-10
 -1       827 8.78460E+04 4.89343E+04 2.40675E+03 6.56034E+04-2.65931E-09-4.14263E-09
 -1       828 8.85581E+04 4.88272E+04 3.57486E+03 6.55508E+04 1.30736E-08 1.13141E-09
 -1       829 8.77095E+04 4.88511E+04 6.17744E+03 6.55103E+04 9.47580E-09-1.07320E-09
 -1       830 9.19804E+04 5.24144E+04 1.37391E+04 6.52446E+04 2.01283E-09 1.40426E-09
 -1       831 8.60363E+04 4.81917E+04 2.37632E+04 6.37669E+04-5.28962E-09-6.58474E-10
 -1       832-4.13271E+02-2.99680E+05-1.61072E+04 1.00040E+04 4.91673E-09-6.11612E-09
 -1       833-2.81103E+03-3.04209E+05-1.09987E+04 1.65226E+04 1.76665E-08 8.80448E-10
 -1       834 2.33394E+01-3.01425E+05-8.30989E+03 9.97040E+03 1.09690E-08 2.53283E-09
 -1       835-3.31456E+03-3.04636E+05-1.24057E+04 1.65453E+04 1.24107E-08 2.34426E-09
 -1       836-4.91473E+02-2.99259E+05-1.90853E+04 9.98041E+03 5.73982E-09 1.27528E-09
 -1       837-2.49596E+05-2.56656E+02-7.85133E+03 3.03263E+04-6.54836E-11 3.89406E-10
 -1       838-2.51756E+05-1.35662E+03-4.99891E+03 5.11421E+04 2.76032E-10 2.89219E-10
 -1       839-2.50569E+05 1.34091E+00-3.21696E+03 3.01773E+04-1.17780E-10-1.68029E-10
 -1       840-2.51012E+05-2.80774E+02-3.77077E+03 5.12981E+04-2.89901E-11 4.26780E-10
 -1       841-2.50453E+05 2.66512E+01-5.81614E+03 3.01717E+04-9.36353E-11 8.18687E-10
 -1       842-2.53818E+05-3.66444E+03-1.24912E+04 5.12121E+04 6.42331E-11 2.00743E-10
 -1       843-2.47760E+05-5.71149E+02-2.14400E+04 3.02610E+04 7.73070E-11 6.18456E-11
 -1       844-5.62273E+02-4.29841E+05-2.38170E+04 5.98543E+04-2.91038E-11 6.71207E-10
 -1       845-3.79930E+03-4.36705E+05-1.10160E+04 1.01739E+05-1.47793E-11 8.47649E-10
 -1       846 1.37976E+02-4.33328E+05 5.45541E+02 5.96722E+04 1.64619E-10-1.15872E-09
 -1       847 4.66134E+03-4.29604E+05 1.25538E+04 1.01745E+05 1.45519E-10-1.45178E-09
 -1       848 8.00937E+02-4.36949E+05 2.60874E+04 5.98412E+04 1.36424E-10-1.37425E-09
 -1       849 1.46685E+05 9.19603E+04 3.99875E+04 1.15279E+05 2.00998E-10-2.18279E-10
 -1       850 1.52014E+05 1.03709E+05 2.33401E+04 1.19126E+05-7.43228E-11-3.63798E-10
 -1       851 1.49541E+05 9.29980E+04 1.09557E+04 1.18182E+05 7.44649E-11 3.81988E-11
 -1       852 1.46268E+05 9.77578E+04 7.22464E+03 1.19667E+05 3.30601E-10 1.12107E-09
 -1       853 1.49730E+05 9.31056E+04 6.44641E+03 1.18325E+05 1.14824E-10 7.49878E-10
 -1       854 1.46499E+05 9.79671E+04 9.56643E+03 1.19689E+05 3.41515E-10 4.85215E-10
 -1       855 1.49360E+05 9.28884E+04 1.65254E+04 1.18075E+05-6.77574E-11-6.77574E-11
 -1       856 1.55635E+05 1.07575E+05 3.67475E+04 1.18872E+05-5.27507E-11 4.91127E-10
 -1       857 1.44879E+05 9.11354E+04 6.35647E+04 1.13413E+05 6.54836E-11-5.85715E-10
 -1       858-2.76436E+05-6.70658E+02-2.45470E+04 3.98229E+04 2.09184E-11 2.45564E-10
 -1       859-2.83344E+05-4.14617E+03-1.48555E+04 6.72875E+04 8.13998E-11-1.29148E-10
 -1       860-2.79500E+05 6.12365E+01-8.07378E+03 3.96460E+04-9.91349E-11 2.66027E-10
 -1       861-2.80500E+05-4.83536E+02-7.42797E+03 6.74717E+04 4.79758E-10 4.34738E-10
 -1       862-2.79430E+05 8.03435E+01-9.71811E+03 3.96417E+04 1.29603E-10 8.03311E-10
 -1       863-2.84664E+05-5.60029E+03-1.95972E+04 6.73370E+04-3.34239E-10-1.12891E-10
 -1       864-2.75284E+05-8.60115E+02-3.31442E+04 3.97781E+04 9.09495E-13 4.91127E-10
 -1       865-2.85394E+02-1.64147E+05-1.20750E+04 6.16557E+04-3.04681E-10-4.00178E-11
 -1       866-1.86042E+03-1.67667E+05-4.58470E+03 1.04606E+05-2.02817E-10 1.23350E-10
 -1       867 8.41615E+01-1.66091E+05 2.71541E+03 6.14991E+04-1.50294E-10-1.09776E-09
 -1       868 4.15962E+03-1.62565E+05 1.22343E+04 1.04571E+05 1.92813E-10-1.20417E-09
 -1       869 6.58962E+02-1.69184E+05 2.35308E+04 6.16882E+04-2.27374E-10-8.10360E-10
 -1       870 2.09161E+05 1.30864E+05 3.58861E+04 1.64752E+05 3.38332E-10-1.09139E-11
 -1       871 2.11849E+05 1.43497E+05 2.09496E+04 1.68809E+05-2.86491E-11 6.82348E-10
 -1       872 2.11733E+05 1.31791E+05 9.83760E+03 1.67354E+05 2.96836E-10-1.72349E-10
 -1       873 2.06682E+05 1.38162E+05 6.49344E+03 1.69293E+05-3.29351E-10 6.92353E-11
 -1       874 2.11900E+05 1.31889E+05 5.80482E+03 1.67482E+05 8.25366E-11 1.09935E-10
 -1       875 2.06895E+05 1.38352E+05 8.62499E+03 1.69312E+05-3.45381E-10-5.81849E-10
 -1       876 2.11565E+05 1.31692E+05 1.49058E+04 1.67256E+05 6.86668E-11 1.53705E-10
 -1       877 2.15154E+05 1.47003E+05 3.31495E+04 1.68571E+05 1.37788E-10 1.16415E-10
 -1       878 2.07508E+05 1.30125E+05 5.73404E+04 1.63054E+05 2.83762E-10 8.34916E-10
 -1       879-3.92936E+04-3.03875E+02-1.01755E+04 4.42630E+04 2.03727E-10-3.10706E-10
 -1       880-4.21667E+04-1.69594E+03-6.31582E+03 7.48531E+04 2.82398E-10-1.60071E-10
 -1       881-4.05901E+04 4.20200E+01-3.76353E+03 4.40818E+04 8.00355E-11-6.59838E-10
 -1       882-4.11257E+04-2.29956E+02-3.99777E+03 7.50362E+04-9.00400E-11-1.76669E-10
 -1       883-4.04967E+04 6.02831E+01-5.81714E+03 4.40808E+04-2.97860E-10-1.65301E-10
 -1       884-4.37880E+04-3.52217E+03-1.22342E+04 7.48816E+04-1.29376E-10-3.59250E-10
 -1       885-3.78364E+04-5.57716E+02-2.09101E+04 4.42351E+04 2.46473E-10-7.27596E-11
 -1       886-6.32189E+02-2.10290E+05-2.63438E+04 5.85072E+04 2.80124E-10-7.01220E-10
 -1       887-4.34714E+03-2.17840E+05-1.47358E+04 9.92731E+04 2.35389E-10 8.22524E-10
 -1       888 1.15044E+02-2.13706E+05-5.64000E+03 5.83613E+04 3.89321E-10-1.38959E-09
 -1       889 5.13615E+02-2.13711E+05-1.14648E+03 9.92342E+04-4.78849E-10-9.91804E-10
 -1       890 1.22699E+02-2.14352E+05 2.41982E+03 5.85447E+04 1.69166E-10-4.88399E-10
 -1       891 3.11755E+05 1.83622E+05 4.21304E+04 2.38218E+05-3.33785E-09-5.07680E-09
 -1       892 3.18108E+05 1.95250E+05 2.45031E+04 2.42043E+05-7.99787E-11-2.18279E-10
 -1       893 3.14751E+05 1.84740E+05 1.13197E+04 2.41291E+05-2.15323E-10-4.32010E-11
 -1       894 3.12054E+05 1.88941E+05 7.12850E+03 2.42600E+05-1.63709E-10-4.54747E-13
 -1       895 3.14965E+05 1.84871E+05 5.83321E+03 2.41449E+05 1.52795E-10 4.09273E-11
 -1       896 3.12152E+05 1.89018E+05 8.06281E+03 2.42606E+05 1.58707E-10 7.50106E-10
 -1       897 3.14672E+05 1.84704E+05 1.35422E+04 2.41249E+05 1.42791E-10 1.44610E-10
 -1       898 3.19552E+05 1.96789E+05 2.98514E+04 2.41938E+05-1.39153E-10 1.62345E-10
 -1       899 3.11039E+05 1.83288E+05 5.15364E+04 2.37469E+05-6.18456E-11-1.16415E-10
 -1       900 2.46273E+05 1.32177E+02 6.77720E+03 4.39702E+04 1.06411E-10 8.18545E-11
 -1       901 2.48166E+05 1.17119E+03 3.82043E+03 7.43617E+04-3.46972E-10-2.45927E-09
 -1       902 2.47071E+05 5.39635E+00 1.48760E+03 4.38089E+04-5.48425E-10-6.07770E-10
 -1       903 2.47133E+05 6.91670E+01 4.14989E+02 7.45225E+04-5.18583E-10-8.63110E-10
 -1       904 2.47166E+05 1.91527E+01-5.03047E+02 4.38089E+04-1.08457E-10-7.28733E-10
 -1       905 2.46613E+05-6.05908E+02-1.91368E+03 7.43700E+04 9.29958E-11-4.09727E-10
 -1       906 2.47699E+05-1.26569E+02-3.62660E+03 4.39613E+04 3.63798E-12-1.34150E-10
 -1       907-1.12614E+03-3.00260E+05-4.74854E+04 5.17393E+04-1.08412E-09 9.66793E-10
 -1       908-8.00155E+03-3.13795E+05-2.97120E+04 8.78175E+04-3.64139E-10 7.71138E-10
 -1       909 1.77929E+02-3.05866E+05-1.78583E+04 5.16147E+04-3.89150E-10-5.07384E-10
 -1       910-4.74129E+03-3.11009E+05-2.05839E+04 8.77724E+04-5.38876E-10-9.49740E-10
 -1       911-6.30284E+02-3.02978E+05-2.81699E+04 5.17830E+04-7.42148E-10-4.50200E-10
 -1       912 4.15708E+05 2.33951E+05 4.60678E+04 3.10638E+05-1.27329E-11 9.09495E-10
 -1       913 4.26573E+05 2.42743E+05 2.66964E+04 3.13672E+05-1.42791E-10 2.14641E-10
 -1       914 4.18961E+05 2.35209E+05 1.21365E+04 3.14016E+05-1.53932E-10 7.77618E-10
 -1       915 4.19963E+05 2.35798E+05 7.27336E+03 3.14269E+05 2.66844E-11 2.72848E-11
 -1       916 4.19212E+05 2.35364E+05 5.34386E+03 3.14195E+05 4.88853E-11 5.12500E-10
 -1       917 4.19909E+05 2.35733E+05 6.64347E+03 3.14259E+05 2.44199E-10-2.64265E-10
 -1       918 4.19001E+05 2.35248E+05 1.06391E+04 3.14046E+05-1.51886E-10-2.86263E-10
 -1       919 4.25581E+05 2.41720E+05 2.30917E+04 3.13742E+05 1.87811E-10 1.21872E-10
 -1       920 4.16220E+05 2.34145E+05 3.97293E+04 3.11130E+05 2.11003E-10-7.45786E-11
 -1       921 3.31457E+05 7.52293E+01 4.37886E+03 4.93872E+04-3.21961E-10-2.28283E-10
 -1       922 3.32650E+05 7.81011E+02 2.43132E+03 8.35325E+04-3.59250E-10-1.04592E-10
 -1       923 3.31946E+05 2.08140E+01 8.54981E+02 4.92193E+04 2.24645E-10 4.23370E-10
 -1       924 3.31934E+05 5.97185E+01 3.12905E+01 8.37004E+04 9.91008E-10-3.69255E-10
 -1       925 3.32033E+05 2.57735E+01-7.91411E+02 4.92191E+04-1.85992E-10-2.42153E-10
 -1       926 3.31396E+05-7.01009E+02-2.30749E+03 8.35255E+04-2.21917E-10 5.22959E-11
 -1       927 3.32659E+05-1.57888E+02-4.22271E+03 4.93939E+04 9.73159E-11 5.98448E-10
 -1       928-1.57989E+03-3.82638E+05-6.77844E+04 4.52752E+04-4.80213E-10 5.20231E-10
 -1       929-1.14972E+04-4.01926E+05-4.46974E+04 7.68665E+04-9.88166E-10 3.65162E-10
 -1       930 2.60263E+02-3.90253E+05-3.10729E+04 4.51684E+04-2.33513E-10-2.34081E-10
 -1       931-1.08367E+04-4.01332E+05-4.28208E+04 7.68216E+04-5.49790E-10-9.84073E-10
 -1       932-1.49718E+03-3.83174E+05-6.38182E+04 4.53181E+04 1.90994E-10-8.62201E-10
 -1       933 5.96907E+05 3.24573E+05 6.17425E+04 4.38578E+05 9.09495E-11-3.67436E-10
 -1       934 6.16433E+05 3.31402E+05 3.56355E+04 4.41196E+05-4.54747E-12 2.13277E-10
 -1       935 6.01245E+05 3.26300E+05 1.59022E+04 4.43123E+05 1.15506E-10-1.88265E-10
 -1       936 6.07572E+05 3.22036E+05 8.96188E+03 4.41973E+05-2.41016E-11 5.19321E-10
 -1       937 6.01609E+05 3.26527E+05 5.60200E+03 4.43370E+05-5.56923E-11 9.19272E-10
 -1       938 6.07256E+05 3.21723E+05 5.62581E+03 4.41933E+05-3.29862E-10-3.51292E-10
 -1       939 6.01486E+05 3.26472E+05 7.96919E+03 4.43275E+05 1.05047E-10 4.68503E-10
 -1       940 6.11216E+05 3.25957E+05 1.65421E+04 4.41564E+05-2.41926E-10 4.81919E-10
 -1       941 5.99553E+05 3.25674E+05 2.81702E+04 4.41209E+05 1.10958E-10 3.25599E-10
 -1       942-2.24378E+05-1.49737E+03-5.87849E+04 4.34411E+04 1.66438E-10-9.82254E-10
 -1       943-2.41061E+05-9.92092E+03-3.45212E+04 7.35611E+04 2.79215E-10-3.78350E-10
 -1       944-2.31742E+05 1.49287E+02-1.66246E+04 4.32905E+04-2.19188E-10 7.91260E-11
 -1       945-2.33536E+05-7.43202E+02-1.18250E+04 7.37118E+04 3.07409E-10 4.13820E-10
 -1       946-2.31976E+05 1.13219E+02-1.16955E+04 4.32938E+04 3.18323E-10 3.92447E-10
 -1       947-2.37205E+05-5.52128E+03-2.03189E+04 7.35188E+04 8.95852E-11 4.95675E-11
 -1       948-2.27903E+05-8.66765E+02-3.30249E+04 4.34802E+04 2.96495E-10-1.76442E-10
 -1       949-2.00559E+03-4.86875E+05-8.89894E+04 7.01333E+04-7.63976E-11-3.27418E-11
 -1       950-1.50538E+04-5.12231E+05-6.14675E+04 1.19093E+05-1.18916E-09 2.77282E-10
 -1       951 4.23607E+02-4.96443E+05-4.76325E+04 6.99644E+04-5.91172E-11-1.43018E-10
 -1       952-1.91115E+04-5.15555E+05-7.26960E+04 1.19029E+05-8.49468E-10-3.74257E-10
 -1       953-2.70166E+03-4.83420E+05-1.12758E+05 7.01931E+04 2.72848E-10-5.78439E-10
 -1       954 1.07856E+06 6.11825E+05 1.27793E+05 8.08921E+05 7.38510E-10-1.23691E-10
 -1       955 1.10633E+06 6.38506E+05 7.41731E+04 8.18055E+05 3.56522E-10 4.98403E-10
 -1       956 1.08754E+06 6.15315E+05 3.40075E+04 8.18319E+05-1.83718E-10-3.81988E-10
 -1       957 1.08804E+06 6.19290E+05 2.08955E+04 8.19721E+05 2.88310E-10-7.63407E-10
 -1       958 1.08825E+06 6.15698E+05 1.62412E+04 8.18805E+05-3.70164E-10-1.68905E-09
 -1       959 1.08806E+06 6.19370E+05 2.13894E+04 8.19738E+05-2.24190E-10-1.90767E-10
 -1       960 1.08754E+06 6.15255E+05 3.51812E+04 8.18289E+05-2.00998E-10 1.10958E-10
 -1       961 1.10704E+06 6.39370E+05 7.69978E+04 8.18024E+05 5.09317E-10 2.12003E-09
 -1       962 1.07819E+06 6.11645E+05 1.32762E+05 8.08531E+05 2.58296E-10 1.96451E-10
 -1       963-1.82042E+05-7.25160E+02-2.79288E+04 1.31518E+04-3.54703E-10 9.09495E-13
 -1       964-1.89955E+05-4.74869E+03-1.61837E+04 2.21094E+04 4.30873E-10 5.45697E-10
 -1       965-1.85557E+05 4.73257E+01-7.35179E+03 1.30570E+04 1.46429E-10-1.02182E-09
 -1       966-1.86272E+05-2.91215E+02-4.41181E+03 2.22141E+04 2.48065E-10-7.00538E-10
 -1       967-1.85774E+05 3.41478E+01-3.21384E+03 1.30495E+04 1.14824E-10-1.09139E-10
 -1       968-1.86796E+05-1.02261E+03-4.27075E+03 2.22166E+04 3.42538E-10 5.52888E-10
 -1       969-1.85059E+05-1.44360E+02-6.30799E+03 1.30545E+04 1.43984E-10-7.52607E-11
 -1       970 4.50814E+02 2.60785E+05 1.47640E+04 1.59714E+05 4.05180E-10-1.80080E-10
 -1       971 3.23207E+03 2.64506E+05 7.99699E+03 2.70361E+05 2.12276E-09 7.08042E-10
 -1       972 4.37116E+02 2.62284E+05 2.30555E+03 1.59283E+05 1.70985E-10-2.21803E-09
 -1       973-1.28222E+02 2.61554E+05-1.49010E+03 2.70396E+05 2.53021E-09 1.99179E-09
 -1       974-1.73539E+01 2.63549E+05-5.30612E+03 1.59680E+05 1.31877E-11-1.41154E-09
 -1       975 1.29051E+05 8.25656E+04 1.07319E+04 1.03179E+05 2.96950E-10 5.45697E-12
 -1       976 1.27186E+05 8.89253E+04 6.82538E+03 1.05151E+05 1.62800E-10 3.92902E-10
 -1       977 1.29809E+05 8.27812E+04 4.36336E+03 1.03922E+05 4.89536E-10 3.08546E-10
 -1       978 1.25746E+05 8.74760E+04 5.00418E+03 1.05351E+05 3.06727E-10 8.68567E-11
 -1       979 1.29760E+05 8.27267E+04 7.80767E+03 1.03932E+05 3.19687E-10-4.47471E-10
 -1       980 1.26761E+05 8.84165E+04 1.53314E+04 1.05469E+05 3.16959E-10-1.90994E-11
 -1       981 1.29035E+05 8.22780E+04 2.89209E+04 1.03466E+05-1.81899E-11-4.30191E-10
 -1       982 1.43342E+05 1.05818E+05 6.59489E+04 1.04028E+05-3.18778E-10-1.38243E-10
 -1       983 1.20931E+05 7.91047E+04 1.14706E+05 9.50442E+04 2.40107E-10 3.71074E-10
 -1       984-1.92224E+05-1.78670E+02-6.96386E+03-3.93032E+02-5.39330E-10 2.86718E-10
 -1       985-1.94136E+05-1.15379E+03-4.54754E+03-8.54934E+02-8.76753E-10-7.69887E-10
 -1       986-1.93035E+05 1.86995E+01-3.13258E+03-4.73803E+02-1.33332E-09 2.82654E-10
 -1       987-1.93484E+05-2.69222E+02-3.95127E+03-7.59126E+02 2.21917E-10 7.97144E-10
 -1       988-1.92874E+05 3.48086E+01-6.33415E+03-4.88818E+02-2.83762E-10-6.96218E-10
 -1       989-1.96607E+05-4.02507E+03-1.37678E+04-6.60317E+02-3.01702E-09-9.43146E-10
 -1       990-1.89910E+05-6.10719E+02-2.36947E+04-5.68635E+02 8.50832E-10-6.78483E-10
 -1       991-1.00027E+02-1.32647E+05 2.91422E+03 6.91216E+04-4.71118E-10-2.30102E-10
 -1       992 6.24246E+02-1.31886E+05 9.51899E+03 1.17107E+05-1.12959E-09 7.70342E-10
 -1       993-8.69162E+01-1.33645E+05 1.99135E+04 6.89112E+04-8.16726E-10-4.19504E-10
 -1       994 1.39301E+04-1.20753E+05 4.65643E+04 1.17139E+05-1.38971E-09-1.90994E-10
 -1       995 2.07671E+03-1.43841E+05 8.13772E+04 6.90902E+04-5.31145E-10-1.20053E-10
 -1       996-5.05192E+04-1.99109E+04 5.38470E+03-3.23360E+04-2.79670E-10 1.73713E-10
 -1       997-5.28635E+04-1.52956E+04 3.57057E+03-3.09249E+04-4.00178E-11-1.01932E-09
 -1       998-5.00924E+04-1.98626E+04 2.55275E+03-3.19884E+04-2.92857E-10-1.48475E-10
 -1       999-5.36188E+04-1.59347E+04 3.29659E+03-3.08002E+04 3.31966E-11 8.66635E-10
 -1      1000-5.01383E+04-1.99175E+04 5.47523E+03-3.19954E+04-2.45564E-09 5.76563E-10
 -1      1001-5.28765E+04-1.52224E+04 1.09691E+04-3.07130E+04-2.14550E-09 1.68598E-09
 -1      1002-5.06595E+04-2.02482E+04 2.07958E+04-3.23358E+04 1.05774E-09-9.75888E-10
 -1      1003-4.09678E+04-2.64182E+03 4.74956E+04-3.17441E+04 2.33285E-09-6.83940E-10
 -1      1004-5.64539E+04-2.25843E+04 8.26258E+04-3.84154E+04-1.30603E-09-6.91216E-11
 -1      1005-5.19973E+05-1.39512E+03-5.63958E+04 5.54086E+04-7.18137E-09 1.79534E-09
 -1      1006-5.35996E+05-9.26118E+03-3.35959E+04 9.40308E+04-2.48110E-09-1.32059E-09
 -1      1007-5.27098E+05 2.95626E+02-1.72114E+04 5.50737E+04 6.72389E-09-1.38061E-09
 -1      1008-5.29250E+05-5.82147E+02-1.41144E+04 9.43841E+04-3.77167E-09 2.30557E-10
 -1      1009-5.27205E+05 3.54249E+02-1.66028E+04 5.50483E+04-1.05968E-08 7.61815E-10
 -1      1010-5.35812E+05-8.59513E+03-3.18768E+04 9.42673E+04-1.74873E-08 5.85942E-10
 -1      1011-5.20625E+05-1.13130E+03-5.32413E+04 5.52042E+04-7.45467E-09 3.67436E-10
 -1      1012-1.71642E+02 7.10294E+04 6.23138E+03 8.20389E+04-8.44466E-10-7.19410E-10
 -1      1013 1.01209E+03 7.27769E+04 1.28355E+04 1.39010E+05 8.73342E-10-9.24047E-10
 -1      1014-2.26064E+02 7.01962E+04 2.41884E+04 8.18104E+04-6.27097E-10-2.15493E-10
 -1      1015 1.62464E+04 8.55521E+04 5.52827E+04 1.39022E+05 9.43146E-10 6.12999E-10
 -1      1016 2.31039E+03 5.82206E+04 9.61379E+04 8.20425E+04-9.82254E-10 8.45830E-11
 -1      1017 2.74106E+05 1.87333E+05 3.99391E+04 2.26637E+05 3.29919E-09 4.54747E-11
 -1      1018 2.69479E+05 2.09006E+05 2.36280E+04 2.33325E+05-3.00315E-09 2.45018E-09
 -1      1019 2.76993E+05 1.88292E+05 1.17196E+04 2.29473E+05-9.57243E-10-3.32875E-10
 -1      1020 2.63714E+05 2.03185E+05 8.89531E+03 2.33868E+05-9.65883E-10-3.65048E-10
 -1      1021 2.77111E+05 1.88370E+05 9.76387E+03 2.29583E+05 1.73441E-09 1.64187E-09
 -1      1022 2.64466E+05 2.03860E+05 1.65368E+04 2.33923E+05-9.87711E-09 8.48559E-10
 -1      1023 2.76389E+05 1.87944E+05 2.98969E+04 2.29106E+05-2.56387E-09-1.66165E-09
 -1      1024 2.81357E+05 2.21510E+05 6.73684E+04 2.32420E+05-3.36058E-09-4.57931E-09
 -1      1025 2.68138E+05 1.84726E+05 1.16883E+05 2.20526E+05 7.45422E-09 1.02227E-09
 -1      1026-2.20927E+05-4.64284E+02-2.37131E+04 5.43626E+04-1.76260E-09-5.37511E-10
 -1      1027-2.27795E+05-3.62522E+03-1.40441E+04 9.22097E+04 6.38101E-09-2.56023E-09
 -1      1028-2.23981E+05 2.89205E+02-7.04970E+03 5.41113E+04-5.81713E-09-8.78117E-10
 -1      1029-2.24967E+05 7.27523E+01-5.52853E+03 9.24597E+04 3.38719E-09-2.07547E-09
 -1      1030-2.24050E+05 3.06768E+02-6.20162E+03 5.41056E+04 9.97034E-10-2.89219E-10
 -1      1031-2.27242E+05-2.82202E+03-1.16136E+04 9.22775E+04-6.88487E-10-2.43290E-09
 -1      1032-2.21615E+05-2.85744E+02-1.92906E+04 5.42996E+04-1.28239E-10-1.44246E-09
 -1      1033-1.24865E+03-2.99840E+05-2.92258E+04 1.26900E+05 7.23048E-09 2.12822E-10
 -1      1034-5.31624E+03-3.08085E+05-1.25817E+04 2.14838E+05 4.94992E-09-2.72394E-10
 -1      1035-2.28011E+02-3.04451E+05 2.87614E+03 1.26550E+05 6.84338E-09-7.10827E-10
 -1      1036 6.62384E+03-2.98059E+05 2.06895E+04 2.14837E+05 3.18300E-09 2.71211E-09
 -1      1037 6.75130E+02-3.09870E+05 4.12211E+04 1.26926E+05 6.94490E-09 1.88629E-09
 -1      1038 4.00928E+05 2.41328E+05 6.06276E+04 3.09610E+05-1.19508E-09-5.45697E-11
 -1      1039 4.09167E+05 2.58938E+05 3.54392E+04 3.15352E+05 7.41966E-09-7.73070E-10
 -1      1040 4.05207E+05 2.42943E+05 1.67475E+04 3.14028E+05 3.95579E-09-2.51930E-10
 -1      1041 4.00499E+05 2.49901E+05 1.12442E+04 3.16166E+05-3.75439E-09-9.82709E-10
 -1      1042 4.05478E+05 2.43106E+05 1.03479E+04 3.14245E+05 7.27914E-09-7.64189E-10
 -1      1043 4.00947E+05 2.50293E+05 1.57052E+04 3.16208E+05 1.10526E-09-2.51737E-09
 -1      1044 4.04857E+05 2.42739E+05 2.73565E+04 3.13828E+05-7.21411E-09-1.27329E-09
 -1      1045 4.16142E+05 2.66222E+05 6.09740E+04 3.14851E+05-1.76396E-09-6.00630E-09
 -1      1046 3.97442E+05 2.39812E+05 1.05539E+05 3.06073E+05 1.20162E-08 2.50657E-09
 -1      1047-1.28057E+05-1.24380E+02-1.00232E+04 3.82156E+04-1.21418E-08-2.13731E-10
 -1      1048-1.31009E+05-1.40664E+03-5.95209E+03 6.48172E+04-5.50335E-09-1.92404E-09
 -1      1049-1.29348E+05 1.96606E+02-3.02112E+03 3.80529E+04-4.34011E-09 6.91216E-11
 -1      1050-1.29822E+05 1.48344E+02-2.42868E+03 6.49780E+04 4.15952E-09 5.71163E-10
 -1      1051-1.29366E+05 2.01011E+02-2.80070E+03 3.80512E+04 1.82490E-09-1.19826E-10
 -1      1052-1.30865E+05-1.19820E+03-5.32035E+03 6.48409E+04-1.23075E-08-1.09344E-09
 -1      1053-1.28235E+05-7.83818E+01-8.87370E+03 3.81932E+04 2.88219E-09-4.97494E-10
 -1      1054-1.30048E+03-4.11172E+05-3.73485E+04 9.26038E+04-1.11941E-08-3.36331E-09
 -1      1055-6.77633E+03-4.21639E+05-2.10858E+04 1.56551E+05-4.59863E-09 1.67347E-09
 -1      1056-1.89356E+02-4.16043E+05-8.49847E+03 9.23667E+04-9.93282E-09 1.89198E-09
 -1      1057-2.48447E+02-4.16101E+05-2.84630E+03 1.56520E+05-6.57656E-09 1.95314E-09
 -1      1058-2.84719E+02-4.16629E+05 1.25709E+03 9.26498E+04-1.45401E-08 1.26602E-09
 -1      1059 2.94764E+05 1.74993E+05 4.82847E+04 2.25907E+05-2.43745E-10 1.33150E-09
 -1      1060 3.02826E+05 1.87540E+05 2.81139E+04 2.30051E+05 9.52696E-09 2.54795E-09
 -1      1061 2.98169E+05 1.76302E+05 1.30562E+04 2.29437E+05 3.46961E-09-8.00355E-10
 -1      1062 2.95905E+05 1.80308E+05 8.34737E+03 2.30691E+05-8.98277E-09-1.95780E-09
 -1      1063 2.98408E+05 1.76444E+05 7.03815E+03 2.29616E+05 6.14045E-09-3.37525E-09
 -1      1064 2.96070E+05 1.80453E+05 9.98184E+03 2.30708E+05 1.21454E-08-2.36582E-10
 -1      1065 2.98041E+05 1.76226E+05 1.69423E+04 2.29364E+05 1.53250E-10-5.51609E-10
 -1      1066 3.05375E+05 1.90217E+05 3.74689E+04 2.29871E+05 6.17774E-09 1.34605E-09
 -1      1067 2.93495E+05 1.74429E+05 6.47359E+04 2.24611E+05-2.96313E-09 3.35785E-09
 -1      1068-8.75695E+04-4.20373E+01-4.77451E+03 2.09179E+04 1.35883E-08-9.76229E-10
 -1      1069-8.89883E+04-6.62559E+02-2.69134E+03 3.55271E+04 1.57268E-08-1.63254E-09
 -1      1070-8.81888E+04 9.76290E+01-1.07103E+03 2.08383E+04-2.80090E-09-1.45064E-10
 -1      1071-8.83282E+04 1.34128E+02-3.47367E+02 3.56044E+04-6.76600E-09-1.93518E-09
 -1      1072-8.82528E+04 8.96981E+01 2.37279E+02 2.08387E+04 1.21977E-08-2.51134E-09
 -1      1073-8.79725E+04 5.08023E+02 1.07707E+03 3.55184E+04-2.20325E-09-1.97497E-09
 -1      1074-8.85102E+04 1.30857E+02 2.06343E+03 2.09235E+04 3.17277E-09 8.80505E-11
 -1      1075-8.70742E+02-3.02503E+05-2.62117E+04 5.74462E+04-8.92032E-09-1.77261E-09
 -1      1076-4.78498E+03-3.09820E+05-1.60136E+04 9.70182E+04-4.24836E-09 6.28916E-10
 -1      1077-1.26057E+02-3.05686E+05-8.92374E+03 5.73057E+04-8.85098E-09-2.88526E-09
 -1      1078-2.31990E+03-3.07721E+05-9.11809E+03 9.69936E+04-5.76256E-09 3.99064E-09
 -1      1079-4.91544E+02-3.04560E+05-1.16179E+04 5.74764E+04-1.62556E-08 4.59568E-09
 -1      1080 1.78306E+05 1.04276E+05 3.12093E+04 1.35551E+05-1.17088E-08 5.63887E-11
 -1      1081 1.84341E+05 1.11572E+05 1.81207E+04 1.37993E+05-3.51736E-09 3.18823E-09
 -1      1082 1.80498E+05 1.05137E+05 8.30807E+03 1.37838E+05 9.20909E-09 3.94039E-10
 -1      1083 1.79864E+05 1.06877E+05 5.11410E+03 1.38402E+05 6.09128E-09-2.45976E-09
 -1      1084 1.80664E+05 1.05235E+05 3.99173E+03 1.37957E+05-7.04808E-09 4.85414E-09
 -1      1085 1.79881E+05 1.06893E+05 5.28180E+03 1.38404E+05 8.28550E-09-3.78253E-09
 -1      1086 1.80485E+05 1.05129E+05 8.70682E+03 1.37831E+05 1.29376E-08-2.26464E-10
 -1      1087 1.84604E+05 1.11845E+05 1.90805E+04 1.37975E+05-6.97696E-10-1.00567E-08
 -1      1088 1.78173E+05 1.04220E+05 3.28973E+04 1.35419E+05 1.94723E-09-3.61979E-10
 -1      1089-3.01753E+02-1.93116E+05-8.68829E+03 2.74641E+04 1.01704E-08-2.79806E-09
 -1      1090-1.64937E+03-1.95506E+05-6.25508E+03 4.63083E+04 1.26231E-08-2.56250E-10
 -1      1091-5.92951E+01-1.94013E+05-5.27709E+03 2.73959E+04 1.57625E-08-8.11156E-11
 -1      1092-2.49489E+03-1.96211E+05-8.60679E+03 4.62977E+04 1.85094E-08-1.48839E-09
 -1      1093-4.40960E+02-1.92403E+05-1.36678E+04 2.74726E+04 8.10587E-09 1.97906E-09
 -1      1094-1.00664E+06-7.82634E+02-2.88322E+04 3.41220E+04 9.45874E-11 7.50333E-10
 -1      1095-1.01464E+06-4.87211E+03-1.78752E+04 5.72618E+04-8.95852E-11-4.06999E-10
 -1      1096-1.01017E+06 6.69257E+01-1.05546E+04 3.39097E+04 3.18323E-11 5.67070E-10
 -1      1097-1.01152E+06-7.53941E+02-1.10821E+04 5.75027E+04-1.53022E-10-1.03682E-10
 -1      1098-1.00992E+06 1.15480E+02-1.59866E+04 3.38862E+04 1.88493E-10 2.25100E-10
 -1      1099-1.01894E+06-9.70869E+03-3.35349E+04 5.74275E+04-1.08116E-10-8.00355E-11
 -1      1100-1.00279E+06-1.44731E+03-5.72320E+04 3.39799E+04 1.08230E-10 2.80124E-10
 -1      1101-7.40362E+05-8.08975E+02-3.19323E+04 2.24830E+04 1.52340E-10 4.54747E-10
 -1      1102-7.49307E+05-5.36624E+03-1.94400E+04 3.78733E+04 3.00133E-11-5.11136E-10
 -1      1103-7.44274E+05 9.11947E+01-1.07691E+04 2.23605E+04-2.95586E-11 1.30058E-10
 -1      1104-7.45593E+05-6.72722E+02-1.02486E+04 3.80077E+04-1.93268E-11-3.65617E-10
 -1      1105-7.44132E+05 1.13252E+02-1.37716E+04 2.23515E+04-5.44276E-11 2.28511E-10
 -1      1106-7.51657E+05-8.04784E+03-2.80924E+04 3.79439E+04 9.09495E-12 3.56522E-10
 -1      1107-7.38217E+05-1.19112E+03-4.76265E+04 2.24221E+04-3.13776E-11 5.03860E-10
 -1      1108-4.01772E+05-3.79723E+02-1.49574E+04 2.31469E+04-4.81123E-10-1.97815E-10
 -1      1109-4.05942E+05-2.48502E+03-9.40975E+03 3.91145E+04-2.40107E-10 4.85215E-10
 -1      1110-4.03581E+05 5.83794E+01-5.81697E+03 2.30347E+04-8.00355E-11-3.11502E-11
 -1      1111-4.04379E+05-4.14334E+02-6.49918E+03 3.92312E+04-1.64391E-10 5.75824E-11
 -1      1112-4.03391E+05 8.34288E+01-9.74629E+03 2.30310E+04-3.56181E-10 1.13687E-11
 -1      1113-4.09000E+05-6.00012E+03-2.07298E+04 3.91561E+04-3.81647E-10 1.77351E-10
 -1      1114-3.98951E+05-8.92910E+02-3.54939E+04 2.31091E+04 2.68301E-11-1.85537E-10
 -1      1115 5.49174E+04 2.17002E+02 8.59786E+03 2.18929E+04 2.42380E-10-8.95852E-11
 -1      1116 5.73782E+04 1.49635E+03 4.52861E+03 3.70214E+04-1.28921E-10 5.72982E-11
 -1      1117 5.60307E+04 4.78345E+00 1.11059E+03 2.18059E+04-7.32143E-11-3.74854E-10
 -1      1118 5.59762E+04-6.22802E+01-1.17646E+03 3.71086E+04-4.01428E-10-1.87015E-11
 -1      1119 5.62808E+04 3.24964E+01-3.92940E+03 2.18056E+04-3.82329E-10-2.25327E-10
 -1      1120 5.34788E+04-3.01790E+03-9.98627E+03 3.70323E+04-5.11591E-12 2.84302E-10
 -1      1121 5.85521E+04-4.57965E+02-1.77408E+04 2.18819E+04-8.13998E-11 1.23691E-10
 -1      1122 6.30740E+05 9.57283E+02 3.77768E+04 2.26789E+04-1.92813E-10 5.71163E-10
 -1      1123 6.41424E+05 6.42201E+03 2.17047E+04 3.83029E+04-3.03089E-10-1.87356E-10
 -1      1124 6.35482E+05-6.20145E+01 9.46902E+03 2.26042E+04-9.52696E-11-1.00044E-11
 -1      1125 6.36296E+05 3.36814E+02 4.92207E+03 3.83768E+04 6.98989E-10 8.29360E-10
 -1      1126 6.35841E+05-2.49978E+01 2.31274E+03 2.26045E+04-7.41238E-11-1.97360E-10
 -1      1127 6.35901E+05 1.29054E+01 1.10072E+03 3.83053E+04 2.73076E-10 3.43789E-10
 -1      1128 6.35911E+05-1.36856E+01 3.82421E+02 2.26759E+04-3.45608E-11-5.75255E-11
 -1      1129 1.46001E+06 2.02801E+03 8.12874E+04 6.38923E+04-5.40240E-10-7.45786E-10
 -1      1130 1.48279E+06 1.36800E+04 4.92706E+04 1.07896E+05 8.86985E-10 6.85532E-10
 -1      1131 1.46988E+06-1.91961E+02 2.68466E+04 6.37438E+04-1.80535E-10-6.92353E-10
 -1      1132 1.47313E+06 1.69095E+03 2.47978E+04 1.08072E+05 9.01991E-10 1.36242E-09
 -1      1133 1.46966E+06-2.66533E+02 3.24993E+04 6.37129E+04 7.46695E-10 7.87622E-10
 -1      1134 1.48736E+06 1.86484E+04 6.55648E+04 1.07924E+05-1.31877E-10 3.78350E-10
 -1      1135 1.45608E+06 2.66808E+03 1.10846E+05 6.39073E+04-5.34783E-10-1.07320E-09
 -1      1136-2.10433E+06-5.82371E+03-2.37436E+05 1.72935E+04-6.93035E-10-1.14960E-09
 -1      1137-2.17158E+06-4.02683E+04-1.39073E+05 2.87325E+04-9.10859E-10 2.38833E-09
 -1      1138-2.13392E+06 5.29735E+02-6.59870E+04 1.71420E+04-9.09495E-12 4.11092E-10
 -1      1139-2.14076E+06-2.96133E+03-4.52295E+04 2.89593E+04 3.78350E-10 1.09003E-09
 -1      1140-2.13511E+06 4.14748E+02-4.23099E+04 1.70927E+04 4.59295E-11-1.14278E-09
 -1      1141-2.15329E+06-1.89622E+04-7.08313E+04 2.89993E+04-4.99995E-10-2.91129E-09
 -1      1142-2.12146E+06-2.70133E+03-1.13730E+05 1.70998E+04 8.61178E-12-1.19326E-09
 -1      1143-1.87439E+06-2.18024E+03-8.80240E+04 1.82671E+04 6.80302E-10 3.29237E-09
 -1      1144-1.89911E+06-1.48274E+04-5.27022E+04 3.09783E+04 1.60071E-09-2.27737E-09
 -1      1145-1.88524E+06 2.35843E+02-2.74275E+04 1.80149E+04-1.40426E-09 1.77715E-09
 -1      1146-1.88837E+06-1.49705E+03-2.32910E+04 3.13179E+04-1.21327E-09 1.63993E-09
 -1      1147-1.88522E+06 2.63789E+02-2.83505E+04 1.79306E+04-4.22460E-10-1.60981E-09
 -1      1148-1.89993E+06-1.56118E+04-5.53749E+04 3.14533E+04-3.21393E-09 1.92995E-09
 -1      1149-1.87380E+06-2.23428E+03-9.28585E+04 1.78923E+04 1.30012E-09-2.07001E-09
 -1      1150-1.83323E+06-2.17636E+03-8.91952E+04 4.62299E+04-6.01904E-09 2.48474E-09
 -1      1151-1.85836E+06-1.48203E+04-5.36663E+04 7.96022E+04-2.75395E-09 1.41881E-10
 -1      1152-1.84429E+06 3.66247E+02-2.84960E+04 4.58109E+04 5.76074E-09-3.27964E-09
 -1      1153-1.84777E+06-1.37309E+03-2.51504E+04 8.00900E+04-3.81669E-09 3.90264E-09
 -1      1154-1.84420E+06 4.40853E+02-3.17427E+04 4.57328E+04-9.63200E-09 1.36606E-09
 -1      1155-1.86114E+06-1.76252E+04-6.30546E+04 8.00566E+04-1.85496E-08 5.73164E-09
 -1      1156-1.83109E+06-2.43507E+03-1.06189E+05 4.58726E+04-1.14783E-08 2.10639E-09
 -1      1157-1.32514E+06-1.28564E+03-5.69610E+04 4.31131E+04-2.42926E-09-2.43745E-09
 -1      1158-1.34123E+06-9.25074E+03-3.46810E+04 7.46470E+04 8.22138E-09-1.21872E-09
 -1      1159-1.33217E+06 3.57406E+02-1.92361E+04 4.28147E+04-7.89441E-09-1.87265E-09
 -1      1160-1.33469E+06-8.48728E+02-1.83461E+04 7.49582E+04-1.31649E-10-3.39242E-10
 -1      1161-1.33193E+06 4.11493E+02-2.47020E+04 4.27875E+04 9.72818E-10-1.90857E-09
 -1      1162-1.34558E+06-1.41087E+04-5.04437E+04 7.48247E+04 1.96815E-09 7.96717E-10
 -1      1163-1.32128E+06-1.93648E+03-8.55399E+04 4.29773E+04 4.46562E-09-4.71482E-09
 -1      1164-7.03921E+05-5.10368E+02-2.54058E+04 2.90208E+04-1.18662E-08 7.43057E-10
 -1      1165-7.11114E+05-4.01127E+03-1.57254E+04 5.01412E+04-8.79345E-09 4.41196E-09
 -1      1166-7.07019E+05 2.23505E+02-9.22752E+03 2.88677E+04-1.17896E-08-2.70256E-09
 -1      1167-7.08314E+05-3.84248E+02-9.60581E+03 5.02894E+04 7.89441E-10 4.20698E-10
 -1      1168-7.06796E+05 2.51061E+02-1.37759E+04 2.88643E+04 2.75918E-09-3.07887E-09
 -1      1169-7.14648E+05-8.08447E+03-2.88294E+04 5.01737E+04-9.84187E-09 4.20914E-09
 -1      1170-7.00651E+05-1.10691E+03-4.91783E+04 2.90014E+04 3.76667E-09-2.40834E-09
 -1      1171-2.60023E+05-8.10794E+01-6.26293E+03 1.64693E+04 1.25588E-08-3.45494E-09
 -1      1172-2.61807E+05-9.06285E+02-4.05361E+03 2.82739E+04 1.17867E-08-3.88718E-09
 -1      1173-2.60765E+05 1.02117E+02-2.72159E+03 1.64078E+04 3.51571E-09-2.25498E-09
 -1      1174-2.61206E+05-9.13546E+01-3.35038E+03 2.83314E+04-3.51042E-09 1.24555E-09
 -1      1175-2.60634E+05 1.13442E+02-5.30141E+03 1.64099E+04 2.76373E-09-3.83602E-09
 -1      1176-2.63791E+05-3.22364E+03-1.14826E+04 2.82538E+04-8.60382E-09 2.54465E-09
 -1      1177-2.58154E+05-4.33789E+02-1.97444E+04 1.64926E+04 3.78895E-09-2.31103E-09
 -3
 9999
