    1C
    1UUSER                                                              
    1UDATE              21.september.2022                               
    1UTIME              09:10:45                                        
    1UHOST                                                              
    1UPGM               CalculiX                                        
    1UVERSION           Version 2.19                             
    1UCOMPILETIME       Fri Dec 17 13:15:26 CET 2021                    
    1UDIR                                                               
    1UDBN                                                               
    1UMAT    1MESH_MATERIAL                                             
    2C                           641                                     1
 -1         1 0.00000E+00 0.00000E+00 0.00000E+00
 -1         2 8.33333E-03 0.00000E+00 0.00000E+00
 -1         3 1.66667E-02 0.00000E+00 0.00000E+00
 -1         4 2.50000E-02 0.00000E+00 0.00000E+00
 -1         5 3.33333E-02 0.00000E+00 0.00000E+00
 -1         6 4.16667E-02 0.00000E+00 0.00000E+00
 -1         7 5.00000E-02 0.00000E+00 0.00000E+00
 -1         8 5.83333E-02 0.00000E+00 0.00000E+00
 -1         9 6.66667E-02 0.00000E+00 0.00000E+00
 -1        14 0.00000E+00 6.25000E-03 0.00000E+00
 -1        15 8.33333E-03 6.25000E-03 0.00000E+00
 -1        16 1.66667E-02 6.25000E-03 0.00000E+00
 -1        17 2.50000E-02 6.25000E-03 0.00000E+00
 -1        18 3.33333E-02 6.25000E-03 0.00000E+00
 -1        19 4.16667E-02 6.25000E-03 0.00000E+00
 -1        20 5.00000E-02 6.25000E-03 0.00000E+00
 -1        21 5.83333E-02 6.25000E-03 0.00000E+00
 -1        22 6.66667E-02 6.25000E-03 0.00000E+00
 -1        27 0.00000E+00 1.25000E-02 0.00000E+00
 -1        28 8.33333E-03 1.25000E-02 0.00000E+00
 -1        29 1.66667E-02 1.25000E-02 0.00000E+00
 -1        30 2.50000E-02 1.25000E-02 0.00000E+00
 -1        31 3.33333E-02 1.25000E-02 0.00000E+00
 -1        32 4.16667E-02 1.25000E-02 0.00000E+00
 -1        33 5.00000E-02 1.25000E-02 0.00000E+00
 -1        34 5.83333E-02 1.25000E-02 0.00000E+00
 -1        35 6.66667E-02 1.25000E-02 0.00000E+00
 -1        36 7.50000E-02 1.25000E-02 0.00000E+00
 -1        37 8.33333E-02 1.25000E-02 0.00000E+00
 -1        38 9.16667E-02 1.25000E-02 0.00000E+00
 -1        39 1.00000E-01 1.25000E-02 0.00000E+00
 -1        40 0.00000E+00 1.87500E-02 0.00000E+00
 -1        41 8.33333E-03 1.87500E-02 0.00000E+00
 -1        42 1.66667E-02 1.87500E-02 0.00000E+00
 -1        43 2.50000E-02 1.87500E-02 0.00000E+00
 -1        44 3.33333E-02 1.87500E-02 0.00000E+00
 -1        45 4.16667E-02 1.87500E-02 0.00000E+00
 -1        46 5.00000E-02 1.87500E-02 0.00000E+00
 -1        47 5.83333E-02 1.87500E-02 0.00000E+00
 -1        48 6.66667E-02 1.87500E-02 0.00000E+00
 -1        49 7.50000E-02 1.87500E-02 0.00000E+00
 -1        50 8.33333E-02 1.87500E-02 0.00000E+00
 -1        51 9.16667E-02 1.87500E-02 0.00000E+00
 -1        52 1.00000E-01 1.87500E-02 0.00000E+00
 -1        53 0.00000E+00 2.50000E-02 0.00000E+00
 -1        54 8.33333E-03 2.50000E-02 0.00000E+00
 -1        55 1.66667E-02 2.50000E-02 0.00000E+00
 -1        56 2.50000E-02 2.50000E-02 0.00000E+00
 -1        57 3.33333E-02 2.50000E-02 0.00000E+00
 -1        58 4.16667E-02 2.50000E-02 0.00000E+00
 -1        59 5.00000E-02 2.50000E-02 0.00000E+00
 -1        60 5.83333E-02 2.50000E-02 0.00000E+00
 -1        61 6.66667E-02 2.50000E-02 0.00000E+00
 -1        62 7.50000E-02 2.50000E-02 0.00000E+00
 -1        63 8.33333E-02 2.50000E-02 0.00000E+00
 -1        64 9.16667E-02 2.50000E-02 0.00000E+00
 -1        65 1.00000E-01 2.50000E-02 0.00000E+00
 -1        66 1.04167E-03 0.00000E+00 0.00000E+00
 -1        67 2.08333E-03 0.00000E+00 0.00000E+00
 -1        68 3.12500E-03 0.00000E+00 0.00000E+00
 -1        69 4.16667E-03 0.00000E+00 0.00000E+00
 -1        70 5.20833E-03 0.00000E+00 0.00000E+00
 -1        71 6.25000E-03 0.00000E+00 0.00000E+00
 -1        72 7.29167E-03 0.00000E+00 0.00000E+00
 -1        73 0.00000E+00 1.04167E-03 0.00000E+00
 -1        74 0.00000E+00 2.08333E-03 0.00000E+00
 -1        75 0.00000E+00 3.12500E-03 0.00000E+00
 -1        76 0.00000E+00 4.16667E-03 0.00000E+00
 -1        77 0.00000E+00 5.20833E-03 0.00000E+00
 -1        78 9.37500E-03 0.00000E+00 0.00000E+00
 -1        79 1.04167E-02 0.00000E+00 0.00000E+00
 -1        80 1.14583E-02 0.00000E+00 0.00000E+00
 -1        81 1.25000E-02 0.00000E+00 0.00000E+00
 -1        82 1.35417E-02 0.00000E+00 0.00000E+00
 -1        83 1.45833E-02 0.00000E+00 0.00000E+00
 -1        84 1.56250E-02 0.00000E+00 0.00000E+00
 -1        85 8.33333E-03 1.04167E-03 0.00000E+00
 -1        86 8.33333E-03 2.08333E-03 0.00000E+00
 -1        87 8.33333E-03 3.12500E-03 0.00000E+00
 -1        88 8.33333E-03 4.16667E-03 0.00000E+00
 -1        89 8.33333E-03 5.20833E-03 0.00000E+00
 -1        90 1.77083E-02 0.00000E+00 0.00000E+00
 -1        91 1.87500E-02 0.00000E+00 0.00000E+00
 -1        92 1.97917E-02 0.00000E+00 0.00000E+00
 -1        93 2.08333E-02 0.00000E+00 0.00000E+00
 -1        94 2.18750E-02 0.00000E+00 0.00000E+00
 -1        95 2.29167E-02 0.00000E+00 0.00000E+00
 -1        96 2.39583E-02 0.00000E+00 0.00000E+00
 -1        97 1.66667E-02 1.04167E-03 0.00000E+00
 -1        98 1.66667E-02 2.08333E-03 0.00000E+00
 -1        99 1.66667E-02 3.12500E-03 0.00000E+00
 -1       100 1.66667E-02 4.16667E-03 0.00000E+00
 -1       101 1.66667E-02 5.20833E-03 0.00000E+00
 -1       102 2.60417E-02 0.00000E+00 0.00000E+00
 -1       103 2.70833E-02 0.00000E+00 0.00000E+00
 -1       104 2.81250E-02 0.00000E+00 0.00000E+00
 -1       105 2.91667E-02 0.00000E+00 0.00000E+00
 -1       106 3.02083E-02 0.00000E+00 0.00000E+00
 -1       107 3.12500E-02 0.00000E+00 0.00000E+00
 -1       108 3.22917E-02 0.00000E+00 0.00000E+00
 -1       109 2.50000E-02 1.04167E-03 0.00000E+00
 -1       110 2.50000E-02 2.08333E-03 0.00000E+00
 -1       111 2.50000E-02 3.12500E-03 0.00000E+00
 -1       112 2.50000E-02 4.16667E-03 0.00000E+00
 -1       113 2.50000E-02 5.20833E-03 0.00000E+00
 -1       114 3.43750E-02 0.00000E+00 0.00000E+00
 -1       115 3.54167E-02 0.00000E+00 0.00000E+00
 -1       116 3.64583E-02 0.00000E+00 0.00000E+00
 -1       117 3.75000E-02 0.00000E+00 0.00000E+00
 -1       118 3.85417E-02 0.00000E+00 0.00000E+00
 -1       119 3.95833E-02 0.00000E+00 0.00000E+00
 -1       120 4.06250E-02 0.00000E+00 0.00000E+00
 -1       121 3.33333E-02 1.04167E-03 0.00000E+00
 -1       122 3.33333E-02 2.08333E-03 0.00000E+00
 -1       123 3.33333E-02 3.12500E-03 0.00000E+00
 -1       124 3.33333E-02 4.16667E-03 0.00000E+00
 -1       125 3.33333E-02 5.20833E-03 0.00000E+00
 -1       126 4.27083E-02 0.00000E+00 0.00000E+00
 -1       127 4.37500E-02 0.00000E+00 0.00000E+00
 -1       128 4.47917E-02 0.00000E+00 0.00000E+00
 -1       129 4.58333E-02 0.00000E+00 0.00000E+00
 -1       130 4.68750E-02 0.00000E+00 0.00000E+00
 -1       131 4.79167E-02 0.00000E+00 0.00000E+00
 -1       132 4.89583E-02 0.00000E+00 0.00000E+00
 -1       133 4.16667E-02 1.04167E-03 0.00000E+00
 -1       134 4.16667E-02 2.08333E-03 0.00000E+00
 -1       135 4.16667E-02 3.12500E-03 0.00000E+00
 -1       136 4.16667E-02 4.16667E-03 0.00000E+00
 -1       137 4.16667E-02 5.20833E-03 0.00000E+00
 -1       138 5.10417E-02 0.00000E+00 0.00000E+00
 -1       139 5.20833E-02 0.00000E+00 0.00000E+00
 -1       140 5.31250E-02 0.00000E+00 0.00000E+00
 -1       141 5.41667E-02 0.00000E+00 0.00000E+00
 -1       142 5.52083E-02 0.00000E+00 0.00000E+00
 -1       143 5.62500E-02 0.00000E+00 0.00000E+00
 -1       144 5.72917E-02 0.00000E+00 0.00000E+00
 -1       145 5.00000E-02 1.04167E-03 0.00000E+00
 -1       146 5.00000E-02 2.08333E-03 0.00000E+00
 -1       147 5.00000E-02 3.12500E-03 0.00000E+00
 -1       148 5.00000E-02 4.16667E-03 0.00000E+00
 -1       149 5.00000E-02 5.20833E-03 0.00000E+00
 -1       150 5.93750E-02 0.00000E+00 0.00000E+00
 -1       151 6.04167E-02 0.00000E+00 0.00000E+00
 -1       152 6.14583E-02 0.00000E+00 0.00000E+00
 -1       153 6.25000E-02 0.00000E+00 0.00000E+00
 -1       154 6.35417E-02 0.00000E+00 0.00000E+00
 -1       155 6.45833E-02 0.00000E+00 0.00000E+00
 -1       156 6.56250E-02 0.00000E+00 0.00000E+00
 -1       157 5.83333E-02 1.04167E-03 0.00000E+00
 -1       158 5.83333E-02 2.08333E-03 0.00000E+00
 -1       159 5.83333E-02 3.12500E-03 0.00000E+00
 -1       160 5.83333E-02 4.16667E-03 0.00000E+00
 -1       161 5.83333E-02 5.20833E-03 0.00000E+00
 -1       169 6.66667E-02 1.04167E-03 0.00000E+00
 -1       170 6.66667E-02 2.08333E-03 0.00000E+00
 -1       171 6.66667E-02 3.12500E-03 0.00000E+00
 -1       172 6.66667E-02 4.16667E-03 0.00000E+00
 -1       173 6.66667E-02 5.20833E-03 0.00000E+00
 -1       215 1.04167E-03 6.25000E-03 0.00000E+00
 -1       216 2.08333E-03 6.25000E-03 0.00000E+00
 -1       217 3.12500E-03 6.25000E-03 0.00000E+00
 -1       218 4.16667E-03 6.25000E-03 0.00000E+00
 -1       219 5.20833E-03 6.25000E-03 0.00000E+00
 -1       220 6.25000E-03 6.25000E-03 0.00000E+00
 -1       221 7.29167E-03 6.25000E-03 0.00000E+00
 -1       222 0.00000E+00 7.29167E-03 0.00000E+00
 -1       223 0.00000E+00 8.33333E-03 0.00000E+00
 -1       224 0.00000E+00 9.37500E-03 0.00000E+00
 -1       225 0.00000E+00 1.04167E-02 0.00000E+00
 -1       226 0.00000E+00 1.14583E-02 0.00000E+00
 -1       227 9.37500E-03 6.25000E-03 0.00000E+00
 -1       228 1.04167E-02 6.25000E-03 0.00000E+00
 -1       229 1.14583E-02 6.25000E-03 0.00000E+00
 -1       230 1.25000E-02 6.25000E-03 0.00000E+00
 -1       231 1.35417E-02 6.25000E-03 0.00000E+00
 -1       232 1.45833E-02 6.25000E-03 0.00000E+00
 -1       233 1.56250E-02 6.25000E-03 0.00000E+00
 -1       234 8.33333E-03 7.29167E-03 0.00000E+00
 -1       235 8.33333E-03 8.33333E-03 0.00000E+00
 -1       236 8.33333E-03 9.37500E-03 0.00000E+00
 -1       237 8.33333E-03 1.04167E-02 0.00000E+00
 -1       238 8.33333E-03 1.14583E-02 0.00000E+00
 -1       239 1.77083E-02 6.25000E-03 0.00000E+00
 -1       240 1.87500E-02 6.25000E-03 0.00000E+00
 -1       241 1.97917E-02 6.25000E-03 0.00000E+00
 -1       242 2.08333E-02 6.25000E-03 0.00000E+00
 -1       243 2.18750E-02 6.25000E-03 0.00000E+00
 -1       244 2.29167E-02 6.25000E-03 0.00000E+00
 -1       245 2.39583E-02 6.25000E-03 0.00000E+00
 -1       246 1.66667E-02 7.29167E-03 0.00000E+00
 -1       247 1.66667E-02 8.33333E-03 0.00000E+00
 -1       248 1.66667E-02 9.37500E-03 0.00000E+00
 -1       249 1.66667E-02 1.04167E-02 0.00000E+00
 -1       250 1.66667E-02 1.14583E-02 0.00000E+00
 -1       251 2.60417E-02 6.25000E-03 0.00000E+00
 -1       252 2.70833E-02 6.25000E-03 0.00000E+00
 -1       253 2.81250E-02 6.25000E-03 0.00000E+00
 -1       254 2.91667E-02 6.25000E-03 0.00000E+00
 -1       255 3.02083E-02 6.25000E-03 0.00000E+00
 -1       256 3.12500E-02 6.25000E-03 0.00000E+00
 -1       257 3.22917E-02 6.25000E-03 0.00000E+00
 -1       258 2.50000E-02 7.29167E-03 0.00000E+00
 -1       259 2.50000E-02 8.33333E-03 0.00000E+00
 -1       260 2.50000E-02 9.37500E-03 0.00000E+00
 -1       261 2.50000E-02 1.04167E-02 0.00000E+00
 -1       262 2.50000E-02 1.14583E-02 0.00000E+00
 -1       263 3.43750E-02 6.25000E-03 0.00000E+00
 -1       264 3.54167E-02 6.25000E-03 0.00000E+00
 -1       265 3.64583E-02 6.25000E-03 0.00000E+00
 -1       266 3.75000E-02 6.25000E-03 0.00000E+00
 -1       267 3.85417E-02 6.25000E-03 0.00000E+00
 -1       268 3.95833E-02 6.25000E-03 0.00000E+00
 -1       269 4.06250E-02 6.25000E-03 0.00000E+00
 -1       270 3.33333E-02 7.29167E-03 0.00000E+00
 -1       271 3.33333E-02 8.33333E-03 0.00000E+00
 -1       272 3.33333E-02 9.37500E-03 0.00000E+00
 -1       273 3.33333E-02 1.04167E-02 0.00000E+00
 -1       274 3.33333E-02 1.14583E-02 0.00000E+00
 -1       275 4.27083E-02 6.25000E-03 0.00000E+00
 -1       276 4.37500E-02 6.25000E-03 0.00000E+00
 -1       277 4.47917E-02 6.25000E-03 0.00000E+00
 -1       278 4.58333E-02 6.25000E-03 0.00000E+00
 -1       279 4.68750E-02 6.25000E-03 0.00000E+00
 -1       280 4.79167E-02 6.25000E-03 0.00000E+00
 -1       281 4.89583E-02 6.25000E-03 0.00000E+00
 -1       282 4.16667E-02 7.29167E-03 0.00000E+00
 -1       283 4.16667E-02 8.33333E-03 0.00000E+00
 -1       284 4.16667E-02 9.37500E-03 0.00000E+00
 -1       285 4.16667E-02 1.04167E-02 0.00000E+00
 -1       286 4.16667E-02 1.14583E-02 0.00000E+00
 -1       287 5.10417E-02 6.25000E-03 0.00000E+00
 -1       288 5.20833E-02 6.25000E-03 0.00000E+00
 -1       289 5.31250E-02 6.25000E-03 0.00000E+00
 -1       290 5.41667E-02 6.25000E-03 0.00000E+00
 -1       291 5.52083E-02 6.25000E-03 0.00000E+00
 -1       292 5.62500E-02 6.25000E-03 0.00000E+00
 -1       293 5.72917E-02 6.25000E-03 0.00000E+00
 -1       294 5.00000E-02 7.29167E-03 0.00000E+00
 -1       295 5.00000E-02 8.33333E-03 0.00000E+00
 -1       296 5.00000E-02 9.37500E-03 0.00000E+00
 -1       297 5.00000E-02 1.04167E-02 0.00000E+00
 -1       298 5.00000E-02 1.14583E-02 0.00000E+00
 -1       299 5.93750E-02 6.25000E-03 0.00000E+00
 -1       300 6.04167E-02 6.25000E-03 0.00000E+00
 -1       301 6.14583E-02 6.25000E-03 0.00000E+00
 -1       302 6.25000E-02 6.25000E-03 0.00000E+00
 -1       303 6.35417E-02 6.25000E-03 0.00000E+00
 -1       304 6.45833E-02 6.25000E-03 0.00000E+00
 -1       305 6.56250E-02 6.25000E-03 0.00000E+00
 -1       306 5.83333E-02 7.29167E-03 0.00000E+00
 -1       307 5.83333E-02 8.33333E-03 0.00000E+00
 -1       308 5.83333E-02 9.37500E-03 0.00000E+00
 -1       309 5.83333E-02 1.04167E-02 0.00000E+00
 -1       310 5.83333E-02 1.14583E-02 0.00000E+00
 -1       318 6.66667E-02 7.29167E-03 0.00000E+00
 -1       319 6.66667E-02 8.33333E-03 0.00000E+00
 -1       320 6.66667E-02 9.37500E-03 0.00000E+00
 -1       321 6.66667E-02 1.04167E-02 0.00000E+00
 -1       322 6.66667E-02 1.14583E-02 0.00000E+00
 -1       364 1.04167E-03 1.25000E-02 0.00000E+00
 -1       365 2.08333E-03 1.25000E-02 0.00000E+00
 -1       366 3.12500E-03 1.25000E-02 0.00000E+00
 -1       367 4.16667E-03 1.25000E-02 0.00000E+00
 -1       368 5.20833E-03 1.25000E-02 0.00000E+00
 -1       369 6.25000E-03 1.25000E-02 0.00000E+00
 -1       370 7.29167E-03 1.25000E-02 0.00000E+00
 -1       371 0.00000E+00 1.35417E-02 0.00000E+00
 -1       372 0.00000E+00 1.45833E-02 0.00000E+00
 -1       373 0.00000E+00 1.56250E-02 0.00000E+00
 -1       374 0.00000E+00 1.66667E-02 0.00000E+00
 -1       375 0.00000E+00 1.77083E-02 0.00000E+00
 -1       376 9.37500E-03 1.25000E-02 0.00000E+00
 -1       377 1.04167E-02 1.25000E-02 0.00000E+00
 -1       378 1.14583E-02 1.25000E-02 0.00000E+00
 -1       379 1.25000E-02 1.25000E-02 0.00000E+00
 -1       380 1.35417E-02 1.25000E-02 0.00000E+00
 -1       381 1.45833E-02 1.25000E-02 0.00000E+00
 -1       382 1.56250E-02 1.25000E-02 0.00000E+00
 -1       383 8.33333E-03 1.35417E-02 0.00000E+00
 -1       384 8.33333E-03 1.45833E-02 0.00000E+00
 -1       385 8.33333E-03 1.56250E-02 0.00000E+00
 -1       386 8.33333E-03 1.66667E-02 0.00000E+00
 -1       387 8.33333E-03 1.77083E-02 0.00000E+00
 -1       388 1.77083E-02 1.25000E-02 0.00000E+00
 -1       389 1.87500E-02 1.25000E-02 0.00000E+00
 -1       390 1.97917E-02 1.25000E-02 0.00000E+00
 -1       391 2.08333E-02 1.25000E-02 0.00000E+00
 -1       392 2.18750E-02 1.25000E-02 0.00000E+00
 -1       393 2.29167E-02 1.25000E-02 0.00000E+00
 -1       394 2.39583E-02 1.25000E-02 0.00000E+00
 -1       395 1.66667E-02 1.35417E-02 0.00000E+00
 -1       396 1.66667E-02 1.45833E-02 0.00000E+00
 -1       397 1.66667E-02 1.56250E-02 0.00000E+00
 -1       398 1.66667E-02 1.66667E-02 0.00000E+00
 -1       399 1.66667E-02 1.77083E-02 0.00000E+00
 -1       400 2.60417E-02 1.25000E-02 0.00000E+00
 -1       401 2.70833E-02 1.25000E-02 0.00000E+00
 -1       402 2.81250E-02 1.25000E-02 0.00000E+00
 -1       403 2.91667E-02 1.25000E-02 0.00000E+00
 -1       404 3.02083E-02 1.25000E-02 0.00000E+00
 -1       405 3.12500E-02 1.25000E-02 0.00000E+00
 -1       406 3.22917E-02 1.25000E-02 0.00000E+00
 -1       407 2.50000E-02 1.35417E-02 0.00000E+00
 -1       408 2.50000E-02 1.45833E-02 0.00000E+00
 -1       409 2.50000E-02 1.56250E-02 0.00000E+00
 -1       410 2.50000E-02 1.66667E-02 0.00000E+00
 -1       411 2.50000E-02 1.77083E-02 0.00000E+00
 -1       412 3.43750E-02 1.25000E-02 0.00000E+00
 -1       413 3.54167E-02 1.25000E-02 0.00000E+00
 -1       414 3.64583E-02 1.25000E-02 0.00000E+00
 -1       415 3.75000E-02 1.25000E-02 0.00000E+00
 -1       416 3.85417E-02 1.25000E-02 0.00000E+00
 -1       417 3.95833E-02 1.25000E-02 0.00000E+00
 -1       418 4.06250E-02 1.25000E-02 0.00000E+00
 -1       419 3.33333E-02 1.35417E-02 0.00000E+00
 -1       420 3.33333E-02 1.45833E-02 0.00000E+00
 -1       421 3.33333E-02 1.56250E-02 0.00000E+00
 -1       422 3.33333E-02 1.66667E-02 0.00000E+00
 -1       423 3.33333E-02 1.77083E-02 0.00000E+00
 -1       424 4.27083E-02 1.25000E-02 0.00000E+00
 -1       425 4.37500E-02 1.25000E-02 0.00000E+00
 -1       426 4.47917E-02 1.25000E-02 0.00000E+00
 -1       427 4.58333E-02 1.25000E-02 0.00000E+00
 -1       428 4.68750E-02 1.25000E-02 0.00000E+00
 -1       429 4.79167E-02 1.25000E-02 0.00000E+00
 -1       430 4.89583E-02 1.25000E-02 0.00000E+00
 -1       431 4.16667E-02 1.35417E-02 0.00000E+00
 -1       432 4.16667E-02 1.45833E-02 0.00000E+00
 -1       433 4.16667E-02 1.56250E-02 0.00000E+00
 -1       434 4.16667E-02 1.66667E-02 0.00000E+00
 -1       435 4.16667E-02 1.77083E-02 0.00000E+00
 -1       436 5.10417E-02 1.25000E-02 0.00000E+00
 -1       437 5.20833E-02 1.25000E-02 0.00000E+00
 -1       438 5.31250E-02 1.25000E-02 0.00000E+00
 -1       439 5.41667E-02 1.25000E-02 0.00000E+00
 -1       440 5.52083E-02 1.25000E-02 0.00000E+00
 -1       441 5.62500E-02 1.25000E-02 0.00000E+00
 -1       442 5.72917E-02 1.25000E-02 0.00000E+00
 -1       443 5.00000E-02 1.35417E-02 0.00000E+00
 -1       444 5.00000E-02 1.45833E-02 0.00000E+00
 -1       445 5.00000E-02 1.56250E-02 0.00000E+00
 -1       446 5.00000E-02 1.66667E-02 0.00000E+00
 -1       447 5.00000E-02 1.77083E-02 0.00000E+00
 -1       448 5.93750E-02 1.25000E-02 0.00000E+00
 -1       449 6.04167E-02 1.25000E-02 0.00000E+00
 -1       450 6.14583E-02 1.25000E-02 0.00000E+00
 -1       451 6.25000E-02 1.25000E-02 0.00000E+00
 -1       452 6.35417E-02 1.25000E-02 0.00000E+00
 -1       453 6.45833E-02 1.25000E-02 0.00000E+00
 -1       454 6.56250E-02 1.25000E-02 0.00000E+00
 -1       455 5.83333E-02 1.35417E-02 0.00000E+00
 -1       456 5.83333E-02 1.45833E-02 0.00000E+00
 -1       457 5.83333E-02 1.56250E-02 0.00000E+00
 -1       458 5.83333E-02 1.66667E-02 0.00000E+00
 -1       459 5.83333E-02 1.77083E-02 0.00000E+00
 -1       460 6.77083E-02 1.25000E-02 0.00000E+00
 -1       461 6.87500E-02 1.25000E-02 0.00000E+00
 -1       462 6.97917E-02 1.25000E-02 0.00000E+00
 -1       463 7.08333E-02 1.25000E-02 0.00000E+00
 -1       464 7.18750E-02 1.25000E-02 0.00000E+00
 -1       465 7.29167E-02 1.25000E-02 0.00000E+00
 -1       466 7.39583E-02 1.25000E-02 0.00000E+00
 -1       467 6.66667E-02 1.35417E-02 0.00000E+00
 -1       468 6.66667E-02 1.45833E-02 0.00000E+00
 -1       469 6.66667E-02 1.56250E-02 0.00000E+00
 -1       470 6.66667E-02 1.66667E-02 0.00000E+00
 -1       471 6.66667E-02 1.77083E-02 0.00000E+00
 -1       472 7.60417E-02 1.25000E-02 0.00000E+00
 -1       473 7.70833E-02 1.25000E-02 0.00000E+00
 -1       474 7.81250E-02 1.25000E-02 0.00000E+00
 -1       475 7.91667E-02 1.25000E-02 0.00000E+00
 -1       476 8.02083E-02 1.25000E-02 0.00000E+00
 -1       477 8.12500E-02 1.25000E-02 0.00000E+00
 -1       478 8.22917E-02 1.25000E-02 0.00000E+00
 -1       479 7.50000E-02 1.35417E-02 0.00000E+00
 -1       480 7.50000E-02 1.45833E-02 0.00000E+00
 -1       481 7.50000E-02 1.56250E-02 0.00000E+00
 -1       482 7.50000E-02 1.66667E-02 0.00000E+00
 -1       483 7.50000E-02 1.77083E-02 0.00000E+00
 -1       484 8.43750E-02 1.25000E-02 0.00000E+00
 -1       485 8.54167E-02 1.25000E-02 0.00000E+00
 -1       486 8.64583E-02 1.25000E-02 0.00000E+00
 -1       487 8.75000E-02 1.25000E-02 0.00000E+00
 -1       488 8.85417E-02 1.25000E-02 0.00000E+00
 -1       489 8.95833E-02 1.25000E-02 0.00000E+00
 -1       490 9.06250E-02 1.25000E-02 0.00000E+00
 -1       491 8.33333E-02 1.35417E-02 0.00000E+00
 -1       492 8.33333E-02 1.45833E-02 0.00000E+00
 -1       493 8.33333E-02 1.56250E-02 0.00000E+00
 -1       494 8.33333E-02 1.66667E-02 0.00000E+00
 -1       495 8.33333E-02 1.77083E-02 0.00000E+00
 -1       496 9.27083E-02 1.25000E-02 0.00000E+00
 -1       497 9.37500E-02 1.25000E-02 0.00000E+00
 -1       498 9.47917E-02 1.25000E-02 0.00000E+00
 -1       499 9.58333E-02 1.25000E-02 0.00000E+00
 -1       500 9.68750E-02 1.25000E-02 0.00000E+00
 -1       501 9.79167E-02 1.25000E-02 0.00000E+00
 -1       502 9.89583E-02 1.25000E-02 0.00000E+00
 -1       503 9.16667E-02 1.35417E-02 0.00000E+00
 -1       504 9.16667E-02 1.45833E-02 0.00000E+00
 -1       505 9.16667E-02 1.56250E-02 0.00000E+00
 -1       506 9.16667E-02 1.66667E-02 0.00000E+00
 -1       507 9.16667E-02 1.77083E-02 0.00000E+00
 -1       508 1.00000E-01 1.35417E-02 0.00000E+00
 -1       509 1.00000E-01 1.45833E-02 0.00000E+00
 -1       510 1.00000E-01 1.56250E-02 0.00000E+00
 -1       511 1.00000E-01 1.66667E-02 0.00000E+00
 -1       512 1.00000E-01 1.77083E-02 0.00000E+00
 -1       513 1.04167E-03 1.87500E-02 0.00000E+00
 -1       514 2.08333E-03 1.87500E-02 0.00000E+00
 -1       515 3.12500E-03 1.87500E-02 0.00000E+00
 -1       516 4.16667E-03 1.87500E-02 0.00000E+00
 -1       517 5.20833E-03 1.87500E-02 0.00000E+00
 -1       518 6.25000E-03 1.87500E-02 0.00000E+00
 -1       519 7.29167E-03 1.87500E-02 0.00000E+00
 -1       520 0.00000E+00 1.97917E-02 0.00000E+00
 -1       521 0.00000E+00 2.08333E-02 0.00000E+00
 -1       522 0.00000E+00 2.18750E-02 0.00000E+00
 -1       523 0.00000E+00 2.29167E-02 0.00000E+00
 -1       524 0.00000E+00 2.39583E-02 0.00000E+00
 -1       525 9.37500E-03 1.87500E-02 0.00000E+00
 -1       526 1.04167E-02 1.87500E-02 0.00000E+00
 -1       527 1.14583E-02 1.87500E-02 0.00000E+00
 -1       528 1.25000E-02 1.87500E-02 0.00000E+00
 -1       529 1.35417E-02 1.87500E-02 0.00000E+00
 -1       530 1.45833E-02 1.87500E-02 0.00000E+00
 -1       531 1.56250E-02 1.87500E-02 0.00000E+00
 -1       532 8.33333E-03 1.97917E-02 0.00000E+00
 -1       533 8.33333E-03 2.08333E-02 0.00000E+00
 -1       534 8.33333E-03 2.18750E-02 0.00000E+00
 -1       535 8.33333E-03 2.29167E-02 0.00000E+00
 -1       536 8.33333E-03 2.39583E-02 0.00000E+00
 -1       537 1.77083E-02 1.87500E-02 0.00000E+00
 -1       538 1.87500E-02 1.87500E-02 0.00000E+00
 -1       539 1.97917E-02 1.87500E-02 0.00000E+00
 -1       540 2.08333E-02 1.87500E-02 0.00000E+00
 -1       541 2.18750E-02 1.87500E-02 0.00000E+00
 -1       542 2.29167E-02 1.87500E-02 0.00000E+00
 -1       543 2.39583E-02 1.87500E-02 0.00000E+00
 -1       544 1.66667E-02 1.97917E-02 0.00000E+00
 -1       545 1.66667E-02 2.08333E-02 0.00000E+00
 -1       546 1.66667E-02 2.18750E-02 0.00000E+00
 -1       547 1.66667E-02 2.29167E-02 0.00000E+00
 -1       548 1.66667E-02 2.39583E-02 0.00000E+00
 -1       549 2.60417E-02 1.87500E-02 0.00000E+00
 -1       550 2.70833E-02 1.87500E-02 0.00000E+00
 -1       551 2.81250E-02 1.87500E-02 0.00000E+00
 -1       552 2.91667E-02 1.87500E-02 0.00000E+00
 -1       553 3.02083E-02 1.87500E-02 0.00000E+00
 -1       554 3.12500E-02 1.87500E-02 0.00000E+00
 -1       555 3.22917E-02 1.87500E-02 0.00000E+00
 -1       556 2.50000E-02 1.97917E-02 0.00000E+00
 -1       557 2.50000E-02 2.08333E-02 0.00000E+00
 -1       558 2.50000E-02 2.18750E-02 0.00000E+00
 -1       559 2.50000E-02 2.29167E-02 0.00000E+00
 -1       560 2.50000E-02 2.39583E-02 0.00000E+00
 -1       561 3.43750E-02 1.87500E-02 0.00000E+00
 -1       562 3.54167E-02 1.87500E-02 0.00000E+00
 -1       563 3.64583E-02 1.87500E-02 0.00000E+00
 -1       564 3.75000E-02 1.87500E-02 0.00000E+00
 -1       565 3.85417E-02 1.87500E-02 0.00000E+00
 -1       566 3.95833E-02 1.87500E-02 0.00000E+00
 -1       567 4.06250E-02 1.87500E-02 0.00000E+00
 -1       568 3.33333E-02 1.97917E-02 0.00000E+00
 -1       569 3.33333E-02 2.08333E-02 0.00000E+00
 -1       570 3.33333E-02 2.18750E-02 0.00000E+00
 -1       571 3.33333E-02 2.29167E-02 0.00000E+00
 -1       572 3.33333E-02 2.39583E-02 0.00000E+00
 -1       573 4.27083E-02 1.87500E-02 0.00000E+00
 -1       574 4.37500E-02 1.87500E-02 0.00000E+00
 -1       575 4.47917E-02 1.87500E-02 0.00000E+00
 -1       576 4.58333E-02 1.87500E-02 0.00000E+00
 -1       577 4.68750E-02 1.87500E-02 0.00000E+00
 -1       578 4.79167E-02 1.87500E-02 0.00000E+00
 -1       579 4.89583E-02 1.87500E-02 0.00000E+00
 -1       580 4.16667E-02 1.97917E-02 0.00000E+00
 -1       581 4.16667E-02 2.08333E-02 0.00000E+00
 -1       582 4.16667E-02 2.18750E-02 0.00000E+00
 -1       583 4.16667E-02 2.29167E-02 0.00000E+00
 -1       584 4.16667E-02 2.39583E-02 0.00000E+00
 -1       585 5.10417E-02 1.87500E-02 0.00000E+00
 -1       586 5.20833E-02 1.87500E-02 0.00000E+00
 -1       587 5.31250E-02 1.87500E-02 0.00000E+00
 -1       588 5.41667E-02 1.87500E-02 0.00000E+00
 -1       589 5.52083E-02 1.87500E-02 0.00000E+00
 -1       590 5.62500E-02 1.87500E-02 0.00000E+00
 -1       591 5.72917E-02 1.87500E-02 0.00000E+00
 -1       592 5.00000E-02 1.97917E-02 0.00000E+00
 -1       593 5.00000E-02 2.08333E-02 0.00000E+00
 -1       594 5.00000E-02 2.18750E-02 0.00000E+00
 -1       595 5.00000E-02 2.29167E-02 0.00000E+00
 -1       596 5.00000E-02 2.39583E-02 0.00000E+00
 -1       597 5.93750E-02 1.87500E-02 0.00000E+00
 -1       598 6.04167E-02 1.87500E-02 0.00000E+00
 -1       599 6.14583E-02 1.87500E-02 0.00000E+00
 -1       600 6.25000E-02 1.87500E-02 0.00000E+00
 -1       601 6.35417E-02 1.87500E-02 0.00000E+00
 -1       602 6.45833E-02 1.87500E-02 0.00000E+00
 -1       603 6.56250E-02 1.87500E-02 0.00000E+00
 -1       604 5.83333E-02 1.97917E-02 0.00000E+00
 -1       605 5.83333E-02 2.08333E-02 0.00000E+00
 -1       606 5.83333E-02 2.18750E-02 0.00000E+00
 -1       607 5.83333E-02 2.29167E-02 0.00000E+00
 -1       608 5.83333E-02 2.39583E-02 0.00000E+00
 -1       609 6.77083E-02 1.87500E-02 0.00000E+00
 -1       610 6.87500E-02 1.87500E-02 0.00000E+00
 -1       611 6.97917E-02 1.87500E-02 0.00000E+00
 -1       612 7.08333E-02 1.87500E-02 0.00000E+00
 -1       613 7.18750E-02 1.87500E-02 0.00000E+00
 -1       614 7.29167E-02 1.87500E-02 0.00000E+00
 -1       615 7.39583E-02 1.87500E-02 0.00000E+00
 -1       616 6.66667E-02 1.97917E-02 0.00000E+00
 -1       617 6.66667E-02 2.08333E-02 0.00000E+00
 -1       618 6.66667E-02 2.18750E-02 0.00000E+00
 -1       619 6.66667E-02 2.29167E-02 0.00000E+00
 -1       620 6.66667E-02 2.39583E-02 0.00000E+00
 -1       621 7.60417E-02 1.87500E-02 0.00000E+00
 -1       622 7.70833E-02 1.87500E-02 0.00000E+00
 -1       623 7.81250E-02 1.87500E-02 0.00000E+00
 -1       624 7.91667E-02 1.87500E-02 0.00000E+00
 -1       625 8.02083E-02 1.87500E-02 0.00000E+00
 -1       626 8.12500E-02 1.87500E-02 0.00000E+00
 -1       627 8.22917E-02 1.87500E-02 0.00000E+00
 -1       628 7.50000E-02 1.97917E-02 0.00000E+00
 -1       629 7.50000E-02 2.08333E-02 0.00000E+00
 -1       630 7.50000E-02 2.18750E-02 0.00000E+00
 -1       631 7.50000E-02 2.29167E-02 0.00000E+00
 -1       632 7.50000E-02 2.39583E-02 0.00000E+00
 -1       633 8.43750E-02 1.87500E-02 0.00000E+00
 -1       634 8.54167E-02 1.87500E-02 0.00000E+00
 -1       635 8.64583E-02 1.87500E-02 0.00000E+00
 -1       636 8.75000E-02 1.87500E-02 0.00000E+00
 -1       637 8.85417E-02 1.87500E-02 0.00000E+00
 -1       638 8.95833E-02 1.87500E-02 0.00000E+00
 -1       639 9.06250E-02 1.87500E-02 0.00000E+00
 -1       640 8.33333E-02 1.97917E-02 0.00000E+00
 -1       641 8.33333E-02 2.08333E-02 0.00000E+00
 -1       642 8.33333E-02 2.18750E-02 0.00000E+00
 -1       643 8.33333E-02 2.29167E-02 0.00000E+00
 -1       644 8.33333E-02 2.39583E-02 0.00000E+00
 -1       645 9.27083E-02 1.87500E-02 0.00000E+00
 -1       646 9.37500E-02 1.87500E-02 0.00000E+00
 -1       647 9.47917E-02 1.87500E-02 0.00000E+00
 -1       648 9.58333E-02 1.87500E-02 0.00000E+00
 -1       649 9.68750E-02 1.87500E-02 0.00000E+00
 -1       650 9.79167E-02 1.87500E-02 0.00000E+00
 -1       651 9.89583E-02 1.87500E-02 0.00000E+00
 -1       652 9.16667E-02 1.97917E-02 0.00000E+00
 -1       653 9.16667E-02 2.08333E-02 0.00000E+00
 -1       654 9.16667E-02 2.18750E-02 0.00000E+00
 -1       655 9.16667E-02 2.29167E-02 0.00000E+00
 -1       656 9.16667E-02 2.39583E-02 0.00000E+00
 -1       657 1.00000E-01 1.97917E-02 0.00000E+00
 -1       658 1.00000E-01 2.08333E-02 0.00000E+00
 -1       659 1.00000E-01 2.18750E-02 0.00000E+00
 -1       660 1.00000E-01 2.29167E-02 0.00000E+00
 -1       661 1.00000E-01 2.39583E-02 0.00000E+00
 -1       662 1.04167E-03 2.50000E-02 0.00000E+00
 -1       663 2.08333E-03 2.50000E-02 0.00000E+00
 -1       664 3.12500E-03 2.50000E-02 0.00000E+00
 -1       665 4.16667E-03 2.50000E-02 0.00000E+00
 -1       666 5.20833E-03 2.50000E-02 0.00000E+00
 -1       667 6.25000E-03 2.50000E-02 0.00000E+00
 -1       668 7.29167E-03 2.50000E-02 0.00000E+00
 -1       669 9.37500E-03 2.50000E-02 0.00000E+00
 -1       670 1.04167E-02 2.50000E-02 0.00000E+00
 -1       671 1.14583E-02 2.50000E-02 0.00000E+00
 -1       672 1.25000E-02 2.50000E-02 0.00000E+00
 -1       673 1.35417E-02 2.50000E-02 0.00000E+00
 -1       674 1.45833E-02 2.50000E-02 0.00000E+00
 -1       675 1.56250E-02 2.50000E-02 0.00000E+00
 -1       676 1.77083E-02 2.50000E-02 0.00000E+00
 -1       677 1.87500E-02 2.50000E-02 0.00000E+00
 -1       678 1.97917E-02 2.50000E-02 0.00000E+00
 -1       679 2.08333E-02 2.50000E-02 0.00000E+00
 -1       680 2.18750E-02 2.50000E-02 0.00000E+00
 -1       681 2.29167E-02 2.50000E-02 0.00000E+00
 -1       682 2.39583E-02 2.50000E-02 0.00000E+00
 -1       683 2.60417E-02 2.50000E-02 0.00000E+00
 -1       684 2.70833E-02 2.50000E-02 0.00000E+00
 -1       685 2.81250E-02 2.50000E-02 0.00000E+00
 -1       686 2.91667E-02 2.50000E-02 0.00000E+00
 -1       687 3.02083E-02 2.50000E-02 0.00000E+00
 -1       688 3.12500E-02 2.50000E-02 0.00000E+00
 -1       689 3.22917E-02 2.50000E-02 0.00000E+00
 -1       690 3.43750E-02 2.50000E-02 0.00000E+00
 -1       691 3.54167E-02 2.50000E-02 0.00000E+00
 -1       692 3.64583E-02 2.50000E-02 0.00000E+00
 -1       693 3.75000E-02 2.50000E-02 0.00000E+00
 -1       694 3.85417E-02 2.50000E-02 0.00000E+00
 -1       695 3.95833E-02 2.50000E-02 0.00000E+00
 -1       696 4.06250E-02 2.50000E-02 0.00000E+00
 -1       697 4.27083E-02 2.50000E-02 0.00000E+00
 -1       698 4.37500E-02 2.50000E-02 0.00000E+00
 -1       699 4.47917E-02 2.50000E-02 0.00000E+00
 -1       700 4.58333E-02 2.50000E-02 0.00000E+00
 -1       701 4.68750E-02 2.50000E-02 0.00000E+00
 -1       702 4.79167E-02 2.50000E-02 0.00000E+00
 -1       703 4.89583E-02 2.50000E-02 0.00000E+00
 -1       704 5.10417E-02 2.50000E-02 0.00000E+00
 -1       705 5.20833E-02 2.50000E-02 0.00000E+00
 -1       706 5.31250E-02 2.50000E-02 0.00000E+00
 -1       707 5.41667E-02 2.50000E-02 0.00000E+00
 -1       708 5.52083E-02 2.50000E-02 0.00000E+00
 -1       709 5.62500E-02 2.50000E-02 0.00000E+00
 -1       710 5.72917E-02 2.50000E-02 0.00000E+00
 -1       711 5.93750E-02 2.50000E-02 0.00000E+00
 -1       712 6.04167E-02 2.50000E-02 0.00000E+00
 -1       713 6.14583E-02 2.50000E-02 0.00000E+00
 -1       714 6.25000E-02 2.50000E-02 0.00000E+00
 -1       715 6.35417E-02 2.50000E-02 0.00000E+00
 -1       716 6.45833E-02 2.50000E-02 0.00000E+00
 -1       717 6.56250E-02 2.50000E-02 0.00000E+00
 -1       718 6.77083E-02 2.50000E-02 0.00000E+00
 -1       719 6.87500E-02 2.50000E-02 0.00000E+00
 -1       720 6.97917E-02 2.50000E-02 0.00000E+00
 -1       721 7.08333E-02 2.50000E-02 0.00000E+00
 -1       722 7.18750E-02 2.50000E-02 0.00000E+00
 -1       723 7.29167E-02 2.50000E-02 0.00000E+00
 -1       724 7.39583E-02 2.50000E-02 0.00000E+00
 -1       725 7.60417E-02 2.50000E-02 0.00000E+00
 -1       726 7.70833E-02 2.50000E-02 0.00000E+00
 -1       727 7.81250E-02 2.50000E-02 0.00000E+00
 -1       728 7.91667E-02 2.50000E-02 0.00000E+00
 -1       729 8.02083E-02 2.50000E-02 0.00000E+00
 -1       730 8.12500E-02 2.50000E-02 0.00000E+00
 -1       731 8.22917E-02 2.50000E-02 0.00000E+00
 -1       732 8.43750E-02 2.50000E-02 0.00000E+00
 -1       733 8.54167E-02 2.50000E-02 0.00000E+00
 -1       734 8.64583E-02 2.50000E-02 0.00000E+00
 -1       735 8.75000E-02 2.50000E-02 0.00000E+00
 -1       736 8.85417E-02 2.50000E-02 0.00000E+00
 -1       737 8.95833E-02 2.50000E-02 0.00000E+00
 -1       738 9.06250E-02 2.50000E-02 0.00000E+00
 -1       739 9.27083E-02 2.50000E-02 0.00000E+00
 -1       740 9.37500E-02 2.50000E-02 0.00000E+00
 -1       741 9.47917E-02 2.50000E-02 0.00000E+00
 -1       742 9.58333E-02 2.50000E-02 0.00000E+00
 -1       743 9.68750E-02 2.50000E-02 0.00000E+00
 -1       744 9.79167E-02 2.50000E-02 0.00000E+00
 -1       745 9.89583E-02 2.50000E-02 0.00000E+00
 -3
    3C                           340                                     1
 -1         1   12    0    1
 -2         1        67        66
 -1         2   12    0    1
 -2        67        69        68
 -1         3   12    0    1
 -2        69        71        70
 -1         4   12    0    1
 -2        71         2        72
 -1         5   12    0    1
 -2         1        74        73
 -1         6   12    0    1
 -2        74        76        75
 -1         7   12    0    1
 -2        76        14        77
 -1         8   12    0    1
 -2         2        79        78
 -1         9   12    0    1
 -2        79        81        80
 -1        10   12    0    1
 -2        81        83        82
 -1        11   12    0    1
 -2        83         3        84
 -1        12   12    0    1
 -2         2        86        85
 -1        13   12    0    1
 -2        86        88        87
 -1        14   12    0    1
 -2        88        15        89
 -1        15   12    0    1
 -2         3        91        90
 -1        16   12    0    1
 -2        91        93        92
 -1        17   12    0    1
 -2        93        95        94
 -1        18   12    0    1
 -2        95         4        96
 -1        19   12    0    1
 -2         3        98        97
 -1        20   12    0    1
 -2        98       100        99
 -1        21   12    0    1
 -2       100        16       101
 -1        22   12    0    1
 -2         4       103       102
 -1        23   12    0    1
 -2       103       105       104
 -1        24   12    0    1
 -2       105       107       106
 -1        25   12    0    1
 -2       107         5       108
 -1        26   12    0    1
 -2         4       110       109
 -1        27   12    0    1
 -2       110       112       111
 -1        28   12    0    1
 -2       112        17       113
 -1        29   12    0    1
 -2         5       115       114
 -1        30   12    0    1
 -2       115       117       116
 -1        31   12    0    1
 -2       117       119       118
 -1        32   12    0    1
 -2       119         6       120
 -1        33   12    0    1
 -2         5       122       121
 -1        34   12    0    1
 -2       122       124       123
 -1        35   12    0    1
 -2       124        18       125
 -1        36   12    0    1
 -2         6       127       126
 -1        37   12    0    1
 -2       127       129       128
 -1        38   12    0    1
 -2       129       131       130
 -1        39   12    0    1
 -2       131         7       132
 -1        40   12    0    1
 -2         6       134       133
 -1        41   12    0    1
 -2       134       136       135
 -1        42   12    0    1
 -2       136        19       137
 -1        43   12    0    1
 -2         7       139       138
 -1        44   12    0    1
 -2       139       141       140
 -1        45   12    0    1
 -2       141       143       142
 -1        46   12    0    1
 -2       143         8       144
 -1        47   12    0    1
 -2         7       146       145
 -1        48   12    0    1
 -2       146       148       147
 -1        49   12    0    1
 -2       148        20       149
 -1        50   12    0    1
 -2         8       151       150
 -1        51   12    0    1
 -2       151       153       152
 -1        52   12    0    1
 -2       153       155       154
 -1        53   12    0    1
 -2       155         9       156
 -1        54   12    0    1
 -2         8       158       157
 -1        55   12    0    1
 -2       158       160       159
 -1        56   12    0    1
 -2       160        21       161
 -1        57   12    0    1
 -2         9       170       169
 -1        58   12    0    1
 -2       170       172       171
 -1        59   12    0    1
 -2       172        22       173
 -1        60   12    0    1
 -2        14       216       215
 -1        61   12    0    1
 -2       216       218       217
 -1        62   12    0    1
 -2       218       220       219
 -1        63   12    0    1
 -2       220        15       221
 -1        64   12    0    1
 -2        14       223       222
 -1        65   12    0    1
 -2       223       225       224
 -1        66   12    0    1
 -2       225        27       226
 -1        67   12    0    1
 -2        15       228       227
 -1        68   12    0    1
 -2       228       230       229
 -1        69   12    0    1
 -2       230       232       231
 -1        70   12    0    1
 -2       232        16       233
 -1        71   12    0    1
 -2        15       235       234
 -1        72   12    0    1
 -2       235       237       236
 -1        73   12    0    1
 -2       237        28       238
 -1        74   12    0    1
 -2        16       240       239
 -1        75   12    0    1
 -2       240       242       241
 -1        76   12    0    1
 -2       242       244       243
 -1        77   12    0    1
 -2       244        17       245
 -1        78   12    0    1
 -2        16       247       246
 -1        79   12    0    1
 -2       247       249       248
 -1        80   12    0    1
 -2       249        29       250
 -1        81   12    0    1
 -2        17       252       251
 -1        82   12    0    1
 -2       252       254       253
 -1        83   12    0    1
 -2       254       256       255
 -1        84   12    0    1
 -2       256        18       257
 -1        85   12    0    1
 -2        17       259       258
 -1        86   12    0    1
 -2       259       261       260
 -1        87   12    0    1
 -2       261        30       262
 -1        88   12    0    1
 -2        18       264       263
 -1        89   12    0    1
 -2       264       266       265
 -1        90   12    0    1
 -2       266       268       267
 -1        91   12    0    1
 -2       268        19       269
 -1        92   12    0    1
 -2        18       271       270
 -1        93   12    0    1
 -2       271       273       272
 -1        94   12    0    1
 -2       273        31       274
 -1        95   12    0    1
 -2        19       276       275
 -1        96   12    0    1
 -2       276       278       277
 -1        97   12    0    1
 -2       278       280       279
 -1        98   12    0    1
 -2       280        20       281
 -1        99   12    0    1
 -2        19       283       282
 -1       100   12    0    1
 -2       283       285       284
 -1       101   12    0    1
 -2       285        32       286
 -1       102   12    0    1
 -2        20       288       287
 -1       103   12    0    1
 -2       288       290       289
 -1       104   12    0    1
 -2       290       292       291
 -1       105   12    0    1
 -2       292        21       293
 -1       106   12    0    1
 -2        20       295       294
 -1       107   12    0    1
 -2       295       297       296
 -1       108   12    0    1
 -2       297        33       298
 -1       109   12    0    1
 -2        21       300       299
 -1       110   12    0    1
 -2       300       302       301
 -1       111   12    0    1
 -2       302       304       303
 -1       112   12    0    1
 -2       304        22       305
 -1       113   12    0    1
 -2        21       307       306
 -1       114   12    0    1
 -2       307       309       308
 -1       115   12    0    1
 -2       309        34       310
 -1       116   12    0    1
 -2        22       319       318
 -1       117   12    0    1
 -2       319       321       320
 -1       118   12    0    1
 -2       321        35       322
 -1       119   12    0    1
 -2        27       365       364
 -1       120   12    0    1
 -2       365       367       366
 -1       121   12    0    1
 -2       367       369       368
 -1       122   12    0    1
 -2       369        28       370
 -1       123   12    0    1
 -2        27       372       371
 -1       124   12    0    1
 -2       372       374       373
 -1       125   12    0    1
 -2       374        40       375
 -1       126   12    0    1
 -2        28       377       376
 -1       127   12    0    1
 -2       377       379       378
 -1       128   12    0    1
 -2       379       381       380
 -1       129   12    0    1
 -2       381        29       382
 -1       130   12    0    1
 -2        28       384       383
 -1       131   12    0    1
 -2       384       386       385
 -1       132   12    0    1
 -2       386        41       387
 -1       133   12    0    1
 -2        29       389       388
 -1       134   12    0    1
 -2       389       391       390
 -1       135   12    0    1
 -2       391       393       392
 -1       136   12    0    1
 -2       393        30       394
 -1       137   12    0    1
 -2        29       396       395
 -1       138   12    0    1
 -2       396       398       397
 -1       139   12    0    1
 -2       398        42       399
 -1       140   12    0    1
 -2        30       401       400
 -1       141   12    0    1
 -2       401       403       402
 -1       142   12    0    1
 -2       403       405       404
 -1       143   12    0    1
 -2       405        31       406
 -1       144   12    0    1
 -2        30       408       407
 -1       145   12    0    1
 -2       408       410       409
 -1       146   12    0    1
 -2       410        43       411
 -1       147   12    0    1
 -2        31       413       412
 -1       148   12    0    1
 -2       413       415       414
 -1       149   12    0    1
 -2       415       417       416
 -1       150   12    0    1
 -2       417        32       418
 -1       151   12    0    1
 -2        31       420       419
 -1       152   12    0    1
 -2       420       422       421
 -1       153   12    0    1
 -2       422        44       423
 -1       154   12    0    1
 -2        32       425       424
 -1       155   12    0    1
 -2       425       427       426
 -1       156   12    0    1
 -2       427       429       428
 -1       157   12    0    1
 -2       429        33       430
 -1       158   12    0    1
 -2        32       432       431
 -1       159   12    0    1
 -2       432       434       433
 -1       160   12    0    1
 -2       434        45       435
 -1       161   12    0    1
 -2        33       437       436
 -1       162   12    0    1
 -2       437       439       438
 -1       163   12    0    1
 -2       439       441       440
 -1       164   12    0    1
 -2       441        34       442
 -1       165   12    0    1
 -2        33       444       443
 -1       166   12    0    1
 -2       444       446       445
 -1       167   12    0    1
 -2       446        46       447
 -1       168   12    0    1
 -2        34       449       448
 -1       169   12    0    1
 -2       449       451       450
 -1       170   12    0    1
 -2       451       453       452
 -1       171   12    0    1
 -2       453        35       454
 -1       172   12    0    1
 -2        34       456       455
 -1       173   12    0    1
 -2       456       458       457
 -1       174   12    0    1
 -2       458        47       459
 -1       175   12    0    1
 -2        35       461       460
 -1       176   12    0    1
 -2       461       463       462
 -1       177   12    0    1
 -2       463       465       464
 -1       178   12    0    1
 -2       465        36       466
 -1       179   12    0    1
 -2        35       468       467
 -1       180   12    0    1
 -2       468       470       469
 -1       181   12    0    1
 -2       470        48       471
 -1       182   12    0    1
 -2        36       473       472
 -1       183   12    0    1
 -2       473       475       474
 -1       184   12    0    1
 -2       475       477       476
 -1       185   12    0    1
 -2       477        37       478
 -1       186   12    0    1
 -2        36       480       479
 -1       187   12    0    1
 -2       480       482       481
 -1       188   12    0    1
 -2       482        49       483
 -1       189   12    0    1
 -2        37       485       484
 -1       190   12    0    1
 -2       485       487       486
 -1       191   12    0    1
 -2       487       489       488
 -1       192   12    0    1
 -2       489        38       490
 -1       193   12    0    1
 -2        37       492       491
 -1       194   12    0    1
 -2       492       494       493
 -1       195   12    0    1
 -2       494        50       495
 -1       196   12    0    1
 -2        38       497       496
 -1       197   12    0    1
 -2       497       499       498
 -1       198   12    0    1
 -2       499       501       500
 -1       199   12    0    1
 -2       501        39       502
 -1       200   12    0    1
 -2        38       504       503
 -1       201   12    0    1
 -2       504       506       505
 -1       202   12    0    1
 -2       506        51       507
 -1       203   12    0    1
 -2        39       509       508
 -1       204   12    0    1
 -2       509       511       510
 -1       205   12    0    1
 -2       511        52       512
 -1       206   12    0    1
 -2        40       514       513
 -1       207   12    0    1
 -2       514       516       515
 -1       208   12    0    1
 -2       516       518       517
 -1       209   12    0    1
 -2       518        41       519
 -1       210   12    0    1
 -2        40       521       520
 -1       211   12    0    1
 -2       521       523       522
 -1       212   12    0    1
 -2       523        53       524
 -1       213   12    0    1
 -2        41       526       525
 -1       214   12    0    1
 -2       526       528       527
 -1       215   12    0    1
 -2       528       530       529
 -1       216   12    0    1
 -2       530        42       531
 -1       217   12    0    1
 -2        41       533       532
 -1       218   12    0    1
 -2       533       535       534
 -1       219   12    0    1
 -2       535        54       536
 -1       220   12    0    1
 -2        42       538       537
 -1       221   12    0    1
 -2       538       540       539
 -1       222   12    0    1
 -2       540       542       541
 -1       223   12    0    1
 -2       542        43       543
 -1       224   12    0    1
 -2        42       545       544
 -1       225   12    0    1
 -2       545       547       546
 -1       226   12    0    1
 -2       547        55       548
 -1       227   12    0    1
 -2        43       550       549
 -1       228   12    0    1
 -2       550       552       551
 -1       229   12    0    1
 -2       552       554       553
 -1       230   12    0    1
 -2       554        44       555
 -1       231   12    0    1
 -2        43       557       556
 -1       232   12    0    1
 -2       557       559       558
 -1       233   12    0    1
 -2       559        56       560
 -1       234   12    0    1
 -2        44       562       561
 -1       235   12    0    1
 -2       562       564       563
 -1       236   12    0    1
 -2       564       566       565
 -1       237   12    0    1
 -2       566        45       567
 -1       238   12    0    1
 -2        44       569       568
 -1       239   12    0    1
 -2       569       571       570
 -1       240   12    0    1
 -2       571        57       572
 -1       241   12    0    1
 -2        45       574       573
 -1       242   12    0    1
 -2       574       576       575
 -1       243   12    0    1
 -2       576       578       577
 -1       244   12    0    1
 -2       578        46       579
 -1       245   12    0    1
 -2        45       581       580
 -1       246   12    0    1
 -2       581       583       582
 -1       247   12    0    1
 -2       583        58       584
 -1       248   12    0    1
 -2        46       586       585
 -1       249   12    0    1
 -2       586       588       587
 -1       250   12    0    1
 -2       588       590       589
 -1       251   12    0    1
 -2       590        47       591
 -1       252   12    0    1
 -2        46       593       592
 -1       253   12    0    1
 -2       593       595       594
 -1       254   12    0    1
 -2       595        59       596
 -1       255   12    0    1
 -2        47       598       597
 -1       256   12    0    1
 -2       598       600       599
 -1       257   12    0    1
 -2       600       602       601
 -1       258   12    0    1
 -2       602        48       603
 -1       259   12    0    1
 -2        47       605       604
 -1       260   12    0    1
 -2       605       607       606
 -1       261   12    0    1
 -2       607        60       608
 -1       262   12    0    1
 -2        48       610       609
 -1       263   12    0    1
 -2       610       612       611
 -1       264   12    0    1
 -2       612       614       613
 -1       265   12    0    1
 -2       614        49       615
 -1       266   12    0    1
 -2        48       617       616
 -1       267   12    0    1
 -2       617       619       618
 -1       268   12    0    1
 -2       619        61       620
 -1       269   12    0    1
 -2        49       622       621
 -1       270   12    0    1
 -2       622       624       623
 -1       271   12    0    1
 -2       624       626       625
 -1       272   12    0    1
 -2       626        50       627
 -1       273   12    0    1
 -2        49       629       628
 -1       274   12    0    1
 -2       629       631       630
 -1       275   12    0    1
 -2       631        62       632
 -1       276   12    0    1
 -2        50       634       633
 -1       277   12    0    1
 -2       634       636       635
 -1       278   12    0    1
 -2       636       638       637
 -1       279   12    0    1
 -2       638        51       639
 -1       280   12    0    1
 -2        50       641       640
 -1       281   12    0    1
 -2       641       643       642
 -1       282   12    0    1
 -2       643        63       644
 -1       283   12    0    1
 -2        51       646       645
 -1       284   12    0    1
 -2       646       648       647
 -1       285   12    0    1
 -2       648       650       649
 -1       286   12    0    1
 -2       650        52       651
 -1       287   12    0    1
 -2        51       653       652
 -1       288   12    0    1
 -2       653       655       654
 -1       289   12    0    1
 -2       655        64       656
 -1       290   12    0    1
 -2        52       658       657
 -1       291   12    0    1
 -2       658       660       659
 -1       292   12    0    1
 -2       660        65       661
 -1       293   12    0    1
 -2        53       663       662
 -1       294   12    0    1
 -2       663       665       664
 -1       295   12    0    1
 -2       665       667       666
 -1       296   12    0    1
 -2       667        54       668
 -1       297   12    0    1
 -2        54       670       669
 -1       298   12    0    1
 -2       670       672       671
 -1       299   12    0    1
 -2       672       674       673
 -1       300   12    0    1
 -2       674        55       675
 -1       301   12    0    1
 -2        55       677       676
 -1       302   12    0    1
 -2       677       679       678
 -1       303   12    0    1
 -2       679       681       680
 -1       304   12    0    1
 -2       681        56       682
 -1       305   12    0    1
 -2        56       684       683
 -1       306   12    0    1
 -2       684       686       685
 -1       307   12    0    1
 -2       686       688       687
 -1       308   12    0    1
 -2       688        57       689
 -1       309   12    0    1
 -2        57       691       690
 -1       310   12    0    1
 -2       691       693       692
 -1       311   12    0    1
 -2       693       695       694
 -1       312   12    0    1
 -2       695        58       696
 -1       313   12    0    1
 -2        58       698       697
 -1       314   12    0    1
 -2       698       700       699
 -1       315   12    0    1
 -2       700       702       701
 -1       316   12    0    1
 -2       702        59       703
 -1       317   12    0    1
 -2        59       705       704
 -1       318   12    0    1
 -2       705       707       706
 -1       319   12    0    1
 -2       707       709       708
 -1       320   12    0    1
 -2       709        60       710
 -1       321   12    0    1
 -2        60       712       711
 -1       322   12    0    1
 -2       712       714       713
 -1       323   12    0    1
 -2       714       716       715
 -1       324   12    0    1
 -2       716        61       717
 -1       325   12    0    1
 -2        61       719       718
 -1       326   12    0    1
 -2       719       721       720
 -1       327   12    0    1
 -2       721       723       722
 -1       328   12    0    1
 -2       723        62       724
 -1       329   12    0    1
 -2        62       726       725
 -1       330   12    0    1
 -2       726       728       727
 -1       331   12    0    1
 -2       728       730       729
 -1       332   12    0    1
 -2       730        63       731
 -1       333   12    0    1
 -2        63       733       732
 -1       334   12    0    1
 -2       733       735       734
 -1       335   12    0    1
 -2       735       737       736
 -1       336   12    0    1
 -2       737        64       738
 -1       337   12    0    1
 -2        64       740       739
 -1       338   12    0    1
 -2       740       742       741
 -1       339   12    0    1
 -2       742       744       743
 -1       340   12    0    1
 -2       744        65       745
 -3
    1PSTEP                         1           1           1          
  100CL  101 1.000000000         641                     0    1           1
 -4  DISP        4    1
 -5  D1          1    2    1    0
 -5  D2          1    2    2    0
 -5  D3          1    2    3    0
 -5  ALL         1    2    0    0    1ALL
 -1         1-1.53041E-04 0.00000E+00 0.00000E+00
 -1         2-1.39197E-04 0.00000E+00 0.00000E+00
 -1         3-1.28409E-04 0.00000E+00 0.00000E+00
 -1         4-1.19963E-04 0.00000E+00 0.00000E+00
 -1         5-1.13409E-04 0.00000E+00 0.00000E+00
 -1         6-1.08461E-04 0.00000E+00 0.00000E+00
 -1         7-1.04947E-04 0.00000E+00 0.00000E+00
 -1         8-1.02767E-04 0.00000E+00 0.00000E+00
 -1         9-1.01928E-04 0.00000E+00 0.00000E+00
 -1        14-1.04230E-04 1.98187E-06 0.00000E+00
 -1        15-1.01856E-04-7.05075E-07 0.00000E+00
 -1        16-9.86100E-05-2.88580E-07 0.00000E+00
 -1        17-9.51373E-05-1.59994E-07 0.00000E+00
 -1        18-9.17912E-05-7.26046E-08 0.00000E+00
 -1        19-8.87778E-05 1.21886E-08 0.00000E+00
 -1        20-8.62272E-05-1.97273E-08 0.00000E+00
 -1        21-8.42606E-05-1.18491E-07 0.00000E+00
 -1        22-8.30249E-05-1.75677E-07 0.00000E+00
 -1        27-6.20717E-05 2.37655E-06 0.00000E+00
 -1        28-6.19090E-05-1.08714E-06 0.00000E+00
 -1        29-6.12188E-05-5.27225E-07 0.00000E+00
 -1        30-6.01102E-05-3.01251E-07 0.00000E+00
 -1        31-5.86339E-05-1.54186E-07 0.00000E+00
 -1        32-5.68026E-05-5.01866E-09 0.00000E+00
 -1        33-5.45436E-05-7.02847E-08 0.00000E+00
 -1        34-5.16147E-05-5.24736E-07 0.00000E+00
 -1        35-4.77149E-05 6.29376E-07 0.00000E+00
 -1        36-4.30078E-05 2.11704E-05 0.00000E+00
 -1        37-4.02913E-05 4.14845E-05 0.00000E+00
 -1        38-3.90265E-05 5.26792E-05 0.00000E+00
 -1        39-3.86562E-05 5.33018E-05 0.00000E+00
 -1        40-2.93474E-05 1.67194E-06 0.00000E+00
 -1        41-2.95677E-05-1.38705E-06 0.00000E+00
 -1        42-2.96966E-05-6.88454E-07 0.00000E+00
 -1        43-2.95667E-05-3.90032E-07 0.00000E+00
 -1        44-2.91660E-05-1.90714E-07 0.00000E+00
 -1        45-2.86026E-05 3.02209E-08 0.00000E+00
 -1        46-2.81409E-05-6.71604E-08 0.00000E+00
 -1        47-2.81883E-05-8.50484E-07 0.00000E+00
 -1        48-2.84619E-05 1.33591E-06 0.00000E+00
 -1        49-2.90310E-05 2.09699E-05 0.00000E+00
 -1        50-2.93024E-05 4.10012E-05 0.00000E+00
 -1        51-2.94492E-05 5.22199E-05 0.00000E+00
 -1        52-2.95070E-05 5.28320E-05 0.00000E+00
 -1        53 0.00000E+00 0.00000E+00 0.00000E+00
 -1        54-3.74120E-06-1.60236E-06 0.00000E+00
 -1        55-5.87011E-06-7.78087E-07 0.00000E+00
 -1        56-6.54267E-06-4.35093E-07 0.00000E+00
 -1        57-5.82476E-06-2.00731E-07 0.00000E+00
 -1        58-3.67815E-06 7.14647E-08 0.00000E+00
 -1        59 0.00000E+00 0.00000E+00 0.00000E+00
 -1        60-7.04082E-06-1.07433E-06 0.00000E+00
 -1        61-1.27819E-05 1.57985E-06 0.00000E+00
 -1        62-1.70226E-05 2.08372E-05 0.00000E+00
 -1        63-1.95568E-05 4.07987E-05 0.00000E+00
 -1        64-2.07119E-05 5.20263E-05 0.00000E+00
 -1        65-2.10383E-05 5.26622E-05 0.00000E+00
 -1        66-1.51334E-04-5.94247E-21 5.29396E-23
 -1        67-1.49597E-04-1.61069E-20 0.00000E+00
 -1        68-1.47858E-04-2.48154E-20 0.00000E+00
 -1        69-1.46117E-04-3.70709E-20 2.64698E-23
 -1        70-1.44376E-04-2.36110E-20-5.29396E-23
 -1        71-1.42638E-04-2.43257E-20 0.00000E+00
 -1        72-1.40901E-04-1.26261E-20 5.29396E-23
 -1        73-1.49784E-04 3.82470E-07 6.61744E-24
 -1        74-1.42881E-04 7.22212E-07-3.30872E-24
 -1        75-1.33598E-04 1.04547E-06 6.61744E-24
 -1        76-1.23213E-04 1.35564E-06 6.61744E-24
 -1        77-1.13000E-04 1.66593E-06 1.32349E-23
 -1        78-1.37859E-04-3.18961E-21 0.00000E+00
 -1        79-1.36506E-04-1.07070E-20-2.64698E-23
 -1        80-1.35151E-04-2.08052E-20 5.29396E-23
 -1        81-1.33796E-04-2.03685E-20 0.00000E+00
 -1        82-1.32440E-04-2.51595E-20-5.29396E-23
 -1        83-1.31088E-04-2.66154E-20-1.32349E-23
 -1        84-1.29736E-04-1.50878E-20 0.00000E+00
 -1        85-1.36453E-04-6.30382E-08 0.00000E+00
 -1        86-1.30788E-04-1.82169E-07-1.65436E-24
 -1        87-1.23344E-04-3.12349E-07 0.00000E+00
 -1        88-1.15274E-04-4.50882E-07 0.00000E+00
 -1        89-1.07729E-04-5.87263E-07 0.00000E+00
 -1        90-1.27361E-04 1.05879E-22 2.64698E-23
 -1        91-1.26301E-04 3.11020E-21 1.32349E-23
 -1        92-1.25241E-04 8.51003E-21 0.00000E+00
 -1        93-1.24180E-04 1.61598E-20-1.32349E-23
 -1        94-1.23119E-04 6.29319E-21 0.00000E+00
 -1        95-1.22060E-04-1.15607E-20 0.00000E+00
 -1        96-1.21002E-04-6.13437E-21 0.00000E+00
 -1        97-1.26284E-04-8.73875E-09-1.65436E-24
 -1        98-1.21860E-04-5.87513E-08 1.65436E-24
 -1        99-1.16006E-04-1.16022E-07-8.27181E-25
 -1       100-1.09596E-04-1.79139E-07-1.65436E-24
 -1       101-1.03508E-04-2.41319E-07 0.00000E+00
 -1       102-1.19149E-04 3.03079E-21-2.64698E-23
 -1       103-1.18327E-04 4.07635E-21 0.00000E+00
 -1       104-1.17504E-04-3.06388E-21-2.64698E-23
 -1       105-1.16680E-04-3.81827E-21 0.00000E+00
 -1       106-1.15857E-04-1.52201E-21-2.64698E-23
 -1       107-1.15035E-04-4.33443E-21-1.32349E-23
 -1       108-1.14214E-04-2.31611E-21 0.00000E+00
 -1       109-1.18226E-04 2.64774E-09-3.30872E-24
 -1       110-1.14591E-04-2.60965E-08 8.27181E-25
 -1       111-1.09759E-04-5.99501E-08-4.13590E-25
 -1       112-1.04436E-04-9.79772E-08-1.65436E-24
 -1       113-9.93277E-05-1.35481E-07 0.00000E+00
 -1       114-1.12794E-04 5.25425E-21 1.32349E-23
 -1       115-1.12173E-04 7.46448E-21 6.61744E-24
 -1       116-1.11552E-04 8.94679E-21 0.00000E+00
 -1       117-1.10930E-04 1.52201E-20 0.00000E+00
 -1       118-1.10309E-04 1.91112E-20 0.00000E+00
 -1       119-1.09688E-04 1.18154E-20-6.61744E-24
 -1       120-1.09069E-04 8.62253E-21 0.00000E+00
 -1       121-1.11920E-04 9.78166E-09 5.89366E-24
 -1       122-1.08790E-04-4.18089E-09-8.27181E-25
 -1       123-1.04614E-04-2.19671E-08-8.27181E-25
 -1       124-9.99898E-05-4.28162E-08 0.00000E+00
 -1       125-9.55169E-05-6.33053E-08-6.61744E-24
 -1       126-1.08023E-04-1.10677E-20 0.00000E+00
 -1       127-1.07582E-04-1.99450E-20-6.61744E-24
 -1       128-1.07141E-04-1.26526E-20-1.32349E-23
 -1       129-1.06699E-04-2.10766E-21 0.00000E+00
 -1       130-1.06258E-04 8.99973E-22 0.00000E+00
 -1       131-1.05818E-04 3.29218E-21 0.00000E+00
 -1       132-1.05378E-04-4.84728E-21 0.00000E+00
 -1       133-1.07122E-04 1.79754E-08 1.65436E-24
 -1       134-1.04297E-04 1.86236E-08-8.27181E-25
 -1       135-1.00517E-04 1.62466E-08 8.27181E-25
 -1       136-9.63141E-05 1.15747E-08 8.27181E-25
 -1       137-9.22241E-05 7.20791E-09 0.00000E+00
 -1       138-1.04674E-04 1.92733E-21 0.00000E+00
 -1       139-1.04400E-04 1.54517E-21 3.30872E-24
 -1       140-1.04126E-04 6.21874E-21 0.00000E+00
 -1       141-1.03853E-04 1.12745E-20 0.00000E+00
 -1       142-1.03579E-04 1.66412E-20 0.00000E+00
 -1       143-1.03306E-04 7.74406E-21 0.00000E+00
 -1       144-1.03033E-04-1.34996E-21 0.00000E+00
 -1       145-1.03691E-04 8.06975E-09 3.30872E-24
 -1       146-1.01030E-04 3.94055E-09 0.00000E+00
 -1       147-9.74575E-05-2.73709E-09-1.65436E-24
 -1       148-9.34688E-05-1.11966E-08 0.00000E+00
 -1       149-8.95607E-05-1.93768E-08 0.00000E+00
 -1       150-1.02661E-04 6.67535E-21 3.30872E-24
 -1       151-1.02555E-04 9.46791E-21 0.00000E+00
 -1       152-1.02450E-04 1.13406E-20 0.00000E+00
 -1       153-1.02344E-04 6.39576E-21 1.65436E-24
 -1       154-1.02239E-04-7.98229E-22 0.00000E+00
 -1       155-1.02134E-04-7.43635E-22-1.65436E-24
 -1       156-1.02030E-04-6.60917E-22 1.65436E-24
 -1       157-1.01512E-04-1.21694E-08 0.00000E+00
 -1       158-9.88614E-05-3.20964E-08 0.00000E+00
 -1       159-9.53111E-05-5.43223E-08 0.00000E+00
 -1       160-9.13613E-05-7.79663E-08 0.00000E+00
 -1       161-8.75120E-05-1.01235E-07 3.30872E-24
 -1       169-1.00942E-04-2.38889E-08 0.00000E+00
 -1       170-9.86764E-05-5.20928E-08 0.00000E+00
 -1       171-9.54404E-05-8.24548E-08 0.00000E+00
 -1       172-9.15454E-05-1.14571E-07 0.00000E+00
 -1       173-8.73032E-05-1.47674E-07-8.27181E-25
 -1       215-1.03945E-04-2.38103E-06 0.00000E+00
 -1       216-1.03647E-04-4.01023E-06 0.00000E+00
 -1       217-1.03346E-04-3.69372E-06 0.00000E+00
 -1       218-1.03045E-04-2.22624E-06-6.61744E-24
 -1       219-1.02745E-04-4.00989E-07-6.61744E-24
 -1       220-1.02444E-04 9.89220E-07-1.65436E-24
 -1       221-1.02145E-04 1.15056E-06-3.30872E-24
 -1       222-9.69627E-05 2.05441E-06 6.61744E-24
 -1       223-8.92728E-05 2.11672E-06 0.00000E+00
 -1       224-8.15487E-05 2.17822E-06 0.00000E+00
 -1       225-7.41807E-05 2.24084E-06 3.30872E-24
 -1       226-6.75593E-05 2.30760E-06 0.00000E+00
 -1       227-1.01463E-04-2.89279E-06 0.00000E+00
 -1       228-1.01055E-04-3.26873E-06 0.00000E+00
 -1       229-1.00646E-04-2.41664E-06 0.00000E+00
 -1       230-1.00236E-04-9.24406E-07 6.61744E-24
 -1       231-9.98254E-05 6.21213E-07-6.61744E-24
 -1       232-9.94158E-05 1.63351E-06 3.30872E-24
 -1       233-9.90069E-05 1.52480E-06-3.30872E-24
 -1       234-9.63946E-05-7.55217E-07 0.00000E+00
 -1       235-8.93582E-05-8.21585E-07 0.00000E+00
 -1       236-8.15662E-05-8.92943E-07 0.00000E+00
 -1       237-7.38445E-05-9.64552E-07 0.00000E+00
 -1       238-6.70190E-05-1.03102E-06 0.00000E+00
 -1       239-9.81867E-05-2.23982E-06 0.00000E+00
 -1       240-9.77503E-05-2.60110E-06-6.61744E-24
 -1       241-9.73128E-05-1.88448E-06 0.00000E+00
 -1       242-9.68745E-05-6.05641E-07 0.00000E+00
 -1       243-9.64363E-05 7.20815E-07 0.00000E+00
 -1       244-9.59987E-05 1.58031E-06 3.30872E-24
 -1       245-9.55620E-05 1.45738E-06-6.61744E-24
 -1       246-9.36252E-05-3.13992E-07 3.30872E-24
 -1       247-8.70889E-05-3.56266E-07 0.00000E+00
 -1       248-7.97879E-05-4.03310E-07 4.13590E-25
 -1       249-7.25150E-05-4.50963E-07 0.00000E+00
 -1       250-6.60631E-05-4.94205E-07 0.00000E+00
 -1       251-9.47282E-05-1.87675E-06 0.00000E+00
 -1       252-9.43076E-05-2.17836E-06 6.61744E-24
 -1       253-9.38863E-05-1.52390E-06 0.00000E+00
 -1       254-9.34642E-05-3.75654E-07 0.00000E+00
 -1       255-9.30421E-05 8.04959E-07 0.00000E+00
 -1       256-9.26208E-05 1.55660E-06 0.00000E+00
 -1       257-9.22003E-05 1.41708E-06-6.61744E-24
 -1       258-9.05925E-05-1.69841E-07 0.00000E+00
 -1       259-8.45282E-05-1.95627E-07-8.27181E-25
 -1       260-7.76935E-05-2.25869E-07 0.00000E+00
 -1       261-7.08432E-05-2.56878E-07 0.00000E+00
 -1       262-6.47324E-05-2.84110E-07 0.00000E+00
 -1       263-9.14220E-05-1.62543E-06 1.32349E-23
 -1       264-9.10433E-05-1.87787E-06 0.00000E+00
 -1       265-9.06639E-05-1.25511E-06 0.00000E+00
 -1       266-9.02839E-05-1.85441E-07 0.00000E+00
 -1       267-8.99040E-05 9.03613E-07-6.61744E-24
 -1       268-8.95247E-05 1.58454E-06 6.61744E-24
 -1       269-8.91461E-05 1.42912E-06 6.61744E-24
 -1       270-8.75601E-05-7.38501E-08 3.30872E-24
 -1       271-8.18492E-05-8.96389E-08 0.00000E+00
 -1       272-7.53774E-05-1.09528E-07 0.00000E+00
 -1       273-6.88689E-05-1.30104E-07 0.00000E+00
 -1       274-6.30481E-05-1.47281E-07 0.00000E+00
 -1       275-8.84648E-05-1.44016E-06 0.00000E+00
 -1       276-8.81441E-05-1.66097E-06-6.61744E-24
 -1       277-8.78229E-05-1.05736E-06 1.32349E-23
 -1       278-8.75012E-05-3.96478E-08 0.00000E+00
 -1       279-8.71796E-05 9.82552E-07 6.61744E-24
 -1       280-8.68586E-05 1.59961E-06 3.30872E-24
 -1       281-8.65383E-05 1.40124E-06 4.96308E-24
 -1       282-8.47339E-05 1.99370E-08 0.00000E+00
 -1       283-7.92365E-05 1.48026E-08 8.27181E-25
 -1       284-7.29878E-05 5.86427E-09 1.65436E-24
 -1       285-6.66951E-05-3.53705E-09 0.00000E+00
 -1       286-6.10659E-05-9.67673E-09 0.00000E+00
 -1       287-8.59857E-05-1.46475E-06 1.32349E-23
 -1       288-8.57381E-05-1.70715E-06 0.00000E+00
 -1       289-8.54901E-05-1.14175E-06 6.61744E-24
 -1       290-8.52418E-05-1.66648E-07 0.00000E+00
 -1       291-8.49936E-05 8.20625E-07 6.61744E-24
 -1       292-8.47460E-05 1.42259E-06-3.30872E-24
 -1       293-8.44990E-05 1.24116E-06 1.60266E-24
 -1       294-8.22114E-05-1.93755E-08 0.00000E+00
 -1       295-7.67414E-05-3.05084E-08 0.00000E+00
 -1       296-7.05260E-05-4.52533E-08-8.27181E-25
 -1       297-6.42793E-05-6.00441E-08 0.00000E+00
 -1       298-5.87155E-05-7.13790E-08 0.00000E+00
 -1       299-8.41093E-05-1.25567E-06 0.00000E+00
 -1       300-8.39534E-05-1.03718E-06 6.61744E-24
 -1       301-8.37974E-05 2.29781E-08 0.00000E+00
 -1       302-8.36412E-05 1.40663E-06 1.65436E-24
 -1       303-8.34849E-05 2.59612E-06-3.30872E-24
 -1       304-8.33287E-05 3.07373E-06-8.27181E-25
 -1       305-8.31736E-05 2.32097E-06 0.00000E+00
 -1       306-8.02123E-05-1.77918E-07 0.00000E+00
 -1       307-7.45801E-05-2.49242E-07 0.00000E+00
 -1       308-6.81314E-05-3.24476E-07-4.13590E-25
 -1       309-6.16396E-05-3.99398E-07 0.00000E+00
 -1       310-5.58782E-05-4.70322E-07 0.00000E+00
 -1       318-7.76053E-05-4.34558E-08 1.65436E-24
 -1       319-7.09718E-05 8.54027E-08 0.00000E+00
 -1       320-6.38933E-05 2.12210E-07 6.61744E-24
 -1       321-5.71429E-05 3.42201E-07 0.00000E+00
 -1       322-5.14943E-05 4.78218E-07 0.00000E+00
 -1       364-6.20569E-05-5.49740E-07 0.00000E+00
 -1       365-6.20366E-05-1.62935E-06 0.00000E+00
 -1       366-6.20147E-05-1.42598E-06 0.00000E+00
 -1       367-6.19926E-05-5.09287E-07 1.65436E-24
 -1       368-6.19706E-05 5.51680E-07 0.00000E+00
 -1       369-6.19486E-05 1.18788E-06 0.00000E+00
 -1       370-6.19272E-05 8.29707E-07 0.00000E+00
 -1       371-5.69403E-05 2.26554E-06 0.00000E+00
 -1       372-5.12447E-05 2.14708E-06-4.96308E-24
 -1       373-4.53103E-05 2.02706E-06 3.30872E-24
 -1       374-3.94646E-05 1.90680E-06 0.00000E+00
 -1       375-3.40354E-05 1.78838E-06 2.89513E-24
 -1       376-6.18281E-05-2.98988E-06 0.00000E+00
 -1       377-6.17411E-05-3.24721E-06 0.00000E+00
 -1       378-6.16534E-05-2.39710E-06 0.00000E+00
 -1       379-6.15656E-05-9.82608E-07 0.00000E+00
 -1       380-6.14778E-05 4.53810E-07 4.13590E-25
 -1       381-6.13898E-05 1.36970E-06-1.65436E-24
 -1       382-6.13022E-05 1.22204E-06 0.00000E+00
 -1       383-5.73016E-05-1.13188E-06 6.61744E-24
 -1       384-5.15457E-05-1.18349E-06 1.65436E-24
 -1       385-4.52658E-05-1.23780E-06 0.00000E+00
 -1       386-3.90909E-05-1.29173E-06 0.00000E+00
 -1       387-3.36502E-05-1.34222E-06 0.00000E+00
 -1       388-6.10857E-05-2.33893E-06 0.00000E+00
 -1       389-6.09462E-05-2.60517E-06 3.30872E-24
 -1       390-6.08061E-05-1.83319E-06-6.61744E-24
 -1       391-6.06658E-05-5.34890E-07 0.00000E+00
 -1       392-6.05254E-05 7.78496E-07 1.65436E-24
 -1       393-6.03851E-05 1.59572E-06-1.24077E-24
 -1       394-6.02452E-05 1.40490E-06-3.30872E-24
 -1       395-5.67678E-05-5.48118E-07 0.00000E+00
 -1       396-5.11493E-05-5.76579E-07 0.00000E+00
 -1       397-4.49961E-05-6.07774E-07 0.00000E+00
 -1       398-3.89455E-05-6.38717E-07 0.00000E+00
 -1       399-3.36349E-05-6.66312E-07 0.00000E+00
 -1       400-5.99315E-05-2.04984E-06 0.00000E+00
 -1       401-5.97460E-05-2.31846E-06 0.00000E+00
 -1       402-5.95597E-05-1.59227E-06-6.61744E-24
 -1       403-5.93732E-05-3.60709E-07 3.30872E-24
 -1       404-5.91867E-05 8.87460E-07 3.30872E-24
 -1       405-5.90002E-05 1.66351E-06-2.06795E-24
 -1       406-5.88143E-05 1.47802E-06 0.00000E+00
 -1       407-5.58154E-05-3.09531E-07 0.00000E+00
 -1       408-5.03814E-05-3.25957E-07 0.00000E+00
 -1       409-4.44220E-05-3.45025E-07 8.27181E-25
 -1       410-3.85551E-05-3.63958E-07 0.00000E+00
 -1       411-3.33990E-05-3.79779E-07 0.00000E+00
 -1       412-5.84114E-05-1.82318E-06 0.00000E+00
 -1       413-5.81813E-05-2.07478E-06 0.00000E+00
 -1       414-5.79506E-05-1.37441E-06 6.61744E-24
 -1       415-5.77195E-05-1.91403E-07 3.30872E-24
 -1       416-5.74884E-05 1.00557E-06 3.30872E-24
 -1       417-5.72574E-05 1.74785E-06-1.65436E-24
 -1       418-5.70270E-05 1.56613E-06-6.20385E-24
 -1       419-5.45181E-05-1.53237E-07 0.00000E+00
 -1       420-4.92976E-05-1.60938E-07 0.00000E+00
 -1       421-4.35604E-05-1.71186E-07 8.27181E-25
 -1       422-3.78986E-05-1.81446E-07 0.00000E+00
 -1       423-3.29046E-05-1.88884E-07 0.00000E+00
 -1       424-5.65273E-05-1.62129E-06 0.00000E+00
 -1       425-5.62437E-05-1.88819E-06 0.00000E+00
 -1       426-5.59593E-05-1.24871E-06-1.32349E-23
 -1       427-5.56744E-05-1.49426E-07 0.00000E+00
 -1       428-5.53895E-05 9.63834E-07 0.00000E+00
 -1       429-5.51049E-05 1.64521E-06 1.65436E-24
 -1       430-5.48208E-05 1.44817E-06 4.96308E-24
 -1       431-5.28806E-05 8.49431E-09 0.00000E+00
 -1       432-4.79195E-05 1.29583E-08 4.13590E-25
 -1       433-4.24635E-05 1.50197E-08-1.65436E-24
 -1       434-3.70606E-05 1.68337E-08 0.00000E+00
 -1       435-3.22590E-05 2.10473E-08 0.00000E+00
 -1       436-5.41862E-05-1.63025E-06 0.00000E+00
 -1       437-5.38183E-05-1.90939E-06 6.61744E-24
 -1       438-5.34495E-05-1.33171E-06 0.00000E+00
 -1       439-5.30800E-05-3.24309E-07 0.00000E+00
 -1       440-5.27105E-05 6.86427E-07-6.61744E-24
 -1       441-5.23415E-05 1.27415E-06-6.61744E-24
 -1       442-5.19733E-05 1.01175E-06 3.30872E-24
 -1       443-5.08909E-05-6.06856E-08 1.65436E-24
 -1       444-4.63243E-05-6.11569E-08 0.00000E+00
 -1       445-4.13032E-05-6.38462E-08-8.27181E-25
 -1       446-3.62908E-05-6.72573E-08 0.00000E+00
 -1       447-3.17502E-05-6.89977E-08 0.00000E+00
 -1       448-5.11407E-05-2.08040E-06 0.00000E+00
 -1       449-5.06519E-05-2.34747E-06 0.00000E+00
 -1       450-5.01620E-05-1.72609E-06 0.00000E+00
 -1       451-4.96709E-05-6.19051E-07 0.00000E+00
 -1       452-4.91796E-05 5.71784E-07-1.32349E-23
 -1       453-4.86887E-05 1.44466E-06 0.00000E+00
 -1       454-4.81980E-05 1.59716E-06 0.00000E+00
 -1       455-4.81432E-05-5.67882E-07 8.27181E-25
 -1       456-4.39515E-05-6.23781E-07 0.00000E+00
 -1       457-3.94487E-05-6.81417E-07 3.61892E-25
 -1       458-3.50465E-05-7.39810E-07 0.00000E+00
 -1       459-3.11569E-05-7.96752E-07 0.00000E+00
 -1       460-4.71329E-05 1.12244E-07 0.00000E+00
 -1       461-4.65393E-05 1.43520E-06 0.00000E+00
 -1       462-4.59470E-05 4.11992E-06-2.64698E-23
 -1       463-4.53558E-05 7.68519E-06-1.32349E-23
 -1       464-4.47659E-05 1.16516E-05 1.32349E-23
 -1       465-4.41770E-05 1.55403E-05 6.61744E-24
 -1       466-4.35871E-05 1.88721E-05-6.61744E-24
 -1       467-4.48429E-05 7.58514E-07 3.30872E-24
 -1       468-4.12212E-05 8.76072E-07 1.65436E-24
 -1       469-3.73098E-05 9.92017E-07 6.61744E-24
 -1       470-3.35714E-05 1.10683E-06 0.00000E+00
 -1       471-3.04690E-05 1.22273E-06 0.00000E+00
 -1       472-4.26668E-05 2.30605E-05 1.32349E-23
 -1       473-4.23252E-05 2.56585E-05 0.00000E+00
 -1       474-4.19847E-05 2.87041E-05 1.32349E-23
 -1       475-4.16447E-05 3.19355E-05 0.00000E+00
 -1       476-4.13047E-05 3.50909E-05 6.61744E-24
 -1       477-4.09649E-05 3.79086E-05-3.30872E-24
 -1       478-4.06243E-05 4.01266E-05 0.00000E+00
 -1       479-4.25432E-05 2.11523E-05 0.00000E+00
 -1       480-4.03376E-05 2.11188E-05 0.00000E+00
 -1       481-3.71344E-05 2.10828E-05 0.00000E+00
 -1       482-3.36833E-05 2.10444E-05 0.00000E+00
 -1       483-3.07339E-05 2.10065E-05 0.00000E+00
 -1       484-4.01325E-05 4.25542E-05 6.61744E-24
 -1       485-3.99733E-05 4.40847E-05 0.00000E+00
 -1       486-3.98145E-05 4.58935E-05 0.00000E+00
 -1       487-3.96559E-05 4.77968E-05 0.00000E+00
 -1       488-3.94973E-05 4.96107E-05 0.00000E+00
 -1       489-3.93389E-05 5.11515E-05 8.27181E-25
 -1       490-3.91803E-05 5.22351E-05 1.65436E-24
 -1       491-3.97029E-05 4.14136E-05 0.00000E+00
 -1       492-3.78908E-05 4.13323E-05 0.00000E+00
 -1       493-3.53977E-05 4.12495E-05 3.30872E-24
 -1       494-3.27710E-05 4.11656E-05 7.75482E-25
 -1       495-3.05581E-05 4.10821E-05 0.00000E+00
 -1       496-3.89797E-05 5.27854E-05 0.00000E+00
 -1       497-3.89328E-05 5.30642E-05 0.00000E+00
 -1       498-3.88859E-05 5.34256E-05 0.00000E+00
 -1       499-3.88390E-05 5.37790E-05 4.13590E-25
 -1       500-3.87923E-05 5.40338E-05-8.27181E-25
 -1       501-3.87458E-05 5.40995E-05 0.00000E+00
 -1       502-3.86996E-05 5.38853E-05 0.00000E+00
 -1       503-3.81946E-05 5.26078E-05 0.00000E+00
 -1       504-3.66107E-05 5.25306E-05 0.00000E+00
 -1       505-3.46082E-05 5.24525E-05 1.65436E-24
 -1       506-3.25234E-05 5.23740E-05 0.00000E+00
 -1       507-3.06925E-05 5.22957E-05 8.27181E-25
 -1       508-3.74712E-05 5.32260E-05 0.00000E+00
 -1       509-3.59652E-05 5.31471E-05 0.00000E+00
 -1       510-3.42764E-05 5.30679E-05 1.65436E-24
 -1       511-3.25444E-05 5.29885E-05-8.27181E-25
 -1       512-3.09084E-05 5.29092E-05-1.65436E-24
 -1       513-2.93835E-05-9.43649E-07 3.30872E-24
 -1       514-2.94113E-05-1.95988E-06 0.00000E+00
 -1       515-2.94377E-05-1.85431E-06 0.00000E+00
 -1       516-2.94634E-05-1.10977E-06-3.10193E-25
 -1       517-2.94890E-05-2.08642E-07 0.00000E+00
 -1       518-2.95144E-05 3.66653E-07 0.00000E+00
 -1       519-2.95402E-05 1.33282E-07 0.00000E+00
 -1       520-2.46398E-05 1.40110E-06-6.61744E-24
 -1       521-1.93217E-05 1.12158E-06 0.00000E+00
 -1       522-1.37948E-05 8.40565E-07 0.00000E+00
 -1       523-8.46328E-06 5.59263E-07-3.30872E-24
 -1       524-3.73160E-06 2.80074E-07 6.61744E-24
 -1       525-2.95859E-05-2.92050E-06 0.00000E+00
 -1       526-2.96018E-05-3.10645E-06 0.00000E+00
 -1       527-2.96174E-05-2.38448E-06 0.00000E+00
 -1       528-2.96331E-05-1.19868E-06-2.06795E-25
 -1       529-2.96488E-05 7.23513E-09-3.30872E-24
 -1       530-2.96643E-05 7.89569E-07 0.00000E+00
 -1       531-2.96799E-05 7.04230E-07 0.00000E+00
 -1       532-2.57096E-05-1.41832E-06 0.00000E+00
 -1       533-2.08768E-05-1.45316E-06 0.00000E+00
 -1       534-1.56648E-05-1.48989E-06-1.24077E-24
 -1       535-1.06728E-05-1.52687E-06-8.27181E-25
 -1       536-6.50013E-06-1.56148E-06 3.30872E-24
 -1       537-2.96826E-05-2.13594E-06 0.00000E+00
 -1       538-2.96661E-05-2.32727E-06 0.00000E+00
 -1       539-2.96493E-05-1.67599E-06-3.30872E-24
 -1       540-2.96325E-05-5.99833E-07 2.06795E-25
 -1       541-2.96157E-05 4.83906E-07 0.00000E+00
 -1       542-2.95987E-05 1.15791E-06 0.00000E+00
 -1       543-2.95820E-05 1.00447E-06 0.00000E+00
 -1       544-2.61140E-05-7.00447E-07 0.00000E+00
 -1       545-2.16571E-05-7.15468E-07 0.00000E+00
 -1       546-1.68635E-05-7.31927E-07 0.00000E+00
 -1       547-1.22744E-05-7.48179E-07 0.00000E+00
 -1       548-8.43102E-06-7.62241E-07 0.00000E+00
 -1       549-2.95192E-05-1.80352E-06 0.00000E+00
 -1       550-2.94687E-05-1.99302E-06 0.00000E+00
 -1       551-2.94179E-05-1.36279E-06-3.30872E-24
 -1       552-2.93670E-05-3.20983E-07 0.00000E+00
 -1       553-2.93162E-05 7.24639E-07 1.65436E-24
 -1       554-2.92652E-05 1.36636E-06 0.00000E+00
 -1       555-2.92145E-05 1.19598E-06 0.00000E+00
 -1       556-2.60926E-05-3.95538E-07 0.00000E+00
 -1       557-2.17862E-05-4.04420E-07 0.00000E+00
 -1       558-1.71614E-05-4.14497E-07 0.00000E+00
 -1       559-1.27351E-05-4.23897E-07 0.00000E+00
 -1       560-9.02458E-06-4.31005E-07 0.00000E+00
 -1       561-2.90981E-05-1.57748E-06 0.00000E+00
 -1       562-2.90271E-05-1.74766E-06 0.00000E+00
 -1       563-2.89558E-05-1.10527E-06 0.00000E+00
 -1       564-2.88845E-05-5.81952E-08-8.27181E-25
 -1       565-2.88132E-05 9.86123E-07-1.24077E-24
 -1       566-2.87418E-05 1.62024E-06 0.00000E+00
 -1       567-2.86708E-05 1.43628E-06 0.00000E+00
 -1       568-2.56870E-05-1.91168E-07 0.00000E+00
 -1       569-2.13373E-05-1.95548E-07 0.00000E+00
 -1       570-1.66451E-05-2.01079E-07 1.65436E-24
 -1       571-1.21419E-05-2.05425E-07 0.00000E+00
 -1       572-8.35936E-06-2.07141E-07 0.00000E+00
 -1       573-2.85464E-05-1.36613E-06 6.61744E-24
 -1       574-2.84881E-05-1.53865E-06 0.00000E+00
 -1       575-2.84294E-05-8.99234E-07 0.00000E+00
 -1       576-2.83708E-05 1.36242E-07 0.00000E+00
 -1       577-2.83123E-05 1.15239E-06 1.24077E-24
 -1       578-2.82538E-05 1.73378E-06 0.00000E+00
 -1       579-2.81957E-05 1.46454E-06 0.00000E+00
 -1       580-2.49805E-05 3.72128E-08 0.00000E+00
 -1       581-2.03672E-05 3.99440E-08 4.13590E-25
 -1       582-1.53448E-05 4.13789E-08 1.65436E-24
 -1       583-1.04992E-05 4.46262E-08 0.00000E+00
 -1       584-6.41661E-06 5.11408E-08 0.00000E+00
 -1       585-2.81470E-05-1.69993E-06 0.00000E+00
 -1       586-2.81526E-05-2.16297E-06 0.00000E+00
 -1       587-2.81578E-05-1.81963E-06 0.00000E+00
 -1       588-2.81633E-05-1.03713E-06-1.03398E-25
 -1       589-2.81689E-05-1.82324E-07 0.00000E+00
 -1       590-2.81745E-05 3.77938E-07 0.00000E+00
 -1       591-2.81804E-05 2.76445E-07 0.00000E+00
 -1       592-2.42011E-05-5.11971E-08 0.00000E+00
 -1       593-1.90936E-05-3.95113E-08 0.00000E+00
 -1       594-1.34671E-05-3.02938E-08 0.00000E+00
 -1       595-7.97476E-06-2.12529E-08 0.00000E+00
 -1       596-3.26968E-06-9.43872E-09 0.00000E+00
 -1       597-2.82238E-05-2.07413E-06 0.00000E+00
 -1       598-2.82584E-05-2.29280E-06 0.00000E+00
 -1       599-2.82928E-05-1.79319E-06 0.00000E+00
 -1       600-2.83273E-05-8.65288E-07 2.06795E-25
 -1       601-2.83619E-05 2.01180E-07 1.65436E-24
 -1       602-2.83961E-05 1.11643E-06 0.00000E+00
 -1       603-2.84300E-05 1.59047E-06 0.00000E+00
 -1       604-2.51558E-05-8.79904E-07 6.61744E-24
 -1       605-2.12659E-05-9.12074E-07 0.00000E+00
 -1       606-1.70126E-05-9.46215E-07 1.65436E-24
 -1       607-1.28931E-05-9.82568E-07 8.27181E-25
 -1       608-9.40469E-06-1.01839E-06 0.00000E+00
 -1       609-2.85273E-05 1.73997E-06 0.00000E+00
 -1       610-2.85973E-05 3.72449E-06 0.00000E+00
 -1       611-2.86695E-05 6.79537E-06 0.00000E+00
 -1       612-2.87437E-05 1.04530E-05-8.27181E-25
 -1       613-2.88181E-05 1.41981E-05-3.30872E-24
 -1       614-2.88914E-05 1.75316E-05 0.00000E+00
 -1       615-2.89626E-05 1.99537E-05 0.00000E+00
 -1       616-2.64025E-05 1.38207E-06 0.00000E+00
 -1       617-2.33708E-05 1.42742E-06 0.00000E+00
 -1       618-1.99283E-05 1.47118E-06 0.00000E+00
 -1       619-1.66400E-05 1.51319E-06 0.00000E+00
 -1       620-1.40709E-05 1.55555E-06-5.37667E-24
 -1       621-2.90628E-05 2.18900E-05 0.00000E+00
 -1       622-2.90957E-05 2.41469E-05 0.00000E+00
 -1       623-2.91305E-05 2.73013E-05 0.00000E+00
 -1       624-2.91665E-05 3.09090E-05 4.13590E-25
 -1       625-2.92025E-05 3.45262E-05 0.00000E+00
 -1       626-2.92373E-05 3.77093E-05 0.00000E+00
 -1       627-2.92704E-05 4.00142E-05 0.00000E+00
 -1       628-2.75513E-05 2.09513E-05 0.00000E+00
 -1       629-2.50182E-05 2.09319E-05 0.00000E+00
 -1       630-2.20634E-05 2.09114E-05 8.27181E-25
 -1       631-1.93227E-05 2.08901E-05-8.27181E-25
 -1       632-1.74322E-05 2.08693E-05-1.65436E-24
 -1       633-2.93209E-05 4.15674E-05 0.00000E+00
 -1       634-2.93389E-05 4.29515E-05 0.00000E+00
 -1       635-2.93574E-05 4.48656E-05 0.00000E+00
 -1       636-2.93763E-05 4.70189E-05 0.00000E+00
 -1       637-2.93951E-05 4.91213E-05 0.00000E+00
 -1       638-2.94134E-05 5.08821E-05 0.00000E+00
 -1       639-2.94311E-05 5.20109E-05-6.61744E-24
 -1       640-2.81405E-05 4.09693E-05 0.00000E+00
 -1       641-2.61198E-05 4.09369E-05 0.00000E+00
 -1       642-2.37444E-05 4.09038E-05 0.00000E+00
 -1       643-2.15212E-05 4.08703E-05 0.00000E+00
 -1       644-1.99577E-05 4.08372E-05-3.30872E-24
 -1       645-2.94573E-05 5.20079E-05 0.00000E+00
 -1       646-2.94642E-05 5.21814E-05 0.00000E+00
 -1       647-2.94710E-05 5.25897E-05 0.00000E+00
 -1       648-2.94778E-05 5.30807E-05 0.00000E+00
 -1       649-2.94845E-05 5.35022E-05-1.65436E-24
 -1       650-2.94914E-05 5.37025E-05 0.00000E+00
 -1       651-2.94984E-05 5.35292E-05-3.30872E-24
 -1       652-2.82742E-05 5.21885E-05 0.00000E+00
 -1       653-2.65806E-05 5.21565E-05 0.00000E+00
 -1       654-2.46720E-05 5.21241E-05-8.27181E-25
 -1       655-2.28543E-05 5.20917E-05-8.27181E-25
 -1       656-2.14332E-05 5.20597E-05-1.65436E-24
 -1       657-2.81535E-05 5.28035E-05 0.00000E+00
 -1       658-2.66176E-05 5.27751E-05 0.00000E+00
 -1       659-2.50184E-05 5.27467E-05 8.27181E-25
 -1       660-2.34757E-05 5.27184E-05-7.75482E-26
 -1       661-2.21094E-05 5.26903E-05 8.27181E-25
 -1       662-4.67190E-07-1.89285E-06 6.61744E-24
 -1       663-9.37037E-07-2.68780E-06 0.00000E+00
 -1       664-1.40644E-06-2.68892E-06 1.32349E-23
 -1       665-1.87613E-06-2.20512E-06 0.00000E+00
 -1       666-2.34567E-06-1.54547E-06 0.00000E+00
 -1       667-2.81416E-06-1.01935E-06 0.00000E+00
 -1       668-3.28217E-06-9.36289E-07 0.00000E+00
 -1       669-4.00851E-06-2.36129E-06 0.00000E+00
 -1       670-4.27595E-06-2.39941E-06 0.00000E+00
 -1       671-4.54331E-06-1.95226E-06 0.00000E+00
 -1       672-4.81066E-06-1.25827E-06 0.00000E+00
 -1       673-5.07783E-06-5.55766E-07-6.61744E-24
 -1       674-5.34417E-06-8.30842E-08 3.30872E-24
 -1       675-5.61017E-06-7.86526E-08-6.61744E-24
 -1       676-5.95691E-06-1.51699E-06-2.48154E-24
 -1       677-6.04177E-06-1.59294E-06-1.65436E-24
 -1       678-6.12643E-06-1.22434E-06 3.30872E-24
 -1       679-6.21089E-06-6.31980E-07 0.00000E+00
 -1       680-6.29517E-06-3.64373E-08 0.00000E+00
 -1       681-6.37892E-06 3.41680E-07-3.30872E-24
 -1       682-6.46249E-06 2.81605E-07 0.00000E+00
 -1       683-6.45750E-06-1.15705E-06 0.00000E+00
 -1       684-6.36806E-06-1.22905E-06 0.00000E+00
 -1       685-6.27832E-06-8.67594E-07 0.00000E+00
 -1       686-6.18814E-06-2.91194E-07-1.65436E-24
 -1       687-6.09778E-06 2.81860E-07-1.65436E-24
 -1       688-6.00713E-06 6.33300E-07-8.27181E-25
 -1       689-5.91643E-06 5.44590E-07-2.48154E-24
 -1       690-5.56315E-06-9.25277E-07 0.00000E+00
 -1       691-5.29467E-06-9.76490E-07 0.00000E+00
 -1       692-5.02575E-06-5.81663E-07-6.61744E-24
 -1       693-4.75614E-06 3.01026E-08-3.30872E-24
 -1       694-4.48634E-06 6.30033E-07 0.00000E+00
 -1       695-4.21644E-06 9.89348E-07-3.30872E-24
 -1       696-3.94662E-06 8.78914E-07 0.00000E+00
 -1       697-3.22248E-06-6.77440E-07 0.00000E+00
 -1       698-2.75696E-06-6.90017E-07 0.00000E+00
 -1       699-2.29106E-06-2.27790E-07 0.00000E+00
 -1       700-1.82468E-06 4.46005E-07 6.61744E-24
 -1       701-1.35884E-06 1.06860E-06-1.32349E-23
 -1       702-8.95821E-07 1.37712E-06 0.00000E+00
 -1       703-4.34478E-07 1.10816E-06-1.65436E-24
 -1       704-8.50529E-07-1.19051E-06 0.00000E+00
 -1       705-1.73327E-06-1.62207E-06-6.61744E-24
 -1       706-2.61761E-06-1.52052E-06 0.00000E+00
 -1       707-3.50553E-06-1.11595E-06 0.00000E+00
 -1       708-4.39404E-06-6.38760E-07 0.00000E+00
 -1       709-5.28150E-06-3.19616E-07 0.00000E+00
 -1       710-6.16844E-06-3.89080E-07-2.64698E-23
 -1       711-7.75399E-06-1.83494E-06 1.32349E-23
 -1       712-8.47449E-06-1.96924E-06-6.61744E-24
 -1       713-9.19526E-06-1.63218E-06 0.00000E+00
 -1       714-9.91674E-06-9.81878E-07 1.32349E-23
 -1       715-1.06381E-05-1.76787E-07 2.64698E-23
 -1       716-1.13579E-05 6.24231E-07-1.32349E-23
 -1       717-1.20770E-05 1.26222E-06 0.00000E+00
 -1       718-1.33064E-05 2.43547E-06 0.00000E+00
 -1       719-1.38376E-05 4.35356E-06-6.61744E-24
 -1       720-1.43704E-05 7.02764E-06-1.32349E-23
 -1       721-1.49048E-05 1.01463E-05 0.00000E+00
 -1       722-1.54393E-05 1.33981E-05 1.32349E-23
 -1       723-1.59722E-05 1.64711E-05 0.00000E+00
 -1       724-1.65034E-05 1.90535E-05 1.32349E-23
 -1       725-1.73381E-05 2.25430E-05 0.00000E+00
 -1       726-1.76561E-05 2.49981E-05 0.00000E+00
 -1       727-1.79752E-05 2.79423E-05 0.00000E+00
 -1       728-1.82948E-05 3.11126E-05 0.00000E+00
 -1       729-1.86142E-05 3.42460E-05 1.32349E-23
 -1       730-1.89321E-05 3.70796E-05 6.61744E-24
 -1       731-1.92484E-05 3.93504E-05 0.00000E+00
 -1       732-1.97024E-05 4.19435E-05 3.30872E-24
 -1       733-1.98476E-05 4.35039E-05 1.65436E-24
 -1       734-1.99931E-05 4.53100E-05-3.30872E-24
 -1       735-2.01385E-05 4.71903E-05 0.00000E+00
 -1       736-2.02836E-05 4.89733E-05-6.61744E-24
 -1       737-2.04280E-05 5.04875E-05 0.00000E+00
 -1       738-2.05717E-05 5.15617E-05 0.00000E+00
 -1       739-2.07541E-05 5.21581E-05 1.65436E-24
 -1       740-2.07950E-05 5.24349E-05 0.00000E+00
 -1       741-2.08358E-05 5.27773E-05 0.00000E+00
 -1       742-2.08764E-05 5.31047E-05 0.00000E+00
 -1       743-2.09169E-05 5.33371E-05 0.00000E+00
 -1       744-2.09574E-05 5.33941E-05 0.00000E+00
 -1       745-2.09979E-05 5.31956E-05 0.00000E+00
 -3
    1PSTEP                         2           1           1          
  100CL  101 1.000000000         641                     0    1           1
 -4  STRESS      6    1
 -5  SXX         1    4    1    1
 -5  SYY         1    4    2    2
 -5  SZZ         1    4    3    3
 -5  SXY         1    4    1    2
 -5  SYZ         1    4    2    3
 -5  SZX         1    4    3    1
 -1         1 2.27036E+06 7.77896E+05-6.34021E+03 8.53972E+05-2.03727E-10 4.17549E-09
 -1         2 2.72030E+06 1.50062E+05-4.02703E+03 5.09093E+05-9.70128E-11-1.04355E-08
 -1         3 2.12718E+06 1.46713E+05-2.82596E+03 3.87339E+05 4.85064E-10-3.08804E-09
 -1         4 1.65940E+06 1.20687E+05-2.14324E+03 3.12667E+05 4.65661E-10 8.64717E-09
 -1         5 1.27291E+06 9.86726E+04-1.73311E+03 2.65276E+05 4.46259E-10-8.71326E-09
 -1         6 9.37635E+05 8.21026E+04-1.45618E+03 2.36647E+05 1.55220E-10-2.87400E-09
 -1         7 6.30054E+05 5.30182E+04-1.30110E+03 2.19916E+05-2.71636E-10-6.22549E-10
 -1         8 3.31155E+05 1.65730E+04-1.23558E+03 2.21458E+05 1.31452E-09-9.72280E-09
 -1         9 1.27894E+05-1.24096E+04-1.77455E+03 2.06725E+05-1.15688E-09 9.55743E-09
 -1        14 3.00309E+05 4.29026E+05-7.90409E+03 1.09678E+06 2.86188E-10-2.65482E-09
 -1        15 4.53608E+05-4.45613E+04-9.36583E+03 1.11800E+06-4.36557E-11 2.02942E-09
 -1        16 5.44068E+05 2.17258E+04-6.65554E+03 9.22988E+05 2.65572E-10-1.91926E-09
 -1        17 5.51782E+05 4.45665E+04-5.25342E+03 8.12410E+05 1.58616E-09 6.58326E-09
 -1        18 5.15100E+05 5.46680E+04-4.30736E+03 7.37380E+05-3.49064E-09-8.51333E-09
 -1        19 4.52577E+05 6.25309E+04-3.64748E+03 6.92788E+05-2.29011E-09 2.74956E-09
 -1        20 3.67855E+05 4.56109E+04-3.29603E+03 6.72160E+05 1.32968E-09-3.96341E-11
 -1        21 2.57349E+05-1.44787E+04-3.66685E+03 7.28380E+05-5.17502E-09-5.34808E-09
 -1        22 1.45077E+05 1.29272E+05-3.41485E+03 7.12658E+05-1.30494E-08-1.08719E-09
 -1        27 2.63912E+04-1.32641E+04-2.73647E+03 5.70550E+05 4.29281E-10-2.64523E-09
 -1        28 7.44724E+04-4.23572E+04-4.11272E+03 8.53165E+05 6.58474E-10-3.09393E-09
 -1        29 1.52587E+05-5.50720E+03-3.96073E+03 8.26211E+05 8.98581E-10-4.94020E-09
 -1        30 2.16187E+05 1.80125E+04-3.65183E+03 7.89712E+05 1.40062E-09-2.70609E-09
 -1        31 2.74226E+05 3.53797E+04-3.34695E+03 7.57025E+05-3.98722E-09-2.88816E-09
 -1        32 3.37633E+05 5.65689E+04-2.95967E+03 7.22739E+05-1.95359E-09 2.63358E-09
 -1        33 4.23768E+05 6.00073E+04-2.50914E+03 6.82791E+05 2.52840E-09 1.47037E-09
 -1        34 5.44891E+05 2.93832E+03-2.49543E+03 6.70764E+05-6.20821E-09 4.86295E-10
 -1        35 7.21937E+05 2.64780E+05-1.59437E+03 7.08375E+05-3.66708E-09-3.02845E-09
 -1        36 8.27823E+05 4.86515E+04-1.68147E+03 6.64253E+05-7.96475E-09-3.03013E-09
 -1        37 4.34397E+05-2.60283E+04-1.16140E+03 4.41285E+05 3.43910E-09-4.94310E-09
 -1        38 1.72051E+05-4.63964E+04-5.80075E+02 2.70788E+05 1.19568E-09 2.41350E-09
 -1        39 4.69221E+04-9.18308E+04-4.58517E+02 1.52682E+05-1.23273E-08 1.20616E-09
 -1        40-3.96485E+04-3.33279E+05-1.53956E+03 5.36307E+05-5.99054E-10 2.45120E-09
 -1        41-2.23917E+04-4.05481E+04-1.46905E+03 7.16059E+05-3.69255E-10 1.44087E-09
 -1        42 6.76641E+03-1.18230E+04-1.91567E+03 6.78059E+05-3.91083E-10 1.45485E-09
 -1        43 4.94525E+04 3.41637E+03-2.26065E+03 6.51901E+05 6.29370E-10 5.32680E-10
 -1        44 8.45693E+04 1.50118E+04-2.70307E+03 6.44992E+05-4.01997E-09 8.66805E-10
 -1        45 9.07925E+04 2.71306E+04-3.24901E+03 6.51055E+05-2.85945E-09-1.42688E-09
 -1        46 4.31262E+04 2.46925E+04-1.83272E+03 6.31461E+05 1.50067E-09 1.74614E-09
 -1        47-2.62817E+04-4.95924E+04-2.56623E+02 5.20256E+05-5.09135E-09-1.26158E-09
 -1        48-4.57084E+04 1.02757E+05-9.25643E+02 6.04325E+05-2.80124E-09 1.59784E-09
 -1        49-6.16884E+04-3.64113E+04-2.81405E+03 7.73935E+05-2.64117E-09-2.11108E-09
 -1        50-3.58915E+04-7.28975E+04-1.86255E+03 5.94438E+05 1.83172E-09-5.71418E-10
 -1        51-2.21569E+04-6.98805E+04-8.49881E+02 3.60373E+05-1.86446E-10-1.21159E-09
 -1        52-1.23858E+04-9.43022E+04-4.19535E+02 1.82160E+05-8.24972E-09 2.21197E-10
 -1        53-6.34635E+05-4.16743E+05-2.83753E+03 4.70584E+05-4.32692E-10-3.81988E-10
 -1        54-6.49888E+05-7.10289E+04-1.79673E+03 5.07233E+05-4.54672E-10 7.27596E-11
 -1        55-3.08223E+05-2.85514E+04-1.32574E+03 4.42737E+05-9.82595E-10-2.30405E-10
 -1        56 7.47166E+03 1.69243E+03-1.16283E+03 4.23701E+05 6.78710E-10 7.00917E-10
 -1        57 3.20551E+05 3.12737E+04-1.13390E+03 4.34236E+05-3.41356E-09 6.37859E-10
 -1        58 6.55421E+05 6.62949E+04-5.11450E+02 4.78718E+05-1.07836E-09-1.69772E-09
 -1        59-3.63809E+05-9.70302E+03-1.95224E+03 5.07838E+05 1.62330E-09-3.92902E-09
 -1        60-1.42050E+06-1.37321E+05-2.44112E+03 3.90775E+05-4.42659E-09-1.63709E-09
 -1        61-1.09295E+06-4.82937E+04-1.77092E+03 4.56464E+05-6.25713E-10-2.49808E-10
 -1        62-7.45999E+05-6.99798E+04-1.90897E+03 5.33689E+05-7.88486E-09 3.23295E-09
 -1        63-4.07942E+05-5.51471E+04-1.12022E+03 4.15884E+05 4.91961E-10-3.02437E-09
 -1        64-1.66148E+05-3.73242E+04-3.67317E+02 2.46631E+05 2.15114E-10-3.14806E-09
 -1        65-5.52057E+04-4.08831E+04 2.31521E+01 1.32801E+05-3.52509E-09 2.44290E-09
 -1        66 4.98161E+06 5.04950E+03 1.93145E+05 3.82643E-08-1.91702E-09-6.93399E-09
 -1        67 5.03589E+06 3.22919E+04 1.15741E+05-1.24201E-08-1.47877E-09-5.68798E-09
 -1        68 5.00553E+06-5.27895E+02 6.06019E+04 1.34963E-08-5.17486E-10-6.34827E-10
 -1        69 5.01237E+06 3.32632E+03 5.18104E+04 3.10441E-08 7.65318E-10-5.07748E-09
 -1        70 5.00538E+06-5.41494E+02 6.34089E+04 3.06244E-08 1.84161E-09 2.00089E-11
 -1        71 5.03804E+06 3.47921E+04 1.23810E+05 1.96524E-08 9.60114E-10 4.56748E-09
 -1        72 4.97957E+06 5.45219E+03 2.07807E+05-1.39189E-08-1.69341E-09 2.19006E-09
 -1        73-1.38888E+04 1.07656E+06-1.98542E+05 1.01405E+06 6.40284E-10 9.16771E-10
 -1        74-9.77242E+03 1.00309E+06-1.05421E+05 1.71201E+06 1.81899E-10-1.52795E-10
 -1        75 1.74403E+04 1.02068E+06-4.00481E+04 1.01149E+06 3.20142E-10-1.07757E-08
 -1        76 3.85460E+04 1.00571E+06-5.44899E+03 1.71231E+06 2.91038E-11 7.86645E-09
 -1        77 1.61860E+04 1.01716E+06 1.81590E+04 1.01328E+06 6.25732E-10-2.77214E-09
 -1        78 3.88054E+06 2.57818E+03 1.00825E+05-2.46837E-09-7.17284E-10-1.38316E-08
 -1        79 3.90870E+06 1.67973E+04 6.15537E+04-9.90804E-09-1.70464E-09-6.78483E-09
 -1        80 3.89289E+06-3.18648E+02 3.44600E+04 1.23639E-08 2.77614E-09 2.08729E-09
 -1        81 3.89699E+06 2.14100E+03 3.32643E+04 5.44030E-08 3.85549E-09 1.08254E-08
 -1        82 3.89234E+06-3.71256E+02 4.51639E+04 7.93693E-09-1.75855E-09-4.30373E-09
 -1        83 3.91692E+06 2.63463E+04 9.23358E+04-3.24726E-08 9.60634E-10-1.46938E-08
 -1        84 3.87278E+06 4.08583E+03 1.56727E+05 6.89579E-09-1.26295E-09-9.72068E-09
 -1        85-1.24106E+04-2.70390E+05-3.14552E+05 9.03791E+05-9.02219E-10-5.66070E-09
 -1        86-3.51179E+04-3.73335E+05-1.83302E+05 1.53225E+06-5.45697E-10 6.03177E-09
 -1        87 1.34516E+04-3.29441E+05-9.28264E+04 9.00984E+05-1.74623E-09-4.54747E-10
 -1        88 9.32596E+03-3.55450E+05-7.72925E+04 1.53297E+06-5.02041E-10 5.98266E-09
 -1        89 6.01037E+03-3.17330E+05-8.77888E+04 9.03017E+05-1.86355E-09-3.60160E-09
 -1        90 3.03672E+06 1.92205E+03 7.58773E+04 3.54821E-08-1.54204E-09 2.89947E-09
 -1        91 3.05788E+06 1.26437E+04 4.64249E+04 8.57835E-09 3.25878E-09 3.00452E-09
 -1        92 3.04598E+06-2.44335E+02 2.61833E+04 8.42437E-09 5.98027E-10 1.13369E-09
 -1        93 3.04912E+06 1.65060E+03 2.55965E+04-3.93065E-08-2.62959E-09-1.30003E-08
 -1        94 3.04553E+06-2.88599E+02 3.50890E+04 1.67855E-08 1.47056E-09 3.74712E-09
 -1        95 3.06473E+06 2.05969E+04 7.20439E+04 6.32326E-08 2.02420E-09 5.89716E-09
 -1        96 3.03026E+06 3.16411E+03 1.22394E+05 2.52803E-08-2.11302E-09-7.78527E-10
 -1        97-8.93250E+03-9.91475E+04-2.37738E+05 6.87934E+05 1.20781E-09 9.29867E-09
 -1        98-2.96510E+04-1.74644E+05-1.40509E+05 1.16549E+06 1.46611E-09-1.81899E-09
 -1        99 8.11840E+03-1.40591E+05-7.38246E+04 6.85786E+05 3.99450E-09-6.52290E-09
 -1       100 1.09574E+03-1.61908E+05-6.68236E+04 1.16618E+06 3.85626E-10-4.39104E-09
 -1       101 3.62160E+03-1.31443E+05-8.01296E+04 6.87233E+05 4.69663E-09 6.76664E-10
 -1       102 2.35553E+06 1.43531E+03 5.71416E+04-2.08911E-09-1.83593E-09 4.10000E-09
 -1       103 2.37145E+06 9.52225E+03 3.50436E+04 1.76024E-08-6.52777E-10 2.76304E-09
 -1       104 2.36249E+06-1.87473E+02 1.99200E+04 5.79664E-09-1.00538E-09 5.28871E-10
 -1       105 2.36490E+06 1.27412E+03 1.97280E+04 1.12182E-08 1.59157E-09 1.59151E-08
 -1       106 2.36212E+06-2.24511E+02 2.73062E+04 3.77752E-08 3.54706E-10 5.84805E-10
 -1       107 2.37714E+06 1.61238E+04 5.62965E+04-9.45784E-09 6.47418E-10 4.87853E-09
 -1       108 2.35018E+06 2.45896E+03 9.57274E+04 6.62476E-09-2.51025E-10-6.41739E-09
 -1       109-6.69993E+03-5.22107E+04-1.83978E+05 5.55393E+05-4.10364E-09 3.89264E-09
 -1       110-2.42057E+04-1.09690E+05-1.10202E+05 9.40631E+05-3.27418E-09 1.03610E-08
 -1       111 5.45629E+03-8.28424E+04-6.02604E+04 5.53618E+05-8.58199E-09-1.07902E-08
 -1       112-2.78822E+03-1.01049E+05-5.90828E+04 9.41282E+05-3.46336E-09 4.62205E-09
 -1       113 2.18772E+03-7.48128E+04-7.45791E+04 5.54745E+05-6.92671E-09 6.14818E-10
 -1       114 1.77783E+06 1.00461E+03 4.03497E+04-2.06228E-09-1.40541E-09 5.43696E-09
 -1       115 1.78905E+06 6.71763E+03 2.48858E+04 1.26652E-08 1.27576E-09 9.66338E-11
 -1       116 1.78272E+06-1.37851E+02 1.44178E+04-3.10345E-09-1.18523E-09-4.15525E-09
 -1       117 1.78449E+06 9.51156E+02 1.47082E+04 2.37885E-08 9.44691E-10 6.45338E-09
 -1       118 1.78240E+06-1.70033E+02 2.07931E+04-1.90007E-08-1.69248E-09-4.07636E-09
 -1       119 1.79396E+06 1.24199E+04 4.32337E+04-1.25383E-08 1.75835E-09-4.95402E-09
 -1       120 1.77321E+06 1.88185E+03 7.36570E+04-9.99444E-09 8.73777E-10-7.10861E-09
 -1       121-5.11001E+03-1.76763E+04-1.40019E+05 4.71265E+05-2.62662E-09-4.69299E-09
 -1       122-1.86790E+04-6.12097E+04-8.47643E+04 7.97933E+05-5.89716E-09 1.61381E-08
 -1       123 4.00574E+03-4.06734E+04-4.79991E+04 4.69723E+05-3.92720E-09-5.03496E-09
 -1       124-3.85485E+03-5.59880E+04-5.00759E+04 7.98549E+05-9.48785E-09-5.82622E-09
 -1       125 1.49011E+03-3.36856E+04-6.56513E+04 4.70654E+05-2.52840E-09 1.20053E-10
 -1       126 1.26272E+06 5.95192E+02 2.42610E+04-2.02172E-08-7.58901E-10 1.87356E-10
 -1       127 1.26943E+06 4.02107E+03 1.52388E+04-1.31074E-08 1.88190E-09-3.85785E-09
 -1       128 1.26563E+06-9.33077E+01 9.36335E+03 4.53055E-09-5.58165E-10 9.72136E-09
 -1       129 1.26684E+06 6.71565E+02 1.03727E+04-1.47775E-08-5.26805E-10 8.80146E-09
 -1       130 1.26532E+06-1.24342E+02 1.54692E+04 6.60773E-09 1.25932E-09-5.43560E-09
 -1       131 1.27414E+06 9.48578E+03 3.28144E+04 1.13491E-08 4.61826E-10-8.96171E-09
 -1       132 1.25830E+06 1.43029E+03 5.61627E+04-2.54113E-09-7.19380E-10 1.10849E-08
 -1       133-3.88627E+03 1.97545E+04-1.01412E+05 4.20449E+05-6.83940E-10-5.92991E-09
 -1       134-1.31383E+04-1.20336E+04-6.19279E+04 7.11709E+05-6.51198E-09 8.14907E-09
 -1       135 3.20052E+03 2.64717E+03-3.63030E+04 4.19047E+05-1.40244E-09-5.02769E-09
 -1       136-3.27952E+03-9.82777E+03-4.00187E+04 7.12302E+05-7.86531E-09-1.56242E-08
 -1       137 1.24651E+03 8.49314E+03-5.42305E+04 4.19860E+05-1.39516E-09-1.25510E-09
 -1       138 7.83991E+05 2.42247E+02 1.02896E+04-5.52052E-09-1.10592E-10 3.08273E-09
 -1       139 7.86790E+05 1.67545E+03 6.88801E+03-1.77978E-08 2.28349E-09 5.45657E-09
 -1       140 7.85175E+05-5.54615E+01 5.04285E+03-2.00883E-09-2.52159E-10 2.21021E-10
 -1       141 7.85913E+05 4.37892E+02 6.75624E+03 2.30035E-08 1.38699E-09 5.85050E-09
 -1       142 7.84869E+05-8.65982E+01 1.11322E+04 3.33038E-08-4.64836E-10 2.11003E-09
 -1       143 7.91487E+05 7.12858E+03 2.44192E+04-5.89966E-08-1.43139E-09-7.59655E-09
 -1       144 7.79590E+05 1.07123E+03 4.21089E+04-1.49985E-08 1.42314E-09-8.73115E-11
 -1       145-2.98386E+03 3.73435E+03-6.96851E+04 3.90729E+05 1.20781E-09-2.26282E-09
 -1       146-8.27942E+03-1.86177E+04-4.30052E+04 6.61324E+05 4.25280E-09 5.20959E-09
 -1       147 2.75421E+03-8.92525E+03-2.64471E+04 3.89383E+05 6.51198E-10 1.29876E-09
 -1       148-2.21367E+03-1.90903E+04-3.12027E+04 6.61929E+05 6.68297E-09 1.79534E-09
 -1       149 1.24391E+03-4.08310E+03-4.39558E+04 3.90122E+05 2.96495E-10-3.50337E-09
 -1       150 3.02105E+05-1.15428E+02-4.21133E+03 3.20441E-08 6.41885E-10-6.66432E-09
 -1       151 3.00855E+05-7.44710E+02-2.00989E+03 4.15525E-11 1.91747E-09-6.60179E-09
 -1       152 3.01527E+05-7.43825E+00-2.15789E+01-1.50282E-08-4.27351E-10 1.28307E-09
 -1       153 3.01641E+05 1.11890E+02 1.72447E+03-8.52370E-09 1.32138E-09-4.31191E-09
 -1       154 3.01318E+05-2.88891E+01 4.15028E+03 1.07971E-08-1.73516E-09 3.16027E-09
 -1       155 3.04075E+05 2.99355E+03 1.00028E+04-4.25189E-09 1.56402E-09 5.36647E-09
 -1       156 2.99091E+05 4.49057E+02 1.75892E+04 1.11099E-08-1.14109E-09 8.85575E-09
 -1       157-2.23870E+03-4.20644E+04-4.09448E+04 3.93378E+05-4.40923E-09 1.09576E-08
 -1       158-3.35490E+03-5.62593E+04-2.53371E+04 6.65873E+05-8.11633E-09 1.96014E-08
 -1       159 2.69572E+03-5.12579E+04-1.64195E+04 3.92003E+05-6.58110E-09-1.18234E-09
 -1       160 1.01576E+02-5.87451E+04-2.06441E+04 6.66477E+05-1.23546E-08 1.53273E-09
 -1       161 1.46547E+03-4.75968E+04-3.02854E+04 3.92763E+05-5.35874E-09-1.02918E-08
 -1       169-1.99398E+03-6.90777E+04-2.11940E+04 2.45472E+05 1.89539E-09-5.10772E-09
 -1       170-2.13612E+03-7.58372E+04-1.48291E+04 4.14704E+05-3.77622E-09 3.20142E-10
 -1       171 1.14695E+03-7.42031E+04-1.30406E+04 2.44278E+05 5.03496E-09-1.89902E-09
 -1       172-2.66280E+03-8.18274E+04-2.13867E+04 4.15738E+05-6.16637E-09 1.00381E-08
 -1       173 1.15644E+03-7.13291E+04-3.43298E+04 2.44437E+05 6.24641E-09 7.40420E-09
 -1       215 8.83650E+05-1.38924E+04 7.65196E+03 6.25903E+05-1.01863E-10 2.44472E-09
 -1       216 8.85038E+05-2.55220E+03 8.20369E+03 1.05932E+06 8.44011E-10 1.00408E-09
 -1       217 8.69119E+05-9.21152E+02 5.35897E+03 6.23968E+05-1.06957E-09 1.74623E-10
 -1       218 8.66160E+05 4.11457E+03 7.92807E+03 1.06127E+06-2.51021E-10-5.90080E-09
 -1       219 8.65779E+05 1.50442E+03 1.17208E+04 6.24055E+05 9.96806E-10-2.88492E-09
 -1       220 8.78571E+05 7.89832E+03 2.51706E+04 1.05944E+06 8.73115E-11 2.25555E-10
 -1       221 8.70523E+05-5.71942E+03 3.98761E+04 6.25825E+05-8.73115E-10 5.14046E-09
 -1       222 2.98284E+03 2.57141E+05-4.48354E+04 3.08702E+05-1.87356E-10-1.48611E-09
 -1       223 2.80866E+02 2.40954E+05-2.32393E+04 5.22473E+05-4.47471E-10-9.90548E-09
 -1       224 4.30321E+03 2.51034E+05-5.57496E+03 3.08109E+05-2.47383E-10 4.82032E-09
 -1       225 1.01479E+04 2.53009E+05 7.72982E+03 5.21987E+05-1.04046E-09-2.70666E-09
 -1       226 2.38471E+03 2.50659E+05 2.02234E+04 3.09174E+05 8.73115E-11-4.04543E-09
 -1       227 1.17884E+06-3.94384E+03 7.11921E+04 4.63869E+05-8.58563E-10 2.18279E-11
 -1       228 1.19768E+06 1.15075E+04 4.35950E+04 7.84864E+05 7.56700E-10 3.47791E-09
 -1       229 1.18045E+06 2.41216E+02 2.18101E+04 4.62518E+05 1.40426E-09-3.12866E-09
 -1       230 1.18116E+06 3.63651E+03 1.75028E+04 7.86148E+05 1.74578E-09 1.89175E-09
 -1       231 1.18025E+06 5.26469E+02 1.90955E+04 4.62538E+05-5.92991E-10-3.44153E-09
 -1       232 1.19433E+06 9.60305E+03 3.56324E+04 7.84873E+05-1.41154E-09-1.35769E-08
 -1       233 1.17985E+06-3.50723E+03 5.68948E+04 4.63832E+05 1.85537E-09-1.00563E-08
 -1       234 2.91783E+03-1.20603E+05-5.49461E+04 6.48310E+05-1.88811E-09-2.59752E-09
 -1       235 6.74198E+03-1.45272E+05-3.13782E+04 1.09923E+06-1.12050E-09 6.33008E-09
 -1       236 9.69311E+03-1.33456E+05-1.63875E+04 6.46521E+05-2.75031E-09 2.98587E-09
 -1       237 1.22674E+04-1.39060E+05-1.45378E+04 1.09910E+06-6.91216E-10-6.45741E-10
 -1       238 2.89006E+03-1.24489E+05-1.95100E+04 6.48435E+05-5.47516E-10-9.78616E-09
 -1       239 1.25773E+06-2.81534E+03 6.47244E+04 4.06909E+05-1.12777E-09 4.43833E-10
 -1       240 1.27502E+06 1.04673E+04 3.96849E+04 6.88525E+05 6.51198E-10-7.78164E-09
 -1       241 1.26017E+06 1.26517E+02 2.03504E+04 4.05744E+05 8.36735E-11-4.67662E-09
 -1       242 1.26118E+06 2.99534E+03 1.71264E+04 6.89628E+05 1.21508E-09-3.50701E-09
 -1       243 1.25993E+06 3.41243E+02 1.98835E+04 4.05765E+05-2.34286E-09-1.22491E-08
 -1       244 1.27368E+06 1.04605E+04 3.82246E+04 6.88534E+05-1.82627E-09-5.16593E-10
 -1       245 1.25733E+06-2.24731E+03 6.21967E+04 4.06877E+05 2.13186E-09 1.10349E-08
 -1       246 1.90634E+03-6.02409E+04-6.42665E+04 6.22864E+05 3.34330E-09-6.60657E-09
 -1       247 3.44807E+03-8.67366E+04-3.73347E+04 1.05576E+06 1.01863E-09-1.82627E-09
 -1       248 8.78681E+03-7.40195E+04-2.00122E+04 6.21141E+05 4.88944E-09 6.29461E-09
 -1       249 9.89477E+03-8.07164E+04-1.88113E+04 1.05569E+06-2.61934E-10 8.31642E-09
 -1       250 2.58987E+03-6.53721E+04-2.51401E+04 6.22918E+05 5.67525E-09-4.89672E-09
 -1       251 1.21034E+06-2.06049E+03 5.78086E+04 3.64756E+05 6.25732E-10 6.88306E-09
 -1       252 1.22583E+06 9.41536E+03 3.54602E+04 6.17241E+05 1.19326E-09-1.54250E-09
 -1       253 1.21305E+06 1.01037E+02 1.84282E+04 3.63721E+05-1.55705E-09-4.92037E-09
 -1       254 1.21415E+06 2.54142E+03 1.58801E+04 6.18232E+05-4.15150E-09 4.25644E-09
 -1       255 1.21286E+06 2.27746E+02 1.89733E+04 3.63731E+05-2.24463E-09 1.63709E-10
 -1       256 1.22565E+06 1.01537E+04 3.69581E+04 6.17225E+05 3.34694E-10-2.18279E-09
 -1       257 1.20949E+06-1.59984E+03 6.06040E+04 3.64763E+05 1.22964E-09 1.08776E-09
 -1       258 1.22891E+03-2.08161E+04-6.34430E+04 5.93399E+05-8.88758E-09-6.59929E-09
 -1       259 1.92883E+03-4.62409E+04-3.74116E+04 1.00558E+06-4.76575E-09 8.31278E-10
 -1       260 7.88032E+03-3.41824E+04-2.09484E+04 5.91743E+05-1.17107E-08 4.52019E-10
 -1       261 7.77947E+03-4.16387E+04-2.13907E+04 1.00558E+06-4.96948E-09-3.52884E-09
 -1       262 2.35245E+03-2.58924E+04-2.94905E+04 5.93382E+05-8.37281E-09-5.61704E-09
 -1       263 1.08954E+06-1.72612E+03 4.90386E+04 3.37853E+05-2.81580E-09 4.21642E-09
 -1       264 1.10264E+06 8.02043E+03 3.01533E+04 5.71691E+05 4.98403E-10 5.12955E-10
 -1       265 1.09183E+06 1.06260E+02 1.58153E+04 3.36865E+05 1.56433E-09-6.78301E-09
 -1       266 1.09282E+06 2.19812E+03 1.38669E+04 5.72647E+05 4.50444E-09-8.63292E-09
 -1       267 1.09169E+06 1.72785E+02 1.68543E+04 3.36871E+05-4.16549E-10-1.05501E-10
 -1       268 1.10311E+06 9.08941E+03 3.31047E+04 5.71690E+05 1.78989E-09-2.03727E-09
 -1       269 1.08854E+06-1.37038E+03 5.44382E+04 3.37850E+05-1.48430E-09-8.64020E-11
 -1       270 9.19364E+02 2.09642E+03-5.86635E+04 5.69528E+05-4.88944E-09-6.54836E-11
 -1       271 1.52428E+03-2.13250E+04-3.52431E+04 9.64992E+05-1.15469E-08-4.24188E-09
 -1       272 7.18439E+03-1.02913E+04-2.09871E+04 5.67932E+05-5.31145E-09-1.51977E-09
 -1       273 5.90698E+03-1.83573E+04-2.36817E+04 9.65030E+05-1.38098E-08-1.41154E-09
 -1       274 2.04131E+03-1.93978E+03-3.40961E+04 5.69476E+05-2.58842E-09-5.68980E-09
 -1       275 9.22861E+05-1.68715E+03 3.84022E+04 3.23535E+05 7.05768E-10-1.04155E-08
 -1       276 9.32998E+05 6.27996E+03 2.38314E+04 5.47453E+05 1.20963E-09-8.56744E-09
 -1       277 9.24196E+05 1.27741E+02 1.27583E+04 3.22542E+05-8.36735E-11-3.99814E-09
 -1       278 9.24963E+05 1.93290E+03 1.16410E+04 5.48424E+05 1.75369E-09 2.92857E-09
 -1       279 9.24082E+05 1.34111E+02 1.46259E+04 3.22544E+05 1.32059E-09 5.74801E-10
 -1       280 9.34365E+05 7.98292E+03 2.91992E+04 5.47462E+05 1.54068E-09-1.21909E-08
 -1       281 9.21456E+05-1.38543E+03 4.81546E+04 3.23528E+05 9.60426E-10-6.90034E-09
 -1       282 8.97392E+02 2.91155E+04-5.07945E+04 5.56474E+05-1.85537E-09-6.59929E-09
 -1       283 2.18335E+03 8.29424E+03-3.13013E+04 9.42753E+05-1.14596E-08-1.03173E-08
 -1       284 6.78358E+03 1.79970E+04-2.03349E+04 5.54917E+05-2.25918E-09 9.42237E-10
 -1       285 4.43474E+03 9.34826E+03-2.57936E+04 9.42808E+05-1.14815E-08 4.85670E-10
 -1       286 1.74867E+03 2.68130E+04-3.90239E+04 5.56409E+05-1.86992E-09-2.88128E-09
 -1       287 7.13421E+05-1.84137E+03 2.80547E+04 3.13738E+05-4.87489E-10 3.62706E-09
 -1       288 7.20695E+05 4.50473E+03 1.77656E+04 5.30888E+05-8.00355E-10-3.61615E-09
 -1       289 7.13630E+05 1.17128E+02 9.92380E+03 3.12734E+05-6.54836E-11-1.00190E-08
 -1       290 7.14152E+05 1.73490E+03 9.78182E+03 5.31878E+05-1.91017E-09-5.66070E-09
 -1       291 7.13422E+05 1.43165E+02 1.30379E+04 3.12735E+05 2.22099E-09-1.24419E-09
 -1       292 7.22903E+05 7.37470E+03 2.67079E+04 5.30878E+05 3.38332E-09 5.35874E-09
 -1       293 7.11026E+05-1.29264E+03 4.43110E+04 3.13757E+05-1.03319E-09-4.51928E-09
 -1       294 1.12629E+03 1.11911E+04-4.30462E+04 5.61642E+05 1.84446E-09-4.96220E-09
 -1       295 3.55962E+03-7.46820E+03-2.78198E+04 9.51590E+05 9.30595E-09 5.70435E-09
 -1       296 6.80764E+03 1.20211E+03-2.07998E+04 5.60075E+05 1.05138E-09-8.13907E-09
 -1       297 2.76676E+03-8.73690E+03-3.05825E+04 9.51637E+05 1.00481E-08 3.34694E-09
 -1       298 1.35067E+03 1.15651E+04-4.88127E+04 5.61592E+05 5.83896E-10 9.45874E-11
 -1       299 4.52030E+05-2.47622E+03 1.85482E+04 4.08156E+05 3.89264E-09-4.68208E-09
 -1       300 4.55830E+05 3.73186E+03 1.19097E+04 6.90887E+05 1.75351E-09-5.98811E-09
 -1       301 4.49975E+05 7.28533E+02 6.05192E+03 4.06881E+05-5.53337E-09-7.07951E-09
 -1       302 4.50071E+05 2.16242E+03 5.05397E+03 6.92169E+05-1.89766E-09-7.59246E-09
 -1       303 4.51084E+05-1.37628E+02 5.24893E+03 4.06865E+05 9.45874E-11-2.89947E-09
 -1       304 4.59233E+05 1.33050E+03 1.00750E+04 6.90690E+05 1.96451E-09-1.07684E-09
 -1       305 4.55622E+05-5.16691E+03 1.47151E+04 4.08351E+05-4.12547E-09-3.05226E-09
 -1       306 1.11433E+03-1.58124E+05-4.42961E+04 6.07106E+05-9.90985E-09-1.45519E-10
 -1       307 4.62924E+03-1.77996E+05-3.04713E+04 1.02922E+06-1.79862E-08 5.86260E-09
 -1       308 7.66581E+03-1.68898E+05-2.62892E+04 6.05352E+05-1.08703E-08-4.13092E-09
 -1       309 2.99782E+02-1.82534E+05-4.33640E+04 1.02930E+06-2.08383E-08-5.55883E-09
 -1       310 9.45647E+02-1.54919E+05-7.14619E+04 6.07027E+05-6.93035E-09-7.95990E-09
 -1       318 5.34452E+03 4.25911E+05 1.13156E+04 6.10980E+05 8.03470E-09-7.34872E-10
 -1       319 1.60810E+04 4.21640E+05 2.62000E+03 1.03405E+06-1.01063E-08 8.28550E-10
 -1       320 7.93669E+03 4.24807E+05-9.05168E+03 6.09629E+05 9.49512E-09-7.80346E-10
 -1       321 2.92481E+03 4.17433E+05-2.77864E+04 1.03373E+06-1.00408E-08 2.83762E-09
 -1       322-7.85919E+02 4.40332E+05-5.39795E+04 6.11392E+05 6.33827E-09 1.92813E-09
 -1       364 7.27009E+04-6.43488E+03 2.58472E+03 4.48287E+05-6.54836E-11-3.27418E-11
 -1       365 7.28522E+04-1.18962E+03 2.90491E+03 7.58243E+05-1.16415E-10 2.16824E-09
 -1       366 6.57591E+04-2.79934E+02 1.35073E+03 4.46545E+05-5.82077E-11 2.14277E-09
 -1       367 6.43752E+04 1.72008E+03 1.48127E+03 7.60024E+05 1.05956E-10-2.11003E-09
 -1       368 6.48919E+04 4.31078E+02 1.24587E+03 4.46538E+05 1.81899E-10-3.99814E-09
 -1       369 6.94903E+04 8.85143E+01 2.21325E+03 7.58454E+05-1.45519E-11-1.63709E-10
 -1       370 7.03243E+04-4.34514E+03 1.73848E+03 4.48104E+05 5.09317E-11-4.17276E-09
 -1       371 1.45945E+03-2.95151E+05-2.94585E+04 2.55816E+05-3.12866E-10-1.27329E-10
 -1       372-4.70320E+01-3.05887E+05-1.59345E+04 4.34750E+05 2.47383E-10-1.12200E-08
 -1       373 2.91601E+03-2.99745E+05-5.39996E+03 2.55142E+05 8.18545E-11-4.71573E-09
 -1       374 5.68692E+03-3.00281E+05 7.70189E+02 4.34586E+05-4.36557E-10-1.43154E-09
 -1       375 1.92270E+03-2.99588E+05 5.80097E+03 2.55962E+05-4.94765E-10 5.52609E-09
 -1       376 2.58474E+05-4.18096E+03 1.98578E+04 4.27571E+05-7.05768E-10-1.84809E-09
 -1       377 2.62972E+05 3.11171E+03 1.27777E+04 7.23368E+05-7.74889E-10-4.70754E-09
 -1       378 2.54962E+05 3.98619E+02 6.06709E+03 4.26029E+05-2.01544E-09-6.51562E-09
 -1       379 2.54222E+05 2.46445E+03 4.55914E+03 7.24905E+05 1.30933E-09 1.61890E-09
 -1       380 2.54940E+05 5.12228E+02 3.99704E+03 4.26029E+05 5.38421E-10-6.65750E-10
 -1       381 2.60898E+05 1.45567E+03 6.76062E+03 7.23402E+05-1.75714E-09 2.23736E-09
 -1       382 2.59613E+05-4.15588E+03 8.99672E+03 4.27530E+05 5.09317E-10 7.73434E-09
 -1       383 2.71077E+03-1.02498E+05-1.36630E+04 4.93905E+05-2.49383E-09-4.05271E-09
 -1       384 7.65081E+03-1.11817E+05-7.25263E+03 8.37480E+05-5.78439E-10-1.24328E-08
 -1       385 5.87189E+03-1.07418E+05-3.69625E+03 4.92600E+05-1.81535E-09-7.63157E-09
 -1       386 8.58567E+03-1.09247E+05-3.01021E+03 8.37315E+05-1.51340E-09-2.32831E-09
 -1       387 1.82050E+03-1.02417E+05-4.92097E+03 4.94083E+05-1.63709E-09 6.04632E-09
 -1       388 4.07399E+05-3.56209E+03 2.34784E+04 4.03164E+05-1.76078E-09-1.26238E-09
 -1       389 4.13035E+05 3.71869E+03 1.48678E+04 6.82096E+05 8.65839E-10 3.51065E-09
 -1       390 4.05021E+05 3.20946E+02 7.27422E+03 4.01750E+05 1.17507E-09-3.20142E-10
 -1       391 4.04616E+05 2.24958E+03 5.73408E+03 6.83499E+05-6.26414E-11 3.27418E-11
 -1       392 4.05018E+05 3.95782E+02 5.69796E+03 4.01753E+05-1.26602E-09-1.20053E-09
 -1       393 4.11510E+05 2.43545E+03 1.02927E+04 6.82131E+05-6.25732E-10-2.04454E-09
 -1       394 4.08307E+05-3.57794E+03 1.52130E+04 4.03121E+05 1.41881E-09-1.12232E-09
 -1       395 2.44685E+03-3.81010E+04-1.86818E+04 5.00818E+05 2.32103E-09-2.30648E-09
 -1       396 6.71746E+03-4.88618E+04-1.00833E+04 8.48951E+05 8.07631E-10-7.67250E-09
 -1       397 5.83987E+03-4.37683E+04-4.87399E+03 4.99507E+05 4.30373E-09-5.29326E-09
 -1       398 8.50059E+03-4.55979E+04-3.49312E+03 8.48792E+05-5.67525E-10 3.45426E-09
 -1       399 1.70363E+03-3.87417E+04-4.96725E+03 5.00988E+05 3.80896E-09 6.62112E-09
 -1       400 5.38581E+05-3.11507E+03 2.79475E+04 3.85572E+05 1.10595E-09 1.74623E-09
 -1       401 5.45562E+05 4.46819E+03 1.74784E+04 6.52390E+05-4.07454E-10 1.88811E-09
 -1       402 5.37194E+05 2.64484E+02 8.67783E+03 3.84278E+05-1.44064E-09 3.81442E-09
 -1       403 5.37051E+05 2.15770E+03 6.97221E+03 6.53672E+05-2.54340E-09-1.12777E-10
 -1       404 5.37175E+05 3.41752E+02 7.32350E+03 3.84278E+05-1.17507E-09 1.25146E-09
 -1       405 5.44192E+05 3.39092E+03 1.35404E+04 6.52394E+05 1.42245E-09 2.33558E-09
 -1       406 5.39317E+05-3.09004E+03 2.08410E+04 3.85564E+05 1.11322E-09-4.51109E-10
 -1       407 2.10024E+03-6.30405E+03-2.42249E+04 4.85873E+05-8.28186E-09 1.14233E-09
 -1       408 5.16283E+03-1.83212E+04-1.35848E+04 8.23496E+05-4.42378E-09-8.94943E-09
 -1       409 5.50830E+03-1.24697E+04-6.93960E+03 4.84603E+05-9.54242E-09-2.63844E-09
 -1       410 7.44026E+03-1.48626E+04-5.81904E+03 8.23353E+05-5.07134E-09 2.01362E-09
 -1       411 1.56526E+03-7.46787E+03-7.99225E+03 4.86023E+05-7.61793E-09 5.95901E-09
 -1       412 6.65166E+05-2.66551E+03 3.31219E+04 3.69873E+05-1.72440E-09 4.58385E-10
 -1       413 6.73668E+05 5.36744E+03 2.04738E+04 6.25820E+05 2.37196E-09-2.04091E-09
 -1       414 6.64817E+05 2.29332E+02 1.01899E+04 3.68666E+05 7.09406E-10 2.89037E-09
 -1       415 6.64928E+05 2.09790E+03 8.14554E+03 6.27009E+05 3.84034E-10 6.27915E-09
 -1       416 6.64823E+05 2.93777E+02 8.67616E+03 3.68668E+05-5.92991E-10 6.98492E-10
 -1       417 6.72238E+05 4.12131E+03 1.60846E+04 6.25834E+05-4.94765E-10 7.89805E-09
 -1       418 6.66063E+05-2.70290E+03 2.51882E+04 3.69852E+05-1.16415E-09 5.52973E-10
 -1       419 1.71642E+03 1.57143E+04-2.95199E+04 4.65683E+05-4.42378E-09 1.81899E-10
 -1       420 3.52279E+03 2.58221E+03-1.69405E+04 7.89182E+05-1.09430E-08-1.31022E-08
 -1       421 5.10943E+03 9.10544E+03-8.90949E+03 4.64462E+05-4.63842E-09-1.25519E-08
 -1       422 6.32381E+03 6.14322E+03-8.02473E+03 7.89063E+05-1.24710E-08-6.76664E-09
 -1       423 1.46276E+03 1.39456E+04-1.08078E+04 4.65803E+05-2.77578E-09 3.51429E-09
 -1       424 8.17942E+05-2.18100E+03 4.00375E+04 3.52036E+05 3.20142E-10-4.04907E-09
 -1       425 8.28480E+05 6.51739E+03 2.45140E+04 5.95652E+05-1.60071E-09 2.08092E-09
 -1       426 8.18865E+05 1.63024E+02 1.22593E+04 3.50917E+05 8.80391E-10 1.94632E-10
 -1       427 8.19309E+05 2.02778E+03 9.81483E+03 5.96746E+05 1.65454E-09 6.66478E-09
 -1       428 8.18879E+05 2.25067E+02 1.06632E+04 3.50922E+05 1.33150E-09 5.03860E-09
 -1       429 8.26999E+05 5.19232E+03 1.98893E+04 5.95675E+05 3.80169E-10-5.96629E-10
 -1       430 8.18909E+05-2.23851E+03 3.16738E+04 3.52003E+05 1.43336E-09-6.39193E-09
 -1       431 1.28997E+03 4.70558E+04-3.45182E+04 4.31164E+05-1.78625E-09 6.27915E-09
 -1       432 1.62995E+03 3.30824E+04-1.98196E+04 7.30554E+05-9.88439E-09-1.29876E-08
 -1       433 4.52490E+03 4.01418E+04-9.97128E+03 4.30029E+05-1.93540E-09-2.38197E-09
 -1       434 5.55484E+03 3.71677E+04-8.15597E+03 7.30467E+05-9.08403E-09-1.43336E-09
 -1       435 1.46260E+03 4.41370E+04-9.93277E+03 4.31248E+05-2.15914E-09 1.96451E-09
 -1       436 1.05844E+06-1.50557E+03 5.51570E+04 3.36845E+05-1.17143E-09-1.64437E-09
 -1       437 1.07330E+06 9.05459E+03 3.35282E+04 5.70039E+05 1.50067E-09-5.91172E-09
 -1       438 1.06161E+06 8.52330E+01 1.70316E+04 3.35853E+05 9.24047E-10 1.62254E-09
 -1       439 1.06273E+06 2.12447E+03 1.39631E+04 5.71002E+05-2.12992E-10-1.31331E-09
 -1       440 1.06165E+06 1.03534E+02 1.58712E+04 3.35852E+05 2.19734E-09-1.59343E-09
 -1       441 1.07235E+06 8.03973E+03 3.01810E+04 5.70030E+05 6.69388E-10 4.58385E-09
 -1       442 1.05924E+06-1.62696E+03 4.90887E+04 3.36851E+05-2.71393E-09 2.35650E-09
 -1       443 5.71583E+02 2.80614E+04-4.46425E+04 3.64228E+05 1.45883E-09 1.00772E-09
 -1       444-1.79470E+03 1.21787E+04-2.54640E+04 6.17120E+05 7.85440E-09 2.34559E-09
 -1       445 3.56567E+03 2.04126E+04-1.17263E+04 3.63240E+05 8.69477E-10 1.74077E-09
 -1       446 4.61782E+03 1.76773E+04-7.48691E+03 6.17092E+05 7.82165E-09 3.17232E-09
 -1       447 1.53961E+03 2.27206E+04-6.60155E+03 3.64241E+05-3.07409E-10-2.97587E-09
 -1       448 1.40421E+06-7.83146E+02 8.24254E+04 3.18063E+05 3.25963E-09-6.81030E-09
 -1       449 1.42695E+06 1.36274E+04 4.89870E+04 5.38072E+05 2.32831E-10 2.63753E-09
 -1       450 1.41092E+06-1.39623E+01 2.33865E+04 3.17175E+05-4.36194E-09 6.48470E-09
 -1       451 1.41238E+06 2.34920E+03 1.65151E+04 5.38877E+05 2.52612E-10 1.34442E-08
 -1       452 1.41095E+06 3.17010E+02 1.56797E+04 3.17212E+05-6.29370E-10 7.02130E-10
 -1       453 1.41966E+06 7.29643E+03 2.66450E+04 5.38060E+05-1.87720E-09-5.81713E-09
 -1       454 1.40877E+06-9.70286E+02 4.20364E+04 3.18014E+05-1.92085E-09-8.38463E-09
 -1       455-2.53465E+01-1.35078E+05-6.65315E+04 3.23146E+05-7.66158E-09 3.36877E-09
 -1       456-6.59507E+03-1.56495E+05-3.83348E+04 5.48160E+05-1.33077E-08-9.10950E-09
 -1       457 2.85844E+03-1.44637E+05-1.76395E+04 3.22320E+05-7.75799E-09-9.18590E-11
 -1       458 2.74354E+03-1.47526E+05-1.12764E+04 5.47980E+05-1.45592E-08 5.07680E-09
 -1       459 8.20101E+02-1.42387E+05-9.40723E+03 3.23309E+05-5.74255E-09 1.73168E-09
 -1       460 1.71202E+06-2.68672E+03 6.95266E+04 3.83547E+05-4.11819E-09 1.89175E-09
 -1       461 1.73049E+06 1.28058E+04 4.30177E+04 6.46405E+05-6.28643E-09 2.07365E-09
 -1       462 1.71406E+06 9.60535E+02 2.24997E+04 3.82554E+05 1.25001E-08 3.01588E-09
 -1       463 1.71359E+06 5.91392E+03 2.01066E+04 6.47108E+05-4.02360E-09 1.02227E-09
 -1       464 1.71189E+06 2.61691E+03 2.48677E+04 3.82771E+05-2.18915E-08-7.19592E-09
 -1       465 1.72459E+06 1.81508E+04 4.89187E+04 6.46074E+05-3.78022E-08-3.57977E-09
 -1       466 1.70449E+06 2.61518E+03 8.12183E+04 3.83591E+05-1.50903E-08-6.43922E-09
 -1       467-7.49673E+01 3.55796E+05-5.89544E+04 3.65201E+05 4.36557E-09-1.62618E-09
 -1       468-5.33376E+03 3.36430E+05-3.06170E+04 6.18371E+05-5.75528E-09-5.14137E-09
 -1       469 2.66577E+03 3.46596E+05-7.64553E+03 3.64381E+05 5.52791E-09-7.23958E-10
 -1       470 8.23122E+03 3.49994E+05 9.19184E+03 6.18124E+05-5.13319E-09-6.35737E-09
 -1       471 8.51901E+02 3.45432E+05 2.50306E+04 3.65442E+05 3.07409E-09 4.65661E-10
 -1       472 9.87722E+05 4.69477E+02 1.18722E+04 2.09077E+05-1.68438E-09-2.18279E-10
 -1       473 9.89891E+05 3.74376E+03 8.35134E+03 3.52210E+05 1.22254E-08 1.68438E-09
 -1       474 9.87899E+05 1.12093E+03 6.36766E+03 2.08509E+05-7.83893E-09-2.35195E-09
 -1       475 9.87970E+05 2.76585E+03 8.88883E+03 3.52795E+05 2.84763E-09-7.34872E-10
 -1       476 9.87691E+05 9.06058E+02 1.47111E+04 2.08484E+05-1.46974E-09-2.23190E-09
 -1       477 9.97122E+05 1.08803E+04 3.24645E+04 3.52174E+05-2.53567E-09-2.54659E-11
 -1       478 9.82287E+05 1.09612E+03 5.55397E+04 2.09140E+05 4.29645E-09-6.41194E-10
 -1       479-5.14598E+03-7.87743E+04-9.48077E+04 5.89253E+05-7.29051E-09-2.25555E-09
 -1       480-1.10011E+04-1.10207E+05-5.27618E+04 9.98297E+05-5.23869E-09-4.72937E-09
 -1       481 3.78338E+03-9.81809E+04-2.26182E+04 5.87516E+05-1.78297E-08-5.94810E-10
 -1       482 5.74132E+03-1.01144E+05-1.06816E+04 9.98632E+05-1.68511E-08 3.34512E-09
 -1       483 4.68809E+02-9.53020E+04-5.06829E+03 5.88943E+05-1.09158E-08 2.77214E-09
 -1       484 4.59041E+05 1.85881E+02 5.39257E+03 1.45490E+05-9.12769E-09-4.23915E-09
 -1       485 4.60029E+05 1.62877E+03 3.94778E+03 2.45879E+05-4.22733E-09-3.26145E-09
 -1       486 4.59125E+05 4.61544E+02 3.28547E+03 1.45054E+05-7.25504E-09 1.42245E-09
 -1       487 4.59330E+05 1.20729E+03 4.89707E+03 2.46321E+05 4.32510E-09 6.34464E-09
 -1       488 4.59046E+05 2.93467E+02 8.33611E+03 1.45046E+05-1.55160E-09 1.97542E-09
 -1       489 4.64584E+05 5.87856E+03 1.85679E+04 2.45785E+05-5.64796E-09-1.77533E-09
 -1       490 4.55883E+05 4.49397E+02 3.18449E+04 1.45596E+05 2.78305E-09 1.58070E-09
 -1       491-2.68539E+03-2.22991E+05-6.30299E+04 4.29831E+05 3.68527E-09 5.09317E-10
 -1       492-7.69064E+03-2.43379E+05-3.64783E+04 7.28417E+05 4.45289E-09 1.48248E-09
 -1       493 2.18809E+03-2.34456E+05-1.80046E+04 4.28542E+05 1.46229E-08 9.59517E-10
 -1       494 9.82578E+02-2.38060E+05-1.41095E+04 7.28621E+05 1.22636E-08-3.36877E-09
 -1       495-1.43186E+02-2.31243E+05-1.54170E+04 4.29637E+05 1.01072E-08 1.22236E-09
 -1       496 1.34463E+05 3.52610E+00 1.08011E+03 7.12873E+04 4.88399E-10 8.01265E-10
 -1       497 1.34672E+05 2.33891E+02 1.03726E+03 1.20793E+05 1.00263E-08 1.20144E-09
 -1       498 1.34479E+05 3.11264E+01 1.28395E+03 7.10939E+04 1.75498E-09-1.12095E-09
 -1       499 1.34744E+05 2.17665E+02 2.35620E+03 1.20984E+05-2.22371E-09-3.19596E-09
 -1       500 1.34422E+05-6.18087E+01 4.32736E+03 7.10955E+04 3.50519E-09-1.34423E-09
 -1       501 1.37379E+05 2.81225E+03 9.84353E+03 1.20652E+05-8.24912E-10-1.25328E-09
 -1       502 1.32532E+05 1.85938E+02 1.70174E+04 7.14296E+04-3.29237E-09 3.32284E-09
 -1       503-1.02463E+03-2.15707E+05-3.42070E+04 2.63945E+05 3.32875E-09-4.65661E-10
 -1       504-4.27323E+03-2.26518E+05-2.04978E+04 4.47325E+05 8.29277E-09-2.09184E-09
 -1       505 1.09618E+03-2.21223E+05-1.12308E+04 2.63141E+05 9.91167E-09-6.48470E-10
 -1       506-6.51472E+02-2.24221E+05-1.10868E+04 4.47458E+05 4.68208E-09-8.18545E-10
 -1       507-7.41254E+00-2.19115E+05-1.41846E+04 2.63812E+05 1.03319E-08 3.97631E-09
 -1       508-2.95020E+02-2.22250E+05-1.79574E+04 1.09287E+05-6.30098E-09 5.91172E-10
 -1       509-2.49078E+03-2.27652E+05-1.13358E+04 1.85317E+05-8.34916E-09-1.10231E-09
 -1       510 4.06129E+02-2.24588E+05-7.09913E+03 1.08942E+05-1.05338E-08 2.06228E-10
 -1       511-1.47341E+03-2.26960E+05-8.64961E+03 1.85390E+05-1.22473E-08 3.91628E-09
 -1       512-3.67059E+01-2.23184E+05-1.22487E+04 1.09214E+05-3.69027E-09-1.72986E-09
 -1       513-6.90567E+04-4.21194E+03 2.73387E+04 3.79996E+05-5.60249E-10 2.05182E-09
 -1       514-6.15850E+04 3.30565E+03 1.66944E+04 6.42487E+05 4.22006E-10 1.22964E-09
 -1       515-7.09906E+04-3.41346E+02 7.20750E+03 3.78399E+05-7.63976E-10-1.83172E-09
 -1       516-7.14791E+04 1.40307E+03 4.07737E+03 6.44098E+05-2.18279E-11-2.08092E-09
 -1       517-7.15260E+04 3.39744E+02 1.86575E+03 3.78385E+05 1.94632E-10-3.21961E-09
 -1       518-6.87272E+04-2.21178E+02 9.52736E+02 6.42764E+05-1.10958E-10-3.08137E-09
 -1       519-6.74550E+04-2.99848E+03-8.55233E+02 3.79728E+05-4.07454E-10 9.02219E-10
 -1       520 1.54769E+03-7.61029E+05-3.61685E+04 3.13590E+05-3.25599E-10 8.00355E-10
 -1       521-3.82366E+02-7.74048E+05-1.78178E+04 5.34422E+05 1.58252E-10 2.56114E-09
 -1       522 3.23341E+03-7.66816E+05-2.42974E+03 3.12803E+05-1.01863E-10-5.23050E-09
 -1       523 9.28195E+03-7.63790E+05 1.10696E+04 5.34000E+05 3.63798E-11-6.34645E-09
 -1       524 1.85198E+03-7.68102E+05 2.47046E+04 3.13999E+05 1.63709E-10-5.84259E-09
 -1       525-3.90161E+04-3.08349E+03 1.40206E+03 3.49392E+05-4.87489E-10 1.65528E-09
 -1       526-3.93605E+04 1.06720E+02 1.48460E+03 5.91081E+05 1.89175E-10 4.47471E-10
 -1       527-4.28379E+04 3.12942E+02 4.80874E+02 3.48048E+05-1.35333E-09 1.09503E-09
 -1       528-4.37482E+04 1.49622E+03 1.84260E+02 5.92432E+05 3.55158E-10 2.19006E-09
 -1       529-4.28782E+04 3.95831E+02-6.09277E+02 3.48047E+05 3.85626E-10-1.34241E-09
 -1       530-4.05590E+04-7.21350E+02-1.69721E+03 5.91118E+05-7.05768E-10-1.09139E-09
 -1       531-3.84954E+04-3.00185E+03-4.32767E+03 3.49355E+05 8.07631E-10 4.64934E-09
 -1       532 2.53570E+03-6.74277E+04 2.84549E+03 4.70717E+05-1.39971E-09 1.88811E-09
 -1       533 8.55458E+03-7.09686E+04 8.39107E+03 7.98259E+05-1.67347E-10 8.58563E-10
 -1       534 4.38679E+03-7.02675E+04 1.58127E+04 4.69581E+05-1.85173E-09-6.00994E-09
 -1       535 1.74010E+04-5.99748E+04 3.63159E+04 7.97890E+05-2.18279E-10-6.48470E-09
 -1       536 1.88702E+03-7.31246E+04 6.15039E+04 4.71107E+05-1.34605E-09-4.06726E-09
 -1       537 5.28131E+04-2.61041E+03 4.64618E+03 3.28710E+05-7.85803E-10 7.38510E-10
 -1       538 5.34626E+04 6.61901E+02 3.32638E+03 5.56108E+05 9.89530E-10-1.03319E-09
 -1       539 4.98990E+04 2.61074E+02 1.43880E+03 3.27467E+05-1.74623E-10-9.71340E-10
 -1       540 4.92462E+04 1.32758E+03 9.54225E+02 5.57353E+05 4.79133E-10-9.27685E-10
 -1       541 4.99202E+04 2.94093E+02 3.42125E+02 3.27469E+05-6.63931E-10-5.67525E-10
 -1       542 5.24895E+04-2.68253E+02 1.53250E+02 5.56134E+05-4.52928E-10-8.76753E-10
 -1       543 5.35107E+04-2.67741E+03-1.09656E+03 3.28680E+05 6.69388E-10-1.44064E-09
 -1       544 2.15289E+03-1.59515E+04 5.23283E+02 4.25322E+05 2.41471E-09 2.91038E-11
 -1       545 6.78865E+03-1.93947E+04 3.85855E+03 7.21147E+05 7.71252E-10 1.89266E-09
 -1       546 3.68187E+03-1.81457E+04 7.66641E+03 4.24311E+05 3.12320E-09-6.74845E-09
 -1       547 1.08348E+04-1.30075E+04 1.78773E+04 7.20825E+05-2.72848E-10-5.17321E-09
 -1       548 1.06225E+03-1.78974E+04 2.98058E+04 4.25662E+05 2.74667E-09-5.01313E-09
 -1       549 1.49758E+05-2.38568E+03 8.28870E+03 3.21260E+05 1.45519E-10 1.12777E-10
 -1       550 1.51457E+05 1.27907E+03 5.49503E+03 5.43553E+05 6.93035E-10-3.21234E-09
 -1       551 1.47462E+05 2.37451E+02 2.61103E+03 3.20087E+05-1.62618E-09-1.21327E-09
 -1       552 1.46994E+05 1.32685E+03 2.00919E+03 5.44727E+05-2.64129E-09-6.11180E-10
 -1       553 1.47490E+05 2.55553E+02 1.71851E+03 3.20086E+05-8.62201E-10 2.18279E-11
 -1       554 1.50705E+05 5.05258E+02 2.91750E+03 5.43549E+05 2.56478E-10-9.82254E-11
 -1       555 1.50356E+05-2.46624E+03 3.61885E+03 3.21263E+05 8.58563E-10 1.97360E-09
 -1       556 1.91797E+03-5.84398E+02-5.34148E+03 4.06463E+05-6.62476E-09-7.09406E-10
 -1       557 5.25700E+03-5.40187E+03-2.60927E+03 6.89141E+05-3.34330E-09 1.06957E-09
 -1       558 3.45402E+03-2.85068E+03-1.28958E+03 4.05505E+05-7.80346E-09-5.34783E-09
 -1       559 4.96293E+03-2.87792E+03-8.87807E+02 6.88843E+05-3.64889E-09-6.42285E-09
 -1       560 2.52848E+02 1.01188E+03-2.06970E+03 4.06779E+05-4.87853E-09-3.89991E-09
 -1       561 2.08238E+05-2.32377E+03 9.23259E+03 3.21082E+05-1.88447E-09-2.93221E-09
 -1       562 2.10182E+05 1.45961E+03 6.11648E+03 5.43252E+05 8.51287E-10-2.37924E-09
 -1       563 2.06082E+05 2.45632E+02 3.05930E+03 3.19928E+05 9.45874E-10 2.23554E-09
 -1       564 2.05694E+05 1.36616E+03 2.59572E+03 5.44405E+05 2.24645E-09 7.82165E-10
 -1       565 2.06113E+05 2.37908E+02 2.67520E+03 3.19928E+05-2.01908E-10-2.17915E-09
 -1       566 2.09931E+05 1.09665E+03 5.01578E+03 5.43249E+05-1.00044E-09-5.07134E-09
 -1       567 2.08549E+05-2.40447E+03 7.22940E+03 3.21083E+05-4.36557E-11-3.56522E-10
 -1       568 1.86028E+03 1.25037E+04-1.04142E+04 4.17933E+05-3.35513E-09 3.71074E-10
 -1       569 4.62805E+03 6.07872E+03-8.51887E+03 7.08520E+05-8.29095E-09 1.29421E-09
 -1       570 3.67826E+03 9.91805E+03-9.97286E+03 4.16940E+05-3.89264E-09-4.75575E-09
 -1       571-1.78041E+02 4.75044E+03-1.94312E+04 7.08252E+05-9.70613E-09-5.57520E-09
 -1       572-4.96062E+02 1.78656E+04-3.38801E+04 4.18221E+05-1.47429E-09-3.38332E-09
 -1       573 1.72390E+05-2.50280E+03 3.70639E+03 3.27314E+05 2.61934E-10-3.49246E-09
 -1       574 1.72724E+05 5.31260E+02 3.00099E+03 5.53824E+05-2.56478E-10-5.09317E-10
 -1       575 1.69471E+05 2.69624E+02 1.79854E+03 3.26132E+05-4.22006E-10-1.23691E-10
 -1       576 1.69011E+05 1.34093E+03 2.13388E+03 5.55007E+05 1.42336E-09-1.48430E-09
 -1       577 1.69505E+05 1.94759E+02 2.81075E+03 3.26134E+05 1.84809E-09 1.62254E-09
 -1       578 1.73827E+05 1.30393E+03 5.95398E+03 5.53806E+05 6.54836E-10-1.45519E-11
 -1       579 1.71899E+05-2.57219E+03 9.02542E+03 3.27333E+05 1.32422E-09-3.53612E-09
 -1       580 2.06776E+03 3.58089E+04-1.19183E+04 4.60843E+05-1.17871E-09-6.69388E-10
 -1       581 5.47131E+03 2.82746E+04-1.23942E+04 7.81128E+05-9.30595E-09 6.76664E-10
 -1       582 4.41204E+03 3.29752E+04-1.80048E+04 4.59727E+05-1.70621E-09-2.13277E-09
 -1       583-4.69074E+03 2.25296E+04-3.81605E+04 7.80901E+05-8.65111E-09-8.31642E-09
 -1       584-1.19872E+03 4.57207E+04-6.68343E+04 4.61097E+05-2.24281E-09-2.68483E-09
 -1       585-1.04438E+04-2.71436E+03-8.45760E+03 2.88945E+05-2.10275E-09 6.88669E-09
 -1       586-1.32058E+04-1.88226E+03-4.16118E+03 4.88737E+05 1.25510E-09 5.74437E-09
 -1       587-1.44666E+04 3.51376E+01-1.52288E+03 2.87812E+05 1.32786E-09 2.58296E-10
 -1       588-1.52252E+04 8.51979E+02 3.51694E+01 4.89889E+05 4.66798E-10 1.58252E-10
 -1       589-1.48853E+04 2.50631E+02 1.21438E+03 2.87805E+05 1.05319E-09 9.67702E-10
 -1       590-1.21517E+04 1.01486E+03 3.59566E+03 4.88842E+05 1.41154E-09-1.05865E-09
 -1       591-1.32122E+04-1.66566E+03 5.75079E+03 2.88858E+05-1.01863E-09-1.41699E-09
 -1       592 2.49626E+03 6.99253E+04 1.69817E+03 5.13865E+05 1.46974E-09-4.04543E-09
 -1       593 9.61681E+03 6.51611E+04 6.00463E+03 8.70739E+05 8.61473E-09 2.57205E-09
 -1       594 5.32752E+03 6.61357E+04 1.09046E+04 5.12562E+05 1.00772E-09-7.39055E-09
 -1       595 1.56054E+04 7.25588E+04 2.48690E+04 8.70527E+05 9.47330E-09 7.77800E-09
 -1       596 2.08309E+03 6.60443E+04 4.13267E+04 5.14090E+05 2.65572E-10-4.45289E-09
 -1       597-9.52591E+04-1.77898E+03-2.24212E+03 2.28209E+05 3.09228E-09-1.91540E-09
 -1       598-9.60565E+04-5.89529E+02-1.23696E+03 3.85791E+05 3.91083E-10 5.38421E-10
 -1       599-9.75668E+04 6.00386E+01-1.26154E+03 2.27223E+05-3.31420E-09 3.20142E-10
 -1       600-9.84154E+04 6.47548E+02-1.91052E+03 3.86796E+05-8.79027E-10 1.85173E-09
 -1       601-9.78780E+04 4.19282E+02-3.56759E+03 2.27207E+05-6.46651E-10-2.85581E-10
 -1       602-9.94409E+04-1.98611E+03-8.06867E+03 3.86041E+05-2.93585E-09-2.94494E-09
 -1       603-9.47913E+04-1.06198E+03-1.44397E+04 2.27975E+05-9.60426E-10-2.36832E-09
 -1       604 1.48598E+03-6.92474E+04 7.64966E+03 3.90619E+05-6.82849E-09-4.29281E-10
 -1       605 6.76275E+03-7.00832E+04 1.85953E+04 6.62330E+05-1.25256E-08 1.81899E-10
 -1       606 2.82590E+03-7.22774E+04 3.56758E+04 3.89635E+05-7.03949E-09-5.82713E-09
 -1       607 2.89053E+04-4.96741E+04 8.19731E+04 6.62063E+05-1.30603E-08-5.76983E-09
 -1       608 4.02151E+03-8.69509E+04 1.41662E+05 3.90883E+05-4.96948E-09-3.39787E-09
 -1       609-1.87140E+05-3.23256E+03-2.53161E+04 3.92537E+05-8.49104E-09 2.66846E-09
 -1       610-1.96333E+05-1.74078E+03-1.37547E+04 6.64206E+05-8.30914E-09 4.00178E-10
 -1       611-1.95682E+05 2.07007E+03-6.48114E+03 3.90910E+05 1.33077E-08 1.23691E-09
 -1       612-1.98924E+05 4.62843E+03-3.92792E+03 6.65825E+05-6.54040E-09-2.63753E-09
 -1       613-1.96288E+05 2.43343E+03-3.64870E+03 3.90897E+05-1.97033E-08-4.62023E-10
 -1       614-1.95891E+05 1.52956E+03-5.80460E+03 6.64374E+05-3.23125E-08 1.12050E-09
 -1       615-1.90488E+05-1.73423E+03-1.06733E+04 3.92382E+05-9.75706E-09-1.03319E-09
 -1       616 9.71501E+02 1.45030E+05 1.44573E+04 4.44731E+05 3.07591E-09-3.53248E-09
 -1       617 7.47510E+03 1.46068E+05 2.08313E+04 7.53602E+05-3.88172E-09-4.55111E-09
 -1       618 2.56289E+03 1.42643E+05 3.29728E+04 4.43649E+05 4.68390E-09-2.03363E-09
 -1       619 2.51083E+04 1.63240E+05 7.21522E+04 7.53334E+05-3.23416E-09 3.34694E-09
 -1       620 2.45662E+03 1.31371E+05 1.22851E+05 4.45026E+05 2.67755E-09 3.34694E-10
 -1       621-8.24935E+04-1.43257E+03 3.03015E+02 3.49156E+05 1.82627E-09-7.09406E-10
 -1       622-8.42972E+04 2.69370E+03 9.74272E+02 5.90838E+05 1.13178E-08-7.26504E-09
 -1       623-8.64154E+04 1.94533E+03 5.29297E+02 3.47794E+05-9.98989E-09-3.03771E-10
 -1       624-8.83825E+04 4.28176E+03 7.49371E+02 5.92178E+05 4.64325E-10-4.27826E-09
 -1       625-8.64689E+04 1.98123E+03 6.95383E+02 3.47792E+05 9.20409E-10-9.09495E-10
 -1       626-8.43388E+04 2.91362E+03 1.43240E+03 5.90841E+05-8.36735E-10 2.87400E-10
 -1       627-8.27401E+04-1.30140E+03 1.15555E+03 3.49155E+05 1.82627E-09-2.90311E-09
 -1       628 4.20782E+02-4.37732E+04 8.19226E+03 4.99752E+05-9.59972E-09-2.81580E-09
 -1       629 6.26557E+03-4.46473E+04 1.26422E+04 8.47318E+05-9.09131E-09-1.61799E-09
 -1       630 2.48082E+03-4.65258E+04 1.98395E+04 4.98542E+05-1.56433E-08-3.18323E-09
 -1       631 1.60974E+04-3.27108E+04 4.34172E+04 8.46953E+05-1.19580E-08-1.88447E-09
 -1       632-1.38406E+02-5.02358E+04 7.28744E+04 5.00151E+05-6.14091E-09-2.00816E-09
 -1       633-4.71950E+04-3.69689E+02 5.61294E+03 2.28557E+05-2.76486E-10-2.53749E-09
 -1       634-4.64107E+04 2.04618E+03 3.61876E+03 3.86830E+05 2.35741E-09-1.28603E-09
 -1       635-4.80298E+04 7.85513E+02 1.79150E+03 2.27717E+05-3.56886E-09-3.02862E-09
 -1       636-4.85356E+04 1.72815E+03 1.44367E+03 3.87659E+05-1.87174E-09-1.38971E-09
 -1       637-4.78537E+04 6.59144E+02 1.41943E+03 2.27722E+05 2.92675E-09-1.03864E-09
 -1       638-4.61054E+04 1.46464E+03 2.61766E+03 3.86743E+05-7.83075E-09-1.83718E-09
 -1       639-4.64840E+04-7.99357E+02 3.72241E+03 2.28639E+05 3.44517E-09-6.96673E-10
 -1       640 1.94213E+02-8.54399E+04 3.51605E+03 3.98514E+05 9.13951E-09 9.45874E-11
 -1       641 3.69570E+03-8.64970E+04 6.03420E+03 6.75693E+05 1.05829E-08-1.49521E-09
 -1       642 1.62949E+03-8.73302E+04 9.64701E+03 3.97534E+05 1.66365E-08 1.77351E-10
 -1       643 8.46799E+03-8.04024E+04 2.12473E+04 6.75437E+05 9.19317E-09 2.29193E-09
 -1       644-2.54606E+02-8.84316E+04 3.54498E+04 3.98783E+05 4.32556E-09 1.45519E-10
 -1       645-1.92939E+04-3.88909E+01 7.03556E+03 1.19650E+05 2.17187E-09 2.60661E-09
 -1       646-1.74422E+04 1.27867E+03 4.30817E+03 2.02571E+05 1.50258E-08-3.40151E-10
 -1       647-1.87863E+04 7.06235E+01 2.28920E+03 1.19242E+05 3.89900E-09-1.88356E-09
 -1       648-1.85529E+04 3.19097E+02 2.03451E+03 2.02972E+05-2.95199E-09-1.27875E-09
 -1       649-1.86854E+04-2.17412E+01 2.51196E+03 1.19247E+05 1.87356E-09-1.65801E-09
 -1       650-1.68490E+04 1.30218E+03 4.99971E+03 2.02460E+05 1.09503E-09-1.01863E-10
 -1       651-1.91401E+04-2.78869E+02 8.23804E+03 1.19756E+05-3.49246E-10-2.96222E-09
 -1       652 2.79733E+02-8.71900E+04 7.96135E+02 2.40181E+05 5.51836E-09 6.43922E-10
 -1       653 1.63216E+03-8.78592E+04 1.72872E+03 4.07262E+05 6.73026E-09-2.10048E-09
 -1       654 8.16193E+02-8.79096E+04 2.92530E+03 2.39591E+05 9.53150E-09-2.09820E-09
 -1       655 3.11562E+03-8.58634E+04 6.55063E+03 4.07114E+05 7.48878E-09-2.57933E-09
 -1       656 8.10343E+01-8.80713E+04 1.09049E+04 2.40331E+05 3.28873E-09-3.74712E-09
 -1       657 2.80794E+02-7.80162E+04 2.78063E+03 9.40562E+04-5.33703E-09-4.37467E-10
 -1       658 9.68752E+02-7.74590E+04 1.80156E+03 1.59572E+05-1.02837E-08 4.51337E-10
 -1       659 2.69257E+02-7.77683E+04 1.14035E+03 9.38429E+04-5.93718E-09-8.37190E-10
 -1       660 7.71070E+02-7.74422E+04 1.41832E+03 1.59481E+05-5.84896E-09-2.20280E-09
 -1       661 1.42417E+02-7.77613E+04 1.94463E+03 9.41476E+04-1.78670E-09-9.20409E-10
 -1       662-1.33720E+06-3.03057E+03-3.00805E+04 2.43027E+05 2.03727E-10 1.89539E-09
 -1       663-1.34554E+06-5.74739E+03-1.82259E+04 4.10132E+05 6.54836E-11-1.04774E-09
 -1       664-1.34323E+06-1.17647E+02-1.08942E+04 2.41631E+05 7.27596E-12 1.50976E-10
 -1       665-1.34519E+06-2.60458E+02-1.13848E+04 4.11654E+05 4.36557E-11 9.45874E-11
 -1       666-1.34352E+06 3.81637E+02-1.66620E+04 2.41533E+05 5.36602E-11-4.16549E-10
 -1       667-1.35216E+06-1.00224E+04-3.51015E+04 4.10756E+05-1.63709E-10 4.00178E-11
 -1       668-1.33465E+06-2.41701E+03-6.04318E+04 2.42508E+05 1.49157E-10 3.63798E-10
 -1       669-7.62968E+05-9.74281E+02-4.90092E+03 1.87196E+05-2.91038E-11 6.85759E-10
 -1       670-7.64467E+05-7.64945E+02-3.54940E+03 3.16661E+05-1.10958E-10-6.23913E-10
 -1       671-7.64622E+05 1.57010E+02-3.53320E+03 1.86351E+05 3.63798E-12-5.42968E-10
 -1       672-7.65494E+05 8.54028E+01-5.79025E+03 3.17512E+05 7.85349E-10-4.72937E-11
 -1       673-7.64296E+05 2.10847E+02-1.04946E+04 1.86348E+05 9.27685E-11-6.91216E-10
 -1       674-7.69929E+05-6.97717E+03-2.36117E+04 3.16693E+05-6.83940E-10 3.96540E-10
 -1       675-7.58006E+05-1.85361E+03-4.12940E+04 1.87156E+05 3.09228E-10 8.84029E-10
 -1       676-2.41450E+05-5.18362E+02 8.77138E+03 1.73606E+05-2.80124E-10 7.40329E-10
 -1       677-2.39092E+05 1.50893E+03 4.66936E+03 2.93674E+05 5.54792E-10-1.22600E-09
 -1       678-2.41257E+05 8.80620E+01 8.79206E+02 1.72898E+05 3.34694E-10-6.87578E-10
 -1       679-2.41570E+05 2.47892E+02-1.82811E+03 2.94380E+05 2.12552E-10 3.45608E-11
 -1       680-2.40951E+05 1.26619E+02-5.39681E+03 1.72898E+05-4.45652E-10-2.00089E-10
 -1       681-2.43968E+05-4.10681E+03-1.34091E+04 2.93694E+05 4.27463E-11 2.87400E-10
 -1       682-2.36940E+05-1.34463E+03-2.40311E+04 1.73576E+05 6.07542E-10 1.25146E-09
 -1       683 2.56871E+05-1.14901E+02 2.37807E+04 1.72052E+05 2.40107E-10 1.11868E-09
 -1       684 2.63433E+05 4.03644E+03 1.36394E+04 2.91097E+05-3.27418E-11 3.38332E-10
 -1       685 2.58946E+05 4.72531E+01 5.53020E+03 1.71435E+05-6.20275E-10 3.81988E-10
 -1       686 2.59158E+05 4.87054E+02 2.08280E+03 2.91708E+05-1.37446E-09-3.53793E-10
 -1       687 2.59265E+05 7.29092E+01-6.81319E+02 1.71434E+05-4.69299E-10-4.32919E-10
 -1       688 2.58667E+05-1.54193E+03-4.24341E+03 2.91094E+05 3.33785E-10-1.83718E-10
 -1       689 2.61380E+05-9.73829E+02-8.67657E+03 1.72046E+05 1.81899E-10 1.02409E-09
 -1       690 7.69237E+05 2.60222E+02 4.04485E+04 1.80632E+05-1.00044E-09-9.09495E-11
 -1       691 7.80447E+05 6.85580E+03 2.35626E+04 3.05628E+05 7.82165E-11-6.11180E-10
 -1       692 7.73300E+05 2.18326E+01 1.05578E+04 1.80063E+05 2.49202E-10 5.68434E-10
 -1       693 7.74039E+05 7.84915E+02 6.11217E+03 3.06187E+05 1.73486E-09 8.49468E-10
 -1       694 7.73662E+05 3.23623E+01 3.92398E+03 1.80061E+05 1.00044E-10-3.79259E-10
 -1       695 7.75439E+05 8.69733E+02 4.47694E+03 3.05630E+05-1.30967E-10 1.32786E-10
 -1       696 7.74114E+05-7.11699E+02 5.79500E+03 1.80622E+05-4.14730E-10 4.31100E-10
 -1       697 1.33419E+06 5.91462E+02 6.16109E+04 2.07843E+05 1.41881E-10-3.85626E-10
 -1       698 1.35104E+06 1.02262E+04 3.94671E+04 3.51716E+05 1.90994E-10-2.23736E-10
 -1       699 1.34026E+06-1.00163E+02 2.52275E+04 2.07286E+05-3.20142E-10-6.67569E-10
 -1       700 1.34359E+06 2.38380E+03 2.94161E+04 3.52271E+05 8.44011E-10 1.31331E-09
 -1       701 1.33941E+06-3.17312E+02 4.49972E+04 2.07263E+05 1.48430E-09 5.89353E-10
 -1       702 1.36682E+06 2.76895E+04 9.64311E+04 3.51708E+05-4.62023E-10 2.32831E-10
 -1       703 1.32031E+06 2.96282E+03 1.64990E+05 2.07918E+05-1.63709E-10-1.81899E-09
 -1       704-2.51480E+06-6.18559E+03-2.09738E+05 1.80509E+05-1.25146E-09 1.48430E-09
 -1       705-2.57421E+06-3.58343E+04-1.22552E+05 3.04753E+05-9.62245E-10 3.75803E-09
 -1       706-2.54211E+06 4.32904E+02-5.80320E+04 1.79423E+05 5.29326E-10-2.18279E-10
 -1       707-2.54832E+06-2.28967E+03-3.94736E+04 3.06004E+05 5.40695E-10 1.01863E-09
 -1       708-2.54334E+06 4.63267E+02-3.66414E+04 1.79349E+05 8.73115E-10-2.26373E-09
 -1       709-2.55830E+06-1.63185E+04-6.09686E+04 3.05098E+05 8.00355E-10-4.28076E-09
 -1       710-2.53072E+06-2.97761E+03-9.80094E+04 1.80294E+05-6.25732E-10-2.88128E-09
 -1       711-2.05644E+06-1.86148E+03-5.04235E+04 1.23774E+05 2.53203E-09 3.18869E-09
 -1       712-2.07046E+06-8.55370E+03-3.08900E+04 2.08921E+05 8.18545E-10-2.26282E-09
 -1       713-2.06326E+06 1.47785E+02-1.77794E+04 1.22863E+05-2.09729E-09 2.75213E-09
 -1       714-2.06570E+06-8.84813E+02-1.79022E+04 2.09976E+05-1.20872E-09 2.02999E-09
 -1       715-2.06315E+06 3.98646E+02-2.51748E+04 1.22735E+05-7.13555E-10-1.30308E-09
 -1       716-2.07716E+06-1.47918E+04-5.23190E+04 2.09635E+05-3.19415E-09 1.37800E-09
 -1       717-2.05183E+06-2.21515E+03-8.91771E+04 1.23200E+05 6.45741E-10-2.81580E-09
 -1       718-1.50967E+06-1.83818E+03-3.75402E+04 2.41036E+05-8.91305E-09 4.18186E-09
 -1       719-1.52104E+06-4.82525E+03-2.26985E+04 4.09436E+05-6.52835E-09-5.74801E-10
 -1       720-1.51652E+06 1.18451E+03-1.31848E+04 2.39602E+05 1.15178E-08-4.13092E-09
 -1       721-1.51955E+06 1.70303E+03-1.33059E+04 4.10943E+05-6.29734E-09 2.13913E-09
 -1       722-1.51667E+06 1.57270E+03-1.89669E+04 2.39521E+05-1.77151E-08 4.02906E-10
 -1       723-1.52716E+06-9.32572E+03-3.95553E+04 4.09954E+05-2.75904E-08 5.16957E-09
 -1       724-1.50672E+06-1.55379E+03-6.79188E+04 2.40604E+05-1.18816E-08-7.56700E-10
 -1       725-8.99872E+05-1.69258E+02-8.87410E+03 2.04327E+05-2.07729E-09-3.82715E-09
 -1       726-9.03243E+05 2.58171E+02-5.82624E+03 3.47229E+05 8.69477E-09-3.71074E-09
 -1       727-9.02146E+05 1.17575E+03-4.56732E+03 2.03413E+05-9.35324E-09-3.38150E-09
 -1       728-9.03767E+05 1.74031E+03-6.41964E+03 3.48122E+05-5.97197E-10 1.30422E-09
 -1       729-9.01723E+05 1.12559E+03-1.10041E+04 2.03428E+05 7.87622E-10-2.95131E-09
 -1       730-9.07833E+05-5.68018E+03-2.43226E+04 3.47126E+05 2.29920E-09-2.46109E-09
 -1       731-8.94942E+05-1.27560E+03-4.24831E+04 2.04420E+05 2.58296E-09-5.32600E-09
 -1       732-4.11910E+05 2.37431E+02 4.81187E+03 1.34176E+05-1.96997E-09 6.57565E-10
 -1       733-4.10899E+05 1.57654E+03 2.39107E+03 2.27631E+05-4.69572E-09 3.60342E-09
 -1       734-4.11669E+05 4.71947E+02 8.81567E+01 1.33700E+05-6.73208E-09-1.12868E-09
 -1       735-4.12063E+05 6.89061E+02-1.88028E+03 2.28084E+05-2.36832E-09-1.98543E-09
 -1       736-4.11254E+05 3.52501E+02-4.68096E+03 1.33724E+05 2.26464E-09-2.78396E-09
 -1       737-4.13918E+05-2.97954E+03-1.12656E+04 2.27420E+05-5.72254E-09 1.58434E-09
 -1       738-4.07972E+05-8.28644E+02-2.00529E+04 1.34366E+05 3.71438E-09-2.03727E-09
 -1       739-1.16948E+05 2.10670E+02 8.48550E+03 6.30667E+04-1.02409E-09-1.51203E-09
 -1       740-1.14571E+05 1.51247E+03 4.84794E+03 1.06920E+05 4.57476E-10-2.71484E-10
 -1       741-1.15927E+05 2.53278E+01 2.02933E+03 6.28944E+04-2.53169E-09 1.74805E-09
 -1       742-1.15723E+05 1.08664E+02 8.82953E+02 1.07082E+05 5.58839E-09-7.86713E-11
 -1       743-1.15747E+05-3.04894E+01 6.02825E+01 6.29047E+04 1.34514E-09-1.79034E-09
 -1       744-1.15787E+05-3.80247E+02-7.86483E+02 1.06752E+05-1.33605E-09 1.51431E-09
 -1       745-1.15299E+05-2.49977E+02-1.77764E+03 6.32236E+04 9.71340E-10 1.21781E-09
 -3
 9999
