    1C
    1UUSER                                                              
    1UDATE              11.october.2022                                 
    1UTIME              18:57:46                                        
    1UHOST                                                              
    1UPGM               CalculiX                                        
    1UVERSION           Version 2.20                             
    1UCOMPILETIME       Sun Jul 31 18:08:37 CEST 2022                    
    1UDIR                                                               
    1UDBN                                                               
    1UMAT    1MESH_MATERIAL                                             
    2C                           409                                     1
 -1         1 0.00000E+00 0.00000E+00 0.00000E+00
 -1         2 1.66667E-02 0.00000E+00 0.00000E+00
 -1         3 3.33333E-02 0.00000E+00 0.00000E+00
 -1         5 6.66667E-02 0.00000E+00 0.00000E+00
 -1         8 0.00000E+00 6.25000E-03 0.00000E+00
 -1         9 1.66667E-02 6.25000E-03 0.00000E+00
 -1        10 3.33333E-02 6.25000E-03 0.00000E+00
 -1        12 6.66667E-02 6.25000E-03 0.00000E+00
 -1        15 0.00000E+00 1.25000E-02 0.00000E+00
 -1        16 1.66667E-02 1.25000E-02 0.00000E+00
 -1        17 3.33333E-02 1.25000E-02 0.00000E+00
 -1        18 5.00000E-02 1.25000E-02 0.00000E+00
 -1        19 6.66667E-02 1.25000E-02 0.00000E+00
 -1        20 8.33333E-02 1.25000E-02 0.00000E+00
 -1        21 1.00000E-01 1.25000E-02 0.00000E+00
 -1        24 3.33333E-02 1.87500E-02 0.00000E+00
 -1        25 5.00000E-02 1.87500E-02 0.00000E+00
 -1        26 6.66667E-02 1.87500E-02 0.00000E+00
 -1        27 8.33333E-02 1.87500E-02 0.00000E+00
 -1        28 1.00000E-01 1.87500E-02 0.00000E+00
 -1        32 5.00000E-02 2.50000E-02 0.00000E+00
 -1        33 6.66667E-02 2.50000E-02 0.00000E+00
 -1        34 8.33333E-02 2.50000E-02 0.00000E+00
 -1        35 1.00000E-01 2.50000E-02 0.00000E+00
 -1        51 0.00000E+00 1.04167E-03 0.00000E+00
 -1        52 0.00000E+00 2.08333E-03 0.00000E+00
 -1        53 0.00000E+00 3.12500E-03 0.00000E+00
 -1        54 0.00000E+00 4.16667E-03 0.00000E+00
 -1        55 0.00000E+00 5.20833E-03 0.00000E+00
 -1        56 1.04167E-03 3.90630E-04 0.00000E+00
 -1        57 2.08333E-03 7.81250E-04 0.00000E+00
 -1        58 3.12500E-03 1.17188E-03 0.00000E+00
 -1        59 4.16667E-03 1.56250E-03 0.00000E+00
 -1        60 5.20833E-03 1.95312E-03 0.00000E+00
 -1        61 6.25000E-03 2.34375E-03 0.00000E+00
 -1        62 7.29167E-03 2.73438E-03 0.00000E+00
 -1        63 8.33333E-03 3.12500E-03 0.00000E+00
 -1        64 9.37500E-03 3.51563E-03 0.00000E+00
 -1        65 1.04167E-02 3.90625E-03 0.00000E+00
 -1        66 1.14583E-02 4.29688E-03 0.00000E+00
 -1        67 1.25000E-02 4.68750E-03 0.00000E+00
 -1        68 1.35417E-02 5.07813E-03 0.00000E+00
 -1        69 1.45833E-02 5.46875E-03 0.00000E+00
 -1        70 1.56250E-02 5.85938E-03 0.00000E+00
 -1        86 1.66667E-02 1.04167E-03 0.00000E+00
 -1        87 1.66667E-02 2.08333E-03 0.00000E+00
 -1        88 1.66667E-02 3.12500E-03 0.00000E+00
 -1        89 1.66667E-02 4.16667E-03 0.00000E+00
 -1        90 1.66667E-02 5.20833E-03 0.00000E+00
 -1       121 3.33333E-02 1.04167E-03 0.00000E+00
 -1       122 3.33333E-02 2.08333E-03 0.00000E+00
 -1       123 3.33333E-02 3.12500E-03 0.00000E+00
 -1       124 3.33333E-02 4.16667E-03 0.00000E+00
 -1       125 3.33333E-02 5.20833E-03 0.00000E+00
 -1       191 6.66667E-02 1.04167E-03 0.00000E+00
 -1       192 6.66667E-02 2.08333E-03 0.00000E+00
 -1       193 6.66667E-02 3.12500E-03 0.00000E+00
 -1       194 6.66667E-02 4.16667E-03 0.00000E+00
 -1       195 6.66667E-02 5.20833E-03 0.00000E+00
 -1       251 1.04167E-03 6.25000E-03 0.00000E+00
 -1       252 2.08333E-03 6.25000E-03 0.00000E+00
 -1       253 3.12500E-03 6.25000E-03 0.00000E+00
 -1       254 4.16667E-03 6.25000E-03 0.00000E+00
 -1       255 5.20833E-03 6.25000E-03 0.00000E+00
 -1       256 6.25000E-03 6.25000E-03 0.00000E+00
 -1       257 7.29167E-03 6.25000E-03 0.00000E+00
 -1       258 8.33333E-03 6.25000E-03 0.00000E+00
 -1       259 9.37500E-03 6.25000E-03 0.00000E+00
 -1       260 1.04167E-02 6.25000E-03 0.00000E+00
 -1       261 1.14583E-02 6.25000E-03 0.00000E+00
 -1       262 1.25000E-02 6.25000E-03 0.00000E+00
 -1       263 1.35417E-02 6.25000E-03 0.00000E+00
 -1       264 1.45833E-02 6.25000E-03 0.00000E+00
 -1       265 1.56250E-02 6.25000E-03 0.00000E+00
 -1       266 0.00000E+00 7.29167E-03 0.00000E+00
 -1       267 0.00000E+00 8.33333E-03 0.00000E+00
 -1       268 0.00000E+00 9.37500E-03 0.00000E+00
 -1       269 0.00000E+00 1.04167E-02 0.00000E+00
 -1       270 0.00000E+00 1.14583E-02 0.00000E+00
 -1       271 1.04167E-03 6.64063E-03 0.00000E+00
 -1       272 2.08333E-03 7.03125E-03 0.00000E+00
 -1       273 3.12500E-03 7.42188E-03 0.00000E+00
 -1       274 4.16667E-03 7.81250E-03 0.00000E+00
 -1       275 5.20833E-03 8.20313E-03 0.00000E+00
 -1       276 6.25000E-03 8.59375E-03 0.00000E+00
 -1       277 7.29167E-03 8.98438E-03 0.00000E+00
 -1       278 8.33333E-03 9.37500E-03 0.00000E+00
 -1       279 9.37500E-03 9.76562E-03 0.00000E+00
 -1       280 1.04167E-02 1.01562E-02 0.00000E+00
 -1       281 1.14583E-02 1.05469E-02 0.00000E+00
 -1       282 1.25000E-02 1.09375E-02 0.00000E+00
 -1       283 1.35417E-02 1.13281E-02 0.00000E+00
 -1       284 1.45833E-02 1.17188E-02 0.00000E+00
 -1       285 1.56250E-02 1.21094E-02 0.00000E+00
 -1       301 1.66667E-02 7.29167E-03 0.00000E+00
 -1       302 1.66667E-02 8.33333E-03 0.00000E+00
 -1       303 1.66667E-02 9.37500E-03 0.00000E+00
 -1       304 1.66667E-02 1.04167E-02 0.00000E+00
 -1       305 1.66667E-02 1.14583E-02 0.00000E+00
 -1       306 1.77083E-02 6.64063E-03 0.00000E+00
 -1       307 1.87500E-02 7.03125E-03 0.00000E+00
 -1       308 1.97917E-02 7.42188E-03 0.00000E+00
 -1       309 2.08333E-02 7.81250E-03 0.00000E+00
 -1       310 2.18750E-02 8.20313E-03 0.00000E+00
 -1       311 2.29167E-02 8.59375E-03 0.00000E+00
 -1       312 2.39583E-02 8.98438E-03 0.00000E+00
 -1       313 2.50000E-02 9.37500E-03 0.00000E+00
 -1       314 2.60417E-02 9.76562E-03 0.00000E+00
 -1       315 2.70833E-02 1.01562E-02 0.00000E+00
 -1       316 2.81250E-02 1.05469E-02 0.00000E+00
 -1       317 2.91667E-02 1.09375E-02 0.00000E+00
 -1       318 3.02083E-02 1.13281E-02 0.00000E+00
 -1       319 3.12500E-02 1.17188E-02 0.00000E+00
 -1       320 3.22917E-02 1.21094E-02 0.00000E+00
 -1       336 3.33333E-02 7.29167E-03 0.00000E+00
 -1       337 3.33333E-02 8.33333E-03 0.00000E+00
 -1       338 3.33333E-02 9.37500E-03 0.00000E+00
 -1       339 3.33333E-02 1.04167E-02 0.00000E+00
 -1       340 3.33333E-02 1.14583E-02 0.00000E+00
 -1       406 6.66667E-02 7.29167E-03 0.00000E+00
 -1       407 6.66667E-02 8.33333E-03 0.00000E+00
 -1       408 6.66667E-02 9.37500E-03 0.00000E+00
 -1       409 6.66667E-02 1.04167E-02 0.00000E+00
 -1       410 6.66667E-02 1.14583E-02 0.00000E+00
 -1       521 1.77083E-02 1.28906E-02 0.00000E+00
 -1       522 1.87500E-02 1.32813E-02 0.00000E+00
 -1       523 1.97917E-02 1.36719E-02 0.00000E+00
 -1       524 2.08333E-02 1.40625E-02 0.00000E+00
 -1       525 2.18750E-02 1.44531E-02 0.00000E+00
 -1       526 2.29167E-02 1.48437E-02 0.00000E+00
 -1       527 2.39583E-02 1.52344E-02 0.00000E+00
 -1       528 2.50000E-02 1.56250E-02 0.00000E+00
 -1       529 2.60417E-02 1.60156E-02 0.00000E+00
 -1       530 2.70833E-02 1.64062E-02 0.00000E+00
 -1       531 2.81250E-02 1.67969E-02 0.00000E+00
 -1       532 2.91667E-02 1.71875E-02 0.00000E+00
 -1       533 3.02083E-02 1.75781E-02 0.00000E+00
 -1       534 3.12500E-02 1.79687E-02 0.00000E+00
 -1       535 3.22917E-02 1.83594E-02 0.00000E+00
 -1       536 3.43750E-02 1.25000E-02 0.00000E+00
 -1       537 3.54167E-02 1.25000E-02 0.00000E+00
 -1       538 3.64583E-02 1.25000E-02 0.00000E+00
 -1       539 3.75000E-02 1.25000E-02 0.00000E+00
 -1       540 3.85417E-02 1.25000E-02 0.00000E+00
 -1       541 3.95833E-02 1.25000E-02 0.00000E+00
 -1       542 4.06250E-02 1.25000E-02 0.00000E+00
 -1       543 4.16667E-02 1.25000E-02 0.00000E+00
 -1       544 4.27083E-02 1.25000E-02 0.00000E+00
 -1       545 4.37500E-02 1.25000E-02 0.00000E+00
 -1       546 4.47917E-02 1.25000E-02 0.00000E+00
 -1       547 4.58333E-02 1.25000E-02 0.00000E+00
 -1       548 4.68750E-02 1.25000E-02 0.00000E+00
 -1       549 4.79167E-02 1.25000E-02 0.00000E+00
 -1       550 4.89583E-02 1.25000E-02 0.00000E+00
 -1       551 3.33333E-02 1.35417E-02 0.00000E+00
 -1       552 3.33333E-02 1.45833E-02 0.00000E+00
 -1       553 3.33333E-02 1.56250E-02 0.00000E+00
 -1       554 3.33333E-02 1.66667E-02 0.00000E+00
 -1       555 3.33333E-02 1.77083E-02 0.00000E+00
 -1       556 3.43750E-02 1.28906E-02 0.00000E+00
 -1       557 3.54167E-02 1.32813E-02 0.00000E+00
 -1       558 3.64583E-02 1.36719E-02 0.00000E+00
 -1       559 3.75000E-02 1.40625E-02 0.00000E+00
 -1       560 3.85417E-02 1.44531E-02 0.00000E+00
 -1       561 3.95833E-02 1.48437E-02 0.00000E+00
 -1       562 4.06250E-02 1.52344E-02 0.00000E+00
 -1       563 4.16667E-02 1.56250E-02 0.00000E+00
 -1       564 4.27083E-02 1.60156E-02 0.00000E+00
 -1       565 4.37500E-02 1.64062E-02 0.00000E+00
 -1       566 4.47917E-02 1.67969E-02 0.00000E+00
 -1       567 4.58333E-02 1.71875E-02 0.00000E+00
 -1       568 4.68750E-02 1.75781E-02 0.00000E+00
 -1       569 4.79167E-02 1.79687E-02 0.00000E+00
 -1       570 4.89583E-02 1.83594E-02 0.00000E+00
 -1       571 5.10417E-02 1.25000E-02 0.00000E+00
 -1       572 5.20833E-02 1.25000E-02 0.00000E+00
 -1       573 5.31250E-02 1.25000E-02 0.00000E+00
 -1       574 5.41667E-02 1.25000E-02 0.00000E+00
 -1       575 5.52083E-02 1.25000E-02 0.00000E+00
 -1       576 5.62500E-02 1.25000E-02 0.00000E+00
 -1       577 5.72917E-02 1.25000E-02 0.00000E+00
 -1       578 5.83333E-02 1.25000E-02 0.00000E+00
 -1       579 5.93750E-02 1.25000E-02 0.00000E+00
 -1       580 6.04167E-02 1.25000E-02 0.00000E+00
 -1       581 6.14583E-02 1.25000E-02 0.00000E+00
 -1       582 6.25000E-02 1.25000E-02 0.00000E+00
 -1       583 6.35417E-02 1.25000E-02 0.00000E+00
 -1       584 6.45833E-02 1.25000E-02 0.00000E+00
 -1       585 6.56250E-02 1.25000E-02 0.00000E+00
 -1       586 5.00000E-02 1.35417E-02 0.00000E+00
 -1       587 5.00000E-02 1.45833E-02 0.00000E+00
 -1       588 5.00000E-02 1.56250E-02 0.00000E+00
 -1       589 5.00000E-02 1.66667E-02 0.00000E+00
 -1       590 5.00000E-02 1.77083E-02 0.00000E+00
 -1       591 5.10417E-02 1.28906E-02 0.00000E+00
 -1       592 5.20833E-02 1.32813E-02 0.00000E+00
 -1       593 5.31250E-02 1.36719E-02 0.00000E+00
 -1       594 5.41667E-02 1.40625E-02 0.00000E+00
 -1       595 5.52083E-02 1.44531E-02 0.00000E+00
 -1       596 5.62500E-02 1.48437E-02 0.00000E+00
 -1       597 5.72917E-02 1.52344E-02 0.00000E+00
 -1       598 5.83333E-02 1.56250E-02 0.00000E+00
 -1       599 5.93750E-02 1.60156E-02 0.00000E+00
 -1       600 6.04167E-02 1.64062E-02 0.00000E+00
 -1       601 6.14583E-02 1.67969E-02 0.00000E+00
 -1       602 6.25000E-02 1.71875E-02 0.00000E+00
 -1       603 6.35417E-02 1.75781E-02 0.00000E+00
 -1       604 6.45833E-02 1.79687E-02 0.00000E+00
 -1       605 6.56250E-02 1.83594E-02 0.00000E+00
 -1       606 6.77083E-02 1.25000E-02 0.00000E+00
 -1       607 6.87500E-02 1.25000E-02 0.00000E+00
 -1       608 6.97917E-02 1.25000E-02 0.00000E+00
 -1       609 7.08333E-02 1.25000E-02 0.00000E+00
 -1       610 7.18750E-02 1.25000E-02 0.00000E+00
 -1       611 7.29167E-02 1.25000E-02 0.00000E+00
 -1       612 7.39583E-02 1.25000E-02 0.00000E+00
 -1       613 7.50000E-02 1.25000E-02 0.00000E+00
 -1       614 7.60417E-02 1.25000E-02 0.00000E+00
 -1       615 7.70833E-02 1.25000E-02 0.00000E+00
 -1       616 7.81250E-02 1.25000E-02 0.00000E+00
 -1       617 7.91667E-02 1.25000E-02 0.00000E+00
 -1       618 8.02083E-02 1.25000E-02 0.00000E+00
 -1       619 8.12500E-02 1.25000E-02 0.00000E+00
 -1       620 8.22917E-02 1.25000E-02 0.00000E+00
 -1       621 6.66667E-02 1.35417E-02 0.00000E+00
 -1       622 6.66667E-02 1.45833E-02 0.00000E+00
 -1       623 6.66667E-02 1.56250E-02 0.00000E+00
 -1       624 6.66667E-02 1.66667E-02 0.00000E+00
 -1       625 6.66667E-02 1.77083E-02 0.00000E+00
 -1       626 6.77083E-02 1.28906E-02 0.00000E+00
 -1       627 6.87500E-02 1.32813E-02 0.00000E+00
 -1       628 6.97917E-02 1.36719E-02 0.00000E+00
 -1       629 7.08333E-02 1.40625E-02 0.00000E+00
 -1       630 7.18750E-02 1.44531E-02 0.00000E+00
 -1       631 7.29167E-02 1.48437E-02 0.00000E+00
 -1       632 7.39583E-02 1.52344E-02 0.00000E+00
 -1       633 7.50000E-02 1.56250E-02 0.00000E+00
 -1       634 7.60417E-02 1.60156E-02 0.00000E+00
 -1       635 7.70833E-02 1.64062E-02 0.00000E+00
 -1       636 7.81250E-02 1.67969E-02 0.00000E+00
 -1       637 7.91667E-02 1.71875E-02 0.00000E+00
 -1       638 8.02083E-02 1.75781E-02 0.00000E+00
 -1       639 8.12500E-02 1.79687E-02 0.00000E+00
 -1       640 8.22917E-02 1.83594E-02 0.00000E+00
 -1       656 8.33333E-02 1.35417E-02 0.00000E+00
 -1       657 8.33333E-02 1.45833E-02 0.00000E+00
 -1       658 8.33333E-02 1.56250E-02 0.00000E+00
 -1       659 8.33333E-02 1.66667E-02 0.00000E+00
 -1       660 8.33333E-02 1.77083E-02 0.00000E+00
 -1       661 8.43750E-02 1.28906E-02 0.00000E+00
 -1       662 8.54167E-02 1.32813E-02 0.00000E+00
 -1       663 8.64583E-02 1.36719E-02 0.00000E+00
 -1       664 8.75000E-02 1.40625E-02 0.00000E+00
 -1       665 8.85417E-02 1.44531E-02 0.00000E+00
 -1       666 8.95833E-02 1.48437E-02 0.00000E+00
 -1       667 9.06250E-02 1.52344E-02 0.00000E+00
 -1       668 9.16667E-02 1.56250E-02 0.00000E+00
 -1       669 9.27083E-02 1.60156E-02 0.00000E+00
 -1       670 9.37500E-02 1.64062E-02 0.00000E+00
 -1       671 9.47917E-02 1.67969E-02 0.00000E+00
 -1       672 9.58333E-02 1.71875E-02 0.00000E+00
 -1       673 9.68750E-02 1.75781E-02 0.00000E+00
 -1       674 9.79167E-02 1.79687E-02 0.00000E+00
 -1       675 9.89583E-02 1.83594E-02 0.00000E+00
 -1       676 1.00000E-01 1.35417E-02 0.00000E+00
 -1       677 1.00000E-01 1.45833E-02 0.00000E+00
 -1       678 1.00000E-01 1.56250E-02 0.00000E+00
 -1       679 1.00000E-01 1.66667E-02 0.00000E+00
 -1       680 1.00000E-01 1.77083E-02 0.00000E+00
 -1       771 3.43750E-02 1.91406E-02 0.00000E+00
 -1       772 3.54167E-02 1.95312E-02 0.00000E+00
 -1       773 3.64583E-02 1.99219E-02 0.00000E+00
 -1       774 3.75000E-02 2.03125E-02 0.00000E+00
 -1       775 3.85417E-02 2.07031E-02 0.00000E+00
 -1       776 3.95833E-02 2.10938E-02 0.00000E+00
 -1       777 4.06250E-02 2.14844E-02 0.00000E+00
 -1       778 4.16667E-02 2.18750E-02 0.00000E+00
 -1       779 4.27083E-02 2.22656E-02 0.00000E+00
 -1       780 4.37500E-02 2.26563E-02 0.00000E+00
 -1       781 4.47917E-02 2.30469E-02 0.00000E+00
 -1       782 4.58333E-02 2.34375E-02 0.00000E+00
 -1       783 4.68750E-02 2.38281E-02 0.00000E+00
 -1       784 4.79167E-02 2.42187E-02 0.00000E+00
 -1       785 4.89583E-02 2.46094E-02 0.00000E+00
 -1       786 5.10417E-02 1.87500E-02 0.00000E+00
 -1       787 5.20833E-02 1.87500E-02 0.00000E+00
 -1       788 5.31250E-02 1.87500E-02 0.00000E+00
 -1       789 5.41667E-02 1.87500E-02 0.00000E+00
 -1       790 5.52083E-02 1.87500E-02 0.00000E+00
 -1       791 5.62500E-02 1.87500E-02 0.00000E+00
 -1       792 5.72917E-02 1.87500E-02 0.00000E+00
 -1       793 5.83333E-02 1.87500E-02 0.00000E+00
 -1       794 5.93750E-02 1.87500E-02 0.00000E+00
 -1       795 6.04167E-02 1.87500E-02 0.00000E+00
 -1       796 6.14583E-02 1.87500E-02 0.00000E+00
 -1       797 6.25000E-02 1.87500E-02 0.00000E+00
 -1       798 6.35417E-02 1.87500E-02 0.00000E+00
 -1       799 6.45833E-02 1.87500E-02 0.00000E+00
 -1       800 6.56250E-02 1.87500E-02 0.00000E+00
 -1       801 5.00000E-02 1.97917E-02 0.00000E+00
 -1       802 5.00000E-02 2.08333E-02 0.00000E+00
 -1       803 5.00000E-02 2.18750E-02 0.00000E+00
 -1       804 5.00000E-02 2.29167E-02 0.00000E+00
 -1       805 5.00000E-02 2.39583E-02 0.00000E+00
 -1       806 5.10417E-02 1.91406E-02 0.00000E+00
 -1       807 5.20833E-02 1.95312E-02 0.00000E+00
 -1       808 5.31250E-02 1.99219E-02 0.00000E+00
 -1       809 5.41667E-02 2.03125E-02 0.00000E+00
 -1       810 5.52083E-02 2.07031E-02 0.00000E+00
 -1       811 5.62500E-02 2.10938E-02 0.00000E+00
 -1       812 5.72917E-02 2.14844E-02 0.00000E+00
 -1       813 5.83333E-02 2.18750E-02 0.00000E+00
 -1       814 5.93750E-02 2.22656E-02 0.00000E+00
 -1       815 6.04167E-02 2.26563E-02 0.00000E+00
 -1       816 6.14583E-02 2.30469E-02 0.00000E+00
 -1       817 6.25000E-02 2.34375E-02 0.00000E+00
 -1       818 6.35417E-02 2.38281E-02 0.00000E+00
 -1       819 6.45833E-02 2.42187E-02 0.00000E+00
 -1       820 6.56250E-02 2.46094E-02 0.00000E+00
 -1       821 6.77083E-02 1.87500E-02 0.00000E+00
 -1       822 6.87500E-02 1.87500E-02 0.00000E+00
 -1       823 6.97917E-02 1.87500E-02 0.00000E+00
 -1       824 7.08333E-02 1.87500E-02 0.00000E+00
 -1       825 7.18750E-02 1.87500E-02 0.00000E+00
 -1       826 7.29167E-02 1.87500E-02 0.00000E+00
 -1       827 7.39583E-02 1.87500E-02 0.00000E+00
 -1       828 7.50000E-02 1.87500E-02 0.00000E+00
 -1       829 7.60417E-02 1.87500E-02 0.00000E+00
 -1       830 7.70833E-02 1.87500E-02 0.00000E+00
 -1       831 7.81250E-02 1.87500E-02 0.00000E+00
 -1       832 7.91667E-02 1.87500E-02 0.00000E+00
 -1       833 8.02083E-02 1.87500E-02 0.00000E+00
 -1       834 8.12500E-02 1.87500E-02 0.00000E+00
 -1       835 8.22917E-02 1.87500E-02 0.00000E+00
 -1       836 6.66667E-02 1.97917E-02 0.00000E+00
 -1       837 6.66667E-02 2.08333E-02 0.00000E+00
 -1       838 6.66667E-02 2.18750E-02 0.00000E+00
 -1       839 6.66667E-02 2.29167E-02 0.00000E+00
 -1       840 6.66667E-02 2.39583E-02 0.00000E+00
 -1       856 8.43750E-02 1.87500E-02 0.00000E+00
 -1       857 8.54167E-02 1.87500E-02 0.00000E+00
 -1       858 8.64583E-02 1.87500E-02 0.00000E+00
 -1       859 8.75000E-02 1.87500E-02 0.00000E+00
 -1       860 8.85417E-02 1.87500E-02 0.00000E+00
 -1       861 8.95833E-02 1.87500E-02 0.00000E+00
 -1       862 9.06250E-02 1.87500E-02 0.00000E+00
 -1       863 9.16667E-02 1.87500E-02 0.00000E+00
 -1       864 9.27083E-02 1.87500E-02 0.00000E+00
 -1       865 9.37500E-02 1.87500E-02 0.00000E+00
 -1       866 9.47917E-02 1.87500E-02 0.00000E+00
 -1       867 9.58333E-02 1.87500E-02 0.00000E+00
 -1       868 9.68750E-02 1.87500E-02 0.00000E+00
 -1       869 9.79167E-02 1.87500E-02 0.00000E+00
 -1       870 9.89583E-02 1.87500E-02 0.00000E+00
 -1       871 8.33333E-02 1.97917E-02 0.00000E+00
 -1       872 8.33333E-02 2.08333E-02 0.00000E+00
 -1       873 8.33333E-02 2.18750E-02 0.00000E+00
 -1       874 8.33333E-02 2.29167E-02 0.00000E+00
 -1       875 8.33333E-02 2.39583E-02 0.00000E+00
 -1       876 8.43750E-02 1.91406E-02 0.00000E+00
 -1       877 8.54167E-02 1.95312E-02 0.00000E+00
 -1       878 8.64583E-02 1.99219E-02 0.00000E+00
 -1       879 8.75000E-02 2.03125E-02 0.00000E+00
 -1       880 8.85417E-02 2.07031E-02 0.00000E+00
 -1       881 8.95833E-02 2.10938E-02 0.00000E+00
 -1       882 9.06250E-02 2.14844E-02 0.00000E+00
 -1       883 9.16667E-02 2.18750E-02 0.00000E+00
 -1       884 9.27083E-02 2.22656E-02 0.00000E+00
 -1       885 9.37500E-02 2.26563E-02 0.00000E+00
 -1       886 9.47917E-02 2.30469E-02 0.00000E+00
 -1       887 9.58333E-02 2.34375E-02 0.00000E+00
 -1       888 9.68750E-02 2.38281E-02 0.00000E+00
 -1       889 9.79167E-02 2.42187E-02 0.00000E+00
 -1       890 9.89583E-02 2.46094E-02 0.00000E+00
 -1       891 1.00000E-01 1.97917E-02 0.00000E+00
 -1       892 1.00000E-01 2.08333E-02 0.00000E+00
 -1       893 1.00000E-01 2.18750E-02 0.00000E+00
 -1       894 1.00000E-01 2.29167E-02 0.00000E+00
 -1       895 1.00000E-01 2.39583E-02 0.00000E+00
 -1       956 6.77083E-02 2.50000E-02 0.00000E+00
 -1       957 6.87500E-02 2.50000E-02 0.00000E+00
 -1       958 6.97917E-02 2.50000E-02 0.00000E+00
 -1       959 7.08333E-02 2.50000E-02 0.00000E+00
 -1       960 7.18750E-02 2.50000E-02 0.00000E+00
 -1       961 7.29167E-02 2.50000E-02 0.00000E+00
 -1       962 7.39583E-02 2.50000E-02 0.00000E+00
 -1       963 7.50000E-02 2.50000E-02 0.00000E+00
 -1       964 7.60417E-02 2.50000E-02 0.00000E+00
 -1       965 7.70833E-02 2.50000E-02 0.00000E+00
 -1       966 7.81250E-02 2.50000E-02 0.00000E+00
 -1       967 7.91667E-02 2.50000E-02 0.00000E+00
 -1       968 8.02083E-02 2.50000E-02 0.00000E+00
 -1       969 8.12500E-02 2.50000E-02 0.00000E+00
 -1       970 8.22917E-02 2.50000E-02 0.00000E+00
 -1       971 8.43750E-02 2.50000E-02 0.00000E+00
 -1       972 8.54167E-02 2.50000E-02 0.00000E+00
 -1       973 8.64583E-02 2.50000E-02 0.00000E+00
 -1       974 8.75000E-02 2.50000E-02 0.00000E+00
 -1       975 8.85417E-02 2.50000E-02 0.00000E+00
 -1       976 8.95833E-02 2.50000E-02 0.00000E+00
 -1       977 9.06250E-02 2.50000E-02 0.00000E+00
 -1       978 9.16667E-02 2.50000E-02 0.00000E+00
 -1       979 9.27083E-02 2.50000E-02 0.00000E+00
 -1       980 9.37500E-02 2.50000E-02 0.00000E+00
 -1       981 9.47917E-02 2.50000E-02 0.00000E+00
 -1       982 9.58333E-02 2.50000E-02 0.00000E+00
 -1       983 9.68750E-02 2.50000E-02 0.00000E+00
 -1       984 9.79167E-02 2.50000E-02 0.00000E+00
 -1       985 9.89583E-02 2.50000E-02 0.00000E+00
 -3
    3C                           211                                     1
 -1         1   12    0    1
 -2         1        52        51
 -1         2   12    0    1
 -2        52        54        53
 -1         3   12    0    1
 -2        54         8        55
 -1         4   12    0    1
 -2         1        57        56
 -1         5   12    0    1
 -2        57        59        58
 -1         6   12    0    1
 -2        59        61        60
 -1         7   12    0    1
 -2        61        63        62
 -1         8   12    0    1
 -2        63        65        64
 -1         9   12    0    1
 -2        65        67        66
 -1        10   12    0    1
 -2        67        69        68
 -1        11   12    0    1
 -2        69         9        70
 -1        12   12    0    1
 -2         2        87        86
 -1        13   12    0    1
 -2        87        89        88
 -1        14   12    0    1
 -2        89         9        90
 -1        15   12    0    1
 -2         3       122       121
 -1        16   12    0    1
 -2       122       124       123
 -1        17   12    0    1
 -2       124        10       125
 -1        18   12    0    1
 -2         5       192       191
 -1        19   12    0    1
 -2       192       194       193
 -1        20   12    0    1
 -2       194        12       195
 -1        21   12    0    1
 -2         8       252       251
 -1        22   12    0    1
 -2       252       254       253
 -1        23   12    0    1
 -2       254       256       255
 -1        24   12    0    1
 -2       256       258       257
 -1        25   12    0    1
 -2       258       260       259
 -1        26   12    0    1
 -2       260       262       261
 -1        27   12    0    1
 -2       262       264       263
 -1        28   12    0    1
 -2       264         9       265
 -1        29   12    0    1
 -2         8       267       266
 -1        30   12    0    1
 -2       267       269       268
 -1        31   12    0    1
 -2       269        15       270
 -1        32   12    0    1
 -2         8       272       271
 -1        33   12    0    1
 -2       272       274       273
 -1        34   12    0    1
 -2       274       276       275
 -1        35   12    0    1
 -2       276       278       277
 -1        36   12    0    1
 -2       278       280       279
 -1        37   12    0    1
 -2       280       282       281
 -1        38   12    0    1
 -2       282       284       283
 -1        39   12    0    1
 -2       284        16       285
 -1        40   12    0    1
 -2         9       302       301
 -1        41   12    0    1
 -2       302       304       303
 -1        42   12    0    1
 -2       304        16       305
 -1        43   12    0    1
 -2         9       307       306
 -1        44   12    0    1
 -2       307       309       308
 -1        45   12    0    1
 -2       309       311       310
 -1        46   12    0    1
 -2       311       313       312
 -1        47   12    0    1
 -2       313       315       314
 -1        48   12    0    1
 -2       315       317       316
 -1        49   12    0    1
 -2       317       319       318
 -1        50   12    0    1
 -2       319        17       320
 -1        51   12    0    1
 -2        10       337       336
 -1        52   12    0    1
 -2       337       339       338
 -1        53   12    0    1
 -2       339        17       340
 -1        54   12    0    1
 -2        12       407       406
 -1        55   12    0    1
 -2       407       409       408
 -1        56   12    0    1
 -2       409        19       410
 -1        57   12    0    1
 -2        16       522       521
 -1        58   12    0    1
 -2       522       524       523
 -1        59   12    0    1
 -2       524       526       525
 -1        60   12    0    1
 -2       526       528       527
 -1        61   12    0    1
 -2       528       530       529
 -1        62   12    0    1
 -2       530       532       531
 -1        63   12    0    1
 -2       532       534       533
 -1        64   12    0    1
 -2       534        24       535
 -1        65   12    0    1
 -2        17       537       536
 -1        66   12    0    1
 -2       537       539       538
 -1        67   12    0    1
 -2       539       541       540
 -1        68   12    0    1
 -2       541       543       542
 -1        69   12    0    1
 -2       543       545       544
 -1        70   12    0    1
 -2       545       547       546
 -1        71   12    0    1
 -2       547       549       548
 -1        72   12    0    1
 -2       549        18       550
 -1        73   12    0    1
 -2        17       552       551
 -1        74   12    0    1
 -2       552       554       553
 -1        75   12    0    1
 -2       554        24       555
 -1        76   12    0    1
 -2        17       557       556
 -1        77   12    0    1
 -2       557       559       558
 -1        78   12    0    1
 -2       559       561       560
 -1        79   12    0    1
 -2       561       563       562
 -1        80   12    0    1
 -2       563       565       564
 -1        81   12    0    1
 -2       565       567       566
 -1        82   12    0    1
 -2       567       569       568
 -1        83   12    0    1
 -2       569        25       570
 -1        84   12    0    1
 -2        18       572       571
 -1        85   12    0    1
 -2       572       574       573
 -1        86   12    0    1
 -2       574       576       575
 -1        87   12    0    1
 -2       576       578       577
 -1        88   12    0    1
 -2       578       580       579
 -1        89   12    0    1
 -2       580       582       581
 -1        90   12    0    1
 -2       582       584       583
 -1        91   12    0    1
 -2       584        19       585
 -1        92   12    0    1
 -2        18       587       586
 -1        93   12    0    1
 -2       587       589       588
 -1        94   12    0    1
 -2       589        25       590
 -1        95   12    0    1
 -2        18       592       591
 -1        96   12    0    1
 -2       592       594       593
 -1        97   12    0    1
 -2       594       596       595
 -1        98   12    0    1
 -2       596       598       597
 -1        99   12    0    1
 -2       598       600       599
 -1       100   12    0    1
 -2       600       602       601
 -1       101   12    0    1
 -2       602       604       603
 -1       102   12    0    1
 -2       604        26       605
 -1       103   12    0    1
 -2        19       607       606
 -1       104   12    0    1
 -2       607       609       608
 -1       105   12    0    1
 -2       609       611       610
 -1       106   12    0    1
 -2       611       613       612
 -1       107   12    0    1
 -2       613       615       614
 -1       108   12    0    1
 -2       615       617       616
 -1       109   12    0    1
 -2       617       619       618
 -1       110   12    0    1
 -2       619        20       620
 -1       111   12    0    1
 -2        19       622       621
 -1       112   12    0    1
 -2       622       624       623
 -1       113   12    0    1
 -2       624        26       625
 -1       114   12    0    1
 -2        19       627       626
 -1       115   12    0    1
 -2       627       629       628
 -1       116   12    0    1
 -2       629       631       630
 -1       117   12    0    1
 -2       631       633       632
 -1       118   12    0    1
 -2       633       635       634
 -1       119   12    0    1
 -2       635       637       636
 -1       120   12    0    1
 -2       637       639       638
 -1       121   12    0    1
 -2       639        27       640
 -1       122   12    0    1
 -2        20       657       656
 -1       123   12    0    1
 -2       657       659       658
 -1       124   12    0    1
 -2       659        27       660
 -1       125   12    0    1
 -2        20       662       661
 -1       126   12    0    1
 -2       662       664       663
 -1       127   12    0    1
 -2       664       666       665
 -1       128   12    0    1
 -2       666       668       667
 -1       129   12    0    1
 -2       668       670       669
 -1       130   12    0    1
 -2       670       672       671
 -1       131   12    0    1
 -2       672       674       673
 -1       132   12    0    1
 -2       674        28       675
 -1       133   12    0    1
 -2        21       677       676
 -1       134   12    0    1
 -2       677       679       678
 -1       135   12    0    1
 -2       679        28       680
 -1       136   12    0    1
 -2        24       772       771
 -1       137   12    0    1
 -2       772       774       773
 -1       138   12    0    1
 -2       774       776       775
 -1       139   12    0    1
 -2       776       778       777
 -1       140   12    0    1
 -2       778       780       779
 -1       141   12    0    1
 -2       780       782       781
 -1       142   12    0    1
 -2       782       784       783
 -1       143   12    0    1
 -2       784        32       785
 -1       144   12    0    1
 -2        25       787       786
 -1       145   12    0    1
 -2       787       789       788
 -1       146   12    0    1
 -2       789       791       790
 -1       147   12    0    1
 -2       791       793       792
 -1       148   12    0    1
 -2       793       795       794
 -1       149   12    0    1
 -2       795       797       796
 -1       150   12    0    1
 -2       797       799       798
 -1       151   12    0    1
 -2       799        26       800
 -1       152   12    0    1
 -2        25       802       801
 -1       153   12    0    1
 -2       802       804       803
 -1       154   12    0    1
 -2       804        32       805
 -1       155   12    0    1
 -2        25       807       806
 -1       156   12    0    1
 -2       807       809       808
 -1       157   12    0    1
 -2       809       811       810
 -1       158   12    0    1
 -2       811       813       812
 -1       159   12    0    1
 -2       813       815       814
 -1       160   12    0    1
 -2       815       817       816
 -1       161   12    0    1
 -2       817       819       818
 -1       162   12    0    1
 -2       819        33       820
 -1       163   12    0    1
 -2        26       822       821
 -1       164   12    0    1
 -2       822       824       823
 -1       165   12    0    1
 -2       824       826       825
 -1       166   12    0    1
 -2       826       828       827
 -1       167   12    0    1
 -2       828       830       829
 -1       168   12    0    1
 -2       830       832       831
 -1       169   12    0    1
 -2       832       834       833
 -1       170   12    0    1
 -2       834        27       835
 -1       171   12    0    1
 -2        26       837       836
 -1       172   12    0    1
 -2       837       839       838
 -1       173   12    0    1
 -2       839        33       840
 -1       174   12    0    1
 -2        27       857       856
 -1       175   12    0    1
 -2       857       859       858
 -1       176   12    0    1
 -2       859       861       860
 -1       177   12    0    1
 -2       861       863       862
 -1       178   12    0    1
 -2       863       865       864
 -1       179   12    0    1
 -2       865       867       866
 -1       180   12    0    1
 -2       867       869       868
 -1       181   12    0    1
 -2       869        28       870
 -1       182   12    0    1
 -2        27       872       871
 -1       183   12    0    1
 -2       872       874       873
 -1       184   12    0    1
 -2       874        34       875
 -1       185   12    0    1
 -2        27       877       876
 -1       186   12    0    1
 -2       877       879       878
 -1       187   12    0    1
 -2       879       881       880
 -1       188   12    0    1
 -2       881       883       882
 -1       189   12    0    1
 -2       883       885       884
 -1       190   12    0    1
 -2       885       887       886
 -1       191   12    0    1
 -2       887       889       888
 -1       192   12    0    1
 -2       889        35       890
 -1       193   12    0    1
 -2        28       892       891
 -1       194   12    0    1
 -2       892       894       893
 -1       195   12    0    1
 -2       894        35       895
 -1       196   12    0    1
 -2        33       957       956
 -1       197   12    0    1
 -2       957       959       958
 -1       198   12    0    1
 -2       959       961       960
 -1       199   12    0    1
 -2       961       963       962
 -1       200   12    0    1
 -2       963       965       964
 -1       201   12    0    1
 -2       965       967       966
 -1       202   12    0    1
 -2       967       969       968
 -1       203   12    0    1
 -2       969        34       970
 -1       204   12    0    1
 -2        34       972       971
 -1       205   12    0    1
 -2       972       974       973
 -1       206   12    0    1
 -2       974       976       975
 -1       207   12    0    1
 -2       976       978       977
 -1       208   12    0    1
 -2       978       980       979
 -1       209   12    0    1
 -2       980       982       981
 -1       210   12    0    1
 -2       982       984       983
 -1       211   12    0    1
 -2       984        35       985
 -3
    1PSTEP                         1           1           1          
  100CL  101 2.50000E-01         409                     0    1           1
 -4  DISP        4    1
 -5  D1          1    2    1    0
 -5  D2          1    2    2    0
 -5  D3          1    2    3    0
 -5  ALL         1    2    0    0    1ALL
 -1         1 6.52412E-05 0.00000E+00 0.00000E+00
 -1         2 6.03849E-05 2.01161E-29-1.65436E-24
 -1         3 5.55294E-05-2.66831E-27-3.30872E-24
 -1         5 4.00664E-05 4.98704E-26 0.00000E+00
 -1         8 5.20467E-05-4.68778E-07 0.00000E+00
 -1         9 5.29558E-05 2.88063E-07 0.00000E+00
 -1        10 5.14840E-05-7.60425E-07 1.65436E-24
 -1        12 3.97802E-05 2.72229E-07-8.27181E-25
 -1        15 3.63498E-05-5.01599E-07 0.00000E+00
 -1        16 3.76601E-05 2.27185E-07 0.00000E+00
 -1        17 3.84104E-05-1.59319E-06 0.00000E+00
 -1        18 3.83949E-05 7.88890E-08 0.00000E+00
 -1        19 3.89217E-05 5.42985E-07 0.00000E+00
 -1        20 3.89937E-05 8.09787E-06 0.00000E+00
 -1        21 3.87228E-05 1.53163E-05 0.00000E+00
 -1        24 9.82037E-06-2.11868E-06 0.00000E+00
 -1        25 3.74811E-05 1.41152E-07 0.00000E+00
 -1        26 3.79762E-05 7.56589E-07 0.00000E+00
 -1        27 3.72238E-05 6.88704E-06 0.00000E+00
 -1        28 3.69805E-05 1.50835E-05 0.00000E+00
 -1        32 0.00000E+00 0.00000E+00 0.00000E+00
 -1        33 3.63811E-05 1.01478E-06 0.00000E+00
 -1        34 3.56531E-05 6.87636E-06 0.00000E+00
 -1        35 3.49616E-05 1.49607E-05 0.00000E+00
 -1        51 6.43826E-05-7.80887E-08 0.00000E+00
 -1        52 6.27917E-05-1.53837E-07 0.00000E+00
 -1        53 6.06126E-05-2.29838E-07 0.00000E+00
 -1        54 5.79952E-05-3.06809E-07 1.65436E-24
 -1        55 5.50897E-05-3.85282E-07-8.27181E-25
 -1        56 6.46416E-05-3.64537E-07 0.00000E+00
 -1        57 6.41027E-05-9.58021E-07 6.61744E-24
 -1        58 6.36260E-05-1.71382E-06 1.32349E-23
 -1        59 6.31838E-05-2.57325E-06-1.32349E-23
 -1        60 6.27558E-05-3.47109E-06 0.00000E+00
 -1        61 6.23174E-05-4.34309E-06 0.00000E+00
 -1        62 6.18454E-05-5.12551E-06 0.00000E+00
 -1        63 6.13164E-05-5.75625E-06 1.32349E-23
 -1        64 6.07091E-05-6.17800E-06-2.64698E-23
 -1        65 6.00033E-05-6.33672E-06-1.32349E-23
 -1        66 5.91817E-05-6.18682E-06 2.64698E-23
 -1        67 5.82296E-05-5.68737E-06 0.00000E+00
 -1        68 5.71351E-05-4.80900E-06-1.32349E-23
 -1        69 5.58924E-05-3.52686E-06 0.00000E+00
 -1        70 5.44929E-05-1.83188E-06 0.00000E+00
 -1        86 6.01865E-05 5.15903E-08 1.65436E-24
 -1        87 5.95909E-05 1.02738E-07 4.13590E-25
 -1        88 5.85868E-05 1.53528E-07-8.27181E-25
 -1        89 5.71621E-05 2.01998E-07 1.03398E-25
 -1        90 5.52933E-05 2.50381E-07 0.00000E+00
 -1       121 5.54167E-05-1.26402E-07-3.30872E-24
 -1       122 5.50789E-05-2.52856E-07-1.65436E-24
 -1       123 5.45161E-05-3.79413E-07 3.30872E-24
 -1       124 5.37288E-05-5.06143E-07 0.00000E+00
 -1       125 5.27178E-05-6.33062E-07 3.30872E-24
 -1       191 4.00584E-05 4.53745E-08 1.65436E-24
 -1       192 4.00346E-05 9.07483E-08-8.27181E-25
 -1       193 3.99948E-05 1.36122E-07 0.00000E+00
 -1       194 3.99392E-05 1.81494E-07-8.27181E-25
 -1       195 3.98676E-05 2.26863E-07 0.00000E+00
 -1       251 5.20924E-05 1.69327E-06 0.00000E+00
 -1       252 5.21494E-05 2.95692E-06 0.00000E+00
 -1       253 5.22064E-05 3.48521E-06 0.00000E+00
 -1       254 5.22654E-05 3.43921E-06-8.27181E-25
 -1       255 5.23244E-05 2.94686E-06 0.00000E+00
 -1       256 5.23835E-05 2.13492E-06 8.27181E-25
 -1       257 5.24425E-05 1.11162E-06 0.00000E+00
 -1       258 5.25014E-05-1.53416E-08-8.27181E-25
 -1       259 5.25604E-05-1.14433E-06 0.00000E+00
 -1       260 5.26194E-05-2.17369E-06 0.00000E+00
 -1       261 5.26785E-05-2.99597E-06-1.65436E-24
 -1       262 5.27374E-05-3.50322E-06 0.00000E+00
 -1       263 5.27964E-05-3.56916E-06-8.27181E-25
 -1       264 5.28533E-05-3.06640E-06-2.58494E-26
 -1       265 5.29103E-05-1.83471E-06 0.00000E+00
 -1       266 4.94305E-05-4.80796E-07 0.00000E+00
 -1       267 4.68144E-05-4.85468E-07-8.27181E-25
 -1       268 4.41982E-05-4.90605E-07-8.27181E-25
 -1       269 4.15821E-05-4.94364E-07 0.00000E+00
 -1       270 3.89660E-05-4.98091E-07 0.00000E+00
 -1       271 5.04613E-05 1.47496E-06 1.32349E-23
 -1       272 4.91189E-05 2.69831E-06 0.00000E+00
 -1       273 4.80128E-05 3.29642E-06-2.64698E-23
 -1       274 4.71034E-05 3.35944E-06 1.32349E-23
 -1       275 4.63573E-05 2.98612E-06 0.00000E+00
 -1       276 4.57358E-05 2.27803E-06 1.32349E-23
 -1       277 4.52002E-05 1.34055E-06 0.00000E+00
 -1       278 4.47100E-05 2.81161E-07-1.32349E-23
 -1       279 4.42247E-05-7.91393E-07 0.00000E+00
 -1       280 4.37037E-05-1.76820E-06 1.32349E-23
 -1       281 4.31066E-05-2.54144E-06 0.00000E+00
 -1       282 4.23940E-05-3.00517E-06 0.00000E+00
 -1       283 4.15271E-05-3.05684E-06-2.64698E-23
 -1       284 4.04711E-05-2.59701E-06 1.32349E-23
 -1       285 3.91873E-05-1.53353E-06 1.32349E-23
 -1       301 5.03653E-05 2.74686E-07-3.30872E-24
 -1       302 4.77755E-05 2.69231E-07 8.27181E-25
 -1       303 4.51982E-05 2.64014E-07 1.65436E-24
 -1       304 4.26453E-05 2.57942E-07 0.00000E+00
 -1       305 4.01287E-05 2.50650E-07-6.61744E-24
 -1       306 5.13208E-05 2.17812E-06-1.32349E-23
 -1       307 4.99434E-05 3.30379E-06 0.00000E+00
 -1       308 4.88384E-05 3.71050E-06-2.64698E-23
 -1       309 4.79790E-05 3.44883E-06-1.32349E-23
 -1       310 4.73295E-05 2.62652E-06-2.64698E-23
 -1       311 4.68440E-05 1.36339E-06 0.00000E+00
 -1       312 4.64651E-05-1.84926E-07 0.00000E+00
 -1       313 4.61318E-05-1.85601E-06 0.00000E+00
 -1       314 4.57800E-05-3.47732E-06-2.64698E-23
 -1       315 4.53458E-05-4.87755E-06 1.32349E-23
 -1       316 4.47716E-05-5.90354E-06 2.64698E-23
 -1       317 4.40044E-05-6.41113E-06 1.32349E-23
 -1       318 4.30046E-05-6.29807E-06-2.64698E-23
 -1       319 4.17441E-05-5.47540E-06-1.32349E-23
 -1       320 4.02036E-05-3.91517E-06 0.00000E+00
 -1       336 4.99987E-05-8.98103E-07 0.00000E+00
 -1       337 4.82333E-05-1.03641E-06 0.00000E+00
 -1       338 4.61893E-05-1.17518E-06-3.30872E-24
 -1       339 4.38692E-05-1.31434E-06 0.00000E+00
 -1       340 4.12752E-05-1.45417E-06 0.00000E+00
 -1       406 3.96768E-05 3.17588E-07 1.65436E-24
 -1       407 3.95575E-05 3.62930E-07 0.00000E+00
 -1       408 3.94223E-05 4.08243E-07 0.00000E+00
 -1       409 3.92713E-05 4.53470E-07-8.27181E-25
 -1       410 3.91043E-05 4.98523E-07-1.65436E-24
 -1       521 3.53911E-05 1.63502E-06 2.64698E-23
 -1       522 3.34098E-05 2.12823E-06 0.00000E+00
 -1       523 3.17517E-05 1.77043E-06-5.29396E-23
 -1       524 3.03739E-05 6.38304E-07-2.64698E-23
 -1       525 2.92208E-05-1.09508E-06 0.00000E+00
 -1       526 2.82175E-05-3.23411E-06 0.00000E+00
 -1       527 2.72745E-05-5.53528E-06 0.00000E+00
 -1       528 2.62985E-05-7.74865E-06 0.00000E+00
 -1       529 2.52000E-05-9.63424E-06 5.29396E-23
 -1       530 2.38949E-05-1.09663E-05 0.00000E+00
 -1       531 2.23221E-05-1.15833E-05 5.29396E-23
 -1       532 2.04334E-05-1.13544E-05 0.00000E+00
 -1       533 1.82144E-05-1.02472E-05-5.29396E-23
 -1       534 1.56747E-05-8.26379E-06 0.00000E+00
 -1       535 1.28418E-05-5.51450E-06-2.64698E-23
 -1       536 3.84021E-05 1.07453E-06 1.65436E-24
 -1       537 3.83993E-05 3.08195E-06 0.00000E+00
 -1       538 3.83973E-05 4.49715E-06 4.13590E-25
 -1       539 3.83966E-05 5.38828E-06 1.03398E-25
 -1       540 3.83963E-05 5.82362E-06-1.03398E-25
 -1       541 3.83961E-05 5.87146E-06 0.00000E+00
 -1       542 3.83960E-05 5.60016E-06 0.00000E+00
 -1       543 3.83958E-05 5.07807E-06 6.46235E-27
 -1       544 3.83955E-05 4.37356E-06-3.23117E-27
 -1       545 3.83952E-05 3.55502E-06 1.61559E-27
 -1       546 3.83948E-05 2.69083E-06 1.29247E-26
 -1       547 3.83944E-05 1.84940E-06 0.00000E+00
 -1       548 3.83942E-05 1.09910E-06 0.00000E+00
 -1       549 3.83941E-05 5.08324E-07 5.16988E-26
 -1       550 3.83941E-05 1.45463E-07-2.06795E-25
 -1       551 3.46165E-05-1.67420E-06-3.30872E-24
 -1       552 3.00781E-05-1.75691E-06-8.27181E-25
 -1       553 2.50603E-05-1.84195E-06-1.65436E-24
 -1       554 1.98324E-05-1.92931E-06 0.00000E+00
 -1       555 1.46634E-05-2.01783E-06 6.61744E-24
 -1       556 3.74182E-05 9.83281E-07 0.00000E+00
 -1       557 3.66604E-05 2.95088E-06 0.00000E+00
 -1       558 3.61114E-05 4.36588E-06 0.00000E+00
 -1       559 3.57480E-05 5.28901E-06 0.00000E+00
 -1       560 3.55469E-05 5.78077E-06-6.61744E-24
 -1       561 3.54850E-05 5.90204E-06 0.00000E+00
 -1       562 3.55393E-05 5.71367E-06 0.00000E+00
 -1       563 3.56868E-05 5.27661E-06 0.00000E+00
 -1       564 3.59047E-05 4.65180E-06 0.00000E+00
 -1       565 3.61700E-05 3.90020E-06-1.65436E-24
 -1       566 3.64600E-05 3.08279E-06 0.00000E+00
 -1       567 3.67517E-05 2.26058E-06 0.00000E+00
 -1       568 3.70225E-05 1.49452E-06 0.00000E+00
 -1       569 3.72494E-05 8.45534E-07 0.00000E+00
 -1       570 3.74097E-05 3.74550E-07 0.00000E+00
 -1       571 3.84269E-05 1.28761E-07-2.06795E-25
 -1       572 3.84595E-05 1.56927E-07-3.10193E-25
 -1       573 3.84924E-05 1.67251E-07 8.27181E-25
 -1       574 3.85254E-05 1.63801E-07 2.06795E-25
 -1       575 3.85584E-05 1.50662E-07 0.00000E+00
 -1       576 3.85915E-05 1.31947E-07 0.00000E+00
 -1       577 3.86245E-05 1.11771E-07 8.27181E-25
 -1       578 3.86575E-05 9.42531E-08 8.27181E-25
 -1       579 3.86906E-05 8.35127E-08 0.00000E+00
 -1       580 3.87236E-05 8.36686E-08 0.00000E+00
 -1       581 3.87567E-05 9.88394E-08 0.00000E+00
 -1       582 3.87897E-05 1.33139E-07 0.00000E+00
 -1       583 3.88227E-05 1.90676E-07-1.65436E-24
 -1       584 3.88558E-05 2.75520E-07 0.00000E+00
 -1       585 3.88888E-05 3.91713E-07 0.00000E+00
 -1       586 3.82312E-05 8.99186E-08 0.00000E+00
 -1       587 3.80536E-05 1.00668E-07 0.00000E+00
 -1       588 3.78759E-05 1.11296E-07 0.00000E+00
 -1       589 3.77120E-05 1.21755E-07 0.00000E+00
 -1       590 3.75759E-05 1.31928E-07 0.00000E+00
 -1       591 3.83610E-05 1.45462E-07-2.58494E-26
 -1       592 3.83325E-05 1.94055E-07 0.00000E+00
 -1       593 3.83093E-05 2.28091E-07 0.00000E+00
 -1       594 3.82904E-05 2.50653E-07 0.00000E+00
 -1       595 3.82745E-05 2.64864E-07 0.00000E+00
 -1       596 3.82606E-05 2.73826E-07 0.00000E+00
 -1       597 3.82474E-05 2.80636E-07-2.06795E-25
 -1       598 3.82339E-05 2.88391E-07 0.00000E+00
 -1       599 3.82189E-05 3.00189E-07 0.00000E+00
 -1       600 3.82013E-05 3.19124E-07-1.03398E-25
 -1       601 3.81797E-05 3.48294E-07 0.00000E+00
 -1       602 3.81533E-05 3.90798E-07-5.16988E-26
 -1       603 3.81207E-05 4.49735E-07-1.55096E-25
 -1       604 3.80809E-05 5.28230E-07 5.16988E-26
 -1       605 3.80327E-05 6.29368E-07 0.00000E+00
 -1       606 3.89279E-05 7.69344E-07 0.00000E+00
 -1       607 3.89328E-05 1.04291E-06 0.00000E+00
 -1       608 3.89375E-05 1.36092E-06 0.00000E+00
 -1       609 3.89420E-05 1.72023E-06 0.00000E+00
 -1       610 3.89464E-05 2.11772E-06 0.00000E+00
 -1       611 3.89508E-05 2.55021E-06 0.00000E+00
 -1       612 3.89552E-05 3.01449E-06 0.00000E+00
 -1       613 3.89595E-05 3.50739E-06 0.00000E+00
 -1       614 3.89639E-05 4.02571E-06 0.00000E+00
 -1       615 3.89682E-05 4.56626E-06 0.00000E+00
 -1       616 3.89725E-05 5.12587E-06 0.00000E+00
 -1       617 3.89768E-05 5.70132E-06 0.00000E+00
 -1       618 3.89811E-05 6.28944E-06 0.00000E+00
 -1       619 3.89854E-05 6.88703E-06 0.00000E+00
 -1       620 3.89896E-05 7.49090E-06 0.00000E+00
 -1       621 3.87415E-05 5.78611E-07 8.27181E-25
 -1       622 3.85740E-05 6.14410E-07 4.13590E-25
 -1       623 3.84164E-05 6.50204E-07-8.27181E-25
 -1       624 3.82660E-05 6.85941E-07 0.00000E+00
 -1       625 3.81202E-05 7.21615E-07 8.27181E-25
 -1       626 3.88750E-05 7.80553E-07 0.00000E+00
 -1       627 3.88139E-05 1.05723E-06 0.00000E+00
 -1       628 3.87395E-05 1.36938E-06 0.00000E+00
 -1       629 3.86533E-05 1.71315E-06 0.00000E+00
 -1       630 3.85567E-05 2.08466E-06 0.00000E+00
 -1       631 3.84511E-05 2.48002E-06 0.00000E+00
 -1       632 3.83381E-05 2.89532E-06 1.65436E-24
 -1       633 3.82191E-05 3.32667E-06 0.00000E+00
 -1       634 3.80954E-05 3.77017E-06 0.00000E+00
 -1       635 3.79687E-05 4.22191E-06 0.00000E+00
 -1       636 3.78404E-05 4.67800E-06 0.00000E+00
 -1       637 3.77118E-05 5.13453E-06-4.13590E-25
 -1       638 3.75846E-05 5.58761E-06 0.00000E+00
 -1       639 3.74600E-05 6.03334E-06-4.13590E-25
 -1       640 3.73394E-05 6.46780E-06-8.27181E-25
 -1       656 3.84895E-05 7.90090E-06 0.00000E+00
 -1       657 3.81632E-05 7.69603E-06-1.65436E-24
 -1       658 3.79453E-05 7.49177E-06 3.30872E-24
 -1       659 3.77657E-05 7.28769E-06 1.65436E-24
 -1       660 3.75498E-05 7.08295E-06 3.30872E-24
 -1       661 3.88070E-05 8.69279E-06-4.13590E-25
 -1       662 3.86314E-05 9.26259E-06 4.13590E-25
 -1       663 3.84648E-05 9.80777E-06-8.27181E-25
 -1       664 3.83074E-05 1.03295E-05-4.13590E-25
 -1       665 3.81585E-05 1.08286E-05 8.27181E-25
 -1       666 3.80177E-05 1.13060E-05 0.00000E+00
 -1       667 3.78847E-05 1.17628E-05 0.00000E+00
 -1       668 3.77591E-05 1.21998E-05-4.13590E-25
 -1       669 3.76407E-05 1.26179E-05 0.00000E+00
 -1       670 3.75290E-05 1.30179E-05-4.13590E-25
 -1       671 3.74237E-05 1.34008E-05 0.00000E+00
 -1       672 3.73246E-05 1.37672E-05 4.13590E-25
 -1       673 3.72313E-05 1.41180E-05 0.00000E+00
 -1       674 3.71431E-05 1.44539E-05 0.00000E+00
 -1       675 3.70604E-05 1.47757E-05 2.06795E-25
 -1       676 3.84321E-05 1.52772E-05-8.27181E-25
 -1       677 3.81414E-05 1.52382E-05 0.00000E+00
 -1       678 3.78508E-05 1.51992E-05 8.27181E-25
 -1       679 3.75604E-05 1.51604E-05 4.13590E-25
 -1       680 3.72703E-05 1.51215E-05 0.00000E+00
 -1       771 7.87617E-06 1.55999E-06-1.32349E-23
 -1       772 6.18235E-06 4.56349E-06 0.00000E+00
 -1       773 4.72806E-06 6.93246E-06 2.64698E-23
 -1       774 3.49678E-06 8.70930E-06 0.00000E+00
 -1       775 2.47237E-06 9.93682E-06 0.00000E+00
 -1       776 1.63817E-06 1.06587E-05-6.61744E-24
 -1       777 9.77396E-07 1.09190E-05 0.00000E+00
 -1       778 4.73053E-07 1.07624E-05 0.00000E+00
 -1       779 1.08071E-07 1.02341E-05 0.00000E+00
 -1       780-1.34795E-07 9.37977E-06 0.00000E+00
 -1       781-2.72818E-07 8.24526E-06 0.00000E+00
 -1       782-3.23406E-07 6.87694E-06-6.61744E-24
 -1       783-3.03980E-07 5.32134E-06 0.00000E+00
 -1       784-2.32019E-07 3.62529E-06-6.61744E-24
 -1       785-1.25057E-07 1.83575E-06 0.00000E+00
 -1       786 3.75102E-05 1.41392E-07 0.00000E+00
 -1       787 3.75411E-05 1.42223E-07 0.00000E+00
 -1       788 3.75719E-05 1.44253E-07 0.00000E+00
 -1       789 3.76030E-05 1.48096E-07-4.13590E-25
 -1       790 3.76341E-05 1.54491E-07 0.00000E+00
 -1       791 3.76652E-05 1.64182E-07-4.13590E-25
 -1       792 3.76964E-05 1.78142E-07 0.00000E+00
 -1       793 3.77276E-05 1.97354E-07-4.13590E-25
 -1       794 3.77587E-05 2.23168E-07-8.27181E-25
 -1       795 3.77899E-05 2.56945E-07 4.13590E-25
 -1       796 3.78211E-05 3.00604E-07 0.00000E+00
 -1       797 3.78523E-05 3.56080E-07 4.13590E-25
 -1       798 3.78834E-05 4.26138E-07 0.00000E+00
 -1       799 3.79145E-05 5.13565E-07-4.13590E-25
 -1       800 3.79456E-05 6.22369E-07 8.27181E-25
 -1       801 3.49501E-05 1.43084E-07 0.00000E+00
 -1       802 2.74214E-05 1.20858E-07 0.00000E+00
 -1       803 1.75293E-05 7.97624E-08-1.65436E-24
 -1       804 7.90804E-06 3.76130E-08 0.00000E+00
 -1       805 1.18753E-06 1.81183E-08 6.61744E-24
 -1       806 3.74424E-05 1.20498E-07-8.27181E-25
 -1       807 3.74021E-05 1.00093E-07 0.00000E+00
 -1       808 3.73605E-05 8.23536E-08 8.27181E-25
 -1       809 3.73169E-05 6.93292E-08-8.27181E-25
 -1       810 3.72707E-05 6.30641E-08 8.27181E-25
 -1       811 3.72213E-05 6.55729E-08-4.13590E-25
 -1       812 3.71678E-05 7.88676E-08-8.27181E-25
 -1       813 3.71094E-05 1.04956E-07 4.13590E-25
 -1       814 3.70455E-05 1.45845E-07 0.00000E+00
 -1       815 3.69754E-05 2.03540E-07-4.13590E-25
 -1       816 3.68981E-05 2.80046E-07 1.65436E-24
 -1       817 3.68131E-05 3.77367E-07 8.27181E-25
 -1       818 3.67195E-05 4.97509E-07 1.65436E-24
 -1       819 3.66167E-05 6.42466E-07-4.13590E-25
 -1       820 3.65040E-05 8.14239E-07-8.27181E-25
 -1       821 3.79319E-05 9.20154E-07 4.13590E-25
 -1       822 3.78848E-05 1.11707E-06 0.00000E+00
 -1       823 3.78379E-05 1.35209E-06 0.00000E+00
 -1       824 3.77905E-05 1.62991E-06-8.27181E-25
 -1       825 3.77430E-05 1.95086E-06 0.00000E+00
 -1       826 3.76954E-05 2.31522E-06 0.00000E+00
 -1       827 3.76478E-05 2.71882E-06 0.00000E+00
 -1       828 3.76002E-05 3.15746E-06 0.00000E+00
 -1       829 3.75525E-05 3.62334E-06 0.00000E+00
 -1       830 3.75049E-05 4.10863E-06 0.00000E+00
 -1       831 3.74573E-05 4.60353E-06 0.00000E+00
 -1       832 3.74097E-05 5.09822E-06 8.27181E-25
 -1       833 3.73622E-05 5.58289E-06-1.65436E-24
 -1       834 3.73153E-05 6.04776E-06 4.13590E-25
 -1       835 3.72681E-05 6.48505E-06 4.13590E-25
 -1       836 3.77824E-05 7.99565E-07 0.00000E+00
 -1       837 3.75319E-05 8.43495E-07-4.13590E-25
 -1       838 3.72455E-05 8.87347E-07-8.27181E-25
 -1       839 3.69443E-05 9.30921E-07-4.13590E-25
 -1       840 3.66492E-05 9.74426E-07 0.00000E+00
 -1       856 3.72103E-05 7.29910E-06 0.00000E+00
 -1       857 3.71952E-05 7.76305E-06-1.03398E-25
 -1       858 3.71802E-05 8.27068E-06 0.00000E+00
 -1       859 3.71650E-05 8.81377E-06 0.00000E+00
 -1       860 3.71497E-05 9.38405E-06 4.13590E-25
 -1       861 3.71343E-05 9.97324E-06-2.06795E-25
 -1       862 3.71189E-05 1.05731E-05-4.13590E-25
 -1       863 3.71035E-05 1.11752E-05 2.06795E-25
 -1       864 3.70881E-05 1.17714E-05 0.00000E+00
 -1       865 3.70727E-05 1.23534E-05 2.06795E-25
 -1       866 3.70573E-05 1.29128E-05-4.13590E-25
 -1       867 3.70420E-05 1.34415E-05-2.06795E-25
 -1       868 3.70266E-05 1.39311E-05 0.00000E+00
 -1       869 3.70113E-05 1.43734E-05 2.06795E-25
 -1       870 3.69959E-05 1.47603E-05-4.13590E-25
 -1       871 3.69093E-05 6.88667E-06 0.00000E+00
 -1       872 3.66445E-05 6.88526E-06 0.00000E+00
 -1       873 3.64082E-05 6.88367E-06 0.00000E+00
 -1       874 3.61786E-05 6.88182E-06 2.58494E-26
 -1       875 3.59340E-05 6.87974E-06-2.06795E-25
 -1       876 3.71146E-05 7.30336E-06 0.00000E+00
 -1       877 3.69971E-05 7.74491E-06 8.27181E-25
 -1       878 3.68712E-05 8.20864E-06 1.65436E-24
 -1       879 3.67383E-05 8.69172E-06-8.27181E-25
 -1       880 3.65991E-05 9.19128E-06 1.65436E-24
 -1       881 3.64549E-05 9.70447E-06-8.27181E-25
 -1       882 3.63066E-05 1.02285E-05 0.00000E+00
 -1       883 3.61554E-05 1.07604E-05 0.00000E+00
 -1       884 3.60022E-05 1.12975E-05 1.65436E-24
 -1       885 3.58481E-05 1.18368E-05 0.00000E+00
 -1       886 3.56942E-05 1.23756E-05 0.00000E+00
 -1       887 3.55416E-05 1.29110E-05 4.13590E-25
 -1       888 3.53912E-05 1.34402E-05 0.00000E+00
 -1       889 3.52441E-05 1.39602E-05 0.00000E+00
 -1       890 3.51012E-05 1.44682E-05 4.13590E-25
 -1       891 3.67006E-05 1.50629E-05-4.13590E-25
 -1       892 3.64118E-05 1.50423E-05 0.00000E+00
 -1       893 3.61037E-05 1.50217E-05 4.13590E-25
 -1       894 3.57661E-05 1.50012E-05-2.06795E-25
 -1       895 3.53888E-05 1.49807E-05-4.13590E-25
 -1       956 3.63364E-05 1.27411E-06 0.00000E+00
 -1       957 3.62910E-05 1.56258E-06 0.00000E+00
 -1       958 3.62455E-05 1.87718E-06 0.00000E+00
 -1       959 3.61999E-05 2.21469E-06 8.27181E-25
 -1       960 3.61542E-05 2.57190E-06-8.27181E-25
 -1       961 3.61086E-05 2.94557E-06 0.00000E+00
 -1       962 3.60629E-05 3.33247E-06 8.27181E-25
 -1       963 3.60172E-05 3.72937E-06-8.27181E-25
 -1       964 3.59715E-05 4.13303E-06 1.65436E-24
 -1       965 3.59258E-05 4.54021E-06 8.27181E-25
 -1       966 3.58802E-05 4.94769E-06 0.00000E+00
 -1       967 3.58345E-05 5.35221E-06 0.00000E+00
 -1       968 3.57889E-05 5.75056E-06 0.00000E+00
 -1       969 3.57433E-05 6.13949E-06 0.00000E+00
 -1       970 3.56979E-05 6.51580E-06 0.00000E+00
 -1       971 3.56104E-05 7.24674E-06-8.27181E-25
 -1       972 3.55672E-05 7.65566E-06 4.13590E-25
 -1       973 3.55238E-05 8.09885E-06-8.27181E-25
 -1       974 3.54804E-05 8.57188E-06-4.13590E-25
 -1       975 3.54369E-05 9.07033E-06 8.27181E-25
 -1       976 3.53934E-05 9.58975E-06-4.13590E-25
 -1       977 3.53499E-05 1.01257E-05-1.65436E-24
 -1       978 3.53064E-05 1.06738E-05-8.27181E-25
 -1       979 3.52630E-05 1.12295E-05-1.65436E-24
 -1       980 3.52195E-05 1.17884E-05 0.00000E+00
 -1       981 3.51760E-05 1.23461E-05 0.00000E+00
 -1       982 3.51325E-05 1.28981E-05 0.00000E+00
 -1       983 3.50892E-05 1.34400E-05-1.65436E-24
 -1       984 3.50460E-05 1.39673E-05 0.00000E+00
 -1       985 3.50030E-05 1.44757E-05 0.00000E+00
 -3
    1PSTEP                         2           1           1          
  100CL  101 2.50000E-01         409                     0    1           1
 -4  STRESS      6    1
 -5  SXX         1    4    1    1
 -5  SYY         1    4    2    2
 -5  SZZ         1    4    3    3
 -5  SXY         1    4    1    2
 -5  SYZ         1    4    2    3
 -5  SZX         1    4    3    1
 -1         1-8.60422E+05-3.97288E+05-1.74459E+05-5.57948E+05-3.81988E-11 5.14410E-09
 -1         2 1.43825E+03 1.49462E+05 4.68642E+03 2.52214E+02-6.90363E-11-3.29899E-09
 -1         3-1.83068E+01-3.61331E+05 8.30832E+01-6.60135E+01-5.33147E-11-9.49512E-10
 -1         5-2.13829E+00 1.29821E+05 3.39828E+00-5.14449E-02 4.47711E-11-4.06999E-10
 -1         8-4.01998E+05-1.75616E+05-1.16252E+04-3.08264E+05 5.63887E-11 2.40107E-09
 -1         9-6.93971E+05-1.82538E+05-6.69943E+04-2.42256E+05 1.92085E-09-2.42726E-09
 -1        10-2.68092E+02-3.76434E+05-4.78492E+02-4.37340E+02-1.74350E-09-5.10744E-09
 -1        12-7.43295E-01 1.29828E+05 1.10151E+02-1.07000E-01 1.04286E-10 1.22236E-09
 -1        15 1.08498E+03 5.96250E+02 3.50716E+03 1.22743E+00-1.39354E-08-5.52903E-06
 -1        16-1.96135E+06-6.32668E+05-3.04957E+05-6.43791E+05 6.00752E-09-4.18125E-09
 -1        17-4.33122E+05-2.68369E+05-8.32598E+04-2.53689E+05-2.84927E-09-1.81317E-09
 -1        18 1.63095E+04 1.64869E+03-5.89851E+03-3.05477E+04 4.07169E-10-8.91760E-10
 -1        19 4.06972E+04 4.85207E+04-2.24394E+02 7.97892E+03-2.68847E-10 1.72513E-09
 -1        20-1.68721E+04-1.92390E+05-4.24184E+04 1.43370E+04 1.42829E-09 4.88186E-09
 -1        21-1.82287E+01-1.11628E+05-3.60548E+02-2.22642E+01-5.78513E-09-4.04361E-09
 -1        24-1.72086E+06-6.02859E+05-2.45768E+05-7.35764E+05-7.88593E-09-3.95812E-09
 -1        25 1.46226E+04-4.16698E+03 8.57026E+03-5.51456E+04 1.94132E-10 1.29639E-09
 -1        26-9.44410E+03 3.31528E+04-6.58883E+03-4.72332E+03 7.96354E-10 1.69334E-09
 -1        27-3.07977E+04-1.05569E+05-3.96026E+04 2.37928E+04 2.53211E-09 5.82835E-10
 -1        28 8.61999E+03-3.08406E+04 6.29997E+03 9.89270E+03 1.05980E-09-1.13092E-09
 -1        32-4.13255E+05-6.63686E+04 1.76416E+05-2.77063E+05-8.06176E-09 6.08178E-09
 -1        33-6.04041E+04 3.10498E+04 1.10089E+04-1.80106E+04 6.53046E-10 2.24175E-09
 -1        34-7.84028E+04-7.80390E+03 1.86319E+02 2.41103E+04 1.45685E-09-2.24206E-09
 -1        35-8.77230E+03-1.22695E+04-4.77821E+02 1.94405E+04 2.99086E-09-6.17244E-10
 -1        51 8.19849E+03-2.04489E+05 1.97905E+04-5.04586E+05 7.27596E-11 1.86265E-09
 -1        52 3.98832E+03-2.02455E+05 1.30472E+04-5.88502E+05 3.27418E-10-6.60293E-09
 -1        53 2.41581E+03-2.07232E+05 1.14424E+04-5.02879E+05 2.40107E-10-1.88447E-09
 -1        54 7.97277E+03-2.05099E+05 1.85312E+04-5.90323E+05 4.00178E-11-3.21597E-09
 -1        55 1.83821E+04-2.11789E+05 3.33969E+04-5.02668E+05 2.91038E-10-3.94721E-09
 -1        56-1.65294E+06-1.87024E+05-1.29036E+05-6.37602E+05 4.43833E-10 2.27737E-09
 -1        57-1.70528E+06-3.03181E+05-8.69644E+04-6.32068E+05-2.58296E-10-2.01453E-09
 -1        58-1.67860E+06-2.28138E+05-3.03810E+04-6.29832E+05 3.16049E-10 4.56566E-10
 -1        59-1.67560E+06-2.54984E+05-1.81368E+04-6.41408E+05 6.87180E-10 3.45767E-09
 -1        60-1.68238E+06-2.33846E+05-7.10199E+03-6.28758E+05-6.45741E-10 7.10065E-09
 -1        61-1.67151E+06-2.48024E+05-4.03863E+03-6.42338E+05 1.20735E-09 2.64723E-09
 -1        62-1.68264E+06-2.34925E+05-1.94440E+03-6.28958E+05-8.54925E-11-4.60103E-09
 -1        63-1.67184E+06-2.46285E+05-1.59958E+03-6.41394E+05-3.97620E-10 3.11687E-09
 -1        64-1.68202E+06-2.35580E+05-1.82937E+03-6.29691E+05-6.88942E-10 7.25208E-10
 -1        65-1.67384E+06-2.45429E+05-3.66736E+03-6.39440E+05-4.91127E-10 1.83718E-10
 -1        66-1.68061E+06-2.35817E+05-6.44111E+03-6.30886E+05-2.20552E-10 2.28647E-09
 -1        67-1.67973E+06-2.49448E+05-1.63561E+04-6.35983E+05-1.22287E-09-1.56979E-09
 -1        68-1.67614E+06-2.31738E+05-2.74441E+04-6.33075E+05 1.43018E-10-1.85719E-09
 -1        69-1.70843E+06-2.91021E+05-7.84665E+04-6.25364E+05 3.21734E-10 5.34237E-09
 -1        70-1.65213E+06-1.95486E+05-1.16483E+05-6.41053E+05-8.13088E-10 5.67525E-10
 -1        86-7.20651E+02 1.48062E+05 5.02999E+03-1.26114E+02 6.66887E-10-1.90008E-09
 -1        87 4.78494E+03 1.51090E+05 1.04813E+04 5.15795E+02 1.09776E-09 9.79938E-10
 -1        88-4.05744E+03 1.46435E+05 1.60613E+04-3.89695E+02 1.62436E-09-2.12029E-09
 -1        89 3.02394E+04 1.62931E+05 4.32931E+04 1.09929E+03 2.47246E-09-3.81971E-09
 -1        90-2.60916E+04 1.36226E+05 6.11752E+04-7.09427E+02 2.79397E-09-1.91432E-09
 -1       121-3.47323E+01-3.61448E+05 8.30320E+01 3.29873E+01 1.87480E-10 2.68392E-09
 -1       122 9.00000E+00-3.61312E+05 1.82044E+02-1.32175E+02-6.68635E-10 2.71848E-09
 -1       123-5.47980E+01-3.61467E+05 2.99307E+02 9.90736E+01 5.50813E-10 5.75710E-10
 -1       124 3.44935E+02-3.61105E+05 7.65196E+02-3.27613E+02-1.27960E-09-1.68916E-09
 -1       125-2.73708E+02-3.61657E+05 1.17807E+03 2.28447E+02 8.55835E-10-3.32238E-09
 -1       191-2.35770E+00 1.29832E+05 4.07815E+00 2.55629E-02 8.48608E-11 4.59477E-09
 -1       192-2.45017E+00 1.29821E+05 7.19487E+00 1.56904E-01 1.29380E-10-1.62436E-09
 -1       193-3.18724E+00 1.29831E+05 1.33967E+01-1.83587E-01 1.40867E-10 2.63753E-11
 -1       194-3.45403E+00 1.29822E+05 2.72145E+01 4.94244E-01 6.83960E-11 6.36646E-11
 -1       195-4.78185E+00 1.29831E+05 5.32502E+01-3.13786E-01 2.03801E-10-1.39562E-09
 -1       251 1.57985E+05-2.63036E+04 6.10293E+04 1.69826E+03-1.49498E-10-4.26007E-09
 -1       252 1.85399E+05 3.04423E+04 4.32961E+04-5.00600E+03-1.42649E-10-4.17822E-09
 -1       253 1.68428E+05-4.09933E+03 1.57990E+04 1.08658E+03-8.48672E-11 1.36151E-09
 -1       254 1.73152E+05 4.74046E+03 9.98359E+03-4.04886E+03-5.62835E-10 4.04725E-10
 -1       255 1.70212E+05-6.36932E+02 4.08357E+03 7.41192E+02 2.55909E-10 4.05907E-09
 -1       256 1.71045E+05 7.52313E+02 2.48193E+03-3.54154E+03-3.60128E-10 2.58925E-09
 -1       257 1.70527E+05-1.12002E+02 1.27784E+03 5.79255E+02-6.46898E-08 6.57494E-09
 -1       258 1.70729E+05 2.31001E+02 1.13663E+03-3.37802E+03-1.46790E-07-1.26642E-09
 -1       259 1.70526E+05-1.14668E+02 1.30226E+03 5.77668E+02-6.54742E-08 6.18630E-09
 -1       260 1.71056E+05 7.75393E+02 2.55193E+03-3.53536E+03-7.59357E-10-3.11343E-09
 -1       261 1.70202E+05-6.57244E+02 4.21061E+03 7.36592E+02 2.19359E-10-2.26441E-09
 -1       262 1.73223E+05 4.89220E+03 1.02988E+04-4.03538E+03 1.50237E-10-2.95586E-10
 -1       263 1.68366E+05-4.23035E+03 1.63051E+04 1.07770E+03-2.50594E-10 3.82806E-09
 -1       264 1.85845E+05 3.14154E+04 4.46749E+04-4.98409E+03-8.87141E-10-4.20187E-10
 -1       265 1.57601E+05-2.71432E+04 6.29864E+04 1.68524E+03-1.46429E-10-8.40373E-10
 -1       266-1.96418E+04-9.18514E+03 4.60825E+04-2.62624E+01-2.17678E-08-8.71023E-06
 -1       267 2.27701E+04 1.07045E+04 3.25719E+04 3.03031E+01-4.31414E-08-1.72143E-05
 -1       268-3.05344E+03-1.51611E+03 1.21067E+04-3.86102E+00-3.46749E-08-1.38030E-05
 -1       269 3.60520E+03 1.81440E+03 7.86926E+03 4.49762E+00-2.60952E-08-1.03922E-05
 -1       270-5.41146E+02-2.98123E+02 3.79860E+03-6.10334E-01-1.92930E-08-7.66158E-06
 -1       271-1.91182E+06-2.37700E+05-1.46587E+05-7.43507E+05 3.34694E-10-3.28873E-09
 -1       272-1.95120E+06-3.57997E+05-9.42606E+04-7.57617E+05-7.57041E-10-1.53705E-09
 -1       273-1.93940E+06-2.74220E+05-3.46234E+04-7.37013E+05 1.09821E-10 1.04410E-09
 -1       274-1.91914E+06-3.13098E+05-1.93989E+04-7.67513E+05-1.23919E-10 2.14777E-09
 -1       275-1.94348E+06-2.77728E+05-8.05438E+03-7.35579E+05 3.05135E-10 4.20732E-09
 -1       276-1.91435E+06-3.08934E+05-4.28855E+03-7.69806E+05 3.06500E-10 2.11696E-09
 -1       277-1.94433E+06-2.77770E+05-2.09764E+03-7.35051E+05 5.27507E-11 2.22929E-09
 -1       278-1.91353E+06-3.08806E+05-1.52809E+03-7.70438E+05 1.79682E-09-9.83732E-10
 -1       279-1.94438E+06-2.77762E+05-1.64032E+03-7.35021E+05-1.63334E-09-1.74623E-09
 -1       280-1.91409E+06-3.08808E+05-3.00726E+03-7.69951E+05-2.98314E-10 2.24884E-09
 -1       281-1.94371E+06-2.77836E+05-5.49320E+03-7.35480E+05 2.86491E-11 2.90174E-09
 -1       282-1.91759E+06-3.11309E+05-1.31272E+04-7.68004E+05-1.31672E-09 2.08274E-09
 -1       283-1.94072E+06-2.75715E+05-2.34150E+04-7.36703E+05-9.37234E-10-5.01132E-09
 -1       284-1.93974E+06-3.41062E+05-6.36749E+04-7.60589E+05-3.71529E-10-3.13958E-09
 -1       285-1.92173E+06-2.51438E+05-9.90793E+04-7.41496E+05-2.76486E-10-3.33603E-09
 -1       301 7.44045E+03-4.69812E+03 5.81063E+04-1.42729E+04-3.89264E-10-2.45987E-09
 -1       302 7.97832E+03 1.00579E+04 4.18368E+04-2.09897E+04 8.60950E-10 2.59206E-10
 -1       303 3.31266E+02 5.38400E+02 3.83212E+04-1.42952E+04-4.96584E-10 2.33308E-09
 -1       304 1.48752E+04 1.64171E+04 6.42546E+04-2.09340E+04 6.79393E-10 1.23418E-09
 -1       305 1.47426E+04-1.10273E+04 1.07710E+05-1.42988E+04-3.56522E-10 4.41423E-09
 -1       306-2.06635E+06-2.36568E+05-1.56813E+05-8.03986E+05 8.18545E-10-3.40515E-09
 -1       307-2.14098E+06-3.75440E+05-1.06944E+05-7.84126E+05 1.10640E-09 4.83124E-09
 -1       308-2.10107E+06-2.86146E+05-3.68888E+04-7.90275E+05 5.36602E-11 3.32693E-09
 -1       309-2.09869E+06-3.19851E+05-2.23778E+04-8.02704E+05-3.91168E-10-5.52927E-09
 -1       310-2.10848E+06-2.91202E+05-8.65560E+03-7.85759E+05-2.21915E-10-1.41563E-09
 -1       311-2.08928E+06-3.14900E+05-5.03105E+03-8.09102E+05 2.76350E-09 2.40050E-09
 -1       312-2.11051E+06-2.90920E+05-2.45931E+03-7.83968E+05 3.10408E-10-8.81812E-10
 -1       313-2.08751E+06-3.14927E+05-2.22168E+03-8.10629E+05-1.98555E-09 1.50774E-09
 -1       314-2.11027E+06-2.91144E+05-2.66961E+03-7.84254E+05-1.24041E-09-1.98941E-09
 -1       315-2.09028E+06-3.14191E+05-5.64472E+03-8.07989E+05 1.33511E-09-4.25757E-10
 -1       316-2.10771E+06-2.91703E+05-9.81169E+03-7.86571E+05 1.47654E-09-2.67255E-09
 -1       317-2.10118E+06-3.19658E+05-2.54161E+04-8.00542E+05-5.65223E-10-1.71713E-09
 -1       318-2.09934E+06-2.85873E+05-4.19121E+04-7.91603E+05-1.71303E-09 2.34650E-09
 -1       319-2.14887E+06-3.83291E+05-1.21545E+05-7.79993E+05-2.35195E-09-1.07866E-09
 -1       320-2.06022E+06-2.29137E+05-1.78177E+05-8.06737E+05 3.62343E-09-2.16096E-09
 -1       336 2.94053E+02-3.91291E+05-2.07090E+03 2.08719E+02-3.50781E-09-2.48292E-10
 -1       337-7.42350E+02-3.91893E+05-2.26934E+03-5.88703E+02-6.40364E-09-5.01223E-09
 -1       338 1.94830E+02-3.91353E+05-2.84340E+03 3.79175E+02-4.58238E-09-1.23873E-09
 -1       339-2.93904E+03-3.93233E+05-6.23185E+03-9.27194E+02-8.35735E-09 2.83126E-09
 -1       340 2.01095E+03-3.89961E+05-9.59303E+03 5.45477E+02-5.47470E-09 1.75805E-09
 -1       406 7.68394E+00 1.29826E+05 2.17488E+02 4.16184E-01 3.01341E-10 4.00496E-09
 -1       407 7.50788E+01 1.29866E+05 4.62222E+02-5.64917E+00 4.23057E-11 1.16142E-09
 -1       408 2.37189E+02 1.29792E+05 9.23194E+02 5.28175E+00 3.72893E-10 1.56979E-09
 -1       409 9.97525E+02 1.30161E+05 2.07843E+03-4.73957E+01 2.48974E-11-3.45608E-09
 -1       410 2.86741E+03 1.29530E+05 4.24310E+03 4.30236E+01 4.06089E-10-2.81420E-09
 -1       521-3.88549E+06-4.47488E+05-2.90739E+05-1.50957E+06 2.47383E-09-4.20550E-09
 -1       522-4.02481E+06-6.99456E+05-1.97628E+05-1.47192E+06-1.89084E-09-2.14823E-09
 -1       523-3.95020E+06-5.37433E+05-6.83552E+04-1.48380E+06 1.39880E-09-4.13274E-09
 -1       524-3.94606E+06-5.98349E+05-4.12599E+04-1.50671E+06 4.89194E-10 6.72571E-10
 -1       525-3.96375E+06-5.46395E+05-1.59754E+04-1.47553E+06 6.42444E-10 8.23093E-10
 -1       526-3.92992E+06-5.88387E+05-9.21496E+03-1.51703E+06 3.23723E-10 3.24007E-09
 -1       527-3.96634E+06-5.47017E+05-4.42308E+03-1.47364E+06 2.18324E-09 2.15869E-09
 -1       528-3.92994E+06-5.84951E+05-3.79251E+03-1.51570E+06-3.51974E-10-3.12923E-11
 -1       529-3.96368E+06-5.49819E+05-4.44149E+03-1.47685E+06-1.01249E-09-1.68939E-09
 -1       530-3.93962E+06-5.78191E+05-9.07846E+03-1.50511E+06-1.50851E-09 6.68706E-10
 -1       531-3.95652E+06-5.53916E+05-1.59259E+04-1.48411E+06-8.75900E-10 7.93079E-10
 -1       532-3.96282E+06-5.80969E+05-4.08801E+04-1.48682E+06-5.29610E-10-3.92902E-09
 -1       533-3.94052E+06-5.47397E+05-6.78395E+04-1.49499E+06 1.57888E-09-3.96540E-09
 -1       534-4.04336E+06-6.79430E+05-1.96104E+05-1.45056E+06-2.12822E-10 3.18869E-09
 -1       535-3.87668E+06-4.57494E+05-2.88397E+05-1.51978E+06-6.49743E-09 3.57977E-09
 -1       536-5.43732E+03-1.10321E+04 2.54326E+04 2.59263E+02-1.03039E-09 1.72076E-09
 -1       537 6.18697E+03 1.27660E+04 1.80945E+04-9.99257E+02-4.15025E-09 2.00680E-09
 -1       538-1.09547E+03-1.72889E+03 6.56475E+03 2.39427E+02-3.03046E-10 2.17869E-09
 -1       539 1.07753E+03 1.99662E+03 4.17622E+03-9.77988E+02 8.08058E-10 2.58598E-09
 -1       540-3.32302E+02-2.69121E+02 1.66020E+03 2.38001E+02 3.37266E-10 1.43291E-09
 -1       541 1.51020E+02 3.08391E+02 9.84170E+02-9.76552E+02-1.67955E-10 3.51686E-09
 -1       542-1.71615E+02-4.00663E+01 4.00101E+02 2.37986E+02-2.29640E-10 2.96498E-09
 -1       543-5.90069E+01 3.90915E+01 2.01265E+02-9.76607E+02 3.55360E-11 3.26926E-09
 -1       544-1.23963E+02 1.21199E+00 3.52617E+01 2.38057E+02-2.41435E-10-1.94242E-09
 -1       545-1.36578E+02-4.45990E+01-1.03604E+02-9.76726E+02-5.91873E-10 1.73500E-09
 -1       546-9.48080E+01 4.41271E+01-2.50341E+02 2.38106E+02 1.46310E-10 1.87877E-09
 -1       547-2.70183E+02-3.28349E+02-6.67240E+02-9.76753E+02-1.17313E-09-6.53415E-11
 -1       548 9.80006E+00 2.84646E+02-1.08354E+03 2.38083E+02-1.35748E-09 8.13941E-10
 -1       549-1.04530E+03-2.09913E+03-2.95938E+03-9.76117E+02-6.13426E-10 5.26279E-09
 -1       550 6.81418E+02 1.81274E+03-4.21158E+03 2.37469E+02 2.98996E-11 2.59820E-09
 -1       551 2.98410E+03-2.06702E+05 1.16081E+04-3.54747E+05-1.52249E-08-8.29459E-10
 -1       552 5.85024E+03-2.06041E+05 1.48391E+04-5.04698E+05-1.14014E-08 6.67933E-09
 -1       553 3.58584E+03-2.08759E+05 2.31274E+04-3.53637E+05-1.90048E-08 3.46154E-09
 -1       554 1.69114E+04-1.98058E+05 4.90927E+04-5.05178E+05-1.22818E-08-1.16631E-09
 -1       555 1.78858E+04-2.18228E+05 8.83348E+04-3.54145E+05-1.88556E-08-3.44517E-09
 -1       556 2.80866E+04-6.55167E+04 2.30198E+04-8.83740E+04-5.87534E-09 1.00772E-09
 -1       557 5.47572E+04-8.80606E+04 1.20207E+04-1.10299E+05 1.57161E-09 1.18412E-08
 -1       558 2.85611E+04-6.89069E+04 4.96068E+03-8.54208E+04-4.92582E-09-3.92811E-09
 -1       559 5.17946E+04-9.14173E+04 2.48427E+03-1.11449E+05-4.22915E-09 1.97360E-10
 -1       560 2.82061E+04-6.86522E+04 1.07915E+03-8.56057E+04-4.76939E-09 5.31600E-09
 -1       561 5.10829E+04-9.13294E+04 5.49673E+02-1.11890E+05-2.27374E-09 4.41605E-09
 -1       562 2.78867E+04-6.84226E+04 2.30681E+02-8.58409E+04-4.36557E-09-6.91853E-09
 -1       563 5.06897E+04-9.11636E+04 1.27295E+02-1.12140E+05-1.54705E-09 5.81963E-10
 -1       564 2.76867E+04-6.82890E+04 4.80969E+01-8.59854E+04 6.40284E-10-6.68933E-10
 -1       565 5.04882E+04-9.10795E+04 2.01509E+01-1.12265E+05-2.27737E-09-4.62251E-09
 -1       566 2.76195E+04-6.82415E+04-1.77947E+01-8.60360E+04 1.61208E-09 2.82762E-09
 -1       567 5.04556E+04-9.10630E+04-6.77161E+01-1.12252E+05 7.46468E-10-7.39692E-09
 -1       568 2.77024E+04-6.82978E+04-1.68858E+02-8.60089E+04-7.75799E-10 1.84173E-09
 -1       569 5.02530E+04-9.09508E+04-4.00397E+02-1.11813E+05-2.29829E-09 4.21642E-09
 -1       570 2.82166E+04-6.88176E+04-8.12771E+02-8.61011E+04 6.03904E-10 1.53523E-09
 -1       571 9.41994E+04 3.41624E+03 5.05891E+03-2.36110E+04 3.56295E-10 3.44994E-09
 -1       572 9.49538E+04 1.18852E+03 2.47829E+03-2.58819E+04 1.00863E-09-1.84002E-09
 -1       573 9.45061E+04 2.83411E+02 1.10094E+03-2.35495E+04 1.79148E-09 9.86802E-10
 -1       574 9.45966E+04 9.14291E+01 5.51436E+02-2.59510E+04-6.93035E-10-5.83441E-10
 -1       575 9.45424E+04 1.17372E+01 2.59855E+02-2.35413E+04-1.46520E-09 3.91356E-09
 -1       576 9.45490E+04 2.16053E+00 1.32172E+02-2.59603E+04-1.78099E-09 3.44698E-10
 -1       577 9.45477E+04-2.91518E+00 6.50586E+01-2.35402E+04-1.13391E-08 2.90584E-10
 -1       578 9.45432E+04-1.74877E+00 3.53629E+01-2.59614E+04-1.90457E-08-6.48924E-10
 -1       579 9.45511E+04-2.60128E+00 2.15854E+01-2.35402E+04-8.64770E-09-1.19167E-09
 -1       580 9.45468E+04-2.56547E+00 1.99791E+01-2.59599E+04 3.10138E-10 9.69521E-10
 -1       581 9.45561E+04-3.35572E+00 2.71664E+01-2.35417E+04-4.53383E-10 1.35492E-09
 -1       582 9.45581E+04 2.01933E+00 5.15185E+01-2.59457E+04-7.07814E-10 1.57775E-09
 -1       583 9.45607E+04 1.67603E+01 9.92331E+01-2.35544E+04-5.51609E-10 2.86730E-09
 -1       584 9.46000E+04 9.55490E+01 2.22123E+02-2.58404E+04-1.31058E-09 2.34081E-09
 -1       585 9.45425E+04 2.92966E+02 4.51758E+02-2.36471E+04-1.38243E-10-1.10504E-09
 -1       586-1.18390E+03 3.06320E+04-1.55395E+03-8.05664E+04 2.66255E-10-3.94039E-10
 -1       587-2.71281E+02 3.04267E+04-1.90259E+02-8.86570E+04 4.31100E-10 4.10569E-09
 -1       588 3.05691E+02 3.04655E+04 1.06624E+03-8.05174E+04 2.54659E-10 3.18778E-10
 -1       589 1.58727E+03 3.10455E+04 3.12792E+03-8.85834E+04 3.99268E-10-2.49656E-10
 -1       590 4.59088E+03 3.00626E+04 6.70841E+03-8.06402E+04 1.90767E-10 9.69976E-10
 -1       591-2.04328E+04-5.87199E+03-6.83358E+03-1.06197E+04-4.37353E-10-1.56615E-09
 -1       592-2.10709E+04-7.55222E+03-3.70135E+03-1.24040E+04-1.53022E-10-4.38604E-10
 -1       593-2.11234E+04-5.36858E+03-1.54089E+03-1.11129E+04-2.17199E-10-1.82354E-10
 -1       594-2.01182E+04-6.55915E+03-7.68540E+02-1.24510E+04 4.16094E-10 2.60867E-09
 -1       595-2.11761E+04-5.36646E+03-3.53194E+02-1.11354E+04-4.89422E-11-6.90648E-12
 -1       596-2.00536E+04-6.51371E+03-1.80057E+02-1.24441E+04 1.00897E-10-1.91486E-09
 -1       597-2.11828E+04-5.37088E+03-9.91240E+01-1.11363E+04 2.78789E-10-9.20210E-10
 -1       598-2.00475E+04-6.51196E+03-8.16587E+01-1.24423E+04 1.01181E-11-1.21258E-09
 -1       599-2.11824E+04-5.37081E+03-1.06739E+02-1.11362E+04 2.04864E-10 3.52355E-09
 -1       600-2.00546E+04-6.51421E+03-2.00280E+02-1.24442E+04-1.23282E-09 3.70380E-09
 -1       601-2.11743E+04-5.36583E+03-3.96065E+02-1.11349E+04-5.12046E-10-4.26098E-10
 -1       602-2.01275E+04-6.56513E+03-8.63844E+02-1.24514E+04 1.82814E-09 1.60685E-09
 -1       603-2.11146E+04-5.36889E+03-1.73254E+03-1.11099E+04 1.13687E-13 4.11285E-09
 -1       604-2.12025E+04-7.67787E+03-4.16209E+03-1.23936E+04-9.72591E-11 3.16675E-09
 -1       605-2.03336E+04-5.93821E+03-7.68404E+03-1.05592E+04 9.75433E-10 1.26192E-09
 -1       606 1.34698E+04-4.53101E+03-8.16413E+03 1.31936E+04-1.95723E-09 5.69344E-10
 -1       607 1.20719E+04-1.46137E+03-4.06553E+03 1.48106E+04 8.26276E-10-1.82575E-09
 -1       608 1.28707E+04-2.45412E+02-1.82000E+03 1.30883E+04 2.29738E-09-6.69388E-10
 -1       609 1.27148E+04-6.60242E+01-9.19475E+02 1.49271E+04 6.80302E-10 1.39448E-09
 -1       610 1.28032E+04 9.62786E+00-4.38777E+02 1.30766E+04-8.44011E-10-4.38831E-10
 -1       611 1.27757E+04 1.25971E+01-2.21464E+02 1.49399E+04-3.22029E-09-3.92970E-09
 -1       612 1.27886E+04 1.38136E+01-1.05711E+02 1.30754E+04 6.37101E-09-3.69721E-09
 -1       613 1.27797E+04 1.37606E+01-4.83117E+01 1.49415E+04 1.19749E-08-7.09633E-09
 -1       614 1.27818E+04 1.17133E+01-1.33883E+01 1.30750E+04 6.75891E-09-1.10981E-09
 -1       615 1.27781E+04 1.41387E+01 1.49257E+01 1.49418E+04 3.40538E-09 1.07354E-09
 -1       616 1.27767E+04 1.25772E+01 4.97336E+01 1.30751E+04-7.23048E-11-1.93609E-10
 -1       617 1.27839E+04 2.50545E+01 1.15227E+02 1.49415E+04 1.16086E-09-1.26749E-09
 -1       618 1.27664E+04 4.60369E+01 2.33012E+02 1.30752E+04 8.94715E-10-1.09731E-09
 -1       619 1.28660E+04 2.05508E+02 5.23682E+02 1.49413E+04 1.03796E-09-1.56979E-09
 -1       620 1.26888E+04 5.99216E+02 1.05276E+03 1.30749E+04 1.84377E-09 2.90015E-09
 -1       621 1.64436E+02 1.02539E+05 1.41686E+03 3.23837E+03-1.45469E-10 5.20640E-09
 -1       622 1.87934E+02 1.02890E+05 1.20208E+03 4.72496E+03-2.22627E-10 4.11649E-09
 -1       623 8.39226E+00 1.02640E+05 1.38188E+03 3.22302E+03-1.60526E-10 2.65652E-09
 -1       624 6.25798E+02 1.03292E+05 2.62369E+03 4.74011E+03-1.20281E-10 4.00972E-09
 -1       625 6.27954E+02 1.02135E+05 4.56095E+03 3.22332E+03-1.39835E-10-2.90200E-10
 -1       626 8.46362E+04 2.34862E+04 1.69310E+03 4.58003E+04 1.89107E-09 5.16502E-09
 -1       627 8.34742E+04 2.43412E+04 8.15465E+02 4.76584E+04-9.17680E-10-6.41023E-10
 -1       628 8.47045E+04 2.26834E+04 3.44748E+02 4.60574E+04 1.49203E-09 1.59775E-09
 -1       629 8.32342E+04 2.41475E+04 1.68787E+02 4.77732E+04 3.41879E-09 7.91829E-11
 -1       630 8.47123E+04 2.26434E+04 7.82116E+01 4.60664E+04 2.06046E-09-1.05723E-09
 -1       631 8.32079E+04 2.41419E+04 4.19430E+01 4.77769E+04 6.38465E-10-2.28601E-09
 -1       632 8.47108E+04 2.26449E+04 2.77496E+01 4.60642E+04 6.21731E-09-1.06791E-08
 -1       633 8.32040E+04 2.41435E+04 3.08855E+01 4.77753E+04 1.66373E-08-5.38580E-09
 -1       634 8.47076E+04 2.26445E+04 5.00485E+01 4.60630E+04 4.43583E-09-1.44471E-08
 -1       635 8.32071E+04 2.41439E+04 1.01472E+02 4.77759E+04 1.87924E-09-3.09501E-09
 -1       636 8.47027E+04 2.26438E+04 2.05038E+02 4.60618E+04 1.26516E-09 3.17300E-10
 -1       637 8.32488E+04 2.41766E+04 4.50687E+02 4.77738E+04 3.58252E-09 4.67685E-09
 -1       638 8.46843E+04 2.27447E+04 9.26400E+02 4.60151E+04 2.31023E-09 9.50195E-10
 -1       639 8.37320E+04 2.48548E+04 2.19166E+03 4.76289E+04-1.20207E-09-3.99586E-09
 -1       640 8.46175E+04 2.47633E+04 4.54852E+03 4.51580E+04-1.65073E-10 2.36469E-11
 -1       656 2.29469E+04-5.80868E+05-5.54103E+04-4.99223E+02 1.09139E-10-1.06809E-10
 -1       657-3.03195E+04-6.05902E+05-4.58239E+04 3.80957E+03 6.40739E-10 2.56648E-09
 -1       658 7.27441E+03-5.88015E+05-2.81225E+04-7.81790E+02-4.26326E-10 4.33413E-10
 -1       659-3.25036E+04-6.06928E+05-4.86922E+04 3.99494E+03-2.63299E-10-7.59155E-10
 -1       660 2.51247E+04-5.79844E+05-6.03508E+04-6.84578E+02-3.60160E-10 1.85559E-09
 -1       661 8.26380E+04 8.96506E+03 7.91901E+03 3.22471E+04 1.10072E-09 1.72213E-09
 -1       662 8.67310E+04 1.52074E+04 5.33605E+03 3.09050E+04 3.65986E-10-2.96245E-09
 -1       663 8.41860E+04 1.15125E+04 1.86660E+03 3.18037E+04-1.43189E-10-5.72754E-10
 -1       664 8.49423E+04 1.22228E+04 1.11588E+03 3.14412E+04 1.53472E-09 3.42197E-11
 -1       665 8.44150E+04 1.18660E+04 4.40234E+02 3.17425E+04-9.09978E-10 4.76646E-10
 -1       666 8.46761E+04 1.18136E+04 2.56622E+02 3.15173E+04-3.63966E-09-1.22625E-09
 -1       667 8.44507E+04 1.19111E+04 1.35346E+02 3.17316E+04-1.18050E-09 1.31639E-09
 -1       668 8.46406E+04 1.17745E+04 1.35456E+02 3.15313E+04 1.86864E-09-6.10699E-10
 -1       669 8.44504E+04 1.19040E+04 1.81555E+02 3.17288E+04 2.86200E-10-1.07633E-10
 -1       670 8.46916E+04 1.18652E+04 3.93428E+02 3.15249E+04 3.25028E-09 1.82720E-09
 -1       671 8.43999E+04 1.18223E+04 6.98063E+02 3.17372E+04-2.78554E-10-3.10334E-09
 -1       672 8.51036E+04 1.25392E+04 1.78548E+03 3.14208E+04-1.36702E-09-2.17244E-09
 -1       673 8.40407E+04 1.12471E+04 2.99206E+03 3.18265E+04-1.96047E-09-2.77282E-10
 -1       674 8.79571E+04 1.73414E+04 8.55702E+03 3.05783E+04-1.31115E-09-1.23407E-09
 -1       675 8.15651E+04 7.15436E+03 1.27008E+04 3.25293E+04 1.91267E-09-2.05546E-10
 -1       676 9.35325E+00-1.11598E+05-4.34549E+02 1.11324E+01-1.37027E-09 9.92925E-10
 -1       677-1.15350E+02-1.11703E+05-7.95234E+02-2.22637E+01-2.43095E-09-2.52157E-09
 -1       678 7.70071E+01-1.11523E+05-1.40574E+03 1.11236E+01-9.30527E-11-2.15573E-09
 -1       679-1.40587E+03-1.12551E+05-3.33916E+03-2.22210E+01-2.71865E-09 8.76729E-10
 -1       680 8.38929E+02-1.10749E+05-5.38167E+03 1.09617E+01-1.12777E-09 1.63572E-09
 -1       771-1.20094E+06-2.08320E+05-2.90981E+04-4.96913E+05-4.55111E-09-4.28554E-09
 -1       772-1.19327E+06-2.24866E+05-1.56642E+04-5.15336E+05-3.51611E-09 1.65528E-09
 -1       773-1.20468E+06-2.05438E+05-6.67005E+03-4.98542E+05-1.34241E-09 2.53203E-09
 -1       774-1.18897E+06-2.21289E+05-3.27234E+03-5.16691E+05 3.94357E-09-2.82853E-10
 -1       775-1.20532E+06-2.05067E+05-1.59434E+03-4.98634E+05-3.23780E-10 2.60115E-10
 -1       776-1.18880E+06-2.21232E+05-7.51100E+02-5.17257E+05-1.48248E-09-2.97541E-09
 -1       777-1.20571E+06-2.04806E+05-4.27597E+02-4.98666E+05 2.54659E-10 5.30235E-10
 -1       778-1.18888E+06-2.21302E+05-2.01373E+02-5.17718E+05-2.91038E-11 1.87720E-09
 -1       779-1.20601E+06-2.04581E+05-1.78453E+02-4.98692E+05-1.12414E-09-1.32013E-09
 -1       780-1.18898E+06-2.21368E+05-1.56370E+02-5.18092E+05-1.32331E-09-1.12323E-10
 -1       781-1.20623E+06-2.04398E+05-2.73137E+02-4.98708E+05-3.73439E-09-6.22549E-10
 -1       782-1.18910E+06-2.21445E+05-5.20535E+02-5.18368E+05-4.94038E-09-1.51545E-09
 -1       783-1.20634E+06-2.04282E+05-1.03896E+03-4.98707E+05-7.94898E-10-2.25140E-09
 -1       784-1.18977E+06-2.22141E+05-2.47078E+03-5.18508E+05-2.76486E-09-1.73713E-10
 -1       785-1.20596E+06-2.04550E+05-4.56597E+03-4.98378E+05-5.06998E-09 6.92125E-10
 -1       786 8.70830E+04-4.65839E+03 1.07764E+04 2.04913E+00 4.43890E-08 2.01726E-09
 -1       787 9.17528E+04 5.39292E+03 7.62433E+03-8.68180E+00 8.80557E-08 2.57342E-09
 -1       788 8.88847E+04-7.30250E+02 2.78919E+03 2.54975E+00 1.40812E-07 1.82479E-09
 -1       789 8.96540E+04 8.44940E+02 1.75248E+03-1.02445E+01 1.93475E-07 7.89942E-09
 -1       790 8.91820E+04-1.14076E+02 7.13056E+02 3.61182E+00 2.75839E-07-1.85526E-09
 -1       791 8.93070E+04 1.32540E+02 4.18657E+02-1.30804E+01 3.58358E-07 4.76476E-09
 -1       792 8.92318E+04-1.83843E+01 1.91070E+02 5.38572E+00 5.10406E-07-6.28832E-09
 -1       793 8.92509E+04 2.58205E+01 1.25210E+02-1.75999E+01 6.63357E-07 2.92240E-09
 -1       794 8.92381E+04-7.42572E+00 9.27586E+01 8.13144E+00 9.69148E-07-8.90936E-09
 -1       795 8.92564E+04 3.83187E+01 1.34188E+02-2.44570E+01 1.27350E-06-4.89528E-10
 -1       796 8.92263E+04-3.08739E+01 2.01019E+02 1.22429E+01 6.36511E-07-4.19733E-09
 -1       797 8.93476E+04 2.26314E+02 4.73975E+02-3.46361E+01 2.04499E-09 1.90645E-09
 -1       798 8.91470E+04-1.95283E+02 7.48197E+02 1.83107E+01-4.00839E-11 8.48047E-10
 -1       799 8.99086E+04 1.44186E+03 2.03966E+03-4.96985E+01-4.69591E-10-7.56273E-10
 -1       800 8.86651E+04-1.24543E+03 2.88135E+03 2.73054E+01-9.24674E-11 2.58012E-09
 -1       801-4.52224E+03 6.81453E+03 8.12542E+03 9.22346E+03 5.10704E-09-4.06760E-09
 -1       802 1.27487E+04 3.78040E+04 2.45054E+04-3.79424E+04 1.37234E-08-5.42366E-09
 -1       803-7.97402E+03 1.67530E+04 3.24895E+04 8.91160E+03 1.08212E-08 7.66772E-09
 -1       804 6.27970E+04 6.36712E+04 8.99987E+04-3.82623E+04 1.27984E-08 1.06141E-08
 -1       805-5.45746E+04-1.89617E+04 1.19238E+05 9.54278E+03 4.53292E-09 1.27349E-08
 -1       806-1.02724E+05-2.19885E+04-8.71968E+03-4.27575E+04-1.45258E-09-9.54969E-12
 -1       807-1.03239E+05-2.07381E+04-4.28375E+03-4.50677E+04-6.91324E-09-1.29162E-08
 -1       808-1.02972E+05-1.88383E+04-1.81723E+03-4.42369E+04-1.04399E-09 3.99442E-09
 -1       809-1.02325E+05-1.95486E+04-8.88417E+02-4.51913E+04-3.53054E-10 1.63695E-09
 -1       810-1.03011E+05-1.87270E+04-4.06785E+02-4.43024E+04-1.07127E-09 2.82114E-09
 -1       811-1.02256E+05-1.95014E+04-2.01752E+02-4.51813E+04 6.68251E-10 5.89012E-10
 -1       812-1.03018E+05-1.87348E+04-1.00629E+02-4.43025E+04-8.41283E-11-8.89372E-10
 -1       813-1.02247E+05-1.95025E+04-6.35023E+01-4.51766E+04-1.09594E-10 1.27125E-09
 -1       814-1.03018E+05-1.87374E+04-5.94629E+01-4.43015E+04-4.70664E-11-1.43086E-09
 -1       815-1.02249E+05-1.95033E+04-9.32024E+01-4.51759E+04-2.63867E-10 1.31291E-09
 -1       816-1.03013E+05-1.87361E+04-1.74531E+02-4.43007E+04-1.22759E-09 1.03319E-09
 -1       817-1.02280E+05-1.95198E+04-3.74482E+02-4.51738E+04 1.35435E-09 1.96951E-09
 -1       818-1.02992E+05-1.87879E+04-7.63048E+02-4.42764E+04 3.63752E-09 6.44991E-09
 -1       819-1.02702E+05-1.99777E+04-1.79632E+03-4.50730E+04-1.35446E-09-2.84797E-09
 -1       820-1.02848E+05-2.01458E+04-3.65557E+03-4.36981E+04-3.99268E-10-3.48564E-10
 -1       821-1.32658E+05 7.36537E+03-1.70361E+04-6.60636E-01-3.75812E-10 2.02817E-10
 -1       822-1.40039E+05-8.52665E+03-1.20548E+04-9.43756E+01-1.42788E-09-7.71479E-10
 -1       823-1.35506E+05 1.15463E+03-4.41241E+03-2.45236E+01 1.06309E-09-6.62112E-10
 -1       824-1.36721E+05-1.33643E+03-2.77687E+03-4.32619E+01-6.21624E-10 9.21148E-10
 -1       825-1.35976E+05 1.80803E+02-1.14063E+03-5.17761E+01-1.45912E-09 1.06638E-10
 -1       826-1.36174E+05-2.13241E+02-6.90121E+02 8.83092E+00-2.50345E-09-1.74210E-09
 -1       827-1.36052E+05 3.22618E+01-3.55883E+02-7.66175E+01-3.02728E-09-2.63485E-09
 -1       828-1.36099E+05-6.51986E+01-3.16130E+02 5.09410E+01 2.83797E-08 5.37233E-09
 -1       829-1.36051E+05 3.28753E+01-3.61267E+02-9.38868E+01 9.45733E-06-7.60636E-09
 -1       830-1.36179E+05-2.18461E+02-7.06211E+02 7.43273E+01 1.88239E-05-5.75237E-09
 -1       831-1.35972E+05 1.85432E+02-1.16893E+03-1.00004E+02-1.21865E-06-1.51914E-09
 -1       832-1.36739E+05-1.37080E+03-2.84831E+03 7.43072E+01-2.12545E-05 6.53534E-09
 -1       833-1.35491E+05 1.18437E+03-4.52579E+03-9.38664E+01-1.06762E-05 9.73205E-09
 -1       834-1.40142E+05-8.74636E+03-1.23655E+04 5.17412E+01-3.56087E-08 2.25123E-09
 -1       835-1.32569E+05 7.55518E+03-1.74752E+04-7.74358E+01 1.48070E-09 1.81899E-12
 -1       836-4.42703E+02 1.25825E+05 7.57453E+03-1.10210E+04 9.19954E-10 6.60521E-10
 -1       837 1.66153E+03 1.28174E+05 6.46379E+03-2.21557E+04 1.40176E-09-7.91488E-10
 -1       838-1.65899E+02 1.26482E+05 6.66294E+03-1.09820E+04 1.18257E-09 1.84656E-09
 -1       839 4.26908E+03 1.30124E+05 1.26806E+04-2.21705E+04 1.48157E-09 1.89431E-09
 -1       840-1.28906E+03 1.23866E+05 2.02518E+04-1.10057E+04 1.05592E-09 1.58172E-09
 -1       856-4.17652E+04 3.56243E+03-9.38670E+03-1.96614E+02-1.63507E-09-1.23146E-09
 -1       857-4.56438E+04-4.17914E+03-6.46294E+03 2.15938E+03-1.71605E-09 1.04046E-09
 -1       858-4.32976E+04 4.99385E+02-2.43607E+03-2.02407E+02-2.32490E-09 1.72156E-09
 -1       859-4.38829E+04-5.81997E+02-1.47154E+03 2.16836E+03 3.31546E-10-2.92403E-10
 -1       860-4.35269E+04 6.96183E+01-6.18730E+02-2.05634E+02 4.32948E-10-1.11103E-09
 -1       861-4.36183E+04-7.85679E+01-3.44801E+02 2.17270E+03-2.02736E-09 2.30330E-09
 -1       862-4.35627E+04 9.38451E+00-1.52126E+02-2.06754E+02 3.39201E-09-1.58061E-09
 -1       863-4.35761E+04-7.60626E+00-7.53822E+01 2.17321E+03 5.69990E-09-1.14875E-09
 -1       864-4.35692E+04 1.77824E-01-2.39509E+01-2.06141E+02 2.62729E-09-1.21689E-09
 -1       865-4.35645E+04 8.64652E+00 1.32313E+01 2.16999E+03 3.72972E-09-1.92162E-09
 -1       866-4.35739E+04-6.86222E+00 5.00036E+01-2.03540E+02-5.44816E-10 1.80171E-09
 -1       867-4.35362E+04 5.82157E+01 1.37413E+02 2.16298E+03 1.69929E-09-1.11709E-09
 -1       868-4.35967E+04-4.86713E+01 2.32541E+02-1.99125E+02 1.63112E-09-1.44497E-09
 -1       869-4.33635E+04 4.05350E+02 6.23443E+02 2.15065E+03-7.32740E-10-2.16269E-09
 -1       870-4.37454E+04-3.44805E+02 9.05250E+02-1.91216E+02 1.52426E-09-4.23722E-09
 -1       871-1.92267E+03-4.01783E+03-6.30094E+03 4.13232E+04 1.43700E-09 1.48111E-09
 -1       872-8.29604E+02-5.42386E+03-2.56599E+03 5.35713E+04 2.56136E-09 4.22688E-09
 -1       873-9.81574E+00-4.75524E+03 3.76657E+02 4.12311E+04 1.20667E-09 2.84882E-09
 -1       874 9.85211E+02-3.83811E+03 3.59815E+03 5.35909E+04 2.73837E-09-1.21929E-10
 -1       875 2.32185E+03-5.61642E+03 7.97528E+03 4.13058E+04 5.92081E-10-1.18507E-09
 -1       876 1.03550E+05 1.78280E+04 5.55285E+03 4.19906E+04-1.99861E-09-1.88811E-09
 -1       877 1.03866E+05 1.90477E+04 2.96524E+03 4.36353E+04-2.73826E-09-1.98099E-10
 -1       878 1.04070E+05 1.72125E+04 1.24238E+03 4.24463E+04-2.00203E-10-3.99211E-09
 -1       879 1.03111E+05 1.82958E+04 6.18808E+02 4.36761E+04-4.90672E-10 1.59289E-09
 -1       880 1.04109E+05 1.72049E+04 2.88131E+02 4.24649E+04 7.13726E-10 2.41792E-09
 -1       881 1.03061E+05 1.82641E+04 1.53390E+02 4.36694E+04 2.61389E-09 1.47163E-09
 -1       882 1.04113E+05 1.72090E+04 9.74034E+01 4.24654E+04 2.32603E-09 3.00562E-09
 -1       883 1.03057E+05 1.82627E+04 1.03485E+02 4.36678E+04 2.46501E-10 4.95200E-09
 -1       884 1.04111E+05 1.72076E+04 1.63553E+02 4.24655E+04 1.49271E-10 2.15550E-09
 -1       885 1.03070E+05 1.82651E+04 3.28172E+02 4.36721E+04 2.25165E-09 2.96700E-09
 -1       886 1.04099E+05 1.71980E+04 6.61146E+02 4.24642E+04 1.37209E-09-2.81733E-09
 -1       887 1.03187E+05 1.83412E+04 1.44414E+03 4.36885E+04-1.83172E-09-5.61710E-09
 -1       888 1.04007E+05 1.72144E+04 2.91005E+03 4.24180E+04 5.62324E-11 1.06729E-09
 -1       889 1.04921E+05 2.01415E+04 6.95224E+03 4.36327E+04 1.05217E-09 9.13280E-09
 -1       890 1.02820E+05 1.86237E+04 1.30206E+04 4.13089E+04 1.04683E-09 2.21189E-09
 -1       891-6.07172E+01-5.89046E+04-6.92569E+02 1.12050E+04 4.22460E-10 4.95163E-10
 -1       892-1.06017E+02-5.90737E+04-7.54795E+02 1.69615E+04 3.74939E-10-3.37718E-09
 -1       893-1.27567E+01-5.89287E+04-1.07945E+03 1.12069E+04 8.16385E-10 2.25828E-09
 -1       894-5.81510E+02-5.94949E+04-2.24281E+03 1.69019E+04-2.23417E-09-1.43848E-09
 -1       895-4.52003E+02-5.84673E+04-3.95141E+03 1.12642E+04-9.87995E-10-3.88354E-09
 -1       956-1.30029E+05-1.87588E+03-4.72175E+03 8.59243E+03-2.75395E-09-1.88163E-09
 -1       957-1.30960E+05-6.34316E+02-2.42417E+03 1.03410E+04-1.65301E-09-3.72756E-09
 -1       958-1.30445E+05-5.18720E+01-1.09196E+03 8.53692E+03-2.30648E-09-1.95848E-09
 -1       959-1.30518E+05-1.19105E+01-5.57863E+02 1.04010E+04-8.61655E-09 3.31545E-09
 -1       960-1.30480E+05 1.27508E+01-2.71819E+02 8.53193E+03-6.24550E-09 2.12663E-09
 -1       961-1.30483E+05 1.02467E+01-1.44182E+02 1.04066E+04-3.09672E-09-1.65073E-10
 -1       962-1.30486E+05 9.80659E+00-8.22870E+01 8.53135E+03-2.16630E-09-6.05610E-10
 -1       963-1.30480E+05 1.00401E+01-6.57085E+01 1.04073E+04-3.33694E-09-3.80339E-10
 -1       964-1.30487E+05 1.02297E+01-7.92438E+01 8.53114E+03-1.05882E-09-3.92708E-09
 -1       965-1.30485E+05 1.12402E+01-1.36499E+02 1.04073E+04 9.34927E-10 1.67518E-10
 -1       966-1.30483E+05 1.39715E+01-2.55904E+02 8.53139E+03-1.29984E-09-1.68575E-09
 -1       967-1.30519E+05-8.55757E+00-5.24694E+02 1.04042E+04 8.61348E-10-2.42557E-09
 -1       968-1.30451E+05-4.58108E+01-1.02659E+03 8.53427E+03 4.81123E-10-1.71894E-10
 -1       969-1.30937E+05-5.92859E+02-2.27930E+03 1.03692E+04-8.44921E-10 1.41696E-10
 -1       970-1.30061E+05-1.76018E+03-4.43932E+03 8.56715E+03 8.24230E-10 1.71485E-09
 -1       971-1.23609E+05-6.54556E+02-3.63948E+03 6.10443E+03-1.41767E-09-1.39998E-09
 -1       972-1.24494E+05-4.71660E+02-1.98240E+03 8.51293E+03-8.29459E-10 5.55929E-10
 -1       973-1.24011E+05-5.81355E+00-8.87291E+02 6.05502E+03-9.89530E-10 1.89016E-09
 -1       974-1.24071E+05-8.42998E+00-4.59817E+02 8.56579E+03 7.10202E-10 9.33937E-10
 -1       975-1.24041E+05 9.57325E+00-2.29098E+02 6.05124E+03 7.57154E-10 1.07838E-09
 -1       976-1.24044E+05 9.14874E+00-1.31258E+02 8.57007E+03-4.42526E-10 1.30456E-09
 -1       977-1.24045E+05 8.38161E+00-9.33569E+01 6.05071E+03 1.41176E-09 1.59918E-09
 -1       978-1.24044E+05 1.04036E+01-1.06799E+02 8.57079E+03 5.49360E-09 6.41819E-10
 -1       979-1.24044E+05 1.07501E+01-1.69356E+02 6.05051E+03 1.69467E-09-1.08270E-09
 -1       980-1.24056E+05 1.12173E+01-3.25605E+02 8.57083E+03 2.59953E-09-3.70011E-09
 -1       981-1.24034E+05 1.89284E+01-6.29784E+02 6.05066E+03 4.15582E-10-2.07194E-10
 -1       982-1.24143E+05-3.48545E+01-1.30128E+03 8.56864E+03-6.55916E-10-4.65786E-10
 -1       983-1.23956E+05-2.06763E+01-2.52796E+03 6.05276E+03 1.36140E-09 2.97996E-09
 -1       984-1.25360E+05-1.35384E+03-5.66081E+03 8.53510E+03-2.66834E-09 2.48974E-11
 -1       985-1.22813E+05-1.86969E+03-1.03950E+04 6.08558E+03 1.45792E-09 7.45786E-11
 -3
    1PSTEP                         3           2           1          
  100CL  102 3.12500E-01         409                     0    2           1
 -4  DISP        4    1
 -5  D1          1    2    1    0
 -5  D2          1    2    2    0
 -5  D3          1    2    3    0
 -5  ALL         1    2    0    0    1ALL
 -1         1 8.16691E-05 0.00000E+00 0.00000E+00
 -1         2 7.55422E-05 7.45975E-30 1.65436E-24
 -1         3 6.96962E-05 4.66227E-27 6.61744E-24
 -1         5 5.01776E-05 2.69086E-26 0.00000E+00
 -1         8 6.51592E-05-5.91483E-07 0.00000E+00
 -1         9 6.63195E-05 3.65678E-07 0.00000E+00
 -1        10 6.45945E-05-9.53113E-07 0.00000E+00
 -1        12 4.98231E-05 3.40524E-07 0.00000E+00
 -1        15 4.55145E-05-6.38745E-07 0.00000E+00
 -1        16 4.71510E-05 2.84010E-07 0.00000E+00
 -1        17 4.81562E-05-2.00093E-06 0.00000E+00
 -1        18 4.81012E-05 1.41294E-07 0.00000E+00
 -1        19 4.87598E-05 6.79189E-07 0.00000E+00
 -1        20 4.88493E-05 1.00854E-05 0.00000E+00
 -1        21 4.85124E-05 1.90694E-05 0.00000E+00
 -1        24 1.22991E-05-2.67843E-06 0.00000E+00
 -1        25 4.69722E-05 2.19301E-07 0.00000E+00
 -1        26 4.75930E-05 9.46345E-07 0.00000E+00
 -1        27 4.66514E-05 8.57138E-06 0.00000E+00
 -1        28 4.63469E-05 1.87783E-05 0.00000E+00
 -1        32 0.00000E+00 0.00000E+00 0.00000E+00
 -1        33 4.56130E-05 1.26914E-06 0.00000E+00
 -1        34 4.47026E-05 8.55793E-06 0.00000E+00
 -1        35 4.38375E-05 1.86248E-05 0.00000E+00
 -1        51 8.05951E-05-9.80697E-08 0.00000E+00
 -1        52 7.86046E-05-1.93354E-07 0.00000E+00
 -1        53 7.58781E-05-2.89173E-07 0.00000E+00
 -1        54 7.26030E-05-3.86442E-07 0.00000E+00
 -1        55 6.89672E-05-4.85770E-07 1.75776E-24
 -1        56 8.09241E-05-4.65423E-07 0.00000E+00
 -1        57 8.02620E-05-1.23605E-06-1.32349E-23
 -1        58 7.96832E-05-2.22446E-06 2.64698E-23
 -1        59 7.91512E-05-3.35203E-06 0.00000E+00
 -1        60 7.86380E-05-4.53059E-06 0.00000E+00
 -1        61 7.81103E-05-5.67294E-06-1.32349E-23
 -1        62 7.75366E-05-6.69293E-06-2.64698E-23
 -1        63 7.68858E-05-7.50712E-06 0.00000E+00
 -1        64 7.61297E-05-8.04017E-06 0.00000E+00
 -1        65 7.52421E-05-8.22225E-06 0.00000E+00
 -1        66 7.42019E-05-7.99761E-06 0.00000E+00
 -1        67 7.29917E-05-7.31821E-06 0.00000E+00
 -1        68 7.15994E-05-6.15461E-06 0.00000E+00
 -1        69 7.00213E-05-4.48511E-06 0.00000E+00
 -1        70 6.82514E-05-2.31169E-06-1.32349E-23
 -1        86 7.52985E-05 6.57217E-08 0.00000E+00
 -1        87 7.45669E-05 1.30849E-07-8.27181E-25
 -1        88 7.33297E-05 1.95444E-07 8.27181E-25
 -1        89 7.15677E-05 2.56990E-07 0.00000E+00
 -1        90 6.92439E-05 3.18205E-07 0.00000E+00
 -1       121 6.95540E-05-1.58337E-07-3.30872E-24
 -1       122 6.91277E-05-3.16755E-07 1.65436E-24
 -1       123 6.84177E-05-4.75335E-07-6.61744E-24
 -1       124 6.74247E-05-6.34181E-07 1.65436E-24
 -1       125 6.61497E-05-7.93328E-07 3.30872E-24
 -1       191 5.01677E-05 5.67582E-08 0.00000E+00
 -1       192 5.01382E-05 1.13515E-07-1.65436E-24
 -1       193 5.00889E-05 1.70272E-07 0.00000E+00
 -1       194 5.00200E-05 2.27026E-07 0.00000E+00
 -1       195 4.99314E-05 2.83778E-07 0.00000E+00
 -1       251 6.52173E-05 2.10600E-06 0.00000E+00
 -1       252 6.52899E-05 3.66365E-06 0.00000E+00
 -1       253 6.53628E-05 4.29912E-06-8.27181E-25
 -1       254 6.54383E-05 4.22685E-06 0.00000E+00
 -1       255 6.55136E-05 3.60887E-06 1.65436E-24
 -1       256 6.55891E-05 2.60536E-06 0.00000E+00
 -1       257 6.56644E-05 1.34778E-06 0.00000E+00
 -1       258 6.57396E-05-3.32285E-08-8.27181E-25
 -1       259 6.58148E-05-1.41631E-06 0.00000E+00
 -1       260 6.58900E-05-2.68007E-06-8.27181E-25
 -1       261 6.59655E-05-3.69419E-06 0.00000E+00
 -1       262 6.60408E-05-4.32757E-06 8.27181E-25
 -1       263 6.61162E-05-4.42069E-06 0.00000E+00
 -1       264 6.61890E-05-3.81225E-06 2.58494E-26
 -1       265 6.62617E-05-2.28893E-06 0.00000E+00
 -1       266 6.18851E-05-6.07546E-07 0.00000E+00
 -1       267 5.86110E-05-6.14426E-07 0.00000E+00
 -1       268 5.53369E-05-6.21886E-07-8.27181E-25
 -1       269 5.20627E-05-6.27624E-07-2.06795E-25
 -1       270 4.87886E-05-6.33322E-07-2.06795E-25
 -1       271 6.31726E-05 1.84568E-06 2.64698E-23
 -1       272 6.14887E-05 3.38612E-06 0.00000E+00
 -1       273 6.01010E-05 4.14368E-06 0.00000E+00
 -1       274 5.89609E-05 4.22791E-06 0.00000E+00
 -1       275 5.80272E-05 3.76082E-06 2.64698E-23
 -1       276 5.72515E-05 2.86944E-06-1.32349E-23
 -1       277 5.65846E-05 1.68672E-06-2.64698E-23
 -1       278 5.59757E-05 3.48956E-07 1.32349E-23
 -1       279 5.53729E-05-1.00549E-06 0.00000E+00
 -1       280 5.47246E-05-2.23804E-06 0.00000E+00
 -1       281 5.39796E-05-3.21178E-06 0.00000E+00
 -1       282 5.30882E-05-3.79288E-06-1.32349E-23
 -1       283 5.20015E-05-3.85281E-06 2.64698E-23
 -1       284 5.06765E-05-3.26825E-06-1.32349E-23
 -1       285 4.90656E-05-1.92677E-06-2.64698E-23
 -1       301 6.30716E-05 3.48013E-07-3.30872E-24
 -1       302 5.98255E-05 3.40236E-07-1.65436E-24
 -1       303 5.65956E-05 3.32767E-07-3.30872E-24
 -1       304 5.33968E-05 3.24247E-07 0.00000E+00
 -1       305 5.02438E-05 3.14228E-07 0.00000E+00
 -1       306 6.42658E-05 2.75542E-06 2.64698E-23
 -1       307 6.25266E-05 4.21116E-06 1.32349E-23
 -1       308 6.11317E-05 4.75869E-06-2.64698E-23
 -1       309 6.00569E-05 4.43604E-06 0.00000E+00
 -1       310 5.92597E-05 3.37225E-06-2.64698E-23
 -1       311 5.86824E-05 1.71706E-06 0.00000E+00
 -1       312 5.82477E-05-3.20342E-07 0.00000E+00
 -1       313 5.78732E-05-2.51928E-06 0.00000E+00
 -1       314 5.74704E-05-4.64264E-06 0.00000E+00
 -1       315 5.69520E-05-6.45565E-06-1.32349E-23
 -1       316 5.62417E-05-7.75498E-06 2.64698E-23
 -1       317 5.52702E-05-8.35286E-06 0.00000E+00
 -1       318 5.39916E-05-8.13176E-06 0.00000E+00
 -1       319 5.23768E-05-6.99693E-06 1.32349E-23
 -1       320 5.04152E-05-4.94955E-06 0.00000E+00
 -1       336 6.27231E-05-1.12593E-06 6.61744E-24
 -1       337 6.05002E-05-1.29967E-06 0.00000E+00
 -1       338 5.79282E-05-1.47417E-06 3.30872E-24
 -1       339 5.50109E-05-1.64933E-06-3.30872E-24
 -1       340 5.17520E-05-1.82553E-06 0.00000E+00
 -1       406 4.96950E-05 3.97261E-07-3.30872E-24
 -1       407 4.95473E-05 4.53977E-07 0.00000E+00
 -1       408 4.93799E-05 5.10655E-07 3.30872E-24
 -1       409 4.91928E-05 5.67226E-07 0.00000E+00
 -1       410 4.89860E-05 6.23577E-07 0.00000E+00
 -1       521 4.43307E-05 1.99313E-06 0.00000E+00
 -1       522 4.19186E-05 2.43056E-06-2.64698E-23
 -1       523 3.99632E-05 1.66384E-06 0.00000E+00
 -1       524 3.84077E-05-2.03932E-07 0.00000E+00
 -1       525 3.71622E-05-2.90312E-06-5.29396E-23
 -1       526 3.61086E-05-6.12338E-06 2.64698E-23
 -1       527 3.51050E-05-9.47821E-06-5.29396E-23
 -1       528 3.40047E-05-1.25746E-05 0.00000E+00
 -1       529 3.26754E-05-1.50565E-05 0.00000E+00
 -1       530 3.09962E-05-1.66012E-05 2.64698E-23
 -1       531 2.88957E-05-1.70210E-05-5.29396E-23
 -1       532 2.63265E-05-1.61886E-05 2.64698E-23
 -1       533 2.33053E-05-1.41575E-05-5.29396E-23
 -1       534 1.98855E-05-1.10413E-05 0.00000E+00
 -1       535 1.61551E-05-7.11788E-06 0.00000E+00
 -1       536 4.81427E-05 1.35172E-06 0.00000E+00
 -1       537 4.81366E-05 3.88759E-06 0.00000E+00
 -1       538 4.81316E-05 5.68624E-06-4.13590E-25
 -1       539 4.81286E-05 6.82732E-06 0.00000E+00
 -1       540 4.81260E-05 7.39370E-06 2.06795E-25
 -1       541 4.81238E-05 7.46831E-06-5.16988E-26
 -1       542 4.81216E-05 7.13639E-06 0.00000E+00
 -1       543 4.81193E-05 6.48324E-06 0.00000E+00
 -1       544 4.81168E-05 5.59563E-06 5.16988E-26
 -1       545 4.81141E-05 4.56036E-06 0.00000E+00
 -1       546 4.81115E-05 3.46493E-06-5.16988E-26
 -1       547 4.81089E-05 2.39683E-06 0.00000E+00
 -1       548 4.81064E-05 1.44343E-06 2.58494E-26
 -1       549 4.81042E-05 6.92079E-07 0.00000E+00
 -1       550 4.81022E-05 2.29236E-07-2.06795E-25
 -1       551 4.33997E-05-2.10445E-06 0.00000E+00
 -1       552 3.77105E-05-2.21093E-06-8.27181E-25
 -1       553 3.14199E-05-2.32096E-06-1.65436E-24
 -1       554 2.48642E-05-2.43420E-06 3.30872E-24
 -1       555 1.83793E-05-2.54883E-06 0.00000E+00
 -1       556 4.69101E-05 1.23185E-06 0.00000E+00
 -1       557 4.59580E-05 3.70200E-06 6.61744E-24
 -1       558 4.52680E-05 5.47992E-06 0.00000E+00
 -1       559 4.48107E-05 6.64156E-06 0.00000E+00
 -1       560 4.45569E-05 7.26262E-06 0.00000E+00
 -1       561 4.44776E-05 7.41925E-06 3.30872E-24
 -1       562 4.45441E-05 7.18764E-06 0.00000E+00
 -1       563 4.47275E-05 6.64403E-06 0.00000E+00
 -1       564 4.49991E-05 5.86473E-06 3.30872E-24
 -1       565 4.53305E-05 4.92604E-06 0.00000E+00
 -1       566 4.56929E-05 3.90429E-06 0.00000E+00
 -1       567 4.60578E-05 2.87585E-06 0.00000E+00
 -1       568 4.63966E-05 1.91704E-06 0.00000E+00
 -1       569 4.66809E-05 1.10411E-06 0.00000E+00
 -1       570 4.68821E-05 5.13337E-07 0.00000E+00
 -1       571 4.81411E-05 2.01079E-07 0.00000E+00
 -1       572 4.81820E-05 2.33663E-07 1.03398E-25
 -1       573 4.82231E-05 2.43888E-07-1.24077E-24
 -1       574 4.82644E-05 2.36851E-07-8.27181E-25
 -1       575 4.83056E-05 2.17672E-07 0.00000E+00
 -1       576 4.83469E-05 1.91502E-07 4.13590E-25
 -1       577 4.83882E-05 1.63499E-07-1.65436E-24
 -1       578 4.84296E-05 1.38825E-07 0.00000E+00
 -1       579 4.84709E-05 1.22639E-07 0.00000E+00
 -1       580 4.85122E-05 1.20103E-07 0.00000E+00
 -1       581 4.85535E-05 1.36378E-07-1.65436E-24
 -1       582 4.85948E-05 1.76619E-07 0.00000E+00
 -1       583 4.86361E-05 2.45974E-07 0.00000E+00
 -1       584 4.86774E-05 3.49542E-07 0.00000E+00
 -1       585 4.87187E-05 4.92389E-07-3.30872E-24
 -1       586 4.78989E-05 1.55109E-07 0.00000E+00
 -1       587 4.76792E-05 1.68575E-07-1.03398E-25
 -1       588 4.74592E-05 1.81890E-07-4.13590E-25
 -1       589 4.72565E-05 1.94994E-07 0.00000E+00
 -1       590 4.70885E-05 2.07740E-07 0.00000E+00
 -1       591 4.80596E-05 2.22014E-07 0.00000E+00
 -1       592 4.80249E-05 2.80218E-07 2.06795E-25
 -1       593 4.79969E-05 3.20187E-07 4.13590E-25
 -1       594 4.79742E-05 3.45781E-07 2.06795E-25
 -1       595 4.79553E-05 3.60910E-07-4.13590E-25
 -1       596 4.79388E-05 3.69455E-07 2.06795E-25
 -1       597 4.79234E-05 3.75295E-07 0.00000E+00
 -1       598 4.79075E-05 3.82307E-07-2.06795E-25
 -1       599 4.78897E-05 3.94365E-07-4.13590E-25
 -1       600 4.78685E-05 4.15347E-07 2.06795E-25
 -1       601 4.78426E-05 4.49126E-07 2.06795E-25
 -1       602 4.78105E-05 4.99584E-07 2.06795E-25
 -1       603 4.77707E-05 5.70599E-07 1.55096E-25
 -1       604 4.77219E-05 6.66084E-07 5.16988E-26
 -1       605 4.76626E-05 7.89897E-07 4.13590E-25
 -1       606 4.87675E-05 9.59949E-07 0.00000E+00
 -1       607 4.87737E-05 1.29969E-06 0.00000E+00
 -1       608 4.87795E-05 1.69496E-06 0.00000E+00
 -1       609 4.87851E-05 2.14183E-06 0.00000E+00
 -1       610 4.87907E-05 2.63641E-06 0.00000E+00
 -1       611 4.87961E-05 3.17470E-06-8.27181E-25
 -1       612 4.88016E-05 3.75272E-06 0.00000E+00
 -1       613 4.88070E-05 4.36650E-06 8.27181E-25
 -1       614 4.88124E-05 5.01204E-06 0.00000E+00
 -1       615 4.88177E-05 5.68536E-06 0.00000E+00
 -1       616 4.88231E-05 6.38247E-06 0.00000E+00
 -1       617 4.88284E-05 7.09939E-06 0.00000E+00
 -1       618 4.88337E-05 7.83213E-06-4.13590E-25
 -1       619 4.88390E-05 8.57671E-06 0.00000E+00
 -1       620 4.88442E-05 9.32914E-06 0.00000E+00
 -1       621 4.85369E-05 7.23746E-07 0.00000E+00
 -1       622 4.83299E-05 7.68520E-07 0.00000E+00
 -1       623 4.81353E-05 8.13287E-07 0.00000E+00
 -1       624 4.79499E-05 8.57984E-07 8.27181E-25
 -1       625 4.77703E-05 9.02603E-07 8.27181E-25
 -1       626 4.87022E-05 9.73962E-07 0.00000E+00
 -1       627 4.86267E-05 1.31758E-06 0.00000E+00
 -1       628 4.85346E-05 1.70552E-06 0.00000E+00
 -1       629 4.84277E-05 2.13294E-06 0.00000E+00
 -1       630 4.83078E-05 2.59502E-06 0.00000E+00
 -1       631 4.81767E-05 3.08688E-06-8.27181E-25
 -1       632 4.80363E-05 3.60364E-06 3.30872E-24
 -1       633 4.78883E-05 4.14044E-06 8.27181E-25
 -1       634 4.77347E-05 4.69241E-06-1.65436E-24
 -1       635 4.75772E-05 5.25466E-06-8.27181E-25
 -1       636 4.74176E-05 5.82234E-06 0.00000E+00
 -1       637 4.72578E-05 6.39057E-06 8.27181E-25
 -1       638 4.70996E-05 6.95446E-06 8.27181E-25
 -1       639 4.69448E-05 7.50916E-06-4.13590E-25
 -1       640 4.67950E-05 8.04978E-06 0.00000E+00
 -1       656 4.82210E-05 9.83911E-06 3.30872E-24
 -1       657 4.78148E-05 9.58293E-06-3.30872E-24
 -1       658 4.75445E-05 9.32753E-06 0.00000E+00
 -1       659 4.73229E-05 9.07235E-06-3.30872E-24
 -1       660 4.70562E-05 8.81635E-06-3.30872E-24
 -1       661 4.86168E-05 1.08266E-05 0.00000E+00
 -1       662 4.83982E-05 1.15362E-05 0.00000E+00
 -1       663 4.81910E-05 1.22150E-05-8.27181E-25
 -1       664 4.79952E-05 1.28644E-05 0.00000E+00
 -1       665 4.78100E-05 1.34856E-05-1.65436E-24
 -1       666 4.76350E-05 1.40798E-05 8.27181E-25
 -1       667 4.74696E-05 1.46482E-05-1.65436E-24
 -1       668 4.73136E-05 1.51919E-05 0.00000E+00
 -1       669 4.71664E-05 1.57121E-05 0.00000E+00
 -1       670 4.70276E-05 1.62098E-05 0.00000E+00
 -1       671 4.68969E-05 1.66860E-05 1.65436E-24
 -1       672 4.67738E-05 1.71418E-05 0.00000E+00
 -1       673 4.66579E-05 1.75781E-05 0.00000E+00
 -1       674 4.65486E-05 1.79958E-05 4.13590E-25
 -1       675 4.64460E-05 1.83959E-05-4.13590E-25
 -1       676 4.81509E-05 1.90206E-05 0.00000E+00
 -1       677 4.77895E-05 1.89718E-05-8.27181E-25
 -1       678 4.74283E-05 1.89230E-05 0.00000E+00
 -1       679 4.70674E-05 1.88744E-05 0.00000E+00
 -1       680 4.67069E-05 1.88258E-05 0.00000E+00
 -1       771 9.85546E-06 1.94757E-06 2.64698E-23
 -1       772 7.72624E-06 5.72817E-06-1.32349E-23
 -1       773 5.89805E-06 8.71310E-06 0.00000E+00
 -1       774 4.35037E-06 1.09545E-05 0.00000E+00
 -1       775 3.06312E-06 1.25053E-05 2.64698E-23
 -1       776 2.01551E-06 1.34196E-05 0.00000E+00
 -1       777 1.18653E-06 1.37524E-05 0.00000E+00
 -1       778 5.54883E-07 1.35595E-05 0.00000E+00
 -1       779 9.91312E-08 1.28974E-05 0.00000E+00
 -1       780-2.02424E-07 1.18233E-05 0.00000E+00
 -1       781-3.71535E-07 1.03952E-05 0.00000E+00
 -1       782-4.30158E-07 8.67145E-06-1.32349E-23
 -1       783-4.00280E-07 6.71070E-06 0.00000E+00
 -1       784-3.03984E-07 4.57221E-06 0.00000E+00
 -1       785-1.63430E-07 2.31536E-06-2.64698E-23
 -1       786 4.70087E-05 2.17698E-07 4.13590E-25
 -1       787 4.70474E-05 2.17486E-07 4.13590E-25
 -1       788 4.70860E-05 2.19169E-07 0.00000E+00
 -1       789 4.71250E-05 2.23259E-07 0.00000E+00
 -1       790 4.71640E-05 2.30477E-07 0.00000E+00
 -1       791 4.72030E-05 2.41552E-07 4.13590E-25
 -1       792 4.72421E-05 2.57554E-07 8.27181E-25
 -1       793 4.72812E-05 2.79563E-07 0.00000E+00
 -1       794 4.73203E-05 3.09192E-07 1.65436E-24
 -1       795 4.73594E-05 3.48065E-07 8.27181E-25
 -1       796 4.73985E-05 3.98630E-07 0.00000E+00
 -1       797 4.74375E-05 4.63354E-07-4.13590E-25
 -1       798 4.74766E-05 5.45960E-07-8.27181E-25
 -1       799 4.75156E-05 6.50201E-07 0.00000E+00
 -1       800 4.75545E-05 7.81756E-07 0.00000E+00
 -1       801 4.38001E-05 2.21164E-07-4.13590E-25
 -1       802 3.43603E-05 1.85124E-07 0.00000E+00
 -1       803 2.19581E-05 1.19486E-07 0.00000E+00
 -1       804 9.89790E-06 5.33826E-08 1.65436E-24
 -1       805 1.47790E-06 2.25076E-08-6.61744E-24
 -1       806 4.69247E-05 1.91176E-07-8.27181E-25
 -1       807 4.68752E-05 1.63269E-07 8.27181E-25
 -1       808 4.68241E-05 1.38613E-07 0.00000E+00
 -1       809 4.67706E-05 1.19781E-07 0.00000E+00
 -1       810 4.67139E-05 1.09337E-07 0.00000E+00
 -1       811 4.66530E-05 1.09810E-07 0.00000E+00
 -1       812 4.65872E-05 1.23726E-07 1.65436E-24
 -1       813 4.65153E-05 1.53605E-07 0.00000E+00
 -1       814 4.64364E-05 2.01966E-07 8.27181E-25
 -1       815 4.63498E-05 2.71325E-07 4.13590E-25
 -1       816 4.62542E-05 3.64198E-07 0.00000E+00
 -1       817 4.61490E-05 4.83100E-07 8.27181E-25
 -1       818 4.60330E-05 6.30545E-07 0.00000E+00
 -1       819 4.59055E-05 8.09039E-07 0.00000E+00
 -1       820 4.57656E-05 1.02109E-06 8.27181E-25
 -1       821 4.75375E-05 1.14327E-06 0.00000E+00
 -1       822 4.74786E-05 1.37201E-06 4.13590E-25
 -1       823 4.74199E-05 1.64296E-06 0.00000E+00
 -1       824 4.73606E-05 1.96638E-06 0.00000E+00
 -1       825 4.73012E-05 2.34597E-06 1.65436E-24
 -1       826 4.72417E-05 2.78525E-06 8.27181E-25
 -1       827 4.71821E-05 3.28024E-06 0.00000E+00
 -1       828 4.71225E-05 3.82683E-06 0.00000E+00
 -1       829 4.70629E-05 4.41440E-06-1.65436E-24
 -1       830 4.70032E-05 5.03222E-06-8.27181E-25
 -1       831 4.69436E-05 5.66578E-06 0.00000E+00
 -1       832 4.68841E-05 6.30050E-06 0.00000E+00
 -1       833 4.68246E-05 6.92167E-06-1.65436E-24
 -1       834 4.67658E-05 7.51462E-06-4.13590E-25
 -1       835 4.67069E-05 8.06820E-06 4.13590E-25
 -1       836 4.73531E-05 1.00008E-06 1.65436E-24
 -1       837 4.70422E-05 1.05500E-06 0.00000E+00
 -1       838 4.66865E-05 1.10983E-06 1.65436E-24
 -1       839 4.63123E-05 1.16430E-06 0.00000E+00
 -1       840 4.59457E-05 1.21869E-06 0.00000E+00
 -1       856 4.66345E-05 9.08399E-06 1.03398E-25
 -1       857 4.66156E-05 9.66147E-06 0.00000E+00
 -1       858 4.65969E-05 1.02936E-05 0.00000E+00
 -1       859 4.65778E-05 1.09700E-05 0.00000E+00
 -1       860 4.65586E-05 1.16804E-05 4.13590E-25
 -1       861 4.65394E-05 1.24145E-05 2.06795E-25
 -1       862 4.65201E-05 1.31619E-05 0.00000E+00
 -1       863 4.65008E-05 1.39122E-05-2.06795E-25
 -1       864 4.64816E-05 1.46551E-05 4.13590E-25
 -1       865 4.64623E-05 1.53801E-05-2.06795E-25
 -1       866 4.64430E-05 1.60770E-05 0.00000E+00
 -1       867 4.64238E-05 1.67354E-05 4.13590E-25
 -1       868 4.64046E-05 1.73450E-05 0.00000E+00
 -1       869 4.63854E-05 1.78955E-05 0.00000E+00
 -1       870 4.63662E-05 1.83766E-05 0.00000E+00
 -1       871 4.62607E-05 8.57090E-06 0.00000E+00
 -1       872 4.59322E-05 8.56912E-06 0.00000E+00
 -1       873 4.56392E-05 8.56711E-06 0.00000E+00
 -1       874 4.53546E-05 8.56479E-06-5.16988E-26
 -1       875 4.50513E-05 8.56217E-06 2.06795E-25
 -1       876 4.65158E-05 9.08933E-06-1.65436E-24
 -1       877 4.63697E-05 9.63884E-06 0.00000E+00
 -1       878 4.62133E-05 1.02161E-05 0.00000E+00
 -1       879 4.60480E-05 1.08175E-05 0.00000E+00
 -1       880 4.58749E-05 1.14395E-05 0.00000E+00
 -1       881 4.56955E-05 1.20786E-05-8.27181E-25
 -1       882 4.55110E-05 1.27312E-05 0.00000E+00
 -1       883 4.53228E-05 1.33937E-05-8.27181E-25
 -1       884 4.51322E-05 1.40626E-05-1.65436E-24
 -1       885 4.49405E-05 1.47344E-05 8.27181E-25
 -1       886 4.47490E-05 1.54055E-05-1.65436E-24
 -1       887 4.45591E-05 1.60723E-05 0.00000E+00
 -1       888 4.43720E-05 1.67313E-05 0.00000E+00
 -1       889 4.41889E-05 1.73789E-05-4.13590E-25
 -1       890 4.40111E-05 1.80115E-05-8.27181E-25
 -1       891 4.59994E-05 1.87526E-05-8.27181E-25
 -1       892 4.56407E-05 1.87268E-05-4.13590E-25
 -1       893 4.52580E-05 1.87011E-05 0.00000E+00
 -1       894 4.48384E-05 1.86754E-05 2.06795E-25
 -1       895 4.43691E-05 1.86497E-05 3.10193E-25
 -1       956 4.55571E-05 1.59075E-06-8.27181E-25
 -1       957 4.55004E-05 1.94883E-06 0.00000E+00
 -1       958 4.54434E-05 2.33960E-06 8.27181E-25
 -1       959 4.53864E-05 2.75904E-06 8.27181E-25
 -1       960 4.53293E-05 3.20314E-06 1.65436E-24
 -1       961 4.52722E-05 3.66784E-06 8.27181E-25
 -1       962 4.52151E-05 4.14910E-06 0.00000E+00
 -1       963 4.51580E-05 4.64288E-06 0.00000E+00
 -1       964 4.51008E-05 5.14512E-06-1.65436E-24
 -1       965 4.50437E-05 5.65177E-06 0.00000E+00
 -1       966 4.49866E-05 6.15879E-06 0.00000E+00
 -1       967 4.49294E-05 6.66213E-06 8.27181E-25
 -1       968 4.48724E-05 7.15773E-06 0.00000E+00
 -1       969 4.48154E-05 7.64156E-06 8.27181E-25
 -1       970 4.47586E-05 8.10960E-06 0.00000E+00
 -1       971 4.46492E-05 9.01851E-06 0.00000E+00
 -1       972 4.45951E-05 9.52726E-06-4.13590E-25
 -1       973 4.45409E-05 1.00788E-05 0.00000E+00
 -1       974 4.44866E-05 1.06677E-05 0.00000E+00
 -1       975 4.44322E-05 1.12883E-05-1.65436E-24
 -1       976 4.43778E-05 1.19352E-05 0.00000E+00
 -1       977 4.43234E-05 1.26027E-05 0.00000E+00
 -1       978 4.42690E-05 1.32854E-05-8.27181E-25
 -1       979 4.42146E-05 1.39776E-05 1.65436E-24
 -1       980 4.41601E-05 1.46738E-05 8.27181E-25
 -1       981 4.41057E-05 1.53685E-05 0.00000E+00
 -1       982 4.40514E-05 1.60561E-05 8.27181E-25
 -1       983 4.39971E-05 1.67311E-05 0.00000E+00
 -1       984 4.39431E-05 1.73879E-05-8.27181E-25
 -1       985 4.38893E-05 1.80209E-05 0.00000E+00
 -3
    1PSTEP                         4           2           1          
  100CL  102 3.12500E-01         409                     0    2           1
 -4  STRESS      6    1
 -5  SXX         1    4    1    1
 -5  SYY         1    4    2    2
 -5  SZZ         1    4    3    3
 -5  SXY         1    4    1    2
 -5  SYZ         1    4    2    3
 -5  SZX         1    4    3    1
 -1         1-1.07453E+06-4.95319E+05-2.18398E+05-6.97461E+05 6.91216E-11-2.46655E-09
 -1         2 1.80142E+03 1.90427E+05 5.88107E+03 3.94793E+02-8.81926E-11-1.19979E-09
 -1         3-3.10532E+01-4.52538E+05 1.04589E+02-1.03508E+02-1.38527E-10 1.10676E-08
 -1         5-3.17958E+00 1.62395E+05 4.25274E+00-2.28480E-02 8.73021E-11 3.16868E-09
 -1         8-5.01689E+05-2.19254E+05-1.43399E+04-3.85274E+05 9.09495E-12 9.78616E-10
 -1         9-8.66396E+05-2.25621E+05-8.33153E+04-3.00892E+05 2.33267E-09 2.71248E-09
 -1        10-3.43829E+02-4.71451E+05-6.02316E+02-6.91427E+02-2.08956E-09-4.03239E-09
 -1        12-1.43438E+00 1.62404E+05 1.37875E+02 1.11194E-01 1.33554E-10 4.27190E-09
 -1        15 1.35646E+03 7.45444E+02 4.38472E+03 1.92053E+00-2.10603E-09-6.96798E-07
 -1        16-2.45495E+06-7.89508E+05-3.81653E+05-8.02543E+05 7.27111E-09-8.56623E-09
 -1        17-5.42559E+05-3.34633E+05-1.04412E+05-3.15569E+05-3.62634E-09-1.50612E-09
 -1        18 1.88660E+04 1.69659E+03-7.75254E+03-3.82398E+04 4.95675E-10 1.11595E-09
 -1        19 5.08899E+04 6.06872E+04-2.81713E+02 9.97007E+03-4.28645E-10-2.51130E-09
 -1        20-2.11107E+04-2.40536E+05-5.30388E+04 1.78779E+04 2.67475E-09-2.20401E-10
 -1        21-2.27743E+01-1.39534E+05-4.50704E+02-3.46003E+01-4.70388E-09-5.97012E-09
 -1        24-2.15676E+06-7.49041E+05-3.07755E+05-9.13439E+05-1.04616E-08-5.06407E-09
 -1        25 1.89428E+04-3.11257E+03 1.12239E+04-6.90704E+04 2.41653E-10 2.25537E-09
 -1        26-1.17720E+04 4.14725E+04-8.22526E+03-5.93157E+03 1.02900E-09 3.07770E-09
 -1        27-3.85184E+04-1.31986E+05-4.95153E+04 2.97444E+04 3.59887E-09-3.19081E-10
 -1        28 1.07837E+04-3.85450E+04 7.87683E+03 1.23662E+04 2.09475E-09-2.64755E-09
 -1        32-5.14922E+05-7.68852E+04 2.22056E+05-3.46930E+05-1.03028E-08 8.30850E-09
 -1        33-7.54951E+04 3.88226E+04 1.37632E+04-2.25464E+04 7.00804E-10-4.17276E-09
 -1        34-9.80146E+04-9.75435E+03 2.31772E+02 3.01345E+04 1.70263E-09-8.99566E-10
 -1        35-1.09715E+04-1.53300E+04-5.98067E+02 2.43022E+04 3.82092E-09-4.97190E-10
 -1        51 9.84069E+03-2.54142E+05 2.43133E+04-6.31093E+05 1.16415E-10-1.78261E-09
 -1        52 5.22063E+03-2.52219E+05 1.61751E+04-7.36055E+05 4.32919E-10 1.28057E-09
 -1        53 3.45554E+03-2.58859E+05 1.42302E+04-6.28942E+05 3.49246E-10-5.63159E-09
 -1        54 1.08653E+04-2.56706E+05 2.31801E+04-7.38336E+05-1.23691E-10-9.92077E-09
 -1        55 2.38595E+04-2.65224E+05 4.17812E+04-6.28654E+05 2.76486E-10-5.67525E-10
 -1        56-2.06397E+06-2.33307E+05-1.61203E+05-7.95934E+05 4.65661E-10 4.12547E-09
 -1        57-2.12859E+06-3.79216E+05-1.08648E+05-7.89878E+05-3.60615E-10 8.04539E-09
 -1        58-2.09623E+06-2.84472E+05-3.79473E+04-7.85974E+05-6.47105E-10-1.68075E-09
 -1        59-2.09126E+06-3.19243E+05-2.26533E+04-8.01855E+05-2.33740E-10-7.70251E-09
 -1        60-2.10099E+06-2.91557E+05-8.86799E+03-7.84574E+05 9.19499E-10-3.49473E-09
 -1        61-2.08622E+06-3.10469E+05-5.04187E+03-8.02925E+05 6.50516E-10 7.09861E-10
 -1        62-2.10120E+06-2.93032E+05-2.42877E+03-7.84969E+05 5.47402E-10-4.07351E-09
 -1        63-2.08700E+06-3.07897E+05-1.99287E+03-8.01277E+05 1.19098E-09 2.01265E-09
 -1        64-2.10017E+06-2.94129E+05-2.28836E+03-7.86201E+05 2.88128E-09-1.76851E-09
 -1        65-2.09013E+06-3.06182E+05-4.57183E+03-7.98081E+05-1.21349E-09-7.93091E-09
 -1        66-2.09803E+06-2.94802E+05-8.04967E+03-7.88123E+05-6.67569E-10-5.56201E-09
 -1        67-2.09826E+06-3.10427E+05-2.04192E+04-7.92871E+05-1.37132E-09-5.02223E-09
 -1        68-2.09205E+06-2.90108E+05-3.42822E+04-7.91318E+05 1.87174E-09-1.75714E-09
 -1        69-2.13491E+06-3.61608E+05-9.80171E+04-7.78745E+05-5.72982E-11-3.87081E-09
 -1        70-2.06168E+06-2.45166E+05-1.45507E+05-8.01697E+05-6.54836E-11 1.99361E-09
 -1        86-9.03456E+02 1.88615E+05 6.30080E+03-1.97408E+02 8.11724E-10-2.32038E-09
 -1        87 5.99565E+03 1.92474E+05 1.31455E+04 8.10325E+02 1.35515E-09 1.36643E-08
 -1        88-5.08571E+03 1.86569E+05 2.01259E+04-6.12944E+02 2.01908E-09 4.94089E-09
 -1        89 3.79000E+04 2.07341E+05 5.42753E+04 1.74029E+03 3.14321E-09 6.11271E-09
 -1        90-3.27041E+04 1.73758E+05 7.66696E+04-1.12710E+03 3.49974E-09 5.48079E-09
 -1       121-5.43843E+01-4.52710E+05 9.90812E+01 5.17148E+01 2.43993E-10 3.92174E-09
 -1       122 3.33557E+00-4.52515E+05 2.28440E+02-2.07139E+02-7.81288E-10 6.29734E-09
 -1       123-7.93363E+01-4.52735E+05 3.69812E+02 1.55194E+02 7.29244E-10-6.78665E-09
 -1       124 4.24617E+02-4.52256E+05 9.58322E+02-4.93440E+02-1.67984E-09-8.31778E-09
 -1       125-3.53179E+02-4.52973E+05 1.46969E+03 3.38003E+02 1.13641E-09 1.81899E-11
 -1       191-3.47900E+00 1.62409E+05 5.07806E+00 1.11401E-02 1.07197E-10 1.39153E-09
 -1       192-3.57015E+00 1.62396E+05 9.00507E+00 2.75868E-01 1.43835E-10-1.61253E-09
 -1       193-4.51769E+00 1.62409E+05 1.67424E+01-2.88962E-01 1.87727E-10 1.31877E-09
 -1       194-4.82719E+00 1.62397E+05 3.40639E+01 7.75067E-01 1.01837E-10-3.81078E-09
 -1       195-6.51417E+00 1.62408E+05 6.66272E+01-4.91388E-01 2.68027E-10 3.86035E-09
 -1       251 2.02054E+05-3.30789E+04 7.66955E+04 2.39640E+03 7.77050E-11 3.34694E-09
 -1       252 2.36843E+05 3.82761E+04 5.44659E+04-6.66923E+03 2.94790E-10 5.46424E-09
 -1       253 2.15281E+05-5.15271E+03 1.98539E+04 1.41699E+03-5.32339E-11 2.32012E-09
 -1       254 2.21309E+05 5.95704E+03 1.25598E+04-5.15003E+03-4.57533E-10-4.98403E-10
 -1       255 2.17554E+05-7.99755E+02 5.13203E+03 8.77291E+02 1.71383E-10 6.96446E-10
 -1       256 2.18619E+05 9.45050E+02 3.12132E+03-4.36146E+03-7.88447E-10-2.31034E-09
 -1       257 2.17959E+05-1.40257E+02 1.60596E+03 6.28395E+02-8.71596E-08 7.47417E-09
 -1       258 2.18212E+05 2.90244E+02 1.42763E+03-4.11050E+03-1.99975E-07-9.48560E-09
 -1       259 2.17958E+05-1.43430E+02 1.63499E+03 6.26331E+02-8.82729E-08-1.53511E-09
 -1       260 2.18631E+05 9.72506E+02 3.20450E+03-4.35330E+03-7.85597E-10-7.07087E-09
 -1       261 2.17543E+05-8.23912E+02 5.28306E+03 8.71204E+02 4.69015E-10-1.01363E-09
 -1       262 2.21393E+05 6.13747E+03 1.29343E+04-5.13203E+03 5.89012E-10 5.01132E-09
 -1       263 2.15208E+05-5.30846E+03 2.04557E+04 1.40507E+03-8.71268E-10-2.89219E-10
 -1       264 2.37370E+05 3.94326E+04 5.61044E+04-6.63950E+03-9.12550E-10-4.04452E-09
 -1       265 2.01599E+05-3.40766E+04 7.90224E+04 2.37858E+03-7.08098E-10-2.90675E-09
 -1       266-2.45563E+04-1.14825E+04 5.76161E+04-4.10936E+01-3.39423E-09-1.09550E-06
 -1       267 2.84676E+04 1.33831E+04 4.07222E+04 4.74136E+01-6.81757E-09-2.18053E-06
 -1       268-3.81745E+03-1.89542E+03 1.51362E+04-6.04133E+00-5.46424E-09-1.74668E-06
 -1       269 4.50729E+03 2.26841E+03 9.83831E+03 7.03724E+00-4.16685E-09-1.31739E-06
 -1       270-6.76550E+02-3.72718E+02 4.74909E+03-9.55000E-01-3.04055E-09-9.64428E-07
 -1       271-2.39101E+06-2.97917E+05-1.83472E+05-9.30715E+05 1.00772E-09-4.61296E-09
 -1       272-2.44157E+06-4.47038E+05-1.17957E+05-9.46646E+05 3.72552E-10-7.54335E-09
 -1       273-2.42589E+06-3.43238E+05-4.33379E+04-9.22156E+05 1.15460E-09 2.65027E-09
 -1       274-2.40086E+06-3.91465E+05-2.42633E+04-9.59828E+05-3.82897E-10 9.34961E-10
 -1       275-2.43127E+06-3.47338E+05-1.00812E+04-9.20056E+05 2.16005E-10 2.34104E-09
 -1       276-2.39452E+06-3.86653E+05-5.36039E+03-9.63219E+05-1.55978E-10 3.14230E-10
 -1       277-2.43249E+06-3.47232E+05-2.62248E+03-9.19232E+05 2.45109E-10 3.85717E-09
 -1       278-2.39336E+06-3.86641E+05-1.90903E+03-9.64205E+05 1.58275E-09 3.10968E-09
 -1       279-2.43255E+06-3.47214E+05-2.05026E+03-9.19186E+05-7.09520E-10-3.31602E-09
 -1       280-2.39416E+06-3.86527E+05-3.75842E+03-9.63441E+05-4.62933E-10 8.00628E-09
 -1       281-2.43158E+06-3.47447E+05-6.87699E+03-9.19905E+05-4.61114E-10 3.29737E-09
 -1       282-2.39887E+06-3.89285E+05-1.64183E+04-9.60520E+05-5.52063E-10 1.06547E-09
 -1       283-2.42759E+06-3.45069E+05-2.93155E+04-9.21724E+05-2.02817E-10 3.78350E-10
 -1       284-2.42714E+06-4.25927E+05-7.96841E+04-9.50474E+05-3.34921E-10 2.70848E-09
 -1       285-2.40346E+06-3.15064E+05-1.24036E+05-9.28138E+05 1.85355E-09-3.15049E-09
 -1       301 9.30845E+03-5.67229E+03 7.25393E+04-1.76257E+04-6.73026E-10 3.73916E-10
 -1       302 9.99043E+03 1.27373E+04 5.22532E+04-2.59389E+04 8.40600E-10 1.73316E-09
 -1       303 4.34676E+02 8.60786E+02 4.79037E+04-1.76643E+04-5.89353E-10 8.87417E-09
 -1       304 1.86380E+04 2.07146E+04 8.03664E+04-2.58669E+04 9.01309E-10 5.91581E-09
 -1       305 1.84663E+04-1.36024E+04 1.34753E+05-1.76508E+04-6.40284E-10 8.42692E-09
 -1       306-2.57771E+06-2.96928E+05-1.95821E+05-1.00551E+06 2.08092E-09-7.07223E-09
 -1       307-2.67516E+06-4.65912E+05-1.33519E+05-9.75559E+05 1.80853E-09-1.63709E-09
 -1       308-2.62227E+06-3.57695E+05-4.60750E+04-9.87054E+05 3.48336E-10-1.80626E-09
 -1       309-2.62008E+06-3.98737E+05-2.79095E+04-1.00135E+06 1.41790E-09 3.25917E-09
 -1       310-2.63257E+06-3.62906E+05-1.08141E+04-9.80148E+05-4.16350E-10-1.95223E-09
 -1       311-2.60676E+06-3.94229E+05-6.26899E+03-1.01132E+06 3.43368E-09 4.66116E-12
 -1       312-2.63565E+06-3.61957E+05-3.06704E+03-9.77225E+05-4.70521E-10-7.10543E-10
 -1       313-2.60416E+06-3.94691E+05-2.76849E+03-1.01374E+06-1.45860E-09-5.65336E-10
 -1       314-2.63520E+06-3.62396E+05-3.33267E+03-9.77766E+05-2.72865E-09-7.16864E-09
 -1       315-2.60854E+06-3.92775E+05-7.02662E+03-1.00925E+06-1.55069E-09-2.14811E-09
 -1       316-2.63121E+06-3.63950E+05-1.22606E+04-9.81642E+05 1.96553E-09 3.04954E-09
 -1       317-2.62410E+06-3.97557E+05-3.16908E+04-9.97565E+05 1.35373E-09 9.89075E-10
 -1       318-2.61958E+06-3.57882E+05-5.23351E+04-9.89311E+05-2.53976E-09 3.25235E-09
 -1       319-2.68600E+06-4.74731E+05-1.51724E+05-9.69314E+05-2.42653E-09-1.69712E-09
 -1       320-2.56960E+06-2.88100E+05-2.22436E+05-1.00944E+06 5.23141E-09 3.23053E-09
 -1       336 3.54780E+02-4.90088E+05-2.60749E+03 3.52979E+02-4.38195E-09 3.03316E-09
 -1       337-9.39733E+02-4.90810E+05-2.85611E+03-9.51846E+02-8.08643E-09-3.09956E-09
 -1       338 2.33438E+02-4.90164E+05-3.59473E+03 5.97341E+02-5.60510E-09 3.27418E-10
 -1       339-3.71659E+03-4.92512E+05-7.87102E+03-1.43618E+03-1.01170E-08 1.13505E-09
 -1       340 2.52921E+03-4.88406E+05-1.21269E+04 8.34533E+02-6.82758E-09-1.36151E-09
 -1       406 9.08983E+00 1.62402E+05 2.72200E+02 3.72405E-01 3.68743E-10 3.71983E-10
 -1       407 9.34748E+01 1.62452E+05 5.78550E+02-6.67346E+00 6.73595E-11-8.20819E-10
 -1       408 2.96365E+02 1.62360E+05 1.15550E+03 6.37576E+00 4.35762E-10 3.08501E-09
 -1       409 1.24809E+03 1.62821E+05 2.60145E+03-5.82840E+01 3.16049E-11 2.00771E-09
 -1       410 3.58857E+03 1.62032E+05 5.31080E+03 5.33172E+01 3.92902E-10 6.69388E-10
 -1       521-4.85740E+06-5.61202E+05-3.63749E+05-1.88975E+06 2.35741E-09-6.97037E-09
 -1       522-5.03347E+06-8.74066E+05-2.47169E+05-1.83966E+06-1.87356E-09-4.20914E-09
 -1       523-4.94204E+06-6.70043E+05-8.55247E+04-1.85319E+06 2.51021E-10-6.73026E-10
 -1       524-4.92903E+06-7.53618E+05-5.15465E+04-1.89037E+06-5.58430E-10 4.37831E-09
 -1       525-4.96123E+06-6.78815E+05-1.99646E+04-1.84003E+06-1.54728E-10 1.70439E-09
 -1       526-4.90698E+06-7.43229E+05-1.15061E+04-1.90582E+06 1.83528E-09-1.66119E-09
 -1       527-4.96416E+06-6.79888E+05-5.52380E+03-1.83799E+06 2.36287E-09 1.34230E-09
 -1       528-4.91004E+06-7.35645E+05-4.69156E+03-1.90024E+06 1.28421E-09-1.83718E-10
 -1       529-4.95800E+06-6.86451E+05-5.60930E+03-1.84551E+06 2.52840E-10-1.36015E-09
 -1       530-4.92908E+06-7.19905E+05-1.12475E+04-1.87844E+06 2.68983E-09-2.69210E-10
 -1       531-4.94481E+06-6.95904E+05-1.99924E+04-1.85954E+06 3.41288E-10 3.30965E-09
 -1       532-4.96597E+06-7.15694E+05-5.10508E+04-1.84688E+06-1.02952E-09-3.14321E-09
 -1       533-4.92123E+06-6.91070E+05-8.48632E+04-1.87695E+06 9.02219E-10-5.93354E-09
 -1       534-5.07125E+06-8.35095E+05-2.45403E+05-1.79742E+06 4.39286E-10 2.98314E-09
 -1       535-4.84073E+06-5.78912E+05-3.60777E+05-1.90846E+06-7.64703E-09 4.61296E-09
 -1       536-1.26231E+04-1.35559E+04 3.12251E+04 2.88193E+02-1.02810E-09 6.01722E-09
 -1       537 1.83129E+03 1.56851E+04 2.22474E+04-1.18875E+03-5.42599E-09 4.04316E-09
 -1       538-7.27129E+03-2.12461E+03 8.05402E+03 2.78066E+02-2.62560E-10-3.70665E-09
 -1       539-4.48277E+03 2.45255E+03 5.14338E+03-1.19215E+03 1.35037E-09-1.25448E-09
 -1       540-6.31574E+03-3.30668E+02 2.03316E+03 2.91600E+02 1.52788E-10 2.28761E-09
 -1       541-5.65494E+03 3.78192E+02 1.21499E+03-1.21684E+03-3.39540E-10 2.86188E-09
 -1       542-6.10327E+03-4.89125E+01 4.86513E+02 3.02743E+02 7.65681E-11 9.46812E-10
 -1       543-5.93873E+03 4.65071E+01 2.44286E+02-1.23452E+03-2.06628E-10-4.01521E-10
 -1       544-6.03467E+03 2.74591E+00 3.26860E+01 3.09278E+02-1.20480E-10-5.80127E-09
 -1       545-6.04996E+03-6.24747E+01-1.50356E+02-1.24277E+03-3.24715E-10-1.80606E-09
 -1       546-5.99330E+03 6.09111E+01-3.47706E+02 3.11000E+02 2.69784E-10-1.18158E-09
 -1       547-6.23184E+03-4.51198E+02-9.18179E+02-1.24133E+03-1.44830E-09-1.42525E-09
 -1       548-5.85255E+03 3.91018E+02-1.48998E+03 3.07831E+02-1.50782E-09-7.57382E-10
 -1       549-7.28632E+03-2.88263E+03-4.06325E+03-1.22920E+03-7.61231E-10 3.19142E-09
 -1       550-4.93704E+03 2.48919E+03-5.78783E+03 2.98877E+02-3.60956E-11-1.00044E-10
 -1       551 4.25948E+03-2.58054E+05 1.43379E+04-4.42836E+05-1.95214E-08-4.07454E-09
 -1       552 8.68716E+03-2.57964E+05 1.85557E+04-6.30124E+05-1.55123E-08 5.41513E-09
 -1       553 5.54186E+03-2.61349E+05 2.89248E+04-4.41426E+05-2.42726E-08 6.14091E-09
 -1       554 2.27791E+04-2.48480E+05 6.14295E+04-6.30726E+05-1.42245E-08 5.29053E-09
 -1       555 2.33821E+04-2.73123E+05 1.10453E+05-4.42033E+05-2.35232E-08-2.36469E-10
 -1       556 3.58643E+04-8.22853E+04 2.86329E+04-1.10199E+05-4.53656E-09 8.07631E-10
 -1       557 6.92981E+04-1.10403E+05 1.49774E+04-1.37635E+05-9.71340E-10 2.33376E-09
 -1       558 3.62702E+04-8.63986E+04 6.14497E+03-1.06627E+05-1.35406E-08-1.09176E-08
 -1       559 6.53628E+04-1.14507E+05 3.08943E+03-1.39227E+05-6.86850E-09 4.67026E-09
 -1       560 3.56778E+04-8.59876E+04 1.32349E+03-1.06964E+05-4.22733E-09 5.97629E-09
 -1       561 6.42960E+04-1.14320E+05 6.82376E+02-1.39893E+05 1.89175E-10 1.73191E-09
 -1       562 3.51706E+04-8.56335E+04 2.78792E+02-1.07333E+05-1.26602E-09 2.58478E-09
 -1       563 6.36847E+04-1.14060E+05 1.59706E+02-1.40283E+05 1.00408E-09 2.18165E-10
 -1       564 3.48547E+04-8.54254E+04 5.92882E+01-1.07560E+05 2.19916E-09-3.03453E-09
 -1       565 6.33710E+04-1.13928E+05 2.80968E+01-1.40478E+05-3.80714E-09-6.25732E-09
 -1       566 3.47470E+04-8.53511E+04-2.01680E+01-1.07640E+05-5.59658E-09-4.25280E-09
 -1       567 6.33267E+04-1.13906E+05-8.18865E+01-1.40465E+05 3.18903E-09 3.25963E-09
 -1       568 3.48690E+04-8.54330E+04-2.12224E+02-1.07593E+05 1.61890E-10 6.57747E-09
 -1       569 6.31300E+04-1.13788E+05-5.00954E+02-1.39881E+05 3.05590E-10 3.08864E-09
 -1       570 3.55691E+04-8.61180E+04-1.03095E+03-1.07668E+05 2.03363E-09 4.90672E-10
 -1       571 1.17784E+05 4.27068E+03 6.32588E+03-2.95862E+04 7.04404E-10 1.93745E-09
 -1       572 1.18727E+05 1.48549E+03 3.09905E+03-3.24316E+04-5.35465E-10-3.28509E-09
 -1       573 1.18166E+05 3.54059E+02 1.37670E+03-2.95089E+04-1.57843E-09 9.98170E-10
 -1       574 1.18279E+05 1.14445E+02 6.89616E+02-3.25182E+04-1.22907E-09 2.68187E-09
 -1       575 1.18210E+05 1.49551E+01 3.24978E+02-2.94987E+04-8.28436E-10 2.89901E-09
 -1       576 1.18218E+05 3.18603E+00 1.65326E+02-3.25298E+04-3.88354E-10 5.60362E-09
 -1       577 1.18217E+05-3.27194E+00 8.13819E+01-2.94973E+04-1.03071E-08-2.07365E-10
 -1       578 1.18211E+05-1.88601E+00 4.42519E+01-3.25312E+04-1.93834E-08-9.25252E-09
 -1       579 1.18222E+05-3.33715E+00 2.69793E+01-2.94973E+04-8.95898E-09-5.90239E-09
 -1       580 1.18217E+05-3.65693E+00 2.49616E+01-3.25293E+04-6.54836E-11 1.66438E-10
 -1       581 1.18230E+05-5.29900E+00 3.38206E+01-2.94992E+04-3.78805E-10-5.16570E-09
 -1       582 1.18234E+05 7.38050E-01 6.41722E+01-3.25116E+04-7.43057E-10 8.33325E-10
 -1       583 1.18238E+05 1.81996E+01 1.23386E+02-2.95150E+04-6.91216E-10-3.31568E-09
 -1       584 1.18289E+05 1.15467E+02 2.76327E+02-3.23798E+04-1.24464E-09-5.29155E-09
 -1       585 1.18219E+05 3.60389E+02 5.61690E+02-2.96311E+04 3.25599E-10-3.57159E-09
 -1       586-1.46593E+03 3.83840E+04-1.93301E+03-1.00807E+05 3.30374E-10-4.71459E-10
 -1       587-3.27497E+02 3.81268E+04-2.32995E+02-1.10930E+05 5.47516E-10-6.33776E-09
 -1       588 3.89733E+02 3.81765E+04 1.33439E+03-1.00746E+05 3.27418E-10 5.10227E-10
 -1       589 1.99008E+03 3.89052E+04 3.90962E+03-1.10838E+05 4.62023E-10 2.31375E-09
 -1       590 5.73870E+03 3.76829E+04 8.38194E+03-1.00899E+05 2.26919E-10-1.82399E-09
 -1       591-2.56303E+04-7.35788E+03-8.55258E+03-1.33133E+04-1.07337E-09-3.27418E-10
 -1       592-2.64288E+04-9.46089E+03-4.63243E+03-1.55465E+04-4.72028E-10-6.39830E-10
 -1       593-2.64949E+04-6.72777E+03-1.92851E+03-1.39306E+04-2.97860E-11-9.95442E-10
 -1       594-2.52366E+04-8.21796E+03-9.61860E+02-1.56056E+04-2.01339E-10-2.56932E-11
 -1       595-2.65609E+04-6.72503E+03-4.42038E+02-1.39588E+04-7.11111E-11 2.98044E-10
 -1       596-2.51558E+04-8.16107E+03-2.25341E+02-1.55971E+04 7.28306E-10 1.66489E-09
 -1       597-2.65693E+04-6.73054E+03-1.24050E+02-1.39599E+04 5.93527E-10 2.57097E-09
 -1       598-2.51481E+04-8.15888E+03-1.02186E+02-1.55948E+04 5.24267E-10-7.61361E-10
 -1       599-2.65687E+04-6.73049E+03-1.33577E+02-1.39598E+04 3.20028E-10-4.49518E-10
 -1       600-2.51569E+04-8.16174E+03-2.50627E+02-1.55971E+04-5.72584E-10-1.81151E-09
 -1       601-2.65585E+04-6.72436E+03-4.95654E+02-1.39582E+04 1.03864E-09-1.91790E-10
 -1       602-2.52479E+04-8.22551E+03-1.08101E+03-1.56059E+04-3.89747E-09-7.21320E-09
 -1       603-2.64836E+04-6.72833E+03-2.16815E+03-1.39267E+04-7.81597E-10 2.37014E-09
 -1       604-2.65929E+04-9.61808E+03-5.20844E+03-1.55333E+04-1.56268E-09-9.27230E-10
 -1       605-2.55060E+04-7.44087E+03-9.61582E+03-1.32375E+04-7.00197E-10 6.85759E-10
 -1       606 1.68463E+04-5.66814E+03-1.02114E+04 1.64863E+04-2.42653E-09 2.02499E-09
 -1       607 1.50977E+04-1.82812E+03-5.08489E+03 1.85067E+04-5.29781E-10 3.65844E-10
 -1       608 1.60948E+04-3.07251E+02-2.27657E+03 1.63547E+04 2.58115E-09 1.51067E-09
 -1       609 1.58989E+04-8.16006E+01-1.15005E+03 1.86522E+04-3.89718E-10 1.48498E-09
 -1       610 1.60082E+04 1.31050E+01-5.48977E+02 1.63400E+04-1.84991E-09-3.03339E-09
 -1       611 1.59728E+04 1.80547E+01-2.77028E+02 1.86681E+04-5.27689E-09-6.08884E-09
 -1       612 1.59879E+04 1.95272E+01-1.32344E+02 1.63386E+04 6.50198E-09 3.29010E-10
 -1       613 1.59758E+04 2.06055E+01-6.04474E+01 1.86701E+04 1.43737E-08 4.89081E-10
 -1       614 1.59780E+04 1.78517E+01-1.68208E+01 1.63380E+04 8.70341E-09-1.10379E-09
 -1       615 1.59722E+04 2.19304E+01 1.86592E+01 1.86704E+04 4.42924E-09-3.77156E-09
 -1       616 1.59704E+04 1.96450E+01 6.21635E+01 1.63382E+04-1.35151E-09-1.66881E-09
 -1       617 1.59784E+04 3.61891E+01 1.44108E+02 1.86701E+04-6.21299E-10-4.60659E-09
 -1       618 1.59567E+04 6.19632E+01 2.91394E+02 1.63383E+04 7.94444E-10-1.26533E-09
 -1       619 1.60805E+04 2.62222E+02 6.54914E+02 1.86697E+04 2.53476E-09-4.57476E-10
 -1       620 1.58593E+04 7.53991E+02 1.31656E+03 1.63379E+04 2.77493E-09-3.27009E-09
 -1       621 2.05561E+02 1.28259E+05 1.77459E+03 4.08279E+03-2.13806E-10-1.97622E-09
 -1       622 2.34890E+02 1.28698E+05 1.50526E+03 5.95919E+03-1.15904E-10 3.20500E-09
 -1       623 1.01816E+01 1.28386E+05 1.72994E+03 4.06351E+03-1.51147E-10 4.30418E-10
 -1       624 7.82850E+02 1.29202E+05 3.28409E+03 5.97815E+03-1.48731E-10-6.43320E-09
 -1       625 7.85741E+02 1.27754E+05 5.70877E+03 4.06400E+03-1.14142E-10-4.15554E-10
 -1       626 1.05811E+05 2.93611E+04 2.11223E+03 5.72607E+04-2.26555E-09-7.21866E-09
 -1       627 1.04358E+05 3.04314E+04 1.01747E+03 5.95817E+04 2.22826E-11-3.41242E-09
 -1       628 1.05895E+05 2.83600E+04 4.30024E+02 5.75806E+04 1.38880E-09-3.73711E-09
 -1       629 1.04057E+05 3.01904E+04 2.10613E+02 5.97238E+04 2.51839E-09 4.23768E-10
 -1       630 1.05903E+05 2.83109E+04 9.75289E+01 5.75908E+04 1.71394E-09-4.13780E-09
 -1       631 1.04023E+05 3.01840E+04 5.23582E+01 5.97273E+04-8.70614E-10-7.98639E-09
 -1       632 1.05900E+05 2.83135E+04 3.46301E+01 5.75875E+04 5.84714E-09-4.69907E-09
 -1       633 1.04017E+05 3.01864E+04 3.86140E+01 5.97247E+04 2.14980E-08 3.66867E-09
 -1       634 1.05895E+05 2.83132E+04 6.25724E+01 5.75856E+04 6.40534E-09-1.46573E-08
 -1       635 1.04020E+05 3.01870E+04 1.26888E+02 5.97251E+04-1.28176E-09-6.57428E-09
 -1       636 1.05889E+05 2.83125E+04 2.56369E+02 5.75839E+04-2.31762E-09-9.92554E-09
 -1       637 1.04072E+05 3.02279E+04 5.63501E+02 5.97224E+04 7.35437E-10 3.48109E-09
 -1       638 1.05866E+05 2.84385E+04 1.15824E+03 5.75256E+04-8.17977E-11 1.55956E-09
 -1       639 1.04677E+05 3.10757E+04 2.74012E+03 5.95416E+04-8.78799E-10 3.33353E-09
 -1       640 1.05783E+05 3.09618E+04 5.68669E+03 5.64542E+04-1.68802E-09-1.58070E-09
 -1       656 2.86920E+04-7.26228E+05-6.92776E+04-5.11277E+02 7.63976E-10-2.56330E-09
 -1       657-3.79112E+04-7.57519E+05-5.72917E+04 4.75194E+03 7.58064E-10 2.90109E-09
 -1       658 9.09596E+03-7.35158E+05-3.51587E+04-9.53879E+02 8.65384E-10 2.46234E-09
 -1       659-4.06419E+04-7.58804E+05-6.08781E+04 5.04332E+03 4.09273E-11-7.64309E-10
 -1       660 3.14153E+04-7.24944E+05-7.54526E+04-8.02651E+02-5.52973E-10 2.40316E-09
 -1       661 1.03280E+05 1.12174E+04 9.89840E+03 4.03200E+04 2.29375E-09 1.19235E-09
 -1       662 1.08407E+05 1.90091E+04 6.66984E+03 3.86304E+04 1.01980E-09-1.92631E-09
 -1       663 1.05217E+05 1.44001E+04 2.33317E+03 3.97643E+04-1.86458E-09 4.42390E-09
 -1       664 1.06169E+05 1.52810E+04 1.39484E+03 3.93034E+04 2.17753E-09 2.42579E-09
 -1       665 1.05504E+05 1.48409E+04 5.50267E+02 3.96865E+04-1.86432E-09 4.63029E-09
 -1       666 1.05834E+05 1.47716E+04 3.20794E+02 3.94009E+04-3.14795E-09 1.15207E-09
 -1       667 1.05550E+05 1.48962E+04 1.69167E+02 3.96718E+04-9.30655E-10 1.62824E-09
 -1       668 1.05788E+05 1.47248E+04 1.69334E+02 3.94206E+04 7.78137E-10-3.85486E-09
 -1       669 1.05550E+05 1.48865E+04 2.26927E+02 3.96673E+04 9.21972E-10 2.52901E-09
 -1       670 1.05850E+05 1.48398E+04 4.91782E+02 3.94145E+04 4.99539E-09-5.85907E-09
 -1       671 1.05488E+05 1.47835E+04 8.72539E+02 3.96768E+04-1.06768E-09-3.43323E-09
 -1       672 1.06363E+05 1.56837E+04 2.23175E+03 3.92862E+04-3.87657E-09 2.35866E-09
 -1       673 1.05040E+05 1.40639E+04 3.73989E+03 3.97875E+04 1.35003E-10-5.06134E-10
 -1       674 1.09929E+05 2.16874E+04 1.06956E+04 3.82345E+04-1.12567E-09 1.71906E-09
 -1       675 1.01946E+05 8.94779E+03 1.58752E+04 4.06653E+04 4.77257E-10-7.00311E-11
 -1       676 1.16945E+01-1.39497E+05-5.43211E+02 1.73006E+01-1.18069E-09-9.73767E-10
 -1       677-1.44189E+02-1.39628E+05-9.94100E+02-3.45956E+01-3.39064E-09-4.07528E-09
 -1       678 9.62724E+01-1.39403E+05-1.75729E+03 1.72831E+01 2.21576E-10-1.05967E-09
 -1       679-1.75750E+03-1.40689E+05-4.17426E+03-3.45177E+01-2.10844E-09 2.95528E-09
 -1       680 1.04879E+03-1.38436E+05-6.72757E+03 1.70240E+01-5.22959E-11 1.65668E-09
 -1       771-1.50053E+06-2.60862E+05-3.64993E+04-6.21116E+05-6.63204E-09-4.50382E-09
 -1       772-1.49112E+06-2.81134E+05-1.96216E+04-6.43691E+05-4.31828E-09 1.81353E-09
 -1       773-1.50532E+06-2.57156E+05-8.40309E+03-6.23160E+05-1.46974E-09-4.36557E-10
 -1       774-1.48578E+06-2.76714E+05-4.10887E+03-6.45587E+05 3.35058E-09-4.58385E-10
 -1       775-1.50626E+06-2.56589E+05-2.03586E+03-6.23283E+05-2.82671E-09 1.18598E-09
 -1       776-1.48561E+06-2.76679E+05-9.49509E+02-6.46476E+05-4.00178E-10 5.40786E-09
 -1       777-1.50687E+06-2.56170E+05-5.62955E+02-6.23331E+05 3.41970E-10 1.13505E-09
 -1       778-1.48575E+06-2.76793E+05-2.57813E+02-6.47208E+05 2.03181E-09 2.25828E-09
 -1       779-1.50733E+06-2.55812E+05-2.40270E+02-6.23372E+05-2.20462E-09-1.69075E-09
 -1       780-1.48590E+06-2.76895E+05-1.98479E+02-6.47800E+05-2.83762E-10 4.93401E-11
 -1       781-1.50768E+06-2.55524E+05-3.50342E+02-6.23399E+05-5.04224E-09-6.93944E-10
 -1       782-1.48608E+06-2.77005E+05-6.52471E+02-6.48236E+05-6.49925E-09-1.80853E-09
 -1       783-1.50787E+06-2.55338E+05-1.30405E+03-6.23404E+05-1.09685E-09-2.66471E-09
 -1       784-1.48693E+06-2.77884E+05-3.09512E+03-6.48466E+05-3.49974E-09-1.98725E-10
 -1       785-1.50742E+06-2.55654E+05-5.72135E+03-6.22995E+05-6.25096E-09 7.56245E-10
 -1       786 1.09182E+05-5.83096E+03 1.34893E+04 1.39125E+00 9.81951E-08 8.13998E-10
 -1       787 1.15028E+05 6.75040E+03 9.54360E+03-7.23596E+00 1.94950E-07 1.49794E-09
 -1       788 1.11438E+05-9.14065E+02 3.49136E+03 2.39145E+00 2.76304E-07 4.19118E-09
 -1       789 1.12400E+05 1.05763E+03 2.19366E+03-9.86894E+00 3.58121E-07 5.91956E-09
 -1       790 1.11810E+05-1.42792E+02 8.92598E+02 4.02426E+00 4.85445E-07-1.60145E-09
 -1       791 1.11966E+05 1.65910E+02 5.24110E+02-1.40685E+01 6.13877E-07 8.75391E-09
 -1       792 1.11872E+05-2.30177E+01 2.39275E+02 6.59113E+00 8.53261E-07-9.58271E-09
 -1       793 1.11896E+05 3.23635E+01 1.56952E+02-2.06080E+01 1.09130E-06 2.30210E-09
 -1       794 1.11880E+05-9.33396E+00 1.16505E+02 1.05638E+01 5.45908E-07-3.94673E-09
 -1       795 1.11903E+05 4.82505E+01 1.68877E+02-3.06786E+01 2.07520E-09 2.63047E-09
 -1       796 1.11865E+05-3.88928E+01 2.53182E+02 1.66619E+01 4.56526E-11-8.27598E-10
 -1       797 1.12018E+05 2.85129E+02 5.97142E+02-4.61073E+01-1.92230E-10 2.47661E-09
 -1       798 1.11765E+05-2.46037E+02 9.42651E+02 2.59927E+01-3.24082E-10 1.41250E-09
 -1       799 1.12725E+05 1.81662E+03 2.56985E+03-6.98432E+01-3.90052E-10-1.56635E-09
 -1       800 1.11158E+05-1.56914E+03 3.63025E+03 4.03980E+01-9.25962E-11-3.12798E-09
 -1       801-6.19472E+03 6.98551E+03 9.53529E+03 1.16149E+04 6.40193E-09-5.37113E-09
 -1       802 1.63933E+04 5.34916E+04 3.16003E+04-4.77787E+04 1.72113E-08-2.90582E-09
 -1       803-9.80137E+03 2.35090E+04 4.07754E+04 1.10712E+04 1.35242E-08 9.54643E-09
 -1       804 7.90462E+04 8.67743E+04 1.13679E+05-4.82888E+04 1.60362E-08 1.43614E-08
 -1       805-6.88674E+04-2.61537E+04 1.48268E+05 1.21238E+04 5.68980E-09 1.48455E-08
 -1       806-1.28385E+05-2.75091E+04-1.09114E+04-5.34666E+04-4.13615E-09 3.33603E-09
 -1       807-1.29026E+05-2.59472E+04-5.36049E+03-5.63605E+04-2.85070E-09 1.83013E-08
 -1       808-1.28694E+05-2.35671E+04-2.27398E+03-5.53176E+04-9.55868E-09-1.09561E-08
 -1       809-1.27882E+05-2.44588E+04-1.11170E+03-5.65152E+04-7.65340E-10 2.47877E-09
 -1       810-1.28743E+05-2.34278E+04-5.09025E+02-5.53994E+04-1.00624E-09 5.51154E-10
 -1       811-1.27795E+05-2.43999E+04-2.52451E+02-5.65026E+04-8.15817E-10-1.29796E-09
 -1       812-1.28752E+05-2.34378E+04-1.25932E+02-5.53995E+04 8.66294E-11 6.12772E-10
 -1       813-1.27784E+05-2.44013E+04-7.94470E+01-5.64963E+04 3.50428E-09 2.39197E-09
 -1       814-1.28751E+05-2.34413E+04-7.44065E+01-5.53981E+04-2.57523E-09-8.82824E-09
 -1       815-1.27786E+05-2.44024E+04-1.16545E+02-5.64951E+04-4.01997E-10 4.21323E-09
 -1       816-1.28744E+05-2.34399E+04-2.18267E+02-5.53969E+04-1.66438E-10-1.68370E-09
 -1       817-1.27824E+05-2.44231E+04-4.68190E+02-5.64920E+04 1.63709E-10 2.69779E-09
 -1       818-1.28718E+05-2.35050E+04-9.54045E+02-5.53663E+04-1.69075E-09-2.94290E-09
 -1       819-1.28352E+05-2.49956E+04-2.24576E+03-5.63653E+04-1.53250E-09-1.10822E-09
 -1       820-1.28537E+05-2.52028E+04-4.57031E+03-5.46430E+04-1.25510E-10 2.19040E-09
 -1       821-1.65931E+05 9.21153E+03-2.13054E+04 9.57942E+00-4.60589E-10 1.81899E-11
 -1       822-1.75162E+05-1.06639E+04-1.50760E+04-1.85237E+02-1.37703E-09 1.45542E-09
 -1       823-1.69494E+05 1.44403E+03-5.51821E+03-2.33440E+01 7.48989E-10 2.46246E-09
 -1       824-1.71011E+05-1.67142E+03-3.47261E+03-1.07928E+02-2.76839E-10 3.81942E-09
 -1       825-1.70081E+05 2.26093E+02-1.42657E+03-6.77323E+01-2.41719E-09 1.22139E-09
 -1       826-1.70328E+05-2.66669E+02-8.62824E+02-1.94359E+01-4.33262E-09 4.58328E-10
 -1       827-1.70177E+05 4.03085E+01-4.45158E+02-1.11838E+02-2.99054E-09 1.42143E-09
 -1       828-1.70234E+05-8.15053E+01-3.95187E+02 5.71471E+01-2.27166E-09 7.64246E-09
 -1       829-1.70175E+05 4.10788E+01-4.51816E+02-1.44317E+02 4.64282E-10 2.62536E-09
 -1       830-1.70334E+05-2.73174E+02-8.83119E+02 1.02138E+02 2.07522E-09 2.90186E-10
 -1       831-1.70076E+05 2.31875E+02-1.46180E+03-1.56830E+02-1.96720E-09-4.42310E-09
 -1       832-1.71036E+05-1.71429E+03-3.56201E+03 1.04245E+02-1.53574E-09-2.23514E-09
 -1       833-1.69474E+05 1.48115E+03-5.65985E+03-1.46423E+02-7.49302E-10-5.71163E-10
 -1       834-1.75291E+05-1.09383E+04-1.54642E+04 6.42211E+01-8.43578E-10-1.03137E-09
 -1       835-1.65821E+05 9.44859E+03-2.18542E+04-1.16802E+02 4.08288E-09-3.52884E-10
 -1       836-5.53284E+02 1.57341E+05 9.47259E+03-1.38199E+04 1.13278E-09-1.87447E-09
 -1       837 2.08120E+03 1.60277E+05 8.08329E+03-2.77735E+04 1.78295E-09 2.25555E-09
 -1       838-2.05586E+02 1.58161E+05 8.33128E+03-1.37718E+04 1.63550E-09 5.93627E-09
 -1       839 5.34130E+03 1.62712E+05 1.58545E+04-2.77913E+04 1.96087E-09-5.40552E-10
 -1       840-1.60980E+03 1.54891E+05 2.53204E+04-1.38013E+04 1.32695E-09-1.90551E-09
 -1       856-5.21523E+04 4.45119E+03-1.17289E+04-2.51073E+02-2.53493E-09 3.72802E-09
 -1       857-5.69984E+04-5.22136E+03-8.07550E+03 2.68981E+03-2.04869E-09 2.55943E-09
 -1       858-5.40669E+04 6.23888E+02-3.04396E+03-2.59624E+02-2.04733E-09-9.37234E-10
 -1       859-5.47987E+04-7.26537E+02-1.83867E+03 2.70322E+03 9.36389E-10 4.36953E-09
 -1       860-5.43534E+04 8.69114E+01-7.73116E+02-2.64550E+02 1.74157E-09 1.59301E-09
 -1       861-5.44683E+04-9.74233E+01-4.30814E+02 2.70989E+03-4.65066E-09-3.68766E-09
 -1       862-5.43980E+04 1.16575E+01-1.90057E+02-2.66305E+02 3.66478E-09-1.45729E-09
 -1       863-5.44156E+04-8.74148E+00-9.41421E+01 2.71068E+03 5.60574E-09-2.29453E-09
 -1       864-5.44062E+04 1.43307E-01-2.98487E+01-2.65338E+02 3.04445E-09-4.77885E-09
 -1       865-5.44009E+04 1.15536E+01 1.67430E+01 2.70570E+03 5.72231E-09-1.60148E-09
 -1       866-5.44122E+04-8.70769E+00 6.27704E+01-2.61325E+02-1.13593E-09-3.13282E-09
 -1       867-5.43649E+04 7.36556E+01 1.72553E+02 2.69485E+03 9.62217E-11-4.16823E-09
 -1       868-5.44409E+04-6.12203E+01 2.91753E+02-2.54486E+02 1.10043E-09-2.11048E-09
 -1       869-5.41475E+04 5.09199E+02 7.82575E+02 2.67624E+03-1.81143E-09-4.78866E-09
 -1       870-5.46277E+04-4.32965E+02 1.13588E+03-2.42724E+02 1.86100E-09-1.98730E-09
 -1       871-2.41305E+03-5.02790E+03-7.87952E+03 5.16611E+04 1.88356E-09 2.16460E-10
 -1       872-1.04531E+03-6.78696E+03-3.20867E+03 6.69738E+04 3.37695E-09 1.47702E-09
 -1       873-1.79621E+01-5.95490E+03 4.70243E+02 5.15464E+04 2.08490E-09 1.21554E-09
 -1       874 1.22429E+03-4.80620E+03 4.49737E+03 6.69982E+04 3.01770E-09-2.30830E-09
 -1       875 2.89476E+03-7.02870E+03 9.96799E+03 5.16402E+04 7.05768E-10-5.99357E-10
 -1       876 1.29433E+05 2.22983E+04 6.94107E+03 5.25043E+04-3.21290E-09-6.22549E-10
 -1       877 1.29827E+05 2.38242E+04 3.70658E+03 5.45610E+04-3.82579E-09-3.08660E-09
 -1       878 1.30083E+05 2.15292E+04 1.55296E+03 5.30740E+04 2.57478E-09 3.48336E-10
 -1       879 1.28883E+05 2.28842E+04 7.73529E+02 5.46116E+04 2.18995E-09 8.45296E-09
 -1       880 1.30131E+05 2.15199E+04 3.60155E+02 5.30972E+04 1.25112E-09 3.01469E-09
 -1       881 1.28820E+05 2.28445E+04 1.91749E+02 5.46028E+04 5.74187E-09 5.60801E-09
 -1       882 1.30136E+05 2.15252E+04 1.21758E+02 5.30979E+04 4.24723E-09-1.08127E-09
 -1       883 1.28816E+05 2.28428E+04 1.29372E+02 5.46005E+04 2.03107E-09 4.49651E-09
 -1       884 1.30134E+05 2.15235E+04 2.04462E+02 5.30980E+04-4.77627E-10 1.31453E-09
 -1       885 1.28832E+05 2.28457E+04 4.10253E+02 5.46058E+04 3.07426E-09-2.73991E-09
 -1       886 1.30118E+05 2.15116E+04 8.26494E+02 5.30964E+04 4.42763E-09 4.84499E-09
 -1       887 1.28978E+05 2.29409E+04 1.80529E+03 5.46265E+04-3.71486E-10 2.27442E-09
 -1       888 1.30004E+05 2.15320E+04 3.63776E+03 5.30386E+04 1.84002E-09-1.51726E-09
 -1       889 1.31146E+05 2.51914E+04 8.69066E+03 5.45570E+04 3.94989E-09-2.73690E-09
 -1       890 1.28520E+05 2.32933E+04 1.62766E+04 5.16518E+04 2.09786E-09-8.71296E-10
 -1       891-7.78565E+01-7.36291E+04-8.66229E+02 1.40159E+04 1.44962E-09-9.25297E-10
 -1       892-1.35687E+02-7.38391E+04-9.43772E+02 2.12138E+04 2.20439E-10-5.49676E-09
 -1       893-1.85567E+01-7.36584E+04-1.34961E+03 1.40184E+04 1.29739E-09-2.66209E-09
 -1       894-7.31120E+02-7.43633E+04-2.80376E+03 2.11390E+04-7.63521E-10-4.79304E-09
 -1       895-5.69044E+02-7.30798E+04-4.94005E+03 1.40900E+04 8.54783E-10 4.17640E-09
 -1       956-1.62548E+05-2.34520E+03-5.90458E+03 1.07371E+04-2.68938E-09-3.56351E-09
 -1       957-1.63713E+05-7.92064E+02-3.03137E+03 1.29242E+04-4.38376E-10-2.65982E-09
 -1       958-1.63069E+05-6.38656E+01-1.36554E+03 1.06674E+04-3.73302E-09-5.41058E-09
 -1       959-1.63161E+05-1.31970E+01-6.97588E+02 1.29995E+04-1.07257E-08 1.20303E-09
 -1       960-1.63113E+05 1.74405E+01-3.39930E+02 1.06610E+04-6.94376E-09 1.32013E-09
 -1       961-1.63118E+05 1.49494E+01-1.80283E+02 1.30066E+04-3.68073E-09-3.54123E-09
 -1       962-1.63121E+05 1.41005E+01-1.02894E+02 1.06602E+04-1.73077E-09-2.31591E-09
 -1       963-1.63115E+05 1.49596E+01-8.21367E+01 1.30077E+04-2.57620E-09-1.71315E-09
 -1       964-1.63123E+05 1.48040E+01-9.90522E+01 1.06599E+04-3.09797E-10-1.87686E-09
 -1       965-1.63121E+05 1.65548E+01-1.70613E+02 1.30076E+04 1.41335E-09 1.63391E-09
 -1       966-1.63118E+05 1.94894E+01-3.19877E+02 1.06602E+04-1.69723E-09-2.16755E-09
 -1       967-1.63164E+05-8.27189E+00-6.55873E+02 1.30037E+04-1.29938E-09-3.30363E-09
 -1       968-1.63078E+05-5.53953E+01-1.28330E+03 1.06639E+04 1.80989E-10-1.64447E-09
 -1       969-1.63686E+05-7.38928E+02-2.84925E+03 1.29599E+04 9.77025E-10 4.31349E-09
 -1       970-1.62590E+05-2.19870E+03-5.54948E+03 1.07053E+04 7.55108E-10 4.12911E-09
 -1       971-1.54520E+05-8.17722E+02-4.54955E+03 7.61092E+03-3.83034E-09-3.58884E-09
 -1       972-1.55626E+05-5.88099E+02-2.47801E+03 1.06196E+04-1.20940E-09-9.17908E-10
 -1       973-1.55023E+05-6.25334E+00-1.10923E+03 7.54878E+03-2.10002E-09 1.88845E-09
 -1       974-1.55099E+05-8.47379E+00-5.74775E+02 1.06861E+04 4.82032E-11-2.31807E-09
 -1       975-1.55060E+05 1.34699E+01-2.86424E+02 7.54383E+03 1.62891E-09 1.43200E-09
 -1       976-1.55065E+05 1.39392E+01-1.64066E+02 1.06919E+04-2.90322E-09 2.50691E-09
 -1       977-1.55066E+05 1.23028E+01-1.16705E+02 7.54302E+03 3.11627E-09 4.16475E-09
 -1       978-1.55065E+05 1.57623E+01-1.33485E+02 1.06930E+04 8.43056E-09-1.49066E-09
 -1       979-1.55066E+05 1.54130E+01-2.11689E+02 7.54270E+03 4.00448E-09 3.62888E-09
 -1       980-1.55080E+05 1.68469E+01-4.07004E+02 1.06931E+04 5.20265E-09-5.41934E-09
 -1       981-1.55053E+05 2.56127E+01-7.87262E+02 7.54290E+03-8.05471E-11 1.54398E-09
 -1       982-1.55189E+05-4.08688E+01-1.62668E+03 1.06902E+04-1.63783E-09 1.61642E-09
 -1       983-1.54954E+05-2.40893E+01-3.16018E+03 7.54563E+03 2.43654E-09-2.95199E-09
 -1       984-1.56711E+05-1.69007E+03-7.07657E+03 1.06481E+04 4.63842E-10 3.00645E-09
 -1       985-1.53525E+05-2.33576E+03-1.29948E+04 7.58717E+03 1.98474E-09 1.71894E-09
 -3
    1PSTEP                         5           3           1          
  100CL  103 3.75000E-01         409                     0    3           1
 -4  DISP        4    1
 -5  D1          1    2    1    0
 -5  D2          1    2    2    0
 -5  D3          1    2    3    0
 -5  ALL         1    2    0    0    1ALL
 -1         1 9.81792E-05 0.00000E+00 0.00000E+00
 -1         2 9.07493E-05 2.34593E-30 0.00000E+00
 -1         3 8.40302E-05 6.50265E-27 6.61744E-24
 -1         5 6.03560E-05 1.55765E-26 0.00000E+00
 -1         8 7.83503E-05-7.16214E-07 0.00000E+00
 -1         9 7.97614E-05 4.45307E-07 0.00000E+00
 -1        10 7.78495E-05-1.14785E-06 3.30872E-24
 -1        12 5.99349E-05 4.08924E-07-1.65436E-24
 -1        15 5.47520E-05-7.80432E-07 0.00000E+00
 -1        16 5.67164E-05 3.40245E-07 0.00000E+00
 -1        17 5.79942E-05-2.41468E-06 0.00000E+00
 -1        18 5.78812E-05 2.25112E-07 0.00000E+00
 -1        19 5.86719E-05 8.15597E-07 0.00000E+00
 -1        20 5.87786E-05 1.20543E-05 0.00000E+00
 -1        21 5.83764E-05 2.27838E-05 0.00000E+00
 -1        24 1.47892E-05-3.25322E-06 0.00000E+00
 -1        25 5.65440E-05 3.18946E-07 0.00000E+00
 -1        26 5.72911E-05 1.13637E-06 0.00000E+00
 -1        27 5.61599E-05 1.02368E-05 0.00000E+00
 -1        28 5.57942E-05 2.24344E-05 0.00000E+00
 -1        32 0.00000E+00 0.00000E+00 0.00000E+00
 -1        33 5.49335E-05 1.52380E-06 0.00000E+00
 -1        34 5.38406E-05 1.02205E-05 0.00000E+00
 -1        35 5.28017E-05 2.22501E-05 0.00000E+00
 -1        51 9.68896E-05-1.18206E-07 0.00000E+00
 -1        52 9.44992E-05-2.33236E-07 0.00000E+00
 -1        53 9.12247E-05-3.49171E-07 0.00000E+00
 -1        54 8.72912E-05-4.67128E-07 0.00000E+00
 -1        55 8.29243E-05-5.87779E-07-2.17135E-24
 -1        56 9.72906E-05-5.71513E-07 0.00000E+00
 -1        57 9.65110E-05-1.53439E-06 1.32349E-23
 -1        58 9.58385E-05-2.77823E-06 2.64698E-23
 -1        59 9.52268E-05-4.20170E-06 1.32349E-23
 -1        60 9.46392E-05-5.69011E-06 0.00000E+00
 -1        61 9.40321E-05-7.12960E-06-1.32349E-23
 -1        62 9.33646E-05-8.40819E-06 2.64698E-23
 -1        63 9.25965E-05-9.41803E-06-1.32349E-23
 -1        64 9.16921E-05-1.00640E-05 2.64698E-23
 -1        65 9.06189E-05-1.02596E-05-1.32349E-23
 -1        66 8.93523E-05-9.93980E-06-2.64698E-23
 -1        67 8.78730E-05-9.05149E-06 0.00000E+00
 -1        68 8.61701E-05-7.56920E-06 2.64698E-23
 -1        69 8.42438E-05-5.47932E-06-1.32349E-23
 -1        70 8.20933E-05-2.80145E-06 2.64698E-23
 -1        86 9.04622E-05 8.03023E-08 1.65436E-24
 -1        87 8.96000E-05 1.59848E-07 0.00000E+00
 -1        88 8.81372E-05 2.38656E-07 0.00000E+00
 -1        89 8.60463E-05 3.13633E-07-1.03398E-25
 -1        90 8.32733E-05 3.87941E-07 0.00000E+00
 -1       121 8.38578E-05-1.90571E-07 6.61744E-24
 -1       122 8.33411E-05-3.81259E-07-3.30872E-24
 -1       123 8.24805E-05-5.72183E-07 0.00000E+00
 -1       124 8.12773E-05-7.63489E-07 0.00000E+00
 -1       125 7.97328E-05-9.55238E-07 6.61744E-24
 -1       191 6.03443E-05 6.81595E-08 0.00000E+00
 -1       192 6.03092E-05 1.36318E-07 0.00000E+00
 -1       193 6.02508E-05 2.04475E-07 0.00000E+00
 -1       194 6.01689E-05 2.72630E-07 0.00000E+00
 -1       195 6.00636E-05 3.40780E-07-3.30872E-24
 -1       251 7.84205E-05 2.51451E-06-3.30872E-24
 -1       252 7.85088E-05 4.35808E-06-2.58494E-26
 -1       253 7.85977E-05 5.09180E-06 0.00000E+00
 -1       254 7.86896E-05 4.98826E-06 0.00000E+00
 -1       255 7.87813E-05 4.24412E-06 0.00000E+00
 -1       256 7.88732E-05 3.05342E-06 1.65436E-24
 -1       257 7.89647E-05 1.56946E-06 3.30872E-24
 -1       258 7.90562E-05-5.56477E-08 0.00000E+00
 -1       259 7.91476E-05-1.68275E-06-3.30872E-24
 -1       260 7.92392E-05-3.17266E-06-1.65436E-24
 -1       261 7.93310E-05-4.37362E-06 0.00000E+00
 -1       262 7.94227E-05-5.13277E-06 0.00000E+00
 -1       263 7.95146E-05-5.25688E-06-1.65436E-24
 -1       264 7.96033E-05-4.55013E-06-6.46235E-27
 -1       265 7.96916E-05-2.74133E-06 0.00000E+00
 -1       266 7.44173E-05-7.36741E-07 0.00000E+00
 -1       267 7.04842E-05-7.46246E-07 8.27181E-25
 -1       268 6.65512E-05-7.56450E-07 8.27181E-25
 -1       269 6.26181E-05-7.64586E-07-2.06795E-25
 -1       270 5.86851E-05-7.72673E-07 0.00000E+00
 -1       271 7.59608E-05 2.21751E-06 0.00000E+00
 -1       272 7.39330E-05 4.08074E-06 1.32349E-23
 -1       273 7.22612E-05 5.00371E-06 0.00000E+00
 -1       274 7.08885E-05 5.11375E-06 1.32349E-23
 -1       275 6.97662E-05 4.55539E-06 0.00000E+00
 -1       276 6.88360E-05 3.48083E-06 1.32349E-23
 -1       277 6.80386E-05 2.05090E-06-2.64698E-23
 -1       278 6.73119E-05 4.31361E-07-1.32349E-23
 -1       279 6.65929E-05-1.20902E-06 0.00000E+00
 -1       280 6.58186E-05-2.70114E-06 1.32349E-23
 -1       281 6.49267E-05-3.87830E-06 0.00000E+00
 -1       282 6.38569E-05-4.57835E-06 0.00000E+00
 -1       283 6.25504E-05-4.64680E-06 0.00000E+00
 -1       284 6.09561E-05-3.93710E-06 0.00000E+00
 -1       285 5.90179E-05-2.31779E-06 2.64698E-23
 -1       301 7.58526E-05 4.22900E-07 0.00000E+00
 -1       302 7.19472E-05 4.12348E-07 1.65436E-24
 -1       303 6.80631E-05 4.02182E-07 0.00000E+00
 -1       304 6.42181E-05 3.90779E-07 0.00000E+00
 -1       305 6.04300E-05 3.77616E-07-6.61744E-24
 -1       306 7.72859E-05 3.34465E-06 0.00000E+00
 -1       307 7.51792E-05 5.14749E-06 0.00000E+00
 -1       308 7.34916E-05 5.84571E-06 0.00000E+00
 -1       309 7.22057E-05 5.45310E-06 1.32349E-23
 -1       310 7.12728E-05 4.11799E-06-2.64698E-23
 -1       311 7.06230E-05 2.02102E-06 0.00000E+00
 -1       312 7.01560E-05-5.66132E-07 0.00000E+00
 -1       313 6.97635E-05-3.35395E-06 0.00000E+00
 -1       314 6.93289E-05-6.02869E-06 0.00000E+00
 -1       315 6.87370E-05-8.28083E-06 0.00000E+00
 -1       316 6.78908E-05-9.85163E-06 0.00000E+00
 -1       317 6.67037E-05-1.05073E-05 0.00000E+00
 -1       318 6.51264E-05-1.01230E-05 0.00000E+00
 -1       319 6.31331E-05-8.60942E-06 0.00000E+00
 -1       320 6.07290E-05-6.01709E-06 0.00000E+00
 -1       336 7.55845E-05-1.35628E-06-6.61744E-24
 -1       337 7.28956E-05-1.56601E-06 0.00000E+00
 -1       338 6.97866E-05-1.77684E-06 6.61744E-24
 -1       339 6.62628E-05-1.98870E-06 0.00000E+00
 -1       340 6.23298E-05-2.20206E-06 6.61744E-24
 -1       406 5.97828E-05 4.77056E-07 0.00000E+00
 -1       407 5.96074E-05 5.45163E-07 0.00000E+00
 -1       408 5.94085E-05 6.13224E-07 0.00000E+00
 -1       409 5.91862E-05 6.81154E-07 0.00000E+00
 -1       410 5.89406E-05 7.48821E-07 0.00000E+00
 -1       521 5.34066E-05 2.18264E-06 0.00000E+00
 -1       522 5.07466E-05 2.07438E-06 2.64698E-23
 -1       523 4.87747E-05 1.44387E-07 0.00000E+00
 -1       524 4.73884E-05-3.39520E-06 0.00000E+00
 -1       525 4.64148E-05-8.04657E-06 5.29396E-23
 -1       526 4.56410E-05-1.32445E-05-2.64698E-23
 -1       527 4.48249E-05-1.83286E-05 0.00000E+00
 -1       528 4.37242E-05-2.26468E-05-2.64698E-23
 -1       529 4.21449E-05-2.56784E-05 5.29396E-23
 -1       530 3.99220E-05-2.69865E-05-2.64698E-23
 -1       531 3.69993E-05-2.64305E-05 0.00000E+00
 -1       532 3.33675E-05-2.39895E-05 0.00000E+00
 -1       533 2.91358E-05-1.99668E-05-5.29396E-23
 -1       534 2.44685E-05-1.47619E-05 0.00000E+00
 -1       535 1.95783E-05-8.98674E-06-5.29396E-23
 -1       536 5.79741E-05 1.63630E-06 0.00000E+00
 -1       537 5.79631E-05 4.72406E-06 8.27181E-25
 -1       538 5.79540E-05 6.93364E-06-8.27181E-25
 -1       539 5.79474E-05 8.35032E-06 0.00000E+00
 -1       540 5.79416E-05 9.06876E-06-2.06795E-25
 -1       541 5.79362E-05 9.18378E-06 1.03398E-25
 -1       542 5.79309E-05 8.79719E-06 2.06795E-25
 -1       543 5.79253E-05 8.01092E-06 1.03398E-25
 -1       544 5.79195E-05 6.93152E-06 2.06795E-25
 -1       545 5.79135E-05 5.66559E-06 1.03398E-25
 -1       546 5.79074E-05 4.32188E-06 0.00000E+00
 -1       547 5.79014E-05 3.00919E-06 0.00000E+00
 -1       548 5.78956E-05 1.83591E-06-5.16988E-26
 -1       549 5.78902E-05 9.10435E-07 0.00000E+00
 -1       550 5.78851E-05 3.38350E-07 4.13590E-25
 -1       551 5.22664E-05-2.54170E-06 0.00000E+00
 -1       552 4.54161E-05-2.67330E-06 8.27181E-25
 -1       553 3.78405E-05-2.80992E-06 3.30872E-24
 -1       554 2.99426E-05-2.95080E-06 3.30872E-24
 -1       555 2.21255E-05-3.09328E-06 1.32349E-23
 -1       556 5.64909E-05 1.48184E-06 0.00000E+00
 -1       557 5.53419E-05 4.46093E-06 0.00000E+00
 -1       558 5.45085E-05 6.60713E-06 0.00000E+00
 -1       559 5.39556E-05 8.01166E-06 0.00000E+00
 -1       560 5.36478E-05 8.76551E-06 0.00000E+00
 -1       561 5.35502E-05 8.96016E-06 0.00000E+00
 -1       562 5.36281E-05 8.68719E-06 0.00000E+00
 -1       563 5.38469E-05 8.03824E-06 0.00000E+00
 -1       564 5.41722E-05 7.10504E-06 3.30872E-24
 -1       565 5.45695E-05 5.97932E-06 8.27181E-25
 -1       566 5.50044E-05 4.75287E-06 0.00000E+00
 -1       567 5.54427E-05 3.51747E-06 2.06795E-25
 -1       568 5.58501E-05 2.36490E-06 0.00000E+00
 -1       569 5.61922E-05 1.38683E-06 0.00000E+00
 -1       570 5.64347E-05 6.74956E-07 0.00000E+00
 -1       571 5.79292E-05 2.93503E-07 4.13590E-25
 -1       572 5.79783E-05 3.29171E-07 8.27181E-25
 -1       573 5.80276E-05 3.37939E-07-1.65436E-24
 -1       574 5.80771E-05 3.25939E-07 8.27181E-25
 -1       575 5.81267E-05 2.99329E-07-8.27181E-25
 -1       576 5.81762E-05 2.64310E-07 0.00000E+00
 -1       577 5.82258E-05 2.27085E-07 0.00000E+00
 -1       578 5.82754E-05 1.93862E-07-8.27181E-25
 -1       579 5.83250E-05 1.70850E-07-1.65436E-24
 -1       580 5.83746E-05 1.64259E-07 1.65436E-24
 -1       581 5.84242E-05 1.80296E-07 0.00000E+00
 -1       582 5.84738E-05 2.25164E-07 1.65436E-24
 -1       583 5.85234E-05 3.05057E-07 0.00000E+00
 -1       584 5.85729E-05 4.26109E-07 0.00000E+00
 -1       585 5.86225E-05 5.94414E-07 3.30872E-24
 -1       586 5.76416E-05 2.41726E-07-8.27181E-25
 -1       587 5.73809E-05 2.57921E-07-2.06795E-25
 -1       588 5.71199E-05 2.73937E-07 0.00000E+00
 -1       589 5.68795E-05 2.89700E-07 0.00000E+00
 -1       590 5.66808E-05 3.05034E-07 0.00000E+00
 -1       591 5.78326E-05 3.18704E-07-5.16988E-26
 -1       592 5.77921E-05 3.85227E-07 4.13590E-25
 -1       593 5.77598E-05 4.29827E-07 4.13590E-25
 -1       594 5.77337E-05 4.57140E-07 0.00000E+00
 -1       595 5.77122E-05 4.71865E-07-4.13590E-25
 -1       596 5.76937E-05 4.78664E-07 0.00000E+00
 -1       597 5.76764E-05 4.82199E-07 0.00000E+00
 -1       598 5.76586E-05 4.87127E-07 0.00000E+00
 -1       599 5.76385E-05 4.98105E-07 0.00000E+00
 -1       600 5.76144E-05 5.19791E-07-1.03398E-25
 -1       601 5.75845E-05 5.56841E-07 0.00000E+00
 -1       602 5.75472E-05 6.13916E-07-1.03398E-25
 -1       603 5.75007E-05 6.95679E-07-1.55096E-25
 -1       604 5.74434E-05 8.06829E-07 0.00000E+00
 -1       605 5.73735E-05 9.52001E-07 0.00000E+00
 -1       606 5.86811E-05 1.14966E-06 1.65436E-24
 -1       607 5.86885E-05 1.55446E-06 0.00000E+00
 -1       608 5.86954E-05 2.02585E-06 0.00000E+00
 -1       609 5.87021E-05 2.55915E-06 0.00000E+00
 -1       610 5.87087E-05 3.14965E-06 0.00000E+00
 -1       611 5.87153E-05 3.79259E-06 0.00000E+00
 -1       612 5.87218E-05 4.48317E-06 0.00000E+00
 -1       613 5.87282E-05 5.21663E-06 0.00000E+00
 -1       614 5.87346E-05 5.98820E-06 1.65436E-24
 -1       615 5.87410E-05 6.79307E-06 0.00000E+00
 -1       616 5.87474E-05 7.62649E-06 0.00000E+00
 -1       617 5.87538E-05 8.48366E-06-4.13590E-25
 -1       618 5.87601E-05 9.35979E-06 0.00000E+00
 -1       619 5.87664E-05 1.02501E-05 0.00000E+00
 -1       620 5.87726E-05 1.11499E-05 0.00000E+00
 -1       621 5.84073E-05 8.69095E-07 0.00000E+00
 -1       622 5.81620E-05 9.22855E-07 0.00000E+00
 -1       623 5.79318E-05 9.76607E-07 0.00000E+00
 -1       624 5.77127E-05 1.03027E-06 0.00000E+00
 -1       625 5.75005E-05 1.08385E-06 0.00000E+00
 -1       626 5.86038E-05 1.16648E-06 0.00000E+00
 -1       627 5.85142E-05 1.57593E-06 0.00000E+00
 -1       628 5.84048E-05 2.03852E-06 0.00000E+00
 -1       629 5.82776E-05 2.54845E-06 0.00000E+00
 -1       630 5.81348E-05 3.09993E-06 0.00000E+00
 -1       631 5.79787E-05 3.68711E-06 0.00000E+00
 -1       632 5.78113E-05 4.30413E-06 0.00000E+00
 -1       633 5.76349E-05 4.94518E-06 8.27181E-25
 -1       634 5.74517E-05 5.60440E-06-1.65436E-24
 -1       635 5.72638E-05 6.27594E-06 0.00000E+00
 -1       636 5.70735E-05 6.95397E-06 0.00000E+00
 -1       637 5.68830E-05 7.63265E-06-8.27181E-25
 -1       638 5.66943E-05 8.30611E-06 0.00000E+00
 -1       639 5.65097E-05 8.96854E-06 4.13590E-25
 -1       640 5.63311E-05 9.61406E-06-8.27181E-25
 -1       656 5.80274E-05 1.17586E-05 0.00000E+00
 -1       657 5.75420E-05 1.14510E-05 0.00000E+00
 -1       658 5.72204E-05 1.11445E-05 6.61744E-24
 -1       659 5.69582E-05 1.08381E-05-3.30872E-24
 -1       660 5.66423E-05 1.05308E-05 0.00000E+00
 -1       661 5.85008E-05 1.29404E-05 0.00000E+00
 -1       662 5.82396E-05 1.37885E-05 0.00000E+00
 -1       663 5.79922E-05 1.45996E-05-1.65436E-24
 -1       664 5.77585E-05 1.53753E-05-8.27181E-25
 -1       665 5.75375E-05 1.61173E-05 0.00000E+00
 -1       666 5.73287E-05 1.68268E-05 0.00000E+00
 -1       667 5.71316E-05 1.75055E-05 0.00000E+00
 -1       668 5.69455E-05 1.81547E-05 8.27181E-25
 -1       669 5.67701E-05 1.87757E-05-1.65436E-24
 -1       670 5.66047E-05 1.93699E-05-8.27181E-25
 -1       671 5.64489E-05 1.99383E-05 0.00000E+00
 -1       672 5.63022E-05 2.04823E-05 8.27181E-25
 -1       673 5.61643E-05 2.10030E-05 0.00000E+00
 -1       674 5.60341E-05 2.15013E-05 0.00000E+00
 -1       675 5.59120E-05 2.19785E-05 0.00000E+00
 -1       676 5.79452E-05 2.27252E-05-1.65436E-24
 -1       677 5.75141E-05 2.26666E-05 0.00000E+00
 -1       678 5.70833E-05 2.26081E-05-1.65436E-24
 -1       679 5.66530E-05 2.25498E-05 8.27181E-25
 -1       680 5.62233E-05 2.24914E-05 1.65436E-24
 -1       771 1.18376E-05 2.33943E-06 2.64698E-23
 -1       772 9.26550E-06 6.91444E-06-1.32349E-23
 -1       773 7.05716E-06 1.05302E-05 0.00000E+00
 -1       774 5.18804E-06 1.32485E-05 0.00000E+00
 -1       775 3.63414E-06 1.51319E-05 2.64698E-23
 -1       776 2.37050E-06 1.62453E-05 0.00000E+00
 -1       777 1.37186E-06 1.66541E-05-2.64698E-23
 -1       778 6.12545E-07 1.64255E-05 0.00000E+00
 -1       779 6.66714E-08 1.56276E-05 2.64698E-23
 -1       780-2.92010E-07 1.43294E-05 0.00000E+00
 -1       781-4.89833E-07 1.26010E-05 0.00000E+00
 -1       782-5.53428E-07 1.05130E-05-1.32349E-23
 -1       783-5.09470E-07 8.13680E-06-2.64698E-23
 -1       784-3.84784E-07 5.54432E-06 1.32349E-23
 -1       785-2.06292E-07 2.80777E-06 0.00000E+00
 -1       786 5.65880E-05 3.14389E-07 4.13590E-25
 -1       787 5.66346E-05 3.12223E-07-4.13590E-25
 -1       788 5.66810E-05 3.12769E-07 0.00000E+00
 -1       789 5.67279E-05 3.16351E-07 0.00000E+00
 -1       790 5.67748E-05 3.23620E-07 0.00000E+00
 -1       791 5.68218E-05 3.35234E-07-8.27181E-25
 -1       792 5.68689E-05 3.52320E-07 1.65436E-24
 -1       793 5.69159E-05 3.76013E-07 8.27181E-25
 -1       794 5.69630E-05 4.08162E-07 1.65436E-24
 -1       795 5.70100E-05 4.50632E-07 8.27181E-25
 -1       796 5.70570E-05 5.06396E-07-1.65436E-24
 -1       797 5.71041E-05 5.78459E-07 0.00000E+00
 -1       798 5.71511E-05 6.71571E-07-1.65436E-24
 -1       799 5.71980E-05 7.90532E-07 0.00000E+00
 -1       800 5.72449E-05 9.42917E-07-8.27181E-25
 -1       801 5.27251E-05 3.19953E-07-8.27181E-25
 -1       802 4.13550E-05 2.66022E-07 0.00000E+00
 -1       803 2.64181E-05 1.69226E-07 0.00000E+00
 -1       804 1.18968E-05 7.29353E-08 3.30872E-24
 -1       805 1.76445E-06 2.73837E-08 0.00000E+00
 -1       806 5.64882E-05 2.82112E-07 0.00000E+00
 -1       807 5.64300E-05 2.45439E-07 8.27181E-25
 -1       808 5.63699E-05 2.12577E-07 0.00000E+00
 -1       809 5.63069E-05 1.86625E-07-8.27181E-25
 -1       810 5.62402E-05 1.70675E-07-1.65436E-24
 -1       811 5.61685E-05 1.67771E-07 0.00000E+00
 -1       812 5.60907E-05 1.80958E-07 1.65436E-24
 -1       813 5.60058E-05 2.13269E-07 8.27181E-25
 -1       814 5.59125E-05 2.67740E-07 0.00000E+00
 -1       815 5.58098E-05 3.47402E-07 0.00000E+00
 -1       816 5.56965E-05 4.55283E-07 0.00000E+00
 -1       817 5.55716E-05 5.94413E-07-4.13590E-25
 -1       818 5.54337E-05 7.67820E-07-8.27181E-25
 -1       819 5.52820E-05 9.78520E-07 4.13590E-25
 -1       820 5.51154E-05 1.22953E-06-8.27181E-25
 -1       821 5.72245E-05 1.36177E-06 0.00000E+00
 -1       822 5.71538E-05 1.61034E-06-8.27181E-25
 -1       823 5.70833E-05 1.90090E-06 1.65436E-24
 -1       824 5.70121E-05 2.25214E-06 8.27181E-25
 -1       825 5.69407E-05 2.67369E-06 1.65436E-24
 -1       826 5.68693E-05 3.17490E-06 0.00000E+00
 -1       827 5.67977E-05 3.75324E-06 0.00000E+00
 -1       828 5.67261E-05 4.40592E-06 0.00000E+00
 -1       829 5.66544E-05 5.11900E-06 0.00000E+00
 -1       830 5.65828E-05 5.87836E-06 0.00000E+00
 -1       831 5.65111E-05 6.66296E-06 0.00000E+00
 -1       832 5.64396E-05 7.45166E-06 8.27181E-25
 -1       833 5.63681E-05 8.22271E-06 0.00000E+00
 -1       834 5.62975E-05 8.95443E-06 0.00000E+00
 -1       835 5.62266E-05 9.63099E-06-8.27181E-25
 -1       836 5.70064E-05 1.20087E-06 1.65436E-24
 -1       837 5.66364E-05 1.26679E-06 8.27181E-25
 -1       838 5.62126E-05 1.33259E-06 1.65436E-24
 -1       839 5.57664E-05 1.39797E-06-4.13590E-25
 -1       840 5.53296E-05 1.46324E-06 0.00000E+00
 -1       856 5.61396E-05 1.08487E-05-2.06795E-25
 -1       857 5.61171E-05 1.15384E-05 1.03398E-25
 -1       858 5.60945E-05 1.22937E-05 0.00000E+00
 -1       859 5.60716E-05 1.31022E-05 4.13590E-25
 -1       860 5.60485E-05 1.39516E-05 0.00000E+00
 -1       861 5.60254E-05 1.48293E-05-4.13590E-25
 -1       862 5.60023E-05 1.57230E-05-8.27181E-25
 -1       863 5.59791E-05 1.66203E-05-4.13590E-25
 -1       864 5.59559E-05 1.75086E-05-8.27181E-25
 -1       865 5.59328E-05 1.83755E-05 0.00000E+00
 -1       866 5.59096E-05 1.92086E-05-8.27181E-25
 -1       867 5.58865E-05 1.99955E-05 0.00000E+00
 -1       868 5.58635E-05 2.07238E-05 8.27181E-25
 -1       869 5.58404E-05 2.13812E-05 0.00000E+00
 -1       870 5.58174E-05 2.19555E-05-8.27181E-25
 -1       871 5.56943E-05 1.02362E-05 4.13590E-25
 -1       872 5.53033E-05 1.02340E-05 0.00000E+00
 -1       873 5.49549E-05 1.02316E-05 2.06795E-25
 -1       874 5.46167E-05 1.02288E-05 1.55096E-25
 -1       875 5.42559E-05 1.02256E-05-2.06795E-25
 -1       876 5.59984E-05 1.08551E-05-1.65436E-24
 -1       877 5.58243E-05 1.15113E-05 8.27181E-25
 -1       878 5.56378E-05 1.22008E-05-1.65436E-24
 -1       879 5.54405E-05 1.29194E-05 0.00000E+00
 -1       880 5.52340E-05 1.36626E-05 0.00000E+00
 -1       881 5.50199E-05 1.44263E-05-8.27181E-25
 -1       882 5.47996E-05 1.52062E-05-1.65436E-24
 -1       883 5.45749E-05 1.59981E-05 0.00000E+00
 -1       884 5.43473E-05 1.67976E-05 0.00000E+00
 -1       885 5.41184E-05 1.76005E-05 0.00000E+00
 -1       886 5.38898E-05 1.84027E-05-1.65436E-24
 -1       887 5.36630E-05 1.91997E-05 8.27181E-25
 -1       888 5.34396E-05 1.99873E-05-1.65436E-24
 -1       889 5.32210E-05 2.07613E-05 0.00000E+00
 -1       890 5.30089E-05 2.15173E-05-8.27181E-25
 -1       891 5.53803E-05 2.24036E-05-8.27181E-25
 -1       892 5.49530E-05 2.23726E-05 0.00000E+00
 -1       893 5.44968E-05 2.23417E-05 4.13590E-25
 -1       894 5.39964E-05 2.23108E-05-2.06795E-25
 -1       895 5.34364E-05 2.22800E-05-4.13590E-25
 -1       956 5.48665E-05 1.90641E-06 0.00000E+00
 -1       957 5.47983E-05 2.33285E-06 4.13590E-25
 -1       958 5.47300E-05 2.79856E-06 1.65436E-24
 -1       959 5.46615E-05 3.29871E-06 0.00000E+00
 -1       960 5.45930E-05 3.82849E-06 0.00000E+00
 -1       961 5.45244E-05 4.38302E-06 8.27181E-25
 -1       962 5.44559E-05 4.95745E-06 1.65436E-24
 -1       963 5.43873E-05 5.54691E-06-8.27181E-25
 -1       964 5.43187E-05 6.14655E-06 1.65436E-24
 -1       965 5.42501E-05 6.75149E-06-8.27181E-25
 -1       966 5.41815E-05 7.35688E-06 0.00000E+00
 -1       967 5.41129E-05 7.95784E-06 8.27181E-25
 -1       968 5.40444E-05 8.54951E-06-1.65436E-24
 -1       969 5.39760E-05 9.12705E-06 0.00000E+00
 -1       970 5.39078E-05 9.68561E-06-1.65436E-24
 -1       971 5.37765E-05 1.07701E-05 1.65436E-24
 -1       972 5.37115E-05 1.13774E-05 0.00000E+00
 -1       973 5.36464E-05 1.20361E-05-1.65436E-24
 -1       974 5.35812E-05 1.27396E-05-8.27181E-25
 -1       975 5.35159E-05 1.34812E-05 1.65436E-24
 -1       976 5.34506E-05 1.42542E-05 0.00000E+00
 -1       977 5.33852E-05 1.50521E-05 1.65436E-24
 -1       978 5.33199E-05 1.58681E-05 0.00000E+00
 -1       979 5.32545E-05 1.66956E-05 0.00000E+00
 -1       980 5.31891E-05 1.75279E-05 0.00000E+00
 -1       981 5.31238E-05 1.83584E-05 0.00000E+00
 -1       982 5.30585E-05 1.91803E-05 0.00000E+00
 -1       983 5.29933E-05 1.99871E-05-1.65436E-24
 -1       984 5.29284E-05 2.07721E-05 0.00000E+00
 -1       985 5.28638E-05 2.15285E-05 0.00000E+00
 -3
    1PSTEP                         6           3           1          
  100CL  103 3.75000E-01         409                     0    3           1
 -4  STRESS      6    1
 -5  SXX         1    4    1    1
 -5  SYY         1    4    2    2
 -5  SZZ         1    4    3    3
 -5  SXY         1    4    1    2
 -5  SYZ         1    4    2    3
 -5  SZX         1    4    3    1
 -1         1-1.28865E+06-5.92972E+05-2.62577E+05-8.37049E+05 1.81899E-10-1.41881E-09
 -1         2 2.16598E+03 2.32699E+05 7.08467E+03 5.68554E+02-1.49100E-10-3.01259E-09
 -1         3-4.74941E+01-5.44564E+05 1.26491E+02-1.50199E+02-7.75042E-11 5.95355E-09
 -1         5-4.39359E+00 1.95023E+05 5.10937E+00 2.14747E-02 7.30770E-11 2.16914E-10
 -1         8-6.01353E+05-2.62802E+05-1.70744E+04-4.62139E+05-2.52840E-10 1.80444E-09
 -1         9-1.03879E+06-2.67732E+05-9.95136E+04-3.58828E+05 2.77214E-09 1.25146E-10
 -1        10-4.23340E+02-5.67321E+05-7.29409E+02-1.00844E+03-2.70211E-09-1.72538E-08
 -1        12-2.29796E+00 1.95034E+05 1.65678E+02 4.21952E-01 1.79146E-10-2.13731E-10
 -1        15 1.62767E+03 8.94494E+02 5.26142E+03 2.76834E+00-4.58272E-10-8.36390E-08
 -1        16-2.94828E+06-9.46955E+05-4.58470E+05-9.61892E+05 8.72630E-09 2.80367E-09
 -1        17-6.52507E+05-4.00566E+05-1.25698E+05-3.76648E+05-4.44415E-09-9.95351E-10
 -1        18 2.06352E+04 1.55541E+03-9.80276E+03-4.59604E+04 5.68434E-10 1.57092E-09
 -1        19 6.10918E+04 7.28694E+04-3.39618E+02 1.19598E+04-4.51837E-10-1.50285E-09
 -1        20-2.53623E+04-2.88709E+05-6.36674E+04 2.13993E+04 4.23142E-09-6.91822E-10
 -1        21-2.73116E+01-1.67440E+05-5.40864E+02-4.95230E+01-5.64514E-09-1.04691E-08
 -1        24-2.59742E+06-8.91345E+05-3.70020E+05-1.08622E+06-1.21824E-08-7.11589E-09
 -1        25 2.34645E+04-1.52139E+03 1.40104E+04-8.30787E+04 2.88765E-10 1.95196E-09
 -1        26-1.40892E+04 4.98048E+04-9.85782E+03-7.15037E+03 1.17288E-09 3.25963E-09
 -1        27-4.62463E+04-1.58416E+05-5.94338E+04 3.56989E+04 4.74006E-09 1.66225E-09
 -1        28 1.29507E+04-4.62476E+04 9.45444E+03 1.48391E+04 2.12395E-09-9.98490E-10
 -1        32-6.16061E+05-8.57119E+04 2.68155E+05-4.17141E+05-1.21727E-08 1.06339E-08
 -1        33-9.05849E+04 4.66003E+04 1.65186E+04-2.70939E+04 7.85841E-10 4.41772E-09
 -1        34-1.17633E+05-1.17051E+04 2.76803E+02 3.61589E+04 3.14482E-09 3.49928E-09
 -1        35-1.31731E+04-1.83881E+04-7.18637E+02 2.91645E+04 3.28716E-09-4.60811E-10
 -1        51 1.13241E+04-3.03114E+05 2.86769E+04-7.57610E+05 1.60071E-10-3.72529E-09
 -1        52 6.54842E+03-3.01547E+05 1.92541E+04-8.83622E+05 7.13044E-10 2.64117E-09
 -1        53 4.66976E+03-3.10319E+05 1.69895E+04-7.55008E+05 7.34872E-10-3.41970E-09
 -1        54 1.41176E+04-3.08355E+05 2.78324E+04-8.86361E+05 1.09139E-10-6.91216E-09
 -1        55 2.96870E+04-3.18761E+05 5.01716E+04-7.54631E+05 5.16593E-10-1.50249E-09
 -1        56-2.47499E+06-2.79472E+05-1.93414E+05-9.54140E+05-1.28421E-09-5.95901E-09
 -1        57-2.55151E+06-4.55568E+05-1.30363E+05-9.47999E+05-1.38016E-09 9.54969E-10
 -1        58-2.51397E+06-3.40586E+05-4.55213E+04-9.41845E+05 9.09495E-10 8.92760E-09
 -1        59-2.50637E+06-3.83940E+05-2.71739E+04-9.62788E+05 8.95852E-11-7.17728E-09
 -1        60-2.51974E+06-3.49025E+05-1.06346E+04-9.40091E+05-2.21007E-09 2.76032E-10
 -1        61-2.50043E+06-3.73296E+05-6.04467E+03-9.63938E+05-4.95675E-11-2.67403E-09
 -1        62-2.51982E+06-3.50973E+05-2.91430E+03-9.40767E+05 2.14141E-09-9.66804E-09
 -1        63-2.50188E+06-3.69662E+05-2.38322E+03-9.61310E+05 2.78294E-09 5.03292E-10
 -1        64-2.51821E+06-3.52672E+05-2.75063E+03-9.42681E+05 1.67006E-09-5.31213E-09
 -1        65-2.50648E+06-3.66732E+05-5.47176E+03-9.56460E+05 7.05768E-10-1.05670E-08
 -1        66-2.51516E+06-3.53979E+05-9.66266E+03-9.45555E+05-2.76964E-09 1.50339E-09
 -1        67-2.51723E+06-3.70826E+05-2.44803E+04-9.49067E+05-7.83757E-10 1.53159E-09
 -1        68-2.50748E+06-3.48850E+05-4.11265E+04-9.49962E+05 5.29326E-10 4.35284E-09
 -1        69-2.56215E+06-4.31337E+05-1.17587E+05-9.31114E+05 9.62700E-10-3.66890E-09
 -1        70-2.47064E+06-2.95310E+05-1.74555E+05-9.62868E+05-2.51021E-10 1.84082E-09
 -1        86-1.08721E+03 2.30457E+05 7.57793E+03-2.84295E+02 9.46329E-10-1.88436E-09
 -1        87 7.21232E+03 2.35174E+05 1.58279E+04 1.17151E+03 1.60412E-09-1.24280E-09
 -1        88-6.11974E+03 2.27985E+05 2.42121E+04-8.87265E+02 2.39561E-09 9.12337E-11
 -1        89 4.56038E+04 2.53100E+05 6.53268E+04 2.53609E+03 3.64162E-09-1.24089E-08
 -1        90-3.93556E+04 2.12545E+05 9.22499E+04-1.64850E+03 4.17276E-09 6.29541E-10
 -1       121-7.90109E+01-5.44803E+05 1.13074E+02 7.50301E+01 3.15502E-10 6.05451E-09
 -1       122-5.82455E+00-5.44537E+05 2.75387E+02-3.00458E+02-1.02272E-09 1.97406E-09
 -1       123-1.08765E+02-5.44832E+05 4.38641E+02 2.25018E+02 8.53788E-10 4.54747E-11
 -1       124 5.01960E+02-5.44228E+05 1.15296E+03-6.95977E+02-1.97019E-09 7.12089E-09
 -1       125-4.37789E+02-5.45119E+05 1.76106E+03 4.70460E+02 1.31013E-09 3.82624E-09
 -1       191-4.78164E+00 1.95039E+05 6.07188E+00-1.11917E-02 1.19133E-10-1.28512E-09
 -1       192-4.86320E+00 1.95023E+05 1.08202E+01 4.24689E-01 1.77385E-10-3.31056E-10
 -1       193-6.03029E+00 1.95039E+05 2.00887E+01-4.16581E-01 2.08535E-10-5.29417E-09
 -1       194-6.37448E+00 1.95025E+05 4.09329E+01 1.11452E+00 1.08824E-10-2.11617E-09
 -1       195-8.43014E+00 1.95038E+05 8.00335E+01-7.06066E-01 3.34321E-10 7.50788E-10
 -1       251 2.46179E+05-3.98596E+04 9.23488E+04 3.20048E+03-4.35364E-10-3.36149E-09
 -1       252 2.88490E+05 4.61123E+04 6.56518E+04-8.48619E+03 4.27463E-10 9.72068E-09
 -1       253 2.62241E+05-6.20530E+03 2.39065E+04 1.76550E+03 3.51349E-10 2.02635E-09
 -1       254 2.69602E+05 7.17219E+03 1.51385E+04-6.27934E+03-1.29333E-10-1.31859E-08
 -1       255 2.65016E+05-9.62037E+02 6.18028E+03 9.93740E+02 4.19462E-10 4.79304E-10
 -1       256 2.66314E+05 1.13737E+03 3.76086E+03-5.15751E+03-4.61043E-10-3.29305E-09
 -1       257 2.65512E+05-1.68286E+02 1.93408E+03 6.43658E+02-1.05375E-07 1.27504E-08
 -1       258 2.65816E+05 3.49424E+02 1.71844E+03-4.80502E+03-2.45433E-07-1.11013E-09
 -1       259 2.65510E+05-1.71947E+02 1.96754E+03 6.41241E+02-1.06126E-07 9.87927E-09
 -1       260 2.66329E+05 1.16903E+03 3.85675E+03-5.14788E+03-1.00730E-09-1.17704E-08
 -1       261 2.65003E+05-9.89893E+02 6.35433E+03 9.86525E+02 7.56017E-10-5.85101E-09
 -1       262 2.69698E+05 7.38016E+03 1.55701E+04-6.25775E+03 6.19295E-10 1.71326E-09
 -1       263 2.62158E+05-6.38482E+03 2.46000E+04 1.75112E+03-1.15858E-09 2.90947E-09
 -1       264 2.89095E+05 4.74451E+04 6.75397E+04-8.45001E+03-4.24961E-10 4.87489E-09
 -1       265 2.45656E+05-4.10091E+04 9.50312E+04 3.17867E+03-5.81736E-10 6.25732E-09
 -1       266-2.94658E+04-1.37772E+04 6.91395E+04-5.92373E+01-5.09317E-10-1.35988E-07
 -1       267 3.41594E+04 1.60591E+04 4.88645E+04 6.83438E+01-1.03591E-09-2.74234E-07
 -1       268-4.58070E+03-2.27434E+03 1.81628E+04-8.70842E+00-7.83984E-10-2.22528E-07
 -1       269 5.40848E+03 2.72198E+03 1.18054E+04 1.01438E+01-4.82146E-10-1.62383E-07
 -1       270-8.11819E+02-4.47240E+02 5.69865E+03-1.37659E+00-4.19504E-10-1.18589E-07
 -1       271-2.86992E+06-3.58355E+05-2.20390E+05-1.11816E+06 2.96495E-10 3.53612E-09
 -1       272-2.93224E+06-5.35681E+05-1.41666E+05-1.13514E+06-1.03398E-09-6.19730E-09
 -1       273-2.91226E+06-4.12333E+05-5.20618E+04-1.10736E+06-5.48880E-10-1.44792E-09
 -1       274-2.88264E+06-4.69682E+05-2.91253E+04-1.15194E+06-1.60298E-09 1.08412E-09
 -1       275-2.91906E+06-4.16904E+05-1.21104E+04-1.10446E+06-2.67391E-10 2.73940E-09
 -1       276-2.87460E+06-4.64392E+05-6.43007E+03-1.15665E+06-1.50294E-10 2.67892E-09
 -1       277-2.92070E+06-4.16580E+05-3.14658E+03-1.10327E+06-1.00158E-09 1.34605E-09
 -1       278-2.87305E+06-4.64562E+05-2.28858E+03-1.15808E+06 1.20338E-09 3.76212E-09
 -1       279-2.92079E+06-4.16545E+05-2.45899E+03-1.10320E+06-2.83308E-10-3.28055E-09
 -1       280-2.87413E+06-4.64285E+05-4.50698E+03-1.15697E+06-7.31006E-10 3.97176E-09
 -1       281-2.91946E+06-4.16998E+05-8.26115E+03-1.10424E+06-1.45428E-09-1.96451E-10
 -1       282-2.88017E+06-4.67146E+05-1.97031E+04-1.15288E+06-2.18506E-09-7.53244E-09
 -1       283-2.91435E+06-4.14477E+05-3.52173E+04-1.10678E+06-1.38243E-10-4.59113E-09
 -1       284-2.91479E+06-5.10428E+05-9.56816E+04-1.13989E+06-6.74163E-10-1.80626E-09
 -1       285-2.88495E+06-3.78895E+05-1.48990E+05-1.11498E+06 2.28374E-09 2.24827E-09
 -1       301 1.11830E+04-6.74285E+03 8.69370E+04-2.13534E+04-7.67614E-10 4.71545E-09
 -1       302 1.20141E+04 1.53056E+04 6.26519E+04-3.14466E+04 1.31922E-09-8.59188E-09
 -1       303 5.48932E+02 1.08267E+03 5.74833E+04-2.14129E+04-4.77485E-10-1.43109E-09
 -1       304 2.24197E+04 2.49106E+04 9.64875E+04-3.13546E+04 1.36424E-09-4.50200E-10
 -1       305 2.22047E+04-1.62775E+04 1.61824E+05-2.13780E+04-5.38421E-10 3.67436E-09
 -1       306-3.08598E+06-3.57742E+05-2.34637E+05-1.20693E+06 1.19326E-09-1.23109E-08
 -1       307-3.20806E+06-5.54682E+05-1.59952E+05-1.16463E+06 2.60843E-09-1.84082E-09
 -1       308-3.14086E+06-4.29141E+05-5.52265E+04-1.18317E+06 2.27965E-09-5.60249E-10
 -1       309-3.13912E+06-4.77076E+05-3.33935E+04-1.19885E+06 1.15108E-09-1.87356E-09
 -1       310-3.15462E+06-4.33913E+05-1.29685E+04-1.17321E+06-1.19337E-09-5.80349E-09
 -1       311-3.12108E+06-4.73905E+05-7.49282E+03-1.21343E+06 5.21328E-09-9.20977E-10
 -1       312-3.15903E+06-4.31981E+05-3.66978E+03-1.16879E+06 1.50635E-11 1.48816E-10
 -1       313-3.11751E+06-4.74963E+05-3.30889E+03-1.21694E+06-2.73178E-09 1.42603E-09
 -1       314-3.15824E+06-4.32783E+05-3.99475E+03-1.16976E+06-2.62094E-09-4.04884E-09
 -1       315-3.12410E+06-4.71188E+05-8.38666E+03-1.20980E+06-8.65953E-10-8.65271E-10
 -1       316-3.15231E+06-4.35879E+05-1.47102E+04-1.17582E+06 1.71110E-09 3.05499E-09
 -1       317-3.14545E+06-4.74104E+05-3.79122E+04-1.19252E+06 8.25025E-10-3.12866E-10
 -1       318-3.13679E+06-4.30217E+05-6.27168E+04-1.18685E+06-2.65572E-09 2.70302E-09
 -1       319-3.22260E+06-5.63748E+05-1.81757E+05-1.15548E+06-3.82261E-09-6.42649E-09
 -1       320-3.07559E+06-3.47798E+05-2.66474E+05-1.21235E+06 6.38829E-09-4.91855E-09
 -1       336 4.10518E+02-5.89783E+05-3.15639E+03 5.37082E+02-5.05975E-09 3.18687E-09
 -1       337-1.14294E+03-5.90616E+05-3.45779E+03-1.40824E+03-9.67100E-09 1.05365E-09
 -1       338 2.68856E+02-5.89873E+05-4.37356E+03 8.68578E+02-6.89818E-09 1.51522E-09
 -1       339-4.52257E+03-5.92697E+05-9.56943E+03-2.06401E+03-1.24003E-08-5.87988E-09
 -1       340 3.06296E+03-5.87736E+05-1.47566E+04 1.18873E+03-8.17954E-09 4.88126E-09
 -1       406 1.03210E+01 1.95030E+05 3.27058E+02 2.72110E-01 4.64667E-10-2.61298E-09
 -1       407 1.11753E+02 1.95091E+05 6.95206E+02-7.54337E+00 8.90878E-11 3.22711E-09
 -1       408 3.55533E+02 1.94980E+05 1.38844E+03 7.37671E+00 5.40467E-10 7.83075E-10
 -1       409 1.49920E+03 1.95535E+05 3.12591E+03-6.87428E+01-3.00133E-11-1.01620E-08
 -1       410 4.31159E+03 1.94585E+05 6.38144E+03 6.33760E+01 5.23869E-10 3.12866E-09
 -1       521-5.83270E+06-6.73886E+05-4.37133E+05-2.26912E+06 4.65661E-09-4.86034E-09
 -1       522-6.03608E+06-1.05555E+06-2.96664E+05-2.21532E+06-3.10229E-09-3.05590E-09
 -1       523-5.94188E+06-7.96800E+05-1.02817E+05-2.21611E+06 1.23418E-09-6.62112E-10
 -1       524-5.90043E+06-9.21994E+05-6.17958E+04-2.28976E+06 2.56819E-10 1.29148E-09
 -1       525-5.96793E+06-8.03731E+05-2.39286E+04-2.19613E+06 2.30534E-09 7.02494E-09
 -1       526-5.87398E+06-9.09815E+05-1.37708E+04-2.30894E+06 2.54630E-09 1.47963E-09
 -1       527-5.96851E+06-8.08213E+05-6.67171E+03-2.19735E+06 2.24418E-09 3.07932E-09
 -1       528-5.88802E+06-8.89221E+05-5.42587E+03-2.28837E+06-2.64845E-09 2.35741E-09
 -1       529-5.95323E+06-8.24704E+05-6.97610E+03-2.21624E+06-2.92039E-09 1.76215E-09
 -1       530-5.92793E+06-8.52599E+05-1.31953E+04-2.24151E+06-1.92335E-09 1.13869E-09
 -1       531-5.92796E+06-8.45363E+05-2.42084E+04-2.24370E+06-6.31644E-10 1.60071E-10
 -1       532-5.98766E+06-8.33264E+05-6.11639E+04-2.18803E+06 1.12749E-10-6.05451E-09
 -1       533-5.89413E+06-8.44224E+05-1.01878E+05-2.26991E+06 4.34375E-09-6.83212E-09
 -1       534-6.11732E+06-9.74830E+05-2.94875E+05-2.12711E+06 3.63889E-09 6.07906E-09
 -1       535-5.80033E+06-7.06372E+05-4.33333E+05-2.30437E+06-7.38510E-09 5.35510E-09
 -1       536-2.28177E+04-1.59606E+04 3.67363E+04 2.74919E+02-1.52662E-09 1.02264E-08
 -1       537-5.60649E+03 1.84664E+04 2.62100E+04-1.30881E+03-6.38761E-09 5.25506E-09
 -1       538-1.65068E+04-2.50217E+03 9.46745E+03 2.92920E+02 6.16609E-11 4.98039E-09
 -1       539-1.30706E+04 2.88719E+03 6.07172E+03-1.37186E+03 2.44739E-09 2.45336E-10
 -1       540-1.53627E+04-3.89574E+02 2.38457E+03 3.37965E+02 8.54513E-10 1.08150E-09
 -1       541-1.44906E+04 4.44619E+02 1.43890E+03-1.45158E+03-1.79874E-11 7.14860E-09
 -1       542-1.50928E+04-5.72788E+01 5.65662E+02 3.72624E+02 3.27510E-10-5.07328E-11
 -1       543-1.48599E+04 5.28071E+01 2.84076E+02-1.50663E+03-5.75117E-10-7.07590E-09
 -1       544-1.49974E+04 4.90448E+00 2.41169E+01 3.93015E+02-5.50568E-10-3.34597E-09
 -1       545-1.50140E+04-8.38433E+01-2.07807E+02-1.53249E+03-3.98434E-10-9.57165E-10
 -1       546-1.49406E+04 8.06999E+01-4.63087E+02 3.98487E+02 4.18008E-10 1.62774E-09
 -1       547-1.52523E+04-5.95190E+02-1.21273E+03-1.52832E+03-1.82969E-09 3.97876E-10
 -1       548-1.47589E+04 5.15641E+02-1.96679E+03 3.88843E+02-2.00128E-09-7.64544E-10
 -1       549-1.66298E+04-3.80030E+03-5.35579E+03-1.49263E+03-1.03712E-09 2.85445E-09
 -1       550-1.35604E+04 3.28143E+03-7.63573E+03 3.62794E+02-1.42961E-11 1.05183E-09
 -1       551 5.74419E+03-3.09359E+05 1.69922E+04-5.30525E+05-2.35668E-08 4.94765E-09
 -1       552 1.20785E+04-3.10138E+05 2.22727E+04-7.55020E+05-1.81972E-08 1.41590E-08
 -1       553 7.92740E+03-3.14192E+05 3.47279E+04-5.28804E+05-2.80488E-08 7.43239E-09
 -1       554 2.93191E+04-2.99370E+05 7.37945E+04-7.55745E+05-1.72149E-08 3.11593E-09
 -1       555 2.93070E+04-3.28264E+05 1.32592E+05-5.29495E+05-2.77651E-08-2.14277E-09
 -1       556 4.39929E+04-9.92538E+04 3.41924E+04-1.31956E+05-5.63159E-09-7.39237E-09
 -1       557 8.42447E+04-1.32933E+05 1.79167E+04-1.64928E+05-1.89175E-09 1.36470E-09
 -1       558 4.42531E+04-1.04040E+05 7.30711E+03-1.27815E+05-1.07320E-08-1.04992E-08
 -1       559 7.92405E+04-1.37747E+05 3.68851E+03-1.67029E+05 2.80488E-09 1.43186E-08
 -1       560 4.33615E+04-1.03434E+05 1.55737E+03-1.28347E+05-1.29512E-09 5.61340E-09
 -1       561 7.77449E+04-1.37430E+05 8.13192E+02-1.67968E+05-2.96495E-09 7.53516E-10
 -1       562 4.26217E+04-1.02928E+05 3.22874E+02-1.28883E+05-1.25874E-09-7.19183E-10
 -1       563 7.68652E+04-1.37054E+05 1.92351E+02-1.68530E+05-2.69210E-10-3.93771E-09
 -1       564 4.21622E+04-1.02628E+05 7.00830E+01-1.29212E+05 4.54565E-09-3.99723E-10
 -1       565 7.64129E+04-1.36862E+05 3.72560E+01-1.68813E+05 2.27010E-09 1.86628E-09
 -1       566 4.20035E+04-1.02520E+05-2.16422E+01-1.29328E+05-4.02088E-09-6.90579E-09
 -1       567 7.63548E+04-1.36833E+05-9.48105E+01-1.68800E+05 1.98088E-09-8.75298E-09
 -1       568 4.21717E+04-1.02632E+05-2.55803E+02-1.29257E+05 1.43700E-10 1.44610E-09
 -1       569 7.61864E+04-1.36717E+05-6.01208E+02-1.68058E+05-1.32059E-09 4.39104E-09
 -1       570 4.30810E+04-1.03496E+05-1.25426E+03-1.29299E+05 1.65164E-09-2.69483E-09
 -1       571 1.41388E+05 5.12575E+03 7.59433E+03-3.55951E+04-7.48514E-10 4.31669E-09
 -1       572 1.42519E+05 1.78264E+03 3.72057E+03-3.90181E+04 1.00272E-10 3.69596E-09
 -1       573 1.41844E+05 4.24746E+02 1.65281E+03-3.55020E+04 1.74123E-09 5.54746E-09
 -1       574 1.41979E+05 1.37639E+02 8.27990E+02-3.91223E+04 1.06604E-09-3.78350E-09
 -1       575 1.41896E+05 1.83838E+01 3.90195E+02-3.54896E+04 4.43833E-10 9.69976E-10
 -1       576 1.41906E+05 4.51384E+00 1.98541E+02-3.91362E+04-6.29655E-10 8.88849E-09
 -1       577 1.41904E+05-3.38344E+00 9.77372E+01-3.54880E+04 1.09172E-08 8.91714E-09
 -1       578 1.41898E+05-1.79837E+00 5.31659E+01-3.91379E+04 1.96605E-08 3.84080E-09
 -1       579 1.41911E+05-4.01711E+00 3.23768E+01-3.54880E+04 9.21182E-09-3.29283E-09
 -1       580 1.41906E+05-4.83354E+00 2.99461E+01-3.91357E+04-4.18368E-10 2.82944E-09
 -1       581 1.41922E+05-7.60696E+00 4.04306E+01-3.54902E+04-6.27551E-11 2.78987E-09
 -1       582 1.41929E+05-1.17669E+00 7.67587E+01-3.91145E+04-9.25866E-10 4.98858E-10
 -1       583 1.41936E+05 1.86062E+01 1.47321E+02-3.55092E+04 2.85581E-10-5.85953E-09
 -1       584 1.41999E+05 1.33900E+02 3.30100E+02-3.89561E+04-5.96629E-10-3.33375E-09
 -1       585 1.41916E+05 4.25660E+02 6.70617E+02-3.56489E+04-4.72937E-11-2.00816E-09
 -1       586-1.74226E+03 4.61789E+04-2.30768E+03-1.21105E+05 3.68573E-10 1.68188E-09
 -1       587-3.79176E+02 4.58697E+04-2.73374E+02-1.33265E+05 6.57565E-10 1.35037E-09
 -1       588 4.76698E+02 4.59306E+04 1.60362E+03-1.21031E+05 3.68345E-10 5.74164E-09
 -1       589 2.39539E+03 4.68095E+04 4.69197E+03-1.33155E+05 5.53882E-10 1.10595E-09
 -1       590 6.88729E+03 4.53502E+04 1.00555E+04-1.21215E+05 2.83762E-10 3.85262E-09
 -1       591-3.08664E+04-8.85100E+03-1.02761E+04-1.60229E+04 2.74554E-10 1.95632E-09
 -1       592-3.18257E+04-1.13778E+04-5.56595E+03-1.87062E+04 8.21046E-10-9.45874E-10
 -1       593-3.19053E+04-8.09382E+03-2.31715E+03-1.67647E+04-2.27601E-10-1.51317E-09
 -1       594-3.03934E+04-9.88430E+03-1.15568E+03-1.87774E+04 9.84528E-10 1.91679E-09
 -1       595-3.19848E+04-8.09044E+03-5.31111E+02-1.67987E+04-1.59429E-09-3.40310E-09
 -1       596-3.02964E+04-9.81592E+03-2.70739E+02-1.87672E+04 9.40645E-10 4.86693E-10
 -1       597-3.19948E+04-8.09704E+03-1.49037E+02-1.68001E+04-4.19188E-10-2.49219E-09
 -1       598-3.02872E+04-9.81330E+03-1.22762E+02-1.87644E+04 1.00650E-09-2.97382E-09
 -1       599-3.19942E+04-8.09702E+03-1.60480E+02-1.67999E+04 1.56194E-09-3.50724E-10
 -1       600-3.02977E+04-9.81676E+03-3.01091E+02-1.87671E+04 2.83364E-10-5.80496E-09
 -1       601-3.19817E+04-8.08977E+03-5.95484E+02-1.67979E+04 4.47926E-11-3.86478E-09
 -1       602-3.04068E+04-9.89344E+03-1.29869E+03-1.87774E+04 5.21538E-10-4.57351E-09
 -1       603-3.18915E+04-8.09472E+03-2.60478E+03-1.67599E+04 3.58341E-10 2.04341E-09
 -1       604-3.20222E+04-1.15665E+04-6.25724E+03-1.86899E+04 3.80680E-10 8.23093E-11
 -1       605-3.07168E+04-8.95084E+03-1.15522E+04-1.59316E+04-4.93174E-10-1.35697E-09
 -1       606 2.02253E+04-6.80732E+03-1.22616E+04 1.97753E+04-1.79807E-09-2.65118E-09
 -1       607 1.81254E+04-2.19555E+03-6.10569E+03 2.21988E+04 7.22139E-10 3.48848E-09
 -1       608 1.93202E+04-3.69337E+02-2.73388E+03 1.96175E+04 1.96269E-09 1.87447E-09
 -1       609 1.90840E+04-9.68559E+01-1.38096E+03 2.23730E+04-2.17369E-09-1.30308E-09
 -1       610 1.92135E+04 1.69691E+01-6.59404E+02 1.95998E+04-3.95903E-09 2.72894E-09
 -1       611 1.91698E+04 2.43850E+01-3.32685E+02 2.23921E+04-7.52834E-09 3.03135E-09
 -1       612 1.91869E+04 2.61000E+01-1.59065E+02 1.95981E+04-3.25235E-09 3.57886E-10
 -1       613 1.91711E+04 2.87579E+01-7.26086E+01 2.23944E+04-4.52565E-09-6.03654E-09
 -1       614 1.91731E+04 2.52258E+01-2.02870E+01 1.95975E+04-9.48148E-10 2.90493E-09
 -1       615 1.91650E+04 3.13675E+01 2.23965E+01 2.23948E+04 4.53792E-09 2.08615E-09
 -1       616 1.91626E+04 2.82314E+01 7.45988E+01 1.95977E+04-2.73940E-09-2.14004E-09
 -1       617 1.91711E+04 4.92137E+01 1.73034E+02 2.23944E+04 7.26004E-10-3.28896E-09
 -1       618 1.91453E+04 7.96079E+01 3.49858E+02 1.95978E+04 1.27443E-09-5.03951E-09
 -1       619 1.92929E+04 3.21036E+02 7.86339E+02 2.23940E+04-1.93609E-10-1.47247E-09
 -1       620 1.90279E+04 9.10775E+02 1.58073E+03 1.95971E+04 1.16313E-09 1.04956E-09
 -1       621 2.46662E+02 1.54014E+05 2.13355E+03 4.94537E+03-3.18011E-10 5.08180E-11
 -1       622 2.81812E+02 1.54543E+05 1.80942E+03 7.22071E+03-2.18790E-10 5.25210E-09
 -1       623 1.18500E+01 1.54167E+05 2.07902E+03 4.92210E+03-1.74111E-10-2.69881E-09
 -1       624 9.40172E+02 1.55147E+05 3.94635E+03 7.24349E+03-2.29647E-10-4.33238E-09
 -1       625 9.43877E+02 1.53407E+05 6.85979E+03 4.92282E+03-2.02135E-10 2.22298E-09
 -1       626 1.26997E+05 3.52373E+04 2.52984E+03 6.87260E+04 8.49741E-09-4.00905E-09
 -1       627 1.25253E+05 3.65232E+04 1.21878E+03 7.15092E+04 1.62581E-08-9.25263E-09
 -1       628 1.27095E+05 3.40388E+04 5.14960E+02 6.91080E+04 1.13369E-08-6.43581E-09
 -1       629 1.24890E+05 3.62354E+04 2.52303E+02 7.16779E+04 8.56562E-09-2.44870E-09
 -1       630 1.27103E+05 3.39809E+04 1.16758E+02 6.91192E+04 3.90446E-09-6.23106E-09
 -1       631 1.24847E+05 3.62284E+04 6.27483E+01 7.16809E+04 1.86378E-09 5.76808E-09
 -1       632 1.27098E+05 3.39847E+04 4.14899E+01 6.91144E+04 6.48151E-09 5.72371E-09
 -1       633 1.24839E+05 3.62317E+04 4.63472E+01 7.16769E+04 8.34780E-09-1.34937E-08
 -1       634 1.27092E+05 3.39848E+04 7.51037E+01 6.91116E+04 1.91926E-08 1.46097E-08
 -1       635 1.24842E+05 3.62327E+04 1.52329E+02 7.16769E+04 4.70061E-09-4.97494E-10
 -1       636 1.27084E+05 3.39841E+04 3.07738E+02 6.91095E+04 6.72344E-10-2.03067E-09
 -1       637 1.24905E+05 3.62818E+04 6.76395E+02 7.16737E+04 3.44855E-09-6.37738E-09
 -1       638 1.27057E+05 3.41352E+04 1.39022E+03 6.90396E+04 6.52562E-11-4.22551E-09
 -1       639 1.25631E+05 3.72992E+04 3.28890E+03 7.14570E+04-1.98912E-09-1.37334E-09
 -1       640 1.26959E+05 3.71633E+04 6.82548E+03 6.77537E+04-1.70098E-09 4.74688E-09
 -1       656 3.44412E+04-8.71663E+05-8.31524E+04-4.78695E+02-4.72937E-11-3.62624E-09
 -1       657-4.55083E+04-9.09211E+05-6.87656E+04 5.68865E+03 8.02174E-10-2.01537E-09
 -1       658 1.09189E+04-8.82378E+05-4.21981E+04-1.11766E+03 1.19735E-09 1.59034E-09
 -1       659-4.87861E+04-9.10758E+05-7.30706E+04 6.11085E+03 1.00499E-09 1.28280E-09
 -1       660 3.77104E+04-8.70120E+05-9.05620E+04-9.00885E+02-3.92902E-10-2.25755E-09
 -1       661 1.23908E+05 1.34730E+04 1.18771E+04 4.83942E+04 8.79481E-10 4.05771E-09
 -1       662 1.30073E+05 2.28092E+04 8.00314E+03 4.63523E+04 1.40352E-09-3.31909E-09
 -1       663 1.26233E+05 1.72903E+04 2.79957E+03 4.77255E+04 3.91310E-10-1.44280E-09
 -1       664 1.27384E+05 1.83389E+04 1.67371E+03 4.71632E+04 1.88061E-09-3.95529E-09
 -1       665 1.26579E+05 1.78179E+04 6.60258E+02 4.76306E+04-1.65846E-09 1.96266E-09
 -1       666 1.26980E+05 1.77302E+04 3.84954E+02 4.72830E+04-4.33511E-09 4.24560E-09
 -1       667 1.26635E+05 1.78831E+04 2.02973E+02 4.76116E+04-1.39708E-09 2.15237E-09
 -1       668 1.26922E+05 1.76763E+04 2.03210E+02 4.73091E+04 4.32092E-09 1.59696E-09
 -1       669 1.26637E+05 1.78703E+04 2.72283E+02 4.76050E+04 3.46631E-10-1.33696E-10
 -1       670 1.26994E+05 1.78164E+04 5.90112E+02 4.73042E+04 5.88573E-09-6.78045E-09
 -1       671 1.26563E+05 1.77458E+04 1.04696E+03 4.76154E+04 1.11800E-09-3.32074E-09
 -1       672 1.27609E+05 1.88308E+04 2.67788E+03 4.71523E+04-1.53394E-09 5.73436E-10
 -1       673 1.26026E+05 1.68815E+04 4.48748E+03 4.77472E+04-9.38712E-10-2.43745E-10
 -1       674 1.31885E+05 2.60360E+04 1.28335E+04 4.58922E+04-3.98359E-10 2.60798E-10
 -1       675 1.22314E+05 1.07422E+04 1.90486E+04 4.87996E+04-1.59389E-09-4.29918E-09
 -1       676 1.40372E+01-1.67395E+05-6.51877E+02 2.47621E+01-1.05982E-09 9.99456E-10
 -1       677-1.73024E+02-1.67553E+05-1.19298E+03-4.95107E+01-6.12270E-09 8.09605E-10
 -1       678 1.15542E+02-1.67283E+05-2.10885E+03 2.47315E+01-1.10936E-09 7.69669E-10
 -1       679-2.10916E+03-1.68826E+05-5.00945E+03-4.93826E+01-1.92011E-09-1.03409E-09
 -1       680 1.25870E+03-1.66123E+05-8.07360E+03 2.43499E+01-1.65710E-09-6.42327E-10
 -1       771-1.79982E+06-3.13670E+05-4.39450E+04-7.45395E+05-6.53017E-09-5.24597E-09
 -1       772-1.78872E+06-3.37522E+05-2.35917E+04-7.71964E+05-5.36966E-09 2.42289E-09
 -1       773-1.80572E+06-3.09098E+05-1.01630E+04-7.47856E+05-6.30098E-09-2.14277E-09
 -1       774-1.78235E+06-3.32285E+05-4.95271E+03-7.74486E+05 4.30737E-09-6.05723E-10
 -1       775-1.80701E+06-3.08291E+05-2.49644E+03-7.48011E+05-5.82077E-10 6.91216E-10
 -1       776-1.78219E+06-3.32290E+05-1.15268E+03-7.75777E+05-1.99361E-09-2.88128E-09
 -1       777-1.80787E+06-3.07675E+05-7.11419E+02-7.48079E+05 4.67480E-09 5.81349E-09
 -1       778-1.78240E+06-3.32460E+05-3.17110E+02-7.76847E+05 2.05910E-09 3.01270E-09
 -1       779-1.80855E+06-3.07151E+05-3.10124E+02-7.48140E+05-4.04179E-09-1.49885E-09
 -1       780-1.78263E+06-3.32606E+05-2.41924E+02-7.77712E+05-2.05728E-09-2.17824E-10
 -1       781-1.80906E+06-3.06731E+05-4.31516E+02-7.48183E+05-2.32467E-09 3.78122E-09
 -1       782-1.78287E+06-3.32753E+05-7.84658E+02-7.78349E+05-8.23820E-09-2.41562E-09
 -1       783-1.80936E+06-3.06457E+05-1.57042E+03-7.48197E+05-2.21735E-09-2.97774E-09
 -1       784-1.78392E+06-3.33818E+05-3.71950E+03-7.78695E+05-4.55475E-09-7.54881E-11
 -1       785-1.80885E+06-3.06811E+05-6.87757E+03-7.47710E+05-7.94535E-09 7.56700E-10
 -1       786 1.31404E+05-7.00672E+03 1.62096E+04 1.71275E-01 1.90384E-07 2.00907E-09
 -1       787 1.38428E+05 8.11157E+03 1.14681E+04-4.72310E+00 3.78218E-07 1.77170E-09
 -1       788 1.34114E+05-1.09838E+03 4.19547E+03 1.90278E+00 4.88451E-07-2.97246E-09
 -1       789 1.35271E+05 1.27089E+03 2.63607E+03-8.77123E+00 5.98077E-07 4.14536E-09
 -1       790 1.34561E+05-1.71586E+02 1.07265E+03 4.21944E+00 7.75908E-07-5.80224E-09
 -1       791 1.34749E+05 1.99372E+02 6.29876E+02-1.45185E+01 9.54242E-07 8.21365E-09
 -1       792 1.34636E+05-2.76658E+01 2.87651E+02 7.65012E+00 1.30041E-06-7.94940E-09
 -1       793 1.34665E+05 3.89406E+01 1.88862E+02-2.32550E+01 1.64376E-06 6.83695E-09
 -1       794 1.34646E+05-1.12606E+01 1.40462E+02 1.29562E+01 8.22148E-07-4.57510E-09
 -1       795 1.34674E+05 5.83139E+01 2.03993E+02-3.69065E+01 2.76504E-09 8.51843E-09
 -1       796 1.34628E+05-4.70247E+01 3.06057E+02 2.13018E+01 2.14712E-10-6.52420E-11
 -1       797 1.34813E+05 3.44777E+02 7.22053E+02-5.84735E+01-4.04643E-10 3.05067E-09
 -1       798 1.34507E+05-2.97513E+02 1.13987E+03 3.45235E+01-2.01537E-10 3.07114E-09
 -1       799 1.35668E+05 2.19672E+03 3.10760E+03-9.29081E+01-5.96740E-10 1.88970E-09
 -1       800 1.33772E+05-1.89747E+03 4.38981E+03 5.57367E+01-3.44613E-13 4.13456E-09
 -1       801-8.03320E+03 4.86704E+03 1.05277E+04 1.40657E+04 7.70569E-09-8.76298E-10
 -1       802 2.01486E+04 7.01234E+04 3.89824E+04-5.78117E+04 2.06805E-08-3.82011E-09
 -1       803-1.15376E+04 2.96977E+04 4.90580E+04 1.32271E+04 1.63145E-08 1.45500E-08
 -1       804 9.54500E+04 1.11241E+05 1.37744E+05-5.85556E+04 1.93450E-08 1.60045E-08
 -1       805-8.33766E+04-3.60414E+04 1.76817E+05 1.48077E+04 6.84668E-09 1.76110E-08
 -1       806-1.54042E+05-3.30383E+04-1.31074E+04-6.41836E+04-2.46359E-09 4.27826E-09
 -1       807-1.54809E+05-3.11651E+04-6.43936E+03-6.76634E+04-4.38240E-09-3.71801E-09
 -1       808-1.54414E+05-2.83028E+04-2.73161E+03-6.64069E+04-2.55272E-09 8.36763E-09
 -1       809-1.53435E+05-2.93773E+04-1.33542E+03-6.78493E+04 1.93859E-09 1.00454E-08
 -1       810-1.54472E+05-2.81356E+04-6.11464E+02-6.65051E+04-1.29830E-09 4.32885E-09
 -1       811-1.53330E+05-2.93066E+04-3.03245E+02-6.78339E+04-1.25920E-09 2.27544E-09
 -1       812-1.54482E+05-2.81478E+04-1.51288E+02-6.65050E+04-6.11635E-11 2.68051E-09
 -1       813-1.53316E+05-2.93083E+04-9.54177E+01-6.78260E+04 1.68052E-09-1.83718E-10
 -1       814-1.54481E+05-2.81522E+04-8.93813E+01-6.65031E+04 2.69893E-09 8.35257E-09
 -1       815-1.53318E+05-2.93098E+04-1.39907E+02-6.78241E+04 1.81899E-10 4.33965E-09
 -1       816-1.54472E+05-2.81509E+04-2.62048E+02-6.65015E+04-5.60703E-10-1.13687E-10
 -1       817-1.53364E+05-2.93348E+04-5.61944E+02-6.78198E+04 1.15278E-10-9.26775E-10
 -1       818-1.54440E+05-2.82294E+04-1.14516E+03-6.64645E+04-2.96404E-09-3.49019E-09
 -1       819-1.53996E+05-3.00219E+04-2.69540E+03-6.76670E+04-1.01863E-09-3.29396E-09
 -1       820-1.54222E+05-3.02674E+04-5.48550E+03-6.55961E+04 1.24101E-09-1.99896E-09
 -1       821-1.99248E+05 1.10597E+04-2.55790E+04 2.77511E+01-5.97620E-10-6.53017E-10
 -1       822-2.10333E+05-1.28034E+04-1.81003E+04-3.14334E+02-1.81246E-09-8.46967E-09
 -1       823-2.03527E+05 1.73376E+03-6.62508E+03-1.13150E+01 1.08316E-09-3.75712E-09
 -1       824-2.05347E+05-2.00678E+03-4.16893E+03-2.08537E+02 1.26879E-10 6.03131E-09
 -1       825-2.04233E+05 2.71412E+02-1.71289E+03-7.80492E+01-2.76633E-09-1.50169E-09
 -1       826-2.04526E+05-3.20135E+02-1.03544E+03-6.84869E+01-5.28291E-09-1.98699E-09
 -1       827-2.04347E+05 4.83239E+01-5.34652E+02-1.51368E+02-3.35383E-09 1.31080E-09
 -1       828-2.04414E+05-9.77915E+01-4.74114E+02 6.23046E+01-4.18270E-09-4.19697E-09
 -1       829-2.04345E+05 4.92593E+01-5.42512E+02-2.08843E+02-2.29694E-10-8.39719E-11
 -1       830-2.04535E+05-3.27911E+02-1.06014E+03 1.43852E+02 1.80620E-09 4.43116E-09
 -1       831-2.04226E+05 2.78344E+02-1.75495E+03-2.32917E+02-2.05773E-09-3.12014E-09
 -1       832-2.05378E+05-2.05811E+03-4.27638E+03 1.51616E+02-7.06448E-10-4.00649E-09
 -1       833-2.03503E+05 1.77821E+03-6.79506E+03-2.16606E+02-7.04786E-10-2.24418E-09
 -1       834-2.10486E+05-1.31324E+04-1.85658E+04 8.49943E+01-2.37743E-11 3.05454E-09
 -1       835-1.99119E+05 1.13439E+04-2.62377E+04-1.66289E+02 4.14757E-09 1.10595E-09
 -1       836-6.63876E+02 1.88882E+05 1.13726E+04-1.66344E+04 1.28784E-09 2.05864E-09
 -1       837 2.50257E+03 1.92404E+05 9.70436E+03-3.34192E+04 1.91426E-09 1.91653E-09
 -1       838-2.44588E+02 1.89865E+05 1.00008E+04-1.65773E+04 1.66165E-09 5.38216E-09
 -1       839 6.41555E+03 1.95325E+05 1.90302E+04-3.34398E+04 2.31921E-09 1.34912E-09
 -1       840-1.92999E+03 1.85940E+05 3.03917E+04-1.66127E+04 1.65346E-09-2.66982E-09
 -1       856-6.25106E+04 5.33905E+03-1.40690E+04-3.07555E+02-2.15658E-09 3.86990E-09
 -1       857-6.83231E+04-6.26238E+03-9.68648E+03 3.21655E+03-2.52294E-09 4.00496E-09
 -1       858-6.48070E+04 7.48230E+02-3.65129E+03-3.19385E+02-3.16524E-09-1.46906E-09
 -1       859-6.56852E+04-8.70675E+02-2.20544E+03 3.23527E+03-1.01956E-09-1.16771E-09
 -1       860-6.51505E+04 1.04155E+02-9.27354E+02-3.26365E+02-7.15929E-10-2.92664E-09
 -1       861-6.52892E+04-1.15969E+02-5.16734E+02 3.24477E+03-4.19278E-09-2.45890E-09
 -1       862-6.52039E+04 1.38989E+01-2.27939E+02-3.28899E+02 4.79112E-09-1.99779E-09
 -1       863-6.52260E+04-9.57780E+00-1.12857E+02 3.24590E+03 6.97369E-09-1.17666E-10
 -1       864-6.52138E+04 7.45807E-02-3.56969E+01-3.27497E+02 2.81430E-09-2.71164E-09
 -1       865-6.52081E+04 1.47554E+01 2.03637E+01 3.23877E+03 4.30038E-09-2.19779E-09
 -1       866-6.52211E+04-1.06119E+01 7.56911E+01-3.21768E+02-1.30879E-09 1.21361E-09
 -1       867-6.51642E+04 8.94834E+01 2.08120E+02 3.22325E+03 1.62140E-09-1.72356E-09
 -1       868-6.52559E+04-7.39604E+01 3.51581E+02-3.11983E+02 1.34935E-09-7.91530E-10
 -1       869-6.49013E+04 6.14359E+02 9.43505E+02 3.19711E+03-1.46667E-09-5.25121E-09
 -1       870-6.54813E+04-5.22178E+02 1.36896E+03-2.95625E+02 2.21098E-09 1.58354E-09
 -1       871-2.90727E+03-6.04141E+03-9.45977E+03 6.20046E+04 2.23008E-09-1.74214E-09
 -1       872-1.26418E+03-8.15423E+03-3.85199E+03 8.03838E+04 3.68209E-09 2.54659E-11
 -1       873-2.82412E+01-7.16014E+03 5.63552E+02 6.18674E+04 2.04773E-09 7.45467E-09
 -1       874 1.46068E+03-5.77896E+03 5.39651E+03 8.04129E+04 4.13638E-09 4.91855E-09
 -1       875 3.46482E+03-8.44548E+03 1.19604E+04 6.19805E+04 1.84264E-09 5.32964E-10
 -1       876 1.55317E+05 2.67741E+04 8.32933E+03 6.30252E+04-2.40698E-09 2.16141E-09
 -1       877 1.55788E+05 2.86067E+04 4.44797E+03 6.54941E+04-4.11694E-09-3.52372E-09
 -1       878 1.56096E+05 2.58515E+04 1.86355E+03 6.37089E+04 3.39514E-09 4.67514E-09
 -1       879 1.54655E+05 2.74787E+04 9.28261E+02 6.55542E+04-1.86651E-09 3.42291E-09
 -1       880 1.56154E+05 2.58407E+04 4.32177E+02 6.37368E+04 1.54250E-09 2.21110E-09
 -1       881 1.54580E+05 2.74309E+04 2.30113E+02 6.55433E+04 2.72348E-09-1.02943E-09
 -1       882 1.56160E+05 2.58472E+04 1.46114E+02 6.37376E+04 2.67005E-09 2.95049E-09
 -1       883 1.54575E+05 2.74287E+04 1.55268E+02 6.55403E+04 5.46152E-10 6.55075E-09
 -1       884 1.56157E+05 2.58453E+04 2.45384E+02 6.37377E+04 1.21963E-09 1.09548E-08
 -1       885 1.54594E+05 2.74323E+04 4.92356E+02 6.55466E+04 2.01415E-09 4.33181E-09
 -1       886 1.56138E+05 2.58309E+04 9.91880E+02 6.37357E+04-5.28161E-10-5.15320E-09
 -1       887 1.54769E+05 2.75465E+04 2.16651E+03 6.55715E+04-3.28227E-09-1.89948E-09
 -1       888 1.56001E+05 2.58553E+04 4.36561E+03 6.36664E+04 6.68848E-10-1.89425E-09
 -1       889 1.57371E+05 3.02472E+04 1.04294E+04 6.54883E+04-1.62844E-09 2.46860E-09
 -1       890 1.54221E+05 2.79686E+04 1.95331E+04 6.20017E+04 1.75123E-09-1.71349E-09
 -1       891-9.57438E+01-8.83539E+04-1.04011E+03 1.68301E+04-8.50605E-10-3.41424E-09
 -1       892-1.66567E+02-8.86043E+04-1.13288E+03 2.54703E+04-5.85487E-10 2.24634E-09
 -1       893-2.53631E+01-8.83879E+04-1.61992E+03 1.68332E+04 8.55380E-10-2.22644E-09
 -1       894-8.82377E+02-8.92306E+04-3.36485E+03 2.53802E+04-1.09901E-09-4.10319E-09
 -1       895-6.87671E+02-8.76915E+04-5.92909E+03 1.69192E+04-2.14345E-09-8.39009E-10
 -1       956-1.95076E+05-2.81473E+03-7.08844E+03 1.28813E+04-2.74667E-09-1.09833E-09
 -1       957-1.96475E+05-9.49528E+02-3.63908E+03 1.55076E+04-1.32081E-09-1.41426E-10
 -1       958-1.95702E+05-7.55025E+01-1.63937E+03 1.27973E+04-2.38424E-09-1.49578E-09
 -1       959-1.95813E+05-1.38435E+01-8.37427E+02 1.55984E+04-1.06036E-08-4.27349E-09
 -1       960-1.95757E+05 2.27016E+01-4.08109E+02 1.27895E+04-8.18773E-09 7.93648E-10
 -1       961-1.95763E+05 2.04750E+01-2.16410E+02 1.56071E+04-5.25642E-09 2.53306E-09
 -1       962-1.95767E+05 1.91039E+01-1.23517E+02 1.27885E+04-2.31103E-09 4.78144E-09
 -1       963-1.95760E+05 2.08112E+01-9.85672E+01 1.56085E+04-3.97347E-09 1.46247E-09
 -1       964-1.95769E+05 2.01587E+01-1.18862E+02 1.27881E+04-1.74214E-09-3.26736E-09
 -1       965-1.95767E+05 2.28400E+01-2.04726E+02 1.56086E+04 2.44960E-09 2.35241E-09
 -1       966-1.95763E+05 2.57911E+01-3.83858E+02 1.27884E+04-5.05679E-10 1.61322E-10
 -1       967-1.95819E+05-7.04858E+00-7.87074E+02 1.56038E+04 2.53340E-09-1.71985E-09
 -1       968-1.95715E+05-6.42618E+01-1.54005E+03 1.27929E+04 3.14435E-09-1.80074E-09
 -1       969-1.96445E+05-8.84192E+02-3.41934E+03 1.55510E+04 7.94591E-09 3.50718E-09
 -1       970-1.95129E+05-2.63669E+03-6.65992E+03 1.28429E+04 5.94036E-09 2.47883E-09
 -1       971-1.85435E+05-9.80719E+02-5.45966E+03 9.10963E+03-3.89264E-09 1.78879E-09
 -1       972-1.86763E+05-7.03978E+02-2.97359E+03 1.27176E+04-3.82101E-09 2.31353E-09
 -1       973-1.86040E+05-6.31475E+00-1.33120E+03 9.03463E+03-2.06137E-09 3.19710E-09
 -1       974-1.86132E+05-7.72912E+00-6.89731E+02 1.27981E+04 2.69620E-09 4.31055E-09
 -1       975-1.86086E+05 1.79401E+01-3.43769E+02 9.02841E+03 1.44701E-09-4.07874E-09
 -1       976-1.86093E+05 1.96936E+01-1.96871E+02 1.28054E+04-4.40468E-09-6.85225E-09
 -1       977-1.86094E+05 1.69262E+01-1.40058E+02 9.02725E+03 1.96906E-09 3.47882E-11
 -1       978-1.86093E+05 2.21869E+01-1.60166E+02 1.28070E+04 1.00482E-08 1.41017E-09
 -1       979-1.86093E+05 2.08380E+01-2.54022E+02 9.02679E+03 4.06089E-09 3.77275E-09
 -1       980-1.86112E+05 2.35694E+01-4.88409E+02 1.28072E+04 3.77395E-09 9.26434E-10
 -1       981-1.86078E+05 3.30500E+01-9.44765E+02 9.02704E+03 1.91869E-09 1.89988E-09
 -1       982-1.86242E+05-4.58415E+01-1.95215E+03 1.28037E+04-4.36103E-10 8.67729E-10
 -1       983-1.85959E+05-2.68284E+01-3.79254E+03 9.03045E+03 6.27097E-10-2.87184E-09
 -1       984-1.88067E+05-2.02546E+03-8.49267E+03 1.27529E+04-8.55380E-10-2.27146E-10
 -1       985-1.84244E+05-2.80134E+03-1.55952E+04 9.08092E+03 2.10593E-09 4.77030E-09
 -3
    1PSTEP                         7           4           1          
  100CL  104 4.68750E-01         409                     0    4           1
 -4  DISP        4    1
 -5  D1          1    2    1    0
 -5  D2          1    2    2    0
 -5  D3          1    2    3    0
 -5  ALL         1    2    0    0    1ALL
 -1         1 1.27054E-04 0.00000E+00 0.00000E+00
 -1         2 1.16609E-04 7.78646E-31 0.00000E+00
 -1         3 1.10144E-04 4.68368E-27 0.00000E+00
 -1         5 7.79914E-05 4.33830E-27 0.00000E+00
 -1         8 1.02615E-04-8.86385E-07 0.00000E+00
 -1         9 1.03401E-04 4.33352E-07 0.00000E+00
 -1        10 1.01919E-04-1.50233E-06 3.30872E-24
 -1        12 7.75035E-05 5.12306E-07 0.00000E+00
 -1        15 7.35106E-05-9.78279E-07 0.00000E+00
 -1        16 7.61985E-05 2.78137E-07 0.00000E+00
 -1        17 7.56387E-05-3.17266E-06 0.00000E+00
 -1        18 7.50481E-05 7.82904E-07 0.00000E+00
 -1        19 7.60396E-05 1.02178E-06 0.00000E+00
 -1        20 7.61714E-05 1.46097E-05 0.00000E+00
 -1        21 7.56705E-05 2.75151E-05 0.00000E+00
 -1        24 1.86443E-05-4.32005E-06 0.00000E+00
 -1        25 7.35675E-05 9.01308E-07 0.00000E+00
 -1        26 7.44954E-05 1.42303E-06 0.00000E+00
 -1        27 7.30770E-05 1.23327E-05 0.00000E+00
 -1        28 7.26241E-05 2.70783E-05 0.00000E+00
 -1        32 0.00000E+00 0.00000E+00 0.00000E+00
 -1        33 7.17386E-05 1.90744E-06 0.00000E+00
 -1        34 7.03694E-05 1.23121E-05 0.00000E+00
 -1        35 6.90684E-05 2.68475E-05 0.00000E+00
 -1        51 1.25466E-04-1.45641E-07 0.00000E+00
 -1        52 1.22521E-04-2.87387E-07 0.00000E+00
 -1        53 1.18486E-04-4.30636E-07 0.00000E+00
 -1        54 1.13638E-04-5.76832E-07 0.00000E+00
 -1        55 1.08255E-04-7.26713E-07-1.24077E-24
 -1        56 1.25915E-04-7.43589E-07-2.64698E-23
 -1        57 1.24921E-04-2.00814E-06 0.00000E+00
 -1        58 1.24070E-04-3.64758E-06-2.64698E-23
 -1        59 1.23300E-04-5.52480E-06-1.32349E-23
 -1        60 1.22559E-04-7.48194E-06 0.00000E+00
 -1        61 1.21788E-04-9.36180E-06 2.64698E-23
 -1        62 1.20930E-04-1.10113E-05-5.29396E-23
 -1        63 1.19932E-04-1.22849E-05-2.64698E-23
 -1        64 1.18747E-04-1.30598E-05 0.00000E+00
 -1        65 1.17335E-04-1.32285E-05 0.00000E+00
 -1        66 1.15669E-04-1.27205E-05 0.00000E+00
 -1        67 1.13731E-04-1.14855E-05 2.64698E-23
 -1        68 1.11516E-04-9.51855E-06 0.00000E+00
 -1        69 1.09038E-04-6.83379E-06 1.32349E-23
 -1        70 1.06309E-04-3.49485E-06 2.64698E-23
 -1        86 1.16264E-04 8.01779E-08 0.00000E+00
 -1        87 1.15228E-04 1.59356E-07 0.00000E+00
 -1        88 1.13469E-04 2.37482E-07 8.27181E-25
 -1        89 1.10956E-04 3.10662E-07 4.13590E-25
 -1        90 1.07622E-04 3.82677E-07-3.30872E-24
 -1       121 1.09914E-04-2.49119E-07 0.00000E+00
 -1       122 1.09226E-04-4.98445E-07 0.00000E+00
 -1       123 1.08080E-04-7.48184E-07 0.00000E+00
 -1       124 1.06478E-04-9.98581E-07 3.30872E-24
 -1       125 1.04423E-04-1.24976E-06 6.61744E-24
 -1       191 7.79779E-05 8.53915E-08 0.00000E+00
 -1       192 7.79372E-05 1.70781E-07 1.65436E-24
 -1       193 7.78695E-05 2.56170E-07 0.00000E+00
 -1       194 7.77746E-05 3.41555E-07 4.96308E-24
 -1       195 7.76526E-05 4.26935E-07 0.00000E+00
 -1       251 1.02644E-04 3.12989E-06-3.30872E-24
 -1       252 1.02693E-04 5.49486E-06-8.27181E-25
 -1       253 1.02743E-04 6.50280E-06-2.06795E-25
 -1       254 1.02797E-04 6.44444E-06 0.00000E+00
 -1       255 1.02850E-04 5.55449E-06 0.00000E+00
 -1       256 1.02903E-04 4.06564E-06-8.27181E-25
 -1       257 1.02956E-04 2.17879E-06 1.65436E-24
 -1       258 1.03009E-04 9.38564E-08 0.00000E+00
 -1       259 1.03061E-04-1.99982E-06 1.65436E-24
 -1       260 1.03114E-04-3.91289E-06 8.27181E-25
 -1       261 1.03167E-04-5.44635E-06 0.00000E+00
 -1       262 1.03221E-04-6.40037E-06 0.00000E+00
 -1       263 1.03275E-04-6.54428E-06 0.00000E+00
 -1       264 1.03325E-04-5.64546E-06 8.27181E-25
 -1       265 1.03374E-04-3.41651E-06-6.61744E-24
 -1       266 9.77646E-05-9.13752E-07 6.61744E-24
 -1       267 9.29138E-05-9.27599E-07 0.00000E+00
 -1       268 8.80630E-05-9.42301E-07 0.00000E+00
 -1       269 8.32122E-05-9.54468E-07 4.13590E-25
 -1       270 7.83615E-05-9.66575E-07 0.00000E+00
 -1       271 9.96649E-05 2.77067E-06 2.64698E-23
 -1       272 9.71419E-05 5.16055E-06-1.32349E-23
 -1       273 9.50465E-05 6.42323E-06 0.00000E+00
 -1       274 9.33147E-05 6.69850E-06 0.00000E+00
 -1       275 9.18914E-05 6.15047E-06 0.00000E+00
 -1       276 9.07090E-05 4.95543E-06 0.00000E+00
 -1       277 8.96977E-05 3.30269E-06 0.00000E+00
 -1       278 8.87834E-05 1.38947E-06 0.00000E+00
 -1       279 8.78909E-05-5.81984E-07-5.29396E-23
 -1       280 8.69443E-05-2.40834E-06 2.64698E-23
 -1       281 8.58687E-05-3.88918E-06 0.00000E+00
 -1       282 8.45919E-05-4.83014E-06 2.64698E-23
 -1       283 8.30443E-05-5.04748E-06 5.29396E-23
 -1       284 8.11652E-05-4.36878E-06 0.00000E+00
 -1       285 7.88900E-05-2.64234E-06 0.00000E+00
 -1       301 9.86878E-05 4.00289E-07 6.61744E-24
 -1       302 9.39968E-05 3.82603E-07 0.00000E+00
 -1       303 8.93652E-05 3.65627E-07-3.30872E-24
 -1       304 8.48302E-05 3.47458E-07 0.00000E+00
 -1       305 8.04291E-05 3.27466E-07 0.00000E+00
 -1       306 1.00350E-04 3.84939E-06 0.00000E+00
 -1       307 9.77780E-05 5.84992E-06 0.00000E+00
 -1       308 9.57647E-05 6.37680E-06 0.00000E+00
 -1       309 9.42992E-05 5.41743E-06 2.64698E-23
 -1       310 9.33085E-05 3.18786E-06 5.29396E-23
 -1       311 9.26876E-05-3.90530E-08-2.64698E-23
 -1       312 9.22802E-05-3.84027E-06 5.29396E-23
 -1       313 9.19187E-05-7.76604E-06 2.64698E-23
 -1       314 9.14292E-05-1.13474E-05 0.00000E+00
 -1       315 9.06435E-05-1.41317E-05 0.00000E+00
 -1       316 8.94364E-05-1.57867E-05 0.00000E+00
 -1       317 8.77036E-05-1.60330E-05-2.64698E-23
 -1       318 8.54155E-05-1.48026E-05 0.00000E+00
 -1       319 8.25803E-05-1.20931E-05 0.00000E+00
 -1       320 7.92658E-05-8.13072E-06 2.64698E-23
 -1       336 9.89096E-05-1.77592E-06-6.61744E-24
 -1       337 9.53412E-05-2.05164E-06 3.30872E-24
 -1       338 9.12205E-05-2.32932E-06 0.00000E+00
 -1       339 8.65564E-05-2.60888E-06 0.00000E+00
 -1       340 8.13587E-05-2.89100E-06 6.61744E-24
 -1       406 7.73272E-05 5.97662E-07-3.30872E-24
 -1       407 7.71238E-05 6.82986E-07 1.65436E-24
 -1       408 7.68933E-05 7.68253E-07-3.30872E-24
 -1       409 7.66357E-05 8.53355E-07 0.00000E+00
 -1       410 7.63511E-05 9.38127E-07 0.00000E+00
 -1       521 7.43645E-05-3.52274E-06 5.29396E-23
 -1       522 7.72843E-05-2.06415E-05 0.00000E+00
 -1       523 8.38921E-05-4.81936E-05-1.05879E-22
 -1       524 9.27839E-05-8.24591E-05 0.00000E+00
 -1       525 1.02201E-04-1.18272E-04 0.00000E+00
 -1       526 1.10343E-04-1.50340E-04 0.00000E+00
 -1       527 1.15627E-04-1.74176E-04 1.05879E-22
 -1       528 1.16618E-04-1.85986E-04 0.00000E+00
 -1       529 1.12691E-04-1.84531E-04-1.05879E-22
 -1       530 1.03592E-04-1.69650E-04 5.29396E-23
 -1       531 9.02027E-05-1.43982E-04 0.00000E+00
 -1       532 7.38266E-05-1.11001E-04 0.00000E+00
 -1       533 5.64859E-05-7.56843E-05 1.05879E-22
 -1       534 4.03264E-05-4.31746E-05 0.00000E+00
 -1       535 2.71723E-05-1.80629E-05 0.00000E+00
 -1       536 7.55830E-05 2.31576E-06-3.30872E-24
 -1       537 7.55383E-05 6.82868E-06 0.00000E+00
 -1       538 7.54972E-05 1.03330E-05 1.65436E-24
 -1       539 7.54602E-05 1.27973E-05 0.00000E+00
 -1       540 7.54252E-05 1.42655E-05 0.00000E+00
 -1       541 7.53913E-05 1.47830E-05 0.00000E+00
 -1       542 7.53576E-05 1.44641E-05-8.27181E-25
 -1       543 7.53234E-05 1.34243E-05-4.13590E-25
 -1       544 7.52886E-05 1.18313E-05 0.00000E+00
 -1       545 7.52531E-05 9.85368E-06-4.13590E-25
 -1       546 7.52173E-05 7.68766E-06 8.27181E-25
 -1       547 7.51816E-05 5.52992E-06-4.13590E-25
 -1       548 7.51464E-05 3.57646E-06 0.00000E+00
 -1       549 7.51122E-05 2.02301E-06 0.00000E+00
 -1       550 7.50786E-05 1.03650E-06 5.16988E-26
 -1       551 6.81209E-05-3.34366E-06 6.61744E-24
 -1       552 5.91308E-05-3.52319E-06 3.30872E-24
 -1       553 4.91746E-05-3.71125E-06-1.65436E-24
 -1       554 3.87662E-05-3.90592E-06 0.00000E+00
 -1       555 2.84194E-05-4.10268E-06 2.64698E-23
 -1       556 7.36518E-05 1.97238E-06 0.00000E+00
 -1       557 7.21284E-05 5.92088E-06 0.00000E+00
 -1       558 7.10181E-05 8.78214E-06 0.00000E+00
 -1       559 7.02750E-05 1.06742E-05 0.00000E+00
 -1       560 6.98530E-05 1.17147E-05 0.00000E+00
 -1       561 6.97069E-05 1.20222E-05 0.00000E+00
 -1       562 6.97915E-05 1.17152E-05 0.00000E+00
 -1       563 7.00618E-05 1.09124E-05 0.00000E+00
 -1       564 7.04733E-05 9.73260E-06 0.00000E+00
 -1       565 7.09812E-05 8.29466E-06 0.00000E+00
 -1       566 7.15412E-05 6.71749E-06 0.00000E+00
 -1       567 7.21088E-05 5.12001E-06 2.06795E-25
 -1       568 7.26396E-05 3.62113E-06 0.00000E+00
 -1       569 7.30891E-05 2.33961E-06 0.00000E+00
 -1       570 7.34129E-05 1.39428E-06 0.00000E+00
 -1       571 7.51083E-05 8.35569E-07 8.27181E-25
 -1       572 7.51698E-05 8.47133E-07 8.27181E-25
 -1       573 7.52317E-05 8.24962E-07 1.65436E-24
 -1       574 7.52937E-05 7.76810E-07 0.00000E+00
 -1       575 7.53559E-05 7.10464E-07 0.00000E+00
 -1       576 7.54181E-05 6.33762E-07-8.27181E-25
 -1       577 7.54802E-05 5.54548E-07 0.00000E+00
 -1       578 7.55424E-05 4.80672E-07 0.00000E+00
 -1       579 7.56046E-05 4.19982E-07 0.00000E+00
 -1       580 7.56668E-05 3.80332E-07 0.00000E+00
 -1       581 7.57290E-05 3.69569E-07 0.00000E+00
 -1       582 7.57912E-05 3.95535E-07 0.00000E+00
 -1       583 7.58534E-05 4.66064E-07 0.00000E+00
 -1       584 7.59156E-05 5.88909E-07 0.00000E+00
 -1       585 7.59777E-05 7.71779E-07 0.00000E+00
 -1       586 7.47790E-05 8.03856E-07 0.00000E+00
 -1       587 7.44838E-05 8.24293E-07 4.13590E-25
 -1       588 7.41885E-05 8.44507E-07 0.00000E+00
 -1       589 7.39198E-05 8.64402E-07 0.00000E+00
 -1       590 7.37043E-05 8.83756E-07 0.00000E+00
 -1       591 7.49992E-05 8.67816E-07 5.16988E-26
 -1       592 7.49604E-05 9.19205E-07 0.00000E+00
 -1       593 7.49316E-05 9.43462E-07-4.13590E-25
 -1       594 7.49105E-05 9.46342E-07-2.06795E-25
 -1       595 7.48953E-05 9.33676E-07-4.13590E-25
 -1       596 7.48836E-05 9.11250E-07 0.00000E+00
 -1       597 7.48734E-05 8.84849E-07 4.13590E-25
 -1       598 7.48625E-05 8.60255E-07 0.00000E+00
 -1       599 7.48488E-05 8.43245E-07 0.00000E+00
 -1       600 7.48300E-05 8.39599E-07-2.06795E-25
 -1       601 7.48041E-05 8.55097E-07 0.00000E+00
 -1       602 7.47690E-05 8.95523E-07 2.06795E-25
 -1       603 7.47223E-05 9.66662E-07-1.03398E-25
 -1       604 7.46623E-05 1.07435E-06 0.00000E+00
 -1       605 7.45866E-05 1.22433E-06 0.00000E+00
 -1       606 7.60511E-05 1.41346E-06 0.00000E+00
 -1       607 7.60603E-05 1.89302E-06 0.00000E+00
 -1       608 7.60689E-05 2.45530E-06 0.00000E+00
 -1       609 7.60773E-05 3.09447E-06 0.00000E+00
 -1       610 7.60854E-05 3.80470E-06-3.30872E-24
 -1       611 7.60935E-05 4.58006E-06 0.00000E+00
 -1       612 7.61015E-05 5.41461E-06 0.00000E+00
 -1       613 7.61095E-05 6.30243E-06 0.00000E+00
 -1       614 7.61174E-05 7.23758E-06-1.65436E-24
 -1       615 7.61253E-05 8.21409E-06 0.00000E+00
 -1       616 7.61331E-05 9.22607E-06 0.00000E+00
 -1       617 7.61409E-05 1.02675E-05 0.00000E+00
 -1       618 7.61487E-05 1.13326E-05 0.00000E+00
 -1       619 7.61564E-05 1.24153E-05-4.13590E-25
 -1       620 7.61641E-05 1.35096E-05-4.13590E-25
 -1       621 7.57359E-05 1.08870E-06 1.65436E-24
 -1       622 7.54581E-05 1.15595E-06 8.27181E-25
 -1       623 7.52006E-05 1.22319E-06 1.65436E-24
 -1       624 7.49580E-05 1.29032E-06-8.27181E-25
 -1       625 7.47248E-05 1.35734E-06 0.00000E+00
 -1       626 7.59644E-05 1.43460E-06 0.00000E+00
 -1       627 7.58625E-05 1.92006E-06 3.30872E-24
 -1       628 7.57360E-05 2.47139E-06-3.30872E-24
 -1       629 7.55875E-05 3.08139E-06 0.00000E+00
 -1       630 7.54197E-05 3.74282E-06 3.30872E-24
 -1       631 7.52353E-05 4.44841E-06 0.00000E+00
 -1       632 7.50370E-05 5.19089E-06-3.30872E-24
 -1       633 7.48277E-05 5.96298E-06 0.00000E+00
 -1       634 7.46099E-05 6.75741E-06 3.30872E-24
 -1       635 7.43865E-05 7.56689E-06 1.65436E-24
 -1       636 7.41601E-05 8.38418E-06 0.00000E+00
 -1       637 7.39335E-05 9.20198E-06-8.27181E-25
 -1       638 7.37094E-05 1.00130E-05 1.65436E-24
 -1       639 7.34904E-05 1.08100E-05-8.27181E-25
 -1       640 7.32791E-05 1.15857E-05 8.27181E-25
 -1       656 7.52616E-05 1.42392E-05 6.61744E-24
 -1       657 7.46823E-05 1.38539E-05-3.30872E-24
 -1       658 7.43086E-05 1.34699E-05 0.00000E+00
 -1       659 7.40117E-05 1.30861E-05 0.00000E+00
 -1       660 7.36485E-05 1.27012E-05-6.61744E-24
 -1       661 7.58352E-05 1.56867E-05-8.27181E-25
 -1       662 7.55200E-05 1.67155E-05 0.00000E+00
 -1       663 7.52223E-05 1.76975E-05 1.65436E-24
 -1       664 7.49417E-05 1.86351E-05 8.27181E-25
 -1       665 7.46771E-05 1.95302E-05 1.65436E-24
 -1       666 7.44279E-05 2.03849E-05 8.27181E-25
 -1       667 7.41931E-05 2.12009E-05-1.65436E-24
 -1       668 7.39722E-05 2.19801E-05-8.27181E-25
 -1       669 7.37645E-05 2.27243E-05-1.65436E-24
 -1       670 7.35693E-05 2.34350E-05 0.00000E+00
 -1       671 7.33861E-05 2.41139E-05-1.65436E-24
 -1       672 7.32141E-05 2.47623E-05 0.00000E+00
 -1       673 7.30530E-05 2.53819E-05-1.65436E-24
 -1       674 7.29016E-05 2.59736E-05 8.27181E-25
 -1       675 7.27602E-05 2.65392E-05 0.00000E+00
 -1       676 7.51615E-05 2.74418E-05 1.65436E-24
 -1       677 7.46527E-05 2.73686E-05 0.00000E+00
 -1       678 7.41444E-05 2.72955E-05-1.65436E-24
 -1       679 7.36367E-05 2.72225E-05 8.27181E-25
 -1       680 7.31299E-05 2.71496E-05 0.00000E+00
 -1       771 1.47365E-05 3.22002E-06-2.64698E-23
 -1       772 1.13408E-05 9.39632E-06 0.00000E+00
 -1       773 8.43597E-06 1.42839E-05 2.64698E-23
 -1       774 5.98948E-06 1.79633E-05-1.32349E-23
 -1       775 3.96937E-06 2.05166E-05-2.64698E-23
 -1       776 2.34220E-06 2.20293E-05 0.00000E+00
 -1       777 1.07414E-06 2.25884E-05 0.00000E+00
 -1       778 1.30588E-07 2.22835E-05 0.00000E+00
 -1       779-5.23313E-07 2.12058E-05 2.64698E-23
 -1       780-9.23058E-07 1.94485E-05 1.32349E-23
 -1       781-1.10427E-06 1.71059E-05 2.64698E-23
 -1       782-1.10307E-06 1.42738E-05 0.00000E+00
 -1       783-9.55637E-07 1.10491E-05-2.64698E-23
 -1       784-6.98432E-07 7.52949E-06 1.32349E-23
 -1       785-3.68034E-07 3.81339E-06 0.00000E+00
 -1       786 7.36221E-05 8.60442E-07-4.13590E-25
 -1       787 7.36800E-05 8.25592E-07 0.00000E+00
 -1       788 7.37376E-05 7.96294E-07 0.00000E+00
 -1       789 7.37959E-05 7.72100E-07-8.27181E-25
 -1       790 7.38541E-05 7.53247E-07-1.65436E-24
 -1       791 7.39125E-05 7.39986E-07-8.27181E-25
 -1       792 7.39709E-05 7.33323E-07 0.00000E+00
 -1       793 7.40294E-05 7.34277E-07 8.27181E-25
 -1       794 7.40878E-05 7.44896E-07-1.65436E-24
 -1       795 7.41462E-05 7.67253E-07-8.27181E-25
 -1       796 7.42047E-05 8.05000E-07 0.00000E+00
 -1       797 7.42631E-05 8.61830E-07 0.00000E+00
 -1       798 7.43215E-05 9.44005E-07 0.00000E+00
 -1       799 7.43797E-05 1.05785E-06 0.00000E+00
 -1       800 7.44380E-05 1.21396E-06-1.65436E-24
 -1       801 6.85977E-05 8.41402E-07-1.65436E-24
 -1       802 5.37184E-05 6.85056E-07 1.65436E-24
 -1       803 3.41882E-05 4.55937E-07 0.00000E+00
 -1       804 1.52758E-05 2.31499E-07-3.30872E-24
 -1       805 2.15672E-06 9.30551E-08-1.32349E-23
 -1       806 7.35111E-05 8.19162E-07 0.00000E+00
 -1       807 7.34513E-05 7.38167E-07-8.27181E-25
 -1       808 7.33888E-05 6.62826E-07 0.00000E+00
 -1       809 7.33225E-05 5.96948E-07-8.27181E-25
 -1       810 7.32511E-05 5.44332E-07-1.65436E-24
 -1       811 7.31732E-05 5.08721E-07 8.27181E-25
 -1       812 7.30876E-05 4.93851E-07 1.65436E-24
 -1       813 7.29928E-05 5.03450E-07 0.00000E+00
 -1       814 7.28874E-05 5.41245E-07 0.00000E+00
 -1       815 7.27700E-05 6.10956E-07 8.27181E-25
 -1       816 7.26393E-05 7.16304E-07-3.30872E-24
 -1       817 7.24938E-05 8.61007E-07-1.65436E-24
 -1       818 7.23322E-05 1.04878E-06 0.00000E+00
 -1       819 7.21532E-05 1.28332E-06 4.13590E-25
 -1       820 7.19554E-05 1.56834E-06-8.27181E-25
 -1       821 7.44119E-05 1.65225E-06 0.00000E+00
 -1       822 7.43233E-05 1.86951E-06 0.00000E+00
 -1       823 7.42350E-05 2.11455E-06 0.00000E+00
 -1       824 7.41457E-05 2.42702E-06-1.65436E-24
 -1       825 7.40564E-05 2.83406E-06 3.30872E-24
 -1       826 7.39668E-05 3.36243E-06 0.00000E+00
 -1       827 7.38772E-05 4.01639E-06-3.30872E-24
 -1       828 7.37874E-05 4.79971E-06 1.65436E-24
 -1       829 7.36975E-05 5.69219E-06 0.00000E+00
 -1       830 7.36076E-05 6.67316E-06 0.00000E+00
 -1       831 7.35176E-05 7.70560E-06 0.00000E+00
 -1       832 7.34279E-05 8.75224E-06 0.00000E+00
 -1       833 7.33382E-05 9.77317E-06 0.00000E+00
 -1       834 7.32495E-05 1.07286E-05-8.27181E-25
 -1       835 7.31606E-05 1.15909E-05 0.00000E+00
 -1       836 7.41718E-05 1.50368E-06-1.65436E-24
 -1       837 7.37420E-05 1.58611E-06 8.27181E-25
 -1       838 7.32446E-05 1.66838E-06-1.65436E-24
 -1       839 7.27189E-05 1.75012E-06 0.00000E+00
 -1       840 7.22039E-05 1.83173E-06-4.13590E-25
 -1       856 7.30520E-05 1.30662E-05-2.06795E-25
 -1       857 7.30240E-05 1.38968E-05 2.06795E-25
 -1       858 7.29961E-05 1.48094E-05-8.27181E-25
 -1       859 7.29677E-05 1.57885E-05 0.00000E+00
 -1       860 7.29391E-05 1.68186E-05-8.27181E-25
 -1       861 7.29105E-05 1.78843E-05 0.00000E+00
 -1       862 7.28818E-05 1.89700E-05 0.00000E+00
 -1       863 7.28530E-05 2.00602E-05 4.13590E-25
 -1       864 7.28243E-05 2.11391E-05 0.00000E+00
 -1       865 7.27956E-05 2.21914E-05 4.13590E-25
 -1       866 7.27669E-05 2.32015E-05 0.00000E+00
 -1       867 7.27383E-05 2.41538E-05 4.13590E-25
 -1       868 7.27098E-05 2.50329E-05-8.27181E-25
 -1       869 7.26812E-05 2.58236E-05 0.00000E+00
 -1       870 7.26528E-05 2.65104E-05-8.27181E-25
 -1       871 7.25268E-05 1.23319E-05-4.13590E-25
 -1       872 7.20702E-05 1.23292E-05 0.00000E+00
 -1       873 7.16669E-05 1.23261E-05 0.00000E+00
 -1       874 7.12761E-05 1.23225E-05 1.55096E-25
 -1       875 7.08571E-05 1.23185E-05-6.20385E-25
 -1       876 7.28870E-05 1.30743E-05 1.65436E-24
 -1       877 7.26812E-05 1.38632E-05-1.65436E-24
 -1       878 7.24599E-05 1.46936E-05-3.30872E-24
 -1       879 7.22252E-05 1.55604E-05 0.00000E+00
 -1       880 7.19789E-05 1.64580E-05-6.61744E-24
 -1       881 7.17230E-05 1.73812E-05 0.00000E+00
 -1       882 7.14596E-05 1.83247E-05 3.30872E-24
 -1       883 7.11905E-05 1.92831E-05 0.00000E+00
 -1       884 7.09178E-05 2.02511E-05 0.00000E+00
 -1       885 7.06435E-05 2.12234E-05 0.00000E+00
 -1       886 7.03696E-05 2.21947E-05 1.65436E-24
 -1       887 7.00979E-05 2.31596E-05 0.00000E+00
 -1       888 6.98305E-05 2.41128E-05 0.00000E+00
 -1       889 6.95690E-05 2.50490E-05 0.00000E+00
 -1       890 6.93156E-05 2.59628E-05 8.27181E-25
 -1       891 7.21373E-05 2.70397E-05 0.00000E+00
 -1       892 7.16338E-05 2.70010E-05 0.00000E+00
 -1       893 7.10943E-05 2.69623E-05 8.27181E-25
 -1       894 7.04997E-05 2.69236E-05 0.00000E+00
 -1       895 6.98307E-05 2.68850E-05-6.20385E-25
 -1       956 7.16546E-05 2.35697E-06 1.65436E-24
 -1       957 7.15693E-05 2.86137E-06 8.27181E-25
 -1       958 7.14837E-05 3.41493E-06 1.65436E-24
 -1       959 7.13979E-05 4.01158E-06-8.27181E-25
 -1       960 7.13121E-05 4.64526E-06-1.65436E-24
 -1       961 7.12262E-05 5.30986E-06 0.00000E+00
 -1       962 7.11403E-05 5.99926E-06-3.30872E-24
 -1       963 7.10543E-05 6.70737E-06 0.00000E+00
 -1       964 7.09684E-05 7.42807E-06 0.00000E+00
 -1       965 7.08824E-05 8.15523E-06 1.65436E-24
 -1       966 7.07965E-05 8.88275E-06 0.00000E+00
 -1       967 7.07106E-05 9.60451E-06 0.00000E+00
 -1       968 7.06247E-05 1.03144E-05 6.61744E-24
 -1       969 7.05390E-05 1.10063E-05 1.65436E-24
 -1       970 7.04536E-05 1.16742E-05 0.00000E+00
 -1       971 7.02891E-05 1.29680E-05 0.00000E+00
 -1       972 7.02078E-05 1.36960E-05-8.27181E-25
 -1       973 7.01263E-05 1.44882E-05 3.30872E-24
 -1       974 7.00446E-05 1.53362E-05 0.00000E+00
 -1       975 6.99628E-05 1.62319E-05-1.65436E-24
 -1       976 6.98810E-05 1.71668E-05 8.27181E-25
 -1       977 6.97992E-05 1.81327E-05-3.30872E-24
 -1       978 6.97173E-05 1.91212E-05 1.65436E-24
 -1       979 6.96355E-05 2.01241E-05-3.30872E-24
 -1       980 6.95536E-05 2.11331E-05 0.00000E+00
 -1       981 6.94718E-05 2.21397E-05 0.00000E+00
 -1       982 6.93900E-05 2.31357E-05 0.00000E+00
 -1       983 6.93084E-05 2.41128E-05 0.00000E+00
 -1       984 6.92271E-05 2.50626E-05 0.00000E+00
 -1       985 6.91462E-05 2.59769E-05 0.00000E+00
 -3
    1PSTEP                         8           4           1          
  100CL  104 4.68750E-01         409                     0    4           1
 -4  STRESS      6    1
 -5  SXX         1    4    1    1
 -5  SYY         1    4    2    2
 -5  SZZ         1    4    3    3
 -5  SXY         1    4    1    2
 -5  SYZ         1    4    2    3
 -5  SZX         1    4    3    1
 -1         1-1.65853E+06-7.52726E+05-3.40952E+05-1.05133E+06 1.81899E-11 6.38829E-09
 -1         2 2.66578E+03 2.33127E+05 8.73679E+03 6.83830E+02-1.63169E-10-1.79687E-08
 -1         3-8.82249E+01-7.11618E+05 1.66348E+02-2.59931E+02-1.23091E-10-9.46602E-09
 -1         5-5.85215E+00 2.44338E+05 6.40118E+00 1.10032E-01 1.00504E-10 2.52203E-09
 -1         8-7.78725E+05-3.30580E+05-3.08799E+04-5.64733E+05-8.00355E-11-4.62751E-09
 -1         9-1.37068E+06-3.61989E+05-1.36744E+05-4.60654E+05 3.54776E-09-1.42027E-09
 -1        10-5.77794E+02-7.41356E+05-9.83867E+02-1.75391E+03-3.22188E-09-1.57404E-08
 -1        12-3.22915E+00 2.44351E+05 2.07573E+02 9.96925E-01 2.01513E-10-1.14294E-08
 -1        15 1.99663E+03 1.09727E+03 6.45411E+03 4.18826E+00-1.63652E-10 6.11786E-09
 -1        16-3.52313E+06-1.21033E+06-5.55614E+05-1.24126E+06 1.10352E-08-5.47152E-09
 -1        17-8.49207E+05-5.15139E+05-1.64500E+05-4.75712E+05-5.59667E-09 2.50584E-09
 -1        18 5.93338E+03-2.87938E+03-1.71903E+04-5.81642E+04 7.80460E-10 5.08408E-10
 -1        19 7.65703E+04 9.12153E+04-4.39561E+02 1.49590E+04-5.65160E-10 1.06847E-09
 -1        20-3.22303E+04-3.61760E+05-7.98174E+04 2.64920E+04 2.75698E-09-7.15348E-09
 -1        21-3.40896E+01-2.09299E+05-6.75687E+02-7.30681E+01-1.05965E-08-2.23599E-09
 -1        24-3.25418E+06-1.02278E+06-4.49820E+05-1.26003E+06-2.17309E-08-9.96321E-09
 -1        25 2.28659E+04-3.28959E+04 1.01396E+04-1.05028E+05 2.68028E-10 1.31784E-08
 -1        26-1.80185E+04 6.22139E+04-1.23985E+04-8.77935E+03 1.49048E-09 2.87446E-09
 -1        27-5.77665E+04-1.98426E+05-7.44233E+04 4.47162E+04 5.35329E-09 1.83597E-09
 -1        28 1.62004E+04-5.78457E+04 1.18249E+04 1.84728E+04 3.47657E-09-5.60873E-09
 -1        32-7.84738E+05-1.82009E+05 3.18935E+05-5.24289E+05-1.63272E-08 1.03104E-08
 -1        33-1.13542E+05 5.83025E+04 2.06724E+04-3.37057E+04 1.02866E-09 4.31388E-09
 -1        34-1.47277E+05-1.46738E+04 3.46513E+02 4.53351E+04 3.94641E-09-7.20926E-10
 -1        35-1.64751E+04-2.29891E+04-9.01030E+02 3.64589E+04 2.95438E-09-3.94114E-11
 -1        51 1.39987E+04-3.66824E+05 3.63073E+04-9.32618E+05 2.91038E-11-3.92902E-10
 -1        52 8.82487E+03-3.65816E+05 2.43703E+04-1.08774E+06 2.76486E-10-4.96220E-09
 -1        53 6.67229E+03-3.78188E+05 2.11799E+04-9.29375E+05 4.51109E-10 1.36788E-09
 -1        54 1.92284E+04-3.76796E+05 3.44895E+04-1.09112E+06 7.27596E-12-7.53789E-09
 -1        55 3.83444E+04-3.89947E+05 6.18950E+04-9.28852E+05 3.92902E-10-1.89539E-09
 -1        56-3.18296E+06-3.58396E+05-2.50537E+05-1.22689E+06-7.02130E-10 8.74570E-09
 -1        57-3.28161E+06-5.87057E+05-1.68879E+05-1.21943E+06-7.27596E-12 7.54881E-10
 -1        58-3.23398E+06-4.37058E+05-5.89463E+04-1.21031E+06-3.39242E-10 5.56975E-09
 -1        59-3.22252E+06-4.94841E+05-3.51864E+04-1.23933E+06 3.05022E-10-1.14351E-08
 -1        60-3.24153E+06-4.47910E+05-1.37624E+04-1.20794E+06-6.50289E-10 9.35370E-09
 -1        61-3.21510E+06-4.80732E+05-7.81616E+03-1.24044E+06 4.59625E-09 9.07153E-09
 -1        62-3.24125E+06-4.50841E+05-3.76954E+03-1.20928E+06 1.20963E-10 3.85029E-10
 -1        63-3.21810E+06-4.74851E+05-3.05606E+03-1.23566E+06 1.26511E-09 1.31419E-08
 -1        64-3.23840E+06-4.53827E+05-3.54414E+03-1.21265E+06 1.26488E-09-3.08705E-09
 -1        65-3.22571E+06-4.69342E+05-6.99538E+03-1.22741E+06 4.82601E-10-1.03898E-08
 -1        66-3.23353E+06-4.56463E+05-1.23961E+04-1.21743E+06 6.37328E-10 6.58474E-10
 -1        67-3.24133E+06-4.72804E+05-3.13631E+04-1.21593E+06-5.92365E-10 5.93582E-09
 -1        68-3.22284E+06-4.50701E+05-5.27138E+04-1.22401E+06 1.93540E-09 8.87667E-10
 -1        69-3.30032E+06-5.49169E+05-1.50772E+05-1.19155E+06 1.01136E-09 2.53931E-09
 -1        70-3.17516E+06-3.82423E+05-2.23772E+05-1.24104E+06-8.73115E-11 7.47968E-09
 -1        86-1.33956E+03 2.30261E+05 9.32485E+03-3.41942E+02 1.14164E-09-9.83340E-09
 -1        87 8.87980E+03 2.36182E+05 1.95048E+04 1.41101E+03 1.92631E-09-6.04911E-09
 -1        88-7.53698E+03 2.27210E+05 2.98077E+04-1.06914E+03 2.87218E-09 3.09336E-09
 -1        89 5.61583E+04 2.58284E+05 8.04650E+04 3.07777E+03 4.37649E-09-7.91374E-09
 -1        90-4.84671E+04 2.08183E+05 1.13596E+05-2.00818E+03 5.01313E-09-9.68998E-09
 -1       121-1.38302E+02-7.12012E+05 1.31148E+02 1.29802E+02 3.91758E-10 3.21961E-09
 -1       122-3.28684E+01-7.11585E+05 3.59911E+02-5.19690E+02-1.37403E-09-7.39419E-09
 -1       123-1.76303E+02-7.12051E+05 5.54516E+02 3.88918E+02 1.14397E-09-4.78030E-09
 -1       124 6.33221E+02-7.11187E+05 1.50138E+03-1.16355E+03-2.70143E-09-6.93399E-09
 -1       125-6.04516E+02-7.12427E+05 2.27311E+03 7.73275E+02 1.83763E-09 1.07502E-09
 -1       191-6.35551E+00 2.44358E+05 7.58938E+00-5.57106E-02 1.56247E-10-3.50292E-09
 -1       192-6.44092E+00 2.44338E+05 1.35564E+01 6.62096E-01 2.02825E-10-6.29302E-09
 -1       193-7.92067E+00 2.44358E+05 2.51511E+01-6.11069E-01 2.38038E-10 1.90994E-11
 -1       194-8.33548E+00 2.44340E+05 5.12844E+01 1.63119E+00 1.18533E-10-1.42518E-09
 -1       195-1.09285E+01 2.44356E+05 1.00255E+02-1.03234E+00 3.45608E-10-1.07284E-08
 -1       251 1.35670E+05-4.24866E+04 9.82866E+04 3.08025E+03-4.36899E-10-8.57835E-09
 -1       252 1.81607E+05 4.91361E+04 7.00291E+04-9.11286E+03-1.32434E-09-3.03044E-09
 -1       253 1.52920E+05-6.61521E+03 2.54235E+04 1.98338E+03 1.67176E-10 5.98993E-09
 -1       254 1.61212E+05 7.63960E+03 1.61742E+04-7.42092E+03-9.39096E-10 1.39175E-09
 -1       255 1.55992E+05-1.02470E+03 6.57384E+03 1.38836E+03 2.27999E-10 4.85943E-09
 -1       256 1.57523E+05 1.21332E+03 4.03027E+03-6.54561E+03 4.81592E-10 5.34851E-09
 -1       257 1.56580E+05-1.79182E+02 2.08152E+03 1.10805E+03-2.54332E-10 1.53750E-09
 -1       258 1.56930E+05 3.84156E+02 1.88085E+03-6.25905E+03 3.27827E-10-6.88203E-09
 -1       259 1.56576E+05-1.90606E+02 2.18618E+03 1.10182E+03-6.20304E-10 6.70104E-09
 -1       260 1.57561E+05 1.31229E+03 4.32821E+03-6.52066E+03 8.87042E-10-3.95420E-09
 -1       261 1.55956E+05-1.11155E+03 7.11788E+03 1.36964E+03 6.64528E-10 9.04220E-09
 -1       262 1.61498E+05 8.28883E+03 1.75184E+04-7.36796E+03-2.66468E-10 8.39668E-09
 -1       263 1.52668E+05-7.17513E+03 2.75889E+04 1.94913E+03-1.48299E-09 1.47520E-09
 -1       264 1.83478E+05 5.32940E+04 7.59166E+04-9.03301E+03-1.57505E-09-6.52199E-09
 -1       265 1.34050E+05-4.60730E+04 1.06658E+05 3.03461E+03-4.34511E-10-5.10772E-09
 -1       266-3.61446E+04-1.68985E+04 8.48182E+04-8.96275E+01 7.27596E-12-8.23636E-09
 -1       267 4.19027E+04 1.96997E+04 5.99418E+04 1.03398E+02-5.91172E-11-7.31951E-09
 -1       268-5.61903E+03-2.78980E+03 2.22805E+04-1.31755E+01-1.51886E-10-8.43452E-09
 -1       269 6.63449E+03 3.33905E+03 1.44816E+04 1.53466E+01-1.84173E-11-4.64552E-09
 -1       270-9.95844E+02-5.48622E+02 6.99048E+03-2.08268E+00-2.56932E-11 3.21067E-09
 -1       271-3.50752E+06-4.39087E+05-2.69247E+05-1.36795E+06-1.01863E-10-5.32600E-09
 -1       272-3.58875E+06-6.50416E+05-1.73049E+05-1.38246E+06-5.73664E-10-1.63491E-08
 -1       273-3.55990E+06-5.04385E+05-6.36097E+04-1.35399E+06-8.78572E-10 2.46291E-09
 -1       274-3.52701E+06-5.70948E+05-3.55526E+04-1.40440E+06 2.36469E-10 3.70437E-09
 -1       275-3.56874E+06-5.09404E+05-1.48001E+04-1.34985E+06 1.06684E-09 5.34055E-09
 -1       276-3.51639E+06-5.65351E+05-7.83955E+03-1.41125E+06-2.31921E-10 6.82689E-09
 -1       277-3.57110E+06-5.08627E+05-3.83882E+03-1.34799E+06 5.54792E-11 8.21410E-09
 -1       278-3.51410E+06-5.66023E+05-2.78202E+03-1.41360E+06 1.35225E-09 4.69947E-09
 -1       279-3.57134E+06-5.08444E+05-2.98152E+03-1.34776E+06-1.67120E-09-4.06317E-09
 -1       280-3.51540E+06-5.65703E+05-5.46394E+03-1.41228E+06 5.06589E-10 2.09639E-09
 -1       281-3.56962E+06-5.09116E+05-1.00183E+04-1.34915E+06 8.32188E-11 2.78123E-09
 -1       282-3.52312E+06-5.68743E+05-2.38919E+04-1.40676E+06 1.47975E-09 4.27963E-09
 -1       283-3.56309E+06-5.06409E+05-4.27271E+04-1.35261E+06 5.03860E-10-7.49060E-09
 -1       284-3.56589E+06-6.20462E+05-1.16085E+05-1.39000E+06 1.10458E-09-3.63798E-09
 -1       285-3.52692E+06-4.63734E+05-1.80788E+05-1.36313E+06 9.40418E-10-1.14233E-09
 -1       301 1.45949E+04-1.74877E+04 1.11447E+05-4.46294E+04-7.42148E-10-6.90966E-09
 -1       302 1.56942E+04 1.07010E+04 7.95101E+04-6.57251E+04 1.58843E-09-7.32825E-09
 -1       303 8.65556E+02-7.31766E+03 7.17111E+04-4.47346E+04-6.14818E-10-5.49971E-09
 -1       304 2.78103E+04 2.19917E+04 1.19025E+05-6.54984E+04 7.87622E-10 6.11180E-10
 -1       305 2.74068E+04-2.85255E+04 1.98911E+05-4.47824E+04-1.09139E-09 4.19277E-10
 -1       306-3.92558E+06-4.58719E+05-2.97113E+05-1.53927E+06 1.68802E-09-7.93079E-09
 -1       307-4.08649E+06-7.01045E+05-2.02432E+05-1.47747E+06 2.71757E-09 5.23869E-10
 -1       308-3.99864E+06-5.45699E+05-6.99790E+04-1.50520E+06 1.30422E-09 4.68208E-09
 -1       309-3.99273E+06-6.09270E+05-4.21793E+04-1.52835E+06 1.06570E-09 1.25874E-09
 -1       310-4.01892E+06-5.48645E+05-1.64321E+04-1.48901E+06 1.32735E-09 2.60297E-09
 -1       311-3.96647E+06-6.09066E+05-9.46348E+03-1.55143E+06 2.60144E-09-7.40101E-09
 -1       312-4.02516E+06-5.45381E+05-4.63033E+03-1.48247E+06-1.13499E-09-1.65267E-09
 -1       313-3.96323E+06-6.09057E+05-4.16373E+03-1.55429E+06-1.43251E-09 5.98675E-09
 -1       314-4.02221E+06-5.48580E+05-5.11557E+03-1.48621E+06-4.37217E-09 4.15253E-09
 -1       315-3.97731E+06-5.98018E+05-1.05381E+04-1.53777E+06-3.45915E-09 1.18023E-08
 -1       316-4.01074E+06-5.56703E+05-1.88041E+04-1.49872E+06 1.44814E-09 1.77988E-09
 -1       317-4.01257E+06-5.93554E+05-4.80672E+04-1.50638E+06 2.10747E-09-3.38787E-09
 -1       318-3.98682E+06-5.53518E+05-7.97967E+04-1.51733E+06-6.16456E-09 1.17252E-08
 -1       319-4.11720E+06-7.01879E+05-2.31164E+05-1.45310E+06-2.04454E-09 4.68572E-09
 -1       320-3.90696E+06-4.50211E+05-3.38818E+05-1.55156E+06 7.83621E-09-2.02272E-09
 -1       336 4.96500E+02-7.70794E+05-4.20909E+03 9.78234E+02-6.75323E-09-8.11269E-10
 -1       337-1.53786E+03-7.71810E+05-4.65407E+03-2.48731E+03-1.28124E-08-1.16315E-08
 -1       338 3.34396E+02-7.70898E+05-5.98519E+03 1.50340E+03-9.19749E-09 2.85763E-09
 -1       339-6.20721E+03-7.74715E+05-1.31202E+04-3.52273E+03-1.68220E-08-2.90720E-09
 -1       340 4.17866E+03-7.67965E+05-2.02742E+04 2.00613E+03-1.13723E-08 6.42285E-09
 -1       406 1.25644E+01 2.44347E+05 4.09738E+02 1.73549E-02 5.17161E-10 2.68255E-09
 -1       407 1.39662E+02 2.44423E+05 8.70979E+02-8.06879E+00 1.08116E-10 2.14220E-08
 -1       408 4.45069E+02 2.44284E+05 1.73944E+03 8.20368E+00 5.67979E-10 7.11862E-09
 -1       409 1.87789E+03 2.44978E+05 3.91614E+03-7.88005E+01-1.46656E-11-7.53221E-09
 -1       410 5.40129E+03 2.43789E+05 7.99460E+03 7.35142E+01 5.93900E-10 2.83080E-09
 -1       521-7.36492E+06-7.75247E+05-5.66736E+05-2.72114E+06 1.14596E-09-2.32831E-09
 -1       522-7.08376E+06-1.57904E+06-3.49804E+05-3.07279E+06-2.88871E-08-1.12195E-08
 -1       523-7.57803E+06-7.78706E+05-1.31525E+05-2.48530E+06-1.75078E-09-1.92449E-08
 -1       524-6.88154E+06-1.54400E+06-7.24678E+04-3.37269E+06 2.55181E-08-2.15114E-08
 -1       525-7.60469E+06-7.78073E+05-2.94078E+04-2.44974E+06 2.20170E-08-1.83759E-08
 -1       526-6.90128E+06-1.41851E+06-4.37882E+03-3.22932E+06 2.88928E-08-3.83443E-09
 -1       527-7.53380E+06-9.21163E+05-2.64479E+04-2.61201E+06 2.82525E-08-1.76988E-09
 -1       528-7.12389E+06-1.09246E+06 1.99895E+04-2.79491E+06 6.75027E-09 1.36333E-08
 -1       529-7.34242E+06-1.13235E+06-3.19225E+04-2.85417E+06-6.08270E-09 5.00404E-09
 -1       530-7.56183E+06-7.11660E+05 2.60128E+03-2.39093E+06-2.23026E-08 2.41862E-08
 -1       531-7.11777E+06-1.28603E+06-3.49366E+04-3.03056E+06-4.30227E-08-5.87534E-10
 -1       532-7.89865E+06-5.23346E+05-7.11495E+04-2.20644E+06 3.08023E-08-4.76057E-08
 -1       533-7.04603E+06-1.29287E+06-1.24876E+05-3.07055E+06 1.24783E-08-4.56421E-08
 -1       534-7.89068E+06-8.13696E+05-3.52275E+05-2.23477E+06-1.51340E-08 3.84171E-08
 -1       535-7.10979E+06-1.01201E+06-5.54147E+05-2.98683E+06-7.81438E-09 3.00352E-08
 -1       536-1.04677E+05-1.75235E+04 4.03492E+04-6.39066E+02-5.95378E-10-6.49379E-10
 -1       537-8.56678E+04 2.02851E+04 2.88094E+04 1.12691E+01-9.12169E-09 3.32375E-09
 -1       538-9.79750E+04-2.75811E+03 1.03558E+04-2.46460E+02 1.02062E-10 5.75119E-09
 -1       539-9.35759E+04 3.18419E+03 6.74935E+03-8.21475E+02 5.00864E-09 6.41944E-09
 -1       540-9.67736E+04-4.36638E+02 2.56138E+03 1.93693E+02 8.98638E-10 3.11104E-09
 -1       541-9.51600E+04 4.94032E+02 1.64295E+03-1.63566E+03-2.76231E-10 9.22259E-09
 -1       542-9.63985E+04-6.47891E+01 5.55130E+02 5.67681E+02-8.11355E-10 4.65437E-09
 -1       543-9.57696E+04 4.45649E+01 2.80057E+02-2.25707E+03 1.31163E-10-2.88912E-09
 -1       544-9.61736E+04 1.95295E+01-1.16014E+02 8.15103E+02 1.52731E-10 4.02622E-10
 -1       545-9.61543E+04-1.91510E+02-5.26520E+02-2.58884E+03-1.75032E-09 5.06219E-09
 -1       546-9.60204E+04 1.75949E+02-1.03418E+03 8.99469E+02 5.74114E-10 1.41654E-09
 -1       547-9.66814E+04-1.28016E+03-2.62427E+03-2.58213E+03-2.77277E-09-2.50998E-09
 -1       548-9.56465E+04 1.10728E+03-4.23707E+03 8.08388E+02-3.39358E-09 1.55683E-09
 -1       549-9.95937E+04-8.15920E+03-1.14980E+04-2.23278E+03-1.85520E-09 4.99995E-10
 -1       550-9.31015E+04 7.04465E+03-1.64124E+04 5.50099E+02 4.50910E-11-3.38423E-09
 -1       551 8.69896E+03-3.98691E+05 2.08180E+04-6.75424E+05-3.05517E-08-4.46744E-09
 -1       552 1.91871E+04-4.01812E+05 2.77894E+04-9.61436E+05-2.30066E-08 9.94623E-09
 -1       553 1.30848E+04-4.07011E+05 4.31607E+04-6.73107E+05-3.72602E-08 7.97445E-09
 -1       554 4.15397E+04-3.90421E+05 9.17222E+04-9.62436E+05-2.32394E-08 4.20266E-09
 -1       555 3.97589E+04-4.24646E+05 1.64559E+05-6.73856E+05-3.77477E-08-4.35466E-09
 -1       556 6.10635E+04-1.29121E+05 4.37062E+04-1.68954E+05-1.02664E-08-7.33417E-09
 -1       557 1.13342E+05-1.72451E+05 2.29768E+04-2.11630E+05-1.21508E-09 4.62842E-09
 -1       558 6.08607E+04-1.34936E+05 9.26330E+03-1.63947E+05-1.01572E-08 3.74894E-09
 -1       559 1.06230E+05-1.78408E+05 4.71172E+03-2.14797E+05 9.05857E-10 7.42511E-09
 -1       560 5.92831E+04-1.33889E+05 1.93215E+03-1.64940E+05-1.71713E-09 2.35832E-09
 -1       561 1.03787E+05-1.77777E+05 1.03411E+03-2.16343E+05 3.09228E-10 6.21731E-09
 -1       562 5.80133E+04-1.33039E+05 3.85942E+02-1.65854E+05 1.61526E-09 1.06261E-08
 -1       563 1.02296E+05-1.77136E+05 2.49296E+02-2.17297E+05-2.69029E-09 3.25184E-09
 -1       564 5.72205E+04-1.32528E+05 8.72910E+01-1.66418E+05 5.23505E-09 1.23737E-08
 -1       565 1.01517E+05-1.76803E+05 5.89445E+01-2.17787E+05 3.90537E-09 4.33647E-09
 -1       566 5.69329E+04-1.32337E+05-1.56445E+01-1.66625E+05-2.00816E-09-7.01220E-09
 -1       567 1.01410E+05-1.76750E+05-9.97679E+01-2.17791E+05 3.41970E-09-6.91216E-11
 -1       568 5.71826E+04-1.32502E+05-3.01631E+02-1.66510E+05 1.10958E-09 1.81972E-08
 -1       569 1.01348E+05-1.76641E+05-7.05799E+02-2.16760E+05-1.47702E-09 3.18323E-09
 -1       570 5.84839E+04-1.33675E+05-1.51977E+03-1.66474E+05 2.67755E-09-1.94632E-09
 -1       571 1.77332E+05 6.45072E+03 9.55729E+03-4.50122E+04 6.28916E-10 4.15957E-09
 -1       572 1.78753E+05 2.24482E+03 4.68247E+03-4.93418E+04-1.43700E-10-2.70757E-09
 -1       573 1.77902E+05 5.36477E+02 2.08013E+03-4.48950E+04 1.10958E-09-2.97950E-09
 -1       574 1.78069E+05 1.76455E+02 1.04220E+03-4.94728E+04 7.33280E-10 5.03496E-09
 -1       575 1.77965E+05 2.64411E+01 4.91176E+02-4.48796E+04 1.95473E-09-8.41283E-11
 -1       576 1.77976E+05 9.68980E+00 2.50020E+02-4.94903E+04 8.75929E-10-6.47651E-09
 -1       577 1.77974E+05-8.40762E-01 1.23140E+02-4.48775E+04 1.02309E-08 7.41056E-09
 -1       578 1.77967E+05 1.18132E+00 6.71281E+01-4.94924E+04 1.60435E-08 3.02725E-09
 -1       579 1.77985E+05-2.86704E+00 4.09901E+01-4.48775E+04 7.05131E-09-3.21916E-09
 -1       580 1.77981E+05-4.55264E+00 3.82105E+01-4.94897E+04-4.96584E-10-4.07454E-09
 -1       581 1.78004E+05-9.89587E+00 5.16476E+01-4.48802E+04 7.83984E-10-1.98361E-09
 -1       582 1.78016E+05-2.90590E+00 9.84103E+01-4.94630E+04 3.54248E-10-5.37193E-09
 -1       583 1.78027E+05 2.01796E+01 1.88514E+02-4.49042E+04 1.24601E-10-2.31807E-09
 -1       584 1.78114E+05 1.66412E+02 4.22814E+02-4.92621E+04-6.95763E-11-6.16706E-09
 -1       585 1.78009E+05 5.38409E+02 8.58306E+02-4.50814E+04 6.75755E-10-6.48288E-09
 -1       586-2.12587E+03 5.82899E+04-2.81674E+03-1.53297E+05 4.01542E-10 6.52199E-09
 -1       587-4.43430E+02 5.79112E+04-2.94917E+02-1.68691E+05 8.30369E-10-1.38732E-09
 -1       588 6.16211E+02 5.79833E+04 2.05030E+03-1.53204E+05 4.64752E-10 2.60980E-09
 -1       589 3.03583E+03 5.91074E+04 5.94465E+03-1.68550E+05 6.33008E-10-6.32417E-09
 -1       590 8.70500E+03 5.72745E+04 1.27184E+04-1.53440E+05 3.72893E-10 1.55705E-09
 -1       591-3.89073E+04-1.10785E+04-1.28754E+04-2.01042E+04-7.86372E-10-7.33326E-09
 -1       592-4.01293E+04-1.42242E+04-6.97385E+03-2.34435E+04-5.33646E-10-3.02680E-09
 -1       593-4.02091E+04-1.01299E+04-2.90328E+03-2.10342E+04 1.03159E-09-1.62186E-09
 -1       594-3.83354E+04-1.23525E+04-1.44799E+03-2.35326E+04 3.41117E-10-4.71687E-09
 -1       595-4.03088E+04-1.01255E+04-6.65440E+02-2.10770E+04-4.32578E-10-2.79559E-09
 -1       596-3.82140E+04-1.22668E+04-3.39194E+02-2.35200E+04 1.09071E-09 9.01305E-09
 -1       597-4.03215E+04-1.01337E+04-1.86699E+02-2.10787E+04 6.64230E-09 9.68708E-09
 -1       598-3.82025E+04-1.22635E+04-1.53748E+02-2.35165E+04 5.68434E-10-5.98789E-09
 -1       599-4.03206E+04-1.01338E+04-2.00970E+02-2.10784E+04 6.81780E-10-4.53656E-09
 -1       600-3.82154E+04-1.22679E+04-3.77011E+02-2.35196E+04-2.04921E-10-4.24620E-10
 -1       601-4.03046E+04-1.01249E+04-7.45676E+02-2.10757E+04-2.92937E-09-7.06848E-09
 -1       602-3.83515E+04-1.23641E+04-1.62615E+03-2.35321E+04-2.19291E-09 3.13594E-09
 -1       603-4.01913E+04-1.01314E+04-3.26165E+03-2.10280E+04 4.41105E-10 2.53431E-09
 -1       604-4.03733E+04-1.44595E+04-7.83496E+03-2.34223E+04-4.90672E-10-1.79853E-10
 -1       605-3.87202E+04-1.12034E+04-1.44650E+04-1.99902E+04 1.94757E-09 1.46156E-09
 -1       606 2.51770E+04-8.54321E+03-1.53829E+04 2.45693E+04-3.68800E-09 1.59162E-10
 -1       607 2.25424E+04-2.75622E+03-7.65979E+03 2.75805E+04-1.82808E-10 7.73070E-11
 -1       608 2.40369E+04-4.64993E+02-3.43024E+03 2.43734E+04 2.02454E-09-1.86878E-09
 -1       609 2.37390E+04-1.20616E+02-1.73251E+03 2.77967E+04-2.51930E-10 1.45519E-11
 -1       610 2.38984E+04 2.25011E+01-8.27621E+02 2.43515E+04-3.81715E-09 3.45653E-09
 -1       611 2.38416E+04 3.42417E+01-4.17426E+02 2.78203E+04-8.27413E-09 2.93585E-09
 -1       612 2.38611E+04 3.64335E+01-1.99790E+02 2.43494E+04-4.57931E-09 3.11115E-09
 -1       613 2.38391E+04 4.20130E+01-9.10796E+01 2.78231E+04-5.47880E-09-9.83323E-09
 -1       614 2.38405E+04 3.73189E+01-2.54966E+01 2.43486E+04-5.04770E-10-3.52179E-09
 -1       615 2.38283E+04 4.70636E+01 2.83082E+01 2.78236E+04 5.92809E-09 3.28464E-09
 -1       616 2.38250E+04 4.25781E+01 9.39547E+01 2.43489E+04-3.97858E-09-9.92713E-10
 -1       617 2.38338E+04 7.07937E+01 2.18000E+02 2.78231E+04-1.56638E-09-1.10958E-10
 -1       618 2.38016E+04 1.08268E+02 4.40693E+02 2.43490E+04-7.70797E-10-1.41017E-09
 -1       619 2.39858E+04 4.13931E+02 9.90518E+02 2.78224E+04 1.45781E-09-1.04751E-09
 -1       620 2.36529E+04 1.15571E+03 1.99112E+03 2.43480E+04 7.16909E-10 8.74252E-10
 -1       621 3.03832E+02 1.92662E+05 2.64327E+03 6.64166E+03-2.00316E-10 4.30578E-09
 -1       622 3.47931E+02 1.93317E+05 2.25076E+03 9.69852E+03-1.26533E-10-6.58304E-09
 -1       623 1.41494E+01 1.92849E+05 2.59785E+03 6.61054E+03-1.38414E-10-1.30422E-09
 -1       624 1.17717E+03 1.94077E+05 4.94139E+03 9.72892E+03-2.02306E-10 5.93820E-09
 -1       625 1.18238E+03 1.91897E+05 8.59427E+03 6.61156E+03-1.46429E-10 1.18004E-09
 -1       626 1.59270E+05 4.40619E+04 3.17439E+03 8.60170E+04-8.84393E-09-1.96087E-09
 -1       627 1.57099E+05 4.56588E+04 1.52959E+03 8.94877E+04-8.44921E-09 2.37297E-08
 -1       628 1.59388E+05 4.25606E+04 6.46031E+02 8.64960E+04 1.16506E-09 1.79493E-08
 -1       629 1.56640E+05 4.52974E+04 3.16669E+02 8.96950E+04 3.74348E-09 1.22840E-08
 -1       630 1.59395E+05 4.24898E+04 1.46405E+02 8.65084E+04-1.98906E-09 3.52031E-10
 -1       631 1.56584E+05 4.52896E+04 7.87768E+01 8.96965E+04-7.74844E-09-1.79259E-09
 -1       632 1.59387E+05 4.24957E+04 5.20114E+01 8.65010E+04-1.63122E-08-1.20434E-08
 -1       633 1.56572E+05 4.52945E+04 5.81713E+01 8.96900E+04-6.06337E-09 5.72550E-09
 -1       634 1.59378E+05 4.24967E+04 9.41926E+01 8.64968E+04 2.22371E-09 4.81612E-09
 -1       635 1.56576E+05 4.52961E+04 1.91042E+02 8.96894E+04 4.34966E-09 6.53540E-09
 -1       636 1.59367E+05 4.24960E+04 3.85868E+02 8.64938E+04 7.55904E-10 7.15181E-09
 -1       637 1.56654E+05 4.53576E+04 8.48084E+02 8.96853E+04 3.11822E-09 6.11453E-09
 -1       638 1.59334E+05 4.26852E+04 1.74298E+03 8.64065E+04 7.35099E-10-1.53250E-09
 -1       639 1.57566E+05 4.66327E+04 4.12336E+03 8.94143E+04-9.36552E-10 4.94265E-09
 -1       640 1.59212E+05 4.64807E+04 8.55704E+03 8.47947E+04 1.84900E-09 1.49485E-08
 -1       656 4.31370E+04-1.09184E+06-1.04135E+05-3.66040E+02 8.36735E-10 9.34418E-09
 -1       657-5.70013E+04-1.13885E+06-8.61207E+04 7.03849E+03 1.61344E-09 6.11266E-10
 -1       658 1.36782E+04-1.10525E+06-5.28493E+04-1.36893E+03 2.42039E-10 2.09422E-09
 -1       659-6.11192E+04-1.14080E+06-9.15293E+04 7.70755E+03 7.97627E-10 2.83444E-11
 -1       660 4.72448E+04-1.08990E+06-1.13439E+05-1.03509E+03-4.22006E-10 1.54046E-09
 -1       661 1.54022E+05 1.67665E+04 1.47864E+04 6.01947E+04 1.95178E-09-1.24783E-09
 -1       662 1.61732E+05 2.83556E+04 9.96356E+03 5.76145E+04 3.40719E-10-1.73429E-09
 -1       663 1.56919E+05 2.15157E+04 3.48533E+03 5.93588E+04-8.22865E-10-2.59365E-09
 -1       664 1.58379E+05 2.27960E+04 2.08378E+03 5.86303E+04 8.27072E-10-3.38400E-09
 -1       665 1.57353E+05 2.21700E+04 8.21987E+02 5.92378E+04-1.89169E-09-6.67328E-09
 -1       666 1.57871E+05 2.20430E+04 4.79342E+02 5.87848E+04-8.27077E-09-4.19583E-09
 -1       667 1.57425E+05 2.22489E+04 2.52725E+02 5.92116E+04-5.38364E-10 3.92813E-09
 -1       668 1.57794E+05 2.19800E+04 2.53161E+02 5.88222E+04 3.53469E-09 5.01451E-10
 -1       669 1.57429E+05 2.22311E+04 3.39205E+02 5.92011E+04 4.68566E-09 7.40229E-09
 -1       670 1.57880E+05 2.21584E+04 7.35284E+02 5.88203E+04 4.18288E-09 1.99989E-10
 -1       671 1.57339E+05 2.20742E+04 1.30446E+03 5.92120E+04-5.00442E-10 8.22183E-10
 -1       672 1.58642E+05 2.34256E+04 3.33655E+03 5.86349E+04-3.46342E-09-2.66817E-09
 -1       673 1.56671E+05 2.09958E+04 5.59121E+03 5.93744E+04-7.36122E-10-7.32803E-09
 -1       674 1.63967E+05 3.24055E+04 1.59897E+04 5.70681E+04-2.30557E-09-6.59065E-09
 -1       675 1.52048E+05 1.33455E+04 2.37337E+04 6.06842E+04 2.00771E-09-2.43836E-09
 -1       676 1.75420E+01-2.09243E+05-8.14376E+02 3.65349E+01-6.53216E-10 2.75216E-09
 -1       677-2.16142E+02-2.09440E+05-1.49039E+03-7.30376E+01-7.46923E-10-9.64420E-09
 -1       678 1.44365E+02-2.09103E+05-2.63461E+03 3.64775E+01 1.08798E-09-5.60461E-09
 -1       679-2.63511E+03-2.11030E+05-6.25848E+03-7.28117E+01-3.02646E-09 4.88278E-10
 -1       680 1.57266E+03-2.07653E+05-1.00866E+04 3.58909E+01-1.27329E-09 8.23103E-10
 -1       771-2.24592E+06-3.98058E+05-5.57098E+04-9.36900E+05-8.55653E-09-7.40692E-09
 -1       772-2.23053E+06-4.28575E+05-2.98050E+04-9.70994E+05-7.54881E-09 4.37922E-09
 -1       773-2.25382E+06-3.91899E+05-1.30293E+04-9.40000E+05-8.26549E-09 2.94676E-10
 -1       774-2.22265E+06-4.22184E+05-6.29746E+03-9.74913E+05 7.04313E-09-6.54836E-10
 -1       775-2.25589E+06-3.90523E+05-3.30771E+03-9.40261E+05 1.20053E-09 5.61704E-09
 -1       776-2.22266E+06-4.22269E+05-1.49099E+03-9.77162E+05-5.26779E-09 1.97178E-09
 -1       777-2.25738E+06-3.89428E+05-1.00666E+03-9.40419E+05 1.97906E-09 3.29237E-09
 -1       778-2.22312E+06-4.22529E+05-4.19851E+02-9.79043E+05-1.81899E-11 4.64206E-09
 -1       779-2.25859E+06-3.88496E+05-4.52388E+02-9.40562E+05-7.45786E-09-1.47520E-09
 -1       780-2.22359E+06-4.22739E+05-3.01473E+02-9.80566E+05 3.79805E-09 9.16179E-09
 -1       781-2.25950E+06-3.87753E+05-5.47930E+02-9.40672E+05 4.03816E-09 1.28875E-08
 -1       782-2.22403E+06-4.22933E+05-9.26226E+02-9.81687E+05-1.08630E-08-2.91868E-09
 -1       783-2.26007E+06-3.87262E+05-1.85993E+03-9.40730E+05-3.65617E-09-3.36092E-09
 -1       784-2.22537E+06-4.24197E+05-4.37453E+03-9.82319E+05-5.78075E-09 2.22371E-10
 -1       785-2.25959E+06-3.87593E+05-8.09587E+03-9.40182E+05-1.07866E-08 1.49612E-09
 -1       786 1.63179E+05-8.74867E+03 2.02402E+04-9.21315E+00 9.51692E-07 1.06411E-08
 -1       787 1.71949E+05 1.01282E+04 1.43195E+04 1.75351E+00 1.89549E-06 1.32425E-08
 -1       788 1.66563E+05-1.37145E+03 5.23868E+03-4.67493E+00 2.00395E-06-4.96311E-09
 -1       789 1.68008E+05 1.58685E+03 3.29150E+03-6.97178E+00 2.10904E-06 1.39653E-09
 -1       790 1.67121E+05-2.14242E+02 1.33930E+03-4.88061E-01 2.34170E-06-8.16146E-09
 -1       791 1.67356E+05 2.48916E+02 7.86327E+02-1.62995E+01 2.57683E-06 8.98841E-09
 -1       792 1.67215E+05-3.45231E+01 3.58842E+02 4.65288E+00 3.15759E-06-1.50834E-08
 -1       793 1.67251E+05 4.84646E+01 2.35069E+02-2.89736E+01 3.73246E-06 9.87010E-09
 -1       794 1.67227E+05-1.39236E+01 1.74012E+02 1.21863E+01 1.86761E-06-9.01923E-09
 -1       795 1.67261E+05 7.17922E+01 2.51541E+02-4.85053E+01 6.15734E-09 4.20225E-09
 -1       796 1.67204E+05-5.78337E+01 3.76681E+02 2.41849E+01 2.02379E-10-2.54586E-09
 -1       797 1.67432E+05 4.23965E+02 8.88090E+02-8.02736E+01-2.05933E-10 3.04439E-10
 -1       798 1.67056E+05-3.65837E+02 1.40176E+03 4.39552E+01 4.67595E-10-1.55245E-09
 -1       799 1.68484E+05 2.70123E+03 3.82147E+03-1.33323E+02-6.47279E-10-2.78817E-09
 -1       800 1.66152E+05-2.33327E+03 5.39798E+03 7.72346E+01-3.46876E-10 8.77253E-09
 -1       801-4.93220E+03-1.74621E+05-5.34600E+03 1.88680E+04 9.98989E-09-1.84264E-09
 -1       802 1.76993E+04-7.44347E+04 3.85968E+04-7.27751E+04 2.70284E-08-2.67838E-09
 -1       803-1.19049E+04-1.32046E+05 5.40138E+04 2.11502E+04 2.13404E-08 1.73427E-08
 -1       804 1.12359E+05-1.99738E+04 1.63051E+05-7.30823E+04 2.52330E-08 2.29651E-08
 -1       805-9.97129E+04-2.28718E+05 2.02595E+05 1.91713E+04 9.03674E-09 1.97633E-08
 -1       806-1.93119E+05-4.12187E+04-1.63519E+04-8.02532E+04 4.48676E-09-5.28826E-09
 -1       807-1.94096E+05-3.88625E+04-8.03335E+03-8.45721E+04 3.08199E-09-1.37883E-08
 -1       808-1.93582E+05-3.53123E+04-3.40773E+03-8.30279E+04 3.98313E-09 4.98576E-09
 -1       809-1.92382E+05-3.66308E+04-1.66595E+03-8.48021E+04 4.09273E-11 2.47428E-09
 -1       810-1.93654E+05-3.51041E+04-7.62838E+02-8.31503E+04 1.20190E-09 3.84216E-09
 -1       811-1.92251E+05-3.65426E+04-3.78335E+02-8.47822E+04 2.28624E-10 5.45720E-09
 -1       812-1.93666E+05-3.51197E+04-1.88860E+02-8.31499E+04 6.07270E-09 2.32201E-08
 -1       813-1.92234E+05-3.65449E+04-1.19184E+02-8.47716E+04 1.64619E-10 4.07874E-09
 -1       814-1.93664E+05-3.51257E+04-1.11880E+02-8.31472E+04 3.87990E-09 5.28144E-09
 -1       815-1.92235E+05-3.65469E+04-1.75144E+02-8.47683E+04 1.46156E-09-5.65217E-09
 -1       816-1.93652E+05-3.51246E+04-3.28229E+02-8.31448E+04-1.18507E-09 2.29829E-09
 -1       817-1.92291E+05-3.65783E+04-7.03617E+02-8.47619E+04 1.93381E-09 7.77572E-09
 -1       818-1.93610E+05-3.52236E+04-1.43402E+03-8.30979E+04-1.23009E-09-1.45064E-10
 -1       819-1.93083E+05-3.74390E+04-3.37490E+03-8.45697E+04-1.94063E-09-1.04601E-08
 -1       820-1.93337E+05-3.77754E+04-6.86859E+03-8.20098E+04-2.32103E-09-1.32457E-08
 -1       821-2.49688E+05 1.38468E+04-3.20231E+04 8.64766E+01-1.81167E-10 3.30692E-09
 -1       822-2.63566E+05-1.60300E+04-2.26610E+04-6.07502E+02-1.37477E-09 3.86694E-09
 -1       823-2.55044E+05 2.17082E+03-8.29408E+03 5.50524E+01 9.39977E-10-1.88720E-10
 -1       824-2.57321E+05-2.51264E+03-5.21861E+03-4.63499E+02-6.53345E-10 5.84294E-10
 -1       825-2.55932E+05 3.39726E+02-2.14504E+03-5.75309E+01-2.71776E-09 9.19840E-10
 -1       826-2.56287E+05-4.00677E+02-1.29472E+03-2.01296E+02-5.25536E-09-9.56561E-10
 -1       827-2.56076E+05 6.02593E+01-6.70383E+02-2.07155E+02-4.40929E-09-6.17037E-09
 -1       828-2.56148E+05-1.22225E+02-5.92356E+02 7.84361E+01-5.36125E-09 8.58352E-09
 -1       829-2.56071E+05 6.15302E+01-6.80111E+02-3.37268E+02-4.65228E-10 4.43717E-09
 -1       830-2.56305E+05-4.10689E+02-1.32784E+03 2.69982E+02 2.66337E-09 3.98576E-09
 -1       831-2.55919E+05 3.48698E+02-2.19890E+03-3.98705E+02-2.82749E-09-5.20117E-10
 -1       832-2.57362E+05-2.57878E+03-5.35825E+03 3.01538E+02-1.55309E-09-5.89864E-09
 -1       833-2.55015E+05 2.22809E+03-8.51460E+03-3.68824E+02-1.55224E-09-8.49468E-10
 -1       834-2.63759E+05-1.64555E+04-2.32630E+04 1.63418E+02-7.53541E-10 5.63341E-09
 -1       835-2.49524E+05 1.42146E+04-3.28777E+04-2.60575E+02 6.12214E-09-2.82125E-09
 -1       836-8.31304E+02 2.36203E+05 1.42329E+04-2.06124E+04 1.69211E-09 1.63345E-09
 -1       837 3.13657E+03 2.40609E+05 1.21460E+04-4.13955E+04 2.31626E-09-3.36831E-09
 -1       838-3.03427E+02 2.37430E+05 1.25169E+04-2.05428E+04 1.93359E-09-6.32485E-09
 -1       839 8.03508E+03 2.44261E+05 2.38176E+04-4.14204E+04 2.56296E-09 1.04545E-09
 -1       840-2.41250E+03 2.32518E+05 3.80373E+04-2.05860E+04 1.85355E-09 2.26737E-09
 -1       856-7.72164E+04 6.65095E+03-1.75269E+04-3.93116E+02-2.94369E-09-1.19599E-09
 -1       857-8.44566E+04-7.80047E+03-1.20670E+04 3.99961E+03-1.61754E-09-1.16315E-08
 -1       858-8.00768E+04 9.31905E+02-4.54875E+03-4.10746E+02-1.28304E-09-7.95876E-09
 -1       859-8.11715E+04-1.08335E+03-2.74732E+03 4.02774E+03 4.08022E-10 3.20699E-09
 -1       860-8.05045E+04 1.29588E+02-1.15519E+03-4.21377E+02 1.16576E-09-4.54520E-10
 -1       861-8.06788E+04-1.42993E+02-6.43503E+02 4.04228E+03-4.61168E-09-8.97745E-09
 -1       862-8.05710E+04 1.71610E+01-2.83554E+02-4.25308E+02 3.30625E-09-2.67875E-09
 -1       863-8.06001E+04-1.03355E+01-1.39743E+02 4.04403E+03 8.99773E-09-4.13652E-09
 -1       864-8.05834E+04-1.58096E-01-4.29102E+01-4.23133E+02 4.28221E-09-6.86734E-09
 -1       865-8.05768E+04 2.05679E+01 2.89193E+01 4.03308E+03 5.37894E-09-1.07603E-08
 -1       866-8.05930E+04-1.41261E+01 1.00445E+02-4.14361E+02-5.75028E-10-5.08412E-09
 -1       867-8.05185E+04 1.18493E+02 2.74255E+02 4.00929E+03 2.31258E-09-2.15650E-09
 -1       868-8.06390E+04-9.74676E+01 4.62284E+02-3.99336E+02 3.20028E-10-3.25318E-09
 -1       869-8.01717E+04 8.08321E+02 1.24079E+03 3.96985E+03-5.11488E-09-1.30666E-09
 -1       870-8.09357E+04-6.86897E+02 1.79941E+03-3.74929E+02 8.65384E-10 8.51628E-10
 -1       871-3.66181E+03-7.65617E+03-1.18664E+04 7.78036E+04 2.55204E-09 2.88583E-09
 -1       872-1.59772E+03-1.03097E+04-4.83401E+03 1.00867E+05 3.09683E-09-5.85919E-09
 -1       873-4.39765E+01-9.07025E+03 6.99165E+02 7.76323E+04 1.96815E-09-1.76578E-09
 -1       874 1.81719E+03-7.33813E+03 6.75040E+03 1.00903E+05 4.44015E-09 5.50699E-09
 -1       875 4.32314E+03-1.06726E+04 1.49643E+04 7.77751E+04 2.13004E-09 3.33512E-09
 -1       876 1.94398E+05 3.35253E+04 1.04148E+04 7.89037E+04 5.05179E-09 1.36060E-09
 -1       877 1.94988E+05 3.58173E+04 5.56171E+03 8.19900E+04 4.20243E-09-1.05341E-08
 -1       878 1.95372E+05 3.23725E+04 2.33010E+03 7.97589E+04 9.90440E-09-2.09866E-10
 -1       879 1.93571E+05 3.44066E+04 1.16072E+03 8.20641E+04 2.65311E-09 1.65682E-09
 -1       880 1.95443E+05 3.23596E+04 5.40376E+02 7.97938E+04 1.06184E-09-2.54238E-09
 -1       881 1.93477E+05 3.43467E+04 2.87777E+02 8.20496E+04 3.54157E-09 8.15285E-09
 -1       882 1.95450E+05 3.23680E+04 1.82759E+02 7.97948E+04 1.40710E-09 7.38230E-09
 -1       883 1.93470E+05 3.43439E+04 1.94293E+02 8.20455E+04 4.66662E-09 6.62402E-09
 -1       884 1.95446E+05 3.23658E+04 3.07104E+02 7.97949E+04 5.28598E-09-6.15563E-09
 -1       885 1.93494E+05 3.43483E+04 6.16221E+02 8.20532E+04 1.40993E-08-6.82812E-09
 -1       886 1.95422E+05 3.23478E+04 1.24140E+03 7.97925E+04 9.37328E-09-1.79455E-09
 -1       887 1.93713E+05 3.44913E+04 2.71148E+03 8.20846E+04-1.70482E-09-9.95033E-09
 -1       888 1.95251E+05 3.23780E+04 5.46367E+03 7.97057E+04 2.15701E-09-2.10548E-09
 -1       889 1.96969E+05 3.78712E+04 1.30524E+04 8.19810E+04 3.47485E-09-4.45925E-09
 -1       890 1.93025E+05 3.50223E+04 2.44460E+04 7.76214E+04 2.55818E-09 1.04046E-09
 -1       891-1.23110E+02-1.10529E+05-1.30350E+03 2.10248E+04-2.42153E-10-4.99426E-10
 -1       892-2.13846E+02-1.10840E+05-1.41867E+03 3.18140E+04-8.44466E-10 6.46935E-09
 -1       893-3.63853E+01-1.10569E+05-2.02789E+03 2.10288E+04 9.61563E-10 2.21644E-09
 -1       894-1.11180E+03-1.11618E+05-4.21114E+03 3.17010E+04 4.92946E-10-5.40240E-09
 -1       895-8.68293E+02-1.09694E+05-7.42095E+03 2.11362E+04-1.49771E-09-3.77077E-09
 -1       956-2.44313E+05-3.52163E+03-8.87008E+03 1.61628E+04-4.18868E-09 1.24680E-09
 -1       957-2.46064E+05-1.18651E+03-4.55360E+03 1.94628E+04-5.96174E-10-2.12867E-09
 -1       958-2.45099E+05-9.29734E+01-2.05148E+03 1.60572E+04 8.31278E-09-4.32283E-09
 -1       959-2.45239E+05-1.43976E+01-1.04786E+03 1.95769E+04 8.54379E-09 2.85695E-10
 -1       960-2.45169E+05 3.10480E+01-5.10737E+02 1.60472E+04 1.12095E-09-1.19394E-09
 -1       961-2.45178E+05 2.95468E+01-2.70787E+02 1.95882E+04-6.43308E-09-5.23073E-10
 -1       962-2.45183E+05 2.73207E+01-1.54593E+02 1.60458E+04-8.21274E-10 4.76598E-09
 -1       963-2.45175E+05 3.05695E+01-1.23365E+02 1.95902E+04-4.53645E-09 9.32289E-09
 -1       964-2.45186E+05 2.90261E+01-1.48833E+02 1.60452E+04-1.66483E-09-4.33886E-09
 -1       965-2.45185E+05 3.33030E+01-2.56397E+02 1.95903E+04 2.79186E-09-4.96084E-09
 -1       966-2.45178E+05 3.60708E+01-4.80822E+02 1.60457E+04-1.66597E-09-8.63452E-09
 -1       967-2.45248E+05-4.35452E+00-9.85936E+02 1.95843E+04-1.70110E-09 5.22527E-09
 -1       968-2.45118E+05-7.71321E+01-1.92927E+03 1.60514E+04 1.18234E-10 4.72116E-09
 -1       969-2.46032E+05-1.10379E+03-4.28355E+03 1.95174E+04 1.07639E-09-3.00525E-09
 -1       970-2.44383E+05-3.30030E+03-8.34332E+03 1.61150E+04 1.40403E-09-2.57023E-09
 -1       971-2.32052E+05-1.22495E+03-6.82209E+03 1.13357E+04-3.59387E-09-4.71456E-09
 -1       972-2.33712E+05-8.77187E+02-3.71539E+03 1.58360E+04-1.85378E-09 1.28512E-09
 -1       973-2.32810E+05-6.26532E+00-1.66353E+03 1.12413E+04-2.40607E-09 5.19435E-10
 -1       974-2.32926E+05-5.95091E+00-8.61815E+02 1.59376E+04-2.41471E-09-3.76076E-09
 -1       975-2.32868E+05 2.51304E+01-4.29670E+02 1.12330E+04 6.45741E-10 5.09692E-09
 -1       976-2.32879E+05 2.92924E+01-2.46026E+02 1.59476E+04-2.43756E-09 1.30035E-09
 -1       977-2.32879E+05 2.45838E+01-1.75133E+02 1.12312E+04 3.66390E-09-4.25757E-09
 -1       978-2.32881E+05 3.29780E+01-2.00327E+02 1.59501E+04 1.27849E-08-1.25192E-09
 -1       979-2.32879E+05 2.98140E+01-3.17845E+02 1.12304E+04 4.78468E-09 8.79822E-10
 -1       980-2.32904E+05 3.48592E+01-6.11202E+02 1.59504E+04 2.22076E-09-2.17472E-09
 -1       981-2.32859E+05 4.50470E+01-1.18240E+03 1.12308E+04-1.66528E-09 7.79892E-11
 -1       982-2.33066E+05-5.22842E+01-2.44323E+03 1.59458E+04-8.58108E-10-4.21979E-09
 -1       983-2.32711E+05-3.03217E+01-4.74674E+03 1.12353E+04 2.95222E-09-5.19890E-10
 -1       984-2.35350E+05-2.53073E+03-1.06295E+04 1.58819E+04 3.77440E-11 4.73290E-09
 -1       985-2.30563E+05-3.50339E+03-1.95192E+04 1.12993E+04 3.50155E-09-1.12777E-10
 -3
    1PSTEP                         9           5           1          
  100CL  105 5.03906E-01         409                     0    5           1
 -4  DISP        4    1
 -5  D1          1    2    1    0
 -5  D2          1    2    2    0
 -5  D3          1    2    3    0
 -5  ALL         1    2    0    0    1ALL
 -1         1 1.53195E-04 0.00000E+00 0.00000E+00
 -1         2 1.37741E-04-4.92651E-32 0.00000E+00
 -1         3 1.35518E-04-2.72499E-27 0.00000E+00
 -1         5 9.22589E-05-4.03796E-27 0.00000E+00
 -1         8 1.28301E-04-8.82257E-07 0.00000E+00
 -1         9 1.25472E-04-1.46525E-08 0.00000E+00
 -1        10 1.25051E-04-1.83299E-06 0.00000E+00
 -1        12 9.18638E-05 5.52924E-07 0.00000E+00
 -1        15 9.86236E-05-9.77011E-07 4.13590E-25
 -1        16 1.02296E-04-1.91793E-07 0.00000E+00
 -1        17 9.17772E-05-3.88974E-06 0.00000E+00
 -1        18 8.96006E-05 2.53720E-06 0.00000E+00
 -1        19 9.06788E-05 1.10287E-06 0.00000E+00
 -1        20 9.08182E-05 1.41278E-05 0.00000E+00
 -1        21 9.02724E-05 2.62342E-05 0.00000E+00
 -1        24 2.04423E-05-5.37026E-06 0.00000E+00
 -1        25 8.86948E-05 2.66697E-06 0.00000E+00
 -1        26 8.96398E-05 1.53375E-06 0.00000E+00
 -1        27 8.81082E-05 1.16625E-05 0.00000E+00
 -1        28 8.76420E-05 2.57649E-05 0.00000E+00
 -1        32 0.00000E+00 0.00000E+00 0.00000E+00
 -1        33 8.73495E-05 2.05453E-06 0.00000E+00
 -1        34 8.58675E-05 1.16397E-05 0.00000E+00
 -1        35 8.44640E-05 2.55163E-05 0.00000E+00
 -1        51 1.51579E-04-1.45877E-07 0.00000E+00
 -1        52 1.48580E-04-2.86807E-07 0.00000E+00
 -1        53 1.44471E-04-4.29095E-07 0.00000E+00
 -1        54 1.39533E-04-5.74318E-07 3.30872E-24
 -1        55 1.34048E-04-7.23297E-07-5.81611E-24
 -1        56 1.51822E-04-8.02536E-07 2.64698E-23
 -1        57 1.50569E-04-2.08238E-06-2.64698E-23
 -1        58 1.49444E-04-3.69544E-06 5.29396E-23
 -1        59 1.48384E-04-5.51026E-06 2.64698E-23
 -1        60 1.47341E-04-7.37335E-06-5.29396E-23
 -1        61 1.46259E-04-9.13327E-06 0.00000E+00
 -1        62 1.45083E-04-1.06453E-05 0.00000E+00
 -1        63 1.43764E-04-1.17741E-05 0.00000E+00
 -1        64 1.42261E-04-1.24118E-05 5.29396E-23
 -1        65 1.40540E-04-1.24682E-05-2.64698E-23
 -1        66 1.38582E-04-1.18951E-05-5.29396E-23
 -1        67 1.36379E-04-1.06660E-05 0.00000E+00
 -1        68 1.33937E-04-8.80300E-06-5.29396E-23
 -1        69 1.31279E-04-6.34719E-06 2.64698E-23
 -1        70 1.28429E-04-3.38886E-06 0.00000E+00
 -1        86 1.37401E-04 5.10947E-09 0.00000E+00
 -1        87 1.36383E-04 9.22420E-09 4.13590E-25
 -1        88 1.34684E-04 1.23696E-08 0.00000E+00
 -1        89 1.32302E-04 1.07051E-08 0.00000E+00
 -1        90 1.29233E-04 8.41405E-09 0.00000E+00
 -1       121 1.35226E-04-3.03487E-07 6.61744E-24
 -1       122 1.34349E-04-6.07308E-07 0.00000E+00
 -1       123 1.32889E-04-9.11794E-07 0.00000E+00
 -1       124 1.30850E-04-1.21732E-06 0.00000E+00
 -1       125 1.28235E-04-1.52412E-06-6.61744E-24
 -1       191 9.22479E-05 9.21600E-08-3.30872E-24
 -1       192 9.22150E-05 1.84318E-07 1.65436E-24
 -1       193 9.21601E-05 2.76476E-07-3.30872E-24
 -1       194 9.20833E-05 3.68631E-07 0.00000E+00
 -1       195 9.19845E-05 4.60781E-07 0.00000E+00
 -1       251 1.28112E-04 3.52417E-06 6.61744E-24
 -1       252 1.27933E-04 6.84095E-06-3.30872E-24
 -1       253 1.27757E-04 8.95651E-06 0.00000E+00
 -1       254 1.27585E-04 9.76803E-06 0.00000E+00
 -1       255 1.27412E-04 9.37656E-06-6.61744E-24
 -1       256 1.27239E-04 7.89207E-06 0.00000E+00
 -1       257 1.27064E-04 5.59530E-06 0.00000E+00
 -1       258 1.26888E-04 2.77299E-06-3.30872E-24
 -1       259 1.26712E-04-2.06076E-07 0.00000E+00
 -1       260 1.26536E-04-2.97186E-06 0.00000E+00
 -1       261 1.26361E-04-5.18767E-06-6.61744E-24
 -1       262 1.26188E-04-6.52094E-06 0.00000E+00
 -1       263 1.26015E-04-6.77699E-06 0.00000E+00
 -1       264 1.25840E-04-5.76908E-06-3.30872E-24
 -1       265 1.25663E-04-3.50823E-06 0.00000E+00
 -1       266 1.23355E-04-9.10184E-07-6.61744E-24
 -1       267 1.18409E-04-9.24497E-07 0.00000E+00
 -1       268 1.13462E-04-9.39672E-07 0.00000E+00
 -1       269 1.08516E-04-9.52294E-07 0.00000E+00
 -1       270 1.03570E-04-9.64856E-07-4.13590E-25
 -1       271 1.25308E-04 2.92294E-06 0.00000E+00
 -1       272 1.22713E-04 5.54108E-06 1.32349E-23
 -1       273 1.20524E-04 7.09034E-06 0.00000E+00
 -1       274 1.18686E-04 7.68764E-06-2.64698E-23
 -1       275 1.17152E-04 7.47333E-06 0.00000E+00
 -1       276 1.15864E-04 6.59959E-06 2.64698E-23
 -1       277 1.14760E-04 5.23175E-06-5.29396E-23
 -1       278 1.13776E-04 3.54357E-06 2.64698E-23
 -1       279 1.12845E-04 1.71498E-06-5.29396E-23
 -1       280 1.11898E-04-7.15856E-08-2.64698E-23
 -1       281 1.10868E-04-1.63460E-06 0.00000E+00
 -1       282 1.09688E-04-2.79638E-06 0.00000E+00
 -1       283 1.08295E-04-3.38710E-06-5.29396E-23
 -1       284 1.06632E-04-3.24544E-06 1.32349E-23
 -1       285 1.04639E-04-2.22752E-06 0.00000E+00
 -1       301 1.21295E-04-5.51605E-08-6.61744E-24
 -1       302 1.17163E-04-7.67321E-08-3.30872E-24
 -1       303 1.13135E-04-9.71096E-08-6.61744E-24
 -1       304 1.09274E-04-1.18078E-07 3.30872E-24
 -1       305 1.05641E-04-1.40499E-07 0.00000E+00
 -1       306 1.22500E-04 2.24420E-06 0.00000E+00
 -1       307 1.20346E-04 2.15030E-06 2.64698E-23
 -1       308 1.19020E-04-1.43824E-07-5.29396E-23
 -1       309 1.18408E-04-4.38833E-06-2.64698E-23
 -1       310 1.18294E-04-9.97756E-06 0.00000E+00
 -1       311 1.18424E-04-1.62328E-05 0.00000E+00
 -1       312 1.18505E-04-2.23549E-05-5.29396E-23
 -1       313 1.18243E-04-2.75535E-05-2.64698E-23
 -1       314 1.17407E-04-3.12028E-05 5.29396E-23
 -1       315 1.15793E-04-3.27656E-05 2.64698E-23
 -1       316 1.13335E-04-3.20787E-05 5.29396E-23
 -1       317 1.10016E-04-2.91062E-05-2.64698E-23
 -1       318 1.05970E-04-2.42196E-05 0.00000E+00
 -1       319 1.01389E-04-1.78938E-05 0.00000E+00
 -1       320 9.65342E-05-1.08689E-05 0.00000E+00
 -1       336 1.21228E-04-2.16800E-06 1.32349E-23
 -1       337 1.16698E-04-2.50629E-06 6.61744E-24
 -1       338 1.11474E-04-2.84772E-06 6.61744E-24
 -1       339 1.05569E-04-3.19228E-06 0.00000E+00
 -1       340 9.89976E-05-3.54087E-06 0.00000E+00
 -1       406 9.17212E-05 6.45053E-07 0.00000E+00
 -1       407 9.15565E-05 7.37148E-07 0.00000E+00
 -1       408 9.13699E-05 8.29184E-07 0.00000E+00
 -1       409 9.11614E-05 9.21047E-07 0.00000E+00
 -1       410 9.09309E-05 1.01256E-06 0.00000E+00
 -1       521 1.03871E-04-1.35429E-05-5.29396E-23
 -1       522 1.15650E-04-5.66956E-05 0.00000E+00
 -1       523 1.34688E-04-1.22493E-04 0.00000E+00
 -1       524 1.57753E-04-2.01791E-04 5.29396E-23
 -1       525 1.81216E-04-2.82438E-04 1.05879E-22
 -1       526 2.01432E-04-3.52166E-04 0.00000E+00
 -1       527 2.15104E-04-4.01145E-04 0.00000E+00
 -1       528 2.19032E-04-4.21393E-04 0.00000E+00
 -1       529 2.11649E-04-4.11155E-04 0.00000E+00
 -1       530 1.92264E-04-3.71217E-04-5.29396E-23
 -1       531 1.63043E-04-3.08515E-04-1.05879E-22
 -1       532 1.27383E-04-2.31676E-04 0.00000E+00
 -1       533 9.04828E-05-1.52157E-04 0.00000E+00
 -1       534 5.77364E-05-8.15861E-05-1.05879E-22
 -1       535 3.33270E-05-2.98415E-05 0.00000E+00
 -1       536 9.16276E-05 4.54534E-06 6.61744E-24
 -1       537 9.14671E-05 1.47555E-05 0.00000E+00
 -1       538 9.13003E-05 2.55737E-05 0.00000E+00
 -1       539 9.11401E-05 3.58305E-05 0.00000E+00
 -1       540 9.09942E-05 4.44810E-05 3.30872E-24
 -1       541 9.08671E-05 5.04885E-05-1.65436E-24
 -1       542 9.07530E-05 5.34068E-05 0.00000E+00
 -1       543 9.06429E-05 5.28050E-05 1.65436E-24
 -1       544 9.05265E-05 4.90375E-05-3.30872E-24
 -1       545 9.03961E-05 4.24742E-05 0.00000E+00
 -1       546 9.02532E-05 3.41098E-05 3.30872E-24
 -1       547 9.01038E-05 2.49478E-05-1.65436E-24
 -1       548 8.99577E-05 1.61700E-05-3.30872E-24
 -1       549 8.98247E-05 8.95693E-06-8.27181E-25
 -1       550 8.97048E-05 4.13965E-06-8.27181E-25
 -1       551 8.23649E-05-4.10795E-06 0.00000E+00
 -1       552 7.11425E-05-4.33991E-06 3.30872E-24
 -1       553 5.87200E-05-4.58474E-06 4.96308E-24
 -1       554 4.57169E-05-4.83868E-06 0.00000E+00
 -1       555 3.27526E-05-5.09489E-06 1.32349E-23
 -1       556 8.92595E-05 2.62981E-06 0.00000E+00
 -1       557 8.73135E-05 7.67890E-06 0.00000E+00
 -1       558 8.58778E-05 1.13889E-05 0.00000E+00
 -1       559 8.48965E-05 1.39020E-05 0.00000E+00
 -1       560 8.43139E-05 1.53599E-05 0.00000E+00
 -1       561 8.40750E-05 1.59054E-05 0.00000E+00
 -1       562 8.41252E-05 1.56813E-05 0.00000E+00
 -1       563 8.44102E-05 1.48307E-05 0.00000E+00
 -1       564 8.48760E-05 1.34968E-05 0.00000E+00
 -1       565 8.54689E-05 1.18230E-05 0.00000E+00
 -1       566 8.61352E-05 9.95259E-06 0.00000E+00
 -1       567 8.68214E-05 8.02904E-06 2.06795E-25
 -1       568 8.74739E-05 6.19574E-06 0.00000E+00
 -1       569 8.80392E-05 4.59594E-06 0.00000E+00
 -1       570 8.84636E-05 3.37295E-06 0.00000E+00
 -1       571 8.96660E-05 2.47954E-06 8.27181E-25
 -1       572 8.97329E-05 2.37777E-06 8.27181E-25
 -1       573 8.98002E-05 2.24002E-06 8.27181E-25
 -1       574 8.98677E-05 2.07487E-06 4.13590E-25
 -1       575 8.99352E-05 1.89092E-06 0.00000E+00
 -1       576 9.00028E-05 1.69682E-06 8.27181E-25
 -1       577 9.00705E-05 1.50124E-06 0.00000E+00
 -1       578 9.01381E-05 1.31286E-06 0.00000E+00
 -1       579 9.02057E-05 1.14034E-06 3.30872E-24
 -1       580 9.02734E-05 9.92347E-07 0.00000E+00
 -1       581 9.03410E-05 8.77561E-07 3.30872E-24
 -1       582 9.04086E-05 8.04638E-07 0.00000E+00
 -1       583 9.04762E-05 7.82232E-07 3.30872E-24
 -1       584 9.05439E-05 8.18907E-07 0.00000E+00
 -1       585 9.06114E-05 9.23173E-07 0.00000E+00
 -1       586 8.94193E-05 2.56016E-06-8.27181E-25
 -1       587 8.92110E-05 2.58258E-06 0.00000E+00
 -1       588 8.90049E-05 2.60476E-06 0.00000E+00
 -1       589 8.88306E-05 2.62659E-06 0.00000E+00
 -1       590 8.87176E-05 2.64780E-06 0.00000E+00
 -1       591 8.95898E-05 2.51675E-06 1.03398E-25
 -1       592 8.95892E-05 2.46228E-06 0.00000E+00
 -1       593 8.95987E-05 2.38041E-06 0.00000E+00
 -1       594 8.96159E-05 2.27705E-06 0.00000E+00
 -1       595 8.96389E-05 2.15822E-06-8.27181E-25
 -1       596 8.96653E-05 2.02988E-06 0.00000E+00
 -1       597 8.96931E-05 1.89798E-06 4.13590E-25
 -1       598 8.97200E-05 1.76847E-06-2.06795E-25
 -1       599 8.97438E-05 1.64731E-06 0.00000E+00
 -1       600 8.97622E-05 1.54044E-06 2.06795E-25
 -1       601 8.97730E-05 1.45381E-06 0.00000E+00
 -1       602 8.97741E-05 1.39339E-06-2.06795E-25
 -1       603 8.97631E-05 1.36513E-06 1.03398E-25
 -1       604 8.97382E-05 1.37504E-06 0.00000E+00
 -1       605 8.96970E-05 1.42903E-06 0.00000E+00
 -1       606 9.06910E-05 1.43612E-06 0.00000E+00
 -1       607 9.07007E-05 1.86171E-06-1.65436E-24
 -1       608 9.07099E-05 2.37422E-06-3.30872E-24
 -1       609 9.07186E-05 2.96754E-06 0.00000E+00
 -1       610 9.07273E-05 3.63553E-06 0.00000E+00
 -1       611 9.07358E-05 4.37195E-06 0.00000E+00
 -1       612 9.07443E-05 5.17058E-06 0.00000E+00
 -1       613 9.07527E-05 6.02517E-06 0.00000E+00
 -1       614 9.07611E-05 6.92949E-06 0.00000E+00
 -1       615 9.07694E-05 7.87729E-06 8.27181E-25
 -1       616 9.07777E-05 8.86233E-06 0.00000E+00
 -1       617 9.07860E-05 9.87838E-06 0.00000E+00
 -1       618 9.07942E-05 1.09192E-05 0.00000E+00
 -1       619 9.08024E-05 1.19785E-05 0.00000E+00
 -1       620 9.08105E-05 1.30501E-05 0.00000E+00
 -1       621 9.04437E-05 1.17476E-06 1.65436E-24
 -1       622 9.02430E-05 1.24697E-06 0.00000E+00
 -1       623 9.00695E-05 1.31917E-06 0.00000E+00
 -1       624 8.99159E-05 1.39126E-06 0.00000E+00
 -1       625 8.97751E-05 1.46322E-06 0.00000E+00
 -1       626 9.06315E-05 1.45930E-06 0.00000E+00
 -1       627 9.05564E-05 1.89167E-06 3.30872E-24
 -1       628 9.04556E-05 2.39281E-06 0.00000E+00
 -1       629 9.03319E-05 2.95504E-06 0.00000E+00
 -1       630 9.01882E-05 3.57071E-06 0.00000E+00
 -1       631 9.00273E-05 4.23209E-06 0.00000E+00
 -1       632 8.98521E-05 4.93146E-06 0.00000E+00
 -1       633 8.96656E-05 5.66113E-06 0.00000E+00
 -1       634 8.94705E-05 6.41335E-06 3.30872E-24
 -1       635 8.92699E-05 7.18042E-06 0.00000E+00
 -1       636 8.90666E-05 7.95463E-06 1.65436E-24
 -1       637 8.88635E-05 8.72827E-06 0.00000E+00
 -1       638 8.86635E-05 9.49359E-06 0.00000E+00
 -1       639 8.84692E-05 1.02429E-05 0.00000E+00
 -1       640 8.82836E-05 1.09685E-05-1.65436E-24
 -1       656 8.99430E-05 1.37266E-05 0.00000E+00
 -1       657 8.94204E-05 1.33095E-05 3.30872E-24
 -1       658 8.91184E-05 1.28936E-05 1.32349E-23
 -1       659 8.89009E-05 1.24781E-05 0.00000E+00
 -1       660 8.86149E-05 1.20613E-05-6.61744E-24
 -1       661 9.04950E-05 1.51796E-05 0.00000E+00
 -1       662 9.01949E-05 1.61781E-05 8.27181E-25
 -1       663 8.99140E-05 1.71250E-05 1.65436E-24
 -1       664 8.96521E-05 1.80229E-05 8.27181E-25
 -1       665 8.94077E-05 1.88743E-05 0.00000E+00
 -1       666 8.91800E-05 1.96815E-05-8.27181E-25
 -1       667 8.89680E-05 2.04466E-05-1.65436E-24
 -1       668 8.87711E-05 2.11719E-05 8.27181E-25
 -1       669 8.85884E-05 2.18594E-05 0.00000E+00
 -1       670 8.84191E-05 2.25110E-05 0.00000E+00
 -1       671 8.82626E-05 2.31287E-05-1.65436E-24
 -1       672 8.81181E-05 2.37141E-05 0.00000E+00
 -1       673 8.79849E-05 2.42690E-05 1.65436E-24
 -1       674 8.78619E-05 2.47948E-05 0.00000E+00
 -1       675 8.77493E-05 2.52935E-05-4.13590E-25
 -1       676 8.98328E-05 2.61555E-05 1.65436E-24
 -1       677 8.93935E-05 2.60769E-05 0.00000E+00
 -1       678 8.89545E-05 2.59982E-05 1.65436E-24
 -1       679 8.85162E-05 2.59199E-05 0.00000E+00
 -1       680 8.80786E-05 2.58415E-05 1.65436E-24
 -1       771 1.56512E-05 4.25047E-06 0.00000E+00
 -1       772 1.15174E-05 1.21349E-05-5.29396E-23
 -1       773 8.01233E-06 1.83765E-05 0.00000E+00
 -1       774 5.09442E-06 2.30763E-05 0.00000E+00
 -1       775 2.72258E-06 2.63381E-05 0.00000E+00
 -1       776 8.53910E-07 2.82697E-05-2.64698E-23
 -1       777-5.54948E-07 2.89817E-05-5.29396E-23
 -1       778-1.54834E-06 2.85879E-05 0.00000E+00
 -1       779-2.17091E-06 2.72043E-05 0.00000E+00
 -1       780-2.46813E-06 2.49499E-05 1.32349E-23
 -1       781-2.48559E-06 2.19449E-05 0.00000E+00
 -1       782-2.26955E-06 1.83123E-05 0.00000E+00
 -1       783-1.86631E-06 1.41758E-05-2.64698E-23
 -1       784-1.32258E-06 9.66068E-06 1.32349E-23
 -1       785-6.85112E-07 4.89307E-06 0.00000E+00
 -1       786 8.87502E-05 2.49479E-06 0.00000E+00
 -1       787 8.88091E-05 2.33727E-06 4.13590E-25
 -1       788 8.88678E-05 2.19218E-06 0.00000E+00
 -1       789 8.89271E-05 2.05728E-06 0.00000E+00
 -1       790 8.89864E-05 1.93175E-06-1.65436E-24
 -1       791 8.90459E-05 1.81480E-06 8.27181E-25
 -1       792 8.91054E-05 1.70681E-06-1.65436E-24
 -1       793 8.91649E-05 1.60819E-06 0.00000E+00
 -1       794 8.92244E-05 1.52061E-06 0.00000E+00
 -1       795 8.92840E-05 1.44580E-06-8.27181E-25
 -1       796 8.93435E-05 1.38724E-06 1.65436E-24
 -1       797 8.94030E-05 1.34843E-06 8.27181E-25
 -1       798 8.94625E-05 1.33560E-06-1.65436E-24
 -1       799 8.95218E-05 1.35504E-06 0.00000E+00
 -1       800 8.95812E-05 1.41748E-06-1.65436E-24
 -1       801 8.26888E-05 2.35699E-06 0.00000E+00
 -1       802 6.43946E-05 1.89204E-06 0.00000E+00
 -1       803 4.04937E-05 1.32050E-06-1.32349E-23
 -1       804 1.77451E-05 7.67456E-07 0.00000E+00
 -1       805 2.24541E-06 3.41559E-07-2.64698E-23
 -1       806 8.86816E-05 2.44946E-06 1.65436E-24
 -1       807 8.86630E-05 2.23804E-06 0.00000E+00
 -1       808 8.86398E-05 2.03721E-06 1.65436E-24
 -1       809 8.86110E-05 1.85068E-06 0.00000E+00
 -1       810 8.85753E-05 1.68215E-06-1.65436E-24
 -1       811 8.85314E-05 1.53527E-06 8.27181E-25
 -1       812 8.84781E-05 1.41368E-06-1.65436E-24
 -1       813 8.84138E-05 1.32100E-06-1.65436E-24
 -1       814 8.83374E-05 1.26087E-06 1.65436E-24
 -1       815 8.82474E-05 1.23689E-06-1.65436E-24
 -1       816 8.81425E-05 1.25269E-06 3.30872E-24
 -1       817 8.80214E-05 1.31187E-06 8.27181E-25
 -1       818 8.78827E-05 1.41806E-06 0.00000E+00
 -1       819 8.77251E-05 1.57485E-06 0.00000E+00
 -1       820 8.75474E-05 1.78584E-06-1.65436E-24
 -1       821 8.95496E-05 1.65814E-06 0.00000E+00
 -1       822 8.94539E-05 1.74583E-06 0.00000E+00
 -1       823 8.93586E-05 1.84940E-06 0.00000E+00
 -1       824 8.92622E-05 2.02134E-06 1.65436E-24
 -1       825 8.91657E-05 2.30052E-06 3.30872E-24
 -1       826 8.90690E-05 2.72533E-06 0.00000E+00
 -1       827 8.89722E-05 3.30514E-06 0.00000E+00
 -1       828 8.88753E-05 4.04868E-06 0.00000E+00
 -1       829 8.87782E-05 4.93202E-06 3.30872E-24
 -1       830 8.86811E-05 5.93064E-06 1.65436E-24
 -1       831 8.85840E-05 6.99709E-06 0.00000E+00
 -1       832 8.84870E-05 8.08357E-06-1.65436E-24
 -1       833 8.83901E-05 9.13829E-06 0.00000E+00
 -1       834 8.82944E-05 1.01096E-05 8.27181E-25
 -1       835 8.81984E-05 1.09626E-05 8.27181E-25
 -1       836 8.94055E-05 1.62045E-06 0.00000E+00
 -1       837 8.90597E-05 1.70907E-06 0.00000E+00
 -1       838 8.86417E-05 1.79753E-06 0.00000E+00
 -1       839 8.81909E-05 1.88542E-06 8.27181E-25
 -1       840 8.77471E-05 1.97317E-06 0.00000E+00
 -1       856 8.80824E-05 1.23415E-05-2.06795E-25
 -1       857 8.80537E-05 1.31247E-05 0.00000E+00
 -1       858 8.80250E-05 1.39959E-05 8.27181E-25
 -1       859 8.79957E-05 1.49384E-05 4.13590E-25
 -1       860 8.79664E-05 1.59358E-05 8.27181E-25
 -1       861 8.79369E-05 1.69713E-05 0.00000E+00
 -1       862 8.79073E-05 1.80284E-05 0.00000E+00
 -1       863 8.78778E-05 1.90904E-05-4.13590E-25
 -1       864 8.78482E-05 2.01405E-05 0.00000E+00
 -1       865 8.78187E-05 2.11621E-05 0.00000E+00
 -1       866 8.77892E-05 2.21385E-05-8.27181E-25
 -1       867 8.77597E-05 2.30532E-05 4.13590E-25
 -1       868 8.77303E-05 2.38896E-05 0.00000E+00
 -1       869 8.77009E-05 2.46312E-05 4.13590E-25
 -1       870 8.76716E-05 2.52617E-05 0.00000E+00
 -1       871 8.76279E-05 1.16615E-05 0.00000E+00
 -1       872 8.72492E-05 1.16585E-05 0.00000E+00
 -1       873 8.69283E-05 1.16551E-05 0.00000E+00
 -1       874 8.66206E-05 1.16511E-05 0.00000E+00
 -1       875 8.62817E-05 1.16467E-05-6.20385E-25
 -1       876 8.79454E-05 1.23504E-05 3.30872E-24
 -1       877 8.77657E-05 1.30891E-05 1.65436E-24
 -1       878 8.75694E-05 1.38725E-05 0.00000E+00
 -1       879 8.73587E-05 1.46947E-05 0.00000E+00
 -1       880 8.71356E-05 1.55501E-05 3.30872E-24
 -1       881 8.69023E-05 1.64330E-05 0.00000E+00
 -1       882 8.66607E-05 1.73376E-05 3.30872E-24
 -1       883 8.64132E-05 1.82583E-05 0.00000E+00
 -1       884 8.61617E-05 1.91893E-05 0.00000E+00
 -1       885 8.59084E-05 2.01250E-05-1.65436E-24
 -1       886 8.56555E-05 2.10597E-05 3.30872E-24
 -1       887 8.54051E-05 2.19876E-05-8.27181E-25
 -1       888 8.51591E-05 2.29032E-05-1.65436E-24
 -1       889 8.49195E-05 2.38005E-05 8.27181E-25
 -1       890 8.46885E-05 2.46739E-05-8.27181E-25
 -1       891 8.72256E-05 2.57233E-05-8.27181E-25
 -1       892 8.67913E-05 2.56816E-05 0.00000E+00
 -1       893 8.63185E-05 2.56399E-05-8.27181E-25
 -1       894 8.57866E-05 2.55982E-05 2.06795E-25
 -1       895 8.51752E-05 2.55567E-05-6.20385E-25
 -1       956 8.72585E-05 2.44119E-06 1.65436E-24
 -1       957 8.71662E-05 2.88686E-06 8.27181E-25
 -1       958 8.70735E-05 3.38530E-06 1.65436E-24
 -1       959 8.69807E-05 3.92988E-06 1.65436E-24
 -1       960 8.68877E-05 4.51399E-06 3.30872E-24
 -1       961 8.67948E-05 5.13095E-06-1.65436E-24
 -1       962 8.67018E-05 5.77409E-06 0.00000E+00
 -1       963 8.66088E-05 6.43674E-06-1.65436E-24
 -1       964 8.65157E-05 7.11223E-06 0.00000E+00
 -1       965 8.64227E-05 7.79387E-06-1.65436E-24
 -1       966 8.63297E-05 8.47500E-06 3.30872E-24
 -1       967 8.62367E-05 9.14894E-06-1.65436E-24
 -1       968 8.61438E-05 9.80899E-06 3.30872E-24
 -1       969 8.60511E-05 1.04485E-05-1.65436E-24
 -1       970 8.59586E-05 1.10609E-05 0.00000E+00
 -1       971 8.57809E-05 1.22366E-05 0.00000E+00
 -1       972 8.56931E-05 1.29106E-05 8.27181E-25
 -1       973 8.56052E-05 1.36534E-05 0.00000E+00
 -1       974 8.55171E-05 1.44559E-05 8.27181E-25
 -1       975 8.54289E-05 1.53094E-05 1.65436E-24
 -1       976 8.53407E-05 1.62049E-05 1.65436E-24
 -1       977 8.52524E-05 1.71336E-05 0.00000E+00
 -1       978 8.51641E-05 1.80866E-05 0.00000E+00
 -1       979 8.50758E-05 1.90549E-05 3.30872E-24
 -1       980 8.49875E-05 2.00298E-05 0.00000E+00
 -1       981 8.48992E-05 2.10021E-05-3.30872E-24
 -1       982 8.48110E-05 2.19632E-05 0.00000E+00
 -1       983 8.47229E-05 2.29040E-05 3.30872E-24
 -1       984 8.46353E-05 2.38157E-05 0.00000E+00
 -1       985 8.45480E-05 2.46893E-05 0.00000E+00
 -3
    1PSTEP                        10           5           1          
  100CL  105 5.03906E-01         409                     0    5           1
 -4  STRESS      6    1
 -5  SXX         1    4    1    1
 -5  SYY         1    4    2    2
 -5  SZZ         1    4    3    3
 -5  SXY         1    4    1    2
 -5  SYZ         1    4    2    3
 -5  SZX         1    4    3    1
 -1         1-1.96096E+06-8.59402E+05-4.09569E+05-1.14732E+06 1.09139E-10-2.47383E-09
 -1         2 2.72875E+03 1.83888E+04 8.91707E+03 4.88859E+01-1.15705E-10-1.29916E-09
 -1         3-1.47584E+02-8.66570E+05 2.04905E+02-4.01878E+02-2.66320E-10 8.74024E-09
 -1         5-4.11506E+00 2.63699E+05 6.88028E+00 1.16147E-01 4.29277E-11 1.62695E-08
 -1         8-9.38827E+05-3.65818E+05-6.86201E+04-5.61562E+05-1.81899E-10 7.15227E-09
 -1         9-1.78205E+06-5.19982E+05-2.02500E+05-5.56946E+05 3.73402E-09 2.10130E-09
 -1        10-7.37510E+02-9.02784E+05-1.22039E+03-2.71737E+03-4.17367E-09-1.00804E-08
 -1        12-1.29443E+00 2.63714E+05 2.22950E+02 9.69704E-01 2.42437E-10 5.91626E-09
 -1        15 2.01046E+03 1.10487E+03 6.49880E+03 4.30026E+00-9.29674E-11 1.35970E-08
 -1        16-3.20947E+06-1.25174E+06-5.15413E+05-1.30644E+06 1.08945E-08 6.59687E-10
 -1        17-1.06776E+06-6.25694E+05-2.08905E+05-5.61830E+05-5.68252E-09 4.47035E-09
 -1        18-4.49224E+04-1.55725E+04-3.12853E+04-6.54944E+04 2.24827E-09 3.48518E-09
 -1        19 8.30141E+04 9.82099E+04-5.25924E+02 1.61823E+04-3.93993E-10-2.83326E-09
 -1        20-3.67414E+04-3.92218E+05-8.66654E+04 2.77586E+04 3.48912E-09-3.12260E-09
 -1        21-3.65866E+01-2.24996E+05-7.24497E+02-6.78334E+01-8.94903E-09-3.65433E-09
 -1        24-3.22366E+06-9.04000E+05-4.08394E+05-1.18453E+06-3.04378E-08-1.31743E-08
 -1        25-8.15699E+03-1.78890E+05-2.34304E+04-1.14244E+05 5.11773E-10 9.24811E-09
 -1        26-2.16606E+04 6.63460E+04-1.38300E+04-8.42024E+03 1.42318E-09 4.31431E-09
 -1        27-6.16554E+04-2.14814E+05-8.04436E+04 4.84240E+04 5.32623E-09 1.65346E-09
 -1        28 1.73913E+04-6.23911E+04 1.27252E+04 1.95256E+04 1.37359E-09 3.15880E-09
 -1        32-9.20005E+05-5.50686E+05 2.62843E+05-5.58613E+05-2.03509E-08 1.24503E-08
 -1        33-1.23513E+05 6.28158E+04 2.23134E+04-3.51546E+04 9.03583E-10 5.78135E-10
 -1        34-1.59246E+05-1.59578E+04 3.84656E+02 4.93509E+04 2.41455E-09 1.99361E-09
 -1        35-1.76944E+04-2.47908E+04-9.73456E+02 3.91942E+04 4.03217E-09-6.90246E-09
 -1        51 1.74617E+04-3.62533E+05 4.37570E+04-9.48574E+05 1.89175E-10-6.47560E-09
 -1        52 1.00756E+04-3.60358E+05 2.82491E+04-1.10631E+06 1.00408E-09 3.62343E-09
 -1        53 7.00221E+03-3.73812E+05 2.30941E+04-9.45254E+05 7.78527E-10-3.91447E-09
 -1        54 1.97919E+04-3.72375E+05 3.58854E+04-1.10976E+06 2.32831E-10-9.47330E-09
 -1        55 3.92298E+04-3.85886E+05 6.33590E+04-9.44713E+05 4.80213E-10 8.66567E-09
 -1        56-3.75543E+06-4.21413E+05-3.01220E+05-1.44918E+06-2.47383E-10 3.69619E-09
 -1        57-3.88023E+06-6.90467E+05-2.03096E+05-1.43326E+06 9.47693E-10 1.44646E-08
 -1        58-3.81645E+06-5.16402E+05-7.08537E+04-1.42963E+06-4.01997E-10-1.97542E-09
 -1        59-3.80964E+06-5.78959E+05-4.22971E+04-1.45650E+06 6.47333E-10-1.47552E-08
 -1        60-3.82531E+06-5.29692E+05-1.65332E+04-1.42704E+06-2.07956E-09 5.35692E-09
 -1        61-3.80104E+06-5.61662E+05-9.37985E+03-1.45748E+06-6.27438E-10 8.96114E-09
 -1        62-3.82487E+06-5.33305E+05-4.49964E+03-1.42875E+06 1.56501E-09-5.76279E-10
 -1        63-3.80466E+06-5.54603E+05-3.61974E+03-1.45179E+06-9.77252E-10-1.25130E-08
 -1        64-3.82155E+06-5.36773E+05-4.12853E+03-1.43266E+06 5.17275E-10 1.77556E-09
 -1        65-3.81334E+06-5.48438E+05-8.15119E+03-1.44256E+06-1.30922E-09-1.72349E-09
 -1        66-3.81613E+06-5.39567E+05-1.43643E+04-1.43791E+06 1.05501E-09 1.65983E-09
 -1        67-3.83072E+06-5.53317E+05-3.64384E+04-1.43025E+06-2.31859E-09-4.70664E-10
 -1        68-3.80430E+06-5.32255E+05-6.11492E+04-1.44486E+06 4.59750E-09-1.54396E-08
 -1        69-3.89764E+06-6.43646E+05-1.75097E+05-1.40380E+06 2.62389E-09-9.80071E-09
 -1        70-3.74998E+06-4.51932E+05-2.59759E+05-1.46351E+06 4.25644E-10-2.99769E-09
 -1        86-1.37069E+03 1.54782E+04 9.52279E+03-2.44640E+01 1.12868E-09-6.78892E-09
 -1        87 9.07831E+03 2.14610E+04 1.99052E+04 1.09225E+02 1.86583E-09-5.02828E-09
 -1        88-7.70029E+03 1.24073E+04 3.04493E+04-8.48064E+01 2.76304E-09 1.52574E-08
 -1        89 5.73641E+04 4.38695E+04 8.21316E+04 3.30151E+02 4.18004E-09 5.45538E-09
 -1        90-4.94921E+04-6.90981E+03 1.16051E+05-2.44877E+02 4.54020E-09-4.07374E-09
 -1       121-2.22227E+02-8.67174E+05 1.35099E+02 2.00602E+02 4.92967E-10-1.35733E-08
 -1       122-7.85960E+01-8.66532E+05 4.39901E+02-8.03223E+02-1.76755E-09-6.94672E-09
 -1       123-2.66995E+02-8.67223E+05 6.49597E+02 6.00617E+02 1.36129E-09-1.20999E-08
 -1       124 7.37056E+02-8.66058E+05 1.82616E+03-1.76126E+03-3.52793E-09-1.63855E-08
 -1       125-7.85557E+02-8.67683E+05 2.73667E+03 1.15758E+03 2.22462E-09-9.46966E-09
 -1       191-4.54883E+00 2.63722E+05 8.26743E+00-5.85050E-02 1.09243E-10-2.26464E-09
 -1       192-4.74687E+00 2.63700E+05 1.45654E+01 5.90396E-01 1.60391E-10-1.34050E-08
 -1       193-6.22884E+00 2.63722E+05 2.71299E+01-5.34923E-01 1.90809E-10-2.50384E-09
 -1       194-6.78016E+00 2.63702E+05 5.50874E+01 1.42924E+00 8.70841E-11-2.58910E-09
 -1       195-9.45749E+00 2.63720E+05 1.07796E+02-9.02858E-01 3.05491E-10-2.56750E-09
 -1       251-5.00839E+05-1.80156E+04 4.16320E+04-3.28811E+03 1.37561E-10 5.56975E-09
 -1       252-4.80764E+05 2.08647E+04 2.97880E+04 1.91911E+03 5.44787E-10-7.14863E-09
 -1       253-4.94124E+05-2.84677E+03 1.06500E+04-6.91728E+02 3.36740E-10-2.17005E-09
 -1       254-4.88876E+05 3.27875E+03 7.08357E+03-3.32498E+03-6.33520E-11-2.21735E-09
 -1       255-4.92738E+05-4.62655E+02 2.70667E+03 1.95595E+03-5.81053E-10 1.30426E-08
 -1       256-4.90937E+05 5.44243E+02 1.88290E+03-7.76378E+03-1.58701E-09 4.71664E-09
 -1       257-4.92106E+05-8.53521E+01 9.65701E+02 3.74706E+03-3.61212E-10 1.80185E-09
 -1       258-4.91692E+05 2.26008E+02 1.04754E+03-9.89986E+03-6.38266E-10-9.60547E-09
 -1       259-4.92016E+05-1.19413E+02 1.35225E+03 4.09215E+03-1.59706E-09 1.36879E-10
 -1       260-4.91087E+05 8.85139E+02 2.86706E+03-9.03350E+03 2.39822E-10-1.98032E-08
 -1       261-4.92696E+05-7.54630E+02 4.64024E+03 2.88064E+03 1.72568E-09-5.63659E-10
 -1       262-4.88014E+05 5.53860E+03 1.17472E+04-5.45308E+03-1.10259E-09-3.61297E-10
 -1       263-4.95040E+05-4.79935E+03 1.82017E+04 5.11660E+02-1.66767E-09 6.94945E-09
 -1       264-4.73830E+05 3.53967E+04 5.04252E+04-4.02744E+02-1.98233E-09-1.84127E-08
 -1       265-5.06838E+05-3.05723E+04 7.07828E+04-2.16970E+03-9.13019E-10-5.95537E-09
 -1       266-3.63948E+04-1.70155E+04 8.54057E+04-9.20244E+01 2.91038E-11 8.08680E-09
 -1       267 4.21928E+04 1.98361E+04 6.03568E+04 1.06163E+02 1.82808E-10-2.17572E-09
 -1       268-5.65793E+03-2.80912E+03 2.24347E+04-1.35278E+01 5.54792E-11 3.27299E-09
 -1       269 6.68042E+03 3.36217E+03 1.45819E+04 1.57570E+01 7.84439E-11 3.33436E-09
 -1       270-1.00274E+03-5.52420E+02 7.03888E+03-2.13837E+00-2.27374E-12 1.79895E-09
 -1       271-3.47706E+06-4.35082E+05-2.65507E+05-1.35528E+06-3.09228E-10 1.37370E-08
 -1       272-3.56302E+06-6.37861E+05-1.70683E+05-1.36311E+06 5.44787E-10-5.56975E-09
 -1       273-3.52853E+06-4.99713E+05-6.27257E+04-1.34171E+06 2.63753E-10 1.59343E-09
 -1       274-3.50217E+06-5.59308E+05-3.50674E+04-1.38442E+06-1.27329E-11 5.29690E-09
 -1       275-3.53722E+06-5.04715E+05-1.46032E+04-1.33764E+06-1.30512E-09 6.62112E-10
 -1       276-3.49152E+06-5.53916E+05-7.72939E+03-1.39126E+06-2.29966E-09 8.11815E-09
 -1       277-3.53969E+06-5.03819E+05-3.79283E+03-1.33565E+06-4.41105E-11 4.08340E-09
 -1       278-3.48888E+06-5.54990E+05-2.73773E+03-1.39407E+06 1.42529E-09 8.82962E-09
 -1       279-3.54021E+06-5.03336E+05-2.92388E+03-1.33511E+06-7.94842E-10 4.35557E-09
 -1       280-3.48959E+06-5.55335E+05-5.36330E+03-1.39365E+06 2.62503E-09 2.48701E-09
 -1       281-3.53894E+06-5.03551E+05-9.79140E+03-1.33602E+06-1.39607E-09-2.81943E-10
 -1       282-3.49643E+06-5.59179E+05-2.34227E+04-1.38939E+06 1.72804E-11 2.25600E-09
 -1       283-3.53304E+06-5.00351E+05-4.18020E+04-1.33886E+06 1.33923E-09-4.61478E-09
 -1       284-3.53744E+06-6.10895E+05-1.13740E+05-1.37430E+06-1.41173E-09 2.22644E-09
 -1       285-3.49819E+06-4.57922E+05-1.77006E+05-1.34853E+06 5.85715E-10 6.68661E-09
 -1       301 1.78867E+04-3.54555E+04 1.33640E+05-7.37019E+04-9.71340E-10-9.46147E-09
 -1       302 1.90044E+04-1.64788E+03 9.16381E+04-1.08478E+05 1.27898E-09-1.55069E-08
 -1       303 1.02959E+03-2.26784E+04 7.68672E+04-7.38251E+04-8.85848E-10-3.51974E-09
 -1       304 2.79721E+04 6.99410E+03 1.21195E+05-1.08090E+05 7.69433E-10 2.01062E-08
 -1       305 2.72923E+04-4.34677E+04 1.99038E+05-7.40828E+04-7.63976E-10 7.94171E-09
 -1       306-4.73148E+06-5.45215E+05-3.55501E+05-1.84278E+06 3.10683E-09 7.84348E-09
 -1       307-4.89248E+06-8.62397E+05-2.41583E+05-1.80015E+06-1.17234E-09 5.52973E-09
 -1       308-4.82609E+06-6.40871E+05-8.37380E+04-1.79242E+06 2.11276E-09-1.67347E-10
 -1       309-4.77376E+06-7.61515E+05-5.03701E+04-1.87239E+06 1.29012E-09 1.07830E-08
 -1       310-4.85035E+06-6.43374E+05-1.94978E+04-1.77180E+06-3.32625E-09 3.41061E-09
 -1       311-4.74959E+06-7.54266E+05-1.13150E+04-1.89212E+06 8.95034E-09 1.79773E-09
 -1       312-4.85063E+06-6.47438E+05-5.61354E+03-1.77314E+06-1.55114E-09 5.60921E-09
 -1       313-4.76429E+06-7.33210E+05-4.60516E+03-1.87005E+06-2.34104E-09 4.97130E-09
 -1       314-4.83489E+06-6.64910E+05-6.59324E+03-1.79333E+06-2.10048E-09-4.23188E-09
 -1       315-4.80582E+06-6.94187E+05-1.20977E+04-1.82009E+06-6.54813E-09 6.13909E-09
 -1       316-4.80832E+06-6.87073E+05-2.29557E+04-1.82249E+06-6.24823E-10-1.31276E-08
 -1       317-4.86811E+06-6.71314E+05-5.76131E+04-1.76372E+06 6.74125E-09-2.13186E-09
 -1       318-4.77324E+06-6.87820E+05-9.58654E+04-1.84995E+06-9.49694E-09 1.67638E-08
 -1       319-4.99516E+06-8.02829E+05-2.78290E+05-1.70223E+06-4.41014E-09 5.52609E-09
 -1       320-4.68311E+06-5.57242E+05-4.07416E+05-1.88405E+06 1.22454E-08-6.05360E-09
 -1       336 5.42713E+02-9.38764E+05-5.20556E+03 1.55447E+03-8.82392E-09-5.71345E-09
 -1       337-1.91527E+03-9.39879E+05-5.76720E+03-3.88501E+03-1.64116E-08 7.96081E-09
 -1       338 3.66781E+02-9.38884E+05-7.50588E+03 2.31952E+03-1.17543E-08-1.48539E-08
 -1       339-7.77995E+03-9.43579E+05-1.64391E+04-5.38845E+03-2.12758E-08-1.14815E-08
 -1       340 5.19772E+03-9.35211E+05-2.54498E+04 3.04591E+03-1.38380E-08 9.05857E-09
 -1       406 1.57759E+01 2.63710E+05 4.40201E+02-7.94252E-02 4.60034E-10-3.05454E-09
 -1       407 1.52166E+02 2.63791E+05 9.35486E+02-6.31645E+00 4.20641E-11-2.28572E-08
 -1       408 4.80280E+02 2.63642E+05 1.86841E+03 6.53239E+00 5.04656E-10-1.36538E-08
 -1       409 2.01896E+03 2.64388E+05 4.20622E+03-6.35166E+01-1.17325E-10-1.35333E-09
 -1       410 5.80312E+03 2.63111E+05 8.58686E+03 5.95258E+01 4.67480E-10 4.53929E-09
 -1       521-7.81053E+06-7.58439E+05-6.73587E+05-2.62780E+06-5.07134E-09 8.11997E-09
 -1       522-6.36933E+06-1.92712E+06-2.83526E+05-3.60277E+06-7.04713E-08-8.82574E-09
 -1       523-7.96937E+06-5.09988E+05-1.44188E+05-2.10276E+06-1.06666E-08-4.17058E-08
 -1       524-6.39038E+06-2.03409E+06-5.60993E+04-4.28478E+06 5.98898E-08-7.07951E-08
 -1       525-7.97875E+06-5.08742E+05-3.50630E+04-2.06797E+06 5.09353E-08-4.28827E-08
 -1       526-6.24639E+06-1.76515E+06 5.79736E+04-3.76233E+06 1.70257E-08-1.40462E-08
 -1       527-7.95255E+06-8.95544E+05-1.12449E+05-2.52448E+06 1.08703E-08-1.06702E-08
 -1       528-6.53939E+06-1.00996E+06 1.35238E+05-2.59083E+06-2.40325E-08 1.44391E-08
 -1       529-7.50316E+06-1.39264E+06-1.25624E+05-3.09374E+06 1.14378E-08 4.29281E-09
 -1       530-7.79145E+06-1.09063E+05 7.47432E+04-1.79952E+06-5.60540E-08 3.36022E-08
 -1       531-6.85173E+06-1.68605E+06-4.81615E+04-3.41172E+06-7.21047E-08-9.11314E-09
 -1       532-8.73319E+06 3.15806E+05-5.28903E+04-1.60554E+06 5.21359E-08-6.49525E-08
 -1       533-6.74298E+06-1.69253E+06-1.27413E+05-3.44627E+06 2.50584E-08-1.09827E-07
 -1       534-8.23406E+06-1.60577E+05-2.88035E+05-1.67662E+06-2.52949E-08 7.62648E-08
 -1       535-7.23002E+06-1.29743E+06-6.41701E+05-3.22985E+06-9.05129E-09 5.53264E-08
 -1       536-3.20602E+05-1.37479E+04 3.09256E+04-6.41827E+03-9.97801E-10 1.71221E-08
 -1       537-3.04206E+05 1.58936E+04 2.24102E+04 1.29914E+04-2.05691E-08 1.31756E-08
 -1       538-3.13890E+05-2.05771E+03 8.08371E+03-7.31507E+03 1.79450E-09 2.17710E-08
 -1       539-3.08446E+05 2.54395E+03 5.68605E+03 1.15811E+04 2.17771E-08 1.15874E-08
 -1       540-3.16313E+05-4.45451E+02 1.36109E+03-5.00721E+03 3.56971E-09 1.21414E-08
 -1       541-3.03341E+05 6.75129E+02 2.97430E+03 4.76475E+03-2.06424E-09 1.69371E-08
 -1       542-3.18840E+05-3.20126E+02-8.37560E+02-4.97724E+02 4.59357E-09 9.81822E-09
 -1       543-3.03114E+05 2.91392E+02 1.89820E+03-4.37680E+03 1.94686E-09-2.18716E-09
 -1       544-3.16533E+05-7.43587E+01-1.21355E+03 4.13291E+03 5.95946E-10-2.93366E-09
 -1       545-3.09289E+05-3.85829E+02-5.76019E+02-1.16164E+04 6.70909E-10-1.26561E-08
 -1       546-3.12818E+05 4.83008E+02-2.36520E+03 6.74221E+03 3.26514E-09-5.65240E-09
 -1       547-3.13156E+05-2.84799E+03-5.65129E+03-1.36738E+04-1.56333E-08-9.62473E-09
 -1       548-3.12734E+05 2.44630E+03-9.54959E+03 6.19110E+03-1.33501E-08-1.06106E-08
 -1       549-3.15143E+05-1.75521E+04-2.42568E+04-9.60090E+03-9.17203E-09-7.58064E-10
 -1       550-3.10709E+05 1.50708E+04-3.71990E+04 2.66802E+03 6.72514E-10-5.05679E-09
 -1       551 1.22585E+04-4.85869E+05 2.25430E+04-8.13029E+05-3.82279E-08 2.63390E-09
 -1       552 2.77153E+04-4.92584E+05 2.97445E+04-1.15760E+06-2.85800E-08 1.74623E-08
 -1       553 1.94283E+04-4.98296E+05 4.49492E+04-8.10093E+05-4.71700E-08 1.01427E-08
 -1       554 5.21549E+04-4.84371E+05 9.49151E+04-1.15886E+06-2.88564E-08 1.02773E-08
 -1       555 4.70538E+04-5.16647E+05 1.69548E+05-8.10908E+05-4.70318E-08-3.79077E-09
 -1       556 8.23120E+04-1.55763E+05 5.28886E+04-1.99989E+05-7.97445E-09-5.26052E-09
 -1       557 1.45733E+05-2.07676E+05 2.78915E+04-2.51231E+05 1.62254E-09 2.19552E-09
 -1       558 8.14746E+04-1.62474E+05 1.11095E+04-1.94257E+05-6.25732E-09-1.89902E-09
 -1       559 1.36302E+05-2.14662E+05 5.69327E+03-2.55607E+05 4.27099E-09 4.25098E-09
 -1       560 7.90628E+04-1.60894E+05 2.25733E+03-1.95823E+05-3.77622E-09 2.24099E-09
 -1       561 1.32721E+05-2.13633E+05 1.23991E+03-2.57886E+05-7.99992E-09 5.80621E-09
 -1       562 7.71372E+04-1.59624E+05 4.25053E+02-1.97208E+05-3.99450E-09-3.00179E-09
 -1       563 1.30460E+05-2.12657E+05 3.02614E+02-2.59333E+05 1.93540E-09-1.33059E-09
 -1       564 7.59089E+04-1.58838E+05 9.84040E+01-1.98078E+05 4.00905E-09-2.25918E-09
 -1       565 1.29230E+05-2.12128E+05 8.89255E+01-2.60108E+05-2.24099E-09-1.54596E-08
 -1       566 7.54147E+04-1.58516E+05 8.13912E+00-1.98431E+05-5.40422E-09-1.61999E-08
 -1       567 1.28990E+05-2.12012E+05-6.32204E+01-2.60189E+05 7.34542E-09 7.00675E-09
 -1       568 7.56899E+04-1.58698E+05-2.62362E+02-1.98307E+05-4.58931E-09 8.34007E-09
 -1       569 1.29056E+05-2.11874E+05-6.19749E+02-2.58942E+05-8.07449E-09 1.03719E-08
 -1       570 7.73012E+04-1.60067E+05-1.41618E+03-1.98215E+05-2.28829E-09-4.06817E-09
 -1       571 1.92849E+05 7.09196E+03 1.04921E+04-4.97355E+04 3.40606E-10-3.42743E-09
 -1       572 1.94408E+05 2.47621E+03 5.14060E+03-5.45259E+04 1.59343E-09 4.78394E-10
 -1       573 1.93473E+05 5.99963E+02 2.28369E+03-4.96098E+04 2.50338E-09 2.63753E-10
 -1       574 1.93656E+05 2.06154E+02 1.14427E+03-5.46672E+04 2.65595E-09 3.44744E-09
 -1       575 1.93542E+05 4.03075E+01 5.39365E+02-4.95932E+04 1.34241E-09 1.77533E-09
 -1       576 1.93553E+05 2.29865E+01 2.74710E+02-5.46861E+04-1.06571E-09 6.01358E-09
 -1       577 1.93553E+05 9.87559E+00 1.35543E+02-4.95910E+04 5.34328E-09-1.31422E-09
 -1       578 1.93545E+05 1.27633E+01 7.44035E+01-5.46884E+04 1.28186E-08-3.24826E-09
 -1       579 1.93567E+05 6.38254E+00 4.62674E+01-4.95910E+04 6.17501E-09 3.37877E-10
 -1       580 1.93564E+05 4.89058E+00 4.46229E+01-5.46855E+04-3.23735E-09-6.35691E-09
 -1       581 1.93591E+05-3.03303E+00 6.17928E+01-4.95939E+04-9.63337E-09 1.26101E-09
 -1       582 1.93607E+05 6.10334E+00 1.19039E+02-5.46556E+04-1.74914E-08 6.68524E-09
 -1       583 1.93619E+05 3.27588E+01 2.28572E+02-4.96209E+04-6.58929E-09-2.73917E-09
 -1       584 1.93727E+05 2.10999E+02 5.13161E+02-5.44304E+04 9.42237E-10-7.94898E-10
 -1       585 1.93599E+05 6.61544E+02 1.04177E+03-4.98195E+04-3.91992E-10 4.40195E-10
 -1       586-2.23264E+03 6.39423E+04-2.88944E+03-1.70888E+05-4.27463E-11-4.49973E-09
 -1       587-4.65239E+02 6.35630E+04-1.92944E+02-1.88063E+05 1.40062E-10-6.89738E-10
 -1       588 6.77442E+02 6.36200E+04 2.37102E+03-1.70791E+05 3.11047E-10 7.21502E-09
 -1       589 3.38606E+03 6.49047E+04 6.72673E+03-1.87894E+05 2.54659E-10-1.80080E-10
 -1       590 9.76568E+03 6.28421E+04 1.43382E+04-1.71061E+05-6.23004E-11 3.00588E-09
 -1       591-4.21380E+04-1.17464E+04-1.38739E+04-2.14505E+04-4.84420E-10-7.27050E-09
 -1       592-4.35541E+04-1.50370E+04-7.51475E+03-2.49361E+04 5.08351E-10-1.43423E-08
 -1       593-4.35393E+04-1.07257E+04-3.12843E+03-2.24542E+04-1.05126E-09-7.44649E-10
 -1       594-4.16227E+04-1.30185E+04-1.56029E+03-2.50302E+04 2.55005E-09-5.26748E-09
 -1       595-4.36467E+04-1.07211E+04-7.17009E+02-2.25003E+04 2.14186E-10-6.89123E-09
 -1       596-4.14919E+04-1.29261E+04-3.65438E+02-2.50165E+04 2.73189E-10-1.91365E-09
 -1       597-4.36603E+04-1.07300E+04-2.01044E+02-2.25021E+04-2.73236E-09-3.88798E-09
 -1       598-4.14793E+04-1.29225E+04-1.65379E+02-2.50126E+04-1.08491E-09-6.97617E-09
 -1       599-4.36593E+04-1.07301E+04-2.15956E+02-2.25018E+04 1.24373E-10-8.52981E-09
 -1       600-4.14932E+04-1.29272E+04-4.04943E+02-2.50159E+04 1.64061E-09-2.34263E-09
 -1       601-4.36421E+04-1.07206E+04-8.00845E+02-2.24990E+04 6.70980E-09-8.79140E-10
 -1       602-4.16393E+04-1.30305E+04-1.74639E+03-2.50293E+04-2.17972E-09-1.39930E-08
 -1       603-4.35205E+04-1.07276E+04-3.50281E+03-2.24476E+04-3.93857E-09 3.53884E-09
 -1       604-4.38093E+04-1.52822E+04-8.41424E+03-2.49129E+04 2.52271E-10 8.39873E-09
 -1       605-4.19416E+04-1.18777E+04-1.55345E+04-2.13319E+04 1.45587E-09 1.65346E-09
 -1       606 2.65313E+04-9.28567E+03-1.67125E+04 2.58193E+04-1.19917E-08 3.18960E-09
 -1       607 2.36694E+04-2.99888E+03-8.32183E+03 2.89848E+04-2.19306E-08-2.46860E-09
 -1       608 2.52922E+04-5.09105E+02-3.72676E+03 2.56142E+04-7.04131E-09 7.29642E-10
 -1       609 2.49690E+04-1.35250E+02-1.88224E+03 2.92120E+04-1.86719E-09-3.39014E-10
 -1       610 2.51412E+04 2.07994E+01-8.99159E+02 2.55913E+04-6.48288E-09 1.68757E-09
 -1       611 2.50800E+04 3.32503E+01-4.53448E+02 2.92368E+04-1.03864E-08-4.17663E-09
 -1       612 2.51003E+04 3.61666E+01-2.16959E+02 2.55890E+04-5.13410E-09-1.93018E-09
 -1       613 2.50769E+04 4.19018E+01-9.87019E+01 2.92397E+04-5.69707E-09-2.20962E-09
 -1       614 2.50777E+04 3.72973E+01-2.72157E+01 2.55882E+04-1.81080E-09 7.09679E-09
 -1       615 2.50648E+04 4.75488E+01 3.17773E+01 2.92402E+04 6.56291E-09 2.96473E-09
 -1       616 2.50605E+04 4.31551E+01 1.04083E+02 2.55885E+04-8.11724E-10-5.06429E-09
 -1       617 2.50709E+04 7.37915E+01 2.41061E+02 2.92396E+04 3.21961E-10-1.38257E-08
 -1       618 2.50346E+04 1.15766E+02 4.87124E+02 2.55886E+04 4.01997E-10-6.20594E-09
 -1       619 2.52390E+04 4.53036E+02 1.09477E+03 2.92389E+04 1.24226E-09 1.43700E-09
 -1       620 2.48703E+04 1.27342E+03 2.20065E+03 2.55875E+04 2.43620E-09 3.18732E-09
 -1       621 3.06812E+02 2.06837E+05 2.70342E+03 8.73269E+03-2.76998E-10 5.76642E-09
 -1       622 3.55392E+02 2.07505E+05 2.34394E+03 1.27381E+04-1.84286E-10 1.40517E-09
 -1       623 1.53546E+01 2.07021E+05 2.75986E+03 8.69160E+03-1.99734E-10 1.45701E-09
 -1       624 1.26615E+03 2.08338E+05 5.29690E+03 1.27788E+04-2.27402E-10-6.07662E-09
 -1       625 1.27234E+03 2.05995E+05 9.23485E+03 8.69217E+03-6.04814E-11-7.80290E-10
 -1       626 1.73328E+05 4.74131E+04 3.51170E+03 9.28513E+04 5.79757E-09-3.88718E-09
 -1       627 1.71039E+05 4.90683E+04 1.69220E+03 9.65639E+04 6.40330E-09-2.63864E-08
 -1       628 1.73453E+05 4.57592E+04 7.14730E+02 9.33889E+04 9.90440E-09-1.42127E-08
 -1       629 1.70539E+05 4.86609E+04 3.50291E+02 9.67847E+04 5.92809E-09-6.85191E-09
 -1       630 1.73459E+05 4.56815E+04 1.61908E+02 9.34034E+04 4.28281E-09-1.45451E-09
 -1       631 1.70478E+05 4.86515E+04 8.70097E+01 9.67856E+04-1.71713E-09 4.22095E-09
 -1       632 1.73450E+05 4.56880E+04 5.71606E+01 9.33955E+04 4.55930E-09 3.05187E-09
 -1       633 1.70465E+05 4.86567E+04 6.35426E+01 9.67784E+04 2.07253E-08 1.45760E-08
 -1       634 1.73440E+05 4.56890E+04 1.02517E+02 9.33909E+04 1.42231E-08 3.95858E-09
 -1       635 1.70469E+05 4.86584E+04 2.07659E+02 9.67778E+04 1.62527E-09-1.14733E-09
 -1       636 1.73429E+05 4.56882E+04 4.19303E+02 9.33879E+04 6.39943E-10 2.15687E-09
 -1       637 1.70554E+05 4.87250E+04 9.21517E+02 9.67737E+04 1.97467E-09 1.66801E-09
 -1       638 1.73393E+05 4.58935E+04 1.89379E+03 9.32933E+04 1.55973E-08-1.10172E-08
 -1       639 1.71546E+05 5.01099E+04 4.48016E+03 9.64793E+04 4.13565E-08 5.01586E-10
 -1       640 1.73261E+05 5.00177E+04 9.29740E+03 9.15430E+04 1.74996E-08-8.55380E-09
 -1       656 4.66646E+04-1.18218E+06-1.12649E+05-3.83960E+02 7.27596E-12-5.81991E-10
 -1       657-6.16701E+04-1.23303E+06-9.31767E+04 7.35646E+03 1.92813E-10-9.27139E-09
 -1       658 1.48051E+04-1.19668E+06-5.71990E+04-1.54762E+03 9.45192E-10-2.48151E-09
 -1       659-6.61804E+04-1.23517E+06-9.91008E+04 8.14715E+03-4.24734E-10-6.73726E-09
 -1       660 5.11641E+04-1.18005E+06-1.22838E+05-1.17463E+03-4.58385E-10-4.89221E-09
 -1       661 1.61988E+05 1.76043E+04 1.56386E+04 6.33220E+04 1.78761E-09-2.18552E-09
 -1       662 1.70196E+05 2.98088E+04 1.05379E+04 6.05332E+04 1.12198E-09-2.25612E-09
 -1       663 1.65054E+05 2.26259E+04 3.68621E+03 6.24365E+04 2.22826E-10 6.41398E-09
 -1       664 1.66647E+05 2.39313E+04 2.20397E+03 6.16103E+04-5.74829E-10 4.64848E-09
 -1       665 1.65514E+05 2.33168E+04 8.69399E+02 6.23072E+04-1.57968E-10 2.95481E-09
 -1       666 1.66107E+05 2.31371E+04 5.07133E+02 6.17762E+04-3.65242E-09-2.28302E-09
 -1       667 1.65591E+05 2.33993E+04 2.67518E+02 6.22784E+04-7.70797E-11-2.58779E-09
 -1       668 1.66025E+05 2.30723E+04 2.68341E+02 6.18176E+04 1.79216E-09 1.78176E-10
 -1       669 1.65596E+05 2.33796E+04 3.59816E+02 6.22664E+04 2.01858E-09 1.10057E-08
 -1       670 1.66115E+05 2.32629E+04 7.80253E+02 6.18171E+04 2.52470E-09 2.02405E-10
 -1       671 1.65501E+05 2.32125E+04 1.38431E+03 6.22774E+04-3.94297E-09 2.28965E-09
 -1       672 1.66922E+05 2.46088E+04 3.54087E+03 6.16214E+04-5.77111E-09 8.12224E-09
 -1       673 1.64793E+05 2.20677E+04 5.93361E+03 6.24492E+04-2.24952E-09-8.05812E-10
 -1       674 1.72572E+05 3.41393E+04 1.69688E+04 5.99597E+04-2.29727E-09-1.01688E-08
 -1       675 1.59888E+05 1.39485E+04 2.51871E+04 6.38386E+04-1.86446E-11-1.29157E-08
 -1       676 1.88060E+01-2.24936E+05-8.73206E+02 3.39175E+01-1.70166E-09-3.31153E-09
 -1       677-2.31797E+02-2.25147E+05-1.59807E+03-6.78008E+01-1.62660E-09-1.10676E-08
 -1       678 1.54797E+02-2.24785E+05-2.82496E+03 3.38599E+01-3.85626E-10 2.00926E-09
 -1       679-2.82558E+03-2.26852E+05-6.71069E+03-6.75773E+01-2.42460E-09 1.30066E-09
 -1       680 1.68633E+03-2.23231E+05-1.08154E+04 3.33071E+01-1.74168E-10 3.81612E-09
 -1       771-2.40606E+06-4.43729E+05-6.32049E+04-1.02266E+06-1.28057E-08-8.80391E-09
 -1       772-2.38408E+06-4.81146E+05-3.36427E+04-1.06473E+06-7.82165E-09 3.57977E-09
 -1       773-2.41569E+06-4.36175E+05-1.50237E+04-1.02622E+06-1.60071E-09 1.02373E-08
 -1       774-2.37566E+06-4.74152E+05-7.17586E+03-1.07021E+06 8.78936E-09-1.59343E-09
 -1       775-2.41868E+06-4.34121E+05-3.98612E+03-1.02674E+06 1.48430E-09 2.02272E-09
 -1       776-2.37619E+06-4.74200E+05-1.73810E+03-1.07358E+06-4.56566E-09 2.09548E-09
 -1       777-2.42095E+06-4.32444E+05-1.30834E+03-1.02713E+06-4.03088E-09-2.65209E-09
 -1       778-2.37720E+06-4.74417E+05-4.95783E+02-1.07641E+06 1.13141E-09 4.35102E-09
 -1       779-2.42282E+06-4.31018E+05-5.90377E+02-1.02748E+06-1.30240E-09-4.58385E-09
 -1       780-2.37814E+06-4.74581E+05-2.92642E+02-1.07869E+06 4.40195E-09-2.05227E-09
 -1       781-2.42424E+06-4.29884E+05-5.39508E+02-1.02775E+06-7.46513E-09-2.39197E-09
 -1       782-2.37893E+06-4.74721E+05-7.56107E+02-1.08037E+06-1.47484E-08-3.33466E-09
 -1       783-2.42518E+06-4.29126E+05-1.52854E+03-1.02793E+06-2.65572E-09-5.74994E-09
 -1       784-2.38028E+06-4.75721E+05-3.52042E+03-1.08136E+06-6.81212E-09-1.76215E-10
 -1       785-2.42503E+06-4.29210E+05-6.53083E+03-1.02755E+06-1.26784E-08 1.76715E-09
 -1       786 1.66068E+05-9.23336E+03 2.13616E+04-3.87746E+01 5.75479E-06 2.66800E-08
 -1       787 1.75325E+05 1.06894E+04 1.51128E+04 8.84309E+00 1.14646E-05 1.79298E-08
 -1       788 1.69639E+05-1.44743E+03 5.52875E+03-2.80795E+01 1.05958E-05-1.25469E-08
 -1       789 1.71165E+05 1.67474E+03 3.47350E+03-9.39942E+00 9.70381E-06 2.14841E-08
 -1       790 1.70229E+05-2.26083E+02 1.41278E+03-2.05332E+01 9.14285E-06-9.35404E-09
 -1       791 1.70477E+05 2.62506E+02 8.28346E+02-2.40661E+01 8.57512E-06 1.68864E-08
 -1       792 1.70328E+05-3.62611E+01 3.75807E+02-1.34127E+01 4.29125E-06-1.38337E-08
 -1       793 1.70365E+05 4.98327E+01 2.41684E+02-3.99617E+01 1.42232E-08 4.13811E-09
 -1       794 1.70341E+05-1.35479E+01 1.72027E+02-4.63740E+00 1.47738E-09-2.76511E-09
 -1       795 1.70372E+05 6.72308E+01 2.38717E+02-6.16318E+01-1.18210E-09-3.39658E-09
 -1       796 1.70321E+05-5.36430E+01 3.51453E+02 8.25779E+00 8.46400E-10-6.19438E-09
 -1       797 1.70530E+05 3.92630E+02 8.23626E+02-9.51535E+01-9.05283E-10 7.24313E-10
 -1       798 1.70183E+05-3.38710E+02 1.29840E+03 2.88850E+01-1.19312E-10-2.34780E-09
 -1       799 1.71504E+05 2.50084E+03 3.53827E+03-1.50145E+02-5.19469E-10 1.23566E-09
 -1       800 1.69347E+05-2.16015E+03 4.99751E+03 6.32499E+01 2.36016E-11 8.59995E-09
 -1       801 1.99275E+04-9.14295E+05-7.64040E+04 2.48031E+04 1.23182E-08 2.63708E-09
 -1       802-1.52179E+04-7.92338E+05-7.60986E+03-7.16605E+04 3.33639E-08 2.83899E-09
 -1       803-4.22323E+03-8.54278E+05 2.67411E+04 4.65247E+04 2.61607E-08 2.07730E-08
 -1       804 8.74019E+04-7.32570E+05 1.27616E+05-6.62919E+04 2.99224E-08 2.58023E-08
 -1       805-8.30071E+04-9.73541E+05 1.49209E+05 1.94288E+04 1.09940E-08 2.51578E-08
 -1       806-2.10325E+05-4.37599E+04-1.73162E+04-8.62277E+04-3.78986E-09 4.82942E-09
 -1       807-2.11467E+05-4.11569E+04-8.50711E+03-9.06778E+04-5.03394E-09 1.75818E-08
 -1       808-2.10809E+05-3.75114E+04-3.60873E+03-8.91722E+04-2.68415E-09 2.86485E-09
 -1       809-2.09659E+05-3.87866E+04-1.76429E+03-9.09126E+04-1.66676E-09-5.24039E-09
 -1       810-2.10884E+05-3.72918E+04-8.07965E+02-8.93022E+04 5.18639E-10 8.27640E-11
 -1       811-2.09520E+05-3.86925E+04-4.00886E+02-9.08902E+04 2.00998E-10 6.15046E-10
 -1       812-2.10896E+05-3.73087E+04-2.00499E+02-8.93018E+04-6.98947E-10 5.22959E-10
 -1       813-2.09502E+05-3.86948E+04-1.27073E+02-9.08785E+04-7.76708E-10-2.76759E-09
 -1       814-2.10894E+05-3.73152E+04-1.20271E+02-8.92990E+04 3.19142E-09 3.02566E-09
 -1       815-2.09504E+05-3.86968E+04-1.89134E+02-9.08748E+04 5.85032E-10 7.67329E-09
 -1       816-2.10881E+05-3.73141E+04-3.55060E+02-8.92964E+04 2.10457E-09 2.47701E-09
 -1       817-2.09564E+05-3.87308E+04-7.61280E+02-9.08679E+04 5.73846E-09-2.13504E-08
 -1       818-2.10835E+05-3.74211E+04-1.55172E+03-8.92457E+04 5.70253E-09 2.77123E-09
 -1       819-2.10419E+05-3.96635E+04-3.65177E+03-9.06618E+04-2.87400E-10-4.32556E-09
 -1       820-2.10541E+05-4.01807E+04-7.43215E+03-8.80671E+04 7.09406E-11 3.32966E-09
 -1       821-2.69730E+05 1.49242E+04-3.45146E+04 1.52383E+02 3.30772E-10-5.29872E-09
 -1       822-2.84687E+05-1.72773E+04-2.44241E+04-7.53546E+02-1.21882E-09-6.44786E-09
 -1       823-2.75502E+05 2.33987E+03-8.93929E+03 1.33508E+02 2.33259E-10 5.01586E-10
 -1       824-2.77953E+05-2.70818E+03-5.62421E+03-5.96633E+02 2.00522E-10 5.26234E-09
 -1       825-2.76461E+05 3.66122E+02-2.31252E+03-4.53339E+00-2.29561E-09-1.52170E-09
 -1       826-2.76835E+05-4.31706E+02-1.39434E+03-2.59104E+02-3.84290E-09-2.58086E-09
 -1       827-2.76619E+05 6.48059E+01-7.23892E+02-2.04027E+02-2.88027E-09-6.11769E-09
 -1       828-2.76685E+05-1.31748E+02-6.38260E+02 1.20388E+02-5.02116E-09-4.81467E-09
 -1       829-2.76611E+05 6.64458E+01-7.35532E+02-3.84032E+02 3.21744E-10-2.94352E-09
 -1       830-2.76860E+05-4.44081E+02-1.43546E+03 3.87798E+02 2.35680E-09 3.51520E-09
 -1       831-2.76445E+05 3.77201E+02-2.37814E+03-4.71442E+02-2.80166E-09 1.20901E-08
 -1       832-2.78004E+05-2.78914E+03-5.79518E+03 4.35119E+02-1.27663E-09 1.03965E-08
 -1       833-2.75468E+05 2.40988E+03-9.20945E+03-4.31352E+02-2.12520E-09 1.18916E-09
 -1       834-2.84919E+05-1.77980E+04-2.51602E+04 2.44765E+02-1.46820E-09 7.08087E-09
 -1       835-2.69531E+05 1.53743E+04-3.55609E+04-2.81078E+02 4.39590E-09 6.71025E-09
 -1       836-8.99961E+02 2.53855E+05 1.53316E+04-2.08490E+04 1.27329E-09 3.07318E-09
 -1       837 3.36967E+03 2.58605E+05 1.30915E+04-4.18783E+04 1.85719E-09-1.94041E-09
 -1       838-3.31917E+02 2.55174E+05 1.35020E+04-2.07772E+04 1.65119E-09-3.17993E-09
 -1       839 8.66303E+03 2.62550E+05 2.57024E+04-4.19066E+04 2.30830E-09-1.25453E-10
 -1       840-2.60703E+03 2.49872E+05 4.10529E+04-2.08192E+04 1.61162E-09-6.43922E-10
 -1       856-7.94896E+04 7.06707E+03-1.86237E+04-4.14314E+02-2.27965E-09 7.12134E-10
 -1       857-8.71819E+04-8.28892E+03-1.28219E+04 4.29034E+03-2.18449E-09 2.77191E-09
 -1       858-8.25289E+04 9.90204E+02-4.83334E+03-4.33964E+02-3.94886E-09-1.43200E-09
 -1       859-8.36917E+04-1.15138E+03-2.91901E+03 4.32164E+03 1.15436E-09 1.28901E-08
 -1       860-8.29833E+04 1.37706E+02-1.22711E+03-4.45738E+02-1.03597E-10-2.57614E-10
 -1       861-8.31684E+04-1.52062E+02-6.82966E+02 4.33776E+03-3.63147E-09-9.96033E-09
 -1       862-8.30540E+04 1.82099E+01-2.99770E+02-4.50107E+02 4.79225E-09-4.93959E-09
 -1       863-8.30845E+04-1.07169E+01-1.45223E+02 4.33974E+03 8.56443E-09-9.90514E-09
 -1       864-8.30674E+04-5.25682E-01-3.95079E+01-4.47723E+02 4.40436E-09-3.25115E-09
 -1       865-8.30580E+04 2.48117E+01 4.43022E+01 4.32769E+03 5.08442E-09-3.98775E-09
 -1       866-8.30791E+04-1.77409E+01 1.30905E+02-4.38064E+02-9.74751E-10-1.14962E-09
 -1       867-8.29852E+04 1.48432E+02 3.49004E+02 4.30147E+03 1.14295E-09-3.78373E-09
 -1       868-8.31371E+04-1.23137E+02 5.86302E+02-4.21498E+02-1.17461E-09-1.81285E-09
 -1       869-8.25472E+04 1.02187E+03 1.57111E+03 4.25809E+03-3.53276E-09-2.53294E-09
 -1       870-8.35124E+04-8.69237E+02 2.27857E+03-3.94683E+02 4.65832E-10-4.40195E-09
 -1       871-3.97132E+03-8.61793E+03-1.29067E+04 8.48647E+04 2.85036E-09 1.15688E-09
 -1       872-1.72091E+03-1.15107E+04-5.26786E+03 1.10023E+05 4.07272E-09-3.07864E-10
 -1       873-3.53367E+01-1.01598E+04 7.34308E+02 8.46782E+04 1.98179E-09 6.55859E-09
 -1       874 1.97887E+03-8.29312E+03 7.28069E+03 1.10061E+05 4.19186E-09-1.62481E-09
 -1       875 4.67940E+03-1.18872E+04 1.61573E+04 8.48342E+04 7.79437E-10 1.67574E-09
 -1       876 2.10108E+05 3.61729E+04 1.12088E+04 8.52096E+04-2.43222E-09 1.00972E-08
 -1       877 2.10753E+05 3.86297E+04 5.98579E+03 8.85203E+04-7.11862E-09-2.70302E-09
 -1       878 2.11155E+05 3.49324E+04 2.50776E+03 8.61301E+04 6.70798E-09 2.62912E-09
 -1       879 2.09228E+05 3.71111E+04 1.24926E+03 8.85994E+04 1.08386E-08 1.39244E-08
 -1       880 2.11232E+05 3.49187E+04 5.81622E+02 8.61676E+04 2.33331E-09 8.63110E-09
 -1       881 2.09126E+05 3.70466E+04 3.09842E+02 8.85835E+04-1.10122E-08 1.27525E-08
 -1       882 2.11239E+05 3.49279E+04 1.96930E+02 8.61687E+04 3.05329E-09 8.01508E-09
 -1       883 2.09119E+05 3.70435E+04 2.09622E+02 8.85788E+04 4.99722E-09 1.23257E-08
 -1       884 2.11235E+05 3.49256E+04 3.31570E+02 8.61688E+04 2.21291E-10-3.44232E-09
 -1       885 2.09145E+05 3.70483E+04 6.65461E+02 8.85871E+04-6.56570E-10-7.85633E-09
 -1       886 2.11209E+05 3.49061E+04 1.34066E+03 8.61662E+04 2.68670E-09-2.44756E-09
 -1       887 2.09381E+05 3.72027E+04 2.92829E+03 8.86211E+04-5.46152E-10 1.44507E-09
 -1       888 2.11024E+05 3.49387E+04 5.90056E+03 8.60724E+04 2.24352E-09 6.59566E-09
 -1       889 2.12897E+05 4.08532E+04 1.40960E+04 8.85097E+04-5.04450E-10 3.96813E-09
 -1       890 2.08620E+05 3.77944E+04 2.64006E+04 8.38214E+04 4.00541E-09-5.60249E-10
 -1       891-1.30175E+02-1.19205E+05-1.41129E+03 2.24620E+04 9.88052E-10 7.20775E-10
 -1       892-2.26779E+02-1.19543E+05-1.53380E+03 3.39927E+04 4.01087E-10-1.08469E-09
 -1       893-3.66073E+01-1.19249E+05-2.19033E+03 2.24665E+04 2.31034E-09 1.37388E-08
 -1       894-1.19644E+03-1.20382E+05-4.54676E+03 3.38716E+04 2.37833E-10 9.03947E-09
 -1       895-9.35674E+02-1.18303E+05-8.01201E+03 2.25816E+04 1.80046E-09 3.39514E-09
 -1       956-2.64558E+05-3.79488E+03-9.55199E+03 1.76591E+04-7.99446E-09 8.84143E-10
 -1       957-2.66444E+05-1.28030E+03-4.90360E+03 2.12654E+04-1.06584E-08-4.00360E-09
 -1       958-2.65406E+05-1.02147E+02-2.20922E+03 1.75455E+04-2.20280E-09-1.10549E-09
 -1       959-2.65556E+05-1.75275E+01-1.12841E+03 2.13886E+04-1.36652E-09-2.00725E-09
 -1       960-2.65482E+05 3.19064E+01-5.50050E+02 1.75347E+04-5.54019E-09 8.38577E-09
 -1       961-2.65492E+05 3.02068E+01-2.91687E+02 2.14009E+04-8.41146E-09 5.01018E-09
 -1       962-2.65497E+05 2.81901E+01-1.66674E+02 1.75330E+04-2.76623E-09 6.57792E-10
 -1       963-2.65489E+05 3.15062E+01-1.33262E+02 2.14032E+04-3.52156E-09 8.40123E-09
 -1       964-2.65500E+05 3.01269E+01-1.61117E+02 1.75324E+04-3.76986E-10-5.97311E-09
 -1       965-2.65499E+05 3.44344E+01-2.77854E+02 2.14032E+04 4.19014E-09-1.89061E-10
 -1       966-2.65492E+05 3.76263E+01-5.21260E+02 1.75330E+04-3.10877E-09-8.96193E-10
 -1       967-2.65568E+05-6.64929E+00-1.06895E+03 2.13964E+04 1.04478E-10 6.03609E-09
 -1       968-2.65426E+05-8.54561E+01-2.09182E+03 1.75394E+04 7.77618E-10-1.77565E-09
 -1       969-2.66416E+05-1.19914E+03-4.64443E+03 2.13215E+04 4.17458E-10-1.36151E-08
 -1       970-2.64628E+05-3.58061E+03-9.04636E+03 1.76102E+04 7.16682E-10-3.09865E-09
 -1       971-2.50505E+05-1.31673E+03-7.32167E+03 1.21363E+04-3.67754E-09-5.51748E-09
 -1       972-2.52285E+05-9.43691E+02-3.98740E+03 1.69501E+04-1.77079E-09-5.17593E-09
 -1       973-2.51318E+05-8.37921E+00-1.78543E+03 1.20351E+04-6.16183E-10-4.03270E-09
 -1       974-2.51442E+05-8.22112E+00-9.24969E+02 1.70593E+04 6.43013E-10-1.08546E-08
 -1       975-2.51381E+05 2.57148E+01-4.61290E+02 1.20260E+04-1.14505E-09 1.87549E-09
 -1       976-2.51392E+05 2.99598E+01-2.64284E+02 1.70704E+04-2.69881E-09 8.99490E-10
 -1       977-2.51393E+05 2.54004E+01-1.88460E+02 1.20240E+04 2.13436E-09-3.34842E-09
 -1       978-2.51395E+05 3.41325E+01-2.15999E+02 1.70732E+04 8.73843E-09 6.01244E-09
 -1       979-2.51393E+05 3.11744E+01-3.43113E+02 1.20231E+04 5.41519E-09 1.86515E-09
 -1       980-2.51420E+05 3.62198E+01-6.60047E+02 1.70737E+04 4.79527E-09-1.66935E-08
 -1       981-2.51372E+05 4.76164E+01-1.27705E+03 1.20235E+04-2.33513E-09 4.27985E-09
 -1       982-2.51595E+05-5.79885E+01-2.63889E+03 1.70686E+04-1.27875E-09 5.48476E-09
 -1       983-2.51211E+05-3.39263E+01-5.12696E+03 1.20284E+04 1.76510E-09 1.32284E-08
 -1       984-2.54061E+05-2.73521E+03-1.14810E+04 1.70001E+04-1.02420E-08 1.04502E-08
 -1       985-2.48891E+05-3.78535E+03-2.10829E+04 1.20967E+04-4.18095E-09-4.84761E-09
 -3
    1PSTEP                        11           6           1          
  100CL  106 5.39062E-01         409                     0    6           1
 -4  DISP        4    1
 -5  D1          1    2    1    0
 -5  D2          1    2    2    0
 -5  D3          1    2    3    0
 -5  ALL         1    2    0    0    1ALL
 -1         1 1.83740E-04 0.00000E+00 0.00000E+00
 -1         2 1.62239E-04-3.81177E-30 3.30872E-24
 -1         3 1.63731E-04 1.12457E-27-1.32349E-23
 -1         5 1.07241E-04-2.35300E-27 0.00000E+00
 -1         8 1.58566E-04-8.69611E-07 0.00000E+00
 -1         9 1.51663E-04-5.11529E-07 0.00000E+00
 -1        10 1.50658E-04-2.20080E-06-1.32349E-23
 -1        12 1.06979E-04 5.92393E-07 1.65436E-24
 -1        15 1.28525E-04-9.66074E-07 0.00000E+00
 -1        16 1.33246E-04-7.10257E-07 0.00000E+00
 -1        17 1.09334E-04-4.69704E-06 0.00000E+00
 -1        18 1.05022E-04 4.80816E-06 0.00000E+00
 -1        19 1.06192E-04 1.18170E-06 0.00000E+00
 -1        20 1.06338E-04 1.31235E-05 0.00000E+00
 -1        21 1.05742E-04 2.38195E-05 3.30872E-24
 -1        24 2.23299E-05-6.57606E-06 0.00000E+00
 -1        25 1.04954E-04 4.94806E-06 0.00000E+00
 -1        26 1.05855E-04 1.64107E-06 0.00000E+00
 -1        27 1.04218E-04 1.04618E-05 0.00000E+00
 -1        28 1.03749E-04 2.33178E-05 0.00000E+00
 -1        32 0.00000E+00 0.00000E+00 0.00000E+00
 -1        33 1.04277E-04 2.19865E-06 0.00000E+00
 -1        34 1.02678E-04 1.04365E-05 0.00000E+00
 -1        35 1.01169E-04 2.30510E-05 0.00000E+00
 -1        51 1.82107E-04-1.44872E-07 0.00000E+00
 -1        52 1.79076E-04-2.83640E-07 0.00000E+00
 -1        53 1.74921E-04-4.23566E-07 0.00000E+00
 -1        54 1.69927E-04-5.66361E-07 3.30872E-24
 -1        55 1.64380E-04-7.12940E-07 4.75629E-24
 -1        56 1.82110E-04-8.47332E-07 2.64698E-23
 -1        57 1.80559E-04-2.08979E-06-2.64698E-23
 -1        58 1.79108E-04-3.59113E-06-5.29396E-23
 -1        59 1.77698E-04-5.23342E-06-2.64698E-23
 -1        60 1.76289E-04-6.87814E-06 5.29396E-23
 -1        61 1.74828E-04-8.39110E-06 0.00000E+00
 -1        62 1.73271E-04-9.64830E-06 0.00000E+00
 -1        63 1.71576E-04-1.05370E-05 2.64698E-23
 -1        64 1.69712E-04-1.09752E-05 0.00000E+00
 -1        65 1.67655E-04-1.08995E-05 0.00000E+00
 -1        66 1.65397E-04-1.02897E-05 0.00000E+00
 -1        67 1.62941E-04-9.14712E-06 0.00000E+00
 -1        68 1.60301E-04-7.51881E-06 0.00000E+00
 -1        69 1.57512E-04-5.46806E-06 0.00000E+00
 -1        70 1.54600E-04-3.10085E-06 2.64698E-23
 -1        86 1.61927E-04-7.83464E-08-3.30872E-24
 -1        87 1.60993E-04-1.57627E-07-1.65436E-24
 -1        88 1.59462E-04-2.37693E-07-3.30872E-24
 -1        89 1.57363E-04-3.22284E-07 3.30872E-24
 -1        90 1.54746E-04-4.06849E-07 6.61744E-24
 -1       121 1.63365E-04-3.63709E-07 0.00000E+00
 -1       122 1.62269E-04-7.27938E-07-6.61744E-24
 -1       123 1.60445E-04-1.09320E-06 1.32349E-23
 -1       124 1.57897E-04-1.46006E-06 0.00000E+00
 -1       125 1.54632E-04-1.82891E-06-1.32349E-23
 -1       191 1.07234E-04 9.87368E-08 3.30872E-24
 -1       192 1.07212E-04 1.97472E-07 1.65436E-24
 -1       193 1.07176E-04 2.96208E-07 3.30872E-24
 -1       194 1.07125E-04 3.94941E-07 0.00000E+00
 -1       195 1.07059E-04 4.93670E-07 0.00000E+00
 -1       251 1.58135E-04 3.71046E-06 0.00000E+00
 -1       252 1.57705E-04 7.38740E-06 6.61744E-24
 -1       253 1.57279E-04 9.44593E-06 0.00000E+00
 -1       254 1.56855E-04 9.20018E-06 0.00000E+00
 -1       255 1.56428E-04 6.79028E-06-1.32349E-23
 -1       256 1.55994E-04 2.39576E-06 6.61744E-24
 -1       257 1.55555E-04-3.09232E-06-1.32349E-23
 -1       258 1.55116E-04-8.76298E-06 0.00000E+00
 -1       259 1.54680E-04-1.36399E-05 0.00000E+00
 -1       260 1.54251E-04-1.67610E-05-6.61744E-24
 -1       261 1.53825E-04-1.77939E-05 0.00000E+00
 -1       262 1.53400E-04-1.64441E-05 6.61744E-24
 -1       263 1.52970E-04-1.32714E-05-1.32349E-23
 -1       264 1.52535E-04-8.86864E-06-6.61744E-24
 -1       265 1.52100E-04-4.26951E-06 0.00000E+00
 -1       266 1.53559E-04-8.97810E-07 0.00000E+00
 -1       267 1.48552E-04-9.12410E-07 0.00000E+00
 -1       268 1.43545E-04-9.27871E-07 0.00000E+00
 -1       269 1.38539E-04-9.40780E-07 0.00000E+00
 -1       270 1.33532E-04-9.53630E-07 0.00000E+00
 -1       271 1.55556E-04 3.05529E-06 0.00000E+00
 -1       272 1.52915E-04 5.87681E-06 0.00000E+00
 -1       273 1.50656E-04 7.69172E-06 0.00000E+00
 -1       274 1.48733E-04 8.59457E-06 0.00000E+00
 -1       275 1.47109E-04 8.70205E-06-5.29396E-23
 -1       276 1.45733E-04 8.14225E-06 2.64698E-23
 -1       277 1.44555E-04 7.05622E-06 0.00000E+00
 -1       278 1.43517E-04 5.59388E-06 0.00000E+00
 -1       279 1.42562E-04 3.91219E-06 0.00000E+00
 -1       280 1.41628E-04 2.17199E-06 0.00000E+00
 -1       281 1.40656E-04 5.35073E-07 0.00000E+00
 -1       282 1.39586E-04-8.38411E-07-2.64698E-23
 -1       283 1.38360E-04-1.79346E-06-5.29396E-23
 -1       284 1.36926E-04-2.18075E-06 0.00000E+00
 -1       285 1.35227E-04-1.86501E-06 2.64698E-23
 -1       301 1.48239E-04-5.59322E-07 0.00000E+00
 -1       302 1.44845E-04-5.84445E-07 0.00000E+00
 -1       303 1.41564E-04-6.08038E-07 0.00000E+00
 -1       304 1.38481E-04-6.31779E-07-3.30872E-24
 -1       305 1.35681E-04-6.56828E-07 0.00000E+00
 -1       306 1.49812E-04-2.30205E-06-5.29396E-23
 -1       307 1.50983E-04-1.24926E-05 0.00000E+00
 -1       308 1.54576E-04-2.93688E-05 0.00000E+00
 -1       309 1.59767E-04-5.07820E-05 2.64698E-23
 -1       310 1.65459E-04-7.36142E-05-5.29396E-23
 -1       311 1.70516E-04-9.46522E-05 0.00000E+00
 -1       312 1.73924E-04-1.11064E-04 5.29396E-23
 -1       313 1.74749E-04-1.20341E-04-2.64698E-23
 -1       314 1.72561E-04-1.21485E-04 0.00000E+00
 -1       315 1.67119E-04-1.14049E-04-2.64698E-23
 -1       316 1.58874E-04-9.93843E-05-5.29396E-23
 -1       317 1.48497E-04-7.93162E-05 0.00000E+00
 -1       318 1.37141E-04-5.67908E-05 0.00000E+00
 -1       319 1.26057E-04-3.49050E-05 2.64698E-23
 -1       320 1.16407E-04-1.66405E-05 0.00000E+00
 -1       336 1.45891E-04-2.60478E-06 0.00000E+00
 -1       337 1.40251E-04-3.01364E-06-6.61744E-24
 -1       338 1.33753E-04-3.42737E-06 0.00000E+00
 -1       339 1.26419E-04-3.84601E-06 0.00000E+00
 -1       340 1.18271E-04-4.27076E-06 1.32349E-23
 -1       406 1.06884E-04 6.91102E-07 0.00000E+00
 -1       407 1.06775E-04 7.89779E-07 0.00000E+00
 -1       408 1.06651E-04 8.88395E-07 3.30872E-24
 -1       409 1.06512E-04 9.86830E-07 0.00000E+00
 -1       410 1.06359E-04 1.08489E-06 3.30872E-24
 -1       521 1.37331E-04-2.12724E-05 5.29396E-23
 -1       522 1.55198E-04-8.36470E-05 0.00000E+00
 -1       523 1.82437E-04-1.77582E-04 0.00000E+00
 -1       524 2.14610E-04-2.89934E-04 0.00000E+00
 -1       525 2.47073E-04-4.03387E-04-1.05879E-22
 -1       526 2.75179E-04-5.00521E-04 5.29396E-23
 -1       527 2.94490E-04-5.67634E-04 1.05879E-22
 -1       528 3.00425E-04-5.93787E-04-5.29396E-23
 -1       529 2.90390E-04-5.76952E-04 0.00000E+00
 -1       530 2.63058E-04-5.18763E-04 0.00000E+00
 -1       531 2.21402E-04-4.29281E-04 0.00000E+00
 -1       532 1.70421E-04-3.20810E-04 5.29396E-23
 -1       533 1.17937E-04-2.09336E-04 1.05879E-22
 -1       534 7.20340E-05-1.11020E-04-5.29396E-23
 -1       535 3.87456E-05-3.95222E-05 5.29396E-23
 -1       536 1.09121E-04 8.00142E-06 6.61744E-24
 -1       537 1.08810E-04 2.74126E-05 0.00000E+00
 -1       538 1.08422E-04 5.07074E-05 0.00000E+00
 -1       539 1.08011E-04 7.50362E-05-1.65436E-24
 -1       540 1.07646E-04 9.72786E-05 3.30872E-24
 -1       541 1.07379E-04 1.14326E-04 0.00000E+00
 -1       542 1.07201E-04 1.24404E-04-3.30872E-24
 -1       543 1.07070E-04 1.25776E-04 1.65436E-24
 -1       544 1.06919E-04 1.18911E-04 3.30872E-24
 -1       545 1.06688E-04 1.04324E-04 0.00000E+00
 -1       546 1.06373E-04 8.44962E-05 3.30872E-24
 -1       547 1.06002E-04 6.19361E-05 0.00000E+00
 -1       548 1.05642E-04 3.98583E-05 0.00000E+00
 -1       549 1.05354E-04 2.14748E-05 1.65436E-24
 -1       550 1.05152E-04 9.04878E-06-1.65436E-24
 -1       551 9.77835E-05-4.97123E-06 6.61744E-24
 -1       552 8.40786E-05-5.26607E-06 0.00000E+00
 -1       553 6.89446E-05-5.57932E-06-1.65436E-24
 -1       554 5.31181E-05-5.90463E-06 0.00000E+00
 -1       555 3.73360E-05-6.23209E-06 0.00000E+00
 -1       556 1.06203E-04 3.39673E-06 0.00000E+00
 -1       557 1.03766E-04 9.71468E-06 0.00000E+00
 -1       558 1.01948E-04 1.44122E-05 0.00000E+00
 -1       559 1.00683E-04 1.76575E-05 0.00000E+00
 -1       560 9.99038E-05 1.96187E-05 0.00000E+00
 -1       561 9.95454E-05 2.04649E-05 0.00000E+00
 -1       562 9.95426E-05 2.03654E-05 0.00000E+00
 -1       563 9.98306E-05 1.94899E-05 0.00000E+00
 -1       564 1.00346E-04 1.80083E-05 0.00000E+00
 -1       565 1.01023E-04 1.60905E-05 0.00000E+00
 -1       566 1.01801E-04 1.39067E-05 1.65436E-24
 -1       567 1.02613E-04 1.16271E-05 3.61892E-25
 -1       568 1.03399E-04 9.42174E-06 0.00000E+00
 -1       569 1.04093E-04 7.46068E-06 0.00000E+00
 -1       570 1.04632E-04 5.91395E-06 0.00000E+00
 -1       571 1.05093E-04 4.60069E-06 1.24077E-24
 -1       572 1.05166E-04 4.34717E-06-4.13590E-25
 -1       573 1.05239E-04 4.05651E-06-1.65436E-24
 -1       574 1.05312E-04 3.73806E-06 8.27181E-25
 -1       575 1.05385E-04 3.40121E-06 0.00000E+00
 -1       576 1.05458E-04 3.05539E-06-8.27181E-25
 -1       577 1.05532E-04 2.71005E-06 0.00000E+00
 -1       578 1.05605E-04 2.37466E-06 0.00000E+00
 -1       579 1.05678E-04 2.05866E-06-3.30872E-24
 -1       580 1.05752E-04 1.77152E-06 0.00000E+00
 -1       581 1.05825E-04 1.52270E-06 0.00000E+00
 -1       582 1.05899E-04 1.32162E-06 0.00000E+00
 -1       583 1.05972E-04 1.17775E-06 0.00000E+00
 -1       584 1.06045E-04 1.10041E-06 0.00000E+00
 -1       585 1.06119E-04 1.09888E-06 0.00000E+00
 -1       586 1.04971E-04 4.83297E-06-1.65436E-24
 -1       587 1.04893E-04 4.85720E-06-2.06795E-25
 -1       588 1.04820E-04 4.88116E-06 0.00000E+00
 -1       589 1.04785E-04 4.90471E-06 0.00000E+00
 -1       590 1.04819E-04 4.92755E-06 0.00000E+00
 -1       591 1.05064E-04 4.64359E-06 2.58494E-26
 -1       592 1.05116E-04 4.44648E-06-2.06795E-25
 -1       593 1.05178E-04 4.22342E-06-4.13590E-25
 -1       594 1.05246E-04 3.98027E-06 0.00000E+00
 -1       595 1.05320E-04 3.72296E-06 0.00000E+00
 -1       596 1.05397E-04 3.45737E-06-4.13590E-25
 -1       597 1.05474E-04 3.18940E-06-4.13590E-25
 -1       598 1.05551E-04 2.92492E-06-2.06795E-25
 -1       599 1.05624E-04 2.66980E-06 4.13590E-25
 -1       600 1.05691E-04 2.42993E-06-2.06795E-25
 -1       601 1.05750E-04 2.21117E-06 0.00000E+00
 -1       602 1.05799E-04 2.01942E-06 1.03398E-25
 -1       603 1.05836E-04 1.86056E-06 2.06795E-25
 -1       604 1.05859E-04 1.74052E-06 1.03398E-25
 -1       605 1.05865E-04 1.66514E-06 0.00000E+00
 -1       606 1.06205E-04 1.42928E-06 0.00000E+00
 -1       607 1.06215E-04 1.77267E-06 0.00000E+00
 -1       608 1.06224E-04 2.20622E-06 0.00000E+00
 -1       609 1.06234E-04 2.72362E-06 0.00000E+00
 -1       610 1.06243E-04 3.31847E-06 0.00000E+00
 -1       611 1.06251E-04 3.98431E-06 0.00000E+00
 -1       612 1.06260E-04 4.71468E-06 0.00000E+00
 -1       613 1.06269E-04 5.50311E-06 0.00000E+00
 -1       614 1.06278E-04 6.34312E-06 0.00000E+00
 -1       615 1.06287E-04 7.22823E-06 0.00000E+00
 -1       616 1.06295E-04 8.15197E-06 0.00000E+00
 -1       617 1.06304E-04 9.10786E-06 0.00000E+00
 -1       618 1.06313E-04 1.00894E-05 0.00000E+00
 -1       619 1.06321E-04 1.10902E-05 0.00000E+00
 -1       620 1.06330E-04 1.21037E-05-4.13590E-25
 -1       621 1.06054E-04 1.25837E-06 0.00000E+00
 -1       622 1.05961E-04 1.33536E-06 0.00000E+00
 -1       623 1.05904E-04 1.41233E-06 0.00000E+00
 -1       624 1.05873E-04 1.48917E-06-8.27181E-25
 -1       625 1.05860E-04 1.56588E-06-1.65436E-24
 -1       626 1.06183E-04 1.45474E-06 3.30872E-24
 -1       627 1.06146E-04 1.80604E-06 0.00000E+00
 -1       628 1.06082E-04 2.22800E-06-3.30872E-24
 -1       629 1.05994E-04 2.71258E-06 1.65436E-24
 -1       630 1.05887E-04 3.25171E-06-3.30872E-24
 -1       631 1.05762E-04 3.83728E-06 0.00000E+00
 -1       632 1.05622E-04 4.46115E-06 0.00000E+00
 -1       633 1.05471E-04 5.11525E-06 1.65436E-24
 -1       634 1.05312E-04 5.79143E-06 3.30872E-24
 -1       635 1.05148E-04 6.48159E-06-1.65436E-24
 -1       636 1.04981E-04 7.17764E-06 0.00000E+00
 -1       637 1.04815E-04 7.87144E-06 1.65436E-24
 -1       638 1.04653E-04 8.55487E-06 0.00000E+00
 -1       639 1.04498E-04 9.21984E-06-8.27181E-25
 -1       640 1.04352E-04 9.85821E-06-1.65436E-24
 -1       656 1.05532E-04 1.26904E-05-6.61744E-24
 -1       657 1.05099E-04 1.22400E-05-6.61744E-24
 -1       658 1.04902E-04 1.17910E-05 1.32349E-23
 -1       659 1.04797E-04 1.13424E-05 0.00000E+00
 -1       660 1.04623E-04 1.08924E-05 6.61744E-24
 -1       661 1.06040E-04 1.41144E-05-8.27181E-25
 -1       662 1.05768E-04 1.50460E-05 0.00000E+00
 -1       663 1.05517E-04 1.59204E-05-1.65436E-24
 -1       664 1.05287E-04 1.67408E-05 8.27181E-25
 -1       665 1.05077E-04 1.75102E-05 1.65436E-24
 -1       666 1.04884E-04 1.82311E-05-8.27181E-25
 -1       667 1.04709E-04 1.89064E-05 1.65436E-24
 -1       668 1.04550E-04 1.95386E-05-8.27181E-25
 -1       669 1.04406E-04 2.01301E-05 1.65436E-24
 -1       670 1.04277E-04 2.06834E-05 0.00000E+00
 -1       671 1.04161E-04 2.12006E-05 0.00000E+00
 -1       672 1.04057E-04 2.16840E-05 0.00000E+00
 -1       673 1.03966E-04 2.21356E-05 0.00000E+00
 -1       674 1.03885E-04 2.25573E-05 0.00000E+00
 -1       675 1.03814E-04 2.29513E-05-4.13590E-25
 -1       676 1.05409E-04 2.37354E-05-3.30872E-24
 -1       677 1.05076E-04 2.36513E-05 0.00000E+00
 -1       678 1.04743E-04 2.35673E-05 0.00000E+00
 -1       679 1.04411E-04 2.34835E-05 8.27181E-25
 -1       680 1.04080E-04 2.33997E-05 0.00000E+00
 -1       771 1.66069E-05 5.23630E-06 5.29396E-23
 -1       772 1.16946E-05 1.49232E-05 0.00000E+00
 -1       773 7.55670E-06 2.25967E-05 5.29396E-23
 -1       774 4.14197E-06 2.83789E-05 0.00000E+00
 -1       775 1.39967E-06 3.23954E-05 0.00000E+00
 -1       776-7.23094E-07 3.47774E-05 0.00000E+00
 -1       777-2.27977E-06 3.56595E-05 0.00000E+00
 -1       778-3.32501E-06 3.51808E-05 2.64698E-23
 -1       779-3.91380E-06 3.34834E-05 0.00000E+00
 -1       780-4.10216E-06 3.07129E-05 0.00000E+00
 -1       781-3.94619E-06 2.70174E-05 0.00000E+00
 -1       782-3.50285E-06 2.25478E-05 0.00000E+00
 -1       783-2.82908E-06 1.74563E-05-2.64698E-23
 -1       784-1.98240E-06 1.18974E-05 1.32349E-23
 -1       785-1.02029E-06 6.02649E-06 0.00000E+00
 -1       786 1.05007E-04 4.60351E-06 0.00000E+00
 -1       787 1.05063E-04 4.28480E-06 4.13590E-25
 -1       788 1.05119E-04 3.98752E-06 0.00000E+00
 -1       789 1.05175E-04 3.70729E-06 0.00000E+00
 -1       790 1.05232E-04 3.44195E-06 0.00000E+00
 -1       791 1.05289E-04 3.18939E-06 8.27181E-25
 -1       792 1.05345E-04 2.94918E-06 0.00000E+00
 -1       793 1.05402E-04 2.72090E-06 0.00000E+00
 -1       794 1.05459E-04 2.50569E-06-1.65436E-24
 -1       795 1.05516E-04 2.30474E-06 8.27181E-25
 -1       796 1.05572E-04 2.12108E-06 1.65436E-24
 -1       797 1.05629E-04 1.95782E-06 8.27181E-25
 -1       798 1.05686E-04 1.82068E-06 1.65436E-24
 -1       799 1.05743E-04 1.71550E-06 0.00000E+00
 -1       800 1.05799E-04 1.65227E-06 1.65436E-24
 -1       801 9.76892E-05 4.31401E-06 0.00000E+00
 -1       802 7.51901E-05 3.43829E-06 0.00000E+00
 -1       803 4.62043E-05 2.41342E-06 0.00000E+00
 -1       804 1.96658E-05 1.44580E-06 0.00000E+00
 -1       805 2.15391E-06 6.60086E-07 0.00000E+00
 -1       806 1.04999E-04 4.55416E-06 1.65436E-24
 -1       807 1.05036E-04 4.17330E-06-8.27181E-25
 -1       808 1.05065E-04 3.80977E-06 0.00000E+00
 -1       809 1.05087E-04 3.46701E-06-1.65436E-24
 -1       810 1.05099E-04 3.14847E-06 1.65436E-24
 -1       811 1.05101E-04 2.85750E-06 8.27181E-25
 -1       812 1.05091E-04 2.59745E-06 0.00000E+00
 -1       813 1.05068E-04 2.37167E-06-8.27181E-25
 -1       814 1.05031E-04 2.18350E-06 3.30872E-24
 -1       815 1.04979E-04 2.03626E-06 0.00000E+00
 -1       816 1.04911E-04 1.93329E-06-3.30872E-24
 -1       817 1.04824E-04 1.87792E-06 8.27181E-25
 -1       818 1.04719E-04 1.87347E-06 1.65436E-24
 -1       819 1.04593E-04 1.92325E-06 0.00000E+00
 -1       820 1.04446E-04 2.03057E-06-1.65436E-24
 -1       821 1.05759E-04 1.62015E-06 8.27181E-25
 -1       822 1.05657E-04 1.52895E-06 0.00000E+00
 -1       823 1.05555E-04 1.43611E-06 0.00000E+00
 -1       824 1.05452E-04 1.41028E-06 0.00000E+00
 -1       825 1.05349E-04 1.50586E-06 0.00000E+00
 -1       826 1.05245E-04 1.77670E-06 1.65436E-24
 -1       827 1.05142E-04 2.23945E-06 0.00000E+00
 -1       828 1.05038E-04 2.90991E-06 1.65436E-24
 -1       829 1.04934E-04 3.75978E-06-3.30872E-24
 -1       830 1.04830E-04 4.75995E-06-1.65436E-24
 -1       831 1.04727E-04 5.84946E-06-3.30872E-24
 -1       832 1.04623E-04 6.96688E-06 0.00000E+00
 -1       833 1.04519E-04 8.04487E-06 3.30872E-24
 -1       834 1.04417E-04 9.01631E-06 8.27181E-25
 -1       835 1.04314E-04 9.83658E-06-8.27181E-25
 -1       836 1.05750E-04 1.73388E-06 1.65436E-24
 -1       837 1.05531E-04 1.82877E-06 0.00000E+00
 -1       838 1.05237E-04 1.92350E-06 1.65436E-24
 -1       839 1.04904E-04 2.01761E-06 0.00000E+00
 -1       840 1.04572E-04 2.11157E-06-4.13590E-25
 -1       856 1.04192E-04 1.10487E-05 2.06795E-25
 -1       857 1.04163E-04 1.17467E-05 0.00000E+00
 -1       858 1.04134E-04 1.25385E-05 0.00000E+00
 -1       859 1.04105E-04 1.34065E-05 0.00000E+00
 -1       860 1.04075E-04 1.43330E-05-8.27181E-25
 -1       861 1.04046E-04 1.53003E-05 0.00000E+00
 -1       862 1.04016E-04 1.62907E-05-8.27181E-25
 -1       863 1.03986E-04 1.72865E-05 0.00000E+00
 -1       864 1.03957E-04 1.82697E-05-8.27181E-25
 -1       865 1.03927E-04 1.92227E-05 0.00000E+00
 -1       866 1.03897E-04 2.01278E-05 0.00000E+00
 -1       867 1.03868E-04 2.09672E-05-4.13590E-25
 -1       868 1.03838E-04 2.17234E-05 0.00000E+00
 -1       869 1.03808E-04 2.23788E-05-4.13590E-25
 -1       870 1.03779E-04 2.29160E-05-8.27181E-25
 -1       871 1.03846E-04 1.04607E-05-4.13590E-25
 -1       872 1.03585E-04 1.04573E-05 0.00000E+00
 -1       873 1.03385E-04 1.04535E-05 4.13590E-25
 -1       874 1.03200E-04 1.04491E-05 2.06795E-25
 -1       875 1.02980E-04 1.04442E-05 6.20385E-25
 -1       876 1.04097E-04 1.10585E-05 3.30872E-24
 -1       877 1.03958E-04 1.17094E-05 0.00000E+00
 -1       878 1.03801E-04 1.24079E-05 3.30872E-24
 -1       879 1.03629E-04 1.31479E-05 0.00000E+00
 -1       880 1.03443E-04 1.39232E-05 0.00000E+00
 -1       881 1.03247E-04 1.47279E-05 1.65436E-24
 -1       882 1.03042E-04 1.55558E-05-3.30872E-24
 -1       883 1.02830E-04 1.64008E-05 0.00000E+00
 -1       884 1.02614E-04 1.72570E-05-3.30872E-24
 -1       885 1.02397E-04 1.81183E-05 1.65436E-24
 -1       886 1.02179E-04 1.89786E-05 0.00000E+00
 -1       887 1.01964E-04 1.98319E-05-1.65436E-24
 -1       888 1.01754E-04 2.06720E-05 0.00000E+00
 -1       889 1.01551E-04 2.14929E-05 0.00000E+00
 -1       890 1.01357E-04 2.22884E-05-8.27181E-25
 -1       891 1.03439E-04 2.32731E-05 8.27181E-25
 -1       892 1.03111E-04 2.32283E-05-4.13590E-25
 -1       893 1.02741E-04 2.31836E-05 8.27181E-25
 -1       894 1.02309E-04 2.31389E-05-2.06795E-25
 -1       895 1.01792E-04 2.30943E-05 0.00000E+00
 -1       956 1.04179E-04 2.49169E-06 1.65436E-24
 -1       957 1.04080E-04 2.84777E-06 8.27181E-25
 -1       958 1.03980E-04 3.26009E-06 0.00000E+00
 -1       959 1.03879E-04 3.72141E-06 8.27181E-25
 -1       960 1.03779E-04 4.22453E-06 3.30872E-24
 -1       961 1.03679E-04 4.76217E-06 0.00000E+00
 -1       962 1.03578E-04 5.32705E-06-3.30872E-24
 -1       963 1.03478E-04 5.91191E-06 1.65436E-24
 -1       964 1.03377E-04 6.50945E-06 0.00000E+00
 -1       965 1.03277E-04 7.11240E-06 0.00000E+00
 -1       966 1.03177E-04 7.71348E-06 3.30872E-24
 -1       967 1.03076E-04 8.30540E-06-1.65436E-24
 -1       968 1.02976E-04 8.88089E-06-3.30872E-24
 -1       969 1.02876E-04 9.43270E-06 0.00000E+00
 -1       970 1.02776E-04 9.95357E-06 0.00000E+00
 -1       971 1.02585E-04 1.09372E-05 0.00000E+00
 -1       972 1.02490E-04 1.15199E-05 8.27181E-25
 -1       973 1.02396E-04 1.21757E-05 0.00000E+00
 -1       974 1.02301E-04 1.28950E-05 1.65436E-24
 -1       975 1.02206E-04 1.36686E-05 0.00000E+00
 -1       976 1.02111E-04 1.44870E-05 0.00000E+00
 -1       977 1.02016E-04 1.53407E-05-3.30872E-24
 -1       978 1.01922E-04 1.62202E-05 1.65436E-24
 -1       979 1.01827E-04 1.71160E-05 0.00000E+00
 -1       980 1.01732E-04 1.80188E-05 0.00000E+00
 -1       981 1.01637E-04 1.89191E-05 0.00000E+00
 -1       982 1.01542E-04 1.98073E-05-1.65436E-24
 -1       983 1.01447E-04 2.06740E-05 3.30872E-24
 -1       984 1.01353E-04 2.15098E-05 0.00000E+00
 -1       985 1.01259E-04 2.23052E-05 1.65436E-24
 -3
    1PSTEP                        12           6           1          
  100CL  106 5.39062E-01         409                     0    6           1
 -4  STRESS      6    1
 -5  SXX         1    4    1    1
 -5  SYY         1    4    2    2
 -5  SZZ         1    4    3    3
 -5  SXY         1    4    1    2
 -5  SYZ         1    4    2    3
 -5  SZX         1    4    3    1
 -1         1-2.28510E+06-9.72336E+05-4.83372E+05-1.24522E+06 4.87489E-10-4.67116E-09
 -1         2 2.78258E+03-2.20370E+05 9.05977E+03-5.90829E+02-8.61178E-11 1.74549E-09
 -1         3-2.35554E+02-1.03802E+06 2.49084E+02-6.00497E+02-8.60858E-11 1.18180E-08
 -1         5-2.25931E+00 2.82513E+05 7.29574E+00 9.46101E-02 6.00232E-11-5.26597E-10
 -1         8-1.10899E+06-4.02244E+05-1.10146E+05-5.52061E+05-2.98314E-10-1.01427E-08
 -1         9-2.20612E+06-7.06101E+05-2.73148E+05-6.72998E+05 5.11936E-09-3.52738E-09
 -1        10-9.27693E+02-1.08141E+06-1.48497E+03-4.06358E+03-5.36511E-09-4.05345E-09
 -1        12 7.33867E-01 2.82528E+05 2.36259E+02 7.49080E-01 6.49294E-11-1.43882E-08
 -1        15 2.00841E+03 1.10375E+03 6.49219E+03 4.34843E+00-2.08217E-10-6.75441E-09
 -1        16-2.83399E+06-1.24705E+06-4.61108E+05-1.32312E+06 1.05259E-08 1.47459E-09
 -1        17-1.27181E+06-7.16662E+05-2.45164E+05-6.36044E+05-5.80767E-09-1.75787E-09
 -1        18-4.02361E+04-1.46451E+04-3.18479E+04-7.35352E+04 5.55576E-09-1.17316E-08
 -1        19 8.97237E+04 1.05029E+05-6.33205E+02 1.75549E+04-2.95040E-10-1.26602E-10
 -1        20-4.22783E+04-4.24232E+05-9.39186E+04 2.86812E+04 2.48823E-09 7.77921E-10
 -1        21-3.90485E+01-2.40693E+05-7.72357E+02-5.49978E+01-8.36556E-09-1.60678E-08
 -1        24-3.09537E+06-7.83962E+05-3.51851E+05-1.11809E+06-4.10558E-08-1.80735E-08
 -1        25-5.15801E+04-3.63898E+05-6.66005E+04-1.20025E+05 8.87667E-11 2.60461E-09
 -1        26-2.71667E+04 7.00183E+04-1.57578E+04-7.34511E+03 1.53668E-09 4.68769E-09
 -1        27-6.49709E+04-2.31811E+05-8.65867E+04 5.23108E+04 5.57869E-09-5.45394E-10
 -1        28 1.85669E+04-6.70430E+04 1.36316E+04 2.04100E+04 1.67336E-09 3.05803E-10
 -1        32-1.08015E+06-1.02512E+06 1.82098E+05-5.74545E+05-2.39634E-08 3.02742E-09
 -1        33-1.34275E+05 6.74568E+04 2.40195E+04-3.57900E+04 6.75717E-10 5.99630E-09
 -1        34-1.71676E+05-1.73258E+04 4.29304E+02 5.36706E+04 2.79523E-09 6.25672E-09
 -1        35-1.89029E+04-2.66349E+04-1.04806E+03 4.19297E+04 3.81310E-09-3.48579E-09
 -1        51 2.12587E+04-3.54833E+05 5.18189E+04-9.57974E+05 2.03727E-10 1.58470E-08
 -1        52 1.13758E+04-3.51298E+05 3.23881E+04-1.11724E+06 4.43833E-10-1.74041E-08
 -1        53 7.26946E+03-3.65784E+05 2.50547E+04-9.54601E+05 6.25732E-10-8.42556E-09
 -1        54 2.01594E+04-3.64255E+05 3.71356E+04-1.12073E+06-2.54659E-10-1.37952E-08
 -1        55 3.97856E+04-3.78034E+05 6.44351E+04-9.54047E+05 2.18279E-10 1.09649E-08
 -1        56-4.36815E+06-4.88979E+05-3.55740E+05-1.68749E+06 4.72937E-10-3.49246E-09
 -1        57-4.52218E+06-8.00488E+05-2.39921E+05-1.66123E+06 4.48381E-10 1.42645E-08
 -1        58-4.43961E+06-6.01896E+05-8.36571E+04-1.66512E+06-3.76531E-10-3.80533E-09
 -1        59-4.43970E+06-6.67696E+05-4.99437E+04-1.68748E+06-1.40835E-09-6.86850E-09
 -1        60-4.44970E+06-6.17981E+05-1.95108E+04-1.66248E+06-2.02363E-09-2.00316E-08
 -1        61-4.42994E+06-6.46846E+05-1.10605E+04-1.68817E+06 2.57444E-09 5.40967E-09
 -1        62-4.44913E+06-6.22278E+05-5.28016E+03-1.66453E+06-4.27008E-10-6.80126E-09
 -1        63-4.43394E+06-6.38845E+05-4.22681E+03-1.68191E+06-3.64889E-09-2.79192E-09
 -1        64-4.44558E+06-6.25979E+05-4.74481E+03-1.66869E+06 6.87805E-10-1.54885E-08
 -1        65-4.44302E+06-6.32731E+05-9.38713E+03-1.67250E+06 1.01227E-09 5.46606E-09
 -1        66-4.44004E+06-6.28467E+05-1.64510E+04-1.67390E+06-1.60378E-09 5.04770E-09
 -1        67-4.46118E+06-6.40180E+05-4.18419E+04-1.66051E+06 7.15772E-10-6.52699E-09
 -1        68-4.42761E+06-6.18924E+05-7.01247E+04-1.68059E+06 4.95675E-10 2.73212E-09
 -1        69-4.53535E+06-7.46546E+05-2.00995E+05-1.63312E+06 5.86624E-10 5.47516E-10
 -1        70-4.36679E+06-5.25211E+05-2.98084E+05-1.70033E+06-2.34286E-09 1.05792E-08
 -1        86-1.39608E+03-2.23238E+05 9.69711E+03 2.95402E+02 1.02955E-09-1.26973E-08
 -1        87 9.24720E+03-2.17281E+05 2.02360E+04-1.14622E+03 1.71713E-09-1.03704E-08
 -1        88-7.83785E+03-2.26328E+05 3.10024E+04 8.50813E+02 2.48474E-09 6.82229E-09
 -1        89 5.83938E+04-1.94575E+05 8.35515E+04-2.10475E+03 3.72893E-09 1.15463E-08
 -1        90-5.03685E+04-2.45921E+05 1.18149E+05 1.25437E+03 3.73984E-09-4.63746E-09
 -1       121-3.44987E+02-1.03893E+06 1.26099E+02 2.99592E+02 6.59668E-10-2.81216E-09
 -1       122-1.50130E+02-1.03798E+06 5.29846E+02-1.19986E+03-2.38317E-09 1.15961E-09
 -1       123-3.95972E+02-1.03899E+06 7.41816E+02 8.96359E+02 1.67927E-09-1.96633E-09
 -1       124 8.34960E+02-1.03743E+06 2.18658E+03-2.58802E+03-4.12456E-09-3.03407E-09
 -1       125-1.01211E+03-1.03955E+06 3.23713E+03 1.68536E+03 2.88219E-09-1.41117E-08
 -1       191-2.61548E+00 2.82537E+05 8.87309E+00-4.74973E-02 9.30893E-11 1.25560E-08
 -1       192-2.92818E+00 2.82513E+05 1.54395E+01 4.27240E-01 1.28236E-10 1.38014E-08
 -1       193-4.39451E+00 2.82537E+05 2.88613E+01-3.81207E-01 1.03670E-10 7.89578E-09
 -1       194-5.08097E+00 2.82515E+05 5.83797E+01 1.01944E+00 6.48557E-11-8.91009E-09
 -1       195-7.81354E+00 2.82535E+05 1.14341E+02-6.42908E-01 1.70914E-10-1.77715E-08
 -1       251-1.20891E+06 9.48151E+03-2.22310E+04-1.21342E+04 6.50601E-10-1.94814E-09
 -1       252-1.21524E+06-1.08349E+04-1.50675E+04 1.73828E+04 2.33572E-09-3.70392E-10
 -1       253-1.21483E+06 1.30096E+03-6.26016E+03-3.33139E+03 1.56808E-09-9.23933E-09
 -1       254-1.20931E+06-1.51798E+03-2.67868E+03-3.16954E+03-2.02871E-09-1.22298E-08
 -1       255-1.21474E+06 9.76323E+01-1.81443E+03 8.41783E+03-3.94152E-10-7.84343E-09
 -1       256-1.21143E+06-1.19349E+02-4.39420E+02-2.08450E+04-9.24629E-10-5.27700E-09
 -1       257-1.21288E+06 5.11847E+01-2.11902E+02 1.43446E+04-9.34556E-10 7.25132E-09
 -1       258-1.21174E+06 1.42296E+02 3.22021E+02-2.24711E+04 8.30482E-11 7.02995E-09
 -1       259-1.21445E+06-1.41588E+02 1.14107E+02 1.00442E+04-1.45218E-09-1.07886E-09
 -1       260-1.20853E+06 5.47038E+02 1.94836E+03-6.84187E+03 8.21956E-10-5.22805E-09
 -1       261-1.21591E+06-5.08702E+02 1.39656E+03-1.28547E+03 1.20235E-09-1.27426E-08
 -1       262-1.20836E+06 2.51265E+03 5.57858E+03 1.43730E+04 3.71415E-09 4.87688E-09
 -1       263-1.21466E+06-2.05721E+03 7.69325E+03-1.11703E+04-5.05111E-10 1.63941E-08
 -1       264-1.20506E+06 1.52670E+04 2.15786E+04 2.53120E+04-8.52658E-09 1.69093E-08
 -1       265-1.21935E+06-1.31043E+04 3.02114E+04-1.22252E+04-3.31835E-09-4.30555E-09
 -1       266-3.63578E+04-1.69982E+04 8.53188E+04-9.30552E+01-1.63709E-10-3.93907E-08
 -1       267 4.21499E+04 1.98160E+04 6.02954E+04 1.07352E+02-3.13776E-10-7.90933E-08
 -1       268-5.65217E+03-2.80626E+03 2.24119E+04-1.36793E+01-2.63753E-10-5.48716E-08
 -1       269 6.67362E+03 3.35876E+03 1.45670E+04 1.59335E+01-2.40334E-10-4.49370E-08
 -1       270-1.00172E+03-5.51857E+02 7.03172E+03-2.16232E+00-2.22826E-10-2.79434E-08
 -1       271-3.41220E+06-4.26807E+05-2.58972E+05-1.32915E+06-2.18279E-11-2.18279E-10
 -1       272-3.50150E+06-6.19362E+05-1.66514E+05-1.33078E+06-2.38288E-10 1.14651E-08
 -1       273-3.46222E+06-4.90086E+05-6.11817E+04-1.31612E+06-5.31600E-10 7.94898E-09
 -1       274-3.44223E+06-5.42532E+05-3.42124E+04-1.35122E+06-1.92858E-09 8.35826E-10
 -1       275-3.47066E+06-4.95029E+05-1.42523E+04-1.31218E+06 2.69847E-09 5.09317E-10
 -1       276-3.43167E+06-5.37372E+05-7.53783E+03-1.35794E+06-9.15406E-10 2.66664E-09
 -1       277-3.47319E+06-4.94042E+05-3.70848E+03-1.31011E+06-1.92676E-09 7.44421E-10
 -1       278-3.42872E+06-5.38806E+05-2.66484E+03-1.36114E+06 3.52156E-09 1.93506E-08
 -1       279-3.47397E+06-4.93287E+05-2.84291E+03-1.30928E+06-1.76328E-10 3.24872E-09
 -1       280-3.42885E+06-5.39785E+05-5.21089E+03-1.36156E+06-1.83508E-09-5.30815E-09
 -1       281-3.47313E+06-4.93067E+05-9.48456E+03-1.30972E+06-1.50567E-09-9.79526E-10
 -1       282-3.43475E+06-5.44374E+05-2.27384E+04-1.35854E+06 3.09228E-10-1.07730E-09
 -1       283-3.46792E+06-4.89424E+05-4.05136E+04-1.31192E+06-1.40074E-09-2.31557E-09
 -1       284-3.47363E+06-5.95598E+05-1.10366E+05-1.34524E+06 4.44288E-10-3.81988E-09
 -1       285-3.43469E+06-4.47639E+05-1.71648E+05-1.32066E+06 4.89308E-10-1.87720E-09
 -1       301 2.13553E+04-5.32599E+04 1.57736E+05-1.01387E+05-4.87489E-10 6.21822E-09
 -1       302 2.24332E+04-1.33200E+04 1.04617E+05-1.49064E+05 9.83164E-10 6.91671E-10
 -1       303 1.10190E+03-3.76520E+04 8.20039E+04-1.01475E+05-5.80258E-10 1.04847E-08
 -1       304 2.77127E+04-7.83077E+03 1.22453E+05-1.48603E+05 7.63976E-10 5.90808E-09
 -1       305 2.67803E+04-5.77543E+04 1.97163E+05-1.01892E+05-4.22006E-10 3.63798E-11
 -1       306-5.68112E+06-6.11736E+05-4.28718E+05-2.13920E+06-8.36735E-11-1.27184E-08
 -1       307-5.62494E+06-1.15720E+06-2.78438E+05-2.29521E+06-2.25450E-08 2.13586E-08
 -1       308-5.83079E+06-6.60481E+05-1.00488E+05-2.00548E+06-5.37034E-09 1.71931E-08
 -1       309-5.46348E+06-1.09590E+06-5.81941E+04-2.46598E+06 8.67200E-09-6.67933E-09
 -1       310-5.85445E+06-6.61330E+05-2.26954E+04-1.97831E+06 1.74896E-09 2.03818E-09
 -1       311-5.47212E+06-1.03132E+06-9.08670E+03-2.41354E+06 3.48946E-08 1.66424E-08
 -1       312-5.81605E+06-7.28948E+05-1.26027E+04-2.05380E+06 1.73659E-08 1.31995E-08
 -1       313-5.59401E+06-8.64137E+05 4.77497E+03-2.20217E+06 1.06311E-08 2.33786E-09
 -1       314-5.71905E+06-8.38108E+05-1.64131E+04-2.17962E+06 1.97542E-09 2.52476E-09
 -1       315-5.81213E+06-6.63778E+05-6.44907E+03-1.97590E+06-2.64517E-08 8.46740E-10
 -1       316-5.60219E+06-9.26266E+05-2.96964E+04-2.28279E+06-2.43763E-08-1.86137E-08
 -1       317-6.00263E+06-5.60191E+05-6.67755E+04-1.84621E+06 2.02047E-08-1.55469E-08
 -1       318-5.54260E+06-9.32300E+05-1.12872E+05-2.31995E+06-3.26545E-08 8.17818E-09
 -1       319-6.09189E+06-7.65931E+05-3.26846E+05-1.82557E+06-1.02209E-08-7.30506E-09
 -1       320-5.51202E+06-7.24795E+05-4.88970E+05-2.30104E+06 1.75787E-08-6.46105E-09
 -1       336 5.61927E+02-1.12470E+06-6.33201E+03 2.36742E+03-1.09476E-08 1.06338E-08
 -1       337-2.33905E+03-1.12587E+06-7.01245E+03-5.84103E+03-2.00237E-08-2.39106E-09
 -1       338 3.78865E+02-1.12484E+06-9.23063E+03 3.45332E+03-1.43577E-08-2.32467E-09
 -1       339-9.54059E+03-1.13050E+06-2.01810E+04-7.96673E+03-2.60238E-08 1.97360E-10
 -1       340 6.32975E+03-1.12034E+06-3.13002E+04 4.47497E+03-1.70239E-08 2.10330E-08
 -1       406 1.89269E+01 2.82524E+05 4.66585E+02-1.13019E-01 2.53124E-10-3.16745E-08
 -1       407 1.63340E+02 2.82609E+05 9.91316E+02-4.05589E+00-3.74314E-11-2.08101E-08
 -1       408 5.11123E+02 2.82453E+05 1.98004E+03 4.26765E+00 2.31239E-10-2.61480E-09
 -1       409 2.14136E+03 2.83242E+05 4.45728E+03-4.20080E+01-4.95675E-11 8.70295E-09
 -1       410 6.15119E+03 2.81890E+05 9.09946E+03 3.95323E+01 3.28328E-10 5.79689E-09
 -1       521-8.18467E+06-7.91514E+05-7.93912E+05-2.55039E+06-1.44064E-08 2.29629E-08
 -1       522-5.64779E+06-2.10398E+06-2.00383E+05-3.96246E+06-1.02642E-07-2.10493E-08
 -1       523-8.17761E+06-3.33655E+05-1.55867E+05-1.78813E+06-1.28857E-08-5.35219E-08
 -1       524-6.02789E+06-2.28276E+06-3.49546E+04-4.97698E+06 1.17355E-07-1.09008E-07
 -1       525-8.17765E+06-3.33774E+05-4.35664E+04-1.75796E+06 1.10413E-07-6.54381E-08
 -1       526-5.56218E+06-1.94748E+06 1.36392E+05-4.10681E+06 2.67755E-09-2.37487E-08
 -1       527-8.30356E+06-9.18642E+05-2.18859E+05-2.45969E+06-3.32511E-08-4.94038E-09
 -1       528-5.73360E+06-8.93205E+05 2.75542E+05-2.30282E+06 1.26311E-08 4.76939E-09
 -1       529-7.66045E+06-1.63065E+06-2.37852E+05-3.27367E+06-1.87574E-08-2.30721E-08
 -1       530-7.76604E+06 4.17413E+05 1.60825E+05-1.30805E+06-6.07106E-08 7.05550E-08
 -1       531-6.59052E+06-1.99419E+06-6.24039E+04-3.64878E+06-9.29213E-08-1.36788E-09
 -1       532-9.31714E+06 1.01739E+06-2.96404E+04-1.22278E+06 9.52914E-08-1.04913E-07
 -1       533-6.44833E+06-1.99960E+06-1.30434E+05-3.67644E+06 3.07482E-08-1.45023E-07
 -1       534-8.31019E+06 4.19394E+05-2.03824E+05-1.22208E+06-4.15021E-08 1.18734E-07
 -1       535-7.35261E+06-1.56636E+06-7.43195E+05-3.41112E+06-5.99539E-09 7.69069E-08
 -1       536-3.90645E+05-1.91066E+04 3.32264E+04-1.34073E+04-3.28816E-09 1.27347E-08
 -1       537-3.31299E+05 2.14250E+04 3.13689E+04 3.21535E+04-3.47960E-08 1.90744E-08
 -1       538-3.61802E+05-2.06503E+03 9.96093E+03-1.96106E+04 4.18409E-09 3.57945E-08
 -1       539-3.48690E+05 3.05034E+03 8.21932E+03 3.50765E+04 5.09244E-08 3.32207E-08
 -1       540-3.73489E+05-5.37216E+02 2.92284E+01-1.63372E+04 1.11936E-09 2.94538E-08
 -1       541-3.12019E+05 1.99725E+03 1.10988E+04 2.00736E+04-1.26399E-08 1.62270E-08
 -1       542-3.97488E+05-1.83290E+03-6.92953E+03-4.58784E+03 1.99736E-08 1.49677E-08
 -1       543-2.95649E+05 2.23552E+03 1.30818E+04-5.98832E+03-1.36263E-08 8.07404E-10
 -1       544-3.89439E+05-1.14344E+03-6.26856E+03 9.70543E+03-5.22812E-09-9.58204E-09
 -1       545-3.30606E+05 1.19134E+02 4.54746E+03-2.89029E+04 1.09280E-08-1.80062E-08
 -1       546-3.63432E+05 1.03319E+03-3.10725E+03 1.83228E+04-1.95973E-09-1.76760E-08
 -1       547-3.55166E+05-3.39498E+03-5.28927E+03-3.67503E+04-3.43019E-08-2.72094E-08
 -1       548-3.65478E+05 2.88246E+03-1.17546E+04 1.75678E+04-3.31659E-08-3.08851E-08
 -1       549-3.32033E+05-1.72061E+04-2.09002E+04-2.60080E+04-2.11932E-08-1.95773E-08
 -1       550-3.85786E+05 1.41770E+04-4.80871E+04 7.56254E+03 1.80557E-09-1.09903E-08
 -1       551 1.72717E+04-5.80392E+05 2.43827E+04-9.65438E+05-4.65516E-08-7.30506E-09
 -1       552 3.92254E+04-5.92016E+05 3.18082E+04-1.37509E+06-3.54194E-08 1.70912E-08
 -1       553 2.79586E+04-5.97973E+05 4.65750E+04-9.61800E+05-5.77347E-08 1.68075E-08
 -1       554 6.58726E+04-5.87801E+05 9.75792E+04-1.37653E+06-3.54048E-08 1.83522E-08
 -1       555 5.61415E+04-6.16631E+05 1.73318E+05-9.62743E+05-6.01722E-08 6.29370E-10
 -1       556 1.00599E+05-1.86265E+05 6.21463E+04-2.35383E+05-1.32277E-08-1.20781E-08
 -1       557 1.76195E+05-2.47361E+05 3.28981E+04-2.95974E+05-4.87489E-09 1.38880E-09
 -1       558 9.87716E+04-1.93679E+05 1.29091E+04-2.29092E+05-8.80391E-09 2.98314E-09
 -1       559 1.63977E+05-2.55283E+05 6.67646E+03-3.01911E+05 8.63656E-09 4.14730E-09
 -1       560 9.52279E+04-1.91381E+05 2.53379E+03-2.31447E+05-1.22236E-09-6.27551E-10
 -1       561 1.58888E+05-2.53703E+05 1.43825E+03-3.05172E+05 7.71252E-10 1.09203E-08
 -1       562 9.24118E+04-1.89546E+05 4.34686E+02-2.33470E+05-6.44650E-09 1.25874E-09
 -1       563 1.55580E+05-2.52271E+05 3.52058E+02-3.07292E+05-4.37649E-09-3.20404E-09
 -1       564 9.05809E+04-1.88381E+05 9.56313E+01-2.34766E+05 5.28235E-09-5.05406E-09
 -1       565 1.53716E+05-2.51465E+05 1.13600E+02-3.08470E+05 1.36515E-08 7.93398E-09
 -1       566 8.97831E+04-1.87866E+05 1.61925E+01-2.35331E+05 4.39650E-09-4.80213E-10
 -1       567 1.53253E+05-2.51251E+05-5.90950E+01-3.08684E+05 1.07135E-08 2.03727E-09
 -1       568 9.00587E+04-1.88049E+05-2.96026E+02-2.35217E+05 2.23372E-09 9.15679E-09
 -1       569 1.53416E+05-2.51131E+05-7.12103E+02-3.07211E+05 1.07848E-08 1.53505E-08
 -1       570 9.20475E+04-1.89707E+05-1.67079E+03-2.35002E+05 1.11540E-08-2.05546E-09
 -1       571 2.09281E+05 7.70878E+03 1.13814E+04-5.42674E+04 1.75987E-09-1.46201E-09
 -1       572 2.10970E+05 2.70378E+03 5.57636E+03-5.95049E+04 1.89584E-09-1.92904E-09
 -1       573 2.09957E+05 6.67084E+02 2.47735E+03-5.41362E+04 1.13141E-09 1.94859E-09
 -1       574 2.10154E+05 2.41593E+02 1.24140E+03-5.96537E+04-6.85759E-10-1.71349E-09
 -1       575 2.10032E+05 5.98158E+01 5.85283E+02-5.41189E+04 1.05863E-08 4.60295E-09
 -1       576 2.10043E+05 4.23225E+01 2.98342E+02-5.96736E+04 1.65560E-08 7.56290E-09
 -1       577 2.10046E+05 2.58097E+01 1.47611E+02-5.41166E+04 1.54080E-08 3.04271E-09
 -1       578 2.10037E+05 2.98076E+01 8.18894E+01-5.96760E+04 1.96303E-08-1.56215E-08
 -1       579 2.10063E+05 2.01895E+01 5.23561E+01-5.41165E+04 1.49485E-08-1.37343E-08
 -1       580 2.10062E+05 1.91753E+01 5.29857E+01-5.96729E+04 1.58661E-09-2.99315E-09
 -1       581 2.10094E+05 7.92448E+00 7.58436E+01-5.41197E+04 1.03300E-08-4.71437E-09
 -1       582 2.10116E+05 2.06169E+01 1.48118E+02-5.96397E+04 1.92172E-08 2.07319E-09
 -1       583 2.10129E+05 5.29137E+01 2.85432E+02-5.41497E+04 9.44056E-09-1.41767E-09
 -1       584 2.10265E+05 2.77282E+02 6.41480E+02-5.93886E+04 1.35697E-09-1.07727E-08
 -1       585 2.10102E+05 8.39944E+02 1.30264E+03-5.43712E+04 1.65437E-09 8.99672E-09
 -1       586-2.49700E+03 6.90862E+04-3.15194E+03-1.86574E+05-4.72937E-10-5.16422E-09
 -1       587-5.53218E+02 6.86831E+04-1.56267E+02-2.05341E+05-5.11136E-10-3.75439E-09
 -1       588 7.22816E+02 6.87357E+04 2.71873E+03-1.86476E+05-3.91083E-10 2.36087E-08
 -1       589 3.78411E+03 7.02103E+04 7.64854E+03-2.05143E+05-4.40195E-10 3.30615E-08
 -1       590 1.10240E+04 6.78690E+04 1.62787E+04-1.86780E+05-5.45697E-10 2.28983E-08
 -1       591-4.44944E+04-1.20991E+04-1.48868E+04-2.22114E+04 1.26431E-09-7.81620E-09
 -1       592-4.61958E+04-1.54487E+04-8.06345E+03-2.57448E+04-6.57565E-10-1.59458E-08
 -1       593-4.59952E+04-1.10068E+04-3.35679E+03-2.32913E+04-6.42444E-10-9.84528E-10
 -1       594-4.41261E+04-1.32797E+04-1.67419E+03-2.58419E+04 2.72286E-09 6.72529E-09
 -1       595-4.61101E+04-1.10021E+04-7.69247E+02-2.33408E+04-1.33525E-09 4.58478E-09
 -1       596-4.39857E+04-1.31804E+04-3.91929E+02-2.58268E+04 2.37605E-09 2.64160E-09
 -1       597-4.61246E+04-1.10118E+04-2.15312E+02-2.33427E+04-4.20837E-09-2.35008E-09
 -1       598-4.39721E+04-1.31766E+04-1.76563E+02-2.58225E+04-4.70862E-10 1.63720E-09
 -1       599-4.61234E+04-1.10119E+04-2.29886E+02-2.33423E+04 1.57002E-10-6.92887E-09
 -1       600-4.39868E+04-1.31816E+04-4.30528E+02-2.58260E+04 1.76374E-09 1.27807E-09
 -1       601-4.61053E+04-1.10018E+04-8.51167E+02-2.33394E+04 2.32649E-09-2.45973E-09
 -1       602-4.41422E+04-1.32915E+04-1.85596E+03-2.58405E+04-2.19563E-09-7.49287E-09
 -1       603-4.59762E+04-1.10090E+04-3.72251E+03-2.32848E+04-4.72255E-10 6.49084E-09
 -1       604-4.64463E+04-1.56865E+04-8.94201E+03-2.57193E+04 1.56012E-09-5.11841E-09
 -1       605-4.43003E+04-1.22295E+04-1.65087E+04-2.20972E+04 1.45542E-09 3.05590E-09
 -1       606 2.76088E+04-1.00569E+04-1.80916E+04 2.67863E+04 1.04592E-08-8.28550E-10
 -1       607 2.45115E+04-3.25199E+03-9.00862E+03 3.00718E+04 2.42690E-08-1.58500E-08
 -1       608 2.62675E+04-5.56072E+02-4.03429E+03 2.65746E+04 1.25947E-08-2.92107E-09
 -1       609 2.59185E+04-1.52159E+02-2.03756E+03 3.03075E+04-2.46018E-09-1.86492E-09
 -1       610 2.61042E+04 1.74642E+01-9.73305E+02 2.65508E+04-4.19459E-09-1.05879E-08
 -1       611 2.60389E+04 3.01374E+01-4.90772E+02 3.03333E+04-6.88260E-09-1.22145E-08
 -1       612 2.60601E+04 3.39988E+01-2.34664E+02 2.65485E+04-3.25781E-09 9.43533E-09
 -1       613 2.60357E+04 3.94034E+01-1.06458E+02 3.03363E+04-4.82669E-09-1.20735E-09
 -1       614 2.60357E+04 3.51175E+01-2.86939E+01 2.65477E+04 4.29281E-10 3.28714E-09
 -1       615 2.60228E+04 4.54354E+01 3.59627E+01 3.03368E+04 7.52516E-09-4.98380E-09
 -1       616 2.60171E+04 4.14067E+01 1.15749E+02 2.65479E+04-1.59980E-09-3.46859E-09
 -1       617 2.60299E+04 7.43171E+01 2.67395E+02 3.03362E+04-2.05705E-09-1.83240E-09
 -1       618 2.59888E+04 1.21727E+02 5.40064E+02 2.65481E+04-7.15318E-10-4.13934E-09
 -1       619 2.62165E+04 4.94569E+02 1.21358E+03 3.03354E+04-3.15140E-10-1.33475E-08
 -1       620 2.58068E+04 1.40489E+03 2.43942E+03 2.65469E+04 2.87775E-09 9.20818E-09
 -1       621 3.00092E+02 2.20472E+05 2.68745E+03 1.13219E+04-7.27596E-11 6.52153E-09
 -1       622 3.53938E+02 2.21134E+05 2.38884E+03 1.64982E+04 9.32232E-11 1.38607E-09
 -1       623 1.73976E+01 2.20645E+05 2.88747E+03 1.12681E+04-8.98126E-12 4.19777E-09
 -1       624 1.34720E+03 2.22039E+05 5.60561E+03 1.65523E+04-7.82734E-11 7.43438E-09
 -1       625 1.35411E+03 2.19552E+05 9.80278E+03 1.12677E+04 4.13820E-11 1.16552E-09
 -1       626 1.88399E+05 5.08092E+04 3.93155E+03 9.98706E+04 1.05879E-08-1.26965E-09
 -1       627 1.86016E+05 5.24838E+04 1.89458E+03 1.03824E+05 1.97742E-08-4.12467E-09
 -1       628 1.88529E+05 4.89680E+04 8.00286E+02 1.00485E+05 1.08193E-08-4.91309E-09
 -1       629 1.85468E+05 5.20158E+04 3.92095E+02 1.04059E+05 5.36238E-09 1.19560E-08
 -1       630 1.88537E+05 4.88816E+04 1.81168E+02 1.00503E+05 1.36606E-09-1.04075E-08
 -1       631 1.85402E+05 5.20039E+04 9.71133E+01 1.04059E+05-2.50475E-09-1.73787E-09
 -1       632 1.88527E+05 4.88886E+04 6.32652E+01 1.00494E+05-6.32099E-09 4.99938E-09
 -1       633 1.85388E+05 5.20093E+04 6.95495E+01 1.04051E+05-1.93904E-09 1.00541E-08
 -1       634 1.88517E+05 4.88896E+04 1.11495E+02 1.00490E+05 2.94722E-09 1.27443E-09
 -1       635 1.85393E+05 5.20108E+04 2.25341E+02 1.04051E+05 4.71164E-09-2.52840E-09
 -1       636 1.88505E+05 4.88884E+04 4.54773E+02 1.00487E+05 6.60179E-10 6.67546E-09
 -1       637 1.85487E+05 5.20829E+04 9.99377E+02 1.04047E+05 3.69505E-09 5.85123E-09
 -1       638 1.88467E+05 4.91107E+04 2.05366E+03 1.00385E+05 2.10503E-09-8.56699E-09
 -1       639 1.86563E+05 5.35839E+04 4.85839E+03 1.03728E+05-1.79102E-09-8.75480E-09
 -1       640 1.88323E+05 5.35837E+04 1.00822E+04 9.84878E+04 6.29370E-10-5.77529E-09
 -1       656 5.03254E+04-1.27643E+06-1.21484E+05-4.34628E+02-1.36788E-09-8.12926E-09
 -1       657-6.65186E+04-1.33127E+06-1.00507E+05 7.57137E+03 5.95719E-10 1.25975E-08
 -1       658 1.59784E+04-1.29206E+06-6.17280E+04-1.77293E+03 1.21395E-09 6.85333E-10
 -1       659-7.14633E+04-1.33361E+06-1.07002E+05 8.50224E+03-9.70431E-10-1.11681E-08
 -1       660 5.52585E+04-1.27409E+06-1.32653E+05-1.36548E+03-6.47560E-10 3.40744E-09
 -1       661 1.68147E+05 1.82271E+04 1.63604E+04 6.57448E+04 1.77761E-09-2.20643E-09
 -1       662 1.76808E+05 3.09221E+04 1.10244E+04 6.27441E+04 2.25816E-09-8.78458E-10
 -1       663 1.71357E+05 2.34791E+04 3.85632E+03 6.48167E+04 1.86697E-09 2.13527E-09
 -1       664 1.73092E+05 2.47760E+04 2.30581E+03 6.38740E+04-9.65201E-10-1.28612E-08
 -1       665 1.71839E+05 2.42006E+04 9.09577E+02 6.46801E+04-2.20456E-09-2.63117E-09
 -1       666 1.72525E+05 2.39475E+04 5.30769E+02 6.40501E+04-4.52903E-09 6.87755E-09
 -1       667 1.71920E+05 2.42858E+04 2.80202E+02 6.46487E+04-1.39121E-09 3.04427E-09
 -1       668 1.72437E+05 2.38818E+04 2.81586E+02 6.40955E+04 4.10057E-09 7.69769E-09
 -1       669 1.71926E+05 2.42643E+04 3.77989E+02 6.46353E+04-3.91694E-10-2.65260E-09
 -1       670 1.72531E+05 2.40835E+04 8.20076E+02 6.40964E+04 1.92767E-09-8.75849E-09
 -1       671 1.71827E+05 2.40882E+04 1.45508E+03 6.46462E+04 8.17529E-10-7.14721E-09
 -1       672 1.73378E+05 2.54990E+04 3.72200E+03 6.38916E+04-1.32553E-09-4.24620E-11
 -1       673 1.71083E+05 2.28844E+04 6.23717E+03 6.48265E+04-2.20064E-09-1.01090E-09
 -1       674 1.79317E+05 3.55177E+04 1.78369E+04 6.21456E+04-2.53073E-09-2.70938E-09
 -1       675 1.65927E+05 1.43496E+04 2.64758E+04 6.62865E+04-6.89397E-10 3.35058E-09
 -1       676 2.00446E+01-2.40629E+05-9.30890E+02 2.74996E+01 1.26838E-09-1.37829E-08
 -1       677-2.47162E+02-2.40854E+05-1.70365E+03-5.49678E+01-2.30975E-09-1.47150E-08
 -1       678 1.65026E+02-2.40468E+05-3.01160E+03 2.74494E+01-1.12766E-09-4.17785E-10
 -1       679-3.01237E+03-2.42671E+05-7.15412E+03-5.47752E+01-2.12685E-09-8.50331E-09
 -1       680 1.79781E+03-2.38811E+05-1.15300E+04 2.69946E+01-1.44246E-09 3.27773E-11
 -1       771-2.56515E+06-4.90967E+05-7.15479E+04-1.10897E+06-1.61162E-08-1.05065E-08
 -1       772-2.53619E+06-5.35287E+05-3.78748E+04-1.15907E+06-1.21727E-08 6.58838E-09
 -1       773-2.57677E+06-4.81816E+05-1.73057E+04-1.11314E+06-3.55067E-09 1.02082E-08
 -1       774-2.52737E+06-5.27594E+05-8.16342E+03-1.16642E+06 1.30676E-08-1.66983E-09
 -1       775-2.58090E+06-4.78923E+05-4.80239E+03-1.11403E+06-3.52156E-09 1.70257E-09
 -1       776-2.52865E+06-5.27549E+05-2.02647E+03-1.17118E+06-6.34464E-09 2.26282E-09
 -1       777-2.58417E+06-4.76513E+05-1.68880E+03-1.11477E+06 7.43603E-09 7.09770E-09
 -1       778-2.53042E+06-5.27663E+05-5.87601E+02-1.17519E+06 4.65661E-10 4.94038E-09
 -1       779-2.58687E+06-4.74460E+05-7.67490E+02-1.11541E+06-6.01722E-09-3.33603E-09
 -1       780-2.53202E+06-5.27724E+05-2.76143E+02-1.17844E+06-5.02405E-09 8.66748E-10
 -1       781-2.58895E+06-4.72830E+05-5.20956E+02-1.11592E+06-1.03173E-08-1.04046E-09
 -1       782-2.53330E+06-5.27760E+05-5.15401E+02-1.18083E+06-1.59198E-08-3.72552E-09
 -1       783-2.59036E+06-4.71730E+05-1.05906E+03-1.11626E+06-2.38651E-09-6.94558E-09
 -1       784-2.53466E+06-5.28371E+05-2.31547E+03-1.18225E+06-8.34916E-09-7.70797E-11
 -1       785-2.59066E+06-4.71481E+05-4.32150E+03-1.11613E+06-1.65055E-08 2.36014E-09
 -1       786 1.58133E+05-9.43740E+03 2.18335E+04-7.40869E+01 1.53811E-09-1.68620E-09
 -1       787 1.67596E+05 1.09256E+04 1.54466E+04 1.80658E+01 2.17138E-09 6.06951E-09
 -1       788 1.61783E+05-1.47939E+03 5.65050E+03-5.61825E+01 1.14483E-09 4.58135E-09
 -1       789 1.63344E+05 1.71168E+03 3.54945E+03-1.13339E+01 2.16808E-10-9.64747E-10
 -1       790 1.62386E+05-2.31011E+02 1.44242E+03-4.46897E+01-6.56423E-10 6.19679E-09
 -1       791 1.62640E+05 2.67877E+02 8.43333E+02-3.21938E+01-1.02017E-09 4.53305E-09
 -1       792 1.62487E+05-3.66783E+01 3.77880E+02-3.53225E+01-2.77304E-10-5.97923E-09
 -1       793 1.62525E+05 4.81195E+01 2.33338E+02-5.14672E+01-7.13776E-10 3.62675E-09
 -1       794 1.62502E+05-1.13958E+01 1.51005E+02-2.54160E+01 7.52068E-10 3.87377E-09
 -1       795 1.62524E+05 5.04819E+01 1.86864E+02-7.44745E+01-6.90294E-10 4.40323E-11
 -1       796 1.62488E+05-3.90358E+01 2.60812E+02-1.23147E+01 5.18175E-10-1.24725E-08
 -1       797 1.62637E+05 2.84268E+02 5.99181E+02-1.07354E+02 7.90026E-11-8.49300E-09
 -1       798 1.62389E+05-2.45013E+02 9.40670E+02 7.46380E+00 2.98284E-10 1.63283E-09
 -1       799 1.63341E+05 1.80884E+03 2.55995E+03-1.58972E+02-1.67631E-10 7.76188E-09
 -1       800 1.61784E+05-1.56239E+03 3.61469E+03 3.93039E+01-3.51950E-10 1.16547E-08
 -1       801 5.12537E+04-1.87355E+06-1.69510E+05 3.42516E+04 1.51995E-08-7.39192E-09
 -1       802-5.71464E+04-1.70913E+06-6.60854E+04-6.16393E+04 4.09109E-08-3.92276E-09
 -1       803 5.22185E+03-1.78573E+06-1.00310E+04 8.74361E+04 3.21088E-08 2.84531E-08
 -1       804 5.19255E+04-1.65544E+06 7.75465E+04-4.16394E+04 3.45608E-08 3.28917E-08
 -1       805-5.85414E+04-1.92662E+06 7.65356E+04 1.42437E+04 1.28566E-08 2.17649E-08
 -1       806-2.29158E+05-4.60483E+04-1.80691E+04-9.23110E+04-3.61752E-09-4.71573E-10
 -1       807-2.30497E+05-4.31831E+04-8.87708E+03-9.67839E+04 6.01403E-09 7.79431E-09
 -1       808-2.29654E+05-3.95365E+04-3.76576E+03-9.53921E+04 2.77396E-11 7.11867E-09
 -1       809-2.28620E+05-4.07001E+04-1.84118E+03-9.70170E+04-2.56910E-09 1.08582E-08
 -1       810-2.29731E+05-3.93083E+04-8.43360E+02-9.55285E+04-4.05498E-09 6.66887E-09
 -1       811-2.28476E+05-4.06008E+04-4.18737E+02-9.69920E+04-1.14496E-08-2.03590E-09
 -1       812-2.29744E+05-3.93265E+04-2.10084E+02-9.55282E+04-5.29326E-09-1.03639E-08
 -1       813-2.28457E+05-4.06029E+04-1.34132E+02-9.69793E+04-1.48066E-09-8.52015E-09
 -1       814-2.29741E+05-3.93332E+04-1.28674E+02-9.55253E+04-1.72622E-09-5.06111E-09
 -1       815-2.28460E+05-4.06048E+04-2.03916E+02-9.69753E+04 1.71576E-09 1.09494E-08
 -1       816-2.29727E+05-3.93318E+04-3.83890E+02-9.55228E+04 7.16409E-09 1.24378E-08
 -1       817-2.28525E+05-4.06414E+04-8.23467E+02-9.69682E+04 1.05520E-08 6.63022E-09
 -1       818-2.29678E+05-3.94472E+04-1.67874E+03-9.54682E+04 4.50382E-09-1.78170E-09
 -1       819-2.29448E+05-4.16531E+04-3.95069E+03-9.67491E+04-5.29690E-09-3.73507E-09
 -1       820-2.29364E+05-4.24298E+04-8.04058E+03-9.41907E+04 6.50289E-10 1.72054E-09
 -1       821-2.88482E+05 1.59575E+04-3.69044E+04 2.43697E+02 7.24015E-10-1.15324E-09
 -1       822-3.04472E+05-1.84735E+04-2.61150E+04-9.24557E+02-1.95119E-09 1.67711E-09
 -1       823-2.94651E+05 2.50207E+03-9.55808E+03 2.47215E+02-1.01698E-10 5.92809E-09
 -1       824-2.97270E+05-2.89570E+03-6.01302E+03-7.60743E+02 6.80085E-10 4.25871E-09
 -1       825-2.95681E+05 3.91403E+02-2.47352E+03 7.98807E+01-1.38693E-09 1.37447E-10
 -1       826-2.96066E+05-4.61313E+02-1.48903E+03-3.29230E+02-3.27012E-09 2.27712E-09
 -1       827-2.95853E+05 6.90367E+01-7.76050E+02-1.84305E+02-3.17309E-09-1.99557E-09
 -1       828-2.95906E+05-1.40801E+02-6.81657E+02 1.81990E+02-5.12412E-09 6.92665E-09
 -1       829-2.95842E+05 7.11888E+01-7.89810E+02-4.31348E+02 6.44850E-10 1.04745E-09
 -1       830-2.96101E+05-4.76645E+02-1.54002E+03 5.52112E+02 1.71533E-09-1.01126E-08
 -1       831-2.95659E+05 4.05095E+02-2.55297E+03-5.54435E+02-3.07956E-09 4.72107E-09
 -1       832-2.97332E+05-2.99441E+03-6.22132E+03 6.21699E+02-2.14757E-09-7.54460E-09
 -1       833-2.94612E+05 2.58726E+03-9.88756E+03-5.00935E+02-1.93792E-09 6.16546E-09
 -1       834-3.04750E+05-1.91076E+04-2.70105E+04 3.61181E+02-1.64998E-09 1.32864E-08
 -1       835-2.88243E+05 1.65055E+04-3.81796E+04-2.93905E+02 5.26863E-09-7.30142E-09
 -1       836-9.70316E+02 2.71716E+05 1.64409E+04-1.99554E+04 6.00267E-10 2.92448E-09
 -1       837 3.60042E+03 2.76818E+05 1.40539E+04-4.00961E+04 1.25965E-09 3.44835E-09
 -1       838-3.63784E+02 2.73129E+05 1.45166E+04-1.98842E+04 1.20417E-09-5.96378E-09
 -1       839 9.30950E+03 2.81071E+05 2.76549E+04-4.01285E+04 1.89721E-09-2.04849E-08
 -1       840-2.81065E+03 2.67420E+05 4.41819E+04-1.99216E+04 1.17507E-09-9.07812E-09
 -1       856-8.00022E+04 7.44231E+03-1.96128E+04-4.30374E+02-1.41114E-09-4.93856E-09
 -1       857-8.81015E+04-8.72976E+03-1.35027E+04 4.57847E+03-1.40105E-09-9.98580E-09
 -1       858-8.32028E+04 1.04280E+03-5.08994E+03-4.51818E+02-1.57831E-09-4.46630E-09
 -1       859-8.44266E+04-1.21308E+03-3.07369E+03 4.61251E+03-1.61283E-09-8.30011E-09
 -1       860-8.36812E+04 1.45058E+02-1.29174E+03-4.64528E+02 1.41080E-09-9.69044E-09
 -1       861-8.38757E+04-1.60559E+02-7.18075E+02 4.62992E+03-4.61951E-09-5.27942E-09
 -1       862-8.37557E+04 1.91641E+01-3.13480E+02-4.69254E+02 5.56060E-09-3.71885E-09
 -1       863-8.37870E+04-1.11503E+01-1.48211E+02 4.63211E+03 9.46535E-09-8.35019E-09
 -1       864-8.37701E+04-1.04614E+00-3.27913E+01-4.66722E+02 4.58341E-09 1.74914E-09
 -1       865-8.37565E+04 3.01797E+01 6.62959E+01 4.61924E+03 6.73407E-09 5.60986E-09
 -1       866-8.37846E+04-2.26038E+01 1.72869E+02-4.56380E+02-8.39293E-10-4.03418E-10
 -1       867-8.36645E+04 1.88728E+02 4.50882E+02 4.59114E+03 1.59491E-09 2.75606E-09
 -1       868-8.38587E+04-1.57962E+02 7.55135E+02-4.38620E+02 1.90767E-09 1.42100E-09
 -1       869-8.31028E+04 1.31190E+03 2.02029E+03 4.54466E+03-3.08745E-10-2.38606E-09
 -1       870-8.43409E+04-1.11706E+03 2.93032E+03-4.09907E+02 6.48015E-11 3.67550E-09
 -1       871-4.29402E+03-9.74201E+03-1.40194E+04 9.25421E+04 1.36970E-09-3.80805E-09
 -1       872-1.84177E+03-1.28937E+04-5.73588E+03 1.19978E+05 2.34559E-09 5.06020E-09
 -1       873-1.79821E+01-1.14209E+04 7.61948E+02 9.23390E+04 1.15961E-09 6.83860E-09
 -1       874 2.15704E+03-9.41800E+03 7.82463E+03 1.20017E+05 2.56273E-09 8.87485E-09
 -1       875 5.05557E+03-1.32768E+04 1.73885E+04 9.25094E+04 1.60708E-09 2.57614E-09
 -1       876 2.26391E+05 3.88813E+04 1.20085E+04 9.17040E+04-3.23996E-09 1.57070E-09
 -1       877 2.27097E+05 4.14981E+04 6.41284E+03 9.52343E+04-2.83580E-09 7.95239E-10
 -1       878 2.27513E+05 3.75526E+04 2.68667E+03 9.26903E+04 3.69255E-10-1.45928E-09
 -1       879 2.25464E+05 3.98709E+04 1.33844E+03 9.53183E+04 3.06500E-10-1.09263E-08
 -1       880 2.27594E+05 3.75381E+04 6.23185E+02 9.27305E+04 5.38103E-09 3.29766E-09
 -1       881 2.25355E+05 3.98016E+04 3.32122E+02 9.53009E+04 4.85034E-09-7.30940E-09
 -1       882 2.27602E+05 3.75481E+04 2.11323E+02 9.27316E+04 9.03492E-09-1.26803E-09
 -1       883 2.25347E+05 3.97983E+04 2.25324E+02 9.52957E+04 3.15492E-09 3.26600E-09
 -1       884 2.27598E+05 3.75457E+04 3.56751E+02 9.27318E+04 2.10230E-09-5.35817E-09
 -1       885 2.25376E+05 3.98033E+04 7.16215E+02 9.53046E+04 3.27989E-09 7.27596E-10
 -1       886 2.27570E+05 3.75247E+04 1.44300E+03 9.27289E+04 4.50044E-09 1.23634E-09
 -1       887 2.25629E+05 3.99696E+04 3.15187E+03 9.53412E+04-3.42928E-09-3.30374E-09
 -1       888 2.27371E+05 3.75597E+04 6.35107E+03 9.26280E+04-2.44881E-10-2.54977E-09
 -1       889 2.29414E+05 4.38992E+04 1.51721E+04 9.52220E+04-3.29131E-09-8.79118E-09
 -1       890 2.24783E+05 4.06335E+04 2.84163E+04 9.02051E+04 1.67461E-09 6.93944E-09
 -1       891-1.35589E+02-1.28079E+05-1.52399E+03 2.38254E+04 8.37531E-10-4.98835E-09
 -1       892-2.37232E+02-1.28446E+05-1.65324E+03 3.60625E+04 1.17643E-09 1.09703E-08
 -1       893-3.47765E+01-1.28126E+05-2.35789E+03 2.38303E+04 1.18030E-09-1.11277E-09
 -1       894-1.28042E+03-1.29346E+05-4.89228E+03 3.59335E+04-1.50203E-09-7.22866E-09
 -1       895-1.00290E+03-1.27106E+05-8.62021E+03 2.39529E+04-1.94746E-10-1.98725E-09
 -1       956-2.85771E+05-4.06888E+03-1.02321E+04 1.92766E+04-6.83485E-09 2.33945E-09
 -1       957-2.87791E+05-1.37553E+03-5.25267E+03 2.32141E+04-1.18894E-08 6.27665E-09
 -1       958-2.86680E+05-1.12650E+02-2.36654E+03 1.91554E+04-2.90311E-09 1.89448E-09
 -1       959-2.86841E+05-2.22453E+01-1.20875E+03 2.33462E+04-3.02498E-09 8.10360E-10
 -1       960-2.86762E+05 3.14862E+01-5.89282E+02 1.91437E+04-4.54929E-09-5.27575E-09
 -1       961-2.86773E+05 2.93155E+01-3.12594E+02 2.33596E+04-4.64456E-09 4.27599E-09
 -1       962-2.86779E+05 2.77990E+01-1.78855E+02 1.91419E+04-1.08207E-09-2.46769E-09
 -1       963-2.86770E+05 3.08778E+01-1.43422E+02 2.33620E+04-2.77737E-09 8.14953E-09
 -1       964-2.86783E+05 2.99347E+01-1.73950E+02 1.91412E+04-2.04500E-09 1.32331E-10
 -1       965-2.86781E+05 3.39299E+01-3.00454E+02 2.33620E+04 2.18424E-09-1.45769E-09
 -1       966-2.86774E+05 3.78131E+01-5.63964E+02 1.91419E+04-2.02692E-09 1.27193E-09
 -1       967-2.86854E+05-1.09042E+01-1.15666E+03 2.33542E+04-4.94765E-10 3.35604E-09
 -1       968-2.86702E+05-9.58562E+01-2.26361E+03 1.91491E+04-8.34007E-10-3.59029E-09
 -1       969-2.87771E+05-1.30190E+03-5.02585E+03 2.32700E+04 1.40790E-09-6.98657E-09
 -1       970-2.85837E+05-3.87861E+03-9.78942E+03 1.92281E+04 1.06547E-09-1.54432E-09
 -1       971-2.69484E+05-1.40876E+03-7.81615E+03 1.29213E+04-3.29737E-09-5.72712E-09
 -1       972-2.71383E+05-1.01113E+03-4.25662E+03 1.80382E+04 4.09727E-10-7.13590E-09
 -1       973-2.70353E+05-1.16202E+01-1.90610E+03 1.28136E+04-1.15688E-09 3.95812E-09
 -1       974-2.70484E+05-1.20493E+01-9.87507E+02 1.81548E+04-1.84036E-09 1.12834E-09
 -1       975-2.70421E+05 2.51820E+01-4.92650E+02 1.28037E+04-8.13088E-10 4.13547E-09
 -1       976-2.70431E+05 2.90717E+01-2.82479E+02 1.81670E+04-3.67731E-09 3.73791E-09
 -1       977-2.70434E+05 2.51267E+01-2.01897E+02 1.28014E+04 4.23370E-10-6.55336E-09
 -1       978-2.70435E+05 3.37510E+01-2.32010E+02 1.81703E+04 1.05688E-08-1.49885E-09
 -1       979-2.70434E+05 3.14700E+01-3.69110E+02 1.28004E+04 7.95364E-09-5.47061E-10
 -1       980-2.70462E+05 3.60548E+01-7.10412E+02 1.81708E+04 2.93117E-09-8.67533E-09
 -1       981-2.70411E+05 4.91632E+01-1.37470E+03 1.28008E+04 1.30024E-09 1.09412E-09
 -1       982-2.70651E+05-6.54418E+01-2.84080E+03 1.81654E+04 8.47649E-10 2.08611E-09
 -1       983-2.70238E+05-3.87484E+01-5.51933E+03 1.28061E+04-1.07048E-09-3.08432E-09
 -1       984-2.73305E+05-2.94779E+03-1.23598E+04 1.80923E+04-3.13344E-09-5.54905E-09
 -1       985-2.67740E+05-4.07742E+03-2.26965E+04 1.28784E+04 1.34514E-09-1.34969E-09
 -3
    1PSTEP                        13           7           1          
  100CL  107 5.47852E-01         409                     0    7           1
 -4  DISP        4    1
 -5  D1          1    2    1    0
 -5  D2          1    2    2    0
 -5  D3          1    2    3    0
 -5  ALL         1    2    0    0    1ALL
 -1         1 1.97848E-04 0.00000E+00 0.00000E+00
 -1         2 1.74129E-04-2.07027E-30 0.00000E+00
 -1         3 1.72167E-04 5.77322E-28-1.32349E-23
 -1         5 1.11388E-04 1.80931E-27 0.00000E+00
 -1         8 1.72723E-04-8.60236E-07 0.00000E+00
 -1         9 1.64485E-04-6.80324E-07 0.00000E+00
 -1        10 1.58261E-04-2.31137E-06 0.00000E+00
 -1        12 1.11175E-04 6.02251E-07-1.65436E-24
 -1        15 1.42732E-04-9.56316E-07 0.00000E+00
 -1        16 1.47778E-04-8.94537E-07 0.00000E+00
 -1        17 1.14382E-04-4.94221E-06 0.00000E+00
 -1        18 1.09340E-04 5.58102E-06 0.00000E+00
 -1        19 1.10534E-04 1.20139E-06 0.00000E+00
 -1        20 1.10681E-04 1.26753E-05 0.00000E+00
 -1        21 1.10072E-04 2.27942E-05-3.30872E-24
 -1        24 2.28363E-05-6.93645E-06 0.00000E+00
 -1        25 1.09573E-04 5.72344E-06 0.00000E+00
 -1        26 1.10450E-04 1.66765E-06 0.00000E+00
 -1        27 1.08786E-04 9.96200E-06 0.00000E+00
 -1        28 1.08320E-04 2.22843E-05 0.00000E+00
 -1        32 0.00000E+00 0.00000E+00 0.00000E+00
 -1        33 1.09138E-04 2.23448E-06 0.00000E+00
 -1        34 1.07507E-04 9.93604E-06 0.00000E+00
 -1        35 1.05971E-04 2.20129E-05 0.00000E+00
 -1        51 1.96218E-04-1.43712E-07 0.00000E+00
 -1        52 1.93194E-04-2.80956E-07 0.00000E+00
 -1        53 1.89048E-04-4.19268E-07 0.00000E+00
 -1        54 1.84064E-04-5.60397E-07 3.30872E-24
 -1        55 1.78527E-04-7.05284E-07-4.13590E-25
 -1        56 1.96137E-04-8.48103E-07 0.00000E+00
 -1        57 1.94483E-04-2.04312E-06 0.00000E+00
 -1        58 1.92915E-04-3.45569E-06 0.00000E+00
 -1        59 1.91375E-04-4.97745E-06-2.64698E-23
 -1        60 1.89828E-04-6.48139E-06 0.00000E+00
 -1        61 1.88226E-04-7.84585E-06 2.64698E-23
 -1        62 1.86531E-04-8.96048E-06 0.00000E+00
 -1        63 1.84705E-04-9.72641E-06 0.00000E+00
 -1        64 1.82722E-04-1.00750E-05 0.00000E+00
 -1        65 1.80564E-04-9.95552E-06-2.64698E-23
 -1        66 1.78226E-04-9.35833E-06 0.00000E+00
 -1        67 1.75714E-04-8.29377E-06 0.00000E+00
 -1        68 1.73045E-04-6.81388E-06-5.29396E-23
 -1        69 1.70255E-04-4.98478E-06-2.64698E-23
 -1        70 1.67369E-04-2.91060E-06 0.00000E+00
 -1        86 1.73839E-04-1.06844E-07 0.00000E+00
 -1        87 1.72969E-04-2.14569E-07 1.65436E-24
 -1        88 1.71551E-04-3.22974E-07 6.61744E-24
 -1        89 1.69623E-04-4.35712E-07-3.30872E-24
 -1        90 1.67246E-04-5.48185E-07-1.32349E-23
 -1       121 1.71778E-04-3.81745E-07-1.32349E-23
 -1       122 1.70611E-04-7.64078E-07 6.61744E-24
 -1       123 1.68670E-04-1.14758E-06 1.32349E-23
 -1       124 1.65960E-04-1.53288E-06-6.61744E-24
 -1       125 1.62487E-04-1.92043E-06-1.32349E-23
 -1       191 1.11382E-04 1.00379E-07 3.30872E-24
 -1       192 1.11364E-04 2.00758E-07 0.00000E+00
 -1       193 1.11335E-04 3.01136E-07-3.30872E-24
 -1       194 1.11293E-04 4.01512E-07 1.65436E-24
 -1       195 1.11240E-04 5.01884E-07-3.30872E-24
 -1       251 1.72214E-04 4.22756E-06 0.00000E+00
 -1       252 1.71698E-04 9.41681E-06-6.61744E-24
 -1       253 1.71188E-04 1.33285E-05 0.00000E+00
 -1       254 1.70682E-04 1.46109E-05 0.00000E+00
 -1       255 1.70176E-04 1.30093E-05 1.32349E-23
 -1       256 1.69661E-04 8.33144E-06 0.00000E+00
 -1       257 1.69135E-04 1.66766E-06 0.00000E+00
 -1       258 1.68603E-04-5.84852E-06-6.61744E-24
 -1       259 1.68076E-04-1.27281E-05-1.32349E-23
 -1       260 1.67560E-04-1.74957E-05-6.61744E-24
 -1       261 1.67053E-04-1.95569E-05 0.00000E+00
 -1       262 1.66547E-04-1.83761E-05-6.61744E-24
 -1       263 1.66036E-04-1.47695E-05 0.00000E+00
 -1       264 1.65518E-04-9.60576E-06 6.61744E-24
 -1       265 1.65000E-04-4.40295E-06-1.32349E-23
 -1       266 1.67725E-04-8.88299E-07 0.00000E+00
 -1       267 1.62726E-04-9.02844E-07-1.65436E-24
 -1       268 1.57728E-04-9.18244E-07-1.65436E-24
 -1       269 1.52729E-04-9.31109E-07-4.13590E-25
 -1       270 1.47731E-04-9.43914E-07 0.00000E+00
 -1       271 1.69726E-04 3.08098E-06 2.64698E-23
 -1       272 1.67085E-04 5.95100E-06 0.00000E+00
 -1       273 1.64817E-04 7.83959E-06-5.29396E-23
 -1       274 1.62879E-04 8.83383E-06 0.00000E+00
 -1       275 1.61235E-04 9.04242E-06 5.29396E-23
 -1       276 1.59841E-04 8.58510E-06 2.64698E-23
 -1       277 1.58646E-04 7.59439E-06-5.29396E-23
 -1       278 1.57597E-04 6.21171E-06 0.00000E+00
 -1       279 1.56640E-04 4.58572E-06 5.29396E-23
 -1       280 1.55716E-04 2.86931E-06 0.00000E+00
 -1       281 1.54768E-04 1.21693E-06-5.29396E-23
 -1       282 1.53741E-04-2.17959E-07 0.00000E+00
 -1       283 1.52576E-04-1.28610E-06-5.29396E-23
 -1       284 1.51225E-04-1.84299E-06 0.00000E+00
 -1       285 1.49631E-04-1.75692E-06-2.64698E-23
 -1       301 1.61385E-04-7.31518E-07-6.61744E-24
 -1       302 1.58279E-04-7.59162E-07 0.00000E+00
 -1       303 1.55266E-04-7.85260E-07 0.00000E+00
 -1       304 1.52445E-04-8.11437E-07-3.30872E-24
 -1       305 1.49917E-04-8.38914E-07 0.00000E+00
 -1       306 1.64137E-04-6.80544E-06 0.00000E+00
 -1       307 1.69482E-04-2.89509E-05-2.64698E-23
 -1       308 1.79095E-04-6.33958E-05-5.29396E-23
 -1       309 1.91269E-04-1.05535E-04 0.00000E+00
 -1       310 2.03898E-04-1.49047E-04 0.00000E+00
 -1       311 2.14849E-04-1.87512E-04 0.00000E+00
 -1       312 2.22269E-04-2.15636E-04-5.29396E-23
 -1       313 2.24433E-04-2.28895E-04-2.64698E-23
 -1       314 2.20623E-04-2.26031E-04 0.00000E+00
 -1       315 2.10514E-04-2.06935E-04 2.64698E-23
 -1       316 1.95220E-04-1.74983E-04-5.29396E-23
 -1       317 1.76339E-04-1.34412E-04-2.64698E-23
 -1       318 1.56377E-04-9.12741E-05 0.00000E+00
 -1       319 1.37971E-04-5.17807E-05 0.00000E+00
 -1       320 1.23329E-04-2.13977E-05 0.00000E+00
 -1       336 1.53194E-04-2.73625E-06 0.00000E+00
 -1       337 1.47200E-04-3.16660E-06-6.61744E-24
 -1       338 1.40298E-04-3.60243E-06 0.00000E+00
 -1       339 1.32510E-04-4.04381E-06 0.00000E+00
 -1       340 1.23862E-04-4.49204E-06 1.32349E-23
 -1       406 1.11098E-04 7.02604E-07 0.00000E+00
 -1       407 1.11009E-04 8.02925E-07-1.65436E-24
 -1       408 1.10908E-04 9.03184E-07-3.30872E-24
 -1       409 1.10795E-04 1.00326E-06 0.00000E+00
 -1       410 1.10671E-04 1.10296E-06 0.00000E+00
 -1       521 1.52801E-04-2.42208E-05 5.29396E-23
 -1       522 1.72918E-04-9.40541E-05 5.29396E-23
 -1       523 2.03129E-04-1.98939E-04 0.00000E+00
 -1       524 2.38549E-04-3.24157E-04-5.29396E-23
 -1       525 2.74213E-04-4.50347E-04 0.00000E+00
 -1       526 3.05157E-04-5.58057E-04-5.29396E-23
 -1       527 3.26516E-04-6.32073E-04-1.05879E-22
 -1       528 3.33146E-04-6.60329E-04 5.29396E-23
 -1       529 3.21979E-04-6.40730E-04-1.05879E-22
 -1       530 2.91376E-04-5.75301E-04 5.29396E-23
 -1       531 2.44618E-04-4.75350E-04 1.05879E-22
 -1       532 1.87360E-04-3.54623E-04 5.29396E-23
 -1       533 1.28531E-04-2.30848E-04 1.05879E-22
 -1       534 7.73413E-05-1.21924E-04 0.00000E+00
 -1       535 4.05630E-05-4.29536E-05 0.00000E+00
 -1       536 1.14151E-04 8.91788E-06 0.00000E+00
 -1       537 1.13792E-04 3.06813E-05 0.00000E+00
 -1       538 1.13327E-04 5.71176E-05 0.00000E+00
 -1       539 1.12827E-04 8.49715E-05 0.00000E+00
 -1       540 1.12381E-04 1.10612E-04-3.30872E-24
 -1       541 1.12064E-04 1.30420E-04 0.00000E+00
 -1       542 1.11864E-04 1.42294E-04 0.00000E+00
 -1       543 1.11731E-04 1.44175E-04 1.65436E-24
 -1       544 1.11572E-04 1.36558E-04-3.30872E-24
 -1       545 1.11309E-04 1.19989E-04 0.00000E+00
 -1       546 1.10934E-04 9.73148E-05 0.00000E+00
 -1       547 1.10484E-04 7.14151E-05 1.65436E-24
 -1       548 1.10046E-04 4.60138E-05 3.30872E-24
 -1       549 1.09704E-04 2.48326E-05-1.65436E-24
 -1       550 1.09476E-04 1.04943E-05 0.00000E+00
 -1       551 1.02184E-04-5.23248E-06-6.61744E-24
 -1       552 8.77500E-05-5.54551E-06-1.65436E-24
 -1       553 7.18341E-05-5.87860E-06-6.61744E-24
 -1       554 5.52007E-05-6.22461E-06-6.61744E-24
 -1       555 3.86149E-05-6.57270E-06-2.64698E-23
 -1       556 1.11056E-04 3.64996E-06 0.00000E+00
 -1       557 1.08462E-04 1.03711E-05 0.00000E+00
 -1       558 1.06522E-04 1.53840E-05 0.00000E+00
 -1       559 1.05166E-04 1.88650E-05 0.00000E+00
 -1       560 1.04323E-04 2.09901E-05 0.00000E+00
 -1       561 1.03924E-04 2.19365E-05 0.00000E+00
 -1       562 1.03903E-04 2.18818E-05 0.00000E+00
 -1       563 1.04190E-04 2.10038E-05 0.00000E+00
 -1       564 1.04718E-04 1.94805E-05 0.00000E+00
 -1       565 1.05421E-04 1.74902E-05 3.30872E-24
 -1       566 1.06232E-04 1.52111E-05 0.00000E+00
 -1       567 1.07084E-04 1.28217E-05-1.03398E-25
 -1       568 1.07910E-04 1.05004E-05 0.00000E+00
 -1       569 1.08645E-04 8.42532E-06 0.00000E+00
 -1       570 1.09221E-04 6.77480E-06 0.00000E+00
 -1       571 1.09412E-04 5.32158E-06-4.13590E-25
 -1       572 1.09487E-04 5.01579E-06 0.00000E+00
 -1       573 1.09561E-04 4.67273E-06 8.27181E-25
 -1       574 1.09636E-04 4.30198E-06 0.00000E+00
 -1       575 1.09711E-04 3.91313E-06 0.00000E+00
 -1       576 1.09786E-04 3.51583E-06 8.27181E-25
 -1       577 1.09860E-04 3.11973E-06 3.30872E-24
 -1       578 1.09935E-04 2.73450E-06 0.00000E+00
 -1       579 1.10010E-04 2.36981E-06 0.00000E+00
 -1       580 1.10085E-04 2.03533E-06 0.00000E+00
 -1       581 1.10160E-04 1.74071E-06 0.00000E+00
 -1       582 1.10235E-04 1.49562E-06 0.00000E+00
 -1       583 1.10310E-04 1.30970E-06-6.61744E-24
 -1       584 1.10385E-04 1.19249E-06 0.00000E+00
 -1       585 1.10460E-04 1.15348E-06 0.00000E+00
 -1       586 1.09336E-04 5.60630E-06 0.00000E+00
 -1       587 1.09305E-04 5.63098E-06 2.06795E-25
 -1       588 1.09281E-04 5.65539E-06-8.27181E-25
 -1       589 1.09295E-04 5.67937E-06 0.00000E+00
 -1       590 1.09382E-04 5.70261E-06 0.00000E+00
 -1       591 1.09401E-04 5.36622E-06-1.43787E-25
 -1       592 1.09471E-04 5.11968E-06-2.06795E-25
 -1       593 1.09551E-04 4.84795E-06 4.13590E-25
 -1       594 1.09637E-04 4.55680E-06 0.00000E+00
 -1       595 1.09728E-04 4.25210E-06 0.00000E+00
 -1       596 1.09822E-04 3.93966E-06 4.13590E-25
 -1       597 1.09917E-04 3.62529E-06-4.13590E-25
 -1       598 1.10011E-04 3.31479E-06 0.00000E+00
 -1       599 1.10101E-04 3.01396E-06 4.13590E-25
 -1       600 1.10185E-04 2.72861E-06-2.06795E-25
 -1       601 1.10261E-04 2.46455E-06 4.13590E-25
 -1       602 1.10327E-04 2.22756E-06 2.06795E-25
 -1       603 1.10380E-04 2.02348E-06 0.00000E+00
 -1       604 1.10420E-04 1.85815E-06 0.00000E+00
 -1       605 1.10443E-04 1.73735E-06 0.00000E+00
 -1       606 1.10547E-04 1.41687E-06 3.30872E-24
 -1       607 1.10557E-04 1.72869E-06-1.65436E-24
 -1       608 1.10567E-04 2.13122E-06 0.00000E+00
 -1       609 1.10576E-04 2.61806E-06 0.00000E+00
 -1       610 1.10585E-04 3.18280E-06 0.00000E+00
 -1       611 1.10594E-04 3.81895E-06 0.00000E+00
 -1       612 1.10603E-04 4.52000E-06 0.00000E+00
 -1       613 1.10612E-04 5.27944E-06 0.00000E+00
 -1       614 1.10621E-04 6.09075E-06 0.00000E+00
 -1       615 1.10630E-04 6.94741E-06 0.00000E+00
 -1       616 1.10639E-04 7.84294E-06 0.00000E+00
 -1       617 1.10647E-04 8.77080E-06 0.00000E+00
 -1       618 1.10656E-04 9.72447E-06-8.27181E-25
 -1       619 1.10665E-04 1.06975E-05 0.00000E+00
 -1       620 1.10673E-04 1.16833E-05-4.13590E-25
 -1       621 1.10431E-04 1.27922E-06 0.00000E+00
 -1       622 1.10377E-04 1.35737E-06 0.00000E+00
 -1       623 1.10362E-04 1.43549E-06 0.00000E+00
 -1       624 1.10376E-04 1.51348E-06 0.00000E+00
 -1       625 1.10409E-04 1.59133E-06 0.00000E+00
 -1       626 1.10539E-04 1.44296E-06 0.00000E+00
 -1       627 1.10515E-04 1.76305E-06-1.65436E-24
 -1       628 1.10465E-04 2.15399E-06 3.30872E-24
 -1       629 1.10391E-04 2.60764E-06 0.00000E+00
 -1       630 1.10297E-04 3.11584E-06 0.00000E+00
 -1       631 1.10186E-04 3.67040E-06-1.65436E-24
 -1       632 1.10060E-04 4.26312E-06 0.00000E+00
 -1       633 1.09923E-04 4.88580E-06-1.65436E-24
 -1       634 1.09778E-04 5.53024E-06 3.30872E-24
 -1       635 1.09627E-04 6.18825E-06 0.00000E+00
 -1       636 1.09475E-04 6.85163E-06 0.00000E+00
 -1       637 1.09323E-04 7.51219E-06-1.65436E-24
 -1       638 1.09176E-04 8.16171E-06-3.30872E-24
 -1       639 1.09036E-04 8.79202E-06 0.00000E+00
 -1       640 1.08905E-04 9.39488E-06 1.65436E-24
 -1       656 1.09906E-04 1.22338E-05 0.00000E+00
 -1       657 1.09508E-04 1.17747E-05 0.00000E+00
 -1       658 1.09349E-04 1.13170E-05 0.00000E+00
 -1       659 1.09286E-04 1.08597E-05 0.00000E+00
 -1       660 1.09153E-04 1.04010E-05 0.00000E+00
 -1       661 1.10395E-04 1.36377E-05-8.27181E-25
 -1       662 1.10135E-04 1.45390E-05-8.27181E-25
 -1       663 1.09896E-04 1.53815E-05 0.00000E+00
 -1       664 1.09680E-04 1.61687E-05 8.27181E-25
 -1       665 1.09482E-04 1.69034E-05 0.00000E+00
 -1       666 1.09304E-04 1.75886E-05 0.00000E+00
 -1       667 1.09143E-04 1.82272E-05 0.00000E+00
 -1       668 1.08998E-04 1.88217E-05 0.00000E+00
 -1       669 1.08869E-04 1.93749E-05 0.00000E+00
 -1       670 1.08755E-04 1.98892E-05 0.00000E+00
 -1       671 1.08654E-04 2.03670E-05-1.65436E-24
 -1       672 1.08566E-04 2.08106E-05 0.00000E+00
 -1       673 1.08490E-04 2.12222E-05 0.00000E+00
 -1       674 1.08425E-04 2.16038E-05 0.00000E+00
 -1       675 1.08370E-04 2.19577E-05 0.00000E+00
 -1       676 1.09779E-04 2.27087E-05 3.30872E-24
 -1       677 1.09486E-04 2.26232E-05 0.00000E+00
 -1       678 1.09194E-04 2.25378E-05 0.00000E+00
 -1       679 1.08902E-04 2.24527E-05 0.00000E+00
 -1       680 1.08611E-04 2.23675E-05 0.00000E+00
 -1       771 1.68440E-05 5.51416E-06 0.00000E+00
 -1       772 1.17072E-05 1.57264E-05 2.64698E-23
 -1       773 7.38750E-06 2.38175E-05 0.00000E+00
 -1       774 3.83068E-06 2.99157E-05 0.00000E+00
 -1       775 9.83180E-07 3.41529E-05 0.00000E+00
 -1       776-1.21084E-06 3.66670E-05 2.64698E-23
 -1       777-2.80776E-06 3.75996E-05 0.00000E+00
 -1       778-3.86528E-06 3.70972E-05 0.00000E+00
 -1       779-4.44139E-06 3.53092E-05 0.00000E+00
 -1       780-4.59520E-06 3.23892E-05-2.64698E-23
 -1       781-4.38587E-06 2.84932E-05-5.29396E-23
 -1       782-3.87348E-06 2.37803E-05 0.00000E+00
 -1       783-3.11807E-06 1.84111E-05 0.00000E+00
 -1       784-2.18030E-06 1.25485E-05 1.32349E-23
 -1       785-1.12078E-06 6.35651E-06 0.00000E+00
 -1       786 1.09624E-04 5.31985E-06 0.00000E+00
 -1       787 1.09679E-04 4.94580E-06 0.00000E+00
 -1       788 1.09733E-04 4.59619E-06 0.00000E+00
 -1       789 1.09788E-04 4.26598E-06 8.27181E-25
 -1       790 1.09843E-04 3.95259E-06-1.65436E-24
 -1       791 1.09898E-04 3.65347E-06-8.27181E-25
 -1       792 1.09953E-04 3.36790E-06-1.65436E-24
 -1       793 1.10009E-04 3.09519E-06 0.00000E+00
 -1       794 1.10064E-04 2.83628E-06 0.00000E+00
 -1       795 1.10119E-04 2.59214E-06 8.27181E-25
 -1       796 1.10174E-04 2.36562E-06-1.65436E-24
 -1       797 1.10230E-04 2.15962E-06 0.00000E+00
 -1       798 1.10285E-04 1.97965E-06 0.00000E+00
 -1       799 1.10340E-04 1.83126E-06 0.00000E+00
 -1       800 1.10395E-04 1.72403E-06-1.65436E-24
 -1       801 1.01857E-04 4.97769E-06 0.00000E+00
 -1       802 7.78570E-05 3.95577E-06 6.61744E-24
 -1       803 4.72124E-05 2.77227E-06-2.64698E-23
 -1       804 1.97880E-05 1.67036E-06 1.32349E-23
 -1       805 2.01240E-06 7.68265E-07-2.64698E-23
 -1       806 1.09638E-04 5.26949E-06 0.00000E+00
 -1       807 1.09694E-04 4.83100E-06 1.65436E-24
 -1       808 1.09742E-04 4.41215E-06 0.00000E+00
 -1       809 1.09781E-04 4.01627E-06 1.65436E-24
 -1       810 1.09810E-04 3.64666E-06-3.30872E-24
 -1       811 1.09828E-04 3.30656E-06-8.27181E-25
 -1       812 1.09834E-04 2.99919E-06 0.00000E+00
 -1       813 1.09826E-04 2.72776E-06 0.00000E+00
 -1       814 1.09804E-04 2.49549E-06 1.65436E-24
 -1       815 1.09765E-04 2.30557E-06-8.27181E-25
 -1       816 1.09710E-04 2.16122E-06-3.30872E-24
 -1       817 1.09636E-04 2.06562E-06 0.00000E+00
 -1       818 1.09543E-04 2.02198E-06-1.65436E-24
 -1       819 1.09430E-04 2.03347E-06 0.00000E+00
 -1       820 1.09294E-04 2.10326E-06 1.65436E-24
 -1       821 1.10352E-04 1.59577E-06 0.00000E+00
 -1       822 1.10248E-04 1.44332E-06 8.27181E-25
 -1       823 1.10144E-04 1.28371E-06 3.30872E-24
 -1       824 1.10040E-04 1.19040E-06 0.00000E+00
 -1       825 1.09935E-04 1.22252E-06-3.30872E-24
 -1       826 1.09830E-04 1.43863E-06 0.00000E+00
 -1       827 1.09725E-04 1.85766E-06-3.30872E-24
 -1       828 1.09620E-04 2.49761E-06 0.00000E+00
 -1       829 1.09514E-04 3.32892E-06 3.30872E-24
 -1       830 1.09409E-04 4.32112E-06-1.65436E-24
 -1       831 1.09303E-04 5.40913E-06-3.30872E-24
 -1       832 1.09198E-04 6.52739E-06-1.65436E-24
 -1       833 1.09093E-04 7.60384E-06 0.00000E+00
 -1       834 1.08989E-04 8.56661E-06 0.00000E+00
 -1       835 1.08884E-04 9.36823E-06 8.27181E-25
 -1       836 1.10391E-04 1.76200E-06 0.00000E+00
 -1       837 1.10220E-04 1.85847E-06 0.00000E+00
 -1       838 1.09971E-04 1.95476E-06 0.00000E+00
 -1       839 1.09684E-04 2.05044E-06-8.27181E-25
 -1       840 1.09393E-04 2.14596E-06 0.00000E+00
 -1       856 1.08761E-04 1.05120E-05 4.13590E-25
 -1       857 1.08732E-04 1.11748E-05-1.03398E-25
 -1       858 1.08704E-04 1.19328E-05-4.13590E-25
 -1       859 1.08674E-04 1.27682E-05 0.00000E+00
 -1       860 1.08645E-04 1.36630E-05 8.27181E-25
 -1       861 1.08615E-04 1.45993E-05 4.13590E-25
 -1       862 1.08586E-04 1.55590E-05 8.27181E-25
 -1       863 1.08556E-04 1.65242E-05 0.00000E+00
 -1       864 1.08527E-04 1.74768E-05 8.27181E-25
 -1       865 1.08497E-04 1.83987E-05 0.00000E+00
 -1       866 1.08468E-04 1.92721E-05-8.27181E-25
 -1       867 1.08438E-04 2.00788E-05 0.00000E+00
 -1       868 1.08409E-04 2.08011E-05-8.27181E-25
 -1       869 1.08379E-04 2.14212E-05 4.13590E-25
 -1       870 1.08350E-04 2.19215E-05-8.27181E-25
 -1       871 1.08456E-04 9.96085E-06 8.27181E-25
 -1       872 1.08238E-04 9.95736E-06 0.00000E+00
 -1       873 1.08084E-04 9.95343E-06 0.00000E+00
 -1       874 1.07943E-04 9.94895E-06 5.16988E-26
 -1       875 1.07767E-04 9.94395E-06-2.06795E-25
 -1       876 1.08681E-04 1.05221E-05 0.00000E+00
 -1       877 1.08557E-04 1.11372E-05 0.00000E+00
 -1       878 1.08416E-04 1.18005E-05-3.30872E-24
 -1       879 1.08258E-04 1.25060E-05-1.65436E-24
 -1       880 1.08088E-04 1.32475E-05 0.00000E+00
 -1       881 1.07906E-04 1.40186E-05 1.65436E-24
 -1       882 1.07715E-04 1.48134E-05-3.30872E-24
 -1       883 1.07518E-04 1.56257E-05 0.00000E+00
 -1       884 1.07316E-04 1.64492E-05 0.00000E+00
 -1       885 1.07113E-04 1.72780E-05-1.65436E-24
 -1       886 1.06910E-04 1.81058E-05 0.00000E+00
 -1       887 1.06709E-04 1.89265E-05 1.65436E-24
 -1       888 1.06513E-04 1.97339E-05 3.30872E-24
 -1       889 1.06324E-04 2.05218E-05-8.27181E-25
 -1       890 1.06144E-04 2.12840E-05-8.27181E-25
 -1       891 1.08051E-04 2.22389E-05 0.00000E+00
 -1       892 1.07762E-04 2.21933E-05 0.00000E+00
 -1       893 1.07432E-04 2.21477E-05 8.27181E-25
 -1       894 1.07038E-04 2.21023E-05 4.13590E-25
 -1       895 1.06558E-04 2.20569E-05-6.20385E-25
 -1       956 1.09038E-04 2.49224E-06 0.00000E+00
 -1       957 1.08936E-04 2.81405E-06-8.27181E-25
 -1       958 1.08834E-04 3.19292E-06 0.00000E+00
 -1       959 1.08732E-04 3.62148E-06 0.00000E+00
 -1       960 1.08629E-04 4.09234E-06 0.00000E+00
 -1       961 1.08527E-04 4.59807E-06 1.65436E-24
 -1       962 1.08425E-04 5.13122E-06 0.00000E+00
 -1       963 1.08322E-04 5.68436E-06 0.00000E+00
 -1       964 1.08220E-04 6.25004E-06 3.30872E-24
 -1       965 1.08118E-04 6.82080E-06 0.00000E+00
 -1       966 1.08015E-04 7.38922E-06 0.00000E+00
 -1       967 1.07913E-04 7.94785E-06-1.65436E-24
 -1       968 1.07811E-04 8.48922E-06 0.00000E+00
 -1       969 1.07709E-04 9.00595E-06 0.00000E+00
 -1       970 1.07607E-04 9.49060E-06 0.00000E+00
 -1       971 1.07412E-04 1.03989E-05-3.30872E-24
 -1       972 1.07316E-04 1.09450E-05-1.65436E-24
 -1       973 1.07220E-04 1.15652E-05 1.65436E-24
 -1       974 1.07123E-04 1.22500E-05-8.27181E-25
 -1       975 1.07027E-04 1.29897E-05-3.30872E-24
 -1       976 1.06930E-04 1.37748E-05 0.00000E+00
 -1       977 1.06834E-04 1.45958E-05 0.00000E+00
 -1       978 1.06737E-04 1.54430E-05 0.00000E+00
 -1       979 1.06641E-04 1.63068E-05 0.00000E+00
 -1       980 1.06544E-04 1.71777E-05 0.00000E+00
 -1       981 1.06447E-04 1.80459E-05-3.30872E-24
 -1       982 1.06351E-04 1.89020E-05 1.65436E-24
 -1       983 1.06255E-04 1.97363E-05 0.00000E+00
 -1       984 1.06159E-04 2.05392E-05 0.00000E+00
 -1       985 1.06063E-04 2.13012E-05 0.00000E+00
 -3
    1PSTEP                        14           7           1          
  100CL  107 5.47852E-01         409                     0    7           1
 -4  STRESS      6    1
 -5  SXX         1    4    1    1
 -5  SYY         1    4    2    2
 -5  SZZ         1    4    3    3
 -5  SXY         1    4    1    2
 -5  SYZ         1    4    2    3
 -5  SZX         1    4    3    1
 -1         1-2.38172E+06-1.00489E+06-5.05506E+05-1.27098E+06 1.38243E-10-8.06176E-09
 -1         2 2.76581E+03-3.01960E+05 8.99214E+03-7.52730E+02-5.23244E-11 3.04205E-08
 -1         3-2.67970E+02-1.08932E+06 2.62216E+02-6.70159E+02-1.91093E-10-1.85064E-08
 -1         5-1.76274E+00 2.87211E+05 7.38963E+00 8.05360E-02 5.79919E-12 8.52674E-09
 -1         8-1.15864E+06-4.11953E+05-1.23167E+05-5.43683E+05 5.27507E-11-4.16912E-09
 -1         9-2.27407E+06-7.69906E+05-2.86962E+05-7.17867E+05 5.52391E-09-1.02562E-08
 -1        10-9.89567E+02-1.13487E+06-1.58174E+03-4.53515E+03-6.01631E-09-1.77067E-08
 -1        12 1.26956E+00 2.87227E+05 2.39261E+02 6.30901E-01 4.22453E-11 4.90174E-08
 -1        15 1.99645E+03 1.09717E+03 6.45353E+03 4.31538E+00-4.33715E-11-5.42797E-09
 -1        16-2.65890E+06-1.24008E+06-4.35366E+05-1.32733E+06 1.04192E-08-7.00432E-09
 -1        17-1.30777E+06-7.12187E+05-2.47442E+05-6.24691E+05-6.13800E-09-2.85218E-10
 -1        18-3.49858E+04-1.34044E+04-3.10181E+04-7.56512E+04 5.64125E-09-1.63755E-09
 -1        19 9.14934E+04 1.06718E+05-6.67235E+02 1.79274E+04-3.47973E-10-9.16771E-10
 -1        20-4.39740E+04-4.32719E+05-9.58571E+04 2.88080E+04 2.68346E-09 2.79094E-09
 -1        21-3.96536E+01-2.44617E+05-7.84035E+02-4.91339E+01-6.02412E-09 9.28406E-09
 -1        24-3.01661E+06-7.23619E+05-3.26760E+05-1.06930E+06-4.27875E-08-2.00234E-08
 -1        25-6.65401E+04-4.25964E+05-8.12130E+04-1.21074E+05 6.69388E-11 2.94312E-10
 -1        26-2.89943E+04 7.08253E+04-1.63514E+04-6.89058E+03 1.36861E-09 5.67026E-09
 -1        27-6.56807E+04-2.36266E+05-8.81738E+04 5.33355E+04 5.35927E-09-3.51065E-09
 -1        28 1.88558E+04-6.82381E+04 1.38599E+04 2.05806E+04 1.68501E-09 6.07056E-09
 -1        32-1.13075E+06-1.18981E+06 1.51252E+05-5.72030E+05-2.51530E-08 4.31166E-09
 -1        33-1.37195E+05 6.86455E+04 2.44624E+04-3.57437E+04 6.34164E-10-7.60034E-10
 -1        34-1.74922E+05-1.76945E+04 4.42428E+02 5.48432E+04 2.16353E-09 1.47156E-09
 -1        35-1.92016E+04-2.71087E+04-1.06736E+03 4.26134E+04 4.08515E-09 1.59343E-09
 -1        51 2.24458E+04-3.50411E+05 5.42719E+04-9.55643E+05 4.36557E-11-1.84809E-09
 -1        52 1.17341E+04-3.46397E+05 3.36089E+04-1.11451E+06 8.14907E-10-7.86531E-09
 -1        53 7.28942E+03-3.61104E+05 2.55781E+04-9.52272E+05 4.87489E-10-2.24099E-09
 -1        54 2.01090E+04-3.59519E+05 3.73442E+04-1.11799E+06-9.24047E-10-1.76951E-08
 -1        55 3.96877E+04-3.73299E+05 6.44278E+04-9.51719E+05 6.69388E-10 1.01572E-08
 -1        56-4.55010E+06-5.09136E+05-3.72114E+05-1.75850E+06 2.76486E-10 2.95404E-09
 -1        57-4.71376E+06-8.32570E+05-2.50985E+05-1.72818E+06 9.41327E-10 1.15870E-08
 -1        58-4.62450E+06-6.27638E+05-8.75015E+04-1.73551E+06-1.66619E-09-6.65386E-09
 -1        59-4.62797E+06-6.93113E+05-5.22400E+04-1.75502E+06-1.60617E-09-8.24366E-09
 -1        60-4.63489E+06-6.44637E+05-2.04048E+04-1.73294E+06 2.10821E-09-6.18093E-09
 -1        61-4.61787E+06-6.71187E+05-1.15661E+04-1.75562E+06 1.53295E-09-3.43425E-09
 -1        62-4.63435E+06-6.49070E+05-5.51373E+03-1.73502E+06-1.77238E-09 2.22119E-08
 -1        63-4.62174E+06-6.63165E+05-4.41343E+03-1.74950E+06-1.22213E-10 2.57106E-08
 -1        64-4.63092E+06-6.52644E+05-4.93015E+03-1.73903E+06 1.48566E-09 7.50970E-09
 -1        65-4.63047E+06-6.57542E+05-9.77036E+03-1.74057E+06-2.97405E-10-1.82883E-08
 -1        66-4.62562E+06-6.54760E+05-1.70906E+04-1.74391E+06-4.60886E-10 3.92538E-09
 -1        67-4.64831E+06-6.66346E+05-4.35084E+04-1.72931E+06-3.05818E-09 3.21015E-08
 -1        68-4.61329E+06-6.44249E+05-7.28897E+04-1.75020E+06 3.75621E-09 5.88625E-09
 -1        69-4.72419E+06-7.78154E+05-2.08976E+05-1.70218E+06-2.00089E-09-1.05210E-08
 -1        70-4.55069E+06-5.46198E+05-3.09898E+05-1.77004E+06 7.71252E-10 2.59024E-09
 -1        86-1.38664E+03-3.04747E+05 9.63870E+03 3.76356E+02 9.71795E-10-1.86191E-09
 -1        87 9.18911E+03-2.98896E+05 2.00953E+04-1.45227E+03 1.60981E-09 1.72679E-08
 -1        88-7.78684E+03-3.07811E+05 3.08081E+04 1.07592E+03 2.29011E-09-4.11347E-09
 -1        89 5.80204E+04-2.76347E+05 8.30028E+04-2.65645E+03 3.36604E-09-2.46760E-08
 -1        90-5.00441E+04-3.27272E+05 1.17399E+05 1.58093E+03 3.28873E-09-4.93191E-09
 -1       121-3.89888E+02-1.09034E+06 1.19133E+02 3.34289E+02 6.82789E-10 8.93124E-09
 -1       122-1.77260E+02-1.08928E+06 5.56074E+02-1.33897E+03-2.30482E-09 9.87166E-09
 -1       123-4.42366E+02-1.09041E+06 7.63838E+02 9.99968E+02 1.89164E-09-3.23780E-10
 -1       124 8.59513E+02-1.08871E+06 2.29058E+03-2.87646E+03-4.67321E-09-1.03864E-09
 -1       125-1.08692E+03-1.09099E+06 3.37545E+03 1.86882E+03 2.73212E-09 1.78115E-08
 -1       191-2.09756E+00 2.87237E+05 9.01386E+00-4.04039E-02 6.83482E-11 8.58086E-09
 -1       192-2.43994E+00 2.87212E+05 1.56369E+01 3.54793E-01 8.75744E-11-1.60935E-09
 -1       193-3.89888E+00 2.87236E+05 2.92560E+01-3.15460E-01 6.79563E-11-1.04137E-10
 -1       194-4.61959E+00 2.87214E+05 5.91225E+01 8.43812E-01 3.21192E-11-3.42516E-09
 -1       195-7.36074E+00 2.87234E+05 1.15822E+02-5.31928E-01 1.58330E-10 1.61256E-08
 -1       251-1.43354E+06 1.84503E+04-4.29364E+04-1.86991E+04-2.40760E-10 8.15635E-09
 -1       252-1.44919E+06-2.10877E+04-2.97216E+04 3.36382E+04 3.73063E-10 1.08857E-08
 -1       253-1.44410E+06 2.66274E+03-1.17909E+04-1.04403E+04-3.20370E-10 6.80620E-09
 -1       254-1.43588E+06-2.97902E+03-5.36377E+03 6.76544E+03-7.24015E-10 3.74268E-09
 -1       255-1.44651E+06 9.60641E+01-3.76361E+03 8.17367E+03-9.83391E-10 1.03745E-08
 -1       256-1.43789E+06-2.10691E+02-6.75271E+02-2.46376E+04 7.15431E-10 4.13672E-09
 -1       257-1.44229E+06 8.06276E+01-6.57503E+02 2.09627E+04-1.22421E-09-2.31972E-09
 -1       258-1.44034E+06 1.92127E+02 1.52180E+02-3.33308E+04-9.65102E-10 1.48358E-09
 -1       259-1.44422E+06-1.58443E+02-3.20883E+02 1.68683E+04-1.69064E-09 7.35436E-09
 -1       260-1.43492E+06 5.35489E+02 1.96609E+03-1.17927E+04 2.34536E-10 8.38611E-10
 -1       261-1.44738E+06-5.50219E+02-2.95775E+01-5.77368E+02 3.76190E-10 1.45983E-08
 -1       262-1.43540E+06 1.55562E+03 3.86824E+03 2.12900E+04 4.30703E-10 6.94740E-10
 -1       263-1.44381E+06-1.11738E+03 4.03549E+03-1.62133E+04-1.84633E-09 7.61702E-09
 -1       264-1.43653E+06 8.51137E+03 1.20107E+04 3.71757E+04-9.64774E-09 1.64637E-08
 -1       265-1.44651E+06-7.24865E+03 1.62124E+04-1.64641E+04-4.24848E-09-4.55202E-09
 -1       266-3.61413E+04-1.68970E+04 8.48106E+04-9.23477E+01 2.00089E-10 1.79138E-08
 -1       267 4.18990E+04 1.96980E+04 5.99364E+04 1.06536E+02 1.23691E-10 3.63119E-09
 -1       268-5.61852E+03-2.78956E+03 2.22785E+04-1.35754E+01 8.00355E-11 1.65133E-08
 -1       269 6.63389E+03 3.33876E+03 1.44803E+04 1.58124E+01-1.86446E-11 8.37663E-09
 -1       270-9.95753E+02-5.48572E+02 6.98985E+03-2.14589E+00 1.40972E-11 1.67070E-08
 -1       271-3.37174E+06-4.21653E+05-2.55367E+05-1.31306E+06-1.30967E-10 3.85626E-09
 -1       272-3.46150E+06-6.09909E+05-1.64206E+05-1.31281E+06 1.64516E-09 8.46376E-09
 -1       273-3.42100E+06-4.84144E+05-6.03298E+04-1.30029E+06 2.09775E-09-8.62201E-10
 -1       274-3.40310E+06-5.34051E+05-3.37392E+04-1.33282E+06 7.95808E-11 8.27367E-09
 -1       275-3.42929E+06-4.89053E+05-1.40561E+04-1.29644E+06-2.09002E-09-5.70617E-09
 -1       276-3.39266E+06-5.28971E+05-7.43180E+03-1.33943E+06-6.88033E-10-1.50958E-08
 -1       277-3.43181E+06-4.88056E+05-3.65809E+03-1.29436E+06 1.51431E-10 1.36811E-09
 -1       278-3.38964E+06-5.30494E+05-2.62163E+03-1.34271E+06-5.32054E-10 1.97926E-08
 -1       279-3.43266E+06-4.87226E+05-2.79305E+03-1.29344E+06-1.73759E-09-1.36508E-08
 -1       280-3.38958E+06-5.31661E+05-5.11224E+03-1.34338E+06-1.61502E-09-5.80758E-09
 -1       281-3.43197E+06-4.86874E+05-9.29638E+03-1.29373E+06 1.32491E-09 7.62338E-09
 -1       282-3.39513E+06-5.36439E+05-2.22974E+04-1.34078E+06-1.16518E-09-5.80258E-09
 -1       283-3.42702E+06-4.83127E+05-3.97092E+04-1.29571E+06-2.56932E-11-5.28235E-09
 -1       284-3.43295E+06-5.87005E+05-1.08209E+05-1.32818E+06-5.26370E-10-3.65981E-09
 -1       285-3.39464E+06-4.41958E+05-1.68264E+05-1.30407E+06-2.31012E-10-5.42059E-09
 -1       301 2.22835E+04-6.30960E+04 1.63926E+05-1.19641E+05-5.74801E-10 4.65525E-09
 -1       302 2.33760E+04-2.16180E+04 1.07864E+05-1.75736E+05 5.01586E-10-4.57203E-09
 -1       303 1.16311E+03-4.67674E+04 8.31066E+04-1.19668E+05-7.55790E-10 4.24006E-09
 -1       304 2.75657E+04-1.70415E+04 1.22257E+05-1.75287E+05 9.78616E-10 1.05774E-09
 -1       305 2.65257E+04-6.65400E+04 1.95719E+05-1.20142E+05-5.60249E-10 4.51109E-10
 -1       306-6.01059E+06-6.07633E+05-4.67915E+05-2.16827E+06-1.38971E-09-1.23109E-08
 -1       307-5.56089E+06-1.35133E+06-2.68435E+05-2.57775E+06-4.81632E-08 1.80880E-08
 -1       308-6.17693E+06-5.65728E+05-1.07031E+05-1.92309E+06-5.40058E-09 1.63345E-08
 -1       309-5.42160E+06-1.35767E+06-5.58671E+04-2.88377E+06 2.23464E-08 1.23105E-08
 -1       310-6.19362E+06-5.65671E+05-2.42085E+04-1.89398E+06-1.24182E-08 1.61572E-09
 -1       311-5.42739E+06-1.22157E+06 6.29486E+03-2.70490E+06 4.57894E-08 3.29742E-08
 -1       312-6.13945E+06-7.25019E+05-3.33540E+04-2.08032E+06 3.60160E-09 1.86046E-08
 -1       313-5.63635E+06-8.69994E+05 3.56481E+04-2.22403E+06-5.23869E-09-2.95404E-08
 -1       314-5.93917E+06-9.50340E+05-4.05606E+04-2.33984E+06 1.45010E-08-6.75755E-09
 -1       315-6.12525E+06-4.67544E+05 1.33368E+04-1.80888E+06-8.57835E-09 1.54114E-08
 -1       316-5.67867E+06-1.10630E+06-3.48157E+04-2.51427E+06-5.05315E-08-3.21343E-08
 -1       317-6.50910E+06-2.73287E+05-6.48333E+04-1.63700E+06 4.33329E-08-1.97060E-08
 -1       318-5.60192E+06-1.11157E+06-1.16973E+05-2.54959E+06-5.19212E-08 6.04632E-09
 -1       319-6.45796E+06-5.61201E+05-3.23733E+05-1.66792E+06-1.68402E-08-4.54020E-09
 -1       320-5.70907E+06-8.37343E+05-5.28124E+05-2.46400E+06 1.97033E-08-6.69388E-10
 -1       336 5.60132E+02-1.18035E+06-6.70860E+03 2.65324E+03-1.15706E-08 2.62662E-09
 -1       337-2.48219E+03-1.18153E+06-7.46193E+03-6.52630E+03-2.15216E-08-4.59931E-09
 -1       338 3.87053E+02-1.18049E+06-9.89049E+03 3.84902E+03-1.56692E-08-5.93172E-09
 -1       339-1.02280E+04-1.18654E+06-2.16451E+04-8.86474E+03-2.81625E-08 3.66708E-09
 -1       340 6.78020E+03-1.17566E+06-3.35962E+04 4.97109E+03-1.82463E-08 1.43227E-08
 -1       406 1.97197E+01 2.87224E+05 4.72541E+02-1.04205E-01 2.25981E-10 3.02105E-08
 -1       407 1.65938E+02 2.87309E+05 1.00391E+03-3.27204E+00 1.83533E-10 7.20377E-09
 -1       408 5.18160E+02 2.87151E+05 2.00523E+03 3.45814E+00 2.10662E-10-2.21348E-09
 -1       409 2.16904E+03 2.87950E+05 4.51390E+03-3.41468E+01-7.73070E-12 1.55387E-09
 -1       410 6.22976E+03 2.86581E+05 9.21508E+03 3.21660E+01 1.80080E-10-4.93492E-09
 -1       521-8.36090E+06-8.16759E+05-8.52202E+05-2.52552E+06-1.02591E-08 9.28412E-09
 -1       522-5.34010E+06-2.16006E+06-1.61272E+05-4.10545E+06-9.84146E-08-3.27091E-08
 -1       523-8.26119E+06-2.71417E+05-1.61322E+05-1.66413E+06 6.15546E-09-5.91681E-08
 -1       524-5.90393E+06-2.35860E+06-2.47487E+04-5.26097E+06 1.14782E-07-1.25881E-07
 -1       525-8.25906E+06-2.72681E+05-4.81368E+04-1.63682E+06 5.17539E-08-6.36410E-08
 -1       526-5.26505E+06-2.00661E+06 1.74645E+05-4.23900E+06 1.56142E-08-1.46247E-08
 -1       527-8.47096E+06-9.40203E+05-2.70578E+05-2.44196E+06-2.61498E-08-2.01471E-08
 -1       528-5.35527E+06-8.35337E+05 3.42928E+05-2.16376E+06-2.51457E-08 6.93035E-09
 -1       529-7.74750E+06-1.73906E+06-2.91362E+05-3.35431E+06 3.82715E-09-1.82263E-08
 -1       530-7.73974E+06 6.44540E+05 2.01427E+05-1.10745E+06-8.92469E-08 8.09341E-08
 -1       531-6.49008E+06-2.12207E+06-6.87750E+04-3.74038E+06-1.57772E-07-2.28247E-08
 -1       532-9.56027E+06 1.30961E+06-1.88627E+04-1.09278E+06 8.67149E-08-1.20292E-07
 -1       533-6.33720E+06-2.12581E+06-1.33246E+05-3.76395E+06 2.17769E-08-1.72422E-07
 -1       534-8.31542E+06 6.63349E+05-1.64628E+05-1.04014E+06-4.34302E-08 1.31346E-07
 -1       535-7.43055E+06-1.68502E+06-7.96092E+05-3.48896E+06-1.46101E-08 8.55362E-08
 -1       536-4.03608E+05-2.11570E+04 3.38139E+04-1.51973E+04-3.56283E-09 2.16351E-08
 -1       537-3.26205E+05 2.35205E+04 3.48982E+04 3.69137E+04-3.82112E-08 3.62543E-08
 -1       538-3.65970E+05-2.08491E+03 1.05722E+04-2.26468E+04 5.61174E-09 3.55635E-08
 -1       539-3.49629E+05 3.21110E+03 9.15633E+03 4.09152E+04 5.87070E-08 2.17228E-08
 -1       540-3.80573E+05-5.54279E+02-4.27773E+02-1.92115E+04 2.99485E-09 2.69138E-08
 -1       541-3.01299E+05 2.46837E+03 1.41111E+04 2.39956E+04-1.53178E-08 4.71276E-08
 -1       542-4.12992E+05-2.40635E+03-9.23695E+03-5.69639E+03 8.63452E-09 2.59237E-08
 -1       543-2.78072E+05 2.99481E+03 1.74199E+04-6.38513E+03 5.94855E-09-3.04851E-09
 -1       544-4.03184E+05-1.58150E+03-8.25053E+03 1.11407E+04 9.30186E-10-1.25720E-08
 -1       545-3.23776E+05 3.46621E+02 6.65844E+03-3.33178E+04-5.51290E-09-2.53424E-08
 -1       546-3.68485E+05 1.21170E+03-3.33765E+03 2.12293E+04 6.36805E-09-2.43650E-08
 -1       547-3.56634E+05-3.51314E+03-4.92062E+03-4.26102E+04-4.57047E-08-2.55977E-08
 -1       548-3.71161E+05 2.95339E+03-1.22374E+04 2.04567E+04-3.82677E-08-2.79483E-08
 -1       549-3.23701E+05-1.63974E+04-1.86572E+04-3.02948E+04-2.38467E-08-3.63207E-09
 -1       550-4.00372E+05 1.32344E+04-5.09116E+04 8.88644E+03 1.31467E-09-1.05683E-08
 -1       551 1.88840E+04-6.04496E+05 2.48324E+04-1.00189E+06-4.90327E-08-7.27596E-09
 -1       552 4.26694E+04-6.17548E+05 3.23221E+04-1.42717E+06-3.67727E-08 1.46101E-08
 -1       553 3.04939E+04-6.23426E+05 4.69697E+04-9.98077E+05-6.10453E-08 1.28275E-08
 -1       554 6.98747E+04-6.14368E+05 9.82159E+04-1.42864E+06-3.70710E-08 8.40555E-09
 -1       555 5.87868E+04-6.42127E+05 1.74193E+05-9.99048E+05-6.05651E-08-6.41376E-09
 -1       556 1.06173E+05-1.95921E+05 6.42675E+04-2.46166E+05-7.58155E-09-1.30967E-08
 -1       557 1.85404E+05-2.59774E+05 3.40700E+04-3.09701E+05-1.62981E-09-1.50467E-08
 -1       558 1.03940E+05-2.03391E+05 1.32932E+04-2.39819E+05-5.66070E-09-8.07631E-10
 -1       559 1.72341E+05-2.67872E+05 6.89923E+03-3.16169E+05 7.55972E-09 6.56382E-09
 -1       560 9.99974E+04-2.00842E+05 2.57394E+03-2.42454E+05 9.63337E-09 1.14123E-08
 -1       561 1.66735E+05-2.66095E+05 1.48002E+03-3.19772E+05 7.40692E-09-1.65892E-09
 -1       562 9.68691E+04-1.98810E+05 4.24112E+02-2.44701E+05 2.98314E-10-1.52977E-09
 -1       563 1.63061E+05-2.64503E+05 3.62538E+02-3.22129E+05-1.38825E-08 2.94108E-10
 -1       564 9.48250E+04-1.97511E+05 9.05968E+01-2.46147E+05-3.87081E-09-1.41035E-08
 -1       565 1.60971E+05-2.63598E+05 1.20151E+02-3.23450E+05 4.02360E-09-1.24332E-08
 -1       566 9.39161E+04-1.96925E+05 1.73820E+01-2.46790E+05-7.44149E-09-1.13632E-08
 -1       567 1.60421E+05-2.63347E+05-5.91058E+01-3.23715E+05 1.11747E-08 2.63390E-09
 -1       568 9.41845E+04-1.97105E+05-3.09491E+02-2.46683E+05-6.22822E-09-8.73115E-10
 -1       569 1.60611E+05-2.63234E+05-7.48811E+02-3.22177E+05-6.73026E-09 1.82699E-08
 -1       570 9.62923E+04-1.98855E+05-1.76666E+03-2.46425E+05-2.74304E-09-6.79483E-09
 -1       571 2.13693E+05 7.87210E+03 1.16141E+04-5.54752E+04-6.35282E-10 1.46883E-09
 -1       572 2.15416E+05 2.76539E+03 5.69043E+03-6.08329E+04-2.73621E-09 7.91897E-09
 -1       573 2.14383E+05 6.86483E+02 2.52805E+03-5.53432E+04-8.34007E-10 1.06561E-08
 -1       574 2.14583E+05 2.52829E+02 1.26684E+03-6.09832E+04 2.95768E-09 6.22867E-09
 -1       575 2.14459E+05 6.66508E+01 5.97319E+02-5.53257E+04-4.96766E-09 3.08728E-09
 -1       576 2.14471E+05 4.92258E+01 3.04558E+02-6.10033E+04-1.86285E-08-5.15092E-09
 -1       577 2.14474E+05 3.15760E+01 1.50824E+02-5.53234E+04-7.63202E-09 3.56749E-09
 -1       578 2.14465E+05 3.59611E+01 8.39642E+01-6.10058E+04-5.91854E-10 1.90721E-09
 -1       579 2.14493E+05 2.52351E+01 5.41671E+01-5.53233E+04-2.07365E-10 2.54659E-11
 -1       580 2.14492E+05 2.44442E+01 5.56374E+01-6.10026E+04-5.08953E-09 2.22963E-09
 -1       581 2.14525E+05 1.20924E+01 8.04200E+01-5.53266E+04 5.19412E-09 4.06180E-09
 -1       582 2.14549E+05 2.60637E+01 1.57664E+02-6.09684E+04 1.54032E-08-1.51886E-10
 -1       583 2.14563E+05 6.02468E+01 3.04150E+02-5.53574E+04 8.29823E-09-6.71275E-09
 -1       584 2.14708E+05 2.99936E+02 6.83736E+02-6.07100E+04-1.63709E-10-1.03971E-08
 -1       585 2.14533E+05 8.99558E+02 1.38859E+03-5.55855E+04 2.25100E-09-1.61162E-09
 -1       586-2.58345E+03 7.03950E+04-3.23464E+03-1.90696E+05-5.55701E-10-2.82512E-10
 -1       587-5.85690E+02 6.99850E+04-1.47233E+02-2.09883E+05 2.91038E-10 3.18789E-09
 -1       588 7.31446E+02 7.00364E+04 2.82217E+03-1.90598E+05-4.62023E-10-6.10635E-09
 -1       589 3.89817E+03 7.15684E+04 7.92464E+03-2.09676E+05-6.22094E-10-2.46055E-08
 -1       590 1.13967E+04 6.91429E+04 1.68607E+04-1.90913E+05-5.01132E-10-6.42285E-09
 -1       591-4.49756E+04-1.21279E+04-1.51439E+04-2.23019E+04 2.50805E-09 6.28279E-09
 -1       592-4.67693E+04-1.54725E+04-8.20275E+03-2.58247E+04-9.57925E-10 3.88809E-09
 -1       593-4.65012E+04-1.10177E+04-3.41475E+03-2.34015E+04-2.31239E-10-6.67592E-09
 -1       594-4.46649E+04-1.32651E+04-1.70310E+03-2.59221E+04-1.69325E-09 7.78078E-09
 -1       595-4.66180E+04-1.10130E+04-7.82497E+02-2.34518E+04-1.31593E-10 1.94210E-08
 -1       596-4.45220E+04-1.31640E+04-3.98632E+02-2.59066E+04 1.40349E-09 1.22615E-08
 -1       597-4.66328E+04-1.10230E+04-2.18884E+02-2.34537E+04-4.25409E-09-1.17017E-08
 -1       598-4.45082E+04-1.31602E+04-1.79294E+02-2.59022E+04-2.22869E-09-3.87368E-09
 -1       599-4.66316E+04-1.10231E+04-2.33199E+02-2.34533E+04 5.98106E-10-8.14907E-10
 -1       600-4.45230E+04-1.31652E+04-4.36537E+02-2.59058E+04 1.14142E-10 5.99107E-09
 -1       601-4.66133E+04-1.10129E+04-8.62946E+02-2.34504E+04 2.57546E-09 8.28322E-10
 -1       602-4.46806E+04-1.32766E+04-1.88159E+03-2.59205E+04 6.84281E-10-1.07477E-08
 -1       603-4.64824E+04-1.10201E+04-3.77389E+03-2.33951E+04 1.52727E-09 7.24640E-10
 -1       604-4.70158E+04-1.57053E+04-9.06543E+03-2.57987E+04 4.12001E-10-1.79944E-09
 -1       605-4.47842E+04-1.22567E+04-1.67366E+04-2.21905E+04 2.16460E-09 8.38554E-09
 -1       606 2.77954E+04-1.02616E+04-1.84570E+04 2.69409E+04-1.54068E-09-3.39696E-09
 -1       607 2.46357E+04-3.31949E+03-9.19059E+03 3.02460E+04-4.74756E-10-6.10203E-09
 -1       608 2.64272E+04-5.68904E+02-4.11575E+03 2.67284E+04 4.91127E-10-9.38826E-10
 -1       609 2.60715E+04-1.57208E+02-2.07870E+03 3.04831E+04-2.98314E-10 4.56407E-09
 -1       610 2.62609E+04 1.60620E+01-9.92928E+02 2.67045E+04-3.93084E-09-2.01567E-09
 -1       611 2.61946E+04 2.86166E+01-5.00648E+02 3.05090E+04-6.52017E-09-1.48050E-08
 -1       612 2.62160E+04 3.27917E+01-2.39326E+02 2.67022E+04-2.93403E-09-2.73212E-09
 -1       613 2.61915E+04 3.79395E+01-1.08475E+02 3.05120E+04-3.36422E-09 1.89266E-09
 -1       614 2.61913E+04 3.38134E+01-2.90076E+01 2.67014E+04-4.72937E-11 1.41267E-09
 -1       615 2.61786E+04 4.39908E+01 3.72178E+01 3.05125E+04 3.20551E-09 5.50631E-09
 -1       616 2.61725E+04 4.01492E+01 1.19130E+02 2.67016E+04-4.46744E-09-9.47284E-09
 -1       617 2.61862E+04 7.35623E+01 2.74973E+02 3.05119E+04-8.93124E-10-1.35351E-08
 -1       618 2.61436E+04 1.22631E+02 5.55282E+02 2.67018E+04 2.37833E-10-3.23575E-09
 -1       619 2.63781E+04 5.05555E+02 1.24772E+03 3.05111E+04 4.09932E-09 2.80716E-09
 -1       620 2.59565E+04 1.44183E+03 2.50802E+03 2.67007E+04 3.05783E-09 2.20780E-09
 -1       621 2.95555E+02 2.23774E+05 2.66122E+03 1.21641E+04-8.12861E-11 1.25669E-08
 -1       622 3.51066E+02 2.24429E+05 2.38689E+03 1.77205E+04-5.27507E-11 8.71796E-09
 -1       623 1.82456E+01 2.23942E+05 2.91160E+03 1.21062E+04-8.11724E-11 1.22157E-08
 -1       624 1.36665E+03 2.25353E+05 5.67452E+03 1.77790E+04-1.41398E-10 5.01586E-09
 -1       625 1.37364E+03 2.22833E+05 9.93341E+03 1.21053E+04-1.29148E-10 2.06319E-09
 -1       626 1.92478E+05 5.16680E+04 4.05651E+03 1.01681E+05-1.09449E-08 6.15000E-09
 -1       627 1.90079E+05 5.33368E+04 1.95481E+03 1.05693E+05-2.35777E-08 3.20938E-10
 -1       628 1.92610E+05 4.97716E+04 8.25762E+02 1.02319E+05-4.22096E-09 1.23196E-08
 -1       629 1.89518E+05 5.28500E+04 4.04528E+02 1.05932E+05 2.46700E-09 3.27509E-09
 -1       630 1.92617E+05 4.96825E+04 1.86897E+02 1.02338E+05 4.06544E-10-5.28610E-09
 -1       631 1.89450E+05 5.28372E+04 1.00096E+02 1.05932E+05-2.77851E-10 2.10770E-09
 -1       632 1.92608E+05 4.96896E+04 6.50309E+01 1.02330E+05-2.51066E-09-4.69896E-09
 -1       633 1.89436E+05 5.28425E+04 7.12213E+01 1.05924E+05-3.68709E-09-1.51906E-08
 -1       634 1.92598E+05 4.96905E+04 1.13932E+02 1.02325E+05 7.41466E-09 2.72644E-09
 -1       635 1.89442E+05 5.28440E+04 2.30092E+02 1.05924E+05 4.24109E-09 2.93653E-08
 -1       636 1.92586E+05 4.96892E+04 4.64281E+02 1.02322E+05-1.45275E-09 3.07114E-09
 -1       637 1.89537E+05 5.29175E+04 1.02024E+03 1.05920E+05 1.65119E-09-1.08357E-08
 -1       638 1.92547E+05 4.99161E+04 2.09650E+03 1.02218E+05 2.38083E-09-3.48064E-09
 -1       639 1.90636E+05 5.44496E+04 4.95973E+03 1.05594E+05 5.58884E-10-5.14774E-09
 -1       640 1.92400E+05 5.44825E+04 1.02925E+04 1.00282E+05-3.80169E-10-3.62479E-09
 -1       656 5.12821E+04-1.30121E+06-1.23793E+05-4.61348E+02 1.81899E-10 1.09786E-08
 -1       657-6.77867E+04-1.35709E+06-1.02425E+05 7.59224E+03-2.57387E-10 1.68323E-08
 -1       658 1.62861E+04-1.31713E+06-6.29160E+04-1.84575E+03 2.93312E-10 2.44529E-09
 -1       659-7.28526E+04-1.35949E+06-1.09079E+05 8.56249E+03-2.47383E-10 3.33939E-09
 -1       660 5.63363E+04-1.29881E+06-1.35236E+05-1.43159E+03-7.42148E-10-7.01469E-09
 -1       661 1.69145E+05 1.83179E+04 1.65018E+04 6.61387E+04 2.22326E-09 6.32372E-09
 -1       662 1.77905E+05 3.10984E+04 1.11197E+04 6.30842E+04-1.00141E-09 1.65119E-09
 -1       663 1.72382E+05 2.36149E+04 3.88965E+03 6.52021E+04-1.91142E-09-7.04040E-09
 -1       664 1.74156E+05 2.48998E+04 2.32578E+03 6.42247E+04 1.30987E-09-1.34303E-08
 -1       665 1.72869E+05 2.43423E+04 9.17456E+02 6.50639E+04-6.00551E-10 5.76367E-09
 -1       666 1.73584E+05 2.40648E+04 5.35434E+02 6.44030E+04-5.88328E-09 8.60468E-09
 -1       667 1.72952E+05 2.44280E+04 2.82741E+02 6.50319E+04-8.18943E-10 6.47561E-09
 -1       668 1.73494E+05 2.39990E+04 2.84316E+02 6.44493E+04 4.05929E-09-2.32376E-10
 -1       669 1.72958E+05 2.44061E+04 3.81800E+02 6.50182E+04 5.03597E-09-4.51922E-09
 -1       670 1.73589E+05 2.42031E+04 8.28487E+02 6.44505E+04 4.21721E-09-6.39170E-09
 -1       671 1.72858E+05 2.42280E+04 1.47005E+03 6.50291E+04 1.28840E-09 1.15699E-09
 -1       672 1.74445E+05 2.56334E+04 3.76033E+03 6.42438E+04-1.19521E-09-4.45448E-09
 -1       673 1.72106E+05 2.30118E+04 6.30140E+03 6.52111E+04-7.93989E-10-7.57314E-09
 -1       674 1.80444E+05 3.57554E+04 1.80206E+04 6.24800E+04-2.42403E-09 2.58660E-09
 -1       675 1.66897E+05 1.43890E+04 2.67485E+04 6.66862E+04 1.50339E-09-3.96540E-10
 -1       676 2.03457E+01-2.44552E+05-9.44965E+02 2.45675E+01-2.17665E-09 4.64744E-09
 -1       677-2.50915E+02-2.44780E+05-1.72941E+03-4.91063E+01-1.24720E-09-6.70643E-09
 -1       678 1.67521E+02-2.44389E+05-3.05714E+03 2.45219E+01 5.52859E-10 1.76615E-09
 -1       679-3.05796E+03-2.46626E+05-7.26233E+03-4.89316E+01-3.96540E-09-2.81324E-09
 -1       680 1.82501E+03-2.42707E+05-1.17044E+04 2.41141E+01 1.61072E-09-8.53044E-09
 -1       771-2.60438E+06-5.03800E+05-7.38251E+04-1.13137E+06-1.51704E-08-1.26456E-08
 -1       772-2.57330E+06-5.50064E+05-3.90144E+04-1.18375E+06-1.30676E-08 5.32782E-09
 -1       773-2.61659E+06-4.94178E+05-1.79515E+04-1.13573E+06-1.11468E-08 1.22964E-09
 -1       774-2.56443E+06-5.42185E+05-8.43628E+03-1.19168E+06 1.06229E-08 4.72937E-11
 -1       775-2.62108E+06-4.91019E+05-5.04758E+03-1.13675E+06-2.79397E-09 4.84215E-09
 -1       776-2.56597E+06-5.42100E+05-2.10985E+03-1.19688E+06-5.58794E-09 2.37196E-09
 -1       777-2.62467E+06-4.88375E+05-1.80879E+03-1.13761E+06-1.94996E-09-1.15688E-09
 -1       778-2.56800E+06-5.42171E+05-6.14917E+02-1.20127E+06 3.51065E-09 4.88944E-09
 -1       779-2.62764E+06-4.86121E+05-8.23822E+02-1.13836E+06-2.43745E-09-4.18004E-09
 -1       780-2.56983E+06-5.42188E+05-2.67986E+02-1.20483E+06-3.53612E-09-7.91260E-11
 -1       781-2.62994E+06-4.84330E+05-5.10145E+02-1.13894E+06-1.45519E-08-8.78572E-10
 -1       782-2.57128E+06-5.42183E+05-4.25840E+02-1.20744E+06-1.82918E-08-3.15208E-09
 -1       783-2.63150E+06-4.83120E+05-8.83946E+02-1.13935E+06-5.71163E-09-8.26253E-09
 -1       784-2.57264E+06-5.42647E+05-1.86915E+03-1.20900E+06-1.04119E-08 4.73392E-10
 -1       785-2.63196E+06-4.82755E+05-3.50248E+03-1.13931E+06-1.65601E-08 2.46837E-09
 -1       786 1.53831E+05-9.43318E+03 2.18237E+04-8.46259E+01 1.21228E-09 1.05147E-08
 -1       787 1.63291E+05 1.09207E+04 1.54396E+04 2.12315E+01 2.16883E-09 1.02661E-08
 -1       788 1.57480E+05-1.47872E+03 5.64780E+03-6.46466E+01 1.09630E-09 5.78439E-09
 -1       789 1.59040E+05 1.71088E+03 3.54756E+03-1.13957E+01 2.76755E-10 1.63311E-10
 -1       790 1.58082E+05-2.30882E+02 1.44119E+03-5.20014E+01-2.18710E-10 7.38396E-10
 -1       791 1.58337E+05 2.67598E+02 8.41732E+02-3.40562E+01-1.30443E-09 8.88731E-09
 -1       792 1.58183E+05-3.65203E+01 3.75411E+02-4.19862E+01-5.11166E-10-3.33145E-10
 -1       793 1.58221E+05 4.70585E+01 2.28183E+02-5.42478E+01 4.08709E-10 1.78080E-09
 -1       794 1.58199E+05-1.04857E+01 1.41778E+02-3.18094E+01 8.74705E-10-1.11169E-08
 -1       795 1.58217E+05 4.37308E+01 1.65702E+02-7.74178E+01-8.04437E-10-2.67512E-09
 -1       796 1.58187E+05-3.31911E+01 2.24388E+02-1.88159E+01 8.31136E-10-9.87844E-09
 -1       797 1.58312E+05 2.40959E+02 5.09389E+02-1.09577E+02 4.03716E-10-6.09297E-09
 -1       798 1.58103E+05-2.07571E+02 7.97680E+02 3.50181E-01 9.55915E-11-3.59660E-09
 -1       799 1.58909E+05 1.53232E+03 2.16900E+03-1.59128E+02 6.13385E-10-3.05874E-09
 -1       800 1.57591E+05-1.32352E+03 3.06214E+03 3.07365E+01-1.65912E-11 9.68248E-09
 -1       801 6.17011E+04-2.20433E+06-2.02035E+05 3.87206E+04 1.57961E-08-4.85988E-09
 -1       802-7.11831E+04-2.01885E+06-8.54790E+04-5.72925E+04 4.35539E-08-9.84517E-09
 -1       803 8.26583E+03-2.10565E+06-2.33218E+04 1.02977E+05 3.37277E-08 3.01628E-08
 -1       804 3.85495E+04-1.97407E+06 5.87153E+04-2.88437E+04 3.51847E-08 3.12831E-08
 -1       805-4.89669E+04-2.24853E+06 5.09100E+04 1.02635E+04 1.31986E-08 1.98215E-08
 -1       806-2.34316E+05-4.65391E+04-1.82074E+04-9.38413E+04 2.35104E-10 7.34326E-09
 -1       807-2.35718E+05-4.36001E+04-8.94502E+03-9.82888E+04 2.16369E-09 1.15526E-08
 -1       808-2.34814E+05-3.99803E+04-3.79462E+03-9.69490E+04 2.46291E-09 5.19270E-09
 -1       809-2.33830E+05-4.10947E+04-1.85533E+03-9.85196E+04-2.93812E-09 6.66364E-09
 -1       810-2.34891E+05-3.97508E+04-8.49913E+02-9.70866E+04 1.71622E-09 1.35651E-09
 -1       811-2.33685E+05-4.09943E+04-4.22091E+02-9.84940E+04 4.47267E-09 1.64289E-09
 -1       812-2.34904E+05-3.97692E+04-2.12000E+02-9.70864E+04-3.05590E-10-8.64884E-09
 -1       813-2.33666E+05-4.09962E+04-1.35701E+02-9.84810E+04-1.37334E-10-1.76294E-09
 -1       814-2.34900E+05-3.97760E+04-1.30779E+02-9.70836E+04 5.73891E-10 1.92426E-09
 -1       815-2.33669E+05-4.09980E+04-2.07793E+02-9.84770E+04 6.43468E-10 3.62525E-09
 -1       816-2.34887E+05-3.97745E+04-3.91552E+02-9.70812E+04-1.76806E-09 8.63520E-09
 -1       817-2.33736E+05-4.10353E+04-8.40042E+02-9.84699E+04 3.16049E-10-1.62936E-09
 -1       818-2.34837E+05-3.98920E+04-1.71262E+03-9.70255E+04-2.09184E-09-1.38366E-08
 -1       819-2.34676E+05-4.20683E+04-4.03042E+03-9.82478E+04-8.29914E-10-2.91948E-09
 -1       820-2.34518E+05-4.29337E+04-8.20288E+03-9.57215E+04-3.11775E-09 1.66779E-10
 -1       821-2.93080E+05 1.62122E+04-3.74936E+04 2.73929E+02 8.87697E-10 3.87445E-10
 -1       822-3.09324E+05-1.87684E+04-2.65317E+04-9.71791E+02-1.19089E-09 1.71390E-08
 -1       823-2.99348E+05 2.54206E+03-9.71061E+03 2.85042E+02-3.01945E-11 5.11272E-09
 -1       824-3.02007E+05-2.94190E+03-6.10881E+03-8.07220E+02 2.05923E-10-6.06246E-09
 -1       825-3.00396E+05 3.97622E+02-2.51329E+03 1.09357E+02-1.19832E-09-2.77237E-09
 -1       826-3.00782E+05-4.68571E+02-1.51217E+03-3.47742E+02-3.25932E-09 1.06464E-08
 -1       827-3.00571E+05 7.00485E+01-7.89135E+02-1.74444E+02-3.28739E-09 9.40256E-09
 -1       828-3.00619E+05-1.43026E+02-6.92247E+02 2.03726E+02-4.77375E-09 2.57456E-09
 -1       829-3.00559E+05 7.23776E+01-8.03554E+02-4.42120E+02 1.68075E-10 9.85494E-10
 -1       830-3.00820E+05-4.84879E+02-1.56633E+03 6.05501E+02 2.06593E-09-8.52421E-09
 -1       831-3.00371E+05 4.12171E+02-2.59713E+03-5.76227E+02-2.68755E-09-1.82524E-09
 -1       832-3.02073E+05-3.04630E+03-6.32896E+03 6.81876E+02-1.62067E-09-1.91676E-09
 -1       833-2.99307E+05 2.63208E+03-1.00589E+04-5.18496E+02-1.87176E-09-7.62111E-09
 -1       834-3.09617E+05-1.94384E+04-2.74779E+04 3.99426E+02-9.28665E-10 1.53545E-08
 -1       835-2.92829E+05 1.67913E+04-3.88414E+04-2.93764E+02 5.89552E-09 7.37964E-09
 -1       836-9.88444E+02 2.76200E+05 1.67218E+04-1.94624E+04 4.86580E-10 1.00486E-08
 -1       837 3.65767E+03 2.81392E+05 1.42993E+04-3.91115E+04 1.02159E-09 1.29148E-09
 -1       838-3.72631E+02 2.77637E+05 1.47779E+04-1.93920E+04 1.13914E-09 9.96283E-09
 -1       839 9.47576E+03 2.85727E+05 2.81601E+04-3.91452E+04 1.77170E-09 8.59832E-09
 -1       840-2.86391E+03 2.71823E+05 4.49928E+04-1.94275E+04 9.96806E-10-4.49711E-09
 -1       856-7.96041E+04 7.52388E+03-1.98278E+04-4.32738E+02-4.13166E-09 7.29869E-09
 -1       857-8.77918E+04-8.82573E+03-1.36506E+04 4.64999E+03-4.31186E-10-8.54766E-09
 -1       858-8.28398E+04 1.05424E+03-5.14570E+03-4.54551E+02-3.53083E-09-1.39819E-08
 -1       859-8.40767E+04-1.22664E+03-3.10728E+03 4.68457E+03-1.11734E-09-3.22871E-10
 -1       860-8.33234E+04 1.46668E+02-1.30571E+03-4.67421E+02 1.00326E-09-1.40511E-09
 -1       861-8.35198E+04-1.62538E+02-7.25548E+02 4.70220E+03-5.34249E-09-2.19731E-09
 -1       862-8.33987E+04 1.93756E+01-3.16157E+02-4.72207E+02 3.14247E-09 3.19005E-10
 -1       863-8.34301E+04-1.13015E+01-1.48212E+02 4.70444E+03 7.73968E-09 2.28368E-09
 -1       864-8.34134E+04-1.22055E+00-3.01210E+01-4.69660E+02 2.08985E-09-7.21444E-09
 -1       865-8.33984E+04 3.18316E+01 7.37708E+01 4.69145E+03 4.44641E-09 8.43376E-09
 -1       866-8.34287E+04-2.41910E+01 1.86801E+02-4.59218E+02-1.65213E-09-1.02078E-09
 -1       867-8.33000E+04 2.01875E+02 4.84463E+02 4.66307E+03-1.06979E-09-4.97202E-09
 -1       868-8.35082E+04-1.69403E+02 8.10749E+02-4.41281E+02 2.05546E-10-7.24617E-09
 -1       869-8.26977E+04 1.40726E+03 2.16814E+03 4.61612E+03 2.88395E-10-1.27893E-08
 -1       870-8.40255E+04-1.19860E+03 3.14489E+03-4.12272E+02 1.42302E-09-2.71257E-09
 -1       871-4.37824E+03-1.00767E+04-1.43197E+04 9.46464E+04 1.27875E-09 7.29415E-09
 -1       872-1.87076E+03-1.32992E+04-5.86334E+03 1.22706E+05 1.75601E-09 9.29481E-09
 -1       873-1.06026E+01-1.17926E+04 7.66461E+02 9.44387E+04 4.71118E-10 8.04948E-09
 -1       874 2.20705E+03-9.75532E+03 7.96450E+03 1.22746E+05 2.83421E-09 2.15334E-08
 -1       875 5.15596E+03-1.36817E+04 1.77075E+04 9.46130E+04 1.06502E-09 1.52559E-08
 -1       876 2.30634E+05 3.95765E+04 1.22102E+04 9.33840E+04-3.20722E-09-9.92532E-09
 -1       877 2.31358E+05 4.22319E+04 6.52058E+03 9.69678E+04-7.21866E-09 1.83263E-09
 -1       878 2.31775E+05 3.82254E+04 2.73180E+03 9.43868E+04 1.06934E-09 5.12023E-09
 -1       879 2.29697E+05 4.05772E+04 1.36094E+03 9.70530E+04-3.19073E-09-3.08688E-09
 -1       880 2.31858E+05 3.82108E+04 6.33678E+02 9.44277E+04 7.34303E-09 1.79790E-09
 -1       881 2.29587E+05 4.05068E+04 3.37760E+02 9.70352E+04 1.67499E-08 1.72652E-09
 -1       882 2.31866E+05 3.82210E+04 2.14990E+02 9.44289E+04 1.11252E-08 1.95437E-09
 -1       883 2.29579E+05 4.05034E+04 2.29362E+02 9.70299E+04 3.54208E-09-2.83052E-10
 -1       884 2.31861E+05 3.82185E+04 3.63260E+02 9.44290E+04-4.43032E-09-9.35938E-09
 -1       885 2.29607E+05 4.05085E+04 7.29357E+02 9.70390E+04 7.87395E-09 2.70131E-09
 -1       886 2.31833E+05 3.81972E+04 1.46952E+03 9.44261E+04-4.66827E-10-2.45632E-09
 -1       887 2.29866E+05 4.06778E+04 3.20980E+03 9.70762E+04-9.68799E-09 3.12366E-09
 -1       888 2.31630E+05 3.82328E+04 6.46779E+03 9.43234E+04 2.82031E-09 4.65297E-09
 -1       889 2.33719E+05 4.46798E+04 1.54509E+04 9.69550E+04 1.24673E-08 4.19050E-09
 -1       890 2.28995E+05 4.13631E+04 2.89385E+04 9.18559E+04 3.29123E-09-9.06402E-09
 -1       891-1.36349E+02-1.30356E+05-1.55361E+03 2.41436E+04-2.69665E-10 6.52506E-09
 -1       892-2.38950E+02-1.30731E+05-1.68439E+03 3.65466E+04 9.00400E-11 9.12200E-09
 -1       893-3.35958E+01-1.30404E+05-2.40132E+03 2.41486E+04-1.42745E-09-1.47020E-09
 -1       894-1.30105E+03-1.31647E+05-4.98163E+03 3.64157E+04 4.06544E-10 7.10861E-09
 -1       895-1.01953E+03-1.29366E+05-8.77740E+03 2.42730E+04-5.45697E-11 2.06182E-09
 -1       956-2.91364E+05-4.13825E+03-1.04030E+04 1.97214E+04 2.10002E-09 5.04338E-09
 -1       957-2.93418E+05-1.40007E+03-5.34038E+03 2.37499E+04 8.45466E-09 1.85687E-08
 -1       958-2.92289E+05-1.15780E+02-2.40606E+03 1.95984E+04 7.41784E-09 3.31625E-09
 -1       959-2.92452E+05-2.40221E+01-1.22894E+03 2.38842E+04-1.96064E-09 8.86257E-09
 -1       960-2.92373E+05 3.09029E+01-5.99145E+02 1.95864E+04-3.12775E-09 6.12113E-09
 -1       961-2.92383E+05 2.85063E+01-3.17864E+02 2.38978E+04-2.29011E-09 4.34056E-10
 -1       962-2.92390E+05 2.72223E+01-1.81951E+02 1.95846E+04-2.18893E-09 2.43676E-09
 -1       963-2.92380E+05 3.01261E+01-1.46051E+02 2.39003E+04-4.03338E-09 2.51998E-09
 -1       964-2.92394E+05 2.93954E+01-1.77326E+02 1.95839E+04-3.67379E-10-5.88420E-09
 -1       965-2.92391E+05 3.31870E+01-3.06446E+02 2.39002E+04 2.69813E-09 3.47609E-09
 -1       966-2.92384E+05 3.73462E+01-5.75313E+02 1.95846E+04-6.54154E-10-3.49200E-09
 -1       967-2.92466E+05-1.26793E+01-1.17998E+03 2.38922E+04 1.45133E-09 4.35068E-09
 -1       968-2.92310E+05-9.91769E+01-2.30930E+03 1.95921E+04 4.59295E-11-7.05816E-09
 -1       969-2.93401E+05-1.32991E+03-5.12728E+03 2.38051E+04 5.97538E-10-2.03858E-09
 -1       970-2.91428E+05-3.95845E+03-9.98704E+03 1.96735E+04 1.15324E-09 7.62702E-09
 -1       971-2.74387E+05-1.43186E+03-7.93808E+03 1.31132E+04-5.72209E-09-8.26219E-10
 -1       972-2.76315E+05-1.02832E+03-4.32301E+03 1.83026E+04-7.07132E-09 3.27827E-09
 -1       973-2.75270E+05-1.28217E+01-1.93586E+03 1.30040E+04-5.63477E-09 5.97697E-09
 -1       974-2.75403E+05-1.35598E+01-1.00294E+03 1.84211E+04-3.65617E-10 1.18285E-08
 -1       975-2.75339E+05 2.46510E+01-5.00402E+02 1.29939E+04-2.41880E-09 3.23905E-09
 -1       976-2.75349E+05 2.82883E+01-2.87004E+02 1.84335E+04-3.17618E-09-8.95102E-09
 -1       977-2.75352E+05 2.46629E+01-2.05287E+02 1.29915E+04 2.40152E-09 2.73269E-09
 -1       978-2.75352E+05 3.30953E+01-2.36115E+02 1.84369E+04 8.42783E-09 8.35018E-09
 -1       979-2.75352E+05 3.11534E+01-3.75827E+02 1.29904E+04 4.13979E-09 5.90774E-09
 -1       980-2.75380E+05 3.54550E+01-7.23460E+02 1.84375E+04 3.68208E-09 5.15763E-09
 -1       981-2.75329E+05 4.91725E+01-1.40001E+03 1.29909E+04 2.05569E-09-4.43089E-09
 -1       982-2.75572E+05-6.79284E+01-2.89315E+03 1.84319E+04-2.66436E-09 3.99972E-09
 -1       983-2.75153E+05-4.03864E+01-5.62106E+03 1.29962E+04-1.94450E-09-1.60981E-09
 -1       984-2.78275E+05-3.00346E+03-1.25876E+04 1.83577E+04-7.90578E-10-1.47638E-08
 -1       985-2.72608E+05-4.15353E+03-2.31149E+04 1.30694E+04 6.77937E-09-8.81300E-09
 -3
    1PSTEP                        15           8           1          
  100CL  108 5.56641E-01         409                     0    8           1
 -4  DISP        4    1
 -5  D1          1    2    1    0
 -5  D2          1    2    2    0
 -5  D3          1    2    3    0
 -5  ALL         1    2    0    0    1ALL
 -1         1 2.45549E-04 0.00000E+00 0.00000E+00
 -1         2 2.17787E-04-1.37745E-30 6.61744E-24
 -1         3 1.84115E-04 9.01252E-28 0.00000E+00
 -1         5 1.16745E-04-5.44537E-27 3.30872E-24
 -1         8 2.20839E-04-8.33216E-07 0.00000E+00
 -1         9 2.10292E-04-9.83944E-07 0.00000E+00
 -1        10 1.68955E-04-2.46666E-06 0.00000E+00
 -1        12 1.16616E-04 6.12236E-07 0.00000E+00
 -1        15 1.91323E-04-9.26481E-07-4.13590E-25
 -1        16 1.96834E-04-1.24526E-06 0.00000E+00
 -1        17 1.21229E-04-5.28937E-06 0.00000E+00
 -1        18 1.15010E-04 6.83166E-06 0.00000E+00
 -1        19 1.16232E-04 1.22134E-06 0.00000E+00
 -1        20 1.16380E-04 1.17716E-05 0.00000E+00
 -1        21 1.15753E-04 2.07959E-05-3.30872E-24
 -1        24 2.34239E-05-7.42803E-06 0.00000E+00
 -1        25 1.15751E-04 6.97672E-06 0.00000E+00
 -1        26 1.16577E-04 1.69406E-06 0.00000E+00
 -1        27 1.14888E-04 9.00099E-06 0.00000E+00
 -1        28 1.14431E-04 2.02780E-05 0.00000E+00
 -1        32 0.00000E+00 0.00000E+00 0.00000E+00
 -1        33 1.15731E-04 2.27018E-06 0.00000E+00
 -1        34 1.14066E-04 8.97409E-06 0.00000E+00
 -1        35 1.12502E-04 2.00017E-05 0.00000E+00
 -1        51 2.43947E-04-1.39999E-07 0.00000E+00
 -1        52 2.40973E-04-2.72933E-07 0.00000E+00
 -1        53 2.36896E-04-4.06732E-07 0.00000E+00
 -1        54 2.31995E-04-5.43178E-07-3.30872E-24
 -1        55 2.26549E-04-6.83263E-07 5.79026E-24
 -1        56 2.43708E-04-8.26584E-07 0.00000E+00
 -1        57 2.41877E-04-1.88547E-06 0.00000E+00
 -1        58 2.40097E-04-3.06603E-06 0.00000E+00
 -1        59 2.38317E-04-4.28459E-06 0.00000E+00
 -1        60 2.36514E-04-5.44423E-06-5.29396E-23
 -1        61 2.34654E-04-6.45562E-06 0.00000E+00
 -1        62 2.32709E-04-7.24220E-06 5.29396E-23
 -1        63 2.30655E-04-7.73840E-06 0.00000E+00
 -1        64 2.28477E-04-7.90528E-06 5.29396E-23
 -1        65 2.26167E-04-7.71889E-06-2.64698E-23
 -1        66 2.23727E-04-7.18806E-06 0.00000E+00
 -1        67 2.21168E-04-6.33676E-06-2.64698E-23
 -1        68 2.18510E-04-5.21954E-06 0.00000E+00
 -1        69 2.15786E-04-3.89905E-06 2.64698E-23
 -1        70 2.13016E-04-2.46474E-06 0.00000E+00
 -1        86 2.17552E-04-1.58305E-07 0.00000E+00
 -1        87 2.16849E-04-3.17352E-07 0.00000E+00
 -1        88 2.15718E-04-4.76854E-07-6.61744E-24
 -1        89 2.14198E-04-6.40199E-07 0.00000E+00
 -1        90 2.12365E-04-8.02914E-07 0.00000E+00
 -1       121 1.83690E-04-4.06990E-07 0.00000E+00
 -1       122 1.82418E-04-8.14679E-07-6.61744E-24
 -1       123 1.80301E-04-1.22376E-06 0.00000E+00
 -1       124 1.77346E-04-1.63496E-06 6.61744E-24
 -1       125 1.73560E-04-2.04884E-06 1.32349E-23
 -1       191 1.16741E-04 1.02043E-07-3.30872E-24
 -1       192 1.16730E-04 2.04085E-07 0.00000E+00
 -1       193 1.16712E-04 3.06127E-07 0.00000E+00
 -1       194 1.16688E-04 4.08168E-07-1.65436E-24
 -1       195 1.16656E-04 5.10205E-07-3.30872E-24
 -1       251 2.20213E-04 5.87559E-06 0.00000E+00
 -1       252 2.19548E-04 1.59980E-05 6.61744E-24
 -1       253 2.18886E-04 2.57813E-05-1.32349E-23
 -1       254 2.18253E-04 3.14811E-05-6.61744E-24
 -1       255 2.17633E-04 3.13799E-05-1.32349E-23
 -1       256 2.16987E-04 2.39142E-05 6.61744E-24
 -1       257 2.16291E-04 1.11633E-05 0.00000E+00
 -1       258 2.15552E-04-4.65351E-06-6.61744E-24
 -1       259 2.14824E-04-1.97959E-05 0.00000E+00
 -1       260 2.14150E-04-3.05407E-05 0.00000E+00
 -1       261 2.13519E-04-3.53458E-05-1.32349E-23
 -1       262 2.12895E-04-3.28266E-05 0.00000E+00
 -1       263 2.12250E-04-2.52216E-05-1.32349E-23
 -1       264 2.11581E-04-1.49042E-05 0.00000E+00
 -1       265 2.10920E-04-5.59388E-06 0.00000E+00
 -1       266 2.15920E-04-8.60533E-07-6.61744E-24
 -1       267 2.11000E-04-8.74642E-07 0.00000E+00
 -1       268 2.06081E-04-8.89588E-07 1.65436E-24
 -1       269 2.01162E-04-9.02055E-07 0.00000E+00
 -1       270 1.96242E-04-9.14465E-07-4.13590E-25
 -1       271 2.17897E-04 3.08877E-06 0.00000E+00
 -1       272 2.15284E-04 6.01704E-06 1.32349E-23
 -1       273 2.13021E-04 8.02671E-06 0.00000E+00
 -1       274 2.11069E-04 9.18926E-06-2.64698E-23
 -1       275 2.09401E-04 9.59624E-06 0.00000E+00
 -1       276 2.07978E-04 9.34936E-06 2.64698E-23
 -1       277 2.06757E-04 8.56251E-06 5.29396E-23
 -1       278 2.05692E-04 7.35827E-06 0.00000E+00
 -1       279 2.04734E-04 5.86668E-06 0.00000E+00
 -1       280 2.03834E-04 4.22261E-06 0.00000E+00
 -1       281 2.02939E-04 2.56354E-06 0.00000E+00
 -1       282 2.01999E-04 1.02731E-06 0.00000E+00
 -1       283 2.00963E-04-2.50613E-07 0.00000E+00
 -1       284 1.99786E-04-1.13757E-06 0.00000E+00
 -1       285 1.98415E-04-1.51113E-06-2.64698E-23
 -1       301 2.07839E-04-1.04371E-06-6.61744E-24
 -1       302 2.05279E-04-1.07919E-06 3.30872E-24
 -1       303 2.02755E-04-1.11318E-06-6.61744E-24
 -1       304 2.00411E-04-1.14718E-06 3.30872E-24
 -1       305 1.98391E-04-1.18248E-06 2.64698E-23
 -1       306 2.14065E-04-1.88967E-05-5.29396E-23
 -1       307 2.30345E-04-7.41752E-05 0.00000E+00
 -1       308 2.55192E-04-1.57512E-04 5.29396E-23
 -1       309 2.84639E-04-2.57319E-04 2.64698E-23
 -1       310 3.14361E-04-3.58128E-04 0.00000E+00
 -1       311 3.40032E-04-4.44384E-04 0.00000E+00
 -1       312 3.57661E-04-5.03982E-04 0.00000E+00
 -1       313 3.63149E-04-5.26993E-04 0.00000E+00
 -1       314 3.54421E-04-5.11792E-04 0.00000E+00
 -1       315 3.30399E-04-4.59623E-04-2.64698E-23
 -1       316 2.93911E-04-3.79663E-04 5.29396E-23
 -1       317 2.49367E-04-2.82846E-04 0.00000E+00
 -1       318 2.03640E-04-1.83594E-04 5.29396E-23
 -1       319 1.63793E-04-9.64543E-05 0.00000E+00
 -1       320 1.35044E-04-3.35083E-05-5.29396E-23
 -1       336 1.63435E-04-2.92111E-06 0.00000E+00
 -1       337 1.56908E-04-3.38195E-06-6.61744E-24
 -1       338 1.49396E-04-3.84927E-06-1.32349E-23
 -1       339 1.40926E-04-4.32314E-06-6.61744E-24
 -1       340 1.31526E-04-4.80505E-06 0.00000E+00
 -1       406 1.16570E-04 7.14254E-07 0.00000E+00
 -1       407 1.16517E-04 8.16241E-07 0.00000E+00
 -1       408 1.16456E-04 9.18166E-07 3.30872E-24
 -1       409 1.16389E-04 1.01991E-06-1.65436E-24
 -1       410 1.16314E-04 1.12127E-06 3.30872E-24
 -1       521 2.04397E-04-3.22732E-05-5.29396E-23
 -1       522 2.30589E-04-1.23350E-04 0.00000E+00
 -1       523 2.68637E-04-2.59574E-04 0.00000E+00
 -1       524 3.12453E-04-4.21644E-04 5.29396E-23
 -1       525 3.56379E-04-5.84225E-04 0.00000E+00
 -1       526 3.94757E-04-7.21927E-04-5.29396E-23
 -1       527 4.21544E-04-8.15197E-04-1.05879E-22
 -1       528 4.29882E-04-8.48806E-04 0.00000E+00
 -1       529 4.15113E-04-8.20593E-04 1.05879E-22
 -1       530 3.74528E-04-7.33917E-04 5.29396E-23
 -1       531 3.12266E-04-6.03771E-04-1.05879E-22
 -1       532 2.36019E-04-4.48088E-04 0.00000E+00
 -1       533 1.58161E-04-2.89528E-04 1.05879E-22
 -1       534 9.13831E-05-1.50886E-04 0.00000E+00
 -1       535 4.46052E-05-5.13285E-05 5.29396E-23
 -1       536 1.20972E-04 1.02485E-05 6.61744E-24
 -1       537 1.20535E-04 3.53441E-05 0.00000E+00
 -1       538 1.19947E-04 6.62075E-05 3.30872E-24
 -1       539 1.19301E-04 9.90178E-05 1.65436E-24
 -1       540 1.18725E-04 1.29430E-04 3.30872E-24
 -1       541 1.18325E-04 1.53111E-04 0.00000E+00
 -1       542 1.18090E-04 1.67504E-04 0.00000E+00
 -1       543 1.17952E-04 1.70107E-04 0.00000E+00
 -1       544 1.17782E-04 1.61445E-04 0.00000E+00
 -1       545 1.17469E-04 1.42110E-04 1.65436E-24
 -1       546 1.16998E-04 1.15458E-04 3.30872E-24
 -1       547 1.16420E-04 8.48837E-05 0.00000E+00
 -1       548 1.15856E-04 5.48264E-05 0.00000E+00
 -1       549 1.15426E-04 2.97226E-05 1.65436E-24
 -1       550 1.15153E-04 1.26985E-05 0.00000E+00
 -1       551 1.08111E-04-5.59932E-06 0.00000E+00
 -1       552 9.26780E-05-5.93493E-06 0.00000E+00
 -1       553 7.57059E-05-6.29278E-06 1.65436E-24
 -1       554 5.79821E-05-6.66480E-06 6.61744E-24
 -1       555 4.02941E-05-7.03904E-06 0.00000E+00
 -1       556 1.17611E-04 4.05305E-06 0.00000E+00
 -1       557 1.14781E-04 1.13834E-05 0.00000E+00
 -1       558 1.12655E-04 1.68752E-05 0.00000E+00
 -1       559 1.11158E-04 2.07166E-05 0.00000E+00
 -1       560 1.10216E-04 2.30953E-05 0.00000E+00
 -1       561 1.09755E-04 2.42003E-05 0.00000E+00
 -1       562 1.09702E-04 2.42212E-05 0.00000E+00
 -1       563 1.09985E-04 2.33475E-05 0.00000E+00
 -1       564 1.10531E-04 2.17693E-05 0.00000E+00
 -1       565 1.11269E-04 1.96768E-05 0.00000E+00
 -1       566 1.12128E-04 1.72602E-05 0.00000E+00
 -1       567 1.13036E-04 1.47102E-05-4.13590E-25
 -1       568 1.13924E-04 1.22169E-05 0.00000E+00
 -1       569 1.14719E-04 9.97069E-06 0.00000E+00
 -1       570 1.15352E-04 8.16182E-06 0.00000E+00
 -1       571 1.15084E-04 6.48683E-06 1.24077E-24
 -1       572 1.15160E-04 6.09562E-06 0.00000E+00
 -1       573 1.15236E-04 5.66738E-06 0.00000E+00
 -1       574 1.15313E-04 5.21192E-06 8.27181E-25
 -1       575 1.15389E-04 4.73908E-06 0.00000E+00
 -1       576 1.15466E-04 4.25874E-06 0.00000E+00
 -1       577 1.15543E-04 3.78083E-06 3.30872E-24
 -1       578 1.15619E-04 3.31525E-06 0.00000E+00
 -1       579 1.15696E-04 2.87191E-06 0.00000E+00
 -1       580 1.15773E-04 2.46072E-06 0.00000E+00
 -1       581 1.15849E-04 2.09161E-06 0.00000E+00
 -1       582 1.15926E-04 1.77447E-06 0.00000E+00
 -1       583 1.16003E-04 1.51919E-06 0.00000E+00
 -1       584 1.16079E-04 1.33556E-06 0.00000E+00
 -1       585 1.16156E-04 1.23330E-06 0.00000E+00
 -1       586 1.15086E-04 6.85745E-06-8.27181E-25
 -1       587 1.15136E-04 6.88263E-06 1.55096E-25
 -1       588 1.15194E-04 6.90751E-06-8.27181E-25
 -1       589 1.15293E-04 6.93195E-06 0.00000E+00
 -1       590 1.15468E-04 6.95561E-06 0.00000E+00
 -1       591 1.15102E-04 6.53390E-06 1.03398E-25
 -1       592 1.15203E-04 6.20613E-06 0.00000E+00
 -1       593 1.15312E-04 5.85474E-06 0.00000E+00
 -1       594 1.15427E-04 5.48531E-06-4.13590E-25
 -1       595 1.15547E-04 5.10350E-06 0.00000E+00
 -1       596 1.15670E-04 4.71495E-06 0.00000E+00
 -1       597 1.15793E-04 4.32526E-06 4.13590E-25
 -1       598 1.15914E-04 3.94005E-06-2.06795E-25
 -1       599 1.16032E-04 3.56493E-06 8.27181E-25
 -1       600 1.16143E-04 3.20551E-06-4.13590E-25
 -1       601 1.16247E-04 2.86740E-06 0.00000E+00
 -1       602 1.16341E-04 2.55622E-06 0.00000E+00
 -1       603 1.16422E-04 2.27757E-06 1.03398E-25
 -1       604 1.16490E-04 2.03715E-06 1.03398E-25
 -1       605 1.16541E-04 1.84051E-06 0.00000E+00
 -1       606 1.16245E-04 1.37985E-06 3.30872E-24
 -1       607 1.16256E-04 1.63456E-06 0.00000E+00
 -1       608 1.16265E-04 1.97983E-06 0.00000E+00
 -1       609 1.16275E-04 2.40930E-06 0.00000E+00
 -1       610 1.16284E-04 2.91655E-06 0.00000E+00
 -1       611 1.16293E-04 3.49510E-06 0.00000E+00
 -1       612 1.16302E-04 4.13845E-06 0.00000E+00
 -1       613 1.16311E-04 4.84010E-06 0.00000E+00
 -1       614 1.16319E-04 5.59355E-06 0.00000E+00
 -1       615 1.16328E-04 6.39228E-06 0.00000E+00
 -1       616 1.16337E-04 7.22980E-06 0.00000E+00
 -1       617 1.16346E-04 8.09961E-06 0.00000E+00
 -1       618 1.16355E-04 8.99519E-06 0.00000E+00
 -1       619 1.16363E-04 9.91006E-06-4.13590E-25
 -1       620 1.16372E-04 1.08377E-05 0.00000E+00
 -1       621 1.16191E-04 1.30028E-06 1.65436E-24
 -1       622 1.16203E-04 1.37950E-06 0.00000E+00
 -1       623 1.16259E-04 1.45871E-06 0.00000E+00
 -1       624 1.16348E-04 1.53777E-06-8.27181E-25
 -1       625 1.16458E-04 1.61669E-06 0.00000E+00
 -1       626 1.16261E-04 1.40673E-06 0.00000E+00
 -1       627 1.16260E-04 1.67021E-06 0.00000E+00
 -1       628 1.16234E-04 2.00404E-06-3.30872E-24
 -1       629 1.16184E-04 2.40004E-06 0.00000E+00
 -1       630 1.16114E-04 2.84999E-06-3.30872E-24
 -1       631 1.16027E-04 3.34565E-06 1.65436E-24
 -1       632 1.15925E-04 3.87876E-06 0.00000E+00
 -1       633 1.15813E-04 4.44108E-06 4.96308E-24
 -1       634 1.15693E-04 5.02436E-06-3.30872E-24
 -1       635 1.15568E-04 5.62034E-06 1.65436E-24
 -1       636 1.15442E-04 6.22079E-06 0.00000E+00
 -1       637 1.15316E-04 6.81745E-06 0.00000E+00
 -1       638 1.15196E-04 7.40206E-06-3.30872E-24
 -1       639 1.15082E-04 7.96638E-06-8.27181E-25
 -1       640 1.14979E-04 8.50214E-06 0.00000E+00
 -1       656 1.15664E-04 1.13208E-05-6.61744E-24
 -1       657 1.15331E-04 1.08520E-05 0.00000E+00
 -1       658 1.15239E-04 1.03847E-05 0.00000E+00
 -1       659 1.15246E-04 9.91767E-06 6.61744E-24
 -1       660 1.15185E-04 9.44921E-06 0.00000E+00
 -1       661 1.16116E-04 1.26746E-05-8.27181E-25
 -1       662 1.15879E-04 1.35144E-05 0.00000E+00
 -1       663 1.15664E-04 1.42933E-05 1.65436E-24
 -1       664 1.15472E-04 1.50151E-05 0.00000E+00
 -1       665 1.15299E-04 1.56828E-05 0.00000E+00
 -1       666 1.15147E-04 1.62996E-05 0.00000E+00
 -1       667 1.15012E-04 1.68686E-05 0.00000E+00
 -1       668 1.14894E-04 1.73926E-05-8.27181E-25
 -1       669 1.14791E-04 1.78744E-05 0.00000E+00
 -1       670 1.14704E-04 1.83167E-05 8.27181E-25
 -1       671 1.14630E-04 1.87221E-05 0.00000E+00
 -1       672 1.14570E-04 1.90931E-05-8.27181E-25
 -1       673 1.14521E-04 1.94321E-05 1.65436E-24
 -1       674 1.14482E-04 1.97412E-05 0.00000E+00
 -1       675 1.14454E-04 2.00230E-05-4.13590E-25
 -1       676 1.15532E-04 2.07091E-05-3.30872E-24
 -1       677 1.15311E-04 2.06223E-05 1.65436E-24
 -1       678 1.15091E-04 2.05355E-05 3.30872E-24
 -1       679 1.14870E-04 2.04490E-05-8.27181E-25
 -1       680 1.14650E-04 2.03626E-05-1.65436E-24
 -1       771 1.70421E-05 5.96557E-06 0.00000E+00
 -1       772 1.15827E-05 1.69532E-05-5.29396E-23
 -1       773 7.00383E-06 2.56601E-05 0.00000E+00
 -1       774 3.24682E-06 3.22234E-05-2.64698E-23
 -1       775 2.53911E-07 3.67845E-05 5.29396E-23
 -1       776-2.03519E-06 3.94913E-05 0.00000E+00
 -1       777-3.68128E-06 4.04958E-05 0.00000E+00
 -1       778-4.74658E-06 3.99553E-05 2.64698E-23
 -1       779-5.29358E-06 3.80305E-05 0.00000E+00
 -1       780-5.38593E-06 3.48866E-05 2.64698E-23
 -1       781-5.08739E-06 3.06912E-05-5.29396E-23
 -1       782-4.46260E-06 2.56156E-05 0.00000E+00
 -1       783-3.57619E-06 1.98327E-05 0.00000E+00
 -1       784-2.49347E-06 1.35179E-05 1.32349E-23
 -1       785-1.27962E-06 6.84782E-06-2.64698E-23
 -1       786 1.15799E-04 6.47714E-06 0.00000E+00
 -1       787 1.15850E-04 6.01283E-06 4.13590E-25
 -1       788 1.15902E-04 5.57774E-06-1.65436E-24
 -1       789 1.15953E-04 5.16584E-06 0.00000E+00
 -1       790 1.16005E-04 4.77391E-06 0.00000E+00
 -1       791 1.16057E-04 4.39876E-06 0.00000E+00
 -1       792 1.16109E-04 4.03918E-06 0.00000E+00
 -1       793 1.16161E-04 3.69404E-06 0.00000E+00
 -1       794 1.16213E-04 3.36389E-06-1.65436E-24
 -1       795 1.16265E-04 3.04935E-06 0.00000E+00
 -1       796 1.16317E-04 2.75289E-06 1.65436E-24
 -1       797 1.16369E-04 2.47701E-06 0.00000E+00
 -1       798 1.16422E-04 2.22668E-06 0.00000E+00
 -1       799 1.16474E-04 2.00695E-06 0.00000E+00
 -1       800 1.16526E-04 1.82648E-06 1.65436E-24
 -1       801 1.07160E-04 6.04664E-06 0.00000E+00
 -1       802 8.03011E-05 4.77064E-06 0.00000E+00
 -1       803 4.68531E-05 3.31930E-06-2.64698E-23
 -1       804 1.87744E-05 2.01798E-06 0.00000E+00
 -1       805 1.49396E-06 9.42772E-07 0.00000E+00
 -1       806 1.15850E-04 6.42573E-06 0.00000E+00
 -1       807 1.15938E-04 5.89416E-06-8.27181E-25
 -1       808 1.16017E-04 5.38595E-06 1.65436E-24
 -1       809 1.16086E-04 4.90420E-06-8.27181E-25
 -1       810 1.16143E-04 4.45194E-06 0.00000E+00
 -1       811 1.16189E-04 4.03216E-06-1.65436E-24
 -1       812 1.16221E-04 3.64782E-06 0.00000E+00
 -1       813 1.16238E-04 3.30189E-06 8.27181E-25
 -1       814 1.16240E-04 2.99731E-06-3.30872E-24
 -1       815 1.16226E-04 2.73703E-06-8.27181E-25
 -1       816 1.16193E-04 2.52400E-06 0.00000E+00
 -1       817 1.16142E-04 2.36116E-06 0.00000E+00
 -1       818 1.16072E-04 2.25144E-06 0.00000E+00
 -1       819 1.15980E-04 2.19777E-06 8.27181E-25
 -1       820 1.15866E-04 2.20306E-06 0.00000E+00
 -1       821 1.16478E-04 1.53938E-06 0.00000E+00
 -1       822 1.16372E-04 1.29354E-06 8.27181E-25
 -1       823 1.16267E-04 1.03517E-06 0.00000E+00
 -1       824 1.16161E-04 8.42947E-07 1.65436E-24
 -1       825 1.16054E-04 7.81074E-07 0.00000E+00
 -1       826 1.15948E-04 9.13126E-07-1.65436E-24
 -1       827 1.15841E-04 1.26033E-06 0.00000E+00
 -1       828 1.15734E-04 1.84291E-06 1.65436E-24
 -1       829 1.15627E-04 2.62966E-06-3.30872E-24
 -1       830 1.15520E-04 3.58842E-06 1.65436E-24
 -1       831 1.15413E-04 4.64948E-06 3.30872E-24
 -1       832 1.15306E-04 5.74263E-06 0.00000E+00
 -1       833 1.15199E-04 6.79063E-06 3.30872E-24
 -1       834 1.15094E-04 7.71650E-06 0.00000E+00
 -1       835 1.14988E-04 8.46981E-06 0.00000E+00
 -1       836 1.16599E-04 1.78994E-06 0.00000E+00
 -1       837 1.16509E-04 1.88800E-06 0.00000E+00
 -1       838 1.16342E-04 1.98588E-06 1.65436E-24
 -1       839 1.16133E-04 2.08314E-06-8.27181E-25
 -1       840 1.15918E-04 2.18023E-06-4.13590E-25
 -1       856 1.14863E-04 9.48208E-06 0.00000E+00
 -1       857 1.14835E-04 1.00776E-05 0.00000E+00
 -1       858 1.14807E-04 1.07697E-05-4.13590E-25
 -1       859 1.14779E-04 1.15403E-05-4.13590E-25
 -1       860 1.14750E-04 1.23712E-05-8.27181E-25
 -1       861 1.14721E-04 1.32441E-05-4.13590E-25
 -1       862 1.14692E-04 1.41410E-05 8.27181E-25
 -1       863 1.14663E-04 1.50435E-05 4.13590E-25
 -1       864 1.14634E-04 1.59332E-05 8.27181E-25
 -1       865 1.14605E-04 1.67920E-05 0.00000E+00
 -1       866 1.14576E-04 1.76016E-05 8.27181E-25
 -1       867 1.14547E-04 1.83438E-05 0.00000E+00
 -1       868 1.14518E-04 1.90005E-05 0.00000E+00
 -1       869 1.14489E-04 1.95537E-05-4.13590E-25
 -1       870 1.14460E-04 1.99854E-05 0.00000E+00
 -1       871 1.14632E-04 8.99977E-06-8.27181E-25
 -1       872 1.14490E-04 8.99613E-06 0.00000E+00
 -1       873 1.14414E-04 8.99205E-06 0.00000E+00
 -1       874 1.14351E-04 8.98740E-06 5.16988E-26
 -1       875 1.14252E-04 8.98222E-06 2.06795E-25
 -1       876 1.14811E-04 9.49256E-06 0.00000E+00
 -1       877 1.14715E-04 1.00398E-05-1.65436E-24
 -1       878 1.14600E-04 1.06361E-05 3.30872E-24
 -1       879 1.14470E-04 1.12750E-05 0.00000E+00
 -1       880 1.14326E-04 1.19505E-05 3.30872E-24
 -1       881 1.14171E-04 1.26561E-05 0.00000E+00
 -1       882 1.14007E-04 1.33857E-05 0.00000E+00
 -1       883 1.13836E-04 1.41331E-05 1.65436E-24
 -1       884 1.13661E-04 1.48919E-05 0.00000E+00
 -1       885 1.13484E-04 1.56561E-05 1.65436E-24
 -1       886 1.13307E-04 1.64194E-05 0.00000E+00
 -1       887 1.13133E-04 1.71755E-05 0.00000E+00
 -1       888 1.12964E-04 1.79183E-05 3.30872E-24
 -1       889 1.12801E-04 1.86413E-05 0.00000E+00
 -1       890 1.12648E-04 1.93384E-05 8.27181E-25
 -1       891 1.14233E-04 2.02317E-05-8.27181E-25
 -1       892 1.14016E-04 2.01853E-05-8.27181E-25
 -1       893 1.13756E-04 2.01390E-05-1.65436E-24
 -1       894 1.13432E-04 2.00927E-05 4.13590E-25
 -1       895 1.13021E-04 2.00466E-05-8.27181E-25
 -1       956 1.15629E-04 2.46514E-06 3.30872E-24
 -1       957 1.15525E-04 2.72511E-06-8.27181E-25
 -1       958 1.15421E-04 3.04293E-06-1.65436E-24
 -1       959 1.15316E-04 3.41102E-06 8.27181E-25
 -1       960 1.15212E-04 3.82180E-06 0.00000E+00
 -1       961 1.15108E-04 4.26763E-06 0.00000E+00
 -1       962 1.15003E-04 4.74088E-06 0.00000E+00
 -1       963 1.14899E-04 5.23392E-06 0.00000E+00
 -1       964 1.14794E-04 5.73911E-06-3.30872E-24
 -1       965 1.14690E-04 6.24879E-06 1.65436E-24
 -1       966 1.14585E-04 6.75533E-06-3.30872E-24
 -1       967 1.14481E-04 7.25109E-06 0.00000E+00
 -1       968 1.14376E-04 7.72842E-06-3.30872E-24
 -1       969 1.14272E-04 8.17973E-06 1.65436E-24
 -1       970 1.14168E-04 8.59739E-06-3.30872E-24
 -1       971 1.13969E-04 9.36751E-06 0.00000E+00
 -1       972 1.13871E-04 9.84529E-06 0.00000E+00
 -1       973 1.13773E-04 1.03981E-05 1.65436E-24
 -1       974 1.13675E-04 1.10163E-05 0.00000E+00
 -1       975 1.13577E-04 1.16902E-05 0.00000E+00
 -1       976 1.13478E-04 1.24101E-05-1.65436E-24
 -1       977 1.13380E-04 1.31663E-05 0.00000E+00
 -1       978 1.13282E-04 1.39491E-05 0.00000E+00
 -1       979 1.13183E-04 1.47487E-05 0.00000E+00
 -1       980 1.13085E-04 1.55555E-05 0.00000E+00
 -1       981 1.12987E-04 1.63596E-05 3.30872E-24
 -1       982 1.12888E-04 1.71515E-05 0.00000E+00
 -1       983 1.12790E-04 1.79213E-05 3.30872E-24
 -1       984 1.12693E-04 1.86594E-05 1.65436E-24
 -1       985 1.12595E-04 1.93560E-05-1.65436E-24
 -3
    1PSTEP                        16           8           1          
  100CL  108 5.56641E-01         409                     0    8           1
 -4  STRESS      6    1
 -5  SXX         1    4    1    1
 -5  SYY         1    4    2    2
 -5  SZZ         1    4    3    3
 -5  SXY         1    4    1    2
 -5  SYZ         1    4    2    3
 -5  SZX         1    4    3    1
 -1         1-2.52608E+06-1.05118E+06-5.38882E+05-1.30091E+06 3.63798E-10-6.83940E-09
 -1         2 2.64028E+03-4.49415E+05 8.56174E+03-9.03393E+02-2.04636E-12 7.19638E-11
 -1         3-3.20838E+02-1.16108E+06 2.79581E+02-7.78636E+02-2.71996E-10 6.39920E-09
 -1         5-1.13532E+00 2.91970E+05 7.46544E+00 5.04630E-02-1.91471E-11-4.10323E-08
 -1         8-1.21412E+06-4.19636E+05-1.40211E+05-5.16127E+05 4.56566E-10 7.06495E-09
 -1         9-2.13929E+06-8.46676E+05-2.70077E+05-7.70889E+05 8.74279E-09 3.11993E-09
 -1        10-1.08499E+03-1.20963E+06-1.76897E+03-5.26895E+03-6.51289E-09-1.07215E-08
 -1        12 1.92895E+00 2.91985E+05 2.41669E+02 3.91420E-01 2.73701E-11-2.47751E-08
 -1        15 1.95056E+03 1.07195E+03 6.30518E+03 4.14941E+00 2.70290E-11 2.13930E-08
 -1        16-2.08180E+06-1.20770E+06-3.49347E+05-1.32802E+06 1.00893E-08 2.04697E-08
 -1        17-1.20150E+06-6.08593E+05-2.12276E+05-5.07786E+05-4.19386E-09 7.77654E-09
 -1        18-2.61325E+04-1.12587E+04-2.93727E+04-7.83022E+04 6.83974E-09 1.04865E-09
 -1        19 9.34736E+04 1.08388E+05-7.17509E+02 1.83590E+04-2.34650E-10-3.49173E-09
 -1        20-4.63633E+04-4.42285E+05-9.80752E+04 2.87065E+04 2.64163E-09 6.14637E-09
 -1        21-4.02333E+01-2.48541E+05-7.95078E+02-3.76783E+01-4.39115E-09-2.16835E-08
 -1        24-2.69478E+06-5.03512E+05-2.44186E+05-8.51662E+05-5.12082E-08-2.09742E-08
 -1        25-9.05387E+04-5.23913E+05-1.04462E+05-1.22712E+05 3.44880E-10 7.03858E-09
 -1        26-3.17798E+04 7.13982E+04-1.71779E+04-6.03472E+03 1.48648E-09-1.08219E-10
 -1        27-6.61514E+04-2.41185E+05-8.98822E+04 5.44772E+04 5.35852E-09-1.31937E-09
 -1        28 1.91338E+04-6.95046E+04 1.40923E+04 2.06388E+04 9.61052E-10 7.82678E-09
 -1        32-1.20631E+06-1.46596E+06 9.47951E+04-5.55881E+05-2.62662E-08 1.71084E-09
 -1        33-1.40621E+05 6.98942E+04 2.49403E+04-3.52600E+04 5.81357E-10 1.13505E-09
 -1        34-1.78474E+05-1.81232E+04 4.59971E+02 5.62224E+04 1.73602E-09 2.71105E-09
 -1        35-1.94929E+04-2.76109E+04-1.08805E+03 4.32971E+04 1.62809E-09 4.79971E-09
 -1        51 2.43575E+04-3.38984E+05 5.80600E+04-9.38917E+05-1.89175E-10-2.15368E-09
 -1        52 1.21938E+04-3.34066E+05 3.53961E+04-1.09498E+06 3.63798E-10-4.73883E-08
 -1        53 7.16619E+03-3.48884E+05 2.61997E+04-9.35596E+05 5.23869E-10-1.35042E-08
 -1        54 1.96232E+04-3.47145E+05 3.72286E+04-1.09841E+06-2.91038E-11 4.04543E-09
 -1        55 3.88615E+04-3.60724E+05 6.35623E+04-9.35056E+05 1.03319E-09-1.11322E-09
 -1        56-4.82070E+06-5.39271E+05-3.96877E+05-1.86459E+06-5.10772E-09 5.57338E-09
 -1        57-5.00049E+06-8.79206E+05-2.67723E+05-1.82633E+06 4.15184E-09 1.43482E-08
 -1        58-4.89921E+06-6.66577E+05-9.33160E+04-1.84105E+06 1.10776E-09 1.33514E-09
 -1        59-4.91014E+06-7.29194E+05-5.57133E+04-1.85353E+06 6.59588E-09-6.43195E-09
 -1        60-4.90992E+06-6.85079E+05-2.17577E+04-1.83873E+06-4.54156E-09 1.56415E-08
 -1        61-4.89951E+06-7.05672E+05-1.23341E+04-1.85403E+06 3.17675E-09-2.04385E-08
 -1        62-4.90957E+06-6.89564E+05-5.86907E+03-1.84067E+06-1.88356E-09 1.05317E-08
 -1        63-4.90267E+06-6.98153E+05-4.70895E+03-1.84874E+06 1.74578E-09 3.34910E-08
 -1        64-4.90670E+06-6.92558E+05-5.22613E+03-1.84401E+06-1.27739E-09 1.07775E-10
 -1        65-4.91000E+06-6.94169E+05-1.04000E+04-1.84156E+06 3.86137E-10-2.66314E-08
 -1        66-4.90226E+06-6.93600E+05-1.81406E+04-1.84783E+06-1.96144E-09-4.33374E-09
 -1        67-4.92638E+06-7.06089E+05-4.62501E+04-1.83250E+06 1.87390E-09 1.18462E-09
 -1        68-4.89054E+06-6.81078E+05-7.74422E+04-1.85298E+06-1.38061E-09-3.85626E-09
 -1        69-5.00442E+06-8.27519E+05-2.22110E+05-1.80655E+06-7.39419E-10-8.11997E-09
 -1        70-4.82524E+06-5.75646E+05-3.29343E+05-1.87270E+06 2.76486E-10 4.48199E-09
 -1        86-1.32157E+03-4.51944E+05 9.20702E+03 4.51694E+02 8.20364E-10 6.27705E-09
 -1        87 8.77003E+03-4.46490E+05 1.91577E+04-1.72206E+03 1.32763E-09 3.59154E-09
 -1        88-7.42930E+03-4.54867E+05 2.94091E+04 1.27039E+03 1.82990E-09-2.37958E-09
 -1        89 5.53713E+04-4.24958E+05 7.91952E+04-3.09292E+03 2.70666E-09-1.29805E-08
 -1        90-4.77578E+04-4.73444E+05 1.12047E+05 1.82283E+03 2.51021E-09-5.01581E-09
 -1       121-4.62770E+02-1.16227E+06 1.03009E+02 3.88293E+02 7.11779E-10 4.16003E-09
 -1       122-2.22329E+02-1.16104E+06 5.89995E+02-1.55559E+03-2.60400E-09-3.45244E-08
 -1       123-5.16881E+02-1.16234E+06 7.84125E+02 1.16119E+03 2.03829E-09-1.38734E-08
 -1       124 8.87653E+02-1.16044E+06 2.42391E+03-3.32482E+03-4.93401E-09 9.84346E-09
 -1       125-1.20007E+03-1.16296E+06 3.54038E+03 2.15354E+03 3.16049E-09 1.85355E-09
 -1       191-1.44174E+00 2.91996E+05 9.13899E+00-2.52970E-02 4.14406E-11 1.15301E-09
 -1       192-1.81912E+00 2.91970E+05 1.57956E+01 2.17152E-01 5.01144E-11 8.05358E-09
 -1       193-3.26076E+00 2.91995E+05 2.95848E+01-1.92404E-01 1.43139E-11-3.02484E-08
 -1       194-4.02007E+00 2.91973E+05 5.97186E+01 5.14810E-01-2.22933E-13-7.69982E-08
 -1       195-6.75667E+00 2.91993E+05 1.17021E+02-3.24372E-01 4.03091E-11-5.01889E-08
 -1       251-1.75564E+06 3.08044E+04-7.46621E+04-3.97499E+04 1.25101E-09-4.18368E-10
 -1       252-1.77056E+06-3.49963E+04-4.93891E+04 9.10674E+04 1.76351E-09 2.35377E-09
 -1       253-1.77004E+06 4.74550E+03-2.04978E+04-3.71268E+04 6.64841E-10-7.28505E-09
 -1       254-1.73402E+06-4.19521E+03-5.11953E+03 4.25717E+04-3.16732E-09-2.04061E-08
 -1       255-1.79065E+06-1.34963E+03-1.03685E+04 8.74849E+03 1.33377E-09 3.89946E-10
 -1       256-1.73611E+06 8.17869E+02 3.15662E+03-4.49349E+04 5.57066E-10 1.35333E-08
 -1       257-1.76819E+06-1.99227E+01-1.90115E+03 5.03669E+04 4.67708E-10-1.82962E-09
 -1       258-1.75470E+06 1.19137E+03 1.51991E+03-8.12672E+04-1.20639E-09-1.49903E-10
 -1       259-1.77327E+06-5.69366E+02-2.12114E+03 4.50979E+04-3.96858E-09 4.05705E-09
 -1       260-1.73055E+06 1.69407E+03 6.63472E+03-2.91483E+04 1.28887E-09-2.63670E-08
 -1       261-1.79079E+06-1.98300E+03-5.83633E+03-1.77012E+03 1.88402E-09 1.42623E-08
 -1       262-1.73660E+06 9.35017E+02 4.97237E+03 5.78647E+04 3.39548E-09 2.74823E-08
 -1       263-1.76765E+06 5.83299E+02-1.66198E+03-4.18992E+04-5.49392E-09-2.17983E-09
 -1       264-1.75382E+06-5.09458E+02-4.87139E+02 9.00825E+04-1.84248E-08 6.21390E-09
 -1       265-1.77467E+06 5.01750E+02-6.80594E+03-3.39923E+04-8.57017E-09 1.52186E-08
 -1       266-3.53106E+04-1.65088E+04 8.28603E+04-8.87952E+01-7.63976E-11 4.18865E-09
 -1       267 4.09358E+04 1.92451E+04 5.85586E+04 1.02439E+02 7.63976E-11-4.46147E-09
 -1       268-5.48937E+03-2.72544E+03 2.17663E+04-1.30532E+01 1.04592E-10 5.90762E-09
 -1       269 6.48139E+03 3.26200E+03 1.41474E+04 1.52042E+01 7.75344E-11 1.13853E-08
 -1       270-9.72864E+02-5.35963E+02 6.82917E+03-2.06336E+00 2.95586E-11 2.45746E-08
 -1       271-3.26450E+06-4.07847E+05-2.46414E+05-1.27045E+06-3.41970E-10 1.94268E-08
 -1       272-3.35455E+06-5.86222E+05-1.58472E+05-1.26648E+06-2.98598E-10-4.49836E-09
 -1       273-3.31183E+06-4.68371E+05-5.82123E+04-1.25835E+06 3.09092E-09 1.77752E-08
 -1       274-3.29839E+06-5.12752E+05-3.25639E+04-1.28540E+06-5.80258E-10 1.54178E-08
 -1       275-3.31974E+06-4.73217E+05-1.35654E+04-1.25473E+06 3.09228E-11 4.84761E-09
 -1       276-3.28831E+06-5.07804E+05-7.16852E+03-1.29167E+06 5.93900E-10 8.97444E-10
 -1       277-3.32220E+06-4.72236E+05-3.52940E+03-1.25268E+06-3.68345E-09 1.79530E-08
 -1       278-3.28521E+06-5.09449E+05-2.51151E+03-1.29503E+06 5.88420E-09 1.63618E-08
 -1       279-3.32317E+06-4.71287E+05-2.66412E+03-1.25164E+06-3.58932E-09-6.24874E-09
 -1       280-3.28479E+06-5.10952E+05-4.85319E+03-1.29616E+06-1.85787E-09-2.25848E-08
 -1       281-3.32277E+06-4.70687E+05-8.80927E+03-1.25163E+06 6.40625E-10 6.10089E-09
 -1       282-3.28955E+06-5.16038E+05-2.11403E+04-1.29441E+06 8.35826E-10 1.99452E-09
 -1       283-3.31841E+06-4.66785E+05-3.76159E+04-1.25314E+06 1.24658E-09-3.41606E-09
 -1       284-3.32478E+06-5.64659E+05-1.02562E+05-1.28335E+06-1.37675E-09-1.34023E-08
 -1       285-3.28811E+06-4.27353E+05-1.59429E+05-1.26063E+06 2.01908E-10-2.32976E-08
 -1       301 2.32137E+04-8.98490E+04 1.69653E+05-1.72256E+05-4.87489E-10-2.88537E-09
 -1       302 2.44013E+04-4.70384E+04 1.10581E+05-2.52620E+05 8.48900E-10 2.12458E-08
 -1       303 1.30491E+03-7.28680E+04 8.33800E+04-1.72108E+05-4.27463E-10 1.14032E-08
 -1       304 2.70711E+04-4.36170E+04 1.20298E+05-2.52199E+05 6.83940E-10 3.09883E-08
 -1       305 2.57717E+04-9.17621E+04 1.91070E+05-1.72736E+05-4.07454E-10 3.91083E-09
 -1       306-6.70869E+06-6.37638E+05-6.25771E+05-2.11854E+06-8.23638E-09-5.00586E-09
 -1       307-4.66712E+06-1.70604E+06-1.57261E+05-3.18050E+06-1.24564E-07 1.60071E-08
 -1       308-6.68653E+06-2.83275E+05-1.24736E+05-1.50315E+06-2.48183E-08 6.34973E-08
 -1       309-4.92956E+06-1.87950E+06-3.00154E+04-3.96812E+06 3.16135E-08 2.65109E-08
 -1       310-6.68571E+06-2.83945E+05-3.53724E+04-1.47796E+06 4.63115E-09-2.45009E-08
 -1       311-4.59459E+06-1.58222E+06 1.11674E+05-3.29598E+06 7.59755E-08-1.58980E-08
 -1       312-6.80394E+06-7.41464E+05-1.67343E+05-2.04397E+06 8.76025E-09 2.38324E-08
 -1       313-4.76168E+06-7.21810E+05 2.27484E+05-1.90120E+06-7.00165E-08 2.50384E-08
 -1       314-6.29559E+06-1.30276E+06-1.81872E+05-2.68797E+06 4.48053E-08-2.11439E-08
 -1       315-6.34001E+06 2.81022E+05 1.28247E+05-1.10225E+06-6.26824E-09-1.35005E-08
 -1       316-5.43156E+06-1.59191E+06-5.36420E+04-2.97219E+06-1.01347E-07-6.42540E-08
 -1       317-7.53206E+06 7.19771E+05-3.96334E+04-9.99511E+05 1.15902E-07-7.24640E-08
 -1       318-5.32282E+06-1.58958E+06-1.28590E+05-2.99201E+06-1.03450E-07-6.42103E-09
 -1       319-6.75884E+06 2.13620E+05-2.25632E+05-1.02149E+06-2.29556E-08-1.30967E-08
 -1       320-6.04124E+06-1.20213E+06-6.83740E+05-2.79462E+06 3.76021E-08-2.17406E-08
 -1       336 5.50173E+02-1.25822E+06-7.34356E+03 3.09830E+03-1.28398E-08-1.63527E-09
 -1       337-2.72969E+03-1.25943E+06-8.31692E+03-7.59237E+03-2.40125E-08-2.20034E-08
 -1       338 4.23645E+02-1.25833E+06-1.12287E+04 4.46356E+03-1.64082E-08 6.79211E-09
 -1       339-1.16673E+04-1.26524E+06-2.47025E+04-1.02597E+04-3.04476E-08 1.98052E-08
 -1       340 7.74625E+03-1.25280E+06-3.84002E+04 5.74025E+03-1.99325E-08 2.27792E-08
 -1       406 2.05967E+01 2.91982E+05 4.77329E+02-6.99167E-02 9.47580E-11-1.40944E-08
 -1       407 1.68251E+02 2.92069E+05 1.01401E+03-1.94536E+00-9.18590E-11-4.51746E-09
 -1       408 5.24042E+02 2.91909E+05 2.02544E+03 2.06530E+00 9.44738E-11-1.52863E-09
 -1       409 2.19145E+03 2.92716E+05 4.55933E+03-2.04600E+01-5.66160E-11 1.35803E-08
 -1       410 6.29297E+03 2.91334E+05 9.30783E+03 1.92902E+01 4.13820E-11-5.87829E-09
 -1       521-8.95869E+06-9.27004E+05-1.05420E+06-2.46804E+06-1.35187E-08 2.40689E-08
 -1       522-4.36708E+06-2.28221E+06-2.73392E+04-4.52688E+06-1.18831E-07-2.96277E-08
 -1       523-8.50469E+06-1.12149E+05-1.79549E+05-1.30169E+06-7.21047E-09-6.14673E-08
 -1       524-5.59607E+06-2.50984E+06 1.11121E+04-6.11855E+06 1.32027E-07-1.42038E-07
 -1       525-8.50282E+06-1.18675E+05-6.56987E+04-1.28600E+06 1.43555E-07-7.19756E-08
 -1       526-4.30453E+06-2.14208E+06 3.09092E+05-4.61257E+06 1.79287E-07-1.46538E-08
 -1       527-9.04511E+06-1.04045E+06-4.51746E+05-2.41260E+06 1.05647E-07-2.33704E-08
 -1       528-4.06762E+06-6.27414E+05 5.75782E+05-1.67691E+06-1.82190E-08-3.00606E-08
 -1       529-8.06822E+06-2.10069E+06-4.74731E+05-3.61846E+06 3.96685E-08-2.38942E-08
 -1       530-7.62372E+06 1.37263E+06 3.38755E+05-5.02172E+05-1.20563E-07 9.96588E-08
 -1       531-6.19752E+06-2.51339E+06-8.86202E+04-3.99833E+06-2.09242E-07-2.08820E-09
 -1       532-1.03018E+07 2.20805E+06 1.75873E+04-7.79246E+05 1.00273E-07-1.22964E-07
 -1       533-6.02881E+06-2.50976E+06-1.47909E+05-4.00782E+06 2.99624E-08-2.14563E-07
 -1       534-8.23954E+06 1.42245E+06-3.04972E+04-4.92798E+05-5.56320E-08 1.70377E-07
 -1       535-7.74896E+06-2.06949E+06-9.91519E+05-3.73448E+06-5.52973E-09 1.08033E-07
 -1       536-4.22145E+05-2.36826E+04 3.27727E+04-1.78031E+04-3.79009E-09 2.71975E-08
 -1       537-3.15502E+05 2.59988E+04 3.93585E+04 4.36810E+04-5.11007E-08 3.09883E-08
 -1       538-3.70341E+05-1.98079E+03 1.10462E+04-2.69154E+04 1.13019E-08 3.78150E-08
 -1       539-3.48729E+05 3.34196E+03 1.03803E+04 4.91405E+04 6.56873E-08 4.43615E-08
 -1       540-3.89544E+05-5.41349E+02-1.27679E+03-2.32869E+04 6.62385E-09 3.97209E-08
 -1       541-2.81474E+05 3.21754E+03 1.89296E+04 2.95885E+04-1.78595E-08 4.33116E-08
 -1       542-4.35785E+05-3.33194E+03-1.30251E+04-7.31203E+03 2.80129E-08 1.94116E-08
 -1       543-2.46798E+05 4.23584E+03 2.45091E+04-6.95674E+03-7.80483E-09-8.69306E-10
 -1       544-4.23301E+05-2.30636E+03-1.15195E+04 1.32126E+04-9.44806E-09-1.62980E-08
 -1       545-3.09907E+05 7.41588E+02 1.01641E+04-3.96060E+04 8.08359E-09-2.96593E-08
 -1       546-3.74335E+05 1.50766E+03-3.70752E+03 2.53239E+04 8.04437E-09-3.68117E-08
 -1       547-3.56480E+05-3.65809E+03-4.25170E+03-5.08950E+04-4.58343E-08-5.21781E-08
 -1       548-3.77926E+05 3.06564E+03-1.29324E+04 2.45412E+04-4.38478E-08-3.39041E-08
 -1       549-3.07575E+05-1.49089E+04-1.47770E+04-3.64413E+04-2.67117E-08-2.12717E-08
 -1       550-4.21781E+05 1.15606E+04-5.52125E+04 1.08250E+04 1.09480E-09-2.06655E-08
 -1       551 2.08488E+04-6.28715E+05 2.48179E+04-1.03065E+06-5.44896E-08 6.12636E-09
 -1       552 4.66036E+04-6.43412E+05 3.25324E+04-1.46834E+06-4.02069E-08 3.39060E-08
 -1       553 3.34142E+04-6.48987E+05 4.71539E+04-1.02665E+06-6.48579E-08 1.42682E-08
 -1       554 7.44406E+04-6.41383E+05 9.85890E+04-1.46986E+06-4.08181E-08 1.03119E-08
 -1       555 6.19125E+04-6.67906E+05 1.74711E+05-1.02760E+06-6.39993E-08-6.17001E-09
 -1       556 1.14637E+05-2.10456E+05 6.55134E+04-2.61556E+05-1.46829E-08-1.63127E-08
 -1       557 1.98836E+05-2.78208E+05 3.48296E+04-3.29591E+05 1.55705E-09 1.73168E-09
 -1       558 1.11641E+05-2.17643E+05 1.34382E+04-2.55371E+05-8.44011E-09-3.73620E-09
 -1       559 1.84695E+05-2.86307E+05 7.02336E+03-3.36889E+05 8.81846E-09-5.25324E-09
 -1       560 1.07063E+05-2.14693E+05 2.53195E+03-2.58457E+05 3.71074E-09 1.23327E-08
 -1       561 1.78294E+05-2.84210E+05 1.49450E+03-3.41024E+05-2.03727E-10 9.67702E-10
 -1       562 1.03441E+05-2.12353E+05 3.82155E+02-2.61057E+05-1.10595E-09-8.88213E-09
 -1       563 1.74043E+05-2.82366E+05 3.66820E+02-3.43754E+05 1.20308E-08 5.10988E-09
 -1       564 1.01058E+05-2.10843E+05 7.59714E+01-2.62741E+05 1.02518E-08 3.25417E-09
 -1       565 1.71590E+05-2.81303E+05 1.27514E+02-3.45307E+05 5.48243E-09-2.83035E-09
 -1       566 9.99673E+04-2.10142E+05 1.78865E+01-2.63511E+05-1.01136E-09-3.67436E-10
 -1       567 1.70895E+05-2.80988E+05-5.87611E+01-3.45660E+05 1.22911E-08 2.11730E-08
 -1       568 1.00214E+05-2.10310E+05-3.28015E+02-2.63423E+05-5.98448E-09 5.45697E-10
 -1       569 1.71116E+05-2.80884E+05-8.00721E+02-3.44033E+05-7.82165E-09 4.74574E-09
 -1       570 1.02492E+05-2.12191E+05-1.90394E+03-2.63102E+05 1.38243E-10 9.90804E-09
 -1       571 2.18794E+05 8.06228E+03 1.18805E+04-5.69051E+04 1.11231E-09 5.50017E-10
 -1       572 2.20555E+05 2.83944E+03 5.82093E+03-6.24069E+04 3.56522E-10-2.90834E-09
 -1       573 2.19500E+05 7.11878E+02 2.58607E+03-5.67731E+04 1.00863E-09-8.30005E-09
 -1       574 2.19703E+05 2.69103E+02 1.29595E+03-6.25581E+04 6.85986E-10-3.24326E-09
 -1       575 2.19578E+05 7.74839E+01 6.11116E+02-5.67556E+04-2.33968E-10 1.54478E-09
 -1       576 2.19589E+05 6.03343E+01 3.11724E+02-6.25783E+04-2.38805E-09 4.90354E-09
 -1       577 2.19594E+05 4.09621E+01 1.54600E+02-5.67533E+04 7.29869E-11 3.15595E-09
 -1       578 2.19585E+05 4.59692E+01 8.65490E+01-6.25808E+04-2.21735E-09 5.76665E-09
 -1       579 2.19615E+05 3.35400E+01 5.66402E+01-5.67532E+04-1.55615E-09 2.34195E-10
 -1       580 2.19614E+05 3.31993E+01 5.95225E+01-6.25775E+04-3.33466E-09-3.04954E-09
 -1       581 2.19650E+05 1.92197E+01 8.73147E+01-5.67566E+04 9.06766E-10 7.62884E-09
 -1       582 2.19676E+05 3.53218E+01 1.72149E+02-6.25421E+04-2.46473E-10-4.81123E-09
 -1       583 2.19690E+05 7.24820E+01 3.32642E+02-5.67886E+04-4.05635E-10-2.18074E-09
 -1       584 2.19849E+05 3.35713E+02 7.48067E+02-6.22740E+04-8.73115E-10 3.24349E-10
 -1       585 2.19656E+05 9.91699E+02 1.51951E+03-5.70251E+04 4.98403E-10 6.09361E-10
 -1       586-2.70226E+03 7.18286E+04-3.33819E+03-1.95591E+05-9.35870E-10-3.03555E-09
 -1       587-6.35918E+02 7.14119E+04-1.30134E+02-2.15279E+05-1.54978E-09-6.61441E-09
 -1       588 7.36435E+02 7.14604E+04 2.96598E+03-1.95494E+05-8.25821E-10 3.74894E-09
 -1       589 4.04650E+03 7.30720E+04 8.30399E+03-2.15059E+05-7.73070E-11-2.39379E-08
 -1       590 1.19004E+04 7.05300E+04 1.76588E+04-1.95822E+05-5.91172E-10-1.14487E-08
 -1       591-4.52856E+04-1.20402E+04-1.54099E+04-2.22042E+04 1.06525E-10-1.35260E-08
 -1       592-4.72159E+04-1.53388E+04-8.34683E+03-2.56693E+04-2.42306E-09 6.91671E-09
 -1       593-4.68363E+04-1.09123E+04-3.47469E+03-2.33248E+04 7.67045E-10-6.59361E-09
 -1       594-4.50761E+04-1.30909E+04-1.73300E+03-2.57661E+04 2.47263E-09-8.16996E-10
 -1       595-4.69549E+04-1.09077E+04-7.96177E+02-2.33760E+04-1.19292E-09 1.15375E-08
 -1       596-4.49306E+04-1.29880E+04-4.05522E+02-2.57501E+04 3.86953E-09 1.30371E-08
 -1       597-4.69699E+04-1.09178E+04-2.22487E+02-2.33779E+04-1.70246E-09 5.80047E-09
 -1       598-4.49165E+04-1.29840E+04-1.81915E+02-2.57456E+04-2.93312E-10-6.00755E-09
 -1       599-4.69687E+04-1.09180E+04-2.36200E+02-2.33776E+04 5.24983E-09 2.92243E-09
 -1       600-4.49316E+04-1.29891E+04-4.41835E+02-2.57492E+04-4.11546E-10-3.42834E-09
 -1       601-4.69502E+04-1.09076E+04-8.73244E+02-2.33746E+04 1.00977E-09-1.03614E-08
 -1       602-4.50910E+04-1.31018E+04-1.90396E+03-2.57643E+04-9.99080E-10 1.22873E-09
 -1       603-4.68180E+04-1.09147E+04-3.81870E+03-2.33186E+04 1.93654E-09 1.53823E-08
 -1       604-4.74530E+04-1.55606E+04-9.17310E+03-2.56426E+04 2.57535E-09 6.30826E-09
 -1       605-4.51008E+04-1.21649E+04-1.69353E+04-2.20987E+04 1.04592E-09 5.27871E-09
 -1       606 2.77982E+04-1.04939E+04-1.88707E+04 2.69011E+04-2.71484E-09-2.50748E-09
 -1       607 2.45681E+04-3.39675E+03-9.39663E+03 3.02022E+04 3.99268E-10-6.24641E-09
 -1       608 2.64001E+04-5.84157E+02-4.20793E+03 2.66896E+04 3.32511E-09 4.37785E-09
 -1       609 2.60371E+04-1.64035E+02-2.12528E+03 3.04391E+04-6.85759E-10 8.57926E-09
 -1       610 2.62308E+04 1.34589E+01-1.01510E+03 2.66658E+04-3.57613E-09 3.78691E-09
 -1       611 2.61638E+04 2.55026E+01-5.11806E+02 3.04649E+04-7.04176E-09-2.88446E-09
 -1       612 2.61856E+04 3.01544E+01-2.44540E+02 2.66634E+04-3.98813E-09-4.85306E-09
 -1       613 2.61613E+04 3.46533E+01-1.10681E+02 3.04680E+04-4.31191E-09-1.14642E-09
 -1       614 2.61609E+04 3.08571E+01-2.92029E+01 2.66626E+04-9.27685E-11 7.69137E-09
 -1       615 2.61487E+04 4.05417E+01 3.89352E+01 3.04684E+04 5.71936E-09 3.98040E-09
 -1       616 2.61420E+04 3.70942E+01 1.23546E+02 2.66629E+04-3.40242E-09 1.16547E-08
 -1       617 2.61571E+04 7.08631E+01 2.84769E+02 3.04679E+04-6.12999E-10 5.98311E-09
 -1       618 2.61124E+04 1.22253E+02 5.74920E+02 2.66630E+04 1.49157E-10 7.73525E-10
 -1       619 2.63561E+04 5.17912E+02 1.29175E+03 3.04671E+04 3.31647E-09-4.16003E-09
 -1       620 2.59190E+04 1.48786E+03 2.59650E+03 2.66620E+04 3.43823E-09 4.16549E-10
 -1       621 2.84694E+02 2.26869E+05 2.58628E+03 1.34590E+04-1.73941E-11-8.04903E-11
 -1       622 3.42576E+02 2.27503E+05 2.35649E+03 1.95988E+04 1.17893E-10-2.29556E-09
 -1       623 1.97556E+01 2.27025E+05 2.91975E+03 1.33947E+04 6.55120E-11-2.53112E-09
 -1       624 1.38475E+03 2.28449E+05 5.72771E+03 1.96642E+04-6.54836E-11-5.12966E-09
 -1       625 1.39165E+03 2.25902E+05 1.00436E+04 1.33932E+04 1.14596E-10 1.99668E-09
 -1       626 1.97253E+05 5.25468E+04 4.22378E+03 1.03616E+05-9.88939E-09-8.60382E-09
 -1       627 1.94852E+05 5.41870E+04 2.03541E+03 1.07683E+05-2.11026E-08-1.23453E-08
 -1       628 1.97386E+05 5.05776E+04 8.59888E+02 1.04287E+05-5.54428E-09-5.58180E-09
 -1       629 1.94276E+05 5.36733E+04 4.21153E+02 1.07925E+05 6.89397E-10-5.26967E-09
 -1       630 1.97394E+05 5.04849E+04 1.94562E+02 1.04308E+05 4.81123E-10-1.04387E-09
 -1       631 1.94207E+05 5.36591E+04 1.04049E+02 1.07925E+05-5.48334E-09-1.93093E-09
 -1       632 1.97384E+05 5.04920E+04 6.73076E+01 1.04300E+05-2.99224E-09-4.06089E-10
 -1       633 1.94193E+05 5.36643E+04 7.32620E+01 1.07918E+05-1.83240E-09-3.61194E-09
 -1       634 1.97374E+05 5.04928E+04 1.16793E+02 1.04296E+05 1.36151E-09-1.36024E-08
 -1       635 1.94199E+05 5.36656E+04 2.35580E+02 1.07918E+05 3.18221E-09-9.97329E-09
 -1       636 1.97363E+05 5.04912E+04 4.75231E+02 1.04293E+05 6.25380E-09 8.04653E-09
 -1       637 1.94298E+05 5.37407E+04 1.04426E+03 1.07914E+05-3.14054E-09-1.24173E-08
 -1       638 1.97323E+05 5.07233E+04 2.14578E+03 1.04187E+05 1.28102E-09 6.48834E-09
 -1       639 1.95423E+05 5.53085E+04 5.07635E+03 1.07580E+05 1.90312E-10 9.22682E-09
 -1       640 1.97173E+05 5.53976E+04 1.05344E+04 1.02206E+05-5.22869E-09-4.39240E-09
 -1       656 5.23321E+04-1.32872E+06-1.26329E+05-5.19741E+02 1.16415E-09 5.42516E-09
 -1       657-6.91804E+04-1.38575E+06-1.04536E+05 7.54460E+03 9.85892E-10 5.84501E-09
 -1       658 1.66261E+04-1.34496E+06-6.42291E+04-1.95212E+03 2.47837E-11 4.67907E-09
 -1       659-7.43955E+04-1.38822E+06-1.11386E+05 8.56071E+03-9.05857E-10 3.20791E-09
 -1       660 5.75351E+04-1.32625E+06-1.38108E+05-1.53583E+03-8.51287E-10 5.78950E-10
 -1       661 1.68939E+05 1.82646E+04 1.65566E+04 6.60622E+04 1.77442E-09-5.42059E-10
 -1       662 1.77767E+05 3.10483E+04 1.11567E+04 6.29527E+04-6.07145E-10-1.86037E-09
 -1       663 1.72187E+05 2.35787E+04 3.90255E+03 6.51221E+04 3.02748E-10-1.44291E-09
 -1       664 1.74006E+05 2.48299E+04 2.33356E+03 6.40978E+04 1.66855E-09 1.76246E-09
 -1       665 1.72676E+05 2.43082E+04 9.20533E+02 6.49829E+04 8.87894E-11 1.19965E-09
 -1       666 1.73430E+05 2.39929E+04 5.37339E+02 6.42775E+04-4.28666E-09 1.37831E-08
 -1       667 1.72759E+05 2.43939E+04 2.83879E+02 6.49506E+04-1.13116E-09 5.51718E-09
 -1       668 1.73340E+05 2.39275E+04 2.85758E+02 6.43245E+04-8.51983E-10-6.44158E-09
 -1       669 1.72766E+05 2.43716E+04 3.83988E+02 6.49365E+04-2.07474E-09 9.65355E-09
 -1       670 1.73435E+05 2.41331E+04 8.33468E+02 6.43259E+04 6.72056E-09 4.30731E-11
 -1       671 1.72665E+05 2.41924E+04 1.47897E+03 6.49474E+04 6.18599E-11-1.14244E-09
 -1       672 1.74296E+05 2.55720E+04 3.78320E+03 6.41180E+04-1.44885E-09-6.54700E-09
 -1       673 1.71909E+05 2.29689E+04 6.33976E+03 6.51307E+04-2.36764E-09 2.01976E-09
 -1       674 1.80332E+05 3.57557E+04 1.81303E+04 6.23435E+04 2.33217E-09 7.70797E-10
 -1       675 1.66668E+05 1.42936E+04 2.69113E+04 6.66146E+04 3.55203E-09 2.97587E-09
 -1       676 2.06299E+01-2.48475E+05-9.58276E+02 1.88396E+01-1.97960E-09 4.75760E-09
 -1       677-2.54473E+02-2.48706E+05-1.75377E+03-3.76566E+01-1.42370E-09-6.81824E-09
 -1       678 1.69880E+02-2.48310E+05-3.10021E+03 1.88041E+01-9.66793E-10 4.69814E-09
 -1       679-3.10107E+03-2.50578E+05-7.36465E+03-3.75204E+01-2.53408E-10 3.57264E-09
 -1       680 1.85073E+03-2.46604E+05-1.18693E+04 1.84902E+01 1.07821E-09 1.64646E-08
 -1       771-2.64189E+06-5.19955E+05-7.68773E+04-1.15676E+06-1.68948E-08-1.39262E-08
 -1       772-2.60746E+06-5.69098E+05-4.05192E+04-1.21253E+06-8.37463E-09 1.09376E-08
 -1       773-2.65495E+06-5.09648E+05-1.88490E+04-1.16140E+06-7.15954E-09 6.92671E-09
 -1       774-2.59863E+06-5.60973E+05-8.80626E+03-1.22135E+06 1.28421E-08-1.39335E-09
 -1       775-2.66000E+06-5.06083E+05-5.40688E+03-1.16265E+06-5.55883E-09 3.27418E-09
 -1       776-2.60062E+06-5.60804E+05-2.22778E+03-1.22722E+06-1.27911E-08 4.58385E-10
 -1       777-2.66407E+06-5.03080E+05-1.99142E+03-1.16371E+06-2.53203E-09 3.88536E-09
 -1       778-2.60308E+06-5.60785E+05-6.54156E+02-1.23218E+06 1.79716E-09 4.10546E-09
 -1       779-2.66747E+06-5.00517E+05-9.09480E+02-1.16463E+06-1.36788E-09-4.80759E-09
 -1       780-2.60529E+06-5.60718E+05-2.50696E+02-1.23621E+06-3.69619E-09-6.91944E-09
 -1       781-2.67010E+06-4.98481E+05-4.85097E+02-1.16535E+06-8.93488E-09-2.87400E-09
 -1       782-2.60700E+06-5.60634E+05-2.67504E+02-1.23916E+06-1.79862E-08-3.76076E-09
 -1       783-2.67190E+06-4.97101E+05-5.73639E+02-1.16586E+06-8.88758E-09-1.41360E-08
 -1       784-2.60835E+06-5.60840E+05-1.08317E+03-1.24094E+06-7.07223E-09 5.30508E-09
 -1       785-2.67262E+06-4.96546E+05-2.05915E+03-1.16597E+06-1.66947E-08 2.53021E-09
 -1       786 1.44783E+05-9.31903E+03 2.15594E+04-9.91328E+01 1.38169E-09-3.19233E-10
 -1       787 1.54129E+05 1.07885E+04 1.52527E+04 2.63438E+01 2.68965E-09-2.68119E-09
 -1       788 1.48388E+05-1.46081E+03 5.57915E+03-7.64517E+01 9.17748E-10 3.16277E-09
 -1       789 1.49930E+05 1.69013E+03 3.50411E+03-1.05150E+01-3.06171E-10-1.13459E-09
 -1       790 1.48983E+05-2.28043E+02 1.42275E+03-6.22774E+01-2.53208E-10-5.90785E-09
 -1       791 1.49235E+05 2.64086E+02 8.29461E+02-3.55482E+01-2.25810E-09 6.39147E-10
 -1       792 1.49083E+05-3.58361E+01 3.66952E+02-5.14186E+01-1.87025E-10 3.57049E-09
 -1       793 1.49119E+05 4.47204E+01 2.16832E+02-5.68343E+01 2.11315E-10 6.94809E-09
 -1       794 1.49099E+05-8.81827E+00 1.24483E+02-4.09910E+01 1.08429E-09-7.06460E-09
 -1       795 1.49110E+05 3.17565E+01 1.27846E+02-7.98204E+01-1.03582E-09-4.38586E-09
 -1       796 1.49092E+05-2.28764E+01 1.59916E+02-2.84321E+01 6.44513E-10 8.02589E-09
 -1       797 1.49174E+05 1.64591E+02 3.50948E+02-1.10116E+02 7.71245E-10 5.31661E-09
 -1       798 1.49035E+05-1.41558E+02 5.45528E+02-1.06949E+01 5.28422E-10-1.25463E-08
 -1       799 1.49581E+05 1.04482E+03 1.47972E+03-1.55130E+02 5.23263E-10-3.09376E-09
 -1       800 1.48685E+05-9.02404E+02 2.08799E+03 1.65829E+01 6.35776E-11 6.15717E-09
 -1       801 7.79780E+04-2.75019E+06-2.56726E+05 4.97751E+04 1.82918E-08-4.44334E-09
 -1       802-9.29238E+04-2.51085E+06-1.14778E+05-5.23872E+04 4.89308E-08-1.81080E-09
 -1       803 1.27760E+04-2.63221E+06-4.68376E+04 1.29242E+05 3.57759E-08 3.50253E-08
 -1       804 1.44930E+04-2.49797E+06 2.51435E+04-1.46600E+03 3.43462E-08 3.66253E-08
 -1       805-3.09018E+04-2.76272E+06 8.58713E+03-1.15331E+03 1.30312E-08 2.16291E-08
 -1       806-2.40459E+05-4.68487E+04-1.82400E+04-9.53848E+04-1.70303E-09-2.07820E-09
 -1       807-2.41950E+05-4.38161E+04-8.96108E+03-9.97390E+04 6.85941E-09 7.12600E-09
 -1       808-2.40952E+05-4.02831E+04-3.80151E+03-9.85032E+04-1.29785E-09-1.22689E-08
 -1       809-2.40065E+05-4.13005E+04-1.85876E+03-9.99633E+04-3.36354E-09 1.12732E-08
 -1       810-2.41029E+05-4.00537E+04-8.51607E+02-9.86416E+04 1.62390E-09 2.50861E-09
 -1       811-2.39920E+05-4.11993E+04-4.23100E+02-9.99369E+04 1.64505E-09-4.56726E-09
 -1       812-2.41042E+05-4.00723E+04-2.12896E+02-9.86416E+04-1.68029E-09-4.45334E-09
 -1       813-2.39901E+05-4.12009E+04-1.36852E+02-9.99237E+04 2.42721E-09-8.21387E-10
 -1       814-2.41038E+05-4.00790E+04-1.32883E+02-9.86389E+04-8.29914E-10 1.50862E-09
 -1       815-2.39905E+05-4.12025E+04-2.12045E+02-9.99198E+04-1.87219E-09 1.01331E-08
 -1       816-2.41024E+05-4.00773E+04-4.00165E+02-9.86368E+04-7.50606E-09 8.75707E-09
 -1       817-2.39974E+05-4.12404E+04-8.58768E+02-9.99130E+04-1.07584E-08 4.31828E-09
 -1       818-2.40974E+05-4.01971E+04-1.75093E+03-9.85800E+04-5.84623E-09 1.02000E-09
 -1       819-2.40934E+05-4.22981E+04-4.12064E+03-9.96882E+04-5.62068E-09-8.16567E-09
 -1       820-2.40650E+05-4.33052E+04-8.38648E+03-9.72455E+04-2.74031E-09-6.26869E-10
 -1       821-2.97621E+05 1.64635E+04-3.80752E+04 3.15741E+02 1.80970E-09 2.71029E-10
 -1       822-3.14116E+05-1.90593E+04-2.69430E+04-1.01541E+03-1.52163E-09 1.21331E-08
 -1       823-3.03985E+05 2.58151E+03-9.86117E+03 3.34270E+02-4.38049E-10 1.89220E-09
 -1       824-3.06684E+05-2.98745E+03-6.20331E+03-8.48455E+02 1.68512E-10-3.45699E-09
 -1       825-3.05050E+05 4.03740E+02-2.55265E+03 1.48783E+02-8.78781E-10 1.05283E-08
 -1       826-3.05437E+05-4.75693E+02-1.53494E+03-3.57401E+02-2.43374E-09-4.30327E-09
 -1       827-3.05230E+05 7.10404E+01-8.02299E+02-1.56792E+02-2.68350E-09-8.85171E-09
 -1       828-3.05271E+05-1.45281E+02-7.02898E+02 2.38191E+02-4.59779E-09 5.10783E-09
 -1       829-3.05216E+05 7.36311E+01-8.17770E+02-4.46820E+02 5.99805E-10-2.32401E-09
 -1       830-3.05479E+05-4.93495E+02-1.59366E+03 6.73609E+02 1.88427E-09 6.69320E-09
 -1       831-3.05023E+05 4.19588E+02-2.64312E+03-5.92219E+02-2.07724E-09-3.49530E-09
 -1       832-3.06755E+05-3.10043E+03-6.44113E+03 7.55597E+02-1.61750E-09 1.33040E-08
 -1       833-3.03941E+05 2.67884E+03-1.02377E+04-5.28808E+02-2.06150E-09 6.77437E-09
 -1       834-3.14430E+05-1.97834E+04-2.79650E+04 4.47063E+02-1.57259E-09-2.08729E-09
 -1       835-2.97350E+05 1.70892E+04-3.95315E+04-2.83671E+02 5.85469E-09-2.15186E-09
 -1       836-1.00781E+03 2.80715E+05 1.70112E+04-1.84021E+04-5.63887E-11 1.59071E-09
 -1       837 3.71419E+03 2.86000E+05 1.45557E+04-3.69922E+04 7.61020E-10 2.46791E-09
 -1       838-3.83354E+02 2.82176E+05 1.50558E+04-1.83336E+04 7.14408E-10-8.48581E-09
 -1       839 9.65208E+03 2.90425E+05 2.87025E+04-3.70279E+04 9.29504E-10 5.96489E-09
 -1       840-2.92226E+03 2.76247E+05 4.58654E+04-1.83654E+04 5.98448E-10-6.70855E-09
 -1       856-7.80362E+04 7.57818E+03-1.99709E+04-4.31525E+02-2.22650E-09-5.24778E-09
 -1       857-8.62822E+04-8.88999E+03-1.37490E+04 4.72038E+03-1.24624E-09-9.47693E-09
 -1       858-8.12952E+04 1.06189E+03-5.18278E+03-4.53509E+02-3.74615E-09 5.68298E-09
 -1       859-8.25405E+04-1.23603E+03-3.12953E+03 4.75514E+03-4.62592E-10 8.68602E-09
 -1       860-8.17823E+04 1.47772E+02-1.31482E+03-4.66368E+02 1.27670E-10-8.50270E-09
 -1       861-8.19796E+04-1.64190E+02-7.30119E+02 4.77275E+03-2.80614E-09-1.52106E-08
 -1       862-8.18581E+04 1.95278E+01-3.17165E+02-4.71146E+02-2.08075E-09-9.35127E-09
 -1       863-8.18890E+04-1.15420E+01-1.46555E+02 4.77501E+03-9.73550E-11-2.70266E-09
 -1       864-8.18731E+04-1.49226E+00-2.52462E+01-4.68630E+02-1.09357E-09 7.76154E-09
 -1       865-8.18557E+04 3.41791E+01 8.56392E+01 4.76212E+03 2.97341E-09 9.65042E-09
 -1       866-8.18898E+04-2.66020E+01 2.08382E+02-4.58254E+02-1.55899E-09-7.13592E-09
 -1       867-8.17478E+04 2.21864E+02 5.36075E+02 4.73391E+03 2.60712E-10-8.97322E-09
 -1       868-8.19774E+04-1.86922E+02 8.96163E+02-4.40420E+02 3.30374E-10-5.57776E-09
 -1       869-8.10834E+04 1.55344E+03 2.39499E+03 4.68718E+03 5.51722E-10-1.80595E-08
 -1       870-8.25485E+04-1.32366E+03 3.47420E+03-4.11529E+02 1.25647E-09 1.10663E-09
 -1       871-4.47067E+03-1.05332E+04-1.46690E+04 9.71613E+04 1.06866E-09 7.33053E-10
 -1       872-1.89761E+03-1.38396E+04-6.01412E+03 1.25968E+05 1.93904E-09-4.20550E-09
 -1       873 3.06614E+00-1.22918E+04 7.65569E+02 9.69482E+04 5.46152E-10 2.99133E-09
 -1       874 2.26856E+03-1.02193E+04 8.11291E+03 1.26008E+05 1.43609E-09 8.93260E-09
 -1       875 5.27004E+03-1.42164E+04 1.80511E+04 9.71271E+04 8.99490E-10-9.27866E-09
 -1       876 2.35260E+05 4.03119E+04 1.24160E+04 9.51893E+04-2.53982E-09 3.61979E-09
 -1       877 2.36005E+05 4.30031E+04 6.63052E+03 9.88238E+04-3.94630E-09 4.48472E-09
 -1       878 2.36420E+05 3.89382E+04 2.77787E+03 9.62090E+04-8.39918E-10-5.97674E-09
 -1       879 2.34316E+05 4.13203E+04 1.38391E+03 9.89102E+04-2.07092E-09-3.19130E-09
 -1       880 2.36504E+05 3.89233E+04 6.44405E+02 9.62506E+04 3.76986E-10-4.66395E-09
 -1       881 2.34204E+05 4.12486E+04 3.43552E+02 9.88920E+04 3.96881E-09-2.89471E-09
 -1       882 2.36512E+05 3.89337E+04 2.18809E+02 9.62518E+04 2.63913E-09-6.69984E-09
 -1       883 2.34196E+05 4.12451E+04 2.33649E+02 9.88866E+04 5.83259E-09-6.23072E-09
 -1       884 2.36507E+05 3.89313E+04 3.70246E+02 9.62520E+04 4.76240E-09 9.02986E-09
 -1       885 2.34225E+05 4.12504E+04 7.43506E+02 9.88958E+04 2.71447E-09 2.61866E-09
 -1       886 2.36478E+05 3.89095E+04 1.49808E+03 9.62490E+04 2.16589E-09 8.40623E-09
 -1       887 2.34488E+05 4.14230E+04 3.27222E+03 9.89338E+04-2.67539E-09 7.45399E-09
 -1       888 2.36272E+05 3.89458E+04 6.59358E+03 9.61443E+04 3.78358E-09 3.10501E-09
 -1       889 2.38417E+05 4.55030E+04 1.57513E+04 9.88105E+04-4.30877E-10-1.07964E-08
 -1       890 2.33585E+05 4.21371E+04 2.95013E+04 9.36289E+04-2.01044E-09-1.59343E-09
 -1       891-1.35871E+02-1.32764E+05-1.58646E+03 2.44118E+04-1.43700E-10 4.71005E-09
 -1       892-2.38792E+02-1.33149E+05-1.71839E+03 3.69573E+04-7.75799E-10 1.75987E-09
 -1       893-3.08654E+01-1.32813E+05-2.44813E+03 2.44170E+04-4.02906E-10 1.11554E-08
 -1       894-1.32094E+03-1.34082E+05-5.07757E+03 3.68247E+04 1.22236E-09 2.73030E-09
 -1       895-1.03578E+03-1.31755E+05-8.94597E+03 2.45430E+04-1.19144E-09-1.79443E-09
 -1       956-2.97602E+05-4.20973E+03-1.05765E+04 2.02576E+04-2.65663E-09 7.55290E-09
 -1       957-2.99689E+05-1.42624E+03-5.42942E+03 2.43953E+04-4.11455E-09-8.70295E-09
 -1       958-2.98542E+05-1.19976E+02-2.44619E+03 2.01329E+04 3.83807E-10 2.38970E-09
 -1       959-2.98708E+05-2.70655E+01-1.24944E+03 2.45319E+04-1.59980E-09 9.13064E-09
 -1       960-2.98627E+05 2.93052E+01-6.09169E+02 2.01207E+04-8.54016E-10-5.34260E-09
 -1       961-2.98637E+05 2.64435E+01-3.23250E+02 2.45458E+04-2.31876E-09 1.15604E-08
 -1       962-2.98645E+05 2.56199E+01-1.85168E+02 2.01188E+04-3.32420E-10 1.44187E-08
 -1       963-2.98635E+05 2.80976E+01-1.48881E+02 2.45483E+04-3.12912E-09-2.45564E-09
 -1       964-2.98649E+05 2.78020E+01-1.81077E+02 2.01182E+04-1.53420E-09 8.74047E-09
 -1       965-2.98645E+05 3.11220E+01-3.13195E+02 2.45482E+04-7.80148E-10 9.06380E-09
 -1       966-2.98639E+05 3.57840E+01-5.88152E+02 2.01190E+04-3.52748E-09-2.52669E-09
 -1       967-2.98721E+05-1.59725E+01-1.20639E+03 2.45397E+04-4.24700E-09-7.03074E-09
 -1       968-2.98563E+05-1.04034E+02-2.36105E+03 2.01268E+04 9.49967E-10 1.92267E-09
 -1       969-2.99677E+05-1.36298E+03-5.24216E+03 2.44490E+04 2.45723E-09 2.66792E-09
 -1       970-2.97660E+05-4.05003E+03-1.02109E+04 2.02112E+04 2.18006E-09 4.61205E-09
 -1       971-2.79640E+05-1.45508E+03-8.05613E+03 1.32951E+04-7.40374E-09-2.53152E-10
 -1       972-2.81597E+05-1.04618E+03-4.38729E+03 1.85497E+04-1.39262E-08-5.78564E-09
 -1       973-2.80537E+05-1.48466E+01-1.96468E+03 1.31845E+04-8.71523E-09-3.53816E-09
 -1       974-2.80671E+05-1.62552E+01-1.01790E+03 1.86699E+04 1.62800E-10 4.14627E-09
 -1       975-2.80607E+05 2.32666E+01-5.07949E+02 1.31742E+04 5.75255E-10-1.64903E-09
 -1       976-2.80616E+05 2.62881E+01-2.91473E+02 1.86826E+04-1.92040E-09-2.33081E-09
 -1       977-2.80620E+05 2.33407E+01-2.08743E+02 1.31718E+04-3.44926E-10-1.75930E-09
 -1       978-2.80620E+05 3.12173E+01-2.40443E+02 1.86861E+04 7.38555E-09-2.99451E-10
 -1       979-2.80620E+05 2.99845E+01-3.83029E+02 1.31707E+04 4.92963E-09 5.01393E-09
 -1       980-2.80648E+05 3.36346E+01-7.37521E+02 1.86867E+04 4.91779E-09 5.32816E-09
 -1       981-2.80597E+05 4.83590E+01-1.42733E+03 1.31711E+04-5.53314E-10 7.54528E-09
 -1       982-2.80844E+05-7.17758E+01-2.94966E+03 1.86810E+04-2.81034E-09 6.53409E-09
 -1       983-2.80417E+05-4.29636E+01-5.73089E+03 1.31766E+04 4.43833E-10 6.06269E-09
 -1       984-2.83600E+05-3.06470E+03-1.28336E+04 1.86059E+04-2.72303E-09 8.91669E-09
 -1       985-2.77823E+05-4.23648E+03-2.35666E+04 1.32502E+04 3.29101E-09 6.63022E-09
 -3
    1PSTEP                        17           9           1          
  100CL  109 5.65430E-01         409                     0    9           1
 -4  DISP        4    1
 -5  D1          1    2    1    0
 -5  D2          1    2    2    0
 -5  D3          1    2    3    0
 -5  ALL         1    2    0    0    1ALL
 -1         1 3.67991E-04 0.00000E+00 0.00000E+00
 -1         2 3.33402E-04-1.70216E-30-6.61744E-24
 -1         3 1.99646E-04-4.83154E-28 0.00000E+00
 -1         5 1.23412E-04 1.79908E-26-3.30872E-24
 -1         8 3.44296E-04-7.86763E-07 0.00000E+00
 -1         9 3.29780E-04-1.36583E-06 0.00000E+00
 -1        10 1.82828E-04-2.65499E-06 1.32349E-23
 -1        12 1.23411E-04 6.23061E-07 1.65436E-24
 -1        15 3.15950E-04-8.73484E-07 2.06795E-25
 -1        16 3.21782E-04-1.71307E-06 0.00000E+00
 -1        17 1.30033E-04-5.71569E-06 0.00000E+00
 -1        18 1.22155E-04 8.63009E-06 0.00000E+00
 -1        19 1.23409E-04 1.24298E-06 0.00000E+00
 -1        20 1.23556E-04 1.03565E-05 0.00000E+00
 -1        21 1.22909E-04 1.77138E-05 3.30872E-24
 -1        24 2.40966E-05-8.03277E-06 0.00000E+00
 -1        25 1.23628E-04 8.77841E-06 0.00000E+00
 -1        26 1.24384E-04 1.72242E-06 0.00000E+00
 -1        27 1.22668E-04 7.52262E-06 0.00000E+00
 -1        28 1.22226E-04 1.71877E-05 0.00000E+00
 -1        32 0.00000E+00 0.00000E+00 0.00000E+00
 -1        33 1.24223E-04 2.30855E-06 0.00000E+00
 -1        34 1.22519E-04 7.49443E-06 0.00000E+00
 -1        35 1.20925E-04 1.69064E-05 0.00000E+00
 -1        51 3.66457E-04-1.33666E-07 0.00000E+00
 -1        52 3.63607E-04-2.59304E-07 0.00000E+00
 -1        53 3.59699E-04-3.85415E-07 0.00000E+00
 -1        54 3.54999E-04-5.13823E-07-3.30872E-24
 -1        55 3.49775E-04-6.45598E-07 4.13590E-24
 -1        56 3.65947E-04-7.79685E-07 0.00000E+00
 -1        57 3.63827E-04-1.58791E-06 2.64698E-23
 -1        58 3.61695E-04-2.34732E-06 0.00000E+00
 -1        59 3.59515E-04-3.01884E-06-2.64698E-23
 -1        60 3.57286E-04-3.56146E-06 0.00000E+00
 -1        61 3.54995E-04-3.94597E-06 0.00000E+00
 -1        62 3.52639E-04-4.15799E-06 0.00000E+00
 -1        63 3.50216E-04-4.19248E-06 0.00000E+00
 -1        64 3.47731E-04-4.06195E-06-5.29396E-23
 -1        65 3.45192E-04-3.78705E-06-2.64698E-23
 -1        66 3.42612E-04-3.40303E-06 5.29396E-23
 -1        67 3.40008E-04-2.94996E-06 0.00000E+00
 -1        68 3.37397E-04-2.47585E-06-5.29396E-23
 -1        69 3.34806E-04-2.02532E-06-2.64698E-23
 -1        70 3.32240E-04-1.64955E-06-5.29396E-23
 -1        86 3.33283E-04-2.23036E-07 6.61744E-24
 -1        87 3.32926E-04-4.46615E-07 0.00000E+00
 -1        88 3.32360E-04-6.70360E-07 6.61744E-24
 -1        89 3.31613E-04-8.97304E-07 6.61744E-24
 -1        90 3.30736E-04-1.12331E-06 1.32349E-23
 -1       121 1.99175E-04-4.37458E-07 1.32349E-23
 -1       122 1.97763E-04-8.75774E-07 0.00000E+00
 -1       123 1.95414E-04-1.31580E-06 1.32349E-23
 -1       124 1.92135E-04-1.75843E-06 6.61744E-24
 -1       125 1.87935E-04-2.20433E-06 0.00000E+00
 -1       191 1.23412E-04 1.03847E-07 3.30872E-24
 -1       192 1.23412E-04 2.07693E-07 0.00000E+00
 -1       193 1.23412E-04 3.11539E-07 0.00000E+00
 -1       194 1.23412E-04 4.15384E-07-1.65436E-24
 -1       195 1.23412E-04 5.19225E-07 0.00000E+00
 -1       251 3.43576E-04 9.88209E-06 0.00000E+00
 -1       252 3.42661E-04 3.20698E-05-6.61744E-24
 -1       253 3.41707E-04 5.62090E-05 2.64698E-23
 -1       254 3.40900E-04 7.26729E-05 1.32349E-23
 -1       255 3.40205E-04 7.59713E-05-2.64698E-23
 -1       256 3.39407E-04 6.10007E-05 0.00000E+00
 -1       257 3.38333E-04 3.23071E-05 0.00000E+00
 -1       258 3.36980E-04-5.16284E-06-1.32349E-23
 -1       259 3.35656E-04-4.17465E-05 2.64698E-23
 -1       260 3.34650E-04-6.78054E-05 0.00000E+00
 -1       261 3.33896E-04-7.93452E-05 2.64698E-23
 -1       262 3.33185E-04-7.27971E-05 0.00000E+00
 -1       263 3.32341E-04-5.41509E-05 0.00000E+00
 -1       264 3.31379E-04-2.97505E-05-1.32349E-23
 -1       265 3.30490E-04-9.04203E-06 0.00000E+00
 -1       266 3.39572E-04-8.12426E-07 3.30872E-24
 -1       267 3.34847E-04-8.25513E-07 8.27181E-25
 -1       268 3.30123E-04-8.39397E-07 0.00000E+00
 -1       269 3.25398E-04-8.50921E-07 4.13590E-25
 -1       270 3.20674E-04-8.62390E-07-4.13590E-25
 -1       271 3.41464E-04 3.05340E-06 0.00000E+00
 -1       272 3.38905E-04 6.05373E-06 0.00000E+00
 -1       273 3.36648E-04 8.26178E-06-2.64698E-23
 -1       274 3.34667E-04 9.71958E-06-1.32349E-23
 -1       275 3.32945E-04 1.04865E-05 5.29396E-23
 -1       276 3.31457E-04 1.06306E-05 0.00000E+00
 -1       277 3.30172E-04 1.02309E-05 0.00000E+00
 -1       278 3.29059E-04 9.37439E-06 0.00000E+00
 -1       279 3.28081E-04 8.15618E-06 0.00000E+00
 -1       280 3.27200E-04 6.67691E-06 0.00000E+00
 -1       281 3.26379E-04 5.04151E-06 5.29396E-23
 -1       282 3.25576E-04 3.35753E-06 1.32349E-23
 -1       283 3.24751E-04 1.73310E-06 0.00000E+00
 -1       284 3.23867E-04 2.76866E-07 0.00000E+00
 -1       285 3.22882E-04-9.08436E-07 0.00000E+00
 -1       301 3.28343E-04-1.44061E-06-6.61744E-24
 -1       302 3.26659E-04-1.49050E-06 0.00000E+00
 -1       303 3.24945E-04-1.53891E-06 6.61744E-24
 -1       304 3.23417E-04-1.58725E-06 0.00000E+00
 -1       305 3.22291E-04-1.63696E-06-1.32349E-23
 -1       306 3.39324E-04-3.67149E-05 0.00000E+00
 -1       307 3.69652E-04-1.40964E-04 0.00000E+00
 -1       308 4.12681E-04-2.96699E-04 0.00000E+00
 -1       309 4.61663E-04-4.81808E-04-2.64698E-23
 -1       310 5.10628E-04-6.66835E-04 5.29396E-23
 -1       311 5.53587E-04-8.22321E-04 0.00000E+00
 -1       312 5.83800E-04-9.26218E-04 1.05879E-22
 -1       313 5.93134E-04-9.61176E-04-2.64698E-23
 -1       314 5.75902E-04-9.25632E-04-5.29396E-23
 -1       315 5.28540E-04-8.23838E-04-2.64698E-23
 -1       316 4.56023E-04-6.73688E-04 0.00000E+00
 -1       317 3.67519E-04-4.95793E-04 0.00000E+00
 -1       318 2.77974E-04-3.16130E-04-5.29396E-23
 -1       319 2.02548E-04-1.60729E-04 2.64698E-23
 -1       320 1.51247E-04-5.09729E-05 5.29396E-23
 -1       336 1.76709E-04-3.14568E-06-1.32349E-23
 -1       337 1.69479E-04-3.64409E-06 6.61744E-24
 -1       338 1.61163E-04-4.15040E-06 0.00000E+00
 -1       339 1.51793E-04-4.66469E-06 0.00000E+00
 -1       340 1.41404E-04-5.18872E-06 0.00000E+00
 -1       406 1.23411E-04 7.26885E-07 3.30872E-24
 -1       407 1.23411E-04 8.30676E-07 1.65436E-24
 -1       408 1.23410E-04 9.34405E-07 0.00000E+00
 -1       409 1.23410E-04 1.03795E-06 0.00000E+00
 -1       410 1.23409E-04 1.14111E-06 0.00000E+00
 -1       521 3.33895E-04-4.72708E-05 0.00000E+00
 -1       522 3.70272E-04-1.78488E-04 0.00000E+00
 -1       523 4.20536E-04-3.74016E-04 0.00000E+00
 -1       524 4.76675E-04-6.05739E-04 0.00000E+00
 -1       525 5.32704E-04-8.36760E-04-1.05879E-22
 -1       526 5.82574E-04-1.03025E-03-5.29396E-23
 -1       527 6.18193E-04-1.15848E-03 0.00000E+00
 -1       528 6.29074E-04-1.20061E-03 0.00000E+00
 -1       529 6.06570E-04-1.15466E-03 0.00000E+00
 -1       530 5.45192E-04-1.02721E-03 5.29396E-23
 -1       531 4.50518E-04-8.40339E-04 0.00000E+00
 -1       532 3.34532E-04-6.19813E-04 0.00000E+00
 -1       533 2.17122E-04-3.97094E-04 0.00000E+00
 -1       534 1.18499E-04-2.03713E-04 0.00000E+00
 -1       535 5.18374E-05-6.62681E-05 5.29396E-23
 -1       536 1.29739E-04 1.19220E-05 0.00000E+00
 -1       537 1.29194E-04 4.10807E-05-3.30872E-24
 -1       538 1.28432E-04 7.73012E-05 3.30872E-24
 -1       539 1.27578E-04 1.16087E-04 0.00000E+00
 -1       540 1.26817E-04 1.52238E-04 0.00000E+00
 -1       541 1.26299E-04 1.80570E-04 1.65436E-24
 -1       542 1.26015E-04 1.97987E-04 0.00000E+00
 -1       543 1.25871E-04 2.01463E-04 0.00000E+00
 -1       544 1.25687E-04 1.91560E-04 3.30872E-24
 -1       545 1.25303E-04 1.68926E-04 1.65436E-24
 -1       546 1.24699E-04 1.37520E-04 0.00000E+00
 -1       547 1.23940E-04 1.01351E-04 1.65436E-24
 -1       548 1.23198E-04 6.57149E-05 3.30872E-24
 -1       549 1.22642E-04 3.59075E-05-1.65436E-24
 -1       550 1.22309E-04 1.56560E-05 1.65436E-24
 -1       551 1.15733E-04-6.04892E-06 0.00000E+00
 -1       552 9.90278E-05-6.41184E-06 0.00000E+00
 -1       553 8.07091E-05-6.80004E-06 0.00000E+00
 -1       554 6.15797E-05-7.20437E-06 6.61744E-24
 -1       555 4.24429E-05-7.61159E-06 2.64698E-23
 -1       556 1.26029E-04 4.61590E-06 0.00000E+00
 -1       557 1.22884E-04 1.27530E-05 0.00000E+00
 -1       558 1.20510E-04 1.88829E-05 0.00000E+00
 -1       559 1.18826E-04 2.32086E-05 0.00000E+00
 -1       560 1.17749E-04 2.59327E-05 0.00000E+00
 -1       561 1.17201E-04 2.72593E-05 0.00000E+00
 -1       562 1.17102E-04 2.73929E-05 0.00000E+00
 -1       563 1.17373E-04 2.65383E-05 0.00000E+00
 -1       564 1.17937E-04 2.49008E-05 0.00000E+00
 -1       565 1.18717E-04 2.26858E-05 0.00000E+00
 -1       566 1.19636E-04 2.00989E-05 3.30872E-24
 -1       567 1.20617E-04 1.73457E-05-4.13590E-25
 -1       568 1.21583E-04 1.46319E-05 1.65436E-24
 -1       569 1.22458E-04 1.21630E-05 0.00000E+00
 -1       570 1.23165E-04 1.01447E-05 0.00000E+00
 -1       571 1.22231E-04 8.16269E-06 8.27181E-25
 -1       572 1.22309E-04 7.64898E-06 4.13590E-25
 -1       573 1.22387E-04 7.09861E-06 8.27181E-25
 -1       574 1.22465E-04 6.52173E-06 0.00000E+00
 -1       575 1.22544E-04 5.92847E-06 3.30872E-24
 -1       576 1.22623E-04 5.32905E-06-1.65436E-24
 -1       577 1.22701E-04 4.73369E-06 0.00000E+00
 -1       578 1.22780E-04 4.15263E-06 1.65436E-24
 -1       579 1.22858E-04 3.59607E-06 0.00000E+00
 -1       580 1.22937E-04 3.07426E-06-1.65436E-24
 -1       581 1.23016E-04 2.59742E-06 0.00000E+00
 -1       582 1.23094E-04 2.17577E-06 0.00000E+00
 -1       583 1.23173E-04 1.81951E-06 0.00000E+00
 -1       584 1.23252E-04 1.53875E-06 0.00000E+00
 -1       585 1.23331E-04 1.34351E-06 0.00000E+00
 -1       586 1.22347E-04 8.65652E-06 0.00000E+00
 -1       587 1.22514E-04 8.68229E-06-3.10193E-25
 -1       588 1.22691E-04 8.70777E-06 0.00000E+00
 -1       589 1.22913E-04 8.73277E-06 0.00000E+00
 -1       590 1.23214E-04 8.75694E-06 0.00000E+00
 -1       591 1.22292E-04 8.21299E-06-2.06795E-25
 -1       592 1.22436E-04 7.76835E-06 0.00000E+00
 -1       593 1.22588E-04 7.30228E-06 4.13590E-25
 -1       594 1.22745E-04 6.82010E-06 0.00000E+00
 -1       595 1.22907E-04 6.32719E-06 0.00000E+00
 -1       596 1.23071E-04 5.82888E-06 4.13590E-25
 -1       597 1.23234E-04 5.33051E-06 8.27181E-25
 -1       598 1.23396E-04 4.83741E-06-4.13590E-25
 -1       599 1.23553E-04 4.35490E-06-8.27181E-25
 -1       600 1.23705E-04 3.88830E-06 4.13590E-25
 -1       601 1.23849E-04 3.44294E-06 0.00000E+00
 -1       602 1.23983E-04 3.02416E-06 0.00000E+00
 -1       603 1.24105E-04 2.63728E-06 3.10193E-25
 -1       604 1.24213E-04 2.28771E-06 5.16988E-26
 -1       605 1.24306E-04 1.98071E-06 0.00000E+00
 -1       606 1.23422E-04 1.31613E-06 0.00000E+00
 -1       607 1.23432E-04 1.48464E-06-1.65436E-24
 -1       608 1.23442E-04 1.74292E-06 0.00000E+00
 -1       609 1.23451E-04 2.08464E-06 1.65436E-24
 -1       610 1.23460E-04 2.50346E-06 0.00000E+00
 -1       611 1.23469E-04 2.99294E-06 0.00000E+00
 -1       612 1.23478E-04 3.54665E-06 0.00000E+00
 -1       613 1.23487E-04 4.15814E-06 0.00000E+00
 -1       614 1.23496E-04 4.82096E-06 0.00000E+00
 -1       615 1.23505E-04 5.52867E-06 0.00000E+00
 -1       616 1.23514E-04 6.27482E-06 0.00000E+00
 -1       617 1.23522E-04 7.05296E-06 0.00000E+00
 -1       618 1.23531E-04 7.85663E-06 0.00000E+00
 -1       619 1.23540E-04 8.67942E-06 0.00000E+00
 -1       620 1.23548E-04 9.51485E-06 0.00000E+00
 -1       621 1.23458E-04 1.32306E-06 1.65436E-24
 -1       622 1.23569E-04 1.40342E-06 8.27181E-25
 -1       623 1.23730E-04 1.48375E-06 1.65436E-24
 -1       624 1.23927E-04 1.56393E-06 0.00000E+00
 -1       625 1.24150E-04 1.64396E-06 1.65436E-24
 -1       626 1.23471E-04 1.34394E-06 0.00000E+00
 -1       627 1.23505E-04 1.52185E-06 0.00000E+00
 -1       628 1.23514E-04 1.76892E-06 0.00000E+00
 -1       629 1.23500E-04 2.07696E-06-1.65436E-24
 -1       630 1.23466E-04 2.43773E-06 0.00000E+00
 -1       631 1.23415E-04 2.84298E-06-1.65436E-24
 -1       632 1.23350E-04 3.28442E-06-3.30872E-24
 -1       633 1.23276E-04 3.75381E-06 0.00000E+00
 -1       634 1.23193E-04 4.24287E-06 0.00000E+00
 -1       635 1.23107E-04 4.74333E-06-1.65436E-24
 -1       636 1.23019E-04 5.24694E-06 0.00000E+00
 -1       637 1.22933E-04 5.74542E-06 8.27181E-25
 -1       638 1.22853E-04 6.23052E-06-1.65436E-24
 -1       639 1.22780E-04 6.69395E-06 0.00000E+00
 -1       640 1.22718E-04 7.12744E-06-1.65436E-24
 -1       656 1.22934E-04 9.89544E-06 0.00000E+00
 -1       657 1.22697E-04 9.41596E-06-6.61744E-24
 -1       658 1.22706E-04 8.93790E-06 0.00000E+00
 -1       659 1.22816E-04 8.46023E-06 0.00000E+00
 -1       660 1.22859E-04 7.98106E-06 0.00000E+00
 -1       661 1.23327E-04 1.11658E-05 0.00000E+00
 -1       662 1.23125E-04 1.19092E-05-8.27181E-25
 -1       663 1.22947E-04 1.25893E-05 0.00000E+00
 -1       664 1.22792E-04 1.32101E-05 0.00000E+00
 -1       665 1.22658E-04 1.37750E-05 0.00000E+00
 -1       666 1.22544E-04 1.42873E-05 0.00000E+00
 -1       667 1.22448E-04 1.47504E-05 1.65436E-24
 -1       668 1.22369E-04 1.51675E-05 0.00000E+00
 -1       669 1.22307E-04 1.55415E-05-1.65436E-24
 -1       670 1.22260E-04 1.58754E-05-8.27181E-25
 -1       671 1.22226E-04 1.61720E-05 0.00000E+00
 -1       672 1.22206E-04 1.64341E-05-8.27181E-25
 -1       673 1.22197E-04 1.66644E-05-1.65436E-24
 -1       674 1.22198E-04 1.68652E-05 8.27181E-25
 -1       675 1.22210E-04 1.70394E-05-4.13590E-25
 -1       676 1.22795E-04 1.76256E-05 0.00000E+00
 -1       677 1.22681E-04 1.75374E-05 0.00000E+00
 -1       678 1.22567E-04 1.74493E-05 0.00000E+00
 -1       679 1.22453E-04 1.73615E-05 0.00000E+00
 -1       680 1.22340E-04 1.72736E-05-1.65436E-24
 -1       771 1.71774E-05 6.67673E-06 0.00000E+00
 -1       772 1.12748E-05 1.87455E-05 5.29396E-23
 -1       773 6.34177E-06 2.83100E-05-5.29396E-23
 -1       774 2.31362E-06 3.55199E-05 0.00000E+00
 -1       775-8.73552E-07 4.05299E-05 0.00000E+00
 -1       776-3.28630E-06 4.35020E-05 0.00000E+00
 -1       777-4.99169E-06 4.46024E-05-5.29396E-23
 -1       778-6.05828E-06 4.40039E-05 0.00000E+00
 -1       779-6.55489E-06 4.18826E-05 5.29396E-23
 -1       780-6.55160E-06 3.84199E-05 2.64698E-23
 -1       781-6.11850E-06 3.38000E-05 0.00000E+00
 -1       782-5.32670E-06 2.82110E-05 0.00000E+00
 -1       783-4.24721E-06 2.18430E-05-5.29396E-23
 -1       784-2.95180E-06 1.48889E-05 1.32349E-23
 -1       785-1.51202E-06 7.54283E-06-2.64698E-23
 -1       786 1.23671E-04 8.14389E-06-2.06795E-25
 -1       787 1.23718E-04 7.55157E-06 0.00000E+00
 -1       788 1.23765E-04 6.99430E-06-8.27181E-25
 -1       789 1.23812E-04 6.46503E-06 0.00000E+00
 -1       790 1.23860E-04 5.95978E-06 0.00000E+00
 -1       791 1.23907E-04 5.47456E-06-8.27181E-25
 -1       792 1.23955E-04 5.00761E-06 1.65436E-24
 -1       793 1.24003E-04 4.55721E-06-8.27181E-25
 -1       794 1.24050E-04 4.12341E-06 0.00000E+00
 -1       795 1.24098E-04 3.70633E-06 0.00000E+00
 -1       796 1.24145E-04 3.30789E-06 1.65436E-24
 -1       797 1.24193E-04 2.93006E-06-8.27181E-25
 -1       798 1.24241E-04 2.57705E-06 0.00000E+00
 -1       799 1.24288E-04 2.25314E-06 0.00000E+00
 -1       800 1.24336E-04 1.96576E-06 1.65436E-24
 -1       801 1.12345E-04 7.58479E-06 1.32349E-23
 -1       802 7.71760E-05 5.81564E-06 1.32349E-23
 -1       803 3.70539E-05 3.88619E-06 0.00000E+00
 -1       804 1.11841E-05 2.39864E-06 0.00000E+00
 -1       805-8.04008E-07 1.16605E-06 0.00000E+00
 -1       806 1.23775E-04 8.09146E-06 0.00000E+00
 -1       807 1.23909E-04 7.42887E-06 8.27181E-25
 -1       808 1.24033E-04 6.79430E-06 3.30872E-24
 -1       809 1.24144E-04 6.19050E-06 1.65436E-24
 -1       810 1.24243E-04 5.62021E-06 3.30872E-24
 -1       811 1.24328E-04 5.08604E-06 1.65436E-24
 -1       812 1.24399E-04 4.59066E-06 0.00000E+00
 -1       813 1.24454E-04 4.13668E-06 8.27181E-25
 -1       814 1.24493E-04 3.72672E-06 1.65436E-24
 -1       815 1.24514E-04 3.36340E-06-8.27181E-25
 -1       816 1.24517E-04 3.04932E-06 1.65436E-24
 -1       817 1.24500E-04 2.78710E-06 8.27181E-25
 -1       818 1.24463E-04 2.57932E-06 0.00000E+00
 -1       819 1.24405E-04 2.42860E-06-8.27181E-25
 -1       820 1.24325E-04 2.33749E-06 3.30872E-24
 -1       821 1.24282E-04 1.44878E-06 8.27181E-25
 -1       822 1.24175E-04 1.07199E-06 0.00000E+00
 -1       823 1.24068E-04 6.76704E-07 3.30872E-24
 -1       824 1.23960E-04 3.47680E-07 0.00000E+00
 -1       825 1.23852E-04 1.54925E-07 0.00000E+00
 -1       826 1.23744E-04 1.67799E-07 0.00000E+00
 -1       827 1.23635E-04 4.10086E-07 3.30872E-24
 -1       828 1.23527E-04 9.04459E-07-1.65436E-24
 -1       829 1.23418E-04 1.61772E-06 0.00000E+00
 -1       830 1.23309E-04 2.51561E-06 1.65436E-24
 -1       831 1.23201E-04 3.52297E-06 0.00000E+00
 -1       832 1.23092E-04 4.56410E-06-1.65436E-24
 -1       833 1.22983E-04 5.55577E-06 3.30872E-24
 -1       834 1.22876E-04 6.41507E-06 0.00000E+00
 -1       835 1.22769E-04 7.08828E-06 8.27181E-25
 -1       836 1.24522E-04 1.81996E-06 3.30872E-24
 -1       837 1.24551E-04 1.91972E-06 0.00000E+00
 -1       838 1.24504E-04 2.01931E-06 0.00000E+00
 -1       839 1.24412E-04 2.11827E-06-8.27181E-25
 -1       840 1.24307E-04 2.21706E-06 4.13590E-25
 -1       856 1.22644E-04 7.89932E-06 0.00000E+00
 -1       857 1.22617E-04 8.39204E-06-1.03398E-25
 -1       858 1.22590E-04 8.98259E-06 0.00000E+00
 -1       859 1.22562E-04 9.65271E-06 0.00000E+00
 -1       860 1.22534E-04 1.03840E-05 0.00000E+00
 -1       861 1.22506E-04 1.11581E-05 0.00000E+00
 -1       862 1.22478E-04 1.19564E-05 8.27181E-25
 -1       863 1.22450E-04 1.27605E-05 0.00000E+00
 -1       864 1.22422E-04 1.35519E-05 0.00000E+00
 -1       865 1.22394E-04 1.43120E-05-4.13590E-25
 -1       866 1.22366E-04 1.50224E-05 8.27181E-25
 -1       867 1.22339E-04 1.56648E-05 4.13590E-25
 -1       868 1.22311E-04 1.62207E-05 8.27181E-25
 -1       869 1.22283E-04 1.66719E-05 0.00000E+00
 -1       870 1.22255E-04 1.70002E-05 0.00000E+00
 -1       871 1.22521E-04 7.52127E-06 4.13590E-25
 -1       872 1.22492E-04 7.51744E-06 0.00000E+00
 -1       873 1.22530E-04 7.51315E-06 0.00000E+00
 -1       874 1.22582E-04 7.50826E-06-2.06795E-25
 -1       875 1.22596E-04 7.50285E-06 0.00000E+00
 -1       876 1.22632E-04 7.91018E-06-3.30872E-24
 -1       877 1.22576E-04 8.35420E-06-1.65436E-24
 -1       878 1.22503E-04 8.84785E-06 0.00000E+00
 -1       879 1.22413E-04 9.38482E-06-1.65436E-24
 -1       880 1.22310E-04 9.95876E-06 3.30872E-24
 -1       881 1.22195E-04 1.05633E-05-1.65436E-24
 -1       882 1.22071E-04 1.11923E-05-3.30872E-24
 -1       883 1.21940E-04 1.18392E-05 0.00000E+00
 -1       884 1.21805E-04 1.24979E-05 0.00000E+00
 -1       885 1.21668E-04 1.31621E-05-1.65436E-24
 -1       886 1.21531E-04 1.38254E-05 0.00000E+00
 -1       887 1.21397E-04 1.44816E-05 0.00000E+00
 -1       888 1.21267E-04 1.51243E-05 0.00000E+00
 -1       889 1.21145E-04 1.57471E-05 8.27181E-25
 -1       890 1.21031E-04 1.63437E-05 8.27181E-25
 -1       891 1.22135E-04 1.71406E-05 0.00000E+00
 -1       892 1.22023E-04 1.70934E-05-8.27181E-25
 -1       893 1.21869E-04 1.70461E-05 1.65436E-24
 -1       894 1.21649E-04 1.69990E-05-4.13590E-25
 -1       895 1.21342E-04 1.69520E-05 0.00000E+00
 -1       956 1.24118E-04 2.40877E-06 1.65436E-24
 -1       957 1.24012E-04 2.57508E-06-8.27181E-25
 -1       958 1.23905E-04 2.80009E-06-1.65436E-24
 -1       959 1.23798E-04 3.07599E-06 0.00000E+00
 -1       960 1.23692E-04 3.39496E-06 0.00000E+00
 -1       961 1.23585E-04 3.74913E-06 1.65436E-24
 -1       962 1.23478E-04 4.13062E-06 0.00000E+00
 -1       963 1.23371E-04 4.53156E-06 0.00000E+00
 -1       964 1.23264E-04 4.94408E-06-3.30872E-24
 -1       965 1.23157E-04 5.36028E-06-1.65436E-24
 -1       966 1.23050E-04 5.77230E-06 3.30872E-24
 -1       967 1.22944E-04 6.17225E-06 0.00000E+00
 -1       968 1.22837E-04 6.55225E-06 0.00000E+00
 -1       969 1.22730E-04 6.90446E-06-1.65436E-24
 -1       970 1.22624E-04 7.22104E-06 3.30872E-24
 -1       971 1.22421E-04 7.78344E-06 3.30872E-24
 -1       972 1.22321E-04 8.15776E-06-1.65436E-24
 -1       973 1.22221E-04 8.60797E-06-3.30872E-24
 -1       974 1.22121E-04 9.12430E-06 0.00000E+00
 -1       975 1.22021E-04 9.69696E-06 0.00000E+00
 -1       976 1.21921E-04 1.03162E-05 0.00000E+00
 -1       977 1.21820E-04 1.09721E-05-3.30872E-24
 -1       978 1.21720E-04 1.16549E-05 0.00000E+00
 -1       979 1.21620E-04 1.23547E-05-3.30872E-24
 -1       980 1.21520E-04 1.30619E-05 0.00000E+00
 -1       981 1.21419E-04 1.37664E-05 3.30872E-24
 -1       982 1.21319E-04 1.44585E-05 1.65436E-24
 -1       983 1.21219E-04 1.51283E-05 3.30872E-24
 -1       984 1.21120E-04 1.57661E-05 0.00000E+00
 -1       985 1.21021E-04 1.63619E-05 1.65436E-24
 -3
    1PSTEP                        18           9           1          
  100CL  109 5.65430E-01         409                     0    9           1
 -4  STRESS      6    1
 -5  SXX         1    4    1    1
 -5  SYY         1    4    2    2
 -5  SZZ         1    4    3    3
 -5  SXY         1    4    1    2
 -5  SYZ         1    4    2    3
 -5  SZX         1    4    3    1
 -1         1-2.74858E+06-1.12231E+06-5.90350E+05-1.33838E+06 2.25555E-10-1.82481E-08
 -1         2 2.43024E+03-6.34934E+05 7.85582E+03-6.47057E+02-5.42002E-11-4.48247E-08
 -1         3-3.98074E+02-1.24757E+06 2.99598E+02-9.28162E+02-2.51045E-10-2.82052E-08
 -1         5-7.86213E-01 2.97131E+05 7.54096E+00 3.30651E-04-2.33125E-11-3.86751E-09
 -1         8-1.18809E+06-4.03466E+05-1.40875E+05-4.57472E+05-2.11003E-10 3.13667E-08
 -1         9-1.50366E+06-8.60165E+05-1.63594E+05-7.76947E+05 1.21159E-08-1.81608E-09
 -1        10-1.21326E+03-1.29978E+06-2.05808E+03-6.27954E+03-6.73663E-09-1.65053E-08
 -1        12 2.30961E+00 2.97147E+05 2.44087E+02 2.53850E-03 1.23777E-11-1.96860E-08
 -1        15 1.85722E+03 1.02065E+03 6.00346E+03 3.79427E+00 3.37081E-11 1.23569E-08
 -1        16-6.66913E+05-1.09729E+06-1.34506E+05-1.28418E+06 1.19811E-08 2.15174E-08
 -1        17-7.18788E+05-3.17285E+05-9.06565E+04-2.03105E+05-2.15368E-09 6.54254E-09
 -1        18-1.33071E+04-8.08463E+03-2.68281E+04-8.14883E+04 9.04708E-09 1.20917E-09
 -1        19 9.56908E+04 1.10167E+05-7.78649E+02 1.88285E+04-6.74845E-11-9.16771E-11
 -1        20-4.94404E+04-4.52974E+05-1.00582E+05 2.83780E+04 2.90386E-09 4.46077E-09
 -1        21-4.07817E+01-2.52465E+05-8.05507E+02-1.97654E+01-7.26079E-10 7.60984E-09
 -1        24-1.78708E+06 5.77392E+04-2.92007E+04-2.82530E+05-6.12296E-08-2.81919E-08
 -1        25-1.14696E+05-6.22312E+05-1.27670E+05-1.35267E+05-4.81850E-10 1.42572E-09
 -1        26-3.53503E+04 7.18890E+04-1.81942E+04-4.84330E+03 1.43191E-09-2.86540E-08
 -1        27-6.64563E+04-2.46616E+05-9.17293E+04 5.57286E+04 5.16206E-09-3.12836E-09
 -1        28 1.93999E+04-7.08401E+04 1.43282E+04 2.05891E+04 1.88385E-09 6.75009E-09
 -1        32-1.30985E+06-1.86903E+06 8.91822E+03-5.01046E+05-2.83334E-08-1.76043E-09
 -1        33-1.44467E+05 7.12730E+04 2.54657E+04-3.44686E+04 3.21753E-10 6.17638E-09
 -1        34-1.82324E+05-1.86221E+04 4.81663E+02 5.78133E+04 1.93037E-09-3.48640E-09
 -1        35-1.97768E+04-2.81400E+04-1.11009E+03 4.39800E+04 3.38404E-09 2.58296E-10
 -1        51 2.74275E+04-3.20504E+05 6.39839E+04-8.98481E+05 8.73115E-11-1.44501E-08
 -1        52 1.28192E+04-3.14008E+05 3.80824E+04-1.04778E+06 6.25732E-10-1.06957E-09
 -1        53 6.81750E+03-3.28770E+05 2.69586E+04-8.95290E+05 9.31323E-10 5.38421E-09
 -1        54 1.84381E+04-3.26735E+05 3.65488E+04-1.05108E+06 1.00408E-09-3.30874E-08
 -1        55 3.68367E+04-3.39776E+05 6.12323E+04-8.94780E+05 1.12050E-09 4.40123E-08
 -1        56-5.23756E+06-5.85913E+05-4.35140E+05-2.02838E+06-2.79397E-09-1.14960E-08
 -1        57-5.44301E+06-9.50563E+05-2.93580E+05-1.97695E+06-9.36780E-10 3.69619E-09
 -1        58-5.32200E+06-7.27229E+05-1.02300E+05-2.00446E+06 3.28691E-09 5.13319E-09
 -1        59-5.34620E+06-7.83685E+05-6.10775E+04-2.00409E+06 4.28145E-09-2.03518E-08
 -1        60-5.33307E+06-7.48193E+05-2.38482E+04-2.00268E+06-3.40015E-09-2.66182E-08
 -1        61-5.33473E+06-7.57735E+05-1.35252E+04-2.00450E+06 7.33053E-10-3.35040E-08
 -1        62-5.33319E+06-7.52577E+05-6.42883E+03-2.00419E+06-3.15163E-09-2.32847E-08
 -1        63-5.33611E+06-7.51629E+05-5.18755E+03-2.00120E+06-2.82853E-10-3.01936E-08
 -1        64-5.33164E+06-7.54230E+05-5.73841E+03-2.00600E+06 8.21643E-10-1.69714E-08
 -1        65-5.34026E+06-7.51209E+05-1.14831E+04-1.99784E+06-1.32010E-09-1.53416E-08
 -1        66-5.32909E+06-7.53045E+05-1.99922E+04-2.00755E+06 3.24530E-09 3.03280E-08
 -1        67-5.35354E+06-7.69137E+05-5.10373E+04-1.99324E+06-2.72939E-09 3.07991E-08
 -1        68-5.31859E+06-7.36806E+05-8.54339E+04-2.01047E+06 4.68026E-09-2.33267E-08
 -1        69-5.43529E+06-9.07514E+05-2.45119E+05-1.96949E+06-9.19681E-09 2.91038E-08
 -1        70-5.24846E+06-6.18530E+05-3.63422E+05-2.03010E+06 2.00816E-09 9.02219E-09
 -1        86-1.21333E+03-6.37074E+05 8.49128E+03 3.23531E+02 4.19959E-10-5.09965E-08
 -1        87 8.07385E+03-6.32219E+05 1.76168E+04-1.21315E+03 6.32554E-10-2.04747E-08
 -1        88-6.83814E+03-6.39785E+05 2.70901E+04 8.89644E+02 9.14952E-10 1.19691E-08
 -1        89 5.09870E+04-6.12335E+05 7.29150E+04-2.11223E+03 1.31695E-09-2.12212E-08
 -1        90-4.39785E+04-6.56919E+05 1.03184E+05 1.22272E+03 1.07684E-09-3.72696E-08
 -1       121-5.68720E+02-1.24902E+06 7.32137E+01 4.62681E+02 7.59769E-10-2.86636E-08
 -1       122-2.89386E+02-1.24754E+06 6.27817E+02-1.85423E+03-2.93635E-09-1.03719E-08
 -1       123-6.23980E+02-1.24910E+06 7.93295E+02 1.38321E+03 2.40004E-09 1.77897E-08
 -1       124 9.10789E+02-1.24691E+06 2.57013E+03-3.94150E+03-5.39444E-09 2.67755E-09
 -1       125-1.35189E+03-1.24977E+06 3.70219E+03 2.54430E+03 3.50428E-09 1.53523E-09
 -1       191-1.07793E+00 2.97157E+05 9.24967E+00-1.65655E-04-3.81872E-12 2.99979E-09
 -1       192-1.47672E+00 2.97132E+05 1.59545E+01 1.38884E-03 5.34417E-12-8.34049E-09
 -1       193-2.91490E+00 2.97157E+05 2.99000E+01-1.22641E-03-1.71561E-11-1.15665E-09
 -1       194-3.69932E+00 2.97134E+05 6.03168E+01 3.28178E-03 2.19771E-11 1.08277E-08
 -1       195-6.44531E+00 2.97155E+05 1.18211E+02-2.06724E-03-2.52172E-11-8.46673E-09
 -1       251-1.97349E+06 3.12162E+04-1.05883E+05-8.89583E+04 8.18545E-12-3.12866E-10
 -1       252-1.87019E+06-3.51515E+04-4.74252E+04 2.32710E+05-1.16098E-09 2.46328E-08
 -1       253-1.94949E+06 7.41887E+03-2.82178E+04-1.05669E+05-6.52562E-09-2.78806E-08
 -1       254-1.74767E+06 1.06860E+03 2.22569E+04 1.34662E+05-9.97215E-09-5.21341E-08
 -1       255-2.08864E+06-1.21105E+04-4.01562E+04 9.12488E+03 5.23414E-09 2.51725E-09
 -1       256-1.73841E+06 9.40654E+03 3.52781E+04-9.87815E+04 4.08181E-09-4.26212E-10
 -1       257-1.95808E+06-1.54506E+03-7.72367E+03 1.27549E+05-4.99858E-09-1.03987E-08
 -1       258-1.85990E+06 8.47313E+03 1.39574E+04-2.09701E+05-1.56678E-09 3.16064E-08
 -1       259-1.97524E+06-3.25443E+03-1.03941E+04 1.20284E+05-1.11822E-08 2.23076E-08
 -1       260-1.72295E+06 1.04863E+04 4.10793E+04-7.66017E+04 1.86719E-09-1.30358E-08
 -1       261-2.08595E+06-1.24276E+04-3.42277E+04-5.79224E+03 4.59750E-09 6.48032E-09
 -1       262-1.76176E+06 6.58621E+03 3.17984E+04 1.54601E+05 9.50649E-09 1.53974E-08
 -1       263-1.93923E+06 3.36542E+03-4.62079E+03-1.10680E+05-1.14474E-08-1.62333E-08
 -1       264-1.84525E+06 5.32596E+03 1.07147E+04 2.28310E+05-4.39205E-08-3.53936E-08
 -1       265-2.00820E+06-5.55395E+03-2.94575E+04-7.95409E+04-1.79643E-08-9.34870E-09
 -1       266-3.36210E+04-1.57193E+04 7.88939E+04-8.11940E+01 7.27596E-11 2.55583E-08
 -1       267 3.89770E+04 1.83241E+04 5.57563E+04 9.36714E+01 1.28239E-10-4.72788E-08
 -1       268-5.22670E+03-2.59505E+03 2.07246E+04-1.19359E+01 3.63798E-12-1.40870E-08
 -1       269 6.17124E+03 3.10590E+03 1.34704E+04 1.39030E+01 3.54703E-11 1.66846E-08
 -1       270-9.26311E+02-5.10316E+02 6.50237E+03-1.88676E+00 2.13731E-11 2.28679E-08
 -1       271-3.09009E+06-3.84893E+05-2.32609E+05-1.20088E+06-3.52520E-09 1.85391E-08
 -1       272-3.18210E+06-5.46609E+05-1.49640E+05-1.18953E+06 2.31580E-09-4.07072E-08
 -1       273-3.13438E+06-4.42468E+05-5.49436E+04-1.18988E+06 6.08748E-09-3.28873E-09
 -1       274-3.12949E+06-4.76692E+05-3.07550E+04-1.20663E+06 3.03226E-09 1.35242E-09
 -1       275-3.14166E+06-4.47271E+05-1.28063E+04-1.18667E+06-4.13820E-10-4.23915E-09
 -1       276-3.12001E+06-4.71875E+05-6.76376E+03-1.21227E+06 4.80031E-09-9.55424E-09
 -1       277-3.14400E+06-4.46349E+05-3.33232E+03-1.18471E+06 7.58519E-10-6.00403E-09
 -1       278-3.11679E+06-4.73687E+05-2.34236E+03-1.21569E+06 3.16413E-09 2.01599E-08
 -1       279-3.14515E+06-4.45224E+05-2.47330E+03-1.18346E+06-5.28416E-10-7.25333E-09
 -1       280-3.11576E+06-4.75738E+05-4.45910E+03-1.21755E+06-3.38389E-09-2.43417E-08
 -1       281-3.14522E+06-4.44222E+05-8.08170E+03-1.18297E+06-1.47543E-09 2.24736E-09
 -1       282-3.11923E+06-4.81390E+05-1.93908E+04-1.21719E+06 1.23310E-09-1.12850E-08
 -1       283-3.14181E+06-4.40021E+05-3.44660E+04-1.18369E+06 4.18913E-09 1.31367E-08
 -1       284-3.15039E+06-5.27243E+05-9.40404E+04-1.20865E+06 1.86537E-09-3.33148E-08
 -1       285-3.11475E+06-4.03106E+05-1.46106E+05-1.18974E+06-4.52201E-09-2.20680E-08
 -1       301 2.36111E+04-1.35992E+05 1.73021E+05-2.60763E+05-4.36557E-11 9.42964E-09
 -1       302 2.49385E+04-9.24705E+04 1.11607E+05-3.81999E+05 5.50244E-10 1.48011E-08
 -1       303 1.28910E+03-1.18687E+05 8.20351E+04-2.60347E+05-3.20142E-10-7.36145E-09
 -1       304 2.56560E+04-9.03063E+04 1.15565E+05-3.81560E+05 6.56655E-10-8.91305E-10
 -1       305 2.39403E+04-1.35813E+05 1.81629E+05-2.61268E+05-4.29281E-10-2.06310E-08
 -1       306-8.14006E+06-8.84016E+05-1.05724E+06-2.05833E+06-1.87138E-08 1.91212E-08
 -1       307-2.48612E+06-1.92951E+06 1.72257E+05-3.99835E+06-2.31543E-07 5.90662E-08
 -1       308-7.21867E+06 4.39524E+04-1.63732E+05-7.61211E+05-2.90602E-08 6.58983E-08
 -1       309-4.22123E+06-2.22079E+06 5.24280E+04-5.70842E+06 1.01544E-07 3.26800E-08
 -1       310-7.22714E+06 3.34350E+04-7.75000E+04-7.62346E+05 7.60992E-08-2.88437E-08
 -1       311-2.42672E+06-1.84929E+06 4.34057E+05-4.00375E+06 1.75474E-07-6.51780E-08
 -1       312-8.18646E+06-9.55303E+05-5.69115E+05-2.04924E+06 4.17931E-08 2.13695E-08
 -1       313-1.85598E+06-2.17203E+05 7.86132E+05-8.00209E+05-7.00820E-08 7.88896E-08
 -1       314-7.11661E+06-2.07612E+06-5.83154E+05-3.31998E+06 5.34346E-08-1.16124E-08
 -1       315-5.98429E+06 1.82147E+06 4.49736E+05 2.08891E+05-4.87489E-08-1.35842E-08
 -1       316-4.84285E+06-2.40276E+06-9.56348E+04-3.51596E+06-2.28523E-07-1.64022E-07
 -1       317-9.00785E+06 2.56042E+06 4.16896E+04-3.03839E+05 2.12752E-07-1.51080E-07
 -1       318-4.72733E+06-2.38991E+06-1.69170E+05-3.51072E+06-2.14393E-07 2.63353E-08
 -1       319-6.39252E+06 1.80576E+06 1.00483E+05 1.96604E+05-5.73709E-08 2.70666E-08
 -1       320-6.89688E+06-2.02452E+06-1.12261E+06-3.38119E+06 5.82368E-08-1.29221E-08
 -1       336 5.22965E+02-1.35212E+06-8.24465E+03 3.71166E+03-1.41190E-08 1.55087E-08
 -1       337-3.08626E+03-1.35338E+06-9.62430E+03-9.05997E+03-2.60457E-08 3.01370E-08
 -1       338 4.93680E+02-1.35217E+06-1.33530E+04 5.30765E+03-1.84359E-08 1.44682E-08
 -1       339-1.39849E+04-1.36050E+06-2.96247E+04-1.21759E+04-3.38196E-08 2.09657E-08
 -1       340 9.31886E+03-1.34552E+06-4.61443E+04 6.79431E+03-2.26464E-08 2.80888E-08
 -1       406 2.11820E+01 2.97144E+05 4.82122E+02-4.88413E-04-2.01226E-11-2.49567E-08
 -1       407 1.70293E+02 2.97231E+05 1.02415E+03-1.20629E-02-9.44738E-11-3.27813E-08
 -1       408 5.29657E+02 2.97070E+05 2.04572E+03 1.28690E-02-2.94449E-11-3.15857E-08
 -1       409 2.21370E+03 2.97885E+05 4.60492E+03-1.27949E-01-8.77662E-11-2.19004E-08
 -1       410 6.35619E+03 2.96489E+05 9.40093E+03 1.20744E-01-2.00544E-10-1.16072E-08
 -1       521-1.03787E+07-1.26679E+06-1.56442E+06-2.37308E+06-2.86673E-08-1.96160E-08
 -1       522-2.11107E+06-2.34637E+06 3.13522E+05-5.36284E+06-1.74492E-07-1.07295E-07
 -1       523-8.89200E+06 1.14507E+05-2.21404E+05-5.71976E+05-1.32713E-08-1.38687E-07
 -1       524-5.14876E+06-2.49535E+06 1.07080E+05-7.85468E+06 2.29385E-07-1.95984E-07
 -1       525-8.92675E+06 9.03720E+04-1.17869E+05-5.90798E+05 1.97790E-07-1.40381E-07
 -1       526-1.97430E+06-2.26078E+06 6.61502E+05-5.28504E+06 4.87344E-08-3.23635E-08
 -1       527-1.04327E+07-1.36185E+06-9.23131E+05-2.40454E+06 1.10827E-07 5.76620E-08
 -1       528-7.57632E+05-6.72828E+04 1.17095E+06-3.94474E+05 6.90634E-08 1.55487E-08
 -1       529-8.88352E+06-2.96920E+06-9.39014E+05-4.21061E+06-1.21654E-08 5.55301E-08
 -1       530-7.15789E+06 3.06042E+06 6.82774E+05 7.69532E+05-1.27911E-07 1.56666E-07
 -1       531-5.57403E+06-3.32605E+06-1.33289E+05-4.41860E+06-2.88012E-07 2.51530E-08
 -1       532-1.17685E+07 4.13378E+06 1.13818E+05-4.30247E+05 2.11516E-07-2.38150E-07
 -1       533-5.41173E+06-3.31089E+06-1.94925E+05-4.40395E+06 3.73402E-08-3.40951E-07
 -1       534-7.72406E+06 3.16054E+06 3.22520E+05 6.84939E+05-9.37143E-08 2.28989E-07
 -1       535-8.61686E+06-2.99273E+06-1.50426E+06-4.27836E+06-2.38651E-09 1.44799E-07
 -1       536-4.45840E+05-2.63566E+04 2.91002E+04-2.11187E+04-5.15911E-09 2.88437E-08
 -1       537-2.98129E+05 2.84652E+04 4.42323E+04 5.19987E+04-5.37380E-08 3.86540E-08
 -1       538-3.74229E+05-1.69761E+03 1.11359E+04-3.20697E+04 2.02674E-08 5.28753E-08
 -1       539-3.45131E+05 3.37340E+03 1.17779E+04 5.90945E+04 6.61564E-08 6.23924E-08
 -1       540-3.99809E+05-4.99120E+02-2.60650E+03-2.82588E+04-1.61867E-09 4.41240E-08
 -1       541-2.51195E+05 4.24938E+03 2.56441E+04 3.64651E+04-1.31367E-08 2.72187E-08
 -1       542-4.65643E+05-4.63230E+03-1.84114E+04-9.35443E+03 4.29791E-08 2.07431E-08
 -1       543-2.00041E+05 5.99254E+03 3.45543E+04-7.68085E+03 6.53210E-09-8.10223E-09
 -1       544-4.49608E+05-3.34562E+03-1.61895E+04 1.58127E+04 5.32441E-09-1.24980E-08
 -1       545-2.87604E+05 1.32188E+03 1.51966E+04-4.73351E+04-9.81436E-09-3.41115E-08
 -1       546-3.80387E+05 1.91527E+03-4.24143E+03 3.02747E+04 1.57813E-08-4.28962E-08
 -1       547-3.53827E+05-3.83138E+03-3.24681E+03-6.09547E+04-5.15895E-08-5.32443E-08
 -1       548-3.85108E+05 3.20969E+03-1.38379E+04 2.94994E+04-4.70958E-08-4.57844E-08
 -1       549-2.82409E+05-1.26665E+04-9.11155E+03-4.40494E+04-2.66862E-08-2.87614E-08
 -1       550-4.49763E+05 9.07560E+03-6.10316E+04 1.32945E+04 4.07135E-09-1.96324E-08
 -1       551 2.28333E+04-6.51396E+05 2.32933E+04-1.05029E+06-5.77638E-08-9.64792E-09
 -1       552 5.07700E+04-6.68181E+05 3.17903E+04-1.49654E+06-4.05271E-08 2.64408E-08
 -1       553 3.66565E+04-6.73259E+05 4.66537E+04-1.04608E+06-6.88669E-08 1.13359E-08
 -1       554 7.94744E+04-6.67731E+05 9.80699E+04-1.49814E+06-4.48781E-08 5.92354E-09
 -1       555 6.54872E+04-6.92726E+05 1.73914E+05-1.04691E+06-7.09770E-08-1.15979E-08
 -1       556 1.25886E+05-2.29519E+05 6.48676E+04-2.80643E+05-1.40280E-08-7.75617E-09
 -1       557 2.16021E+05-3.02070E+05 3.46537E+04-3.54638E+05 2.91038E-10 3.84171E-09
 -1       558 1.21694E+05-2.35898E+05 1.31161E+04-2.74976E+05-6.15546E-09 1.30967E-10
 -1       559 2.00660E+05-3.09856E+05 6.93804E+03-3.63078E+05 1.37661E-08-9.42964E-09
 -1       560 1.16219E+05-2.32386E+05 2.35223E+03-2.78701E+05 3.62343E-09 7.13044E-10
 -1       561 1.93171E+05-3.07303E+05 1.45571E+03-3.67951E+05 2.18279E-10 1.79152E-08
 -1       562 1.11907E+05-2.29619E+05 2.93506E+02-2.81795E+05 3.76895E-09-5.80803E-09
 -1       563 1.88112E+05-3.05104E+05 3.58211E+02-3.71206E+05 7.73434E-09-1.98689E-08
 -1       564 1.09043E+05-2.27810E+05 4.66575E+01-2.83817E+05 6.70843E-09-8.36098E-09
 -1       565 1.85142E+05-3.03815E+05 1.33313E+02-3.73088E+05 1.00026E-08 3.83170E-09
 -1       566 1.07688E+05-2.26942E+05 1.49719E+01-2.84770E+05-1.21145E-09 1.53523E-09
 -1       567 1.84226E+05-3.03403E+05-6.14449E+01-3.73576E+05 1.31322E-08 1.01354E-08
 -1       568 1.07890E+05-2.27082E+05-3.57657E+02-2.84719E+05-3.10683E-09 4.00178E-09
 -1       569 1.84471E+05-3.03312E+05-8.82811E+02-3.71850E+05-3.93629E-09-1.50249E-09
 -1       570 1.10380E+05-2.29133E+05-2.11060E+03-2.84313E+05 6.89033E-09-1.85355E-09
 -1       571 2.24610E+05 8.27705E+03 1.21757E+04-5.87335E+04-6.40284E-10 9.35870E-10
 -1       572 2.26413E+05 2.92587E+03 5.96561E+03-6.44200E+04-3.86990E-09-5.00359E-09
 -1       573 2.25334E+05 7.43979E+02 2.65040E+03-5.86019E+04 1.20940E-08 3.36513E-11
 -1       574 2.25541E+05 2.91455E+02 1.32823E+03-6.45721E+04 2.44108E-08 1.28398E-08
 -1       575 2.25415E+05 9.33399E+01 6.26434E+02-5.85845E+04 8.23093E-09 5.29599E-09
 -1       576 2.25426E+05 7.68073E+01 3.19708E+02-6.45923E+04-4.40753E-09 2.89492E-09
 -1       577 2.25433E+05 5.50083E+01 1.58850E+02-5.85821E+04-6.36192E-10 1.93927E-08
 -1       578 2.25423E+05 6.09611E+01 8.95529E+01-6.45949E+04 1.52340E-11 3.11047E-10
 -1       579 2.25457E+05 4.60768E+01 5.96301E+01-5.85820E+04 1.49066E-09 3.48973E-09
 -1       580 2.25456E+05 4.64558E+01 6.43672E+01-6.45915E+04-3.34103E-09 6.97764E-09
 -1       581 2.25495E+05 3.01083E+01 9.59826E+01-5.85855E+04 7.12134E-10 7.00720E-09
 -1       582 2.25524E+05 4.90439E+01 1.90435E+02-6.45545E+04 1.22964E-09 7.77482E-09
 -1       583 2.25538E+05 8.96536E+01 3.68606E+02-5.86190E+04-5.58430E-10-8.18841E-09
 -1       584 2.25714E+05 3.82766E+02 8.29318E+02-6.42738E+04 4.22006E-10-6.02540E-11
 -1       585 2.25499E+05 1.10971E+03 1.68483E+03-5.88666E+04 1.04410E-09-2.32649E-09
 -1       586-2.84323E+03 7.36373E+04-3.44514E+03-2.01133E+05-1.24874E-09 1.62458E-09
 -1       587-7.02866E+02 7.32165E+04-1.00025E+02-2.21390E+05-3.47427E-10 6.04882E-09
 -1       588 7.34231E+02 7.32587E+04 3.14510E+03-2.01039E+05-7.83984E-10 1.34260E-08
 -1       589 4.21714E+03 7.49685E+04 8.76765E+03-2.21155E+05-9.31323E-10 6.73026E-09
 -1       590 1.25043E+04 7.22834E+04 1.86308E+04-2.01383E+05-1.46429E-09 9.89348E-09
 -1       591-4.56890E+04-1.18956E+04-1.57212E+04-2.20418E+04 3.90173E-10-2.97314E-09
 -1       592-4.78006E+04-1.51191E+04-8.51551E+03-2.54148E+04-5.80371E-10-6.14978E-09
 -1       593-4.72688E+04-1.07472E+04-3.54486E+03-2.31872E+04-6.20332E-10-7.65363E-09
 -1       594-4.56197E+04-1.28233E+04-1.76800E+03-2.55106E+04 3.62206E-10-1.06911E-09
 -1       595-4.73895E+04-1.07427E+04-8.12178E+02-2.32394E+04-4.90894E-09 7.74040E-09
 -1       596-4.54712E+04-1.27182E+04-4.13562E+02-2.54940E+04 6.05507E-09 1.85182E-08
 -1       597-4.74047E+04-1.07531E+04-2.26646E+02-2.32414E+04-3.34381E-10 1.06937E-08
 -1       598-4.54568E+04-1.27142E+04-1.84856E+02-2.54893E+04-9.68498E-10 7.95217E-09
 -1       599-4.74035E+04-1.07533E+04-2.39450E+02-2.32410E+04 1.14903E-09 1.19940E-08
 -1       600-4.54721E+04-1.27193E+04-4.47468E+02-2.54930E+04 1.06172E-09 1.64277E-09
 -1       601-4.73849E+04-1.07427E+04-8.84133E+02-2.32381E+04-1.28739E-09-7.36486E-09
 -1       602-4.56336E+04-1.28334E+04-1.92759E+03-2.55085E+04-6.15501E-10-1.14062E-08
 -1       603-4.72513E+04-1.07498E+04-3.86600E+03-2.31815E+04-1.22782E-10 4.32760E-09
 -1       604-4.80234E+04-1.53244E+04-9.28679E+03-2.53876E+04 2.22883E-09 8.18000E-09
 -1       605-4.55145E+04-1.20139E+04-1.71451E+04-2.19450E+04 1.54824E-09 1.00754E-08
 -1       606 2.76251E+04-1.07608E+04-1.93450E+04 2.66630E+04 5.32964E-10 2.55022E-09
 -1       607 2.43144E+04-3.48610E+03-9.63291E+03 2.99363E+04-9.50422E-10-3.95949E-09
 -1       608 2.61930E+04-6.02307E+02-4.31360E+03 2.64544E+04 1.20599E-09-4.04111E-09
 -1       609 2.58220E+04-1.72866E+02-2.17869E+03 3.01712E+04 2.27374E-11 4.09113E-09
 -1       610 2.60207E+04 9.55554E+00-1.04048E+03 2.64308E+04-3.49246E-09 9.42418E-09
 -1       611 2.59532E+04 2.06762E+01-5.24583E+02 3.01968E+04-5.31691E-09-8.41055E-10
 -1       612 2.59755E+04 2.59851E+01-2.50473E+02 2.64285E+04-2.41289E-09-1.31422E-10
 -1       613 2.59518E+04 2.94194E+01-1.13160E+02 3.01998E+04-4.49245E-09 1.31331E-09
 -1       614 2.59510E+04 2.61374E+01-2.93213E+01 2.64277E+04-1.36970E-09 3.63093E-09
 -1       615 2.59398E+04 3.49573E+01 4.10935E+01 3.02003E+04 3.78850E-09 1.30603E-09
 -1       616 2.59323E+04 3.21261E+01 1.28987E+02 2.64280E+04-2.48065E-09 9.44510E-10
 -1       617 2.59494E+04 6.60856E+01 2.96776E+02 3.01998E+04 3.50178E-09-5.58748E-09
 -1       618 2.59021E+04 1.20476E+02 5.98975E+02 2.64281E+04 8.29004E-10 3.19505E-09
 -1       619 2.61572E+04 5.31503E+02 1.34567E+03 3.01989E+04-2.42949E-09 4.86648E-09
 -1       620 2.57009E+04 1.54288E+03 2.70484E+03 2.64272E+04 6.73367E-10 7.51515E-09
 -1       621 2.71281E+02 2.30131E+05 2.48860E+03 1.52734E+04-1.43245E-11 1.07957E-08
 -1       622 3.32700E+02 2.30739E+05 2.31444E+03 2.22301E+04 1.08912E-10-4.97948E-11
 -1       623 2.25005E+01 2.30272E+05 2.92426E+03 1.52002E+04 1.03967E-10 1.04114E-08
 -1       624 1.40607E+03 2.31709E+05 5.78265E+03 2.23050E+04 1.89630E-10-2.92630E-09
 -1       625 1.41240E+03 2.29133E+05 1.01609E+04 1.51978E+04 2.12367E-10-5.60965E-09
 -1       626 2.02710E+05 5.34271E+04 4.41852E+03 1.05661E+05 8.02129E-09-7.09406E-09
 -1       627 2.00324E+05 5.50189E+04 2.12924E+03 1.09775E+05 2.03690E-08 7.83461E-09
 -1       628 2.02844E+05 5.13742E+04 8.99641E+02 1.06372E+05 1.20208E-08 9.41554E-09
 -1       629 1.99730E+05 5.44729E+04 4.40503E+02 1.10020E+05 6.30780E-09 1.22870E-08
 -1       630 2.02853E+05 5.12772E+04 2.03495E+02 1.06396E+05 5.96629E-10-1.89428E-09
 -1       631 1.99661E+05 5.44568E+04 1.08647E+02 1.10020E+05 1.36606E-09 1.06073E-08
 -1       632 2.02844E+05 5.12840E+04 6.99449E+01 1.06388E+05-1.35333E-09-4.35659E-09
 -1       633 1.99647E+05 5.44618E+04 7.56006E+01 1.10013E+05-2.56091E-09-1.91018E-08
 -1       634 2.02834E+05 5.12846E+04 1.20049E+02 1.06384E+05 1.01363E-09-6.42149E-09
 -1       635 1.99653E+05 5.44628E+04 2.41803E+02 1.10013E+05 2.39277E-09 3.00315E-09
 -1       636 2.02823E+05 5.12826E+04 4.87638E+02 1.06381E+05-3.59393E-10-3.27009E-09
 -1       637 1.99755E+05 5.45396E+04 1.07148E+03 1.10010E+05 2.40385E-09 5.33419E-09
 -1       638 2.02783E+05 5.15206E+04 2.20163E+03 1.06272E+05 4.50791E-09 1.02668E-08
 -1       639 2.00910E+05 5.61478E+04 5.20852E+03 1.09667E+05 1.75419E-09 3.70983E-09
 -1       640 2.02628E+05 5.63173E+04 1.08087E+04 1.04241E+05-4.35739E-09-2.62271E-08
 -1       656 5.34809E+04-1.35909E+06-1.29103E+05-6.17434E+02 3.92902E-10-2.01337E-09
 -1       657-7.07068E+04-1.41738E+06-1.06848E+05 7.42071E+03-4.25644E-10 1.90237E-08
 -1       658 1.69999E+04-1.37569E+06-6.56730E+04-2.09966E+03 6.30507E-10 2.62285E-09
 -1       659-7.60977E+04-1.41994E+06-1.13930E+05 8.48949E+03-7.34872E-10-7.43687E-09
 -1       660 5.88593E+04-1.35655E+06-1.41280E+05-1.68620E+03-1.01863E-09 2.86707E-09
 -1       661 1.67575E+05 1.80720E+04 1.65287E+04 6.55330E+04-3.81078E-10 3.86535E-10
 -1       662 1.76443E+05 3.07807E+04 1.11380E+04 6.23673E+04 1.32826E-09-1.36474E-08
 -1       663 1.70818E+05 2.33768E+04 3.89596E+03 6.45939E+04 1.63982E-09-5.10113E-09
 -1       664 1.72686E+05 2.45737E+04 2.32971E+03 6.35115E+04 2.43963E-09-3.10320E-09
 -1       665 1.71307E+05 2.41046E+04 9.19026E+02 6.44545E+04-7.56472E-10 5.52768E-09
 -1       666 1.72111E+05 2.37388E+04 5.36608E+02 6.36917E+04-3.47607E-09 3.14124E-09
 -1       667 1.71390E+05 2.41898E+04 2.83679E+02 6.44218E+04 6.52307E-10 2.45110E-09
 -1       668 1.72021E+05 2.36742E+04 2.85965E+02 6.37392E+04-3.51804E-10-8.69707E-09
 -1       669 1.71397E+05 2.41673E+04 3.84617E+02 6.44076E+04 1.56376E-10 7.54608E-09
 -1       670 1.72115E+05 2.38804E+04 8.35152E+02 6.37408E+04 2.71520E-09-4.41288E-09
 -1       671 1.71296E+05 2.39877E+04 1.48207E+03 6.44185E+04-1.71396E-09-3.78856E-09
 -1       672 1.72979E+05 2.53223E+04 3.79122E+03 6.35322E+04-1.54541E-09-8.50605E-09
 -1       673 1.70538E+05 2.27617E+04 6.35323E+03 6.46023E+04 3.95630E-10-1.59775E-09
 -1       674 1.79027E+05 3.55276E+04 1.81688E+04 6.17538E+04 1.18803E-09-4.23370E-09
 -1       675 1.65286E+05 1.40679E+04 2.69686E+04 6.60894E+04-1.07320E-09 5.49880E-09
 -1       676 2.08983E+01-2.52398E+05-9.70846E+02 9.88295E+00-1.34648E-09 7.84619E-09
 -1       677-2.57833E+02-2.52633E+05-1.77678E+03-1.97537E+01-2.22258E-09-1.57490E-08
 -1       678 1.72108E+02-2.52231E+05-3.14089E+03 9.86399E+00-5.68434E-11-1.34559E-08
 -1       679-3.14179E+03-2.54529E+05-7.46129E+03-1.96811E+01-9.72022E-10 1.02964E-08
 -1       680 1.87503E+03-2.50503E+05-1.20251E+04 9.69874E+00-6.49379E-10 6.39881E-09
 -1       771-2.67701E+06-5.40308E+05-8.18420E+04-1.18560E+06-1.85537E-08-1.54541E-08
 -1       772-2.63790E+06-5.93514E+05-4.29827E+04-1.24616E+06-1.32786E-08 7.24503E-09
 -1       773-2.69135E+06-5.28972E+05-2.02873E+04-1.19073E+06-7.04313E-09 3.54339E-09
 -1       774-2.62914E+06-5.84920E+05-9.40547E+03-1.25627E+06 1.58398E-08-5.09317E-10
 -1       775-2.69723E+06-5.24809E+05-5.97072E+03-1.19234E+06-6.60657E-09-2.60115E-09
 -1       776-2.63183E+06-5.84592E+05-2.41570E+03-1.26313E+06-5.02769E-09 3.19960E-09
 -1       777-2.70204E+06-5.21274E+05-2.27420E+03-1.19373E+06 4.17640E-09 2.94312E-09
 -1       778-2.63497E+06-5.84412E+05-7.17290E+02-1.26894E+06 2.18279E-09 5.68798E-09
 -1       779-2.70606E+06-5.18253E+05-1.04392E+03-1.19493E+06-7.94535E-09-9.18953E-09
 -1       780-2.63777E+06-5.84198E+05-2.31021E+02-1.27365E+06-4.24916E-09 3.07409E-10
 -1       781-2.70918E+06-5.15852E+05-4.59936E+02-1.19586E+06-1.36642E-08-1.40244E-09
 -1       782-2.63992E+06-5.83982E+05-5.39488E+01-1.27711E+06-2.01399E-08-4.04361E-09
 -1       783-2.71134E+06-5.14219E+05-1.56356E+02-1.19652E+06-1.10995E-08-7.86554E-09
 -1       784-2.64128E+06-5.83820E+05-1.85971E+01-1.27921E+06-2.03418E-08 4.01224E-09
 -1       785-2.71243E+06-5.13390E+05-1.05438E+02-1.19686E+06-2.52148E-08 5.06225E-09
 -1       786 1.32295E+05-9.12050E+03 2.10999E+04-1.15471E+02 2.09607E-10 1.03419E-08
 -1       787 1.41443E+05 1.05587E+04 1.49276E+04 3.12449E+01 2.51862E-09-2.71029E-09
 -1       788 1.35823E+05-1.42966E+03 5.45989E+03-9.02251E+01 1.34880E-09 8.15885E-09
 -1       789 1.37333E+05 1.65406E+03 3.42879E+03-9.64969E+00 6.31045E-10-4.67298E-09
 -1       790 1.36405E+05-2.23122E+02 1.39111E+03-7.45804E+01 1.31822E-10 3.00980E-09
 -1       791 1.36653E+05 2.58097E+02 8.09026E+02-3.69590E+01-1.73236E-09 2.71927E-08
 -1       792 1.36504E+05-3.47480E+01 3.53935E+02-6.29159E+01-6.93980E-10 8.74124E-09
 -1       793 1.36538E+05 4.14186E+01 2.00808E+02-5.91968E+01-9.71605E-10-2.13890E-08
 -1       794 1.36520E+05-6.58192E+00 1.01141E+02-5.23423E+01 1.42844E-09 3.45851E-09
 -1       795 1.36523E+05 1.58805E+01 7.75124E+01-8.16314E+01-1.30139E-09 1.17464E-08
 -1       796 1.36519E+05-9.22180E+00 7.44990E+01-4.04809E+01 1.14977E-09 1.31679E-08
 -1       797 1.36545E+05 6.35398E+01 1.41251E+02-1.09268E+02 7.96014E-10-1.16971E-09
 -1       798 1.36498E+05-5.42079E+01 2.11872E+02-2.47049E+01 6.46483E-10-1.19498E-09
 -1       799 1.36700E+05 3.99770E+02 5.67688E+02-1.48262E+02 7.78044E-10-8.01636E-09
 -1       800 1.36364E+05-3.45191E+02 7.99062E+02-1.48651E+00 2.29607E-10 5.92706E-09
 -1       801 9.16610E+04-3.52978E+06-3.42937E+05 9.39206E+04 2.30939E-08-1.46156E-08
 -1       802-1.07682E+05-3.00588E+06-1.22248E+05-7.60532E+04 6.41885E-08-1.87841E-08
 -1       803 1.28844E+04-3.38841E+06-9.27845E+04 1.69267E+05 3.96285E-08 3.62202E-08
 -1       804-1.94916E+04-3.14931E+06-1.40677E+04 6.31823E+04 2.41853E-08 2.42144E-08
 -1       805 9.00379E+00-3.38744E+06-3.81115E+04-4.53036E+04 9.00945E-09 1.14183E-08
 -1       806-2.47430E+05-4.70855E+04-1.82240E+04-9.70186E+04 1.15006E-09-3.49792E-09
 -1       807-2.49030E+05-4.39443E+04-8.95322E+03-1.01241E+05 1.03503E-08 1.01939E-08
 -1       808-2.47916E+05-4.05318E+04-3.79830E+03-1.00141E+05 1.30285E-09 1.04301E-08
 -1       809-2.47154E+05-4.14236E+04-1.85727E+03-1.01457E+05-3.50678E-09 5.31645E-09
 -1       810-2.47992E+05-4.03032E+04-8.51087E+02-1.00280E+05 3.27509E-09 4.24370E-09
 -1       811-2.47010E+05-4.13216E+04-4.23053E+02-1.01430E+05 1.81444E-10-1.01777E-08
 -1       812-2.48005E+05-4.03219E+04-2.13372E+02-1.00280E+05-2.55977E-09-9.12723E-09
 -1       813-2.46991E+05-4.13228E+04-1.37889E+02-1.01416E+05 1.86901E-10-2.30523E-09
 -1       814-2.48002E+05-4.03285E+04-1.35149E+02-1.00278E+05-5.27689E-09 4.49290E-10
 -1       815-2.46996E+05-4.13241E+04-2.16795E+02-1.01412E+05-4.61887E-09-4.31555E-10
 -1       816-2.47988E+05-4.03264E+04-4.09879E+02-1.00276E+05-1.92176E-09 3.38832E-09
 -1       817-2.47067E+05-4.13628E+04-8.79926E+02-1.01406E+05-5.98993E-09 1.66160E-08
 -1       818-2.47938E+05-4.04487E+04-1.79424E+03-1.00218E+05-4.68390E-09 7.53744E-09
 -1       819-2.48050E+05-4.24484E+04-4.22262E+03-1.01179E+05 1.44337E-09-2.44427E-10
 -1       820-2.47607E+05-4.36316E+04-8.59405E+03-9.88489E+04-1.13869E-09 3.35149E-10
 -1       821-3.02421E+05 1.67280E+04-3.86875E+04 3.72089E+02 2.37437E-06-8.04393E-08
 -1       822-3.19179E+05-1.93654E+04-2.73760E+04-1.05845E+03 4.77256E-06 2.65777E-08
 -1       823-3.08886E+05 2.62303E+03-1.00197E+04 3.98867E+02 2.37842E-06 1.12586E-08
 -1       824-3.11627E+05-3.03533E+03-6.30275E+03-8.88060E+02 6.65594E-09 7.50674E-09
 -1       825-3.09971E+05 4.10152E+02-2.59418E+03 2.01701E+02 4.18328E-10-9.85438E-09
 -1       826-3.10356E+05-4.83142E+02-1.55876E+03-3.59815E+02-1.97319E-09-6.48720E-09
 -1       827-3.10155E+05 7.20650E+01-8.16351E+02-1.29387E+02-1.99431E-09-1.17416E-08
 -1       828-3.10188E+05-1.47680E+02-7.14101E+02 2.87199E+02-4.32809E-09 9.92495E-11
 -1       829-3.10139E+05 7.49990E+01-8.33089E+02-4.45324E+02-1.23812E-10 3.50784E-09
 -1       830-3.10403E+05-5.02838E+02-1.62307E+03 7.61199E+02 1.47586E-09 1.31365E-08
 -1       831-3.09941E+05 4.27638E+02-2.69272E+03-6.03397E+02-2.52317E-09 4.43549E-09
 -1       832-3.11704E+05-3.15888E+03-6.56208E+03 8.48533E+02-4.73314E-10 4.55611E-09
 -1       833-3.08839E+05 2.72930E+03-1.04304E+04-5.32658E+02-1.17407E-09 9.20727E-09
 -1       834-3.19520E+05-2.01554E+04-2.84902E+04 5.08148E+02-1.27908E-09 1.92713E-08
 -1       835-3.02126E+05 1.74105E+04-4.02759E+04-2.63000E+02 5.47139E-09 1.21654E-08
 -1       836-1.02957E+03 2.85588E+05 1.73313E+04-1.69316E+04-3.70164E-10-2.87582E-09
 -1       837 3.77548E+03 2.90978E+05 1.48385E+04-3.40563E+04-8.23093E-11-1.21972E-08
 -1       838-3.95830E+02 2.87077E+05 1.53615E+04-1.68658E+04 2.06455E-10-1.02377E-08
 -1       839 9.84425E+03 2.95502E+05 2.92980E+04-3.40944E+04 5.82077E-10-2.51291E-09
 -1       840-2.98698E+03 2.81022E+05 4.68233E+04-1.68927E+04 6.18456E-11 9.01451E-09
 -1       856-7.53496E+04 7.60594E+03-2.00440E+04-4.26919E+02-1.35418E-09 8.30369E-10
 -1       857-8.36247E+04-8.92340E+03-1.37993E+04 4.79033E+03-3.14935E-09 3.47745E-09
 -1       858-7.86204E+04 1.06584E+03-5.20167E+03-4.48896E+02-2.45109E-09 1.43700E-10
 -1       859-7.98694E+04-1.24141E+03-3.14075E+03 4.82492E+03-9.35131E-10 9.88712E-09
 -1       860-7.91093E+04 1.48385E+02-1.31920E+03-4.61575E+02 1.05649E-09 5.69048E-09
 -1       861-7.93066E+04-1.65571E+02-7.31865E+02 4.84228E+03-3.26378E-09-1.61776E-10
 -1       862-7.91855E+04 1.96256E+01-3.16555E+02-4.66280E+02 4.40375E-09-8.71928E-09
 -1       863-7.92154E+04-1.19219E+01-1.43300E+02 4.84454E+03 4.79496E-09-1.06557E-09
 -1       864-7.92008E+04-1.85383E+00-1.82557E+01-4.63841E+02 3.46424E-09-3.03084E-09
 -1       865-7.91800E+04 3.71375E+01 1.01716E+02 4.83195E+03 2.94709E-09 1.62851E-09
 -1       866-7.92191E+04-2.97982E+01 2.37290E+02-4.53692E+02-9.30243E-11-7.68445E-09
 -1       867-7.90595E+04 2.48346E+02 6.04950E+02 4.80435E+03 4.65519E-10-6.23720E-09
 -1       868-7.93175E+04-2.10255E+02 1.01011E+03-4.36239E+02 1.77289E-09 2.15999E-09
 -1       869-7.83124E+04 1.74821E+03 2.69749E+03 4.75854E+03 2.41764E-09-1.76748E-08
 -1       870-7.99605E+04-1.49038E+03 3.91337E+03-4.07882E+02 2.29886E-09 1.92927E-09
 -1       871-4.57013E+03-1.11491E+04-1.50682E+04 1.00073E+05 9.27685E-11-5.65797E-09
 -1       872-1.92069E+03-1.45533E+04-6.18897E+03 1.29744E+05 5.79575E-10 1.83718E-09
 -1       873 2.43132E+01-1.29563E+04 7.58241E+02 9.98534E+04-2.93539E-10 6.11635E-10
 -1       874 2.34278E+03-1.08486E+04 8.26775E+03 1.29783E+05 6.65750E-10 1.16188E-10
 -1       875 5.39800E+03-1.49185E+04 1.84156E+04 1.00038E+05 1.87356E-10 5.56975E-09
 -1       876 2.40254E+05 4.10869E+04 1.26274E+04 9.71158E+04-3.35780E-09-1.34778E-08
 -1       877 2.41023E+05 4.38116E+04 6.74343E+03 1.00799E+05-6.31280E-09-2.25384E-09
 -1       878 2.41434E+05 3.96897E+04 2.82518E+03 9.81529E+04 1.72031E-09-8.30346E-09
 -1       879 2.39306E+05 4.20999E+04 1.40751E+03 1.00887E+05 1.43245E-11 3.01020E-09
 -1       880 2.41519E+05 3.96747E+04 6.55435E+02 9.81952E+04-2.02544E-09-2.15528E-09
 -1       881 2.39192E+05 4.20270E+04 3.49529E+02 1.00868E+05-7.53971E-09-2.84493E-09
 -1       882 2.41527E+05 3.96853E+04 2.22793E+02 9.81965E+04-1.01431E-09 2.65695E-09
 -1       883 2.39184E+05 4.20234E+04 2.38184E+02 1.00863E+05 1.71650E-09 6.96934E-09
 -1       884 2.41522E+05 3.96828E+04 3.77694E+02 9.81966E+04-6.48993E-09-3.50678E-09
 -1       885 2.39214E+05 4.20287E+04 7.58627E+02 1.00872E+05 4.62092E-09 2.23974E-09
 -1       886 2.41493E+05 3.96606E+04 1.52863E+03 9.81936E+04 6.83627E-10-1.75760E-09
 -1       887 2.39483E+05 4.22049E+04 3.33898E+03 1.00911E+05-1.83076E-09 1.22880E-08
 -1       888 2.41282E+05 3.96976E+04 6.72811E+03 9.80867E+04 8.46768E-10-3.02089E-09
 -1       889 2.43490E+05 4.63684E+04 1.60727E+04 1.00785E+05-2.77403E-10-2.46291E-09
 -1       890 2.38540E+05 4.29543E+04 3.01032E+04 9.55203E+04-2.65095E-09-2.01726E-09
 -1       891-1.33943E+02-1.35298E+05-1.62235E+03 2.46306E+04 1.32172E-09-2.71484E-09
 -1       892-2.36439E+02-1.35695E+05-1.75512E+03 3.72956E+04 1.16552E-09-8.27276E-09
 -1       893-2.63921E+01-1.35349E+05-2.49822E+03 2.46359E+04 8.50605E-10 9.71886E-09
 -1       894-1.33976E+03-1.36646E+05-5.17987E+03 3.71615E+04-2.55568E-10 1.04678E-08
 -1       895-1.05142E+03-1.34270E+05-9.12554E+03 2.47634E+04-1.14920E-09-2.84217E-09
 -1       956-3.04458E+05-4.28649E+03-1.07597E+04 2.09148E+04-2.26373E-09-9.84244E-09
 -1       957-3.06581E+05-1.45538E+03-5.52345E+03 2.51856E+04-2.53203E-09-1.24896E-08
 -1       958-3.05416E+05-1.25631E+02-2.48856E+03 2.07883E+04 1.90084E-10-1.99179E-10
 -1       959-3.05583E+05-3.17465E+01-1.27109E+03 2.53248E+04 1.33718E-09 9.56106E-10
 -1       960-3.05503E+05 2.64269E+01-6.19759E+02 2.07759E+04-2.88082E-09 8.26731E-10
 -1       961-3.05512E+05 2.28159E+01-3.28953E+02 2.53390E+04-1.72895E-09-5.33646E-10
 -1       962-3.05521E+05 2.27415E+01-1.88599E+02 2.07740E+04-2.29306E-09 2.57955E-09
 -1       963-3.05509E+05 2.44963E+01-1.51948E+02 2.53415E+04-4.90945E-09 2.59661E-09
 -1       964-3.05524E+05 2.49128E+01-1.85196E+02 2.07734E+04-1.98781E-09 1.23348E-08
 -1       965-3.05520E+05 2.74451E+01-3.20648E+02 2.53413E+04 4.15224E-09 5.15274E-09
 -1       966-3.05514E+05 3.28844E+01-6.02358E+02 2.07742E+04 9.53605E-10 3.38241E-09
 -1       967-3.05597E+05-2.10662E+01-1.23561E+03 2.53323E+04 5.87988E-10-4.99085E-11
 -1       968-3.05436E+05-1.10647E+02-2.41834E+03 2.07824E+04 1.74623E-10-1.67819E-08
 -1       969-3.06576E+05-1.40110E+03-5.36931E+03 2.52369E+04-1.91176E-09-3.38017E-09
 -1       970-3.04511E+05-4.15272E+03-1.04586E+04 2.08706E+04 2.62389E-10 5.28416E-09
 -1       971-2.85231E+05-1.47831E+03-8.16906E+03 1.34665E+04-5.07134E-09 4.09143E-09
 -1       972-2.87213E+05-1.06470E+03-4.44879E+03 1.87783E+04-6.81621E-09-1.17036E-08
 -1       973-2.86140E+05-1.78024E+01-1.99226E+03 1.33549E+04-8.38554E-10 3.27418E-10
 -1       974-2.86274E+05-2.02900E+01-1.03223E+03 1.89001E+04 6.94763E-09 8.37008E-09
 -1       975-2.86211E+05 2.09131E+01-5.15216E+02 1.33444E+04 2.30420E-09 7.59417E-09
 -1       976-2.86220E+05 2.29079E+01-2.95846E+02 1.89130E+04-1.42450E-09-7.57302E-09
 -1       977-2.86225E+05 2.10431E+01-2.12241E+02 1.33418E+04 2.86059E-09 4.16594E-09
 -1       978-2.86223E+05 2.79516E+01-2.44977E+02 1.89166E+04 7.12089E-09-1.57718E-09
 -1       979-2.86225E+05 2.78452E+01-3.90692E+02 1.33407E+04 4.78548E-09 1.01289E-08
 -1       980-2.86252E+05 3.04275E+01-7.52554E+02 1.89173E+04-7.92056E-10-3.07864E-09
 -1       981-2.86201E+05 4.66034E+01-1.45657E+03 1.33411E+04 3.07318E-09 6.19235E-09
 -1       982-2.86452E+05-7.71443E+01-3.01016E+03 1.89115E+04 1.04287E-08 8.80055E-09
 -1       983-2.86017E+05-4.65939E+01-5.84849E+03 1.33467E+04 7.52880E-09-5.63205E-10
 -1       984-2.89265E+05-3.13150E+03-1.30970E+04 1.88355E+04 1.21213E-09 9.38439E-09
 -1       985-2.83370E+05-4.32616E+03-2.40503E+04 1.34205E+04 4.07272E-09 3.38514E-09
 -3
    1PSTEP                        19          10           1          
  100CL  110 5.74219E-01         409                     0   10           1
 -4  DISP        4    1
 -5  D1          1    2    1    0
 -5  D2          1    2    2    0
 -5  D3          1    2    3    0
 -5  ALL         1    2    0    0    1ALL
 -1         1 5.34581E-04 0.00000E+00 0.00000E+00
 -1         2 4.92620E-04-1.43505E-29 0.00000E+00
 -1         3 2.15261E-04 1.50546E-27-1.32349E-23
 -1         5 1.29543E-04-1.09882E-27 3.30872E-24
 -1         8 5.11955E-04-7.42157E-07 0.00000E+00
 -1         9 4.93321E-04-1.76814E-06 0.00000E+00
 -1        10 1.96769E-04-2.81458E-06-6.61744E-24
 -1        12 1.29716E-04 6.38355E-07 0.00000E+00
 -1        15 4.84845E-04-8.22251E-07 2.06795E-25
 -1        16 4.90876E-04-2.20895E-06 0.00000E+00
 -1        17 1.38861E-04-6.08622E-06 0.00000E+00
 -1        18 1.28944E-04 1.10349E-05 0.00000E+00
 -1        19 1.30232E-04 1.27347E-06 0.00000E+00
 -1        20 1.30379E-04 8.43139E-06 0.00000E+00
 -1        21 1.29711E-04 1.35924E-05 0.00000E+00
 -1        24 2.47577E-05-8.58669E-06 0.00000E+00
 -1        25 1.31324E-04 1.11897E-05 0.00000E+00
 -1        26 1.32044E-04 1.76417E-06 0.00000E+00
 -1        27 1.30291E-04 5.53040E-06 0.00000E+00
 -1        28 1.29866E-04 1.30582E-05 0.00000E+00
 -1        32 0.00000E+00 0.00000E+00 0.00000E+00
 -1        33 1.32755E-04 2.36444E-06 0.00000E+00
 -1        34 1.31014E-04 5.50026E-06 0.00000E+00
 -1        35 1.29389E-04 1.27717E-05 0.00000E+00
 -1        51 5.33118E-04-1.27678E-07 0.00000E+00
 -1        52 5.30399E-04-2.46338E-07 0.00000E+00
 -1        53 5.26669E-04-3.65075E-07 0.00000E+00
 -1        54 5.22181E-04-4.85750E-07-3.30872E-24
 -1        55 5.17191E-04-6.09510E-07-3.30872E-24
 -1        56 5.32322E-04-7.20474E-07 5.29396E-23
 -1        57 5.29893E-04-1.23755E-06 2.64698E-23
 -1        58 5.27379E-04-1.51189E-06 0.00000E+00
 -1        59 5.24762E-04-1.55652E-06 0.00000E+00
 -1        60 5.22069E-04-1.39754E-06 5.29396E-23
 -1        61 5.19311E-04-1.07788E-06 0.00000E+00
 -1        62 5.16516E-04-6.56763E-07 5.29396E-23
 -1        63 5.13706E-04-1.99736E-07 2.64698E-23
 -1        64 5.10909E-04 2.24099E-07 0.00000E+00
 -1        65 5.08150E-04 5.47424E-07-2.64698E-23
 -1        66 5.05451E-04 7.13683E-07 0.00000E+00
 -1        67 5.02830E-04 6.75429E-07 2.64698E-23
 -1        68 5.00297E-04 4.06204E-07 5.29396E-23
 -1        69 4.97868E-04-1.03127E-07 0.00000E+00
 -1        70 4.95522E-04-8.45505E-07 0.00000E+00
 -1        86 4.92644E-04-2.90762E-07 0.00000E+00
 -1        87 4.92717E-04-5.81962E-07 0.00000E+00
 -1        88 4.92831E-04-8.73232E-07-1.32349E-23
 -1        89 4.92978E-04-1.16726E-06-6.61744E-24
 -1        90 4.93145E-04-1.46036E-06-1.32349E-23
 -1       121 2.14743E-04-4.63034E-07 1.32349E-23
 -1       122 2.13189E-04-9.27106E-07 0.00000E+00
 -1       123 2.10606E-04-1.39324E-06 0.00000E+00
 -1       124 2.07000E-04-1.86251E-06-6.61744E-24
 -1       125 2.02382E-04-2.33574E-06 0.00000E+00
 -1       191 1.29548E-04 1.06397E-07 0.00000E+00
 -1       192 1.29563E-04 2.12792E-07 0.00000E+00
 -1       193 1.29586E-04 3.19188E-07 0.00000E+00
 -1       194 1.29620E-04 4.25581E-07-1.65436E-24
 -1       195 1.29663E-04 5.31971E-07-3.30872E-24
 -1       251 5.11178E-04 1.27991E-05 0.00000E+00
 -1       252 5.10012E-04 4.38614E-05 0.00000E+00
 -1       253 5.08741E-04 7.85525E-05 2.64698E-23
 -1       254 5.07762E-04 1.02868E-04-1.32349E-23
 -1       255 5.07023E-04 1.08563E-04 2.64698E-23
 -1       256 5.06096E-04 8.79593E-05 0.00000E+00
 -1       257 5.04606E-04 4.73993E-05 0.00000E+00
 -1       258 5.02527E-04-6.17030E-06 1.32349E-23
 -1       259 5.00502E-04-5.86263E-05-2.64698E-23
 -1       260 4.99133E-04-9.58764E-05 0.00000E+00
 -1       261 4.98283E-04-1.12186E-04-2.64698E-23
 -1       262 4.97514E-04-1.02455E-04-1.32349E-23
 -1       263 4.96470E-04-7.54836E-05 0.00000E+00
 -1       264 4.95191E-04-4.05927E-05 1.32349E-23
 -1       265 4.94076E-04-1.15038E-05 2.64698E-23
 -1       266 5.07437E-04-7.66144E-07 0.00000E+00
 -1       267 5.02919E-04-7.78197E-07-8.27181E-25
 -1       268 4.98400E-04-7.91005E-07 0.00000E+00
 -1       269 4.93882E-04-8.01574E-07 0.00000E+00
 -1       270 4.89364E-04-8.12090E-07 0.00000E+00
 -1       271 5.09233E-04 3.00749E-06 2.64698E-23
 -1       272 5.06725E-04 6.07710E-06 0.00000E+00
 -1       273 5.04470E-04 8.48537E-06 2.64698E-23
 -1       274 5.02453E-04 1.02438E-05 1.32349E-23
 -1       275 5.00671E-04 1.13785E-05 0.00000E+00
 -1       276 4.99110E-04 1.19230E-05-1.32349E-23
 -1       277 4.97754E-04 1.19205E-05 0.00000E+00
 -1       278 4.96584E-04 1.14219E-05 1.32349E-23
 -1       279 4.95578E-04 1.04863E-05 2.64698E-23
 -1       280 4.94711E-04 9.17920E-06 1.32349E-23
 -1       281 4.93956E-04 7.57180E-06 0.00000E+00
 -1       282 4.93286E-04 5.73999E-06 0.00000E+00
 -1       283 4.92671E-04 3.76301E-06 2.64698E-23
 -1       284 4.92083E-04 1.72360E-06-1.32349E-23
 -1       285 4.91487E-04-2.97419E-07 0.00000E+00
 -1       301 4.92887E-04-1.85918E-06 6.61744E-24
 -1       302 4.92080E-04-1.92473E-06 0.00000E+00
 -1       303 4.91187E-04-1.98870E-06 0.00000E+00
 -1       304 4.90497E-04-2.05254E-06 0.00000E+00
 -1       305 4.90298E-04-2.11798E-06 0.00000E+00
 -1       306 5.07718E-04-5.29491E-05 5.29396E-23
 -1       307 5.48578E-04-2.01396E-04 2.64698E-23
 -1       308 6.03673E-04-4.22562E-04 0.00000E+00
 -1       309 6.64341E-04-6.84655E-04-2.64698E-23
 -1       310 7.24803E-04-9.45152E-04-5.29396E-23
 -1       311 7.79139E-04-1.16167E-03 2.64698E-23
 -1       312 8.18411E-04-1.30332E-03 0.00000E+00
 -1       313 8.30198E-04-1.34670E-03-5.29396E-23
 -1       314 8.03883E-04-1.29078E-03-1.05879E-22
 -1       315 7.32376E-04-1.14362E-03 0.00000E+00
 -1       316 6.22238E-04-9.31091E-04-1.05879E-22
 -1       317 4.87599E-04-6.82238E-04 2.64698E-23
 -1       318 3.52397E-04-4.32570E-04 5.29396E-23
 -1       319 2.40705E-04-2.17593E-04 2.64698E-23
 -1       320 1.67148E-04-6.66680E-05 0.00000E+00
 -1       336 1.90047E-04-3.33661E-06 1.32349E-23
 -1       337 1.82107E-04-3.86780E-06 6.61744E-24
 -1       338 1.72980E-04-4.40849E-06-1.32349E-23
 -1       339 1.62703E-04-4.95875E-06 0.00000E+00
 -1       340 1.51314E-04-5.52065E-06-1.32349E-23
 -1       406 1.29778E-04 7.44726E-07-3.30872E-24
 -1       407 1.29850E-04 8.51062E-07 1.65436E-24
 -1       408 1.29931E-04 9.57336E-07 3.30872E-24
 -1       409 1.30022E-04 1.06342E-06 1.65436E-24
 -1       410 1.30122E-04 1.16911E-06 0.00000E+00
 -1       521 5.07283E-04-6.24912E-05 0.00000E+00
 -1       522 5.52256E-04-2.34173E-04 0.00000E+00
 -1       523 6.11466E-04-4.89511E-04 0.00000E+00
 -1       524 6.75450E-04-7.91324E-04 0.00000E+00
 -1       525 7.39211E-04-1.09078E-03-1.05879E-22
 -1       526 7.97509E-04-1.33928E-03 0.00000E+00
 -1       527 8.40345E-04-1.50095E-03-1.05879E-22
 -1       528 8.53000E-04-1.54977E-03 5.29396E-23
 -1       529 8.21476E-04-1.48427E-03 0.00000E+00
 -1       530 7.36550E-04-1.31523E-03 5.29396E-23
 -1       531 6.05026E-04-1.07200E-03-1.05879E-22
 -1       532 4.43801E-04-7.88000E-04 5.29396E-23
 -1       533 2.81666E-04-5.02784E-04-1.05879E-22
 -1       534 1.47639E-04-2.55907E-04 0.00000E+00
 -1       535 5.94248E-05-8.11703E-05 0.00000E+00
 -1       536 1.38524E-04 1.37201E-05 0.00000E+00
 -1       537 1.37848E-04 4.71278E-05 3.30872E-24
 -1       538 1.36873E-04 8.89819E-05-3.30872E-24
 -1       539 1.35764E-04 1.34082E-04 1.65436E-24
 -1       540 1.34772E-04 1.76321E-04-3.30872E-24
 -1       541 1.34106E-04 2.09610E-04-1.65436E-24
 -1       542 1.33757E-04 2.30286E-04 0.00000E+00
 -1       543 1.33605E-04 2.34765E-04 0.00000E+00
 -1       544 1.33406E-04 2.23642E-04-3.30872E-24
 -1       545 1.32939E-04 1.97610E-04 0.00000E+00
 -1       546 1.32172E-04 1.61257E-04 0.00000E+00
 -1       547 1.31192E-04 1.19227E-04 0.00000E+00
 -1       548 1.30232E-04 7.77294E-05 0.00000E+00
 -1       549 1.29520E-04 4.29674E-05 0.00000E+00
 -1       550 1.29111E-04 1.93042E-05 0.00000E+00
 -1       551 1.23372E-04-6.44299E-06 0.00000E+00
 -1       552 1.05391E-04-6.83384E-06 0.00000E+00
 -1       553 8.57217E-05-7.25322E-06 4.96308E-24
 -1       554 6.51825E-05-7.69085E-06-6.61744E-24
 -1       555 4.45903E-05-8.13219E-06 0.00000E+00
 -1       556 1.34462E-04 5.25246E-06 0.00000E+00
 -1       557 1.30993E-04 1.42248E-05 0.00000E+00
 -1       558 1.28357E-04 2.10304E-05 0.00000E+00
 -1       559 1.26467E-04 2.58851E-05 0.00000E+00
 -1       560 1.25237E-04 2.90046E-05 0.00000E+00
 -1       561 1.24582E-04 3.06062E-05 0.00000E+00
 -1       562 1.24416E-04 3.09076E-05 0.00000E+00
 -1       563 1.24656E-04 3.01271E-05 0.00000E+00
 -1       564 1.25220E-04 2.84831E-05 0.00000E+00
 -1       565 1.26024E-04 2.61945E-05 0.00000E+00
 -1       566 1.26987E-04 2.34803E-05 0.00000E+00
 -1       567 1.28027E-04 2.05597E-05 0.00000E+00
 -1       568 1.29062E-04 1.76517E-05 0.00000E+00
 -1       569 1.30010E-04 1.49753E-05 0.00000E+00
 -1       570 1.30791E-04 1.27497E-05 0.00000E+00
 -1       571 1.29022E-04 1.04096E-05-8.27181E-25
 -1       572 1.29102E-04 9.73685E-06-4.13590E-25
 -1       573 1.29183E-04 9.02683E-06 1.65436E-24
 -1       574 1.29263E-04 8.29017E-06 0.00000E+00
 -1       575 1.29344E-04 7.53754E-06 3.30872E-24
 -1       576 1.29425E-04 6.77967E-06 0.00000E+00
 -1       577 1.29505E-04 6.02730E-06 0.00000E+00
 -1       578 1.29586E-04 5.29118E-06 1.65436E-24
 -1       579 1.29667E-04 4.58204E-06-3.30872E-24
 -1       580 1.29748E-04 3.91064E-06-1.65436E-24
 -1       581 1.29828E-04 3.28772E-06 0.00000E+00
 -1       582 1.29909E-04 2.72402E-06 0.00000E+00
 -1       583 1.29990E-04 2.23025E-06-6.61744E-24
 -1       584 1.30071E-04 1.81703E-06 0.00000E+00
 -1       585 1.30152E-04 1.49488E-06 0.00000E+00
 -1       586 1.29286E-04 1.10625E-05 1.65436E-24
 -1       587 1.29602E-04 1.10894E-05-3.61892E-25
 -1       588 1.29929E-04 1.11160E-05 0.00000E+00
 -1       589 1.30301E-04 1.11421E-05 0.00000E+00
 -1       590 1.30754E-04 1.11673E-05 0.00000E+00
 -1       591 1.29138E-04 1.04640E-05 0.00000E+00
 -1       592 1.29338E-04 9.86709E-06 0.00000E+00
 -1       593 1.29546E-04 9.25025E-06-4.13590E-25
 -1       594 1.29759E-04 8.61856E-06 4.13590E-25
 -1       595 1.29975E-04 7.97726E-06 0.00000E+00
 -1       596 1.30193E-04 7.33149E-06 0.00000E+00
 -1       597 1.30411E-04 6.68643E-06-4.13590E-25
 -1       598 1.30626E-04 6.04724E-06-2.06795E-25
 -1       599 1.30837E-04 5.41905E-06 0.00000E+00
 -1       600 1.31043E-04 4.80702E-06 0.00000E+00
 -1       601 1.31240E-04 4.21632E-06 0.00000E+00
 -1       602 1.31427E-04 3.65209E-06 2.06795E-25
 -1       603 1.31603E-04 3.11949E-06 2.06795E-25
 -1       604 1.31765E-04 2.62375E-06-5.16988E-26
 -1       605 1.31912E-04 2.16999E-06 0.00000E+00
 -1       606 1.30245E-04 1.23057E-06 0.00000E+00
 -1       607 1.30256E-04 1.28186E-06 0.00000E+00
 -1       608 1.30265E-04 1.42179E-06 3.30872E-24
 -1       609 1.30274E-04 1.64413E-06 0.00000E+00
 -1       610 1.30283E-04 1.94262E-06 0.00000E+00
 -1       611 1.30292E-04 2.31089E-06 0.00000E+00
 -1       612 1.30301E-04 2.74258E-06 0.00000E+00
 -1       613 1.30310E-04 3.23134E-06 0.00000E+00
 -1       614 1.30319E-04 3.77079E-06 0.00000E+00
 -1       615 1.30328E-04 4.35456E-06 0.00000E+00
 -1       616 1.30337E-04 4.97629E-06 0.00000E+00
 -1       617 1.30345E-04 5.62961E-06 0.00000E+00
 -1       618 1.30354E-04 6.30814E-06 0.00000E+00
 -1       619 1.30363E-04 7.00553E-06 4.13590E-25
 -1       620 1.30371E-04 7.71540E-06 0.00000E+00
 -1       621 1.30404E-04 1.35546E-06 0.00000E+00
 -1       622 1.30647E-04 1.43771E-06 8.27181E-25
 -1       623 1.30947E-04 1.51993E-06 0.00000E+00
 -1       624 1.31290E-04 1.60199E-06 0.00000E+00
 -1       625 1.31660E-04 1.68389E-06 0.00000E+00
 -1       626 1.30340E-04 1.25927E-06 0.00000E+00
 -1       627 1.30421E-04 1.32045E-06-1.65436E-24
 -1       628 1.30476E-04 1.44926E-06-3.30872E-24
 -1       629 1.30509E-04 1.63748E-06 0.00000E+00
 -1       630 1.30523E-04 1.87692E-06 3.30872E-24
 -1       631 1.30521E-04 2.15930E-06 0.00000E+00
 -1       632 1.30506E-04 2.47639E-06 3.30872E-24
 -1       633 1.30481E-04 2.81994E-06 0.00000E+00
 -1       634 1.30449E-04 3.18169E-06 0.00000E+00
 -1       635 1.30413E-04 3.55339E-06 0.00000E+00
 -1       636 1.30377E-04 3.92680E-06-3.30872E-24
 -1       637 1.30343E-04 4.29366E-06-1.65436E-24
 -1       638 1.30315E-04 4.64572E-06 0.00000E+00
 -1       639 1.30295E-04 4.97472E-06 0.00000E+00
 -1       640 1.30286E-04 5.27240E-06-1.65436E-24
 -1       656 1.29884E-04 7.95947E-06 0.00000E+00
 -1       657 1.29776E-04 7.46865E-06-6.61744E-24
 -1       658 1.29918E-04 6.97924E-06-1.32349E-23
 -1       659 1.30163E-04 6.49023E-06 0.00000E+00
 -1       660 1.30344E-04 5.99969E-06 6.61744E-24
 -1       661 1.30197E-04 9.11376E-06 0.00000E+00
 -1       662 1.30043E-04 9.72749E-06-8.27181E-25
 -1       663 1.29914E-04 1.02756E-05 0.00000E+00
 -1       664 1.29809E-04 1.07622E-05-8.27181E-25
 -1       665 1.29725E-04 1.11910E-05 0.00000E+00
 -1       666 1.29662E-04 1.15657E-05 8.27181E-25
 -1       667 1.29617E-04 1.18899E-05 1.65436E-24
 -1       668 1.29591E-04 1.21668E-05-8.27181E-25
 -1       669 1.29580E-04 1.23999E-05 0.00000E+00
 -1       670 1.29585E-04 1.25924E-05 0.00000E+00
 -1       671 1.29605E-04 1.27472E-05 1.65436E-24
 -1       672 1.29637E-04 1.28675E-05 8.27181E-25
 -1       673 1.29680E-04 1.29561E-05 0.00000E+00
 -1       674 1.29734E-04 1.30157E-05 0.00000E+00
 -1       675 1.29798E-04 1.30494E-05 0.00000E+00
 -1       676 1.29737E-04 1.35028E-05 0.00000E+00
 -1       677 1.29763E-04 1.34133E-05 0.00000E+00
 -1       678 1.29788E-04 1.33238E-05 3.30872E-24
 -1       679 1.29814E-04 1.32346E-05-1.65436E-24
 -1       680 1.29840E-04 1.31454E-05 0.00000E+00
 -1       771 1.72944E-05 7.45131E-06 5.29396E-23
 -1       772 1.09431E-05 2.06118E-05 2.64698E-23
 -1       773 5.65192E-06 3.10423E-05 5.29396E-23
 -1       774 1.34975E-06 3.89052E-05 0.00000E+00
 -1       775-2.03344E-06 4.43681E-05 0.00000E+00
 -1       776-4.57058E-06 4.76071E-05 0.00000E+00
 -1       777-6.33505E-06 4.88030E-05 5.29396E-23
 -1       778-7.40187E-06 4.81437E-05 0.00000E+00
 -1       779-7.84625E-06 4.58210E-05 0.00000E+00
 -1       780-7.74477E-06 4.20325E-05 0.00000E+00
 -1       781-7.17392E-06 3.69790E-05 0.00000E+00
 -1       782-6.21131E-06 3.08658E-05 0.00000E+00
 -1       783-4.93437E-06 2.39001E-05 0.00000E+00
 -1       784-3.42138E-06 1.62924E-05-2.64698E-23
 -1       785-1.75033E-06 8.25469E-06 0.00000E+00
 -1       786 1.31365E-04 1.03950E-05-1.03398E-25
 -1       787 1.31410E-04 9.64585E-06 0.00000E+00
 -1       788 1.31454E-04 8.93449E-06-8.27181E-25
 -1       789 1.31499E-04 8.25347E-06 0.00000E+00
 -1       790 1.31545E-04 7.59846E-06 0.00000E+00
 -1       791 1.31590E-04 6.96513E-06 0.00000E+00
 -1       792 1.31635E-04 6.35147E-06-1.65436E-24
 -1       793 1.31681E-04 5.75547E-06-8.27181E-25
 -1       794 1.31726E-04 5.17695E-06 0.00000E+00
 -1       795 1.31772E-04 4.61579E-06-8.27181E-25
 -1       796 1.31817E-04 4.07367E-06 0.00000E+00
 -1       797 1.31862E-04 3.55230E-06 8.27181E-25
 -1       798 1.31908E-04 3.05555E-06 0.00000E+00
 -1       799 1.31953E-04 2.58734E-06 0.00000E+00
 -1       800 1.31999E-04 2.15456E-06 0.00000E+00
 -1       801 1.13737E-04 9.71340E-06 0.00000E+00
 -1       802 5.96688E-05 6.93981E-06 1.32349E-23
 -1       803 5.91992E-06 4.18209E-06 0.00000E+00
 -1       804-1.07000E-05 2.66671E-06 0.00000E+00
 -1       805-6.73700E-06 1.34123E-06-2.64698E-23
 -1       806 1.31528E-04 1.03413E-05 0.00000E+00
 -1       807 1.31720E-04 9.51947E-06 0.00000E+00
 -1       808 1.31899E-04 8.72777E-06-1.65436E-24
 -1       809 1.32066E-04 7.96891E-06-8.27181E-25
 -1       810 1.32219E-04 7.24555E-06-1.65436E-24
 -1       811 1.32358E-04 6.56026E-06 1.65436E-24
 -1       812 1.32482E-04 5.91563E-06 0.00000E+00
 -1       813 1.32589E-04 5.31422E-06 8.27181E-25
 -1       814 1.32680E-04 4.75858E-06 0.00000E+00
 -1       815 1.32752E-04 4.25127E-06 8.27181E-25
 -1       816 1.32805E-04 3.79483E-06-3.30872E-24
 -1       817 1.32838E-04 3.39181E-06-8.27181E-25
 -1       818 1.32851E-04 3.04474E-06 0.00000E+00
 -1       819 1.32841E-04 2.75615E-06 8.27181E-25
 -1       820 1.32809E-04 2.52856E-06 3.30872E-24
 -1       821 1.31941E-04 1.33247E-06-8.27181E-25
 -1       822 1.31831E-04 7.77412E-07 0.00000E+00
 -1       823 1.31722E-04 1.92582E-07-3.30872E-24
 -1       824 1.31611E-04-3.28264E-07-1.65436E-24
 -1       825 1.31500E-04-7.05920E-07 0.00000E+00
 -1       826 1.31390E-04-8.61873E-07 0.00000E+00
 -1       827 1.31279E-04-7.67763E-07 0.00000E+00
 -1       828 1.31168E-04-3.96473E-07-1.65436E-24
 -1       829 1.31057E-04 2.16416E-07 0.00000E+00
 -1       830 1.30946E-04 1.03413E-06 1.65436E-24
 -1       831 1.30835E-04 1.97357E-06 0.00000E+00
 -1       832 1.30724E-04 2.95103E-06-1.65436E-24
 -1       833 1.30613E-04 3.87417E-06 0.00000E+00
 -1       834 1.30504E-04 4.65097E-06 8.27181E-25
 -1       835 1.30394E-04 5.22238E-06 0.00000E+00
 -1       836 1.32332E-04 1.86403E-06-3.30872E-24
 -1       837 1.32510E-04 1.96619E-06-1.65436E-24
 -1       838 1.32611E-04 2.06819E-06 0.00000E+00
 -1       839 1.32665E-04 2.16954E-06 8.27181E-25
 -1       840 1.32703E-04 2.27073E-06 0.00000E+00
 -1       856 1.30268E-04 5.76937E-06 4.13590E-25
 -1       857 1.30242E-04 6.12605E-06 1.03398E-25
 -1       858 1.30216E-04 6.58199E-06 4.13590E-25
 -1       859 1.30189E-04 7.11868E-06 0.00000E+00
 -1       860 1.30162E-04 7.71751E-06-8.27181E-25
 -1       861 1.30135E-04 8.35978E-06 0.00000E+00
 -1       862 1.30108E-04 9.02681E-06-8.27181E-25
 -1       863 1.30082E-04 9.69985E-06 4.13590E-25
 -1       864 1.30055E-04 1.03601E-05-8.27181E-25
 -1       865 1.30028E-04 1.09890E-05 4.13590E-25
 -1       866 1.30001E-04 1.15676E-05 0.00000E+00
 -1       867 1.29974E-04 1.20774E-05 4.13590E-25
 -1       868 1.29947E-04 1.24998E-05 0.00000E+00
 -1       869 1.29920E-04 1.28163E-05 0.00000E+00
 -1       870 1.29893E-04 1.30085E-05 0.00000E+00
 -1       871 1.30287E-04 5.52883E-06 0.00000E+00
 -1       872 1.30405E-04 5.52469E-06 0.00000E+00
 -1       873 1.30590E-04 5.52007E-06 0.00000E+00
 -1       874 1.30789E-04 5.51484E-06-5.16988E-26
 -1       875 1.30948E-04 5.50908E-06 6.20385E-25
 -1       876 1.30308E-04 5.78064E-06 3.30872E-24
 -1       877 1.30307E-04 6.08821E-06 0.00000E+00
 -1       878 1.30286E-04 6.44617E-06 0.00000E+00
 -1       879 1.30250E-04 6.84814E-06 1.65436E-24
 -1       880 1.30199E-04 7.28767E-06 3.30872E-24
 -1       881 1.30137E-04 7.75835E-06 0.00000E+00
 -1       882 1.30065E-04 8.25379E-06-3.30872E-24
 -1       883 1.29987E-04 8.76762E-06 1.65436E-24
 -1       884 1.29904E-04 9.29344E-06 0.00000E+00
 -1       885 1.29819E-04 9.82489E-06 0.00000E+00
 -1       886 1.29734E-04 1.03556E-05 3.30872E-24
 -1       887 1.29652E-04 1.08791E-05-1.65436E-24
 -1       888 1.29575E-04 1.13891E-05-3.30872E-24
 -1       889 1.29504E-04 1.18790E-05 8.27181E-25
 -1       890 1.29443E-04 1.23425E-05 0.00000E+00
 -1       891 1.29913E-04 1.30102E-05 0.00000E+00
 -1       892 1.29940E-04 1.29620E-05 4.13590E-25
 -1       893 1.29924E-04 1.29139E-05-1.65436E-24
 -1       894 1.29842E-04 1.28660E-05 0.00000E+00
 -1       895 1.29671E-04 1.28181E-05 0.00000E+00
 -1       956 1.32648E-04 2.33267E-06-1.65436E-24
 -1       957 1.32540E-04 2.36895E-06 0.00000E+00
 -1       958 1.32431E-04 2.46560E-06-3.30872E-24
 -1       959 1.32322E-04 2.61449E-06 8.27181E-25
 -1       960 1.32212E-04 2.80749E-06 3.30872E-24
 -1       961 1.32103E-04 3.03641E-06 1.65436E-24
 -1       962 1.31994E-04 3.29307E-06 0.00000E+00
 -1       963 1.31885E-04 3.56928E-06 0.00000E+00
 -1       964 1.31775E-04 3.85685E-06 0.00000E+00
 -1       965 1.31666E-04 4.14758E-06 1.65436E-24
 -1       966 1.31557E-04 4.43328E-06 0.00000E+00
 -1       967 1.31448E-04 4.70576E-06-1.65436E-24
 -1       968 1.31339E-04 4.95682E-06 0.00000E+00
 -1       969 1.31230E-04 5.17831E-06 0.00000E+00
 -1       970 1.31121E-04 5.36207E-06-3.30872E-24
 -1       971 1.30913E-04 5.65260E-06 0.00000E+00
 -1       972 1.30812E-04 5.89105E-06 8.27181E-25
 -1       973 1.30710E-04 6.20612E-06-1.65436E-24
 -1       974 1.30608E-04 6.58795E-06 0.00000E+00
 -1       975 1.30506E-04 7.02665E-06 3.30872E-24
 -1       976 1.30404E-04 7.51233E-06 0.00000E+00
 -1       977 1.30302E-04 8.03509E-06-3.30872E-24
 -1       978 1.30199E-04 8.58501E-06-1.65436E-24
 -1       979 1.30097E-04 9.15215E-06 3.30872E-24
 -1       980 1.29995E-04 9.72662E-06 1.65436E-24
 -1       981 1.29893E-04 1.02985E-05-3.30872E-24
 -1       982 1.29791E-04 1.08578E-05 0.00000E+00
 -1       983 1.29689E-04 1.13946E-05 3.30872E-24
 -1       984 1.29588E-04 1.18991E-05 0.00000E+00
 -1       985 1.29487E-04 1.23614E-05 0.00000E+00
 -3
    1PSTEP                        20          10           1          
  100CL  110 5.74219E-01         409                     0   10           1
 -4  STRESS      6    1
 -5  SXX         1    4    1    1
 -5  SYY         1    4    2    2
 -5  SZZ         1    4    3    3
 -5  SXY         1    4    1    2
 -5  SYZ         1    4    2    3
 -5  SZX         1    4    3    1
 -1         1-2.97772E+06-1.19623E+06-6.43253E+05-1.37656E+06-4.43833E-10-2.27010E-09
 -1         2 2.16715E+03-8.28873E+05 6.99707E+03 1.72048E+02 5.58202E-11-5.08364E-08
 -1         3-4.84554E+02-1.32003E+06 3.16896E+02-1.07998E+03-2.49614E-10 2.73212E-09
 -1         5-1.45066E+00 3.04430E+05 7.72335E+00-7.54424E-02-6.41862E-11 8.77571E-09
 -1         8-1.12120E+06-3.77692E+05-1.31644E+05-4.05901E+05 8.00355E-11-3.34840E-08
 -1         9-5.78450E+05-8.24125E+05-6.51504E+03-7.54746E+05 1.76835E-08-1.51456E-08
 -1        10-1.33803E+03-1.37530E+06-2.33586E+03-7.30500E+03-7.89260E-09-1.65559E-08
 -1        12 1.71915E+00 3.04446E+05 2.50032E+02-5.71628E-01-9.12124E-11 1.60176E-08
 -1        15 1.76263E+03 9.68666E+02 5.69768E+03 3.44396E+00-3.97904E-10-4.51469E-08
 -1        16 1.18964E+06-9.39364E+05 1.47840E+05-1.20803E+06 1.12729E-08 6.04972E-08
 -1        17-2.93766E+03 8.92383E+04 8.33017E+04 2.07772E+05-2.88128E-10 1.01456E-08
 -1        18 2.24070E+03-4.03668E+03-2.36829E+04-8.52079E+04 7.74401E-09 7.76254E-10
 -1        19 9.81475E+04 1.12716E+05-8.12326E+02 1.91886E+04 4.58385E-11-1.40230E-08
 -1        20-5.27287E+04-4.64313E+05-1.03242E+05 2.79787E+04 2.00104E-09 4.55778E-09
 -1        21-4.13122E+01-2.56389E+05-8.15838E+02 4.55690E+00-6.94442E-10-1.76048E-08
 -1        24-5.23653E+05 8.20990E+05 2.64662E+05 4.85853E+05-7.49957E-08-3.14030E-08
 -1        25-1.02546E+05-5.77242E+05-1.15706E+05-1.83626E+05 6.27142E-10 2.29957E-09
 -1        26-3.81923E+04 7.32330E+04-1.90258E+04-3.91695E+03 1.35951E-09 1.54083E-09
 -1        27-6.71321E+04-2.52494E+05-9.37296E+04 5.69787E+04 4.94341E-09-2.61874E-09
 -1        28 1.96575E+04-7.21866E+04 1.45633E+04 2.05266E+04 1.87129E-10 3.40918E-11
 -1        32-1.39739E+06-2.21113E+06-6.30090E+04-3.82912E+05-2.86655E-08-4.57680E-09
 -1        33-1.47971E+05 7.31040E+04 2.60795E+04-3.43237E+04-8.71410E-11-1.38728E-09
 -1        34-1.86222E+05-1.92040E+04 5.03345E+02 5.95086E+04 5.40079E-10 1.88129E-09
 -1        35-2.00592E+04-2.86700E+04-1.13233E+03 4.46597E+04 2.39851E-09 1.12850E-08
 -1        51 3.05758E+04-3.02952E+05 7.00578E+04-8.56013E+05-5.82077E-11 3.20142E-10
 -1        52 1.34683E+04-2.94848E+05 4.08300E+04-9.98213E+05 3.92902E-10-6.48288E-09
 -1        53 6.46840E+03-3.09563E+05 2.77177E+04-8.52959E+05 9.45874E-11 1.26602E-09
 -1        54 1.72263E+04-3.07242E+05 3.58070E+04-1.00138E+06-5.02041E-10-1.44828E-08
 -1        55 3.47322E+04-3.19715E+05 5.87524E+04-8.52479E+05 9.45874E-11-5.59885E-09
 -1        56-5.66681E+06-6.34250E+05-4.74467E+05-2.19738E+06-1.44064E-09-1.89175E-08
 -1        57-5.89920E+06-1.02361E+06-3.20141E+05-2.13165E+06 6.73754E-09-6.42649E-08
 -1        58-5.75684E+06-7.90431E+05-1.11531E+05-2.17360E+06 7.47605E-10-5.11718E-08
 -1        59-5.79643E+06-8.38775E+05-6.65847E+04-2.15806E+06-2.36469E-10 1.77351E-09
 -1        60-5.76812E+06-8.14062E+05-2.59936E+04-2.17253E+06 5.07043E-10 1.53696E-08
 -1        61-5.78398E+06-8.10450E+05-1.47487E+04-2.15852E+06-3.41515E-09 3.46299E-08
 -1        62-5.76900E+06-8.18080E+05-7.01039E+03-2.17330E+06 3.87547E-09-2.73471E-08
 -1        63-5.78264E+06-8.06644E+05-5.68061E+03-2.15818E+06 7.28690E-09 1.38429E-08
 -1        64-5.76940E+06-8.17790E+05-6.29908E+03-2.17289E+06-2.74201E-09-1.25161E-08
 -1        65-5.78224E+06-8.11112E+05-1.26292E+04-2.16007E+06-3.48189E-09-6.85359E-08
 -1        66-5.76942E+06-8.13680E+05-2.20084E+04-2.17139E+06 2.70984E-09-2.22062E-08
 -1        67-5.79137E+06-8.36331E+05-5.61834E+04-2.16123E+06-1.04455E-09 1.94168E-08
 -1        68-5.76053E+06-7.93142E+05-9.40708E+04-2.17159E+06 7.31234E-10-1.55087E-08
 -1        69-5.87710E+06-9.93116E+05-2.69948E+05-2.14004E+06-2.33558E-09-4.73410E-08
 -1        70-5.68498E+06-6.61150E+05-4.00202E+05-2.19128E+06 3.99450E-09 1.65892E-09
 -1        86-1.08094E+03-8.30736E+05 7.57750E+03-8.60252E+01-6.38920E-11 2.62412E-09
 -1        87 7.20112E+03-8.26439E+05 1.57056E+04 3.16835E+02-1.17780E-10-4.43076E-08
 -1        88-6.09893E+03-8.33164E+05 2.41649E+04-2.30817E+02-5.18412E-11 3.38644E-08
 -1        89 4.54820E+04-8.08676E+05 6.50379E+04 5.31845E+02-2.11003E-10-7.18594E-09
 -1        90-3.92319E+04-8.48457E+05 9.20399E+04-3.01054E+02-2.61934E-10 3.59667E-08
 -1       121-6.86667E+02-1.32176E+06 3.40107E+01 5.38127E+02 8.83304E-10 4.24916E-09
 -1       122-3.66192E+02-1.32000E+06 6.58828E+02-2.15756E+03-3.20333E-09 4.60204E-10
 -1       123-7.41758E+02-1.32185E+06 7.84295E+02 1.60834E+03 2.40914E-09 8.13452E-09
 -1       124 9.12661E+02-1.31937E+06 2.68556E+03-4.56748E+03-6.08043E-09 7.23230E-09
 -1       125-1.50481E+03-1.32256E+06 3.80964E+03 2.94028E+03 3.97267E-09-1.70512E-08
 -1       191-1.78128E+00 3.04457E+05 9.44072E+00 3.78222E-02-4.20375E-11 4.56998E-09
 -1       192-2.15824E+00 3.04430E+05 1.63419E+01-3.07140E-01-4.30234E-11 4.43652E-09
 -1       193-3.66346E+00 3.04456E+05 3.05943E+01 2.70138E-01-1.21259E-10-6.63977E-09
 -1       194-4.43565E+00 3.04433E+05 6.17852E+01-7.22510E-01-2.03784E-11-3.59041E-08
 -1       195-7.28063E+00 3.04454E+05 1.21057E+02 4.55224E-01-1.07811E-10-4.78713E-09
 -1       251-2.10187E+06 2.39657E+04-1.32448E+05-1.26702E+05-1.82081E-09-5.93718E-09
 -1       252-1.82399E+06-2.69848E+04-3.24884E+04 3.40530E+05 4.59002E-09 1.04865E-08
 -1       253-2.01372E+06 1.01465E+04-3.34695E+04-1.57746E+05 1.71894E-10-2.40088E-08
 -1       254-1.60449E+06 8.81467E+03 5.91824E+04 2.03628E+05-1.16554E-08-7.24594E-09
 -1       255-2.30705E+06-2.59668E+04-7.72563E+04 1.02993E+04 2.80124E-10 3.46799E-08
 -1       256-1.57532E+06 2.06752E+04 7.75635E+04-1.42353E+05 9.30868E-10 5.86151E-08
 -1       257-2.04064E+06-3.89357E+03-1.54660E+04 1.87552E+05-2.05682E-09 8.36576E-09
 -1       258-1.82725E+06 1.85634E+04 3.10553E+04-3.10038E+05-2.29022E-09-7.19979E-10
 -1       259-2.07211E+06-6.98426E+03-2.10896E+04 1.78690E+05-1.27202E-08 2.61520E-08
 -1       260-1.54810E+06 2.19671E+04 8.60014E+04-1.13832E+05-1.69985E-09-2.66569E-08
 -1       261-2.30104E+06-2.58726E+04-6.99126E+04-9.36403E+03 1.46429E-09-3.08165E-09
 -1       262-1.63211E+06 1.45328E+04 6.75457E+04 2.29027E+05 8.70114E-09-1.41247E-08
 -1       263-1.99423E+06 6.44285E+03-5.20105E+03-1.63457E+05-1.48038E-08 2.66826E-08
 -1       264-1.79060E+06 1.87391E+04 3.39683E+04 3.33977E+05-6.95245E-08-1.23462E-08
 -1       265-2.15381E+06-1.88494E+04-4.93180E+04-1.14418E+05-2.24500E-08-4.45748E-08
 -1       266-3.19088E+04-1.49190E+04 7.48742E+04-7.36961E+01-3.27418E-10-8.30096E-08
 -1       267 3.69917E+04 1.73908E+04 5.29163E+04 8.50230E+01-4.69299E-10-1.36047E-07
 -1       268-4.96050E+03-2.46289E+03 1.96690E+04-1.08338E+01-5.74801E-10-1.59034E-07
 -1       269 5.85692E+03 2.94770E+03 1.27843E+04 1.26193E+01-5.42059E-10-1.23628E-07
 -1       270-8.79131E+02-4.84324E+02 6.17118E+03-1.71255E+00-4.80668E-10-6.10001E-08
 -1       271-2.92409E+06-3.62845E+05-2.19707E+05-1.13449E+06 3.13230E-09-3.64962E-08
 -1       272-3.01880E+06-5.08093E+05-1.41382E+05-1.11524E+06 5.96151E-09 1.80444E-08
 -1       273-2.96555E+06-4.17659E+05-5.18879E+04-1.12454E+06-1.85105E-09 3.92538E-08
 -1       274-2.96954E+06-4.41490E+05-2.90635E+04-1.13065E+06 6.97764E-09 5.49480E-08
 -1       275-2.97224E+06-4.22421E+05-1.20958E+04-1.12171E+06 5.81258E-09 7.86968E-08
 -1       276-2.96064E+06-4.36791E+05-6.38566E+03-1.13570E+06 3.64207E-09-6.46492E-09
 -1       277-2.97446E+06-4.21561E+05-3.15061E+03-1.11984E+06-4.20823E-09 7.63202E-09
 -1       278-2.95728E+06-4.38752E+05-2.18689E+03-1.13916E+06-2.81943E-11-2.42107E-09
 -1       279-2.97576E+06-4.20288E+05-2.30956E+03-1.11840E+06 3.63616E-09-3.21643E-08
 -1       280-2.95565E+06-4.41313E+05-4.10802E+03-1.14165E+06 6.92125E-10-1.27472E-08
 -1       281-2.97626E+06-4.18928E+05-7.45579E+03-1.11746E+06 3.69437E-09 2.05791E-08
 -1       282-2.95791E+06-4.47517E+05-1.78510E+04-1.14253E+06-3.74962E-09 2.24090E-08
 -1       283-2.97371E+06-4.14445E+05-3.17249E+04-1.11745E+06 4.90945E-09-3.38550E-08
 -1       284-2.98538E+06-4.91029E+05-8.65680E+04-1.13628E+06-1.62186E-08-2.59524E-08
 -1       285-2.94955E+06-3.79691E+05-1.34462E+05-1.12218E+06-3.13230E-09-1.19981E-08
 -1       301 2.33740E+04-1.83147E+05 1.74463E+05-3.47721E+05 2.18279E-10-1.67893E-08
 -1       302 2.47916E+04-1.39328E+05 1.11499E+05-5.09107E+05 2.09184E-11-2.09047E-08
 -1       303 9.67704E+02-1.65821E+05 7.99838E+04-3.47052E+05 5.63887E-11-3.03498E-08
 -1       304 2.36100E+04-1.38233E+05 1.10020E+05-5.08626E+05 4.51109E-10 1.94268E-09
 -1       305 2.14914E+04-1.80847E+05 1.70963E+05-3.48268E+05-2.25555E-10-3.20506E-09
 -1       306-9.96314E+06-1.29786E+06-1.64978E+06-2.03484E+06-3.61179E-08-9.86620E-09
 -1       307 1.93462E+05-1.88111E+06 6.21272E+05-4.79236E+06-3.06456E-07 6.90488E-09
 -1       308-7.60156E+06 2.27130E+05-2.12334E+05-2.11356E+04-7.38801E-08 8.97235E-08
 -1       309-3.73769E+06-2.09125E+06 1.74342E+05-7.45086E+06 8.04794E-08 1.60289E-08
 -1       310-7.68731E+06 1.97834E+05-1.48721E+05-6.47965E+04-3.72529E-09-8.98763E-09
 -1       311 4.04797E+05-1.88798E+06 8.95047E+05-4.58491E+06 6.92817E-08 6.26733E-08
 -1       312-9.98983E+06-1.33662E+06-1.13694E+06-2.14304E+06 8.35571E-08 4.04470E-08
 -1       313 2.19390E+06 5.23304E+05 1.55907E+06 7.76522E+05 1.26180E-07-6.92162E-08
 -1       314-8.23329E+06-3.07444E+06-1.13267E+06-4.07678E+06 2.19268E-07-6.54836E-09
 -1       315-5.23961E+06 3.70793E+06 8.85331E+05 1.62211E+06-6.40575E-08 2.22935E-08
 -1       316-4.21315E+06-3.25120E+06-1.47020E+05-3.90856E+06-3.47572E-07-1.88993E-07
 -1       317-1.04158E+07 4.57662E+06 1.62119E+05-1.32582E+04 3.07567E-07-1.64723E-07
 -1       318-4.14757E+06-3.24203E+06-2.38332E+05-3.89448E+06-2.78538E-07 5.62432E-08
 -1       319-5.45459E+06 3.75420E+06 5.70810E+05 1.56990E+06-6.17001E-08 4.85961E-08
 -1       320-8.13169E+06-3.09732E+06-1.74078E+06-4.08800E+06 7.95699E-08-2.48110E-08
 -1       336 4.70094E+02-1.43086E+06-9.08783E+03 4.33313E+03-1.53486E-08-5.74801E-10
 -1       337-3.42297E+03-1.43212E+06-1.08757E+04-1.05480E+04-2.84795E-08 2.01362E-09
 -1       338 5.48847E+02-1.43084E+06-1.54333E+04 6.16198E+03-1.99980E-08 5.75892E-09
 -1       339-1.62545E+04-1.44055E+06-3.44523E+04-1.41171E+04-3.68877E-08 3.29601E-09
 -1       340 1.08537E+04-1.42309E+06-5.37545E+04 7.86023E+03-2.37906E-08 1.97469E-08
 -1       406 2.10197E+01 3.04443E+05 4.93831E+02 1.20569E-01-1.87072E-10-2.01348E-08
 -1       407 1.73798E+02 3.04532E+05 1.04909E+03 2.55575E+00-8.89457E-11-4.49425E-08
 -1       408 5.41890E+02 3.04368E+05 2.09550E+03-2.74567E+00-2.31353E-10-1.41004E-08
 -1       409 2.26701E+03 3.05202E+05 4.71703E+03 2.74350E+01-1.29603E-10 5.44946E-09
 -1       410 6.51043E+03 3.03772E+05 9.62976E+03-2.59349E+01-4.32010E-10 5.33976E-09
 -1       521-1.21889E+07-1.76706E+06-2.24313E+06-2.27911E+06-2.93949E-08 3.14903E-08
 -1       522 6.81093E+05-2.20249E+06 7.66336E+05-6.30665E+06-2.68337E-07-9.73414E-08
 -1       523-9.18297E+06 2.40591E+05-2.72056E+05 2.13605E+05 3.44298E-08-1.78385E-07
 -1       524-4.88572E+06-2.06606E+06 2.43620E+05-9.73428E+06 3.29496E-07-1.83407E-07
 -1       525-9.32260E+06 1.87686E+05-1.99938E+05 1.46766E+05 2.61731E-07-1.19888E-07
 -1       526 1.07722E+06-2.22601E+06 1.14601E+06-5.95780E+06 1.95694E-07-7.90442E-08
 -1       527-1.22381E+07-1.84713E+06-1.56645E+06-2.45086E+06 1.17288E-07-5.65778E-08
 -1       528 3.67252E+06 7.29918E+05 1.96765E+06 1.37607E+06-3.53903E-08 5.20886E-08
 -1       529-9.95287E+06-4.10085E+06-1.55698E+06-4.93617E+06-2.35159E-08-1.04978E-07
 -1       530-6.44154E+06 5.21603E+06 1.13612E+06 2.20803E+06-8.55653E-08 1.77781E-07
 -1       531-4.86213E+06-4.23648E+06-1.87035E+05-4.73994E+06-4.26764E-07 1.21072E-08
 -1       532-1.33023E+07 6.35340E+06 2.50028E+05-4.38539E+05 1.06931E-07-2.18337E-07
 -1       533-4.75790E+06-4.22383E+06-2.70683E+05-4.71520E+06 3.63361E-08-4.28321E-07
 -1       534-6.77912E+06 5.36952E+06 8.10041E+05 2.08484E+06-7.96863E-08 2.80765E-07
 -1       535-9.81892E+06-4.20018E+06-2.20501E+06-4.94724E+06 3.20142E-09 1.82492E-07
 -1       536-4.74240E+05-2.91445E+04 2.31140E+04-2.47996E+04-6.08952E-09 2.66118E-08
 -1       537-2.74969E+05 3.09115E+04 4.94883E+04 6.09957E+04-6.58904E-08 5.90007E-08
 -1       538-3.78055E+05-1.27782E+03 1.08524E+04-3.75704E+04 1.35130E-08 6.60229E-08
 -1       539-3.39636E+05 3.32252E+03 1.32767E+04 6.98066E+04 7.45319E-08 4.51083E-08
 -1       540-4.10996E+05-4.19115E+02-4.27435E+03-3.36859E+04 2.13049E-09 5.79241E-08
 -1       541-2.13168E+05 5.49103E+03 3.37789E+04 4.41100E+04-4.14784E-08 4.33305E-08
 -1       542-5.01133E+05-6.22134E+03-2.50424E+04-1.17374E+04 1.99013E-08 2.66545E-08
 -1       543-1.41001E+05 8.16547E+03 4.69738E+04-8.36646E+03-6.07133E-09 1.09106E-08
 -1       544-4.81249E+05-4.65481E+03-2.20285E+04 1.86760E+04-8.67317E-09-2.97414E-08
 -1       545-2.58304E+05 2.07323E+03 2.15333E+04-5.57187E+04-2.40107E-10-5.75169E-08
 -1       546-3.86930E+05 2.39923E+03-4.94461E+03 3.55712E+04 1.70409E-08-5.43761E-08
 -1       547-3.49258E+05-4.02117E+03-1.96230E+03-7.17777E+04-6.14037E-08-5.14605E-08
 -1       548-3.92679E+05 3.38741E+03-1.49000E+04 3.48422E+04-6.58615E-08-5.22618E-08
 -1       549-2.50374E+05-9.84382E+03-2.07997E+03-5.24374E+04-3.17212E-08-3.75389E-08
 -1       550-4.83059E+05 5.96067E+03-6.80763E+04 1.61131E+04 3.28237E-09-1.71622E-08
 -1       551 2.46717E+04-6.71252E+05 2.06415E+04-1.06804E+06-6.30171E-08-3.34694E-09
 -1       552 5.48287E+04-6.90396E+05 3.03409E+04-1.52203E+06-4.39759E-08 2.20243E-08
 -1       553 3.99186E+04-6.94806E+05 4.56573E+04-1.06361E+06-7.40038E-08 1.86556E-08
 -1       554 8.44341E+04-6.91545E+05 9.68970E+04-1.52372E+06-4.87780E-08 8.62383E-09
 -1       555 6.89674E+04-7.14778E+05 1.72113E+05-1.06432E+06-7.70451E-08-1.01609E-08
 -1       556 1.36301E+05-2.46824E+05 6.30087E+04-2.96992E+05-1.27911E-08-6.12636E-09
 -1       557 2.31515E+05-3.23464E+05 3.38500E+04-3.76315E+05-3.97267E-09-1.30376E-08
 -1       558 1.30863E+05-2.52201E+05 1.25191E+04-2.91992E+05-9.77889E-09 1.41954E-08
 -1       559 2.15082E+05-3.30780E+05 6.71772E+03-3.85882E+05 9.16771E-09 4.22006E-10
 -1       560 1.24490E+05-2.48128E+05 2.10103E+03-2.96363E+05 7.56700E-10 9.33505E-09
 -1       561 2.06511E+05-3.27764E+05 1.38261E+03-3.91498E+05-1.02082E-08-1.03310E-08
 -1       562 1.19476E+05-2.44929E+05 1.80205E+02-2.99960E+05-5.31145E-09-9.63973E-09
 -1       563 2.00624E+05-3.25202E+05 3.37751E+02-3.95292E+05-2.23372E-09 1.06888E-08
 -1       564 1.16110E+05-2.42808E+05 4.39082E+00-3.02337E+05 3.40515E-09 1.05592E-09
 -1       565 1.97097E+05-3.23670E+05 1.30452E+02-3.97529E+05 7.60338E-09-4.55839E-09
 -1       566 1.14456E+05-2.41751E+05-8.09784E-01-3.03499E+05-1.12050E-09 6.36101E-09
 -1       567 1.95902E+05-3.23138E+05-8.43753E+01-3.98191E+05 1.45565E-08 4.43470E-09
 -1       568 1.14566E+05-2.41834E+05-4.23238E+02-3.03514E+05 2.75395E-09 2.55386E-09
 -1       569 1.96092E+05-3.23067E+05-1.05424E+03-3.96428E+05-6.97037E-09 1.34751E-08
 -1       570 1.17210E+05-2.44038E+05-2.47974E+03-3.03026E+05 4.50382E-09 2.74122E-09
 -1       571 2.30844E+05 8.48816E+03 1.24567E+04-6.17348E+04-4.63842E-11 8.19978E-09
 -1       572 2.32686E+05 3.01593E+03 6.10341E+03-6.77172E+04 7.20775E-10 4.48563E-09
 -1       573 2.31583E+05 7.81824E+02 2.71167E+03-6.16006E+04-9.01628E-09-3.09046E-09
 -1       574 2.31793E+05 3.21122E+02 1.35901E+03-6.78740E+04-1.65028E-08 5.35420E-09
 -1       575 2.31666E+05 1.16142E+02 6.41019E+02-6.15827E+04-9.35961E-09 2.29829E-09
 -1       576 2.31675E+05 1.01078E+02 3.27289E+02-6.78949E+04-6.18093E-09 3.25645E-09
 -1       577 2.31686E+05 7.60496E+01 1.62797E+02-6.15803E+04-4.27099E-09 6.38420E-09
 -1       578 2.31675E+05 8.35348E+01 9.21968E+01-6.78975E+04-1.85719E-09 4.46562E-10
 -1       579 2.31713E+05 6.51566E+01 6.19799E+01-6.15801E+04 1.01045E-09-8.81573E-09
 -1       580 2.31713E+05 6.65523E+01 6.79720E+01-6.78940E+04-2.68483E-09-6.23277E-09
 -1       581 2.31756E+05 4.64706E+01 1.02138E+02-6.15839E+04 6.36646E-10 3.43289E-09
 -1       582 2.31789E+05 6.75774E+01 2.03474E+02-6.78548E+04 8.36735E-10 7.57291E-09
 -1       583 2.31806E+05 1.08345E+02 3.93920E+02-6.16194E+04 3.80169E-10 2.66778E-09
 -1       584 2.31996E+05 4.22635E+02 8.86740E+02-6.75566E+04 2.52476E-09-1.27146E-08
 -1       585 2.31767E+05 1.19795E+03 1.80125E+03-6.18823E+04 2.04454E-09-4.61114E-09
 -1       586-2.92512E+03 7.70386E+04-3.44717E+03-2.06266E+05-2.14641E-09 3.81374E-09
 -1       587-7.62117E+02 7.66278E+04-3.09093E+01-2.27041E+05-1.32604E-09-7.63612E-09
 -1       588 7.17164E+02 7.66529E+04 3.31652E+03-2.06170E+05-8.78572E-10 1.48430E-09
 -1       589 4.34228E+03 7.84480E+04 9.17093E+03-2.26800E+05-1.77351E-09-1.02827E-08
 -1       590 1.29988E+04 7.56375E+04 1.94606E+04-2.06525E+05-1.77715E-09-3.20870E-09
 -1       591-4.76732E+04-1.20778E+04-1.62603E+04-2.25772E+04-1.73293E-09-6.60111E-09
 -1       592-4.99847E+04-1.52845E+04-8.80758E+03-2.59209E+04-1.35330E-09-1.25706E-08
 -1       593-4.93054E+04-1.08917E+04-3.66640E+03-2.37635E+04 7.09861E-10 3.73893E-09
 -1       594-4.77309E+04-1.29080E+04-1.82861E+03-2.60174E+04-3.23212E-10-4.29644E-09
 -1       595-4.94301E+04-1.08872E+04-8.39943E+02-2.38176E+04-1.37982E-09 7.88943E-09
 -1       596-4.75773E+04-1.27993E+04-4.27577E+02-2.60000E+04 3.10590E-09 8.98382E-09
 -1       597-4.94458E+04-1.08981E+04-2.34057E+02-2.38196E+04 2.10636E-09-4.24490E-09
 -1       598-4.75623E+04-1.27951E+04-1.90412E+02-2.59951E+04-4.13257E-09-7.37271E-09
 -1       599-4.94447E+04-1.08983E+04-2.46041E+02-2.38193E+04 1.31797E-09-4.04043E-10
 -1       600-4.75780E+04-1.28003E+04-4.59311E+02-2.59989E+04 1.18177E-10-8.95625E-09
 -1       601-4.94257E+04-1.08874E+04-9.07282E+02-2.38163E+04 4.25757E-09-3.07784E-09
 -1       602-4.77439E+04-1.29174E+04-1.97794E+03-2.60150E+04-2.86605E-10-1.90198E-09
 -1       603-4.92888E+04-1.08945E+04-3.96690E+03-2.37582E+04-1.79034E-09-1.63072E-09
 -1       604-5.01946E+04-1.54750E+04-9.52919E+03-2.58930E+04-7.71593E-10-5.94446E-09
 -1       605-4.75080E+04-1.21903E+04-1.75925E+04-2.24883E+04-2.57103E-10 8.56744E-09
 -1       606 2.74348E+04-1.10811E+04-1.99134E+04 2.63312E+04 8.73115E-10-1.30967E-10
 -1       607 2.40275E+04-3.59373E+03-9.91604E+03 2.95657E+04 6.32099E-10 4.68253E-09
 -1       608 2.59620E+04-6.24560E+02-4.44021E+03 2.61266E+04 1.65892E-09 3.19915E-09
 -1       609 2.55815E+04-1.84078E+02-2.24270E+03 2.97979E+04-1.13414E-09-8.55778E-09
 -1       610 2.57863E+04 4.31821E+00-1.07091E+03 2.61034E+04-4.58022E-09 6.13818E-09
 -1       611 2.57183E+04 1.42080E+01-5.39915E+02 2.98232E+04-7.36736E-09 2.00544E-10
 -1       612 2.57411E+04 2.03821E+01-2.57626E+02 2.61011E+04-2.54477E-09-5.03564E-09
 -1       613 2.57183E+04 2.24207E+01-1.16227E+02 2.98261E+04-1.33650E-09-5.40285E-09
 -1       614 2.57170E+04 1.98432E+01-2.96514E+01 2.61003E+04 1.40153E-09 2.64072E-09
 -1       615 2.57070E+04 2.75067E+01 4.32876E+01 2.98266E+04 3.38014E-09-8.84120E-09
 -1       616 2.56984E+04 2.55036E+01 1.34735E+02 2.61006E+04-2.45473E-09-1.33075E-08
 -1       617 2.57179E+04 5.94460E+01 3.09546E+02 2.98261E+04 1.05501E-09-1.58075E-08
 -1       618 2.56676E+04 1.17217E+02 6.24600E+02 2.61007E+04-2.50930E-09-4.47471E-10
 -1       619 2.59352E+04 5.44413E+02 1.40312E+03 2.98253E+04-2.77180E-09 1.20731E-08
 -1       620 2.54582E+04 1.60013E+03 2.82031E+03 2.60999E+04 1.58514E-09 3.11002E-09
 -1       621 2.77985E+02 2.35631E+05 2.53336E+03 1.76648E+04 1.94404E-10 1.02423E-08
 -1       622 3.45079E+02 2.36246E+05 2.36556E+03 2.56993E+04 3.92902E-10 1.49907E-09
 -1       623 2.77490E+01 2.35770E+05 2.99931E+03 1.75806E+04 3.18067E-10 9.73705E-09
 -1       624 1.45299E+03 2.37243E+05 5.93979E+03 2.57852E+04 3.23766E-10 1.12186E-08
 -1       625 1.45727E+03 2.34598E+05 1.04407E+04 1.75779E+04 4.19277E-10 8.70648E-09
 -1       626 2.08338E+05 5.42018E+04 4.53685E+03 1.07662E+05 9.26320E-10-1.38061E-09
 -1       627 2.05968E+05 5.57568E+04 2.18625E+03 1.11797E+05-9.50877E-10-1.07839E-08
 -1       628 2.08471E+05 5.20990E+04 9.23848E+02 1.08398E+05 3.62888E-10 5.53337E-09
 -1       629 2.05366E+05 5.51896E+04 4.52291E+02 1.12042E+05-2.94949E-09 7.69694E-09
 -1       630 2.08481E+05 5.19994E+04 2.09014E+02 1.08424E+05-1.75169E-09 5.40069E-09
 -1       631 2.05296E+05 5.51721E+04 1.11592E+02 1.12043E+05-2.07183E-09 2.09225E-08
 -1       632 2.08473E+05 5.20059E+04 7.18421E+01 1.08417E+05-4.67980E-09-4.69277E-09
 -1       633 2.05283E+05 5.51767E+04 7.76343E+01 1.12036E+05 1.40699E-09 1.10588E-08
 -1       634 2.08464E+05 5.20062E+04 1.23281E+02 1.08413E+05 8.95079E-09 1.92852E-08
 -1       635 2.05290E+05 5.51774E+04 2.48266E+02 1.12037E+05 5.51142E-09-2.51453E-09
 -1       636 2.08453E+05 5.20038E+04 5.00679E+02 1.08411E+05 7.05001E-10-3.91992E-10
 -1       637 2.05395E+05 5.52562E+04 1.10017E+03 1.12034E+05 1.97315E-09 1.20490E-08
 -1       638 2.08412E+05 5.22480E+04 2.26055E+03 1.08299E+05-3.28191E-09-2.96313E-09
 -1       639 2.06582E+05 5.69072E+04 5.34796E+03 1.11682E+05 3.60694E-09 1.01941E-08
 -1       640 2.08252E+05 5.71738E+04 1.10980E+04 1.06215E+05-1.99680E-09-7.23298E-09
 -1       656 5.46979E+04-1.39130E+06-1.32042E+05-7.62536E+02 5.16593E-10-1.18402E-08
 -1       657-7.23223E+04-1.45092E+06-1.09296E+05 7.23519E+03 4.72937E-10-1.61785E-08
 -1       658 1.73944E+04-1.40827E+06-6.71974E+04-2.29568E+03 9.23592E-10-6.62801E-10
 -1       659-7.78903E+04-1.45356E+06-1.16610E+05 8.35992E+03-3.24690E-10-8.31211E-10
 -1       660 6.02531E+04-1.38867E+06-1.44619E+05-1.88724E+03-1.60799E-09 2.83546E-09
 -1       661 1.66066E+05 1.78566E+04 1.64942E+04 6.49424E+04 2.24554E-09-8.33552E-09
 -1       662 1.74970E+05 3.04857E+04 1.11149E+04 6.17221E+04 3.30431E-10-5.60340E-09
 -1       663 1.69304E+05 2.31501E+04 3.88781E+03 6.40049E+04-1.70269E-09 8.13475E-09
 -1       664 1.71220E+05 2.42924E+04 2.32493E+03 6.28646E+04-5.67979E-10 7.95504E-09
 -1       665 1.69791E+05 2.38760E+04 9.17151E+02 6.38653E+04-1.81399E-09-1.23811E-09
 -1       666 1.70646E+05 2.34599E+04 5.35660E+02 6.30453E+04-1.56537E-09-7.11380E-09
 -1       667 1.69875E+05 2.39608E+04 2.83358E+02 6.38323E+04-3.05675E-10-2.90094E-09
 -1       668 1.70555E+05 2.33960E+04 2.86042E+02 6.30932E+04 2.20950E-10-6.27921E-09
 -1       669 1.69882E+05 2.39381E+04 3.85062E+02 6.38179E+04 1.49555E-09 3.84685E-09
 -1       670 1.70650E+05 2.36027E+04 8.36431E+02 6.30948E+04 8.40210E-10-1.48401E-09
 -1       671 1.69780E+05 2.37582E+04 1.48445E+03 6.38289E+04-1.36536E-09-1.09563E-08
 -1       672 1.71514E+05 2.50469E+04 3.79739E+03 6.28857E+04-3.80098E-10-1.40431E-08
 -1       673 1.69021E+05 2.25303E+04 6.36360E+03 6.40131E+04-3.11809E-09-2.31512E-09
 -1       674 1.77573E+05 3.52689E+04 1.81985E+04 6.11045E+04-1.82513E-09 5.44424E-09
 -1       675 1.63761E+05 1.38222E+04 2.70126E+04 6.55025E+04-1.39289E-09-1.16306E-08
 -1       676 2.11657E+01-2.56321E+05-9.83298E+02-2.27850E+00-6.03336E-10-2.08335E-09
 -1       677-2.61149E+02-2.56559E+05-1.79957E+03 4.55412E+00 1.27230E-09-9.92602E-09
 -1       678 1.74316E+02-2.56152E+05-3.18118E+03-2.27406E+00-1.82126E-10 1.50736E-09
 -1       679-3.18212E+03-2.58479E+05-7.55702E+03 4.53709E+00 7.15090E-10 6.62340E-09
 -1       680 1.89910E+03-2.54402E+05-1.21794E+04-2.23583E+00-2.79215E-10 1.05489E-08
 -1       771-2.71149E+06-5.60956E+05-8.80381E+04-1.21410E+06-1.91358E-08-1.43773E-08
 -1       772-2.66786E+06-6.18250E+05-4.60906E+04-1.27948E+06-1.35624E-08 9.51695E-09
 -1       773-2.72729E+06-5.48472E+05-2.20375E+04-1.21987E+06-7.79983E-09 7.41420E-09
 -1       774-2.65910E+06-6.09002E+05-1.01481E+04-1.29097E+06 1.32568E-08-9.02219E-10
 -1       775-2.73408E+06-5.43663E+05-6.63199E+03-1.22189E+06-1.14960E-08-3.18687E-09
 -1       776-2.66257E+06-6.08479E+05-2.64283E+03-1.29890E+06-8.64384E-09 2.60115E-09
 -1       777-2.73968E+06-5.39552E+05-2.59885E+03-1.22364E+06 3.49246E-09 2.69210E-09
 -1       778-2.66648E+06-6.08109E+05-7.96707E+02-1.30563E+06 1.22964E-09 6.41012E-09
 -1       779-2.74438E+06-5.36031E+05-1.20603E+03-1.22516E+06-5.93718E-09-4.21278E-09
 -1       780-2.66994E+06-6.07720E+05-2.32698E+02-1.31109E+06-1.01863E-09-2.72848E-11
 -1       781-2.74805E+06-5.33228E+05-4.78775E+02-1.22634E+06-1.41154E-08-1.28784E-09
 -1       782-2.67260E+06-6.07353E+05 8.24463E+01-1.31510E+06-1.86556E-08-3.71438E-09
 -1       783-2.75060E+06-5.31316E+05 1.04815E+02-1.22718E+06-7.27596E-12-4.30805E-09
 -1       784-2.67410E+06-6.06910E+05 6.78389E+02-1.31755E+06-1.16543E-08 8.84029E-10
 -1       785-2.75202E+06-5.30248E+05 1.16828E+03-1.22769E+06-2.30830E-08 3.92538E-09
 -1       786 1.26209E+05-9.05590E+03 2.09504E+04-1.34220E+02 1.68834E-09 1.14505E-09
 -1       787 1.35294E+05 1.04839E+04 1.48218E+04 2.23911E+01 3.65211E-09 2.46700E-10
 -1       788 1.29713E+05-1.41951E+03 5.42099E+03-1.07639E+02 2.42538E-09 3.05931E-09
 -1       789 1.31213E+05 1.64231E+03 3.40409E+03-2.04606E+01-8.81841E-10 1.55968E-08
 -1       790 1.30291E+05-2.21489E+02 1.38044E+03-9.13735E+01-1.25910E-09 9.42543E-09
 -1       791 1.30537E+05 2.56052E+02 8.01588E+02-4.87244E+01-2.76966E-09 4.17666E-09
 -1       792 1.30389E+05-3.42888E+01 3.48213E+02-7.93756E+01-1.04456E-09 8.43693E-09
 -1       793 1.30423E+05 3.96823E+01 1.92329E+02-7.13596E+01-2.78021E-10-6.66503E-09
 -1       794 1.30406E+05-5.25704E+00 8.76253E+01-6.87379E+01 1.61178E-09 3.64248E-09
 -1       795 1.30403E+05 6.37725E+00 4.75075E+01-9.35669E+01-9.38218E-11 7.30929E-09
 -1       796 1.30408E+05-1.00031E+00 2.32312E+01-5.71680E+01 1.03238E-09 3.56160E-11
 -1       797 1.30400E+05 2.75355E+00 1.51359E+01-1.20086E+02 9.34665E-10-6.44844E-09
 -1       798 1.30408E+05-1.63751E+00 1.11241E+01-4.22183E+01 4.79440E-10 4.52710E-10
 -1       799 1.30404E+05 1.16295E+01 1.88901E+01-1.56563E+02 1.74385E-09-9.74684E-09
 -1       800 1.30404E+05-9.87950E+00 2.34394E+01-2.06905E+01 1.36447E-10 9.34928E-09
 -1       801 7.56895E+04-4.35240E+06-4.62235E+05 2.22486E+05 3.64525E-08-1.76515E-08
 -1       802-5.28826E+04-2.55606E+06 4.03111E+04-2.09646E+05 9.97570E-08-2.02751E-08
 -1       803-2.50605E+04-4.42128E+06-2.29913E+05 2.21565E+05 4.48126E-08 2.35486E-08
 -1       804-2.48587E+04-3.14592E+06 5.16227E+04 1.72076E+05-6.87487E-09-1.76271E-09
 -1       805 3.84428E+04-3.76779E+06-5.60381E+04-1.59012E+05-3.55612E-09-3.45486E-09
 -1       806-2.53798E+05-4.79101E+04-1.84866E+04-9.91393E+04-7.11680E-10-1.44246E-09
 -1       807-2.55455E+05-4.46899E+04-9.08225E+03-1.03385E+05 3.73166E-09-3.47207E-10
 -1       808-2.54290E+05-4.12635E+04-3.85308E+03-1.02308E+05-5.21140E-09-4.91502E-09
 -1       809-2.53554E+05-4.21302E+04-1.88409E+03-1.03600E+05-2.76441E-09 1.13624E-08
 -1       810-2.54367E+05-4.10318E+04-8.63464E+02-1.02449E+05 1.95269E-09 1.09792E-08
 -1       811-2.53408E+05-4.20264E+04-4.29306E+02-1.03572E+05 2.54204E-10-1.43644E-08
 -1       812-2.54380E+05-4.10509E+04-2.16779E+02-1.02450E+05-2.24418E-09-1.01695E-08
 -1       813-2.53390E+05-4.20274E+04-1.40453E+02-1.03558E+05-4.00905E-09-1.05274E-08
 -1       814-2.54377E+05-4.10576E+04-1.38296E+02-1.02447E+05 5.90717E-09 1.30144E-08
 -1       815-2.53394E+05-4.20287E+04-2.22386E+02-1.03554E+05-4.74756E-10-1.10103E-08
 -1       816-2.54362E+05-4.10554E+04-4.20830E+02-1.02445E+05 1.66983E-09 1.95550E-08
 -1       817-2.53468E+05-4.20683E+04-9.03549E+02-1.03548E+05-2.40107E-10 6.84668E-09
 -1       818-2.54311E+05-4.11809E+04-1.84251E+03-1.02386E+05-1.32786E-09 3.45472E-09
 -1       819-2.54477E+05-4.31838E+04-4.33620E+03-1.03315E+05 5.84259E-09 1.39571E-08
 -1       820-2.53972E+05-4.44491E+04-8.82524E+03-1.00980E+05 2.92493E-09 7.90885E-09
 -1       821-3.09177E+05 1.70941E+04-3.95350E+04 4.51033E+02 4.39251E-07-1.32677E-08
 -1       822-3.26299E+05-1.97891E+04-2.79752E+04-1.12434E+03 8.83331E-07 1.06370E-08
 -1       823-3.15781E+05 2.68050E+03-1.02390E+04 4.94245E+02 4.38064E-07-6.81348E-09
 -1       824-3.18580E+05-3.10159E+03-6.44031E+03-9.55580E+02 1.83614E-09 3.82215E-09
 -1       825-3.16892E+05 4.19007E+02-2.65156E+03 2.82275E+02 1.31273E-09 1.41166E-08
 -1       826-3.17275E+05-4.93378E+02-1.59124E+03-3.74659E+02 2.70829E-10 5.38208E-09
 -1       827-3.17084E+05 7.33967E+01-8.35523E+02-8.66854E+01-1.08626E-09 5.18020E-09
 -1       828-3.17102E+05-1.50742E+02-7.28212E+02 3.50782E+02-4.11713E-09 1.60443E-08
 -1       829-3.17065E+05 7.66756E+01-8.52568E+02-4.43179E+02-2.50783E-10 8.26344E-09
 -1       830-3.17328E+05-5.14403E+02-1.65928E+03 8.86933E+02 1.08761E-09 2.86445E-09
 -1       831-3.16859E+05 4.37605E+02-2.75390E+03-6.22847E+02-3.14176E-09-1.02023E-08
 -1       832-3.18660E+05-3.23094E+03-6.71105E+03 9.86963E+02-1.01477E-09-3.68607E-09
 -1       833-3.15734E+05 2.79147E+03-1.06680E+04-5.43209E+02-2.21554E-09 9.53969E-09
 -1       834-3.26649E+05-2.06135E+04-2.91369E+04 6.01741E+02-1.41507E-09-5.36602E-11
 -1       835-3.08872E+05 1.78061E+04-4.11932E+04-2.37612E+02 5.02005E-09-4.88581E-09
 -1       836-1.06117E+03 2.92498E+05 1.77905E+04-1.62304E+04-1.01136E-09 3.66117E-09
 -1       837 3.86558E+03 2.98036E+05 1.52201E+04-3.26818E+04-7.62157E-10-1.46429E-10
 -1       838-4.10482E+02 2.94029E+05 1.57407E+04-1.61655E+04-6.45286E-10 4.96061E-09
 -1       839 1.00712E+04 3.02662E+05 3.00059E+04-3.27219E+04-2.98769E-10 8.49292E-09
 -1       840-3.06286E+03 2.87829E+05 4.79484E+04-1.61900E+04-4.87489E-10-9.31539E-09
 -1       856-7.25538E+04 7.62816E+03-2.01025E+04-4.20527E+02-1.26010E-09 1.11340E-08
 -1       857-8.08516E+04-8.95062E+03-1.38394E+04 4.86550E+03 5.08976E-10-2.66846E-09
 -1       858-7.58341E+04 1.06904E+03-5.21675E+03-4.42584E+02-2.42312E-09 5.16616E-09
 -1       859-7.70856E+04-1.24621E+03-3.14966E+03 4.90003E+03 2.00657E-09 2.67949E-09
 -1       860-7.63244E+04 1.48917E+02-1.32260E+03-4.55087E+02-2.76401E-10-6.66648E-09
 -1       861-7.65212E+04-1.67155E+02-7.33046E+02 4.91715E+03-3.25679E-09 3.58240E-09
 -1       862-7.64009E+04 1.97350E+01-3.15654E+02-4.59719E+02 4.38033E-09-8.88605E-10
 -1       863-7.64294E+04-1.26002E+01-1.39813E+02 4.91942E+03 6.00523E-09 7.04797E-09
 -1       864-7.64165E+04-2.20070E+00-1.10150E+01-4.57369E+02 2.03542E-09 4.50503E-09
 -1       865-7.63919E+04 3.98681E+01 1.18246E+02 4.90717E+03 5.22908E-09-1.95693E-08
 -1       866-7.64366E+04-3.30518E+01 2.66964E+02-4.47469E+02-6.88999E-10-7.78628E-09
 -1       867-7.62585E+04 2.75210E+02 6.75619E+02 4.88024E+03 2.57592E-09 1.65526E-08
 -1       868-7.65460E+04-2.34169E+02 1.12701E+03-4.30436E+02-7.91829E-10-1.07772E-08
 -1       869-7.54265E+04 1.94772E+03 3.00784E+03 4.83547E+03-1.11481E-09-1.32740E-08
 -1       870-7.72626E+04-1.66141E+03 4.36394E+03-4.02692E+02-1.63948E-09 7.84212E-10
 -1       871-4.66787E+03-1.20397E+04-1.54898E+04 1.03045E+05 1.05501E-10-3.75712E-09
 -1       872-1.93629E+03-1.55490E+04-6.37685E+03 1.33598E+05-4.39286E-10-3.22552E-09
 -1       873 5.31749E+01-1.38975E+04 7.42601E+02 1.02819E+05-2.06001E-10 1.76601E-09
 -1       874 2.42525E+03-1.17587E+04 8.41286E+03 1.33637E+05-2.71029E-10 3.07637E-10
 -1       875 5.52959E+03-1.58955E+04 1.87652E+04 1.03008E+05 6.12999E-10-1.36424E-11
 -1       876 2.45295E+05 4.18720E+04 1.28490E+04 9.90636E+04-2.58063E-09 1.06411E-09
 -1       877 2.46088E+05 4.46346E+04 6.86178E+03 1.02802E+05-2.20939E-09 8.15294E-09
 -1       878 2.46496E+05 4.04503E+04 2.87477E+03 1.00119E+05 1.10504E-09-7.61474E-09
 -1       879 2.44341E+05 4.28926E+04 1.43223E+03 1.02890E+05 1.86947E-09 8.92805E-09
 -1       880 2.46582E+05 4.04350E+04 6.66981E+02 1.00162E+05 3.47882E-09 1.19118E-08
 -1       881 2.44225E+05 4.28184E+04 3.55765E+02 1.02871E+05 1.31045E-08 7.84269E-10
 -1       882 2.46591E+05 4.04458E+04 2.26907E+02 1.00163E+05 4.94219E-09-4.06389E-09
 -1       883 2.44217E+05 4.28148E+04 2.42806E+02 1.02866E+05 4.22256E-09 2.07541E-09
 -1       884 2.46585E+05 4.04433E+04 3.85228E+02 1.00163E+05 1.61248E-09 6.79449E-10
 -1       885 2.44247E+05 4.28202E+04 7.73889E+02 1.02875E+05 1.97522E-09 3.51440E-09
 -1       886 2.46555E+05 4.04207E+04 1.55945E+03 1.00160E+05 5.57037E-10 9.06300E-09
 -1       887 2.44521E+05 4.29999E+04 3.40631E+03 1.02915E+05 1.86040E-09 1.45575E-08
 -1       888 2.46340E+05 4.04585E+04 6.86381E+03 1.00051E+05 2.96015E-09 1.23532E-08
 -1       889 2.48610E+05 4.72477E+04 1.63968E+04 1.02787E+05 1.01126E-09 6.27551E-09
 -1       890 2.43543E+05 4.37813E+04 3.07103E+04 9.74333E+04 2.27237E-09 6.94854E-09
 -1       891-1.30356E+02-1.37850E+05-1.65830E+03 2.48362E+04-5.12046E-10-4.95129E-09
 -1       892-2.31585E+02-1.38259E+05-1.79203E+03 3.76166E+04-1.51977E-09 1.00351E-08
 -1       893-2.02663E+01-1.37902E+05-2.54870E+03 2.48417E+04 6.66205E-11 5.37148E-09
 -1       894-1.35632E+03-1.39228E+05-5.28309E+03 3.74810E+04 7.83984E-10 1.44109E-09
 -1       895-1.06558E+03-1.36801E+05-9.30676E+03 2.49708E+04-1.71099E-10-7.24867E-09
 -1       956-3.11395E+05-4.38319E+03-1.09877E+04 2.17849E+04-3.78532E-09 3.86092E-09
 -1       957-3.13561E+05-1.49291E+03-5.64044E+03 2.62289E+04-4.90036E-09 1.70166E-09
 -1       958-3.12373E+05-1.33730E+02-2.54131E+03 2.16551E+04 1.52613E-09-3.51724E-09
 -1       959-3.12543E+05-3.87177E+01-1.29801E+03 2.63724E+04 2.05955E-09 3.91992E-09
 -1       960-3.12463E+05 2.19206E+01-6.32902E+02 2.16423E+04 8.33097E-10 1.72349E-09
 -1       961-3.12471E+05 1.72877E+01-3.35939E+02 2.63871E+04-9.96806E-10-1.24278E-08
 -1       962-3.12481E+05 1.83475E+01-1.92651E+02 2.16403E+04-9.74524E-10 9.49285E-10
 -1       963-3.12468E+05 1.91032E+01-1.55297E+02 2.63897E+04 8.96193E-10 5.21732E-09
 -1       964-3.12485E+05 2.05735E+01-1.89404E+02 2.16397E+04-1.77516E-09-6.16660E-09
 -1       965-3.12479E+05 2.20233E+01-3.28040E+02 2.63894E+04-1.38206E-09-9.73955E-09
 -1       966-3.12474E+05 2.85446E+01-6.16334E+02 2.16406E+04 1.97747E-09-7.27482E-09
 -1       967-3.12558E+05-2.79002E+01-1.26431E+03 2.63799E+04 8.56437E-09 1.00508E-08
 -1       968-3.12393E+05-1.18688E+02-2.47456E+03 2.16493E+04 6.34282E-09-1.73310E-09
 -1       969-3.13558E+05-1.44041E+03-5.49409E+03 2.62793E+04 2.34650E-10-2.76344E-09
 -1       970-3.11446E+05-4.25514E+03-1.07018E+04 2.17414E+04 2.87673E-09-2.44745E-09
 -1       971-2.90861E+05-1.50076E+03-8.27286E+03 1.36293E+04-7.44330E-09 3.38068E-09
 -1       972-2.92867E+05-1.08328E+03-4.50532E+03 1.89913E+04-6.03723E-09 3.98404E-09
 -1       973-2.91782E+05-2.16263E+01-2.01762E+03 1.35169E+04-4.38968E-09 8.56357E-09
 -1       974-2.91917E+05-2.55737E+01-1.04543E+03 1.91144E+04-2.54977E-09-4.30646E-09
 -1       975-2.91854E+05 1.76364E+01-5.21933E+02 1.35062E+04-1.55887E-09 1.95882E-09
 -1       976-2.91861E+05 1.82181E+01-2.99947E+02 1.91276E+04-2.06478E-09 6.48788E-09
 -1       977-2.91868E+05 1.78153E+01-2.15616E+02 1.35036E+04 8.26276E-10-1.18021E-08
 -1       978-2.91865E+05 2.33646E+01-2.49472E+02 1.91313E+04 6.84099E-09-5.64114E-09
 -1       979-2.91868E+05 2.47711E+01-3.98382E+02 1.35025E+04 4.23938E-09-1.20826E-09
 -1       980-2.91894E+05 2.58948E+01-7.67694E+02 1.91320E+04-7.48400E-10-7.64021E-09
 -1       981-2.91844E+05 4.39157E+01-1.48604E+03 1.35029E+04 9.40531E-10 7.47031E-09
 -1       982-2.92098E+05-8.38534E+01-3.07117E+03 1.91261E+04 6.96673E-10 1.53095E-08
 -1       983-2.91656E+05-5.11661E+01-5.96707E+03 1.35085E+04 7.30552E-10 2.40561E-10
 -1       984-2.94968E+05-3.20014E+03-1.33626E+04 1.90493E+04-3.16049E-09 2.22349E-09
 -1       985-2.88955E+05-4.41750E+03-2.45380E+04 1.35822E+04-2.36469E-11 7.89441E-10
 -3
    1PSTEP                        21          11           1          
  100CL  111 5.83008E-01         409                     0   11           1
 -4  DISP        4    1
 -5  D1          1    2    1    0
 -5  D2          1    2    2    0
 -5  D3          1    2    3    0
 -5  ALL         1    2    0    0    1ALL
 -1         1 7.17792E-04 0.00000E+00 0.00000E+00
 -1         2 6.68501E-04 5.88011E-30 1.32349E-23
 -1         3 2.29934E-04 2.19111E-27-1.32349E-23
 -1         5 1.34975E-04-1.65184E-26 3.30872E-24
 -1         8 6.96101E-04-7.03823E-07 0.00000E+00
 -1         9 6.73729E-04-2.19615E-06 0.00000E+00
 -1        10 2.09867E-04-2.94454E-06 0.00000E+00
 -1        12 1.35336E-04 6.55968E-07 0.00000E+00
 -1        15 6.70073E-04-7.78322E-07 0.00000E+00
 -1        16 6.76292E-04-2.72898E-06 0.00000E+00
 -1        17 1.47145E-04-6.39626E-06 0.00000E+00
 -1        18 1.35097E-04 1.36484E-05 0.00000E+00
 -1        19 1.36418E-04 1.30853E-06 0.00000E+00
 -1        20 1.36565E-04 6.34321E-06 0.00000E+00
 -1        21 1.35875E-04 9.14897E-06 0.00000E+00
 -1        24 2.53905E-05-9.07540E-06 0.00000E+00
 -1        25 1.38426E-04 1.38111E-05 0.00000E+00
 -1        26 1.39136E-04 1.81289E-06 0.00000E+00
 -1        27 1.37338E-04 3.37428E-06 0.00000E+00
 -1        28 1.36929E-04 8.60650E-06 0.00000E+00
 -1        32 0.00000E+00 0.00000E+00 0.00000E+00
 -1        33 1.40771E-04 2.42938E-06 0.00000E+00
 -1        34 1.38992E-04 3.34184E-06 0.00000E+00
 -1        35 1.37337E-04 8.31476E-06 0.00000E+00
 -1        51 7.16392E-04-1.22582E-07 0.00000E+00
 -1        52 7.13787E-04-2.35245E-07 0.00000E+00
 -1        53 7.10212E-04-3.47635E-07 0.00000E+00
 -1        54 7.05910E-04-4.61653E-07 3.30872E-24
 -1        55 7.01125E-04-5.78514E-07-2.89513E-24
 -1        56 7.15329E-04-6.50939E-07 0.00000E+00
 -1        57 7.12598E-04-8.55009E-07 2.64698E-23
 -1        58 7.09705E-04-6.13779E-07 0.00000E+00
 -1        59 7.06653E-04 3.07700E-09 2.64698E-23
 -1        60 7.03498E-04 8.95175E-07 5.29396E-23
 -1        61 7.00281E-04 1.94000E-06 2.64698E-23
 -1        62 6.97059E-04 2.99856E-06 5.29396E-23
 -1        63 6.93885E-04 3.93010E-06 0.00000E+00
 -1        64 6.90805E-04 4.60896E-06 5.29396E-23
 -1        65 6.87863E-04 4.92394E-06 2.64698E-23
 -1        66 6.85084E-04 4.80586E-06 5.29396E-23
 -1        67 6.82487E-04 4.21111E-06 2.64698E-23
 -1        68 6.80065E-04 3.15006E-06-5.29396E-23
 -1        69 6.77817E-04 1.66521E-06 2.64698E-23
 -1        70 6.75692E-04-1.62433E-07-5.29396E-23
 -1        86 6.68692E-04-3.62251E-07-1.32349E-23
 -1        87 6.69264E-04-7.25013E-07 0.00000E+00
 -1        88 6.70145E-04-1.08805E-06 0.00000E+00
 -1        89 6.71262E-04-1.45366E-06 0.00000E+00
 -1        90 6.72496E-04-1.81861E-06 0.00000E+00
 -1       121 2.29372E-04-4.83646E-07 0.00000E+00
 -1       122 2.27685E-04-9.68513E-07-6.61744E-24
 -1       123 2.24881E-04-1.45581E-06-1.32349E-23
 -1       124 2.20967E-04-1.94677E-06 6.61744E-24
 -1       125 2.15956E-04-2.44241E-06 0.00000E+00
 -1       191 1.34985E-04 1.09334E-07 3.30872E-24
 -1       192 1.35015E-04 2.18666E-07-1.65436E-24
 -1       193 1.35065E-04 3.27998E-07 0.00000E+00
 -1       194 1.35135E-04 4.37328E-07-1.65436E-24
 -1       195 1.35225E-04 5.46652E-07 3.30872E-24
 -1       251 6.95279E-04 1.48757E-05-1.32349E-23
 -1       252 6.93887E-04 5.22978E-05-6.61744E-24
 -1       253 6.92325E-04 9.45366E-05-2.64698E-23
 -1       254 6.91190E-04 1.24417E-04-1.32349E-23
 -1       255 6.90416E-04 1.31754E-04-2.64698E-23
 -1       256 6.89376E-04 1.07067E-04-1.32349E-23
 -1       257 6.87505E-04 5.79708E-05-2.64698E-23
 -1       258 6.84752E-04-7.16885E-06 0.00000E+00
 -1       259 6.82076E-04-7.09881E-05-2.64698E-23
 -1       260 6.80379E-04-1.16160E-04 1.32349E-23
 -1       261 6.79447E-04-1.35759E-04 0.00000E+00
 -1       262 6.78629E-04-1.23656E-04 0.00000E+00
 -1       263 6.77402E-04-9.06682E-05 2.64698E-23
 -1       264 6.75833E-04-4.82634E-05-1.32349E-23
 -1       265 6.74517E-04-1.32446E-05 0.00000E+00
 -1       266 6.91763E-04-7.26380E-07 3.30872E-24
 -1       267 6.87425E-04-7.37561E-07 8.27181E-25
 -1       268 6.83087E-04-7.49462E-07 8.27181E-25
 -1       269 6.78749E-04-7.59228E-07 0.00000E+00
 -1       270 6.74411E-04-7.68945E-07-4.13590E-25
 -1       271 6.93473E-04 2.96776E-06 0.00000E+00
 -1       272 6.91009E-04 6.10112E-06 1.32349E-23
 -1       273 6.88752E-04 8.68884E-06 0.00000E+00
 -1       274 6.86701E-04 1.07149E-05 1.32349E-23
 -1       275 6.84863E-04 1.21759E-05 0.00000E+00
 -1       276 6.83236E-04 1.30747E-05 0.00000E+00
 -1       277 6.81815E-04 1.34226E-05 2.64698E-23
 -1       278 6.80595E-04 1.32389E-05 0.00000E+00
 -1       279 6.79563E-04 1.25504E-05 0.00000E+00
 -1       280 6.78708E-04 1.13915E-05 0.00000E+00
 -1       281 6.78013E-04 9.80341E-06 0.00000E+00
 -1       282 6.77462E-04 7.83341E-06 1.32349E-23
 -1       283 6.77033E-04 5.53449E-06 2.64698E-23
 -1       284 6.76709E-04 2.96551E-06 1.32349E-23
 -1       285 6.76463E-04 1.86652E-07 0.00000E+00
 -1       301 6.74193E-04-2.30317E-06-1.32349E-23
 -1       302 6.74173E-04-2.38407E-06 0.00000E+00
 -1       303 6.74019E-04-2.46319E-06 0.00000E+00
 -1       304 6.74086E-04-2.54218E-06 0.00000E+00
 -1       305 6.74727E-04-2.62311E-06 0.00000E+00
 -1       306 6.91982E-04-6.69059E-05 0.00000E+00
 -1       307 7.40221E-04-2.52841E-04 0.00000E+00
 -1       308 8.02407E-04-5.29535E-04 0.00000E+00
 -1       309 8.68698E-04-8.56848E-04 0.00000E+00
 -1       310 9.34752E-04-1.18086E-03-5.29396E-23
 -1       311 9.95849E-04-1.44797E-03 0.00000E+00
 -1       312 1.04128E-03-1.61989E-03 0.00000E+00
 -1       313 1.05442E-03-1.66863E-03 5.29396E-23
 -1       314 1.01921E-03-1.59386E-03 1.05879E-22
 -1       315 9.24711E-04-1.40783E-03 2.64698E-23
 -1       316 7.78625E-04-1.14322E-03 0.00000E+00
 -1       317 5.99835E-04-8.36003E-04 0.00000E+00
 -1       318 4.21219E-04-5.29008E-04-1.05879E-22
 -1       319 2.75623E-04-2.65047E-04-2.64698E-23
 -1       320 1.81761E-04-7.99878E-05 5.29396E-23
 -1       336 2.02576E-04-3.49264E-06 1.32349E-23
 -1       337 1.93968E-04-4.05139E-06-6.61744E-24
 -1       338 1.84078E-04-4.62127E-06 0.00000E+00
 -1       339 1.72946E-04-5.20237E-06 0.00000E+00
 -1       340 1.60618E-04-5.79703E-06 0.00000E+00
 -1       406 1.35466E-04 7.65269E-07 0.00000E+00
 -1       407 1.35616E-04 8.74533E-07 1.65436E-24
 -1       408 1.35787E-04 9.83729E-07 1.65436E-24
 -1       409 1.35977E-04 1.09273E-06 1.65436E-24
 -1       410 1.36188E-04 1.20132E-06 1.65436E-24
 -1       521 6.96250E-04-7.61015E-05 0.00000E+00
 -1       522 7.47444E-04-2.83490E-04 0.00000E+00
 -1       523 8.11798E-04-5.91581E-04 0.00000E+00
 -1       524 8.78981E-04-9.55037E-04 5.29396E-23
 -1       525 9.45990E-04-1.31430E-03 0.00000E+00
 -1       526 1.00928E-03-1.61023E-03 5.29396E-23
 -1       527 1.05722E-03-1.79981E-03 0.00000E+00
 -1       528 1.07080E-03-1.85292E-03 5.29396E-23
 -1       529 1.03018E-03-1.76875E-03 0.00000E+00
 -1       530 9.22139E-04-1.56266E-03 5.29396E-23
 -1       531 7.54427E-04-1.27051E-03 0.00000E+00
 -1       532 5.48812E-04-9.32279E-04 5.29396E-23
 -1       533 3.43064E-04-5.93890E-04 0.00000E+00
 -1       534 1.74993E-04-3.01252E-04-5.29396E-23
 -1       535 6.64773E-05-9.43198E-05 0.00000E+00
 -1       536 1.46765E-04 1.54220E-05 0.00000E+00
 -1       537 1.45952E-04 5.27421E-05-3.30872E-24
 -1       538 1.44756E-04 9.97766E-05-3.30872E-24
 -1       539 1.43378E-04 1.50686E-04-1.65436E-24
 -1       540 1.42141E-04 1.98530E-04 0.00000E+00
 -1       541 1.41317E-04 2.36388E-04 0.00000E+00
 -1       542 1.40901E-04 2.60082E-04 0.00000E+00
 -1       543 1.40740E-04 2.65523E-04 0.00000E+00
 -1       544 1.40525E-04 2.53329E-04 0.00000E+00
 -1       545 1.39974E-04 2.24234E-04 1.65436E-24
 -1       546 1.39040E-04 1.83389E-04 0.00000E+00
 -1       547 1.37828E-04 1.36018E-04-1.65436E-24
 -1       548 1.36640E-04 8.91635E-05 3.30872E-24
 -1       549 1.35766E-04 4.98678E-05 1.65436E-24
 -1       550 1.35277E-04 2.30740E-05 0.00000E+00
 -1       551 1.30537E-04-6.77585E-06 0.00000E+00
 -1       552 1.11357E-04-7.19392E-06 3.30872E-24
 -1       553 9.04204E-05-7.64368E-06-6.61744E-24
 -1       554 6.85604E-05-8.11380E-06 6.61744E-24
 -1       555 4.66082E-05-8.58843E-06 0.00000E+00
 -1       556 1.42373E-04 5.89537E-06 0.00000E+00
 -1       557 1.38592E-04 1.56663E-05 0.00000E+00
 -1       558 1.35702E-04 2.31264E-05 0.00000E+00
 -1       559 1.33611E-04 2.85026E-05 0.00000E+00
 -1       560 1.32226E-04 3.20218E-05 0.00000E+00
 -1       561 1.31459E-04 3.39124E-05-1.32349E-23
 -1       562 1.31219E-04 3.44036E-05 0.00000E+00
 -1       563 1.31418E-04 3.37249E-05 0.00000E+00
 -1       564 1.31969E-04 3.21062E-05 1.32349E-23
 -1       565 1.32785E-04 2.97778E-05 0.00000E+00
 -1       566 1.33780E-04 2.69702E-05-3.30872E-24
 -1       567 1.34867E-04 2.39140E-05-8.27181E-25
 -1       568 1.35961E-04 2.08399E-05 0.00000E+00
 -1       569 1.36976E-04 1.79784E-05 0.00000E+00
 -1       570 1.37826E-04 1.55600E-05 0.00000E+00
 -1       571 1.35177E-04 1.28543E-05 0.00000E+00
 -1       572 1.35259E-04 1.20109E-05-4.13590E-25
 -1       573 1.35341E-04 1.11291E-05-1.65436E-24
 -1       574 1.35424E-04 1.02200E-05-8.27181E-25
 -1       575 1.35507E-04 9.29487E-06 0.00000E+00
 -1       576 1.35589E-04 8.36513E-06-1.65436E-24
 -1       577 1.35672E-04 7.44210E-06 6.61744E-24
 -1       578 1.35755E-04 6.53715E-06 1.65436E-24
 -1       579 1.35838E-04 5.66163E-06 0.00000E+00
 -1       580 1.35921E-04 4.82692E-06-6.61744E-24
 -1       581 1.36004E-04 4.04437E-06-6.61744E-24
 -1       582 1.36086E-04 3.32532E-06 0.00000E+00
 -1       583 1.36169E-04 2.68113E-06 0.00000E+00
 -1       584 1.36252E-04 2.12300E-06 3.30872E-24
 -1       585 1.36335E-04 1.66207E-06 0.00000E+00
 -1       586 1.35598E-04 1.36773E-05 1.65436E-24
 -1       587 1.36072E-04 1.37056E-05 1.03398E-25
 -1       588 1.36556E-04 1.37336E-05 0.00000E+00
 -1       589 1.37085E-04 1.37610E-05 0.00000E+00
 -1       590 1.37697E-04 1.37875E-05 0.00000E+00
 -1       591 1.35351E-04 1.29130E-05 2.06795E-25
 -1       592 1.35611E-04 1.21526E-05 0.00000E+00
 -1       593 1.35878E-04 1.13732E-05 4.13590E-25
 -1       594 1.36150E-04 1.05796E-05 4.13590E-25
 -1       595 1.36426E-04 9.77718E-06-8.27181E-25
 -1       596 1.36702E-04 8.97088E-06 0.00000E+00
 -1       597 1.36978E-04 8.16580E-06 8.27181E-25
 -1       598 1.37252E-04 7.36703E-06-4.13590E-25
 -1       599 1.37522E-04 6.57962E-06 4.13590E-25
 -1       600 1.37785E-04 5.80864E-06 2.06795E-25
 -1       601 1.38041E-04 5.05916E-06-4.13590E-25
 -1       602 1.38286E-04 4.33625E-06 2.06795E-25
 -1       603 1.38520E-04 3.64499E-06 2.06795E-25
 -1       604 1.38741E-04 2.99051E-06-5.16988E-26
 -1       605 1.38946E-04 2.37783E-06 0.00000E+00
 -1       606 1.36431E-04 1.13918E-06-3.30872E-24
 -1       607 1.36441E-04 1.06281E-06 0.00000E+00
 -1       608 1.36451E-04 1.07397E-06 0.00000E+00
 -1       609 1.36460E-04 1.16649E-06 0.00000E+00
 -1       610 1.36469E-04 1.33418E-06 0.00000E+00
 -1       611 1.36478E-04 1.57077E-06 0.00000E+00
 -1       612 1.36487E-04 1.86998E-06 0.00000E+00
 -1       613 1.36496E-04 2.22552E-06 0.00000E+00
 -1       614 1.36505E-04 2.63110E-06 0.00000E+00
 -1       615 1.36513E-04 3.08043E-06 0.00000E+00
 -1       616 1.36522E-04 3.56724E-06 1.65436E-24
 -1       617 1.36531E-04 4.08523E-06 0.00000E+00
 -1       618 1.36540E-04 4.62810E-06 0.00000E+00
 -1       619 1.36548E-04 5.18959E-06 0.00000E+00
 -1       620 1.36557E-04 5.76339E-06 0.00000E+00
 -1       621 1.36723E-04 1.39282E-06-3.30872E-24
 -1       622 1.37110E-04 1.47738E-06-8.27181E-25
 -1       623 1.37561E-04 1.56189E-06 0.00000E+00
 -1       624 1.38060E-04 1.64623E-06 0.00000E+00
 -1       625 1.38591E-04 1.73040E-06 0.00000E+00
 -1       626 1.36576E-04 1.16869E-06-3.30872E-24
 -1       627 1.36706E-04 1.10264E-06 0.00000E+00
 -1       628 1.36813E-04 1.10262E-06 0.00000E+00
 -1       629 1.36897E-04 1.16044E-06-1.65436E-24
 -1       630 1.36963E-04 1.26791E-06 3.30872E-24
 -1       631 1.37014E-04 1.41682E-06 0.00000E+00
 -1       632 1.37052E-04 1.59892E-06 0.00000E+00
 -1       633 1.37080E-04 1.80600E-06 1.65436E-24
 -1       634 1.37103E-04 2.02983E-06 3.30872E-24
 -1       635 1.37122E-04 2.26218E-06 1.65436E-24
 -1       636 1.37141E-04 2.49482E-06 0.00000E+00
 -1       637 1.37163E-04 2.71954E-06 0.00000E+00
 -1       638 1.37191E-04 2.92808E-06 1.65436E-24
 -1       639 1.37228E-04 3.11224E-06 0.00000E+00
 -1       640 1.37276E-04 3.26375E-06 0.00000E+00
 -1       656 1.36207E-04 5.86030E-06 0.00000E+00
 -1       657 1.36239E-04 5.35799E-06 0.00000E+00
 -1       658 1.36523E-04 4.85711E-06-1.32349E-23
 -1       659 1.36915E-04 4.35661E-06 0.00000E+00
 -1       660 1.37243E-04 3.85455E-06 0.00000E+00
 -1       661 1.36434E-04 6.88819E-06 8.27181E-25
 -1       662 1.36332E-04 7.36199E-06 0.00000E+00
 -1       663 1.36256E-04 7.76785E-06 0.00000E+00
 -1       664 1.36204E-04 8.11026E-06-8.27181E-25
 -1       665 1.36174E-04 8.39308E-06 0.00000E+00
 -1       666 1.36166E-04 8.62028E-06-8.27181E-25
 -1       667 1.36176E-04 8.79559E-06 1.65436E-24
 -1       668 1.36205E-04 8.92270E-06 8.27181E-25
 -1       669 1.36251E-04 9.00514E-06 1.65436E-24
 -1       670 1.36312E-04 9.04636E-06 8.27181E-25
 -1       671 1.36388E-04 9.04969E-06 1.65436E-24
 -1       672 1.36476E-04 9.01834E-06-8.27181E-25
 -1       673 1.36576E-04 8.95552E-06 0.00000E+00
 -1       674 1.36686E-04 8.86405E-06-8.27181E-25
 -1       675 1.36805E-04 8.74732E-06 4.13590E-25
 -1       676 1.36051E-04 9.05803E-06 0.00000E+00
 -1       677 1.36227E-04 8.96712E-06 0.00000E+00
 -1       678 1.36403E-04 8.87626E-06 3.30872E-24
 -1       679 1.36579E-04 8.78568E-06 1.65436E-24
 -1       680 1.36754E-04 8.69510E-06 0.00000E+00
 -1       771 1.74185E-05 8.19708E-06 0.00000E+00
 -1       772 1.06477E-05 2.23722E-05 0.00000E+00
 -1       773 5.02152E-06 3.36074E-05-5.29396E-23
 -1       774 4.62939E-07 4.20770E-05 0.00000E+00
 -1       775-3.10385E-06 4.79604E-05 5.29396E-23
 -1       776-5.75775E-06 5.14468E-05 0.00000E+00
 -1       777-7.57809E-06 5.27304E-05 5.29396E-23
 -1       778-8.64593E-06 5.20130E-05 0.00000E+00
 -1       779-9.04246E-06 4.95013E-05 0.00000E+00
 -1       780-8.85032E-06 4.54078E-05-2.64698E-23
 -1       781-8.15201E-06 3.99488E-05 0.00000E+00
 -1       782-7.03119E-06 3.33454E-05 0.00000E+00
 -1       783-5.57129E-06 2.58212E-05 5.29396E-23
 -1       784-3.85665E-06 1.76030E-05-2.64698E-23
 -1       785-1.97125E-06 8.91933E-06 0.00000E+00
 -1       786 1.38467E-04 1.28518E-05 1.03398E-25
 -1       787 1.38511E-04 1.19388E-05 0.00000E+00
 -1       788 1.38555E-04 1.10644E-05-8.27181E-25
 -1       789 1.38599E-04 1.02211E-05-8.27181E-25
 -1       790 1.38644E-04 9.40432E-06 0.00000E+00
 -1       791 1.38688E-04 8.60977E-06 0.00000E+00
 -1       792 1.38733E-04 7.83532E-06 0.00000E+00
 -1       793 1.38778E-04 7.07891E-06-8.27181E-25
 -1       794 1.38822E-04 6.34033E-06 0.00000E+00
 -1       795 1.38867E-04 5.61939E-06 8.27181E-25
 -1       796 1.38912E-04 4.91776E-06 1.65436E-24
 -1       797 1.38957E-04 4.23708E-06 0.00000E+00
 -1       798 1.39002E-04 3.58119E-06 1.65436E-24
 -1       799 1.39047E-04 2.95397E-06 0.00000E+00
 -1       800 1.39091E-04 2.36224E-06 0.00000E+00
 -1       801 1.15641E-04 1.20866E-05 0.00000E+00
 -1       802 4.60113E-05 8.24610E-06 1.32349E-23
 -1       803-1.90464E-05 4.66024E-06 0.00000E+00
 -1       804-2.83931E-05 3.05079E-06 2.64698E-23
 -1       805-1.15869E-05 1.49287E-06 5.29396E-23
 -1       806 1.38690E-04 1.27966E-05-1.65436E-24
 -1       807 1.38941E-04 1.18088E-05 0.00000E+00
 -1       808 1.39179E-04 1.08517E-05 3.30872E-24
 -1       809 1.39405E-04 9.92796E-06 1.65436E-24
 -1       810 1.39617E-04 9.04040E-06 1.65436E-24
 -1       811 1.39814E-04 8.19171E-06 8.27181E-25
 -1       812 1.39996E-04 7.38457E-06 3.30872E-24
 -1       813 1.40162E-04 6.62166E-06 0.00000E+00
 -1       814 1.40309E-04 5.90565E-06-1.65436E-24
 -1       815 1.40438E-04 5.23918E-06 0.00000E+00
 -1       816 1.40548E-04 4.62494E-06 3.30872E-24
 -1       817 1.40637E-04 4.06555E-06 0.00000E+00
 -1       818 1.40705E-04 3.56367E-06 0.00000E+00
 -1       819 1.40750E-04 3.12195E-06-8.27181E-25
 -1       820 1.40772E-04 2.74299E-06 3.30872E-24
 -1       821 1.39030E-04 1.20792E-06 8.27181E-25
 -1       822 1.38917E-04 4.51126E-07-8.27181E-25
 -1       823 1.38805E-04-3.52303E-07-3.30872E-24
 -1       824 1.38692E-04-1.09692E-06 0.00000E+00
 -1       825 1.38578E-04-1.69098E-06 3.30872E-24
 -1       826 1.38465E-04-2.04348E-06-1.65436E-24
 -1       827 1.38351E-04-2.11935E-06-3.30872E-24
 -1       828 1.38237E-04-1.88490E-06-1.65436E-24
 -1       829 1.38124E-04-1.37828E-06 0.00000E+00
 -1       830 1.38010E-04-6.39022E-07 1.65436E-24
 -1       831 1.37896E-04 2.39515E-07 3.30872E-24
 -1       832 1.37782E-04 1.16324E-06 1.65436E-24
 -1       833 1.37669E-04 2.02760E-06 0.00000E+00
 -1       834 1.37557E-04 2.72836E-06 0.00000E+00
 -1       835 1.37444E-04 3.19902E-06 8.27181E-25
 -1       836 1.39582E-04 1.91541E-06 0.00000E+00
 -1       837 1.39918E-04 2.02031E-06-4.96308E-24
 -1       838 1.40174E-04 2.12507E-06 3.30872E-24
 -1       839 1.40381E-04 2.22917E-06 8.27181E-25
 -1       840 1.40570E-04 2.33311E-06 0.00000E+00
 -1       856 1.37316E-04 3.46540E-06 0.00000E+00
 -1       857 1.37291E-04 3.67597E-06 0.00000E+00
 -1       858 1.37266E-04 3.98732E-06 4.13590E-25
 -1       859 1.37240E-04 4.38067E-06 0.00000E+00
 -1       860 1.37215E-04 4.83714E-06-8.27181E-25
 -1       861 1.37189E-04 5.33783E-06 4.13590E-25
 -1       862 1.37163E-04 5.86377E-06 8.27181E-25
 -1       863 1.37137E-04 6.39596E-06-4.13590E-25
 -1       864 1.37111E-04 6.91541E-06 0.00000E+00
 -1       865 1.37085E-04 7.40314E-06 4.13590E-25
 -1       866 1.37059E-04 7.84020E-06-8.27181E-25
 -1       867 1.37033E-04 8.20768E-06 0.00000E+00
 -1       868 1.37007E-04 8.48676E-06 8.27181E-25
 -1       869 1.36981E-04 8.65865E-06-4.13590E-25
 -1       870 1.36955E-04 8.70475E-06 0.00000E+00
 -1       871 1.37488E-04 3.37243E-06 4.13590E-25
 -1       872 1.37762E-04 3.36793E-06 0.00000E+00
 -1       873 1.38104E-04 3.36291E-06 0.00000E+00
 -1       874 1.38461E-04 3.35728E-06-5.16988E-26
 -1       875 1.38775E-04 3.35111E-06-6.20385E-25
 -1       876 1.37413E-04 3.47705E-06 3.30872E-24
 -1       877 1.37469E-04 3.63808E-06 0.00000E+00
 -1       878 1.37506E-04 3.85034E-06 0.00000E+00
 -1       879 1.37526E-04 4.10734E-06-1.65436E-24
 -1       880 1.37532E-04 4.40254E-06 3.30872E-24
 -1       881 1.37526E-04 4.72945E-06 1.65436E-24
 -1       882 1.37510E-04 5.08158E-06 0.00000E+00
 -1       883 1.37488E-04 5.45245E-06 1.65436E-24
 -1       884 1.37461E-04 5.83559E-06 0.00000E+00
 -1       885 1.37432E-04 6.22454E-06 0.00000E+00
 -1       886 1.37403E-04 6.61281E-06 0.00000E+00
 -1       887 1.37376E-04 6.99391E-06 0.00000E+00
 -1       888 1.37355E-04 7.36138E-06 0.00000E+00
 -1       889 1.37340E-04 7.70858E-06-8.27181E-25
 -1       890 1.37335E-04 8.02908E-06 1.65436E-24
 -1       891 1.37125E-04 8.55762E-06 1.65436E-24
 -1       892 1.37300E-04 8.50859E-06 4.13590E-25
 -1       893 1.37432E-04 8.45959E-06-1.65436E-24
 -1       894 1.37498E-04 8.41075E-06 0.00000E+00
 -1       895 1.37473E-04 8.36202E-06 0.00000E+00
 -1       956 1.40662E-04 2.25238E-06-3.30872E-24
 -1       957 1.40551E-04 2.14587E-06 1.65436E-24
 -1       958 1.40440E-04 2.10182E-06-1.65436E-24
 -1       959 1.40328E-04 2.11178E-06-1.65436E-24
 -1       960 1.40217E-04 2.16726E-06 0.00000E+00
 -1       961 1.40105E-04 2.25973E-06 1.65436E-24
 -1       962 1.39993E-04 2.38067E-06 3.30872E-24
 -1       963 1.39882E-04 2.52153E-06-1.65436E-24
 -1       964 1.39770E-04 2.67379E-06-3.30872E-24
 -1       965 1.39658E-04 2.82889E-06 1.65436E-24
 -1       966 1.39547E-04 2.97830E-06 3.30872E-24
 -1       967 1.39435E-04 3.11348E-06-1.65436E-24
 -1       968 1.39324E-04 3.22589E-06 0.00000E+00
 -1       969 1.39212E-04 3.30703E-06-1.65436E-24
 -1       970 1.39101E-04 3.34840E-06 0.00000E+00
 -1       971 1.38890E-04 3.34783E-06 1.65436E-24
 -1       972 1.38786E-04 3.44070E-06-8.27181E-25
 -1       973 1.38682E-04 3.61088E-06 0.00000E+00
 -1       974 1.38578E-04 3.84841E-06 0.00000E+00
 -1       975 1.38474E-04 4.14333E-06 0.00000E+00
 -1       976 1.38370E-04 4.48564E-06 1.65436E-24
 -1       977 1.38266E-04 4.86536E-06-3.30872E-24
 -1       978 1.38162E-04 5.27248E-06 0.00000E+00
 -1       979 1.38058E-04 5.69698E-06-3.30872E-24
 -1       980 1.37954E-04 6.12887E-06 1.65436E-24
 -1       981 1.37850E-04 6.55811E-06 0.00000E+00
 -1       982 1.37746E-04 6.97471E-06-1.65436E-24
 -1       983 1.37642E-04 7.36864E-06 0.00000E+00
 -1       984 1.37539E-04 7.72992E-06-1.65436E-24
 -1       985 1.37436E-04 8.04854E-06-1.65436E-24
 -3
    1PSTEP                        22          11           1          
  100CL  111 5.83008E-01         409                     0   11           1
 -4  STRESS      6    1
 -5  SXX         1    4    1    1
 -5  SYY         1    4    2    2
 -5  SZZ         1    4    3    3
 -5  SXY         1    4    1    2
 -5  SYZ         1    4    2    3
 -5  SZX         1    4    3    1
 -1         1-3.18934E+06-1.26477E+06-6.92039E+05-1.41293E+06-1.30967E-10 7.77072E-09
 -1         2 1.86209E+03-1.03328E+06 6.02460E+03 1.68819E+03 2.28454E-10-1.38416E-07
 -1         3-5.73776E+02-1.37829E+06 3.31551E+02-1.22406E+03-4.06512E-10-2.65572E-10
 -1         5-3.66395E+00 3.12845E+05 7.96405E+00-1.68802E-01-1.07082E-10 2.20571E-08
 -1         8-1.05506E+06-3.53331E+05-1.21684E+05-3.63699E+05-1.36424E-10-7.83148E-08
 -1         9 4.44651E+05-7.80022E+05 1.64106E+05-7.32289E+05 1.94239E-08 2.44472E-09
 -1        10-1.45299E+03-1.43603E+06-2.58217E+03-8.27788E+03-7.86713E-09 1.53789E-08
 -1        12-3.98586E-01 3.12861E+05 2.57971E+02-1.26085E+00-1.38780E-10 1.47018E-08
 -1        15 1.68020E+03 9.23371E+02 5.43124E+03 3.15193E+00-1.74595E-10 5.39682E-08
 -1        16 3.18181E+06-7.78666E+05 4.47646E+05-1.13811E+06 1.15639E-08 2.08771E-08
 -1        17 7.89366E+05 5.51435E+05 2.76272E+05 6.66325E+05 1.67056E-09 2.19268E-08
 -1        18 1.84442E+04 2.78189E+02-2.03961E+04-8.90489E+04 9.50570E-09-5.06452E-09
 -1        19 1.00682E+05 1.15676E+05-8.27992E+02 1.94771E+04 2.21553E-10-2.41489E-09
 -1        20-5.59683E+04-4.75744E+05-1.05919E+05 2.75930E+04 1.15885E-09-1.02221E-08
 -1        21-4.18216E+01-2.60313E+05-8.26262E+02 3.14545E+01-1.10787E-09 5.38155E-09
 -1        24 8.51692E+05 1.67381E+06 5.85814E+05 1.33658E+06-8.46097E-08-4.07551E-08
 -1        25-7.69784E+04-4.80207E+05-9.10550E+04-2.35525E+05-1.21172E-09 1.69166E-10
 -1        26-4.04247E+04 7.50821E+04-1.97053E+04-3.22437E+03 1.33841E-09 2.57843E-08
 -1        27-6.80548E+04-2.58499E+05-9.57817E+04 5.82014E+04 5.11576E-09-3.08683E-09
 -1        28 1.99123E+04-7.35227E+04 1.47969E+04 2.04832E+04 8.66464E-10-4.93907E-09
 -1        32-1.44522E+06-2.38892E+06-9.57993E+04-2.77927E+05-2.97059E-08-3.85251E-09
 -1        33-1.51178E+05 7.51600E+04 2.67319E+04-3.46201E+04-5.43613E-10 2.93585E-09
 -1        34-1.90074E+05-1.98163E+04 5.23976E+02 6.12117E+04 3.55603E-10-1.29906E-09
 -1        35-2.03422E+04-2.91942E+04-1.15436E+03 4.53375E+04 8.77066E-10 8.42798E-10
 -1        51 3.34481E+04-2.87768E+05 7.56298E+04-8.18878E+05-1.45519E-11 0.00000E+00
 -1        52 1.40880E+04-2.78231E+05 4.33660E+04-9.54874E+05 4.72937E-10 2.84344E-08
 -1        53 6.18503E+03-2.92955E+05 2.84393E+04-8.15945E+05 0.00000E+00-5.07716E-08
 -1        54 1.62000E+04-2.90398E+05 3.51860E+04-9.57921E+05 9.45874E-11 9.16771E-09
 -1        55 3.29205E+04-3.02381E+05 5.65908E+04-8.15490E+05 3.20142E-10-3.88536E-08
 -1        56-6.06288E+06-6.79223E+05-5.10722E+05-2.35378E+06-3.36149E-09 6.09725E-08
 -1        57-6.32104E+06-1.09029E+06-3.44605E+05-2.27364E+06 4.81850E-09 4.44415E-08
 -1        58-6.15750E+06-8.49640E+05-1.20041E+05-2.33073E+06 1.18598E-09 6.86778E-08
 -1        59-6.21354E+06-8.88205E+05-7.16544E+04-2.29865E+06-1.62390E-09-5.77566E-08
 -1        60-6.16882E+06-8.75859E+05-2.79670E+04-2.33046E+06-7.61429E-09-2.97623E-08
 -1        61-6.19997E+06-8.57905E+05-1.58728E+04-2.29941E+06 1.61064E-08-7.38512E-08
 -1        62-6.17076E+06-8.79195E+05-7.55213E+03-2.33016E+06-9.71045E-09 4.62660E-09
 -1        63-6.19500E+06-8.57272E+05-6.12461E+03-2.30293E+06 3.25639E-09 5.37857E-08
 -1        64-6.17369E+06-8.76435E+05-6.84141E+03-2.32692E+06 5.36147E-10 2.11730E-09
 -1        65-6.18893E+06-8.67666E+05-1.36809E+04-2.31124E+06-1.79236E-08-8.82269E-08
 -1        66-6.17680E+06-8.68913E+05-2.39202E+04-2.32179E+06 5.98448E-09-2.66364E-08
 -1        67-6.19319E+06-9.00733E+05-6.09943E+04-2.31898E+06-1.09249E-08 2.70929E-08
 -1        68-6.16972E+06-8.43990E+05-1.02183E+05-2.31903E+06 2.73758E-09-4.35321E-08
 -1        69-6.28265E+06-1.07491E+06-2.93250E+05-2.30041E+06 6.10635E-09-5.15720E-08
 -1        70-6.08884E+06-6.99318E+05-4.34716E+05-2.33902E+06 1.96451E-09-2.83471E-08
 -1        86-9.31907E+02-1.03511E+06 6.48049E+03-8.44105E+02-6.19366E-10 2.74028E-09
 -1        87 6.18029E+03-1.03124E+06 1.34817E+04 3.04980E+03-1.21759E-09 2.15631E-08
 -1        88-5.23277E+03-1.03715E+06 2.07100E+04-2.20575E+03-1.16415E-09-2.42773E-08
 -1        89 3.90073E+04-1.01609E+06 5.57635E+04 4.91341E+03-1.53705E-09 2.51199E-08
 -1        90-3.36420E+04-1.05023E+06 7.89067E+04-2.70785E+03-1.42973E-09 7.38128E-08
 -1       121-8.07895E+02-1.38031E+06-1.00525E+01 6.09649E+02 9.49171E-10 3.28509E-09
 -1       122-4.46568E+02-1.37827E+06 6.83735E+02-2.44556E+03-3.16307E-09 1.54105E-08
 -1       123-8.61806E+02-1.38040E+06 7.63086E+02 1.82173E+03 2.88333E-09 1.05065E-08
 -1       124 8.98503E+02-1.37763E+06 2.77421E+03-5.16144E+03-6.31235E-09 3.82352E-09
 -1       125-1.65101E+03-1.38115E+06 3.87501E+03 3.31534E+03 4.10091E-09 3.51793E-09
 -1       191-4.11185E+00 3.12872E+05 9.62523E+00 8.47780E-02-1.35509E-10 3.18114E-08
 -1       192-4.39482E+00 3.12845E+05 1.68566E+01-6.64670E-01-1.93151E-10 3.31395E-08
 -1       193-6.05534E+00 3.12871E+05 3.14510E+01 5.82620E-01-2.35865E-10 1.89175E-08
 -1       194-6.74686E+00 3.12848E+05 6.37439E+01-1.55608E+00-1.20934E-10-1.24110E-08
 -1       195-9.79009E+00 3.12869E+05 1.24787E+02 9.81533E-01-2.96339E-10 2.59024E-09
 -1       251-2.20797E+06 1.59684E+04-1.56230E+05-1.55248E+05 1.09412E-09-8.89995E-08
 -1       252-1.75941E+06-1.80106E+04-1.65312E+04 4.20641E+05 6.54165E-09 1.03828E-08
 -1       253-2.05572E+06 1.25952E+04-3.78352E+04-1.96091E+05 5.35738E-09-3.18141E-09
 -1       254-1.45359E+06 1.61039E+04 9.38291E+04 2.53590E+05-9.73705E-09-5.07744E-08
 -1       255-2.49312E+06-3.88375E+04-1.11735E+05 1.19774E+04 7.01766E-09 5.76115E-08
 -1       256-1.40465E+06 3.12923E+04 1.17262E+05-1.76448E+05 1.03828E-08 1.82154E-08
 -1       257-2.10083E+06-6.32092E+03-2.28694E+04 2.32700E+05-2.14823E-09 8.29221E-08
 -1       258-1.77637E+06 2.86455E+04 4.76904E+04-3.85796E+05-6.27608E-10 1.04982E-07
 -1       259-2.14670E+06-1.08072E+04-3.14848E+04 2.22598E+05-1.63882E-08 1.64406E-08
 -1       260-1.36552E+06 3.27922E+04 1.28311E+05-1.42112E+05-1.55660E-09-9.37634E-08
 -1       261-2.48384E+06-3.83197E+04-1.03089E+05-1.22621E+04 2.27010E-09-2.43509E-08
 -1       262-1.49475E+06 2.19124E+04 1.00777E+05 2.84202E+05 1.05574E-08-4.59322E-08
 -1       263-2.02694E+06 9.34877E+03-5.29679E+03-2.02423E+05-2.88292E-08 1.06089E-08
 -1       264-1.71818E+06 3.21332E+04 5.70868E+04 4.12197E+05-7.56980E-08 2.74775E-08
 -1       265-2.27660E+06-3.21872E+04-6.78971E+04-1.40437E+05-2.83371E-08 6.74936E-09
 -1       266-3.04167E+04-1.42217E+04 7.13717E+04-6.74460E+01-2.91038E-11-4.36283E-08
 -1       267 3.52619E+04 1.65775E+04 5.04417E+04 7.78136E+01 1.37334E-10 7.08328E-09
 -1       268-4.72853E+03-2.34773E+03 1.87491E+04-9.91513E+00-4.54747E-12-2.20570E-08
 -1       269 5.58304E+03 2.80985E+03 1.21865E+04 1.15493E+01-1.52340E-11 1.24897E-08
 -1       270-8.38017E+02-4.61672E+02 5.88259E+03-1.56734E+00-5.84350E-11 2.45401E-08
 -1       271-2.78094E+06-3.43777E+05-2.08622E+05-1.07716E+06 8.77844E-09 2.92639E-08
 -1       272-2.87831E+06-4.74478E+05-1.34279E+05-1.05070E+06 1.02546E-10-6.21276E-08
 -1       273-2.81998E+06-3.96184E+05-4.92627E+04-1.06808E+06-3.13543E-09 2.52694E-08
 -1       274-2.83192E+06-4.10760E+05-2.76078E+04-1.06471E+06-9.29276E-09 7.39019E-08
 -1       275-2.82617E+06-4.00891E+05-1.14847E+04-1.06556E+06 1.33105E-08 5.51427E-09
 -1       276-2.82349E+06-4.06176E+05-6.06036E+03-1.06927E+06-2.38315E-08-2.75684E-08
 -1       277-2.82829E+06-4.00083E+05-2.99606E+03-1.06376E+06 1.40171E-08 2.18456E-08
 -1       278-2.82002E+06-4.08260E+05-2.05470E+03-1.07274E+06-7.50924E-09-4.57126E-08
 -1       279-2.82971E+06-3.98700E+05-2.17964E+03-1.06217E+06-6.25369E-09 9.79503E-09
 -1       280-2.81788E+06-4.11234E+05-3.81760E+03-1.07570E+06 1.20672E-08-1.92433E-08
 -1       281-2.83056E+06-3.97067E+05-6.95838E+03-1.06087E+06-1.76442E-09 2.49329E-08
 -1       282-2.81910E+06-4.17888E+05-1.65935E+04-1.07756E+06-1.01136E-09 7.59545E-08
 -1       283-2.82870E+06-3.92370E+05-2.95181E+04-1.06027E+06 8.73297E-09 1.65965E-08
 -1       284-2.84354E+06-4.59505E+05-8.04927E+04-1.07315E+06 3.28509E-09 1.00908E-08
 -1       285-2.80689E+06-3.59382E+05-1.25037E+05-1.06392E+06 5.92991E-10 8.29459E-09
 -1       301 2.27547E+04-2.26942E+05 1.75043E+05-4.25754E+05 3.12866E-10 5.46825E-08
 -1       302 2.42177E+04-1.82981E+05 1.10971E+05-6.23147E+05-1.79170E-10 1.97256E-08
 -1       303 4.32850E+02-2.09759E+05 7.78275E+04-4.24862E+05 2.58296E-10-1.71767E-08
 -1       304 2.12935E+04-1.82770E+05 1.04608E+05-6.22621E+05 2.40107E-10 6.08907E-08
 -1       305 1.88148E+04-2.22641E+05 1.60656E+05-4.26336E+05-2.40107E-10 1.16852E-08
 -1       306-1.19067E+07-1.77230E+06-2.29773E+06-2.01590E+06-3.76313E-08 5.09317E-09
 -1       307 2.95377E+06-1.67097E+06 1.10695E+06-5.57395E+06-3.93731E-07 3.85626E-10
 -1       308-7.85913E+06 2.94572E+05-2.62337E+05 6.52667E+05-3.16213E-08 1.62545E-07
 -1       309-3.45282E+06-1.63695E+06 3.17610E+05-9.05024E+06 1.41164E-07 8.76025E-09
 -1       310-8.08908E+06 2.40410E+05-2.39975E+05 5.63107E+05 3.26982E-08 3.63070E-09
 -1       311 3.48059E+06-1.80139E+06 1.41286E+06-5.08605E+06 3.91636E-07-1.19653E-08
 -1       312-1.19476E+07-1.78610E+06-1.76874E+06-2.28110E+06-1.26602E-07 1.07859E-07
 -1       313 6.59917E+06 1.38329E+06 2.40440E+06 2.54995E+06-1.82568E-07 6.23913E-08
 -1       314-9.42019E+06-4.16978E+06-1.73142E+06-4.87297E+06 1.98226E-07 1.43191E-08
 -1       315-4.40886E+06 5.73924E+06 1.35629E+06 2.98123E+06-2.22288E-07-2.70957E-08
 -1       316-3.61444E+06-4.06012E+06-1.99535E+05-4.15907E+06-4.43120E-07-2.97936E-07
 -1       317-1.16525E+07 6.54577E+06 3.03656E+05-5.70186E+04 3.99579E-07-2.75293E-07
 -1       318-3.64455E+06-4.07754E+06-3.27108E+05-4.16065E+06-3.61877E-07-3.68091E-08
 -1       319-4.28558E+06 5.85308E+06 1.09955E+06 2.96489E+06-3.52156E-08 3.76604E-08
 -1       320-9.50184E+06-4.27330E+06-2.42925E+06-4.83876E+06 8.72533E-08-2.17151E-08
 -1       336 3.99930E+02-1.49424E+06-9.82740E+03 4.92193E+03-1.65464E-08-1.16270E-08
 -1       337-3.71944E+03-1.49546E+06-1.19829E+04-1.19590E+04-3.16677E-08-8.76025E-09
 -1       338 5.84260E+02-1.49415E+06-1.73052E+04 6.97058E+03-2.25482E-08-9.13133E-09
 -1       339-1.82902E+04-1.50508E+06-3.87917E+04-1.59562E+04-3.95521E-08 1.40990E-08
 -1       340 1.22240E+04-1.48540E+06-6.06073E+04 8.86833E+03-2.58078E-08 1.83172E-08
 -1       406 1.94085E+01 3.12858E+05 5.09398E+02 2.91183E-01-3.83835E-10 1.06293E-08
 -1       407 1.77158E+02 3.12951E+05 1.08240E+03 5.27141E+00-2.12609E-10 2.90561E-09
 -1       408 5.56851E+02 3.12780E+05 2.16188E+03-5.70873E+00-5.93701E-10 1.26838E-08
 -1       409 2.33698E+03 3.13641E+05 4.86669E+03 5.73763E+01-1.57854E-10 1.37179E-08
 -1       410 6.71525E+03 3.12165E+05 9.93519E+03-5.43558E+01-6.88374E-10 1.04592E-11
 -1       521-1.40975E+07-2.32680E+06-2.97471E+06-2.18218E+06-3.76604E-08-8.55653E-09
 -1       522 3.54280E+06-1.90678E+06 1.25111E+06-7.27119E+06-2.93832E-07-1.42638E-07
 -1       523-9.35418E+06 2.63515E+05-3.22428E+05 9.41198E+05-1.13214E-08-1.85999E-07
 -1       524-4.81481E+06-1.32394E+06 4.00746E+05-1.14844E+07 4.45636E-07-2.58226E-07
 -1       525-9.66417E+06 1.73843E+05-3.01960E+05 8.25590E+05 3.38390E-07-1.74434E-07
 -1       526 4.37799E+06-2.08792E+06 1.68131E+06-6.58391E+06-4.96220E-08-6.52799E-08
 -1       527-1.41758E+07-2.39960E+06-2.27282E+06-2.53300E+06 1.54658E-07-4.03088E-08
 -1       528 8.42214E+06 1.64980E+06 2.82672E+06 3.34584E+06 4.59841E-08-9.03237E-08
 -1       529-1.10697E+07-5.32979E+06-2.22229E+06-5.69056E+06 8.59727E-08-5.00586E-09
 -1       530-5.68981E+06 7.54709E+06 1.61987E+06 3.58943E+06-1.67493E-07 2.85043E-07
 -1       531-4.17070E+06-5.11111E+06-2.40474E+05-4.92548E+06-4.04427E-07 1.09343E-07
 -1       532-1.46700E+07 8.52456E+06 4.06347E+05-7.83082E+05 3.10374E-07-2.57627E-07
 -1       533-4.16850E+06-5.12493E+06-3.65789E+05-4.91397E+06 1.27766E-08-4.72763E-07
 -1       534-5.64888E+06 7.75591E+06 1.34950E+06 3.51459E+06-7.43094E-08 3.78990E-07
 -1       535-1.11337E+07-5.50967E+06-2.97570E+06-5.64876E+06 1.81026E-08 2.27341E-07
 -1       536-5.03294E+05-3.18623E+04 1.62389E+04-2.84094E+04-3.58091E-09 3.98486E-08
 -1       537-2.49532E+05 3.32456E+04 5.47032E+04 6.95210E+04-7.15420E-08 4.90945E-08
 -1       538-3.81336E+05-8.17410E+02 1.03816E+04-4.26784E+04 1.65130E-08 6.30766E-08
 -1       539-3.33016E+05 3.25442E+03 1.47680E+04 7.98134E+04 8.97625E-08 7.77073E-08
 -1       540-4.21716E+05-3.31971E+02-6.03235E+03-3.88157E+04-1.18266E-08 6.21827E-08
 -1       541-1.72800E+05 6.78193E+03 4.22155E+04 5.14495E+04-5.04838E-08 5.08388E-08
 -1       542-5.37261E+05-7.87093E+03-3.19593E+04-1.41173E+04 4.55129E-08 3.54397E-08
 -1       543-7.82947E+04 1.04380E+04 5.99784E+04-8.97442E+03 4.59841E-09-1.10822E-09
 -1       544-5.13714E+05-6.04119E+03-2.81842E+04 2.14464E+04 6.75755E-09-3.73718E-08
 -1       545-2.26355E+05 2.88842E+03 2.82546E+04-6.36605E+04 5.42227E-07-3.33883E-08
 -1       546-3.93122E+05 2.88735E+03-5.71880E+03 4.05014E+04 1.66597E-04 7.00316E-06
 -1       547-3.43501E+05-4.19225E+03-5.80598E+02-8.18956E+04 3.34017E-04 1.61740E-05
 -1       548-3.99654E+05 3.57210E+03-1.59746E+04 3.98374E+04 1.66371E-04 6.81953E-06
 -1       549-2.16201E+05-6.85703E+03 5.28489E+03-6.04679E+04 4.94425E-07-3.64221E-08
 -1       550-5.16929E+05 2.67745E+03-7.53497E+04 1.89048E+04 2.95954E-08-1.94432E-08
 -1       551 2.63965E+04-6.88627E+05 1.75256E+04-1.08561E+06-6.75936E-08-1.60071E-09
 -1       552 5.87267E+04-7.10205E+05 2.86035E+04-1.54726E+06-4.95202E-08 1.78770E-08
 -1       553 4.30968E+04-7.13860E+05 4.44739E+04-1.08096E+06-8.15708E-08 1.97615E-08
 -1       554 8.92001E+04-7.12838E+05 9.54904E+04-1.54901E+06-5.11354E-08 8.70932E-09
 -1       555 7.22613E+04-7.34236E+05 1.69954E+05-1.08158E+06-8.20582E-08-1.04519E-08
 -1       556 1.45568E+05-2.61996E+05 6.06061E+04-3.10646E+05-2.06928E-08-9.48785E-09
 -1       557 2.45056E+05-3.42038E+05 3.27568E+04-3.94567E+05 4.99131E-09 2.27437E-08
 -1       558 1.38932E+05-2.66328E+05 1.18058E+04-3.06359E+05-1.38243E-08-1.02373E-08
 -1       559 2.27686E+05-3.48828E+05 6.43666E+03-4.05192E+05 1.74623E-10-2.09911E-08
 -1       560 1.31708E+05-2.61724E+05 1.82251E+03-3.11348E+05 3.25963E-09 6.62840E-09
 -1       561 2.18092E+05-3.45369E+05 1.29410E+03-4.11515E+05-6.32281E-09-3.69346E-09
 -1       562 1.26023E+05-2.58114E+05 5.72317E+01-3.15428E+05-4.01633E-09 1.85537E-10
 -1       563 2.11406E+05-3.42457E+05 3.11081E+02-4.15831E+05-1.65892E-09-8.33143E-09
 -1       564 1.22165E+05-2.55688E+05-4.45590E+01-3.18152E+05 2.14641E-09-3.16095E-09
 -1       565 2.07324E+05-3.40684E+05 1.22506E+02-4.18423E+05 5.31145E-09 3.77622E-09
 -1       566 1.20204E+05-2.54437E+05-2.35996E+01-3.19529E+05-1.87356E-09-5.72436E-09
 -1       567 2.05825E+05-3.40021E+05-1.16568E+02-4.19275E+05 1.27948E-08 8.48740E-09
 -1       568 1.20193E+05-2.54445E+05-5.03230E+02-3.19630E+05-1.87902E-09-6.56291E-09
 -1       569 2.05908E+05-3.39969E+05-1.26058E+03-4.17521E+05-1.19144E-09-1.35624E-08
 -1       570 1.22940E+05-2.56777E+05-2.90751E+03-3.19070E+05 6.87578E-09-6.26596E-09
 -1       571 2.37138E+05 8.69260E+03 1.27224E+04-6.53037E+04 1.50521E-09-1.13823E-09
 -1       572 2.39016E+05 3.10676E+03 6.23371E+03-7.16352E+04-2.14641E-10-8.52287E-09
 -1       573 2.37890E+05 8.22936E+02 2.76959E+03-6.51652E+04-2.19825E-09-1.05656E-08
 -1       574 2.38102E+05 3.55293E+02 1.38813E+03-7.17989E+04-3.34694E-10-1.03610E-08
 -1       575 2.37975E+05 1.43327E+02 6.54807E+02-6.51466E+04-1.69666E-09 4.10000E-09
 -1       576 2.37982E+05 1.30289E+02 3.34441E+02-7.18207E+04-3.19005E-09 7.78482E-09
 -1       577 2.37996E+05 1.01541E+02 1.66456E+02-6.51441E+04 6.82121E-12 6.65796E-09
 -1       578 2.37985E+05 1.10940E+02 9.45372E+01-7.18235E+04 1.05501E-09 5.08817E-09
 -1       579 2.38028E+05 8.84283E+01 6.38387E+01-6.51439E+04 2.84217E-09-1.04969E-08
 -1       580 2.38028E+05 9.10392E+01 7.06428E+01-7.18198E+04-6.57201E-09-1.29585E-08
 -1       581 2.38077E+05 6.63693E+01 1.06428E+02-6.51479E+04-1.77351E-09-3.55203E-09
 -1       582 2.38113E+05 8.91652E+01 2.12609E+02-7.17781E+04 2.89583E-09-6.07815E-09
 -1       583 2.38134E+05 1.27829E+02 4.11335E+02-6.51857E+04 4.26007E-09-5.04838E-09
 -1       584 2.38336E+05 4.56852E+02 9.26473E+02-7.14605E+04 1.99725E-09-8.69932E-09
 -1       585 2.38099E+05 1.26389E+03 1.88140E+03-6.54657E+04-4.80213E-10-5.57338E-09
 -1       586-2.97003E+03 8.12516E+04-3.38880E+03-2.10993E+05-3.22507E-09 5.40035E-09
 -1       587-8.14584E+02 8.08583E+04 5.82638E+01-2.32242E+05-2.00816E-09 3.91310E-09
 -1       588 6.92530E+02 8.08606E+04 3.47763E+03-2.10893E+05-2.73940E-09-2.50111E-09
 -1       589 4.43746E+03 8.27303E+04 9.52564E+03-2.32001E+05-3.01588E-09-1.54996E-08
 -1       590 1.34138E+04 7.98092E+04 2.01801E+04-2.11257E+05-3.13048E-09-4.64206E-09
 -1       591-5.05300E+04-1.24586E+04-1.69176E+04-2.35230E+04 6.11635E-11 3.28328E-09
 -1       592-5.30411E+04-1.56889E+04-9.16363E+03-2.68813E+04 1.53292E-09 6.12999E-10
 -1       593-5.22270E+04-1.12257E+04-3.81458E+03-2.47585E+04 2.39538E-10-9.75956E-09
 -1       594-5.06977E+04-1.32148E+04-1.90250E+03-2.69798E+04 1.17382E-09 7.29818E-09
 -1       595-5.23566E+04-1.12212E+04-8.73814E+02-2.48148E+04-7.50219E-10 9.21737E-09
 -1       596-5.05378E+04-1.31016E+04-4.44699E+02-2.69616E+04 8.09848E-09 2.79090E-09
 -1       597-5.23729E+04-1.12325E+04-2.43178E+02-2.48169E+04 2.43838E-09-1.07446E-08
 -1       598-5.05221E+04-1.30972E+04-1.97372E+02-2.69564E+04-1.71158E-09 8.72774E-10
 -1       599-5.23718E+04-1.12328E+04-2.54467E+02-2.48165E+04 3.93447E-09 2.33354E-09
 -1       600-5.05384E+04-1.31025E+04-4.74593E+02-2.69604E+04 4.84079E-09-2.14436E-09
 -1       601-5.23522E+04-1.12215E+04-9.37236E+02-2.48136E+04-2.61912E-09-7.07485E-09
 -1       602-5.07098E+04-1.32235E+04-2.04312E+03-2.69771E+04-2.08195E-09-8.19136E-09
 -1       603-5.22109E+04-1.12287E+04-4.09756E+03-2.47536E+04 1.70348E-09 3.72847E-09
 -1       604-5.32400E+04-1.58667E+04-9.84310E+03-2.68528E+04-1.00169E-09 1.25608E-08
 -1       605-5.03726E+04-1.25661E+04-1.81720E+04-2.34408E+04 2.58837E-09 9.48148E-09
 -1       606 2.72774E+04-1.14231E+04-2.05202E+04 2.59950E+04 3.78350E-10-1.01427E-08
 -1       607 2.37670E+04-3.70867E+03-1.02183E+04 2.91904E+04 1.74987E-09-5.96719E-09
 -1       608 2.57612E+04-6.48335E+02-4.57539E+03 2.57946E+04-1.72804E-10 2.38856E-09
 -1       609 2.53705E+04-1.96038E+02-2.31103E+03 2.94198E+04-2.04363E-09 6.03086E-09
 -1       610 2.55817E+04-1.25831E+00-1.10340E+03 2.57718E+04-3.70346E-09 7.97081E-09
 -1       611 2.55131E+04 7.34366E+00-5.56301E+02 2.94448E+04-6.47196E-09 1.20226E-08
 -1       612 2.55365E+04 1.44430E+01-2.65293E+02 2.57695E+04-3.80714E-09 9.57925E-10
 -1       613 2.55146E+04 1.50164E+01-1.19560E+02 2.94477E+04 9.51331E-10-3.44926E-10
 -1       614 2.55127E+04 1.31922E+01-3.01206E+01 2.57688E+04 1.38880E-09 9.27321E-09
 -1       615 2.55041E+04 1.96412E+01 4.53938E+01 2.94482E+04 4.61660E-09-9.22864E-09
 -1       616 2.54944E+04 1.85175E+01 1.40406E+02 2.57691E+04 1.03228E-10-2.56182E-09
 -1       617 2.55163E+04 5.23809E+01 3.22205E+02 2.94477E+04 2.75327E-09 1.89630E-09
 -1       618 2.54630E+04 1.13567E+02 6.50029E+02 2.57692E+04-1.15961E-10 3.23189E-09
 -1       619 2.57430E+04 5.56754E+02 1.46016E+03 2.94469E+04-2.16460E-09-2.14209E-09
 -1       620 2.52454E+04 1.65655E+03 2.93494E+03 2.57686E+04 2.42824E-09 9.44465E-09
 -1       621 2.97410E+02 2.42358E+05 2.66439E+03 2.02568E+04 2.08047E-10-6.74572E-09
 -1       622 3.71730E+02 2.43003E+05 2.47237E+03 2.94596E+04 3.80169E-10-2.04475E-08
 -1       623 3.50513E+01 2.42503E+05 3.11520E+03 2.01611E+04 3.64366E-10-1.32127E-08
 -1       624 1.51512E+03 2.44025E+05 6.15441E+03 2.95566E+04 2.49202E-10-1.26346E-08
 -1       625 1.51618E+03 2.41288E+05 1.08109E+04 2.01583E+04 5.52518E-10-6.00778E-09
 -1       626 2.13896E+05 5.49153E+04 4.60502E+03 1.09610E+05 1.34014E-09-7.03949E-10
 -1       627 2.11539E+05 5.64452E+04 2.21910E+03 1.13753E+05-6.36646E-12 6.44479E-09
 -1       628 2.14028E+05 5.27849E+04 9.37840E+02 1.10362E+05-2.82398E-09 1.23048E-08
 -1       629 2.10933E+05 5.58645E+04 4.59113E+02 1.13998E+05-3.17505E-09-1.60473E-08
 -1       630 2.14039E+05 5.26836E+04 2.12281E+02 1.10389E+05-1.91085E-09-1.27477E-08
 -1       631 2.10864E+05 5.58460E+04 1.13440E+02 1.13998E+05 5.49335E-10 2.05122E-09
 -1       632 2.14031E+05 5.26898E+04 7.32292E+01 1.10382E+05-3.21279E-09 3.88695E-09
 -1       633 2.10851E+05 5.58502E+04 7.94214E+01 1.13992E+05-3.99496E-10-1.20158E-08
 -1       634 2.14023E+05 5.26897E+04 1.26399E+02 1.10379E+05-5.46834E-10-2.22312E-08
 -1       635 2.10859E+05 5.58506E+04 2.54684E+02 1.13993E+05 2.18142E-09-4.89490E-09
 -1       636 2.14012E+05 5.26870E+04 5.13718E+02 1.10377E+05 9.86404E-10-8.64020E-10
 -1       637 2.10968E+05 5.59313E+04 1.12890E+03 1.13990E+05 5.25404E-09-7.94262E-09
 -1       638 2.13970E+05 5.29374E+04 2.31957E+03 1.10263E+05 2.98110E-09 2.49338E-09
 -1       639 2.12185E+05 5.76255E+04 5.48768E+03 1.13630E+05 1.93654E-09 1.25601E-09
 -1       640 2.13806E+05 5.79925E+04 1.13880E+04 1.08125E+05 8.50832E-10-2.32512E-08
 -1       656 5.59293E+04-1.42383E+06-1.35014E+05-9.30338E+02 3.85626E-10-5.60476E-09
 -1       657-7.39556E+04-1.48480E+06-1.11770E+05 7.02723E+03-1.31877E-10-4.26792E-09
 -1       658 1.77923E+04-1.44118E+06-6.87353E+04-2.51505E+03 4.33374E-10 1.37797E-09
 -1       659-7.96950E+04-1.48753E+06-1.19309E+05 8.20900E+03-6.54836E-10 4.22651E-09
 -1       660 6.16556E+04-1.42112E+06-1.47979E+05-2.11209E+03-8.07631E-10 3.87041E-09
 -1       661 1.64759E+05 1.76627E+04 1.64762E+04 6.44279E+04 4.38376E-10-6.37556E-10
 -1       662 1.73703E+05 3.02287E+04 1.11029E+04 6.11542E+04 3.10973E-09-6.06997E-09
 -1       663 1.67993E+05 2.29502E+04 3.88356E+03 6.34912E+04 1.58138E-10 5.56156E-09
 -1       664 1.69957E+05 2.40426E+04 2.32247E+03 6.22962E+04-4.49973E-10-5.28820E-09
 -1       665 1.68481E+05 2.36749E+04 9.16189E+02 6.33513E+04-2.67050E-10 2.21411E-09
 -1       666 1.69382E+05 2.32118E+04 5.35235E+02 6.24774E+04-1.06974E-09 1.85543E-09
 -1       667 1.68565E+05 2.37593E+04 2.83297E+02 6.33180E+04-4.97550E-10 5.99942E-09
 -1       668 1.69291E+05 2.31484E+04 2.86349E+02 6.25257E+04-1.22685E-09-3.70724E-09
 -1       669 1.68571E+05 2.37364E+04 3.85786E+02 6.33035E+04 5.26413E-10 1.04009E-08
 -1       670 1.69386E+05 2.33558E+04 8.38288E+02 6.25274E+04-2.70626E-09-7.86031E-10
 -1       671 1.68470E+05 2.35561E+04 1.48785E+03 6.33145E+04-3.07886E-09-4.27588E-09
 -1       672 1.70253E+05 2.48032E+04 3.80615E+03 6.23177E+04-1.74896E-09-1.02718E-08
 -1       673 1.67709E+05 2.23255E+04 6.37831E+03 6.34992E+04-1.75476E-09 2.79169E-09
 -1       674 1.76325E+05 3.50489E+04 1.82406E+04 6.05325E+04 1.43052E-09 1.69566E-08
 -1       675 1.62437E+05 1.35970E+04 2.70751E+04 6.49918E+04 7.54881E-10 7.99992E-09
 -1       676 2.14397E+01-2.60245E+05-9.95861E+02-1.57276E+01 3.43448E-10 1.19557E-09
 -1       677-2.64470E+02-2.60485E+05-1.82257E+03 3.14348E+01 1.32181E-09 5.59156E-09
 -1       678 1.76549E+02-2.60073E+05-3.22183E+03-1.56965E+01 7.85349E-10-6.41111E-09
 -1       679-3.22279E+03-2.62430E+05-7.65361E+03 3.13153E+01 1.39062E-09-8.13860E-09
 -1       680 1.92339E+03-2.58301E+05-1.23350E+04-1.54316E+01-5.45697E-11-5.60783E-09
 -1       771-2.74608E+06-5.80775E+05-9.47029E+04-1.24142E+06-2.15950E-08-2.31958E-08
 -1       772-2.69838E+06-6.41856E+05-4.94515E+04-1.31127E+06-1.50903E-08 8.58927E-09
 -1       773-2.76336E+06-5.67134E+05-2.38968E+04-1.24788E+06-9.92441E-09 6.59202E-09
 -1       774-2.68957E+06-6.31867E+05-1.09444E+04-1.32412E+06 1.61745E-08-8.87667E-10
 -1       775-2.77105E+06-5.61686E+05-7.32116E+03-1.25033E+06-3.46336E-09 1.85537E-09
 -1       776-2.69383E+06-6.31136E+05-2.88344E+03-1.33312E+06-8.53470E-09 2.83762E-09
 -1       777-2.77745E+06-5.57001E+05-2.93348E+03-1.25247E+06-2.91038E-10 2.44108E-09
 -1       778-2.69853E+06-6.30565E+05-8.83089E+02-1.34077E+06 3.49246E-10 5.90808E-09
 -1       779-2.78283E+06-5.52980E+05-1.37853E+03-1.25431E+06-1.38243E-09-6.29734E-09
 -1       780-2.70267E+06-6.29992E+05-2.51010E+02-1.34697E+06 1.06884E-08 3.14503E-09
 -1       781-2.78705E+06-5.49776E+05-5.30910E+02-1.25574E+06-1.10886E-08-2.63753E-09
 -1       782-2.70584E+06-6.29472E+05 1.48217E+02-1.35153E+06-2.18861E-08-3.78304E-09
 -1       783-2.78999E+06-5.47583E+05 2.24088E+02-1.25676E+06-4.09636E-09-1.00345E-08
 -1       784-2.70758E+06-6.28834E+05 1.03479E+03-1.35433E+06-1.34587E-08 4.25189E-10
 -1       785-2.79167E+06-5.46320E+05 1.81291E+03-1.25741E+06-2.41780E-08 4.19368E-09
 -1       786 1.24593E+05-9.09248E+03 2.10351E+04-1.54605E+02 5.36584E-10-6.92398E-09
 -1       787 1.33714E+05 1.05263E+04 1.48817E+04 5.88743E+00 3.49767E-09-4.32624E-09
 -1       788 1.28110E+05-1.42521E+03 5.44280E+03-1.27150E+02 2.30661E-09 6.57201E-09
 -1       789 1.29617E+05 1.64894E+03 3.41764E+03-3.81020E+01-1.78186E-10-9.78355E-09
 -1       790 1.28691E+05-2.22337E+02 1.38560E+03-1.10622E+02-4.36172E-10 4.25615E-09
 -1       791 1.28938E+05 2.56986E+02 8.03924E+02-6.67629E+01-2.49007E-09 6.29825E-11
 -1       792 1.28789E+05-3.42969E+01 3.47920E+02-9.84897E+01-1.82433E-09 7.11964E-10
 -1       793 1.28823E+05 3.90958E+01 1.89369E+02-8.96070E+01-2.48059E-10-1.33621E-08
 -1       794 1.28806E+05-4.58503E+00 8.12006E+01-8.77779E+01 2.18004E-09 1.20469E-10
 -1       795 1.28801E+05 1.44904E+00 3.20968E+01-1.11900E+02-1.75855E-09 3.93062E-09
 -1       796 1.28811E+05 3.33058E+00-3.55247E+00-7.61966E+01 1.72046E-09 1.89222E-09
 -1       797 1.28785E+05-2.91723E+01-5.10763E+01-1.38356E+02 1.27880E-09 8.90710E-09
 -1       798 1.28822E+05 2.60122E+01-9.43771E+01-6.13215E+01 6.69711E-10 2.71988E-09
 -1       799 1.28710E+05-1.92397E+02-2.69605E+02-1.74563E+02 1.75028E-09 5.89749E-09
 -1       800 1.28886E+05 1.66414E+02-3.84336E+02-3.99888E+01 4.09472E-10 7.66212E-09
 -1       801 5.19847E+04-5.06132E+06-5.76041E+05 3.55234E+05 4.58240E-08-2.42562E-08
 -1       802 3.06744E+04-1.63098E+06 2.79466E+05-3.66604E+05 1.30472E-07-1.41965E-08
 -1       803-8.32571E+04-5.55799E+06-4.14928E+05 2.80194E+05 4.99494E-08 2.37023E-08
 -1       804 1.09782E+03-2.63062E+06 2.01328E+05 2.54308E+05-3.15858E-08-2.29902E-08
 -1       805 6.58502E+04-4.07024E+06-7.63605E+04-2.64979E+05-1.37297E-08-1.76806E-08
 -1       806-2.59623E+05-4.90808E+04-1.89071E+04-1.01516E+05 2.56023E-09 6.58247E-09
 -1       807-2.61299E+05-4.58049E+04-9.28884E+03-1.05879E+05 4.89672E-09 6.81936E-09
 -1       808-2.60127E+05-4.22817E+04-3.94073E+03-1.04755E+05-4.47426E-09 4.06180E-09
 -1       809-2.59355E+05-4.31874E+04-1.92695E+03-1.06099E+05-7.30870E-09 4.38206E-09
 -1       810-2.60206E+05-4.20447E+04-8.83135E+02-1.04899E+05 2.63481E-09-9.51331E-10
 -1       811-2.59206E+05-4.30813E+04-4.39117E+02-1.06070E+05 4.64661E-09 1.00807E-08
 -1       812-2.60219E+05-4.20644E+04-2.21823E+02-1.04899E+05-4.76848E-09-7.13840E-09
 -1       813-2.59186E+05-4.30824E+04-1.43851E+02-1.06056E+05 2.45564E-09-2.35650E-09
 -1       814-2.60215E+05-4.20713E+04-1.41875E+02-1.04897E+05 9.00036E-09 8.43511E-09
 -1       815-2.59191E+05-4.30837E+04-2.28317E+02-1.06052E+05 2.02635E-08 3.65890E-09
 -1       816-2.60200E+05-4.20692E+04-4.32207E+02-1.04895E+05 1.14587E-08 1.74141E-08
 -1       817-2.59267E+05-4.31245E+04-9.27974E+02-1.06045E+05-5.15183E-09 5.09772E-09
 -1       818-2.60147E+05-4.21983E+04-1.89238E+03-1.04834E+05 1.49521E-09-4.66844E-09
 -1       819-2.60303E+05-4.42700E+04-4.45348E+03-1.05806E+05-4.17185E-09-2.59336E-08
 -1       820-2.59798E+05-4.55556E+04-9.06399E+03-1.03391E+05-1.50430E-09 1.39926E-09
 -1       821-3.16960E+05 1.75135E+04-4.05071E+04 5.45004E+02-1.08886E-06 8.25348E-08
 -1       822-3.34496E+05-2.02747E+04-2.86619E+04-1.21556E+03-2.25485E-06-1.51840E-08
 -1       823-3.23722E+05 2.74639E+03-1.04904E+04 6.14026E+02-1.11839E-06 3.71165E-09
 -1       824-3.26588E+05-3.17754E+03-6.59795E+03-1.05592E+03-3.37408E-09-5.91581E-09
 -1       825-3.24865E+05 4.29125E+02-2.71742E+03 3.85369E+02 1.92229E-09 4.96857E-09
 -1       826-3.25242E+05-5.04999E+02-1.62784E+03-4.08823E+02 1.49716E-09 3.15072E-09
 -1       827-3.25066E+05 7.47928E+01-8.57704E+02-3.30856E+01-5.75845E-10-1.43541E-09
 -1       828-3.25063E+05-1.54050E+02-7.43201E+02 4.21306E+02-2.98499E-09-5.35334E-09
 -1       829-3.25044E+05 7.84532E+01-8.74347E+02-4.44775E+02-1.92440E-10-2.10576E-09
 -1       830-3.25302E+05-5.27050E+02-1.69853E+03 1.04369E+03 1.60255E-09-3.07909E-09
 -1       831-3.24828E+05 4.48538E+02-2.82066E+03-6.55478E+02-2.60934E-09-2.38231E-09
 -1       832-3.26670E+05-3.30957E+03-6.87340E+03 1.16496E+03-1.12676E-09 3.29965E-09
 -1       833-3.23678E+05 2.85926E+03-1.09271E+04-5.66048E+02-2.01120E-09-5.90853E-09
 -1       834-3.34844E+05-2.11128E+04-2.98413E+04 7.23219E+02-1.37516E-09 7.70524E-09
 -1       835-3.16655E+05 1.82372E+04-4.21937E+04-2.13725E+02 5.14011E-09 1.23746E-08
 -1       836-1.09788E+03 3.00476E+05 1.83212E+04-1.60646E+04-1.73895E-09 9.32141E-09
 -1       837 3.97058E+03 3.06184E+05 1.56512E+04-3.23918E+04-1.80421E-09-6.75209E-09
 -1       838-4.26069E+02 3.02057E+05 1.61548E+04-1.59994E+04-1.34378E-09 4.44129E-09
 -1       839 1.03137E+04 3.10912E+05 3.07646E+04-3.24334E+04-9.18590E-10 8.05130E-10
 -1       840-3.14359E+03 2.95704E+05 4.91474E+04-1.60233E+04-9.91349E-10-1.56660E-09
 -1       856-6.99733E+04 7.65384E+03-2.01700E+04-4.14372E+02-1.47219E-09-1.95905E-09
 -1       857-7.82973E+04-8.98202E+03-1.38858E+04 4.94342E+03 2.57040E-09-7.72093E-09
 -1       858-7.32646E+04 1.07272E+03-5.23420E+03-4.36594E+02-2.68051E-09 3.31215E-09
 -1       859-7.45189E+04-1.25171E+03-3.16001E+03 4.97801E+03 2.09783E-09 1.04515E-08
 -1       860-7.37565E+04 1.49526E+02-1.32663E+03-4.48958E+02 2.19870E-10 5.49562E-10
 -1       861-7.39526E+04-1.68947E+02-7.34606E+02 4.99493E+03-1.55487E-09-4.14218E-10
 -1       862-7.38332E+04 1.98658E+01-3.14989E+02-4.53529E+02 2.56463E-09-1.85106E-09
 -1       863-7.38603E+04-1.34387E+01-1.36590E+02 4.99723E+03 4.66531E-09-1.44255E-08
 -1       864-7.38492E+04-2.51592E+00-4.15506E+00-4.51262E+02 2.85949E-09-5.11021E-09
 -1       865-7.38207E+04 4.22928E+01 1.33993E+02 4.98529E+03 3.54134E-09-5.80074E-09
 -1       866-7.38709E+04-3.61427E+01 2.95263E+02-4.41589E+02 1.90710E-10 2.32622E-09
 -1       867-7.36750E+04 3.00657E+02 7.43040E+02 4.95896E+03 1.23322E-10 6.83679E-09
 -1       868-7.39909E+04-2.56973E+02 1.23854E+03-4.24937E+02 3.51122E-10 1.95678E-09
 -1       869-7.27620E+04 2.13788E+03 3.30393E+03 4.91516E+03-3.31556E-09 4.41082E-09
 -1       870-7.47778E+04-1.82457E+03 4.79380E+03-3.97773E+02-2.94904E-10-1.12823E-09
 -1       871-4.76184E+03-1.30479E+04-1.59118E+04 1.05953E+05-3.47427E-10 1.03364E-08
 -1       872-1.94717E+03-1.66634E+04-6.56619E+03 1.37371E+05-1.36424E-09 5.98584E-09
 -1       873 8.55777E+01-1.49560E+04 7.23829E+02 1.05721E+05-8.92669E-10-1.55535E-09
 -1       874 2.51068E+03-1.27888E+04 8.55084E+03 1.37409E+05-1.81444E-09 5.77415E-09
 -1       875 5.66084E+03-1.69883E+04 1.91013E+04 1.05916E+05-6.71207E-10 8.32188E-10
 -1       876 2.50274E+05 4.26527E+04 1.30751E+04 1.00993E+05-5.41263E-10-9.72341E-09
 -1       877 2.51088E+05 4.54560E+04 6.98250E+03 1.04789E+05 6.82121E-11-2.60843E-09
 -1       878 2.51495E+05 4.12057E+04 2.92535E+03 1.02066E+05 1.81308E-09 8.61314E-09
 -1       879 2.49311E+05 4.36832E+04 1.45745E+03 1.04879E+05 1.49453E-09-1.69166E-10
 -1       880 2.51584E+05 4.11903E+04 6.78748E+02 1.02110E+05-3.82852E-09 2.95927E-09
 -1       881 2.49193E+05 4.36077E+04 3.62103E+02 1.04860E+05-1.22404E-08-2.58611E-08
 -1       882 2.51592E+05 4.12013E+04 2.31056E+02 1.02111E+05-1.60799E-09 7.26956E-11
 -1       883 2.49184E+05 4.36039E+04 2.47416E+02 1.04854E+05 4.83396E-10 7.72151E-09
 -1       884 2.51587E+05 4.11987E+04 3.92699E+02 1.02112E+05-9.88450E-10 1.41011E-09
 -1       885 2.49215E+05 4.36094E+04 7.88995E+02 1.04864E+05-2.47714E-09 3.39594E-09
 -1       886 2.51556E+05 4.11757E+04 1.58993E+03 1.02108E+05 1.00568E-09 4.75245E-09
 -1       887 2.49495E+05 4.37926E+04 3.47292E+03 1.04904E+05 2.41403E-09-7.40965E-09
 -1       888 2.51337E+05 4.12143E+04 6.99802E+03 1.01997E+05-2.18387E-09-9.13496E-09
 -1       889 2.53663E+05 4.81238E+04 1.67173E+04 1.04774E+05-5.43878E-10 2.12276E-09
 -1       890 2.48485E+05 4.46026E+04 3.13108E+04 9.93290E+04 2.76623E-09 1.17561E-08
 -1       891-1.26096E+02-1.40380E+05-1.69350E+03 2.50458E+04-2.70120E-10 1.08494E-08
 -1       892-2.25718E+02-1.40801E+05-1.82836E+03 3.79445E+04 1.05456E-09 1.92222E-08
 -1       893-1.35480E+01-1.40434E+05-2.59860E+03 2.50515E+04 1.06729E-09 1.75578E-09
 -1       894-1.37174E+03-1.41789E+05-5.38528E+03 3.78073E+04 5.59339E-10 2.95313E-09
 -1       895-1.07897E+03-1.39312E+05-9.48624E+03 2.51822E+04-1.20735E-10-1.39516E-08
 -1       956-3.18224E+05-4.49029E+03-1.12387E+04 2.27471E+04 8.68567E-10 7.40738E-09
 -1       957-3.20438E+05-1.53493E+03-5.76924E+03 2.73812E+04 9.94987E-10-1.95701E-09
 -1       958-3.19225E+05-1.43222E+02-2.59939E+03 2.26133E+04 1.86446E-10-6.21412E-10
 -1       959-3.19398E+05-4.70089E+01-1.32764E+03 2.75301E+04-2.91038E-10 3.93288E-09
 -1       960-3.19317E+05 1.64621E+01-6.47355E+02 2.26001E+04 6.48924E-10-7.02357E-10
 -1       961-3.19325E+05 1.06582E+01-3.43573E+02 2.75454E+04-5.37966E-10-3.25622E-09
 -1       962-3.19337E+05 1.30749E+01-1.97001E+02 2.25980E+04-1.91903E-10-2.57046E-09
 -1       963-3.19323E+05 1.26794E+01-1.58749E+02 2.75480E+04-3.14571E-10 1.68907E-08
 -1       964-3.19341E+05 1.54000E+01-1.93571E+02 2.25974E+04 4.26098E-10 3.19551E-09
 -1       965-3.19334E+05 1.56050E+01-3.35224E+02 2.75477E+04-1.52835E-09 1.03314E-08
 -1       966-3.19329E+05 2.33801E+01-6.29844E+02 2.25984E+04 3.85739E-09-6.83190E-09
 -1       967-3.19414E+05-3.56922E+01-1.29200E+03 2.75377E+04 8.86962E-09 8.09041E-09
 -1       968-3.19246E+05-1.27458E+02-2.52883E+03 2.26075E+04 4.06044E-09-9.87882E-10
 -1       969-3.20435E+05-1.47960E+03-5.61450E+03 2.74319E+04-4.74529E-10-2.33181E-08
 -1       970-3.18277E+05-4.35506E+03-1.09364E+04 2.27035E+04 1.82627E-09 3.38696E-09
 -1       971-2.96431E+05-1.52283E+03-8.37273E+03 1.37909E+04 5.92991E-10-1.50362E-08
 -1       972-2.98460E+05-1.10180E+03-4.55971E+03 1.92009E+04 1.37516E-09 2.72894E-09
 -1       973-2.97363E+05-2.57630E+01-2.04202E+03 1.36777E+04-2.29056E-09 1.03887E-09
 -1       974-2.97498E+05-3.13028E+01-1.05813E+03 1.93252E+04 5.16593E-10 4.59579E-09
 -1       975-2.97436E+05 1.40260E+01-5.28407E+02 1.36669E+04 2.87719E-09 7.03233E-09
 -1       976-2.97441E+05 1.30592E+01-3.03916E+02 1.93387E+04 1.13937E-09-3.91560E-09
 -1       977-2.97450E+05 1.42519E+01-2.18910E+02 1.36642E+04-6.69843E-10-3.82852E-09
 -1       978-2.97445E+05 1.83042E+01-2.53895E+02 1.93425E+04 5.35090E-09 1.32218E-09
 -1       979-2.97450E+05 2.13580E+01-4.05973E+02 1.36630E+04 2.19745E-09 8.94636E-09
 -1       980-2.97476E+05 2.08861E+01-7.82657E+02 1.93432E+04 1.57102E-09-1.71258E-09
 -1       981-2.97425E+05 4.08834E+01-1.51518E+03 1.36635E+04 2.06853E-09-4.00513E-09
 -1       982-2.97684E+05-9.10142E+01-3.13149E+03 1.93373E+04 2.18745E-09 1.52265E-08
 -1       983-2.97235E+05-5.60617E+01-6.08430E+03 1.36691E+04-5.07271E-10 1.10858E-08
 -1       984-3.00610E+05-3.26852E+03-1.36252E+04 1.92596E+04-1.96906E-09 2.97405E-10
 -1       985-2.94480E+05-4.50817E+03-2.50202E+04 1.37425E+04 2.25600E-09 8.12179E-09
 -3
    1PSTEP                        23          12           1          
  100CL  112 5.96191E-01         409                     0   12           1
 -4  DISP        4    1
 -5  D1          1    2    1    0
 -5  D2          1    2    2    0
 -5  D3          1    2    3    0
 -5  ALL         1    2    0    0    1ALL
 -1         1 1.00587E-03 0.00000E+00 0.00000E+00
 -1         2 9.44836E-04 2.97987E-29 0.00000E+00
 -1         3 2.50201E-04-1.95200E-27 1.32349E-23
 -1         5 1.42477E-04-6.38983E-26 0.00000E+00
 -1         8 9.85383E-04-6.54824E-07 0.00000E+00
 -1         9 9.57957E-04-2.88406E-06 0.00000E+00
 -1        10 2.27961E-04-3.10671E-06 0.00000E+00
 -1        12 1.43101E-04 6.81980E-07 0.00000E+00
 -1        15 9.60749E-04-7.22386E-07 0.00000E+00
 -1        16 9.67256E-04-3.55269E-06 0.00000E+00
 -1        17 1.58618E-04-6.79352E-06 0.00000E+00
 -1        18 1.43604E-04 1.73128E-05 0.00000E+00
 -1        19 1.44973E-04 1.36023E-06 0.00000E+00
 -1        20 1.45120E-04 3.44950E-06 0.00000E+00
 -1        21 1.44398E-04 2.98959E-06 3.30872E-24
 -1        24 2.63044E-05-9.73133E-06 0.00000E+00
 -1        25 1.48254E-04 1.74870E-05 0.00000E+00
 -1        26 1.48957E-04 1.88474E-06 0.00000E+00
 -1        27 1.47093E-04 3.81263E-07 0.00000E+00
 -1        28 1.46702E-04 2.43451E-06 0.00000E+00
 -1        32 0.00000E+00 0.00000E+00 0.00000E+00
 -1        33 1.51876E-04 2.52502E-06 0.00000E+00
 -1        34 1.50041E-04 3.45289E-07 0.00000E+00
 -1        35 1.48341E-04 2.13482E-06 0.00000E+00
 -1        51 1.00455E-03-1.16134E-07 0.00000E+00
 -1        52 1.00209E-03-2.21126E-07 0.00000E+00
 -1        53 9.98715E-04-3.25389E-07 0.00000E+00
 -1        54 9.94653E-04-4.30883E-07 0.00000E+00
 -1        55 9.90132E-04-5.38912E-07 2.06795E-24
 -1        56 1.00311E-03-5.19978E-07-5.29396E-23
 -1        57 9.99922E-04-1.89091E-07 2.64698E-23
 -1        58 9.96447E-04 9.20224E-07-5.29396E-23
 -1        59 9.92723E-04 2.63976E-06 0.00000E+00
 -1        60 9.88855E-04 4.73867E-06-1.05879E-22
 -1        61 9.84938E-04 6.95545E-06 0.00000E+00
 -1        62 9.81081E-04 9.01504E-06 0.00000E+00
 -1        63 9.77383E-04 1.06512E-05-5.29396E-23
 -1        64 9.73926E-04 1.16512E-05-1.05879E-22
 -1        65 9.70773E-04 1.18424E-05-5.29396E-23
 -1        66 9.67952E-04 1.11535E-05 0.00000E+00
 -1        67 9.65469E-04 9.56952E-06 0.00000E+00
 -1        68 9.63286E-04 7.18669E-06-1.05879E-22
 -1        69 9.61359E-04 4.15750E-06-2.64698E-23
 -1        70 9.59586E-04 7.04309E-07 5.29396E-23
 -1        86 9.45361E-04-4.75750E-07 1.32349E-23
 -1        87 9.46925E-04-9.52809E-07 0.00000E+00
 -1        88 9.49279E-04-1.43136E-06-1.32349E-23
 -1        89 9.52160E-04-1.91293E-06-6.61744E-24
 -1        90 9.55182E-04-2.39431E-06 0.00000E+00
 -1       121 2.49577E-04-5.09090E-07-1.32349E-23
 -1       122 2.47707E-04-1.01968E-06 0.00000E+00
 -1       123 2.44598E-04-1.53324E-06 0.00000E+00
 -1       124 2.40260E-04-2.05131E-06 6.61744E-24
 -1       125 2.34708E-04-2.57509E-06 0.00000E+00
 -1       191 1.42494E-04 1.13674E-07-1.65436E-24
 -1       192 1.42546E-04 2.27346E-07 8.27181E-25
 -1       193 1.42633E-04 3.41015E-07 1.65436E-24
 -1       194 1.42754E-04 4.54680E-07-8.27181E-25
 -1       195 1.42910E-04 5.68336E-07 1.65436E-24
 -1       251 9.84502E-04 1.72203E-05 1.32349E-23
 -1       252 9.82806E-04 6.18565E-05 0.00000E+00
 -1       253 9.80850E-04 1.12635E-04 2.64698E-23
 -1       254 9.79505E-04 1.48743E-04 0.00000E+00
 -1       255 9.78687E-04 1.57849E-04 0.00000E+00
 -1       256 9.77494E-04 1.28484E-04 1.32349E-23
 -1       257 9.75104E-04 6.96781E-05-2.64698E-23
 -1       258 9.71428E-04-8.60846E-06 1.32349E-23
 -1       259 9.67865E-04-8.52922E-05 2.64698E-23
 -1       260 9.65728E-04-1.39334E-04-1.32349E-23
 -1       261 9.64692E-04-1.62525E-04-2.64698E-23
 -1       262 9.63808E-04-1.47645E-04 1.32349E-23
 -1       263 9.62330E-04-1.07801E-04 0.00000E+00
 -1       264 9.60367E-04-5.68964E-05 1.32349E-23
 -1       265 9.58785E-04-1.52456E-05 2.64698E-23
 -1       266 9.81277E-04-6.75583E-07 3.30872E-24
 -1       267 9.77172E-04-6.85685E-07 0.00000E+00
 -1       268 9.73066E-04-6.96463E-07 0.00000E+00
 -1       269 9.68961E-04-7.05241E-07 0.00000E+00
 -1       270 9.64855E-04-7.13972E-07 0.00000E+00
 -1       271 9.82875E-04 2.91806E-06 0.00000E+00
 -1       272 9.80464E-04 6.13846E-06 1.32349E-23
 -1       273 9.78203E-04 8.96397E-06 0.00000E+00
 -1       274 9.76105E-04 1.13421E-05-1.32349E-23
 -1       275 9.74192E-04 1.32305E-05 0.00000E+00
 -1       276 9.72477E-04 1.45915E-05 1.32349E-23
 -1       277 9.70971E-04 1.53953E-05-2.64698E-23
 -1       278 9.69684E-04 1.56189E-05 0.00000E+00
 -1       279 9.68619E-04 1.52477E-05 0.00000E+00
 -1       280 9.67781E-04 1.42747E-05 0.00000E+00
 -1       281 9.67167E-04 1.27014E-05 2.64698E-23
 -1       282 9.66774E-04 1.05373E-05-1.32349E-23
 -1       283 9.66595E-04 7.79990E-06 0.00000E+00
 -1       284 9.66623E-04 4.51552E-06 0.00000E+00
 -1       285 9.66842E-04 7.15511E-07 0.00000E+00
 -1       301 9.59627E-04-3.01472E-06-1.32349E-23
 -1       302 9.60665E-04-3.11812E-06 0.00000E+00
 -1       303 9.61507E-04-3.21941E-06-6.61744E-24
 -1       304 9.62593E-04-3.32056E-06 0.00000E+00
 -1       305 9.64365E-04-3.42436E-06 0.00000E+00
 -1       306 9.80773E-04-8.49393E-05 0.00000E+00
 -1       307 1.03637E-03-3.18418E-04 2.64698E-23
 -1       308 1.10347E-03-6.65492E-04-1.05879E-22
 -1       309 1.17136E-03-1.07523E-03 5.29396E-23
 -1       310 1.23923E-03-1.47891E-03-1.05879E-22
 -1       311 1.30539E-03-1.80840E-03 0.00000E+00
 -1       312 1.35684E-03-2.01616E-03 0.00000E+00
 -1       313 1.37073E-03-2.06919E-03 0.00000E+00
 -1       314 1.32240E-03-1.96831E-03 0.00000E+00
 -1       315 1.19509E-03-1.73249E-03-5.29396E-23
 -1       316 9.97723E-04-1.40315E-03-1.05879E-22
 -1       317 7.56018E-04-1.02471E-03 2.64698E-23
 -1       318 5.15983E-04-6.48058E-04 0.00000E+00
 -1       319 3.23195E-04-3.24174E-04 0.00000E+00
 -1       320 2.01714E-04-9.69086E-05 5.29396E-23
 -1       336 2.19887E-04-3.68803E-06-1.32349E-23
 -1       337 2.10360E-04-4.28224E-06 0.00000E+00
 -1       338 1.99419E-04-4.89004E-06 0.00000E+00
 -1       339 1.87112E-04-5.51156E-06 0.00000E+00
 -1       340 1.73492E-04-6.14951E-06 0.00000E+00
 -1       406 1.43326E-04 7.95604E-07-1.65436E-24
 -1       407 1.43587E-04 9.09183E-07 0.00000E+00
 -1       408 1.43881E-04 1.02269E-06-1.65436E-24
 -1       409 1.44211E-04 1.13597E-06 0.00000E+00
 -1       410 1.44575E-04 1.24883E-06 3.30872E-24
 -1       521 9.91498E-04-9.40610E-05-1.05879E-22
 -1       522 1.04888E-03-3.47674E-04 0.00000E+00
 -1       523 1.11613E-03-7.23935E-04 0.00000E+00
 -1       524 1.18238E-03-1.16671E-03 0.00000E+00
 -1       525 1.24882E-03-1.60235E-03 1.05879E-22
 -1       526 1.31544E-03-1.95794E-03 0.00000E+00
 -1       527 1.36842E-03-2.18121E-03 1.05879E-22
 -1       528 1.38228E-03-2.23749E-03 0.00000E+00
 -1       529 1.32804E-03-2.12703E-03 1.05879E-22
 -1       530 1.18651E-03-1.87254E-03 0.00000E+00
 -1       531 9.66516E-04-1.51844E-03 1.05879E-22
 -1       532 6.96972E-04-1.11287E-03 5.29396E-23
 -1       533 4.28855E-04-7.08729E-04 1.05879E-22
 -1       534 2.12755E-04-3.59001E-04 5.29396E-23
 -1       535 7.61639E-05-1.11404E-04 0.00000E+00
 -1       536 1.58176E-04 1.76306E-05 0.00000E+00
 -1       537 1.57173E-04 5.98520E-05 0.00000E+00
 -1       538 1.55665E-04 1.13310E-04-3.30872E-24
 -1       539 1.53911E-04 1.71384E-04 0.00000E+00
 -1       540 1.52332E-04 2.26116E-04 0.00000E+00
 -1       541 1.51288E-04 2.69567E-04 0.00000E+00
 -1       542 1.50776E-04 2.96948E-04-3.30872E-24
 -1       543 1.50604E-04 3.03567E-04 0.00000E+00
 -1       544 1.50369E-04 2.90073E-04 0.00000E+00
 -1       545 1.49702E-04 2.57251E-04-1.65436E-24
 -1       546 1.48537E-04 2.10935E-04 0.00000E+00
 -1       547 1.47007E-04 1.57041E-04-1.65436E-24
 -1       548 1.45501E-04 1.03641E-04-3.30872E-24
 -1       549 1.44402E-04 5.88030E-05 0.00000E+00
 -1       550 1.43804E-04 2.81740E-05 0.00000E+00
 -1       551 1.40470E-04-7.20593E-06 0.00000E+00
 -1       552 1.19632E-04-7.66329E-06-3.30872E-24
 -1       553 9.69449E-05-8.15703E-06-1.24077E-23
 -1       554 7.32600E-05-8.67423E-06 6.61744E-24
 -1       555 4.94306E-05-9.19718E-06 2.64698E-23
 -1       556 1.53332E-04 6.80762E-06 0.00000E+00
 -1       557 1.49122E-04 1.76772E-05 0.00000E+00
 -1       558 1.45881E-04 2.60392E-05 0.00000E+00
 -1       559 1.43510E-04 3.21354E-05 0.00000E+00
 -1       560 1.41912E-04 3.62079E-05 0.00000E+00
 -1       561 1.40988E-04 3.85003E-05 0.00000E+00
 -1       562 1.40644E-04 3.92571E-05 0.00000E+00
 -1       563 1.40785E-04 3.87232E-05 0.00000E+00
 -1       564 1.41317E-04 3.71441E-05 0.00000E+00
 -1       565 1.42148E-04 3.47655E-05 0.00000E+00
 -1       566 1.43185E-04 3.18334E-05 0.00000E+00
 -1       567 1.44337E-04 2.85943E-05-1.65436E-24
 -1       568 1.45511E-04 2.52943E-05 8.27181E-25
 -1       569 1.46616E-04 2.21797E-05 0.00000E+00
 -1       570 1.47561E-04 1.94966E-05 0.00000E+00
 -1       571 1.43687E-04 1.62829E-05-1.65436E-24
 -1       572 1.43772E-04 1.52010E-05 8.27181E-25
 -1       573 1.43857E-04 1.40786E-05 0.00000E+00
 -1       574 1.43943E-04 1.29279E-05 1.65436E-24
 -1       575 1.44029E-04 1.17611E-05-3.30872E-24
 -1       576 1.44114E-04 1.05904E-05 1.65436E-24
 -1       577 1.44200E-04 9.42801E-06 0.00000E+00
 -1       578 1.44286E-04 8.28622E-06 0.00000E+00
 -1       579 1.44372E-04 7.17727E-06 3.30872E-24
 -1       580 1.44458E-04 6.11342E-06 6.61744E-24
 -1       581 1.44544E-04 5.10693E-06 0.00000E+00
 -1       582 1.44630E-04 4.17003E-06 0.00000E+00
 -1       583 1.44716E-04 3.31495E-06 0.00000E+00
 -1       584 1.44802E-04 2.55379E-06 6.61744E-24
 -1       585 1.44888E-04 1.89856E-06 0.00000E+00
 -1       586 1.44328E-04 1.73437E-05 1.65436E-24
 -1       587 1.45022E-04 1.73740E-05 2.06795E-25
 -1       588 1.45724E-04 1.74039E-05 0.00000E+00
 -1       589 1.46472E-04 1.74333E-05 0.00000E+00
 -1       590 1.47303E-04 1.74617E-05 0.00000E+00
 -1       591 1.43942E-04 1.63478E-05 1.03398E-25
 -1       592 1.44286E-04 1.53588E-05 0.00000E+00
 -1       593 1.44637E-04 1.43517E-05 0.00000E+00
 -1       594 1.44992E-04 1.33315E-05 0.00000E+00
 -1       595 1.45349E-04 1.23032E-05 0.00000E+00
 -1       596 1.45708E-04 1.12717E-05 4.13590E-25
 -1       597 1.46067E-04 1.02422E-05 8.27181E-25
 -1       598 1.46422E-04 9.21953E-06 0.00000E+00
 -1       599 1.46773E-04 8.20872E-06-4.13590E-25
 -1       600 1.47118E-04 7.21475E-06 2.06795E-25
 -1       601 1.47455E-04 6.24260E-06 0.00000E+00
 -1       602 1.47782E-04 5.29724E-06 0.00000E+00
 -1       603 1.48097E-04 4.38367E-06 2.06795E-25
 -1       604 1.48399E-04 3.50696E-06-2.58494E-26
 -1       605 1.48685E-04 2.67201E-06 0.00000E+00
 -1       606 1.44987E-04 1.01445E-06 0.00000E+00
 -1       607 1.44997E-04 7.60180E-07 0.00000E+00
 -1       608 1.45006E-04 5.92055E-07 0.00000E+00
 -1       609 1.45015E-04 5.04016E-07 0.00000E+00
 -1       610 1.45024E-04 4.89962E-07 0.00000E+00
 -1       611 1.45033E-04 5.43716E-07 0.00000E+00
 -1       612 1.45042E-04 6.59097E-07 0.00000E+00
 -1       613 1.45051E-04 8.29919E-07 0.00000E+00
 -1       614 1.45060E-04 1.04999E-06-1.65436E-24
 -1       615 1.45068E-04 1.31312E-06 0.00000E+00
 -1       616 1.45077E-04 1.61312E-06 0.00000E+00
 -1       617 1.45086E-04 1.94379E-06 0.00000E+00
 -1       618 1.45095E-04 2.29896E-06 0.00000E+00
 -1       619 1.45103E-04 2.67242E-06 0.00000E+00
 -1       620 1.45112E-04 3.05800E-06 0.00000E+00
 -1       621 1.45465E-04 1.44792E-06 1.65436E-24
 -1       622 1.46052E-04 1.53588E-06 8.27181E-25
 -1       623 1.46714E-04 1.62377E-06 1.65436E-24
 -1       624 1.47432E-04 1.71148E-06-8.27181E-25
 -1       625 1.48186E-04 1.79899E-06-1.65436E-24
 -1       626 1.45200E-04 1.04512E-06 0.00000E+00
 -1       627 1.45401E-04 8.01722E-07-1.65436E-24
 -1       628 1.45578E-04 6.22276E-07 3.30872E-24
 -1       629 1.45734E-04 4.98623E-07-4.96308E-24
 -1       630 1.45873E-04 4.22588E-07 0.00000E+00
 -1       631 1.45996E-04 3.85964E-07-1.65436E-24
 -1       632 1.46108E-04 3.80541E-07 0.00000E+00
 -1       633 1.46212E-04 3.98112E-07-1.65436E-24
 -1       634 1.46309E-04 4.30469E-07 0.00000E+00
 -1       635 1.46405E-04 4.69404E-07 1.65436E-24
 -1       636 1.46501E-04 5.06711E-07-3.30872E-24
 -1       637 1.46600E-04 5.34181E-07 8.27181E-25
 -1       638 1.46706E-04 5.43603E-07-1.65436E-24
 -1       639 1.46822E-04 5.26756E-07 1.65436E-24
 -1       640 1.46951E-04 4.75416E-07-1.65436E-24
 -1       656 1.44952E-04 2.95050E-06 6.61744E-24
 -1       657 1.45178E-04 2.43142E-06 0.00000E+00
 -1       658 1.45662E-04 1.91376E-06-1.32349E-23
 -1       659 1.46257E-04 1.39647E-06 0.00000E+00
 -1       660 1.46791E-04 8.77592E-07-6.61744E-24
 -1       661 1.45059E-04 3.80440E-06 0.00000E+00
 -1       662 1.45030E-04 4.08455E-06 8.27181E-25
 -1       663 1.45027E-04 4.29354E-06 0.00000E+00
 -1       664 1.45049E-04 4.43620E-06 0.00000E+00
 -1       665 1.45095E-04 4.51674E-06 1.65436E-24
 -1       666 1.45162E-04 4.53948E-06 0.00000E+00
 -1       667 1.45250E-04 4.50850E-06 0.00000E+00
 -1       668 1.45356E-04 4.42780E-06 8.27181E-25
 -1       669 1.45479E-04 4.30126E-06 0.00000E+00
 -1       670 1.45619E-04 4.13265E-06 0.00000E+00
 -1       671 1.45772E-04 3.92563E-06-1.65436E-24
 -1       672 1.45939E-04 3.68375E-06 8.27181E-25
 -1       673 1.46117E-04 3.41054E-06-1.65436E-24
 -1       674 1.46305E-04 3.10914E-06-8.27181E-25
 -1       675 1.46502E-04 2.78331E-06 0.00000E+00
 -1       676 1.44783E-04 2.89653E-06 0.00000E+00
 -1       677 1.45168E-04 2.80352E-06 1.65436E-24
 -1       678 1.45553E-04 2.71055E-06-3.30872E-24
 -1       679 1.45937E-04 2.61785E-06 0.00000E+00
 -1       680 1.46320E-04 2.52517E-06 0.00000E+00
 -1       771 1.76287E-05 9.23674E-06 0.00000E+00
 -1       772 1.02771E-05 2.48059E-05 0.00000E+00
 -1       773 4.18672E-06 3.71473E-05-5.29396E-23
 -1       774-7.27592E-07 4.64508E-05 0.00000E+00
 -1       775-4.54966E-06 5.29125E-05 5.29396E-23
 -1       776-7.36669E-06 5.67388E-05 0.00000E+00
 -1       777-9.26624E-06 5.81426E-05 0.00000E+00
 -1       778-1.03377E-05 5.73449E-05 0.00000E+00
 -1       779-1.06707E-05 5.45724E-05 0.00000E+00
 -1       780-1.03561E-05 5.00583E-05 0.00000E+00
 -1       781-9.48470E-06 4.40403E-05 0.00000E+00
 -1       782-8.14859E-06 3.67615E-05-2.64698E-23
 -1       783-6.43946E-06 2.84675E-05 5.29396E-23
 -1       784-4.44998E-06 1.94081E-05 0.00000E+00
 -1       785-2.27238E-06 9.83459E-06 0.00000E+00
 -1       786 1.48295E-04 1.62988E-05 1.03398E-25
 -1       787 1.48338E-04 1.51577E-05 0.00000E+00
 -1       788 1.48381E-04 1.40559E-05 0.00000E+00
 -1       789 1.48425E-04 1.29856E-05 0.00000E+00
 -1       790 1.48469E-04 1.19424E-05 1.65436E-24
 -1       791 1.48514E-04 1.09218E-05 0.00000E+00
 -1       792 1.48558E-04 9.92176E-06 0.00000E+00
 -1       793 1.48602E-04 8.94008E-06-8.27181E-25
 -1       794 1.48646E-04 7.97655E-06 1.65436E-24
 -1       795 1.48691E-04 7.03100E-06 0.00000E+00
 -1       796 1.48735E-04 6.10509E-06 1.65436E-24
 -1       797 1.48779E-04 5.20048E-06 8.27181E-25
 -1       798 1.48824E-04 4.32103E-06-1.65436E-24
 -1       799 1.48868E-04 3.47067E-06 8.27181E-25
 -1       800 1.48913E-04 2.65626E-06 0.00000E+00
 -1       801 1.19934E-04 1.54381E-05 0.00000E+00
 -1       802 3.37179E-05 1.01742E-05 1.32349E-23
 -1       803-4.36982E-05 5.49825E-06 0.00000E+00
 -1       804-4.62679E-05 3.68160E-06 2.64698E-23
 -1       805-1.66307E-05 1.70335E-06 5.29396E-23
 -1       806 1.48601E-04 1.62414E-05-1.65436E-24
 -1       807 1.48934E-04 1.50225E-05-8.27181E-25
 -1       808 1.49255E-04 1.38345E-05-1.65436E-24
 -1       809 1.49563E-04 1.26803E-05 0.00000E+00
 -1       810 1.49857E-04 1.15630E-05 1.65436E-24
 -1       811 1.50136E-04 1.04854E-05 8.27181E-25
 -1       812 1.50399E-04 9.45037E-06-1.65436E-24
 -1       813 1.50645E-04 8.46086E-06 8.27181E-25
 -1       814 1.50873E-04 7.51969E-06-1.65436E-24
 -1       815 1.51082E-04 6.62973E-06 8.27181E-25
 -1       816 1.51271E-04 5.79386E-06 3.30872E-24
 -1       817 1.51438E-04 5.01489E-06 8.27181E-25
 -1       818 1.51583E-04 4.29571E-06 1.65436E-24
 -1       819 1.51705E-04 3.63913E-06 8.27181E-25
 -1       820 1.51802E-04 3.04798E-06-3.30872E-24
 -1       821 1.48847E-04 1.03025E-06 0.00000E+00
 -1       822 1.48730E-04-3.10793E-08 0.00000E+00
 -1       823 1.48613E-04-1.17306E-06 0.00000E+00
 -1       824 1.48495E-04-2.26906E-06 0.00000E+00
 -1       825 1.48378E-04-3.20357E-06 0.00000E+00
 -1       826 1.48260E-04-3.86192E-06 0.00000E+00
 -1       827 1.48142E-04-4.19546E-06 3.30872E-24
 -1       828 1.48024E-04-4.15731E-06 1.65436E-24
 -1       829 1.47906E-04-3.78944E-06 0.00000E+00
 -1       830 1.47789E-04-3.13558E-06 0.00000E+00
 -1       831 1.47671E-04-2.30784E-06 3.30872E-24
 -1       832 1.47553E-04-1.41928E-06 0.00000E+00
 -1       833 1.47435E-04-5.97500E-07 0.00000E+00
 -1       834 1.47319E-04 3.02602E-08-8.27181E-25
 -1       835 1.47202E-04 3.83016E-07 0.00000E+00
 -1       836 1.49624E-04 1.99117E-06 0.00000E+00
 -1       837 1.50177E-04 2.10010E-06 0.00000E+00
 -1       838 1.50648E-04 2.20890E-06 3.30872E-24
 -1       839 1.51068E-04 2.31703E-06 0.00000E+00
 -1       840 1.51467E-04 2.42499E-06 0.00000E+00
 -1       856 1.47072E-04 2.67148E-07-4.13590E-25
 -1       857 1.47048E-04 2.75164E-07 5.16988E-26
 -1       858 1.47024E-04 3.86232E-07 4.13590E-25
 -1       859 1.47000E-04 5.81195E-07-4.13590E-25
 -1       860 1.46975E-04 8.40795E-07 0.00000E+00
 -1       861 1.46951E-04 1.14573E-06 0.00000E+00
 -1       862 1.46926E-04 1.47666E-06 8.27181E-25
 -1       863 1.46901E-04 1.81421E-06 0.00000E+00
 -1       864 1.46877E-04 2.13899E-06 8.27181E-25
 -1       865 1.46852E-04 2.43165E-06 0.00000E+00
 -1       866 1.46827E-04 2.67286E-06 0.00000E+00
 -1       867 1.46803E-04 2.84331E-06 0.00000E+00
 -1       868 1.46778E-04 2.92379E-06 0.00000E+00
 -1       869 1.46753E-04 2.89515E-06 4.13590E-25
 -1       870 1.46728E-04 2.73837E-06 0.00000E+00
 -1       871 1.47456E-04 3.78973E-07 4.13590E-25
 -1       872 1.47947E-04 3.73901E-07 0.00000E+00
 -1       873 1.48508E-04 3.68291E-07 0.00000E+00
 -1       874 1.49083E-04 3.62041E-07 0.00000E+00
 -1       875 1.49613E-04 3.55246E-07 8.27181E-25
 -1       876 1.47248E-04 2.79340E-07 3.30872E-24
 -1       877 1.47383E-04 2.37089E-07 0.00000E+00
 -1       878 1.47499E-04 2.47330E-07 0.00000E+00
 -1       879 1.47598E-04 3.03429E-07-1.65436E-24
 -1       880 1.47682E-04 3.98699E-07 0.00000E+00
 -1       881 1.47754E-04 5.26500E-07 1.65436E-24
 -1       882 1.47817E-04 6.80206E-07 0.00000E+00
 -1       883 1.47872E-04 8.53196E-07 0.00000E+00
 -1       884 1.47922E-04 1.03885E-06 3.30872E-24
 -1       885 1.47971E-04 1.23057E-06 0.00000E+00
 -1       886 1.48019E-04 1.42173E-06 0.00000E+00
 -1       887 1.48070E-04 1.60570E-06-1.65436E-24
 -1       888 1.48126E-04 1.77586E-06 0.00000E+00
 -1       889 1.48189E-04 1.92544E-06 0.00000E+00
 -1       890 1.48261E-04 2.04786E-06 0.00000E+00
 -1       891 1.47106E-04 2.38427E-06 1.65436E-24
 -1       892 1.47488E-04 2.33388E-06-8.27181E-25
 -1       893 1.47826E-04 2.28353E-06 0.00000E+00
 -1       894 1.48096E-04 2.23336E-06 0.00000E+00
 -1       895 1.48276E-04 2.18333E-06-4.13590E-25
 -1       956 1.51763E-04 2.14509E-06 1.65436E-24
 -1       957 1.51649E-04 1.83922E-06 0.00000E+00
 -1       958 1.51534E-04 1.59895E-06 1.65436E-24
 -1       959 1.51419E-04 1.41531E-06 0.00000E+00
 -1       960 1.51304E-04 1.27932E-06-3.30872E-24
 -1       961 1.51189E-04 1.18195E-06-1.65436E-24
 -1       962 1.51074E-04 1.11417E-06-3.30872E-24
 -1       963 1.50958E-04 1.06695E-06 0.00000E+00
 -1       964 1.50843E-04 1.03125E-06 0.00000E+00
 -1       965 1.50728E-04 9.98028E-07-1.65436E-24
 -1       966 1.50613E-04 9.58240E-07-3.30872E-24
 -1       967 1.50498E-04 9.02851E-07 0.00000E+00
 -1       968 1.50383E-04 8.22826E-07-3.30872E-24
 -1       969 1.50268E-04 7.09160E-07 0.00000E+00
 -1       970 1.50154E-04 5.52862E-07-3.30872E-24
 -1       971 1.49936E-04 1.48085E-07-1.65436E-24
 -1       972 1.49829E-04 3.89792E-08 8.27181E-25
 -1       973 1.49722E-04 8.25937E-09 0.00000E+00
 -1       974 1.49616E-04 4.58232E-08 0.00000E+00
 -1       975 1.49509E-04 1.41576E-07 0.00000E+00
 -1       976 1.49402E-04 2.85387E-07 0.00000E+00
 -1       977 1.49295E-04 4.67122E-07 3.30872E-24
 -1       978 1.49188E-04 6.76634E-07 0.00000E+00
 -1       979 1.49081E-04 9.03772E-07 3.30872E-24
 -1       980 1.48975E-04 1.13839E-06 1.65436E-24
 -1       981 1.48868E-04 1.37032E-06 3.30872E-24
 -1       982 1.48761E-04 1.58941E-06-1.65436E-24
 -1       983 1.48654E-04 1.78552E-06 0.00000E+00
 -1       984 1.48548E-04 1.94851E-06 0.00000E+00
 -1       985 1.48443E-04 2.06824E-06 0.00000E+00
 -3
    1PSTEP                        24          12           1          
  100CL  112 5.96191E-01         409                     0   12           1
 -4  STRESS      6    1
 -5  SXX         1    4    1    1
 -5  SYY         1    4    2    2
 -5  SZZ         1    4    3    3
 -5  SXY         1    4    1    2
 -5  SYZ         1    4    2    3
 -5  SZX         1    4    3    1
 -1         1-3.48139E+06-1.35939E+06-7.59221E+05-1.46454E+06-4.80213E-10 4.35393E-08
 -1         2 1.37195E+03-1.35669E+06 4.51410E+03 6.06877E+03 4.23924E-10-5.74349E-08
 -1         3-7.09022E+02-1.45003E+06 3.50609E+02-1.42779E+03-1.53996E-10-2.69029E-08
 -1         5-9.34764E+00 3.25288E+05 8.31967E+00-3.19438E-01-1.88452E-10 4.38786E-08
 -1         8-9.63515E+05-3.20316E+05-1.07310E+05-3.10795E+05-4.12911E-10-2.60479E-09
 -1         9 2.04661E+06-7.26462E+05 4.24452E+05-7.20281E+05 2.17464E-08-4.88944E-10
 -1        10-1.61205E+03-1.51084E+06-2.91300E+03-9.65302E+03-9.41873E-09-5.05537E-08
 -1        12-5.94662E+00 3.25305E+05 2.69865E+02-2.34070E+00-2.44803E-10 2.12672E-08
 -1        15 1.57383E+03 8.64911E+02 5.08741E+03 2.79420E+00-6.47162E-11 5.92000E-08
 -1        16 6.24538E+06-5.64510E+05 8.99981E+05-1.07721E+06 1.74041E-08 8.05206E-08
 -1        17 2.00927E+06 1.30682E+06 5.77817E+05 1.40454E+06 8.68749E-09 2.11119E-08
 -1        18 4.10469E+04 6.31397E+03-1.58479E+04-9.44396E+04 1.10028E-08 2.74440E-09
 -1        19 1.04374E+05 1.20067E+05-8.46989E+02 1.98916E+04 5.35329E-10 2.27301E-09
 -1        20-6.05094E+04-4.92368E+05-1.09799E+05 2.71142E+04 1.13596E-09 1.04634E-08
 -1        21-4.25591E+01-2.66199E+05-8.42176E+02 7.03493E+01 3.68494E-09-2.20252E-08
 -1        24 2.95391E+06 3.05137E+06 1.08383E+06 2.69534E+06-9.16431E-08-3.88633E-08
 -1        25-4.11913E+04-3.45652E+05-5.68255E+04-3.04763E+05-1.20654E-09 9.62154E-09
 -1        26-4.33932E+04 7.78981E+04-2.06335E+04-2.34527E+03 1.18707E-09-2.41610E-09
 -1        27-6.95024E+04-2.67265E+05-9.87921E+04 5.99861E+04 4.83775E-09 2.56478E-09
 -1        28 2.02977E+04-7.54954E+04 1.51454E+04 2.04677E+04-3.33102E-10-3.44640E-09
 -1        32-1.49420E+06-2.55880E+06-1.21969E+05-1.47998E+05-3.15267E-08-5.83952E-09
 -1        33-1.55794E+05 7.81851E+04 2.76887E+04-3.52061E+04-1.14361E-09-6.18699E-09
 -1        34-1.95712E+05-2.07038E+04 5.52910E+02 6.36699E+04-8.74958E-10 4.72831E-09
 -1        35-2.07691E+04-2.99686E+04-1.18679E+03 4.63541E+04 6.90363E-10 5.74922E-09
 -1        51 3.73586E+04-2.68177E+05 8.32623E+04-7.70960E+05 1.16415E-10-6.50034E-08
 -1        52 1.49721E+04-2.56736E+05 4.68647E+04-8.98952E+05 9.09495E-10-6.90925E-08
 -1        53 5.85112E+03-2.71553E+05 2.94697E+04-7.68182E+05 7.27596E-10-9.56497E-08
 -1        54 1.49227E+04-2.68708E+05 3.44336E+04-9.01842E+05 1.16415E-10-1.22458E-07
 -1        55 3.06238E+04-2.80069E+05 5.38185E+04-7.67758E+05 5.52973E-10-1.44973E-08
 -1        56-6.60841E+06-7.41993E+05-5.60661E+05-2.57020E+06 9.89530E-10-1.08819E-07
 -1        57-6.90438E+06-1.18022E+06-3.78245E+05-2.46719E+06 1.54050E-08 2.29920E-08
 -1        58-6.70810E+06-9.33136E+05-1.31760E+05-2.54945E+06-1.01245E-08 3.53975E-08
 -1        59-6.79197E+06-9.52976E+05-7.86201E+04-2.48881E+06-5.01268E-09-9.67193E-08
 -1        60-6.71919E+06-9.63143E+05-3.06751E+04-2.55053E+06-9.20954E-09-3.07409E-09
 -1        61-6.77625E+06-9.20543E+05-1.74079E+04-2.49063E+06 1.53354E-08 2.30675E-08
 -1        62-6.72347E+06-9.64735E+05-8.31558E+03-2.54784E+06-2.89127E-08 3.88209E-08
 -1        63-6.76368E+06-9.26657E+05-6.69851E+03-2.50203E+06 1.28057E-08 5.43496E-08
 -1        64-6.73148E+06-9.57082E+05-7.64277E+03-2.53899E+06-1.44041E-08-4.65923E-08
 -1        65-6.74671E+06-9.48220E+05-1.50870E+04-2.52252E+06 1.37443E-08-7.24343E-08
 -1        66-6.74029E+06-9.43383E+05-2.66177E+04-2.52718E+06-5.56065E-09 3.27509E-08
 -1        67-6.74235E+06-9.94216E+05-6.76428E+04-2.54187E+06-6.16637E-10-6.18111E-08
 -1        68-6.73627E+06-9.11716E+05-1.13451E+05-2.51956E+06-1.73095E-08-3.23707E-08
 -1        69-6.83722E+06-1.19255E+06-3.25614E+05-2.52710E+06 4.70027E-09-3.10865E-08
 -1        70-6.64735E+06-7.50017E+05-4.82635E+05-2.54064E+06 6.99947E-09 1.38825E-08
 -1        86-7.08299E+02-1.35947E+06 4.55518E+03-3.03439E+03-1.74077E-09-3.18948E-08
 -1        87 4.48880E+03-1.35563E+06 9.79771E+03 1.06324E+04-3.07625E-09 6.24841E-08
 -1        88-3.78136E+03-1.36056E+06 1.48585E+04-7.59810E+03-3.29601E-09 9.14736E-08
 -1        89 2.81111E+04-1.34524E+06 4.00933E+04 1.59905E+04-4.95629E-09-6.25901E-09
 -1        90-2.42082E+04-1.36988E+06 5.66916E+04-8.39284E+03-3.36877E-09 8.84009E-08
 -1       121-9.91205E+02-1.45249E+06-8.04172E+01 7.10652E+02 1.03603E-09-1.20963E-08
 -1       122-5.69413E+02-1.45002E+06 7.14491E+02-2.85299E+03-3.81680E-09 2.62662E-09
 -1       123-1.04221E+03-1.45259E+06 7.19254E+02 2.12303E+03 2.95859E-09-5.40240E-09
 -1       124 8.61409E+02-1.44939E+06 2.87854E+03-6.00047E+03-7.36418E-09-2.32685E-08
 -1       125-1.86072E+03-1.45338E+06 3.92958E+03 3.84388E+03 4.47471E-09-2.94240E-08
 -1       191-1.00879E+01 3.25315E+05 9.77570E+00 1.61094E-01-2.03455E-10 3.21079E-08
 -1       192-1.01145E+01 3.25288E+05 1.76229E+01-1.20322E+00-2.58888E-10 1.04228E-08
 -1       193-1.21254E+01 3.25314E+05 3.26091E+01 1.05124E+00-3.62787E-10 1.41063E-08
 -1       194-1.25815E+01 3.25291E+05 6.66751E+01-2.79861E+00-2.11273E-10 1.29285E-08
 -1       195-1.60402E+01 3.25312E+05 1.30253E+02 1.77033E+00-5.65244E-10 1.43436E-08
 -1       251-2.34771E+06 4.17150E+03-1.88413E+05-1.89592E+05-2.28829E-09-2.73794E-08
 -1       252-1.65881E+06-4.67257E+03 6.78381E+03 5.15109E+05 7.94159E-09 5.24587E-08
 -1       253-2.10478E+06 1.57851E+04-4.36064E+04-2.40820E+05-1.18871E-09-1.85264E-08
 -1       254-1.23938E+06 2.60224E+04 1.41190E+05 3.10847E+05 4.57658E-09-6.49943E-08
 -1       255-2.73789E+06-5.62562E+04-1.58585E+05 1.49692E+04 1.04556E-08 1.52688E-07
 -1       256-1.16308E+06 4.58859E+04 1.71506E+05-2.18702E+05-1.68438E-09 4.40295E-08
 -1       257-2.17505E+06-9.97140E+03-3.31536E+04 2.86543E+05-3.81988E-11 9.57383E-08
 -1       258-1.69494E+06 4.33595E+04 7.12468E+04-4.76545E+05 4.10012E-10-2.60300E-08
 -1       259-2.24265E+06-1.65745E+04-4.63111E+04 2.75026E+05-1.70457E-08-3.92026E-08
 -1       260-1.10583E+06 4.77031E+04 1.86473E+05-1.76296E+05 6.75618E-09-6.36373E-08
 -1       261-2.72381E+06-5.50947E+04-1.48123E+05-1.59299E+04-3.02862E-09 8.55596E-09
 -1       262-1.30084E+06 3.18503E+04 1.45756E+05 3.48894E+05 3.49792E-08-3.72961E-08
 -1       263-2.06195E+06 1.33490E+04-5.08309E+03-2.47903E+05-1.42763E-08 1.19467E-07
 -1       264-1.60658E+06 5.11813E+04 8.98654E+04 5.03984E+05-8.73010E-08 6.20601E-08
 -1       265-2.44072E+06-5.12196E+04-9.38888E+04-1.71322E+05-3.23034E-08-2.92442E-08
 -1       266-2.84913E+04-1.33218E+04 6.68521E+04-5.97900E+01 2.11003E-10 2.35767E-08
 -1       267 3.30296E+04 1.55280E+04 4.72484E+04 6.89823E+01 2.45564E-11-1.19901E-07
 -1       268-4.42920E+03-2.19913E+03 1.75621E+04-8.78974E+00 8.45830E-11-5.53664E-08
 -1       269 5.22960E+03 2.63196E+03 1.14150E+04 1.02385E+01-1.59162E-10-8.95919E-08
 -1       270-7.84970E+02-4.32449E+02 5.51018E+03-1.38945E+00 1.81899E-11 5.16672E-08
 -1       271-2.59705E+06-3.19232E+05-1.94414E+05-1.00342E+06 8.62201E-09 6.10962E-08
 -1       272-2.69821E+06-4.30832E+05-1.25162E+05-9.67230E+05-1.26490E-08 3.81278E-08
 -1       273-2.63303E+06-3.68494E+05-4.58983E+04-9.95416E+05 1.94268E-08-3.28146E-08
 -1       274-2.65547E+06-3.70872E+05-2.57382E+04-9.79549E+05-2.76170E-08-4.27772E-08
 -1       275-2.63861E+06-3.73101E+05-1.07006E+04-9.93283E+05 1.82931E-08 3.93547E-08
 -1       276-2.64765E+06-3.66459E+05-5.64229E+03-9.83526E+05-8.11542E-09-1.83081E-08
 -1       277-2.64060E+06-3.72359E+05-2.79940E+03-9.91571E+05-1.65128E-08 3.99637E-08
 -1       278-2.64401E+06-3.68690E+05-1.88536E+03-9.86966E+05 1.25269E-08 5.69407E-08
 -1       279-2.64216E+06-3.70864E+05-2.02500E+03-9.89808E+05-1.52631E-08 1.72274E-08
 -1       280-2.64121E+06-3.72152E+05-3.45293E+03-9.90446E+05 3.34876E-09-6.69493E-08
 -1       281-2.64340E+06-3.68933E+05-6.36346E+03-9.88075E+05 8.57654E-09-4.82726E-09
 -1       282-2.64113E+06-3.79326E+05-1.50362E+04-9.93398E+05-9.49740E-09 2.69475E-08
 -1       283-2.64237E+06-3.64023E+05-2.68355E+04-9.86769E+05-2.13731E-09 2.93467E-08
 -1       284-2.66181E+06-4.18570E+05-7.30114E+04-9.91134E+05-5.38785E-09-6.45523E-08
 -1       285-2.62342E+06-3.33256E+05-1.13504E+05-9.89111E+05-1.82445E-08 4.91782E-08
 -1       301 2.13854E+04-2.87958E+05 1.75292E+05-5.30549E+05 3.20142E-10-5.67852E-08
 -1       302 2.28614E+04-2.43861E+05 1.09953E+05-7.76249E+05-7.38510E-10 4.67821E-08
 -1       303-6.47400E+02-2.71166E+05 7.46920E+04-5.29356E+05 1.85537E-10 4.58585E-08
 -1       304 1.75373E+04-2.44752E+05 9.69902E+04-7.75659E+05 2.51021E-10-2.32249E-08
 -1       305 1.45795E+04-2.80836E+05 1.46180E+05-5.31161E+05 2.54659E-10-3.84898E-09
 -1       306-1.48802E+07-2.51450E+06-3.30349E+06-1.95887E+06-4.17931E-08-8.32370E-08
 -1       307 7.04312E+06-1.18485E+06 1.85138E+06-6.78678E+06-4.88464E-07-1.10012E-07
 -1       308-8.08528E+06 2.56266E+05-3.35666E+05 1.56305E+06-8.08795E-08 8.43274E-08
 -1       309-3.25500E+06-5.70348E+05 5.59325E+05-1.12264E+07 2.29455E-07-3.74766E-08
 -1       310-8.64368E+06 1.54560E+05-4.06744E+05 1.41261E+06-1.88884E-08-1.23297E-07
 -1       311 8.31213E+06-1.56201E+06 2.23784E+06-5.79041E+06 4.18935E-07-2.47404E-07
 -1       312-1.49947E+07-2.50506E+06-2.76516E+06-2.52481E+06 9.98843E-08 4.48199E-08
 -1       313 1.33420E+07 2.82572E+06 3.71262E+06 5.39446E+06-5.21541E-08 7.20029E-08
 -1       314-1.11676E+07-5.92553E+06-2.65774E+06-6.09625E+06 1.94414E-07-1.19209E-07
 -1       315-3.23661E+06 8.97467E+06 2.07836E+06 4.88234E+06 7.99264E-08-1.11584E-07
 -1       316-2.77082E+06-5.20104E+06-2.76628E+05-4.34229E+06-5.33139E-07-2.78218E-07
 -1       317-1.32308E+07 9.37484E+06 5.42292E+05-5.53870E+05 4.36376E-07-4.00927E-07
 -1       318-3.00623E+06-5.31123E+06-4.89403E+05-4.41443E+06-5.06494E-07-3.19706E-08
 -1       319-2.40421E+06 9.20618E+06 1.94139E+06 5.06418E+06-8.04794E-08 1.23997E-07
 -1       320-1.16214E+07-6.14101E+06-3.51701E+06-6.00586E+06 1.10245E-07-2.61243E-08
 -1       336 2.78549E+02-1.57237E+06-1.08130E+04 5.75352E+03-1.84709E-08 1.78661E-08
 -1       337-4.11349E+03-1.57349E+06-1.34674E+04-1.39524E+04-3.41311E-08 1.90284E-08
 -1       338 6.16190E+02-1.57219E+06-1.98494E+04 8.11032E+03-2.42990E-08 1.74732E-08
 -1       339-2.10456E+04-1.58476E+06-4.46843E+04-1.85500E+04-4.36885E-08 2.69793E-08
 -1       340 1.40748E+04-1.56210E+06-6.99254E+04 1.02871E+04-2.85800E-08 4.43288E-08
 -1       406 1.45024E+01 3.25300E+05 5.32599E+02 6.04386E-01-6.47418E-10 2.05864E-08
 -1       407 1.79832E+02 3.25399E+05 1.13231E+03 8.90790E+00-1.95044E-10 2.89911E-08
 -1       408 5.76813E+02 3.25218E+05 2.26120E+03-9.76014E+00-1.00238E-09 2.86936E-08
 -1       409 2.43965E+03 3.26121E+05 5.09087E+03 9.89841E+01-1.96877E-10 2.04091E-08
 -1       410 7.02015E+03 3.24575E+05 1.03926E+04-9.40695E+01-1.09958E-09 1.69739E-08
 -1       521-1.69866E+07-3.19855E+06-4.10007E+06-2.01204E+06-6.32717E-08 2.15950E-08
 -1       522 7.74401E+06-1.28368E+06 1.98856E+06-8.76789E+06-3.59607E-07-1.82692E-07
 -1       523-9.44520E+06 1.65263E+05-3.93325E+05 1.92051E+06-1.06520E-08-1.75667E-07
 -1       524-4.94714E+06 1.72221E+05 6.60934E+05-1.38520E+07 4.18420E-07-3.45586E-07
 -1       525-1.01190E+07 6.59164E+03-4.84395E+05 1.74340E+06 2.65514E-07-1.27024E-07
 -1       526 9.53395E+06-1.78336E+06 2.52452E+06-7.48829E+06 1.73168E-07-2.11294E-08
 -1       527-1.71628E+07-3.27367E+06-3.37852E+06-2.69383E+06 2.44647E-07 8.49832E-09
 -1       528 1.56242E+07 3.19197E+06 4.14359E+06 6.48816E+06 4.28408E-08 6.59056E-08
 -1       529-1.26958E+07-7.27118E+06-3.24376E+06-6.82993E+06 1.44530E-07-1.00001E-07
 -1       530-4.67614E+06 1.12396E+07 2.35449E+06 5.48533E+06-1.21974E-07 2.46277E-07
 -1       531-3.19559E+06-6.32993E+06-3.16155E+05-5.00391E+06-4.52652E-07 1.30938E-07
 -1       532-1.63940E+07 1.15933E+07 6.64539E+05-1.75683E+06 3.59367E-07-3.12612E-07
 -1       533-3.40616E+06-6.43828E+06-5.36952E+05-5.05702E+06-3.43425E-09-5.95552E-07
 -1       534-3.85836E+06 1.15477E+07 2.19950E+06 5.65148E+06-1.38134E-07 4.25440E-07
 -1       535-1.31555E+07-7.56356E+06-4.18471E+06-6.72238E+06 3.98140E-08 2.74114E-07
 -1       536-5.42330E+05-3.53789E+04 6.13649E+03-3.32487E+04-5.50745E-09 4.19095E-08
 -1       537-2.13510E+05 3.62067E+04 6.14972E+04 8.04429E+04-8.91137E-08 7.02385E-08
 -1       538-3.84898E+05-1.58620E+02 9.56531E+03-4.90296E+04 2.93272E-08 7.19128E-08
 -1       539-3.22687E+05 3.16693E+03 1.67837E+04 9.23070E+04 1.26264E-07 7.44376E-08
 -1       540-4.35728E+05-2.44793E+02-8.54553E+03-4.52883E+04 4.31805E-09 7.74714E-08
 -1       541-1.15864E+05 8.58257E+03 5.38880E+04 6.08279E+04-2.62398E-08 6.74416E-08
 -1       542-5.86177E+05-1.01414E+04-4.15229E+04-1.72566E+04 3.58527E-08 3.61905E-08
 -1       543 9.49436E+03 1.35715E+04 7.79716E+04-9.78481E+03 4.76575E-09-8.00446E-09
 -1       544-5.57753E+05-7.96730E+03-3.67262E+04 2.50890E+04-1.59348E-08-3.11895E-08
 -1       545-1.80833E+05 4.04320E+03 3.76235E+04-7.37958E+04-1.15818E-08-4.47999E-08
 -1       546-4.00906E+05 3.53409E+03-6.83213E+03 4.66482E+04 4.36137E-09-5.81931E-08
 -1       547-3.34397E+05-4.38845E+03 1.37612E+03-9.45493E+04-1.03643E-07-8.05577E-08
 -1       548-4.08257E+05 3.81424E+03-1.74358E+04 4.60755E+04-9.08424E-08-6.36892E-08
 -1       549-1.68169E+05-2.69189E+03 1.54710E+04-7.07640E+04-4.52821E-08-4.53365E-08
 -1       550-5.62625E+05-1.88193E+03-8.53095E+04 2.26138E+04 4.70982E-09-1.86919E-08
 -1       551 2.88077E+04-7.11075E+05 1.25531E+04-1.11207E+06-7.39528E-08 9.40054E-09
 -1       552 6.43320E+04-7.36314E+05 2.58206E+04-1.58523E+06-5.39439E-08 2.62153E-08
 -1       553 4.77111E+04-7.38821E+05 4.25963E+04-1.10712E+06-8.67149E-08 4.93310E-09
 -1       554 9.60902E+04-7.41075E+05 9.32713E+04-1.58706E+06-5.46279E-08-4.88672E-09
 -1       555 7.69816E+04-7.59729E+05 1.66558E+05-1.10759E+06-8.96398E-08-1.50212E-08
 -1       556 1.58532E+05-2.82942E+05 5.65001E+04-3.28831E+05-1.86701E-08-1.80735E-08
 -1       557 2.63755E+05-3.67523E+05 3.08509E+04-4.19068E+05-1.30967E-10 1.13232E-08
 -1       558 1.50139E+05-2.85669E+05 1.06297E+04-3.25677E+05-1.23109E-08-1.11104E-08
 -1       559 2.45084E+05-3.73458E+05 5.96010E+03-4.31222E+05 1.58034E-08-2.54659E-09
 -1       560 1.41675E+05-2.80294E+05 1.38156E+03-3.31574E+05 1.93395E-08-2.00453E-09
 -1       561 2.34002E+05-3.69353E+05 1.14847E+03-4.38579E+05 2.88710E-08 6.56291E-09
 -1       562 1.35009E+05-2.76083E+05-1.33618E+02-3.36363E+05 9.12405E-09 6.84850E-09
 -1       563 2.26145E+05-3.65929E+05 2.67060E+02-4.43663E+05-7.71252E-09-5.85169E-09
 -1       564 1.30427E+05-2.73209E+05-1.21224E+02-3.39599E+05 8.36735E-10-1.71681E-08
 -1       565 2.21243E+05-3.63797E+05 1.09183E+02-4.46780E+05 4.94765E-09-8.86484E-09
 -1       566 1.28006E+05-2.71668E+05-5.88006E+01-3.41297E+05-2.85945E-09-6.84304E-09
 -1       567 2.19284E+05-3.62937E+05-1.62162E+02-4.47919E+05 1.48648E-08 1.38098E-08
 -1       568 1.27805E+05-2.71557E+05-6.15941E+02-3.41532E+05 8.62201E-10 8.28732E-09
 -1       569 2.19196E+05-3.62902E+05-1.54992E+03-4.46196E+05-3.43425E-09 1.75933E-08
 -1       570 1.30681E+05-2.74060E+05-3.50683E+03-3.40879E+05 7.39965E-09 5.93991E-09
 -1       571 2.46245E+05 8.99118E+03 1.31066E+04-7.04745E+04 3.30419E-09 1.01220E-08
 -1       572 2.48174E+05 3.24140E+03 6.42219E+03-7.73108E+04 2.93221E-09-3.43221E-09
 -1       573 2.47016E+05 8.85416E+02 2.85337E+03-7.03293E+04 3.16868E-09 9.10404E-09
 -1       574 2.47229E+05 4.08119E+02 1.43026E+03-7.74847E+04 8.16044E-10-2.02608E-08
 -1       575 2.47103E+05 1.85742E+02 6.74749E+02-7.03098E+04-7.57268E-10-1.38971E-09
 -1       576 2.47107E+05 1.75958E+02 3.44779E+02-7.75079E+04-4.66514E-09-5.35692E-10
 -1       577 2.47127E+05 1.41457E+02 1.71718E+02-7.03071E+04-4.34557E-09-9.45147E-09
 -1       578 2.47113E+05 1.53875E+02 9.78579E+01-7.75110E+04-4.31646E-09 3.03226E-09
 -1       579 2.47164E+05 1.24945E+02 6.63788E+01-7.03069E+04 2.21280E-09 2.34741E-09
 -1       580 2.47165E+05 1.29479E+02 7.42108E+01-7.75070E+04-2.76941E-09 3.94266E-09
 -1       581 2.47223E+05 9.76411E+01 1.12017E+02-7.03112E+04 5.92263E-09-9.40236E-09
 -1       582 2.47263E+05 1.22796E+02 2.24546E+02-7.74618E+04 2.29738E-09-2.87037E-09
 -1       583 2.47292E+05 1.57409E+02 4.33916E+02-7.03523E+04 5.91172E-10 8.17249E-09
 -1       584 2.47510E+05 5.05692E+02 9.78127E+02-7.71164E+04 1.80262E-09-1.84773E-08
 -1       585 2.47265E+05 1.35296E+03 1.98538E+03-7.06566E+04-1.00044E-10-2.34468E-09
 -1       586-3.03309E+03 8.74009E+04-3.30067E+03-2.17754E+05-2.86127E-09-3.39878E-09
 -1       587-8.91392E+02 8.70330E+04 1.85762E+02-2.39677E+05-2.41198E-09-6.80757E-09
 -1       588 6.53854E+02 8.70020E+04 3.70331E+03-2.17648E+05-3.16868E-09-6.88306E-09
 -1       589 4.56483E+03 8.89761E+04 1.00199E+04-2.39438E+05-5.33691E-09-1.60944E-08
 -1       590 1.39866E+04 8.59005E+04 2.11815E+04-2.18022E+05-3.47063E-09-9.37689E-09
 -1       591-5.47700E+04-1.30547E+04-1.78829E+04-2.49695E+04 1.61617E-09-1.58379E-08
 -1       592-5.75598E+04-1.63342E+04-9.68657E+03-2.83656E+04-6.39204E-10 4.93003E-09
 -1       593-5.65624E+04-1.17530E+04-4.03221E+03-2.62769E+04 1.39954E-09 4.65820E-09
 -1       594-5.50845E+04-1.37168E+04-2.01103E+03-2.84672E+04-2.61832E-09 1.62054E-08
 -1       595-5.66993E+04-1.17483E+04-9.23570E+02-2.63364E+04 7.93676E-10 1.56137E-08
 -1       596-5.49155E+04-1.35971E+04-4.69863E+02-2.84478E+04 7.39878E-09 4.75134E-09
 -1       597-5.67165E+04-1.17604E+04-2.56607E+02-2.63387E+04-1.02432E-09 1.19371E-11
 -1       598-5.48989E+04-1.35925E+04-2.07667E+02-2.84423E+04 1.65244E-10 4.73437E-09
 -1       599-5.67153E+04-1.17607E+04-2.66993E+02-2.63383E+04 2.14288E-09 7.97013E-09
 -1       600-5.49160E+04-1.35980E+04-4.97364E+02-2.84464E+04 2.01089E-09-1.12173E-08
 -1       601-5.66949E+04-1.17488E+04-9.81899E+02-2.63352E+04-1.89038E-09-6.10146E-09
 -1       602-5.50956E+04-1.37247E+04-2.14032E+03-2.84641E+04-4.11956E-09 1.26604E-08
 -1       603-5.65470E+04-1.17562E+04-4.29242E+03-2.62724E+04 2.88765E-11 6.68661E-09
 -1       604-5.77444E+04-1.64955E+04-1.03112E+04-2.83362E+04 1.39721E-10-1.03121E-08
 -1       605-5.46227E+04-1.31560E+04-1.90362E+04-2.48960E+04 2.02709E-09-9.87984E-09
 -1       606 2.71217E+04-1.19200E+04-2.14025E+04 2.55828E+04 1.44246E-09-3.97813E-09
 -1       607 2.34614E+04-3.87528E+03-1.06578E+04 2.87308E+04 1.02227E-09-1.25292E-08
 -1       608 2.55423E+04-6.82468E+02-4.77196E+03 2.53881E+04-1.14414E-09 1.04308E-08
 -1       609 2.51366E+04-2.12826E+02-2.41040E+03 2.89570E+04-1.13687E-10 1.27930E-08
 -1       610 2.53572E+04-8.82399E+00-1.15066E+03 2.53658E+04-8.03993E-10 1.89789E-09
 -1       611 2.52876E+04-1.93031E+00-5.80134E+02 2.89816E+04-1.04501E-09 4.37694E-09
 -1       612 2.53118E+04 6.44560E+00-2.76465E+02 2.53636E+04-1.83445E-09 3.28600E-09
 -1       613 2.52909E+04 5.04595E+00-1.24436E+02 2.89845E+04-2.85945E-09-5.22436E-09
 -1       614 2.52884E+04 4.23775E+00-3.08623E+01 2.53628E+04-1.19780E-09 8.81482E-09
 -1       615 2.52814E+04 9.06916E+00 4.83466E+01 2.89849E+04 6.73026E-11 2.74454E-08
 -1       616 2.52703E+04 9.13235E+00 1.48435E+02 2.53631E+04-1.95919E-08 7.22594E-10
 -1       617 2.52955E+04 4.29851E+01 3.40165E+02 2.89844E+04-3.80444E-08-6.25619E-09
 -1       618 2.52380E+04 1.08949E+02 6.86119E+02 2.53633E+04-1.51695E-08 5.04542E-09
 -1       619 2.55355E+04 5.74928E+02 1.54111E+03 2.89836E+04 1.44598E-09-9.90735E-09
 -1       620 2.50087E+04 1.73721E+03 3.09764E+03 2.53630E+04 2.78419E-10-4.40787E-09
 -1       621 3.29384E+02 2.52372E+05 2.87136E+03 2.39063E+04 4.37922E-10 1.12832E-08
 -1       622 4.15549E+02 2.53063E+05 2.63801E+03 3.47529E+04 3.91765E-10 3.11047E-09
 -1       623 4.77055E+01 2.52528E+05 3.29067E+03 2.37946E+04 5.90603E-10-1.74850E-09
 -1       624 1.61050E+03 2.54121E+05 6.47548E+03 3.48652E+04 7.40698E-10-5.64330E-09
 -1       625 1.60584E+03 2.51249E+05 1.13628E+04 2.37918E+04 6.09361E-10-3.67174E-09
 -1       626 2.21916E+05 5.59829E+04 4.69422E+03 1.12478E+05-7.38919E-09-2.14677E-08
 -1       627 2.19571E+05 5.74842E+04 2.26208E+03 1.16638E+05 1.75396E-09-1.64893E-08
 -1       628 2.22047E+05 5.38160E+04 9.56151E+02 1.13252E+05-2.56478E-09-2.30580E-09
 -1       629 2.18960E+05 5.68859E+04 4.68052E+02 1.16881E+05-3.50155E-11 2.90439E-09
 -1       630 2.22058E+05 5.37127E+04 2.16574E+02 1.13280E+05 2.60206E-09 6.31846E-09
 -1       631 2.18892E+05 5.68660E+04 1.15904E+02 1.16882E+05 1.44564E-09-1.11584E-10
 -1       632 2.22052E+05 5.37184E+04 7.51348E+01 1.13274E+05-4.12911E-10-1.79773E-09
 -1       633 2.18880E+05 5.68698E+04 8.19596E+01 1.16876E+05-8.89941E-10-6.18434E-09
 -1       634 2.22044E+05 5.37178E+04 1.30888E+02 1.13271E+05 6.37783E-10-1.56228E-09
 -1       635 2.18889E+05 5.68698E+04 2.63966E+02 1.16878E+05-1.01352E-09 8.91851E-09
 -1       636 2.22033E+05 5.37146E+04 5.32587E+02 1.13269E+05-5.04713E-10 1.35765E-08
 -1       637 2.19002E+05 5.69532E+04 1.17050E+03 1.16876E+05-6.45650E-09-1.04474E-08
 -1       638 2.21990E+05 5.39740E+04 2.40503E+03 1.13151E+05-5.72163E-09 4.04725E-11
 -1       639 2.20265E+05 5.87099E+04 5.68996E+03 1.16502E+05-1.03209E-08 6.17774E-10
 -1       640 2.21819E+05 5.92163E+04 1.18077E+04 1.10935E+05-7.41011E-09-1.11374E-08
 -1       656 5.77302E+04-1.47129E+06-1.39361E+05-1.17864E+03 2.47383E-10 2.87085E-09
 -1       657-7.63436E+04-1.53424E+06-1.15386E+05 6.73306E+03 5.82077E-11-1.27271E-08
 -1       658 1.83732E+04-1.48920E+06-7.09808E+04-2.84169E+03 4.27463E-10 1.07609E-08
 -1       659-8.23279E+04-1.53708E+06-1.23247E+05 8.00030E+03-9.04038E-10 8.44885E-09
 -1       660 6.37008E+04-1.46846E+06-1.52879E+05-2.44587E+03-1.15688E-09-7.50134E-10
 -1       661 1.63333E+05 1.74363E+04 1.64875E+04 6.38657E+04 2.75531E-09 1.55269E-08
 -1       662 1.72351E+05 2.99440E+04 1.11106E+04 6.05125E+04 1.26875E-09-1.04795E-08
 -1       663 1.66569E+05 2.27271E+04 3.88618E+03 6.29279E+04 2.32944E-10 1.45656E-09
 -1       664 1.68601E+05 2.37546E+04 2.32416E+03 6.16562E+04 1.20309E-10-1.48429E-08
 -1       665 1.67058E+05 2.34518E+04 9.16862E+02 6.27873E+04 1.43473E-10-1.77131E-08
 -1       666 1.68025E+05 2.29241E+04 5.35815E+02 6.18385E+04-6.10441E-10 1.26661E-08
 -1       667 1.67142E+05 2.35358E+04 2.83823E+02 6.27535E+04 2.10434E-09 1.48143E-08
 -1       668 1.67933E+05 2.28615E+04 2.87379E+02 6.18876E+04-1.28392E-09-1.24595E-08
 -1       669 1.67149E+05 2.35126E+04 3.87591E+02 6.27387E+04-1.37419E-10-9.55814E-09
 -1       670 1.68028E+05 2.30702E+04 8.42597E+02 6.18894E+04 7.47882E-10-4.07783E-09
 -1       671 1.67047E+05 2.33314E+04 1.49563E+03 6.27498E+04-1.06937E-09-2.63560E-09
 -1       672 1.68900E+05 2.45251E+04 3.82616E+03 6.16785E+04 1.88544E-09 7.51299E-10
 -1       673 1.66282E+05 2.20944E+04 6.41189E+03 6.29356E+04 6.80529E-10 9.61018E-09
 -1       674 1.75003E+05 3.48251E+04 1.83366E+04 5.98841E+04-2.42551E-09 9.15088E-09
 -1       675 1.60983E+05 1.33197E+04 2.72177E+04 6.44358E+04-2.12367E-09 3.20142E-10
 -1       676 2.18598E+01-2.66129E+05-1.01504E+03-3.51755E+01-4.61569E-11-1.90628E-08
 -1       677-2.69499E+02-2.66374E+05-1.85768E+03 7.03035E+01 1.95044E-09-1.16540E-08
 -1       678 1.79959E+02-2.65955E+05-3.28390E+03-3.51042E+01 2.69097E-10-6.04581E-09
 -1       679-3.28483E+03-2.68357E+05-7.80107E+03 7.00301E+01 2.20541E-09-1.57563E-08
 -1       680 1.96047E+03-2.64148E+05-1.25727E+04-3.45086E+01 1.90084E-10-1.04059E-08
 -1       771-2.79846E+06-6.09080E+05-1.05051E+05-1.28059E+06-2.41707E-08-2.10712E-08
 -1       772-2.74532E+06-6.75316E+05-5.46863E+04-1.35652E+06-1.98488E-08 1.07175E-08
 -1       773-2.81794E+06-5.93731E+05-2.67639E+04-1.28816E+06-4.88944E-09 7.81438E-09
 -1       774-2.73640E+06-6.64134E+05-1.21790E+04-1.37136E+06 3.22325E-08 1.55705E-09
 -1       775-2.82696E+06-5.87344E+05-8.37291E+03-1.29126E+06 4.36557E-10 1.12050E-09
 -1       776-2.74185E+06-6.63081E+05-3.25388E+03-1.38194E+06-8.14907E-09 3.23416E-09
 -1       777-2.83455E+06-5.81809E+05-3.44053E+03-1.29397E+06 3.20142E-10 3.65617E-09
 -1       778-2.74773E+06-6.62201E+05-1.01668E+03-1.39095E+06-1.45519E-11 7.37782E-09
 -1       779-2.84096E+06-5.77045E+05-1.64186E+03-1.29630E+06-1.38971E-08-4.32919E-09
 -1       780-2.75290E+06-6.61342E+05-2.86293E+02-1.39827E+06-1.40499E-08-2.15914E-09
 -1       781-2.84599E+06-5.73242E+05-6.24158E+02-1.29812E+06-1.96742E-08 6.94854E-10
 -1       782-2.75686E+06-6.60583E+05 2.14596E+02-1.40365E+06-2.69320E-08-2.85399E-09
 -1       783-2.84951E+06-5.70630E+05 3.38357E+02-1.29941E+06-5.39148E-09-1.00861E-08
 -1       784-2.75901E+06-6.59691E+05 1.41396E+03-1.40695E+06-1.27839E-08 6.77574E-10
 -1       785-2.85156E+06-5.69098E+05 2.49291E+03-1.30024E+06-2.67210E-08 4.15639E-09
 -1       786 1.23761E+05-9.18748E+03 2.12550E+04-1.83555E+02 1.74436E-09 2.35286E-09
 -1       787 1.32978E+05 1.06364E+04 1.50372E+04-1.86419E+01 3.69612E-09 8.47922E-09
 -1       788 1.27315E+05-1.44005E+03 5.49959E+03-1.54878E+02 1.66346E-09 1.58957E-08
 -1       789 1.28838E+05 1.66618E+03 3.45312E+03-6.41927E+01-7.78703E-10 1.05966E-08
 -1       790 1.27902E+05-2.24593E+02 1.39960E+03-1.38012E+02-2.74828E-09 8.84444E-09
 -1       791 1.28152E+05 2.59571E+02 8.11303E+02-9.33677E+01-3.57895E-09 1.34452E-08
 -1       792 1.28001E+05-3.44934E+01 3.49631E+02-1.25703E+02-1.76750E-09-2.14490E-09
 -1       793 1.28035E+05 3.86721E+01 1.87113E+02-1.16527E+02 2.73381E-11-8.90657E-09
 -1       794 1.28019E+05-3.83409E+00 7.43666E+01-1.14853E+02 2.02830E-09-1.10774E-09
 -1       795 1.28010E+05-4.13398E+00 1.47496E+01-1.39090E+02-1.97784E-09-6.57269E-09
 -1       796 1.28026E+05 8.29018E+00-3.40495E+01-1.03140E+02 8.51944E-10 6.34273E-09
 -1       797 1.27979E+05-6.56513E+01-1.26714E+02-1.65824E+02 1.56491E-09 3.60502E-09
 -1       798 1.28050E+05 5.76361E+01-2.14975E+02-8.81184E+01 1.06216E-09 6.77053E-09
 -1       799 1.27813E+05-4.25650E+02-5.99441E+02-2.02401E+02 2.49191E-09 2.64578E-09
 -1       800 1.28192E+05 3.67988E+02-8.50572E+02-6.65630E+01 4.53505E-10 6.78347E-09
 -1       801 1.86508E+04-5.97860E+06-7.25402E+05 5.31963E+05 5.78875E-08-1.86938E-08
 -1       802 1.50505E+05-2.77150E+05 6.20076E+05-5.85841E+05 1.60042E-07-2.42349E-08
 -1       803-1.66786E+05-7.14024E+06-6.79959E+05 3.69535E+05 5.53191E-08 2.79560E-08
 -1       804 4.86661E+04-1.76732E+06 4.34687E+05 3.45087E+05-5.60358E-08-4.02681E-08
 -1       805 9.50595E+04-4.50009E+06-1.11818E+05-3.97395E+05-2.33558E-08-3.14371E-08
 -1       806-2.67976E+05-5.08688E+04-1.95576E+04-1.05039E+05 9.06311E-10 1.16461E-08
 -1       807-2.69674E+05-4.75171E+04-9.60843E+03-1.09595E+05 2.20296E-08 1.76255E-08
 -1       808-2.68501E+05-4.38330E+04-4.07630E+03-1.08386E+05 4.84124E-09 7.98104E-09
 -1       809-2.67661E+05-4.48109E+04-1.99324E+03-1.09825E+05-5.79803E-09 7.58007E-09
 -1       810-2.68582E+05-4.35879E+04-9.13542E+02-1.08535E+05 1.94086E-09 5.67638E-09
 -1       811-2.67506E+05-4.47013E+04-4.54263E+02-1.09795E+05-3.28691E-09-6.07815E-09
 -1       812-2.68595E+05-4.36084E+04-2.29559E+02-1.08535E+05-4.62478E-09-4.20187E-10
 -1       813-2.67486E+05-4.47026E+04-1.48989E+02-1.09780E+05-1.25556E-09-7.92352E-09
 -1       814-2.68591E+05-4.36157E+04-1.47169E+02-1.08532E+05 1.16415E-10-1.08121E-08
 -1       815-2.67490E+05-4.47041E+04-2.36984E+02-1.09775E+05 1.40562E-09-2.14873E-08
 -1       816-2.68575E+05-4.36138E+04-4.48771E+02-1.08530E+05-1.51886E-10 8.64020E-10
 -1       817-2.67568E+05-4.47465E+04-9.63497E+02-1.09767E+05-1.67320E-08 8.33052E-09
 -1       818-2.68519E+05-4.37481E+04-1.96490E+03-1.08467E+05-6.66205E-09-8.73570E-10
 -1       819-2.68644E+05-4.59354E+04-4.62399E+03-1.09518E+05 3.54021E-09 9.80322E-09
 -1       820-2.68156E+05-4.72353E+04-9.41111E+03-1.06969E+05-3.80896E-09-7.95512E-09
 -1       821-3.28454E+05 1.81337E+04-4.19462E+04 6.96733E+02 5.17304E-09-4.19277E-09
 -1       822-3.46596E+05-2.09928E+04-2.96773E+04-1.39367E+03-6.07307E-10 8.81118E-09
 -1       823-3.35445E+05 2.84392E+03-1.08623E+04 8.20667E+02-2.65672E-09-1.55524E-09
 -1       824-3.38409E+05-3.28985E+03-6.83093E+03-1.26321E+03 1.55980E-10 4.01906E-09
 -1       825-3.36638E+05 4.44005E+02-2.81524E+03 5.66275E+02 4.30556E-09 7.71740E-09
 -1       826-3.36994E+05-5.21880E+02-1.68033E+03-4.99728E+02 4.38709E-09-6.75459E-09
 -1       827-3.36857E+05 7.64993E+01-8.91759E+02 5.71723E+01 1.31369E-09-6.61922E-09
 -1       828-3.36804E+05-1.58574E+02-7.63078E+02 5.26141E+02-1.82227E-09-2.03479E-09
 -1       829-3.36828E+05 8.08835E+01-9.07325E+02-4.59610E+02 8.31449E-10 9.12823E-09
 -1       830-3.37070E+05-5.45664E+02-1.75526E+03 1.31543E+03 5.49479E-10 1.23079E-08
 -1       831-3.36592E+05 4.64758E+02-2.91877E+03-7.32130E+02-2.07972E-09-2.89901E-10
 -1       832-3.38494E+05-3.42525E+03-7.11165E+03 1.48347E+03-1.31900E-09-5.64160E-09
 -1       833-3.35406E+05 2.95887E+03-1.13080E+04-6.27654E+02-2.30335E-09 4.48108E-09
 -1       834-3.46935E+05-2.18458E+04-3.08746E+04 9.40915E+02-1.95475E-09-4.45652E-10
 -1       835-3.28152E+05 1.88699E+04-4.36647E+04-1.89562E+02 5.19260E-09-5.98448E-09
 -1       836-1.15178E+03 3.12281E+05 1.91031E+04-1.60030E+04-2.78669E-09-1.04692E-08
 -1       837 4.12603E+03 3.18239E+05 1.62857E+04-3.23335E+04-2.92346E-09-2.07867E-08
 -1       838-4.48579E+02 3.13936E+05 1.67632E+04-1.59369E+04-2.25555E-09-2.62389E-09
 -1       839 1.06703E+04 3.23117E+05 3.18781E+04-3.23771E+04-1.82627E-09 4.40065E-09
 -1       840-3.26172E+03 3.07357E+05 5.09067E+04-1.59605E+04-1.98634E-09-7.01249E-10
 -1       856-6.66288E+04 7.70490E+03-2.03045E+04-4.07772E+02 6.33179E-10-9.22137E-09
 -1       857-7.50059E+04-9.04378E+03-1.39782E+04 5.05967E+03 8.20364E-10-3.31079E-09
 -1       858-6.99419E+04 1.08000E+03-5.26898E+03-4.30304E+02-2.37605E-10 2.19325E-09
 -1       859-7.12025E+04-1.26193E+03-3.18074E+03 5.09446E+03-2.03943E-09 1.78370E-08
 -1       860-7.04371E+04 1.50668E+02-1.33490E+03-4.42514E+02 1.30666E-09 3.33006E-09
 -1       861-7.06326E+04-1.71841E+02-7.38281E+02 5.11116E+03-2.27943E-09-4.88672E-09
 -1       862-7.05143E+04 2.00852E+01-3.14757E+02-4.47016E+02 1.68496E-09-3.48430E-09
 -1       863-7.05393E+04-1.47097E+01-1.32509E+02 5.11350E+03 3.51481E-09-2.74406E-09
 -1       864-7.05308E+04-2.94911E+00 5.14045E+00-4.44853E+02 1.34013E-09 4.29360E-09
 -1       865-7.04969E+04 4.55642E+01 1.55637E+02 5.10194E+03 1.37372E-09-9.65396E-09
 -1       866-7.05548E+04-4.04135E+01 3.34275E+02-4.35456E+02-7.36605E-10-8.53055E-09
 -1       867-7.03342E+04 3.35702E+02 8.36076E+02 5.07636E+03 2.60744E-09 1.56514E-08
 -1       868-7.06894E+04-2.88456E+02 1.39245E+03-4.19274E+02 9.63496E-11 1.56268E-09
 -1       869-6.93093E+04 2.40025E+03 3.71261E+03 5.03378E+03-6.93404E-10-1.38801E-08
 -1       870-7.15734E+04-2.04977E+03 5.38708E+03-3.92853E+02-1.43359E-09 6.33577E-09
 -1       871-4.89657E+03-1.44891E+04-1.65216E+04 1.10132E+05-1.11322E-09 1.22845E-08
 -1       872-1.96124E+03-1.82586E+04-6.83901E+03 1.42791E+05-3.24872E-09 8.46876E-09
 -1       873 1.33738E+02-1.64701E+04 6.98661E+02 1.09890E+05-1.74123E-09 3.15492E-09
 -1       874 2.63687E+03-1.42611E+04 8.75482E+03 1.42828E+05-3.47245E-09 4.63342E-09
 -1       875 5.85415E+03-1.85528E+04 1.95956E+04 1.10093E+05-1.40426E-09-1.36015E-08
 -1       876 2.57573E+05 4.38035E+04 1.34116E+04 1.03829E+05-1.19940E-10-4.02997E-09
 -1       877 2.58419E+05 4.66688E+04 7.16226E+03 1.07713E+05 6.73708E-10-5.74414E-09
 -1       878 2.58826E+05 4.23190E+04 3.00065E+03 1.04929E+05 3.93811E-10-1.24305E-08
 -1       879 2.56596E+05 4.48502E+04 1.49500E+03 1.07805E+05 2.24190E-09 2.13839E-09
 -1       880 2.58917E+05 4.23032E+04 6.96259E+02 1.04974E+05-8.35371E-10-1.34104E-08
 -1       881 2.56474E+05 4.47727E+04 3.71523E+02 1.07785E+05-2.50293E-09-3.72822E-09
 -1       882 2.58925E+05 4.23147E+04 2.37201E+02 1.04976E+05 1.94314E-09-3.36703E-09
 -1       883 2.56466E+05 4.47688E+04 2.54215E+02 1.07779E+05-8.19455E-10 6.12471E-09
 -1       884 2.58920E+05 4.23120E+04 4.03690E+02 1.04976E+05-8.31619E-10-4.40536E-10
 -1       885 2.56498E+05 4.47744E+04 8.11201E+02 1.07789E+05-3.24329E-09-1.14783E-08
 -1       886 2.58888E+05 4.22883E+04 1.63474E+03 1.04973E+05-8.15149E-10-2.20177E-09
 -1       887 2.56785E+05 4.49628E+04 3.57081E+03 1.07830E+05 4.46278E-10-1.08329E-08
 -1       888 2.58663E+05 4.23280E+04 7.19529E+03 1.04858E+05-3.75167E-10-4.82532E-09
 -1       889 2.61070E+05 4.94163E+04 1.71885E+04 1.07697E+05 4.59458E-10-7.26504E-09
 -1       890 2.55730E+05 4.58127E+04 3.21933E+04 1.02116E+05 1.06616E-09-6.70843E-09
 -1       891-1.20109E+02-1.44118E+05-1.74480E+03 2.53807E+04-3.44471E-10 5.00313E-09
 -1       892-2.17526E+02-1.44557E+05-1.88155E+03 3.84672E+04 8.53788E-10-1.15870E-09
 -1       893-4.02723E+00-1.44173E+05-2.67193E+03 2.53867E+04-1.38698E-10 4.70664E-09
 -1       894-1.39499E+03-1.45571E+05-5.53563E+03 3.83276E+04 8.22638E-10-1.14342E-08
 -1       895-1.09910E+03-1.43020E+05-9.75042E+03 2.55200E+04-3.02180E-10-6.89761E-09
 -1       956-3.28178E+05-4.64949E+03-1.16109E+04 2.41378E+04 2.67300E-09-9.80231E-09
 -1       957-3.30464E+05-1.59769E+03-5.96019E+03 2.90461E+04-3.97085E-09 3.18323E-11
 -1       958-3.29214E+05-1.57687E+02-2.68549E+03 2.39981E+04-4.07999E-09 4.86261E-09
 -1       959-3.29391E+05-5.97409E+01-1.37155E+03 2.92029E+04 1.41699E-09 5.41286E-09
 -1       960-3.29310E+05 8.01068E+00-6.68779E+02 2.39842E+04 1.65028E-09-4.43606E-09
 -1       961-3.29317E+05 4.21306E-01-3.54880E+02 2.92190E+04 3.91424E-09-5.88329E-09
 -1       962-3.29331E+05 4.92444E+00-2.03428E+02 2.39820E+04 1.44428E-09-2.90675E-09
 -1       963-3.29315E+05 2.76819E+00-1.63816E+02 2.92219E+04-1.26784E-09 5.20072E-09
 -1       964-3.29335E+05 7.40926E+00-1.99651E+02 2.39813E+04 9.82340E-10-1.81853E-09
 -1       965-3.29326E+05 5.71081E+00-3.45673E+02 2.92215E+04 1.65392E-09 1.30126E-09
 -1       966-3.29323E+05 1.54020E+01-6.49478E+02 2.39824E+04 5.12955E-09 4.57862E-09
 -1       967-3.29408E+05-4.75916E+01-1.33224E+03 2.92107E+04 8.41283E-09 1.30581E-09
 -1       968-3.29237E+05-1.40694E+02-2.60766E+03 2.39921E+04 8.60791E-09-5.01689E-09
 -1       969-3.30459E+05-1.53714E+03-5.78943E+03 2.90975E+04 1.23027E-08-5.51967E-09
 -1       970-3.28236E+05-4.50075E+03-1.12773E+04 2.40937E+04 6.66887E-09 4.61932E-09
 -1       971-3.04629E+05-1.55609E+03-8.52490E+03 1.40410E+04-1.44428E-09-8.17437E-10
 -1       972-3.06692E+05-1.12949E+03-4.64259E+03 1.95266E+04 6.73481E-10-1.21645E-09
 -1       973-3.05578E+05-3.17006E+01-2.07919E+03 1.39265E+04-1.72804E-10-3.19869E-09
 -1       974-3.05713E+05-3.94939E+01-1.07747E+03 1.96530E+04 3.67982E-09 2.30887E-09
 -1       975-3.05652E+05 8.89934E+00-5.38248E+02 1.39155E+04 2.26919E-10 4.16014E-09
 -1       976-3.05655E+05 5.74523E+00-3.09916E+02 1.96668E+04 1.57979E-09 4.24461E-09
 -1       977-3.05667E+05 9.20119E+00-2.23833E+02 1.39127E+04-3.58568E-10 1.22571E-08
 -1       978-3.05660E+05 1.11433E+01-2.60434E+02 1.96708E+04 6.61203E-10 8.17113E-09
 -1       979-3.05667E+05 1.65318E+01-4.17147E+02 1.39115E+04-7.94842E-10 9.58312E-09
 -1       980-3.05691E+05 1.38029E+01-8.04649E+02 1.96715E+04 5.29099E-10 1.47190E-09
 -1       981-3.05641E+05 3.66150E+01-1.55799E+03 1.39119E+04 1.98088E-09 3.17510E-09
 -1       982-3.05905E+05-1.01264E+02-3.22010E+03 1.96655E+04 1.72008E-10-1.34932E-08
 -1       983-3.05445E+05-6.30748E+01-6.25653E+03 1.39176E+04 5.46606E-10 4.92128E-09
 -1       984-3.08914E+05-3.36873E+03-1.40110E+04 1.95866E+04-8.53106E-10 1.16543E-08
 -1       985-3.02613E+05-4.64120E+03-2.57286E+04 1.39907E+04-6.11635E-10 1.17252E-08
 -3
    1PSTEP                        25          13           1          
  100CL  113 6.09375E-01         409                     0   13           1
 -4  DISP        4    1
 -5  D1          1    2    1    0
 -5  D2          1    2    2    0
 -5  D3          1    2    3    0
 -5  ALL         1    2    0    0    1ALL
 -1         1 1.30293E-03 0.00000E+00 0.00000E+00
 -1         2 1.22731E-03 2.22315E-28 1.32349E-23
 -1         3 2.69090E-04-5.88550E-28 0.00000E+00
 -1         5 1.49523E-04-1.17336E-26 0.00000E+00
 -1         8 1.28350E-03-6.12187E-07 0.00000E+00
 -1         9 1.25144E-03-3.64327E-06 0.00000E+00
 -1        10 2.44832E-04-3.24213E-06-6.61744E-24
 -1        12 1.50391E-04 7.07275E-07-1.65436E-24
 -1        15 1.26009E-03-6.73924E-07-2.06795E-25
 -1        16 1.26691E-03-4.44827E-06 0.00000E+00
 -1        17 1.69342E-04-7.13639E-06 0.00000E+00
 -1        18 1.51580E-04 2.07219E-05 0.00000E+00
 -1        19 1.52995E-04 1.41044E-06 0.00000E+00
 -1        20 1.53141E-04 7.89101E-07 0.00000E+00
 -1        21 1.52387E-04-2.67887E-06 0.00000E+00
 -1        24 2.71935E-05-1.03276E-05 0.00000E+00
 -1        25 1.57453E-04 2.09069E-05 0.00000E+00
 -1        26 1.58152E-04 1.95439E-06 0.00000E+00
 -1        27 1.56223E-04-2.37608E-06 0.00000E+00
 -1        28 1.55848E-04-3.24676E-06 0.00000E+00
 -1        32 0.00000E+00 0.00000E+00 0.00000E+00
 -1        33 1.62258E-04 2.61763E-06 0.00000E+00
 -1        34 1.60367E-04-2.41562E-06 0.00000E+00
 -1        35 1.58622E-04-3.55450E-06 0.00000E+00
 -1        51 1.30168E-03-1.10579E-07 0.00000E+00
 -1        52 1.29935E-03-2.08890E-07 0.00000E+00
 -1        53 1.29615E-03-3.06068E-07 0.00000E+00
 -1        54 1.29230E-03-4.04131E-07 0.00000E+00
 -1        55 1.28801E-03-5.04465E-07 1.65436E-24
 -1        56 1.29987E-03-3.41526E-07 0.00000E+00
 -1        57 1.29620E-03 6.53360E-07 2.64698E-23
 -1        58 1.29208E-03 2.82182E-06 1.05879E-22
 -1        59 1.28762E-03 5.87056E-06 0.00000E+00
 -1        60 1.28296E-03 9.40279E-06 0.00000E+00
 -1        61 1.27829E-03 1.29817E-05 0.00000E+00
 -1        62 1.27377E-03 1.61656E-05-1.05879E-22
 -1        63 1.26955E-03 1.85380E-05 5.29396E-23
 -1        64 1.26576E-03 1.97928E-05-1.05879E-22
 -1        65 1.26247E-03 1.96990E-05 0.00000E+00
 -1        66 1.25971E-03 1.82082E-05-1.05879E-22
 -1        67 1.25746E-03 1.53669E-05 0.00000E+00
 -1        68 1.25562E-03 1.14040E-05 0.00000E+00
 -1        69 1.25411E-03 6.63043E-06-2.64698E-23
 -1        70 1.25274E-03 1.45495E-06 0.00000E+00
 -1        86 1.22838E-03-5.97615E-07 1.32349E-23
 -1        87 1.23153E-03-1.19962E-06 0.00000E+00
 -1        88 1.23616E-03-1.80699E-06 0.00000E+00
 -1        89 1.24161E-03-2.41931E-06 0.00000E+00
 -1        90 1.24700E-03-3.03097E-06-2.64698E-23
 -1       121 2.68409E-04-5.30044E-07-1.32349E-23
 -1       122 2.66369E-04-1.06187E-06-6.61744E-24
 -1       123 2.62977E-04-1.59724E-06 0.00000E+00
 -1       124 2.58244E-04-2.13794E-06 6.61744E-24
 -1       125 2.52189E-04-2.68544E-06 0.00000E+00
 -1       191 1.49547E-04 1.17896E-07 1.65436E-24
 -1       192 1.49619E-04 2.35789E-07 8.27181E-25
 -1       193 1.49740E-04 3.53678E-07-1.65436E-24
 -1       194 1.49909E-04 4.71558E-07-8.27181E-25
 -1       195 1.50126E-04 5.89425E-07 0.00000E+00
 -1       251 1.28257E-03 1.90769E-05-1.32349E-23
 -1       252 1.28059E-03 6.94477E-05-6.61744E-24
 -1       253 1.27827E-03 1.26993E-04 0.00000E+00
 -1       254 1.27674E-03 1.67977E-04 0.00000E+00
 -1       255 1.27588E-03 1.78403E-04-2.64698E-23
 -1       256 1.27455E-03 1.45278E-04 1.32349E-23
 -1       257 1.27168E-03 7.87324E-05-2.64698E-23
 -1       258 1.26715E-03-1.00223E-05 1.32349E-23
 -1       259 1.26277E-03-9.69108E-05-2.64698E-23
 -1       260 1.26023E-03-1.57910E-04 0.00000E+00
 -1       261 1.25910E-03-1.83845E-04 0.00000E+00
 -1       262 1.25816E-03-1.66695E-04 1.32349E-23
 -1       263 1.25645E-03-1.21383E-04-2.64698E-23
 -1       264 1.25412E-03-6.37501E-05 0.00000E+00
 -1       265 1.25230E-03-1.69080E-05 0.00000E+00
 -1       266 1.27960E-03-6.31412E-07 0.00000E+00
 -1       267 1.27570E-03-6.40612E-07 0.00000E+00
 -1       268 1.27179E-03-6.50448E-07 8.27181E-25
 -1       269 1.26789E-03-6.58402E-07 0.00000E+00
 -1       270 1.26399E-03-6.66313E-07 0.00000E+00
 -1       271 1.28110E-03 2.87539E-06-2.64698E-23
 -1       272 1.27873E-03 6.17467E-06-1.32349E-23
 -1       273 1.27646E-03 9.21163E-06 0.00000E+00
 -1       274 1.27432E-03 1.19010E-05 0.00000E+00
 -1       275 1.27234E-03 1.41657E-05 2.64698E-23
 -1       276 1.27055E-03 1.59325E-05 1.32349E-23
 -1       277 1.26897E-03 1.71347E-05-2.64698E-23
 -1       278 1.26763E-03 1.77123E-05 0.00000E+00
 -1       279 1.26654E-03 1.76136E-05 2.64698E-23
 -1       280 1.26571E-03 1.67953E-05 1.32349E-23
 -1       281 1.26518E-03 1.52232E-05-2.64698E-23
 -1       282 1.26493E-03 1.28727E-05 0.00000E+00
 -1       283 1.26497E-03 9.72907E-06 0.00000E+00
 -1       284 1.26532E-03 5.78848E-06 0.00000E+00
 -1       285 1.26596E-03 1.05515E-06-2.64698E-23
 -1       301 1.25422E-03-3.79775E-06-6.61744E-24
 -1       302 1.25622E-03-3.92364E-06 0.00000E+00
 -1       303 1.25798E-03-4.04696E-06 0.00000E+00
 -1       304 1.26000E-03-4.17020E-06 0.00000E+00
 -1       305 1.26280E-03-4.29695E-06 2.64698E-23
 -1       306 1.27788E-03-1.00774E-04 0.00000E+00
 -1       307 1.33802E-03-3.74974E-04 0.00000E+00
 -1       308 1.40577E-03-7.82200E-04 0.00000E+00
 -1       309 1.47019E-03-1.26207E-03 5.29396E-23
 -1       310 1.53512E-03-1.73294E-03 0.00000E+00
 -1       311 1.60276E-03-2.11406E-03-5.29396E-23
 -1       312 1.65795E-03-2.35001E-03 0.00000E+00
 -1       313 1.67158E-03-2.40430E-03 5.29396E-23
 -1       314 1.61011E-03-2.27895E-03 0.00000E+00
 -1       315 1.45110E-03-2.00010E-03 5.29396E-23
 -1       316 1.20439E-03-1.61675E-03-1.05879E-22
 -1       317 9.02381E-04-1.18021E-03 0.00000E+00
 -1       318 6.03930E-04-7.46989E-04-1.05879E-22
 -1       319 3.66934E-04-3.73887E-04 0.00000E+00
 -1       320 2.20133E-04-1.11456E-04-1.05879E-22
 -1       336 2.36030E-04-3.85194E-06 1.32349E-23
 -1       337 2.25648E-04-4.47692E-06 6.61744E-24
 -1       338 2.13732E-04-5.11798E-06-1.32349E-23
 -1       339 2.00334E-04-5.77531E-06 0.00000E+00
 -1       340 1.85515E-04-6.45200E-06 0.00000E+00
 -1       406 1.50704E-04 8.25097E-07 1.65436E-24
 -1       407 1.51066E-04 9.42867E-07-1.65436E-24
 -1       408 1.51476E-04 1.06055E-06-3.30872E-24
 -1       409 1.51934E-04 1.17799E-06 8.27181E-25
 -1       410 1.52441E-04 1.29498E-06 1.65436E-24
 -1       521 1.29458E-03-1.10041E-04 0.00000E+00
 -1       522 1.35566E-03-4.03746E-04 0.00000E+00
 -1       523 1.42202E-03-8.38929E-04-1.05879E-22
 -1       524 1.48293E-03-1.34986E-03-5.29396E-23
 -1       525 1.54469E-03-1.85054E-03 1.05879E-22
 -1       526 1.61159E-03-2.25606E-03-5.29396E-23
 -1       527 1.66765E-03-2.50610E-03 1.05879E-22
 -1       528 1.68089E-03-2.56275E-03 5.29396E-23
 -1       529 1.61289E-03-2.42742E-03 0.00000E+00
 -1       530 1.43870E-03-2.13060E-03 5.29396E-23
 -1       531 1.16804E-03-1.72430E-03 0.00000E+00
 -1       532 8.36903E-04-1.26336E-03 0.00000E+00
 -1       533 5.09158E-04-8.05378E-04 0.00000E+00
 -1       534 2.47718E-04-4.08248E-04 0.00000E+00
 -1       535 8.51187E-05-1.26320E-04 1.05879E-22
 -1       536 1.68841E-04 1.95719E-05 0.00000E+00
 -1       537 1.67657E-04 6.59430E-05 3.30872E-24
 -1       538 1.65859E-04 1.24778E-04-3.30872E-24
 -1       539 1.63754E-04 1.88812E-04-1.65436E-24
 -1       540 1.61858E-04 2.49249E-04 0.00000E+00
 -1       541 1.60610E-04 2.97310E-04 0.00000E+00
 -1       542 1.60009E-04 3.27718E-04 0.00000E+00
 -1       543 1.59827E-04 3.35302E-04-1.65436E-24
 -1       544 1.59573E-04 3.20737E-04 0.00000E+00
 -1       545 1.58801E-04 2.84852E-04 1.65436E-24
 -1       546 1.57425E-04 2.34039E-04 0.00000E+00
 -1       547 1.55602E-04 1.74776E-04 0.00000E+00
 -1       548 1.53804E-04 1.15984E-04 0.00000E+00
 -1       549 1.52497E-04 6.65793E-05-1.65436E-24
 -1       550 1.51797E-04 3.27841E-05 1.65436E-24
 -1       551 1.49761E-04-7.58073E-06 0.00000E+00
 -1       552 1.27381E-04-8.07648E-06-3.30872E-24
 -1       553 1.03060E-04-8.61327E-06-2.61079E-24
 -1       554 7.76733E-05-9.17665E-06-3.30872E-24
 -1       555 5.20948E-05-9.74705E-06 0.00000E+00
 -1       556 1.63578E-04 7.67804E-06 0.00000E+00
 -1       557 1.58968E-04 1.95655E-05 0.00000E+00
 -1       558 1.55402E-04 2.87626E-05 0.00000E+00
 -1       559 1.52772E-04 3.55255E-05 0.00000E+00
 -1       560 1.50975E-04 4.01100E-05 0.00000E+00
 -1       561 1.49907E-04 4.27739E-05 0.00000E+00
 -1       562 1.49466E-04 4.37759E-05-2.64698E-23
 -1       563 1.49554E-04 4.33752E-05 0.00000E+00
 -1       564 1.50069E-04 4.18317E-05 0.00000E+00
 -1       565 1.50914E-04 3.94055E-05 6.61744E-24
 -1       566 1.51991E-04 3.63571E-05 0.00000E+00
 -1       567 1.53202E-04 3.29475E-05 1.65436E-24
 -1       568 1.54451E-04 2.94373E-05 4.13590E-25
 -1       569 1.55640E-04 2.60874E-05 0.00000E+00
 -1       570 1.56672E-04 2.31584E-05 0.00000E+00
 -1       571 1.51666E-04 1.94730E-05 8.27181E-25
 -1       572 1.51753E-04 1.81694E-05 1.65436E-24
 -1       573 1.51842E-04 1.68234E-05 0.00000E+00
 -1       574 1.51930E-04 1.54481E-05 8.27181E-25
 -1       575 1.52018E-04 1.40564E-05-3.30872E-24
 -1       576 1.52107E-04 1.26614E-05 0.00000E+00
 -1       577 1.52196E-04 1.12763E-05 0.00000E+00
 -1       578 1.52284E-04 9.91410E-06 1.65436E-24
 -1       579 1.52373E-04 8.58791E-06 0.00000E+00
 -1       580 1.52462E-04 7.31086E-06-6.61744E-24
 -1       581 1.52550E-04 6.09605E-06-6.61744E-24
 -1       582 1.52639E-04 4.95656E-06 0.00000E+00
 -1       583 1.52728E-04 3.90547E-06 0.00000E+00
 -1       584 1.52817E-04 2.95571E-06 0.00000E+00
 -1       585 1.52906E-04 2.12012E-06 0.00000E+00
 -1       586 1.52509E-04 2.07546E-05 0.00000E+00
 -1       587 1.53407E-04 2.07868E-05 2.06795E-25
 -1       588 1.54312E-04 2.08186E-05 8.27181E-25
 -1       589 1.55262E-04 2.08498E-05 0.00000E+00
 -1       590 1.56296E-04 2.08800E-05 0.00000E+00
 -1       591 1.51996E-04 1.95437E-05-1.03398E-25
 -1       592 1.52418E-04 1.83423E-05-2.06795E-25
 -1       593 1.52845E-04 1.71236E-05 0.00000E+00
 -1       594 1.53277E-04 1.58926E-05 0.00000E+00
 -1       595 1.53712E-04 1.46542E-05 0.00000E+00
 -1       596 1.54147E-04 1.34134E-05 4.13590E-25
 -1       597 1.54581E-04 1.21750E-05 0.00000E+00
 -1       598 1.55013E-04 1.09440E-05 0.00000E+00
 -1       599 1.55440E-04 9.72540E-06 0.00000E+00
 -1       600 1.55861E-04 8.52399E-06 2.06795E-25
 -1       601 1.56273E-04 7.34474E-06 0.00000E+00
 -1       602 1.56675E-04 6.19256E-06-2.06795E-25
 -1       603 1.57066E-04 5.07239E-06-2.06795E-25
 -1       604 1.57443E-04 3.98923E-06 7.75482E-26
 -1       605 1.57804E-04 2.94793E-06 0.00000E+00
 -1       606 1.53008E-04 9.01384E-07 0.00000E+00
 -1       607 1.53018E-04 4.82670E-07 0.00000E+00
 -1       608 1.53028E-04 1.48994E-07 0.00000E+00
 -1       609 1.53037E-04-1.05624E-07 0.00000E+00
 -1       610 1.53045E-04-2.87211E-07 0.00000E+00
 -1       611 1.53054E-04-4.01861E-07 0.00000E+00
 -1       612 1.53063E-04-4.55679E-07 0.00000E+00
 -1       613 1.53072E-04-4.54774E-07 0.00000E+00
 -1       614 1.53081E-04-4.05258E-07 0.00000E+00
 -1       615 1.53089E-04-3.13243E-07 0.00000E+00
 -1       616 1.53098E-04-1.84840E-07 0.00000E+00
 -1       617 1.53107E-04-2.61601E-08 0.00000E+00
 -1       618 1.53116E-04 1.56683E-07 0.00000E+00
 -1       619 1.53124E-04 3.57583E-07 2.06795E-25
 -1       620 1.53133E-04 5.70426E-07 0.00000E+00
 -1       621 1.53660E-04 1.50141E-06-1.65436E-24
 -1       622 1.54432E-04 1.59266E-06-1.65436E-24
 -1       623 1.55290E-04 1.68381E-06-1.65436E-24
 -1       624 1.56211E-04 1.77476E-06-1.65436E-24
 -1       625 1.57172E-04 1.86550E-06 0.00000E+00
 -1       626 1.53286E-04 9.33155E-07 0.00000E+00
 -1       627 1.53552E-04 5.25820E-07 1.65436E-24
 -1       628 1.53794E-04 1.80651E-07 0.00000E+00
 -1       629 1.54017E-04-1.10507E-07 4.96308E-24
 -1       630 1.54222E-04-3.55831E-07 0.00000E+00
 -1       631 1.54413E-04-5.63522E-07 0.00000E+00
 -1       632 1.54594E-04-7.41786E-07 3.30872E-24
 -1       633 1.54766E-04-8.98830E-07 1.65436E-24
 -1       634 1.54933E-04-1.04286E-06 3.30872E-24
 -1       635 1.55099E-04-1.18207E-06 0.00000E+00
 -1       636 1.55266E-04-1.32468E-06 0.00000E+00
 -1       637 1.55437E-04-1.47889E-06 8.27181E-25
 -1       638 1.55616E-04-1.65290E-06 0.00000E+00
 -1       639 1.55804E-04-1.85494E-06 0.00000E+00
 -1       640 1.56006E-04-2.09323E-06 3.30872E-24
 -1       656 1.53147E-04 2.74404E-07 0.00000E+00
 -1       657 1.53554E-04-2.61055E-07 0.00000E+00
 -1       658 1.54221E-04-7.95099E-07 0.00000E+00
 -1       659 1.55005E-04-1.32877E-06 6.61744E-24
 -1       660 1.55730E-04-1.86408E-06 0.00000E+00
 -1       661 1.53145E-04 9.69515E-07 0.00000E+00
 -1       662 1.53182E-04 1.07177E-06 8.27181E-25
 -1       663 1.53246E-04 1.09978E-06 0.00000E+00
 -1       664 1.53337E-04 1.05872E-06-8.27181E-25
 -1       665 1.53452E-04 9.53128E-07 1.65436E-24
 -1       666 1.53590E-04 7.87631E-07 0.00000E+00
 -1       667 1.53748E-04 5.66622E-07 0.00000E+00
 -1       668 1.53925E-04 2.94437E-07 8.27181E-25
 -1       669 1.54121E-04-2.47557E-08 0.00000E+00
 -1       670 1.54332E-04-3.86869E-07-8.27181E-25
 -1       671 1.54558E-04-7.87937E-07 0.00000E+00
 -1       672 1.54796E-04-1.22410E-06 0.00000E+00
 -1       673 1.55047E-04-1.69153E-06 0.00000E+00
 -1       674 1.55307E-04-2.18678E-06 0.00000E+00
 -1       675 1.55576E-04-2.70578E-06 0.00000E+00
 -1       676 1.52966E-04-2.77407E-06 0.00000E+00
 -1       677 1.53544E-04-2.86924E-06 1.65436E-24
 -1       678 1.54122E-04-2.96435E-06 3.30872E-24
 -1       679 1.54699E-04-3.05918E-06 1.65436E-24
 -1       680 1.55274E-04-3.15400E-06-1.65436E-24
 -1       771 1.78600E-05 1.02132E-05 0.00000E+00
 -1       772 9.96514E-06 2.70761E-05 5.29396E-23
 -1       773 3.44028E-06 4.04447E-05-5.29396E-23
 -1       774-1.80739E-06 5.05230E-05 2.64698E-23
 -1       775-5.86922E-06 5.75221E-05 0.00000E+00
 -1       776-8.84019E-06 6.16646E-05 0.00000E+00
 -1       777-1.08156E-05 6.31802E-05 0.00000E+00
 -1       778-1.18926E-05 6.23079E-05 2.64698E-23
 -1       779-1.21685E-05 5.92927E-05 0.00000E+00
 -1       780-1.17421E-05 5.43873E-05 0.00000E+00
 -1       781-1.07120E-05 4.78490E-05 5.29396E-23
 -1       782-9.17796E-06 3.99414E-05 2.64698E-23
 -1       783-7.23939E-06 3.09308E-05 5.29396E-23
 -1       784-4.99672E-06 2.10882E-05 2.64698E-23
 -1       785-2.54988E-06 1.06865E-05 0.00000E+00
 -1       786 1.57493E-04 1.95063E-05-5.16988E-26
 -1       787 1.57536E-04 1.81535E-05 0.00000E+00
 -1       788 1.57579E-04 1.68404E-05-8.27181E-25
 -1       789 1.57623E-04 1.55593E-05-8.27181E-25
 -1       790 1.57667E-04 1.43056E-05 0.00000E+00
 -1       791 1.57710E-04 1.30749E-05-8.27181E-25
 -1       792 1.57754E-04 1.18649E-05 0.00000E+00
 -1       793 1.57798E-04 1.06736E-05 8.27181E-25
 -1       794 1.57843E-04 9.50078E-06 0.00000E+00
 -1       795 1.57887E-04 8.34618E-06 0.00000E+00
 -1       796 1.57931E-04 7.21152E-06 0.00000E+00
 -1       797 1.57975E-04 6.09852E-06 0.00000E+00
 -1       798 1.58019E-04 5.01111E-06 0.00000E+00
 -1       799 1.58063E-04 3.95329E-06-8.27181E-25
 -1       800 1.58107E-04 2.93202E-06 0.00000E+00
 -1       801 1.24889E-04 1.85645E-05 2.64698E-23
 -1       802 2.59544E-05 1.20057E-05-1.32349E-23
 -1       803-6.11600E-05 6.34021E-06-5.29396E-23
 -1       804-5.92558E-05 4.30135E-06 0.00000E+00
 -1       805-2.04092E-05 1.89929E-06 0.00000E+00
 -1       806 1.57876E-04 1.94467E-05-1.65436E-24
 -1       807 1.58286E-04 1.80132E-05-8.27181E-25
 -1       808 1.58683E-04 1.66106E-05 0.00000E+00
 -1       809 1.59067E-04 1.52423E-05 0.00000E+00
 -1       810 1.59437E-04 1.39113E-05 0.00000E+00
 -1       811 1.59792E-04 1.26207E-05 0.00000E+00
 -1       812 1.60130E-04 1.13738E-05 0.00000E+00
 -1       813 1.60451E-04 1.01735E-05-8.27181E-25
 -1       814 1.60754E-04 9.02285E-06 1.65436E-24
 -1       815 1.61036E-04 7.92503E-06-1.65436E-24
 -1       816 1.61298E-04 6.88307E-06 1.65436E-24
 -1       817 1.61538E-04 5.90001E-06-8.27181E-25
 -1       818 1.61755E-04 4.97890E-06 1.65436E-24
 -1       819 1.61947E-04 4.12280E-06-8.27181E-25
 -1       820 1.62115E-04 3.33472E-06 1.65436E-24
 -1       821 1.58038E-04 8.56616E-07 0.00000E+00
 -1       822 1.57917E-04-5.22708E-07 0.00000E+00
 -1       823 1.57795E-04-2.03067E-06-3.30872E-24
 -1       824 1.57673E-04-3.51360E-06 0.00000E+00
 -1       825 1.57551E-04-4.82420E-06-3.30872E-24
 -1       826 1.57429E-04-5.81603E-06 0.00000E+00
 -1       827 1.57307E-04-6.42129E-06 3.30872E-24
 -1       828 1.57185E-04-6.57431E-06-1.65436E-24
 -1       829 1.57064E-04-6.32091E-06-3.30872E-24
 -1       830 1.56942E-04-5.70914E-06 0.00000E+00
 -1       831 1.56820E-04-4.87538E-06-3.30872E-24
 -1       832 1.56698E-04-3.95728E-06 1.65436E-24
 -1       833 1.56576E-04-3.11329E-06-3.30872E-24
 -1       834 1.56456E-04-2.50142E-06-8.27181E-25
 -1       835 1.56336E-04-2.22265E-06 8.27181E-25
 -1       836 1.59023E-04 2.06457E-06 6.61744E-24
 -1       837 1.59777E-04 2.17739E-06 0.00000E+00
 -1       838 1.60448E-04 2.29009E-06 3.30872E-24
 -1       839 1.61064E-04 2.40212E-06 0.00000E+00
 -1       840 1.61657E-04 2.51397E-06 4.13590E-25
 -1       856 1.56203E-04-2.67941E-06 0.00000E+00
 -1       857 1.56180E-04-2.85792E-06 0.00000E+00
 -1       858 1.56157E-04-2.93109E-06-4.13590E-25
 -1       859 1.56133E-04-2.91847E-06 0.00000E+00
 -1       860 1.56110E-04-2.83971E-06 0.00000E+00
 -1       861 1.56086E-04-2.71448E-06 4.13590E-25
 -1       862 1.56063E-04-2.56254E-06 0.00000E+00
 -1       863 1.56039E-04-2.40363E-06 0.00000E+00
 -1       864 1.56015E-04-2.25753E-06 8.27181E-25
 -1       865 1.55992E-04-2.14399E-06-4.13590E-25
 -1       866 1.55968E-04-2.08272E-06 0.00000E+00
 -1       867 1.55944E-04-2.09342E-06 4.13590E-25
 -1       868 1.55921E-04-2.19568E-06 0.00000E+00
 -1       869 1.55897E-04-2.40906E-06-4.13590E-25
 -1       870 1.55873E-04-2.75298E-06-8.27181E-25
 -1       871 1.56782E-04-2.37882E-06 4.13590E-25
 -1       872 1.57474E-04-2.38447E-06 0.00000E+00
 -1       873 1.58238E-04-2.39068E-06 0.00000E+00
 -1       874 1.59015E-04-2.39755E-06-1.03398E-25
 -1       875 1.59744E-04-2.40498E-06 4.13590E-25
 -1       876 1.56452E-04-2.66672E-06 3.30872E-24
 -1       877 1.56660E-04-2.89627E-06-1.65436E-24
 -1       878 1.56849E-04-3.07206E-06 0.00000E+00
 -1       879 1.57021E-04-3.20090E-06 1.65436E-24
 -1       880 1.57177E-04-3.28959E-06-3.30872E-24
 -1       881 1.57321E-04-3.34493E-06 0.00000E+00
 -1       882 1.57456E-04-3.37369E-06 0.00000E+00
 -1       883 1.57582E-04-3.38264E-06 0.00000E+00
 -1       884 1.57704E-04-3.37852E-06 3.30872E-24
 -1       885 1.57823E-04-3.36810E-06 0.00000E+00
 -1       886 1.57943E-04-3.35813E-06 0.00000E+00
 -1       887 1.58065E-04-3.35539E-06 1.65436E-24
 -1       888 1.58192E-04-3.36664E-06 0.00000E+00
 -1       889 1.58327E-04-3.39880E-06-8.27181E-25
 -1       890 1.58471E-04-3.45859E-06 0.00000E+00
 -1       891 1.56443E-04-3.29837E-06 0.00000E+00
 -1       892 1.57017E-04-3.35014E-06 4.13590E-25
 -1       893 1.57545E-04-3.40185E-06 0.00000E+00
 -1       894 1.58004E-04-3.45337E-06 4.13590E-25
 -1       895 1.58371E-04-3.50473E-06-4.13590E-25
 -1       956 1.62141E-04 2.04980E-06 1.65436E-24
 -1       957 1.62023E-04 1.55952E-06-1.65436E-24
 -1       958 1.61905E-04 1.13786E-06-1.65436E-24
 -1       959 1.61787E-04 7.75372E-07-1.65436E-24
 -1       960 1.61668E-04 4.62608E-07 0.00000E+00
 -1       961 1.61549E-04 1.90065E-07-1.65436E-24
 -1       962 1.61431E-04-5.17625E-08 0.00000E+00
 -1       963 1.61312E-04-2.72394E-07 1.65436E-24
 -1       964 1.61194E-04-4.81345E-07 0.00000E+00
 -1       965 1.61075E-04-6.88133E-07 0.00000E+00
 -1       966 1.60957E-04-9.02281E-07 0.00000E+00
 -1       967 1.60838E-04-1.13330E-06 1.65436E-24
 -1       968 1.60720E-04-1.39071E-06 0.00000E+00
 -1       969 1.60601E-04-1.68398E-06-1.65436E-24
 -1       970 1.60483E-04-2.02259E-06 0.00000E+00
 -1       971 1.60259E-04-2.80028E-06-1.65436E-24
 -1       972 1.60150E-04-3.09557E-06 0.00000E+00
 -1       973 1.60040E-04-3.31135E-06 0.00000E+00
 -1       974 1.59931E-04-3.45786E-06 1.65436E-24
 -1       975 1.59821E-04-3.54534E-06 0.00000E+00
 -1       976 1.59711E-04-3.58408E-06 0.00000E+00
 -1       977 1.59602E-04-3.58435E-06-3.30872E-24
 -1       978 1.59492E-04-3.55644E-06 0.00000E+00
 -1       979 1.59382E-04-3.51065E-06-3.30872E-24
 -1       980 1.59273E-04-3.45729E-06-1.65436E-24
 -1       981 1.59163E-04-3.40666E-06-3.30872E-24
 -1       982 1.59054E-04-3.36906E-06-1.65436E-24
 -1       983 1.58944E-04-3.35478E-06-3.30872E-24
 -1       984 1.58835E-04-3.37412E-06 1.65436E-24
 -1       985 1.58727E-04-3.43734E-06 0.00000E+00
 -3
    1PSTEP                        26          13           1          
  100CL  113 6.09375E-01         409                     0   13           1
 -4  STRESS      6    1
 -5  SXX         1    4    1    1
 -5  SYY         1    4    2    2
 -5  SZZ         1    4    3    3
 -5  SXY         1    4    1    2
 -5  SYZ         1    4    2    3
 -5  SZX         1    4    3    1
 -1         1-3.75447E+06-1.44728E+06-8.21844E+05-1.51334E+06-1.38243E-10-3.31493E-08
 -1         2 9.25007E+02-1.70044E+06 3.27540E+03 1.53820E+04 3.69269E-10 6.10063E-08
 -1         3-8.47515E+02-1.50893E+06 3.67491E+02-1.62148E+03-5.81068E-10-1.64437E-09
 -1         5-1.73053E+01 3.37403E+05 8.66059E+00-4.81359E-01-2.45760E-10-1.06684E-09
 -1         8-8.78863E+05-2.90227E+05-9.36415E+04-2.65034E+05-1.29148E-10 2.13840E-08
 -1         9 3.68200E+06-6.98815E+05 6.82284E+05-7.43267E+05 2.82191E-08-5.61122E-09
 -1        10-1.76092E+03-1.57226E+06-3.20943E+03-1.09601E+04-1.03046E-08-2.84356E-08
 -1        12-1.37802E+01 3.37421E+05 2.81439E+02-3.46857E+00-3.97772E-10 2.19638E-08
 -1        15 1.48049E+03 8.13613E+02 4.78566E+03 2.49808E+00 4.97948E-11 9.30930E-08
 -1        16 9.33687E+06-3.93073E+05 1.34501E+06-1.08161E+06 1.05938E-08 1.26893E-08
 -1        17 3.22084E+06 2.11809E+06 8.84044E+05 2.18558E+06 9.35397E-09 2.76719E-08
 -1        18 6.19379E+04 1.18981E+04-1.16856E+04-9.95041E+04 1.16397E-08 1.53659E-08
 -1        19 1.07958E+05 1.24353E+05-8.64995E+02 2.03012E+04 6.22276E-10-2.07510E-09
 -1        20-6.47813E+04-5.08518E+05-1.13560E+05 2.67186E+04 2.26616E-10-1.77837E-09
 -1        21-4.32609E+01-2.72086E+05-8.58314E+02 1.07997E+02 6.05443E-09-2.07451E-08
 -1        24 5.03412E+06 4.51931E+06 1.58724E+06 4.12408E+06-1.12530E-07-4.26468E-08
 -1        25-8.20138E+03-2.22717E+05-2.54643E+04-3.69299E+05-9.55788E-10-7.51243E-10
 -1        26-4.61081E+04 8.06765E+04-2.15018E+04-1.57293E+03 7.82529E-10 3.34543E-09
 -1        27-7.09535E+04-2.75798E+05-1.01732E+05 6.17345E+04 4.67314E-09-8.00173E-09
 -1        28 2.06856E+04-7.74426E+04 1.54923E+04 2.04923E+04-9.82709E-10-5.91349E-09
 -1        32-1.53447E+06-2.69119E+06-1.39330E+05-3.14426E+04-3.32402E-08-6.08605E-09
 -1        33-1.60285E+05 8.11240E+04 2.86204E+04-3.58465E+04-1.29531E-09 8.86212E-09
 -1        34-2.01235E+05-2.15599E+04 5.80240E+02 6.60433E+04-1.87396E-09-5.30751E-09
 -1        35-2.11977E+04-3.07340E+04-1.21874E+03 4.73706E+04 4.72369E-11 6.06815E-09
 -1        51 4.09667E+04-2.50951E+05 9.03444E+04-7.28944E+05-7.27596E-11-4.96366E-08
 -1        52 1.58223E+04-2.37794E+05 5.01317E+04-8.49919E+05 1.67347E-10-8.96398E-08
 -1        53 5.58742E+03-2.52765E+05 3.04607E+04-7.26301E+05 9.60426E-10-1.04235E-07
 -1        54 1.38464E+04-2.49684E+05 3.38176E+04-8.52672E+05 5.89353E-10-9.98625E-09
 -1        55 2.86488E+04-2.60508E+05 5.14037E+04-7.25904E+05 6.33008E-10 3.17777E-08
 -1        56-7.11666E+06-8.01773E+05-6.07287E+05-2.77343E+06-1.22818E-08-3.05008E-08
 -1        57-7.45175E+06-1.26075E+06-4.09538E+05-2.64402E+06 2.23390E-08 2.05910E-07
 -1        58-7.21921E+06-1.01391E+06-1.42698E+05-2.75674E+06 1.75351E-09 4.74611E-08
 -1        59-7.33718E+06-1.00797E+06-8.50937E+04-2.66039E+06-2.37515E-09-2.08966E-08
 -1        60-7.22972E+06-1.04771E+06-3.31871E+04-2.75939E+06-4.34466E-09-2.51603E-08
 -1        61-7.31830E+06-9.74634E+05-1.88111E+04-2.66438E+06 6.27891E-09-4.99922E-08
 -1        62-7.23766E+06-1.04637E+06-9.06904E+03-2.75296E+06-1.46251E-08-6.90516E-08
 -1        63-7.29449E+06-9.90785E+05-7.15423E+03-2.68706E+06-1.07884E-08 1.39623E-08
 -1        64-7.25285E+06-1.03186E+06-8.48761E+03-2.73627E+06 1.57233E-08-2.46214E-08
 -1        65-7.26279E+06-1.02723E+06-1.63072E+04-2.72394E+06-1.55496E-08-9.51329E-08
 -1        66-7.26904E+06-1.01027E+06-2.92009E+04-2.71578E+06 1.27511E-09-6.33700E-08
 -1        67-7.24799E+06-1.08809E+06-7.38059E+04-2.75766E+06 5.00222E-09 1.21781E-09
 -1        68-7.26844E+06-9.71492E+05-1.23958E+05-2.70269E+06-8.04357E-09-2.38288E-08
 -1        69-7.34865E+06-1.30853E+06-3.55823E+05-2.74619E+06-1.61890E-08 4.13893E-08
 -1        70-7.17088E+06-7.95026E+05-5.27353E+05-2.72609E+06 3.44007E-08 8.07922E-08
 -1        86-5.60242E+02-1.70752E+06 2.18653E+03-7.69077E+03-3.55470E-09 3.04492E-08
 -1        87 2.73816E+03-1.70166E+06 5.93000E+03 2.60743E+04-5.96879E-09 3.72504E-08
 -1        88-2.20135E+03-1.70650E+06 8.36525E+03-1.83833E+04-6.26869E-09 5.14211E-09
 -1        89 1.62138E+04-1.69737E+06 2.27833E+04 3.62811E+04-9.40236E-09-6.78129E-08
 -1        90-1.38349E+04-1.71198E+06 3.19584E+04-1.78989E+04-5.65342E-09-5.22871E-08
 -1       121-1.17852E+03-1.51183E+06-1.55434E+02 8.06528E+02 1.07568E-09-1.30531E-08
 -1       122-6.96067E+02-1.50893E+06 7.40140E+02-3.24058E+03-4.01650E-09 1.28202E-08
 -1       123-1.22553E+03-1.51194E+06 6.64694E+02 2.40898E+03 3.30829E-09 8.80391E-09
 -1       124 8.09803E+02-1.50831E+06 2.96015E+03-6.79759E+03-7.74799E-09 2.24827E-09
 -1       125-2.06494E+03-1.51277E+06 3.94865E+03 4.34469E+03 5.06770E-09-1.36060E-09
 -1       191-1.84498E+01 3.37430E+05 9.79296E+00 2.43998E-01-2.73665E-10 7.44240E-09
 -1       192-1.81083E+01 3.37404E+05 1.83637E+01-1.74475E+00-4.14007E-10-5.88716E-09
 -1       193-2.05809E+01 3.37429E+05 3.36073E+01 1.52193E+00-5.25397E-10-6.60839E-09
 -1       194-2.06905E+01 3.37406E+05 6.95236E+01-4.03478E+00-2.12292E-10-3.42880E-09
 -1       195-2.46748E+01 3.37427E+05 1.35444E+02 2.56209E+00-7.21261E-10-4.36557E-10
 -1       251-2.47492E+06-7.26600E+03-2.18046E+05-2.18665E+05-5.91172E-10 5.20959E-09
 -1       252-1.55902E+06 8.43799E+03 2.93350E+04 5.93421E+05 1.90585E-09 5.06925E-08
 -1       253-2.14659E+06 1.85614E+04-4.89243E+04-2.77453E+05 1.11413E-09-2.66755E-08
 -1       254-1.03834E+06 3.50997E+04 1.84830E+05 3.56844E+05 6.10271E-09-5.64551E-08
 -1       255-2.95851E+06-7.21285E+04-2.01508E+05 1.83426E+04 8.12361E-09 2.34609E-08
 -1       256-9.37093E+05 5.94264E+04 2.21411E+05-2.55467E+05 4.81759E-09-9.91440E-09
 -1       257-2.23980E+06-1.36461E+04-4.27524E+04 3.31654E+05-9.94351E-09-3.37644E-09
 -1       258-1.61289E+06 5.78876E+04 9.37320E+04-5.52983E+05 1.49652E-09 1.12662E-07
 -1       259-2.32967E+06-2.24312E+04-6.05858E+04 3.19091E+05-2.24763E-08 9.66344E-09
 -1       260-8.61055E+05 6.15780E+04 2.40395E+05-2.05392E+05 1.92322E-08-1.62742E-07
 -1       261-2.93970E+06-7.03118E+04-1.89306E+05-1.91838E+04 6.40466E-09 4.97823E-08
 -1       262-1.12046E+06 4.08732E+04 1.86796E+05 4.02126E+05 9.29504E-09-7.24840E-08
 -1       263-2.08933E+06 1.70452E+04-4.58688E+03-2.85117E+05-2.52917E-08-7.30865E-08
 -1       264-1.49629E+06 6.94338E+04 1.21125E+05 5.79640E+05-9.78149E-08 1.55014E-08
 -1       265-2.59221E+06-6.94672E+04-1.18321E+05-1.97129E+05-3.73220E-08-4.22283E-08
 -1       266-2.68015E+04-1.25320E+04 6.28859E+04-5.34527E+01 3.27418E-11-2.81230E-08
 -1       267 3.10706E+04 1.46069E+04 4.44459E+04 6.16719E+01-4.72937E-11-1.60932E-07
 -1       268-4.16650E+03-2.06871E+03 1.65204E+04-7.85817E+00-1.90994E-10-8.79474E-08
 -1       269 4.91943E+03 2.47585E+03 1.07379E+04 9.15348E+00-2.38742E-12 5.06552E-08
 -1       270-7.38410E+02-4.06798E+02 5.18336E+03-1.24220E+00-1.40176E-10 7.06956E-08
 -1       271-2.43612E+06-2.97718E+05-1.82002E+05-9.38827E+05-8.33097E-09 8.56307E-08
 -1       272-2.54084E+06-3.92296E+05-1.17185E+05-8.93779E+05 5.25142E-09 1.47951E-07
 -1       273-2.46948E+06-3.44175E+05-4.29599E+04-9.31716E+05-7.38873E-09 4.02706E-08
 -1       274-2.50128E+06-3.35681E+05-2.41013E+04-9.04719E+05 1.80980E-08-9.54105E-08
 -1       275-2.47454E+06-3.48663E+05-1.00145E+04-9.29890E+05-1.30058E-10-9.68839E-08
 -1       276-2.49398E+06-3.31442E+05-5.27559E+03-9.08222E+05 2.06414E-08-2.23590E-08
 -1       277-2.47643E+06-3.47978E+05-2.62814E+03-9.28251E+05-4.43561E-09 6.70843E-08
 -1       278-2.49019E+06-3.33788E+05-1.73569E+03-9.11605E+05 6.22640E-09 7.88896E-08
 -1       279-2.47808E+06-3.46416E+05-1.89776E+03-9.26356E+05 2.09184E-11-7.21002E-08
 -1       280-2.48681E+06-3.37627E+05-3.13335E+03-9.15427E+05-4.19050E-09-1.14414E-07
 -1       281-2.47962E+06-3.44282E+05-5.86929E+03-9.24290E+05-4.77485E-09-1.72788E-08
 -1       282-2.48561E+06-3.45182E+05-1.36898E+04-9.19172E+05-1.23000E-08 1.22180E-07
 -1       283-2.47924E+06-3.39260E+05-2.45658E+04-9.22426E+05-1.39316E-08 1.43198E-07
 -1       284-2.50308E+06-3.82302E+05-6.65833E+04-9.18584E+05-9.04402E-09 1.20657E-07
 -1       285-2.46270E+06-3.10479E+05-1.03668E+05-9.23695E+05-1.40353E-08 3.67800E-08
 -1       301 1.96372E+04-3.45876E+05 1.75355E+05-6.26208E+05 9.16771E-10-5.01859E-08
 -1       302 2.10811E+04-3.01620E+05 1.08948E+05-9.15950E+05-1.52795E-09-5.87979E-08
 -1       303-1.99493E+03-3.29615E+05 7.17554E+04-6.24740E+05 1.85537E-10 1.00508E-07
 -1       304 1.35138E+04-3.03454E+05 8.99114E+04-9.15303E+05 1.96451E-10 1.20421E-07
 -1       305 1.01277E+04-3.36070E+05 1.32681E+05-6.26829E+05-2.78305E-10-1.55924E-08
 -1       306-1.78588E+07-3.25815E+06-4.32170E+06-1.85001E+06-6.98492E-08-3.76604E-08
 -1       307 1.10108E+07-5.62020E+05 2.59477E+06-8.08614E+06-5.30446E-07 7.03440E-08
 -1       308-8.17123E+06 1.07073E+05-4.04663E+05 2.38611E+06-1.32772E-07 2.06419E-07
 -1       309-3.22497E+06 8.18658E+05 8.27841E+05-1.32095E+07 3.19016E-07 1.76813E-07
 -1       310-9.18176E+06-5.60662E+04-6.04952E+05 2.19537E+06 1.55938E-07 1.56797E-08
 -1       311 1.33147E+07-1.25777E+06 3.09554E+06-6.50051E+06 6.87578E-07-1.00757E-07
 -1       312-1.80994E+07-3.23930E+06-3.78964E+06-2.79272E+06 1.23458E-07 6.30534E-08
 -1       313 2.00211E+07 4.43090E+06 5.02994E+06 8.38628E+06-2.38128E-07 7.27450E-08
 -1       314-1.28047E+07-7.79461E+06-3.59269E+06-7.33519E+06 4.02622E-07 3.55940E-08
 -1       315-2.25102E+06 1.24143E+07 2.80007E+06 6.61314E+06-1.93490E-07 3.15486E-08
 -1       316-1.97445E+06-6.26856E+06-3.49650E+05-4.35026E+06-7.08984E-07-3.63507E-07
 -1       317-1.45311E+07 1.20780E+07 8.07416E+05-1.43115E+06 5.20391E-07-4.36652E-07
 -1       318-2.46814E+06-6.54641E+06-6.82041E+05-4.54708E+06-5.44242E-07 4.15603E-08
 -1       319-5.24344E+05 1.27964E+07 2.81564E+06 7.16596E+06-1.18736E-07 8.96689E-08
 -1       320-1.37327E+07-8.09747E+06-4.63790E+06-7.20591E+06 1.24448E-07-3.60305E-08
 -1       336 1.40875E+02-1.63661E+06-1.16932E+04 6.54291E+03-2.02836E-08-1.81644E-08
 -1       337-4.46358E+03-1.63759E+06-1.47954E+04-1.58461E+04-3.81110E-08-2.74995E-08
 -1       338 6.26782E+02-1.63635E+06-2.21580E+04 9.19032E+03-2.65991E-08-1.00590E-08
 -1       339-2.35304E+04-1.65039E+06-5.00199E+04-2.10102E+04-4.81778E-08 4.03161E-08
 -1       340 1.57387E+04-1.62505E+06-7.83762E+04 1.16299E+04-3.12903E-08 3.66599E-08
 -1       406 7.17358E+00 3.37414E+05 5.55049E+02 9.79732E-01-9.63439E-10 1.07993E-08
 -1       407 1.80013E+02 3.37519E+05 1.18088E+03 1.21062E+01-2.02768E-10-1.73955E-08
 -1       408 5.93719E+02 3.37329E+05 2.35770E+03-1.34137E+01-1.08474E-09-6.48470E-09
 -1       409 2.53732E+03 3.38272E+05 5.30891E+03 1.37297E+02-1.74680E-10-2.12531E-08
 -1       410 7.31477E+03 3.36657E+05 1.08374E+04-1.30874E+02-1.60253E-09-1.70085E-08
 -1       521-1.98555E+07-4.07480E+06-5.23326E+06-1.79993E+06-7.20611E-08 4.88944E-08
 -1       522 1.17798E+07-5.06664E+05 2.72072E+06-1.03467E+07-3.70434E-07-1.56346E-07
 -1       523-9.38853E+06-3.94687E+04-4.56818E+05 2.79259E+06 6.95582E-08-1.82696E-07
 -1       524-5.26079E+06 1.99048E+06 9.45080E+05-1.59745E+07 5.84689E-07-4.08940E-07
 -1       525-1.05447E+07-2.85669E+05-6.97842E+05 2.57752E+06 3.89409E-07-1.74259E-07
 -1       526 1.48483E+07-1.41976E+06 3.39387E+06-8.39806E+06 2.06521E-07 3.95812E-08
 -1       527-2.01860E+07-4.16471E+06-4.51107E+06-2.88514E+06 1.63913E-07 8.50414E-08
 -1       528 2.27115E+07 4.91391E+06 5.46074E+06 9.78627E+06 1.56288E-08 1.29032E-07
 -1       529-1.42072E+07-9.30725E+06-4.26990E+06-7.96403E+06 1.61759E-07-2.52621E-08
 -1       530-3.87216E+06 1.51311E+07 3.08345E+06 7.15868E+06-2.07350E-07 4.86616E-07
 -1       531-2.28549E+06-7.44488E+06-3.84744E+05-4.89654E+06-6.19970E-07 1.78348E-07
 -1       532-1.77653E+07 1.44464E+07 9.46126E+05-3.14060E+06 3.07926E-07-4.42655E-07
 -1       533-2.76026E+06-7.72414E+06-7.37885E+05-5.06501E+06-6.99074E-08-6.22938E-07
 -1       534-2.08778E+06 1.55771E+07 3.07565E+06 7.76779E+06-7.83912E-08 4.90458E-07
 -1       535-1.51663E+07-9.69057E+06-5.42622E+06-7.81150E+06 4.15603E-08 3.08719E-07
 -1       536-5.77339E+05-3.83950E+04-3.61729E+03-3.76397E+04-5.00677E-09 4.11965E-08
 -1       537-1.80189E+05 3.86994E+04 6.73409E+04 8.99155E+04-7.98650E-08 5.51845E-08
 -1       538-3.87528E+05 4.72239E+02 8.69211E+03-5.43601E+04 1.88601E-08 8.55439E-08
 -1       539-3.12407E+05 3.11039E+03 1.86111E+04 1.02849E+05 1.20278E-07 8.28637E-08
 -1       540-4.48299E+05-2.04168E+02-1.09495E+04-5.08121E+04 4.81464E-09 6.86343E-08
 -1       541-6.27069E+04 1.02648E+04 6.46527E+04 6.89316E+04-4.74911E-08 6.88437E-08
 -1       542-6.30530E+05-1.22189E+04-5.03152E+04-2.00486E+04 2.35586E-08 4.01444E-08
 -1       543 9.07772E+04 1.64383E+04 9.45058E+04-1.05226E+04-3.37059E-09-7.75458E-09
 -1       544-5.97695E+05-9.73919E+03-4.45881E+04 2.83308E+04-2.24231E-08-3.66926E-08
 -1       545-1.38202E+05 5.12895E+03 4.62808E+04-8.25458E+04-1.90729E-08-6.60120E-08
 -1       546-4.07649E+05 4.10561E+03-7.89026E+03 5.18274E+04 1.62107E-08-7.31497E-08
 -1       547-3.25313E+05-4.52345E+03 3.21443E+03-1.05237E+05-8.72715E-08-8.43784E-08
 -1       548-4.15560E+05 4.02625E+03-1.87675E+04 5.13351E+04-7.68075E-08-7.40060E-08
 -1       549-1.23648E+05 1.15694E+03 2.48139E+04-7.96802E+04-5.39048E-08-5.85446E-08
 -1       550-6.03876E+05-6.07353E+03-9.43985E+04 2.59390E+04-2.59661E-10-2.59242E-08
 -1       551 3.11254E+04-7.30294E+05 7.44809E+03-1.13866E+06-7.93225E-08-6.11180E-09
 -1       552 6.98205E+04-7.59200E+05 2.29695E+04-1.62336E+06-5.65196E-08 4.11019E-08
 -1       553 5.22499E+04-7.60565E+05 4.06934E+04-1.13339E+06-9.50531E-08 1.92813E-08
 -1       554 1.02867E+05-7.66037E+05 9.10511E+04-1.62525E+06-6.05069E-08 5.36420E-09
 -1       555 8.16028E+04-7.81968E+05 1.63174E+05-1.13374E+06-9.81163E-08-8.83301E-09
 -1       556 1.70947E+05-3.02690E+05 5.20334E+04-3.45396E+05-2.07656E-08-1.50467E-08
 -1       557 2.81462E+05-3.91418E+05 2.87573E+04-4.41558E+05-2.77942E-09-3.31966E-09
 -1       558 1.60807E+05-3.03776E+05 9.37328E+03-3.43438E+05-2.10130E-08 5.24597E-09
 -1       559 2.61534E+05-3.96447E+05 5.44363E+03-4.55220E+05 1.27475E-08 1.63600E-08
 -1       560 1.51111E+05-2.97637E+05 9.20505E+02-3.50244E+05 6.89761E-09 2.85581E-09
 -1       561 2.48977E+05-3.91698E+05 9.93031E+02-4.63608E+05 3.83443E-09 1.17798E-08
 -1       562 1.43469E+05-2.92830E+05-3.31092E+02-3.55742E+05 1.57161E-09 5.39876E-09
 -1       563 2.39951E+05-3.87763E+05 2.19995E+02-4.69459E+05-5.09317E-09-8.64020E-12
 -1       564 1.38164E+05-2.89507E+05-2.00960E+02-3.59490E+05 4.43833E-09-2.02726E-09
 -1       565 2.34226E+05-3.85273E+05 9.52969E+01-4.73104E+05 9.37143E-09 1.01613E-08
 -1       566 1.35280E+05-2.87675E+05-9.42654E+01-3.61511E+05-2.38288E-09 3.86171E-09
 -1       567 2.31801E+05-3.84212E+05-2.03983E+02-4.74535E+05 1.44037E-08 2.47383E-09
 -1       568 1.34881E+05-2.87441E+05-7.20370E+02-3.61885E+05-2.66573E-09-8.86939E-09
 -1       569 2.31536E+05-3.84185E+05-1.81688E+03-4.72851E+05-6.81757E-09 1.42172E-08
 -1       570 1.37873E+05-2.90099E+05-4.06181E+03-3.61150E+05 6.53381E-09 1.77006E-08
 -1       571 2.55050E+05 9.28468E+03 1.34809E+04-7.53992E+04 2.37287E-09 2.05159E-09
 -1       572 2.57028E+05 3.37551E+03 6.60583E+03-8.27158E+04 5.03132E-09-1.17798E-08
 -1       573 2.55840E+05 9.48982E+02 2.93501E+03-7.52476E+04 3.87672E-09 1.67793E-08
 -1       574 2.56054E+05 4.62594E+02 1.47132E+03-8.28997E+04 1.46429E-09 7.01584E-09
 -1       575 2.55928E+05 2.29791E+02 6.94181E+02-7.52272E+04 2.10974E-09 8.06813E-09
 -1       576 2.55929E+05 2.23443E+02 3.54851E+02-8.29242E+04-9.96010E-10 3.44698E-09
 -1       577 2.55955E+05 1.83005E+02 1.76830E+02-7.52244E+04-2.14732E-09 8.24912E-10
 -1       578 2.55940E+05 1.98577E+02 1.01066E+02-8.29275E+04-4.74802E-09-7.84985E-09
 -1       579 2.55998E+05 1.63013E+02 6.87807E+01-7.52242E+04 2.60752E-09-1.23846E-08
 -1       580 2.56000E+05 1.69572E+02 7.75464E+01-8.29233E+04-7.48696E-09 1.57197E-08
 -1       581 2.56066E+05 1.30308E+02 1.17156E+02-7.52288E+04 5.95173E-09-3.18323E-11
 -1       582 2.56112E+05 1.57773E+02 2.35555E+02-8.28747E+04-1.42245E-09 2.42471E-09
 -1       583 2.56148E+05 1.87754E+02 4.54622E+02-7.52730E+04-1.57161E-09 1.38814E-08
 -1       584 2.56382E+05 5.53841E+02 1.02558E+03-8.25032E+04 2.36105E-09-2.97428E-09
 -1       585 2.56129E+05 1.43736E+03 2.08075E+03-7.56002E+04-7.29415E-10 1.37152E-09
 -1       586-3.09926E+03 9.32776E+04-3.22137E+03-2.24294E+05-2.55613E-09-1.02489E-08
 -1       587-9.68938E+02 9.29332E+04 3.04481E+02-2.46870E+05-4.70573E-09-2.00216E-08
 -1       588 6.13504E+02 9.28707E+04 3.91608E+03-2.24181E+05-3.54339E-09-9.16498E-09
 -1       589 4.68147E+03 9.49439E+04 1.04874E+04-2.46632E+05-5.80621E-09 3.56522E-09
 -1       590 1.45251E+04 9.17219E+04 2.21292E+04-2.24567E+05-4.12001E-09 7.86167E-09
 -1       591-5.88345E+04-1.36416E+04-1.88117E+04-2.63759E+04 9.34278E-10 9.88712E-09
 -1       592-6.18850E+04-1.69757E+04-1.01898E+04-2.98168E+04-9.47125E-10-2.90981E-09
 -1       593-6.07189E+04-1.22734E+04-4.24163E+03-2.77523E+04-3.34182E-09 2.46064E-09
 -1       594-5.92827E+04-1.42207E+04-2.11546E+03-2.99216E+04-1.16768E-09 1.70967E-08
 -1       595-6.08627E+04-1.22686E+04-9.71450E+02-2.78149E+04-1.87707E-09 2.77058E-09
 -1       596-5.91049E+04-1.40947E+04-4.94084E+02-2.99010E+04 4.17173E-09 1.50465E-10
 -1       597-6.08807E+04-1.22813E+04-2.69548E+02-2.78173E+04-2.00032E-10 1.99464E-09
 -1       598-5.90874E+04-1.40898E+04-2.17615E+02-2.98952E+04 1.72668E-09-1.03095E-08
 -1       599-6.08796E+04-1.22816E+04-2.79135E+02-2.78169E+04 1.66176E-09-8.29448E-09
 -1       600-5.91052E+04-1.40955E+04-5.19467E+02-2.98995E+04 4.36194E-09 2.72780E-09
 -1       601-6.08583E+04-1.22692E+04-1.02527E+03-2.78138E+04 1.79170E-09 9.53378E-10
 -1       602-5.92928E+04-1.42278E+04-2.23472E+03-2.99181E+04 4.34738E-10 5.88602E-09
 -1       603-6.07041E+04-1.22768E+04-4.48167E+03-2.77482E+04-9.80208E-10-4.01678E-09
 -1       604-6.20570E+04-1.71224E+04-1.07659E+04-2.97865E+04 5.49556E-09 8.20546E-09
 -1       605-5.86960E+04-1.37373E+04-1.98754E+04-2.63101E+04 1.98827E-09 4.63297E-09
 -1       606 2.70306E+04-1.23994E+04-2.22545E+04 2.52518E+04 2.54022E-09-1.52049E-08
 -1       607 2.32254E+04-4.03571E+03-1.10822E+04 2.83623E+04 2.29193E-09-9.05470E-09
 -1       608 2.53900E+04-7.15027E+02-4.96178E+03 2.50620E+04-1.81899E-11 3.92538E-09
 -1       609 2.49696E+04-2.28490E+02-2.50635E+03 2.85858E+04-2.24009E-09 1.19612E-08
 -1       610 2.51992E+04-1.56362E+01-1.19631E+03 2.50402E+04-2.39834E-09 4.14707E-09
 -1       611 2.51286E+04-1.02479E+01-6.03155E+02 2.86101E+04-1.07411E-09 8.16817E-09
 -1       612 2.51535E+04-7.01966E-01-2.87269E+02 2.50380E+04-8.85757E-09 6.78779E-09
 -1       613 2.51336E+04-3.86868E+00-1.29161E+02 2.86130E+04-1.33018E-08 1.00135E-08
 -1       614 2.51304E+04-3.76760E+00-3.16138E+01 2.50372E+04-9.32778E-09-4.43674E-09
 -1       615 2.51250E+04-3.67475E-01 5.11349E+01 2.86134E+04-4.30418E-09-8.59472E-10
 -1       616 2.51125E+04 7.59821E-01 1.56061E+02 2.50375E+04-3.95767E-09 8.67817E-09
 -1       617 2.51408E+04 3.47048E+01 3.57247E+02 2.86129E+04 1.36652E-10-4.15935E-09
 -1       618 2.50792E+04 1.05141E+02 7.20452E+02 2.50377E+04 2.03408E-09 4.04134E-09
 -1       619 2.53933E+04 5.92899E+02 1.61813E+03 2.86122E+04 1.51658E-09-2.15164E-09
 -1       620 2.48388E+04 1.81455E+03 3.25243E+03 2.50377E+04 1.28568E-09 8.34689E-09
 -1       621 3.62167E+02 2.62129E+05 3.07391E+03 2.73182E+04 3.50610E-10-2.12476E-08
 -1       622 4.61115E+02 2.62863E+05 2.79969E+03 3.97000E+04 6.77801E-10-2.09907E-08
 -1       623 6.19722E+01 2.62294E+05 3.46115E+03 2.71916E+04 7.46581E-10-1.73418E-08
 -1       624 1.70612E+03 2.63956E+05 6.78679E+03 3.98265E+04 6.28461E-10 2.19643E-10
 -1       625 1.69494E+03 2.60953E+05 1.18975E+04 2.71888E+04 9.23592E-10-4.18436E-09
 -1       626 2.29670E+05 5.70569E+04 4.77974E+03 1.15307E+05 3.95539E-09 5.51699E-09
 -1       627 2.27332E+05 5.85359E+04 2.30330E+03 1.19488E+05 1.15188E-09-1.18644E-08
 -1       628 2.29801E+05 5.48548E+04 9.73698E+02 1.16100E+05 3.02862E-09 1.53223E-08
 -1       629 2.26716E+05 5.79211E+04 4.76624E+02 1.19731E+05-2.90538E-09-8.64193E-09
 -1       630 2.29812E+05 5.47495E+04 2.20685E+02 1.16131E+05-5.46788E-09-1.69326E-08
 -1       631 2.26648E+05 5.79000E+04 1.18268E+02 1.19732E+05 2.55022E-09 9.73847E-09
 -1       632 2.29806E+05 5.47549E+04 7.69673E+01 1.16125E+05 4.18049E-09 5.93445E-10
 -1       633 2.26637E+05 5.79034E+04 8.44124E+01 1.19726E+05 3.21006E-09-8.81846E-09
 -1       634 2.29799E+05 5.47538E+04 1.35228E+02 1.16122E+05-1.41199E-09 4.36830E-09
 -1       635 2.26648E+05 5.79031E+04 2.72951E+02 1.19729E+05-1.28284E-09 6.51335E-09
 -1       636 2.29789E+05 5.47500E+04 5.50853E+02 1.16121E+05-1.25635E-09 3.64389E-09
 -1       637 2.26765E+05 5.79892E+04 1.21077E+03 1.19727E+05 1.15506E-10 4.59977E-09
 -1       638 2.29745E+05 5.50182E+04 2.48775E+03 1.15999E+05 1.28216E-08-1.22341E-08
 -1       639 2.28071E+05 5.98064E+04 5.88577E+03 1.19341E+05 2.50266E-08-1.75260E-08
 -1       640 2.29567E+05 6.04417E+04 1.22141E+04 1.13708E+05 1.11886E-08-1.33566E-08
 -1       656 5.94885E+04-1.51753E+06-1.43605E+05-1.42390E+03 2.91038E-11-3.71631E-09
 -1       657-7.86749E+04-1.58240E+06-1.18915E+05 6.45350E+03 1.09139E-11-1.47231E-08
 -1       658 1.89398E+04-1.53597E+06-7.31708E+04-3.16664E+03 2.88992E-10-6.37797E-09
 -1       659-8.48942E+04-1.58535E+06-1.27085E+05 7.80683E+03-9.86802E-10 3.39099E-09
 -1       660 6.56936E+04-1.51459E+06-1.57654E+05-2.77721E+03-1.38243E-09-1.79642E-09
 -1       661 1.62339E+05 1.72627E+04 1.65293E+04 6.34735E+04 5.72982E-11-7.03858E-09
 -1       662 1.71442E+05 2.97411E+04 1.11390E+04 6.00412E+04 3.30363E-09-1.57602E-08
 -1       663 1.65585E+05 2.25666E+04 3.89602E+03 6.25329E+04-4.10864E-10 7.01448E-09
 -1       664 1.67682E+05 2.35368E+04 2.33015E+03 6.11887E+04 6.28461E-10-5.63594E-09
 -1       665 1.66075E+05 2.32927E+04 9.19232E+02 6.23914E+04-1.56604E-10 1.41558E-08
 -1       666 1.67103E+05 2.27052E+04 5.37374E+02 6.13725E+04 1.62815E-09 1.16543E-08
 -1       667 1.66160E+05 2.33765E+04 2.84847E+02 6.23571E+04 3.36900E-09-1.09975E-08
 -1       668 1.67010E+05 2.26431E+04 2.88871E+02 6.14223E+04-2.86391E-09-5.30268E-09
 -1       669 1.66167E+05 2.33529E+04 3.89980E+02 6.23420E+04-5.85644E-10 2.13094E-08
 -1       670 1.67106E+05 2.28535E+04 8.48143E+02 6.14245E+04-6.64990E-09 2.28106E-08
 -1       671 1.66064E+05 2.31704E+04 1.50559E+03 6.23531E+04 2.54794E-10-1.09144E-08
 -1       672 1.67983E+05 2.43181E+04 3.85174E+03 6.12121E+04 5.92266E-10-8.55425E-09
 -1       673 1.65294E+05 2.19252E+04 6.45480E+03 6.25402E+04-1.20895E-09 2.57705E-09
 -1       674 1.74128E+05 3.46873E+04 1.84593E+04 5.94060E+04-1.76215E-11 2.79397E-09
 -1       675 1.59959E+05 1.30915E+04 2.73999E+04 6.40501E+04-2.75440E-09 4.78940E-09
 -1       676 2.22930E+01-2.72014E+05-1.03449E+03-5.39999E+01 5.85004E-10-5.03338E-10
 -1       677-2.74553E+02-2.72264E+05-1.89328E+03 1.07924E+02 3.97677E-09-1.74517E-08
 -1       678 1.83424E+02-2.71836E+05-3.34684E+03-5.38879E+01 3.06159E-10-9.40775E-09
 -1       679-3.34770E+03-2.74284E+05-7.95061E+03 1.07495E+02 3.37513E-09-2.23831E-09
 -1       680 1.99809E+03-2.69995E+05-1.28137E+04-5.29687E+01 1.94632E-10-9.71049E-09
 -1       771-2.85123E+06-6.36282E+05-1.15612E+05-1.31828E+06-2.35450E-08-1.85682E-08
 -1       772-2.79312E+06-7.07216E+05-6.00341E+04-1.39975E+06-1.87429E-08 6.90488E-09
 -1       773-2.87288E+06-6.19247E+05-2.96861E+04-1.32700E+06-4.91855E-09 9.39326E-09
 -1       774-2.78410E+06-6.94795E+05-1.34395E+04-1.41657E+06 2.54804E-08-8.06176E-09
 -1       775-2.88324E+06-6.11928E+05-9.44351E+03-1.33077E+06-9.02219E-10 1.36788E-09
 -1       776-2.79074E+06-6.93409E+05-3.63205E+03-1.42873E+06-1.55705E-09 1.74987E-09
 -1       777-2.89201E+06-6.05544E+05-3.95679E+03-1.33408E+06 9.16771E-10 3.40879E-09
 -1       778-2.79782E+06-6.92207E+05-1.15391E+03-1.43911E+06-4.36557E-10 6.66114E-09
 -1       779-2.89945E+06-6.00032E+05-1.91148E+03-1.33691E+06-9.05129E-09-6.98128E-09
 -1       780-2.80405E+06-6.91048E+05-3.25898E+02-1.44754E+06-1.33878E-09 5.60249E-10
 -1       781-2.90530E+06-5.95624E+05-7.26223E+02-1.33913E+06-1.49157E-08 4.43470E-09
 -1       782-2.80882E+06-6.90040E+05 2.66598E+02-1.45375E+06-2.97150E-08-8.00264E-09
 -1       783-2.90940E+06-5.92589E+05 4.23540E+02-1.34069E+06-9.16771E-09-1.02111E-08
 -1       784-2.81141E+06-6.88904E+05 1.72505E+03-1.45757E+06-1.45574E-08 1.88356E-09
 -1       785-2.91181E+06-5.90794E+05 3.04690E+03-1.34170E+06-2.76559E-08 1.06320E-08
 -1       786 1.23632E+05-9.30105E+03 2.15179E+04-2.11011E+02 1.03843E-09-5.89534E-09
 -1       787 1.32963E+05 1.07680E+04 1.52232E+04-4.19664E+01 5.24198E-09 9.76365E-09
 -1       788 1.27230E+05-1.45779E+03 5.56752E+03-1.81116E+02 2.96270E-09 5.42741E-09
 -1       789 1.28771E+05 1.68680E+03 3.49563E+03-8.90783E+01-4.72706E-10 3.90241E-09
 -1       790 1.27824E+05-2.27297E+02 1.41651E+03-1.63909E+02-1.12373E-09 9.73324E-09
 -1       791 1.28077E+05 2.62712E+02 8.20484E+02-1.18779E+02-4.05705E-09 9.36330E-09
 -1       792 1.27924E+05-3.47683E+01 3.52350E+02-1.51416E+02-2.60473E-09 6.78186E-09
 -1       793 1.27958E+05 3.84730E+01 1.85894E+02-1.42282E+02-9.79723E-11-1.08893E-08
 -1       794 1.27943E+05-3.19920E+00 6.88804E+01-1.40405E+02 3.38880E-09-1.35649E-08
 -1       795 1.27931E+05-8.83577E+00 1.86731E-01-1.65190E+02-1.92502E-09-4.73785E-09
 -1       796 1.27952E+05 1.25152E+01-5.98713E+01-1.28508E+02 2.22962E-09-1.01269E-08
 -1       797 1.27887E+05-9.66106E+01-1.90911E+02-1.92369E+02 2.06448E-09-1.82416E-08
 -1       798 1.27987E+05 8.45091E+01-3.17381E+02-1.13227E+02 1.18066E-09-2.83829E-09
 -1       799 1.27644E+05-6.23732E+02-8.79561E+02-2.29657E+02 3.97534E-09-1.31691E-08
 -1       800 1.28195E+05 5.39200E+02-1.24655E+03-9.12195E+01 5.08002E-10 3.02174E-09
 -1       801-1.40367E+04-6.80162E+06-8.60406E+05 6.97230E+05 6.60657E-08-4.02288E-08
 -1       802 2.63502E+05 9.81510E+05 9.35187E+05-7.96663E+05 1.84522E-07-1.92740E-08
 -1       803-2.43421E+05-8.59356E+06-9.25442E+05 4.60513E+05 6.01176E-08 2.12767E-08
 -1       804 9.60404E+04-9.32480E+05 6.56806E+05 4.19129E+05-7.33417E-08-4.37010E-08
 -1       805 1.17786E+05-4.90119E+06-1.46895E+05-5.16091E+05-3.06136E-08-3.43334E-08
 -1       806-2.76080E+05-5.26311E+04-2.02034E+04-1.08484E+05-3.56295E-09 1.13600E-08
 -1       807-2.77796E+05-4.92061E+04-9.92571E+03-1.13235E+05 6.00994E-09 6.35106E-09
 -1       808-2.76625E+05-4.53603E+04-4.21088E+03-1.11939E+05-4.72846E-09 2.45007E-09
 -1       809-2.75715E+05-4.64121E+04-2.05904E+03-1.13474E+05-5.58180E-09 9.19863E-09
 -1       810-2.76708E+05-4.51070E+04-9.43719E+02-1.12092E+05 3.05999E-09 4.37467E-09
 -1       811-2.75555E+05-4.62991E+04-4.69286E+02-1.13443E+05 1.24260E-09-1.60563E-08
 -1       812-2.76722E+05-4.51283E+04-2.37215E+02-1.12092E+05-1.89175E-09-5.83123E-09
 -1       813-2.75534E+05-4.63006E+04-1.54045E+02-1.13427E+05-1.51886E-09 2.85581E-10
 -1       814-2.76717E+05-4.51361E+04-1.52335E+02-1.12089E+05-1.27357E-08-6.76437E-09
 -1       815-2.75538E+05-4.63022E+04-2.45399E+02-1.13422E+05-2.24732E-08 1.56779E-08
 -1       816-2.76700E+05-4.51343E+04-4.64831E+02-1.12087E+05-1.12350E-08 2.31266E-08
 -1       817-2.75619E+05-4.63462E+04-9.97920E+02-1.13413E+05-1.18271E-08 2.28647E-09
 -1       818-2.76642E+05-4.52738E+04-2.03517E+03-1.12021E+05-9.23956E-09 1.68257E-10
 -1       819-2.76733E+05-4.75771E+04-4.78921E+03-1.13154E+05-6.03313E-09 9.27503E-09
 -1       820-2.76264E+05-4.88869E+04-9.74747E+03-1.10471E+05 1.98725E-09 2.24293E-08
 -1       821-3.39572E+05 1.87347E+04-4.33452E+04 8.66471E+02 6.44139E-09-6.93217E-09
 -1       822-3.58287E+05-2.16888E+04-3.06613E+04-1.63718E+03 4.92335E-10-3.03771E-09
 -1       823-3.46777E+05 2.93868E+03-1.12232E+04 1.07183E+03-4.14393E-09-9.90576E-09
 -1       824-3.49834E+05-3.39873E+03-7.05658E+03-1.56162E+03 1.56243E-10-1.65596E-09
 -1       825-3.48021E+05 4.58333E+02-2.91091E+03 7.90922E+02 6.00813E-09 5.87238E-09
 -1       826-3.48340E+05-5.37652E+02-1.72808E+03-6.54343E+02 6.23763E-09-6.48524E-09
 -1       827-3.48268E+05 7.74785E+01-9.27320E+02 1.64532E+02 1.89986E-09-8.49025E-09
 -1       828-3.48132E+05-1.62223E+02-7.77934E+02 6.30548E+02-1.64687E-09-2.79419E-09
 -1       829-3.48229E+05 8.28673E+01-9.41201E+02-4.93989E+02 7.90266E-11-5.10948E-09
 -1       830-3.48436E+05-5.63696E+02-1.80830E+03 1.64867E+03-1.83462E-11 1.54682E-09
 -1       831-3.47966E+05 4.80794E+02-3.01390E+03-8.53608E+02-1.92551E-09 1.58636E-08
 -1       832-3.49921E+05-3.53763E+03-7.34201E+03 1.88827E+03-8.38067E-10 5.09181E-09
 -1       833-3.46747E+05 3.05546E+03-1.16775E+04-7.33594E+02-2.43910E-09 1.25033E-08
 -1       834-3.58609E+05-2.25549E+04-3.18729E+04 1.21838E+03-1.50279E-09 8.58154E-09
 -1       835-3.39278E+05 1.94817E+04-4.50926E+04-1.83703E+02 5.01110E-09 5.20413E-09
 -1       836-1.20390E+03 3.23780E+05 1.98615E+04-1.60212E+04-3.40333E-09-8.14907E-10
 -1       837 4.27723E+03 3.29980E+05 1.69019E+04-3.24359E+04-3.65344E-09-1.55342E-09
 -1       838-4.70226E+02 3.25506E+05 1.73551E+04-1.59541E+04-2.80079E-09 7.54881E-11
 -1       839 1.10182E+04 3.35003E+05 3.29624E+04-3.24813E+04-3.00270E-09 4.43606E-10
 -1       840-3.37654E+03 3.18708E+05 5.26204E+04-1.59778E+04-2.71757E-09-1.80918E-09
 -1       856-6.37104E+04 7.76640E+03-2.04664E+04-4.03540E+02 1.01670E-09-6.04268E-09
 -1       857-7.21520E+04-9.11773E+03-1.40896E+04 5.17487E+03 2.35119E-09-7.13021E-09
 -1       858-6.70499E+04 1.08873E+03-5.31092E+03-4.26417E+02 1.84173E-11-2.00930E-09
 -1       859-6.83187E+04-1.27378E+03-3.20582E+03 5.20994E+03 6.42729E-10 1.74805E-09
 -1       860-6.75490E+04 1.52004E+02-1.34504E+03-4.38514E+02-3.52287E-10 4.46636E-09
 -1       861-6.77444E+04-1.74898E+02-7.43062E+02 5.22648E+03-1.56234E-09-6.25000E-09
 -1       862-6.76269E+04 2.03282E+01-3.15154E+02-4.42961E+02 1.53012E-09-1.09738E-08
 -1       863-6.76499E+04-1.59819E+01-1.29043E+02 5.22884E+03 1.73367E-09 5.22025E-09
 -1       864-6.76438E+04-3.34613E+00 1.36292E+01-4.40884E+02 1.15544E-09-5.79776E-09
 -1       865-6.76049E+04 4.85495E+01 1.75682E+02 5.21760E+03-1.48877E-09 2.60937E-09
 -1       866-6.76700E+04-4.43842E+01 3.70503E+02-4.31716E+02 2.13845E-10-1.52579E-09
 -1       867-6.74262E+04 3.68224E+02 9.22556E+02 5.19264E+03 8.74053E-10-8.40080E-09
 -1       868-6.78182E+04-3.17729E+02 1.53553E+03-4.15926E+02-7.31461E-10-2.97234E-09
 -1       869-6.62973E+04 2.64411E+03 4.09255E+03 5.15112E+03 1.31521E-09 5.93730E-10
 -1       870-6.87923E+04-2.25915E+03 5.93862E+03-3.90157E+02-2.03715E-09 6.84781E-09
 -1       871-5.02579E+03-1.58506E+04-1.71113E+04 1.14160E+05-1.83536E-09 2.01453E-08
 -1       872-1.97317E+03-1.97696E+04-7.10185E+03 1.48016E+05-4.73665E-09 1.35860E-08
 -1       873 1.81673E+02-1.79026E+04 6.76587E+02 1.13909E+05-2.55841E-09 9.36109E-09
 -1       874 2.76184E+03-1.56521E+04 8.95729E+03 1.48051E+05-5.27416E-09 1.22461E-08
 -1       875 6.04507E+03-2.00346E+04 2.00836E+04 1.14119E+05-2.23190E-09 8.58563E-10
 -1       876 2.64737E+05 4.49370E+04 1.37454E+04 1.06616E+05-1.97326E-09-7.84166E-09
 -1       877 2.65612E+05 4.78647E+04 7.34050E+03 1.10589E+05 4.62842E-09-3.93902E-09
 -1       878 2.66021E+05 4.34153E+04 3.07532E+03 1.07744E+05-4.00405E-09 1.40494E-09
 -1       879 2.63744E+05 4.60007E+04 1.53223E+03 1.10683E+05 3.85580E-09 1.52269E-08
 -1       880 2.66114E+05 4.33992E+04 7.13620E+02 1.07790E+05-2.54363E-09-2.66709E-10
 -1       881 2.63620E+05 4.59211E+04 3.80857E+02 1.10663E+05-1.56979E-09 3.10229E-09
 -1       882 2.66122E+05 4.34110E+04 2.43276E+02 1.07791E+05-1.64937E-09-3.72243E-09
 -1       883 2.63611E+05 4.59171E+04 2.60917E+02 1.10656E+05 1.98082E-09 4.90382E-09
 -1       884 2.66117E+05 4.34084E+04 4.14505E+02 1.07792E+05 1.29921E-09-8.52066E-09
 -1       885 2.63644E+05 4.59229E+04 8.33042E+02 1.10666E+05-3.22086E-09 6.49936E-09
 -1       886 2.66084E+05 4.33840E+04 1.67880E+03 1.07788E+05 8.14964E-10 2.63435E-09
 -1       887 2.63939E+05 4.61164E+04 3.66708E+03 1.10709E+05 7.03608E-09-1.09773E-08
 -1       888 2.65853E+05 4.34248E+04 7.38926E+03 1.07671E+05-1.71491E-09-1.43168E-08
 -1       889 2.68339E+05 5.06902E+04 1.76518E+04 1.10573E+05-3.15688E-09 8.92123E-09
 -1       890 2.62840E+05 4.70042E+04 3.30612E+04 1.04855E+05-3.37650E-10 1.87956E-08
 -1       891-1.14487E+02-1.47808E+05-1.79488E+03 2.57324E+04-5.09772E-10 3.83034E-09
 -1       892-2.09886E+02-1.48264E+05-1.93369E+03 3.90148E+04 1.39630E-09-1.01895E-08
 -1       893 5.00194E+00-1.47865E+05-2.74403E+03 2.57386E+04-3.57886E-10-3.12048E-09
 -1       894-1.41840E+03-1.49305E+05-5.68360E+03 3.88726E+04 1.49794E-09 1.04774E-08
 -1       895-1.11931E+03-1.46681E+05-1.00105E+04 2.58746E+04-4.37012E-10-7.64157E-09
 -1       956-3.37897E+05-4.80603E+03-1.19757E+04 2.54691E+04 4.20187E-09-1.03585E-08
 -1       957-3.40254E+05-1.65978E+03-6.14735E+03 3.06394E+04-1.04774E-09-2.02717E-08
 -1       958-3.38967E+05-1.72333E+02-2.76989E+03 2.53237E+04 2.98132E-09-5.86920E-09
 -1       959-3.39149E+05-7.27530E+01-1.41460E+03 3.08039E+04 9.17862E-09 3.30988E-09
 -1       960-3.39068E+05-7.06355E-01-6.89777E+02 2.53091E+04 3.39924E-09 9.31914E-09
 -1       961-3.39073E+05-1.01167E+01-3.65958E+02 3.08209E+04 4.56203E-09 2.38242E-09
 -1       962-3.39090E+05-3.47637E+00-2.09722E+02 2.53068E+04 2.84422E-09 9.82436E-09
 -1       963-3.39071E+05-7.43553E+00-1.68770E+02 3.08239E+04 3.37468E-09-6.62271E-09
 -1       964-3.39094E+05-8.27381E-01-2.05587E+02 2.53061E+04-7.85462E-10 7.32575E-09
 -1       965-3.39083E+05-4.47498E+00-3.55868E+02 3.08234E+04-2.85985E-09 2.53547E-08
 -1       966-3.39081E+05 7.17133E+00-6.68634E+02 2.53072E+04-1.40562E-09 9.26775E-10
 -1       967-3.39166E+05-5.97474E+01-1.37150E+03 3.08120E+04 4.78622E-10-1.17675E-08
 -1       968-3.38992E+05-1.54074E+02-2.68458E+03 2.53175E+04-2.48383E-09 3.06807E-09
 -1       969-3.40247E+05-1.59385E+03-5.96010E+03 3.06918E+04-6.39830E-09-4.29057E-09
 -1       970-3.37961E+05-4.64339E+03-1.16100E+04 2.54244E+04-4.11001E-09 1.50339E-08
 -1       971-3.12699E+05-1.58960E+03-8.67974E+03 1.42986E+04 2.69301E-09-3.27631E-09
 -1       972-3.14798E+05-1.15718E+03-4.72691E+03 1.98636E+04 1.10458E-09-4.23370E-09
 -1       973-3.13666E+05-3.74018E+01-2.11701E+03 1.41829E+04 8.75843E-10-3.73529E-09
 -1       974-3.13800E+05-4.73275E+01-1.09714E+03 1.99920E+04 1.30331E-09-6.27028E-09
 -1       975-3.13742E+05 4.03273E+00-5.48240E+02 1.41716E+04-1.15051E-09-8.75502E-09
 -1       976-3.13743E+05-1.18712E+00-3.15973E+02 2.00062E+04 1.10913E-09-1.12776E-08
 -1       977-3.13757E+05 4.41670E+00-2.28751E+02 1.41686E+04-2.51589E-09-5.98152E-09
 -1       978-3.13747E+05 4.37013E+00-2.66901E+02 2.00103E+04-3.04863E-09 1.24121E-08
 -1       979-3.13756E+05 1.19719E+01-4.28148E+02 1.41674E+04-3.39924E-10-1.27932E-09
 -1       980-3.13779E+05 7.10824E+00-8.26275E+02 2.00111E+04 3.79026E-09 1.54910E-08
 -1       981-3.13730E+05 3.26021E+01-1.60008E+03 1.41679E+04 3.93470E-09 1.24770E-08
 -1       982-3.13998E+05-1.11076E+02-3.30720E+03 2.00050E+04 1.91244E-09 5.95836E-09
 -1       983-3.13529E+05-6.97929E+01-6.42583E+03 1.41736E+04-1.90971E-09 7.04017E-09
 -1       984-3.17089E+05-3.46698E+03-1.43902E+04 1.99248E+04-7.67841E-10 8.75139E-09
 -1       985-3.10619E+05-4.77180E+03-2.64249E+04 1.42465E+04-1.54887E-09 2.21189E-09
 -3
    1PSTEP                        27          14           1          
  100CL  114 6.22559E-01         409                     0   14           1
 -4  DISP        4    1
 -5  D1          1    2    1    0
 -5  D2          1    2    2    0
 -5  D3          1    2    3    0
 -5  ALL         1    2    0    0    1ALL
 -1         1 1.60625E-03 0.00000E+00 0.00000E+00
 -1         2 1.50823E-03-8.65814E-29-2.64698E-23
 -1         3 2.87111E-04 5.60461E-27-1.32349E-23
 -1         5 1.56287E-04 5.49081E-26-8.27181E-25
 -1         8 1.58779E-03-5.73323E-07 0.00000E+00
 -1         9 1.55134E-03-4.53560E-06 0.00000E+00
 -1        10 2.60930E-04-3.35752E-06 0.00000E+00
 -1        12 1.57386E-04 7.32071E-07 1.24077E-24
 -1        15 1.56550E-03-6.29923E-07 2.06795E-25
 -1        16 1.57268E-03-5.48047E-06 0.00000E+00
 -1        17 1.79596E-04-7.43955E-06 0.00000E+00
 -1        18 1.59225E-04 2.39657E-05 0.00000E+00
 -1        19 1.60684E-04 1.45959E-06 0.00000E+00
 -1        20 1.60830E-04-1.72075E-06 0.00000E+00
 -1        21 1.60044E-04-8.03097E-06-3.30872E-24
 -1        24 2.80684E-05-1.08833E-05 0.00000E+00
 -1        25 1.66259E-04 2.41609E-05 0.00000E+00
 -1        26 1.66955E-04 2.02243E-06 0.00000E+00
 -1        27 1.64961E-04-4.98141E-06 0.00000E+00
 -1        28 1.64601E-04-8.61184E-06 0.00000E+00
 -1        32 0.00000E+00 0.00000E+00 0.00000E+00
 -1        33 1.72185E-04 2.70802E-06 0.00000E+00
 -1        34 1.70240E-04-5.02458E-06 0.00000E+00
 -1        35 1.68450E-04-8.92774E-06 0.00000E+00
 -1        51 1.60506E-03-1.05552E-07 0.00000E+00
 -1        52 1.60285E-03-1.97766E-07 0.00000E+00
 -1        53 1.59981E-03-2.88477E-07 0.00000E+00
 -1        54 1.59615E-03-3.79758E-07 0.00000E+00
 -1        55 1.59208E-03-4.73072E-07 3.30872E-24
 -1        56 1.60288E-03-8.89777E-08 0.00000E+00
 -1        57 1.59864E-03 1.77995E-06 0.00000E+00
 -1        58 1.59378E-03 5.32064E-06-1.05879E-22
 -1        59 1.58843E-03 1.00710E-05 5.29396E-23
 -1        60 1.58286E-03 1.54117E-05-1.05879E-22
 -1        61 1.57732E-03 2.06728E-05 0.00000E+00
 -1        62 1.57205E-03 2.51975E-05 1.05879E-22
 -1        63 1.56730E-03 2.83804E-05 5.29396E-23
 -1        64 1.56321E-03 2.98100E-05 1.05879E-22
 -1        65 1.55989E-03 2.92007E-05 5.29396E-23
 -1        66 1.55733E-03 2.65618E-05 0.00000E+00
 -1        67 1.55547E-03 2.20497E-05-5.29396E-23
 -1        68 1.55414E-03 1.60913E-05 1.05879E-22
 -1        69 1.55317E-03 9.22538E-06 0.00000E+00
 -1        70 1.55229E-03 2.10920E-06 0.00000E+00
 -1        86 1.51033E-03-7.30014E-07 0.00000E+00
 -1        87 1.51656E-03-1.47662E-06 0.00000E+00
 -1        88 1.52547E-03-2.24190E-06 2.64698E-23
 -1        89 1.53552E-03-3.01771E-06 1.32349E-23
 -1        90 1.54477E-03-3.78642E-06 2.64698E-23
 -1       121 2.86376E-04-5.47608E-07 0.00000E+00
 -1       122 2.84173E-04-1.09729E-06 6.61744E-24
 -1       123 2.80511E-04-1.65110E-06 0.00000E+00
 -1       124 2.75403E-04-2.21110E-06 0.00000E+00
 -1       125 2.68868E-04-2.77902E-06-1.32349E-23
 -1       191 1.56318E-04 1.22037E-07 3.30872E-24
 -1       192 1.56409E-04 2.44069E-07-1.65436E-24
 -1       193 1.56562E-04 3.66094E-07 2.48154E-24
 -1       194 1.56776E-04 4.88107E-07 1.24077E-24
 -1       195 1.57050E-04 6.10101E-07-1.65436E-24
 -1       251 1.58681E-03 2.06546E-05-1.32349E-23
 -1       252 1.58457E-03 7.59138E-05 6.61744E-24
 -1       253 1.58191E-03 1.39208E-04 2.64698E-23
 -1       254 1.58020E-03 1.84286E-04 1.32349E-23
 -1       255 1.57930E-03 1.95766E-04 0.00000E+00
 -1       256 1.57784E-03 1.59394E-04 0.00000E+00
 -1       257 1.57451E-03 8.62235E-05 2.64698E-23
 -1       258 1.56916E-03-1.14773E-05 0.00000E+00
 -1       259 1.56400E-03-1.07057E-04 0.00000E+00
 -1       260 1.56109E-03-1.73922E-04 0.00000E+00
 -1       261 1.55988E-03-2.02120E-04 0.00000E+00
 -1       262 1.55888E-03-1.82993E-04 0.00000E+00
 -1       263 1.55695E-03-1.33010E-04 0.00000E+00
 -1       264 1.55428E-03-6.96649E-05 0.00000E+00
 -1       265 1.55224E-03-1.84618E-05 0.00000E+00
 -1       266 1.58407E-03-5.91175E-07 3.30872E-24
 -1       267 1.58036E-03-5.99582E-07 8.27181E-25
 -1       268 1.57664E-03-6.08587E-07 8.27181E-25
 -1       269 1.57293E-03-6.15821E-07 2.06795E-25
 -1       270 1.56921E-03-6.23013E-07 0.00000E+00
 -1       271 1.58548E-03 2.83553E-06 1.32349E-23
 -1       272 1.58316E-03 6.20555E-06 1.32349E-23
 -1       273 1.58089E-03 9.43326E-06 0.00000E+00
 -1       274 1.57871E-03 1.24031E-05 0.00000E+00
 -1       275 1.57667E-03 1.50064E-05 2.64698E-23
 -1       276 1.57481E-03 1.71368E-05 0.00000E+00
 -1       277 1.57317E-03 1.86944E-05 0.00000E+00
 -1       278 1.57177E-03 1.95853E-05 0.00000E+00
 -1       279 1.57066E-03 1.97240E-05-2.64698E-23
 -1       280 1.56986E-03 1.90337E-05 0.00000E+00
 -1       281 1.56940E-03 1.74474E-05 0.00000E+00
 -1       282 1.56929E-03 1.49088E-05 1.32349E-23
 -1       283 1.56955E-03 1.13729E-05 0.00000E+00
 -1       284 1.57020E-03 6.80739E-06 0.00000E+00
 -1       285 1.57123E-03 1.19018E-06 2.64698E-23
 -1       301 1.55518E-03-4.71463E-06-6.61744E-24
 -1       302 1.55811E-03-4.86349E-06 0.00000E+00
 -1       303 1.56074E-03-5.00922E-06 0.00000E+00
 -1       304 1.56365E-03-5.15496E-06-6.61744E-24
 -1       305 1.56743E-03-5.30522E-06 0.00000E+00
 -1       306 1.58080E-03-1.15260E-04 0.00000E+00
 -1       307 1.64364E-03-4.25594E-04 0.00000E+00
 -1       308 1.70924E-03-8.86006E-04 0.00000E+00
 -1       309 1.76690E-03-1.42754E-03 0.00000E+00
 -1       310 1.82589E-03-1.95699E-03 0.00000E+00
 -1       311 1.89285E-03-2.38232E-03 0.00000E+00
 -1       312 1.95041E-03-2.64112E-03 0.00000E+00
 -1       313 1.96306E-03-2.69447E-03 0.00000E+00
 -1       314 1.88820E-03-2.54565E-03 0.00000E+00
 -1       315 1.69794E-03-2.22833E-03 0.00000E+00
 -1       316 1.40295E-03-1.79843E-03-1.05879E-22
 -1       317 1.04225E-03-1.31300E-03 0.00000E+00
 -1       318 6.87356E-04-8.32310E-04-1.05879E-22
 -1       319 4.08142E-04-4.17293E-04 0.00000E+00
 -1       320 2.37574E-04-1.24430E-04 0.00000E+00
 -1       336 2.51437E-04-3.99234E-06 0.00000E+00
 -1       337 2.40242E-04-4.64466E-06 0.00000E+00
 -1       338 2.27397E-04-5.31564E-06 0.00000E+00
 -1       339 2.12962E-04-6.00555E-06 6.61744E-24
 -1       340 1.97003E-04-6.71778E-06 0.00000E+00
 -1       406 1.57783E-04 8.54005E-07 1.65436E-24
 -1       407 1.58242E-04 9.75874E-07 0.00000E+00
 -1       408 1.58761E-04 1.09764E-06 1.65436E-24
 -1       409 1.59341E-04 1.21915E-06-4.13590E-25
 -1       410 1.59983E-04 1.34017E-06-1.65436E-24
 -1       521 1.60321E-03-1.24769E-04 0.00000E+00
 -1       522 1.66629E-03-4.54302E-04 0.00000E+00
 -1       523 1.72922E-03-9.41890E-04 0.00000E+00
 -1       524 1.78187E-03-1.51301E-03 0.00000E+00
 -1       525 1.83633E-03-2.07065E-03 0.00000E+00
 -1       526 1.90162E-03-2.51915E-03-5.29396E-23
 -1       527 1.95956E-03-2.79097E-03 0.00000E+00
 -1       528 1.97148E-03-2.84588E-03 0.00000E+00
 -1       529 1.88938E-03-2.68657E-03-1.05879E-22
 -1       530 1.68282E-03-2.35168E-03 0.00000E+00
 -1       531 1.36238E-03-1.90019E-03 0.00000E+00
 -1       532 9.71175E-04-1.39256E-03 5.29396E-23
 -1       533 5.85686E-04-8.89312E-04 1.05879E-22
 -1       534 2.80763E-04-4.51617E-04 0.00000E+00
 -1       535 9.35921E-05-1.39759E-04-1.05879E-22
 -1       536 1.79036E-04 2.13514E-05-6.61744E-24
 -1       537 1.77679E-04 7.14018E-05 0.00000E+00
 -1       538 1.75602E-04 1.34959E-04 0.00000E+00
 -1       539 1.73163E-04 2.04198E-04 1.65436E-24
 -1       540 1.70965E-04 2.69597E-04-3.30872E-24
 -1       541 1.69523E-04 3.21652E-04 0.00000E+00
 -1       542 1.68839E-04 3.54672E-04 3.30872E-24
 -1       543 1.68646E-04 3.63085E-04-1.65436E-24
 -1       544 1.68375E-04 3.47591E-04 3.30872E-24
 -1       545 1.67505E-04 3.09060E-04 0.00000E+00
 -1       546 1.65932E-04 2.54357E-04 0.00000E+00
 -1       547 1.63832E-04 1.90446E-04 0.00000E+00
 -1       548 1.61759E-04 1.26983E-04 0.00000E+00
 -1       549 1.60255E-04 7.36239E-05 0.00000E+00
 -1       550 1.59459E-04 3.70817E-05 0.00000E+00
 -1       551 1.58650E-04-7.91554E-06 0.00000E+00
 -1       552 1.34797E-04-8.44945E-06 0.00000E+00
 -1       553 1.08918E-04-9.02912E-06-9.92617E-24
 -1       554 8.19073E-05-9.63855E-06 3.30872E-24
 -1       555 5.46606E-05-1.02563E-05 0.00000E+00
 -1       556 1.73376E-04 8.52732E-06 0.00000E+00
 -1       557 1.68386E-04 2.13812E-05 0.00000E+00
 -1       558 1.64509E-04 3.13711E-05 0.00000E+00
 -1       559 1.61633E-04 3.87664E-05 0.00000E+00
 -1       560 1.59647E-04 4.38361E-05 0.00000E+00
 -1       561 1.58442E-04 4.68515E-05 0.00000E+00
 -1       562 1.57911E-04 4.80850E-05 0.00000E+00
 -1       563 1.57948E-04 4.78093E-05 0.00000E+00
 -1       564 1.58448E-04 4.62980E-05 0.00000E+00
 -1       565 1.59306E-04 4.38249E-05 0.00000E+00
 -1       566 1.60422E-04 4.06646E-05 6.61744E-24
 -1       567 1.61690E-04 3.70915E-05 0.00000E+00
 -1       568 1.63010E-04 3.33804E-05 8.27181E-25
 -1       569 1.64279E-04 2.98059E-05 0.00000E+00
 -1       570 1.65396E-04 2.66426E-05 0.00000E+00
 -1       571 1.59314E-04 2.25087E-05 0.00000E+00
 -1       572 1.59404E-04 2.09942E-05 4.13590E-25
 -1       573 1.59495E-04 1.94356E-05-3.30872E-24
 -1       574 1.59586E-04 1.78465E-05 1.65436E-24
 -1       575 1.59677E-04 1.62408E-05 3.30872E-24
 -1       576 1.59769E-04 1.46325E-05 0.00000E+00
 -1       577 1.59860E-04 1.30353E-05-3.30872E-24
 -1       578 1.59951E-04 1.14634E-05 1.65436E-24
 -1       579 1.60043E-04 9.93043E-06 0.00000E+00
 -1       580 1.60134E-04 8.45051E-06 0.00000E+00
 -1       581 1.60226E-04 7.03751E-06-6.61744E-24
 -1       582 1.60317E-04 5.70532E-06 0.00000E+00
 -1       583 1.60409E-04 4.46785E-06 0.00000E+00
 -1       584 1.60501E-04 3.33885E-06 0.00000E+00
 -1       585 1.60593E-04 2.33193E-06 6.61744E-24
 -1       586 1.60350E-04 2.40002E-05 0.00000E+00
 -1       587 1.61441E-04 2.40341E-05-2.06795E-25
 -1       588 1.62537E-04 2.40676E-05 8.27181E-25
 -1       589 1.63679E-04 2.41006E-05 0.00000E+00
 -1       590 1.64907E-04 2.41324E-05 0.00000E+00
 -1       591 1.59716E-04 2.25848E-05 0.00000E+00
 -1       592 1.60211E-04 2.11815E-05-2.06795E-25
 -1       593 1.60712E-04 1.97617E-05 0.00000E+00
 -1       594 1.61217E-04 1.83302E-05-4.13590E-25
 -1       595 1.61724E-04 1.68919E-05 0.00000E+00
 -1       596 1.62232E-04 1.54518E-05-4.13590E-25
 -1       597 1.62739E-04 1.40148E-05 8.27181E-25
 -1       598 1.63243E-04 1.25856E-05 0.00000E+00
 -1       599 1.63742E-04 1.11692E-05 0.00000E+00
 -1       600 1.64234E-04 9.77041E-06 0.00000E+00
 -1       601 1.64718E-04 8.39416E-06 4.13590E-25
 -1       602 1.65192E-04 7.04528E-06 0.00000E+00
 -1       603 1.65654E-04 5.72866E-06-4.13590E-25
 -1       604 1.66103E-04 4.44927E-06 2.00333E-25
 -1       605 1.66536E-04 3.21189E-06-4.13590E-25
 -1       606 1.60698E-04 7.95783E-07 0.00000E+00
 -1       607 1.60708E-04 2.21323E-07 1.65436E-24
 -1       608 1.60717E-04-2.69031E-07 0.00000E+00
 -1       609 1.60726E-04-6.81194E-07 0.00000E+00
 -1       610 1.60735E-04-1.02113E-06 0.00000E+00
 -1       611 1.60744E-04-1.29487E-06 0.00000E+00
 -1       612 1.60752E-04-1.50844E-06 0.00000E+00
 -1       613 1.60761E-04-1.66790E-06 0.00000E+00
 -1       614 1.60770E-04-1.77928E-06 0.00000E+00
 -1       615 1.60778E-04-1.84864E-06-8.27181E-25
 -1       616 1.60787E-04-1.88201E-06-1.65436E-24
 -1       617 1.60796E-04-1.88545E-06 0.00000E+00
 -1       618 1.60805E-04-1.86500E-06 0.00000E+00
 -1       619 1.60813E-04-1.82671E-06-2.06795E-25
 -1       620 1.60822E-04-1.77661E-06-4.13590E-25
 -1       621 1.61513E-04 1.55376E-06-1.65436E-24
 -1       622 1.62462E-04 1.64820E-06 0.00000E+00
 -1       623 1.63505E-04 1.74253E-06 0.00000E+00
 -1       624 1.64619E-04 1.83663E-06 8.27181E-25
 -1       625 1.65777E-04 1.93050E-06 0.00000E+00
 -1       626 1.61036E-04 8.28619E-07 0.00000E+00
 -1       627 1.61364E-04 2.66015E-07 1.65436E-24
 -1       628 1.61669E-04-2.36024E-07 3.30872E-24
 -1       629 1.61954E-04-6.85660E-07 0.00000E+00
 -1       630 1.62223E-04-1.09108E-06 0.00000E+00
 -1       631 1.62478E-04-1.46050E-06 0.00000E+00
 -1       632 1.62723E-04-1.80212E-06-3.30872E-24
 -1       633 1.62960E-04-2.12417E-06-1.65436E-24
 -1       634 1.63194E-04-2.43484E-06-3.30872E-24
 -1       635 1.63426E-04-2.74236E-06 0.00000E+00
 -1       636 1.63660E-04-3.05494E-06 0.00000E+00
 -1       637 1.63899E-04-3.38078E-06 0.00000E+00
 -1       638 1.64146E-04-3.72811E-06-1.65436E-24
 -1       639 1.64403E-04-4.10516E-06-1.65436E-24
 -1       640 1.64675E-04-4.52015E-06 1.65436E-24
 -1       656 1.61001E-04-2.25091E-06 0.00000E+00
 -1       657 1.61577E-04-2.80250E-06-6.61744E-24
 -1       658 1.62419E-04-3.35267E-06 1.32349E-23
 -1       659 1.63382E-04-3.90248E-06-6.61744E-24
 -1       660 1.64288E-04-4.45396E-06 0.00000E+00
 -1       661 1.60895E-04-1.70478E-06-8.27181E-25
 -1       662 1.60994E-04-1.77027E-06 0.00000E+00
 -1       663 1.61123E-04-1.91299E-06 0.00000E+00
 -1       664 1.61278E-04-2.12745E-06-8.27181E-25
 -1       665 1.61459E-04-2.40880E-06 0.00000E+00
 -1       666 1.61662E-04-2.75209E-06 0.00000E+00
 -1       667 1.61888E-04-3.15265E-06 1.65436E-24
 -1       668 1.62133E-04-3.60583E-06 0.00000E+00
 -1       669 1.62396E-04-4.10717E-06 0.00000E+00
 -1       670 1.62675E-04-4.65229E-06 0.00000E+00
 -1       671 1.62969E-04-5.23692E-06 1.65436E-24
 -1       672 1.63277E-04-5.85692E-06 8.27181E-25
 -1       673 1.63596E-04-6.50817E-06 0.00000E+00
 -1       674 1.63924E-04-7.18693E-06-8.27181E-25
 -1       675 1.64261E-04-7.88883E-06 0.00000E+00
 -1       676 1.60806E-04-8.12835E-06 3.30872E-24
 -1       677 1.61568E-04-8.22569E-06-1.65436E-24
 -1       678 1.62328E-04-8.32297E-06 3.30872E-24
 -1       679 1.63088E-04-8.41997E-06 0.00000E+00
 -1       680 1.63845E-04-8.51695E-06-1.65436E-24
 -1       771 1.81056E-05 1.11526E-05 0.00000E+00
 -1       772 9.69066E-06 2.92461E-05 0.00000E+00
 -1       773 2.74973E-06 4.35921E-05 0.00000E+00
 -1       774-2.81748E-06 5.44081E-05 0.00000E+00
 -1       775-7.10948E-06 6.19191E-05 0.00000E+00
 -1       776-1.02287E-05 6.63630E-05 2.64698E-23
 -1       777-1.22778E-05 6.79853E-05 0.00000E+00
 -1       778-1.33616E-05 6.70421E-05 5.29396E-23
 -1       779-1.35846E-05 6.37956E-05-5.29396E-23
 -1       780-1.30533E-05 5.85171E-05-2.64698E-23
 -1       781-1.18734E-05 5.14826E-05 0.00000E+00
 -1       782-1.01522E-05 4.29752E-05-2.64698E-23
 -1       783-7.99662E-06 3.32811E-05-5.29396E-23
 -1       784-5.51433E-06 2.26913E-05 0.00000E+00
 -1       785-2.81260E-06 1.14992E-05 0.00000E+00
 -1       786 1.66298E-04 2.25586E-05 5.16988E-26
 -1       787 1.66341E-04 2.10045E-05 0.00000E+00
 -1       788 1.66384E-04 1.94906E-05 0.00000E+00
 -1       789 1.66428E-04 1.80090E-05 8.27181E-25
 -1       790 1.66471E-04 1.65552E-05-1.65436E-24
 -1       791 1.66515E-04 1.51245E-05 0.00000E+00
 -1       792 1.66559E-04 1.37149E-05-1.65436E-24
 -1       793 1.66603E-04 1.23242E-05 0.00000E+00
 -1       794 1.66647E-04 1.09521E-05 0.00000E+00
 -1       795 1.66691E-04 9.59860E-06 0.00000E+00
 -1       796 1.66735E-04 8.26532E-06 0.00000E+00
 -1       797 1.66779E-04 6.95405E-06 0.00000E+00
 -1       798 1.66823E-04 5.66881E-06 1.65436E-24
 -1       799 1.66867E-04 4.41370E-06-8.27181E-25
 -1       800 1.66911E-04 3.19582E-06 1.65436E-24
 -1       801 1.30130E-04 2.15426E-05 0.00000E+00
 -1       802 2.05232E-05 1.37603E-05 2.64698E-23
 -1       803-7.48733E-05 7.15894E-06 0.00000E+00
 -1       804-6.96906E-05 4.89916E-06 2.64698E-23
 -1       805-2.35250E-05 2.08542E-06 0.00000E+00
 -1       806 1.66754E-04 2.24967E-05-1.65436E-24
 -1       807 1.67236E-04 2.08591E-05-8.27181E-25
 -1       808 1.67706E-04 1.92525E-05-3.30872E-24
 -1       809 1.68162E-04 1.76804E-05 0.00000E+00
 -1       810 1.68604E-04 1.61461E-05-3.30872E-24
 -1       811 1.69031E-04 1.46530E-05-1.65436E-24
 -1       812 1.69441E-04 1.32044E-05 3.30872E-24
 -1       813 1.69833E-04 1.18035E-05 0.00000E+00
 -1       814 1.70206E-04 1.04537E-05 0.00000E+00
 -1       815 1.70559E-04 9.15816E-06 0.00000E+00
 -1       816 1.70891E-04 7.92023E-06-3.30872E-24
 -1       817 1.71199E-04 6.74312E-06-8.27181E-25
 -1       818 1.71484E-04 5.63012E-06 1.65436E-24
 -1       819 1.71744E-04 4.58446E-06 0.00000E+00
 -1       820 1.71977E-04 3.60937E-06 0.00000E+00
 -1       821 1.66837E-04 6.76645E-07-8.27181E-25
 -1       822 1.66712E-04-1.05562E-06 1.65436E-24
 -1       823 1.66586E-04-2.98585E-06 0.00000E+00
 -1       824 1.66459E-04-4.92439E-06 0.00000E+00
 -1       825 1.66333E-04-6.67969E-06-3.30872E-24
 -1       826 1.66206E-04-8.06116E-06 0.00000E+00
 -1       827 1.66080E-04-8.97309E-06-3.30872E-24
 -1       828 1.65955E-04-9.32244E-06 0.00000E+00
 -1       829 1.65829E-04-9.15888E-06 0.00000E+00
 -1       830 1.65703E-04-8.53496E-06 0.00000E+00
 -1       831 1.65578E-04-7.62001E-06 3.30872E-24
 -1       832 1.65452E-04-6.58503E-06 0.00000E+00
 -1       833 1.65326E-04-5.63150E-06 3.30872E-24
 -1       834 1.65202E-04-4.96040E-06 1.65436E-24
 -1       835 1.65078E-04-4.70130E-06-8.27181E-25
 -1       836 1.68020E-04 2.13628E-06 0.00000E+00
 -1       837 1.68965E-04 2.25288E-06-1.65436E-24
 -1       838 1.69824E-04 2.36938E-06 0.00000E+00
 -1       839 1.70626E-04 2.48519E-06 8.27181E-25
 -1       840 1.71403E-04 2.60084E-06 0.00000E+00
 -1       856 1.64942E-04-5.46363E-06 0.00000E+00
 -1       857 1.64920E-04-5.81834E-06-2.58494E-26
 -1       858 1.64898E-04-6.06543E-06 0.00000E+00
 -1       859 1.64876E-04-6.22482E-06-2.06795E-25
 -1       860 1.64853E-04-6.31657E-06-8.27181E-25
 -1       861 1.64831E-04-6.36074E-06 4.13590E-25
 -1       862 1.64808E-04-6.37747E-06-8.27181E-25
 -1       863 1.64785E-04-6.38690E-06 0.00000E+00
 -1       864 1.64762E-04-6.40920E-06 0.00000E+00
 -1       865 1.64740E-04-6.46450E-06 0.00000E+00
 -1       866 1.64717E-04-6.57292E-06 0.00000E+00
 -1       867 1.64694E-04-6.75454E-06 4.13590E-25
 -1       868 1.64671E-04-7.02936E-06-8.27181E-25
 -1       869 1.64648E-04-7.41732E-06 4.13590E-25
 -1       870 1.64625E-04-7.93824E-06 0.00000E+00
 -1       871 1.65708E-04-4.98461E-06-8.27181E-25
 -1       872 1.66589E-04-4.99084E-06 0.00000E+00
 -1       873 1.67545E-04-4.99767E-06 0.00000E+00
 -1       874 1.68514E-04-5.00517E-06-1.55096E-25
 -1       875 1.69432E-04-5.01324E-06 4.13590E-25
 -1       876 1.65260E-04-5.45046E-06 0.00000E+00
 -1       877 1.65539E-04-5.85702E-06 0.00000E+00
 -1       878 1.65797E-04-6.20858E-06 3.30872E-24
 -1       879 1.66037E-04-6.51206E-06 0.00000E+00
 -1       880 1.66262E-04-6.77444E-06 0.00000E+00
 -1       881 1.66474E-04-7.00265E-06 0.00000E+00
 -1       882 1.66676E-04-7.20362E-06 3.30872E-24
 -1       883 1.66870E-04-7.38423E-06 1.65436E-24
 -1       884 1.67060E-04-7.55140E-06 3.30872E-24
 -1       885 1.67246E-04-7.71203E-06-1.65436E-24
 -1       886 1.67433E-04-7.87300E-06 0.00000E+00
 -1       887 1.67623E-04-8.04125E-06-1.65436E-24
 -1       888 1.67817E-04-8.22369E-06-3.30872E-24
 -1       889 1.68019E-04-8.42737E-06 0.00000E+00
 -1       890 1.68231E-04-8.65916E-06-1.65436E-24
 -1       891 1.65378E-04-8.66484E-06-1.65436E-24
 -1       892 1.66132E-04-8.71800E-06-4.13590E-25
 -1       893 1.66841E-04-8.77109E-06-1.65436E-24
 -1       894 1.67479E-04-8.82398E-06-4.13590E-25
 -1       895 1.68024E-04-8.87668E-06 0.00000E+00
 -1       956 1.72066E-04 1.96207E-06-1.65436E-24
 -1       957 1.71944E-04 1.29705E-06-8.27181E-25
 -1       958 1.71822E-04 7.03604E-07 3.30872E-24
 -1       959 1.71701E-04 1.71832E-07 0.00000E+00
 -1       960 1.71579E-04-3.08189E-07 0.00000E+00
 -1       961 1.71457E-04-7.46418E-07 0.00000E+00
 -1       962 1.71335E-04-1.15282E-06 3.30872E-24
 -1       963 1.71213E-04-1.53739E-06 1.65436E-24
 -1       964 1.71091E-04-1.91010E-06 3.30872E-24
 -1       965 1.70969E-04-2.28093E-06 0.00000E+00
 -1       966 1.70847E-04-2.65987E-06 0.00000E+00
 -1       967 1.70725E-04-3.05689E-06 1.65436E-24
 -1       968 1.70603E-04-3.48198E-06 0.00000E+00
 -1       969 1.70481E-04-3.94507E-06 0.00000E+00
 -1       970 1.70360E-04-4.45609E-06 0.00000E+00
 -1       971 1.70129E-04-5.58657E-06-3.30872E-24
 -1       972 1.70017E-04-6.05788E-06 0.00000E+00
 -1       973 1.69905E-04-6.44851E-06 0.00000E+00
 -1       974 1.69792E-04-6.76887E-06 0.00000E+00
 -1       975 1.69680E-04-7.02934E-06-3.30872E-24
 -1       976 1.69567E-04-7.24035E-06 0.00000E+00
 -1       977 1.69455E-04-7.41233E-06 3.30872E-24
 -1       978 1.69342E-04-7.55573E-06 0.00000E+00
 -1       979 1.69230E-04-7.68099E-06 0.00000E+00
 -1       980 1.69118E-04-7.79858E-06 0.00000E+00
 -1       981 1.69005E-04-7.91893E-06-3.30872E-24
 -1       982 1.68893E-04-8.05252E-06-1.65436E-24
 -1       983 1.68781E-04-8.20978E-06-3.30872E-24
 -1       984 1.68669E-04-8.40116E-06-1.65436E-24
 -1       985 1.68558E-04-8.63708E-06 0.00000E+00
 -3
    1PSTEP                        28          14           1          
  100CL  114 6.22559E-01         409                     0   14           1
 -4  STRESS      6    1
 -5  SXX         1    4    1    1
 -5  SYY         1    4    2    2
 -5  SZZ         1    4    3    3
 -5  SXY         1    4    1    2
 -5  SYZ         1    4    2    3
 -5  SZX         1    4    3    1
 -1         1-4.01687E+06-1.53029E+06-8.81740E+05-1.55941E+06-7.85803E-10 5.62868E-08
 -1         2 8.46355E+02-2.06040E+06 3.67377E+03 3.70897E+04 9.50905E-10 3.86603E-07
 -1         3-9.90744E+02-1.55812E+06 3.82942E+02-1.80793E+03-4.35232E-10-1.55305E-08
 -1         5-2.72447E+01 3.49293E+05 8.98995E+00-6.55688E-01-3.20403E-10 2.45072E-08
 -1         8-7.98465E+05-2.61924E+05-8.04407E+04-2.23332E+05-4.60204E-10-4.39868E-08
 -1         9 5.33060E+06-6.99763E+05 9.34828E+05-8.02947E+05 3.29688E-08-8.52626E-08
 -1        10-1.90355E+03-1.62357E+06-3.47825E+03-1.22182E+04-1.04883E-08-1.28315E-08
 -1        12-2.36065E+01 3.49312E+05 2.92773E+02-4.65469E+00-4.93500E-10 7.87713E-09
 -1        15 1.39480E+03 7.66518E+02 4.50867E+03 2.24073E+00-5.55218E-11-3.65660E-08
 -1        16 1.24331E+07-2.65821E+05 1.77915E+06-1.15461E+06 1.74235E-08 7.53983E-08
 -1        17 4.40609E+06 2.97634E+06 1.19088E+06 3.00039E+06 1.33005E-08 1.61352E-08
 -1        18 8.16450E+04 1.71712E+04-7.79170E+03-1.04367E+05 1.32623E-08-8.14907E-10
 -1        19 1.11472E+05 1.28564E+05-8.82863E+02 2.07090E+04 8.45830E-10 2.10093E-09
 -1        20-6.88846E+04-5.24367E+05-1.17244E+05 2.63734E+04-3.38635E-10-1.04689E-08
 -1        21-4.39292E+01-2.77972E+05-8.74590E+02 1.45280E+02 7.73415E-09-1.15515E-08
 -1        24 7.06577E+06 6.06567E+06 2.09035E+06 5.60895E+06-1.23677E-07-4.53632E-08
 -1        25 2.32339E+04-1.06383E+05 4.28006E+03-4.32028E+05-1.64328E-09 1.05956E-08
 -1        26-4.86389E+04 8.34303E+04-2.23271E+04-8.70227E+02 7.05040E-10 1.60580E-08
 -1        27-7.23736E+04-2.84175E+05-1.04619E+05 6.34657E+04 4.43955E-09-6.48834E-09
 -1        28 2.10745E+04-7.93742E+04 1.58380E+04 2.05416E+04-1.60182E-09 2.65273E-09
 -1        32-1.57137E+06-2.80949E+06-1.53423E+05 7.97358E+04-3.52229E-08-7.81046E-09
 -1        33-1.64703E+05 8.40047E+04 2.95356E+04-3.65135E+04-1.81440E-09-3.14655E-09
 -1        34-2.06686E+05-2.23960E+04 6.06561E+02 6.83641E+04-2.45841E-09-1.90994E-09
 -1        35-2.16270E+04-3.14939E+04-1.25038E+03 4.83868E+04-1.44986E-09 1.95408E-08
 -1        51 4.43947E+04-2.35106E+05 9.71000E+04-6.90398E+05-7.27596E-11-2.46364E-08
 -1        52 1.66546E+04-2.20348E+05 5.32616E+04-8.04939E+05 3.34694E-10 2.09693E-07
 -1        53 5.36823E+03-2.35513E+05 3.14282E+04-6.87880E+05 4.72937E-10-1.65383E-08
 -1        54 1.28945E+04-2.32229E+05 3.32820E+04-8.07564E+05 2.61934E-10-9.94587E-08
 -1        55 2.68687E+04-2.42568E+05 4.91995E+04-6.87506E+05 7.20320E-10 1.11362E-07
 -1        56-7.60227E+06-8.60795E+05-6.52077E+05-2.96993E+06-8.55653E-09-4.69154E-08
 -1        57-7.98056E+06-1.33261E+06-4.39385E+05-2.80753E+06-3.81842E-08 9.99280E-08
 -1        58-7.70487E+06-1.09533E+06-1.53199E+05-2.95976E+06-1.06702E-08 5.04951E-08
 -1        59-7.86735E+06-1.05263E+06-9.12607E+04-2.81622E+06-4.30373E-09-5.45479E-08
 -1        60-7.71444E+06-1.13300E+06-3.55759E+04-2.96419E+06-7.83984E-10 6.01667E-08
 -1        61-7.84343E+06-1.02021E+06-2.00969E+04-2.82411E+06 2.07900E-08 5.10936E-08
 -1        62-7.72815E+06-1.12690E+06-9.88152E+03-2.95195E+06-2.54740E-08 1.29512E-07
 -1        63-7.80269E+06-1.05142E+06-7.43984E+03-2.86324E+06-1.83604E-08 1.26699E-07
 -1        64-7.75371E+06-1.10261E+06-9.47108E+03-2.92406E+06 1.02755E-08-6.37353E-08
 -1        65-7.75075E+06-1.10823E+06-1.73180E+04-2.92281E+06-2.28993E-08-2.54371E-07
 -1        66-7.77959E+06-1.07057E+06-3.17568E+04-2.89196E+06 1.34769E-08 6.98037E-08
 -1        67-7.72326E+06-1.18676E+06-7.96228E+04-2.97487E+06-3.62479E-08-1.42672E-08
 -1        68-7.78278E+06-1.02414E+06-1.33938E+05-2.87267E+06 1.25001E-08-1.67878E-07
 -1        69-7.83085E+06-1.42714E+06-3.84587E+05-2.96551E+06-3.01170E-08 1.37552E-08
 -1        70-7.67524E+06-8.35502E+05-5.69973E+05-2.90043E+06 9.93896E-09 8.75443E-08
 -1        86-8.13328E+02-2.08518E+06-1.33384E+03-1.85423E+04-6.59212E-09 8.37003E-08
 -1        87 1.35430E+03-2.06910E+06 2.53830E+03 6.06570E+04-1.15344E-08-5.00395E-08
 -1        88-5.67015E+02-2.07738E+06 1.32889E+03-4.21120E+04-1.17651E-08 1.18035E-07
 -1        89 4.03301E+03-2.07345E+06 4.40444E+03 7.72935E+04-1.70397E-08-1.35674E-07
 -1        90-3.01275E+03-2.08138E+06 4.38528E+03-3.51846E+04-8.12315E-09-1.60806E-07
 -1       121-1.37192E+03-1.56147E+06-2.35264E+02 8.98665E+02 1.27059E-09 1.76733E-08
 -1       122-8.27766E+02-1.55813E+06 7.62197E+02-3.61394E+03-4.34258E-09 2.10712E-08
 -1       123-1.41401E+03-1.56158E+06 6.00906E+02 2.68376E+03 3.54180E-09 5.28598E-09
 -1       124 7.45392E+02-1.55753E+06 3.02513E+03-7.56487E+03-8.27686E-09-1.38243E-09
 -1       125-2.26778E+03-1.56245E+06 3.94046E+03 4.82554E+03 5.36238E-09 4.08181E-09
 -1       191-2.88909E+01 3.49318E+05 9.69569E+00 3.34265E-01-3.20846E-10 2.77796E-08
 -1       192-2.80843E+01 3.49294E+05 1.90849E+01-2.29730E+00-4.56705E-10 6.05360E-09
 -1       193-3.11158E+01 3.49318E+05 3.44712E+01 2.00327E+00-6.44961E-10 7.78891E-09
 -1       194-3.07827E+01 3.49297E+05 7.23100E+01-5.28502E+00-2.92953E-10-7.77527E-09
 -1       195-3.53894E+01 3.49316E+05 1.40415E+02 3.37132E+00-8.33161E-10 4.38558E-09
 -1       251-2.59520E+06-1.84611E+04-2.46202E+05-2.44883E+05 3.56522E-10-1.53159E-08
 -1       252-1.46023E+06 2.14505E+04 5.14313E+04 6.62799E+05 2.28283E-10-2.74831E-08
 -1       253-2.18503E+06 2.10378E+04-5.40541E+04-3.09543E+05 3.13503E-09-3.19742E-08
 -1       254-8.46121E+05 4.36356E+04 2.26176E+05 3.96429E+05-2.95627E-08 1.78807E-08
 -1       255-3.16477E+06-8.70093E+04-2.41964E+05 2.20578E+04-4.66935E-09 1.82574E-07
 -1       256-7.21824E+05 7.23378E+04 2.68579E+05-2.89369E+05 5.79121E-09 1.73056E-07
 -1       257-2.29941E+06-1.74031E+04-5.19270E+04 3.71966E+05-5.17048E-09 7.99027E-08
 -1       258-1.53081E+06 7.24941E+04 1.15677E+05-6.21623E+05 2.86073E-09-1.34376E-07
 -1       259-2.41250E+06-2.84726E+04-7.46456E+04 3.58630E+05-1.27220E-08 1.03580E-07
 -1       260-6.26004E+05 7.48514E+04 2.91766E+05-2.31751E+05 7.36645E-09-3.57895E-08
 -1       261-3.14124E+06-8.45192E+04-2.28040E+05-2.22452E+04 1.45465E-08-8.54481E-08
 -1       262-9.49628E+05 4.93149E+04 2.25351E+05 4.48969E+05 1.23846E-08-1.05917E-07
 -1       263-2.11267E+06 2.05361E+04-3.84229E+03-3.17659E+05-2.49242E-08 4.03437E-08
 -1       264-1.38717E+06 8.73565E+04 1.51674E+05 6.46296E+05-1.19446E-07 1.01173E-07
 -1       265-2.73722E+06-8.73788E+04-1.41699E+05-2.20137E+05-3.80296E-08-5.60854E-08
 -1       266-2.52504E+04-1.18070E+04 5.92452E+04-4.79452E+01 7.27596E-11 2.92450E-08
 -1       267 2.92723E+04 1.37615E+04 4.18733E+04 5.53185E+01 1.01863E-10-4.14049E-08
 -1       268-3.92536E+03-1.94900E+03 1.55642E+04-7.04858E+00-3.91083E-11-7.26238E-08
 -1       269 4.63470E+03 2.33254E+03 1.01164E+04 8.21050E+00-1.49157E-10-6.81621E-08
 -1       270-6.95674E+02-3.83255E+02 4.88334E+03-1.11422E+00-1.30626E-10-1.03025E-08
 -1       271-2.28863E+06-2.77987E+05-1.70644E+05-8.79583E+05 8.33461E-09-3.03189E-08
 -1       272-2.39670E+06-3.56825E+05-1.09875E+05-8.26272E+05 2.02817E-10 4.16185E-08
 -1       273-2.31962E+06-3.21822E+05-4.02712E+04-8.73250E+05-8.46103E-09 1.16204E-07
 -1       274-2.36001E+06-3.03331E+05-2.25999E+04-8.36040E+05 1.88237E-08-1.12064E-07
 -1       275-2.32423E+06-3.26174E+05-9.38568E+03-8.71683E+05 1.30603E-08 4.44006E-08
 -1       276-2.35317E+06-2.99271E+05-4.93839E+03-8.39141E+05-1.28466E-09 2.38332E-07
 -1       277-2.32602E+06-3.25541E+05-2.47115E+03-8.70109E+05 9.64064E-10 2.38987E-07
 -1       278-2.34925E+06-3.01708E+05-1.59573E+03-8.42441E+05-2.29788E-08-4.97494E-10
 -1       279-2.32774E+06-3.23944E+05-1.78462E+03-8.68113E+05 1.88666E-08-1.52364E-07
 -1       280-2.34536E+06-3.05845E+05-2.83295E+03-8.46480E+05-4.45652E-09 2.94765E-08
 -1       281-2.32952E+06-3.21678E+05-5.42464E+03-8.65781E+05-1.44591E-08 2.63849E-08
 -1       282-2.34315E+06-3.13667E+05-1.24361E+04-8.50803E+05 2.63908E-08 4.84749E-09
 -1       283-2.32968E+06-3.16631E+05-2.24915E+04-8.63461E+05-1.32513E-08-1.00814E-07
 -1       284-2.35768E+06-3.48704E+05-6.06289E+04-8.51569E+05 2.04054E-08 8.70332E-08
 -1       285-2.31528E+06-2.89784E+05-9.46210E+04-8.63810E+05-1.89502E-08-4.06544E-08
 -1       301 1.75672E+04-4.02500E+05 1.75526E+05-7.16532E+05 1.15688E-09-1.53072E-07
 -1       302 1.89456E+04-3.57999E+05 1.08097E+05-1.04780E+06-9.02219E-10-1.26535E-07
 -1       303-3.58820E+03-3.86881E+05 6.90348E+04-7.14802E+05 1.18598E-09 4.19423E-08
 -1       304 9.22571E+03-3.60695E+05 8.32781E+04-1.04711E+06 6.40284E-10 1.52795E-09
 -1       305 5.45231E+03-3.90094E+05 1.19938E+05-7.17140E+05 1.35151E-09-3.18250E-08
 -1       306-2.08162E+07-3.99058E+06-5.34110E+06-1.68329E+06-6.69970E-08-1.03842E-07
 -1       307 1.48341E+07 1.67232E+05 3.32890E+06-9.48490E+06-6.70145E-07-1.54614E-07
 -1       308-8.14733E+06-1.20693E+05-4.68207E+05 3.14224E+06-8.12288E-08 1.80706E-07
 -1       309-3.30257E+06 2.45039E+06 1.11972E+06-1.50506E+07 3.90486E-07 1.09616E-07
 -1       310-9.72654E+06-3.62020E+05-8.32650E+05 2.94026E+06-1.04919E-07-1.81411E-07
 -1       311 1.84501E+07-9.19274E+05 3.97475E+06-7.24312E+06 5.56814E-07 3.07191E-08
 -1       312-2.12292E+07-3.97299E+06-4.82944E+06-3.08070E+06-4.27244E-08 1.68293E-07
 -1       313 2.65360E+07 6.20037E+06 6.34047E+06 1.14961E+07-5.18805E-07-6.17147E-08
 -1       314-1.43019E+07-9.77154E+06-4.52663E+06-8.57689E+06 2.34868E-07-4.71482E-08
 -1       315-1.48661E+06 1.60437E+07 3.51359E+06 8.16219E+06-2.07008E-07-8.73115E-08
 -1       316-1.21724E+06-7.26962E+06-4.17814E+05-4.21530E+06-8.11822E-07-1.61992E-07
 -1       317-1.55859E+07 1.46688E+07 1.09564E+06-2.61079E+06 5.27943E-07-4.81898E-07
 -1       318-2.00572E+06-7.80195E+06-9.03149E+05-4.58714E+06-6.53847E-07 7.53789E-08
 -1       319 1.27984E+06 1.66265E+07 3.71079E+06 9.26167E+06-8.52742E-08 1.67784E-07
 -1       320-1.58002E+07-1.01276E+07-5.77828E+06-8.43077E+06 1.53319E-07-2.50729E-08
 -1       336-1.27120E+01-1.69034E+06-1.24927E+04 7.30139E+03-2.20334E-08 3.09592E-09
 -1       337-4.77988E+03-1.69115E+06-1.59984E+04-1.76683E+04-4.04980E-08-3.81260E-08
 -1       338 6.17239E+02-1.69001E+06-2.42779E+04 1.02271E+04-2.83371E-08-1.29767E-08
 -1       339-2.57960E+04-1.70537E+06-5.49050E+04-2.33752E+04-5.11209E-08 2.18715E-08
 -1       340 1.72488E+04-1.67760E+06-8.61266E+04 1.29181E+04-3.47209E-08 1.33587E-08
 -1       406-2.26501E+00 3.49303E+05 5.76923E+02 1.41695E+00-1.15376E-09 1.76078E-09
 -1       407 1.78047E+02 3.49413E+05 1.22845E+03 1.49849E+01-3.10266E-10-2.24009E-09
 -1       408 6.08047E+02 3.49214E+05 2.45206E+03-1.67845E+01-1.46997E-09 1.07157E-08
 -1       409 2.63099E+03 3.50197E+05 5.52239E+03 1.73429E+02-4.15810E-10 2.25227E-08
 -1       410 7.60147E+03 3.48513E+05 1.12727E+04-1.65797E+02-1.90266E-09 1.32195E-08
 -1       521-2.26869E+07-4.94267E+06-6.36499E+06-1.54062E+06-7.91624E-08-2.21771E-08
 -1       522 1.56352E+07 3.94507E+05 3.44088E+06-1.20163E+07-4.69503E-07-1.77184E-07
 -1       523-9.21687E+06-3.17941E+05-5.12155E+05 3.57828E+06 1.83063E-08-2.76195E-07
 -1       524-5.69147E+06 4.04857E+06 1.25004E+06-1.79060E+07 8.12004E-07-6.30698E-07
 -1       525-1.09664E+07-6.73424E+05-9.40571E+05 3.35605E+06 5.50062E-07-2.50038E-07
 -1       526 2.02899E+07-1.02616E+06 4.28007E+06-9.33544E+06-2.38884E-07-4.31319E-07
 -1       527-2.32225E+07-5.05678E+06-5.65926E+06-3.10354E+06 4.41214E-08-9.82254E-09
 -1       528 2.95937E+07 6.82180E+06 6.76545E+06 1.32145E+07-2.22586E-07 7.13626E-08
 -1       529-1.55809E+07-1.14341E+07-5.29247E+06-9.08384E+06-1.81026E-08-3.05008E-08
 -1       530-3.29968E+06 1.92024E+07 3.80065E+06 8.59826E+06-3.12190E-07 3.13506E-07
 -1       531-1.43426E+06-8.46282E+06-4.45697E+05-4.63846E+06-7.34668E-07 1.61061E-07
 -1       532-1.88144E+07 1.70967E+07 1.24807E+06-4.84811E+06 4.65086E-07-6.19933E-07
 -1       533-2.20905E+06-9.00050E+06-9.66929E+05-4.96860E+06-4.48199E-08-8.13016E-07
 -1       534-4.03064E+05 1.98475E+07 3.96834E+06 9.85531E+06-9.29504E-08 5.71861E-07
 -1       535-1.71368E+07-1.18787E+07-6.68812E+06-8.91270E+06 6.57747E-08 3.48722E-07
 -1       536-6.09697E+05-4.10730E+04-1.31227E+04-4.17692E+04-8.21319E-09 5.54264E-08
 -1       537-1.48928E+05 4.08752E+04 7.25229E+04 9.85034E+04-9.30913E-08 6.25828E-08
 -1       538-3.89621E+05 1.08313E+03 7.78779E+03-5.90541E+04 1.89556E-08 9.52296E-08
 -1       539-3.02255E+05 3.08146E+03 2.03197E+04 1.12187E+05 1.44344E-07 9.50208E-08
 -1       540-4.60105E+05-2.06736E+02-1.32971E+04-5.57576E+04-6.65455E-09 7.73108E-08
 -1       541-1.21174E+04 1.18746E+04 7.48277E+04 7.62630E+04-2.16146E-08 7.46918E-08
 -1       542-6.71967E+05-1.41673E+04-5.85937E+04-2.26314E+04 4.07354E-08 4.37706E-08
 -1       543 1.67563E+05 1.91238E+04 1.10059E+05-1.12164E+04-1.34562E-08-1.39962E-08
 -1       544-6.34992E+05-1.14059E+04-5.19891E+04 3.13324E+04 1.53491E-08-4.08918E-08
 -1       545-9.76579E+04 6.16835E+03 5.44561E+04-9.04472E+04 9.88621E-10-7.97829E-08
 -1       546-4.13825E+05 4.62253E+03-8.91400E+03 5.64092E+04 1.05115E-08-7.60382E-08
 -1       547-3.16355E+05-4.61405E+03 4.97452E+03-1.14707E+05-9.76448E-08-8.92890E-08
 -1       548-4.22127E+05 4.21409E+03-2.00186E+04 5.59881E+04-9.42082E-08-7.63848E-08
 -1       549-8.16175E+04 4.78923E+03 3.35823E+04-8.77481E+04-5.18162E-08-5.32364E-08
 -1       550-6.42254E+05-1.00131E+04-1.02912E+05 2.90339E+04 5.52791E-09-2.45254E-08
 -1       551 3.34259E+04-7.46945E+05 2.30643E+03-1.16533E+06-8.32661E-08-6.30098E-09
 -1       552 7.53082E+04-7.79534E+05 2.01113E+04-1.66158E+06-5.97356E-08 4.24552E-08
 -1       553 5.67900E+04-7.79762E+05 3.88058E+04-1.15975E+06-1.02271E-07 2.21917E-08
 -1       554 1.09661E+05-7.88432E+05 8.88831E+04-1.66351E+06-6.43849E-08 6.59202E-09
 -1       555 8.62309E+04-8.01657E+05 1.59887E+05-1.15998E+06-1.02707E-07-1.70949E-08
 -1       556 1.83117E+05-3.21756E+05 4.73150E+04-3.60914E+05-1.91503E-08-4.36557E-10
 -1       557 2.98674E+05-4.14388E+05 2.65362E+04-4.62768E+05 2.08092E-09 5.21140E-09
 -1       558 1.71219E+05-3.21169E+05 8.05601E+03-3.60212E+05-1.16124E-08-2.94676E-09
 -1       559 2.77490E+05-4.18467E+05 4.89864E+03-4.77947E+05 1.87429E-08-2.72739E-08
 -1       560 1.60279E+05-3.14260E+05 4.41240E+02-3.67944E+05 7.36327E-09-1.65019E-08
 -1       561 2.63442E+05-4.13067E+05 8.29859E+02-4.87380E+05-3.84171E-09 6.65750E-10
 -1       562 1.51649E+05-3.08850E+05-5.35819E+02-3.74162E+05-4.20550E-09-1.28784E-09
 -1       563 2.53232E+05-4.08615E+05 1.70372E+02-4.94012E+05-4.20550E-09-2.00243E-08
 -1       564 1.45608E+05-3.05072E+05-2.84092E+02-3.78433E+05 3.68163E-09-7.76708E-09
 -1       565 2.46669E+05-4.05759E+05 8.09807E+01-4.98194E+05 9.81163E-09-3.73893E-09
 -1       566 1.42251E+05-3.02942E+05-1.30262E+02-3.80783E+05-1.56433E-09-3.64889E-09
 -1       567 2.43764E+05-4.04492E+05-2.43046E+02-4.99925E+05 1.33805E-08 1.73422E-08
 -1       568 1.41646E+05-3.02580E+05-8.19131E+02-3.81302E+05-1.11140E-09-4.83851E-10
 -1       569 2.43316E+05-4.04466E+05-2.06847E+03-4.98287E+05 8.58563E-10-1.61817E-08
 -1       570 1.44744E+05-3.05382E+05-4.58703E+03-3.80493E+05 5.65342E-09 9.00400E-11
 -1       571 2.63663E+05 9.57609E+03 1.38493E+04-8.01596E+04 2.33831E-09 5.03906E-09
 -1       572 2.65689E+05 3.51040E+03 6.78655E+03-8.79398E+04 3.52520E-09 5.64251E-09
 -1       573 2.64471E+05 1.01422E+03 3.01534E+03-8.00018E+04 3.12184E-09 2.87673E-09
 -1       574 2.64686E+05 5.19198E+02 1.51173E+03-8.81335E+04 1.58161E-09-1.07166E-08
 -1       575 2.64560E+05 2.75850E+02 7.13305E+02-7.99804E+04 1.09026E-10-5.33146E-09
 -1       576 2.64558E+05 2.73144E+02 3.64765E+02-8.81593E+04-7.37248E-09 2.16642E-09
 -1       577 2.64590E+05 2.26529E+02 1.81855E+02-7.99775E+04-2.64527E-09 3.17777E-09
 -1       578 2.64572E+05 2.45414E+02 1.04210E+02-8.81628E+04-2.91220E-09 7.04222E-09
 -1       579 2.64639E+05 2.02938E+02 7.11022E+01-7.99772E+04 3.85535E-09 2.72030E-09
 -1       580 2.64642E+05 2.11642E+02 8.07539E+01-8.81585E+04-5.50517E-09-9.00127E-09
 -1       581 2.64718E+05 1.64635E+02 1.22039E+02-7.99822E+04 3.49610E-09-1.64973E-08
 -1       582 2.64767E+05 1.94426E+02 2.46045E+02-8.81067E+04 1.28330E-09 1.45064E-09
 -1       583 2.64812E+05 2.19264E+02 4.74264E+02-8.00293E+04 1.11504E-09-9.52696E-10
 -1       584 2.65061E+05 6.02371E+02 1.07068E+03-8.77099E+04 2.24190E-09-2.53003E-08
 -1       585 2.64802E+05 1.51977E+03 2.17127E+03-8.03787E+04-2.32285E-09-1.06884E-08
 -1       586-3.16948E+03 9.89686E+04-3.14880E+03-2.30704E+05-4.43197E-09 2.25054E-09
 -1       587-1.04861E+03 9.86465E+04 4.17201E+02-2.53920E+05-5.36602E-09-4.99085E-11
 -1       588 5.70797E+02 9.85535E+04 4.12071E+03-2.30585E+05-3.63616E-09-3.40697E-09
 -1       589 4.79012E+03 1.00723E+05 1.09385E+04-2.53683E+05-4.45289E-09-1.03682E-08
 -1       590 1.50414E+04 9.73595E+04 2.30442E+04-2.30981E+05-4.03452E-09 5.51336E-09
 -1       591-6.27694E+04-1.42182E+04-1.97151E+04-2.77480E+04-3.69801E-09-7.18501E-09
 -1       592-6.60692E+04-1.76097E+04-1.06791E+04-3.12373E+04-8.07749E-09-1.53960E-08
 -1       593-6.47434E+04-1.27853E+04-4.44529E+03-2.91915E+04-4.17054E-09-1.55410E-09
 -1       594-6.33433E+04-1.47209E+04-2.21701E+03-3.13454E+04 2.97865E-09 8.17658E-09
 -1       595-6.48940E+04-1.27803E+04-1.01802E+03-2.92571E+04-1.63695E-10 1.33886E-08
 -1       596-6.31570E+04-1.45888E+04-5.17646E+02-3.13237E+04 5.17243E-09 4.64769E-09
 -1       597-6.49129E+04-1.27937E+04-2.82147E+02-2.92596E+04 4.34613E-09-1.51806E-09
 -1       598-6.31387E+04-1.45837E+04-2.27319E+02-3.13175E+04-1.15074E-09 1.90701E-08
 -1       599-6.49117E+04-1.27941E+04-2.91000E+02-2.92592E+04 1.42325E-09-3.86899E-09
 -1       600-6.31573E+04-1.45896E+04-5.41086E+02-3.13220E+04-3.32363E-10-3.20047E-08
 -1       601-6.48896E+04-1.27812E+04-1.06770E+03-2.92560E+04-5.14547E-10-7.04222E-09
 -1       602-6.33526E+04-1.47274E+04-2.32708E+03-3.13415E+04-4.96141E-09-2.59479E-09
 -1       603-6.47291E+04-1.27890E+04-4.66682E+03-2.91877E+04 4.84306E-11 3.29328E-09
 -1       604-6.62297E+04-1.77430E+04-1.12107E+04-3.12062E+04 2.94506E-09-1.82263E-09
 -1       605-6.26390E+04-1.43089E+04-2.06965E+04-2.76894E+04 1.15898E-09 6.55109E-09
 -1       606 2.69790E+04-1.28674E+04-2.30867E+04 2.49721E+04-8.61655E-09-1.11986E-08
 -1       607 2.30323E+04-4.19210E+03-1.14968E+04 2.80514E+04-2.30293E-08-1.95096E-08
 -1       608 2.52784E+04-7.46554E+02-5.14720E+03 2.47870E+04-1.17925E-08-6.76664E-10
 -1       609 2.48438E+04-2.43417E+02-2.60007E+03 2.82728E+04 9.31323E-10 9.79617E-09
 -1       610 2.50821E+04-2.19546E+01-1.24091E+03 2.47655E+04 1.67802E-09 6.46628E-09
 -1       611 2.50103E+04-1.79409E+01-6.25643E+02 2.82969E+04 8.29641E-09 3.21552E-09
 -1       612 2.50360E+04-7.29531E+00-2.97832E+02 2.47634E+04-2.79033E-09-1.10033E-08
 -1       613 2.50169E+04-1.20960E+01-1.33787E+02 2.82997E+04-1.64005E-08-5.79530E-09
 -1       614 2.50131E+04-1.11560E+01-3.23699E+01 2.47626E+04-1.64800E-09 1.79762E-08
 -1       615 2.50091E+04-9.06668E+00 5.38199E+01 2.83001E+04 9.34278E-09 7.54630E-09
 -1       616 2.49953E+04-6.95575E+00 1.63435E+02 2.47629E+04 4.91036E-09 6.88010E-09
 -1       617 2.50265E+04 2.71493E+01 3.73776E+02 2.82996E+04 9.19499E-10-3.65890E-09
 -1       618 2.49612E+04 1.01862E+02 7.53678E+02 2.47631E+04 1.38925E-09-5.02246E-09
 -1       619 2.52911E+04 6.10765E+02 1.69267E+03 2.82989E+04 7.83757E-10-9.28412E-09
 -1       620 2.47100E+04 1.88982E+03 3.40224E+03 2.47635E+04 3.04169E-09 2.19507E-09
 -1       621 3.95616E+02 2.71700E+05 3.27198E+03 3.05781E+04 7.92170E-10-6.62931E-09
 -1       622 5.08287E+02 2.72475E+05 2.95777E+03 4.44254E+04 7.99901E-10 1.39880E-08
 -1       623 7.77691E+01 2.71873E+05 3.62763E+03 3.04374E+04 6.80757E-10 7.75117E-09
 -1       624 1.80246E+03 2.73600E+05 7.09067E+03 4.45654E+04 8.64077E-10-9.37530E-09
 -1       625 1.78400E+03 2.70472E+05 1.24194E+04 3.04345E+04 8.44466E-10 3.90901E-09
 -1       626 2.37256E+05 5.81354E+04 4.86372E+03 1.18112E+05 6.30280E-10 5.34419E-09
 -1       627 2.34921E+05 5.95961E+04 2.34377E+03 1.22317E+05 3.97586E-09 1.41326E-08
 -1       628 2.37386E+05 5.58985E+04 9.90919E+02 1.18924E+05-1.51522E-09 4.64979E-09
 -1       629 2.34301E+05 5.89654E+04 4.85042E+02 1.22560E+05-5.36420E-09-1.18840E-08
 -1       630 2.37399E+05 5.57913E+04 2.24716E+02 1.18956E+05 4.38376E-09-4.63766E-09
 -1       631 2.34233E+05 5.89432E+04 1.20587E+02 1.22561E+05 3.62525E-09 5.92172E-09
 -1       632 2.37393E+05 5.57964E+04 7.87595E+01 1.18950E+05 1.42172E-08-8.52970E-09
 -1       633 2.34222E+05 5.89462E+04 8.68128E+01 1.22556E+05 9.39497E-09-3.35426E-08
 -1       634 2.37387E+05 5.57949E+04 1.39472E+02 1.18948E+05 1.35884E-08-2.98405E-09
 -1       635 2.34234E+05 5.89455E+04 2.81743E+02 1.22559E+05 1.84242E-08-1.58934E-09
 -1       636 2.37377E+05 5.57906E+04 5.68725E+02 1.18947E+05 1.07385E-08 1.17643E-08
 -1       637 2.34355E+05 5.90343E+04 1.25017E+03 1.22557E+05 8.95056E-10 4.31373E-09
 -1       638 2.37332E+05 5.60673E+04 2.56870E+03 1.18822E+05-5.77438E-09 3.75348E-09
 -1       639 2.35704E+05 6.09107E+04 6.07737E+03 1.22159E+05-1.57461E-08-1.62140E-09
 -1       640 2.37147E+05 6.16682E+04 1.26117E+04 1.16457E+05-6.03586E-09 1.80294E-08
 -1       656 6.12193E+04-1.56298E+06-1.47782E+05-1.67082E+03-1.89175E-10-7.34718E-09
 -1       657-8.09697E+04-1.62974E+06-1.22388E+05 6.17854E+03-5.11136E-10-1.10563E-08
 -1       658 1.94970E+04-1.58196E+06-7.53251E+04-3.49478E+03 4.47017E-10-4.45758E-09
 -1       659-8.74178E+04-1.63281E+06-1.30860E+05 7.61930E+03-1.14414E-09-5.06799E-09
 -1       660 6.76528E+04-1.55993E+06-1.62349E+05-3.11155E+03-1.52795E-09-5.40462E-09
 -1       661 1.61613E+05 1.71216E+04 1.65899E+04 6.31862E+04 5.48425E-10-2.26100E-09
 -1       662 1.70807E+05 2.95887E+04 1.11800E+04 5.96751E+04-2.35548E-09-7.56620E-09
 -1       663 1.64870E+05 2.24447E+04 3.91029E+03 6.22417E+04-8.82665E-10-5.62500E-09
 -1       664 1.67032E+05 2.33624E+04 2.33880E+03 6.08277E+04-1.48682E-09 1.50563E-08
 -1       665 1.65363E+05 2.31730E+04 9.22643E+02 6.20991E+04 3.37309E-10 1.65556E-08
 -1       666 1.66450E+05 2.25286E+04 5.39533E+02 6.10131E+04 3.29730E-09-1.65143E-09
 -1       667 1.65449E+05 2.32567E+04 2.86175E+02 6.20642E+04 7.60110E-10-1.04903E-08
 -1       668 1.66356E+05 2.24671E+04 2.90647E+02 6.10638E+04-4.18203E-09 9.93300E-09
 -1       669 1.65456E+05 2.32327E+04 3.92728E+02 6.20488E+04 2.12901E-09 1.76571E-08
 -1       670 1.66453E+05 2.26793E+04 8.54451E+02 6.10661E+04-4.39866E-09-3.62945E-10
 -1       671 1.65353E+05 2.30488E+04 1.51690E+03 6.20600E+04 1.88111E-09 6.50692E-09
 -1       672 1.67336E+05 2.41550E+04 3.88076E+03 6.08521E+04 1.68183E-09 7.66545E-09
 -1       673 1.64577E+05 2.17943E+04 6.50346E+03 6.22485E+04 1.83582E-09 5.25733E-09
 -1       674 1.73527E+05 3.46026E+04 1.85985E+04 5.90327E+04-4.63422E-09 1.00154E-08
 -1       675 1.59202E+05 1.28937E+04 2.76066E+04 6.37695E+04-1.90084E-10 1.80262E-09
 -1       676 2.27333E+01-2.77899E+05-1.05411E+03-7.26418E+01 3.14088E-10-3.01834E-09
 -1       677-2.79611E+02-2.78154E+05-1.92919E+03 1.45178E+02 4.70666E-09 1.14678E-08
 -1       678 1.86922E+02-2.77717E+05-3.41032E+03-7.24877E+01 2.78987E-10 7.90763E-11
 -1       679-3.41107E+03-2.80212E+05-8.10143E+03 1.44589E+02 3.65617E-09-1.63691E-08
 -1       680 2.03602E+03-2.75841E+05-1.30567E+04-7.12446E+01-2.13731E-10 1.59003E-08
 -1       771-2.90416E+06-6.62825E+05-1.26303E+05-1.35495E+06-3.50992E-08-2.57278E-08
 -1       772-2.84137E+06-7.38132E+05-6.54457E+04-1.44160E+06-2.98023E-08 8.79663E-09
 -1       773-2.92799E+06-6.44113E+05-3.26522E+04-1.36487E+06-1.08848E-08 7.72707E-09
 -1       774-2.83226E+06-7.24444E+05-1.47177E+04-1.46041E+06 2.82598E-08 1.00408E-09
 -1       775-2.93969E+06-6.35854E+05-1.05358E+04-1.36934E+06 4.30737E-09 5.68980E-09
 -1       776-2.84013E+06-7.22714E+05-4.01739E+03-1.47418E+06-7.20320E-09 2.59024E-09
 -1       777-2.94967E+06-6.28608E+05-4.48642E+03-1.37326E+06 1.03610E-08 1.65164E-09
 -1       778-2.84845E+06-7.21176E+05-1.29505E+03-1.48595E+06 1.64146E-08 3.38878E-09
 -1       779-2.95816E+06-6.22335E+05-2.18976E+03-1.37662E+06-2.19734E-09-3.79805E-09
 -1       780-2.85577E+06-7.19701E+05-3.68625E+02-1.49552E+06 1.45519E-10 7.03949E-10
 -1       781-2.96486E+06-6.17307E+05-8.35386E+02-1.37925E+06-1.18162E-08 3.29237E-09
 -1       782-2.86138E+06-7.18431E+05 3.11532E+02-1.50257E+06-2.91366E-08-8.22320E-09
 -1       783-2.96956E+06-6.13838E+05 4.93983E+02-1.38109E+06-6.71571E-09-1.17047E-08
 -1       784-2.86444E+06-7.17050E+05 2.00404E+03-1.50692E+06-1.63564E-08 1.83900E-09
 -1       785-2.97233E+06-6.11778E+05 3.54105E+03-1.38229E+06-3.11848E-08 5.92263E-09
 -1       786 1.23874E+05-9.42451E+03 2.18038E+04-2.37702E+02 1.93000E-09-2.33467E-09
 -1       787 1.33329E+05 1.09110E+04 1.54254E+04-6.45601E+01 6.70816E-09 4.33283E-09
 -1       788 1.27520E+05-1.47708E+03 5.64139E+03-2.06572E+02 1.13874E-09 1.28482E-08
 -1       789 1.29082E+05 1.70923E+03 3.54188E+03-1.13262E+02-2.24773E-09 8.52168E-09
 -1       790 1.28122E+05-2.30238E+02 1.43497E+03-1.89012E+02-2.94481E-09 5.26995E-09
 -1       791 1.28378E+05 2.66151E+02 8.30624E+02-1.43510E+02-5.88727E-09 1.24703E-08
 -1       792 1.28224E+05-3.50843E+01 3.55608E+02-1.76326E+02-3.44739E-09 1.70776E-08
 -1       793 1.28257E+05 3.83960E+01 1.85235E+02-1.67381E+02 1.30647E-10 1.32818E-08
 -1       794 1.28242E+05-2.62648E+00 6.41233E+01-1.65141E+02 3.03324E-09-4.20870E-09
 -1       795 1.28228E+05-1.30580E+01-1.28659E+01-1.90678E+02-3.68247E-09-4.00770E-09
 -1       796 1.28253E+05 1.63419E+01-8.31554E+01-1.53028E+02 2.71529E-09 1.95591E-09
 -1       797 1.28172E+05-1.24571E+02-2.48895E+02-2.18391E+02 2.86689E-09 2.24832E-08
 -1       798 1.28298E+05 1.08802E+02-4.09907E+02-1.37427E+02 1.17510E-09 1.42069E-08
 -1       799 1.27860E+05-8.02709E+02-1.13268E+03-2.56579E+02 3.94967E-09-1.07768E-08
 -1       800 1.28566E+05 6.93922E+02-1.60437E+03-1.14840E+02 2.06710E-10-6.07201E-10
 -1       801-4.73905E+04-7.57071E+06-9.87398E+05 8.58545E+05 7.33999E-08-4.09673E-08
 -1       802 3.72681E+05 2.17061E+06 1.23286E+06-1.00609E+06 2.03079E-07-2.82189E-08
 -1       803-3.14908E+05-9.95846E+06-1.15677E+06 5.54101E+05 6.49452E-08 1.50831E-08
 -1       804 1.41707E+05-1.36139E+05 8.67906E+05 4.84523E+05-8.55835E-08-7.72825E-08
 -1       805 1.37020E+05-5.27861E+06-1.80296E+05-6.28737E+05-3.60342E-08-4.83496E-08
 -1       806-2.84038E+05-5.43706E+04-2.08442E+04-1.11875E+05-8.23547E-09 1.87833E-08
 -1       807-2.85772E+05-5.08734E+04-1.02405E+04-1.16820E+05 1.52318E-09 2.69308E-08
 -1       808-2.84602E+05-4.68664E+04-4.34443E+03-1.15436E+05-1.06165E-08 2.21147E-08
 -1       809-2.83623E+05-4.79921E+04-2.12434E+03-1.17068E+05-1.11713E-08 7.66124E-09
 -1       810-2.84689E+05-4.66050E+04-9.73661E+02-1.15594E+05-4.64024E-09-1.65710E-09
 -1       811-2.83458E+05-4.78759E+04-4.84188E+02-1.17036E+05-1.48082E-08-2.27454E-08
 -1       812-2.84702E+05-4.66271E+04-2.44801E+02-1.15594E+05-1.08739E-08-2.05177E-08
 -1       813-2.83436E+05-4.78775E+04-1.59040E+02-1.17019E+05-6.06451E-09-2.34922E-08
 -1       814-2.84697E+05-4.66354E+04-1.57416E+02-1.15591E+05-7.97445E-09-1.48034E-08
 -1       815-2.83440E+05-4.78792E+04-2.53650E+02-1.17014E+05-6.91989E-09 2.27949E-08
 -1       816-2.84679E+05-4.66338E+04-4.80568E+02-1.15588E+05-5.48516E-09 1.07284E-08
 -1       817-2.83523E+05-4.79248E+04-1.03163E+03-1.17004E+05-1.87993E-08 2.52203E-09
 -1       818-2.84618E+05-4.67784E+04-2.10400E+03-1.15520E+05-6.56564E-09 5.00540E-09
 -1       819-2.84675E+05-4.91969E+04-4.95102E+03-1.16735E+05-5.36602E-11 1.54614E-09
 -1       820-2.84226E+05-5.05148E+04-1.00769E+04-1.13919E+05-6.20275E-10-1.00181E-09
 -1       821-3.50311E+05 1.93161E+04-4.47070E+04 1.06551E+03 7.56890E-09 1.82445E-08
 -1       822-3.69549E+05-2.23627E+04-3.16131E+04-1.97965E+03 9.68042E-10 4.26553E-10
 -1       823-3.57707E+05 3.03084E+03-1.15735E+04 1.39325E+03-5.03030E-09-9.65292E-09
 -1       824-3.60850E+05-3.50423E+03-7.27470E+03-1.99903E+03 7.64281E-10-7.05290E-09
 -1       825-3.59007E+05 4.72117E+02-3.00496E+03 1.08491E+03 9.25125E-09-5.56497E-09
 -1       826-3.59254E+05-5.51879E+02-1.76868E+03-9.05926E+02 7.87307E-09-1.11188E-08
 -1       827-3.59297E+05 7.71979E+01-9.66484E+02 3.00117E+02 4.08039E-09-4.15392E-09
 -1       828-3.59016E+05-1.64328E+02-7.84024E+02 7.36120E+02-1.90037E-09-1.41629E-09
 -1       829-3.59244E+05 8.40490E+01-9.77764E+02-5.57163E+02 1.85665E-10 3.92828E-09
 -1       830-3.59380E+05-5.81078E+02-1.85598E+03 2.07969E+03-6.91344E-10 2.29548E-09
 -1       831-3.58937E+05 4.96923E+02-3.10640E+03-1.04347E+03-2.42291E-09 8.21956E-09
 -1       832-3.60937E+05-3.64713E+03-7.56459E+03 2.42983E+03-2.54243E-09 4.11148E-09
 -1       833-3.57690E+05 3.14933E+03-1.20369E+04-9.07316E+02-2.08784E-09 9.67475E-09
 -1       834-3.69844E+05-2.32410E+04-3.28358E+04 1.59122E+03-2.93775E-09 1.96383E-08
 -1       835-3.50030E+05 2.00729E+04-4.64825E+04-2.04837E+02 4.99202E-09 1.97633E-08
 -1       836-1.25486E+03 3.35066E+05 2.06036E+04-1.60801E+04-4.28463E-09 7.00084E-09
 -1       837 4.42533E+03 3.41504E+05 1.75055E+04-3.26212E+04-4.45766E-09 1.33582E-08
 -1       838-4.91367E+02 3.36862E+05 1.79359E+04-1.60118E+04-3.67027E-09 1.52143E-08
 -1       839 1.13601E+04 3.46671E+05 3.40274E+04-3.26684E+04-3.92356E-09 1.51924E-08
 -1       840-3.48924E+03 3.29848E+05 5.43040E+04-1.60358E+04-3.63434E-09-1.91844E-08
 -1       856-6.10575E+04 7.83445E+03-2.06457E+04-4.00963E+02 1.15818E-09-1.49475E-08
 -1       857-6.95707E+04-9.19936E+03-1.42128E+04 5.28923E+03 5.16567E-09-1.24473E-08
 -1       858-6.44261E+04 1.09837E+03-5.35735E+03-4.24204E+02 1.15278E-10-1.81308E-09
 -1       859-6.57041E+04-1.28669E+03-3.23362E+03 5.32461E+03-1.25635E-09 8.24184E-09
 -1       860-6.49295E+04 1.53462E+02-1.35634E+03-4.36208E+02 1.95087E-10-1.21223E-08
 -1       861-6.51248E+04-1.78081E+02-7.48539E+02 5.34101E+03 2.95358E-10-1.04045E-08
 -1       862-6.50081E+04 2.05843E+01-3.15946E+02-4.40604E+02 1.40278E-09 3.97904E-13
 -1       863-6.50293E+04-1.72764E+01-1.25961E+02 5.34341E+03-6.30564E-10-9.83675E-11
 -1       864-6.50255E+04-3.72236E+00 2.16147E+01-4.38604E+02 4.10040E-10-8.53687E-09
 -1       865-6.49817E+04 5.13354E+01 1.94732E+02 5.33244E+03 6.26585E-10 4.66676E-09
 -1       866-6.50538E+04-4.81701E+01 4.04999E+02-4.29637E+02-1.03211E-09-7.52061E-09
 -1       867-6.47878E+04 3.99155E+02 1.00496E+03 5.30803E+03 3.59552E-09-8.73223E-09
 -1       868-6.52149E+04-3.45629E+02 1.67186E+03-4.14199E+02-1.23009E-09 6.59566E-09
 -1       869-6.35597E+04 2.87643E+03 4.45463E+03 5.26749E+03 6.88146E-10-1.10604E-08
 -1       870-6.62750E+04-2.45869E+03 6.46421E+03-3.89040E+02-2.51146E-09-1.57843E-09
 -1       871-5.15085E+03-1.71606E+04-1.76883E+04 1.18094E+05-2.48838E-09 5.50608E-09
 -1       872-1.98277E+03-2.12264E+04-7.35838E+03 1.53121E+05-5.81986E-09 1.28462E-08
 -1       873 2.30224E+02-1.92822E+04 6.56522E+02 1.17836E+05-2.96768E-09 1.37027E-09
 -1       874 2.88705E+03-1.69908E+04 9.15896E+03 1.53154E+05-6.87123E-09-6.69661E-09
 -1       875 6.23528E+03-2.14630E+04 2.05678E+04 1.18053E+05-2.85218E-09 2.28283E-09
 -1       876 2.71817E+05 4.60591E+04 1.40773E+04 1.09374E+05-4.08806E-09-1.21508E-08
 -1       877 2.72722E+05 4.90493E+04 7.51776E+03 1.13435E+05 5.41718E-09 6.88942E-10
 -1       878 2.73132E+05 4.45005E+04 3.14958E+03 1.10528E+05 2.20098E-10-1.93882E-09
 -1       879 2.70808E+05 4.71402E+04 1.56925E+03 1.13531E+05 5.49858E-09-1.20477E-08
 -1       880 2.73227E+05 4.44841E+04 7.30881E+02 1.10575E+05-5.12273E-10 7.17796E-09
 -1       881 2.70681E+05 4.70586E+04 3.90133E+02 1.13510E+05 4.70550E-10 1.04751E-08
 -1       882 2.73236E+05 4.44963E+04 2.49307E+02 1.10577E+05-7.77618E-10 1.87406E-10
 -1       883 2.70672E+05 4.70545E+04 2.67558E+02 1.13503E+05-2.59763E-09-3.04517E-09
 -1       884 2.73230E+05 4.44936E+04 4.25212E+02 1.10577E+05 3.76644E-09-9.43282E-09
 -1       885 2.70706E+05 4.70604E+04 8.54657E+02 1.13513E+05 3.32534E-11 1.81467E-09
 -1       886 2.73197E+05 4.44686E+04 1.72241E+03 1.10573E+05-3.38843E-09-1.40110E-08
 -1       887 2.71008E+05 4.72589E+04 3.76233E+03 1.13557E+05 4.48449E-09-4.08022E-09
 -1       888 2.72959E+05 4.45105E+04 7.58121E+03 1.10453E+05-1.65815E-09 4.05180E-10
 -1       889 2.75522E+05 5.19518E+04 1.81103E+04 1.13418E+05-3.51189E-09 2.32467E-09
 -1       890 2.69867E+05 4.81836E+04 3.39199E+04 1.07565E+05 9.62700E-10 6.48288E-09
 -1       891-1.09018E+02-1.51469E+05-1.84418E+03 2.60938E+04-1.11550E-09 8.62633E-09
 -1       892-2.02477E+02-1.51943E+05-1.98515E+03 3.95771E+04 1.47361E-09 3.60160E-10
 -1       893 1.37938E+01-1.51528E+05-2.81536E+03 2.61003E+04-3.15822E-10 8.03766E-09
 -1       894-1.44181E+03-1.53009E+05-5.83011E+03 3.94323E+04 8.57654E-10 6.62203E-09
 -1       895-1.13952E+03-1.50314E+05-1.02681E+04 2.62390E+04-4.45311E-10 1.57852E-08
 -1       956-3.47471E+05-4.96099E+03-1.23355E+04 2.67622E+04-2.45564E-10 4.13934E-09
 -1       957-3.49897E+05-1.72166E+03-6.33194E+03 3.21867E+04-1.31877E-09-3.92720E-09
 -1       958-3.48575E+05-1.87311E+02-2.85314E+03 2.66113E+04-3.61615E-09-9.58698E-09
 -1       959-3.48760E+05-8.61988E+01-1.45705E+03 3.23587E+04 3.66163E-09 2.95995E-09
 -1       960-3.48680E+05-9.80184E+00-7.10489E+02 2.65961E+04 6.19548E-09-1.07909E-08
 -1       961-3.48683E+05-2.10935E+01-3.76883E+02 3.23765E+04 6.51744E-09 1.95864E-08
 -1       962-3.48703E+05-1.22389E+01-2.15927E+02 2.65936E+04 9.70431E-10 1.29119E-08
 -1       963-3.48682E+05-1.80685E+01-1.73651E+02 3.23796E+04 1.47338E-09-4.24757E-09
 -1       964-3.48708E+05-9.42200E+00-2.11434E+02 2.65929E+04-3.77045E-09-2.47132E-09
 -1       965-3.48694E+05-1.50917E+01-3.65910E+02 3.23791E+04-1.06936E-08-8.96739E-09
 -1       966-3.48694E+05-1.42648E+00-6.87502E+02 2.65941E+04-3.43516E-09 2.16119E-09
 -1       967-3.48779E+05-7.23213E+01-1.41016E+03 3.23670E+04-2.87173E-09 2.02681E-09
 -1       968-3.48601E+05-1.67769E+02-2.76033E+03 2.66050E+04-1.72895E-09 1.52899E-08
 -1       969-3.49889E+05-1.65033E+03-6.12819E+03 3.22400E+04 4.85898E-10 8.36641E-09
 -1       970-3.47540E+05-4.78443E+03-1.19376E+04 2.67168E+04-2.42471E-09 4.06089E-09
 -1       971-3.20691E+05-1.62333E+03-8.83631E+03 1.45619E+04 3.84625E-09-1.81789E-08
 -1       972-3.22825E+05-1.18494E+03-4.81217E+03 2.02084E+04 3.52384E-09-1.35929E-08
 -1       973-3.21675E+05-4.30059E+01-2.15526E+03 1.44447E+04 1.48611E-09 5.19913E-09
 -1       974-3.21810E+05-5.50035E+01-1.11702E+03 2.03390E+04-7.47377E-10-1.20017E-08
 -1       975-3.21752E+05-7.19865E-01-5.58331E+02 1.44332E+04-4.11546E-10 1.98952E-10
 -1       976-3.21751E+05-7.94496E+00-3.22069E+02 2.03536E+04 3.84375E-09 4.33772E-09
 -1       977-3.21768E+05-2.48769E-01-2.33667E+02 1.44301E+04-1.94723E-09-7.09247E-09
 -1       978-3.21756E+05-2.22376E+00-2.73323E+02 2.03579E+04-3.40742E-09-6.76437E-11
 -1       979-3.21767E+05 7.53163E+00-4.39044E+02 1.44288E+04-2.08939E-09-2.20200E-09
 -1       980-3.21788E+05 5.93480E-01-8.47674E+02 2.03587E+04-2.33157E-10-1.13065E-08
 -1       981-3.21740E+05 2.87020E+01-1.64171E+03 1.44293E+04 1.43416E-09-1.10933E-08
 -1       982-3.22014E+05-1.20678E+02-3.39336E+03 2.03525E+04-5.73436E-10 5.63438E-09
 -1       983-3.21534E+05-7.63744E+01-6.59331E+03 1.44352E+04-1.50521E-09 7.49719E-09
 -1       984-3.25185E+05-3.56408E+03-1.47653E+04 2.02709E+04-4.60886E-10 9.90804E-09
 -1       985-3.18548E+05-4.90094E+03-2.71137E+04 1.45079E+04-9.61336E-10 5.62613E-09
 -3
    1PSTEP                        29          15           1          
  100CL  115 6.42334E-01         409                     0   15           1
 -4  DISP        4    1
 -5  D1          1    2    1    0
 -5  D2          1    2    2    0
 -5  D3          1    2    3    0
 -5  ALL         1    2    0    0    1ALL
 -1         1 2.07228E-03 0.00000E+00 0.00000E+00
 -1         2 1.85159E-03-1.64096E-28-2.64698E-23
 -1         3 3.13160E-04-5.38914E-27 0.00000E+00
 -1         5 1.66116E-04-4.06053E-26 4.13590E-25
 -1         8 2.05525E-03-5.17715E-07 0.00000E+00
 -1         9 2.01299E-03-8.14709E-06 0.00000E+00
 -1        10 2.84212E-04-3.49785E-06-6.61744E-24
 -1        12 1.67549E-04 7.68720E-07 1.55096E-24
 -1        15 2.03462E-03-5.67102E-07 0.00000E+00
 -1        16 2.04315E-03-9.31680E-06 0.00000E+00
 -1        17 1.94452E-04-7.83114E-06 0.00000E+00
 -1        18 1.70324E-04 2.86555E-05 0.00000E+00
 -1        19 1.71848E-04 1.53213E-06 0.00000E+00
 -1        20 1.71991E-04-5.32530E-06 0.00000E+00
 -1        21 1.71157E-04-1.57226E-05-3.30872E-24
 -1        24 2.93658E-05-1.16574E-05 0.00000E+00
 -1        25 1.79032E-04 2.88653E-05 0.00000E+00
 -1        26 1.79726E-04 2.12259E-06 0.00000E+00
 -1        27 1.77635E-04-8.72767E-06 0.00000E+00
 -1        28 1.77294E-04-1.63233E-05 0.00000E+00
 -1        32 0.00000E+00 0.00000E+00 0.00000E+00
 -1        33 1.86576E-04 2.84096E-06 0.00000E+00
 -1        34 1.84549E-04-8.77648E-06 0.00000E+00
 -1        35 1.82692E-04-1.66516E-05 0.00000E+00
 -1        51 2.07119E-03-9.83951E-08-6.61744E-24
 -1        52 2.06915E-03-1.81883E-07 0.00000E+00
 -1        53 2.06635E-03-2.63334E-07 0.00000E+00
 -1        54 2.06297E-03-3.44905E-07 0.00000E+00
 -1        55 2.05921E-03-4.28169E-07 8.27181E-25
 -1        56 2.06834E-03 5.48984E-07 0.00000E+00
 -1        57 2.06299E-03 4.47318E-06-5.29396E-23
 -1        58 2.05658E-03 1.11695E-05 0.00000E+00
 -1        59 2.04942E-03 1.97547E-05-5.29396E-23
 -1        60 2.04198E-03 2.90683E-05 0.00000E+00
 -1        61 2.03473E-03 3.78844E-05 5.29396E-23
 -1        62 2.02811E-03 4.50566E-05 0.00000E+00
 -1        63 2.02251E-03 4.95650E-05 0.00000E+00
 -1        64 2.01815E-03 5.08097E-05-1.05879E-22
 -1        65 2.01514E-03 4.84467E-05-5.29396E-23
 -1        66 2.01340E-03 4.27025E-05 0.00000E+00
 -1        67 2.01272E-03 3.40725E-05-5.29396E-23
 -1        68 2.01275E-03 2.35097E-05-1.05879E-22
 -1        69 2.01310E-03 1.21286E-05 0.00000E+00
 -1        70 2.01329E-03 1.16038E-06 5.29396E-23
 -1        86 1.86089E-03-1.00028E-06 0.00000E+00
 -1        87 1.88845E-03-2.32390E-06 0.00000E+00
 -1        88 1.92617E-03-3.95011E-06-2.64698E-23
 -1        89 1.96559E-03-5.63837E-06 0.00000E+00
 -1        90 1.99750E-03-7.08197E-06-2.64698E-23
 -1       121 3.12347E-04-5.68374E-07 0.00000E+00
 -1       122 3.09911E-04-1.13929E-06 0.00000E+00
 -1       123 3.05861E-04-1.71524E-06 1.32349E-23
 -1       124 3.00212E-04-2.29873E-06 0.00000E+00
 -1       125 2.92986E-04-2.89192E-06 0.00000E+00
 -1       191 1.66156E-04 1.28160E-07-2.27475E-24
 -1       192 1.66275E-04 2.56313E-07 4.13590E-25
 -1       193 1.66474E-04 3.84453E-07 3.30872E-24
 -1       194 1.66753E-04 5.12574E-07 1.55096E-24
 -1       195 1.67111E-04 6.40666E-07-2.06795E-24
 -1       251 2.05421E-03 2.24994E-05 1.32349E-23
 -1       252 2.05162E-03 8.35503E-05 0.00000E+00
 -1       253 2.04852E-03 1.53602E-04 2.64698E-23
 -1       254 2.04658E-03 2.03332E-04 0.00000E+00
 -1       255 2.04564E-03 2.15761E-04 2.64698E-23
 -1       256 2.04399E-03 1.75198E-04 1.32349E-23
 -1       257 2.04004E-03 9.38110E-05-2.64698E-23
 -1       258 2.03359E-03-1.48472E-05-1.32349E-23
 -1       259 2.02738E-03-1.20994E-04 0.00000E+00
 -1       260 2.02397E-03-1.94913E-04-1.32349E-23
 -1       261 2.02265E-03-2.25789E-04 2.64698E-23
 -1       262 2.02157E-03-2.04289E-04 0.00000E+00
 -1       263 2.01935E-03-1.48762E-04 0.00000E+00
 -1       264 2.01625E-03-7.87127E-05 0.00000E+00
 -1       265 2.01392E-03-2.25232E-05 2.64698E-23
 -1       266 2.05181E-03-5.33617E-07 3.30872E-24
 -1       267 2.04837E-03-5.40913E-07 0.00000E+00
 -1       268 2.04493E-03-5.48754E-07 0.00000E+00
 -1       269 2.04150E-03-5.54981E-07 2.06795E-25
 -1       270 2.03806E-03-5.61170E-07 0.00000E+00
 -1       271 2.05309E-03 2.74690E-06-1.32349E-23
 -1       272 2.05086E-03 6.14556E-06 1.32349E-23
 -1       273 2.04862E-03 9.53693E-06-2.64698E-23
 -1       274 2.04645E-03 1.27672E-05-1.32349E-23
 -1       275 2.04439E-03 1.56877E-05-2.64698E-23
 -1       276 2.04250E-03 1.81514E-05 1.32349E-23
 -1       277 2.04084E-03 2.00166E-05 0.00000E+00
 -1       278 2.03946E-03 2.11478E-05 1.32349E-23
 -1       279 2.03840E-03 2.14172E-05 0.00000E+00
 -1       280 2.03771E-03 2.07064E-05-1.32349E-23
 -1       281 2.03742E-03 1.89073E-05 0.00000E+00
 -1       282 2.03758E-03 1.59235E-05-1.32349E-23
 -1       283 2.03821E-03 1.16714E-05 0.00000E+00
 -1       284 2.03933E-03 6.08151E-06-1.32349E-23
 -1       285 2.04097E-03-9.02916E-07 0.00000E+00
 -1       301 2.01844E-03-8.36595E-06 0.00000E+00
 -1       302 2.02279E-03-8.55161E-06-3.30872E-24
 -1       303 2.02673E-03-8.73305E-06-1.32349E-23
 -1       304 2.03097E-03-8.91465E-06 0.00000E+00
 -1       305 2.03621E-03-9.10255E-06 0.00000E+00
 -1       306 2.04618E-03-1.37492E-04 1.05879E-22
 -1       307 2.11071E-03-4.96188E-04 0.00000E+00
 -1       308 2.16946E-03-1.02726E-03 0.00000E+00
 -1       309 2.21286E-03-1.64996E-03-5.29396E-23
 -1       310 2.25931E-03-2.25560E-03 0.00000E+00
 -1       311 2.32278E-03-2.73711E-03-5.29396E-23
 -1       312 2.38226E-03-3.02261E-03 0.00000E+00
 -1       313 2.39227E-03-3.07102E-03 5.29396E-23
 -1       314 2.29629E-03-2.88769E-03 1.05879E-22
 -1       315 2.05886E-03-2.51840E-03 5.29396E-23
 -1       316 1.69192E-03-2.02855E-03 1.05879E-22
 -1       317 1.24463E-03-1.48227E-03 5.29396E-23
 -1       318 8.07204E-04-9.42669E-04 1.05879E-22
 -1       319 4.66955E-04-4.74360E-04 0.00000E+00
 -1       320 2.62625E-04-1.41915E-04-1.05879E-22
 -1       336 2.73720E-04-4.16461E-06-1.32349E-23
 -1       337 2.61354E-04-4.85253E-06 6.61744E-24
 -1       338 2.47172E-04-5.56317E-06 0.00000E+00
 -1       339 2.31241E-04-6.29693E-06 0.00000E+00
 -1       340 2.13639E-04-7.05769E-06 0.00000E+00
 -1       406 1.68066E-04 8.96723E-07 6.20385E-25
 -1       407 1.68664E-04 1.02464E-06-9.30578E-25
 -1       408 1.69340E-04 1.15243E-06 2.27475E-24
 -1       409 1.70097E-04 1.27994E-06-8.27181E-25
 -1       410 1.70933E-04 1.40689E-06 0.00000E+00
 -1       521 2.07721E-03-1.47446E-04 1.05879E-22
 -1       522 2.14106E-03-5.25182E-04 0.00000E+00
 -1       523 2.19550E-03-1.08269E-03-1.05879E-22
 -1       524 2.23204E-03-1.73327E-03 0.00000E+00
 -1       525 2.27237E-03-2.36518E-03 1.05879E-22
 -1       526 2.33309E-03-2.86849E-03 5.29396E-23
 -1       527 2.39241E-03-3.16569E-03 0.00000E+00
 -1       528 2.40119E-03-3.21452E-03 0.00000E+00
 -1       529 2.29672E-03-3.01980E-03 1.05879E-22
 -1       530 2.04102E-03-2.63322E-03 0.00000E+00
 -1       531 1.64617E-03-2.12346E-03-1.05879E-22
 -1       532 1.16616E-03-1.55783E-03 0.00000E+00
 -1       533 6.96070E-04-9.98454E-04 0.00000E+00
 -1       534 3.28036E-04-5.09058E-04-5.29396E-23
 -1       535 1.05752E-04-1.58041E-04 0.00000E+00
 -1       536 1.93805E-04 2.38478E-05 0.00000E+00
 -1       537 1.92193E-04 7.88584E-05 0.00000E+00
 -1       538 1.89711E-04 1.48717E-04 0.00000E+00
 -1       539 1.86788E-04 2.24864E-04 1.65436E-24
 -1       540 1.84155E-04 2.96820E-04 0.00000E+00
 -1       541 1.82435E-04 3.54125E-04 0.00000E+00
 -1       542 1.81631E-04 3.90565E-04 0.00000E+00
 -1       543 1.81424E-04 4.00058E-04 0.00000E+00
 -1       544 1.81129E-04 3.83338E-04 3.30872E-24
 -1       545 1.80119E-04 3.41334E-04 1.65436E-24
 -1       546 1.78264E-04 2.81527E-04 3.30872E-24
 -1       547 1.75769E-04 2.11505E-04 0.00000E+00
 -1       548 1.73301E-04 1.41899E-04 0.00000E+00
 -1       549 1.71517E-04 8.33385E-05 1.65436E-24
 -1       550 1.70581E-04 4.31774E-05 0.00000E+00
 -1       551 1.71535E-04-8.35473E-06 0.00000E+00
 -1       552 1.45554E-04-8.94623E-06-3.30872E-24
 -1       553 1.17419E-04-9.59079E-06-1.65436E-24
 -1       554 8.80594E-05-1.02700E-05 6.61744E-24
 -1       555 5.84007E-05-1.09598E-05 0.00000E+00
 -1       556 1.87573E-04 9.79625E-06 0.00000E+00
 -1       557 1.82033E-04 2.40421E-05 0.00000E+00
 -1       558 1.77709E-04 3.51735E-05 5.29396E-23
 -1       559 1.74478E-04 4.34785E-05 0.00000E+00
 -1       560 1.72220E-04 4.92456E-05 0.00000E+00
 -1       561 1.70818E-04 5.27656E-05 0.00000E+00
 -1       562 1.70157E-04 5.43303E-05 0.00000E+00
 -1       563 1.70122E-04 5.42321E-05-1.32349E-23
 -1       564 1.70600E-04 5.27645E-05 0.00000E+00
 -1       565 1.71480E-04 5.02212E-05-6.61744E-24
 -1       566 1.72651E-04 4.68967E-05 0.00000E+00
 -1       567 1.74003E-04 4.30856E-05 0.00000E+00
 -1       568 1.75426E-04 3.90826E-05 1.65436E-24
 -1       569 1.76812E-04 3.51824E-05 0.00000E+00
 -1       570 1.78049E-04 3.16799E-05 0.00000E+00
 -1       571 1.70416E-04 2.68978E-05 0.00000E+00
 -1       572 1.70511E-04 2.50787E-05 1.24077E-24
 -1       573 1.70606E-04 2.32126E-05-3.30872E-24
 -1       574 1.70701E-04 2.13145E-05-1.65436E-24
 -1       575 1.70796E-04 1.93995E-05 0.00000E+00
 -1       576 1.70891E-04 1.74826E-05 0.00000E+00
 -1       577 1.70986E-04 1.55789E-05 0.00000E+00
 -1       578 1.71082E-04 1.37036E-05 0.00000E+00
 -1       579 1.71177E-04 1.18717E-05 0.00000E+00
 -1       580 1.71273E-04 1.00984E-05 0.00000E+00
 -1       581 1.71368E-04 8.39890E-06 0.00000E+00
 -1       582 1.71464E-04 6.78820E-06-3.30872E-24
 -1       583 1.71560E-04 5.28141E-06 0.00000E+00
 -1       584 1.71656E-04 3.89348E-06 0.00000E+00
 -1       585 1.71752E-04 2.63921E-06 0.00000E+00
 -1       586 1.71731E-04 2.86925E-05 0.00000E+00
 -1       587 1.73100E-04 2.87289E-05 2.06795E-25
 -1       588 1.74474E-04 2.87650E-05 8.27181E-25
 -1       589 1.75893E-04 2.88004E-05 0.00000E+00
 -1       590 1.77398E-04 2.88347E-05 0.00000E+00
 -1       591 1.70921E-04 2.69819E-05-2.06795E-25
 -1       592 1.71523E-04 2.52869E-05-2.06795E-25
 -1       593 1.72130E-04 2.35763E-05 8.27181E-25
 -1       594 1.72740E-04 2.18550E-05 4.13590E-25
 -1       595 1.73353E-04 2.01279E-05-8.27181E-25
 -1       596 1.73966E-04 1.83997E-05 0.00000E+00
 -1       597 1.74577E-04 1.66753E-05 0.00000E+00
 -1       598 1.75185E-04 1.49596E-05 0.00000E+00
 -1       599 1.75788E-04 1.32573E-05 0.00000E+00
 -1       600 1.76385E-04 1.15732E-05 0.00000E+00
 -1       601 1.76973E-04 9.91211E-06 0.00000E+00
 -1       602 1.77550E-04 8.27893E-06 4.13590E-25
 -1       603 1.78116E-04 6.67843E-06 0.00000E+00
 -1       604 1.78667E-04 5.11552E-06 1.42172E-25
 -1       605 1.79204E-04 3.59494E-06 0.00000E+00
 -1       606 1.71861E-04 6.45257E-07 0.00000E+00
 -1       607 1.71871E-04-1.53560E-07 0.00000E+00
 -1       608 1.71880E-04-8.69485E-07-3.30872E-24
 -1       609 1.71889E-04-1.50835E-06 0.00000E+00
 -1       610 1.71898E-04-2.07603E-06 0.00000E+00
 -1       611 1.71906E-04-2.57847E-06 0.00000E+00
 -1       612 1.71915E-04-3.02162E-06 0.00000E+00
 -1       613 1.71923E-04-3.41145E-06 0.00000E+00
 -1       614 1.71932E-04-3.75390E-06 0.00000E+00
 -1       615 1.71941E-04-4.05494E-06 0.00000E+00
 -1       616 1.71949E-04-4.32054E-06 1.65436E-24
 -1       617 1.71958E-04-4.55664E-06 0.00000E+00
 -1       618 1.71967E-04-4.76921E-06 0.00000E+00
 -1       619 1.71975E-04-4.96420E-06 0.00000E+00
 -1       620 1.71983E-04-5.14758E-06 0.00000E+00
 -1       621 1.72913E-04 1.63099E-06-1.65436E-24
 -1       622 1.74116E-04 1.73011E-06 1.65436E-24
 -1       623 1.75427E-04 1.82908E-06 1.65436E-24
 -1       624 1.76819E-04 1.92777E-06 0.00000E+00
 -1       625 1.78262E-04 2.02621E-06 1.65436E-24
 -1       626 1.72288E-04 6.79646E-07-3.30872E-24
 -1       627 1.72704E-04-1.06633E-07 0.00000E+00
 -1       628 1.73098E-04-8.34552E-07 0.00000E+00
 -1       629 1.73474E-04-1.51230E-06 3.30872E-24
 -1       630 1.73834E-04-2.14808E-06-3.30872E-24
 -1       631 1.74181E-04-2.75014E-06 0.00000E+00
 -1       632 1.74519E-04-3.32670E-06 3.30872E-24
 -1       633 1.74851E-04-3.88601E-06 0.00000E+00
 -1       634 1.75179E-04-4.43630E-06 3.30872E-24
 -1       635 1.75507E-04-4.98578E-06-1.65436E-24
 -1       636 1.75837E-04-5.54272E-06-3.30872E-24
 -1       637 1.76174E-04-6.11534E-06 1.65436E-24
 -1       638 1.76519E-04-6.71188E-06 1.65436E-24
 -1       639 1.76876E-04-7.34059E-06 8.27181E-25
 -1       640 1.77248E-04-8.00974E-06 1.65436E-24
 -1       656 1.72399E-04-5.87841E-06 0.00000E+00
 -1       657 1.73220E-04-6.45392E-06-6.61744E-24
 -1       658 1.74314E-04-7.02804E-06 0.00000E+00
 -1       659 1.75535E-04-7.60179E-06 0.00000E+00
 -1       660 1.76702E-04-8.17729E-06 6.61744E-24
 -1       661 1.72145E-04-5.54531E-06 0.00000E+00
 -1       662 1.72334E-04-5.85162E-06-8.27181E-25
 -1       663 1.72554E-04-6.23954E-06 1.65436E-24
 -1       664 1.72802E-04-6.70312E-06 0.00000E+00
 -1       665 1.73077E-04-7.23706E-06-1.65436E-24
 -1       666 1.73376E-04-7.83597E-06 8.27181E-25
 -1       667 1.73698E-04-8.49472E-06 1.65436E-24
 -1       668 1.74040E-04-9.20825E-06 0.00000E+00
 -1       669 1.74401E-04-9.97164E-06 1.65436E-24
 -1       670 1.74778E-04-1.07801E-05 0.00000E+00
 -1       671 1.75171E-04-1.16290E-05 1.65436E-24
 -1       672 1.75577E-04-1.25136E-05-8.27181E-25
 -1       673 1.75994E-04-1.34296E-05-1.65436E-24
 -1       674 1.76421E-04-1.43726E-05 0.00000E+00
 -1       675 1.76857E-04-1.53380E-05 0.00000E+00
 -1       676 1.72183E-04-1.58233E-05 0.00000E+00
 -1       677 1.73209E-04-1.59240E-05 0.00000E+00
 -1       678 1.74234E-04-1.60246E-05 3.30872E-24
 -1       679 1.75256E-04-1.61248E-05 1.65436E-24
 -1       680 1.76277E-04-1.62251E-05 0.00000E+00
 -1       771 1.84891E-05 1.25345E-05 5.29396E-23
 -1       772 9.31894E-06 3.24036E-05 0.00000E+00
 -1       773 1.77358E-06 4.81609E-05 0.00000E+00
 -1       774-4.25808E-06 6.00425E-05 2.64698E-23
 -1       775-8.88498E-06 6.82932E-05-5.29396E-23
 -1       776-1.22205E-05 7.31728E-05 0.00000E+00
 -1       777-1.43779E-05 7.49493E-05 0.00000E+00
 -1       778-1.54730E-05 7.39030E-05-2.64698E-23
 -1       779-1.56210E-05 7.03216E-05 0.00000E+00
 -1       780-1.49393E-05 6.45025E-05 2.64698E-23
 -1       781-1.35443E-05 5.67491E-05 0.00000E+00
 -1       782-1.15543E-05 4.73725E-05 2.64698E-23
 -1       783-9.08640E-06 3.66877E-05 0.00000E+00
 -1       784-6.25931E-06 2.50149E-05 2.64698E-23
 -1       785-3.19074E-06 1.26774E-05 0.00000E+00
 -1       786 1.79071E-04 2.69715E-05 0.00000E+00
 -1       787 1.79114E-04 2.51267E-05-4.13590E-25
 -1       788 1.79156E-04 2.33227E-05-8.27181E-25
 -1       789 1.79200E-04 2.15515E-05 0.00000E+00
 -1       790 1.79243E-04 1.98084E-05 0.00000E+00
 -1       791 1.79287E-04 1.80889E-05 8.27181E-25
 -1       792 1.79331E-04 1.63906E-05-1.65436E-24
 -1       793 1.79374E-04 1.47116E-05 0.00000E+00
 -1       794 1.79418E-04 1.30515E-05 0.00000E+00
 -1       795 1.79462E-04 1.14103E-05 8.27181E-25
 -1       796 1.79506E-04 9.78990E-06 0.00000E+00
 -1       797 1.79550E-04 8.19197E-06 0.00000E+00
 -1       798 1.79594E-04 6.62077E-06 0.00000E+00
 -1       799 1.79638E-04 5.08053E-06 0.00000E+00
 -1       800 1.79682E-04 3.57864E-06 1.65436E-24
 -1       801 1.38288E-04 2.58507E-05 2.64698E-23
 -1       802 1.48822E-05 1.63020E-05 0.00000E+00
 -1       803-9.14053E-05 8.34523E-06 5.29396E-23
 -1       804-8.25979E-05 5.76203E-06 0.00000E+00
 -1       805-2.74893E-05 2.35335E-06-5.29396E-23
 -1       806 1.79632E-04 2.69064E-05 0.00000E+00
 -1       807 1.80218E-04 2.49738E-05 0.00000E+00
 -1       808 1.80792E-04 2.30723E-05 0.00000E+00
 -1       809 1.81353E-04 2.12056E-05 0.00000E+00
 -1       810 1.81899E-04 1.93775E-05 0.00000E+00
 -1       811 1.82430E-04 1.75915E-05 0.00000E+00
 -1       812 1.82943E-04 1.58513E-05 3.30872E-24
 -1       813 1.83438E-04 1.41605E-05 0.00000E+00
 -1       814 1.83913E-04 1.25227E-05-1.65436E-24
 -1       815 1.84367E-04 1.09414E-05 8.27181E-25
 -1       816 1.84798E-04 9.42024E-06-1.65436E-24
 -1       817 1.85206E-04 7.96278E-06 8.27181E-25
 -1       818 1.85589E-04 6.57258E-06 1.65436E-24
 -1       819 1.85945E-04 5.25321E-06 8.27181E-25
 -1       820 1.86274E-04 4.00818E-06-1.65436E-24
 -1       821 1.79603E-04 3.66453E-07-1.65436E-24
 -1       822 1.79470E-04-2.03201E-06-1.65436E-24
 -1       823 1.79338E-04-4.80217E-06 3.30872E-24
 -1       824 1.79203E-04-7.67113E-06 0.00000E+00
 -1       825 1.79069E-04-1.03403E-05 0.00000E+00
 -1       826 1.78936E-04-1.25123E-05-1.65436E-24
 -1       827 1.78804E-04-1.40206E-05 3.30872E-24
 -1       828 1.78673E-04-1.47028E-05-1.65436E-24
 -1       829 1.78542E-04-1.46143E-05-3.30872E-24
 -1       830 1.78411E-04-1.38148E-05 0.00000E+00
 -1       831 1.78279E-04-1.25516E-05-3.30872E-24
 -1       832 1.78148E-04-1.10746E-05-1.65436E-24
 -1       833 1.78016E-04-9.69011E-06 0.00000E+00
 -1       834 1.77887E-04-8.70398E-06 0.00000E+00
 -1       835 1.77757E-04-8.31732E-06-8.27181E-25
 -1       836 1.81070E-04 2.24181E-06 3.30872E-24
 -1       837 1.82291E-04 2.36396E-06-1.65436E-24
 -1       838 1.83420E-04 2.48602E-06 0.00000E+00
 -1       839 1.84490E-04 2.60740E-06 8.27181E-25
 -1       840 1.85531E-04 2.72860E-06-8.27181E-25
 -1       856 1.77618E-04-9.46725E-06 8.27181E-25
 -1       857 1.77597E-04-1.00753E-05 0.00000E+00
 -1       858 1.77576E-04-1.05723E-05 0.00000E+00
 -1       859 1.77555E-04-1.09787E-05 0.00000E+00
 -1       860 1.77533E-04-1.13152E-05-4.13590E-25
 -1       861 1.77512E-04-1.16025E-05 4.13590E-25
 -1       862 1.77490E-04-1.18613E-05-8.27181E-25
 -1       863 1.77469E-04-1.21123E-05 0.00000E+00
 -1       864 1.77447E-04-1.23763E-05 8.27181E-25
 -1       865 1.77426E-04-1.26739E-05 4.13590E-25
 -1       866 1.77404E-04-1.30260E-05-8.27181E-25
 -1       867 1.77383E-04-1.34531E-05 0.00000E+00
 -1       868 1.77361E-04-1.39760E-05-8.27181E-25
 -1       869 1.77339E-04-1.46150E-05-4.13590E-25
 -1       870 1.77317E-04-1.53906E-05 8.27181E-25
 -1       871 1.78650E-04-8.73160E-06-8.27181E-25
 -1       872 1.79806E-04-8.73873E-06 0.00000E+00
 -1       873 1.81039E-04-8.74651E-06 0.00000E+00
 -1       874 1.82284E-04-8.75500E-06 3.10193E-25
 -1       875 1.83475E-04-8.76406E-06 0.00000E+00
 -1       876 1.78035E-04-9.45341E-06 0.00000E+00
 -1       877 1.78414E-04-1.01145E-05-1.65436E-24
 -1       878 1.78771E-04-1.07188E-05-3.30872E-24
 -1       879 1.79110E-04-1.12733E-05 0.00000E+00
 -1       880 1.79434E-04-1.17853E-05 0.00000E+00
 -1       881 1.79744E-04-1.22620E-05-1.65436E-24
 -1       882 1.80043E-04-1.27103E-05 0.00000E+00
 -1       883 1.80335E-04-1.31375E-05 0.00000E+00
 -1       884 1.80621E-04-1.35508E-05 0.00000E+00
 -1       885 1.80905E-04-1.39571E-05-1.65436E-24
 -1       886 1.81189E-04-1.43636E-05-3.30872E-24
 -1       887 1.81475E-04-1.47775E-05-1.65436E-24
 -1       888 1.81767E-04-1.52058E-05 0.00000E+00
 -1       889 1.82066E-04-1.56559E-05 0.00000E+00
 -1       890 1.82375E-04-1.61349E-05 1.65436E-24
 -1       891 1.78332E-04-1.63784E-05 0.00000E+00
 -1       892 1.79348E-04-1.64337E-05 0.00000E+00
 -1       893 1.80316E-04-1.64889E-05-8.27181E-25
 -1       894 1.81212E-04-1.65438E-05 8.27181E-25
 -1       895 1.82012E-04-1.65986E-05-8.27181E-25
 -1       956 1.86451E-04 1.83822E-06 1.65436E-24
 -1       957 1.86325E-04 9.21412E-07-1.65436E-24
 -1       958 1.86198E-04 8.05323E-08-3.30872E-24
 -1       959 1.86071E-04-6.94986E-07 1.65436E-24
 -1       960 1.85944E-04-1.41575E-06-3.30872E-24
 -1       961 1.85817E-04-2.09239E-06 1.65436E-24
 -1       962 1.85689E-04-2.73557E-06-3.30872E-24
 -1       963 1.85562E-04-3.35594E-06-1.65436E-24
 -1       964 1.85435E-04-3.96417E-06 0.00000E+00
 -1       965 1.85308E-04-4.57091E-06 0.00000E+00
 -1       966 1.85181E-04-5.18685E-06 0.00000E+00
 -1       967 1.85054E-04-5.82263E-06-1.65436E-24
 -1       968 1.84927E-04-6.48891E-06-3.30872E-24
 -1       969 1.84800E-04-7.19631E-06 0.00000E+00
 -1       970 1.84674E-04-7.95544E-06 0.00000E+00
 -1       971 1.84434E-04-9.59369E-06 0.00000E+00
 -1       972 1.84317E-04-1.03182E-05 0.00000E+00
 -1       973 1.84201E-04-1.09603E-05 3.30872E-24
 -1       974 1.84084E-04-1.15306E-05 0.00000E+00
 -1       975 1.83967E-04-1.20396E-05 3.30872E-24
 -1       976 1.83851E-04-1.24981E-05 1.65436E-24
 -1       977 1.83734E-04-1.29167E-05 3.30872E-24
 -1       978 1.83617E-04-1.33062E-05-1.65436E-24
 -1       979 1.83500E-04-1.36770E-05 0.00000E+00
 -1       980 1.83384E-04-1.40401E-05 0.00000E+00
 -1       981 1.83267E-04-1.44060E-05 0.00000E+00
 -1       982 1.83151E-04-1.47854E-05 0.00000E+00
 -1       983 1.83034E-04-1.51890E-05 3.30872E-24
 -1       984 1.82918E-04-1.56275E-05 0.00000E+00
 -1       985 1.82803E-04-1.61116E-05 0.00000E+00
 -3
    1PSTEP                        30          15           1          
  100CL  115 6.42334E-01         409                     0   15           1
 -4  STRESS      6    1
 -5  SXX         1    4    1    1
 -5  SYY         1    4    2    2
 -5  SZZ         1    4    3    3
 -5  SXY         1    4    1    2
 -5  SYZ         1    4    2    3
 -5  SZX         1    4    3    1
 -1         1-4.40811E+06-1.64679E+06-9.69911E+05-1.62058E+06 3.49246E-10-9.65083E-08
 -1         2 1.43672E+04-2.37039E+06 6.08402E+04 2.17824E+05 3.28600E-09-2.31610E-07
 -1         3-1.21662E+03-1.61589E+06 4.04043E+02-2.07499E+03-3.02538E-10 2.36942E-08
 -1         5-4.56771E+01 3.66891E+05 9.46877E+00-9.43395E-01-3.56525E-10-3.61651E-08
 -1         8-6.86676E+05-2.22557E+05-6.25237E+04-1.65814E+05 3.97449E-10-5.13937E-08
 -1         9 7.81784E+06-7.12919E+05 1.31122E+06-9.42189E+05 3.20026E-08-7.32252E-08
 -1        10-2.11040E+03-1.68386E+06-3.83501E+03-1.40214E+04-1.17288E-08-1.17416E-09
 -1        12-4.18880E+01 3.66911E+05 3.09519E+02-6.56503E+00-5.44873E-10 1.17552E-08
 -1        15 1.27091E+03 6.98432E+02 4.10819E+03 1.88919E+00 1.60298E-10 3.78659E-07
 -1        16 1.70799E+07-1.55815E+05 2.40885E+06-1.39644E+06 1.51534E-08 1.67716E-07
 -1        17 6.12788E+06 4.34730E+06 1.65050E+06 4.27922E+06 1.56142E-08 3.38536E-08
 -1        18 1.09775E+05 2.47114E+04-2.27794E+03-1.11447E+05 1.18423E-08-2.35241E-09
 -1        19 1.16666E+05 1.34802E+05-9.09929E+02 2.13197E+04 1.21781E-09-4.66389E-09
 -1        20-7.48644E+04-5.47813E+05-1.22688E+05 2.59040E+04-1.33408E-09 1.15718E-08
 -1        21-4.48586E+01-2.86801E+05-8.99137E+02 2.01879E+02 1.27169E-08 1.41908E-08
 -1        24 1.00156E+07 8.52981E+06 2.84281E+06 7.93404E+06-1.42657E-07-4.67602E-08
 -1        25 6.90645E+04 6.20401E+04 4.74365E+04-5.25712E+05-1.22545E-09 2.21771E-09
 -1        26-5.20679E+04 8.75760E+04-2.34800E+04 8.72783E+01 4.80577E-10 2.28242E-08
 -1        27-7.43269E+04-2.96533E+05-1.08859E+05 6.60650E+04 4.25689E-09-9.47208E-09
 -1        28 2.16572E+04-8.22562E+04 1.63553E+04 2.06402E+04-2.29366E-09 8.86899E-09
 -1        32-1.62404E+06-2.97738E+06-1.72334E+05 2.43749E+05-3.86935E-08-8.49059E-09
 -1        33-1.71258E+05 8.82655E+04 3.08914E+04-3.75426E+04-2.50270E-09 1.85964E-08
 -1        34-2.14790E+05-2.36307E+04 6.44990E+02 7.17933E+04-4.26199E-09 7.44330E-09
 -1        35-2.22710E+04-3.26289E+04-1.29756E+03 4.99107E+04-1.46759E-09 4.50624E-09
 -1        51 4.94345E+04-2.12288E+05 1.07051E+05-6.34260E+05 1.60071E-10 2.79542E-08
 -1        52 1.79079E+04-1.95212E+05 5.78818E+04-7.39437E+05 3.49246E-10 1.18547E-07
 -1        53 5.08307E+03-2.10709E+05 3.28664E+04-6.31927E+05 6.40284E-10 8.25676E-08
 -1        54 1.15671E+04-2.07154E+05 3.25235E+04-7.41872E+05-1.89175E-10-1.50063E-07
 -1        55 2.43341E+04-2.16793E+05 4.60083E+04-6.31586E+05-1.45519E-11 1.86083E-08
 -1        56-8.31595E+06-9.54133E+05-7.18978E+05-3.26643E+06-2.76486E-10-2.15601E-07
 -1        57-8.77880E+06-1.41876E+06-4.83033E+05-3.02703E+06 4.14766E-08 3.91956E-08
 -1        58-8.40999E+06-1.22855E+06-1.68821E+05-3.27381E+06 1.51704E-09-4.03088E-08
 -1        59-8.67805E+06-1.09085E+06-1.00256E+05-3.01760E+06-1.79680E-08-6.45741E-08
 -1        60-8.41778E+06-1.27188E+06-3.90676E+04-3.28083E+06 8.93579E-09 1.23673E-07
 -1        61-8.63761E+06-1.06736E+06-2.16891E+04-3.03868E+06 9.18044E-09 3.79041E-08
 -1        62-8.44863E+06-1.25181E+06-1.15835E+04-3.25203E+06-5.79712E-09 1.31658E-08
 -1        63-8.54997E+06-1.13963E+06-7.15838E+03-3.12100E+06 4.23915E-08 4.25607E-08
 -1        64-8.50105E+06-1.20241E+06-1.17026E+04-3.19535E+06 7.62520E-09 9.55201E-08
 -1        65-8.44978E+06-1.24564E+06-1.81928E+04-3.23666E+06-4.64943E-08 1.18308E-07
 -1        66-8.54848E+06-1.14619E+06-3.57906E+04-3.13611E+06 1.06575E-08 1.02623E-07
 -1        67-8.39817E+06-1.35905E+06-8.79599E+04-3.32890E+06 6.85759E-09-9.71559E-08
 -1        68-8.55738E+06-1.08706E+06-1.48387E+05-3.10600E+06-4.42742E-09 1.95723E-09
 -1        69-8.52200E+06-1.62245E+06-4.26458E+05-3.31585E+06-2.67883E-08-8.51214E-08
 -1        70-8.42904E+06-8.88205E+05-6.32569E+05-3.14872E+06-1.30967E-09-4.31319E-08
 -1        86-1.48759E+04-2.84450E+06-3.75077E+04-1.08667E+05-2.97720E-08-1.74217E-07
 -1        87 1.73750E+04-2.55699E+06 2.30552E+04 3.31175E+05-5.00368E-08 8.80536E-08
 -1        88 5.76743E+02-2.67692E+06-7.89337E+03-2.22340E+05-4.46239E-08 3.48784E-08
 -1        89 1.05138E+04-2.59675E+06-2.30495E+03 3.61424E+05-7.02562E-08-8.44835E-08
 -1        90-4.61475E+03-2.80859E+06-6.92514E+04-1.39048E+05-2.13258E-08-5.41859E-08
 -1       121-1.67638E+03-1.61996E+06-3.64811E+02 1.03033E+03 1.34548E-09-1.06593E-09
 -1       122-1.03681E+03-1.61593E+06 7.89680E+02-4.14936E+03-4.84489E-09-2.80124E-08
 -1       123-1.70953E+03-1.62009E+06 4.88269E+02 3.07641E+03 3.84148E-09 2.33922E-09
 -1       124 6.24650E+02-1.61538E+06 3.09568E+03-8.66511E+03-9.39008E-09 2.33540E-08
 -1       125-2.57391E+03-1.62100E+06 3.88192E+03 5.51299E+03 6.06997E-09 1.81790E-08
 -1       191-4.82493E+01 3.66913E+05 9.35271E+00 4.85422E-01-4.59232E-10-1.59944E-08
 -1       192-4.65730E+01 3.66891E+05 2.01431E+01-3.16101E+00-6.20472E-10 5.82077E-11
 -1       193-5.06172E+01 3.66913E+05 3.55490E+01 2.76037E+00-8.09878E-10-4.50018E-09
 -1       194-4.94495E+01 3.66894E+05 7.64214E+01-7.22160E+00-4.24450E-10-6.51926E-09
 -1       195-5.51639E+01 3.66911E+05 1.47564E+02 4.64340E+00-1.18660E-09-5.14774E-09
 -1       251-2.75324E+06-3.32389E+04-2.83914E+05-2.78317E+05 1.16052E-09-9.04402E-08
 -1       252-1.32473E+06 3.89959E+04 8.11520E+04 7.50255E+05-5.35249E-09-2.18867E-07
 -1       253-2.23647E+06 2.40989E+04-6.14277E+04-3.48956E+05-4.02906E-10-5.67616E-08
 -1       254-5.88347E+05 5.47466E+04 2.81131E+05 4.44045E+05 1.21963E-08 1.90001E-07
 -1       255-3.43511E+06-1.06527E+05-2.95329E+05 2.86529E+04 2.11694E-08 8.27122E-08
 -1       256-4.37375E+05 8.96464E+04 3.30611E+05-3.34227E+05 9.55333E-09 7.96426E-08
 -1       257-2.37528E+06-2.27660E+04-6.39006E+04 4.23423E+05-7.95535E-09 2.40293E-08
 -1       258-1.41696E+06 9.32946E+04 1.45685E+05-7.08803E+05-2.92448E-09 1.90780E-08
 -1       259-2.52496E+06-3.74482E+04-9.43284E+04 4.09168E+05-3.25708E-08 2.31429E-07
 -1       260-3.10010E+05 9.27386E+04 3.60485E+05-2.64972E+05 2.67919E-08 3.16995E-08
 -1       261-3.40445E+06-1.02986E+05-2.78777E+05-2.63845E+04 1.01045E-08 3.61558E-08
 -1       262-7.25324E+05 6.02659E+04 2.75910E+05 5.07978E+05 2.65818E-08 1.98880E-07
 -1       263-2.14023E+06 2.52329E+04-2.01020E+03-3.57683E+05-2.94285E-08-1.19696E-08
 -1       264-1.23613E+06 1.12388E+05 1.94361E+05 7.29428E+05-1.31115E-07-3.45905E-07
 -1       265-2.93362E+06-1.12538E+05-1.72046E+05-2.48581E+05-4.73883E-08-1.15092E-07
 -1       266-2.30077E+04-1.07586E+04 5.39816E+04-4.04222E+01 1.16415E-10-4.73783E-08
 -1       267 2.66722E+04 1.25391E+04 3.81539E+04 4.66398E+01 1.09139E-10-1.43147E-07
 -1       268-3.57670E+03-1.77590E+03 1.41816E+04-5.94269E+00-8.91305E-11-5.97361E-08
 -1       269 4.22303E+03 2.12535E+03 9.21784E+03 6.92238E+00 5.03633E-11 1.96830E-07
 -1       270-6.33882E+02-3.49213E+02 4.44958E+03-9.39414E-01-2.24986E-10 1.41286E-07
 -1       271-2.07459E+06-2.49531E+05-1.54173E+05-7.93808E+05 5.77711E-09-5.57411E-08
 -1       272-2.18603E+06-3.06927E+05-9.92598E+04-7.30086E+05 6.15910E-09-1.66652E-07
 -1       273-2.10228E+06-2.89403E+05-3.63757E+04-7.88439E+05-1.53373E-08 4.05489E-08
 -1       274-2.15332E+06-2.58191E+05-2.04169E+04-7.38441E+05 2.92753E-08 5.90549E-08
 -1       275-2.10634E+06-2.93465E+05-8.47578E+03-7.87152E+05 3.57886E-09-6.83394E-09
 -1       276-2.14706E+06-2.54497E+05-4.44538E+03-7.41094E+05 2.82034E-08-4.70945E-08
 -1       277-2.10801E+06-2.92882E+05-2.24356E+03-7.85644E+05-2.70393E-09 1.45528E-07
 -1       278-2.14296E+06-2.57047E+05-1.38543E+03-7.44251E+05 1.69020E-08 1.27028E-07
 -1       279-2.10978E+06-2.91280E+05-1.61665E+03-7.83546E+05 1.38334E-08-5.36079E-08
 -1       280-2.13843E+06-2.61476E+05-2.37299E+03-7.48424E+05 2.63753E-09 6.20621E-08
 -1       281-2.11180E+06-2.88941E+05-4.75422E+03-7.80941E+05-1.57725E-08 1.03843E-07
 -1       282-2.13494E+06-2.69413E+05-1.05203E+04-7.53252E+05 1.09649E-08-2.32340E-08
 -1       283-2.11260E+06-2.84056E+05-1.93484E+04-7.78131E+05-3.92720E-09-2.16561E-07
 -1       284-2.14534E+06-3.00866E+05-5.15495E+04-7.55544E+05-7.52334E-09-1.82378E-07
 -1       285-2.10122E+06-2.60426E+05-8.08770E+04-7.77351E+05-4.33283E-09 2.48911E-08
 -1       301 1.37339E+04-4.88423E+05 1.76281E+05-8.49200E+05 2.01544E-09 2.64263E-08
 -1       302 1.49613E+04-4.43316E+05 1.07234E+05-1.24134E+06-1.01863E-09-1.38569E-07
 -1       303-6.52980E+03-4.74044E+05 6.53115E+04-8.47074E+05 5.27507E-10 4.90181E-08
 -1       304 2.10043E+03-4.47337E+05 7.39064E+04-1.24059E+06-1.28784E-09 1.20985E-07
 -1       305-2.16155E+03-4.72262E+05 1.01700E+05-8.49737E+05-4.91127E-11-2.90020E-08
 -1       306-2.51950E+07-5.06219E+06-6.86526E+06-1.32002E+06-5.77420E-08-2.31346E-07
 -1       307 2.02769E+07 1.44053E+06 4.40666E+06-1.17771E+07-7.73565E-07-2.15150E-07
 -1       308-7.93254E+06-5.68300E+05-5.49115E+05 4.17340E+06-1.18162E-07 3.30452E-07
 -1       309-3.54720E+06 5.26399E+06 1.59854E+06-1.76150E+07 3.68585E-07 2.19341E-07
 -1       310-1.05889E+07-9.68757E+05-1.23007E+06 4.02246E+06 1.38301E-07-8.27567E-08
 -1       311 2.64048E+07-3.75133E+05 5.32943E+06-8.42354E+06 7.26548E-07 6.61239E-08
 -1       312-2.59551E+07-5.06693E+06-6.41261E+06-3.56525E+06-2.36905E-08 1.45781E-07
 -1       313 3.59102E+07 9.20575E+06 8.28557E+06 1.63801E+07-1.85479E-07-2.26573E-08
 -1       314-1.62536E+07-1.29519E+07-5.92040E+06-1.04246E+07 4.73345E-07-6.43777E-08
 -1       315-7.75171E+05 2.18301E+07 4.56330E+06 1.01002E+07-5.29373E-07 5.09899E-08
 -1       316-1.44896E+05-8.64323E+06-5.07272E+05-3.77744E+06-8.33097E-07-3.01254E-07
 -1       317-1.67318E+07 1.83545E+07 1.56878E+06-4.86852E+06 6.56342E-07-7.00566E-07
 -1       318-1.42482E+06-9.75268E+06-1.28842E+06-4.50074E+06-7.42788E-07 8.69040E-08
 -1       319 3.78895E+06 2.28508E+07 5.08807E+06 1.23789E+07-1.04767E-07 2.06841E-07
 -1       320-1.88008E+07-1.33073E+07-7.52007E+06-1.03103E+07 1.61468E-07-6.13800E-08
 -1       336-2.74973E+02-1.75367E+06-1.35600E+04 8.38455E+03-2.38933E-08 1.04119E-08
 -1       337-5.20093E+03-1.75413E+06-1.75928E+04-2.02782E+04-4.36410E-08 1.79880E-08
 -1       338 5.63912E+02-1.75323E+06-2.71432E+04 1.17081E+04-3.16668E-08 2.64117E-09
 -1       339-2.88273E+04-1.77031E+06-6.14738E+04-2.67626E+04-5.77929E-08 2.10985E-08
 -1       340 1.92497E+04-1.73933E+06-9.65758E+04 1.47589E+04-3.70892E-08 2.39779E-08
 -1       406-2.01599E+01 3.66897E+05 6.09048E+02 2.19391E+00-1.49108E-09 1.89575E-08
 -1       407 1.71399E+02 3.67018E+05 1.29874E+03 1.88709E+01-3.72349E-10-2.56114E-09
 -1       408 6.25322E+02 3.66803E+05 2.59124E+03-2.14751E+01-2.03977E-09-1.95232E-08
 -1       409 2.76593E+03 3.67845E+05 5.83767E+03 2.25186E+02-2.70120E-10-4.17003E-09
 -1       410 8.02187E+03 3.66060E+05 1.19156E+04-2.16185E+02-2.34104E-09 8.82756E-09
 -1       521-2.68579E+07-6.22254E+06-8.05640E+06-1.05744E+06-8.37026E-08 1.29105E-07
 -1       522 2.10741E+07 1.95805E+06 4.49491E+06-1.46984E+07-4.62926E-07-1.89611E-07
 -1       523-8.77622E+06-8.30054E+05-5.76286E+05 4.62159E+06 1.00990E-08-3.02025E-07
 -1       524-6.47293E+06 7.49171E+06 1.74464E+06-2.05273E+07 7.32198E-07-3.86153E-07
 -1       525-1.16286E+07-1.40198E+06-1.36109E+06 4.45774E+06 5.56116E-07-3.06420E-07
 -1       526 2.87131E+07-4.09980E+05 5.63908E+06-1.07964E+07-7.76781E-08 2.65107E-07
 -1       527-2.77985E+07-6.39175E+06-7.40893E+06-3.49576E+06 2.53785E-08 7.90169E-08
 -1       528 3.94544E+07 1.00884E+07 8.69529E+06 1.86076E+07 1.25205E-07-1.25030E-07
 -1       529-1.73580E+07-1.48120E+07-6.81698E+06-1.07219E+07 2.63797E-07 1.40863E-08
 -1       530-2.88037E+06 2.56314E+07 4.85177E+06 1.02738E+07-1.30152E-07 6.69970E-07
 -1       531-2.57103E+05-9.80763E+06-5.19390E+05-4.00794E+06-5.27230E-07 2.76894E-07
 -1       532-1.98066E+07 2.07068E+07 1.73769E+06-7.92234E+06 3.99741E-07-5.02048E-07
 -1       533-1.53226E+06-1.09287E+07-1.36442E+06-4.66072E+06-9.20554E-08-8.50589E-07
 -1       534 1.91562E+06 2.67430E+07 5.33646E+06 1.29214E+07-5.64614E-08 6.40517E-07
 -1       535-2.00040E+07-1.52789E+07-8.61738E+06-1.05892E+07 5.01750E-08 4.07017E-07
 -1       536-6.55036E+05-4.46461E+04-2.71649E+04-4.77020E+04-7.73889E-09 5.59121E-08
 -1       537-1.04739E+05 4.37213E+04 7.94103E+04 1.10385E+05-9.91499E-08 9.14447E-08
 -1       538-3.92129E+05 1.98412E+03 6.38076E+03-6.53419E+04 2.25257E-08 9.48539E-08
 -1       539-2.87162E+05 3.08840E+03 2.27479E+04 1.24799E+05 1.25845E-07 9.82337E-08
 -1       540-4.77122E+05-2.80651E+02-1.67900E+04-6.25218E+04 1.56858E-08 1.02402E-07
 -1       541 6.08392E+04 1.42202E+04 8.94273E+04 8.64018E+04-3.65526E-08 6.33606E-08
 -1       542-7.30769E+05-1.69362E+04-7.04108E+04-2.62818E+04 3.05945E-08 1.44049E-08
 -1       543 2.77373E+05 2.29326E+04 1.32231E+05-1.22083E+04-2.13595E-08-3.84257E-08
 -1       544-6.87865E+05-1.37798E+04-6.25439E+04 3.55766E+04-8.83210E-09-5.20816E-08
 -1       545-3.93547E+04 7.67975E+03 6.61543E+04-1.01335E+05-6.24868E-09-5.13028E-08
 -1       546-4.22520E+05 5.32728E+03-1.04170E+04 6.25868E+04 2.70625E-08-9.06878E-08
 -1       547-3.03091E+05-4.67997E+03 7.53368E+03-1.27493E+05-1.17484E-07-1.02615E-07
 -1       548-4.31190E+05 4.46333E+03-2.18052E+04 6.22587E+04-1.08016E-07-8.66335E-08
 -1       549-2.16056E+04 9.98512E+03 4.60475E+04-9.88859E+04-6.18838E-08-6.59670E-08
 -1       550-6.96462E+05-1.56198E+04-1.15004E+05 3.34326E+04 4.09773E-09-3.99032E-08
 -1       551 3.69332E+04-7.67448E+05-5.41621E+03-1.20546E+06-9.25793E-08-4.16185E-09
 -1       552 8.36818E+04-8.05624E+05 1.58487E+04-1.71903E+06-6.47706E-08 3.05081E-08
 -1       553 6.37028E+04-8.04149E+05 3.60264E+04-1.19939E+06-1.07735E-07 2.16678E-08
 -1       554 1.20051E+05-8.17639E+05 8.57589E+04-1.72098E+06-6.80157E-08 1.42609E-08
 -1       555 9.33176E+04-8.26813E+05 1.55183E+05-1.19945E+06-1.12588E-07-1.21909E-08
 -1       556 2.01295E+05-3.49720E+05 3.97992E+04-3.82890E+05-2.14350E-08 5.90808E-09
 -1       557 3.24161E+05-4.47917E+05 2.29884E+04-4.93034E+05-1.44064E-09 1.03610E-08
 -1       558 1.86704E+05-3.46546E+05 5.96704E+03-3.84193E+05-2.08383E-08 1.43118E-08
 -1       559 3.01050E+05-4.50490E+05 4.03066E+03-5.10546E+05 2.42289E-08 1.78261E-09
 -1       560 1.73845E+05-3.38452E+05-3.15466E+02-3.93366E+05 1.53086E-08 4.60204E-09
 -1       561 2.84698E+05-4.44084E+05 5.70458E+02-5.21602E+05 7.13044E-09-4.48563E-09
 -1       562 1.63685E+05-3.32109E+05-8.59215E+02-4.00703E+05 6.88306E-09 1.10558E-08
 -1       563 2.72652E+05-4.38832E+05 9.09499E+01-5.29447E+05 6.29370E-09-7.88441E-09
 -1       564 1.56502E+05-3.27625E+05-4.16343E+02-4.05787E+05 1.11177E-08 2.45109E-09
 -1       565 2.64784E+05-4.35407E+05 5.85486E+01-5.34466E+05 1.31258E-08 7.23230E-09
 -1       566 1.52406E+05-3.25029E+05-1.86008E+02-4.08654E+05-6.34464E-09 3.03226E-09
 -1       567 2.61126E+05-4.33814E+05-2.98116E+02-5.36669E+05 1.74332E-08-1.05247E-08
 -1       568 1.51472E+05-3.24463E+05-9.60553E+02-4.09403E+05 4.31555E-10 4.94401E-09
 -1       569 2.60389E+05-4.33776E+05-2.42738E+03-5.35114E+05-6.00448E-09 1.57306E-08
 -1       570 1.54717E+05-3.27470E+05-5.34003E+03-4.08491E+05 7.82893E-09 4.10637E-09
 -1       571 2.76371E+05 1.00132E+04 1.43951E+04-8.71279E+04 2.59934E-09 9.84392E-09
 -1       572 2.78469E+05 3.71622E+03 7.05434E+03-9.55864E+04 2.77851E-09-1.69384E-08
 -1       573 2.77206E+05 1.11636E+03 3.13439E+03-8.69611E+04 3.91447E-09-7.81256E-10
 -1       574 2.77421E+05 6.09155E+02 1.57162E+03-9.57944E+04 3.53612E-09-1.11859E-08
 -1       575 2.77297E+05 3.49599E+02 7.41654E+02-8.69384E+04 4.02849E-10 5.49153E-09
 -1       576 2.77289E+05 3.52817E+02 3.79469E+02-9.58221E+04-5.97504E-09 8.83301E-09
 -1       577 2.77331E+05 2.96365E+02 1.89297E+02-8.69353E+04-2.87400E-09 9.78343E-09
 -1       578 2.77311E+05 3.20579E+02 1.08864E+02-9.58260E+04-4.33556E-09 1.00990E-08
 -1       579 2.77391E+05 2.67080E+02 7.44967E+01-8.69350E+04 7.02494E-09-5.51154E-09
 -1       580 2.77394E+05 2.79269E+02 8.54354E+01-9.58214E+04-6.72662E-09-6.85941E-09
 -1       581 2.77485E+05 2.19907E+02 1.29077E+02-8.69404E+04 1.40917E-08 1.68257E-10
 -1       582 2.77542E+05 2.53290E+02 2.61232E+02-9.57650E+04 1.75605E-08-1.15942E-08
 -1       583 2.77599E+05 2.69435E+02 5.02549E+02-8.69919E+04-1.64982E-09 1.36720E-09
 -1       584 2.77872E+05 6.77297E+02 1.13576E+03-9.53315E+04-1.61635E-08-7.93443E-09
 -1       585 2.77605E+05 1.64259E+03 2.30169E+03-8.73735E+04-1.19417E-08-5.93354E-09
 -1       586-3.28265E+03 1.07308E+05-3.04750E+03-2.40185E+05-3.13594E-09-4.69231E-09
 -1       587-1.17401E+03 1.07018E+05 5.79656E+02-2.64348E+05-4.72573E-09 8.26731E-10
 -1       588 5.00962E+02 1.06880E+05 4.41874E+03-2.40057E+05-1.89175E-09 9.69249E-09
 -1       589 4.94089E+03 1.09191E+05 1.15972E+04-2.64112E+05-7.60519E-09-2.42380E-09
 -1       590 1.57883E+04 1.05621E+05 2.43811E+04-2.40469E+05-3.87718E-09 2.93221E-09
 -1       591-6.85178E+04-1.50687E+04-2.10411E+04-2.97623E+04-4.05635E-10 3.30965E-09
 -1       592-7.21790E+04-1.85490E+04-1.13974E+04-3.33278E+04 4.76632E-11 5.07612E-09
 -1       593-7.06234E+04-1.35406E+04-4.74425E+03-3.13039E+04-5.60817E-10 3.60137E-09
 -1       594-6.92717E+04-1.54639E+04-2.36609E+03-3.34406E+04 6.14891E-09-9.70641E-09
 -1       595-7.07840E+04-1.35354E+04-1.08638E+03-3.13740E+04-1.27369E-09 1.51482E-08
 -1       596-6.90728E+04-1.53228E+04-5.52240E+02-3.34172E+04 1.31244E-09 3.01703E-08
 -1       597-7.08041E+04-1.35498E+04-3.00658E+02-3.13766E+04 5.11574E-09 1.51011E-08
 -1       598-6.90532E+04-1.53172E+04-2.41599E+02-3.34106E+04-2.33331E-09-1.35059E-08
 -1       599-7.08029E+04-1.35502E+04-3.08494E+02-3.13763E+04 6.97514E-09-1.36708E-08
 -1       600-6.90730E+04-1.53234E+04-5.72987E+02-3.34153E+04 1.38072E-08-6.61248E-09
 -1       601-7.07796E+04-1.35365E+04-1.13033E+03-3.13729E+04 6.73367E-09-2.09182E-08
 -1       602-6.92798E+04-1.54693E+04-2.46340E+03-3.34361E+04-1.41313E-10-1.23379E-08
 -1       603-7.06098E+04-1.35447E+04-4.94013E+03-3.13007E+04-6.61430E-10-2.46018E-09
 -1       604-7.23236E+04-1.86635E+04-1.18673E+04-3.32953E+04-1.77238E-10 9.33142E-10
 -1       605-6.83985E+04-1.51525E+04-2.19086E+04-2.97136E+04 3.64963E-09 8.88485E-09
 -1       606 2.69408E+04-1.35573E+04-2.43139E+04 2.46074E+04 6.59929E-09 1.66406E-08
 -1       607 2.27854E+04-4.42230E+03-1.21080E+04 2.76467E+04 8.05812E-10-7.65976E-09
 -1       608 2.51518E+04-7.92684E+02-5.42063E+03 2.44289E+04-2.33740E-09-5.50767E-09
 -1       609 2.46959E+04-2.64956E+02-2.73827E+03 2.78655E+04 4.18368E-11 1.15888E-08
 -1       610 2.49471E+04-3.08467E+01-1.30668E+03 2.44080E+04 2.06182E-09 1.08080E-08
 -1       611 2.48736E+04-2.87469E+01-6.58809E+02 2.78891E+04 4.11092E-09-2.61889E-09
 -1       612 2.49004E+04-1.65347E+01-3.13419E+02 2.44059E+04 7.11225E-09-1.47429E-09
 -1       613 2.48824E+04-2.36362E+01-1.40619E+02 2.78919E+04 2.16387E-08 8.65475E-09
 -1       614 2.48777E+04-2.15206E+01-3.35073E+01 2.44051E+04 2.11548E-09-1.34241E-09
 -1       615 2.48756E+04-2.12607E+01 5.77402E+01 2.78924E+04-2.32503E-08 2.12412E-09
 -1       616 2.48600E+04-1.77682E+01 1.74229E+02 2.44054E+04-1.18557E-08-5.52518E-11
 -1       617 2.48953E+04 1.66583E+01 3.97989E+02 2.78919E+04-7.88987E-11 9.48262E-09
 -1       618 2.48245E+04 9.75712E+01 8.02354E+02 2.44057E+04-8.73069E-09 2.36241E-09
 -1       619 2.51777E+04 6.37535E+02 1.80187E+03 2.78912E+04-1.81458E-08 9.05470E-09
 -1       620 2.45575E+04 2.00061E+03 3.62172E+03 2.44065E+04-1.05344E-08-3.93220E-09
 -1       621 4.47453E+02 2.85853E+05 3.56393E+03 3.53141E+04 7.23958E-10-1.34150E-09
 -1       622 5.82618E+02 2.86688E+05 3.19074E+03 5.12878E+04 9.65883E-10 3.77440E-10
 -1       623 1.04447E+02 2.86038E+05 3.87255E+03 3.51530E+04 1.09389E-09 9.53969E-09
 -1       624 1.94965E+03 2.87859E+05 7.53750E+03 5.14473E+04 1.15278E-09 4.64297E-10
 -1       625 1.91881E+03 2.84546E+05 1.31865E+04 3.51500E+04 1.08685E-09 3.39924E-09
 -1       626 2.48451E+05 5.97569E+04 4.98761E+03 1.22290E+05 9.00400E-10-4.22369E-09
 -1       627 2.46117E+05 6.11943E+04 2.40348E+03 1.26536E+05 1.04774E-09-4.10967E-09
 -1       628 2.48581E+05 5.74684E+04 1.01632E+03 1.23129E+05-1.35988E-08-9.85710E-09
 -1       629 2.45489E+05 6.05405E+04 4.97462E+02 1.26778E+05-3.41515E-10 2.20543E-08
 -1       630 2.48594E+05 5.73583E+04 2.30655E+02 1.23164E+05-2.85399E-09-1.13512E-08
 -1       631 2.45421E+05 6.05166E+04 1.24004E+02 1.26780E+05 1.04228E-09-1.23373E-09
 -1       632 2.48589E+05 5.73629E+04 8.13978E+01 1.23159E+05 1.01859E-08-1.98779E-08
 -1       633 2.45411E+05 6.05191E+04 9.03509E+01 1.26775E+05 2.54582E-08 2.16855E-08
 -1       634 2.48584E+05 5.73608E+04 1.45723E+02 1.23157E+05 1.34833E-10 5.90694E-09
 -1       635 2.45424E+05 6.05179E+04 2.94703E+02 1.26780E+05-3.63485E-09 4.45289E-08
 -1       636 2.48574E+05 5.73559E+04 5.95064E+02 1.23157E+05-1.44746E-08 4.24461E-09
 -1       637 2.45552E+05 6.06107E+04 1.30825E+03 1.26778E+05-1.19483E-08 3.52366E-08
 -1       638 2.48527E+05 5.76451E+04 2.68800E+03 1.23026E+05-5.02814E-09 1.81899E-11
 -1       639 2.46964E+05 6.25744E+04 6.35978E+03 1.26362E+05 5.32896E-09-1.02532E-08
 -1       640 2.48333E+05 6.35075E+04 1.31977E+04 1.20553E+05 4.91082E-09 6.98014E-09
 -1       656 6.37854E+04-1.63031E+06-1.53975E+05-2.05221E+03-5.82077E-11 4.96999E-09
 -1       657-8.43719E+04-1.69987E+06-1.27536E+05 5.75929E+03-6.51198E-10-1.08447E-08
 -1       658 2.03227E+04-1.65007E+06-7.85175E+04-4.00108E+03-6.65523E-10-3.99347E-09
 -1       659-9.11570E+04-1.70309E+06-1.36452E+05 7.33482E+03-1.69530E-09 5.46772E-09
 -1       660 7.05553E+04-1.62709E+06-1.69304E+05-3.62773E+03-2.11003E-09-5.23761E-09
 -1       661 1.60792E+05 1.69430E+04 1.66997E+04 6.28611E+04-1.93404E-09 1.17170E-08
 -1       662 1.70131E+05 2.94112E+04 1.12542E+04 5.92321E+04-7.95808E-10-6.88090E-09
 -1       663 1.64072E+05 2.23009E+04 3.93613E+03 6.19097E+04 7.97854E-10 1.26465E-09
 -1       664 1.66329E+05 2.31449E+04 2.35442E+03 6.03938E+04-4.76177E-09 9.58295E-10
 -1       665 1.64569E+05 2.30333E+04 9.28803E+02 6.17653E+04-1.12720E-10 2.36511E-08
 -1       666 1.65742E+05 2.23069E+04 5.43376E+02 6.05818E+04 3.99497E-09 8.96727E-09
 -1       667 1.64656E+05 2.31170E+04 2.88473E+02 6.17295E+04 6.20105E-10 3.06090E-08
 -1       668 1.65646E+05 2.22460E+04 2.93597E+02 6.06338E+04-7.42313E-09 3.75536E-09
 -1       669 1.64663E+05 2.30924E+04 3.97214E+02 6.17136E+04-2.42849E-09 1.27168E-08
 -1       670 1.65743E+05 2.24612E+04 8.64684E+02 6.06365E+04-1.08687E-08 1.72591E-08
 -1       671 1.64559E+05 2.29062E+04 1.53522E+03 6.17249E+04 5.00457E-10-4.01712E-10
 -1       672 1.66638E+05 2.39548E+04 3.92777E+03 6.04199E+04 3.33813E-09-3.31676E-09
 -1       673 1.63773E+05 2.16365E+04 6.58228E+03 6.19158E+04 1.48384E-09 3.62024E-09
 -1       674 1.72903E+05 3.45295E+04 1.88239E+04 5.85789E+04-3.64162E-09-9.26025E-09
 -1       675 1.58334E+05 1.26276E+04 2.79413E+04 6.34546E+04-2.24691E-09-4.27281E-09
 -1       676 2.34074E+01-2.86726E+05-1.08370E+03-1.00942E+02 2.45251E-10 7.10340E-09
 -1       677-2.87161E+02-2.86988E+05-1.98334E+03 2.01730E+02 6.66748E-09 6.37827E-09
 -1       678 1.92208E+02-2.86539E+05-3.50605E+03-1.00721E+02 8.02402E-10-7.81597E-11
 -1       679-3.50657E+03-2.89105E+05-8.32889E+03 2.00885E+02 4.80838E-09-3.90691E-09
 -1       680 2.09325E+03-2.84611E+05-1.34233E+04-9.89797E+01-2.81943E-11 6.53075E-09
 -1       771-2.98357E+06-7.02007E+05-1.42587E+05-1.40867E+06-3.05736E-08-2.79397E-08
 -1       772-2.91403E+06-7.83441E+05-7.36763E+04-1.50260E+06-1.90339E-08 1.15360E-08
 -1       773-3.01069E+06-6.80772E+05-3.71965E+04-1.42047E+06-1.30385E-08 8.60018E-09
 -1       774-2.90483E+06-7.67816E+05-1.66705E+04-1.52445E+06 1.44355E-08-9.19317E-09
 -1       775-3.02446E+06-6.71071E+05-1.22270E+04-1.42603E+06-9.19681E-09 2.08092E-09
 -1       776-2.91462E+06-7.65545E+05-4.61144E+03-1.54073E+06-6.11180E-09 3.62343E-09
 -1       777-3.03630E+06-6.62489E+05-5.31463E+03-1.43093E+06-8.73115E-11 2.88856E-09
 -1       778-2.92491E+06-7.63470E+05-1.51557E+03-1.55467E+06 9.12405E-09 9.19317E-09
 -1       779-3.04644E+06-6.55027E+05-2.62834E+03-1.43513E+06-5.22414E-09-7.77072E-09
 -1       780-2.93395E+06-7.61487E+05-4.38092E+02-1.56602E+06-3.54339E-09-6.83940E-10
 -1       781-3.05446E+06-6.49031E+05-1.01240E+03-1.43841E+06-3.24653E-08-3.99632E-09
 -1       782-2.94090E+06-7.59792E+05 3.71770E+02-1.57439E+06-3.42261E-08 2.21189E-09
 -1       783-3.06010E+06-6.44880E+05 5.83703E+02-1.44071E+06-7.76345E-09-1.24296E-08
 -1       784-2.94472E+06-7.58030E+05 2.39285E+03-1.57955E+06-1.80589E-08 4.83215E-09
 -1       785-3.06343E+06-6.42410E+05 4.22598E+03-1.44218E+06-3.63543E-08 2.49202E-09
 -1       786 1.24649E+05-9.62071E+03 2.22580E+04-2.77352E+02-1.25731E-10 3.47882E-09
 -1       787 1.34302E+05 1.11384E+04 1.57467E+04-9.79752E+01 1.65170E-09 1.44444E-08
 -1       788 1.28370E+05-1.50773E+03 5.75881E+03-2.44318E+02 3.65196E-09 2.23524E-08
 -1       789 1.29965E+05 1.74489E+03 3.61542E+03-1.49136E+02 6.61684E-10-3.92487E-09
 -1       790 1.28985E+05-2.34905E+02 1.46439E+03-2.26206E+02-3.20937E-09-6.23163E-09
 -1       791 1.29247E+05 2.71650E+02 8.46902E+02-1.80239E+02-8.28145E-09 3.04922E-10
 -1       792 1.29089E+05-3.55944E+01 3.61089E+02-2.13217E+02-3.72425E-09-1.55190E-08
 -1       793 1.29123E+05 3.84224E+01 1.84854E+02-2.04692E+02-1.34116E-09-2.09250E-09
 -1       794 1.29109E+05-1.82464E+00 5.77701E+01-2.01752E+02 3.37563E-09 1.22851E-08
 -1       795 1.29090E+05-1.88702E+01-3.08324E+01-2.28625E+02-1.79120E-09 7.67681E-09
 -1       796 1.29122E+05 2.16667E+01-1.15376E+02-1.89284E+02 3.24078E-09 1.17543E-08
 -1       797 1.29019E+05-1.63306E+02-3.29251E+02-2.57244E+02 3.69211E-09 1.86325E-09
 -1       798 1.29180E+05 1.42502E+02-5.38169E+02-1.73133E+02 2.59912E-09-9.09222E-09
 -1       799 1.28610E+05-1.05081E+03-1.48359E+03-2.97009E+02 4.73453E-09-1.04233E-08
 -1       800 1.29531E+05 9.08443E+02-2.10044E+03-1.49519E+02 6.10364E-10-8.96091E-09
 -1       801-1.00036E+05-8.66716E+06-1.16993E+06 1.10075E+06 8.14907E-08-4.66462E-08
 -1       802 5.33939E+05 3.87283E+06 1.65964E+06-1.32564E+06 2.29193E-07-3.20315E-08
 -1       803-4.15727E+05-1.19009E+07-1.48681E+06 7.01286E+05 7.02603E-08 2.04654E-08
 -1       804 2.07372E+05 1.00300E+06 1.16975E+06 5.73047E+05-1.03159E-07-8.87685E-08
 -1       805 1.61913E+05-5.81251E+06-2.27394E+05-7.93448E+05-4.29063E-08-5.42295E-08
 -1       806-2.95826E+05-5.69546E+04-2.18012E+04-1.16905E+05-5.24278E-09-1.24601E-09
 -1       807-2.97587E+05-5.33496E+04-1.07107E+04-1.22139E+05 1.02873E-08 2.24440E-08
 -1       808-2.96420E+05-4.91018E+04-4.54384E+03-1.20624E+05-8.11224E-09-3.57545E-10
 -1       809-2.95337E+05-5.03383E+04-2.22183E+03-1.22400E+05-8.09337E-09-8.45375E-09
 -1       810-2.96510E+05-4.88284E+04-1.01837E+03-1.20789E+05-3.92811E-09-1.22404E-08
 -1       811-2.95164E+05-5.02171E+04-5.06432E+02-1.22367E+05-7.52198E-09 7.15659E-09
 -1       812-2.96524E+05-4.88517E+04-2.56115E+02-1.20788E+05-1.17252E-08 2.83126E-09
 -1       813-2.95140E+05-5.02189E+04-1.66472E+02-1.22349E+05-2.01253E-08-1.05065E-08
 -1       814-2.96518E+05-4.88606E+04-1.64952E+02-1.20785E+05-8.77571E-09 1.24646E-09
 -1       815-2.95144E+05-5.02209E+04-2.65857E+02-1.22343E+05 9.27730E-09-1.30221E-08
 -1       816-2.96499E+05-4.88594E+04-5.03835E+02-1.20781E+05 5.79166E-09-1.30194E-09
 -1       817-2.95230E+05-5.02688E+04-1.08146E+03-1.22332E+05-1.57711E-08 3.41697E-09
 -1       818-2.96434E+05-4.90115E+04-2.20572E+03-1.20710E+05-2.65482E-09-4.61750E-09
 -1       819-2.96438E+05-5.16019E+04-5.19016E+03-1.22048E+05 1.45747E-09-1.91787E-08
 -1       820-2.96020E+05-5.29303E+04-1.05637E+04-1.19033E+05 6.56109E-09 6.96514E-09
 -1       821-3.65405E+05 2.01348E+04-4.66640E+04 1.45986E+03 1.04986E-08 1.86192E-08
 -1       822-3.85226E+05-2.33138E+04-3.29515E+04-2.81390E+03 2.44250E-09 1.62149E-08
 -1       823-3.72993E+05 3.16284E+03-1.20728E+04 2.10600E+03-7.78036E-09 2.21080E-08
 -1       824-3.76234E+05-3.65393E+03-7.58121E+03-3.10909E+03 6.56080E-10 1.99453E-08
 -1       825-3.74395E+05 4.91678E+02-3.14344E+03 1.75509E+03 1.24746E-08 8.44386E-09
 -1       826-3.74395E+05-5.67752E+02-1.80213E+03-1.60175E+03 1.48351E-08 1.51865E-08
 -1       827-3.74822E+05 7.15685E+01-1.04241E+03 5.98608E+02 6.64107E-09 6.05951E-10
 -1       828-3.74052E+05-1.60795E+02-7.55693E+02 8.98152E+02-5.46294E-10 1.99394E-08
 -1       829-3.74734E+05 8.21889E+01-1.04672E+03-7.44845E+02 2.27561E-09 1.45914E-09
 -1       830-3.74593E+05-6.04822E+02-1.90618E+03 3.04957E+03 1.89954E-09-1.44242E-08
 -1       831-3.74289E+05 5.22221E+02-3.23930E+03-1.55284E+03-1.86672E-09 1.09781E-08
 -1       832-3.76322E+05-3.80486E+03-7.87736E+03 3.69624E+03-3.95451E-09 7.91340E-09
 -1       833-3.73012E+05 3.28371E+03-1.25522E+04-1.39152E+03-2.02554E-09 7.60065E-09
 -1       834-3.85449E+05-2.42090E+04-3.41827E+04 2.46885E+03-2.19102E-09-5.32918E-09
 -1       835-3.65158E+05 2.09044E+04-4.84820E+04-3.25418E+02 5.41765E-09 9.06584E-09
 -1       836-1.33011E+03 3.51775E+05 2.16981E+04-1.62122E+04-5.32418E-09 9.62882E-09
 -1       837 4.64369E+03 3.58562E+05 1.83969E+04-3.29913E+04-5.99607E-09-1.48148E-08
 -1       838-5.22651E+02 3.53673E+05 1.87951E+04-1.61422E+04-4.99540E-09 1.54146E-08
 -1       839 1.18667E+04 3.63943E+05 3.56048E+04-3.30409E+04-5.01723E-09 9.58653E-09
 -1       840-3.65619E+03 3.46339E+05 5.67984E+04-1.61668E+04-4.74756E-09-1.83621E-09
 -1       856-5.73523E+04 7.94335E+03-2.09326E+04-3.99314E+02 4.00303E-09-6.55655E-09
 -1       857-6.59804E+04-9.32984E+03-1.44101E+04 5.45942E+03 4.44251E-09 9.41509E-09
 -1       858-6.07677E+04 1.11379E+03-5.43167E+03-4.23106E+02-1.85753E-09 1.22207E-08
 -1       859-6.20605E+04-1.30718E+03-3.27815E+03 5.49528E+03 1.08282E-09 1.77595E-08
 -1       860-6.12780E+04 1.55778E+02-1.37450E+03-4.34980E+02-1.74464E-09-3.22518E-09
 -1       861-6.14734E+04-1.83031E+02-7.57475E+02 5.51149E+03 1.46036E-09-7.67358E-09
 -1       862-6.13577E+04 2.09870E+01-3.17543E+02-4.39302E+02 3.92422E-10-7.47858E-09
 -1       863-6.13761E+04-1.92873E+01-1.21736E+02 5.51391E+03 1.94340E-09 1.10835E-09
 -1       864-6.13757E+04-4.26037E+00 3.30750E+01-4.37406E+02-1.52141E-10-1.46168E-08
 -1       865-6.13247E+04 5.52623E+01 2.22281E+02 5.50333E+03-5.19805E-10-2.95012E-09
 -1       866-6.14070E+04-5.36540E+01 4.54962E+02-4.28721E+02-1.81609E-09 1.79592E-08
 -1       867-6.11088E+04 4.43867E+02 1.12437E+03 5.47971E+03 2.79169E-09 1.81080E-08
 -1       868-6.15869E+04-3.86063E+02 1.86942E+03-4.13785E+02-5.63091E-10-8.09416E-09
 -1       869-5.97369E+04 3.21299E+03 4.97936E+03 5.44060E+03 1.46514E-10-1.78590E-08
 -1       870-6.27716E+04-2.74787E+03 7.22589E+03-3.89540E+02-1.90528E-09 3.75985E-09
 -1       871-5.33229E+03-1.90733E+04-1.85408E+04 1.23904E+05-2.89401E-09-5.23414E-09
 -1       872-1.99222E+03-2.33574E+04-7.73668E+03 1.60656E+05-7.79619E-09-1.50358E-08
 -1       873 3.05647E+02-2.12983E+04 6.28543E+02 1.23632E+05-3.44562E-09-7.35372E-09
 -1       874 3.07767E+03-1.89465E+04 9.46078E+03 1.60688E+05-8.28277E-09 2.72689E-09
 -1       875 6.52177E+03-2.35516E+04 2.12904E+04 1.23859E+05-4.74392E-09 7.29688E-09
 -1       876 2.82354E+05 4.77295E+04 1.45733E+04 1.13477E+05 4.83396E-09 7.57336E-09
 -1       877 2.83302E+05 5.08134E+04 7.78267E+03 1.17671E+05 6.21094E-09 7.31666E-09
 -1       878 2.83716E+05 4.61156E+04 3.26056E+03 1.14672E+05-2.27328E-09 6.43013E-10
 -1       879 2.81321E+05 4.88367E+04 1.62458E+03 1.17770E+05 3.70801E-09-1.12709E-09
 -1       880 2.83814E+05 4.60988E+04 7.56676E+02 1.14720E+05-6.30735E-10-2.36440E-09
 -1       881 2.81190E+05 4.87522E+04 4.03991E+02 1.17748E+05-3.18016E-09-1.50031E-08
 -1       882 2.83823E+05 4.61114E+04 2.58308E+02 1.14722E+05-1.17348E-09 3.55836E-09
 -1       883 2.81180E+05 4.87479E+04 2.77459E+02 1.17740E+05-2.47718E-09 1.55227E-08
 -1       884 2.83817E+05 4.61087E+04 4.41163E+02 1.14722E+05 3.88809E-10 1.71798E-09
 -1       885 2.81216E+05 4.87540E+04 8.86850E+02 1.17751E+05-3.78031E-09-9.54060E-09
 -1       886 2.83782E+05 4.60828E+04 1.78735E+03 1.14719E+05-1.25155E-10-1.70476E-08
 -1       887 2.81530E+05 4.89600E+04 3.90420E+03 1.17796E+05 6.11499E-09-6.14762E-09
 -1       888 2.83536E+05 4.61262E+04 7.86707E+03 1.14594E+05 3.67893E-09 4.17549E-09
 -1       889 2.86214E+05 5.38302E+04 1.87931E+04 1.17652E+05-3.52788E-09-2.32976E-08
 -1       890 2.80326E+05 4.99390E+04 3.51989E+04 1.11598E+05 2.55568E-09-3.77258E-09
 -1       891-1.00777E+02-1.56933E+05-1.91729E+03 2.66442E+04-1.62026E-09 2.48292E-09
 -1       892-1.91307E+02-1.57431E+05-2.06164E+03 4.04334E+04 1.15574E-09 1.30274E-08
 -1       893 2.69196E+01-1.56994E+05-2.92157E+03 2.66511E+04-1.07207E-09 9.22682E-09
 -1       894-1.47666E+03-1.58536E+05-6.04838E+03 4.02847E+04 2.61753E-09-1.21127E-08
 -1       895-1.16965E+03-1.55734E+05-1.06519E+04 2.67939E+04 6.38693E-10-3.66890E-09
 -1       956-3.61685E+05-5.19252E+03-1.28703E+04 2.86643E+04 5.49062E-09-6.03450E-09
 -1       957-3.64214E+05-1.81502E+03-6.60628E+03 3.44618E+04 1.53932E-09-1.07984E-08
 -1       958-3.62839E+05-2.10706E+02-2.97687E+03 2.85054E+04-5.85351E-09-1.52681E-08
 -1       959-3.63030E+05-1.07490E+02-1.52014E+03 3.46448E+04-2.26100E-09-3.28555E-09
 -1       960-3.62950E+05-2.43823E+01-7.41273E+02 2.84892E+04-4.53110E-09 1.11522E-08
 -1       961-3.62952E+05-3.86575E+01-3.93117E+02 3.46638E+04-7.41943E-09 1.38061E-08
 -1       962-3.62976E+05-2.62835E+01-2.25147E+02 2.84865E+04-6.34964E-09-1.30340E-08
 -1       963-3.62951E+05-3.50953E+01-1.80899E+02 3.46672E+04 1.78841E-09 5.42514E-09
 -1       964-3.62981E+05-2.32071E+01-2.20117E+02 2.84858E+04-1.11331E-09 9.51627E-09
 -1       965-3.62963E+05-3.21001E+01-3.80818E+02 3.46666E+04-6.43860E-09 1.65187E-09
 -1       966-3.62966E+05-1.52380E+01-7.15519E+02 2.84871E+04 1.04501E-09 5.45765E-09
 -1       967-3.63050E+05-9.22739E+01-1.46757E+03 3.46535E+04-6.57337E-10 5.47061E-10
 -1       968-3.62868E+05-1.89201E+02-2.87284E+03 2.84988E+04 1.16779E-09-5.51847E-09
 -1       969-3.64204E+05-1.73554E+03-6.37781E+03 3.45166E+04 2.58296E-09-1.68720E-08
 -1       970-3.61761E+05-4.99503E+03-1.24240E+04 2.86178E+04-5.19321E-10-1.26074E-08
 -1       971-3.32597E+05-1.67428E+03-9.07294E+03 1.49646E+04 3.23416E-09 7.28892E-09
 -1       972-3.34785E+05-1.22682E+03-4.94103E+03 2.07359E+04 2.42699E-09-3.05772E-09
 -1       973-3.33608E+05-5.14287E+01-2.21305E+03 1.48453E+04 3.16686E-09 1.66187E-09
 -1       974-3.33743E+05-6.65104E+01-1.14706E+03 2.08698E+04 7.01334E-09 7.81120E-09
 -1       975-3.33688E+05-7.84431E+00-5.73568E+02 1.48333E+04-1.22827E-09-4.68492E-09
 -1       976-3.33683E+05-1.80541E+01-3.31253E+02 2.08850E+04-2.34832E-09-1.95413E-08
 -1       977-3.33704E+05-7.23485E+00-2.41039E+02 1.48301E+04-2.38879E-09-1.57088E-08
 -1       978-3.33688E+05-1.20802E+01-2.82912E+02 2.08895E+04-2.67835E-09-6.57383E-09
 -1       979-3.33703E+05 8.85224E-01-4.55279E+02 1.48288E+04 1.59787E-09-1.31377E-09
 -1       980-3.33722E+05-9.14313E+00-8.79543E+02 2.08905E+04 5.24621E-09-1.23963E-08
 -1       981-3.33675E+05 2.28588E+01-1.70371E+03 1.48293E+04 3.53452E-09-2.92704E-09
 -1       982-3.33956E+05-1.35016E+02-3.52166E+03 2.08840E+04 7.00447E-09 5.62095E-09
 -1       983-3.33461E+05-8.62172E+01-6.84268E+03 1.48352E+04 2.13186E-09 1.19796E-08
 -1       984-3.37247E+05-3.70871E+03-1.53239E+04 2.08004E+04-1.85264E-09 1.55005E-08
 -1       985-3.30363E+05-5.09328E+03-2.81394E+04 1.49076E+04-4.32010E-11 7.21957E-09
 -3
    1PSTEP                        31          16           1          
  100CL  116 6.47278E-01         409                     0   16           1
 -4  DISP        4    1
 -5  D1          1    2    1    0
 -5  D2          1    2    2    0
 -5  D3          1    2    3    0
 -5  ALL         1    2    0    0    1ALL
 -1         1 2.19459E-03 0.00000E+00 0.00000E+00
 -1         2 1.81781E-03 2.58503E-28-2.64698E-23
 -1         3 3.19640E-04-2.01704E-28 0.00000E+00
 -1         5 1.68561E-04-8.77491E-27-9.56428E-25
 -1         8 2.17806E-03-5.02068E-07 0.00000E+00
 -1         9 2.13654E-03-1.59552E-05 0.00000E+00
 -1        10 2.90008E-04-3.52067E-06 0.00000E+00
 -1        12 1.70078E-04 7.77903E-07-1.00166E-24
 -1        15 2.15807E-03-5.48975E-07 0.00000E+00
 -1        16 2.16940E-03-1.71923E-05 0.00000E+00
 -1        17 1.98157E-04-7.90503E-06 0.00000E+00
 -1        18 1.73090E-04 2.98376E-05 0.00000E+00
 -1        19 1.74629E-04 1.55029E-06 0.00000E+00
 -1        20 1.74772E-04-6.23519E-06 0.00000E+00
 -1        21 1.73926E-04-1.76640E-05 3.30872E-24
 -1        24 2.96848E-05-1.18276E-05 0.00000E+00
 -1        25 1.82219E-04 3.00510E-05 0.00000E+00
 -1        26 1.82913E-04 2.14760E-06 0.00000E+00
 -1        27 1.80798E-04-9.67311E-06 0.00000E+00
 -1        28 1.80461E-04-1.82697E-05 0.00000E+00
 -1        32 0.00000E+00 0.00000E+00 0.00000E+00
 -1        33 1.90172E-04 2.87411E-06 0.00000E+00
 -1        34 1.88124E-04-9.72342E-06 0.00000E+00
 -1        35 1.86249E-04-1.86012E-05 0.00000E+00
 -1        51 2.19353E-03-9.64135E-08 0.00000E+00
 -1        52 2.19155E-03-1.77472E-07 0.00000E+00
 -1        53 2.18884E-03-2.56329E-07 0.00000E+00
 -1        54 2.18556E-03-3.35164E-07 0.00000E+00
 -1        55 2.18191E-03-4.15580E-07-2.48154E-24
 -1        56 2.19047E-03 8.06326E-07 0.00000E+00
 -1        57 2.18472E-03 5.51307E-06 0.00000E+00
 -1        58 2.17778E-03 1.33471E-05-1.05879E-22
 -1        59 2.17003E-03 2.32194E-05 0.00000E+00
 -1        60 2.16203E-03 3.37344E-05 0.00000E+00
 -1        61 2.15434E-03 4.34359E-05 0.00000E+00
 -1        62 2.14747E-03 5.09998E-05 1.05879E-22
 -1        63 2.14186E-03 5.52710E-05 5.29396E-23
 -1        64 2.13774E-03 5.56252E-05-1.05879E-22
 -1        65 2.13520E-03 5.17528E-05 0.00000E+00
 -1        66 2.13409E-03 4.40294E-05 0.00000E+00
 -1        67 2.13414E-03 3.31442E-05 0.00000E+00
 -1        68 2.13490E-03 2.03009E-05 1.05879E-22
 -1        69 2.13590E-03 6.87105E-06 0.00000E+00
 -1        70 2.13657E-03-5.69190E-06 0.00000E+00
 -1        86 1.83698E-03-1.24876E-06 0.00000E+00
 -1        87 1.89365E-03-3.86594E-06 0.00000E+00
 -1        88 1.97044E-03-7.70587E-06 2.64698E-23
 -1        89 2.04913E-03-1.16886E-05 1.32349E-23
 -1        90 2.11063E-03-1.45702E-05 0.00000E+00
 -1       121 3.18807E-04-5.71491E-07 0.00000E+00
 -1       122 3.16313E-04-1.14564E-06 6.61744E-24
 -1       123 3.12167E-04-1.72507E-06-1.32349E-23
 -1       124 3.06385E-04-2.31240E-06 0.00000E+00
 -1       125 2.98989E-04-2.90988E-06 0.00000E+00
 -1       191 1.68603E-04 1.29695E-07-1.60266E-24
 -1       192 1.68730E-04 2.59381E-07-9.04729E-26
 -1       193 1.68941E-04 3.89055E-07 1.21492E-24
 -1       194 1.69235E-04 5.18706E-07-1.19553E-24
 -1       195 1.69615E-04 6.48325E-07-1.47342E-24
 -1       251 2.17704E-03 2.20872E-05 0.00000E+00
 -1       252 2.17452E-03 8.20764E-05-6.61744E-24
 -1       253 2.17151E-03 1.50777E-04 2.64698E-23
 -1       254 2.16963E-03 1.99220E-04 0.00000E+00
 -1       255 2.16871E-03 2.10709E-04 2.64698E-23
 -1       256 2.16705E-03 1.69819E-04 0.00000E+00
 -1       257 2.16312E-03 8.86796E-05 0.00000E+00
 -1       258 2.15675E-03-1.92262E-05-1.32349E-23
 -1       259 2.15063E-03-1.24507E-04 0.00000E+00
 -1       260 2.14726E-03-1.97845E-04 0.00000E+00
 -1       261 2.14595E-03-2.28612E-04 2.64698E-23
 -1       262 2.14489E-03-2.07645E-04-1.32349E-23
 -1       263 2.14272E-03-1.53140E-04 2.64698E-23
 -1       264 2.13971E-03-8.44317E-05-1.32349E-23
 -1       265 2.13745E-03-2.95134E-05 2.64698E-23
 -1       266 2.17473E-03-5.17337E-07 0.00000E+00
 -1       267 2.17140E-03-5.24247E-07 0.00000E+00
 -1       268 2.16807E-03-5.31686E-07 8.27181E-25
 -1       269 2.16473E-03-5.37557E-07 0.00000E+00
 -1       270 2.16140E-03-5.43391E-07 0.00000E+00
 -1       271 2.17599E-03 2.62589E-06-1.32349E-23
 -1       272 2.17387E-03 5.80814E-06-1.32349E-23
 -1       273 2.17178E-03 8.90838E-06 2.64698E-23
 -1       274 2.16977E-03 1.17791E-05 0.00000E+00
 -1       275 2.16790E-03 1.42783E-05 0.00000E+00
 -1       276 2.16623E-03 1.62666E-05 0.00000E+00
 -1       277 2.16479E-03 1.76099E-05-2.64698E-23
 -1       278 2.16365E-03 1.81806E-05 1.32349E-23
 -1       279 2.16284E-03 1.78594E-05 2.64698E-23
 -1       280 2.16241E-03 1.65360E-05-1.32349E-23
 -1       281 2.16239E-03 1.41104E-05-2.64698E-23
 -1       282 2.16281E-03 1.04941E-05 0.00000E+00
 -1       283 2.16370E-03 5.61112E-06 2.64698E-23
 -1       284 2.16509E-03-6.01006E-07 0.00000E+00
 -1       285 2.16698E-03-8.19238E-06-2.64698E-23
 -1       301 2.14249E-03-1.61861E-05 6.61744E-24
 -1       302 2.14728E-03-1.63828E-05-3.30872E-24
 -1       303 2.15163E-03-1.65748E-05 0.00000E+00
 -1       304 2.15628E-03-1.67671E-05 0.00000E+00
 -1       305 2.16196E-03-1.69662E-05 0.00000E+00
 -1       306 2.17059E-03-1.49893E-04 0.00000E+00
 -1       307 2.23519E-03-5.20123E-04-5.29396E-23
 -1       308 2.29167E-03-1.06778E-03 0.00000E+00
 -1       309 2.33090E-03-1.70918E-03 0.00000E+00
 -1       310 2.37376E-03-2.33197E-03 0.00000E+00
 -1       311 2.43608E-03-2.82551E-03 5.29396E-23
 -1       312 2.49575E-03-3.11570E-03 0.00000E+00
 -1       313 2.50456E-03-3.16129E-03 0.00000E+00
 -1       314 2.40239E-03-2.96832E-03 0.00000E+00
 -1       315 2.15204E-03-2.58588E-03-5.29396E-23
 -1       316 1.76596E-03-2.08172E-03 0.00000E+00
 -1       317 1.29609E-03-1.52150E-03 0.00000E+00
 -1       318 8.37423E-04-9.68508E-04 0.00000E+00
 -1       319 4.81654E-04-4.87863E-04 5.29396E-23
 -1       320 2.68876E-04-1.46110E-04 0.00000E+00
 -1       336 2.79270E-04-4.19329E-06-1.32349E-23
 -1       337 2.66614E-04-4.88804E-06-6.61744E-24
 -1       338 2.52100E-04-5.60658E-06 0.00000E+00
 -1       339 2.35798E-04-6.34936E-06 0.00000E+00
 -1       340 2.17787E-04-7.12039E-06-1.32349E-23
 -1       406 1.70626E-04 9.07424E-07-1.90639E-24
 -1       407 1.71258E-04 1.03686E-06 1.04690E-24
 -1       408 1.71975E-04 1.16615E-06 2.74004E-24
 -1       409 1.72776E-04 1.29515E-06-1.03398E-25
 -1       410 1.73661E-04 1.42359E-06-2.48154E-24
 -1       521 2.20427E-03-1.59974E-04-1.05879E-22
 -1       522 2.26799E-03-5.49252E-04 0.00000E+00
 -1       523 2.31977E-03-1.12324E-03 0.00000E+00
 -1       524 2.35172E-03-1.79218E-03 0.00000E+00
 -1       525 2.38811E-03-2.44084E-03-1.05879E-22
 -1       526 2.44747E-03-2.95592E-03 0.00000E+00
 -1       527 2.50688E-03-3.25751E-03 2.11758E-22
 -1       528 2.51432E-03-3.30322E-03 0.00000E+00
 -1       529 2.40326E-03-3.09856E-03-1.05879E-22
 -1       530 2.13403E-03-2.69885E-03-5.29396E-23
 -1       531 1.71929E-03-2.17517E-03-1.05879E-22
 -1       532 1.21604E-03-1.59626E-03-5.29396E-23
 -1       533 7.24092E-04-1.02414E-03 0.00000E+00
 -1       534 3.39931E-04-5.22736E-04 0.00000E+00
 -1       535 1.08803E-04-1.62460E-04-1.05879E-22
 -1       536 1.97487E-04 2.44775E-05 0.00000E+00
 -1       537 1.95810E-04 8.06749E-05 0.00000E+00
 -1       538 1.93226E-04 1.52032E-04 3.30872E-24
 -1       539 1.90182E-04 2.29814E-04 1.65436E-24
 -1       540 1.87440E-04 3.03317E-04-3.30872E-24
 -1       541 1.85652E-04 3.61856E-04-1.65436E-24
 -1       542 1.84818E-04 3.99098E-04 0.00000E+00
 -1       543 1.84607E-04 4.08843E-04 0.00000E+00
 -1       544 1.84306E-04 3.91834E-04-3.30872E-24
 -1       545 1.83262E-04 3.49014E-04 0.00000E+00
 -1       546 1.81336E-04 2.88006E-04 0.00000E+00
 -1       547 1.78743E-04 2.16546E-04 1.65436E-24
 -1       548 1.76177E-04 1.45494E-04 3.30872E-24
 -1       549 1.74323E-04 8.57086E-05 0.00000E+00
 -1       550 1.73353E-04 4.46942E-05-1.65436E-24
 -1       551 1.74748E-04-8.44043E-06 0.00000E+00
 -1       552 1.48235E-04-9.04636E-06 0.00000E+00
 -1       553 1.19538E-04-9.70724E-06-9.92617E-24
 -1       554 8.95912E-05-1.04041E-05 3.30872E-24
 -1       555 5.93301E-05-1.11121E-05 0.00000E+00
 -1       556 1.91112E-04 1.01363E-05 0.00000E+00
 -1       557 1.85436E-04 2.47291E-05 0.00000E+00
 -1       558 1.81000E-04 3.61448E-05 0.00000E+00
 -1       559 1.77680E-04 4.46762E-05 0.00000E+00
 -1       560 1.75355E-04 5.06167E-05 0.00000E+00
 -1       561 1.73904E-04 5.42619E-05 0.00000E+00
 -1       562 1.73210E-04 5.59084E-05 0.00000E+00
 -1       563 1.73158E-04 5.58537E-05 1.32349E-23
 -1       564 1.73631E-04 5.43961E-05 0.00000E+00
 -1       565 1.74516E-04 5.18344E-05 0.00000E+00
 -1       566 1.75702E-04 4.84680E-05 0.00000E+00
 -1       567 1.77075E-04 4.45966E-05 0.00000E+00
 -1       568 1.78524E-04 4.05198E-05-1.65436E-24
 -1       569 1.79939E-04 3.65375E-05 0.00000E+00
 -1       570 1.81207E-04 3.29495E-05 0.00000E+00
 -1       571 1.73183E-04 2.80040E-05 0.00000E+00
 -1       572 1.73278E-04 2.61082E-05 1.24077E-24
 -1       573 1.73374E-04 2.41646E-05 1.65436E-24
 -1       574 1.73470E-04 2.21886E-05-8.27181E-25
 -1       575 1.73566E-04 2.01956E-05 0.00000E+00
 -1       576 1.73663E-04 1.82009E-05 0.00000E+00
 -1       577 1.73759E-04 1.62199E-05 0.00000E+00
 -1       578 1.73855E-04 1.42681E-05 0.00000E+00
 -1       579 1.73952E-04 1.23609E-05 0.00000E+00
 -1       580 1.74048E-04 1.05137E-05 0.00000E+00
 -1       581 1.74145E-04 8.74199E-06 6.61744E-24
 -1       582 1.74241E-04 7.06107E-06 0.00000E+00
 -1       583 1.74338E-04 5.48639E-06 0.00000E+00
 -1       584 1.74435E-04 4.03319E-06 0.00000E+00
 -1       585 1.74532E-04 2.71655E-06 0.00000E+00
 -1       586 1.74568E-04 2.98752E-05 1.65436E-24
 -1       587 1.76007E-04 2.99122E-05 4.13590E-25
 -1       588 1.77450E-04 2.99489E-05 0.00000E+00
 -1       589 1.78939E-04 2.99850E-05 0.00000E+00
 -1       590 1.80515E-04 3.00198E-05 0.00000E+00
 -1       591 1.73714E-04 2.80902E-05-2.06795E-25
 -1       592 1.74342E-04 2.63216E-05 2.06795E-25
 -1       593 1.74976E-04 2.45378E-05 0.00000E+00
 -1       594 1.75613E-04 2.27434E-05 4.13590E-25
 -1       595 1.76252E-04 2.09434E-05 8.27181E-25
 -1       596 1.76891E-04 1.91426E-05 0.00000E+00
 -1       597 1.77529E-04 1.73459E-05 0.00000E+00
 -1       598 1.78164E-04 1.55579E-05 0.00000E+00
 -1       599 1.78793E-04 1.37835E-05 0.00000E+00
 -1       600 1.79416E-04 1.20274E-05 0.00000E+00
 -1       601 1.80029E-04 1.02946E-05 0.00000E+00
 -1       602 1.80633E-04 8.58974E-06-4.13590E-25
 -1       603 1.81225E-04 6.91767E-06-8.27181E-25
 -1       604 1.81802E-04 5.28328E-06 1.29247E-26
 -1       605 1.82365E-04 3.69129E-06-4.13590E-25
 -1       606 1.74643E-04 6.07149E-07 0.00000E+00
 -1       607 1.74652E-04-2.48261E-07 0.00000E+00
 -1       608 1.74662E-04-1.02109E-06 0.00000E+00
 -1       609 1.74670E-04-1.71715E-06 0.00000E+00
 -1       610 1.74679E-04-2.34230E-06 0.00000E+00
 -1       611 1.74687E-04-2.90246E-06 0.00000E+00
 -1       612 1.74696E-04-3.40355E-06 0.00000E+00
 -1       613 1.74705E-04-3.85152E-06 0.00000E+00
 -1       614 1.74713E-04-4.25230E-06 0.00000E+00
 -1       615 1.74722E-04-4.61183E-06 0.00000E+00
 -1       616 1.74730E-04-4.93604E-06 0.00000E+00
 -1       617 1.74739E-04-5.23088E-06 4.13590E-25
 -1       618 1.74748E-04-5.50228E-06 0.00000E+00
 -1       619 1.74756E-04-5.75617E-06 0.00000E+00
 -1       620 1.74765E-04-5.99850E-06 2.06795E-25
 -1       621 1.75754E-04 1.65031E-06 1.65436E-24
 -1       622 1.77021E-04 1.75059E-06-8.27181E-25
 -1       623 1.78400E-04 1.85071E-06 0.00000E+00
 -1       624 1.79862E-04 1.95054E-06-8.27181E-25
 -1       625 1.81376E-04 2.05012E-06 3.30872E-24
 -1       626 1.75091E-04 6.41926E-07 0.00000E+00
 -1       627 1.75530E-04-2.00777E-07 0.00000E+00
 -1       628 1.75947E-04-9.85681E-07 0.00000E+00
 -1       629 1.76345E-04-1.72098E-06 0.00000E+00
 -1       630 1.76728E-04-2.41489E-06 3.30872E-24
 -1       631 1.77099E-04-3.07565E-06-1.65436E-24
 -1       632 1.77461E-04-3.71149E-06 3.30872E-24
 -1       633 1.77816E-04-4.33067E-06 0.00000E+00
 -1       634 1.78168E-04-4.94142E-06 0.00000E+00
 -1       635 1.78520E-04-5.55197E-06-1.65436E-24
 -1       636 1.78875E-04-6.17058E-06 3.30872E-24
 -1       637 1.79236E-04-6.80548E-06 1.65436E-24
 -1       638 1.79606E-04-7.46491E-06-1.65436E-24
 -1       639 1.79988E-04-8.15713E-06 8.27181E-25
 -1       640 1.80385E-04-8.89041E-06-1.65436E-24
 -1       656 1.75240E-04-6.79405E-06 0.00000E+00
 -1       657 1.76123E-04-7.37557E-06-6.61744E-24
 -1       658 1.77280E-04-7.95569E-06 1.32349E-23
 -1       659 1.78566E-04-8.53546E-06-6.61744E-24
 -1       660 1.79799E-04-9.11698E-06 0.00000E+00
 -1       661 1.74948E-04-6.51477E-06 8.27181E-25
 -1       662 1.75160E-04-6.88189E-06 0.00000E+00
 -1       663 1.75403E-04-7.33171E-06 0.00000E+00
 -1       664 1.75674E-04-7.85817E-06 8.27181E-25
 -1       665 1.75973E-04-8.45588E-06 0.00000E+00
 -1       666 1.76296E-04-9.11930E-06 8.27181E-25
 -1       667 1.76642E-04-9.84322E-06 1.65436E-24
 -1       668 1.77009E-04-1.06225E-05 8.27181E-25
 -1       669 1.77394E-04-1.14520E-05-1.65436E-24
 -1       670 1.77797E-04-1.23269E-05-8.27181E-25
 -1       671 1.78214E-04-1.32425E-05-1.65436E-24
 -1       672 1.78645E-04-1.41939E-05 8.27181E-25
 -1       673 1.79087E-04-1.51766E-05 0.00000E+00
 -1       674 1.79539E-04-1.61864E-05 0.00000E+00
 -1       675 1.79999E-04-1.72182E-05 0.00000E+00
 -1       676 1.75019E-04-1.77656E-05 3.30872E-24
 -1       677 1.76111E-04-1.78670E-05 0.00000E+00
 -1       678 1.77202E-04-1.79685E-05 0.00000E+00
 -1       679 1.78291E-04-1.80696E-05 1.65436E-24
 -1       680 1.79378E-04-1.81707E-05 0.00000E+00
 -1       771 1.85791E-05 1.29028E-05 0.00000E+00
 -1       772 9.21974E-06 3.32153E-05-2.64698E-23
 -1       773 1.52307E-06 4.93249E-05-5.29396E-23
 -1       774-4.62470E-06 6.14723E-05-2.64698E-23
 -1       775-9.33518E-06 6.99073E-05-5.29396E-23
 -1       776-1.27245E-05 7.48949E-05-7.94093E-23
 -1       777-1.49085E-05 7.67088E-05-5.29396E-23
 -1       778-1.60060E-05 7.56355E-05-5.29396E-23
 -1       779-1.61347E-05 7.19688E-05 0.00000E+00
 -1       780-1.54148E-05 6.60128E-05-2.64698E-23
 -1       781-1.39655E-05 5.80778E-05 0.00000E+00
 -1       782-1.19075E-05 4.84817E-05 0.00000E+00
 -1       783-9.36094E-06 3.75469E-05-5.29396E-23
 -1       784-6.44695E-06 2.56009E-05 0.00000E+00
 -1       785-3.28597E-06 1.29745E-05 0.00000E+00
 -1       786 1.82259E-04 2.80837E-05 0.00000E+00
 -1       787 1.82301E-04 2.61656E-05 4.13590E-25
 -1       788 1.82344E-04 2.42885E-05-8.27181E-25
 -1       789 1.82387E-04 2.24442E-05-8.27181E-25
 -1       790 1.82431E-04 2.06283E-05 1.65436E-24
 -1       791 1.82474E-04 1.88358E-05 0.00000E+00
 -1       792 1.82518E-04 1.70648E-05 0.00000E+00
 -1       793 1.82562E-04 1.53131E-05 8.27181E-25
 -1       794 1.82605E-04 1.35805E-05 1.65436E-24
 -1       795 1.82649E-04 1.18668E-05 0.00000E+00
 -1       796 1.82693E-04 1.01740E-05-1.65436E-24
 -1       797 1.82737E-04 8.50383E-06 0.00000E+00
 -1       798 1.82781E-04 6.86055E-06-1.65436E-24
 -1       799 1.82825E-04 5.24843E-06-8.27181E-25
 -1       800 1.82869E-04 3.67492E-06-1.65436E-24
 -1       801 1.40389E-04 2.69367E-05 0.00000E+00
 -1       802 1.37406E-05 1.69426E-05 2.64698E-23
 -1       803-9.51311E-05 8.64352E-06 0.00000E+00
 -1       804-8.55570E-05 5.97881E-06-2.64698E-23
 -1       805-2.84158E-05 2.42075E-06 0.00000E+00
 -1       806 1.82846E-04 2.80178E-05-3.30872E-24
 -1       807 1.83459E-04 2.60108E-05-1.65436E-24
 -1       808 1.84059E-04 2.40349E-05 3.30872E-24
 -1       809 1.84646E-04 2.20940E-05 0.00000E+00
 -1       810 1.85219E-04 2.01917E-05 0.00000E+00
 -1       811 1.85775E-04 1.83319E-05 0.00000E+00
 -1       812 1.86314E-04 1.65182E-05 3.30872E-24
 -1       813 1.86835E-04 1.47544E-05 0.00000E+00
 -1       814 1.87336E-04 1.30439E-05 3.30872E-24
 -1       815 1.87815E-04 1.13906E-05-8.27181E-25
 -1       816 1.88272E-04 9.79806E-06 0.00000E+00
 -1       817 1.88705E-04 8.26992E-06-8.27181E-25
 -1       818 1.89112E-04 6.80985E-06-1.65436E-24
 -1       819 1.89493E-04 5.42147E-06 8.27181E-25
 -1       820 1.89846E-04 4.10838E-06 1.65436E-24
 -1       821 1.82788E-04 2.73939E-07 1.65436E-24
 -1       822 1.82654E-04-2.33454E-06 1.65436E-24
 -1       823 1.82520E-04-5.37837E-06 0.00000E+00
 -1       824 1.82383E-04-8.55538E-06 0.00000E+00
 -1       825 1.82247E-04-1.15284E-05 0.00000E+00
 -1       826 1.82112E-04-1.39615E-05-1.65436E-24
 -1       827 1.81979E-04-1.56621E-05 3.30872E-24
 -1       828 1.81846E-04-1.64423E-05-1.65436E-24
 -1       829 1.81714E-04-1.63587E-05 0.00000E+00
 -1       830 1.81582E-04-1.54730E-05 0.00000E+00
 -1       831 1.81449E-04-1.40601E-05-3.30872E-24
 -1       832 1.81315E-04-1.23983E-05 0.00000E+00
 -1       833 1.81183E-04-1.08319E-05 3.30872E-24
 -1       834 1.81052E-04-9.70462E-06-1.65436E-24
 -1       835 1.80921E-04-9.24390E-06 0.00000E+00
 -1       836 1.84327E-04 2.26815E-06 0.00000E+00
 -1       837 1.85618E-04 2.39168E-06-1.65436E-24
 -1       838 1.86816E-04 2.51513E-06 0.00000E+00
 -1       839 1.87953E-04 2.63788E-06 0.00000E+00
 -1       840 1.89061E-04 2.76047E-06 0.00000E+00
 -1       856 1.80780E-04-1.04776E-05 0.00000E+00
 -1       857 1.80760E-04-1.11496E-05 6.46235E-27
 -1       858 1.80739E-04-1.17097E-05 0.00000E+00
 -1       859 1.80718E-04-1.21785E-05 0.00000E+00
 -1       860 1.80697E-04-1.25768E-05-4.13590E-25
 -1       861 1.80676E-04-1.29255E-05-4.13590E-25
 -1       862 1.80655E-04-1.32454E-05-8.27181E-25
 -1       863 1.80634E-04-1.35574E-05 0.00000E+00
 -1       864 1.80613E-04-1.38824E-05 0.00000E+00
 -1       865 1.80591E-04-1.42412E-05 4.13590E-25
 -1       866 1.80570E-04-1.46548E-05 8.27181E-25
 -1       867 1.80549E-04-1.51440E-05 0.00000E+00
 -1       868 1.80528E-04-1.57294E-05 0.00000E+00
 -1       869 1.80506E-04-1.64318E-05-4.13590E-25
 -1       870 1.80484E-04-1.72717E-05 8.27181E-25
 -1       871 1.81881E-04-9.67724E-06-8.27181E-25
 -1       872 1.83106E-04-9.68462E-06 0.00000E+00
 -1       873 1.84408E-04-9.69265E-06 4.13590E-25
 -1       874 1.85723E-04-9.70140E-06 3.10193E-25
 -1       875 1.86983E-04-9.71071E-06 1.44757E-24
 -1       876 1.81223E-04-1.04636E-05 3.30872E-24
 -1       877 1.81627E-04-1.11890E-05 0.00000E+00
 -1       878 1.82009E-04-1.18571E-05 3.30872E-24
 -1       879 1.82373E-04-1.24750E-05-1.65436E-24
 -1       880 1.82722E-04-1.30500E-05 0.00000E+00
 -1       881 1.83056E-04-1.35893E-05 0.00000E+00
 -1       882 1.83380E-04-1.41001E-05 0.00000E+00
 -1       883 1.83696E-04-1.45896E-05 1.65436E-24
 -1       884 1.84007E-04-1.50650E-05 3.30872E-24
 -1       885 1.84315E-04-1.55333E-05 0.00000E+00
 -1       886 1.84624E-04-1.60018E-05 0.00000E+00
 -1       887 1.84934E-04-1.64777E-05 1.65436E-24
 -1       888 1.85251E-04-1.69682E-05 0.00000E+00
 -1       889 1.85574E-04-1.74805E-05 1.65436E-24
 -1       890 1.85908E-04-1.80218E-05-1.65436E-24
 -1       891 1.81565E-04-1.83253E-05 0.00000E+00
 -1       892 1.82647E-04-1.83812E-05 0.00000E+00
 -1       893 1.83681E-04-1.84369E-05 0.00000E+00
 -1       894 1.84642E-04-1.84924E-05 4.13590E-25
 -1       895 1.85506E-04-1.85477E-05 0.00000E+00
 -1       956 1.90046E-04 1.80662E-06-1.65436E-24
 -1       957 1.89918E-04 8.26316E-07 1.65436E-24
 -1       958 1.89790E-04-7.69708E-08 0.00000E+00
 -1       959 1.89661E-04-9.13972E-07-1.65436E-24
 -1       960 1.89533E-04-1.69546E-06 3.30872E-24
 -1       961 1.89404E-04-2.43226E-06 0.00000E+00
 -1       962 1.89276E-04-3.13516E-06 3.30872E-24
 -1       963 1.89148E-04-3.81503E-06 0.00000E+00
 -1       964 1.89019E-04-4.48269E-06 0.00000E+00
 -1       965 1.88891E-04-5.14896E-06 1.65436E-24
 -1       966 1.88763E-04-5.82470E-06 0.00000E+00
 -1       967 1.88634E-04-6.52073E-06 0.00000E+00
 -1       968 1.88506E-04-7.24787E-06-3.30872E-24
 -1       969 1.88378E-04-8.01692E-06 1.65436E-24
 -1       970 1.88250E-04-8.83866E-06 3.30872E-24
 -1       971 1.88008E-04-1.06050E-05 3.30872E-24
 -1       972 1.87890E-04-1.13935E-05 0.00000E+00
 -1       973 1.87772E-04-1.20990E-05 3.30872E-24
 -1       974 1.87655E-04-1.27324E-05 0.00000E+00
 -1       975 1.87537E-04-1.33042E-05 3.30872E-24
 -1       976 1.87419E-04-1.38251E-05-1.65436E-24
 -1       977 1.87301E-04-1.43060E-05 0.00000E+00
 -1       978 1.87183E-04-1.47575E-05 0.00000E+00
 -1       979 1.87066E-04-1.51904E-05 0.00000E+00
 -1       980 1.86948E-04-1.56154E-05-1.65436E-24
 -1       981 1.86830E-04-1.60433E-05 3.30872E-24
 -1       982 1.86713E-04-1.64848E-05 0.00000E+00
 -1       983 1.86595E-04-1.69506E-05-3.30872E-24
 -1       984 1.86478E-04-1.74516E-05 0.00000E+00
 -1       985 1.86361E-04-1.79983E-05-3.30872E-24
 -3
    1PSTEP                        32          16           1          
  100CL  116 6.47278E-01         409                     0   16           1
 -4  STRESS      6    1
 -5  SXX         1    4    1    1
 -5  SYY         1    4    2    2
 -5  SZZ         1    4    3    3
 -5  SXY         1    4    1    2
 -5  SYZ         1    4    2    3
 -5  SZX         1    4    3    1
 -1         1-4.52304E+06-1.67387E+06-9.94596E+05-1.62983E+06-1.83354E-09 1.22440E-07
 -1         2 6.45773E+04-1.50809E+06 2.65533E+05 5.12649E+05 6.77028E-09-1.32750E-07
 -1         3-1.27592E+03-1.62439E+06 4.08409E+02-2.13563E+03-3.72868E-10 1.68293E-08
 -1         5-5.10893E+01 3.71305E+05 9.58718E+00-1.02233E+00-3.78207E-10-1.73695E-08
 -1         8-6.81445E+05-2.19289E+05-6.42133E+04-1.57687E+05-6.24823E-10-6.66696E-08
 -1         9 8.46617E+06-5.56306E+05 1.43961E+06-9.53678E+05 2.86265E-08 6.12112E-08
 -1        10-2.16051E+03-1.69274E+06-3.90927E+03-1.44317E+04-1.24564E-08-2.55147E-09
 -1        12-4.72659E+01 3.71325E+05 3.13718E+02-7.08110E+00-6.10147E-10 1.56715E-08
 -1        15 1.23466E+03 6.78511E+02 3.99101E+03 1.77939E+00-3.05832E-10-5.76481E-08
 -1        16 1.82696E+07-1.48563E+05 2.56454E+06-1.49333E+06 1.84324E-08 1.28678E-07
 -1        17 6.56443E+06 4.71680E+06 1.76934E+06 4.61832E+06 1.72004E-08 3.66708E-08
 -1        18 1.16748E+05 2.65851E+04-9.15191E+02-1.13218E+05 1.52031E-08-1.01541E-08
 -1        19 1.17968E+05 1.36366E+05-9.16958E+02 2.14730E+04 1.28985E-09-5.77129E-09
 -1        20-7.63716E+04-5.53689E+05-1.24053E+05 2.57808E+04-1.36364E-09 5.01677E-09
 -1        21-4.50722E+01-2.89008E+05-9.05259E+02 2.16653E+02 1.03669E-08 4.86056E-09
 -1        24 1.07665E+07 9.19380E+06 3.03790E+06 8.55165E+06-1.50826E-07-5.13780E-08
 -1        25 8.06727E+04 1.04553E+05 5.83398E+04-5.49916E+05-1.05692E-09 1.12041E-08
 -1        26-5.28485E+04 8.86348E+04-2.37508E+04 3.20787E+02 1.16415E-10-7.36649E-09
 -1        27-7.47434E+04-2.99613E+05-1.09904E+05 6.67251E+04 4.42045E-09-2.32558E-09
 -1        28 2.18018E+04-8.29782E+04 1.64846E+04 2.06627E+04-3.85089E-09-1.08524E-08
 -1        32-1.63704E+06-3.01965E+06-1.77094E+05 2.86052E+05-3.92902E-08-5.38171E-09
 -1        33-1.72903E+05 8.93349E+04 3.12316E+04-3.77983E+04-2.47580E-09 1.17880E-08
 -1        34-2.16821E+05-2.39413E+04 6.54660E+02 7.26558E+04-4.31553E-09 3.13851E-09
 -1        35-2.24315E+04-3.29134E+04-1.30939E+03 5.02915E+04-2.58017E-09-8.97126E-09
 -1        51 5.08785E+04-2.06090E+05 1.09863E+05-6.16318E+05-1.16415E-10 2.61643E-08
 -1        52 1.82649E+04-1.88347E+05 5.91784E+04-7.18517E+05 2.18279E-11 1.04417E-07
 -1        53 4.99743E+03-2.03906E+05 3.32565E+04-6.14051E+05 4.87489E-10 7.93516E-08
 -1        54 1.11572E+04-2.00262E+05 3.22681E+04-7.20881E+05-1.67347E-10-1.39513E-07
 -1        55 2.35523E+04-2.09672E+05 4.50254E+04-6.13727E+05 5.52973E-10 1.51958E-08
 -1        56-8.51528E+06-9.82893E+05-7.38088E+05-3.35241E+06-1.84373E-08-7.06350E-08
 -1        57-9.01568E+06-1.42998E+06-4.95182E+05-3.07452E+06-3.88754E-08-6.16346E-08
 -1        58-8.60502E+06-1.26952E+06-1.73191E+05-3.36601E+06 1.77934E-08 1.45345E-07
 -1        59-8.91874E+06-1.08915E+06-1.02756E+05-3.06120E+06-2.94349E-08-1.25234E-07
 -1        60-8.61434E+06-1.31256E+06-4.00730E+04-3.37163E+06-7.34258E-09-1.18576E-07
 -1        61-8.86597E+06-1.07451E+06-2.19334E+04-3.09213E+06-1.10458E-08-4.59440E-08
 -1        62-8.65491E+06-1.28462E+06-1.23910E+04-3.33357E+06-4.83124E-09-1.94432E-08
 -1        63-8.75528E+06-1.16698E+06-6.72521E+03-3.19565E+06 1.73241E-08-2.06524E-08
 -1        64-8.71916E+06-1.22392E+06-1.26733E+04-3.26384E+06 4.41651E-09-1.11692E-07
 -1        65-8.63671E+06-1.29283E+06-1.82382E+04-3.33515E+06-1.70985E-09 6.10266E-08
 -1        66-8.77384E+06-1.15871E+06-3.69489E+04-3.19437E+06-1.57288E-08 2.75140E-08
 -1        67-8.57981E+06-1.41612E+06-9.03163E+04-3.44025E+06 1.05483E-08 2.04010E-07
 -1        68-8.78256E+06-1.09749E+06-1.52408E+05-3.16289E+06-2.80888E-08-7.41566E-08
 -1        69-8.71319E+06-1.68014E+06-4.38197E+05-3.41876E+06-1.83263E-08-2.62051E-07
 -1        70-8.64469E+06-9.00464E+05-6.50586E+05-3.21520E+06 7.63976E-09 1.50816E-07
 -1        86-6.57527E+04-3.50950E+06-1.49251E+05-2.54157E+05-6.20216E-08 5.34819E-08
 -1        87 8.34978E+04-2.30274E+06 1.14972E+05 7.33293E+05-1.09059E-07 1.17429E-07
 -1        88-6.33561E+03-2.80090E+06-2.58770E+03-4.77738E+05-9.02337E-08-1.25426E-08
 -1        89 1.01597E+05-2.37636E+06 8.28984E+04 7.69286E+05-1.36861E-07 4.47726E-08
 -1        90-7.57659E+04-3.44459E+06-1.92381E+05-2.90736E+05-3.63616E-08 1.00099E-07
 -1       121-1.75611E+03-1.62865E+06-4.00143E+02 1.06012E+03 1.37568E-09-6.53381E-09
 -1       122-1.09231E+03-1.62444E+06 7.94253E+02-4.27115E+03-5.09216E-09 4.82396E-09
 -1       123-1.78666E+03-1.62878E+06 4.54211E+02 3.16531E+03 4.18618E-09 1.74259E-09
 -1       124 5.85796E+02-1.62390E+06 3.10269E+03-8.91631E+03-9.57152E-09 1.97870E-08
 -1       125-2.65006E+03-1.62970E+06 3.84947E+03 5.66964E+03 6.29370E-09 6.77028E-09
 -1       191-5.39327E+01 3.71327E+05 9.22468E+00 5.27357E-01-4.74966E-10 4.07454E-09
 -1       192-5.19998E+01 3.71305E+05 2.04069E+01-3.39031E+00-6.25715E-10-2.45200E-09
 -1       193-5.63373E+01 3.71326E+05 3.57774E+01 2.96276E+00-8.80295E-10-1.19617E-08
 -1       194-5.49224E+01 3.71308E+05 7.74511E+01-7.73292E+00-4.93891E-10-3.67436E-09
 -1       195-6.09543E+01 3.71324E+05 1.49315E+02 4.98331E+00-1.19659E-09-5.00222E-09
 -1       251-2.72703E+06-2.95172E+04-2.80065E+05-2.73768E+05 4.79122E-09-1.74259E-08
 -1       252-1.34328E+06 3.48527E+04 7.54542E+04 7.40598E+05 9.29617E-10-1.62284E-07
 -1       253-2.23373E+06 2.37854E+04-6.18897E+04-3.42541E+05 6.78483E-10-3.97395E-08
 -1       254-6.15677E+05 5.29475E+04 2.74754E+05 4.36240E+05-7.24322E-09 2.10466E-08
 -1       255-3.40094E+06-1.04184E+05-2.88820E+05 3.12670E+04 8.93488E-09-9.58189E-08
 -1       256-4.77913E+05 8.76911E+04 3.21797E+05-3.30490E+05 2.17415E-08-1.29569E-07
 -1       257-2.36025E+06-2.20160E+04-6.13908E+04 4.18512E+05-7.31779E-09 7.48235E-08
 -1       258-1.43175E+06 9.12441E+04 1.41875E+05-6.96920E+05 8.34757E-09-4.88126E-09
 -1       259-2.51459E+06-3.71299E+04-9.27668E+04 4.03479E+05-3.12957E-08-1.60730E-07
 -1       260-3.46574E+05 9.07921E+04 3.52576E+05-2.58320E+05 2.53931E-09-2.43353E-07
 -1       261-3.36933E+06-1.00470E+05-2.71762E+05-2.59150E+04-2.91766E-09-6.72321E-08
 -1       262-7.57031E+05 5.85352E+04 2.69286E+05 5.02913E+05-1.34969E-09-2.54690E-08
 -1       263-2.13438E+06 2.49894E+04-6.80600E+02-3.51848E+05-2.56923E-08-6.27756E-08
 -1       264-1.25176E+06 1.10455E+05 1.92029E+05 7.18998E+05-1.33765E-07-1.67685E-07
 -1       265-2.91330E+06-1.11230E+05-1.65105E+05-2.42680E+05-3.97195E-08-5.16511E-08
 -1       266-2.23515E+04-1.04519E+04 5.24415E+04-3.80727E+01 5.09317E-11-1.10238E-07
 -1       267 2.59115E+04 1.21814E+04 3.70656E+04 4.39293E+01-5.82077E-11-2.82495E-07
 -1       268-3.47468E+03-1.72525E+03 1.37771E+04-5.59730E+00 9.73159E-11 6.60928E-08
 -1       269 4.10257E+03 2.06473E+03 8.95492E+03 6.52008E+00-6.01403E-11 9.03439E-08
 -1       270-6.15802E+02-3.39252E+02 4.32267E+03-8.84818E-01 9.07221E-11 1.62636E-07
 -1       271-2.00837E+06-2.41322E+05-1.49036E+05-7.68047E+05-2.99988E-08-1.04032E-07
 -1       272-2.11594E+06-2.96960E+05-9.59528E+04-7.06564E+05 1.45556E-08-2.67333E-07
 -1       273-2.03530E+06-2.79724E+05-3.51710E+04-7.62676E+05-4.85782E-08-1.53523E-09
 -1       274-2.08398E+06-2.50140E+05-1.97325E+04-7.14923E+05 2.19970E-08 8.87726E-08
 -1       275-2.03934E+06-2.83538E+05-8.20526E+03-7.61285E+05-1.82563E-08 6.54809E-08
 -1       276-2.07767E+06-2.46796E+05-4.28798E+03-7.17717E+05-1.11781E-08 3.45756E-07
 -1       277-2.04104E+06-2.82886E+05-2.17885E+03-7.59716E+05 1.08303E-08 7.77773E-08
 -1       278-2.07354E+06-2.49417E+05-1.31920E+03-7.20944E+05-1.43991E-08-1.28275E-07
 -1       279-2.04282E+06-2.81279E+05-1.55240E+03-7.57616E+05 8.40555E-09-1.66128E-08
 -1       280-2.06908E+06-2.53774E+05-2.22861E+03-7.25096E+05-4.09600E-08 1.14097E-07
 -1       281-2.04480E+06-2.78994E+05-4.49586E+03-7.55062E+05-4.04543E-09 9.20363E-09
 -1       282-2.06566E+06-2.61386E+05-9.89108E+03-7.29833E+05 2.60679E-08-1.28357E-07
 -1       283-2.04562E+06-2.74328E+05-1.82233E+04-7.52340E+05-1.87501E-08-1.81032E-07
 -1       284-2.07536E+06-2.91086E+05-4.84966E+04-7.32156E+05 1.87993E-08-1.49391E-07
 -1       285-2.03497E+06-2.52039E+05-7.61137E+04-7.51541E+05-1.65601E-08 1.05498E-07
 -1       301 1.23495E+04-5.12549E+05 1.76337E+05-8.87546E+05 2.78669E-09-1.12552E-07
 -1       302 1.35203E+04-4.67276E+05 1.06949E+05-1.29724E+06-6.33008E-10-6.90452E-08
 -1       303-7.54510E+03-4.98668E+05 6.42988E+04-8.85299E+05 2.69210E-10 6.93526E-08
 -1       304-1.37212E+02-4.71686E+05 7.14067E+04-1.29648E+06-4.36557E-11 5.30417E-09
 -1       305-4.48915E+03-4.95465E+05 9.68190E+04-8.88045E+05-1.43700E-10 1.57102E-07
 -1       306-2.62934E+07-5.32760E+06-7.25038E+06-1.20120E+06-7.88132E-08 3.47500E-08
 -1       307 2.15799E+07 1.79718E+06 4.67229E+06-1.24102E+07-7.57049E-07 1.14087E-08
 -1       308-7.83304E+06-6.92320E+05-5.61561E+05 4.41676E+06-1.46276E-07 1.32197E-07
 -1       309-3.60616E+06 6.03038E+06 1.72950E+06-1.82446E+07 5.07425E-07 1.85817E-07
 -1       310-1.08448E+07-1.15005E+06-1.34901E+06 4.29161E+06 1.88360E-07-9.05711E-08
 -1       311 2.85443E+07-2.41359E+05 5.68948E+06-8.70375E+06 2.17755E-07-3.11702E-08
 -1       312-2.71742E+07-5.35640E+06-6.82644E+06-3.72479E+06-1.39698E-08 1.95432E-07
 -1       313 3.81891E+07 1.00895E+07 8.77981E+06 1.77055E+07-2.15397E-07 1.76296E-07
 -1       314-1.66654E+07-1.38258E+07-6.27242E+06-1.08909E+07 4.30329E-07-2.60188E-08
 -1       315-7.18471E+05 2.33849E+07 4.82285E+06 1.04800E+07-8.69186E-08-4.63333E-08
 -1       316 1.29854E+05-8.96264E+06-5.22502E+05-3.61244E+06-1.07150E-06-3.47849E-07
 -1       317-1.69341E+07 1.92553E+07 1.69806E+06-5.54814E+06 7.38153E-07-7.95924E-07
 -1       318-1.30201E+06-1.02824E+07-1.40323E+06-4.45492E+06-7.63801E-07 5.82368E-08
 -1       319 4.41390E+06 2.45557E+07 5.45327E+06 1.31831E+07-6.74991E-08 1.87429E-07
 -1       320-1.95579E+07-1.41531E+07-7.97623E+06-1.08029E+07 1.87196E-07-3.01807E-08
 -1       336-3.51456E+02-1.76307E+06-1.37820E+04 8.62904E+03-2.41562E-08-2.62662E-09
 -1       337-5.29125E+03-1.76343E+06-1.79236E+04-2.08718E+04-4.50582E-08-1.30040E-08
 -1       338 5.37440E+02-1.76262E+06-2.77612E+04 1.20443E+04-3.16431E-08-1.04410E-09
 -1       339-2.94752E+04-1.78004E+06-6.28794E+04-2.75366E+04-5.88434E-08-1.51540E-08
 -1       340 1.96659E+04-1.74840E+06-9.88231E+04 1.51789E+04-3.74566E-08 1.54323E-08
 -1       406-2.54803E+01 3.71310E+05 6.17063E+02 2.41650E+00-1.77751E-09-8.63110E-09
 -1       407 1.68942E+02 3.71434E+05 1.31636E+03 1.98053E+01-4.20258E-10-5.36602E-11
 -1       408 6.28832E+02 3.71214E+05 2.62609E+03-2.26269E+01-1.95905E-09 1.31531E-08
 -1       409 2.79903E+03 3.72272E+05 5.91671E+03 2.38178E+02-4.01997E-10 1.12577E-08
 -1       410 8.12662E+03 3.70461E+05 1.20767E+04-2.28895E+02-2.41198E-09 1.64437E-09
 -1       521-2.79032E+07-6.54242E+06-8.48517E+06-9.11445E+05-8.16071E-08 6.78119E-08
 -1       522 2.23696E+07 2.39640E+06 4.75503E+06-1.54308E+07-5.56349E-07-7.75326E-08
 -1       523-8.61957E+06-9.67379E+05-5.83398E+05 4.86291E+06 1.69326E-07-3.85146E-07
 -1       524-6.66618E+06 8.41636E+06 1.87947E+06-2.11625E+07 9.78107E-07-5.16076E-07
 -1       525-1.18313E+07-1.61503E+06-1.48703E+06 4.72672E+06 5.68922E-07-3.02723E-07
 -1       526 3.09892E+07-2.64518E+05 6.00008E+06-1.11440E+07-2.32394E-07 1.57888E-07
 -1       527-2.89817E+07-6.74502E+06-7.86820E+06-3.63435E+06-6.74045E-08 7.87550E-08
 -1       528 4.18462E+07 1.10598E+07 9.18594E+06 2.00777E+07 4.12692E-08 7.18574E-08
 -1       529-1.77278E+07-1.57342E+07-7.20284E+06-1.11303E+07 4.65312E-07-3.49537E-07
 -1       530-2.89915E+06 2.73504E+07 5.11192E+06 1.05607E+07-1.57437E-07 3.43949E-07
 -1       531 3.86706E+04-1.01104E+07-5.29263E+05-3.79241E+06-7.42613E-07 2.65572E-07
 -1       532-1.99387E+07 2.15563E+07 1.87090E+06-8.81824E+06 4.24538E-07-5.55188E-07
 -1       533-1.39186E+06-1.14442E+07-1.48337E+06-4.55435E+06-1.19267E-07-9.14384E-07
 -1       534 2.49316E+06 2.86290E+07 5.69935E+06 1.37084E+07-2.23517E-08 6.44010E-07
 -1       535-2.07317E+07-1.61818E+07-9.12484E+06-1.10279E+07 9.02219E-08 4.14962E-07
 -1       536-6.66131E+05-4.54365E+04-3.08559E+04-4.91853E+04-2.07092E-09 5.28507E-08
 -1       537-9.38949E+04 4.43210E+04 8.09431E+04 1.13284E+05-9.85281E-08 9.79585E-08
 -1       538-3.92676E+05 2.22125E+03 5.97996E+03-6.68413E+04 7.94103E-10 9.97106E-08
 -1       539-2.83328E+05 3.08931E+03 2.33293E+04 1.27827E+05 1.55392E-07 9.71842E-08
 -1       540-4.81394E+05-3.10777E+02-1.76910E+04-6.41610E+04-9.62268E-09 8.69921E-08
 -1       541 7.90698E+04 1.48098E+04 9.30612E+04 8.88775E+04-1.72058E-08 6.18636E-08
 -1       542-7.45322E+05-1.76211E+04-7.33466E+04-2.71852E+04 3.32006E-08 2.35031E-08
 -1       543 3.04652E+05 2.38735E+04 1.37729E+05-1.24549E+04 1.44228E-08-1.80567E-08
 -1       544-7.00939E+05-1.43680E+04-6.51624E+04 3.66274E+04-2.34995E-08-5.05353E-08
 -1       545-2.48243E+04 8.05991E+03 6.90626E+04-1.03985E+05-4.47869E-09-7.94098E-08
 -1       546-4.24672E+05 5.49612E+03-1.07975E+04 6.40682E+04 5.28053E-09-8.37950E-08
 -1       547-2.99729E+05-4.68471E+03 8.17736E+03-1.30560E+05-1.38288E-07-1.02489E-07
 -1       548-4.33402E+05 4.52146E+03-2.22491E+04 6.37616E+04-1.11123E-07-9.36147E-08
 -1       549-6.71881E+03 1.12775E+04 4.91336E+04-1.01599E+05-5.70935E-08-5.86331E-08
 -1       550-7.09834E+05-1.70090E+04-1.17995E+05 3.45255E+04 7.57518E-09-3.82115E-08
 -1       551 3.78316E+04-7.70755E+05-7.41608E+03-1.21551E+06-9.70322E-08-5.38421E-09
 -1       552 8.58326E+04-8.10368E+05 1.47462E+04-1.73340E+06-6.81612E-08 4.43324E-08
 -1       553 6.54794E+04-8.08456E+05 3.53108E+04-1.20932E+06-1.11118E-07 2.75759E-08
 -1       554 1.22726E+05-8.23185E+05 8.49610E+04-1.73536E+06-7.23230E-08 2.09766E-08
 -1       555 9.51447E+04-8.31325E+05 1.53986E+05-1.20933E+06-1.14247E-07-1.13941E-08
 -1       556 2.05957E+05-3.56806E+05 3.76673E+04-3.88280E+05-1.83645E-08 4.97676E-09
 -1       557 3.30628E+05-4.56373E+05 2.19746E+04-5.00524E+05 1.62399E-08-5.02041E-10
 -1       558 1.90657E+05-3.52931E+05 5.38335E+03-3.90135E+05-1.97906E-08-1.27548E-08
 -1       559 3.07031E+05-4.58528E+05 3.78540E+03-5.18645E+05 1.80444E-08 2.89292E-08
 -1       560 1.77295E+05-3.44527E+05-5.22646E+02-3.99688E+05-7.85803E-10 1.39444E-08
 -1       561 2.90076E+05-4.51859E+05 4.98244E+02-5.30128E+05 8.44011E-10-5.36602E-10
 -1       562 1.66733E+05-3.37940E+05-9.46574E+02-4.07320E+05-1.08848E-08-1.67638E-08
 -1       563 2.77548E+05-4.46397E+05 6.89779E+01-5.38291E+05-1.52504E-08 2.48838E-09
 -1       564 1.59251E+05-3.33271E+05-4.51989E+02-4.12617E+05-4.65661E-10 1.71021E-08
 -1       565 2.69337E+05-4.42822E+05 5.24455E+01-5.43531E+05 4.00178E-09 4.11683E-09
 -1       566 1.54959E+05-3.30552E+05-2.00736E+02-4.15620E+05-7.27596E-10-2.45745E-09
 -1       567 2.65479E+05-4.41142E+05-3.11711E+02-5.45859E+05 2.21044E-08 2.90238E-08
 -1       568 1.53937E+05-3.29930E+05-9.95765E+02-4.16431E+05-4.51064E-09 8.23638E-09
 -1       569 2.64664E+05-4.41099E+05-2.51646E+03-5.44327E+05-9.88075E-09 1.76151E-08
 -1       570 1.57218E+05-3.32988E+05-5.52754E+03-4.15495E+05 3.95812E-09 5.28780E-09
 -1       571 2.79557E+05 1.01239E+04 1.45317E+04-8.88811E+04 6.80029E-09-1.55760E-08
 -1       572 2.81672E+05 3.76926E+03 7.12137E+03-9.75101E+04 1.75446E-08-7.89169E-09
 -1       573 2.80398E+05 1.14332E+03 3.16419E+03-8.87120E+04 1.00990E-08 1.16524E-08
 -1       574 2.80614E+05 6.33223E+02 1.58662E+03-9.77218E+04 8.37122E-09-1.87665E-08
 -1       575 2.80490E+05 3.69461E+02 7.48753E+02-8.86890E+04 6.15927E-10 4.23825E-10
 -1       576 2.80481E+05 3.74292E+02 3.83154E+02-9.77500E+04-7.25367E-09 1.38771E-08
 -1       577 2.80526E+05 3.15203E+02 1.91162E+02-8.86859E+04-1.00954E-10 8.82847E-09
 -1       578 2.80504E+05 3.40857E+02 1.10035E+02-9.77539E+04 5.86169E-10 9.40418E-10
 -1       579 2.80588E+05 2.84399E+02 7.53482E+01-8.86855E+04 5.80985E-09-1.11213E-08
 -1       580 2.80591E+05 2.97538E+02 8.66171E+01-9.77493E+04-7.36418E-09-1.99861E-08
 -1       581 2.80686E+05 2.34861E+02 1.30844E+02-8.86911E+04 2.57533E-08 4.12365E-09
 -1       582 2.80745E+05 2.69199E+02 2.65060E+02-9.76917E+04 4.13747E-08-5.39876E-09
 -1       583 2.80805E+05 2.82939E+02 5.09657E+02-8.87436E+04 1.79716E-08-2.03590E-09
 -1       584 2.81084E+05 6.97073E+02 1.15214E+03-9.72490E+04 2.05182E-09-1.76376E-08
 -1       585 2.80816E+05 1.67425E+03 2.33448E+03-8.91333E+04-1.92813E-10-1.50067E-08
 -1       586-3.31282E+03 1.09404E+05-3.02207E+03-2.42564E+05-3.79987E-09-2.75704E-08
 -1       587-1.20741E+03 1.09123E+05 6.20393E+02-2.66965E+05-7.56518E-09-2.80033E-08
 -1       588 4.81659E+02 1.08973E+05 4.49343E+03-2.42434E+05-5.02223E-09-1.12150E-08
 -1       589 4.97667E+03 1.11320E+05 1.17622E+04-2.66730E+05-3.62525E-09-3.17741E-08
 -1       590 1.59736E+04 1.07697E+05 2.47160E+04-2.42850E+05-7.01948E-09-9.27139E-09
 -1       591-6.99539E+04-1.52800E+04-2.13731E+04-3.02639E+04-2.77464E-09-7.46877E-09
 -1       592-7.37061E+04-1.87822E+04-1.15773E+04-3.38479E+04-6.62261E-10 1.22589E-09
 -1       593-7.20925E+04-1.37281E+04-4.81912E+03-3.18300E+04-1.49078E-09 1.29564E-08
 -1       594-7.07533E+04-1.56479E+04-2.40343E+03-3.39620E+04 3.43675E-10 3.31233E-08
 -1       595-7.22556E+04-1.37229E+04-1.10350E+03-3.19012E+04-6.41973E-09 1.90723E-08
 -1       596-7.05513E+04-1.55045E+04-5.60904E+02-3.39381E+04 5.32418E-09 8.31835E-09
 -1       597-7.22760E+04-1.37374E+04-3.05295E+02-3.19039E+04-1.62817E-09-2.23082E-09
 -1       598-7.05314E+04-1.54989E+04-2.45177E+02-3.39314E+04-6.57246E-09-8.67368E-09
 -1       599-7.22748E+04-1.37379E+04-3.12880E+02-3.19036E+04 5.00938E-09-8.69738E-09
 -1       600-7.05514E+04-1.55052E+04-5.80985E+02-3.39362E+04 3.13878E-09-3.97677E-10
 -1       601-7.22512E+04-1.37240E+04-1.14603E+03-3.19002E+04 1.51476E-09 1.02068E-09
 -1       602-7.07611E+04-1.56531E+04-2.49758E+03-3.39573E+04-8.75343E-09 2.00362E-09
 -1       603-7.20791E+04-1.37322E+04-5.00865E+03-3.18269E+04-6.84395E-11 1.81626E-09
 -1       604-7.38466E+04-1.88920E+04-1.20319E+04-3.38152E+04 6.72003E-10 7.16568E-09
 -1       605-6.98374E+04-1.53621E+04-2.22125E+04-3.02176E+04 3.30814E-09 3.89282E-08
 -1       606 2.69274E+04-1.37303E+04-2.46218E+04 2.45132E+04 5.96356E-09 2.36673E-09
 -1       607 2.27196E+04-4.48002E+03-1.22614E+04 2.75422E+04-2.40107E-10 6.75755E-09
 -1       608 2.51162E+04-8.04218E+02-5.48925E+03 2.43365E+04-5.36420E-09 1.15635E-08
 -1       609 2.46550E+04-2.70314E+02-2.77295E+03 2.77603E+04-2.63026E-09 1.78021E-08
 -1       610 2.49095E+04-3.30380E+01-1.32318E+03 2.43157E+04 3.38150E-09 2.34238E-08
 -1       611 2.48355E+04-3.14146E+01-6.67132E+02 2.77839E+04 7.34872E-09 9.92713E-10
 -1       612 2.48626E+04-1.88152E+01-3.17330E+02 2.43136E+04 3.21779E-09-2.66368E-09
 -1       613 2.48448E+04-2.64899E+01-1.42332E+02 2.77867E+04 5.64933E-09-1.26688E-08
 -1       614 2.48400E+04-2.40849E+01-3.37910E+01 2.43129E+04-7.26686E-10-6.69388E-10
 -1       615 2.48384E+04-2.42798E+01 5.87272E+01 2.77871E+04-3.21052E-09 1.18484E-09
 -1       616 2.48223E+04-2.04460E+01 1.76944E+02 2.43132E+04 7.83984E-10-1.34537E-09
 -1       617 2.48586E+04 1.40667E+01 4.04078E+02 2.77867E+04-1.88811E-09 3.70369E-09
 -1       618 2.47864E+04 9.65328E+01 8.14595E+02 2.43134E+04-6.90306E-10-3.40106E-09
 -1       619 2.51455E+04 6.44314E+02 1.82933E+03 2.77860E+04-3.71369E-09 2.32649E-09
 -1       620 2.45155E+04 2.02851E+03 3.67691E+03 2.43144E+04-2.25214E-10 2.80579E-09
 -1       621 4.60981E+02 2.89399E+05 3.63695E+03 3.65110E+04 7.90806E-10 8.16726E-09
 -1       622 6.02292E+02 2.90250E+05 3.24901E+03 5.30217E+04 1.07502E-09-7.44149E-09
 -1       623 1.11887E+02 2.89587E+05 3.93373E+03 3.63448E+04 1.01522E-09 6.23913E-10
 -1       624 1.98766E+03 2.91432E+05 7.64906E+03 5.31861E+04 8.19909E-10 3.00170E-08
 -1       625 1.95335E+03 2.88073E+05 1.33780E+04 3.63418E+04 1.13778E-09-2.28601E-09
 -1       626 2.51257E+05 6.01613E+04 5.01845E+03 1.23335E+05 5.10408E-09-4.33283E-09
 -1       627 2.48923E+05 6.15927E+04 2.41835E+03 1.27591E+05 6.52108E-09-2.65546E-08
 -1       628 2.51386E+05 5.78599E+04 1.02264E+03 1.24181E+05-3.03226E-09-1.29421E-09
 -1       629 2.48293E+05 6.09331E+04 5.00554E+02 1.27833E+05-1.01827E-08 8.10822E-09
 -1       630 2.51400E+05 5.77491E+04 2.32133E+02 1.24216E+05 1.17780E-09 1.15163E-08
 -1       631 2.48225E+05 6.09088E+04 1.24856E+02 1.27834E+05 4.75643E-09 1.19741E-08
 -1       632 2.51395E+05 5.77536E+04 8.20551E+01 1.24211E+05 3.93629E-09-2.12533E-08
 -1       633 2.48216E+05 6.09112E+04 9.12343E+01 1.27830E+05 4.96823E-09 1.76919E-09
 -1       634 2.51390E+05 5.77513E+04 1.47285E+02 1.24210E+05-4.76723E-09 1.30017E-08
 -1       635 2.48229E+05 6.09099E+04 2.97941E+02 1.27835E+05 1.47890E-09 3.27859E-08
 -1       636 2.51380E+05 5.77462E+04 6.01645E+02 1.24209E+05 1.30224E-08 1.37697E-09
 -1       637 2.48358E+05 6.10036E+04 1.32276E+03 1.27834E+05 2.23492E-08-9.60245E-09
 -1       638 2.51333E+05 5.80386E+04 2.71782E+03 1.24077E+05 1.34237E-08-5.57111E-09
 -1       639 2.49786E+05 6.29891E+04 6.43036E+03 1.27413E+05 1.26506E-08-3.27364E-08
 -1       640 2.51136E+05 6.39664E+04 1.33441E+04 1.21577E+05 8.93306E-09-8.96466E-09
 -1       656 6.44280E+04-1.64717E+06-1.55526E+05-2.15305E+03-1.74623E-10-1.48716E-08
 -1       657-8.52240E+04-1.71744E+06-1.28825E+05 5.64737E+03-2.10093E-10-4.48072E-09
 -1       658 2.05295E+04-1.66713E+06-7.93171E+04-4.13378E+03 6.82121E-12-4.07078E-09
 -1       659-9.20939E+04-1.72070E+06-1.37852E+05 7.25772E+03-1.83718E-09 3.85460E-09
 -1       660 7.12825E+04-1.64392E+06-1.71046E+05-3.76338E+03-1.88447E-09-1.31207E-08
 -1       661 1.60564E+05 1.68956E+04 1.67254E+04 6.27707E+04-1.19871E-09 1.67502E-08
 -1       662 1.69937E+05 2.93626E+04 1.12715E+04 5.91124E+04-3.44261E-09 3.92231E-09
 -1       663 1.63849E+05 2.22616E+04 3.94219E+03 6.18177E+04 2.10912E-09-2.21689E-10
 -1       664 1.66129E+05 2.30869E+04 2.35808E+03 6.02761E+04-1.30871E-09 9.05783E-09
 -1       665 1.64346E+05 2.29950E+04 9.30248E+02 6.16729E+04-2.55227E-11 4.48264E-09
 -1       666 1.65541E+05 2.22479E+04 5.44282E+02 6.04648E+04 6.22100E-09 8.76998E-09
 -1       667 1.64433E+05 2.30787E+04 2.89020E+02 6.16369E+04-9.18845E-10-9.54573E-09
 -1       668 1.65445E+05 2.21872E+04 2.94310E+02 6.05171E+04-5.02206E-09-8.37042E-09
 -1       669 1.64441E+05 2.30539E+04 3.98305E+02 6.16209E+04-2.57126E-09 8.04511E-09
 -1       670 1.65542E+05 2.24032E+04 8.67177E+02 6.05199E+04-7.32473E-09-1.40818E-08
 -1       671 1.64336E+05 2.28672E+04 1.53969E+03 6.16321E+04 1.32174E-09-1.54295E-08
 -1       672 1.66439E+05 2.39011E+04 3.93922E+03 6.03027E+04 6.88382E-09-9.66128E-09
 -1       673 1.63548E+05 2.15938E+04 6.60149E+03 6.18236E+04-1.11038E-09 6.97673E-09
 -1       674 1.72723E+05 3.45068E+04 1.88789E+04 5.84565E+04 4.41298E-09 1.55071E-08
 -1       675 1.58093E+05 1.25585E+04 2.80228E+04 6.33668E+04-4.46335E-09 1.79680E-08
 -1       676 2.35777E+01-2.88933E+05-1.09108E+03-1.08330E+02 2.39686E-09 1.07087E-08
 -1       677-2.89026E+02-2.89197E+05-1.99685E+03 2.16492E+02 8.22774E-09 9.52696E-11
 -1       678 1.93528E+02-2.88745E+05-3.52993E+03-1.08090E+02 1.18257E-09-8.68543E-09
 -1       679-3.53037E+03-2.91328E+05-8.38562E+03 2.15579E+02 7.77345E-09-5.42592E-10
 -1       680 2.10753E+03-2.86803E+05-1.35148E+04-1.06218E+02 1.48066E-09 8.49337E-09
 -1       771-3.00329E+06-7.11880E+05-1.46879E+05-1.42199E+06-3.28728E-08-2.57278E-08
 -1       772-2.93207E+06-7.94824E+05-7.58460E+04-1.51771E+06-2.80561E-08 9.04402E-09
 -1       773-3.03127E+06-6.89990E+05-3.83960E+04-1.43430E+06-1.63272E-08 6.72298E-09
 -1       774-2.92285E+06-7.78685E+05-1.71858E+04-1.54037E+06 3.78350E-08-4.88217E-09
 -1       775-3.04558E+06-6.79913E+05-1.26746E+04-1.44015E+06-2.56114E-09 2.16096E-09
 -1       776-2.93316E+06-7.76269E+05-4.76864E+03-1.55730E+06-1.44209E-08 4.91855E-09
 -1       777-3.05792E+06-6.70980E+05-5.53450E+03-1.44532E+06 7.65431E-09 8.64384E-09
 -1       778-2.94396E+06-7.74050E+05-1.57421E+03-1.57182E+06 1.25874E-08 7.37964E-09
 -1       779-3.06849E+06-6.63205E+05-2.74512E+03-1.44973E+06-7.21775E-09-7.29051E-09
 -1       780-2.95347E+06-7.71928E+05-4.56874E+02-1.58364E+06-6.47560E-09 4.64024E-09
 -1       781-3.07686E+06-6.56953E+05-1.06010E+03-1.45319E+06-2.50002E-08-4.34920E-09
 -1       782-2.96078E+06-7.70118E+05 3.86591E+02-1.59235E+06-3.40515E-08-1.22163E-08
 -1       783-3.08275E+06-6.52621E+05 6.05171E+02-1.45561E+06-6.41012E-09-1.44164E-08
 -1       784-2.96480E+06-7.68255E+05 2.49060E+03-1.59773E+06-1.57743E-08 1.03682E-09
 -1       785-3.08623E+06-6.50043E+05 4.39772E+03-1.45716E+06-3.47572E-08 6.21367E-09
 -1       786 1.24828E+05-9.66910E+03 2.23701E+04-2.87407E+02-3.04290E-10 1.35751E-08
 -1       787 1.34529E+05 1.11944E+04 1.58260E+04-1.06417E+02 3.93015E-10 8.41283E-09
 -1       788 1.28568E+05-1.51529E+03 5.78777E+03-2.53885E+02 3.44030E-09 2.30859E-08
 -1       789 1.30171E+05 1.75369E+03 3.63356E+03-1.58209E+02 1.28780E-09 5.30900E-09
 -1       790 1.29186E+05-2.36052E+02 1.47164E+03-2.35631E+02-3.29382E-09 8.39003E-09
 -1       791 1.29449E+05 2.73009E+02 8.50908E+02-1.89530E+02-3.61153E-09-5.00818E-09
 -1       792 1.29290E+05-3.57153E+01 3.62424E+02-2.22566E+02-2.72424E-09-1.21433E-08
 -1       793 1.29325E+05 3.84252E+01 1.84723E+02-2.14130E+02 1.31240E-09-2.66962E-08
 -1       794 1.29310E+05-1.61645E+00 5.61362E+01-2.11031E+02 5.32283E-09 3.81059E-09
 -1       795 1.29291E+05-2.03489E+01-3.54177E+01-2.38220E+02-4.88443E-09 1.75819E-08
 -1       796 1.29324E+05 2.30263E+01-1.23588E+02-1.98475E+02 2.83330E-09 7.30770E-09
 -1       797 1.29216E+05-1.73171E+02-3.49725E+02-2.67062E+02 3.11788E-09 5.67934E-09
 -1       798 1.29386E+05 1.51090E+02-5.70847E+02-1.82188E+02 2.06440E-09 1.23534E-08
 -1       799 1.28782E+05-1.11401E+03-1.57299E+03-3.07223E+02 5.79033E-09 1.61371E-08
 -1       800 1.29758E+05 9.63097E+02-2.22682E+03-1.58315E+02-4.20164E-10 1.38515E-08
 -1       801-1.14131E+05-8.94121E+06-1.21582E+06 1.16359E+06 8.61764E-08-4.61150E-08
 -1       802 5.75260E+05 4.29887E+06 1.76661E+06-1.40938E+06 2.37837E-07-3.59805E-08
 -1       803-4.40700E+05-1.23854E+07-1.56928E+06 7.40468E+05 7.24285E-08 2.45127E-08
 -1       804 2.23775E+05 1.28735E+06 1.24509E+06 5.94492E+05-1.07146E-07-8.53100E-08
 -1       805 1.67755E+05-5.94481E+06-2.39068E+05-8.35522E+05-4.44852E-08-5.40140E-08
 -1       806-2.98785E+05-5.76016E+04-2.20419E+04-1.18165E+05-7.11134E-09-1.15688E-08
 -1       807-3.00554E+05-5.39692E+04-1.08289E+04-1.23472E+05 7.84780E-09-2.19657E-09
 -1       808-2.99387E+05-4.96611E+04-4.59400E+03-1.21924E+05 6.68933E-10-4.87148E-10
 -1       809-2.98278E+05-5.09252E+04-2.24636E+03-1.23736E+05 1.09139E-09-6.20321E-09
 -1       810-2.99478E+05-4.93846E+04-1.02961E+03-1.22090E+05 1.83491E-09 1.08466E-08
 -1       811-2.98103E+05-5.08027E+04-5.12027E+02-1.23702E+05-6.26324E-09 1.63809E-08
 -1       812-2.99492E+05-4.94082E+04-2.58961E+02-1.22090E+05-9.16407E-09 1.86737E-08
 -1       813-2.98079E+05-5.08047E+04-1.68340E+02-1.23685E+05-6.50107E-09 1.93295E-08
 -1       814-2.99486E+05-4.94173E+04-1.66845E+02-1.22086E+05-1.30331E-09 4.48017E-09
 -1       815-2.98082E+05-5.08067E+04-2.68921E+02-1.23678E+05 1.59844E-09-2.49429E-08
 -1       816-2.99466E+05-4.94162E+04-5.09675E+02-1.22083E+05 6.58656E-09 2.07647E-08
 -1       817-2.98169E+05-5.08552E+04-1.09397E+03-1.23667E+05-9.91395E-09 1.82974E-08
 -1       818-2.99401E+05-4.95702E+04-2.23125E+03-1.22010E+05-4.83396E-09 8.22183E-10
 -1       819-2.99391E+05-5.22035E+04-5.25017E+03-1.23379E+05 1.33514E-09-1.89157E-08
 -1       820-2.98982E+05-5.35347E+04-1.06859E+04-1.20315E+05 1.06866E-09 1.31993E-08
 -1       821-3.68888E+05 2.03239E+04-4.71319E+04 1.58661E+03 1.10060E-08-5.85533E-09
 -1       822-3.88782E+05-2.35344E+04-3.32597E+04-3.11484E+03 3.54137E-09 2.23376E-08
 -1       823-3.76491E+05 3.19421E+03-1.21908E+04 2.35158E+03-9.35181E-09 3.45608E-10
 -1       824-3.79746E+05-3.68904E+03-7.65180E+03-3.51803E+03 1.44426E-09-2.55502E-08
 -1       825-3.77924E+05 4.96360E+02-3.17765E+03 1.98986E+03 1.37266E-08-1.67150E-08
 -1       826-3.77812E+05-5.69901E+02-1.80087E+03-1.86809E+03 1.57729E-08-2.12766E-08
 -1       827-3.78412E+05 6.82714E+01-1.06798E+03 7.01579E+02 7.03913E-09-7.29042E-09
 -1       828-3.77419E+05-1.57415E+02-7.34702E+02 9.40021E+02 8.77321E-10 1.83709E-09
 -1       829-3.78312E+05 8.03205E+01-1.06962E+03-8.18287E+02 2.54772E-10-7.77908E-09
 -1       830-3.78037E+05-6.09923E+02-1.91097E+03 3.38683E+03 2.01606E-10 7.23347E-09
 -1       831-3.77805E+05 5.29034E+02-3.27116E+03-1.74526E+03-3.74456E-09 9.62245E-10
 -1       832-3.79833E+05-3.84268E+03-7.94945E+03 4.14605E+03-4.03756E-09 3.38764E-09
 -1       833-3.76524E+05 3.31566E+03-1.26748E+04-1.57752E+03-2.61395E-09-6.37101E-09
 -1       834-3.88977E+05-2.44336E+04-3.44908E+04 2.78195E+03-2.44296E-09-8.67658E-10
 -1       835-3.68655E+05 2.10964E+04-4.89610E+04-3.81130E+02 4.35486E-09 2.89947E-09
 -1       836-1.34899E+03 3.55967E+05 2.19722E+04-1.62428E+04-5.91081E-09 2.08356E-08
 -1       837 4.69827E+03 3.62842E+05 1.86203E+04-3.30804E+04-6.18093E-09 1.09887E-08
 -1       838-5.30537E+02 3.57891E+05 1.90106E+04-1.61723E+04-5.22914E-09 5.66115E-09
 -1       839 1.19937E+04 3.68276E+05 3.60005E+04-3.31306E+04-5.57520E-09 1.52512E-08
 -1       840-3.69812E+03 3.50477E+05 5.74242E+04-1.61970E+04-5.06770E-09 5.61440E-09
 -1       856-5.64066E+04 7.97013E+03-2.10031E+04-3.99154E+02 2.70256E-09-3.78805E-09
 -1       857-6.50628E+04-9.36196E+03-1.44586E+04 5.50169E+03 3.04206E-09-3.05590E-10
 -1       858-5.98334E+04 1.11758E+03-5.44994E+03-4.23074E+02 4.36643E-09-1.08942E-08
 -1       859-6.11299E+04-1.31226E+03-3.28910E+03 5.53765E+03-4.37120E-09-5.05622E-09
 -1       860-6.03454E+04 1.56350E+02-1.37897E+03-4.34906E+02 1.50686E-09-2.10935E-09
 -1       861-6.05409E+04-1.84288E+02-7.59661E+02 5.55379E+03-1.17860E-09-4.87125E-09
 -1       862-6.04254E+04 2.10877E+01-3.17914E+02-4.39205E+02-4.56687E-10 5.68107E-09
 -1       863-6.04431E+04-1.98163E+01-1.20651E+02 5.55622E+03-2.51474E-09 1.81478E-09
 -1       864-6.04436E+04-4.39560E+00 3.59776E+01-4.37336E+02-1.84551E-09 2.24856E-09
 -1       865-6.03908E+04 5.62309E+01 2.29244E+02 5.54574E+03-1.86947E-09 1.50519E-08
 -1       866-6.04757E+04-5.50382E+01 4.67583E+02-4.28728E+02-1.65642E-10 1.02384E-09
 -1       867-6.01693E+04 4.55136E+02 1.15453E+03 5.52234E+03-1.34355E-09-1.89283E-08
 -1       868-6.06603E+04-3.96274E+02 1.91932E+03-4.13931E+02 2.38856E-10-1.38139E-08
 -1       869-5.87611E+04 3.29797E+03 5.11189E+03 5.48363E+03 4.02747E-09-1.92760E-08
 -1       870-6.18765E+04-2.82091E+03 7.41827E+03-3.89943E+02-2.66630E-09-6.47015E-09
 -1       871-5.37685E+03-1.95561E+04-1.87549E+04 1.25365E+05-4.29281E-09 1.49048E-08
 -1       872-1.99324E+03-2.38952E+04-7.83173E+03 1.62551E+05-9.09586E-09-5.76165E-09
 -1       873 3.25631E+02-2.18071E+04 6.21420E+02 1.25089E+05-4.59431E-09-5.75085E-09
 -1       874 3.12683E+03-1.94404E+04 9.53635E+03 1.62582E+05-9.78253E-09 5.84987E-09
 -1       875 6.59458E+03-2.40784E+04 2.14714E+04 1.25319E+05-3.47609E-09-4.93037E-09
 -1       876 2.84996E+05 4.81472E+04 1.46975E+04 1.14505E+05 4.30259E-09-1.26511E-08
 -1       877 2.85956E+05 5.12545E+04 7.84900E+03 1.18732E+05 8.23002E-09 3.84068E-09
 -1       878 2.86370E+05 4.65194E+04 3.28835E+03 1.15709E+05-2.61434E-09 9.49603E-09
 -1       879 2.83958E+05 4.92609E+04 1.63843E+03 1.18831E+05 2.30193E-09 5.51603E-09
 -1       880 2.86469E+05 4.65025E+04 7.63134E+02 1.15758E+05-5.59817E-09-1.46485E-10
 -1       881 2.83825E+05 4.91757E+04 4.07461E+02 1.18809E+05-4.65889E-09-1.58399E-08
 -1       882 2.86478E+05 4.65153E+04 2.60562E+02 1.15760E+05 3.16436E-09 4.76992E-09
 -1       883 2.83816E+05 4.91713E+04 2.79940E+02 1.18802E+05-1.07570E-09 1.01279E-08
 -1       884 2.86472E+05 4.65126E+04 4.45160E+02 1.15760E+05-3.70699E-09 7.54551E-09
 -1       885 2.83851E+05 4.91775E+04 8.94918E+02 1.18812E+05-8.59248E-09 9.42805E-09
 -1       886 2.86437E+05 4.64865E+04 1.80362E+03 1.15757E+05-5.44946E-09 5.53928E-09
 -1       887 2.84168E+05 4.93853E+04 3.93975E+03 1.18858E+05 7.63578E-09-2.69677E-09
 -1       888 2.86188E+05 4.65303E+04 7.93871E+03 1.15631E+05-8.91080E-09 9.88666E-09
 -1       889 2.88895E+05 5.43000E+04 1.89642E+04 1.18713E+05-1.49844E-08 1.83991E-09
 -1       890 2.82949E+05 5.03781E+04 3.55194E+04 1.12608E+05-7.58109E-09 4.21824E-09
 -1       891-9.86014E+01-1.58301E+05-1.93560E+03 2.67801E+04-2.76259E-10-4.43083E-09
 -1       892-1.88340E+02-1.58806E+05-2.08080E+03 4.06451E+04 4.20550E-09-1.04919E-08
 -1       893 3.03158E+01-1.58363E+05-2.94818E+03 2.67871E+04-5.39785E-10-1.14419E-08
 -1       894-1.48523E+03-1.59921E+05-6.10308E+03 4.04955E+04 1.57115E-09 6.32826E-09
 -1       895-1.17710E+03-1.57092E+05-1.07480E+04 2.69309E+04-2.07592E-10 5.20504E-09
 -1       956-3.65251E+05-5.25094E+03-1.30044E+04 2.91438E+04 5.33055E-09 1.33036E-08
 -1       957-3.67805E+05-1.83882E+03-6.67511E+03 3.50350E+04-5.14319E-10-1.08812E-08
 -1       958-3.66418E+05-2.16886E+02-3.00792E+03 2.89828E+04-2.80124E-09-1.26386E-08
 -1       959-3.66610E+05-1.13193E+02-1.53597E+03 3.52209E+04 3.77986E-09 1.65232E-09
 -1       960-3.66530E+05-2.83344E+01-7.48997E+02 2.89664E+04 2.84035E-09 5.14046E-09
 -1       961-3.66531E+05-4.34126E+01-3.97189E+02 3.52402E+04 9.10950E-09 1.07682E-08
 -1       962-3.66556E+05-3.00922E+01-2.27460E+02 2.89637E+04 1.90721E-09 5.42559E-09
 -1       963-3.66531E+05-3.97105E+01-1.82718E+02 3.52437E+04-8.21387E-10 4.34693E-09
 -1       964-3.66561E+05-2.69496E+01-2.22295E+02 2.89629E+04 1.50413E-09-6.75072E-09
 -1       965-3.66543E+05-3.67136E+01-3.84559E+02 3.52431E+04 2.21291E-10 1.09462E-08
 -1       966-3.66546E+05-1.89938E+01-7.22552E+02 2.89643E+04 4.17322E-09-5.46061E-09
 -1       967-3.66631E+05-9.76372E+01-1.48198E+03 3.52296E+04-2.55613E-09-1.22100E-08
 -1       968-3.66447E+05-1.94884E+02-2.90108E+03 2.89762E+04-9.85892E-10-5.92001E-09
 -1       969-3.67795E+05-1.75730E+03-6.44047E+03 3.50903E+04-1.61663E-09-3.91088E-09
 -1       970-3.65329E+05-5.04822E+03-1.25462E+04 2.90970E+04 3.08319E-10 3.32511E-09
 -1       971-3.35580E+05-1.68707E+03-9.13195E+03 1.50660E+04 3.36877E-09 1.83643E-08
 -1       972-3.37782E+05-1.23737E+03-4.97316E+03 2.08684E+04 9.93623E-10-6.65750E-10
 -1       973-3.36598E+05-5.36064E+01-2.22746E+03 1.49462E+04 4.64388E-09-1.16754E-08
 -1       974-3.36733E+05-6.94846E+01-1.15455E+03 2.10031E+04-2.65936E-09 3.89764E-09
 -1       975-3.36678E+05-9.69703E+00-5.77369E+02 1.49341E+04-4.32010E-09-3.37445E-09
 -1       976-3.36673E+05-2.06789E+01-3.33545E+02 2.10184E+04 5.29235E-09-8.06745E-09
 -1       977-3.36694E+05-9.05219E+00-2.42883E+02 1.49309E+04-2.00930E-09 4.76655E-09
 -1       978-3.36678E+05-1.46413E+01-2.85313E+02 2.10231E+04-7.73798E-09 2.05739E-09
 -1       979-3.36694E+05-8.46690E-01-4.59347E+02 1.49295E+04-5.50943E-09 3.23655E-09
 -1       980-3.36712E+05-1.16741E+01-8.87529E+02 2.10240E+04-5.70236E-09-1.51476E-08
 -1       981-3.36666E+05 2.13282E+01-1.71925E+03 1.49300E+04 4.20641E-10 1.09031E-09
 -1       982-3.36948E+05-1.38700E+02-3.55382E+03 2.10175E+04-3.54260E-09-7.24114E-09
 -1       983-3.36449E+05-8.87505E+01-6.90518E+03 1.49360E+04-1.33414E-08 4.55202E-10
 -1       984-3.40269E+05-3.74505E+03-1.54638E+04 2.09333E+04-1.80783E-08 7.61315E-09
 -1       985-3.33323E+05-5.14154E+03-2.83964E+04 1.50083E+04-8.76298E-09-1.03864E-08
 -3
    1PSTEP                        33          17           1          
  100CL  117 6.52222E-01         409                     0   17           1
 -4  DISP        4    1
 -5  D1          1    2    1    0
 -5  D2          1    2    2    0
 -5  D3          1    2    3    0
 -5  ALL         1    2    0    0    1ALL
 -1         1 2.33416E-03 0.00000E+00 0.00000E+00
 -1         2 1.61511E-03-6.20903E-27 0.00000E+00
 -1         3 3.26460E-04-6.68576E-28-1.32349E-23
 -1         5 1.71111E-04-2.16059E-27 2.06795E-24
 -1         8 2.31867E-03-4.81618E-07 0.00000E+00
 -1         9 2.28685E-03-5.13251E-05 0.00000E+00
 -1        10 2.96125E-04-3.51231E-06-6.61744E-24
 -1        12 1.72721E-04 7.87425E-07-3.10193E-25
 -1        15 2.30009E-03-5.23521E-07 0.00000E+00
 -1        16 2.32403E-03-5.26584E-05 0.00000E+00
 -1        17 2.02074E-04-7.91642E-06 0.00000E+00
 -1        18 1.75996E-04 3.11414E-05 0.00000E+00
 -1        19 1.77552E-04 1.56909E-06 0.00000E+00
 -1        20 1.77694E-04-7.25614E-06 0.00000E+00
 -1        21 1.76834E-04-1.98390E-05 0.00000E+00
 -1        24 2.99876E-05-1.19333E-05 0.00000E+00
 -1        25 1.85594E-04 3.13585E-05 0.00000E+00
 -1        26 1.86286E-04 2.17343E-06 0.00000E+00
 -1        27 1.84145E-04-1.07309E-05 0.00000E+00
 -1        28 1.83814E-04-2.04497E-05 0.00000E+00
 -1        32 0.00000E+00 0.00000E+00 0.00000E+00
 -1        33 1.93999E-04 2.90834E-06 0.00000E+00
 -1        34 1.91930E-04-1.07828E-05 0.00000E+00
 -1        35 1.90037E-04-2.07846E-05 0.00000E+00
 -1        51 2.33316E-03-9.39843E-08-6.61744E-24
 -1        52 2.33130E-03-1.71967E-07 0.00000E+00
 -1        53 2.32874E-03-2.47477E-07 0.00000E+00
 -1        54 2.32567E-03-3.22712E-07 0.00000E+00
 -1        55 2.32226E-03-3.99312E-07-2.89513E-24
 -1        56 2.32975E-03 1.20293E-06 5.29396E-23
 -1        57 2.32344E-03 7.02570E-06-5.29396E-23
 -1        58 2.31583E-03 1.62701E-05 0.00000E+00
 -1        59 2.30746E-03 2.73875E-05 5.29396E-23
 -1        60 2.29908E-03 3.85415E-05 0.00000E+00
 -1        61 2.29139E-03 4.78830E-05 0.00000E+00
 -1        62 2.28500E-03 5.38640E-05 0.00000E+00
 -1        63 2.28037E-03 5.52116E-05 5.29396E-23
 -1        64 2.27767E-03 5.14234E-05-1.05879E-22
 -1        65 2.27689E-03 4.24246E-05 0.00000E+00
 -1        66 2.27772E-03 2.90144E-05 0.00000E+00
 -1        67 2.27972E-03 1.23641E-05 0.00000E+00
 -1        68 2.28227E-03-5.80867E-06 1.05879E-22
 -1        69 2.28472E-03-2.36494E-05 0.00000E+00
 -1        70 2.28640E-03-3.93734E-05 0.00000E+00
 -1        86 1.65660E-03-2.22781E-06 0.00000E+00
 -1        87 1.77869E-03-1.08198E-05 1.32349E-23
 -1        88 1.94316E-03-2.49760E-05 0.00000E+00
 -1        89 2.10992E-03-3.95073E-05 0.00000E+00
 -1        90 2.23771E-03-4.87602E-05 2.64698E-23
 -1       121 3.25608E-04-5.69374E-07-1.32349E-23
 -1       122 3.23055E-04-1.14153E-06-6.61744E-24
 -1       123 3.18811E-04-1.71922E-06 0.00000E+00
 -1       124 3.12892E-04-2.30519E-06 6.61744E-24
 -1       125 3.05319E-04-2.90179E-06 0.00000E+00
 -1       191 1.71155E-04 1.31287E-07 0.00000E+00
 -1       192 1.71290E-04 2.62565E-07-9.30578E-25
 -1       193 1.71513E-04 3.93828E-07 1.86116E-24
 -1       194 1.71826E-04 5.25066E-07 2.06795E-25
 -1       195 1.72229E-04 6.56268E-07 2.89513E-24
 -1       251 2.31777E-03 1.78436E-05 0.00000E+00
 -1       252 2.31592E-03 6.57171E-05 0.00000E+00
 -1       253 2.31379E-03 1.19703E-04 2.64698E-23
 -1       254 2.31243E-03 1.56168E-04 0.00000E+00
 -1       255 2.31161E-03 1.61743E-04-2.64698E-23
 -1       256 2.31012E-03 1.24074E-04 0.00000E+00
 -1       257 2.30701E-03 5.37341E-05 0.00000E+00
 -1       258 2.30225E-03-3.76506E-05-1.32349E-23
 -1       259 2.29772E-03-1.26269E-04 2.64698E-23
 -1       260 2.29512E-03-1.88385E-04 0.00000E+00
 -1       261 2.29397E-03-2.15395E-04 2.64698E-23
 -1       262 2.29305E-03-1.99842E-04 0.00000E+00
 -1       263 2.29145E-03-1.56939E-04 0.00000E+00
 -1       264 2.28931E-03-1.02791E-04-1.32349E-23
 -1       265 2.28767E-03-6.01257E-05 0.00000E+00
 -1       266 2.31557E-03-4.95735E-07-3.30872E-24
 -1       267 2.31248E-03-5.01849E-07 0.00000E+00
 -1       268 2.30938E-03-5.08470E-07 0.00000E+00
 -1       269 2.30628E-03-5.13590E-07-2.06795E-25
 -1       270 2.30319E-03-5.18675E-07 2.06795E-25
 -1       271 2.31685E-03 2.11477E-06 0.00000E+00
 -1       272 2.31519E-03 4.19215E-06 1.32349E-23
 -1       273 2.31376E-03 5.67835E-06-2.64698E-23
 -1       274 2.31258E-03 6.49591E-06-1.32349E-23
 -1       275 2.31167E-03 6.57706E-06 2.64698E-23
 -1       276 2.31106E-03 5.85971E-06-1.32349E-23
 -1       277 2.31077E-03 4.29012E-06 0.00000E+00
 -1       278 2.31081E-03 1.82257E-06 0.00000E+00
 -1       279 2.31121E-03-1.57957E-06-2.64698E-23
 -1       280 2.31196E-03-5.94392E-06 0.00000E+00
 -1       281 2.31307E-03-1.12884E-05 0.00000E+00
 -1       282 2.31455E-03-1.76214E-05-1.32349E-23
 -1       283 2.31639E-03-2.49415E-05 2.64698E-23
 -1       284 2.31859E-03-3.32369E-05-1.32349E-23
 -1       285 2.32114E-03-4.24875E-05 2.64698E-23
 -1       301 2.29360E-03-5.15731E-05 6.61744E-24
 -1       302 2.29909E-03-5.17853E-05-3.30872E-24
 -1       303 2.30409E-03-5.19923E-05-1.32349E-23
 -1       304 2.30940E-03-5.21997E-05 0.00000E+00
 -1       305 2.31579E-03-5.24149E-05 0.00000E+00
 -1       306 2.32186E-03-1.90420E-04 0.00000E+00
 -1       307 2.38642E-03-5.72975E-04 0.00000E+00
 -1       308 2.44030E-03-1.13773E-03-1.05879E-22
 -1       309 2.47509E-03-1.79758E-03 0.00000E+00
 -1       310 2.51436E-03-2.43618E-03 0.00000E+00
 -1       311 2.57565E-03-2.93912E-03 0.00000E+00
 -1       312 2.63510E-03-3.23017E-03-1.05879E-22
 -1       313 2.64117E-03-3.26846E-03 0.00000E+00
 -1       314 2.52976E-03-3.06133E-03 0.00000E+00
 -1       315 2.26219E-03-2.66197E-03 0.00000E+00
 -1       316 1.85212E-03-2.14073E-03 0.00000E+00
 -1       317 1.35506E-03-1.56468E-03 5.29396E-23
 -1       318 8.71489E-04-9.96833E-04 0.00000E+00
 -1       319 4.97906E-04-5.02590E-04 0.00000E+00
 -1       320 2.75632E-04-1.50644E-04 1.05879E-22
 -1       336 2.85131E-04-4.18529E-06 1.32349E-23
 -1       337 2.72174E-04-4.88142E-06 6.61744E-24
 -1       338 2.57313E-04-5.60253E-06 0.00000E+00
 -1       339 2.40621E-04-6.34913E-06-6.61744E-24
 -1       340 2.22178E-04-7.12536E-06 0.00000E+00
 -1       406 1.73302E-04 9.18520E-07-1.86116E-24
 -1       407 1.73974E-04 1.04952E-06 3.10193E-25
 -1       408 1.74734E-04 1.18038E-06 1.65436E-24
 -1       409 1.75584E-04 1.31092E-06 1.39587E-24
 -1       410 1.76524E-04 1.44090E-06 2.48154E-24
 -1       521 2.35981E-03-2.00708E-04 1.05879E-22
 -1       522 2.42325E-03-6.02411E-04 0.00000E+00
 -1       523 2.47202E-03-1.19349E-03 0.00000E+00
 -1       524 2.49910E-03-1.88064E-03 5.29396E-23
 -1       525 2.53158E-03-2.54479E-03 0.00000E+00
 -1       526 2.58973E-03-3.06903E-03-5.29396E-23
 -1       527 2.64885E-03-3.37111E-03 0.00000E+00
 -1       528 2.65335E-03-3.40909E-03 0.00000E+00
 -1       529 2.53247E-03-3.18986E-03 0.00000E+00
 -1       530 2.24514E-03-2.77319E-03 0.00000E+00
 -1       531 1.80531E-03-2.23281E-03 0.00000E+00
 -1       532 1.27387E-03-1.63877E-03 0.00000E+00
 -1       533 7.56123E-04-1.05244E-03 1.05879E-22
 -1       534 3.53313E-04-5.37739E-04 0.00000E+00
 -1       535 1.12172E-04-1.67253E-04-1.05879E-22
 -1       536 2.01380E-04 2.52138E-05 0.00000E+00
 -1       537 1.99634E-04 8.26665E-05 3.30872E-24
 -1       538 1.96940E-04 1.55604E-04 0.00000E+00
 -1       539 1.93765E-04 2.35110E-04 0.00000E+00
 -1       540 1.90906E-04 3.10242E-04 0.00000E+00
 -1       541 1.89043E-04 3.70080E-04 1.65436E-24
 -1       542 1.88178E-04 4.08164E-04 3.30872E-24
 -1       543 1.87962E-04 4.18171E-04 0.00000E+00
 -1       544 1.87655E-04 4.00856E-04-3.30872E-24
 -1       545 1.86574E-04 3.57174E-04 1.65436E-24
 -1       546 1.84573E-04 2.94901E-04 0.00000E+00
 -1       547 1.81874E-04 2.21924E-04 0.00000E+00
 -1       548 1.79203E-04 1.49347E-04 3.30872E-24
 -1       549 1.77273E-04 8.82695E-05 0.00000E+00
 -1       550 1.76266E-04 4.63540E-05 1.65436E-24
 -1       551 1.78141E-04-8.46292E-06 0.00000E+00
 -1       552 1.51062E-04-9.08278E-06 0.00000E+00
 -1       553 1.21764E-04-9.75966E-06-1.15805E-23
 -1       554 9.11916E-05-1.04740E-05-3.30872E-24
 -1       555 6.02866E-05-1.12001E-05 0.00000E+00
 -1       556 1.94854E-04 1.05675E-05 0.00000E+00
 -1       557 1.89030E-04 2.55309E-05 2.64698E-23
 -1       558 1.84475E-04 3.72498E-05 5.29396E-23
 -1       559 1.81061E-04 4.60224E-05 0.00000E+00
 -1       560 1.78664E-04 5.21472E-05 0.00000E+00
 -1       561 1.77161E-04 5.59247E-05 0.00000E+00
 -1       562 1.76434E-04 5.76571E-05 0.00000E+00
 -1       563 1.76363E-04 5.76471E-05-1.32349E-23
 -1       564 1.76831E-04 5.61982E-05 0.00000E+00
 -1       565 1.77724E-04 5.36147E-05 0.00000E+00
 -1       566 1.78925E-04 5.02011E-05 0.00000E+00
 -1       567 1.80322E-04 4.62627E-05 0.00000E+00
 -1       568 1.81800E-04 4.21045E-05 1.65436E-24
 -1       569 1.83247E-04 3.80317E-05 0.00000E+00
 -1       570 1.84549E-04 3.43495E-05 0.00000E+00
 -1       571 1.76090E-04 2.92240E-05 8.27181E-25
 -1       572 1.76187E-04 2.72433E-05-8.27181E-25
 -1       573 1.76284E-04 2.52142E-05 3.30872E-24
 -1       574 1.76381E-04 2.31522E-05 8.27181E-25
 -1       575 1.76478E-04 2.10732E-05 3.30872E-24
 -1       576 1.76575E-04 1.89927E-05 0.00000E+00
 -1       577 1.76672E-04 1.69266E-05 0.00000E+00
 -1       578 1.76770E-04 1.48905E-05-3.30872E-24
 -1       579 1.76867E-04 1.29002E-05 0.00000E+00
 -1       580 1.76965E-04 1.09715E-05 0.00000E+00
 -1       581 1.77062E-04 9.12004E-06 0.00000E+00
 -1       582 1.77160E-04 7.36163E-06 0.00000E+00
 -1       583 1.77258E-04 5.71197E-06 0.00000E+00
 -1       584 1.77356E-04 4.18660E-06-3.30872E-24
 -1       585 1.77454E-04 2.80094E-06 0.00000E+00
 -1       586 1.77553E-04 3.11796E-05 1.65436E-24
 -1       587 1.79071E-04 3.12173E-05-4.13590E-25
 -1       588 1.80591E-04 3.12547E-05 0.00000E+00
 -1       589 1.82157E-04 3.12913E-05 0.00000E+00
 -1       590 1.83811E-04 3.13268E-05 0.00000E+00
 -1       591 1.76650E-04 2.93124E-05 1.03398E-25
 -1       592 1.77308E-04 2.74625E-05-2.06795E-25
 -1       593 1.77971E-04 2.55977E-05-8.27181E-25
 -1       594 1.78638E-04 2.37227E-05 0.00000E+00
 -1       595 1.79306E-04 2.18423E-05 0.00000E+00
 -1       596 1.79975E-04 1.99614E-05 0.00000E+00
 -1       597 1.80641E-04 1.80847E-05 0.00000E+00
 -1       598 1.81305E-04 1.62171E-05 0.00000E+00
 -1       599 1.81963E-04 1.43631E-05-8.27181E-25
 -1       600 1.82615E-04 1.25278E-05 0.00000E+00
 -1       601 1.83258E-04 1.07157E-05 8.27181E-25
 -1       602 1.83890E-04 8.93169E-06 2.06795E-25
 -1       603 1.84510E-04 7.18055E-06 4.13590E-25
 -1       604 1.85117E-04 5.46713E-06-1.29247E-25
 -1       605 1.85708E-04 3.79613E-06 0.00000E+00
 -1       606 1.77565E-04 5.63420E-07 0.00000E+00
 -1       607 1.77575E-04-3.54990E-07 0.00000E+00
 -1       608 1.77584E-04-1.19126E-06 3.30872E-24
 -1       609 1.77593E-04-1.95118E-06 0.00000E+00
 -1       610 1.77601E-04-2.64056E-06 0.00000E+00
 -1       611 1.77610E-04-3.26530E-06 0.00000E+00
 -1       612 1.77618E-04-3.83129E-06 0.00000E+00
 -1       613 1.77627E-04-4.34445E-06 0.00000E+00
 -1       614 1.77636E-04-4.81067E-06 0.00000E+00
 -1       615 1.77644E-04-5.23586E-06 8.27181E-25
 -1       616 1.77653E-04-5.62593E-06 0.00000E+00
 -1       617 1.77661E-04-5.98678E-06 0.00000E+00
 -1       618 1.77670E-04-6.32432E-06 0.00000E+00
 -1       619 1.77678E-04-6.64446E-06-2.06795E-25
 -1       620 1.77687E-04-6.95310E-06-2.06795E-25
 -1       621 1.78743E-04 1.67031E-06-1.65436E-24
 -1       622 1.80081E-04 1.77179E-06-8.27181E-25
 -1       623 1.81535E-04 1.87309E-06-3.30872E-24
 -1       624 1.83075E-04 1.97409E-06 0.00000E+00
 -1       625 1.84669E-04 2.07482E-06 3.30872E-24
 -1       626 1.78039E-04 5.98602E-07 3.30872E-24
 -1       627 1.78502E-04-3.06917E-07 0.00000E+00
 -1       628 1.78944E-04-1.15533E-06 0.00000E+00
 -1       629 1.79368E-04-1.95483E-06 0.00000E+00
 -1       630 1.79777E-04-2.71365E-06 0.00000E+00
 -1       631 1.80173E-04-3.44000E-06 0.00000E+00
 -1       632 1.80561E-04-4.14212E-06 0.00000E+00
 -1       633 1.80942E-04-4.82826E-06 0.00000E+00
 -1       634 1.81321E-04-5.50666E-06 0.00000E+00
 -1       635 1.81700E-04-6.18554E-06-1.65436E-24
 -1       636 1.82082E-04-6.87316E-06 0.00000E+00
 -1       637 1.82470E-04-7.57774E-06 0.00000E+00
 -1       638 1.82868E-04-8.30754E-06 3.30872E-24
 -1       639 1.83278E-04-9.07080E-06 8.27181E-25
 -1       640 1.83703E-04-9.87579E-06 3.30872E-24
 -1       656 1.78229E-04-7.82095E-06 0.00000E+00
 -1       657 1.79180E-04-8.40870E-06-6.61744E-24
 -1       658 1.80408E-04-8.99503E-06-1.32349E-23
 -1       659 1.81767E-04-9.58102E-06 0.00000E+00
 -1       660 1.83073E-04-1.01688E-05 0.00000E+00
 -1       661 1.77895E-04-7.60272E-06-8.27181E-25
 -1       662 1.78132E-04-8.03813E-06 0.00000E+00
 -1       663 1.78401E-04-8.55742E-06 0.00000E+00
 -1       664 1.78699E-04-9.15440E-06 0.00000E+00
 -1       665 1.79024E-04-9.82354E-06 0.00000E+00
 -1       666 1.79374E-04-1.05592E-05-8.27181E-25
 -1       667 1.79747E-04-1.13560E-05-1.65436E-24
 -1       668 1.80141E-04-1.22087E-05 0.00000E+00
 -1       669 1.80554E-04-1.31122E-05 1.65436E-24
 -1       670 1.80984E-04-1.40614E-05-8.27181E-25
 -1       671 1.81429E-04-1.50513E-05 1.65436E-24
 -1       672 1.81887E-04-1.60773E-05-8.27181E-25
 -1       673 1.82357E-04-1.71346E-05-1.65436E-24
 -1       674 1.82837E-04-1.82187E-05-8.27181E-25
 -1       675 1.83324E-04-1.93246E-05 0.00000E+00
 -1       676 1.78001E-04-1.99414E-05 0.00000E+00
 -1       677 1.79168E-04-2.00437E-05 0.00000E+00
 -1       678 1.80333E-04-2.01460E-05 3.30872E-24
 -1       679 1.81496E-04-2.02480E-05 0.00000E+00
 -1       680 1.82657E-04-2.03500E-05 0.00000E+00
 -1       771 1.86365E-05 1.33751E-05 0.00000E+00
 -1       772 9.07487E-06 3.41626E-05 5.29396E-23
 -1       773 1.21711E-06 5.06487E-05 5.29396E-23
 -1       774-5.05364E-06 6.30790E-05-2.64698E-23
 -1       775-9.85184E-06 7.17085E-05 5.29396E-23
 -1       776-1.32966E-05 7.68081E-05-2.64698E-23
 -1       777-1.55068E-05 7.86577E-05-5.29396E-23
 -1       778-1.66040E-05 7.75501E-05 0.00000E+00
 -1       779-1.67092E-05 7.37862E-05 0.00000E+00
 -1       780-1.59453E-05 6.76772E-05-2.64698E-23
 -1       781-1.44344E-05 5.95405E-05 0.00000E+00
 -1       782-1.23003E-05 4.97020E-05 0.00000E+00
 -1       783-9.66587E-06 3.84917E-05 0.00000E+00
 -1       784-6.65523E-06 2.62451E-05 2.64698E-23
 -1       785-3.39164E-06 1.33010E-05 5.29396E-23
 -1       786 1.85633E-04 2.93099E-05 2.58494E-26
 -1       787 1.85676E-04 2.73108E-05 0.00000E+00
 -1       788 1.85718E-04 2.53528E-05-8.27181E-25
 -1       789 1.85761E-04 2.34279E-05 8.27181E-25
 -1       790 1.85805E-04 2.15313E-05 0.00000E+00
 -1       791 1.85848E-04 1.96586E-05 0.00000E+00
 -1       792 1.85892E-04 1.78073E-05 0.00000E+00
 -1       793 1.85935E-04 1.59754E-05 0.00000E+00
 -1       794 1.85979E-04 1.41628E-05 1.65436E-24
 -1       795 1.86022E-04 1.23692E-05 0.00000E+00
 -1       796 1.86066E-04 1.05965E-05 0.00000E+00
 -1       797 1.86110E-04 8.84666E-06-8.27181E-25
 -1       798 1.86153E-04 7.12384E-06-1.65436E-24
 -1       799 1.86197E-04 5.43235E-06 0.00000E+00
 -1       800 1.86241E-04 3.77968E-06-1.65436E-24
 -1       801 1.42600E-04 2.81346E-05 2.64698E-23
 -1       802 1.24763E-05 1.76501E-05 2.64698E-23
 -1       803-9.91589E-05 8.97522E-06 0.00000E+00
 -1       804-8.87555E-05 6.22010E-06 2.64698E-23
 -1       805-2.94215E-05 2.49550E-06-5.29396E-23
 -1       806 1.86250E-04 2.92431E-05 1.65436E-24
 -1       807 1.86892E-04 2.71539E-05 1.65436E-24
 -1       808 1.87522E-04 2.50959E-05 3.30872E-24
 -1       809 1.88138E-04 2.30730E-05-1.65436E-24
 -1       810 1.88739E-04 2.10890E-05-3.30872E-24
 -1       811 1.89325E-04 1.91477E-05 0.00000E+00
 -1       812 1.89893E-04 1.72529E-05 3.30872E-24
 -1       813 1.90442E-04 1.54084E-05-1.65436E-24
 -1       814 1.90972E-04 1.36178E-05 0.00000E+00
 -1       815 1.91479E-04 1.18850E-05 1.65436E-24
 -1       816 1.91964E-04 1.02136E-05-3.30872E-24
 -1       817 1.92424E-04 8.60740E-06 8.27181E-25
 -1       818 1.92859E-04 7.07008E-06 1.65436E-24
 -1       819 1.93267E-04 5.60536E-06-8.27181E-25
 -1       820 1.93647E-04 4.21690E-06-3.30872E-24
 -1       821 1.86159E-04 1.65547E-07 1.65436E-24
 -1       822 1.86023E-04-2.68762E-06 0.00000E+00
 -1       823 1.85887E-04-6.05243E-06-3.30872E-24
 -1       824 1.85748E-04-9.59208E-06 1.65436E-24
 -1       825 1.85609E-04-1.29234E-05 0.00000E+00
 -1       826 1.85472E-04-1.56642E-05 0.00000E+00
 -1       827 1.85337E-04-1.75909E-05-3.30872E-24
 -1       828 1.85204E-04-1.84846E-05-1.65436E-24
 -1       829 1.85070E-04-1.84033E-05 3.30872E-24
 -1       830 1.84937E-04-1.74109E-05-1.65436E-24
 -1       831 1.84802E-04-1.58153E-05-3.30872E-24
 -1       832 1.84667E-04-1.39283E-05 0.00000E+00
 -1       833 1.84533E-04-1.21396E-05 0.00000E+00
 -1       834 1.84401E-04-1.08387E-05 1.65436E-24
 -1       835 1.84269E-04-1.02843E-05 0.00000E+00
 -1       836 1.87778E-04 2.29535E-06 3.30872E-24
 -1       837 1.89145E-04 2.42030E-06-1.65436E-24
 -1       838 1.90419E-04 2.54518E-06-3.30872E-24
 -1       839 1.91632E-04 2.66936E-06-8.27181E-25
 -1       840 1.92814E-04 2.79337E-06 0.00000E+00
 -1       856 1.84128E-04-1.16080E-05-8.27181E-25
 -1       857 1.84107E-04-1.23515E-05-1.61559E-27
 -1       858 1.84087E-04-1.29822E-05 0.00000E+00
 -1       859 1.84066E-04-1.35210E-05-2.06795E-25
 -1       860 1.84046E-04-1.39888E-05 4.13590E-25
 -1       861 1.84025E-04-1.44065E-05-2.06795E-25
 -1       862 1.84004E-04-1.47951E-05 0.00000E+00
 -1       863 1.83983E-04-1.51757E-05 0.00000E+00
 -1       864 1.83963E-04-1.55694E-05 0.00000E+00
 -1       865 1.83942E-04-1.59970E-05 4.13590E-25
 -1       866 1.83921E-04-1.64797E-05 0.00000E+00
 -1       867 1.83900E-04-1.70384E-05 0.00000E+00
 -1       868 1.83879E-04-1.76940E-05 0.00000E+00
 -1       869 1.83858E-04-1.84672E-05-4.13590E-25
 -1       870 1.83836E-04-1.93790E-05 0.00000E+00
 -1       871 1.85303E-04-1.07352E-05 0.00000E+00
 -1       872 1.86605E-04-1.07429E-05 0.00000E+00
 -1       873 1.87985E-04-1.07512E-05 0.00000E+00
 -1       874 1.89377E-04-1.07602E-05 4.13590E-25
 -1       875 1.90714E-04-1.07698E-05-1.65436E-24
 -1       876 1.84598E-04-1.15938E-05-3.30872E-24
 -1       877 1.85030E-04-1.23910E-05 1.65436E-24
 -1       878 1.85441E-04-1.31305E-05-3.30872E-24
 -1       879 1.85832E-04-1.38194E-05 0.00000E+00
 -1       880 1.86208E-04-1.44650E-05-3.30872E-24
 -1       881 1.86570E-04-1.50746E-05 0.00000E+00
 -1       882 1.86922E-04-1.56555E-05 0.00000E+00
 -1       883 1.87266E-04-1.62149E-05 1.65436E-24
 -1       884 1.87604E-04-1.67599E-05 0.00000E+00
 -1       885 1.87939E-04-1.72979E-05-1.65436E-24
 -1       886 1.88275E-04-1.78360E-05 3.30872E-24
 -1       887 1.88613E-04-1.83815E-05 0.00000E+00
 -1       888 1.88956E-04-1.89416E-05 0.00000E+00
 -1       889 1.89307E-04-1.95237E-05 0.00000E+00
 -1       890 1.89668E-04-2.01350E-05 0.00000E+00
 -1       891 1.84991E-04-2.05060E-05 1.65436E-24
 -1       892 1.86146E-04-2.05624E-05 0.00000E+00
 -1       893 1.87253E-04-2.06187E-05 0.00000E+00
 -1       894 1.88287E-04-2.06747E-05-8.27181E-25
 -1       895 1.89223E-04-2.07305E-05 4.13590E-25
 -1       956 1.93871E-04 1.76892E-06 1.65436E-24
 -1       957 1.93742E-04 7.17995E-07 0.00000E+00
 -1       958 1.93612E-04-2.54762E-07 0.00000E+00
 -1       959 1.93483E-04-1.16027E-06 0.00000E+00
 -1       960 1.93353E-04-2.00949E-06 0.00000E+00
 -1       961 1.93223E-04-2.81341E-06 1.65436E-24
 -1       962 1.93094E-04-3.58302E-06 0.00000E+00
 -1       963 1.92964E-04-4.32936E-06 1.65436E-24
 -1       964 1.92834E-04-5.06344E-06 0.00000E+00
 -1       965 1.92704E-04-5.79625E-06-1.65436E-24
 -1       966 1.92575E-04-6.53885E-06 0.00000E+00
 -1       967 1.92445E-04-7.30222E-06 1.65436E-24
 -1       968 1.92315E-04-8.09738E-06 0.00000E+00
 -1       969 1.92186E-04-8.93531E-06 0.00000E+00
 -1       970 1.92057E-04-9.82696E-06-3.30872E-24
 -1       971 1.91812E-04-1.17363E-05-3.30872E-24
 -1       972 1.91693E-04-1.25962E-05-1.65436E-24
 -1       973 1.91575E-04-1.33728E-05-3.30872E-24
 -1       974 1.91456E-04-1.40767E-05 0.00000E+00
 -1       975 1.91337E-04-1.47189E-05 0.00000E+00
 -1       976 1.91218E-04-1.53099E-05 0.00000E+00
 -1       977 1.91099E-04-1.58606E-05 3.30872E-24
 -1       978 1.90980E-04-1.63819E-05 0.00000E+00
 -1       979 1.90861E-04-1.68844E-05 3.30872E-24
 -1       980 1.90742E-04-1.73790E-05 1.65436E-24
 -1       981 1.90623E-04-1.78765E-05 3.30872E-24
 -1       982 1.90505E-04-1.83877E-05 0.00000E+00
 -1       983 1.90386E-04-1.89233E-05 0.00000E+00
 -1       984 1.90268E-04-1.94942E-05 0.00000E+00
 -1       985 1.90150E-04-2.01111E-05-3.30872E-24
 -3
    1PSTEP                        34          17           1          
  100CL  117 6.52222E-01         409                     0   17           1
 -4  STRESS      6    1
 -5  SXX         1    4    1    1
 -5  SYY         1    4    2    2
 -5  SZZ         1    4    3    3
 -5  SXY         1    4    1    2
 -5  SYZ         1    4    2    3
 -5  SZX         1    4    3    1
 -1         1-4.69912E+06-1.69485E+06-1.02865E+06-1.61907E+06-9.74978E-10 2.41038E-07
 -1         2 3.15578E+05 3.19132E+06 1.24153E+06 1.55384E+06 1.19471E-08-1.01281E-07
 -1         3-1.33845E+03-1.61793E+06 4.10106E+02-2.17822E+03-3.02197E-10-7.37055E-08
 -1         5-5.74568E+01 3.75887E+05 9.70854E+00-1.11119E+00-3.93946E-10 5.36565E-08
 -1         8-7.67219E+05-2.42789E+05-9.02814E+04-1.77740E+05-5.17502E-10-1.81022E-07
 -1         9 9.23411E+06 3.20910E+05 1.72323E+06-8.65735E+05 1.59489E-08-6.92904E-08
 -1        10-2.20710E+03-1.68602E+06-3.95051E+03-1.47229E+04-1.27093E-08-6.12448E-08
 -1        12-5.36009E+01 3.75908E+05 3.18077E+02-7.65938E+00-6.05212E-10-6.40284E-09
 -1        15 1.18196E+03 6.49548E+02 3.82066E+03 1.58289E+00 1.25482E-11-1.41961E-09
 -1        16 1.95720E+07-1.72982E+05 2.72733E+06-1.64993E+06 1.64340E-08 1.97052E-07
 -1        17 7.06948E+06 5.14322E+06 1.90625E+06 5.00324E+06 1.78668E-08 2.93832E-08
 -1        18 1.24216E+05 2.86001E+04 5.53021E+02-1.15094E+05 1.33696E-08-1.83582E-09
 -1        19 1.19320E+05 1.37982E+05-9.24833E+02 2.16281E+04 1.42682E-09-3.04171E-09
 -1        20-7.80081E+04-5.59785E+05-1.25475E+05 2.56138E+04-1.79928E-09 1.33211E-08
 -1        21-4.52615E+01-2.91216E+05-9.11267E+02 2.33139E+02 1.39911E-08-3.01501E-08
 -1        24 1.16449E+07 9.95929E+06 3.26473E+06 9.25705E+06-1.56714E-07-5.52197E-08
 -1        25 9.33559E+04 1.51149E+05 7.02747E+04-5.76888E+05-1.27493E-09 7.35090E-09
 -1        26-5.36680E+04 8.97330E+04-2.40315E+04 5.94593E+02 1.70985E-10 6.95630E-09
 -1        27-7.50956E+04-3.02787E+05-1.10966E+05 6.74095E+04 3.90961E-09 2.90735E-09
 -1        28 2.19435E+04-8.37130E+04 1.66144E+04 2.06654E+04-3.54905E-09-6.77158E-09
 -1        32-1.65036E+06-3.06578E+06-1.82603E+05 3.33820E+05-4.02651E-08-1.08935E-08
 -1        33-1.74606E+05 9.04477E+04 3.15840E+04-3.80305E+04-2.53749E-09-6.02904E-09
 -1        34-2.18907E+05-2.42684E+04 6.65055E+02 7.35608E+04-4.52517E-09 2.76032E-09
 -1        35-2.25905E+04-3.32029E+04-1.32147E+03 5.06719E+04-4.45320E-09 1.28202E-08
 -1        51 5.29681E+04-1.98901E+05 1.13804E+05-5.84785E+05 1.45519E-11-4.37867E-08
 -1        52 1.87663E+04-1.80168E+05 6.09657E+04-6.81796E+05 8.18545E-10-1.33907E-07
 -1        53 4.85091E+03-1.95693E+05 3.37564E+04-5.82656E+05 2.58296E-10-1.23116E-07
 -1        54 1.04550E+04-1.91872E+05 3.17938E+04-6.83996E+05-4.29281E-10-3.55649E-08
 -1        55 2.22415E+04-2.00865E+05 4.34214E+04-5.82379E+05 3.85626E-10-2.12676E-08
 -1        56-8.78864E+06-1.02617E+06-7.64626E+05-3.47526E+06-2.85800E-08 1.36322E-07
 -1        57-9.37673E+06-1.41329E+06-5.11999E+05-3.10509E+06 3.04244E-08 2.73052E-07
 -1        58-8.87446E+06-1.32641E+06-1.78952E+05-3.49419E+06-2.41926E-09-1.38352E-07
 -1        59-9.27329E+06-1.06578E+06-1.06157E+05-3.09815E+06-1.16379E-08-2.92384E-07
 -1        60-8.89526E+06-1.36142E+06-4.17395E+04-3.48908E+06-3.31611E-08-2.65789E-07
 -1        61-9.18133E+06-1.08141E+06-2.16949E+04-3.16028E+06 2.09729E-08-2.48971E-07
 -1        62-8.95971E+06-1.31381E+06-1.43269E+04-3.42770E+06-2.22863E-08-5.97975E-08
 -1        63-9.02369E+06-1.21663E+06-5.52547E+03-3.31086E+06 2.44927E-08 2.19599E-07
 -1        64-9.04473E+06-1.23163E+06-1.43837E+04-3.33263E+06 1.06447E-08 3.75112E-08
 -1        65-8.88061E+06-1.37333E+06-1.82844E+04-3.49201E+06-7.45058E-09-4.38570E-09
 -1        66-9.10657E+06-1.15470E+06-3.82848E+04-3.24941E+06-1.14669E-08 6.32663E-08
 -1        67-8.82702E+06-1.50115E+06-9.38764E+04-3.60618E+06-9.15861E-10-1.24383E-07
 -1        68-9.10815E+06-1.09841E+06-1.58272E+05-3.22490E+06-7.20320E-09-8.88977E-08
 -1        69-8.98674E+06-1.74931E+06-4.54889E+05-3.54954E+06-5.98629E-09 1.25576E-07
 -1        70-8.94841E+06-9.14531E+05-6.77688E+05-3.30334E+06-7.94535E-09-3.69619E-08
 -1        86-3.19946E+05-6.04782E+06-6.78075E+05-7.54789E+05-1.31569E-07 9.40927E-08
 -1        87 4.39186E+05-5.17801E+05 5.59563E+05 1.86470E+06-2.26741E-07 1.14943E-07
 -1        88-5.21386E+04-2.75463E+06 3.70903E+04-1.09758E+06-1.93269E-07-1.62280E-08
 -1        89 5.97441E+05-6.40634E+05 5.39240E+05 1.91848E+06-2.99398E-07-6.55209E-08
 -1        90-4.56506E+05-5.94622E+06-7.56634E+05-8.11744E+05-7.26359E-08 8.07049E-08
 -1       121-1.83973E+03-1.62238E+06-4.40722E+02 1.08086E+03 1.43010E-09-9.88075E-09
 -1       122-1.15260E+03-1.61798E+06 7.92508E+02-4.35724E+03-5.02932E-09-1.43573E-08
 -1       123-1.86725E+03-1.62251E+06 4.06878E+02 3.22732E+03 4.29839E-09 9.90622E-09
 -1       124 5.27013E+02-1.61747E+06 3.08153E+03-9.09784E+03-9.72341E-09 7.77982E-09
 -1       125-2.72134E+03-1.62344E+06 3.77166E+03 5.78296E+03 6.51926E-09 7.17409E-09
 -1       191-6.06187E+01 3.75908E+05 9.05191E+00 5.74861E-01-5.10699E-10 2.19552E-08
 -1       192-5.83829E+01 3.75888E+05 2.06792E+01-3.64665E+00-7.46067E-10 9.37871E-09
 -1       193-6.30623E+01 3.75908E+05 3.59748E+01 3.19028E+00-9.99888E-10 2.73576E-09
 -1       194-6.13545E+01 3.75891E+05 7.85190E+01-8.30414E+00-4.67458E-10 2.38651E-09
 -1       195-6.77536E+01 3.75905E+05 1.51094E+02 5.36541E+00-1.36006E-09-1.21418E-08
 -1       251-2.43529E+06 3.22036E+03-2.22858E+05-2.15046E+05 7.42148E-10-1.13643E-07
 -1       252-1.57104E+06-2.61401E+03 1.70805E+04 5.94875E+05 4.53713E-09 2.86949E-07
 -1       253-2.16018E+06 1.87545E+04-5.58331E+04-2.65865E+05-9.17407E-09-1.00095E-07
 -1       254-1.02674E+06 3.24508E+04 1.83999E+05 3.44015E+05-1.22463E-09-1.88641E-07
 -1       255-2.94096E+06-7.14990E+04-1.99631E+05 3.59973E+04 1.27620E-08 1.53138E-07
 -1       256-9.72919E+05 5.95700E+04 2.13289E+05-2.62098E+05 2.21098E-08 6.96050E-08
 -1       257-2.20903E+06-1.32277E+04-3.76144E+04 3.37151E+05-6.59657E-09 4.84639E-08
 -1       258-1.61771E+06 5.98320E+04 9.23993E+04-5.41511E+05-1.45369E-08-1.98687E-08
 -1       259-2.34085E+06-2.59555E+04-6.40307E+04 3.18786E+05-9.39144E-09 1.54978E-07
 -1       260-8.60911E+05 6.20312E+04 2.40365E+05-1.88289E+05 3.18450E-08-1.75485E-07
 -1       261-2.91384E+06-6.83078E+04-1.83244E+05-1.95103E+04 1.00281E-08 3.11119E-08
 -1       262-1.14784E+06 3.87826E+04 1.83225E+05 4.11537E+05 3.13689E-08 3.00302E-07
 -1       263-2.07508E+06 1.81317E+04 3.49589E+03-2.77693E+05-1.77720E-08 1.95117E-07
 -1       264-1.48440E+06 7.58363E+04 1.35871E+05 5.74561E+05-9.93672E-08 2.21985E-08
 -1       265-2.60308E+06-7.85784E+04-9.90979E+04-1.82793E+05-2.78960E-08-6.67878E-08
 -1       266-2.13975E+04-1.00059E+04 5.02025E+04-3.38678E+01 6.18456E-11 3.59945E-08
 -1       267 2.48055E+04 1.16614E+04 3.54835E+04 3.90780E+01 1.01863E-10-1.36823E-07
 -1       268-3.32637E+03-1.65162E+03 1.31890E+04-4.97915E+00 7.45786E-11 5.06440E-08
 -1       269 3.92746E+03 1.97659E+03 8.57267E+03 5.80004E+00-7.84439E-12 4.55107E-08
 -1       270-5.89517E+02-3.24772E+02 4.13815E+03-7.87103E-01-4.09273E-11 2.93411E-08
 -1       271-1.89942E+06-2.29997E+05-1.40542E+05-7.28328E+05 3.47936E-08-2.92566E-08
 -1       272-1.98391E+06-2.98803E+05-9.04121E+04-6.88682E+05-4.83430E-08-1.23217E-07
 -1       273-1.92581E+06-2.65223E+05-3.32387E+04-7.22092E+05 1.79139E-08 2.07805E-07
 -1       274-1.95197E+06-2.56408E+05-1.85614E+04-6.98448E+05-6.30644E-09 1.31149E-07
 -1       275-1.93031E+06-2.68126E+05-7.81628E+03-7.19987E+05-1.67174E-08-7.60911E-08
 -1       276-1.94508E+06-2.54305E+05-4.00673E+03-7.02408E+05-4.02897E-08 2.71832E-07
 -1       277-1.93230E+06-2.67074E+05-2.09529E+03-7.18074E+05 2.11967E-08 1.41263E-07
 -1       278-1.94107E+06-2.57156E+05-1.20936E+03-7.06204E+05 2.13622E-08-1.04947E-07
 -1       279-1.93406E+06-2.65395E+05-1.41045E+03-7.16030E+05 8.70750E-09-3.52443E-08
 -1       280-1.93751E+06-2.60969E+05-2.00470E+03-7.10250E+05 7.30597E-09-6.60589E-08
 -1       281-1.93572E+06-2.63371E+05-3.94084E+03-7.13924E+05-6.57201E-09-1.05695E-07
 -1       282-1.93552E+06-2.67097E+05-8.82976E+03-7.14200E+05-1.28148E-09 2.96691E-07
 -1       283-1.93607E+06-2.59500E+05-1.60501E+04-7.11994E+05 3.08501E-09-1.14110E-08
 -1       284-1.94574E+06-2.92317E+05-4.31314E+04-7.15335E+05-4.67116E-09-3.55341E-07
 -1       285-1.92593E+06-2.40244E+05-6.73489E+04-7.12102E+05-2.72994E-08-3.37168E-08
 -1       301 9.89696E+03-5.44256E+05 1.75082E+05-9.43360E+05-1.10595E-09-1.49594E-08
 -1       302 1.09207E+04-4.99001E+05 1.05887E+05-1.37859E+06-4.29281E-09 1.65690E-07
 -1       303-9.24609E+03-5.31294E+05 6.26980E+04-9.40944E+05 4.37285E-09 5.09062E-08
 -1       304-3.62414E+03-5.03667E+05 6.80682E+04-1.37782E+06-2.99769E-09 1.85857E-07
 -1       305-8.04305E+03-5.26046E+05 9.04693E+04-9.43808E+05 3.19596E-09 1.41590E-08
 -1       306-2.74564E+07-5.60277E+06-7.65967E+06-1.04624E+06-7.70669E-08-6.09143E-08
 -1       307 2.28580E+07 2.19211E+06 4.94042E+06-1.31610E+07-6.98608E-07 1.34896E-07
 -1       308-7.65781E+06-8.06030E+05-5.52757E+05 4.66571E+06-1.98808E-07 2.45796E-07
 -1       309-3.58057E+06 6.83250E+06 1.88141E+06-1.89471E+07 4.79806E-07 3.17723E-07
 -1       310-1.12355E+07-1.36123E+06-1.51265E+06 4.56837E+06-1.98139E-07 3.48373E-08
 -1       311 3.11566E+07-1.37636E+05 6.11774E+06-8.86905E+06 3.28990E-07-1.40746E-07
 -1       312-2.85374E+07-5.72206E+06-7.30254E+06-4.00735E+06 1.77301E-07 1.60071E-08
 -1       313 4.04988E+07 1.12806E+07 9.32550E+06 1.93277E+07 1.66794E-07 2.02795E-07
 -1       314-1.69683E+07-1.48827E+07-6.64635E+06-1.13957E+07 3.82424E-07-1.34984E-07
 -1       315-8.73184E+05 2.51710E+07 5.08631E+06 1.07038E+07-4.02797E-07 1.54512E-07
 -1       316 4.78441E+05-9.27420E+06-5.17221E+05-3.36422E+06-1.10056E-06-1.96829E-07
 -1       317-1.70837E+07 2.02166E+07 1.84729E+06-6.40133E+06 7.22139E-07-6.96553E-07
 -1       318-1.20421E+06-1.09400E+07-1.56026E+06-4.40388E+06-7.78120E-07 9.67411E-08
 -1       319 5.18756E+06 2.65541E+07 5.88596E+06 1.41299E+07-1.30531E-08 2.03756E-07
 -1       320-2.04232E+07-1.51232E+07-8.50088E+06-1.13664E+07 2.13506E-07-8.48668E-08
 -1       336-4.51180E+02-1.75629E+06-1.38979E+04 8.79671E+03-2.46928E-08 7.10861E-09
 -1       337-5.35202E+03-1.75646E+06-1.81035E+04-2.12926E+04-4.58795E-08-2.35013E-08
 -1       338 4.82835E+02-1.75582E+06-2.81662E+04 1.22830E+04-3.28037E-08-9.99717E-09
 -1       339-2.98969E+04-1.77338E+06-6.37768E+04-2.81007E+04-6.05942E-08-5.22050E-10
 -1       340 1.98999E+04-1.74139E+06-1.00289E+05 1.54851E+04-4.04034E-08 3.83880E-08
 -1       406-3.17926E+01 3.75891E+05 6.25344E+02 2.67023E+00-1.74579E-09-1.96324E-08
 -1       407 1.65643E+02 3.76018E+05 1.33466E+03 2.08354E+01-6.06953E-10-1.32786E-09
 -1       408 6.31698E+02 3.75794E+05 2.66222E+03-2.38976E+01-2.05955E-09 4.94038E-09
 -1       409 2.83271E+03 3.76868E+05 5.99873E+03 2.52591E+02 2.48974E-11 1.26392E-08
 -1       410 8.23471E+03 3.75030E+05 1.22438E+04-2.43004E+02-2.58660E-09 1.09139E-11
 -1       521-2.90118E+07-6.87744E+06-8.94274E+06-7.27133E+05-6.85686E-08 1.14087E-08
 -1       522 2.36332E+07 2.88972E+06 5.01947E+06-1.62993E+07-4.31493E-07-3.64700E-07
 -1       523-8.38330E+06-1.09111E+06-5.66560E+05 5.10804E+06 1.44762E-07-5.67670E-08
 -1       524-6.77375E+06 9.38667E+06 2.03673E+06-2.18821E+07 8.96282E-07-3.84309E-07
 -1       525-1.21645E+07-1.86481E+06-1.66232E+06 5.00162E+06 6.52566E-07-2.52039E-08
 -1       526 3.38050E+07-1.68555E+05 6.43149E+06-1.13694E+07 6.88655E-07 5.22414E-08
 -1       527-3.03145E+07-7.18658E+06-8.40089E+06-3.89754E+06 1.47964E-07 4.94765E-10
 -1       528 4.42635E+07 1.23900E+07 9.73075E+06 2.18903E+07-6.27711E-07 1.95403E-07
 -1       529-1.79838E+07-1.68487E+07-7.61458E+06-1.15684E+07 3.18338E-07 1.99070E-08
 -1       530-3.14409E+06 2.93259E+07 5.37796E+06 1.06411E+07-1.49026E-07 8.68225E-07
 -1       531 4.10610E+05-1.03999E+07-5.15694E+05-3.48589E+06-8.36852E-07 3.27156E-07
 -1       532-1.99831E+07 2.24390E+07 2.02520E+06-9.92826E+06 4.78220E-07-8.12659E-07
 -1       533-1.27755E+06-1.20867E+07-1.64840E+06-4.42950E+06-1.93861E-07-9.29052E-07
 -1       534 3.22425E+06 3.08491E+07 6.13158E+06 1.46444E+07-2.84635E-08 7.41595E-07
 -1       535-2.15721E+07-1.72235E+07-9.71329E+06-1.15327E+07 9.23174E-08 4.46162E-07
 -1       536-6.77898E+05-4.60341E+04-3.53981E+04-5.07814E+04-9.10495E-09 6.17747E-08
 -1       537-8.24076E+04 4.46758E+04 8.21711E+04 1.16380E+05-1.11880E-07 1.12151E-07
 -1       538-3.93221E+05 2.51501E+03 5.40114E+03-6.84288E+04 3.21047E-08 1.01766E-07
 -1       539-2.79195E+05 3.05144E+03 2.38657E+04 1.31045E+05 1.63421E-07 1.00166E-07
 -1       540-4.86007E+05-3.42888E+02-1.87056E+04-6.59075E+04 6.99652E-09 9.70948E-08
 -1       541 9.86985E+04 1.54401E+04 9.69507E+04 9.15246E+04-4.59841E-09 1.06850E-07
 -1       542-7.60941E+05-1.83551E+04-7.65096E+04-2.81547E+04 2.69861E-08 4.57182E-08
 -1       543 3.33962E+05 2.48815E+04 1.43628E+05-1.27200E+04-2.62560E-08 4.13547E-09
 -1       544-7.14970E+05-1.49997E+04-6.79771E+04 3.77575E+04-2.05609E-08-2.32066E-08
 -1       545-9.19315E+03 8.47091E+03 7.21882E+04-1.06812E+05-1.84647E-08-9.19463E-08
 -1       546-4.26986E+05 5.67453E+03-1.12098E+04 6.56412E+04 3.09576E-08-8.98121E-08
 -1       547-2.96092E+05-4.68383E+03 8.87309E+03-1.33815E+05-9.65013E-08-1.10830E-07
 -1       548-4.35767E+05 4.58172E+03-2.27253E+04 6.53568E+04-8.77722E-08-8.50468E-08
 -1       549 9.26672E+03 1.26696E+04 5.24487E+04-1.04496E+05-6.14270E-08-6.09466E-08
 -1       550-7.24169E+05-1.85025E+04-1.21199E+05 3.57025E+04 2.99497E-09-5.76565E-08
 -1       551 3.87524E+04-7.69307E+05-9.72881E+03-1.22566E+06-9.66975E-08-1.73750E-08
 -1       552 8.80792E+04-8.10480E+05 1.34533E+04-1.74785E+06-6.92380E-08 1.74041E-08
 -1       553 6.73557E+04-8.08081E+05 3.44606E+04-1.21933E+06-1.15106E-07 2.13040E-08
 -1       554 1.25534E+05-8.24160E+05 8.39896E+04-1.74981E+06-7.11880E-08 1.85992E-08
 -1       555 9.70601E+04-8.31169E+05 1.52524E+05-1.21929E+06-1.18576E-07-1.08448E-08
 -1       556 2.11051E+05-3.64542E+05 3.47453E+04-3.93949E+05-2.43308E-08-1.62399E-08
 -1       557 3.37545E+05-4.65544E+05 2.05600E+04-5.08522E+05-4.65661E-09 6.86123E-09
 -1       558 1.94941E+05-3.59799E+05 4.61536E+03-3.96481E+05-2.11003E-08-1.50540E-08
 -1       559 3.13484E+05-4.67166E+05 3.45334E+03-5.27309E+05 2.77068E-08-4.59841E-09
 -1       560 1.81025E+05-3.51054E+05-7.78857E+02-4.06453E+05 1.26020E-08 2.24463E-08
 -1       561 2.95875E+05-4.60205E+05 4.04872E+02-5.39258E+05 5.35510E-09-3.05408E-09
 -1       562 1.70025E+05-3.44201E+05-1.04917E+03-4.14407E+05 4.80213E-10-1.06957E-08
 -1       563 2.82820E+05-4.54513E+05 4.15694E+01-5.47771E+05 3.23780E-09-1.42600E-08
 -1       564 1.62213E+05-3.39329E+05-4.92814E+02-4.19939E+05 6.56291E-09-6.88487E-09
 -1       565 2.74232E+05-4.50774E+05 4.49691E+01-5.53253E+05 7.21775E-09-1.75123E-08
 -1       566 1.57706E+05-3.36475E+05-2.17309E+02-4.23092E+05 5.02041E-10-2.11112E-08
 -1       567 2.70155E+05-4.49000E+05-3.26539E+02-5.55719E+05 1.52213E-08-6.91580E-09
 -1       568 1.56587E+05-3.35792E+05-1.03387E+03-4.23971E+05-6.66660E-09-8.47285E-09
 -1       569 2.69255E+05-4.48949E+05-2.61255E+03-5.54214E+05-5.65524E-09 6.05360E-09
 -1       570 1.59905E+05-3.38903E+05-5.72986E+03-4.23009E+05 7.87259E-09-6.29916E-09
 -1       571 2.82883E+05 1.02400E+04 1.46727E+04-9.07572E+04-1.12195E-08 8.02220E-09
 -1       572 2.85016E+05 3.82593E+03 7.19055E+03-9.95688E+04-2.24204E-08-2.44740E-08
 -1       573 2.83731E+05 1.17291E+03 3.19495E+03-9.05858E+04-8.45830E-09 4.29100E-09
 -1       574 2.83946E+05 6.60017E+02 1.60210E+03-9.97842E+04 3.72575E-09 8.94033E-09
 -1       575 2.83824E+05 3.91717E+02 7.56085E+02-9.05624E+04-8.44210E-10 1.82090E-08
 -1       576 2.83812E+05 3.98373E+02 3.86966E+02-9.98129E+04-6.07179E-09 1.03537E-08
 -1       577 2.83860E+05 3.36338E+02 1.93097E+02-9.05592E+04-6.27369E-09-1.45537E-08
 -1       578 2.83838E+05 3.63606E+02 1.11265E+02-9.98169E+04-7.23549E-09 1.22836E-08
 -1       579 2.83925E+05 3.03844E+02 7.62584E+01-9.05589E+04 4.03088E-09 4.09909E-09
 -1       580 2.83929E+05 3.18066E+02 8.79106E+01-9.98123E+04-9.45874E-09 6.73390E-09
 -1       581 2.84028E+05 2.51699E+02 1.32797E+02-9.05645E+04 8.17636E-09 1.48339E-09
 -1       582 2.84089E+05 2.87134E+02 2.69305E+02-9.97535E+04 5.85715E-09 3.23780E-09
 -1       583 2.84153E+05 2.98200E+02 5.17548E+02-9.06183E+04 2.37815E-08 7.28755E-09
 -1       584 2.84439E+05 7.19342E+02 1.17033E+03-9.93008E+04 4.34156E-08-4.52792E-09
 -1       585 2.84168E+05 1.70972E+03 2.37089E+03-9.10167E+04 1.64473E-08-2.82307E-09
 -1       586-3.34530E+03 1.11637E+05-2.99256E+03-2.45041E+05-5.67252E-09 5.17866E-09
 -1       587-1.24466E+03 1.11365E+05 6.64825E+02-2.69689E+05-6.35009E-09-1.47375E-08
 -1       588 4.59126E+02 1.11203E+05 4.57317E+03-2.44908E+05-4.94583E-09-1.08666E-08
 -1       589 5.01224E+03 1.13587E+05 1.19375E+04-2.69454E+05-5.95719E-09-3.46336E-09
 -1       590 1.61679E+04 1.09910E+05 2.50713E+04-2.45329E+05-6.49925E-09 1.80389E-08
 -1       591-7.14719E+04-1.54950E+04-2.17226E+04-3.07831E+04-5.44810E-09-5.47789E-09
 -1       592-7.53233E+04-1.90166E+04-1.17666E+04-3.43826E+04 3.59811E-09 4.69367E-09
 -1       593-7.36451E+04-1.39180E+04-4.89789E+03-3.23751E+04-3.73287E-09-2.30420E-09
 -1       594-7.23228E+04-1.58304E+04-2.44271E+03-3.44978E+04 6.86214E-10 1.39956E-08
 -1       595-7.38108E+04-1.39127E+04-1.12151E+03-3.24475E+04 3.52987E-09 1.15654E-08
 -1       596-7.21174E+04-1.56847E+04-5.70017E+02-3.44735E+04 1.78508E-08 1.49267E-08
 -1       597-7.38316E+04-1.39276E+04-3.10165E+02-3.24502E+04 7.72218E-09 1.12786E-08
 -1       598-7.20972E+04-1.56790E+04-2.48923E+02-3.44667E+04-7.40260E-09-1.19352E-08
 -1       599-7.38304E+04-1.39280E+04-3.17455E+02-3.24499E+04 3.94493E-10-1.41554E-08
 -1       600-7.21175E+04-1.56853E+04-5.89317E+02-3.44715E+04 6.20912E-09-1.40486E-08
 -1       601-7.38064E+04-1.39140E+04-1.16238E+03-3.24464E+04 1.20417E-09-5.90262E-10
 -1       602-7.23303E+04-1.58353E+04-2.53317E+03-3.44930E+04-7.59348E-09-8.96443E-09
 -1       603-7.36319E+04-1.39223E+04-5.08000E+03-3.23722E+04-3.34444E-09-9.13678E-09
 -1       604-7.54592E+04-1.91210E+04-1.22033E+04-3.43495E+04 6.44525E-09 1.35697E-08
 -1       605-7.13586E+04-1.55750E+04-2.25289E+04-3.07397E+04 2.72735E-09 1.68238E-08
 -1       606 2.68820E+04-1.39117E+04-2.49444E+04 2.43808E+04 6.11089E-09 9.72022E-10
 -1       607 2.26193E+04-4.54052E+03-1.24221E+04 2.73950E+04 1.99361E-09-7.09611E-09
 -1       608 2.50476E+04-8.16323E+02-5.56114E+03 2.42062E+04-5.71163E-10-2.94199E-09
 -1       609 2.45808E+04-2.75993E+02-2.80928E+03 2.76121E+04 5.07498E-10 9.68862E-09
 -1       610 2.48387E+04-3.53959E+01-1.34047E+03 2.41856E+04 3.39332E-09 8.57540E-09
 -1       611 2.47643E+04-3.43132E+01-6.75849E+02 2.76355E+04 5.34965E-09-7.73457E-09
 -1       612 2.47917E+04-2.13023E+01-3.21420E+02 2.41835E+04-7.80346E-10-5.92013E-09
 -1       613 2.47743E+04-2.96166E+01-1.44119E+02 2.76383E+04 6.62794E-09-1.13687E-11
 -1       614 2.47692E+04-2.68989E+01-3.40710E+01 2.41828E+04 3.87809E-09 3.51042E-09
 -1       615 2.47681E+04-2.76059E+01 5.97923E+01 2.76387E+04-4.56566E-09 6.10044E-10
 -1       616 2.47516E+04-2.34003E+01 1.79851E+02 2.41831E+04-1.19735E-09-1.97495E-08
 -1       617 2.47890E+04 1.11805E+01 4.10585E+02 2.76382E+04 8.19455E-10-2.59292E-08
 -1       618 2.47154E+04 9.53166E+01 8.27673E+02 2.41834E+04-1.70849E-09 5.58703E-09
 -1       619 2.50807E+04 6.51426E+02 1.85867E+03 2.76376E+04-3.21086E-09 1.78420E-09
 -1       620 2.44402E+04 2.05820E+03 3.73587E+03 2.41845E+04 2.82284E-10 6.83485E-10
 -1       621 4.75525E+02 2.93074E+05 3.71230E+03 3.78264E+04 9.97261E-10 8.59291E-09
 -1       622 6.23782E+02 2.93939E+05 3.30934E+03 5.49270E+04 9.96351E-10 6.95945E-09
 -1       623 1.20412E+02 2.93264E+05 3.99725E+03 3.76545E+04 1.07025E-09 1.27620E-08
 -1       624 2.02850E+03 2.95132E+05 7.76515E+03 5.50967E+04 1.16825E-09-2.17938E-08
 -1       625 1.99019E+03 2.91726E+05 1.35773E+04 3.76515E+04 1.22145E-09-1.67702E-08
 -1       626 2.54185E+05 6.05606E+04 5.05039E+03 1.24395E+05 1.87356E-09 5.07498E-09
 -1       627 2.51854E+05 6.19834E+04 2.43374E+03 1.28659E+05 2.63572E-09 2.34286E-09
 -1       628 2.54314E+05 5.82461E+04 1.02919E+03 1.25249E+05 2.19370E-09 3.09556E-08
 -1       629 2.51222E+05 6.13176E+04 5.03755E+02 1.28901E+05-5.48289E-09 3.35235E-09
 -1       630 2.54328E+05 5.81346E+04 2.33666E+02 1.25284E+05-7.06223E-09-3.01565E-08
 -1       631 2.51155E+05 6.12929E+04 1.25739E+02 1.28902E+05 8.87667E-09 7.68500E-09
 -1       632 2.54324E+05 5.81389E+04 8.27370E+01 1.25279E+05 7.03085E-09-1.55153E-08
 -1       633 2.51146E+05 6.12951E+04 9.21519E+01 1.28898E+05 6.57246E-09-6.12408E-09
 -1       634 2.54319E+05 5.81365E+04 1.48907E+02 1.25279E+05 1.37948E-09 6.00721E-10
 -1       635 2.51159E+05 6.12937E+04 3.01308E+02 1.28903E+05-3.87817E-09 1.72338E-08
 -1       636 2.54309E+05 5.81312E+04 6.08487E+02 1.25278E+05-5.80667E-09-1.40017E-08
 -1       637 2.51291E+05 6.13884E+04 1.33785E+03 1.28902E+05-7.34644E-10 9.25479E-09
 -1       638 2.54262E+05 5.84268E+04 2.74882E+03 1.25144E+05 4.39968E-09 3.40242E-09
 -1       639 2.52734E+05 6.33966E+04 6.50376E+03 1.28477E+05 7.26050E-09-6.90238E-09
 -1       640 2.54063E+05 6.44227E+04 1.34964E+04 1.22616E+05 5.12046E-09 2.17506E-09
 -1       656 6.50903E+04-1.66460E+06-1.57124E+05-2.26670E+03-4.80213E-10 3.55948E-09
 -1       657-8.61026E+04-1.73560E+06-1.30155E+05 5.51542E+03-2.36469E-10 4.50242E-09
 -1       658 2.07429E+04-1.68477E+06-8.01425E+04-4.27970E+03 8.50378E-11-9.21966E-09
 -1       659-9.30619E+04-1.73890E+06-1.39300E+05 7.16233E+03-1.75805E-09 4.74131E-09
 -1       660 7.20341E+04-1.66131E+06-1.72847E+05-3.91359E+03-1.22964E-09-6.69729E-10
 -1       661 1.60124E+05 1.68228E+04 1.67362E+04 6.25979E+04 1.13232E-10 5.35238E-09
 -1       662 1.69527E+05 2.92747E+04 1.12789E+04 5.89102E+04-9.07505E-10-2.15550E-10
 -1       663 1.63411E+05 2.21923E+04 3.94472E+03 6.16441E+04 2.13959E-10-1.57679E-08
 -1       664 1.65717E+05 2.29952E+04 2.35965E+03 6.00750E+04 6.28717E-10-5.47811E-09
 -1       665 1.63910E+05 2.29259E+04 9.30864E+02 6.14990E+04 2.25134E-09-1.22174E-08
 -1       666 1.65127E+05 2.21560E+04 5.44713E+02 6.02641E+04 6.42390E-09 2.35457E-09
 -1       667 1.63997E+05 2.30096E+04 2.89325E+02 6.14628E+04 3.67569E-09 1.17084E-08
 -1       668 1.65031E+05 2.20955E+04 2.94798E+02 6.03167E+04-9.65566E-09-1.24427E-08
 -1       669 1.64004E+05 2.29847E+04 3.99111E+02 6.14467E+04-1.43271E-09 8.48800E-09
 -1       670 1.65128E+05 2.23120E+04 8.69069E+02 6.03196E+04-7.32778E-09-2.24564E-08
 -1       671 1.63899E+05 2.27976E+04 1.54309E+03 6.14580E+04-9.33973E-10-1.36350E-08
 -1       672 1.66028E+05 2.38133E+04 3.94797E+03 6.01018E+04 5.65115E-09-1.11509E-08
 -1       673 1.63110E+05 2.15213E+04 6.61617E+03 6.16500E+04 1.57866E-09-2.79078E-09
 -1       674 1.72325E+05 3.44427E+04 1.89208E+04 5.82516E+04-4.95447E-10-2.48701E-09
 -1       675 1.57643E+05 1.24658E+04 2.80852E+04 6.31965E+04-1.47747E-09-1.03228E-08
 -1       676 2.37472E+01-2.91140E+05-1.09832E+03-1.16573E+02 4.24734E-10 3.79849E-09
 -1       677-2.90836E+02-2.91405E+05-2.01010E+03 2.32963E+02 8.48331E-09-2.76320E-09
 -1       678 1.94826E+02-2.90950E+05-3.55336E+03-1.16313E+02 1.61435E-11-7.37374E-09
 -1       679-3.55370E+03-2.93550E+05-8.44130E+03 2.31973E+02 6.12351E-09-4.27542E-09
 -1       680 2.12154E+03-2.88996E+05-1.36045E+04-1.14295E+02-4.52019E-10 3.33550E-09
 -1       771-3.02258E+06-7.22326E+05-1.51946E+05-1.43556E+06-3.10247E-08-2.48838E-08
 -1       772-2.94961E+06-8.06939E+05-7.84183E+04-1.53327E+06-2.42726E-08 1.06738E-08
 -1       773-3.05152E+06-6.99699E+05-3.97948E+04-1.44847E+06-1.74623E-09 1.54687E-08
 -1       774-2.94033E+06-7.90178E+05-1.77916E+04-1.55681E+06 2.62517E-08 4.00178E-10
 -1       775-3.06643E+06-6.89209E+05-1.31863E+04-1.45466E+06-1.46392E-08 1.39698E-09
 -1       776-2.95120E+06-7.87595E+05-4.95050E+03-1.57446E+06-8.61473E-09 5.64614E-09
 -1       777-3.07932E+06-6.79890E+05-5.78164E+03-1.46011E+06 5.82077E-10 2.98314E-10
 -1       778-2.96259E+06-7.85211E+05-1.64088E+03-1.58961E+06-8.00355E-09 6.07906E-09
 -1       779-3.09036E+06-6.71770E+05-2.87522E+03-1.46478E+06-7.90169E-09-7.15954E-09
 -1       780-2.97261E+06-7.82934E+05-4.77885E+02-1.60194E+06-8.35280E-09-1.50612E-09
 -1       781-3.09913E+06-6.65235E+05-1.11274E+03-1.46843E+06-2.87691E-08 1.04774E-09
 -1       782-2.98032E+06-7.80994E+05 4.03831E+02-1.61104E+06-3.61470E-08-5.02769E-09
 -1       783-3.10529E+06-6.60703E+05 6.30744E+02-1.47098E+06-2.89583E-09-1.41322E-08
 -1       784-2.98457E+06-7.79015E+05 2.60332E+03-1.61666E+06-2.08784E-08 2.01544E-09
 -1       785-3.10893E+06-6.58005E+05 4.59618E+03-1.47261E+06-3.54739E-08 1.09903E-08
 -1       786 1.24712E+05-9.70821E+03 2.24606E+04-2.97920E+02 3.30584E-09 6.12818E-09
 -1       787 1.34453E+05 1.12398E+04 1.58900E+04-1.15200E+02 5.60651E-09 6.18843E-09
 -1       788 1.28468E+05-1.52138E+03 5.81116E+03-2.63901E+02 3.68911E-09 2.70225E-08
 -1       789 1.30078E+05 1.76081E+03 3.64819E+03-1.67627E+02-1.24203E-09 1.30984E-08
 -1       790 1.29088E+05-2.36967E+02 1.47745E+03-2.45509E+02-4.39806E-09 1.42884E-08
 -1       791 1.29353E+05 2.74100E+02 8.54024E+02-1.99157E+02-6.58572E-09 1.79191E-08
 -1       792 1.29193E+05-3.57894E+01 3.63274E+02-2.32372E+02-4.77584E-09-4.09584E-09
 -1       793 1.29228E+05 3.83325E+01 1.84113E+02-2.23888E+02-1.54279E-09-7.10951E-10
 -1       794 1.29214E+05-1.34874E+00 5.39014E+01-2.20778E+02 3.92368E-09-6.59684E-09
 -1       795 1.29193E+05-2.22062E+01-4.12278E+01-2.48101E+02-4.17836E-09-1.05173E-09
 -1       796 1.29228E+05 2.47157E+01-1.33850E+02-2.08159E+02 3.06771E-09-6.43932E-09
 -1       797 1.29113E+05-1.85445E+02-3.75210E+02-2.77096E+02 4.84277E-09-6.54640E-09
 -1       798 1.29294E+05 1.61767E+02-6.11490E+02-1.91783E+02 2.58030E-09 1.07713E-08
 -1       799 1.28648E+05-1.19261E+03-1.68416E+03-3.17530E+02 5.58752E-09 2.43326E-08
 -1       800 1.29693E+05 1.03106E+03-2.38396E+03-1.67726E+02 1.31655E-10 3.35475E-08
 -1       801-1.29928E+05-9.24225E+06-1.26631E+06 1.23382E+06 8.67876E-08-5.37912E-08
 -1       802 6.21101E+05 4.76820E+06 1.88450E+06-1.50325E+06 2.42711E-07-3.56440E-08
 -1       803-4.68111E+05-1.29199E+07-1.66038E+06 7.84278E+05 7.31015E-08 1.31058E-08
 -1       804 2.41840E+05 1.60161E+06 1.32816E+06 6.18088E+05-1.11140E-07-9.29981E-08
 -1       805 1.74061E+05-6.09062E+06-2.52248E+05-8.82477E+05-4.64061E-08-5.92290E-08
 -1       806-3.01862E+05-5.82631E+04-2.22899E+04-1.19462E+05-6.16365E-09-2.64699E-08
 -1       807-3.03639E+05-5.46014E+04-1.09508E+04-1.24842E+05 8.97580E-09-1.16806E-08
 -1       808-3.02472E+05-5.02322E+04-4.64568E+03-1.23262E+05-2.91357E-09 7.47787E-09
 -1       809-3.01338E+05-5.15235E+04-2.27163E+03-1.25110E+05 2.82171E-09-8.21319E-09
 -1       810-3.02565E+05-4.99526E+04-1.04120E+03-1.23430E+05 9.20863E-10-3.18200E-08
 -1       811-3.01160E+05-5.13997E+04-5.17794E+02-1.25076E+05 1.89357E-09-3.39060E-09
 -1       812-3.02578E+05-4.99766E+04-2.61899E+02-1.23430E+05-4.41287E-09-1.27693E-09
 -1       813-3.01136E+05-5.14018E+04-1.70273E+02-1.25058E+05-2.11867E-09-6.79029E-09
 -1       814-3.02572E+05-4.99858E+04-1.68813E+02-1.23426E+05-3.36513E-11-1.19053E-08
 -1       815-3.01140E+05-5.14039E+04-2.72113E+02-1.25051E+05-1.21872E-10 2.38431E-08
 -1       816-3.02552E+05-4.99848E+04-5.15764E+02-1.23422E+05 6.90034E-09 2.19866E-08
 -1       817-3.01227E+05-5.14530E+04-1.10701E+03-1.25040E+05-9.57152E-09 7.75412E-09
 -1       818-3.02485E+05-5.01408E+04-2.25787E+03-1.23349E+05-5.99357E-10 1.81444E-10
 -1       819-3.02463E+05-5.28173E+04-5.31274E+03-1.24748E+05 1.25119E-08-1.57343E-09
 -1       820-3.02060E+05-5.41531E+04-1.08133E+04-1.21634E+05 4.16821E-09 5.61135E-09
 -1       821-3.72282E+05 2.05079E+04-4.75991E+04 1.73393E+03 1.13812E-08-6.47015E-09
 -1       822-3.92199E+05-2.37496E+04-3.35587E+04-3.47264E+03 4.03702E-09-7.37009E-09
 -1       823-3.79878E+05 3.22535E+03-1.23075E+04 2.64221E+03-9.86768E-09-4.93810E-09
 -1       824-3.83138E+05-3.72360E+03-7.72032E+03-4.00788E+03 2.54109E-09 6.10817E-09
 -1       825-3.81344E+05 5.01063E+02-3.21252E+03 2.26923E+03 1.72343E-08 3.35626E-09
 -1       826-3.81085E+05-5.70892E+02-1.79307E+03-2.19012E+03 2.12294E-08 3.74894E-09
 -1       827-3.81916E+05 6.35913E+01-1.09879E+03 8.24369E+02 9.89485E-09-1.34175E-08
 -1       828-3.80622E+05-1.52216E+02-7.03515E+02 9.85733E+02-2.25162E-09 1.96689E-08
 -1       829-3.81800E+05 7.74126E+01-1.09717E+03-9.06652E+02 5.20672E-10 1.17516E-08
 -1       830-3.81342E+05-6.14600E+02-1.91049E+03 3.78689E+03 1.61245E-09 8.70378E-09
 -1       831-3.81210E+05 5.36390E+02-3.30312E+03-1.97682E+03-5.08795E-09-3.05226E-09
 -1       832-3.83224E+05-3.88057E+03-8.01961E+03 4.68250E+03-3.23403E-09-3.50155E-11
 -1       833-3.79928E+05 3.34751E+03-1.27972E+04-1.80228E+03-3.94108E-09 1.53768E-08
 -1       834-3.92360E+05-2.46534E+04-3.47890E+04 3.15612E+03-1.98741E-09 6.68979E-09
 -1       835-3.72066E+05 2.12834E+04-4.94407E+04-4.50393E+02 5.51788E-09 1.02300E-08
 -1       836-1.36871E+03 3.60315E+05 2.22574E+04-1.62376E+04-6.09089E-09 2.03322E-08
 -1       837 4.75489E+03 3.67281E+05 1.88524E+04-3.31009E+04-6.56848E-09 1.97740E-08
 -1       838-5.38818E+02 3.62266E+05 1.92341E+04-1.61667E+04-5.42286E-09-4.69527E-10
 -1       839 1.21251E+04 3.72771E+05 3.64106E+04-3.31518E+04-5.87897E-09-1.49528E-08
 -1       840-3.74163E+03 3.54768E+05 5.80725E+04-1.61915E+04-5.28962E-09-1.21956E-08
 -1       856-5.52602E+04 7.99202E+03-2.10608E+04-3.98776E+02 5.11181E-09-1.09731E-08
 -1       857-6.39392E+04-9.38843E+03-1.44982E+04 5.54368E+03 8.83779E-09-9.22500E-09
 -1       858-5.86964E+04 1.12069E+03-5.46486E+03-4.22787E+02 3.21717E-09 1.20885E-08
 -1       859-5.99956E+04-1.31663E+03-3.29801E+03 5.57967E+03 8.74238E-10 1.28325E-08
 -1       860-5.92098E+04 1.56832E+02-1.38256E+03-4.34542E+02 3.44357E-10 4.54372E-09
 -1       861-5.94050E+04-1.85521E+02-7.61328E+02 5.59570E+03 1.10608E-09-1.21186E-08
 -1       862-5.92901E+04 2.11789E+01-3.17990E+02-4.38803E+02-4.51017E-10 3.16305E-09
 -1       863-5.93069E+04-2.03973E+01-1.19277E+02 5.59813E+03-1.67678E-09-1.33517E-09
 -1       864-5.93084E+04-4.54627E+00 3.92621E+01-4.36969E+02-5.20345E-10-2.21530E-09
 -1       865-5.92535E+04 5.72821E+01 2.36964E+02 5.58780E+03-1.24601E-10-2.69267E-10
 -1       866-5.93413E+04-5.65629E+01 4.81523E+02-4.28470E+02 8.34746E-10 6.13119E-09
 -1       867-5.90259E+04 4.67546E+02 1.18780E+03 5.56470E+03 1.98668E-09 3.38827E-09
 -1       868-5.95312E+04-4.07531E+02 1.97436E+03-4.13869E+02-2.76532E-09 3.46881E-09
 -1       869-5.75777E+04 3.39166E+03 5.25804E+03 5.52654E+03-5.03547E-10-1.10972E-08
 -1       870-6.07820E+04-2.90145E+03 7.63042E+03-3.90232E+02-3.30272E-09 1.10099E-08
 -1       871-5.42182E+03-2.00797E+04-1.89788E+04 1.26898E+05-5.10590E-09-3.53248E-09
 -1       872-1.99226E+03-2.44771E+04-7.93157E+03 1.64541E+05-1.01718E-08 1.08776E-08
 -1       873 3.48049E+02-2.23579E+04 6.12806E+02 1.26620E+05-5.77347E-09 8.70045E-10
 -1       874 3.17959E+03-1.99767E+04 9.61265E+03 1.64571E+05-8.98399E-09-8.27413E-10
 -1       875 6.67073E+03-2.46475E+04 2.16555E+04 1.26852E+05-4.35830E-09 6.76573E-09
 -1       876 2.87706E+05 4.85718E+04 1.48231E+04 1.15554E+05 2.40630E-09-7.29415E-10
 -1       877 2.88678E+05 5.17023E+04 7.91611E+03 1.19814E+05 7.33780E-09-5.21959E-09
 -1       878 2.89092E+05 4.69301E+04 3.31646E+03 1.16769E+05-2.54886E-09-7.13840E-09
 -1       879 2.86663E+05 4.96916E+04 1.65245E+03 1.19915E+05 7.51925E-10-2.02025E-08
 -1       880 2.89192E+05 4.69130E+04 7.69670E+02 1.16818E+05-7.76254E-10-8.32040E-09
 -1       881 2.86529E+05 4.96056E+04 4.10976E+02 1.19892E+05-4.55896E-09 1.42563E-09
 -1       882 2.89201E+05 4.69260E+04 2.62852E+02 1.16820E+05 9.21773E-10 3.02404E-09
 -1       883 2.86519E+05 4.96012E+04 2.82468E+02 1.19884E+05 1.57820E-09 1.28904E-08
 -1       884 2.89194E+05 4.69232E+04 4.49242E+02 1.16820E+05-3.33830E-09-4.10563E-09
 -1       885 2.86555E+05 4.96074E+04 9.03164E+02 1.19895E+05-4.23324E-09 1.48588E-08
 -1       886 2.89159E+05 4.68969E+04 1.82026E+03 1.16817E+05-7.00353E-09 1.27125E-09
 -1       887 2.86875E+05 4.98171E+04 3.97610E+03 1.19941E+05-1.56660E-09-1.77470E-08
 -1       888 2.88908E+05 4.69411E+04 8.01195E+03 1.16689E+05 4.57575E-09 1.79170E-10
 -1       889 2.91645E+05 5.47772E+04 1.91391E+04 1.19795E+05 4.95930E-09 1.92940E-08
 -1       890 2.85639E+05 5.08248E+04 3.58470E+04 1.13639E+05 3.42925E-09-3.25053E-09
 -1       891-9.60708E+01-1.59692E+05-1.95443E+03 2.69062E+04-1.37493E-09 4.50041E-09
 -1       892-1.84833E+02-1.60204E+05-2.10044E+03 4.08428E+04 3.39287E-09 7.72161E-10
 -1       893 3.41169E+01-1.59755E+05-2.97539E+03 2.69133E+04-1.28148E-09 8.24548E-09
 -1       894-1.49347E+03-1.61329E+05-6.15895E+03 4.06922E+04 3.19687E-09 1.40390E-08
 -1       895-1.18434E+03-1.58472E+05-1.08463E+04 2.70582E+04-2.34309E-10 7.99082E-09
 -1       956-3.68930E+05-5.31151E+03-1.31424E+04 2.96547E+04 2.13277E-09-1.91176E-08
 -1       957-3.71511E+05-1.86386E+03-6.74590E+03 3.56458E+04-5.89353E-10-2.93066E-08
 -1       958-3.70110E+05-2.23699E+02-3.03985E+03 2.94917E+04-2.33740E-09-2.12249E-08
 -1       959-3.70303E+05-1.19598E+02-1.55225E+03 3.58346E+04 6.09862E-09-4.53201E-09
 -1       960-3.70224E+05-3.28380E+01-7.56941E+02 2.94750E+04 4.07272E-09-3.60137E-09
 -1       961-3.70224E+05-4.88299E+01-4.01377E+02 3.58543E+04 5.24415E-09 9.47648E-09
 -1       962-3.70250E+05-3.44407E+01-2.29840E+02 2.94723E+04 6.32735E-09 2.28274E-08
 -1       963-3.70224E+05-4.49811E+01-1.84591E+02 3.58578E+04 6.52722E-09 9.73159E-09
 -1       964-3.70255E+05-3.12320E+01-2.24543E+02 2.94715E+04 6.45059E-10 1.37106E-09
 -1       965-3.70236E+05-4.19896E+01-3.88423E+02 3.58571E+04-3.23479E-09-2.23936E-08
 -1       966-3.70240E+05-2.33012E+01-7.29818E+02 2.94729E+04 5.84896E-09-4.16890E-09
 -1       967-3.70324E+05-1.03704E+02-1.49687E+03 3.58434E+04 4.73506E-09 5.43150E-09
 -1       968-3.70139E+05-2.01203E+02-2.93026E+03 2.94851E+04 2.68756E-09 4.26132E-09
 -1       969-3.71500E+05-1.78033E+03-6.50521E+03 3.57014E+04 1.92131E-09-9.63644E-09
 -1       970-3.69010E+05-5.10365E+03-1.26724E+04 2.96078E+04 1.13960E-09 2.67664E-09
 -1       971-3.38625E+05-1.69984E+03-9.18964E+03 1.51658E+04 5.27052E-09-1.38124E-09
 -1       972-3.40839E+05-1.24806E+03-5.00458E+03 2.09976E+04 5.03587E-09-8.02720E-09
 -1       973-3.39648E+05-5.60087E+01-2.24156E+03 1.50456E+04 2.91857E-09 4.11933E-09
 -1       974-3.39784E+05-7.27786E+01-1.16188E+03 2.11331E+04-1.69894E-09-1.80485E-08
 -1       975-3.39729E+05-1.17838E+01-5.81095E+02 1.50334E+04 9.14497E-10 8.75696E-09
 -1       976-3.39723E+05-2.36336E+01-3.35808E+02 2.11486E+04 3.48109E-09 3.21654E-09
 -1       977-3.39746E+05-1.11053E+01-2.44728E+02 1.50301E+04-8.16271E-09 3.76326E-09
 -1       978-3.39728E+05-1.75345E+01-2.87748E+02 2.11533E+04-1.00927E-08-4.10137E-09
 -1       979-3.39745E+05-2.81380E+00-4.63497E+02 1.50287E+04-1.04819E-09 5.56270E-09
 -1       980-3.39763E+05-1.45372E+01-8.95691E+02 2.11542E+04-2.72540E-09-1.43746E-09
 -1       981-3.39717E+05 1.95675E+01-1.73513E+03 1.50292E+04-3.00088E-09-1.03537E-08
 -1       982-3.40001E+05-1.42741E+02-3.58670E+03 2.11477E+04-6.44377E-09-9.67814E-09
 -1       983-3.39498E+05-9.15337E+01-6.96909E+03 1.50352E+04-4.11819E-09-1.67302E-09
 -1       984-3.43353E+05-3.78248E+03-1.56070E+04 2.10631E+04-1.64641E-09 5.25120E-09
 -1       985-3.36343E+05-5.19109E+03-2.86593E+04 1.51073E+04-8.70295E-09 1.59926E-08
 -3
    1PSTEP                        35          18           1          
  100CL  118 6.57166E-01         409                     0   18           1
 -4  DISP        4    1
 -5  D1          1    2    1    0
 -5  D2          1    2    2    0
 -5  D3          1    2    3    0
 -5  ALL         1    2    0    0    1ALL
 -1         1 2.44403E-03 0.00000E+00 0.00000E+00
 -1         2 1.97373E-03-7.22632E-27 0.00000E+00
 -1         3 3.32514E-04-9.58435E-28 0.00000E+00
 -1         5 1.73434E-04-1.04584E-28 0.00000E+00
 -1         8 2.42963E-03-4.65324E-07 0.00000E+00
 -1         9 2.38168E-03-2.23528E-05 0.00000E+00
 -1        10 3.01524E-04-3.56855E-06 0.00000E+00
 -1        12 1.75117E-04 7.96204E-07-8.27181E-25
 -1        15 2.41217E-03-5.03008E-07 0.00000E+00
 -1        16 2.42445E-03-2.37686E-05 0.00000E+00
 -1        17 2.05525E-04-8.05881E-06 0.00000E+00
 -1        18 1.78596E-04 3.21766E-05 0.00000E+00
 -1        19 1.80167E-04 1.58644E-06 0.00000E+00
 -1        20 1.80309E-04-8.03161E-06 0.00000E+00
 -1        21 1.79437E-04-2.14978E-05 3.30872E-24
 -1        24 3.03302E-05-1.21784E-05 0.00000E+00
 -1        25 1.88560E-04 3.23970E-05 0.00000E+00
 -1        26 1.89253E-04 2.19735E-06 0.00000E+00
 -1        27 1.87088E-04-1.15404E-05 0.00000E+00
 -1        28 1.86760E-04-2.21135E-05 0.00000E+00
 -1        32 0.00000E+00 0.00000E+00 0.00000E+00
 -1        33 1.97319E-04 2.94007E-06 0.00000E+00
 -1        34 1.95229E-04-1.15937E-05 0.00000E+00
 -1        35 1.93320E-04-2.24515E-05 0.00000E+00
 -1        51 2.44311E-03-9.25196E-08 6.61744E-24
 -1        52 2.44139E-03-1.68160E-07 0.00000E+00
 -1        53 2.43902E-03-2.41013E-07 0.00000E+00
 -1        54 2.43616E-03-3.13310E-07 0.00000E+00
 -1        55 2.43298E-03-3.86741E-07-8.27181E-25
 -1        56 2.43894E-03 2.51003E-06 0.00000E+00
 -1        57 2.43090E-03 1.23396E-05-5.29396E-23
 -1        58 2.42064E-03 2.78718E-05-1.05879E-22
 -1        59 2.40896E-03 4.69258E-05 0.00000E+00
 -1        60 2.39697E-03 6.67406E-05 0.00000E+00
 -1        61 2.38581E-03 8.44801E-05 5.29396E-23
 -1        62 2.37643E-03 9.76663E-05 0.00000E+00
 -1        63 2.36963E-03 1.04207E-04-5.29396E-23
 -1        64 2.36570E-03 1.03162E-04 0.00000E+00
 -1        65 2.36470E-03 9.42479E-05-5.29396E-23
 -1        66 2.36616E-03 7.85606E-05 0.00000E+00
 -1        67 2.36943E-03 5.77969E-05 0.00000E+00
 -1        68 2.37359E-03 3.45512E-05-1.05879E-22
 -1        69 2.37764E-03 1.16483E-05 0.00000E+00
 -1        70 2.38060E-03-8.16135E-06 0.00000E+00
 -1        86 1.99829E-03-1.41163E-06 0.00000E+00
 -1        87 2.07084E-03-5.06676E-06 0.00000E+00
 -1        88 2.16913E-03-1.07280E-05 0.00000E+00
 -1        89 2.26987E-03-1.66249E-05-1.32349E-23
 -1        90 2.34858E-03-2.07131E-05 0.00000E+00
 -1       121 3.31643E-04-5.78059E-07-1.32349E-23
 -1       122 3.29035E-04-1.15903E-06 6.61744E-24
 -1       123 3.24698E-04-1.74576E-06-1.32349E-23
 -1       124 3.18651E-04-2.34113E-06 0.00000E+00
 -1       125 3.10916E-04-2.94760E-06 1.32349E-23
 -1       191 1.73481E-04 1.32754E-07 0.00000E+00
 -1       192 1.73621E-04 2.65499E-07 1.24077E-24
 -1       193 1.73855E-04 3.98227E-07 2.48154E-24
 -1       194 1.74182E-04 5.30928E-07 0.00000E+00
 -1       195 1.74603E-04 6.63591E-07-2.89513E-24
 -1       251 2.42902E-03 2.12877E-05 6.61744E-24
 -1       252 2.42697E-03 8.03742E-05 3.30872E-24
 -1       253 2.42311E-03 1.66007E-04 6.61744E-24
 -1       254 2.41787E-03 2.67030E-04 3.30872E-24
 -1       255 2.41267E-03 3.67630E-04 0.00000E+00
 -1       256 2.40892E-03 4.52004E-04 0.00000E+00
 -1       257 2.40697E-03 5.09228E-04-1.32349E-23
 -1       258 2.40640E-03 5.28761E-04 0.00000E+00
 -1       259 2.40585E-03 5.10031E-04 0.00000E+00
 -1       260 2.40391E-03 4.53100E-04 6.61744E-24
 -1       261 2.40010E-03 3.68083E-04-1.32349E-23
 -1       262 2.39470E-03 2.65493E-04-6.61744E-24
 -1       263 2.38913E-03 1.61104E-04 0.00000E+00
 -1       264 2.38487E-03 7.07101E-05-6.61744E-24
 -1       265 2.38247E-03 5.82863E-06 0.00000E+00
 -1       266 2.42672E-03-4.78243E-07 0.00000E+00
 -1       267 2.42381E-03-4.83715E-07 0.00000E+00
 -1       268 2.42090E-03-4.89658E-07 8.27181E-25
 -1       269 2.41799E-03-4.94204E-07-2.06795E-25
 -1       270 2.41508E-03-4.98717E-07-2.06795E-25
 -1       271 2.42774E-03 2.34304E-06 1.32349E-23
 -1       272 2.42575E-03 5.34381E-06 0.00000E+00
 -1       273 2.42376E-03 8.36992E-06-2.64698E-23
 -1       274 2.42181E-03 1.12426E-05 0.00000E+00
 -1       275 2.41999E-03 1.37878E-05 0.00000E+00
 -1       276 2.41836E-03 1.58328E-05 1.32349E-23
 -1       277 2.41698E-03 1.72104E-05-2.64698E-23
 -1       278 2.41591E-03 1.77593E-05-1.32349E-23
 -1       279 2.41521E-03 1.73263E-05-2.64698E-23
 -1       280 2.41493E-03 1.57674E-05 1.32349E-23
 -1       281 2.41512E-03 1.29497E-05 2.64698E-23
 -1       282 2.41583E-03 8.75189E-06 1.32349E-23
 -1       283 2.41708E-03 3.06641E-06-2.64698E-23
 -1       284 2.41892E-03-4.19971E-06-1.32349E-23
 -1       285 2.42136E-03-1.31256E-05 2.64698E-23
 -1       301 2.38947E-03-2.26165E-05 0.00000E+00
 -1       302 2.39593E-03-2.28423E-05-3.30872E-24
 -1       303 2.40187E-03-2.30620E-05 0.00000E+00
 -1       304 2.40806E-03-2.32820E-05 0.00000E+00
 -1       305 2.41533E-03-2.35107E-05 0.00000E+00
 -1       306 2.41752E-03-1.66036E-04-1.05879E-22
 -1       307 2.48192E-03-5.59175E-04-5.29396E-23
 -1       308 2.53324E-03-1.13920E-03 0.00000E+00
 -1       309 2.56344E-03-1.81674E-03-5.29396E-23
 -1       310 2.59858E-03-2.47252E-03-1.05879E-22
 -1       311 2.65832E-03-2.98919E-03 0.00000E+00
 -1       312 2.71826E-03-3.28833E-03 0.00000E+00
 -1       313 2.72472E-03-3.32851E-03-5.29396E-23
 -1       314 2.61035E-03-3.11718E-03-1.05879E-22
 -1       315 2.33462E-03-2.71016E-03 0.00000E+00
 -1       316 1.91099E-03-2.17973E-03 0.00000E+00
 -1       317 1.39686E-03-1.59428E-03-5.29396E-23
 -1       318 8.96601E-04-1.01695E-03-1.05879E-22
 -1       319 5.10468E-04-5.13439E-04 0.00000E+00
 -1       320 2.81221E-04-1.54167E-04-1.05879E-22
 -1       336 2.90297E-04-4.25340E-06-1.32349E-23
 -1       337 2.77065E-04-4.96234E-06 0.00000E+00
 -1       338 2.61893E-04-5.69729E-06 0.00000E+00
 -1       339 2.44855E-04-6.45877E-06 6.61744E-24
 -1       340 2.26034E-04-7.25104E-06 0.00000E+00
 -1       406 1.75725E-04 9.28751E-07-2.89513E-24
 -1       407 1.76426E-04 1.06120E-06 4.13590E-25
 -1       408 1.77222E-04 1.19349E-06 1.65436E-24
 -1       409 1.78110E-04 1.32547E-06-9.56428E-25
 -1       410 1.79092E-04 1.45686E-06-8.27181E-25
 -1       521 2.46098E-03-1.76386E-04 0.00000E+00
 -1       522 2.52406E-03-5.88859E-04 0.00000E+00
 -1       523 2.56982E-03-1.19550E-03-1.05879E-22
 -1       524 2.59176E-03-1.90057E-03 0.00000E+00
 -1       525 2.61962E-03-2.58212E-03 0.00000E+00
 -1       526 2.67591E-03-3.12032E-03 0.00000E+00
 -1       527 2.73540E-03-3.43053E-03 0.00000E+00
 -1       528 2.74020E-03-3.47022E-03-5.29396E-23
 -1       529 2.61594E-03-3.24636E-03 0.00000E+00
 -1       530 2.31966E-03-2.82171E-03 5.29396E-23
 -1       531 1.86517E-03-2.27207E-03-1.05879E-22
 -1       532 1.31549E-03-1.66880E-03-5.29396E-23
 -1       533 7.79950E-04-1.07317E-03 0.00000E+00
 -1       534 3.63613E-04-5.49153E-04 0.00000E+00
 -1       535 1.14898E-04-1.71114E-04 1.05879E-22
 -1       536 2.04809E-04 2.57002E-05 0.00000E+00
 -1       537 2.03004E-04 8.41973E-05 0.00000E+00
 -1       538 2.00217E-04 1.58446E-04 0.00000E+00
 -1       539 1.96932E-04 2.39378E-04-1.65436E-24
 -1       540 1.93974E-04 3.15857E-04 0.00000E+00
 -1       541 1.92049E-04 3.76768E-04-1.65436E-24
 -1       542 1.91156E-04 4.15548E-04 3.30872E-24
 -1       543 1.90937E-04 4.25775E-04 0.00000E+00
 -1       544 1.90625E-04 4.08211E-04 3.30872E-24
 -1       545 1.89513E-04 3.63826E-04 0.00000E+00
 -1       546 1.87449E-04 3.00516E-04 0.00000E+00
 -1       547 1.84662E-04 2.26297E-04 0.00000E+00
 -1       548 1.81902E-04 1.52468E-04 3.30872E-24
 -1       549 1.79909E-04 9.03321E-05-1.65436E-24
 -1       550 1.78871E-04 4.76789E-05 0.00000E+00
 -1       551 1.81141E-04-8.61839E-06 0.00000E+00
 -1       552 1.53575E-04-9.25377E-06 0.00000E+00
 -1       553 1.23760E-04-9.94801E-06 6.61744E-24
 -1       554 9.26484E-05-1.06809E-05-3.30872E-24
 -1       555 6.11897E-05-1.14262E-05 0.00000E+00
 -1       556 1.98153E-04 1.08025E-05 0.00000E+00
 -1       557 1.92204E-04 2.60825E-05 0.00000E+00
 -1       558 1.87546E-04 3.80613E-05-5.29396E-23
 -1       559 1.84051E-04 4.70415E-05 0.00000E+00
 -1       560 1.81592E-04 5.33258E-05 0.00000E+00
 -1       561 1.80044E-04 5.72192E-05 0.00000E+00
 -1       562 1.79286E-04 5.90282E-05 0.00000E+00
 -1       563 1.79198E-04 5.90601E-05 0.00000E+00
 -1       564 1.79661E-04 5.76228E-05 0.00000E+00
 -1       565 1.80558E-04 5.50251E-05 0.00000E+00
 -1       566 1.81772E-04 5.15761E-05 0.00000E+00
 -1       567 1.83186E-04 4.75856E-05 0.00000E+00
 -1       568 1.84688E-04 4.33631E-05 8.27181E-25
 -1       569 1.86160E-04 3.92184E-05 0.00000E+00
 -1       570 1.87488E-04 3.54613E-05 0.00000E+00
 -1       571 1.78691E-04 3.01931E-05-8.27181E-25
 -1       572 1.78788E-04 2.81453E-05-8.27181E-25
 -1       573 1.78886E-04 2.60484E-05 0.00000E+00
 -1       574 1.78984E-04 2.39183E-05-8.27181E-25
 -1       575 1.79082E-04 2.17710E-05 0.00000E+00
 -1       576 1.79180E-04 1.96224E-05 0.00000E+00
 -1       577 1.79279E-04 1.74885E-05 0.00000E+00
 -1       578 1.79377E-04 1.53854E-05 0.00000E+00
 -1       579 1.79475E-04 1.33291E-05 6.61744E-24
 -1       580 1.79574E-04 1.13356E-05 0.00000E+00
 -1       581 1.79672E-04 9.42092E-06 0.00000E+00
 -1       582 1.79771E-04 7.60109E-06 3.30872E-24
 -1       583 1.79870E-04 5.89209E-06 0.00000E+00
 -1       584 1.79969E-04 4.30976E-06 0.00000E+00
 -1       585 1.80068E-04 2.86976E-06 0.00000E+00
 -1       586 1.80214E-04 3.22154E-05 0.00000E+00
 -1       587 1.81793E-04 3.22537E-05 0.00000E+00
 -1       588 1.83374E-04 3.22916E-05 0.00000E+00
 -1       589 1.85001E-04 3.23288E-05 0.00000E+00
 -1       590 1.86716E-04 3.23648E-05 0.00000E+00
 -1       591 1.79273E-04 3.02832E-05-1.03398E-25
 -1       592 1.79955E-04 2.83692E-05 0.00000E+00
 -1       593 1.80641E-04 2.64403E-05 8.27181E-25
 -1       594 1.81331E-04 2.45014E-05 4.13590E-25
 -1       595 1.82022E-04 2.25574E-05 8.27181E-25
 -1       596 1.82714E-04 2.06129E-05-4.13590E-25
 -1       597 1.83404E-04 1.86728E-05 0.00000E+00
 -1       598 1.84090E-04 1.67418E-05 4.13590E-25
 -1       599 1.84772E-04 1.48248E-05-8.27181E-25
 -1       600 1.85446E-04 1.29265E-05 4.13590E-25
 -1       601 1.86112E-04 1.10516E-05 8.27181E-25
 -1       602 1.86767E-04 9.20489E-06-2.06795E-25
 -1       603 1.87410E-04 7.39121E-06 4.13590E-25
 -1       604 1.88039E-04 5.61540E-06 5.16988E-26
 -1       605 1.88653E-04 3.88215E-06 0.00000E+00
 -1       606 1.80180E-04 5.32087E-07 0.00000E+00
 -1       607 1.80190E-04-4.35173E-07-1.65436E-24
 -1       608 1.80199E-04-1.32045E-06 0.00000E+00
 -1       609 1.80208E-04-2.12951E-06 1.65436E-24
 -1       610 1.80216E-04-2.86818E-06 0.00000E+00
 -1       611 1.80225E-04-3.54233E-06 0.00000E+00
 -1       612 1.80233E-04-4.15784E-06 0.00000E+00
 -1       613 1.80242E-04-4.72061E-06 0.00000E+00
 -1       614 1.80250E-04-5.23655E-06-1.65436E-24
 -1       615 1.80259E-04-5.71152E-06 0.00000E+00
 -1       616 1.80267E-04-6.15145E-06 0.00000E+00
 -1       617 1.80276E-04-6.56223E-06 0.00000E+00
 -1       618 1.80284E-04-6.94973E-06 0.00000E+00
 -1       619 1.80293E-04-7.31987E-06 0.00000E+00
 -1       620 1.80301E-04-7.67853E-06 2.06795E-25
 -1       621 1.81410E-04 1.68877E-06-1.65436E-24
 -1       622 1.82804E-04 1.79137E-06-8.27181E-25
 -1       623 1.84317E-04 1.89377E-06-1.65436E-24
 -1       624 1.85917E-04 1.99587E-06 1.65436E-24
 -1       625 1.87573E-04 2.09769E-06-1.65436E-24
 -1       626 1.80673E-04 5.67631E-07 3.30872E-24
 -1       627 1.81156E-04-3.86587E-07 0.00000E+00
 -1       628 1.81617E-04-1.28409E-06 0.00000E+00
 -1       629 1.82061E-04-2.13310E-06-1.65436E-24
 -1       630 1.82489E-04-2.94183E-06 3.30872E-24
 -1       631 1.82906E-04-3.71855E-06 0.00000E+00
 -1       632 1.83314E-04-4.47148E-06-3.30872E-24
 -1       633 1.83716E-04-5.20891E-06 0.00000E+00
 -1       634 1.84115E-04-5.93908E-06 0.00000E+00
 -1       635 1.84515E-04-6.67022E-06 0.00000E+00
 -1       636 1.84918E-04-7.41062E-06 0.00000E+00
 -1       637 1.85327E-04-8.16850E-06 0.00000E+00
 -1       638 1.85746E-04-8.95214E-06 0.00000E+00
 -1       639 1.86178E-04-9.76980E-06 0.00000E+00
 -1       640 1.86625E-04-1.06298E-05-1.65436E-24
 -1       656 1.80895E-04-8.60194E-06 0.00000E+00
 -1       657 1.81899E-04-9.19544E-06-6.61744E-24
 -1       658 1.83182E-04-9.78752E-06 1.32349E-23
 -1       659 1.84597E-04-1.03793E-05 6.61744E-24
 -1       660 1.85960E-04-1.09728E-05 6.61744E-24
 -1       661 1.80529E-04-8.42879E-06 0.00000E+00
 -1       662 1.80785E-04-8.91593E-06 0.00000E+00
 -1       663 1.81073E-04-9.48796E-06 0.00000E+00
 -1       664 1.81391E-04-1.01386E-05 0.00000E+00
 -1       665 1.81737E-04-1.08622E-05 0.00000E+00
 -1       666 1.82108E-04-1.16531E-05 0.00000E+00
 -1       667 1.82501E-04-1.25057E-05 1.65436E-24
 -1       668 1.82916E-04-1.34147E-05 8.27181E-25
 -1       669 1.83351E-04-1.43749E-05 1.65436E-24
 -1       670 1.83802E-04-1.53811E-05 0.00000E+00
 -1       671 1.84268E-04-1.64284E-05 0.00000E+00
 -1       672 1.84748E-04-1.75118E-05 0.00000E+00
 -1       673 1.85240E-04-1.86265E-05 0.00000E+00
 -1       674 1.85741E-04-1.97681E-05 0.00000E+00
 -1       675 1.86250E-04-2.09313E-05 0.00000E+00
 -1       676 1.80662E-04-2.16010E-05 0.00000E+00
 -1       677 1.81886E-04-2.17042E-05 0.00000E+00
 -1       678 1.83108E-04-2.18073E-05-3.30872E-24
 -1       679 1.84329E-04-2.19101E-05 0.00000E+00
 -1       680 1.85546E-04-2.20129E-05 1.65436E-24
 -1       771 1.87674E-05 1.36239E-05 0.00000E+00
 -1       772 9.03040E-06 3.48193E-05 5.29396E-23
 -1       773 1.03172E-06 5.16310E-05 0.00000E+00
 -1       774-5.34794E-06 6.43085E-05 0.00000E+00
 -1       775-1.02254E-05 7.31113E-05-5.29396E-23
 -1       776-1.37224E-05 7.83149E-05 2.64698E-23
 -1       777-1.59601E-05 8.02045E-05-5.29396E-23
 -1       778-1.70627E-05 7.90784E-05 0.00000E+00
 -1       779-1.71536E-05 7.52430E-05 5.29396E-23
 -1       780-1.63582E-05 6.90154E-05 0.00000E+00
 -1       781-1.48011E-05 6.07195E-05 5.29396E-23
 -1       782-1.26085E-05 5.06873E-05 2.64698E-23
 -1       783-9.90575E-06 3.92555E-05-5.29396E-23
 -1       784-6.81935E-06 2.67664E-05 0.00000E+00
 -1       785-3.47498E-06 1.35653E-05 0.00000E+00
 -1       786 1.88599E-04 3.02845E-05 0.00000E+00
 -1       787 1.88642E-04 2.82215E-05 0.00000E+00
 -1       788 1.88684E-04 2.61997E-05 0.00000E+00
 -1       789 1.88728E-04 2.42110E-05 8.27181E-25
 -1       790 1.88771E-04 2.22508E-05 0.00000E+00
 -1       791 1.88814E-04 2.03143E-05 0.00000E+00
 -1       792 1.88858E-04 1.83994E-05-1.65436E-24
 -1       793 1.88902E-04 1.65038E-05 0.00000E+00
 -1       794 1.88945E-04 1.46276E-05-1.65436E-24
 -1       795 1.88989E-04 1.27704E-05 8.27181E-25
 -1       796 1.89033E-04 1.09343E-05 0.00000E+00
 -1       797 1.89077E-04 9.12115E-06 8.27181E-25
 -1       798 1.89120E-04 7.33520E-06 0.00000E+00
 -1       799 1.89164E-04 5.58084E-06 8.27181E-25
 -1       800 1.89209E-04 3.86566E-06-1.65436E-24
 -1       801 1.44653E-04 2.90859E-05 0.00000E+00
 -1       802 1.18077E-05 1.82088E-05 0.00000E+00
 -1       803-1.02034E-04 9.22972E-06 0.00000E+00
 -1       804-9.11064E-05 6.40470E-06 0.00000E+00
 -1       805-3.01749E-05 2.55364E-06 0.00000E+00
 -1       806 1.89239E-04 3.02169E-05-3.30872E-24
 -1       807 1.89904E-04 2.80628E-05 0.00000E+00
 -1       808 1.90556E-04 2.59398E-05-3.30872E-24
 -1       809 1.91195E-04 2.38519E-05-1.65436E-24
 -1       810 1.91819E-04 2.18032E-05-3.30872E-24
 -1       811 1.92428E-04 1.97973E-05 1.65436E-24
 -1       812 1.93018E-04 1.78381E-05-3.30872E-24
 -1       813 1.93590E-04 1.59296E-05-1.65436E-24
 -1       814 1.94142E-04 1.40755E-05 0.00000E+00
 -1       815 1.94672E-04 1.22796E-05-8.27181E-25
 -1       816 1.95178E-04 1.05458E-05 0.00000E+00
 -1       817 1.95660E-04 8.87786E-06 8.27181E-25
 -1       818 1.96117E-04 7.27952E-06 1.65436E-24
 -1       819 1.96546E-04 5.75463E-06 1.65436E-24
 -1       820 1.96946E-04 4.30691E-06-3.30872E-24
 -1       821 1.89126E-04 6.85894E-08-1.65436E-24
 -1       822 1.88988E-04-3.02316E-06 0.00000E+00
 -1       823 1.88849E-04-6.70824E-06-3.30872E-24
 -1       824 1.88708E-04-1.06133E-05 0.00000E+00
 -1       825 1.88567E-04-1.43061E-05-3.30872E-24
 -1       826 1.88428E-04-1.73557E-05 0.00000E+00
 -1       827 1.88292E-04-1.95047E-05 0.00000E+00
 -1       828 1.88157E-04-2.05013E-05 0.00000E+00
 -1       829 1.88023E-04-2.04045E-05 0.00000E+00
 -1       830 1.87888E-04-1.92801E-05 0.00000E+00
 -1       831 1.87752E-04-1.74710E-05 3.30872E-24
 -1       832 1.87616E-04-1.53246E-05-1.65436E-24
 -1       833 1.87480E-04-1.32791E-05 0.00000E+00
 -1       834 1.87346E-04-1.17722E-05 0.00000E+00
 -1       835 1.87213E-04-1.10968E-05 8.27181E-25
 -1       836 1.90806E-04 2.32055E-06 0.00000E+00
 -1       837 1.92234E-04 2.44682E-06-1.65436E-24
 -1       838 1.93567E-04 2.57303E-06 0.00000E+00
 -1       839 1.94837E-04 2.69853E-06 0.00000E+00
 -1       840 1.96077E-04 2.82387E-06 8.27181E-25
 -1       856 1.87071E-04-1.24732E-05 0.00000E+00
 -1       857 1.87051E-04-1.32715E-05 0.00000E+00
 -1       858 1.87031E-04-1.39561E-05 4.13590E-25
 -1       859 1.87011E-04-1.45480E-05 0.00000E+00
 -1       860 1.86990E-04-1.50683E-05 0.00000E+00
 -1       861 1.86970E-04-1.55382E-05-2.06795E-25
 -1       862 1.86949E-04-1.59787E-05-8.27181E-25
 -1       863 1.86929E-04-1.64111E-05-4.13590E-25
 -1       864 1.86908E-04-1.68566E-05 0.00000E+00
 -1       865 1.86888E-04-1.73363E-05-4.13590E-25
 -1       866 1.86867E-04-1.78713E-05 8.27181E-25
 -1       867 1.86846E-04-1.84828E-05 4.13590E-25
 -1       868 1.86825E-04-1.91919E-05 0.00000E+00
 -1       869 1.86804E-04-2.00195E-05 0.00000E+00
 -1       870 1.86783E-04-2.09864E-05 8.27181E-25
 -1       871 1.88305E-04-1.15449E-05 8.27181E-25
 -1       872 1.89667E-04-1.15528E-05 0.00000E+00
 -1       873 1.91107E-04-1.15613E-05 0.00000E+00
 -1       874 1.92559E-04-1.15706E-05 2.84343E-25
 -1       875 1.93956E-04-1.15805E-05 6.20385E-25
 -1       876 1.87564E-04-1.24589E-05 0.00000E+00
 -1       877 1.88017E-04-1.33112E-05-1.65436E-24
 -1       878 1.88449E-04-1.41052E-05 0.00000E+00
 -1       879 1.88863E-04-1.48483E-05 1.65436E-24
 -1       880 1.89260E-04-1.55477E-05 0.00000E+00
 -1       881 1.89643E-04-1.62109E-05-1.65436E-24
 -1       882 1.90016E-04-1.68450E-05 3.30872E-24
 -1       883 1.90381E-04-1.74575E-05 0.00000E+00
 -1       884 1.90740E-04-1.80555E-05-3.30872E-24
 -1       885 1.91096E-04-1.86463E-05 1.65436E-24
 -1       886 1.91453E-04-1.92372E-05 0.00000E+00
 -1       887 1.91812E-04-1.98356E-05 0.00000E+00
 -1       888 1.92176E-04-2.04486E-05 0.00000E+00
 -1       889 1.92548E-04-2.10838E-05 1.65436E-24
 -1       890 1.92930E-04-2.17484E-05-1.65436E-24
 -1       891 1.87995E-04-2.21703E-05-1.65436E-24
 -1       892 1.89207E-04-2.22272E-05-8.27181E-25
 -1       893 1.90370E-04-2.22840E-05 0.00000E+00
 -1       894 1.91460E-04-2.23406E-05-8.27181E-25
 -1       895 1.92451E-04-2.23969E-05 0.00000E+00
 -1       956 1.97190E-04 1.74456E-06-1.65436E-24
 -1       957 1.97059E-04 6.38743E-07-1.65436E-24
 -1       958 1.96929E-04-3.87876E-07-3.30872E-24
 -1       959 1.96798E-04-1.34637E-06 0.00000E+00
 -1       960 1.96667E-04-2.24784E-06 0.00000E+00
 -1       961 1.96536E-04-3.10346E-06 1.65436E-24
 -1       962 1.96405E-04-3.92436E-06-3.30872E-24
 -1       963 1.96274E-04-4.72175E-06 1.65436E-24
 -1       964 1.96143E-04-5.50678E-06-3.30872E-24
 -1       965 1.96012E-04-6.29062E-06-1.65436E-24
 -1       966 1.95881E-04-7.08447E-06 3.30872E-24
 -1       967 1.95750E-04-7.89949E-06-1.65436E-24
 -1       968 1.95619E-04-8.74685E-06-3.30872E-24
 -1       969 1.95488E-04-9.63768E-06 0.00000E+00
 -1       970 1.95358E-04-1.05831E-05 3.30872E-24
 -1       971 1.95111E-04-1.26026E-05 3.30872E-24
 -1       972 1.94991E-04-1.35173E-05-1.65436E-24
 -1       973 1.94871E-04-1.43482E-05 0.00000E+00
 -1       974 1.94751E-04-1.51061E-05 0.00000E+00
 -1       975 1.94631E-04-1.58018E-05 0.00000E+00
 -1       976 1.94511E-04-1.64461E-05-1.65436E-24
 -1       977 1.94391E-04-1.70500E-05 0.00000E+00
 -1       978 1.94272E-04-1.76241E-05 0.00000E+00
 -1       979 1.94152E-04-1.81794E-05 0.00000E+00
 -1       980 1.94032E-04-1.87268E-05 0.00000E+00
 -1       981 1.93912E-04-1.92771E-05 0.00000E+00
 -1       982 1.93792E-04-1.98411E-05 1.65436E-24
 -1       983 1.93672E-04-2.04297E-05-3.30872E-24
 -1       984 1.93553E-04-2.10538E-05-1.65436E-24
 -1       985 1.93435E-04-2.17242E-05 3.30872E-24
 -3
    1PSTEP                        36          18           1          
  100CL  118 6.57166E-01         409                     0   18           1
 -4  STRESS      6    1
 -5  SXX         1    4    1    1
 -5  SYY         1    4    2    2
 -5  SZZ         1    4    3    3
 -5  SXY         1    4    1    2
 -5  SYZ         1    4    2    3
 -5  SZX         1    4    3    1
 -1         1-4.90170E+06-1.76156E+06-1.07506E+06-1.64096E+06-1.13505E-09 1.92376E-07
 -1         2 1.07322E+05-6.57598E+05 4.37811E+05 6.99297E+05 8.74934E-09-6.76846E-08
 -1         3-1.39787E+03-1.64233E+06 4.17577E+02-2.25918E+03-7.50294E-10-3.90064E-08
 -1         5-6.26954E+01 3.80108E+05 9.82197E+00-1.18650E+00-4.44703E-10-6.30462E-09
 -1         8-3.38439E+05-1.28703E+05 9.72325E+03-2.32499E+05-5.51154E-10-6.94490E-09
 -1         9 9.85687E+06-4.01251E+05 1.68694E+06-1.28403E+06 2.48081E-08-1.66032E-07
 -1        10-2.26247E+03-1.71147E+06-4.05915E+03-1.52676E+04-1.31258E-08-5.13253E-08
 -1        12-5.88079E+01 3.80129E+05 3.22102E+02-8.14474E+00-5.96742E-10 1.20008E-08
 -1        15 1.10001E+03 6.04518E+02 3.55571E+03 1.38428E+00-5.46308E-10-2.62672E-07
 -1        16 2.06713E+07-1.44827E+05 2.87485E+06-1.72820E+06 1.87041E-08 6.12345E-08
 -1        17 7.41040E+06 5.46778E+06 2.00364E+06 5.30315E+06 1.67027E-08 2.27243E-08
 -1        18 1.30508E+05 3.02856E+04 1.76825E+03-1.16736E+05 1.28714E-08-4.59022E-09
 -1        19 1.20558E+05 1.39484E+05-9.30916E+02 2.17797E+04 1.52486E-09 8.87667E-10
 -1        20-7.93603E+04-5.65385E+05-1.26770E+05 2.55406E+04-1.75063E-09 1.58355E-08
 -1        21-4.54811E+01-2.93423E+05-9.17519E+02 2.46498E+02 1.86127E-08 1.35090E-08
 -1        24 1.22482E+07 1.05712E+07 3.42946E+06 9.82320E+06-1.53232E-07-5.47734E-08
 -1        25 1.03811E+05 1.89010E+05 8.00200E+04-5.98504E+05-1.35751E-09 1.86246E-09
 -1        26-5.42053E+04 9.07944E+04-2.42454E+04 7.61338E+02-7.27596E-11 5.83595E-09
 -1        27-7.54351E+04-3.05710E+05-1.11951E+05 6.80553E+04 3.85110E-09 3.19020E-09
 -1        28 2.20906E+04-8.44204E+04 1.67429E+04 2.07107E+04-3.49121E-09-1.51623E-09
 -1        32-1.66282E+06-3.10407E+06-1.86563E+05 3.70676E+05-4.07017E-08-6.36453E-09
 -1        33-1.76181E+05 9.14682E+04 3.19100E+04-3.83210E+04-3.19108E-09 1.52246E-08
 -1        34-2.20875E+05-2.45605E+04 6.73871E+02 7.43750E+04-4.90540E-09-1.39729E-09
 -1        35-2.27524E+04-3.34820E+04-1.33301E+03 5.10528E+04-2.59036E-09 2.88007E-09
 -1        51 5.57436E+04-1.93676E+05 1.19246E+05-5.35066E+05-7.27596E-11 3.89482E-08
 -1        52 1.93694E+04-1.73591E+05 6.33542E+04-6.23757E+05 3.75621E-10-2.14946E-07
 -1        53 4.57040E+03-1.89209E+05 3.42255E+04-5.33084E+05 3.27418E-10-3.12903E-07
 -1        54 9.36026E+03-1.85332E+05 3.06458E+04-6.25828E+05-3.27418E-11-2.20258E-07
 -1        55 2.00347E+04-1.93693E+05 4.02220E+04-5.32810E+05 4.36557E-10-1.23266E-07
 -1        56-9.18227E+06-1.09960E+06-8.06266E+05-3.66001E+06 4.29281E-09-1.11409E-07
 -1        57-9.83716E+06-1.42818E+06-5.33304E+05-3.19465E+06 2.02708E-08 1.33186E-07
 -1        58-9.22412E+06-1.45021E+06-1.88519E+05-3.72160E+06-1.88302E-08 1.18554E-07
 -1        59-9.80239E+06-1.00970E+06-1.10402E+05-3.14044E+06 4.85397E-09-5.57684E-08
 -1        60-9.23056E+06-1.49820E+06-4.34140E+04-3.72940E+06-1.29469E-08 5.04515E-08
 -1        61-9.68854E+06-1.03585E+06-2.09321E+04-3.20953E+06 2.93949E-09-1.52055E-07
 -1        62-9.32661E+06-1.43018E+06-1.80594E+04-3.64447E+06-2.30975E-08-1.78143E-07
 -1        63-9.43758E+06-1.24385E+06-1.55417E+03-3.42564E+06-1.42190E-08-1.25465E-07
 -1        64-9.46190E+06-1.30352E+06-1.99933E+04-3.49890E+06 5.37329E-09-1.56288E-07
 -1        65-9.21099E+06-1.48915E+06-1.55778E+04-3.71095E+06-1.59216E-08-1.52828E-07
 -1        66-9.55942E+06-1.18083E+06-4.22256E+04-3.36430E+06-2.72848E-09 4.11992E-08
 -1        67-9.12319E+06-1.67505E+06-9.78185E+04-3.90621E+06-3.73075E-08 1.25139E-07
 -1        68-9.57157E+06-1.10392E+06-1.66527E+05-3.31863E+06-6.50107E-09 1.21363E-08
 -1        69-9.29036E+06-1.93636E+06-4.78466E+05-3.84588E+06-2.92057E-08-2.76930E-07
 -1        70-9.39340E+06-9.28368E+05-7.17362E+05-3.42141E+06 4.93310E-09-2.73401E-07
 -1        86-1.08759E+05-3.93538E+06-2.41463E+05-3.45015E+05-7.97477E-08-6.43995E-08
 -1        87 1.42636E+05-1.95933E+06 1.94984E+05 9.65871E+05-1.38216E-07 2.36181E-07
 -1        88-1.30598E+04-2.77420E+06 6.00402E+03-6.17028E+05-1.21124E-07-4.31179E-08
 -1        89 1.88755E+05-2.06993E+06 1.63364E+05 1.01280E+06-1.82849E-07-2.84581E-08
 -1        90-1.41577E+05-3.83887E+06-2.78108E+05-3.93174E+05-4.85070E-08 1.88800E-07
 -1       121-1.92011E+03-1.64696E+06-4.72585E+02 1.12079E+03 1.44739E-09-1.07393E-08
 -1       122-1.20631E+03-1.64238E+06 8.04088E+02-4.51938E+03-5.21695E-09 5.47516E-10
 -1       123-1.94525E+03-1.64710E+06 3.84992E+02 3.34628E+03 4.17913E-09 1.99143E-08
 -1       124 5.06822E+02-1.64188E+06 3.11887E+03-9.42761E+03-1.01850E-08 1.39880E-09
 -1       125-2.80672E+03-1.64804E+06 3.78597E+03 5.98794E+03 5.94810E-09-1.51122E-08
 -1       191-6.61198E+01 3.80128E+05 8.92651E+00 6.15172E-01-5.23290E-10-8.36008E-09
 -1       192-6.36357E+01 3.80108E+05 2.09320E+01-3.85815E+00-7.42808E-10-1.85537E-08
 -1       193-6.85989E+01 3.80128E+05 3.61911E+01 3.37761E+00-9.70442E-10-2.38851E-08
 -1       194-6.66519E+01 3.80111E+05 7.95061E+01-8.77281E+00-4.87994E-10-1.61408E-08
 -1       195-7.33580E+01 3.80125E+05 1.52770E+02 5.67993E+00-1.35293E-09 3.43607E-09
 -1       251-1.57246E+06-7.16578E+04-1.82540E+05-1.08160E+05 3.48882E-09 7.36072E-08
 -1       252-1.57881E+05 7.56710E+04 1.39789E+05 3.15613E+05 3.69209E-09 2.13499E-08
 -1       253-9.84047E+05-8.69037E+03-2.68685E+04-2.01516E+05-5.17502E-09-1.39138E-07
 -1       254-7.69153E+05 3.93020E+04 2.85332E+04 4.04639E+05 1.61340E-08-2.48052E-07
 -1       255-9.95736E+05-5.78608E+03-2.17333E+04-2.00854E+05-1.17134E-08 2.09953E-07
 -1       256-1.42503E+05 4.32367E+04 1.53440E+05 3.09474E+05-1.31949E-08 1.38909E-07
 -1       257-1.57429E+06-4.33444E+04-1.41167E+05-1.02577E+05 1.14833E-08 7.50098E-08
 -1       258 4.91877E+05 5.15749E+04 2.78801E+05 7.75707E+03 3.09010E-08-2.13575E-07
 -1       259-1.59351E+06-4.52510E+04-1.43271E+05 9.85018E+04 1.33932E-08-1.12531E-07
 -1       260-9.82920E+04 4.71725E+04 1.67916E+05-2.99416E+05 3.28637E-08-7.68880E-08
 -1       261-1.01851E+06-1.03642E+04-1.62103E+04 2.01976E+05 9.51522E-08 4.41973E-08
 -1       262-7.62700E+05 5.37908E+04 5.49275E+04-4.01703E+05-1.97208E-08-2.92566E-08
 -1       263-9.67841E+05-1.90003E+04 1.89821E+04 2.04883E+05 1.59566E-08 8.60346E-08
 -1       264-1.68911E+05 1.56666E+05 2.44137E+05-3.24694E+05 1.42892E-07-1.69064E-07
 -1       265-1.58031E+06-1.40046E+05-1.68786E+04 1.21334E+05 4.81286E-08-3.19407E-07
 -1       266-1.99137E+04-9.31223E+03 4.67204E+04-2.96198E+01 1.76442E-10 3.30298E-08
 -1       267 2.30853E+04 1.08527E+04 3.30227E+04 3.41770E+01 1.25510E-10 9.39816E-08
 -1       268-3.09569E+03-1.53708E+03 1.22743E+04-4.35463E+00-4.68390E-11 1.85125E-07
 -1       269 3.65512E+03 1.83953E+03 7.97818E+03 5.07254E+00-6.36646E-11 1.18503E-07
 -1       270-5.48620E+02-3.02235E+02 3.85119E+03-6.88355E-01-1.20735E-10 1.19502E-07
 -1       271-1.86846E+06-2.21536E+05-1.40481E+05-7.11418E+05 1.84191E-08-1.56826E-07
 -1       272-1.98092E+06-2.62866E+05-9.04330E+04-6.40918E+05-1.90948E-08-2.28449E-07
 -1       273-1.89362E+06-2.57921E+05-3.31419E+04-7.06621E+05 8.73388E-09 8.16890E-08
 -1       274-1.95115E+06-2.18422E+05-1.85946E+04-6.48452E+05-3.38508E-08 1.34510E-07
 -1       275-1.89733E+06-2.61615E+05-7.72569E+03-7.05411E+05 2.26960E-08-4.17194E-08
 -1       276-1.94514E+06-2.15229E+05-4.02126E+03-6.50941E+05-3.85226E-08 2.28810E-07
 -1       277-1.89896E+06-2.61016E+05-2.05480E+03-7.03884E+05 1.94686E-08 2.73903E-07
 -1       278-1.94082E+06-2.17925E+05-1.17692E+03-6.54035E+05 3.20870E-09-2.29338E-08
 -1       279-1.90076E+06-2.59428E+05-1.44368E+03-7.01707E+05-1.23819E-08 7.39337E-08
 -1       280-1.93582E+06-2.22492E+05-1.87482E+03-6.58220E+05 9.34961E-10 7.74521E-08
 -1       281-1.90291E+06-2.57128E+05-4.01155E+03-6.98958E+05 2.66300E-09 8.28013E-08
 -1       282-1.93138E+06-2.30168E+05-8.42988E+03-6.63236E+05 2.93749E-08-2.18784E-07
 -1       283-1.90418E+06-2.52642E+05-1.58885E+04-6.95886E+05-1.68620E-08-9.99712E-08
 -1       284-1.93792E+06-2.57120E+05-4.16273E+04-6.66583E+05 2.61989E-08-1.20123E-07
 -1       285-1.89577E+06-2.32853E+05-6.58110E+04-6.94260E+05-5.08589E-09-3.86717E-09
 -1       301 7.60348E+03-5.64053E+05 1.76290E+05-9.66976E+05 1.31695E-09 5.22341E-08
 -1       302 8.16460E+03-5.17923E+05 1.06319E+05-1.41267E+06-5.79894E-09 1.72300E-07
 -1       303-1.11274E+04-5.51732E+05 6.22079E+04-9.64420E+05 1.72440E-09 5.63723E-08
 -1       304-6.79701E+03-5.23786E+05 6.62695E+04-1.41199E+06 5.82077E-10 5.95755E-08
 -1       305-1.05412E+04-5.45916E+05 8.68245E+04-9.67287E+05 2.97950E-09 9.56497E-08
 -1       306-2.84493E+07-5.84598E+06-8.01011E+06-9.20354E+05-9.12696E-08-5.35510E-08
 -1       307 2.40623E+07 2.56677E+06 5.19159E+06-1.37213E+07-7.99162E-07-5.19212E-08
 -1       308-7.58677E+06-9.59144E+05-5.80574E+05 4.88097E+06-2.13186E-07 3.60495E-07
 -1       309-3.76311E+06 7.64134E+06 1.99733E+06-1.94515E+07 3.49180E-07 1.67907E-07
 -1       310-1.13616E+07-1.54426E+06-1.59861E+06 4.83239E+06 1.04890E-07-1.58616E-09
 -1       311 3.28396E+07 3.87402E+04 6.41122E+06-9.29031E+06 7.18515E-07 1.68104E-07
 -1       312-2.95979E+07-5.92272E+06-7.65169E+06-4.04426E+06-1.58092E-07 3.12371E-07
 -1       313 4.26247E+07 1.19210E+07 9.75549E+06 2.03678E+07 1.44821E-07-1.59867E-07
 -1       314-1.74258E+07-1.56003E+07-6.97059E+06-1.17992E+07 5.51925E-07-4.94765E-09
 -1       315-6.65211E+05 2.65269E+07 5.33565E+06 1.11473E+07-2.21204E-07 9.17353E-08
 -1       316 6.45467E+05-9.55776E+06-5.52060E+05-3.24340E+06-1.43018E-06-2.17668E-07
 -1       317-1.72325E+07 2.09868E+07 1.96217E+06-6.97945E+06 6.87549E-07-6.50754E-07
 -1       318-1.07294E+06-1.13396E+07-1.63880E+06-4.32796E+06-9.36649E-07 2.10770E-07
 -1       319 5.57257E+06 2.80519E+07 6.18028E+06 1.47521E+07 2.25918E-08 2.45491E-07
 -1       320-2.10225E+07-1.58581E+07-8.88432E+06-1.17847E+07 2.03261E-07-4.61587E-08
 -1       336-5.07840E+02-1.78291E+06-1.42340E+04 9.12718E+03-2.58206E-08 9.82254E-09
 -1       337-5.47275E+03-1.78303E+06-1.85916E+04-2.20810E+04-4.77526E-08-2.28883E-08
 -1       338 4.82166E+02-1.78241E+06-2.90078E+04 1.27283E+04-3.33566E-08-1.55269E-08
 -1       339-3.07763E+04-1.80052E+06-6.57106E+04-2.91108E+04-6.20121E-08 2.73321E-08
 -1       340 2.05031E+04-1.76755E+06-1.03350E+05 1.60321E+04-3.99450E-08 3.44080E-08
 -1       406-3.69472E+01 3.80111E+05 6.33023E+02 2.89081E+00-1.74996E-09-1.35697E-08
 -1       407 1.63235E+02 3.80240E+05 1.35155E+03 2.15952E+01-4.16421E-10 1.49539E-08
 -1       408 6.35008E+02 3.80012E+05 2.69563E+03-2.48641E+01-2.15823E-09 5.99721E-09
 -1       409 2.86439E+03 3.81101E+05 6.07448E+03 2.63789E+02-3.72893E-10-6.11544E-09
 -1       410 8.33507E+03 3.79238E+05 1.23983E+04-2.54029E+02-2.80852E-09-2.54204E-08
 -1       521-2.99955E+07-7.18417E+06-9.35030E+06-5.79190E+05-9.88366E-08 1.12515E-07
 -1       522 2.48886E+07 3.35451E+06 5.27506E+06-1.69579E+07-5.13915E-07-1.61352E-07
 -1       523-8.25901E+06-1.26455E+06-5.93033E+05 5.32603E+06-8.43429E-08-2.92581E-07
 -1       524-7.10155E+06 1.03800E+07 2.15974E+06-2.23864E+07 8.46587E-07-5.43558E-07
 -1       525-1.22421E+07-2.07990E+06-1.75408E+06 5.27180E+06 5.32833E-07-1.84344E-07
 -1       526 3.56333E+07 4.58711E+04 6.73495E+06-1.18838E+07 4.89585E-07 8.68458E-08
 -1       527-3.13783E+07-7.44982E+06-8.80180E+06-3.91607E+06 3.39001E-07 2.66285E-07
 -1       528 4.65873E+07 1.31126E+07 1.01720E+07 2.30852E+07 4.25614E-07-2.87342E-07
 -1       529-1.84261E+07-1.76334E+07-7.98392E+06-1.19338E+07 1.52737E-07-1.66649E-07
 -1       530-2.98669E+06 3.08779E+07 5.63609E+06 1.10375E+07-3.59592E-07 7.25267E-07
 -1       531 5.95726E+05-1.06716E+07-5.48452E+05-3.31568E+06-9.64879E-07 2.88768E-07
 -1       532-2.00667E+07 2.31819E+07 2.14771E+06-1.07106E+07 3.45826E-07-5.37228E-07
 -1       533-1.13267E+06-1.24794E+07-1.73153E+06-4.30110E+06-1.53610E-07-1.03260E-06
 -1       534 3.57143E+06 3.25643E+07 6.43454E+06 1.52614E+07-5.06989E-08 7.04837E-07
 -1       535-2.21683E+07-1.80319E+07-1.01556E+07-1.19169E+07 7.81147E-08 4.56115E-07
 -1       536-6.87928E+05-4.70099E+04-3.80970E+04-5.21312E+04 1.15415E-09 5.81476E-08
 -1       537-7.25678E+04 4.55255E+04 8.39680E+04 1.18964E+05-9.74711E-08 8.81696E-08
 -1       538-3.93692E+05 2.68568E+03 5.20267E+03-6.97412E+04 1.58730E-08 1.04039E-07
 -1       539-2.75659E+05 3.11295E+03 2.44991E+04 1.33709E+05 1.46029E-07 1.21292E-07
 -1       540-4.89900E+05-3.87109E+02-1.94906E+04-6.73630E+04 1.75028E-08 9.61222E-08
 -1       541 1.15199E+05 1.59864E+04 1.00260E+05 9.37335E+04-4.09248E-08 6.62789E-08
 -1       542-7.74022E+05-1.89716E+04-7.91422E+04-2.89707E+04 3.27823E-08 3.83586E-08
 -1       543 3.58533E+05 2.57268E+04 1.48581E+05-1.29412E+04-5.13685E-08 2.12394E-08
 -1       544-7.26715E+05-1.55286E+04-7.03309E+04 3.87018E+04-1.60817E-08-2.30926E-08
 -1       545 3.92563E+03 8.81641E+03 7.48116E+04-1.09168E+05 9.19943E-09-9.10350E-08
 -1       546-4.28927E+05 5.82257E+03-1.15572E+04 6.69431E+04 4.88626E-08-8.96866E-08
 -1       547-2.93022E+05-4.68080E+03 9.45833E+03-1.36515E+05-1.04339E-07-1.11589E-07
 -1       548-4.37739E+05 4.63209E+03-2.31266E+04 6.66769E+04-9.37016E-08-1.05198E-07
 -1       549 2.26578E+04 1.38320E+04 5.52183E+04-1.06912E+05-6.18820E-08-6.64531E-08
 -1       550-7.36156E+05-1.97492E+04-1.23890E+05 3.66874E+04 7.83893E-09-4.74975E-08
 -1       551 3.96429E+04-7.77454E+05-1.13673E+04-1.23535E+06-1.00554E-07-2.77651E-08
 -1       552 9.01703E+04-8.19940E+05 1.25695E+04-1.76177E+06-6.98346E-08 1.48066E-08
 -1       553 6.90546E+04-8.17174E+05 3.38890E+04-1.22890E+06-1.15921E-07 2.79251E-08
 -1       554 1.28123E+05-8.34407E+05 8.33687E+04-1.76373E+06-7.31379E-08 2.05109E-08
 -1       555 9.88381E+04-8.40475E+05 1.51592E+05-1.22882E+06-1.18140E-07-1.08885E-08
 -1       556 2.15301E+05-3.70883E+05 3.34578E+04-3.98859E+05-2.13913E-08-1.75205E-08
 -1       557 3.43582E+05-4.73151E+05 1.99785E+04-5.15250E+05-1.58616E-09 1.34787E-08
 -1       558 1.98575E+05-3.65615E+05 4.22301E+03-4.01828E+05-1.80444E-08 1.35697E-08
 -1       559 3.18976E+05-4.74473E+05 3.29987E+03-5.34607E+05 1.91067E-08-3.14321E-09
 -1       560 1.84192E+05-3.56583E+05-9.38854E+02-4.12155E+05 8.81846E-09 8.54925E-09
 -1       561 3.00795E+05-4.67267E+05 3.54004E+02-5.46958E+05 1.19326E-09 1.13068E-08
 -1       562 1.72815E+05-3.49499E+05-1.12382E+03-4.20387E+05 3.47791E-09 5.93354E-09
 -1       563 2.87286E+05-4.61378E+05 2.46346E+01-5.55772E+05-6.30098E-09 5.16593E-09
 -1       564 1.64721E+05-3.44452E+05-5.24882E+02-4.26121E+05 8.01811E-09-3.24371E-09
 -1       565 2.78374E+05-4.57498E+05 4.01446E+01-5.61463E+05 1.18744E-08 9.52241E-10
 -1       566 1.60030E+05-3.41482E+05-2.30665E+02-4.29403E+05-7.64703E-09-5.92991E-09
 -1       567 2.74108E+05-4.55642E+05-3.38299E+02-5.64047E+05 2.55877E-08 1.51704E-09
 -1       568 1.58826E+05-3.40747E+05-1.06516E+03-4.30341E+05 1.05865E-09 2.54113E-08
 -1       569 2.73134E+05-4.55584E+05-2.69178E+03-5.62566E+05-3.08501E-09 2.46800E-08
 -1       570 1.62175E+05-3.43902E+05-5.89735E+03-4.29358E+05 7.34144E-09-5.82349E-09
 -1       571 2.85893E+05 1.03455E+04 1.48033E+04-9.23673E+04 2.77032E-09 2.80761E-09
 -1       572 2.88042E+05 3.87622E+03 7.25465E+03-1.01335E+05 1.35333E-09-5.18776E-09
 -1       573 2.86747E+05 1.19831E+03 3.22345E+03-9.21938E+04 3.17232E-09 1.61499E-08
 -1       574 2.86962E+05 6.82631E+02 1.61644E+03-1.01554E+05 3.65162E-09 1.36361E-08
 -1       575 2.86840E+05 4.10356E+02 7.62871E+02-9.21701E+04-1.01664E-09 1.34778E-08
 -1       576 2.86827E+05 4.18532E+02 3.90484E+02-1.01583E+05-8.13111E-09-3.40970E-09
 -1       577 2.86877E+05 3.54026E+02 1.94870E+02-9.21669E+04-2.57660E-09 5.63250E-09
 -1       578 2.86854E+05 3.82648E+02 1.12362E+02-1.01587E+05-3.11275E-09 5.05497E-09
 -1       579 2.86945E+05 3.20107E+02 7.70292E+01-9.21666E+04 3.36331E-09 1.23773E-08
 -1       580 2.86949E+05 3.35214E+02 8.89480E+01-1.01583E+05-1.08566E-08 1.98725E-08
 -1       581 2.87051E+05 2.65719E+02 1.34306E+02-9.21723E+04 3.29601E-09-2.34377E-09
 -1       582 2.87114E+05 3.01990E+02 2.72577E+02-1.01523E+05 7.45786E-11-2.05919E-08
 -1       583 2.87182E+05 3.10667E+02 5.23573E+02-9.22270E+04-1.12232E-08 1.27177E-08
 -1       584 2.87473E+05 7.37147E+02 1.18424E+03-1.01062E+05-1.52522E-08 2.97109E-09
 -1       585 2.87201E+05 1.73736E+03 2.39869E+03-9.26328E+04-1.04628E-08-1.39953E-08
 -1       586-3.37463E+03 1.13573E+05-2.97192E+03-2.47301E+05-8.95943E-09 1.07962E-08
 -1       587-1.27561E+03 1.13307E+05 7.01095E+02-2.72175E+05-6.50834E-09 1.19758E-08
 -1       588 4.41667E+02 1.13135E+05 4.64160E+03-2.47166E+05-4.93310E-09 3.20724E-08
 -1       589 5.04586E+03 1.15552E+05 1.20898E+04-2.71940E+05-9.30595E-09 7.93534E-09
 -1       590 1.63397E+04 1.11827E+05 2.53808E+04-2.47591E+05-4.45652E-09 1.28075E-08
 -1       591-7.27983E+04-1.57002E+04-2.20326E+04-3.12592E+04-4.26030E-09 9.77252E-09
 -1       592-7.67300E+04-1.92468E+04-1.19346E+04-3.48813E+04 2.15437E-09 9.10040E-09
 -1       593-7.50024E+04-1.41009E+04-4.96779E+03-3.28741E+04 6.57487E-10 1.25124E-08
 -1       594-7.36870E+04-1.60148E+04-2.47757E+03-3.49978E+04 2.83529E-09 9.94174E-09
 -1       595-7.51705E+04-1.40956E+04-1.13750E+03-3.29475E+04 6.82020E-09 8.16812E-10
 -1       596-7.34788E+04-1.58670E+04-5.78112E+02-3.49731E+04 1.75367E-08 1.38013E-09
 -1       597-7.51915E+04-1.41106E+04-3.14509E+02-3.29503E+04 8.75775E-09-1.52554E-08
 -1       598-7.34582E+04-1.58612E+04-2.52296E+02-3.49662E+04-2.02277E-09 2.51230E-08
 -1       599-7.51903E+04-1.41111E+04-3.21617E+02-3.29499E+04 4.08602E-09-1.40697E-08
 -1       600-7.34788E+04-1.58676E+04-5.96929E+02-3.49710E+04 1.18130E-08-2.20746E-09
 -1       601-7.51661E+04-1.40969E+04-1.17734E+03-3.29465E+04 5.55974E-09 1.41624E-08
 -1       602-7.36943E+04-1.60195E+04-2.56573E+03-3.49928E+04-3.52668E-09-1.16166E-08
 -1       603-7.49893E+04-1.41053E+04-5.14529E+03-3.28713E+04 1.83604E-09-6.49243E-09
 -1       604-7.68632E+04-1.93478E+04-1.23601E+04-3.48479E+04 1.28637E-10 1.32686E-08
 -1       605-7.26870E+04-1.57791E+04-2.28184E+04-3.12176E+04 3.87598E-09 1.57133E-08
 -1       606 2.69056E+04-1.40747E+04-2.52347E+04 2.43337E+04-4.27826E-09-9.45602E-09
 -1       607 2.25935E+04-4.59483E+03-1.25667E+04 2.73432E+04-1.67929E-08-6.62089E-09
 -1       608 2.50502E+04-8.27110E+02-5.62581E+03 2.41604E+04-1.14960E-08 1.79111E-08
 -1       609 2.45783E+04-2.80898E+02-2.84197E+03 2.75600E+04-1.84082E-09 2.69438E-09
 -1       610 2.48393E+04-3.73262E+01-1.35603E+03 2.41399E+04 3.07864E-09 5.82713E-09
 -1       611 2.47644E+04-3.66318E+01-6.83696E+02 2.75834E+04 7.72707E-09 5.47675E-09
 -1       612 2.47921E+04-2.32711E+01-3.25115E+02 2.41378E+04-2.92857E-09 3.77509E-09
 -1       613 2.47748E+04-3.20683E+01-1.45744E+02 2.75862E+04 4.60204E-10-2.61591E-08
 -1       614 2.47695E+04-2.90981E+01-3.43595E+01 2.41371E+04 4.26553E-10 1.36104E-08
 -1       615 2.47689E+04-3.01807E+01 6.06848E+01 2.75866E+04-7.03585E-09 2.20721E-08
 -1       616 2.47519E+04-2.56794E+01 1.82335E+02 2.41374E+04-1.89175E-10-1.14824E-09
 -1       617 2.47902E+04 9.01928E+00 4.16169E+02 2.75861E+04 6.30621E-09-6.74868E-09
 -1       618 2.47153E+04 9.45584E+01 8.38903E+02 2.41377E+04 1.88238E-08-2.62071E-09
 -1       619 2.50860E+04 6.57875E+02 1.88386E+03 2.75855E+04 2.28330E-08-4.54293E-09
 -1       620 2.44365E+04 2.08401E+03 3.78651E+03 2.41389E+04 1.10468E-08-3.85671E-09
 -1       621 4.88599E+02 2.96472E+05 3.78309E+03 3.88879E+04 9.00855E-10-2.29102E-09
 -1       622 6.42663E+02 2.97351E+05 3.36535E+03 5.64644E+04 1.04592E-09-1.94618E-08
 -1       623 1.27476E+02 2.96665E+05 4.05540E+03 3.87115E+04 1.34401E-09-3.08683E-09
 -1       624 2.06440E+03 2.98554E+05 7.87056E+03 5.66383E+04 1.18456E-09 1.06775E-09
 -1       625 2.02279E+03 2.95105E+05 1.37579E+04 3.87084E+04 1.29057E-09-1.81963E-08
 -1       626 2.56832E+05 6.09696E+04 5.07895E+03 1.25418E+05 3.63616E-09 8.17636E-09
 -1       627 2.54498E+05 6.23903E+04 2.44751E+03 1.29695E+05 1.88447E-09 1.83002E-09
 -1       628 2.56961E+05 5.86430E+04 1.03504E+03 1.26278E+05-2.12858E-08-3.00101E-08
 -1       629 2.53864E+05 6.17194E+04 5.06620E+02 1.29936E+05-9.92850E-09 1.60626E-08
 -1       630 2.56975E+05 5.85308E+04 2.35034E+02 1.26313E+05-7.01039E-09 3.52992E-09
 -1       631 2.53797E+05 6.16943E+04 1.26529E+02 1.29938E+05 5.85533E-09 1.72052E-08
 -1       632 2.56971E+05 5.85351E+04 8.33509E+01 1.26309E+05 1.39639E-08 1.88675E-09
 -1       633 2.53788E+05 6.16964E+04 9.29826E+01 1.29934E+05 7.78277E-09 3.62365E-09
 -1       634 2.56966E+05 5.85326E+04 1.50378E+02 1.26308E+05 4.90218E-09 7.43898E-09
 -1       635 2.53801E+05 6.16949E+04 3.04362E+02 1.29939E+05-3.13682E-09 4.70936E-09
 -1       636 2.56957E+05 5.85271E+04 6.14695E+02 1.26307E+05 1.04455E-09 5.33328E-09
 -1       637 2.53934E+05 6.17905E+04 1.35154E+03 1.29938E+05-5.88011E-09 7.33849E-09
 -1       638 2.56909E+05 5.88257E+04 2.77694E+03 1.26172E+05 7.59428E-10 1.49748E-08
 -1       639 2.55393E+05 6.38193E+04 6.57032E+03 1.29509E+05 2.29375E-09 3.08660E-09
 -1       640 2.56707E+05 6.48832E+04 1.36346E+04 1.23619E+05 4.11501E-09 1.07411E-09
 -1       656 6.57080E+04-1.68075E+06-1.58614E+05-2.35803E+03-1.16415E-09-9.72017E-09
 -1       657-8.69214E+04-1.75242E+06-1.31393E+05 5.42036E+03 5.36602E-11-1.27892E-08
 -1       658 2.09413E+04-1.70111E+06-8.09097E+04-4.40316E+03 2.31921E-10 2.76660E-09
 -1       659-9.39598E+04-1.75576E+06-1.40643E+05 7.10125E+03-6.79393E-10-1.78568E-08
 -1       660 7.27307E+04-1.67742E+06-1.74516E+05-4.03891E+03-1.76806E-09-1.15730E-08
 -1       661 1.60141E+05 1.68051E+04 1.67792E+04 6.26035E+04-1.47793E-10 7.05313E-09
 -1       662 1.69586E+05 2.92719E+04 1.13079E+04 5.88866E+04 6.17359E-09 4.17288E-09
 -1       663 1.63437E+05 2.21882E+04 3.95484E+03 6.16472E+04 1.40858E-09-1.91767E-09
 -1       664 1.65765E+05 2.29766E+04 2.36574E+03 6.00547E+04-8.45802E-10-9.98511E-10
 -1       665 1.63936E+05 2.29236E+04 9.33266E+02 6.15015E+04 1.90283E-09 1.36776E-08
 -1       666 1.65174E+05 2.21356E+04 5.46170E+02 6.02447E+04 8.77438E-09 2.53646E-08
 -1       667 1.64024E+05 2.30073E+04 2.90152E+02 6.14651E+04-8.67686E-10 4.54108E-09
 -1       668 1.65077E+05 2.20752E+04 2.95771E+02 6.02976E+04-4.35398E-09-1.67127E-08
 -1       669 1.64032E+05 2.29822E+04 4.00531E+02 6.14488E+04-2.59996E-09-2.23230E-09
 -1       670 1.65175E+05 2.22926E+04 8.72260E+02 6.03006E+04-8.77921E-09-1.60630E-08
 -1       671 1.63927E+05 2.27944E+04 1.54879E+03 6.14601E+04-9.05018E-10-2.19922E-09
 -1       672 1.66077E+05 2.37995E+04 3.96258E+03 6.00821E+04 5.49413E-09-3.79549E-09
 -1       673 1.63134E+05 2.15135E+04 6.64065E+03 6.16527E+04 1.52340E-10-1.74678E-08
 -1       674 1.72397E+05 3.44684E+04 1.89909E+04 5.82252E+04-8.67658E-10-7.90260E-09
 -1       675 1.57647E+05 1.24243E+04 2.81891E+04 6.32048E+04 5.31145E-10-7.84894E-09
 -1       676 2.39210E+01-2.93346E+05-1.10585E+03-1.23252E+02 1.61697E-09 1.50151E-08
 -1       677-2.92742E+02-2.93614E+05-2.02390E+03 2.46309E+02 1.08238E-08-3.10999E-08
 -1       678 1.96174E+02-2.93156E+05-3.57775E+03-1.22976E+02-3.10138E-10-2.19289E-09
 -1       679-3.57801E+03-2.95774E+05-8.49924E+03 2.45255E+02 7.23674E-09 7.83534E-09
 -1       680 2.13612E+03-2.91188E+05-1.36979E+04-1.20837E+02 3.37423E-10-8.20961E-09
 -1       771-3.04266E+06-7.31627E+05-1.55493E+05-1.44846E+06-3.00206E-08-2.30793E-08
 -1       772-2.96807E+06-8.17528E+05-8.01928E+04-1.54771E+06-2.46800E-08 1.41044E-08
 -1       773-3.07236E+06-7.08424E+05-4.08144E+04-1.46181E+06-1.07975E-08 9.77889E-09
 -1       774-2.95883E+06-8.00360E+05-1.82220E+04-1.57200E+06 2.75468E-08-4.83124E-09
 -1       775-3.08777E+06-6.97580E+05-1.35845E+04-1.46827E+06 4.07454E-10 2.86673E-09
 -1       776-2.97019E+06-7.97648E+05-5.08690E+03-1.59028E+06-1.72295E-08 4.20550E-09
 -1       777-3.10112E+06-6.87930E+05-5.98472E+03-1.47397E+06 1.06229E-08 6.68661E-09
 -1       778-2.98207E+06-7.95128E+05-1.69396E+03-1.60597E+06 5.52973E-09 8.90759E-09
 -1       779-3.11258E+06-6.79512E+05-2.98534E+03-1.47884E+06-2.05473E-08-2.43381E-09
 -1       780-2.99252E+06-7.92721E+05-4.95813E+02-1.61875E+06-5.99539E-09 6.59202E-09
 -1       781-3.12168E+06-6.72733E+05-1.15922E+03-1.48266E+06-2.97441E-08 1.51704E-09
 -1       782-3.00057E+06-7.90671E+05 4.15192E+02-1.62818E+06-3.66636E-08-4.88399E-09
 -1       783-3.12808E+06-6.68029E+05 6.45467E+02-1.48534E+06-1.35551E-08-2.00639E-08
 -1       784-3.00503E+06-7.88599E+05 2.68257E+03-1.63400E+06-2.06383E-08 1.33059E-09
 -1       785-3.13186E+06-6.65229E+05 4.73414E+03-1.48703E+06-3.58668E-08 6.28461E-09
 -1       786 1.25313E+05-9.76996E+03 2.26036E+04-3.07662E+02 1.77502E-09 1.59216E-08
 -1       787 1.35116E+05 1.13113E+04 1.59911E+04-1.23436E+02 2.41916E-09 2.39131E-08
 -1       788 1.29093E+05-1.53103E+03 5.84814E+03-2.73147E+02 4.15506E-09 1.71144E-08
 -1       789 1.30713E+05 1.77203E+03 3.67138E+03-1.76510E+02 2.08623E-09 1.61630E-08
 -1       790 1.29717E+05-2.38443E+02 1.48678E+03-2.54605E+02-2.20406E-09 8.88139E-09
 -1       791 1.29983E+05 2.75849E+02 8.59305E+02-2.08275E+02-8.01285E-09 2.70255E-09
 -1       792 1.29823E+05-3.59714E+01 3.65296E+02-2.41384E+02-3.51263E-09-8.16564E-09
 -1       793 1.29857E+05 3.84726E+01 1.84644E+02-2.33174E+02-1.10100E-09 6.73419E-09
 -1       794 1.29843E+05-1.21587E+00 5.30826E+01-2.29705E+02 4.77972E-09 1.56831E-08
 -1       795 1.29822E+05-2.31707E+01-4.41651E+01-2.57593E+02-5.58130E-09 2.06479E-09
 -1       796 1.29858E+05 2.56378E+01-1.39310E+02-2.16965E+02 1.81954E-09 8.60572E-09
 -1       797 1.29739E+05-1.92071E+02-3.88958E+02-2.86913E+02 3.29143E-09-3.91516E-10
 -1       798 1.29927E+05 1.67557E+02-6.33477E+02-2.00385E+02 2.41934E-09-7.60599E-09
 -1       799 1.29258E+05-1.23515E+03-1.74434E+03-3.27932E+02 4.19298E-09 1.03282E-09
 -1       800 1.30339E+05 1.06786E+03-2.46906E+03-1.75947E+02-1.47736E-10 1.08244E-08
 -1       801-1.43101E+05-9.48121E+06-1.30661E+06 1.29005E+06 8.65257E-08-5.57411E-08
 -1       802 6.57895E+05 5.13778E+06 1.97748E+06-1.57883E+06 2.50177E-07-3.37059E-08
 -1       803-4.89572E+05-1.33368E+07-1.73133E+06 8.20623E+05 7.46950E-08 1.17434E-08
 -1       804 2.55952E+05 1.84487E+06 1.39294E+06 6.35819E+05-1.14287E-07-9.23981E-08
 -1       805 1.78854E+05-6.20308E+06-2.61686E+05-9.19357E+05-4.74247E-08-6.01685E-08
 -1       806-3.04679E+05-5.88951E+04-2.25230E+04-1.20680E+05-3.95357E-09 2.49793E-09
 -1       807-3.06461E+05-5.52087E+04-1.10653E+04-1.26133E+05 6.74299E-09-1.23303E-08
 -1       808-3.05296E+05-5.07792E+04-4.69427E+03-1.24519E+05-7.12589E-09 4.44447E-09
 -1       809-3.04135E+05-5.20993E+04-2.29538E+03-1.26405E+05-8.48468E-09 1.06938E-08
 -1       810-3.05389E+05-5.04966E+04-1.05209E+03-1.24689E+05 3.35604E-10-2.73026E-08
 -1       811-3.03955E+05-5.19743E+04-5.23210E+02-1.26370E+05 4.61114E-09-1.43618E-08
 -1       812-3.05403E+05-5.05209E+04-2.64648E+02-1.24688E+05 4.85670E-10-6.81075E-09
 -1       813-3.03930E+05-5.19764E+04-1.72069E+02-1.26351E+05-8.92214E-10-1.97115E-08
 -1       814-3.05397E+05-5.05304E+04-1.70621E+02-1.24684E+05-7.72343E-09-2.23299E-08
 -1       815-3.03934E+05-5.19786E+04-2.75026E+02-1.26344E+05-2.49747E-09-1.33386E-08
 -1       816-3.05376E+05-5.05294E+04-5.21311E+02-1.24681E+05 1.32604E-09-1.21640E-08
 -1       817-3.04023E+05-5.20282E+04-1.11888E+03-1.26333E+05-1.32659E-08 1.36629E-09
 -1       818-3.05309E+05-5.06872E+04-2.28211E+03-1.24606E+05-6.68206E-09-1.54591E-08
 -1       819-3.05272E+05-5.34070E+04-5.36971E+03-1.26038E+05 7.63976E-10-2.63958E-09
 -1       820-3.04879E+05-5.47430E+04-1.09293E+04-1.22873E+05 1.61617E-09-7.68978E-10
 -1       821-3.75216E+05 2.06677E+04-4.80192E+04 1.88042E+03 1.27179E-08-1.14487E-08
 -1       822-3.95093E+05-2.39374E+04-3.38172E+04-3.85680E+03 3.91508E-09-7.05313E-10
 -1       823-3.82778E+05 3.25320E+03-1.24114E+04 2.94295E+03-9.80223E-09 5.53064E-09
 -1       824-3.86034E+05-3.75424E+03-7.77965E+03-4.53640E+03 1.63618E-09 8.50218E-09
 -1       825-3.84279E+05 5.05441E+02-3.24461E+03 2.56010E+03 1.69361E-08 5.88363E-09
 -1       826-3.83844E+05-5.70563E+02-1.77861E+03-2.54332E+03 2.32811E-08-2.03094E-08
 -1       827-3.84950E+05 5.78230E+01-1.13254E+03 9.49774E+02 1.13015E-08-2.11633E-08
 -1       828-3.83296E+05-1.45378E+02-6.63565E+02 1.02312E+03-1.15516E-09 1.02549E-08
 -1       829-3.84817E+05 7.35195E+01-1.12738E+03-1.00638E+03 2.06927E-09-9.44519E-09
 -1       830-3.84135E+05-6.18102E+02-1.90370E+03 4.20322E+03-4.74358E-11 1.73429E-08
 -1       831-3.84128E+05 5.43515E+02-3.33184E+03-2.23035E+03-3.65148E-09 6.56928E-09
 -1       832-3.86118E+05-3.91436E+03-8.08000E+03 5.24688E+03-3.41539E-09-1.55172E-08
 -1       833-3.82846E+05 3.37579E+03-1.29060E+04-2.05008E+03-1.96182E-09-1.63527E-09
 -1       834-3.95217E+05-2.48439E+04-3.50437E+04 3.55009E+03-2.07586E-09-1.47957E-08
 -1       835-3.75017E+05 2.14447E+04-4.98700E+04-5.33501E+02 4.60136E-09 2.20462E-09
 -1       836-1.38663E+03 3.64334E+05 2.25174E+04-1.63189E+04-6.52744E-09-5.64341E-10
 -1       837 4.80675E+03 3.71383E+05 1.90649E+04-3.32900E+04-7.16591E-09 2.22008E-08
 -1       838-5.46294E+02 3.66309E+05 1.94400E+04-1.62475E+04-5.70162E-09 2.49843E-08
 -1       839 1.22470E+04 3.76925E+05 3.67897E+04-3.33414E+04-5.85305E-09 1.36856E-09
 -1       840-3.78177E+03 3.58734E+05 5.86725E+04-1.62726E+04-5.68980E-09 3.98683E-09
 -1       856-5.45516E+04 8.02457E+03-2.11466E+04-3.99247E+02 5.15149E-09 9.87166E-09
 -1       857-6.32651E+04-9.42727E+03-1.45572E+04 5.58590E+03 8.53703E-09-8.91828E-09
 -1       858-5.80017E+04 1.12529E+03-5.48709E+03-4.23421E+02 3.33955E-09 3.36809E-09
 -1       859-5.93056E+04-1.32258E+03-3.31136E+03 5.62206E+03 2.52329E-09 8.78981E-09
 -1       860-5.85172E+04 1.57511E+02-1.38805E+03-4.35168E+02-1.77045E-09 2.90998E-08
 -1       861-5.87126E+04-1.86834E+02-7.64127E+02 5.63807E+03 1.73907E-09-1.11659E-09
 -1       862-5.85978E+04 2.12919E+01-3.18711E+02-4.39420E+02-1.16714E-09 1.39420E-09
 -1       863-5.86140E+04-2.08928E+01-1.18535E+02 5.64051E+03-7.18500E-09-1.70169E-08
 -1       864-5.86163E+04-4.66208E+00 4.17145E+01-4.37603E+02-6.30820E-10 9.13396E-09
 -1       865-5.85598E+04 5.81255E+01 2.43034E+02 5.63024E+03-5.30953E-09 1.96059E-08
 -1       866-5.86499E+04-5.77804E+01 4.92591E+02-4.29148E+02 1.21474E-10-1.93465E-08
 -1       867-5.83273E+04 4.77443E+02 1.21430E+03 5.60726E+03-1.65198E-09-8.31449E-09
 -1       868-5.88439E+04-4.16510E+02 2.01821E+03-4.14629E+02-2.39402E-09-2.63969E-09
 -1       869-5.68471E+04 3.46635E+03 5.37453E+03 5.56937E+03-3.17573E-09-2.90888E-08
 -1       870-6.01225E+04-2.96565E+03 7.79951E+03-3.91163E+02-1.87219E-09-6.35737E-09
 -1       871-5.46479E+03-2.05158E+04-1.91815E+04 1.28275E+05-4.94583E-09 7.28778E-09
 -1       872-1.99410E+03-2.49652E+04-8.02098E+03 1.66327E+05-9.98170E-09 1.51476E-08
 -1       873 3.66347E+02-2.28187E+04 6.07449E+02 1.27993E+05-4.77257E-09 1.80900E-08
 -1       874 3.22606E+03-2.04225E+04 9.68742E+03 1.66357E+05-1.05447E-08 8.25912E-09
 -1       875 6.74074E+03-2.51260E+04 2.18330E+04 1.28229E+05-5.56793E-09-6.24732E-09
 -1       876 2.90271E+05 4.89806E+04 1.49457E+04 1.16555E+05 3.34092E-09 8.54652E-09
 -1       877 2.91253E+05 5.21346E+04 7.98157E+03 1.20849E+05 6.93103E-09-1.31251E-09
 -1       878 2.91669E+05 4.73252E+04 3.34388E+03 1.17780E+05-8.96171E-09 5.43014E-09
 -1       879 2.89221E+05 5.01072E+04 1.66612E+03 1.20950E+05 4.48540E-09 1.11227E-08
 -1       880 2.91769E+05 4.73081E+04 7.76042E+02 1.17830E+05-6.79711E-09-9.46198E-09
 -1       881 2.89086E+05 5.00205E+04 4.14396E+02 1.20927E+05-1.26024E-08 3.04816E-09
 -1       882 2.91778E+05 4.73212E+04 2.65066E+02 1.17832E+05-1.31536E-09-7.21105E-09
 -1       883 2.89077E+05 5.00160E+04 2.84894E+02 1.20919E+05 4.74733E-09-5.91629E-09
 -1       884 2.91771E+05 4.73184E+04 4.53140E+02 1.17832E+05 1.04797E-09-1.67353E-09
 -1       885 2.89113E+05 5.00223E+04 9.11026E+02 1.20930E+05-2.15857E-09 1.43175E-08
 -1       886 2.91736E+05 4.72918E+04 1.83611E+03 1.17828E+05 3.78087E-10 1.32495E-08
 -1       887 2.89435E+05 5.02339E+04 4.01073E+03 1.20977E+05 1.01618E-08 9.24570E-09
 -1       888 2.91483E+05 4.73365E+04 8.08173E+03 1.17700E+05 3.91688E-09-1.04410E-09
 -1       889 2.94247E+05 5.52372E+04 1.93058E+04 1.20829E+05 4.92798E-09-9.55515E-09
 -1       890 2.88184E+05 5.12542E+04 3.61593E+04 1.14624E+05-6.98492E-10 3.37968E-09
 -1       891-9.42111E+01-1.61034E+05-1.97209E+03 2.70526E+04-1.32150E-09 1.31802E-08
 -1       892-1.82345E+02-1.61552E+05-2.11902E+03 4.10698E+04 3.98313E-09-1.66983E-09
 -1       893 3.71321E+01-1.61097E+05-3.00131E+03 2.70598E+04-2.17733E-09 8.09450E-10
 -1       894-1.50228E+03-1.62686E+05-6.21229E+03 4.09182E+04 2.57000E-09-1.38079E-08
 -1       895-1.19194E+03-1.59803E+05-1.09401E+04 2.72057E+04 8.28777E-10 3.39969E-09
 -1       956-3.72365E+05-5.36797E+03-1.32725E+04 3.00988E+04 5.32964E-09 9.14906E-09
 -1       957-3.74971E+05-1.88670E+03-6.81265E+03 3.61768E+04-2.29420E-09 1.01140E-08
 -1       958-3.73557E+05-2.29500E+02-3.06995E+03 2.99339E+04-4.63842E-09-1.66001E-08
 -1       959-3.73752E+05-1.24894E+02-1.56760E+03 3.63682E+04-2.41698E-09 1.65119E-09
 -1       960-3.73673E+05-3.64792E+01-7.64431E+02 2.99170E+04 3.79259E-09 3.61570E-09
 -1       961-3.73672E+05-5.32056E+01-4.05325E+02 3.63881E+04 1.51424E-08 2.32239E-09
 -1       962-3.73700E+05-3.79407E+01-2.32080E+02 2.99141E+04 7.02175E-09 7.29597E-09
 -1       963-3.73672E+05-4.92177E+01-1.86347E+02 3.63917E+04 1.30694E-08-9.16475E-09
 -1       964-3.73705E+05-3.46637E+01-2.26643E+02 2.99134E+04 1.10118E-08-2.01635E-09
 -1       965-3.73684E+05-4.62188E+01-3.92024E+02 3.63911E+04 1.02643E-08-5.64364E-09
 -1       966-3.73689E+05-2.67397E+01-7.36584E+02 2.99148E+04 1.24592E-08 3.74484E-10
 -1       967-3.73773E+05-1.08648E+02-1.51074E+03 3.63771E+04-1.65414E-09-4.84533E-10
 -1       968-3.73587E+05-2.06489E+02-2.95743E+03 2.99272E+04 6.06633E-10 4.65252E-09
 -1       969-3.74960E+05-1.80104E+03-6.56549E+03 3.62328E+04 3.14321E-09-1.35518E-08
 -1       970-3.72447E+05-5.15463E+03-1.27899E+04 3.00515E+04-2.93767E-09 6.44377E-09
 -1       971-3.41536E+05-1.71270E+03-9.25015E+03 1.52703E+04 2.98678E-09-1.14722E-08
 -1       972-3.43765E+05-1.25852E+03-5.03753E+03 2.11351E+04-1.39926E-09-3.69073E-09
 -1       973-3.42567E+05-5.79874E+01-2.25633E+03 1.51494E+04 9.82254E-11 8.87758E-09
 -1       974-3.42703E+05-7.54624E+01-1.16956E+03 2.12715E+04-6.66660E-09 1.43483E-08
 -1       975-3.42649E+05-1.34245E+01-5.84981E+02 1.51371E+04-4.03452E-09 6.36715E-09
 -1       976-3.42642E+05-2.59545E+01-3.38134E+02 2.12871E+04 2.04227E-09 1.49153E-08
 -1       977-3.42665E+05-1.27073E+01-2.46568E+02 1.51338E+04-6.29893E-09-1.29779E-08
 -1       978-3.42647E+05-1.97884E+01-2.90109E+02 2.12919E+04-1.18580E-08 2.92118E-09
 -1       979-3.42665E+05-4.33044E+00-4.67468E+02 1.51324E+04-2.52646E-09 2.51196E-08
 -1       980-3.42682E+05-1.67606E+01-9.03472E+02 2.12929E+04 5.52298E-09 3.45366E-08
 -1       981-3.42636E+05 1.82461E+01-1.75026E+03 1.51329E+04 3.22007E-09 5.74670E-09
 -1       982-3.42922E+05-1.46090E+02-3.61801E+03 2.12863E+04-3.25235E-09 5.56014E-09
 -1       983-3.42415E+05-9.38354E+01-7.02994E+03 1.51389E+04-2.67801E-09 2.96495E-10
 -1       984-3.46303E+05-3.81763E+03-1.57433E+04 2.12011E+04 1.72076E-09 1.48913E-08
 -1       985-3.39232E+05-5.23793E+03-2.89096E+04 1.52110E+04-2.44290E-09 3.45972E-09
 -3
    1PSTEP                        37          19           1          
  100CL  119 6.58401E-01         409                     0   19           1
 -4  DISP        4    1
 -5  D1          1    2    1    0
 -5  D2          1    2    2    0
 -5  D3          1    2    3    0
 -5  ALL         1    2    0    0    1ALL
 -1         1 2.47904E-03 0.00000E+00 0.00000E+00
 -1         2 1.92774E-03 2.42607E-27 0.00000E+00
 -1         3 3.34195E-04-6.97682E-28-1.32349E-23
 -1         5 1.74064E-04-4.18623E-28-2.06795E-24
 -1         8 2.46488E-03-4.59889E-07 0.00000E+00
 -1         9 2.41867E-03-2.98913E-05 0.00000E+00
 -1        10 3.03032E-04-3.56668E-06-6.61744E-24
 -1        12 1.75770E-04 7.98568E-07 0.00000E+00
 -1        15 2.44774E-03-4.96525E-07 0.00000E+00
 -1        16 2.46273E-03-3.13346E-05 0.00000E+00
 -1        17 2.06491E-04-8.06225E-06 0.00000E+00
 -1        18 1.79314E-04 3.24967E-05 0.00000E+00
 -1        19 1.80889E-04 1.59110E-06 0.00000E+00
 -1        20 1.81030E-04-8.28145E-06 0.00000E+00
 -1        21 1.80155E-04-2.20302E-05 0.00000E+00
 -1        24 3.04065E-05-1.22059E-05 0.00000E+00
 -1        25 1.89393E-04 3.27180E-05 0.00000E+00
 -1        26 1.90085E-04 2.20375E-06 0.00000E+00
 -1        27 1.87914E-04-1.17994E-05 0.00000E+00
 -1        28 1.87587E-04-2.26472E-05 0.00000E+00
 -1        32 0.00000E+00 0.00000E+00 0.00000E+00
 -1        33 1.98262E-04 2.94855E-06 0.00000E+00
 -1        34 1.96168E-04-1.18532E-05 0.00000E+00
 -1        35 1.94254E-04-2.29860E-05 0.00000E+00
 -1        51 2.47813E-03-9.18392E-08 0.00000E+00
 -1        52 2.47644E-03-1.66646E-07-3.30872E-24
 -1        53 2.47411E-03-2.38606E-07 0.00000E+00
 -1        54 2.47131E-03-3.09953E-07 0.00000E+00
 -1        55 2.46818E-03-3.82389E-07 4.13590E-25
 -1        56 2.47382E-03 2.77934E-06 0.00000E+00
 -1        57 2.46545E-03 1.33825E-05 5.29396E-23
 -1        58 2.45472E-03 3.00119E-05-1.05879E-22
 -1        59 2.44252E-03 5.02740E-05 0.00000E+00
 -1        60 2.43007E-03 7.11730E-05 1.05879E-22
 -1        61 2.41858E-03 8.96483E-05-5.29396E-23
 -1        62 2.40909E-03 1.03059E-04 0.00000E+00
 -1        63 2.40241E-03 1.09199E-04-5.29396E-23
 -1        64 2.39883E-03 1.07126E-04-1.05879E-22
 -1        65 2.39838E-03 9.66185E-05 5.29396E-23
 -1        66 2.40052E-03 7.89452E-05 0.00000E+00
 -1        67 2.40453E-03 5.60144E-05 0.00000E+00
 -1        68 2.40938E-03 3.06728E-05 1.05879E-22
 -1        69 2.41403E-03 5.99294E-06 5.29396E-23
 -1        70 2.41740E-03-1.50840E-05 0.00000E+00
 -1        86 1.95753E-03-1.62240E-06-2.64698E-23
 -1        87 2.04543E-03-6.53966E-06 0.00000E+00
 -1        88 2.16431E-03-1.43826E-05 0.00000E+00
 -1        89 2.28576E-03-2.25251E-05 0.00000E+00
 -1        90 2.38007E-03-2.79861E-05 0.00000E+00
 -1       121 3.33319E-04-5.77562E-07 1.32349E-23
 -1       122 3.30696E-04-1.15807E-06 6.61744E-24
 -1       123 3.26335E-04-1.74440E-06-1.32349E-23
 -1       124 3.20254E-04-2.33947E-06-6.61744E-24
 -1       125 3.12476E-04-2.94576E-06 1.32349E-23
 -1       191 1.74112E-04 1.33150E-07 0.00000E+00
 -1       192 1.74254E-04 2.66289E-07-1.24077E-24
 -1       193 1.74491E-04 3.99412E-07-2.06795E-24
 -1       194 1.74822E-04 5.32507E-07 0.00000E+00
 -1       195 1.75249E-04 6.65563E-07 2.89513E-24
 -1       251 2.46429E-03 2.08015E-05 6.61744E-24
 -1       252 2.46231E-03 7.85269E-05 0.00000E+00
 -1       253 2.45863E-03 1.62110E-04 6.61744E-24
 -1       254 2.45364E-03 2.60588E-04-3.30872E-24
 -1       255 2.44869E-03 3.58513E-04 0.00000E+00
 -1       256 2.44514E-03 4.40450E-04 6.61744E-24
 -1       257 2.44329E-03 4.95742E-04 0.00000E+00
 -1       258 2.44275E-03 5.14111E-04 0.00000E+00
 -1       259 2.44220E-03 4.95034E-04 0.00000E+00
 -1       260 2.44028E-03 4.38604E-04 6.61744E-24
 -1       261 2.43658E-03 3.54747E-04-1.32349E-23
 -1       262 2.43134E-03 2.53774E-04 0.00000E+00
 -1       263 2.42593E-03 1.51094E-04 0.00000E+00
 -1       264 2.42180E-03 6.21369E-05 0.00000E+00
 -1       265 2.41945E-03-1.83753E-06 0.00000E+00
 -1       266 2.46203E-03-4.72551E-07 0.00000E+00
 -1       267 2.45917E-03-4.77858E-07-8.27181E-25
 -1       268 2.45631E-03-4.83630E-07 8.27181E-25
 -1       269 2.45345E-03-4.88023E-07 0.00000E+00
 -1       270 2.45060E-03-4.92384E-07 0.00000E+00
 -1       271 2.46305E-03 2.23642E-06 1.32349E-23
 -1       272 2.46116E-03 5.00910E-06 0.00000E+00
 -1       273 2.45930E-03 7.70354E-06 0.00000E+00
 -1       274 2.45753E-03 1.01547E-05 1.32349E-23
 -1       275 2.45591E-03 1.22027E-05 0.00000E+00
 -1       276 2.45450E-03 1.36903E-05 0.00000E+00
 -1       277 2.45336E-03 1.44657E-05 0.00000E+00
 -1       278 2.45254E-03 1.43836E-05 1.32349E-23
 -1       279 2.45209E-03 1.33070E-05-2.64698E-23
 -1       280 2.45207E-03 1.11080E-05-1.32349E-23
 -1       281 2.45250E-03 7.66956E-06 0.00000E+00
 -1       282 2.45343E-03 2.88618E-06 0.00000E+00
 -1       283 2.45490E-03-3.33471E-06-2.64698E-23
 -1       284 2.45692E-03-1.10716E-05-1.32349E-23
 -1       285 2.45952E-03-2.03900E-05 0.00000E+00
 -1       301 2.42670E-03-3.01600E-05-6.61744E-24
 -1       302 2.43338E-03-3.03904E-05 3.30872E-24
 -1       303 2.43951E-03-3.06143E-05 0.00000E+00
 -1       304 2.44591E-03-3.08386E-05 6.61744E-24
 -1       305 2.45338E-03-3.10718E-05 0.00000E+00
 -1       306 2.45474E-03-1.74861E-04 0.00000E+00
 -1       307 2.51909E-03-5.70977E-04-5.29396E-23
 -1       308 2.56968E-03-1.15510E-03 0.00000E+00
 -1       309 2.59870E-03-1.83703E-03 0.00000E+00
 -1       310 2.63289E-03-2.49656E-03 0.00000E+00
 -1       311 2.69234E-03-3.01545E-03 0.00000E+00
 -1       312 2.75222E-03-3.31476E-03 0.00000E+00
 -1       313 2.75802E-03-3.35319E-03 0.00000E+00
 -1       314 2.64138E-03-3.13850E-03 0.00000E+00
 -1       315 2.36145E-03-2.72755E-03 5.29396E-23
 -1       316 1.93196E-03-2.19321E-03 0.00000E+00
 -1       317 1.41121E-03-1.60421E-03 5.29396E-23
 -1       318 9.04891E-04-1.02354E-03 0.00000E+00
 -1       319 5.14425E-04-5.16903E-04 5.29396E-23
 -1       320 2.82877E-04-1.55248E-04 0.00000E+00
 -1       336 2.91741E-04-4.25166E-06-1.32349E-23
 -1       337 2.78436E-04-4.96101E-06 0.00000E+00
 -1       338 2.63178E-04-5.69666E-06 1.32349E-23
 -1       339 2.46044E-04-6.45916E-06 0.00000E+00
 -1       340 2.27117E-04-7.25280E-06-1.32349E-23
 -1       406 1.76386E-04 9.31506E-07 2.89513E-24
 -1       407 1.77097E-04 1.06434E-06-1.65436E-24
 -1       408 1.77903E-04 1.19702E-06 0.00000E+00
 -1       409 1.78804E-04 1.32938E-06 5.42837E-25
 -1       410 1.79799E-04 1.46115E-06-3.30872E-24
 -1       521 2.49948E-03-1.85258E-04 0.00000E+00
 -1       522 2.56243E-03-6.00738E-04 0.00000E+00
 -1       523 2.60737E-03-1.21149E-03 0.00000E+00
 -1       524 2.62802E-03-1.92092E-03 5.29396E-23
 -1       525 2.65484E-03-2.60616E-03-1.05879E-22
 -1       526 2.71080E-03-3.14655E-03 0.00000E+00
 -1       527 2.77022E-03-3.45686E-03 0.00000E+00
 -1       528 2.77430E-03-3.49468E-03 0.00000E+00
 -1       529 2.64762E-03-3.26736E-03 0.00000E+00
 -1       530 2.34688E-03-2.83874E-03 5.29396E-23
 -1       531 1.88623E-03-2.28528E-03 1.05879E-22
 -1       532 1.32965E-03-1.67862E-03 0.00000E+00
 -1       533 7.87790E-04-1.07980E-03 0.00000E+00
 -1       534 3.66885E-04-5.52707E-04 0.00000E+00
 -1       535 1.15725E-04-1.72266E-04-1.05879E-22
 -1       536 2.05769E-04 2.58783E-05 6.61744E-24
 -1       537 2.03947E-04 8.46769E-05 0.00000E+00
 -1       538 2.01133E-04 1.59304E-04 3.30872E-24
 -1       539 1.97816E-04 2.40648E-04 0.00000E+00
 -1       540 1.94829E-04 3.17515E-04-3.30872E-24
 -1       541 1.92885E-04 3.78735E-04 1.65436E-24
 -1       542 1.91985E-04 4.17714E-04 0.00000E+00
 -1       543 1.91765E-04 4.28004E-04 1.65436E-24
 -1       544 1.91452E-04 4.10367E-04-3.30872E-24
 -1       545 1.90330E-04 3.65777E-04 0.00000E+00
 -1       546 1.88248E-04 3.02167E-04 3.30872E-24
 -1       547 1.85435E-04 2.27586E-04 0.00000E+00
 -1       548 1.82649E-04 1.53395E-04-3.30872E-24
 -1       549 1.80638E-04 9.09518E-05 0.00000E+00
 -1       550 1.79591E-04 4.80841E-05 0.00000E+00
 -1       551 1.81978E-04-8.62467E-06 0.00000E+00
 -1       552 1.54273E-04-9.26360E-06 0.00000E+00
 -1       553 1.24311E-04-9.96191E-06-1.15805E-23
 -1       554 9.30443E-05-1.06993E-05 0.00000E+00
 -1       555 6.14270E-05-1.14491E-05 0.00000E+00
 -1       556 1.99076E-04 1.09078E-05 0.00000E+00
 -1       557 1.93091E-04 2.62789E-05 0.00000E+00
 -1       558 1.88404E-04 3.83323E-05 0.00000E+00
 -1       559 1.84885E-04 4.73718E-05 0.00000E+00
 -1       560 1.82408E-04 5.37013E-05 0.00000E+00
 -1       561 1.80848E-04 5.76273E-05 0.00000E+00
 -1       562 1.80082E-04 5.94575E-05 0.00000E+00
 -1       563 1.79989E-04 5.95003E-05 0.00000E+00
 -1       564 1.80451E-04 5.80652E-05 0.00000E+00
 -1       565 1.81349E-04 5.54621E-05 0.00000E+00
 -1       566 1.82567E-04 5.20016E-05 0.00000E+00
 -1       567 1.83988E-04 4.79946E-05 0.00000E+00
 -1       568 1.85496E-04 4.37521E-05 1.65436E-24
 -1       569 1.86976E-04 3.95852E-05 0.00000E+00
 -1       570 1.88313E-04 3.58050E-05 0.00000E+00
 -1       571 1.79409E-04 3.04926E-05-8.27181E-25
 -1       572 1.79507E-04 2.84239E-05-1.65436E-24
 -1       573 1.79605E-04 2.63061E-05 0.00000E+00
 -1       574 1.79703E-04 2.41549E-05 0.00000E+00
 -1       575 1.79801E-04 2.19865E-05 0.00000E+00
 -1       576 1.79900E-04 1.98168E-05 0.00000E+00
 -1       577 1.79998E-04 1.76620E-05-3.30872E-24
 -1       578 1.80097E-04 1.55382E-05 0.00000E+00
 -1       579 1.80195E-04 1.34615E-05 0.00000E+00
 -1       580 1.80294E-04 1.14480E-05 0.00000E+00
 -1       581 1.80393E-04 9.51375E-06 0.00000E+00
 -1       582 1.80492E-04 7.67489E-06 0.00000E+00
 -1       583 1.80591E-04 5.94749E-06 0.00000E+00
 -1       584 1.80690E-04 4.34745E-06 0.00000E+00
 -1       585 1.80789E-04 2.89051E-06 0.00000E+00
 -1       586 1.80951E-04 3.25356E-05 0.00000E+00
 -1       587 1.82549E-04 3.25741E-05 4.13590E-25
 -1       588 1.84149E-04 3.26121E-05-8.27181E-25
 -1       589 1.85795E-04 3.26495E-05 0.00000E+00
 -1       590 1.87529E-04 3.26857E-05 0.00000E+00
 -1       591 1.79999E-04 3.05833E-05 1.03398E-25
 -1       592 1.80687E-04 2.86493E-05 0.00000E+00
 -1       593 1.81381E-04 2.67005E-05 0.00000E+00
 -1       594 1.82078E-04 2.47418E-05-4.13590E-25
 -1       595 1.82776E-04 2.27781E-05 0.00000E+00
 -1       596 1.83475E-04 2.08139E-05 4.13590E-25
 -1       597 1.84172E-04 1.88542E-05 8.27181E-25
 -1       598 1.84866E-04 1.69037E-05 4.13590E-25
 -1       599 1.85554E-04 1.49671E-05 8.27181E-25
 -1       600 1.86236E-04 1.30493E-05-4.13590E-25
 -1       601 1.86908E-04 1.11550E-05 8.27181E-25
 -1       602 1.87571E-04 9.28887E-06 2.06795E-25
 -1       603 1.88221E-04 7.45578E-06 0.00000E+00
 -1       604 1.88857E-04 5.66058E-06-1.55096E-25
 -1       605 1.89478E-04 3.90793E-06 0.00000E+00
 -1       606 1.80902E-04 5.21421E-07 0.00000E+00
 -1       607 1.80912E-04-4.61278E-07 1.65436E-24
 -1       608 1.80921E-04-1.36210E-06 0.00000E+00
 -1       609 1.80929E-04-2.18680E-06-1.65436E-24
 -1       610 1.80938E-04-2.94120E-06-3.30872E-24
 -1       611 1.80946E-04-3.63116E-06 0.00000E+00
 -1       612 1.80955E-04-4.26255E-06 0.00000E+00
 -1       613 1.80963E-04-4.84129E-06 0.00000E+00
 -1       614 1.80972E-04-5.37323E-06 0.00000E+00
 -1       615 1.80980E-04-5.86428E-06 8.27181E-25
 -1       616 1.80989E-04-6.32032E-06 0.00000E+00
 -1       617 1.80997E-04-6.74724E-06 0.00000E+00
 -1       618 1.81006E-04-7.15092E-06-8.27181E-25
 -1       619 1.81014E-04-7.53727E-06 0.00000E+00
 -1       620 1.81023E-04-7.91215E-06-2.06795E-25
 -1       621 1.82148E-04 1.69373E-06-3.30872E-24
 -1       622 1.83559E-04 1.79662E-06 1.65436E-24
 -1       623 1.85090E-04 1.89932E-06 1.65436E-24
 -1       624 1.86710E-04 2.00170E-06-1.65436E-24
 -1       625 1.88385E-04 2.10381E-06-1.65436E-24
 -1       626 1.81401E-04 5.57066E-07 0.00000E+00
 -1       627 1.81889E-04-4.12547E-07 0.00000E+00
 -1       628 1.82357E-04-1.32562E-06 6.61744E-24
 -1       629 1.82807E-04-2.19035E-06 0.00000E+00
 -1       630 1.83242E-04-3.01498E-06 0.00000E+00
 -1       631 1.83665E-04-3.80775E-06 0.00000E+00
 -1       632 1.84079E-04-4.57692E-06-3.30872E-24
 -1       633 1.84488E-04-5.33075E-06 1.65436E-24
 -1       634 1.84893E-04-6.07747E-06-3.30872E-24
 -1       635 1.85300E-04-6.82535E-06 0.00000E+00
 -1       636 1.85709E-04-7.58263E-06 0.00000E+00
 -1       637 1.86125E-04-8.35758E-06 1.65436E-24
 -1       638 1.86551E-04-9.15845E-06-1.65436E-24
 -1       639 1.86990E-04-9.99350E-06-1.65436E-24
 -1       640 1.87443E-04-1.08710E-05-3.30872E-24
 -1       656 1.81633E-04-8.85327E-06 0.00000E+00
 -1       657 1.82654E-04-9.44830E-06-6.61744E-24
 -1       658 1.83954E-04-1.00419E-05-1.32349E-23
 -1       659 1.85386E-04-1.06352E-05-6.61744E-24
 -1       660 1.86767E-04-1.12303E-05 6.61744E-24
 -1       661 1.81256E-04-8.69503E-06 0.00000E+00
 -1       662 1.81519E-04-9.19887E-06 0.00000E+00
 -1       663 1.81813E-04-9.78790E-06 1.65436E-24
 -1       664 1.82138E-04-1.04558E-05 0.00000E+00
 -1       665 1.82490E-04-1.11969E-05 0.00000E+00
 -1       666 1.82867E-04-1.20054E-05 8.27181E-25
 -1       667 1.83268E-04-1.28759E-05 0.00000E+00
 -1       668 1.83689E-04-1.38029E-05-8.27181E-25
 -1       669 1.84130E-04-1.47812E-05-1.65436E-24
 -1       670 1.84588E-04-1.58057E-05-8.27181E-25
 -1       671 1.85062E-04-1.68712E-05 1.65436E-24
 -1       672 1.85548E-04-1.79728E-05 0.00000E+00
 -1       673 1.86047E-04-1.91058E-05 0.00000E+00
 -1       674 1.86554E-04-2.02656E-05 8.27181E-25
 -1       675 1.87070E-04-2.14470E-05 0.00000E+00
 -1       676 1.81398E-04-2.21336E-05-3.30872E-24
 -1       677 1.82640E-04-2.22370E-05 0.00000E+00
 -1       678 1.83881E-04-2.23404E-05-3.30872E-24
 -1       679 1.85120E-04-2.24434E-05 0.00000E+00
 -1       680 1.86355E-04-2.25464E-05 0.00000E+00
 -1       771 1.87831E-05 1.37387E-05 0.00000E+00
 -1       772 8.99616E-06 3.50512E-05 0.00000E+00
 -1       773 9.57666E-07 5.19557E-05-5.29396E-23
 -1       774-5.45240E-06 6.47029E-05 0.00000E+00
 -1       775-1.03516E-05 7.35537E-05 0.00000E+00
 -1       776-1.38623E-05 7.87851E-05-2.64698E-23
 -1       777-1.61066E-05 8.06837E-05 5.29396E-23
 -1       778-1.72093E-05 7.95493E-05 2.64698E-23
 -1       779-1.72944E-05 7.56900E-05 0.00000E+00
 -1       780-1.64883E-05 6.94249E-05-2.64698E-23
 -1       781-1.49161E-05 6.10794E-05-5.29396E-23
 -1       782-1.27049E-05 5.09876E-05 0.00000E+00
 -1       783-9.98055E-06 3.94880E-05 0.00000E+00
 -1       784-6.87044E-06 2.69249E-05 0.00000E+00
 -1       785-3.50091E-06 1.36457E-05-5.29396E-23
 -1       786 1.89432E-04 3.05855E-05 2.58494E-26
 -1       787 1.89474E-04 2.85026E-05 4.13590E-25
 -1       788 1.89517E-04 2.64610E-05 0.00000E+00
 -1       789 1.89560E-04 2.44525E-05 0.00000E+00
 -1       790 1.89603E-04 2.24725E-05 0.00000E+00
 -1       791 1.89647E-04 2.05163E-05 8.27181E-25
 -1       792 1.89690E-04 1.85817E-05 0.00000E+00
 -1       793 1.89734E-04 1.66665E-05 8.27181E-25
 -1       794 1.89778E-04 1.47706E-05 0.00000E+00
 -1       795 1.89821E-04 1.28938E-05 0.00000E+00
 -1       796 1.89865E-04 1.10381E-05 1.65436E-24
 -1       797 1.89909E-04 9.20536E-06 8.27181E-25
 -1       798 1.89953E-04 7.39988E-06-1.65436E-24
 -1       799 1.89997E-04 5.62604E-06 0.00000E+00
 -1       800 1.90041E-04 3.89142E-06 0.00000E+00
 -1       801 1.45209E-04 2.93799E-05-2.64698E-23
 -1       802 1.15404E-05 1.83823E-05 2.64698E-23
 -1       803-1.02961E-04 9.31057E-06-5.29396E-23
 -1       804-9.18510E-05 6.46350E-06 0.00000E+00
 -1       805-3.04119E-05 2.57193E-06-5.29396E-23
 -1       806 1.90079E-04 3.05177E-05-1.65436E-24
 -1       807 1.90751E-04 2.83434E-05 1.65436E-24
 -1       808 1.91410E-04 2.62003E-05 3.30872E-24
 -1       809 1.92056E-04 2.40923E-05 0.00000E+00
 -1       810 1.92688E-04 2.20235E-05 0.00000E+00
 -1       811 1.93303E-04 1.99976E-05 0.00000E+00
 -1       812 1.93901E-04 1.80185E-05-3.30872E-24
 -1       813 1.94480E-04 1.60902E-05 1.65436E-24
 -1       814 1.95038E-04 1.42164E-05 3.30872E-24
 -1       815 1.95575E-04 1.24010E-05 0.00000E+00
 -1       816 1.96089E-04 1.06479E-05 0.00000E+00
 -1       817 1.96578E-04 8.96074E-06 1.65436E-24
 -1       818 1.97041E-04 7.34345E-06-3.30872E-24
 -1       819 1.97476E-04 5.79982E-06-1.65436E-24
 -1       820 1.97883E-04 4.33361E-06 1.65436E-24
 -1       821 1.89957E-04 3.88109E-08 1.65436E-24
 -1       822 1.89819E-04-3.12270E-06 0.00000E+00
 -1       823 1.89680E-04-6.90086E-06 0.00000E+00
 -1       824 1.89538E-04-1.09119E-05 0.00000E+00
 -1       825 1.89397E-04-1.47097E-05-3.30872E-24
 -1       826 1.89257E-04-1.78492E-05 1.65436E-24
 -1       827 1.89120E-04-2.00634E-05 3.30872E-24
 -1       828 1.88985E-04-2.10910E-05-1.65436E-24
 -1       829 1.88851E-04-2.09916E-05 0.00000E+00
 -1       830 1.88715E-04-1.98312E-05 0.00000E+00
 -1       831 1.88579E-04-1.79629E-05 0.00000E+00
 -1       832 1.88443E-04-1.57441E-05-1.65436E-24
 -1       833 1.88306E-04-1.36270E-05 3.30872E-24
 -1       834 1.88173E-04-1.20631E-05 0.00000E+00
 -1       835 1.88039E-04-1.13548E-05 0.00000E+00
 -1       836 1.91658E-04 2.32729E-06-3.30872E-24
 -1       837 1.93104E-04 2.45392E-06 1.65436E-24
 -1       838 1.94455E-04 2.58047E-06-3.30872E-24
 -1       839 1.95744E-04 2.70633E-06-8.27181E-25
 -1       840 1.97003E-04 2.83202E-06 0.00000E+00
 -1       856 1.87897E-04-1.27500E-05 8.27181E-25
 -1       857 1.87877E-04-1.35657E-05 0.00000E+00
 -1       858 1.87857E-04-1.42676E-05 0.00000E+00
 -1       859 1.87837E-04-1.48767E-05-2.06795E-25
 -1       860 1.87816E-04-1.54140E-05-4.13590E-25
 -1       861 1.87796E-04-1.59008E-05 2.06795E-25
 -1       862 1.87775E-04-1.63581E-05 0.00000E+00
 -1       863 1.87755E-04-1.68073E-05 4.13590E-25
 -1       864 1.87735E-04-1.72696E-05 0.00000E+00
 -1       865 1.87714E-04-1.77661E-05-4.13590E-25
 -1       866 1.87693E-04-1.83180E-05-8.27181E-25
 -1       867 1.87673E-04-1.89466E-05-4.13590E-25
 -1       868 1.87652E-04-1.96728E-05 0.00000E+00
 -1       869 1.87631E-04-2.05177E-05-4.13590E-25
 -1       870 1.87610E-04-2.15023E-05 0.00000E+00
 -1       871 1.89149E-04-1.18040E-05 8.27181E-25
 -1       872 1.90530E-04-1.18119E-05 0.00000E+00
 -1       873 1.91989E-04-1.18205E-05 0.00000E+00
 -1       874 1.93460E-04-1.18299E-05-3.36042E-25
 -1       875 1.94875E-04-1.18398E-05-4.13590E-25
 -1       876 1.88396E-04-1.27356E-05 3.30872E-24
 -1       877 1.88857E-04-1.36055E-05-1.65436E-24
 -1       878 1.89296E-04-1.44170E-05 3.30872E-24
 -1       879 1.89716E-04-1.51774E-05 0.00000E+00
 -1       880 1.90120E-04-1.58942E-05 0.00000E+00
 -1       881 1.90510E-04-1.65746E-05-1.65436E-24
 -1       882 1.90889E-04-1.72259E-05-3.30872E-24
 -1       883 1.91261E-04-1.78554E-05 1.65436E-24
 -1       884 1.91626E-04-1.84705E-05 3.30872E-24
 -1       885 1.91990E-04-1.90783E-05 0.00000E+00
 -1       886 1.92353E-04-1.96863E-05 0.00000E+00
 -1       887 1.92719E-04-2.03017E-05 0.00000E+00
 -1       888 1.93090E-04-2.09318E-05 3.30872E-24
 -1       889 1.93468E-04-2.15840E-05 1.65436E-24
 -1       890 1.93857E-04-2.22657E-05 1.65436E-24
 -1       891 1.88840E-04-2.27041E-05 1.65436E-24
 -1       892 1.90070E-04-2.27612E-05 0.00000E+00
 -1       893 1.91251E-04-2.28181E-05-8.27181E-25
 -1       894 1.92358E-04-2.28749E-05 4.13590E-25
 -1       895 1.93368E-04-2.29314E-05-4.13590E-25
 -1       956 1.98133E-04 1.73541E-06 1.65436E-24
 -1       957 1.98002E-04 6.12280E-07-8.27181E-25
 -1       958 1.97871E-04-4.31363E-07 0.00000E+00
 -1       959 1.97740E-04-1.40664E-06 0.00000E+00
 -1       960 1.97608E-04-2.32471E-06-3.30872E-24
 -1       961 1.97477E-04-3.19676E-06 1.65436E-24
 -1       962 1.97346E-04-4.03400E-06-3.30872E-24
 -1       963 1.97215E-04-4.84766E-06 1.65436E-24
 -1       964 1.97083E-04-5.64896E-06 0.00000E+00
 -1       965 1.96952E-04-6.44910E-06-1.65436E-24
 -1       966 1.96821E-04-7.25932E-06 0.00000E+00
 -1       967 1.96689E-04-8.09083E-06 1.65436E-24
 -1       968 1.96558E-04-8.95484E-06 0.00000E+00
 -1       969 1.96427E-04-9.86254E-06 0.00000E+00
 -1       970 1.96296E-04-1.08251E-05 0.00000E+00
 -1       971 1.96049E-04-1.28796E-05 3.30872E-24
 -1       972 1.95929E-04-1.38118E-05 0.00000E+00
 -1       973 1.95809E-04-1.46601E-05-3.30872E-24
 -1       974 1.95688E-04-1.54353E-05 0.00000E+00
 -1       975 1.95568E-04-1.61482E-05-3.30872E-24
 -1       976 1.95448E-04-1.68097E-05-1.65436E-24
 -1       977 1.95328E-04-1.74306E-05 0.00000E+00
 -1       978 1.95207E-04-1.80218E-05 1.65436E-24
 -1       979 1.95087E-04-1.85942E-05 3.30872E-24
 -1       980 1.94967E-04-1.91586E-05 0.00000E+00
 -1       981 1.94847E-04-1.97259E-05 0.00000E+00
 -1       982 1.94727E-04-2.03070E-05-1.65436E-24
 -1       983 1.94607E-04-2.09127E-05-3.30872E-24
 -1       984 1.94487E-04-2.15539E-05 0.00000E+00
 -1       985 1.94368E-04-2.22415E-05 0.00000E+00
 -3
    1PSTEP                        38          19           1          
  100CL  119 6.58401E-01         409                     0   19           1
 -4  STRESS      6    1
 -5  SXX         1    4    1    1
 -5  SYY         1    4    2    2
 -5  SZZ         1    4    3    3
 -5  SXY         1    4    1    2
 -5  SYZ         1    4    2    3
 -5  SZX         1    4    3    1
 -1         1-4.94393E+06-1.76265E+06-1.08282E+06-1.63401E+06 5.82077E-11 3.47791E-08
 -1         2 1.59332E+05 3.19255E+05 6.43585E+05 9.18220E+05 8.50196E-09 3.03255E-07
 -1         3-1.41383E+03-1.64080E+06 4.18051E+02-2.26985E+03-5.17332E-10 7.07660E-08
 -1         5-6.43873E+01 3.81246E+05 9.85191E+00-1.20946E+00-4.59257E-10 2.17151E-08
 -1         8-3.46551E+05-1.30918E+05 6.45604E+03-2.30577E+05-4.66571E-10 1.06866E-07
 -1         9 1.00537E+07-2.22335E+05 1.75133E+06-1.26632E+06 2.16300E-08-1.33901E-07
 -1        10-2.27431E+03-1.70989E+06-4.06936E+03-1.53406E+04-1.31313E-08-4.33545E-09
 -1        12-6.04922E+01 3.81267E+05 3.23186E+02-8.29275E+00-5.74005E-10-1.16006E-08
 -1        15 1.08633E+03 5.96995E+02 3.51154E+03 1.34219E+00 1.42791E-10-1.04495E-08
 -1        16 2.09941E+07-1.52284E+05 2.91466E+06-1.77142E+06 1.86459E-08-1.68414E-08
 -1        17 7.53192E+06 5.57547E+06 2.03716E+06 5.39970E+06 2.36963E-08 2.28756E-08
 -1        18 1.32336E+05 3.07791E+04 2.12640E+03-1.17199E+05 1.07798E-08-6.77119E-10
 -1        19 1.20893E+05 1.39886E+05-9.32868E+02 2.18186E+04 1.46301E-09-2.29884E-09
 -1        20-7.97637E+04-5.66897E+05-1.27122E+05 2.55004E+04-1.93101E-09-2.61328E-10
 -1        21-4.55261E+01-2.93975E+05-9.19025E+02 2.50632E+02 1.20810E-08 3.61167E-09
 -1        24 1.24606E+07 1.07661E+07 3.48529E+06 1.00013E+07-1.57840E-07-5.42301E-08
 -1        25 1.06948E+05 2.00496E+05 8.29648E+04-6.05228E+05-6.20821E-10 2.10171E-08
 -1        26-5.43756E+04 9.10752E+04-2.43076E+04 8.25466E+02 1.58616E-10 1.34986E-09
 -1        27-7.54998E+04-3.06492E+05-1.12209E+05 6.82274E+04 3.94690E-09-7.00008E-10
 -1        28 2.21260E+04-8.46037E+04 1.67753E+04 2.07121E+04-4.04924E-09-7.62783E-09
 -1        32-1.66611E+06-3.11551E+06-1.87921E+05 3.82536E+05-4.16403E-08-1.17741E-08
 -1        33-1.76604E+05 9.17447E+04 3.19977E+04-3.83808E+04-2.74357E-09-3.69861E-11
 -1        34-2.21394E+05-2.46417E+04 6.76440E+02 7.45998E+04-4.55889E-09-6.35434E-10
 -1        35-2.27921E+04-3.35542E+04-1.33602E+03 5.11479E+04-5.53792E-09-3.50459E-09
 -1        51 5.62371E+04-1.91611E+05 1.20187E+05-5.27570E+05 1.16415E-10-8.21165E-08
 -1        52 1.94915E+04-1.71298E+05 6.37808E+04-6.15025E+05 3.24690E-10-3.77295E-08
 -1        53 4.54009E+03-1.86922E+05 3.43407E+04-5.25619E+05 4.58385E-10-3.48591E-08
 -1        54 9.20329E+03-1.83015E+05 3.05230E+04-6.17058E+05 3.63798E-12-2.62662E-07
 -1        55 1.97266E+04-1.91278E+05 3.98190E+04-5.25355E+05 5.02041E-10 7.89296E-08
 -1        56-9.24672E+06-1.11453E+06-8.13714E+05-3.69356E+06-9.29867E-09 4.26371E-08
 -1        57-9.93254E+06-1.41180E+06-5.36807E+05-3.18944E+06-1.33768E-08 1.05007E-07
 -1        58-9.28084E+06-1.47242E+06-1.89989E+05-3.76131E+06 3.04135E-09-4.36266E-08
 -1        59-9.90500E+06-9.86271E+05-1.11063E+05-3.13298E+06-1.71713E-09 2.12487E-07
 -1        60-9.28978E+06-1.51871E+06-4.38687E+04-3.76683E+06 8.93124E-09-1.81546E-07
 -1        61-9.77397E+06-1.02434E+06-2.03181E+04-3.21221E+06-1.49830E-08-1.17013E-07
 -1        62-9.39785E+06-1.44230E+06-1.94209E+04-3.67196E+06-2.47746E-09-1.38922E-07
 -1        63-9.49678E+06-1.25402E+06-2.62931E+02-3.44979E+06-7.65431E-09 1.23531E-07
 -1        64-9.54476E+06-1.30420E+06-2.14114E+04-3.51300E+06 1.10813E-08 6.11672E-08
 -1        65-9.25640E+06-1.51735E+06-1.49267E+04-3.75978E+06-9.94623E-09-1.47398E-07
 -1        66-9.64679E+06-1.17334E+06-4.27174E+04-3.36894E+06-4.00905E-09 1.08501E-07
 -1        67-9.16890E+06-1.70870E+06-9.84879E+04-3.96572E+06-2.08966E-08-7.05550E-08
 -1        68-9.65723E+06-1.09697E+06-1.67884E+05-3.32418E+06-9.16407E-09 5.02259E-08
 -1        69-9.34301E+06-1.96303E+06-4.81923E+05-3.89161E+06-3.49701E-08-6.68879E-08
 -1        70-9.47183E+06-9.29307E+05-7.24638E+05-3.43843E+06 7.49424E-09-1.16270E-07
 -1        86-1.61444E+05-4.48652E+06-3.52942E+05-4.50953E+05-9.19335E-08-8.41101E-09
 -1        87 2.14296E+05-1.59524E+06 2.88493E+05 1.21545E+06-1.62028E-07 2.40825E-08
 -1        88-2.21042E+04-2.78165E+06 1.38063E+04-7.59476E+05-1.52967E-07 2.05715E-07
 -1        89 2.89725E+05-1.72399E+06 2.57377E+05 1.26670E+06-2.14231E-07-4.57439E-08
 -1        90-2.19854E+05-4.37533E+06-3.96545E+05-5.04071E+05-6.11144E-08 1.01834E-07
 -1       121-1.94146E+03-1.64549E+06-4.82892E+02 1.12598E+03 1.33720E-09 4.55475E-09
 -1       122-1.22168E+03-1.64086E+06 8.03734E+02-4.54096E+03-5.39920E-09-4.47671E-08
 -1       123-1.96581E+03-1.64563E+06 3.73080E+02 3.36180E+03 4.27644E-09-2.49056E-08
 -1       124 4.91993E+02-1.64037E+06 3.11385E+03-9.47307E+03-9.72977E-09-5.40422E-09
 -1       125-2.82497E+03-1.64657E+06 3.76676E+03 6.01625E+03 6.27551E-09-2.26137E-08
 -1       191-6.78962E+01 3.81266E+05 8.87778E+00 6.27535E-01-5.27681E-10 9.08221E-09
 -1       192-6.53315E+01 3.81246E+05 2.09995E+01-3.92309E+00-7.50036E-10 1.26374E-08
 -1       193-7.03851E+01 3.81265E+05 3.62344E+01 3.43555E+00-9.87010E-10 4.85488E-09
 -1       194-6.83601E+01 3.81250E+05 7.97714E+01-8.91703E+00-4.55984E-10-2.04000E-09
 -1       195-7.51631E+01 3.81263E+05 1.53206E+02 5.77720E+00-1.31331E-09-1.44519E-08
 -1       251-1.53946E+06-6.75809E+04-1.76097E+05-1.04977E+05 4.45471E-09-4.35903E-08
 -1       252-1.93176E+05 7.09647E+04 1.31475E+05 3.08088E+05 6.99674E-09-7.55558E-08
 -1       253-9.76674E+05-7.97107E+03-2.57511E+04-1.96128E+05-4.54656E-09-5.73541E-08
 -1       254-7.73594E+05 3.66372E+04 2.67615E+04 3.94851E+05-1.89288E-08-1.51380E-07
 -1       255-9.92203E+05-5.65643E+03-2.13929E+04-1.95149E+05 5.11773E-09-8.97121E-08
 -1       256-1.69321E+05 4.08400E+04 1.47465E+05 3.00243E+05 2.51366E-08 7.89391E-08
 -1       257-1.54568E+06-4.15462E+04-1.35525E+05-9.79908E+04-3.81297E-08-3.37991E-08
 -1       258 4.34970E+05 4.93554E+04 2.67088E+05 6.26402E+03-5.95901E-09-3.78783E-07
 -1       259-1.56123E+06-4.33487E+04-1.36865E+05 9.65730E+04-1.73350E-09-6.22834E-08
 -1       260-1.33410E+05 4.53365E+04 1.60497E+05-2.91463E+05-1.32818E-08-1.45434E-07
 -1       261-1.01044E+06-1.01300E+04-1.48660E+04 1.97344E+05 8.41992E-08 5.94132E-08
 -1       262-7.68002E+05 5.19782E+04 5.33388E+04-3.91233E+05-3.71670E-08 1.22709E-07
 -1       263-9.63885E+05-1.89489E+04 1.96609E+04 2.00216E+05-3.86626E-09 4.77139E-08
 -1       264-1.96337E+05 1.53257E+05 2.38333E+05-3.15387E+05 1.39899E-07-8.00555E-08
 -1       265-1.55123E+06-1.36925E+05-9.91814E+03 1.18053E+05 5.32018E-08-9.53878E-08
 -1       266-1.96663E+04-9.19661E+03 4.61400E+04-2.87173E+01 1.41881E-10 1.90371E-07
 -1       267 2.27985E+04 1.07179E+04 3.26125E+04 3.31359E+01-1.74623E-10 3.57820E-08
 -1       268-3.05725E+03-1.51800E+03 1.21218E+04-4.22199E+00-2.81943E-11 2.37551E-08
 -1       269 3.60970E+03 1.81667E+03 7.87908E+03 4.91809E+00-2.59092E-10-2.73951E-07
 -1       270-5.41820E+02-2.98495E+02 3.80334E+03-6.67415E-01-1.18916E-10-6.41012E-09
 -1       271-1.84122E+06-2.18558E+05-1.38343E+05-7.01354E+05 8.22183E-10 6.65896E-08
 -1       272-1.94907E+06-2.62188E+05-8.90631E+04-6.35150E+05-2.36359E-08 2.68526E-07
 -1       273-1.86620E+06-2.54219E+05-3.26491E+04-6.96391E+05 1.72236E-09 2.81259E-07
 -1       274-1.91932E+06-2.18775E+05-1.83097E+04-6.42910E+05-1.67893E-08 1.82551E-07
 -1       275-1.87000E+06-2.57733E+05-7.62532E+03-6.95036E+05-1.00090E-08-1.46476E-07
 -1       276-1.91317E+06-2.15858E+05-3.95579E+03-6.45606E+05 3.13958E-09-1.45798E-07
 -1       277-1.87168E+06-2.57060E+05-2.03643E+03-6.93438E+05-3.14003E-08 6.11208E-08
 -1       278-1.90886E+06-2.18606E+05-1.15221E+03-6.48804E+05 7.73925E-08-5.17139E-09
 -1       279-1.87348E+06-2.55459E+05-1.41338E+03-6.91273E+05 7.37782E-09 7.68623E-08
 -1       280-1.90405E+06-2.23058E+05-1.81930E+03-6.52976E+05-2.94895E-08-6.86305E-08
 -1       281-1.87556E+06-2.53206E+05-3.87599E+03-6.88615E+05 2.90584E-08 8.92760E-09
 -1       282-1.89992E+06-2.30409E+05-8.15972E+03-6.57860E+05-3.58268E-08 1.05848E-07
 -1       283-1.87675E+06-2.48881E+05-1.53366E+04-6.85703E+05 2.71684E-08-2.08698E-07
 -1       284-1.90652E+06-2.56303E+05-4.02586E+04-6.61026E+05-2.75022E-08-1.67687E-07
 -1       285-1.86853E+06-2.29799E+05-6.35700E+04-6.84245E+05 1.96451E-10 5.32527E-08
 -1       301 6.84936E+03-5.72099E+05 1.76092E+05-9.80908E+05 1.89175E-09-4.77594E-08
 -1       302 7.34504E+03-5.25907E+05 1.06124E+05-1.43295E+06-4.88217E-09 2.52769E-07
 -1       303-1.16669E+04-5.60052E+05 6.18432E+04-9.78306E+05-1.71713E-09-2.45942E-07
 -1       304-7.82011E+03-5.31914E+05 6.54611E+04-1.43227E+06-1.19326E-09 7.20611E-08
 -1       305-1.15232E+04-5.53751E+05 8.52640E+04-9.81198E+05 1.57524E-09-9.53878E-08
 -1       306-2.87335E+07-5.91331E+06-8.11065E+06-8.77471E+05-7.83475E-08-2.48954E-07
 -1       307 2.43661E+07 2.67195E+06 5.25703E+06-1.39115E+07-8.18589E-07 1.22935E-07
 -1       308-7.53847E+06-9.89786E+05-5.77894E+05 4.93936E+06-1.64000E-07 3.12575E-08
 -1       309-3.76134E+06 7.85042E+06 2.03591E+06-1.96196E+07 4.73803E-07 3.91898E-07
 -1       310-1.14590E+07-1.60055E+06-1.64056E+06 4.90188E+06-3.10945E-07-1.95228E-07
 -1       311 3.34886E+07 6.56661E+04 6.51743E+06-9.33544E+06 4.65254E-07 7.92788E-08
 -1       312-2.99341E+07-6.01155E+06-7.76940E+06-4.11476E+06 2.13040E-07 2.69167E-07
 -1       313 4.31790E+07 1.22271E+07 9.88912E+06 2.07720E+07-5.79457E-08 2.29513E-07
 -1       314-1.74923E+07-1.58672E+07-7.06277E+06-1.19205E+07 6.58503E-07-1.51049E-07
 -1       315-7.11122E+05 2.69743E+07 5.40028E+06 1.11884E+07-4.34971E-07-1.54250E-07
 -1       316 7.26391E+05-9.62849E+06-5.50636E+05-3.17640E+06-1.04339E-06-3.20288E-07
 -1       317-1.72539E+07 2.12150E+07 2.00006E+06-7.20151E+06 8.60862E-07-6.09230E-07
 -1       318-1.05099E+06-1.15032E+07-1.67874E+06-4.31022E+06-9.02190E-07 1.13330E-07
 -1       319 5.75069E+06 2.85616E+07 6.28729E+06 1.49813E+07-8.71005E-08 2.34926E-07
 -1       320-2.12306E+07-1.61012E+07-9.01412E+06-1.19244E+07 1.74507E-07-5.20085E-08
 -1       336-5.33139E+02-1.78131E+06-1.42633E+04 9.16918E+03-2.57241E-08-4.14730E-09
 -1       337-5.48789E+03-1.78138E+06-1.86362E+04-2.21865E+04-4.82250E-08 5.71163E-10
 -1       338 4.68107E+02-1.78081E+06-2.91083E+04 1.27880E+04-3.43771E-08 1.53377E-08
 -1       339-3.08802E+04-1.79896E+06-6.59325E+04-2.92521E+04-6.09980E-08 4.65861E-08
 -1       340 2.05605E+04-1.76590E+06-1.03713E+05 1.61086E+04-3.99486E-08 3.35749E-08
 -1       406-3.86314E+01 3.81249E+05 6.35077E+02 2.95802E+00-1.87887E-09 1.44992E-08
 -1       407 1.62306E+02 3.81379E+05 1.35610E+03 2.18396E+01-5.61073E-10 1.69530E-09
 -1       408 6.35607E+02 3.81150E+05 2.70460E+03-2.51698E+01-2.18529E-09 5.68434E-09
 -1       409 2.87267E+03 3.82242E+05 6.09487E+03 2.67312E+02-3.72665E-10-6.51471E-09
 -1       410 8.36185E+03 3.80373E+05 1.24398E+04-2.57489E+02-2.81761E-09-6.42103E-10
 -1       521-3.02682E+07-7.26707E+06-9.46384E+06-5.29648E+05-1.01514E-07 3.37721E-07
 -1       522 2.51907E+07 3.48590E+06 5.34009E+06-1.71775E+07-5.11034E-07-1.22120E-07
 -1       523-8.19572E+06-1.29762E+06-5.88427E+05 5.38304E+06 9.91859E-08-4.09666E-07
 -1       524-7.13328E+06 1.06325E+07 2.19984E+06-2.25576E+07 9.57763E-07-7.41762E-07
 -1       525-1.23250E+07-2.14606E+06-1.79910E+06 5.34049E+06 7.31612E-07-1.49303E-08
 -1       526 3.63362E+07 7.11108E+04 6.84233E+06-1.19447E+07-9.84874E-08 1.70316E-07
 -1       527-3.17091E+07-7.55783E+06-8.93443E+06-3.98211E+06 1.14553E-07-4.16767E-08
 -1       528 4.71699E+07 1.34573E+07 1.03061E+07 2.35396E+07-4.96919E-07-1.23749E-07
 -1       529-1.84823E+07-1.79154E+07-8.08619E+06-1.20386E+07 1.18744E-07 7.33417E-08
 -1       530-3.05369E+06 3.13738E+07 5.70177E+06 1.10404E+07-2.19370E-07 6.50471E-07
 -1       531 6.81317E+05-1.07355E+07-5.44924E+05-3.23397E+06-8.99541E-07 2.28873E-07
 -1       532-2.00567E+07 2.33865E+07 2.18707E+06-1.09972E+07 3.38914E-07-7.10192E-07
 -1       533-1.10802E+06-1.26383E+07-1.77371E+06-4.26468E+06-1.86381E-07-1.02143E-06
 -1       534 3.73892E+06 3.31335E+07 6.54196E+06 1.54875E+07-3.72529E-08 7.21309E-07
 -1       535-2.23717E+07-1.82940E+07-1.03022E+07-1.20425E+07 6.75209E-08 4.48897E-07
 -1       536-6.90792E+05-4.71573E+04-3.92036E+04-5.25245E+04-7.06223E-09 5.87079E-08
 -1       537-6.97695E+04 4.56143E+04 8.42670E+04 1.19716E+05-1.11602E-07 1.07153E-07
 -1       538-3.93816E+05 2.75716E+03 5.06263E+03-7.01217E+04 2.17585E-08 1.12931E-07
 -1       539-2.74633E+05 3.10662E+03 2.46332E+04 1.34484E+05 1.81799E-07 1.00371E-07
 -1       540-4.91040E+05-3.97376E+02-1.97421E+04-6.77861E+04 1.18328E-08 9.66321E-08
 -1       541 1.20022E+05 1.61424E+04 1.01215E+05 9.43775E+04-5.38380E-08 5.58268E-08
 -1       542-7.77841E+05-1.91510E+04-7.99163E+04-2.92083E+04-2.84122E-08 3.39654E-08
 -1       543 3.65710E+05 2.59729E+04 1.50024E+05-1.30061E+04-2.33465E-08 1.33105E-09
 -1       544-7.30143E+05-1.56831E+04-7.10195E+04 3.89785E+04-8.61701E-09-2.55865E-08
 -1       545 7.75932E+03 8.91781E+03 7.55774E+04-1.09854E+05 3.64626E-08-8.00874E-08
 -1       546-4.29494E+05 5.86526E+03-1.16593E+04 6.73216E+04 1.29371E-08-9.06883E-08
 -1       547-2.92122E+05-4.67875E+03 9.62998E+03-1.37298E+05-1.05969E-07-1.04469E-07
 -1       548-4.38314E+05 4.64623E+03-2.32434E+04 6.70605E+04-1.10012E-07-9.71017E-08
 -1       549 2.65681E+04 1.41730E+04 5.60284E+04-1.07615E+05-5.87481E-08-6.77915E-08
 -1       550-7.39654E+05-2.01142E+04-1.24673E+05 3.69762E+04 2.46291E-09-3.93466E-08
 -1       551 3.98759E+04-7.77116E+05-1.19338E+04-1.23788E+06-9.99134E-08-1.39698E-08
 -1       552 9.07366E+04-8.19990E+05 1.22541E+04-1.76536E+06-7.09697E-08 3.08355E-08
 -1       553 6.95260E+04-8.17104E+05 3.36822E+04-1.23139E+06-1.15659E-07 2.84635E-08
 -1       554 1.28831E+05-8.34675E+05 8.31344E+04-1.76732E+06-7.39092E-08 1.89611E-08
 -1       555 9.93221E+04-8.40463E+05 1.51240E+05-1.23130E+06-1.20504E-07-1.91321E-08
 -1       556 2.16570E+05-3.72792E+05 3.27406E+04-4.00240E+05-2.47383E-08-4.74392E-09
 -1       557 3.45303E+05-4.75412E+05 1.96320E+04-5.17203E+05-1.13941E-08 2.11003E-10
 -1       558 1.99641E+05-3.67310E+05 4.03344E+03-4.03379E+05-2.17697E-08 5.67525E-09
 -1       559 3.20578E+05-4.76602E+05 3.21819E+03-5.36729E+05 1.54832E-08-1.23473E-08
 -1       560 1.85119E+05-3.58192E+05-1.00271E+03-4.13813E+05 7.59610E-09 8.76025E-09
 -1       561 3.02232E+05-4.69323E+05 3.30863E+02-5.49198E+05 1.01863E-10-3.09956E-09
 -1       562 1.73631E+05-3.51041E+05-1.14965E+03-4.22126E+05 2.50293E-09 9.82982E-09
 -1       563 2.88589E+05-4.63375E+05 1.77793E+01-5.58100E+05 5.18048E-09-4.01815E-09
 -1       564 1.65454E+05-3.45943E+05-5.35239E+02-4.27919E+05 1.04919E-08-6.50380E-09
 -1       565 2.79582E+05-4.59453E+05 3.82795E+01-5.63853E+05 1.53668E-08-5.93172E-09
 -1       566 1.60707E+05-3.42939E+05-2.34842E+02-4.31240E+05-2.07365E-09-7.51788E-09
 -1       567 2.75260E+05-4.57573E+05-3.41893E+02-5.66472E+05 1.58543E-08 1.22345E-08
 -1       568 1.59479E+05-3.42188E+05-1.07448E+03-4.32195E+05-3.88718E-09 1.08375E-08
 -1       569 2.74264E+05-4.57513E+05-2.71524E+03-5.64998E+05 9.74978E-10 1.03755E-08
 -1       570 1.62837E+05-3.45356E+05-5.94686E+03-4.31206E+05 1.26165E-08 2.93221E-09
 -1       571 2.86716E+05 1.03744E+04 1.48382E+04-9.28310E+04 2.94676E-09 4.66889E-09
 -1       572 2.88870E+05 3.89046E+03 7.27179E+03-1.01844E+05 2.78897E-09 3.83807E-09
 -1       573 2.87572E+05 1.20582E+03 3.23107E+03-9.26569E+04 3.25599E-09 5.05133E-09
 -1       574 2.87787E+05 6.89468E+02 1.62028E+03-1.02064E+05 3.53521E-09-1.73168E-09
 -1       575 2.87665E+05 4.16050E+02 7.64688E+02-9.26331E+04-3.53310E-09 1.13423E-08
 -1       576 2.87652E+05 4.24696E+02 3.91429E+02-1.02093E+05-1.16863E-08-9.70158E-09
 -1       577 2.87703E+05 3.59437E+02 1.95349E+02-9.26299E+04-2.52476E-08 2.57842E-09
 -1       578 2.87679E+05 3.88473E+02 1.12666E+02-1.02097E+05-3.80046E-08-6.35009E-09
 -1       579 2.87771E+05 3.25087E+02 7.72528E+01-9.26295E+04-9.11496E-09 6.68115E-09
 -1       580 2.87776E+05 3.40472E+02 8.92652E+01-1.02093E+05-6.07724E-09 4.48017E-09
 -1       581 2.87879E+05 2.70034E+02 1.34781E+02-9.26353E+04 5.70071E-09-1.57033E-08
 -1       582 2.87942E+05 3.06581E+02 2.73614E+02-1.02032E+05 1.21781E-09-1.18553E-08
 -1       583 2.88011E+05 3.14559E+02 5.25494E+02-9.26903E+04 7.60338E-09 2.01408E-09
 -1       584 2.88304E+05 7.42753E+02 1.18868E+03-1.01569E+05 2.13549E-08 8.22729E-09
 -1       585 2.88031E+05 1.74614E+03 2.40756E+03-9.30982E+04 7.00493E-09 1.48793E-09
 -1       586-3.38296E+03 1.14124E+05-2.96476E+03-2.47915E+05-6.24004E-09 5.03701E-09
 -1       587-1.28507E+03 1.13862E+05 7.12001E+02-2.72851E+05-2.71211E-09-1.89269E-08
 -1       588 4.35881E+02 1.13686E+05 4.66125E+03-2.47780E+05-4.82214E-09 1.55751E-08
 -1       589 5.05439E+03 1.16113E+05 1.21330E+04-2.72617E+05-5.22414E-09-4.79758E-09
 -1       590 1.63874E+04 1.12373E+05 2.54685E+04-2.48206E+05-5.06589E-09 6.87942E-09
 -1       591-7.31714E+04-1.57534E+04-2.21188E+04-3.13871E+04 1.53773E-09 5.08771E-09
 -1       592-7.71274E+04-1.93049E+04-1.19813E+04-3.50133E+04 7.99989E-09-1.00938E-08
 -1       593-7.53840E+04-1.41479E+04-4.98724E+03-3.30084E+04 6.54433E-09-1.49637E-08
 -1       594-7.40726E+04-1.60601E+04-2.48727E+03-3.51300E+04 1.58479E-09-1.59420E-09
 -1       595-7.55527E+04-1.41425E+04-1.14194E+03-3.30821E+04-7.59890E-10 1.23738E-08
 -1       596-7.38635E+04-1.59117E+04-5.80362E+02-3.51052E+04 7.98214E-09 4.59750E-10
 -1       597-7.55739E+04-1.41576E+04-3.15712E+02-3.30849E+04 1.52625E-09 1.72355E-09
 -1       598-7.38429E+04-1.59059E+04-2.53224E+02-3.50983E+04-5.96691E-09 2.42696E-09
 -1       599-7.55726E+04-1.41581E+04-3.22751E+02-3.30846E+04 3.90469E-09-1.30490E-08
 -1       600-7.38636E+04-1.59123E+04-5.98996E+02-3.51031E+04 3.32966E-09-3.43249E-08
 -1       601-7.55483E+04-1.41438E+04-1.18139E+03-3.30811E+04 2.90584E-09 4.76439E-09
 -1       602-7.40798E+04-1.60647E+04-2.57457E+03-3.51250E+04-5.86283E-10-6.57656E-09
 -1       603-7.53710E+04-1.41522E+04-5.16299E+03-3.30056E+04-8.93579E-11 6.52153E-09
 -1       604-7.72595E+04-1.94046E+04-1.24027E+04-3.49798E+04 1.14994E-10-6.73481E-10
 -1       605-7.30608E+04-1.58317E+04-2.28969E+04-3.13463E+04 1.73264E-09 2.45309E-08
 -1       606 2.68954E+04-1.41196E+04-2.53146E+04 2.43025E+04 4.76757E-09-3.58659E-09
 -1       607 2.25697E+04-4.60980E+03-1.26065E+04 2.73085E+04 7.00311E-11-8.81846E-09
 -1       608 2.50343E+04-8.30099E+02-5.64362E+03 2.41297E+04-3.68163E-09 2.35514E-09
 -1       609 2.45610E+04-2.82292E+02-2.85097E+03 2.75251E+04-1.87720E-09-1.56997E-08
 -1       610 2.48228E+04-3.78981E+01-1.36031E+03 2.41093E+04 3.07864E-09 8.62656E-10
 -1       611 2.47478E+04-3.73341E+01-6.85856E+02 2.75485E+04 9.34642E-09-9.57516E-09
 -1       612 2.47756E+04-2.38731E+01-3.26129E+02 2.41072E+04 5.55883E-09-4.49040E-09
 -1       613 2.47584E+04-3.28254E+01-1.46187E+02 2.75513E+04 6.04541E-09-7.76754E-09
 -1       614 2.47531E+04-2.97795E+01-3.44296E+01 2.41065E+04 3.21143E-09 1.09778E-08
 -1       615 2.47525E+04-3.09857E+01 6.09474E+01 2.75517E+04-2.16642E-09 6.31849E-09
 -1       616 2.47355E+04-2.63944E+01 1.83052E+02 2.41068E+04 8.56744E-10-4.43356E-09
 -1       617 2.47741E+04 8.32376E+00 4.17776E+02 2.75512E+04-1.14346E-09-1.27341E-08
 -1       618 2.46988E+04 9.42734E+01 8.42133E+02 2.41071E+04-2.80670E-09 7.10634E-09
 -1       619 2.50710E+04 6.59650E+02 1.89111E+03 2.75506E+04-3.81635E-09 8.60086E-09
 -1       620 2.44189E+04 2.09136E+03 3.80108E+03 2.41084E+04 3.94039E-10-1.05279E-08
 -1       621 4.92295E+02 2.97384E+05 3.80184E+03 3.92123E+04 1.05410E-09 6.13545E-09
 -1       622 6.48149E+02 2.98267E+05 3.38033E+03 5.69342E+04 1.30876E-09 1.52695E-08
 -1       623 1.29694E+02 2.97578E+05 4.07110E+03 3.90345E+04 1.16916E-09 2.98678E-09
 -1       624 2.07466E+03 2.99473E+05 7.89920E+03 5.71094E+04 1.32786E-09-9.83414E-09
 -1       625 2.03201E+03 2.96012E+05 1.38071E+04 3.90314E+04 1.49112E-09 7.43967E-10
 -1       626 2.57557E+05 6.10696E+04 5.08676E+03 1.25682E+05-2.53021E-09-1.34005E-08
 -1       627 2.55224E+05 6.24882E+04 2.45127E+03 1.29961E+05-8.26321E-09 1.90337E-08
 -1       628 2.57686E+05 5.87397E+04 1.03665E+03 1.26543E+05-1.50185E-08-5.30918E-09
 -1       629 2.54589E+05 6.18158E+04 5.07403E+02 1.30202E+05-9.22091E-09 9.18088E-09
 -1       630 2.57700E+05 5.86274E+04 2.35409E+02 1.26579E+05-5.85078E-09 1.49782E-08
 -1       631 2.54521E+05 6.17906E+04 1.26746E+02 1.30204E+05 3.24803E-09 2.44129E-08
 -1       632 2.57696E+05 5.86316E+04 8.35183E+01 1.26575E+05-1.19467E-08 5.66592E-09
 -1       633 2.54513E+05 6.17927E+04 9.32086E+01 1.30200E+05-3.41786E-08 5.09090E-09
 -1       634 2.57691E+05 5.86290E+04 1.50778E+02 1.26574E+05-1.71832E-08 8.70295E-09
 -1       635 2.54526E+05 6.17911E+04 3.05193E+02 1.30205E+05-2.53976E-09-1.42986E-08
 -1       636 2.57681E+05 5.86235E+04 6.16383E+02 1.26573E+05-2.46473E-10-1.23669E-08
 -1       637 2.54660E+05 6.18870E+04 1.35527E+03 1.30204E+05-6.29848E-09-1.63300E-09
 -1       638 2.57633E+05 5.89229E+04 2.78459E+03 1.26438E+05 1.39039E-08 1.24905E-08
 -1       639 2.56122E+05 6.39214E+04 6.58843E+03 1.29774E+05 2.98498E-08 1.44587E-08
 -1       640 2.57431E+05 6.49971E+04 1.36721E+04 1.23878E+05 1.55537E-08 3.69437E-09
 -1       656 6.58724E+04-1.68508E+06-1.59011E+05-2.38670E+03-5.82077E-11-1.58292E-09
 -1       657-8.71395E+04-1.75693E+06-1.31723E+05 5.38725E+03 1.05501E-10 1.85410E-08
 -1       658 2.09943E+04-1.70548E+06-8.11146E+04-4.43998E+03-5.53655E-10 5.18298E-09
 -1       659-9.42001E+04-1.76028E+06-1.41002E+05 7.07739E+03-1.89812E-09-2.27573E-08
 -1       660 7.29173E+04-1.68173E+06-1.74963E+05-4.07683E+03-2.50293E-09-1.22926E-08
 -1       661 1.60039E+05 1.67879E+04 1.67824E+04 6.25635E+04 3.00133E-10 9.23865E-09
 -1       662 1.69492E+05 2.92515E+04 1.13101E+04 5.88393E+04 2.78777E-09 6.03211E-09
 -1       663 1.63336E+05 2.21720E+04 3.95561E+03 6.16069E+04-1.23578E-09-6.02449E-09
 -1       664 1.65670E+05 2.29550E+04 2.36621E+03 6.00077E+04 3.49502E-10 5.53305E-09
 -1       665 1.63836E+05 2.29075E+04 9.33450E+02 6.14612E+04-1.60600E-09-7.14692E-09
 -1       666 1.65078E+05 2.21139E+04 5.46295E+02 6.01978E+04 8.92851E-09 1.75193E-09
 -1       667 1.63923E+05 2.29912E+04 2.90237E+02 6.14247E+04 8.22439E-10 4.61509E-09
 -1       668 1.64982E+05 2.20536E+04 2.95902E+02 6.02508E+04-4.41077E-09-2.13493E-08
 -1       669 1.63931E+05 2.29661E+04 4.00744E+02 6.14084E+04-2.48667E-09 6.58051E-09
 -1       670 1.65079E+05 2.22712E+04 8.72757E+02 6.02538E+04-1.10651E-08-2.09894E-09
 -1       671 1.63826E+05 2.27782E+04 1.54969E+03 6.14197E+04-1.51012E-09-2.92209E-09
 -1       672 1.65982E+05 2.37789E+04 3.96487E+03 6.00351E+04 6.55540E-09 2.18813E-09
 -1       673 1.63033E+05 2.14965E+04 6.64450E+03 6.16125E+04 1.87663E-09-1.16024E-08
 -1       674 1.72306E+05 3.44540E+04 1.90019E+04 5.81772E+04-5.42411E-09-1.34005E-08
 -1       675 1.57542E+05 1.24021E+04 2.82054E+04 6.31655E+04-1.41927E-09-1.02609E-08
 -1       676 2.39637E+01-2.93898E+05-1.10767E+03-1.25320E+02 1.72665E-09 5.24967E-09
 -1       677-2.93193E+02-2.94166E+05-2.02722E+03 2.50439E+02 9.88609E-09-1.13271E-08
 -1       678 1.96500E+02-2.93707E+05-3.58362E+03-1.25038E+02 1.80717E-09 7.61479E-09
 -1       679-3.58386E+03-2.96329E+05-8.51319E+03 2.49366E+02 9.25502E-09 1.14216E-08
 -1       680 2.13964E+03-2.91736E+05-1.37204E+04-1.22862E+02 2.07910E-09-1.27028E-08
 -1       771-3.04749E+06-7.34221E+05-1.56747E+05-1.45182E+06-3.23926E-08-2.46509E-08
 -1       772-2.97245E+06-8.20525E+05-8.08283E+04-1.55156E+06-2.18279E-08 1.37043E-08
 -1       773-3.07742E+06-7.10834E+05-4.11625E+04-1.46532E+06-1.76951E-08 1.54978E-08
 -1       774-2.96321E+06-8.03204E+05-1.83722E+04-1.57606E+06 2.29484E-08-3.06318E-09
 -1       775-3.09299E+06-6.99886E+05-1.37130E+04-1.47186E+06-1.08557E-08-5.96629E-10
 -1       776-2.97471E+06-8.00449E+05-5.13237E+03-1.59452E+06-1.41154E-08 5.56611E-10
 -1       777-3.10648E+06-6.90138E+05-6.04733E+03-1.47764E+06 2.09548E-09 4.05998E-09
 -1       778-2.98674E+06-7.97888E+05-1.71079E+03-1.61037E+06 7.62520E-09 9.53514E-09
 -1       779-3.11806E+06-6.81633E+05-3.01848E+03-1.48258E+06-5.50062E-09-7.06132E-09
 -1       780-2.99732E+06-7.95440E+05-5.01204E+02-1.62329E+06-5.51518E-09 4.05635E-10
 -1       781-3.12725E+06-6.74782E+05-1.17277E+03-1.48644E+06-3.33675E-08-3.59432E-09
 -1       782-3.00548E+06-7.93357E+05 4.19316E+02-1.63281E+06-3.85335E-08-4.78030E-09
 -1       783-3.13372E+06-6.70027E+05 6.51429E+02-1.48915E+06-8.71660E-09-1.40922E-08
 -1       784-3.00999E+06-7.91256E+05 2.70998E+03-1.63869E+06-2.01289E-08-1.93950E-09
 -1       785-3.13754E+06-6.67197E+05 4.78229E+03-1.49087E+06-3.30037E-08 1.17598E-08
 -1       786 1.25306E+05-9.78041E+03 2.26278E+04-3.10296E+02 3.63737E-09-2.62298E-09
 -1       787 1.35119E+05 1.13234E+04 1.60083E+04-1.25634E+02 3.50204E-09 8.91214E-09
 -1       788 1.29089E+05-1.53266E+03 5.85439E+03-2.75654E+02 2.54314E-09 1.53827E-08
 -1       789 1.30711E+05 1.77393E+03 3.67529E+03-1.78870E+02 5.39650E-10-8.21876E-09
 -1       790 1.29714E+05-2.38687E+02 1.48833E+03-2.57077E+02-3.71825E-09 3.34808E-11
 -1       791 1.29981E+05 2.76142E+02 8.60147E+02-2.10689E+02-8.06236E-09 1.90705E-08
 -1       792 1.29820E+05-3.59925E+01 3.65541E+02-2.43837E+02-5.91847E-09-2.98471E-09
 -1       793 1.29854E+05 3.84563E+01 1.84523E+02-2.35622E+02-2.00445E-09 1.14473E-08
 -1       794 1.29841E+05-1.15190E+00 5.25605E+01-2.32143E+02 3.66120E-09 5.50051E-09
 -1       795 1.29819E+05-2.36120E+01-4.55449E+01-2.60075E+02-5.51857E-09-8.33549E-09
 -1       796 1.29855E+05 2.60413E+01-1.41754E+02-2.19385E+02 2.61585E-09-3.90150E-09
 -1       797 1.29735E+05-1.94997E+02-3.95034E+02-2.89438E+02 4.15575E-09-7.51218E-09
 -1       798 1.29925E+05 1.70104E+02-6.43169E+02-2.02780E+02 2.75051E-09-8.52469E-09
 -1       799 1.29246E+05-1.25389E+03-1.77085E+03-3.30534E+02 6.06679E-09 1.96298E-08
 -1       800 1.30344E+05 1.08407E+03-2.50653E+03-1.78289E+02 7.55443E-10 3.33603E-09
 -1       801-1.47134E+05-9.55480E+06-1.31900E+06 1.30759E+06 8.80682E-08-5.06880E-08
 -1       802 6.69276E+05 5.25242E+06 2.00632E+06-1.60240E+06 2.47965E-07-3.27564E-08
 -1       803-4.96226E+05-1.34669E+07-1.75354E+06 8.31749E+05 7.50442E-08 1.80225E-08
 -1       804 2.60349E+05 1.92128E+06 1.41316E+06 6.41461E+05-1.15298E-07-8.94602E-08
 -1       805 1.80336E+05-6.23838E+06-2.64850E+05-9.30973E+05-4.78612E-08-5.63887E-08
 -1       806-3.05443E+05-5.90600E+04-2.25849E+04-1.21003E+05-3.90310E-09-2.37378E-10
 -1       807-3.07227E+05-5.53664E+04-1.10957E+04-1.26474E+05 6.10430E-09-2.12778E-09
 -1       808-3.06062E+05-5.09216E+04-4.70716E+03-1.24852E+05-4.62205E-09 6.29086E-09
 -1       809-3.04895E+05-5.22485E+04-2.30168E+03-1.26747E+05-1.41215E-08-1.14333E-08
 -1       810-3.06156E+05-5.06382E+04-1.05498E+03-1.25022E+05 2.79169E-09-2.74667E-10
 -1       811-3.04714E+05-5.21232E+04-5.24647E+02-1.26712E+05-5.15683E-10 2.04154E-08
 -1       812-3.06170E+05-5.06625E+04-2.65380E+02-1.25022E+05-6.31826E-09-7.22594E-10
 -1       813-3.04689E+05-5.21253E+04-1.72551E+02-1.26693E+05-2.09184E-09-9.27685E-10
 -1       814-3.06163E+05-5.06721E+04-1.71110E+02-1.25018E+05 4.22096E-09 1.30576E-08
 -1       815-3.04693E+05-5.21275E+04-2.75819E+02-1.26686E+05 1.33696E-09 4.12842E-09
 -1       816-3.06142E+05-5.06711E+04-5.22823E+02-1.25014E+05 2.67664E-09 1.26206E-08
 -1       817-3.04782E+05-5.21773E+04-1.12211E+03-1.26675E+05-9.68430E-09 3.56158E-08
 -1       818-3.06075E+05-5.08294E+04-2.28871E+03-1.24939E+05 7.89805E-09 2.96504E-08
 -1       819-3.06035E+05-5.35600E+04-5.38523E+03-1.26378E+05 7.35827E-09-1.27602E-08
 -1       820-3.05643E+05-5.48971E+04-1.09609E+04-1.23201E+05 1.30512E-09-6.95672E-09
 -1       821-3.75957E+05 2.07079E+04-4.81277E+04 1.92269E+03 1.27701E-08-9.58971E-09
 -1       822-3.95813E+05-2.39848E+04-3.38820E+04-3.96562E+03 5.78336E-09 1.46047E-08
 -1       823-3.83506E+05 3.26035E+03-1.24380E+04 3.02936E+03-1.16487E-08 1.93527E-08
 -1       824-3.86758E+05-3.76203E+03-7.79453E+03-4.68666E+03 1.16879E-09 2.10443E-08
 -1       825-3.85016E+05 5.06579E+02-3.25305E+03 2.64382E+03 1.63464E-08 1.58861E-08
 -1       826-3.84527E+05-5.70221E+02-1.77343E+03-2.64370E+03 2.26560E-08 9.89453E-09
 -1       827-3.85718E+05 5.60222E+01-1.14244E+03 9.86293E+02 9.72858E-09 1.13811E-08
 -1       828-3.83954E+05-1.43204E+02-6.50948E+02 1.03430E+03-1.42716E-09 1.32018E-08
 -1       829-3.85580E+05 7.22782E+01-1.13625E+03-1.03422E+03 5.61698E-10 5.32339E-11
 -1       830-3.84829E+05-6.18921E+02-1.90077E+03 4.32277E+03 1.77123E-09 1.03092E-08
 -1       831-3.84860E+05 5.45485E+02-3.33933E+03-2.30220E+03-4.59077E-09-3.14822E-09
 -1       832-3.86842E+05-3.92316E+03-8.09525E+03 5.40882E+03-3.87271E-09 9.25013E-09
 -1       833-3.83579E+05 3.38312E+03-1.29341E+04-2.12030E+03-2.42741E-09 2.47746E-09
 -1       834-3.95925E+05-2.48922E+04-3.51076E+04 3.66329E+03-2.49267E-09 1.97037E-08
 -1       835-3.75764E+05 2.14855E+04-4.99816E+04-5.56604E+02 5.42076E-09 9.23683E-09
 -1       836-1.39152E+03 3.65415E+05 2.25880E+04-1.63201E+04-6.46560E-09-6.21731E-09
 -1       837 4.82076E+03 3.72487E+05 1.91224E+04-3.33004E+04-7.01709E-09 2.35445E-09
 -1       838-5.48353E+02 3.67397E+05 1.94955E+04-1.62486E+04-5.78802E-09 1.48384E-08
 -1       839 1.22796E+04 3.78042E+05 3.68916E+04-3.33519E+04-6.50334E-09 5.65939E-09
 -1       840-3.79259E+03 3.59801E+05 5.88337E+04-1.62738E+04-5.91172E-09-7.98215E-09
 -1       856-5.42733E+04 8.03025E+03-2.11615E+04-3.99220E+02 6.53904E-09-1.30422E-09
 -1       857-6.29927E+04-9.43413E+03-1.45675E+04 5.59635E+03 5.19401E-09-1.47302E-08
 -1       858-5.77259E+04 1.12609E+03-5.49096E+03-4.23416E+02 2.43631E-09-2.49065E-08
 -1       859-5.90304E+04-1.32371E+03-3.31367E+03 5.63251E+03-6.15661E-09 1.63830E-08
 -1       860-5.82417E+04 1.57635E+02-1.38898E+03-4.35144E+02 1.79091E-09 7.12538E-09
 -1       861-5.84371E+04-1.87147E+02-7.64566E+02 5.64850E+03 2.22870E-09 5.15101E-09
 -1       862-5.83223E+04 2.13152E+01-3.18742E+02-4.39386E+02-8.56712E-10 7.05973E-09
 -1       863-5.83383E+04-2.10397E+01-1.18203E+02 5.65094E+03-6.34675E-09 1.16354E-09
 -1       864-5.83409E+04-4.69904E+00 4.25200E+01-4.37578E+02-3.37450E-09 2.96822E-09
 -1       865-5.82838E+04 5.83811E+01 2.44933E+02 5.64070E+03-7.13271E-10-5.94281E-09
 -1       866-5.83747E+04-5.81558E+01 4.96022E+02-4.29150E+02-1.42887E-09-1.27776E-08
 -1       867-5.80498E+04 4.80495E+02 1.22249E+03 5.61780E+03 1.39744E-09-5.80815E-09
 -1       868-5.85700E+04-4.19281E+02 2.03176E+03-4.14679E+02-3.81590E-10 7.20388E-09
 -1       869-5.65598E+04 3.48941E+03 5.41051E+03 5.58005E+03-3.73888E-10-1.68793E-08
 -1       870-5.98571E+04-2.98548E+03 7.85174E+03-3.91301E+02-1.25397E-09-4.92309E-09
 -1       871-5.47586E+03-2.06451E+04-1.92370E+04 1.28656E+05-5.40058E-09-3.12502E-09
 -1       872-1.99372E+03-2.51090E+04-8.04574E+03 1.66821E+05-9.96260E-09 4.36376E-09
 -1       873 3.72020E+02-2.29548E+04 6.05363E+02 1.28373E+05-5.42968E-09-6.01972E-10
 -1       874 3.23933E+03-2.05550E+04 9.70648E+03 1.66851E+05-1.13241E-08 1.11631E-08
 -1       875 6.75980E+03-2.52667E+04 2.18789E+04 1.28609E+05-4.78212E-09-1.51895E-08
 -1       876 2.90946E+05 4.90864E+04 1.49770E+04 1.16817E+05 2.45643E-09 6.38192E-09
 -1       877 2.91931E+05 5.22462E+04 7.99832E+03 1.21118E+05 9.62041E-09-6.36931E-09
 -1       878 2.92347E+05 4.74275E+04 3.35090E+03 1.18044E+05-6.97355E-09 4.12683E-10
 -1       879 2.89895E+05 5.02145E+04 1.66962E+03 1.21220E+05-4.17231E-10 1.22021E-08
 -1       880 2.92447E+05 4.74103E+04 7.77673E+02 1.18094E+05-3.73620E-09-7.61213E-09
 -1       881 2.89760E+05 5.01276E+04 4.15273E+02 1.21196E+05-1.22428E-08-1.20288E-08
 -1       882 2.92456E+05 4.74235E+04 2.65637E+02 1.18096E+05-2.20393E-09 3.26658E-10
 -1       883 2.89750E+05 5.01231E+04 2.85524E+02 1.21189E+05-4.80497E-09 1.27509E-08
 -1       884 2.92450E+05 4.74207E+04 4.54158E+02 1.18096E+05 2.94131E-09-3.19756E-09
 -1       885 2.89786E+05 5.01294E+04 9.13081E+02 1.21200E+05-5.37298E-09-1.94303E-08
 -1       886 2.92414E+05 4.73940E+04 1.84026E+03 1.18092E+05-1.07086E-09-2.19529E-09
 -1       887 2.90110E+05 5.03414E+04 4.01979E+03 1.21247E+05 1.67386E-08 1.70805E-08
 -1       888 2.92160E+05 4.74388E+04 8.09998E+03 1.17964E+05 5.19080E-09-5.46970E-09
 -1       889 2.94932E+05 5.53561E+04 1.93494E+04 1.21099E+05-3.92805E-09-1.29767E-08
 -1       890 2.88854E+05 5.13655E+04 3.62409E+04 1.14880E+05-3.04681E-09 6.27551E-10
 -1       891-9.35796E+01-1.61381E+05-1.97677E+03 2.70844E+04 4.08363E-10 1.60585E-08
 -1       892-1.81470E+02-1.61901E+05-2.12391E+03 4.11196E+04 3.83193E-09 3.58268E-08
 -1       893 3.80783E+01-1.61445E+05-3.00809E+03 2.70916E+04-2.79670E-11 1.42713E-08
 -1       894-1.50434E+03-1.63037E+05-6.22621E+03 4.09678E+04 1.24942E-09-1.01318E-08
 -1       895-1.19374E+03-1.60147E+05-1.09646E+04 2.72378E+04-4.94879E-10-2.36105E-09
 -1       956-3.73280E+05-5.38309E+03-1.33069E+04 3.02254E+04 2.25100E-09-2.32071E-08
 -1       957-3.75893E+05-1.89298E+03-6.83030E+03 3.63281E+04-3.82124E-09-2.15778E-09
 -1       958-3.74476E+05-2.31230E+02-3.07791E+03 3.00600E+04-4.13820E-09-4.41150E-09
 -1       959-3.74671E+05-1.26526E+02-1.57166E+03 3.65202E+04 3.23416E-09-1.14815E-08
 -1       960-3.74592E+05-3.76310E+01-7.66411E+02 3.00430E+04 6.94854E-09-1.75169E-09
 -1       961-3.74591E+05-5.45902E+01-4.06369E+02 3.65403E+04 1.02334E-08-5.69457E-09
 -1       962-3.74619E+05-3.90527E+01-2.32673E+02 3.00402E+04 5.53018E-09-2.05137E-09
 -1       963-3.74591E+05-5.05649E+01-1.86814E+02 3.65439E+04 7.02448E-09 9.97284E-09
 -1       964-3.74624E+05-3.57588E+01-2.27203E+02 3.00394E+04 4.80028E-10-1.35387E-08
 -1       965-3.74603E+05-4.75675E+01-3.92986E+02 3.65432E+04-8.59751E-09-4.24120E-09
 -1       966-3.74608E+05-2.78417E+01-7.38393E+02 3.00409E+04 4.64752E-10 7.61634E-09
 -1       967-3.74693E+05-1.10194E+02-1.51444E+03 3.65292E+04-3.37241E-09-2.48056E-08
 -1       968-3.74506E+05-2.08093E+02-2.96469E+03 3.00533E+04-3.09183E-09 1.55462E-08
 -1       969-3.75881E+05-1.80681E+03-6.58161E+03 3.63842E+04-6.87714E-09 2.48835E-09
 -1       970-3.73363E+05-5.16846E+03-1.28213E+04 3.01781E+04-7.08678E-09-2.93585E-09
 -1       971-3.42295E+05-1.71590E+03-9.26463E+03 1.52955E+04 4.34557E-09-1.09973E-08
 -1       972-3.44527E+05-1.26120E+03-5.04541E+03 2.11678E+04 7.80437E-09-2.38888E-08
 -1       973-3.43327E+05-5.85877E+01-2.25987E+03 1.51745E+04 4.47289E-09-1.44864E-08
 -1       974-3.43463E+05-7.62844E+01-1.17140E+03 2.13043E+04 1.12527E-09 9.22785E-09
 -1       975-3.43409E+05-1.39453E+01-5.85915E+02 1.51622E+04-3.13457E-09 2.39345E-09
 -1       976-3.43402E+05-2.66912E+01-3.38701E+02 2.13200E+04 4.11205E-09 5.28985E-09
 -1       977-3.43425E+05-1.32194E+01-2.47029E+02 1.51588E+04-6.99197E-09 2.01237E-08
 -1       978-3.43407E+05-2.05094E+01-2.90716E+02 2.13248E+04-1.34187E-08 2.26194E-08
 -1       979-3.43425E+05-4.82100E+00-4.68503E+02 1.51574E+04-4.05163E-09-1.93495E-10
 -1       980-3.43442E+05-1.74741E+01-9.05505E+02 2.13258E+04-6.09941E-09-9.31868E-09
 -1       981-3.43396E+05 1.78069E+01-1.75422E+03 1.51579E+04-1.31763E-09-7.00504E-09
 -1       982-3.43683E+05-1.47097E+02-3.62620E+03 2.13192E+04-4.81998E-09 4.98164E-09
 -1       983-3.43175E+05-9.45296E+01-7.04587E+03 1.51640E+04-6.49925E-09-1.08130E-08
 -1       984-3.47072E+05-3.82696E+03-1.57790E+04 2.12339E+04-7.35236E-09-1.05274E-08
 -1       985-3.39985E+05-5.25027E+03-2.89751E+04 1.52360E+04-9.24319E-09-1.00536E-08
 -3
    1PSTEP                        39          20           1          
  100CL  120 6.59637E-01         409                     0   20           1
 -4  DISP        4    1
 -5  D1          1    2    1    0
 -5  D2          1    2    2    0
 -5  D3          1    2    3    0
 -5  ALL         1    2    0    0    1ALL
 -1         1 2.51790E-03 0.00000E+00 0.00000E+00
 -1         2 1.85186E-03-1.70625E-27-2.64698E-23
 -1         3 3.35956E-04-8.07547E-28-1.32349E-23
 -1         5 1.74719E-04 4.73999E-27 2.06795E-24
 -1         8 2.50408E-03-4.53282E-07 0.00000E+00
 -1         9 2.46132E-03-4.30588E-05 0.00000E+00
 -1        10 3.04615E-04-3.55843E-06 0.00000E+00
 -1        12 1.76450E-04 8.01009E-07 1.03398E-24
 -1        15 2.48741E-03-4.88426E-07 2.06795E-25
 -1        16 2.50712E-03-4.45373E-05 0.00000E+00
 -1        17 2.07507E-04-8.05290E-06 0.00000E+00
 -1        18 1.80064E-04 3.28440E-05 0.00000E+00
 -1        19 1.81644E-04 1.59591E-06 0.00000E+00
 -1        20 1.81785E-04-8.55621E-06 0.00000E+00
 -1        21 1.80906E-04-2.26150E-05-3.30872E-24
 -1        24 3.04795E-05-1.22201E-05 0.00000E+00
 -1        25 1.90269E-04 3.30663E-05 0.00000E+00
 -1        26 1.90960E-04 2.21034E-06 0.00000E+00
 -1        27 1.88782E-04-1.20836E-05 0.00000E+00
 -1        28 1.88458E-04-2.32333E-05 0.00000E+00
 -1        32 0.00000E+00 0.00000E+00 0.00000E+00
 -1        33 1.99259E-04 2.95727E-06 0.00000E+00
 -1        34 1.97159E-04-1.21378E-05 0.00000E+00
 -1        35 1.95241E-04-2.35730E-05 0.00000E+00
 -1        51 2.51701E-03-9.10293E-08 6.61744E-24
 -1        52 2.51536E-03-1.64836E-07 3.30872E-24
 -1        53 2.51308E-03-2.35716E-07 0.00000E+00
 -1        54 2.51034E-03-3.05907E-07 0.00000E+00
 -1        55 2.50729E-03-3.77122E-07-2.06795E-24
 -1        56 2.51250E-03 3.15259E-06 0.00000E+00
 -1        57 2.50367E-03 1.48140E-05-5.29396E-23
 -1        58 2.49232E-03 3.29150E-05 0.00000E+00
 -1        59 2.47946E-03 5.47499E-05-5.29396E-23
 -1        60 2.46643E-03 7.69894E-05-1.05879E-22
 -1        61 2.45458E-03 9.62591E-05-5.29396E-23
 -1        62 2.44503E-03 1.09703E-04-1.05879E-22
 -1        63 2.43865E-03 1.14965E-04-5.29396E-23
 -1        64 2.43569E-03 1.11130E-04 0.00000E+00
 -1        65 2.43612E-03 9.80846E-05 0.00000E+00
 -1        66 2.43931E-03 7.73581E-05 0.00000E+00
 -1        67 2.44441E-03 5.11755E-05 0.00000E+00
 -1        68 2.45030E-03 2.27455E-05 0.00000E+00
 -1        69 2.45581E-03-4.51012E-06 5.29396E-23
 -1        70 2.45978E-03-2.73943E-05 0.00000E+00
 -1        86 1.88914E-03-1.98342E-06 0.00000E+00
 -1        87 1.99896E-03-9.11427E-06-1.32349E-23
 -1        88 2.14725E-03-2.07885E-05 2.64698E-23
 -1        89 2.29826E-03-3.28625E-05 0.00000E+00
 -1        90 2.41486E-03-4.07079E-05 0.00000E+00
 -1       121 3.35075E-04-5.75997E-07 1.32349E-23
 -1       122 3.32437E-04-1.15497E-06-6.61744E-24
 -1       123 3.28052E-04-1.73984E-06-1.32349E-23
 -1       124 3.21936E-04-2.33354E-06 6.61744E-24
 -1       125 3.14113E-04-2.93859E-06 0.00000E+00
 -1       191 1.74767E-04 1.33558E-07-4.13590E-25
 -1       192 1.74912E-04 2.67106E-07 1.44757E-24
 -1       193 1.75152E-04 4.00636E-07 1.65436E-24
 -1       194 1.75489E-04 5.34138E-07-1.44757E-24
 -1       195 1.75921E-04 6.67599E-07-1.24077E-24
 -1       251 2.50352E-03 1.98438E-05 0.00000E+00
 -1       252 2.50170E-03 7.48494E-05 0.00000E+00
 -1       253 2.49834E-03 1.54338E-04 0.00000E+00
 -1       254 2.49381E-03 2.47747E-04-3.30872E-24
 -1       255 2.48936E-03 3.40367E-04-1.32349E-23
 -1       256 2.48618E-03 4.17499E-04 6.61744E-24
 -1       257 2.48453E-03 4.69027E-04 0.00000E+00
 -1       258 2.48403E-03 4.85191E-04 0.00000E+00
 -1       259 2.48347E-03 4.65570E-04 1.32349E-23
 -1       260 2.48163E-03 4.10319E-04-6.61744E-24
 -1       261 2.47813E-03 3.28975E-04 1.32349E-23
 -1       262 2.47322E-03 2.31437E-04 6.61744E-24
 -1       263 2.46817E-03 1.32384E-04 1.32349E-23
 -1       264 2.46430E-03 4.65109E-05 0.00000E+00
 -1       265 2.46208E-03-1.54466E-05 1.32349E-23
 -1       266 2.50131E-03-4.65590E-07-3.30872E-24
 -1       267 2.49853E-03-4.70661E-07 0.00000E+00
 -1       268 2.49575E-03-4.76191E-07 8.27181E-25
 -1       269 2.49297E-03-4.80363E-07 0.00000E+00
 -1       270 2.49019E-03-4.84503E-07-2.06795E-25
 -1       271 2.50234E-03 2.05238E-06 0.00000E+00
 -1       272 2.50062E-03 4.41932E-06 0.00000E+00
 -1       273 2.49900E-03 6.51714E-06 0.00000E+00
 -1       274 2.49753E-03 8.20711E-06-1.32349E-23
 -1       275 2.49627E-03 9.35724E-06-2.64698E-23
 -1       276 2.49525E-03 9.83907E-06 0.00000E+00
 -1       277 2.49454E-03 9.53079E-06 0.00000E+00
 -1       278 2.49416E-03 8.31757E-06 0.00000E+00
 -1       279 2.49416E-03 6.09317E-06 2.64698E-23
 -1       280 2.49457E-03 2.76057E-06 0.00000E+00
 -1       281 2.49542E-03-1.76675E-06 0.00000E+00
 -1       282 2.49675E-03-7.56449E-06-1.32349E-23
 -1       283 2.49856E-03-1.46962E-05 0.00000E+00
 -1       284 2.50089E-03-2.32126E-05-1.32349E-23
 -1       285 2.50373E-03-3.31528E-05 0.00000E+00
 -1       301 2.46967E-03-4.33339E-05-6.61744E-24
 -1       302 2.47664E-03-4.35699E-05 0.00000E+00
 -1       303 2.48304E-03-4.37993E-05 0.00000E+00
 -1       304 2.48971E-03-4.40290E-05 1.32349E-23
 -1       305 2.49746E-03-4.42681E-05 0.00000E+00
 -1       306 2.49765E-03-1.89469E-04 0.00000E+00
 -1       307 2.56192E-03-5.88791E-04-1.05879E-22
 -1       308 2.61175E-03-1.17720E-03 1.05879E-22
 -1       309 2.63955E-03-1.86355E-03 5.29396E-23
 -1       310 2.67282E-03-2.52664E-03 1.05879E-22
 -1       311 2.73203E-03-3.04728E-03 5.29396E-23
 -1       312 2.79178E-03-3.34600E-03-1.05879E-22
 -1       313 2.79659E-03-3.38176E-03 0.00000E+00
 -1       314 2.67705E-03-3.16276E-03 1.05879E-22
 -1       315 2.39199E-03-2.74705E-03 0.00000E+00
 -1       316 1.95559E-03-2.20818E-03 0.00000E+00
 -1       317 1.42721E-03-1.61516E-03 5.29396E-23
 -1       318 9.14041E-04-1.03076E-03 0.00000E+00
 -1       319 5.18735E-04-5.20678E-04 0.00000E+00
 -1       320 2.84649E-04-1.56413E-04 1.05879E-22
 -1       336 2.93259E-04-4.24243E-06 0.00000E+00
 -1       337 2.79876E-04-4.95107E-06 0.00000E+00
 -1       338 2.64529E-04-5.68632E-06 0.00000E+00
 -1       339 2.47295E-04-6.44877E-06 6.61744E-24
 -1       340 2.28256E-04-7.24274E-06 1.32349E-23
 -1       406 1.77075E-04 9.34349E-07 4.13590E-25
 -1       407 1.77797E-04 1.06758E-06-8.27181E-25
 -1       408 1.78615E-04 1.20067E-06-2.89513E-24
 -1       409 1.79529E-04 1.33342E-06-3.61892E-25
 -1       410 1.80539E-04 1.46558E-06-1.65436E-24
 -1       521 2.54411E-03-1.99931E-04 1.05879E-22
 -1       522 2.60693E-03-6.18670E-04-5.29396E-23
 -1       523 2.65098E-03-1.23375E-03 1.05879E-22
 -1       524 2.67030E-03-1.94760E-03 0.00000E+00
 -1       525 2.69611E-03-2.63637E-03 0.00000E+00
 -1       526 2.75180E-03-3.17848E-03 0.00000E+00
 -1       527 2.81108E-03-3.48811E-03 0.00000E+00
 -1       528 2.81410E-03-3.52313E-03-1.05879E-22
 -1       529 2.68431E-03-3.29135E-03-2.11758E-22
 -1       530 2.37813E-03-2.85793E-03 5.29396E-23
 -1       531 1.91017E-03-2.30001E-03 0.00000E+00
 -1       532 1.34560E-03-1.68950E-03 0.00000E+00
 -1       533 7.96542E-04-1.08710E-03 1.05879E-22
 -1       534 3.70501E-04-5.56601E-04-5.29396E-23
 -1       535 1.16626E-04-1.73514E-04 2.11758E-22
 -1       536 2.06779E-04 2.60802E-05 6.61744E-24
 -1       537 2.04938E-04 8.51988E-05 0.00000E+00
 -1       538 2.02095E-04 1.60227E-04 0.00000E+00
 -1       539 1.98744E-04 2.42008E-04 0.00000E+00
 -1       540 1.95727E-04 3.19287E-04 0.00000E+00
 -1       541 1.93763E-04 3.80834E-04-1.65436E-24
 -1       542 1.92855E-04 4.20025E-04 3.30872E-24
 -1       543 1.92634E-04 4.30380E-04 0.00000E+00
 -1       544 1.92318E-04 4.12666E-04 0.00000E+00
 -1       545 1.91187E-04 3.67858E-04 0.00000E+00
 -1       546 1.89085E-04 3.03928E-04 0.00000E+00
 -1       547 1.86245E-04 2.28965E-04-1.65436E-24
 -1       548 1.83431E-04 1.54388E-04-3.30872E-24
 -1       549 1.81400E-04 9.16181E-05-1.65436E-24
 -1       550 1.80343E-04 4.85223E-05-1.65436E-24
 -1       551 1.82858E-04-8.61799E-06 0.00000E+00
 -1       552 1.55005E-04-9.26036E-06 0.00000E+00
 -1       553 1.24886E-04-9.96266E-06 0.00000E+00
 -1       554 9.34566E-05-1.07044E-05-3.30872E-24
 -1       555 6.16711E-05-1.14589E-05 0.00000E+00
 -1       556 2.00046E-04 1.10326E-05 0.00000E+00
 -1       557 1.94023E-04 2.65002E-05 0.00000E+00
 -1       558 1.89305E-04 3.86326E-05-5.29396E-23
 -1       559 1.85761E-04 4.77349E-05 0.00000E+00
 -1       560 1.83265E-04 5.41122E-05 0.00000E+00
 -1       561 1.81692E-04 5.80725E-05 0.00000E+00
 -1       562 1.80917E-04 5.99248E-05 0.00000E+00
 -1       563 1.80820E-04 5.99789E-05 1.32349E-23
 -1       564 1.81281E-04 5.85457E-05 0.00000E+00
 -1       565 1.82181E-04 5.59365E-05-6.61744E-24
 -1       566 1.83403E-04 5.24633E-05 0.00000E+00
 -1       567 1.84830E-04 4.84384E-05 0.00000E+00
 -1       568 1.86346E-04 4.41742E-05 8.27181E-25
 -1       569 1.87835E-04 3.99833E-05 0.00000E+00
 -1       570 1.89180E-04 3.61780E-05 0.00000E+00
 -1       571 1.80160E-04 3.08176E-05 2.48154E-24
 -1       572 1.80258E-04 2.87263E-05 1.24077E-24
 -1       573 1.80356E-04 2.65857E-05-1.65436E-24
 -1       574 1.80455E-04 2.44116E-05 1.65436E-24
 -1       575 1.80553E-04 2.22202E-05-3.30872E-24
 -1       576 1.80652E-04 2.00277E-05 0.00000E+00
 -1       577 1.80751E-04 1.78502E-05 0.00000E+00
 -1       578 1.80849E-04 1.57040E-05 0.00000E+00
 -1       579 1.80948E-04 1.36051E-05 0.00000E+00
 -1       580 1.81047E-04 1.15699E-05 0.00000E+00
 -1       581 1.81146E-04 9.61442E-06 0.00000E+00
 -1       582 1.81246E-04 7.75491E-06 0.00000E+00
 -1       583 1.81345E-04 6.00751E-06 0.00000E+00
 -1       584 1.81445E-04 4.38821E-06-3.30872E-24
 -1       585 1.81544E-04 2.91285E-06 0.00000E+00
 -1       586 1.81723E-04 3.28832E-05 1.65436E-24
 -1       587 1.83342E-04 3.29218E-05 0.00000E+00
 -1       588 1.84963E-04 3.29600E-05-8.27181E-25
 -1       589 1.86629E-04 3.29976E-05 0.00000E+00
 -1       590 1.88384E-04 3.30339E-05 0.00000E+00
 -1       591 1.80757E-04 3.09089E-05-1.03398E-25
 -1       592 1.81454E-04 2.89532E-05 2.06795E-25
 -1       593 1.82155E-04 2.69829E-05 8.27181E-25
 -1       594 1.82860E-04 2.50027E-05 0.00000E+00
 -1       595 1.83567E-04 2.30175E-05-8.27181E-25
 -1       596 1.84273E-04 2.10320E-05 4.13590E-25
 -1       597 1.84978E-04 1.90510E-05-8.27181E-25
 -1       598 1.85679E-04 1.70792E-05 0.00000E+00
 -1       599 1.86375E-04 1.51215E-05-8.27181E-25
 -1       600 1.87065E-04 1.31825E-05 4.13590E-25
 -1       601 1.87745E-04 1.12670E-05 8.27181E-25
 -1       602 1.88415E-04 9.37984E-06 0.00000E+00
 -1       603 1.89073E-04 7.52566E-06-8.27181E-25
 -1       604 1.89717E-04 5.70937E-06 1.29247E-25
 -1       605 1.90345E-04 3.93563E-06 0.00000E+00
 -1       606 1.81657E-04 5.09497E-07 0.00000E+00
 -1       607 1.81667E-04-4.90080E-07-1.65436E-24
 -1       608 1.81676E-04-1.40791E-06 0.00000E+00
 -1       609 1.81684E-04-2.24975E-06 0.00000E+00
 -1       610 1.81693E-04-3.02139E-06 0.00000E+00
 -1       611 1.81701E-04-3.72870E-06 0.00000E+00
 -1       612 1.81710E-04-4.37755E-06 0.00000E+00
 -1       613 1.81718E-04-4.97381E-06 0.00000E+00
 -1       614 1.81727E-04-5.52337E-06 0.00000E+00
 -1       615 1.81735E-04-6.03209E-06 0.00000E+00
 -1       616 1.81744E-04-6.50587E-06 0.00000E+00
 -1       617 1.81752E-04-6.95057E-06 0.00000E+00
 -1       618 1.81761E-04-7.37208E-06 0.00000E+00
 -1       619 1.81769E-04-7.77627E-06 2.06795E-25
 -1       620 1.81778E-04-8.16903E-06 0.00000E+00
 -1       621 1.82921E-04 1.69885E-06 1.65436E-24
 -1       622 1.84351E-04 1.80204E-06 0.00000E+00
 -1       623 1.85902E-04 1.90504E-06 1.65436E-24
 -1       624 1.87542E-04 2.00772E-06 8.27181E-25
 -1       625 1.89239E-04 2.11012E-06 0.00000E+00
 -1       626 1.82162E-04 5.45246E-07 0.00000E+00
 -1       627 1.82658E-04-4.41196E-07 0.00000E+00
 -1       628 1.83132E-04-1.37129E-06 0.00000E+00
 -1       629 1.83589E-04-2.25324E-06 0.00000E+00
 -1       630 1.84031E-04-3.09529E-06-3.30872E-24
 -1       631 1.84460E-04-3.90568E-06-1.65436E-24
 -1       632 1.84882E-04-4.69264E-06-3.30872E-24
 -1       633 1.85297E-04-5.46445E-06 0.00000E+00
 -1       634 1.85710E-04-6.22935E-06 3.30872E-24
 -1       635 1.86123E-04-6.99559E-06 0.00000E+00
 -1       636 1.86540E-04-7.77142E-06 0.00000E+00
 -1       637 1.86964E-04-8.56509E-06 1.65436E-24
 -1       638 1.87397E-04-9.38485E-06-1.65436E-24
 -1       639 1.87843E-04-1.02390E-05 8.27181E-25
 -1       640 1.88304E-04-1.11358E-05 0.00000E+00
 -1       656 1.82405E-04-9.12955E-06 0.00000E+00
 -1       657 1.83445E-04-9.72618E-06 0.00000E+00
 -1       658 1.84764E-04-1.03214E-05 0.00000E+00
 -1       659 1.86216E-04-1.09163E-05 0.00000E+00
 -1       660 1.87616E-04-1.15130E-05 0.00000E+00
 -1       661 1.82018E-04-8.98784E-06-8.27181E-25
 -1       662 1.82287E-04-9.51008E-06 0.00000E+00
 -1       663 1.82589E-04-1.01178E-05 1.65436E-24
 -1       664 1.82920E-04-1.08047E-05 0.00000E+00
 -1       665 1.83279E-04-1.15650E-05-1.65436E-24
 -1       666 1.83664E-04-1.23929E-05-8.27181E-25
 -1       667 1.84072E-04-1.32830E-05-1.65436E-24
 -1       668 1.84501E-04-1.42298E-05-8.27181E-25
 -1       669 1.84949E-04-1.52279E-05 1.65436E-24
 -1       670 1.85414E-04-1.62723E-05 8.27181E-25
 -1       671 1.85895E-04-1.73577E-05 1.65436E-24
 -1       672 1.86389E-04-1.84794E-05 8.27181E-25
 -1       673 1.86895E-04-1.96324E-05 0.00000E+00
 -1       674 1.87410E-04-2.08121E-05 8.27181E-25
 -1       675 1.87933E-04-2.20133E-05 4.13590E-25
 -1       676 1.82169E-04-2.27187E-05 0.00000E+00
 -1       677 1.83431E-04-2.28223E-05 0.00000E+00
 -1       678 1.84692E-04-2.29258E-05 0.00000E+00
 -1       679 1.85950E-04-2.30291E-05 0.00000E+00
 -1       680 1.87206E-04-2.31323E-05-1.65436E-24
 -1       771 1.87917E-05 1.38760E-05 0.00000E+00
 -1       772 8.95182E-06 3.53130E-05 2.64698E-23
 -1       773 8.71240E-07 5.23159E-05 0.00000E+00
 -1       774-5.57083E-06 6.51369E-05 2.64698E-23
 -1       775-1.04927E-05 7.40382E-05 5.29396E-23
 -1       776-1.40176E-05 7.92983E-05 0.00000E+00
 -1       777-1.62683E-05 8.12054E-05 0.00000E+00
 -1       778-1.73705E-05 8.00612E-05-7.94093E-23
 -1       779-1.74490E-05 7.61755E-05-5.29396E-23
 -1       780-1.66308E-05 6.98691E-05-2.64698E-23
 -1       781-1.50419E-05 6.14696E-05 0.00000E+00
 -1       782-1.28102E-05 5.13130E-05-2.64698E-23
 -1       783-1.00623E-05 3.97398E-05 5.29396E-23
 -1       784-6.92623E-06 2.70966E-05-2.64698E-23
 -1       785-3.52920E-06 1.37327E-05-5.29396E-23
 -1       786 1.90308E-04 3.09122E-05 0.00000E+00
 -1       787 1.90350E-04 2.88076E-05 0.00000E+00
 -1       788 1.90393E-04 2.67444E-05 8.27181E-25
 -1       789 1.90436E-04 2.47145E-05 0.00000E+00
 -1       790 1.90479E-04 2.27130E-05 0.00000E+00
 -1       791 1.90523E-04 2.07353E-05 0.00000E+00
 -1       792 1.90566E-04 1.87793E-05 0.00000E+00
 -1       793 1.90610E-04 1.68428E-05 8.27181E-25
 -1       794 1.90653E-04 1.49255E-05 1.65436E-24
 -1       795 1.90697E-04 1.30275E-05-8.27181E-25
 -1       796 1.90740E-04 1.11505E-05 1.65436E-24
 -1       797 1.90784E-04 9.29652E-06 0.00000E+00
 -1       798 1.90828E-04 7.46985E-06 0.00000E+00
 -1       799 1.90872E-04 5.67484E-06 0.00000E+00
 -1       800 1.90916E-04 3.91909E-06-1.65436E-24
 -1       801 1.45788E-04 2.96991E-05 0.00000E+00
 -1       802 1.12332E-05 1.85708E-05 0.00000E+00
 -1       803-1.03975E-04 9.39900E-06 0.00000E+00
 -1       804-9.26625E-05 6.52787E-06 0.00000E+00
 -1       805-3.06699E-05 2.59188E-06-5.29396E-23
 -1       806 1.90963E-04 3.08441E-05 0.00000E+00
 -1       807 1.91642E-04 2.86479E-05-1.65436E-24
 -1       808 1.92310E-04 2.64829E-05 0.00000E+00
 -1       809 1.92964E-04 2.43530E-05 0.00000E+00
 -1       810 1.93603E-04 2.22624E-05 0.00000E+00
 -1       811 1.94226E-04 2.02148E-05-1.65436E-24
 -1       812 1.94831E-04 1.82141E-05 0.00000E+00
 -1       813 1.95418E-04 1.62643E-05 0.00000E+00
 -1       814 1.95984E-04 1.43692E-05 0.00000E+00
 -1       815 1.96528E-04 1.25326E-05 1.65436E-24
 -1       816 1.97049E-04 1.07584E-05 3.30872E-24
 -1       817 1.97546E-04 9.05044E-06 0.00000E+00
 -1       818 1.98016E-04 7.41253E-06 0.00000E+00
 -1       819 1.98459E-04 5.84853E-06 0.00000E+00
 -1       820 1.98873E-04 4.36219E-06-1.65436E-24
 -1       821 1.90832E-04 6.55798E-09-1.65436E-24
 -1       822 1.90694E-04-3.22925E-06 0.00000E+00
 -1       823 1.90553E-04-7.10635E-06-3.30872E-24
 -1       824 1.90411E-04-1.12300E-05 0.00000E+00
 -1       825 1.90269E-04-1.51392E-05-3.30872E-24
 -1       826 1.90129E-04-1.83743E-05 0.00000E+00
 -1       827 1.89992E-04-2.06581E-05 3.30872E-24
 -1       828 1.89856E-04-2.17192E-05 1.65436E-24
 -1       829 1.89722E-04-2.16176E-05 0.00000E+00
 -1       830 1.89586E-04-2.04199E-05 1.65436E-24
 -1       831 1.89450E-04-1.84897E-05 0.00000E+00
 -1       832 1.89313E-04-1.61951E-05 1.65436E-24
 -1       833 1.89176E-04-1.40030E-05-3.30872E-24
 -1       834 1.89042E-04-1.23795E-05 1.65436E-24
 -1       835 1.88908E-04-1.16373E-05 0.00000E+00
 -1       836 1.92554E-04 2.33423E-06-3.30872E-24
 -1       837 1.94021E-04 2.46122E-06 1.65436E-24
 -1       838 1.95393E-04 2.58814E-06 0.00000E+00
 -1       839 1.96702E-04 2.71435E-06-8.27181E-25
 -1       840 1.97980E-04 2.84041E-06 0.00000E+00
 -1       856 1.88766E-04-1.30536E-05 0.00000E+00
 -1       857 1.88746E-04-1.38886E-05 0.00000E+00
 -1       858 1.88726E-04-1.46095E-05-4.13590E-25
 -1       859 1.88706E-04-1.52375E-05 0.00000E+00
 -1       860 1.88685E-04-1.57935E-05 0.00000E+00
 -1       861 1.88665E-04-1.62988E-05 2.06795E-25
 -1       862 1.88645E-04-1.67747E-05-8.27181E-25
 -1       863 1.88624E-04-1.72424E-05 4.13590E-25
 -1       864 1.88604E-04-1.77231E-05-8.27181E-25
 -1       865 1.88584E-04-1.82382E-05 4.13590E-25
 -1       866 1.88563E-04-1.88088E-05-8.27181E-25
 -1       867 1.88543E-04-1.94560E-05 4.13590E-25
 -1       868 1.88522E-04-2.02011E-05 8.27181E-25
 -1       869 1.88501E-04-2.10651E-05 4.13590E-25
 -1       870 1.88480E-04-2.20689E-05-8.27181E-25
 -1       871 1.90038E-04-1.20882E-05 0.00000E+00
 -1       872 1.91439E-04-1.20962E-05 0.00000E+00
 -1       873 1.92919E-04-1.21049E-05 0.00000E+00
 -1       874 1.94411E-04-1.21144E-05-2.58494E-26
 -1       875 1.95847E-04-1.21244E-05 8.27181E-25
 -1       876 1.89272E-04-1.30392E-05 0.00000E+00
 -1       877 1.89740E-04-1.39284E-05-1.65436E-24
 -1       878 1.90187E-04-1.47591E-05 0.00000E+00
 -1       879 1.90614E-04-1.55386E-05 0.00000E+00
 -1       880 1.91026E-04-1.62744E-05 0.00000E+00
 -1       881 1.91423E-04-1.69737E-05 0.00000E+00
 -1       882 1.91810E-04-1.76438E-05 0.00000E+00
 -1       883 1.92189E-04-1.82922E-05 1.65436E-24
 -1       884 1.92562E-04-1.89260E-05-3.30872E-24
 -1       885 1.92932E-04-1.95526E-05 0.00000E+00
 -1       886 1.93303E-04-2.01793E-05 0.00000E+00
 -1       887 1.93676E-04-2.08134E-05 0.00000E+00
 -1       888 1.94054E-04-2.14623E-05 0.00000E+00
 -1       889 1.94440E-04-2.21333E-05 0.00000E+00
 -1       890 1.94837E-04-2.28338E-05 1.65436E-24
 -1       891 1.89730E-04-2.32904E-05 1.65436E-24
 -1       892 1.90979E-04-2.33476E-05-8.27181E-25
 -1       893 1.92180E-04-2.34047E-05 8.27181E-25
 -1       894 1.93307E-04-2.34616E-05-4.13590E-25
 -1       895 1.94335E-04-2.35182E-05-4.13590E-25
 -1       956 1.99130E-04 1.72489E-06 1.65436E-24
 -1       957 1.98998E-04 5.82857E-07 1.65436E-24
 -1       958 1.98867E-04-4.79395E-07 0.00000E+00
 -1       959 1.98735E-04-1.47303E-06 0.00000E+00
 -1       960 1.98604E-04-2.40926E-06-3.30872E-24
 -1       961 1.98472E-04-3.29932E-06 0.00000E+00
 -1       962 1.98340E-04-4.15447E-06 0.00000E+00
 -1       963 1.98209E-04-4.98597E-06 1.65436E-24
 -1       964 1.98077E-04-5.80510E-06 0.00000E+00
 -1       965 1.97945E-04-6.62310E-06 0.00000E+00
 -1       966 1.97814E-04-7.45128E-06 0.00000E+00
 -1       967 1.97682E-04-8.30088E-06 1.65436E-24
 -1       968 1.97551E-04-9.18315E-06 3.30872E-24
 -1       969 1.97419E-04-1.01093E-05 1.65436E-24
 -1       970 1.97288E-04-1.10906E-05-3.30872E-24
 -1       971 1.97040E-04-1.31835E-05 3.30872E-24
 -1       972 1.96920E-04-1.41349E-05 0.00000E+00
 -1       973 1.96799E-04-1.50023E-05 0.00000E+00
 -1       974 1.96679E-04-1.57965E-05 1.65436E-24
 -1       975 1.96558E-04-1.65283E-05-3.30872E-24
 -1       976 1.96438E-04-1.72086E-05 1.65436E-24
 -1       977 1.96317E-04-1.78484E-05-3.30872E-24
 -1       978 1.96197E-04-1.84584E-05-1.65436E-24
 -1       979 1.96076E-04-1.90495E-05-3.30872E-24
 -1       980 1.95956E-04-1.96326E-05-1.65436E-24
 -1       981 1.95835E-04-2.02186E-05 0.00000E+00
 -1       982 1.95715E-04-2.08185E-05 0.00000E+00
 -1       983 1.95595E-04-2.14430E-05 0.00000E+00
 -1       984 1.95475E-04-2.21030E-05 0.00000E+00
 -1       985 1.95356E-04-2.28095E-05 3.30872E-24
 -3
    1PSTEP                        40          20           1          
  100CL  120 6.59637E-01         409                     0   20           1
 -4  STRESS      6    1
 -5  SXX         1    4    1    1
 -5  SYY         1    4    2    2
 -5  SZZ         1    4    3    3
 -5  SXY         1    4    1    2
 -5  SYZ         1    4    2    3
 -5  SZX         1    4    3    1
 -1         1-4.99846E+06-1.76008E+06-1.09219E+06-1.62034E+06 9.31323E-10-8.21601E-08
 -1         2 2.52736E+05 2.06725E+06 1.00536E+06 1.29513E+06 1.41154E-08 8.54670E-08
 -1         3-1.43035E+03-1.63623E+06 4.17971E+02-2.27664E+03-3.02457E-10-1.79425E-08
 -1         5-6.62585E+01 3.82422E+05 9.88260E+00-1.23431E+00-3.70089E-10-1.39698E-09
 -1         8-3.66187E+05-1.36802E+05-1.15485E+02-2.29541E+05-6.46651E-10 1.79978E-07
 -1         9 1.02854E+07 1.02960E+05 1.84922E+06-1.22068E+06 1.28755E-08-7.07107E-08
 -1        10-2.28552E+03-1.70512E+06-4.07300E+03-1.53879E+04-1.29348E-08-2.16818E-08
 -1        12-6.23561E+01 3.82443E+05 3.24306E+02-8.45288E+00-5.28193E-10 1.68475E-08
 -1        15 1.06891E+03 5.87419E+02 3.45522E+03 1.28419E+00 2.09610E-11-7.51313E-08
 -1        16 2.13418E+07-1.65779E+05 2.95626E+06-1.82692E+06 1.16609E-08 2.61624E-07
 -1        17 7.66866E+06 5.69490E+06 2.07460E+06 5.50583E+06 2.47965E-08 4.18397E-08
 -1        18 1.34280E+05 3.13055E+04 2.50961E+03-1.17686E+05 1.37486E-08 7.98218E-09
 -1        19 1.21240E+05 1.40299E+05-9.34998E+02 2.18578E+04 1.59107E-09 9.11677E-09
 -1        20-8.01959E+04-5.68459E+05-1.27487E+05 2.54506E+04-2.10336E-09-3.69740E-09
 -1        21-4.55664E+01-2.94527E+05-9.20506E+02 2.55121E+02 1.75521E-08-2.15457E-08
 -1        24 1.27019E+07 1.09826E+07 3.54818E+06 1.01985E+07-1.63399E-07-5.12809E-08
 -1        25 1.10323E+05 2.12890E+05 8.61387E+04-6.12543E+05-3.75039E-09 9.97115E-09
 -1        26-5.45607E+04 9.13634E+04-2.43734E+04 8.99332E+02 5.52973E-11-5.91112E-09
 -1        27-7.55552E+04-3.07296E+05-1.12472E+05 6.84043E+04 3.75652E-09 4.05786E-09
 -1        28 2.21608E+04-8.47897E+04 1.68078E+04 2.07092E+04-3.23243E-09-3.83318E-09
 -1        32-1.66948E+06-3.12780E+06-1.89445E+05 3.95576E+05-4.13056E-08-9.97215E-09
 -1        33-1.77041E+05 9.20309E+04 3.20880E+04-3.84353E+04-2.85286E-09 5.06376E-09
 -1        34-2.21925E+05-2.47265E+04 6.79171E+02 7.48340E+04-4.88575E-09-1.02950E-08
 -1        35-2.28315E+04-3.36276E+04-1.33909E+03 5.12429E+04-3.95255E-09-1.06957E-08
 -1        51 5.68531E+04-1.89213E+05 1.21346E+05-5.17381E+05 1.16415E-10-9.50604E-08
 -1        52 1.96416E+04-1.68613E+05 6.43007E+04-6.03163E+05 2.22826E-10-1.92591E-07
 -1        53 4.49903E+03-1.84228E+05 3.44735E+04-5.15476E+05 7.27596E-10-3.15376E-07
 -1        54 8.99149E+03-1.80278E+05 3.03505E+04-6.05141E+05-3.41970E-10-3.94793E-08
 -1        55 1.93133E+04-1.88405E+05 3.92809E+04-5.15228E+05 1.74623E-10 2.48208E-07
 -1        56-9.32493E+06-1.13444E+06-8.23133E+05-3.73612E+06 3.20142E-09-3.04106E-07
 -1        57-1.00570E+07-1.38320E+06-5.40956E+05-3.17423E+06 2.66882E-08 2.26421E-07
 -1        58-9.34843E+06-1.50129E+06-1.91715E+05-3.81172E+06 2.52476E-08-2.03654E-08
 -1        59-1.00379E+07-9.50106E+05-1.11803E+05-3.11644E+06-7.80892E-09-3.89729E-07
 -1        60-9.36234E+06-1.54420E+06-4.45490E+04-3.81294E+06 1.34605E-10-1.47476E-07
 -1        61-9.87932E+06-1.00708E+06-1.92252E+04-3.21135E+06-7.43603E-09 9.14561E-08
 -1        62-9.48847E+06-1.45532E+06-2.15814E+04-3.70320E+06-1.41808E-08 1.40608E-09
 -1        63-9.56442E+06-1.26808E+06 1.76078E+03-3.48043E+06 8.45648E-09 3.79096E-08
 -1        64-9.65133E+06-1.30098E+06-2.34775E+04-3.52506E+06-2.82962E-08 9.18099E-08
 -1        65-9.30705E+06-1.55572E+06-1.39558E+04-3.82542E+06 3.15868E-08 1.52979E-07
 -1        66-9.75846E+06-1.15926E+06-4.32516E+04-3.36830E+06-1.33186E-08 4.60241E-08
 -1        67-9.22208E+06-1.75269E+06-9.92949E+04-4.04437E+06-5.43878E-08 3.91628E-09
 -1        68-9.76575E+06-1.08497E+06-1.69642E+05-3.32623E+06-3.63161E-08-3.27127E-08
 -1        69-9.40606E+06-1.99509E+06-4.85993E+05-3.94762E+06 2.31594E-08-1.79294E-07
 -1        70-9.57000E+06-9.29815E+05-7.34283E+05-3.45792E+06 1.05138E-08-2.72878E-07
 -1        86-2.56173E+05-5.42051E+06-5.49001E+05-6.31531E+05-1.24082E-07-6.99220E-09
 -1        87 3.47117E+05-9.28460E+05 4.53256E+05 1.61137E+06-2.01486E-07 1.21516E-07
 -1        88-4.00789E+04-2.75757E+06 2.84985E+04-9.70409E+05-1.86510E-07 1.71891E-07
 -1        89 4.75696E+05-1.07961E+06 4.26103E+05 1.67005E+06-2.58019E-07-4.23838E-08
 -1        90-3.61920E+05-5.29217E+06-6.04701E+05-6.93292E+05-6.82703E-08 2.27519E-08
 -1       121-1.96345E+03-1.64096E+06-4.94212E+02 1.12922E+03 1.44226E-09 1.20926E-08
 -1       122-1.23794E+03-1.63629E+06 8.02074E+02-4.55486E+03-5.59660E-09-1.13523E-08
 -1       123-1.98697E+03-1.64110E+06 3.58495E+02 3.37154E+03 4.19755E-09-7.69796E-09
 -1       124 4.73116E+02-1.63580E+06 3.10304E+03-9.50353E+03-1.01286E-08 1.20017E-08
 -1       125-2.84215E+03-1.64204E+06 3.73825E+03 6.03525E+03 6.68115E-09-1.29185E-08
 -1       191-6.98608E+01 3.82441E+05 8.82087E+00 6.40950E-01-5.44359E-10-2.40107E-10
 -1       192-6.72068E+01 3.82422E+05 2.10690E+01-3.99348E+00-7.64183E-10-2.16605E-08
 -1       193-7.23600E+01 3.82441E+05 3.62726E+01 3.49853E+00-9.60165E-10-2.10621E-08
 -1       194-7.02485E+01 3.82426E+05 8.00454E+01-9.07346E+00-5.67344E-10-9.53878E-09
 -1       195-7.71576E+01 3.82439E+05 1.53651E+02 5.88295E+00-1.46199E-09-5.04406E-09
 -1       251-1.47510E+06-5.97446E+04-1.63123E+05-9.87217E+04-7.41784E-09 4.79395E-08
 -1       252-2.60841E+05 6.22977E+04 1.15792E+05 2.92989E+05 1.21649E-08 2.73712E-07
 -1       253-9.62380E+05-6.32693E+03-2.34485E+04-1.85499E+05-7.80074E-09-1.17017E-07
 -1       254-7.81441E+05 3.21968E+04 2.36517E+04 3.75258E+05 1.15699E-09 4.94520E-08
 -1       255-9.84245E+05-4.96331E+03-2.04234E+04-1.83884E+05-1.38944E-08 2.73832E-07
 -1       256-2.22284E+05 3.66801E+04 1.35783E+05 2.82056E+05 2.35304E-08 6.82530E-09
 -1       257-1.48894E+06-3.78820E+04-1.24319E+05-8.92485E+04 1.56433E-09-1.10476E-07
 -1       258 3.23146E+05 4.50463E+04 2.44065E+05 3.58577E+03 9.91895E-09-2.60807E-08
 -1       259-1.49786E+06-3.95829E+04-1.24313E+05 9.25090E+04 4.38376E-09 1.30727E-07
 -1       260-2.01826E+05 4.17595E+04 1.45999E+05-2.75628E+05 2.55009E-08 7.96811E-08
 -1       261-9.94509E+05-9.39215E+03-1.22185E+04 1.87976E+05 8.53215E-08-5.50590E-08
 -1       262-7.77590E+05 4.86772E+04 5.03127E+04-3.70437E+05-3.20936E-08-8.48224E-08
 -1       263-9.55857E+05-1.84414E+04 2.09025E+04 1.90739E+05 1.91235E-08 6.19184E-08
 -1       264-2.49652E+05 1.46336E+05 2.26558E+05-2.96830E+05 1.36367E-07-2.03274E-07
 -1       265-1.49409E+06-1.30401E+05 2.97826E+03 1.11306E+05 5.58448E-08-1.36715E-08
 -1       266-1.93509E+04-9.04915E+03 4.53998E+04-2.74762E+01-1.00044E-10 1.75917E-07
 -1       267 2.24329E+04 1.05460E+04 3.20895E+04 3.17039E+01 5.07498E-10-1.45536E-08
 -1       268-3.00822E+03-1.49366E+03 1.19274E+04-4.03952E+00 9.32232E-11 1.69414E-07
 -1       269 3.55181E+03 1.78753E+03 7.75271E+03 4.70555E+00-4.54747E-11 2.86241E-08
 -1       270-5.33131E+02-2.93708E+02 3.74234E+03-6.38570E-01-2.12594E-11-8.49884E-08
 -1       271-1.80463E+06-2.14872E+05-1.35472E+05-6.88211E+05 1.61835E-08 1.42136E-07
 -1       272-1.90401E+06-2.63741E+05-8.72082E+04-6.30218E+05-2.31094E-08-4.15730E-08
 -1       273-1.82945E+06-2.49465E+05-3.19953E+04-6.82925E+05 1.10355E-08-5.57393E-08
 -1       274-1.87417E+06-2.21861E+05-1.79179E+04-6.38454E+05 8.79891E-09 5.89989E-09
 -1       275-1.83341E+06-2.52671E+05-7.49681E+03-6.81310E+05-7.62429E-09 7.75071E-08
 -1       276-1.86777E+06-2.19386E+05-3.86098E+03-6.41545E+05 4.84379E-08 8.12001E-08
 -1       277-1.83520E+06-2.51860E+05-2.01179E+03-6.79588E+05-2.73394E-09 5.36902E-08
 -1       278-1.86350E+06-2.22214E+05-1.11499E+03-6.44946E+05-1.02518E-08-4.37094E-08
 -1       279-1.83700E+06-2.50230E+05-1.36408E+03-6.77446E+05-1.57597E-08 4.46198E-09
 -1       280-1.85906E+06-2.26462E+05-1.74378E+03-6.49102E+05-8.29459E-10-1.84154E-08
 -1       281-1.83896E+06-2.48060E+05-3.67359E+03-6.74953E+05-2.00725E-08-5.51395E-08
 -1       282-1.85551E+06-2.33267E+05-7.79391E+03-6.53743E+05-4.21669E-08 3.38090E-07
 -1       283-1.83998E+06-2.43998E+05-1.45532E+04-6.72332E+05 4.69408E-08 1.61001E-07
 -1       284-1.86241E+06-2.57557E+05-3.83857E+04-6.56528E+05-2.02408E-08-1.40400E-07
 -1       285-1.83193E+06-2.25962E+05-6.04502E+04-6.71214E+05-2.19188E-08 3.01752E-08
 -1       301 5.80597E+03-5.81795E+05 1.75616E+05-9.98655E+05 8.29459E-10-9.02801E-08
 -1       302 6.19886E+03-5.35560E+05 1.05765E+05-1.45878E+06-2.91766E-09-3.71874E-08
 -1       303-1.24042E+04-5.70125E+05 6.13510E+04-9.95996E+05-1.14233E-09-9.94987E-08
 -1       304-9.18412E+03-5.41700E+05 6.44666E+04-1.45810E+06-4.91855E-09 1.10984E-07
 -1       305-1.28161E+04-5.63210E+05 8.33760E+04-9.98919E+05 2.59570E-09 1.35129E-07
 -1       306-2.90316E+07-5.98293E+06-8.21627E+06-8.27254E+05-8.55653E-08-1.97906E-08
 -1       307 2.46650E+07 2.78459E+06 5.32304E+06-1.41254E+07-8.40184E-07-5.97211E-08
 -1       308-7.47458E+06-1.01722E+06-5.70536E+05 4.99959E+06-1.41881E-07 5.38494E-07
 -1       309-3.73963E+06 8.06418E+06 2.07875E+06-1.98053E+07 4.29631E-07-3.50919E-08
 -1       310-1.15862E+07-1.66216E+06-1.69205E+06 4.97356E+06 6.04196E-08-2.05298E-07
 -1       311 3.42398E+07 8.55240E+04 6.63833E+06-9.35360E+06 4.03408E-07-1.95199E-07
 -1       312-3.03010E+07-6.11727E+06-7.90046E+06-4.21220E+06 1.84868E-07-9.01491E-08
 -1       313 4.37411E+07 1.25994E+07 1.00341E+07 2.12391E+07 4.93310E-08 1.92231E-07
 -1       314-1.75371E+07-1.61722E+07-7.15970E+06-1.20494E+07 2.79280E-07-1.21887E-07
 -1       315-7.98444E+05 2.74680E+07 5.46590E+06 1.11971E+07-5.20187E-07-2.00700E-07
 -1       316 8.23136E+05-9.69745E+06-5.44783E+05-3.09288E+06-1.10061E-06-2.31521E-07
 -1       317-1.72665E+07 2.14574E+07 2.04198E+06-7.45726E+06 7.48405E-07-5.77944E-07
 -1       318-1.03364E+06-1.16943E+07-1.72752E+06-4.29232E+06-9.06177E-07 1.53668E-07
 -1       319 5.96200E+06 2.91322E+07 6.40873E+06 1.52421E+07-5.39003E-08 2.20985E-07
 -1       320-2.14628E+07-1.63702E+07-9.15850E+06-1.20791E+07 1.82306E-07-5.88188E-08
 -1       336-5.63114E+02-1.77641E+06-1.42712E+04 9.19466E+03-2.56532E-08-1.19944E-08
 -1       337-5.49739E+03-1.77642E+06-1.86507E+04-2.22548E+04-4.77594E-08-6.27733E-09
 -1       338 4.48387E+02-1.77590E+06-2.91665E+04 1.28267E+04-3.40651E-08 1.54905E-08
 -1       339-3.09399E+04-1.79405E+06-6.60539E+04-2.93483E+04-6.22822E-08 2.06783E-08
 -1       340 2.05818E+04-1.76097E+06-1.03921E+05 1.61607E+04-4.01415E-08 4.05525E-08
 -1       406-4.05012E+01 3.82424E+05 6.37192E+02 3.03084E+00-1.67823E-09-4.62569E-09
 -1       407 1.61224E+02 3.82555E+05 1.36081E+03 2.21078E+01-3.81959E-10-2.65054E-08
 -1       408 6.36098E+02 3.82325E+05 2.71387E+03-2.55039E+01-2.30079E-09-1.08139E-08
 -1       409 2.88110E+03 3.83422E+05 6.11593E+03 2.71157E+02-1.84627E-10-5.00404E-09
 -1       410 8.38942E+03 3.81545E+05 1.24827E+04-2.61263E+02-2.70302E-09 4.22369E-09
 -1       521-3.05556E+07-7.35368E+06-9.58387E+06-4.72089E+05-1.37021E-07 2.85800E-08
 -1       522 2.54880E+07 3.62865E+06 5.40637E+06-1.74253E+07-5.69533E-07-2.94647E-07
 -1       523-8.11596E+06-1.32703E+06-5.78627E+05 5.44197E+06 1.37312E-07-3.62983E-07
 -1       524-7.14500E+06 1.08929E+07 2.24470E+06-2.27499E+07 1.02131E-06-5.09819E-07
 -1       525-1.24369E+07-2.21932E+06-1.85478E+06 5.41155E+06 8.60484E-07-3.76836E-07
 -1       526 3.71578E+07 8.51887E+04 6.96522E+06-1.19775E+07 4.54020E-07-2.22120E-07
 -1       527-3.20729E+07-7.68558E+06-9.08320E+06-4.07537E+06 2.06055E-08 1.54658E-07
 -1       528 4.77611E+07 1.38803E+07 1.04526E+07 2.40680E+07 5.10481E-08 4.51691E-08
 -1       529-1.85160E+07-1.82385E+07-8.19440E+06-1.21493E+07 7.49715E-08-1.79862E-07
 -1       530-3.16498E+06 3.19229E+07 5.76914E+06 1.10006E+07-2.27941E-07 5.09026E-07
 -1       531 7.83596E+05-1.07970E+07-5.36380E+05-3.13385E+06-9.08185E-07 3.83065E-07
 -1       532-2.00311E+07 2.36011E+07 2.23089E+06-1.13269E+07 3.89686E-07-7.05069E-07
 -1       533-1.08792E+06-1.28254E+07-1.82571E+06-4.22513E+06-1.31025E-07-1.00053E-06
 -1       534 3.94088E+06 3.37745E+07 6.66457E+06 1.57475E+07-6.60657E-08 7.42497E-07
 -1       535-2.26008E+07-1.85861E+07-1.04666E+07-1.21827E+07 9.86038E-08 4.29805E-07
 -1       536-6.93823E+05-4.72663E+04-4.04951E+04-5.29437E+04-1.19530E-08 6.79338E-08
 -1       537-6.68121E+04 4.56535E+04 8.45070E+04 1.20517E+05-1.13904E-07 1.10707E-07
 -1       538-3.93944E+05 2.84095E+03 4.88459E+03-7.05262E+04 2.28649E-08 1.15825E-07
 -1       539-2.73542E+05 3.09152E+03 2.47585E+04 1.35308E+05 1.53619E-07 1.03879E-07
 -1       540-4.92256E+05-4.07469E+02-2.00180E+04-6.82365E+04 2.65070E-08 9.21318E-08
 -1       541 1.25167E+05 1.63077E+04 1.02230E+05 9.50636E+04 2.01289E-08 7.42916E-08
 -1       542-7.81913E+05-1.93420E+04-8.07436E+04-2.94614E+04 6.37847E-08 4.45531E-08
 -1       543 3.73363E+05 2.62349E+04 1.51562E+05-1.30754E+04 1.72531E-08-5.98266E-09
 -1       544-7.33799E+05-1.58478E+04-7.17542E+04 3.92739E+04 2.30689E-08-3.62820E-08
 -1       545 1.18485E+04 9.02619E+03 7.63941E+04-1.10585E+05-6.67978E-09-7.70262E-08
 -1       546-4.30100E+05 5.91054E+03-1.17685E+04 6.77243E+04 3.11595E-08-9.86812E-08
 -1       547-2.91161E+05-4.67601E+03 9.81339E+03-1.38132E+05-8.97675E-08-1.26784E-07
 -1       548-4.38927E+05 4.66111E+03-2.33677E+04 6.74686E+04-1.00815E-07-9.11032E-08
 -1       549 3.07370E+04 1.45374E+04 5.68927E+04-1.08364E+05-5.44360E-08-6.29213E-08
 -1       550-7.43383E+05-2.05039E+04-1.25507E+05 3.72846E+04 4.55020E-09-4.38813E-08
 -1       551 4.01120E+04-7.75796E+05-1.25688E+04-1.24041E+06-9.88657E-08-3.52156E-09
 -1       552 9.13206E+04-8.19084E+05 1.18965E+04-1.76896E+06-7.16682E-08 5.34565E-08
 -1       553 7.00168E+04-8.16068E+05 3.34448E+04-1.23389E+06-1.16837E-07 4.31610E-08
 -1       554 1.29564E+05-8.34000E+05 8.28593E+04-1.77091E+06-7.52625E-08 1.31840E-08
 -1       555 9.98224E+04-8.39487E+05 1.50825E+05-1.23378E+06-1.22891E-07-1.08521E-08
 -1       556 2.17931E+05-3.74846E+05 3.18566E+04-4.01691E+05-1.85682E-08-3.84171E-09
 -1       557 3.47123E+05-4.77833E+05 1.92008E+04-5.19276E+05-2.12458E-09 9.43328E-09
 -1       558 2.00779E+05-3.69113E+05 3.80509E+03-4.05026E+05-1.80735E-08-1.45446E-08
 -1       559 3.22284E+05-4.78866E+05 3.11822E+03-5.38982E+05 2.38215E-08-1.48466E-08
 -1       560 1.86107E+05-3.59903E+05-1.07679E+03-4.15573E+05 9.57516E-09 1.38243E-09
 -1       561 3.03761E+05-4.71508E+05 3.03285E+02-5.51577E+05-5.92263E-09-2.00089E-10
 -1       562 1.74500E+05-3.52680E+05-1.17860E+03-4.23974E+05-1.07102E-08-1.93759E-08
 -1       563 2.89976E+05-4.65498E+05 9.79504E+00-5.60574E+05 9.67702E-09-2.84581E-08
 -1       564 1.66234E+05-3.47527E+05-5.46644E+02-4.29831E+05 5.71890E-09-3.56522E-09
 -1       565 2.80866E+05-4.61532E+05 3.61264E+01-5.66392E+05 1.08994E-08 1.91494E-08
 -1       566 1.61429E+05-3.44486E+05-2.39399E+02-4.33192E+05-8.22183E-09-2.44436E-08
 -1       567 2.76484E+05-4.59625E+05-3.45779E+02-5.69049E+05 8.98945E-09-8.19273E-09
 -1       568 1.60174E+05-3.43719E+05-1.08446E+03-4.34166E+05-5.91535E-09 8.77844E-09
 -1       569 2.75465E+05-4.59563E+05-2.74034E+03-5.67582E+05-4.84033E-09 3.66272E-08
 -1       570 1.63541E+05-3.46900E+05-5.99979E+03-4.33170E+05 1.41154E-09-7.41238E-10
 -1       571 2.87572E+05 1.04045E+04 1.48741E+04-9.33221E+04 3.01225E-09 2.68674E-08
 -1       572 2.89730E+05 3.90544E+03 7.28943E+03-1.02383E+05 4.28372E-09 6.51926E-09
 -1       573 2.88429E+05 1.21386E+03 3.23891E+03-9.31475E+04 1.28784E-09 2.41371E-08
 -1       574 2.88644E+05 6.96846E+02 1.62422E+03-1.02604E+05-6.54609E-10 6.39920E-09
 -1       575 2.88522E+05 4.22218E+02 7.66557E+02-9.31236E+04-4.08241E-09 2.93348E-08
 -1       576 2.88509E+05 4.31374E+02 3.92403E+02-1.02633E+05-7.11771E-09 3.40524E-08
 -1       577 2.88561E+05 3.65301E+02 1.95844E+02-9.31204E+04 7.19865E-09 1.67292E-08
 -1       578 2.88537E+05 3.94786E+02 1.12983E+02-1.02637E+05 1.84514E-08-1.88884E-08
 -1       579 2.88629E+05 3.30487E+02 7.74897E+01-9.31200E+04 2.11639E-08-1.76988E-09
 -1       580 2.88634E+05 3.46177E+02 8.96073E+01-1.02633E+05-4.05271E-09 1.27120E-08
 -1       581 2.88739E+05 2.74721E+02 1.35299E+02-9.31258E+04 1.02864E-08 5.99448E-09
 -1       582 2.88802E+05 3.11573E+02 2.74743E+02-1.02572E+05 3.07318E-09-2.04645E-08
 -1       583 2.88872E+05 3.18803E+02 5.27591E+02-9.31812E+04 4.15203E-08 4.96993E-09
 -1       584 2.89166E+05 7.48874E+02 1.19351E+03-1.02106E+05 8.72242E-08-2.40948E-09
 -1       585 2.88894E+05 1.75574E+03 2.41724E+03-9.35914E+04 3.78459E-08-9.34961E-09
 -1       586-3.39171E+03 1.14707E+05-2.95668E+03-2.48552E+05-7.07223E-09-1.87424E-09
 -1       587-1.29531E+03 1.14447E+05 7.23749E+02-2.73550E+05-4.63297E-09 1.45355E-08
 -1       588 4.29457E+02 1.14268E+05 4.68205E+03-2.48415E+05-6.65932E-09 1.42063E-09
 -1       589 5.06299E+03 1.16704E+05 1.21786E+04-2.73317E+05-1.02864E-08-1.35333E-09
 -1       590 1.64373E+04 1.12951E+05 2.55608E+04-2.48843E+05-4.98403E-09 8.48377E-09
 -1       591-7.35634E+04-1.58075E+04-2.22090E+04-3.15193E+04-7.55449E-09 3.79805E-09
 -1       592-7.75457E+04-1.93634E+04-1.20302E+04-3.51488E+04-4.18913E-09-1.49350E-08
 -1       593-7.57850E+04-1.41955E+04-5.00758E+03-3.31473E+04 4.58578E-10-9.10450E-09
 -1       594-7.44786E+04-1.61052E+04-2.49741E+03-3.52658E+04 2.86815E-09 2.56094E-09
 -1       595-7.59544E+04-1.41901E+04-1.14659E+03-3.32213E+04-5.41021E-10 8.11055E-09
 -1       596-7.42686E+04-1.59562E+04-5.82714E+02-3.52409E+04 5.08840E-09-1.04325E-09
 -1       597-7.59756E+04-1.42053E+04-3.16969E+02-3.32241E+04 1.25510E-09-2.03527E-08
 -1       598-7.42480E+04-1.59503E+04-2.54189E+02-3.52339E+04-4.00422E-09-1.04999E-08
 -1       599-7.59744E+04-1.42058E+04-3.23929E+02-3.32238E+04 1.44382E-09-1.79444E-08
 -1       600-7.42687E+04-1.59568E+04-6.01139E+02-3.52388E+04 7.32143E-11-7.41665E-09
 -1       601-7.59500E+04-1.41915E+04-1.18560E+03-3.32203E+04 4.52883E-09 7.34099E-09
 -1       602-7.44857E+04-1.61098E+04-2.58372E+03-3.52607E+04-7.22594E-09-9.31357E-09
 -1       603-7.57720E+04-1.41999E+04-5.18134E+03-3.31445E+04-1.32354E-09-7.16454E-09
 -1       604-7.76765E+04-1.94617E+04-1.24468E+04-3.51152E+04 7.90010E-09 1.50492E-08
 -1       605-7.34537E+04-1.58853E+04-2.29783E+04-3.14792E+04 6.19826E-09 1.36961E-08
 -1       606 2.68781E+04-1.41664E+04-2.53978E+04 2.42627E+04 5.17957E-09 2.26387E-08
 -1       607 2.25382E+04-4.62541E+03-1.26480E+04 2.72643E+04 3.75621E-10-1.55449E-08
 -1       608 2.50110E+04-8.33218E+02-5.66217E+03 2.40906E+04-2.70302E-09 1.75608E-08
 -1       609 2.45363E+04-2.83758E+02-2.86034E+03 2.74806E+04 2.98678E-09 1.26188E-08
 -1       610 2.47990E+04-3.85083E+01-1.36477E+03 2.40702E+04 7.70524E-09-2.72644E-09
 -1       611 2.47239E+04-3.80893E+01-6.88104E+02 2.75039E+04 1.01550E-08 1.72013E-08
 -1       612 2.47518E+04-2.45224E+01-3.27183E+02 2.40681E+04 6.45741E-10-2.84831E-09
 -1       613 2.47347E+04-3.36448E+01-1.46647E+02 2.75067E+04 2.64481E-09-9.16998E-09
 -1       614 2.47293E+04-3.05178E+01-3.44989E+01 2.40674E+04 9.99535E-10 2.29752E-08
 -1       615 2.47289E+04-3.18607E+01 6.12274E+01 2.75071E+04-2.77578E-09 5.97220E-09
 -1       616 2.47117E+04-2.71723E+01 1.83813E+02 2.40677E+04 1.89266E-09-2.29702E-08
 -1       617 2.47506E+04 7.56114E+00 4.19477E+02 2.75066E+04 6.73003E-09-1.22109E-08
 -1       618 2.46750E+04 9.39475E+01 8.45549E+02 2.40680E+04 1.17598E-09-4.02906E-10
 -1       619 2.50488E+04 6.61498E+02 1.89877E+03 2.75060E+04-4.78269E-09 9.50672E-09
 -1       620 2.43940E+04 2.09911E+03 3.81648E+03 2.40693E+04-1.22213E-09 9.41191E-09
 -1       621 4.96196E+02 2.98326E+05 3.82113E+03 3.95630E+04 8.64020E-10 4.95675E-09
 -1       622 6.53998E+02 2.99212E+05 3.39578E+03 5.74421E+04 1.01727E-09 3.82352E-09
 -1       623 1.32121E+02 2.98520E+05 4.08735E+03 3.93837E+04 1.26715E-09 1.23873E-09
 -1       624 2.08551E+03 3.00421E+05 7.92890E+03 5.76187E+04 1.09446E-09 1.57684E-09
 -1       625 2.04171E+03 2.96948E+05 1.38581E+04 3.93806E+04 1.41154E-09-1.62572E-09
 -1       626 2.58309E+05 6.11684E+04 5.09483E+03 1.25949E+05 1.27657E-08 1.22600E-09
 -1       627 2.55977E+05 6.25844E+04 2.45516E+03 1.30230E+05 2.59379E-08-1.66873E-08
 -1       628 2.58438E+05 5.88353E+04 1.03830E+03 1.26813E+05 4.99040E-09 3.85717E-09
 -1       629 2.55342E+05 6.19105E+04 5.08212E+02 1.30471E+05-5.80030E-09 4.21632E-09
 -1       630 2.58452E+05 5.87227E+04 2.35797E+02 1.26849E+05-2.99133E-09-1.31715E-08
 -1       631 2.55275E+05 6.18851E+04 1.26969E+02 1.30473E+05 1.69439E-09-1.05416E-09
 -1       632 2.58448E+05 5.87269E+04 8.36915E+01 1.26844E+05-2.56705E-09-7.29278E-09
 -1       633 2.55266E+05 6.18871E+04 9.34427E+01 1.30469E+05-1.02931E-08 2.56541E-08
 -1       634 2.58443E+05 5.87243E+04 1.51193E+02 1.26844E+05-7.45615E-09 7.83075E-09
 -1       635 2.55280E+05 6.18856E+04 3.06053E+02 1.30474E+05-1.02448E-08 4.58931E-09
 -1       636 2.58434E+05 5.87187E+04 6.18132E+02 1.26843E+05-9.86779E-09-5.51745E-09
 -1       637 2.55414E+05 6.19817E+04 1.35913E+03 1.30473E+05-1.91797E-08 1.35715E-08
 -1       638 2.58386E+05 5.90189E+04 2.79252E+03 1.26707E+05-3.33375E-09 2.19275E-08
 -1       639 2.56880E+05 6.40219E+04 6.60719E+03 1.30041E+05 1.28944E-09 1.77329E-09
 -1       640 2.58183E+05 6.51106E+04 1.37111E+04 1.24140E+05-6.38011E-10-7.73298E-10
 -1       656 6.60413E+04-1.68953E+06-1.59419E+05-2.41800E+03-7.27596E-12-4.73949E-09
 -1       657-8.73636E+04-1.76157E+06-1.32062E+05 5.34996E+03-4.97494E-10 9.59687E-10
 -1       658 2.10487E+04-1.70999E+06-8.13253E+04-4.47949E+03 2.19416E-10-6.29906E-09
 -1       659-9.44474E+04-1.76493E+06-1.41372E+05 7.04968E+03-1.91449E-09-1.41908E-08
 -1       660 7.31093E+04-1.68618E+06-1.75424E+05-4.11771E+03-1.22236E-09-1.92748E-09
 -1       661 1.59891E+05 1.67651E+04 1.67824E+04 6.25053E+04-1.94950E-09-8.56926E-09
 -1       662 1.69349E+05 2.92223E+04 1.13101E+04 5.87737E+04-3.20199E-09-3.06350E-08
 -1       663 1.63187E+05 2.21492E+04 3.95559E+03 6.15486E+04-1.76601E-09-7.00084E-10
 -1       664 1.65527E+05 2.29260E+04 2.36621E+03 5.99422E+04-3.50269E-10 1.61090E-08
 -1       665 1.63687E+05 2.28846E+04 9.33452E+02 6.14028E+04 2.34047E-09 1.68228E-10
 -1       666 1.64936E+05 2.20849E+04 5.46315E+02 6.01323E+04 7.34931E-09 3.62614E-10
 -1       667 1.63775E+05 2.29683E+04 2.90269E+02 6.13663E+04 5.79178E-10-5.56756E-09
 -1       668 1.64839E+05 2.20247E+04 2.95983E+02 6.01854E+04-8.65847E-09 6.24303E-09
 -1       669 1.63783E+05 2.29432E+04 4.00893E+02 6.13500E+04-4.79355E-09 1.49147E-08
 -1       670 1.64937E+05 2.22424E+04 8.73120E+02 6.01884E+04-7.14598E-09 1.45742E-08
 -1       671 1.63677E+05 2.27551E+04 1.55034E+03 6.13613E+04 1.54632E-09 8.26344E-09
 -1       672 1.65840E+05 2.37508E+04 3.96656E+03 5.99696E+04 9.64435E-09-6.07270E-09
 -1       673 1.62884E+05 2.14729E+04 6.64734E+03 6.15542E+04 3.66754E-09-4.90718E-09
 -1       674 1.72167E+05 3.44304E+04 1.90100E+04 5.81109E+04 2.51248E-11 1.58461E-08
 -1       675 1.57391E+05 1.23746E+04 2.82175E+04 6.31078E+04-1.23919E-09-9.67157E-09
 -1       676 2.40062E+01-2.94450E+05-1.10945E+03-1.27564E+02 1.30575E-09 3.93280E-09
 -1       677-2.93633E+02-2.94718E+05-2.03049E+03 2.54925E+02 6.07758E-09 4.03308E-09
 -1       678 1.96821E+02-2.94259E+05-3.58940E+03-1.27277E+02 1.25965E-10 1.52378E-08
 -1       679-3.58961E+03-2.96885E+05-8.52692E+03 2.53830E+02 8.46694E-09 2.12668E-08
 -1       680 2.14309E+03-2.92284E+05-1.37425E+04-1.25061E+02 2.31103E-09 5.45802E-09
 -1       771-3.05222E+06-7.36944E+05-1.58168E+05-1.45525E+06-3.13012E-08-3.04135E-08
 -1       772-2.97673E+06-8.23689E+05-8.15514E+04-1.55551E+06-2.59606E-08 5.21322E-09
 -1       773-3.08241E+06-7.13356E+05-4.15534E+04-1.46891E+06-1.55997E-08 1.05210E-08
 -1       774-2.96746E+06-8.06191E+05-1.85420E+04-1.58025E+06 3.15922E-08-5.12955E-09
 -1       775-3.09815E+06-7.02296E+05-1.38551E+04-1.47555E+06-1.30967E-09 2.72121E-09
 -1       776-2.97912E+06-8.03389E+05-5.18309E+03-1.59891E+06-7.33417E-09 5.84987E-09
 -1       777-3.11178E+06-6.92442E+05-6.11557E+03-1.48141E+06-2.53203E-09 4.62751E-09
 -1       778-2.99131E+06-8.00782E+05-1.72929E+03-1.61493E+06-5.76256E-09-4.07454E-10
 -1       779-3.12349E+06-6.83843E+05-3.05432E+03-1.48641E+06-1.14087E-08-5.26052E-09
 -1       780-3.00204E+06-7.98290E+05-5.07037E+02-1.62798E+06-4.65661E-10-1.28421E-09
 -1       781-3.13279E+06-6.76915E+05-1.18728E+03-1.49033E+06-2.32540E-08 3.02862E-09
 -1       782-3.01030E+06-7.96170E+05 4.24001E+02-1.63762E+06-3.23344E-08-6.57928E-09
 -1       783-3.13934E+06-6.72106E+05 6.58370E+02-1.49308E+06-9.05129E-09-2.05432E-08
 -1       784-3.01488E+06-7.94037E+05 2.74077E+03-1.64356E+06-2.15114E-08 1.05319E-09
 -1       785-3.14320E+06-6.69242E+05 4.83650E+03-1.49482E+06-3.72238E-08 9.33687E-09
 -1       786 1.25232E+05-9.78877E+03 2.26472E+04-3.13018E+02 2.50030E-09 7.61065E-09
 -1       787 1.35054E+05 1.13331E+04 1.60220E+04-1.27898E+02 3.25557E-09 1.73841E-08
 -1       788 1.29019E+05-1.53396E+03 5.85939E+03-2.78248E+02 8.36709E-10 2.13836E-08
 -1       789 1.30642E+05 1.77546E+03 3.67841E+03-1.81296E+02 8.09742E-10 1.55440E-08
 -1       790 1.29644E+05-2.38880E+02 1.48956E+03-2.59637E+02-3.38231E-09 1.39338E-08
 -1       791 1.29911E+05 2.76374E+02 8.60791E+02-2.13167E+02-6.95935E-09-2.34155E-09
 -1       792 1.29750E+05-3.60033E+01 3.65679E+02-2.46380E+02-4.03707E-09 1.71933E-08
 -1       793 1.29785E+05 3.84185E+01 1.84294E+02-2.38131E+02 7.09964E-10 1.51867E-08
 -1       794 1.29771E+05-1.07478E+00 5.19043E+01-2.34673E+02 4.09603E-09 2.07994E-09
 -1       795 1.29749E+05-2.41379E+01-4.71978E+01-2.62608E+02-4.58669E-09-4.84704E-10
 -1       796 1.29786E+05 2.65182E+01-1.44656E+02-2.21902E+02 3.11228E-09-1.67670E-09
 -1       797 1.29663E+05-1.98461E+02-4.02227E+02-2.91998E+02 4.62143E-09 3.01816E-09
 -1       798 1.29857E+05 1.73117E+02-6.54637E+02-2.05282E+02 2.01640E-09-3.73703E-09
 -1       799 1.29166E+05-1.27607E+03-1.80222E+03-3.33145E+02 5.15629E-09 6.77082E-09
 -1       800 1.30283E+05 1.10324E+03-2.55086E+03-1.80757E+02 2.79341E-11 6.53938E-09
 -1       801-1.51507E+05-9.63456E+06-1.33243E+06 1.32671E+06 8.85047E-08-5.61631E-08
 -1       802 6.81637E+05 5.37692E+06 2.03762E+06-1.62810E+06 2.52425E-07-3.26181E-08
 -1       803-5.03447E+05-1.36086E+07-1.77772E+06 8.43810E+05 7.63503E-08 1.79534E-08
 -1       804 2.65127E+05 2.00456E+06 1.43516E+06 6.47630E+05-1.14567E-07-9.37112E-08
 -1       805 1.81941E+05-6.27683E+06-2.68364E+05-9.43658E+05-4.76794E-08-6.45305E-08
 -1       806-3.06234E+05-5.92281E+04-2.26483E+04-1.21334E+05-4.17913E-10-2.04273E-09
 -1       807-3.08020E+05-5.55269E+04-1.11269E+04-1.26824E+05 1.21481E-08-1.70265E-09
 -1       808-3.06855E+05-5.10666E+04-4.72037E+03-1.25194E+05-9.36416E-09 1.28445E-08
 -1       809-3.05680E+05-5.24003E+04-2.30814E+03-1.27097E+05-1.53814E-08 5.98675E-10
 -1       810-3.06948E+05-5.07825E+04-1.05794E+03-1.25364E+05 3.59569E-09 3.17568E-08
 -1       811-3.05500E+05-5.22747E+04-5.26123E+02-1.27062E+05 7.21911E-09 1.98906E-08
 -1       812-3.06962E+05-5.08069E+04-2.66132E+02-1.25364E+05 5.09317E-11 7.33053E-09
 -1       813-3.05475E+05-5.22768E+04-1.73046E+02-1.27044E+05-1.44155E-08 1.27784E-09
 -1       814-3.06956E+05-5.08165E+04-1.71616E+02-1.25360E+05-5.86897E-09-3.84898E-09
 -1       815-3.05478E+05-5.22790E+04-2.76640E+02-1.27036E+05 2.90311E-09 1.56194E-08
 -1       816-3.06935E+05-5.08155E+04-5.24390E+02-1.25356E+05 6.79302E-09 1.73104E-08
 -1       817-3.05567E+05-5.23290E+04-1.12547E+03-1.27025E+05 2.26373E-09 1.65835E-08
 -1       818-3.06867E+05-5.09743E+04-2.29556E+03-1.25281E+05 1.42154E-09-8.86166E-09
 -1       819-3.06824E+05-5.37159E+04-5.40133E+03-1.26728E+05-1.15369E-09-2.86605E-09
 -1       820-3.06434E+05-5.50543E+04-1.09937E+04-1.23538E+05-1.49703E-09 1.14419E-08
 -1       821-3.76700E+05 2.07481E+04-4.82378E+04 1.96750E+03 1.30560E-08-9.44419E-09
 -1       822-3.96529E+05-2.40323E+04-3.39466E+04-4.08021E+03 4.16487E-09 1.71176E-08
 -1       823-3.84233E+05 3.26757E+03-1.24649E+04 3.12083E+03-1.08070E-08 1.79489E-08
 -1       824-3.87481E+05-3.76988E+03-7.80940E+03-4.84512E+03 2.32852E-09 3.49928E-10
 -1       825-3.85752E+05 5.07737E+02-3.26167E+03 2.73251E+03 1.84204E-08-9.66554E-09
 -1       826-3.85206E+05-5.69752E+02-1.76748E+03-2.74955E+03 2.46098E-08-8.21410E-09
 -1       827-3.86487E+05 5.40480E+01-1.15304E+03 1.02514E+03 9.14341E-09-3.26654E-08
 -1       828-3.84604E+05-1.40805E+02-6.37055E+02 1.04630E+03-9.20068E-10 4.06507E-09
 -1       829-3.86344E+05 7.09060E+01-1.14575E+03-1.06338E+03 1.28529E-09 1.20277E-08
 -1       830-3.85518E+05-6.19709E+02-1.89722E+03 4.44929E+03 4.71537E-10 1.87928E-08
 -1       831-3.85592E+05 5.47545E+02-3.34694E+03-2.37787E+03-3.00150E-09-1.19942E-08
 -1       832-3.87564E+05-3.93211E+03-8.11052E+03 5.58014E+03-4.09137E-09-5.52961E-09
 -1       833-3.84312E+05 3.39054E+03-1.29627E+04-2.19427E+03-3.76602E-09 4.83124E-09
 -1       834-3.96630E+05-2.49409E+04-3.51715E+04 3.78311E+03-1.94532E-09 1.12777E-09
 -1       835-3.76512E+05 2.15264E+04-5.00950E+04-5.80765E+02 4.58709E-09 1.09867E-09
 -1       836-1.39659E+03 3.66531E+05 2.26612E+04-1.63133E+04-6.68115E-09-4.93174E-09
 -1       837 4.83524E+03 3.73626E+05 1.91819E+04-3.32952E+04-7.42705E-09 7.04176E-09
 -1       838-5.50497E+02 3.68519E+05 1.95528E+04-1.62418E+04-6.15046E-09 2.32301E-08
 -1       839 1.23133E+04 3.79196E+05 3.69967E+04-3.33470E+04-6.05723E-09-3.84551E-09
 -1       840-3.80376E+03 3.60902E+05 5.90000E+04-1.62669E+04-5.85715E-09 1.74511E-09
 -1       856-5.39503E+04 8.03484E+03-2.11736E+04-3.99133E+02 5.98254E-09-1.90212E-08
 -1       857-6.26745E+04-9.43972E+03-1.45758E+04 5.60675E+03 3.76804E-09-6.74527E-09
 -1       858-5.74049E+04 1.12675E+03-5.49409E+03-4.23345E+02 9.91861E-10-1.31945E-09
 -1       859-5.87099E+04-1.32467E+03-3.31553E+03 5.64291E+03-6.33555E-09 1.89072E-08
 -1       860-5.79210E+04 1.57739E+02-1.38972E+03-4.35045E+02 1.58337E-09-1.68740E-09
 -1       861-5.81163E+04-1.87454E+02-7.64889E+02 5.65886E+03 2.83634E-09-2.91766E-08
 -1       862-5.80017E+04 2.13364E+01-3.18708E+02-4.39275E+02-8.99590E-10-1.69044E-09
 -1       863-5.80174E+04-2.11970E+01-1.17807E+02 5.66129E+03-6.39356E-09 1.19839E-08
 -1       864-5.80203E+04-4.73941E+00 4.34104E+01-4.37477E+02-2.89253E-09 3.99957E-09
 -1       865-5.79627E+04 5.86563E+01 2.47001E+02 5.65109E+03-3.97733E-09-2.67912E-08
 -1       866-5.80543E+04-5.85623E+01 4.99746E+02-4.29083E+02-1.28637E-10-4.36117E-09
 -1       867-5.77271E+04 4.83802E+02 1.23137E+03 5.62829E+03-3.31681E-11 9.05817E-09
 -1       868-5.82510E+04-4.22285E+02 2.04645E+03-4.14673E+02-4.67082E-10-6.10987E-09
 -1       869-5.62263E+04 3.51442E+03 5.44952E+03 5.59071E+03 3.02873E-09 8.69090E-09
 -1       870-5.95474E+04-3.00697E+03 7.90836E+03-3.91402E+02-3.38537E-09-8.59291E-09
 -1       871-5.48706E+03-2.07835E+04-1.92948E+04 1.29053E+05-5.17139E-09 1.51140E-08
 -1       872-1.99295E+03-2.52625E+04-8.07157E+03 1.67336E+05-1.10258E-08 3.08419E-08
 -1       873 3.78189E+02-2.31002E+04 6.02943E+02 1.28769E+05-5.59066E-09 1.28925E-08
 -1       874 3.25333E+03-2.06969E+04 9.72569E+03 1.67366E+05-1.07739E-08 9.37666E-09
 -1       875 6.77957E+03-2.54167E+04 2.19255E+04 1.29006E+05-4.49472E-09-4.23643E-09
 -1       876 2.91636E+05 4.91937E+04 1.50087E+04 1.17083E+05 5.75744E-09 2.19279E-09
 -1       877 2.92624E+05 5.23592E+04 8.01524E+03 1.21393E+05 8.83983E-09-1.30201E-08
 -1       878 2.93040E+05 4.75313E+04 3.35799E+03 1.18313E+05-5.04724E-09-6.50061E-09
 -1       879 2.90584E+05 5.03232E+04 1.67315E+03 1.21494E+05 1.06502E-09-9.88962E-10
 -1       880 2.93140E+05 4.75141E+04 7.79322E+02 1.18363E+05-4.94492E-09-1.51863E-08
 -1       881 2.90448E+05 5.02362E+04 4.16161E+02 1.21471E+05-7.55711E-09-1.57580E-08
 -1       882 2.93149E+05 4.75273E+04 2.66216E+02 1.18365E+05 2.08502E-09-1.47559E-08
 -1       883 2.90439E+05 5.02316E+04 2.86165E+02 1.21464E+05-2.62321E-09 4.67368E-09
 -1       884 2.93143E+05 4.75245E+04 4.55194E+02 1.18365E+05-4.45323E-09-1.29103E-09
 -1       885 2.90475E+05 5.02379E+04 9.15175E+02 1.21474E+05-1.19118E-09-1.91280E-08
 -1       886 2.93107E+05 4.74978E+04 1.84448E+03 1.18361E+05-5.96365E-09 9.60790E-09
 -1       887 2.90799E+05 5.04505E+04 4.02902E+03 1.21521E+05 9.32715E-10-8.38759E-09
 -1       888 2.92853E+05 4.75426E+04 8.11858E+03 1.18232E+05-3.14805E-09-3.75621E-09
 -1       889 2.95632E+05 5.54767E+04 1.93938E+04 1.21373E+05 4.40399E-09 2.46109E-09
 -1       890 2.89539E+05 5.14784E+04 3.63241E+04 1.15142E+05 7.39419E-10 1.00954E-08
 -1       891-9.28736E+01-1.61733E+05-1.98157E+03 2.71140E+04 6.16637E-10 1.41335E-09
 -1       892-1.80482E+02-1.62255E+05-2.12891E+03 4.11664E+04 4.99449E-09 6.80916E-09
 -1       893 3.91103E+01-1.61797E+05-3.01499E+03 2.71213E+04 1.05001E-09 4.48290E-09
 -1       894-1.50633E+03-1.63394E+05-6.24039E+03 4.10143E+04 2.98860E-09 5.44969E-09
 -1       895-1.19551E+03-1.60497E+05-1.09895E+04 2.72677E+04 1.28136E-09-3.81533E-09
 -1       956-3.74221E+05-5.39868E+03-1.33422E+04 3.03590E+04 6.74208E-09 2.15498E-08
 -1       957-3.76840E+05-1.89952E+03-6.84838E+03 3.64877E+04 3.57886E-10 2.23849E-09
 -1       958-3.75419E+05-2.33086E+02-3.08607E+03 3.01931E+04-1.59434E-09-5.04724E-09
 -1       959-3.75615E+05-1.28299E+02-1.57582E+03 3.66806E+04 3.87763E-09 3.05522E-08
 -1       960-3.75536E+05-3.88928E+01-7.68440E+02 3.01760E+04 3.98541E-09 1.06902E-08
 -1       961-3.75535E+05-5.61071E+01-4.07438E+02 3.67008E+04 1.13444E-08 3.72665E-09
 -1       962-3.75563E+05-4.02725E+01-2.33281E+02 3.01732E+04 5.14319E-09 3.73279E-09
 -1       963-3.75535E+05-5.20433E+01-1.87292E+02 3.67044E+04 6.91182E-09 2.33922E-09
 -1       964-3.75569E+05-3.69620E+01-2.27778E+02 3.01724E+04-8.33111E-10 1.59007E-08
 -1       965-3.75548E+05-4.90489E+01-3.93975E+02 3.67037E+04-5.10369E-09 2.69486E-08
 -1       966-3.75553E+05-2.90541E+01-7.40253E+02 3.01739E+04 4.19254E-09-1.91494E-09
 -1       967-3.75637E+05-1.11882E+02-1.51826E+03 3.66896E+04-5.95514E-09-9.80526E-09
 -1       968-3.75450E+05-2.09825E+02-2.97217E+03 3.01863E+04 5.17457E-09-5.02752E-09
 -1       969-3.76828E+05-1.81285E+03-6.59818E+03 3.65439E+04 1.06847E-08-2.90433E-08
 -1       970-3.74304E+05-5.18277E+03-1.28536E+04 3.03117E+04-9.74069E-10 3.61888E-09
 -1       971-3.43067E+05-1.71909E+03-9.27880E+03 1.53203E+04 2.14186E-09 1.09061E-08
 -1       972-3.45302E+05-1.26391E+03-5.05313E+03 2.11996E+04-7.70797E-10 8.25366E-09
 -1       973-3.44101E+05-5.92350E+01-2.26333E+03 1.51992E+04 4.05089E-09-1.09253E-09
 -1       974-3.44237E+05-7.71738E+01-1.17320E+03 2.13364E+04 2.18529E-09 7.07655E-09
 -1       975-3.44183E+05-1.45154E+01-5.86833E+02 1.51869E+04-3.73348E-09 1.14519E-08
 -1       976-3.44176E+05-2.74975E+01-3.39261E+02 2.13521E+04 2.54931E-09 6.15773E-09
 -1       977-3.44199E+05-1.37812E+01-2.47491E+02 1.51835E+04-7.77618E-09-4.29952E-09
 -1       978-3.44181E+05-2.13007E+01-2.91331E+02 2.13569E+04-1.39403E-08-1.26317E-09
 -1       979-3.44199E+05-5.36117E+00-4.69555E+02 1.51821E+04-2.89174E-09-1.98744E-08
 -1       980-3.44216E+05-1.82578E+01-9.07578E+02 2.13579E+04-7.79066E-09-5.02439E-09
 -1       981-3.44170E+05 1.73192E+01-1.75826E+03 1.51826E+04-3.75508E-09 2.65482E-09
 -1       982-3.44458E+05-1.48180E+02-3.63455E+03 2.13513E+04-9.65122E-09 1.41768E-08
 -1       983-3.43949E+05-9.52766E+01-7.06210E+03 1.51886E+04-4.76894E-09 1.20694E-08
 -1       984-3.47854E+05-3.83652E+03-1.58153E+04 2.12658E+04 1.00290E-08 1.46672E-08
 -1       985-3.40751E+05-5.26290E+03-2.90419E+04 1.52606E+04 2.58206E-09-5.85715E-10
 -3
    1PSTEP                        41          21           1          
  100CL  121 6.60873E-01         409                     0   21           1
 -4  DISP        4    1
 -5  D1          1    2    1    0
 -5  D2          1    2    2    0
 -5  D3          1    2    3    0
 -5  ALL         1    2    0    0    1ALL
 -1         1 2.56068E-03 0.00000E+00 0.00000E+00
 -1         2 1.76608E-03 1.58421E-27 0.00000E+00
 -1         3 3.37795E-04-1.21115E-27-1.32349E-23
 -1         5 1.75399E-04 8.46701E-28 1.65436E-24
 -1         8 2.54731E-03-4.45539E-07 0.00000E+00
 -1         9 2.50940E-03-6.13885E-05 0.00000E+00
 -1        10 3.06271E-04-3.54413E-06 6.61744E-24
 -1        12 1.77157E-04 8.03524E-07-1.44757E-24
 -1        15 2.53126E-03-4.78814E-07 2.06795E-25
 -1        16 2.55750E-03-6.29111E-05 0.00000E+00
 -1        17 2.08572E-04-8.03140E-06 0.00000E+00
 -1        18 1.80848E-04 3.32178E-05 0.00000E+00
 -1        19 1.82432E-04 1.60087E-06 0.00000E+00
 -1        20 1.82573E-04-8.85507E-06 0.00000E+00
 -1        21 1.81690E-04-2.32505E-05-3.30872E-24
 -1        24 3.05494E-05-1.22218E-05 0.00000E+00
 -1        25 1.91188E-04 3.34411E-05 0.00000E+00
 -1        26 1.91878E-04 2.21712E-06 0.00000E+00
 -1        27 1.89693E-04-1.23921E-05 0.00000E+00
 -1        28 1.89370E-04-2.38701E-05 0.00000E+00
 -1        32 0.00000E+00 0.00000E+00 0.00000E+00
 -1        33 2.00308E-04 2.96624E-06 0.00000E+00
 -1        34 1.98202E-04-1.24468E-05 0.00000E+00
 -1        35 1.96280E-04-2.42107E-05 0.00000E+00
 -1        51 2.55982E-03-9.00894E-08 0.00000E+00
 -1        52 2.55821E-03-1.62731E-07 3.30872E-24
 -1        53 2.55601E-03-2.32349E-07 0.00000E+00
 -1        54 2.55336E-03-3.01185E-07 0.00000E+00
 -1        55 2.55041E-03-3.70963E-07 1.03398E-25
 -1        56 2.55503E-03 3.68216E-06 0.00000E+00
 -1        57 2.54557E-03 1.68384E-05 0.00000E+00
 -1        58 2.53335E-03 3.70141E-05 0.00000E+00
 -1        59 2.51955E-03 6.10619E-05-5.29396E-23
 -1        60 2.50572E-03 8.51831E-05 0.00000E+00
 -1        61 2.49339E-03 1.05562E-04 5.29396E-23
 -1        62 2.48377E-03 1.19040E-04 0.00000E+00
 -1        63 2.47781E-03 1.23058E-04 5.29396E-23
 -1        64 2.47573E-03 1.16736E-04 1.05879E-22
 -1        65 2.47740E-03 1.00118E-04 0.00000E+00
 -1        66 2.48205E-03 7.51070E-05 1.05879E-22
 -1        67 2.48868E-03 4.43748E-05 5.29396E-23
 -1        68 2.49600E-03 1.16384E-05 0.00000E+00
 -1        69 2.50270E-03-1.91915E-05-5.29396E-23
 -1        70 2.50749E-03-4.45653E-05 0.00000E+00
 -1        86 1.81185E-03-2.48444E-06 2.64698E-23
 -1        87 1.94639E-03-1.27020E-05-1.32349E-23
 -1        88 2.12782E-03-2.97237E-05-2.64698E-23
 -1        89 2.31218E-03-4.72759E-05 1.32349E-23
 -1        90 2.45397E-03-5.84283E-05 0.00000E+00
 -1       121 3.36909E-04-5.73417E-07 1.32349E-23
 -1       122 3.34256E-04-1.14984E-06 0.00000E+00
 -1       123 3.29845E-04-1.73224E-06 1.32349E-23
 -1       124 3.23694E-04-2.32356E-06-6.61744E-24
 -1       125 3.15825E-04-2.92637E-06 0.00000E+00
 -1       191 1.75448E-04 1.33979E-07 2.48154E-24
 -1       192 1.75595E-04 2.67947E-07 1.03398E-24
 -1       193 1.75839E-04 4.01897E-07 3.30872E-24
 -1       194 1.76180E-04 5.35818E-07 2.06795E-25
 -1       195 1.76620E-04 6.69697E-07 2.89513E-24
 -1       251 2.54678E-03 1.84271E-05 0.00000E+00
 -1       252 2.54517E-03 6.93862E-05 0.00000E+00
 -1       253 2.54227E-03 1.42789E-04 0.00000E+00
 -1       254 2.53840E-03 2.28688E-04 0.00000E+00
 -1       255 2.53462E-03 3.13465E-04 0.00000E+00
 -1       256 2.53194E-03 3.83521E-04 3.30872E-24
 -1       257 2.53056E-03 4.29538E-04-1.32349E-23
 -1       258 2.53011E-03 4.42535E-04 6.61744E-24
 -1       259 2.52955E-03 4.22232E-04 0.00000E+00
 -1       260 2.52782E-03 3.68870E-04-6.61744E-24
 -1       261 2.52461E-03 2.91398E-04 0.00000E+00
 -1       262 2.52019E-03 1.99093E-04 0.00000E+00
 -1       263 2.51566E-03 1.05544E-04 0.00000E+00
 -1       264 2.51216E-03 2.43594E-05-6.61744E-24
 -1       265 2.51014E-03-3.45081E-05 0.00000E+00
 -1       266 2.54463E-03-4.57408E-07-3.30872E-24
 -1       267 2.54196E-03-4.62183E-07 0.00000E+00
 -1       268 2.53928E-03-4.67408E-07 8.27181E-25
 -1       269 2.53661E-03-4.71301E-07 2.06795E-25
 -1       270 2.53393E-03-4.75164E-07 0.00000E+00
 -1       271 2.54568E-03 1.79836E-06 0.00000E+00
 -1       272 2.54420E-03 3.59967E-06 0.00000E+00
 -1       273 2.54291E-03 4.86271E-06 0.00000E+00
 -1       274 2.54187E-03 5.48628E-06 1.32349E-23
 -1       275 2.54110E-03 5.37790E-06 2.64698E-23
 -1       276 2.54063E-03 4.45023E-06 0.00000E+00
 -1       277 2.54050E-03 2.62387E-06 0.00000E+00
 -1       278 2.54074E-03-1.72785E-07-1.32349E-23
 -1       279 2.54135E-03-4.00232E-06 2.64698E-23
 -1       280 2.54237E-03-8.91810E-06-1.32349E-23
 -1       281 2.54381E-03-1.49633E-05 2.64698E-23
 -1       282 2.54567E-03-2.21714E-05-1.32349E-23
 -1       283 2.54797E-03-3.05645E-05 0.00000E+00
 -1       284 2.55071E-03-4.01538E-05-1.32349E-23
 -1       285 2.55388E-03-5.09408E-05-2.64698E-23
 -1       301 2.51817E-03-6.16716E-05-6.61744E-24
 -1       302 2.52552E-03-6.19148E-05 0.00000E+00
 -1       303 2.53229E-03-6.21509E-05 0.00000E+00
 -1       304 2.53931E-03-6.23874E-05 0.00000E+00
 -1       305 2.54744E-03-6.26338E-05-2.64698E-23
 -1       306 2.54602E-03-2.09406E-04 1.05879E-22
 -1       307 2.61021E-03-6.12171E-04 5.29396E-23
 -1       308 2.65922E-03-1.20505E-03 1.05879E-22
 -1       309 2.68578E-03-1.89588E-03-5.29396E-23
 -1       310 2.71816E-03-2.56235E-03 0.00000E+00
 -1       311 2.77718E-03-3.08426E-03 0.00000E+00
 -1       312 2.83673E-03-3.38167E-03 0.00000E+00
 -1       313 2.84023E-03-3.41390E-03 0.00000E+00
 -1       314 2.71715E-03-3.18970E-03 1.05879E-22
 -1       315 2.42607E-03-2.76847E-03 0.00000E+00
 -1       316 1.98176E-03-2.22449E-03 0.00000E+00
 -1       317 1.44481E-03-1.62704E-03 5.29396E-23
 -1       318 9.24013E-04-1.03858E-03 0.00000E+00
 -1       319 5.23382E-04-5.24744E-04-5.29396E-23
 -1       320 2.86533E-04-1.57658E-04 0.00000E+00
 -1       336 2.94848E-04-4.22607E-06 0.00000E+00
 -1       337 2.81385E-04-4.93294E-06-6.61744E-24
 -1       338 2.65946E-04-5.66675E-06 0.00000E+00
 -1       339 2.48607E-04-6.42814E-06 0.00000E+00
 -1       340 2.29451E-04-7.22147E-06 0.00000E+00
 -1       406 1.77792E-04 9.37279E-07 8.27181E-25
 -1       407 1.78525E-04 1.07093E-06 1.65436E-24
 -1       408 1.79355E-04 1.20442E-06-8.27181E-25
 -1       409 1.80283E-04 1.33758E-06 6.20385E-25
 -1       410 1.81309E-04 1.47014E-06 2.48154E-24
 -1       521 2.59477E-03-2.19953E-04 0.00000E+00
 -1       522 2.65743E-03-6.42215E-04 0.00000E+00
 -1       523 2.70053E-03-1.26185E-03 0.00000E+00
 -1       524 2.71848E-03-1.98022E-03 0.00000E+00
 -1       525 2.74331E-03-2.67238E-03 0.00000E+00
 -1       526 2.79877E-03-3.21576E-03 0.00000E+00
 -1       527 2.85784E-03-3.52399E-03 0.00000E+00
 -1       528 2.85948E-03-3.55530E-03 0.00000E+00
 -1       529 2.72589E-03-3.31813E-03 2.11758E-22
 -1       530 2.41329E-03-2.87912E-03 5.29396E-23
 -1       531 1.93693E-03-2.31616E-03 0.00000E+00
 -1       532 1.36330E-03-1.70137E-03-5.29396E-23
 -1       533 8.06188E-04-1.09505E-03 0.00000E+00
 -1       534 3.74453E-04-5.60822E-04 0.00000E+00
 -1       535 1.17600E-04-1.74854E-04 0.00000E+00
 -1       536 2.07837E-04 2.63049E-05 0.00000E+00
 -1       537 2.05977E-04 8.57611E-05 3.30872E-24
 -1       538 2.03103E-04 1.61213E-04-3.30872E-24
 -1       539 1.99715E-04 2.43454E-04 0.00000E+00
 -1       540 1.96665E-04 3.21167E-04 0.00000E+00
 -1       541 1.94681E-04 3.83059E-04 1.65436E-24
 -1       542 1.93764E-04 4.22473E-04-3.30872E-24
 -1       543 1.93542E-04 4.32898E-04 0.00000E+00
 -1       544 1.93225E-04 4.15100E-04 0.00000E+00
 -1       545 1.92083E-04 3.70063E-04 1.65436E-24
 -1       546 1.89961E-04 3.05796E-04 0.00000E+00
 -1       547 1.87091E-04 2.30428E-04 1.65436E-24
 -1       548 1.84248E-04 1.55444E-04 0.00000E+00
 -1       549 1.82196E-04 9.23292E-05-1.65436E-24
 -1       550 1.81129E-04 4.89925E-05-1.65436E-24
 -1       551 1.83779E-04-8.59902E-06 0.00000E+00
 -1       552 1.55770E-04-9.24474E-06 0.00000E+00
 -1       553 1.25487E-04-9.95098E-06 1.15805E-23
 -1       554 9.38852E-05-1.06971E-05 6.61744E-24
 -1       555 6.19221E-05-1.14561E-05-1.32349E-23
 -1       556 2.01063E-04 1.11759E-05 0.00000E+00
 -1       557 1.94999E-04 2.67454E-05 2.64698E-23
 -1       558 1.90248E-04 3.89611E-05 5.29396E-23
 -1       559 1.86678E-04 4.81294E-05 0.00000E+00
 -1       560 1.84163E-04 5.45571E-05 0.00000E+00
 -1       561 1.82575E-04 5.85534E-05 0.00000E+00
 -1       562 1.81791E-04 6.04287E-05 0.00000E+00
 -1       563 1.81689E-04 6.04945E-05 0.00000E+00
 -1       564 1.82149E-04 5.90630E-05 0.00000E+00
 -1       565 1.83051E-04 5.64470E-05 6.61744E-24
 -1       566 1.84278E-04 5.29600E-05 0.00000E+00
 -1       567 1.85712E-04 4.89158E-05 0.00000E+00
 -1       568 1.87236E-04 4.46283E-05-8.27181E-25
 -1       569 1.88734E-04 4.04115E-05 0.00000E+00
 -1       570 1.90090E-04 3.65793E-05 0.00000E+00
 -1       571 1.80944E-04 3.11673E-05-1.65436E-24
 -1       572 1.81042E-04 2.90517E-05-1.65436E-24
 -1       573 1.81141E-04 2.68864E-05-3.30872E-24
 -1       574 1.81239E-04 2.46877E-05 0.00000E+00
 -1       575 1.81338E-04 2.24717E-05 0.00000E+00
 -1       576 1.81437E-04 2.02546E-05 0.00000E+00
 -1       577 1.81536E-04 1.80527E-05 0.00000E+00
 -1       578 1.81635E-04 1.58823E-05 0.00000E+00
 -1       579 1.81734E-04 1.37596E-05 6.61744E-24
 -1       580 1.81833E-04 1.17010E-05 3.30872E-24
 -1       581 1.81933E-04 9.72268E-06 6.61744E-24
 -1       582 1.82032E-04 7.84093E-06 0.00000E+00
 -1       583 1.82132E-04 6.07199E-06 0.00000E+00
 -1       584 1.82232E-04 4.43195E-06 0.00000E+00
 -1       585 1.82332E-04 2.93672E-06 6.61744E-24
 -1       586 1.82530E-04 3.32572E-05 1.65436E-24
 -1       587 1.84171E-04 3.32959E-05-4.13590E-25
 -1       588 1.85814E-04 3.33343E-05 8.27181E-25
 -1       589 1.87503E-04 3.33720E-05 0.00000E+00
 -1       590 1.89280E-04 3.34085E-05 0.00000E+00
 -1       591 1.81550E-04 3.12592E-05 1.03398E-25
 -1       592 1.82254E-04 2.92801E-05 2.06795E-25
 -1       593 1.82964E-04 2.72866E-05 0.00000E+00
 -1       594 1.83678E-04 2.52832E-05 0.00000E+00
 -1       595 1.84393E-04 2.32749E-05-8.27181E-25
 -1       596 1.85107E-04 2.12665E-05-4.13590E-25
 -1       597 1.85821E-04 1.92626E-05-8.27181E-25
 -1       598 1.86530E-04 1.72680E-05 0.00000E+00
 -1       599 1.87235E-04 1.52874E-05 0.00000E+00
 -1       600 1.87932E-04 1.33257E-05 0.00000E+00
 -1       601 1.88621E-04 1.13875E-05 0.00000E+00
 -1       602 1.89299E-04 9.47756E-06 4.13590E-25
 -1       603 1.89965E-04 7.60066E-06 8.27181E-25
 -1       604 1.90618E-04 5.76165E-06 5.16988E-26
 -1       605 1.91255E-04 3.96517E-06 0.00000E+00
 -1       606 1.82445E-04 4.96355E-07 0.00000E+00
 -1       607 1.82455E-04-5.21490E-07 0.00000E+00
 -1       608 1.82464E-04-1.45775E-06-3.30872E-24
 -1       609 1.82472E-04-2.31816E-06 0.00000E+00
 -1       610 1.82481E-04-3.10852E-06-3.30872E-24
 -1       611 1.82489E-04-3.83468E-06 0.00000E+00
 -1       612 1.82497E-04-4.50248E-06 0.00000E+00
 -1       613 1.82506E-04-5.11781E-06 0.00000E+00
 -1       614 1.82514E-04-5.68652E-06-1.65436E-24
 -1       615 1.82523E-04-6.21448E-06-8.27181E-25
 -1       616 1.82531E-04-6.70756E-06-1.65436E-24
 -1       617 1.82540E-04-7.17163E-06 0.00000E+00
 -1       618 1.82548E-04-7.61254E-06 0.00000E+00
 -1       619 1.82557E-04-8.03618E-06 0.00000E+00
 -1       620 1.82565E-04-8.44841E-06 2.06795E-25
 -1       621 1.83728E-04 1.70412E-06 1.65436E-24
 -1       622 1.85178E-04 1.80762E-06-8.27181E-25
 -1       623 1.86751E-04 1.91092E-06-1.65436E-24
 -1       624 1.88414E-04 2.01390E-06-8.27181E-25
 -1       625 1.90134E-04 2.11660E-06 0.00000E+00
 -1       626 1.82957E-04 5.32212E-07-3.30872E-24
 -1       627 1.83460E-04-4.72446E-07 0.00000E+00
 -1       628 1.83941E-04-1.42098E-06-6.61744E-24
 -1       629 1.84405E-04-2.32160E-06 1.65436E-24
 -1       630 1.84855E-04-3.18254E-06 3.30872E-24
 -1       631 1.85292E-04-4.01202E-06 0.00000E+00
 -1       632 1.85721E-04-4.81831E-06 0.00000E+00
 -1       633 1.86144E-04-5.60965E-06 0.00000E+00
 -1       634 1.86565E-04-6.39428E-06 0.00000E+00
 -1       635 1.86986E-04-7.18045E-06-1.65436E-24
 -1       636 1.87411E-04-7.97641E-06 0.00000E+00
 -1       637 1.87842E-04-8.79042E-06-1.65436E-24
 -1       638 1.88283E-04-9.63071E-06-1.65436E-24
 -1       639 1.88737E-04-1.05056E-05 0.00000E+00
 -1       640 1.89207E-04-1.14233E-05-1.65436E-24
 -1       656 1.83212E-04-9.42998E-06 6.61744E-24
 -1       657 1.84272E-04-1.00282E-05 0.00000E+00
 -1       658 1.85611E-04-1.06251E-05 0.00000E+00
 -1       659 1.87084E-04-1.12216E-05 0.00000E+00
 -1       660 1.88506E-04-1.18200E-05 0.00000E+00
 -1       661 1.82812E-04-9.30636E-06 0.00000E+00
 -1       662 1.83089E-04-9.84862E-06 0.00000E+00
 -1       663 1.83398E-04-1.04767E-05 1.65436E-24
 -1       664 1.83738E-04-1.11842E-05 0.00000E+00
 -1       665 1.84104E-04-1.19654E-05 0.00000E+00
 -1       666 1.84497E-04-1.28144E-05 8.27181E-25
 -1       667 1.84912E-04-1.37258E-05-1.65436E-24
 -1       668 1.85349E-04-1.46939E-05-8.27181E-25
 -1       669 1.85805E-04-1.57136E-05-1.65436E-24
 -1       670 1.86279E-04-1.67796E-05 8.27181E-25
 -1       671 1.86767E-04-1.78867E-05 1.65436E-24
 -1       672 1.87270E-04-1.90301E-05 8.27181E-25
 -1       673 1.87783E-04-2.02047E-05-1.65436E-24
 -1       674 1.88306E-04-2.14060E-05-8.27181E-25
 -1       675 1.88837E-04-2.26287E-05-4.13590E-25
 -1       676 1.82974E-04-2.33544E-05 0.00000E+00
 -1       677 1.84258E-04-2.34582E-05-1.65436E-24
 -1       678 1.85540E-04-2.35620E-05 0.00000E+00
 -1       679 1.86820E-04-2.36655E-05 0.00000E+00
 -1       680 1.88097E-04-2.37689E-05-1.65436E-24
 -1       771 1.87935E-05 1.40349E-05 0.00000E+00
 -1       772 8.89774E-06 3.56036E-05-5.29396E-23
 -1       773 7.72839E-07 5.27105E-05 5.29396E-23
 -1       774-5.70282E-06 6.56092E-05 0.00000E+00
 -1       775-1.06484E-05 7.45634E-05 0.00000E+00
 -1       776-1.41878E-05 7.98533E-05 0.00000E+00
 -1       777-1.64449E-05 8.17687E-05-5.29396E-23
 -1       778-1.75460E-05 8.06132E-05 0.00000E+00
 -1       779-1.76169E-05 7.66984E-05 5.29396E-23
 -1       780-1.67854E-05 7.03473E-05 2.64698E-23
 -1       781-1.51783E-05 6.18894E-05-5.29396E-23
 -1       782-1.29242E-05 5.16629E-05 0.00000E+00
 -1       783-1.01507E-05 4.00106E-05 0.00000E+00
 -1       784-6.98658E-06 2.72811E-05-2.64698E-23
 -1       785-3.55980E-06 1.38262E-05 5.29396E-23
 -1       786 1.91227E-04 3.12635E-05 2.58494E-26
 -1       787 1.91269E-04 2.91357E-05-4.13590E-25
 -1       788 1.91311E-04 2.70492E-05 0.00000E+00
 -1       789 1.91354E-04 2.49961E-05 0.00000E+00
 -1       790 1.91398E-04 2.29715E-05 1.65436E-24
 -1       791 1.91441E-04 2.09708E-05-8.27181E-25
 -1       792 1.91484E-04 1.89918E-05 0.00000E+00
 -1       793 1.91528E-04 1.70322E-05 0.00000E+00
 -1       794 1.91571E-04 1.50920E-05-1.65436E-24
 -1       795 1.91615E-04 1.31711E-05 8.27181E-25
 -1       796 1.91658E-04 1.12712E-05 0.00000E+00
 -1       797 1.91702E-04 9.39441E-06 8.27181E-25
 -1       798 1.91746E-04 7.54492E-06-1.65436E-24
 -1       799 1.91790E-04 5.72712E-06 0.00000E+00
 -1       800 1.91833E-04 3.94861E-06 0.00000E+00
 -1       801 1.46389E-04 3.00425E-05 2.64698E-23
 -1       802 1.08896E-05 1.87739E-05 0.00000E+00
 -1       803-1.05071E-04 9.49475E-06 0.00000E+00
 -1       804-9.35366E-05 6.59761E-06 0.00000E+00
 -1       805-3.09478E-05 2.61344E-06 5.29396E-23
 -1       806 1.91890E-04 3.11953E-05 1.65436E-24
 -1       807 1.92578E-04 2.89755E-05 0.00000E+00
 -1       808 1.93254E-04 2.67868E-05 3.30872E-24
 -1       809 1.93916E-04 2.46335E-05 1.65436E-24
 -1       810 1.94564E-04 2.25193E-05 0.00000E+00
 -1       811 1.95195E-04 2.04484E-05 0.00000E+00
 -1       812 1.95809E-04 1.84244E-05 0.00000E+00
 -1       813 1.96404E-04 1.64515E-05-1.65436E-24
 -1       814 1.96978E-04 1.45334E-05 0.00000E+00
 -1       815 1.97530E-04 1.26740E-05 8.27181E-25
 -1       816 1.98060E-04 1.08771E-05-3.30872E-24
 -1       817 1.98564E-04 9.14673E-06 0.00000E+00
 -1       818 1.99042E-04 7.48661E-06-3.30872E-24
 -1       819 1.99493E-04 5.90064E-06-8.27181E-25
 -1       820 1.99915E-04 4.39259E-06-1.65436E-24
 -1       821 1.91749E-04-2.81265E-08 0.00000E+00
 -1       822 1.91610E-04-3.34274E-06 0.00000E+00
 -1       823 1.91469E-04-7.32460E-06 0.00000E+00
 -1       824 1.91326E-04-1.15674E-05-1.65436E-24
 -1       825 1.91184E-04-1.55946E-05 0.00000E+00
 -1       826 1.91043E-04-1.89310E-05 0.00000E+00
 -1       827 1.90905E-04-2.12886E-05-3.30872E-24
 -1       828 1.90770E-04-2.23857E-05 1.65436E-24
 -1       829 1.90635E-04-2.22823E-05 0.00000E+00
 -1       830 1.90499E-04-2.10458E-05 0.00000E+00
 -1       831 1.90362E-04-1.90510E-05 3.30872E-24
 -1       832 1.90224E-04-1.66772E-05 1.65436E-24
 -1       833 1.90087E-04-1.44066E-05 0.00000E+00
 -1       834 1.89953E-04-1.27208E-05-1.65436E-24
 -1       835 1.89819E-04-1.19434E-05 0.00000E+00
 -1       836 1.93494E-04 2.34136E-06-3.30872E-24
 -1       837 1.94983E-04 2.46872E-06-1.65436E-24
 -1       838 1.96377E-04 2.59601E-06 0.00000E+00
 -1       839 1.97708E-04 2.72260E-06 0.00000E+00
 -1       840 1.99008E-04 2.84903E-06 0.00000E+00
 -1       856 1.89676E-04-1.33833E-05 8.27181E-25
 -1       857 1.89656E-04-1.42392E-05 2.58494E-26
 -1       858 1.89637E-04-1.49808E-05 2.06795E-25
 -1       859 1.89617E-04-1.56292E-05-2.06795E-25
 -1       860 1.89597E-04-1.62056E-05 0.00000E+00
 -1       861 1.89576E-04-1.67312E-05-2.06795E-25
 -1       862 1.89556E-04-1.72272E-05 8.27181E-25
 -1       863 1.89536E-04-1.77151E-05 4.13590E-25
 -1       864 1.89516E-04-1.82160E-05-8.27181E-25
 -1       865 1.89495E-04-1.87512E-05 0.00000E+00
 -1       866 1.89475E-04-1.93420E-05-8.27181E-25
 -1       867 1.89455E-04-2.00096E-05-4.13590E-25
 -1       868 1.89434E-04-2.07752E-05-8.27181E-25
 -1       869 1.89413E-04-2.16599E-05-4.13590E-25
 -1       870 1.89392E-04-2.26845E-05-8.27181E-25
 -1       871 1.90970E-04-1.23968E-05 8.27181E-25
 -1       872 1.92394E-04-1.24049E-05 0.00000E+00
 -1       873 1.93897E-04-1.24137E-05 0.00000E+00
 -1       874 1.95411E-04-1.24232E-05-2.58494E-26
 -1       875 1.96869E-04-1.24333E-05 1.44757E-24
 -1       876 1.90191E-04-1.33689E-05 3.30872E-24
 -1       877 1.90667E-04-1.42790E-05 0.00000E+00
 -1       878 1.91122E-04-1.51306E-05 0.00000E+00
 -1       879 1.91558E-04-1.59308E-05 0.00000E+00
 -1       880 1.91977E-04-1.66872E-05 0.00000E+00
 -1       881 1.92383E-04-1.74071E-05 0.00000E+00
 -1       882 1.92777E-04-1.80977E-05 0.00000E+00
 -1       883 1.93164E-04-1.87665E-05 1.65436E-24
 -1       884 1.93545E-04-1.94207E-05 0.00000E+00
 -1       885 1.93924E-04-2.00677E-05 0.00000E+00
 -1       886 1.94302E-04-2.07148E-05 0.00000E+00
 -1       887 1.94683E-04-2.13693E-05 0.00000E+00
 -1       888 1.95069E-04-2.20386E-05 3.30872E-24
 -1       889 1.95463E-04-2.27300E-05 0.00000E+00
 -1       890 1.95868E-04-2.34510E-05 1.65436E-24
 -1       891 1.90664E-04-2.39273E-05 0.00000E+00
 -1       892 1.91934E-04-2.39847E-05 0.00000E+00
 -1       893 1.93156E-04-2.40420E-05 8.27181E-25
 -1       894 1.94304E-04-2.40990E-05 4.13590E-25
 -1       895 1.95353E-04-2.41557E-05-4.13590E-25
 -1       956 2.00179E-04 1.71305E-06 1.65436E-24
 -1       957 2.00047E-04 5.50570E-07-1.65436E-24
 -1       958 1.99915E-04-5.31826E-07 0.00000E+00
 -1       959 1.99783E-04-1.54535E-06 0.00000E+00
 -1       960 1.99651E-04-2.50126E-06 3.30872E-24
 -1       961 1.99519E-04-3.41084E-06-1.65436E-24
 -1       962 1.99387E-04-4.28540E-06 3.30872E-24
 -1       963 1.99255E-04-5.13626E-06-1.65436E-24
 -1       964 1.99123E-04-5.97474E-06 0.00000E+00
 -1       965 1.98991E-04-6.81214E-06 0.00000E+00
 -1       966 1.98859E-04-7.65979E-06 0.00000E+00
 -1       967 1.98727E-04-8.52902E-06 1.65436E-24
 -1       968 1.98595E-04-9.43111E-06 0.00000E+00
 -1       969 1.98463E-04-1.03774E-05 0.00000E+00
 -1       970 1.98332E-04-1.13790E-05-3.30872E-24
 -1       971 1.98083E-04-1.35135E-05 0.00000E+00
 -1       972 1.97963E-04-1.44857E-05 0.00000E+00
 -1       973 1.97842E-04-1.53737E-05 0.00000E+00
 -1       974 1.97721E-04-1.61886E-05-1.65436E-24
 -1       975 1.97600E-04-1.69410E-05 3.30872E-24
 -1       976 1.97479E-04-1.76418E-05 0.00000E+00
 -1       977 1.97358E-04-1.83020E-05 0.00000E+00
 -1       978 1.97238E-04-1.89324E-05 0.00000E+00
 -1       979 1.97117E-04-1.95439E-05 3.30872E-24
 -1       980 1.96996E-04-2.01474E-05 1.65436E-24
 -1       981 1.96875E-04-2.07538E-05 0.00000E+00
 -1       982 1.96755E-04-2.13741E-05 1.65436E-24
 -1       983 1.96634E-04-2.20190E-05 3.30872E-24
 -1       984 1.96514E-04-2.26996E-05 0.00000E+00
 -1       985 1.96395E-04-2.34266E-05 0.00000E+00
 -3
    1PSTEP                        42          21           1          
  100CL  121 6.60873E-01         409                     0   21           1
 -4  STRESS      6    1
 -5  SXX         1    4    1    1
 -5  SYY         1    4    2    2
 -5  SZZ         1    4    3    3
 -5  SXY         1    4    1    2
 -5  SYZ         1    4    2    3
 -5  SZX         1    4    3    1
 -1         1-5.06428E+06-1.75244E+06-1.10286E+06-1.59850E+06 2.03727E-10-1.81724E-07
 -1         2 3.86780E+05 4.50868E+06 1.50834E+06 1.83323E+06 1.45010E-08 1.53093E-07
 -1         3-1.44741E+03-1.62875E+06 4.17363E+02-2.27967E+03-5.62839E-10 3.06245E-08
 -1         5-6.83106E+01 3.83634E+05 9.91399E+00-1.26103E+00-5.69880E-10 5.27816E-08
 -1         8-3.94833E+05-1.45638E+05-9.36408E+03-2.29104E+05-5.26597E-10 1.80113E-07
 -1         9 1.05517E+07 5.61131E+05 1.97801E+06-1.14667E+06 9.82545E-09-1.64472E-07
 -1        10-2.29620E+03-1.69732E+06-4.07043E+03-1.54105E+04-1.33787E-08-3.63042E-08
 -1        12-6.44012E+01 3.83656E+05 3.25460E+02-8.62493E+00-5.91882E-10 3.64344E-09
 -1        15 1.04779E+03 5.75816E+02 3.38697E+03 1.21226E+00-3.23823E-10 4.20551E-08
 -1        16 2.17139E+07-1.85092E+05 2.99962E+06-1.89492E+06 1.96742E-08 2.97247E-08
 -1        17 7.81984E+06 5.82585E+06 2.11581E+06 5.62134E+06 2.24973E-08 3.16300E-08
 -1        18 1.36337E+05 3.18641E+04 2.91714E+03-1.18196E+05 1.10854E-08-3.27236E-09
 -1        19 1.21597E+05 1.40725E+05-9.37297E+02 2.18974E+04 1.66419E-09-3.29746E-09
 -1        20-8.06560E+04-5.70068E+05-1.27864E+05 2.53914E+04-1.42199E-09 1.81699E-08
 -1        21-4.56020E+01-2.95079E+05-9.21962E+02 2.59957E+02 1.13807E-08 1.53876E-08
 -1        24 1.29712E+07 1.12211E+07 3.61803E+06 1.04148E+07-1.60750E-07-5.16496E-08
 -1        25 1.13928E+05 2.26166E+05 8.95347E+04-6.20436E+05-1.51795E-10 1.53397E-08
 -1        26-5.47592E+04 9.16590E+04-2.44425E+04 9.82543E+02-1.23327E-10 1.55597E-09
 -1        27-7.56010E+04-3.08122E+05-1.12741E+05 6.85858E+04 3.88263E-09 4.55839E-09
 -1        28 2.21950E+04-8.49785E+04 1.68405E+04 2.07020E+04-2.46879E-09-9.20416E-10
 -1        32-1.67293E+06-3.14092E+06-1.91131E+05 4.09768E+05-4.16185E-08-1.16784E-08
 -1        33-1.77490E+05 9.23264E+04 3.21811E+04-3.84849E+04-2.77707E-09 1.88372E-08
 -1        34-2.22468E+05-2.48149E+04 6.82057E+02 7.50773E+04-5.31497E-09-1.18641E-08
 -1        35-2.28706E+04-3.37019E+04-1.34220E+03 5.13379E+04-4.42123E-09 4.38255E-09
 -1        51 5.75813E+04-1.86467E+05 1.22705E+05-5.04637E+05 7.27596E-11 2.14641E-08
 -1        52 1.98176E+04-1.65525E+05 6.49068E+04-5.88330E+05-2.18279E-11 9.85892E-08
 -1        53 4.44795E+03-1.81121E+05 3.46213E+04-5.02791E+05 1.09139E-10-1.75103E-07
 -1        54 8.72933E+03-1.77117E+05 3.01286E+04-5.90236E+05-1.09139E-11-3.66390E-07
 -1        55 1.88013E+04-1.85075E+05 3.86108E+04-5.02564E+05 3.78350E-10-5.13446E-08
 -1        56-9.41577E+06-1.16074E+06-8.34877E+05-3.78852E+06 9.66247E-09-1.17492E-07
 -1        57-1.02118E+07-1.33834E+06-5.45455E+05-3.14503E+06 3.78204E-08 6.91289E-08
 -1        58-9.42343E+06-1.53927E+06-1.93697E+05-3.87505E+06-4.25425E-08-9.74978E-09
 -1        59-1.02050E+07-8.95560E+05-1.12507E+05-3.08576E+06 2.20016E-08-1.57792E-07
 -1        60-9.44488E+06-1.57728E+06-4.55431E+04-3.87011E+06-2.37160E-08 3.61979E-08
 -1        61-1.00055E+07-9.79868E+05-1.73352E+04-3.20220E+06-1.51886E-09 1.75885E-07
 -1        62-9.59719E+06-1.47092E+06-2.50061E+04-3.73935E+06-3.57613E-08-4.89308E-09
 -1        63-9.63695E+06-1.28513E+06 4.98159E+03-3.51577E+06 2.81725E-08 2.36433E-07
 -1        64-9.78202E+06-1.29370E+06-2.66095E+04-3.53402E+06 9.38599E-09 8.37354E-08
 -1        65-9.35814E+06-1.60618E+06-1.23994E+04-3.91088E+06-3.23507E-08 1.97626E-07
 -1        66-9.89530E+06-1.13683E+06-4.38678E+04-3.35946E+06 1.12450E-08 6.05096E-08
 -1        67-9.27809E+06-1.81010E+06-1.00126E+05-4.14768E+06-4.03998E-08-2.96131E-07
 -1        68-9.89821E+06-1.06602E+06-1.71842E+05-3.32173E+06-3.46499E-08-2.47594E-07
 -1        69-9.47385E+06-2.03496E+06-4.90306E+05-4.01744E+06-1.35187E-08-1.23182E-08
 -1        70-9.68886E+06-9.29407E+05-7.46669E+05-3.47836E+06-2.16096E-09 8.99308E-09
 -1        86-3.92339E+05-6.69991E+06-8.22020E+05-8.86846E+05-1.47176E-07-1.03435E-07
 -1        87 5.45138E+05 1.17834E+03 6.82612E+05 2.12389E+06-2.60596E-07 8.23193E-08
 -1        88-6.98047E+04-2.70073E+06 4.98739E+04-1.22057E+06-2.18168E-07 9.37996E-08
 -1        89 7.49746E+05-1.72160E+05 6.63495E+05 2.19411E+06-3.02032E-07-6.09170E-08
 -1        90-5.66457E+05-6.55591E+06-8.95747E+05-9.62040E+05-8.02029E-08-8.96835E-08
 -1       121-1.98610E+03-1.63354E+06-5.06508E+02 1.13058E+03 1.35353E-09-2.28029E-08
 -1       122-1.25508E+03-1.62881E+06 7.99174E+02-4.56132E+03-5.30125E-09 1.75787E-08
 -1       123-2.00871E+03-1.63368E+06 3.41350E+02 3.37568E+03 4.20300E-09 1.85391E-08
 -1       124 4.50357E+02-1.62833E+06 3.08672E+03-9.51950E+03-1.05074E-08 8.21638E-09
 -1       125-2.85833E+03-1.63461E+06 3.70088E+03 6.04526E+03 6.39375E-09-1.68911E-08
 -1       191-7.20153E+01 3.83654E+05 8.75568E+00 6.55412E-01-5.84766E-10 4.21969E-08
 -1       192-6.92633E+01 3.83635E+05 2.11404E+01-4.06921E+00-7.61531E-10 4.34511E-08
 -1       193-7.45253E+01 3.83653E+05 3.63056E+01 3.56648E+00-9.95922E-10-2.28101E-09
 -1       194-7.23186E+01 3.83638E+05 8.03278E+01-9.24184E+00-5.75840E-10-4.34557E-09
 -1       195-7.93433E+01 3.83651E+05 1.54103E+02 5.99705E+00-1.39359E-09 2.07183E-09
 -1       251-1.38442E+06-4.88391E+04-1.44758E+05-8.99077E+04-1.34241E-09-2.31614E-07
 -1       252-3.54282E+05 5.03381E+04 9.41254E+04 2.71217E+05-1.02573E-08 8.44361E-08
 -1       253-9.42620E+05-4.19255E+03-2.03555E+04-1.70071E+05-2.66118E-09-1.24510E-07
 -1       254-7.91693E+05 2.62107E+04 1.94134E+04 3.46502E+05-1.50276E-08-1.68932E-07
 -1       255-9.72015E+05-4.04367E+03-1.89478E+04-1.67423E+05 2.34750E-08-5.51627E-08
 -1       256-2.97687E+05 3.09827E+04 1.19120E+05 2.55936E+05 1.71394E-09-9.49233E-08
 -1       257-1.40787E+06-3.27508E+04-1.08407E+05-7.70917E+04 1.09176E-08 6.73620E-08
 -1       258 1.65629E+05 3.89842E+04 2.11546E+05 2.41753E+02-9.65792E-09 2.00799E-07
 -1       259-1.40833E+06-3.42612E+04-1.06673E+05 8.64651E+04 2.14404E-08 1.12727E-07
 -1       260-2.96877E+05 3.66816E+04 1.25725E+05-2.52561E+05 4.08509E-08-1.00870E-07
 -1       261-9.72189E+05-8.37459E+03-8.62804E+03 1.74234E+05 7.46822E-08 5.79485E-08
 -1       262-7.90132E+05 4.40009E+04 4.61044E+04-3.40027E+05-1.41515E-08 8.09632E-08
 -1       263-9.43961E+05-1.76586E+04 2.26160E+04 1.76739E+05-2.09002E-09 8.80955E-08
 -1       264-3.24701E+05 1.36393E+05 2.09708E+05-2.69915E+05 1.42723E-07-1.77732E-07
 -1       265-1.41285E+06-1.21062E+05 2.09374E+04 1.01581E+05 4.87726E-08 1.27446E-07
 -1       266-1.89687E+04-8.87046E+03 4.45029E+04-2.59371E+01-4.72937E-11 4.11032E-08
 -1       267 2.19898E+04 1.03377E+04 3.14556E+04 2.99281E+01 2.12822E-10-2.04904E-07
 -1       268-2.94880E+03-1.46416E+03 1.16918E+04-3.81326E+00-7.91260E-11 2.56282E-08
 -1       269 3.48165E+03 1.75222E+03 7.59957E+03 4.44199E+00 1.61549E-10 7.10370E-08
 -1       270-5.22600E+02-2.87907E+02 3.66842E+03-6.02805E-01-4.29736E-11 1.60644E-07
 -1       271-1.75915E+06-2.10543E+05-1.31938E+05-6.72119E+05 3.50519E-09 1.64742E-07
 -1       272-1.84650E+06-2.67179E+05-8.48862E+04-6.25810E+05 1.80554E-08-2.43060E-07
 -1       273-1.78381E+06-2.43746E+05-3.12043E+04-6.66392E+05 6.95582E-09-2.92030E-07
 -1       274-1.81656E+06-2.27255E+05-1.74215E+04-6.34757E+05-1.83718E-09-1.13384E-07
 -1       275-1.78800E+06-2.46528E+05-7.34828E+03-6.64434E+05 2.18206E-08 2.01489E-07
 -1       276-1.80990E+06-2.25350E+05-3.73835E+03-6.38427E+05-1.37807E-08 1.06935E-07
 -1       277-1.78993E+06-2.45520E+05-1.98380E+03-6.62549E+05-6.34645E-09-3.43834E-08
 -1       278-1.80573E+06-2.28274E+05-1.06715E+03-6.42127E+05 1.76396E-08 1.23489E-07
 -1       279-1.79172E+06-2.43845E+05-1.29944E+03-6.60440E+05-3.94721E-10 6.66105E-08
 -1       280-1.80178E+06-2.32247E+05-1.64910E+03-6.46263E+05-2.84508E-08 2.49761E-08
 -1       281-1.79353E+06-2.41785E+05-3.41426E+03-6.58167E+05-2.47383E-10 6.59224E-08
 -1       282-1.79900E+06-2.38334E+05-7.33291E+03-6.50560E+05 6.56928E-09 5.51772E-08
 -1       283-1.79431E+06-2.38081E+05-1.35632E+04-6.55937E+05-1.63454E-08-1.26533E-07
 -1       284-1.80629E+06-2.60555E+05-3.60215E+04-6.52783E+05-4.14730E-10-7.92877E-08
 -1       285-1.78645E+06-2.21405E+05-5.65186E+04-6.55282E+05 1.03610E-08-1.16353E-07
 -1       301 4.43100E+03-5.93078E+05 1.74896E+05-1.02002E+06 5.76256E-09-4.11892E-08
 -1       302 4.66640E+03-5.46792E+05 1.05261E+05-1.48987E+06-6.43195E-09-2.02290E-08
 -1       303-1.33812E+04-5.81891E+05 6.07426E+04-1.01730E+06 3.89264E-09-1.00894E-07
 -1       304-1.09460E+04-5.53070E+05 6.32971E+04-1.48920E+06-3.20142E-10-1.20996E-07
 -1       305-1.44549E+04-5.74241E+05 8.11766E+04-1.02025E+06 1.07320E-10 9.69158E-08
 -1       306-2.93425E+07-6.05465E+06-8.32659E+06-7.69321E+05-8.64966E-08-2.45374E-07
 -1       307 2.49573E+07 2.90526E+06 5.38944E+06-1.43625E+07-6.56117E-07-2.22237E-07
 -1       308-7.39505E+06-1.04155E+06-5.58524E+05 5.06138E+06-1.40688E-07 1.63185E-07
 -1       309-3.69817E+06 8.28279E+06 2.12582E+06-2.00075E+07 4.52146E-07 2.12334E-07
 -1       310-1.17430E+07-1.72915E+06-1.75305E+06 5.04753E+06 7.39819E-08-4.20041E-07
 -1       311 3.50905E+07 9.87848E+04 6.77358E+06-9.34472E+06 4.15166E-07-2.68803E-07
 -1       312-3.06971E+07-6.23963E+06-8.04444E+06-4.33612E+06 2.88361E-07-2.11003E-08
 -1       313 4.43079E+07 1.30380E+07 1.01900E+07 2.17671E+07 2.10595E-07-7.50006E-08
 -1       314-1.75601E+07-1.65145E+07-7.26115E+06-1.21844E+07 2.30677E-07-1.93191E-07
 -1       315-9.25301E+05 2.80056E+07 5.53241E+06 1.11725E+07-3.59199E-07-1.37137E-07
 -1       316 9.34274E+05-9.76367E+06-5.34632E+05-2.99300E+06-1.12284E-06-3.20229E-07
 -1       317-1.72690E+07 2.17125E+07 2.08788E+06-7.74580E+06 4.98178E-07-7.35388E-07
 -1       318-1.02085E+06-1.19124E+07-1.78502E+06-4.27388E+06-9.31759E-07 9.52859E-08
 -1       319 6.20406E+06 2.97635E+07 6.54416E+06 1.55333E+07-5.12009E-08 2.03028E-07
 -1       320-2.17178E+07-1.66644E+07-9.31696E+06-1.22484E+07 1.80909E-07-6.30389E-08
 -1       336-5.97593E+02-1.76837E+06-1.42590E+04 9.20416E+03-2.57478E-08-1.20235E-08
 -1       337-5.50166E+03-1.76831E+06-1.86369E+04-2.22872E+04-4.83915E-08-4.09091E-09
 -1       338 4.23242E+02-1.76786E+06-2.91851E+04 1.28452E+04-3.39387E-08-2.58915E-08
 -1       339-3.09581E+04-1.78596E+06-6.60805E+04-2.94008E+04-6.21822E-08-1.84627E-09
 -1       340 2.05688E+04-1.75292E+06-1.03984E+05 1.61892E+04-4.13274E-08 3.60887E-08
 -1       406-4.25584E+01 3.83636E+05 6.39367E+02 3.10929E+00-1.76635E-09-6.90488E-09
 -1       407 1.59985E+02 3.83768E+05 1.36565E+03 2.23990E+01-4.13927E-10-5.72982E-11
 -1       408 6.36478E+02 3.83537E+05 2.72342E+03-2.58650E+01-2.42312E-09 1.57524E-09
 -1       409 2.88969E+03 3.84638E+05 6.13765E+03 2.75314E+02-5.86624E-10-3.55794E-09
 -1       410 8.41775E+03 3.82754E+05 1.25270E+04-2.65340E+02-2.65936E-09-6.26824E-09
 -1       521-3.08574E+07-7.44404E+06-9.71035E+06-4.06091E+05-1.21654E-07 1.60653E-08
 -1       522 2.57798E+07 3.78379E+06 5.47394E+06-1.77013E+07-5.52478E-07-6.63567E-08
 -1       523-8.01961E+06-1.35304E+06-5.63691E+05 5.50271E+06 1.25030E-07-4.39468E-08
 -1       524-7.13704E+06 1.11623E+07 2.29439E+06-2.29630E+07 7.29051E-07-3.26596E-07
 -1       525-1.25779E+07-2.29994E+06-1.92120E+06 5.48534E+06 5.66244E-07-2.72703E-08
 -1       526 3.80969E+07 8.88157E+04 7.10354E+06-1.19823E+07 4.22064E-07-1.15251E-07
 -1       527-3.24692E+07-7.83300E+06-9.24801E+06-4.19550E+06 2.49478E-07 8.63220E-08
 -1       528 4.83591E+07 1.43830E+07 1.06113E+07 2.46690E+07-2.85509E-07 2.31375E-07
 -1       529-1.85276E+07-1.86026E+07-8.30864E+06-1.22650E+07 3.50992E-08-7.38073E-08
 -1       530-3.31826E+06 3.25236E+07 5.83831E+06 1.09170E+07 7.30506E-09 6.66769E-07
 -1       531 9.01158E+05-1.08552E+07-5.22978E+05-3.01534E+06-9.37231E-07 3.57511E-07
 -1       532-1.99883E+07 2.38247E+07 2.27923E+06-1.16993E+07 4.00061E-07-6.79545E-07
 -1       533-1.07242E+06-1.30403E+07-1.88752E+06-4.18201E+06-2.12021E-07-9.67353E-07
 -1       534 4.17507E+06 3.44886E+07 6.80222E+06 1.60408E+07-8.68749E-08 7.79517E-07
 -1       535-2.28547E+07-1.89082E+07-1.06485E+07-1.23374E+07 8.38190E-08 4.50644E-07
 -1       536-6.97016E+05-4.73388E+04-4.19642E+04-5.33880E+04 1.34332E-09 6.32062E-08
 -1       537-6.37002E+04 4.56452E+04 8.46907E+04 1.21365E+05-1.06981E-07 9.11555E-08
 -1       538-3.94075E+05 2.93655E+03 4.67010E+03-7.09536E+04 3.26528E-08 1.06949E-07
 -1       539-2.72387E+05 3.06813E+03 2.48757E+04 1.36181E+05 1.63075E-07 1.23207E-07
 -1       540-4.93547E+05-4.17508E+02-2.03177E+04-6.87132E+04 6.61657E-09 9.29820E-08
 -1       541 1.30625E+05 1.64820E+04 1.03303E+05 9.57907E+04-3.42802E-08 7.66762E-08
 -1       542-7.86229E+05-1.95443E+04-8.16224E+04-2.97298E+04 4.58144E-08 4.32559E-08
 -1       543 3.81477E+05 2.65126E+04 1.53192E+05-1.31488E+04 1.56715E-08-7.72616E-09
 -1       544-7.37674E+05-1.60224E+04-7.25337E+04 3.95875E+04 2.55504E-08-4.16394E-08
 -1       545 1.61862E+04 9.14137E+03 7.72602E+04-1.11358E+05 3.03874E-09-1.03117E-07
 -1       546-4.30743E+05 5.95830E+03-1.18845E+04 6.81502E+04 3.04140E-08-9.32140E-08
 -1       547-2.90141E+05-4.67254E+03 1.00083E+04-1.39012E+05-1.35977E-07-1.02147E-07
 -1       548-4.39576E+05 4.67665E+03-2.34994E+04 6.79003E+04-1.06570E-07-7.70747E-08
 -1       549 3.51568E+04 1.49243E+04 5.78095E+04-1.09157E+05-4.89426E-08-8.62972E-08
 -1       550-7.47335E+05-2.09174E+04-1.26390E+05 3.76121E+04 7.44967E-09-3.61670E-08
 -1       551 4.03509E+04-7.73536E+05-1.32701E+04-1.24295E+06-1.00132E-07-1.21072E-08
 -1       552 9.19214E+04-8.17263E+05 1.14976E+04-1.77255E+06-7.21775E-08 3.49246E-08
 -1       553 7.05263E+04-8.14107E+05 3.31771E+04-1.23639E+06-1.18773E-07 1.86265E-08
 -1       554 1.30320E+05-8.32423E+05 8.25435E+04-1.77451E+06-7.48696E-08 1.18034E-08
 -1       555 1.00338E+05-8.37588E+05 1.50346E+05-1.23627E+06-1.19646E-07-1.76788E-08
 -1       556 2.19382E+05-3.77038E+05 3.08124E+04-4.03208E+05-2.59024E-08-1.69093E-08
 -1       557 3.49038E+05-4.80407E+05 1.86883E+04-5.21465E+05-3.14321E-09 1.36497E-08
 -1       558 2.01986E+05-3.71021E+05 3.53943E+03-4.06764E+05-2.00525E-08 3.56522E-10
 -1       559 3.24090E+05-4.81261E+05 3.00066E+03-5.41362E+05 2.70520E-08-1.00044E-08
 -1       560 1.87154E+05-3.61713E+05-1.16076E+03-4.17433E+05 8.06176E-09-6.43922E-09
 -1       561 3.05381E+05-4.73818E+05 2.71432E+02-5.54091E+05 5.58794E-09 1.29639E-08
 -1       562 1.75420E+05-3.54414E+05-1.21061E+03-4.25927E+05 1.05210E-08-1.59234E-08
 -1       563 2.91444E+05-4.67742E+05 7.18270E-01-5.63188E+05 8.82574E-09-4.66025E-09
 -1       564 1.67060E+05-3.49202E+05-5.59075E+02-4.31851E+05 7.85803E-09-2.33590E-08
 -1       565 2.82226E+05-4.63728E+05 3.36938E+01-5.69077E+05-3.85626E-10 1.02773E-10
 -1       566 1.62193E+05-3.46122E+05-2.44330E+02-4.35255E+05 4.00178E-10-2.04636E-09
 -1       567 2.77780E+05-4.61794E+05-3.49945E+02-5.71773E+05 3.55503E-08 6.29370E-10
 -1       568 1.60909E+05-3.45336E+05-1.09510E+03-4.36249E+05-2.21826E-09 2.23517E-08
 -1       569 2.76735E+05-4.61730E+05-2.76702E+03-5.70316E+05-5.67798E-09 3.18105E-08
 -1       570 1.64286E+05-3.48533E+05-6.05603E+03-4.35247E+05 4.54747E-09-4.36012E-09
 -1       571 2.88457E+05 1.04356E+04 1.49110E+04-9.38400E+04 1.92449E-09 5.90444E-09
 -1       572 2.90620E+05 3.92116E+03 7.30753E+03-1.02951E+05 7.22503E-09 8.75843E-10
 -1       573 2.89316E+05 1.22242E+03 3.24695E+03-9.36648E+04 4.40195E-10-4.86671E-09
 -1       574 2.89531E+05 7.04757E+02 1.62828E+03-1.03173E+05-2.05250E-09 3.89355E-09
 -1       575 2.89410E+05 4.28852E+02 7.68478E+02-9.36408E+04-1.16833E-09 6.69843E-09
 -1       576 2.89396E+05 4.38560E+02 3.93404E+02-1.03203E+05-6.10817E-09-1.25374E-08
 -1       577 2.89449E+05 3.71614E+02 1.96354E+02-9.36375E+04-7.65885E-09-1.25310E-08
 -1       578 2.89424E+05 4.01580E+02 1.13314E+02-1.03207E+05-9.52423E-09 9.61791E-09
 -1       579 2.89518E+05 3.36302E+02 7.77393E+01-9.36372E+04-3.04863E-09-2.68938E-09
 -1       580 2.89523E+05 3.52321E+02 8.99733E+01-1.03202E+05-2.86163E-08-5.89262E-09
 -1       581 2.89629E+05 2.79775E+02 1.35856E+02-9.36430E+04-9.22228E-10-5.36602E-09
 -1       582 2.89693E+05 3.16961E+02 2.75962E+02-1.03141E+05 4.58749E-09 1.31313E-08
 -1       583 2.89764E+05 3.23393E+02 5.29856E+02-9.36987E+04 4.07454E-10 5.43014E-09
 -1       584 2.90060E+05 7.55498E+02 1.19874E+03-1.02672E+05 6.54472E-09-9.74114E-09
 -1       585 2.89787E+05 1.76614E+03 2.42770E+03-9.41113E+04-2.41198E-09 5.27871E-09
 -1       586-3.40087E+03 1.15320E+05-2.94767E+03-2.49209E+05-7.07587E-09 6.05496E-09
 -1       587-1.30629E+03 1.15062E+05 7.36317E+02-2.74273E+05-8.56926E-09 1.71028E-08
 -1       588 4.22408E+02 1.14880E+05 4.70397E+03-2.49072E+05-4.83305E-09-1.42609E-09
 -1       589 5.07162E+03 1.17327E+05 1.22264E+04-2.74040E+05-6.10271E-09-3.92765E-08
 -1       590 1.64892E+04 1.13558E+05 2.56575E+04-2.49500E+05-2.47564E-09 1.13450E-08
 -1       591-7.39740E+04-1.58625E+04-2.23031E+04-3.16557E+04-1.51522E-09-1.87028E-08
 -1       592-7.79843E+04-1.94223E+04-1.20811E+04-3.52878E+04-3.91800E-09-2.30100E-08
 -1       593-7.62049E+04-1.42438E+04-5.02878E+03-3.32907E+04 1.48901E-09-1.30067E-08
 -1       594-7.49043E+04-1.61502E+04-2.50798E+03-3.54051E+04 3.71818E-09 1.22327E-08
 -1       595-7.63749E+04-1.42385E+04-1.15144E+03-3.33650E+04 6.00648E-09 9.44081E-09
 -1       596-7.46935E+04-1.60006E+04-5.85166E+02-3.53801E+04 1.90703E-08 3.24296E-08
 -1       597-7.63963E+04-1.42537E+04-3.18277E+02-3.33678E+04 9.48688E-09 2.20641E-08
 -1       598-7.46727E+04-1.59947E+04-2.55192E+02-3.53730E+04-5.05838E-09 8.77492E-10
 -1       599-7.63950E+04-1.42542E+04-3.25148E+02-3.33674E+04 5.23301E-09-2.97450E-09
 -1       600-7.46935E+04-1.60011E+04-6.03356E+02-3.53779E+04-4.02736E-10-1.28725E-08
 -1       601-7.63705E+04-1.42398E+04-1.18995E+03-3.33640E+04 1.42109E-10 7.23048E-11
 -1       602-7.49114E+04-1.61547E+04-2.59318E+03-3.54000E+04-3.19335E-09-8.49468E-09
 -1       603-7.61920E+04-1.42482E+04-5.20031E+03-3.32879E+04 8.20592E-10 8.72615E-09
 -1       604-7.81137E+04-1.95190E+04-1.24923E+04-3.52541E+04 8.83801E-10 8.18341E-09
 -1       605-7.38652E+04-1.59397E+04-2.30624E+04-3.16164E+04 1.13477E-09 5.35783E-09
 -1       606 2.68540E+04-1.42150E+04-2.54843E+04 2.42147E+04 6.21912E-09-1.23196E-08
 -1       607 2.24994E+04-4.64162E+03-1.26910E+04 2.72107E+04 6.21276E-09 8.79481E-10
 -1       608 2.49807E+04-8.36460E+02-5.68142E+03 2.40432E+04 2.26464E-09-2.01476E-09
 -1       609 2.45045E+04-2.85293E+02-2.87008E+03 2.74266E+04 4.69572E-09 2.87832E-09
 -1       610 2.47681E+04-3.91545E+01-1.36940E+03 2.40229E+04 4.29463E-09 2.75304E-09
 -1       611 2.46930E+04-3.88943E+01-6.90439E+02 2.74500E+04 7.51061E-09-1.17486E-08
 -1       612 2.47209E+04-2.52163E+01-3.28276E+02 2.40209E+04 1.01336E-08 5.65933E-09
 -1       613 2.47039E+04-3.45231E+01-1.47123E+02 2.74527E+04 2.35905E-08 3.78918E-09
 -1       614 2.46984E+04-3.13100E+01-3.45675E+01 2.40201E+04 1.07430E-08 1.29733E-08
 -1       615 2.46982E+04-3.28019E+01 6.15243E+01 2.74531E+04-2.67573E-09 5.80053E-09
 -1       616 2.46809E+04-2.80099E+01 1.84614E+02 2.40204E+04 1.26420E-09-2.78692E-09
 -1       617 2.47201E+04 6.73498E+00 4.21268E+02 2.74527E+04 2.89492E-09-8.22388E-09
 -1       618 2.46441E+04 9.35834E+01 8.49147E+02 2.40207E+04 1.20863E-08 1.50749E-09
 -1       619 2.50197E+04 6.63418E+02 1.90684E+03 2.74520E+04 2.02045E-08-1.30251E-08
 -1       620 2.43619E+04 2.10724E+03 3.83270E+03 2.40221E+04 1.17429E-08 9.44829E-09
 -1       621 5.00302E+02 2.99295E+05 3.84096E+03 3.99392E+04 1.07184E-09 2.01453E-09
 -1       622 6.60207E+02 3.00185E+05 3.41171E+03 5.79869E+04 1.18598E-09-2.29193E-09
 -1       623 1.34758E+02 2.99490E+05 4.10415E+03 3.97583E+04 1.24624E-09-7.42602E-09
 -1       624 2.09694E+03 3.01397E+05 7.95962E+03 5.81651E+04 1.39607E-09-9.10336E-09
 -1       625 2.05190E+03 2.97912E+05 1.39109E+04 3.97552E+04 1.33423E-09 1.83593E-08
 -1       626 2.59089E+05 6.12662E+04 5.10314E+03 1.26220E+05 9.65065E-09 6.32281E-09
 -1       627 2.56758E+05 6.26790E+04 2.45917E+03 1.30502E+05 2.99387E-08 1.06003E-08
 -1       628 2.59217E+05 5.89297E+04 1.04001E+03 1.27086E+05-3.48064E-09-2.53456E-08
 -1       629 2.56123E+05 6.20033E+04 5.09044E+02 1.30743E+05-4.29054E-09 1.22509E-08
 -1       630 2.59231E+05 5.88169E+04 2.36196E+02 1.27122E+05 1.56069E-09-3.24053E-09
 -1       631 2.56055E+05 6.19778E+04 1.27200E+02 1.30745E+05 9.66952E-09-2.16494E-09
 -1       632 2.59228E+05 5.88211E+04 8.38701E+01 1.27118E+05 1.94932E-08-3.26577E-09
 -1       633 2.56047E+05 6.19798E+04 9.36843E+01 1.30741E+05 2.09056E-08 3.20415E-09
 -1       634 2.59223E+05 5.88184E+04 1.51620E+02 1.27117E+05-1.37555E-09 6.13909E-12
 -1       635 2.56061E+05 6.19782E+04 3.06942E+02 1.30746E+05-4.42364E-09 1.02534E-08
 -1       636 2.59213E+05 5.88127E+04 6.19938E+02 1.27117E+05 5.47061E-10-1.99784E-08
 -1       637 2.56195E+05 6.20746E+04 1.36311E+03 1.30745E+05 3.01520E-09-9.77889E-09
 -1       638 2.59165E+05 5.91139E+04 2.80070E+03 1.26981E+05 9.94487E-09-1.70530E-10
 -1       639 2.57666E+05 6.41208E+04 6.62657E+03 1.30312E+05 9.35052E-09 2.61048E-09
 -1       640 2.58962E+05 6.52235E+04 1.37513E+04 1.24406E+05 9.04674E-09 1.82918E-08
 -1       656 6.62145E+04-1.69411E+06-1.59837E+05-2.45189E+03-5.09317E-10-2.18288E-08
 -1       657-8.75935E+04-1.76633E+06-1.32410E+05 5.30859E+03 6.35737E-10-3.47783E-08
 -1       658 2.11046E+04-1.71462E+06-8.15417E+04-4.52163E+03 1.17666E-09-1.74978E-08
 -1       659-9.47016E+04-1.76971E+06-1.41752E+05 7.01821E+03-1.13050E-09-2.54433E-10
 -1       660 7.33067E+04-1.69074E+06-1.75896E+05-4.16149E+03-1.48430E-09 9.81510E-09
 -1       661 1.59697E+05 1.67369E+04 1.67791E+04 6.24293E+04 1.37379E-09 1.01973E-08
 -1       662 1.69161E+05 2.91848E+04 1.13079E+04 5.86904E+04-1.08571E-10-2.08124E-08
 -1       663 1.62992E+05 2.21199E+04 3.95482E+03 6.14728E+04-4.22801E-10-3.43334E-11
 -1       664 1.65339E+05 2.28897E+04 2.36577E+03 5.98587E+04 2.73195E-09 7.16173E-09
 -1       665 1.63492E+05 2.28552E+04 9.33276E+02 6.13270E+04 2.37873E-09-3.62502E-09
 -1       666 1.64748E+05 2.20489E+04 5.46233E+02 6.00489E+04 8.46839E-09 2.45842E-08
 -1       667 1.63580E+05 2.29388E+04 2.90248E+02 6.12905E+04-7.28704E-10 7.02904E-09
 -1       668 1.64651E+05 2.19887E+04 2.96016E+02 6.01021E+04-4.92858E-09-3.75139E-08
 -1       669 1.63588E+05 2.29136E+04 4.00982E+02 6.12742E+04 7.69802E-10 4.16262E-09
 -1       670 1.64749E+05 2.22065E+04 8.73355E+02 6.01051E+04-8.57381E-09 4.19959E-10
 -1       671 1.63482E+05 2.27255E+04 1.55077E+03 6.12854E+04-1.65610E-09 3.60029E-09
 -1       672 1.65653E+05 2.37153E+04 3.96768E+03 5.98862E+04 4.67206E-09 2.01950E-08
 -1       673 1.62689E+05 2.14430E+04 6.64921E+03 6.14784E+04 3.20426E-09 5.79394E-09
 -1       674 1.71981E+05 3.43980E+04 1.90153E+04 5.80270E+04-1.74077E-09 8.92214E-10
 -1       675 1.57195E+05 1.23420E+04 2.82255E+04 6.30324E+04-2.83262E-09 8.14362E-09
 -1       676 2.40485E+01-2.95002E+05-1.11121E+03-1.29983E+02 9.07875E-10 1.23836E-08
 -1       677-2.94062E+02-2.95270E+05-2.03370E+03 2.59757E+02 7.28471E-09-8.50531E-09
 -1       678 1.97137E+02-2.94810E+05-3.59508E+03-1.29689E+02-4.11546E-10-3.89354E-09
 -1       679-3.59525E+03-2.97441E+05-8.54042E+03 2.58639E+02 8.97512E-09-1.18871E-08
 -1       680 2.14649E+03-2.92833E+05-1.37642E+04-1.27430E+02 2.47746E-09-5.41506E-09
 -1       771-3.05685E+06-7.39793E+05-1.59754E+05-1.45874E+06-3.10538E-08-2.69210E-08
 -1       772-2.98089E+06-8.27018E+05-8.23599E+04-1.55956E+06-2.48838E-08 7.79619E-09
 -1       773-3.08734E+06-7.15986E+05-4.19864E+04-1.47259E+06-1.29221E-08 1.04046E-08
 -1       774-2.97160E+06-8.09319E+05-1.87309E+04-1.58456E+06 2.70666E-08-1.62254E-09
 -1       775-3.10324E+06-7.04806E+05-1.40105E+04-1.47932E+06-8.55653E-09-2.55386E-09
 -1       776-2.98343E+06-8.06466E+05-5.23898E+03-1.60343E+06-1.74623E-09 3.80896E-09
 -1       777-3.11704E+06-6.94841E+05-6.18940E+03-1.48527E+06 1.33005E-08 1.86265E-09
 -1       778-2.99578E+06-8.03809E+05-1.74946E+03-1.61964E+06 7.27596E-11 7.15227E-09
 -1       779-3.12889E+06-6.86141E+05-3.09285E+03-1.49035E+06-1.20926E-08-5.18412E-09
 -1       780-3.00667E+06-8.01270E+05-5.13314E+02-1.63284E+06-1.24637E-08 6.69388E-10
 -1       781-3.13830E+06-6.79131E+05-1.20276E+03-1.49433E+06-3.34985E-08 5.04588E-09
 -1       782-3.01505E+06-7.99110E+05 4.29224E+02-1.64258E+06-3.71656E-08-5.35010E-09
 -1       783-3.14493E+06-6.74263E+05 6.66243E+02-1.49712E+06-1.16488E-08-1.96869E-08
 -1       784-3.01969E+06-7.96942E+05 2.77483E+03-1.64860E+06-1.80371E-08-2.06910E-09
 -1       785-3.14884E+06-6.71364E+05 4.89655E+03-1.49888E+06-3.68018E-08 6.27733E-09
 -1       786 1.25095E+05-9.79517E+03 2.26620E+04-3.15823E+02 1.19685E-09 1.26283E-08
 -1       787 1.34924E+05 1.13406E+04 1.60325E+04-1.30225E+02 8.08150E-09 1.75335E-08
 -1       788 1.28885E+05-1.53496E+03 5.86321E+03-2.80925E+02 2.48693E-09 7.49310E-09
 -1       789 1.30509E+05 1.77663E+03 3.68080E+03-1.83785E+02-7.32697E-10 2.65554E-08
 -1       790 1.29511E+05-2.39024E+02 1.49049E+03-2.62280E+02-3.86156E-09 3.19807E-08
 -1       791 1.29777E+05 2.76550E+02 8.61245E+02-2.15705E+02-9.22966E-09 1.43554E-08
 -1       792 1.29617E+05-3.60043E+01 3.65713E+02-2.49007E+02-4.08381E-09 3.84158E-09
 -1       793 1.29651E+05 3.83601E+01 1.83964E+02-2.40696E+02 2.49674E-10 7.63619E-09
 -1       794 1.29637E+05-9.85119E-01 5.11202E+01-2.37289E+02 5.05514E-09-1.89076E-09
 -1       795 1.29615E+05-2.47446E+01-4.91115E+01-2.65190E+02-3.57984E-09 5.95922E-09
 -1       796 1.29652E+05 2.70653E+01-1.47994E+02-2.24512E+02 3.42927E-09 1.43153E-08
 -1       797 1.29527E+05-2.02437E+02-4.10488E+02-2.94592E+02 4.00975E-09-2.14094E-08
 -1       798 1.29725E+05 1.76574E+02-6.67802E+02-2.07887E+02 2.09063E-09 1.34865E-08
 -1       799 1.29020E+05-1.30152E+03-1.83822E+03-3.35762E+02 5.89939E-09 1.26108E-08
 -1       800 1.30160E+05 1.12525E+03-2.60175E+03-1.83343E+02 5.28203E-10 9.10154E-09
 -1       801-1.56218E+05-9.72024E+06-1.34686E+06 1.34736E+06 9.12987E-08-5.57702E-08
 -1       802 6.94953E+05 5.51092E+06 2.07133E+06-1.65587E+06 2.53778E-07-4.04270E-08
 -1       803-5.11212E+05-1.37612E+07-1.80380E+06 8.56794E+05 7.49569E-08 1.88702E-08
 -1       804 2.70272E+05 2.09445E+06 1.45886E+06 6.54304E+05-1.18391E-07-8.25917E-08
 -1       805 1.83662E+05-6.31830E+06-2.72214E+05-9.57384E+05-4.87271E-08-6.18029E-08
 -1       806-3.07049E+05-5.93996E+04-2.27133E+04-1.21673E+05-6.44559E-09 4.66571E-10
 -1       807-3.08838E+05-5.56902E+04-1.11588E+04-1.27182E+05 8.01811E-09-9.01329E-09
 -1       808-3.07672E+05-5.12144E+04-4.73391E+03-1.25544E+05-4.40650E-09-7.96365E-09
 -1       809-3.06492E+05-5.25548E+04-2.31476E+03-1.27456E+05-1.42882E-08 2.73621E-09
 -1       810-3.07766E+05-5.09294E+04-1.06098E+03-1.25715E+05 1.13919E-08 1.21895E-08
 -1       811-3.06310E+05-5.24288E+04-5.27634E+02-1.27421E+05 6.00539E-09 4.12751E-09
 -1       812-3.07780E+05-5.09539E+04-2.66903E+02-1.25714E+05-3.37150E-09-9.97352E-09
 -1       813-3.06285E+05-5.24309E+04-1.73556E+02-1.27402E+05-7.77618E-09-1.24037E-08
 -1       814-3.07773E+05-5.09636E+04-1.72138E+02-1.25710E+05-5.15320E-09-4.34420E-09
 -1       815-3.06289E+05-5.24332E+04-2.77488E+02-1.27395E+05-5.88943E-09-5.83009E-09
 -1       816-3.07753E+05-5.09626E+04-5.26010E+02-1.25706E+05 3.67891E-09 2.23736E-09
 -1       817-3.06378E+05-5.24833E+04-1.12894E+03-1.27383E+05-1.38098E-08-2.85740E-09
 -1       818-3.07684E+05-5.11220E+04-2.30265E+03-1.25631E+05-3.43152E-09-3.78213E-09
 -1       819-3.07639E+05-5.38744E+04-5.41799E+03-1.27085E+05-4.18822E-10-3.56590E-09
 -1       820-3.07250E+05-5.52146E+04-1.10276E+04-1.23883E+05 2.00089E-09 5.57679E-09
 -1       821-3.77443E+05 2.07882E+04-4.83491E+04 2.01484E+03 1.32720E-08 1.36788E-09
 -1       822-3.97237E+05-2.40797E+04-3.40110E+04-4.20062E+03 4.79631E-09 3.68650E-08
 -1       823-3.84956E+05 3.27485E+03-1.24920E+04 3.21736E+03-1.22327E-08 1.32554E-08
 -1       824-3.88199E+05-3.77775E+03-7.82421E+03-5.01184E+03 1.32709E-09 4.17299E-09
 -1       825-3.86486E+05 5.08913E+02-3.27047E+03 2.82617E+03 1.95624E-08-1.07738E-08
 -1       826-3.85876E+05-5.69143E+02-1.76070E+03-2.86093E+03 2.55285E-08-2.94398E-08
 -1       827-3.87257E+05 5.18888E+01-1.16438E+03 1.06633E+03 1.23686E-08-1.78269E-08
 -1       828-3.85243E+05-1.38163E+02-6.21794E+02 1.05909E+03-9.15747E-11-1.47511E-08
 -1       829-3.87108E+05 6.93929E+01-1.15593E+03-1.09388E+03 4.10378E-09-5.16741E-09
 -1       830-3.86200E+05-6.20458E+02-1.89300E+03 4.58281E+03 3.40495E-09-3.14560E-09
 -1       831-3.86320E+05 5.49695E+02-3.35466E+03-2.45742E+03-5.92864E-09 1.38880E-09
 -1       832-3.88281E+05-3.94119E+03-8.12576E+03 5.76093E+03-2.17393E-09 9.95578E-09
 -1       833-3.85041E+05 3.39806E+03-1.29915E+04-2.27204E+03-2.21915E-09 7.40692E-09
 -1       834-3.97326E+05-2.49895E+04-3.52350E+04 3.90961E+03-2.24657E-09-9.79935E-09
 -1       835-3.77261E+05 2.15672E+04-5.02099E+04-6.06023E+02 5.17477E-09 2.22644E-09
 -1       836-1.40184E+03 3.67681E+05 2.27368E+04-1.62989E+04-6.91853E-09-6.28461E-09
 -1       837 4.85018E+03 3.74800E+05 1.92434E+04-3.32754E+04-7.37424E-09-1.64578E-08
 -1       838-5.52723E+02 3.69676E+05 1.96119E+04-1.62273E+04-6.04678E-09-1.30626E-09
 -1       839 1.23478E+04 3.80384E+05 3.71050E+04-3.33274E+04-6.48788E-09 8.61519E-10
 -1       840-3.81528E+03 3.62037E+05 5.91710E+04-1.62525E+04-5.82440E-09 1.02793E-08
 -1       856-5.35842E+04 8.03838E+03-2.11829E+04-3.98994E+02 3.67743E-09 2.78305E-09
 -1       857-6.23120E+04-9.44411E+03-1.45822E+04 5.61709E+03 3.97904E-09 6.22731E-09
 -1       858-5.70403E+04 1.12726E+03-5.49649E+03-4.23212E+02 4.42844E-09 1.03325E-08
 -1       859-5.83457E+04-1.32548E+03-3.31696E+03 5.65323E+03-2.64458E-09 3.05931E-09
 -1       860-5.75566E+04 1.57824E+02-1.39028E+03-4.34879E+02-4.75779E-11-3.24371E-09
 -1       861-5.77518E+04-1.87755E+02-7.65100E+02 5.66913E+03-5.14092E-10 8.94659E-10
 -1       862-5.76374E+04 2.13556E+01-3.18609E+02-4.39093E+02 1.66358E-09 8.78401E-10
 -1       863-5.76529E+04-2.13645E+01-1.17348E+02 5.67156E+03-6.02376E-09 8.53267E-09
 -1       864-5.76560E+04-4.78313E+00 4.43829E+01-4.37308E+02-2.67458E-09-3.52661E-08
 -1       865-5.75978E+04 5.89502E+01 2.49231E+02 5.66142E+03-4.49381E-09-3.88061E-08
 -1       866-5.76902E+04-5.89991E+01 5.03754E+02-4.28953E+02-3.11866E-09-9.98833E-09
 -1       867-5.73604E+04 4.87355E+02 1.24092E+03 5.63873E+03 1.54168E-09 2.86070E-09
 -1       868-5.78885E+04-4.25513E+02 2.06224E+03-4.14615E+02-1.68490E-09-5.44105E-09
 -1       869-5.58482E+04 3.54129E+03 5.49145E+03 5.60135E+03 1.24840E-09-3.37253E-08
 -1       870-5.91948E+04-3.03008E+03 7.96923E+03-3.91472E+02-3.12821E-09-2.92084E-09
 -1       871-5.49838E+03-2.09308E+04-1.93546E+04 1.29466E+05-4.38195E-09 2.13240E-08
 -1       872-1.99181E+03-2.54255E+04-8.09843E+03 1.67871E+05-1.09749E-08 5.96629E-10
 -1       873 3.84845E+02-2.32547E+04 6.00200E+02 1.29181E+05-5.51154E-09-2.91598E-08
 -1       874 3.26805E+03-2.08480E+04 9.74505E+03 1.67901E+05-1.16306E-08-7.11680E-09
 -1       875 6.80001E+03-2.55759E+04 2.19727E+04 1.29418E+05-4.51109E-09-2.42990E-08
 -1       876 2.92341E+05 4.93026E+04 1.50407E+04 1.17354E+05 4.70209E-09 4.80213E-09
 -1       877 2.93332E+05 5.24738E+04 8.03233E+03 1.21672E+05 5.09181E-09-8.86757E-12
 -1       878 2.93747E+05 4.76366E+04 3.36515E+03 1.18586E+05-4.95902E-09 1.54478E-09
 -1       879 2.91287E+05 5.04334E+04 1.67672E+03 1.21774E+05 6.73481E-10-2.79704E-09
 -1       880 2.93848E+05 4.76193E+04 7.80987E+02 1.18637E+05 4.30418E-10-4.15662E-09
 -1       881 2.91151E+05 5.03462E+04 4.17058E+02 1.21750E+05-6.01585E-09-1.08225E-08
 -1       882 2.93857E+05 4.76326E+04 2.66803E+02 1.18638E+05 1.10572E-09 1.09197E-08
 -1       883 2.91142E+05 5.03416E+04 2.86817E+02 1.21743E+05-9.60256E-10 1.43324E-08
 -1       884 2.93850E+05 4.76298E+04 4.56249E+02 1.18638E+05-2.17028E-09 8.43556E-11
 -1       885 2.91178E+05 5.03479E+04 9.17307E+02 1.21754E+05-4.17515E-09 8.33597E-09
 -1       886 2.93815E+05 4.76030E+04 1.84879E+03 1.18635E+05-9.62302E-10 7.87850E-10
 -1       887 2.91503E+05 5.05610E+04 4.03842E+03 1.21801E+05 6.50058E-09-9.99648E-10
 -1       888 2.93560E+05 4.76480E+04 8.13753E+03 1.18506E+05 5.13904E-09-1.49412E-08
 -1       889 2.96347E+05 5.55990E+04 1.94390E+04 1.21652E+05 4.11846E-09 1.62891E-09
 -1       890 2.90239E+05 5.15930E+04 3.64089E+04 1.15408E+05 4.42014E-09 8.57835E-09
 -1       891-9.20956E+01-1.62090E+05-1.98648E+03 2.71416E+04-2.54840E-09 1.28362E-08
 -1       892-1.79385E+02-1.62613E+05-2.13400E+03 4.12101E+04-6.24368E-10 1.66006E-09
 -1       893 4.02252E+01-1.62154E+05-3.02203E+03 2.71489E+04-1.83377E-09-9.62109E-09
 -1       894-1.50825E+03-1.63755E+05-6.25482E+03 4.10578E+04 3.01952E-09 3.21174E-08
 -1       895-1.19724E+03-1.60851E+05-1.10149E+04 2.72955E+04 1.90653E-10 2.08074E-08
 -1       956-3.75186E+05-5.41472E+03-1.33782E+04 3.04994E+04 7.45877E-09 4.34056E-09
 -1       957-3.77811E+05-1.90631E+03-6.86688E+03 3.66554E+04 7.29415E-10 1.92331E-08
 -1       958-3.76387E+05-2.35067E+02-3.09441E+03 3.03329E+04-4.89399E-09 2.41698E-09
 -1       959-3.76584E+05-1.30211E+02-1.58007E+03 3.68491E+04-2.04136E-09 1.35728E-08
 -1       960-3.76504E+05-4.02633E+01-7.70516E+02 3.03158E+04 7.16318E-09 6.08225E-09
 -1       961-3.76503E+05-5.77548E+01-4.08533E+02 3.68694E+04 1.61501E-08-1.01870E-08
 -1       962-3.76532E+05-4.15990E+01-2.33903E+02 3.03129E+04 3.20324E-09-3.66754E-10
 -1       963-3.76504E+05-5.36512E+01-1.87783E+02 3.68730E+04 1.77170E-09-2.72464E-08
 -1       964-3.76537E+05-3.82719E+01-2.28368E+02 3.03122E+04-4.82885E-10-2.25075E-08
 -1       965-3.76516E+05-5.06612E+01-3.94989E+02 3.68723E+04-6.50630E-09 2.93926E-09
 -1       966-3.76521E+05-3.03754E+01-7.42163E+02 3.03136E+04 5.79348E-10 4.74233E-09
 -1       967-3.76605E+05-1.13709E+02-1.52217E+03 3.68582E+04-6.38988E-09-6.17547E-09
 -1       968-3.76418E+05-2.11684E+02-2.97984E+03 3.03261E+04-3.53975E-09 1.56908E-08
 -1       969-3.77800E+05-1.81914E+03-6.61519E+03 3.67117E+04 6.79847E-10 3.05869E-09
 -1       970-3.75269E+05-5.19755E+03-1.28867E+04 3.04520E+04-3.87172E-09-1.66710E-09
 -1       971-3.43853E+05-1.72228E+03-9.29269E+03 1.53447E+04 4.94310E-09-9.37185E-10
 -1       972-3.46090E+05-1.26664E+03-5.06070E+03 2.12307E+04 7.01675E-10 1.67875E-08
 -1       973-3.44888E+05-5.99281E+01-2.26673E+03 1.52235E+04 5.30690E-09 1.00888E-08
 -1       974-3.45024E+05-7.81285E+01-1.17497E+03 2.13677E+04 3.07887E-09 2.34047E-09
 -1       975-3.44970E+05-1.51333E+01-5.87734E+02 1.52112E+04-7.63976E-11 1.24692E-09
 -1       976-3.44962E+05-2.83715E+01-3.39815E+02 2.13834E+04 2.66300E-09-1.09675E-08
 -1       977-3.44986E+05-1.43914E+01-2.47953E+02 1.52078E+04-2.77169E-10-1.30700E-08
 -1       978-3.44968E+05-2.21600E+01-2.91954E+02 2.13882E+04-6.69570E-09-7.79039E-09
 -1       979-3.44986E+05-5.94957E+00-4.70625E+02 1.52064E+04-5.68195E-09-3.12980E-09
 -1       980-3.45003E+05-1.91097E+01-9.09689E+02 2.13892E+04-2.23019E-09-6.65386E-09
 -1       981-3.44957E+05 1.67845E+01-1.76237E+03 1.52069E+04 1.01738E-09-4.19732E-09
 -1       982-3.45245E+05-1.49336E+02-3.64306E+03 2.13826E+04 7.00982E-09-1.25676E-08
 -1       983-3.44735E+05-9.60749E+01-7.07864E+03 1.52130E+04 1.93904E-09-7.60247E-09
 -1       984-3.48650E+05-3.84632E+03-1.58524E+04 2.12971E+04 7.57336E-09 8.13634E-09
 -1       985-3.41530E+05-5.27580E+03-2.91099E+04 1.52849E+04 2.45655E-09 1.27820E-08
 -3
    1PSTEP                        43          22           1          
  100CL  122 6.62727E-01         409                     0   22           1
 -4  DISP        4    1
 -5  D1          1    2    1    0
 -5  D2          1    2    2    0
 -5  D3          1    2    3    0
 -5  ALL         1    2    0    0    1ALL
 -1         1 2.63694E-03 0.00000E+00 0.00000E+00
 -1         2 1.61954E-03-8.81130E-27 0.00000E+00
 -1         3 3.40787E-04-4.14594E-28 0.00000E+00
 -1         5 1.76494E-04-1.26784E-27 0.00000E+00
 -1         8 2.62452E-03-4.29727E-07 0.00000E+00
 -1         9 2.59669E-03-1.02315E-04 0.00000E+00
 -1        10 3.08973E-04-3.50656E-06-6.61744E-24
 -1        12 1.78298E-04 8.07511E-07-1.44757E-24
 -1        15 2.60979E-03-4.59197E-07 0.00000E+00
 -1        16 2.65055E-03-1.03938E-04 0.00000E+00
 -1        17 2.10314E-04-7.96691E-06 0.00000E+00
 -1        18 1.82121E-04 3.38541E-05 0.00000E+00
 -1        19 1.83711E-04 1.60872E-06 0.00000E+00
 -1        20 1.83852E-04-9.37227E-06 0.00000E+00
 -1        21 1.82963E-04-2.43486E-05 0.00000E+00
 -1        24 3.06466E-05-1.21914E-05 0.00000E+00
 -1        25 1.92693E-04 3.40790E-05 0.00000E+00
 -1        26 1.93379E-04 2.22782E-06 0.00000E+00
 -1        27 1.91184E-04-1.29246E-05 0.00000E+00
 -1        28 1.90864E-04-2.49702E-05 0.00000E+00
 -1        32 0.00000E+00 0.00000E+00 0.00000E+00
 -1        33 2.02036E-04 2.98037E-06 0.00000E+00
 -1        34 1.99921E-04-1.29802E-05 0.00000E+00
 -1        35 1.97991E-04-2.53122E-05 0.00000E+00
 -1        51 2.63613E-03-8.81528E-08 3.30872E-24
 -1        52 2.63463E-03-1.58416E-07 0.00000E+00
 -1        53 2.63258E-03-2.25462E-07 0.00000E+00
 -1        54 2.63011E-03-2.91537E-07-1.65436E-24
 -1        55 2.62738E-03-3.58387E-07 0.00000E+00
 -1        56 2.63062E-03 5.19361E-06 0.00000E+00
 -1        57 2.61938E-03 2.26251E-05 0.00000E+00
 -1        58 2.60465E-03 4.88151E-05 1.05879E-22
 -1        59 2.58809E-03 7.94275E-05 0.00000E+00
 -1        60 2.57180E-03 1.09372E-04 0.00000E+00
 -1        61 2.55782E-03 1.33605E-04 5.29396E-23
 -1        62 2.54771E-03 1.48099E-04 0.00000E+00
 -1        63 2.54258E-03 1.49683E-04 0.00000E+00
 -1        64 2.54254E-03 1.37521E-04 0.00000E+00
 -1        65 2.54725E-03 1.12032E-04-5.29396E-23
 -1        66 2.55556E-03 7.60987E-05 0.00000E+00
 -1        67 2.56607E-03 3.35900E-05 0.00000E+00
 -1        68 2.57708E-03-1.03934E-05 0.00000E+00
 -1        69 2.58685E-03-5.06020E-05-5.29396E-23
 -1        70 2.59381E-03-8.25052E-05-5.29396E-23
 -1        86 1.68024E-03-3.60379E-06 0.00000E+00
 -1        87 1.85776E-03-2.07023E-05 1.32349E-23
 -1        88 2.09681E-03-4.96743E-05 2.64698E-23
 -1        89 2.33928E-03-7.94714E-05 0.00000E+00
 -1        90 2.52516E-03-9.79973E-05 0.00000E+00
 -1       121 3.39894E-04-5.66840E-07-1.32349E-23
 -1       122 3.37216E-04-1.13674E-06 0.00000E+00
 -1       123 3.32765E-04-1.71272E-06 0.00000E+00
 -1       124 3.26557E-04-2.29780E-06 0.00000E+00
 -1       125 3.18616E-04-2.89457E-06 0.00000E+00
 -1       191 1.76544E-04 1.34646E-07 3.30872E-24
 -1       192 1.76694E-04 2.69281E-07 2.06795E-25
 -1       193 1.76945E-04 4.03898E-07-3.30872E-24
 -1       194 1.77296E-04 5.38483E-07 1.24077E-24
 -1       195 1.77747E-04 6.73025E-07-2.89513E-24
 -1       251 2.62407E-03 1.50856E-05 0.00000E+00
 -1       252 2.62291E-03 5.64618E-05 0.00000E+00
 -1       253 2.62093E-03 1.15492E-04 6.61744E-24
 -1       254 2.61838E-03 1.83733E-04-3.30872E-24
 -1       255 2.61594E-03 2.50136E-04 6.61744E-24
 -1       256 2.61425E-03 3.03677E-04-3.30872E-24
 -1       257 2.61338E-03 3.36933E-04 1.32349E-23
 -1       258 2.61302E-03 3.42759E-04 3.30872E-24
 -1       259 2.61246E-03 3.21181E-04 0.00000E+00
 -1       260 2.61099E-03 2.72627E-04-6.61744E-24
 -1       261 2.60845E-03 2.04599E-04 1.32349E-23
 -1       262 2.60508E-03 1.24853E-04 6.61744E-24
 -1       263 2.60165E-03 4.44359E-05 0.00000E+00
 -1       264 2.59898E-03-2.55976E-05 0.00000E+00
 -1       265 2.59736E-03-7.71401E-05 1.32349E-23
 -1       266 2.62206E-03-4.40695E-07 0.00000E+00
 -1       267 2.61961E-03-4.44868E-07 8.27181E-25
 -1       268 2.61716E-03-4.49472E-07 0.00000E+00
 -1       269 2.61470E-03-4.52801E-07 0.00000E+00
 -1       270 2.61225E-03-4.56101E-07 0.00000E+00
 -1       271 2.62315E-03 1.24012E-06 0.00000E+00
 -1       272 2.62218E-03 1.79483E-06 6.61744E-24
 -1       273 2.62163E-03 1.21538E-06 2.64698E-23
 -1       274 2.62151E-03-5.16839E-07-1.32349E-23
 -1       275 2.62182E-03-3.40771E-06 0.00000E+00
 -1       276 2.62256E-03-7.45459E-06 0.00000E+00
 -1       277 2.62373E-03-1.26442E-05 0.00000E+00
 -1       278 2.62530E-03-1.89537E-05 0.00000E+00
 -1       279 2.62728E-03-2.63504E-05 0.00000E+00
 -1       280 2.62964E-03-3.47921E-05-1.32349E-23
 -1       281 2.63236E-03-4.42276E-05 0.00000E+00
 -1       282 2.63543E-03-5.45970E-05-1.32349E-23
 -1       283 2.63881E-03-6.58322E-05-2.64698E-23
 -1       284 2.64247E-03-7.78570E-05 0.00000E+00
 -1       285 2.64639E-03-9.05896E-05 1.32349E-23
 -1       301 2.60651E-03-1.02616E-04-6.61744E-24
 -1       302 2.61483E-03-1.02876E-04-3.30872E-24
 -1       303 2.62251E-03-1.03127E-04 1.32349E-23
 -1       304 2.63044E-03-1.03379E-04 0.00000E+00
 -1       305 2.63950E-03-1.03642E-04 0.00000E+00
 -1       306 2.63387E-03-2.53362E-04 0.00000E+00
 -1       307 2.69789E-03-6.62099E-04-5.29396E-23
 -1       308 2.74552E-03-1.26236E-03 1.05879E-22
 -1       309 2.77013E-03-1.96013E-03 0.00000E+00
 -1       310 2.80123E-03-2.63125E-03-1.05879E-22
 -1       311 2.86009E-03-3.15388E-03 0.00000E+00
 -1       312 2.91914E-03-3.44736E-03 0.00000E+00
 -1       313 2.91981E-03-3.47191E-03-5.29396E-23
 -1       314 2.78966E-03-3.23749E-03 1.05879E-22
 -1       315 2.48709E-03-2.80590E-03 0.00000E+00
 -1       316 2.02810E-03-2.25270E-03 1.05879E-22
 -1       317 1.47562E-03-1.64745E-03 5.29396E-23
 -1       318 9.41275E-04-1.05196E-03 0.00000E+00
 -1       319 5.31306E-04-5.31664E-04 1.05879E-22
 -1       320 2.89682E-04-1.59754E-04 0.00000E+00
 -1       336 2.97443E-04-4.18256E-06 1.32349E-23
 -1       337 2.83852E-04-4.88397E-06 0.00000E+00
 -1       338 2.68264E-04-5.61288E-06-1.32349E-23
 -1       339 2.50754E-04-6.37001E-06 6.61744E-24
 -1       340 2.31406E-04-7.15975E-06-1.32349E-23
 -1       406 1.78950E-04 9.41923E-07-2.06795E-24
 -1       407 1.79702E-04 1.07622E-06-2.06795E-25
 -1       408 1.80554E-04 1.21037E-06-2.48154E-24
 -1       409 1.81507E-04 1.34417E-06 5.16988E-25
 -1       410 1.82559E-04 1.47737E-06 2.48154E-24
 -1       521 2.68835E-03-2.64093E-04-1.05879E-22
 -1       522 2.75072E-03-6.92563E-04 0.00000E+00
 -1       523 2.79219E-03-1.31988E-03 1.05879E-22
 -1       524 2.80790E-03-2.04546E-03 5.29396E-23
 -1       525 2.83128E-03-2.74248E-03-1.05879E-22
 -1       526 2.88653E-03-3.28671E-03 0.00000E+00
 -1       527 2.94510E-03-3.59088E-03 0.00000E+00
 -1       528 2.94374E-03-3.61417E-03 0.00000E+00
 -1       529 2.80253E-03-3.36634E-03 0.00000E+00
 -1       530 2.47751E-03-2.91672E-03-5.29396E-23
 -1       531 1.98533E-03-2.34455E-03-1.05879E-22
 -1       532 1.39502E-03-1.72214E-03 5.29396E-23
 -1       533 8.23319E-04-1.10892E-03 0.00000E+00
 -1       534 3.81394E-04-5.68149E-04 5.29396E-23
 -1       535 1.19281E-04-1.77151E-04 0.00000E+00
 -1       536 2.09568E-04 2.67056E-05 0.00000E+00
 -1       537 2.07675E-04 8.67203E-05 0.00000E+00
 -1       538 2.04750E-04 1.62873E-04 3.30872E-24
 -1       539 2.01302E-04 2.45875E-04 0.00000E+00
 -1       540 1.98198E-04 3.24307E-04 0.00000E+00
 -1       541 1.96179E-04 3.86769E-04-1.65436E-24
 -1       542 1.95247E-04 4.26551E-04 3.30872E-24
 -1       543 1.95024E-04 4.37089E-04 1.65436E-24
 -1       544 1.94703E-04 4.19154E-04 3.30872E-24
 -1       545 1.93545E-04 3.73736E-04 0.00000E+00
 -1       546 1.91387E-04 3.08909E-04-3.30872E-24
 -1       547 1.88468E-04 2.32871E-04 0.00000E+00
 -1       548 1.85576E-04 1.57212E-04 0.00000E+00
 -1       549 1.83490E-04 9.35261E-05 1.65436E-24
 -1       550 1.82405E-04 4.97893E-05-1.65436E-24
 -1       551 1.85283E-04-8.53797E-06 0.00000E+00
 -1       552 1.57019E-04-9.18847E-06 0.00000E+00
 -1       553 1.26464E-04-9.90047E-06-9.92617E-24
 -1       554 9.45777E-05-1.06531E-05 0.00000E+00
 -1       555 6.23204E-05-1.14189E-05 0.00000E+00
 -1       556 2.02725E-04 1.14418E-05 5.29396E-23
 -1       557 1.96594E-04 2.71797E-05 0.00000E+00
 -1       558 1.91789E-04 3.95329E-05 0.00000E+00
 -1       559 1.88177E-04 4.88102E-05 2.64698E-23
 -1       560 1.85629E-04 5.53206E-05 0.00000E+00
 -1       561 1.84018E-04 5.93759E-05 0.00000E+00
 -1       562 1.83219E-04 6.12888E-05 0.00000E+00
 -1       563 1.83110E-04 6.13732E-05 0.00000E+00
 -1       564 1.83568E-04 5.99438E-05 0.00000E+00
 -1       565 1.84474E-04 5.73158E-05 0.00000E+00
 -1       566 1.85709E-04 5.38051E-05 0.00000E+00
 -1       567 1.87154E-04 4.97279E-05 0.00000E+00
 -1       568 1.88693E-04 4.54008E-05-1.65436E-24
 -1       569 1.90207E-04 4.11400E-05 8.27181E-25
 -1       570 1.91578E-04 3.72621E-05 0.00000E+00
 -1       571 1.82217E-04 3.17624E-05-1.65436E-24
 -1       572 1.82316E-04 2.96052E-05 1.65436E-24
 -1       573 1.82415E-04 2.73982E-05 1.65436E-24
 -1       574 1.82514E-04 2.51575E-05 8.27181E-25
 -1       575 1.82613E-04 2.28995E-05 0.00000E+00
 -1       576 1.82713E-04 2.06406E-05-4.96308E-24
 -1       577 1.82812E-04 1.83971E-05-3.30872E-24
 -1       578 1.82911E-04 1.61856E-05 6.61744E-24
 -1       579 1.83011E-04 1.40224E-05 0.00000E+00
 -1       580 1.83110E-04 1.19240E-05 0.00000E+00
 -1       581 1.83210E-04 9.90680E-06 0.00000E+00
 -1       582 1.83310E-04 7.98717E-06 0.00000E+00
 -1       583 1.83410E-04 6.18152E-06-6.61744E-24
 -1       584 1.83511E-04 4.50608E-06 3.30872E-24
 -1       585 1.83611E-04 2.97691E-06 0.00000E+00
 -1       586 1.83842E-04 3.38937E-05 1.65436E-24
 -1       587 1.85521E-04 3.39327E-05-4.13590E-25
 -1       588 1.87203E-04 3.39714E-05 8.27181E-25
 -1       589 1.88930E-04 3.40094E-05 0.00000E+00
 -1       590 1.90746E-04 3.40461E-05 0.00000E+00
 -1       591 1.82837E-04 3.18553E-05-2.06795E-25
 -1       592 1.83557E-04 2.98364E-05 0.00000E+00
 -1       593 1.84281E-04 2.78032E-05 0.00000E+00
 -1       594 1.85009E-04 2.57604E-05-4.13590E-25
 -1       595 1.85738E-04 2.37129E-05 8.27181E-25
 -1       596 1.86467E-04 2.16653E-05 0.00000E+00
 -1       597 1.87195E-04 1.96224E-05 0.00000E+00
 -1       598 1.87919E-04 1.75889E-05 0.00000E+00
 -1       599 1.88637E-04 1.55696E-05-8.27181E-25
 -1       600 1.89349E-04 1.35691E-05-4.13590E-25
 -1       601 1.90052E-04 1.15921E-05 0.00000E+00
 -1       602 1.90744E-04 9.64349E-06 2.06795E-25
 -1       603 1.91424E-04 7.72786E-06 0.00000E+00
 -1       604 1.92091E-04 5.85008E-06-7.75482E-26
 -1       605 1.92742E-04 4.01477E-06 0.00000E+00
 -1       606 1.83725E-04 4.73163E-07 0.00000E+00
 -1       607 1.83734E-04-5.76059E-07 0.00000E+00
 -1       608 1.83743E-04-1.54402E-06 0.00000E+00
 -1       609 1.83752E-04-2.43643E-06 0.00000E+00
 -1       610 1.83760E-04-3.25906E-06 0.00000E+00
 -1       611 1.83768E-04-4.01774E-06 0.00000E+00
 -1       612 1.83777E-04-4.71830E-06 0.00000E+00
 -1       613 1.83785E-04-5.36658E-06 0.00000E+00
 -1       614 1.83794E-04-5.96844E-06 0.00000E+00
 -1       615 1.83802E-04-6.52971E-06 0.00000E+00
 -1       616 1.83811E-04-7.05624E-06 0.00000E+00
 -1       617 1.83819E-04-7.55387E-06 0.00000E+00
 -1       618 1.83827E-04-8.02844E-06 0.00000E+00
 -1       619 1.83836E-04-8.48580E-06 0.00000E+00
 -1       620 1.83844E-04-8.93180E-06 2.06795E-25
 -1       621 1.85040E-04 1.71245E-06-1.65436E-24
 -1       622 1.86526E-04 1.81644E-06 8.27181E-25
 -1       623 1.88136E-04 1.92023E-06-1.65436E-24
 -1       624 1.89837E-04 2.02368E-06-1.65436E-24
 -1       625 1.91596E-04 2.12685E-06-3.30872E-24
 -1       626 1.84249E-04 5.09194E-07 0.00000E+00
 -1       627 1.84764E-04-5.26757E-07 3.30872E-24
 -1       628 1.85258E-04-1.50701E-06 0.00000E+00
 -1       629 1.85734E-04-2.43976E-06 0.00000E+00
 -1       630 1.86196E-04-3.33323E-06 0.00000E+00
 -1       631 1.86647E-04-4.19565E-06-1.65436E-24
 -1       632 1.87088E-04-5.03524E-06-3.30872E-24
 -1       633 1.87525E-04-5.86027E-06 0.00000E+00
 -1       634 1.87959E-04-6.67896E-06 0.00000E+00
 -1       635 1.88393E-04-7.49954E-06 0.00000E+00
 -1       636 1.88832E-04-8.33027E-06-3.30872E-24
 -1       637 1.89277E-04-9.17937E-06 0.00000E+00
 -1       638 1.89732E-04-1.00551E-05 1.65436E-24
 -1       639 1.90200E-04-1.09657E-05 1.65436E-24
 -1       640 1.90683E-04-1.19194E-05 1.65436E-24
 -1       656 1.84525E-04-9.94965E-06 0.00000E+00
 -1       657 1.85619E-04-1.05505E-05 0.00000E+00
 -1       658 1.86993E-04-1.11500E-05-1.32349E-23
 -1       659 1.88502E-04-1.17491E-05 0.00000E+00
 -1       660 1.89960E-04-1.23500E-05 0.00000E+00
 -1       661 1.84104E-04-9.85765E-06 8.27181E-25
 -1       662 1.84394E-04-1.04346E-05 8.27181E-25
 -1       663 1.84716E-04-1.10979E-05 0.00000E+00
 -1       664 1.85068E-04-1.18410E-05 8.27181E-25
 -1       665 1.85448E-04-1.26583E-05-1.65436E-24
 -1       666 1.85854E-04-1.35437E-05-8.27181E-25
 -1       667 1.86283E-04-1.44918E-05 1.65436E-24
 -1       668 1.86734E-04-1.54969E-05-8.27181E-25
 -1       669 1.87203E-04-1.65537E-05 0.00000E+00
 -1       670 1.87691E-04-1.76569E-05-8.27181E-25
 -1       671 1.88193E-04-1.88014E-05 0.00000E+00
 -1       672 1.88709E-04-1.99820E-05-8.27181E-25
 -1       673 1.89236E-04-2.11939E-05-1.65436E-24
 -1       674 1.89773E-04-2.24323E-05-4.13590E-25
 -1       675 1.90318E-04-2.36921E-05-2.06795E-25
 -1       676 1.84284E-04-2.44528E-05-3.30872E-24
 -1       677 1.85605E-04-2.45570E-05 1.65436E-24
 -1       678 1.86924E-04-2.46611E-05 0.00000E+00
 -1       679 1.88241E-04-2.47649E-05 0.00000E+00
 -1       680 1.89554E-04-2.48687E-05 0.00000E+00
 -1       771 1.87776E-05 1.43334E-05 0.00000E+00
 -1       772 8.78905E-06 3.61215E-05 0.00000E+00
 -1       773 5.90948E-07 5.34011E-05 0.00000E+00
 -1       774-5.93986E-06 6.64284E-05 0.00000E+00
 -1       775-1.09239E-05 7.54695E-05 5.29396E-23
 -1       776-1.44866E-05 8.08072E-05-2.64698E-23
 -1       777-1.67530E-05 8.27344E-05 0.00000E+00
 -1       778-1.78511E-05 8.15576E-05 5.29396E-23
 -1       779-1.79079E-05 7.75919E-05 5.29396E-23
 -1       780-1.70527E-05 7.11635E-05-2.64698E-23
 -1       781-1.54137E-05 6.26054E-05 0.00000E+00
 -1       782-1.31208E-05 5.22594E-05 0.00000E+00
 -1       783-1.03030E-05 4.04719E-05 5.29396E-23
 -1       784-7.09047E-06 2.75954E-05-2.64698E-23
 -1       785-3.61247E-06 1.39855E-05 0.00000E+00
 -1       786 1.92731E-04 3.18614E-05 0.00000E+00
 -1       787 1.92773E-04 2.96938E-05-4.13590E-25
 -1       788 1.92815E-04 2.75677E-05 8.27181E-25
 -1       789 1.92858E-04 2.54751E-05 0.00000E+00
 -1       790 1.92901E-04 2.34111E-05 0.00000E+00
 -1       791 1.92944E-04 2.13711E-05 0.00000E+00
 -1       792 1.92988E-04 1.93528E-05 0.00000E+00
 -1       793 1.93031E-04 1.73542E-05-8.27181E-25
 -1       794 1.93074E-04 1.53749E-05 0.00000E+00
 -1       795 1.93117E-04 1.34150E-05 8.27181E-25
 -1       796 1.93161E-04 1.14762E-05 0.00000E+00
 -1       797 1.93204E-04 9.56049E-06-8.27181E-25
 -1       798 1.93248E-04 7.67214E-06 0.00000E+00
 -1       799 1.93291E-04 5.81550E-06-8.27181E-25
 -1       800 1.93335E-04 3.99816E-06 0.00000E+00
 -1       801 1.47360E-04 3.06270E-05 0.00000E+00
 -1       802 1.02715E-05 1.91201E-05-2.64698E-23
 -1       803-1.06948E-04 9.65925E-06 0.00000E+00
 -1       804-9.50282E-05 6.71754E-06 0.00000E+00
 -1       805-3.14220E-05 2.65038E-06 0.00000E+00
 -1       806 1.93409E-04 3.17928E-05 0.00000E+00
 -1       807 1.94112E-04 2.95327E-05 1.65436E-24
 -1       808 1.94802E-04 2.73039E-05-3.30872E-24
 -1       809 1.95479E-04 2.51104E-05 0.00000E+00
 -1       810 1.96140E-04 2.29563E-05 0.00000E+00
 -1       811 1.96786E-04 2.08456E-05-1.65436E-24
 -1       812 1.97414E-04 1.87820E-05 0.00000E+00
 -1       813 1.98023E-04 1.67697E-05 0.00000E+00
 -1       814 1.98611E-04 1.48124E-05 0.00000E+00
 -1       815 1.99177E-04 1.29141E-05 1.65436E-24
 -1       816 1.99720E-04 1.10787E-05 3.30872E-24
 -1       817 2.00238E-04 9.31005E-06 8.27181E-25
 -1       818 2.00730E-04 7.61204E-06 1.65436E-24
 -1       819 2.01194E-04 5.98855E-06-8.27181E-25
 -1       820 2.01629E-04 4.44340E-06-3.30872E-24
 -1       821 1.93250E-04-8.66993E-08 0.00000E+00
 -1       822 1.93110E-04-3.53122E-06 1.65436E-24
 -1       823 1.92969E-04-7.68513E-06 0.00000E+00
 -1       824 1.92824E-04-1.21234E-05 0.00000E+00
 -1       825 1.92680E-04-1.63442E-05 0.00000E+00
 -1       826 1.92539E-04-1.98469E-05-1.65436E-24
 -1       827 1.92401E-04-2.23264E-05 3.30872E-24
 -1       828 1.92264E-04-2.34837E-05 0.00000E+00
 -1       829 1.92129E-04-2.33795E-05 0.00000E+00
 -1       830 1.91993E-04-2.20821E-05 1.65436E-24
 -1       831 1.91855E-04-1.99841E-05 0.00000E+00
 -1       832 1.91717E-04-1.74834E-05 1.65436E-24
 -1       833 1.91579E-04-1.50874E-05 0.00000E+00
 -1       834 1.91444E-04-1.33025E-05-1.65436E-24
 -1       835 1.91310E-04-1.24700E-05 0.00000E+00
 -1       836 1.95034E-04 2.35263E-06 0.00000E+00
 -1       837 1.96562E-04 2.48056E-06 1.65436E-24
 -1       838 1.97994E-04 2.60844E-06-3.30872E-24
 -1       839 1.99362E-04 2.73561E-06-8.27181E-25
 -1       840 2.00699E-04 2.86262E-06 0.00000E+00
 -1       856 1.91167E-04-1.39523E-05 0.00000E+00
 -1       857 1.91147E-04-1.48442E-05 0.00000E+00
 -1       858 1.91128E-04-1.56215E-05 2.06795E-25
 -1       859 1.91108E-04-1.63054E-05 0.00000E+00
 -1       860 1.91088E-04-1.69170E-05 0.00000E+00
 -1       861 1.91068E-04-1.74777E-05 0.00000E+00
 -1       862 1.91048E-04-1.80088E-05 0.00000E+00
 -1       863 1.91028E-04-1.85315E-05 4.13590E-25
 -1       864 1.91008E-04-1.90673E-05 0.00000E+00
 -1       865 1.90988E-04-1.96375E-05 0.00000E+00
 -1       866 1.90968E-04-2.02634E-05 0.00000E+00
 -1       867 1.90948E-04-2.09663E-05-4.13590E-25
 -1       868 1.90927E-04-2.17673E-05 0.00000E+00
 -1       869 1.90907E-04-2.26876E-05 0.00000E+00
 -1       870 1.90886E-04-2.37483E-05 8.27181E-25
 -1       871 1.92498E-04-1.29295E-05 8.27181E-25
 -1       872 1.93960E-04-1.29377E-05 0.00000E+00
 -1       873 1.95502E-04-1.29466E-05 0.00000E+00
 -1       874 1.97054E-04-1.29563E-05 2.32645E-25
 -1       875 1.98550E-04-1.29665E-05-4.13590E-25
 -1       876 1.91696E-04-1.39377E-05 0.00000E+00
 -1       877 1.92186E-04-1.48840E-05-1.65436E-24
 -1       878 1.92655E-04-1.57715E-05-3.30872E-24
 -1       879 1.93104E-04-1.66076E-05 1.65436E-24
 -1       880 1.93537E-04-1.73997E-05 0.00000E+00
 -1       881 1.93957E-04-1.81551E-05 0.00000E+00
 -1       882 1.94365E-04-1.88812E-05 3.30872E-24
 -1       883 1.94766E-04-1.95854E-05 0.00000E+00
 -1       884 1.95161E-04-2.02750E-05 0.00000E+00
 -1       885 1.95553E-04-2.09573E-05-1.65436E-24
 -1       886 1.95945E-04-2.16396E-05 0.00000E+00
 -1       887 1.96340E-04-2.23294E-05 0.00000E+00
 -1       888 1.96740E-04-2.30339E-05 0.00000E+00
 -1       889 1.97147E-04-2.37607E-05 0.00000E+00
 -1       890 1.97566E-04-2.45170E-05 0.00000E+00
 -1       891 1.92194E-04-2.50277E-05 1.65436E-24
 -1       892 1.93501E-04-2.50853E-05-8.27181E-25
 -1       893 1.94759E-04-2.51428E-05 0.00000E+00
 -1       894 1.95943E-04-2.52000E-05 0.00000E+00
 -1       895 1.97029E-04-2.52570E-05 0.00000E+00
 -1       956 2.01906E-04 1.69153E-06 3.30872E-24
 -1       957 2.01773E-04 4.93955E-07 8.27181E-25
 -1       958 2.01641E-04-6.23043E-07 0.00000E+00
 -1       959 2.01508E-04-1.67076E-06-1.65436E-24
 -1       960 2.01376E-04-2.66053E-06 3.30872E-24
 -1       961 2.01243E-04-3.60374E-06 0.00000E+00
 -1       962 2.01111E-04-4.51174E-06 0.00000E+00
 -1       963 2.00978E-04-5.39597E-06-1.65436E-24
 -1       964 2.00846E-04-6.26781E-06-3.30872E-24
 -1       965 2.00713E-04-7.13865E-06-1.65436E-24
 -1       966 2.00581E-04-8.01991E-06-3.30872E-24
 -1       967 2.00448E-04-8.92297E-06-1.65436E-24
 -1       968 2.00316E-04-9.85922E-06 6.61744E-24
 -1       969 2.00183E-04-1.08400E-05 0.00000E+00
 -1       970 2.00051E-04-1.18767E-05-3.30872E-24
 -1       971 1.99801E-04-1.40829E-05 0.00000E+00
 -1       972 1.99680E-04-1.50909E-05 1.65436E-24
 -1       973 1.99559E-04-1.60147E-05-3.30872E-24
 -1       974 1.99438E-04-1.68651E-05 1.65436E-24
 -1       975 1.99316E-04-1.76531E-05 0.00000E+00
 -1       976 1.99195E-04-1.83894E-05 0.00000E+00
 -1       977 1.99074E-04-1.90849E-05 3.30872E-24
 -1       978 1.98953E-04-1.97507E-05-1.65436E-24
 -1       979 1.98831E-04-2.03975E-05 0.00000E+00
 -1       980 1.98710E-04-2.10363E-05-1.65436E-24
 -1       981 1.98589E-04-2.16781E-05 3.30872E-24
 -1       982 1.98468E-04-2.23337E-05-1.65436E-24
 -1       983 1.98347E-04-2.30140E-05 0.00000E+00
 -1       984 1.98227E-04-2.37300E-05-1.65436E-24
 -1       985 1.98107E-04-2.44925E-05 0.00000E+00
 -3
    1PSTEP                        44          22           1          
  100CL  122 6.62727E-01         409                     0   22           1
 -4  STRESS      6    1
 -5  SXX         1    4    1    1
 -5  SYY         1    4    2    2
 -5  SZZ         1    4    3    3
 -5  SXY         1    4    1    2
 -5  SYZ         1    4    2    3
 -5  SZX         1    4    3    1
 -1         1-5.19313E+06-1.72005E+06-1.12172E+06-1.53453E+06-2.91038E-10 9.67993E-08
 -1         2 7.00883E+05 9.91402E+06 2.62097E+06 3.13219E+06 2.03436E-08 9.54969E-08
 -1         3-1.47464E+03-1.60980E+06 4.15051E+02-2.27423E+03-5.99105E-10 1.92376E-08
 -1         5-7.18992E+01 3.85559E+05 9.96316E+00-1.30636E+00-4.52264E-10-2.43963E-08
 -1         8-4.51578E+05-1.63820E+05-2.80926E+04-2.28408E+05-4.42924E-10-1.43526E-07
 -1         9 1.10531E+07 1.57850E+06 2.25071E+06-9.52440E+05 7.40401E-09 3.65777E-08
 -1        10-2.31103E+03-1.67757E+06-4.05040E+03-1.53784E+04-1.36079E-08 7.99946E-09
 -1        12-6.79797E+01 3.85580E+05 3.27295E+02-8.91655E+00-6.77566E-10-7.27596E-12
 -1        15 1.00342E+03 5.51433E+02 3.24351E+03 1.06490E+00-3.16192E-11 3.13218E-07
 -1        16 2.23473E+07-2.29664E+05 3.07047E+06-2.03511E+06 2.84441E-08 1.78193E-07
 -1        17 8.08680E+06 6.05449E+06 2.18813E+06 5.82099E+06 2.46248E-08 3.28640E-08
 -1        18 1.39754E+05 3.27952E+04 3.59964E+03-1.19028E+05 1.26427E-08 1.18971E-08
 -1        19 1.22166E+05 1.41397E+05-9.41210E+02 2.19577E+04 1.54214E-09-1.77533E-09
 -1        20-8.14256E+04-5.72620E+05-1.28465E+05 2.52761E+04-2.04454E-09-4.95250E-09
 -1        21-4.56424E+01-2.95906E+05-9.24078E+02 2.68192E+02 1.22072E-08 8.27179E-09
 -1        24 1.34577E+07 1.16448E+07 3.74342E+06 1.07975E+07-1.61973E-07-5.19988E-08
 -1        25 1.19999E+05 2.48609E+05 9.52666E+04-6.33921E+05-8.13543E-10 7.06677E-09
 -1        26-5.50982E+04 9.21232E+04-2.45561E+04 1.13400E+03-7.38510E-11-4.27815E-10
 -1        27-7.56461E+04-3.09423E+05-1.13158E+05 6.88708E+04 4.74301E-09-5.50881E-09
 -1        28 2.22445E+04-8.52693E+04 1.68898E+04 2.06793E+04-2.99582E-09 3.60245E-09
 -1        32-1.67831E+06-3.16300E+06-1.94125E+05 4.34325E+05-4.26153E-08-7.36213E-09
 -1        33-1.78198E+05 9.27967E+04 3.23282E+04-3.85453E+04-2.92046E-09-1.96663E-09
 -1        34-2.23315E+05-2.49575E+04 6.86828E+02 7.54681E+04-4.25534E-09-9.38159E-09
 -1        35-2.29283E+04-3.38164E+04-1.34703E+03 5.14800E+04-3.20187E-09 1.31161E-08
 -1        51 5.90080E+04-1.80868E+05 1.25355E+05-4.77612E+05 2.91038E-11-1.94777E-07
 -1        52 2.01569E+04-1.59250E+05 6.60751E+04-5.56879E+05 7.09406E-11 1.29559E-07
 -1        53 4.33915E+03-1.74793E+05 3.48808E+04-4.75893E+05 4.51109E-10-1.20635E-08
 -1        54 8.18278E+03-1.70691E+05 2.96291E+04-5.58630E+05 4.29281E-10-3.71730E-07
 -1        55 1.77238E+04-1.78288E+05 3.71718E+04-4.75711E+05 3.63798E-10 6.63495E-08
 -1        56-9.59095E+06-1.22722E+06-8.62180E+05-3.90285E+06-6.51926E-09 2.51457E-08
 -1        57-1.05447E+07-1.20388E+06-5.51916E+05-3.04294E+06-9.64064E-10-2.58296E-07
 -1        58-9.54705E+06-1.63641E+06-1.97584E+05-4.02158E+06-8.18545E-09-5.55883E-09
 -1        59-1.05843E+07-7.31670E+05-1.12938E+05-2.97648E+06 1.31568E-08-2.85698E-07
 -1        60-9.58744E+06-1.66352E+06-4.83851E+04-4.00290E+06 1.13560E-08-5.51809E-08
 -1        61-1.02673E+07-8.88761E+05-1.03982E+04-3.14261E+06 2.17697E-08-1.66307E-07
 -1        62-9.81413E+06-1.51198E+06-3.65238E+04-3.81701E+06 1.21727E-08 8.27131E-08
 -1        63-9.74650E+06-1.31540E+06 1.60768E+04-3.57478E+06-8.90577E-09 1.86079E-07
 -1        64-1.00584E+07-1.27165E+06-3.69414E+04-3.53620E+06 2.59024E-09-6.01540E-08
 -1        65-9.41717E+06-1.72759E+06-6.71250E+03-4.11450E+06-2.17551E-08-2.49242E-07
 -1        66-1.01856E+07-1.07085E+06-4.52904E+04-3.30996E+06 2.38651E-08-1.40690E-07
 -1        67-9.35391E+06-1.95183E+06-1.00877E+05-4.40684E+06-6.16965E-08 1.47491E-07
 -1        68-1.01794E+07-1.00821E+06-1.76712E+05-3.28223E+06-1.42518E-08-4.16039E-08
 -1        69-9.56658E+06-2.13153E+06-4.95860E+05-4.18471E+06 5.45424E-09-8.53834E-08
 -1        70-9.94044E+06-9.24325E+05-7.76071E+05-3.50638E+06 1.33077E-08-3.91155E-08
 -1        86-7.12398E+05-9.49318E+06-1.42816E+06-1.49622E+06-1.93451E-07-1.38767E-07
 -1        87 1.03695E+06 2.02700E+06 1.19050E+06 3.22156E+06-3.27680E-07-1.96267E-07
 -1        88-1.56006E+05-2.52199E+06 9.97800E+04-1.69084E+06-2.87277E-07-5.78468E-08
 -1        89 1.41785E+06 1.81496E+06 1.19325E+06 3.32299E+06-4.33483E-07-8.91591E-08
 -1        90-1.04523E+06-9.32436E+06-1.54421E+06-1.60796E+06-9.94223E-08-8.52888E-08
 -1       121-2.02202E+03-1.61467E+06-5.27665E+02 1.12760E+03 1.48026E-09 5.38421E-09
 -1       122-1.28328E+03-1.60986E+06 7.91504E+02-4.55123E+03-5.32815E-09 1.97761E-08
 -1       123-2.04310E+03-1.61480E+06 3.08670E+02 3.36703E+03 3.86058E-09 2.49638E-08
 -1       124 4.05701E+02-1.60939E+06 3.04746E+03-9.50494E+03-1.04737E-08-2.32831E-10
 -1       125-2.88020E+03-1.61573E+06 3.62089E+03 6.03638E+03 6.45196E-09 4.10946E-08
 -1       191-7.57827E+01 3.85578E+05 8.63463E+00 6.80044E-01-5.33669E-10 2.67610E-08
 -1       192-7.28589E+01 3.85559E+05 2.12532E+01-4.19791E+00-6.89477E-10 6.34691E-08
 -1       193-7.83100E+01 3.85577E+05 3.63405E+01 3.68246E+00-1.05977E-09 3.61506E-08
 -1       194-7.59363E+01 3.85563E+05 8.07759E+01-9.52819E+00-5.61158E-10 7.50515E-09
 -1       195-8.31611E+01 3.85575E+05 1.54804E+02 6.19180E+00-1.59952E-09-1.02809E-08
 -1       251-1.19349E+06-2.64931E+04-1.06594E+05-7.12685E+04 3.90719E-09 1.81099E-08
 -1       252-5.39196E+05 2.62123E+04 5.04267E+04 2.23145E+05 1.31906E-08 1.71669E-07
 -1       253-9.00587E+05-3.27468E+02-1.45620E+04-1.35168E+05 7.83893E-09 8.77276E-08
 -1       254-8.07482E+05 1.47515E+04 1.11156E+04 2.80606E+05-2.31592E-08 5.23905E-08
 -1       255-9.40476E+05-2.27585E+03-1.54872E+04-1.29812E+05-2.40789E-09-1.62074E-07
 -1       256-4.54962E+05 1.97184E+04 8.37176E+04 1.98470E+05-3.37441E-08-3.70121E-08
 -1       257-1.23275E+06-2.21432E+04-7.48423E+04-5.17700E+04-4.26189E-09-1.55821E-07
 -1       258-1.59105E+05 2.64077E+04 1.43691E+05-5.23901E+03-2.33754E-08 5.66179E-08
 -1       259-1.21925E+06-2.31839E+04-7.02211E+04 7.26864E+04-2.11148E-08 8.59802E-09
 -1       260-4.86472E+05 2.60956E+04 8.43330E+04-2.00491E+05-1.98770E-09-1.27212E-07
 -1       261-9.24200E+05-6.39145E+03-1.67203E+03 1.42863E+05 6.03586E-08 4.75138E-08
 -1       262-8.10257E+05 3.44000E+04 3.77593E+04-2.70598E+05-2.93343E-08-8.26078E-08
 -1       263-9.14315E+05-1.58461E+04 2.64205E+04 1.44442E+05 7.79892E-09-1.55813E-07
 -1       264-4.78781E+05 1.15663E+05 1.74343E+05-2.09891E+05 1.28788E-07-3.99665E-07
 -1       265-1.23860E+06-1.01574E+05 5.87094E+04 8.06194E+04 3.66663E-08 5.63232E-08
 -1       266-1.81653E+04-8.49484E+03 4.26175E+04-2.27841E+01-2.41926E-10-4.75346E-08
 -1       267 2.10584E+04 9.89979E+03 3.01232E+04 2.62902E+01 1.75987E-10-1.13409E-07
 -1       268-2.82389E+03-1.40214E+03 1.11966E+04-3.34973E+00 7.04858E-11 1.26988E-07
 -1       269 3.33419E+03 1.67801E+03 7.27768E+03 3.90205E+00 2.07820E-10 1.97004E-07
 -1       270-5.00457E+02-2.75704E+02 3.51304E+03-5.29530E-01 8.85620E-11 1.85862E-07
 -1       271-1.66323E+06-2.01868E+05-1.24673E+05-6.38425E+05-2.77396E-10-7.80274E-08
 -1       272-1.72357E+06-2.75575E+05-7.99473E+04-6.17817E+05 5.81986E-09-6.59702E-08
 -1       273-1.68752E+06-2.32062E+05-2.96248E+04-6.31845E+05-1.40171E-08 7.61047E-08
 -1       274-1.69390E+06-2.39647E+05-1.63445E+04-6.28434E+05-3.08355E-08 2.46934E-07
 -1       275-1.69218E+06-2.33898E+05-7.07005E+03-6.29218E+05-1.93995E-08-7.23776E-09
 -1       276-1.68701E+06-2.38837E+05-3.46380E+03-6.33455E+05 2.01362E-08 4.33138E-08
 -1       277-1.69440E+06-2.32437E+05-1.92982E+03-6.27017E+05 5.11682E-09-4.23988E-08
 -1       278-1.68321E+06-2.41925E+05-9.57648E+02-6.37865E+05 2.02490E-08-2.49931E-07
 -1       279-1.69618E+06-2.30646E+05-1.15864E+03-6.24972E+05-1.77533E-08-4.36253E-08
 -1       280-1.68026E+06-2.45351E+05-1.43657E+03-6.41982E+05 4.02797E-08 1.20647E-07
 -1       281-1.69768E+06-2.28816E+05-2.86941E+03-6.23131E+05-2.39361E-08 1.31139E-07
 -1       282-1.67885E+06-2.50020E+05-6.32242E+03-6.45519E+05-2.60106E-08 3.13582E-07
 -1       283-1.69802E+06-2.25882E+05-1.14824E+04-6.21664E+05 1.61963E-08-1.04017E-07
 -1       284-1.68656E+06-2.67964E+05-3.09011E+04-6.46495E+05-5.74109E-08-2.05115E-07
 -1       285-1.69063E+06-2.12157E+05-4.81754E+04-6.21900E+05-2.42289E-08-3.30820E-08
 -1       301 1.08205E+03-6.14996E+05 1.73269E+05-1.06330E+06 4.20550E-09 1.87727E-07
 -1       302 8.31843E+02-5.68466E+05 1.04174E+05-1.55275E+06-7.04313E-09 2.06650E-07
 -1       303-1.58200E+04-6.04916E+05 5.95185E+04-1.06043E+06 6.83940E-10-1.94115E-07
 -1       304-1.51373E+04-5.75109E+05 6.10131E+04-1.55210E+06-1.24419E-08 1.55385E-07
 -1       305-1.81698E+04-5.95853E+05 7.69044E+04-1.06345E+06 6.68115E-09 3.58850E-08
 -1       306-2.98420E+07-6.16752E+06-8.50417E+06-6.57404E+05-9.95351E-08 1.77533E-07
 -1       307 2.53696E+07 3.11207E+06 5.48962E+06-1.47858E+07-8.19113E-07-7.86677E-08
 -1       308-7.22921E+06-1.06941E+06-5.26825E+05 5.15877E+06-2.11410E-07 4.81115E-07
 -1       309-3.58027E+06 8.62545E+06 2.20840E+06-2.03566E+07 1.60886E-07 1.88793E-07
 -1       310-1.20632E+07-1.84548E+06-1.87204E+06 5.16546E+06 3.82424E-08-8.82428E-08
 -1       311 3.66489E+07 1.01887E+05 7.01735E+06-9.25311E+06 5.13566E-07-2.79979E-08
 -1       312-3.13723E+07-6.47090E+06-8.29684E+06-4.59630E+06 3.50177E-07-1.61788E-07
 -1       313 4.51703E+07 1.38843E+07 1.04544E+07 2.27282E+07-1.29512E-08-1.51020E-07
 -1       314-1.75343E+07-1.71315E+07-7.42598E+06-1.24021E+07 3.53437E-07-3.45986E-07
 -1       315-1.22184E+06 2.89319E+07 5.63486E+06 1.10414E+07-6.12170E-07-3.13157E-08
 -1       316 1.13985E+06-9.85391E+06-5.07516E+05-2.79775E+06-1.20771E-06-2.78553E-07
 -1       317-1.72436E+07 2.21308E+07 2.16784E+06-8.26813E+06 9.94114E-07-8.24381E-07
 -1       318-1.01387E+06-1.23146E+07-1.89556E+06-4.24447E+06-8.23493E-07 9.23756E-08
 -1       319 6.65163E+06 3.08815E+07 6.78634E+06 1.60559E+07-6.17583E-08 2.11643E-07
 -1       320-2.21636E+07-1.71760E+07-9.59383E+06-1.25429E+07 1.71945E-07-4.96802E-08
 -1       336-6.61599E+02-1.74794E+06-1.41878E+04 9.17583E+03-2.69865E-08 1.48866E-08
 -1       337-5.49473E+03-1.74773E+06-1.85422E+04-2.22401E+04-4.88135E-08 8.16181E-09
 -1       338 3.71008E+02-1.74742E+06-2.91104E+04 1.28190E+04-3.45935E-08 1.28239E-08
 -1       339-3.08785E+04-1.76536E+06-6.58756E+04-2.93637E+04-6.31335E-08 2.87309E-08
 -1       340 2.04604E+04-1.73253E+06-1.03703E+05 1.61690E+04-4.17567E-08 2.86418E-08
 -1       406-4.61725E+01 3.85560E+05 6.42805E+02 3.24270E+00-1.85436E-09 3.20324E-09
 -1       407 1.57689E+02 3.85694E+05 1.37336E+03 2.29018E+01-3.45523E-10-6.00994E-09
 -1       408 6.36741E+02 3.85460E+05 2.73857E+03-2.64848E+01-2.24009E-09 4.33283E-09
 -1       409 2.90302E+03 3.86568E+05 6.17215E+03 2.82439E+02-3.03316E-10-4.09000E-09
 -1       410 8.46248E+03 3.84672E+05 1.25972E+04-2.72322E+02-2.88856E-09-2.30648E-09
 -1       521-3.13554E+07-7.59175E+06-9.92030E+06-2.79807E+05-1.36322E-07-2.45054E-07
 -1       522 2.62037E+07 4.05783E+06 5.58019E+06-1.82008E+07-5.86471E-07-5.61122E-07
 -1       523-7.82560E+06-1.38372E+06-5.26594E+05 5.60059E+06 9.13860E-09-5.18587E-07
 -1       524-7.07116E+06 1.15994E+07 2.38353E+06-2.33436E+07 9.04845E-07-8.74341E-07
 -1       525-1.28729E+07-2.44383E+06-2.05251E+06 5.60607E+06 7.53789E-07-5.12868E-07
 -1       526 3.98515E+07 6.79236E+04 7.35700E+06-1.19114E+07 5.76722E-07 1.61352E-07
 -1       527-3.31612E+07-8.11237E+06-9.54327E+06-4.45161E+06 3.95579E-07 4.45143E-08
 -1       528 4.92883E+07 1.53698E+07 1.08872E+07 2.57812E+07-1.36206E-08-1.37748E-07
 -1       529-1.84856E+07-1.92686E+07-8.49939E+06-1.24525E+07 3.04775E-07 2.14437E-07
 -1       530-3.66041E+06 3.35767E+07 5.94899E+06 1.06696E+07 5.86442E-09 3.47791E-07
 -1       531 1.12006E+06-1.09333E+07-4.89549E+05-2.78487E+06-7.24613E-07 3.21772E-07
 -1       532-1.98745E+07 2.41897E+07 2.36535E+06-1.23809E+07 4.37722E-07-7.03898E-07
 -1       533-1.06092E+06-1.34436E+07-2.00844E+06-4.10608E+06-1.36002E-07-9.59379E-07
 -1       534 4.61732E+06 3.57793E+07 7.05300E+06 1.65786E+07-8.39063E-08 7.64441E-07
 -1       535-2.33089E+07-1.94810E+07-1.09737E+07-1.26124E+07 9.89530E-08 4.63217E-07
 -1       536-7.02288E+05-4.73512E+04-4.46641E+04-5.41278E+04-7.05631E-09 5.29099E-08
 -1       537-5.85732E+04 4.55060E+04 8.48190E+04 1.22776E+05-1.18559E-07 8.42192E-08
 -1       538-3.94284E+05 3.11285E+03 4.24781E+03-7.16627E+04 2.88816E-08 1.08907E-07
 -1       539-2.70467E+05 3.01044E+03 2.50310E+04 1.37630E+05 1.57084E-07 9.09608E-08
 -1       540-4.95702E+05-4.32382E+02-2.08348E+04-6.95057E+04-1.72604E-08 1.05238E-07
 -1       541 1.39723E+05 1.67698E+04 1.05082E+05 9.70016E+04-6.49061E-08 1.02721E-07
 -1       542-7.93421E+05-1.98808E+04-8.30908E+04-3.01769E+04 2.45350E-08 5.08372E-08
 -1       543 3.94999E+05 2.69745E+04 1.55906E+05-1.32710E+04 1.86510E-08-1.13969E-08
 -1       544-7.44133E+05-1.63135E+04-7.38338E+04 4.01106E+04-4.03406E-09-5.17717E-08
 -1       545 2.34182E+04 9.33395E+03 7.87038E+04-1.12645E+05 1.91176E-08-9.80806E-08
 -1       546-4.31817E+05 6.03724E+03-1.20787E+04 6.88578E+04 3.03223E-08-9.83888E-08
 -1       547-2.88438E+05-4.66542E+03 1.03340E+04-1.40474E+05-1.23944E-07-1.07440E-07
 -1       548-4.40658E+05 4.70202E+03-2.37182E+04 6.86174E+04-1.03354E-07-1.00431E-07
 -1       549 4.25198E+04 1.55708E+04 5.93385E+04-1.10477E+05-6.56332E-08-8.27140E-08
 -1       550-7.53918E+05-2.16076E+04-1.27859E+05 3.81591E+04 3.82806E-09-3.83352E-08
 -1       551 4.07144E+04-7.67588E+05-1.45090E+04-1.24674E+06-1.02969E-07-1.81317E-08
 -1       552 9.28666E+04-8.12039E+05 1.07818E+04-1.77788E+06-7.32980E-08 1.94996E-08
 -1       553 7.13408E+04-8.08648E+05 3.26861E+04-1.24012E+06-1.18656E-07 2.41562E-08
 -1       554 1.31516E+05-8.27610E+05 8.19454E+04-1.77983E+06-7.18574E-08 9.72796E-09
 -1       555 1.01153E+05-8.32233E+05 1.49431E+05-1.23998E+06-1.22192E-07-1.75787E-08
 -1       556 2.21815E+05-3.80722E+05 2.88042E+04-4.05677E+05-1.56288E-08-1.33878E-08
 -1       557 3.52184E+05-4.84710E+05 1.76954E+04-5.25081E+05-1.09139E-09-7.97809E-09
 -1       558 2.03996E+05-3.74182E+05 3.03780E+03-4.09633E+05-2.37487E-08 3.82715E-09
 -1       559 3.27087E+05-4.85228E+05 2.77576E+03-5.45297E+05 2.20025E-08 8.82574E-09
 -1       560 1.88895E+05-3.64710E+05-1.31416E+03-4.20507E+05 1.00117E-08 1.77024E-08
 -1       561 3.08069E+05-4.77643E+05 2.11821E+02-5.58249E+05 4.46744E-09 2.10894E-08
 -1       562 1.76950E+05-3.57283E+05-1.26714E+03-4.29156E+05 5.90808E-09 1.02809E-08
 -1       563 2.93879E+05-4.71457E+05-1.59329E+01-5.67515E+05 2.00816E-09-2.04691E-08
 -1       564 1.68431E+05-3.51974E+05-5.80611E+02-4.35193E+05 3.75439E-09 1.59935E-09
 -1       565 2.84480E+05-4.67364E+05 2.92607E+01-5.73520E+05 1.18453E-08 3.48459E-08
 -1       566 1.63460E+05-3.48829E+05-2.52791E+02-4.38671E+05-7.48696E-09-1.70257E-08
 -1       567 2.79927E+05-4.65383E+05-3.57008E+02-5.76284E+05 1.11522E-08-6.97037E-09
 -1       568 1.62127E+05-3.48013E+05-1.11292E+03-4.39698E+05-2.34922E-09-1.73313E-08
 -1       569 2.78839E+05-4.65314E+05-2.81162E+03-5.74840E+05-6.67114E-09 2.56114E-09
 -1       570 1.65520E+05-3.51233E+05-6.14992E+03-4.38685E+05 9.47330E-09 2.04818E-09
 -1       571 2.89873E+05 1.04855E+04 1.49691E+04-9.46936E+04 3.62161E-09 1.68893E-08
 -1       572 2.92043E+05 3.94681E+03 7.33601E+03-1.03888E+05 7.23412E-09-7.07587E-10
 -1       573 2.90735E+05 1.23672E+03 3.25962E+03-9.45174E+04 4.56021E-09 4.46926E-09
 -1       574 2.90949E+05 7.18133E+02 1.63466E+03-1.04112E+05 1.95405E-09 3.24435E-08
 -1       575 2.90829E+05 4.40126E+02 7.71502E+02-9.44933E+04-5.42036E-09 1.81581E-08
 -1       576 2.90813E+05 4.50775E+02 3.94983E+02-1.04141E+05-1.06963E-08-4.01178E-09
 -1       577 2.90868E+05 3.82348E+02 1.97162E+02-9.44900E+04-6.93763E-09 2.29102E-09
 -1       578 2.90843E+05 4.13135E+02 1.13845E+02-1.04146E+05-4.99858E-09-3.67254E-09
 -1       579 2.90939E+05 3.46196E+02 7.81494E+01-9.44897E+04-5.10954E-09-1.05674E-08
 -1       580 2.90944E+05 3.62783E+02 9.05892E+01-1.04141E+05-2.81070E-08-1.35506E-08
 -1       581 2.91052E+05 2.88393E+02 1.36805E+02-9.44956E+04-1.42081E-08-2.12640E-09
 -1       582 2.91117E+05 3.26163E+02 2.78040E+02-1.04079E+05-1.53259E-08 3.53066E-09
 -1       583 2.91190E+05 3.31260E+02 5.33728E+02-9.45518E+04-7.20320E-09 2.28056E-10
 -1       584 2.91489E+05 7.66854E+02 1.20766E+03-1.03606E+05 4.65661E-09-1.19114E-08
 -1       585 2.91215E+05 1.78396E+03 2.44559E+03-9.49685E+04-1.44064E-09-3.84534E-09
 -1       586-3.41570E+03 1.16325E+05-2.93148E+03-2.50253E+05-7.13044E-09-4.12024E-09
 -1       587-1.32486E+03 1.16072E+05 7.57551E+02-2.75422E+05-4.43106E-09-3.40026E-09
 -1       588 4.10082E+02 1.15883E+05 4.74003E+03-2.50116E+05-1.04592E-09 2.03818E-08
 -1       589 5.08473E+03 1.18348E+05 1.23045E+04-2.75189E+05-4.00178E-09 2.22190E-09
 -1       590 1.65730E+04 1.14554E+05 2.58153E+04-2.50546E+05-4.61750E-09 2.37778E-08
 -1       591-7.46437E+04-1.59482E+04-2.24553E+04-3.18727E+04-1.70894E-09-2.73212E-09
 -1       592-7.87013E+04-1.95124E+04-1.21636E+04-3.55069E+04 8.89209E-09-2.03509E-08
 -1       593-7.68897E+04-1.43186E+04-5.06310E+03-3.35190E+04 2.78781E-09-1.68375E-08
 -1       594-7.56006E+04-1.62176E+04-2.52510E+03-3.56246E+04 6.61800E-11 8.02387E-09
 -1       595-7.70609E+04-1.43132E+04-1.15929E+03-3.35938E+04-7.86839E-09 1.13560E-08
 -1       596-7.53884E+04-1.60669E+04-5.89132E+02-3.55994E+04-2.72414E-09-6.30109E-09
 -1       597-7.70824E+04-1.43285E+04-3.20390E+02-3.35967E+04 1.05729E-10-1.07597E-08
 -1       598-7.53674E+04-1.60610E+04-2.56804E+02-3.55923E+04-7.70768E-09-9.19917E-09
 -1       599-7.70811E+04-1.43290E+04-3.27100E+02-3.35963E+04 1.10140E-09-1.65780E-08
 -1       600-7.53884E+04-1.60675E+04-6.06896E+02-3.55973E+04 4.82163E-09-2.54313E-08
 -1       601-7.70565E+04-1.43146E+04-1.19688E+03-3.35928E+04 4.38831E-10-2.03991E-08
 -1       602-7.56075E+04-1.62219E+04-2.60828E+03-3.56194E+04-2.48201E-09-3.31669E-08
 -1       603-7.68769E+04-1.43230E+04-5.23057E+03-3.35164E+04-2.62071E-09-3.72484E-09
 -1       604-7.88282E+04-1.96061E+04-1.25650E+04-3.54731E+04 4.17236E-09-2.42765E-08
 -1       605-7.45368E+04-1.60242E+04-2.31966E+04-3.18350E+04 3.64173E-09 1.02555E-08
 -1       606 2.67983E+04-1.42930E+04-2.56231E+04 2.41190E+04 4.91855E-09-7.40056E-09
 -1       607 2.24201E+04-4.66766E+03-1.27602E+04 2.71040E+04-1.95723E-09-1.76778E-08
 -1       608 2.49151E+04-8.41679E+02-5.71234E+03 2.39488E+04-4.85852E-09-6.96832E-09
 -1       609 2.44366E+04-2.87793E+02-2.88571E+03 2.73191E+04 3.07045E-09 2.30602E-09
 -1       610 2.47017E+04-4.02256E+01-1.37683E+03 2.39286E+04 1.85173E-09 4.18981E-09
 -1       611 2.46264E+04-4.02433E+01-6.94186E+02 2.73423E+04 5.75892E-09 1.84107E-08
 -1       612 2.46545E+04-2.63838E+01-3.30027E+02 2.39266E+04 2.64299E-09-7.16022E-09
 -1       613 2.46377E+04-3.60078E+01-1.47882E+02 2.73451E+04 5.78893E-09-1.54616E-08
 -1       614 2.46321E+04-3.26511E+01-3.46686E+01 2.39259E+04 1.00590E-09-2.65049E-09
 -1       615 2.46322E+04-3.44017E+01 6.20176E+01 2.73455E+04-3.12866E-10-4.29986E-09
 -1       616 2.46146E+04-2.94356E+01 1.85934E+02 2.39261E+04 4.52928E-09-8.01515E-09
 -1       617 2.46544E+04 5.31534E+00 4.24210E+02 2.73450E+04-2.15732E-09 7.50356E-09
 -1       618 2.45777E+04 9.29284E+01 8.55057E+02 2.39264E+04 1.05811E-08-5.85487E-10
 -1       619 2.49561E+04 6.66505E+02 1.92010E+03 2.73444E+04 2.03263E-08 9.47011E-09
 -1       620 2.42936E+04 2.12054E+03 3.85934E+03 2.39279E+04 1.13976E-08 2.00585E-08
 -1       621 5.07056E+02 3.00832E+05 3.87233E+03 4.05763E+04 9.49967E-10-1.44792E-09
 -1       622 6.70557E+02 3.01727E+05 3.43701E+03 5.89094E+04 1.27238E-09 6.40148E-09
 -1       623 1.39305E+02 3.01027E+05 4.13092E+03 4.03926E+04 1.50339E-09 5.24778E-10
 -1       624 2.11577E+03 3.02943E+05 8.00873E+03 5.90902E+04 1.32559E-09-1.36522E-08
 -1       625 2.06858E+03 2.99439E+05 1.39952E+04 4.03895E+04 1.47247E-09-3.76713E-09
 -1       626 2.60334E+05 6.14097E+04 5.11622E+03 1.26637E+05 7.30142E-09-1.17980E-08
 -1       627 2.58008E+05 6.28161E+04 2.46547E+03 1.30918E+05 1.51231E-08-6.18934E-09
 -1       628 2.60462E+05 5.90681E+04 1.04270E+03 1.27506E+05 4.62478E-09-3.84966E-09
 -1       629 2.57372E+05 6.21376E+04 5.10355E+02 1.31159E+05-4.77485E-09-1.70168E-08
 -1       630 2.60477E+05 5.89550E+04 2.36827E+02 1.27542E+05-9.32687E-10 8.77179E-09
 -1       631 2.57305E+05 6.21119E+04 1.27564E+02 1.31161E+05 6.30462E-09 1.24210E-08
 -1       632 2.60473E+05 5.89590E+04 8.41528E+01 1.27538E+05 1.21854E-08 1.13318E-08
 -1       633 2.57296E+05 6.21137E+04 9.40681E+01 1.31157E+05 6.00107E-09 1.21461E-08
 -1       634 2.60468E+05 5.89563E+04 1.52301E+02 1.27537E+05-1.12519E-08-2.17947E-08
 -1       635 2.57310E+05 6.21121E+04 3.08356E+02 1.31163E+05-2.23281E-09-2.57933E-09
 -1       636 2.60459E+05 5.89505E+04 6.22814E+02 1.27537E+05 2.86491E-11-2.81761E-09
 -1       637 2.57445E+05 6.22089E+04 1.36946E+03 1.31162E+05-1.70803E-09-1.03682E-10
 -1       638 2.60411E+05 5.92530E+04 2.81374E+03 1.27400E+05-3.50155E-10 1.19535E-08
 -1       639 2.58923E+05 6.42646E+04 6.65744E+03 1.30727E+05 8.37917E-09 4.67776E-09
 -1       640 2.60206E+05 6.53914E+04 1.38153E+04 1.24814E+05 4.37558E-09 7.94284E-09
 -1       656 6.64866E+04-1.70133E+06-1.60494E+05-2.51002E+03-8.65839E-10-4.01769E-09
 -1       657-8.79549E+04-1.77385E+06-1.32958E+05 5.23498E+03-1.35606E-09-1.31350E-08
 -1       658 2.11926E+04-1.72193E+06-8.18822E+04-4.59229E+03-5.57520E-10-3.03828E-11
 -1       659-9.51021E+04-1.77725E+06-1.42350E+05 6.96037E+03-2.35923E-09 6.98126E-09
 -1       660 7.36179E+04-1.69795E+06-1.76642E+05-4.23539E+03-2.39379E-09-6.52770E-09
 -1       661 1.59277E+05 1.66791E+04 1.67652E+04 6.22652E+04-3.98359E-09-3.64798E-09
 -1       662 1.68746E+05 2.91045E+04 1.12985E+04 5.85153E+04 9.09495E-11-1.10564E-08
 -1       663 1.62570E+05 2.20576E+04 3.95153E+03 6.13095E+04-1.75521E-09-8.50491E-09
 -1       664 1.64928E+05 2.28147E+04 2.36382E+03 5.96827E+04-2.53817E-09-6.99558E-09
 -1       665 1.63070E+05 2.27922E+04 9.32509E+02 6.11637E+04 2.09053E-09-2.18013E-08
 -1       666 1.64337E+05 2.19747E+04 5.45820E+02 5.98729E+04 1.32143E-08-1.07892E-08
 -1       667 1.63158E+05 2.28757E+04 2.90070E+02 6.11272E+04 8.17522E-10 1.41304E-08
 -1       668 1.64240E+05 2.19147E+04 2.95930E+02 5.99261E+04-4.67445E-09-1.00319E-08
 -1       669 1.63166E+05 2.28505E+04 4.00943E+02 6.11108E+04-3.16342E-09 2.64302E-09
 -1       670 1.64337E+05 2.21325E+04 8.73342E+02 5.99291E+04-6.52528E-09-1.38281E-08
 -1       671 1.63060E+05 2.26625E+04 1.55078E+03 6.11221E+04-2.74134E-10 4.76280E-09
 -1       672 1.65241E+05 2.36413E+04 3.96770E+03 5.97102E+04 9.20959E-09 3.85921E-09
 -1       673 1.62266E+05 2.13799E+04 6.64926E+03 6.13151E+04 4.57271E-09-1.01300E-08
 -1       674 1.71569E+05 3.43241E+04 1.90155E+04 5.78510E+04-1.48214E-09 8.93579E-09
 -1       675 1.56772E+05 1.22789E+04 2.82257E+04 6.28691E+04-7.79892E-10-4.03816E-10
 -1       676 2.41113E+01-2.95829E+05-1.11376E+03-1.34100E+02 1.68293E-09-7.58402E-09
 -1       677-2.94673E+02-2.96099E+05-2.03837E+03 2.67984E+02 9.53682E-09-9.22753E-10
 -1       678 1.97597E+02-2.95637E+05-3.60333E+03-1.33796E+02-9.96579E-10-1.24017E-09
 -1       679-3.60345E+03-2.98274E+05-8.56002E+03 2.66827E+02 5.81997E-09 7.68782E-09
 -1       680 2.15143E+03-2.93655E+05-1.37958E+04-1.31464E+02 3.02407E-09-1.31817E-09
 -1       771-3.06352E+06-7.44443E+05-1.62606E+05-1.46417E+06-3.08210E-08-2.68046E-08
 -1       772-2.98681E+06-8.32495E+05-8.38189E+04-1.56597E+06-2.26428E-08 1.32750E-08
 -1       773-3.09452E+06-7.20255E+05-4.27572E+04-1.47835E+06-1.78115E-08 5.13683E-09
 -1       774-2.97745E+06-8.14430E+05-1.90694E+04-1.59140E+06 2.94676E-08 3.47427E-09
 -1       775-3.11072E+06-7.08873E+05-1.42823E+04-1.48525E+06 3.25963E-09 2.11003E-09
 -1       776-2.98956E+06-8.11486E+05-5.33775E+03-1.61062E+06-9.73523E-09-1.04774E-09
 -1       777-3.12478E+06-6.98718E+05-6.31639E+03-1.49135E+06 5.82077E-10 2.72121E-09
 -1       778-3.00221E+06-8.08742E+05-1.78450E+03-1.62714E+06 4.59841E-09 7.15954E-09
 -1       779-3.13687E+06-6.89848E+05-3.15850E+03-1.49656E+06-2.77942E-09-7.71979E-09
 -1       780-3.01336E+06-8.06121E+05-5.24022E+02-1.64060E+06-7.27596E-10-8.98945E-09
 -1       781-3.14648E+06-6.82699E+05-1.22883E+03-1.50064E+06-2.12312E-08 1.76806E-09
 -1       782-3.02194E+06-8.03894E+05 4.38594E+02-1.65052E+06-3.66999E-08-6.48288E-09
 -1       783-3.15324E+06-6.77733E+05 6.80693E+02-1.50349E+06-1.05065E-08-1.95469E-08
 -1       784-3.02670E+06-8.01665E+05 2.83524E+03-1.65665E+06-2.05473E-08-1.97269E-09
 -1       785-3.15724E+06-6.74774E+05 5.00332E+03-1.50530E+06-3.45935E-08 1.19708E-08
 -1       786 1.24715E+05-9.79929E+03 2.26716E+04-3.20264E+02 3.35646E-09 1.52004E-08
 -1       787 1.34548E+05 1.13454E+04 1.60392E+04-1.33899E+02 3.96969E-09 1.02930E-08
 -1       788 1.28506E+05-1.53559E+03 5.86567E+03-2.85171E+02 4.67111E-09 1.92153E-08
 -1       789 1.30131E+05 1.77738E+03 3.68230E+03-1.87699E+02 3.00793E-09 3.31164E-09
 -1       790 1.29133E+05-2.39103E+02 1.49102E+03-2.66480E+02-5.37432E-09 6.94138E-09
 -1       791 1.29399E+05 2.76654E+02 8.61402E+02-2.19686E+02-8.63544E-09 2.83348E-08
 -1       792 1.29239E+05-3.59785E+01 3.65477E+02-2.53187E+02-3.95092E-09 2.62937E-08
 -1       793 1.29273E+05 3.82157E+01 1.83184E+02-2.44706E+02-1.76066E-10-7.86122E-09
 -1       794 1.29259E+05-8.15684E-01 4.95874E+01-2.41460E+02 6.44265E-09 3.36464E-09
 -1       795 1.29236E+05-2.58801E+01-5.27100E+01-2.69206E+02-5.66732E-09-2.16490E-09
 -1       796 1.29275E+05 2.80815E+01-1.54219E+02-2.28687E+02 3.78651E-09 2.98890E-09
 -1       797 1.29146E+05-2.09835E+02-4.25858E+02-2.98583E+02 3.44716E-09 1.74024E-08
 -1       798 1.29350E+05 1.83001E+02-6.92286E+02-2.12083E+02 2.16765E-09-7.76450E-09
 -1       799 1.28620E+05-1.34885E+03-1.90516E+03-3.39713E+02 5.97516E-09 6.11388E-09
 -1       800 1.29801E+05 1.16617E+03-2.69637E+03-1.87558E+02 4.31204E-10 7.08837E-09
 -1       801-1.64246E+05-9.86576E+06-1.37136E+06 1.38270E+06 9.17062E-08-5.75128E-08
 -1       802 7.17649E+05 5.73914E+06 2.12871E+06-1.70343E+06 2.55211E-07-3.89819E-08
 -1       803-5.24418E+05-1.40216E+07-1.84836E+06 8.78897E+05 7.64230E-08 2.50693E-08
 -1       804 2.79037E+05 2.24815E+06 1.49928E+06 6.65757E+05-1.18529E-07-8.98526E-08
 -1       805 1.86577E+05-6.38911E+06-2.78945E+05-9.80938E+05-4.93601E-08-6.21649E-08
 -1       806-3.08343E+05-5.96663E+04-2.28151E+04-1.22205E+05-1.03614E-08-8.60655E-09
 -1       807-3.10137E+05-5.59436E+04-1.12088E+04-1.27743E+05 6.56837E-09 1.81849E-08
 -1       808-3.08970E+05-5.14440E+04-4.75513E+03-1.26092E+05-4.62978E-09-1.50789E-08
 -1       809-3.07780E+05-5.27942E+04-2.32514E+03-1.28018E+05-5.42877E-09 6.09532E-09
 -1       810-3.09064E+05-5.11577E+04-1.06574E+03-1.26264E+05 7.06177E-09-3.72961E-09
 -1       811-3.07598E+05-5.26677E+04-5.30005E+02-1.27983E+05-3.77895E-10-1.07757E-08
 -1       812-3.09078E+05-5.11824E+04-2.68116E+02-1.26264E+05-4.23006E-09 1.85673E-09
 -1       813-3.07573E+05-5.26699E+04-1.74359E+02-1.27964E+05-5.37011E-09 7.18683E-09
 -1       814-3.09071E+05-5.11921E+04-1.72967E+02-1.26259E+05-1.89448E-09-9.09267E-09
 -1       815-3.07576E+05-5.26722E+04-2.78840E+02-1.27957E+05-2.99588E-09 2.22437E-08
 -1       816-3.09050E+05-5.11912E+04-5.28595E+02-1.26256E+05-3.35604E-10 2.36714E-08
 -1       817-3.07666E+05-5.27226E+04-1.13447E+03-1.27945E+05-1.72627E-08 4.31992E-08
 -1       818-3.08981E+05-5.13514E+04-2.31395E+03-1.26180E+05-9.73250E-09-5.10317E-09
 -1       819-3.08932E+05-5.41204E+04-5.44455E+03-1.27645E+05 5.95128E-09-1.27548E-08
 -1       820-3.08545E+05-5.54643E+04-1.10817E+04-1.24423E+05 4.10364E-09 2.20691E-08
 -1       821-3.78569E+05 2.08488E+04-4.85208E+04 2.09235E+03 1.40093E-08-8.80391E-10
 -1       822-3.98299E+05-2.41516E+04-3.41080E+04-4.39531E+03 4.71469E-09 1.74859E-08
 -1       823-3.86047E+05 3.28601E+03-1.25335E+04 3.37482E+03-1.17826E-08 2.58979E-09
 -1       824-3.89281E+05-3.78975E+03-7.84655E+03-5.28190E+03 1.23183E-09 3.41606E-09
 -1       825-3.87594E+05 5.10735E+02-3.28420E+03 2.97905E+03 2.09072E-08 1.94859E-09
 -1       826-3.86878E+05-5.67912E+02-1.74863E+03-3.04122E+03 2.68144E-08-5.19938E-09
 -1       827-3.88426E+05 4.82082E+01-1.18320E+03 1.13400E+03 1.06033E-08-8.16655E-09
 -1       828-3.86191E+05-1.33628E+02-5.95666E+02 1.08052E+03-3.01844E-09 1.09466E-09
 -1       829-3.88268E+05 6.67925E+01-1.17283E+03-1.14272E+03 3.08648E-09 2.08277E-08
 -1       830-3.87220E+05-6.21520E+02-1.88514E+03 4.80048E+03 2.56119E-09 4.37009E-08
 -1       831-3.87419E+05 5.53158E+02-3.36664E+03-2.58597E+03-4.96809E-09 1.27238E-08
 -1       832-3.89362E+05-3.95526E+03-8.14885E+03 6.05542E+03-4.74217E-09 3.85023E-09
 -1       833-3.86142E+05 3.40966E+03-1.30361E+04-2.39770E+03-4.05362E-09 2.18897E-08
 -1       834-3.98367E+05-2.50636E+04-3.53308E+04 4.11581E+03-2.66405E-09-4.98403E-10
 -1       835-3.78397E+05 2.16292E+04-5.03878E+04-6.46289E+02 5.85135E-09 2.32831E-09
 -1       836-1.41023E+03 3.69502E+05 2.28574E+04-1.62561E+04-6.89306E-09 2.67028E-09
 -1       837 4.87393E+03 3.76661E+05 1.93412E+04-3.32049E+04-7.53505E-09-2.41198E-09
 -1       838-5.56294E+02 3.71509E+05 1.97056E+04-1.61845E+04-6.31962E-09 6.53358E-09
 -1       839 1.24024E+04 3.82267E+05 3.72763E+04-3.32572E+04-6.67978E-09 1.88238E-08
 -1       840-3.83353E+03 3.63836E+05 5.94416E+04-1.62096E+04-5.88625E-09 9.70006E-09
 -1       856-5.29126E+04 8.04070E+03-2.11890E+04-3.98635E+02 5.15308E-09 6.96491E-09
 -1       857-6.16423E+04-9.44722E+03-1.45863E+04 5.63248E+03 6.03870E-09-1.87238E-08
 -1       858-5.63696E+04 1.12761E+03-5.49805E+03-4.22841E+02 2.24634E-09-5.72390E-09
 -1       859-5.76750E+04-1.32626E+03-3.31785E+03 5.66854E+03-2.03306E-09 3.50303E-09
 -1       860-5.68861E+04 1.57897E+02-1.39057E+03-4.34437E+02-1.10589E-09-1.21947E-08
 -1       861-5.70809E+04-1.88188E+02-7.65100E+02 5.68434E+03 2.19268E-09 4.32071E-09
 -1       862-5.69669E+04 2.13785E+01-3.18281E+02-4.38618E+02-6.51768E-09 1.69848E-09
 -1       863-5.69819E+04-2.16443E+01-1.16483E+02 5.68676E+03-8.20875E-09-3.67416E-09
 -1       864-5.69856E+04-4.85824E+00 4.60747E+01-4.36856E+02-3.57204E-09 2.87345E-09
 -1       865-5.69264E+04 5.94446E+01 2.53039E+02 5.67672E+03-2.54367E-09 9.70396E-09
 -1       866-5.70202E+04-5.97400E+01 5.10569E+02-4.28580E+02-1.06121E-09-6.70866E-10
 -1       867-5.66860E+04 4.93384E+02 1.25713E+03 5.65425E+03-8.10104E-10-9.77707E-11
 -1       868-5.72210E+04-4.30994E+02 2.08906E+03-4.14384E+02-6.45628E-10-8.19273E-09
 -1       869-5.51543E+04 3.58693E+03 5.56265E+03 5.61726E+03-5.54223E-11-1.52993E-08
 -1       870-5.85442E+04-3.06931E+03 8.07260E+03-3.91488E+02-6.49459E-09-8.31051E-09
 -1       871-5.51573E+03-2.11770E+04-1.94503E+04 1.30129E+05-4.33283E-09 2.13950E-08
 -1       872-1.98902E+03-2.56971E+04-8.14168E+03 1.68731E+05-1.04146E-08 1.00877E-08
 -1       873 3.96203E+02-2.35124E+04 5.95161E+02 1.29842E+05-5.33282E-09 1.36058E-08
 -1       874 3.29218E+03-2.11007E+04 9.77452E+03 1.68761E+05-1.18889E-08 1.63607E-08
 -1       875 6.83260E+03-2.58407E+04 2.20454E+04 1.30081E+05-5.58066E-09 4.96948E-09
 -1       876 2.93438E+05 4.94702E+04 1.50896E+04 1.17774E+05 4.67014E-09-1.66710E-08
 -1       877 2.94434E+05 5.26498E+04 8.05845E+03 1.22104E+05 1.14978E-08 3.04146E-09
 -1       878 2.94850E+05 4.77987E+04 3.37609E+03 1.19010E+05-8.99399E-09 7.42307E-09
 -1       879 2.92383E+05 5.06028E+04 1.68218E+03 1.22206E+05-3.95858E-10-3.63707E-09
 -1       880 2.94951E+05 4.77814E+04 7.83534E+02 1.19061E+05-2.63663E-09 8.31574E-09
 -1       881 2.92247E+05 5.05152E+04 4.18431E+02 1.22183E+05-1.11368E-08 1.99591E-08
 -1       882 2.94960E+05 4.77947E+04 2.67704E+02 1.19062E+05-8.25366E-10 2.18682E-08
 -1       883 2.92237E+05 5.05107E+04 2.87823E+02 1.22175E+05-6.59384E-12 2.31803E-08
 -1       884 2.94953E+05 4.77919E+04 4.57883E+02 1.19062E+05 7.42375E-10-1.17950E-08
 -1       885 2.92274E+05 5.05170E+04 9.20614E+02 1.22186E+05-1.41885E-09-4.42515E-09
 -1       886 2.94917E+05 4.77650E+04 1.85546E+03 1.19059E+05-2.70130E-09 3.49360E-09
 -1       887 2.92600E+05 5.07308E+04 4.05300E+03 1.22233E+05 8.61519E-09 2.37759E-08
 -1       888 2.94661E+05 4.78102E+04 8.16691E+03 1.18929E+05 3.86805E-09 1.61144E-08
 -1       889 2.97462E+05 5.57870E+04 1.95092E+04 1.22084E+05 4.83364E-09 4.54293E-10
 -1       890 2.91328E+05 5.17697E+04 3.65403E+04 1.15821E+05 3.14685E-09 9.69703E-09
 -1       891-9.07245E+01-1.62640E+05-1.99416E+03 2.71771E+04 4.17231E-10 4.01837E-09
 -1       892-1.77429E+02-1.63166E+05-2.14195E+03 4.12672E+04 3.45062E-09-2.00998E-09
 -1       893 4.21329E+01-1.62704E+05-3.03294E+03 2.71845E+04-2.09070E-09 9.43101E-09
 -1       894-1.51095E+03-1.64312E+05-6.27717E+03 4.11146E+04 2.00544E-09-1.09867E-09
 -1       895-1.19972E+03-1.61396E+05-1.10541E+04 2.73315E+04 7.89214E-10 1.52249E-08
 -1       956-3.76701E+05-5.44007E+03-1.34347E+04 3.07294E+04 8.13998E-10-1.91967E-08
 -1       957-3.79338E+05-1.91721E+03-6.89584E+03 3.69301E+04-1.91494E-09-1.77620E-08
 -1       958-3.77908E+05-2.38394E+02-3.10748E+03 3.05620E+04-2.85581E-09-2.92675E-09
 -1       959-3.78105E+05-1.33470E+02-1.58673E+03 3.71251E+04 6.59384E-09 1.06547E-09
 -1       960-3.78026E+05-4.26262E+01-7.73766E+02 3.05448E+04 7.45877E-09 1.46508E-08
 -1       961-3.78025E+05-6.05958E+01-4.10246E+02 3.71455E+04 1.57063E-08 4.05475E-09
 -1       962-3.78054E+05-4.38899E+01-2.34877E+02 3.05419E+04 5.13273E-09-8.61314E-09
 -1       963-3.78025E+05-5.64292E+01-1.88552E+02 3.71491E+04 5.91172E-10 1.24146E-09
 -1       964-3.78059E+05-4.05381E+01-2.29294E+02 3.05411E+04 7.76467E-10-4.40195E-10
 -1       965-3.78037E+05-5.34497E+01-3.96585E+02 3.71484E+04-3.36871E-09-1.01613E-08
 -1       966-3.78043E+05-3.26653E+01-7.45168E+02 3.05426E+04 5.39467E-09-3.73802E-09
 -1       967-3.78127E+05-1.16844E+02-1.52833E+03 3.71341E+04 3.23439E-09 1.92856E-08
 -1       968-3.77939E+05-2.14829E+02-2.99191E+03 3.05552E+04 2.19188E-09 1.75925E-08
 -1       969-3.79326E+05-1.82932E+03-6.64197E+03 3.69864E+04 3.23098E-09 3.63616E-09
 -1       970-3.76785E+05-5.22103E+03-1.29389E+04 3.06820E+04-8.57654E-10 1.22664E-08
 -1       971-3.45068E+05-1.72705E+03-9.31272E+03 1.53803E+04 9.10404E-09 5.35506E-09
 -1       972-3.47310E+05-1.27082E+03-5.07160E+03 2.12753E+04 1.21199E-08 2.18956E-08
 -1       973-3.46106E+05-6.10970E+01-2.27162E+03 1.52590E+04 4.12092E-09-7.97741E-09
 -1       974-3.46241E+05-7.97456E+01-1.17752E+03 2.14125E+04-1.17100E-08-8.45512E-09
 -1       975-3.46188E+05-1.61958E+01-5.89040E+02 1.52466E+04-3.55976E-09 1.21978E-08
 -1       976-3.46180E+05-2.98741E+01-3.40627E+02 2.14282E+04 7.81483E-10-2.15508E-08
 -1       977-3.46204E+05-1.54434E+01-2.48646E+02 1.52432E+04-3.45813E-09 5.29576E-09
 -1       978-3.46185E+05-2.36422E+01-2.92908E+02 2.14331E+04-7.13976E-09-8.74297E-09
 -1       979-3.46204E+05-6.96877E+00-4.72281E+02 1.52418E+04-1.37402E-09 1.34864E-08
 -1       980-3.46220E+05-2.05808E+01-9.12962E+02 2.14341E+04-6.86987E-09 1.27484E-08
 -1       981-3.46175E+05 1.58488E+01-1.76875E+03 1.52423E+04 3.89696E-09 9.37536E-09
 -1       982-3.46463E+05-1.51277E+02-3.65627E+03 2.14275E+04 3.03862E-09-1.16360E-08
 -1       983-3.45952E+05-9.74178E+01-7.10432E+03 1.52484E+04-5.42968E-10 9.76343E-10
 -1       984-3.49880E+05-3.86167E+03-1.59099E+04 2.13418E+04 5.83350E-09-4.71732E-09
 -1       985-3.42735E+05-5.29593E+03-2.92155E+04 1.53201E+04 2.60115E-09 5.09317E-10
 -3
    1PSTEP                        45          23           1          
  100CL  123 6.63423E-01         409                     0   23           1
 -4  DISP        4    1
 -5  D1          1    2    1    0
 -5  D2          1    2    2    0
 -5  D3          1    2    3    0
 -5  ALL         1    2    0    0    1ALL
 -1         1 2.67861E-03 0.00000E+00 0.00000E+00
 -1         2 1.53696E-03 9.65357E-28-2.64698E-23
 -1         3 3.42160E-04-6.80362E-28 0.00000E+00
 -1         5 1.76987E-04-8.87619E-28-8.27181E-25
 -1         8 2.66684E-03-4.18314E-07 0.00000E+00
 -1         9 2.64427E-03-1.30052E-04 0.00000E+00
 -1        10 3.10220E-04-3.47767E-06 6.61744E-24
 -1        12 1.78814E-04 8.09228E-07-8.27181E-25
 -1        15 2.65301E-03-4.45343E-07 0.00000E+00
 -1        16 2.70354E-03-1.31759E-04 0.00000E+00
 -1        17 2.11122E-04-7.91326E-06 0.00000E+00
 -1        18 1.82704E-04 3.41695E-05 0.00000E+00
 -1        19 1.84297E-04 1.61208E-06 0.00000E+00
 -1        20 1.84437E-04-9.63626E-06 0.00000E+00
 -1        21 1.83545E-04-2.49076E-05 3.30872E-24
 -1        24 3.06768E-05-1.21502E-05 0.00000E+00
 -1        25 1.93391E-04 3.43951E-05 0.00000E+00
 -1        26 1.94076E-04 2.23239E-06 0.00000E+00
 -1        27 1.91875E-04-1.31952E-05 0.00000E+00
 -1        28 1.91557E-04-2.55300E-05 0.00000E+00
 -1        32 0.00000E+00 0.00000E+00 0.00000E+00
 -1        33 2.02846E-04 2.98639E-06 0.00000E+00
 -1        34 2.00728E-04-1.32511E-05 0.00000E+00
 -1        35 1.98795E-04-2.58725E-05 0.00000E+00
 -1        51 2.67784E-03-8.66959E-08-3.30872E-24
 -1        52 2.67641E-03-1.55225E-07 0.00000E+00
 -1        53 2.67446E-03-2.20414E-07 0.00000E+00
 -1        54 2.67212E-03-2.84510E-07 0.00000E+00
 -1        55 2.66954E-03-3.49273E-07 2.89513E-24
 -1        56 2.67164E-03 6.74471E-06 0.00000E+00
 -1        57 2.65858E-03 2.85887E-05-5.29396E-23
 -1        58 2.64120E-03 6.11037E-05-1.05879E-22
 -1        59 2.62162E-03 9.88288E-05 5.29396E-23
 -1        60 2.60253E-03 1.35408E-04 1.05879E-22
 -1        61 2.58649E-03 1.64574E-04-5.29396E-23
 -1        62 2.57540E-03 1.81382E-04 0.00000E+00
 -1        63 2.57057E-03 1.81984E-04-5.29396E-23
 -1        64 2.57203E-03 1.65488E-04-1.05879E-22
 -1        65 2.57923E-03 1.32593E-04 0.00000E+00
 -1        66 2.59067E-03 8.70721E-05 1.05879E-22
 -1        67 2.60459E-03 3.39142E-05 5.29396E-23
 -1        68 2.61890E-03-2.04321E-05 1.05879E-22
 -1        69 2.63149E-03-6.93958E-05 0.00000E+00
 -1        70 2.64046E-03-1.07442E-04 5.29396E-23
 -1        86 1.60600E-03-4.36193E-06 0.00000E+00
 -1        87 1.80723E-03-2.60930E-05 0.00000E+00
 -1        88 2.07811E-03-6.31451E-05 2.64698E-23
 -1        89 2.35282E-03-1.01252E-04 1.32349E-23
 -1        90 2.56335E-03-1.24794E-04 5.29396E-23
 -1       121 3.41263E-04-5.61889E-07 0.00000E+00
 -1       122 3.38576E-04-1.12687E-06 6.61744E-24
 -1       123 3.34107E-04-1.69797E-06 0.00000E+00
 -1       124 3.27875E-04-2.27823E-06 0.00000E+00
 -1       125 3.19902E-04-2.87029E-06 1.32349E-23
 -1       191 1.77038E-04 1.34934E-07-2.48154E-24
 -1       192 1.77190E-04 2.69856E-07-8.27181E-25
 -1       193 1.77444E-04 4.04759E-07 1.65436E-24
 -1       194 1.77799E-04 5.39631E-07 0.00000E+00
 -1       195 1.78256E-04 6.74458E-07-2.48154E-24
 -1       251 2.66643E-03 1.29568E-05 0.00000E+00
 -1       252 2.66551E-03 4.82378E-05 3.30872E-24
 -1       253 2.66402E-03 9.81469E-05-6.61744E-24
 -1       254 2.66215E-03 1.55214E-04 0.00000E+00
 -1       255 2.66040E-03 2.09997E-04 0.00000E+00
 -1       256 2.65920E-03 2.53084E-04-3.30872E-24
 -1       257 2.65856E-03 2.78252E-04 1.32349E-23
 -1       258 2.65824E-03 2.79516E-04-3.30872E-24
 -1       259 2.65767E-03 2.57082E-04 1.32349E-23
 -1       260 2.65634E-03 2.11490E-04 0.00000E+00
 -1       261 2.65418E-03 1.49298E-04-1.32349E-23
 -1       262 2.65138E-03 7.72784E-05-6.61744E-24
 -1       263 2.64855E-03 4.89208E-06 0.00000E+00
 -1       264 2.64631E-03-5.83942E-05 6.61744E-24
 -1       265 2.64491E-03-1.05628E-04 0.00000E+00
 -1       266 2.66454E-03-4.28681E-07 0.00000E+00
 -1       267 2.66223E-03-4.32471E-07 0.00000E+00
 -1       268 2.65993E-03-4.36678E-07 8.27181E-25
 -1       269 2.65762E-03-4.39651E-07 0.00000E+00
 -1       270 2.65532E-03-4.42595E-07 0.00000E+00
 -1       271 2.66564E-03 8.75341E-07 1.32349E-23
 -1       272 2.66500E-03 6.20042E-07 0.00000E+00
 -1       273 2.66493E-03-1.15559E-06 2.64698E-23
 -1       274 2.66541E-03-4.41900E-06 0.00000E+00
 -1       275 2.66643E-03-9.12251E-06 0.00000E+00
 -1       276 2.66795E-03-1.52079E-05 0.00000E+00
 -1       277 2.66996E-03-2.26048E-05 0.00000E+00
 -1       278 2.67242E-03-3.12319E-05-1.32349E-23
 -1       279 2.67529E-03-4.09977E-05-2.64698E-23
 -1       280 2.67854E-03-5.18012E-05 0.00000E+00
 -1       281 2.68213E-03-6.35321E-05 2.64698E-23
 -1       282 2.68601E-03-7.60730E-05 1.32349E-23
 -1       283 2.69014E-03-8.92992E-05 2.64698E-23
 -1       284 2.69447E-03-1.03080E-04 0.00000E+00
 -1       285 2.69895E-03-1.17280E-04 1.32349E-23
 -1       301 2.65508E-03-1.30369E-04-6.61744E-24
 -1       302 2.66431E-03-1.30642E-04 6.61744E-24
 -1       303 2.67288E-03-1.30907E-04-1.32349E-23
 -1       304 2.68167E-03-1.31171E-04 6.61744E-24
 -1       305 2.69160E-03-1.31448E-04 0.00000E+00
 -1       306 2.68183E-03-2.83036E-04 0.00000E+00
 -1       307 2.74576E-03-6.95010E-04 1.58819E-22
 -1       308 2.79270E-03-1.29888E-03 0.00000E+00
 -1       309 2.81646E-03-1.99964E-03-5.29396E-23
 -1       310 2.84714E-03-2.67223E-03 1.05879E-22
 -1       311 2.90605E-03-3.19404E-03-5.29396E-23
 -1       312 2.96472E-03-3.48418E-03-2.11758E-22
 -1       313 2.96347E-03-3.50356E-03-5.29396E-23
 -1       314 2.82897E-03-3.26292E-03 0.00000E+00
 -1       315 2.51967E-03-2.82539E-03-5.29396E-23
 -1       316 2.05244E-03-2.26714E-03-1.05879E-22
 -1       317 1.49154E-03-1.65779E-03 5.29396E-23
 -1       318 9.50041E-04-1.05868E-03 0.00000E+00
 -1       319 5.35237E-04-5.35104E-04 5.29396E-23
 -1       320 2.91194E-04-1.60775E-04 1.05879E-22
 -1       336 2.98642E-04-4.14885E-06 0.00000E+00
 -1       337 2.84994E-04-4.84565E-06-6.61744E-24
 -1       338 2.69338E-04-5.57022E-06 1.32349E-23
 -1       339 2.51750E-04-6.32330E-06-6.61744E-24
 -1       340 2.32314E-04-7.10935E-06 0.00000E+00
 -1       406 1.79474E-04 9.43922E-07 3.30872E-24
 -1       407 1.80236E-04 1.07850E-06-4.13590E-25
 -1       408 1.81099E-04 1.21292E-06-2.89513E-24
 -1       409 1.82064E-04 1.34700E-06 1.24077E-24
 -1       410 1.83130E-04 1.48047E-06 1.24077E-24
 -1       521 2.74170E-03-2.93902E-04 1.05879E-22
 -1       522 2.80390E-03-7.25857E-04 0.00000E+00
 -1       523 2.84450E-03-1.35717E-03 0.00000E+00
 -1       524 2.85915E-03-2.08617E-03-5.29396E-23
 -1       525 2.88195E-03-2.78504E-03-1.05879E-22
 -1       526 2.93722E-03-3.32872E-03 5.29396E-23
 -1       527 2.99543E-03-3.62956E-03 2.11758E-22
 -1       528 2.99204E-03-3.64747E-03 0.00000E+00
 -1       529 2.84603E-03-3.39305E-03-2.11758E-22
 -1       530 2.51355E-03-2.93719E-03 5.29396E-23
 -1       531 2.01215E-03-2.35981E-03 0.00000E+00
 -1       532 1.41239E-03-1.73322E-03 0.00000E+00
 -1       533 8.32587E-04-1.11628E-03-1.05879E-22
 -1       534 3.85090E-04-5.72004E-04 5.29396E-23
 -1       535 1.20151E-04-1.78335E-04 2.11758E-22
 -1       536 2.10370E-04 2.69185E-05-6.61744E-24
 -1       537 2.08462E-04 8.71985E-05-1.65436E-24
 -1       538 2.05513E-04 1.63684E-04 0.00000E+00
 -1       539 2.02035E-04 2.47049E-04 0.00000E+00
 -1       540 1.98905E-04 3.25822E-04 0.00000E+00
 -1       541 1.96870E-04 3.88555E-04-1.65436E-24
 -1       542 1.95931E-04 4.28512E-04-3.30872E-24
 -1       543 1.95706E-04 4.39104E-04 0.00000E+00
 -1       544 1.95385E-04 4.21103E-04 0.00000E+00
 -1       545 1.94218E-04 3.75503E-04 1.65436E-24
 -1       546 1.92044E-04 3.10410E-04 0.00000E+00
 -1       547 1.89101E-04 2.34051E-04 0.00000E+00
 -1       548 1.86186E-04 1.58070E-04 3.30872E-24
 -1       549 1.84082E-04 9.41104E-05-1.65436E-24
 -1       550 1.82989E-04 5.01822E-05 1.65436E-24
 -1       551 1.85979E-04-8.48529E-06 0.00000E+00
 -1       552 1.57595E-04-9.13740E-06 0.00000E+00
 -1       553 1.26912E-04-9.85150E-06 6.61744E-24
 -1       554 9.48922E-05-1.06065E-05 3.30872E-24
 -1       555 6.24951E-05-1.13750E-05-1.32349E-23
 -1       556 2.03494E-04 1.15905E-05 0.00000E+00
 -1       557 1.97332E-04 2.74077E-05-2.64698E-23
 -1       558 1.92501E-04 3.98256E-05-5.29396E-23
 -1       559 1.88869E-04 4.91541E-05 0.00000E+00
 -1       560 1.86306E-04 5.57033E-05 0.00000E+00
 -1       561 1.84685E-04 5.97861E-05 0.00000E+00
 -1       562 1.83879E-04 6.17164E-05 0.00000E+00
 -1       563 1.83766E-04 6.18092E-05 0.00000E+00
 -1       564 1.84224E-04 6.03802E-05 0.00000E+00
 -1       565 1.85132E-04 5.77459E-05 0.00000E+00
 -1       566 1.86371E-04 5.42233E-05 0.00000E+00
 -1       567 1.87822E-04 5.01299E-05 0.00000E+00
 -1       568 1.89368E-04 4.57833E-05 0.00000E+00
 -1       569 1.90889E-04 4.15010E-05-8.27181E-25
 -1       570 1.92269E-04 3.76005E-05 0.00000E+00
 -1       571 1.82800E-04 3.20574E-05 1.65436E-24
 -1       572 1.82899E-04 2.98796E-05 8.27181E-25
 -1       573 1.82998E-04 2.76517E-05 1.65436E-24
 -1       574 1.83097E-04 2.53902E-05 0.00000E+00
 -1       575 1.83197E-04 2.31114E-05 0.00000E+00
 -1       576 1.83296E-04 2.08317E-05 0.00000E+00
 -1       577 1.83396E-04 1.85677E-05-3.30872E-24
 -1       578 1.83495E-04 1.63359E-05 6.61744E-24
 -1       579 1.83595E-04 1.41526E-05 0.00000E+00
 -1       580 1.83695E-04 1.20345E-05 0.00000E+00
 -1       581 1.83795E-04 9.99795E-06 0.00000E+00
 -1       582 1.83895E-04 8.05951E-06 0.00000E+00
 -1       583 1.83995E-04 6.23561E-06-6.61744E-24
 -1       584 1.84096E-04 4.54255E-06 3.30872E-24
 -1       585 1.84196E-04 2.99645E-06 0.00000E+00
 -1       586 1.84444E-04 3.42092E-05-1.65436E-24
 -1       587 1.86143E-04 3.42484E-05 4.13590E-25
 -1       588 1.87844E-04 3.42872E-05 0.00000E+00
 -1       589 1.89590E-04 3.43253E-05 0.00000E+00
 -1       590 1.91425E-04 3.43622E-05 0.00000E+00
 -1       591 1.83427E-04 3.21508E-05 2.06795E-25
 -1       592 1.84154E-04 3.01121E-05-2.06795E-25
 -1       593 1.84886E-04 2.80592E-05 0.00000E+00
 -1       594 1.85620E-04 2.59968E-05-4.13590E-25
 -1       595 1.86357E-04 2.39298E-05 0.00000E+00
 -1       596 1.87093E-04 2.18628E-05 0.00000E+00
 -1       597 1.87828E-04 1.98005E-05-8.27181E-25
 -1       598 1.88558E-04 1.77478E-05 4.13590E-25
 -1       599 1.89284E-04 1.57092E-05 0.00000E+00
 -1       600 1.90003E-04 1.36894E-05-4.13590E-25
 -1       601 1.90713E-04 1.16933E-05-8.27181E-25
 -1       602 1.91412E-04 9.72538E-06 2.06795E-25
 -1       603 1.92099E-04 7.79049E-06-8.27181E-25
 -1       604 1.92773E-04 5.89341E-06-2.06795E-25
 -1       605 1.93431E-04 4.03876E-06 0.00000E+00
 -1       606 1.84310E-04 4.60935E-07 0.00000E+00
 -1       607 1.84320E-04-6.04098E-07 0.00000E+00
 -1       608 1.84329E-04-1.58807E-06-3.30872E-24
 -1       609 1.84337E-04-2.49667E-06 0.00000E+00
 -1       610 1.84345E-04-3.33568E-06 0.00000E+00
 -1       611 1.84354E-04-4.11089E-06 0.00000E+00
 -1       612 1.84362E-04-4.82812E-06 0.00000E+00
 -1       613 1.84371E-04-5.49321E-06 0.00000E+00
 -1       614 1.84379E-04-6.11198E-06-1.65436E-24
 -1       615 1.84387E-04-6.69027E-06 0.00000E+00
 -1       616 1.84396E-04-7.23390E-06 0.00000E+00
 -1       617 1.84404E-04-7.74871E-06 0.00000E+00
 -1       618 1.84413E-04-8.24052E-06 0.00000E+00
 -1       619 1.84421E-04-8.71516E-06 0.00000E+00
 -1       620 1.84429E-04-9.17847E-06 0.00000E+00
 -1       621 1.85642E-04 1.71603E-06 1.65436E-24
 -1       622 1.87145E-04 1.82023E-06 0.00000E+00
 -1       623 1.88774E-04 1.92421E-06-3.30872E-24
 -1       624 1.90494E-04 2.02787E-06 0.00000E+00
 -1       625 1.92272E-04 2.13123E-06 1.65436E-24
 -1       626 1.84841E-04 4.97043E-07 0.00000E+00
 -1       627 1.85361E-04-5.54679E-07 0.00000E+00
 -1       628 1.85862E-04-1.55095E-06 0.00000E+00
 -1       629 1.86345E-04-2.49995E-06 0.00000E+00
 -1       630 1.86813E-04-3.40989E-06 3.30872E-24
 -1       631 1.87270E-04-4.28901E-06-1.65436E-24
 -1       632 1.87718E-04-5.14551E-06 0.00000E+00
 -1       633 1.88161E-04-5.98765E-06 0.00000E+00
 -1       634 1.88602E-04-6.82364E-06-3.30872E-24
 -1       635 1.89043E-04-7.66171E-06 0.00000E+00
 -1       636 1.89488E-04-8.51010E-06 0.00000E+00
 -1       637 1.89940E-04-9.37703E-06 0.00000E+00
 -1       638 1.90402E-04-1.02707E-05-1.65436E-24
 -1       639 1.90877E-04-1.11995E-05 1.65436E-24
 -1       640 1.91368E-04-1.21715E-05 1.65436E-24
 -1       656 1.85128E-04-1.02147E-05 6.61744E-24
 -1       657 1.86239E-04-1.08166E-05 0.00000E+00
 -1       658 1.87631E-04-1.14172E-05 0.00000E+00
 -1       659 1.89157E-04-1.20174E-05 6.61744E-24
 -1       660 1.90633E-04-1.26195E-05 0.00000E+00
 -1       661 1.84696E-04-1.01391E-05-8.27181E-25
 -1       662 1.84992E-04-1.07338E-05 0.00000E+00
 -1       663 1.85320E-04-1.14150E-05 0.00000E+00
 -1       664 1.85679E-04-1.21764E-05-8.27181E-25
 -1       665 1.86066E-04-1.30120E-05 0.00000E+00
 -1       666 1.86479E-04-1.39160E-05 8.27181E-25
 -1       667 1.86915E-04-1.48827E-05 0.00000E+00
 -1       668 1.87372E-04-1.59065E-05 0.00000E+00
 -1       669 1.87849E-04-1.69821E-05 1.65436E-24
 -1       670 1.88343E-04-1.81042E-05-8.27181E-25
 -1       671 1.88852E-04-1.92675E-05 0.00000E+00
 -1       672 1.89375E-04-2.04671E-05 0.00000E+00
 -1       673 1.89910E-04-2.16978E-05 0.00000E+00
 -1       674 1.90453E-04-2.29549E-05-4.13590E-25
 -1       675 1.91005E-04-2.42333E-05 2.06795E-25
 -1       676 1.84885E-04-2.50120E-05-3.30872E-24
 -1       677 1.86224E-04-2.51163E-05 1.65436E-24
 -1       678 1.87562E-04-2.52205E-05-3.30872E-24
 -1       679 1.88897E-04-2.53244E-05-1.65436E-24
 -1       680 1.90229E-04-2.54283E-05-3.30872E-24
 -1       771 1.87534E-05 1.45044E-05-5.29396E-23
 -1       772 8.72063E-06 3.63982E-05-5.29396E-23
 -1       773 4.87804E-07 5.37608E-05 0.00000E+00
 -1       774-6.06888E-06 6.68494E-05 0.00000E+00
 -1       775-1.10706E-05 7.59312E-05 0.00000E+00
 -1       776-1.46435E-05 8.12906E-05 0.00000E+00
 -1       777-1.69134E-05 8.32219E-05 0.00000E+00
 -1       778-1.80089E-05 8.20330E-05 0.00000E+00
 -1       779-1.80577E-05 7.80406E-05 0.00000E+00
 -1       780-1.71898E-05 7.15727E-05 0.00000E+00
 -1       781-1.55341E-05 6.29639E-05 0.00000E+00
 -1       782-1.32212E-05 5.25578E-05 0.00000E+00
 -1       783-1.03807E-05 4.07025E-05 0.00000E+00
 -1       784-7.14339E-06 2.77525E-05-7.94093E-23
 -1       785-3.63928E-06 1.40650E-05-5.29396E-23
 -1       786 1.93430E-04 3.21577E-05 0.00000E+00
 -1       787 1.93472E-04 2.99702E-05 0.00000E+00
 -1       788 1.93514E-04 2.78244E-05 8.27181E-25
 -1       789 1.93556E-04 2.57121E-05 8.27181E-25
 -1       790 1.93599E-04 2.36286E-05 1.65436E-24
 -1       791 1.93642E-04 2.15691E-05 8.27181E-25
 -1       792 1.93685E-04 1.95314E-05 0.00000E+00
 -1       793 1.93728E-04 1.75133E-05 8.27181E-25
 -1       794 1.93771E-04 1.55147E-05 0.00000E+00
 -1       795 1.93815E-04 1.35354E-05 0.00000E+00
 -1       796 1.93858E-04 1.15774E-05 0.00000E+00
 -1       797 1.93901E-04 9.64237E-06 0.00000E+00
 -1       798 1.93945E-04 7.73473E-06 0.00000E+00
 -1       799 1.93988E-04 5.85880E-06 8.27181E-25
 -1       800 1.94032E-04 4.02212E-06 0.00000E+00
 -1       801 1.47798E-04 3.09167E-05 2.64698E-23
 -1       802 9.93193E-06 1.92922E-05 0.00000E+00
 -1       803-1.07899E-04 9.74210E-06 0.00000E+00
 -1       804-9.57775E-05 6.77804E-06-2.64698E-23
 -1       805-3.16600E-05 2.66889E-06-5.29396E-23
 -1       806 1.94115E-04 3.20889E-05 0.00000E+00
 -1       807 1.94825E-04 2.98088E-05-1.65436E-24
 -1       808 1.95522E-04 2.75600E-05 0.00000E+00
 -1       809 1.96206E-04 2.53466E-05 0.00000E+00
 -1       810 1.96875E-04 2.31727E-05 3.30872E-24
 -1       811 1.97528E-04 2.10422E-05 1.65436E-24
 -1       812 1.98163E-04 1.89590E-05 3.30872E-24
 -1       813 1.98779E-04 1.69271E-05 0.00000E+00
 -1       814 1.99374E-04 1.49504E-05-3.30872E-24
 -1       815 1.99947E-04 1.30328E-05 0.00000E+00
 -1       816 2.00497E-04 1.11782E-05-1.65436E-24
 -1       817 2.01022E-04 9.39053E-06 0.00000E+00
 -1       818 2.01520E-04 7.67364E-06 1.65436E-24
 -1       819 2.01991E-04 6.03145E-06 1.65436E-24
 -1       820 2.02433E-04 4.46776E-06 3.30872E-24
 -1       821 1.93946E-04-1.14741E-07-1.65436E-24
 -1       822 1.93806E-04-3.61817E-06 0.00000E+00
 -1       823 1.93664E-04-7.84926E-06 3.30872E-24
 -1       824 1.93519E-04-1.23748E-05 1.65436E-24
 -1       825 1.93375E-04-1.66821E-05 0.00000E+00
 -1       826 1.93233E-04-2.02594E-05-1.65436E-24
 -1       827 1.93094E-04-2.27942E-05-3.30872E-24
 -1       828 1.92958E-04-2.39800E-05 0.00000E+00
 -1       829 1.92822E-04-2.38778E-05 3.30872E-24
 -1       830 1.92686E-04-2.25562E-05 1.65436E-24
 -1       831 1.92548E-04-2.04159E-05 3.30872E-24
 -1       832 1.92410E-04-1.78626E-05 0.00000E+00
 -1       833 1.92271E-04-1.54145E-05 0.00000E+00
 -1       834 1.92136E-04-1.35892E-05-1.65436E-24
 -1       835 1.92002E-04-1.27353E-05 0.00000E+00
 -1       836 1.95750E-04 2.35743E-06 0.00000E+00
 -1       837 1.97297E-04 2.48561E-06 0.00000E+00
 -1       838 1.98748E-04 2.61374E-06 3.30872E-24
 -1       839 2.00135E-04 2.74115E-06 0.00000E+00
 -1       840 2.01491E-04 2.86841E-06 0.00000E+00
 -1       856 1.91859E-04-1.42412E-05-8.27181E-25
 -1       857 1.91839E-04-1.51515E-05 0.00000E+00
 -1       858 1.91820E-04-1.59470E-05 2.06795E-25
 -1       859 1.91800E-04-1.66490E-05 0.00000E+00
 -1       860 1.91781E-04-1.72787E-05 4.13590E-25
 -1       861 1.91761E-04-1.78573E-05 0.00000E+00
 -1       862 1.91741E-04-1.84063E-05 0.00000E+00
 -1       863 1.91721E-04-1.89470E-05 0.00000E+00
 -1       864 1.91701E-04-1.95007E-05 0.00000E+00
 -1       865 1.91681E-04-2.00887E-05 0.00000E+00
 -1       866 1.91661E-04-2.07326E-05 8.27181E-25
 -1       867 1.91641E-04-2.14534E-05 0.00000E+00
 -1       868 1.91621E-04-2.22724E-05-8.27181E-25
 -1       869 1.91600E-04-2.32108E-05 4.13590E-25
 -1       870 1.91580E-04-2.42897E-05-8.27181E-25
 -1       871 1.93209E-04-1.32001E-05 8.27181E-25
 -1       872 1.94690E-04-1.32083E-05 0.00000E+00
 -1       873 1.96251E-04-1.32173E-05 0.00000E+00
 -1       874 1.97823E-04-1.32271E-05 1.29247E-25
 -1       875 1.99338E-04-1.32373E-05-1.03398E-24
 -1       876 1.92395E-04-1.42267E-05 3.30872E-24
 -1       877 1.92892E-04-1.51913E-05 0.00000E+00
 -1       878 1.93367E-04-1.60971E-05 0.00000E+00
 -1       879 1.93824E-04-1.69514E-05 0.00000E+00
 -1       880 1.94264E-04-1.77617E-05 3.30872E-24
 -1       881 1.94691E-04-1.85352E-05 1.65436E-24
 -1       882 1.95106E-04-1.92794E-05-3.30872E-24
 -1       883 1.95514E-04-2.00017E-05 0.00000E+00
 -1       884 1.95915E-04-2.07092E-05 3.30872E-24
 -1       885 1.96315E-04-2.14096E-05 1.65436E-24
 -1       886 1.96714E-04-2.21099E-05 3.30872E-24
 -1       887 1.97115E-04-2.28176E-05 1.65436E-24
 -1       888 1.97522E-04-2.35402E-05 0.00000E+00
 -1       889 1.97937E-04-2.42850E-05-1.65436E-24
 -1       890 1.98362E-04-2.50593E-05 0.00000E+00
 -1       891 1.92906E-04-2.55876E-05-1.65436E-24
 -1       892 1.94231E-04-2.56453E-05-8.27181E-25
 -1       893 1.95508E-04-2.57029E-05 1.65436E-24
 -1       894 1.96711E-04-2.57602E-05-4.13590E-25
 -1       895 1.97814E-04-2.58173E-05-4.13590E-25
 -1       956 2.02716E-04 1.67964E-06-1.65436E-24
 -1       957 2.02583E-04 4.64412E-07 8.27181E-25
 -1       958 2.02451E-04-6.70025E-07 0.00000E+00
 -1       959 2.02318E-04-1.73500E-06-1.65436E-24
 -1       960 2.02185E-04-2.74189E-06-3.30872E-24
 -1       961 2.02052E-04-3.70211E-06 0.00000E+00
 -1       962 2.01919E-04-4.62706E-06-3.30872E-24
 -1       963 2.01786E-04-5.52821E-06 0.00000E+00
 -1       964 2.01654E-04-6.41697E-06 0.00000E+00
 -1       965 2.01521E-04-7.30477E-06 1.65436E-24
 -1       966 2.01388E-04-8.20308E-06 3.30872E-24
 -1       967 2.01255E-04-9.12331E-06-1.65436E-24
 -1       968 2.01123E-04-1.00769E-05 0.00000E+00
 -1       969 2.00990E-04-1.10752E-05 0.00000E+00
 -1       970 2.00858E-04-1.21296E-05-3.30872E-24
 -1       971 2.00608E-04-1.43720E-05 0.00000E+00
 -1       972 2.00486E-04-1.53982E-05 0.00000E+00
 -1       973 2.00365E-04-1.63402E-05-3.30872E-24
 -1       974 2.00243E-04-1.72087E-05 1.65436E-24
 -1       975 2.00122E-04-1.80148E-05 0.00000E+00
 -1       976 2.00000E-04-1.87691E-05 0.00000E+00
 -1       977 1.99879E-04-1.94828E-05 0.00000E+00
 -1       978 1.99758E-04-2.01666E-05 1.65436E-24
 -1       979 1.99636E-04-2.08314E-05-3.30872E-24
 -1       980 1.99515E-04-2.14883E-05 1.65436E-24
 -1       981 1.99393E-04-2.21481E-05 3.30872E-24
 -1       982 1.99272E-04-2.28217E-05 1.65436E-24
 -1       983 1.99151E-04-2.35201E-05 0.00000E+00
 -1       984 1.99030E-04-2.42541E-05-1.65436E-24
 -1       985 1.98910E-04-2.50347E-05 0.00000E+00
 -3
    1PSTEP                        46          23           1          
  100CL  123 6.63423E-01         409                     0   23           1
 -4  STRESS      6    1
 -5  SXX         1    4    1    1
 -5  SYY         1    4    2    2
 -5  SZZ         1    4    3    3
 -5  SXY         1    4    1    2
 -5  SYZ         1    4    2    3
 -5  SZX         1    4    3    1
 -1         1-5.26670E+06-1.68007E+06-1.13047E+06-1.47094E+06-8.44011E-10 3.89991E-09
 -1         2 9.24134E+05 1.35132E+07 3.36291E+06 4.08936E+06 2.02854E-08 3.29710E-07
 -1         3-1.48660E+03-1.59558E+06 4.12899E+02-2.26332E+03-5.56557E-10 4.66607E-08
 -1         5-7.37335E+01 3.86389E+05 9.98384E+00-1.32846E+00-4.79901E-10-1.25947E-08
 -1         8-4.75170E+05-1.72082E+05-3.73028E+04-2.26106E+05-3.62888E-10-2.16187E-07
 -1         9 1.13481E+07 2.25190E+06 2.42634E+06-8.06187E+05 1.07219E-08-1.04308E-07
 -1        10-2.31572E+03-1.66275E+06-4.02857E+03-1.53078E+04-1.35951E-08-3.98220E-08
 -1        12-6.98105E+01 3.86411E+05 3.28089E+02-9.05875E+00-4.56481E-10-2.46655E-09
 -1        15 9.71424E+02 5.33846E+02 3.14011E+03 9.67974E-01-3.59648E-10-1.01457E-07
 -1        16 2.26677E+07-2.60844E+05 3.10409E+06-2.12895E+06 6.67448E-09 3.25420E-07
 -1        17 8.22670E+06 6.17142E+06 2.22559E+06 5.92168E+06 2.02737E-08 2.44589E-08
 -1        18 1.41381E+05 3.32419E+04 3.93052E+03-1.19408E+05 1.42697E-08 6.15455E-09
 -1        19 1.22411E+05 1.41684E+05-9.43115E+02 2.19811E+04 1.63091E-09-4.39868E-09
 -1        20-8.17945E+04-5.73715E+05-1.28726E+05 2.52061E+04-1.90433E-09-4.71118E-09
 -1        21-4.56450E+01-2.96217E+05-9.24802E+02 2.72256E+02 1.19031E-08-1.68730E-08
 -1        24 1.37276E+07 1.18736E+07 3.81228E+06 1.10034E+07-1.64049E-07-4.86228E-08
 -1        25 1.22952E+05 2.59610E+05 9.80676E+04-6.40621E+05-1.39953E-09 1.64218E-08
 -1        26-5.52738E+04 9.23172E+04-2.46103E+04 1.21782E+03-1.26965E-10 1.85391E-09
 -1        27-7.56454E+04-3.09976E+05-1.13331E+05 6.89903E+04 4.20065E-09 7.94535E-09
 -1        28 2.22614E+04-8.53861E+04 1.69086E+04 2.06588E+04-4.28918E-09 1.90734E-08
 -1        32-1.68054E+06-3.17372E+06-1.95723E+05 4.46804E+05-4.26080E-08-6.68990E-09
 -1        33-1.78499E+05 9.30006E+04 3.23912E+04-3.85545E+04-3.05003E-09 9.83588E-09
 -1        34-2.23666E+05-2.50212E+04 6.89062E+02 7.56408E+04-6.18489E-09-1.35343E-08
 -1        35-2.29490E+04-3.38624E+04-1.34899E+03 5.15331E+04-1.61518E-09 9.14467E-09
 -1        51 5.99007E+04-1.76684E+05 1.27008E+05-4.58793E+05-1.30967E-10 2.25911E-07
 -1        52 2.03626E+04-1.54639E+05 6.67907E+04-5.34975E+05 2.81034E-10-2.19265E-07
 -1        53 4.26125E+03-1.70141E+05 3.50119E+04-4.57161E+05 4.71118E-10-2.06332E-07
 -1        54 7.80841E+03-1.65986E+05 2.92461E+04-5.36620E+05-3.49246E-10-9.93659E-08
 -1        55 1.69731E+04-1.73333E+05 3.61321E+04-4.57009E+05 2.72848E-10 1.26674E-07
 -1        56-9.70097E+06-1.28917E+06-8.86163E+05-3.98956E+06 7.53789E-09-1.71975E-07
 -1        57-1.07827E+07-1.06484E+06-5.52327E+05-2.92864E+06 8.58563E-09 5.63887E-09
 -1        58-9.59518E+06-1.72777E+06-2.00233E+05-4.14267E+06 3.58632E-08 8.22620E-08
 -1        59-1.08882E+07-5.57154E+05-1.11880E+05-2.85174E+06 1.32532E-08-5.82646E-07
 -1        60-9.65017E+06-1.74819E+06-5.12159E+04-4.11544E+06-5.72254E-09-2.35763E-07
 -1        61-1.04506E+07-7.80976E+05-1.47548E+03-3.05216E+06 1.19326E-08-1.69066E-07
 -1        62-9.95335E+06-1.55678E+06-5.06985E+04-3.88007E+06-3.70419E-08 2.19115E-07
 -1        63-9.77082E+06-1.32691E+06 3.01618E+04-3.59326E+06 1.18307E-08 6.68642E-08
 -1        64-1.02561E+07-1.25422E+06-4.99130E+04-3.52451E+06 1.92085E-08 7.69578E-08
 -1        65-9.40071E+06-1.82935E+06 9.78410E+02-4.28468E+06-6.83249E-08-8.60091E-08
 -1        66-1.03935E+07-1.00607E+06-4.67429E+04-3.24272E+06-1.10012E-08 6.22331E-08
 -1        67-9.35980E+06-2.07679E+06-1.00028E+05-4.64411E+06-7.08942E-08 2.14000E-07
 -1        68-1.03823E+07-9.47946E+05-1.80390E+05-3.22048E+06-2.66436E-08 3.83588E-08
 -1        69-9.56879E+06-2.21882E+06-4.95152E+05-4.33513E+06-3.53515E-08-7.66377E-08
 -1        70-1.01248E+07-9.16743E+05-8.01743E+05-3.50883E+06 1.75678E-08-1.18860E-07
 -1        86-9.40778E+05-1.13368E+07-1.83427E+06-1.94144E+06-2.20489E-07 9.27830E-08
 -1        87 1.40443E+06 3.34528E+06 1.52910E+06 3.95867E+06-3.92611E-07 8.73879E-08
 -1        88-2.30414E+05-2.37314E+06 1.34266E+05-1.96987E+06-3.31493E-07-4.28418E-07
 -1        89 1.91029E+06 3.10176E+06 1.54700E+06 4.08637E+06-5.02903E-07-1.56369E-07
 -1        90-1.38478E+06-1.11470E+07-1.97841E+06-2.08428E+06-1.27537E-07-2.96277E-08
 -1       121-2.03762E+03-1.60049E+06-5.38256E+02 1.12203E+03 1.55750E-09 1.14596E-08
 -1       122-1.29639E+03-1.59565E+06 7.85564E+02-4.52989E+03-5.19705E-09 7.97445E-09
 -1       123-2.05795E+03-1.60063E+06 2.89815E+02 3.35058E+03 4.35125E-09 8.11997E-09
 -1       124 3.79094E+02-1.59519E+06 3.01906E+03-9.46535E+03-1.03983E-08 2.91020E-08
 -1       125-2.88648E+03-1.60154E+06 3.56854E+03 6.01188E+03 6.39557E-09-2.52294E-08
 -1       191-7.77083E+01 3.86408E+05 8.56729E+00 6.92115E-01-5.39466E-10-2.64790E-08
 -1       192-7.46964E+01 3.86390E+05 2.13015E+01-4.26110E+00-7.42290E-10-3.26309E-08
 -1       193-8.02433E+01 3.86407E+05 3.63407E+01 3.73978E+00-1.02257E-09-2.26264E-08
 -1       194-7.77837E+01 3.86393E+05 8.09694E+01-9.66910E+00-6.24372E-10-7.47968E-09
 -1       195-8.51092E+01 3.86405E+05 1.55093E+02 6.28805E+00-1.53222E-09-5.08771E-09
 -1       251-1.08796E+06-1.48454E+04-8.64947E+04-6.09562E+04 2.39743E-09 4.69099E-08
 -1       252-6.28508E+05 1.37088E+04 2.80054E+04 1.95311E+05 1.35660E-08 1.01310E-07
 -1       253-8.74841E+05 1.27162E+03-1.19475E+04-1.14003E+05-7.46695E-09 1.72371E-07
 -1       254-8.09444E+05 8.98995E+03 6.96637E+03 2.40528E+05-1.72093E-08 3.26980E-07
 -1       255-9.17472E+05-1.59184E+03-1.35410E+04-1.06784E+05 3.84071E-08 2.10504E-07
 -1       256-5.35026E+05 1.39250E+04 6.45659E+04 1.64920E+05-6.20685E-09-3.25477E-07
 -1       257-1.13339E+06-1.66085E+04-5.68619E+04-3.76357E+04 2.15869E-08-2.84684E-07
 -1       258-3.25668E+05 1.97781E+04 1.07750E+05-7.47108E+03-4.06176E-08-9.53378E-10
 -1       259-1.11464E+06-1.73660E+04-5.11203E+04 6.47135E+04-1.57615E-09 6.44228E-08
 -1       260-5.78663E+05 2.05031E+04 6.29596E+04-1.69360E+05 1.23564E-08-2.36595E-07
 -1       261-8.94883E+05-5.53568E+03 1.70401E+03 1.23971E+05 5.71499E-08-5.67748E-08
 -1       262-8.14486E+05 2.93638E+04 3.36221E+04-2.28368E+05-1.65621E-08 8.86610E-08
 -1       263-8.92611E+05-1.49407E+04 2.87162E+04 1.24840E+05 8.54152E-09 1.15740E-07
 -1       264-5.56079E+05 1.04967E+05 1.55833E+05-1.74547E+05 1.26153E-07 1.72760E-07
 -1       265-1.14031E+06-9.15368E+04 7.95459E+04 6.90842E+04 4.72155E-08-9.36707E-08
 -1       266-1.75862E+04-8.22411E+03 4.12586E+04-2.07101E+01-3.45608E-11-1.58418E-07
 -1       267 2.03871E+04 9.58417E+03 2.91629E+04 2.38973E+01-1.68257E-11-4.28759E-07
 -1       268-2.73388E+03-1.35745E+03 1.08396E+04-3.04482E+00 2.28283E-10 7.23852E-08
 -1       269 3.22789E+03 1.62451E+03 7.04567E+03 3.54688E+00-3.31397E-10-1.84729E-07
 -1       270-4.84511E+02-2.66922E+02 3.40104E+03-4.81331E-01-3.18323E-12-2.45238E-08
 -1       271-1.59653E+06-1.95821E+05-1.19765E+05-6.14760E+05-9.03810E-11-2.87400E-08
 -1       272-1.63936E+06-2.79569E+05-7.65031E+04-6.10126E+05-2.32185E-08-1.17809E-07
 -1       273-1.62045E+06-2.23972E+05-2.85857E+04-6.07748E+05 2.15678E-08 2.27066E-07
 -1       274-1.61033E+06-2.46176E+05-1.55822E+04-6.21838E+05 2.45818E-08 6.60875E-08
 -1       275-1.62536E+06-2.25180E+05-6.89890E+03-6.04756E+05 9.88439E-09 5.35474E-08
 -1       276-1.60355E+06-2.45984E+05-3.26532E+03-6.27776E+05-2.77259E-08-9.68557E-08
 -1       277-1.62776E+06-2.23411E+05-1.89892E+03-6.02378E+05 5.33691E-09-1.62710E-07
 -1       278-1.60008E+06-2.49156E+05-8.75833E+02-6.32692E+05 4.17567E-08-2.05153E-07
 -1       279-1.62955E+06-2.21525E+05-1.06663E+03-6.00358E+05 1.61581E-08-6.77264E-08
 -1       280-1.59768E+06-2.52291E+05-1.27594E+03-6.36842E+05 2.75368E-08-1.75920E-07
 -1       281-1.63090E+06-2.19819E+05-2.50553E+03-5.98739E+05-2.16260E-08-2.01523E-07
 -1       282-1.59690E+06-2.56170E+05-5.58210E+03-6.39946E+05-1.04519E-08-1.03624E-07
 -1       283-1.63102E+06-2.17365E+05-1.00528E+04-5.97666E+05 3.37604E-09-1.33250E-08
 -1       284-1.60435E+06-2.71381E+05-2.72148E+04-6.40217E+05 5.79848E-09 7.89169E-09
 -1       285-1.62414E+06-2.05656E+05-4.23303E+04-5.98328E+05-4.16640E-09-5.38876E-08
 -1       301-1.88333E+03-6.28834E+05 1.72213E+05-1.09197E+06 1.29949E-08-1.47775E-07
 -1       302-2.68528E+03-5.81885E+05 1.03490E+05-1.59427E+06-7.95262E-09-2.39663E-07
 -1       303-1.80639E+04-6.19649E+05 5.87469E+04-1.08898E+06 5.39148E-09 1.13072E-07
 -1       304-1.87684E+04-5.88992E+05 5.95698E+04-1.59366E+06-1.06957E-08 3.50741E-07
 -1       305-2.11501E+04-6.09788E+05 7.42078E+04-1.09203E+06 1.03682E-10 9.47039E-08
 -1       306-3.00601E+07-6.21435E+06-8.58166E+06-5.86941E+05-1.09663E-07-1.10187E-07
 -1       307 2.54912E+07 3.21814E+06 5.52722E+06-1.50153E+07-8.99774E-07-2.46102E-07
 -1       308-7.11831E+06-1.07156E+06-5.00843E+05 5.20091E+06-1.91358E-07 2.03072E-07
 -1       309-3.48293E+06 8.77000E+06 2.25101E+06-2.05313E+07 3.00046E-07 2.85676E-07
 -1       310-1.22674E+07-1.90542E+06-1.94420E+06 5.21682E+06-1.22818E-08-1.47687E-07
 -1       311 3.75138E+07 8.83572E+04 7.14969E+06-9.14164E+06 3.97471E-07-3.57657E-07
 -1       312-3.17059E+07-6.60503E+06-8.42766E+06-4.76540E+06-1.16532E-07-8.84029E-08
 -1       313 4.55138E+07 1.43826E+07 1.05844E+07 2.32531E+07 7.76490E-08 2.42610E-07
 -1       314-1.74684E+07-1.74618E+07-7.50040E+06-1.24992E+07 4.13100E-07-3.63798E-08
 -1       315-1.43296E+06 2.93953E+07 5.67626E+06 1.09056E+07-5.38610E-07 2.17027E-07
 -1       316 1.25571E+06-9.88010E+06-4.86000E+05-2.68160E+06-9.64545E-07-2.69094E-07
 -1       317-1.72094E+07 2.23251E+07 2.20838E+06-8.54808E+06 8.68356E-07-7.60047E-07
 -1       318-1.02208E+06-1.25373E+07-1.96016E+06-4.23232E+06-8.54663E-07 6.94999E-08
 -1       319 6.90394E+06 3.14649E+07 6.91519E+06 1.63366E+07-1.32241E-07 2.22819E-07
 -1       320-2.23931E+07-1.74358E+07-9.73587E+06-1.26926E+07 1.96393E-07-8.50996E-08
 -1       336-6.97222E+02-1.73259E+06-1.41138E+04 9.12730E+03-2.62517E-08 2.07074E-08
 -1       337-5.48042E+03-1.73229E+06-1.84410E+04-2.21373E+04-4.92230E-08 1.11741E-08
 -1       338 3.38121E+02-1.73207E+06-2.89926E+04 1.27612E+04-3.47163E-08-4.66753E-09
 -1       339-3.07555E+04-1.74986E+06-6.55843E+04-2.92470E+04-6.20576E-08 5.26379E-08
 -1       340 2.03413E+04-1.71725E+06-1.03269E+05 1.61057E+04-4.14511E-08 5.65233E-08
 -1       406-4.80327E+01 3.86390E+05 6.44279E+02 3.30764E+00-1.82706E-09-1.05774E-08
 -1       407 1.56415E+02 3.86524E+05 1.37669E+03 2.31594E+01-6.26322E-10-1.38898E-08
 -1       408 6.36563E+02 3.86290E+05 2.74511E+03-2.67978E+01-2.53021E-09-1.37879E-08
 -1       409 2.90854E+03 3.87401E+05 6.18707E+03 2.86019E+02-3.73234E-10-4.46053E-08
 -1       410 8.48160E+03 3.85500E+05 1.26276E+04-2.75822E+02-2.87582E-09-3.98359E-09
 -1       521-3.15939E+07-7.66126E+06-1.00219E+07-2.01222E+05-1.42027E-07 1.72877E-08
 -1       522 2.63538E+07 4.20853E+06 5.62665E+06-1.84818E+07-5.59376E-07-3.68105E-07
 -1       523-7.70061E+06-1.38873E+06-4.97955E+05 5.64681E+06 4.70318E-08-5.27958E-07
 -1       524-6.99739E+06 1.18062E+07 2.43235E+06-2.35502E+07 8.23886E-07-6.76599E-07
 -1       525-1.30673E+07-2.52307E+06-2.13429E+06 5.66399E+06 5.74859E-07-3.22034E-07
 -1       526 4.08693E+07 3.77187E+04 7.50072E+06-1.18121E+07-1.25146E-07 2.94531E-08
 -1       527-3.35270E+07-8.27749E+06-9.70527E+06-4.62161E+06 4.29573E-08-3.73984E-08
 -1       528 4.96957E+07 1.59726E+07 1.10324E+07 2.64153E+07 1.12341E-07-3.14874E-07
 -1       529-1.84175E+07-1.96416E+07-8.59346E+06-1.25403E+07 4.10364E-08-1.50874E-07
 -1       530-3.89480E+06 3.41343E+07 5.99989E+06 1.04649E+07-1.73299E-07 6.19330E-07
 -1       531 1.24646E+06-1.09572E+07-4.64428E+05-2.64620E+06-1.07336E-06 3.11236E-07
 -1       532-1.97877E+07 2.43657E+07 2.41190E+06-1.27618E+07 6.07164E-07-7.25238E-07
 -1       533-1.06582E+06-1.36771E+07-2.08181E+06-4.06595E+06-2.69676E-07-1.02777E-06
 -1       534 4.87743E+06 3.64922E+07 7.19328E+06 1.68832E+07-9.10950E-08 7.75035E-07
 -1       535-2.35570E+07-1.97905E+07-1.11509E+07-1.27611E+07 1.07568E-07 4.64614E-07
 -1       536-7.04780E+05-4.72695E+04-4.61638E+04-5.44815E+04-4.27644E-09 5.01304E-08
 -1       537-5.61571E+04 4.53376E+04 8.47375E+04 1.23451E+05-1.11281E-07 9.76338E-08
 -1       538-3.94379E+05 3.21117E+03 3.99236E+03-7.20016E+04 3.13707E-08 1.03376E-07
 -1       539-2.69553E+05 2.96705E+03 2.50727E+04 1.38324E+05 1.49310E-07 9.34097E-08
 -1       540-4.96735E+05-4.37523E+02-2.10963E+04-6.98851E+04 3.22734E-08 9.69960E-08
 -1       541 1.44084E+05 1.69054E+04 1.05927E+05 9.75825E+04-4.10746E-08 9.35042E-08
 -1       542-7.96870E+05-2.00417E+04-8.37983E+04-3.03915E+04 3.74503E-08 2.41707E-08
 -1       543 4.01485E+05 2.71957E+04 1.57206E+05-1.33291E+04 4.08361E-08-1.27338E-08
 -1       544-7.47232E+05-1.64533E+04-7.44585E+04 4.03619E+04-2.51248E-08-4.68921E-08
 -1       545 2.68895E+04 9.42676E+03 7.93966E+04-1.13261E+05-5.24569E-08-9.40674E-08
 -1       546-4.32335E+05 6.07473E+03-1.21723E+04 6.91964E+04-1.01113E-08-9.41434E-08
 -1       547-2.87620E+05-4.66125E+03 1.04910E+04-1.41173E+05-1.17352E-07-1.28713E-07
 -1       548-4.41177E+05 4.71384E+03-2.38225E+04 6.89605E+04-1.05895E-07-9.88571E-08
 -1       549 4.60496E+04 1.58824E+04 6.00734E+04-1.11110E+05-5.95364E-08-6.79988E-08
 -1       550-7.57076E+05-2.19397E+04-1.28560E+05 3.84224E+04 2.80579E-09-3.32602E-08
 -1       551 4.08523E+04-7.62934E+05-1.51589E+04-1.24807E+06-1.04003E-07-1.39989E-08
 -1       552 9.32607E+04-8.07722E+05 1.03946E+04-1.77973E+06-7.15081E-08 1.93904E-08
 -1       553 7.16931E+04-8.04220E+05 3.24077E+04-1.24143E+06-1.17652E-07 3.48518E-08
 -1       554 1.32022E+05-8.23498E+05 8.15853E+04-1.78168E+06-7.43894E-08 2.41234E-08
 -1       555 1.01495E+05-8.27856E+05 1.48871E+05-1.24127E+06-1.24797E-07-1.24783E-08
 -1       556 2.22984E+05-3.82502E+05 2.76254E+04-4.06806E+05-2.11585E-08-6.40284E-10
 -1       557 3.53645E+05-4.86769E+05 1.71072E+04-5.26780E+05 2.11003E-09 1.63891E-08
 -1       558 2.04950E+05-3.75674E+05 2.75015E+03-4.10981E+05-1.23691E-08 1.62545E-08
 -1       559 3.28504E+05-4.87100E+05 2.64463E+03-5.47148E+05 1.64146E-08-2.13404E-08
 -1       560 1.89721E+05-3.66123E+05-1.39829E+03-4.21952E+05 1.86265E-09-4.41651E-09
 -1       561 3.09341E+05-4.79446E+05 1.78031E+02-5.60206E+05-6.99947E-09-7.91988E-09
 -1       562 1.77675E+05-3.58636E+05-1.29666E+03-4.30676E+05-7.46513E-09-8.14907E-09
 -1       563 2.95031E+05-4.73207E+05-2.51226E+01-5.69551E+05 8.73115E-10-2.41198E-09
 -1       564 1.69079E+05-3.53280E+05-5.91527E+02-4.36767E+05 7.68341E-09 3.94311E-09
 -1       565 2.85544E+05-4.69076E+05 2.68275E+01-5.75612E+05 6.47560E-09-3.78623E-09
 -1       566 1.64058E+05-3.50103E+05-2.57028E+02-4.40279E+05-5.85715E-09-1.76096E-08
 -1       567 2.80940E+05-4.67073E+05-3.60500E+02-5.78408E+05 2.04418E-08 8.39646E-09
 -1       568 1.62703E+05-3.49273E+05-1.12153E+03-4.41323E+05-5.79894E-09 1.55524E-08
 -1       569 2.79831E+05-4.67002E+05-2.83309E+03-5.76972E+05-9.26411E-09 5.78439E-09
 -1       570 1.66103E+05-3.52504E+05-6.19496E+03-4.40304E+05 4.50382E-09 9.27048E-09
 -1       571 2.90493E+05 1.05073E+04 1.49936E+04-9.50922E+04-9.36234E-09 4.20869E-09
 -1       572 2.92666E+05 3.95848E+03 7.34804E+03-1.04326E+05-2.27865E-08-7.22503E-09
 -1       573 2.91356E+05 1.24353E+03 3.26497E+03-9.49156E+04-4.03088E-09-4.91764E-09
 -1       574 2.91570E+05 7.24629E+02 1.63735E+03-1.04550E+05 1.58429E-08 1.95951E-08
 -1       575 2.91449E+05 4.45648E+02 7.72782E+02-9.48914E+04-2.59119E-09 9.30595E-09
 -1       576 2.91434E+05 4.56763E+02 3.95655E+02-1.04580E+05-2.50470E-08-8.72933E-09
 -1       577 2.91489E+05 3.87614E+02 1.97508E+02-9.48881E+04-1.40190E-08 4.47653E-09
 -1       578 2.91464E+05 4.18803E+02 1.14080E+02-1.04584E+05-5.73482E-09 9.34688E-09
 -1       579 2.91561E+05 3.51054E+02 7.83390E+01-9.48878E+04 5.13683E-09-8.14725E-09
 -1       580 2.91566E+05 3.67925E+02 9.08869E+01-1.04579E+05-8.68113E-09-9.14224E-09
 -1       581 2.91675E+05 2.92642E+02 1.37272E+02-9.48937E+04 1.61981E-08-2.66118E-09
 -1       582 2.91740E+05 3.30711E+02 2.79068E+02-1.04517E+05 2.06483E-08-6.53381E-09
 -1       583 2.91814E+05 3.35171E+02 5.35651E+02-9.49502E+04 1.10231E-08 1.88816E-08
 -1       584 2.92115E+05 7.72509E+02 1.21210E+03-1.04042E+05 1.22836E-08 2.11094E-09
 -1       585 2.91840E+05 1.79284E+03 2.45447E+03-9.53688E+04 2.35377E-09-1.34787E-08
 -1       586-3.42225E+03 1.16790E+05-2.92259E+03-2.50704E+05-7.78027E-09 1.19385E-08
 -1       587-1.33386E+03 1.16540E+05 7.67981E+02-2.75918E+05-5.81895E-09-1.80663E-08
 -1       588 4.03754E+02 1.16348E+05 4.75683E+03-2.50566E+05-5.75164E-09 1.10340E-08
 -1       589 5.08990E+03 1.18821E+05 1.23404E+04-2.75685E+05-8.66748E-09 1.94705E-08
 -1       590 1.66106E+04 1.15015E+05 2.58875E+04-2.50998E+05-4.44197E-09 2.08256E-08
 -1       591-7.49514E+04-1.59837E+04-2.25239E+04-3.19675E+04 4.44743E-10-1.45646E-08
 -1       592-7.90321E+04-1.95482E+04-1.22008E+04-3.56007E+04-2.32049E-10 3.24940E-09
 -1       593-7.72041E+04-1.43492E+04-5.07857E+03-3.36190E+04-3.49899E-09-2.57887E-09
 -1       594-7.59220E+04-1.62432E+04-2.53281E+03-3.57186E+04-3.56692E-09-2.57364E-09
 -1       595-7.73759E+04-1.43438E+04-1.16282E+03-3.36940E+04-4.18630E-09 1.12000E-08
 -1       596-7.57091E+04-1.60920E+04-5.90917E+02-3.56933E+04 6.26204E-09 8.43409E-09
 -1       597-7.73974E+04-1.43592E+04-3.21337E+02-3.36969E+04-1.84389E-09 1.62069E-08
 -1       598-7.56881E+04-1.60861E+04-2.57520E+02-3.56862E+04-1.48738E-08-1.88777E-09
 -1       599-7.73962E+04-1.43598E+04-3.27958E+02-3.36965E+04 1.30399E-10 6.07952E-09
 -1       600-7.57091E+04-1.60926E+04-6.08445E+02-3.56912E+04-1.21918E-09-8.87883E-09
 -1       601-7.73715E+04-1.43452E+04-1.19992E+03-3.36930E+04 4.80259E-09-1.16543E-08
 -1       602-7.59288E+04-1.62474E+04-2.61488E+03-3.57134E+04-6.73833E-09-4.26633E-09
 -1       603-7.71915E+04-1.43537E+04-5.24380E+03-3.36164E+04 4.90672E-10 1.42345E-08
 -1       604-7.91576E+04-1.96403E+04-1.25968E+04-3.55668E+04-3.42106E-09-6.82576E-09
 -1       605-7.48455E+04-1.60591E+04-2.32553E+04-3.19307E+04-3.60671E-10 1.89812E-08
 -1       606 2.67578E+04-1.43275E+04-2.56845E+04 2.40591E+04 6.89215E-09-4.42697E-09
 -1       607 2.23692E+04-4.67919E+03-1.27908E+04 2.70371E+04 9.49512E-10 5.17593E-09
 -1       608 2.48702E+04-8.44000E+02-5.72602E+03 2.38897E+04-3.84716E-09 8.31051E-10
 -1       609 2.43907E+04-2.88934E+02-2.89262E+03 2.72517E+04 2.07547E-09-3.63502E-09
 -1       610 2.46565E+04-4.07335E+01-1.38012E+03 2.38695E+04 3.30601E-09 7.37100E-09
 -1       611 2.45812E+04-4.08956E+01-6.95842E+02 2.72749E+04 5.92263E-09 2.25953E-08
 -1       612 2.46093E+04-2.69527E+01-3.30798E+02 2.38675E+04 2.85127E-09 7.64044E-09
 -1       613 2.45926E+04-3.67374E+01-1.48214E+02 2.72776E+04 4.59568E-09-1.13316E-08
 -1       614 2.45870E+04-3.33120E+01-3.47048E+01 2.38668E+04-7.90351E-10 5.64251E-09
 -1       615 2.45873E+04-3.51956E+01 6.22508E+01 2.72781E+04-5.93354E-09 2.67619E-09
 -1       616 2.45696E+04-3.01449E+01 1.86548E+02 2.38671E+04 1.54159E-10-5.42968E-10
 -1       617 2.46096E+04 4.59676E+00 4.25574E+02 2.72776E+04 3.54044E-09 7.33417E-09
 -1       618 2.45326E+04 9.25696E+01 8.57794E+02 2.38674E+04 4.49290E-09 1.85898E-08
 -1       619 2.49124E+04 6.67868E+02 1.92623E+03 2.72770E+04-6.79847E-10 1.64139E-08
 -1       620 2.42477E+04 2.12664E+03 3.87167E+03 2.38689E+04-1.06388E-09 1.35324E-08
 -1       621 5.10186E+02 3.01492E+05 3.88586E+03 4.08889E+04 9.07676E-10 7.22412E-09
 -1       622 6.75464E+02 3.02390E+05 3.44800E+03 5.93622E+04 1.10049E-09 6.57428E-09
 -1       623 1.41582E+02 3.01687E+05 4.14264E+03 4.07039E+04 1.11277E-09 1.92031E-08
 -1       624 2.12451E+03 3.03608E+05 8.03032E+03 5.95443E+04 1.32064E-09-4.29100E-09
 -1       625 2.07624E+03 3.00095E+05 1.40324E+04 4.07008E+04 1.63482E-09-7.72593E-09
 -1       626 2.60879E+05 6.14604E+04 5.12171E+03 1.26803E+05 3.26781E-09 5.36602E-09
 -1       627 2.58556E+05 6.28626E+04 2.46812E+03 1.31083E+05-2.34286E-09-3.40697E-09
 -1       628 2.61007E+05 5.91167E+04 1.04383E+03 1.27674E+05-1.09558E-08-1.77292E-08
 -1       629 2.57920E+05 6.21828E+04 5.10905E+02 1.31323E+05-5.27325E-09 5.64381E-09
 -1       630 2.61021E+05 5.90034E+04 2.37093E+02 1.27710E+05-4.09591E-09-1.42139E-08
 -1       631 2.57853E+05 6.21569E+04 1.27719E+02 1.31325E+05 6.05905E-09-2.62965E-08
 -1       632 2.61018E+05 5.90074E+04 8.42736E+01 1.27706E+05 5.99675E-09-3.39239E-08
 -1       633 2.57844E+05 6.21588E+04 9.42338E+01 1.31322E+05 4.24620E-09-2.19111E-08
 -1       634 2.61013E+05 5.90046E+04 1.52597E+02 1.27705E+05 3.31738E-09 7.77254E-09
 -1       635 2.57859E+05 6.21571E+04 3.08970E+02 1.31327E+05-5.23661E-09-1.73977E-08
 -1       636 2.61004E+05 5.89988E+04 6.24063E+02 1.27705E+05-2.94494E-09 4.60159E-09
 -1       637 2.57994E+05 6.22541E+04 1.37222E+03 1.31326E+05-3.51588E-09-1.66519E-08
 -1       638 2.60956E+05 5.93019E+04 2.81941E+03 1.27568E+05-2.83762E-10-1.44346E-08
 -1       639 2.59475E+05 6.43139E+04 6.67086E+03 1.30890E+05 4.97766E-09 1.38241E-08
 -1       640 2.60751E+05 6.54527E+04 1.38432E+04 1.24977E+05 7.65112E-09 1.38546E-08
 -1       656 6.66012E+04-1.70440E+06-1.60771E+05-2.53907E+03 1.23691E-10-1.41846E-08
 -1       657-8.81072E+04-1.77705E+06-1.33188E+05 5.19587E+03 1.01863E-10-1.12139E-08
 -1       658 2.12298E+04-1.72503E+06-8.20263E+04-4.62615E+03-8.79936E-11-2.29947E-08
 -1       659-9.52720E+04-1.78045E+06-1.42604E+05 6.92805E+03-1.96451E-09-2.41440E-08
 -1       660 7.37501E+04-1.70100E+06-1.76959E+05-4.27123E+03-7.05768E-10-6.75590E-09
 -1       661 1.58991E+05 1.66418E+04 1.67508E+04 6.21532E+04 9.00400E-10 1.01345E-08
 -1       662 1.68458E+05 2.90503E+04 1.12889E+04 5.83990E+04 3.76519E-09-1.83455E-08
 -1       663 1.62281E+05 2.20158E+04 3.94814E+03 6.11982E+04 2.35445E-09-1.21540E-08
 -1       664 1.64643E+05 2.27659E+04 2.36181E+03 5.95655E+04-3.84208E-09-1.24363E-08
 -1       665 1.62780E+05 2.27497E+04 9.31715E+02 6.10525E+04 4.71283E-09 2.10872E-09
 -1       666 1.64052E+05 2.19267E+04 5.45374E+02 5.97556E+04 6.16183E-09 9.66744E-09
 -1       667 1.62868E+05 2.28331E+04 2.89855E+02 6.10160E+04 2.16278E-09-4.98337E-09
 -1       668 1.63955E+05 2.18668E+04 2.95760E+02 5.98088E+04-6.22968E-09-2.33722E-09
 -1       669 1.62876E+05 2.28079E+04 4.00755E+02 6.09997E+04-2.15849E-09 1.97431E-08
 -1       670 1.64053E+05 2.20845E+04 8.72969E+02 5.98117E+04-9.30013E-09 2.84886E-08
 -1       671 1.62770E+05 2.26200E+04 1.55013E+03 6.10110E+04-1.89999E-09-1.44315E-08
 -1       672 1.64956E+05 2.35926E+04 3.96605E+03 5.95929E+04 7.10550E-09 2.26856E-09
 -1       673 1.61977E+05 2.13380E+04 6.64650E+03 6.12039E+04 2.58910E-09 1.39562E-08
 -1       674 1.71282E+05 3.42710E+04 1.90076E+04 5.77345E+04-6.07997E-09-7.03517E-09
 -1       675 1.56485E+05 1.22407E+04 2.82140E+04 6.27572E+04-2.86354E-09-3.50155E-09
 -1       676 2.41341E+01-2.96139E+05-1.11463E+03-1.36132E+02 1.13923E-09-4.96315E-09
 -1       677-2.94871E+02-2.96409E+05-2.03997E+03 2.72045E+02 7.76618E-09-3.99044E-09
 -1       678 1.97755E+02-2.95947E+05-3.60615E+03-1.35824E+02-1.38971E-09-3.35536E-09
 -1       679-3.60624E+03-2.98586E+05-8.56673E+03 2.70870E+02 8.10292E-09-2.14959E-09
 -1       680 2.15312E+03-2.93964E+05-1.38066E+04-1.33456E+02-5.27507E-10 9.21821E-09
 -1       771-3.06574E+06-7.46584E+05-1.64157E+05-1.46642E+06-2.75613E-08-2.64554E-08
 -1       772-2.98868E+06-8.35063E+05-8.46170E+04-1.56872E+06-1.40863E-08 1.69057E-08
 -1       773-3.09699E+06-7.22198E+05-4.31702E+04-1.48078E+06-1.13214E-08 6.03904E-09
 -1       774-2.97927E+06-8.16792E+05-1.92526E+04-1.59436E+06 2.36323E-08-1.53523E-09
 -1       775-3.11334E+06-7.10717E+05-1.44237E+04-1.48777E+06-9.34233E-09 2.72121E-09
 -1       776-2.99153E+06-8.13801E+05-5.39002E+03-1.61376E+06-2.50002E-08 1.60071E-10
 -1       777-3.12754E+06-7.00470E+05-6.38064E+03-1.49394E+06-2.67755E-09-2.51748E-09
 -1       778-3.00432E+06-8.11012E+05-1.80254E+03-1.63043E+06 5.00586E-09 6.94126E-09
 -1       779-3.13974E+06-6.91517E+05-3.19116E+03-1.49921E+06-7.77072E-09-1.30931E-08
 -1       780-3.01560E+06-8.08349E+05-5.29358E+02-1.64400E+06-2.91038E-10 2.07365E-10
 -1       781-3.14944E+06-6.84300E+05-1.24151E+03-1.50334E+06-2.33995E-08-3.80169E-10
 -1       782-3.02428E+06-8.06087E+05 4.43666E+02-1.65402E+06-3.96249E-08-5.84259E-09
 -1       783-3.15627E+06-6.79285E+05 6.88786E+02-1.50623E+06-4.96220E-09-1.20262E-08
 -1       784-3.02910E+06-8.03827E+05 2.86737E+03-1.66021E+06-1.63927E-08 6.35555E-09
 -1       785-3.16031E+06-6.76297E+05 5.06031E+03-1.50806E+06-3.57941E-08 1.04155E-08
 -1       786 1.24401E+05-9.79547E+03 2.26628E+04-3.22174E+02 3.37752E-09 9.40145E-09
 -1       787 1.34230E+05 1.13410E+04 1.60330E+04-1.35481E+02 5.07592E-09 6.61885E-10
 -1       788 1.28190E+05-1.53498E+03 5.86337E+03-2.87008E+02 4.31642E-09 1.43527E-08
 -1       789 1.29815E+05 1.77670E+03 3.68084E+03-1.89368E+02 3.60259E-10 7.64061E-09
 -1       790 1.28816E+05-2.38999E+02 1.49038E+03-2.68304E+02-3.52515E-09-4.90382E-09
 -1       791 1.29083E+05 2.76537E+02 8.60945E+02-2.21371E+02-7.99973E-09-2.72200E-09
 -1       792 1.28922E+05-3.59423E+01 3.65108E+02-2.55007E+02-4.42476E-09 1.85035E-09
 -1       793 1.28956E+05 3.81053E+01 1.82613E+02-2.46391E+02 3.49658E-10-1.25644E-09
 -1       794 1.28943E+05-7.17784E-01 4.86606E+01-2.43284E+02 4.54908E-09 6.97204E-09
 -1       795 1.28920E+05-2.65288E+01-5.47780E+01-2.70872E+02-4.13791E-09 1.93793E-08
 -1       796 1.28959E+05 2.86556E+01-1.57757E+02-2.30526E+02 3.40651E-09 6.56371E-10
 -1       797 1.28827E+05-2.14024E+02-4.34563E+02-3.00198E+02 4.10487E-09 6.15472E-09
 -1       798 1.29035E+05 1.86636E+02-7.06144E+02-2.13957E+02 1.68168E-09 4.56885E-09
 -1       799 1.28291E+05-1.37564E+03-1.94305E+03-3.41241E+02 6.30099E-09-3.35490E-10
 -1       800 1.29495E+05 1.18932E+03-2.74992E+03-1.89485E+02 1.86324E-10 5.85260E-10
 -1       801-1.68207E+05-9.93769E+06-1.38347E+06 1.40032E+06 9.07457E-08-4.25061E-08
 -1       802 7.28903E+05 5.85247E+06 2.15720E+06-1.72714E+06 2.56608E-07-3.70319E-08
 -1       803-5.30968E+05-1.41514E+07-1.87060E+06 8.89795E+05 7.70378E-08 1.70658E-08
 -1       804 2.83388E+05 2.32501E+06 1.51940E+06 6.71532E+05-1.18729E-07-9.08344E-08
 -1       805 1.88029E+05-6.42446E+06-2.82442E+05-9.92750E+05-4.94983E-08-5.99339E-08
 -1       806-3.08900E+05-5.97763E+04-2.28577E+04-1.22429E+05-8.18090E-09-1.54068E-09
 -1       807-3.10696E+05-5.60476E+04-1.12298E+04-1.27978E+05 9.46420E-09 7.14212E-09
 -1       808-3.09527E+05-5.15385E+04-4.76402E+03-1.26323E+05-4.23097E-09-1.23418E-09
 -1       809-3.08335E+05-5.28924E+04-2.32948E+03-1.28254E+05-1.04542E-08-1.23870E-08
 -1       810-3.09622E+05-5.12517E+04-1.06773E+03-1.26495E+05 6.75391E-09 8.10883E-09
 -1       811-3.08152E+05-5.27657E+04-5.30999E+02-1.28218E+05 6.87442E-09-1.56072E-08
 -1       812-3.09636E+05-5.12764E+04-2.68626E+02-1.26494E+05-5.85442E-09 5.32873E-09
 -1       813-3.08127E+05-5.27678E+04-1.74701E+02-1.28199E+05-9.89530E-09-7.15090E-09
 -1       814-3.09629E+05-5.12862E+04-1.73324E+02-1.26490E+05-2.11458E-09-1.07702E-08
 -1       815-3.08130E+05-5.27701E+04-2.79427E+02-1.28192E+05-9.06311E-10 1.34125E-08
 -1       816-3.09608E+05-5.12853E+04-5.29720E+02-1.26486E+05-2.41562E-09 3.55103E-08
 -1       817-3.08220E+05-5.28206E+04-1.13688E+03-1.28180E+05-2.11271E-08 3.55453E-09
 -1       818-3.09539E+05-5.14458E+04-2.31887E+03-1.26411E+05-7.36600E-09 2.53203E-09
 -1       819-3.09489E+05-5.42215E+04-5.45612E+03-1.27880E+05-1.28466E-09 7.60133E-09
 -1       820-3.09101E+05-5.55676E+04-1.11052E+04-1.24650E+05-2.47292E-09 7.19433E-09
 -1       821-3.79032E+05 2.08734E+04-4.85921E+04 2.12698E+03 1.38529E-08-8.58199E-09
 -1       822-3.98730E+05-2.41809E+04-3.41474E+04-4.47900E+03 5.57323E-09-2.60811E-08
 -1       823-3.86493E+05 3.29060E+03-1.25507E+04 3.44412E+03-1.33641E-08-1.31558E-08
 -1       824-3.89722E+05-3.79466E+03-7.85562E+03-5.39823E+03 1.49278E-09 1.43596E-08
 -1       825-3.88047E+05 5.11482E+02-3.28997E+03 3.04633E+03 2.04594E-08 1.05013E-09
 -1       826-3.87283E+05-5.67275E+02-1.74298E+03-3.11850E+03 2.75787E-08-4.92162E-09
 -1       827-3.88907E+05 4.65385E+01-1.19153E+03 1.16424E+03 1.10797E-08-2.27914E-09
 -1       828-3.86573E+05-1.31572E+02-5.83812E+02 1.09090E+03-1.28648E-09 2.07570E-08
 -1       829-3.88744E+05 6.56150E+01-1.18032E+03-1.16310E+03 3.21734E-09-1.88140E-09
 -1       830-3.87634E+05-6.21945E+02-1.88137E+03 4.89607E+03-1.10035E-10 2.28840E-08
 -1       831-3.87868E+05 5.54667E+02-3.37165E+03-2.64094E+03-6.13311E-09 9.66133E-09
 -1       832-3.89802E+05-3.96117E+03-8.15830E+03 6.18424E+03-3.84864E-09-1.07930E-08
 -1       833-3.86593E+05 3.41450E+03-1.30546E+04-2.45133E+03-2.18098E-09-1.22072E-08
 -1       834-3.98789E+05-2.50941E+04-3.53699E+04 4.20610E+03-2.16892E-09-1.20885E-08
 -1       835-3.78864E+05 2.16546E+04-5.04621E+04-6.62723E+02 6.90173E-09-8.70568E-09
 -1       836-1.41390E+03 3.70285E+05 2.29100E+04-1.62192E+04-6.90034E-09-1.01486E-08
 -1       837 4.88422E+03 3.77460E+05 1.93836E+04-3.31383E+04-7.43944E-09-7.50811E-09
 -1       838-5.57870E+02 3.72297E+05 1.97458E+04-1.61475E+04-6.06542E-09 3.15549E-09
 -1       839 1.24257E+04 3.83077E+05 3.73496E+04-3.31907E+04-6.78847E-09-6.78432E-09
 -1       840-3.84137E+03 3.64609E+05 5.95573E+04-1.61726E+04-5.96992E-09-5.26501E-09
 -1       856-5.25372E+04 8.03855E+03-2.11833E+04-3.98335E+02 4.24689E-09 2.05719E-08
 -1       857-6.12644E+04-9.44490E+03-1.45824E+04 5.63812E+03 3.69823E-09-1.36142E-08
 -1       858-5.59934E+04 1.12732E+03-5.49657E+03-4.22515E+02 2.48332E-09-5.06589E-09
 -1       859-5.72982E+04-1.32611E+03-3.31694E+03 5.67411E+03-4.85393E-09 1.94298E-08
 -1       860-5.65097E+04 1.57869E+02-1.39015E+03-4.34063E+02-2.25660E-09 2.51021E-09
 -1       861-5.67042E+04-1.88332E+02-7.64780E+02 5.68985E+03-8.87781E-10-1.83793E-08
 -1       862-5.65905E+04 2.13811E+01-3.17975E+02-4.38224E+02-2.16162E-09 3.59643E-09
 -1       863-5.66052E+04-2.17778E+01-1.15980E+02 5.69226E+03-7.12674E-09 1.95468E-08
 -1       864-5.66092E+04-4.89608E+00 4.69440E+01-4.36475E+02-9.58266E-10-1.25736E-09
 -1       865-5.65495E+04 5.96842E+01 2.54934E+02 5.68228E+03 1.96900E-09-2.17631E-09
 -1       866-5.66440E+04-6.01043E+01 5.13936E+02-4.28248E+02 3.13776E-09-1.21599E-09
 -1       867-5.63077E+04 4.96349E+02 1.26513E+03 5.65995E+03 1.68782E-09 1.21895E-08
 -1       868-5.68460E+04-4.33692E+02 2.10228E+03-4.14138E+02-1.66290E-09 2.96109E-09
 -1       869-5.47664E+04 3.60940E+03 5.59772E+03 5.62319E+03 3.47620E-09-3.12109E-08
 -1       870-5.81776E+04-3.08863E+03 8.12352E+03-3.91389E+02-4.48040E-09 5.87215E-09
 -1       871-5.52262E+03-2.12949E+04-1.94923E+04 1.30422E+05-4.42560E-09-1.25292E-08
 -1       872-1.98694E+03-2.58264E+04-8.16087E+03 1.69112E+05-1.15069E-08-2.42276E-08
 -1       873 4.01819E+02-2.36354E+04 5.92333E+02 1.30135E+05-6.37920E-09-6.39091E-09
 -1       874 3.30325E+03-2.12221E+04 9.78597E+03 1.69141E+05-1.11741E-08 3.17054E-08
 -1       875 6.84673E+03-2.59665E+04 2.20744E+04 1.30374E+05-5.70981E-09-7.50333E-10
 -1       876 2.93891E+05 4.95374E+04 1.51089E+04 1.17945E+05 7.51527E-09 1.77952E-08
 -1       877 2.94890E+05 5.27201E+04 8.06873E+03 1.22280E+05 1.05128E-08 6.93149E-10
 -1       878 2.95304E+05 4.78638E+04 3.38040E+03 1.19182E+05-5.87033E-09-7.53016E-09
 -1       879 2.92836E+05 5.06704E+04 1.68433E+03 1.22382E+05 4.27463E-09-2.67391E-09
 -1       880 2.95406E+05 4.78465E+04 7.84537E+02 1.19233E+05-7.51720E-09-8.69647E-10
 -1       881 2.92700E+05 5.05828E+04 4.18974E+02 1.22358E+05-1.44070E-08 3.74368E-09
 -1       882 2.95415E+05 4.78598E+04 2.68064E+02 1.19235E+05-5.47993E-09 3.05785E-08
 -1       883 2.92690E+05 5.05782E+04 2.88229E+02 1.22351E+05-9.10404E-10 1.52351E-08
 -1       884 2.95408E+05 4.78570E+04 4.58548E+02 1.19235E+05-3.95937E-09 4.92946E-10
 -1       885 2.92726E+05 5.05845E+04 9.21963E+02 1.22362E+05-1.04909E-08 6.53108E-09
 -1       886 2.95372E+05 4.78301E+04 1.85819E+03 1.19231E+05-2.54939E-09-1.24389E-08
 -1       887 2.93053E+05 5.07987E+04 4.05895E+03 1.22409E+05 1.13767E-08-1.05684E-08
 -1       888 2.95116E+05 4.78753E+04 8.17891E+03 1.19101E+05-1.65923E-09-1.30058E-10
 -1       889 2.97922E+05 5.58623E+04 1.95379E+04 1.22259E+05-5.23425E-09 2.71575E-09
 -1       890 2.91778E+05 5.18407E+04 3.65940E+04 1.15989E+05-4.22278E-09 4.24734E-09
 -1       891-9.00060E+01-1.62860E+05-1.99737E+03 2.71846E+04-1.65005E-09 1.20770E-08
 -1       892-1.76385E+02-1.63387E+05-2.14522E+03 4.12802E+04 2.55068E-09 8.43829E-09
 -1       893 4.30842E+01-1.62924E+05-3.03740E+03 2.71919E+04-2.06910E-11 2.35559E-10
 -1       894-1.51179E+03-1.64535E+05-6.28627E+03 4.11275E+04 1.54796E-09-5.91763E-09
 -1       895-1.20055E+03-1.61615E+05-1.10701E+04 2.73391E+04 1.41142E-09 1.98725E-09
 -1       956-3.77339E+05-5.45087E+03-1.34583E+04 3.08353E+04-3.70073E-09 1.06334E-08
 -1       957-3.79980E+05-1.92202E+03-6.90794E+03 3.70566E+04-1.50576E-08-1.60417E-08
 -1       958-3.78548E+05-2.39992E+02-3.11294E+03 3.06676E+04-9.43965E-09 8.83347E-09
 -1       959-3.78745E+05-1.35077E+02-1.58951E+03 3.72521E+04-2.26964E-09 3.94925E-09
 -1       960-3.78666E+05-4.38140E+01-7.75124E+02 3.06503E+04 1.63345E-09-7.28141E-09
 -1       961-3.78665E+05-6.20243E+01-4.10962E+02 3.72726E+04 1.54350E-08-1.63125E-08
 -1       962-3.78694E+05-4.50449E+01-2.35285E+02 3.06474E+04-2.01590E-09-3.63457E-09
 -1       963-3.78665E+05-5.78307E+01-1.88874E+02 3.72762E+04-7.39510E-09 1.01868E-08
 -1       964-3.78699E+05-4.16841E+01-2.29684E+02 3.06466E+04-3.16521E-09-7.92193E-09
 -1       965-3.78677E+05-5.48590E+01-3.97258E+02 3.72755E+04-5.43059E-09-3.69744E-08
 -1       966-3.78683E+05-3.38263E+01-7.46436E+02 3.06481E+04 9.12814E-09-1.55258E-08
 -1       967-3.78767E+05-1.18406E+02-1.53093E+03 3.72612E+04 9.22250E-09-1.08651E-08
 -1       968-3.78579E+05-2.16360E+02-2.99700E+03 3.06608E+04 6.41558E-09 1.18710E-08
 -1       969-3.79968E+05-1.83386E+03-6.65327E+03 3.71129E+04 2.41926E-09 1.21189E-08
 -1       970-3.77423E+05-5.23116E+03-1.29610E+04 3.07879E+04-3.41424E-09 2.38106E-09
 -1       971-3.45561E+05-1.72881E+03-9.31939E+03 1.53925E+04 4.13820E-09 1.85002E-08
 -1       972-3.47805E+05-1.27246E+03-5.07524E+03 2.12898E+04-2.94494E-09 7.27459E-09
 -1       973-3.46600E+05-6.16646E+01-2.27325E+03 1.52712E+04 6.65477E-09 1.58134E-08
 -1       974-3.46735E+05-8.05371E+01-1.17837E+03 2.14270E+04 5.05111E-09 6.15887E-09
 -1       975-3.46682E+05-1.67300E+01-5.89483E+02 1.52588E+04-1.52932E-09-5.53746E-09
 -1       976-3.46673E+05-3.06295E+01-3.40914E+02 2.14428E+04-2.69711E-09 7.31598E-09
 -1       977-3.46698E+05-1.59749E+01-2.48907E+02 1.52554E+04-7.54267E-09-4.48870E-09
 -1       978-3.46679E+05-2.43915E+01-2.93287E+02 2.14477E+04-5.21425E-09-1.74426E-08
 -1       979-3.46698E+05-7.48780E+00-4.72952E+02 1.52540E+04-7.19979E-10-1.85008E-08
 -1       980-3.46714E+05-2.13261E+01-9.14297E+02 2.14487E+04 8.70557E-10-1.78038E-08
 -1       981-3.46669E+05 1.53643E+01-1.77135E+03 1.52545E+04-5.14319E-09-4.81867E-09
 -1       982-3.46957E+05-1.52214E+02-3.66167E+03 2.14420E+04-7.55631E-09-1.31031E-09
 -1       983-3.46446E+05-9.80671E+01-7.11481E+03 1.52605E+04-4.96129E-09 1.49037E-08
 -1       984-3.50379E+05-3.86808E+03-1.59334E+04 2.13563E+04-3.20028E-09 8.50184E-09
 -1       985-3.43224E+05-5.30425E+03-2.92587E+04 1.53321E+04-4.69618E-09 1.22200E-08
 -3
    1PSTEP                        47          24           1          
  100CL  124 6.63466E-01         409                     0   24           1
 -4  DISP        4    1
 -5  D1          1    2    1    0
 -5  D2          1    2    2    0
 -5  D3          1    2    3    0
 -5  ALL         1    2    0    0    1ALL
 -1         1 2.68289E-03 0.00000E+00 0.00000E+00
 -1         2 1.52752E-03 2.73360E-29 0.00000E+00
 -1         3 3.42279E-04-5.53114E-28 0.00000E+00
 -1         5 1.77028E-04-2.60651E-27-2.48154E-24
 -1         8 2.67119E-03-4.16866E-07 0.00000E+00
 -1         9 2.64909E-03-1.33304E-04 0.00000E+00
 -1        10 3.10328E-04-3.47408E-06 6.61744E-24
 -1        12 1.78858E-04 8.09363E-07 1.65436E-24
 -1        15 2.65747E-03-4.43613E-07 0.00000E+00
 -1        16 2.70915E-03-1.35023E-04 0.00000E+00
 -1        17 2.11192E-04-7.90635E-06 0.00000E+00
 -1        18 1.82754E-04 3.41989E-05 0.00000E+00
 -1        19 1.84347E-04 1.61235E-06 0.00000E+00
 -1        20 1.84487E-04-9.66158E-06 0.00000E+00
 -1        21 1.83595E-04-2.49611E-05 0.00000E+00
 -1        24 3.06779E-05-1.21440E-05 0.00000E+00
 -1        25 1.93452E-04 3.44246E-05 0.00000E+00
 -1        26 1.94136E-04 2.23275E-06 0.00000E+00
 -1        27 1.91935E-04-1.32210E-05 0.00000E+00
 -1        28 1.91618E-04-2.55836E-05 0.00000E+00
 -1        32 0.00000E+00 0.00000E+00 0.00000E+00
 -1        33 2.02917E-04 2.98686E-06 0.00000E+00
 -1        34 2.00799E-04-1.32770E-05 0.00000E+00
 -1        35 1.98865E-04-2.59261E-05 0.00000E+00
 -1        51 2.68212E-03-8.65056E-08 3.30872E-24
 -1        52 2.68070E-03-1.54813E-07 0.00000E+00
 -1        53 2.67876E-03-2.19766E-07 0.00000E+00
 -1        54 2.67644E-03-2.83613E-07-1.65436E-24
 -1        55 2.67387E-03-3.48113E-07 0.00000E+00
 -1        56 2.67582E-03 6.97203E-06 0.00000E+00
 -1        57 2.66249E-03 2.94643E-05-5.29396E-23
 -1        58 2.64472E-03 6.29155E-05 1.05879E-22
 -1        59 2.62469E-03 1.01706E-04 0.00000E+00
 -1        60 2.60516E-03 1.39297E-04 1.05879E-22
 -1        61 2.58879E-03 1.69245E-04 0.00000E+00
 -1        62 2.57753E-03 1.86468E-04-1.05879E-22
 -1        63 2.57272E-03 1.87017E-04-5.29396E-23
 -1        64 2.57436E-03 1.69984E-04 1.05879E-22
 -1        65 2.58189E-03 1.36102E-04-5.29396E-23
 -1        66 2.59376E-03 8.92683E-05 0.00000E+00
 -1        67 2.60814E-03 3.46296E-05 0.00000E+00
 -1        68 2.62290E-03-2.11721E-05 0.00000E+00
 -1        69 2.63589E-03-7.13744E-05-5.29396E-23
 -1        70 2.64515E-03-1.10295E-04 0.00000E+00
 -1        86 1.59748E-03-4.45059E-06-5.29396E-23
 -1        87 1.80129E-03-2.67219E-05-1.32349E-23
 -1        88 2.07563E-03-6.47189E-05 0.00000E+00
 -1        89 2.35386E-03-1.03801E-04 0.00000E+00
 -1        90 2.56711E-03-1.27934E-04 0.00000E+00
 -1       121 3.41381E-04-5.61279E-07 0.00000E+00
 -1       122 3.38693E-04-1.12565E-06-6.61744E-24
 -1       123 3.34223E-04-1.69614E-06 0.00000E+00
 -1       124 3.27988E-04-2.27581E-06 0.00000E+00
 -1       125 3.20013E-04-2.86728E-06-1.32349E-23
 -1       191 1.77079E-04 1.34957E-07 1.65436E-24
 -1       192 1.77232E-04 2.69902E-07 0.00000E+00
 -1       193 1.77486E-04 4.04827E-07-2.48154E-24
 -1       194 1.77841E-04 5.39721E-07-4.13590E-25
 -1       195 1.78299E-04 6.74571E-07 2.48154E-24
 -1       251 2.67079E-03 1.27429E-05 0.00000E+00
 -1       252 2.66989E-03 4.74158E-05-3.30872E-24
 -1       253 2.66844E-03 9.64145E-05 6.61744E-24
 -1       254 2.66663E-03 1.52364E-04 0.00000E+00
 -1       255 2.66494E-03 2.05980E-04 6.61744E-24
 -1       256 2.66379E-03 2.48010E-04 0.00000E+00
 -1       257 2.66317E-03 2.72349E-04-6.61744E-24
 -1       258 2.66285E-03 2.73128E-04 0.00000E+00
 -1       259 2.66228E-03 2.50571E-04 1.32349E-23
 -1       260 2.66097E-03 2.05231E-04 0.00000E+00
 -1       261 2.65883E-03 1.43571E-04 0.00000E+00
 -1       262 2.65608E-03 7.22661E-05 0.00000E+00
 -1       263 2.65331E-03 6.22818E-07 0.00000E+00
 -1       264 2.65111E-03-6.20478E-05-6.61744E-24
 -1       265 2.64973E-03-1.08906E-04 0.00000E+00
 -1       266 2.66891E-03-4.27162E-07 0.00000E+00
 -1       267 2.66662E-03-4.30908E-07-8.27181E-25
 -1       268 2.66433E-03-4.35069E-07 8.27181E-25
 -1       269 2.66205E-03-4.38001E-07 0.00000E+00
 -1       270 2.65976E-03-4.40905E-07-2.06795E-25
 -1       271 2.67001E-03 8.33967E-07 1.32349E-23
 -1       272 2.66941E-03 4.87275E-07 0.00000E+00
 -1       273 2.66940E-03-1.42322E-06 0.00000E+00
 -1       274 2.66995E-03-4.85946E-06 0.00000E+00
 -1       275 2.67104E-03-9.76802E-06 2.64698E-23
 -1       276 2.67265E-03-1.60848E-05-1.32349E-23
 -1       277 2.67476E-03-2.37331E-05 0.00000E+00
 -1       278 2.67731E-03-3.26255E-05 0.00000E+00
 -1       279 2.68029E-03-4.26643E-05 0.00000E+00
 -1       280 2.68365E-03-5.37418E-05 0.00000E+00
 -1       281 2.68734E-03-6.57417E-05 0.00000E+00
 -1       282 2.69131E-03-7.85401E-05 0.00000E+00
 -1       283 2.69553E-03-9.20064E-05 2.64698E-23
 -1       284 2.69995E-03-1.06004E-04 0.00000E+00
 -1       285 2.70450E-03-1.20392E-04 0.00000E+00
 -1       301 2.66004E-03-1.33624E-04 0.00000E+00
 -1       302 2.66941E-03-1.33899E-04-6.61744E-24
 -1       303 2.67810E-03-1.34165E-04 0.00000E+00
 -1       304 2.68702E-03-1.34431E-04 0.00000E+00
 -1       305 2.69707E-03-1.34710E-04 0.00000E+00
 -1       306 2.68670E-03-2.86517E-04 0.00000E+00
 -1       307 2.75061E-03-6.98827E-04 0.00000E+00
 -1       308 2.79749E-03-1.30304E-03 0.00000E+00
 -1       309 2.82118E-03-2.00404E-03 0.00000E+00
 -1       310 2.85184E-03-2.67669E-03 1.05879E-22
 -1       311 2.91076E-03-3.19831E-03 5.29396E-23
 -1       312 2.96939E-03-3.48802E-03 0.00000E+00
 -1       313 2.96792E-03-3.50679E-03-5.29396E-23
 -1       314 2.83293E-03-3.26547E-03 0.00000E+00
 -1       315 2.52291E-03-2.82731E-03 5.29396E-23
 -1       316 2.05483E-03-2.26854E-03 0.00000E+00
 -1       317 1.49308E-03-1.65878E-03 5.29396E-23
 -1       318 9.50876E-04-1.05932E-03 1.05879E-22
 -1       319 5.35604E-04-5.35427E-04 5.29396E-23
 -1       320 2.91330E-04-1.60869E-04 1.05879E-22
 -1       336 2.98746E-04-4.14464E-06-1.32349E-23
 -1       337 2.85093E-04-4.84084E-06 0.00000E+00
 -1       338 2.69431E-04-5.56484E-06 0.00000E+00
 -1       339 2.51837E-04-6.31738E-06 0.00000E+00
 -1       340 2.32393E-04-7.10291E-06 0.00000E+00
 -1       406 1.79519E-04 9.44080E-07 2.48154E-24
 -1       407 1.80281E-04 1.07868E-06-1.24077E-24
 -1       408 1.81145E-04 1.21312E-06-1.24077E-24
 -1       409 1.82111E-04 1.34723E-06-1.55096E-24
 -1       410 1.83179E-04 1.48072E-06-2.48154E-24
 -1       521 2.74735E-03-2.97401E-04 1.05879E-22
 -1       522 2.80953E-03-7.29729E-04 0.00000E+00
 -1       523 2.85004E-03-1.36145E-03 0.00000E+00
 -1       524 2.86459E-03-2.09075E-03 5.29396E-23
 -1       525 2.88735E-03-2.78976E-03-1.05879E-22
 -1       526 2.94264E-03-3.33330E-03 0.00000E+00
 -1       527 3.00079E-03-3.63372E-03 0.00000E+00
 -1       528 2.99717E-03-3.65099E-03 0.00000E+00
 -1       529 2.85062E-03-3.39584E-03-2.11758E-22
 -1       530 2.51732E-03-2.93930E-03 0.00000E+00
 -1       531 2.01493E-03-2.36137E-03 0.00000E+00
 -1       532 1.41418E-03-1.73435E-03 0.00000E+00
 -1       533 8.33530E-04-1.11703E-03 0.00000E+00
 -1       534 3.85462E-04-5.72389E-04 0.00000E+00
 -1       535 1.20236E-04-1.78451E-04 0.00000E+00
 -1       536 2.10440E-04 2.69396E-05 0.00000E+00
 -1       537 2.08530E-04 8.72434E-05 0.00000E+00
 -1       538 2.05579E-04 1.63759E-04 0.00000E+00
 -1       539 2.02098E-04 2.47156E-04 1.65436E-24
 -1       540 1.98966E-04 3.25960E-04-3.30872E-24
 -1       541 1.96930E-04 3.88718E-04 0.00000E+00
 -1       542 1.95990E-04 4.28690E-04 3.30872E-24
 -1       543 1.95766E-04 4.39287E-04 0.00000E+00
 -1       544 1.95444E-04 4.21280E-04 3.30872E-24
 -1       545 1.94276E-04 3.75663E-04 0.00000E+00
 -1       546 1.92100E-04 3.10546E-04 0.00000E+00
 -1       547 1.89156E-04 2.34158E-04 0.00000E+00
 -1       548 1.86238E-04 1.58148E-04 0.00000E+00
 -1       549 1.84133E-04 9.41641E-05 0.00000E+00
 -1       550 1.83039E-04 5.02186E-05 0.00000E+00
 -1       551 1.86040E-04-8.47840E-06 0.00000E+00
 -1       552 1.57645E-04-9.13060E-06 0.00000E+00
 -1       553 1.26951E-04-9.84482E-06 6.61744E-24
 -1       554 9.49190E-05-1.06000E-05 0.00000E+00
 -1       555 6.25094E-05-1.13687E-05 0.00000E+00
 -1       556 2.03561E-04 1.16058E-05 0.00000E+00
 -1       557 1.97396E-04 2.74300E-05 0.00000E+00
 -1       558 1.92563E-04 3.98537E-05 0.00000E+00
 -1       559 1.88929E-04 4.91867E-05 0.00000E+00
 -1       560 1.86365E-04 5.57393E-05 0.00000E+00
 -1       561 1.84742E-04 5.98245E-05 0.00000E+00
 -1       562 1.83936E-04 6.17563E-05 0.00000E+00
 -1       563 1.83823E-04 6.18498E-05 0.00000E+00
 -1       564 1.84281E-04 6.04208E-05 0.00000E+00
 -1       565 1.85189E-04 5.77859E-05 6.61744E-24
 -1       566 1.86429E-04 5.42622E-05 0.00000E+00
 -1       567 1.87880E-04 5.01673E-05 0.00000E+00
 -1       568 1.89426E-04 4.58189E-05 0.00000E+00
 -1       569 1.90949E-04 4.15346E-05 8.27181E-25
 -1       570 1.92329E-04 3.76321E-05 0.00000E+00
 -1       571 1.82850E-04 3.20848E-05-8.27181E-25
 -1       572 1.82949E-04 2.99051E-05 4.13590E-25
 -1       573 1.83048E-04 2.76753E-05-1.65436E-24
 -1       574 1.83147E-04 2.54119E-05-1.65436E-24
 -1       575 1.83247E-04 2.31311E-05 0.00000E+00
 -1       576 1.83346E-04 2.08495E-05 0.00000E+00
 -1       577 1.83446E-04 1.85836E-05-3.30872E-24
 -1       578 1.83545E-04 1.63498E-05 0.00000E+00
 -1       579 1.83645E-04 1.41647E-05 0.00000E+00
 -1       580 1.83745E-04 1.20447E-05-6.61744E-24
 -1       581 1.83845E-04 1.00064E-05 0.00000E+00
 -1       582 1.83945E-04 8.06624E-06 6.61744E-24
 -1       583 1.84045E-04 6.24063E-06 0.00000E+00
 -1       584 1.84146E-04 4.54593E-06 0.00000E+00
 -1       585 1.84247E-04 2.99824E-06-6.61744E-24
 -1       586 1.84496E-04 3.42386E-05 0.00000E+00
 -1       587 1.86197E-04 3.42778E-05-4.13590E-25
 -1       588 1.87899E-04 3.43166E-05 0.00000E+00
 -1       589 1.89648E-04 3.43547E-05 0.00000E+00
 -1       590 1.91484E-04 3.43916E-05 0.00000E+00
 -1       591 1.83478E-04 3.21783E-05-2.06795E-25
 -1       592 1.84205E-04 3.01377E-05-2.06795E-25
 -1       593 1.84938E-04 2.80830E-05 0.00000E+00
 -1       594 1.85673E-04 2.60188E-05 0.00000E+00
 -1       595 1.86410E-04 2.39500E-05 0.00000E+00
 -1       596 1.87147E-04 2.18811E-05-4.13590E-25
 -1       597 1.87882E-04 1.98171E-05-8.27181E-25
 -1       598 1.88614E-04 1.77625E-05-4.13590E-25
 -1       599 1.89340E-04 1.57221E-05 0.00000E+00
 -1       600 1.90059E-04 1.37006E-05-4.13590E-25
 -1       601 1.90770E-04 1.17027E-05 0.00000E+00
 -1       602 1.91470E-04 9.73298E-06 0.00000E+00
 -1       603 1.92158E-04 7.79629E-06-8.27181E-25
 -1       604 1.92832E-04 5.89741E-06 5.16988E-26
 -1       605 1.93491E-04 4.04094E-06 0.00000E+00
 -1       606 1.84360E-04 4.59726E-07 0.00000E+00
 -1       607 1.84370E-04-6.06804E-07 0.00000E+00
 -1       608 1.84379E-04-1.59229E-06 0.00000E+00
 -1       609 1.84387E-04-2.50244E-06 0.00000E+00
 -1       610 1.84396E-04-3.34301E-06-3.30872E-24
 -1       611 1.84404E-04-4.11979E-06 0.00000E+00
 -1       612 1.84412E-04-4.83862E-06 0.00000E+00
 -1       613 1.84421E-04-5.50532E-06 0.00000E+00
 -1       614 1.84429E-04-6.12572E-06 0.00000E+00
 -1       615 1.84438E-04-6.70564E-06-8.27181E-25
 -1       616 1.84446E-04-7.25092E-06 0.00000E+00
 -1       617 1.84454E-04-7.76738E-06 0.00000E+00
 -1       618 1.84463E-04-8.26084E-06 8.27181E-25
 -1       619 1.84471E-04-8.73715E-06 0.00000E+00
 -1       620 1.84479E-04-9.20212E-06 0.00000E+00
 -1       621 1.85694E-04 1.71631E-06 0.00000E+00
 -1       622 1.87199E-04 1.82052E-06 0.00000E+00
 -1       623 1.88829E-04 1.92452E-06 1.65436E-24
 -1       624 1.90551E-04 2.02819E-06-8.27181E-25
 -1       625 1.92331E-04 2.13157E-06-1.65436E-24
 -1       626 1.84891E-04 4.95840E-07 0.00000E+00
 -1       627 1.85413E-04-5.57375E-07 0.00000E+00
 -1       628 1.85914E-04-1.55516E-06 0.00000E+00
 -1       629 1.86397E-04-2.50571E-06-1.65436E-24
 -1       630 1.86866E-04-3.41722E-06 3.30872E-24
 -1       631 1.87323E-04-4.29793E-06-1.65436E-24
 -1       632 1.87772E-04-5.15604E-06 0.00000E+00
 -1       633 1.88216E-04-5.99981E-06 1.65436E-24
 -1       634 1.88657E-04-6.83746E-06 0.00000E+00
 -1       635 1.89099E-04-7.67720E-06 0.00000E+00
 -1       636 1.89545E-04-8.52727E-06 3.30872E-24
 -1       637 1.89998E-04-9.39591E-06-1.65436E-24
 -1       638 1.90461E-04-1.02913E-05-1.65436E-24
 -1       639 1.90936E-04-1.12218E-05-8.27181E-25
 -1       640 1.91427E-04-1.21956E-05 1.65436E-24
 -1       656 1.85180E-04-1.02401E-05 6.61744E-24
 -1       657 1.86292E-04-1.08421E-05 0.00000E+00
 -1       658 1.87686E-04-1.14428E-05 0.00000E+00
 -1       659 1.89214E-04-1.20431E-05 0.00000E+00
 -1       660 1.90692E-04-1.26452E-05 0.00000E+00
 -1       661 1.84746E-04-1.01661E-05 0.00000E+00
 -1       662 1.85043E-04-1.07625E-05 0.00000E+00
 -1       663 1.85372E-04-1.14454E-05 1.65436E-24
 -1       664 1.85732E-04-1.22085E-05 8.27181E-25
 -1       665 1.86120E-04-1.30459E-05 1.65436E-24
 -1       666 1.86533E-04-1.39517E-05 8.27181E-25
 -1       667 1.86969E-04-1.49201E-05 0.00000E+00
 -1       668 1.87427E-04-1.59458E-05 0.00000E+00
 -1       669 1.87905E-04-1.70232E-05 0.00000E+00
 -1       670 1.88399E-04-1.81471E-05 8.27181E-25
 -1       671 1.88910E-04-1.93122E-05-1.65436E-24
 -1       672 1.89433E-04-2.05135E-05 0.00000E+00
 -1       673 1.89968E-04-2.17460E-05-1.65436E-24
 -1       674 1.90512E-04-2.30049E-05 4.13590E-25
 -1       675 1.91064E-04-2.42851E-05-2.06795E-25
 -1       676 1.84937E-04-2.50654E-05 3.30872E-24
 -1       677 1.86278E-04-2.51697E-05 1.65436E-24
 -1       678 1.87617E-04-2.52740E-05 0.00000E+00
 -1       679 1.88954E-04-2.53779E-05 0.00000E+00
 -1       680 1.90288E-04-2.54819E-05 0.00000E+00
 -1       771 1.87497E-05 1.45224E-05 0.00000E+00
 -1       772 8.71288E-06 3.64259E-05 0.00000E+00
 -1       773 4.76955E-07 5.37960E-05-5.29396E-23
 -1       774-6.08201E-06 6.68900E-05 2.64698E-23
 -1       775-1.10853E-05 7.59755E-05 5.29396E-23
 -1       776-1.46590E-05 8.13368E-05-2.64698E-23
 -1       777-1.69292E-05 8.32682E-05 0.00000E+00
 -1       778-1.80243E-05 8.20781E-05 0.00000E+00
 -1       779-1.80723E-05 7.80831E-05 5.29396E-23
 -1       780-1.72031E-05 7.16114E-05 0.00000E+00
 -1       781-1.55458E-05 6.29977E-05 1.05879E-22
 -1       782-1.32309E-05 5.25859E-05 7.94093E-23
 -1       783-1.03881E-05 4.07242E-05 0.00000E+00
 -1       784-7.14847E-06 2.77672E-05 2.64698E-23
 -1       785-3.64185E-06 1.40725E-05-5.29396E-23
 -1       786 1.93491E-04 3.21853E-05 0.00000E+00
 -1       787 1.93533E-04 2.99960E-05 4.13590E-25
 -1       788 1.93575E-04 2.78483E-05 8.27181E-25
 -1       789 1.93617E-04 2.57342E-05 0.00000E+00
 -1       790 1.93660E-04 2.36488E-05 0.00000E+00
 -1       791 1.93703E-04 2.15875E-05 0.00000E+00
 -1       792 1.93746E-04 1.95480E-05 0.00000E+00
 -1       793 1.93789E-04 1.75281E-05 8.27181E-25
 -1       794 1.93832E-04 1.55277E-05 1.65436E-24
 -1       795 1.93875E-04 1.35466E-05 0.00000E+00
 -1       796 1.93919E-04 1.15868E-05-1.65436E-24
 -1       797 1.93962E-04 9.64995E-06 0.00000E+00
 -1       798 1.94005E-04 7.74051E-06 1.65436E-24
 -1       799 1.94049E-04 5.86278E-06 8.27181E-25
 -1       800 1.94092E-04 4.02430E-06 0.00000E+00
 -1       801 1.47835E-04 3.09437E-05-2.64698E-23
 -1       802 9.89683E-06 1.93083E-05 0.00000E+00
 -1       803-1.07990E-04 9.74995E-06-5.29396E-23
 -1       804-9.58487E-05 6.78378E-06 0.00000E+00
 -1       805-3.16826E-05 2.67064E-06 5.29396E-23
 -1       806 1.94177E-04 3.21165E-05 0.00000E+00
 -1       807 1.94887E-04 2.98345E-05 0.00000E+00
 -1       808 1.95585E-04 2.75839E-05 3.30872E-24
 -1       809 1.96270E-04 2.53686E-05-1.65436E-24
 -1       810 1.96939E-04 2.31929E-05 3.30872E-24
 -1       811 1.97593E-04 2.10605E-05 0.00000E+00
 -1       812 1.98228E-04 1.89755E-05-3.30872E-24
 -1       813 1.98845E-04 1.69418E-05 1.65436E-24
 -1       814 1.99441E-04 1.49632E-05 0.00000E+00
 -1       815 2.00015E-04 1.30438E-05 8.27181E-25
 -1       816 2.00565E-04 1.11875E-05 0.00000E+00
 -1       817 2.01091E-04 9.39799E-06-1.65436E-24
 -1       818 2.01590E-04 7.67933E-06 0.00000E+00
 -1       819 2.02061E-04 6.03538E-06 8.27181E-25
 -1       820 2.02504E-04 4.46996E-06 3.30872E-24
 -1       821 1.94007E-04-1.17230E-07 0.00000E+00
 -1       822 1.93867E-04-3.62555E-06 0.00000E+00
 -1       823 1.93724E-04-7.86293E-06 0.00000E+00
 -1       824 1.93579E-04-1.23956E-05-1.65436E-24
 -1       825 1.93435E-04-1.67098E-05 3.30872E-24
 -1       826 1.93293E-04-2.02933E-05 0.00000E+00
 -1       827 1.93155E-04-2.28326E-05-3.30872E-24
 -1       828 1.93018E-04-2.40209E-05 1.65436E-24
 -1       829 1.92882E-04-2.39192E-05 0.00000E+00
 -1       830 1.92746E-04-2.25960E-05-1.65436E-24
 -1       831 1.92608E-04-2.04527E-05 3.30872E-24
 -1       832 1.92470E-04-1.78956E-05 1.65436E-24
 -1       833 1.92332E-04-1.54438E-05 0.00000E+00
 -1       834 1.92196E-04-1.36157E-05 0.00000E+00
 -1       835 1.92062E-04-1.27604E-05 0.00000E+00
 -1       836 1.95812E-04 2.35781E-06 3.30872E-24
 -1       837 1.97361E-04 2.48601E-06 0.00000E+00
 -1       838 1.98814E-04 2.61415E-06-3.30872E-24
 -1       839 2.00203E-04 2.74158E-06 0.00000E+00
 -1       840 2.01560E-04 2.86886E-06 8.27181E-25
 -1       856 1.91919E-04-1.42688E-05 0.00000E+00
 -1       857 1.91900E-04-1.51808E-05-1.29247E-26
 -1       858 1.91880E-04-1.59781E-05 0.00000E+00
 -1       859 1.91861E-04-1.66818E-05-2.06795E-25
 -1       860 1.91841E-04-1.73132E-05-4.13590E-25
 -1       861 1.91821E-04-1.78936E-05 2.06795E-25
 -1       862 1.91801E-04-1.84443E-05 0.00000E+00
 -1       863 1.91781E-04-1.89867E-05 0.00000E+00
 -1       864 1.91761E-04-1.95421E-05 0.00000E+00
 -1       865 1.91741E-04-2.01319E-05 0.00000E+00
 -1       866 1.91721E-04-2.07774E-05 0.00000E+00
 -1       867 1.91701E-04-2.15000E-05 0.00000E+00
 -1       868 1.91681E-04-2.23207E-05 0.00000E+00
 -1       869 1.91661E-04-2.32609E-05 0.00000E+00
 -1       870 1.91640E-04-2.43415E-05 8.27181E-25
 -1       871 1.93271E-04-1.32259E-05 0.00000E+00
 -1       872 1.94754E-04-1.32342E-05 0.00000E+00
 -1       873 1.96317E-04-1.32432E-05 0.00000E+00
 -1       874 1.97890E-04-1.32529E-05 2.32645E-25
 -1       875 1.99407E-04-1.32632E-05-8.27181E-25
 -1       876 1.92456E-04-1.42543E-05-3.30872E-24
 -1       877 1.92953E-04-1.52207E-05 1.65436E-24
 -1       878 1.93430E-04-1.61282E-05 3.30872E-24
 -1       879 1.93887E-04-1.69843E-05 0.00000E+00
 -1       880 1.94328E-04-1.77962E-05-3.30872E-24
 -1       881 1.94755E-04-1.85715E-05-1.65436E-24
 -1       882 1.95171E-04-1.93175E-05 0.00000E+00
 -1       883 1.95579E-04-2.00414E-05 1.65436E-24
 -1       884 1.95982E-04-2.07507E-05-3.30872E-24
 -1       885 1.96381E-04-2.14528E-05 1.65436E-24
 -1       886 1.96781E-04-2.21548E-05 0.00000E+00
 -1       887 1.97183E-04-2.28643E-05 1.65436E-24
 -1       888 1.97591E-04-2.35886E-05 3.30872E-24
 -1       889 1.98006E-04-2.43351E-05 0.00000E+00
 -1       890 1.98432E-04-2.51112E-05 0.00000E+00
 -1       891 1.92968E-04-2.56411E-05 0.00000E+00
 -1       892 1.94295E-04-2.56988E-05 0.00000E+00
 -1       893 1.95573E-04-2.57564E-05-8.27181E-25
 -1       894 1.96778E-04-2.58138E-05 0.00000E+00
 -1       895 1.97883E-04-2.58708E-05 4.13590E-25
 -1       956 2.02787E-04 1.67842E-06 0.00000E+00
 -1       957 2.02655E-04 4.61520E-07 0.00000E+00
 -1       958 2.02522E-04-6.74570E-07 0.00000E+00
 -1       959 2.02389E-04-1.74118E-06 0.00000E+00
 -1       960 2.02256E-04-2.74970E-06 0.00000E+00
 -1       961 2.02123E-04-3.71154E-06-1.65436E-24
 -1       962 2.01991E-04-4.63810E-06 0.00000E+00
 -1       963 2.01858E-04-5.54086E-06 1.65436E-24
 -1       964 2.01725E-04-6.43123E-06 0.00000E+00
 -1       965 2.01592E-04-7.32066E-06 0.00000E+00
 -1       966 2.01459E-04-8.22059E-06-3.30872E-24
 -1       967 2.01327E-04-9.14245E-06 0.00000E+00
 -1       968 2.01194E-04-1.00977E-05 0.00000E+00
 -1       969 2.01061E-04-1.10977E-05 0.00000E+00
 -1       970 2.00929E-04-1.21538E-05-3.30872E-24
 -1       971 2.00679E-04-1.43996E-05-3.30872E-24
 -1       972 2.00557E-04-1.54275E-05 0.00000E+00
 -1       973 2.00436E-04-1.63712E-05-3.30872E-24
 -1       974 2.00314E-04-1.72415E-05 0.00000E+00
 -1       975 2.00193E-04-1.80493E-05 3.30872E-24
 -1       976 2.00071E-04-1.88054E-05 1.65436E-24
 -1       977 1.99950E-04-1.95208E-05 0.00000E+00
 -1       978 1.99829E-04-2.02063E-05 0.00000E+00
 -1       979 1.99707E-04-2.08729E-05 0.00000E+00
 -1       980 1.99586E-04-2.15315E-05 0.00000E+00
 -1       981 1.99464E-04-2.21930E-05 0.00000E+00
 -1       982 1.99343E-04-2.28684E-05 1.65436E-24
 -1       983 1.99222E-04-2.35685E-05 3.30872E-24
 -1       984 1.99101E-04-2.43043E-05 0.00000E+00
 -1       985 1.98981E-04-2.50866E-05-3.30872E-24
 -3
    1PSTEP                        48          24           1          
  100CL  124 6.63466E-01         409                     0   24           1
 -4  STRESS      6    1
 -5  SXX         1    4    1    1
 -5  SYY         1    4    2    2
 -5  SZZ         1    4    3    3
 -5  SXY         1    4    1    2
 -5  SYZ         1    4    2    3
 -5  SZX         1    4    3    1
 -1         1-5.27405E+06-1.67385E+06-1.13115E+06-1.46172E+06 5.09317E-10-7.78527E-08
 -1         2 9.50781E+05 1.39308E+07 3.44906E+06 4.20515E+06 2.14495E-08 8.17599E-08
 -1         3-1.48757E+03-1.59384E+06 4.12609E+02-2.26158E+03-2.38686E-10 1.32713E-08
 -1         5-7.39076E+01 3.86455E+05 9.98543E+00-1.33047E+00-5.63224E-10 2.90784E-08
 -1         8-4.76611E+05-1.72672E+05-3.80749E+04-2.25621E+05-2.00089E-11-1.45312E-07
 -1         9 1.13802E+07 2.32954E+06 2.44636E+06-7.88642E+05 4.44707E-09-5.95348E-08
 -1        10-2.31591E+03-1.66093E+06-4.02550E+03-1.52964E+04-1.35733E-08 2.74831E-08
 -1        12-6.99845E+01 3.86476E+05 3.28152E+02-9.07170E+00-6.98495E-10 1.06556E-08
 -1        15 9.67426E+02 5.31649E+02 3.12718E+03 9.56601E-01-3.47754E-10-6.32958E-08
 -1        16 2.26985E+07-2.64550E+05 3.10713E+06-2.14009E+06-1.33878E-09 1.57549E-08
 -1        17 8.24042E+06 6.18257E+06 2.22922E+06 5.93116E+06 2.28814E-08 1.45403E-08
 -1        18 1.41527E+05 3.32823E+04 3.96077E+03-1.19441E+05 1.38398E-08 3.88400E-09
 -1        19 1.22431E+05 1.41706E+05-9.43287E+02 2.19826E+04 1.69130E-09-5.74255E-09
 -1        20-8.18277E+04-5.73801E+05-1.28746E+05 2.51983E+04-2.61374E-09 9.64125E-09
 -1        21-4.56437E+01-2.96236E+05-9.24838E+02 2.72632E+02 1.83474E-08 1.74625E-11
 -1        24 1.37556E+07 1.18968E+07 3.81937E+06 1.10243E+07-1.73672E-07-5.32018E-08
 -1        25 1.23222E+05 2.60624E+05 9.83249E+04-6.41245E+05-9.48421E-10 6.41448E-09
 -1        26-5.52912E+04 9.23318E+04-2.46152E+04 1.22646E+03-4.00178E-12 3.66723E-09
 -1        27-7.56434E+04-3.10019E+05-1.13344E+05 6.89993E+04 4.14381E-09-3.91083E-10
 -1        28 2.22622E+04-8.53944E+04 1.69098E+04 2.06560E+04-1.08781E-09-9.68660E-09
 -1        32-1.68071E+06-3.17470E+06-1.95883E+05 4.47993E+05-4.26589E-08-5.81679E-09
 -1        33-1.78522E+05 9.30169E+04 3.23961E+04-3.85534E+04-3.09092E-09 8.55925E-09
 -1        34-2.23693E+05-2.50264E+04 6.89257E+02 7.56549E+04-5.69239E-09-3.80320E-09
 -1        35-2.29502E+04-3.38656E+04-1.34913E+03 5.15364E+04-3.55311E-09 7.93201E-09
 -1        51 6.00017E+04-1.76140E+05 1.27194E+05-4.56513E+05 1.16415E-10-1.05792E-08
 -1        52 2.03853E+04-1.54046E+05 6.68703E+04-5.32322E+05 1.00954E-10-6.19912E-08
 -1        53 4.25160E+03-1.69543E+05 3.50241E+04-4.54892E+05 1.83718E-10-1.07691E-07
 -1        54 7.76333E+03-1.65383E+05 2.91969E+04-5.33954E+05-5.74801E-10-1.38687E-07
 -1        55 1.68818E+04-1.72699E+05 3.60030E+04-4.54743E+05 2.69210E-10-5.23614E-08
 -1        56-9.71364E+06-1.29803E+06-8.89563E+05-4.00068E+06-8.20728E-09-5.19794E-08
 -1        57-1.08118E+07-1.04439E+06-5.52010E+05-2.91150E+06 3.38405E-08 2.67668E-07
 -1        58-9.59809E+06-1.74079E+06-2.00561E+05-4.15887E+06-2.28974E-08 1.70694E-07
 -1        59-1.09283E+07-5.31120E+05-1.11634E+05-2.83304E+06 1.84691E-08 1.52995E-08
 -1        60-9.65490E+06-1.76050E+06-5.16234E+04-4.13073E+06 1.26965E-08-5.08990E-08
 -1        61-1.04729E+07-7.64248E+05-3.18070E+01-3.03733E+06 4.29427E-08-6.13527E-08
 -1        62-9.96943E+06-1.56369E+06-5.29707E+04-3.88859E+06-6.40503E-08-2.22099E-08
 -1        63-9.76931E+06-1.32744E+06 3.24514E+04-3.59347E+06 2.76923E-08-1.95630E-07
 -1        64-1.02807E+07-1.25215E+06-5.20247E+04-3.52224E+06-1.68729E-08-3.55765E-07
 -1        65-9.39400E+06-1.84293E+06 2.26212E+03-4.30748E+06-2.38761E-08-3.53101E-07
 -1        66-1.04192E+07-9.96851E+05-4.69686E+04-3.23208E+06 1.66838E-08 3.61033E-08
 -1        67-9.35700E+06-2.09388E+06-9.98028E+04-4.67756E+06-1.01579E-07 2.81192E-07
 -1        68-1.04075E+07-9.39118E+05-1.80854E+05-3.21032E+06-2.47746E-08-1.18976E-07
 -1        69-9.56400E+06-2.23100E+06-4.94673E+05-4.35628E+06-4.98571E-08-2.03647E-07
 -1        70-1.01481E+07-9.15576E+05-8.05341E+05-3.50779E+06 1.39407E-08-8.18982E-08
 -1        86-9.68048E+05-1.15499E+07-1.88152E+06-1.99513E+06-2.18786E-07 1.17288E-08
 -1        87 1.44922E+06 3.49679E+06 1.56846E+06 4.04501E+06-3.71256E-07 1.28987E-07
 -1        88-2.39820E+05-2.35429E+06 1.38371E+05-2.00100E+06-3.31091E-07 1.11016E-07
 -1        89 1.97013E+06 3.24868E+06 1.58806E+06 4.17614E+06-4.92320E-07-1.24055E-07
 -1        90-1.42527E+06-1.13568E+07-2.02880E+06-2.14208E+06-1.31357E-07 5.10045E-08
 -1       121-2.03887E+03-1.59874E+06-5.39248E+02 1.12116E+03 1.50338E-09-2.16096E-09
 -1       122-1.29753E+03-1.59390E+06 7.84821E+02-4.52647E+03-5.39941E-09 1.43555E-08
 -1       123-2.05913E+03-1.59888E+06 2.87827E+02 3.34798E+03 4.21630E-09-1.67056E-08
 -1       124 3.76229E+02-1.59344E+06 3.01563E+03-9.45884E+03-1.01327E-08-2.07365E-08
 -1       125-2.88665E+03-1.59980E+06 3.56254E+03 6.00785E+03 6.48834E-09 2.39343E-08
 -1       191-7.78910E+01 3.86473E+05 8.56043E+00 6.93217E-01-6.14012E-10 2.47710E-08
 -1       192-7.48707E+01 3.86455E+05 2.13053E+01-4.26690E+00-7.74034E-10 1.09530E-08
 -1       193-8.04267E+01 3.86473E+05 3.63392E+01 3.74507E+00-9.73456E-10-7.85803E-10
 -1       194-7.79589E+01 3.86459E+05 8.09847E+01-9.68208E+00-5.99837E-10-9.24410E-09
 -1       195-8.52938E+01 3.86471E+05 1.55114E+02 6.29694E+00-1.54256E-09-5.04406E-09
 -1       251-1.07795E+06-1.37894E+04-8.46841E+04-6.00026E+04-6.68479E-10-4.09891E-08
 -1       252-6.36040E+05 1.25837E+04 2.59899E+04 1.92715E+05 5.28053E-09-2.88368E-07
 -1       253-8.72089E+05 1.41604E+03-1.17221E+04-1.11935E+05-1.55569E-09-2.05041E-08
 -1       254-8.09064E+05 8.48779E+03 6.61052E+03 2.36654E+05-1.47266E-08-4.01403E-07
 -1       255-9.14930E+05-1.52702E+03-1.33668E+04-1.04514E+05 1.75924E-08 1.07910E-07
 -1       256-5.41755E+05 1.34136E+04 6.28437E+04 1.61705E+05-1.61381E-08 2.57764E-07
 -1       257-1.12395E+06-1.61091E+04-5.52383E+04-3.62689E+04-1.96587E-08-1.32419E-07
 -1       258-3.40181E+05 1.91834E+04 1.04516E+05-7.67061E+03 2.31557E-09 5.94982E-08
 -1       259-1.10476E+06-1.68461E+04-4.94047E+04 6.39950E+04-6.70298E-09 1.84509E-07
 -1       260-5.86409E+05 2.00105E+04 6.10546E+04-1.66362E+05 2.14211E-08-4.13674E-07
 -1       261-8.91807E+05-5.46571E+03 2.00342E+03 1.22167E+05 3.88100E-08-1.07977E-07
 -1       262-8.14364E+05 2.89339E+04 3.32694E+04-2.24256E+05-1.91250E-09 9.01882E-08
 -1       263-8.90147E+05-1.48633E+04 2.89490E+04 1.22963E+05-3.93356E-09 1.72113E-07
 -1       264-5.62611E+05 1.04050E+05 1.54208E+05-1.71162E+05 1.14272E-07 1.63527E-07
 -1       265-1.13096E+06-9.06659E+04 8.15038E+04 6.80466E+04 4.95220E-08-1.32182E-07
 -1       266-1.75139E+04-8.19027E+03 4.10888E+04-2.04668E+01-1.74623E-10-1.67554E-08
 -1       267 2.03031E+04 9.54472E+03 2.90429E+04 2.36164E+01 7.18501E-11-2.10736E-07
 -1       268-2.72263E+03-1.35186E+03 1.07950E+04-3.00904E+00 4.91127E-11-5.13743E-09
 -1       269 3.21460E+03 1.61782E+03 7.01667E+03 3.50520E+00-2.61025E-10-2.98904E-07
 -1       270-4.82516E+02-2.65824E+02 3.38704E+03-4.75676E-01 7.15090E-11-1.19505E-07
 -1       271-1.58843E+06-1.95067E+05-1.19174E+05-6.11854E+05-1.29680E-08 6.80157E-08
 -1       272-1.62932E+06-2.79833E+05-7.60856E+04-6.08937E+05-5.10772E-09-2.66364E-07
 -1       273-1.61229E+06-2.22977E+05-2.84615E+04-6.04800E+05 1.56888E-08-1.81790E-08
 -1       274-1.60039E+06-2.46731E+05-1.54893E+04-6.20770E+05-2.57332E-08 2.21312E-07
 -1       275-1.61723E+06-2.24113E+05-6.87877E+03-6.01772E+05 1.74023E-08 8.07668E-08
 -1       276-1.59363E+06-2.46606E+05-3.24076E+03-6.26812E+05-3.77368E-08-1.89345E-07
 -1       277-1.61965E+06-2.22308E+05-1.89549E+03-5.99374E+05 4.42196E-09-2.67526E-07
 -1       278-1.59020E+06-2.49788E+05-8.65276E+02-6.31788E+05 3.39332E-08-7.80751E-08
 -1       279-1.62144E+06-2.20410E+05-1.05596E+03-5.97356E+05 1.86847E-08-3.02412E-08
 -1       280-1.58786E+06-2.52895E+05-1.25531E+03-6.35948E+05-3.94039E-08 8.44791E-08
 -1       281-1.62278E+06-2.18715E+05-2.46217E+03-5.95757E+05 8.07449E-09 1.52464E-07
 -1       282-1.58713E+06-2.56693E+05-5.48954E+03-6.39010E+05-6.63822E-08 3.84543E-07
 -1       283-1.62289E+06-2.16313E+05-9.87917E+03-5.94721E+05 6.07906E-09 1.64848E-07
 -1       284-1.59452E+06-2.71591E+05-2.67584E+04-6.39216E+05 3.30906E-08-2.90635E-07
 -1       285-1.61608E+06-2.04842E+05-4.16139E+04-5.95419E+05-5.87215E-08-9.47584E-08
 -1       301-2.29994E+03-6.30423E+05 1.72092E+05-1.09535E+06 5.32600E-09 2.20767E-07
 -1       302-3.18829E+03-5.83400E+05 1.03413E+05-1.59916E+06 3.79077E-09 1.97397E-08
 -1       303-1.83854E+04-6.21357E+05 5.86589E+04-1.09235E+06 4.13274E-09 1.16068E-07
 -1       304-1.92745E+04-5.90582E+05 5.94039E+04-1.59856E+06-7.33417E-09-1.99769E-07
 -1       305-2.15485E+04-6.11415E+05 7.38981E+04-1.09540E+06 2.99769E-09 1.29221E-08
 -1       306-3.00775E+07-6.21781E+06-8.58782E+06-5.78846E+05-3.35276E-08 7.84930E-08
 -1       307 2.54945E+07 3.22841E+06 5.52956E+06-1.50386E+07-7.88132E-07-1.88593E-07
 -1       308-7.10522E+06-1.07067E+06-4.97448E+05 5.20432E+06-1.36788E-08 2.76181E-07
 -1       309-3.47038E+06 8.78110E+06 2.25510E+06-2.05477E+07 2.63317E-07-2.52381E-07
 -1       310-1.22906E+07-1.91121E+06-1.95213E+06 5.22092E+06 3.98722E-08-3.00992E-07
 -1       311 3.76027E+07 8.57563E+04 7.16307E+06-9.12520E+06 6.68544E-07-1.49012E-08
 -1       312-3.17369E+07-6.61928E+06-8.44034E+06-4.78472E+06-7.35745E-08-2.26137E-08
 -1       313 4.55384E+07 1.44357E+07 1.05964E+07 2.33063E+07-2.28814E-07-1.26864E-07
 -1       314-1.74575E+07-1.74945E+07-7.50663E+06-1.25073E+07 1.38651E-07-3.64671E-07
 -1       315-1.45840E+06 2.94387E+07 5.67925E+06 1.08868E+07-2.09126E-07-1.10740E-07
 -1       316 1.26788E+06-9.88094E+06-4.83265E+05-2.66912E+06-9.74513E-07-2.93832E-07
 -1       317-1.72046E+07 2.23421E+07 2.21220E+06-8.57582E+06 6.79254E-07-7.31612E-07
 -1       318-1.02386E+06-1.25600E+07-1.96702E+06-4.23149E+06-9.02859E-07 4.62751E-08
 -1       319 6.93038E+06 3.15214E+07 6.92794E+06 1.63647E+07-5.48898E-08 2.15980E-07
 -1       320-2.24152E+07-1.74604E+07-9.74948E+06-1.27068E+07 1.82306E-07-5.79457E-08
 -1       336-7.00870E+02-1.73070E+06-1.41035E+04 9.11977E+03-2.64372E-08 1.94632E-08
 -1       337-5.47813E+03-1.73039E+06-1.84268E+04-2.21208E+04-4.90218E-08-2.25809E-08
 -1       338 3.34461E+02-1.73018E+06-2.89746E+04 1.27519E+04-3.44262E-08 1.18052E-08
 -1       339-3.07367E+04-1.74795E+06-6.55406E+04-2.92275E+04-6.24204E-08 2.18442E-08
 -1       340 2.03245E+04-1.71537E+06-1.03203E+05 1.60951E+04-4.10873E-08 4.38486E-08
 -1       406-4.82103E+01 3.86456E+05 6.44394E+02 3.31351E+00-1.83837E-09 9.31323E-10
 -1       407 1.56286E+02 3.86590E+05 1.37696E+03 2.31843E+01-5.98114E-10-1.67074E-09
 -1       408 6.36519E+02 3.86356E+05 2.74563E+03-2.68276E+01-2.35082E-09-2.10675E-08
 -1       409 2.90895E+03 3.87467E+05 6.18825E+03 2.86357E+02-5.93900E-10-2.26173E-08
 -1       410 8.48310E+03 3.85565E+05 1.26300E+04-2.76152E+02-3.04499E-09-5.47152E-09
 -1       521-3.16155E+07-7.66746E+06-1.00313E+07-1.92245E+05-1.27940E-07 1.14087E-08
 -1       522 2.63624E+07 4.22418E+06 5.63046E+06-1.85114E+07-4.87897E-07-7.22939E-08
 -1       523-7.68616E+06-1.38831E+06-4.94327E+05 5.65103E+06 1.76427E-07-9.49512E-08
 -1       524-6.98694E+06 1.18249E+07 2.43735E+06-2.35712E+07 7.53877E-07-3.69211E-07
 -1       525-1.30899E+07-2.53127E+06-2.14348E+06 5.66929E+06 3.72354E-07 3.28000E-08
 -1       526 4.09785E+07 3.31990E+04 7.51590E+06-1.17971E+07-8.52160E-08 8.73115E-09
 -1       527-3.35635E+07-8.29541E+06-9.72194E+06-4.64134E+06-3.94648E-08-7.55244E-08
 -1       528 4.97301E+07 1.60390E+07 1.10468E+07 2.64824E+07 1.30152E-07-1.18889E-07
 -1       529-1.84071E+07-1.96804E+07-8.60230E+06-1.25482E+07 7.58446E-08 2.92202E-08
 -1       530-3.92251E+06 3.41900E+07 6.00436E+06 1.04389E+07-1.00961E-07 4.68397E-07
 -1       531 1.26008E+06-1.09582E+07-4.61319E+05-2.63106E+06-1.10611E-06 2.61585E-07
 -1       532-1.97773E+07 2.43821E+07 2.41661E+06-1.28013E+07 2.80445E-07-7.29575E-07
 -1       533-1.06713E+06-1.37020E+07-2.08987E+06-4.06200E+06-4.11819E-07-1.06479E-06
 -1       534 4.90575E+06 3.65656E+07 7.20790E+06 1.69154E+07-8.62929E-08 7.71601E-07
 -1       535-2.35824E+07-1.98219E+07-1.11690E+07-1.27762E+07 1.08848E-07 4.69212E-07
 -1       536-7.05002E+05-4.72540E+04-4.63181E+04-5.45133E+04-5.68707E-09 6.00267E-08
 -1       537-5.59427E+04 4.53130E+04 8.47170E+04 1.23512E+05-1.17056E-07 9.77057E-08
 -1       538-3.94387E+05 3.22132E+03 3.96442E+03-7.20322E+04 3.19611E-08 9.86142E-08
 -1       539-2.69472E+05 2.96165E+03 2.50734E+04 1.38387E+05 1.63146E-07 1.03934E-07
 -1       540-4.96829E+05-4.37768E+02-2.11211E+04-6.99194E+04-3.66026E-09 1.05340E-07
 -1       541 1.44478E+05 1.69174E+04 1.06003E+05 9.76351E+04-7.06948E-08 9.36737E-08
 -1       542-7.97182E+05-2.00562E+04-8.38625E+04-3.04108E+04 5.98138E-08 5.41686E-08
 -1       543 4.02070E+05 2.72156E+04 1.57323E+05-1.33343E+04 5.73664E-08 4.69345E-09
 -1       544-7.47513E+05-1.64659E+04-7.45150E+04 4.03847E+04 9.26957E-09-5.15462E-08
 -1       545 2.72031E+04 9.43517E+03 7.94592E+04-1.13316E+05-2.38975E-08-8.67369E-08
 -1       546-4.32382E+05 6.07809E+03-1.21808E+04 6.92270E+04 4.92498E-08-9.26774E-08
 -1       547-2.87547E+05-4.66082E+03 1.05052E+04-1.41236E+05-8.15562E-08-1.16511E-07
 -1       548-4.41224E+05 4.71489E+03-2.38318E+04 6.89915E+04-1.08579E-07-7.83511E-08
 -1       549 4.63681E+04 1.59107E+04 6.01399E+04-1.11167E+05-6.04314E-08-7.18364E-08
 -1       550-7.57361E+05-2.19698E+04-1.28624E+05 3.84462E+04 6.22094E-09-3.72875E-08
 -1       551 4.08610E+04-7.62346E+05-1.52227E+04-1.24814E+06-1.01587E-07-1.69093E-08
 -1       552 9.32901E+04-8.07164E+05 1.03555E+04-1.77982E+06-7.32543E-08 1.97906E-08
 -1       553 7.17208E+04-8.03652E+05 3.23783E+04-1.24150E+06-1.19631E-07 3.15631E-08
 -1       554 1.32060E+05-8.22959E+05 8.15453E+04-1.78178E+06-7.51752E-08 2.44618E-08
 -1       555 1.01521E+05-8.27292E+05 1.48808E+05-1.24134E+06-1.24812E-07-1.30894E-08
 -1       556 2.23089E+05-3.82663E+05 2.74992E+04-4.06903E+05-2.19734E-08-9.51695E-09
 -1       557 3.53772E+05-4.86954E+05 1.70439E+04-5.26929E+05 4.19095E-09 1.17143E-09
 -1       558 2.05035E+05-3.75806E+05 2.71989E+03-4.11099E+05-1.78115E-08 5.04951E-09
 -1       559 3.28629E+05-4.87265E+05 2.63066E+03-5.47311E+05 1.99652E-08 1.11759E-08
 -1       560 1.89794E+05-3.66247E+05-1.40683E+03-4.22080E+05 9.63337E-09 8.82574E-09
 -1       561 3.09453E+05-4.79605E+05 1.74508E+02-5.60378E+05-3.81260E-09-2.47528E-08
 -1       562 1.77739E+05-3.58755E+05-1.29953E+03-4.30810E+05-1.02737E-08-5.72254E-09
 -1       563 2.95132E+05-4.73362E+05-2.60607E+01-5.69731E+05-2.11730E-09-2.60934E-09
 -1       564 1.69137E+05-3.53395E+05-5.92562E+02-4.36906E+05-2.91038E-11 2.00157E-08
 -1       565 2.85638E+05-4.69227E+05 2.65798E+01-5.75797E+05-3.02680E-09 2.71984E-08
 -1       566 1.64112E+05-3.50215E+05-2.57425E+02-4.40421E+05-1.23182E-08 3.20142E-10
 -1       567 2.81029E+05-4.67222E+05-3.60825E+02-5.78596E+05 1.22072E-08 4.01997E-09
 -1       568 1.62754E+05-3.49384E+05-1.12232E+03-4.41466E+05-1.51358E-08-1.25183E-08
 -1       569 2.79918E+05-4.67151E+05-2.83503E+03-5.77161E+05-1.82481E-08 2.57896E-08
 -1       570 1.66154E+05-3.52616E+05-6.19903E+03-4.40447E+05-3.28146E-09 2.23135E-08
 -1       571 2.90543E+05 1.05090E+04 1.49954E+04-9.51270E+04-9.95988E-09 6.36965E-09
 -1       572 2.92716E+05 3.95947E+03 7.34896E+03-1.04364E+05-1.87488E-08-1.36897E-08
 -1       573 2.91406E+05 1.24414E+03 3.26538E+03-9.49504E+04-1.75323E-08-6.18911E-09
 -1       574 2.91620E+05 7.25218E+02 1.63756E+03-1.04588E+05-1.60517E-08 5.39694E-09
 -1       575 2.91499E+05 4.46153E+02 7.72881E+02-9.49262E+04-4.58569E-09 2.01326E-08
 -1       576 2.91484E+05 4.57312E+02 3.95707E+02-1.04618E+05 9.74887E-09 1.89211E-08
 -1       577 2.91539E+05 3.88096E+02 1.97535E+02-9.49229E+04 4.38013E-09 1.28512E-08
 -1       578 2.91514E+05 4.19322E+02 1.14099E+02-1.04622E+05-3.53020E-09 4.33829E-10
 -1       579 2.91611E+05 3.51499E+02 7.83553E+01-9.49226E+04 8.13816E-09-1.09048E-09
 -1       580 2.91616E+05 3.68397E+02 9.09138E+01-1.04617E+05-1.01181E-08 5.80167E-09
 -1       581 2.91725E+05 2.93034E+02 1.37316E+02-9.49285E+04-8.81664E-09 2.57569E-09
 -1       582 2.91791E+05 3.31131E+02 2.79164E+02-1.04556E+05-1.95196E-08 2.22053E-08
 -1       583 2.91865E+05 3.35534E+02 5.35830E+02-9.49850E+04-6.10453E-09 1.30815E-08
 -1       584 2.92166E+05 7.73036E+02 1.21251E+03-1.04080E+05 1.17579E-08-1.11827E-08
 -1       585 2.91891E+05 1.79367E+03 2.45530E+03-9.54038E+04 1.45519E-10-6.07906E-09
 -1       586-3.42277E+03 1.16831E+05-2.92167E+03-2.50740E+05-9.34415E-09 1.21101E-08
 -1       587-1.33468E+03 1.16581E+05 7.68946E+02-2.75958E+05-8.32006E-09-5.51336E-09
 -1       588 4.03148E+02 1.16389E+05 4.75829E+03-2.50602E+05-3.89991E-09 4.83942E-09
 -1       589 5.09026E+03 1.18862E+05 1.23434E+04-2.75724E+05-7.25777E-09-6.09816E-09
 -1       590 1.66137E+04 1.15055E+05 2.58937E+04-2.51033E+05-5.63432E-09 8.48195E-09
 -1       591-7.49779E+04-1.59864E+04-2.25297E+04-3.19752E+04 1.79989E-09-6.33099E-09
 -1       592-7.90606E+04-1.95507E+04-1.22039E+04-3.56081E+04 5.59185E-09-4.91332E-09
 -1       593-7.72311E+04-1.43515E+04-5.07986E+03-3.36271E+04 4.41069E-10-5.08476E-09
 -1       594-7.59498E+04-1.62448E+04-2.53346E+03-3.57260E+04-2.89009E-09 2.68510E-08
 -1       595-7.74029E+04-1.43461E+04-1.16312E+03-3.37021E+04 2.80608E-09-3.29706E-09
 -1       596-7.57368E+04-1.60936E+04-5.91066E+02-3.57007E+04 1.11243E-08-2.20726E-08
 -1       597-7.74245E+04-1.43615E+04-3.21416E+02-3.37050E+04 9.18936E-09-1.50203E-09
 -1       598-7.57158E+04-1.60877E+04-2.57579E+02-3.56936E+04 1.16057E-08 1.70453E-08
 -1       599-7.74232E+04-1.43620E+04-3.28028E+02-3.37046E+04 8.04550E-09-3.60217E-09
 -1       600-7.57369E+04-1.60942E+04-6.08570E+02-3.56985E+04 4.99551E-09-2.24711E-08
 -1       601-7.73985E+04-1.43475E+04-1.20016E+03-3.37012E+04-1.50044E-09-1.43978E-08
 -1       602-7.59566E+04-1.62491E+04-2.61541E+03-3.57208E+04-4.72494E-09-1.06768E-08
 -1       603-7.72185E+04-1.43560E+04-5.24486E+03-3.36245E+04-1.82467E-09 7.28141E-09
 -1       604-7.91859E+04-1.96426E+04-1.25994E+04-3.55742E+04 3.07864E-09 7.80346E-10
 -1       605-7.48721E+04-1.60617E+04-2.32600E+04-3.19384E+04 4.03884E-09 8.53015E-09
 -1       606 2.67528E+04-1.43303E+04-2.56895E+04 2.40523E+04 1.01381E-08-1.34469E-09
 -1       607 2.23633E+04-4.68014E+03-1.27933E+04 2.70295E+04-1.34605E-10 1.04203E-08
 -1       608 2.48649E+04-8.44191E+02-5.72713E+03 2.38830E+04-6.16092E-09 1.07573E-08
 -1       609 2.43853E+04-2.89031E+02-2.89319E+03 2.72441E+04 5.34783E-09-3.63661E-09
 -1       610 2.46512E+04-4.07788E+01-1.38038E+03 2.38629E+04 3.90810E-09 2.92584E-09
 -1       611 2.45758E+04-4.09551E+01-6.95977E+02 2.72673E+04 5.23778E-09 2.06473E-08
 -1       612 2.46039E+04-2.70050E+01-3.30860E+02 2.38608E+04 3.09046E-09-8.84347E-09
 -1       613 2.45873E+04-3.68050E+01-1.48241E+02 2.72700E+04 2.09457E-09-2.14739E-08
 -1       614 2.45817E+04-3.33734E+01-3.47068E+01 2.38601E+04 2.83217E-09 5.44424E-09
 -1       615 2.45819E+04-3.52699E+01 6.22715E+01 2.72704E+04-4.47471E-09 4.25439E-09
 -1       616 2.45642E+04-3.02114E+01 1.86602E+02 2.38604E+04 1.34742E-09 4.39331E-09
 -1       617 2.46043E+04 4.52814E+00 4.25692E+02 2.72699E+04 5.57156E-09-1.51904E-08
 -1       618 2.45272E+04 9.25326E+01 8.58031E+02 2.38607E+04 6.83031E-10-3.35262E-09
 -1       619 2.49072E+04 6.67978E+02 1.92676E+03 2.72693E+04-5.30633E-09-2.93085E-09
 -1       620 2.42423E+04 2.12717E+03 3.87274E+03 2.38622E+04-3.01554E-09 1.18871E-09
 -1       621 5.10456E+02 3.01544E+05 3.88694E+03 4.09177E+04 1.03273E-09-1.42900E-08
 -1       622 6.75898E+02 3.02442E+05 3.44888E+03 5.94039E+04 1.03091E-09-2.06637E-09
 -1       623 1.41795E+02 3.01739E+05 4.14358E+03 4.07326E+04 1.13891E-09 2.44017E-09
 -1       624 2.12527E+03 3.03660E+05 8.03207E+03 5.95861E+04 1.11447E-09-1.78716E-08
 -1       625 2.07689E+03 3.00146E+05 1.40354E+04 4.07294E+04 1.45974E-09-1.74714E-09
 -1       626 2.60923E+05 6.14632E+04 5.12213E+03 1.26815E+05 3.16049E-09 1.60071E-10
 -1       627 2.58600E+05 6.28649E+04 2.46832E+03 1.31094E+05 4.40332E-09-3.29555E-09
 -1       628 2.61051E+05 5.91193E+04 1.04391E+03 1.27685E+05 1.12686E-09 1.75098E-08
 -1       629 2.57964E+05 6.21849E+04 5.10946E+02 1.31335E+05-8.44329E-09 1.23473E-08
 -1       630 2.61065E+05 5.90061E+04 2.37113E+02 1.27722E+05-2.71939E-09-7.86792E-09
 -1       631 2.57897E+05 6.21591E+04 1.27731E+02 1.31337E+05 1.83263E-09-5.41803E-09
 -1       632 2.61062E+05 5.90100E+04 8.42830E+01 1.27718E+05 7.29233E-09-2.51659E-08
 -1       633 2.57889E+05 6.21609E+04 9.42469E+01 1.31333E+05 8.39941E-09-9.21864E-09
 -1       634 2.61057E+05 5.90072E+04 1.52620E+02 1.27717E+05-1.45128E-08 6.86350E-09
 -1       635 2.57903E+05 6.21592E+04 3.09019E+02 1.31338E+05-2.59114E-08-2.89219E-10
 -1       636 2.61048E+05 5.90014E+04 6.24163E+02 1.27717E+05-1.00322E-08-8.55289E-09
 -1       637 2.58038E+05 6.22563E+04 1.37244E+03 1.31338E+05-3.77713E-09 1.11577E-08
 -1       638 2.60999E+05 5.93046E+04 2.81986E+03 1.27580E+05-1.91631E-09 1.00413E-08
 -1       639 2.59519E+05 6.43164E+04 6.67193E+03 1.30902E+05 9.68453E-09 1.24928E-08
 -1       640 2.60794E+05 6.54564E+04 1.38454E+04 1.24988E+05 5.43059E-09 8.59359E-09
 -1       656 6.66099E+04-1.70464E+06-1.60792E+05-2.54178E+03 2.03727E-10-1.55206E-08
 -1       657-8.81188E+04-1.77729E+06-1.33206E+05 5.19199E+03 1.52795E-10-7.99992E-09
 -1       658 2.12326E+04-1.72527E+06-8.20373E+04-4.62918E+03 3.25144E-11-1.21793E-08
 -1       659-9.52851E+04-1.78070E+06-1.42624E+05 6.92470E+03-2.27192E-09 1.16794E-08
 -1       660 7.37603E+04-1.70124E+06-1.76983E+05-4.27449E+03-2.38651E-09-4.45078E-09
 -1       661 1.58956E+05 1.66376E+04 1.67488E+04 6.21398E+04-2.99679E-10-4.33829E-09
 -1       662 1.68423E+05 2.90439E+04 1.12875E+04 5.83854E+04 3.41674E-09-1.78030E-08
 -1       663 1.62246E+05 2.20108E+04 3.94766E+03 6.11850E+04-1.70724E-09 9.01309E-10
 -1       664 1.64608E+05 2.27603E+04 2.36152E+03 5.95518E+04-2.75236E-10-6.95616E-09
 -1       665 1.62746E+05 2.27447E+04 9.31602E+02 6.10393E+04 3.62081E-09-1.00344E-08
 -1       666 1.64018E+05 2.19212E+04 5.45310E+02 5.97418E+04 6.88192E-09 1.23869E-08
 -1       667 1.62833E+05 2.28281E+04 2.89823E+02 6.10028E+04 1.19667E-09 5.21597E-09
 -1       668 1.63921E+05 2.18613E+04 2.95732E+02 5.97950E+04-5.46966E-09-6.90326E-09
 -1       669 1.62841E+05 2.28029E+04 4.00721E+02 6.09865E+04-2.66630E-09-2.86360E-09
 -1       670 1.64019E+05 2.20790E+04 8.72900E+02 5.97980E+04-9.55907E-09-1.28617E-08
 -1       671 1.62736E+05 2.26149E+04 1.55001E+03 6.09978E+04 1.30766E-09-1.61046E-08
 -1       672 1.64922E+05 2.35870E+04 3.96574E+03 5.95791E+04 3.30213E-09 2.48820E-08
 -1       673 1.61942E+05 2.13331E+04 6.64598E+03 6.11907E+04 4.74313E-09 5.85760E-09
 -1       674 1.71247E+05 3.42645E+04 1.90061E+04 5.77209E+04-1.99816E-09 7.53630E-09
 -1       675 1.56451E+05 1.22365E+04 2.82118E+04 6.27438E+04-4.23734E-09 1.03664E-08
 -1       676 2.41354E+01-2.96159E+05-1.11467E+03-1.36320E+02 1.73026E-09-1.78668E-09
 -1       677-2.94879E+02-2.96429E+05-2.04005E+03 2.72421E+02 9.22367E-09-1.21675E-08
 -1       678 1.97764E+02-2.95967E+05-3.60630E+03-1.36011E+02 5.36829E-10-1.19699E-08
 -1       679-3.60638E+03-2.98606E+05-8.56707E+03 2.71244E+02 5.85339E-09 1.75076E-09
 -1       680 2.15320E+03-2.93983E+05-1.38072E+04-1.33640E+02 6.73026E-10-1.16037E-08
 -1       771-3.06584E+06-7.46768E+05-1.64315E+05-1.46658E+06-3.10247E-08-2.61061E-08
 -1       772-2.98875E+06-8.35289E+05-8.46984E+04-1.56894E+06-2.58442E-08 1.34678E-08
 -1       773-3.09712E+06-7.22364E+05-4.32115E+04-1.48096E+06-1.66474E-08 8.11997E-09
 -1       774-2.97934E+06-8.16997E+05-1.92711E+04-1.59460E+06 2.89147E-08-1.09867E-09
 -1       775-3.11349E+06-7.10874E+05-1.44375E+04-1.48796E+06-6.78119E-09 4.50382E-09
 -1       776-2.99161E+06-8.14001E+05-5.39520E+03-1.61401E+06-3.60887E-09 4.39468E-09
 -1       777-3.12769E+06-7.00618E+05-6.38675E+03-1.49414E+06 6.40284E-09 5.92991E-09
 -1       778-3.00442E+06-8.11208E+05-1.80428E+03-1.63069E+06 4.55475E-09 7.45058E-09
 -1       779-3.13990E+06-6.91657E+05-3.19421E+03-1.49942E+06-1.66910E-08-1.35697E-09
 -1       780-3.01570E+06-8.08541E+05-5.29857E+02-1.64428E+06-2.04091E-08 1.25510E-09
 -1       781-3.14961E+06-6.84434E+05-1.24267E+03-1.50355E+06-3.38187E-08-4.21460E-09
 -1       782-3.02440E+06-8.06276E+05 4.44180E+02-1.65431E+06-3.60160E-08-7.72161E-09
 -1       783-3.15645E+06-6.79415E+05 6.89630E+02-1.50644E+06-7.05768E-09-1.60544E-08
 -1       784-3.02922E+06-8.04013E+05 2.87057E+03-1.66050E+06-1.41881E-08-4.61387E-09
 -1       785-3.16049E+06-6.76424E+05 5.06601E+03-1.50828E+06-3.15158E-08 9.52605E-09
 -1       786 1.24360E+05-9.79457E+03 2.26607E+04-3.22324E+02 9.83935E-10-1.20963E-10
 -1       787 1.34188E+05 1.13399E+04 1.60315E+04-1.35607E+02 4.35865E-09-4.39741E-09
 -1       788 1.28149E+05-1.53484E+03 5.86283E+03-2.87154E+02 5.53702E-09 1.55103E-08
 -1       789 1.29773E+05 1.77653E+03 3.68050E+03-1.89498E+02 6.97492E-10 6.71082E-09
 -1       790 1.28775E+05-2.38976E+02 1.49024E+03-2.68450E+02-4.86015E-09 6.23129E-09
 -1       791 1.29041E+05 2.76510E+02 8.60853E+02-2.21501E+02-9.55039E-09 1.03139E-08
 -1       792 1.28881E+05-3.59367E+01 3.65049E+02-2.55153E+02-3.63593E-09 1.13328E-08
 -1       793 1.28915E+05 3.80914E+01 1.82542E+02-2.46520E+02 4.18595E-10-3.49008E-08
 -1       794 1.28901E+05-7.07374E-01 4.85587E+01-2.43431E+02 4.72828E-09-1.61996E-08
 -1       795 1.28878E+05-2.65971E+01-5.49969E+01-2.70997E+02-5.79305E-09 1.97346E-08
 -1       796 1.28917E+05 2.87156E+01-1.58128E+02-2.30676E+02 3.17609E-09 3.43007E-10
 -1       797 1.28785E+05-2.14462E+02-4.35474E+02-3.00315E+02 1.98594E-09-3.13192E-08
 -1       798 1.28994E+05 1.87016E+02-7.07594E+02-2.14113E+02 1.91530E-09 2.21732E-09
 -1       799 1.28249E+05-1.37844E+03-1.94701E+03-3.41343E+02 6.17696E-09 2.23531E-09
 -1       800 1.29454E+05 1.19174E+03-2.75552E+03-1.89649E+02 7.09431E-10-1.07070E-09
 -1       801-1.68572E+05-9.94438E+06-1.38459E+06 1.40196E+06 9.28703E-08-5.20631E-08
 -1       802 7.29950E+05 5.86305E+06 2.15986E+06-1.72936E+06 2.57045E-07-3.18933E-08
 -1       803-5.31580E+05-1.41636E+07-1.87269E+06 8.90800E+05 7.76345E-08 1.54614E-08
 -1       804 2.83795E+05 2.33224E+06 1.52129E+06 6.72081E+05-1.19751E-07-9.95801E-08
 -1       805 1.88165E+05-6.42778E+06-2.82783E+05-9.93861E+05-4.95274E-08-7.23121E-08
 -1       806-3.08944E+05-5.97845E+04-2.28609E+04-1.22446E+05-3.19415E-09 1.49007E-08
 -1       807-3.10740E+05-5.60553E+04-1.12313E+04-1.27996E+05 1.26074E-08 1.31652E-09
 -1       808-3.09571E+05-5.15455E+04-4.76469E+03-1.26340E+05-8.46285E-09-1.65149E-08
 -1       809-3.08378E+05-5.28996E+04-2.32981E+03-1.28271E+05-6.83212E-09 1.45978E-08
 -1       810-3.09666E+05-5.12587E+04-1.06788E+03-1.26513E+05 3.79077E-09-1.13778E-09
 -1       811-3.08195E+05-5.27728E+04-5.31074E+02-1.28236E+05-3.60160E-10-2.05821E-08
 -1       812-3.09680E+05-5.12834E+04-2.68665E+02-1.26512E+05-7.05222E-09-1.05342E-08
 -1       813-3.08170E+05-5.27750E+04-1.74727E+02-1.28217E+05-6.33463E-10-1.70794E-08
 -1       814-3.09673E+05-5.12931E+04-1.73352E+02-1.26508E+05 2.81761E-09 7.30142E-09
 -1       815-3.08174E+05-5.27773E+04-2.79474E+02-1.28210E+05 5.82804E-09 2.18301E-08
 -1       816-3.09652E+05-5.12922E+04-5.29810E+02-1.26504E+05 1.09239E-08 2.62039E-08
 -1       817-3.08264E+05-5.28278E+04-1.13708E+03-1.28198E+05-3.85990E-09 2.57223E-08
 -1       818-3.09583E+05-5.14528E+04-2.31927E+03-1.26428E+05 1.05701E-08-1.26420E-08
 -1       819-3.09533E+05-5.42289E+04-5.45705E+03-1.27897E+05 1.67151E-08 1.09956E-08
 -1       820-3.09145E+05-5.55753E+04-1.11071E+04-1.24668E+05 4.84761E-09-1.03000E-10
 -1       821-3.79067E+05 2.08753E+04-4.85975E+04 2.12979E+03 1.41318E-08 1.41881E-08
 -1       822-3.98763E+05-2.41831E+04-3.41504E+04-4.48540E+03 5.55315E-09 1.81899E-08
 -1       823-3.86527E+05 3.29095E+03-1.25520E+04 3.44961E+03-1.27537E-08 1.47647E-08
 -1       824-3.89755E+05-3.79503E+03-7.85631E+03-5.40714E+03 1.51476E-09 7.20331E-09
 -1       825-3.88082E+05 5.11537E+02-3.29041E+03 3.05165E+03 2.13330E-08 4.07636E-09
 -1       826-3.87314E+05-5.67221E+02-1.74253E+03-3.12436E+03 3.14067E-08-7.00263E-09
 -1       827-3.88943E+05 4.64065E+01-1.19218E+03 1.16669E+03 1.30952E-08-5.51111E-09
 -1       828-3.86602E+05-1.31410E+02-5.82880E+02 1.09184E+03-2.92989E-09 2.16014E-08
 -1       829-3.88781E+05 6.55232E+01-1.18090E+03-1.16458E+03 6.08168E-10 1.52630E-08
 -1       830-3.87665E+05-6.21980E+02-1.88107E+03 4.90361E+03 7.41323E-10-1.81163E-08
 -1       831-3.87903E+05 5.54786E+02-3.37204E+03-2.64510E+03-7.13104E-09-1.17752E-08
 -1       832-3.89836E+05-3.96163E+03-8.15902E+03 6.19435E+03-4.23585E-09-6.53324E-09
 -1       833-3.86627E+05 3.41487E+03-1.30560E+04-2.45537E+03-2.18930E-09-8.43465E-09
 -1       834-3.98821E+05-2.50964E+04-3.53728E+04 4.21320E+03-2.10935E-09-1.72586E-08
 -1       835-3.78900E+05 2.16565E+04-5.04678E+04-6.63865E+02 5.41874E-09 1.77861E-08
 -1       836-1.41420E+03 3.70347E+05 2.29142E+04-1.62143E+04-6.84668E-09 2.99224E-10
 -1       837 4.88503E+03 3.77523E+05 1.93870E+04-3.31291E+04-7.40988E-09-3.33512E-09
 -1       838-5.57999E+02 3.72359E+05 1.97490E+04-1.61426E+04-6.25823E-09 1.42404E-08
 -1       839 1.24275E+04 3.83140E+05 3.73553E+04-3.31816E+04-6.64841E-09-2.47059E-09
 -1       840-3.84198E+03 3.64670E+05 5.95663E+04-1.61677E+04-6.32281E-09-4.23074E-09
 -1       856-5.24983E+04 8.03804E+03-2.11820E+04-3.98294E+02 3.30795E-09 5.18412E-11
 -1       857-6.12249E+04-9.44432E+03-1.45815E+04 5.63846E+03 4.99674E-09-1.42345E-08
 -1       858-5.59542E+04 1.12725E+03-5.49622E+03-4.22470E+02 9.05970E-10 4.32669E-09
 -1       859-5.72589E+04-1.32605E+03-3.31672E+03 5.67444E+03-8.02643E-10 1.21843E-08
 -1       860-5.64705E+04 1.57860E+02-1.39005E+03-4.34012E+02-1.06633E-09-1.54109E-08
 -1       861-5.66650E+04-1.88339E+02-7.64720E+02 5.69017E+03 5.41814E-09-2.15097E-08
 -1       862-5.65512E+04 2.13805E+01-3.17933E+02-4.38171E+02-3.04859E-09 4.23540E-10
 -1       863-5.65660E+04-2.17897E+01-1.15926E+02 5.69258E+03-4.79690E-09-1.15504E-08
 -1       864-5.65700E+04-4.89966E+00 4.70278E+01-4.36423E+02-3.63980E-09-2.12589E-09
 -1       865-5.65102E+04 5.97061E+01 2.55110E+02 5.68261E+03-3.18158E-09-1.91243E-09
 -1       866-5.66048E+04-6.01380E+01 5.14248E+02-4.28202E+02 1.14483E-09-9.18476E-09
 -1       867-5.62683E+04 4.96623E+02 1.26587E+03 5.66029E+03-1.71184E-10-7.47411E-09
 -1       868-5.68070E+04-4.33941E+02 2.10350E+03-4.14102E+02-5.95037E-10 7.52675E-09
 -1       869-5.47261E+04 3.61148E+03 5.60096E+03 5.62356E+03 4.79349E-09-1.10716E-08
 -1       870-5.81392E+04-3.09041E+03 8.12823E+03-3.91369E+02-5.67866E-09-7.77618E-09
 -1       871-5.52310E+03-2.13055E+04-1.94957E+04 1.30446E+05-5.58248E-09-6.41012E-09
 -1       872-1.98668E+03-2.58380E+04-8.16245E+03 1.69143E+05-1.18425E-08 9.13860E-09
 -1       873 4.02339E+02-2.36464E+04 5.92038E+02 1.30159E+05-5.72618E-09 1.75336E-08
 -1       874 3.30420E+03-2.12330E+04 9.78674E+03 1.69172E+05-1.17061E-08 2.40007E-08
 -1       875 6.84785E+03-2.59777E+04 2.20764E+04 1.30398E+05-3.99814E-09-6.51835E-09
 -1       876 2.93925E+05 4.95422E+04 1.51102E+04 1.17957E+05 5.61158E-09 3.56522E-09
 -1       877 2.94923E+05 5.27250E+04 8.06943E+03 1.22292E+05 1.26993E-08 1.94311E-08
 -1       878 2.95338E+05 4.78684E+04 3.38069E+03 1.19195E+05-5.79485E-09 3.32466E-09
 -1       879 2.92870E+05 5.06752E+04 1.68447E+03 1.22394E+05 3.27623E-09 1.63216E-08
 -1       880 2.95439E+05 4.78511E+04 7.84606E+02 1.19246E+05-6.09089E-09 7.87270E-09
 -1       881 2.92733E+05 5.05875E+04 4.19011E+02 1.22371E+05-9.37825E-09 1.26465E-08
 -1       882 2.95448E+05 4.78644E+04 2.68089E+02 1.19247E+05-3.49905E-09-1.92458E-09
 -1       883 2.92723E+05 5.05829E+04 2.88259E+02 1.22363E+05-1.34196E-09-9.11768E-09
 -1       884 2.95442E+05 4.78616E+04 4.58597E+02 1.19247E+05 3.69482E-11-1.29967E-08
 -1       885 2.92760E+05 5.05893E+04 9.22061E+02 1.22374E+05-8.33467E-10-1.73922E-08
 -1       886 2.95406E+05 4.78347E+04 1.85838E+03 1.19244E+05-1.94964E-09 9.64792E-09
 -1       887 2.93086E+05 5.08034E+04 4.05939E+03 1.22421E+05 7.07212E-09 4.29145E-09
 -1       888 2.95149E+05 4.78799E+04 8.17978E+03 1.19114E+05-1.22181E-09 7.92124E-09
 -1       889 2.97956E+05 5.58676E+04 1.95400E+04 1.22272E+05-6.16063E-09-3.80714E-09
 -1       890 2.91811E+05 5.18457E+04 3.65979E+04 1.16001E+05-1.15051E-10 2.09366E-09
 -1       891-8.99355E+01-1.62876E+05-1.99761E+03 2.71843E+04-6.49834E-10-7.79664E-10
 -1       892-1.76281E+02-1.63403E+05-2.14546E+03 4.12799E+04 1.38812E-09-2.01169E-08
 -1       893 4.31732E+01-1.62940E+05-3.03772E+03 2.71917E+04 8.11724E-11 7.94762E-09
 -1       894-1.51181E+03-1.64550E+05-6.28693E+03 4.11272E+04 3.56636E-09 9.82254E-09
 -1       895-1.20058E+03-1.61630E+05-1.10712E+04 2.73388E+04-5.81394E-10 7.36145E-09
 -1       956-3.77387E+05-5.45171E+03-1.34601E+04 3.08444E+04 2.00998E-10-6.01676E-09
 -1       957-3.80028E+05-1.92241E+03-6.90885E+03 3.70675E+04-8.81664E-09-1.00258E-08
 -1       958-3.78597E+05-2.40135E+02-3.11335E+03 3.06767E+04-4.66753E-09 5.73664E-09
 -1       959-3.78794E+05-1.35226E+02-1.58972E+03 3.72631E+04 7.74071E-09 1.20053E-08
 -1       960-3.78715E+05-4.39255E+01-7.75226E+02 3.06594E+04 1.11322E-08 8.62087E-09
 -1       961-3.78713E+05-6.21585E+01-4.11015E+02 3.72835E+04 1.04246E-08-1.96087E-09
 -1       962-3.78743E+05-4.51537E+01-2.35315E+02 3.06565E+04 6.89397E-09-1.90435E-08
 -1       963-3.78714E+05-5.79627E+01-1.88899E+02 3.72871E+04 3.25281E-09-2.95527E-08
 -1       964-3.78748E+05-4.17924E+01-2.29714E+02 3.06557E+04 3.00645E-10 1.37311E-09
 -1       965-3.78726E+05-5.49920E+01-3.97310E+02 3.72864E+04-7.30830E-09 1.87674E-08
 -1       966-3.78732E+05-3.39362E+01-7.46533E+02 3.06572E+04-4.88808E-09 9.15156E-09
 -1       967-3.78816E+05-1.18551E+02-1.53112E+03 3.72721E+04-9.37962E-09-4.40878E-09
 -1       968-3.78628E+05-2.16499E+02-2.99739E+03 3.06699E+04-3.10547E-09 6.81518E-09
 -1       969-3.80017E+05-1.83423E+03-6.65413E+03 3.71238E+04 2.89083E-09 6.03393E-09
 -1       970-3.77471E+05-5.23195E+03-1.29626E+04 3.07970E+04-3.38605E-09 1.05965E-08
 -1       971-3.45597E+05-1.72892E+03-9.31971E+03 1.53931E+04 2.06546E-09 8.41386E-09
 -1       972-3.47840E+05-1.27258E+03-5.07541E+03 2.12904E+04-2.82489E-09 2.18051E-09
 -1       973-3.46635E+05-6.17163E+01-2.27333E+03 1.52718E+04-1.05538E-08 1.39028E-08
 -1       974-3.46770E+05-8.06098E+01-1.17841E+03 2.14276E+04-1.13735E-08-9.18919E-09
 -1       975-3.46717E+05-1.67803E+01-5.89505E+02 1.52594E+04-7.82802E-09 4.26076E-09
 -1       976-3.46709E+05-3.07008E+01-3.40929E+02 2.14435E+04-8.63406E-09 7.54414E-09
 -1       977-3.46734E+05-1.60252E+01-2.48924E+02 1.52560E+04-8.25821E-09-1.08676E-08
 -1       978-3.46714E+05-2.44625E+01-2.93313E+02 2.14483E+04-5.95219E-09 3.15856E-09
 -1       979-3.46734E+05-7.53735E+00-4.73001E+02 1.52546E+04-4.30487E-09 1.37845E-09
 -1       980-3.46750E+05-2.13969E+01-9.14395E+02 2.14493E+04-2.42123E-09 7.61497E-09
 -1       981-3.46704E+05 1.53173E+01-1.77154E+03 1.52551E+04 1.55910E-09-2.72763E-09
 -1       982-3.46993E+05-1.52299E+02-3.66206E+03 2.14427E+04-9.53150E-10-9.92620E-09
 -1       983-3.46481E+05-9.81259E+01-7.11558E+03 1.52612E+04-1.55660E-09-6.75618E-09
 -1       984-3.50415E+05-3.86857E+03-1.59351E+04 2.13569E+04 6.69843E-10 4.31896E-10
 -1       985-3.43260E+05-5.30487E+03-2.92618E+04 1.53328E+04-1.54478E-09 1.38953E-08
 -3
    1PSTEP                        49          25           1          
  100CL  125 6.63509E-01         409                     0   25           1
 -4  DISP        4    1
 -5  D1          1    2    1    0
 -5  D2          1    2    2    0
 -5  D3          1    2    3    0
 -5  ALL         1    2    0    0    1ALL
 -1         1 2.68856E-03 0.00000E+00 0.00000E+00
 -1         2 1.51438E-03 1.27591E-27 0.00000E+00
 -1         3 3.42424E-04-6.28430E-28 0.00000E+00
 -1         5 1.77079E-04-1.69368E-27-3.30872E-24
 -1         8 2.67697E-03-4.14801E-07 0.00000E+00
 -1         9 2.65544E-03-1.37820E-04 0.00000E+00
 -1        10 3.10461E-04-3.46900E-06-6.61744E-24
 -1        12 1.78911E-04 8.09522E-07 1.24077E-24
 -1        15 2.66340E-03-4.41159E-07-2.06795E-25
 -1        16 2.71666E-03-1.39557E-04 0.00000E+00
 -1        17 2.11279E-04-7.89648E-06 0.00000E+00
 -1        18 1.82815E-04 3.42363E-05 0.00000E+00
 -1        19 1.84409E-04 1.61266E-06 0.00000E+00
 -1        20 1.84548E-04-9.69427E-06 0.00000E+00
 -1        21 1.83656E-04-2.50301E-05 0.00000E+00
 -1        24 3.06785E-05-1.21349E-05 0.00000E+00
 -1        25 1.93527E-04 3.44621E-05 0.00000E+00
 -1        26 1.94211E-04 2.23317E-06 0.00000E+00
 -1        27 1.92010E-04-1.32543E-05 0.00000E+00
 -1        28 1.91693E-04-2.56526E-05 0.00000E+00
 -1        32 0.00000E+00 0.00000E+00 0.00000E+00
 -1        33 2.03006E-04 2.98740E-06 0.00000E+00
 -1        34 2.00887E-04-1.33103E-05 0.00000E+00
 -1        35 1.98954E-04-2.59952E-05 0.00000E+00
 -1        51 2.68780E-03-8.62320E-08 0.00000E+00
 -1        52 2.68639E-03-1.54222E-07 0.00000E+00
 -1        53 2.68447E-03-2.18839E-07 0.00000E+00
 -1        54 2.68217E-03-2.82331E-07 1.65436E-24
 -1        55 2.67962E-03-3.46458E-07-2.89513E-24
 -1        56 2.68135E-03 7.30795E-06-5.29396E-23
 -1        57 2.66763E-03 3.07588E-05 0.00000E+00
 -1        58 2.64927E-03 6.55969E-05-1.05879E-22
 -1        59 2.62856E-03 1.05969E-04 5.29396E-23
 -1        60 2.60839E-03 1.45071E-04-1.05879E-22
 -1        61 2.59153E-03 1.76195E-04 0.00000E+00
 -1        62 2.58001E-03 1.94061E-04 1.05879E-22
 -1        63 2.57519E-03 1.94564E-04 0.00000E+00
 -1        64 2.57710E-03 1.76773E-04 0.00000E+00
 -1        65 2.58510E-03 1.41469E-04-5.29396E-23
 -1        66 2.59758E-03 9.27280E-05 1.05879E-22
 -1        67 2.61264E-03 3.59289E-05 0.00000E+00
 -1        68 2.62806E-03-2.20016E-05 0.00000E+00
 -1        69 2.64163E-03-7.40192E-05 0.00000E+00
 -1        70 2.65130E-03-1.14223E-04 0.00000E+00
 -1        86 1.58558E-03-4.57354E-06 0.00000E+00
 -1        87 1.79291E-03-2.75936E-05-1.32349E-23
 -1        88 2.07199E-03-6.69014E-05 0.00000E+00
 -1        89 2.35503E-03-1.07337E-04-1.32349E-23
 -1        90 2.57200E-03-1.32293E-04 0.00000E+00
 -1       121 3.41526E-04-5.60419E-07 0.00000E+00
 -1       122 3.38836E-04-1.12393E-06 0.00000E+00
 -1       123 3.34365E-04-1.69357E-06 0.00000E+00
 -1       124 3.28128E-04-2.27239E-06 6.61744E-24
 -1       125 3.20150E-04-2.86303E-06 1.32349E-23
 -1       191 1.77130E-04 1.34983E-07 1.65436E-24
 -1       192 1.77282E-04 2.69955E-07 0.00000E+00
 -1       193 1.77537E-04 4.04907E-07 2.48154E-24
 -1       194 1.77893E-04 5.39828E-07-1.24077E-24
 -1       195 1.78351E-04 6.74703E-07 8.27181E-25
 -1       251 2.67658E-03 1.24682E-05 0.00000E+00
 -1       252 2.67571E-03 4.63624E-05 3.30872E-24
 -1       253 2.67431E-03 9.41950E-05-6.61744E-24
 -1       254 2.67258E-03 1.48711E-04 0.00000E+00
 -1       255 2.67096E-03 2.00826E-04 6.61744E-24
 -1       256 2.66986E-03 2.41489E-04 0.00000E+00
 -1       257 2.66928E-03 2.64748E-04 6.61744E-24
 -1       258 2.66895E-03 2.64883E-04 0.00000E+00
 -1       259 2.66838E-03 2.42140E-04 0.00000E+00
 -1       260 2.66708E-03 1.97088E-04 3.30872E-24
 -1       261 2.66499E-03 1.36072E-04 1.32349E-23
 -1       262 2.66230E-03 6.56430E-05-6.61744E-24
 -1       263 2.65959E-03-5.08888E-06 0.00000E+00
 -1       264 2.65744E-03-6.70099E-05-6.61744E-24
 -1       265 2.65608E-03-1.13423E-04-1.32349E-23
 -1       266 2.67471E-03-4.24999E-07 3.30872E-24
 -1       267 2.67245E-03-4.28684E-07-8.27181E-25
 -1       268 2.67019E-03-4.32782E-07 0.00000E+00
 -1       269 2.66792E-03-4.35658E-07 2.06795E-25
 -1       270 2.66566E-03-4.38505E-07 0.00000E+00
 -1       271 2.67582E-03 7.77225E-07 0.00000E+00
 -1       272 2.67527E-03 3.05400E-07 0.00000E+00
 -1       273 2.67533E-03-1.78970E-06-2.64698E-23
 -1       274 2.67597E-03-5.46265E-06 0.00000E+00
 -1       275 2.67717E-03-1.06523E-05 2.64698E-23
 -1       276 2.67891E-03-1.72866E-05 1.32349E-23
 -1       277 2.68114E-03-2.52805E-05 2.64698E-23
 -1       278 2.68384E-03-3.45383E-05 0.00000E+00
 -1       279 2.68696E-03-4.49536E-05-5.29396E-23
 -1       280 2.69046E-03-5.64104E-05-1.32349E-23
 -1       281 2.69429E-03-6.87836E-05 0.00000E+00
 -1       282 2.69840E-03-8.19412E-05-3.97047E-23
 -1       283 2.70275E-03-9.57440E-05 0.00000E+00
 -1       284 2.70728E-03-1.10047E-04 0.00000E+00
 -1       285 2.71193E-03-1.24703E-04-1.32349E-23
 -1       301 2.66660E-03-1.38143E-04-6.61744E-24
 -1       302 2.67617E-03-1.38421E-04-3.30872E-24
 -1       303 2.68505E-03-1.38689E-04-2.64698E-23
 -1       304 2.69416E-03-1.38958E-04 0.00000E+00
 -1       305 2.70440E-03-1.39240E-04 2.64698E-23
 -1       306 2.69311E-03-2.91354E-04 1.05879E-22
 -1       307 2.75702E-03-7.04111E-04-5.29396E-23
 -1       308 2.80381E-03-1.30876E-03 0.00000E+00
 -1       309 2.82742E-03-2.01005E-03 0.00000E+00
 -1       310 2.85806E-03-2.68274E-03 0.00000E+00
 -1       311 2.91701E-03-3.20407E-03 0.00000E+00
 -1       312 2.97557E-03-3.49315E-03 2.11758E-22
 -1       313 2.97379E-03-3.51108E-03 0.00000E+00
 -1       314 2.83815E-03-3.26882E-03 0.00000E+00
 -1       315 2.52716E-03-2.82982E-03-5.29396E-23
 -1       316 2.05794E-03-2.27036E-03 1.05879E-22
 -1       317 1.49508E-03-1.66006E-03 5.29396E-23
 -1       318 9.51949E-04-1.06014E-03 1.05879E-22
 -1       319 5.36071E-04-5.35840E-04-5.29396E-23
 -1       320 2.91502E-04-1.60988E-04-1.05879E-22
 -1       336 2.98874E-04-4.13869E-06 0.00000E+00
 -1       337 2.85215E-04-4.83404E-06 0.00000E+00
 -1       338 2.69547E-04-5.55721E-06 1.32349E-23
 -1       339 2.51944E-04-6.30896E-06 6.61744E-24
 -1       340 2.32490E-04-7.09374E-06 1.32349E-23
 -1       406 1.79573E-04 9.44264E-07-3.30872E-24
 -1       407 1.80336E-04 1.07889E-06 0.00000E+00
 -1       408 1.81202E-04 1.21336E-06 1.24077E-24
 -1       409 1.82169E-04 1.34749E-06-8.27181E-25
 -1       410 1.83239E-04 1.48100E-06-8.27181E-25
 -1       521 2.75492E-03-3.02262E-04 1.05879E-22
 -1       522 2.81708E-03-7.35095E-04 5.29396E-23
 -1       523 2.85748E-03-1.36735E-03 1.05879E-22
 -1       524 2.87190E-03-2.09705E-03 0.00000E+00
 -1       525 2.89461E-03-2.79620E-03 1.05879E-22
 -1       526 2.94992E-03-3.33953E-03 0.00000E+00
 -1       527 3.00801E-03-3.63934E-03 0.00000E+00
 -1       528 3.00405E-03-3.65573E-03-5.29396E-23
 -1       529 2.85677E-03-3.39957E-03-2.11758E-22
 -1       530 2.52236E-03-2.94211E-03-5.29396E-23
 -1       531 2.01864E-03-2.36343E-03 0.00000E+00
 -1       532 1.41655E-03-1.73583E-03 0.00000E+00
 -1       533 8.34778E-04-1.11801E-03 0.00000E+00
 -1       534 3.85951E-04-5.72896E-04 0.00000E+00
 -1       535 1.20348E-04-1.78602E-04 0.00000E+00
 -1       536 2.10526E-04 2.69672E-05 0.00000E+00
 -1       537 2.08614E-04 8.73008E-05 1.65436E-24
 -1       538 2.05661E-04 1.63854E-04-3.30872E-24
 -1       539 2.02177E-04 2.47292E-04 0.00000E+00
 -1       540 1.99042E-04 3.26135E-04 0.00000E+00
 -1       541 1.97004E-04 3.88923E-04 1.65436E-24
 -1       542 1.96063E-04 4.28915E-04 0.00000E+00
 -1       543 1.95838E-04 4.39518E-04-1.65436E-24
 -1       544 1.95516E-04 4.21504E-04 3.30872E-24
 -1       545 1.94348E-04 3.75866E-04 0.00000E+00
 -1       546 1.92170E-04 3.10718E-04 3.30872E-24
 -1       547 1.89223E-04 2.34294E-04 1.65436E-24
 -1       548 1.86302E-04 1.58248E-04 0.00000E+00
 -1       549 1.84195E-04 9.42323E-05 1.65436E-24
 -1       550 1.83101E-04 5.02650E-05 1.65436E-24
 -1       551 1.86114E-04-8.46853E-06 0.00000E+00
 -1       552 1.57706E-04-9.12079E-06 0.00000E+00
 -1       553 1.26999E-04-9.83514E-06 9.92617E-24
 -1       554 9.49517E-05-1.05905E-05-6.61744E-24
 -1       555 6.25264E-05-1.13594E-05 0.00000E+00
 -1       556 2.03644E-04 1.16261E-05 0.00000E+00
 -1       557 1.97476E-04 2.74591E-05 0.00000E+00
 -1       558 1.92640E-04 3.98899E-05 5.29396E-23
 -1       559 1.89004E-04 4.92285E-05 0.00000E+00
 -1       560 1.86438E-04 5.57854E-05 0.00000E+00
 -1       561 1.84814E-04 5.98736E-05 0.00000E+00
 -1       562 1.84007E-04 6.18072E-05 0.00000E+00
 -1       563 1.83893E-04 6.19015E-05 1.32349E-23
 -1       564 1.84351E-04 6.04725E-05 0.00000E+00
 -1       565 1.85260E-04 5.78368E-05 6.61744E-24
 -1       566 1.86500E-04 5.43118E-05 0.00000E+00
 -1       567 1.87952E-04 5.02150E-05 0.00000E+00
 -1       568 1.89499E-04 4.58642E-05 0.00000E+00
 -1       569 1.91022E-04 4.15774E-05-8.27181E-25
 -1       570 1.92403E-04 3.76722E-05 0.00000E+00
 -1       571 1.82912E-04 3.21199E-05 3.30872E-24
 -1       572 1.83010E-04 2.99377E-05-8.27181E-25
 -1       573 1.83109E-04 2.77054E-05 0.00000E+00
 -1       574 1.83209E-04 2.54395E-05 1.65436E-24
 -1       575 1.83308E-04 2.31563E-05 3.30872E-24
 -1       576 1.83408E-04 2.08722E-05 1.65436E-24
 -1       577 1.83507E-04 1.86039E-05-3.30872E-24
 -1       578 1.83607E-04 1.63677E-05-3.30872E-24
 -1       579 1.83707E-04 1.41802E-05 6.61744E-24
 -1       580 1.83806E-04 1.20578E-05 0.00000E+00
 -1       581 1.83906E-04 1.00172E-05 0.00000E+00
 -1       582 1.84007E-04 8.07480E-06 0.00000E+00
 -1       583 1.84107E-04 6.24703E-06 0.00000E+00
 -1       584 1.84207E-04 4.55021E-06 0.00000E+00
 -1       585 1.84308E-04 3.00049E-06 0.00000E+00
 -1       586 1.84559E-04 3.42761E-05 1.65436E-24
 -1       587 1.86262E-04 3.43153E-05 0.00000E+00
 -1       588 1.87968E-04 3.43541E-05 8.27181E-25
 -1       589 1.89718E-04 3.43923E-05 0.00000E+00
 -1       590 1.91557E-04 3.44291E-05 0.00000E+00
 -1       591 1.83540E-04 3.22134E-05 1.03398E-25
 -1       592 1.84268E-04 3.01704E-05 0.00000E+00
 -1       593 1.85001E-04 2.81134E-05-8.27181E-25
 -1       594 1.85738E-04 2.60468E-05 4.13590E-25
 -1       595 1.86476E-04 2.39757E-05 0.00000E+00
 -1       596 1.87213E-04 2.19046E-05-4.13590E-25
 -1       597 1.87949E-04 1.98382E-05-8.27181E-25
 -1       598 1.88682E-04 1.77814E-05 0.00000E+00
 -1       599 1.89409E-04 1.57387E-05 0.00000E+00
 -1       600 1.90129E-04 1.37148E-05-4.13590E-25
 -1       601 1.90841E-04 1.17146E-05 0.00000E+00
 -1       602 1.91541E-04 9.74264E-06 4.13590E-25
 -1       603 1.92230E-04 7.80366E-06 4.13590E-25
 -1       604 1.92905E-04 5.90247E-06-5.16988E-26
 -1       605 1.93565E-04 4.04368E-06 0.00000E+00
 -1       606 1.84422E-04 4.58146E-07 0.00000E+00
 -1       607 1.84431E-04-6.10307E-07-1.65436E-24
 -1       608 1.84440E-04-1.59775E-06 0.00000E+00
 -1       609 1.84449E-04-2.50988E-06-1.65436E-24
 -1       610 1.84457E-04-3.35246E-06 0.00000E+00
 -1       611 1.84465E-04-4.13128E-06 0.00000E+00
 -1       612 1.84474E-04-4.85216E-06 0.00000E+00
 -1       613 1.84482E-04-5.52093E-06 0.00000E+00
 -1       614 1.84491E-04-6.14343E-06 0.00000E+00
 -1       615 1.84499E-04-6.72546E-06 0.00000E+00
 -1       616 1.84507E-04-7.27286E-06 1.65436E-24
 -1       617 1.84516E-04-7.79145E-06 0.00000E+00
 -1       618 1.84524E-04-8.28707E-06 0.00000E+00
 -1       619 1.84533E-04-8.76552E-06 2.06795E-25
 -1       620 1.84541E-04-9.23265E-06-2.06795E-25
 -1       621 1.85757E-04 1.71664E-06-1.65436E-24
 -1       622 1.87264E-04 1.82087E-06 0.00000E+00
 -1       623 1.88897E-04 1.92489E-06 1.65436E-24
 -1       624 1.90621E-04 2.02857E-06 0.00000E+00
 -1       625 1.92404E-04 2.13197E-06 0.00000E+00
 -1       626 1.84954E-04 4.94268E-07 0.00000E+00
 -1       627 1.85476E-04-5.60866E-07 0.00000E+00
 -1       628 1.85978E-04-1.56061E-06 0.00000E+00
 -1       629 1.86462E-04-2.51314E-06-1.65436E-24
 -1       630 1.86931E-04-3.42667E-06 0.00000E+00
 -1       631 1.87389E-04-4.30942E-06 1.65436E-24
 -1       632 1.87839E-04-5.16962E-06 0.00000E+00
 -1       633 1.88284E-04-6.01549E-06 1.65436E-24
 -1       634 1.88726E-04-6.85526E-06-3.30872E-24
 -1       635 1.89169E-04-7.69715E-06 1.65436E-24
 -1       636 1.89615E-04-8.54941E-06 0.00000E+00
 -1       637 1.90069E-04-9.42024E-06-1.65436E-24
 -1       638 1.90533E-04-1.03179E-05 1.65436E-24
 -1       639 1.91009E-04-1.12506E-05 0.00000E+00
 -1       640 1.91501E-04-1.22266E-05 1.65436E-24
 -1       656 1.85243E-04-1.02729E-05-6.61744E-24
 -1       657 1.86358E-04-1.08750E-05-6.61744E-24
 -1       658 1.87754E-04-1.14758E-05 1.32349E-23
 -1       659 1.89284E-04-1.20762E-05 0.00000E+00
 -1       660 1.90764E-04-1.26784E-05-6.61744E-24
 -1       661 1.84809E-04-1.02010E-05-8.27181E-25
 -1       662 1.85106E-04-1.07995E-05 0.00000E+00
 -1       663 1.85436E-04-1.14847E-05 0.00000E+00
 -1       664 1.85797E-04-1.22501E-05 0.00000E+00
 -1       665 1.86185E-04-1.30897E-05 0.00000E+00
 -1       666 1.86599E-04-1.39977E-05 8.27181E-25
 -1       667 1.87036E-04-1.49685E-05 1.65436E-24
 -1       668 1.87495E-04-1.59965E-05 8.27181E-25
 -1       669 1.87974E-04-1.70762E-05-1.65436E-24
 -1       670 1.88469E-04-1.82023E-05 8.27181E-25
 -1       671 1.88980E-04-1.93698E-05 0.00000E+00
 -1       672 1.89504E-04-2.05734E-05 0.00000E+00
 -1       673 1.90040E-04-2.18082E-05 1.65436E-24
 -1       674 1.90585E-04-2.30694E-05 0.00000E+00
 -1       675 1.91138E-04-2.43519E-05 0.00000E+00
 -1       676 1.85000E-04-2.51344E-05-3.30872E-24
 -1       677 1.86344E-04-2.52387E-05 0.00000E+00
 -1       678 1.87685E-04-2.53430E-05 0.00000E+00
 -1       679 1.89024E-04-2.54469E-05-1.65436E-24
 -1       680 1.90361E-04-2.55509E-05 0.00000E+00
 -1       771 1.87441E-05 1.45465E-05 5.29396E-23
 -1       772 8.70224E-06 3.64622E-05 0.00000E+00
 -1       773 4.62431E-07 5.38418E-05 0.00000E+00
 -1       774-6.09938E-06 6.69427E-05 0.00000E+00
 -1       775-1.11045E-05 7.60327E-05 0.00000E+00
 -1       776-1.46793E-05 8.13962E-05-2.64698E-23
 -1       777-1.69496E-05 8.33279E-05 0.00000E+00
 -1       778-1.80443E-05 8.21361E-05 0.00000E+00
 -1       779-1.80911E-05 7.81377E-05-5.29396E-23
 -1       780-1.72203E-05 7.16610E-05 2.64698E-23
 -1       781-1.55608E-05 6.30411E-05 0.00000E+00
 -1       782-1.32434E-05 5.26220E-05-2.64698E-23
 -1       783-1.03978E-05 4.07521E-05 0.00000E+00
 -1       784-7.15504E-06 2.77862E-05 0.00000E+00
 -1       785-3.64518E-06 1.40821E-05 5.29396E-23
 -1       786 1.93566E-04 3.22204E-05 1.29247E-26
 -1       787 1.93608E-04 3.00287E-05 0.00000E+00
 -1       788 1.93650E-04 2.78788E-05-8.27181E-25
 -1       789 1.93692E-04 2.57623E-05 0.00000E+00
 -1       790 1.93735E-04 2.36746E-05 1.65436E-24
 -1       791 1.93778E-04 2.16109E-05 0.00000E+00
 -1       792 1.93821E-04 1.95691E-05 0.00000E+00
 -1       793 1.93864E-04 1.75469E-05-8.27181E-25
 -1       794 1.93907E-04 1.55442E-05-1.65436E-24
 -1       795 1.93950E-04 1.35609E-05 0.00000E+00
 -1       796 1.93994E-04 1.15987E-05 0.00000E+00
 -1       797 1.94037E-04 9.65960E-06 0.00000E+00
 -1       798 1.94080E-04 7.74787E-06 0.00000E+00
 -1       799 1.94124E-04 5.86783E-06 0.00000E+00
 -1       800 1.94167E-04 4.02704E-06 0.00000E+00
 -1       801 1.47879E-04 3.09781E-05 0.00000E+00
 -1       802 9.85008E-06 1.93288E-05-2.64698E-23
 -1       803-1.08107E-04 9.76001E-06 0.00000E+00
 -1       804-9.59403E-05 6.79114E-06 0.00000E+00
 -1       805-3.17116E-05 2.67287E-06-5.29396E-23
 -1       806 1.94253E-04 3.21516E-05 0.00000E+00
 -1       807 1.94964E-04 2.98673E-05-1.65436E-24
 -1       808 1.95663E-04 2.76143E-05 0.00000E+00
 -1       809 1.96348E-04 2.53966E-05-1.65436E-24
 -1       810 1.97019E-04 2.32185E-05 0.00000E+00
 -1       811 1.97673E-04 2.10838E-05-1.65436E-24
 -1       812 1.98310E-04 1.89965E-05 3.30872E-24
 -1       813 1.98927E-04 1.69604E-05-1.65436E-24
 -1       814 1.99524E-04 1.49796E-05-3.30872E-24
 -1       815 2.00098E-04 1.30579E-05 8.27181E-25
 -1       816 2.00650E-04 1.11992E-05-1.65436E-24
 -1       817 2.01176E-04 9.40746E-06-1.65436E-24
 -1       818 2.01676E-04 7.68655E-06 0.00000E+00
 -1       819 2.02148E-04 6.04036E-06 8.27181E-25
 -1       820 2.02592E-04 4.47271E-06-1.65436E-24
 -1       821 1.94082E-04-1.20331E-07 0.00000E+00
 -1       822 1.93942E-04-3.63452E-06-1.65436E-24
 -1       823 1.93799E-04-7.87941E-06 0.00000E+00
 -1       824 1.93654E-04-1.24204E-05 1.65436E-24
 -1       825 1.93510E-04-1.67430E-05 0.00000E+00
 -1       826 1.93368E-04-2.03337E-05-1.65436E-24
 -1       827 1.93229E-04-2.28786E-05-3.30872E-24
 -1       828 1.93093E-04-2.40700E-05 0.00000E+00
 -1       829 1.92957E-04-2.39689E-05 3.30872E-24
 -1       830 1.92821E-04-2.26441E-05-1.65436E-24
 -1       831 1.92683E-04-2.04976E-05-3.30872E-24
 -1       832 1.92544E-04-1.79363E-05-1.65436E-24
 -1       833 1.92406E-04-1.54804E-05 0.00000E+00
 -1       834 1.92271E-04-1.36492E-05 0.00000E+00
 -1       835 1.92136E-04-1.27926E-05 0.00000E+00
 -1       836 1.95890E-04 2.35824E-06 0.00000E+00
 -1       837 1.97441E-04 2.48647E-06 0.00000E+00
 -1       838 1.98896E-04 2.61463E-06 3.30872E-24
 -1       839 2.00287E-04 2.74209E-06 0.00000E+00
 -1       840 2.01647E-04 2.86938E-06 8.27181E-25
 -1       856 1.91994E-04-1.43044E-05 0.00000E+00
 -1       857 1.91974E-04-1.52186E-05-1.29247E-26
 -1       858 1.91955E-04-1.60181E-05 0.00000E+00
 -1       859 1.91935E-04-1.67241E-05 0.00000E+00
 -1       860 1.91915E-04-1.73577E-05 0.00000E+00
 -1       861 1.91895E-04-1.79403E-05 0.00000E+00
 -1       862 1.91876E-04-1.84933E-05 0.00000E+00
 -1       863 1.91856E-04-1.90379E-05 0.00000E+00
 -1       864 1.91836E-04-1.95955E-05 0.00000E+00
 -1       865 1.91816E-04-2.01876E-05 4.13590E-25
 -1       866 1.91796E-04-2.08353E-05-8.27181E-25
 -1       867 1.91776E-04-2.15601E-05-4.13590E-25
 -1       868 1.91756E-04-2.23831E-05-8.27181E-25
 -1       869 1.91735E-04-2.33254E-05 0.00000E+00
 -1       870 1.91715E-04-2.44083E-05 8.27181E-25
 -1       871 1.93348E-04-1.32592E-05 8.27181E-25
 -1       872 1.94833E-04-1.32675E-05 0.00000E+00
 -1       873 1.96398E-04-1.32765E-05 0.00000E+00
 -1       874 1.97974E-04-1.32862E-05-5.16988E-26
 -1       875 1.99493E-04-1.32965E-05-1.44757E-24
 -1       876 1.92531E-04-1.42898E-05-3.30872E-24
 -1       877 1.93030E-04-1.52585E-05 0.00000E+00
 -1       878 1.93507E-04-1.61682E-05 0.00000E+00
 -1       879 1.93965E-04-1.70265E-05 1.65436E-24
 -1       880 1.94407E-04-1.78408E-05 0.00000E+00
 -1       881 1.94835E-04-1.86183E-05 0.00000E+00
 -1       882 1.95252E-04-1.93665E-05 0.00000E+00
 -1       883 1.95660E-04-2.00927E-05 1.65436E-24
 -1       884 1.96064E-04-2.08042E-05 3.30872E-24
 -1       885 1.96464E-04-2.15085E-05 0.00000E+00
 -1       886 1.96865E-04-2.22128E-05-3.30872E-24
 -1       887 1.97268E-04-2.29245E-05 1.65436E-24
 -1       888 1.97677E-04-2.36509E-05 3.30872E-24
 -1       889 1.98093E-04-2.43997E-05 0.00000E+00
 -1       890 1.98519E-04-2.51780E-05 1.65436E-24
 -1       891 1.93045E-04-2.57101E-05 0.00000E+00
 -1       892 1.94374E-04-2.57678E-05 8.27181E-25
 -1       893 1.95655E-04-2.58254E-05 8.27181E-25
 -1       894 1.96861E-04-2.58828E-05-8.27181E-25
 -1       895 1.97969E-04-2.59399E-05 4.13590E-25
 -1       956 2.02876E-04 1.67680E-06-1.65436E-24
 -1       957 2.02743E-04 4.57754E-07 8.27181E-25
 -1       958 2.02610E-04-6.80458E-07 0.00000E+00
 -1       959 2.02478E-04-1.74918E-06 0.00000E+00
 -1       960 2.02345E-04-2.75979E-06 3.30872E-24
 -1       961 2.02212E-04-3.72370E-06 1.65436E-24
 -1       962 2.02079E-04-4.65235E-06 0.00000E+00
 -1       963 2.01946E-04-5.55718E-06 0.00000E+00
 -1       964 2.01813E-04-6.44963E-06 3.30872E-24
 -1       965 2.01681E-04-7.34113E-06 0.00000E+00
 -1       966 2.01548E-04-8.24316E-06 0.00000E+00
 -1       967 2.01415E-04-9.16713E-06 1.65436E-24
 -1       968 2.01282E-04-1.01245E-05-6.61744E-24
 -1       969 2.01150E-04-1.11266E-05 0.00000E+00
 -1       970 2.01017E-04-1.21849E-05 3.30872E-24
 -1       971 2.00767E-04-1.44351E-05 3.30872E-24
 -1       972 2.00646E-04-1.54653E-05 1.65436E-24
 -1       973 2.00524E-04-1.64112E-05 0.00000E+00
 -1       974 2.00403E-04-1.72838E-05-1.65436E-24
 -1       975 2.00281E-04-1.80938E-05 0.00000E+00
 -1       976 2.00160E-04-1.88521E-05 1.65436E-24
 -1       977 2.00038E-04-1.95697E-05 3.30872E-24
 -1       978 1.99917E-04-2.02575E-05 1.65436E-24
 -1       979 1.99795E-04-2.09263E-05 3.30872E-24
 -1       980 1.99674E-04-2.15871E-05-1.65436E-24
 -1       981 1.99553E-04-2.22509E-05 0.00000E+00
 -1       982 1.99431E-04-2.29285E-05-1.65436E-24
 -1       983 1.99310E-04-2.36308E-05 0.00000E+00
 -1       984 1.99189E-04-2.43689E-05 1.65436E-24
 -1       985 1.99069E-04-2.51534E-05 0.00000E+00
 -3
    1PSTEP                        50          25           1          
  100CL  125 6.63509E-01         409                     0   25           1
 -4  STRESS      6    1
 -5  SXX         1    4    1    1
 -5  SYY         1    4    2    2
 -5  SZZ         1    4    3    3
 -5  SXY         1    4    1    2
 -5  SYZ         1    4    2    3
 -5  SZX         1    4    3    1
 -1         1-5.28359E+06-1.66451E+06-1.13194E+06-1.44812E+06-6.54836E-10-8.59436E-08
 -1         2 9.87922E+05 1.45089E+07 3.56834E+06 4.36700E+06 2.21771E-08 1.53414E-07
 -1         3-1.48873E+03-1.59138E+06 4.12191E+02-2.25898E+03-6.53596E-10 5.63887E-09
 -1         5-7.41309E+01 3.86532E+05 9.98725E+00-1.33300E+00-5.24269E-10 4.49709E-08
 -1         8-4.78019E+05-1.73319E+05-3.90090E+04-2.24840E+05 6.09361E-11 6.06815E-09
 -1         9 1.14236E+07 2.43678E+06 2.47392E+06-7.64223E+05 5.15720E-09 1.69734E-08
 -1        10-2.31602E+03-1.65836E+06-4.02101E+03-1.52794E+04-1.42136E-08-5.00504E-08
 -1        12-7.02077E+01 3.86553E+05 3.28227E+02-9.08803E+00-5.01554E-10 1.72840E-08
 -1        15 9.61761E+02 5.28535E+02 3.10887E+03 9.40791E-01-2.55710E-10-4.09080E-08
 -1        16 2.27382E+07-2.69717E+05 3.11096E+06-2.15564E+06-4.28796E-09 2.73343E-07
 -1        17 8.25830E+06 6.19690E+06 2.23391E+06 5.94330E+06 1.89641E-08 2.40398E-08
 -1        18 1.41710E+05 3.33330E+04 3.99901E+03-1.19480E+05 1.44173E-08-3.76713E-09
 -1        19 1.22454E+05 1.41732E+05-9.43505E+02 2.19843E+04 1.58871E-09-1.86119E-09
 -1        20-8.18692E+04-5.73902E+05-1.28771E+05 2.51878E+04-1.92949E-09 8.33218E-09
 -1        21-4.56410E+01-2.96256E+05-9.24867E+02 2.73110E+02 8.55649E-09-2.56094E-08
 -1        24 1.37930E+07 1.19274E+07 3.82878E+06 1.10518E+07-1.63845E-07-4.93407E-08
 -1        25 1.23563E+05 2.61910E+05 9.86507E+04-6.42041E+05 5.94628E-10 7.12280E-09
 -1        26-5.53141E+04 9.23484E+04-2.46215E+04 1.23794E+03 2.91038E-12 9.70534E-09
 -1        27-7.56400E+04-3.10069E+05-1.13359E+05 6.90096E+04 3.34573E-09 6.64962E-09
 -1        28 2.22629E+04-8.54035E+04 1.69111E+04 2.06519E+04-3.88579E-09 1.00342E-08
 -1        32-1.68090E+06-3.17594E+06-1.96092E+05 4.49522E+05-4.19168E-08-1.06938E-08
 -1        33-1.78549E+05 9.30360E+04 3.24018E+04-3.85509E+04-3.16197E-09 5.61734E-09
 -1        34-2.23722E+05-2.50328E+04 6.89499E+02 7.56717E+04-5.66768E-09-1.56624E-08
 -1        35-2.29513E+04-3.38692E+04-1.34929E+03 5.15397E+04-3.93735E-09-9.66005E-09
 -1        51 6.01402E+04-1.75359E+05 1.27450E+05-4.53317E+05 4.36557E-11-8.47285E-08
 -1        52 2.04162E+04-1.53198E+05 6.69789E+04-5.28602E+05-2.11003E-10-1.77399E-07
 -1        53 4.23795E+03-1.68687E+05 3.50396E+04-4.51711E+05 1.60071E-10-1.98532E-07
 -1        54 7.70019E+03-1.64520E+05 2.91268E+04-5.30217E+05 4.36557E-11-3.85880E-07
 -1        55 1.67536E+04-1.71794E+05 3.58205E+04-4.51567E+05 2.43745E-10-1.18214E-07
 -1        56-9.73115E+06-1.31108E+06-8.94573E+05-4.01655E+06-6.78119E-09 3.92320E-08
 -1        57-1.08527E+07-1.01411E+06-5.51390E+05-2.88603E+06 2.06346E-08 2.48430E-07
 -1        58-9.60089E+06-1.75991E+06-2.01026E+05-4.18225E+06-2.40980E-08-1.27409E-07
 -1        59-1.09861E+07-4.92432E+05-1.11234E+05-2.80531E+06 2.75163E-08-4.00478E-07
 -1        60-9.66026E+06-1.77868E+06-5.22228E+04-4.15289E+06-2.16132E-08-5.53628E-08
 -1        61-1.05043E+07-7.39143E+05 2.16314E+03-3.01483E+06-1.22527E-08 1.12819E-07
 -1        62-9.99167E+06-1.57405E+06-5.64194E+04-3.90094E+06-1.81899E-08-7.47277E-08
 -1        63-9.76510E+06-1.32778E+06 3.59401E+04-3.59282E+06-2.61425E-08-1.26543E-07
 -1        64-1.03154E+07-1.24929E+06-5.52459E+04-3.51869E+06 1.44501E-08 4.45507E-08
 -1        65-9.38247E+06-1.86250E+06 4.23153E+03-4.34038E+06-8.87048E-08 1.17129E-07
 -1        66-1.04555E+07-9.83345E+05-4.73109E+04-3.21608E+06 9.72796E-09 1.21017E-07
 -1        67-9.35157E+06-2.11865E+06-9.94292E+04-4.72655E+06-3.58114E-08-1.20670E-07
 -1        68-1.04430E+07-9.26084E+05-1.81511E+05-3.19488E+06-5.70421E-08-4.51109E-09
 -1        69-9.55503E+06-2.24876E+06-4.93819E+05-4.38727E+06-4.26512E-08-1.90223E-07
 -1        70-1.01812E+07-9.13850E+05-8.10621E+05-3.50574E+06 2.67646E-08 7.63685E-08
 -1        86-1.00607E+06-1.18446E+07-1.94696E+06-2.07014E+06-2.24962E-07-5.17321E-08
 -1        87 1.51195E+06 3.70602E+06 1.62296E+06 4.16481E+06-3.94502E-07-1.30292E-07
 -1        88-2.53127E+05-2.32766E+06 1.44079E+05-2.04369E+06-3.31313E-07-7.61588E-08
 -1        89 2.05391E+06 3.45109E+06 1.64488E+06 4.30088E+06-5.01099E-07 1.05098E-07
 -1        90-1.48172E+06-1.16466E+07-2.09853E+06-2.22299E+06-1.35962E-07 1.92798E-07
 -1       121-2.04035E+03-1.59629E+06-5.40516E+02 1.11985E+03 1.44165E-09 1.12996E-08
 -1       122-1.29893E+03-1.59144E+06 7.83770E+02-4.52134E+03-5.34425E-09-1.93540E-09
 -1       123-2.06053E+03-1.59642E+06 2.85168E+02 3.34410E+03 4.32374E-09 2.39161E-08
 -1       124 3.72367E+02-1.59098E+06 3.01081E+03-9.44900E+03-9.89758E-09 2.44654E-09
 -1       125-2.88664E+03-1.59734E+06 3.55429E+03 6.00175E+03 6.74481E-09-2.13586E-08
 -1       191-7.81255E+01 3.86550E+05 8.55137E+00 6.94607E-01-6.26826E-10 3.47354E-08
 -1       192-7.50944E+01 3.86533E+05 2.13097E+01-4.27425E+00-7.33006E-10 5.94664E-08
 -1       193-8.06619E+01 3.86550E+05 3.63365E+01 3.75179E+00-9.81951E-10 2.17951E-08
 -1       194-7.81836E+01 3.86536E+05 8.10028E+01-9.69853E+00-6.53165E-10-7.27596E-11
 -1       195-8.55305E+01 3.86548E+05 1.55138E+02 6.30823E+00-1.47349E-09 5.19685E-09
 -1       251-1.06521E+06-1.24649E+04-8.24285E+04-5.88111E+04 9.98352E-09-1.42794E-07
 -1       252-6.45244E+05 1.11722E+04 2.34628E+04 1.89482E+05-1.54773E-09-5.04338E-09
 -1       253-8.68429E+05 1.59892E+03-1.14424E+04-1.09303E+05 2.56387E-09-1.51217E-08
 -1       254-8.08327E+05 7.85882E+03 6.17227E+03 2.31757E+05-1.82301E-08-2.22018E-07
 -1       255-9.11572E+05-1.44695E+03-1.31578E+04-1.01612E+05 8.99854E-09-2.33332E-08
 -1       256-5.49848E+05 1.27752E+04 6.07099E+04 1.57632E+05-7.47241E-09-3.78532E-08
 -1       257-1.11197E+06-1.54877E+04-5.32201E+04-3.45130E+04 1.99279E-08-2.78383E-08
 -1       258-3.58007E+05 1.84440E+04 1.00493E+05-7.93170E+03-7.59246E-09-1.39149E-07
 -1       259-1.09224E+06-1.62010E+04-4.72680E+04 6.31200E+04-2.18188E-09-4.93469E-09
 -1       260-5.95823E+05 1.94045E+04 5.86857E+04-1.62569E+05 2.15914E-09-2.37682E-07
 -1       261-8.87753E+05-5.38468E+03 2.37711E+03 1.19902E+05 4.53379E-08-4.08800E-08
 -1       262-8.13988E+05 2.84114E+04 3.28374E+04-2.19032E+05-1.26354E-08-3.67384E-08
 -1       263-8.86842E+05-1.47741E+04 2.92504E+04 1.20604E+05 2.11367E-09-2.03509E-08
 -1       264-5.70529E+05 1.02936E+05 1.52209E+05-1.66879E+05 1.04268E-07 1.00861E-07
 -1       265-1.11908E+06-8.96011E+04 8.39833E+04 6.67707E+04 3.79996E-08 3.28801E-08
 -1       266-1.74113E+04-8.14232E+03 4.08481E+04-2.01285E+01-5.45697E-11-9.40265E-09
 -1       267 2.01842E+04 9.48883E+03 2.88728E+04 2.32261E+01 6.54836E-11-3.19250E-08
 -1       268-2.70668E+03-1.34395E+03 1.07318E+04-2.95931E+00 2.06001E-10 6.44241E-08
 -1       269 3.19578E+03 1.60834E+03 6.97558E+03 3.44727E+00 1.10504E-10 1.80863E-07
 -1       270-4.79691E+02-2.64267E+02 3.36721E+03-4.67814E-01 3.16163E-10 3.80087E-07
 -1       271-1.57705E+06-1.93996E+05-1.18347E+05-6.07758E+05-2.04673E-08-6.62985E-08
 -1       272-1.61530E+06-2.80102E+05-7.54997E+04-6.07148E+05-2.27592E-08-1.24113E-07
 -1       273-1.60083E+06-2.21572E+05-2.82874E+04-6.00650E+05-1.58070E-09 7.54280E-08
 -1       274-1.58652E+06-2.47401E+05-1.53589E+04-6.19143E+05 1.26747E-08-1.35326E-07
 -1       275-1.60581E+06-2.22610E+05-6.85069E+03-5.97572E+05-1.40717E-08-1.71079E-07
 -1       276-1.57980E+06-2.47366E+05-3.20617E+03-6.25328E+05-1.16743E-08 1.64150E-07
 -1       277-1.60825E+06-2.20756E+05-1.89089E+03-5.95148E+05-2.51202E-09 3.56022E-07
 -1       278-1.57642E+06-2.50562E+05-8.50236E+02-6.30388E+05-1.96160E-08 2.82394E-08
 -1       279-1.61004E+06-2.18839E+05-1.04130E+03-5.93130E+05-2.82635E-08-2.57698E-07
 -1       280-1.57416E+06-2.53634E+05-1.22591E+03-6.34564E+05 3.49028E-08-2.67610E-08
 -1       281-1.61137E+06-2.17158E+05-2.40162E+03-5.91557E+05 1.50812E-08 2.28648E-07
 -1       282-1.57350E+06-2.57324E+05-5.35852E+03-6.37575E+05-3.74966E-08 1.18994E-07
 -1       283-1.61146E+06-2.14826E+05-9.63504E+03-5.90569E+05 1.22764E-08-7.70178E-08
 -1       284-1.58079E+06-2.71789E+05-2.61138E+04-6.37698E+05-8.88394E-09-7.79150E-08
 -1       285-1.60476E+06-2.03686E+05-4.06043E+04-5.91311E+05 4.18968E-08-3.68236E-08
 -1       301-2.91143E+03-6.32616E+05 1.71925E+05-1.10006E+06-3.79805E-09 2.09264E-07
 -1       302-3.93035E+03-5.85478E+05 1.03306E+05-1.60596E+06-7.34872E-09-1.61297E-07
 -1       303-1.88601E+04-6.23722E+05 5.85375E+04-1.09704E+06 1.18671E-08-1.62767E-07
 -1       304-2.00161E+04-5.92776E+05 5.91746E+04-1.60537E+06 4.54020E-09-1.23182E-07
 -1       305-2.21256E+04-6.13673E+05 7.34706E+04-1.10009E+06 9.20591E-09-1.96844E-07
 -1       306-3.00980E+07-6.22171E+06-8.59509E+06-5.67663E+05-8.10251E-08-2.38593E-07
 -1       307 2.54941E+07 3.24172E+06 5.53189E+06-1.50695E+07-8.17221E-07 3.69910E-08
 -1       308-7.08699E+06-1.06895E+06-4.92578E+05 5.20837E+06-1.26340E-07 3.21903E-07
 -1       309-3.45249E+06 8.79393E+06 2.26038E+06-2.05685E+07 4.33211E-07 4.70871E-07
 -1       310-1.23224E+07-1.91871E+06-1.96290E+06 5.22576E+06-9.08622E-08-1.21756E-07
 -1       311 3.77208E+07 8.17024E+04 7.18071E+06-9.10091E+06 2.60072E-07 1.27504E-07
 -1       312-3.17762E+07-6.63841E+06-8.45678E+06-4.81132E+06-3.27593E-07 2.20374E-07
 -1       313 4.55658E+07 1.45071E+07 1.06116E+07 2.33764E+07-2.08325E-07-1.42318E-08
 -1       314-1.74410E+07-1.75373E+07-7.51418E+06-1.25171E+07 3.58268E-07-1.55065E-07
 -1       315-1.49401E+06 2.94941E+07 5.68257E+06 1.08596E+07-2.78291E-07-2.94036E-07
 -1       316 1.28417E+06-9.88117E+06-4.79376E+05-2.65233E+06-1.15533E-06-3.44007E-07
 -1       317-1.71975E+07 2.23632E+07 2.21709E+06-8.61204E+06 9.04081E-07-8.75130E-07
 -1       318-1.02670E+06-1.25900E+07-1.97622E+06-4.23061E+06-8.71398E-07 5.00586E-08
 -1       319 6.96575E+06 3.15945E+07 6.94461E+06 1.64016E+07-1.33587E-08 2.24682E-07
 -1       320-2.24439E+07-1.74920E+07-9.76703E+06-1.27251E+07 1.79862E-07-5.02623E-08
 -1       336-7.05697E+02-1.72804E+06-1.40885E+04 9.10854E+03-2.67282E-08 8.30187E-09
 -1       337-5.47467E+03-1.72772E+06-1.84062E+04-2.20960E+04-4.99995E-08 1.52068E-08
 -1       338 3.29473E+02-1.72752E+06-2.89477E+04 1.27380E+04-3.46454E-08 5.69344E-09
 -1       339-3.07088E+04-1.74526E+06-6.54759E+04-2.91980E+04-6.23486E-08 1.42027E-08
 -1       340 2.03000E+04-1.71272E+06-1.03105E+05 1.60791E+04-4.08982E-08 3.94757E-08
 -1       406-4.84388E+01 3.86533E+05 6.44530E+02 3.32088E+00-1.83070E-09 5.25870E-09
 -1       407 1.56115E+02 3.86667E+05 1.37727E+03 2.32165E+01-5.15030E-10-9.60063E-09
 -1       408 6.36449E+02 3.86433E+05 2.74624E+03-2.68659E+01-2.59047E-09-1.44373E-08
 -1       409 2.90942E+03 3.87544E+05 6.18965E+03 2.86791E+02-4.65434E-10-9.82618E-09
 -1       410 8.48484E+03 3.85642E+05 1.26329E+04-2.76575E+02-2.96677E-09-1.90412E-08
 -1       521-3.16429E+07-7.67521E+06-1.00431E+07-1.79861E+05-7.55535E-08-8.73115E-09
 -1       522 2.63703E+07 4.24507E+06 5.63504E+06-1.85512E+07-5.27449E-07-2.82424E-07
 -1       523-7.66617E+06-1.38731E+06-4.89168E+05 5.65638E+06 1.87312E-07-2.76385E-07
 -1       524-6.97167E+06 1.18485E+07 2.44397E+06-2.35990E+07 9.40476E-07-2.90329E-07
 -1       525-1.31211E+07-2.54219E+06-2.15608E+06 5.67601E+06 5.17466E-07 1.44937E-07
 -1       526 4.11256E+07 2.65063E+04 7.53626E+06-1.17749E+07-2.65427E-08-9.05711E-08
 -1       527-3.36116E+07-8.31968E+06-9.74410E+06-4.66863E+06 1.00117E-07 1.49652E-07
 -1       528 4.97721E+07 1.61293E+07 1.10658E+07 2.65723E+07 1.58965E-07 1.78115E-08
 -1       529-1.83916E+07-1.97321E+07-8.61362E+06-1.25582E+07 2.06055E-08-5.86733E-08
 -1       530-3.96110E+06 3.42633E+07 6.00992E+06 1.04019E+07-4.11528E-07 5.30737E-07
 -1       531 1.27850E+06-1.09590E+07-4.56935E+05-2.61053E+06-9.62144E-07 3.04426E-07
 -1       532-1.97626E+07 2.44031E+07 2.42282E+06-1.28540E+07 4.36150E-07-6.14236E-07
 -1       533-1.06926E+06-1.37354E+07-2.10082E+06-4.05687E+06-1.35071E-07-9.40170E-07
 -1       534 4.94418E+06 3.66630E+07 7.22741E+06 1.69585E+07-5.47443E-08 7.65722E-07
 -1       535-2.36162E+07-1.98634E+07-1.11930E+07-1.27962E+07 1.25146E-07 4.79224E-07
 -1       536-7.05280E+05-4.72301E+04-4.65228E+04-5.45532E+04-5.34419E-09 7.69378E-08
 -1       537-5.56751E+04 4.52768E+04 8.46839E+04 1.23589E+05-1.06577E-07 1.15472E-07
 -1       538-3.94397E+05 3.23479E+03 3.92650E+03-7.20706E+04 2.87657E-08 1.13303E-07
 -1       539-2.69370E+05 2.95402E+03 2.50725E+04 1.38466E+05 1.60474E-07 9.94894E-08
 -1       540-4.96946E+05-4.37946E+02-2.11530E+04-6.99624E+04-1.13732E-09 1.04596E-07
 -1       541 1.44972E+05 1.69324E+04 1.06097E+05 9.77012E+04-1.71813E-08 8.61435E-08
 -1       542-7.97574E+05-2.00744E+04-8.39434E+04-3.04352E+04 4.69981E-08 2.50524E-08
 -1       543 4.02806E+05 2.72407E+04 1.57471E+05-1.33408E+04-2.80907E-08 1.00754E-08
 -1       544-7.47865E+05-1.64818E+04-7.45862E+04 4.04132E+04-2.05432E-08-1.89088E-08
 -1       545 2.75975E+04 9.44576E+03 7.95380E+04-1.13386E+05 2.88471E-08-7.88471E-08
 -1       546-4.32441E+05 6.08231E+03-1.21915E+04 6.92655E+04 6.40039E-08-7.65172E-08
 -1       547-2.87454E+05-4.66026E+03 1.05231E+04-1.41316E+05-1.01112E-07-8.84414E-08
 -1       548-4.41283E+05 4.71619E+03-2.38435E+04 6.90305E+04-1.02796E-07-1.01848E-07
 -1       549 4.67686E+04 1.59463E+04 6.02236E+04-1.11239E+05-5.65051E-08-7.86324E-08
 -1       550-7.57720E+05-2.20077E+04-1.28703E+05 3.84762E+04 6.08361E-09-4.06999E-08
 -1       551 4.08697E+04-7.61512E+05-1.53056E+04-1.24820E+06-1.02416E-07-7.94535E-09
 -1       552 9.33234E+04-8.06365E+05 1.03040E+04-1.77990E+06-7.06495E-08 2.90893E-08
 -1       553 7.17533E+04-8.02842E+05 3.23389E+04-1.24156E+06-1.18918E-07 3.01952E-08
 -1       554 1.32105E+05-8.22186E+05 8.14907E+04-1.78185E+06-7.68632E-08 2.39525E-08
 -1       555 1.01550E+05-8.26488E+05 1.48722E+05-1.24139E+06-1.23749E-07-1.24146E-08
 -1       556 2.23221E+05-3.82866E+05 2.73294E+04-4.07022E+05-1.79280E-08-2.25846E-08
 -1       557 3.53928E+05-4.87186E+05 1.69584E+04-5.27115E+05-4.80213E-10-6.99947E-09
 -1       558 2.05141E+05-3.75970E+05 2.67943E+03-4.11247E+05-1.88884E-08-1.03755E-08
 -1       559 3.28785E+05-4.87471E+05 2.61190E+03-5.47514E+05 1.88884E-08-3.44880E-08
 -1       560 1.89885E+05-3.66402E+05-1.41811E+03-4.22238E+05 1.14669E-08 2.05910E-08
 -1       561 3.09594E+05-4.79802E+05 1.69812E+02-5.60593E+05-2.79397E-09-6.22822E-09
 -1       562 1.77819E+05-3.58903E+05-1.30326E+03-4.30976E+05-9.99717E-09-1.13141E-08
 -1       563 2.95259E+05-4.73554E+05-2.73012E+01-5.69954E+05-5.47152E-09-3.12139E-09
 -1       564 1.69208E+05-3.53538E+05-5.93889E+02-4.37078E+05-8.44011E-10-4.33192E-09
 -1       565 2.85755E+05-4.69415E+05 2.62524E+01-5.76026E+05 6.78119E-09 2.02472E-08
 -1       566 1.64178E+05-3.50355E+05-2.57933E+02-4.40597E+05-1.35333E-09-4.56566E-09
 -1       567 2.81141E+05-4.67407E+05-3.61240E+02-5.78829E+05 1.69894E-08-5.17321E-09
 -1       568 1.62817E+05-3.49522E+05-1.12330E+03-4.41644E+05-2.21007E-09 1.57343E-08
 -1       569 2.80027E+05-4.67336E+05-2.83748E+03-5.77395E+05-6.80939E-09 3.11411E-08
 -1       570 1.66218E+05-3.52755E+05-6.20413E+03-4.40625E+05 4.17640E-09 9.83346E-09
 -1       571 2.90602E+05 1.05111E+04 1.49976E+04-9.51700E+04 1.14560E-08 3.96221E-09
 -1       572 2.92775E+05 3.96067E+03 7.35003E+03-1.04411E+05 1.95105E-08 9.46420E-09
 -1       573 2.91465E+05 1.24489E+03 3.26586E+03-9.49934E+04 9.75342E-09 6.48470E-09
 -1       574 2.91679E+05 7.25959E+02 1.63780E+03-1.04635E+05 4.54384E-09-3.03753E-08
 -1       575 2.91559E+05 4.46792E+02 7.72994E+02-9.49693E+04 5.46592E-10 4.88035E-09
 -1       576 2.91543E+05 4.58004E+02 3.95767E+02-1.04665E+05-6.82871E-09 1.82608E-08
 -1       577 2.91598E+05 3.88706E+02 1.97566E+02-9.49659E+04-3.35967E-09 1.50067E-08
 -1       578 2.91573E+05 4.19978E+02 1.14122E+02-1.04670E+05-3.36149E-09-1.94359E-09
 -1       579 2.91670E+05 3.52063E+02 7.83754E+01-9.49656E+04 6.71571E-09-1.16333E-08
 -1       580 2.91675E+05 3.68995E+02 9.09477E+01-1.04665E+05-1.04119E-08 1.06666E-08
 -1       581 2.91784E+05 2.93529E+02 1.37371E+02-9.49715E+04 5.59703E-09-9.33687E-09
 -1       582 2.91850E+05 3.31663E+02 2.79285E+02-1.04603E+05 4.32919E-09-2.80943E-09
 -1       583 2.91924E+05 3.35996E+02 5.36058E+02-9.50281E+04-8.06904E-09-9.44101E-09
 -1       584 2.92225E+05 7.73707E+02 1.21304E+03-1.04127E+05-1.22018E-08 7.22139E-09
 -1       585 2.91951E+05 1.79473E+03 2.45636E+03-9.54470E+04-1.07812E-08-1.12232E-08
 -1       586-3.42340E+03 1.16880E+05-2.92046E+03-2.50782E+05-3.95084E-09 8.01833E-09
 -1       587-1.33570E+03 1.16631E+05 7.70173E+02-2.76004E+05-3.98722E-09-1.63850E-08
 -1       588 4.02367E+02 1.16438E+05 4.76010E+03-2.50643E+05-1.85173E-09 7.63248E-09
 -1       589 5.09065E+03 1.18912E+05 1.23472E+04-2.75770E+05-5.04951E-09 3.31875E-09
 -1       590 1.66175E+04 1.15105E+05 2.59012E+04-2.51075E+05-3.74621E-09 2.05764E-08
 -1       591-7.50103E+04-1.59894E+04-2.25366E+04-3.19843E+04-7.62179E-09-8.56562E-09
 -1       592-7.90957E+04-1.95535E+04-1.22076E+04-3.56167E+04-5.31990E-10 1.21582E-08
 -1       593-7.72643E+04-1.43540E+04-5.08143E+03-3.36367E+04 5.15515E-09-3.45608E-09
 -1       594-7.59840E+04-1.62465E+04-2.53424E+03-3.57346E+04-5.64512E-10-1.10925E-08
 -1       595-7.74361E+04-1.43487E+04-1.16348E+03-3.37118E+04-2.39183E-09 3.83295E-10
 -1       596-7.57709E+04-1.60953E+04-5.91247E+02-3.57093E+04 8.73808E-09 1.16123E-08
 -1       597-7.74576E+04-1.43641E+04-3.21511E+02-3.37146E+04-2.29494E-09 7.38044E-09
 -1       598-7.57499E+04-1.60893E+04-2.57650E+02-3.57022E+04-1.12182E-08 1.43900E-08
 -1       599-7.74564E+04-1.43646E+04-3.28111E+02-3.37143E+04-8.28550E-10-7.01095E-09
 -1       600-7.57709E+04-1.60958E+04-6.08718E+02-3.57072E+04 6.99686E-09-1.50256E-08
 -1       601-7.74317E+04-1.43500E+04-1.20045E+03-3.37108E+04 3.53475E-09-5.72390E-09
 -1       602-7.59907E+04-1.62508E+04-2.61604E+03-3.57294E+04 3.34933E-09-1.29048E-08
 -1       603-7.72516E+04-1.43585E+04-5.24612E+03-3.36341E+04 6.01267E-09 1.61144E-08
 -1       604-7.92209E+04-1.96452E+04-1.26024E+04-3.55828E+04 5.07407E-09 2.41419E-08
 -1       605-7.49047E+04-1.60646E+04-2.32656E+04-3.19477E+04 3.36388E-09 8.04448E-09
 -1       606 2.67458E+04-1.43337E+04-2.56955E+04 2.40430E+04-3.47154E-09-4.89672E-09
 -1       607 2.23553E+04-4.68127E+03-1.27963E+04 2.70191E+04-1.91603E-08-4.79122E-09
 -1       608 2.48574E+04-8.44421E+02-5.72847E+03 2.38738E+04-1.25874E-08-3.06795E-09
 -1       609 2.43777E+04-2.89150E+02-2.89386E+03 2.72336E+04-2.97405E-10-4.79940E-09
 -1       610 2.46437E+04-4.08355E+01-1.38070E+03 2.38537E+04 1.01500E-09 7.84644E-09
 -1       611 2.45683E+04-4.10303E+01-6.96138E+02 2.72568E+04 3.42106E-09 1.19123E-08
 -1       612 2.45965E+04-2.70713E+01-3.30935E+02 2.38517E+04 3.24235E-09 6.97651E-09
 -1       613 2.45798E+04-3.68911E+01-1.48272E+02 2.72595E+04 8.08495E-09 6.90420E-09
 -1       614 2.45742E+04-3.34516E+01-3.47087E+01 2.38510E+04-2.14641E-10-1.72781E-09
 -1       615 2.45745E+04-3.53648E+01 6.22972E+01 2.72600E+04-5.53155E-09 3.97631E-09
 -1       616 2.45568E+04-3.02965E+01 1.86667E+02 2.38512E+04 3.79441E-09 5.56702E-09
 -1       617 2.45969E+04 4.43967E+00 4.25837E+02 2.72595E+04 1.83354E-09 4.57339E-09
 -1       618 2.45198E+04 9.24836E+01 8.58322E+02 2.38515E+04 1.44291E-09-5.55337E-09
 -1       619 2.48998E+04 6.68110E+02 1.92742E+03 2.72589E+04-2.06001E-10 5.23755E-09
 -1       620 2.42347E+04 2.12780E+03 3.87405E+03 2.38531E+04-3.06159E-10-7.59110E-09
 -1       621 5.10789E+02 3.01605E+05 3.88820E+03 4.09543E+04 9.48148E-10-1.98179E-08
 -1       622 6.76437E+02 3.02503E+05 3.44993E+03 5.94568E+04 1.08457E-09-1.00067E-08
 -1       623 1.42065E+02 3.01800E+05 4.14471E+03 4.07690E+04 1.36799E-09-1.13332E-08
 -1       624 2.12620E+03 3.03722E+05 8.03417E+03 5.96392E+04 1.29688E-09-1.25028E-08
 -1       625 2.07770E+03 3.00207E+05 1.40390E+04 4.07658E+04 1.36106E-09-1.21411E-08
 -1       626 2.60975E+05 6.14656E+04 5.12260E+03 1.26828E+05 3.02089E-09-5.82077E-09
 -1       627 2.58652E+05 6.28666E+04 2.46854E+03 1.31106E+05-1.50430E-09-5.72891E-09
 -1       628 2.61103E+05 5.91216E+04 1.04401E+03 1.27698E+05-7.82165E-09-6.30621E-09
 -1       629 2.58017E+05 6.21866E+04 5.10994E+02 1.31347E+05-5.49016E-09-1.89792E-08
 -1       630 2.61117E+05 5.90083E+04 2.37136E+02 1.27735E+05-3.44971E-09-1.46380E-08
 -1       631 2.57950E+05 6.21607E+04 1.27744E+02 1.31349E+05 1.00811E-08 3.29714E-08
 -1       632 2.61114E+05 5.90123E+04 8.42939E+01 1.27731E+05 6.24050E-09-1.04928E-08
 -1       633 2.57941E+05 6.21625E+04 9.42623E+01 1.31345E+05 1.15710E-09-1.77192E-08
 -1       634 2.61109E+05 5.90095E+04 1.52648E+02 1.27730E+05-6.43848E-09-2.27715E-09
 -1       635 2.57956E+05 6.21608E+04 3.09077E+02 1.31351E+05-1.00758E-08 3.28755E-08
 -1       636 2.61100E+05 5.90037E+04 6.24281E+02 1.27730E+05-6.29689E-09-1.00454E-09
 -1       637 2.58091E+05 6.22579E+04 1.37270E+03 1.31350E+05-2.71234E-09-5.77575E-09
 -1       638 2.61051E+05 5.93069E+04 2.82040E+03 1.27593E+05 2.01953E-09 5.31327E-09
 -1       639 2.59572E+05 6.43184E+04 6.67320E+03 1.30914E+05 6.25914E-09-7.68318E-09
 -1       640 2.60846E+05 6.54599E+04 1.38480E+04 1.25000E+05 4.70345E-09-1.55228E-09
 -1       656 6.66200E+04-1.70491E+06-1.60816E+05-2.54525E+03-1.01863E-09-4.31095E-09
 -1       657-8.81322E+04-1.77758E+06-1.33226E+05 5.18691E+03-8.40373E-10-5.08081E-09
 -1       658 2.12359E+04-1.72555E+06-8.20501E+04-4.63297E+03-6.07997E-10 6.57550E-10
 -1       659-9.53003E+04-1.78098E+06-1.42646E+05 6.92025E+03-1.22418E-09-3.20002E-08
 -1       660 7.37721E+04-1.70152E+06-1.77011E+05-4.27858E+03-2.81580E-09 1.46925E-08
 -1       661 1.58909E+05 1.66317E+04 1.67458E+04 6.21212E+04-2.60206E-09 5.69435E-09
 -1       662 1.68374E+05 2.90350E+04 1.12855E+04 5.83665E+04-6.52506E-10-7.99957E-09
 -1       663 1.62198E+05 2.20040E+04 3.94695E+03 6.11665E+04-1.58116E-09 1.25565E-08
 -1       664 1.64560E+05 2.27525E+04 2.36110E+03 5.95327E+04 1.08446E-09 3.02063E-09
 -1       665 1.62697E+05 2.27377E+04 9.31435E+02 6.10209E+04 3.94988E-09-9.94220E-09
 -1       666 1.63970E+05 2.19135E+04 5.45215E+02 5.97227E+04 6.94672E-09 1.15605E-08
 -1       667 1.62785E+05 2.28211E+04 2.89776E+02 6.09843E+04 2.25722E-09 7.69742E-09
 -1       668 1.63873E+05 2.18536E+04 2.95690E+02 5.97758E+04-2.81176E-09-1.00599E-08
 -1       669 1.62793E+05 2.27959E+04 4.00669E+02 6.09680E+04-3.70150E-09 2.17162E-08
 -1       670 1.63971E+05 2.20713E+04 8.72792E+02 5.97788E+04-8.85336E-09-6.94371E-10
 -1       671 1.62687E+05 2.26080E+04 1.54982E+03 6.09793E+04 2.65853E-09-2.61747E-09
 -1       672 1.64874E+05 2.35791E+04 3.96525E+03 5.95600E+04 4.85443E-09-2.00749E-08
 -1       673 1.61894E+05 2.13262E+04 6.64517E+03 6.11722E+04 5.85590E-09-9.62245E-09
 -1       674 1.71198E+05 3.42553E+04 1.90038E+04 5.77020E+04-8.02061E-10-1.34150E-09
 -1       675 1.56403E+05 1.22307E+04 2.82083E+04 6.27252E+04-4.48244E-09 3.83079E-09
 -1       676 2.41366E+01-2.96178E+05-1.11471E+03-1.36559E+02-9.61450E-10-9.97102E-09
 -1       677-2.94884E+02-2.96448E+05-2.04011E+03 2.72898E+02 1.04878E-08-1.57792E-08
 -1       678 1.97770E+02-2.95986E+05-3.60641E+03-1.36249E+02 3.67436E-10-1.22915E-09
 -1       679-3.60649E+03-2.98625E+05-8.56734E+03 2.71718E+02 1.05405E-08 3.10712E-08
 -1       680 2.15327E+03-2.94002E+05-1.38076E+04-1.33874E+02 2.01726E-09 1.24263E-08
 -1       771-3.06591E+06-7.46995E+05-1.64523E+05-1.46678E+06-3.41097E-08-2.77360E-08
 -1       772-2.98878E+06-8.35569E+05-8.48062E+04-1.56919E+06-2.35159E-08 6.28279E-09
 -1       773-3.09722E+06-7.22566E+05-4.32659E+04-1.48118E+06-1.16124E-08 1.45374E-08
 -1       774-2.97937E+06-8.17249E+05-1.92955E+04-1.59488E+06 2.20025E-08 4.48199E-09
 -1       775-3.11361E+06-7.11064E+05-1.44554E+04-1.48819E+06-1.44646E-08 5.34783E-09
 -1       776-2.99165E+06-8.14247E+05-5.40198E+03-1.61431E+06-7.43603E-09 1.01281E-08
 -1       777-3.12783E+06-7.00798E+05-6.39460E+03-1.49437E+06 1.36788E-09 2.02999E-09
 -1       778-3.00448E+06-8.11448E+05-1.80653E+03-1.63101E+06 5.66070E-09 7.03221E-09
 -1       779-3.14006E+06-6.91827E+05-3.19810E+03-1.49966E+06-8.71660E-09-8.37463E-09
 -1       780-3.01578E+06-8.08776E+05-5.30495E+02-1.64461E+06 4.05998E-09 3.81260E-09
 -1       781-3.14978E+06-6.84596E+05-1.24413E+03-1.50380E+06-3.27709E-08 1.06593E-09
 -1       782-3.02448E+06-8.06507E+05 4.44858E+02-1.65465E+06-4.09418E-08-5.75483E-09
 -1       783-3.15662E+06-6.79571E+05 6.90755E+02-1.50669E+06-3.15777E-09-9.25047E-09
 -1       784-3.02931E+06-8.04240E+05 2.87476E+03-1.66085E+06-2.02017E-08-1.10504E-10
 -1       785-3.16067E+06-6.76576E+05 5.07348E+03-1.50853E+06-3.86244E-08 6.77210E-09
 -1       786 1.24301E+05-9.79310E+03 2.26573E+04-3.22502E+02 3.57879E-09 1.10476E-08
 -1       787 1.34127E+05 1.13382E+04 1.60291E+04-1.35755E+02 7.52607E-09 9.90599E-09
 -1       788 1.28089E+05-1.53461E+03 5.86195E+03-2.87327E+02 4.17277E-09 6.96718E-09
 -1       789 1.29713E+05 1.77627E+03 3.67994E+03-1.89651E+02-1.08307E-09-5.70253E-10
 -1       790 1.28715E+05-2.38939E+02 1.49001E+03-2.68623E+02-5.75659E-09 1.05072E-08
 -1       791 1.28982E+05 2.76468E+02 8.60707E+02-2.21653E+02-5.66220E-09 1.12381E-08
 -1       792 1.28821E+05-3.59284E+01 3.64962E+02-2.55327E+02-4.90410E-09-1.51410E-08
 -1       793 1.28855E+05 3.80716E+01 1.82443E+02-2.46669E+02 7.35382E-10-9.02953E-09
 -1       794 1.28842E+05-6.93392E-01 4.84203E+01-2.43607E+02 5.90801E-09-7.16739E-09
 -1       795 1.28818E+05-2.66886E+01-5.52905E+01-2.71140E+02-5.04429E-09-7.04370E-09
 -1       796 1.28858E+05 2.87957E+01-1.58625E+02-2.30856E+02 4.42862E-09 8.71074E-09
 -1       797 1.28725E+05-2.15048E+02-4.36691E+02-3.00445E+02 3.72776E-09 1.49383E-08
 -1       798 1.28934E+05 1.87524E+02-7.09530E+02-2.14301E+02 2.28956E-09 1.67745E-08
 -1       799 1.28187E+05-1.38218E+03-1.95230E+03-3.41452E+02 5.37642E-09 1.06199E-08
 -1       800 1.29396E+05 1.19498E+03-2.76300E+03-1.89851E+02 2.79190E-11 3.21999E-08
 -1       801-1.69036E+05-9.95290E+06-1.38602E+06 1.40406E+06 9.25793E-08-5.37475E-08
 -1       802 7.31284E+05 5.87656E+06 2.16325E+06-1.73218E+06 2.57831E-07-2.80297E-08
 -1       803-5.32360E+05-1.41791E+07-1.87536E+06 8.92075E+05 7.72416E-08 1.57161E-08
 -1       804 2.84313E+05 2.34150E+06 1.52369E+06 6.72786E+05-1.20286E-07-1.00420E-07
 -1       805 1.88341E+05-6.43203E+06-2.83227E+05-9.95283E+05-4.96439E-08-6.39848E-08
 -1       806-3.08995E+05-5.97937E+04-2.28646E+04-1.22465E+05-6.97128E-10 6.41376E-09
 -1       807-3.10791E+05-5.60639E+04-1.12332E+04-1.28016E+05 1.16033E-08 6.66756E-09
 -1       808-3.09622E+05-5.15534E+04-4.76546E+03-1.26360E+05-1.19917E-09-1.14293E-08
 -1       809-3.08429E+05-5.29077E+04-2.33019E+03-1.28292E+05-9.67316E-09 1.02165E-08
 -1       810-3.09717E+05-5.12665E+04-1.06806E+03-1.26533E+05 1.34696E-09 8.30801E-09
 -1       811-3.08246E+05-5.27809E+04-5.31161E+02-1.28257E+05-1.28712E-08 7.69819E-09
 -1       812-3.09731E+05-5.12912E+04-2.68710E+02-1.26532E+05-1.41436E-08-1.00190E-08
 -1       813-3.08221E+05-5.27831E+04-1.74758E+02-1.28238E+05-4.82396E-09-2.14002E-08
 -1       814-3.09724E+05-5.13010E+04-1.73385E+02-1.26528E+05-7.81165E-09-2.67478E-08
 -1       815-3.08225E+05-5.27854E+04-2.79529E+02-1.28230E+05-3.87354E-09-1.67074E-09
 -1       816-3.09703E+05-5.13001E+04-5.29916E+02-1.26524E+05 3.65617E-10 4.30646E-09
 -1       817-3.08315E+05-5.28359E+04-1.13730E+03-1.28219E+05-1.02705E-08 3.60524E-09
 -1       818-3.09634E+05-5.14607E+04-2.31973E+03-1.26448E+05-1.53977E-09-1.21099E-08
 -1       819-3.09584E+05-5.42373E+04-5.45814E+03-1.27918E+05-8.92078E-09-2.70275E-08
 -1       820-3.09196E+05-5.55840E+04-1.11093E+04-1.24687E+05-8.16271E-09-1.16017E-08
 -1       821-3.79108E+05 2.08774E+04-4.86038E+04 2.13314E+03 1.40958E-08 1.85937E-08
 -1       822-3.98801E+05-2.41856E+04-3.41538E+04-4.49274E+03 4.74277E-09 1.49080E-08
 -1       823-3.86567E+05 3.29135E+03-1.25535E+04 3.45606E+03-1.27313E-08 1.39426E-09
 -1       824-3.89794E+05-3.79545E+03-7.85710E+03-5.41738E+03 3.24754E-10-2.20861E-08
 -1       825-3.88122E+05 5.11599E+02-3.29093E+03 3.05790E+03 2.17937E-08-3.64025E-09
 -1       826-3.87350E+05-5.67157E+02-1.74200E+03-3.13106E+03 2.73982E-08 1.63638E-09
 -1       827-3.88986E+05 4.62526E+01-1.19294E+03 1.16959E+03 1.17318E-08 7.96763E-09
 -1       828-3.86636E+05-1.31224E+02-5.81798E+02 1.09304E+03-5.12244E-09 1.57917E-08
 -1       829-3.88823E+05 6.54174E+01-1.18158E+03-1.16623E+03 1.22702E-09 1.40506E-08
 -1       830-3.87702E+05-6.22023E+02-1.88072E+03 4.91245E+03-2.82228E-10 1.00734E-08
 -1       831-3.87942E+05 5.54924E+02-3.37248E+03-2.64984E+03-7.33323E-09 1.67665E-08
 -1       832-3.89875E+05-3.96216E+03-8.15985E+03 6.20614E+03-4.56357E-09 1.04801E-08
 -1       833-3.86667E+05 3.41531E+03-1.30577E+04-2.45997E+03-2.77362E-09-1.34132E-08
 -1       834-3.98859E+05-2.50991E+04-3.53763E+04 4.22147E+03-3.59164E-09 4.87989E-09
 -1       835-3.78941E+05 2.16588E+04-5.04744E+04-6.65096E+02 5.52188E-09 1.95723E-09
 -1       836-1.41455E+03 3.70419E+05 2.29192E+04-1.62072E+04-6.85213E-09-2.82489E-09
 -1       837 4.88600E+03 3.77597E+05 1.93909E+04-3.31158E+04-7.73633E-09 2.43163E-08
 -1       838-5.58153E+02 3.72432E+05 1.97527E+04-1.61356E+04-6.26551E-09 3.70414E-09
 -1       839 1.24296E+04 3.83215E+05 3.73620E+04-3.31682E+04-6.87760E-09-1.00281E-08
 -1       840-3.84270E+03 3.64741E+05 5.95768E+04-1.61606E+04-6.32645E-09 8.66670E-09
 -1       856-5.24464E+04 8.03721E+03-2.11798E+04-3.98235E+02 5.40558E-09 2.46837E-09
 -1       857-6.11721E+04-9.44337E+03-1.45800E+04 5.63878E+03 3.23621E-09-8.56289E-09
 -1       858-5.59019E+04 1.12713E+03-5.49565E+03-4.22405E+02 2.76765E-09-8.89577E-09
 -1       859-5.72065E+04-1.32594E+03-3.31637E+03 5.67476E+03 1.13937E-09 7.15215E-09
 -1       860-5.64182E+04 1.57846E+02-1.38990E+03-4.33939E+02 2.71208E-09 6.75766E-09
 -1       861-5.66126E+04-1.88344E+02-7.64626E+02 5.69047E+03 3.37502E-09 9.73728E-09
 -1       862-5.64989E+04 2.13793E+01-3.17872E+02-4.38095E+02-2.37127E-09 2.16631E-08
 -1       863-5.65137E+04-2.18045E+01-1.15853E+02 5.69288E+03-9.79168E-09 5.62493E-09
 -1       864-5.65177E+04-4.90424E+00 4.71363E+01-4.36349E+02-2.64328E-09-5.31045E-09
 -1       865-5.64578E+04 5.97336E+01 2.55336E+02 5.68292E+03 2.24296E-09-9.04372E-10
 -1       866-5.65526E+04-6.01807E+01 5.14645E+02-4.28135E+02-6.01460E-10 7.49128E-09
 -1       867-5.62158E+04 4.96971E+02 1.26680E+03 5.66062E+03 3.44994E-09-1.51654E-08
 -1       868-5.67548E+04-4.34257E+02 2.10505E+03-4.14048E+02 6.03677E-10-3.45926E-09
 -1       869-5.46725E+04 3.61412E+03 5.60508E+03 5.62392E+03 1.35168E-09-1.37679E-08
 -1       870-5.80881E+04-3.09268E+03 8.13421E+03-3.91337E+02-6.80075E-10-1.30058E-09
 -1       871-5.52363E+03-2.13189E+04-1.94997E+04 1.30474E+05-3.98904E-09 1.33678E-08
 -1       872-1.98631E+03-2.58524E+04-8.16433E+03 1.69180E+05-8.63383E-09 2.59679E-08
 -1       873 4.02998E+02-2.36602E+04 5.91644E+02 1.30187E+05-4.45334E-09 5.83157E-09
 -1       874 3.30535E+03-2.12467E+04 9.78755E+03 1.69209E+05-1.08375E-08 3.05226E-09
 -1       875 6.84917E+03-2.59917E+04 2.20787E+04 1.30427E+05-4.11819E-09 4.13456E-09
 -1       876 2.93963E+05 4.95474E+04 1.51116E+04 1.17971E+05 1.90266E-09 4.65934E-09
 -1       877 2.94961E+05 5.27304E+04 8.07019E+03 1.22306E+05 9.35074E-09-1.23454E-08
 -1       878 2.95376E+05 4.78734E+04 3.38101E+03 1.19209E+05-4.63888E-09-2.24532E-08
 -1       879 2.92907E+05 5.06804E+04 1.68463E+03 1.22408E+05 4.41673E-09-2.00657E-08
 -1       880 2.95477E+05 4.78562E+04 7.84680E+02 1.19260E+05-3.90446E-09-2.52563E-08
 -1       881 2.92771E+05 5.05927E+04 4.19051E+02 1.22385E+05-1.17437E-08-1.95052E-08
 -1       882 2.95486E+05 4.78694E+04 2.68116E+02 1.19261E+05-3.38378E-09-1.75769E-09
 -1       883 2.92761E+05 5.05881E+04 2.88291E+02 1.22377E+05-1.27278E-09 2.40653E-08
 -1       884 2.95480E+05 4.78666E+04 4.58650E+02 1.19261E+05-3.84443E-09 6.60003E-09
 -1       885 2.92798E+05 5.05945E+04 9.22170E+02 1.22388E+05-1.72341E-08 1.21627E-08
 -1       886 2.95444E+05 4.78397E+04 1.85861E+03 1.19258E+05-1.37845E-08 8.91987E-09
 -1       887 2.93124E+05 5.08086E+04 4.05987E+03 1.22435E+05 6.00349E-09-6.14364E-09
 -1       888 2.95187E+05 4.78849E+04 8.18075E+03 1.19128E+05-2.56433E-09-1.45974E-09
 -1       889 2.97994E+05 5.58735E+04 1.95423E+04 1.22286E+05-2.17176E-09 1.74468E-08
 -1       890 2.91848E+05 5.18513E+04 3.66023E+04 1.16014E+05 9.69976E-10-5.12227E-09
 -1       891-8.98436E+01-1.62893E+05-1.99789E+03 2.71834E+04-1.66460E-09 2.39563E-08
 -1       892-1.76145E+02-1.63420E+05-2.14573E+03 4.12788E+04 2.55795E-09 1.49757E-08
 -1       893 4.32869E+01-1.62957E+05-3.03808E+03 2.71908E+04-1.81490E-09 1.21690E-08
 -1       894-1.51182E+03-1.64568E+05-6.28766E+03 4.11260E+04 5.22869E-09 6.62158E-09
 -1       895-1.20061E+03-1.61647E+05-1.10725E+04 2.73379E+04 4.11887E-10 9.73159E-10
 -1       956-3.77443E+05-5.45269E+03-1.34621E+04 3.08556E+04 8.79754E-09-2.48733E-08
 -1       957-3.80084E+05-1.92287E+03-6.90989E+03 3.70808E+04 7.02130E-09-2.79495E-08
 -1       958-3.78653E+05-2.40314E+02-3.11382E+03 3.06878E+04 1.94814E-09-2.09152E-08
 -1       959-3.78850E+05-1.35414E+02-1.58996E+03 3.72764E+04 3.54521E-09-6.55837E-09
 -1       960-3.78771E+05-4.40681E+01-7.75343E+02 3.06705E+04 9.69339E-09-6.28847E-09
 -1       961-3.78769E+05-6.23300E+01-4.11077E+02 3.72969E+04 1.03807E-08-5.94423E-09
 -1       962-3.78799E+05-4.52929E+01-2.35351E+02 3.06676E+04-8.24457E-10 2.15493E-08
 -1       963-3.78770E+05-5.81318E+01-1.88927E+02 3.73005E+04 5.40331E-09 2.26580E-08
 -1       964-3.78804E+05-4.19311E+01-2.29748E+02 3.06668E+04-2.34571E-09 1.18623E-08
 -1       965-3.78782E+05-5.51625E+01-3.97369E+02 3.72998E+04-6.22231E-09-5.03019E-09
 -1       966-3.78788E+05-3.40773E+01-7.46645E+02 3.06683E+04-6.35873E-09-8.94624E-09
 -1       967-3.78871E+05-1.18736E+02-1.53135E+03 3.72855E+04-1.46219E-08-9.10654E-09
 -1       968-3.78684E+05-2.16674E+02-2.99784E+03 3.06810E+04-6.41194E-09-8.34632E-10
 -1       969-3.80073E+05-1.83468E+03-6.65513E+03 3.71371E+04 5.32964E-10 2.89026E-09
 -1       970-3.77527E+05-5.23289E+03-1.29646E+04 3.08082E+04-5.59157E-09-2.87946E-09
 -1       971-3.45636E+05-1.72902E+03-9.31993E+03 1.53936E+04 9.36961E-09-1.57942E-08
 -1       972-3.47880E+05-1.27269E+03-5.07554E+03 2.12908E+04 4.60705E-09 8.17272E-09
 -1       973-3.46675E+05-6.17814E+01-2.27338E+03 1.52723E+04-8.14089E-09-9.83641E-09
 -1       974-3.46810E+05-8.07017E+01-1.17844E+03 2.14280E+04-9.50240E-09-6.09407E-09
 -1       975-3.46757E+05-1.68448E+01-5.89522E+02 1.52599E+04-1.79489E-09-6.32019E-09
 -1       976-3.46748E+05-3.07920E+01-3.40943E+02 2.14439E+04 1.30285E-09-2.19663E-08
 -1       977-3.46773E+05-1.60899E+01-2.48940E+02 1.52565E+04-5.77484E-09 8.44864E-09
 -1       978-3.46754E+05-2.45538E+01-2.93342E+02 2.14487E+04-9.33994E-09 2.10759E-08
 -1       979-3.46773E+05-7.60117E+00-4.73054E+02 1.52551E+04-2.42773E-09 5.78677E-09
 -1       980-3.46789E+05-2.14879E+01-9.14503E+02 2.14497E+04-1.39408E-11-1.97010E-08
 -1       981-3.46744E+05 1.52563E+01-1.77175E+03 1.52556E+04 4.68128E-09 1.46787E-09
 -1       982-3.47032E+05-1.52405E+02-3.66250E+03 2.14431E+04 7.75742E-09 4.43587E-09
 -1       983-3.46521E+05-9.81999E+01-7.11643E+03 1.52617E+04 1.27829E-09 4.46562E-10
 -1       984-3.50455E+05-3.86912E+03-1.59370E+04 2.13573E+04-5.99584E-10 1.55253E-08
 -1       985-3.43299E+05-5.30557E+03-2.92653E+04 1.53332E+04-2.31512E-09-3.25235E-09
 -3
    1PSTEP                        51          26           1          
  100CL  126 6.63526E-01         409                     0   26           1
 -4  DISP        4    1
 -5  D1          1    2    1    0
 -5  D2          1    2    2    0
 -5  D3          1    2    3    0
 -5  ALL         1    2    0    0    1ALL
 -1         1 2.69194E-03 0.00000E+00 0.00000E+00
 -1         2 1.50612E-03-2.72731E-28 0.00000E+00
 -1         3 3.42502E-04-5.62044E-28-1.32349E-23
 -1         5 1.77105E-04-2.39983E-27 3.30872E-24
 -1         8 2.68042E-03-4.13476E-07 0.00000E+00
 -1         9 2.65919E-03-1.40644E-04 0.00000E+00
 -1        10 3.10533E-04-3.46577E-06 6.61744E-24
 -1        12 1.78939E-04 8.09602E-07-8.27181E-25
 -1        15 2.66694E-03-4.39590E-07 0.00000E+00
 -1        16 2.72119E-03-1.42392E-04 0.00000E+00
 -1        17 2.11327E-04-7.89015E-06 0.00000E+00
 -1        18 1.82848E-04 3.42576E-05 0.00000E+00
 -1        19 1.84442E-04 1.61282E-06 0.00000E+00
 -1        20 1.84582E-04-9.71311E-06 0.00000E+00
 -1        21 1.83689E-04-2.50698E-05-3.30872E-24
 -1        24 3.06782E-05-1.21288E-05 0.00000E+00
 -1        25 1.93569E-04 3.44834E-05 0.00000E+00
 -1        26 1.94252E-04 2.23337E-06 0.00000E+00
 -1        27 1.92051E-04-1.32734E-05 0.00000E+00
 -1        28 1.91733E-04-2.56923E-05 0.00000E+00
 -1        32 0.00000E+00 0.00000E+00 0.00000E+00
 -1        33 2.03055E-04 2.98768E-06 0.00000E+00
 -1        34 2.00936E-04-1.33295E-05 0.00000E+00
 -1        35 1.99002E-04-2.60349E-05 0.00000E+00
 -1        51 2.69118E-03-8.60549E-08 3.30872E-24
 -1        52 2.68978E-03-1.53841E-07 0.00000E+00
 -1        53 2.68787E-03-2.18242E-07 0.00000E+00
 -1        54 2.68558E-03-2.81506E-07 1.65436E-24
 -1        55 2.68305E-03-3.45394E-07-2.89513E-24
 -1        56 2.68464E-03 7.53089E-06 0.00000E+00
 -1        57 2.67065E-03 3.16182E-05 0.00000E+00
 -1        58 2.65190E-03 6.73787E-05 1.05879E-22
 -1        59 2.63074E-03 1.08806E-04 5.29396E-23
 -1        60 2.61014E-03 1.48919E-04 0.00000E+00
 -1        61 2.59295E-03 1.80837E-04 5.29396E-23
 -1        62 2.58124E-03 1.99146E-04 0.00000E+00
 -1        63 2.57642E-03 1.99639E-04 0.00000E+00
 -1        64 2.57849E-03 1.81367E-04-1.05879E-22
 -1        65 2.58680E-03 1.45140E-04-5.29396E-23
 -1        66 2.59967E-03 9.51530E-05 0.00000E+00
 -1        67 2.61518E-03 3.69370E-05 0.00000E+00
 -1        68 2.63103E-03-2.23934E-05-1.05879E-22
 -1        69 2.64498E-03-7.56071E-05 0.00000E+00
 -1        70 2.65493E-03-1.16657E-04 0.00000E+00
 -1        86 1.57808E-03-4.65032E-06 0.00000E+00
 -1        87 1.78758E-03-2.81376E-05 0.00000E+00
 -1        88 2.06957E-03-6.82642E-05 2.64698E-23
 -1        89 2.35558E-03-1.09547E-04 0.00000E+00
 -1        90 2.57484E-03-1.35018E-04 5.29396E-23
 -1       121 3.41604E-04-5.59874E-07 1.32349E-23
 -1       122 3.38914E-04-1.12284E-06 6.61744E-24
 -1       123 3.34442E-04-1.69194E-06 1.32349E-23
 -1       124 3.28204E-04-2.27022E-06-6.61744E-24
 -1       125 3.20224E-04-2.86033E-06 1.32349E-23
 -1       191 1.77156E-04 1.34997E-07 2.48154E-24
 -1       192 1.77309E-04 2.69982E-07-1.24077E-24
 -1       193 1.77564E-04 4.04948E-07-1.65436E-24
 -1       194 1.77920E-04 5.39881E-07 4.13590E-25
 -1       195 1.78379E-04 6.74770E-07-3.30872E-24
 -1       251 2.68002E-03 1.23119E-05 6.61744E-24
 -1       252 2.67917E-03 4.57652E-05-3.30872E-24
 -1       253 2.67780E-03 9.29368E-05 0.00000E+00
 -1       254 2.67611E-03 1.46638E-04 0.00000E+00
 -1       255 2.67454E-03 1.97898E-04 0.00000E+00
 -1       256 2.67347E-03 2.37776E-04-3.30872E-24
 -1       257 2.67290E-03 2.60409E-04 0.00000E+00
 -1       258 2.67258E-03 2.60160E-04 3.30872E-24
 -1       259 2.67201E-03 2.37290E-04 0.00000E+00
 -1       260 2.67072E-03 1.92375E-04 0.00000E+00
 -1       261 2.66864E-03 1.31696E-04 0.00000E+00
 -1       262 2.66598E-03 6.17339E-05 0.00000E+00
 -1       263 2.66331E-03-8.51131E-06 1.32349E-23
 -1       264 2.66118E-03-7.00363E-05 6.61744E-24
 -1       265 2.65983E-03-1.16224E-04 0.00000E+00
 -1       266 2.67817E-03-4.23611E-07-3.30872E-24
 -1       267 2.67592E-03-4.27259E-07 8.27181E-25
 -1       268 2.67368E-03-4.31317E-07-8.27181E-25
 -1       269 2.67143E-03-4.34158E-07 0.00000E+00
 -1       270 2.66918E-03-4.36971E-07 2.06795E-25
 -1       271 2.67928E-03 7.42220E-07 0.00000E+00
 -1       272 2.67876E-03 1.93322E-07 0.00000E+00
 -1       273 2.67887E-03-2.01546E-06 2.64698E-23
 -1       274 2.67957E-03-5.83426E-06 1.32349E-23
 -1       275 2.68084E-03-1.11973E-05 0.00000E+00
 -1       276 2.68265E-03-1.80276E-05 1.32349E-23
 -1       277 2.68497E-03-2.62353E-05 2.64698E-23
 -1       278 2.68775E-03-3.57195E-05 1.32349E-23
 -1       279 2.69096E-03-4.63688E-05 0.00000E+00
 -1       280 2.69454E-03-5.80618E-05 0.00000E+00
 -1       281 2.69846E-03-7.06684E-05 2.64698E-23
 -1       282 2.70266E-03-8.40515E-05 0.00000E+00
 -1       283 2.70708E-03-9.80669E-05 2.64698E-23
 -1       284 2.71168E-03-1.12565E-04 0.00000E+00
 -1       285 2.71640E-03-1.27393E-04 0.00000E+00
 -1       301 2.67049E-03-1.40969E-04 1.32349E-23
 -1       302 2.68019E-03-1.41248E-04 6.61744E-24
 -1       303 2.68921E-03-1.41519E-04 0.00000E+00
 -1       304 2.69844E-03-1.41790E-04 6.61744E-24
 -1       305 2.70880E-03-1.42073E-04 0.00000E+00
 -1       306 2.69691E-03-2.94379E-04 0.00000E+00
 -1       307 2.76081E-03-7.07404E-04-5.29396E-23
 -1       308 2.80755E-03-1.31230E-03 0.00000E+00
 -1       309 2.83111E-03-2.01374E-03 0.00000E+00
 -1       310 2.86176E-03-2.68642E-03 0.00000E+00
 -1       311 2.92073E-03-3.20755E-03 5.29396E-23
 -1       312 2.97925E-03-3.49623E-03-2.11758E-22
 -1       313 2.97727E-03-3.51362E-03 0.00000E+00
 -1       314 2.84122E-03-3.27080E-03 0.00000E+00
 -1       315 2.52965E-03-2.83128E-03 0.00000E+00
 -1       316 2.05976E-03-2.27142E-03 0.00000E+00
 -1       317 1.49623E-03-1.66080E-03 0.00000E+00
 -1       318 9.52566E-04-1.06062E-03-1.05879E-22
 -1       319 5.36336E-04-5.36076E-04 0.00000E+00
 -1       320 2.91597E-04-1.61055E-04 1.05879E-22
 -1       336 2.98944E-04-4.13490E-06-1.32349E-23
 -1       337 2.85282E-04-4.82970E-06 0.00000E+00
 -1       338 2.69610E-04-5.55233E-06 1.32349E-23
 -1       339 2.52003E-04-6.30357E-06 0.00000E+00
 -1       340 2.32544E-04-7.08786E-06 0.00000E+00
 -1       406 1.79602E-04 9.44358E-07 3.30872E-24
 -1       407 1.80366E-04 1.07900E-06-8.27181E-25
 -1       408 1.81232E-04 1.21348E-06-8.27181E-25
 -1       409 1.82201E-04 1.34762E-06-2.06795E-25
 -1       410 1.83271E-04 1.48115E-06 3.30872E-24
 -1       521 2.75949E-03-3.05303E-04 0.00000E+00
 -1       522 2.82164E-03-7.38444E-04 0.00000E+00
 -1       523 2.86197E-03-1.37101E-03 0.00000E+00
 -1       524 2.87632E-03-2.10094E-03 0.00000E+00
 -1       525 2.89901E-03-2.80016E-03-1.05879E-22
 -1       526 2.95433E-03-3.34334E-03 0.00000E+00
 -1       527 3.01238E-03-3.64276E-03 2.11758E-22
 -1       528 3.00821E-03-3.65860E-03 1.05879E-22
 -1       529 2.86048E-03-3.40182E-03 0.00000E+00
 -1       530 2.52538E-03-2.94379E-03 0.00000E+00
 -1       531 2.02086E-03-2.36466E-03-1.05879E-22
 -1       532 1.41796E-03-1.73672E-03-5.29396E-23
 -1       533 8.35518E-04-1.11859E-03-1.05879E-22
 -1       534 3.86239E-04-5.73194E-04 0.00000E+00
 -1       535 1.20412E-04-1.78691E-04 0.00000E+00
 -1       536 2.10573E-04 2.69833E-05-6.61744E-24
 -1       537 2.08660E-04 8.73335E-05-1.65436E-24
 -1       538 2.05705E-04 1.63907E-04 3.30872E-24
 -1       539 2.02219E-04 2.47369E-04-1.65436E-24
 -1       540 1.99083E-04 3.26233E-04-3.30872E-24
 -1       541 1.97044E-04 3.89038E-04 1.65436E-24
 -1       542 1.96103E-04 4.29041E-04 3.30872E-24
 -1       543 1.95878E-04 4.39647E-04 1.65436E-24
 -1       544 1.95556E-04 4.21629E-04-3.30872E-24
 -1       545 1.94387E-04 3.75979E-04 0.00000E+00
 -1       546 1.92208E-04 3.10815E-04 0.00000E+00
 -1       547 1.89259E-04 2.34371E-04 0.00000E+00
 -1       548 1.86337E-04 1.58303E-04 3.30872E-24
 -1       549 1.84229E-04 9.42708E-05 1.65436E-24
 -1       550 1.83134E-04 5.02912E-05 1.65436E-24
 -1       551 1.86155E-04-8.46217E-06 0.00000E+00
 -1       552 1.57740E-04-9.11444E-06 0.00000E+00
 -1       553 1.27024E-04-9.82882E-06-9.92617E-24
 -1       554 9.49693E-05-1.05842E-05 6.61744E-24
 -1       555 6.25353E-05-1.13532E-05 0.00000E+00
 -1       556 2.03689E-04 1.16383E-05 0.00000E+00
 -1       557 1.97519E-04 2.74760E-05 0.00000E+00
 -1       558 1.92681E-04 3.99107E-05-5.29396E-23
 -1       559 1.89044E-04 4.92524E-05 0.00000E+00
 -1       560 1.86477E-04 5.58117E-05 0.00000E+00
 -1       561 1.84853E-04 5.99015E-05 0.00000E+00
 -1       562 1.84045E-04 6.18362E-05 0.00000E+00
 -1       563 1.83932E-04 6.19309E-05 0.00000E+00
 -1       564 1.84389E-04 6.05019E-05 0.00000E+00
 -1       565 1.85298E-04 5.78657E-05-6.61744E-24
 -1       566 1.86538E-04 5.43399E-05 0.00000E+00
 -1       567 1.87991E-04 5.02420E-05 0.00000E+00
 -1       568 1.89538E-04 4.58900E-05 0.00000E+00
 -1       569 1.91062E-04 4.16017E-05 0.00000E+00
 -1       570 1.92444E-04 3.76951E-05 0.00000E+00
 -1       571 1.82945E-04 3.21398E-05-2.48154E-24
 -1       572 1.83043E-04 2.99562E-05-1.65436E-24
 -1       573 1.83142E-04 2.77225E-05 0.00000E+00
 -1       574 1.83242E-04 2.54552E-05-8.27181E-25
 -1       575 1.83341E-04 2.31706E-05 0.00000E+00
 -1       576 1.83441E-04 2.08851E-05 1.65436E-24
 -1       577 1.83540E-04 1.86153E-05-3.30872E-24
 -1       578 1.83640E-04 1.63778E-05 0.00000E+00
 -1       579 1.83740E-04 1.41889E-05 0.00000E+00
 -1       580 1.83840E-04 1.20653E-05 6.61744E-24
 -1       581 1.83940E-04 1.00234E-05 0.00000E+00
 -1       582 1.84040E-04 8.07966E-06 3.30872E-24
 -1       583 1.84140E-04 6.25065E-06 0.00000E+00
 -1       584 1.84241E-04 4.55263E-06 0.00000E+00
 -1       585 1.84341E-04 3.00176E-06 0.00000E+00
 -1       586 1.84594E-04 3.42974E-05 0.00000E+00
 -1       587 1.86298E-04 3.43366E-05 4.13590E-25
 -1       588 1.88005E-04 3.43754E-05 0.00000E+00
 -1       589 1.89757E-04 3.44136E-05 0.00000E+00
 -1       590 1.91597E-04 3.44504E-05 0.00000E+00
 -1       591 1.83574E-04 3.22333E-05 1.03398E-25
 -1       592 1.84302E-04 3.01890E-05 2.06795E-25
 -1       593 1.85036E-04 2.81306E-05 0.00000E+00
 -1       594 1.85773E-04 2.60628E-05 0.00000E+00
 -1       595 1.86511E-04 2.39903E-05 8.27181E-25
 -1       596 1.87249E-04 2.19178E-05 0.00000E+00
 -1       597 1.87986E-04 1.98502E-05-8.27181E-25
 -1       598 1.88719E-04 1.77920E-05-4.13590E-25
 -1       599 1.89447E-04 1.57480E-05 0.00000E+00
 -1       600 1.90167E-04 1.37229E-05-4.13590E-25
 -1       601 1.90879E-04 1.17214E-05 8.27181E-25
 -1       602 1.91580E-04 9.74812E-06-2.06795E-25
 -1       603 1.92270E-04 7.80783E-06 0.00000E+00
 -1       604 1.92945E-04 5.90532E-06 0.00000E+00
 -1       605 1.93605E-04 4.04522E-06 0.00000E+00
 -1       606 1.84455E-04 4.57222E-07 0.00000E+00
 -1       607 1.84465E-04-6.12332E-07 0.00000E+00
 -1       608 1.84474E-04-1.60090E-06 0.00000E+00
 -1       609 1.84482E-04-2.51417E-06 0.00000E+00
 -1       610 1.84490E-04-3.35790E-06 0.00000E+00
 -1       611 1.84499E-04-4.13789E-06 0.00000E+00
 -1       612 1.84507E-04-4.85995E-06 0.00000E+00
 -1       613 1.84515E-04-5.52993E-06 0.00000E+00
 -1       614 1.84524E-04-6.15363E-06 1.65436E-24
 -1       615 1.84532E-04-6.73687E-06 8.27181E-25
 -1       616 1.84541E-04-7.28550E-06-1.65436E-24
 -1       617 1.84549E-04-7.80533E-06 0.00000E+00
 -1       618 1.84557E-04-8.30218E-06 0.00000E+00
 -1       619 1.84566E-04-8.78188E-06 0.00000E+00
 -1       620 1.84574E-04-9.25025E-06 0.00000E+00
 -1       621 1.85792E-04 1.71681E-06-3.30872E-24
 -1       622 1.87300E-04 1.82104E-06-8.27181E-25
 -1       623 1.88934E-04 1.92507E-06-1.65436E-24
 -1       624 1.90659E-04 2.02877E-06-1.65436E-24
 -1       625 1.92443E-04 2.13217E-06 3.30872E-24
 -1       626 1.84987E-04 4.93347E-07 3.30872E-24
 -1       627 1.85510E-04-5.62885E-07 0.00000E+00
 -1       628 1.86012E-04-1.56375E-06-6.61744E-24
 -1       629 1.86497E-04-2.51742E-06-1.65436E-24
 -1       630 1.86967E-04-3.43211E-06 0.00000E+00
 -1       631 1.87425E-04-4.31604E-06 0.00000E+00
 -1       632 1.87876E-04-5.17742E-06 0.00000E+00
 -1       633 1.88320E-04-6.02451E-06 1.65436E-24
 -1       634 1.88763E-04-6.86551E-06-3.30872E-24
 -1       635 1.89206E-04-7.70864E-06-1.65436E-24
 -1       636 1.89653E-04-8.56214E-06 0.00000E+00
 -1       637 1.90108E-04-9.43423E-06-1.65436E-24
 -1       638 1.90572E-04-1.03331E-05 1.65436E-24
 -1       639 1.91049E-04-1.12671E-05 8.27181E-25
 -1       640 1.91541E-04-1.22444E-05 0.00000E+00
 -1       656 1.85278E-04-1.02918E-05-6.61744E-24
 -1       657 1.86394E-04-1.08940E-05 6.61744E-24
 -1       658 1.87791E-04-1.14948E-05 1.32349E-23
 -1       659 1.89322E-04-1.20952E-05-6.61744E-24
 -1       660 1.90803E-04-1.26975E-05 0.00000E+00
 -1       661 1.84842E-04-1.02211E-05 0.00000E+00
 -1       662 1.85140E-04-1.08209E-05 0.00000E+00
 -1       663 1.85471E-04-1.15074E-05-1.65436E-24
 -1       664 1.85832E-04-1.22740E-05 0.00000E+00
 -1       665 1.86221E-04-1.31149E-05 1.65436E-24
 -1       666 1.86635E-04-1.40243E-05-8.27181E-25
 -1       667 1.87073E-04-1.49964E-05 0.00000E+00
 -1       668 1.87532E-04-1.60257E-05-8.27181E-25
 -1       669 1.88011E-04-1.71067E-05 0.00000E+00
 -1       670 1.88507E-04-1.82342E-05 0.00000E+00
 -1       671 1.89018E-04-1.94030E-05 0.00000E+00
 -1       672 1.89543E-04-2.06079E-05-8.27181E-25
 -1       673 1.90080E-04-2.18440E-05 1.65436E-24
 -1       674 1.90625E-04-2.31066E-05-4.13590E-25
 -1       675 1.91179E-04-2.43903E-05 0.00000E+00
 -1       676 1.85035E-04-2.51741E-05 0.00000E+00
 -1       677 1.86379E-04-2.52784E-05 0.00000E+00
 -1       678 1.87722E-04-2.53827E-05-3.30872E-24
 -1       679 1.89063E-04-2.54866E-05 0.00000E+00
 -1       680 1.90400E-04-2.55906E-05 0.00000E+00
 -1       771 1.87403E-05 1.45610E-05 0.00000E+00
 -1       772 8.69566E-06 3.64835E-05 5.29396E-23
 -1       773 4.53696E-07 5.38684E-05 0.00000E+00
 -1       774-6.10968E-06 6.69732E-05-2.64698E-23
 -1       775-1.11158E-05 7.60657E-05-5.29396E-23
 -1       776-1.46911E-05 8.14304E-05-2.64698E-23
 -1       777-1.69616E-05 8.33621E-05 0.00000E+00
 -1       778-1.80559E-05 8.21693E-05-2.64698E-23
 -1       779-1.81021E-05 7.81689E-05-5.29396E-23
 -1       780-1.72302E-05 7.16894E-05-2.64698E-23
 -1       781-1.55695E-05 6.30659E-05 0.00000E+00
 -1       782-1.32506E-05 5.26426E-05 2.64698E-23
 -1       783-1.04034E-05 4.07680E-05-5.29396E-23
 -1       784-7.15883E-06 2.77970E-05 0.00000E+00
 -1       785-3.64710E-06 1.40876E-05 0.00000E+00
 -1       786 1.93607E-04 3.22404E-05 1.29247E-26
 -1       787 1.93649E-04 3.00474E-05 4.13590E-25
 -1       788 1.93691E-04 2.78960E-05 0.00000E+00
 -1       789 1.93733E-04 2.57782E-05 0.00000E+00
 -1       790 1.93776E-04 2.36892E-05 0.00000E+00
 -1       791 1.93819E-04 2.16242E-05 0.00000E+00
 -1       792 1.93862E-04 1.95811E-05 1.65436E-24
 -1       793 1.93905E-04 1.75576E-05 0.00000E+00
 -1       794 1.93948E-04 1.55536E-05-1.65436E-24
 -1       795 1.93991E-04 1.35689E-05 0.00000E+00
 -1       796 1.94034E-04 1.16055E-05 0.00000E+00
 -1       797 1.94078E-04 9.66506E-06-8.27181E-25
 -1       798 1.94121E-04 7.75202E-06-1.65436E-24
 -1       799 1.94164E-04 5.87068E-06-8.27181E-25
 -1       800 1.94208E-04 4.02858E-06-1.65436E-24
 -1       801 1.47903E-04 3.09976E-05 0.00000E+00
 -1       802 9.82211E-06 1.93404E-05 0.00000E+00
 -1       803-1.08175E-04 9.76577E-06 0.00000E+00
 -1       804-9.59930E-05 6.79536E-06-2.64698E-23
 -1       805-3.17283E-05 2.67415E-06 0.00000E+00
 -1       806 1.94294E-04 3.21716E-05-1.65436E-24
 -1       807 1.95006E-04 2.98859E-05 0.00000E+00
 -1       808 1.95706E-04 2.76315E-05 0.00000E+00
 -1       809 1.96391E-04 2.54125E-05-1.65436E-24
 -1       810 1.97062E-04 2.32331E-05 0.00000E+00
 -1       811 1.97717E-04 2.10970E-05 1.65436E-24
 -1       812 1.98354E-04 1.90084E-05-3.30872E-24
 -1       813 1.98972E-04 1.69710E-05 0.00000E+00
 -1       814 1.99569E-04 1.49888E-05 0.00000E+00
 -1       815 2.00144E-04 1.30658E-05 8.27181E-25
 -1       816 2.00696E-04 1.12059E-05 0.00000E+00
 -1       817 2.01223E-04 9.41283E-06 8.27181E-25
 -1       818 2.01723E-04 7.69063E-06-3.30872E-24
 -1       819 2.02196E-04 6.04316E-06-8.27181E-25
 -1       820 2.02640E-04 4.47424E-06-1.65436E-24
 -1       821 1.94123E-04-1.22041E-07 0.00000E+00
 -1       822 1.93982E-04-3.63932E-06 1.65436E-24
 -1       823 1.93840E-04-7.88811E-06 3.30872E-24
 -1       824 1.93695E-04-1.24335E-05 1.65436E-24
 -1       825 1.93550E-04-1.67604E-05-3.30872E-24
 -1       826 1.93409E-04-2.03548E-05-1.65436E-24
 -1       827 1.93270E-04-2.29026E-05 3.30872E-24
 -1       828 1.93133E-04-2.40957E-05-1.65436E-24
 -1       829 1.92998E-04-2.39951E-05-3.30872E-24
 -1       830 1.92861E-04-2.26696E-05-1.65436E-24
 -1       831 1.92723E-04-2.05216E-05 0.00000E+00
 -1       832 1.92585E-04-1.79584E-05 0.00000E+00
 -1       833 1.92447E-04-1.55007E-05-3.30872E-24
 -1       834 1.92312E-04-1.36681E-05 0.00000E+00
 -1       835 1.92177E-04-1.28110E-05-8.27181E-25
 -1       836 1.95932E-04 2.35846E-06-3.30872E-24
 -1       837 1.97484E-04 2.48670E-06 0.00000E+00
 -1       838 1.98941E-04 2.61487E-06 0.00000E+00
 -1       839 2.00334E-04 2.74234E-06 0.00000E+00
 -1       840 2.01694E-04 2.86965E-06 0.00000E+00
 -1       856 1.92034E-04-1.43248E-05 8.27181E-25
 -1       857 1.92015E-04-1.52404E-05-1.29247E-26
 -1       858 1.91996E-04-1.60412E-05 0.00000E+00
 -1       859 1.91976E-04-1.67484E-05 0.00000E+00
 -1       860 1.91956E-04-1.73833E-05 0.00000E+00
 -1       861 1.91936E-04-1.79672E-05 0.00000E+00
 -1       862 1.91916E-04-1.85215E-05-4.13590E-25
 -1       863 1.91896E-04-1.90674E-05-4.13590E-25
 -1       864 1.91877E-04-1.96263E-05 0.00000E+00
 -1       865 1.91857E-04-2.02196E-05 4.13590E-25
 -1       866 1.91837E-04-2.08686E-05 8.27181E-25
 -1       867 1.91817E-04-2.15947E-05 0.00000E+00
 -1       868 1.91796E-04-2.24189E-05 8.27181E-25
 -1       869 1.91776E-04-2.33626E-05 0.00000E+00
 -1       870 1.91755E-04-2.44467E-05 0.00000E+00
 -1       871 1.93390E-04-1.32783E-05-8.27181E-25
 -1       872 1.94876E-04-1.32866E-05 0.00000E+00
 -1       873 1.96443E-04-1.32956E-05 0.00000E+00
 -1       874 1.98020E-04-1.33054E-05-3.10193E-25
 -1       875 1.99540E-04-1.33157E-05-6.20385E-25
 -1       876 1.92572E-04-1.43102E-05-3.30872E-24
 -1       877 1.93071E-04-1.52802E-05-1.65436E-24
 -1       878 1.93549E-04-1.61913E-05 0.00000E+00
 -1       879 1.94007E-04-1.70509E-05 0.00000E+00
 -1       880 1.94450E-04-1.78664E-05 3.30872E-24
 -1       881 1.94878E-04-1.86452E-05-1.65436E-24
 -1       882 1.95296E-04-1.93946E-05-3.30872E-24
 -1       883 1.95705E-04-2.01221E-05 0.00000E+00
 -1       884 1.96109E-04-2.08350E-05 0.00000E+00
 -1       885 1.96510E-04-2.15405E-05-1.65436E-24
 -1       886 1.96911E-04-2.22461E-05 3.30872E-24
 -1       887 1.97315E-04-2.29591E-05 0.00000E+00
 -1       888 1.97724E-04-2.36868E-05-3.30872E-24
 -1       889 1.98140E-04-2.44369E-05-1.65436E-24
 -1       890 1.98567E-04-2.52165E-05 0.00000E+00
 -1       891 1.93087E-04-2.57499E-05 0.00000E+00
 -1       892 1.94418E-04-2.58076E-05 0.00000E+00
 -1       893 1.95699E-04-2.58652E-05 0.00000E+00
 -1       894 1.96907E-04-2.59225E-05 0.00000E+00
 -1       895 1.98016E-04-2.59797E-05 4.13590E-25
 -1       956 2.02924E-04 1.67583E-06 1.65436E-24
 -1       957 2.02792E-04 4.55560E-07 0.00000E+00
 -1       958 2.02659E-04-6.83867E-07-3.30872E-24
 -1       959 2.02526E-04-1.75379E-06-1.65436E-24
 -1       960 2.02393E-04-2.76560E-06 0.00000E+00
 -1       961 2.02261E-04-3.73071E-06 0.00000E+00
 -1       962 2.02128E-04-4.66055E-06 0.00000E+00
 -1       963 2.01995E-04-5.56657E-06-1.65436E-24
 -1       964 2.01862E-04-6.46021E-06 0.00000E+00
 -1       965 2.01729E-04-7.35292E-06 1.65436E-24
 -1       966 2.01596E-04-8.25615E-06-3.30872E-24
 -1       967 2.01464E-04-9.18133E-06 0.00000E+00
 -1       968 2.01331E-04-1.01399E-05-6.61744E-24
 -1       969 2.01198E-04-1.11433E-05 0.00000E+00
 -1       970 2.01066E-04-1.22028E-05-3.30872E-24
 -1       971 2.00816E-04-1.44556E-05-3.30872E-24
 -1       972 2.00694E-04-1.54870E-05 0.00000E+00
 -1       973 2.00573E-04-1.64342E-05 3.30872E-24
 -1       974 2.00451E-04-1.73081E-05 0.00000E+00
 -1       975 2.00330E-04-1.81193E-05 3.30872E-24
 -1       976 2.00208E-04-1.88790E-05 0.00000E+00
 -1       977 2.00087E-04-1.95979E-05 0.00000E+00
 -1       978 1.99965E-04-2.02869E-05 1.65436E-24
 -1       979 1.99844E-04-2.09570E-05 3.30872E-24
 -1       980 1.99722E-04-2.16192E-05-1.65436E-24
 -1       981 1.99601E-04-2.22842E-05-3.30872E-24
 -1       982 1.99480E-04-2.29631E-05 1.65436E-24
 -1       983 1.99359E-04-2.36667E-05 3.30872E-24
 -1       984 1.99238E-04-2.44060E-05 1.65436E-24
 -1       985 1.99118E-04-2.51919E-05 3.30872E-24
 -3
    1PSTEP                        52          26           1          
  100CL  126 6.63526E-01         409                     0   26           1
 -4  STRESS      6    1
 -5  SXX         1    4    1    1
 -5  SYY         1    4    2    2
 -5  SZZ         1    4    3    3
 -5  SXY         1    4    1    2
 -5  SYZ         1    4    2    3
 -5  SZX         1    4    3    1
 -1         1-5.28911E+06-1.65820E+06-1.13232E+06-1.43910E+06-4.94765E-10 1.84402E-07
 -1         2 1.01122E+06 1.48693E+07 3.64271E+06 4.46882E+06 2.10130E-08 1.75503E-07
 -1         3-1.48933E+03-1.58982E+06 4.11919E+02-2.25723E+03-5.30282E-10 2.20389E-08
 -1         5-7.42587E+01 3.86571E+05 9.98816E+00-1.33441E+00-5.21089E-10-2.27974E-08
 -1         8-4.78522E+05-1.73613E+05-3.95048E+04-2.24280E+05-2.17369E-10 1.62119E-07
 -1         9 1.14501E+07 2.50348E+06 2.49099E+06-7.48937E+05 3.87663E-09-7.07805E-08
 -1        10-2.31599E+03-1.65673E+06-4.01807E+03-1.52678E+04-1.32986E-08-7.28908E-08
 -1        12-7.03354E+01 3.86593E+05 3.28264E+02-9.09717E+00-7.21556E-10-2.56750E-09
 -1        15 9.58147E+02 5.26549E+02 3.09719E+03 9.30898E-01-1.42393E-11 3.32860E-07
 -1        16 2.27611E+07-2.72958E+05 3.11310E+06-2.16541E+06 6.13121E-09 9.10368E-08
 -1        17 8.26871E+06 6.20512E+06 2.23663E+06 5.95022E+06 2.34111E-08 2.63331E-08
 -1        18 1.41811E+05 3.33613E+04 4.02051E+03-1.19502E+05 1.73534E-08 8.38418E-09
 -1        19 1.22465E+05 1.41745E+05-9.43626E+02 2.19849E+04 1.57906E-09-5.92590E-09
 -1        20-8.18924E+04-5.73953E+05-1.28783E+05 2.51813E+04-2.45745E-09 3.63119E-08
 -1        21-4.56389E+01-2.96263E+05-9.24872E+02 2.73380E+02 1.40252E-08 2.21565E-10
 -1        24 1.38154E+07 1.19455E+07 3.83440E+06 1.10680E+07-1.67163E-07-5.86345E-08
 -1        25 1.23755E+05 2.62636E+05 9.88343E+04-6.42492E+05-2.74740E-09 1.23946E-08
 -1        26-5.53276E+04 9.23564E+04-2.46250E+04 1.24479E+03-1.42973E-10-5.24021E-09
 -1        27-7.56374E+04-3.10094E+05-1.13367E+05 6.90146E+04 4.12259E-09 1.84658E-09
 -1        28 2.22629E+04-8.54076E+04 1.69116E+04 2.06493E+04-3.35331E-09-8.76366E-09
 -1        32-1.68099E+06-3.17663E+06-1.96215E+05 4.50399E+05-4.22151E-08-9.98796E-09
 -1        33-1.78562E+05 9.30458E+04 3.24047E+04-3.85487E+04-3.28047E-09 2.17494E-08
 -1        34-2.23736E+05-2.50361E+04 6.89631E+02 7.56804E+04-3.84297E-09-1.44231E-08
 -1        35-2.29516E+04-3.38708E+04-1.34936E+03 5.15409E+04-6.66470E-09 7.28445E-09
 -1        51 6.02256E+04-1.74854E+05 1.27607E+05-4.51300E+05-1.45519E-10-4.11455E-08
 -1        52 2.04350E+04-1.52651E+05 6.70455E+04-5.26253E+05 1.93722E-10 2.92202E-08
 -1        53 4.22926E+03-1.68135E+05 3.50484E+04-4.49702E+05 9.45874E-11 8.16653E-08
 -1        54 7.66038E+03-1.63964E+05 2.90817E+04-5.27857E+05-9.24047E-10-9.73032E-08
 -1        55 1.66725E+04-1.71211E+05 3.57044E+04-4.49561E+05-1.60071E-10 3.47962E-07
 -1        56-9.74206E+06-1.31972E+06-8.97895E+05-4.02674E+06-1.04774E-09 4.15603E-08
 -1        57-1.08785E+07-9.93958E+05-5.50884E+05-2.86903E+06 3.70783E-08 4.63915E-08
 -1        58-9.60185E+06-1.77253E+06-2.01324E+05-4.19742E+06-8.04721E-09 2.33973E-07
 -1        59-1.10236E+07-4.66612E+05-1.10945E+05-2.78685E+06-2.33472E-08-5.02989E-07
 -1        60-9.66283E+06-1.79074E+06-5.26188E+04-4.16733E+06-1.81390E-08-2.74780E-07
 -1        61-1.05240E+07-7.22237E+05 3.66016E+03-2.99954E+06 1.22636E-08-2.39066E-07
 -1        62-1.00055E+07-1.58103E+06-5.87683E+04-3.90900E+06-2.43526E-08 6.51598E-08
 -1        63-9.76108E+06-1.32773E+06 3.83248E+04-3.59178E+06-1.65892E-09 2.80059E-07
 -1        64-1.03376E+07-1.24753E+06-5.74504E+04-3.51622E+06 3.07045E-09 1.24350E-07
 -1        65-9.37382E+06-1.87516E+06 5.58634E+03-4.36173E+06-4.67335E-08-1.53669E-07
 -1        66-1.04785E+07-9.74455E+05-4.75442E+04-3.20529E+06 2.43381E-08-1.06666E-07
 -1        67-9.34720E+06-2.13477E+06-9.91555E+04-4.75881E+06-4.44534E-08 1.73057E-07
 -1        68-1.04656E+07-9.17440E+05-1.81930E+05-3.18438E+06-5.11227E-08-1.60944E-08
 -1        69-9.54792E+06-2.26039E+06-4.93161E+05-4.40766E+06-4.80832E-08-2.16736E-07
 -1        70-1.02025E+07-9.12708E+05-8.14108E+05-3.50406E+06 2.97568E-08 1.06636E-07
 -1        86-1.02992E+06-1.20281E+07-1.98778E+06-2.11729E+06-2.25722E-07-1.01805E-07
 -1        87 1.55147E+06 3.83618E+06 1.65695E+06 4.23966E+06-3.90355E-07-1.75868E-07
 -1        88-2.61587E+05-2.31075E+06 1.47653E+05-2.07008E+06-3.50981E-07-3.46545E-08
 -1        89 2.10670E+06 3.57667E+06 1.68028E+06 4.37893E+06-4.91393E-07-3.90715E-07
 -1        90-1.51714E+06-1.18268E+07-2.14197E+06-2.27396E+06-1.25485E-07-3.80242E-08
 -1       121-2.04111E+03-1.59473E+06-5.41238E+02 1.11897E+03 1.50730E-09 3.49974E-08
 -1       122-1.29969E+03-1.58988E+06 7.83101E+02-4.51789E+03-5.47455E-09-2.44218E-08
 -1       123-2.06124E+03-1.59487E+06 2.83569E+02 3.34149E+03 4.34079E-09 6.10453E-09
 -1       124 3.70027E+02-1.58942E+06 3.00778E+03-9.44234E+03-1.00749E-08 4.99313E-09
 -1       125-2.88648E+03-1.59578E+06 3.54918E+03 5.99762E+03 6.87396E-09-1.63345E-08
 -1       191-7.82596E+01 3.86590E+05 8.54602E+00 6.95386E-01-5.74106E-10-2.15350E-08
 -1       192-7.52224E+01 3.86572E+05 2.13119E+01-4.27839E+00-7.17428E-10-8.83301E-09
 -1       193-8.07965E+01 3.86589E+05 3.63344E+01 3.75559E+00-1.10752E-09 6.79211E-09
 -1       194-7.83121E+01 3.86575E+05 8.10120E+01-9.70781E+00-6.21842E-10 6.55564E-09
 -1       195-8.56658E+01 3.86587E+05 1.55150E+02 6.31460E+00-1.48710E-09 8.93124E-10
 -1       251-1.05801E+06-1.17279E+04-8.11866E+04-5.81550E+04 1.37607E-09-8.79500E-08
 -1       252-6.50211E+05 1.03860E+04 2.20559E+04 1.87716E+05 1.34514E-09 6.85422E-08
 -1       253-8.66256E+05 1.70305E+03-1.12881E+04-1.07822E+05 9.33869E-09-3.48041E-08
 -1       254-8.07747E+05 7.50866E+03 5.93400E+03 2.29028E+05-2.35511E-08 2.18176E-07
 -1       255-9.09607E+05-1.40292E+03-1.30497E+04-9.99677E+04 7.13453E-09-3.12473E-08
 -1       256-5.54098E+05 1.24220E+04 5.95454E+04 1.55352E+05-3.76076E-10 2.25210E-08
 -1       257-1.10525E+06-1.51461E+04-5.21131E+04-3.35085E+04 2.98314E-09-8.46003E-08
 -1       258-3.67651E+05 1.80380E+04 9.82827E+04-8.08692E+03 4.50336E-09 1.46823E-07
 -1       259-1.08519E+06-1.58477E+04-4.60912E+04 6.26568E+04-4.28918E-09 1.84951E-07
 -1       260-6.00860E+05 1.90767E+04 5.73831E+04-1.60450E+05 5.58725E-09-1.42099E-07
 -1       261-8.85370E+05-5.34453E+03 2.58410E+03 1.18650E+05 5.21609E-08-7.92211E-08
 -1       262-8.13638E+05 2.81337E+04 3.26040E+04-2.16099E+05-2.06981E-08 2.24946E-07
 -1       263-8.84868E+05-1.47307E+04 2.94238E+04 1.19298E+05-3.02543E-09 2.52443E-07
 -1       264-5.74744E+05 1.02342E+05 1.51127E+05-1.64485E+05 1.22498E-07 2.68052E-07
 -1       265-1.11239E+06-8.90291E+04 8.53760E+04 6.60836E+04 3.95476E-08 2.91911E-08
 -1       266-1.73459E+04-8.11174E+03 4.06946E+04-1.99168E+01-2.91038E-11 7.94791E-08
 -1       267 2.01084E+04 9.45317E+03 2.87643E+04 2.29819E+01 2.23281E-10 2.27535E-07
 -1       268-2.69651E+03-1.33890E+03 1.06914E+04-2.92819E+00-4.36557E-11-2.29794E-07
 -1       269 3.18377E+03 1.60230E+03 6.94936E+03 3.41102E+00-2.09184E-11-2.50883E-07
 -1       270-4.77888E+02-2.63274E+02 3.35455E+03-4.62894E-01-8.27640E-11-1.04048E-07
 -1       271-1.56985E+06-1.93311E+05-1.17824E+05-6.05157E+05-1.35356E-08 2.69305E-07
 -1       272-1.60650E+06-2.80205E+05-7.51295E+04-6.05940E+05 3.89555E-08-1.96725E-07
 -1       273-1.59358E+06-2.20679E+05-2.81776E+04-5.98018E+05 3.31165E-08-3.50683E-08
 -1       274-1.57781E+06-2.47754E+05-1.52765E+04-6.18033E+05-2.79224E-08 2.57525E-07
 -1       275-1.59858E+06-2.21655E+05-6.83303E+03-5.94910E+05 4.72155E-08-3.76158E-08
 -1       276-1.57112E+06-2.47774E+05-3.18423E+03-6.24306E+05-4.94629E-08 4.37741E-07
 -1       277-1.60104E+06-2.19771E+05-1.88812E+03-5.92471E+05 2.19025E-08 2.20903E-07
 -1       278-1.56777E+06-2.50980E+05-8.40584E+02-6.29418E+05-5.28853E-08 2.09331E-07
 -1       279-1.60284E+06-2.17842E+05-1.03224E+03-5.90452E+05 2.51912E-08-1.12871E-07
 -1       280-1.56555E+06-2.54031E+05-1.20705E+03-6.33606E+05-1.48657E-08-6.00212E-08
 -1       281-1.60415E+06-2.16168E+05-2.36353E+03-5.88894E+05-5.15647E-08 9.00454E-08
 -1       282-1.56493E+06-2.57657E+05-5.27502E+03-6.36589E+05-1.08821E-09 4.54830E-08
 -1       283-1.60423E+06-2.13879E+05-9.48042E+03-5.87933E+05 2.06928E-08-3.54382E-08
 -1       284-1.57216E+06-2.71853E+05-2.57039E+04-6.36666E+05-3.24653E-08 5.58998E-09
 -1       285-1.59761E+06-2.02947E+05-3.99633E+04-5.88700E+05-2.35632E-08 1.00792E-07
 -1       301-3.31531E+03-6.33979E+05 1.71821E+05-1.10302E+06 9.37143E-09 1.27715E-07
 -1       302-4.42285E+03-5.86762E+05 1.03241E+05-1.61022E+06 4.75120E-09 3.41912E-07
 -1       303-1.91754E+04-6.25197E+05 5.84622E+04-1.09998E+06 2.48110E-09 3.14667E-08
 -1       304-2.05052E+04-5.94138E+05 5.90320E+04-1.60964E+06-1.62108E-08 2.30066E-07
 -1       305-2.25020E+04-6.15085E+05 7.32049E+04-1.10303E+06-2.06637E-09 2.48227E-07
 -1       306-3.01085E+07-6.22357E+06-8.59880E+06-5.60706E+05-9.73232E-08-1.06957E-07
 -1       307 2.54908E+07 3.24943E+06 5.53275E+06-1.50878E+07-7.94462E-07-5.65778E-08
 -1       308-7.07556E+06-1.06755E+06-4.89432E+05 5.21048E+06-1.74303E-07 3.13914E-07
 -1       309-3.44100E+06 8.80029E+06 2.26342E+06-2.05804E+07 2.94836E-07 1.83394E-07
 -1       310-1.23421E+07-1.92305E+06-1.96949E+06 5.22824E+06-3.10829E-08 3.91010E-08
 -1       311 3.77910E+07 7.88842E+04 7.19112E+06-9.08478E+06 6.74045E-07 1.13825E-07
 -1       312-3.17985E+07-6.64995E+06-8.46631E+06-4.82778E+06 3.94182E-07 1.97688E-07
 -1       313 4.55786E+07 1.45502E+07 1.06202E+07 2.34179E+07-5.88479E-08 4.38013E-08
 -1       314-1.74298E+07-1.75623E+07-7.51819E+06-1.25223E+07 5.13450E-07-1.31782E-07
 -1       315-1.51646E+06 2.95256E+07 5.68412E+06 1.08419E+07-6.83838E-07 1.56113E-07
 -1       316 1.29397E+06-9.88070E+06-4.76887E+05-2.64216E+06-1.39879E-06-1.55473E-07
 -1       317-1.71929E+07 2.23747E+07 2.21987E+06-8.63320E+06 7.24132E-07-7.17824E-07
 -1       318-1.02870E+06-1.26077E+07-1.98176E+06-4.23023E+06-9.69536E-07 1.51747E-07
 -1       319 6.98700E+06 3.16368E+07 6.95435E+06 1.64234E+07-9.30668E-08 2.89176E-07
 -1       320-2.24604E+07-1.75100E+07-9.77713E+06-1.27355E+07 1.94064E-07-5.22123E-08
 -1       336-7.08562E+02-1.72635E+06-1.40787E+04 9.10101E+03-2.64135E-08-2.12676E-08
 -1       337-5.47234E+03-1.72602E+06-1.83927E+04-2.20793E+04-4.81523E-08-1.59343E-09
 -1       338 3.26415E+02-1.72584E+06-2.89298E+04 1.27285E+04-3.44489E-08 1.23691E-09
 -1       339-3.06902E+04-1.74355E+06-6.54328E+04-2.91780E+04-6.29416E-08 2.67264E-08
 -1       340 2.02839E+04-1.71104E+06-1.03040E+05 1.60683E+04-4.11383E-08 3.08683E-08
 -1       406-4.85699E+01 3.86572E+05 6.44598E+02 3.32499E+00-1.99869E-09-3.62525E-09
 -1       407 1.56014E+02 3.86706E+05 1.37743E+03 2.32352E+01-5.02183E-10-3.09810E-08
 -1       408 6.36399E+02 3.86472E+05 2.74655E+03-2.68880E+01-2.28465E-09-3.87081E-09
 -1       409 2.90965E+03 3.87583E+05 6.19036E+03 2.87040E+02-3.23325E-10 9.10131E-09
 -1       410 8.48572E+03 3.85681E+05 1.26343E+04-2.76816E+02-2.93039E-09-1.64673E-08
 -1       521-3.16582E+07-7.67952E+06-1.00498E+07-1.72166E+05-8.03266E-08-3.60887E-09
 -1       522 2.63727E+07 4.25758E+06 5.63745E+06-1.85751E+07-5.48636E-07-2.99042E-07
 -1       523-7.65371E+06-1.38641E+06-4.85864E+05 5.65941E+06 8.06758E-08-3.44924E-07
 -1       524-6.96164E+06 1.18617E+07 2.44791E+06-2.36155E+07 7.56947E-07-2.82955E-07
 -1       525-1.31405E+07-2.54872E+06-2.16385E+06 5.67980E+06 5.45930E-07 5.62577E-08
 -1       526 4.12149E+07 2.20560E+04 7.54852E+06-1.17602E+07-2.00351E-07 4.14904E-07
 -1       527-3.36399E+07-8.33445E+06-9.75731E+06-4.68563E+06 2.78349E-07-5.89935E-08
 -1       528 4.97948E+07 1.61846E+07 1.10770E+07 2.66265E+07-3.32657E-07 8.10251E-08
 -1       529-1.83813E+07-1.97631E+07-8.62010E+06-1.25639E+07-1.26485E-07-2.77068E-07
 -1       530-3.98530E+06 3.43065E+07 6.01299E+06 1.03783E+07-5.62344E-07 8.78004E-07
 -1       531 1.28971E+06-1.09591E+07-4.54150E+05-2.59802E+06-1.06099E-06 3.36033E-07
 -1       532-1.97535E+07 2.44151E+07 2.42649E+06-1.28855E+07 3.05125E-07-8.22256E-07
 -1       533-1.07078E+06-1.37556E+07-2.10751E+06-4.05388E+06-2.64146E-07-1.00827E-06
 -1       534 4.96764E+06 3.67210E+07 7.23911E+06 1.69845E+07-1.12050E-08 7.91100E-07
 -1       535-2.36364E+07-1.98880E+07-1.12073E+07-1.28080E+07 1.26194E-07 4.74451E-07
 -1       536-7.05434E+05-4.72134E+04-4.66446E+04-5.45754E+04-4.76166E-09 4.86843E-08
 -1       537-5.55271E+04 4.52529E+04 8.46601E+04 1.23631E+05-1.21371E-07 1.00014E-07
 -1       538-3.94403E+05 3.24282E+03 3.90337E+03-7.20921E+04 1.86045E-08 1.03768E-07
 -1       539-2.69313E+05 2.94916E+03 2.50708E+04 1.38510E+05 1.59456E-07 1.05666E-07
 -1       540-4.97011E+05-4.37952E+02-2.11712E+04-6.99864E+04 1.48693E-08 1.17227E-07
 -1       541 1.45247E+05 1.69406E+04 1.06150E+05 9.77381E+04-3.08837E-08 7.50493E-08
 -1       542-7.97792E+05-2.00845E+04-8.39886E+04-3.04488E+04 1.17061E-08 6.02752E-08
 -1       543 4.03217E+05 2.72547E+04 1.57553E+05-1.33444E+04-2.99387E-08 1.78570E-08
 -1       544-7.48062E+05-1.64907E+04-7.46259E+04 4.04292E+04-3.10679E-08-4.74398E-08
 -1       545 2.78177E+04 9.45169E+03 7.95819E+04-1.13425E+05 7.89225E-09-7.43216E-08
 -1       546-4.32474E+05 6.08466E+03-1.21974E+04 6.92870E+04 4.06271E-08-9.08906E-08
 -1       547-2.87402E+05-4.65994E+03 1.05331E+04-1.41360E+05-1.15638E-07-1.01617E-07
 -1       548-4.41316E+05 4.71691E+03-2.38501E+04 6.90523E+04-9.90610E-08-1.04275E-07
 -1       549 4.69921E+04 1.59663E+04 6.02704E+04-1.11279E+05-6.75072E-08-5.66104E-08
 -1       550-7.57920E+05-2.20289E+04-1.28747E+05 3.84930E+04 7.39419E-09-3.29837E-08
 -1       551 4.08730E+04-7.60979E+05-1.53539E+04-1.24822E+06-9.93896E-08 3.17232E-09
 -1       552 9.33394E+04-8.05852E+05 1.02735E+04-1.77991E+06-7.01839E-08 4.48999E-08
 -1       553 7.17698E+04-8.02322E+05 3.23151E+04-1.24157E+06-1.17288E-07 4.36412E-08
 -1       554 1.32126E+05-8.21687E+05 8.14571E+04-1.78186E+06-7.38364E-08 3.41151E-08
 -1       555 1.01565E+05-8.25971E+05 1.48668E+05-1.24140E+06-1.22003E-07-8.38372E-09
 -1       556 2.23295E+05-3.82979E+05 2.72267E+04-4.07086E+05-2.47092E-08-1.10595E-08
 -1       557 3.54013E+05-4.87314E+05 1.69066E+04-5.27217E+05 2.13913E-09 2.70375E-08
 -1       558 2.05199E+05-3.76060E+05 2.65513E+03-4.11328E+05-1.58325E-08 3.90719E-09
 -1       559 3.28871E+05-4.87584E+05 2.60057E+03-5.47625E+05 3.47500E-08 5.81349E-09
 -1       560 1.89936E+05-3.66488E+05-1.42478E+03-4.22325E+05 2.27592E-08 1.75351E-08
 -1       561 3.09671E+05-4.79911E+05 1.67002E+02-5.60711E+05-2.67755E-09 5.28780E-09
 -1       562 1.77863E+05-3.58985E+05-1.30543E+03-4.31068E+05 0.00000E+00-9.63337E-09
 -1       563 2.95329E+05-4.73659E+05-2.80369E+01-5.70077E+05 7.74889E-09-1.75942E-08
 -1       564 1.69248E+05-3.53617E+05-5.94648E+02-4.37173E+05 6.24277E-09-2.43208E-08
 -1       565 2.85820E+05-4.69518E+05 2.60584E+01-5.76153E+05 1.36570E-08-8.47012E-09
 -1       566 1.64214E+05-3.50432E+05-2.58223E+02-4.40694E+05-8.36008E-09 2.36832E-09
 -1       567 2.81202E+05-4.67509E+05-3.61475E+02-5.78957E+05 1.12996E-08-7.42511E-09
 -1       568 1.62852E+05-3.49598E+05-1.12386E+03-4.41743E+05-9.04129E-09 2.78305E-09
 -1       569 2.80087E+05-4.67437E+05-2.83884E+03-5.77524E+05-8.22001E-09 2.14095E-08
 -1       570 1.66253E+05-3.52832E+05-6.20698E+03-4.40723E+05 6.65023E-09 1.15469E-08
 -1       571 2.90632E+05 1.05122E+04 1.49987E+04-9.51936E+04 9.42055E-09 1.98534E-08
 -1       572 2.92806E+05 3.96131E+03 7.35055E+03-1.04437E+05 1.16852E-08-9.35324E-09
 -1       573 2.91495E+05 1.24530E+03 3.26609E+03-9.50169E+04 2.06473E-08-1.04774E-08
 -1       574 2.91710E+05 7.26373E+02 1.63792E+03-1.04661E+05 2.41653E-08-1.90084E-09
 -1       575 2.91589E+05 4.47150E+02 7.73051E+02-9.49928E+04 1.03528E-08 1.36552E-08
 -1       576 2.91574E+05 4.58394E+02 3.95797E+02-1.04691E+05-6.98742E-09-6.25278E-09
 -1       577 2.91629E+05 3.89049E+02 1.97582E+02-9.49895E+04-2.34741E-09 2.08292E-08
 -1       578 2.91604E+05 4.20347E+02 1.14134E+02-1.04695E+05-3.03589E-09 1.12641E-08
 -1       579 2.91701E+05 3.52380E+02 7.83862E+01-9.49891E+04 7.06495E-09-1.01263E-08
 -1       580 2.91706E+05 3.69331E+02 9.09666E+01-1.04691E+05-6.07542E-09-2.85399E-09
 -1       581 2.91815E+05 2.93808E+02 1.37402E+02-9.49951E+04 9.60245E-09 2.02072E-08
 -1       582 2.91881E+05 3.31964E+02 2.79354E+02-1.04629E+05 4.12729E-09 1.12695E-08
 -1       583 2.91955E+05 3.36258E+02 5.36188E+02-9.50516E+04 3.48518E-09 1.06802E-08
 -1       584 2.92256E+05 7.74088E+02 1.21333E+03-1.04153E+05 8.21456E-09 1.75758E-08
 -1       585 2.91981E+05 1.79533E+03 2.45696E+03-9.54707E+04-1.83900E-09 2.67391E-09
 -1       586-3.42372E+03 1.16907E+05-2.91973E+03-2.50803E+05-5.04724E-09-2.39752E-08
 -1       587-1.33627E+03 1.16658E+05 7.70867E+02-2.76027E+05-4.23825E-09-1.87864E-08
 -1       588 4.01917E+02 1.16465E+05 4.76109E+03-2.50665E+05-3.25417E-09-1.41708E-08
 -1       589 5.09082E+03 1.18939E+05 1.23492E+04-2.75794E+05-9.32778E-09-2.41071E-08
 -1       590 1.66195E+04 1.15131E+05 2.59052E+04-2.51096E+05-5.36420E-09 1.23655E-08
 -1       591-7.50279E+04-1.59909E+04-2.25403E+04-3.19890E+04-9.34506E-09-1.36142E-08
 -1       592-7.91147E+04-1.95547E+04-1.22097E+04-3.56211E+04 2.38549E-09-1.29060E-08
 -1       593-7.72822E+04-1.43553E+04-5.08227E+03-3.36417E+04 2.22960E-09 6.41012E-09
 -1       594-7.60025E+04-1.62472E+04-2.53465E+03-3.57390E+04-7.24690E-09 9.80339E-09
 -1       595-7.74540E+04-1.43499E+04-1.16367E+03-3.37168E+04-9.32324E-09 9.00255E-09
 -1       596-7.57894E+04-1.60960E+04-5.91343E+02-3.57137E+04 2.34067E-09 8.28854E-09
 -1       597-7.74756E+04-1.43653E+04-3.21562E+02-3.37196E+04 1.28654E-09 6.08338E-09
 -1       598-7.57684E+04-1.60900E+04-2.57687E+02-3.57066E+04-2.91993E-09 1.08454E-08
 -1       599-7.74743E+04-1.43658E+04-3.28154E+02-3.37193E+04 5.33646E-09-1.23580E-08
 -1       600-7.57895E+04-1.60965E+04-6.08795E+02-3.57115E+04 7.24503E-09 8.65253E-09
 -1       601-7.74497E+04-1.43513E+04-1.20060E+03-3.37158E+04 2.92175E-10 5.49289E-09
 -1       602-7.60093E+04-1.62514E+04-2.61636E+03-3.57338E+04-6.65432E-09-3.72040E-09
 -1       603-7.72695E+04-1.43597E+04-5.24677E+03-3.36391E+04-3.52134E-09 2.84626E-09
 -1       604-7.92398E+04-1.96463E+04-1.26040E+04-3.55872E+04 1.10850E-09-1.02546E-10
 -1       605-7.49223E+04-1.60660E+04-2.32685E+04-3.19524E+04 3.77861E-09 7.80346E-09
 -1       606 2.67413E+04-1.43354E+04-2.56986E+04 2.40373E+04 9.17044E-09-1.95575E-08
 -1       607 2.23502E+04-4.68186E+03-1.27978E+04 2.70127E+04-1.01591E-09-1.25110E-08
 -1       608 2.48527E+04-8.44541E+02-5.72916E+03 2.38681E+04-6.92853E-09 2.23008E-09
 -1       609 2.43730E+04-2.89214E+02-2.89422E+03 2.72272E+04 1.43609E-09 1.85105E-08
 -1       610 2.46390E+04-4.08669E+01-1.38087E+03 2.38480E+04 4.23552E-09 1.53261E-08
 -1       611 2.45636E+04-4.10724E+01-6.96223E+02 2.72503E+04 7.22866E-09 1.34869E-08
 -1       612 2.45918E+04-2.71087E+01-3.30974E+02 2.38460E+04-4.26644E-09-3.11093E-09
 -1       613 2.45751E+04-3.69398E+01-1.48289E+02 2.72531E+04-9.07812E-09-5.28689E-09
 -1       614 2.45695E+04-3.34960E+01-3.47093E+01 2.38453E+04 4.29281E-10 1.58479E-10
 -1       615 2.45698E+04-3.54189E+01 6.23113E+01 2.72535E+04 1.28384E-08 4.55589E-09
 -1       616 2.45521E+04-3.03451E+01 1.86703E+02 2.38456E+04 6.89761E-09-1.81112E-08
 -1       617 2.45922E+04 4.38874E+00 4.25916E+02 2.72530E+04 2.73531E-10-1.63259E-08
 -1       618 2.45151E+04 9.24543E+01 8.58480E+02 2.38459E+04 2.94722E-09-8.26276E-10
 -1       619 2.48952E+04 6.68179E+02 1.92777E+03 2.72524E+04 2.26862E-09 1.17182E-08
 -1       620 2.42300E+04 2.12815E+03 3.87476E+03 2.38474E+04 1.28500E-09 1.81672E-08
 -1       621 5.10968E+02 3.01636E+05 3.88884E+03 4.09749E+04 8.49468E-10-2.71120E-09
 -1       622 6.76734E+02 3.02534E+05 3.45046E+03 5.94867E+04 1.15870E-09-6.06224E-09
 -1       623 1.42219E+02 3.01831E+05 4.14529E+03 4.07895E+04 1.41085E-09 7.09406E-10
 -1       624 2.12670E+03 3.03753E+05 8.03525E+03 5.96692E+04 1.45519E-09-2.46473E-09
 -1       625 2.07813E+03 3.00238E+05 1.40409E+04 4.07864E+04 1.35469E-09-8.03448E-09
 -1       626 2.61002E+05 6.14662E+04 5.12283E+03 1.26834E+05-3.31966E-11-3.67618E-09
 -1       627 2.58680E+05 6.28668E+04 2.46866E+03 1.31112E+05-2.57933E-09 2.91755E-09
 -1       628 2.61130E+05 5.91221E+04 1.04406E+03 1.27704E+05-3.99268E-09 2.91948E-09
 -1       629 2.58044E+05 6.21867E+04 5.11017E+02 1.31352E+05-9.03174E-09-1.48458E-09
 -1       630 2.61144E+05 5.90088E+04 2.37148E+02 1.27741E+05-9.63610E-10-8.98194E-09
 -1       631 2.57977E+05 6.21608E+04 1.27751E+02 1.31354E+05 2.20098E-09-9.33346E-09
 -1       632 2.61140E+05 5.90128E+04 8.42994E+01 1.27737E+05 9.63473E-09 1.56597E-08
 -1       633 2.57968E+05 6.21626E+04 9.42702E+01 1.31350E+05 4.54452E-09 8.76685E-09
 -1       634 2.61136E+05 5.90100E+04 1.52662E+02 1.27736E+05 4.89104E-09-3.84921E-09
 -1       635 2.57983E+05 6.21609E+04 3.09107E+02 1.31356E+05 8.11607E-09 1.44610E-09
 -1       636 2.61127E+05 5.90042E+04 6.24341E+02 1.27736E+05 1.04128E-08 5.02678E-09
 -1       637 2.58118E+05 6.22580E+04 1.37283E+03 1.31355E+05 3.38832E-09-2.33426E-08
 -1       638 2.61078E+05 5.93074E+04 2.82067E+03 1.27599E+05-3.86990E-10-2.85763E-09
 -1       639 2.59600E+05 6.43188E+04 6.67385E+03 1.30919E+05-4.96811E-10 3.12648E-08
 -1       640 2.60873E+05 6.54610E+04 1.38494E+04 1.25006E+05 4.39513E-09 1.19405E-08
 -1       656 6.66249E+04-1.70505E+06-1.60828E+05-2.54723E+03-3.63798E-11 1.42188E-09
 -1       657-8.81388E+04-1.77772E+06-1.33236E+05 5.18394E+03-1.14869E-09-5.22607E-09
 -1       658 2.12376E+04-1.72569E+06-8.20564E+04-4.63508E+03-9.41782E-10 3.45878E-09
 -1       659-9.53078E+04-1.78113E+06-1.42658E+05 6.91759E+03-2.15732E-09 6.01731E-09
 -1       660 7.37780E+04-1.70165E+06-1.77025E+05-4.28087E+03-2.43745E-09 1.21418E-08
 -1       661 1.58879E+05 1.66280E+04 1.67438E+04 6.21094E+04-2.49611E-09 6.50107E-09
 -1       662 1.68344E+05 2.90293E+04 1.12842E+04 5.83547E+04 2.81017E-09-3.03758E-08
 -1       663 1.62168E+05 2.19997E+04 3.94648E+03 6.11549E+04-1.19439E-09-1.43737E-08
 -1       664 1.64530E+05 2.27476E+04 2.36082E+03 5.95207E+04 3.26850E-11-5.12628E-09
 -1       665 1.62667E+05 2.27333E+04 9.31326E+02 6.10093E+04 3.38548E-09 7.49074E-09
 -1       666 1.63940E+05 2.19088E+04 5.45152E+02 5.97107E+04 4.97573E-09-8.76930E-10
 -1       667 1.62754E+05 2.28167E+04 2.89744E+02 6.09727E+04 1.02642E-09-1.23039E-09
 -1       668 1.63843E+05 2.18489E+04 2.95661E+02 5.97638E+04-6.17170E-09-1.50302E-08
 -1       669 1.62762E+05 2.27915E+04 4.00634E+02 6.09564E+04-2.10406E-10 1.94981E-08
 -1       670 1.63941E+05 2.20665E+04 8.72717E+02 5.97668E+04-9.73802E-09 6.76475E-09
 -1       671 1.62657E+05 2.26036E+04 1.54968E+03 6.09677E+04 7.10656E-10-1.79306E-08
 -1       672 1.64844E+05 2.35742E+04 3.96492E+03 5.95480E+04 3.33048E-09-5.17616E-09
 -1       673 1.61864E+05 2.13220E+04 6.64460E+03 6.11606E+04 1.03319E-09-3.80624E-09
 -1       674 1.71168E+05 3.42495E+04 1.90022E+04 5.76901E+04-3.30340E-09 1.21179E-08
 -1       675 1.56373E+05 1.22272E+04 2.82059E+04 6.27135E+04-2.40289E-09-1.06284E-08
 -1       676 2.41370E+01-2.96186E+05-1.11472E+03-1.36694E+02 1.84406E-09 6.07667E-10
 -1       677-2.94884E+02-2.96455E+05-2.04012E+03 2.73167E+02 8.93135E-09-4.14057E-09
 -1       678 1.97772E+02-2.95994E+05-3.60643E+03-1.36384E+02 5.09090E-10 4.15356E-09
 -1       679-3.60650E+03-2.98632E+05-8.56738E+03 2.71987E+02 9.93441E-09 5.79718E-09
 -1       680 2.15328E+03-2.94010E+05-1.38077E+04-1.34006E+02-1.57343E-10 7.30154E-11
 -1       771-3.06591E+06-7.47117E+05-1.64647E+05-1.46687E+06-2.67755E-08-2.84635E-08
 -1       772-2.98876E+06-8.35724E+05-8.48702E+04-1.56932E+06-1.57161E-08 7.31598E-09
 -1       773-3.09724E+06-7.22674E+05-4.32980E+04-1.48128E+06-1.43773E-08 5.84987E-09
 -1       774-2.97934E+06-8.17386E+05-1.93100E+04-1.59502E+06 2.55532E-08-5.82077E-11
 -1       775-3.11364E+06-7.11166E+05-1.44659E+04-1.48830E+06-8.64384E-09-5.09317E-10
 -1       776-2.99163E+06-8.14380E+05-5.40596E+03-1.61446E+06-9.25502E-09 4.32192E-09
 -1       777-3.12787E+06-7.00893E+05-6.39910E+03-1.49449E+06 6.69388E-10 4.75848E-09
 -1       778-3.00447E+06-8.11579E+05-1.80784E+03-1.63117E+06-4.88944E-09 8.94943E-09
 -1       779-3.14010E+06-6.91918E+05-3.20032E+03-1.49978E+06-1.44937E-08-4.32192E-09
 -1       780-3.01578E+06-8.08904E+05-5.30857E+02-1.64478E+06-1.81244E-08 3.24144E-09
 -1       781-3.14983E+06-6.84682E+05-1.24496E+03-1.50392E+06-3.90137E-08 3.43971E-09
 -1       782-3.02450E+06-8.06632E+05 4.45259E+02-1.65483E+06-4.88944E-08-1.53514E-08
 -1       783-3.15668E+06-6.79654E+05 6.91429E+02-1.50682E+06-9.64064E-09-1.62659E-08
 -1       784-3.02933E+06-8.04363E+05 2.87723E+03-1.66103E+06-2.23081E-08 7.40329E-10
 -1       785-3.16072E+06-6.76657E+05 5.07788E+03-1.50866E+06-3.92101E-08 6.08452E-09
 -1       786 1.24262E+05-9.79206E+03 2.26549E+04-3.22592E+02 6.70784E-10 1.90885E-08
 -1       787 1.34088E+05 1.13370E+04 1.60274E+04-1.35831E+02 6.36791E-09 8.12429E-09
 -1       788 1.28051E+05-1.53444E+03 5.86132E+03-2.87416E+02 2.63453E-09 2.08706E-09
 -1       789 1.29674E+05 1.77608E+03 3.67955E+03-1.89728E+02-3.02250E-10-3.87718E-09
 -1       790 1.28676E+05-2.38912E+02 1.48984E+03-2.68712E+02-3.99390E-09 1.55262E-08
 -1       791 1.28943E+05 2.76437E+02 8.60604E+02-2.21729E+02-6.38496E-09 5.79490E-09
 -1       792 1.28782E+05-3.59228E+01 3.64903E+02-2.55417E+02-3.95308E-09-5.17942E-09
 -1       793 1.28816E+05 3.80590E+01 1.82379E+02-2.46743E+02-2.41918E-10-8.84012E-09
 -1       794 1.28803E+05-6.84952E-01 4.83357E+01-2.43698E+02 3.84837E-09-6.95793E-09
 -1       795 1.28780E+05-2.67436E+01-5.54675E+01-2.71210E+02-4.98089E-09 3.13844E-09
 -1       796 1.28819E+05 2.88436E+01-1.58923E+02-2.30950E+02 4.21360E-09 2.37586E-08
 -1       797 1.28687E+05-2.15399E+02-4.37421E+02-3.00506E+02 3.29380E-09 1.50586E-08
 -1       798 1.28896E+05 1.87828E+02-7.10691E+02-2.14401E+02 2.54891E-09 2.10431E-09
 -1       799 1.28147E+05-1.38443E+03-1.95548E+03-3.41498E+02 6.48082E-09 1.96646E-08
 -1       800 1.29358E+05 1.19692E+03-2.76748E+03-1.89960E+02 3.46823E-10 7.54869E-09
 -1       801-1.69297E+05-9.95773E+06-1.38684E+06 1.40526E+06 9.30740E-08-5.32018E-08
 -1       802 7.32041E+05 5.88425E+06 2.16518E+06-1.73379E+06 2.57656E-07-3.43471E-08
 -1       803-5.32804E+05-1.41880E+07-1.87688E+06 8.92795E+05 7.78346E-08 2.05946E-08
 -1       804 2.84607E+05 2.34678E+06 1.52506E+06 6.73191E+05-1.20792E-07-9.90049E-08
 -1       805 1.88442E+05-6.43446E+06-2.83486E+05-9.96095E+05-4.99786E-08-6.76064E-08
 -1       806-3.09020E+05-5.97981E+04-2.28664E+04-1.22475E+05-6.54882E-09 1.03751E-08
 -1       807-3.10817E+05-5.60680E+04-1.12340E+04-1.28026E+05 1.72893E-08 4.69402E-09
 -1       808-3.09648E+05-5.15572E+04-4.76583E+03-1.26370E+05-2.86764E-09 1.02874E-08
 -1       809-3.08455E+05-5.29116E+04-2.33037E+03-1.28302E+05-1.40953E-08 2.06887E-09
 -1       810-3.09743E+05-5.12703E+04-1.06814E+03-1.26543E+05-6.02586E-09 6.99424E-09
 -1       811-3.08272E+05-5.27848E+04-5.31203E+02-1.28267E+05-1.21549E-08-1.44491E-08
 -1       812-3.09757E+05-5.12950E+04-2.68732E+02-1.26542E+05-1.13450E-08-8.96216E-09
 -1       813-3.08247E+05-5.27869E+04-1.74773E+02-1.28248E+05-6.65750E-10-1.64243E-08
 -1       814-3.09750E+05-5.13047E+04-1.73402E+02-1.26538E+05-1.46429E-09-1.21227E-08
 -1       815-3.08251E+05-5.27892E+04-2.79557E+02-1.28240E+05 8.31642E-09-3.32625E-09
 -1       816-3.09729E+05-5.13038E+04-5.29970E+02-1.26534E+05 7.47877E-09 1.88679E-08
 -1       817-3.08340E+05-5.28398E+04-1.13742E+03-1.28229E+05-1.37570E-08 1.00054E-08
 -1       818-3.09660E+05-5.14644E+04-2.31997E+03-1.26458E+05-7.30506E-09-4.24416E-09
 -1       819-3.09610E+05-5.42413E+04-5.45870E+03-1.27928E+05-2.17005E-09-6.76664E-09
 -1       820-3.09222E+05-5.55882E+04-1.11105E+04-1.24697E+05-1.23055E-09-1.67938E-09
 -1       821-3.79129E+05 2.08785E+04-4.86069E+04 2.13487E+03 1.35852E-08 4.76939E-09
 -1       822-3.98820E+05-2.41869E+04-3.41555E+04-4.49635E+03 4.10548E-09 1.93654E-08
 -1       823-3.86586E+05 3.29155E+03-1.25543E+04 3.45933E+03-1.29055E-08-2.54840E-09
 -1       824-3.89814E+05-3.79566E+03-7.85748E+03-5.42241E+03 1.99796E-09 1.02958E-08
 -1       825-3.88142E+05 5.11629E+02-3.29118E+03 3.06106E+03 2.03410E-08 8.60996E-09
 -1       826-3.87368E+05-5.67123E+02-1.74174E+03-3.13432E+03 2.76832E-08 5.59115E-09
 -1       827-3.89007E+05 4.61755E+01-1.19331E+03 1.17109E+03 1.26413E-08 6.75803E-09
 -1       828-3.86652E+05-1.31131E+02-5.81259E+02 1.09371E+03-3.09655E-09 1.18919E-08
 -1       829-3.88844E+05 6.53652E+01-1.18191E+03-1.16700E+03 8.64929E-10-3.85964E-09
 -1       830-3.87720E+05-6.22046E+02-1.88055E+03 4.91692E+03 2.70489E-10 8.37179E-09
 -1       831-3.87962E+05 5.54995E+02-3.37270E+03-2.65214E+03-6.35224E-09-6.39875E-09
 -1       832-3.89894E+05-3.96243E+03-8.16027E+03 6.21206E+03-3.71536E-09-1.36484E-08
 -1       833-3.86687E+05 3.41552E+03-1.30585E+04-2.46219E+03-3.14378E-09-5.74437E-09
 -1       834-3.98877E+05-2.51005E+04-3.53780E+04 4.22563E+03-2.37949E-09-1.20735E-09
 -1       835-3.78962E+05 2.16599E+04-5.04777E+04-6.65636E+02 4.71471E-09 9.38599E-10
 -1       836-1.41473E+03 3.70455E+05 2.29218E+04-1.62026E+04-6.86941E-09 5.09817E-09
 -1       837 4.88649E+03 3.77634E+05 1.93930E+04-3.31070E+04-7.54187E-09-4.11274E-09
 -1       838-5.58233E+02 3.72468E+05 1.97546E+04-1.61310E+04-6.26142E-09 1.39603E-08
 -1       839 1.24306E+04 3.83253E+05 3.73653E+04-3.31595E+04-6.77392E-09 1.15010E-08
 -1       840-3.84307E+03 3.64777E+05 5.95821E+04-1.61560E+04-6.24277E-09-2.24409E-09
 -1       856-5.24154E+04 8.03662E+03-2.11782E+04-3.98197E+02 4.56782E-09 1.05929E-08
 -1       857-6.11404E+04-9.44268E+03-1.45789E+04 5.63890E+03 7.49253E-09-2.63844E-09
 -1       858-5.58706E+04 1.12705E+03-5.49525E+03-4.22362E+02 2.70967E-09-1.09610E-08
 -1       859-5.71751E+04-1.32585E+03-3.31613E+03 5.67486E+03-6.70184E-10 8.90458E-09
 -1       860-5.63869E+04 1.57835E+02-1.38980E+03-4.33891E+02-8.77662E-10 1.11539E-08
 -1       861-5.65813E+04-1.88344E+02-7.64561E+02 5.69056E+03 4.55110E-09 1.98543E-09
 -1       862-5.64676E+04 2.13783E+01-3.17832E+02-4.38045E+02 5.49498E-10-2.09054E-08
 -1       863-5.64823E+04-2.18128E+01-1.15809E+02 5.69297E+03-3.90861E-09-2.50578E-08
 -1       864-5.64863E+04-4.90686E+00 4.71990E+01-4.36300E+02-4.72627E-09-1.21330E-08
 -1       865-5.64265E+04 5.97490E+01 2.55464E+02 5.68302E+03-3.48304E-09-1.03717E-08
 -1       866-5.65212E+04-6.02048E+01 5.14870E+02-4.28091E+02-8.03709E-10 4.11299E-09
 -1       867-5.61843E+04 4.97167E+02 1.26734E+03 5.66073E+03 2.13939E-09 6.14278E-09
 -1       868-5.67236E+04-4.34436E+02 2.10593E+03-4.14012E+02-3.22046E-09-9.07517E-09
 -1       869-5.46404E+04 3.61561E+03 5.60741E+03 5.62406E+03 4.80986E-09-3.05296E-08
 -1       870-5.80574E+04-3.09396E+03 8.13759E+03-3.91314E+02-4.28599E-09-6.41467E-09
 -1       871-5.52386E+03-2.13263E+04-1.95017E+04 1.30489E+05-5.35329E-09 2.05209E-08
 -1       872-1.98608E+03-2.58604E+04-8.16532E+03 1.69199E+05-1.08439E-08 3.17414E-09
 -1       873 4.03371E+02-2.36678E+04 5.91408E+02 1.30202E+05-4.45016E-09 1.48782E-09
 -1       874 3.30597E+03-2.12544E+04 9.78789E+03 1.69228E+05-1.07102E-08 1.99689E-08
 -1       875 6.84984E+03-2.59994E+04 2.20797E+04 1.30441E+05-3.59796E-09 1.04437E-08
 -1       876 2.93981E+05 4.95498E+04 1.51122E+04 1.17977E+05 5.28212E-09-9.76888E-09
 -1       877 2.94980E+05 5.27328E+04 8.07052E+03 1.22313E+05 1.11295E-08 1.15235E-08
 -1       878 2.95394E+05 4.78757E+04 3.38115E+03 1.19215E+05-2.63026E-09-1.08298E-09
 -1       879 2.92925E+05 5.06827E+04 1.68470E+03 1.22415E+05 9.40804E-09-7.72809E-09
 -1       880 2.95495E+05 4.78585E+04 7.84712E+02 1.19266E+05-3.95448E-09 4.17174E-10
 -1       881 2.92789E+05 5.05950E+04 4.19069E+02 1.22391E+05-7.25504E-09 1.17311E-08
 -1       882 2.95504E+05 4.78717E+04 2.68129E+02 1.19268E+05-4.73051E-09-1.47901E-08
 -1       883 2.92779E+05 5.05904E+04 2.88306E+02 1.22384E+05 3.89559E-09-2.69705E-09
 -1       884 2.95498E+05 4.78689E+04 4.58675E+02 1.19268E+05 3.23303E-09-4.79781E-09
 -1       885 2.92816E+05 5.05968E+04 9.22221E+02 1.22395E+05 2.37171E-09-1.42015E-08
 -1       886 2.95462E+05 4.78420E+04 1.85871E+03 1.19264E+05-5.01618E-09-1.89448E-08
 -1       887 2.93142E+05 5.08110E+04 4.06010E+03 1.22442E+05 1.05774E-08-6.87339E-09
 -1       888 2.95205E+05 4.78872E+04 8.18121E+03 1.19134E+05-1.40975E-09-6.99674E-09
 -1       889 2.98013E+05 5.58761E+04 1.95434E+04 1.22293E+05-4.42952E-09-1.53577E-08
 -1       890 2.91866E+05 5.18538E+04 3.66043E+04 1.16021E+05-2.17096E-09 5.36602E-10
 -1       891-8.97901E+01-1.62900E+05-1.99802E+03 2.71825E+04-9.15406E-10-2.26601E-09
 -1       892-1.76065E+02-1.63428E+05-2.14586E+03 4.12775E+04 3.46768E-09 2.47028E-08
 -1       893 4.33516E+01-1.62965E+05-3.03825E+03 2.71899E+04-4.15434E-09 1.06161E-08
 -1       894-1.51181E+03-1.64576E+05-6.28800E+03 4.11248E+04 1.68393E-09 8.34916E-09
 -1       895-1.20061E+03-1.61654E+05-1.10731E+04 2.73370E+04-1.03421E-09 1.05492E-08
 -1       956-3.77470E+05-5.45317E+03-1.34631E+04 3.08616E+04 5.67343E-09 9.29413E-09
 -1       957-3.80112E+05-1.92311E+03-6.91040E+03 3.70880E+04-2.05546E-09-9.74615E-09
 -1       958-3.78680E+05-2.40413E+02-3.11405E+03 3.06938E+04-9.85892E-10-1.25096E-08
 -1       959-3.78877E+05-1.35520E+02-1.59008E+03 3.72837E+04 4.29509E-09-1.45506E-08
 -1       960-3.78798E+05-4.41494E+01-7.75400E+02 3.06765E+04 3.82806E-09 4.68481E-09
 -1       961-3.78797E+05-6.24277E+01-4.11107E+02 3.73041E+04 9.98511E-09 1.51585E-08
 -1       962-3.78826E+05-4.53723E+01-2.35368E+02 3.06736E+04 4.02270E-09 1.33271E-08
 -1       963-3.78797E+05-5.82283E+01-1.88940E+02 3.73078E+04 4.78065E-09 7.38237E-09
 -1       964-3.78832E+05-4.20103E+01-2.29765E+02 3.06729E+04-3.71072E-09 6.71366E-09
 -1       965-3.78809E+05-5.52598E+01-3.97398E+02 3.73071E+04-3.11798E-09-2.00828E-08
 -1       966-3.78815E+05-3.41580E+01-7.46700E+02 3.06744E+04 6.23413E-09 6.88033E-09
 -1       967-3.78899E+05-1.18842E+02-1.53147E+03 3.72927E+04 6.08725E-09-1.31399E-09
 -1       968-3.78711E+05-2.16772E+02-2.99806E+03 3.06870E+04 1.14778E-09 1.00044E-09
 -1       969-3.80100E+05-1.83492E+03-6.65562E+03 3.71443E+04-8.17181E-10-3.99029E-09
 -1       970-3.77554E+05-5.23336E+03-1.29655E+04 3.08143E+04-2.42653E-09-1.26529E-08
 -1       971-3.45654E+05-1.72906E+03-9.31994E+03 1.53937E+04 7.42784E-09-1.50398E-08
 -1       972-3.47898E+05-1.27275E+03-5.07554E+03 2.12907E+04 2.83671E-09 5.07680E-09
 -1       973-3.46693E+05-6.18179E+01-2.27339E+03 1.52724E+04 1.29057E-09 6.05496E-09
 -1       974-3.46828E+05-8.07535E+01-1.17844E+03 2.14280E+04-1.49817E-09 1.50128E-08
 -1       975-3.46775E+05-1.68817E+01-5.89524E+02 1.52600E+04-2.45200E-09-3.18539E-09
 -1       976-3.46767E+05-3.08441E+01-3.40946E+02 2.14438E+04-2.22144E-09-1.28261E-08
 -1       977-3.46792E+05-1.61269E+01-2.48947E+02 1.52566E+04-6.13340E-09-1.69089E-08
 -1       978-3.46772E+05-2.46060E+01-2.93355E+02 2.14487E+04-9.72568E-09 1.86287E-09
 -1       979-3.46791E+05-7.63786E+00-4.73079E+02 1.52552E+04-3.70142E-09-2.74383E-09
 -1       980-3.46808E+05-2.15401E+01-9.14554E+02 2.14496E+04-1.75409E-09 1.28114E-08
 -1       981-3.46762E+05 1.52210E+01-1.77185E+03 1.52557E+04 8.65498E-10-8.16897E-09
 -1       982-3.47051E+05-1.52464E+02-3.66271E+03 2.14430E+04-4.94902E-09 1.59419E-09
 -1       983-3.46539E+05-9.82412E+01-7.11683E+03 1.52617E+04-5.33873E-09-1.07912E-09
 -1       984-3.50474E+05-3.86939E+03-1.59379E+04 2.13573E+04 7.51243E-10-2.05478E-09
 -1       985-3.43317E+05-5.30590E+03-2.92670E+04 1.53333E+04 2.94403E-09-1.61963E-08
 -3
    1PSTEP                        53          27           1          
  100CL  127 6.63542E-01         409                     0   27           1
 -4  DISP        4    1
 -5  D1          1    2    1    0
 -5  D2          1    2    2    0
 -5  D3          1    2    3    0
 -5  ALL         1    2    0    0    1ALL
 -1         1 2.70686E-03 0.00000E+00 0.00000E+00
 -1         2 1.46922E-03 1.45016E-26 0.00000E+00
 -1         3 3.42802E-04-8.08253E-28 0.00000E+00
 -1         5 1.77206E-04-9.11827E-28-3.30872E-24
 -1         8 2.69565E-03-4.06987E-07 0.00000E+00
 -1         9 2.67528E-03-1.53433E-04 0.00000E+00
 -1        10 3.10810E-04-3.45083E-06 6.61744E-24
 -1        12 1.79046E-04 8.09873E-07 1.65436E-24
 -1        15 2.68259E-03-4.32000E-07 0.00000E+00
 -1        16 2.74135E-03-1.55241E-04 0.00000E+00
 -1        17 2.11509E-04-7.86054E-06 0.00000E+00
 -1        18 1.82974E-04 3.43443E-05 0.00000E+00
 -1        19 1.84568E-04 1.61334E-06 0.00000E+00
 -1        20 1.84708E-04-9.79161E-06 0.00000E+00
 -1        21 1.83815E-04-2.52348E-05-3.30872E-24
 -1        24 3.06733E-05-1.20993E-05 0.00000E+00
 -1        25 1.93728E-04 3.45703E-05 0.00000E+00
 -1        26 1.94410E-04 2.23406E-06 0.00000E+00
 -1        27 1.92208E-04-1.33529E-05 0.00000E+00
 -1        28 1.91891E-04-2.58574E-05 0.00000E+00
 -1        32 0.00000E+00 0.00000E+00 0.00000E+00
 -1        33 2.03245E-04 2.98857E-06 0.00000E+00
 -1        34 2.01125E-04-1.34090E-05 0.00000E+00
 -1        35 1.99192E-04-2.62001E-05 0.00000E+00
 -1        51 2.70612E-03-8.51718E-08-3.30872E-24
 -1        52 2.70476E-03-1.51955E-07-3.30872E-24
 -1        53 2.70289E-03-2.15298E-07 0.00000E+00
 -1        54 2.70067E-03-2.77448E-07 0.00000E+00
 -1        55 2.69821E-03-3.40174E-07-4.13590E-25
 -1        56 2.69909E-03 8.67733E-06 0.00000E+00
 -1        57 2.68374E-03 3.60413E-05-5.29396E-23
 -1        58 2.66297E-03 7.65657E-05-1.05879E-22
 -1        59 2.63945E-03 1.23469E-04-5.29396E-23
 -1        60 2.61658E-03 1.68870E-04 0.00000E+00
 -1        61 2.59761E-03 2.05006E-04-5.29396E-23
 -1        62 2.58489E-03 2.25768E-04-1.05879E-22
 -1        63 2.57998E-03 2.26411E-04 5.29396E-23
 -1        64 2.58282E-03 2.05884E-04-1.05879E-22
 -1        65 2.59261E-03 1.65131E-04-5.29396E-23
 -1        66 2.60745E-03 1.08938E-04 0.00000E+00
 -1        67 2.62514E-03 4.36019E-05 5.29396E-23
 -1        68 2.64316E-03-2.28014E-05 1.05879E-22
 -1        69 2.65900E-03-8.20857E-05 5.29396E-23
 -1        70 2.67035E-03-1.27451E-04 5.29396E-23
 -1        86 1.54456E-03-4.99753E-06 5.29396E-23
 -1        87 1.76355E-03-3.05915E-05-1.32349E-23
 -1        88 2.05832E-03-7.44166E-05 0.00000E+00
 -1        89 2.35739E-03-1.19538E-04 0.00000E+00
 -1        90 2.58679E-03-1.47350E-04-5.29396E-23
 -1       121 3.41904E-04-5.57358E-07 0.00000E+00
 -1       122 3.39212E-04-1.11781E-06 6.61744E-24
 -1       123 3.34736E-04-1.68441E-06 1.32349E-23
 -1       124 3.28494E-04-2.26020E-06 0.00000E+00
 -1       125 3.20508E-04-2.84783E-06 1.32349E-23
 -1       191 1.77257E-04 1.35042E-07-2.48154E-24
 -1       192 1.77410E-04 2.70073E-07 1.65436E-24
 -1       193 1.77666E-04 4.05084E-07-2.48154E-24
 -1       194 1.78024E-04 5.40063E-07-1.24077E-24
 -1       195 1.78484E-04 6.74996E-07-1.65436E-24
 -1       251 2.69527E-03 1.17966E-05 0.00000E+00
 -1       252 2.69446E-03 4.38276E-05 3.30872E-24
 -1       253 2.69319E-03 8.88572E-05 0.00000E+00
 -1       254 2.69164E-03 1.39888E-04 3.30872E-24
 -1       255 2.69021E-03 1.88299E-04-6.61744E-24
 -1       256 2.68924E-03 2.25502E-04 0.00000E+00
 -1       257 2.68872E-03 2.45911E-04 0.00000E+00
 -1       258 2.68840E-03 2.44160E-04 0.00000E+00
 -1       259 2.68782E-03 2.20563E-04 0.00000E+00
 -1       260 2.68653E-03 1.75736E-04 3.30872E-24
 -1       261 2.68450E-03 1.15759E-04 1.32349E-23
 -1       262 2.68192E-03 4.69024E-05-6.61744E-24
 -1       263 2.67932E-03-2.21739E-05-1.32349E-23
 -1       264 2.67725E-03-8.28071E-05 0.00000E+00
 -1       265 2.67592E-03-1.28625E-04 0.00000E+00
 -1       266 2.69347E-03-4.16834E-07 0.00000E+00
 -1       267 2.69130E-03-4.20310E-07 0.00000E+00
 -1       268 2.68912E-03-4.24191E-07 8.27181E-25
 -1       269 2.68694E-03-4.26876E-07-2.06795E-25
 -1       270 2.68477E-03-4.29533E-07 0.00000E+00
 -1       271 2.69459E-03 5.89021E-07-1.32349E-23
 -1       272 2.69422E-03-2.95423E-07 6.61744E-24
 -1       273 2.69452E-03-2.99876E-06-1.32349E-23
 -1       274 2.69547E-03-7.45295E-06 1.32349E-23
 -1       275 2.69703E-03-1.35732E-05 0.00000E+00
 -1       276 2.69918E-03-2.12627E-05 0.00000E+00
 -1       277 2.70185E-03-3.04112E-05-2.64698E-23
 -1       278 2.70502E-03-4.08971E-05 0.00000E+00
 -1       279 2.70862E-03-5.25875E-05 0.00000E+00
 -1       280 2.71260E-03-6.53401E-05-1.32349E-23
 -1       281 2.71692E-03-7.90034E-05 0.00000E+00
 -1       282 2.72150E-03-9.34191E-05 0.00000E+00
 -1       283 2.72630E-03-1.08422E-04 0.00000E+00
 -1       284 2.73125E-03-1.23842E-04-6.61744E-24
 -1       285 2.73628E-03-1.39508E-04 0.00000E+00
 -1       301 2.68731E-03-1.53769E-04-6.61744E-24
 -1       302 2.69771E-03-1.54059E-04-3.30872E-24
 -1       303 2.70740E-03-1.54338E-04-2.64698E-23
 -1       304 2.71728E-03-1.54618E-04-6.61744E-24
 -1       305 2.72830E-03-1.54911E-04 0.00000E+00
 -1       306 2.71320E-03-3.08149E-04-1.05879E-22
 -1       307 2.77707E-03-7.22386E-04 0.00000E+00
 -1       308 2.82361E-03-1.32834E-03-1.05879E-22
 -1       309 2.84702E-03-2.03033E-03 0.00000E+00
 -1       310 2.87770E-03-2.70284E-03 0.00000E+00
 -1       311 2.93678E-03-3.22289E-03 0.00000E+00
 -1       312 2.99509E-03-3.50964E-03 2.11758E-22
 -1       313 2.99221E-03-3.52462E-03 0.00000E+00
 -1       314 2.85436E-03-3.27924E-03 1.05879E-22
 -1       315 2.54022E-03-2.83747E-03 5.29396E-23
 -1       316 2.06738E-03-2.27583E-03 0.00000E+00
 -1       317 1.50105E-03-1.66387E-03 0.00000E+00
 -1       318 9.55107E-04-1.06256E-03 0.00000E+00
 -1       319 5.37414E-04-5.37039E-04 1.58819E-22
 -1       320 2.91978E-04-1.61325E-04-1.05879E-22
 -1       336 2.99212E-04-4.11734E-06 0.00000E+00
 -1       337 2.85539E-04-4.80956E-06 0.00000E+00
 -1       338 2.69852E-04-5.52968E-06 1.32349E-23
 -1       339 2.52229E-04-6.27849E-06 0.00000E+00
 -1       340 2.32750E-04-7.06044E-06 1.32349E-23
 -1       406 1.79711E-04 9.44672E-07 2.48154E-24
 -1       407 1.80478E-04 1.07936E-06 1.24077E-24
 -1       408 1.81347E-04 1.21388E-06 4.13590E-25
 -1       409 1.82319E-04 1.34806E-06 1.24077E-24
 -1       410 1.83393E-04 1.48163E-06 1.24077E-24
 -1       521 2.77984E-03-3.19156E-04 0.00000E+00
 -1       522 2.84192E-03-7.53715E-04 0.00000E+00
 -1       523 2.88194E-03-1.38768E-03 0.00000E+00
 -1       524 2.89599E-03-2.11860E-03 5.29396E-23
 -1       525 2.91859E-03-2.81804E-03-1.05879E-22
 -1       526 2.97400E-03-3.36044E-03 0.00000E+00
 -1       527 3.03186E-03-3.65803E-03 0.00000E+00
 -1       528 3.02674E-03-3.67134E-03 0.00000E+00
 -1       529 2.87693E-03-3.41174E-03-2.11758E-22
 -1       530 2.53877E-03-2.95119E-03 5.29396E-23
 -1       531 2.03063E-03-2.37006E-03 0.00000E+00
 -1       532 1.42417E-03-1.74058E-03 0.00000E+00
 -1       533 8.38760E-04-1.12111E-03 1.05879E-22
 -1       534 3.87496E-04-5.74492E-04-5.29396E-23
 -1       535 1.20691E-04-1.79072E-04 0.00000E+00
 -1       536 2.10755E-04 2.70517E-05 0.00000E+00
 -1       537 2.08838E-04 8.74675E-05 0.00000E+00
 -1       538 2.05877E-04 1.64124E-04 3.30872E-24
 -1       539 2.02384E-04 2.47676E-04-1.65436E-24
 -1       540 1.99240E-04 3.26626E-04 3.30872E-24
 -1       541 1.97197E-04 3.89499E-04 1.65436E-24
 -1       542 1.96254E-04 4.29546E-04 3.30872E-24
 -1       543 1.96029E-04 4.40165E-04-1.65436E-24
 -1       544 1.95707E-04 4.22130E-04 3.30872E-24
 -1       545 1.94536E-04 3.76435E-04 0.00000E+00
 -1       546 1.92353E-04 3.11203E-04-3.30872E-24
 -1       547 1.89398E-04 2.34677E-04-1.65436E-24
 -1       548 1.86470E-04 1.58528E-04 0.00000E+00
 -1       549 1.84358E-04 9.44263E-05-1.65436E-24
 -1       550 1.83260E-04 5.03980E-05 0.00000E+00
 -1       551 1.86312E-04-8.43229E-06 0.00000E+00
 -1       552 1.57869E-04-9.08445E-06 0.00000E+00
 -1       553 1.27123E-04-9.79884E-06 6.61744E-24
 -1       554 9.50360E-05-1.05544E-05 3.30872E-24
 -1       555 6.25674E-05-1.13235E-05 0.00000E+00
 -1       556 2.03863E-04 1.16905E-05 0.00000E+00
 -1       557 1.97685E-04 2.75471E-05 0.00000E+00
 -1       558 1.92842E-04 3.99971E-05 0.00000E+00
 -1       559 1.89200E-04 4.93509E-05 0.00000E+00
 -1       560 1.86629E-04 5.59193E-05 0.00000E+00
 -1       561 1.85002E-04 6.00154E-05 0.00000E+00
 -1       562 1.84193E-04 6.19540E-05 0.00000E+00
 -1       563 1.84079E-04 6.20505E-05 0.00000E+00
 -1       564 1.84537E-04 6.06212E-05 0.00000E+00
 -1       565 1.85446E-04 5.79832E-05 0.00000E+00
 -1       566 1.86688E-04 5.44541E-05 0.00000E+00
 -1       567 1.88142E-04 5.03519E-05 0.00000E+00
 -1       568 1.89691E-04 4.59947E-05 0.00000E+00
 -1       569 1.91217E-04 4.17007E-05 0.00000E+00
 -1       570 1.92601E-04 3.77880E-05 0.00000E+00
 -1       571 1.83071E-04 3.22208E-05-1.65436E-24
 -1       572 1.83169E-04 3.00315E-05 4.13590E-25
 -1       573 1.83269E-04 2.77921E-05 3.30872E-24
 -1       574 1.83368E-04 2.55190E-05-8.27181E-25
 -1       575 1.83468E-04 2.32287E-05-3.30872E-24
 -1       576 1.83567E-04 2.09376E-05 1.65436E-24
 -1       577 1.83667E-04 1.86622E-05 3.30872E-24
 -1       578 1.83766E-04 1.64190E-05 0.00000E+00
 -1       579 1.83866E-04 1.42246E-05 0.00000E+00
 -1       580 1.83966E-04 1.20956E-05-3.30872E-24
 -1       581 1.84066E-04 1.00483E-05-6.61744E-24
 -1       582 1.84166E-04 8.09944E-06 0.00000E+00
 -1       583 1.84267E-04 6.26536E-06 6.61744E-24
 -1       584 1.84367E-04 4.56245E-06 0.00000E+00
 -1       585 1.84468E-04 3.00684E-06 0.00000E+00
 -1       586 1.84725E-04 3.43841E-05 0.00000E+00
 -1       587 1.86435E-04 3.44233E-05-8.27181E-25
 -1       588 1.88147E-04 3.44622E-05 0.00000E+00
 -1       589 1.89905E-04 3.45004E-05 0.00000E+00
 -1       590 1.91751E-04 3.45373E-05 0.00000E+00
 -1       591 1.83702E-04 3.23145E-05-1.03398E-25
 -1       592 1.84433E-04 3.02647E-05-2.06795E-25
 -1       593 1.85168E-04 2.82008E-05-8.27181E-25
 -1       594 1.85907E-04 2.61276E-05 4.13590E-25
 -1       595 1.86647E-04 2.40497E-05 0.00000E+00
 -1       596 1.87388E-04 2.19719E-05-4.13590E-25
 -1       597 1.88126E-04 1.98990E-05-8.27181E-25
 -1       598 1.88861E-04 1.78355E-05 4.13590E-25
 -1       599 1.89591E-04 1.57862E-05 0.00000E+00
 -1       600 1.90313E-04 1.37558E-05-4.13590E-25
 -1       601 1.91027E-04 1.17489E-05 0.00000E+00
 -1       602 1.91730E-04 9.77035E-06-4.13590E-25
 -1       603 1.92421E-04 7.82472E-06-4.13590E-25
 -1       604 1.93099E-04 5.91686E-06 1.55096E-25
 -1       605 1.93761E-04 4.05135E-06 0.00000E+00
 -1       606 1.84582E-04 4.53293E-07 0.00000E+00
 -1       607 1.84591E-04-6.20807E-07 0.00000E+00
 -1       608 1.84600E-04-1.61401E-06 0.00000E+00
 -1       609 1.84609E-04-2.53199E-06 0.00000E+00
 -1       610 1.84617E-04-3.38051E-06 0.00000E+00
 -1       611 1.84625E-04-4.16536E-06 0.00000E+00
 -1       612 1.84634E-04-4.89235E-06 0.00000E+00
 -1       613 1.84642E-04-5.56730E-06 0.00000E+00
 -1       614 1.84650E-04-6.19603E-06 1.65436E-24
 -1       615 1.84659E-04-6.78435E-06 8.27181E-25
 -1       616 1.84667E-04-7.33809E-06 0.00000E+00
 -1       617 1.84675E-04-7.86306E-06 0.00000E+00
 -1       618 1.84684E-04-8.36508E-06 0.00000E+00
 -1       619 1.84692E-04-8.84997E-06 2.06795E-25
 -1       620 1.84700E-04-9.32354E-06 0.00000E+00
 -1       621 1.85923E-04 1.71736E-06-1.65436E-24
 -1       622 1.87436E-04 1.82163E-06 8.27181E-25
 -1       623 1.89075E-04 1.92568E-06-1.65436E-24
 -1       624 1.90806E-04 2.02940E-06-8.27181E-25
 -1       625 1.92595E-04 2.13284E-06 3.30872E-24
 -1       626 1.85115E-04 4.89432E-07-3.30872E-24
 -1       627 1.85640E-04-5.71337E-07 0.00000E+00
 -1       628 1.86144E-04-1.57683E-06 0.00000E+00
 -1       629 1.86630E-04-2.53522E-06 3.30872E-24
 -1       630 1.87102E-04-3.45471E-06-3.30872E-24
 -1       631 1.87563E-04-4.34352E-06 0.00000E+00
 -1       632 1.88015E-04-5.20986E-06 0.00000E+00
 -1       633 1.88461E-04-6.06196E-06-1.65436E-24
 -1       634 1.88906E-04-6.90805E-06 0.00000E+00
 -1       635 1.89351E-04-7.75632E-06 1.65436E-24
 -1       636 1.89800E-04-8.61501E-06 3.30872E-24
 -1       637 1.90257E-04-9.49235E-06-1.65436E-24
 -1       638 1.90723E-04-1.03965E-05-1.65436E-24
 -1       639 1.91202E-04-1.13359E-05 0.00000E+00
 -1       640 1.91696E-04-1.23185E-05 1.65436E-24
 -1       656 1.85409E-04-1.03704E-05 0.00000E+00
 -1       657 1.86530E-04-1.09728E-05 6.61744E-24
 -1       658 1.87932E-04-1.15737E-05-1.32349E-23
 -1       659 1.89469E-04-1.21744E-05 6.61744E-24
 -1       660 1.90955E-04-1.27768E-05 6.61744E-24
 -1       661 1.84970E-04-1.03048E-05 0.00000E+00
 -1       662 1.85271E-04-1.09099E-05 0.00000E+00
 -1       663 1.85603E-04-1.16018E-05-1.65436E-24
 -1       664 1.85966E-04-1.23738E-05 8.27181E-25
 -1       665 1.86357E-04-1.32201E-05 0.00000E+00
 -1       666 1.86773E-04-1.41349E-05-8.27181E-25
 -1       667 1.87213E-04-1.51125E-05 0.00000E+00
 -1       668 1.87674E-04-1.61473E-05-8.27181E-25
 -1       669 1.88155E-04-1.72338E-05-1.65436E-24
 -1       670 1.88653E-04-1.83668E-05 8.27181E-25
 -1       671 1.89166E-04-1.95410E-05 0.00000E+00
 -1       672 1.89693E-04-2.07514E-05 8.27181E-25
 -1       673 1.90232E-04-2.19930E-05 0.00000E+00
 -1       674 1.90779E-04-2.32610E-05 0.00000E+00
 -1       675 1.91334E-04-2.45501E-05 0.00000E+00
 -1       676 1.85166E-04-2.53392E-05-3.30872E-24
 -1       677 1.86516E-04-2.54435E-05 0.00000E+00
 -1       678 1.87864E-04-2.55478E-05 0.00000E+00
 -1       679 1.89210E-04-2.56517E-05-1.65436E-24
 -1       680 1.90552E-04-2.57557E-05 3.30872E-24
 -1       771 1.87215E-05 1.46247E-05 0.00000E+00
 -1       772 8.66570E-06 3.65748E-05 0.00000E+00
 -1       773 4.15149E-07 5.39811E-05-5.29396E-23
 -1       774-6.15440E-06 6.71013E-05 0.00000E+00
 -1       775-1.11645E-05 7.62036E-05 5.29396E-23
 -1       776-1.47417E-05 8.15730E-05-2.64698E-23
 -1       777-1.70123E-05 8.35046E-05 0.00000E+00
 -1       778-1.81050E-05 8.23073E-05 2.64698E-23
 -1       779-1.81482E-05 7.82985E-05 0.00000E+00
 -1       780-1.72721E-05 7.18071E-05 7.94093E-23
 -1       781-1.56061E-05 6.31687E-05 5.29396E-23
 -1       782-1.32810E-05 5.27279E-05 2.64698E-23
 -1       783-1.04268E-05 4.08339E-05-5.29396E-23
 -1       784-7.17474E-06 2.78418E-05 0.00000E+00
 -1       785-3.65514E-06 1.41103E-05 5.29396E-23
 -1       786 1.93766E-04 3.23217E-05 0.00000E+00
 -1       787 1.93808E-04 3.01232E-05 0.00000E+00
 -1       788 1.93850E-04 2.79664E-05 0.00000E+00
 -1       789 1.93892E-04 2.58432E-05 8.27181E-25
 -1       790 1.93935E-04 2.37487E-05 1.65436E-24
 -1       791 1.93978E-04 2.16784E-05 0.00000E+00
 -1       792 1.94020E-04 1.96299E-05 1.65436E-24
 -1       793 1.94063E-04 1.76010E-05 0.00000E+00
 -1       794 1.94106E-04 1.55917E-05 0.00000E+00
 -1       795 1.94150E-04 1.36017E-05-8.27181E-25
 -1       796 1.94193E-04 1.16329E-05 0.00000E+00
 -1       797 1.94236E-04 9.68722E-06 0.00000E+00
 -1       798 1.94279E-04 7.76886E-06 0.00000E+00
 -1       799 1.94322E-04 5.88218E-06 0.00000E+00
 -1       800 1.94366E-04 4.03470E-06-1.65436E-24
 -1       801 1.47991E-04 3.10773E-05-2.64698E-23
 -1       802 9.70078E-06 1.93881E-05-2.64698E-23
 -1       803-1.08458E-04 9.78951E-06-5.29396E-23
 -1       804-9.62108E-05 6.81277E-06 0.00000E+00
 -1       805-3.17972E-05 2.67939E-06 0.00000E+00
 -1       806 1.94455E-04 3.22529E-05-1.65436E-24
 -1       807 1.95169E-04 2.99617E-05-1.65436E-24
 -1       808 1.95871E-04 2.77018E-05 0.00000E+00
 -1       809 1.96558E-04 2.54773E-05 1.65436E-24
 -1       810 1.97231E-04 2.32924E-05-3.30872E-24
 -1       811 1.97888E-04 2.11509E-05 0.00000E+00
 -1       812 1.98527E-04 1.90568E-05 0.00000E+00
 -1       813 1.99147E-04 1.70141E-05 0.00000E+00
 -1       814 1.99746E-04 1.50265E-05 0.00000E+00
 -1       815 2.00323E-04 1.30982E-05-8.27181E-25
 -1       816 2.00877E-04 1.12329E-05-1.65436E-24
 -1       817 2.01406E-04 9.43460E-06 1.65436E-24
 -1       818 2.01908E-04 7.70714E-06-1.65436E-24
 -1       819 2.02383E-04 6.05444E-06-8.27181E-25
 -1       820 2.02828E-04 4.48032E-06 0.00000E+00
 -1       821 1.94280E-04-1.28700E-07 0.00000E+00
 -1       822 1.94140E-04-3.65709E-06 0.00000E+00
 -1       823 1.93998E-04-7.91960E-06 0.00000E+00
 -1       824 1.93852E-04-1.24801E-05 0.00000E+00
 -1       825 1.93708E-04-1.68219E-05 0.00000E+00
 -1       826 1.93566E-04-2.04296E-05-1.65436E-24
 -1       827 1.93427E-04-2.29877E-05 0.00000E+00
 -1       828 1.93291E-04-2.41873E-05 0.00000E+00
 -1       829 1.93155E-04-2.40894E-05-3.30872E-24
 -1       830 1.93018E-04-2.27629E-05 0.00000E+00
 -1       831 1.92881E-04-2.06112E-05 0.00000E+00
 -1       832 1.92742E-04-1.80430E-05 0.00000E+00
 -1       833 1.92604E-04-1.55803E-05-3.30872E-24
 -1       834 1.92469E-04-1.37446E-05 0.00000E+00
 -1       835 1.92334E-04-1.28870E-05-8.27181E-25
 -1       836 1.96095E-04 2.35918E-06-3.30872E-24
 -1       837 1.97653E-04 2.48745E-06-1.65436E-24
 -1       838 1.99115E-04 2.61566E-06-3.30872E-24
 -1       839 2.00513E-04 2.74316E-06 0.00000E+00
 -1       840 2.01880E-04 2.87051E-06 8.27181E-25
 -1       856 1.92191E-04-1.44096E-05 0.00000E+00
 -1       857 1.92172E-04-1.53306E-05 0.00000E+00
 -1       858 1.92153E-04-1.61368E-05 0.00000E+00
 -1       859 1.92133E-04-1.68494E-05 0.00000E+00
 -1       860 1.92113E-04-1.74897E-05-4.13590E-25
 -1       861 1.92094E-04-1.80790E-05-2.06795E-25
 -1       862 1.92074E-04-1.86386E-05-4.13590E-25
 -1       863 1.92054E-04-1.91899E-05 0.00000E+00
 -1       864 1.92034E-04-1.97541E-05 0.00000E+00
 -1       865 1.92014E-04-2.03528E-05 4.13590E-25
 -1       866 1.91994E-04-2.10072E-05 0.00000E+00
 -1       867 1.91974E-04-2.17385E-05 4.13590E-25
 -1       868 1.91954E-04-2.25681E-05 0.00000E+00
 -1       869 1.91934E-04-2.35171E-05 0.00000E+00
 -1       870 1.91913E-04-2.46066E-05 0.00000E+00
 -1       871 1.93552E-04-1.33578E-05 0.00000E+00
 -1       872 1.95044E-04-1.33661E-05 0.00000E+00
 -1       873 1.96616E-04-1.33751E-05 0.00000E+00
 -1       874 1.98199E-04-1.33849E-05 3.10193E-25
 -1       875 1.99725E-04-1.33952E-05 1.44757E-24
 -1       876 1.92731E-04-1.43951E-05 3.30872E-24
 -1       877 1.93232E-04-1.53704E-05 1.65436E-24
 -1       878 1.93712E-04-1.62869E-05 3.30872E-24
 -1       879 1.94173E-04-1.71518E-05 1.65436E-24
 -1       880 1.94617E-04-1.79727E-05-3.30872E-24
 -1       881 1.95047E-04-1.87569E-05-1.65436E-24
 -1       882 1.95467E-04-1.95117E-05 3.30872E-24
 -1       883 1.95878E-04-2.02446E-05 1.65436E-24
 -1       884 1.96284E-04-2.09628E-05 0.00000E+00
 -1       885 1.96687E-04-2.16737E-05 0.00000E+00
 -1       886 1.97090E-04-2.23846E-05 0.00000E+00
 -1       887 1.97496E-04-2.31029E-05 0.00000E+00
 -1       888 1.97907E-04-2.38360E-05-3.30872E-24
 -1       889 1.98326E-04-2.45914E-05 0.00000E+00
 -1       890 1.98755E-04-2.53763E-05 0.00000E+00
 -1       891 1.93250E-04-2.59150E-05 1.65436E-24
 -1       892 1.94586E-04-2.59727E-05 0.00000E+00
 -1       893 1.95873E-04-2.60303E-05-8.27181E-25
 -1       894 1.97086E-04-2.60877E-05-4.13590E-25
 -1       895 1.98201E-04-2.61448E-05-4.13590E-25
 -1       956 2.03115E-04 1.67162E-06 1.65436E-24
 -1       957 2.02982E-04 4.46294E-07 0.00000E+00
 -1       958 2.02850E-04-6.98152E-07 0.00000E+00
 -1       959 2.02717E-04-1.77306E-06 0.00000E+00
 -1       960 2.02584E-04-2.78984E-06 0.00000E+00
 -1       961 2.02451E-04-3.75990E-06 0.00000E+00
 -1       962 2.02318E-04-4.69468E-06 0.00000E+00
 -1       963 2.02185E-04-5.60564E-06 0.00000E+00
 -1       964 2.02052E-04-6.50424E-06 3.30872E-24
 -1       965 2.01919E-04-7.40191E-06 1.65436E-24
 -1       966 2.01786E-04-8.31012E-06 0.00000E+00
 -1       967 2.01654E-04-9.24033E-06-1.65436E-24
 -1       968 2.01521E-04-1.02040E-05 0.00000E+00
 -1       969 2.01388E-04-1.12124E-05 3.30872E-24
 -1       970 2.01256E-04-1.22772E-05 3.30872E-24
 -1       971 2.01005E-04-1.45404E-05 0.00000E+00
 -1       972 2.00884E-04-1.55772E-05 1.65436E-24
 -1       973 2.00763E-04-1.65297E-05-3.30872E-24
 -1       974 2.00641E-04-1.74089E-05 0.00000E+00
 -1       975 2.00519E-04-1.82255E-05 3.30872E-24
 -1       976 2.00398E-04-1.89905E-05 0.00000E+00
 -1       977 2.00276E-04-1.97148E-05 0.00000E+00
 -1       978 2.00155E-04-2.04092E-05 0.00000E+00
 -1       979 2.00034E-04-2.10847E-05 3.30872E-24
 -1       980 1.99912E-04-2.17522E-05-1.65436E-24
 -1       981 1.99791E-04-2.24226E-05-3.30872E-24
 -1       982 1.99669E-04-2.31069E-05 0.00000E+00
 -1       983 1.99548E-04-2.38159E-05 3.30872E-24
 -1       984 1.99427E-04-2.45605E-05-1.65436E-24
 -1       985 1.99307E-04-2.53517E-05-3.30872E-24
 -3
    1PSTEP                        54          27           1          
  100CL  127 6.63542E-01         409                     0   27           1
 -4  FORC        4    1
 -5  F1          1    2    1    0
 -5  F2          1    2    2    0
 -5  F3          1    2    3    0
 -5  ALL         1    2    0    0    1ALL
 -1         1 3.68027E-04 0.00000E+00 0.00000E+00
 -1         2 0.00000E+00 0.00000E+00 0.00000E+00
 -1         3 0.00000E+00 0.00000E+00 0.00000E+00
 -1         5 0.00000E+00 0.00000E+00 0.00000E+00
 -1         8 1.50406E-05-1.32771E-05 0.00000E+00
 -1         9-1.09538E-03 2.00973E-04 0.00000E+00
 -1        10-3.13355E-09 1.88644E-08 0.00000E+00
 -1        12 0.00000E+00 0.00000E+00 0.00000E+00
 -1        15 0.00000E+00 0.00000E+00 0.00000E+00
 -1        16-1.69257E-04-1.69812E-03 0.00000E+00
 -1        17-2.18675E-05 1.21650E-05 0.00000E+00
 -1        18 2.04560E-07 1.68952E-07 0.00000E+00
 -1        19 5.81281E-08-1.32667E-08 0.00000E+00
 -1        20-9.61830E-08 1.06809E-08 0.00000E+00
 -1        21 0.00000E+00 3.82590E-08 0.00000E+00
 -1        24-6.26725E-05 1.98370E-05 0.00000E+00
 -1        25 1.12474E-07-1.04845E-07 0.00000E+00
 -1        26-6.22195E-08-4.44032E-08 0.00000E+00
 -1        27-3.19970E-08 6.10475E-08 0.00000E+00
 -1        28-2.98265E-08 1.81990E-08 0.00000E+00
 -1        32 0.00000E+00 0.00000E+00 0.00000E+00
 -1        33-4.15895E-09-7.82502E-08 0.00000E+00
 -1        34-2.27627E-08-8.07059E-08 0.00000E+00
 -1        35-1.35352E-07-8.70161E-08 0.00000E+00
 -1        51 0.00000E+00 0.00000E+00 0.00000E+00
 -1        52 0.00000E+00 0.00000E+00 0.00000E+00
 -1        53 0.00000E+00 0.00000E+00 0.00000E+00
 -1        54 0.00000E+00 0.00000E+00 0.00000E+00
 -1        55 0.00000E+00 0.00000E+00 0.00000E+00
 -1        56 0.00000E+00 0.00000E+00 0.00000E+00
 -1        57 0.00000E+00 0.00000E+00 0.00000E+00
 -1        58 0.00000E+00 0.00000E+00 0.00000E+00
 -1        59 0.00000E+00 0.00000E+00 0.00000E+00
 -1        60 0.00000E+00 0.00000E+00 0.00000E+00
 -1        61 0.00000E+00 0.00000E+00 0.00000E+00
 -1        62 0.00000E+00 0.00000E+00 0.00000E+00
 -1        63 0.00000E+00 0.00000E+00 0.00000E+00
 -1        64 0.00000E+00 0.00000E+00 0.00000E+00
 -1        65 0.00000E+00 0.00000E+00 0.00000E+00
 -1        66 0.00000E+00 0.00000E+00 0.00000E+00
 -1        67 0.00000E+00 0.00000E+00 0.00000E+00
 -1        68 0.00000E+00 0.00000E+00 0.00000E+00
 -1        69 0.00000E+00 0.00000E+00 0.00000E+00
 -1        70 0.00000E+00 0.00000E+00 0.00000E+00
 -1        86 0.00000E+00 0.00000E+00 0.00000E+00
 -1        87 0.00000E+00 0.00000E+00 0.00000E+00
 -1        88 0.00000E+00 0.00000E+00 0.00000E+00
 -1        89 0.00000E+00 0.00000E+00 0.00000E+00
 -1        90 0.00000E+00 0.00000E+00 0.00000E+00
 -1       121 0.00000E+00 0.00000E+00 0.00000E+00
 -1       122 0.00000E+00 0.00000E+00 0.00000E+00
 -1       123 0.00000E+00 0.00000E+00 0.00000E+00
 -1       124 0.00000E+00 0.00000E+00 0.00000E+00
 -1       125 0.00000E+00 0.00000E+00 0.00000E+00
 -1       191 0.00000E+00 0.00000E+00 0.00000E+00
 -1       192 0.00000E+00 0.00000E+00 0.00000E+00
 -1       193 0.00000E+00 0.00000E+00 0.00000E+00
 -1       194 0.00000E+00 0.00000E+00 0.00000E+00
 -1       195 0.00000E+00 0.00000E+00 0.00000E+00
 -1       251 0.00000E+00 0.00000E+00 0.00000E+00
 -1       252 0.00000E+00 0.00000E+00 0.00000E+00
 -1       253 0.00000E+00 0.00000E+00 0.00000E+00
 -1       254 0.00000E+00 0.00000E+00 0.00000E+00
 -1       255 0.00000E+00 0.00000E+00 0.00000E+00
 -1       256 0.00000E+00 0.00000E+00 0.00000E+00
 -1       257 0.00000E+00 0.00000E+00 0.00000E+00
 -1       258 0.00000E+00 0.00000E+00 0.00000E+00
 -1       259 0.00000E+00 0.00000E+00 0.00000E+00
 -1       260 0.00000E+00 0.00000E+00 0.00000E+00
 -1       261 0.00000E+00 0.00000E+00 0.00000E+00
 -1       262 0.00000E+00 0.00000E+00 0.00000E+00
 -1       263 0.00000E+00 0.00000E+00 0.00000E+00
 -1       264 0.00000E+00 0.00000E+00 0.00000E+00
 -1       265 0.00000E+00 0.00000E+00 0.00000E+00
 -1       266 0.00000E+00 0.00000E+00 0.00000E+00
 -1       267 0.00000E+00 0.00000E+00 0.00000E+00
 -1       268 0.00000E+00 0.00000E+00 0.00000E+00
 -1       269 0.00000E+00 0.00000E+00 0.00000E+00
 -1       270 0.00000E+00 0.00000E+00 0.00000E+00
 -1       271 0.00000E+00 0.00000E+00 0.00000E+00
 -1       272 0.00000E+00 0.00000E+00 0.00000E+00
 -1       273 0.00000E+00 0.00000E+00 0.00000E+00
 -1       274 0.00000E+00 0.00000E+00 0.00000E+00
 -1       275 0.00000E+00 0.00000E+00 0.00000E+00
 -1       276 0.00000E+00 0.00000E+00 0.00000E+00
 -1       277 0.00000E+00 0.00000E+00 0.00000E+00
 -1       278 0.00000E+00 0.00000E+00 0.00000E+00
 -1       279 0.00000E+00 0.00000E+00 0.00000E+00
 -1       280 0.00000E+00 0.00000E+00 0.00000E+00
 -1       281 0.00000E+00 0.00000E+00 0.00000E+00
 -1       282 0.00000E+00 0.00000E+00 0.00000E+00
 -1       283 0.00000E+00 0.00000E+00 0.00000E+00
 -1       284 0.00000E+00 0.00000E+00 0.00000E+00
 -1       285 0.00000E+00 0.00000E+00 0.00000E+00
 -1       301 0.00000E+00 0.00000E+00 0.00000E+00
 -1       302 0.00000E+00 0.00000E+00 0.00000E+00
 -1       303 0.00000E+00 0.00000E+00 0.00000E+00
 -1       304 0.00000E+00 0.00000E+00 0.00000E+00
 -1       305 0.00000E+00 0.00000E+00 0.00000E+00
 -1       306 0.00000E+00 0.00000E+00 0.00000E+00
 -1       307 0.00000E+00 0.00000E+00 0.00000E+00
 -1       308 0.00000E+00 0.00000E+00 0.00000E+00
 -1       309 0.00000E+00 0.00000E+00 0.00000E+00
 -1       310 0.00000E+00 0.00000E+00 0.00000E+00
 -1       311 0.00000E+00 0.00000E+00 0.00000E+00
 -1       312 0.00000E+00 0.00000E+00 0.00000E+00
 -1       313 0.00000E+00 0.00000E+00 0.00000E+00
 -1       314 0.00000E+00 0.00000E+00 0.00000E+00
 -1       315 0.00000E+00 0.00000E+00 0.00000E+00
 -1       316 0.00000E+00 0.00000E+00 0.00000E+00
 -1       317 0.00000E+00 0.00000E+00 0.00000E+00
 -1       318 0.00000E+00 0.00000E+00 0.00000E+00
 -1       319 0.00000E+00 0.00000E+00 0.00000E+00
 -1       320 0.00000E+00 0.00000E+00 0.00000E+00
 -1       336 0.00000E+00 0.00000E+00 0.00000E+00
 -1       337 0.00000E+00 0.00000E+00 0.00000E+00
 -1       338 0.00000E+00 0.00000E+00 0.00000E+00
 -1       339 0.00000E+00 0.00000E+00 0.00000E+00
 -1       340 0.00000E+00 0.00000E+00 0.00000E+00
 -1       406 0.00000E+00 0.00000E+00 0.00000E+00
 -1       407 0.00000E+00 0.00000E+00 0.00000E+00
 -1       408 0.00000E+00 0.00000E+00 0.00000E+00
 -1       409 0.00000E+00 0.00000E+00 0.00000E+00
 -1       410 0.00000E+00 0.00000E+00 0.00000E+00
 -1       521 0.00000E+00 0.00000E+00 0.00000E+00
 -1       522 0.00000E+00 0.00000E+00 0.00000E+00
 -1       523 0.00000E+00 0.00000E+00 0.00000E+00
 -1       524 0.00000E+00 0.00000E+00 0.00000E+00
 -1       525 0.00000E+00 0.00000E+00 0.00000E+00
 -1       526 0.00000E+00 0.00000E+00 0.00000E+00
 -1       527 0.00000E+00 0.00000E+00 0.00000E+00
 -1       528 0.00000E+00 0.00000E+00 0.00000E+00
 -1       529 0.00000E+00 0.00000E+00 0.00000E+00
 -1       530 0.00000E+00 0.00000E+00 0.00000E+00
 -1       531 0.00000E+00 0.00000E+00 0.00000E+00
 -1       532 0.00000E+00 0.00000E+00 0.00000E+00
 -1       533 0.00000E+00 0.00000E+00 0.00000E+00
 -1       534 0.00000E+00 0.00000E+00 0.00000E+00
 -1       535 0.00000E+00 0.00000E+00 0.00000E+00
 -1       536 0.00000E+00 0.00000E+00 0.00000E+00
 -1       537 0.00000E+00 0.00000E+00 0.00000E+00
 -1       538 0.00000E+00 0.00000E+00 0.00000E+00
 -1       539 0.00000E+00 0.00000E+00 0.00000E+00
 -1       540 0.00000E+00 0.00000E+00 0.00000E+00
 -1       541 0.00000E+00 0.00000E+00 0.00000E+00
 -1       542 0.00000E+00 0.00000E+00 0.00000E+00
 -1       543 0.00000E+00 0.00000E+00 0.00000E+00
 -1       544 0.00000E+00 0.00000E+00 0.00000E+00
 -1       545 0.00000E+00 0.00000E+00 0.00000E+00
 -1       546 0.00000E+00 0.00000E+00 0.00000E+00
 -1       547 0.00000E+00 0.00000E+00 0.00000E+00
 -1       548 0.00000E+00 0.00000E+00 0.00000E+00
 -1       549 0.00000E+00 0.00000E+00 0.00000E+00
 -1       550 0.00000E+00 0.00000E+00 0.00000E+00
 -1       551 0.00000E+00 0.00000E+00 0.00000E+00
 -1       552 0.00000E+00 0.00000E+00 0.00000E+00
 -1       553 0.00000E+00 0.00000E+00 0.00000E+00
 -1       554 0.00000E+00 0.00000E+00 0.00000E+00
 -1       555 0.00000E+00 0.00000E+00 0.00000E+00
 -1       556 0.00000E+00 0.00000E+00 0.00000E+00
 -1       557 0.00000E+00 0.00000E+00 0.00000E+00
 -1       558 0.00000E+00 0.00000E+00 0.00000E+00
 -1       559 0.00000E+00 0.00000E+00 0.00000E+00
 -1       560 0.00000E+00 0.00000E+00 0.00000E+00
 -1       561 0.00000E+00 0.00000E+00 0.00000E+00
 -1       562 0.00000E+00 0.00000E+00 0.00000E+00
 -1       563 0.00000E+00 0.00000E+00 0.00000E+00
 -1       564 0.00000E+00 0.00000E+00 0.00000E+00
 -1       565 0.00000E+00 0.00000E+00 0.00000E+00
 -1       566 0.00000E+00 0.00000E+00 0.00000E+00
 -1       567 0.00000E+00 0.00000E+00 0.00000E+00
 -1       568 0.00000E+00 0.00000E+00 0.00000E+00
 -1       569 0.00000E+00 0.00000E+00 0.00000E+00
 -1       570 0.00000E+00 0.00000E+00 0.00000E+00
 -1       571 0.00000E+00 0.00000E+00 0.00000E+00
 -1       572 0.00000E+00 0.00000E+00 0.00000E+00
 -1       573 0.00000E+00 0.00000E+00 0.00000E+00
 -1       574 0.00000E+00 0.00000E+00 0.00000E+00
 -1       575 0.00000E+00 0.00000E+00 0.00000E+00
 -1       576 0.00000E+00 0.00000E+00 0.00000E+00
 -1       577 0.00000E+00 0.00000E+00 0.00000E+00
 -1       578 0.00000E+00 0.00000E+00 0.00000E+00
 -1       579 0.00000E+00 0.00000E+00 0.00000E+00
 -1       580 0.00000E+00 0.00000E+00 0.00000E+00
 -1       581 0.00000E+00 0.00000E+00 0.00000E+00
 -1       582 0.00000E+00 0.00000E+00 0.00000E+00
 -1       583 0.00000E+00 0.00000E+00 0.00000E+00
 -1       584 0.00000E+00 0.00000E+00 0.00000E+00
 -1       585 0.00000E+00 0.00000E+00 0.00000E+00
 -1       586 0.00000E+00 0.00000E+00 0.00000E+00
 -1       587 0.00000E+00 0.00000E+00 0.00000E+00
 -1       588 0.00000E+00 0.00000E+00 0.00000E+00
 -1       589 0.00000E+00 0.00000E+00 0.00000E+00
 -1       590 0.00000E+00 0.00000E+00 0.00000E+00
 -1       591 0.00000E+00 0.00000E+00 0.00000E+00
 -1       592 0.00000E+00 0.00000E+00 0.00000E+00
 -1       593 0.00000E+00 0.00000E+00 0.00000E+00
 -1       594 0.00000E+00 0.00000E+00 0.00000E+00
 -1       595 0.00000E+00 0.00000E+00 0.00000E+00
 -1       596 0.00000E+00 0.00000E+00 0.00000E+00
 -1       597 0.00000E+00 0.00000E+00 0.00000E+00
 -1       598 0.00000E+00 0.00000E+00 0.00000E+00
 -1       599 0.00000E+00 0.00000E+00 0.00000E+00
 -1       600 0.00000E+00 0.00000E+00 0.00000E+00
 -1       601 0.00000E+00 0.00000E+00 0.00000E+00
 -1       602 0.00000E+00 0.00000E+00 0.00000E+00
 -1       603 0.00000E+00 0.00000E+00 0.00000E+00
 -1       604 0.00000E+00 0.00000E+00 0.00000E+00
 -1       605 0.00000E+00 0.00000E+00 0.00000E+00
 -1       606 0.00000E+00 0.00000E+00 0.00000E+00
 -1       607 0.00000E+00 0.00000E+00 0.00000E+00
 -1       608 0.00000E+00 0.00000E+00 0.00000E+00
 -1       609 0.00000E+00 0.00000E+00 0.00000E+00
 -1       610 0.00000E+00 0.00000E+00 0.00000E+00
 -1       611 0.00000E+00 0.00000E+00 0.00000E+00
 -1       612 0.00000E+00 0.00000E+00 0.00000E+00
 -1       613 0.00000E+00 0.00000E+00 0.00000E+00
 -1       614 0.00000E+00 0.00000E+00 0.00000E+00
 -1       615 0.00000E+00 0.00000E+00 0.00000E+00
 -1       616 0.00000E+00 0.00000E+00 0.00000E+00
 -1       617 0.00000E+00 0.00000E+00 0.00000E+00
 -1       618 0.00000E+00 0.00000E+00 0.00000E+00
 -1       619 0.00000E+00 0.00000E+00 0.00000E+00
 -1       620 0.00000E+00 0.00000E+00 0.00000E+00
 -1       621 0.00000E+00 0.00000E+00 0.00000E+00
 -1       622 0.00000E+00 0.00000E+00 0.00000E+00
 -1       623 0.00000E+00 0.00000E+00 0.00000E+00
 -1       624 0.00000E+00 0.00000E+00 0.00000E+00
 -1       625 0.00000E+00 0.00000E+00 0.00000E+00
 -1       626 0.00000E+00 0.00000E+00 0.00000E+00
 -1       627 0.00000E+00 0.00000E+00 0.00000E+00
 -1       628 0.00000E+00 0.00000E+00 0.00000E+00
 -1       629 0.00000E+00 0.00000E+00 0.00000E+00
 -1       630 0.00000E+00 0.00000E+00 0.00000E+00
 -1       631 0.00000E+00 0.00000E+00 0.00000E+00
 -1       632 0.00000E+00 0.00000E+00 0.00000E+00
 -1       633 0.00000E+00 0.00000E+00 0.00000E+00
 -1       634 0.00000E+00 0.00000E+00 0.00000E+00
 -1       635 0.00000E+00 0.00000E+00 0.00000E+00
 -1       636 0.00000E+00 0.00000E+00 0.00000E+00
 -1       637 0.00000E+00 0.00000E+00 0.00000E+00
 -1       638 0.00000E+00 0.00000E+00 0.00000E+00
 -1       639 0.00000E+00 0.00000E+00 0.00000E+00
 -1       640 0.00000E+00 0.00000E+00 0.00000E+00
 -1       656 0.00000E+00 0.00000E+00 0.00000E+00
 -1       657 0.00000E+00 0.00000E+00 0.00000E+00
 -1       658 0.00000E+00 0.00000E+00 0.00000E+00
 -1       659 0.00000E+00 0.00000E+00 0.00000E+00
 -1       660 0.00000E+00 0.00000E+00 0.00000E+00
 -1       661 0.00000E+00 0.00000E+00 0.00000E+00
 -1       662 0.00000E+00 0.00000E+00 0.00000E+00
 -1       663 0.00000E+00 0.00000E+00 0.00000E+00
 -1       664 0.00000E+00 0.00000E+00 0.00000E+00
 -1       665 0.00000E+00 0.00000E+00 0.00000E+00
 -1       666 0.00000E+00 0.00000E+00 0.00000E+00
 -1       667 0.00000E+00 0.00000E+00 0.00000E+00
 -1       668 0.00000E+00 0.00000E+00 0.00000E+00
 -1       669 0.00000E+00 0.00000E+00 0.00000E+00
 -1       670 0.00000E+00 0.00000E+00 0.00000E+00
 -1       671 0.00000E+00 0.00000E+00 0.00000E+00
 -1       672 0.00000E+00 0.00000E+00 0.00000E+00
 -1       673 0.00000E+00 0.00000E+00 0.00000E+00
 -1       674 0.00000E+00 0.00000E+00 0.00000E+00
 -1       675 0.00000E+00 0.00000E+00 0.00000E+00
 -1       676 0.00000E+00 0.00000E+00 0.00000E+00
 -1       677 0.00000E+00 0.00000E+00 0.00000E+00
 -1       678 0.00000E+00 0.00000E+00 0.00000E+00
 -1       679 0.00000E+00 0.00000E+00 0.00000E+00
 -1       680 0.00000E+00 0.00000E+00 0.00000E+00
 -1       771 0.00000E+00 0.00000E+00 0.00000E+00
 -1       772 0.00000E+00 0.00000E+00 0.00000E+00
 -1       773 0.00000E+00 0.00000E+00 0.00000E+00
 -1       774 0.00000E+00 0.00000E+00 0.00000E+00
 -1       775 0.00000E+00 0.00000E+00 0.00000E+00
 -1       776 0.00000E+00 0.00000E+00 0.00000E+00
 -1       777 0.00000E+00 0.00000E+00 0.00000E+00
 -1       778 0.00000E+00 0.00000E+00 0.00000E+00
 -1       779 0.00000E+00 0.00000E+00 0.00000E+00
 -1       780 0.00000E+00 0.00000E+00 0.00000E+00
 -1       781 0.00000E+00 0.00000E+00 0.00000E+00
 -1       782 0.00000E+00 0.00000E+00 0.00000E+00
 -1       783 0.00000E+00 0.00000E+00 0.00000E+00
 -1       784 0.00000E+00 0.00000E+00 0.00000E+00
 -1       785 0.00000E+00 0.00000E+00 0.00000E+00
 -1       786 0.00000E+00 0.00000E+00 0.00000E+00
 -1       787 0.00000E+00 0.00000E+00 0.00000E+00
 -1       788 0.00000E+00 0.00000E+00 0.00000E+00
 -1       789 0.00000E+00 0.00000E+00 0.00000E+00
 -1       790 0.00000E+00 0.00000E+00 0.00000E+00
 -1       791 0.00000E+00 0.00000E+00 0.00000E+00
 -1       792 0.00000E+00 0.00000E+00 0.00000E+00
 -1       793 0.00000E+00 0.00000E+00 0.00000E+00
 -1       794 0.00000E+00 0.00000E+00 0.00000E+00
 -1       795 0.00000E+00 0.00000E+00 0.00000E+00
 -1       796 0.00000E+00 0.00000E+00 0.00000E+00
 -1       797 0.00000E+00 0.00000E+00 0.00000E+00
 -1       798 0.00000E+00 0.00000E+00 0.00000E+00
 -1       799 0.00000E+00 0.00000E+00 0.00000E+00
 -1       800 0.00000E+00 0.00000E+00 0.00000E+00
 -1       801 0.00000E+00 0.00000E+00 0.00000E+00
 -1       802 0.00000E+00 0.00000E+00 0.00000E+00
 -1       803 0.00000E+00 0.00000E+00 0.00000E+00
 -1       804 0.00000E+00 0.00000E+00 0.00000E+00
 -1       805 0.00000E+00 0.00000E+00 0.00000E+00
 -1       806 0.00000E+00 0.00000E+00 0.00000E+00
 -1       807 0.00000E+00 0.00000E+00 0.00000E+00
 -1       808 0.00000E+00 0.00000E+00 0.00000E+00
 -1       809 0.00000E+00 0.00000E+00 0.00000E+00
 -1       810 0.00000E+00 0.00000E+00 0.00000E+00
 -1       811 0.00000E+00 0.00000E+00 0.00000E+00
 -1       812 0.00000E+00 0.00000E+00 0.00000E+00
 -1       813 0.00000E+00 0.00000E+00 0.00000E+00
 -1       814 0.00000E+00 0.00000E+00 0.00000E+00
 -1       815 0.00000E+00 0.00000E+00 0.00000E+00
 -1       816 0.00000E+00 0.00000E+00 0.00000E+00
 -1       817 0.00000E+00 0.00000E+00 0.00000E+00
 -1       818 0.00000E+00 0.00000E+00 0.00000E+00
 -1       819 0.00000E+00 0.00000E+00 0.00000E+00
 -1       820 0.00000E+00 0.00000E+00 0.00000E+00
 -1       821 0.00000E+00 0.00000E+00 0.00000E+00
 -1       822 0.00000E+00 0.00000E+00 0.00000E+00
 -1       823 0.00000E+00 0.00000E+00 0.00000E+00
 -1       824 0.00000E+00 0.00000E+00 0.00000E+00
 -1       825 0.00000E+00 0.00000E+00 0.00000E+00
 -1       826 0.00000E+00 0.00000E+00 0.00000E+00
 -1       827 0.00000E+00 0.00000E+00 0.00000E+00
 -1       828 0.00000E+00 0.00000E+00 0.00000E+00
 -1       829 0.00000E+00 0.00000E+00 0.00000E+00
 -1       830 0.00000E+00 0.00000E+00 0.00000E+00
 -1       831 0.00000E+00 0.00000E+00 0.00000E+00
 -1       832 0.00000E+00 0.00000E+00 0.00000E+00
 -1       833 0.00000E+00 0.00000E+00 0.00000E+00
 -1       834 0.00000E+00 0.00000E+00 0.00000E+00
 -1       835 0.00000E+00 0.00000E+00 0.00000E+00
 -1       836 0.00000E+00 0.00000E+00 0.00000E+00
 -1       837 0.00000E+00 0.00000E+00 0.00000E+00
 -1       838 0.00000E+00 0.00000E+00 0.00000E+00
 -1       839 0.00000E+00 0.00000E+00 0.00000E+00
 -1       840 0.00000E+00 0.00000E+00 0.00000E+00
 -1       856 0.00000E+00 0.00000E+00 0.00000E+00
 -1       857 0.00000E+00 0.00000E+00 0.00000E+00
 -1       858 0.00000E+00 0.00000E+00 0.00000E+00
 -1       859 0.00000E+00 0.00000E+00 0.00000E+00
 -1       860 0.00000E+00 0.00000E+00 0.00000E+00
 -1       861 0.00000E+00 0.00000E+00 0.00000E+00
 -1       862 0.00000E+00 0.00000E+00 0.00000E+00
 -1       863 0.00000E+00 0.00000E+00 0.00000E+00
 -1       864 0.00000E+00 0.00000E+00 0.00000E+00
 -1       865 0.00000E+00 0.00000E+00 0.00000E+00
 -1       866 0.00000E+00 0.00000E+00 0.00000E+00
 -1       867 0.00000E+00 0.00000E+00 0.00000E+00
 -1       868 0.00000E+00 0.00000E+00 0.00000E+00
 -1       869 0.00000E+00 0.00000E+00 0.00000E+00
 -1       870 0.00000E+00 0.00000E+00 0.00000E+00
 -1       871 0.00000E+00 0.00000E+00 0.00000E+00
 -1       872 0.00000E+00 0.00000E+00 0.00000E+00
 -1       873 0.00000E+00 0.00000E+00 0.00000E+00
 -1       874 0.00000E+00 0.00000E+00 0.00000E+00
 -1       875 0.00000E+00 0.00000E+00 0.00000E+00
 -1       876 0.00000E+00 0.00000E+00 0.00000E+00
 -1       877 0.00000E+00 0.00000E+00 0.00000E+00
 -1       878 0.00000E+00 0.00000E+00 0.00000E+00
 -1       879 0.00000E+00 0.00000E+00 0.00000E+00
 -1       880 0.00000E+00 0.00000E+00 0.00000E+00
 -1       881 0.00000E+00 0.00000E+00 0.00000E+00
 -1       882 0.00000E+00 0.00000E+00 0.00000E+00
 -1       883 0.00000E+00 0.00000E+00 0.00000E+00
 -1       884 0.00000E+00 0.00000E+00 0.00000E+00
 -1       885 0.00000E+00 0.00000E+00 0.00000E+00
 -1       886 0.00000E+00 0.00000E+00 0.00000E+00
 -1       887 0.00000E+00 0.00000E+00 0.00000E+00
 -1       888 0.00000E+00 0.00000E+00 0.00000E+00
 -1       889 0.00000E+00 0.00000E+00 0.00000E+00
 -1       890 0.00000E+00 0.00000E+00 0.00000E+00
 -1       891 0.00000E+00 0.00000E+00 0.00000E+00
 -1       892 0.00000E+00 0.00000E+00 0.00000E+00
 -1       893 0.00000E+00 0.00000E+00 0.00000E+00
 -1       894 0.00000E+00 0.00000E+00 0.00000E+00
 -1       895 0.00000E+00 0.00000E+00 0.00000E+00
 -1       956 0.00000E+00 0.00000E+00 0.00000E+00
 -1       957 0.00000E+00 0.00000E+00 0.00000E+00
 -1       958 0.00000E+00 0.00000E+00 0.00000E+00
 -1       959 0.00000E+00 0.00000E+00 0.00000E+00
 -1       960 0.00000E+00 0.00000E+00 0.00000E+00
 -1       961 0.00000E+00 0.00000E+00 0.00000E+00
 -1       962 0.00000E+00 0.00000E+00 0.00000E+00
 -1       963 0.00000E+00 0.00000E+00 0.00000E+00
 -1       964 0.00000E+00 0.00000E+00 0.00000E+00
 -1       965 0.00000E+00 0.00000E+00 0.00000E+00
 -1       966 0.00000E+00 0.00000E+00 0.00000E+00
 -1       967 0.00000E+00 0.00000E+00 0.00000E+00
 -1       968 0.00000E+00 0.00000E+00 0.00000E+00
 -1       969 0.00000E+00 0.00000E+00 0.00000E+00
 -1       970 0.00000E+00 0.00000E+00 0.00000E+00
 -1       971 0.00000E+00 0.00000E+00 0.00000E+00
 -1       972 0.00000E+00 0.00000E+00 0.00000E+00
 -1       973 0.00000E+00 0.00000E+00 0.00000E+00
 -1       974 0.00000E+00 0.00000E+00 0.00000E+00
 -1       975 0.00000E+00 0.00000E+00 0.00000E+00
 -1       976 0.00000E+00 0.00000E+00 0.00000E+00
 -1       977 0.00000E+00 0.00000E+00 0.00000E+00
 -1       978 0.00000E+00 0.00000E+00 0.00000E+00
 -1       979 0.00000E+00 0.00000E+00 0.00000E+00
 -1       980 0.00000E+00 0.00000E+00 0.00000E+00
 -1       981 0.00000E+00 0.00000E+00 0.00000E+00
 -1       982 0.00000E+00 0.00000E+00 0.00000E+00
 -1       983 0.00000E+00 0.00000E+00 0.00000E+00
 -1       984 0.00000E+00 0.00000E+00 0.00000E+00
 -1       985 0.00000E+00 0.00000E+00 0.00000E+00
 -3
