
 stresses (elem, integ.pnt.,sxx,syy,szz,sxy,sxz,syz) for set ELALL and time  0.1000000E+01

         1   1 -5.580374E+06 -6.855654E+05 -8.949409E+05 -5.683922E+04 -6.086064E+05  5.619797E+01
         1   2 -5.442244E+06  1.615416E+05 -3.812598E+05 -1.438759E+04 -4.001967E+05  9.352862E+00
         1   3 -5.578513E+06  2.247791E+04 -2.505342E+05  2.807249E+04 -1.917972E+05 -8.747788E+00
         1   4 -5.580378E+06 -6.855715E+05 -8.949418E+05  1.133342E-07 -6.086064E+05 -1.965806E-09
         1   5 -5.442244E+06  1.615412E+05 -3.812599E+05  9.268726E-08 -4.001967E+05 -5.756146E-09
         1   6 -5.578514E+06  2.247642E+04 -2.505344E+05  1.022167E-07 -1.917972E+05 -2.727515E-09
         1   7 -5.580374E+06 -6.855654E+05 -8.949409E+05  5.683922E+04 -6.086064E+05 -5.619797E+01
         1   8 -5.442244E+06  1.615416E+05 -3.812598E+05  1.438759E+04 -4.001967E+05 -9.352862E+00
         1   9 -5.578513E+06  2.247791E+04 -2.505342E+05 -2.807249E+04 -1.917972E+05  8.747788E+00
         1  10 -5.580775E+06 -6.856660E+05 -8.956432E+05 -5.683920E+04  1.069975E-09 -6.904748E-10
         1  11 -5.442417E+06  1.614981E+05 -3.815635E+05 -1.438759E+04  2.685687E-09  5.351211E-10
         1  12 -5.578553E+06  2.246792E+04 -2.506040E+05  2.807249E+04  3.842874E-09  8.656244E-10
         1  13 -5.580778E+06 -6.856721E+05 -8.956441E+05  1.018866E-08 -2.164886E-09 -2.857170E-10
         1  14 -5.442417E+06  1.614977E+05 -3.815636E+05 -2.770343E-08 -3.269880E-09 -1.317519E-11
         1  15 -5.578554E+06  2.246643E+04 -2.506042E+05 -4.822360E-08  4.585762E-09  5.312771E-10
         1  16 -5.580775E+06 -6.856660E+05 -8.956432E+05  5.683920E+04 -2.178748E-10 -4.199147E-10
         1  17 -5.442417E+06  1.614981E+05 -3.815635E+05  1.438759E+04 -5.361258E-09  5.197697E-10
         1  18 -5.578553E+06  2.246792E+04 -2.506040E+05 -2.807249E+04 -4.636243E-09  6.303812E-11
         1  19 -5.580374E+06 -6.855654E+05 -8.949409E+05 -5.683922E+04  6.086064E+05 -5.619797E+01
         1  20 -5.442244E+06  1.615416E+05 -3.812598E+05 -1.438759E+04  4.001967E+05 -9.352862E+00
         1  21 -5.578513E+06  2.247791E+04 -2.505342E+05  2.807249E+04  1.917972E+05  8.747788E+00
         1  22 -5.580378E+06 -6.855715E+05 -8.949418E+05  1.133246E-07  6.086064E+05  1.655288E-09
         1  23 -5.442244E+06  1.615412E+05 -3.812599E+05 -1.480890E-07  4.001967E+05  5.153412E-09
         1  24 -5.578514E+06  2.247642E+04 -2.505344E+05 -1.771694E-07  1.917972E+05  3.956935E-09
         1  25 -5.580374E+06 -6.855654E+05 -8.949409E+05  5.683922E+04  6.086064E+05  5.619797E+01
         1  26 -5.442244E+06  1.615416E+05 -3.812598E+05  1.438759E+04  4.001967E+05  9.352862E+00
         1  27 -5.578513E+06  2.247791E+04 -2.505342E+05 -2.807249E+04  1.917972E+05 -8.747788E+00
         2   1 -5.527976E+06 -1.051051E+05 -2.073784E+05 -8.330541E+03 -1.504918E+05  2.036687E+00
         2   2 -5.505438E+06  2.480168E+04 -9.854856E+04 -1.968862E+03 -9.879799E+04  3.160046E-01
         2   3 -5.527609E+06  3.354093E+03 -6.142474E+04  4.392857E+03 -4.710298E+04 -3.361561E-01
         2   4 -5.527976E+06 -1.051053E+05 -2.073784E+05  6.098586E-08 -1.504918E+05 -1.914746E-10
         2   5 -5.505438E+06  2.480167E+04 -9.854856E+04 -1.627181E-07 -9.879799E+04  6.234872E-10
         2   6 -5.527609E+06  3.354057E+03 -6.142475E+04  2.026485E-07 -4.710298E+04  1.043100E-09
         2   7 -5.527976E+06 -1.051051E+05 -2.073784E+05  8.330541E+03 -1.504918E+05 -2.036687E+00
         2   8 -5.505438E+06  2.480168E+04 -9.854856E+04  1.968862E+03 -9.879799E+04 -3.160046E-01
         2   9 -5.527609E+06  3.354093E+03 -6.142474E+04 -4.392857E+03 -4.710298E+04  3.361561E-01
         2  10 -5.528000E+06 -1.051113E+05 -2.074214E+05 -8.330541E+03  5.049993E-09 -1.230992E-09
         2  11 -5.505449E+06  2.479903E+04 -9.856706E+04 -1.968862E+03 -2.404724E-09 -3.858018E-09
         2  12 -5.527611E+06  3.353491E+03 -6.142895E+04  4.392857E+03 -3.108974E-10 -1.117944E-10
         2  13 -5.528000E+06 -1.051114E+05 -2.074214E+05 -7.798061E-09  4.421906E-09  4.362635E-10
         2  14 -5.505449E+06  2.479902E+04 -9.856706E+04 -5.955644E-08  2.459390E-09 -3.244764E-10
         2  15 -5.527611E+06  3.353455E+03 -6.142896E+04  1.123916E-07  4.383861E-09 -3.828900E-10
         2  16 -5.528000E+06 -1.051113E+05 -2.074214E+05  8.330541E+03 -5.100242E-09 -1.350597E-10
         2  17 -5.505449E+06  2.479903E+04 -9.856706E+04  1.968862E+03  1.749316E-09 -1.567398E-09
         2  18 -5.527611E+06  3.353491E+03 -6.142895E+04 -4.392857E+03  5.139613E-09 -2.486044E-09
         2  19 -5.527976E+06 -1.051051E+05 -2.073784E+05 -8.330541E+03  1.504918E+05 -2.036687E+00
         2  20 -5.505438E+06  2.480168E+04 -9.854856E+04 -1.968862E+03  9.879799E+04 -3.160046E-01
         2  21 -5.527609E+06  3.354093E+03 -6.142474E+04  4.392857E+03  4.710298E+04  3.361561E-01
         2  22 -5.527976E+06 -1.051053E+05 -2.073784E+05 -1.109660E-07  1.504918E+05  1.860664E-10
         2  23 -5.505438E+06  2.480167E+04 -9.854856E+04  9.220442E-09  9.879799E+04 -3.834075E-09
         2  24 -5.527609E+06  3.354057E+03 -6.142475E+04  2.972320E-07  4.710298E+04 -2.743974E-09
         2  25 -5.527976E+06 -1.051051E+05 -2.073784E+05  8.330541E+03  1.504918E+05  2.036687E+00
         2  26 -5.505438E+06  2.480168E+04 -9.854856E+04  1.968862E+03  9.879799E+04  3.160045E-01
         2  27 -5.527609E+06  3.354093E+03 -6.142474E+04 -4.392857E+03  4.710298E+04 -3.361561E-01
         3   1 -5.519413E+06 -1.602885E+04 -4.926253E+04 -1.176748E+03 -3.711709E+04  7.095732E-02
         3   2 -5.515624E+06  3.799686E+03 -2.526562E+04 -2.419324E+02 -2.418743E+04  9.506537E-03
         3   3 -5.519339E+06  4.556181E+02 -1.553504E+04  6.928654E+02 -1.125782E+04 -1.267197E-02
         3   4 -5.519413E+06 -1.602885E+04 -4.926253E+04  1.028949E-07 -3.711709E+04  4.146553E-09
         3   5 -5.515624E+06  3.799685E+03 -2.526562E+04 -8.278300E-08 -2.418743E+04  6.060695E-09
         3   6 -5.519339E+06  4.556172E+02 -1.553504E+04  7.974300E-08 -1.125782E+04  2.014648E-09
         3   7 -5.519413E+06 -1.602885E+04 -4.926253E+04  1.176748E+03 -3.711709E+04 -7.095731E-02
         3   8 -5.515624E+06  3.799686E+03 -2.526562E+04  2.419324E+02 -2.418743E+04 -9.506536E-03
         3   9 -5.519339E+06  4.556181E+02 -1.553504E+04 -6.928654E+02 -1.125782E+04  1.267198E-02
         3  10 -5.519414E+06 -1.602922E+04 -4.926514E+04 -1.176748E+03 -9.941961E-11 -1.190457E-09
         3  11 -5.515625E+06  3.799527E+03 -2.526673E+04 -2.419324E+02  1.567005E-09  4.181455E-10
         3  12 -5.519339E+06  4.555837E+02 -1.553528E+04  6.928654E+02 -3.271443E-09  1.545742E-10
         3  13 -5.519414E+06 -1.602923E+04 -4.926514E+04 -2.531962E-10  6.571871E-09  7.410879E-11
         3  14 -5.515625E+06  3.799527E+03 -2.526673E+04 -1.343642E-07 -2.149103E-09 -1.788124E-10
         3  15 -5.519339E+06  4.555828E+02 -1.553528E+04  4.964743E-08 -9.399412E-10 -8.387886E-10
         3  16 -5.519414E+06 -1.602922E+04 -4.926514E+04  1.176748E+03  2.146921E-10  9.530550E-10
         3  17 -5.515625E+06  3.799527E+03 -2.526673E+04  2.419324E+02  2.038118E-09  6.893199E-10
         3  18 -5.519339E+06  4.555837E+02 -1.553528E+04 -6.928654E+02 -1.807760E-09 -4.055869E-10
         3  19 -5.519413E+06 -1.602885E+04 -4.926253E+04 -1.176748E+03  3.711709E+04 -7.095732E-02
         3  20 -5.515624E+06  3.799686E+03 -2.526562E+04 -2.419324E+02  2.418743E+04 -9.506533E-03
         3  21 -5.519339E+06  4.556181E+02 -1.553504E+04  6.928654E+02  1.125782E+04  1.267197E-02
         3  22 -5.519413E+06 -1.602885E+04 -4.926253E+04  1.029033E-07  3.711709E+04 -3.720829E-09
         3  23 -5.515624E+06  3.799685E+03 -2.526562E+04 -4.839929E-08  2.418743E+04 -6.267697E-09
         3  24 -5.519339E+06  4.556172E+02 -1.553504E+04  7.973984E-08  1.125782E+04 -3.815063E-09
         3  25 -5.519413E+06 -1.602885E+04 -4.926253E+04  1.176748E+03  3.711709E+04  7.095731E-02
         3  26 -5.515624E+06  3.799686E+03 -2.526562E+04  2.419324E+02  2.418743E+04  9.506524E-03
         3  27 -5.519339E+06  4.556181E+02 -1.553504E+04 -6.928654E+02  1.125782E+04 -1.267199E-02
         4   1 -5.518004E+06 -2.417543E+03 -1.242625E+04 -1.655882E+02 -8.735471E+03  2.349937E-03
         4   2 -5.517271E+06  6.333812E+02 -7.338053E+03 -2.202173E+01 -5.039411E+03  1.802894E-04
         4   3 -5.517991E+06 -1.735013E+02 -5.636733E+03  1.215466E+02 -1.343285E+03 -2.652480E-04
         4   4 -5.518004E+06 -2.417543E+03 -1.242625E+04  8.625502E-08 -8.735471E+03  1.413478E-09
         4   5 -5.517271E+06  6.333812E+02 -7.338053E+03  1.055414E-07 -5.039411E+03  2.999030E-09
         4   6 -5.517991E+06 -1.735013E+02 -5.636733E+03  1.488508E-10 -1.343285E+03  1.366705E-09
         4   7 -5.518004E+06 -2.417543E+03 -1.242625E+04  1.655882E+02 -8.735471E+03 -2.349936E-03
         4   8 -5.517271E+06  6.333812E+02 -7.338053E+03  2.202173E+01 -5.039411E+03 -1.802868E-04
         4   9 -5.517991E+06 -1.735013E+02 -5.636733E+03 -1.215466E+02 -1.343285E+03  2.652486E-04
         4  10 -5.518004E+06 -2.417564E+03 -1.242639E+04 -1.655882E+02 -2.020993E-09  1.305179E-09
         4  11 -5.517271E+06  6.333743E+02 -7.338101E+03 -2.202173E+01 -4.229200E-10 -4.863005E-10
         4  12 -5.517991E+06 -1.735018E+02 -5.636737E+03  1.215466E+02  2.784265E-09  2.378284E-09
         4  13 -5.518004E+06 -2.417564E+03 -1.242639E+04 -5.128772E-08 -1.996565E-09 -6.660034E-10
         4  14 -5.517271E+06  6.333743E+02 -7.338101E+03  1.915129E-07 -8.250626E-10  1.324804E-11
         4  15 -5.517991E+06 -1.735018E+02 -5.636737E+03  5.603519E-08  4.041688E-09  6.135836E-11
         4  16 -5.518004E+06 -2.417564E+03 -1.242639E+04  1.655882E+02 -3.400299E-09 -1.017406E-09
         4  17 -5.517271E+06  6.333743E+02 -7.338101E+03  2.202173E+01 -1.812694E-09  5.133677E-10
         4  18 -5.517991E+06 -1.735018E+02 -5.636737E+03 -1.215466E+02 -2.173632E-10 -1.536564E-09
         4  19 -5.518004E+06 -2.417543E+03 -1.242625E+04 -1.655882E+02  8.735471E+03 -2.349940E-03
         4  20 -5.517271E+06  6.333812E+02 -7.338053E+03 -2.202173E+01  5.039411E+03 -1.802814E-04
         4  21 -5.517991E+06 -1.735013E+02 -5.636733E+03  1.215466E+02  1.343285E+03  2.652462E-04
         4  22 -5.518004E+06 -2.417543E+03 -1.242625E+04  1.206551E-07  8.735471E+03 -2.465275E-09
         4  23 -5.517271E+06  6.333812E+02 -7.338053E+03  7.116013E-08  5.039411E+03 -1.715419E-09
         4  24 -5.517991E+06 -1.735013E+02 -5.636733E+03  7.323365E-08  1.343285E+03 -1.496308E-09
         4  25 -5.518004E+06 -2.417543E+03 -1.242625E+04  1.655882E+02  8.735471E+03  2.349933E-03
         4  26 -5.517271E+06  6.333812E+02 -7.338053E+03  2.202173E+01  5.039411E+03  1.802809E-04
         4  27 -5.517991E+06 -1.735013E+02 -5.636733E+03 -1.215466E+02  1.343285E+03 -2.652515E-04
         5   1 -5.517914E+06 -3.149344E+02 -5.360146E+03 -9.080634E+01 -3.514620E+02  5.184943E-05
         5   2 -5.517365E+06  4.724733E+02 -5.787209E+03  1.506052E+01  2.560095E+03  6.262897E-05
         5   3 -5.517921E+06 -1.617394E+03 -8.841829E+03  1.209275E+02  5.471647E+03  1.074935E-03
         5   4 -5.517914E+06 -3.149345E+02 -5.360146E+03 -7.141084E-08 -3.514620E+02  5.369300E-11
         5   5 -5.517365E+06  4.724733E+02 -5.787209E+03  5.962708E-08  2.560095E+03 -3.333572E-09
         5   6 -5.517921E+06 -1.617394E+03 -8.841829E+03 -9.731708E-08  5.471647E+03 -3.592327E-09
         5   7 -5.517914E+06 -3.149344E+02 -5.360146E+03  9.080634E+01 -3.514620E+02 -5.185050E-05
         5   8 -5.517365E+06  4.724733E+02 -5.787209E+03 -1.506052E+01  2.560095E+03 -6.264652E-05
         5   9 -5.517921E+06 -1.617394E+03 -8.841829E+03 -1.209275E+02  5.471647E+03 -1.074946E-03
         5  10 -5.517914E+06 -3.149345E+02 -5.360146E+03 -9.080634E+01  9.070417E-10  2.145318E-09
         5  11 -5.517365E+06  4.724716E+02 -5.787222E+03  1.506052E+01 -3.760992E-09 -1.583668E-10
         5  12 -5.517921E+06 -1.617402E+03 -8.841886E+03  1.209275E+02 -3.048136E-09  2.948884E-10
         5  13 -5.517914E+06 -3.149345E+02 -5.360146E+03  3.174637E-08 -3.933255E-09  1.095274E-12
         5  14 -5.517365E+06  4.724716E+02 -5.787222E+03  1.283979E-07  2.398660E-09  5.476258E-13
         5  15 -5.517921E+06 -1.617402E+03 -8.841886E+03 -5.863755E-08 -2.889870E-09  3.526577E-11
         5  16 -5.517914E+06 -3.149345E+02 -5.360146E+03  9.080634E+01  1.957367E-09 -2.146300E-09
         5  17 -5.517365E+06  4.724716E+02 -5.787222E+03 -1.506052E+01 -2.624042E-09  1.591743E-10
         5  18 -5.517921E+06 -1.617402E+03 -8.841886E+03 -1.209275E+02  2.615008E-10  1.324129E-09
         5  19 -5.517914E+06 -3.149344E+02 -5.360146E+03 -9.080634E+01  3.514620E+02 -5.184191E-05
         5  20 -5.517365E+06  4.724733E+02 -5.787209E+03  1.506052E+01 -2.560095E+03 -6.262713E-05
         5  21 -5.517921E+06 -1.617394E+03 -8.841829E+03  1.209275E+02 -5.471647E+03 -1.074933E-03
         5  22 -5.517914E+06 -3.149345E+02 -5.360146E+03 -2.648444E-09  3.514620E+02  3.775522E-10
         5  23 -5.517365E+06  4.724733E+02 -5.787209E+03  1.627854E-07 -2.560095E+03  2.568860E-09
         5  24 -5.517921E+06 -1.617394E+03 -8.841829E+03  1.132989E-07 -5.471647E+03  3.031823E-09
         5  25 -5.517914E+06 -3.149344E+02 -5.360146E+03  9.080634E+01  3.514620E+02  5.184190E-05
         5  26 -5.517365E+06  4.724733E+02 -5.787209E+03 -1.506052E+01 -2.560095E+03  6.263362E-05
         5  27 -5.517921E+06 -1.617394E+03 -8.841829E+03 -1.209275E+02 -5.471647E+03  1.074934E-03
         6   1 -5.518794E+06  2.768829E+02 -1.081050E+04 -4.654349E+02  7.244319E+03 -5.477694E-03
         6   2 -5.516288E+06  2.556744E+03 -1.716912E+04  1.629162E+02  1.602739E+04  4.241946E-03
         6   3 -5.518843E+06 -1.075551E+04 -3.318190E+04  7.912598E+02  2.481025E+04  3.189263E-02
         6   4 -5.518794E+06  2.768825E+02 -1.081050E+04  1.398271E-08  7.244319E+03 -5.825800E-09
         6   5 -5.516288E+06  2.556744E+03 -1.716912E+04  7.166950E-08  1.602739E+04 -6.633630E-09
         6   6 -5.518843E+06 -1.075551E+04 -3.318190E+04 -7.699561E-08  2.481025E+04 -4.124135E-09
         6   7 -5.518794E+06  2.768829E+02 -1.081050E+04  4.654349E+02  7.244319E+03  5.477680E-03
         6   8 -5.516288E+06  2.556744E+03 -1.716912E+04 -1.629162E+02  1.602739E+04 -4.241968E-03
         6   9 -5.518843E+06 -1.075551E+04 -3.318190E+04 -7.912598E+02  2.481025E+04 -3.189263E-02
         6  10 -5.518794E+06  2.768687E+02 -1.081060E+04 -4.654349E+02 -3.430555E-09 -1.956575E-09
         6  11 -5.516288E+06  2.556675E+03 -1.716961E+04  1.629162E+02  1.975762E-09 -2.636779E-09
         6  12 -5.518843E+06 -1.075567E+04 -3.318307E+04  7.912598E+02 -2.818670E-09  2.097411E-09
         6  13 -5.518794E+06  2.768682E+02 -1.081060E+04  4.837344E-08 -4.998068E-09  1.203575E-10
         6  14 -5.516288E+06  2.556675E+03 -1.716961E+04 -1.174541E-07  1.650345E-09 -1.012080E-11
         6  15 -5.518843E+06 -1.075568E+04 -3.318307E+04 -1.113862E-07 -2.120514E-09  9.369151E-10
         6  16 -5.518794E+06  2.768687E+02 -1.081060E+04  4.654349E+02 -1.083585E-09  3.772086E-11
         6  17 -5.516288E+06  2.556675E+03 -1.716961E+04 -1.629162E+02 -1.937256E-09  4.578219E-10
         6  18 -5.518843E+06 -1.075567E+04 -3.318307E+04 -7.912598E+02  1.173003E-09 -1.301297E-09
         6  19 -5.518794E+06  2.768829E+02 -1.081050E+04 -4.654349E+02 -7.244319E+03  5.477698E-03
         6  20 -5.516288E+06  2.556744E+03 -1.716912E+04  1.629162E+02 -1.602739E+04 -4.241938E-03
         6  21 -5.518843E+06 -1.075551E+04 -3.318190E+04  7.912598E+02 -2.481025E+04 -3.189262E-02
         6  22 -5.518794E+06  2.768825E+02 -1.081050E+04  8.277039E-08 -7.244319E+03  5.556874E-09
         6  23 -5.516288E+06  2.556744E+03 -1.716912E+04 -3.148956E-08 -1.602739E+04  6.969198E-09
         6  24 -5.518843E+06 -1.075551E+04 -3.318190E+04  1.755891E-08 -2.481025E+04  5.386539E-09
         6  25 -5.518794E+06  2.768829E+02 -1.081050E+04  4.654349E+02 -7.244319E+03 -5.477689E-03
         6  26 -5.516288E+06  2.556744E+03 -1.716912E+04 -1.629162E+02 -1.602739E+04  4.241958E-03
         6  27 -5.518843E+06 -1.075551E+04 -3.318190E+04 -7.912598E+02 -2.481025E+04  3.189263E-02
         7   1 -5.524338E+06  2.246773E+03 -4.131431E+04 -2.947630E+03  3.153169E+04 -1.509955E-01
         7   2 -5.509459E+06  1.664366E+04 -6.618787E+04  1.321411E+03  6.624631E+04  1.422110E-01
         7   3 -5.524586E+06 -7.053068E+04 -1.392000E+05  5.590497E+03  1.009609E+05  9.169436E-01
         7   4 -5.524338E+06  2.246757E+03 -4.131431E+04 -6.802357E-08  3.153169E+04 -3.167009E-09
         7   5 -5.509459E+06  1.664366E+04 -6.618787E+04 -1.328869E-07  6.624631E+04  7.523750E-10
         7   6 -5.524586E+06 -7.053074E+04 -1.392000E+05  7.318650E-08  1.009609E+05 -1.498304E-09
         7   7 -5.524338E+06  2.246773E+03 -4.131431E+04  2.947630E+03  3.153169E+04  1.509955E-01
         7   8 -5.509459E+06  1.664366E+04 -6.618787E+04 -1.321411E+03  6.624631E+04 -1.422110E-01
         7   9 -5.524586E+06 -7.053068E+04 -1.392000E+05 -5.590497E+03  1.009609E+05 -9.169436E-01
         7  10 -5.524339E+06  2.246503E+03 -4.131619E+04 -2.947630E+03 -6.264529E-09  1.203869E-09
         7  11 -5.509464E+06  1.664247E+04 -6.619619E+04  1.321411E+03 -2.433725E-09  1.453185E-09
         7  12 -5.524597E+06 -7.053345E+04 -1.392193E+05  5.590497E+03 -2.236736E-09 -1.292475E-09
         7  13 -5.524339E+06  2.246487E+03 -4.131620E+04 -3.364181E-08 -1.450537E-09  1.205402E-09
         7  14 -5.509464E+06  1.664247E+04 -6.619619E+04 -1.253045E-08 -1.323261E-09 -1.431856E-10
         7  15 -5.524597E+06 -7.053351E+04 -1.392193E+05 -3.426727E-08  3.400353E-09 -2.527498E-10
         7  16 -5.524339E+06  2.246503E+03 -4.131619E+04  2.947630E+03  3.409478E-09  6.684058E-10
         7  17 -5.509464E+06  1.664247E+04 -6.619619E+04 -1.321411E+03  3.592853E-09  6.813001E-10
         7  18 -5.524597E+06 -7.053345E+04 -1.392193E+05 -5.590497E+03  2.790292E-09  2.073222E-09
         7  19 -5.524338E+06  2.246773E+03 -4.131431E+04 -2.947630E+03 -3.153169E+04  1.509955E-01
         7  20 -5.509459E+06  1.664366E+04 -6.618787E+04  1.321411E+03 -6.624631E+04 -1.422110E-01
         7  21 -5.524586E+06 -7.053068E+04 -1.392000E+05  5.590497E+03 -1.009609E+05 -9.169436E-01
         7  22 -5.524338E+06  2.246757E+03 -4.131431E+04  1.726659E-07 -3.153169E+04  4.393507E-09
         7  23 -5.509459E+06  1.664366E+04 -6.618787E+04  3.905240E-08 -6.624631E+04 -2.143377E-10
         7  24 -5.524586E+06 -7.053074E+04 -1.392000E+05  1.720533E-07 -1.009609E+05  5.855188E-10
         7  25 -5.524338E+06  2.246773E+03 -4.131431E+04  2.947630E+03 -3.153169E+04 -1.509955E-01
         7  26 -5.509459E+06  1.664366E+04 -6.618787E+04 -1.321411E+03 -6.624631E+04  1.422110E-01
         7  27 -5.524586E+06 -7.053068E+04 -1.392000E+05 -5.590497E+03 -1.009609E+05  9.169436E-01
         8   1 -5.558501E+06  1.508012E+04 -1.681618E+05 -1.883729E+04  1.286915E+05 -3.938510E+00
         8   2 -5.467069E+06  1.083962E+05 -2.559347E+05  9.653307E+03  2.685314E+05  4.210883E+00
         8   3 -5.559780E+06 -4.600434E+05 -6.007206E+05  3.814038E+04  4.083774E+05  2.530371E+01
         8   4 -5.558501E+06  1.507944E+04 -1.681619E+05 -9.090916E-08  1.286915E+05  3.522066E-09
         8   5 -5.467069E+06  1.083960E+05 -2.559348E+05  1.435134E-08  2.685314E+05  1.028540E-08
         8   6 -5.559782E+06 -4.600461E+05 -6.007210E+05  8.958530E-08  4.083774E+05  3.263335E-09
         8   7 -5.558501E+06  1.508012E+04 -1.681618E+05  1.883729E+04  1.286915E+05  3.938510E+00
         8   8 -5.467069E+06  1.083962E+05 -2.559347E+05 -9.653307E+03  2.685314E+05 -4.210883E+00
         8   9 -5.559780E+06 -4.600434E+05 -6.007206E+05 -3.814038E+04  4.083774E+05 -2.530371E+01
         8  10 -5.558519E+06  1.507562E+04 -1.681932E+05 -1.883729E+04 -1.454355E-09  2.217518E-09
         8  11 -5.467146E+06  1.083766E+05 -2.560715E+05  9.653306E+03  1.980354E-09  3.285116E-09
         8  12 -5.559961E+06 -4.600887E+05 -6.010368E+05  3.814038E+04 -3.281857E-12  5.473079E-10
         8  13 -5.558519E+06  1.507495E+04 -1.681933E+05  4.665618E-08 -4.297617E-09  4.244604E-10
         8  14 -5.467147E+06  1.083764E+05 -2.560715E+05  6.594269E-08  2.458916E-10  1.340179E-09
         8  15 -5.559962E+06 -4.600914E+05 -6.010372E+05  1.652175E-08 -1.290108E-10  4.605833E-10
         8  16 -5.558519E+06  1.507562E+04 -1.681932E+05  1.883729E+04  3.111311E-09 -5.469490E-11
         8  17 -5.467146E+06  1.083766E+05 -2.560715E+05 -9.653306E+03 -5.403839E-09  2.109242E-09
         8  18 -5.559961E+06 -4.600887E+05 -6.010368E+05 -3.814038E+04 -2.975743E-09 -6.893455E-10
         8  19 -5.558501E+06  1.508012E+04 -1.681618E+05 -1.883729E+04 -1.286915E+05  3.938510E+00
         8  20 -5.467069E+06  1.083962E+05 -2.559347E+05  9.653307E+03 -2.685314E+05 -4.210883E+00
         8  21 -5.559780E+06 -4.600434E+05 -6.007206E+05  3.814038E+04 -4.083774E+05 -2.530371E+01
         8  22 -5.558501E+06  1.507944E+04 -1.681619E+05 -5.652279E-08 -1.286915E+05 -2.734915E-09
         8  23 -5.467069E+06  1.083960E+05 -2.559348E+05 -8.883316E-08 -2.685314E+05 -8.091720E-09
         8  24 -5.559782E+06 -4.600461E+05 -6.007210E+05  2.082348E-08 -4.083774E+05 -2.779051E-09
         8  25 -5.558501E+06  1.508012E+04 -1.681618E+05  1.883729E+04 -1.286915E+05 -3.938510E+00
         8  26 -5.467069E+06  1.083962E+05 -2.559347E+05 -9.653307E+03 -2.685314E+05  4.210883E+00
         8  27 -5.559780E+06 -4.600434E+05 -6.007206E+05 -3.814038E+04 -4.083774E+05  2.530371E+01
         9   1  2.245795E+06  8.051765E+06  2.131933E+06 -1.613137E+06  9.971579E+04  8.450290E+05
         9   2  1.791637E+06  6.860810E+06  1.419624E+06 -1.478915E+06  3.359262E+05  3.949569E+05
         9   3  1.472635E+06  5.765459E+06  1.032457E+06 -1.522727E+06  3.935688E+05 -5.399418E+04
         9   4  1.388044E+05 -5.347084E+05  1.457305E+05 -1.500333E+06  1.019935E+05  9.819457E+04
         9   5  4.730979E+04 -5.439339E+05  7.614963E+04 -1.411567E+06  3.375297E+05  6.067722E+04
         9   6  2.067053E+04 -5.292470E+05  4.763565E+04 -1.500788E+06  3.935793E+05  2.333038E+04
         9   7 -1.973015E+06 -9.052391E+06 -1.843327E+06 -1.388966E+06  1.040280E+05 -6.384938E+05
         9   8 -1.700021E+06 -7.895463E+06 -1.269094E+06 -1.344938E+06  3.390755E+05 -2.697599E+05
         9   9 -1.433235E+06 -6.784648E+06 -9.381205E+05 -1.478992E+06  3.935951E+05  9.990477E+04
         9  10  2.245595E+06  8.051003E+06  2.130588E+06 -1.613205E+06  3.032527E-09 -6.906633E-08
         9  11  1.791474E+06  6.860613E+06  1.419120E+06 -1.479022E+06  2.195420E-09  5.876513E-10
         9  12  1.472468E+06  5.765414E+06  1.032161E+06 -1.522710E+06  5.202968E-10  7.070128E-08
         9  13  1.387906E+05 -5.347216E+05  1.456927E+05 -1.500342E+06  6.804742E-10 -4.235777E-12
         9  14  4.718644E+04 -5.439684E+05  7.592846E+04 -1.411584E+06  4.787246E-09 -1.788467E-10
         9  15  2.050406E+04 -5.292892E+05  4.734351E+04 -1.500796E+06  1.091820E-09 -1.548440E-10
         9  16 -1.973138E+06 -9.052837E+06 -1.844124E+06 -1.388912E+06  4.909168E-10  6.808223E-08
         9  17 -1.700164E+06 -7.895572E+06 -1.269447E+06 -1.344864E+06 -2.744404E-09 -8.892158E-10
         9  18 -1.433404E+06 -6.784700E+06 -9.384309E+05 -1.479024E+06 -1.061187E-09 -7.046862E-08
         9  19  2.245795E+06  8.051765E+06  2.131933E+06 -1.613137E+06 -9.971579E+04 -8.450290E+05
         9  20  1.791637E+06  6.860810E+06  1.419624E+06 -1.478915E+06 -3.359262E+05 -3.949569E+05
         9  21  1.472635E+06  5.765459E+06  1.032457E+06 -1.522727E+06 -3.935688E+05  5.399418E+04
         9  22  1.388044E+05 -5.347084E+05  1.457305E+05 -1.500333E+06 -1.019935E+05 -9.819457E+04
         9  23  4.730979E+04 -5.439339E+05  7.614963E+04 -1.411567E+06 -3.375297E+05 -6.067722E+04
         9  24  2.067053E+04 -5.292470E+05  4.763565E+04 -1.500788E+06 -3.935793E+05 -2.333038E+04
         9  25 -1.973015E+06 -9.052391E+06 -1.843327E+06 -1.388966E+06 -1.040280E+05  6.384938E+05
         9  26 -1.700021E+06 -7.895463E+06 -1.269094E+06 -1.344938E+06 -3.390755E+05  2.697599E+05
         9  27 -1.433235E+06 -6.784648E+06 -9.381205E+05 -1.478992E+06 -3.935951E+05 -9.990477E+04
        10   1  1.300034E+06  5.040426E+06  8.863131E+05 -1.529215E+06  3.663220E+05 -6.960910E+04
        10   2  1.026424E+06  3.890680E+06  6.684533E+05 -1.423591E+06  3.178057E+05 -1.397075E+05
        10   3  7.758647E+05  2.756910E+06  5.017158E+05 -1.509138E+06  2.465059E+05 -2.099059E+05
        10   4  1.933310E+04 -5.317536E+05  4.031557E+04 -1.503735E+06  3.661893E+05  1.636222E+04
        10   5  1.687128E+04 -5.328906E+05  3.536571E+04 -1.408107E+06  3.172368E+05 -1.398785E+03
        10   6  2.852541E+04 -5.283451E+05  4.539495E+04 -1.503725E+06  2.454166E+05 -1.938029E+04
        10   7 -1.262847E+06 -6.072963E+06 -8.063081E+05 -1.478421E+06  3.660627E+05  1.015964E+05
        10   8 -9.935589E+05 -4.936720E+06 -5.979459E+05 -1.392692E+06  3.166718E+05  1.359711E+05
        10   9 -7.192716E+05 -3.802599E+06 -4.109208E+05 -1.498314E+06  2.443264E+05  1.701853E+05
        10  10  1.299888E+06  5.040385E+06  8.860522E+05 -1.529194E+06  1.758163E-09  3.847247E-09
        10  11  1.026310E+06  3.890632E+06  6.682275E+05 -1.423556E+06  8.646395E-09 -3.697812E-09
        10  12  7.757878E+05  2.756847E+06  5.015198E+05 -1.509096E+06 -4.513776E-09 -1.056385E-08
        10  13  1.918905E+04 -5.317899E+05  4.006308E+04 -1.503740E+06  2.146659E-09 -1.421830E-10
        10  14  1.676324E+04 -5.329176E+05  3.517665E+04 -1.408107E+06 -9.731916E-10 -1.713594E-10
        10  15  2.846067E+04 -5.283616E+05  4.528115E+04 -1.503721E+06  1.722294E-09 -1.252394E-10
        10  16 -1.262994E+06 -6.073010E+06 -8.065798E+05 -1.478451E+06 -3.639579E-10 -4.020128E-09
        10  17 -9.936717E+05 -4.936767E+06 -5.981697E+05 -1.392726E+06 -6.132489E-09  3.255577E-09
        10  18 -7.193436E+05 -3.802646E+06 -4.110882E+05 -1.498347E+06 -3.726546E-09  1.026704E-08
        10  19  1.300034E+06  5.040426E+06  8.863131E+05 -1.529215E+06 -3.663220E+05  6.960910E+04
        10  20  1.026424E+06  3.890680E+06  6.684533E+05 -1.423591E+06 -3.178057E+05  1.397075E+05
        10  21  7.758647E+05  2.756910E+06  5.017158E+05 -1.509138E+06 -2.465059E+05  2.099059E+05
        10  22  1.933310E+04 -5.317536E+05  4.031557E+04 -1.503735E+06 -3.661893E+05 -1.636222E+04
        10  23  1.687128E+04 -5.328906E+05  3.536571E+04 -1.408107E+06 -3.172368E+05  1.398785E+03
        10  24  2.852541E+04 -5.283451E+05  4.539495E+04 -1.503725E+06 -2.454166E+05  1.938029E+04
        10  25 -1.262847E+06 -6.072963E+06 -8.063081E+05 -1.478421E+06 -3.660627E+05 -1.015964E+05
        10  26 -9.935589E+05 -4.936720E+06 -5.979459E+05 -1.392692E+06 -3.166718E+05 -1.359711E+05
        10  27 -7.192716E+05 -3.802599E+06 -4.109208E+05 -1.498314E+06 -2.443264E+05 -1.701853E+05
        11   1  6.193169E+05  2.051293E+06  4.081727E+05 -1.511172E+06  1.970904E+05 -2.187834E+05
        11   2  3.976240E+05  8.993820E+05  2.867932E+05 -1.354212E+06  1.129625E+05 -2.698330E+05
        11   3  2.512948E+05 -2.273026E+05  2.170075E+05 -1.390021E+06  2.746810E+04 -3.208751E+05
        11   4  3.428010E+04 -5.236608E+05  5.538447E+04 -1.504094E+06  1.959001E+05 -2.730586E+04
        11   5  7.309241E+04 -5.347187E+05  9.339321E+04 -1.407346E+06  1.116970E+05 -7.535312E+04
        11   6  1.868185E+05 -5.225023E+05  1.808033E+05 -1.503283E+06  2.613660E+04 -1.234723E+05
        11   7 -5.510268E+05 -3.091807E+06 -2.973378E+05 -1.497030E+06  1.947107E+05  1.634154E+05
        11   8 -2.514955E+05 -1.966637E+06 -9.988182E+04 -1.460348E+06  1.103963E+05  1.186988E+05
        11   9  1.224087E+05 -8.175001E+05  1.447526E+05 -1.616489E+06  2.473258E+04  7.384150E+04
        11  10  6.192626E+05  2.051231E+06  4.080106E+05 -1.511137E+06 -7.058370E-09 -5.725282E-08
        11  11  3.975909E+05  8.993006E+05  2.866329E+05 -1.354187E+06  4.757640E-10  2.588173E-09
        11  12  2.512664E+05 -2.274133E+05  2.168126E+05 -1.390014E+06 -3.220914E-10  6.180826E-08
        11  13  3.423872E+04 -5.236718E+05  5.531103E+04 -1.504090E+06 -1.099184E-09 -5.377678E-11
        11  14  7.307753E+04 -5.347281E+05  9.335918E+04 -1.407340E+06 -1.837311E-09  1.323104E-10
        11  15  1.868137E+05 -5.225188E+05  1.807734E+05 -1.503281E+06  9.746155E-10  5.819830E-11
        11  16 -5.510748E+05 -3.091846E+06 -2.974598E+05 -1.497055E+06 -4.902369E-09  5.691694E-08
        11  17 -2.515124E+05 -1.966655E+06 -9.993142E+04 -1.460358E+06 -2.564866E-09 -2.647868E-09
        11  18  1.224065E+05 -8.175062E+05  1.447411E+05 -1.616491E+06 -1.981765E-10 -6.195872E-08
        11  19  6.193169E+05  2.051293E+06  4.081727E+05 -1.511172E+06 -1.970904E+05  2.187834E+05
        11  20  3.976240E+05  8.993820E+05  2.867932E+05 -1.354212E+06 -1.129625E+05  2.698330E+05
        11  21  2.512948E+05 -2.273026E+05  2.170075E+05 -1.390021E+06 -2.746810E+04  3.208751E+05
        11  22  3.428010E+04 -5.236608E+05  5.538447E+04 -1.504094E+06 -1.959001E+05  2.730586E+04
        11  23  7.309241E+04 -5.347187E+05  9.339321E+04 -1.407346E+06 -1.116970E+05  7.535312E+04
        11  24  1.868185E+05 -5.225023E+05  1.808033E+05 -1.503283E+06 -2.613660E+04  1.234723E+05
        11  25 -5.510268E+05 -3.091807E+06 -2.973378E+05 -1.497030E+06 -1.947107E+05 -1.634154E+05
        11  26 -2.514955E+05 -1.966637E+06 -9.988182E+04 -1.460348E+06 -1.103963E+05 -1.186988E+05
        11  27  1.224087E+05 -8.175001E+05  1.447526E+05 -1.616489E+06 -2.473258E+04 -7.384150E+04
        12   1 -6.395242E+06 -1.909065E+06 -1.259029E+06 -2.219489E+06 -7.411534E+05 -2.747762E+05
        12   2 -6.169772E+06 -8.066414E+05 -5.579952E+05 -2.395340E+06 -4.769293E+05 -1.708193E+05
        12   3 -6.374235E+06 -8.776165E+05 -3.683143E+05 -2.314834E+06 -2.103007E+05 -7.325565E+04
        12   4 -6.185713E+06 -1.669448E+06 -1.169094E+06 -1.997978E+06 -7.391140E+05 -2.742550E+05
        12   5 -5.911177E+06 -6.665384E+05 -4.791553E+05 -2.281638E+06 -4.767017E+05 -1.707756E+05
        12   6 -6.066019E+06 -8.364279E+05 -2.989729E+05 -2.309015E+06 -2.118609E+05 -7.380720E+04
        12   7 -5.976076E+06 -1.429646E+06 -1.079152E+06 -1.776364E+06 -7.370738E+05 -2.737321E+05
        12   8 -5.652512E+06 -5.264068E+05 -4.003218E+05 -2.167886E+06 -4.764739E+05 -1.707318E+05
        12   9 -5.757700E+06 -7.952356E+05 -2.296336E+05 -2.303203E+06 -2.134219E+05 -7.435859E+04
        12  10 -6.395858E+06 -1.909296E+06 -1.260217E+06 -2.219655E+06  3.381475E-09 -1.959329E-10
        12  11 -6.170026E+06 -8.067350E+05 -5.584831E+05 -2.395406E+06  8.964792E-10  9.319503E-10
        12  12 -6.374284E+06 -8.776344E+05 -3.684086E+05 -2.314847E+06  1.678505E-09 -4.712678E-11
        12  13 -6.186325E+06 -1.669678E+06 -1.170275E+06 -1.998142E+06 -2.116290E-09 -3.089575E-11
        12  14 -5.911431E+06 -6.666318E+05 -4.796425E+05 -2.281704E+06  2.196545E-09 -5.341357E-11
        12  15 -6.066069E+06 -8.364460E+05 -2.990686E+05 -2.309028E+06 -3.123213E-09  2.238754E-10
        12  16 -5.976685E+06 -1.429875E+06 -1.080326E+06 -1.776528E+06 -8.744347E-10 -1.483501E-10
        12  17 -5.652765E+06 -5.265002E+05 -4.008084E+05 -2.167952E+06  5.026516E-10  1.367402E-10
        12  18 -5.757751E+06 -7.952540E+05 -2.297306E+05 -2.303216E+06  1.320315E-09  1.934072E-10
        12  19 -6.395242E+06 -1.909065E+06 -1.259029E+06 -2.219489E+06  7.411534E+05  2.747762E+05
        12  20 -6.169772E+06 -8.066414E+05 -5.579952E+05 -2.395340E+06  4.769293E+05  1.708193E+05
        12  21 -6.374235E+06 -8.776165E+05 -3.683143E+05 -2.314834E+06  2.103007E+05  7.325565E+04
        12  22 -6.185713E+06 -1.669448E+06 -1.169094E+06 -1.997978E+06  7.391140E+05  2.742550E+05
        12  23 -5.911177E+06 -6.665384E+05 -4.791553E+05 -2.281638E+06  4.767017E+05  1.707756E+05
        12  24 -6.066019E+06 -8.364279E+05 -2.989729E+05 -2.309015E+06  2.118609E+05  7.380720E+04
        12  25 -5.976076E+06 -1.429646E+06 -1.079152E+06 -1.776364E+06  7.370738E+05  2.737321E+05
        12  26 -5.652512E+06 -5.264068E+05 -4.003218E+05 -2.167886E+06  4.764739E+05  1.707318E+05
        12  27 -5.757700E+06 -7.952356E+05 -2.296336E+05 -2.303203E+06  2.134219E+05  7.435859E+04
        13   1 -6.138940E+06 -1.035565E+06 -2.805031E+05 -2.289224E+06 -1.667636E+05 -5.910315E+04
        13   2 -6.083595E+06 -8.495650E+05 -1.346413E+05 -2.278343E+06 -1.066779E+05 -3.784766E+04
        13   3 -6.050038E+06 -8.638064E+05 -7.604221E+04 -2.279612E+06 -4.626660E+04 -1.744175E+04
        13   4 -6.025452E+06 -9.720597E+05 -2.454729E+05 -2.237227E+06 -1.669658E+05 -5.918582E+04
        13   5 -6.006433E+06 -8.153430E+05 -1.125966E+05 -2.252222E+06 -1.071168E+05 -3.801287E+04
        13   6 -6.009143E+06 -8.588059E+05 -6.677870E+04 -2.279369E+06 -4.694610E+04 -1.769468E+04
        13   7 -5.911950E+06 -9.085484E+05 -2.104440E+05 -2.185221E+06 -1.671680E+05 -5.926853E+04
        13   8 -5.929265E+06 -7.811200E+05 -9.055254E+04 -2.226099E+06 -1.075558E+05 -3.817810E+04
        13   9 -5.968245E+06 -8.538053E+05 -5.751524E+04 -2.279127E+06 -4.762566E+04 -1.794760E+04
        13  10 -6.138971E+06 -1.035576E+06 -2.805626E+05 -2.289232E+06  2.220666E-09  1.143339E-09
        13  11 -6.083608E+06 -8.495697E+05 -1.346656E+05 -2.278346E+06 -1.883285E-10  4.602877E-10
        13  12 -6.050041E+06 -8.638073E+05 -7.604686E+04 -2.279613E+06 -1.316726E-09 -6.052991E-10
        13  13 -6.025483E+06 -9.720710E+05 -2.455326E+05 -2.237235E+06  1.507556E-10  3.009051E-10
        13  14 -6.006445E+06 -8.153477E+05 -1.126211E+05 -2.252225E+06 -5.476005E-10  1.533273E-10
        13  15 -6.009145E+06 -8.588068E+05 -6.678348E+04 -2.279370E+06  2.738796E-09 -6.106861E-10
        13  16 -5.911981E+06 -9.085598E+05 -2.105038E+05 -2.185229E+06 -1.296722E-10  7.157158E-10
        13  17 -5.929278E+06 -7.811247E+05 -9.057728E+04 -2.226102E+06  4.150151E-09 -6.839922E-11
        13  18 -5.968248E+06 -8.538063E+05 -5.752016E+04 -2.279128E+06 -1.469456E-09 -3.039287E-10
        13  19 -6.138940E+06 -1.035565E+06 -2.805031E+05 -2.289224E+06  1.667636E+05  5.910315E+04
        13  20 -6.083595E+06 -8.495650E+05 -1.346413E+05 -2.278343E+06  1.066779E+05  3.784766E+04
        13  21 -6.050038E+06 -8.638064E+05 -7.604221E+04 -2.279612E+06  4.626660E+04  1.744175E+04
        13  22 -6.025452E+06 -9.720597E+05 -2.454729E+05 -2.237227E+06  1.669658E+05  5.918582E+04
        13  23 -6.006433E+06 -8.153430E+05 -1.125966E+05 -2.252222E+06  1.071168E+05  3.801287E+04
        13  24 -6.009143E+06 -8.588059E+05 -6.677870E+04 -2.279369E+06  4.694610E+04  1.769468E+04
        13  25 -5.911950E+06 -9.085484E+05 -2.104440E+05 -2.185221E+06  1.671680E+05  5.926853E+04
        13  26 -5.929265E+06 -7.811200E+05 -9.055254E+04 -2.226099E+06  1.075558E+05  3.817810E+04
        13  27 -5.968245E+06 -8.538053E+05 -5.751524E+04 -2.279127E+06  4.762566E+04  1.794760E+04
        14   1 -5.896276E+06 -8.381218E+05 -2.395478E+04 -2.242152E+06 -3.615101E+04 -1.510003E+04
        14   2 -5.867634E+06 -7.800982E+05  1.494403E+04 -2.209125E+06 -2.201446E+04 -1.183203E+04
        14   3 -5.806205E+06 -7.857404E+05  3.798926E+04 -2.219803E+06 -7.942647E+03 -8.384970E+03
        14   4 -6.003792E+06 -8.761905E+05 -5.295898E+04 -2.268582E+06 -3.668331E+04 -1.529917E+04
        14   5 -6.019075E+06 -8.367560E+05 -2.627095E+04 -2.249548E+06 -2.249720E+04 -1.201265E+04
        14   6 -6.001582E+06 -8.610006E+05 -1.547690E+04 -2.274221E+06 -8.376891E+03 -8.547530E+03
        14   7 -6.111298E+06 -9.142590E+05 -8.196431E+04 -2.295007E+06 -3.721551E+04 -1.549828E+04
        14   8 -6.170494E+06 -8.934127E+05 -6.748813E+04 -2.289963E+06 -2.297981E+04 -1.219321E+04
        14   9 -6.196923E+06 -9.362584E+05 -6.894666E+04 -2.328624E+06 -8.810984E+03 -8.710030E+03
        14  10 -5.896278E+06 -8.381224E+05 -2.395770E+04 -2.242152E+06 -4.410274E-09 -1.945755E-10
        14  11 -5.867634E+06 -7.800985E+05  1.494285E+04 -2.209125E+06 -7.859356E-10 -1.512318E-09
        14  12 -5.806205E+06 -7.857405E+05  3.798901E+04 -2.219803E+06 -2.776869E-09 -1.058797E-09
        14  13 -6.003794E+06 -8.761911E+05 -5.296198E+04 -2.268582E+06  1.857704E-09 -4.989896E-10
        14  14 -6.019076E+06 -8.367563E+05 -2.627219E+04 -2.249548E+06  3.904006E-10  6.924883E-10
        14  15 -6.001583E+06 -8.610007E+05 -1.547717E+04 -2.274221E+06 -1.847437E-09  2.017186E-10
        14  16 -6.111300E+06 -9.142597E+05 -8.196740E+04 -2.295008E+06  1.337305E-09 -2.720290E-10
        14  17 -6.170495E+06 -8.934130E+05 -6.748942E+04 -2.289963E+06 -1.048748E-09 -1.555185E-09
        14  18 -6.196923E+06 -9.362585E+05 -6.894695E+04 -2.328624E+06 -1.282864E-09 -2.022826E-10
        14  19 -5.896276E+06 -8.381218E+05 -2.395478E+04 -2.242152E+06  3.615101E+04  1.510003E+04
        14  20 -5.867634E+06 -7.800982E+05  1.494403E+04 -2.209125E+06  2.201446E+04  1.183203E+04
        14  21 -5.806205E+06 -7.857404E+05  3.798926E+04 -2.219803E+06  7.942647E+03  8.384970E+03
        14  22 -6.003792E+06 -8.761905E+05 -5.295898E+04 -2.268582E+06  3.668331E+04  1.529917E+04
        14  23 -6.019075E+06 -8.367560E+05 -2.627095E+04 -2.249548E+06  2.249720E+04  1.201265E+04
        14  24 -6.001582E+06 -8.610006E+05 -1.547690E+04 -2.274221E+06  8.376891E+03  8.547530E+03
        14  25 -6.111298E+06 -9.142590E+05 -8.196431E+04 -2.295007E+06  3.721551E+04  1.549828E+04
        14  26 -6.170494E+06 -8.934127E+05 -6.748813E+04 -2.289963E+06  2.297981E+04  1.219321E+04
        14  27 -6.196923E+06 -9.362584E+05 -6.894666E+04 -2.328624E+06  8.810984E+03  8.710030E+03
        15   1 -5.694296E+06 -7.434964E+05  7.227865E+04 -2.185751E+06 -5.254579E+03 -8.463199E+03
        15   2 -5.677677E+06 -7.151657E+05  8.535769E+04 -2.161659E+06 -1.199436E+03 -8.567143E+03
        15   3 -5.633922E+06 -7.183418E+05  9.503479E+04 -2.169276E+06  2.645821E+03 -8.106200E+03
        15   4 -6.003751E+06 -8.601400E+05 -1.226424E+04 -2.269220E+06 -5.745474E+03 -8.647197E+03
        15   5 -6.017176E+06 -8.435216E+05 -7.288810E+03 -2.253678E+06 -1.528470E+03 -8.690785E+03
        15   6 -6.003497E+06 -8.584445E+05 -5.845786E+03 -2.269847E+06  2.478413E+03 -8.169407E+03
        15   7 -6.313112E+06 -9.767780E+05 -9.681558E+04 -2.352650E+06 -6.236095E+03 -8.831092E+03
        15   8 -6.356562E+06 -9.718708E+05 -9.994570E+04 -2.345651E+06 -1.857303E+03 -8.814353E+03
        15   9 -6.372941E+06 -9.985394E+05 -1.067389E+05 -2.370364E+06  2.311116E+03 -8.232572E+03
        15  10 -5.694296E+06 -7.434964E+05  7.227846E+04 -2.185751E+06  1.477121E-09 -5.721590E-10
        15  11 -5.677677E+06 -7.151658E+05  8.535755E+04 -2.161659E+06  1.539259E-09 -1.359563E-09
        15  12 -5.633922E+06 -7.183419E+05  9.503465E+04 -2.169276E+06  3.227246E-09 -2.669366E-10
        15  13 -6.003751E+06 -8.601401E+05 -1.226445E+04 -2.269220E+06  3.673856E-10 -4.148694E-10
        15  14 -6.017176E+06 -8.435217E+05 -7.288956E+03 -2.253678E+06  5.053032E-09 -1.241061E-09
        15  15 -6.003497E+06 -8.584446E+05 -5.845923E+03 -2.269847E+06  6.352681E-09 -2.032540E-11
        15  16 -6.313112E+06 -9.767781E+05 -9.681580E+04 -2.352650E+06 -4.445757E-09 -5.518352E-10
        15  17 -6.356562E+06 -9.718709E+05 -9.994585E+04 -2.345651E+06  1.109548E-09 -8.413394E-10
        15  18 -6.372941E+06 -9.985395E+05 -1.067390E+05 -2.370364E+06  6.298131E-09 -1.095995E-10
        15  19 -5.694296E+06 -7.434964E+05  7.227865E+04 -2.185751E+06  5.254579E+03  8.463199E+03
        15  20 -5.677677E+06 -7.151657E+05  8.535769E+04 -2.161659E+06  1.199436E+03  8.567143E+03
        15  21 -5.633922E+06 -7.183418E+05  9.503479E+04 -2.169276E+06 -2.645821E+03  8.106200E+03
        15  22 -6.003751E+06 -8.601400E+05 -1.226424E+04 -2.269220E+06  5.745474E+03  8.647197E+03
        15  23 -6.017176E+06 -8.435216E+05 -7.288810E+03 -2.253678E+06  1.528470E+03  8.690785E+03
        15  24 -6.003497E+06 -8.584445E+05 -5.845786E+03 -2.269847E+06 -2.478413E+03  8.169407E+03
        15  25 -6.313112E+06 -9.767780E+05 -9.681558E+04 -2.352650E+06  6.236095E+03  8.831092E+03
        15  26 -6.356562E+06 -9.718708E+05 -9.994570E+04 -2.345651E+06  1.857303E+03  8.814353E+03
        15  27 -6.372941E+06 -9.985394E+05 -1.067389E+05 -2.370364E+06 -2.311116E+03  8.232572E+03
        16   1 -5.583352E+06 -6.927830E+05  1.102672E+05 -2.148998E+06  3.887196E+03 -8.164366E+03
        16   2 -5.579782E+06 -6.861802E+05  1.105611E+05 -2.143356E+06  7.558579E+03 -7.484199E+03
        16   3 -5.570893E+06 -6.888397E+05  1.075982E+05 -2.143970E+06  1.095657E+04 -6.075887E+03
        16   4 -6.008360E+06 -8.534919E+05 -5.812248E+03 -2.264202E+06  3.604099E+03 -8.271157E+03
        16   5 -6.011128E+06 -8.497168E+05 -7.234026E+03 -2.260746E+06  7.484133E+03 -7.512717E+03
        16   6 -6.008621E+06 -8.552474E+05 -1.208111E+04 -2.263546E+06  1.109065E+04 -6.025902E+03
        16   7 -6.433193E+06 -1.014190E+06 -1.219079E+05 -2.379335E+06  3.321217E+03 -8.377867E+03
        16   8 -6.442294E+06 -1.013243E+06 -1.250461E+05 -2.378062E+06  7.409744E+03 -7.541213E+03
        16   9 -6.446164E+06 -1.021644E+06 -1.317782E+05 -2.383046E+06  1.122462E+04 -5.975957E+03
        16  10 -5.583352E+06 -6.927831E+05  1.102670E+05 -2.148998E+06 -4.893562E-10 -2.187569E-09
        16  11 -5.579782E+06 -6.861803E+05  1.105609E+05 -2.143356E+06 -2.523497E-09  1.778476E-09
        16  12 -5.570894E+06 -6.888398E+05  1.075980E+05 -2.143970E+06 -2.538803E-09  3.194694E-10
        16  13 -6.008360E+06 -8.534920E+05 -5.812400E+03 -2.264202E+06  1.838613E-09  1.204225E-09
        16  14 -6.011128E+06 -8.497168E+05 -7.234237E+03 -2.260746E+06  2.945557E-09  9.872784E-10
        16  15 -6.008621E+06 -8.552474E+05 -1.208141E+04 -2.263546E+06 -3.852706E-09  8.794136E-10
        16  16 -6.433193E+06 -1.014190E+06 -1.219081E+05 -2.379335E+06  2.155403E-09  1.321620E-09
        16  17 -6.442294E+06 -1.013243E+06 -1.250464E+05 -2.378062E+06 -1.293564E-09  2.525537E-09
        16  18 -6.446164E+06 -1.021644E+06 -1.317785E+05 -2.383046E+06  1.926770E-09 -8.969472E-10
        16  19 -5.583352E+06 -6.927830E+05  1.102672E+05 -2.148998E+06 -3.887196E+03  8.164366E+03
        16  20 -5.579782E+06 -6.861802E+05  1.105611E+05 -2.143356E+06 -7.558579E+03  7.484199E+03
        16  21 -5.570893E+06 -6.888397E+05  1.075982E+05 -2.143970E+06 -1.095657E+04  6.075887E+03
        16  22 -6.008360E+06 -8.534919E+05 -5.812248E+03 -2.264202E+06 -3.604099E+03  8.271157E+03
        16  23 -6.011128E+06 -8.497168E+05 -7.234026E+03 -2.260746E+06 -7.484133E+03  7.512717E+03
        16  24 -6.008621E+06 -8.552474E+05 -1.208111E+04 -2.263546E+06 -1.109065E+04  6.025902E+03
        16  25 -6.433193E+06 -1.014190E+06 -1.219079E+05 -2.379335E+06 -3.321217E+03  8.377867E+03
        16  26 -6.442294E+06 -1.013243E+06 -1.250461E+05 -2.378062E+06 -7.409744E+03  7.541213E+03
        16  27 -6.446164E+06 -1.021644E+06 -1.317782E+05 -2.383046E+06 -1.122462E+04  5.975957E+03
        17   1 -5.594188E+06 -6.894097E+05  9.942058E+04 -2.145639E+06  1.325417E+04 -5.030747E+03
        17   2 -5.602366E+06 -7.010319E+05  8.357705E+04 -2.158940E+06  2.622468E+04  3.020309E+02
        17   3 -5.637312E+06 -7.155352E+05  5.238159E+04 -2.146857E+06  3.894057E+04  6.304040E+03
        17   4 -6.014855E+06 -8.476467E+05 -1.521632E+04 -2.258843E+06  1.326453E+04 -5.027299E+03
        17   5 -6.002555E+06 -8.536286E+05 -2.588525E+04 -2.268740E+06  2.642086E+04  3.756297E+02
        17   6 -6.017069E+06 -8.625368E+05 -5.206186E+04 -2.253252E+06  3.932294E+04  6.448060E+03
        17   7 -6.435351E+06 -1.005874E+06 -1.298693E+05 -2.371977E+06  1.327488E+04 -5.023855E+03
        17   8 -6.402590E+06 -1.006215E+06 -1.353621E+05 -2.378476E+06  2.661689E+04  4.491729E+02
        17   9 -6.396685E+06 -1.009528E+06 -1.565184E+05 -2.359587E+06  3.970505E+04  6.591975E+03
        17  10 -5.594188E+06 -6.894098E+05  9.942020E+04 -2.145639E+06 -1.768833E-09 -7.417553E-11
        17  11 -5.602366E+06 -7.010321E+05  8.357575E+04 -2.158940E+06 -6.323289E-11 -1.822291E-09
        17  12 -5.637313E+06 -7.155357E+05  5.237863E+04 -2.146858E+06 -2.472897E-09  1.283471E-10
        17  13 -6.014855E+06 -8.476468E+05 -1.521670E+04 -2.258843E+06 -1.587321E-09  3.059625E-10
        17  14 -6.002556E+06 -8.536288E+05 -2.588658E+04 -2.268740E+06 -2.563881E-09 -1.036802E-10
        17  15 -6.017070E+06 -8.625373E+05 -5.206487E+04 -2.253252E+06 -5.809368E-09  6.155743E-10
        17  16 -6.435351E+06 -1.005874E+06 -1.298696E+05 -2.371976E+06 -1.667716E-09  9.713826E-11
        17  17 -6.402590E+06 -1.006216E+06 -1.353634E+05 -2.378476E+06  1.053680E-09 -1.737825E-09
        17  18 -6.396687E+06 -1.009529E+06 -1.565215E+05 -2.359587E+06 -3.043319E-10  7.158345E-10
        17  19 -5.594188E+06 -6.894097E+05  9.942058E+04 -2.145639E+06 -1.325417E+04  5.030747E+03
        17  20 -5.602366E+06 -7.010319E+05  8.357705E+04 -2.158940E+06 -2.622468E+04 -3.020309E+02
        17  21 -5.637312E+06 -7.155352E+05  5.238159E+04 -2.146857E+06 -3.894057E+04 -6.304040E+03
        17  22 -6.014855E+06 -8.476467E+05 -1.521632E+04 -2.258843E+06 -1.326453E+04  5.027299E+03
        17  23 -6.002555E+06 -8.536286E+05 -2.588525E+04 -2.268740E+06 -2.642086E+04 -3.756297E+02
        17  24 -6.017069E+06 -8.625368E+05 -5.206186E+04 -2.253252E+06 -3.932294E+04 -6.448060E+03
        17  25 -6.435351E+06 -1.005874E+06 -1.298693E+05 -2.371977E+06 -1.327488E+04  5.023855E+03
        17  26 -6.402590E+06 -1.006215E+06 -1.353621E+05 -2.378476E+06 -2.661689E+04 -4.491729E+02
        17  27 -6.396685E+06 -1.009528E+06 -1.565184E+05 -2.359587E+06 -3.970505E+04 -6.591975E+03
        18   1 -5.724187E+06 -7.360898E+05  1.495502E+04 -2.186430E+06  4.833536E+04  1.071305E+04
        18   2 -5.731678E+06 -7.372199E+05 -4.070741E+04 -2.203737E+06  1.061612E+05  3.407718E+04
        18   3 -5.841216E+06 -8.541588E+05 -1.818487E+05 -2.140546E+06  1.638573E+05  5.776498E+04
        18   4 -6.026986E+06 -8.408830E+05 -6.567271E+04 -2.258660E+06  4.864916E+04  1.083250E+04
        18   5 -5.984141E+06 -8.384056E+05 -1.107469E+05 -2.278002E+06  1.065458E+05  3.422160E+04
        18   6 -6.043381E+06 -9.517874E+05 -2.413796E+05 -2.216837E+06  1.643180E+05  5.793272E+04
        18   7 -6.329695E+06 -9.456747E+05 -1.463084E+05 -2.330859E+06  4.896279E+04  1.095190E+04
        18   8 -6.236542E+06 -9.395856E+05 -1.807924E+05 -2.352238E+06  1.069303E+05  3.436594E+04
        18   9 -6.245505E+06 -1.049406E+06 -3.009146E+05 -2.293102E+06  1.647785E+05  5.810034E+04
        18  10 -5.724190E+06 -7.360906E+05  1.495036E+04 -2.186431E+06  5.563847E-09  5.496255E-09
        18  11 -5.731690E+06 -7.372242E+05 -4.073102E+04 -2.203740E+06  4.999596E-10  3.348655E-09
        18  12 -5.841246E+06 -8.541697E+05 -1.819061E+05 -2.140554E+06 -3.359135E-10 -3.797106E-09
        18  13 -6.026988E+06 -8.408838E+05 -6.567742E+04 -2.258660E+06 -9.399277E-10  1.726000E-09
        18  14 -5.984153E+06 -8.384099E+05 -1.107707E+05 -2.278005E+06  7.571324E-09  3.011027E-09
        18  15 -6.043412E+06 -9.517984E+05 -2.414373E+05 -2.216845E+06  4.879718E-09  3.739137E-10
        18  16 -6.329698E+06 -9.456755E+05 -1.463132E+05 -2.330859E+06 -4.241870E-09 -1.174791E-09
        18  17 -6.236554E+06 -9.395900E+05 -1.808164E+05 -2.352241E+06  5.616739E-09  1.797589E-09
        18  18 -6.245536E+06 -1.049417E+06 -3.009726E+05 -2.293110E+06  6.497736E-09  2.134683E-09
        18  19 -5.724187E+06 -7.360898E+05  1.495502E+04 -2.186430E+06 -4.833536E+04 -1.071305E+04
        18  20 -5.731678E+06 -7.372199E+05 -4.070741E+04 -2.203737E+06 -1.061612E+05 -3.407718E+04
        18  21 -5.841216E+06 -8.541588E+05 -1.818487E+05 -2.140546E+06 -1.638573E+05 -5.776498E+04
        18  22 -6.026986E+06 -8.408830E+05 -6.567271E+04 -2.258660E+06 -4.864916E+04 -1.083250E+04
        18  23 -5.984141E+06 -8.384056E+05 -1.107469E+05 -2.278002E+06 -1.065458E+05 -3.422160E+04
        18  24 -6.043381E+06 -9.517874E+05 -2.413796E+05 -2.216837E+06 -1.643180E+05 -5.793272E+04
        18  25 -6.329695E+06 -9.456747E+05 -1.463084E+05 -2.330859E+06 -4.896279E+04 -1.095190E+04
        18  26 -6.236542E+06 -9.395856E+05 -1.807924E+05 -2.352238E+06 -1.069303E+05 -3.436594E+04
        18  27 -6.245505E+06 -1.049406E+06 -3.009146E+05 -2.293102E+06 -1.647785E+05 -5.810034E+04
        19   1 -5.940867E+06 -8.406865E+05 -2.703491E+05 -2.326176E+06  2.065240E+05  7.537611E+04
        19   2 -5.882122E+06 -6.461899E+05 -4.604653E+05 -2.261207E+06  4.654467E+05  1.757730E+05
        19   3 -6.326741E+06 -1.524372E+06 -1.152223E+06 -1.852502E+06  7.247498E+05  2.751442E+05
        19   4 -6.082277E+06 -8.195879E+05 -2.940323E+05 -2.288770E+06  2.072088E+05  7.566711E+04
        19   5 -5.890646E+06 -6.916169E+05 -4.711817E+05 -2.306381E+06  4.658138E+05  1.758724E+05
        19   6 -6.202373E+06 -1.636314E+06 -1.149712E+06 -1.980203E+06  7.248617E+05  2.749519E+05
        19   7 -6.223655E+06 -7.984733E+05 -3.177125E+05 -2.251374E+06  2.078935E+05  7.595826E+04
        19   8 -5.899165E+06 -7.370340E+05 -4.818971E+05 -2.351553E+06  4.661808E+05  1.759716E+05
        19   9 -6.077931E+06 -1.748148E+06 -1.147184E+06 -2.107922E+06  7.249737E+05  2.747596E+05
        19  10 -5.940915E+06 -8.407042E+05 -2.704410E+05 -2.326189E+06  1.593446E-09 -4.182980E-09
        19  11 -5.882365E+06 -6.462823E+05 -4.609357E+05 -2.261273E+06  1.130162E-09  4.227361E-10
        19  12 -6.327331E+06 -1.524597E+06 -1.153365E+06 -1.852663E+06 -9.461291E-10  2.003985E-10
        19  13 -6.082325E+06 -8.196058E+05 -2.941247E+05 -2.288783E+06  1.392823E-09  4.455241E-10
        19  14 -5.890889E+06 -6.917095E+05 -4.716528E+05 -2.306447E+06 -4.256136E-09  5.228204E-09
        19  15 -6.202962E+06 -1.636539E+06 -1.150854E+06 -1.980364E+06 -2.211566E-09 -4.475662E-10
        19  16 -6.223703E+06 -7.984913E+05 -3.178056E+05 -2.251386E+06 -1.096973E-09  1.677033E-09
        19  17 -5.899409E+06 -7.371267E+05 -4.823689E+05 -2.351619E+06  2.295286E-09 -1.050572E-09
        19  18 -6.078521E+06 -1.748373E+06 -1.148326E+06 -2.108083E+06 -1.269442E-09 -6.823862E-10
        19  19 -5.940867E+06 -8.406865E+05 -2.703491E+05 -2.326176E+06 -2.065240E+05 -7.537611E+04
        19  20 -5.882122E+06 -6.461899E+05 -4.604653E+05 -2.261207E+06 -4.654467E+05 -1.757730E+05
        19  21 -6.326741E+06 -1.524372E+06 -1.152223E+06 -1.852502E+06 -7.247498E+05 -2.751442E+05
        19  22 -6.082277E+06 -8.195879E+05 -2.940323E+05 -2.288770E+06 -2.072088E+05 -7.566711E+04
        19  23 -5.890646E+06 -6.916169E+05 -4.711817E+05 -2.306381E+06 -4.658138E+05 -1.758724E+05
        19  24 -6.202373E+06 -1.636314E+06 -1.149712E+06 -1.980203E+06 -7.248617E+05 -2.749519E+05
        19  25 -6.223655E+06 -7.984733E+05 -3.177125E+05 -2.251374E+06 -2.078935E+05 -7.595826E+04
        19  26 -5.899165E+06 -7.370340E+05 -4.818971E+05 -2.351553E+06 -4.661808E+05 -1.759716E+05
        19  27 -6.077931E+06 -1.748148E+06 -1.147184E+06 -2.107922E+06 -7.249737E+05 -2.747596E+05
        20   1 -2.552325E+06  1.327958E+04  1.735231E+04  1.104855E+03  1.182245E+04  2.112289E-02
        20   2 -2.554989E+06 -3.128334E+03  7.395817E+03  2.795460E+02  7.780633E+03  3.517285E-03
        20   3 -2.552343E+06 -4.356455E+02  4.854018E+03 -5.457483E+02  3.738867E+03 -3.299692E-03
        20   4 -2.552325E+06  1.327958E+04  1.735231E+04  1.427878E-07  1.182245E+04 -5.570204E-09
        20   5 -2.554989E+06 -3.128335E+03  7.395817E+03  1.017086E-07  7.780633E+03 -1.433806E-08
        20   6 -2.552343E+06 -4.356461E+02  4.854017E+03  8.898992E-09  3.738867E+03 -1.047268E-08
        20   7 -2.552325E+06  1.327958E+04  1.735231E+04 -1.104855E+03  1.182245E+04 -2.112290E-02
        20   8 -2.554989E+06 -3.128334E+03  7.395817E+03 -2.795460E+02  7.780633E+03 -3.517316E-03
        20   9 -2.552343E+06 -4.356455E+02  4.854018E+03  5.457483E+02  3.738867E+03  3.299670E-03
        20  10 -2.552325E+06  1.327954E+04  1.735204E+04  1.104855E+03  8.855747E-10  1.167172E-09
        20  11 -2.554989E+06 -3.128351E+03  7.395703E+03  2.795460E+02  8.023738E-10  2.478389E-09
        20  12 -2.552343E+06 -4.356493E+02  4.853991E+03 -5.457483E+02  2.469293E-10  9.747081E-10
        20  13 -2.552325E+06  1.327954E+04  1.735204E+04  3.950437E-08  3.654088E-10  1.940910E-10
        20  14 -2.554989E+06 -3.128351E+03  7.395703E+03  3.285531E-08 -1.075872E-09  6.515535E-10
        20  15 -2.552343E+06 -4.356499E+02  4.853991E+03 -6.855841E-08 -5.835620E-09  2.572320E-10
        20  16 -2.552325E+06  1.327954E+04  1.735204E+04 -1.104855E+03 -2.490749E-09  5.673634E-10
        20  17 -2.554989E+06 -3.128351E+03  7.395703E+03 -2.795460E+02 -1.358357E-09  2.043075E-10
        20  18 -2.552343E+06 -4.356493E+02  4.853991E+03  5.457483E+02 -3.221845E-09  9.032672E-10
        20  19 -2.552325E+06  1.327958E+04  1.735231E+04  1.104855E+03 -1.182245E+04 -2.112289E-02
        20  20 -2.554989E+06 -3.128334E+03  7.395817E+03  2.795460E+02 -7.780633E+03 -3.517283E-03
        20  21 -2.552343E+06 -4.356455E+02  4.854018E+03 -5.457483E+02 -3.738867E+03  3.299692E-03
        20  22 -2.552325E+06  1.327958E+04  1.735231E+04  7.392847E-08 -1.182245E+04  5.853633E-09
        20  23 -2.554989E+06 -3.128335E+03  7.395817E+03  1.564147E-08 -7.780633E+03  1.569410E-08
        20  24 -2.552343E+06 -4.356461E+02  4.854017E+03  4.333921E-08 -3.738867E+03  1.174434E-08
        20  25 -2.552325E+06  1.327958E+04  1.735231E+04 -1.104855E+03 -1.182245E+04  2.112290E-02
        20  26 -2.554989E+06 -3.128334E+03  7.395817E+03 -2.795460E+02 -7.780633E+03  3.517314E-03
        20  27 -2.552343E+06 -4.356455E+02  4.854018E+03  5.457483E+02 -3.738867E+03 -3.299671E-03
        21   1 -2.553327E+06  2.036024E+03  4.013785E+03  1.618254E+02  2.936509E+03  7.684506E-04
        21   2 -2.553760E+06 -4.800233E+02  1.895447E+03  3.817684E+01  1.941047E+03  1.198253E-04
        21   3 -2.553330E+06 -6.643301E+01  1.159632E+03 -8.547352E+01  9.455703E+02 -1.306970E-04
        21   4 -2.553327E+06  2.036024E+03  4.013785E+03  2.158030E-08  2.936509E+03 -6.539552E-09
        21   5 -2.553760E+06 -4.800233E+02  1.895447E+03 -1.759086E-07  1.941047E+03 -4.920398E-09
        21   6 -2.553330E+06 -6.643302E+01  1.159632E+03  8.709321E-08  9.455703E+02 -1.977794E-09
        21   7 -2.553327E+06  2.036024E+03  4.013785E+03 -1.618254E+02  2.936509E+03 -7.684633E-04
        21   8 -2.553760E+06 -4.800233E+02  1.895447E+03 -3.817684E+01  1.941047E+03 -1.198412E-04
        21   9 -2.553330E+06 -6.643301E+01  1.159632E+03  8.547352E+01  9.455703E+02  1.306947E-04
        21  10 -2.553327E+06  2.036021E+03  4.013769E+03  1.618254E+02 -3.716029E-10  9.575618E-10
        21  11 -2.553760E+06 -4.800243E+02  1.895440E+03  3.817684E+01 -6.623269E-10  1.223388E-09
        21  12 -2.553330E+06 -6.643325E+01  1.159630E+03 -8.547352E+01  2.753379E-09  1.423326E-09
        21  13 -2.553327E+06  2.036021E+03  4.013769E+03 -1.161315E-07  4.953780E-10  5.428390E-10
        21  14 -2.553760E+06 -4.800243E+02  1.895440E+03 -2.103383E-07  1.522773E-10  2.696734E-10
        21  15 -2.553330E+06 -6.643326E+01  1.159630E+03  3.114405E-08  1.839732E-09 -2.692002E-10
        21  16 -2.553327E+06  2.036021E+03  4.013769E+03 -1.618254E+02 -7.546441E-10 -6.798364E-10
        21  17 -2.553760E+06 -4.800243E+02  1.895440E+03 -3.817684E+01  3.737052E-10 -1.444952E-10
        21  18 -2.553330E+06 -6.643325E+01  1.159630E+03  8.547352E+01  5.200139E-10  5.262495E-11
        21  19 -2.553327E+06  2.036024E+03  4.013785E+03  1.618254E+02 -2.936509E+03 -7.684473E-04
        21  20 -2.553760E+06 -4.800233E+02  1.895447E+03  3.817684E+01 -1.941047E+03 -1.198238E-04
        21  21 -2.553330E+06 -6.643301E+01  1.159632E+03 -8.547352E+01 -9.455703E+02  1.306978E-04
        21  22 -2.553327E+06  2.036024E+03  4.013785E+03  7.322288E-08 -2.936509E+03  7.708737E-09
        21  23 -2.553760E+06 -4.800233E+02  1.895447E+03 -1.414841E-07 -1.941047E+03  5.171270E-09
        21  24 -2.553330E+06 -6.643302E+01  1.159632E+03 -1.189002E-08 -9.455703E+02  1.257082E-09
        21  25 -2.553327E+06  2.036024E+03  4.013785E+03 -1.618254E+02 -2.936509E+03  7.684616E-04
        21  26 -2.553760E+06 -4.800233E+02  1.895447E+03 -3.817684E+01 -1.941047E+03  1.198350E-04
        21  27 -2.553330E+06 -6.643301E+01  1.159632E+03  8.547352E+01 -9.455703E+02 -1.306983E-04
        22   1 -2.553491E+06  3.106943E+02  9.127001E+02  2.228140E+01  7.581324E+02  2.731808E-05
        22   2 -2.553559E+06 -7.111359E+01  4.142993E+02  4.487130E+00  5.447916E+02  3.960872E-06
        22   3 -2.553492E+06 -1.911479E+01  1.636746E+02 -1.330715E+01  3.314508E+02 -7.119623E-06
        22   4 -2.553491E+06  3.106943E+02  9.127001E+02  7.002712E-08  7.581324E+02  1.209362E-09
        22   5 -2.553559E+06 -7.111359E+01  4.142993E+02 -1.749681E-07  5.447916E+02  6.921823E-09
        22   6 -2.553492E+06 -1.911479E+01  1.636746E+02  8.784114E-08  3.314508E+02  9.190253E-09
        22   7 -2.553491E+06  3.106943E+02  9.127001E+02 -2.228140E+01  7.581324E+02 -2.731475E-05
        22   8 -2.553559E+06 -7.111359E+01  4.142993E+02 -4.487130E+00  5.447916E+02 -3.949061E-06
        22   9 -2.553492E+06 -1.911479E+01  1.636747E+02  1.330715E+01  3.314508E+02  7.142055E-06
        22  10 -2.553491E+06  3.106942E+02  9.126990E+02  2.228140E+01  2.895458E-09 -4.740695E-10
        22  11 -2.553559E+06 -7.111367E+01  4.142987E+02  4.487129E+00  2.640885E-09 -6.661534E-11
        22  12 -2.553492E+06 -1.911482E+01  1.636744E+02 -1.330715E+01 -6.062160E-10  5.446586E-10
        22  13 -2.553491E+06  3.106942E+02  9.126990E+02 -3.325436E-08 -3.358618E-11 -1.384997E-10
        22  14 -2.553559E+06 -7.111367E+01  4.142988E+02 -1.405388E-07  1.768444E-09  6.147808E-10
        22  15 -2.553492E+06 -1.911482E+01  1.636744E+02 -4.126163E-08  5.054556E-10  6.778132E-10
        22  16 -2.553491E+06  3.106942E+02  9.126990E+02 -2.228140E+01 -9.095349E-10 -3.426653E-10
        22  17 -2.553559E+06 -7.111367E+01  4.142988E+02 -4.487130E+00 -2.102952E-09  6.709241E-11
        22  18 -2.553492E+06 -1.911482E+01  1.636744E+02  1.330715E+01 -6.958493E-10 -2.001116E-10
        22  19 -2.553491E+06  3.106943E+02  9.127001E+02  2.228140E+01 -7.581324E+02 -2.731801E-05
        22  20 -2.553559E+06 -7.111359E+01  4.142993E+02  4.487130E+00 -5.447916E+02 -3.955344E-06
        22  21 -2.553492E+06 -1.911479E+01  1.636746E+02 -1.330715E+01 -3.314508E+02  7.125026E-06
        22  22 -2.553491E+06  3.106943E+02  9.127001E+02 -3.325226E-08 -7.581324E+02 -2.008218E-09
        22  23 -2.553559E+06 -7.111359E+01  4.142993E+02 -2.438208E-07 -5.447916E+02 -5.582476E-09
        22  24 -2.553492E+06 -1.911479E+01  1.636747E+02  1.609989E-07 -3.314508E+02 -8.086090E-09
        22  25 -2.553491E+06  3.106943E+02  9.127001E+02 -2.228140E+01 -7.581324E+02  2.731334E-05
        22  26 -2.553559E+06 -7.111359E+01  4.142993E+02 -4.487130E+00 -5.447916E+02  3.944547E-06
        22  27 -2.553492E+06 -1.911479E+01  1.636747E+02  1.330715E+01 -3.314508E+02 -7.143571E-06
        23   1 -2.553526E+06  4.857671E+01  6.099296E+01 -3.019988E-01  3.111285E+02 -1.393736E-07
        23   2 -2.553517E+06  4.653394E+00 -1.670710E+02  3.129589E-01  3.941441E+02  2.121281E-07
        23   3 -2.553526E+06 -6.743556E+01 -4.563918E+02  9.279068E-01  4.771584E+02  7.278780E-07
        23   4 -2.553526E+06  4.857671E+01  6.099296E+01  1.380333E-07  3.111285E+02  1.040559E-08
        23   5 -2.553517E+06  4.653394E+00 -1.670710E+02  5.464071E-08  3.941441E+02  1.385568E-08
        23   6 -2.553526E+06 -6.743556E+01 -4.563918E+02  2.058663E-07  4.771584E+02  1.271155E-08
        23   7 -2.553526E+06  4.857671E+01  6.099296E+01  3.019989E-01  3.111285E+02  1.614031E-07
        23   8 -2.553517E+06  4.653394E+00 -1.670710E+02 -3.129589E-01  3.941441E+02 -1.894150E-07
        23   9 -2.553526E+06 -6.743556E+01 -4.563918E+02 -9.279071E-01  4.771584E+02 -7.033586E-07
        23  10 -2.553526E+06  4.857669E+01  6.099277E+01 -3.019988E-01 -7.290648E-10  1.897486E-09
        23  11 -2.553517E+06  4.653352E+00 -1.670713E+02  3.129584E-01  7.021353E-10  5.545790E-11
        23  12 -2.553526E+06 -6.743562E+01 -4.563922E+02  9.279067E-01 -8.424185E-10 -8.911820E-10
        23  13 -2.553526E+06  4.857669E+01  6.099277E+01 -5.131850E-08  1.757207E-09  4.080733E-10
        23  14 -2.553517E+06  4.653352E+00 -1.670713E+02  2.998118E-09  4.616928E-10 -2.685978E-10
        23  15 -2.553526E+06 -6.743562E+01 -4.563922E+02  1.176375E-07  3.928532E-09 -5.552968E-10
        23  16 -2.553526E+06  4.857669E+01  6.099277E+01  3.019987E-01 -1.566074E-09  1.075104E-09
        23  17 -2.553517E+06  4.653352E+00 -1.670713E+02 -3.129581E-01  1.911288E-09 -1.132777E-09
        23  18 -2.553526E+06 -6.743562E+01 -4.563922E+02 -9.279065E-01 -7.096043E-10 -2.618281E-10
        23  19 -2.553526E+06  4.857671E+01  6.099296E+01 -3.019987E-01 -3.111285E+02  1.411947E-07
        23  20 -2.553517E+06  4.653394E+00 -1.670710E+02  3.129586E-01 -3.941441E+02 -2.091184E-07
        23  21 -2.553526E+06 -6.743556E+01 -4.563918E+02  9.279072E-01 -4.771584E+02 -7.294379E-07
        23  22 -2.553526E+06  4.857671E+01  6.099296E+01  2.241041E-07 -3.111285E+02 -1.006664E-08
        23  23 -2.553517E+06  4.653394E+00 -1.670710E+02  5.463808E-08 -3.941441E+02 -1.365991E-08
        23  24 -2.553526E+06 -6.743556E+01 -4.563918E+02  1.585172E-07 -4.771584E+02 -1.346269E-08
        23  25 -2.553526E+06  4.857671E+01  6.099296E+01  3.019987E-01 -3.111285E+02 -1.645943E-07
        23  26 -2.553517E+06  4.653394E+00 -1.670710E+02 -3.129585E-01 -3.941441E+02  1.821651E-07
        23  27 -2.553526E+06 -6.743556E+01 -4.563918E+02 -9.279071E-01 -4.771584E+02  6.985221E-07
        24   1 -2.553574E+06  1.959884E+01 -6.276036E+02 -1.994794E+01  5.751789E+02 -1.854068E-05
        24   2 -2.553458E+06  1.036614E+02 -1.126431E+03  3.939889E+00  1.143956E+03  7.301295E-06
        24   3 -2.553575E+06 -4.438122E+02 -2.154580E+03  2.782808E+01  1.712741E+03  7.708963E-05
        24   4 -2.553574E+06  1.959884E+01 -6.276036E+02  1.429944E-07  5.751789E+02  1.300514E-08
        24   5 -2.553458E+06  1.036614E+02 -1.126431E+03  4.566375E-08  1.143956E+03  1.497744E-08
        24   6 -2.553575E+06 -4.438122E+02 -2.154580E+03 -1.056098E-10  1.712741E+03  1.107759E-08
        24   7 -2.553574E+06  1.959884E+01 -6.276036E+02  1.994794E+01  5.751789E+02  1.856555E-05
        24   8 -2.553458E+06  1.036614E+02 -1.126431E+03 -3.939889E+00  1.143956E+03 -7.274084E-06
        24   9 -2.553575E+06 -4.438122E+02 -2.154580E+03 -2.782808E+01  1.712741E+03 -7.706414E-05
        24  10 -2.553574E+06  1.959875E+01 -6.276043E+02 -1.994794E+01  9.892199E-10 -7.786209E-10
        24  11 -2.553458E+06  1.036611E+02 -1.126433E+03  3.939889E+00  1.412454E-09 -1.336646E-09
        24  12 -2.553575E+06 -4.438130E+02 -2.154586E+03  2.782808E+01  1.278827E-09  1.273654E-09
        24  13 -2.553574E+06  1.959875E+01 -6.276042E+02  5.280426E-09 -3.358616E-11 -4.142587E-12
        24  14 -2.553458E+06  1.036611E+02 -1.126433E+03 -4.040343E-08 -4.962347E-09  1.980301E-10
        24  15 -2.553575E+06 -4.438130E+02 -2.154586E+03 -2.410948E-07 -1.493469E-09  5.923663E-10
        24  16 -2.553574E+06  1.959876E+01 -6.276042E+02  1.994794E+01  3.675128E-09 -3.792981E-11
        24  17 -2.553458E+06  1.036611E+02 -1.126433E+03 -3.939888E+00 -4.128710E-10  7.978087E-10
        24  18 -2.553575E+06 -4.438130E+02 -2.154586E+03 -2.782808E+01 -8.538251E-10  2.837103E-10
        24  19 -2.553574E+06  1.959884E+01 -6.276036E+02 -1.994794E+01 -5.751789E+02  1.854231E-05
        24  20 -2.553458E+06  1.036614E+02 -1.126431E+03  3.939889E+00 -1.143956E+03 -7.297838E-06
        24  21 -2.553575E+06 -4.438122E+02 -2.154580E+03  2.782808E+01 -1.712741E+03 -7.708540E-05
        24  22 -2.553574E+06  1.959884E+01 -6.276036E+02  1.429928E-07 -5.751789E+02 -1.335795E-08
        24  23 -2.553458E+06  1.036614E+02 -1.126431E+03 -2.318799E-08 -1.143956E+03 -1.436635E-08
        24  24 -2.553575E+06 -4.438122E+02 -2.154580E+03 -1.033814E-07 -1.712741E+03 -9.800541E-09
        24  25 -2.553574E+06  1.959884E+01 -6.276036E+02  1.994794E+01 -5.751789E+02 -1.857066E-05
        24  26 -2.553458E+06  1.036614E+02 -1.126431E+03 -3.939889E+00 -1.143956E+03  7.270896E-06
        24  27 -2.553575E+06 -4.438122E+02 -2.154580E+03 -2.782808E+01 -1.712741E+03  7.706217E-05
        25   1 -2.553826E+06  9.090461E+01 -2.756648E+03 -1.272109E+02  2.156865E+03 -4.436880E-04
        25   2 -2.553146E+06  6.936771E+02 -4.588645E+03  4.421394E+01  4.507987E+03  3.223215E-04
        25   3 -2.553833E+06 -2.934240E+03 -9.013703E+03  2.156389E+02  6.859104E+03  2.391857E-03
        25   4 -2.553826E+06  9.090458E+01 -2.756648E+03  1.703386E-08  2.156865E+03  8.100531E-09
        25   5 -2.553146E+06  6.936771E+02 -4.588645E+03  2.446788E-08  4.507987E+03  6.616647E-09
        25   6 -2.553833E+06 -2.934240E+03 -9.013703E+03  4.909066E-08  6.859104E+03  2.328655E-09
        25   7 -2.553826E+06  9.090461E+01 -2.756648E+03  1.272109E+02  2.156865E+03  4.437053E-04
        25   8 -2.553146E+06  6.936771E+02 -4.588645E+03 -4.421394E+01  4.507987E+03 -3.223129E-04
        25   9 -2.553833E+06 -2.934240E+03 -9.013703E+03 -2.156389E+02  6.859104E+03 -2.391855E-03
        25  10 -2.553826E+06  9.090336E+01 -2.756657E+03 -1.272109E+02  1.656650E-09 -4.212064E-10
        25  11 -2.553146E+06  6.936717E+02 -4.588683E+03  4.421394E+01 -1.191233E-09  1.641181E-09
        25  12 -2.553833E+06 -2.934253E+03 -9.013792E+03  2.156389E+02  1.147804E-09  1.580875E-09
        25  13 -2.553826E+06  9.090333E+01 -2.756657E+03 -1.551137E-07 -1.522305E-09 -1.279909E-11
        25  14 -2.553146E+06  6.936717E+02 -4.588683E+03 -6.160316E-08 -7.992516E-09 -3.497264E-10
        25  15 -2.553833E+06 -2.934253E+03 -9.013792E+03 -1.660706E-07 -2.229361E-09 -6.289858E-11
        25  16 -2.553826E+06  9.090336E+01 -2.756657E+03  1.272109E+02 -1.253063E-09 -1.429666E-10
        25  17 -2.553146E+06  6.936717E+02 -4.588683E+03 -4.421394E+01  4.787070E-09 -1.128342E-09
        25  18 -2.553833E+06 -2.934253E+03 -9.013792E+03 -2.156389E+02 -3.513787E-09 -3.916486E-10
        25  19 -2.553826E+06  9.090461E+01 -2.756648E+03 -1.272109E+02 -2.156865E+03  4.436911E-04
        25  20 -2.553146E+06  6.936771E+02 -4.588645E+03  4.421394E+01 -4.507987E+03 -3.223195E-04
        25  21 -2.553833E+06 -2.934240E+03 -9.013703E+03  2.156389E+02 -6.859104E+03 -2.391852E-03
        25  22 -2.553826E+06  9.090458E+01 -2.756648E+03 -1.206928E-07 -2.156865E+03 -7.713415E-09
        25  23 -2.553146E+06  6.936771E+02 -4.588645E+03 -1.132406E-07 -4.507987E+03 -7.276787E-09
        25  24 -2.553833E+06 -2.934240E+03 -9.013703E+03 -1.230249E-07 -6.859104E+03 -2.126127E-09
        25  25 -2.553826E+06  9.090461E+01 -2.756648E+03  1.272109E+02 -2.156865E+03 -4.437089E-04
        25  26 -2.553146E+06  6.936771E+02 -4.588645E+03 -4.421394E+01 -4.507987E+03  3.223054E-04
        25  27 -2.553833E+06 -2.934240E+03 -9.013703E+03 -2.156389E+02 -6.859104E+03  2.391853E-03
        26   1 -2.555339E+06  6.153287E+02 -1.125387E+04 -8.071516E+02  8.692203E+03 -1.134557E-02
        26   2 -2.551269E+06  4.539010E+03 -1.807508E+04  3.614555E+02  1.818077E+04  1.062686E-02
        26   3 -2.555371E+06 -1.923894E+04 -3.801783E+04  1.530044E+03  2.766915E+04  6.846041E-02
        26   4 -2.555339E+06  6.153274E+02 -1.125387E+04 -8.388143E-08  8.692203E+03 -8.937960E-10
        26   5 -2.551269E+06  4.539010E+03 -1.807508E+04  3.945754E-08  1.818077E+04 -6.302622E-09
        26   6 -2.555371E+06 -1.923894E+04 -3.801783E+04 -1.594525E-08  2.766915E+04 -7.147295E-09
        26   7 -2.555339E+06  6.153287E+02 -1.125387E+04  8.071516E+02  8.692203E+03  1.134556E-02
        26   8 -2.551269E+06  4.539010E+03 -1.807508E+04 -3.614555E+02  1.818077E+04 -1.062688E-02
        26   9 -2.555371E+06 -1.923894E+04 -3.801783E+04 -1.530044E+03  2.766915E+04 -6.846043E-02
        26  10 -2.555339E+06  6.153083E+02 -1.125401E+04 -8.071516E+02  8.354981E-10  1.180193E-09
        26  11 -2.551269E+06  4.538921E+03 -1.807570E+04  3.614555E+02 -3.918736E-09 -1.066266E-09
        26  12 -2.555372E+06 -1.923915E+04 -3.801927E+04  1.530044E+03 -1.815344E-09 -2.932767E-10
        26  13 -2.555339E+06  6.153070E+02 -1.125401E+04 -2.388119E-07  2.185295E-09  1.225954E-10
        26  14 -2.551269E+06  4.538921E+03 -1.807570E+04  1.255289E-07 -1.542613E-10 -1.286918E-11
        26  15 -2.555372E+06 -1.923915E+04 -3.801927E+04  2.493879E-08  3.136335E-09  2.895689E-10
        26  16 -2.555339E+06  6.153083E+02 -1.125401E+04  8.071516E+02 -3.541928E-09  4.132837E-10
        26  17 -2.551269E+06  4.538921E+03 -1.807570E+04 -3.614555E+02  4.188196E-09 -5.766543E-10
        26  18 -2.555372E+06 -1.923915E+04 -3.801927E+04 -1.530044E+03  2.413352E-09 -2.719116E-10
        26  19 -2.555339E+06  6.153287E+02 -1.125387E+04 -8.071516E+02 -8.692203E+03  1.134557E-02
        26  20 -2.551269E+06  4.539010E+03 -1.807508E+04  3.614555E+02 -1.818077E+04 -1.062686E-02
        26  21 -2.555371E+06 -1.923894E+04 -3.801783E+04  1.530044E+03 -2.766915E+04 -6.846041E-02
        26  22 -2.555339E+06  6.153274E+02 -1.125387E+04 -6.668431E-08 -8.692203E+03  1.794909E-09
        26  23 -2.551269E+06  4.539010E+03 -1.807508E+04  1.771673E-07 -1.818077E+04  5.845258E-09
        26  24 -2.555371E+06 -1.923894E+04 -3.801783E+04  7.443414E-08 -2.766915E+04  7.991982E-09
        26  25 -2.555339E+06  6.153287E+02 -1.125387E+04  8.071516E+02 -8.692203E+03 -1.134557E-02
        26  26 -2.551269E+06  4.539010E+03 -1.807508E+04 -3.614555E+02 -1.818077E+04  1.062687E-02
        26  27 -2.555371E+06 -1.923894E+04 -3.801783E+04 -1.530044E+03 -2.766915E+04  6.846043E-02
        27   1 -2.564659E+06  4.115427E+03 -4.593108E+04 -5.156702E+03  3.526396E+04 -2.940693E-01
        27   2 -2.539661E+06  2.956179E+04 -6.990290E+04  2.642024E+03  7.347300E+04  3.139022E-01
        27   3 -2.564824E+06 -1.254831E+05 -1.639440E+05  1.044060E+04  1.116831E+05  1.885613E+00
        27   4 -2.564659E+06  4.115377E+03 -4.593109E+04  7.415098E-08  3.526396E+04 -1.136107E-08
        27   5 -2.539661E+06  2.956177E+04 -6.990290E+04  9.361659E-08  7.347300E+04 -1.377763E-08
        27   6 -2.564824E+06 -1.254833E+05 -1.639440E+05  3.989754E-08  1.116831E+05 -6.129734E-09
        27   7 -2.564659E+06  4.115427E+03 -4.593108E+04  5.156702E+03  3.526396E+04  2.940693E-01
        27   8 -2.539661E+06  2.956179E+04 -6.990290E+04 -2.642024E+03  7.347300E+04 -3.139022E-01
        27   9 -2.564824E+06 -1.254831E+05 -1.639440E+05 -1.044060E+04  1.116831E+05 -1.885613E+00
        27  10 -2.564660E+06  4.115092E+03 -4.593343E+04 -5.156702E+03 -1.297074E-09 -6.524966E-11
        27  11 -2.539666E+06  2.956033E+04 -6.991308E+04  2.642024E+03  1.337435E-09  1.208310E-09
        27  12 -2.564837E+06 -1.254864E+05 -1.639676E+05  1.044060E+04  1.668541E-09  3.327746E-10
        27  13 -2.564660E+06  4.115042E+03 -4.593344E+04 -2.912410E-08  1.336985E-09  5.354049E-10
        27  14 -2.539666E+06  2.956032E+04 -6.991309E+04  1.614960E-08 -1.373095E-09  3.361345E-10
        27  15 -2.564838E+06 -1.254866E+05 -1.639676E+05 -5.908230E-08  8.540815E-10  1.946450E-10
        27  16 -2.564660E+06  4.115092E+03 -4.593343E+04  5.156702E+03 -1.490735E-09  1.541110E-09
        27  17 -2.539666E+06  2.956033E+04 -6.991308E+04 -2.642024E+03  1.246032E-09  9.374353E-10
        27  18 -2.564837E+06 -1.254864E+05 -1.639676E+05 -1.044060E+04  4.600840E-10  5.283597E-10
        27  19 -2.564659E+06  4.115427E+03 -4.593108E+04 -5.156702E+03 -3.526396E+04  2.940693E-01
        27  20 -2.539661E+06  2.956179E+04 -6.990290E+04  2.642024E+03 -7.347300E+04 -3.139022E-01
        27  21 -2.564824E+06 -1.254831E+05 -1.639440E+05  1.044060E+04 -1.116831E+05 -1.885612E+00
        27  22 -2.564659E+06  4.115377E+03 -4.593109E+04  9.138347E-08 -3.526396E+04  1.208620E-08
        27  23 -2.539661E+06  2.956177E+04 -6.990290E+04  1.108292E-07 -7.347300E+04  1.506893E-08
        27  24 -2.564824E+06 -1.254833E+05 -1.639440E+05  2.482026E-08 -1.116831E+05  6.418966E-09
        27  25 -2.564659E+06  4.115427E+03 -4.593108E+04  5.156702E+03 -3.526396E+04 -2.940693E-01
        27  26 -2.539661E+06  2.956179E+04 -6.990290E+04 -2.642024E+03 -7.347300E+04  3.139022E-01
        27  27 -2.564824E+06 -1.254831E+05 -1.639440E+05 -1.044060E+04 -1.116831E+05  1.885612E+00
        28   1  6.042050E+05  1.067941E+06  7.726598E+05 -5.330710E+04  7.002068E+02  4.708271E+05
        28   2 -6.266816E+04  9.517078E+05  3.745715E+05 -8.980584E+03  2.105181E+03  3.018504E+05
        28   3  5.392944E+04  1.054570E+06  2.825946E+05  1.423632E+04  1.656928E+03  1.328630E+05
        28   4  5.368534E+05  7.982495E+05  7.053867E+05 -8.049423E+03  7.345523E+02  4.704170E+05
        28   5 -1.283404E+05  6.887409E+05  3.090788E+05  2.437293E+03  2.110813E+03  3.017252E+05
        28   6 -9.940822E+03  7.983667E+05  2.187780E+05 -8.181251E+03  1.651881E+03  1.330208E+05
        28   7  4.695040E+05  5.286284E+05  6.381093E+05  3.718863E+04  7.688512E+02  4.700070E+05
        28   8 -1.940173E+05  4.258370E+05  2.435810E+05  1.385035E+04  2.116442E+03  3.016000E+05
        28   9 -7.381411E+04  5.422235E+05  1.549567E+05 -3.058956E+04  1.646821E+03  1.331786E+05
        28  10  6.041456E+05  1.067703E+06  7.722439E+05 -5.330737E+04 -2.230287E-09 -5.275634E-10
        28  11 -6.269257E+04  9.516101E+05  3.744005E+05 -8.981096E+03 -6.114272E-09 -6.225586E-10
        28  12  5.392471E+04  1.054551E+06  2.825615E+05  1.423614E+04 -4.460499E-09  4.790998E-10
        28  13  5.367941E+05  7.980122E+05  7.049714E+05 -8.049702E+03 -2.296038E-10  1.886480E-10
        28  14 -1.283648E+05  6.886433E+05  3.089079E+05  2.436780E+03  1.101676E-09 -3.534018E-12
        28  15 -9.945567E+03  7.983477E+05  2.187448E+05 -8.181428E+03  3.117902E-09  3.375393E-10
        28  16  4.694447E+05  5.283914E+05  6.376946E+05  3.718834E+04  2.592927E-09  4.442101E-10
        28  17 -1.940417E+05  4.257394E+05  2.434102E+05  1.384984E+04  7.272884E-09  4.934507E-10
        28  18 -7.381887E+04  5.422045E+05  1.549234E+05 -3.058973E+04  2.425971E-09 -6.687160E-10
        28  19  6.042050E+05  1.067941E+06  7.726598E+05 -5.330710E+04 -7.002068E+02 -4.708271E+05
        28  20 -6.266816E+04  9.517078E+05  3.745715E+05 -8.980584E+03 -2.105181E+03 -3.018504E+05
        28  21  5.392944E+04  1.054570E+06  2.825946E+05  1.423632E+04 -1.656928E+03 -1.328630E+05
        28  22  5.368534E+05  7.982495E+05  7.053867E+05 -8.049423E+03 -7.345523E+02 -4.704170E+05
        28  23 -1.283404E+05  6.887409E+05  3.090788E+05  2.437293E+03 -2.110813E+03 -3.017252E+05
        28  24 -9.940822E+03  7.983667E+05  2.187780E+05 -8.181251E+03 -1.651881E+03 -1.330208E+05
        28  25  4.695040E+05  5.286284E+05  6.381093E+05  3.718863E+04 -7.688512E+02 -4.700070E+05
        28  26 -1.940173E+05  4.258370E+05  2.435810E+05  1.385035E+04 -2.116442E+03 -3.016000E+05
        28  27 -7.381411E+04  5.422235E+05  1.549567E+05 -3.058956E+04 -1.646821E+03 -1.331786E+05
        29   1  1.263461E+05  9.447827E+05  2.363295E+05 -1.504131E+04  1.216760E+03  9.587624E+04
        29   2  1.334435E+04  9.124442E+05  1.676170E+05 -8.164018E+02  1.370561E+03  3.107001E+04
        29   3  9.093176E+04  9.367201E+05  1.888225E+05  9.727210E+02  1.251363E+03 -3.373608E+04
        29   4  8.072971E+04  7.622133E+05  1.908351E+05 -6.111037E+03  1.218196E+03  9.583680E+04
        29   5 -3.123125E+04  7.339072E+05  1.231378E+05  9.679510E+01  1.370594E+03  3.107974E+04
        29   6  4.741754E+04  7.622223E+05  1.453425E+05 -6.131291E+03  1.251628E+03 -3.367761E+04
        29   7  3.511114E+04  5.796742E+05  1.453382E+05  2.816628E+03  1.219632E+03  9.579738E+04
        29   8 -7.580924E+04  5.553990E+05  7.865622E+04  1.009746E+03  1.370628E+03  3.108947E+04
        29   9  3.901227E+03  5.877523E+05  1.018602E+05 -1.323329E+04  1.251892E+03 -3.361915E+04
        29  10  1.263436E+05  9.447729E+05  2.363123E+05 -1.504141E+04  3.557468E-10  8.155975E-10
        29  11  1.334409E+04  9.124432E+05  1.676152E+05 -8.164361E+02  4.471055E-10 -4.335665E-10
        29  12  9.093145E+04  9.367189E+05  1.888203E+05  9.727550E+02  4.465041E-09 -8.694166E-10
        29  13  8.072725E+04  7.622034E+05  1.908179E+05 -6.111131E+03  1.041077E-09  1.448089E-09
        29  14 -3.123151E+04  7.339062E+05  1.231360E+05  9.676081E+01  1.613109E-09  7.788386E-12
        29  15  4.741723E+04  7.622211E+05  1.453403E+05 -6.131257E+03  2.715974E-09  7.510659E-10
        29  16  3.510868E+04  5.796643E+05  1.453210E+05  2.816534E+03 -1.254884E-09 -1.551667E-09
        29  17 -7.580950E+04  5.553980E+05  7.865440E+04  1.009712E+03  4.134863E-09  4.463805E-11
        29  18  3.900922E+03  5.877511E+05  1.018581E+05 -1.323326E+04 -1.700310E-09  5.579061E-10
        29  19  1.263461E+05  9.447827E+05  2.363295E+05 -1.504131E+04 -1.216760E+03 -9.587624E+04
        29  20  1.334435E+04  9.124442E+05  1.676170E+05 -8.164018E+02 -1.370561E+03 -3.107001E+04
        29  21  9.093176E+04  9.367201E+05  1.888225E+05  9.727210E+02 -1.251363E+03  3.373608E+04
        29  22  8.072971E+04  7.622133E+05  1.908351E+05 -6.111037E+03 -1.218196E+03 -9.583680E+04
        29  23 -3.123125E+04  7.339072E+05  1.231378E+05  9.679510E+01 -1.370594E+03 -3.107974E+04
        29  24  4.741754E+04  7.622223E+05  1.453425E+05 -6.131291E+03 -1.251628E+03  3.367761E+04
        29  25  3.511114E+04  5.796742E+05  1.453382E+05  2.816628E+03 -1.219632E+03 -9.579738E+04
        29  26 -7.580924E+04  5.553990E+05  7.865622E+04  1.009746E+03 -1.370628E+03 -3.108947E+04
        29  27  3.901227E+03  5.877523E+05  1.018602E+05 -1.323329E+04 -1.251892E+03  3.361915E+04
        30   1  3.456706E+04  9.105291E+05  1.883951E+05 -1.970567E+04  1.326193E+03 -6.097474E+04
        30   2 -4.774509E+04  8.403804E+05  2.296741E+05  4.800835E+03  1.668530E+03 -1.687081E+05
        30   3  3.570929E+05  9.062713E+05  4.629003E+05  2.360719E+04  1.344273E+03 -2.764382E+05
        30   4  1.850905E+03  7.799018E+05  1.558390E+05 -5.043413E+03  1.324900E+03 -6.100879E+04
        30   5 -7.978364E+04  7.118338E+05  1.976658E+05 -1.608232E+03  1.670157E+03 -1.686434E+05
        30   6  3.257664E+05  7.798135E+05  4.313987E+05 -3.874766E+03  1.356062E+03 -2.762752E+05
        30   7 -3.086574E+04  6.492904E+05  1.232817E+05  9.615770E+03  1.323605E+03 -6.104282E+04
        30   8 -1.118233E+05  5.833022E+05  1.656562E+05 -8.015960E+03  1.671783E+03 -1.685788E+05
        30   9  2.944414E+05  6.533718E+05  3.998963E+05 -3.135112E+04  1.367839E+03 -2.761122E+05
        30  10  3.456606E+04  9.105251E+05  1.883882E+05 -1.970560E+04  2.593737E-09 -1.012430E-09
        30  11 -4.775272E+04  8.403499E+05  2.296207E+05  4.801062E+03 -4.018873E-09 -5.209368E-10
        30  12  3.570725E+05  9.061893E+05  4.627569E+05  2.360748E+04 -1.053283E-09 -5.656528E-10
        30  13  1.849906E+03  7.798978E+05  1.558320E+05 -5.043348E+03  2.489876E-10  2.453618E-09
        30  14 -7.979126E+04  7.118033E+05  1.976124E+05 -1.608005E+03 -1.195935E-09 -4.167809E-11
        30  15  3.257459E+05  7.797316E+05  4.312554E+05 -3.874464E+03 -3.962277E-09  9.751047E-10
        30  16 -3.086674E+04  6.492864E+05  1.232747E+05  9.615835E+03 -2.506282E-09 -2.334732E-10
        30  17 -1.118309E+05  5.832717E+05  1.656029E+05 -8.015734E+03 -1.955406E-09  6.741614E-11
        30  18  2.944210E+05  6.532900E+05  3.997532E+05 -3.135081E+04 -4.006132E-12  7.015949E-11
        30  19  3.456706E+04  9.105291E+05  1.883951E+05 -1.970567E+04 -1.326193E+03  6.097474E+04
        30  20 -4.774509E+04  8.403804E+05  2.296741E+05  4.800835E+03 -1.668530E+03  1.687081E+05
        30  21  3.570929E+05  9.062713E+05  4.629003E+05  2.360719E+04 -1.344273E+03  2.764382E+05
        30  22  1.850905E+03  7.799018E+05  1.558390E+05 -5.043413E+03 -1.324900E+03  6.100879E+04
        30  23 -7.978364E+04  7.118338E+05  1.976658E+05 -1.608232E+03 -1.670157E+03  1.686434E+05
        30  24  3.257664E+05  7.798135E+05  4.313987E+05 -3.874766E+03 -1.356062E+03  2.762752E+05
        30  25 -3.086574E+04  6.492904E+05  1.232817E+05  9.615770E+03 -1.323605E+03  6.104282E+04
        30  26 -1.118233E+05  5.833022E+05  1.656562E+05 -8.015960E+03 -1.671783E+03  1.685788E+05
        30  27  2.944414E+05  6.533718E+05  3.998963E+05 -3.135112E+04 -1.367839E+03  2.761122E+05
        31   1 -2.529301E+06 -3.667305E+05 -3.696054E+04 -9.451607E+05 -6.831584E+04 -2.667037E+04
        31   2 -2.504308E+06 -2.809138E+05  2.559661E+04 -9.809882E+05 -4.342508E+04 -1.911914E+04
        31   3 -2.538177E+06 -2.890068E+05  4.022754E+04 -9.696138E+05 -1.946784E+04 -9.086885E+03
        31   4 -2.794330E+06 -4.610624E+05 -1.089555E+05 -1.011051E+06 -6.860826E+04 -2.678096E+04
        31   5 -2.759451E+06 -3.760480E+05 -4.445183E+04 -1.048901E+06 -4.344989E+04 -1.912869E+04
        31   6 -2.783506E+06 -3.850235E+05 -2.810332E+04 -1.039543E+06 -1.922476E+04 -8.995174E+03
        31   7 -3.059292E+06 -5.553922E+05 -1.809565E+05 -1.076917E+06 -6.890053E+04 -2.689151E+04
        31   8 -3.014532E+06 -4.711789E+05 -1.145061E+05 -1.116788E+06 -4.347469E+04 -1.913823E+04
        31   9 -3.028778E+06 -4.810357E+05 -9.643981E+04 -1.109447E+06 -1.898179E+04 -8.903506E+03
        31  10 -2.529307E+06 -3.667325E+05 -3.697069E+04 -9.451622E+05 -1.261653E-09  1.275193E-09
        31  11 -2.504310E+06 -2.809147E+05  2.559236E+04 -9.809889E+05  1.341785E-09 -5.621737E-10
        31  12 -2.538178E+06 -2.890070E+05  4.022667E+04 -9.696140E+05 -3.747657E-09  6.002349E-10
        31  13 -2.794336E+06 -4.610645E+05 -1.089657E+05 -1.011053E+06  6.026665E-10  1.462729E-10
        31  14 -2.759453E+06 -3.760489E+05 -4.445608E+04 -1.048901E+06  2.273026E-09 -1.000175E-10
        31  15 -2.783507E+06 -3.850237E+05 -2.810417E+04 -1.039543E+06  1.913631E-09 -8.823307E-10
        31  16 -3.059297E+06 -5.553943E+05 -1.809668E+05 -1.076918E+06 -6.570348E-11 -1.549746E-10
        31  17 -3.014534E+06 -4.711798E+05 -1.145104E+05 -1.116789E+06 -3.169568E-09 -1.080944E-09
        31  18 -3.028778E+06 -4.810359E+05 -9.644064E+04 -1.109447E+06  2.038129E-09  1.119822E-09
        31  19 -2.529301E+06 -3.667305E+05 -3.696054E+04 -9.451607E+05  6.831584E+04  2.667037E+04
        31  20 -2.504308E+06 -2.809138E+05  2.559661E+04 -9.809882E+05  4.342508E+04  1.911914E+04
        31  21 -2.538177E+06 -2.890068E+05  4.022754E+04 -9.696138E+05  1.946784E+04  9.086885E+03
        31  22 -2.794330E+06 -4.610624E+05 -1.089555E+05 -1.011051E+06  6.860826E+04  2.678096E+04
        31  23 -2.759451E+06 -3.760480E+05 -4.445183E+04 -1.048901E+06  4.344989E+04  1.912869E+04
        31  24 -2.783506E+06 -3.850235E+05 -2.810332E+04 -1.039543E+06  1.922476E+04  8.995174E+03
        31  25 -3.059292E+06 -5.553922E+05 -1.809565E+05 -1.076917E+06  6.890053E+04  2.689151E+04
        31  26 -3.014532E+06 -4.711789E+05 -1.145061E+05 -1.116788E+06  4.347469E+04  1.913823E+04
        31  27 -3.028778E+06 -4.810357E+05 -9.643981E+04 -1.109447E+06  1.898179E+04  8.903506E+03
        32   1 -2.718513E+06 -3.696392E+05 -5.249519E+03 -1.010433E+06 -1.523430E+04 -6.656427E+03
        32   2 -2.711449E+06 -3.777233E+05  3.685551E+03 -1.038103E+06 -9.849701E+03 -4.266876E+03
        32   3 -2.746553E+06 -3.678662E+05  3.836120E+03 -1.021558E+06 -4.627833E+03 -1.446842E+03
        32   4 -2.784555E+06 -3.938156E+05 -2.327987E+04 -1.027555E+06 -1.522221E+04 -6.651898E+03
        32   5 -2.762626E+06 -3.969412E+05 -1.039419E+04 -1.051862E+06 -9.790009E+03 -4.244351E+03
        32   6 -2.782875E+06 -3.821358E+05 -6.331575E+03 -1.031954E+06 -4.520412E+03 -1.406267E+03
        32   7 -2.850593E+06 -4.179918E+05 -4.131064E+04 -1.044675E+06 -1.521011E+04 -6.647369E+03
        32   8 -2.813800E+06 -4.161589E+05 -2.447416E+04 -1.065620E+06 -9.730322E+03 -4.221828E+03
        32   9 -2.819195E+06 -3.964053E+05 -1.649938E+04 -1.042349E+06 -4.412999E+03 -1.365695E+03
        32  10 -2.718513E+06 -3.696393E+05 -5.250041E+03 -1.010433E+06 -3.387733E-09 -3.537647E-10
        32  11 -2.711449E+06 -3.777233E+05  3.685333E+03 -1.038103E+06 -1.921581E-09 -2.234662E-09
        32  12 -2.746553E+06 -3.678662E+05  3.836075E+03 -1.021558E+06 -2.521094E-09 -2.497628E-09
        32  13 -2.784556E+06 -3.938157E+05 -2.328039E+04 -1.027555E+06 -2.099808E-09 -5.242969E-11
        32  14 -2.762626E+06 -3.969412E+05 -1.039440E+04 -1.051862E+06  1.883056E-09  7.415782E-10
        32  15 -2.782875E+06 -3.821358E+05 -6.331618E+03 -1.031954E+06 -1.547253E-09 -4.351954E-10
        32  16 -2.850594E+06 -4.179919E+05 -4.131116E+04 -1.044675E+06  2.595589E-09  1.523540E-09
        32  17 -2.813800E+06 -4.161590E+05 -2.447438E+04 -1.065620E+06  2.616865E-09 -2.002211E-09
        32  18 -2.819195E+06 -3.964053E+05 -1.649942E+04 -1.042349E+06  2.233220E-09 -2.172425E-09
        32  19 -2.718513E+06 -3.696392E+05 -5.249519E+03 -1.010433E+06  1.523430E+04  6.656427E+03
        32  20 -2.711449E+06 -3.777233E+05  3.685551E+03 -1.038103E+06  9.849701E+03  4.266876E+03
        32  21 -2.746553E+06 -3.678662E+05  3.836120E+03 -1.021558E+06  4.627833E+03  1.446842E+03
        32  22 -2.784555E+06 -3.938156E+05 -2.327987E+04 -1.027555E+06  1.522221E+04  6.651898E+03
        32  23 -2.762626E+06 -3.969412E+05 -1.039419E+04 -1.051862E+06  9.790009E+03  4.244351E+03
        32  24 -2.782875E+06 -3.821358E+05 -6.331575E+03 -1.031954E+06  4.520412E+03  1.406267E+03
        32  25 -2.850593E+06 -4.179918E+05 -4.131064E+04 -1.044675E+06  1.521011E+04  6.647369E+03
        32  26 -2.813800E+06 -4.161589E+05 -2.447416E+04 -1.065620E+06  9.730322E+03  4.221828E+03
        32  27 -2.819195E+06 -3.964053E+05 -1.649938E+04 -1.042349E+06  4.412999E+03  1.365695E+03
        33   1 -2.961644E+06 -4.550531E+05 -5.522369E+04 -1.082741E+06 -3.937907E+03 -4.650387E+02
        33   2 -2.959159E+06 -4.699470E+05 -5.562542E+04 -1.101181E+06 -2.856948E+03  8.074735E+02
        33   3 -2.983114E+06 -4.612332E+05 -5.757105E+04 -1.088895E+06 -1.546248E+03  1.472084E+03
        33   4 -2.780116E+06 -3.859749E+05 -5.028106E+03 -1.033032E+06 -3.820014E+03 -4.205539E+02
        33   5 -2.766777E+06 -3.969532E+05 -2.527573E+03 -1.048706E+06 -2.806705E+03  8.263666E+02
        33   6 -2.779863E+06 -3.843103E+05 -1.516710E+03 -1.033653E+06 -1.563662E+03  1.465486E+03
        33   7 -2.598556E+06 -3.168946E+05  4.516447E+04 -9.833098E+05 -3.702083E+03 -3.760544E+02
        33   8 -2.574359E+06 -3.239571E+05  5.056694E+04 -9.962155E+05 -2.756444E+03  8.452663E+02
        33   9 -2.576573E+06 -3.073849E+05  5.453395E+04 -9.783957E+05 -1.581082E+03  1.458886E+03
        33  10 -2.961644E+06 -4.550531E+05 -5.522371E+04 -1.082741E+06 -2.430497E-09  5.020172E-10
        33  11 -2.959159E+06 -4.699470E+05 -5.562544E+04 -1.101181E+06 -9.707838E-10  1.228634E-09
        33  12 -2.983114E+06 -4.612332E+05 -5.757106E+04 -1.088895E+06  1.381306E-09  3.759795E-10
        33  13 -2.780116E+06 -3.859749E+05 -5.028134E+03 -1.033032E+06  2.821885E-10 -1.210965E-10
        33  14 -2.766777E+06 -3.969532E+05 -2.527589E+03 -1.048706E+06  2.547627E-09 -4.126488E-10
        33  15 -2.779863E+06 -3.843103E+05 -1.516719E+03 -1.033653E+06  3.153734E-09 -5.112735E-10
        33  16 -2.598556E+06 -3.168946E+05  4.516444E+04 -9.833098E+05 -3.254118E-11 -1.294794E-09
        33  17 -2.574359E+06 -3.239571E+05  5.056692E+04 -9.962155E+05  2.945731E-09 -2.400075E-09
        33  18 -2.576573E+06 -3.073849E+05  5.453394E+04 -9.783957E+05  2.417499E-09 -5.754518E-10
        33  19 -2.961644E+06 -4.550531E+05 -5.522369E+04 -1.082741E+06  3.937907E+03  4.650387E+02
        33  20 -2.959159E+06 -4.699470E+05 -5.562542E+04 -1.101181E+06  2.856948E+03 -8.074735E+02
        33  21 -2.983114E+06 -4.612332E+05 -5.757105E+04 -1.088895E+06  1.546248E+03 -1.472084E+03
        33  22 -2.780116E+06 -3.859749E+05 -5.028106E+03 -1.033032E+06  3.820014E+03  4.205539E+02
        33  23 -2.766777E+06 -3.969532E+05 -2.527573E+03 -1.048706E+06  2.806705E+03 -8.263666E+02
        33  24 -2.779863E+06 -3.843103E+05 -1.516710E+03 -1.033653E+06  1.563662E+03 -1.465486E+03
        33  25 -2.598556E+06 -3.168946E+05  4.516447E+04 -9.833098E+05  3.702083E+03  3.760544E+02
        33  26 -2.574359E+06 -3.239571E+05  5.056694E+04 -9.962155E+05  2.756444E+03 -8.452663E+02
        33  27 -2.576573E+06 -3.073849E+05  5.453395E+04 -9.783957E+05  1.581082E+03 -1.458886E+03
        34   1 -3.057168E+06 -4.987117E+05 -7.962566E+04 -1.118272E+06 -1.544023E+03  1.731758E+03
        34   2 -3.058496E+06 -4.960710E+05 -7.900790E+04 -1.116076E+06 -1.121371E+03  2.356308E+03
        34   3 -3.054491E+06 -4.970962E+05 -7.846552E+04 -1.117186E+06 -3.426493E+02  2.030281E+03
        34   4 -2.772912E+06 -3.910637E+05 -1.174716E+03 -1.040960E+06 -1.445411E+03  1.768734E+03
        34   5 -2.775578E+06 -3.891470E+05 -1.003091E+03 -1.039343E+06 -1.128858E+03  2.353414E+03
        34   6 -2.772888E+06 -3.908745E+05 -8.222112E+02 -1.041032E+06 -4.563138E+02  1.987727E+03
        34   7 -2.488580E+06 -2.834113E+05  7.726862E+04 -9.636164E+05 -1.346750E+03  1.805729E+03
        34   8 -2.492584E+06 -2.822186E+05  7.699427E+04 -9.625785E+05 -1.136349E+03  2.350518E+03
        34   9 -2.491209E+06 -2.846486E+05  7.681378E+04 -9.648467E+05 -5.700354E+02  1.945153E+03
        34  10 -3.057168E+06 -4.987117E+05 -7.962567E+04 -1.118272E+06 -2.040939E-09 -4.808978E-10
        34  11 -3.058496E+06 -4.960710E+05 -7.900792E+04 -1.116076E+06  2.286294E-09  2.313305E-10
        34  12 -3.054491E+06 -4.970962E+05 -7.846552E+04 -1.117186E+06  3.038042E-09  8.141675E-10
        34  13 -2.772912E+06 -3.910637E+05 -1.174726E+03 -1.040960E+06  2.083582E-09  6.719047E-10
        34  14 -2.775578E+06 -3.891470E+05 -1.003104E+03 -1.039343E+06 -8.788169E-10  1.514882E-09
        34  15 -2.772888E+06 -3.908745E+05 -8.222190E+02 -1.041032E+06 -3.624445E-09  1.366772E-09
        34  16 -2.488580E+06 -2.834113E+05  7.726862E+04 -9.636164E+05  2.436043E-09  8.100954E-10
        34  17 -2.492584E+06 -2.822186E+05  7.699426E+04 -9.625785E+05  3.390895E-10  1.658502E-09
        34  18 -2.491209E+06 -2.846486E+05  7.681377E+04 -9.648467E+05 -2.501184E-09  1.288489E-09
        34  19 -3.057168E+06 -4.987117E+05 -7.962566E+04 -1.118272E+06  1.544023E+03 -1.731758E+03
        34  20 -3.058496E+06 -4.960710E+05 -7.900790E+04 -1.116076E+06  1.121371E+03 -2.356308E+03
        34  21 -3.054491E+06 -4.970962E+05 -7.846552E+04 -1.117186E+06  3.426493E+02 -2.030281E+03
        34  22 -2.772912E+06 -3.910637E+05 -1.174716E+03 -1.040960E+06  1.445411E+03 -1.768734E+03
        34  23 -2.775578E+06 -3.891470E+05 -1.003091E+03 -1.039343E+06  1.128858E+03 -2.353414E+03
        34  24 -2.772888E+06 -3.908745E+05 -8.222112E+02 -1.041032E+06  4.563138E+02 -1.987727E+03
        34  25 -2.488580E+06 -2.834113E+05  7.726862E+04 -9.636164E+05  1.346750E+03 -1.805729E+03
        34  26 -2.492584E+06 -2.822186E+05  7.699427E+04 -9.625785E+05  1.136349E+03 -2.350518E+03
        34  27 -2.491209E+06 -2.846486E+05  7.681378E+04 -9.648467E+05  5.700354E+02 -1.945153E+03
        35   1 -2.926728E+06 -4.570380E+05 -4.494885E+04 -1.091113E+06 -1.899023E+02  1.710163E+03
        35   2 -2.929425E+06 -4.368602E+05 -4.202592E+04 -1.070320E+06  7.668767E+02  1.725421E+03
        35   3 -2.901895E+06 -4.480279E+05 -3.993013E+04 -1.083981E+06  1.906879E+03  1.247647E+03
        35   4 -2.767325E+06 -3.969098E+05 -1.040394E+03 -1.047990E+06 -1.958347E+02  1.707916E+03
        35   5 -2.782488E+06 -3.815210E+05 -1.554812E+03 -1.030662E+06  7.059724E+02  1.702690E+03
        35   6 -2.767414E+06 -3.974662E+05 -2.852583E+03 -1.047788E+06  1.790962E+03  1.204479E+03
        35   7 -2.607898E+06 -3.367800E+05  4.286576E+04 -1.004857E+06 -2.017688E+02  1.705669E+03
        35   8 -2.635531E+06 -3.261807E+05  3.891432E+04 -9.909963E+05  6.450521E+02  1.679952E+03
        35   9 -2.632916E+06 -3.469035E+05  3.422330E+04 -1.011588E+06  1.675016E+03  1.161301E+03
        35  10 -2.926728E+06 -4.570380E+05 -4.494886E+04 -1.091113E+06  1.936332E-09  1.943965E-10
        35  11 -2.929425E+06 -4.368602E+05 -4.202592E+04 -1.070320E+06  1.588081E-09  8.739382E-10
        35  12 -2.901895E+06 -4.480279E+05 -3.993014E+04 -1.083981E+06  8.797405E-10  8.089219E-10
        35  13 -2.767325E+06 -3.969098E+05 -1.040399E+03 -1.047990E+06  1.055638E-10 -5.721270E-11
        35  14 -2.782488E+06 -3.815210E+05 -1.554818E+03 -1.030662E+06  3.321560E-11 -7.737218E-10
        35  15 -2.767414E+06 -3.974662E+05 -2.852591E+03 -1.047788E+06 -1.159264E-09  2.955137E-09
        35  16 -2.607898E+06 -3.367800E+05  4.286575E+04 -1.004857E+06 -2.845023E-09  7.371956E-10
        35  17 -2.635531E+06 -3.261807E+05  3.891432E+04 -9.909963E+05  4.508482E-09 -3.178456E-09
        35  18 -2.632916E+06 -3.469035E+05  3.422329E+04 -1.011588E+06 -2.415317E-09 -1.575317E-10
        35  19 -2.926728E+06 -4.570380E+05 -4.494885E+04 -1.091113E+06  1.899023E+02 -1.710163E+03
        35  20 -2.929425E+06 -4.368602E+05 -4.202592E+04 -1.070320E+06 -7.668767E+02 -1.725421E+03
        35  21 -2.901895E+06 -4.480279E+05 -3.993013E+04 -1.083981E+06 -1.906879E+03 -1.247647E+03
        35  22 -2.767325E+06 -3.969098E+05 -1.040394E+03 -1.047990E+06  1.958347E+02 -1.707916E+03
        35  23 -2.782488E+06 -3.815210E+05 -1.554812E+03 -1.030662E+06 -7.059724E+02 -1.702690E+03
        35  24 -2.767414E+06 -3.974662E+05 -2.852583E+03 -1.047788E+06 -1.790962E+03 -1.204479E+03
        35  25 -2.607898E+06 -3.367800E+05  4.286576E+04 -1.004857E+06  2.017688E+02 -1.705669E+03
        35  26 -2.635531E+06 -3.261807E+05  3.891432E+04 -9.909963E+05 -6.450521E+02 -1.679952E+03
        35  27 -2.632916E+06 -3.469035E+05  3.422330E+04 -1.011588E+06 -1.675016E+03 -1.161301E+03
        36   1 -2.673903E+06 -3.623943E+05  2.206640E+04 -1.023939E+06  2.663124E+03  8.241192E+02
        36   2 -2.675883E+06 -3.396376E+05  2.323786E+04 -1.001134E+06  6.113470E+03  1.229464E+03
        36   3 -2.647791E+06 -3.563715E+05  2.026528E+04 -1.014409E+06  9.422724E+03  2.014968E+03
        36   4 -2.767174E+06 -3.973082E+05 -3.629755E+03 -1.048883E+06  2.555096E+03  7.839015E+02
        36   5 -2.782527E+06 -3.798609E+05 -6.142980E+03 -1.029984E+06  6.047457E+03  1.204850E+03
        36   6 -2.767817E+06 -4.019135E+05 -1.283422E+04 -1.047166E+06  9.398640E+03  2.005958E+03
        36   7 -2.860437E+06 -4.322217E+05 -2.932670E+04 -1.073823E+06  2.447086E+03  7.436903E+02
        36   8 -2.889160E+06 -4.200835E+05 -3.552487E+04 -1.058830E+06  5.981455E+03  1.180240E+03
        36   9 -2.887830E+06 -4.474548E+05 -4.593507E+04 -1.079917E+06  9.374560E+03  1.996950E+03
        36  10 -2.673903E+06 -3.623943E+05  2.206639E+04 -1.023939E+06  2.477199E-09  1.114339E-09
        36  11 -2.675883E+06 -3.396376E+05  2.323779E+04 -1.001134E+06 -1.756654E-09  1.910612E-09
        36  12 -2.647791E+06 -3.563715E+05  2.026511E+04 -1.014409E+06 -1.068918E-09  9.036646E-10
        36  13 -2.767174E+06 -3.973082E+05 -3.629768E+03 -1.048883E+06  1.916345E-09  1.093836E-09
        36  14 -2.782527E+06 -3.798609E+05 -6.143052E+03 -1.029984E+06  7.905012E-10 -2.223416E-10
        36  15 -2.767817E+06 -4.019135E+05 -1.283439E+04 -1.047166E+06  7.692369E-10 -1.300344E-09
        36  16 -2.860437E+06 -4.322217E+05 -2.932671E+04 -1.073823E+06 -2.078730E-09  2.167601E-09
        36  17 -2.889160E+06 -4.200835E+05 -3.552494E+04 -1.058830E+06 -1.831633E-09  4.846883E-09
        36  18 -2.887830E+06 -4.474548E+05 -4.593524E+04 -1.079917E+06  1.255707E-09  5.700628E-10
        36  19 -2.673903E+06 -3.623943E+05  2.206640E+04 -1.023939E+06 -2.663124E+03 -8.241192E+02
        36  20 -2.675883E+06 -3.396376E+05  2.323786E+04 -1.001134E+06 -6.113470E+03 -1.229464E+03
        36  21 -2.647791E+06 -3.563715E+05  2.026528E+04 -1.014409E+06 -9.422724E+03 -2.014968E+03
        36  22 -2.767174E+06 -3.973082E+05 -3.629755E+03 -1.048883E+06 -2.555096E+03 -7.839015E+02
        36  23 -2.782527E+06 -3.798609E+05 -6.142980E+03 -1.029984E+06 -6.047457E+03 -1.204850E+03
        36  24 -2.767817E+06 -4.019135E+05 -1.283422E+04 -1.047166E+06 -9.398640E+03 -2.005958E+03
        36  25 -2.860437E+06 -4.322217E+05 -2.932670E+04 -1.073823E+06 -2.447086E+03 -7.436903E+02
        36  26 -2.889160E+06 -4.200835E+05 -3.552487E+04 -1.058830E+06 -5.981455E+03 -1.180240E+03
        36  27 -2.887830E+06 -4.474548E+05 -4.593507E+04 -1.079917E+06 -9.374560E+03 -1.996950E+03
        37   1 -2.502106E+06 -2.900380E+05  5.886941E+04 -9.714687E+05  1.207098E+04  2.522143E+03
        37   2 -2.498272E+06 -2.762301E+05  4.922788E+04 -9.639095E+05  2.632537E+04  7.137606E+03
        37   3 -2.501567E+06 -3.142282E+05  1.778092E+04 -9.551826E+05  4.018283E+04  1.281389E+04
        37   4 -2.774247E+06 -3.914657E+05 -1.590483E+04 -1.043831E+06  1.193829E+04  2.472558E+03
        37   5 -2.772786E+06 -3.804134E+05 -2.652325E+04 -1.038848E+06  2.630545E+04  7.130036E+03
        37   6 -2.778483E+06 -4.212020E+05 -5.904438E+04 -1.032695E+06  4.027554E+04  1.284843E+04
        37   7 -3.046316E+06 -4.928898E+05 -9.068584E+04 -1.116164E+06  1.180565E+04  2.422997E+03
        37   8 -3.047227E+06 -4.845923E+05 -1.022813E+05 -1.113756E+06  2.628553E+04  7.122470E+03
        37   9 -3.055325E+06 -5.281706E+05 -1.358768E+05 -1.110176E+06  4.036819E+04  1.288295E+04
        37  10 -2.502106E+06 -2.900381E+05  5.886913E+04 -9.714687E+05  5.650963E-10  7.975457E-10
        37  11 -2.498273E+06 -2.762303E+05  4.922648E+04 -9.639096E+05  1.659918E-09  1.984660E-09
        37  12 -2.501569E+06 -3.142288E+05  1.777756E+04 -9.551830E+05 -1.380473E-09  2.822519E-09
        37  13 -2.774247E+06 -3.914658E+05 -1.590511E+04 -1.043831E+06 -1.074376E-09  2.491493E-10
        37  14 -2.772786E+06 -3.804136E+05 -2.652466E+04 -1.038848E+06 -3.823613E-09 -1.786230E-09
        37  15 -2.778485E+06 -4.212026E+05 -5.904775E+04 -1.032696E+06  3.804133E-09  1.296413E-09
        37  16 -3.046316E+06 -4.928899E+05 -9.068611E+04 -1.116164E+06 -2.486841E-10 -2.538212E-10
        37  17 -3.047227E+06 -4.845925E+05 -1.022827E+05 -1.113756E+06  3.155641E-10 -1.012562E-09
        37  18 -3.055327E+06 -5.281712E+05 -1.358802E+05 -1.110177E+06 -1.156043E-11  1.192112E-09
        37  19 -2.502106E+06 -2.900380E+05  5.886941E+04 -9.714687E+05 -1.207098E+04 -2.522143E+03
        37  20 -2.498272E+06 -2.762301E+05  4.922788E+04 -9.639095E+05 -2.632537E+04 -7.137606E+03
        37  21 -2.501567E+06 -3.142282E+05  1.778092E+04 -9.551826E+05 -4.018283E+04 -1.281389E+04
        37  22 -2.774247E+06 -3.914657E+05 -1.590483E+04 -1.043831E+06 -1.193829E+04 -2.472558E+03
        37  23 -2.772786E+06 -3.804134E+05 -2.652325E+04 -1.038848E+06 -2.630545E+04 -7.130036E+03
        37  24 -2.778483E+06 -4.212020E+05 -5.904438E+04 -1.032695E+06 -4.027554E+04 -1.284843E+04
        37  25 -3.046316E+06 -4.928898E+05 -9.068584E+04 -1.116164E+06 -1.180565E+04 -2.422997E+03
        37  26 -3.047227E+06 -4.845923E+05 -1.022813E+05 -1.113756E+06 -2.628553E+04 -7.122470E+03
        37  27 -3.055325E+06 -5.281706E+05 -1.358768E+05 -1.110176E+06 -4.036819E+04 -1.288295E+04
        38   1 -2.556645E+06 -2.988657E+05 -7.477373E+03 -9.860839E+05  5.125015E+04  1.701697E+04
        38   2 -2.520480E+06 -2.616934E+05 -5.119472E+04 -9.921989E+05  1.135258E+05  4.042953E+04
        38   3 -2.619132E+06 -4.821941E+05 -2.179342E+05 -8.995300E+05  1.752284E+05  6.536452E+04
        38   4 -2.794658E+06 -3.814964E+05 -7.162420E+04 -1.043150E+06  5.115162E+04  1.698065E+04
        38   5 -2.741106E+06 -3.491191E+05 -1.128101E+05 -1.056209E+06  1.135764E+05  4.044762E+04
        38   6 -2.822438E+06 -5.745047E+05 -2.771698E+05 -9.704723E+05  1.754298E+05  6.543511E+04
        38   7 -3.032617E+06 -4.641261E+05 -1.357760E+05 -1.100197E+06  5.105313E+04  1.694434E+04
        38   8 -2.961686E+06 -4.365409E+05 -1.744300E+05 -1.120199E+06  1.136268E+05  4.046570E+04
        38   9 -3.025703E+06 -6.668076E+05 -3.364096E+05 -1.041392E+06  1.756311E+05  6.550567E+04
        38  10 -2.556648E+06 -2.988667E+05 -7.482879E+03 -9.860846E+05  6.878709E-11  1.318587E-09
        38  11 -2.520494E+06 -2.616986E+05 -5.122214E+04 -9.922026E+05 -8.599618E-10 -1.896640E-09
        38  12 -2.619166E+06 -4.822070E+05 -2.180002E+05 -8.995393E+05  9.982311E-10  4.273570E-11
        38  13 -2.794661E+06 -3.814974E+05 -7.162969E+04 -1.043151E+06  1.768876E-09  1.098354E-09
        38  14 -2.741120E+06 -3.491244E+05 -1.128375E+05 -1.056213E+06  1.424020E-10  6.929404E-11
        38  15 -2.822472E+06 -5.745177E+05 -2.772361E+05 -9.704816E+05 -6.601852E-10 -1.166064E-09
        38  16 -3.032619E+06 -4.641271E+05 -1.357815E+05 -1.100198E+06  4.213812E-09  1.140916E-09
        38  17 -2.961700E+06 -4.365462E+05 -1.744575E+05 -1.120202E+06 -1.136789E-09 -3.117237E-10
        38  18 -3.025737E+06 -6.668206E+05 -3.364760E+05 -1.041401E+06  1.796573E-09 -2.499858E-09
        38  19 -2.556645E+06 -2.988657E+05 -7.477373E+03 -9.860839E+05 -5.125015E+04 -1.701697E+04
        38  20 -2.520480E+06 -2.616934E+05 -5.119472E+04 -9.921989E+05 -1.135258E+05 -4.042953E+04
        38  21 -2.619132E+06 -4.821941E+05 -2.179342E+05 -8.995300E+05 -1.752284E+05 -6.536452E+04
        38  22 -2.794658E+06 -3.814964E+05 -7.162420E+04 -1.043150E+06 -5.115162E+04 -1.698065E+04
        38  23 -2.741106E+06 -3.491191E+05 -1.128101E+05 -1.056209E+06 -1.135764E+05 -4.044762E+04
        38  24 -2.822438E+06 -5.745047E+05 -2.771698E+05 -9.704723E+05 -1.754298E+05 -6.543511E+04
        38  25 -3.032617E+06 -4.641261E+05 -1.357760E+05 -1.100197E+06 -5.105313E+04 -1.694434E+04
        38  26 -2.961686E+06 -4.365409E+05 -1.744300E+05 -1.120199E+06 -1.136268E+05 -4.046570E+04
        38  27 -3.025703E+06 -6.668076E+05 -3.364096E+05 -1.041392E+06 -1.756311E+05 -6.550567E+04
        39   1 -1.302716E+06  7.260948E+04  9.489310E+04  6.050252E+03  6.469528E+04  6.317572E-01
        39   2 -1.317248E+06 -1.710453E+04  4.047326E+04  1.530874E+03  4.257073E+04  1.051865E-01
        39   3 -1.302768E+06 -2.381639E+03  2.659158E+04 -2.988417E+03  2.044603E+04 -9.861664E-02
        39   4 -1.302716E+06  7.260941E+04  9.489309E+04  5.823292E-08  6.469528E+04 -4.214503E-10
        39   5 -1.317248E+06 -1.710453E+04  4.047326E+04 -4.456321E-08  4.257073E+04  7.441524E-10
        39   6 -1.302768E+06 -2.381656E+03  2.659158E+04  4.423646E-08  2.044603E+04 -2.227370E-10
        39   7 -1.302716E+06  7.260948E+04  9.489310E+04 -6.050252E+03  6.469528E+04 -6.317572E-01
        39   8 -1.317248E+06 -1.710453E+04  4.047326E+04 -1.530874E+03  4.257073E+04 -1.051865E-01
        39   9 -1.302768E+06 -2.381639E+03  2.659158E+04  2.988417E+03  2.044603E+04  9.861664E-02
        39  10 -1.302721E+06  7.260835E+04  9.488522E+04  6.050252E+03 -1.240759E-09  8.992602E-12
        39  11 -1.317250E+06 -1.710501E+04  4.046985E+04  1.530874E+03 -1.005070E-09 -3.271167E-10
        39  12 -1.302769E+06 -2.381752E+03  2.659080E+04 -2.988417E+03  4.099611E-11 -3.371455E-10
        39  13 -1.302721E+06  7.260828E+04  9.488521E+04  7.545425E-08 -2.119299E-09  1.818368E-10
        39  14 -1.317250E+06 -1.710502E+04  4.046985E+04 -2.734079E-08 -3.595758E-10  3.296725E-10
        39  15 -1.302769E+06 -2.381769E+03  2.659080E+04 -2.680246E-08  7.102144E-10 -1.037779E-10
        39  16 -1.302721E+06  7.260835E+04  9.488522E+04 -6.050252E+03  4.671871E-10 -6.885512E-11
        39  17 -1.317250E+06 -1.710501E+04  4.046985E+04 -1.530874E+03  2.089349E-09  6.112551E-11
        39  18 -1.302769E+06 -2.381752E+03  2.659080E+04  2.988417E+03  8.969520E-10 -6.010988E-10
        39  19 -1.302716E+06  7.260948E+04  9.489310E+04  6.050252E+03 -6.469528E+04 -6.317572E-01
        39  20 -1.317248E+06 -1.710453E+04  4.047326E+04  1.530874E+03 -4.257073E+04 -1.051866E-01
        39  21 -1.302768E+06 -2.381639E+03  2.659158E+04 -2.988417E+03 -2.044603E+04  9.861664E-02
        39  22 -1.302716E+06  7.260941E+04  9.489309E+04  1.098995E-07 -6.469528E+04  7.241258E-10
        39  23 -1.317248E+06 -1.710453E+04  4.047326E+04  7.598970E-08 -4.257073E+04 -3.882550E-10
        39  24 -1.302768E+06 -2.381656E+03  2.659158E+04  6.146404E-08 -2.044603E+04  7.631995E-11
        39  25 -1.302716E+06  7.260948E+04  9.489310E+04 -6.050252E+03 -6.469528E+04  6.317572E-01
        39  26 -1.317248E+06 -1.710453E+04  4.047326E+04 -1.530874E+03 -4.257073E+04  1.051865E-01
        39  27 -1.302768E+06 -2.381639E+03  2.659158E+04  2.988417E+03 -2.044603E+04 -9.861664E-02
        40   1 -1.308152E+06  1.113282E+04  2.200845E+04  8.866073E+02  1.604434E+04  2.295921E-02
        40   2 -1.310520E+06 -2.626161E+03  1.045993E+04  2.093865E+02  1.055138E+04  3.565845E-03
        40   3 -1.308162E+06 -3.569946E+02  6.500333E+03 -4.678238E+02  5.058514E+03 -3.819518E-03
        40   4 -1.308152E+06  1.113282E+04  2.200845E+04 -1.615110E-08  1.604434E+04 -2.879193E-10
        40   5 -1.310520E+06 -2.626161E+03  1.045993E+04 -7.395924E-08  1.055138E+04  2.921094E-10
        40   6 -1.308162E+06 -3.569950E+02  6.500333E+03  1.031656E-08  5.058514E+03 -1.407452E-09
        40   7 -1.308152E+06  1.113282E+04  2.200845E+04 -8.866073E+02  1.604434E+04 -2.295921E-02
        40   8 -1.310520E+06 -2.626161E+03  1.045993E+04 -2.093865E+02  1.055138E+04 -3.565844E-03
        40   9 -1.308162E+06 -3.569946E+02  6.500333E+03  4.678238E+02  5.058514E+03  3.819515E-03
        40  10 -1.308153E+06  1.113275E+04  2.200796E+04  8.866073E+02 -4.708543E-10  1.139842E-10
        40  11 -1.310520E+06 -2.626191E+03  1.045972E+04  2.093865E+02 -2.753276E-09 -6.321463E-10
        40  12 -1.308162E+06 -3.570015E+02  6.500285E+03 -4.678238E+02 -2.383485E-09 -6.902261E-10
        40  13 -1.308153E+06  1.113275E+04  2.200796E+04 -1.022668E-07  5.043017E-11 -1.881625E-10
        40  14 -1.310520E+06 -2.626191E+03  1.045972E+04  3.540407E-09 -1.971568E-27 -2.374485E-11
        40  15 -1.308162E+06 -3.570019E+02  6.500285E+03 -2.599747E-09 -7.967626E-10 -5.555563E-10
        40  16 -1.308153E+06  1.113275E+04  2.200796E+04 -8.866073E+02 -6.653175E-10 -2.212684E-10
        40  17 -1.310520E+06 -2.626191E+03  1.045972E+04 -2.093865E+02  1.526342E-09  1.175917E-10
        40  18 -1.308162E+06 -3.570015E+02  6.500285E+03  4.678238E+02  3.162686E-11 -6.363226E-10
        40  19 -1.308152E+06  1.113282E+04  2.200845E+04  8.866073E+02 -1.604434E+04 -2.295921E-02
        40  20 -1.310520E+06 -2.626161E+03  1.045993E+04  2.093865E+02 -1.055138E+04 -3.565844E-03
        40  21 -1.308162E+06 -3.569946E+02  6.500333E+03 -4.678238E+02 -5.058514E+03  3.819516E-03
        40  22 -1.308152E+06  1.113282E+04  2.200845E+04  1.828761E-08 -1.604434E+04  9.534298E-11
        40  23 -1.310520E+06 -2.626161E+03  1.045993E+04  4.659557E-08 -1.055138E+04 -2.110567E-10
        40  24 -1.308162E+06 -3.569950E+02  6.500333E+03  2.754165E-08 -5.058514E+03  1.235434E-10
        40  25 -1.308152E+06  1.113282E+04  2.200845E+04 -8.866073E+02 -1.604434E+04  2.295921E-02
        40  26 -1.310520E+06 -2.626161E+03  1.045993E+04 -2.093865E+02 -1.055138E+04  3.565843E-03
        40  27 -1.308162E+06 -3.569946E+02  6.500333E+03  4.678238E+02 -5.058514E+03 -3.819517E-03
        41   1 -1.309036E+06  1.698055E+03  5.196221E+03  1.245973E+02  3.999428E+03  8.042842E-04
        41   2 -1.309429E+06 -3.999281E+02  2.614182E+03  2.548030E+01  2.658817E+03  1.093440E-04
        41   3 -1.309038E+06 -5.868278E+01  1.516155E+03 -7.363821E+01  1.318187E+03 -1.566687E-04
        41   4 -1.309036E+06  1.698055E+03  5.196221E+03 -2.147980E-08  3.999428E+03 -1.132794E-09
        41   5 -1.309429E+06 -3.999281E+02  2.614182E+03 -2.358911E-08  2.658817E+03  6.491054E-10
        41   6 -1.309038E+06 -5.868279E+01  1.516155E+03 -1.493334E-08  1.318187E+03  8.589582E-10
        41   7 -1.309036E+06  1.698055E+03  5.196221E+03 -1.245973E+02  3.999428E+03 -8.042866E-04
        41   8 -1.309429E+06 -3.999281E+02  2.614182E+03 -2.548030E+01  2.658817E+03 -1.093452E-04
        41   9 -1.309038E+06 -5.868278E+01  1.516155E+03  7.363821E+01  1.318187E+03  1.566694E-04
        41  10 -1.309036E+06  1.698051E+03  5.196191E+03  1.245973E+02 -9.544776E-10 -2.011340E-10
        41  11 -1.309429E+06 -3.999300E+02  2.614169E+03  2.548030E+01 -3.057236E-10  4.758215E-10
        41  12 -1.309038E+06 -5.868325E+01  1.516152E+03 -7.363821E+01 -2.950809E-09 -2.310865E-10
        41  13 -1.309036E+06  1.698051E+03  5.196191E+03 -3.869965E-08 -3.361999E-11 -4.988671E-10
        41  14 -1.309429E+06 -3.999300E+02  2.614169E+03  5.391253E-08  8.396404E-10  4.086070E-10
        41  15 -1.309038E+06 -5.868326E+01  1.516152E+03  6.041346E-08 -1.766616E-09  2.105526E-10
        41  16 -1.309036E+06  1.698051E+03  5.196191E+03 -1.245973E+02 -9.977636E-10 -1.228970E-10
        41  17 -1.309429E+06 -3.999300E+02  2.614169E+03 -2.548030E+01 -2.234579E-09  8.895297E-10
        41  18 -1.309038E+06 -5.868325E+01  1.516152E+03  7.363821E+01  3.342561E-09  4.573151E-10
        41  19 -1.309036E+06  1.698055E+03  5.196221E+03  1.245973E+02 -3.999428E+03 -8.042856E-04
        41  20 -1.309429E+06 -3.999281E+02  2.614182E+03  2.548030E+01 -2.658817E+03 -1.093424E-04
        41  21 -1.309038E+06 -5.868278E+01  1.516155E+03 -7.363821E+01 -1.318187E+03  1.566696E-04
        41  22 -1.309036E+06  1.698055E+03  5.196221E+03  1.296937E-08 -3.999428E+03  1.594852E-10
        41  23 -1.309429E+06 -3.999281E+02  2.614182E+03 -2.358701E-08 -2.658817E+03  1.119623E-10
        41  24 -1.309038E+06 -5.868279E+01  1.516155E+03  1.400709E-07 -1.318187E+03 -3.808083E-10
        41  25 -1.309036E+06  1.698055E+03  5.196221E+03 -1.245973E+02 -3.999428E+03  8.042861E-04
        41  26 -1.309429E+06 -3.999281E+02  2.614182E+03 -2.548030E+01 -2.658817E+03  1.093432E-04
        41  27 -1.309038E+06 -5.868278E+01  1.516155E+03  7.363821E+01 -1.318187E+03 -1.566691E-04
        42   1 -1.309188E+06  2.578474E+02  1.142155E+03  1.403678E+01  1.077544E+03  2.441288E-05
        42   2 -1.309242E+06 -5.000208E+01  4.699012E+02  2.206034E+00  8.393149E+02  2.986653E-06
        42   3 -1.309189E+06 -5.310386E+01  2.917828E+01 -9.624716E+00  6.010861E+02 -9.337151E-06
        42   4 -1.309188E+06  2.578474E+02  1.142155E+03  1.456289E-08  1.077544E+03  3.673846E-10
        42   5 -1.309242E+06 -5.000208E+01  4.699012E+02  4.074049E-08  8.393149E+02 -2.661030E-10
        42   6 -1.309189E+06 -5.310386E+01  2.917828E+01  8.795872E-09  6.010861E+02  1.288927E-10
        42   7 -1.309188E+06  2.578474E+02  1.142155E+03 -1.403678E+01  1.077544E+03 -2.441295E-05
        42   8 -1.309242E+06 -5.000208E+01  4.699012E+02 -2.206034E+00  8.393149E+02 -2.988875E-06
        42   9 -1.309189E+06 -5.310386E+01  2.917828E+01  9.624716E+00  6.010861E+02  9.337024E-06
        42  10 -1.309188E+06  2.578471E+02  1.142152E+03  1.403678E+01 -3.178126E-09  2.556450E-10
        42  11 -1.309242E+06 -5.000227E+01  4.698998E+02  2.206034E+00 -1.377941E-09 -6.131878E-10
        42  12 -1.309189E+06 -5.310396E+01  2.917760E+01 -9.624717E+00 -1.525229E-09  8.625924E-10
        42  13 -1.309188E+06  2.578471E+02  1.142152E+03 -5.432602E-08  5.069574E-10 -6.095446E-14
        42  14 -1.309242E+06 -5.000227E+01  4.698998E+02  6.657397E-08 -1.313075E-09  1.901106E-14
        42  15 -1.309189E+06 -5.310396E+01  2.917760E+01  4.969615E-08  2.847245E-10  9.580142E-12
        42  16 -1.309188E+06  2.578471E+02  1.142152E+03 -1.403678E+01  1.489158E-10  2.835128E-10
        42  17 -1.309242E+06 -5.000227E+01  4.698998E+02 -2.206034E+00 -1.377941E-09 -7.332782E-10
        42  18 -1.309189E+06 -5.310396E+01  2.917760E+01  9.624717E+00  2.167806E-09 -1.888738E-10
        42  19 -1.309188E+06  2.578474E+02  1.142155E+03  1.403678E+01 -1.077544E+03 -2.441270E-05
        42  20 -1.309242E+06 -5.000208E+01  4.699012E+02  2.206034E+00 -8.393149E+02 -2.987140E-06
        42  21 -1.309189E+06 -5.310386E+01  2.917828E+01 -9.624716E+00 -6.010861E+02  9.337907E-06
        42  22 -1.309188E+06  2.578474E+02  1.142155E+03  1.178978E-07 -1.077544E+03 -3.245256E-10
        42  23 -1.309242E+06 -5.000208E+01  4.699012E+02  2.351747E-08 -8.393149E+02  3.194079E-10
        42  24 -1.309189E+06 -5.310386E+01  2.917828E+01  4.108385E-08 -6.010861E+02 -1.535033E-10
        42  25 -1.309188E+06  2.578474E+02  1.142155E+03 -1.403678E+01 -1.077544E+03  2.441109E-05
        42  26 -1.309242E+06 -5.000208E+01  4.699012E+02 -2.206034E+00 -8.393149E+02  2.987948E-06
        42  27 -1.309189E+06 -5.310386E+01  2.917828E+01  9.624716E+00 -6.010861E+02 -9.338984E-06
        43   1 -1.309243E+06  4.698606E+01 -1.681975E+02 -1.229900E+01  6.136686E+02 -1.218093E-05
        43   2 -1.309174E+06  6.385671E+01 -6.357669E+02  2.669673E+00  9.355142E+02  4.030595E-06
        43   3 -1.309244E+06 -3.084002E+02 -1.410487E+03  1.763813E+01  1.257355E+03  3.579472E-05
        43   4 -1.309243E+06  4.698606E+01 -1.681975E+02  3.554605E-08  6.136686E+02  2.065907E-10
        43   5 -1.309174E+06  6.385671E+01 -6.357669E+02 -6.053770E-08  9.355142E+02  4.001060E-10
        43   6 -1.309244E+06 -3.084002E+02 -1.410487E+03 -4.898030E-08  1.257355E+03  3.098501E-11
        43   7 -1.309243E+06  4.698606E+01 -1.681975E+02  1.229900E+01  6.136686E+02  1.218068E-05
        43   8 -1.309174E+06  6.385671E+01 -6.357669E+02 -2.669674E+00  9.355142E+02 -4.032085E-06
        43   9 -1.309244E+06 -3.084002E+02 -1.410487E+03 -1.763813E+01  1.257355E+03 -3.579515E-05
        43  10 -1.309243E+06  4.698595E+01 -1.681982E+02 -1.229900E+01  1.595355E-10  3.132721E-10
        43  11 -1.309174E+06  6.385647E+01 -6.357685E+02  2.669673E+00 -1.471884E-09 -1.596061E-11
        43  12 -1.309244E+06 -3.084007E+02 -1.410490E+03  1.763813E+01 -3.101849E-09 -6.820721E-10
        43  13 -1.309243E+06  4.698595E+01 -1.681982E+02  6.998894E-08  4.564341E-10  7.813011E-12
        43  14 -1.309174E+06  6.385647E+01 -6.357685E+02 -4.331573E-08 -3.832381E-09 -1.287033E-10
        43  15 -1.309244E+06 -3.084007E+02 -1.410490E+03 -1.620523E-09 -2.946715E-09 -3.329604E-10
        43  16 -1.309243E+06  4.698595E+01 -1.681982E+02  1.229900E+01 -1.259155E-10 -1.628059E-10
        43  17 -1.309174E+06  6.385647E+01 -6.357685E+02 -2.669673E+00  1.708504E-09  2.807219E-11
        43  18 -1.309244E+06 -3.084007E+02 -1.410490E+03 -1.763813E+01  1.141038E-09 -1.187057E-10
        43  19 -1.309243E+06  4.698606E+01 -1.681975E+02 -1.229900E+01 -6.136686E+02  1.218338E-05
        43  20 -1.309174E+06  6.385671E+01 -6.357669E+02  2.669673E+00 -9.355142E+02 -4.030851E-06
        43  21 -1.309244E+06 -3.084002E+02 -1.410487E+03  1.763813E+01 -1.257355E+03 -3.579444E-05
        43  22 -1.309243E+06  4.698605E+01 -1.681975E+02  1.733247E-07 -6.136686E+02 -9.978262E-11
        43  23 -1.309174E+06  6.385671E+01 -6.357669E+02  6.862922E-08 -9.355142E+02 -3.752116E-10
        43  24 -1.309244E+06 -3.084002E+02 -1.410487E+03  5.435287E-08 -1.257355E+03 -8.907751E-10
        43  25 -1.309243E+06  4.698606E+01 -1.681975E+02  1.229900E+01 -6.136686E+02 -1.218235E-05
        43  26 -1.309174E+06  6.385671E+01 -6.357669E+02 -2.669673E+00 -9.355142E+02  4.029560E-06
        43  27 -1.309244E+06 -3.084002E+02 -1.410487E+03 -1.763813E+01 -1.257355E+03  3.579393E-05
        44   1 -1.309422E+06  6.787050E+01 -1.848475E+03 -8.823034E+01  1.552392E+03 -2.210657E-04
        44   2 -1.308952E+06  4.795525E+02 -3.149046E+03  3.056592E+01  3.167030E+03  1.562408E-04
        44   3 -1.309424E+06 -2.033633E+03 -6.233668E+03  1.493640E+02  4.781690E+03  1.152739E-03
        44   4 -1.309422E+06  6.787048E+01 -1.848475E+03  9.413137E-08  1.552392E+03  9.204663E-11
        44   5 -1.308952E+06  4.795525E+02 -3.149046E+03  1.965102E-08  3.167030E+03  5.496255E-10
        44   6 -1.309424E+06 -2.033633E+03 -6.233668E+03  3.343342E-08  4.781690E+03  9.300124E-11
        44   7 -1.309422E+06  6.787050E+01 -1.848475E+03  8.823034E+01  1.552392E+03  2.210671E-04
        44   8 -1.308952E+06  4.795525E+02 -3.149046E+03 -3.056592E+01  3.167030E+03 -1.562409E-04
        44   9 -1.309424E+06 -2.033633E+03 -6.233668E+03 -1.493640E+02  4.781690E+03 -1.152739E-03
        44  10 -1.309422E+06  6.786985E+01 -1.848480E+03 -8.823034E+01 -1.780452E-10 -3.161547E-11
        44  11 -1.308952E+06  4.795498E+02 -3.149064E+03  3.056592E+01 -3.233234E-09  2.659148E-10
        44  12 -1.309424E+06 -2.033640E+03 -6.233711E+03  1.493640E+02 -3.067360E-09  1.322616E-10
        44  13 -1.309422E+06  6.786984E+01 -1.848480E+03  7.691490E-08 -3.702217E-09 -2.353774E-10
        44  14 -1.308952E+06  4.795498E+02 -3.149064E+03 -2.340477E-08 -6.091527E-09  3.085450E-10
        44  15 -1.309424E+06 -2.033640E+03 -6.233711E+03  1.405574E-08 -1.421514E-10  3.342986E-10
        44  16 -1.309422E+06  6.786985E+01 -1.848480E+03  8.823034E+01  3.151481E-10 -3.049469E-10
        44  17 -1.308952E+06  4.795498E+02 -3.149064E+03 -3.056592E+01 -2.438343E-09  2.805350E-10
        44  18 -1.309424E+06 -2.033640E+03 -6.233711E+03 -1.493640E+02 -1.360882E-09 -4.227106E-10
        44  19 -1.309422E+06  6.787050E+01 -1.848475E+03 -8.823034E+01 -1.552392E+03  2.210652E-04
        44  20 -1.308952E+06  4.795525E+02 -3.149046E+03  3.056592E+01 -3.167030E+03 -1.562386E-04
        44  21 -1.309424E+06 -2.033633E+03 -6.233668E+03  1.493640E+02 -4.781690E+03 -1.152737E-03
        44  22 -1.309422E+06  6.787048E+01 -1.848475E+03  1.285872E-07 -1.552392E+03 -9.626967E-10
        44  23 -1.308952E+06  4.795525E+02 -3.149046E+03  3.687749E-08 -3.167030E+03 -1.166761E-10
        44  24 -1.309424E+06 -2.033633E+03 -6.233668E+03  1.023216E-07 -4.781690E+03  4.123898E-10
        44  25 -1.309422E+06  6.787050E+01 -1.848475E+03  8.823034E+01 -1.552392E+03 -2.210666E-04
        44  26 -1.308952E+06  4.795525E+02 -3.149046E+03 -3.056592E+01 -3.167030E+03  1.562393E-04
        44  27 -1.309424E+06 -2.033633E+03 -6.233668E+03 -1.493640E+02 -4.781690E+03  1.152738E-03
        45   1 -1.310471E+06  4.272074E+02 -7.792922E+03 -5.602747E+02  6.051650E+03 -5.472415E-03
        45   2 -1.307646E+06  3.145342E+03 -1.253109E+04  2.507891E+02  1.263253E+04  5.113300E-03
        45   3 -1.310482E+06 -1.333307E+04 -2.635939E+04  1.061852E+03  1.921340E+04  3.292847E-02
        45   4 -1.310471E+06  4.272068E+02 -7.792922E+03  8.184741E-08  6.051650E+03  3.617455E-11
        45   5 -1.307646E+06  3.145342E+03 -1.253109E+04 -3.353741E-08  1.263253E+04  1.050725E-10
        45   6 -1.310482E+06 -1.333308E+04 -2.635939E+04 -2.620819E-08  1.921340E+04  2.430590E-10
        45   7 -1.310471E+06  4.272074E+02 -7.792922E+03  5.602747E+02  6.051650E+03  5.472414E-03
        45   8 -1.307646E+06  3.145342E+03 -1.253109E+04 -2.507891E+02  1.263253E+04 -5.113303E-03
        45   9 -1.310482E+06 -1.333307E+04 -2.635939E+04 -1.061852E+03  1.921340E+04 -3.292847E-02
        45  10 -1.310471E+06  4.271976E+02 -7.792991E+03 -5.602747E+02 -3.961393E-09  1.160665E-10
        45  11 -1.307646E+06  3.145299E+03 -1.253139E+04  2.507891E+02 -2.454964E-09  4.429399E-10
        45  12 -1.310482E+06 -1.333317E+04 -2.636009E+04  1.061852E+03 -5.963486E-10  6.835737E-10
        45  13 -1.310471E+06  4.271970E+02 -7.792991E+03  4.739969E-08 -3.195576E-09  1.287242E-10
        45  14 -1.307646E+06  3.145299E+03 -1.253139E+04 -6.798347E-08 -3.465206E-09  1.284054E-10
        45  15 -1.310482E+06 -1.333317E+04 -2.636009E+04  5.344528E-08  1.505691E-09  1.141172E-10
        45  16 -1.310471E+06  4.271976E+02 -7.792991E+03  5.602747E+02  1.676970E-10  4.106831E-10
        45  17 -1.307646E+06  3.145299E+03 -1.253139E+04 -2.507891E+02  8.403720E-10  6.216959E-10
        45  18 -1.310482E+06 -1.333317E+04 -2.636009E+04 -1.061852E+03  1.020921E-09  5.826098E-10
        45  19 -1.310471E+06  4.272074E+02 -7.792922E+03 -5.602747E+02 -6.051650E+03  5.472415E-03
        45  20 -1.307646E+06  3.145342E+03 -1.253109E+04  2.507891E+02 -1.263253E+04 -5.113302E-03
        45  21 -1.310482E+06 -1.333307E+04 -2.635939E+04  1.061852E+03 -1.921340E+04 -3.292847E-02
        45  22 -1.310471E+06  4.272068E+02 -7.792922E+03  1.507323E-07 -6.051650E+03  2.472109E-10
        45  23 -1.307646E+06  3.145342E+03 -1.253109E+04  6.979658E-08 -1.263253E+04  1.045946E-10
        45  24 -1.310482E+06 -1.333308E+04 -2.635939E+04  4.483587E-08 -1.921340E+04  1.223818E-10
        45  25 -1.310471E+06  4.272074E+02 -7.792922E+03  5.602747E+02 -6.051650E+03 -5.472417E-03
        45  26 -1.307646E+06  3.145342E+03 -1.253109E+04 -2.507891E+02 -1.263253E+04  5.113302E-03
        45  27 -1.310482E+06 -1.333307E+04 -2.635939E+04 -1.061852E+03 -1.921340E+04  3.292847E-02
        46   1 -1.316930E+06  2.852753E+03 -3.184634E+04 -3.579133E+03  2.448434E+04 -1.414406E-01
        46   2 -1.299587E+06  2.048593E+04 -4.846235E+04  1.833653E+03  5.098369E+04  1.508845E-01
        46   3 -1.316988E+06 -8.696052E+04 -1.136251E+05  7.246233E+03  7.748287E+04  9.061935E-01
        46   4 -1.316930E+06  2.852729E+03 -3.184634E+04  4.312554E-08  2.448434E+04  5.612945E-10
        46   5 -1.299587E+06  2.048593E+04 -4.846235E+04  2.079564E-08  5.098369E+04  2.542361E-10
        46   6 -1.316988E+06 -8.696062E+04 -1.136251E+05 -5.966195E-08  7.748287E+04 -4.779026E-10
        46   7 -1.316930E+06  2.852753E+03 -3.184634E+04  3.579133E+03  2.448434E+04  1.414406E-01
        46   8 -1.299587E+06  2.048593E+04 -4.846235E+04 -1.833653E+03  5.098369E+04 -1.508845E-01
        46   9 -1.316988E+06 -8.696052E+04 -1.136251E+05 -7.246233E+03  7.748287E+04 -9.061935E-01
        46  10 -1.316930E+06  2.852592E+03 -3.184747E+04 -3.579133E+03  2.587019E-10  4.369897E-10
        46  11 -1.299590E+06  2.048523E+04 -4.846724E+04  1.833653E+03  3.358227E-09  3.803027E-10
        46  12 -1.316994E+06 -8.696214E+04 -1.136364E+05  7.246233E+03 -7.686443E-10 -3.065016E-12
        46  13 -1.316930E+06  2.852567E+03 -3.184747E+04 -2.576292E-08 -1.576278E-10  1.998532E-10
        46  14 -1.299590E+06  2.048523E+04 -4.846725E+04  3.573233E-09  2.152719E-09 -4.492152E-11
        46  15 -1.316994E+06 -8.696224E+04 -1.136364E+05 -1.393177E-07 -1.523152E-09 -5.743140E-12
        46  16 -1.316930E+06  2.852592E+03 -3.184747E+04  3.579133E+03 -5.924187E-10 -2.372468E-10
        46  17 -1.299590E+06  2.048523E+04 -4.846724E+04 -1.833653E+03 -4.348648E-09  1.536131E-10
        46  18 -1.316994E+06 -8.696214E+04 -1.136364E+05 -7.246233E+03  4.231877E-10 -1.080999E-10
        46  19 -1.316930E+06  2.852753E+03 -3.184634E+04 -3.579133E+03 -2.448434E+04  1.414406E-01
        46  20 -1.299587E+06  2.048593E+04 -4.846235E+04  1.833653E+03 -5.098369E+04 -1.508845E-01
        46  21 -1.316988E+06 -8.696052E+04 -1.136251E+05  7.246233E+03 -7.748287E+04 -9.061935E-01
        46  22 -1.316930E+06  2.852729E+03 -3.184634E+04  8.685371E-09 -2.448434E+04  1.225359E-10
        46  23 -1.299587E+06  2.048593E+04 -4.846235E+04 -8.254266E-08 -5.098369E+04 -4.809623E-10
        46  24 -1.316988E+06 -8.696062E+04 -1.136251E+05 -9.841464E-08 -7.748287E+04  2.348218E-10
        46  25 -1.316930E+06  2.852753E+03 -3.184634E+04  3.579133E+03 -2.448434E+04 -1.414406E-01
        46  26 -1.299587E+06  2.048593E+04 -4.846235E+04 -1.833653E+03 -5.098369E+04  1.508845E-01
        46  27 -1.316988E+06 -8.696052E+04 -1.136251E+05 -7.246233E+03 -7.748287E+04  9.061935E-01
        47   1  1.854044E+04 -1.686771E+06  1.884733E+04  4.999649E+04  1.170693E+03  3.463622E+03
        47   2  3.980165E+04 -1.591697E+06  4.024837E+04  1.477203E+04  5.095443E+03  2.609966E+03
        47   3  6.376027E+04 -1.495778E+06  6.288912E+04  5.092868E+04  8.870129E+03  1.757481E+03
        47   4  2.075798E+03 -1.752811E+06  2.689819E+03  5.066424E+04  1.170559E+03  1.451532E+03
        47   5 -3.210647E+02 -1.753225E+06  1.463290E+03  1.497313E+04  5.095636E+03  6.733008E+02
        47   6 -3.303321E+01 -1.752818E+06  1.424251E+03  5.066420E+04  8.870601E+03 -1.036312E+02
        47   7 -1.438916E+04 -1.818847E+06 -1.346799E+04  5.133191E+04  1.170420E+03 -5.603433E+02
        47   8 -4.044567E+04 -1.914730E+06 -3.732363E+04  1.517417E+04  5.095828E+03 -1.262862E+03
        47   9 -6.383113E+04 -2.009797E+06 -6.004528E+04  5.039984E+04  8.871075E+03 -1.963975E+03
        47  10  1.854044E+04 -1.686771E+06  1.884730E+04  4.999649E+04  8.787410E-10  6.576277E-10
        47  11  3.980162E+04 -1.591697E+06  4.024830E+04  1.477202E+04  2.311531E-09 -5.703787E-11
        47  12  6.376019E+04 -1.495778E+06  6.288897E+04  5.092867E+04 -2.867495E-09 -9.852901E-10
        47  13  2.075796E+03 -1.752811E+06  2.689813E+03  5.066423E+04  4.120504E-10  1.034586E-10
        47  14 -3.210927E+02 -1.753225E+06  1.463240E+03  1.497312E+04  3.014760E-09 -6.082060E-11
        47  15 -3.311764E+01 -1.752818E+06  1.424103E+03  5.066421E+04  1.654717E-09  2.527560E-11
        47  16 -1.438917E+04 -1.818847E+06 -1.346800E+04  5.133191E+04  1.417196E-09 -5.852467E-10
        47  17 -4.044570E+04 -1.914730E+06 -3.732368E+04  1.517418E+04  7.322277E-10 -2.328251E-11
        47  18 -6.383122E+04 -2.009797E+06 -6.004543E+04  5.039985E+04  1.719361E-09  9.252016E-10
        47  19  1.854044E+04 -1.686771E+06  1.884733E+04  4.999649E+04 -1.170693E+03 -3.463622E+03
        47  20  3.980165E+04 -1.591697E+06  4.024837E+04  1.477203E+04 -5.095443E+03 -2.609966E+03
        47  21  6.376027E+04 -1.495778E+06  6.288912E+04  5.092868E+04 -8.870129E+03 -1.757481E+03
        47  22  2.075798E+03 -1.752811E+06  2.689819E+03  5.066424E+04 -1.170559E+03 -1.451532E+03
        47  23 -3.210647E+02 -1.753225E+06  1.463290E+03  1.497313E+04 -5.095636E+03 -6.733008E+02
        47  24 -3.303321E+01 -1.752818E+06  1.424251E+03  5.066420E+04 -8.870601E+03  1.036312E+02
        47  25 -1.438916E+04 -1.818847E+06 -1.346799E+04  5.133191E+04 -1.170420E+03  5.603433E+02
        47  26 -4.044567E+04 -1.914730E+06 -3.732363E+04  1.517417E+04 -5.095828E+03  1.262862E+03
        47  27 -6.383113E+04 -2.009797E+06 -6.004528E+04  5.039984E+04 -8.871075E+03  1.963975E+03
        48   1  9.574554E+04 -1.368030E+06  9.418280E+04  4.996191E+04  1.132619E+04  1.922450E+03
        48   2  1.183950E+05 -1.275431E+06  1.166061E+05  1.533914E+04  1.510616E+04  1.789477E+02
        48   3  1.428863E+05 -1.181773E+06  1.407005E+05  5.026389E+04  1.736284E+04 -1.562370E+03
        48   4  1.258385E+02 -1.752820E+06  1.536521E+03  5.025708E+04  1.132719E+04 -3.625064E+02
        48   5 -2.763043E+02 -1.753286E+06  1.900342E+03  1.548205E+04  1.510777E+04 -1.338834E+03
        48   6  1.031213E+03 -1.752835E+06  3.402686E+03  5.025786E+04  1.736451E+04 -2.312718E+03
        48   7 -9.550468E+04 -2.137473E+06 -9.112031E+04  5.055207E+04  1.132819E+04 -2.646049E+03
        48   8 -1.189643E+05 -2.230932E+06 -1.128217E+05  1.562487E+04  1.510938E+04 -2.855451E+03
        48   9 -1.408477E+05 -2.323598E+06 -1.339184E+05  5.025188E+04  1.736618E+04 -3.062376E+03
        48  10  9.574540E+04 -1.368030E+06  9.418255E+04  4.996190E+04  1.200771E-09  1.115330E-09
        48  11  1.183948E+05 -1.275431E+06  1.166057E+05  1.533913E+04  2.727535E-09 -6.393942E-10
        48  12  1.428860E+05 -1.181773E+06  1.406999E+05  5.026392E+04 -2.076057E-09 -2.372627E-09
        48  13  1.257008E+02 -1.752820E+06  1.536280E+03  5.025709E+04  3.986480E-09  1.027925E-10
        48  14 -2.765497E+02 -1.753286E+06  1.899910E+03  1.548206E+04  3.081565E-09 -5.352995E-10
        48  15  1.030888E+03 -1.752835E+06  3.402110E+03  5.025789E+04 -1.392071E-09  3.706370E-10
        48  16 -9.550482E+04 -2.137474E+06 -9.112057E+04  5.055209E+04  1.740529E-09 -1.046116E-09
        48  17 -1.189645E+05 -2.230932E+06 -1.128221E+05  1.562491E+04  3.283384E-09  1.138953E-10
        48  18 -1.408480E+05 -2.323598E+06 -1.339189E+05  5.025192E+04  2.152914E-09  2.075591E-09
        48  19  9.574554E+04 -1.368030E+06  9.418280E+04  4.996191E+04 -1.132619E+04 -1.922450E+03
        48  20  1.183950E+05 -1.275431E+06  1.166061E+05  1.533914E+04 -1.510616E+04 -1.789477E+02
        48  21  1.428863E+05 -1.181773E+06  1.407005E+05  5.026389E+04 -1.736284E+04  1.562370E+03
        48  22  1.258385E+02 -1.752820E+06  1.536521E+03  5.025708E+04 -1.132719E+04  3.625064E+02
        48  23 -2.763043E+02 -1.753286E+06  1.900342E+03  1.548205E+04 -1.510777E+04  1.338834E+03
        48  24  1.031213E+03 -1.752835E+06  3.402686E+03  5.025786E+04 -1.736451E+04  2.312718E+03
        48  25 -9.550468E+04 -2.137473E+06 -9.112031E+04  5.055207E+04 -1.132819E+04  2.646049E+03
        48  26 -1.189643E+05 -2.230932E+06 -1.128217E+05  1.562487E+04 -1.510938E+04  2.855451E+03
        48  27 -1.408477E+05 -2.323598E+06 -1.339184E+05  5.025188E+04 -1.736618E+04  3.062376E+03
        49   1  1.716184E+05 -1.057859E+06  1.706095E+05  4.729063E+04  2.228827E+04  3.487339E+03
        49   2  1.922465E+05 -9.725946E+05  1.938176E+05  1.673509E+04  2.527788E+04 -9.848134E+03
        49   3  2.288605E+05 -8.806402E+05  2.299107E+05  5.172576E+04  8.603122E+03 -2.322107E+04
        49   4 -7.197108E+02 -1.751981E+06  4.127028E+03  4.936201E+04  2.229662E+04 -2.957405E+03
        49   5 -1.852317E+03 -1.754472E+06  6.349050E+03  1.659760E+04  2.527470E+04 -6.387889E+03
        49   6  1.128987E+04 -1.751996E+06  1.457417E+04  4.938413E+04  8.577557E+03 -9.854002E+03
        49   7 -1.730929E+05 -2.445660E+06 -1.623894E+05  5.143115E+04  2.230492E+04 -9.394961E+03
        49   8 -1.959957E+05 -2.535788E+06 -1.811629E+05  1.646049E+04  2.527152E+04 -2.931986E+03
        49   9 -2.063374E+05 -2.622660E+06 -2.008182E+05  4.704610E+04  8.551874E+03  3.494312E+03
        49  10  1.716179E+05 -1.057859E+06  1.706085E+05  4.729057E+04 -2.356906E-09 -3.613662E-10
        49  11  1.922458E+05 -9.725949E+05  1.938162E+05  1.673529E+04  2.427330E-10 -3.233138E-09
        49  12  2.288602E+05 -8.806408E+05  2.299096E+05  5.172592E+04  1.129219E-09 -1.112838E-09
        49  13 -7.202465E+02 -1.751981E+06  4.126078E+03  4.936206E+04 -1.806840E-09  7.491379E-10
        49  14 -1.853014E+03 -1.754472E+06  6.347774E+03  1.659773E+04 -1.356016E-09 -1.721919E-09
        49  15  1.128977E+04 -1.751996E+06  1.457385E+04  4.938419E+04 -3.743887E-10  6.807823E-10
        49  16 -1.730935E+05 -2.445660E+06 -1.623905E+05  5.143132E+04 -8.432572E-10  4.084158E-10
        49  17 -1.959963E+05 -2.535788E+06 -1.811641E+05  1.646055E+04  1.994402E-09  1.585828E-09
        49  18 -2.063375E+05 -2.622660E+06 -2.008183E+05  4.704608E+04  4.546069E-10  5.595603E-10
        49  19  1.716184E+05 -1.057859E+06  1.706095E+05  4.729063E+04 -2.228827E+04 -3.487339E+03
        49  20  1.922465E+05 -9.725946E+05  1.938176E+05  1.673509E+04 -2.527788E+04  9.848134E+03
        49  21  2.288605E+05 -8.806402E+05  2.299107E+05  5.172576E+04 -8.603122E+03  2.322107E+04
        49  22 -7.197108E+02 -1.751981E+06  4.127028E+03  4.936201E+04 -2.229662E+04  2.957405E+03
        49  23 -1.852317E+03 -1.754472E+06  6.349050E+03  1.659760E+04 -2.527470E+04  6.387889E+03
        49  24  1.128987E+04 -1.751996E+06  1.457417E+04  4.938413E+04 -8.577557E+03  9.854002E+03
        49  25 -1.730929E+05 -2.445660E+06 -1.623894E+05  5.143115E+04 -2.230492E+04  9.394961E+03
        49  26 -1.959957E+05 -2.535788E+06 -1.811629E+05  1.646049E+04 -2.527152E+04  2.931986E+03
        49  27 -2.063374E+05 -2.622660E+06 -2.008182E+05  4.704610E+04 -8.551874E+03 -3.494312E+03
        50   1 -1.402617E+06 -1.835719E+05  2.797746E+04 -5.300831E+05  3.633315E+04  1.403436E+04
        50   2 -1.416198E+06 -2.314118E+05 -5.736420E+03 -5.134782E+05  2.317719E+04  9.826372E+03
        50   3 -1.400802E+06 -2.257042E+05 -1.371946E+04 -5.177134E+05  1.036733E+04  4.694219E+03
        50   4 -1.291993E+06 -1.449340E+05  5.784120E+04 -5.032797E+05  3.646106E+04  1.408207E+04
        50   5 -1.309341E+06 -1.918840E+05  2.350026E+04 -4.853064E+05  2.319921E+04  9.834567E+03
        50   6 -1.297694E+06 -1.852716E+05  1.497065E+04 -4.881725E+05  1.028350E+04  4.662876E+03
        50   7 -1.181358E+06 -1.062960E+05  8.770381E+04 -4.764722E+05  3.658900E+04  1.412980E+04
        50   8 -1.202472E+06 -1.523556E+05  5.273588E+04 -4.571304E+05  2.322123E+04  9.842763E+03
        50   9 -1.194575E+06 -1.448382E+05  4.365979E+04 -4.586270E+05  1.019965E+04  4.631526E+03
        50  10 -1.402618E+06 -1.835725E+05  2.797460E+04 -5.300835E+05  3.746577E-09 -2.383568E-10
        50  11 -1.416199E+06 -2.314121E+05 -5.737614E+03 -5.134784E+05  6.146856E-09  7.304454E-10
        50  12 -1.400802E+06 -2.257042E+05 -1.371970E+04 -5.177135E+05  1.560068E-09 -4.912626E-10
        50  13 -1.291994E+06 -1.449346E+05  5.783832E+04 -5.032801E+05 -4.428956E-11 -3.556112E-10
        50  14 -1.309341E+06 -1.918842E+05  2.349906E+04 -4.853066E+05  2.084458E-09 -2.151656E-10
        50  15 -1.297694E+06 -1.852717E+05  1.497041E+04 -4.881725E+05  1.290425E-09  8.070433E-11
        50  16 -1.181359E+06 -1.062965E+05  8.770092E+04 -4.764726E+05  8.857481E-10 -1.616163E-10
        50  17 -1.202473E+06 -1.523559E+05  5.273469E+04 -4.571306E+05  1.808169E-10 -1.157808E-09
        50  18 -1.194575E+06 -1.448382E+05  4.365955E+04 -4.586271E+05  1.494460E-09 -2.815089E-10
        50  19 -1.402617E+06 -1.835719E+05  2.797746E+04 -5.300831E+05 -3.633315E+04 -1.403436E+04
        50  20 -1.416198E+06 -2.314118E+05 -5.736420E+03 -5.134782E+05 -2.317719E+04 -9.826372E+03
        50  21 -1.400802E+06 -2.257042E+05 -1.371946E+04 -5.177134E+05 -1.036733E+04 -4.694219E+03
        50  22 -1.291993E+06 -1.449340E+05  5.784120E+04 -5.032797E+05 -3.646106E+04 -1.408207E+04
        50  23 -1.309341E+06 -1.918840E+05  2.350026E+04 -4.853064E+05 -2.319921E+04 -9.834567E+03
        50  24 -1.297694E+06 -1.852716E+05  1.497065E+04 -4.881725E+05 -1.028350E+04 -4.662876E+03
        50  25 -1.181358E+06 -1.062960E+05  8.770381E+04 -4.764722E+05 -3.658900E+04 -1.412980E+04
        50  26 -1.202472E+06 -1.523556E+05  5.273588E+04 -4.571304E+05 -2.322123E+04 -9.842763E+03
        50  27 -1.194575E+06 -1.448382E+05  4.365979E+04 -4.586270E+05 -1.019965E+04 -4.631526E+03
        51   1 -1.353420E+06 -1.996213E+05 -2.631949E+03 -5.075159E+05  8.074876E+03  3.570724E+03
        51   2 -1.356334E+06 -2.012257E+05 -8.385612E+03 -4.989783E+05  5.172731E+03  2.435882E+03
        51   3 -1.345909E+06 -2.033414E+05 -9.490405E+03 -5.036474E+05  2.349704E+03  1.089249E+03
        51   4 -1.298657E+06 -1.794397E+05  1.233840E+04 -4.931568E+05  8.082428E+03  3.573537E+03
        51   5 -1.305765E+06 -1.822788E+05  5.500998E+03 -4.853984E+05  5.156275E+03  2.429726E+03
        51   6 -1.299529E+06 -1.856248E+05  3.331190E+03 -4.908465E+05  2.309260E+03  1.074137E+03
        51   7 -1.243892E+06 -1.592579E+05  2.730848E+04 -4.787967E+05  8.089982E+03  3.576351E+03
        51   8 -1.255193E+06 -1.633318E+05  1.938736E+04 -4.718176E+05  5.139816E+03  2.423569E+03
        51   9 -1.253148E+06 -1.679080E+05  1.615255E+04 -4.780447E+05  2.268814E+03  1.059024E+03
        51  10 -1.353420E+06 -1.996213E+05 -2.632096E+03 -5.075159E+05  1.061900E-09  1.939623E-09
        51  11 -1.356334E+06 -2.012257E+05 -8.385673E+03 -4.989783E+05  8.892389E-10  6.940907E-10
        51  12 -1.345909E+06 -2.033415E+05 -9.490418E+03 -5.036474E+05 -7.892887E-11 -6.886559E-10
        51  13 -1.298657E+06 -1.794397E+05  1.233825E+04 -4.931569E+05 -2.160230E-09  1.061867E-10
        51  14 -1.305765E+06 -1.822788E+05  5.500936E+03 -4.853984E+05 -2.036000E-09 -2.532122E-10
        51  15 -1.299529E+06 -1.856248E+05  3.331177E+03 -4.908465E+05  1.120490E-09 -1.386224E-09
        51  16 -1.243892E+06 -1.592579E+05  2.730833E+04 -4.787967E+05 -6.535155E-12  9.261741E-12
        51  17 -1.255193E+06 -1.633318E+05  1.938730E+04 -4.718176E+05  3.936904E-10  1.829225E-10
        51  18 -1.253148E+06 -1.679080E+05  1.615254E+04 -4.780448E+05  1.242603E-09 -1.802674E-09
        51  19 -1.353420E+06 -1.996213E+05 -2.631949E+03 -5.075159E+05 -8.074876E+03 -3.570724E+03
        51  20 -1.356334E+06 -2.012257E+05 -8.385612E+03 -4.989783E+05 -5.172731E+03 -2.435882E+03
        51  21 -1.345909E+06 -2.033414E+05 -9.490405E+03 -5.036474E+05 -2.349704E+03 -1.089249E+03
        51  22 -1.298657E+06 -1.794397E+05  1.233840E+04 -4.931568E+05 -8.082428E+03 -3.573537E+03
        51  23 -1.305765E+06 -1.822788E+05  5.500998E+03 -4.853984E+05 -5.156275E+03 -2.429726E+03
        51  24 -1.299529E+06 -1.856248E+05  3.331190E+03 -4.908465E+05 -2.309260E+03 -1.074137E+03
        51  25 -1.243892E+06 -1.592579E+05  2.730848E+04 -4.787967E+05 -8.089982E+03 -3.576351E+03
        51  26 -1.255193E+06 -1.633318E+05  1.938736E+04 -4.718176E+05 -5.139816E+03 -2.423569E+03
        51  27 -1.253148E+06 -1.679080E+05  1.615255E+04 -4.780447E+05 -2.268814E+03 -1.059024E+03
        52   1 -1.278200E+06 -1.765764E+05  8.599658E+03 -4.857377E+05  1.902192E+03  7.143428E+02
        52   2 -1.279416E+06 -1.710634E+05  8.335018E+03 -4.784021E+05  1.329814E+03  2.552079E+02
        52   3 -1.269792E+06 -1.744236E+05  8.929793E+03 -4.831651E+05  7.468582E+02 -1.755361E+02
        52   4 -1.299701E+06 -1.847444E+05  2.657868E+03 -4.916239E+05  1.876407E+03  7.047083E+02
        52   5 -1.305188E+06 -1.807889E+05  1.243217E+03 -4.853947E+05  1.307233E+03  2.467681E+02
        52   6 -1.299836E+06 -1.857072E+05  6.854499E+02 -4.912643E+05  7.274879E+02 -1.827787E+02
        52   7 -1.321201E+06 -1.929124E+05 -3.283978E+03 -4.975099E+05  1.850622E+03  6.950740E+02
        52   8 -1.330960E+06 -1.905144E+05 -5.848657E+03 -4.923871E+05  1.284654E+03  2.383286E+02
        52   9 -1.329879E+06 -1.969908E+05 -7.558988E+03 -4.993631E+05  7.081186E+02 -1.900209E+02
        52  10 -1.278200E+06 -1.765764E+05  8.599650E+03 -4.857377E+05 -2.549567E-11 -5.790193E-10
        52  11 -1.279416E+06 -1.710634E+05  8.335015E+03 -4.784021E+05  4.885144E-09 -9.250612E-10
        52  12 -1.269792E+06 -1.744236E+05  8.929792E+03 -4.831651E+05  3.997430E-10 -1.789222E-09
        52  13 -1.299701E+06 -1.847444E+05  2.657860E+03 -4.916239E+05  2.029165E-09 -1.719172E-09
        52  14 -1.305188E+06 -1.807889E+05  1.243214E+03 -4.853947E+05  1.542040E-10 -2.380418E-09
        52  15 -1.299836E+06 -1.857072E+05  6.854488E+02 -4.912643E+05 -1.095217E-09 -1.095536E-09
        52  16 -1.321201E+06 -1.929124E+05 -3.283985E+03 -4.975099E+05 -1.254226E-09 -5.957371E-10
        52  17 -1.330960E+06 -1.905144E+05 -5.848660E+03 -4.923871E+05  1.019845E-11 -1.564597E-09
        52  18 -1.329879E+06 -1.969908E+05 -7.558989E+03 -4.993631E+05  2.692245E-10 -1.492310E-09
        52  19 -1.278200E+06 -1.765764E+05  8.599658E+03 -4.857377E+05 -1.902192E+03 -7.143428E+02
        52  20 -1.279416E+06 -1.710634E+05  8.335018E+03 -4.784021E+05 -1.329814E+03 -2.552079E+02
        52  21 -1.269792E+06 -1.744236E+05  8.929793E+03 -4.831651E+05 -7.468582E+02  1.755361E+02
        52  22 -1.299701E+06 -1.847444E+05  2.657868E+03 -4.916239E+05 -1.876407E+03 -7.047083E+02
        52  23 -1.305188E+06 -1.807889E+05  1.243217E+03 -4.853947E+05 -1.307233E+03 -2.467681E+02
        52  24 -1.299836E+06 -1.857072E+05  6.854499E+02 -4.912643E+05 -7.274879E+02  1.827787E+02
        52  25 -1.321201E+06 -1.929124E+05 -3.283978E+03 -4.975099E+05 -1.850622E+03 -6.950740E+02
        52  26 -1.330960E+06 -1.905144E+05 -5.848657E+03 -4.923871E+05 -1.284654E+03 -2.383286E+02
        52  27 -1.329879E+06 -1.969908E+05 -7.558988E+03 -4.993631E+05 -7.081186E+02  1.900209E+02
        53   1 -1.212057E+06 -1.513874E+05  2.489087E+04 -4.665003E+05  7.129377E+02 -3.515953E+02
        53   2 -1.212805E+06 -1.470716E+05  2.527493E+04 -4.617550E+05  7.011304E+02 -6.060063E+02
        53   3 -1.206432E+06 -1.494383E+05  2.581359E+04 -4.648568E+05  6.285978E+02 -6.979010E+02
        53   4 -1.300602E+06 -1.847692E+05  5.179133E+02 -4.904893E+05  6.791713E+02 -3.642281E+02
        53   5 -1.304174E+06 -1.815310E+05  1.381444E+02 -4.865264E+05  6.856047E+02 -6.118256E+02
        53   6 -1.300630E+06 -1.849787E+05 -1.014769E+02 -4.904104E+05  6.313090E+02 -6.968954E+02
        53   7 -1.389140E+06 -2.181505E+05 -2.385570E+04 -5.144752E+05  6.454102E+02 -3.768589E+02
        53   8 -1.395536E+06 -2.159898E+05 -2.499939E+04 -5.112945E+05  6.700816E+02 -6.176440E+02
        53   9 -1.394820E+06 -2.205185E+05 -2.601739E+04 -5.159606E+05  6.340198E+02 -6.958898E+02
        53  10 -1.212057E+06 -1.513874E+05  2.489087E+04 -4.665003E+05  8.740409E-11 -2.634962E-10
        53  11 -1.212805E+06 -1.470716E+05  2.527493E+04 -4.617550E+05  9.618675E-10  1.209662E-09
        53  12 -1.206432E+06 -1.494383E+05  2.581359E+04 -4.648568E+05 -6.584826E-10 -2.659910E-10
        53  13 -1.300602E+06 -1.847692E+05  5.179122E+02 -4.904893E+05  2.447262E-09  1.003856E-10
        53  14 -1.304174E+06 -1.815310E+05  1.381429E+02 -4.865264E+05  3.082542E-09  9.055879E-10
        53  15 -1.300630E+06 -1.849787E+05 -1.014786E+02 -4.904104E+05 -2.316563E-09  1.046935E-09
        53  16 -1.389140E+06 -2.181505E+05 -2.385570E+04 -5.144752E+05  1.990416E-09  6.972726E-10
        53  17 -1.395536E+06 -2.159898E+05 -2.499939E+04 -5.112945E+05  5.874611E-10  1.211223E-09
        53  18 -1.394820E+06 -2.205185E+05 -2.601739E+04 -5.159606E+05 -7.826837E-10 -5.804374E-11
        53  19 -1.212057E+06 -1.513874E+05  2.489087E+04 -4.665003E+05 -7.129377E+02  3.515953E+02
        53  20 -1.212805E+06 -1.470716E+05  2.527493E+04 -4.617550E+05 -7.011304E+02  6.060063E+02
        53  21 -1.206432E+06 -1.494383E+05  2.581359E+04 -4.648568E+05 -6.285978E+02  6.979010E+02
        53  22 -1.300602E+06 -1.847692E+05  5.179133E+02 -4.904893E+05 -6.791713E+02  3.642281E+02
        53  23 -1.304174E+06 -1.815310E+05  1.381444E+02 -4.865264E+05 -6.856047E+02  6.118256E+02
        53  24 -1.300630E+06 -1.849787E+05 -1.014769E+02 -4.904104E+05 -6.313090E+02  6.968954E+02
        53  25 -1.389140E+06 -2.181505E+05 -2.385570E+04 -5.144752E+05 -6.454102E+02  3.768589E+02
        53  26 -1.395536E+06 -2.159898E+05 -2.499939E+04 -5.112945E+05 -6.700816E+02  6.176440E+02
        53  27 -1.394820E+06 -2.205185E+05 -2.601739E+04 -5.159606E+05 -6.340198E+02  6.958898E+02
        54   1 -1.181820E+06 -1.381729E+05  3.286433E+04 -4.562761E+05  7.030676E+02 -7.414109E+02
        54   2 -1.182019E+06 -1.376622E+05  3.256540E+04 -4.557897E+05  1.016163E+03 -7.646474E+02
        54   3 -1.181351E+06 -1.382090E+05  3.203812E+04 -4.559089E+05  1.247862E+03 -5.708980E+02
        54   4 -1.301993E+06 -1.835201E+05 -2.106723E+02 -4.888804E+05  6.770220E+02 -7.511856E+02
        54   5 -1.302447E+06 -1.831541E+05 -5.798533E+02 -4.885156E+05  1.014408E+03 -7.653211E+02
        54   6 -1.302040E+06 -1.838507E+05 -1.196705E+03 -4.887564E+05  1.270390E+03 -5.624508E+02
        54   7 -1.422152E+06 -2.288665E+05 -3.328700E+04 -5.214791E+05  6.509819E+02 -7.609582E+02
        54   8 -1.422862E+06 -2.286453E+05 -3.372642E+04 -5.212358E+05  1.012654E+03 -7.659948E+02
        54   9 -1.422714E+06 -2.294915E+05 -3.443284E+04 -5.215982E+05  1.292913E+03 -5.540055E+02
        54  10 -1.181820E+06 -1.381729E+05  3.286433E+04 -4.562761E+05 -4.658775E-10 -7.438636E-10
        54  11 -1.182019E+06 -1.376622E+05  3.256540E+04 -4.557897E+05  2.302490E-10  2.694555E-10
        54  12 -1.181351E+06 -1.382090E+05  3.203811E+04 -4.559089E+05 -1.374410E-10  2.426130E-10
        54  13 -1.301993E+06 -1.835201E+05 -2.106743E+02 -4.888804E+05  2.546298E-10  6.850701E-10
        54  14 -1.302447E+06 -1.831541E+05 -5.798563E+02 -4.885156E+05  8.750852E-10 -5.683922E-10
        54  15 -1.302040E+06 -1.838507E+05 -1.196708E+03 -4.887564E+05  7.317846E-10 -5.552857E-10
        54  16 -1.422152E+06 -2.288665E+05 -3.328700E+04 -5.214791E+05  3.617481E-09  3.551968E-10
        54  17 -1.422862E+06 -2.286453E+05 -3.372643E+04 -5.212358E+05  3.039226E-09 -6.443857E-10
        54  18 -1.422714E+06 -2.294915E+05 -3.443284E+04 -5.215982E+05  5.726919E-10 -3.395608E-10
        54  19 -1.181820E+06 -1.381729E+05  3.286433E+04 -4.562761E+05 -7.030676E+02  7.414109E+02
        54  20 -1.182019E+06 -1.376622E+05  3.256540E+04 -4.557897E+05 -1.016163E+03  7.646474E+02
        54  21 -1.181351E+06 -1.382090E+05  3.203812E+04 -4.559089E+05 -1.247862E+03  5.708980E+02
        54  22 -1.301993E+06 -1.835201E+05 -2.106723E+02 -4.888804E+05 -6.770220E+02  7.511856E+02
        54  23 -1.302447E+06 -1.831541E+05 -5.798533E+02 -4.885156E+05 -1.014408E+03  7.653211E+02
        54  24 -1.302040E+06 -1.838507E+05 -1.196705E+03 -4.887564E+05 -1.270390E+03  5.624508E+02
        54  25 -1.422152E+06 -2.288665E+05 -3.328700E+04 -5.214791E+05 -6.509819E+02  7.609582E+02
        54  26 -1.422862E+06 -2.286453E+05 -3.372642E+04 -5.212358E+05 -1.012654E+03  7.659948E+02
        54  27 -1.422714E+06 -2.294915E+05 -3.443284E+04 -5.215982E+05 -1.292913E+03  5.540055E+02
        55   1 -1.199929E+06 -1.429716E+05  2.696898E+04 -4.591923E+05  1.486789E+03 -4.322429E+02
        55   2 -1.199142E+06 -1.461808E+05  2.515665E+04 -4.630213E+05  2.873011E+03  1.182439E+02
        55   3 -1.205128E+06 -1.465535E+05  2.156031E+04 -4.594973E+05  4.193714E+03  8.427303E+02
        55   4 -1.303609E+06 -1.820938E+05 -1.558066E+03 -4.873223E+05  1.479791E+03 -4.348843E+02
        55   5 -1.300364E+06 -1.845106E+05 -2.721604E+03 -4.906229E+05  2.885311E+03  1.228597E+02
        55   6 -1.303897E+06 -1.840951E+05 -5.684676E+03 -4.865705E+05  4.225314E+03  8.546186E+02
        55   7 -1.407279E+06 -2.212154E+05 -3.008611E+04 -5.154482E+05  1.472793E+03 -4.375253E+02
        55   8 -1.401577E+06 -2.228399E+05 -3.060081E+04 -5.182206E+05  2.897609E+03  1.274746E+02
        55   9 -1.402656E+06 -2.216361E+05 -3.293057E+04 -5.136398E+05  4.256909E+03  8.665047E+02
        55  10 -1.199929E+06 -1.429716E+05  2.696897E+04 -4.591923E+05  5.641994E-10 -1.783531E-10
        55  11 -1.199142E+06 -1.461808E+05  2.515663E+04 -4.630213E+05  8.511714E-10 -8.215045E-10
        55  12 -1.205128E+06 -1.465535E+05  2.156028E+04 -4.594973E+05 -1.761579E-09  4.586096E-10
        55  13 -1.303609E+06 -1.820938E+05 -1.558070E+03 -4.873223E+05  2.633336E-09 -3.762273E-10
        55  14 -1.300364E+06 -1.845106E+05 -2.721620E+03 -4.906229E+05 -3.290663E-09  1.263120E-09
        55  15 -1.303897E+06 -1.840951E+05 -5.684711E+03 -4.865705E+05 -2.084054E-09 -6.451077E-10
        55  16 -1.407279E+06 -2.212154E+05 -3.008612E+04 -5.154482E+05  3.470205E-10 -6.080134E-10
        55  17 -1.401577E+06 -2.228399E+05 -3.060082E+04 -5.182206E+05  2.154656E-09 -7.804988E-10
        55  18 -1.402656E+06 -2.216361E+05 -3.293060E+04 -5.136398E+05 -1.365225E-09  5.254421E-10
        55  19 -1.199929E+06 -1.429716E+05  2.696898E+04 -4.591923E+05 -1.486789E+03  4.322429E+02
        55  20 -1.199142E+06 -1.461808E+05  2.515665E+04 -4.630213E+05 -2.873011E+03 -1.182439E+02
        55  21 -1.205128E+06 -1.465535E+05  2.156031E+04 -4.594973E+05 -4.193714E+03 -8.427303E+02
        55  22 -1.303609E+06 -1.820938E+05 -1.558066E+03 -4.873223E+05 -1.479791E+03  4.348843E+02
        55  23 -1.300364E+06 -1.845106E+05 -2.721604E+03 -4.906229E+05 -2.885311E+03 -1.228597E+02
        55  24 -1.303897E+06 -1.840951E+05 -5.684676E+03 -4.865705E+05 -4.225314E+03 -8.546186E+02
        55  25 -1.407279E+06 -2.212154E+05 -3.008611E+04 -5.154482E+05 -1.472793E+03  4.375253E+02
        55  26 -1.401577E+06 -2.228399E+05 -3.060081E+04 -5.182206E+05 -2.897609E+03 -1.274746E+02
        55  27 -1.402656E+06 -2.216361E+05 -3.293057E+04 -5.136398E+05 -4.256909E+03 -8.665047E+02
        56   1 -1.259620E+06 -1.641148E+05  5.411184E+03 -4.748099E+05  5.220711E+03  1.388687E+03
        56   2 -1.256227E+06 -1.670232E+05 -3.289867E+02 -4.808947E+05  1.143415E+04  3.925567E+03
        56   3 -1.270733E+06 -1.792574E+05 -1.599924E+04 -4.708071E+05  1.764476E+04  6.469711E+03
        56   4 -1.305538E+06 -1.809816E+05 -7.121483E+03 -4.867995E+05  5.239356E+03  1.395712E+03
        56   5 -1.297530E+06 -1.829064E+05 -1.175422E+04 -4.924054E+05  1.145321E+04  3.932741E+03
        56   6 -1.307422E+06 -1.941578E+05 -2.631784E+04 -4.818388E+05  1.766429E+04  6.477035E+03
        56   7 -1.351453E+06 -1.978483E+05 -1.965433E+04 -4.987884E+05  5.257999E+03  1.402736E+03
        56   8 -1.338831E+06 -1.987896E+05 -2.317962E+04 -5.039155E+05  1.147227E+04  3.939914E+03
        56   9 -1.344109E+06 -2.090582E+05 -3.663658E+04 -4.928699E+05  1.768381E+04  6.484359E+03
        56  10 -1.259620E+06 -1.641148E+05  5.411129E+03 -4.748099E+05 -2.065525E-09  9.285175E-11
        56  11 -1.256227E+06 -1.670232E+05 -3.292619E+02 -4.808947E+05 -1.013243E-09  8.675411E-10
        56  12 -1.270734E+06 -1.792575E+05 -1.599991E+04 -4.708072E+05 -1.596877E-10 -1.253575E-10
        56  13 -1.305538E+06 -1.809816E+05 -7.121538E+03 -4.867995E+05 -5.447766E-09  1.700838E-10
        56  14 -1.297530E+06 -1.829065E+05 -1.175450E+04 -4.924055E+05 -1.706811E-09  6.554782E-10
        56  15 -1.307422E+06 -1.941580E+05 -2.631851E+04 -4.818389E+05  2.392017E-09 -1.124643E-09
        56  16 -1.351453E+06 -1.978484E+05 -1.965439E+04 -4.987884E+05  2.767266E-10 -3.797046E-10
        56  17 -1.338831E+06 -1.987896E+05 -2.317990E+04 -5.039156E+05 -3.522250E-09  4.155699E-09
        56  18 -1.344110E+06 -2.090583E+05 -3.663724E+04 -4.928700E+05  7.620528E-10  8.282972E-11
        56  19 -1.259620E+06 -1.641148E+05  5.411184E+03 -4.748099E+05 -5.220711E+03 -1.388687E+03
        56  20 -1.256227E+06 -1.670232E+05 -3.289867E+02 -4.808947E+05 -1.143415E+04 -3.925567E+03
        56  21 -1.270733E+06 -1.792574E+05 -1.599924E+04 -4.708071E+05 -1.764476E+04 -6.469711E+03
        56  22 -1.305538E+06 -1.809816E+05 -7.121483E+03 -4.867995E+05 -5.239356E+03 -1.395712E+03
        56  23 -1.297530E+06 -1.829064E+05 -1.175422E+04 -4.924054E+05 -1.145321E+04 -3.932741E+03
        56  24 -1.307422E+06 -1.941578E+05 -2.631784E+04 -4.818388E+05 -1.766429E+04 -6.477035E+03
        56  25 -1.351453E+06 -1.978483E+05 -1.965433E+04 -4.987884E+05 -5.257999E+03 -1.402736E+03
        56  26 -1.338831E+06 -1.987896E+05 -2.317962E+04 -5.039155E+05 -1.147227E+04 -3.939914E+03
        56  27 -1.344109E+06 -2.090582E+05 -3.663658E+04 -4.928699E+05 -1.768381E+04 -6.484359E+03
        57   1 -1.339847E+06 -1.935967E+05 -4.038331E+04 -5.011172E+05  2.238356E+04  8.518243E+03
        57   2 -1.323429E+06 -1.771907E+05 -5.976610E+04 -5.039152E+05  5.010147E+04  1.929040E+04
        57   3 -1.367684E+06 -2.753570E+05 -1.340755E+05 -4.627322E+05  7.800791E+04  2.956151E+04
        57   4 -1.311510E+06 -1.795255E+05 -3.189592E+04 -4.899763E+05  2.244438E+04  8.541320E+03
        57   5 -1.287307E+06 -1.652054E+05 -5.016059E+04 -4.957977E+05  5.010769E+04  1.929257E+04
        57   6 -1.323764E+06 -2.654425E+05 -1.233059E+05 -4.576386E+05  7.795991E+04  2.954236E+04
        57   7 -1.283173E+06 -1.654540E+05 -2.340862E+04 -4.788349E+05  2.250521E+04  8.564398E+03
        57   8 -1.251184E+06 -1.532202E+05 -4.055519E+04 -4.876798E+05  5.011391E+04  1.929474E+04
        57   9 -1.279842E+06 -2.555280E+05 -1.125364E+05 -4.525448E+05  7.791192E+04  2.952322E+04
        57  10 -1.339847E+06 -1.935969E+05 -4.038439E+04 -5.011174E+05  9.976243E-10 -1.244160E-09
        57  11 -1.323432E+06 -1.771918E+05 -5.977153E+04 -5.039160E+05 -5.944271E-10 -1.273788E-09
        57  12 -1.367691E+06 -2.753596E+05 -1.340887E+05 -4.627340E+05 -3.968822E-10  5.789410E-10
        57  13 -1.311511E+06 -1.795257E+05 -3.189701E+04 -4.899765E+05  2.659046E-09 -1.878558E-09
        57  14 -1.287310E+06 -1.652065E+05 -5.016602E+04 -4.957985E+05  6.744033E-11 -5.800081E-10
        57  15 -1.323771E+06 -2.654450E+05 -1.233190E+05 -4.576404E+05  7.039341E-10  7.016721E-10
        57  16 -1.283173E+06 -1.654542E+05 -2.340971E+04 -4.788351E+05 -1.149544E-09 -6.902788E-10
        57  17 -1.251187E+06 -1.532213E+05 -4.056062E+04 -4.876806E+05 -7.545443E-10  1.344925E-09
        57  18 -1.279848E+06 -2.555306E+05 -1.125495E+05 -4.525466E+05  4.380298E-10  1.295559E-09
        57  19 -1.339847E+06 -1.935967E+05 -4.038331E+04 -5.011172E+05 -2.238356E+04 -8.518243E+03
        57  20 -1.323429E+06 -1.771907E+05 -5.976610E+04 -5.039152E+05 -5.010147E+04 -1.929040E+04
        57  21 -1.367684E+06 -2.753570E+05 -1.340755E+05 -4.627322E+05 -7.800791E+04 -2.956151E+04
        57  22 -1.311510E+06 -1.795255E+05 -3.189592E+04 -4.899763E+05 -2.244438E+04 -8.541320E+03
        57  23 -1.287307E+06 -1.652054E+05 -5.016059E+04 -4.957977E+05 -5.010769E+04 -1.929257E+04
        57  24 -1.323764E+06 -2.654425E+05 -1.233059E+05 -4.576386E+05 -7.795991E+04 -2.954236E+04
        57  25 -1.283173E+06 -1.654540E+05 -2.340862E+04 -4.788349E+05 -2.250521E+04 -8.564398E+03
        57  26 -1.251184E+06 -1.532202E+05 -4.055519E+04 -4.876798E+05 -5.011391E+04 -1.929474E+04
        57  27 -1.279842E+06 -2.555280E+05 -1.125364E+05 -4.525448E+05 -7.791192E+04 -2.952322E+04
        58   1 -5.354177E+05  3.556735E+04  4.648116E+04  2.966435E+03  3.171723E+04  1.516759E-01
        58   2 -5.425255E+05 -8.378425E+03  1.982455E+04  7.505752E+02  2.087660E+04  2.526057E-02
        58   3 -5.354282E+05 -1.167129E+03  1.302017E+04 -1.465297E+03  1.003578E+04 -2.370615E-02
        58   4 -5.354177E+05  3.556733E+04  4.648115E+04  3.068332E-08  3.171723E+04 -6.643795E-10
        58   5 -5.425255E+05 -8.378426E+03  1.982455E+04 -4.007426E-08  2.087660E+04 -2.003789E-10
        58   6 -5.354282E+05 -1.167133E+03  1.302017E+04  2.268294E-08  1.003578E+04  9.733687E-11
        58   7 -5.354177E+05  3.556735E+04  4.648116E+04 -2.966435E+03  3.171723E+04 -1.516759E-01
        58   8 -5.425255E+05 -8.378425E+03  1.982455E+04 -7.505752E+02  2.087660E+04 -2.526057E-02
        58   9 -5.354282E+05 -1.167129E+03  1.302017E+04  1.465297E+03  1.003578E+04  2.370615E-02
        58  10 -5.354188E+05  3.556708E+04  4.647926E+04  2.966435E+03  9.465794E-11 -1.903777E-10
        58  11 -5.425260E+05 -8.378542E+03  1.982373E+04  7.505752E+02  2.115106E-09  2.495227E-10
        58  12 -5.354283E+05 -1.167156E+03  1.301998E+04 -1.465297E+03 -2.528905E-10  4.204835E-10
        58  13 -5.354188E+05  3.556706E+04  4.647926E+04 -5.545476E-08  1.973428E-09 -3.753985E-11
        58  14 -5.425260E+05 -8.378543E+03  1.982373E+04 -5.618464E-09  8.798337E-10  6.449853E-11
        58  15 -5.354283E+05 -1.167160E+03  1.301998E+04  6.144541E-08  3.561363E-10  1.566596E-10
        58  16 -5.354188E+05  3.556708E+04  4.647926E+04 -2.966435E+03  9.046719E-10 -2.925006E-10
        58  17 -5.425260E+05 -8.378542E+03  1.982373E+04 -7.505752E+02 -9.922807E-10 -1.203131E-10
        58  18 -5.354283E+05 -1.167156E+03  1.301998E+04  1.465297E+03  1.397393E-09 -1.886500E-11
        58  19 -5.354177E+05  3.556735E+04  4.648116E+04  2.966435E+03 -3.171723E+04 -1.516759E-01
        58  20 -5.425255E+05 -8.378425E+03  1.982455E+04  7.505752E+02 -2.087660E+04 -2.526057E-02
        58  21 -5.354282E+05 -1.167129E+03  1.302017E+04 -1.465297E+03 -1.003578E+04  2.370615E-02
        58  22 -5.354177E+05  3.556733E+04  4.648115E+04 -3.769997E-09 -3.171723E+04  6.159411E-10
        58  23 -5.425255E+05 -8.378426E+03  1.982455E+04 -4.007334E-08 -2.087660E+04  1.882813E-10
        58  24 -5.354282E+05 -1.167133E+03  1.302017E+04  1.411222E-07 -1.003578E+04  2.064849E-10
        58  25 -5.354177E+05  3.556735E+04  4.648116E+04 -2.966435E+03 -3.171723E+04  1.516759E-01
        58  26 -5.425255E+05 -8.378425E+03  1.982455E+04 -7.505752E+02 -2.087660E+04  2.526057E-02
        58  27 -5.354282E+05 -1.167129E+03  1.302017E+04  1.465297E+03 -1.003578E+04 -2.370615E-02
        59   1 -5.380686E+05  5.453387E+03  1.077121E+04  4.345535E+02  7.879742E+03  5.520032E-03
        59   2 -5.392256E+05 -1.285950E+03  5.102436E+03  1.025444E+02  5.198841E+03  8.594175E-04
        59   3 -5.380706E+05 -1.767387E+02  3.142354E+03 -2.294646E+02  2.517943E+03 -9.314232E-04
        59   4 -5.380686E+05  5.453387E+03  1.077121E+04 -5.271701E-08  7.879742E+03  9.789278E-11
        59   5 -5.392256E+05 -1.285950E+03  5.102436E+03 -8.769084E-08  5.198841E+03 -1.163592E-10
        59   6 -5.380706E+05 -1.767388E+02  3.142354E+03  2.377199E-08  2.517943E+03  4.089768E-10
        59   7 -5.380686E+05  5.453387E+03  1.077121E+04 -4.345535E+02  7.879742E+03 -5.520032E-03
        59   8 -5.392256E+05 -1.285950E+03  5.102436E+03 -1.025444E+02  5.198841E+03 -8.594191E-04
        59   9 -5.380706E+05 -1.767387E+02  3.142354E+03  2.294646E+02  2.517943E+03  9.314245E-04
        59  10 -5.380687E+05  5.453371E+03  1.077110E+04  4.345535E+02 -1.993230E-09  4.324909E-10
        59  11 -5.392256E+05 -1.285957E+03  5.102385E+03  1.025444E+02 -2.874827E-09 -2.277938E-10
        59  12 -5.380706E+05 -1.767404E+02  3.142342E+03 -2.294646E+02 -1.706778E-09  5.954948E-11
        59  13 -5.380687E+05  5.453370E+03  1.077110E+04 -8.717554E-08 -1.297157E-09  1.324633E-10
        59  14 -5.392256E+05 -1.285957E+03  5.102385E+03 -1.878099E-08 -2.927672E-10 -1.379247E-10
        59  15 -5.380706E+05 -1.767405E+02  3.142342E+03 -8.390167E-08 -1.512479E-09 -7.151936E-11
        59  16 -5.380687E+05  5.453371E+03  1.077110E+04 -4.345535E+02  4.967233E-10  3.432046E-11
        59  17 -5.392256E+05 -1.285957E+03  5.102385E+03 -1.025444E+02  2.582059E-09  8.651125E-11
        59  18 -5.380706E+05 -1.767404E+02  3.142342E+03  2.294646E+02 -1.218087E-09 -5.095058E-11
        59  19 -5.380686E+05  5.453387E+03  1.077121E+04  4.345535E+02 -7.879742E+03 -5.520032E-03
        59  20 -5.392256E+05 -1.285950E+03  5.102436E+03  1.025444E+02 -5.198841E+03 -8.594185E-04
        59  21 -5.380706E+05 -1.767387E+02  3.142354E+03 -2.294646E+02 -2.517943E+03  9.314230E-04
        59  22 -5.380686E+05  5.453387E+03  1.077121E+04  8.510121E-08 -7.879742E+03  1.603485E-10
        59  23 -5.392256E+05 -1.285950E+03  5.102436E+03 -3.600872E-08 -5.198841E+03 -2.165404E-10
        59  24 -5.380706E+05 -1.767388E+02  3.142354E+03 -8.528017E-09 -2.517943E+03 -5.481887E-10
        59  25 -5.380686E+05  5.453387E+03  1.077121E+04 -4.345535E+02 -7.879742E+03  5.520032E-03
        59  26 -5.392256E+05 -1.285950E+03  5.102436E+03 -1.025444E+02 -5.198841E+03  8.594188E-04
        59  27 -5.380706E+05 -1.767387E+02  3.142354E+03  2.294646E+02 -2.517943E+03 -9.314251E-04
        60   1 -5.385011E+05  8.320428E+02  2.489210E+03  6.032454E+01  2.007728E+03  1.952475E-04
        60   2 -5.386878E+05 -1.926800E+02  1.181290E+03  1.221400E+01  1.400257E+03  2.757046E-05
        60   3 -5.385015E+05 -4.206662E+01  5.629420E+02 -3.589584E+01  7.927955E+02 -4.587667E-05
        60   4 -5.385011E+05  8.320428E+02  2.489210E+03  2.325315E-08  2.007728E+03  2.449046E-10
        60   5 -5.386878E+05 -1.926800E+02  1.181290E+03  5.211991E-08  1.400257E+03 -3.100269E-10
        60   6 -5.385015E+05 -4.206663E+01  5.629420E+02  3.360865E-08  7.927955E+02 -2.658930E-11
        60   7 -5.385011E+05  8.320428E+02  2.489210E+03 -6.032454E+01  2.007728E+03 -1.952469E-04
        60   8 -5.386878E+05 -1.926800E+02  1.181290E+03 -1.221400E+01  1.400257E+03 -2.757150E-05
        60   9 -5.385015E+05 -4.206662E+01  5.629420E+02  3.589584E+01  7.927955E+02  4.587611E-05
        60  10 -5.385011E+05  8.320417E+02  2.489202E+03  6.032454E+01  1.727822E-09 -4.527296E-11
        60  11 -5.386878E+05 -1.926806E+02  1.181286E+03  1.221400E+01  8.630136E-10  1.826893E-10
        60  12 -5.385015E+05 -4.206679E+01  5.629408E+02 -3.589584E+01 -1.380171E-09 -3.938606E-11
        60  13 -5.385011E+05  8.320417E+02  2.489202E+03 -1.317966E-07 -8.987827E-10 -7.345185E-11
        60  14 -5.386878E+05 -1.926806E+02  1.181286E+03 -5.124586E-08 -2.153483E-09 -1.322435E-10
        60  15 -5.385015E+05 -4.206680E+01  5.629408E+02  7.668011E-08  1.870073E-09  2.192929E-10
        60  16 -5.385011E+05  8.320417E+02  2.489202E+03 -6.032454E+01 -4.152739E-09 -1.349656E-10
        60  17 -5.386878E+05 -1.926806E+02  1.181286E+03 -1.221400E+01 -1.035437E-09 -1.245639E-10
        60  18 -5.385015E+05 -4.206679E+01  5.629408E+02  3.589584E+01  1.020882E-09  1.004206E-10
        60  19 -5.385011E+05  8.320428E+02  2.489210E+03  6.032454E+01 -2.007728E+03 -1.952465E-04
        60  20 -5.386878E+05 -1.926800E+02  1.181290E+03  1.221400E+01 -1.400257E+03 -2.757010E-05
        60  21 -5.385015E+05 -4.206662E+01  5.629420E+02 -3.589584E+01 -7.927955E+02  4.587734E-05
        60  22 -5.385011E+05  8.320428E+02  2.489210E+03 -1.145681E-07 -2.007728E+03 -4.596473E-10
        60  23 -5.386878E+05 -1.926800E+02  1.181290E+03 -5.124560E-08 -1.400257E+03 -6.084822E-11
        60  24 -5.385015E+05 -4.206663E+01  5.629420E+02  1.003706E-07 -7.927955E+02  4.383553E-10
        60  25 -5.385011E+05  8.320428E+02  2.489210E+03 -6.032454E+01 -2.007728E+03  1.952465E-04
        60  26 -5.386878E+05 -1.926800E+02  1.181290E+03 -1.221400E+01 -1.400257E+03  2.757039E-05
        60  27 -5.385015E+05 -4.206662E+01  5.629420E+02  3.589584E+01 -7.927955E+02 -4.587673E-05
        61   1 -5.385859E+05  1.285645E+02  3.245829E+02  2.307953E+00  7.123877E+02  2.650573E-06
        61   2 -5.385824E+05 -2.579020E+00 -1.730878E+02  9.221622E-01  7.975229E+02  1.185312E-06
        61   3 -5.385861E+05 -1.176953E+02 -7.222102E+02 -4.636500E-01  8.826594E+02 -6.591284E-07
        61   4 -5.385859E+05  1.285645E+02  3.245829E+02  3.913336E-08  7.123877E+02  5.910989E-11
        61   5 -5.385824E+05 -2.579020E+00 -1.730878E+02  2.456683E-08  7.975229E+02 -2.954373E-11
        61   6 -5.385861E+05 -1.176953E+02 -7.222102E+02  1.000194E-08  8.826594E+02  3.405560E-10
        61   7 -5.385859E+05  1.285645E+02  3.245829E+02 -2.307953E+00  7.123877E+02 -2.650415E-06
        61   8 -5.385824E+05 -2.579020E+00 -1.730878E+02 -9.221621E-01  7.975229E+02 -1.185740E-06
        61   9 -5.385861E+05 -1.176953E+02 -7.222102E+02  4.636501E-01  8.826594E+02  6.599267E-07
        61  10 -5.385859E+05  1.285643E+02  3.245820E+02  2.307953E+00  4.165040E-11  3.483626E-10
        61  11 -5.385824E+05 -2.579191E+00 -1.730890E+02  9.221617E-01  9.678646E-10 -2.500111E-11
        61  12 -5.385861E+05 -1.176956E+02 -7.222117E+02 -4.636504E-01 -1.070843E-09  1.953566E-10
        61  13 -5.385859E+05  1.285643E+02  3.245820E+02 -1.255367E-08 -2.153481E-09  2.640745E-10
        61  14 -5.385824E+05 -2.579191E+00 -1.730890E+02  7.338319E-09  3.327549E-09 -1.167674E-12
        61  15 -5.385861E+05 -1.176956E+02 -7.222117E+02  1.004489E-07 -7.489493E-10  5.614054E-11
        61  16 -5.385859E+05  1.285643E+02  3.245820E+02 -2.307953E+00 -6.920659E-10  5.163555E-10
        61  17 -5.385824E+05 -2.579191E+00 -1.730890E+02 -9.221616E-01 -1.042394E-09 -5.509624E-11
        61  18 -5.385861E+05 -1.176956E+02 -7.222117E+02  4.636503E-01  1.007594E-09  1.440450E-10
        61  19 -5.385859E+05  1.285645E+02  3.245829E+02  2.307953E+00 -7.123877E+02 -2.650112E-06
        61  20 -5.385824E+05 -2.579020E+00 -1.730878E+02  9.221620E-01 -7.975229E+02 -1.184768E-06
        61  21 -5.385861E+05 -1.176953E+02 -7.222102E+02 -4.636502E-01 -8.826594E+02  6.599522E-07
        61  22 -5.385859E+05  1.285645E+02  3.245829E+02  7.358366E-08 -7.123877E+02  4.876757E-10
        61  23 -5.385824E+05 -2.579020E+00 -1.730878E+02 -6.157341E-08 -7.975229E+02 -2.944220E-11
        61  24 -5.385861E+05 -1.176953E+02 -7.222102E+02  1.133717E-07 -8.826594E+02 -2.168865E-10
        61  25 -5.385859E+05  1.285645E+02  3.245829E+02 -2.307953E+00 -7.123877E+02  2.650674E-06
        61  26 -5.385824E+05 -2.579020E+00 -1.730878E+02 -9.221623E-01 -7.975229E+02  1.184574E-06
        61  27 -5.385861E+05 -1.176953E+02 -7.222102E+02  4.636501E-01 -8.826594E+02 -6.608323E-07
        62   1 -5.386727E+05  4.049968E+01 -1.034643E+03 -3.423663E+01  1.041784E+03 -5.749801E-05
        62   2 -5.384745E+05  1.773752E+02 -1.922987E+03  6.769112E+00  2.013547E+03  2.197207E-05
        62   3 -5.386732E+05 -7.664034E+02 -3.714560E+03  4.777488E+01  2.985308E+03  2.299192E-04
        62   4 -5.386727E+05  4.049968E+01 -1.034643E+03 -5.830175E-08  1.041784E+03  4.858090E-10
        62   5 -5.384745E+05  1.773752E+02 -1.922987E+03 -3.709543E-08  2.013547E+03  9.446283E-11
        62   6 -5.386732E+05 -7.664034E+02 -3.714560E+03  2.717950E-08  2.985308E+03  1.630259E-11
        62   7 -5.386727E+05  4.049968E+01 -1.034643E+03  3.423663E+01  1.041784E+03  5.749863E-05
        62   8 -5.384745E+05  1.773752E+02 -1.922987E+03 -6.769112E+00  2.013547E+03 -2.197210E-05
        62   9 -5.386732E+05 -7.664034E+02 -3.714560E+03 -4.777488E+01  2.985308E+03 -2.299189E-04
        62  10 -5.386727E+05  4.049939E+01 -1.034645E+03 -3.423663E+01 -1.920930E-09 -3.572565E-11
        62  11 -5.384745E+05  1.773741E+02 -1.922995E+03  6.769112E+00  4.836363E-10  1.649979E-10
        62  12 -5.386732E+05 -7.664058E+02 -3.714577E+03  4.777488E+01  7.386484E-11  7.224951E-11
        62  13 -5.386727E+05  4.049939E+01 -1.034645E+03 -4.107613E-08  7.129637E-10  1.125137E-10
        62  14 -5.384745E+05  1.773741E+02 -1.922995E+03 -4.570910E-08  1.756061E-09  1.168482E-10
        62  15 -5.386732E+05 -7.664058E+02 -3.714577E+03 -8.910443E-08  5.832020E-10  2.070844E-10
        62  16 -5.386727E+05  4.049939E+01 -1.034645E+03  3.423663E+01  2.464146E-10  1.937795E-10
        62  17 -5.384745E+05  1.773741E+02 -1.922995E+03 -6.769112E+00 -2.465181E-09 -1.077421E-10
        62  18 -5.386732E+05 -7.664058E+02 -3.714577E+03 -4.777488E+01  4.980200E-11  2.896263E-10
        62  19 -5.386727E+05  4.049968E+01 -1.034643E+03 -3.423663E+01 -1.041784E+03  5.749776E-05
        62  20 -5.384745E+05  1.773752E+02 -1.922987E+03  6.769112E+00 -2.013547E+03 -2.197151E-05
        62  21 -5.386732E+05 -7.664034E+02 -3.714560E+03  4.777488E+01 -2.985308E+03 -2.299185E-04
        62  22 -5.386727E+05  4.049968E+01 -1.034643E+03  1.139718E-07 -1.041784E+03 -2.760706E-10
        62  23 -5.384745E+05  1.773752E+02 -1.922987E+03 -1.125311E-08 -2.013547E+03  6.631257E-11
        62  24 -5.386732E+05 -7.664034E+02 -3.714560E+03  8.748490E-08 -2.985308E+03  4.304809E-10
        62  25 -5.386727E+05  4.049968E+01 -1.034643E+03  3.423663E+01 -1.041784E+03 -5.749926E-05
        62  26 -5.384745E+05  1.773752E+02 -1.922987E+03 -6.769112E+00 -2.013547E+03  2.197207E-05
        62  27 -5.386732E+05 -7.664034E+02 -3.714560E+03 -4.777488E+01 -2.985308E+03  2.299190E-04
        63   1 -5.391083E+05  1.579783E+02 -4.761040E+03 -2.202084E+02  3.753044E+03 -1.332305E-03
        63   2 -5.379312E+05  1.197342E+03 -7.937131E+03  7.640552E+01  7.822548E+03  9.635154E-04
        63   3 -5.391106E+05 -5.065939E+03 -1.558995E+04  3.730155E+02  1.189198E+04  7.150999E-03
        63   4 -5.391083E+05  1.579782E+02 -4.761040E+03  1.777547E-08  3.753044E+03  3.063713E-10
        63   5 -5.379312E+05  1.197342E+03 -7.937131E+03 -4.944286E-08  7.822548E+03  5.907169E-10
        63   6 -5.391106E+05 -5.065939E+03 -1.558995E+04 -1.360424E-07  1.189198E+04 -5.060581E-10
        63   7 -5.391083E+05  1.579783E+02 -4.761040E+03  2.202084E+02  3.753044E+03  1.332305E-03
        63   8 -5.379312E+05  1.197342E+03 -7.937131E+03 -7.640552E+01  7.822548E+03 -9.635154E-04
        63   9 -5.391106E+05 -5.065939E+03 -1.558995E+04 -3.730155E+02  1.189198E+04 -7.151001E-03
        63  10 -5.391083E+05  1.579745E+02 -4.761066E+03 -2.202084E+02 -1.185223E-09  1.361738E-10
        63  11 -5.379313E+05  1.197326E+03 -7.937246E+03  7.640552E+01 -2.900495E-10 -1.336448E-10
        63  12 -5.391107E+05 -5.065977E+03 -1.559021E+04  3.730155E+02 -2.718563E-09 -2.817191E-10
        63  13 -5.391083E+05  1.579744E+02 -4.761066E+03 -5.113585E-08  3.230208E-09  2.059831E-10
        63  14 -5.379313E+05  1.197326E+03 -7.937246E+03  2.808234E-08 -8.911991E-10 -2.886784E-11
        63  15 -5.391107E+05 -5.065977E+03 -1.559021E+04 -6.928514E-08 -1.248940E-09 -2.822966E-10
        63  16 -5.391083E+05  1.579745E+02 -4.761066E+03  2.202084E+02  1.252761E-09  2.419492E-10
        63  17 -5.379313E+05  1.197326E+03 -7.937246E+03 -7.640552E+01  1.145271E-09 -1.322132E-10
        63  18 -5.391107E+05 -5.065977E+03 -1.559021E+04 -3.730155E+02  1.128474E-09 -4.944099E-10
        63  19 -5.391083E+05  1.579783E+02 -4.761040E+03 -2.202084E+02 -3.753044E+03  1.332306E-03
        63  20 -5.379312E+05  1.197342E+03 -7.937131E+03  7.640552E+01 -7.822548E+03 -9.635142E-04
        63  21 -5.391106E+05 -5.065939E+03 -1.558995E+04  3.730155E+02 -1.189198E+04 -7.151000E-03
        63  22 -5.391083E+05  1.579782E+02 -4.761040E+03  1.039138E-07 -3.753044E+03  1.714522E-10
        63  23 -5.379312E+05  1.197342E+03 -7.937131E+03  7.115051E-08 -7.822548E+03 -6.048568E-10
        63  24 -5.391106E+05 -5.065939E+03 -1.558995E+04  5.776859E-08 -1.189198E+04  2.010188E-10
        63  25 -5.391083E+05  1.579783E+02 -4.761040E+03  2.202084E+02 -3.753044E+03 -1.332305E-03
        63  26 -5.379312E+05  1.197342E+03 -7.937131E+03 -7.640552E+01 -7.822548E+03  9.635129E-04
        63  27 -5.391106E+05 -5.065939E+03 -1.558995E+04 -3.730155E+02 -1.189198E+04  7.151000E-03
        64   1 -5.417175E+05  1.062972E+03 -1.946527E+04 -1.397027E+03  1.506802E+04 -3.393507E-02
        64   2 -5.346741E+05  7.835846E+03 -3.125722E+04  6.253776E+02  3.148707E+04  3.174370E-02
        64   3 -5.417282E+05 -3.321515E+04 -6.570005E+04  2.647808E+03  4.790626E+04  2.044863E-01
        64   4 -5.417175E+05  1.062968E+03 -1.946527E+04 -3.688608E-08  1.506802E+04 -3.203424E-10
        64   5 -5.346741E+05  7.835845E+03 -3.125722E+04  6.788485E-08  3.148707E+04  9.534520E-10
        64   6 -5.417282E+05 -3.321516E+04 -6.570005E+04  5.205594E-08  4.790626E+04 -1.603026E-09
        64   7 -5.417175E+05  1.062972E+03 -1.946527E+04  1.397027E+03  1.506802E+04  3.393507E-02
        64   8 -5.346741E+05  7.835846E+03 -3.125722E+04 -6.253776E+02  3.148707E+04 -3.174370E-02
        64   9 -5.417282E+05 -3.321515E+04 -6.570005E+04 -2.647808E+03  4.790626E+04 -2.044863E-01
        64  10 -5.417178E+05  1.062911E+03 -1.946569E+04 -1.397027E+03 -1.160235E-09 -4.413524E-10
        64  11 -5.346751E+05  7.835580E+03 -3.125909E+04  6.253776E+02 -2.316364E-09 -4.770386E-10
        64  12 -5.417307E+05 -3.321576E+04 -6.570437E+04  2.647808E+03  2.931451E-09 -1.866188E-10
        64  13 -5.417178E+05  1.062907E+03 -1.946569E+04 -8.857106E-08  2.157649E-09 -4.614741E-10
        64  14 -5.346751E+05  7.835579E+03 -3.125909E+04  7.586849E-09  1.072507E-09 -4.676645E-10
        64  15 -5.417307E+05 -3.321578E+04 -6.570437E+04 -2.546676E-08  8.421268E-10 -1.214758E-10
        64  16 -5.417178E+05  1.062911E+03 -1.946569E+04  1.397027E+03  2.132768E-09 -6.494530E-10
        64  17 -5.346751E+05  7.835580E+03 -3.125909E+04 -6.253775E+02  1.034144E-09 -4.588673E-10
        64  18 -5.417307E+05 -3.321576E+04 -6.570437E+04 -2.647808E+03 -2.010889E-09 -3.933384E-11
        64  19 -5.417175E+05  1.062972E+03 -1.946527E+04 -1.397027E+03 -1.506802E+04  3.393506E-02
        64  20 -5.346741E+05  7.835846E+03 -3.125722E+04  6.253776E+02 -3.148707E+04 -3.174369E-02
        64  21 -5.417282E+05 -3.321515E+04 -6.570005E+04  2.647808E+03 -4.790626E+04 -2.044863E-01
        64  22 -5.417175E+05  1.062968E+03 -1.946527E+04  3.202432E-08 -1.506802E+04 -6.363934E-10
        64  23 -5.346741E+05  7.835845E+03 -3.125722E+04  5.065819E-08 -3.148707E+04 -1.884650E-09
        64  24 -5.417282E+05 -3.321516E+04 -6.570005E+04 -1.900356E-08 -4.790626E+04  1.385935E-09
        64  25 -5.417175E+05  1.062972E+03 -1.946527E+04  1.397027E+03 -1.506802E+04 -3.393507E-02
        64  26 -5.346741E+05  7.835846E+03 -3.125722E+04 -6.253776E+02 -3.148707E+04  3.174369E-02
        64  27 -5.417282E+05 -3.321515E+04 -6.570005E+04 -2.647808E+03 -4.790626E+04  2.044863E-01
        65   1 -5.578053E+05  7.108071E+03 -7.936522E+04 -8.924438E+03  6.104986E+04 -8.783397E-01
        65   2 -5.145713E+05  5.103333E+04 -1.207372E+05  4.572573E+03  1.271003E+05  9.368614E-01
        65   3 -5.578531E+05 -2.166318E+05 -2.830190E+05  1.806881E+04  1.931522E+05  5.626180E+00
        65   4 -5.578054E+05  7.107921E+03 -7.936525E+04  4.057362E-08  6.104986E+04  1.471941E-10
        65   5 -5.145713E+05  5.103329E+04 -1.207372E+05 -5.947939E-08  1.271003E+05  5.680796E-09
        65   6 -5.578535E+05 -2.166324E+05 -2.830191E+05  1.984645E-09  1.931522E+05 -3.579968E-09
        65   7 -5.578053E+05  7.108071E+03 -7.936522E+04  8.924438E+03  6.104986E+04  8.783397E-01
        65   8 -5.145713E+05  5.103333E+04 -1.207372E+05 -4.572573E+03  1.271003E+05 -9.368614E-01
        65   9 -5.578531E+05 -2.166318E+05 -2.830190E+05 -1.806881E+04  1.931522E+05 -5.626180E+00
        65  10 -5.578093E+05  7.107069E+03 -7.937224E+04 -8.924438E+03  1.194300E-09 -3.691630E-10
        65  11 -5.145886E+05  5.102898E+04 -1.207676E+05  4.572573E+03  7.664722E-10 -9.141210E-10
        65  12 -5.578932E+05 -2.166418E+05 -2.830892E+05  1.806880E+04 -1.542395E-09 -1.196121E-10
        65  13 -5.578094E+05  7.106919E+03 -7.937226E+04 -2.834405E-08  2.691921E-09 -2.573957E-10
        65  14 -5.145887E+05  5.102894E+04 -1.207676E+05 -1.283983E-07 -3.768454E-09 -6.998391E-10
        65  15 -5.578936E+05 -2.166425E+05 -2.830893E+05 -9.491168E-08 -8.773835E-10 -2.946610E-10
        65  16 -5.578093E+05  7.107069E+03 -7.937224E+04  8.924438E+03 -1.278459E-09 -1.838921E-10
        65  17 -5.145886E+05  5.102898E+04 -1.207676E+05 -4.572573E+03 -4.111922E-10 -7.517681E-10
        65  18 -5.578932E+05 -2.166418E+05 -2.830892E+05 -1.806880E+04 -1.378700E-09 -1.173683E-11
        65  19 -5.578053E+05  7.108071E+03 -7.936522E+04 -8.924438E+03 -6.104986E+04  8.783397E-01
        65  20 -5.145713E+05  5.103333E+04 -1.207372E+05  4.572573E+03 -1.271003E+05 -9.368614E-01
        65  21 -5.578531E+05 -2.166318E+05 -2.830190E+05  1.806881E+04 -1.931522E+05 -5.626180E+00
        65  22 -5.578054E+05  7.107921E+03 -7.936525E+04 -6.280325E-08 -6.104986E+04 -5.997096E-10
        65  23 -5.145713E+05  5.103329E+04 -1.207372E+05 -5.947957E-08 -1.271003E+05 -7.145297E-09
        65  24 -5.578535E+05 -2.166324E+05 -2.830191E+05 -3.246142E-08 -1.931522E+05  3.082768E-10
        65  25 -5.578053E+05  7.108071E+03 -7.936522E+04  8.924438E+03 -6.104986E+04 -8.783397E-01
        65  26 -5.145713E+05  5.103333E+04 -1.207372E+05 -4.572573E+03 -1.271003E+05  9.368614E-01
        65  27 -5.578531E+05 -2.166318E+05 -2.830190E+05 -1.806881E+04 -1.931522E+05  5.626180E+00
        66   1  5.619841E+04 -3.842449E+05  7.650998E+04  1.456466E+03 -1.193736E+02  5.421837E+04
        66   2 -2.100493E+04 -3.911533E+05  3.220670E+04 -4.159535E+03 -2.433329E+02  3.367568E+04
        66   3 -4.197881E+03 -3.718715E+05  2.478993E+04  9.592414E+03  7.885932E+01  1.313229E+04
        66   4  6.335668E+04 -3.556168E+05  8.366035E+04  6.837619E+03 -1.189017E+02  5.426153E+04
        66   5 -1.539843E+04 -3.687225E+05  3.779750E+04 -2.845471E+03 -2.432620E+02  3.366444E+04
        66   6 -1.356830E+02 -3.556301E+05  2.885770E+04  6.839317E+03  7.879135E+01  1.306685E+04
        66   7  7.051498E+04 -3.269879E+05  9.081067E+04  1.221902E+04 -1.184290E+02  5.430470E+04
        66   8 -9.791954E+03 -3.462914E+05  4.338826E+04 -1.531359E+03 -2.431911E+02  3.365320E+04
        66   9  3.926524E+03 -3.393884E+05  3.292545E+04  4.086147E+03  7.872397E+01  1.300140E+04
        66  10  5.619762E+04 -3.842481E+05  7.650446E+04  1.456471E+03 -1.455860E-11  2.752558E-10
        66  11 -2.100524E+04 -3.911545E+05  3.220457E+04 -4.159529E+03  1.838090E-09  1.753056E-10
        66  12 -4.197928E+03 -3.718717E+05  2.478961E+04  9.592413E+03  1.834860E-09  8.238863E-11
        66  13  6.335588E+04 -3.556200E+05  8.365481E+04  6.837624E+03 -6.424250E-10  7.174429E-12
        66  14 -1.539873E+04 -3.687238E+05  3.779537E+04 -2.845465E+03 -8.764693E-10 -1.121771E-13
        66  15 -1.357289E+02 -3.556302E+05  2.885738E+04  6.839316E+03  3.832333E-09  3.663106E-10
        66  16  7.051419E+04 -3.269911E+05  9.080512E+04  1.221903E+04 -4.030594E-11 -2.478738E-10
        66  17 -9.792258E+03 -3.462926E+05  4.338613E+04 -1.531353E+03  9.699358E-10 -1.193981E-10
        66  18  3.926478E+03 -3.393886E+05  3.292514E+04  4.086147E+03 -6.540509E-11  6.463094E-12
        66  19  5.619841E+04 -3.842449E+05  7.650998E+04  1.456466E+03  1.193736E+02 -5.421837E+04
        66  20 -2.100493E+04 -3.911533E+05  3.220670E+04 -4.159535E+03  2.433329E+02 -3.367568E+04
        66  21 -4.197881E+03 -3.718715E+05  2.478993E+04  9.592414E+03 -7.885932E+01 -1.313229E+04
        66  22  6.335668E+04 -3.556168E+05  8.366035E+04  6.837619E+03  1.189017E+02 -5.426153E+04
        66  23 -1.539843E+04 -3.687225E+05  3.779750E+04 -2.845471E+03  2.432620E+02 -3.366444E+04
        66  24 -1.356830E+02 -3.556301E+05  2.885770E+04  6.839317E+03 -7.879135E+01 -1.306685E+04
        66  25  7.051498E+04 -3.269879E+05  9.081067E+04  1.221902E+04  1.184290E+02 -5.430470E+04
        66  26 -9.791954E+03 -3.462914E+05  4.338826E+04 -1.531359E+03  2.431911E+02 -3.365320E+04
        66  27  3.926524E+03 -3.393884E+05  3.292545E+04  4.086147E+03 -7.872397E+01 -1.300140E+04
        67   1  2.691123E+04 -2.889471E+05  4.399111E+04  5.422676E+03  3.645009E+02  8.097844E+03
        67   2  1.378435E+04 -2.877364E+05  3.999302E+04 -2.660694E+03  6.237339E+02 -2.930933E+03
        67   3  3.307078E+04 -2.768654E+05  5.130524E+04  8.145711E+03  7.113510E+02 -1.395976E+04
        67   4  9.321596E+03 -3.593049E+05  2.642405E+04  6.730453E+03  3.645161E+02  8.055680E+03
        67   5 -5.311731E+03 -3.641323E+05  2.093609E+04 -2.712307E+03  6.237409E+02 -2.951373E+03
        67   6  1.246661E+04 -3.593020E+05  3.074464E+04  6.734840E+03  7.113886E+02 -1.395837E+04
        67   7 -8.268404E+03 -4.296583E+05  8.856621E+03  8.038082E+03  3.645312E+02  8.013520E+03
        67   8 -2.440825E+04 -4.405229E+05  1.878729E+03 -2.763913E+03  6.237479E+02 -2.971810E+03
        67   9 -8.138076E+03 -4.417325E+05  1.018354E+04  5.324157E+03  7.114263E+02 -1.395697E+04
        67  10  2.691121E+04 -2.889471E+05  4.399099E+04  5.422674E+03 -6.687744E-10  3.424702E-10
        67  11  1.378435E+04 -2.877364E+05  3.999300E+04 -2.660693E+03 -3.388860E-09 -8.698614E-11
        67  12  3.307073E+04 -2.768656E+05  5.130487E+04  8.145719E+03 -1.739538E-10 -6.701264E-10
        67  13  9.321579E+03 -3.593050E+05  2.642393E+04  6.730451E+03 -7.878217E-10  6.742168E-11
        67  14 -5.311734E+03 -3.641323E+05  2.093608E+04 -2.712306E+03 -3.602538E-09  2.081139E-11
        67  15  1.246655E+04 -3.593022E+05  3.074427E+04  6.734848E+03 -4.126999E-09 -8.299232E-10
        67  16 -8.268421E+03 -4.296584E+05  8.856500E+03  8.038080E+03 -5.495365E-10 -2.794252E-10
        67  17 -2.440826E+04 -4.405229E+05  1.878712E+03 -2.763912E+03  1.060284E-09  4.174612E-11
        67  18 -8.138129E+03 -4.417327E+05  1.018317E+04  5.324165E+03 -3.370406E-09  5.010555E-10
        67  19  2.691123E+04 -2.889471E+05  4.399111E+04  5.422676E+03 -3.645009E+02 -8.097844E+03
        67  20  1.378435E+04 -2.877364E+05  3.999302E+04 -2.660694E+03 -6.237339E+02  2.930933E+03
        67  21  3.307078E+04 -2.768654E+05  5.130524E+04  8.145711E+03 -7.113510E+02  1.395976E+04
        67  22  9.321596E+03 -3.593049E+05  2.642405E+04  6.730453E+03 -3.645161E+02 -8.055680E+03
        67  23 -5.311731E+03 -3.641323E+05  2.093609E+04 -2.712307E+03 -6.237409E+02  2.951373E+03
        67  24  1.246661E+04 -3.593020E+05  3.074464E+04  6.734840E+03 -7.113886E+02  1.395837E+04
        67  25 -8.268404E+03 -4.296583E+05  8.856621E+03  8.038082E+03 -3.645312E+02 -8.013520E+03
        67  26 -2.440825E+04 -4.405229E+05  1.878729E+03 -2.763913E+03 -6.237479E+02  2.971810E+03
        67  27 -8.138076E+03 -4.417325E+05  1.018354E+04  5.324157E+03 -7.114263E+02  1.395697E+04
        68   1  3.950470E+04 -1.907729E+05  7.554092E+04  2.648023E+03  1.105054E+03 -1.977285E+04
        68   2  2.204163E+04 -2.027061E+05  9.033366E+04 -4.984307E+02  1.579883E+03 -4.634706E+04
        68   3  1.268666E+05 -1.800087E+05  1.531244E+05  1.322137E+04  6.491061E+02 -7.292235E+04
        68   4 -1.243006E+03 -3.537677E+05  3.486561E+04  6.249992E+03  1.105021E+03 -1.990897E+04
        68   5 -2.003279E+04 -3.710615E+05  4.835358E+04 -2.128505E+03  1.580005E+03 -4.630831E+04
        68   6  8.345259E+04 -3.537460E+05  1.097274E+05  6.359456E+03  6.496623E+02 -7.270850E+04
        68   7 -4.199267E+04 -5.167384E+05 -5.811687E+03  9.851017E+03  1.104988E+03 -2.004506E+04
        68   8 -6.210932E+04 -5.393911E+05  6.371368E+03 -3.758132E+03  1.580126E+03 -4.626957E+04
        68   9  4.003651E+04 -5.274558E+05  6.632810E+04 -5.005304E+02  6.502139E+02 -7.249470E+04
        68  10  3.950459E+04 -1.907733E+05  7.554018E+04  2.648041E+03 -6.730971E-10 -4.787206E-10
        68  11  2.204105E+04 -2.027084E+05  9.032962E+04 -4.983717E+02  5.332106E-10  1.737221E-10
        68  12  1.268651E+05 -1.800144E+05  1.531144E+05  1.322141E+04 -2.285975E-09 -6.919489E-11
        68  13 -1.243113E+03 -3.537681E+05  3.486486E+04  6.250009E+03 -2.526262E-09 -4.691873E-10
        68  14 -2.003336E+04 -3.710638E+05  4.834954E+04 -2.128446E+03 -2.538322E-09 -1.811572E-11
        68  15  8.345117E+04 -3.537517E+05  1.097174E+05  6.359494E+03 -1.181889E-09 -3.746407E-09
        68  16 -4.199278E+04 -5.167388E+05 -5.812445E+03  9.851035E+03 -5.597698E-09  2.630430E-10
        68  17 -6.210990E+04 -5.393934E+05  6.367337E+03 -3.758073E+03 -2.283152E-09 -6.253097E-10
        68  18  4.003510E+04 -5.274614E+05  6.631822E+04 -5.004924E+02  7.834980E-10 -5.946411E-10
        68  19  3.950470E+04 -1.907729E+05  7.554092E+04  2.648023E+03 -1.105054E+03  1.977285E+04
        68  20  2.204163E+04 -2.027061E+05  9.033366E+04 -4.984307E+02 -1.579883E+03  4.634706E+04
        68  21  1.268666E+05 -1.800087E+05  1.531244E+05  1.322137E+04 -6.491061E+02  7.292235E+04
        68  22 -1.243006E+03 -3.537677E+05  3.486561E+04  6.249992E+03 -1.105021E+03  1.990897E+04
        68  23 -2.003279E+04 -3.710615E+05  4.835358E+04 -2.128505E+03 -1.580005E+03  4.630831E+04
        68  24  8.345259E+04 -3.537460E+05  1.097274E+05  6.359456E+03 -6.496623E+02  7.270850E+04
        68  25 -4.199267E+04 -5.167384E+05 -5.811687E+03  9.851017E+03 -1.104988E+03  2.004506E+04
        68  26 -6.210932E+04 -5.393911E+05  6.371368E+03 -3.758132E+03 -1.580126E+03  4.626957E+04
        68  27  4.003651E+04 -5.274558E+05  6.632810E+04 -5.005304E+02 -6.502139E+02  7.249470E+04
        69   1 -7.456038E+05 -1.196364E+05 -1.876914E+04 -2.753431E+05 -8.353933E+03 -3.052687E+03
        69   2 -7.428136E+05 -1.069019E+05 -1.078520E+04 -2.771479E+05 -5.419273E+03 -1.815730E+03
        69   3 -7.436530E+05 -1.091714E+05 -8.653954E+03 -2.774943E+05 -2.413960E+03 -7.670603E+02
        69   4 -7.255979E+05 -1.113714E+05 -1.311633E+04 -2.691760E+05 -8.330130E+03 -3.043773E+03
        69   5 -7.231403E+05 -9.929779E+04 -5.340813E+03 -2.716195E+05 -5.416515E+03 -1.814699E+03
        69   6 -7.243079E+05 -1.022237E+05 -3.401150E+03 -2.726046E+05 -2.432247E+03 -7.739139E+02
        69   7 -7.055916E+05 -1.031064E+05 -7.463567E+03 -2.630088E+05 -8.306326E+03 -3.034859E+03
        69   8 -7.034666E+05 -9.169362E+04  1.035401E+02 -2.660909E+05 -5.413757E+03 -1.813667E+03
        69   9 -7.049624E+05 -9.527602E+04  1.851623E+03 -2.677147E+05 -2.450536E+03 -7.807677E+02
        69  10 -7.456038E+05 -1.196365E+05 -1.876928E+04 -2.753431E+05 -3.828392E-10  2.655288E-10
        69  11 -7.428137E+05 -1.069019E+05 -1.078526E+04 -2.771479E+05 -2.197668E-09  5.883324E-10
        69  12 -7.436530E+05 -1.091714E+05 -8.653966E+03 -2.774943E+05  1.782393E-09  3.837267E-10
        69  13 -7.255979E+05 -1.113715E+05 -1.311648E+04 -2.691760E+05 -1.509691E-09  2.134602E-10
        69  14 -7.231403E+05 -9.929780E+04 -5.340874E+03 -2.716195E+05  2.150564E-09  7.935824E-10
        69  15 -7.243079E+05 -1.022237E+05 -3.401162E+03 -2.726046E+05  6.201910E-11 -3.645049E-11
        69  16 -7.055917E+05 -1.031064E+05 -7.463714E+03 -2.630088E+05  1.298992E-09  4.225587E-10
        69  17 -7.034666E+05 -9.169363E+04  1.034787E+02 -2.660909E+05  2.794182E-09  7.813345E-10
        69  18 -7.049624E+05 -9.527602E+04  1.851611E+03 -2.677147E+05 -3.662560E-09 -5.885502E-10
        69  19 -7.456038E+05 -1.196364E+05 -1.876914E+04 -2.753431E+05  8.353933E+03  3.052687E+03
        69  20 -7.428136E+05 -1.069019E+05 -1.078520E+04 -2.771479E+05  5.419273E+03  1.815730E+03
        69  21 -7.436530E+05 -1.091714E+05 -8.653954E+03 -2.774943E+05  2.413960E+03  7.670603E+02
        69  22 -7.255979E+05 -1.113714E+05 -1.311633E+04 -2.691760E+05  8.330130E+03  3.043773E+03
        69  23 -7.231403E+05 -9.929779E+04 -5.340813E+03 -2.716195E+05  5.416515E+03  1.814699E+03
        69  24 -7.243079E+05 -1.022237E+05 -3.401150E+03 -2.726046E+05  2.432247E+03  7.739139E+02
        69  25 -7.055916E+05 -1.031064E+05 -7.463567E+03 -2.630088E+05  8.306326E+03  3.034859E+03
        69  26 -7.034666E+05 -9.169362E+04  1.035401E+02 -2.660909E+05  5.413757E+03  1.813667E+03
        69  27 -7.049624E+05 -9.527602E+04  1.851623E+03 -2.677147E+05  2.450536E+03  7.807677E+02
        70   1 -7.297485E+05 -1.062257E+05 -4.470958E+03 -2.735700E+05 -1.891356E+03 -6.335409E+02
        70   2 -7.294660E+05 -1.030354E+05 -2.687956E+03 -2.725560E+05 -1.201535E+03 -3.970612E+02
        70   3 -7.278962E+05 -1.040389E+05 -1.973240E+03 -2.734800E+05 -4.994002E+02 -1.934262E+02
        70   4 -7.237859E+05 -1.038703E+05 -2.811438E+03 -2.718420E+05 -1.891699E+03 -6.336697E+02
        70   5 -7.243311E+05 -1.010726E+05 -1.271116E+03 -2.711357E+05 -1.205558E+03 -3.985689E+02
        70   6 -7.235883E+05 -1.024679E+05 -7.961553E+02 -2.723673E+05 -5.071040E+02 -1.963134E+02
        70   7 -7.178234E+05 -1.015149E+05 -1.151922E+03 -2.701140E+05 -1.892041E+03 -6.337985E+02
        70   8 -7.191962E+05 -9.910986E+04  1.457198E+02 -2.697153E+05 -1.209580E+03 -4.000766E+02
        70   9 -7.192803E+05 -1.008970E+05  3.809265E+02 -2.712546E+05 -5.148079E+02 -1.992006E+02
        70  10 -7.297485E+05 -1.062257E+05 -4.470966E+03 -2.735700E+05  5.373697E-10 -3.827135E-10
        70  11 -7.294660E+05 -1.030354E+05 -2.687959E+03 -2.725560E+05  1.873015E-09 -1.430042E-10
        70  12 -7.278962E+05 -1.040389E+05 -1.973241E+03 -2.734800E+05  2.147751E-09 -6.885856E-10
        70  13 -7.237859E+05 -1.038703E+05 -2.811446E+03 -2.718420E+05  1.458482E-11 -2.249014E-10
        70  14 -7.243311E+05 -1.010726E+05 -1.271120E+03 -2.711357E+05 -3.520538E-09  2.872431E-10
        70  15 -7.235883E+05 -1.024679E+05 -7.961559E+02 -2.723673E+05  1.869256E-09 -3.865602E-10
        70  16 -7.178234E+05 -1.015149E+05 -1.151930E+03 -2.701140E+05 -1.657323E-09 -3.271172E-10
        70  17 -7.191962E+05 -9.910986E+04  1.457167E+02 -2.697153E+05  1.261259E-09 -5.958898E-10
        70  18 -7.192803E+05 -1.008970E+05  3.809259E+02 -2.712546E+05  5.124804E-10 -3.968922E-10
        70  19 -7.297485E+05 -1.062257E+05 -4.470958E+03 -2.735700E+05  1.891356E+03  6.335409E+02
        70  20 -7.294660E+05 -1.030354E+05 -2.687956E+03 -2.725560E+05  1.201535E+03  3.970612E+02
        70  21 -7.278962E+05 -1.040389E+05 -1.973240E+03 -2.734800E+05  4.994002E+02  1.934262E+02
        70  22 -7.237859E+05 -1.038703E+05 -2.811438E+03 -2.718420E+05  1.891699E+03  6.336697E+02
        70  23 -7.243311E+05 -1.010726E+05 -1.271116E+03 -2.711357E+05  1.205558E+03  3.985689E+02
        70  24 -7.235883E+05 -1.024679E+05 -7.961553E+02 -2.723673E+05  5.071040E+02  1.963134E+02
        70  25 -7.178234E+05 -1.015149E+05 -1.151922E+03 -2.701140E+05  1.892041E+03  6.337985E+02
        70  26 -7.191962E+05 -9.910986E+04  1.457198E+02 -2.697153E+05  1.209580E+03  4.000766E+02
        70  27 -7.192803E+05 -1.008970E+05  3.809265E+02 -2.712546E+05  5.148079E+02  1.992006E+02
        71   1 -7.136098E+05 -9.894900E+04  2.073665E+03 -2.695312E+05 -3.665900E+02 -1.849637E+02
        71   2 -7.137089E+05 -9.732849E+04  2.581182E+03 -2.681953E+05 -1.540663E+02 -1.579300E+02
        71   3 -7.119105E+05 -9.809767E+04  2.850965E+03 -2.691229E+05  5.557604E+01 -1.232079E+02
        71   4 -7.235391E+05 -1.026798E+05 -6.569943E+02 -2.722102E+05 -3.721955E+02 -1.870646E+02
        71   5 -7.244740E+05 -1.013872E+05 -3.786978E+02 -2.711149E+05 -1.588117E+02 -1.597088E+02
        71   6 -7.235115E+05 -1.024845E+05 -3.388158E+02 -2.722833E+05  5.169022E+01 -1.246648E+02
        71   7 -7.334683E+05 -1.064106E+05 -3.387667E+03 -2.748892E+05 -3.778008E+02 -1.891655E+02
        71   8 -7.352389E+05 -1.054459E+05 -3.338592E+03 -2.740346E+05 -1.635571E+02 -1.614876E+02
        71   9 -7.351124E+05 -1.068713E+05 -3.528611E+03 -2.754436E+05  4.780447E+01 -1.261216E+02
        71  10 -7.136098E+05 -9.894900E+04  2.073665E+03 -2.695312E+05  1.588471E-09 -5.769118E-10
        71  11 -7.137089E+05 -9.732849E+04  2.581182E+03 -2.681953E+05 -1.030489E-09 -1.570460E-10
        71  12 -7.119105E+05 -9.809767E+04  2.850965E+03 -2.691229E+05  5.149434E-10 -7.509056E-10
        71  13 -7.235391E+05 -1.026798E+05 -6.569947E+02 -2.722102E+05  2.237970E-09 -3.564934E-10
        71  14 -7.244740E+05 -1.013872E+05 -3.786979E+02 -2.711149E+05  3.248423E-09 -1.182488E-10
        71  15 -7.235115E+05 -1.024845E+05 -3.388158E+02 -2.722833E+05 -1.769588E-09 -5.575894E-10
        71  16 -7.334683E+05 -1.064106E+05 -3.387667E+03 -2.748892E+05  7.034960E-10  2.865579E-10
        71  17 -7.352389E+05 -1.054459E+05 -3.338592E+03 -2.740346E+05  3.248954E-09  5.255989E-10
        71  18 -7.351124E+05 -1.068713E+05 -3.528611E+03 -2.754436E+05 -6.707560E-11 -2.997222E-10
        71  19 -7.136098E+05 -9.894900E+04  2.073665E+03 -2.695312E+05  3.665900E+02  1.849637E+02
        71  20 -7.137089E+05 -9.732849E+04  2.581182E+03 -2.681953E+05  1.540663E+02  1.579300E+02
        71  21 -7.119105E+05 -9.809767E+04  2.850965E+03 -2.691229E+05 -5.557604E+01  1.232079E+02
        71  22 -7.235391E+05 -1.026798E+05 -6.569943E+02 -2.722102E+05  3.721955E+02  1.870646E+02
        71  23 -7.244740E+05 -1.013872E+05 -3.786978E+02 -2.711149E+05  1.588117E+02  1.597088E+02
        71  24 -7.235115E+05 -1.024845E+05 -3.388158E+02 -2.722833E+05 -5.169022E+01  1.246648E+02
        71  25 -7.334683E+05 -1.064106E+05 -3.387667E+03 -2.748892E+05  3.778008E+02  1.891655E+02
        71  26 -7.352389E+05 -1.054459E+05 -3.338592E+03 -2.740346E+05  1.635571E+02  1.614876E+02
        71  27 -7.351124E+05 -1.068713E+05 -3.528611E+03 -2.754436E+05 -4.780447E+01  1.261216E+02
        72   1 -7.001710E+05 -9.352822E+04  6.100239E+03 -2.657688E+05  1.258558E+02 -1.279943E+02
        72   2 -7.002611E+05 -9.247645E+04  6.161969E+03 -2.647516E+05  3.722646E+02 -8.591418E+01
        72   3 -6.989679E+05 -9.314541E+04  5.992227E+03 -2.653835E+05  6.092673E+02 -1.872243E+01
        72   4 -7.236314E+05 -1.023747E+05 -3.534930E+02 -2.721323E+05  1.194946E+02 -1.303795E+02
        72   5 -7.243295E+05 -1.015612E+05 -4.575838E+02 -2.712901E+05  3.687133E+02 -8.724644E+01
        72   6 -7.236447E+05 -1.024689E+05 -7.953837E+02 -2.720970E+05  6.085257E+02 -1.900126E+01
        72   7 -7.470913E+05 -1.112211E+05 -6.807268E+03 -2.784956E+05  1.131338E+02 -1.327647E+02
        72   8 -7.483973E+05 -1.106459E+05 -7.077187E+03 -2.778283E+05  3.651622E+02 -8.857865E+01
        72   9 -7.483210E+05 -1.117924E+05 -7.583053E+03 -2.788102E+05  6.077842E+02 -1.928008E+01
        72  10 -7.001710E+05 -9.352822E+04  6.100239E+03 -2.657688E+05 -1.693034E-10 -3.603034E-10
        72  11 -7.002611E+05 -9.247645E+04  6.161968E+03 -2.647516E+05 -4.622035E-09  4.010430E-10
        72  12 -6.989679E+05 -9.314541E+04  5.992226E+03 -2.653835E+05 -3.074235E-09 -3.951067E-10
        72  13 -7.236314E+05 -1.023747E+05 -3.534931E+02 -2.721323E+05  2.629840E-09 -3.103084E-10
        72  14 -7.243295E+05 -1.015612E+05 -4.575841E+02 -2.712901E+05 -1.482278E-09  1.608190E-10
        72  15 -7.236447E+05 -1.024689E+05 -7.953844E+02 -2.720970E+05 -1.225473E-09 -1.590920E-10
        72  16 -7.470913E+05 -1.112211E+05 -6.807268E+03 -2.784956E+05  2.019727E-10 -3.970314E-10
        72  17 -7.483973E+05 -1.106459E+05 -7.077187E+03 -2.778283E+05 -5.726381E-10  1.440617E-10
        72  18 -7.483210E+05 -1.117924E+05 -7.583053E+03 -2.788102E+05  2.159527E-09 -1.636069E-10
        72  19 -7.001710E+05 -9.352822E+04  6.100239E+03 -2.657688E+05 -1.258558E+02  1.279943E+02
        72  20 -7.002611E+05 -9.247645E+04  6.161969E+03 -2.647516E+05 -3.722646E+02  8.591418E+01
        72  21 -6.989679E+05 -9.314541E+04  5.992227E+03 -2.653835E+05 -6.092673E+02  1.872243E+01
        72  22 -7.236314E+05 -1.023747E+05 -3.534930E+02 -2.721323E+05 -1.194946E+02  1.303795E+02
        72  23 -7.243295E+05 -1.015612E+05 -4.575838E+02 -2.712901E+05 -3.687133E+02  8.724644E+01
        72  24 -7.236447E+05 -1.024689E+05 -7.953837E+02 -2.720970E+05 -6.085257E+02  1.900126E+01
        72  25 -7.470913E+05 -1.112211E+05 -6.807268E+03 -2.784956E+05 -1.131338E+02  1.327647E+02
        72  26 -7.483973E+05 -1.106459E+05 -7.077187E+03 -2.778283E+05 -3.651622E+02  8.857865E+01
        72  27 -7.483210E+05 -1.117924E+05 -7.583053E+03 -2.788102E+05 -6.077842E+02  1.928008E+01
        73   1 -6.921917E+05 -9.020543E+04  7.705101E+03 -2.633706E+05  7.699040E+02  2.338774E+01
        73   2 -6.920591E+05 -8.957979E+04  7.055177E+03 -2.629163E+05  1.662637E+03  3.245311E+02
        73   3 -6.918863E+05 -9.078292E+04  5.418476E+03 -2.628467E+05  2.542420E+03  6.602077E+02
        73   4 -7.238935E+05 -1.021390E+05 -1.009573E+03 -2.719489E+05  7.646202E+02  2.140482E+01
        73   5 -7.239721E+05 -1.016398E+05 -1.724697E+03 -2.716006E+05  1.661186E+03  3.239853E+02
        73   6 -7.240111E+05 -1.029703E+05 -3.429675E+03 -2.716371E+05  2.544800E+03  6.610999E+02
        73   7 -7.555942E+05 -1.140725E+05 -9.724334E+03 -2.805268E+05  7.593367E+02  1.942201E+01
        73   8 -7.558840E+05 -1.136998E+05 -1.050466E+04 -2.802846E+05  1.659734E+03  3.234396E+02
        73   9 -7.561351E+05 -1.151575E+05 -1.227793E+04 -2.804272E+05  2.547181E+03  6.619920E+02
        73  10 -6.921917E+05 -9.020543E+04  7.705100E+03 -2.633706E+05 -1.334578E-09 -4.269767E-10
        73  11 -6.920591E+05 -8.957979E+04  7.055172E+03 -2.629163E+05  7.062335E-10  5.515613E-10
        73  12 -6.918863E+05 -9.078292E+04  5.418463E+03 -2.628467E+05 -6.397405E-10  3.494685E-11
        73  13 -7.238935E+05 -1.021390E+05 -1.009574E+03 -2.719489E+05 -1.734953E-10 -1.302911E-10
        73  14 -7.239721E+05 -1.016398E+05 -1.724702E+03 -2.716006E+05 -5.279234E-09  9.874243E-11
        73  15 -7.240112E+05 -1.029703E+05 -3.429688E+03 -2.716371E+05  1.057821E-10 -3.054155E-10
        73  16 -7.555942E+05 -1.140725E+05 -9.724335E+03 -2.805268E+05  1.521006E-10 -4.376047E-11
        73  17 -7.558840E+05 -1.136998E+05 -1.050467E+04 -2.802846E+05 -5.425644E-10 -1.185955E-10
        73  18 -7.561351E+05 -1.151575E+05 -1.227794E+04 -2.804272E+05  4.523165E-10  8.196804E-11
        73  19 -6.921917E+05 -9.020543E+04  7.705101E+03 -2.633706E+05 -7.699040E+02 -2.338774E+01
        73  20 -6.920591E+05 -8.957979E+04  7.055177E+03 -2.629163E+05 -1.662637E+03 -3.245311E+02
        73  21 -6.918863E+05 -9.078292E+04  5.418476E+03 -2.628467E+05 -2.542420E+03 -6.602077E+02
        73  22 -7.238935E+05 -1.021390E+05 -1.009573E+03 -2.719489E+05 -7.646202E+02 -2.140482E+01
        73  23 -7.239721E+05 -1.016398E+05 -1.724697E+03 -2.716006E+05 -1.661186E+03 -3.239853E+02
        73  24 -7.240111E+05 -1.029703E+05 -3.429675E+03 -2.716371E+05 -2.544800E+03 -6.610999E+02
        73  25 -7.555942E+05 -1.140725E+05 -9.724334E+03 -2.805268E+05 -7.593367E+02 -1.942201E+01
        73  26 -7.558840E+05 -1.136998E+05 -1.050466E+04 -2.802846E+05 -1.659734E+03 -3.234396E+02
        73  27 -7.561351E+05 -1.151575E+05 -1.227793E+04 -2.804272E+05 -2.547181E+03 -6.619920E+02
        74   1 -6.917472E+05 -8.965640E+04  4.610222E+03 -2.632126E+05  3.198447E+03  9.052183E+02
        74   2 -6.905721E+05 -8.845239E+04  1.488990E+03 -2.632240E+05  7.080440E+03  2.354135E+03
        74   3 -6.933453E+05 -9.485166E+04 -6.710768E+03 -2.607340E+05  1.094868E+04  3.839529E+03
        74   4 -7.245549E+05 -1.018273E+05 -4.371216E+03 -2.719066E+05  3.195451E+03  9.040937E+02
        74   5 -7.229702E+05 -1.007774E+05 -7.440679E+03 -2.721243E+05  7.081346E+03  2.354472E+03
        74   6 -7.253348E+05 -1.073319E+05 -1.559196E+04 -2.698406E+05  1.095349E+04  3.841326E+03
        74   7 -7.573616E+05 -1.139982E+05 -1.335275E+04 -2.806003E+05  3.192454E+03  9.029692E+02
        74   8 -7.553673E+05 -1.131024E+05 -1.637044E+04 -2.810242E+05  7.082252E+03  2.354810E+03
        74   9 -7.573233E+05 -1.198120E+05 -2.447325E+04 -2.789466E+05  1.095830E+04  3.843123E+03
        74  10 -6.917472E+05 -8.965640E+04  4.610201E+03 -2.632126E+05 -5.036773E-10 -4.878322E-10
        74  11 -6.905721E+05 -8.845241E+04  1.488885E+03 -2.632240E+05  1.231023E-09 -5.406104E-10
        74  12 -6.933455E+05 -9.485171E+04 -6.711022E+03 -2.607341E+05 -1.775182E-09  7.542516E-10
        74  13 -7.245549E+05 -1.018273E+05 -4.371237E+03 -2.719067E+05 -2.354994E-09  7.576907E-11
        74  14 -7.229703E+05 -1.007774E+05 -7.440784E+03 -2.721243E+05 -2.938383E-09 -4.774400E-10
        74  15 -7.253350E+05 -1.073319E+05 -1.559222E+04 -2.698406E+05 -6.846521E-10 -3.286321E-10
        74  16 -7.573616E+05 -1.139982E+05 -1.335277E+04 -2.806003E+05  2.301892E-09 -2.781258E-11
        74  17 -7.553674E+05 -1.131024E+05 -1.637055E+04 -2.810242E+05  2.822009E-10 -2.791995E-10
        74  18 -7.573235E+05 -1.198120E+05 -2.447350E+04 -2.789467E+05 -1.100875E-09  3.673082E-10
        74  19 -6.917472E+05 -8.965640E+04  4.610222E+03 -2.632126E+05 -3.198447E+03 -9.052183E+02
        74  20 -6.905721E+05 -8.845239E+04  1.488990E+03 -2.632240E+05 -7.080440E+03 -2.354135E+03
        74  21 -6.933453E+05 -9.485166E+04 -6.710768E+03 -2.607340E+05 -1.094868E+04 -3.839529E+03
        74  22 -7.245549E+05 -1.018273E+05 -4.371216E+03 -2.719066E+05 -3.195451E+03 -9.040937E+02
        74  23 -7.229702E+05 -1.007774E+05 -7.440679E+03 -2.721243E+05 -7.081346E+03 -2.354472E+03
        74  24 -7.253348E+05 -1.073319E+05 -1.559196E+04 -2.698406E+05 -1.095349E+04 -3.841326E+03
        74  25 -7.573616E+05 -1.139982E+05 -1.335275E+04 -2.806003E+05 -3.192454E+03 -9.029692E+02
        74  26 -7.553673E+05 -1.131024E+05 -1.637044E+04 -2.810242E+05 -7.082252E+03 -2.354810E+03
        74  27 -7.573233E+05 -1.198120E+05 -2.447325E+04 -2.789466E+05 -1.095830E+04 -3.843123E+03
        75   1 -7.001938E+05 -9.220387E+04 -1.227123E+04 -2.671121E+05  1.387699E+04  4.954939E+03
        75   2 -6.931625E+05 -8.340784E+04 -2.506965E+04 -2.662557E+05  3.102960E+04  1.141861E+04
        75   3 -7.094385E+05 -1.256610E+05 -6.498361E+04 -2.504626E+05  4.816887E+04  1.791831E+04
        75   4 -7.273849E+05 -1.010646E+05 -1.946874E+04 -2.730585E+05  1.387648E+04  4.954786E+03
        75   5 -7.182835E+05 -9.355233E+04 -3.211096E+04 -2.737605E+05  3.103246E+04  1.141964E+04
        75   6 -7.324909E+05 -1.370912E+05 -7.187221E+04 -2.595255E+05  4.817515E+04  1.792041E+04
        75   7 -7.545753E+05 -1.099254E+05 -2.666631E+04 -2.790046E+05  1.387597E+04  4.954633E+03
        75   8 -7.434039E+05 -1.036968E+05 -3.915233E+04 -2.812650E+05  3.103532E+04  1.142068E+04
        75   9 -7.555428E+05 -1.485213E+05 -7.876087E+04 -2.685882E+05  4.818143E+04  1.792250E+04
        75  10 -7.001940E+05 -9.220395E+04 -1.227164E+04 -2.671122E+05 -3.350238E-10 -2.259954E-10
        75  11 -6.931636E+05 -8.340824E+04 -2.507171E+04 -2.662560E+05  2.443925E-09 -2.087760E-09
        75  12 -7.094411E+05 -1.256619E+05 -6.498858E+04 -2.504633E+05  7.286318E-10 -1.786746E-09
        75  13 -7.273851E+05 -1.010647E+05 -1.946915E+04 -2.730585E+05  1.480680E-09 -9.874139E-10
        75  14 -7.182846E+05 -9.355273E+04 -3.211302E+04 -2.737607E+05 -8.298466E-10 -1.016850E-09
        75  15 -7.324935E+05 -1.370922E+05 -7.187718E+04 -2.595262E+05  6.333593E-10 -1.161364E-09
        75  16 -7.545756E+05 -1.099255E+05 -2.666672E+04 -2.790047E+05  2.420152E-11  1.883663E-10
        75  17 -7.434050E+05 -1.036972E+05 -3.915439E+04 -2.812652E+05 -6.721718E-10 -6.987346E-10
        75  18 -7.555454E+05 -1.485223E+05 -7.876584E+04 -2.685889E+05 -9.866350E-10  2.186532E-10
        75  19 -7.001938E+05 -9.220387E+04 -1.227123E+04 -2.671121E+05 -1.387699E+04 -4.954939E+03
        75  20 -6.931625E+05 -8.340784E+04 -2.506965E+04 -2.662557E+05 -3.102960E+04 -1.141861E+04
        75  21 -7.094385E+05 -1.256610E+05 -6.498361E+04 -2.504626E+05 -4.816887E+04 -1.791831E+04
        75  22 -7.273849E+05 -1.010646E+05 -1.946874E+04 -2.730585E+05 -1.387648E+04 -4.954786E+03
        75  23 -7.182835E+05 -9.355233E+04 -3.211096E+04 -2.737605E+05 -3.103246E+04 -1.141964E+04
        75  24 -7.324909E+05 -1.370912E+05 -7.187221E+04 -2.595255E+05 -4.817515E+04 -1.792041E+04
        75  25 -7.545753E+05 -1.099254E+05 -2.666631E+04 -2.790046E+05 -1.387597E+04 -4.954633E+03
        75  26 -7.434039E+05 -1.036968E+05 -3.915233E+04 -2.812650E+05 -3.103532E+04 -1.142068E+04
        75  27 -7.555428E+05 -1.485213E+05 -7.876087E+04 -2.685882E+05 -4.818143E+04 -1.792250E+04
        76   1 -7.234656E+05 -9.850242E+04 -8.333621E+04 -2.854797E+05  6.146904E+04  2.294158E+04
        76   2 -6.808480E+05 -3.702036E+04 -1.333841E+05 -2.756941E+05  1.373168E+05  5.149588E+04
        76   3 -7.782488E+05 -3.138702E+05 -3.332197E+05 -1.750371E+05  2.131450E+05  8.010694E+04
        76   4 -7.437261E+05 -9.708474E+04 -8.709625E+04 -2.816791E+05  6.146881E+04  2.294263E+04
        76   5 -6.903383E+05 -4.523434E+04 -1.369187E+05 -2.830264E+05  1.373218E+05  5.149648E+04
        76   6 -7.769732E+05 -3.317207E+05 -3.365348E+05 -1.935007E+05  2.131567E+05  8.010341E+04
        76   7 -7.639860E+05 -9.566685E+04 -9.085626E+04 -2.778786E+05  6.146858E+04  2.294367E+04
        76   8 -6.998285E+05 -5.344813E+04 -1.404534E+05 -2.903585E+05  1.373268E+05  5.149707E+04
        76   9 -7.756969E+05 -3.495695E+05 -3.398498E+05 -2.119642E+05  2.131684E+05  8.009988E+04
        76  10 -7.234698E+05 -9.850400E+04 -8.334431E+04 -2.854809E+05  2.746957E-10 -5.843616E-10
        76  11 -6.808690E+05 -3.702828E+04 -1.334246E+05 -2.756998E+05 -6.161881E-10  1.291281E-10
        76  12 -7.782993E+05 -3.138893E+05 -3.333173E+05 -1.750508E+05 -1.437747E-09  5.401044E-10
        76  13 -7.437303E+05 -9.708632E+04 -8.710435E+04 -2.816802E+05  2.291220E-09 -3.509650E-10
        76  14 -6.903593E+05 -4.524226E+04 -1.369592E+05 -2.830321E+05 -8.809052E-10  2.039025E-09
        76  15 -7.770238E+05 -3.317399E+05 -3.366324E+05 -1.935145E+05 -2.485540E-09  1.597619E-09
        76  16 -7.639902E+05 -9.566844E+04 -9.086436E+04 -2.778798E+05 -1.838248E-09  5.777146E-10
        76  17 -6.998495E+05 -5.345606E+04 -1.404939E+05 -2.903642E+05  3.858206E-10  3.146017E-09
        76  18 -7.757475E+05 -3.495887E+05 -3.399474E+05 -2.119780E+05 -4.821738E-10  9.499984E-10
        76  19 -7.234656E+05 -9.850242E+04 -8.333621E+04 -2.854797E+05 -6.146904E+04 -2.294158E+04
        76  20 -6.808480E+05 -3.702036E+04 -1.333841E+05 -2.756941E+05 -1.373168E+05 -5.149588E+04
        76  21 -7.782488E+05 -3.138702E+05 -3.332197E+05 -1.750371E+05 -2.131450E+05 -8.010694E+04
        76  22 -7.437261E+05 -9.708474E+04 -8.709625E+04 -2.816791E+05 -6.146881E+04 -2.294263E+04
        76  23 -6.903383E+05 -4.523434E+04 -1.369187E+05 -2.830264E+05 -1.373218E+05 -5.149648E+04
        76  24 -7.769732E+05 -3.317207E+05 -3.365348E+05 -1.935007E+05 -2.131567E+05 -8.010341E+04
        76  25 -7.639860E+05 -9.566685E+04 -9.085626E+04 -2.778786E+05 -6.146858E+04 -2.294367E+04
        76  26 -6.998285E+05 -5.344813E+04 -1.404534E+05 -2.903585E+05 -1.373268E+05 -5.149707E+04
        76  27 -7.756969E+05 -3.495695E+05 -3.398498E+05 -2.119642E+05 -2.131684E+05 -8.009988E+04
        77   1  2.324708E+05  1.782548E+06  2.182449E+05 -3.591881E+04  1.260457E+04  1.002096E+05
        77   2  2.099392E+05  1.756041E+06  1.600583E+05 -3.150516E+04  4.396982E+04  5.489768E+04
        77   3  1.992309E+05  1.738418E+06  1.342867E+05 -2.928748E+04  5.678790E+04  9.591334E+03
        77   4  1.020354E+04  8.771230E+05  1.094182E+04 -2.883600E+04  1.261455E+04  7.355424E+03
        77   5  3.409888E+03  8.763586E+05  5.752930E+03 -2.774046E+04  4.398569E+04  4.437572E+03
        77   6  1.099384E+03  8.771377E+05  3.593986E+03 -2.883889E+04  5.679808E+04  1.522345E+03
        77   7 -2.121159E+05 -2.752577E+04 -1.963827E+05 -2.176355E+04  1.262242E+04 -8.536475E+04
        77   8 -2.031601E+05 -2.562785E+03 -1.485708E+05 -2.398119E+04  4.400096E+04 -4.595333E+04
        77   9 -1.970675E+05  1.659932E+04 -1.271140E+05 -2.839088E+04  5.680826E+04 -6.535917E+03
        77  10  2.324680E+05  1.782537E+06  2.182258E+05 -3.591982E+04 -5.194559E-10  5.680577E-10
        77  11  2.099363E+05  1.756037E+06  1.600490E+05 -3.150711E+04  3.749213E-09 -4.487877E-10
        77  12  1.992274E+05  1.738417E+06  1.342804E+05 -2.928792E+04  1.018488E-09 -1.109410E-09
        77  13  1.020335E+04  8.771229E+05  1.094142E+04 -2.883607E+04  6.485893E-11  3.868045E-11
        77  14  3.407805E+03  8.763581E+05  5.749256E+03 -2.774062E+04  3.264471E-09  1.604568E-10
        77  15  1.095918E+03  8.771368E+05  3.587916E+03 -2.883896E+04  4.528332E-10 -4.006299E-10
        77  16 -2.121180E+05 -2.753364E+04 -1.963967E+05 -2.176268E+04  1.111523E-09 -5.491309E-10
        77  17 -2.031628E+05 -2.565573E+03 -1.485784E+05 -2.397956E+04  1.434462E-09  1.158001E-10
        77  18 -1.970710E+05  1.659841E+04 -1.271201E+05 -2.839058E+04  4.617985E-10  1.334767E-09
        77  19  2.324708E+05  1.782548E+06  2.182449E+05 -3.591881E+04 -1.260457E+04 -1.002096E+05
        77  20  2.099392E+05  1.756041E+06  1.600583E+05 -3.150516E+04 -4.396982E+04 -5.489768E+04
        77  21  1.992309E+05  1.738418E+06  1.342867E+05 -2.928748E+04 -5.678790E+04 -9.591334E+03
        77  22  1.020354E+04  8.771230E+05  1.094182E+04 -2.883600E+04 -1.261455E+04 -7.355424E+03
        77  23  3.409888E+03  8.763586E+05  5.752930E+03 -2.774046E+04 -4.398569E+04 -4.437572E+03
        77  24  1.099384E+03  8.771377E+05  3.593986E+03 -2.883889E+04 -5.679808E+04 -1.522345E+03
        77  25 -2.121159E+05 -2.752577E+04 -1.963827E+05 -2.176355E+04 -1.262242E+04  8.536475E+04
        77  26 -2.031601E+05 -2.562785E+03 -1.485708E+05 -2.398119E+04 -4.400096E+04  4.595333E+04
        77  27 -1.970675E+05  1.659932E+04 -1.271140E+05 -2.839088E+04 -5.680826E+04  6.535917E+03
        78   1  1.949155E+05  1.723502E+06  1.281406E+05 -2.993407E+04  5.811521E+04  8.115945E+03
        78   2  1.886525E+05  1.700676E+06  1.207532E+05 -2.756208E+04  5.909815E+04 -3.011438E+03
        78   3  1.850451E+05  1.679995E+06  1.212711E+05 -2.883835E+04  5.582149E+04 -1.414089E+04
        78   4  8.402256E+02  8.769007E+05  3.080662E+03 -2.916224E+04  5.812573E+04  1.012859E+03
        78   5  5.076956E+02  8.766771E+05  2.785107E+03 -2.733801E+04  5.910465E+04 -3.777042E+02
        78   6  1.144834E+03  8.769126E+05  3.647102E+03 -2.916235E+04  5.582106E+04 -1.770702E+03
        78   7 -1.932684E+05  3.101882E+04 -1.219921E+05 -2.839142E+04  5.813623E+04 -6.080959E+03
        78   8 -1.876679E+05  5.336279E+04 -1.151932E+05 -2.711415E+04  5.911116E+04  2.252691E+03
        78   9 -1.827852E+05  7.447877E+04 -1.139875E+05 -2.948579E+04  5.582062E+04  1.058418E+04
        78  10  1.949119E+05  1.723501E+06  1.281341E+05 -2.993445E+04  1.217407E-09 -4.341843E-10
        78  11  1.886487E+05  1.700675E+06  1.207466E+05 -2.756194E+04  6.897989E-10 -1.633004E-09
        78  12  1.850417E+05  1.679994E+06  1.212648E+05 -2.883772E+04 -9.227397E-11 -5.274695E-10
        78  13  8.365958E+02  8.768998E+05  3.074309E+03 -2.916228E+04 -1.408362E-09 -7.879370E-11
        78  14  5.039428E+02  8.766762E+05  2.778539E+03 -2.733799E+04 -4.890603E-09  4.532256E-10
        78  15  1.141486E+03  8.769118E+05  3.641238E+03 -2.916227E+04  1.872022E-09 -7.552769E-10
        78  16 -1.932721E+05  3.101787E+04 -1.219986E+05 -2.839113E+04 -4.145048E-10  8.573576E-10
        78  17 -1.876716E+05  5.336184E+04 -1.151998E+05 -2.711426E+04  7.715883E-10  6.155707E-10
        78  18 -1.827886E+05  7.447782E+04 -1.139936E+05 -2.948627E+04 -6.082219E-10  1.064256E-09
        78  19  1.949155E+05  1.723502E+06  1.281406E+05 -2.993407E+04 -5.811521E+04 -8.115945E+03
        78  20  1.886525E+05  1.700676E+06  1.207532E+05 -2.756208E+04 -5.909815E+04  3.011438E+03
        78  21  1.850451E+05  1.679995E+06  1.212711E+05 -2.883835E+04 -5.582149E+04  1.414089E+04
        78  22  8.402256E+02  8.769007E+05  3.080662E+03 -2.916224E+04 -5.812573E+04 -1.012859E+03
        78  23  5.076956E+02  8.766771E+05  2.785107E+03 -2.733801E+04 -5.910465E+04  3.777042E+02
        78  24  1.144834E+03  8.769126E+05  3.647102E+03 -2.916235E+04 -5.582106E+04  1.770702E+03
        78  25 -1.932684E+05  3.101882E+04 -1.219921E+05 -2.839142E+04 -5.813623E+04  6.080959E+03
        78  26 -1.876679E+05  5.336279E+04 -1.151932E+05 -2.711415E+04 -5.911116E+04 -2.252691E+03
        78  27 -1.827852E+05  7.447877E+04 -1.139875E+05 -2.948579E+04 -5.582062E+04 -1.058418E+04
        79   1  1.831190E+05  1.667768E+06  1.231278E+05 -2.950250E+04  5.302881E+04 -1.557843E+04
        79   2  1.841669E+05  1.642283E+06  1.400128E+05 -2.251787E+04  3.970514E+04 -5.411514E+04
        79   3  1.972576E+05  1.624840E+06  1.849599E+05 -2.041209E+04  1.122685E+04 -9.266697E+04
        79   4  1.527809E+03  8.772688E+05  4.494915E+03 -2.943692E+04  5.302649E+04 -2.386928E+03
        79   5  4.722699E+03  8.762511E+05  7.657230E+03 -2.699264E+04  3.967287E+04 -6.292227E+03
        79   6  1.396378E+04  8.772762E+05  1.487298E+04 -2.942909E+04  1.115663E+04 -1.021284E+04
        79   7 -1.800929E+05  8.739535E+04 -1.141497E+05 -2.937131E+04  5.302417E+04  1.078849E+04
        79   8 -1.747516E+05  1.107982E+05 -1.247100E+05 -3.146162E+04  3.963989E+04  4.147363E+04
        79   9 -1.693647E+05  1.302443E+05 -1.552247E+05 -3.843503E+04  1.108397E+04  7.214310E+04
        79  10  1.831159E+05  1.667767E+06  1.231221E+05 -2.950184E+04 -2.299908E-10  1.408392E-09
        79  11  1.841644E+05  1.642280E+06  1.400043E+05 -2.251614E+04  2.144254E-09 -7.267773E-10
        79  12  1.972552E+05  1.624831E+06  1.849436E+05 -2.041126E+04  7.078613E-10  8.267644E-10
        79  13  1.524787E+03  8.772681E+05  4.489619E+03 -2.943682E+04  1.386725E-09 -3.710003E-11
        79  14  4.720998E+03  8.762506E+05  7.654196E+03 -2.699244E+04 -4.418386E-10  8.528007E-10
        79  15  1.396362E+04  8.772760E+05  1.487255E+04 -2.942899E+04 -2.140364E-09 -1.208338E-09
        79  16 -1.800959E+05  8.739447E+04 -1.141552E+05 -2.937177E+04  1.353282E-09 -7.090817E-10
        79  17 -1.747538E+05  1.107959E+05 -1.247162E+05 -3.146294E+04 -4.082787E-10 -7.488736E-10
        79  18 -1.693662E+05  1.302387E+05 -1.552347E+05 -3.843567E+04  1.233894E-09 -2.229142E-10
        79  19  1.831190E+05  1.667768E+06  1.231278E+05 -2.950250E+04 -5.302881E+04  1.557843E+04
        79  20  1.841669E+05  1.642283E+06  1.400128E+05 -2.251787E+04 -3.970514E+04  5.411514E+04
        79  21  1.972576E+05  1.624840E+06  1.849599E+05 -2.041209E+04 -1.122685E+04  9.266697E+04
        79  22  1.527809E+03  8.772688E+05  4.494915E+03 -2.943692E+04 -5.302649E+04  2.386928E+03
        79  23  4.722699E+03  8.762511E+05  7.657230E+03 -2.699264E+04 -3.967287E+04  6.292227E+03
        79  24  1.396378E+04  8.772762E+05  1.487298E+04 -2.942909E+04 -1.115663E+04  1.021284E+04
        79  25 -1.800929E+05  8.739535E+04 -1.141497E+05 -2.937131E+04 -5.302417E+04 -1.078849E+04
        79  26 -1.747516E+05  1.107982E+05 -1.247100E+05 -3.146162E+04 -3.963989E+04 -4.147363E+04
        79  27 -1.693647E+05  1.302443E+05 -1.552247E+05 -3.843503E+04 -1.108397E+04 -7.214310E+04
        80   1 -3.376467E+06 -3.366441E+05 -4.232491E+05 -5.148585E+02 -2.514102E+05 -5.802262E+02
        80   2 -3.351317E+06  4.067213E+03 -2.194794E+05 -3.318434E+04 -1.653686E+05  1.404236E+03
        80   3 -3.438714E+06 -6.089823E+04 -1.732964E+05  3.335801E+04 -7.932797E+04  2.654876E+03
        80   4 -3.159541E+06 -2.819482E+05 -3.688012E+05  2.371113E+04 -2.512391E+05 -5.890238E+02
        80   5 -3.103048E+06  6.638542E+04 -1.573317E+05 -2.653837E+04 -1.652604E+05  1.403015E+03
        80   6 -3.159055E+06  9.136063E+03 -1.033671E+05  2.242063E+04 -7.927828E+04  2.656448E+03
        80   7 -2.942571E+06 -2.272539E+05 -3.143567E+05  4.794558E+04 -2.510680E+05 -5.978052E+02
        80   8 -2.854722E+06  1.286991E+05 -9.518861E+04 -1.988979E+04 -1.651522E+05  1.401797E+03
        80   9 -2.879324E+06  7.916490E+04 -3.344369E+04  1.147823E+04 -7.922856E+04  2.658019E+03
        80  10 -3.376535E+06 -3.366611E+05 -4.233685E+05 -5.149762E+02  3.679308E-10  5.111974E-10
        80  11 -3.351347E+06  4.059820E+03 -2.195311E+05 -3.318415E+04 -3.726049E-09  1.341783E-09
        80  12 -3.438720E+06 -6.089994E+04 -1.733083E+05  3.335818E+04  1.654499E-09  1.330585E-10
        80  13 -3.159609E+06 -2.819653E+05 -3.689205E+05  2.371101E+04  2.165775E-09  4.089552E-10
        80  14 -3.103077E+06  6.637804E+04 -1.573833E+05 -2.653818E+04  1.652208E-09  3.315926E-10
        80  15 -3.159062E+06  9.134357E+03 -1.033790E+05  2.242080E+04  2.235801E-09 -1.452675E-10
        80  16 -2.942638E+06 -2.272709E+05 -3.144757E+05  4.794546E+04  9.709326E-10 -6.157124E-11
        80  17 -2.854751E+06  1.286917E+05 -9.524011E+04 -1.988960E+04 -2.706566E-09  2.751218E-10
        80  18 -2.879331E+06  7.916320E+04 -3.345555E+04  1.147840E+04 -5.729393E-10 -1.840017E-09
        80  19 -3.376467E+06 -3.366441E+05 -4.232491E+05 -5.148585E+02  2.514102E+05  5.802262E+02
        80  20 -3.351317E+06  4.067213E+03 -2.194794E+05 -3.318434E+04  1.653686E+05 -1.404236E+03
        80  21 -3.438714E+06 -6.089823E+04 -1.732964E+05  3.335801E+04  7.932797E+04 -2.654876E+03
        80  22 -3.159541E+06 -2.819482E+05 -3.688012E+05  2.371113E+04  2.512391E+05  5.890238E+02
        80  23 -3.103048E+06  6.638542E+04 -1.573317E+05 -2.653837E+04  1.652604E+05 -1.403015E+03
        80  24 -3.159055E+06  9.136063E+03 -1.033671E+05  2.242063E+04  7.927828E+04 -2.656448E+03
        80  25 -2.942571E+06 -2.272539E+05 -3.143567E+05  4.794558E+04  2.510680E+05  5.978052E+02
        80  26 -2.854722E+06  1.286991E+05 -9.518861E+04 -1.988979E+04  1.651522E+05 -1.401797E+03
        80  27 -2.879324E+06  7.916490E+04 -3.344369E+04  1.147823E+04  7.922856E+04 -2.658019E+03
        81   1 -3.728214E+06 -1.913700E+05 -2.333341E+05  3.210048E+03 -6.250679E+04  3.575001E+03
        81   2 -3.732539E+06 -1.408527E+05 -1.916831E+05 -9.192962E+03 -4.087000E+04  4.934575E+03
        81   3 -3.748065E+06 -1.519557E+05 -1.781646E+05  9.819633E+03 -1.923022E+04  4.513251E+03
        81   4 -3.136737E+06 -4.296072E+04 -8.517707E+04  7.852696E+03 -6.228599E+04  3.574997E+03
        81   5 -3.131107E+06  1.000876E+04 -4.113179E+04 -7.908429E+03 -4.084404E+04  4.934244E+03
        81   6 -3.136623E+06  1.427098E+03 -2.506351E+04  7.744195E+03 -1.939876E+04  4.513104E+03
        81   7 -2.544941E+06  1.054220E+05  6.295340E+04  1.249958E+04 -6.206496E+04  3.574997E+03
        81   8 -2.529344E+06  1.608428E+05  1.093921E+05 -6.622730E+03 -4.081804E+04  4.933913E+03
        81   9 -2.524840E+06  1.547815E+05  1.280092E+05  5.666738E+03 -1.956745E+04  4.512959E+03
        81  10 -3.728218E+06 -1.913710E+05 -2.333415E+05  3.210228E+03  1.192590E-09 -1.609888E-09
        81  11 -3.732541E+06 -1.408532E+05 -1.916863E+05 -9.192799E+03  1.793528E-09 -5.198952E-10
        81  12 -3.748066E+06 -1.519558E+05 -1.781654E+05  9.819703E+03 -3.616343E-09  1.628766E-09
        81  13 -3.136741E+06 -4.296178E+04 -8.518442E+04  7.852875E+03 -3.963015E-09 -1.998624E-10
        81  14 -3.131109E+06  1.000829E+04 -4.113499E+04 -7.908267E+03 -4.267312E-09  3.528554E-10
        81  15 -3.136623E+06  1.426974E+03 -2.506425E+04  7.744266E+03 -1.755017E-09 -4.515321E-10
        81  16 -2.544945E+06  1.054210E+05  6.294610E+04  1.249976E+04 -1.139892E-09  3.708389E-10
        81  17 -2.529346E+06  1.608423E+05  1.093889E+05 -6.622568E+03  1.537483E-09 -1.544584E-09
        81  18 -2.524840E+06  1.547814E+05  1.280085E+05  5.666809E+03  1.544093E-09 -7.514130E-10
        81  19 -3.728214E+06 -1.913700E+05 -2.333341E+05  3.210048E+03  6.250679E+04 -3.575001E+03
        81  20 -3.732539E+06 -1.408527E+05 -1.916831E+05 -9.192962E+03  4.087000E+04 -4.934575E+03
        81  21 -3.748065E+06 -1.519557E+05 -1.781646E+05  9.819633E+03  1.923022E+04 -4.513251E+03
        81  22 -3.136737E+06 -4.296072E+04 -8.517707E+04  7.852696E+03  6.228599E+04 -3.574997E+03
        81  23 -3.131107E+06  1.000876E+04 -4.113179E+04 -7.908429E+03  4.084404E+04 -4.934244E+03
        81  24 -3.136623E+06  1.427098E+03 -2.506351E+04  7.744195E+03  1.939876E+04 -4.513104E+03
        81  25 -2.544941E+06  1.054220E+05  6.295340E+04  1.249958E+04  6.206496E+04 -3.574997E+03
        81  26 -2.529344E+06  1.608428E+05  1.093921E+05 -6.622730E+03  4.081804E+04 -4.933913E+03
        81  27 -2.524840E+06  1.547815E+05  1.280092E+05  5.666738E+03  1.956745E+04 -4.512959E+03
        82   1 -3.681879E+06 -1.441643E+05 -1.573976E+05 -1.193003E+04 -1.547646E+04  4.364270E+03
        82   2 -3.664712E+06 -1.315424E+05 -1.434739E+05  1.765435E+04 -9.856017E+03  4.413661E+03
        82   3 -3.645348E+06 -1.278365E+05 -1.344128E+05 -1.005305E+04 -4.241869E+03  2.926974E+03
        82   4 -3.133643E+06 -6.650059E+03 -2.015337E+04 -1.194478E+04 -1.538715E+04  4.363893E+03
        82   5 -3.134774E+06  1.381279E+03 -1.082605E+04  1.670522E+04 -9.945938E+03  4.413662E+03
        82   6 -3.133670E+06  5.344079E+02 -6.232309E+03 -1.193350E+04 -4.511183E+03  2.927911E+03
        82   7 -2.585133E+06  1.308414E+05  1.170681E+05 -1.195944E+04 -1.529776E+04  4.363517E+03
        82   8 -2.604579E+06  1.342836E+05  1.218005E+05  1.575544E+04 -1.003593E+04  4.413663E+03
        82   9 -2.621754E+06  1.288855E+05  1.219283E+05 -1.381527E+04 -4.780719E+03  2.928849E+03
        82  10 -3.681879E+06 -1.441644E+05 -1.573981E+05 -1.192998E+04 -2.237716E-09 -1.034373E-09
        82  11 -3.664712E+06 -1.315424E+05 -1.434742E+05  1.765438E+04  5.585595E-10  7.915827E-10
        82  12 -3.645348E+06 -1.278366E+05 -1.344129E+05 -1.005304E+04 -6.987994E-11 -3.105592E-10
        82  13 -3.133643E+06 -6.650144E+03 -2.015385E+04 -1.194472E+04 -4.131234E-09 -2.852790E-10
        82  14 -3.134774E+06  1.381232E+03 -1.082628E+04  1.670525E+04 -1.795573E-09  1.544248E-09
        82  15 -3.133670E+06  5.343932E+02 -6.232364E+03 -1.193349E+04 -8.487005E-10  1.160384E-09
        82  16 -2.585133E+06  1.308413E+05  1.170676E+05 -1.195938E+04  1.500218E-09  1.171886E-09
        82  17 -2.604580E+06  1.342836E+05  1.218003E+05  1.575547E+04 -6.229081E-09  2.578719E-10
        82  18 -2.621754E+06  1.288854E+05  1.219282E+05 -1.381526E+04 -4.162325E-09 -1.417873E-10
        82  19 -3.681879E+06 -1.441643E+05 -1.573976E+05 -1.193003E+04  1.547646E+04 -4.364270E+03
        82  20 -3.664712E+06 -1.315424E+05 -1.434739E+05  1.765435E+04  9.856017E+03 -4.413661E+03
        82  21 -3.645348E+06 -1.278365E+05 -1.344128E+05 -1.005305E+04  4.241869E+03 -2.926974E+03
        82  22 -3.133643E+06 -6.650059E+03 -2.015337E+04 -1.194478E+04  1.538715E+04 -4.363893E+03
        82  23 -3.134774E+06  1.381279E+03 -1.082605E+04  1.670522E+04  9.945938E+03 -4.413662E+03
        82  24 -3.133670E+06  5.344079E+02 -6.232309E+03 -1.193350E+04  4.511183E+03 -2.927911E+03
        82  25 -2.585133E+06  1.308414E+05  1.170681E+05 -1.195944E+04  1.529776E+04 -4.363517E+03
        82  26 -2.604579E+06  1.342836E+05  1.218005E+05  1.575544E+04  1.003593E+04 -4.413663E+03
        82  27 -2.621754E+06  1.288855E+05  1.219283E+05 -1.381527E+04  4.780719E+03 -2.928849E+03
        83   1 -3.252285E+06 -3.053892E+04 -3.474590E+04 -2.232255E+04 -3.377440E+03  1.907319E+03
        83   2 -3.217864E+06 -2.094994E+04 -2.432101E+04  3.033213E+04 -1.707423E+03  7.053588E+02
        83   3 -3.185100E+06 -1.273346E+04 -1.555362E+04 -2.234011E+04 -3.909678E+01 -7.402582E+02
        83   4 -3.134458E+06 -1.005951E+03 -5.331993E+03 -2.261712E+04 -3.506048E+03  1.907877E+03
        83   5 -3.133637E+06  1.720353E+02 -3.243866E+03  3.004808E+04 -1.864887E+03  7.060913E+02
        83   6 -3.134468E+06 -1.729386E+01 -2.792925E+03 -2.261274E+04 -2.255077E+02 -7.393324E+02
        83   7 -3.016619E+06  2.852597E+04  2.408087E+04 -2.291172E+04 -3.634682E+03  1.908435E+03
        83   8 -3.049404E+06  2.129347E+04  1.783274E+04  2.976400E+04 -2.022373E+03  7.068238E+02
        83   9 -3.083834E+06  1.269868E+04  9.967570E+03 -2.288540E+04 -4.119338E+02 -7.384064E+02
        83  10 -3.252285E+06 -3.053893E+04 -3.474593E+04 -2.232254E+04 -1.465697E-09 -5.359723E-10
        83  11 -3.217864E+06 -2.094994E+04 -2.432102E+04  3.033213E+04 -1.971676E-09 -5.573536E-10
        83  12 -3.185100E+06 -1.273346E+04 -1.555362E+04 -2.234011E+04  5.312101E-10 -5.964819E-11
        83  13 -3.134458E+06 -1.005958E+03 -5.332023E+03 -2.261711E+04 -4.350144E-09  7.418910E-10
        83  14 -3.133637E+06  1.720339E+02 -3.243873E+03  3.004809E+04 -2.976003E-10  2.214352E-09
        83  15 -3.134468E+06 -1.729446E+01 -2.792926E+03 -2.261274E+04  3.311547E-09  1.250836E-09
        83  16 -3.016619E+06  2.852596E+04  2.408083E+04 -2.291172E+04  2.485590E-10 -6.487841E-10
        83  17 -3.049404E+06  2.129347E+04  1.783273E+04  2.976401E+04 -2.036028E-09 -8.893070E-10
        83  18 -3.083834E+06  1.269868E+04  9.967569E+03 -2.288540E+04 -1.919760E-09  1.001828E-09
        83  19 -3.252285E+06 -3.053892E+04 -3.474590E+04 -2.232255E+04  3.377440E+03 -1.907319E+03
        83  20 -3.217864E+06 -2.094994E+04 -2.432101E+04  3.033213E+04  1.707423E+03 -7.053588E+02
        83  21 -3.185100E+06 -1.273346E+04 -1.555362E+04 -2.234011E+04  3.909678E+01  7.402582E+02
        83  22 -3.134458E+06 -1.005951E+03 -5.331993E+03 -2.261712E+04  3.506048E+03 -1.907877E+03
        83  23 -3.133637E+06  1.720353E+02 -3.243866E+03  3.004808E+04  1.864887E+03 -7.060913E+02
        83  24 -3.134468E+06 -1.729386E+01 -2.792925E+03 -2.261274E+04  2.255077E+02  7.393324E+02
        83  25 -3.016619E+06  2.852597E+04  2.408087E+04 -2.291172E+04  3.634682E+03 -1.908435E+03
        83  26 -3.049404E+06  2.129347E+04  1.783274E+04  2.976400E+04  2.022373E+03 -7.068238E+02
        83  27 -3.083834E+06  1.269868E+04  9.967570E+03 -2.288540E+04  4.119338E+02  7.384064E+02
        84   1 -2.737674E+06  9.950856E+04  9.658530E+04 -1.824400E+04  4.927823E+02 -1.895444E+03
        84   2 -2.713596E+06  1.057067E+05  1.018500E+05  2.162384E+04  2.053412E+03 -3.491246E+03
        84   3 -2.687210E+06  1.107670E+05  1.063695E+05 -1.749707E+04  3.620922E+03 -3.881856E+03
        84   4 -3.133643E+06  2.155162E+02 -2.582138E+03 -1.676031E+04  2.305998E+02 -1.894293E+03
        84   5 -3.134760E+06  1.249532E+02 -3.510320E+03  2.273385E+04  1.934382E+03 -3.490970E+03
        84   6 -3.133597E+06 -1.130165E+03 -5.284224E+03 -1.676413E+04  3.644982E+03 -3.882094E+03
        84   7 -3.529468E+06 -9.908944E+04 -1.017615E+05 -1.527739E+04 -3.141486E+01 -1.893142E+03
        84   8 -3.555763E+06 -1.054703E+05 -1.088841E+05  2.384325E+04  1.815432E+03 -3.490694E+03
        84   9 -3.579803E+06 -1.130424E+05 -1.169530E+05 -1.603159E+04  3.669022E+03 -3.882332E+03
        84  10 -2.737674E+06  9.950856E+04  9.658530E+04 -1.824400E+04 -7.549245E-10 -2.119190E-09
        84  11 -2.713596E+06  1.057067E+05  1.018500E+05  2.162385E+04 -6.035351E-10 -4.167689E-10
        84  12 -2.687210E+06  1.107669E+05  1.063694E+05 -1.749706E+04  2.705023E-09  7.127559E-10
        84  13 -3.133643E+06  2.155124E+02 -2.582145E+03 -1.676031E+04  2.569284E-09  1.084640E-09
        84  14 -3.134760E+06  1.249391E+02 -3.510349E+03  2.273386E+04  3.811616E-09  3.634584E-10
        84  15 -3.133597E+06 -1.130185E+03 -5.284277E+03 -1.676411E+04 -1.352827E-09  1.488719E-09
        84  16 -3.529468E+06 -9.908944E+04 -1.017615E+05 -1.527739E+04 -3.287453E-09 -1.119093E-09
        84  17 -3.555763E+06 -1.054703E+05 -1.088841E+05  2.384325E+04  5.594930E-10 -1.145166E-09
        84  18 -3.579803E+06 -1.130424E+05 -1.169531E+05 -1.603158E+04 -1.739906E-09 -8.647778E-11
        84  19 -2.737674E+06  9.950856E+04  9.658530E+04 -1.824400E+04 -4.927823E+02  1.895444E+03
        84  20 -2.713596E+06  1.057067E+05  1.018500E+05  2.162384E+04 -2.053412E+03  3.491246E+03
        84  21 -2.687210E+06  1.107670E+05  1.063695E+05 -1.749707E+04 -3.620922E+03  3.881856E+03
        84  22 -3.133643E+06  2.155162E+02 -2.582138E+03 -1.676031E+04 -2.305998E+02  1.894293E+03
        84  23 -3.134760E+06  1.249532E+02 -3.510320E+03  2.273385E+04 -1.934382E+03  3.490970E+03
        84  24 -3.133597E+06 -1.130165E+03 -5.284224E+03 -1.676413E+04 -3.644982E+03  3.882094E+03
        84  25 -3.529468E+06 -9.908944E+04 -1.017615E+05 -1.527739E+04  3.141486E+01  1.893142E+03
        84  26 -3.555763E+06 -1.054703E+05 -1.088841E+05  2.384325E+04 -1.815432E+03  3.490694E+03
        84  27 -3.579803E+06 -1.130424E+05 -1.169530E+05 -1.603159E+04 -3.669022E+03  3.882332E+03
        85   1 -2.502844E+06  1.583477E+05  1.514193E+05  3.303650E+02  4.832372E+03 -4.347687E+03
        85   2 -2.506310E+06  1.591007E+05  1.461523E+05 -3.626170E+01  1.022504E+04 -5.199087E+03
        85   3 -2.504897E+06  1.509150E+05  1.367025E+05  2.749980E+03  1.561776E+04 -4.278220E+03
        85   4 -3.133089E+06  3.620409E+02 -6.292952E+03  1.491119E+03  4.622363E+03 -4.347602E+03
        85   5 -3.135517E+06  1.391663E+03 -1.123265E+04 -8.121758E+01  1.022211E+04 -5.199422E+03
        85   6 -3.133110E+06 -6.562023E+03 -2.050392E+04  1.499547E+03  1.582192E+04 -4.278207E+03
        85   7 -3.762973E+06 -1.576537E+05 -1.640353E+05  2.650845E+03  4.412567E+03 -4.347518E+03
        85   8 -3.764364E+06 -1.563474E+05 -1.686476E+05 -1.261169E+02  1.021918E+04 -5.199757E+03
        85   9 -3.760963E+06 -1.640690E+05 -1.777402E+05  2.502504E+02  1.602587E+04 -4.278196E+03
        85  10 -2.502844E+06  1.583476E+05  1.514192E+05  3.303819E+02 -1.423239E-09  1.359191E-09
        85  11 -2.506310E+06  1.591006E+05  1.461521E+05 -3.621886E+01  4.555134E-10 -1.070587E-10
        85  12 -2.504898E+06  1.509149E+05  1.367020E+05  2.750034E+03  1.597287E-09  1.417321E-10
        85  13 -3.133089E+06  3.620149E+02 -6.293028E+03  1.491135E+03  1.633183E-09  1.369291E-10
        85  14 -3.135518E+06  1.391605E+03 -1.123290E+04 -8.117473E+01  1.884163E-09 -1.114319E-09
        85  15 -3.133110E+06 -6.562111E+03 -2.050443E+04  1.499601E+03  2.063566E-09  7.846022E-10
        85  16 -3.762973E+06 -1.576537E+05 -1.640354E+05  2.650860E+03  1.215701E-09 -9.407565E-11
        85  17 -3.764364E+06 -1.563474E+05 -1.686479E+05 -1.260740E+02 -1.806207E-09  1.068803E-10
        85  18 -3.760963E+06 -1.640691E+05 -1.777408E+05  2.503057E+02 -5.934866E-11  3.112261E-10
        85  19 -2.502844E+06  1.583477E+05  1.514193E+05  3.303650E+02 -4.832372E+03  4.347687E+03
        85  20 -2.506310E+06  1.591007E+05  1.461523E+05 -3.626170E+01 -1.022504E+04  5.199087E+03
        85  21 -2.504897E+06  1.509150E+05  1.367025E+05  2.749980E+03 -1.561776E+04  4.278220E+03
        85  22 -3.133089E+06  3.620409E+02 -6.292952E+03  1.491119E+03 -4.622363E+03  4.347602E+03
        85  23 -3.135517E+06  1.391663E+03 -1.123265E+04 -8.121758E+01 -1.022211E+04  5.199422E+03
        85  24 -3.133110E+06 -6.562023E+03 -2.050392E+04  1.499547E+03 -1.582192E+04  4.278207E+03
        85  25 -3.762973E+06 -1.576537E+05 -1.640353E+05  2.650845E+03 -4.412567E+03  4.347518E+03
        85  26 -3.764364E+06 -1.563474E+05 -1.686476E+05 -1.261169E+02 -1.021918E+04  5.199757E+03
        85  27 -3.760963E+06 -1.640690E+05 -1.777402E+05  2.502504E+02 -1.602587E+04  4.278196E+03
        86   1 -2.718342E+06  1.064029E+05  7.893792E+04  1.805708E+04  1.994922E+04 -3.666255E+03
        86   2 -2.736765E+06  1.088350E+05  5.637576E+04 -2.053282E+04  4.180242E+04 -3.063267E+03
        86   3 -2.771544E+06  4.784274E+04  4.163471E+03  2.417283E+04  6.364992E+04 -1.614853E+03
        86   4 -3.137739E+06  1.281195E+03 -2.596005E+04  1.924404E+04  1.995600E+04 -3.666337E+03
        86   5 -3.129616E+06  1.034356E+04 -4.190936E+04 -2.231112E+04  4.189819E+04 -3.063140E+03
        86   6 -3.137876E+06 -4.405604E+04 -8.758338E+04  1.943268E+04  6.383561E+04 -1.614496E+03
        86   7 -3.556976E+06 -1.038539E+05 -1.308713E+05  2.043011E+04  1.996278E+04 -3.666418E+03
        86   8 -3.522326E+06 -8.815956E+04 -1.402062E+05 -2.408840E+04  4.199389E+04 -3.063013E+03
        86   9 -3.504086E+06 -1.359650E+05 -1.793404E+05  1.469521E+04  6.402117E+04 -1.614142E+03
        86  10 -2.718342E+06  1.064028E+05  7.893714E+04  1.805714E+04 -1.662771E-10  8.330087E-10
        86  11 -2.736767E+06  1.088345E+05  5.637245E+04 -2.053271E+04 -9.568230E-10  1.840195E-09
        86  12 -2.771548E+06  4.784165E+04  4.155819E+03  2.417291E+04  2.539716E-09 -3.675365E-10
        86  13 -3.137740E+06  1.281073E+03 -2.596082E+04  1.924410E+04  2.819325E-10 -3.045000E-11
        86  14 -3.129618E+06  1.034308E+04 -4.191269E+04 -2.231101E+04  1.580269E-09 -4.781518E-10
        86  15 -3.137880E+06 -4.405714E+04 -8.759108E+04  1.943277E+04  1.758533E-09 -1.885338E-10
        86  16 -3.556976E+06 -1.038540E+05 -1.308721E+05  2.043017E+04 -9.302366E-10  5.899175E-10
        86  17 -3.522328E+06 -8.816005E+04 -1.402095E+05 -2.408830E+04  3.180851E-09 -2.163091E-09
        86  18 -3.504090E+06 -1.359661E+05 -1.793482E+05  1.469529E+04 -2.241153E-09 -2.122923E-09
        86  19 -2.718342E+06  1.064029E+05  7.893792E+04  1.805708E+04 -1.994922E+04  3.666255E+03
        86  20 -2.736765E+06  1.088350E+05  5.637576E+04 -2.053282E+04 -4.180242E+04  3.063267E+03
        86  21 -2.771544E+06  4.784274E+04  4.163471E+03  2.417283E+04 -6.364992E+04  1.614853E+03
        86  22 -3.137739E+06  1.281195E+03 -2.596005E+04  1.924404E+04 -1.995600E+04  3.666337E+03
        86  23 -3.129616E+06  1.034356E+04 -4.190936E+04 -2.231112E+04 -4.189819E+04  3.063140E+03
        86  24 -3.137876E+06 -4.405604E+04 -8.758338E+04  1.943268E+04 -6.383561E+04  1.614496E+03
        86  25 -3.556976E+06 -1.038539E+05 -1.308713E+05  2.043011E+04 -1.996278E+04  3.666418E+03
        86  26 -3.522326E+06 -8.815956E+04 -1.402062E+05 -2.408840E+04 -4.199389E+04  3.063013E+03
        86  27 -3.504086E+06 -1.359650E+05 -1.793404E+05  1.469521E+04 -6.402117E+04  1.614142E+03
        87   1 -3.247549E+06 -1.252104E+04 -1.280608E+05  1.158354E+04  8.095405E+04 -3.855190E+01
        87   2 -3.222907E+06  3.782850E+04 -1.915372E+05 -2.258090E+04  1.694006E+05  2.031718E+03
        87   3 -3.314789E+06 -3.278929E+05 -4.169815E+05  4.858359E+04  2.578554E+05  1.659218E+03
        87   4 -3.159950E+06  9.598018E+03 -1.060237E+05  2.379227E+04  8.131036E+04 -3.538702E+01
        87   5 -3.101947E+06  6.809243E+04 -1.613045E+05 -2.829596E+04  1.694799E+05  2.030360E+03
        87   6 -3.160392E+06 -2.893915E+05 -3.783335E+05  2.494576E+04  2.576626E+05  1.648404E+03
        87   7 -3.072343E+06  3.171704E+04 -8.398711E+04  3.600273E+04  8.166673E+04 -3.220837E+01
        87   8 -2.980972E+06  9.835539E+04 -1.310728E+05 -3.401215E+04  1.695593E+05  2.029001E+03
        87   9 -3.005971E+06 -2.508898E+05 -3.396871E+05  1.301994E+03  2.574697E+05  1.637608E+03
        87  10 -3.247556E+06 -1.252281E+04 -1.280732E+05  1.158354E+04  2.190190E-09  3.167055E-09
        87  11 -3.222938E+06  3.782074E+04 -1.915914E+05 -2.258118E+04  2.946456E-09  2.517305E-09
        87  12 -3.314861E+06 -3.279109E+05 -4.171071E+05  4.858325E+04 -7.523966E-10  1.226446E-10
        87  13 -3.159957E+06  9.596232E+03 -1.060362E+05  2.379228E+04 -2.122688E-09  1.327767E-09
        87  14 -3.101977E+06  6.808467E+04 -1.613587E+05 -2.829624E+04 -1.492068E-09  1.069017E-09
        87  15 -3.160463E+06 -2.894095E+05 -3.784589E+05  2.494541E+04 -2.695437E-09  6.677815E-10
        87  16 -3.072351E+06  3.171523E+04 -8.399971E+04  3.600273E+04 -3.039001E-09  8.309780E-10
        87  17 -2.981003E+06  9.834762E+04 -1.311271E+05 -3.401243E+04 -4.714217E-09  3.597258E-09
        87  18 -3.006043E+06 -2.509077E+05 -3.398122E+05  1.301654E+03 -1.453949E-09 -2.727505E-10
        87  19 -3.247549E+06 -1.252104E+04 -1.280608E+05  1.158354E+04 -8.095405E+04  3.855190E+01
        87  20 -3.222907E+06  3.782850E+04 -1.915372E+05 -2.258090E+04 -1.694006E+05 -2.031718E+03
        87  21 -3.314789E+06 -3.278929E+05 -4.169815E+05  4.858359E+04 -2.578554E+05 -1.659218E+03
        87  22 -3.159950E+06  9.598018E+03 -1.060237E+05  2.379227E+04 -8.131036E+04  3.538702E+01
        87  23 -3.101947E+06  6.809243E+04 -1.613045E+05 -2.829596E+04 -1.694799E+05 -2.030360E+03
        87  24 -3.160392E+06 -2.893915E+05 -3.783335E+05  2.494576E+04 -2.576626E+05 -1.648404E+03
        87  25 -3.072343E+06  3.171704E+04 -8.398711E+04  3.600273E+04 -8.166673E+04  3.220837E+01
        87  26 -2.980972E+06  9.835539E+04 -1.310728E+05 -3.401215E+04 -1.695593E+05 -2.029001E+03
        87  27 -3.005971E+06 -2.508898E+05 -3.396871E+05  1.301994E+03 -2.574697E+05 -1.637608E+03
        88   1  3.826758E+05  4.904911E+05  4.231370E+05 -7.099956E+04  2.565897E+03  1.253826E+05
        88   2  1.972383E+05  4.016279E+05  3.029738E+05  2.025979E+04  7.961339E+03  8.373361E+04
        88   3  2.122726E+05  3.817197E+05  2.627348E+05 -5.760339E+04  4.531515E+03  4.202228E+04
        88   4  1.387564E+05 -4.847712E+05  1.795697E+05 -5.568018E+04  2.575475E+03  1.241017E+05
        88   5 -3.297973E+04 -5.193231E+05  7.338922E+04  2.848929E+04  7.963798E+03  8.356940E+04
        88   6 -4.290726E+03 -4.850466E+05  4.644236E+04 -5.647803E+04  4.522012E+03  4.297102E+04
        88   7 -1.052340E+05 -1.459171E+06 -6.406920E+04 -4.038364E+04  2.585000E+03  1.228227E+05
        88   8 -2.632616E+05 -1.439505E+06 -1.562591E+05  3.670805E+04  7.966256E+03  8.340536E+04
        88   9 -2.209107E+05 -1.351132E+06 -1.699066E+05 -5.535249E+04  4.512505E+03  4.391840E+04
        88  10  3.826716E+05  4.904742E+05  4.231075E+05 -7.099982E+04 -1.794178E-09  1.021752E-09
        88  11  1.972364E+05  4.016204E+05  3.029605E+05  2.025926E+04  2.793192E-10  3.529584E-10
        88  12  2.122721E+05  3.817178E+05  2.627314E+05 -5.760354E+04 -2.156731E-09 -1.139000E-09
        88  13  1.387523E+05 -4.847877E+05  1.795408E+05 -5.568044E+04 -3.251778E-09 -1.649411E-11
        88  14 -3.298168E+04 -5.193307E+05  7.337597E+04  2.848876E+04  5.031573E-09  8.401491E-11
        88  15 -4.291244E+03 -4.850486E+05  4.643885E+04 -5.647818E+04 -4.279904E-10  9.850030E-11
        88  16 -1.052381E+05 -1.459187E+06 -6.409763E+04 -4.038390E+04  3.695389E-10 -9.598194E-10
        88  17 -2.632635E+05 -1.439513E+06 -1.562724E+05  3.670751E+04  1.068543E-09 -2.683320E-10
        88  18 -2.209112E+05 -1.351134E+06 -1.699103E+05 -5.535265E+04  1.643697E-09  1.032720E-09
        88  19  3.826758E+05  4.904911E+05  4.231370E+05 -7.099956E+04 -2.565897E+03 -1.253826E+05
        88  20  1.972383E+05  4.016279E+05  3.029738E+05  2.025979E+04 -7.961339E+03 -8.373361E+04
        88  21  2.122726E+05  3.817197E+05  2.627348E+05 -5.760339E+04 -4.531515E+03 -4.202228E+04
        88  22  1.387564E+05 -4.847712E+05  1.795697E+05 -5.568018E+04 -2.575475E+03 -1.241017E+05
        88  23 -3.297973E+04 -5.193231E+05  7.338922E+04  2.848929E+04 -7.963798E+03 -8.356940E+04
        88  24 -4.290726E+03 -4.850466E+05  4.644236E+04 -5.647803E+04 -4.522012E+03 -4.297102E+04
        88  25 -1.052340E+05 -1.459171E+06 -6.406920E+04 -4.038364E+04 -2.585000E+03 -1.228227E+05
        88  26 -2.632616E+05 -1.439505E+06 -1.562591E+05  3.670805E+04 -7.966256E+03 -8.340536E+04
        88  27 -2.209107E+05 -1.351132E+06 -1.699066E+05 -5.535249E+04 -4.512505E+03 -4.391840E+04
        89   1  3.978495E+04 -4.289257E+05  5.303982E+04 -6.026715E+04  1.354588E+03  3.522259E+04
        89   2  5.663474E+02 -4.867913E+05  1.321606E+04  3.095333E+04 -2.134111E+02  3.004552E+04
        89   3 -2.161091E+04 -5.445717E+05 -1.995951E+04 -5.857787E+04 -1.819445E+03  2.486843E+04
        89   4  2.198364E+04 -5.000499E+05  3.537782E+04 -5.855083E+04  1.352609E+03  3.541340E+04
        89   5 -2.778334E+03 -5.001003E+05  9.892076E+03  3.165070E+04 -2.154934E+02  3.024210E+04
        89   6 -1.049881E+04 -5.000677E+05 -8.947305E+03 -5.889962E+04 -1.821625E+03  2.507030E+04
        89   7  4.181953E+03 -5.711694E+05  1.771545E+04 -5.683469E+04  1.350630E+03  3.560418E+04
        89   8 -6.123028E+03 -5.134092E+05  6.568075E+03  3.234806E+04 -2.175753E+02  3.043867E+04
        89   9  6.131486E+02 -4.555620E+05  2.064749E+03 -5.922139E+04 -1.823806E+03  2.527219E+04
        89  10  3.978462E+04 -4.289270E+05  5.303748E+04 -6.026719E+04 -3.307008E-10 -2.121464E-10
        89  11  5.661048E+02 -4.867922E+05  1.321437E+04  3.095334E+04  2.195351E-09  1.374226E-11
        89  12 -2.161108E+04 -5.445724E+05 -1.996068E+04 -5.857783E+04  4.356856E-09  2.478998E-10
        89  13  2.198330E+04 -5.000512E+05  3.537546E+04 -5.855087E+04  1.777468E-09  4.051888E-11
        89  14 -2.778580E+03 -5.001013E+05  9.890356E+03  3.165071E+04  8.175247E-10 -4.039881E-11
        89  15 -1.049898E+04 -5.000684E+05 -8.948494E+03 -5.889958E+04  3.680335E-09  2.948374E-11
        89  16  4.181610E+03 -5.711708E+05  1.771306E+04 -5.683473E+04 -3.743238E-09  1.951431E-10
        89  17 -6.123277E+03 -5.134102E+05  6.566332E+03  3.234806E+04 -1.210009E-09  2.048146E-11
        89  18  6.129735E+02 -4.555627E+05  2.063542E+03 -5.922136E+04 -2.352620E-09 -1.887411E-10
        89  19  3.978495E+04 -4.289257E+05  5.303982E+04 -6.026715E+04 -1.354588E+03 -3.522259E+04
        89  20  5.663474E+02 -4.867913E+05  1.321606E+04  3.095333E+04  2.134111E+02 -3.004552E+04
        89  21 -2.161091E+04 -5.445717E+05 -1.995951E+04 -5.857787E+04  1.819445E+03 -2.486843E+04
        89  22  2.198364E+04 -5.000499E+05  3.537782E+04 -5.855083E+04 -1.352609E+03 -3.541340E+04
        89  23 -2.778334E+03 -5.001003E+05  9.892076E+03  3.165070E+04  2.154934E+02 -3.024210E+04
        89  24 -1.049881E+04 -5.000677E+05 -8.947305E+03 -5.889962E+04  1.821625E+03 -2.507030E+04
        89  25  4.181953E+03 -5.711694E+05  1.771545E+04 -5.683469E+04 -1.350630E+03 -3.560418E+04
        89  26 -6.123028E+03 -5.134092E+05  6.568075E+03  3.234806E+04  2.175753E+02 -3.043867E+04
        89  27  6.131486E+02 -4.555620E+05  2.064749E+03 -5.922139E+04  1.823806E+03 -2.527219E+04
        90   1 -2.034013E+05 -1.344334E+06 -2.250720E+05 -4.710829E+04 -5.024437E+03  2.610785E+04
        90   2 -2.096706E+05 -1.392410E+06 -2.585774E+05  3.247710E+04 -8.754868E+03  4.607248E+04
        90   3 -3.047405E+05 -1.452863E+06 -3.248271E+05 -5.822926E+04 -3.554358E+03  6.610383E+04
        90   4  7.226079E+03 -5.030225E+05 -1.486046E+04 -5.622513E+04 -5.034173E+03  2.709180E+04
        90   5  1.435488E+04 -4.968479E+05 -3.508998E+04  2.868769E+04 -8.753513E+03  4.601111E+04
        90   6 -6.705488E+04 -5.028205E+05 -8.729795E+04 -5.667633E+04 -3.547184E+03  6.499890E+04
        90   7  2.178002E+05  3.389316E+05  1.952977E+05 -6.535268E+04 -5.043930E+03  2.807707E+04
        90   8  2.383198E+05  3.994428E+05  1.883370E+05  2.489421E+04 -8.752159E+03  4.594961E+04
        90   9  1.705626E+05  4.480410E+05  1.501631E+05 -5.511982E+04 -3.540021E+03  6.389221E+04
        90  10 -2.034015E+05 -1.344335E+06 -2.250734E+05 -4.710818E+04 -8.630501E-10 -3.179227E-10
        90  11 -2.096712E+05 -1.392412E+06 -2.585815E+05  3.247742E+04 -3.066952E-09 -1.876855E-10
        90  12 -3.047417E+05 -1.452867E+06 -3.248354E+05 -5.822907E+04 -4.771113E-10  3.356140E-10
        90  13  7.225854E+03 -5.030233E+05 -1.486189E+04 -5.622502E+04 -2.358460E-09 -2.996413E-11
        90  14  1.435422E+04 -4.968502E+05 -3.509411E+04  2.868801E+04 -8.113532E-11  2.589470E-11
        90  15 -6.705603E+04 -5.028251E+05 -8.730592E+04 -5.667615E+04 -1.511803E-10 -5.778634E-11
        90  16  2.177999E+05  3.389307E+05  1.952962E+05 -6.535257E+04 -1.949095E-09  2.642360E-10
        90  17  2.383192E+05  3.994405E+05  1.883329E+05  2.489454E+04 -1.368631E-09  2.285453E-10
        90  18  1.705614E+05  4.480366E+05  1.501554E+05 -5.511964E+04  1.666808E-10 -3.070718E-10
        90  19 -2.034013E+05 -1.344334E+06 -2.250720E+05 -4.710829E+04  5.024437E+03 -2.610785E+04
        90  20 -2.096706E+05 -1.392410E+06 -2.585774E+05  3.247710E+04  8.754868E+03 -4.607248E+04
        90  21 -3.047405E+05 -1.452863E+06 -3.248271E+05 -5.822926E+04  3.554358E+03 -6.610383E+04
        90  22  7.226079E+03 -5.030225E+05 -1.486046E+04 -5.622513E+04  5.034173E+03 -2.709180E+04
        90  23  1.435488E+04 -4.968479E+05 -3.508998E+04  2.868769E+04  8.753513E+03 -4.601111E+04
        90  24 -6.705488E+04 -5.028205E+05 -8.729795E+04 -5.667633E+04  3.547184E+03 -6.499890E+04
        90  25  2.178002E+05  3.389316E+05  1.952977E+05 -6.535268E+04  5.043930E+03 -2.807707E+04
        90  26  2.383198E+05  3.994428E+05  1.883370E+05  2.489421E+04  8.752159E+03 -4.594961E+04
        90  27  1.705626E+05  4.480410E+05  1.501631E+05 -5.511982E+04  3.540021E+03 -6.389221E+04
        91   1 -6.615849E+06 -2.116855E+06 -1.334440E+06 -2.342272E+06 -6.657905E+05 -2.385384E+05
        91   2 -6.454101E+06 -1.138390E+06 -7.189634E+05 -2.452293E+06 -4.315436E+05 -1.205207E+05
        91   3 -6.652860E+06 -1.113172E+06 -5.415976E+05 -2.345348E+06 -1.869786E+05 -2.961054E+04
        91   4 -5.625394E+06 -1.519503E+06 -1.018963E+06 -1.848243E+06 -6.482729E+05 -2.321783E+05
        91   5 -5.391972E+06 -6.727041E+05 -4.241338E+05 -2.097320E+06 -4.264136E+05 -1.186347E+05
        91   6 -5.515994E+06 -7.758001E+05 -2.569798E+05 -2.129624E+06 -1.942180E+05 -3.232025E+04
        91   7 -4.633856E+06 -9.215394E+05 -7.035761E+05 -1.353347E+06 -6.307237E+05 -2.257901E+05
        91   8 -4.328726E+06 -2.068340E+05 -1.294096E+05 -1.741751E+06 -4.212733E+05 -1.167433E+05
        91   9 -4.377853E+06 -4.384491E+05  2.754448E+04 -1.913594E+06 -2.014719E+05 -3.503271E+04
        91  10 -6.616345E+06 -2.117038E+06 -1.335391E+06 -2.342401E+06  3.910205E-10 -7.634484E-11
        91  11 -6.454307E+06 -1.138457E+06 -7.193452E+05 -2.452335E+06  7.228061E-10  6.181732E-10
        91  12 -6.652898E+06 -1.113182E+06 -5.416657E+05 -2.345352E+06  1.519416E-09  8.298777E-10
        91  13 -5.625863E+06 -1.519675E+06 -1.019863E+06 -1.848366E+06 -5.039667E-09 -2.287069E-10
        91  14 -5.392173E+06 -6.727687E+05 -4.245057E+05 -2.097361E+06  2.264149E-09 -3.501453E-10
        91  15 -5.516035E+06 -7.758115E+05 -2.570533E+05 -2.129629E+06  8.275174E-10  2.608380E-10
        91  16 -4.634300E+06 -9.217024E+05 -7.044264E+05 -1.353462E+06 -6.745065E-10 -4.272105E-10
        91  17 -4.328921E+06 -2.068969E+05 -1.297716E+05 -1.741791E+06 -9.591163E-10 -6.798832E-10
        91  18 -4.377897E+06 -4.384615E+05  2.746527E+04 -1.913599E+06 -1.335291E-09 -4.434500E-11
        91  19 -6.615849E+06 -2.116855E+06 -1.334440E+06 -2.342272E+06  6.657905E+05  2.385384E+05
        91  20 -6.454101E+06 -1.138390E+06 -7.189634E+05 -2.452293E+06  4.315436E+05  1.205207E+05
        91  21 -6.652860E+06 -1.113172E+06 -5.415976E+05 -2.345348E+06  1.869786E+05  2.961054E+04
        91  22 -5.625394E+06 -1.519503E+06 -1.018963E+06 -1.848243E+06  6.482729E+05  2.321783E+05
        91  23 -5.391972E+06 -6.727041E+05 -4.241338E+05 -2.097320E+06  4.264136E+05  1.186347E+05
        91  24 -5.515994E+06 -7.758001E+05 -2.569798E+05 -2.129624E+06  1.942180E+05  3.232025E+04
        91  25 -4.633856E+06 -9.215394E+05 -7.035761E+05 -1.353347E+06  6.307237E+05  2.257901E+05
        91  26 -4.328726E+06 -2.068340E+05 -1.294096E+05 -1.741751E+06  4.212733E+05  1.167433E+05
        91  27 -4.377853E+06 -4.384491E+05  2.754448E+04 -1.913594E+06  2.014719E+05  3.503271E+04
        92   1 -6.449570E+06 -1.276172E+06 -4.725051E+05 -2.360831E+06 -1.561385E+05 -2.381521E+04
        92   2 -6.383295E+06 -1.123790E+06 -3.438260E+05 -2.332505E+06 -1.028067E+05 -4.379902E+03
        92   3 -6.320555E+06 -1.115956E+06 -2.829433E+05 -2.325261E+06 -4.845374E+04  1.235683E+04
        92   4 -5.479355E+06 -8.863403E+05 -2.091523E+05 -2.072936E+06 -1.559607E+05 -2.375873E+04
        92   5 -5.471704E+06 -7.731574E+05 -9.995640E+04 -2.077811E+06 -1.038124E+05 -4.763779E+03
        92   6 -5.467287E+06 -8.041848E+05 -5.752728E+04 -2.103780E+06 -5.064893E+04  1.152888E+04
        92   7 -4.508220E+06 -4.964191E+05  5.411460E+04 -1.784619E+06 -1.557825E+05 -2.370205E+04
        92   8 -4.559301E+06 -4.224663E+05  1.438398E+05 -1.822772E+06 -1.048196E+05 -5.148256E+03
        92   9 -4.613308E+06 -4.923802E+05  1.678267E+05 -1.882026E+06 -5.284745E+04  1.069977E+04
        92  10 -6.449596E+06 -1.276179E+06 -4.725525E+05 -2.360834E+06  6.636704E-09  3.282491E-09
        92  11 -6.383307E+06 -1.123793E+06 -3.438461E+05 -2.332505E+06  2.107906E-09  1.809045E-09
        92  12 -6.320557E+06 -1.115957E+06 -2.829480E+05 -2.325260E+06 -6.813326E-09 -2.016375E-09
        92  13 -5.479381E+06 -8.863475E+05 -2.091995E+05 -2.072939E+06  2.646857E-09  1.048381E-09
        92  14 -5.471716E+06 -7.731603E+05 -9.997688E+04 -2.077811E+06  5.299350E-09  1.165734E-09
        92  15 -5.467290E+06 -8.041857E+05 -5.753238E+04 -2.103780E+06 -3.806087E-09 -3.916803E-10
        92  16 -4.508247E+06 -4.964263E+05  5.406757E+04 -1.784622E+06 -2.061870E-09 -3.872210E-10
        92  17 -4.559313E+06 -4.224693E+05  1.438189E+05 -1.822772E+06  1.591346E-09  2.397342E-09
        92  18 -4.613311E+06 -4.923811E+05  1.678213E+05 -1.882025E+06  3.775097E-09  2.172254E-09
        92  19 -6.449570E+06 -1.276172E+06 -4.725051E+05 -2.360831E+06  1.561385E+05  2.381521E+04
        92  20 -6.383295E+06 -1.123790E+06 -3.438260E+05 -2.332505E+06  1.028067E+05  4.379902E+03
        92  21 -6.320555E+06 -1.115956E+06 -2.829433E+05 -2.325261E+06  4.845374E+04 -1.235683E+04
        92  22 -5.479355E+06 -8.863403E+05 -2.091523E+05 -2.072936E+06  1.559607E+05  2.375873E+04
        92  23 -5.471704E+06 -7.731574E+05 -9.995640E+04 -2.077811E+06  1.038124E+05  4.763779E+03
        92  24 -5.467287E+06 -8.041848E+05 -5.752728E+04 -2.103780E+06  5.064893E+04 -1.152888E+04
        92  25 -4.508220E+06 -4.964191E+05  5.411460E+04 -1.784619E+06  1.557825E+05  2.370205E+04
        92  26 -4.559301E+06 -4.224663E+05  1.438398E+05 -1.822772E+06  1.048196E+05  5.148256E+03
        92  27 -4.613308E+06 -4.923802E+05  1.678267E+05 -1.882026E+06  5.284745E+04 -1.069977E+04
        93   1 -6.181908E+06 -1.093284E+06 -2.372456E+05 -2.298923E+06 -3.985649E+04  1.280867E+04
        93   2 -6.113275E+06 -1.018954E+06 -1.907452E+05 -2.243618E+06 -2.641704E+04  1.359724E+04
        93   3 -5.995324E+06 -1.010679E+06 -1.562409E+05 -2.248115E+06 -1.278029E+04  1.384715E+04
        93   4 -5.460131E+06 -8.187472E+05 -4.497232E+04 -2.100339E+06 -4.150443E+04  1.218690E+04
        93   5 -5.484128E+06 -7.811888E+05 -2.326027E+04 -2.072134E+06 -2.830307E+04  1.288766E+04
        93   6 -5.458763E+06 -8.096252E+05 -1.334169E+04 -2.103730E+06 -1.490652E+04  1.304922E+04
        93   7 -4.737846E+06 -5.441768E+05  1.472552E+05 -1.901545E+06 -4.315447E+04  1.156434E+04
        93   8 -4.854596E+06 -5.433999E+05  1.441898E+05 -1.900492E+06 -3.019121E+04  1.217728E+04
        93   9 -4.921924E+06 -6.085556E+05  1.295319E+05 -1.959232E+06 -1.703478E+04  1.225054E+04
        93  10 -6.181910E+06 -1.093284E+06 -2.372489E+05 -2.298922E+06 -4.022841E-10 -1.982078E-09
        93  11 -6.113276E+06 -1.018954E+06 -1.907469E+05 -2.243618E+06 -2.992263E-09  5.367240E-10
        93  12 -5.995324E+06 -1.010679E+06 -1.562416E+05 -2.248114E+06  8.571966E-10  4.883853E-10
        93  13 -5.460133E+06 -8.187478E+05 -4.497585E+04 -2.100339E+06 -6.095482E-09 -1.276036E-09
        93  14 -5.484129E+06 -7.811892E+05 -2.326209E+04 -2.072134E+06 -1.325482E-09  2.745988E-10
        93  15 -5.458764E+06 -8.096255E+05 -1.334243E+04 -2.103730E+06 -2.785688E-10  6.747439E-10
        93  16 -4.737848E+06 -5.441775E+05  1.472515E+05 -1.901544E+06 -5.532841E-10 -6.726042E-10
        93  17 -4.854597E+06 -5.434003E+05  1.441878E+05 -1.900492E+06 -2.806295E-09 -7.508602E-10
        93  18 -4.921924E+06 -6.085559E+05  1.295311E+05 -1.959232E+06  7.013164E-10  1.299231E-09
        93  19 -6.181908E+06 -1.093284E+06 -2.372456E+05 -2.298923E+06  3.985649E+04 -1.280867E+04
        93  20 -6.113275E+06 -1.018954E+06 -1.907452E+05 -2.243618E+06  2.641704E+04 -1.359724E+04
        93  21 -5.995324E+06 -1.010679E+06 -1.562409E+05 -2.248115E+06  1.278029E+04 -1.384715E+04
        93  22 -5.460131E+06 -8.187472E+05 -4.497232E+04 -2.100339E+06  4.150443E+04 -1.218690E+04
        93  23 -5.484128E+06 -7.811888E+05 -2.326027E+04 -2.072134E+06  2.830307E+04 -1.288766E+04
        93  24 -5.458763E+06 -8.096252E+05 -1.334169E+04 -2.103730E+06  1.490652E+04 -1.304922E+04
        93  25 -4.737846E+06 -5.441768E+05  1.472552E+05 -1.901545E+06  4.315447E+04 -1.156434E+04
        93  26 -4.854596E+06 -5.433999E+05  1.441898E+05 -1.900492E+06  3.019121E+04 -1.217728E+04
        93  27 -4.921924E+06 -6.085556E+05  1.295319E+05 -1.959232E+06  1.703478E+04 -1.225054E+04
        94   1 -5.842137E+06 -9.580124E+05 -1.127032E+05 -2.209855E+06 -9.860751E+03  1.192322E+04
        94   2 -5.765337E+06 -8.849718E+05 -8.033611E+04 -2.144928E+06 -4.861758E+03  8.554868E+03
        94   3 -5.626952E+06 -8.758007E+05 -5.078411E+04 -2.151415E+06  1.990552E+02  5.013616E+03
        94   4 -5.456501E+06 -8.126233E+05 -1.048413E+04 -2.104992E+06 -1.197452E+04  1.113089E+04
        94   5 -5.487215E+06 -7.802144E+05 -6.378313E+03 -2.069460E+06 -7.054525E+03  7.733729E+03
        94   6 -5.456345E+06 -8.116576E+05 -5.023018E+03 -2.105344E+06 -2.073397E+03  4.163525E+03
        94   7 -5.070717E+06 -6.672246E+05  9.172249E+04 -2.000068E+06 -1.408974E+04  1.033801E+04
        94   8 -5.209018E+06 -6.754525E+05  6.757262E+04 -1.993961E+06 -9.248377E+03  6.912184E+03
        94   9 -5.285710E+06 -7.475133E+05  4.073516E+04 -2.059262E+06 -4.346524E+03  3.313183E+03
        94  10 -5.842137E+06 -9.580126E+05 -1.127036E+05 -2.209855E+06  8.826273E-10 -1.365503E-10
        94  11 -5.765337E+06 -8.849719E+05 -8.033629E+04 -2.144928E+06 -1.195512E-09 -5.193493E-10
        94  12 -5.626952E+06 -8.758007E+05 -5.078416E+04 -2.151415E+06 -4.595752E-09  7.938385E-10
        94  13 -5.456501E+06 -8.126235E+05 -1.048463E+04 -2.104991E+06 -4.015466E-10  3.117485E-10
        94  14 -5.487215E+06 -7.802145E+05 -6.378519E+03 -2.069460E+06 -7.893802E-10 -4.489850E-10
        94  15 -5.456345E+06 -8.116576E+05 -5.023059E+03 -2.105344E+06  2.472525E-09  8.905167E-10
        94  16 -5.070717E+06 -6.672248E+05  9.172191E+04 -2.000068E+06  1.986360E-09  7.555863E-10
        94  17 -5.209018E+06 -6.754526E+05  6.757237E+04 -1.993961E+06  4.565541E-09 -1.073719E-10
        94  18 -5.285710E+06 -7.475133E+05  4.073510E+04 -2.059262E+06  3.553629E-09  3.044840E-10
        94  19 -5.842137E+06 -9.580124E+05 -1.127032E+05 -2.209855E+06  9.860751E+03 -1.192322E+04
        94  20 -5.765337E+06 -8.849718E+05 -8.033611E+04 -2.144928E+06  4.861758E+03 -8.554868E+03
        94  21 -5.626952E+06 -8.758007E+05 -5.078411E+04 -2.151415E+06 -1.990552E+02 -5.013616E+03
        94  22 -5.456501E+06 -8.126233E+05 -1.048413E+04 -2.104992E+06  1.197452E+04 -1.113089E+04
        94  23 -5.487215E+06 -7.802144E+05 -6.378313E+03 -2.069460E+06  7.054525E+03 -7.733729E+03
        94  24 -5.456345E+06 -8.116576E+05 -5.023018E+03 -2.105344E+06  2.073397E+03 -4.163525E+03
        94  25 -5.070717E+06 -6.672246E+05  9.172249E+04 -2.000068E+06  1.408974E+04 -1.033801E+04
        94  26 -5.209018E+06 -6.754525E+05  6.757262E+04 -1.993961E+06  9.248377E+03 -6.912184E+03
        94  27 -5.285710E+06 -7.475133E+05  4.073516E+04 -2.059262E+06  4.346524E+03 -3.313183E+03
        95   1 -5.464176E+06 -8.151668E+05 -6.786459E+03 -2.108142E+06  2.092633E+03  2.484721E+03
        95   2 -5.385495E+06 -7.413272E+05  2.086853E+04 -2.041267E+06  7.013185E+03 -1.183895E+03
        95   3 -5.243773E+06 -7.328531E+05  4.581873E+04 -2.047634E+06  1.190810E+04 -4.778375E+03
        95   4 -5.456019E+06 -8.120141E+05 -5.013834E+03 -2.105741E+06 -1.882353E+02  1.631685E+03
        95   5 -5.487598E+06 -7.797615E+05 -6.272309E+03 -2.068957E+06  4.766207E+03 -2.024604E+03
        95   6 -5.456153E+06 -8.128831E+05 -1.026192E+04 -2.105421E+06  9.694399E+03 -5.606933E+03
        95   7 -5.447863E+06 -8.088614E+05 -3.241181E+03 -2.103340E+06 -2.469144E+03  7.786320E+02
        95   8 -5.589692E+06 -8.181955E+05 -3.341421E+04 -2.096643E+06  2.519624E+03 -2.865165E+03
        95   9 -5.668491E+06 -8.929109E+05 -6.634696E+04 -2.163190E+06  7.481512E+03 -6.435185E+03
        95  10 -5.464176E+06 -8.151668E+05 -6.786479E+03 -2.108142E+06 -1.408641E-09  1.642544E-09
        95  11 -5.385495E+06 -7.413272E+05  2.086843E+04 -2.041267E+06  1.712058E-09 -3.971372E-10
        95  12 -5.243773E+06 -7.328532E+05  4.581842E+04 -2.047634E+06  7.792393E-10 -3.036758E-10
        95  13 -5.456019E+06 -8.120141E+05 -5.013839E+03 -2.105741E+06  1.602164E-09  7.657696E-10
        95  14 -5.487598E+06 -7.797615E+05 -6.272360E+03 -2.068957E+06 -9.421953E-10  2.053300E-10
        95  15 -5.456153E+06 -8.128831E+05 -1.026215E+04 -2.105421E+06 -7.737813E-10 -5.330374E-11
        95  16 -5.447863E+06 -8.088614E+05 -3.241194E+03 -2.103340E+06  2.501907E-10 -8.403853E-10
        95  17 -5.589692E+06 -8.181955E+05 -3.341423E+04 -2.096643E+06  1.124450E-09  4.827686E-11
        95  18 -5.668491E+06 -8.929110E+05 -6.634714E+04 -2.163190E+06 -4.310920E-10 -2.256768E-10
        95  19 -5.464176E+06 -8.151668E+05 -6.786459E+03 -2.108142E+06 -2.092633E+03 -2.484721E+03
        95  20 -5.385495E+06 -7.413272E+05  2.086853E+04 -2.041267E+06 -7.013185E+03  1.183895E+03
        95  21 -5.243773E+06 -7.328531E+05  4.581873E+04 -2.047634E+06 -1.190810E+04  4.778375E+03
        95  22 -5.456019E+06 -8.120141E+05 -5.013834E+03 -2.105741E+06  1.882353E+02 -1.631685E+03
        95  23 -5.487598E+06 -7.797615E+05 -6.272309E+03 -2.068957E+06 -4.766207E+03  2.024604E+03
        95  24 -5.456153E+06 -8.128831E+05 -1.026192E+04 -2.105421E+06 -9.694399E+03  5.606933E+03
        95  25 -5.447863E+06 -8.088614E+05 -3.241181E+03 -2.103340E+06  2.469144E+03 -7.786320E+02
        95  26 -5.589692E+06 -8.181955E+05 -3.341421E+04 -2.096643E+06 -2.519624E+03  2.865165E+03
        95  27 -5.668491E+06 -8.929109E+05 -6.634696E+04 -2.163190E+06 -7.481512E+03  6.435185E+03
        96   1 -5.086914E+06 -6.720954E+05  8.571036E+04 -2.005551E+06  1.487298E+04 -6.834012E+03
        96   2 -5.013901E+06 -6.019481E+05  1.026819E+05 -1.942266E+06  2.789843E+04 -7.144379E+03
        96   3 -4.887229E+06 -6.019526E+05  1.082306E+05 -1.944091E+06  4.076805E+04 -7.018419E+03
        96   4 -5.457795E+06 -8.105798E+05 -1.305735E+04 -2.104890E+06  1.263508E+04 -7.672222E+03
        96   5 -5.485260E+06 -7.799132E+05 -2.269065E+04 -2.070685E+06  2.585542E+04 -7.910984E+03
        96   6 -5.459117E+06 -8.194467E+05 -4.390872E+04 -2.101598E+06  3.891790E+04 -7.714042E+03
        96   7 -5.828539E+06 -9.490557E+05 -1.118363E+05 -2.204174E+06  1.039868E+04 -8.509884E+03
        96   8 -5.956401E+06 -9.578640E+05 -1.480820E+05 -2.199015E+06  2.381414E+04 -8.676942E+03
        96   9 -6.030686E+06 -1.036919E+06 -1.960765E+05 -2.258972E+06  3.706962E+04 -8.408948E+03
        96  10 -5.086915E+06 -6.720955E+05  8.570986E+04 -2.005551E+06  3.007347E-09  1.213980E-09
        96  11 -5.013902E+06 -6.019484E+05  1.026803E+05 -1.942266E+06 -9.192623E-10  3.257973E-10
        96  12 -4.887230E+06 -6.019531E+05  1.082274E+05 -1.944091E+06 -3.931486E-09 -2.188534E-09
        96  13 -5.457795E+06 -8.105800E+05 -1.305776E+04 -2.104890E+06  2.140395E-09  6.266732E-10
        96  14 -5.485261E+06 -7.799135E+05 -2.269203E+04 -2.070685E+06  3.347893E-09  3.475345E-10
        96  15 -5.459119E+06 -8.194472E+05 -4.391170E+04 -2.101598E+06 -1.068143E-09 -4.903933E-11
        96  16 -5.828539E+06 -9.490558E+05 -1.118366E+05 -2.204174E+06 -3.312731E-09 -2.131558E-09
        96  17 -5.956401E+06 -9.578642E+05 -1.480832E+05 -2.199015E+06  5.879635E-09  7.207304E-10
        96  18 -6.030688E+06 -1.036920E+06 -1.960792E+05 -2.258972E+06  5.791288E-09  2.239508E-09
        96  19 -5.086914E+06 -6.720954E+05  8.571036E+04 -2.005551E+06 -1.487298E+04  6.834012E+03
        96  20 -5.013901E+06 -6.019481E+05  1.026819E+05 -1.942266E+06 -2.789843E+04  7.144379E+03
        96  21 -4.887229E+06 -6.019526E+05  1.082306E+05 -1.944091E+06 -4.076805E+04  7.018419E+03
        96  22 -5.457795E+06 -8.105798E+05 -1.305735E+04 -2.104890E+06 -1.263508E+04  7.672222E+03
        96  23 -5.485260E+06 -7.799132E+05 -2.269065E+04 -2.070685E+06 -2.585542E+04  7.910984E+03
        96  24 -5.459117E+06 -8.194467E+05 -4.390872E+04 -2.101598E+06 -3.891790E+04  7.714042E+03
        96  25 -5.828539E+06 -9.490557E+05 -1.118363E+05 -2.204174E+06 -1.039868E+04  8.509884E+03
        96  26 -5.956401E+06 -9.578640E+05 -1.480820E+05 -2.199015E+06 -2.381414E+04  8.676942E+03
        96  27 -6.030686E+06 -1.036919E+06 -1.960765E+05 -2.258972E+06 -3.706962E+04  8.408948E+03
        97   1 -4.747615E+06 -5.452910E+05  1.330703E+05 -1.920894E+06  5.034577E+04 -6.482252E+03
        97   2 -4.684939E+06 -4.681048E+05  1.132721E+05 -1.854881E+06  1.013292E+05  8.393642E+03
        97   3 -4.617578E+06 -5.393084E+05  2.919226E+04 -1.818669E+06  1.513727E+05  2.580475E+04
        97   4 -5.465643E+06 -8.057030E+05 -5.616428E+04 -2.105480E+06  4.796294E+04 -7.378007E+03
        97   5 -5.473708E+06 -7.714713E+05 -9.753746E+04 -2.075552E+06  1.000687E+05  7.915752E+03
        97   6 -5.477377E+06 -8.859470E+05 -2.041553E+05 -2.075427E+06  1.512277E+05  2.574067E+04
        97   7 -6.183171E+06 -1.066095E+06 -2.454436E+05 -2.289876E+06  4.558313E+04 -8.272732E+03
        97   8 -6.261873E+06 -1.074794E+06 -3.084022E+05 -2.295966E+06  9.880994E+04  7.438525E+03
        97   9 -6.336454E+06 -1.232512E+06 -4.375699E+05 -2.331850E+06  1.510828E+05  2.567663E+04
        97  10 -4.747618E+06 -5.452918E+05  1.330655E+05 -1.920894E+06  8.022565E-10 -2.043879E-09
        97  11 -4.684950E+06 -4.681077E+05  1.132525E+05 -1.854881E+06  2.141168E-11 -9.924743E-10
        97  12 -4.617603E+06 -5.393153E+05  2.914758E+04 -1.818673E+06 -2.117365E-09  5.748913E-10
        97  13 -5.465645E+06 -8.057037E+05 -5.616874E+04 -2.105480E+06 -5.993097E-10 -8.818968E-10
        97  14 -5.473719E+06 -7.714740E+05 -9.755656E+04 -2.075553E+06  2.207961E-09 -1.384872E-09
        97  15 -5.477402E+06 -8.859540E+05 -2.042000E+05 -2.075430E+06  1.572207E-09 -2.816893E-10
        97  16 -6.183173E+06 -1.066095E+06 -2.454476E+05 -2.289876E+06 -3.751107E-10 -1.399009E-09
        97  17 -6.261883E+06 -1.074797E+06 -3.084208E+05 -2.295967E+06 -1.729086E-09 -1.613500E-09
        97  18 -6.336479E+06 -1.232519E+06 -4.376145E+05 -2.331853E+06  6.002818E-10  5.471972E-10
        97  19 -4.747615E+06 -5.452910E+05  1.330703E+05 -1.920894E+06 -5.034577E+04  6.482252E+03
        97  20 -4.684939E+06 -4.681048E+05  1.132721E+05 -1.854881E+06 -1.013292E+05 -8.393642E+03
        97  21 -4.617578E+06 -5.393084E+05  2.919226E+04 -1.818669E+06 -1.513727E+05 -2.580475E+04
        97  22 -5.465643E+06 -8.057030E+05 -5.616428E+04 -2.105480E+06 -4.796294E+04  7.378007E+03
        97  23 -5.473708E+06 -7.714713E+05 -9.753746E+04 -2.075552E+06 -1.000687E+05 -7.915752E+03
        97  24 -5.477377E+06 -8.859470E+05 -2.041553E+05 -2.075427E+06 -1.512277E+05 -2.574067E+04
        97  25 -6.183171E+06 -1.066095E+06 -2.454436E+05 -2.289876E+06 -4.558313E+04  8.272732E+03
        97  26 -6.261873E+06 -1.074794E+06 -3.084022E+05 -2.295966E+06 -9.880994E+04 -7.438525E+03
        97  27 -6.336454E+06 -1.232512E+06 -4.375699E+05 -2.331850E+06 -1.510828E+05 -2.567663E+04
        98   1 -4.468326E+06 -4.745400E+05  9.221619E+03 -1.939029E+06  1.959633E+05  3.646088E+04
        98   2 -4.408574E+06 -2.381317E+05 -1.397585E+05 -1.761517E+06  4.110675E+05  1.154048E+05
        98   3 -4.685207E+06 -9.352952E+05 -6.962499E+05 -1.383789E+06  6.163223E+05  2.204734E+05
        98   4 -5.512911E+06 -7.782593E+05 -2.508324E+05 -2.130982E+06  1.887008E+05  3.375164E+04
        98   5 -5.396344E+06 -6.730263E+05 -4.139650E+05 -2.094146E+06  4.156645E+05  1.170885E+05
        98   6 -5.619182E+06 -1.504745E+06 -9.945954E+05 -1.856914E+06  6.327878E+05  2.264443E+05
        98   7 -6.556421E+06 -1.081999E+06 -5.109637E+05 -2.322689E+06  1.814517E+05  3.104476E+04
        98   8 -6.383147E+06 -1.107757E+06 -6.882619E+05 -2.426256E+06  4.202529E+05  1.187677E+05
        98   9 -6.552188E+06 -2.073628E+06 -1.293019E+06 -2.329252E+06  6.492253E+05  2.323900E+05
        98  10 -4.468368E+06 -4.745518E+05  9.146347E+03 -1.939035E+06 -7.558728E-10  1.567859E-09
        98  11 -4.408761E+06 -2.381919E+05 -1.401039E+05 -1.761555E+06  9.502058E-10  4.497535E-10
        98  12 -4.685631E+06 -9.354507E+05 -6.970617E+05 -1.383899E+06  1.914325E-09 -7.229368E-10
        98  13 -5.512950E+06 -7.782702E+05 -2.509022E+05 -2.130987E+06 -2.945234E-10  4.295135E-10
        98  14 -5.396535E+06 -6.730881E+05 -4.143189E+05 -2.094185E+06  6.620771E-10 -7.807944E-10
        98  15 -5.619630E+06 -1.504909E+06 -9.954528E+05 -1.857030E+06  9.990654E-10  1.065625E-09
        98  16 -6.556457E+06 -1.082009E+06 -5.110281E+05 -2.322693E+06  7.666123E-11  4.306136E-10
        98  17 -6.383343E+06 -1.107820E+06 -6.886246E+05 -2.426297E+06 -2.007180E-10 -4.561863E-11
        98  18 -6.552660E+06 -2.073801E+06 -1.293924E+06 -2.329375E+06  1.014968E-09 -3.814505E-10
        98  19 -4.468326E+06 -4.745400E+05  9.221619E+03 -1.939029E+06 -1.959633E+05 -3.646088E+04
        98  20 -4.408574E+06 -2.381317E+05 -1.397585E+05 -1.761517E+06 -4.110675E+05 -1.154048E+05
        98  21 -4.685207E+06 -9.352952E+05 -6.962499E+05 -1.383789E+06 -6.163223E+05 -2.204734E+05
        98  22 -5.512911E+06 -7.782593E+05 -2.508324E+05 -2.130982E+06 -1.887008E+05 -3.375164E+04
        98  23 -5.396344E+06 -6.730263E+05 -4.139650E+05 -2.094146E+06 -4.156645E+05 -1.170885E+05
        98  24 -5.619182E+06 -1.504745E+06 -9.945954E+05 -1.856914E+06 -6.327878E+05 -2.264443E+05
        98  25 -6.556421E+06 -1.081999E+06 -5.109637E+05 -2.322689E+06 -1.814517E+05 -3.104476E+04
        98  26 -6.383147E+06 -1.107757E+06 -6.882619E+05 -2.426256E+06 -4.202529E+05 -1.187677E+05
        98  27 -6.552188E+06 -2.073628E+06 -1.293019E+06 -2.329252E+06 -6.492253E+05 -2.323900E+05
        99   1 -1.221166E+06 -1.081995E+04  6.955570E+03  4.459960E+03  5.135855E+04  1.004981E+03
        99   2 -1.236361E+06 -8.342220E+04 -3.729196E+04 -3.307452E+03  3.391302E+04  2.561507E+03
        99   3 -1.226883E+06 -7.234483E+04 -4.895136E+04 -2.257038E+03  1.647388E+04  2.297735E+03
        99   4 -9.453931E+05  5.815334E+04  7.590824E+04  3.556048E+02  5.167738E+04  1.005675E+03
        99   5 -9.577586E+05 -1.373047E+04  3.224957E+04 -3.949794E+03  3.400686E+04  2.561633E+03
        99   6 -9.454204E+05 -1.915104E+03  2.132534E+04  5.622837E+02  1.634266E+04  2.297458E+03
        99   7 -6.695513E+05  1.271210E+05  1.448552E+05 -3.750637E+03  5.199635E+04  1.006365E+03
        99   8 -6.790853E+05  5.595542E+04  1.017852E+05 -4.592475E+03  3.410075E+04  2.561759E+03
        99   9 -6.638859E+05  6.850866E+04  9.159607E+04  3.382848E+03  1.621139E+04  2.297180E+03
        99  10 -1.221169E+06 -1.082066E+04  6.950602E+03  4.459919E+03  2.665510E-09 -2.895546E-10
        99  11 -1.236363E+06 -8.342252E+04 -3.729414E+04 -3.307522E+03  2.813025E-09 -1.400597E-09
        99  12 -1.226883E+06 -7.234491E+04 -4.895188E+04 -2.257069E+03 -3.775655E-10 -4.875929E-11
        99  13 -9.453960E+05  5.815263E+04  7.590322E+04  3.555629E+02  2.273271E-09 -1.431415E-09
        99  14 -9.577598E+05 -1.373078E+04  3.224738E+04 -3.949865E+03 -2.533313E-09 -9.288529E-10
        99  15 -9.454207E+05 -1.915182E+03  2.132483E+04  5.622534E+02 -1.486638E-09 -6.797637E-10
        99  16 -6.695542E+05  1.271202E+05  1.448501E+05 -3.750680E+03 -1.614203E-10  6.950169E-10
        99  17 -6.790865E+05  5.595510E+04  1.017830E+05 -4.592545E+03 -8.489295E-10 -1.538294E-09
        99  18 -6.638862E+05  6.850859E+04  9.159557E+04  3.382818E+03  7.004707E-10 -1.026325E-09
        99  19 -1.221166E+06 -1.081995E+04  6.955570E+03  4.459960E+03 -5.135855E+04 -1.004981E+03
        99  20 -1.236361E+06 -8.342220E+04 -3.729196E+04 -3.307452E+03 -3.391302E+04 -2.561507E+03
        99  21 -1.226883E+06 -7.234483E+04 -4.895136E+04 -2.257038E+03 -1.647388E+04 -2.297735E+03
        99  22 -9.453931E+05  5.815334E+04  7.590824E+04  3.556048E+02 -5.167738E+04 -1.005675E+03
        99  23 -9.577586E+05 -1.373047E+04  3.224957E+04 -3.949794E+03 -3.400686E+04 -2.561633E+03
        99  24 -9.454204E+05 -1.915104E+03  2.132534E+04  5.622837E+02 -1.634266E+04 -2.297458E+03
        99  25 -6.695513E+05  1.271210E+05  1.448552E+05 -3.750637E+03 -5.199635E+04 -1.006365E+03
        99  26 -6.790853E+05  5.595542E+04  1.017852E+05 -4.592475E+03 -3.410075E+04 -2.561759E+03
        99  27 -6.638859E+05  6.850866E+04  9.159607E+04  3.382848E+03 -1.621139E+04 -2.297180E+03
       100   1 -1.242165E+06 -6.427185E+04 -5.536872E+04 -2.106282E+03  1.271697E+04  2.071796E+03
       100   2 -1.243533E+06 -7.496171E+04 -6.438892E+04 -3.034307E+02  8.397585E+03  2.366626E+03
       100   3 -1.239430E+06 -7.275128E+04 -6.703027E+04 -2.821153E+03  4.078687E+03  2.117520E+03
       100   4 -9.496869E+05  8.903332E+03  1.767976E+04 -2.433027E+03  1.278989E+04  2.071843E+03
       100   5 -9.524307E+05 -2.133459E+03  8.291723E+03 -2.653867E+02  8.403525E+03  2.366560E+03
       100   6 -9.496943E+05 -2.612351E+02  5.327167E+03 -2.418189E+03  4.017652E+03  2.117448E+03
       100   7 -6.571306E+05  8.207206E+04  9.072179E+04 -2.759960E+03  1.286285E+04  2.071890E+03
       100   8 -6.612518E+05  7.068840E+04  8.096598E+04 -2.273429E+02  8.409467E+03  2.366494E+03
       100   9 -6.598824E+05  7.222247E+04  7.767827E+04 -2.015041E+03  3.956588E+03  2.117376E+03
       100  10 -1.242166E+06 -6.427190E+04 -5.536903E+04 -2.106303E+03 -1.609500E-10  4.691704E-10
       100  11 -1.243533E+06 -7.496174E+04 -6.438907E+04 -3.034467E+02  1.285137E-09  5.264717E-10
       100  12 -1.239430E+06 -7.275129E+04 -6.703031E+04 -2.821159E+03  3.596492E-09 -4.370756E-10
       100  13 -9.496870E+05  8.903284E+03  1.767945E+04 -2.433049E+03 -1.996459E-09 -5.042398E-10
       100  14 -9.524308E+05 -2.133484E+03  8.291580E+03 -2.654027E+02 -2.623465E-09  1.424652E-09
       100  15 -9.496943E+05 -2.612443E+02  5.327128E+03 -2.418196E+03  2.666240E-09 -1.178059E-11
       100  16 -6.571308E+05  8.207201E+04  9.072147E+04 -2.759981E+03  1.710344E-09  2.075749E-10
       100  17 -6.612518E+05  7.068837E+04  8.096584E+04 -2.273589E+02  3.615703E-10  3.708556E-10
       100  18 -6.598824E+05  7.222246E+04  7.767823E+04 -2.015048E+03 -1.151946E-09 -2.105755E-10
       100  19 -1.242165E+06 -6.427185E+04 -5.536872E+04 -2.106282E+03 -1.271697E+04 -2.071796E+03
       100  20 -1.243533E+06 -7.496171E+04 -6.438892E+04 -3.034307E+02 -8.397585E+03 -2.366626E+03
       100  21 -1.239430E+06 -7.275128E+04 -6.703027E+04 -2.821153E+03 -4.078687E+03 -2.117520E+03
       100  22 -9.496869E+05  8.903332E+03  1.767976E+04 -2.433027E+03 -1.278989E+04 -2.071843E+03
       100  23 -9.524307E+05 -2.133459E+03  8.291723E+03 -2.653867E+02 -8.403525E+03 -2.366560E+03
       100  24 -9.496943E+05 -2.612351E+02  5.327167E+03 -2.418189E+03 -4.017652E+03 -2.117448E+03
       100  25 -6.571306E+05  8.207206E+04  9.072179E+04 -2.759960E+03 -1.286285E+04 -2.071890E+03
       100  26 -6.612518E+05  7.068840E+04  8.096598E+04 -2.273429E+02 -8.409467E+03 -2.366494E+03
       100  27 -6.598824E+05  7.222247E+04  7.767827E+04 -2.015041E+03 -3.956588E+03 -2.117376E+03
       101   1 -1.192140E+06 -5.912466E+04 -5.606025E+04 -5.043614E+03  3.124789E+03  1.971228E+03
       101   2 -1.187677E+06 -5.945955E+04 -5.684884E+04  3.324701E+03  2.039785E+03  1.887030E+03
       101   3 -1.181498E+06 -5.776745E+04 -5.620880E+04 -4.975280E+03  9.542385E+02  1.521171E+03
       101   4 -9.505197E+05  1.322107E+03  4.263162E+03 -5.166183E+03  3.132381E+03  1.971178E+03
       101   5 -9.513840E+05 -3.448241E+02  2.147653E+03  3.167655E+03  2.013245E+03  1.887006E+03
       101   6 -9.505265E+05  2.093276E+01  1.484200E+03 -5.166407E+03  8.935760E+02  1.521220E+03
       101   7 -7.088465E+05  6.176446E+04  6.458217E+04 -5.288797E+03  3.139977E+03  1.971128E+03
       101   8 -7.150402E+05  5.876569E+04  6.113993E+04  3.010558E+03  1.986696E+03  1.886981E+03
       101   9 -7.195062E+05  5.780529E+04  5.917317E+04 -5.357590E+03  8.328908E+02  1.521268E+03
       101  10 -1.192140E+06 -5.912466E+04 -5.606027E+04 -5.043619E+03  4.097014E-10 -2.802540E-11
       101  11 -1.187677E+06 -5.945956E+04 -5.684885E+04  3.324698E+03 -2.447874E-10  2.146216E-10
       101  12 -1.181498E+06 -5.776746E+04 -5.620880E+04 -4.975281E+03 -2.981820E-09 -1.081162E-09
       101  13 -9.505197E+05  1.322100E+03  4.263137E+03 -5.166188E+03  2.136287E-09 -1.539871E-10
       101  14 -9.513840E+05 -3.448290E+02  2.147639E+03  3.167652E+03  4.668590E-09  1.329277E-09
       101  15 -9.505265E+05  2.093006E+01  1.484194E+03 -5.166409E+03 -1.370914E-09  8.825883E-10
       101  16 -7.088466E+05  6.176445E+04  6.458214E+04 -5.288802E+03 -1.238051E-11  5.573565E-10
       101  17 -7.150402E+05  5.876568E+04  6.113992E+04  3.010555E+03  6.136743E-10 -4.501577E-10
       101  18 -7.195062E+05  5.780529E+04  5.917317E+04 -5.357591E+03 -1.116494E-09 -6.219930E-10
       101  19 -1.192140E+06 -5.912466E+04 -5.606025E+04 -5.043614E+03 -3.124789E+03 -1.971228E+03
       101  20 -1.187677E+06 -5.945955E+04 -5.684884E+04  3.324701E+03 -2.039785E+03 -1.887030E+03
       101  21 -1.181498E+06 -5.776745E+04 -5.620880E+04 -4.975280E+03 -9.542385E+02 -1.521171E+03
       101  22 -9.505197E+05  1.322107E+03  4.263162E+03 -5.166183E+03 -3.132381E+03 -1.971178E+03
       101  23 -9.513840E+05 -3.448241E+02  2.147653E+03  3.167655E+03 -2.013245E+03 -1.887006E+03
       101  24 -9.505265E+05  2.093276E+01  1.484200E+03 -5.166407E+03 -8.935760E+02 -1.521220E+03
       101  25 -7.088465E+05  6.176446E+04  6.458217E+04 -5.288797E+03 -3.139977E+03 -1.971128E+03
       101  26 -7.150402E+05  5.876569E+04  6.113993E+04  3.010558E+03 -1.986696E+03 -1.886981E+03
       101  27 -7.195062E+05  5.780529E+04  5.917317E+04 -5.357590E+03 -8.328908E+02 -1.521268E+03
       102   1 -1.085718E+06 -3.356326E+04 -3.246437E+04 -6.880782E+03  6.685752E+02  1.302170E+03
       102   2 -1.077853E+06 -3.181391E+04 -3.082758E+04  5.720235E+03  2.559991E+02  1.010751E+03
       102   3 -1.069628E+06 -2.961063E+04 -2.876980E+04 -6.861612E+03 -1.571114E+02  5.840425E+02
       102   4 -9.508162E+05  1.805223E+02  1.197634E+03 -7.058295E+03  6.417690E+02  1.302196E+03
       102   5 -9.510003E+05 -8.015370E+01  8.425908E+02  5.532954E+03  2.128996E+02  1.010822E+03
       102   6 -9.508210E+05  1.159526E+02  9.198533E+02 -7.058338E+03 -2.164986E+02  5.841719E+02
       102   7 -8.158980E+05  3.392293E+04  3.485826E+04 -7.235841E+03  6.149570E+02  1.302223E+03
       102   8 -8.241328E+05  3.165239E+04  3.251155E+04  5.345642E+03  1.697913E+02  1.010894E+03
       102   9 -8.320014E+05  2.984146E+04  3.060844E+04 -7.255094E+03 -2.758971E+02  5.843013E+02
       102  10 -1.085718E+06 -3.356326E+04 -3.246437E+04 -6.880782E+03 -1.367565E-09 -7.339868E-10
       102  11 -1.077853E+06 -3.181391E+04 -3.082758E+04  5.720235E+03 -7.573432E-10 -3.556611E-10
       102  12 -1.069628E+06 -2.961063E+04 -2.876980E+04 -6.861612E+03 -2.162795E-09 -1.035669E-10
       102  13 -9.508162E+05  1.805204E+02  1.197630E+03 -7.058296E+03 -2.359734E-09 -1.075147E-09
       102  14 -9.510003E+05 -8.015481E+01  8.425888E+02  5.532954E+03 -2.791692E-09  2.123514E-10
       102  15 -9.508210E+05  1.159522E+02  9.198525E+02 -7.058337E+03  1.797480E-09 -1.529706E-09
       102  16 -8.158980E+05  3.392293E+04  3.485826E+04 -7.235841E+03  4.511221E-10  8.160978E-11
       102  17 -8.241328E+05  3.165239E+04  3.251155E+04  5.345642E+03  1.994502E-09 -3.557276E-10
       102  18 -8.320014E+05  2.984146E+04  3.060844E+04 -7.255093E+03  8.287617E-10 -2.409703E-09
       102  19 -1.085718E+06 -3.356326E+04 -3.246437E+04 -6.880782E+03 -6.685752E+02 -1.302170E+03
       102  20 -1.077853E+06 -3.181391E+04 -3.082758E+04  5.720235E+03 -2.559991E+02 -1.010751E+03
       102  21 -1.069628E+06 -2.961063E+04 -2.876980E+04 -6.861612E+03  1.571114E+02 -5.840425E+02
       102  22 -9.508162E+05  1.805223E+02  1.197634E+03 -7.058295E+03 -6.417690E+02 -1.302196E+03
       102  23 -9.510003E+05 -8.015370E+01  8.425908E+02  5.532954E+03 -2.128996E+02 -1.010822E+03
       102  24 -9.508210E+05  1.159526E+02  9.198533E+02 -7.058338E+03  2.164986E+02 -5.841719E+02
       102  25 -8.158980E+05  3.392293E+04  3.485826E+04 -7.235841E+03 -6.149570E+02 -1.302223E+03
       102  26 -8.241328E+05  3.165239E+04  3.251155E+04  5.345642E+03 -1.697913E+02 -1.010894E+03
       102  27 -8.320014E+05  2.984146E+04  3.060844E+04 -7.255094E+03  2.758971E+02 -5.843013E+02
       103   1 -9.478461E+05  7.964308E+02  1.778654E+03 -7.642608E+03 -3.429175E+02  3.124365E+02
       103   2 -9.390062E+05  2.848098E+03  4.398378E+03  6.256598E+03 -1.061582E+03 -9.356688E+01
       103   3 -9.300306E+05  5.708605E+03  7.655995E+03 -7.722086E+03 -1.780196E+03 -4.807191E+02
       103   4 -9.508669E+05  3.568341E+01  9.983458E+02 -7.657720E+03 -3.929114E+02  3.125557E+02
       103   5 -9.509340E+05 -1.355484E+02  1.420806E+03  6.281781E+03 -1.109305E+03 -9.345527E+01
       103   6 -9.508659E+05  5.016465E+02  2.479565E+03 -7.656641E+03 -1.825638E+03 -4.806146E+02
       103   7 -9.538877E+05 -7.250647E+02  2.180370E+02 -7.672831E+03 -4.429051E+02  3.126749E+02
       103   8 -9.628616E+05 -3.119206E+03 -1.556778E+03  6.306963E+03 -1.157028E+03 -9.334366E+01
       103   9 -9.717008E+05 -4.705344E+03 -2.696898E+03 -7.591198E+03 -1.871079E+03 -4.805102E+02
       103  10 -9.478461E+05  7.964307E+02  1.778653E+03 -7.642608E+03 -4.408931E-10  1.580201E-09
       103  11 -9.390062E+05  2.848098E+03  4.398376E+03  6.256598E+03 -3.348850E-09  3.724483E-09
       103  12 -9.300306E+05  5.708603E+03  7.655989E+03 -7.722086E+03  6.621970E-10 -2.401823E-09
       103  13 -9.508669E+05  3.568326E+01  9.983453E+02 -7.657719E+03  1.699582E-11  7.671042E-11
       103  14 -9.509340E+05 -1.355487E+02  1.420803E+03  6.281781E+03  3.285350E-09 -1.031929E-09
       103  15 -9.508659E+05  5.016453E+02  2.479558E+03 -7.656642E+03 -4.474775E-09 -3.557024E-10
       103  16 -9.538877E+05 -7.250649E+02  2.180364E+02 -7.672831E+03  2.695829E-09 -2.649430E-10
       103  17 -9.628616E+05 -3.119206E+03 -1.556780E+03  6.306963E+03  2.760118E-09  4.334333E-10
       103  18 -9.717009E+05 -4.705345E+03 -2.696905E+03 -7.591199E+03 -7.221621E-10 -1.102958E-10
       103  19 -9.478461E+05  7.964308E+02  1.778654E+03 -7.642608E+03  3.429175E+02 -3.124365E+02
       103  20 -9.390062E+05  2.848098E+03  4.398378E+03  6.256598E+03  1.061582E+03  9.356688E+01
       103  21 -9.300306E+05  5.708605E+03  7.655995E+03 -7.722086E+03  1.780196E+03  4.807191E+02
       103  22 -9.508669E+05  3.568341E+01  9.983458E+02 -7.657720E+03  3.929114E+02 -3.125557E+02
       103  23 -9.509340E+05 -1.355484E+02  1.420806E+03  6.281781E+03  1.109305E+03  9.345527E+01
       103  24 -9.508659E+05  5.016465E+02  2.479565E+03 -7.656641E+03  1.825638E+03  4.806146E+02
       103  25 -9.538877E+05 -7.250647E+02  2.180370E+02 -7.672831E+03  4.429051E+02 -3.126749E+02
       103  26 -9.628616E+05 -3.119206E+03 -1.556778E+03  6.306963E+03  1.157028E+03  9.334366E+01
       103  27 -9.717008E+05 -4.705344E+03 -2.696898E+03 -7.591198E+03  1.871079E+03  4.805102E+02
       104   1 -8.102347E+05  3.504331E+04  3.819190E+04 -6.921841E+03 -2.275914E+03 -7.517550E+02
       104   2 -8.034472E+05  3.622569E+04  4.203784E+04  4.991234E+03 -4.923232E+03 -1.176956E+03
       104   3 -7.948064E+05  4.215387E+04  4.885944E+04 -7.222464E+03 -7.569941E+03 -1.404681E+03
       104   4 -9.504919E+05 -4.303417E+01  3.152808E+03 -6.825621E+03 -2.339043E+03 -7.516261E+02
       104   5 -9.514127E+05 -7.835451E+02  5.103357E+03  5.240339E+03 -4.962136E+03 -1.176903E+03
       104   6 -9.504840E+05  3.218113E+03  1.001320E+04 -6.820831E+03 -7.584587E+03 -1.404685E+03
       104   7 -1.090731E+06 -3.513087E+04 -3.188776E+04 -6.729414E+03 -2.402159E+03 -7.514973E+02
       104   8 -1.099358E+06 -3.779443E+04 -3.183278E+04  5.489394E+03 -5.001030E+03 -1.176851E+03
       104   9 -1.106140E+06 -3.571947E+04 -2.883486E+04 -6.419290E+03 -7.599228E+03 -1.404689E+03
       104  10 -8.102347E+05  3.504331E+04  3.819189E+04 -6.921842E+03 -1.745789E-09 -2.378240E-09
       104  11 -8.034473E+05  3.622568E+04  4.203780E+04  4.991230E+03 -2.568316E-09  6.249265E-10
       104  12 -7.948065E+05  4.215385E+04  4.885933E+04 -7.222472E+03 -1.047220E-09 -5.176187E-11
       104  13 -9.504919E+05 -4.303625E+01  3.152797E+03 -6.825623E+03  1.868553E-10 -1.764097E-10
       104  14 -9.514127E+05 -7.835532E+02  5.103308E+03  5.240335E+03  2.224864E-09 -2.515192E-10
       104  15 -9.504841E+05  3.218096E+03  1.001309E+04 -6.820839E+03 -3.265236E-09 -7.523202E-10
       104  16 -1.090731E+06 -3.513087E+04 -3.188778E+04 -6.729415E+03  2.237402E-10 -1.900542E-10
       104  17 -1.099358E+06 -3.779444E+04 -3.183283E+04  5.489389E+03  3.488773E-09  2.631923E-09
       104  18 -1.106140E+06 -3.571948E+04 -2.883498E+04 -6.419299E+03  3.761951E-10 -2.425315E-10
       104  19 -8.102347E+05  3.504331E+04  3.819190E+04 -6.921841E+03  2.275914E+03  7.517550E+02
       104  20 -8.034472E+05  3.622569E+04  4.203784E+04  4.991234E+03  4.923232E+03  1.176956E+03
       104  21 -7.948064E+05  4.215387E+04  4.885944E+04 -7.222464E+03  7.569941E+03  1.404681E+03
       104  22 -9.504919E+05 -4.303417E+01  3.152808E+03 -6.825621E+03  2.339043E+03  7.516261E+02
       104  23 -9.514127E+05 -7.835451E+02  5.103357E+03  5.240339E+03  4.962136E+03  1.176903E+03
       104  24 -9.504840E+05  3.218113E+03  1.001320E+04 -6.820831E+03  7.584587E+03  1.404685E+03
       104  25 -1.090731E+06 -3.513087E+04 -3.188776E+04 -6.729414E+03  2.402159E+03  7.514973E+02
       104  26 -1.099358E+06 -3.779443E+04 -3.183278E+04  5.489394E+03  5.001030E+03  1.176851E+03
       104  27 -1.106140E+06 -3.571947E+04 -2.883486E+04 -6.419290E+03  7.599228E+03  1.404689E+03
       105   1 -7.035585E+05  6.066361E+04  7.373404E+04 -4.087253E+03 -9.561275E+03 -1.647503E+03
       105   2 -7.039517E+05  5.743099E+04  8.229493E+04  2.156831E+03 -2.012895E+04 -2.025488E+03
       105   3 -6.940777E+05  8.491123E+04  1.056627E+05 -6.422193E+03 -3.069617E+04 -1.864901E+03
       105   4 -9.486301E+05 -6.315063E+02  1.254113E+04 -4.757705E+03 -9.637690E+03 -1.647442E+03
       105   5 -9.537499E+05 -5.044083E+03  1.994821E+04  2.653406E+03 -2.013708E+04 -2.025548E+03
       105   6 -9.486111E+05  2.125080E+04  4.211886E+04 -4.758966E+03 -3.063592E+04 -1.865026E+03
       105   7 -1.193647E+06 -6.193115E+04 -4.865632E+04 -5.427877E+03 -9.714075E+03 -1.647381E+03
       105   8 -1.203492E+06 -6.752387E+04 -4.240322E+04  3.149788E+03 -2.014520E+04 -2.025609E+03
       105   9 -1.203086E+06 -4.241452E+04 -2.142990E+04 -3.096424E+03 -3.057571E+04 -1.865151E+03
       105  10 -7.035586E+05  6.066358E+04  7.373387E+04 -4.087266E+03  5.072210E-10  3.683631E-10
       105  11 -7.039522E+05  5.743088E+04  8.229416E+04  2.156799E+03 -2.151722E-10 -7.293046E-10
       105  12 -6.940787E+05  8.491098E+04  1.056610E+05 -6.422239E+03 -2.281894E-09  4.023856E-10
       105  13 -9.486302E+05 -6.315342E+02  1.254095E+04 -4.757718E+03 -1.689657E-11 -7.134140E-11
       105  14 -9.537504E+05 -5.044196E+03  1.994744E+04  2.653373E+03  3.645082E-09  5.024581E-10
       105  15 -9.486121E+05  2.125054E+04  4.211708E+04 -4.759012E+03 -3.232683E-09  4.854721E-10
       105  16 -1.193647E+06 -6.193118E+04 -4.865651E+04 -5.427890E+03 -1.089796E-09 -1.068734E-10
       105  17 -1.203492E+06 -6.752398E+04 -4.240399E+04  3.149755E+03 -1.859914E-09 -3.338318E-10
       105  18 -1.203087E+06 -4.241477E+04 -2.143167E+04 -3.096470E+03 -5.091679E-10 -1.126233E-10
       105  19 -7.035585E+05  6.066361E+04  7.373404E+04 -4.087253E+03  9.561275E+03  1.647503E+03
       105  20 -7.039517E+05  5.743099E+04  8.229493E+04  2.156831E+03  2.012895E+04  2.025488E+03
       105  21 -6.940777E+05  8.491123E+04  1.056627E+05 -6.422193E+03  3.069617E+04  1.864901E+03
       105  22 -9.486301E+05 -6.315063E+02  1.254113E+04 -4.757705E+03  9.637690E+03  1.647442E+03
       105  23 -9.537499E+05 -5.044083E+03  1.994821E+04  2.653406E+03  2.013708E+04  2.025548E+03
       105  24 -9.486111E+05  2.125080E+04  4.211886E+04 -4.758966E+03  3.063592E+04  1.865026E+03
       105  25 -1.193647E+06 -6.193115E+04 -4.865632E+04 -5.427877E+03  9.714075E+03  1.647381E+03
       105  26 -1.203492E+06 -6.752387E+04 -4.240322E+04  3.149788E+03  2.014520E+04  2.025609E+03
       105  27 -1.203086E+06 -4.241452E+04 -2.142990E+04 -3.096424E+03  3.057571E+04  1.865151E+03
       106   1 -6.451012E+05  6.877534E+04  1.240662E+05  3.885729E+03 -3.891466E+04 -2.245544E+03
       106   2 -6.729271E+05  4.074038E+04  1.505436E+05 -3.490500E+03 -8.143433E+04 -2.731095E+03
       106   3 -6.435529E+05  2.124598E+05  2.550102E+05 -1.332377E+04 -1.239578E+05 -1.147579E+03
       106   4 -9.382092E+05 -4.537684E+03  5.089983E+04 -1.927458E+03 -3.908161E+04 -2.245337E+03
       106   5 -9.667600E+05 -3.273471E+04  7.722916E+04 -8.373894E+02 -8.133579E+04 -2.731435E+03
       106   6 -9.381324E+05  1.388260E+05  1.813890E+05 -2.204002E+03 -1.235936E+05 -1.149191E+03
       106   7 -1.231239E+06 -7.785707E+04 -2.227298E+04 -7.737907E+03 -3.924849E+04 -2.245127E+03
       106   8 -1.260515E+06 -1.062163E+05  3.908201E+03  1.814440E+03 -8.123728E+04 -2.731774E+03
       106   9 -1.232633E+06  6.518605E+04  1.077612E+05  8.910449E+03 -1.232297E+05 -1.150790E+03
       106  10 -6.451028E+05  6.877493E+04  1.240633E+05  3.885659E+03 -4.918159E-09  1.237940E-09
       106  11 -6.729343E+05  4.073859E+04  1.505311E+05 -3.490679E+03 -3.161922E-09 -2.048868E-10
       106  12 -6.435694E+05  2.124557E+05  2.549813E+05 -1.332389E+04 -6.632108E-10 -9.695323E-10
       106  13 -9.382109E+05 -4.538100E+03  5.089695E+04 -1.927529E+03 -4.626422E-09  6.388064E-10
       106  14 -9.667672E+05 -3.273649E+04  7.721670E+04 -8.375683E+02 -7.158002E-09  1.610645E-09
       106  15 -9.381488E+05  1.388219E+05  1.813602E+05 -2.204116E+03  1.407224E-09 -4.607686E-10
       106  16 -1.231241E+06 -7.785749E+04 -2.227589E+04 -7.737978E+03  1.721816E-09 -2.898511E-11
       106  17 -1.260522E+06 -1.062181E+05  3.895761E+03  1.814261E+03  4.586217E-10 -1.235147E-10
       106  18 -1.232649E+06  6.518196E+04  1.077326E+05  8.910335E+03  1.001201E-09 -8.441471E-10
       106  19 -6.451012E+05  6.877534E+04  1.240662E+05  3.885729E+03  3.891466E+04  2.245544E+03
       106  20 -6.729271E+05  4.074038E+04  1.505436E+05 -3.490500E+03  8.143433E+04  2.731095E+03
       106  21 -6.435529E+05  2.124598E+05  2.550102E+05 -1.332377E+04  1.239578E+05  1.147579E+03
       106  22 -9.382092E+05 -4.537684E+03  5.089983E+04 -1.927458E+03  3.908161E+04  2.245337E+03
       106  23 -9.667600E+05 -3.273471E+04  7.722916E+04 -8.373894E+02  8.133579E+04  2.731435E+03
       106  24 -9.381324E+05  1.388260E+05  1.813890E+05 -2.204002E+03  1.235936E+05  1.149191E+03
       106  25 -1.231239E+06 -7.785707E+04 -2.227298E+04 -7.737907E+03  3.924849E+04  2.245127E+03
       106  26 -1.260515E+06 -1.062163E+05  3.908201E+03  1.814440E+03  8.123728E+04  2.731774E+03
       106  27 -1.232633E+06  6.518605E+04  1.077612E+05  8.910449E+03  1.232297E+05  1.150790E+03
       107   1  2.969740E+05  1.893436E+05  3.210075E+05 -2.179469E+05 -1.677545E+02  2.057372E+05
       107   2  8.651495E+04  1.302743E+05  1.644090E+05 -1.225425E+05  1.095068E+03  1.228090E+05
       107   3  2.043245E+04  1.180424E+05  9.789423E+04 -3.398540E+04  1.914675E+02  3.987676E+04
       107   4  2.739599E+05  1.034906E+05  3.000419E+05 -4.002859E+04 -9.467121E+01  2.019688E+05
       107   5  7.363079E+04  8.043548E+04  1.537382E+05 -3.709259E+04  1.110804E+03  1.231122E+05
       107   6  1.694834E+04  1.035014E+05  9.469547E+04 -4.099292E+04  1.744636E+02  4.424657E+04
       107   7  2.510642E+05  1.771220E+04  2.790928E+05  1.378649E+05 -2.373936E+01  1.982010E+05
       107   8  6.077386E+04  3.061467E+04  1.430711E+05  4.835035E+04  1.126624E+03  1.234153E+05
       107   9  1.346441E+04  8.896061E+04  9.149679E+04 -4.800028E+04  1.573608E+02  4.861627E+04
       107  10  2.969626E+05  1.892982E+05  3.209280E+05 -2.179469E+05 -3.918547E-10  2.244801E-09
       107  11  8.651090E+04  1.302581E+05  1.643806E+05 -1.225426E+05  1.449975E-10 -3.481457E-09
       107  12  2.043202E+04  1.180407E+05  9.789124E+04 -3.398541E+04 -6.127442E-10 -6.217568E-09
       107  13  2.739490E+05  1.034468E+05  2.999653E+05 -4.002857E+04 -2.218950E-09  9.661663E-10
       107  14  7.362672E+04  8.041921E+04  1.537097E+05 -3.709270E+04 -9.576027E-10  1.203526E-09
       107  15  1.694781E+04  1.034993E+05  9.469179E+04 -4.099293E+04  2.031414E-10 -1.769847E-09
       107  16  2.510536E+05  1.767003E+04  2.790190E+05  1.378649E+05 -3.656530E-10 -2.114531E-09
       107  17  6.076977E+04  3.059832E+04  1.430425E+05  4.835024E+04 -6.445607E-10 -9.985007E-10
       107  18  1.346377E+04  8.895807E+04  9.149235E+04 -4.800028E+04 -2.261493E-09  7.103064E-09
       107  19  2.969740E+05  1.893436E+05  3.210075E+05 -2.179469E+05  1.677545E+02 -2.057372E+05
       107  20  8.651495E+04  1.302743E+05  1.644090E+05 -1.225425E+05 -1.095068E+03 -1.228090E+05
       107  21  2.043245E+04  1.180424E+05  9.789423E+04 -3.398540E+04 -1.914675E+02 -3.987676E+04
       107  22  2.739599E+05  1.034906E+05  3.000419E+05 -4.002859E+04  9.467121E+01 -2.019688E+05
       107  23  7.363079E+04  8.043548E+04  1.537382E+05 -3.709259E+04 -1.110804E+03 -1.231122E+05
       107  24  1.694834E+04  1.035014E+05  9.469547E+04 -4.099292E+04 -1.744636E+02 -4.424657E+04
       107  25  2.510642E+05  1.771220E+04  2.790928E+05  1.378649E+05  2.373936E+01 -1.982010E+05
       107  26  6.077386E+04  3.061467E+04  1.430711E+05  4.835035E+04 -1.126624E+03 -1.234153E+05
       107  27  1.346441E+04  8.896061E+04  9.149679E+04 -4.800028E+04 -1.573608E+02 -4.861627E+04
       108   1  1.419324E+04  8.645326E+04  7.952361E+04 -5.027042E+04 -1.185257E+03  2.662293E+04
       108   2 -3.329710E+03  4.557904E+04  6.187764E+04 -3.691872E+04 -3.205119E+03 -7.544539E+03
       108   3 -1.358128E+03  1.396223E+04  7.133467E+04 -3.084580E+04 -5.018123E+03 -4.170939E+04
       108   4  1.605471E+04  9.532185E+04  8.038543E+04 -4.099164E+04 -1.201045E+03  3.089676E+04
       108   5  7.144643E+03  9.065932E+04  6.915548E+04 -3.734917E+04 -3.219744E+03 -3.666475E+03
       108   6  1.779678E+04  9.532085E+04  8.530259E+04 -4.098486E+04 -5.030530E+03 -3.822896E+04
       108   7  1.791651E+04  1.041907E+05  8.124736E+04 -3.171272E+04 -1.216706E+03  3.517065E+04
       108   8  1.761890E+04  1.357416E+05  7.643333E+04 -3.777965E+04 -3.234374E+03  2.118600E+02
       108   9  3.695171E+04  1.766862E+05  9.927038E+04 -5.112528E+04 -5.043050E+03 -3.474809E+04
       108  10  1.419304E+04  8.645250E+04  7.952228E+04 -5.027040E+04 -6.443114E-10 -5.514955E-08
       108  11 -3.329736E+03  4.557897E+04  6.187751E+04 -3.691874E+04  3.631209E-09 -5.297173E-10
       108  12 -1.358622E+03  1.396036E+04  7.133135E+04 -3.084597E+04 -6.265109E-10  5.807306E-08
       108  13  1.605445E+04  9.532082E+04  8.038363E+04 -4.099161E+04  1.773021E-09  1.123856E-09
       108  14  7.144628E+03  9.065930E+04  6.915544E+04 -3.734918E+04  1.162287E-09  9.836075E-10
       108  15  1.779636E+04  9.531927E+04  8.529979E+04 -4.098501E+04  3.265588E-09 -1.784439E-09
       108  16  1.791617E+04  1.041894E+05  8.124504E+04 -3.171269E+04 -7.621450E-10  5.517941E-08
       108  17  1.761889E+04  1.357416E+05  7.643331E+04 -3.777965E+04  1.870975E-09 -4.094676E-09
       108  18  3.695136E+04  1.766849E+05  9.926806E+04 -5.112542E+04 -6.748208E-10 -5.725677E-08
       108  19  1.419324E+04  8.645326E+04  7.952361E+04 -5.027042E+04  1.185257E+03 -2.662293E+04
       108  20 -3.329710E+03  4.557904E+04  6.187764E+04 -3.691872E+04  3.205119E+03  7.544539E+03
       108  21 -1.358128E+03  1.396223E+04  7.133467E+04 -3.084580E+04  5.018123E+03  4.170939E+04
       108  22  1.605471E+04  9.532185E+04  8.038543E+04 -4.099164E+04  1.201045E+03 -3.089676E+04
       108  23  7.144643E+03  9.065932E+04  6.915548E+04 -3.734917E+04  3.219744E+03  3.666475E+03
       108  24  1.779678E+04  9.532085E+04  8.530259E+04 -4.098486E+04  5.030530E+03  3.822896E+04
       108  25  1.791651E+04  1.041907E+05  8.124736E+04 -3.171272E+04  1.216706E+03 -3.517065E+04
       108  26  1.761890E+04  1.357416E+05  7.643333E+04 -3.777965E+04  3.234374E+03 -2.118600E+02
       108  27  3.695171E+04  1.766862E+05  9.927038E+04 -5.112528E+04  5.043050E+03  3.474809E+04
       109   1 -5.782967E+03 -2.164427E+02  8.421343E+04 -4.870638E+04 -6.232521E+03 -5.616548E+04
       109   2  4.789389E+04 -6.078473E+04  1.427577E+05  5.829273E+04 -5.831266E+03 -1.355308E+05
       109   3  2.604211E+05 -7.133615E+04  2.927013E+05  1.586413E+05 -1.299118E+03 -2.148745E+05
       109   4  1.876983E+04  1.046618E+05  1.024596E+05 -4.095708E+04 -6.247067E+03 -5.246912E+04
       109   5  8.214703E+04  7.898052E+04  1.700753E+05 -3.709648E+04 -5.794707E+03 -1.397315E+05
       109   6  3.056843E+05  1.046477E+05  3.345565E+05 -3.988778E+04 -1.185517E+03 -2.269778E+05
       109   7  4.332226E+04  2.095509E+05  1.207055E+05 -3.320642E+04 -6.261519E+03 -4.877216E+04
       109   8  1.164331E+05  2.187840E+05  1.973968E+05 -1.325077E+05 -5.756863E+03 -1.439332E+05
       109   9  3.510932E+05  2.807446E+05  3.764312E+05 -2.384736E+05 -1.064197E+03 -2.390846E+05
       109  10 -5.783856E+03 -2.198403E+02  8.420743E+04 -4.870666E+04 -1.691171E-09  7.756119E-09
       109  11  4.788892E+04 -6.080446E+04  1.427231E+05  5.829210E+04 -2.035416E-09  2.251137E-09
       109  12  2.604087E+05 -7.138572E+04  2.926145E+05  1.586410E+05 -1.619234E-11  1.023240E-09
       109  13  1.876904E+04  1.046588E+05  1.024544E+05 -4.095735E+04 -3.496738E-09  7.302924E-10
       109  14  8.214175E+04  7.895955E+04  1.700385E+05 -3.709713E+04 -2.228523E-09  8.129881E-10
       109  15  3.056705E+05  1.045924E+05  3.344597E+05 -3.988800E+04 -1.754976E-09 -1.799978E-09
       109  16  4.332158E+04  2.095483E+05  1.207009E+05 -3.320667E+04 -1.145739E-09 -8.000771E-09
       109  17  1.164275E+05  2.187617E+05  1.973579E+05 -1.325084E+05 -4.328034E-10 -7.136008E-09
       109  18  3.510778E+05  2.806833E+05  3.763238E+05 -2.384739E+05  1.370913E-09 -1.728224E-10
       109  19 -5.782967E+03 -2.164427E+02  8.421343E+04 -4.870638E+04  6.232521E+03  5.616548E+04
       109  20  4.789389E+04 -6.078473E+04  1.427577E+05  5.829273E+04  5.831266E+03  1.355308E+05
       109  21  2.604211E+05 -7.133615E+04  2.927013E+05  1.586413E+05  1.299118E+03  2.148745E+05
       109  22  1.876983E+04  1.046618E+05  1.024596E+05 -4.095708E+04  6.247067E+03  5.246912E+04
       109  23  8.214703E+04  7.898052E+04  1.700753E+05 -3.709648E+04  5.794707E+03  1.397315E+05
       109  24  3.056843E+05  1.046477E+05  3.345565E+05 -3.988778E+04  1.185517E+03  2.269778E+05
       109  25  4.332226E+04  2.095509E+05  1.207055E+05 -3.320642E+04  6.261519E+03  4.877216E+04
       109  26  1.164331E+05  2.187840E+05  1.973968E+05 -1.325077E+05  5.756863E+03  1.439332E+05
       109  27  3.510932E+05  2.807446E+05  3.764312E+05 -2.384736E+05  1.064197E+03  2.390846E+05
       110   1 -5.308707E+06 -1.679908E+06 -1.037574E+06 -1.865847E+06 -4.628368E+05 -1.599038E+05
       110   2 -5.174342E+06 -9.897447E+05 -6.056460E+05 -1.919070E+06 -3.017078E+05 -6.778837E+04
       110   3 -5.264829E+06 -9.691631E+05 -4.756680E+05 -1.847652E+06 -1.293047E+05 -5.393399E+03
       110   4 -4.160423E+06 -1.093831E+06 -6.934611E+05 -1.399816E+06 -4.437049E+05 -1.527958E+05
       110   5 -4.012742E+06 -5.075833E+05 -2.889003E+05 -1.557652E+06 -2.962423E+05 -6.575413E+04
       110   6 -4.086732E+06 -5.875018E+05 -1.749629E+05 -1.590983E+06 -1.375150E+05 -8.478876E+03
       110   7 -3.010805E+06 -5.073270E+05 -3.494801E+05 -9.328962E+05 -4.245334E+05 -1.456610E+05
       110   8 -2.849823E+06 -2.526207E+04  2.772110E+04 -1.195591E+06 -2.907650E+05 -6.371445E+04
       110   9 -2.907282E+06 -2.058381E+05  1.256334E+05 -1.333911E+06 -1.457424E+05 -1.156867E+04
       110  10 -5.308946E+06 -1.679994E+06 -1.038029E+06 -1.865907E+06  1.736722E-09 -6.684781E-10
       110  11 -5.174442E+06 -9.897744E+05 -6.058274E+05 -1.919087E+06 -4.277246E-09 -7.319945E-11
       110  12 -5.264847E+06 -9.691677E+05 -4.756997E+05 -1.847653E+06 -1.243154E-09 -3.947316E-10
       110  13 -4.160642E+06 -1.093910E+06 -6.938781E+05 -1.399871E+06 -2.321503E-09 -1.088850E-09
       110  14 -4.012838E+06 -5.076118E+05 -2.890746E+05 -1.557668E+06  2.403665E-09 -6.581377E-10
       110  15 -4.086752E+06 -5.875070E+05 -1.749988E+05 -1.590984E+06  2.734080E-09  3.325575E-10
       110  16 -3.011005E+06 -5.073986E+05 -3.498607E+05 -9.329462E+05 -1.121437E-09 -5.623934E-11
       110  17 -2.849915E+06 -2.528931E+04  2.755371E+04 -1.195606E+06  1.472027E-09 -3.451101E-10
       110  18 -2.907305E+06 -2.058440E+05  1.255930E+05 -1.333912E+06  4.748086E-09  8.486916E-10
       110  19 -5.308707E+06 -1.679908E+06 -1.037574E+06 -1.865847E+06  4.628368E+05  1.599038E+05
       110  20 -5.174342E+06 -9.897447E+05 -6.056460E+05 -1.919070E+06  3.017078E+05  6.778837E+04
       110  21 -5.264829E+06 -9.691631E+05 -4.756680E+05 -1.847652E+06  1.293047E+05  5.393399E+03
       110  22 -4.160423E+06 -1.093831E+06 -6.934611E+05 -1.399816E+06  4.437049E+05  1.527958E+05
       110  23 -4.012742E+06 -5.075833E+05 -2.889003E+05 -1.557652E+06  2.962423E+05  6.575413E+04
       110  24 -4.086732E+06 -5.875018E+05 -1.749629E+05 -1.590983E+06  1.375150E+05  8.478876E+03
       110  25 -3.010805E+06 -5.073270E+05 -3.494801E+05 -9.328962E+05  4.245334E+05  1.456610E+05
       110  26 -2.849823E+06 -2.526207E+04  2.772110E+04 -1.195591E+06  2.907650E+05  6.371445E+04
       110  27 -2.907282E+06 -2.058381E+05  1.256334E+05 -1.333911E+06  1.457424E+05  1.156867E+04
       111   1 -5.072518E+06 -1.060274E+06 -4.146964E+05 -1.844296E+06 -1.104708E+05 -5.189421E+03
       111   2 -5.000824E+06 -9.311966E+05 -3.169156E+05 -1.802005E+06 -7.337805E+04  7.478479E+03
       111   3 -4.909200E+06 -9.223775E+05 -2.655070E+05 -1.799160E+06 -3.524083E+04  1.736723E+04
       111   4 -4.061319E+06 -6.632309E+05 -1.424276E+05 -1.553024E+06 -1.104668E+05 -5.195361E+03
       111   5 -4.067362E+06 -5.752416E+05 -6.815217E+04 -1.543792E+06 -7.461959E+04  7.007686E+03
       111   6 -4.053186E+06 -6.071887E+05 -3.919580E+04 -1.574014E+06 -3.773381E+04  1.643000E+04
       111   7 -3.049121E+06 -2.661021E+05  1.297507E+05 -1.261310E+06 -1.104627E+05 -5.201241E+03
       111   8 -3.133049E+06 -2.192282E+05  1.805353E+05 -1.285223E+06 -7.586313E+04  6.536128E+03
       111   9 -3.196461E+06 -2.919643E+05  1.870524E+05 -1.348589E+06 -4.023056E+04  1.549143E+04
       111  10 -5.072531E+06 -1.060277E+06 -4.147196E+05 -1.844297E+06  2.138765E-09  1.242871E-09
       111  11 -5.000830E+06 -9.311981E+05 -3.169259E+05 -1.802005E+06 -1.695351E-09 -8.354010E-10
       111  12 -4.909201E+06 -9.223782E+05 -2.655100E+05 -1.799159E+06 -6.440107E-10 -3.672900E-10
       111  13 -4.061333E+06 -6.632343E+05 -1.424508E+05 -1.553024E+06  6.156670E-09  2.119394E-10
       111  14 -4.067368E+06 -5.752431E+05 -6.816278E+04 -1.543792E+06 -2.016311E-09 -3.407417E-10
       111  15 -4.053188E+06 -6.071893E+05 -3.919900E+04 -1.574013E+06 -8.106886E-10 -1.623002E-10
       111  16 -3.049134E+06 -2.661055E+05  1.297276E+05 -1.261310E+06  1.717060E-09  9.406050E-10
       111  17 -3.133055E+06 -2.192298E+05  1.805243E+05 -1.285223E+06 -1.172541E-09 -1.573027E-10
       111  18 -3.196463E+06 -2.919650E+05  1.870489E+05 -1.348588E+06  2.538516E-10 -1.880230E-10
       111  19 -5.072518E+06 -1.060274E+06 -4.146964E+05 -1.844296E+06  1.104708E+05  5.189421E+03
       111  20 -5.000824E+06 -9.311966E+05 -3.169156E+05 -1.802005E+06  7.337805E+04 -7.478479E+03
       111  21 -4.909200E+06 -9.223775E+05 -2.655070E+05 -1.799160E+06  3.524083E+04 -1.736723E+04
       111  22 -4.061319E+06 -6.632309E+05 -1.424276E+05 -1.553024E+06  1.104668E+05  5.195361E+03
       111  23 -4.067362E+06 -5.752416E+05 -6.815217E+04 -1.543792E+06  7.461959E+04 -7.007686E+03
       111  24 -4.053186E+06 -6.071887E+05 -3.919580E+04 -1.574014E+06  3.773381E+04 -1.643000E+04
       111  25 -3.049121E+06 -2.661021E+05  1.297507E+05 -1.261310E+06  1.104627E+05  5.201241E+03
       111  26 -3.133049E+06 -2.192282E+05  1.805353E+05 -1.285223E+06  7.586313E+04 -6.536128E+03
       111  27 -3.196461E+06 -2.919643E+05  1.870524E+05 -1.348589E+06  4.023056E+04 -1.549143E+04
       112   1 -4.758081E+06 -8.858382E+05 -2.191628E+05 -1.766140E+06 -2.920916E+04  1.646211E+04
       112   2 -4.683437E+06 -8.091490E+05 -1.772310E+05 -1.704740E+06 -1.937433E+04  1.538739E+04
       112   3 -4.552462E+06 -8.000408E+05 -1.434796E+05 -1.710195E+06 -9.376341E+03  1.386089E+04
       112   4 -4.048186E+06 -6.173121E+05 -3.066708E+04 -1.571909E+06 -3.107712E+04  1.576021E+04
       112   5 -4.075902E+06 -5.803983E+05 -1.589763E+04 -1.539648E+06 -2.144461E+04  1.461141E+04
       112   6 -4.047252E+06 -6.110165E+05 -9.138955E+03 -1.574243E+06 -1.165051E+04  1.301048E+04
       112   7 -3.337803E+06 -3.487551E+05  1.577842E+05 -1.377476E+06 -3.294742E+04  1.505743E+04
       112   8 -3.468007E+06 -3.516256E+05  1.454036E+05 -1.374410E+06 -2.351713E+04  1.383459E+04
       112   9 -3.541794E+06 -4.219774E+05  1.251799E+05 -1.438190E+06 -1.392673E+04  1.215931E+04
       112  10 -4.758081E+06 -8.858387E+05 -2.191649E+05 -1.766139E+06 -1.599242E-09 -1.771727E-10
       112  11 -4.683438E+06 -8.091493E+05 -1.772322E+05 -1.704739E+06 -4.098556E-09 -7.074266E-10
       112  12 -4.552462E+06 -8.000410E+05 -1.434802E+05 -1.710194E+06 -4.360312E-09 -7.033238E-10
       112  13 -4.048187E+06 -6.173126E+05 -3.066936E+04 -1.571908E+06  1.656982E-09 -6.364139E-10
       112  14 -4.075902E+06 -5.803987E+05 -1.589890E+04 -1.539648E+06 -7.656456E-10  1.569501E-10
       112  15 -4.047253E+06 -6.110168E+05 -9.139528E+03 -1.574243E+06 -2.187363E-09  5.651135E-11
       112  16 -3.337805E+06 -3.487556E+05  1.577817E+05 -1.377476E+06 -4.929127E-10  4.410879E-10
       112  17 -3.468007E+06 -3.516259E+05  1.454022E+05 -1.374409E+06 -5.052699E-10  8.999080E-10
       112  18 -3.541794E+06 -4.219776E+05  1.251792E+05 -1.438190E+06  1.281848E-10 -6.248848E-11
       112  19 -4.758081E+06 -8.858382E+05 -2.191628E+05 -1.766140E+06  2.920916E+04 -1.646211E+04
       112  20 -4.683437E+06 -8.091490E+05 -1.772310E+05 -1.704740E+06  1.937433E+04 -1.538739E+04
       112  21 -4.552462E+06 -8.000408E+05 -1.434796E+05 -1.710195E+06  9.376341E+03 -1.386089E+04
       112  22 -4.048186E+06 -6.173121E+05 -3.066708E+04 -1.571909E+06  3.107712E+04 -1.576021E+04
       112  23 -4.075902E+06 -5.803983E+05 -1.589763E+04 -1.539648E+06  2.144461E+04 -1.461141E+04
       112  24 -4.047252E+06 -6.110165E+05 -9.138955E+03 -1.574243E+06  1.165051E+04 -1.301048E+04
       112  25 -3.337803E+06 -3.487551E+05  1.577842E+05 -1.377476E+06  3.294742E+04 -1.505743E+04
       112  26 -3.468007E+06 -3.516256E+05  1.454036E+05 -1.374410E+06  2.351713E+04 -1.383459E+04
       112  27 -3.541794E+06 -4.219774E+05  1.251799E+05 -1.438190E+06  1.392673E+04 -1.215931E+04
       113   1 -4.390613E+06 -7.426413E+05 -9.834292E+04 -1.668653E+06 -7.020966E+03  1.153286E+04
       113   2 -4.310206E+06 -6.669112E+05 -6.609067E+04 -1.600699E+06 -2.918595E+03  7.550266E+03
       113   3 -4.165304E+06 -6.572774E+05 -3.580811E+04 -1.607593E+06  1.223815E+03  3.452920E+03
       113   4 -4.045741E+06 -6.130736E+05 -7.217559E+03 -1.575113E+06 -9.265830E+03  1.069430E+04
       113   5 -4.077933E+06 -5.796955E+05 -4.467758E+03 -1.537810E+06 -5.216065E+03  6.692744E+03
       113   6 -4.045633E+06 -6.124012E+05 -3.643962E+03 -1.575358E+06 -1.126764E+03  2.576352E+03
       113   7 -3.700751E+06 -4.834985E+05  8.389771E+04 -1.481525E+06 -1.151207E+04  9.855219E+03
       113   8 -3.845608E+06 -4.924770E+05  5.715020E+04 -1.474900E+06 -7.514474E+03  5.834873E+03
       113   9 -3.925950E+06 -5.675246E+05  2.851859E+04 -1.543118E+06 -3.477819E+03  1.699608E+03
       113  10 -4.390613E+06 -7.426415E+05 -9.834327E+04 -1.668653E+06  2.940108E-10  2.093617E-10
       113  11 -4.310206E+06 -6.669112E+05 -6.609079E+04 -1.600699E+06  5.525084E-09  1.263255E-09
       113  12 -4.165304E+06 -6.572774E+05 -3.580813E+04 -1.607593E+06  9.258260E-09  2.931785E-09
       113  13 -4.045741E+06 -6.130737E+05 -7.217935E+03 -1.575113E+06 -7.011019E-10 -8.161634E-10
       113  14 -4.077933E+06 -5.796955E+05 -4.467893E+03 -1.537810E+06 -1.415823E-09 -1.466970E-09
       113  15 -4.045633E+06 -6.124012E+05 -3.643977E+03 -1.575358E+06  4.249386E-09  4.857173E-09
       113  16 -3.700752E+06 -4.834986E+05  8.389728E+04 -1.481525E+06  1.287713E-09 -2.257022E-09
       113  17 -3.845608E+06 -4.924770E+05  5.715003E+04 -1.474900E+06 -4.894316E-09 -2.469170E-09
       113  18 -3.925950E+06 -5.675247E+05  2.851856E+04 -1.543118E+06 -3.333444E-09 -2.260323E-09
       113  19 -4.390613E+06 -7.426413E+05 -9.834292E+04 -1.668653E+06  7.020966E+03 -1.153286E+04
       113  20 -4.310206E+06 -6.669112E+05 -6.609067E+04 -1.600699E+06  2.918595E+03 -7.550266E+03
       113  21 -4.165304E+06 -6.572774E+05 -3.580811E+04 -1.607593E+06 -1.223815E+03 -3.452920E+03
       113  22 -4.045741E+06 -6.130736E+05 -7.217559E+03 -1.575113E+06  9.265830E+03 -1.069430E+04
       113  23 -4.077933E+06 -5.796955E+05 -4.467758E+03 -1.537810E+06  5.216065E+03 -6.692744E+03
       113  24 -4.045633E+06 -6.124012E+05 -3.643962E+03 -1.575358E+06  1.126764E+03 -2.576352E+03
       113  25 -3.700751E+06 -4.834985E+05  8.389771E+04 -1.481525E+06  1.151207E+04 -9.855219E+03
       113  26 -3.845608E+06 -4.924770E+05  5.715020E+04 -1.474900E+06  7.514474E+03 -5.834873E+03
       113  27 -3.925950E+06 -5.675246E+05  2.851859E+04 -1.543118E+06  3.477819E+03 -1.699608E+03
       114   1 -3.997624E+06 -5.945643E+05  9.420525E+03 -1.562678E+06  2.920731E+03  7.533593E+02
       114   2 -3.916669E+06 -5.189796E+05  3.799525E+04 -1.493981E+06  7.145895E+03 -3.334122E+03
       114   3 -3.770853E+06 -5.100185E+05  6.451362E+04 -1.500660E+06  1.134199E+04 -7.335934E+03
       114   4 -4.045549E+06 -6.124976E+05 -3.706444E+03 -1.575484E+06  5.673939E+02 -1.241531E+02
       114   5 -4.078025E+06 -5.795439E+05 -4.799559E+03 -1.537660E+06  4.831723E+03 -4.197578E+03
       114   6 -4.045661E+06 -6.132248E+05 -7.980009E+03 -1.575218E+06  9.066486E+03 -8.185447E+03
       114   7 -4.093472E+06 -6.304310E+05 -1.683372E+04 -1.588290E+06 -1.785763E+03 -1.001600E+03
       114   8 -4.239357E+06 -6.401071E+05 -4.759694E+04 -1.581328E+06  2.518197E+03 -5.060794E+03
       114   9 -4.320397E+06 -7.164273E+05 -8.048060E+04 -1.649746E+06  6.792074E+03 -9.034550E+03
       114  10 -3.997624E+06 -5.945643E+05  9.420508E+03 -1.562678E+06 -8.664331E-10  2.241436E-10
       114  11 -3.916669E+06 -5.189796E+05  3.799513E+04 -1.493981E+06 -3.230249E-09  1.098777E-09
       114  12 -3.770853E+06 -5.100186E+05  6.451328E+04 -1.500660E+06 -4.532636E-09 -2.859910E-09
       114  13 -4.045549E+06 -6.124976E+05 -3.706444E+03 -1.575484E+06  1.299447E-09  5.657841E-09
       114  14 -4.078025E+06 -5.795439E+05 -4.799636E+03 -1.537660E+06 -2.116218E-09  1.034033E-09
       114  15 -4.045661E+06 -6.132249E+05 -7.980289E+03 -1.575218E+06 -3.707560E-09 -3.655814E-10
       114  16 -4.093472E+06 -6.304310E+05 -1.683372E+04 -1.588290E+06  3.739687E-09  1.433145E-09
       114  17 -4.239357E+06 -6.401072E+05 -4.759700E+04 -1.581328E+06  4.930537E-09  3.785513E-10
       114  18 -4.320397E+06 -7.164274E+05 -8.048084E+04 -1.649746E+06 -1.779085E-09 -1.454470E-09
       114  19 -3.997624E+06 -5.945643E+05  9.420525E+03 -1.562678E+06 -2.920731E+03 -7.533593E+02
       114  20 -3.916669E+06 -5.189796E+05  3.799525E+04 -1.493981E+06 -7.145895E+03  3.334122E+03
       114  21 -3.770853E+06 -5.100185E+05  6.451362E+04 -1.500660E+06 -1.134199E+04  7.335934E+03
       114  22 -4.045549E+06 -6.124976E+05 -3.706444E+03 -1.575484E+06 -5.673939E+02  1.241531E+02
       114  23 -4.078025E+06 -5.795439E+05 -4.799559E+03 -1.537660E+06 -4.831723E+03  4.197578E+03
       114  24 -4.045661E+06 -6.132248E+05 -7.980009E+03 -1.575218E+06 -9.066486E+03  8.185447E+03
       114  25 -4.093472E+06 -6.304310E+05 -1.683372E+04 -1.588290E+06  1.785763E+03  1.001600E+03
       114  26 -4.239357E+06 -6.401071E+05 -4.759694E+04 -1.581328E+06 -2.518197E+03  5.060794E+03
       114  27 -4.320397E+06 -7.164273E+05 -8.048060E+04 -1.649746E+06 -6.792074E+03  9.034550E+03
       115   1 -3.609509E+06 -4.478853E+05  1.061106E+05 -1.457154E+06  1.392157E+04 -9.622199E+03
       115   2 -3.533865E+06 -3.758245E+05  1.261105E+05 -1.391856E+06  2.451305E+04 -1.102258E+04
       115   3 -3.401115E+06 -3.735408E+05  1.372502E+05 -1.394801E+06  3.495658E+04 -1.200426E+04
       115   4 -4.047053E+06 -6.112721E+05 -1.017586E+04 -1.574642E+06  1.161302E+04 -1.048480E+04
       115   5 -4.076097E+06 -5.798661E+05 -1.776868E+04 -1.539217E+06  2.239233E+04 -1.181663E+04
       115   6 -4.048086E+06 -6.182835E+05 -3.437698E+04 -1.572043E+06  3.302207E+04 -1.273019E+04
       115   7 -4.484406E+06 -7.746467E+05 -1.264777E+05 -1.692055E+06  9.306296E+03 -1.134673E+04
       115   8 -4.618042E+06 -7.838894E+05 -1.616729E+05 -1.686462E+06  2.027367E+04 -1.260992E+04
       115   9 -4.694654E+06 -8.630009E+05 -2.060413E+05 -1.749117E+06  3.108976E+04 -1.345529E+04
       115  10 -3.609509E+06 -4.478854E+05  1.061101E+05 -1.457153E+06 -4.226192E-09 -1.476496E-09
       115  11 -3.533865E+06 -3.758248E+05  1.261091E+05 -1.391855E+06 -1.926505E-10  2.387835E-09
       115  12 -3.401116E+06 -3.735413E+05  1.372476E+05 -1.394800E+06  6.595617E-10  1.389459E-09
       115  13 -4.047053E+06 -6.112723E+05 -1.017632E+04 -1.574642E+06 -5.270548E-09 -1.271202E-09
       115  14 -4.076098E+06 -5.798664E+05 -1.776989E+04 -1.539217E+06 -3.828305E-09  5.455622E-10
       115  15 -4.048088E+06 -6.182839E+05 -3.437934E+04 -1.572042E+06  4.138233E-09 -3.791726E-10
       115  16 -4.484406E+06 -7.746468E+05 -1.264781E+05 -1.692055E+06 -1.596657E-09 -6.954855E-10
       115  17 -4.618042E+06 -7.838897E+05 -1.616740E+05 -1.686461E+06 -2.045556E-11  6.261492E-10
       115  18 -4.694655E+06 -8.630013E+05 -2.060435E+05 -1.749117E+06  1.397140E-09 -3.973415E-10
       115  19 -3.609509E+06 -4.478853E+05  1.061106E+05 -1.457154E+06 -1.392157E+04  9.622199E+03
       115  20 -3.533865E+06 -3.758245E+05  1.261105E+05 -1.391856E+06 -2.451305E+04  1.102258E+04
       115  21 -3.401115E+06 -3.735408E+05  1.372502E+05 -1.394801E+06 -3.495658E+04  1.200426E+04
       115  22 -4.047053E+06 -6.112721E+05 -1.017586E+04 -1.574642E+06 -1.161302E+04  1.048480E+04
       115  23 -4.076097E+06 -5.798661E+05 -1.776868E+04 -1.539217E+06 -2.239233E+04  1.181663E+04
       115  24 -4.048086E+06 -6.182835E+05 -3.437698E+04 -1.572043E+06 -3.302207E+04  1.273019E+04
       115  25 -4.484406E+06 -7.746467E+05 -1.264777E+05 -1.692055E+06 -9.306296E+03  1.134673E+04
       115  26 -4.618042E+06 -7.838894E+05 -1.616729E+05 -1.686462E+06 -2.027367E+04  1.260992E+04
       115  27 -4.694654E+06 -8.630009E+05 -2.060413E+05 -1.749117E+06 -3.108976E+04  1.345529E+04
       116   1 -3.254779E+06 -3.151057E+05  1.666584E+05 -1.366404E+06  4.293709E+04 -1.225733E+04
       116   2 -3.188179E+06 -2.381243E+05  1.576153E+05 -1.299501E+06  8.296507E+04 -1.832300E+03
       116   3 -3.102936E+06 -2.914496E+05  9.868383E+04 -1.272481E+06  1.219914E+05  1.129637E+04
       116   4 -4.053283E+06 -6.073854E+05 -4.396098E+04 -1.574914E+06  4.038847E+04 -1.321403E+04
       116   5 -4.067005E+06 -5.734885E+05 -7.640448E+04 -1.543216E+06  8.162942E+04 -2.337678E+03
       116   6 -4.062379E+06 -6.702211E+05 -1.597595E+05 -1.551401E+06  1.218624E+05  1.124012E+04
       116   7 -4.851168E+06 -8.996359E+05 -2.546350E+05 -1.783185E+06  3.784345E+04 -1.416948E+04
       116   8 -4.945079E+06 -9.088003E+05 -3.104915E+05 -1.786615E+06  8.029579E+04 -2.842279E+03
       116   9 -5.020924E+06 -1.048912E+06 -4.182843E+05 -1.829921E+06  1.217336E+05  1.118389E+04
       116  10 -3.254781E+06 -3.151063E+05  1.666547E+05 -1.366403E+06  1.740333E-09  5.148222E-10
       116  11 -3.188186E+06 -2.381262E+05  1.576023E+05 -1.299501E+06  1.913190E-09  1.116025E-09
       116  12 -3.102952E+06 -2.914537E+05  9.865548E+04 -1.272482E+06 -1.080273E-09  1.262809E-09
       116  13 -4.053285E+06 -6.073860E+05 -4.396439E+04 -1.574914E+06  2.965331E-09  3.598747E-10
       116  14 -4.067012E+06 -5.734903E+05 -7.641709E+04 -1.543216E+06  2.750902E-10  1.941144E-09
       116  15 -4.062395E+06 -6.702253E+05 -1.597878E+05 -1.551403E+06  1.675985E-09 -4.505049E-10
       116  16 -4.851169E+06 -8.996365E+05 -2.546381E+05 -1.783185E+06  1.933693E-09  1.183760E-09
       116  17 -4.945086E+06 -9.088021E+05 -3.105037E+05 -1.786615E+06  9.466181E-10  1.347278E-09
       116  18 -5.020940E+06 -1.048916E+06 -4.183126E+05 -1.829922E+06  5.624698E-10 -3.296409E-10
       116  19 -3.254779E+06 -3.151057E+05  1.666584E+05 -1.366404E+06 -4.293709E+04  1.225733E+04
       116  20 -3.188179E+06 -2.381243E+05  1.576153E+05 -1.299501E+06 -8.296507E+04  1.832300E+03
       116  21 -3.102936E+06 -2.914496E+05  9.868383E+04 -1.272481E+06 -1.219914E+05 -1.129637E+04
       116  22 -4.053283E+06 -6.073854E+05 -4.396098E+04 -1.574914E+06 -4.038847E+04  1.321403E+04
       116  23 -4.067005E+06 -5.734885E+05 -7.640448E+04 -1.543216E+06 -8.162942E+04  2.337678E+03
       116  24 -4.062379E+06 -6.702211E+05 -1.597595E+05 -1.551401E+06 -1.218624E+05 -1.124012E+04
       116  25 -4.851168E+06 -8.996359E+05 -2.546350E+05 -1.783185E+06 -3.784345E+04  1.416948E+04
       116  26 -4.945079E+06 -9.088003E+05 -3.104915E+05 -1.786615E+06 -8.029579E+04  2.842279E+03
       116  27 -5.020924E+06 -1.048912E+06 -4.182843E+05 -1.829921E+06 -1.217336E+05 -1.118389E+04
       117   1 -2.950574E+06 -2.270634E+05  9.231738E+04 -1.356590E+06  1.600969E+05  1.870608E+04
       117   2 -2.887570E+06 -2.648417E+04 -1.814636E+04 -1.203094E+06  3.247702E+05  7.798448E+04
       117   3 -3.071949E+06 -5.683199E+05 -4.436233E+05 -9.086056E+05  4.784766E+05  1.663697E+05
       117   4 -4.090409E+06 -5.857838E+05 -1.962608E+05 -1.594549E+06  1.519313E+05  1.564767E+04
       117   5 -4.006353E+06 -4.968864E+05 -3.239835E+05 -1.557995E+06  3.299527E+05  7.990465E+04
       117   6 -4.172886E+06 -1.153934E+06 -7.778058E+05 -1.380313E+06  4.969978E+05  1.732153E+05
       117   7 -5.228983E+06 -9.445122E+05 -4.849395E+05 -1.832155E+06  1.437819E+05  1.259305E+04
       117   8 -5.123908E+06 -9.671247E+05 -6.299344E+05 -1.912283E+06  3.351244E+05  8.181968E+04
       117   9 -5.272564E+06 -1.739071E+06 -1.112103E+06 -1.851138E+06  5.154820E+05  1.800341E+05
       117  10 -2.950601E+06 -2.270707E+05  9.226830E+04 -1.356592E+06 -2.553046E-09 -6.728854E-10
       117  11 -2.887685E+06 -2.651924E+04 -1.835715E+04 -1.203115E+06  4.116875E-10 -5.602269E-10
       117  12 -3.072203E+06 -5.684116E+05 -4.441081E+05 -9.086699E+05  2.631928E-09 -1.153565E-09
       117  13 -4.090434E+06 -5.857903E+05 -1.963049E+05 -1.594551E+06 -1.862122E-09 -7.221049E-10
       117  14 -4.006473E+06 -4.969228E+05 -3.242017E+05 -1.558016E+06  2.458349E-10  1.430707E-09
       117  15 -4.173161E+06 -1.154033E+06 -7.783303E+05 -1.380382E+06  3.894969E-09 -4.340308E-10
       117  16 -5.229006E+06 -9.445180E+05 -4.849789E+05 -1.832156E+06  2.819960E-09 -9.294439E-10
       117  17 -5.124031E+06 -9.671625E+05 -6.301601E+05 -1.912305E+06 -2.034642E-09  2.281314E-09
       117  18 -5.272860E+06 -1.739178E+06 -1.112669E+06 -1.851214E+06  3.815072E-09 -1.153513E-09
       117  19 -2.950574E+06 -2.270634E+05  9.231738E+04 -1.356590E+06 -1.600969E+05 -1.870608E+04
       117  20 -2.887570E+06 -2.648417E+04 -1.814636E+04 -1.203094E+06 -3.247702E+05 -7.798448E+04
       117  21 -3.071949E+06 -5.683199E+05 -4.436233E+05 -9.086056E+05 -4.784766E+05 -1.663697E+05
       117  22 -4.090409E+06 -5.857838E+05 -1.962608E+05 -1.594549E+06 -1.519313E+05 -1.564767E+04
       117  23 -4.006353E+06 -4.968864E+05 -3.239835E+05 -1.557995E+06 -3.299527E+05 -7.990465E+04
       117  24 -4.172886E+06 -1.153934E+06 -7.778058E+05 -1.380313E+06 -4.969978E+05 -1.732153E+05
       117  25 -5.228983E+06 -9.445122E+05 -4.849395E+05 -1.832155E+06 -1.437819E+05 -1.259305E+04
       117  26 -5.123908E+06 -9.671247E+05 -6.299344E+05 -1.912283E+06 -3.351244E+05 -8.181968E+04
       117  27 -5.272564E+06 -1.739071E+06 -1.112103E+06 -1.851138E+06 -5.154820E+05 -1.800341E+05
       118   1 -9.609674E+05  1.214948E+05  1.700570E+05  1.213481E+04  1.408776E+05  7.424125E+02
       118   2 -9.936054E+05 -7.434177E+04  5.125047E+04  1.389737E+03  9.276792E+04  1.476082E+03
       118   3 -9.625915E+05 -4.246733E+04  2.082577E+04 -7.151376E+03  4.465948E+04  1.239624E+03
       118   4 -8.135832E+05  1.582991E+05  2.068882E+05 -8.247712E+02  1.410593E+05  7.397900E+02
       118   5 -8.454513E+05 -3.729923E+04  8.822016E+04 -1.757428E+03  9.282314E+04  1.475658E+03
       118   6 -8.136600E+05 -5.193601E+03  5.800702E+04 -4.865729E+02  4.458816E+04  1.239979E+03
       118   7 -6.661789E+05  1.951024E+05  2.437179E+05 -1.378744E+04  1.412411E+05  7.371604E+02
       118   8 -6.972773E+05 -2.582996E+02  1.251882E+05 -4.905355E+03  9.287837E+04  1.475234E+03
       118   9 -6.647083E+05  3.207861E+04  9.518661E+04  6.179825E+03  4.451683E+04  1.240332E+03
       118  10 -9.609888E+05  1.214894E+05  1.700196E+05  1.213472E+04 -1.700392E-09  1.358946E-09
       118  11 -9.936146E+05 -7.434409E+04  5.123427E+04  1.389627E+03 -3.005383E-10  5.643086E-10
       118  12 -9.625936E+05 -4.246787E+04  2.082201E+04 -7.151421E+03  8.058159E-10 -5.971382E-10
       118  13 -8.136046E+05  1.582937E+05  2.068508E+05 -8.248552E+02 -1.398357E-12  5.986637E-10
       118  14 -8.454606E+05 -3.730154E+04  8.820394E+04 -1.757539E+03  2.314055E-10 -1.322244E-09
       118  15 -8.136621E+05 -5.194138E+03  5.800327E+04 -4.866174E+02  3.519804E-09 -2.161879E-10
       118  16 -6.662003E+05  1.950970E+05  2.436803E+05 -1.378752E+04  1.670406E-09  1.004683E-09
       118  17 -6.972866E+05 -2.606206E+02  1.251720E+05 -4.905466E+03  2.633151E-09  5.829004E-11
       118  18 -6.647104E+05  3.207808E+04  9.518288E+04  6.179780E+03 -1.128448E-09 -9.823947E-10
       118  19 -9.609674E+05  1.214948E+05  1.700570E+05  1.213481E+04 -1.408776E+05 -7.424125E+02
       118  20 -9.936054E+05 -7.434177E+04  5.125047E+04  1.389737E+03 -9.276792E+04 -1.476082E+03
       118  21 -9.625915E+05 -4.246733E+04  2.082577E+04 -7.151376E+03 -4.465948E+04 -1.239624E+03
       118  22 -8.135832E+05  1.582991E+05  2.068882E+05 -8.247712E+02 -1.410593E+05 -7.397900E+02
       118  23 -8.454513E+05 -3.729923E+04  8.822016E+04 -1.757428E+03 -9.282314E+04 -1.475658E+03
       118  24 -8.136600E+05 -5.193601E+03  5.800702E+04 -4.865729E+02 -4.458816E+04 -1.239979E+03
       118  25 -6.661789E+05  1.951024E+05  2.437179E+05 -1.378744E+04 -1.412411E+05 -7.371604E+02
       118  26 -6.972773E+05 -2.582997E+02  1.251882E+05 -4.905355E+03 -9.287837E+04 -1.475234E+03
       118  27 -6.647083E+05  3.207861E+04  9.518661E+04  6.179825E+03 -4.451683E+04 -1.240332E+03
       119   1 -9.726734E+05 -1.256808E+04  1.124799E+04 -5.993702E+01  3.493865E+04  1.082784E+03
       119   2 -9.769543E+05 -4.229475E+04 -1.367496E+04  2.340913E+02  2.298393E+04  1.201277E+03
       119   3 -9.705053E+05 -3.706352E+04 -2.197972E+04 -2.896086E+03  1.102964E+04  1.055511E+03
       119   4 -8.254038E+05  2.426436E+04  4.801913E+04 -1.864188E+03  3.497603E+04  1.082702E+03
       119   5 -8.307776E+05 -5.732893E+03  2.281314E+04 -1.382694E+02  2.298713E+04  1.201245E+03
       119   6 -8.254181E+05 -7.707006E+02  1.424636E+04 -1.836525E+03  1.099868E+04  1.055502E+03
       119   7 -6.781144E+05  6.109518E+04  8.478865E+04 -3.668874E+03  3.501341E+04  1.082620E+03
       119   8 -6.845816E+05  3.082735E+04  5.929962E+04 -5.107215E+02  2.299033E+04  1.201213E+03
       119   9 -6.803117E+05  3.552053E+04  5.047084E+04 -7.767173E+02  1.096771E+04  1.055492E+03
       119  10 -9.726748E+05 -1.256841E+04  1.124569E+04 -5.996749E+01  1.515544E-09 -1.121020E-09
       119  11 -9.769548E+05 -4.229489E+04 -1.367595E+04  2.340690E+02 -2.198378E-11  1.348257E-09
       119  12 -9.705054E+05 -3.706355E+04 -2.197995E+04 -2.896095E+03 -3.642629E-10 -6.219502E-10
       119  13 -8.254051E+05  2.426403E+04  4.801683E+04 -1.864219E+03  3.230757E-09 -7.319132E-10
       119  14 -8.307782E+05 -5.733036E+03  2.281214E+04 -1.382916E+02 -1.037562E-10  2.718181E-10
       119  15 -8.254182E+05 -7.707343E+02  1.424613E+04 -1.836534E+03  4.310887E-10 -6.681553E-10
       119  16 -6.781157E+05  6.109485E+04  8.478634E+04 -3.668904E+03  1.062546E-09 -2.911754E-10
       119  17 -6.845822E+05  3.082721E+04  5.929863E+04 -5.107438E+02 -1.444334E-09 -7.349875E-10
       119  18 -6.803119E+05  3.552049E+04  5.047061E+04 -7.767266E+02  1.558030E-09 -2.965572E-10
       119  19 -9.726734E+05 -1.256808E+04  1.124799E+04 -5.993702E+01 -3.493865E+04 -1.082784E+03
       119  20 -9.769543E+05 -4.229475E+04 -1.367496E+04  2.340913E+02 -2.298393E+04 -1.201277E+03
       119  21 -9.705053E+05 -3.706352E+04 -2.197972E+04 -2.896086E+03 -1.102964E+04 -1.055511E+03
       119  22 -8.254038E+05  2.426436E+04  4.801913E+04 -1.864188E+03 -3.497603E+04 -1.082702E+03
       119  23 -8.307776E+05 -5.732893E+03  2.281314E+04 -1.382694E+02 -2.298713E+04 -1.201245E+03
       119  24 -8.254181E+05 -7.707006E+02  1.424636E+04 -1.836525E+03 -1.099868E+04 -1.055502E+03
       119  25 -6.781144E+05  6.109518E+04  8.478865E+04 -3.668874E+03 -3.501341E+04 -1.082620E+03
       119  26 -6.845816E+05  3.082735E+04  5.929962E+04 -5.107215E+02 -2.299033E+04 -1.201213E+03
       119  27 -6.803117E+05  3.552053E+04  5.047084E+04 -7.767173E+02 -1.096771E+04 -1.055492E+03
       120   1 -9.447695E+05 -2.567716E+04 -1.789862E+04 -2.768918E+03  8.668968E+03  9.708204E+02
       120   2 -9.429810E+05 -2.955080E+04 -2.281190E+04  1.398414E+03  5.705592E+03  9.137834E+02
       120   3 -9.392124E+05 -2.808023E+04 -2.440591E+04 -3.146626E+03  2.742077E+03  7.322276E+02
       120   4 -8.273577E+05  3.689480E+03  1.140746E+04 -3.020510E+03  8.670784E+03  9.708054E+02
       120   5 -8.283510E+05 -8.792561E+02  5.802412E+03  1.335973E+03  5.691986E+03  9.137734E+02
       120   6 -8.273618E+05 -1.016378E+02  3.526923E+03 -3.019814E+03  2.713062E+03  7.322309E+02
       120   7 -7.099335E+05  3.305508E+04  4.071251E+04 -3.272150E+03  8.672600E+03  9.707905E+02
       120   8 -7.137091E+05  2.779130E+04  3.441574E+04  1.273519E+03  5.678377E+03  9.137634E+02
       120   9 -7.154999E+05  2.787601E+04  3.145881E+04 -2.892978E+03  2.684042E+03  7.322342E+02
       120  10 -9.447696E+05 -2.567718E+04 -1.789876E+04 -2.768924E+03 -1.362698E-09 -4.232018E-10
       120  11 -9.429810E+05 -2.955081E+04 -2.281197E+04  1.398410E+03  1.058295E-09  6.117975E-10
       120  12 -9.392124E+05 -2.808023E+04 -2.440592E+04 -3.146628E+03 -2.805652E-09  2.280619E-11
       120  13 -8.273578E+05  3.689459E+03  1.140732E+04 -3.020517E+03 -2.127944E-09 -4.079243E-10
       120  14 -8.283511E+05 -8.792657E+02  5.802350E+03  1.335968E+03 -1.207438E-09  4.029966E-10
       120  15 -8.273618E+05 -1.016403E+02  3.526909E+03 -3.019816E+03  1.146877E-09 -1.174805E-10
       120  16 -7.099336E+05  3.305505E+04  4.071237E+04 -3.272157E+03  1.240701E-09 -1.515964E-10
       120  17 -7.137092E+05  2.779129E+04  3.441568E+04  1.273515E+03  1.044222E-09  9.175574E-11
       120  18 -7.154999E+05  2.787601E+04  3.145880E+04 -2.892979E+03  2.571280E-09  4.800581E-10
       120  19 -9.447695E+05 -2.567716E+04 -1.789862E+04 -2.768918E+03 -8.668968E+03 -9.708204E+02
       120  20 -9.429810E+05 -2.955080E+04 -2.281190E+04  1.398414E+03 -5.705592E+03 -9.137834E+02
       120  21 -9.392124E+05 -2.808023E+04 -2.440591E+04 -3.146626E+03 -2.742077E+03 -7.322276E+02
       120  22 -8.273577E+05  3.689480E+03  1.140746E+04 -3.020510E+03 -8.670784E+03 -9.708054E+02
       120  23 -8.283510E+05 -8.792561E+02  5.802412E+03  1.335973E+03 -5.691986E+03 -9.137734E+02
       120  24 -8.273618E+05 -1.016378E+02  3.526923E+03 -3.019814E+03 -2.713062E+03 -7.322309E+02
       120  25 -7.099335E+05  3.305508E+04  4.071251E+04 -3.272150E+03 -8.672600E+03 -9.707905E+02
       120  26 -7.137091E+05  2.779130E+04  3.441574E+04  1.273519E+03 -5.678377E+03 -9.137634E+02
       120  27 -7.154999E+05  2.787601E+04  3.145881E+04 -2.892978E+03 -2.684042E+03 -7.322342E+02
       121   1 -8.915473E+05 -1.541066E+04 -1.316205E+04 -3.751909E+03  2.155780E+03  6.234164E+02
       121   2 -8.878042E+05 -1.511893E+04 -1.347035E+04  2.358404E+03  1.412619E+03  4.754619E+02
       121   3 -8.837084E+05 -1.400732E+04 -1.307919E+04 -3.801430E+03  6.693550E+02  2.706020E+02
       121   4 -8.277205E+05  5.515855E+02  2.761103E+03 -3.810358E+03  2.141558E+03  6.234194E+02
       121   5 -8.278982E+05 -1.355609E+02  1.483204E+03  2.324538E+03  1.391507E+03  4.754727E+02
       121   6 -8.277221E+05 -1.687803E+00  9.095088E+02 -3.810640E+03  6.413578E+02  2.706231E+02
       121   7 -7.638901E+05  1.651353E+04  1.868395E+04 -3.868813E+03  2.127334E+03  6.234224E+02
       121   8 -7.679890E+05  1.484753E+04  1.643649E+04  2.290668E+03  1.370393E+03  4.754836E+02
       121   9 -7.717330E+05  1.400371E+04  1.489797E+04 -3.819850E+03  6.133580E+02  2.706442E+02
       121  10 -8.915473E+05 -1.541067E+04 -1.316206E+04 -3.751910E+03 -1.063169E-09 -1.293460E-10
       121  11 -8.878042E+05 -1.511893E+04 -1.347036E+04  2.358404E+03 -1.298206E-10  7.927443E-10
       121  12 -8.837084E+05 -1.400732E+04 -1.307919E+04 -3.801430E+03 -1.834320E-09  3.163220E-10
       121  13 -8.277205E+05  5.515838E+02  2.761093E+03 -3.810359E+03  3.751469E-10  3.012049E-10
       121  14 -8.278982E+05 -1.355617E+02  1.483200E+03  2.324537E+03 -6.276035E-11 -3.412979E-10
       121  15 -8.277221E+05 -1.687992E+00  9.095079E+02 -3.810640E+03  1.317222E-09 -3.070357E-10
       121  16 -7.638901E+05  1.651353E+04  1.868394E+04 -3.868814E+03  4.088334E-09 -9.512031E-10
       121  17 -7.679890E+05  1.484753E+04  1.643649E+04  2.290668E+03 -3.516670E-09  8.475998E-11
       121  18 -7.717330E+05  1.400371E+04  1.489797E+04 -3.819850E+03  9.445804E-12 -7.299249E-10
       121  19 -8.915473E+05 -1.541066E+04 -1.316205E+04 -3.751909E+03 -2.155780E+03 -6.234164E+02
       121  20 -8.878042E+05 -1.511893E+04 -1.347035E+04  2.358404E+03 -1.412619E+03 -4.754619E+02
       121  21 -8.837084E+05 -1.400732E+04 -1.307919E+04 -3.801430E+03 -6.693550E+02 -2.706020E+02
       121  22 -8.277205E+05  5.515855E+02  2.761103E+03 -3.810358E+03 -2.141558E+03 -6.234194E+02
       121  23 -8.278982E+05 -1.355609E+02  1.483204E+03  2.324538E+03 -1.391507E+03 -4.754727E+02
       121  24 -8.277221E+05 -1.687803E+00  9.095088E+02 -3.810640E+03 -6.413578E+02 -2.706231E+02
       121  25 -7.638901E+05  1.651353E+04  1.868395E+04 -3.868813E+03 -2.127334E+03 -6.234224E+02
       121  26 -7.679890E+05  1.484753E+04  1.643649E+04  2.290668E+03 -1.370393E+03 -4.754836E+02
       121  27 -7.717330E+05  1.400371E+04  1.489797E+04 -3.819850E+03 -6.133580E+02 -2.706442E+02
       122   1 -8.251230E+05  7.540221E+02  1.398906E+03 -4.047772E+03  5.173777E+02  1.410727E+02
       122   2 -8.208807E+05  1.704864E+03  2.186540E+03  2.620099E+03  2.876044E+02 -5.584542E+01
       122   3 -8.165915E+05  2.830273E+03  3.162109E+03 -4.063046E+03  5.784878E+01 -2.430987E+02
       122   4 -8.277892E+05  8.464578E+01  7.206786E+02 -4.050709E+03  4.931657E+02  1.410933E+02
       122   5 -8.278126E+05 -2.883087E+01  4.563253E+02  2.624780E+03  2.645520E+02 -5.582644E+01
       122   6 -8.277892E+05  3.207495E+01  3.791170E+02 -4.050755E+03  3.595763E+01 -2.430811E+02
       122   7 -8.304555E+05 -5.847310E+02  4.245102E+01 -4.053647E+03  4.689538E+02  1.411139E+02
       122   8 -8.347445E+05 -1.762530E+03 -1.273893E+03  2.629461E+03  2.415000E+02 -5.580747E+01
       122   9 -8.389868E+05 -2.766132E+03 -2.403884E+03 -4.038464E+03  1.406687E+01 -2.430636E+02
       122  10 -8.251230E+05  7.540220E+02  1.398905E+03 -4.047772E+03  5.454093E-11  4.623650E-11
       122  11 -8.208807E+05  1.704864E+03  2.186540E+03  2.620099E+03  3.293223E-10 -1.247951E-10
       122  12 -8.165915E+05  2.830273E+03  3.162109E+03 -4.063046E+03 -1.943617E-10 -8.384880E-10
       122  13 -8.277892E+05  8.464570E+01  7.206781E+02 -4.050709E+03  1.334239E-09  9.592703E-10
       122  14 -8.278126E+05 -2.883089E+01  4.563251E+02  2.624780E+03  3.639527E-09  6.415703E-10
       122  15 -8.277892E+05  3.207488E+01  3.791169E+02 -4.050755E+03  1.404589E-09 -1.017341E-09
       122  16 -8.304555E+05 -5.847311E+02  4.245057E+01 -4.053647E+03  1.046239E-09  2.846523E-11
       122  17 -8.347445E+05 -1.762530E+03 -1.273894E+03  2.629461E+03  2.626438E-09  5.577947E-10
       122  18 -8.389868E+05 -2.766132E+03 -2.403885E+03 -4.038464E+03 -5.588215E-10  1.207276E-10
       122  19 -8.251230E+05  7.540221E+02  1.398906E+03 -4.047772E+03 -5.173777E+02 -1.410727E+02
       122  20 -8.208807E+05  1.704864E+03  2.186540E+03  2.620099E+03 -2.876044E+02  5.584542E+01
       122  21 -8.165915E+05  2.830273E+03  3.162109E+03 -4.063046E+03 -5.784878E+01  2.430987E+02
       122  22 -8.277892E+05  8.464578E+01  7.206786E+02 -4.050709E+03 -4.931657E+02 -1.410933E+02
       122  23 -8.278126E+05 -2.883087E+01  4.563253E+02  2.624780E+03 -2.645520E+02  5.582644E+01
       122  24 -8.277892E+05  3.207495E+01  3.791170E+02 -4.050755E+03 -3.595763E+01  2.430811E+02
       122  25 -8.304555E+05 -5.847310E+02  4.245102E+01 -4.053647E+03 -4.689538E+02 -1.411139E+02
       122  26 -8.347445E+05 -1.762530E+03 -1.273893E+03  2.629461E+03 -2.415000E+02  5.580747E+01
       122  27 -8.389868E+05 -2.766132E+03 -2.403884E+03 -4.038464E+03 -1.406687E+01  2.430636E+02
       123   1 -7.591328E+05  1.718052E+04  1.752377E+04 -3.721196E+03 -3.619430E+00 -3.726874E+02
       123   2 -7.554837E+05  1.804207E+04  1.850239E+04  2.141173E+03 -2.396116E+02 -5.786988E+02
       123   3 -7.516302E+05  1.925240E+04  1.973927E+04 -3.728516E+03 -4.754887E+02 -6.946846E+02
       123   4 -8.277562E+05  1.543144E+01  3.820010E+02 -3.691021E+03 -3.373303E+01 -3.726673E+02
       123   5 -8.278568E+05 -5.798877E+01  4.385259E+02  2.175087E+03 -2.589093E+02 -5.786921E+02
       123   6 -8.277548E+05  2.154863E+02  7.458029E+02 -3.690948E+03 -4.839688E+02 -6.946866E+02
       123   7 -8.963753E+05 -1.715001E+04 -1.676013E+04 -3.660849E+03 -6.384330E+01 -3.726472E+02
       123   8 -9.002251E+05 -1.815845E+04 -1.762573E+04  2.208998E+03 -2.782047E+02 -5.786854E+02
       123   9 -9.038742E+05 -1.882187E+04 -1.824810E+04 -3.653384E+03 -4.924478E+02 -6.946887E+02
       123  10 -7.591328E+05  1.718052E+04  1.752377E+04 -3.721196E+03  7.433313E-10  6.332809E-10
       123  11 -7.554837E+05  1.804207E+04  1.850239E+04  2.141172E+03  6.877395E-10 -2.630461E-10
       123  12 -7.516302E+05  1.925240E+04  1.973927E+04 -3.728517E+03 -2.176203E-09  5.353264E-10
       123  13 -8.277562E+05  1.543130E+01  3.820008E+02 -3.691021E+03  1.845687E-09 -3.653644E-10
       123  14 -8.278568E+05 -5.798915E+01  4.385252E+02  2.175087E+03  1.779573E-09 -8.795826E-10
       123  15 -8.277548E+05  2.154858E+02  7.458015E+02 -3.690949E+03 -7.099210E-10  1.002546E-10
       123  16 -8.963753E+05 -1.715001E+04 -1.676013E+04 -3.660849E+03  1.274139E-09  1.043444E-09
       123  17 -9.002251E+05 -1.815845E+04 -1.762573E+04  2.208998E+03  1.268344E-09 -9.580863E-10
       123  18 -9.038742E+05 -1.882187E+04 -1.824810E+04 -3.653385E+03  3.216849E-10 -1.800928E-10
       123  19 -7.591328E+05  1.718052E+04  1.752377E+04 -3.721196E+03  3.619430E+00  3.726874E+02
       123  20 -7.554837E+05  1.804207E+04  1.850239E+04  2.141173E+03  2.396116E+02  5.786988E+02
       123  21 -7.516302E+05  1.925240E+04  1.973927E+04 -3.728516E+03  4.754887E+02  6.946846E+02
       123  22 -8.277562E+05  1.543144E+01  3.820010E+02 -3.691021E+03  3.373303E+01  3.726673E+02
       123  23 -8.278568E+05 -5.798877E+01  4.385259E+02  2.175087E+03  2.589093E+02  5.786921E+02
       123  24 -8.277548E+05  2.154863E+02  7.458029E+02 -3.690948E+03  4.839688E+02  6.946866E+02
       123  25 -8.963753E+05 -1.715001E+04 -1.676013E+04 -3.660849E+03  6.384330E+01  3.726472E+02
       123  26 -9.002251E+05 -1.815845E+04 -1.762573E+04  2.208998E+03  2.782047E+02  5.786854E+02
       123  27 -9.038742E+05 -1.882187E+04 -1.824810E+04 -3.653384E+03  4.924478E+02  6.946887E+02
       124   1 -7.068839E+05  3.015567E+04  3.105775E+04 -2.767371E+03 -5.988694E+02 -8.158458E+02
       124   2 -7.048751E+05  3.045349E+04  3.213383E+04  1.046249E+03 -1.365793E+03 -1.003088E+03
       124   3 -7.019307E+05  3.289267E+04  3.430521E+04 -2.883757E+03 -2.132694E+03 -9.253048E+02
       124   4 -8.275963E+05 -3.514224E+01  9.179272E+02 -2.804555E+03 -6.371427E+02 -8.158464E+02
       124   5 -8.280603E+05 -3.531175E+02  1.389928E+03  1.067035E+03 -1.372161E+03 -1.003101E+03
       124   6 -8.275941E+05  1.464937E+03  2.935204E+03 -2.805097E+03 -2.107154E+03 -9.253072E+02
       124   7 -9.482955E+05 -3.022705E+04 -2.922300E+04 -2.841730E+03 -6.754085E+02 -8.158471E+02
       124   8 -9.512317E+05 -3.116087E+04 -2.935511E+04  1.087816E+03 -1.378528E+03 -1.003114E+03
       124   9 -9.532432E+05 -2.996399E+04 -2.843599E+04 -2.726455E+03 -2.081619E+03 -9.253097E+02
       124  10 -7.068839E+05  3.015567E+04  3.105775E+04 -2.767371E+03 -2.366446E-09  3.519385E-11
       124  11 -7.048751E+05  3.045348E+04  3.213382E+04  1.046248E+03  2.026058E-09  1.639500E-10
       124  12 -7.019307E+05  3.289267E+04  3.430520E+04 -2.883758E+03 -1.240425E-09 -3.037023E-10
       124  13 -8.275963E+05 -3.514307E+01  9.179252E+02 -2.804555E+03  2.186912E-09  2.028546E-10
       124  14 -8.280603E+05 -3.531191E+02  1.389922E+03  1.067034E+03  9.168092E-10  3.822412E-10
       124  15 -8.275941E+05  1.464935E+03  2.935194E+03 -2.805099E+03 -3.775179E-10 -1.200502E-10
       124  16 -9.482955E+05 -3.022706E+04 -2.922300E+04 -2.841731E+03  4.184301E-10  2.446784E-10
       124  17 -9.512317E+05 -3.116087E+04 -2.935512E+04  1.087815E+03  6.153856E-10 -1.059177E-10
       124  18 -9.532432E+05 -2.996399E+04 -2.843600E+04 -2.726457E+03 -1.218642E-09  2.506639E-10
       124  19 -7.068839E+05  3.015567E+04  3.105775E+04 -2.767371E+03  5.988694E+02  8.158458E+02
       124  20 -7.048751E+05  3.045349E+04  3.213383E+04  1.046249E+03  1.365793E+03  1.003088E+03
       124  21 -7.019307E+05  3.289267E+04  3.430521E+04 -2.883757E+03  2.132694E+03  9.253048E+02
       124  22 -8.275963E+05 -3.514224E+01  9.179272E+02 -2.804555E+03  6.371427E+02  8.158464E+02
       124  23 -8.280603E+05 -3.531175E+02  1.389928E+03  1.067035E+03  1.372161E+03  1.003101E+03
       124  24 -8.275941E+05  1.464937E+03  2.935204E+03 -2.805097E+03  2.107154E+03  9.253072E+02
       124  25 -9.482955E+05 -3.022705E+04 -2.922300E+04 -2.841730E+03  6.754085E+02  8.158471E+02
       124  26 -9.512317E+05 -3.116087E+04 -2.935511E+04  1.087816E+03  1.378528E+03  1.003114E+03
       124  27 -9.532432E+05 -2.996399E+04 -2.843599E+04 -2.726455E+03  2.081619E+03  9.253097E+02
       125   1 -6.784541E+05  3.680101E+04  4.058831E+04 -1.112344E+03 -2.607606E+03 -1.121457E+03
       125   2 -6.799038E+05  3.500535E+04  4.252586E+04 -5.702227E+02 -5.661154E+03 -1.341701E+03
       125   3 -6.770389E+05  4.710018E+04  5.001464E+04 -2.231549E+03 -8.715950E+03 -4.717769E+02
       125   4 -8.268501E+05 -3.117998E+02  3.546046E+03 -1.569577E+03 -2.698712E+03 -1.121525E+03
       125   5 -8.289940E+05 -2.276911E+03  5.326937E+03 -4.743123E+02 -5.620926E+03 -1.341684E+03
       125   6 -8.268454E+05  9.627366E+03  1.256869E+04 -1.582534E+03 -8.544385E+03 -4.715661E+02
       125   7 -9.752261E+05 -3.742627E+04 -3.349787E+04 -2.026703E+03 -2.789796E+03 -1.121593E+03
       125   8 -9.780641E+05 -3.956085E+04 -3.187366E+04 -3.784299E+02 -5.580707E+03 -1.341667E+03
       125   9 -9.766315E+05 -2.784714E+04 -2.487895E+04 -9.336828E+02 -8.372861E+03 -4.713549E+02
       125  10 -6.784541E+05  3.680101E+04  4.058829E+04 -1.112347E+03 -1.552655E-09 -1.657341E-10
       125  11 -6.799038E+05  3.500534E+04  4.252579E+04 -5.702288E+02 -1.289728E-09  3.661356E-10
       125  12 -6.770390E+05  4.710016E+04  5.001449E+04 -2.231552E+03 -1.156184E-09  5.422803E-10
       125  13 -8.268501E+05 -3.118031E+02  3.546030E+03 -1.569579E+03 -2.671271E-09 -1.038433E-09
       125  14 -8.289941E+05 -2.276922E+03  5.326874E+03 -4.743184E+02 -3.359770E-09  5.416549E-10
       125  15 -8.268455E+05  9.627346E+03  1.256855E+04 -1.582537E+03  1.522546E-09 -2.553761E-10
       125  16 -9.752261E+05 -3.742627E+04 -3.349789E+04 -2.026706E+03 -1.576686E-09  1.228174E-10
       125  17 -9.780641E+05 -3.956086E+04 -3.187372E+04 -3.784359E+02  5.891006E-10 -1.919407E-11
       125  18 -9.766316E+05 -2.784716E+04 -2.487908E+04 -9.336860E+02 -6.800835E-10  1.051720E-09
       125  19 -6.784541E+05  3.680101E+04  4.058831E+04 -1.112344E+03  2.607606E+03  1.121457E+03
       125  20 -6.799038E+05  3.500535E+04  4.252586E+04 -5.702227E+02  5.661154E+03  1.341701E+03
       125  21 -6.770389E+05  4.710018E+04  5.001464E+04 -2.231549E+03  8.715950E+03  4.717769E+02
       125  22 -8.268501E+05 -3.117998E+02  3.546046E+03 -1.569577E+03  2.698712E+03  1.121525E+03
       125  23 -8.289940E+05 -2.276911E+03  5.326937E+03 -4.743123E+02  5.620926E+03  1.341684E+03
       125  24 -8.268454E+05  9.627366E+03  1.256869E+04 -1.582534E+03  8.544385E+03  4.715661E+02
       125  25 -9.752261E+05 -3.742627E+04 -3.349787E+04 -2.026703E+03  2.789796E+03  1.121593E+03
       125  26 -9.780641E+05 -3.956085E+04 -3.187366E+04 -3.784299E+02  5.580707E+03  1.341667E+03
       125  27 -9.766315E+05 -2.784714E+04 -2.487895E+04 -9.336828E+02  8.372861E+03  4.713549E+02
       126   1  2.269414E+05 -8.992678E+05  2.256930E+05 -7.603729E+04  8.224440E+03  2.419715E+04
       126   2  1.793181E+05 -1.047524E+06  1.747421E+05 -2.010908E+04  2.349806E+04  1.343604E+04
       126   3  1.427435E+05 -1.191760E+06  1.335580E+05 -7.274058E+04  1.830235E+04  2.621587E+03
       126   4  8.808250E+03 -1.772642E+06  9.749789E+03 -7.205263E+04  8.257218E+03  1.135936E+04
       126   5 -9.802763E+02 -1.773736E+06  6.309938E+02 -1.778287E+04  2.350719E+04  1.090689E+04
       126   6 -1.503752E+03 -1.772615E+06 -5.883192E+03 -7.208030E+04  1.827731E+04  1.039856E+04
       126   7 -2.093819E+05 -2.645321E+06 -2.062496E+05 -6.807313E+04  8.289854E+03 -1.460372E+03
       126   8 -1.813170E+05 -2.499463E+06 -1.735175E+05 -1.545906E+04  2.351632E+04  8.380696E+03
       126   9 -1.457755E+05 -2.353160E+06 -1.453481E+05 -7.142036E+04  1.825229E+04  1.816827E+04
       126  10  2.269412E+05 -8.992685E+05  2.256918E+05 -7.603745E+04 -1.010902E-09 -4.244344E-09
       126  11  1.793174E+05 -1.047525E+06  1.747407E+05 -2.010933E+04  1.606709E-09 -4.224290E-09
       126  12  1.427431E+05 -1.191760E+06  1.335573E+05 -7.274062E+04 -8.238557E-10  3.227096E-09
       126  13  8.808142E+03 -1.772642E+06  9.749417E+03 -7.205271E+04  1.145313E-09  1.152692E-09
       126  14 -9.809012E+02 -1.773736E+06  6.297320E+02 -1.778308E+04 -2.827618E-09 -2.891130E-09
       126  15 -1.504140E+03 -1.772615E+06 -5.884024E+03 -7.208045E+04  3.054605E-09  1.334318E-09
       126  16 -2.093820E+05 -2.645321E+06 -2.062497E+05 -6.807312E+04 -7.628086E-10  4.211633E-09
       126  17 -1.813176E+05 -2.499463E+06 -1.735186E+05 -1.545921E+04 -9.249022E-10  6.531157E-10
       126  18 -1.457760E+05 -2.353160E+06 -1.453494E+05 -7.142063E+04  1.673001E-09 -3.641290E-09
       126  19  2.269414E+05 -8.992678E+05  2.256930E+05 -7.603729E+04 -8.224440E+03 -2.419715E+04
       126  20  1.793181E+05 -1.047524E+06  1.747421E+05 -2.010908E+04 -2.349806E+04 -1.343604E+04
       126  21  1.427435E+05 -1.191760E+06  1.335580E+05 -7.274058E+04 -1.830235E+04 -2.621587E+03
       126  22  8.808250E+03 -1.772642E+06  9.749789E+03 -7.205263E+04 -8.257218E+03 -1.135936E+04
       126  23 -9.802763E+02 -1.773736E+06  6.309938E+02 -1.778287E+04 -2.350719E+04 -1.090689E+04
       126  24 -1.503752E+03 -1.772615E+06 -5.883192E+03 -7.208030E+04 -1.827731E+04 -1.039856E+04
       126  25 -2.093819E+05 -2.645321E+06 -2.062496E+05 -6.807313E+04 -8.289854E+03  1.460372E+03
       126  26 -1.813170E+05 -2.499463E+06 -1.735175E+05 -1.545906E+04 -2.351632E+04 -8.380696E+03
       126  27 -1.457755E+05 -2.353160E+06 -1.453481E+05 -7.142036E+04 -1.825229E+04 -1.816827E+04
       127   1  9.660864E+04 -1.394010E+06  8.213944E+04 -7.188174E+04  1.174433E+04  9.655714E+03
       127   2  5.955965E+04 -1.540524E+06  3.643275E+04 -1.862907E+04  7.227632E+03  1.899588E+04
       127   3  5.732111E+03 -1.693368E+06 -1.976161E+04 -7.719816E+04  1.969408E+03  2.832849E+04
       127   4  2.111680E+03 -1.774474E+06 -9.275960E+03 -7.277344E+04  1.173748E+04  1.172152E+04
       127   5  2.232890E+03 -1.771272E+06 -1.896870E+04 -1.689156E+04  7.219006E+03  2.143178E+04
       127   6 -1.448986E+04 -1.774483E+06 -3.940573E+04 -7.283470E+04  1.958905E+03  3.113671E+04
       127   7 -9.239583E+04 -2.154806E+06 -1.007016E+05 -7.366447E+04  1.173062E+04  1.378607E+04
       127   8 -5.509774E+04 -2.001971E+06 -7.437393E+04 -1.515466E+04  7.210392E+03  2.386678E+04
       127   9 -3.471223E+04 -1.855593E+06 -5.905028E+04 -6.847180E+04  1.948442E+03  3.394456E+04
       127  10  9.660847E+04 -1.394010E+06  8.213900E+04 -7.188183E+04  8.064376E-10 -3.246717E-09
       127  11  5.955949E+04 -1.540524E+06  3.643198E+04 -1.862918E+04  3.269605E-09 -4.826426E-09
       127  12  5.731891E+03 -1.693369E+06 -1.976313E+04 -7.719821E+04  7.677826E-10  4.829473E-09
       127  13  2.111495E+03 -1.774475E+06 -9.276478E+03 -7.277355E+04  4.501930E-09  1.918200E-09
       127  14  2.232711E+03 -1.771272E+06 -1.896967E+04 -1.689169E+04  3.853866E-09 -3.722443E-09
       127  15 -1.449012E+04 -1.774484E+06 -3.940756E+04 -7.283475E+04  3.219014E-10  1.296231E-09
       127  16 -9.239603E+04 -2.154806E+06 -1.007023E+05 -7.366460E+04  2.163100E-09  3.238305E-09
       127  17 -5.509795E+04 -2.001971E+06 -7.437510E+04 -1.515480E+04  2.565368E-10  5.109237E-10
       127  18 -3.471255E+04 -1.855594E+06 -5.905246E+04 -6.847185E+04  9.752011E-10 -5.504689E-09
       127  19  9.660864E+04 -1.394010E+06  8.213944E+04 -7.188174E+04 -1.174433E+04 -9.655714E+03
       127  20  5.955965E+04 -1.540524E+06  3.643275E+04 -1.862907E+04 -7.227632E+03 -1.899588E+04
       127  21  5.732111E+03 -1.693368E+06 -1.976161E+04 -7.719816E+04 -1.969408E+03 -2.832849E+04
       127  22  2.111680E+03 -1.774474E+06 -9.275960E+03 -7.277344E+04 -1.173748E+04 -1.172152E+04
       127  23  2.232890E+03 -1.771272E+06 -1.896870E+04 -1.689156E+04 -7.219006E+03 -2.143178E+04
       127  24 -1.448986E+04 -1.774483E+06 -3.940573E+04 -7.283470E+04 -1.958905E+03 -3.113671E+04
       127  25 -9.239583E+04 -2.154806E+06 -1.007016E+05 -7.366447E+04 -1.173062E+04 -1.378607E+04
       127  26 -5.509774E+04 -2.001971E+06 -7.437393E+04 -1.515466E+04 -7.210392E+03 -2.386678E+04
       127  27 -3.471223E+04 -1.855593E+06 -5.905028E+04 -6.847180E+04 -1.948442E+03 -3.394456E+04
       128   1 -2.236422E+04 -1.905560E+06 -7.807243E+04 -5.341682E+04 -3.387817E+03  3.306054E+04
       128   2 -4.651764E+04 -2.029737E+06 -1.435083E+05 -2.922687E+04 -9.173058E+03  8.096045E+04
       128   3 -2.471343E+05 -2.205216E+06 -2.845209E+05 -1.168865E+05 -4.046015E+03  1.288876E+05
       128   4  7.999609E+03 -1.784216E+06 -4.870816E+04 -7.263740E+04 -3.409987E+03  3.863154E+04
       128   5  2.058343E+04 -1.759120E+06 -7.864410E+04 -1.697014E+04 -9.171458E+03  8.105989E+04
       128   6 -1.423008E+05 -1.784362E+06 -1.803185E+05 -7.315878E+04 -4.017868E+03  1.235274E+05
       128   7  3.836374E+04 -1.662858E+06 -1.934464E+04 -9.186175E+04 -3.432502E+03  4.420362E+04
       128   8  8.767976E+04 -1.488436E+06 -1.378504E+04 -4.707964E+03 -9.169854E+03  8.115936E+04
       128   9 -3.747316E+04 -1.363343E+06 -7.612804E+04 -2.940115E+04 -3.990490E+03  1.181635E+05
       128  10 -2.236453E+04 -1.905561E+06 -7.807451E+04 -5.341673E+04 -1.740500E-09  6.342557E-09
       128  11 -4.651950E+04 -2.029744E+06 -1.435208E+05 -2.922628E+04 -6.880816E-10 -5.581333E-09
       128  12 -2.471388E+05 -2.205233E+06 -2.845523E+05 -1.168861E+05 -2.442799E-11 -5.361221E-09
       128  13  7.999195E+03 -1.784218E+06 -4.871099E+04 -7.263729E+04 -3.362603E-09  1.932329E-09
       128  14  2.058157E+04 -1.759127E+06 -7.865664E+04 -1.696954E+04 -2.867645E-09 -4.153639E-09
       128  15 -1.423049E+05 -1.784379E+06 -1.803473E+05 -7.315838E+04  7.716802E-10  8.057094E-10
       128  16  3.836320E+04 -1.662860E+06 -1.934835E+04 -9.186162E+04  4.507241E-10 -6.066345E-09
       128  17  8.767790E+04 -1.488443E+06 -1.379761E+04 -4.707364E+03 -3.201497E-09  1.098681E-09
       128  18 -3.747694E+04 -1.363358E+06 -7.615436E+04 -2.940077E+04  8.343529E-10  4.531543E-09
       128  19 -2.236422E+04 -1.905560E+06 -7.807243E+04 -5.341682E+04  3.387817E+03 -3.306054E+04
       128  20 -4.651764E+04 -2.029737E+06 -1.435083E+05 -2.922687E+04  9.173058E+03 -8.096045E+04
       128  21 -2.471343E+05 -2.205216E+06 -2.845209E+05 -1.168865E+05  4.046015E+03 -1.288876E+05
       128  22  7.999609E+03 -1.784216E+06 -4.870816E+04 -7.263740E+04  3.409987E+03 -3.863154E+04
       128  23  2.058343E+04 -1.759120E+06 -7.864410E+04 -1.697014E+04  9.171458E+03 -8.105989E+04
       128  24 -1.423008E+05 -1.784362E+06 -1.803185E+05 -7.315878E+04  4.017868E+03 -1.235274E+05
       128  25  3.836374E+04 -1.662858E+06 -1.934464E+04 -9.186175E+04  3.432502E+03 -4.420362E+04
       128  26  8.767976E+04 -1.488436E+06 -1.378504E+04 -4.707964E+03  9.169854E+03 -8.115936E+04
       128  27 -3.747316E+04 -1.363343E+06 -7.612804E+04 -2.940115E+04  3.990490E+03 -1.181635E+05
       129   1 -2.797362E+06 -5.996763E+05 -2.839886E+05 -9.715476E+05 -1.443812E+05 -5.374509E+04
       129   2 -2.745079E+06 -4.088235E+05 -1.506280E+05 -1.034554E+06 -9.346204E+04 -3.300247E+04
       129   3 -2.800970E+06 -4.323422E+05 -1.185754E+05 -1.019285E+06 -4.198113E+04 -1.375222E+04
       129   4 -2.602806E+06 -5.133886E+05 -2.277140E+05 -9.057515E+05 -1.441827E+05 -5.367386E+04
       129   5 -2.537345E+06 -3.269542E+05 -9.270287E+04 -9.747450E+05 -9.341557E+04 -3.298561E+04
       129   6 -2.580001E+06 -3.548156E+05 -5.885406E+04 -9.654728E+05 -4.208547E+04 -1.379097E+04
       129   7 -2.408213E+06 -4.270946E+05 -1.714431E+05 -8.399354E+05 -1.439842E+05 -5.360260E+04
       129   8 -2.329570E+06 -2.450815E+05 -3.478184E+04 -9.149176E+05 -9.336908E+04 -3.296874E+04
       129   9 -2.358984E+06 -2.772878E+05  8.630280E+02 -9.116437E+05 -4.218985E+04 -1.382974E+04
       129  10 -2.797385E+06 -5.996851E+05 -2.840334E+05 -9.715539E+05 -1.574158E-09  8.957736E-10
       129  11 -2.745089E+06 -4.088270E+05 -1.506465E+05 -1.034556E+06 -2.727615E-09  2.979534E-10
       129  12 -2.800972E+06 -4.323429E+05 -1.185791E+05 -1.019286E+06  1.669926E-09 -7.232302E-10
       129  13 -2.602829E+06 -5.133973E+05 -2.277587E+05 -9.057578E+05  5.645533E-10  8.583229E-10
       129  14 -2.537355E+06 -3.269577E+05 -9.272140E+04 -9.747475E+05  2.239610E-09 -1.519300E-10
       129  15 -2.580003E+06 -3.548163E+05 -5.885776E+04 -9.654732E+05  2.352185E-09  2.393093E-10
       129  16 -2.408236E+06 -4.271033E+05 -1.714877E+05 -8.399416E+05  7.715010E-13 -3.540199E-10
       129  17 -2.329580E+06 -2.450850E+05 -3.480034E+04 -9.149201E+05  1.037557E-09  2.564894E-09
       129  18 -2.358986E+06 -2.772885E+05  8.593074E+02 -9.116441E+05 -7.928138E-10  1.137392E-09
       129  19 -2.797362E+06 -5.996763E+05 -2.839886E+05 -9.715476E+05  1.443812E+05  5.374509E+04
       129  20 -2.745079E+06 -4.088235E+05 -1.506280E+05 -1.034554E+06  9.346204E+04  3.300247E+04
       129  21 -2.800970E+06 -4.323422E+05 -1.185754E+05 -1.019285E+06  4.198113E+04  1.375222E+04
       129  22 -2.602806E+06 -5.133886E+05 -2.277140E+05 -9.057515E+05  1.441827E+05  5.367386E+04
       129  23 -2.537345E+06 -3.269542E+05 -9.270287E+04 -9.747450E+05  9.341557E+04  3.298561E+04
       129  24 -2.580001E+06 -3.548156E+05 -5.885406E+04 -9.654728E+05  4.208547E+04  1.379097E+04
       129  25 -2.408213E+06 -4.270946E+05 -1.714431E+05 -8.399354E+05  1.439842E+05  5.360260E+04
       129  26 -2.329570E+06 -2.450815E+05 -3.478184E+04 -9.149176E+05  9.336908E+04  3.296874E+04
       129  27 -2.358984E+06 -2.772878E+05  8.630280E+02 -9.116437E+05  4.218985E+04  1.382974E+04
       130   1 -2.801661E+06 -4.781436E+05 -1.136973E+05 -1.022573E+06 -3.318867E+04 -1.050318E+04
       130   2 -2.795136E+06 -4.407013E+05 -8.581035E+04 -1.023817E+06 -2.158818E+04 -5.795232E+03
       130   3 -2.792183E+06 -4.484046E+05 -7.604733E+04 -1.026971E+06 -9.659117E+03 -1.964910E+03
       130   4 -2.566788E+06 -3.874422E+05 -4.854105E+04 -9.568670E+05 -3.311424E+04 -1.047541E+04
       130   5 -2.563275E+06 -3.526671E+05 -2.181743E+04 -9.604894E+05 -2.160768E+04 -5.802616E+03
       130   6 -2.563309E+06 -3.630100E+05 -1.313761E+04 -9.660222E+05 -9.772666E+03 -2.007386E+03
       130   7 -2.331863E+06 -2.967372E+05  1.661005E+04 -8.911382E+05 -3.303978E+04 -1.044762E+04
       130   8 -2.331362E+06 -2.646297E+05  4.217052E+04 -8.971402E+05 -2.162719E+04 -5.810002E+03
       130   9 -2.334385E+06 -2.776128E+05  4.976727E+04 -9.050534E+05 -9.886261E+03 -2.049878E+03
       130  10 -2.801662E+06 -4.781440E+05 -1.136996E+05 -1.022574E+06  1.356464E-09  7.128976E-10
       130  11 -2.795137E+06 -4.407015E+05 -8.581129E+04 -1.023817E+06  2.320099E-10  2.492678E-09
       130  12 -2.792183E+06 -4.484047E+05 -7.604751E+04 -1.026971E+06 -4.512658E-10  7.875441E-10
       130  13 -2.566790E+06 -3.874426E+05 -4.854333E+04 -9.568673E+05  3.217448E-09  1.970828E-10
       130  14 -2.563275E+06 -3.526672E+05 -2.181837E+04 -9.604895E+05  4.824543E-10  1.147763E-09
       130  15 -2.563309E+06 -3.630100E+05 -1.313780E+04 -9.660222E+05  7.657217E-10  7.282435E-10
       130  16 -2.331864E+06 -2.967376E+05  1.660778E+04 -8.911384E+05 -2.284799E-10 -3.855372E-10
       130  17 -2.331363E+06 -2.646299E+05  4.216957E+04 -8.971403E+05 -1.166373E-09  1.000284E-09
       130  18 -2.334385E+06 -2.776129E+05  4.976708E+04 -9.050535E+05 -1.721013E-09  6.967127E-10
       130  19 -2.801661E+06 -4.781436E+05 -1.136973E+05 -1.022573E+06  3.318867E+04  1.050318E+04
       130  20 -2.795136E+06 -4.407013E+05 -8.581035E+04 -1.023817E+06  2.158818E+04  5.795232E+03
       130  21 -2.792183E+06 -4.484046E+05 -7.604733E+04 -1.026971E+06  9.659117E+03  1.964910E+03
       130  22 -2.566788E+06 -3.874422E+05 -4.854105E+04 -9.568670E+05  3.311424E+04  1.047541E+04
       130  23 -2.563275E+06 -3.526671E+05 -2.181743E+04 -9.604894E+05  2.160768E+04  5.802616E+03
       130  24 -2.563309E+06 -3.630100E+05 -1.313761E+04 -9.660222E+05  9.772666E+03  2.007386E+03
       130  25 -2.331863E+06 -2.967372E+05  1.661005E+04 -8.911382E+05  3.303978E+04  1.044762E+04
       130  26 -2.331362E+06 -2.646297E+05  4.217052E+04 -8.971402E+05  2.162719E+04  5.810002E+03
       130  27 -2.334385E+06 -2.776128E+05  4.976727E+04 -9.050534E+05  9.886261E+03  2.049878E+03
       131   1 -2.650767E+06 -4.063594E+05 -3.611766E+04 -9.936408E+05 -7.633885E+03 -1.639607E+03
       131   2 -2.651922E+06 -3.832325E+05 -2.751872E+04 -9.756692E+05 -4.762793E+03 -9.823168E+02
       131   3 -2.627483E+06 -3.935912E+05 -2.245371E+04 -9.884120E+05 -1.787820E+03 -6.038668E+02
       131   4 -2.558346E+06 -3.712453E+05 -1.062802E+04 -9.683654E+05 -7.659840E+03 -1.649318E+03
       131   5 -2.570883E+06 -3.526330E+05 -5.187873E+03 -9.537073E+05 -4.819562E+03 -1.003515E+03
       131   6 -2.557821E+06 -3.674995E+05 -3.256792E+03 -9.697634E+05 -1.875467E+03 -6.365574E+02
       131   7 -2.465917E+06 -3.361307E+05  1.486085E+04 -9.430866E+05 -7.685799E+03 -1.659031E+03
       131   8 -2.489838E+06 -3.220332E+05  1.714238E+04 -9.317428E+05 -4.876340E+03 -1.024716E+03
       131   9 -2.488154E+06 -3.414075E+05  1.593969E+04 -9.511130E+05 -1.963125E+03 -6.692520E+02
       131  10 -2.650767E+06 -4.063594E+05 -3.611778E+04 -9.936408E+05  7.104364E-10  4.034896E-09
       131  11 -2.651922E+06 -3.832326E+05 -2.751877E+04 -9.756692E+05 -2.106581E-09  3.093855E-09
       131  12 -2.627483E+06 -3.935912E+05 -2.245372E+04 -9.884120E+05  1.008521E-09 -1.777405E-10
       131  13 -2.558346E+06 -3.712453E+05 -1.062814E+04 -9.683654E+05 -2.894037E-09  1.477773E-09
       131  14 -2.570883E+06 -3.526330E+05 -5.187919E+03 -9.537073E+05 -1.036679E-09  1.308432E-09
       131  15 -2.557821E+06 -3.674995E+05 -3.256799E+03 -9.697634E+05  1.476036E-09  2.947230E-10
       131  16 -2.465917E+06 -3.361307E+05  1.486073E+04 -9.430866E+05 -2.698822E-10  1.596561E-09
       131  17 -2.489838E+06 -3.220332E+05  1.714233E+04 -9.317428E+05 -3.575389E-09  1.336027E-09
       131  18 -2.488154E+06 -3.414075E+05  1.593968E+04 -9.511130E+05 -1.356140E-09 -3.843076E-10
       131  19 -2.650767E+06 -4.063594E+05 -3.611766E+04 -9.936408E+05  7.633885E+03  1.639607E+03
       131  20 -2.651922E+06 -3.832325E+05 -2.751872E+04 -9.756692E+05  4.762793E+03  9.823168E+02
       131  21 -2.627483E+06 -3.935912E+05 -2.245371E+04 -9.884120E+05  1.787820E+03  6.038668E+02
       131  22 -2.558346E+06 -3.712453E+05 -1.062802E+04 -9.683654E+05  7.659840E+03  1.649318E+03
       131  23 -2.570883E+06 -3.526330E+05 -5.187873E+03 -9.537073E+05  4.819562E+03  1.003515E+03
       131  24 -2.557821E+06 -3.674995E+05 -3.256792E+03 -9.697634E+05  1.875467E+03  6.365574E+02
       131  25 -2.465917E+06 -3.361307E+05  1.486085E+04 -9.430866E+05  7.685799E+03  1.659031E+03
       131  26 -2.489838E+06 -3.220332E+05  1.714238E+04 -9.317428E+05  4.876340E+03  1.024716E+03
       131  27 -2.488154E+06 -3.414075E+05  1.593969E+04 -9.511130E+05  1.963125E+03  6.692520E+02
       132   1 -2.437957E+06 -3.221841E+05  3.044399E+04 -9.362751E+05 -1.096530E+03 -9.265867E+02
       132   2 -2.440062E+06 -3.049487E+05  3.405256E+04 -9.192071E+05  7.277509E+01 -1.247105E+03
       132   3 -2.417268E+06 -3.139793E+05  3.672978E+04 -9.306039E+05  1.089015E+03 -1.156482E+03
       132   4 -2.558196E+06 -3.674303E+05 -2.700744E+03 -9.686938E+05 -1.193720E+03 -9.628491E+02
       132   5 -2.570619E+06 -3.541619E+05 -1.903014E+03 -9.545080E+05  2.144070E+01 -1.266297E+03
       132   6 -2.558152E+06 -3.671692E+05 -2.073202E+03 -9.687875E+05  1.083505E+03 -1.158568E+03
       132   7 -2.678421E+06 -4.126757E+05 -3.584680E+04 -1.001107E+06 -1.290890E+03 -9.991038E+02
       132   8 -2.701160E+06 -4.033741E+05 -3.786012E+04 -9.898021E+05 -2.988170E+01 -1.285484E+03
       132   9 -2.699016E+06 -4.203580E+05 -4.087796E+04 -1.006963E+06  1.077995E+03 -1.160652E+03
       132  10 -2.437957E+06 -3.221841E+05  3.044398E+04 -9.362751E+05  1.142753E-09  7.997717E-10
       132  11 -2.440062E+06 -3.049487E+05  3.405255E+04 -9.192071E+05  6.878125E-10 -9.462714E-10
       132  12 -2.417268E+06 -3.139793E+05  3.672978E+04 -9.306039E+05 -1.009248E-09  1.089603E-09
       132  13 -2.558196E+06 -3.674303E+05 -2.700748E+03 -9.686938E+05 -2.613951E-09 -7.335216E-11
       132  14 -2.570619E+06 -3.541619E+05 -1.903017E+03 -9.545080E+05  1.584348E-09 -4.982328E-10
       132  15 -2.558152E+06 -3.671692E+05 -2.073207E+03 -9.687875E+05  3.843027E-10  5.068761E-10
       132  16 -2.678421E+06 -4.126757E+05 -3.584680E+04 -1.001107E+06  7.905378E-10  9.164724E-10
       132  17 -2.701160E+06 -4.033741E+05 -3.786012E+04 -9.898021E+05  2.500331E-09 -9.457218E-10
       132  18 -2.699016E+06 -4.203580E+05 -4.087797E+04 -1.006963E+06  1.240278E-09  1.577957E-09
       132  19 -2.437957E+06 -3.221841E+05  3.044399E+04 -9.362751E+05  1.096530E+03  9.265867E+02
       132  20 -2.440062E+06 -3.049487E+05  3.405256E+04 -9.192071E+05 -7.277509E+01  1.247105E+03
       132  21 -2.417268E+06 -3.139793E+05  3.672978E+04 -9.306039E+05 -1.089015E+03  1.156482E+03
       132  22 -2.558196E+06 -3.674303E+05 -2.700744E+03 -9.686938E+05  1.193720E+03  9.628491E+02
       132  23 -2.570619E+06 -3.541619E+05 -1.903014E+03 -9.545080E+05 -2.144070E+01  1.266297E+03
       132  24 -2.558152E+06 -3.671692E+05 -2.073202E+03 -9.687875E+05 -1.083505E+03  1.158568E+03
       132  25 -2.678421E+06 -4.126757E+05 -3.584680E+04 -1.001107E+06  1.290890E+03  9.991038E+02
       132  26 -2.701160E+06 -4.033741E+05 -3.786012E+04 -9.898021E+05  2.988170E+01  1.285484E+03
       132  27 -2.699016E+06 -4.203580E+05 -4.087796E+04 -1.006963E+06 -1.077995E+03  1.160652E+03
       133   1 -2.319106E+06 -2.701836E+05  6.488266E+04 -8.973740E+05  1.627574E+03 -1.267341E+03
       133   2 -2.319891E+06 -2.674193E+05  6.394580E+04 -8.950162E+05  3.505346E+03 -1.079522E+03
       133   3 -2.316758E+06 -2.702548E+05  6.145314E+04 -8.956339E+05  5.091881E+03 -1.151173E+02
       133   4 -2.562759E+06 -3.620875E+05 -2.262790E+03 -9.633131E+05  1.533220E+03 -1.302710E+03
       133   5 -2.564817E+06 -3.600306E+05 -3.560322E+03 -9.615430E+05  3.497318E+03 -1.082599E+03
       133   6 -2.562974E+06 -3.635918E+05 -6.482855E+03 -9.627485E+05  5.170117E+03 -8.575884E+01
       133   7 -2.806356E+06 -4.539883E+05 -6.941379E+04 -1.029229E+06  1.438907E+03 -1.338063E+03
       133   8 -2.809685E+06 -4.526387E+05 -7.107204E+04 -1.028046E+06  3.489293E+03 -1.085676E+03
       133   9 -2.809132E+06 -4.569255E+05 -7.442449E+04 -1.029839E+06  5.248319E+03 -5.641341E+01
       133  10 -2.319106E+06 -2.701836E+05  6.488265E+04 -8.973740E+05 -1.453893E-09 -2.280111E-10
       133  11 -2.319891E+06 -2.674193E+05  6.394578E+04 -8.950162E+05 -2.592121E-09 -2.762898E-10
       133  12 -2.316758E+06 -2.702548E+05  6.145309E+04 -8.956339E+05 -1.871876E-09  7.505323E-11
       133  13 -2.562759E+06 -3.620875E+05 -2.262797E+03 -9.633131E+05  9.417793E-10  6.324258E-10
       133  14 -2.564817E+06 -3.600306E+05 -3.560347E+03 -9.615430E+05 -4.412976E-10 -2.080510E-09
       133  15 -2.562974E+06 -3.635918E+05 -6.482905E+03 -9.627485E+05  1.327157E-09 -8.872550E-10
       133  16 -2.806356E+06 -4.539883E+05 -6.941380E+04 -1.029229E+06 -2.122924E-09 -1.334630E-12
       133  17 -2.809685E+06 -4.526387E+05 -7.107207E+04 -1.028046E+06  1.160807E-09  3.260852E-10
       133  18 -2.809132E+06 -4.569255E+05 -7.442454E+04 -1.029839E+06  1.803669E-09 -2.495142E-10
       133  19 -2.319106E+06 -2.701836E+05  6.488266E+04 -8.973740E+05 -1.627574E+03  1.267341E+03
       133  20 -2.319891E+06 -2.674193E+05  6.394580E+04 -8.950162E+05 -3.505346E+03  1.079522E+03
       133  21 -2.316758E+06 -2.702548E+05  6.145314E+04 -8.956339E+05 -5.091881E+03  1.151173E+02
       133  22 -2.562759E+06 -3.620875E+05 -2.262790E+03 -9.633131E+05 -1.533220E+03  1.302710E+03
       133  23 -2.564817E+06 -3.600306E+05 -3.560322E+03 -9.615430E+05 -3.497318E+03  1.082599E+03
       133  24 -2.562974E+06 -3.635918E+05 -6.482855E+03 -9.627485E+05 -5.170117E+03  8.575884E+01
       133  25 -2.806356E+06 -4.539883E+05 -6.941379E+04 -1.029229E+06 -1.438907E+03  1.338063E+03
       133  26 -2.809685E+06 -4.526387E+05 -7.107204E+04 -1.028046E+06 -3.489293E+03  1.085676E+03
       133  27 -2.809132E+06 -4.569255E+05 -7.442449E+04 -1.029839E+06 -5.248319E+03  5.641341E+01
       134   1 -2.384053E+06 -2.868713E+05  4.268351E+04 -9.076427E+05  6.336068E+03  5.491836E+02
       134   2 -2.380452E+06 -2.976426E+05  3.455000E+04 -9.213465E+05  1.354833E+04  3.388837E+03
       134   3 -2.403561E+06 -3.026396E+05  1.704155E+04 -9.073612E+05  2.055951E+04  6.760419E+03
       134   4 -2.569128E+06 -3.565705E+05 -8.270321E+03 -9.576227E+05  6.317275E+03  5.420766E+02
       134   5 -2.556513E+06 -3.645787E+05 -1.405076E+04 -9.695383E+05  1.358713E+04  3.403426E+03
       134   6 -2.570621E+06 -3.668262E+05 -2.925387E+04 -9.537636E+05  2.065599E+04  6.796805E+03
       134   7 -2.754171E+06 -4.262678E+05 -5.922724E+04 -1.007589E+06  6.298489E+03  5.349717E+02
       134   8 -2.732544E+06 -4.315129E+05 -6.265436E+04 -1.017718E+06  1.362591E+04  3.418011E+03
       134   9 -2.737653E+06 -4.310110E+05 -7.555190E+04 -1.000155E+06  2.075245E+04  6.833180E+03
       134  10 -2.384053E+06 -2.868714E+05  4.268344E+04 -9.076427E+05 -2.629838E-10 -5.441059E-11
       134  11 -2.380453E+06 -2.976426E+05  3.454964E+04 -9.213465E+05 -1.826598E-09  1.843857E-09
       134  12 -2.403562E+06 -3.026398E+05  1.704067E+04 -9.073613E+05  6.424984E-10  1.112468E-10
       134  13 -2.569128E+06 -3.565705E+05 -8.270397E+03 -9.576227E+05 -1.430081E-09 -3.977831E-10
       134  14 -2.556513E+06 -3.645787E+05 -1.405113E+04 -9.695383E+05  2.693355E-09  1.894278E-09
       134  15 -2.570621E+06 -3.668264E+05 -2.925476E+04 -9.537638E+05 -3.292722E-09  3.828327E-09
       134  16 -2.754171E+06 -4.262678E+05 -5.922731E+04 -1.007589E+06  7.975672E-10 -1.413154E-09
       134  17 -2.732544E+06 -4.315130E+05 -6.265474E+04 -1.017718E+06  8.846545E-10 -1.849668E-09
       134  18 -2.737654E+06 -4.310112E+05 -7.555281E+04 -1.000155E+06 -1.256058E-09  3.784509E-09
       134  19 -2.384053E+06 -2.868713E+05  4.268351E+04 -9.076427E+05 -6.336068E+03 -5.491836E+02
       134  20 -2.380452E+06 -2.976426E+05  3.455000E+04 -9.213465E+05 -1.354833E+04 -3.388837E+03
       134  21 -2.403561E+06 -3.026396E+05  1.704155E+04 -9.073612E+05 -2.055951E+04 -6.760419E+03
       134  22 -2.569128E+06 -3.565705E+05 -8.270321E+03 -9.576227E+05 -6.317275E+03 -5.420766E+02
       134  23 -2.556513E+06 -3.645787E+05 -1.405076E+04 -9.695383E+05 -1.358713E+04 -3.403426E+03
       134  24 -2.570621E+06 -3.668262E+05 -2.925387E+04 -9.537636E+05 -2.065599E+04 -6.796805E+03
       134  25 -2.754171E+06 -4.262678E+05 -5.922724E+04 -1.007589E+06 -6.298489E+03 -5.349717E+02
       134  26 -2.732544E+06 -4.315129E+05 -6.265436E+04 -1.017718E+06 -1.362591E+04 -3.418011E+03
       134  27 -2.737653E+06 -4.310110E+05 -7.555190E+04 -1.000155E+06 -2.075245E+04 -6.833180E+03
       135   1 -2.585617E+06 -3.598426E+05 -3.975571E+04 -9.634088E+05  2.585430E+04  9.349081E+03
       135   2 -2.569944E+06 -3.609432E+05 -6.678232E+04 -9.801967E+05  5.785047E+04  2.212064E+04
       135   3 -2.625325E+06 -4.311173E+05 -1.448960E+05 -9.381095E+05  8.995883E+04  3.459240E+04
       135   4 -2.576175E+06 -3.535760E+05 -3.657648E+04 -9.581027E+05  2.593870E+04  9.381109E+03
       135   5 -2.545537E+06 -3.529019E+05 -6.029462E+04 -9.747796E+05  5.790262E+04  2.214019E+04
       135   6 -2.585945E+06 -4.212922E+05 -1.350719E+05 -9.325818E+05  8.997960E+04  3.459931E+04
       135   7 -2.566733E+06 -3.473093E+05 -3.339727E+04 -9.527965E+05  2.602311E+04  9.413139E+03
       135   8 -2.521130E+06 -3.448606E+05 -5.380697E+04 -9.693624E+05  5.795477E+04  2.215974E+04
       135   9 -2.546563E+06 -4.114672E+05 -1.252480E+05 -9.270539E+05  9.000038E+04  3.460622E+04
       135  10 -2.585618E+06 -3.598429E+05 -3.975713E+04 -9.634090E+05 -1.081728E-09 -1.611881E-09
       135  11 -2.569948E+06 -3.609447E+05 -6.678957E+04 -9.801977E+05  3.593651E-10  5.868206E-11
       135  12 -2.625334E+06 -4.311208E+05 -1.449135E+05 -9.381120E+05  9.503199E-11 -2.597812E-10
       135  13 -2.576176E+06 -3.535763E+05 -3.657792E+04 -9.581029E+05 -1.482887E-09  1.416447E-09
       135  14 -2.545541E+06 -3.529034E+05 -6.030188E+04 -9.747807E+05 -1.645641E-09  1.657102E-09
       135  15 -2.585954E+06 -4.212957E+05 -1.350895E+05 -9.325843E+05  2.500059E-10 -1.728882E-09
       135  16 -2.566734E+06 -3.473096E+05 -3.339872E+04 -9.527967E+05 -1.465030E-09  1.564340E-10
       135  17 -2.521134E+06 -3.448620E+05 -5.381424E+04 -9.693634E+05 -3.405809E-09  7.216405E-09
       135  18 -2.546572E+06 -4.114707E+05 -1.252656E+05 -9.270564E+05  8.057779E-10 -9.288687E-10
       135  19 -2.585617E+06 -3.598426E+05 -3.975571E+04 -9.634088E+05 -2.585430E+04 -9.349081E+03
       135  20 -2.569944E+06 -3.609432E+05 -6.678232E+04 -9.801967E+05 -5.785047E+04 -2.212064E+04
       135  21 -2.625325E+06 -4.311173E+05 -1.448960E+05 -9.381095E+05 -8.995883E+04 -3.459240E+04
       135  22 -2.576175E+06 -3.535760E+05 -3.657648E+04 -9.581027E+05 -2.593870E+04 -9.381109E+03
       135  23 -2.545537E+06 -3.529019E+05 -6.029462E+04 -9.747796E+05 -5.790262E+04 -2.214019E+04
       135  24 -2.585945E+06 -4.212922E+05 -1.350719E+05 -9.325818E+05 -8.997960E+04 -3.459931E+04
       135  25 -2.566733E+06 -3.473093E+05 -3.339727E+04 -9.527965E+05 -2.602311E+04 -9.413139E+03
       135  26 -2.521130E+06 -3.448606E+05 -5.380697E+04 -9.693624E+05 -5.795477E+04 -2.215974E+04
       135  27 -2.546563E+06 -4.114672E+05 -1.252480E+05 -9.270539E+05 -9.000038E+04 -3.460622E+04
       136   1 -2.790192E+06 -4.372988E+05 -2.186372E+05 -1.046458E+06  1.144382E+05  4.454451E+04
       136   2 -2.709608E+06 -3.297580E+05 -3.141823E+05 -1.036662E+06  2.568919E+05  9.903951E+04
       136   3 -2.903956E+06 -8.463256E+05 -6.915972E+05 -8.415646E+05  4.001766E+05  1.513339E+05
       136   4 -2.603372E+06 -3.492698E+05 -1.636081E+05 -9.779820E+05  1.146607E+05  4.463246E+04
       136   5 -2.497470E+06 -2.580425E+05 -2.574132E+05 -9.877484E+05  2.569156E+05  9.904382E+04
       136   6 -2.666384E+06 -7.907535E+05 -6.328537E+05 -8.122322E+05  4.000078E+05  1.512423E+05
       136   7 -2.416517E+06 -2.612328E+05 -1.085825E+05 -9.094852E+05  1.148834E+05  4.472045E+04
       136   8 -2.285289E+06 -1.863267E+05 -2.006480E+05 -9.388208E+05  2.569392E+05  9.904813E+04
       136   9 -2.428756E+06 -7.351833E+05 -5.741137E+05 -7.828935E+05  3.998388E+05  1.511508E+05
       136  10 -2.790206E+06 -4.373044E+05 -2.186657E+05 -1.046462E+06  1.219271E-09 -1.017723E-09
       136  11 -2.709682E+06 -3.297864E+05 -3.143254E+05 -1.036683E+06  1.068969E-09 -2.370565E-09
       136  12 -2.904135E+06 -8.463936E+05 -6.919430E+05 -8.416135E+05 -3.890876E-11 -1.861667E-09
       136  13 -2.603387E+06 -3.492755E+05 -1.636367E+05 -9.779861E+05  2.183865E-09 -2.853826E-09
       136  14 -2.497544E+06 -2.580709E+05 -2.575563E+05 -9.877690E+05 -1.448920E-09 -2.130473E-09
       136  15 -2.666562E+06 -7.908214E+05 -6.331990E+05 -8.122810E+05 -1.073353E-09 -2.324122E-10
       136  16 -2.416532E+06 -2.612385E+05 -1.086112E+05 -9.094894E+05 -4.244695E-10 -4.836169E-10
       136  17 -2.285362E+06 -1.863551E+05 -2.007911E+05 -9.388413E+05  3.874700E-10 -4.432992E-10
       136  18 -2.428935E+06 -7.352511E+05 -5.744585E+05 -7.829423E+05  6.204639E-10  4.024646E-10
       136  19 -2.790192E+06 -4.372988E+05 -2.186372E+05 -1.046458E+06 -1.144382E+05 -4.454451E+04
       136  20 -2.709608E+06 -3.297580E+05 -3.141823E+05 -1.036662E+06 -2.568919E+05 -9.903951E+04
       136  21 -2.903956E+06 -8.463256E+05 -6.915972E+05 -8.415646E+05 -4.001766E+05 -1.513339E+05
       136  22 -2.603372E+06 -3.492698E+05 -1.636081E+05 -9.779820E+05 -1.146607E+05 -4.463246E+04
       136  23 -2.497470E+06 -2.580425E+05 -2.574132E+05 -9.877484E+05 -2.569156E+05 -9.904382E+04
       136  24 -2.666384E+06 -7.907535E+05 -6.328537E+05 -8.122322E+05 -4.000078E+05 -1.512423E+05
       136  25 -2.416517E+06 -2.612328E+05 -1.085825E+05 -9.094852E+05 -1.148834E+05 -4.472045E+04
       136  26 -2.285289E+06 -1.863267E+05 -2.006480E+05 -9.388208E+05 -2.569392E+05 -9.904813E+04
       136  27 -2.428756E+06 -7.351833E+05 -5.741137E+05 -7.828935E+05 -3.998388E+05 -1.511508E+05
       137   1 -8.190195E+05  2.204942E+03  9.988482E+03  1.493322E+03  2.248976E+04  3.101342E+02
       137   2 -8.244682E+05 -2.919907E+04 -9.060509E+03 -5.139291E+02  1.484626E+04  8.426940E+02
       137   3 -8.196332E+05 -2.413703E+04 -1.397814E+04 -1.593887E+03  7.203462E+03  7.401635E+02
       137   4 -7.264498E+05  2.535559E+04  3.312733E+04 -5.233581E+02  2.259527E+04  3.102004E+02
       137   5 -7.316025E+05 -5.976781E+03  1.411112E+04 -9.692320E+02  1.487462E+04  8.427059E+02
       137   6 -7.264597E+05 -8.325855E+02  9.278408E+03 -4.878087E+02  7.154674E+03  7.401243E+02
       137   7 -6.338723E+05  4.850562E+04  5.626553E+04 -2.540342E+03  2.270079E+04  3.102659E+02
       137   8 -6.387290E+05  1.724486E+04  3.728210E+04 -1.424605E+03  1.490299E+04  8.427177E+02
       137   9 -6.332783E+05  2.247121E+04  3.253430E+04  6.184343E+02  7.105878E+03  7.400850E+02
       137  10 -8.190201E+05  2.204805E+03  9.987530E+03  1.493317E+03 -6.565521E-12 -1.740413E-09
       137  11 -8.244684E+05 -2.919913E+04 -9.060925E+03 -5.139391E+02 -4.964897E-10 -6.021331E-10
       137  12 -8.196333E+05 -2.413705E+04 -1.397824E+04 -1.593891E+03 -1.206788E-09 -8.766398E-10
       137  13 -7.264504E+05  2.535546E+04  3.312637E+04 -5.233637E+02 -2.401165E-09  6.921301E-10
       137  14 -7.316027E+05 -5.976841E+03  1.411070E+04 -9.692421E+02  6.591362E-10 -6.348856E-10
       137  15 -7.264597E+05 -8.325998E+02  9.278311E+03 -4.878129E+02  4.023679E-09 -1.021113E-09
       137  16 -6.338728E+05  4.850548E+04  5.626456E+04 -2.540348E+03  4.641812E-10  5.857403E-10
       137  17 -6.387293E+05  1.724480E+04  3.728168E+04 -1.424615E+03  1.282412E-09  1.701617E-11
       137  18 -6.332783E+05  2.247120E+04  3.253421E+04  6.184300E+02  1.143714E-09  2.077905E-09
       137  19 -8.190195E+05  2.204942E+03  9.988482E+03  1.493322E+03 -2.248976E+04 -3.101342E+02
       137  20 -8.244682E+05 -2.919907E+04 -9.060509E+03 -5.139291E+02 -1.484626E+04 -8.426940E+02
       137  21 -8.196332E+05 -2.413703E+04 -1.397814E+04 -1.593887E+03 -7.203462E+03 -7.401635E+02
       137  22 -7.264498E+05  2.535559E+04  3.312733E+04 -5.233581E+02 -2.259527E+04 -3.102004E+02
       137  23 -7.316025E+05 -5.976781E+03  1.411112E+04 -9.692320E+02 -1.487462E+04 -8.427059E+02
       137  24 -7.264597E+05 -8.325855E+02  9.278408E+03 -4.878087E+02 -7.154674E+03 -7.401243E+02
       137  25 -6.338723E+05  4.850562E+04  5.626553E+04 -2.540342E+03 -2.270079E+04 -3.102659E+02
       137  26 -6.387290E+05  1.724486E+04  3.728210E+04 -1.424605E+03 -1.490299E+04 -8.427177E+02
       137  27 -6.332783E+05  2.247121E+04  3.253430E+04  6.184343E+02 -7.105878E+03 -7.400850E+02
       138   1 -8.184821E+05 -1.865919E+04 -1.483024E+04 -9.642224E+02  5.596812E+03  6.455573E+02
       138   2 -8.186488E+05 -2.327704E+04 -1.869976E+04 -2.907004E+01  3.714743E+03  7.251714E+02
       138   3 -8.170105E+05 -2.230054E+04 -1.991193E+04 -1.400370E+03  1.832761E+03  6.430743E+02
       138   4 -7.283431E+05  3.884378E+03  7.673654E+03 -1.219874E+03  5.616784E+03  6.455641E+02
       138   5 -7.292483E+05 -9.189993E+02  3.613099E+03 -6.514368E+01  3.715087E+03  7.251646E+02
       138   6 -7.283453E+05 -1.250488E+02  2.223274E+03 -1.216844E+03  1.813478E+03  6.430628E+02
       138   7 -6.381968E+05  2.642733E+04  3.017694E+04 -1.475565E+03  5.636759E+03  6.455709E+02
       138   8 -6.398405E+05  2.143844E+04  2.592536E+04 -1.012235E+02  3.715430E+03  7.251578E+02
       138   9 -6.396729E+05  2.204985E+04  2.435789E+04 -1.033293E+03  1.794193E+03  6.430513E+02
       138  10 -8.184821E+05 -1.865920E+04 -1.483030E+04 -9.642253E+02 -1.171135E-09 -4.613332E-10
       138  11 -8.186488E+05 -2.327704E+04 -1.869979E+04 -2.907221E+01 -1.956416E-09 -2.826190E-10
       138  12 -8.170105E+05 -2.230055E+04 -1.991194E+04 -1.400371E+03 -2.825432E-09 -2.469418E-10
       138  13 -7.283431E+05  3.884369E+03  7.673594E+03 -1.219877E+03 -2.727479E-10  1.557074E-09
       138  14 -7.292483E+05 -9.190035E+02  3.613072E+03 -6.514585E+01  7.066804E-09  4.490709E-10
       138  15 -7.283453E+05 -1.250501E+02  2.223267E+03 -1.216845E+03 -1.093629E-09 -4.827166E-10
       138  16 -6.381968E+05  2.642733E+04  3.017688E+04 -1.475568E+03  1.980263E-10  1.641899E-09
       138  17 -6.398406E+05  2.143843E+04  2.592533E+04 -1.012257E+02  1.203523E-09 -1.088692E-10
       138  18 -6.396729E+05  2.204985E+04  2.435788E+04 -1.033294E+03  2.691015E-09  2.108037E-11
       138  19 -8.184821E+05 -1.865919E+04 -1.483024E+04 -9.642224E+02 -5.596812E+03 -6.455573E+02
       138  20 -8.186488E+05 -2.327704E+04 -1.869976E+04 -2.907004E+01 -3.714743E+03 -7.251714E+02
       138  21 -8.170105E+05 -2.230054E+04 -1.991193E+04 -1.400370E+03 -1.832761E+03 -6.430743E+02
       138  22 -7.283431E+05  3.884378E+03  7.673654E+03 -1.219874E+03 -5.616784E+03 -6.455641E+02
       138  23 -7.292483E+05 -9.189993E+02  3.613099E+03 -6.514368E+01 -3.715087E+03 -7.251646E+02
       138  24 -7.283453E+05 -1.250488E+02  2.223274E+03 -1.216844E+03 -1.813478E+03 -6.430628E+02
       138  25 -6.381968E+05  2.642733E+04  3.017694E+04 -1.475565E+03 -5.636759E+03 -6.455709E+02
       138  26 -6.398405E+05  2.143844E+04  2.592536E+04 -1.012235E+02 -3.715430E+03 -7.251578E+02
       138  27 -6.396729E+05  2.204985E+04  2.435789E+04 -1.033293E+03 -1.794193E+03 -6.430513E+02
       139   1 -8.002835E+05 -1.732191E+04 -1.612654E+04 -1.822263E+03  1.452178E+03  5.919511E+02
       139   2 -7.988104E+05 -1.763431E+04 -1.667828E+04  7.357627E+02  1.054840E+03  5.569781E+02
       139   3 -7.969817E+05 -1.711914E+04 -1.674477E+04 -1.869475E+03  6.574801E+02  4.514743E+02
       139   4 -7.286665E+05  5.883112E+02  1.746708E+03 -1.852696E+03  1.452337E+03  5.919468E+02
       139   5 -7.288454E+05 -1.369011E+02  7.843067E+02  7.289750E+02  1.046502E+03  5.569739E+02
       139   6 -7.286674E+05 -3.311160E+01  3.130359E+02 -1.852581E+03  6.406465E+02  4.514737E+02
       139   7 -6.570448E+05  1.849815E+04  1.961957E+04 -1.883132E+03  1.452496E+03  5.919424E+02
       139   8 -6.588761E+05  1.736014E+04  1.824653E+04  7.221865E+02  1.038163E+03  5.569697E+02
       139   9 -6.603488E+05  1.705256E+04  1.737049E+04 -1.835685E+03  6.238109E+02  4.514731E+02
       139  10 -8.002835E+05 -1.732191E+04 -1.612655E+04 -1.822263E+03  3.704006E-10  2.217824E-10
       139  11 -7.988104E+05 -1.763431E+04 -1.667829E+04  7.357622E+02  2.396779E-09  8.133223E-11
       139  12 -7.969817E+05 -1.711914E+04 -1.674477E+04 -1.869476E+03  2.832214E-09 -5.298101E-10
       139  13 -7.286665E+05  5.883103E+02  1.746704E+03 -1.852696E+03  2.547343E-10  1.418720E-10
       139  14 -7.288454E+05 -1.369018E+02  7.843041E+02  7.289745E+02 -5.387632E-09  1.047573E-09
       139  15 -7.286674E+05 -3.311193E+01  3.130348E+02 -1.852582E+03 -2.318898E-09  8.582345E-10
       139  16 -6.570448E+05  1.849815E+04  1.961957E+04 -1.883133E+03  2.182956E-09 -5.685285E-11
       139  17 -6.588761E+05  1.736014E+04  1.824653E+04  7.221860E+02 -3.692579E-09 -3.754631E-10
       139  18 -6.603488E+05  1.705256E+04  1.737049E+04 -1.835686E+03 -1.653509E-09 -5.539441E-10
       139  19 -8.002835E+05 -1.732191E+04 -1.612654E+04 -1.822263E+03 -1.452178E+03 -5.919511E+02
       139  20 -7.988104E+05 -1.763431E+04 -1.667828E+04  7.357627E+02 -1.054840E+03 -5.569781E+02
       139  21 -7.969817E+05 -1.711914E+04 -1.674477E+04 -1.869475E+03 -6.574801E+02 -4.514743E+02
       139  22 -7.286665E+05  5.883112E+02  1.746708E+03 -1.852696E+03 -1.452337E+03 -5.919468E+02
       139  23 -7.288454E+05 -1.369011E+02  7.843067E+02  7.289750E+02 -1.046502E+03 -5.569739E+02
       139  24 -7.286674E+05 -3.311160E+01  3.130359E+02 -1.852581E+03 -6.406465E+02 -4.514737E+02
       139  25 -6.570448E+05  1.849815E+04  1.961957E+04 -1.883132E+03 -1.452496E+03 -5.919424E+02
       139  26 -6.588761E+05  1.736014E+04  1.824653E+04  7.221865E+02 -1.038163E+03 -5.569697E+02
       139  27 -6.603488E+05  1.705256E+04  1.737049E+04 -1.835685E+03 -6.238109E+02 -4.514731E+02
       140   1 -7.690500E+05 -9.988206E+03 -9.943048E+03 -2.278054E+03  6.099456E+02  3.883605E+02
       140   2 -7.667748E+05 -9.502240E+03 -9.824683E+03  1.277473E+03  7.786643E+02  3.015500E+02
       140   3 -7.645131E+05 -9.073466E+03 -9.825987E+03 -2.270158E+03  9.473525E+02  1.822518E+02
       140   4 -7.287485E+05  8.947809E+01  1.103535E+02 -2.283666E+03  6.015161E+02  3.883608E+02
       140   5 -7.287424E+05  9.048032E+00 -3.322593E+02  1.267862E+03  7.663481E+02  3.015528E+02
       140   6 -7.287491E+05 -1.279030E+02 -8.918442E+02 -2.283741E+03  9.311490E+02  1.822580E+02
       140   7 -6.884456E+05  1.016704E+04  1.016363E+04 -2.289279E+03  5.930861E+02  3.883612E+02
       140   8 -6.907087E+05  9.520227E+03  9.160055E+03  1.258251E+03  7.540312E+02  3.015557E+02
       140   9 -6.929840E+05  8.817563E+03  8.042202E+03 -2.297324E+03  9.149445E+02  1.822641E+02
       140  10 -7.690500E+05 -9.988206E+03 -9.943049E+03 -2.278054E+03 -9.694776E-10 -6.385595E-10
       140  11 -7.667748E+05 -9.502240E+03 -9.824684E+03  1.277473E+03 -6.907038E-12  3.476846E-10
       140  12 -7.645131E+05 -9.073466E+03 -9.825989E+03 -2.270158E+03 -1.225345E-09  9.045917E-10
       140  13 -7.287485E+05  8.947783E+01  1.103526E+02 -2.283667E+03 -2.128717E-09  3.072678E-10
       140  14 -7.287424E+05  9.047777E+00 -3.322606E+02  1.267862E+03 -1.970309E-09  9.546941E-10
       140  15 -7.287491E+05 -1.279033E+02 -8.918459E+02 -2.283741E+03 -4.459826E-10  2.590076E-10
       140  16 -6.884456E+05  1.016704E+04  1.016363E+04 -2.289279E+03 -1.306341E-09 -4.020572E-10
       140  17 -6.907087E+05  9.520227E+03  9.160054E+03  1.258250E+03 -2.372233E-09  5.337306E-10
       140  18 -6.929840E+05  8.817563E+03  8.042201E+03 -2.297324E+03  2.100183E-09  5.309074E-10
       140  19 -7.690500E+05 -9.988206E+03 -9.943048E+03 -2.278054E+03 -6.099456E+02 -3.883605E+02
       140  20 -7.667748E+05 -9.502240E+03 -9.824683E+03  1.277473E+03 -7.786643E+02 -3.015500E+02
       140  21 -7.645131E+05 -9.073466E+03 -9.825987E+03 -2.270158E+03 -9.473525E+02 -1.822518E+02
       140  22 -7.287485E+05  8.947809E+01  1.103535E+02 -2.283666E+03 -6.015161E+02 -3.883608E+02
       140  23 -7.287424E+05  9.048032E+00 -3.322593E+02  1.267862E+03 -7.663481E+02 -3.015528E+02
       140  24 -7.287491E+05 -1.279030E+02 -8.918442E+02 -2.283741E+03 -9.311490E+02 -1.822580E+02
       140  25 -6.884456E+05  1.016704E+04  1.016363E+04 -2.289279E+03 -5.930861E+02 -3.883612E+02
       140  26 -6.907087E+05  9.520227E+03  9.160055E+03  1.258251E+03 -7.540312E+02 -3.015557E+02
       140  27 -6.929840E+05  8.817563E+03  8.042202E+03 -2.297324E+03 -9.149445E+02 -1.822641E+02
       141   1 -7.306383E+05 -4.080709E+02 -1.666702E+03 -2.471069E+03  1.136665E+03  1.076920E+02
       141   2 -7.279247E+05  3.748799E+02 -2.025260E+03  1.461384E+03  2.247106E+03 -6.827329E+00
       141   3 -7.256715E+05 -6.954292E+01 -3.415991E+03 -2.379494E+03  3.357551E+03 -1.187064E+02
       141   4 -7.288481E+05  3.810478E+01 -1.227254E+03 -2.432491E+03  1.122836E+03  1.076982E+02
       141   5 -7.286183E+05  2.014533E+02 -2.198329E+03  1.453975E+03  2.233591E+03 -6.821359E+00
       141   6 -7.288488E+05 -8.626283E+02 -4.201800E+03 -2.432891E+03  3.344347E+03 -1.187008E+02
       141   7 -7.270579E+05  4.842802E+02 -7.878062E+02 -2.393913E+03  1.109007E+03  1.077045E+02
       141   8 -7.293118E+05  2.802671E+01 -2.371398E+03  1.446566E+03  2.220077E+03 -6.815390E+00
       141   9 -7.320262E+05 -1.655714E+03 -4.987610E+03 -2.486287E+03  3.331143E+03 -1.186953E+02
       141  10 -7.306383E+05 -4.080713E+02 -1.666705E+03 -2.471069E+03 -1.061898E-10  6.013548E-10
       141  11 -7.279247E+05  3.748785E+02 -2.025269E+03  1.461384E+03 -3.048046E-10 -1.410078E-09
       141  12 -7.256715E+05 -6.954597E+01 -3.416012E+03 -2.379494E+03  8.673082E-10  3.947919E-10
       141  13 -7.288481E+05  3.810443E+01 -1.227257E+03 -2.432491E+03  2.686601E-09 -6.132967E-10
       141  14 -7.286183E+05  2.014520E+02 -2.198338E+03  1.453975E+03  1.685615E-09 -1.572534E-09
       141  15 -7.288488E+05 -8.626313E+02 -4.201821E+03 -2.432890E+03  7.348984E-10 -4.640572E-10
       141  16 -7.270579E+05  4.842799E+02 -7.878086E+02 -2.393913E+03  1.046570E-09 -4.209540E-10
       141  17 -7.293118E+05  2.802539E+01 -2.371407E+03  1.446566E+03 -1.383485E-09 -8.732598E-10
       141  18 -7.320262E+05 -1.655717E+03 -4.987631E+03 -2.486287E+03 -1.218114E-09 -5.260055E-13
       141  19 -7.306383E+05 -4.080709E+02 -1.666702E+03 -2.471069E+03 -1.136665E+03 -1.076920E+02
       141  20 -7.279247E+05  3.748799E+02 -2.025260E+03  1.461384E+03 -2.247106E+03  6.827329E+00
       141  21 -7.256715E+05 -6.954292E+01 -3.415991E+03 -2.379494E+03 -3.357551E+03  1.187064E+02
       141  22 -7.288481E+05  3.810478E+01 -1.227254E+03 -2.432491E+03 -1.122836E+03 -1.076982E+02
       141  23 -7.286183E+05  2.014533E+02 -2.198329E+03  1.453975E+03 -2.233591E+03  6.821359E+00
       141  24 -7.288488E+05 -8.626283E+02 -4.201800E+03 -2.432891E+03 -3.344347E+03  1.187008E+02
       141  25 -7.270579E+05  4.842802E+02 -7.878062E+02 -2.393913E+03 -1.109007E+03 -1.077045E+02
       141  26 -7.293118E+05  2.802671E+01 -2.371398E+03  1.446566E+03 -2.220077E+03  6.815390E+00
       141  27 -7.320262E+05 -1.655714E+03 -4.987610E+03 -2.486287E+03 -3.331143E+03  1.186953E+02
       142   1 -6.922867E+05  9.445522E+03  3.880195E+03 -2.532576E+03  4.228718E+03 -1.948503E+02
       142   2 -6.887203E+05  1.117511E+04  8.625558E+02  1.331582E+03  8.808626E+03 -3.167069E+02
       142   3 -6.877821E+05  4.682383E+03 -7.189784E+03 -1.860148E+03  1.338850E+04 -3.908568E+02
       142   4 -7.293308E+05  1.799532E+02 -5.373115E+03 -2.272680E+03  4.211294E+03 -1.948421E+02
       142   5 -7.280177E+05  1.348033E+03 -8.944992E+03  1.254619E+03  8.796665E+03 -3.167057E+02
       142   6 -7.293339E+05 -5.707436E+03 -1.755559E+04 -2.273995E+03  1.338199E+04 -3.908661E+02
       142   7 -7.663738E+05 -9.085718E+03 -1.462653E+04 -2.012799E+03  4.193870E+03 -1.948339E+02
       142   8 -7.673137E+05 -8.479160E+03 -1.875266E+04  1.177660E+03  8.784705E+03 -3.167044E+02
       142   9 -7.708841E+05 -1.609739E+04 -2.792152E+04 -2.687815E+03  1.337547E+04 -3.908754E+02
       142  10 -6.922867E+05  9.445517E+03  3.880162E+03 -2.532575E+03  1.528263E-09 -4.005045E-10
       142  11 -6.887203E+05  1.117509E+04  8.624097E+02  1.331585E+03 -1.008723E-09  5.308661E-10
       142  12 -6.877823E+05  4.682334E+03 -7.190122E+03 -1.860143E+03  3.719505E-11  4.677114E-10
       142  13 -7.293309E+05  1.799484E+02 -5.373148E+03 -2.272679E+03  1.085037E-09 -5.969490E-11
       142  14 -7.280178E+05  1.348012E+03 -8.945137E+03  1.254621E+03 -1.857362E-09  1.276678E-10
       142  15 -7.293341E+05 -5.707485E+03 -1.755592E+04 -2.273991E+03  1.725963E-09  3.233116E-10
       142  16 -7.663738E+05 -9.085723E+03 -1.462656E+04 -2.012799E+03  7.881086E-10  4.420358E-10
       142  17 -7.673138E+05 -8.479181E+03 -1.875280E+04  1.177662E+03 -6.097330E-10  8.366442E-11
       142  18 -7.708843E+05 -1.609743E+04 -2.792186E+04 -2.687811E+03  1.428445E-10 -3.940503E-10
       142  19 -6.922867E+05  9.445522E+03  3.880195E+03 -2.532576E+03 -4.228718E+03  1.948503E+02
       142  20 -6.887203E+05  1.117511E+04  8.625558E+02  1.331582E+03 -8.808626E+03  3.167069E+02
       142  21 -6.877821E+05  4.682383E+03 -7.189784E+03 -1.860148E+03 -1.338850E+04  3.908568E+02
       142  22 -7.293308E+05  1.799532E+02 -5.373115E+03 -2.272680E+03 -4.211294E+03  1.948421E+02
       142  23 -7.280177E+05  1.348033E+03 -8.944992E+03  1.254619E+03 -8.796665E+03  3.167057E+02
       142  24 -7.293339E+05 -5.707436E+03 -1.755559E+04 -2.273995E+03 -1.338199E+04  3.908661E+02
       142  25 -7.663738E+05 -9.085718E+03 -1.462653E+04 -2.012799E+03 -4.193870E+03  1.948339E+02
       142  26 -7.673137E+05 -8.479160E+03 -1.875266E+04  1.177660E+03 -8.784705E+03  3.167044E+02
       142  27 -7.708841E+05 -1.609739E+04 -2.792152E+04 -2.687815E+03 -1.337547E+04  3.908754E+02
       143   1 -6.629847E+05  1.852403E+04 -4.618207E+03 -3.411999E+03  1.698031E+04 -4.650345E+02
       143   2 -6.534858E+05  2.654806E+04 -1.750746E+04  1.408873E+03  3.544936E+04 -5.755279E+02
       143   3 -6.597572E+05 -1.926849E+04 -5.586841E+04  1.170928E+03  5.391859E+04 -5.267013E+02
       143   4 -7.322529E+05  1.200350E+03 -2.191270E+04 -1.831289E+03  1.695648E+04 -4.649915E+02
       143   5 -7.243733E+05  8.821709E+03 -3.519798E+04  7.021884E+02  3.544276E+04 -5.755726E+02
       143   6 -7.322689E+05 -3.740386E+04 -7.396903E+04 -1.823223E+03  5.392918E+04 -5.269622E+02
       143   7 -8.015167E+05 -1.612368E+04 -3.920755E+04 -2.507562E+02  1.693266E+04 -4.649485E+02
       143   8 -7.952562E+05 -8.905019E+03 -5.288889E+04 -4.415324E+00  3.543616E+04 -5.756173E+02
       143   9 -8.047758E+05 -5.553960E+04 -9.207003E+04 -4.817023E+03  5.393976E+04 -5.272232E+02
       143  10 -6.629850E+05  1.852395E+04 -4.618750E+03 -3.411993E+03  6.278615E-10 -5.748280E-12
       143  11 -6.534871E+05  2.654772E+04 -1.750982E+04  1.408889E+03  3.546335E-10 -1.315423E-09
       143  12 -6.597604E+05 -1.926927E+04 -5.587388E+04  1.170951E+03 -3.968384E-10  4.902221E-11
       143  13 -7.322532E+05  1.200272E+03 -2.191324E+04 -1.831283E+03  1.101847E-09 -1.283112E-10
       143  14 -7.243746E+05  8.821371E+03 -3.520035E+04  7.022049E+02  2.146841E-09 -1.085937E-09
       143  15 -7.322720E+05 -3.740465E+04 -7.397450E+04 -1.823200E+03  2.355395E-10  9.402211E-11
       143  16 -8.015170E+05 -1.612376E+04 -3.920809E+04 -2.507498E+02 -7.756749E-10 -2.092953E-10
       143  17 -7.952576E+05 -8.905357E+03 -5.289125E+04 -4.398891E+00  1.657660E-09 -8.840434E-10
       143  18 -8.047789E+05 -5.554038E+04 -9.207551E+04 -4.817000E+03  6.058540E-10  2.766997E-10
       143  19 -6.629847E+05  1.852403E+04 -4.618207E+03 -3.411999E+03 -1.698031E+04  4.650345E+02
       143  20 -6.534858E+05  2.654806E+04 -1.750746E+04  1.408873E+03 -3.544936E+04  5.755279E+02
       143  21 -6.597572E+05 -1.926849E+04 -5.586841E+04  1.170928E+03 -5.391859E+04  5.267013E+02
       143  22 -7.322529E+05  1.200350E+03 -2.191270E+04 -1.831289E+03 -1.695648E+04  4.649915E+02
       143  23 -7.243733E+05  8.821709E+03 -3.519798E+04  7.021884E+02 -3.544276E+04  5.755726E+02
       143  24 -7.322689E+05 -3.740386E+04 -7.396903E+04 -1.823223E+03 -5.392918E+04  5.269622E+02
       143  25 -8.015167E+05 -1.612368E+04 -3.920755E+04 -2.507562E+02 -1.693266E+04  4.649485E+02
       143  26 -7.952562E+05 -8.905019E+03 -5.288889E+04 -4.415324E+00 -3.543616E+04  5.756173E+02
       143  27 -8.047758E+05 -5.553960E+04 -9.207003E+04 -4.817023E+03 -5.393976E+04  5.272232E+02
       144   1 -6.611691E+05  3.029937E+04 -6.709050E+04 -1.121675E+04  6.878462E+04 -6.435668E+02
       144   2 -6.119253E+05  7.992925E+04 -1.135353E+05  5.052447E+03  1.430780E+05 -7.245806E+02
       144   3 -6.599148E+05 -2.212378E+05 -2.960281E+05  1.940183E+04  2.173728E+05 -9.920918E+01
       144   4 -7.503535E+05  8.004837E+03 -8.935101E+04 -1.191089E+03  6.872262E+04 -6.424796E+02
       144   5 -7.017617E+05  5.745964E+04 -1.359502E+05 -1.338326E+02  1.430908E+05 -7.257681E+02
       144   6 -7.504301E+05 -2.439232E+05 -3.186637E+05 -9.954371E+02  2.174603E+05 -1.062719E+02
       144   7 -8.395304E+05 -1.428992E+04 -1.116121E+05  8.833133E+03  6.866062E+04 -6.413943E+02
       144   8 -7.915906E+05  3.498952E+04 -1.583658E+05 -5.319362E+03  1.431036E+05 -7.269560E+02
       144   9 -8.409372E+05 -2.666078E+05 -3.412996E+05 -2.138973E+04  2.175479E+05 -1.133413E+02
       144  10 -6.611742E+05  3.029810E+04 -6.709941E+04 -1.121672E+04 -1.228935E-09 -3.565371E-10
       144  11 -6.119473E+05  7.992375E+04 -1.135738E+05  5.052531E+03 -1.038277E-09 -3.060885E-09
       144  12 -6.599656E+05 -2.212505E+05 -2.961170E+05  1.940184E+04 -1.996286E-10 -1.225210E-09
       144  13 -7.503585E+05  8.003566E+03 -8.935990E+04 -1.191053E+03  7.192964E-10 -1.499707E-09
       144  14 -7.017837E+05  5.745414E+04 -1.359888E+05 -1.337489E+02 -1.337269E-09 -1.469169E-10
       144  15 -7.504810E+05 -2.439360E+05 -3.187526E+05 -9.954185E+02 -1.962804E-09 -4.671958E-10
       144  16 -8.395355E+05 -1.429118E+04 -1.116209E+05  8.833168E+03  3.491421E-11 -1.920666E-10
       144  17 -7.916127E+05  3.498402E+04 -1.584043E+05 -5.319278E+03  3.420818E-10 -5.035116E-10
       144  18 -8.409881E+05 -2.666205E+05 -3.413887E+05 -2.138971E+04  2.338460E-09 -1.120046E-09
       144  19 -6.611691E+05  3.029937E+04 -6.709050E+04 -1.121675E+04 -6.878462E+04  6.435668E+02
       144  20 -6.119253E+05  7.992925E+04 -1.135353E+05  5.052447E+03 -1.430780E+05  7.245806E+02
       144  21 -6.599148E+05 -2.212378E+05 -2.960281E+05  1.940183E+04 -2.173728E+05  9.920918E+01
       144  22 -7.503535E+05  8.004837E+03 -8.935101E+04 -1.191089E+03 -6.872262E+04  6.424796E+02
       144  23 -7.017617E+05  5.745964E+04 -1.359502E+05 -1.338326E+02 -1.430908E+05  7.257681E+02
       144  24 -7.504301E+05 -2.439232E+05 -3.186637E+05 -9.954371E+02 -2.174603E+05  1.062719E+02
       144  25 -8.395304E+05 -1.428992E+04 -1.116121E+05  8.833133E+03 -6.866062E+04  6.413943E+02
       144  26 -7.915906E+05  3.498952E+04 -1.583658E+05 -5.319362E+03 -1.431036E+05  7.269560E+02
       144  27 -8.409372E+05 -2.666078E+05 -3.412996E+05 -2.138973E+04 -2.175479E+05  1.133413E+02
       145   1  1.577888E+05 -4.666485E+04  1.843133E+05 -2.686488E+04  7.851047E+02  8.212739E+04
       145   2  4.296483E+04 -8.274989E+04  1.110424E+05  6.606377E+03  2.274617E+03  5.573121E+04
       145   3  5.463558E+04 -8.282113E+04  8.677498E+04 -1.629242E+04  1.167777E+03  2.932932E+04
       145   4  8.954367E+04 -3.195347E+05  1.161520E+05 -1.914952E+04  7.866980E+02  8.177435E+04
       145   5 -2.072216E+04 -3.375408E+05  4.751717E+04  8.954604E+03  2.274923E+03  5.569995E+04
       145   6 -4.521486E+03 -3.195744E+05  2.767769E+04 -1.931255E+04  1.166780E+03  2.961906E+04
       145   7  2.129318E+04 -5.923368E+05  4.798517E+04 -1.143752E+04  7.882830E+02  8.142146E+04
       145   8 -8.441401E+04 -5.922728E+05 -1.601297E+04  1.130190E+04  2.275228E+03  5.566870E+04
       145   9 -6.368274E+04 -5.562768E+05 -3.142383E+04 -2.233148E+04  1.165781E+03  2.990869E+04
       145  10  1.577870E+05 -4.667209E+04  1.843006E+05 -2.686494E+04 -1.083411E-09 -1.269258E-09
       145  11  4.296399E+04 -8.275322E+04  1.110366E+05  6.606274E+03 -3.556717E-09 -2.120844E-10
       145  12  5.463535E+04 -8.282205E+04  8.677336E+04 -1.629245E+04  2.348951E-09  1.168322E-09
       145  13  8.954188E+04 -3.195418E+05  1.161395E+05 -1.914957E+04 -7.929819E-10 -1.809631E-09
       145  14 -2.072300E+04 -3.375441E+05  4.751132E+04  8.954502E+03 -3.206091E-09 -4.277447E-11
       145  15 -4.521723E+03 -3.195753E+05  2.767603E+04 -1.931257E+04  5.086450E-09 -8.268406E-09
       145  16  2.129140E+04 -5.923439E+05  4.797270E+04 -1.143757E+04 -8.450271E-10  3.951290E-10
       145  17 -8.441485E+04 -5.922761E+05 -1.601881E+04  1.130180E+04 -1.984636E-09 -1.109363E-09
       145  18 -6.368298E+04 -5.562778E+05 -3.142551E+04 -2.233151E+04  1.097353E-10 -2.567720E-09
       145  19  1.577888E+05 -4.666485E+04  1.843133E+05 -2.686488E+04 -7.851047E+02 -8.212739E+04
       145  20  4.296483E+04 -8.274989E+04  1.110424E+05  6.606377E+03 -2.274617E+03 -5.573121E+04
       145  21  5.463558E+04 -8.282113E+04  8.677498E+04 -1.629242E+04 -1.167777E+03 -2.932932E+04
       145  22  8.954367E+04 -3.195347E+05  1.161520E+05 -1.914952E+04 -7.866980E+02 -8.177435E+04
       145  23 -2.072216E+04 -3.375408E+05  4.751717E+04  8.954604E+03 -2.274923E+03 -5.569995E+04
       145  24 -4.521486E+03 -3.195744E+05  2.767769E+04 -1.931255E+04 -1.166780E+03 -2.961906E+04
       145  25  2.129318E+04 -5.923368E+05  4.798517E+04 -1.143752E+04 -7.882830E+02 -8.142146E+04
       145  26 -8.441401E+04 -5.922728E+05 -1.601297E+04  1.130190E+04 -2.275228E+03 -5.566870E+04
       145  27 -6.368274E+04 -5.562768E+05 -3.142383E+04 -2.233148E+04 -1.165781E+03 -2.990869E+04
       146   1  8.510110E+03 -3.499299E+05  1.487295E+04 -2.014959E+04  1.629337E+02  2.516286E+04
       146   2 -1.082011E+04 -3.688165E+05 -8.165989E+03  9.054785E+03 -4.074020E+02  2.407864E+04
       146   3 -2.679385E+04 -3.871247E+05 -2.974156E+04 -1.989725E+04 -8.857924E+02  2.299487E+04
       146   4  1.414016E+04 -3.274154E+05  2.052166E+04 -1.960330E+04  1.627227E+02  2.523810E+04
       146   5 -5.470837E+02 -3.277066E+05  2.088634E+03  9.435696E+03 -4.075750E+02  2.414302E+04
       146   6 -1.187585E+04 -3.274175E+05 -1.487308E+04 -1.968148E+04 -8.859305E+02  2.304837E+04
       146   7  1.977017E+04 -3.049003E+05  2.617032E+04 -1.905698E+04  1.625118E+02  2.531334E+04
       146   8  9.725817E+03 -2.865952E+05  1.234313E+04  9.816633E+03 -4.077479E+02  2.420742E+04
       146   9  3.041871E+03 -2.677071E+05 -4.873347E+00 -1.946569E+04 -8.860685E+02  2.310189E+04
       146  10  8.509940E+03 -3.499306E+05  1.487176E+04 -2.014960E+04  5.652014E-10  2.510810E-10
       146  11 -1.082027E+04 -3.688171E+05 -8.167080E+03  9.054793E+03  3.612929E-10 -4.136996E-10
       146  12 -2.679399E+04 -3.871253E+05 -2.974256E+04 -1.989723E+04  3.755565E-09  1.106144E-10
       146  13  1.413999E+04 -3.274160E+05  2.052046E+04 -1.960330E+04  5.154159E-09 -3.315634E-09
       146  14 -5.472405E+02 -3.277072E+05  2.087538E+03  9.435704E+03  5.201724E-10 -6.931371E-11
       146  15 -1.187600E+04 -3.274181E+05 -1.487408E+04 -1.968146E+04  3.837031E-09 -8.150123E-09
       146  16  1.977000E+04 -3.049010E+05  2.616912E+04 -1.905698E+04  2.102065E-09 -1.957302E-09
       146  17  9.725660E+03 -2.865958E+05  1.234203E+04  9.816641E+03  2.453262E-09 -1.205201E-09
       146  18  3.041727E+03 -2.677077E+05 -5.878172E+00 -1.946567E+04  6.717935E-10 -1.456161E-09
       146  19  8.510110E+03 -3.499299E+05  1.487295E+04 -2.014959E+04 -1.629337E+02 -2.516286E+04
       146  20 -1.082011E+04 -3.688165E+05 -8.165989E+03  9.054785E+03  4.074020E+02 -2.407864E+04
       146  21 -2.679385E+04 -3.871247E+05 -2.974156E+04 -1.989725E+04  8.857924E+02 -2.299487E+04
       146  22  1.414016E+04 -3.274154E+05  2.052166E+04 -1.960330E+04 -1.627227E+02 -2.523810E+04
       146  23 -5.470837E+02 -3.277066E+05  2.088634E+03  9.435696E+03  4.075750E+02 -2.414302E+04
       146  24 -1.187585E+04 -3.274175E+05 -1.487308E+04 -1.968148E+04  8.859305E+02 -2.304837E+04
       146  25  1.977017E+04 -3.049003E+05  2.617032E+04 -1.905698E+04 -1.625118E+02 -2.531334E+04
       146  26  9.725817E+03 -2.865952E+05  1.234313E+04  9.816633E+03  4.077479E+02 -2.420742E+04
       146  27  3.041871E+03 -2.677071E+05 -4.873347E+00 -1.946569E+04  8.860685E+02 -2.310189E+04
       147   1 -7.432590E+04 -6.496149E+05 -1.000800E+05 -1.536759E+04 -1.957173E+03  2.595529E+04
       147   2 -6.640048E+04 -6.537763E+05 -1.223847E+05  7.429921E+03 -3.188435E+03  4.777643E+04
       147   3 -1.625326E+05 -6.848589E+05 -1.845334E+05 -2.491010E+04 -1.226263E+03  6.960208E+04
       147   4  4.728653E+03 -3.335408E+05 -2.115983E+04 -1.893408E+04 -1.958137E+03  2.629707E+04
       147   5  1.700653E+04 -3.201130E+05 -3.916483E+04  8.592143E+03 -3.188151E+03  4.774551E+04
       147   6 -7.467810E+04 -3.335259E+05 -9.673901E+04 -1.901758E+04 -1.225147E+03  6.919910E+04
       147   7  8.377571E+04 -1.737605E+04  5.775286E+04 -2.250233E+04 -1.959104E+03  2.663902E+04
       147   8  1.004052E+05  1.365121E+04  4.404664E+04  9.755034E+03 -3.187868E+03  4.771458E+04
       147   9  1.316726E+04  1.791906E+04 -8.953955E+03 -1.312169E+04 -1.224039E+03  6.879589E+04
       147  10 -7.432609E+04 -6.496156E+05 -1.000813E+05 -1.536755E+04  4.448591E-09  3.861959E-10
       147  11 -6.640110E+04 -6.537787E+05 -1.223890E+05  7.430044E+03 -2.308919E-09 -8.068988E-10
       147  12 -1.625339E+05 -6.848641E+05 -1.845425E+05 -2.491003E+04 -5.172902E-10 -1.088029E-09
       147  13  4.728463E+03 -3.335416E+05 -2.116113E+04 -1.893404E+04  2.771587E-10 -2.814592E-09
       147  14  1.700591E+04 -3.201155E+05 -3.916913E+04  8.592265E+03 -1.054105E-09 -4.200181E-11
       147  15 -7.467938E+04 -3.335311E+05 -9.674801E+04 -1.901751E+04  3.797919E-10 -2.667394E-09
       147  16  8.377552E+04 -1.737682E+04  5.775152E+04 -2.250229E+04  2.220517E-09 -1.769903E-09
       147  17  1.004045E+05  1.364876E+04  4.404234E+04  9.755156E+03  1.403084E-10 -1.165581E-10
       147  18  1.316599E+04  1.791398E+04 -8.962852E+03 -1.312163E+04  2.500412E-10  6.664985E-10
       147  19 -7.432590E+04 -6.496149E+05 -1.000800E+05 -1.536759E+04  1.957173E+03 -2.595529E+04
       147  20 -6.640048E+04 -6.537763E+05 -1.223847E+05  7.429921E+03  3.188435E+03 -4.777643E+04
       147  21 -1.625326E+05 -6.848589E+05 -1.845334E+05 -2.491010E+04  1.226263E+03 -6.960208E+04
       147  22  4.728653E+03 -3.335408E+05 -2.115983E+04 -1.893408E+04  1.958137E+03 -2.629707E+04
       147  23  1.700653E+04 -3.201130E+05 -3.916483E+04  8.592143E+03  3.188151E+03 -4.774551E+04
       147  24 -7.467810E+04 -3.335259E+05 -9.673901E+04 -1.901758E+04  1.225147E+03 -6.919910E+04
       147  25  8.377571E+04 -1.737605E+04  5.775286E+04 -2.250233E+04  1.959104E+03 -2.663902E+04
       147  26  1.004052E+05  1.365121E+04  4.404664E+04  9.755034E+03  3.187868E+03 -4.771458E+04
       147  27  1.316726E+04  1.791906E+04 -8.953955E+03 -1.312169E+04  1.224039E+03 -6.879589E+04
       148   1 -1.445973E+06 -3.138179E+05 -1.547167E+05 -5.041479E+05 -9.065046E+04 -3.400123E+04
       148   2 -1.413253E+06 -1.909086E+05 -7.039530E+04 -5.406523E+05 -5.848714E+04 -2.157143E+04
       148   3 -1.444670E+06 -2.072895E+05 -4.981035E+04 -5.332430E+05 -2.623716E+04 -9.370996E+03
       148   4 -1.409710E+06 -2.922786E+05 -1.431487E+05 -4.862713E+05 -9.061063E+04 -3.398766E+04
       148   5 -1.370534E+06 -1.727668E+05 -5.823678E+04 -5.269920E+05 -5.847142E+04 -2.156575E+04
       148   6 -1.395486E+06 -1.925348E+05 -3.703922E+04 -5.238004E+05 -2.624520E+04 -9.373820E+03
       148   7 -1.373445E+06 -2.707385E+05 -1.315808E+05 -4.683936E+05 -9.057079E+04 -3.397409E+04
       148   8 -1.327812E+06 -1.546248E+05 -4.607844E+04 -5.133309E+05 -5.845571E+04 -2.156007E+04
       148   9 -1.346299E+06 -1.777802E+05 -2.426829E+04 -5.143571E+05 -2.625324E+04 -9.376643E+03
       148  10 -1.445982E+06 -3.138213E+05 -1.547344E+05 -5.041504E+05  2.751200E-10 -4.460441E-10
       148  11 -1.413257E+06 -1.909100E+05 -7.040263E+04 -5.406533E+05  5.558694E-10 -1.202038E-09
       148  12 -1.444671E+06 -2.072898E+05 -4.981181E+04 -5.332432E+05 -7.152352E-10  6.153884E-10
       148  13 -1.409719E+06 -2.922821E+05 -1.431663E+05 -4.862738E+05  5.728284E-10  6.912123E-10
       148  14 -1.370537E+06 -1.727682E+05 -5.824410E+04 -5.269930E+05 -2.157164E-09 -2.784837E-09
       148  15 -1.395487E+06 -1.925351E+05 -3.704069E+04 -5.238006E+05 -1.553867E-10 -1.344339E-10
       148  16 -1.373454E+06 -2.707420E+05 -1.315984E+05 -4.683961E+05  8.089535E-10 -2.446357E-10
       148  17 -1.327816E+06 -1.546263E+05 -4.608575E+04 -5.133319E+05  1.665487E-09 -1.277721E-09
       148  18 -1.346300E+06 -1.777805E+05 -2.426975E+04 -5.143573E+05 -1.397500E-09  1.355877E-09
       148  19 -1.445973E+06 -3.138179E+05 -1.547167E+05 -5.041479E+05  9.065046E+04  3.400123E+04
       148  20 -1.413253E+06 -1.909086E+05 -7.039530E+04 -5.406523E+05  5.848714E+04  2.157143E+04
       148  21 -1.444670E+06 -2.072895E+05 -4.981035E+04 -5.332430E+05  2.623716E+04  9.370996E+03
       148  22 -1.409710E+06 -2.922786E+05 -1.431487E+05 -4.862713E+05  9.061063E+04  3.398766E+04
       148  23 -1.370534E+06 -1.727668E+05 -5.823678E+04 -5.269920E+05  5.847142E+04  2.156575E+04
       148  24 -1.395486E+06 -1.925348E+05 -3.703922E+04 -5.238004E+05  2.624520E+04  9.373820E+03
       148  25 -1.373445E+06 -2.707385E+05 -1.315808E+05 -4.683936E+05  9.057079E+04  3.397409E+04
       148  26 -1.327812E+06 -1.546248E+05 -4.607844E+04 -5.133309E+05  5.845571E+04  2.156007E+04
       148  27 -1.346299E+06 -1.777802E+05 -2.426829E+04 -5.143571E+05  2.625324E+04  9.376643E+03
       149   1 -1.460184E+06 -2.380120E+05 -5.014445E+04 -5.355326E+05 -2.063102E+04 -7.214006E+03
       149   2 -1.454976E+06 -2.197482E+05 -3.345600E+04 -5.417646E+05 -1.335633E+04 -4.331798E+03
       149   3 -1.460776E+06 -2.219664E+05 -2.829702E+04 -5.402145E+05 -6.020161E+03 -1.612910E+03
       149   4 -1.389958E+06 -2.102777E+05 -3.056222E+04 -5.152201E+05 -2.060933E+04 -7.205899E+03
       149   5 -1.383366E+06 -1.923831E+05 -1.368056E+04 -5.219878E+05 -1.335216E+04 -4.330245E+03
       149   6 -1.387777E+06 -1.949654E+05 -8.313448E+03 -5.209738E+05 -6.033502E+03 -1.617921E+03
       149   7 -1.319727E+06 -1.825431E+05 -1.098047E+04 -4.949054E+05 -2.058764E+04 -7.197791E+03
       149   8 -1.311750E+06 -1.650177E+05  6.094410E+03 -5.022090E+05 -1.334800E+04 -4.328692E+03
       149   9 -1.314772E+06 -1.679641E+05  1.166965E+04 -5.017311E+05 -6.046844E+03 -1.622932E+03
       149  10 -1.460185E+06 -2.380122E+05 -5.014535E+04 -5.355327E+05  1.623986E-09  7.862152E-10
       149  11 -1.454977E+06 -2.197483E+05 -3.345637E+04 -5.417647E+05  7.539656E-10 -8.479664E-10
       149  12 -1.460776E+06 -2.219664E+05 -2.829709E+04 -5.402145E+05 -1.271975E-09 -1.452219E-09
       149  13 -1.389958E+06 -2.102779E+05 -3.056312E+04 -5.152202E+05 -1.475574E-09 -1.076358E-09
       149  14 -1.383366E+06 -1.923832E+05 -1.368093E+04 -5.219879E+05  1.092400E-09 -9.619141E-10
       149  15 -1.387777E+06 -1.949654E+05 -8.313522E+03 -5.209738E+05 -7.142488E-10 -1.345739E-09
       149  16 -1.319727E+06 -1.825432E+05 -1.098137E+04 -4.949056E+05 -1.765570E-09 -5.057948E-11
       149  17 -1.311750E+06 -1.650177E+05  6.094039E+03 -5.022090E+05 -1.056044E-09 -8.761186E-10
       149  18 -1.314772E+06 -1.679642E+05  1.166957E+04 -5.017311E+05  6.518517E-10 -1.511718E-09
       149  19 -1.460184E+06 -2.380120E+05 -5.014445E+04 -5.355326E+05  2.063102E+04  7.214006E+03
       149  20 -1.454976E+06 -2.197482E+05 -3.345600E+04 -5.417646E+05  1.335633E+04  4.331798E+03
       149  21 -1.460776E+06 -2.219664E+05 -2.829702E+04 -5.402145E+05  6.020161E+03  1.612910E+03
       149  22 -1.389958E+06 -2.102777E+05 -3.056222E+04 -5.152201E+05  2.060933E+04  7.205899E+03
       149  23 -1.383366E+06 -1.923831E+05 -1.368056E+04 -5.219878E+05  1.335216E+04  4.330245E+03
       149  24 -1.387777E+06 -1.949654E+05 -8.313448E+03 -5.209738E+05  6.033502E+03  1.617921E+03
       149  25 -1.319727E+06 -1.825431E+05 -1.098047E+04 -4.949054E+05  2.058764E+04  7.197791E+03
       149  26 -1.311750E+06 -1.650177E+05  6.094410E+03 -5.022090E+05  1.334800E+04  4.328692E+03
       149  27 -1.314772E+06 -1.679641E+05  1.166965E+04 -5.017311E+05  6.046844E+03  1.622932E+03
       150   1 -1.455916E+06 -2.250931E+05 -2.595863E+04 -5.397895E+05 -4.789959E+03 -1.160947E+03
       150   2 -1.455380E+06 -2.204374E+05 -2.226300E+04 -5.388095E+05 -3.075857E+03 -4.958770E+02
       150   3 -1.453691E+06 -2.217684E+05 -2.076354E+04 -5.398517E+05 -1.310349E+03  3.213133E+01
       150   4 -1.386033E+06 -1.985063E+05 -6.681649E+03 -5.206115E+05 -4.780568E+03 -1.157427E+03
       150   5 -1.386446E+06 -1.943527E+05 -3.278175E+03 -5.200363E+05 -3.081646E+03 -4.980552E+02
       150   6 -1.385703E+06 -1.961825E+05 -2.058621E+03 -5.214832E+05 -1.331325E+03  2.425970E+01
       150   7 -1.316146E+06 -1.719192E+05  1.259488E+04 -5.014315E+05 -4.771176E+03 -1.153906E+03
       150   8 -1.317508E+06 -1.682678E+05  1.570621E+04 -5.012612E+05 -3.087436E+03 -5.002337E+02
       150   9 -1.317711E+06 -1.705965E+05  1.664586E+04 -5.031129E+05 -1.352303E+03  1.638713E+01
       150  10 -1.455916E+06 -2.250931E+05 -2.595867E+04 -5.397895E+05  1.182819E-09 -1.245447E-09
       150  11 -1.455380E+06 -2.204374E+05 -2.226302E+04 -5.388095E+05 -5.460591E-10 -1.114980E-09
       150  12 -1.453691E+06 -2.217684E+05 -2.076354E+04 -5.398517E+05  1.882184E-09  1.021904E-09
       150  13 -1.386033E+06 -1.985063E+05 -6.681694E+03 -5.206115E+05  2.859583E-10 -3.581363E-10
       150  14 -1.386446E+06 -1.943527E+05 -3.278194E+03 -5.200363E+05 -4.429281E-10 -4.403796E-10
       150  15 -1.385703E+06 -1.961825E+05 -2.058624E+03 -5.214832E+05 -8.878010E-10  6.951733E-10
       150  16 -1.316146E+06 -1.719192E+05  1.259483E+04 -5.014315E+05  1.274531E-09 -2.704898E-10
       150  17 -1.317508E+06 -1.682678E+05  1.570619E+04 -5.012612E+05 -1.594871E-09 -4.746210E-10
       150  18 -1.317711E+06 -1.705965E+05  1.664586E+04 -5.031129E+05  2.307003E-10  2.565976E-10
       150  19 -1.455916E+06 -2.250931E+05 -2.595863E+04 -5.397895E+05  4.789959E+03  1.160947E+03
       150  20 -1.455380E+06 -2.204374E+05 -2.226300E+04 -5.388095E+05  3.075857E+03  4.958770E+02
       150  21 -1.453691E+06 -2.217684E+05 -2.076354E+04 -5.398517E+05  1.310349E+03 -3.213133E+01
       150  22 -1.386033E+06 -1.985063E+05 -6.681649E+03 -5.206115E+05  4.780568E+03  1.157427E+03
       150  23 -1.386446E+06 -1.943527E+05 -3.278175E+03 -5.200363E+05  3.081646E+03  4.980552E+02
       150  24 -1.385703E+06 -1.961825E+05 -2.058621E+03 -5.214832E+05  1.331325E+03 -2.425970E+01
       150  25 -1.316146E+06 -1.719192E+05  1.259488E+04 -5.014315E+05  4.771176E+03  1.153906E+03
       150  26 -1.317508E+06 -1.682678E+05  1.570621E+04 -5.012612E+05  3.087436E+03  5.002337E+02
       150  27 -1.317711E+06 -1.705965E+05  1.664586E+04 -5.031129E+05  1.352303E+03 -1.638713E+01
       151   1 -1.423988E+06 -2.120821E+05 -1.249599E+04 -5.327615E+05 -9.852891E+02  7.390694E+01
       151   2 -1.424338E+06 -2.077678E+05 -1.132733E+04 -5.288849E+05 -3.253318E+02  2.284971E+02
       151   3 -1.419207E+06 -2.100258E+05 -1.082656E+04 -5.314845E+05  3.613785E+02  3.116733E+02
       151   4 -1.384878E+06 -1.972826E+05 -1.729780E+03 -5.221087E+05 -9.904568E+02  7.196716E+01
       151   5 -1.387604E+06 -1.938953E+05 -1.216313E+03 -5.189090E+05 -3.384697E+02  2.235707E+02
       151   6 -1.384849E+06 -1.970785E+05 -1.364389E+03 -5.221854E+05  3.402658E+02  3.037610E+02
       151   7 -1.345766E+06 -1.824830E+05  9.036300E+03 -5.114553E+05 -9.956247E+02  7.002724E+01
       151   8 -1.350870E+06 -1.800226E+05  8.894576E+03 -5.089326E+05 -3.516085E+02  2.186440E+02
       151   9 -1.350490E+06 -1.841312E+05  8.097652E+03 -5.128858E+05  3.191519E+02  2.958482E+02
       151  10 -1.423988E+06 -2.120821E+05 -1.249599E+04 -5.327615E+05  5.762990E-11  3.962687E-10
       151  11 -1.424338E+06 -2.077678E+05 -1.132733E+04 -5.288849E+05 -1.926849E-09  1.206740E-09
       151  12 -1.419207E+06 -2.100258E+05 -1.082656E+04 -5.314845E+05 -4.001703E-10  1.368428E-09
       151  13 -1.384878E+06 -1.972826E+05 -1.729782E+03 -5.221087E+05  1.161779E-09  1.222364E-09
       151  14 -1.387604E+06 -1.938953E+05 -1.216313E+03 -5.189090E+05 -1.075673E-09  1.713373E-09
       151  15 -1.384849E+06 -1.970785E+05 -1.364390E+03 -5.221854E+05  1.368177E-09  1.078899E-09
       151  16 -1.345766E+06 -1.824830E+05  9.036298E+03 -5.114553E+05  1.314626E-09  9.980498E-10
       151  17 -1.350870E+06 -1.800226E+05  8.894576E+03 -5.089326E+05 -2.678263E-09  2.924745E-10
       151  18 -1.350490E+06 -1.841312E+05  8.097652E+03 -5.128858E+05  1.084866E-09  1.025002E-09
       151  19 -1.423988E+06 -2.120821E+05 -1.249599E+04 -5.327615E+05  9.852891E+02 -7.390694E+01
       151  20 -1.424338E+06 -2.077678E+05 -1.132733E+04 -5.288849E+05  3.253318E+02 -2.284971E+02
       151  21 -1.419207E+06 -2.100258E+05 -1.082656E+04 -5.314845E+05 -3.613785E+02 -3.116733E+02
       151  22 -1.384878E+06 -1.972826E+05 -1.729780E+03 -5.221087E+05  9.904568E+02 -7.196716E+01
       151  23 -1.387604E+06 -1.938953E+05 -1.216313E+03 -5.189090E+05  3.384697E+02 -2.235707E+02
       151  24 -1.384849E+06 -1.970785E+05 -1.364389E+03 -5.221854E+05 -3.402658E+02 -3.037610E+02
       151  25 -1.345766E+06 -1.824830E+05  9.036300E+03 -5.114553E+05  9.956247E+02 -7.002724E+01
       151  26 -1.350870E+06 -1.800226E+05  8.894576E+03 -5.089326E+05  3.516085E+02 -2.186440E+02
       151  27 -1.350490E+06 -1.841312E+05  8.097652E+03 -5.128858E+05 -3.191519E+02 -2.958482E+02
       152   1 -1.376185E+06 -1.939691E+05  7.987970E+02 -5.201911E+05  6.394123E+02  2.968524E+02
       152   2 -1.376495E+06 -1.892745E+05  7.849143E+02 -5.156136E+05  1.875095E+03  5.951802E+02
       152   3 -1.370953E+06 -1.928240E+05 -5.511360E+02 -5.182360E+05  3.101858E+03  9.173377E+02
       152   4 -1.384724E+06 -1.971473E+05 -1.552005E+03 -5.224597E+05  6.218724E+02  2.902803E+02
       152   5 -1.387721E+06 -1.935241E+05 -2.306957E+03 -5.186729E+05  1.860205E+03  5.896002E+02
       152   6 -1.384866E+06 -1.981457E+05 -4.386196E+03 -5.220860E+05  3.089614E+03  9.127479E+02
       152   7 -1.393263E+06 -2.003254E+05 -3.902815E+03 -5.247282E+05  6.043327E+02  2.837082E+02
       152   8 -1.398946E+06 -1.977737E+05 -5.398844E+03 -5.217321E+05  1.845316E+03  5.840202E+02
       152   9 -1.398778E+06 -2.034674E+05 -8.221281E+03 -5.259359E+05  3.077370E+03  9.081582E+02
       152  10 -1.376185E+06 -1.939691E+05  7.987961E+02 -5.201911E+05 -3.109301E-09  6.953852E-11
       152  11 -1.376495E+06 -1.892745E+05  7.849070E+02 -5.156136E+05  8.217597E-10 -2.211533E-09
       152  12 -1.370953E+06 -1.928241E+05 -5.511557E+02 -5.182360E+05 -1.013673E-09 -6.347066E-10
       152  13 -1.384724E+06 -1.971473E+05 -1.552005E+03 -5.224597E+05 -1.696463E-09 -2.996512E-10
       152  14 -1.387721E+06 -1.935241E+05 -2.306964E+03 -5.186729E+05  1.771327E-09 -1.488703E-09
       152  15 -1.384866E+06 -1.981457E+05 -4.386215E+03 -5.220860E+05  1.138226E-09  3.853609E-10
       152  16 -1.393263E+06 -2.003254E+05 -3.902816E+03 -5.247282E+05  1.826005E-09 -9.721338E-11
       152  17 -1.398946E+06 -1.977737E+05 -5.398851E+03 -5.217321E+05  3.152557E-09 -2.274666E-09
       152  18 -1.398778E+06 -2.034674E+05 -8.221301E+03 -5.259359E+05  1.606879E-09  5.869465E-10
       152  19 -1.376185E+06 -1.939691E+05  7.987970E+02 -5.201911E+05 -6.394123E+02 -2.968524E+02
       152  20 -1.376495E+06 -1.892745E+05  7.849143E+02 -5.156136E+05 -1.875095E+03 -5.951802E+02
       152  21 -1.370953E+06 -1.928240E+05 -5.511360E+02 -5.182360E+05 -3.101858E+03 -9.173377E+02
       152  22 -1.384724E+06 -1.971473E+05 -1.552005E+03 -5.224597E+05 -6.218724E+02 -2.902803E+02
       152  23 -1.387721E+06 -1.935241E+05 -2.306957E+03 -5.186729E+05 -1.860205E+03 -5.896002E+02
       152  24 -1.384866E+06 -1.981457E+05 -4.386196E+03 -5.220860E+05 -3.089614E+03 -9.127479E+02
       152  25 -1.393263E+06 -2.003254E+05 -3.902815E+03 -5.247282E+05 -6.043327E+02 -2.837082E+02
       152  26 -1.398946E+06 -1.977737E+05 -5.398844E+03 -5.217321E+05 -1.845316E+03 -5.840202E+02
       152  27 -1.398778E+06 -2.034674E+05 -8.221281E+03 -5.259359E+05 -3.077370E+03 -9.081582E+02
       153   1 -1.333257E+06 -1.770283E+05  8.843211E+03 -5.082826E+05  3.974374E+03  1.137749E+03
       153   2 -1.332251E+06 -1.721405E+05  5.527084E+03 -5.047790E+05  8.903516E+03  2.821775E+03
       153   3 -1.331027E+06 -1.819496E+05 -4.165981E+03 -5.040124E+05  1.379045E+04  4.618284E+03
       153   4 -1.385691E+06 -1.965487E+05 -5.542839E+03 -5.222310E+05  3.951715E+03  1.129255E+03
       153   5 -1.386289E+06 -1.926564E+05 -9.368040E+03 -5.195669E+05  8.893063E+03  2.817849E+03
       153   6 -1.386672E+06 -2.034640E+05 -1.958029E+04 -5.196396E+05  1.379220E+04  4.618920E+03
       153   7 -1.438123E+06 -2.160690E+05 -1.992911E+04 -5.361784E+05  3.929057E+03  1.120762E+03
       153   8 -1.440325E+06 -2.131722E+05 -2.426342E+04 -5.343536E+05  8.882610E+03  2.813924E+03
       153   9 -1.442315E+06 -2.249782E+05 -3.499488E+04 -5.352654E+05  1.379394E+04  4.619557E+03
       153  10 -1.333257E+06 -1.770283E+05  8.843179E+03 -5.082826E+05 -2.410112E-09  1.118913E-10
       153  11 -1.332251E+06 -1.721405E+05  5.526920E+03 -5.047791E+05  2.301457E-10 -1.415306E-09
       153  12 -1.331027E+06 -1.819497E+05 -4.166380E+03 -5.040124E+05 -3.755112E-09 -2.321459E-10
       153  13 -1.385691E+06 -1.965487E+05 -5.542871E+03 -5.222310E+05 -1.799176E-09  6.831976E-12
       153  14 -1.386290E+06 -1.926565E+05 -9.368204E+03 -5.195669E+05  2.508950E-09 -8.792722E-10
       153  15 -1.386672E+06 -2.034641E+05 -1.958069E+04 -5.196396E+05  4.284833E-10 -4.538150E-10
       153  16 -1.438123E+06 -2.160690E+05 -1.992914E+04 -5.361784E+05  4.852792E-10  1.292582E-09
       153  17 -1.440325E+06 -2.131722E+05 -2.426358E+04 -5.343536E+05  3.060365E-09  9.551768E-10
       153  18 -1.442315E+06 -2.249783E+05 -3.499528E+04 -5.352655E+05  2.661937E-09 -6.477351E-10
       153  19 -1.333257E+06 -1.770283E+05  8.843211E+03 -5.082826E+05 -3.974374E+03 -1.137749E+03
       153  20 -1.332251E+06 -1.721405E+05  5.527084E+03 -5.047790E+05 -8.903516E+03 -2.821775E+03
       153  21 -1.331027E+06 -1.819496E+05 -4.165981E+03 -5.040124E+05 -1.379045E+04 -4.618284E+03
       153  22 -1.385691E+06 -1.965487E+05 -5.542839E+03 -5.222310E+05 -3.951715E+03 -1.129255E+03
       153  23 -1.386289E+06 -1.926564E+05 -9.368040E+03 -5.195669E+05 -8.893063E+03 -2.817849E+03
       153  24 -1.386672E+06 -2.034640E+05 -1.958029E+04 -5.196396E+05 -1.379220E+04 -4.618920E+03
       153  25 -1.438123E+06 -2.160690E+05 -1.992911E+04 -5.361784E+05 -3.929057E+03 -1.120762E+03
       153  26 -1.440325E+06 -2.131722E+05 -2.426342E+04 -5.343536E+05 -8.882610E+03 -2.813924E+03
       153  27 -1.442315E+06 -2.249782E+05 -3.499488E+04 -5.352654E+05 -1.379394E+04 -4.619557E+03
       154   1 -1.314625E+06 -1.683095E+05 -4.074185E+03 -5.043362E+05  1.750492E+04  5.956485E+03
       154   2 -1.306073E+06 -1.557365E+05 -1.988595E+04 -5.016702E+05  3.905405E+04  1.395269E+04
       154   3 -1.324329E+06 -2.095811E+05 -6.970762E+04 -4.828937E+05  6.052880E+04  2.214756E+04
       154   4 -1.389850E+06 -1.949611E+05 -2.443435E+04 -5.229593E+05  1.748312E+04  5.948359E+03
       154   5 -1.379658E+06 -1.843691E+05 -4.030728E+04 -5.225221E+05  3.905206E+04  1.395187E+04
       154   6 -1.396282E+06 -2.402035E+05 -9.020894E+04 -5.059736E+05  6.054666E+04  2.215385E+04
       154   7 -1.465068E+06 -2.216126E+05 -4.479502E+04 -5.415806E+05  1.746132E+04  5.940234E+03
       154   8 -1.453237E+06 -2.130012E+05 -6.072912E+04 -5.433717E+05  3.905006E+04  1.395105E+04
       154   9 -1.468229E+06 -2.708251E+05 -1.107108E+05 -5.290509E+05  6.056452E+04  2.216014E+04
       154  10 -1.314626E+06 -1.683096E+05 -4.074829E+03 -5.043363E+05 -2.408843E-09 -2.072446E-10
       154  11 -1.306074E+06 -1.557371E+05 -1.988919E+04 -5.016706E+05  1.266264E-09 -2.221523E-09
       154  12 -1.324333E+06 -2.095827E+05 -6.971545E+04 -4.828948E+05  1.267271E-09 -3.430067E-09
       154  13 -1.389850E+06 -1.949612E+05 -2.443499E+04 -5.229594E+05  1.461596E-09 -5.741927E-10
       154  14 -1.379659E+06 -1.843697E+05 -4.031052E+04 -5.225225E+05 -5.984056E-10 -1.886019E-09
       154  15 -1.396286E+06 -2.402050E+05 -9.021678E+04 -5.059747E+05 -7.112625E-10 -2.154192E-09
       154  16 -1.465069E+06 -2.216128E+05 -4.479566E+04 -5.415807E+05  1.365931E-09 -8.922831E-11
       154  17 -1.453239E+06 -2.130019E+05 -6.073236E+04 -5.433722E+05 -1.492446E-09 -1.991894E-09
       154  18 -1.468233E+06 -2.708266E+05 -1.107186E+05 -5.290520E+05  1.295142E-11 -7.649482E-10
       154  19 -1.314625E+06 -1.683095E+05 -4.074185E+03 -5.043362E+05 -1.750492E+04 -5.956485E+03
       154  20 -1.306073E+06 -1.557365E+05 -1.988595E+04 -5.016702E+05 -3.905405E+04 -1.395269E+04
       154  21 -1.324329E+06 -2.095811E+05 -6.970762E+04 -4.828937E+05 -6.052880E+04 -2.214756E+04
       154  22 -1.389850E+06 -1.949611E+05 -2.443435E+04 -5.229593E+05 -1.748312E+04 -5.948359E+03
       154  23 -1.379658E+06 -1.843691E+05 -4.030728E+04 -5.225221E+05 -3.905206E+04 -1.395187E+04
       154  24 -1.396282E+06 -2.402035E+05 -9.020894E+04 -5.059736E+05 -6.054666E+04 -2.215385E+04
       154  25 -1.465068E+06 -2.216126E+05 -4.479502E+04 -5.415806E+05 -1.746132E+04 -5.940234E+03
       154  26 -1.453237E+06 -2.130012E+05 -6.072912E+04 -5.433717E+05 -3.905006E+04 -1.395105E+04
       154  27 -1.468229E+06 -2.708251E+05 -1.107108E+05 -5.290509E+05 -6.056452E+04 -2.216014E+04
       155   1 -1.338677E+06 -1.731787E+05 -9.164160E+04 -5.248637E+05  7.726257E+04  2.842449E+04
       155   2 -1.285146E+06 -9.674231E+04 -1.546209E+05 -5.133996E+05  1.724379E+05  6.422364E+04
       155   3 -1.408602E+06 -4.438797E+05 -4.056539E+05 -3.864109E+05  2.674477E+05  1.004699E+05
       155   4 -1.411144E+06 -1.891999E+05 -1.093208E+05 -5.329043E+05  7.723225E+04  2.841487E+04
       155   5 -1.343609E+06 -1.246736E+05 -1.718785E+05 -5.352812E+05  1.724491E+05  6.422580E+04
       155   6 -1.453086E+06 -4.837550E+05 -4.225365E+05 -4.221277E+05  2.675026E+05  1.004781E+05
       155   7 -1.483606E+06 -2.052211E+05 -1.270003E+05 -5.409444E+05  7.720194E+04  2.840525E+04
       155   8 -1.402068E+06 -1.526040E+05 -1.891364E+05 -5.571607E+05  1.724602E+05  6.422795E+04
       155   9 -1.497567E+06 -5.236259E+05 -4.394190E+05 -4.578413E+05  2.675576E+05  1.004863E+05
       155  10 -1.338684E+06 -1.731812E+05 -9.165437E+04 -5.248655E+05 -1.696515E-10 -1.757438E-09
       155  11 -1.285179E+06 -9.675475E+04 -1.546847E+05 -5.134085E+05 -2.799695E-10 -3.116655E-10
       155  12 -1.408681E+06 -4.439099E+05 -4.058077E+05 -3.864325E+05  3.479730E-10  2.449141E-10
       155  13 -1.411151E+06 -1.892023E+05 -1.093336E+05 -5.329061E+05  5.712610E-10 -1.464997E-09
       155  14 -1.343642E+06 -1.246861E+05 -1.719423E+05 -5.352901E+05 -8.750722E-10  1.968216E-09
       155  15 -1.453166E+06 -4.837851E+05 -4.226903E+05 -4.221494E+05 -1.913190E-09  2.128938E-09
       155  16 -1.483612E+06 -2.052236E+05 -1.270131E+05 -5.409462E+05  1.710991E-09 -6.542960E-10
       155  17 -1.402101E+06 -1.526165E+05 -1.892002E+05 -5.571697E+05 -8.632264E-10  3.141490E-09
       155  18 -1.497646E+06 -5.236560E+05 -4.395729E+05 -4.578630E+05 -2.794754E-10  7.380772E-10
       155  19 -1.338677E+06 -1.731787E+05 -9.164160E+04 -5.248637E+05 -7.726257E+04 -2.842449E+04
       155  20 -1.285146E+06 -9.674231E+04 -1.546209E+05 -5.133996E+05 -1.724379E+05 -6.422364E+04
       155  21 -1.408602E+06 -4.438797E+05 -4.056539E+05 -3.864109E+05 -2.674477E+05 -1.004699E+05
       155  22 -1.411144E+06 -1.891999E+05 -1.093208E+05 -5.329043E+05 -7.723225E+04 -2.841487E+04
       155  23 -1.343609E+06 -1.246736E+05 -1.718785E+05 -5.352812E+05 -1.724491E+05 -6.422580E+04
       155  24 -1.453086E+06 -4.837550E+05 -4.225365E+05 -4.221277E+05 -2.675026E+05 -1.004781E+05
       155  25 -1.483606E+06 -2.052211E+05 -1.270003E+05 -5.409444E+05 -7.720194E+04 -2.840525E+04
       155  26 -1.402068E+06 -1.526040E+05 -1.891364E+05 -5.571607E+05 -1.724602E+05 -6.422795E+04
       155  27 -1.497567E+06 -5.236259E+05 -4.394190E+05 -4.578413E+05 -2.675576E+05 -1.004863E+05
       156   1  1.871084E+05  1.577208E+06  1.775054E+05 -1.184217E+05  8.683521E+03  7.022412E+04
       156   2  1.524374E+05  1.490387E+06  1.212387E+05 -1.083363E+05  2.918522E+04  3.235384E+04
       156   3  1.286471E+05  1.411204E+06  9.231595E+04 -1.110461E+05  3.476242E+04 -5.522648E+03
       156   4  1.109318E+04  8.618295E+05  1.190093E+04 -1.102538E+05  8.753137E+03  6.436026E+03
       156   5  3.964022E+03  8.609839E+05  7.475177E+03 -1.038618E+05  2.922203E+04  2.668857E+03
       156   6  1.810430E+03  8.618667E+05  6.752907E+03 -1.102647E+05  3.475989E+04 -1.110022E+03
       156   7 -1.649555E+05  1.469315E+05 -1.537224E+05 -1.020952E+05  8.821124E+03 -5.727926E+04
       156   8 -1.445310E+05  2.319674E+05 -1.063007E+05 -9.939193E+04  2.925842E+04 -2.698692E+04
       156   9 -1.250410E+05  3.128297E+05 -7.881718E+04 -1.094839E+05  3.475737E+04  3.298855E+03
       156  10  1.871070E+05  1.577203E+06  1.774960E+05 -1.184222E+05  1.967241E-09  4.294630E-09
       156  11  1.524362E+05  1.490386E+06  1.212352E+05 -1.083370E+05  2.646097E-09 -5.406389E-10
       156  12  1.286458E+05  1.411204E+06  9.231362E+04 -1.110459E+05  1.776892E-09 -1.127311E-09
       156  13  1.109309E+04  8.618294E+05  1.190071E+04 -1.102539E+05  3.289194E-10 -4.506347E-11
       156  14  3.963103E+03  8.609836E+05  7.473558E+03 -1.038619E+05  1.199061E-09  1.110774E-09
       156  15  1.809132E+03  8.618664E+05  6.750633E+03 -1.102646E+05  1.585664E-09 -1.537818E-09
       156  16 -1.649565E+05  1.469279E+05 -1.537287E+05 -1.020948E+05 -1.447632E-10 -3.269792E-09
       156  17 -1.445321E+05  2.319664E+05 -1.063036E+05 -9.939130E+04 -1.163676E-10 -1.286760E-09
       156  18 -1.250423E+05  3.128293E+05 -7.881947E+04 -1.094840E+05  4.156211E-10  1.959000E-09
       156  19  1.871084E+05  1.577208E+06  1.775054E+05 -1.184217E+05 -8.683521E+03 -7.022412E+04
       156  20  1.524374E+05  1.490387E+06  1.212387E+05 -1.083363E+05 -2.918522E+04 -3.235384E+04
       156  21  1.286471E+05  1.411204E+06  9.231595E+04 -1.110461E+05 -3.476242E+04  5.522648E+03
       156  22  1.109318E+04  8.618295E+05  1.190093E+04 -1.102538E+05 -8.753137E+03 -6.436026E+03
       156  23  3.964022E+03  8.609839E+05  7.475177E+03 -1.038618E+05 -2.922203E+04 -2.668857E+03
       156  24  1.810430E+03  8.618667E+05  6.752907E+03 -1.102647E+05 -3.475989E+04  1.110022E+03
       156  25 -1.649555E+05  1.469315E+05 -1.537224E+05 -1.020952E+05 -8.821124E+03  5.727926E+04
       156  26 -1.445310E+05  2.319674E+05 -1.063007E+05 -9.939193E+04 -2.925842E+04  2.698692E+04
       156  27 -1.250410E+05  3.128297E+05 -7.881718E+04 -1.094839E+05 -3.475737E+04 -3.298855E+03
       157   1  1.159431E+05  1.358770E+06  8.239393E+04 -1.117561E+05  3.300707E+04 -7.377605E+03
       157   2  9.695935E+04  1.274785E+06  6.959580E+04 -1.025035E+05  2.970189E+04 -1.745537E+04
       157   3  8.237752E+04  1.193188E+06  6.444256E+04 -1.071392E+05  2.425741E+04 -2.753537E+04
       157   4  1.662251E+03  8.618334E+05  7.300485E+03 -1.105078E+05  3.300305E+04 -2.241304E+03
       157   5  2.475474E+03  8.610759E+05  1.035203E+04 -1.035605E+05  2.969058E+04 -7.430488E+03
       157   6  6.844717E+03  8.618530E+05  1.765990E+04 -1.105017E+05  2.423814E+04 -1.262314E+04
       157   7 -1.126303E+05  3.651443E+05 -6.779792E+04 -1.092604E+05  3.299905E+04  2.891056E+03
       157   8 -9.201610E+04  4.475398E+05 -4.889394E+04 -1.046167E+05  2.967924E+04  2.588007E+03
       157   9 -6.869284E+04  5.306295E+05 -2.912343E+04 -1.138623E+05  2.421869E+04  2.281487E+03
       157  10  1.159419E+05  1.358769E+06  8.239178E+04 -1.117559E+05  3.139273E-10  6.909460E-08
       157  11  9.695832E+04  1.274784E+06  6.959357E+04 -1.025031E+05  3.891530E-09 -1.917468E-09
       157  12  8.237668E+04  1.193187E+06  6.444003E+04 -1.071386E+05  1.981433E-09 -6.760107E-08
       157  13  1.661080E+03  8.618331E+05  7.298428E+03 -1.105077E+05  2.224735E-09  8.581216E-12
       157  14  2.474512E+03  8.610756E+05  1.035027E+04 -1.035603E+05 -1.847508E-10  1.333947E-09
       157  15  6.844043E+03  8.618527E+05  1.765849E+04 -1.105015E+05 -2.823627E-10 -1.888426E-09
       157  16 -1.126315E+05  3.651440E+05 -6.779998E+04 -1.092605E+05 -1.366103E-09 -6.773676E-08
       157  17 -9.201705E+04  4.475396E+05 -4.889561E+04 -1.046167E+05 -5.293217E-10 -4.738912E-10
       157  18 -6.869347E+04  5.306293E+05 -2.912454E+04 -1.138624E+05 -2.738026E-09  6.833335E-08
       157  19  1.159431E+05  1.358770E+06  8.239393E+04 -1.117561E+05 -3.300707E+04  7.377605E+03
       157  20  9.695935E+04  1.274785E+06  6.959580E+04 -1.025035E+05 -2.970189E+04  1.745537E+04
       157  21  8.237752E+04  1.193188E+06  6.444256E+04 -1.071392E+05 -2.425741E+04  2.753537E+04
       157  22  1.662251E+03  8.618334E+05  7.300485E+03 -1.105078E+05 -3.300305E+04  2.241304E+03
       157  23  2.475474E+03  8.610759E+05  1.035203E+04 -1.035605E+05 -2.969058E+04  7.430488E+03
       157  24  6.844717E+03  8.618530E+05  1.765990E+04 -1.105017E+05 -2.423814E+04  1.262314E+04
       157  25 -1.126303E+05  3.651443E+05 -6.779792E+04 -1.092604E+05 -3.299905E+04 -2.891056E+03
       157  26 -9.201610E+04  4.475398E+05 -4.889394E+04 -1.046167E+05 -2.967924E+04 -2.588007E+03
       157  27 -6.869284E+04  5.306295E+05 -2.912343E+04 -1.138623E+05 -2.421869E+04 -2.281487E+03
       158   1  7.290750E+04  1.144001E+06  6.289770E+04 -1.090219E+05  2.043440E+04 -3.076410E+04
       158   2  7.243692E+04  1.055360E+06  7.248919E+04 -7.616803E+04  1.286291E+04 -5.693276E+04
       158   3  1.065209E+05  9.787283E+05  1.077268E+05 -5.743691E+04  3.288015E+03 -8.310153E+04
       158   4  9.050437E+03  8.640087E+05  2.324965E+04 -1.105593E+05  2.041407E+04 -1.567841E+04
       158   5  2.714061E+04  8.583966E+05  4.229357E+04 -1.034533E+05  1.283759E+04 -3.727453E+04
       158   6  7.899438E+04  8.639895E+05  8.381159E+04 -1.104670E+05  3.259592E+03 -5.887352E+04
       158   7 -5.481002E+04  5.840963E+05 -1.639863E+04 -1.120959E+05  2.039366E+04 -5.992120E+02
       158   8 -1.815455E+04  6.614742E+05  1.209895E+04 -1.307296E+05  1.281054E+04 -1.762228E+04
       158   9  5.147796E+04  7.492705E+05  5.989934E+04 -1.634872E+05  3.227034E+03 -3.464991E+04
       158  10  7.290680E+04  1.144000E+06  6.289514E+04 -1.090214E+05  7.146053E-10  1.449616E-09
       158  11  7.243588E+04  1.055357E+06  7.248280E+04 -7.616744E+04  4.811211E-10 -2.097480E-09
       158  12  1.065190E+05  9.787209E+05  1.077139E+05 -5.743669E+04  8.126696E-10 -2.712182E-10
       158  13  9.049923E+03  8.640083E+05  2.324841E+04 -1.105590E+05 -2.752092E-09 -3.338591E-11
       158  14  2.714006E+04  8.583951E+05  4.229065E+04 -1.034529E+05  3.503050E-10  1.435568E-09
       158  15  7.899344E+04  8.639858E+05  8.380507E+04 -1.104669E+05  1.657190E-09 -1.792599E-09
       158  16 -5.481046E+04  5.840962E+05 -1.639942E+04 -1.120958E+05  1.779585E-10  6.597242E-11
       158  17 -1.815481E+04  6.614738E+05  1.209805E+04 -1.307295E+05 -1.407599E-09 -5.693935E-10
       158  18  5.147763E+04  7.492692E+05  5.989707E+04 -1.634871E+05 -5.070882E-11  1.053903E-09
       158  19  7.290750E+04  1.144001E+06  6.289770E+04 -1.090219E+05 -2.043440E+04  3.076410E+04
       158  20  7.243692E+04  1.055360E+06  7.248919E+04 -7.616803E+04 -1.286291E+04  5.693276E+04
       158  21  1.065209E+05  9.787283E+05  1.077268E+05 -5.743691E+04 -3.288015E+03  8.310153E+04
       158  22  9.050437E+03  8.640087E+05  2.324965E+04 -1.105593E+05 -2.041407E+04  1.567841E+04
       158  23  2.714061E+04  8.583966E+05  4.229357E+04 -1.034533E+05 -1.283759E+04  3.727453E+04
       158  24  7.899438E+04  8.639895E+05  8.381159E+04 -1.104670E+05 -3.259592E+03  5.887352E+04
       158  25 -5.481002E+04  5.840963E+05 -1.639863E+04 -1.120959E+05 -2.039366E+04  5.992120E+02
       158  26 -1.815455E+04  6.614742E+05  1.209895E+04 -1.307296E+05 -1.281054E+04  1.762228E+04
       158  27  5.147796E+04  7.492705E+05  5.989934E+04 -1.634872E+05 -3.227034E+03  3.464991E+04
       159   1  1.990673E+06  2.679892E+05  3.954846E+05  6.813727E+03  3.692117E+05  3.484635E+03
       159   2  1.933818E+06 -2.368882E+05  9.189969E+04  2.848510E+04  2.434328E+05  5.837680E+03
       159   3  2.049085E+06 -1.455838E+05  2.050554E+04 -4.174545E+04  1.176569E+05  3.764395E+03
       159   4  2.578473E+06  4.141479E+05  5.418187E+05 -2.588098E+04  3.700647E+05  3.467739E+03
       159   5  2.492646E+06 -9.765442E+04  2.308458E+05  2.099012E+04  2.436465E+05  5.834613E+03
       159   6  2.578900E+06 -1.345107E+04  1.523506E+05 -2.403664E+04  1.172371E+05  3.766764E+03
       159   7  3.166589E+06  5.602850E+05  6.881276E+05 -5.860689E+04  3.709185E+05  3.450768E+03
       159   8  3.051756E+06  4.155620E+04  3.697686E+05  1.348819E+04  2.438603E+05  5.831544E+03
       159   9  3.108969E+06  1.186618E+05  2.841748E+05 -6.312846E+03  1.168170E+05  3.769106E+03
       159  10  1.990527E+06  2.679528E+05  3.952292E+05  6.812692E+03 -5.473807E-10  1.704147E-11
       159  11  1.933755E+06 -2.369041E+05  9.178862E+04  2.848396E+04 -8.632888E-10 -1.608698E-10
       159  12  2.049070E+06 -1.455875E+05  2.047958E+04 -4.174581E+04 -1.392027E-09  7.182358E-10
       159  13  2.578327E+06  4.141113E+05  5.415624E+05 -2.588202E+04  1.136771E-09  3.886606E-12
       159  14  2.492583E+06 -9.767031E+04  2.307346E+05  2.098898E+04 -1.890848E-09  1.265685E-10
       159  15  2.578885E+06 -1.345476E+04  1.523249E+05 -2.403699E+04  1.012821E-09  4.541685E-10
       159  16  3.166442E+06  5.602483E+05  6.878703E+05 -5.860792E+04  6.185025E-10 -1.803068E-10
       159  17  3.051693E+06  4.154030E+04  3.696573E+05  1.348705E+04  1.296513E-09  6.062195E-11
       159  18  3.108954E+06  1.186581E+05  2.841493E+05 -6.313200E+03  4.123145E-10  1.496163E-09
       159  19  1.990673E+06  2.679892E+05  3.954846E+05  6.813727E+03 -3.692117E+05 -3.484635E+03
       159  20  1.933818E+06 -2.368882E+05  9.189969E+04  2.848510E+04 -2.434328E+05 -5.837680E+03
       159  21  2.049085E+06 -1.455838E+05  2.050554E+04 -4.174545E+04 -1.176569E+05 -3.764395E+03
       159  22  2.578473E+06  4.141479E+05  5.418187E+05 -2.588098E+04 -3.700647E+05 -3.467739E+03
       159  23  2.492646E+06 -9.765442E+04  2.308458E+05  2.099012E+04 -2.436465E+05 -5.834613E+03
       159  24  2.578900E+06 -1.345107E+04  1.523506E+05 -2.403664E+04 -1.172371E+05 -3.766764E+03
       159  25  3.166589E+06  5.602850E+05  6.881276E+05 -5.860689E+04 -3.709185E+05 -3.450768E+03
       159  26  3.051756E+06  4.155620E+04  3.697686E+05  1.348819E+04 -2.438603E+05 -5.831544E+03
       159  27  3.108969E+06  1.186618E+05  2.841748E+05 -6.312846E+03 -1.168170E+05 -3.769106E+03
       160   1  2.289749E+06 -8.174301E+02  6.194836E+04 -8.255288E+03  9.191273E+04  2.293210E+03
       160   2  2.288546E+06 -7.583180E+04 -7.942793E+02  8.040831E+03  6.040544E+04  1.953399E+03
       160   3  2.315423E+06 -5.966538E+04 -2.003588E+04 -1.566810E+04  2.889747E+04  1.474525E+03
       160   4  2.546843E+06  6.323647E+04  1.258736E+05 -1.310445E+04  9.190975E+04  2.292405E+03
       160   5  2.532850E+06 -1.494866E+04  5.996763E+04  6.930334E+03  6.037414E+04  1.953222E+03
       160   6  2.546930E+06 -1.967511E+03  3.756954E+04 -1.303889E+04  2.883850E+04  1.474625E+03
       160   7  2.803997E+06  1.272855E+05  1.897940E+05 -1.795563E+04  9.190676E+04  2.291601E+03
       160   8  2.777207E+06  4.593001E+04  1.207251E+05  5.819396E+03  6.034282E+04  1.953046E+03
       160   9  2.778486E+06  5.572637E+04  9.517096E+04 -1.040870E+04  2.877949E+04  1.474724E+03
       160  10  2.289740E+06 -8.196935E+02  6.193253E+04 -8.255458E+03 -1.122546E-09  8.107146E-10
       160  11  2.288542E+06 -7.583277E+04 -8.011181E+02  8.040736E+03  1.568113E-09  9.363170E-10
       160  12  2.315422E+06 -5.966560E+04 -2.003745E+04 -1.566814E+04 -4.474258E-10 -1.074739E-09
       160  13  2.546834E+06  6.323421E+04  1.258578E+05 -1.310462E+04 -1.974595E-09  4.211778E-10
       160  14  2.532846E+06 -1.494964E+04  5.996080E+04  6.930240E+03 -2.423149E-09  2.163509E-10
       160  15  2.546929E+06 -1.967736E+03  3.756798E+04 -1.303893E+04  1.141995E-09 -1.274489E-10
       160  16  2.803988E+06  1.272833E+05  1.897782E+05 -1.795580E+04  1.265925E-09  1.234127E-09
       160  17  2.777203E+06  4.592904E+04  1.207183E+05  5.819301E+03 -1.510562E-09  1.750370E-10
       160  18  2.778485E+06  5.572614E+04  9.516940E+04 -1.040873E+04 -6.562462E-10 -2.935587E-10
       160  19  2.289749E+06 -8.174301E+02  6.194836E+04 -8.255288E+03 -9.191273E+04 -2.293210E+03
       160  20  2.288546E+06 -7.583180E+04 -7.942793E+02  8.040831E+03 -6.040544E+04 -1.953399E+03
       160  21  2.315423E+06 -5.966538E+04 -2.003588E+04 -1.566810E+04 -2.889747E+04 -1.474525E+03
       160  22  2.546843E+06  6.323647E+04  1.258736E+05 -1.310445E+04 -9.190975E+04 -2.292405E+03
       160  23  2.532850E+06 -1.494866E+04  5.996763E+04  6.930334E+03 -6.037414E+04 -1.953222E+03
       160  24  2.546930E+06 -1.967511E+03  3.756954E+04 -1.303889E+04 -2.883850E+04 -1.474625E+03
       160  25  2.803997E+06  1.272855E+05  1.897940E+05 -1.795563E+04 -9.190676E+04 -2.291601E+03
       160  26  2.777207E+06  4.593001E+04  1.207251E+05  5.819396E+03 -6.034282E+04 -1.953046E+03
       160  27  2.778486E+06  5.572637E+04  9.517096E+04 -1.040870E+04 -2.877949E+04 -1.474724E+03
       161   1  2.434007E+06 -1.723908E+04  3.359366E+03 -7.553033E+03  2.274028E+04  1.150142E+03
       161   2  2.437621E+06 -2.764986E+04 -9.669363E+03  1.195230E+03  1.469195E+04  7.472811E+02
       161   3  2.445938E+06 -2.410098E+04 -1.394919E+04 -8.651577E+03  6.643693E+03  5.615402E+02
       161   4  2.541732E+06  9.600960E+03  3.012608E+04 -8.296015E+03  2.268095E+04  1.150129E+03
       161   5  2.539392E+06 -2.288377E+03  1.564438E+04  9.992922E+02  1.465753E+04  7.472929E+02
       161   6  2.541749E+06 -2.236278E+02  9.893300E+03 -8.300283E+03  6.634242E+03  5.615480E+02
       161   7  2.649468E+06  3.644013E+04  5.689193E+04 -9.039125E+03  2.262162E+04  1.150115E+03
       161   8  2.641172E+06  2.307233E+04  4.095736E+04  8.033235E+02  1.462309E+04  7.473048E+02
       161   9  2.637569E+06  2.365304E+04  3.373511E+04 -7.948933E+03  6.624789E+03  5.615558E+02
       161  10  2.434006E+06 -1.723921E+04  3.358395E+03 -7.553054E+03 -1.767748E-09 -9.954825E-10
       161  11  2.437621E+06 -2.764991E+04 -9.669768E+03  1.195222E+03 -1.305059E-09  8.361173E-10
       161  12  2.445938E+06 -2.410100E+04 -1.394928E+04 -8.651580E+03  1.977653E-10  7.366833E-10
       161  13  2.541731E+06  9.600822E+03  3.012512E+04 -8.296036E+03 -1.999254E-10 -9.199950E-11
       161  14  2.539392E+06 -2.288435E+03  1.564398E+04  9.992834E+02  1.795802E-09 -3.969612E-11
       161  15  2.541749E+06 -2.236399E+02  9.893217E+03 -8.300286E+03  1.205055E-09 -3.342868E-10
       161  16  2.649467E+06  3.643999E+04  5.689097E+04 -9.039146E+03  2.199566E-10  2.007796E-09
       161  17  2.641172E+06  2.307227E+04  4.095696E+04  8.033147E+02  4.666918E-10  1.610817E-09
       161  18  2.637569E+06  2.365303E+04  3.373502E+04 -7.948936E+03  1.406127E-09  9.043679E-10
       161  19  2.434007E+06 -1.723908E+04  3.359366E+03 -7.553033E+03 -2.274028E+04 -1.150142E+03
       161  20  2.437621E+06 -2.764986E+04 -9.669363E+03  1.195230E+03 -1.469195E+04 -7.472811E+02
       161  21  2.445938E+06 -2.410098E+04 -1.394919E+04 -8.651577E+03 -6.643693E+03 -5.615402E+02
       161  22  2.541732E+06  9.600960E+03  3.012608E+04 -8.296015E+03 -2.268095E+04 -1.150129E+03
       161  23  2.539392E+06 -2.288377E+03  1.564438E+04  9.992922E+02 -1.465753E+04 -7.472929E+02
       161  24  2.541749E+06 -2.236278E+02  9.893300E+03 -8.300283E+03 -6.634242E+03 -5.615480E+02
       161  25  2.649468E+06  3.644013E+04  5.689193E+04 -9.039125E+03 -2.262162E+04 -1.150115E+03
       161  26  2.641172E+06  2.307233E+04  4.095736E+04  8.033235E+02 -1.462309E+04 -7.473048E+02
       161  27  2.637569E+06  2.365304E+04  3.373511E+04 -7.948933E+03 -6.624789E+03 -5.615558E+02
       162   1  2.506566E+06 -7.116194E+03 -4.359723E+02 -6.348113E+03  5.033510E+03  4.601490E+02
       162   2  2.509410E+06 -8.153078E+03 -2.369442E+03 -1.231568E+03  2.325639E+03  2.235399E+02
       162   3  2.513244E+06 -6.595280E+03 -1.898658E+03 -6.540530E+03 -3.822121E+02  8.192276E+01
       162   4  2.540925E+06  1.442780E+03  8.093650E+03 -6.482251E+03  4.999163E+03  4.601816E+02
       162   5  2.540433E+06 -4.224363E+02  5.346995E+03 -1.270074E+03  2.302598E+03  2.235643E+02
       162   6  2.540928E+06  3.049836E+02  4.996664E+03 -6.483371E+03 -3.939348E+02  8.193628E+01
       162   7  2.575286E+06  1.000167E+04  1.662318E+04 -6.616395E+03  4.964815E+03  4.602142E+02
       162   8  2.571457E+06  7.308134E+03  1.306336E+04 -1.308582E+03  2.279555E+03  2.235888E+02
       162   9  2.568613E+06  7.205190E+03  1.189193E+04 -6.426209E+03 -4.056580E+02  8.194980E+01
       162  10  2.506566E+06 -7.116201E+03 -4.360201E+02 -6.348115E+03 -1.451308E-10  1.014917E-09
       162  11  2.509410E+06 -8.153080E+03 -2.369452E+03 -1.231568E+03  2.326696E-09 -1.751208E-10
       162  12  2.513244E+06 -6.595280E+03 -1.898658E+03 -6.540530E+03 -2.517312E-10 -3.333828E-10
       162  13  2.540925E+06  1.442773E+03  8.093603E+03 -6.482252E+03  9.534996E-10 -5.597796E-10
       162  14  2.540433E+06 -4.224377E+02  5.346985E+03 -1.270075E+03 -8.978694E-10 -1.883804E-10
       162  15  2.540928E+06  3.049835E+02  4.996664E+03 -6.483371E+03 -1.123942E-09 -3.179798E-10
       162  16  2.575286E+06  1.000166E+04  1.662314E+04 -6.616397E+03 -6.341593E-10  8.356795E-10
       162  17  2.571457E+06  7.308132E+03  1.306335E+04 -1.308583E+03 -2.628113E-09 -3.960557E-10
       162  18  2.568613E+06  7.205190E+03  1.189193E+04 -6.426209E+03 -1.810551E-09 -2.988766E-10
       162  19  2.506566E+06 -7.116194E+03 -4.359723E+02 -6.348113E+03 -5.033510E+03 -4.601490E+02
       162  20  2.509410E+06 -8.153078E+03 -2.369442E+03 -1.231568E+03 -2.325639E+03 -2.235399E+02
       162  21  2.513244E+06 -6.595280E+03 -1.898658E+03 -6.540530E+03  3.822121E+02 -8.192276E+01
       162  22  2.540925E+06  1.442780E+03  8.093650E+03 -6.482251E+03 -4.999163E+03 -4.601816E+02
       162  23  2.540433E+06 -4.224363E+02  5.346995E+03 -1.270074E+03 -2.302598E+03 -2.235643E+02
       162  24  2.540928E+06  3.049836E+02  4.996664E+03 -6.483371E+03  3.939348E+02 -8.193628E+01
       162  25  2.575286E+06  1.000167E+04  1.662318E+04 -6.616395E+03 -4.964815E+03 -4.602142E+02
       162  26  2.571457E+06  7.308134E+03  1.306336E+04 -1.308582E+03 -2.279555E+03 -2.235888E+02
       162  27  2.568613E+06  7.205190E+03  1.189193E+04 -6.426209E+03  4.056580E+02 -8.194980E+01
       163   1  2.555759E+06  3.840165E+03  8.954336E+03 -6.203568E+03 -1.311478E+03  2.364430E+01
       163   2  2.558173E+06  3.861494E+03  1.134211E+04 -1.530927E+03 -4.792744E+03 -1.252207E+02
       163   3  2.561910E+06  7.453140E+03  1.687766E+04 -6.471179E+03 -8.274077E+03 -3.243165E+02
       163   4  2.541003E+06  1.615708E+02  5.274117E+03 -6.303239E+03 -1.326843E+03  2.366280E+01
       163   5  2.540339E+06 -5.826763E+02  6.906182E+03 -1.495646E+03 -4.814070E+03 -1.251968E+02
       163   6  2.540997E+06  2.244487E+03  1.169022E+04 -6.300963E+03 -8.301346E+03 -3.242894E+02
       163   7  2.526247E+06 -3.517040E+03  1.593882E+03 -6.402908E+03 -1.342208E+03  2.368129E+01
       163   8  2.522504E+06 -5.026871E+03  2.470231E+03 -1.460366E+03 -4.835395E+03 -1.251730E+02
       163   9  2.520085E+06 -2.964198E+03  6.502742E+03 -6.130753E+03 -8.328614E+03 -3.242622E+02
       163  10  2.555759E+06  3.840164E+03  8.954333E+03 -6.203568E+03  1.179276E-09  2.088786E-11
       163  11  2.558173E+06  3.861488E+03  1.134207E+04 -1.530927E+03  3.504421E-09  5.001093E-10
       163  12  2.561910E+06  7.453121E+03  1.687753E+04 -6.471181E+03 -1.877705E-09  7.188566E-10
       163  13  2.541003E+06  1.615703E+02  5.274114E+03 -6.303239E+03  5.985063E-10 -3.840162E-11
       163  14  2.540339E+06 -5.826825E+02  6.906138E+03 -1.495647E+03 -1.425949E-09  3.720701E-10
       163  15  2.540997E+06  2.244469E+03  1.169009E+04 -6.300965E+03  1.204977E-09  1.422151E-10
       163  16  2.526247E+06 -3.517040E+03  1.593878E+03 -6.402908E+03 -1.355281E-10 -7.354793E-12
       163  17  2.522504E+06 -5.026877E+03  2.470187E+03 -1.460367E+03 -3.603315E-09  7.102005E-10
       163  18  2.520085E+06 -2.964216E+03  6.502612E+03 -6.130755E+03 -8.208487E-11 -1.039939E-09
       163  19  2.555759E+06  3.840165E+03  8.954336E+03 -6.203568E+03  1.311478E+03 -2.364430E+01
       163  20  2.558173E+06  3.861494E+03  1.134211E+04 -1.530927E+03  4.792744E+03  1.252207E+02
       163  21  2.561910E+06  7.453140E+03  1.687766E+04 -6.471179E+03  8.274077E+03  3.243165E+02
       163  22  2.541003E+06  1.615708E+02  5.274117E+03 -6.303239E+03  1.326843E+03 -2.366280E+01
       163  23  2.540339E+06 -5.826763E+02  6.906182E+03 -1.495646E+03  4.814070E+03  1.251968E+02
       163  24  2.540997E+06  2.244487E+03  1.169022E+04 -6.300963E+03  8.301346E+03  3.242894E+02
       163  25  2.526247E+06 -3.517040E+03  1.593882E+03 -6.402908E+03  1.342208E+03 -2.368129E+01
       163  26  2.522504E+06 -5.026871E+03  2.470231E+03 -1.460366E+03  4.835395E+03  1.251730E+02
       163  27  2.520085E+06 -2.964198E+03  6.502742E+03 -6.130753E+03  8.328614E+03  3.242622E+02
       164   1  2.616557E+06  1.810501E+04  3.311378E+04 -7.042913E+03 -1.068224E+04 -4.100141E+02
       164   2  2.618014E+06  1.623032E+04  4.347825E+04 -1.094229E+02 -2.285319E+04 -5.717464E+02
       164   3  2.626509E+06  3.585371E+04  6.713495E+04 -8.761234E+03 -3.502421E+04 -8.983398E+02
       164   4  2.542270E+06 -4.056839E+02  1.462824E+04 -7.633485E+03 -1.069237E+04 -4.099957E+02
       164   5  2.538734E+06 -3.524532E+03  2.376095E+04  1.641587E+02 -2.288180E+04 -5.717357E+02
       164   6  2.542241E+06  1.485945E+04  4.619992E+04 -7.623632E+03 -3.507121E+04 -8.983794E+02
       164   7  2.467988E+06 -1.891679E+04 -3.857718E+03 -8.223985E+03 -1.070250E+04 -4.099772E+02
       164   8  2.459460E+06 -2.327985E+04  4.043176E+03  4.377066E+02 -2.291041E+04 -5.717251E+02
       164   9  2.457978E+06 -6.135326E+03  2.526436E+04 -6.486182E+03 -3.511820E+04 -8.984193E+02
       164  10  2.616557E+06  1.810498E+04  3.311357E+04 -7.042917E+03 -1.239078E-09 -4.631059E-10
       164  11  2.618014E+06  1.623018E+04  4.347727E+04 -1.094334E+02  3.270126E-10 -1.934264E-09
       164  12  2.626508E+06  3.585338E+04  6.713265E+04 -8.761259E+03 -9.900208E-10 -1.200529E-09
       164  13  2.542270E+06 -4.057146E+02  1.462802E+04 -7.633488E+03 -1.132761E-10 -5.676956E-10
       164  14  2.538734E+06 -3.524673E+03  2.375997E+04  1.641481E+02  2.571848E-09 -1.881172E-10
       164  15  2.542239E+06  1.485912E+04  4.619761E+04 -7.623657E+03 -2.153509E-09 -2.257385E-10
       164  16  2.467988E+06 -1.891682E+04 -3.857933E+03 -8.223989E+03  4.406585E-10 -1.042074E-10
       164  17  2.459459E+06 -2.327999E+04  4.042193E+03  4.376961E+02 -1.621057E-09  1.247511E-09
       164  18  2.457977E+06 -6.135656E+03  2.526205E+04 -6.486208E+03 -9.024921E-10  2.627148E-10
       164  19  2.616557E+06  1.810501E+04  3.311378E+04 -7.042913E+03  1.068224E+04  4.100141E+02
       164  20  2.618014E+06  1.623032E+04  4.347825E+04 -1.094229E+02  2.285319E+04  5.717464E+02
       164  21  2.626509E+06  3.585371E+04  6.713495E+04 -8.761234E+03  3.502421E+04  8.983398E+02
       164  22  2.542270E+06 -4.056839E+02  1.462824E+04 -7.633485E+03  1.069237E+04  4.099957E+02
       164  23  2.538734E+06 -3.524532E+03  2.376095E+04  1.641587E+02  2.288180E+04  5.717357E+02
       164  24  2.542241E+06  1.485945E+04  4.619992E+04 -7.623632E+03  3.507121E+04  8.983794E+02
       164  25  2.467988E+06 -1.891679E+04 -3.857718E+03 -8.223985E+03  1.070250E+04  4.099772E+02
       164  26  2.459460E+06 -2.327985E+04  4.043176E+03  4.377066E+02  2.291041E+04  5.717251E+02
       164  27  2.457978E+06 -6.135326E+03  2.526436E+04 -6.486182E+03  3.511820E+04  8.984193E+02
       165   1  2.736263E+06  4.331009E+04  1.039622E+05 -7.363119E+03 -4.446321E+04 -1.162724E+03
       165   2  2.725565E+06  2.595483E+04  1.411976E+05  3.062850E+03 -9.301077E+04 -1.556791E+03
       165   3  2.757031E+06  1.491758E+05  2.452422E+05 -1.918689E+04 -1.415605E+05 -1.846338E+03
       165   4  2.550067E+06 -3.079842E+03  5.764370E+04 -1.141647E+04 -4.450998E+04 -1.162431E+03
       165   5  2.528909E+06 -2.304214E+04  9.229966E+04  4.895819E+03 -9.303157E+04 -1.557097E+03
       165   6  2.549923E+06  9.759115E+04  1.937620E+05 -1.146802E+04 -1.415546E+05 -1.848143E+03
       165   7  2.363903E+06 -4.947230E+04  1.132262E+04 -1.546861E+04 -4.455674E+04 -1.162138E+03
       165   8  2.332288E+06 -7.204199E+04  4.339883E+04  6.728208E+03 -9.305236E+04 -1.557404E+03
       165   9  2.342854E+06  4.600354E+04  1.422787E+05 -3.751726E+03 -1.415486E+05 -1.849948E+03
       165  10  2.736261E+06  4.330956E+04  1.039585E+05 -7.363161E+03 -1.730164E-09 -5.037055E-10
       165  11  2.725556E+06  2.595252E+04  1.411814E+05  3.062734E+03 -1.504494E-10  4.498860E-10
       165  12  2.757009E+06  1.491704E+05  2.452047E+05 -1.918710E+04  1.424376E-10  9.234248E-10
       165  13  2.550065E+06 -3.080373E+03  5.763999E+04 -1.141652E+04  7.719511E-10 -1.393215E-10
       165  14  2.528900E+06 -2.304445E+04  9.228346E+04  4.895702E+03 -2.063157E-09 -1.264886E-10
       165  15  2.549902E+06  9.758579E+04  1.937245E+05 -1.146823E+04 -8.777246E-12  2.943660E-10
       165  16  2.363900E+06 -4.947284E+04  1.131890E+04 -1.546866E+04  1.673598E-09  7.284398E-10
       165  17  2.332279E+06 -7.204431E+04  4.338262E+04  6.728091E+03 -2.172919E-09 -3.503488E-10
       165  18  2.342833E+06  4.599818E+04  1.422412E+05 -3.751937E+03  3.170148E-10 -1.124753E-09
       165  19  2.736263E+06  4.331009E+04  1.039622E+05 -7.363119E+03  4.446321E+04  1.162724E+03
       165  20  2.725565E+06  2.595483E+04  1.411976E+05  3.062850E+03  9.301077E+04  1.556791E+03
       165  21  2.757031E+06  1.491758E+05  2.452422E+05 -1.918689E+04  1.415605E+05  1.846338E+03
       165  22  2.550067E+06 -3.079842E+03  5.764370E+04 -1.141647E+04  4.450998E+04  1.162431E+03
       165  23  2.528909E+06 -2.304214E+04  9.229966E+04  4.895819E+03  9.303157E+04  1.557097E+03
       165  24  2.549923E+06  9.759115E+04  1.937620E+05 -1.146802E+04  1.415546E+05  1.848143E+03
       165  25  2.363903E+06 -4.947230E+04  1.132262E+04 -1.546861E+04  4.455674E+04  1.162138E+03
       165  26  2.332288E+06 -7.204199E+04  4.339883E+04  6.728208E+03  9.305236E+04  1.557404E+03
       165  27  2.342854E+06  4.600354E+04  1.422787E+05 -3.751726E+03  1.415486E+05  1.849948E+03
       166   1  3.026914E+06  8.604500E+04  3.408777E+05  6.329557E+03 -1.801688E+05 -3.077127E+03
       166   2  2.920932E+06 -3.759360E+04  4.682673E+05  3.610430E+03 -3.753731E+05 -4.921463E+03
       166   3  3.073643E+06  7.557346E+05  9.525315E+05 -7.464412E+04 -5.705815E+05 -3.297628E+03
       166   4  2.598220E+06 -2.081624E+04  2.342618E+05 -2.033171E+04 -1.804877E+05 -3.069956E+03
       166   5  2.468487E+06 -1.502383E+05  3.558471E+05  1.638444E+04 -3.751527E+05 -4.929306E+03
       166   6  2.597535E+06  6.375618E+05  8.341218E+05 -2.243023E+04 -5.698143E+05 -3.344033E+03
       166   7  2.169694E+06 -1.276886E+05  1.276325E+05 -4.697468E+04 -1.808063E+05 -3.062752E+03
       166   8  2.016227E+06 -2.628976E+05  2.434118E+05  2.914907E+04 -3.749324E+05 -4.937145E+03
       166   9  2.121638E+06  5.193823E+05  7.156967E+05  2.974364E+04 -5.690476E+05 -3.390341E+03
       166  10  3.026879E+06  8.603633E+04  3.408170E+05  6.329111E+03  2.921107E-10 -1.863966E-10
       166  11  2.920782E+06 -3.763121E+04  4.680038E+05  3.608945E+03 -7.076494E-10 -1.306889E-09
       166  12  3.073295E+06  7.556478E+05  9.519227E+05 -7.464564E+04 -1.966516E-09 -1.140005E-09
       166  13  2.598185E+06 -2.082495E+04  2.342008E+05 -2.033216E+04  1.342923E-09 -1.441358E-10
       166  14  2.468337E+06 -1.502759E+05  3.555837E+05  1.638295E+04 -6.949423E-10 -1.261858E-09
       166  15  2.597188E+06  6.374750E+05  8.335141E+05 -2.243176E+04  1.667149E-09 -3.036237E-10
       166  16  2.169659E+06 -1.276974E+05  1.275713E+05 -4.697513E+04  2.232483E-09 -2.029529E-10
       166  17  2.016077E+06 -2.629352E+05  2.431485E+05  2.914758E+04  3.200015E-09 -1.525343E-10
       166  18  2.121291E+06  5.192957E+05  7.150902E+05  2.974209E+04  1.161549E-09 -5.413674E-10
       166  19  3.026914E+06  8.604500E+04  3.408777E+05  6.329557E+03  1.801688E+05  3.077127E+03
       166  20  2.920932E+06 -3.759360E+04  4.682673E+05  3.610430E+03  3.753731E+05  4.921463E+03
       166  21  3.073643E+06  7.557346E+05  9.525315E+05 -7.464412E+04  5.705815E+05  3.297628E+03
       166  22  2.598220E+06 -2.081624E+04  2.342618E+05 -2.033171E+04  1.804877E+05  3.069956E+03
       166  23  2.468487E+06 -1.502383E+05  3.558471E+05  1.638444E+04  3.751527E+05  4.929306E+03
       166  24  2.597535E+06  6.375618E+05  8.341218E+05 -2.243023E+04  5.698143E+05  3.344033E+03
       166  25  2.169694E+06 -1.276886E+05  1.276325E+05 -4.697468E+04  1.808063E+05  3.062752E+03
       166  26  2.016227E+06 -2.628976E+05  2.434118E+05  2.914907E+04  3.749324E+05  4.937145E+03
       166  27  2.121638E+06  5.193823E+05  7.156967E+05  2.974364E+04  5.690476E+05  3.390341E+03
       167   1  6.596938E+04  3.949060E+05  9.221079E+04 -1.154224E+04 -5.728946E+02  7.496207E+04
       167   2 -3.982875E+04  3.752153E+05  2.847303E+04 -2.508807E+03 -9.023468E+02  4.870938E+04
       167   3 -2.251231E+04  3.897455E+05  1.260597E+04 -1.301365E+03 -8.466335E+02  2.245808E+04
       167   4  8.493940E+04  4.711752E+05  1.112349E+05 -4.699957E+03 -5.724414E+02  7.504650E+04
       167   5 -2.015325E+04  4.540711E+05  4.812094E+04 -9.964061E+02 -9.023647E+02  4.874471E+04
       167   6 -2.131101E+03  4.711925E+05  3.290759E+04 -5.118733E+03 -8.466941E+02  2.244420E+04
       167   7  1.039092E+05  5.474497E+05  1.302587E+05  2.143170E+03 -5.719864E+02  7.513094E+04
       167   8 -4.782159E+02  5.329325E+05  6.776837E+04  5.161933E+02 -9.023825E+02  4.878004E+04
       167   9  1.824966E+04  5.526456E+05  5.320871E+04 -8.936595E+03 -8.467546E+02  2.243032E+04
       167  10  6.596787E+04  3.949000E+05  9.220023E+04 -1.154220E+04  3.847836E-10  4.852472E-10
       167  11 -3.982938E+04  3.752127E+05  2.846857E+04 -2.508772E+03 -1.912858E-09  4.882522E-10
       167  12 -2.251245E+04  3.897450E+05  1.260502E+04 -1.301350E+03 -1.255566E-09 -2.046481E-10
       167  13  8.493789E+04  4.711691E+05  1.112244E+05 -4.699923E+03  1.084935E-09 -2.269975E-11
       167  14 -2.015389E+04  4.540685E+05  4.811647E+04 -9.963707E+02 -5.517215E-10 -4.161895E-12
       167  15 -2.131237E+03  4.711920E+05  3.290664E+04 -5.118718E+03 -4.812589E-10 -1.287094E-11
       167  16  1.039076E+05  5.474437E+05  1.302481E+05  2.143205E+03  1.431323E-09 -4.178903E-10
       167  17 -4.788549E+02  5.329300E+05  6.776390E+04  5.162288E+02  5.104826E-09 -5.772392E-10
       167  18  1.824953E+04  5.526450E+05  5.320777E+04 -8.936580E+03  1.395241E-09  2.011570E-10
       167  19  6.596938E+04  3.949060E+05  9.221079E+04 -1.154224E+04  5.728946E+02 -7.496207E+04
       167  20 -3.982875E+04  3.752153E+05  2.847303E+04 -2.508807E+03  9.023468E+02 -4.870938E+04
       167  21 -2.251231E+04  3.897455E+05  1.260597E+04 -1.301365E+03  8.466335E+02 -2.245808E+04
       167  22  8.493940E+04  4.711752E+05  1.112349E+05 -4.699957E+03  5.724414E+02 -7.504650E+04
       167  23 -2.015325E+04  4.540711E+05  4.812094E+04 -9.964061E+02  9.023647E+02 -4.874471E+04
       167  24 -2.131101E+03  4.711925E+05  3.290759E+04 -5.118733E+03  8.466941E+02 -2.244420E+04
       167  25  1.039092E+05  5.474497E+05  1.302587E+05  2.143170E+03  5.719864E+02 -7.513094E+04
       167  26 -4.782159E+02  5.329325E+05  6.776837E+04  5.161933E+02  9.023825E+02 -4.878004E+04
       167  27  1.824966E+04  5.526456E+05  5.320871E+04 -8.936595E+03  8.467546E+02 -2.243032E+04
       168   1 -1.788365E+04  3.418200E+05 -2.727008E+03 -6.361959E+03 -8.769333E+02  1.686925E+04
       168   2 -3.573145E+04  3.346880E+05 -1.565160E+04 -9.292785E+01 -1.060854E+03  8.503509E+03
       168   3 -2.877607E+04  3.350564E+05 -1.688884E+04 -4.356826E+03 -1.001977E+03  1.388690E+02
       168   4  1.293599E+04  4.652471E+05  2.805082E+04 -5.547781E+03 -8.770757E+02  1.691255E+04
       168   5 -4.058715E+03  4.614971E+05  1.595651E+04 -3.021570E+02 -1.060888E+03  8.516191E+03
       168   6  3.752396E+03  4.652515E+05  1.556920E+04 -5.589327E+03 -1.001899E+03  1.208919E+02
       168   7  4.375449E+04  5.886881E+05  5.882751E+04 -4.733425E+03 -8.772180E+02  1.695585E+04
       168   8  2.761281E+04  5.883209E+05  4.756341E+04 -5.114144E+02 -1.060923E+03  8.528875E+03
       168   9  3.627959E+04  5.954620E+05  4.802597E+04 -6.822072E+03 -1.001820E+03  1.029111E+02
       168  10 -1.788373E+04  3.418196E+05 -2.727544E+03 -6.361948E+03 -2.482399E-09 -5.777528E-10
       168  11 -3.573147E+04  3.346879E+05 -1.565174E+04 -9.292059E+01 -1.956717E-09 -2.889790E-10
       168  12 -2.877607E+04  3.350564E+05 -1.688884E+04 -4.356826E+03  4.496904E-10 -1.022044E-10
       168  13  1.293591E+04  4.652468E+05  2.805028E+04 -5.547769E+03 -2.482667E-09  1.392790E-11
       168  14 -4.058735E+03  4.614970E+05  1.595637E+04 -3.021497E+02 -1.091171E-09 -5.551318E-11
       168  15  3.752395E+03  4.652515E+05  1.556920E+04 -5.589327E+03 -2.354587E-10  4.305174E-12
       168  16  4.375441E+04  5.886878E+05  5.882697E+04 -4.733413E+03  4.757701E-10  6.681546E-10
       168  17  2.761279E+04  5.883208E+05  4.756327E+04 -5.114071E+02 -7.802512E-10  3.161227E-10
       168  18  3.627959E+04  5.954620E+05  4.802596E+04 -6.822072E+03  2.103474E-10  4.173580E-11
       168  19 -1.788365E+04  3.418200E+05 -2.727008E+03 -6.361959E+03  8.769333E+02 -1.686925E+04
       168  20 -3.573145E+04  3.346880E+05 -1.565160E+04 -9.292785E+01  1.060854E+03 -8.503509E+03
       168  21 -2.877607E+04  3.350564E+05 -1.688884E+04 -4.356826E+03  1.001977E+03 -1.388690E+02
       168  22  1.293599E+04  4.652471E+05  2.805082E+04 -5.547781E+03  8.770757E+02 -1.691255E+04
       168  23 -4.058715E+03  4.614971E+05  1.595651E+04 -3.021570E+02  1.060888E+03 -8.516191E+03
       168  24  3.752396E+03  4.652515E+05  1.556920E+04 -5.589327E+03  1.001899E+03 -1.208919E+02
       168  25  4.375449E+04  5.886881E+05  5.882751E+04 -4.733425E+03  8.772180E+02 -1.695585E+04
       168  26  2.761281E+04  5.883209E+05  4.756341E+04 -5.114144E+02  1.060923E+03 -8.528875E+03
       168  27  3.627959E+04  5.954620E+05  4.802597E+04 -6.822072E+03  1.001820E+03 -1.029111E+02
       169   1 -4.512035E+04  2.810435E+05 -3.049040E+04 -7.184784E+03 -1.327360E+03 -2.856937E+03
       169   2 -5.428915E+04  2.703451E+05 -2.975750E+04  1.661180E+03 -1.679212E+03 -1.221604E+04
       169   3 -2.150109E+04  2.719580E+05 -1.232286E+04 -3.631592E+03 -5.503600E+02 -2.157089E+04
       169   4  1.150579E+03  4.663206E+05  1.570365E+04 -6.402585E+03 -1.327799E+03 -2.722568E+03
       169   5 -6.877741E+03  4.601502E+05  1.754184E+04  6.980546E+02 -1.679034E+03 -1.226196E+04
       169   6  2.707536E+04  4.663191E+05  3.620330E+04 -6.339758E+03 -5.497102E+02 -2.179716E+04
       169   7  4.741892E+04  6.516287E+05  6.189511E+04 -5.620126E+03 -1.328239E+03 -2.588160E+03
       169   8  4.053096E+04  6.499880E+05  6.483847E+04 -2.653412E+02 -1.678856E+03 -1.230789E+04
       169   9  7.564899E+04  6.607143E+05  8.472661E+04 -9.048751E+03 -5.490586E+02 -2.202351E+04
       169  10 -4.512035E+04  2.810435E+05 -3.049042E+04 -7.184788E+03 -3.722401E-10 -1.743923E-10
       169  11 -5.428920E+04  2.703449E+05 -2.975778E+04  1.661163E+03  1.285503E-09  2.233362E-11
       169  12 -2.150121E+04  2.719575E+05 -1.232373E+04 -3.631601E+03 -2.814135E-10 -9.061554E-12
       169  13  1.150575E+03  4.663206E+05  1.570363E+04 -6.402588E+03  1.148254E-09 -3.479475E-11
       169  14 -6.877784E+03  4.601501E+05  1.754155E+04  6.980380E+02  3.471375E-10  8.517457E-11
       169  15  2.707523E+04  4.663186E+05  3.620240E+04 -6.339768E+03  1.193539E-10 -4.083452E-11
       169  16  4.741892E+04  6.516287E+05  6.189509E+04 -5.620129E+03 -4.888652E-10  2.222515E-10
       169  17  4.053092E+04  6.499878E+05  6.483818E+04 -2.653579E+02  1.761367E-09 -1.569326E-10
       169  18  7.564886E+04  6.607138E+05  8.472569E+04 -9.048760E+03  4.406613E-10 -8.907749E-11
       169  19 -4.512035E+04  2.810435E+05 -3.049040E+04 -7.184784E+03  1.327360E+03  2.856937E+03
       169  20 -5.428915E+04  2.703451E+05 -2.975750E+04  1.661180E+03  1.679212E+03  1.221604E+04
       169  21 -2.150109E+04  2.719580E+05 -1.232286E+04 -3.631592E+03  5.503600E+02  2.157089E+04
       169  22  1.150579E+03  4.663206E+05  1.570365E+04 -6.402585E+03  1.327799E+03  2.722568E+03
       169  23 -6.877741E+03  4.601502E+05  1.754184E+04  6.980546E+02  1.679034E+03  1.226196E+04
       169  24  2.707536E+04  4.663191E+05  3.620330E+04 -6.339758E+03  5.497102E+02  2.179716E+04
       169  25  4.741892E+04  6.516287E+05  6.189511E+04 -5.620126E+03  1.328239E+03  2.588160E+03
       169  26  4.053096E+04  6.499880E+05  6.483847E+04 -2.653412E+02  1.678856E+03  1.230789E+04
       169  27  7.564899E+04  6.607143E+05  8.472661E+04 -9.048751E+03  5.490586E+02  2.202351E+04
       170   1 -3.010818E+06 -9.339464E+05 -6.996810E+05 -9.366192E+05 -3.475373E+05 -1.300772E+05
       170   2 -2.887645E+06 -4.728577E+05 -3.788171E+05 -1.086635E+06 -2.251573E+05 -7.921687E+04
       170   3 -3.016318E+06 -5.300220E+05 -3.006375E+05 -1.050519E+06 -1.011224E+05 -3.273363E+04
       170   4 -2.483999E+06 -7.028358E+05 -5.477900E+05 -7.613152E+05 -3.470942E+05 -1.299300E+05
       170   5 -2.330475E+06 -2.535613E+05 -2.235061E+05 -9.265421E+05 -2.251052E+05 -7.920094E+04
       170   6 -2.428535E+06 -3.221645E+05 -1.414322E+05 -9.056954E+05 -1.014550E+05 -3.285614E+04
       170   7 -1.956911E+06 -4.716824E+05 -3.959266E+05 -5.858676E+05 -3.466506E+05 -1.297826E+05
       170   8 -1.773007E+06 -3.424091E+04 -6.822425E+04 -7.663168E+05 -2.250529E+05 -7.918496E+04
       170   9 -1.840420E+06 -1.142981E+05  1.774255E+04 -7.607523E+05 -1.017880E+05 -3.297875E+04
       170  10 -3.010953E+06 -9.339973E+05 -6.999411E+05 -9.366557E+05 -3.403649E-10  2.236637E-10
       170  11 -2.887702E+06 -4.728781E+05 -3.789247E+05 -1.086650E+06 -9.892040E-10  1.062321E-09
       170  12 -3.016330E+06 -5.300259E+05 -3.006588E+05 -1.050522E+06  1.315761E-09  8.515799E-10
       170  13 -2.484133E+06 -7.028865E+05 -5.480493E+05 -7.613516E+05  3.437118E-09  2.463438E-10
       170  14 -2.330531E+06 -2.535817E+05 -2.236135E+05 -9.265565E+05 -1.604221E-09  5.088505E-10
       170  15 -2.428546E+06 -3.221684E+05 -1.414537E+05 -9.056981E+05  3.809094E-10  8.521909E-10
       170  16 -1.957045E+06 -4.717329E+05 -3.961850E+05 -5.859039E+05 -1.995526E-09  2.318063E-11
       170  17 -1.773063E+06 -3.426131E+04 -6.833158E+04 -7.663312E+05 -1.739824E-09  8.538891E-10
       170  18 -1.840431E+06 -1.143021E+05  1.772096E+04 -7.607550E+05 -1.693868E-09  1.014310E-09
       170  19 -3.010818E+06 -9.339464E+05 -6.996810E+05 -9.366192E+05  3.475373E+05  1.300772E+05
       170  20 -2.887645E+06 -4.728577E+05 -3.788171E+05 -1.086635E+06  2.251573E+05  7.921687E+04
       170  21 -3.016318E+06 -5.300220E+05 -3.006375E+05 -1.050519E+06  1.011224E+05  3.273363E+04
       170  22 -2.483999E+06 -7.028358E+05 -5.477900E+05 -7.613152E+05  3.470942E+05  1.299300E+05
       170  23 -2.330475E+06 -2.535613E+05 -2.235061E+05 -9.265421E+05  2.251052E+05  7.920094E+04
       170  24 -2.428535E+06 -3.221645E+05 -1.414322E+05 -9.056954E+05  1.014550E+05  3.285614E+04
       170  25 -1.956911E+06 -4.716824E+05 -3.959266E+05 -5.858676E+05  3.466506E+05  1.297826E+05
       170  26 -1.773007E+06 -3.424091E+04 -6.822425E+04 -7.663168E+05  2.250529E+05  7.918496E+04
       170  27 -1.840420E+06 -1.142981E+05  1.774255E+04 -7.607523E+05  1.017880E+05  3.297875E+04
       171   1 -2.984694E+06 -6.275466E+05 -2.796629E+05 -1.049269E+06 -8.008697E+04 -2.507319E+04
       171   2 -2.972249E+06 -5.345283E+05 -2.125450E+05 -1.049568E+06 -5.211721E+04 -1.372962E+04
       171   3 -2.958823E+06 -5.535886E+05 -1.878457E+05 -1.058097E+06 -2.332440E+04 -4.594876E+03
       171   4 -2.396686E+06 -4.007742E+05 -1.166009E+05 -8.850810E+05 -7.993550E+04 -2.501743E+04
       171   5 -2.393038E+06 -3.152476E+05 -5.280816E+04 -8.920232E+05 -5.218699E+04 -1.375613E+04
       171   6 -2.388330E+06 -3.417012E+05 -3.122529E+04 -9.072005E+05 -2.361621E+04 -4.703315E+03
       171   7 -1.808347E+06 -1.739790E+05  4.642886E+04 -7.207517E+05 -7.978383E+04 -2.496159E+04
       171   8 -1.813505E+06 -9.594781E+04  1.068978E+05 -7.343454E+05 -5.225681E+04 -1.378266E+04
       171   9 -1.817525E+06 -1.297983E+05  1.253655E+05 -7.561799E+05 -2.390830E+04 -4.811858E+03
       171  10 -2.984701E+06 -6.275490E+05 -2.796762E+05 -1.049270E+06 -3.965699E-10  1.390849E-09
       171  11 -2.972252E+06 -5.345292E+05 -2.125505E+05 -1.049569E+06  2.976737E-10  9.706801E-10
       171  12 -2.958824E+06 -5.535888E+05 -1.878468E+05 -1.058097E+06  1.355154E-09  6.512979E-10
       171  13 -2.396693E+06 -4.007766E+05 -1.166141E+05 -8.850826E+05  2.232400E-10  4.583120E-10
       171  14 -2.393041E+06 -3.152485E+05 -5.281366E+04 -8.920238E+05  1.564650E-10  5.598040E-11
       171  15 -2.388331E+06 -3.417014E+05 -3.122639E+04 -9.072005E+05  5.231127E-10  3.567100E-10
       171  16 -1.808354E+06 -1.739813E+05  4.641569E+04 -7.207533E+05 -1.698001E-09  3.702005E-10
       171  17 -1.813508E+06 -9.594875E+04  1.068923E+05 -7.343460E+05  2.160591E-09  2.809736E-10
       171  18 -1.817525E+06 -1.297985E+05  1.253644E+05 -7.561800E+05 -1.110045E-09 -1.106085E-10
       171  19 -2.984694E+06 -6.275466E+05 -2.796629E+05 -1.049269E+06  8.008697E+04  2.507319E+04
       171  20 -2.972249E+06 -5.345283E+05 -2.125450E+05 -1.049568E+06  5.211721E+04  1.372962E+04
       171  21 -2.958823E+06 -5.535886E+05 -1.878457E+05 -1.058097E+06  2.332440E+04  4.594876E+03
       171  22 -2.396686E+06 -4.007742E+05 -1.166009E+05 -8.850810E+05  7.993550E+04  2.501743E+04
       171  23 -2.393038E+06 -3.152476E+05 -5.280816E+04 -8.920232E+05  5.218699E+04  1.375613E+04
       171  24 -2.388330E+06 -3.417012E+05 -3.122529E+04 -9.072005E+05  2.361621E+04  4.703315E+03
       171  25 -1.808347E+06 -1.739790E+05  4.642886E+04 -7.207517E+05  7.978383E+04  2.496159E+04
       171  26 -1.813505E+06 -9.594781E+04  1.068978E+05 -7.343454E+05  5.225681E+04  1.378266E+04
       171  27 -1.817525E+06 -1.297983E+05  1.253655E+05 -7.561799E+05  2.390830E+04  4.811858E+03
       172   1 -2.596465E+06 -4.441429E+05 -8.564252E+04 -9.719358E+05 -1.851494E+04 -3.909706E+03
       172   2 -2.599394E+06 -3.868213E+05 -6.451189E+04 -9.269226E+05 -1.170722E+04 -2.470998E+03
       172   3 -2.538355E+06 -4.123854E+05 -5.177439E+04 -9.588605E+05 -4.664948E+03 -1.671019E+03
       172   4 -2.377945E+06 -3.615591E+05 -2.547504E+04 -9.126134E+05 -1.859018E+04 -3.937660E+03
       172   5 -2.409307E+06 -3.154897E+05 -1.222636E+04 -8.758579E+05 -1.185170E+04 -2.524453E+03
       172   6 -2.376687E+06 -3.522876E+05 -7.313246E+03 -9.160524E+05 -4.879038E+03 -1.750014E+03
       172   7 -2.159378E+06 -2.789726E+05  3.468806E+04 -8.532722E+05 -1.866544E+04 -3.965625E+03
       172   8 -2.219185E+06 -2.441562E+05  4.005585E+04 -8.247792E+05 -1.199623E+04 -2.577926E+03
       172   9 -2.214994E+06 -2.921886E+05  3.714548E+04 -8.732342E+05 -5.093190E+03 -1.829031E+03
       172  10 -2.596466E+06 -4.441430E+05 -8.564319E+04 -9.719358E+05  9.668903E-10 -1.388330E-10
       172  11 -2.599394E+06 -3.868214E+05 -6.451216E+04 -9.269226E+05 -1.724671E-09 -2.019198E-09
       172  12 -2.538355E+06 -4.123854E+05 -5.177444E+04 -9.588605E+05 -6.016810E-10  2.079695E-09
       172  13 -2.377945E+06 -3.615592E+05 -2.547572E+04 -9.126135E+05 -1.009261E-09  3.396456E-10
       172  14 -2.409307E+06 -3.154897E+05 -1.222664E+04 -8.758580E+05 -4.519269E-10  2.390717E-10
       172  15 -2.376687E+06 -3.522876E+05 -7.313297E+03 -9.160524E+05  4.575278E-10  1.030899E-09
       172  16 -2.159379E+06 -2.789727E+05  3.468737E+04 -8.532722E+05 -7.613206E-10  1.174298E-10
       172  17 -2.219185E+06 -2.441562E+05  4.005556E+04 -8.247793E+05  2.525306E-09 -1.325691E-09
       172  18 -2.214994E+06 -2.921886E+05  3.714542E+04 -8.732342E+05  7.404300E-10 -3.332574E-13
       172  19 -2.596465E+06 -4.441429E+05 -8.564252E+04 -9.719358E+05  1.851494E+04  3.909706E+03
       172  20 -2.599394E+06 -3.868213E+05 -6.451189E+04 -9.269226E+05  1.170722E+04  2.470998E+03
       172  21 -2.538355E+06 -4.123854E+05 -5.177439E+04 -9.588605E+05  4.664948E+03  1.671019E+03
       172  22 -2.377945E+06 -3.615591E+05 -2.547504E+04 -9.126134E+05  1.859018E+04  3.937660E+03
       172  23 -2.409307E+06 -3.154897E+05 -1.222636E+04 -8.758579E+05  1.185170E+04  2.524453E+03
       172  24 -2.376687E+06 -3.522876E+05 -7.313246E+03 -9.160524E+05  4.879038E+03  1.750014E+03
       172  25 -2.159378E+06 -2.789726E+05  3.468806E+04 -8.532722E+05  1.866544E+04  3.965625E+03
       172  26 -2.219185E+06 -2.441562E+05  4.005585E+04 -8.247792E+05  1.199623E+04  2.577926E+03
       172  27 -2.214994E+06 -2.921886E+05  3.714548E+04 -8.732342E+05  5.093190E+03  1.829031E+03
       173   1 -2.068935E+06 -2.365750E+05  7.913555E+04 -8.307608E+05 -3.120216E+03 -2.518860E+03
       173   2 -2.074941E+06 -1.944151E+05  8.834701E+04 -7.886063E+05 -8.921212E+02 -3.570512E+03
       173   3 -2.017915E+06 -2.160616E+05  9.625115E+04 -8.165777E+05  9.694479E+02 -3.623950E+03
       173   4 -2.377449E+06 -3.518644E+05 -5.720724E+03 -9.131399E+05 -3.359389E+03 -2.607197E+03
       173   5 -2.408879E+06 -3.195805E+05 -3.452290E+03 -8.781996E+05 -1.020278E+03 -3.618093E+03
       173   6 -2.377299E+06 -3.511292E+05 -2.580029E+03 -9.133885E+05  9.521389E+02 -3.630539E+03
       173   7 -2.685873E+06 -4.671492E+05 -9.058577E+04 -9.954823E+05 -3.598431E+03 -2.695486E+03
       173   8 -2.742710E+06 -4.447401E+05 -9.526183E+04 -9.677497E+05 -1.148359E+03 -3.665645E+03
       173   9 -2.736559E+06 -4.861900E+05 -1.014230E+05 -1.010149E+06  9.348410E+02 -3.637124E+03
       173  10 -2.068935E+06 -2.365750E+05  7.913552E+04 -8.307608E+05 -6.667548E-10  6.722021E-10
       173  11 -2.074941E+06 -1.944152E+05  8.834699E+04 -7.886063E+05 -1.747508E-09  9.801651E-10
       173  12 -2.017915E+06 -2.160616E+05  9.625112E+04 -8.165777E+05 -6.396011E-10  1.030923E-09
       173  13 -2.377449E+06 -3.518645E+05 -5.720758E+03 -9.131399E+05 -1.502883E-09 -8.986158E-10
       173  14 -2.408879E+06 -3.195805E+05 -3.452316E+03 -8.781996E+05  5.993973E-10  4.711749E-10
       173  15 -2.377299E+06 -3.511292E+05 -2.580056E+03 -9.133885E+05  2.369916E-10  1.499364E-10
       173  16 -2.685873E+06 -4.671492E+05 -9.058581E+04 -9.954823E+05  1.846962E-09 -3.487630E-10
       173  17 -2.742710E+06 -4.447402E+05 -9.526186E+04 -9.677498E+05 -4.384637E-09 -2.511672E-09
       173  18 -2.736559E+06 -4.861900E+05 -1.014231E+05 -1.010149E+06 -1.298110E-09 -7.704564E-10
       173  19 -2.068935E+06 -2.365750E+05  7.913555E+04 -8.307608E+05  3.120216E+03  2.518860E+03
       173  20 -2.074941E+06 -1.944151E+05  8.834701E+04 -7.886063E+05  8.921212E+02  3.570512E+03
       173  21 -2.017915E+06 -2.160616E+05  9.625115E+04 -8.165777E+05 -9.694479E+02  3.623950E+03
       173  22 -2.377449E+06 -3.518644E+05 -5.720724E+03 -9.131399E+05  3.359389E+03  2.607197E+03
       173  23 -2.408879E+06 -3.195805E+05 -3.452290E+03 -8.781996E+05  1.020278E+03  3.618093E+03
       173  24 -2.377299E+06 -3.511292E+05 -2.580029E+03 -9.133885E+05 -9.521389E+02  3.630539E+03
       173  25 -2.685873E+06 -4.671492E+05 -9.058577E+04 -9.954823E+05  3.598431E+03  2.695486E+03
       173  26 -2.742710E+06 -4.447401E+05 -9.526183E+04 -9.677497E+05  1.148359E+03  3.665645E+03
       173  27 -2.736559E+06 -4.861900E+05 -1.014230E+05 -1.010149E+06 -9.348410E+02  3.637124E+03
       174   1 -1.767997E+06 -1.063480E+05  1.683404E+05 -7.330658E+05  1.735807E+03 -4.117349E+03
       174   2 -1.774073E+06 -9.915638E+04  1.679294E+05 -7.263651E+05  3.588200E+03 -4.719212E+03
       174   3 -1.760567E+06 -1.025822E+05  1.683024E+05 -7.285328E+05  4.743209E+03 -3.456259E+03
       174   4 -2.387009E+06 -3.390762E+05 -2.029477E+03 -8.999016E+05  1.504253E+03 -4.203912E+03
       174   5 -2.396846E+06 -3.342882E+05 -3.585414E+03 -8.952593E+05  3.564273E+03 -4.728597E+03
       174   6 -2.387148E+06 -3.401653E+05 -4.523790E+03 -8.994862E+05  4.926562E+03 -3.387570E+03
       174   7 -3.005654E+06 -5.717839E+05 -1.724344E+05 -1.066588E+06  1.272954E+03 -4.290380E+03
       174   8 -3.019247E+06 -5.693986E+05 -1.751359E+05 -1.064001E+06  3.540372E+03 -4.737972E+03
       174   9 -3.013354E+06 -5.777260E+05 -1.773862E+05 -1.070284E+06  5.109710E+03 -3.318959E+03
       174  10 -1.767997E+06 -1.063480E+05  1.683404E+05 -7.330658E+05  1.044436E-09  1.058871E-09
       174  11 -1.774073E+06 -9.915641E+04  1.679294E+05 -7.263651E+05  9.302294E-10 -4.281648E-10
       174  12 -1.760567E+06 -1.025823E+05  1.683023E+05 -7.285328E+05  1.118923E-09  1.573025E-10
       174  13 -2.387009E+06 -3.390763E+05 -2.029515E+03 -8.999016E+05  1.369212E-09 -1.946795E-10
       174  14 -2.396846E+06 -3.342883E+05 -3.585480E+03 -8.952593E+05  9.015249E-12 -4.922482E-10
       174  15 -2.387148E+06 -3.401653E+05 -4.523858E+03 -8.994861E+05 -1.231927E-09  1.349419E-09
       174  16 -3.005654E+06 -5.717839E+05 -1.724345E+05 -1.066588E+06 -3.513589E-09 -8.929536E-10
       174  17 -3.019247E+06 -5.693987E+05 -1.751359E+05 -1.064001E+06 -2.853282E-10 -4.231871E-10
       174  18 -3.013354E+06 -5.777260E+05 -1.773863E+05 -1.070284E+06 -1.613364E-09  3.858684E-10
       174  19 -1.767997E+06 -1.063480E+05  1.683404E+05 -7.330658E+05 -1.735807E+03  4.117349E+03
       174  20 -1.774073E+06 -9.915638E+04  1.679294E+05 -7.263651E+05 -3.588200E+03  4.719212E+03
       174  21 -1.760567E+06 -1.025822E+05  1.683024E+05 -7.285328E+05 -4.743209E+03  3.456259E+03
       174  22 -2.387009E+06 -3.390762E+05 -2.029477E+03 -8.999016E+05 -1.504253E+03  4.203912E+03
       174  23 -2.396846E+06 -3.342882E+05 -3.585414E+03 -8.952593E+05 -3.564273E+03  4.728597E+03
       174  24 -2.387148E+06 -3.401653E+05 -4.523790E+03 -8.994862E+05 -4.926562E+03  3.387570E+03
       174  25 -3.005654E+06 -5.717839E+05 -1.724344E+05 -1.066588E+06 -1.272954E+03  4.290380E+03
       174  26 -3.019247E+06 -5.693986E+05 -1.751359E+05 -1.064001E+06 -3.540372E+03  4.737972E+03
       174  27 -3.013354E+06 -5.777260E+05 -1.773862E+05 -1.070284E+06 -5.109710E+03  3.318959E+03
       175   1 -1.906474E+06 -1.385926E+05  1.305044E+05 -7.504614E+05  5.617733E+03 -2.710617E+03
       175   2 -1.903569E+06 -1.680602E+05  1.204151E+05 -7.834427E+05  1.083215E+04 -5.166181E+02
       175   3 -1.948519E+06 -1.591652E+05  1.046512E+05 -7.570787E+05  1.552937E+04  3.031444E+03
       175   4 -2.401645E+06 -3.262464E+05 -6.016799E+03 -8.854549E+05  5.561496E+03 -2.732129E+03
       175   5 -2.378238E+06 -3.488975E+05 -1.064711E+04 -9.138155E+05  1.092381E+04 -4.820933E+02
       175   6 -2.402725E+06 -3.332206E+05 -2.107379E+04 -8.828277E+05  1.576893E+04  3.122557E+03
       175   7 -2.896581E+06 -5.138862E+05 -1.425605E+05 -1.020351E+06  5.505308E+03 -2.753622E+03
       175   8 -2.852691E+06 -5.297214E+05 -1.417300E+05 -1.044098E+06  1.101538E+04 -4.475991E+02
       175   9 -2.856732E+06 -5.072632E+05 -1.468178E+05 -1.008493E+06  1.600828E+04  3.213595E+03
       175  10 -1.906474E+06 -1.385927E+05  1.305043E+05 -7.504613E+05  7.329715E-10 -6.516509E-10
       175  11 -1.903569E+06 -1.680602E+05  1.204148E+05 -7.834427E+05 -4.922092E-11 -4.250457E-11
       175  12 -1.948519E+06 -1.591653E+05  1.046507E+05 -7.570788E+05 -2.200160E-09 -7.509822E-10
       175  13 -2.401645E+06 -3.262464E+05 -6.016871E+03 -8.854549E+05 -1.918040E-09  1.231836E-09
       175  14 -2.378238E+06 -3.488975E+05 -1.064733E+04 -9.138155E+05  1.196074E-09  3.047590E-09
       175  15 -2.402725E+06 -3.332207E+05 -2.107427E+04 -8.828278E+05 -4.065741E-09  1.082867E-09
       175  16 -2.896581E+06 -5.138862E+05 -1.425606E+05 -1.020351E+06 -2.182826E-09 -9.039540E-10
       175  17 -2.852691E+06 -5.297214E+05 -1.417303E+05 -1.044098E+06 -2.095664E-10 -3.014881E-11
       175  18 -2.856732E+06 -5.072633E+05 -1.468183E+05 -1.008493E+06  5.075979E-10 -8.600651E-10
       175  19 -1.906474E+06 -1.385926E+05  1.305044E+05 -7.504614E+05 -5.617733E+03  2.710617E+03
       175  20 -1.903569E+06 -1.680602E+05  1.204151E+05 -7.834427E+05 -1.083215E+04  5.166181E+02
       175  21 -1.948519E+06 -1.591652E+05  1.046512E+05 -7.570787E+05 -1.552937E+04 -3.031444E+03
       175  22 -2.401645E+06 -3.262464E+05 -6.016799E+03 -8.854549E+05 -5.561496E+03  2.732129E+03
       175  23 -2.378238E+06 -3.488975E+05 -1.064711E+04 -9.138155E+05 -1.092381E+04  4.820933E+02
       175  24 -2.402725E+06 -3.332206E+05 -2.107379E+04 -8.828277E+05 -1.576893E+04 -3.122557E+03
       175  25 -2.896581E+06 -5.138862E+05 -1.425605E+05 -1.020351E+06 -5.505308E+03  2.753622E+03
       175  26 -2.852691E+06 -5.297214E+05 -1.417300E+05 -1.044098E+06 -1.101538E+04  4.475991E+02
       175  27 -2.856732E+06 -5.072632E+05 -1.468178E+05 -1.008493E+06 -1.600828E+04 -3.213595E+03
       176   1 -2.385033E+06 -3.115694E+05 -1.974863E+04 -8.760503E+05  1.904981E+04  5.776842E+03
       176   2 -2.368478E+06 -3.464066E+05 -4.513210E+04 -9.235720E+05  4.200110E+04  1.616828E+04
       176   3 -2.456692E+06 -3.794956E+05 -1.079549E+05 -8.692842E+05  6.516902E+04  2.598875E+04
       176   4 -2.412161E+06 -3.199275E+05 -2.675866E+04 -8.815242E+05  1.924155E+04  5.850069E+03
       176   5 -2.363396E+06 -3.453657E+05 -4.391475E+04 -9.230788E+05  4.212922E+04  1.621708E+04
       176   6 -2.419386E+06 -3.690418E+05 -9.845795E+04 -8.628238E+05  6.523486E+04  2.601336E+04
       176   7 -2.439288E+06 -3.282856E+05 -3.376875E+04 -8.869979E+05  1.943329E+04  5.923294E+03
       176   8 -2.358314E+06 -3.443248E+05 -4.269740E+04 -9.225857E+05  4.225734E+04  1.626588E+04
       176   9 -2.382079E+06 -3.585881E+05 -8.896111E+04 -8.563631E+05  6.530069E+04  2.603797E+04
       176  10 -2.385033E+06 -3.115695E+05 -1.974938E+04 -8.760504E+05 -2.588373E-09  1.085772E-09
       176  11 -2.368480E+06 -3.464074E+05 -4.513593E+04 -9.235726E+05 -3.833513E-09 -1.894419E-09
       176  12 -2.456697E+06 -3.794975E+05 -1.079642E+05 -8.692856E+05  1.149474E-09  1.853989E-09
       176  13 -2.412161E+06 -3.199276E+05 -2.675942E+04 -8.815243E+05 -3.098974E-09 -3.299825E-10
       176  14 -2.363398E+06 -3.453664E+05 -4.391860E+04 -9.230794E+05  2.248287E-09  6.367920E-10
       176  15 -2.419391E+06 -3.690437E+05 -9.846726E+04 -8.628252E+05 -8.982639E-10 -1.337176E-09
       176  16 -2.439288E+06 -3.282858E+05 -3.376953E+04 -8.869980E+05  3.583618E-09 -1.143453E-09
       176  17 -2.358316E+06 -3.443255E+05 -4.270127E+04 -9.225862E+05  3.283770E-09 -5.060768E-09
       176  18 -2.382084E+06 -3.585899E+05 -8.897044E+04 -8.563645E+05 -4.412117E-10 -8.752696E-10
       176  19 -2.385033E+06 -3.115694E+05 -1.974863E+04 -8.760503E+05 -1.904981E+04 -5.776842E+03
       176  20 -2.368478E+06 -3.464066E+05 -4.513210E+04 -9.235720E+05 -4.200110E+04 -1.616828E+04
       176  21 -2.456692E+06 -3.794956E+05 -1.079549E+05 -8.692842E+05 -6.516902E+04 -2.598875E+04
       176  22 -2.412161E+06 -3.199275E+05 -2.675866E+04 -8.815242E+05 -1.924155E+04 -5.850069E+03
       176  23 -2.363396E+06 -3.453657E+05 -4.391475E+04 -9.230788E+05 -4.212922E+04 -1.621708E+04
       176  24 -2.419386E+06 -3.690418E+05 -9.845795E+04 -8.628238E+05 -6.523486E+04 -2.601336E+04
       176  25 -2.439288E+06 -3.282856E+05 -3.376875E+04 -8.869979E+05 -1.943329E+04 -5.923294E+03
       176  26 -2.358314E+06 -3.443248E+05 -4.269740E+04 -9.225857E+05 -4.225734E+04 -1.626588E+04
       176  27 -2.382079E+06 -3.585881E+05 -8.896111E+04 -8.563631E+05 -6.530069E+04 -2.603797E+04
       177   1 -2.878955E+06 -5.053498E+05 -2.464943E+05 -1.037237E+06  8.215917E+04  3.432245E+04
       177   2 -2.819887E+06 -4.504974E+05 -3.206017E+05 -1.054452E+06  1.857302E+05  7.579391E+04
       177   3 -2.991827E+06 -8.130727E+05 -5.990696E+05 -8.948316E+05  2.912767E+05  1.120544E+05
       177   4 -2.426928E+06 -3.200733E+05 -1.188948E+05 -8.999964E+05  8.269560E+04  3.452878E+04
       177   5 -2.334644E+06 -2.720845E+05 -1.878823E+05 -9.278096E+05  1.857628E+05  7.580356E+04
       177   6 -2.473129E+06 -6.412029E+05 -4.607003E+05 -7.788268E+05  2.908111E+05  1.118635E+05
       177   7 -1.974703E+06 -1.347761E+05  8.684978E+03 -7.626620E+05  8.323244E+04  3.473529E+04
       177   8 -1.849175E+06 -9.366186E+04 -5.518414E+04 -8.010801E+05  1.857953E+05  7.581320E+04
       177   9 -1.954173E+06 -4.693322E+05 -3.223537E+05 -6.627415E+05  2.903450E+05  1.116725E+05
       177  10 -2.878963E+06 -5.053529E+05 -2.465093E+05 -1.037240E+06  1.101331E-09  1.530969E-09
       177  11 -2.819925E+06 -4.505129E+05 -3.206777E+05 -1.054463E+06 -1.942159E-09 -6.251452E-10
       177  12 -2.991922E+06 -8.131092E+05 -5.992536E+05 -8.948580E+05  3.192623E-10 -2.453534E-10
       177  13 -2.426935E+06 -3.200765E+05 -1.189100E+05 -8.999987E+05 -1.295283E-11  2.451901E-09
       177  14 -2.334683E+06 -2.721000E+05 -1.879582E+05 -9.278210E+05 -2.232015E-09 -6.185515E-12
       177  15 -2.473224E+06 -6.412392E+05 -4.608836E+05 -7.788531E+05 -8.287931E-11  8.659823E-10
       177  16 -1.974711E+06 -1.347792E+05  8.669637E+03 -7.626644E+05 -1.519942E-09 -1.085960E-10
       177  17 -1.849214E+06 -9.367736E+04 -5.526008E+04 -8.010915E+05 -1.280772E-09  2.483667E-09
       177  18 -1.954267E+06 -4.693684E+05 -3.225362E+05 -6.627677E+05  5.749087E-10 -1.095848E-10
       177  19 -2.878955E+06 -5.053498E+05 -2.464943E+05 -1.037237E+06 -8.215917E+04 -3.432245E+04
       177  20 -2.819887E+06 -4.504974E+05 -3.206017E+05 -1.054452E+06 -1.857302E+05 -7.579391E+04
       177  21 -2.991827E+06 -8.130727E+05 -5.990696E+05 -8.948316E+05 -2.912767E+05 -1.120544E+05
       177  22 -2.426928E+06 -3.200733E+05 -1.188948E+05 -8.999964E+05 -8.269560E+04 -3.452878E+04
       177  23 -2.334644E+06 -2.720845E+05 -1.878823E+05 -9.278096E+05 -1.857628E+05 -7.580356E+04
       177  24 -2.473129E+06 -6.412029E+05 -4.607003E+05 -7.788268E+05 -2.908111E+05 -1.118635E+05
       177  25 -1.974703E+06 -1.347761E+05  8.684978E+03 -7.626620E+05 -8.323244E+04 -3.473529E+04
       177  26 -1.849175E+06 -9.366186E+04 -5.518414E+04 -8.010801E+05 -1.857953E+05 -7.581320E+04
       177  27 -1.954173E+06 -4.693322E+05 -3.223537E+05 -6.627415E+05 -2.903450E+05 -1.116725E+05
       178   1 -8.895264E+05  5.664488E+04  1.034880E+05  7.195830E+03  1.355682E+05  1.635548E+03
       178   2 -9.188928E+05 -1.316323E+05 -1.043572E+04  2.529189E+03  8.941024E+04  3.637917E+03
       178   3 -8.842970E+05 -9.995527E+04 -3.869016E+04 -1.070908E+04  4.326025E+04  2.942494E+03
       178   4 -5.045995E+05  1.528255E+05  1.996759E+05 -4.552250E+03  1.360467E+05  1.634329E+03
       178   5 -5.366207E+05 -3.605473E+04  8.493711E+04 -7.611889E+00  8.953994E+04  3.637631E+03
       178   6 -5.046544E+05 -4.991424E+03  5.607279E+04 -4.034702E+03  4.304134E+04  2.942507E+03
       178   7 -1.195378E+05  2.489955E+05  2.958526E+05 -1.630773E+04  1.365256E+05  1.633092E+03
       178   8 -1.542159E+05  5.951188E+04  1.802989E+05 -2.546056E+03  8.966972E+04  3.637343E+03
       178   9 -1.248808E+05  8.996171E+04  1.508249E+05  2.643721E+03  4.282230E+04  2.942515E+03
       178  10 -8.895462E+05  5.663993E+04  1.034534E+05  7.195651E+03  6.446985E-10 -1.497437E-10
       178  11 -9.189014E+05 -1.316345E+05 -1.045079E+04  2.528927E+03 -2.064428E-09 -1.743567E-09
       178  12 -8.842991E+05 -9.995579E+04 -3.869369E+04 -1.070919E+04 -2.644383E-09 -2.457429E-10
       178  13 -5.046194E+05  1.528205E+05  1.996410E+05 -4.552429E+03  2.050996E-09 -1.226615E-09
       178  14 -5.366294E+05 -3.605690E+04  8.492201E+04 -7.874233E+00  9.541405E-10 -7.943549E-10
       178  15 -5.046564E+05 -4.991931E+03  5.606929E+04 -4.034804E+03  8.573563E-10 -4.354432E-10
       178  16 -1.195578E+05  2.489905E+05  2.958176E+05 -1.630791E+04  1.425298E-09  9.366831E-10
       178  17 -1.542246E+05  5.950971E+04  1.802838E+05 -2.546319E+03  2.397570E-09 -1.280423E-09
       178  18 -1.248828E+05  8.996121E+04  1.508214E+05  2.643619E+03  2.956430E-10 -8.056979E-10
       178  19 -8.895264E+05  5.664488E+04  1.034880E+05  7.195830E+03 -1.355682E+05 -1.635548E+03
       178  20 -9.188928E+05 -1.316323E+05 -1.043572E+04  2.529189E+03 -8.941024E+04 -3.637917E+03
       178  21 -8.842970E+05 -9.995527E+04 -3.869016E+04 -1.070908E+04 -4.326025E+04 -2.942494E+03
       178  22 -5.045995E+05  1.528255E+05  1.996759E+05 -4.552250E+03 -1.360467E+05 -1.634329E+03
       178  23 -5.366207E+05 -3.605473E+04  8.493711E+04 -7.611889E+00 -8.953994E+04 -3.637631E+03
       178  24 -5.046544E+05 -4.991424E+03  5.607279E+04 -4.034702E+03 -4.304134E+04 -2.942507E+03
       178  25 -1.195378E+05  2.489955E+05  2.958526E+05 -1.630773E+04 -1.365256E+05 -1.633092E+03
       178  26 -1.542159E+05  5.951188E+04  1.802989E+05 -2.546056E+03 -8.966972E+04 -3.637343E+03
       178  27 -1.248808E+05  8.996171E+04  1.508249E+05  2.643721E+03 -4.282230E+04 -2.942515E+03
       179   1 -8.399353E+05 -5.759272E+04 -3.442438E+04 -4.428656E+03  3.365630E+04  2.402892E+03
       179   2 -8.405382E+05 -8.516783E+04 -5.752520E+04  2.803988E+03  2.217908E+04  2.580470E+03
       179   3 -8.291948E+05 -7.896025E+04 -6.429759E+04 -6.834066E+03  1.070154E+04  2.177268E+03
       179   4 -5.161927E+05  2.336331E+04  4.638581E+04 -6.051884E+03  3.372568E+04  2.402777E+03
       179   5 -5.221782E+05 -5.556651E+03  2.192407E+04  2.393470E+03  2.217354E+04  2.580371E+03
       179   6 -5.162089E+05 -6.898337E+02  1.383705E+04 -6.031312E+03  1.062117E+04  2.177272E+03
       179   7 -1.923549E+05  1.043114E+05  1.271881E+05 -7.675981E+03  3.379510E+04  2.402663E+03
       179   8 -2.037262E+05  7.404688E+04  1.013657E+05  1.982739E+03  2.216800E+04  2.580272E+03
       179   9 -2.031341E+05  7.757319E+04  9.196430E+04 -5.228137E+03  1.054076E+04  2.177275E+03
       179  10 -8.399365E+05 -5.759303E+04 -3.442652E+04 -4.428721E+03 -5.309117E-10  1.549407E-11
       179  11 -8.405388E+05 -8.516797E+04 -5.752614E+04  2.803942E+03 -1.780310E-09  6.669717E-10
       179  12 -8.291949E+05 -7.896028E+04 -6.429781E+04 -6.834085E+03  7.720390E-10 -1.765038E-10
       179  13 -5.161939E+05  2.336300E+04  4.638366E+04 -6.051949E+03  3.439982E-10 -3.602703E-10
       179  14 -5.221788E+05 -5.556790E+03  2.192313E+04  2.393424E+03 -2.231130E-10  7.773129E-10
       179  15 -5.162090E+05 -6.898691E+02  1.383683E+04 -6.031331E+03 -2.942424E-09  9.573233E-10
       179  16 -1.923562E+05  1.043111E+05  1.271859E+05 -7.676047E+03  2.199571E-09 -1.248936E-10
       179  17 -2.037267E+05  7.404674E+04  1.013648E+05  1.982693E+03 -3.722755E-10 -2.707982E-10
       179  18 -2.031342E+05  7.757316E+04  9.196408E+04 -5.228156E+03 -5.949360E-10 -2.569937E-10
       179  19 -8.399353E+05 -5.759272E+04 -3.442438E+04 -4.428656E+03 -3.365630E+04 -2.402892E+03
       179  20 -8.405382E+05 -8.516783E+04 -5.752520E+04  2.803988E+03 -2.217908E+04 -2.580470E+03
       179  21 -8.291948E+05 -7.896025E+04 -6.429759E+04 -6.834066E+03 -1.070154E+04 -2.177268E+03
       179  22 -5.161927E+05  2.336331E+04  4.638581E+04 -6.051884E+03 -3.372568E+04 -2.402777E+03
       179  23 -5.221782E+05 -5.556651E+03  2.192407E+04  2.393470E+03 -2.217354E+04 -2.580371E+03
       179  24 -5.162089E+05 -6.898337E+02  1.383705E+04 -6.031312E+03 -1.062117E+04 -2.177272E+03
       179  25 -1.923549E+05  1.043114E+05  1.271881E+05 -7.675981E+03 -3.379510E+04 -2.402663E+03
       179  26 -2.037262E+05  7.404688E+04  1.013657E+05  1.982739E+03 -2.216800E+04 -2.580272E+03
       179  27 -2.031341E+05  7.757319E+04  9.196430E+04 -5.228137E+03 -1.054076E+04 -2.177275E+03
       180   1 -7.394292E+05 -5.177617E+04 -4.413349E+04 -7.102126E+03  8.364381E+03  1.917388E+03
       180   2 -7.331265E+05 -5.427187E+04 -4.770713E+04  4.583211E+03  5.505174E+03  1.687055E+03
       180   3 -7.243462E+05 -5.156076E+04 -4.795477E+04 -7.347014E+03  2.645226E+03  1.269127E+03
       180   4 -5.182956E+05  3.517124E+03  1.103849E+04 -7.532350E+03  8.349655E+03  1.917357E+03
       180   5 -5.195407E+05 -8.635156E+02  5.594507E+03  4.273216E+03  5.467049E+03  1.687080E+03
       180   6 -5.183045E+05 -3.413375E+01  3.492006E+03 -7.536272E+03  2.583738E+03  1.269234E+03
       180   7 -2.971176E+05  5.880674E+04  6.620679E+04 -7.962716E+03  8.334922E+03  1.917327E+03
       180   8 -3.059134E+05  5.254140E+04  5.889271E+04  3.963130E+03  5.428911E+03  1.687104E+03
       180   9 -3.122244E+05  5.148929E+04  5.493559E+04 -7.725571E+03  2.522230E+03  1.269342E+03
       180  10 -7.394292E+05 -5.177620E+04 -4.413363E+04 -7.102139E+03  2.433402E-09 -4.444401E-11
       180  11 -7.331265E+05 -5.427188E+04 -4.770719E+04  4.583203E+03  1.431500E-10 -1.544349E-10
       180  12 -7.243462E+05 -5.156077E+04 -4.795479E+04 -7.347017E+03  5.957416E-10 -1.485441E-09
       180  13 -5.182957E+05  3.517102E+03  1.103835E+04 -7.532363E+03 -2.820342E-10  5.678446E-10
       180  14 -5.195407E+05 -8.635267E+02  5.594445E+03  4.273208E+03  5.811824E-10  1.348837E-09
       180  15 -5.183045E+05 -3.413727E+01  3.491991E+03 -7.536274E+03 -3.092076E-09  1.373933E-09
       180  16 -2.971177E+05  5.880671E+04  6.620666E+04 -7.962728E+03 -4.324707E-10 -5.049042E-10
       180  17 -3.059135E+05  5.254139E+04  5.889265E+04  3.963123E+03 -2.090838E-09 -1.485847E-09
       180  18 -3.122244E+05  5.148929E+04  5.493557E+04 -7.725574E+03  9.727929E-10 -4.030170E-10
       180  19 -7.394292E+05 -5.177617E+04 -4.413349E+04 -7.102126E+03 -8.364381E+03 -1.917388E+03
       180  20 -7.331265E+05 -5.427187E+04 -4.770713E+04  4.583211E+03 -5.505174E+03 -1.687055E+03
       180  21 -7.243462E+05 -5.156076E+04 -4.795477E+04 -7.347014E+03 -2.645226E+03 -1.269127E+03
       180  22 -5.182956E+05  3.517124E+03  1.103849E+04 -7.532350E+03 -8.349655E+03 -1.917357E+03
       180  23 -5.195407E+05 -8.635156E+02  5.594507E+03  4.273216E+03 -5.467049E+03 -1.687080E+03
       180  24 -5.183045E+05 -3.413375E+01  3.492006E+03 -7.536272E+03 -2.583738E+03 -1.269234E+03
       180  25 -2.971176E+05  5.880674E+04  6.620679E+04 -7.962716E+03 -8.334922E+03 -1.917327E+03
       180  26 -3.059134E+05  5.254140E+04  5.889271E+04  3.963130E+03 -5.428911E+03 -1.687104E+03
       180  27 -3.122244E+05  5.148929E+04  5.493559E+04 -7.725571E+03 -2.522230E+03 -1.269342E+03
       181   1 -6.089556E+05 -2.201216E+04 -1.974893E+04 -8.179312E+03  2.054608E+03  1.013281E+03
       181   2 -6.003451E+05 -2.050735E+04 -1.876496E+04  5.479750E+03  1.276172E+03  6.406107E+02
       181   3 -5.914563E+05 -1.811130E+04 -1.706073E+04 -8.241476E+03  4.974002E+02  2.118837E+02
       181   4 -5.187817E+05  5.302713E+02  2.729314E+03 -8.370644E+03  2.013251E+03  1.013370E+03
       181   5 -5.189232E+05 -1.486910E+02  1.553023E+03  5.318841E+03  1.227992E+03  6.407296E+02
       181   6 -5.187852E+05  6.475614E+01  1.101689E+03 -8.371737E+03  4.424088E+02  2.120358E+02
       181   7 -4.286003E+05  2.307209E+04  2.520695E+04 -8.562000E+03  1.971888E+03  1.013459E+03
       181   8 -4.374953E+05  2.020947E+04  2.187050E+04  5.157914E+03  1.179806E+03  6.408484E+02
       181   9 -4.461094E+05  1.824042E+04  1.926371E+04 -8.502011E+03  3.874110E+02  2.121879E+02
       181  10 -6.089556E+05 -2.201216E+04 -1.974894E+04 -8.179313E+03  1.592884E-09  1.322278E-11
       181  11 -6.003451E+05 -2.050735E+04 -1.876496E+04  5.479750E+03  3.066781E-09  9.558027E-10
       181  12 -5.914563E+05 -1.811130E+04 -1.706073E+04 -8.241476E+03  1.265061E-09 -1.293817E-09
       181  13 -5.187817E+05  5.302691E+02  2.729305E+03 -8.370646E+03  3.363422E-10 -1.592090E-09
       181  14 -5.189232E+05 -1.486919E+02  1.553020E+03  5.318840E+03  2.400283E-09  9.632701E-10
       181  15 -5.187852E+05  6.475604E+01  1.101689E+03 -8.371737E+03 -2.377069E-09 -2.360330E-09
       181  16 -4.286003E+05  2.307209E+04  2.520694E+04 -8.562002E+03 -1.797998E-09  5.134920E-10
       181  17 -4.374953E+05  2.020947E+04  2.187050E+04  5.157914E+03 -4.092599E-09 -5.202794E-10
       181  18 -4.461094E+05  1.824042E+04  1.926371E+04 -8.502011E+03 -1.474479E-09 -3.476395E-09
       181  19 -6.089556E+05 -2.201216E+04 -1.974893E+04 -8.179312E+03 -2.054608E+03 -1.013281E+03
       181  20 -6.003451E+05 -2.050735E+04 -1.876496E+04  5.479750E+03 -1.276172E+03 -6.406107E+02
       181  21 -5.914563E+05 -1.811130E+04 -1.706073E+04 -8.241476E+03 -4.974002E+02 -2.118837E+02
       181  22 -5.187817E+05  5.302713E+02  2.729314E+03 -8.370644E+03 -2.013251E+03 -1.013370E+03
       181  23 -5.189232E+05 -1.486910E+02  1.553023E+03  5.318841E+03 -1.227992E+03 -6.407296E+02
       181  24 -5.187852E+05  6.475614E+01  1.101689E+03 -8.371737E+03 -4.424088E+02 -2.120358E+02
       181  25 -4.286003E+05  2.307209E+04  2.520695E+04 -8.562000E+03 -1.971888E+03 -1.013459E+03
       181  26 -4.374953E+05  2.020947E+04  2.187050E+04  5.157914E+03 -1.179806E+03 -6.408484E+02
       181  27 -4.461094E+05  1.824042E+04  1.926371E+04 -8.502011E+03 -3.874110E+02 -2.121879E+02
       182   1 -4.664692E+05  1.321241E+04  1.407822E+04 -8.529371E+03  3.052850E+02 -5.654076E+01
       182   2 -4.576720E+05  1.521603E+04  1.619568E+04  5.268255E+03 -1.672325E+02 -4.837961E+02
       182   3 -4.487971E+05  1.771975E+04  1.872342E+04 -8.572851E+03 -6.395005E+02 -8.667189E+02
       182   4 -5.188294E+05  1.157907E+02  9.853376E+02 -8.428913E+03  2.512113E+02 -5.638917E+01
       182   5 -5.188665E+05 -8.365913E+01  9.265806E+02  5.390650E+03 -2.159520E+02 -4.836703E+02
       182   6 -5.188269E+05  2.160443E+02  1.274386E+03 -8.428689E+03 -6.828589E+02 -8.666166E+02
       182   7 -5.711872E+05 -1.298104E+04 -1.210775E+04 -8.328461E+03  1.971422E+02 -5.623760E+01
       182   8 -5.800575E+05 -1.538363E+04 -1.434280E+04  5.513034E+03 -2.646666E+02 -4.835446E+02
       182   9 -5.888522E+05 -1.728803E+04 -1.617501E+04 -8.284542E+03 -7.262124E+02 -8.665144E+02
       182  10 -4.664692E+05  1.321241E+04  1.407822E+04 -8.529371E+03 -1.146561E-09  7.685175E-10
       182  11 -4.576720E+05  1.521603E+04  1.619568E+04  5.268255E+03  1.296028E-09  4.828619E-09
       182  12 -4.487971E+05  1.771974E+04  1.872341E+04 -8.572851E+03  2.835885E-09 -2.516454E-09
       182  13 -5.188294E+05  1.157907E+02  9.853375E+02 -8.428913E+03 -7.430638E-10 -5.602115E-10
       182  14 -5.188665E+05 -8.365940E+01  9.265801E+02  5.390650E+03  1.108486E-09  3.747282E-11
       182  15 -5.188269E+05  2.160434E+02  1.274384E+03 -8.428690E+03 -3.308997E-09 -3.640247E-10
       182  16 -5.711872E+05 -1.298104E+04 -1.210775E+04 -8.328461E+03  1.410007E-09 -8.214884E-10
       182  17 -5.800575E+05 -1.538363E+04 -1.434280E+04  5.513034E+03 -2.636427E-09  2.921351E-10
       182  18 -5.888522E+05 -1.728803E+04 -1.617502E+04 -8.284542E+03 -2.681136E-09 -8.242422E-10
       182  19 -4.664692E+05  1.321241E+04  1.407822E+04 -8.529371E+03 -3.052850E+02  5.654076E+01
       182  20 -4.576720E+05  1.521603E+04  1.619568E+04  5.268255E+03  1.672325E+02  4.837961E+02
       182  21 -4.487971E+05  1.771975E+04  1.872342E+04 -8.572851E+03  6.395005E+02  8.667189E+02
       182  22 -5.188294E+05  1.157907E+02  9.853376E+02 -8.428913E+03 -2.512113E+02  5.638917E+01
       182  23 -5.188665E+05 -8.365913E+01  9.265806E+02  5.390650E+03  2.159520E+02  4.836703E+02
       182  24 -5.188269E+05  2.160443E+02  1.274386E+03 -8.428689E+03  6.828589E+02  8.666166E+02
       182  25 -5.711872E+05 -1.298104E+04 -1.210775E+04 -8.328461E+03 -1.971422E+02  5.623760E+01
       182  26 -5.800575E+05 -1.538363E+04 -1.434280E+04  5.513034E+03  2.646666E+02  4.835446E+02
       182  27 -5.888522E+05 -1.728803E+04 -1.617501E+04 -8.284542E+03  7.262124E+02  8.665144E+02
       183   1 -3.303549E+05  4.709160E+04  4.855264E+04 -7.972011E+03 -8.843412E+02 -1.127673E+03
       183   2 -3.232387E+05  4.863268E+04  5.121844E+04  4.194381E+03 -2.108034E+03 -1.552836E+03
       183   3 -3.147756E+05  5.233905E+04  5.535163E+04 -7.995839E+03 -3.331030E+03 -1.799417E+03
       183   4 -5.185561E+05  3.663706E+01  1.568815E+03 -7.700276E+03 -9.461860E+02 -1.127551E+03
       183   5 -5.192239E+05 -3.623888E+02  2.321272E+03  4.479160E+03 -2.148123E+03 -1.552794E+03
       183   6 -5.185485E+05  1.400375E+03  4.526278E+03 -7.698497E+03 -3.349349E+03 -1.799430E+03
       183   7 -7.067252E+05 -4.702100E+04 -4.541768E+04 -7.428605E+03 -1.008012E+03 -1.127430E+03
       183   8 -7.151742E+05 -4.936035E+04 -4.657879E+04  4.763864E+03 -2.188200E+03 -1.552753E+03
       183   9 -7.222838E+05 -4.954143E+04 -4.630220E+04 -7.401240E+03 -3.367661E+03 -1.799444E+03
       183  10 -3.303549E+05  4.709160E+04  4.855264E+04 -7.972012E+03 -2.953496E-12 -3.130159E-09
       183  11 -3.232387E+05  4.863267E+04  5.121843E+04  4.194379E+03 -5.824190E-10  7.011337E-10
       183  12 -3.147756E+05  5.233904E+04  5.535160E+04 -7.995844E+03 -7.738061E-10  2.591120E-10
       183  13 -5.185561E+05  3.663545E+01  1.568811E+03 -7.700277E+03 -2.687967E-09 -6.869188E-10
       183  14 -5.192239E+05 -3.623927E+02  2.321259E+03  4.479157E+03 -6.861180E-10 -3.801989E-10
       183  15 -5.185485E+05  1.400369E+03  4.526251E+03 -7.698502E+03 -4.306653E-10 -9.893257E-10
       183  16 -7.067252E+05 -4.702100E+04 -4.541769E+04 -7.428606E+03 -1.329990E-09 -1.323380E-09
       183  17 -7.151742E+05 -4.936035E+04 -4.657881E+04  4.763861E+03  4.291995E-10  2.645853E-09
       183  18 -7.222838E+05 -4.954144E+04 -4.630223E+04 -7.401245E+03 -6.561348E-10  1.243407E-09
       183  19 -3.303549E+05  4.709160E+04  4.855264E+04 -7.972011E+03  8.843412E+02  1.127673E+03
       183  20 -3.232387E+05  4.863268E+04  5.121844E+04  4.194381E+03  2.108034E+03  1.552836E+03
       183  21 -3.147756E+05  5.233905E+04  5.535163E+04 -7.995839E+03  3.331030E+03  1.799417E+03
       183  22 -5.185561E+05  3.663706E+01  1.568815E+03 -7.700276E+03  9.461860E+02  1.127551E+03
       183  23 -5.192239E+05 -3.623888E+02  2.321272E+03  4.479160E+03  2.148123E+03  1.552794E+03
       183  24 -5.185485E+05  1.400375E+03  4.526278E+03 -7.698497E+03  3.349349E+03  1.799430E+03
       183  25 -7.067252E+05 -4.702100E+04 -4.541768E+04 -7.428605E+03  1.008012E+03  1.127430E+03
       183  26 -7.151742E+05 -4.936035E+04 -4.657879E+04  4.763864E+03  2.188200E+03  1.552753E+03
       183  27 -7.222838E+05 -4.954143E+04 -4.630220E+04 -7.401240E+03  3.367661E+03  1.799444E+03
       184   1 -2.176212E+05  7.474034E+04  8.054552E+04 -6.111163E+03 -4.208409E+03 -2.066613E+03
       184   2 -2.148227E+05  7.413642E+04  8.510081E+04  2.487121E+03 -8.961210E+03 -2.474968E+03
       184   3 -2.061331E+05  8.729454E+04  9.655887E+04 -6.884166E+03 -1.371366E+04 -2.302102E+03
       184   4 -5.175578E+05 -2.402177E+02  5.694031E+03 -6.279447E+03 -4.291358E+03 -2.066594E+03
       184   5 -5.204921E+05 -2.272375E+03  8.847207E+03  2.702972E+03 -8.972399E+03 -2.475046E+03
       184   6 -5.175465E+05  9.448331E+03  1.885554E+04 -6.284730E+03 -1.365305E+04 -2.302155E+03
       184   7 -8.174127E+05 -7.522757E+04 -6.916424E+04 -6.447630E+03 -4.374266E+03 -2.066576E+03
       184   8 -8.260769E+05 -7.868821E+04 -6.741343E+04  2.918720E+03 -8.983581E+03 -2.475123E+03
       184   9 -8.288719E+05 -6.840519E+04 -5.885510E+04 -5.685606E+03 -1.359247E+04 -2.302208E+03
       184  10 -2.176212E+05  7.474033E+04  8.054548E+04 -6.111170E+03  2.555050E-09 -1.760722E-10
       184  11 -2.148227E+05  7.413639E+04  8.510064E+04  2.487103E+03  8.569206E-10 -5.905962E-10
       184  12 -2.061333E+05  8.729448E+04  9.655851E+04 -6.884192E+03 -4.080540E-10 -4.081697E-10
       184  13 -5.175578E+05 -2.402273E+02  5.693988E+03 -6.279454E+03 -2.578177E-10 -5.350204E-10
       184  14 -5.204922E+05 -2.272403E+03  8.847044E+03  2.702954E+03 -1.382265E-09  4.209615E-10
       184  15 -5.175467E+05  9.448275E+03  1.885518E+04 -6.284755E+03  2.157236E-09  5.185852E-11
       184  16 -8.174128E+05 -7.522757E+04 -6.916428E+04 -6.447637E+03 -1.721230E-11  5.340150E-10
       184  17 -8.260770E+05 -7.868824E+04 -6.741359E+04  2.918703E+03 -1.586166E-09  1.132954E-10
       184  18 -8.288721E+05 -6.840525E+04 -5.885545E+04 -5.685632E+03  5.522245E-10  5.971202E-10
       184  19 -2.176212E+05  7.474034E+04  8.054552E+04 -6.111163E+03  4.208409E+03  2.066613E+03
       184  20 -2.148227E+05  7.413642E+04  8.510081E+04  2.487121E+03  8.961210E+03  2.474968E+03
       184  21 -2.061331E+05  8.729454E+04  9.655887E+04 -6.884166E+03  1.371366E+04  2.302102E+03
       184  22 -5.175578E+05 -2.402177E+02  5.694031E+03 -6.279447E+03  4.291358E+03  2.066594E+03
       184  23 -5.204921E+05 -2.272375E+03  8.847207E+03  2.702972E+03  8.972399E+03  2.475046E+03
       184  24 -5.175465E+05  9.448331E+03  1.885554E+04 -6.284730E+03  1.365305E+04  2.302155E+03
       184  25 -8.174127E+05 -7.522757E+04 -6.916424E+04 -6.447630E+03  4.374266E+03  2.066576E+03
       184  26 -8.260769E+05 -7.868821E+04 -6.741343E+04  2.918720E+03  8.983581E+03  2.475123E+03
       184  27 -8.288719E+05 -6.840519E+04 -5.885510E+04 -5.685606E+03  1.359247E+04  2.302208E+03
       185   1 -1.395701E+05  9.127685E+04  1.159192E+05 -1.502597E+03 -1.722968E+04 -2.831732E+03
       185   2 -1.503839E+05  7.934093E+04  1.281385E+05 -4.191760E+02 -3.640126E+04 -3.445970E+03
       185   3 -1.335094E+05  1.568394E+05  1.757685E+05 -8.831277E+03 -5.558028E+04 -1.328572E+03
       185   4 -5.127293E+05 -2.008445E+03  2.281652E+04 -4.341184E+03 -1.745746E+04 -2.832018E+03
       185   5 -5.265390E+05 -1.467400E+04  3.433199E+04  3.132727E+02 -3.629128E+04 -3.445950E+03
       185   6 -5.127056E+05  6.206414E+04  8.103827E+04 -4.528042E+03 -5.513244E+04 -1.327738E+03
       185   7 -8.857623E+05 -9.530421E+04 -7.029661E+04 -7.178097E+03 -1.768510E+04 -2.832302E+03
       185   8 -9.025658E+05 -1.086996E+05 -5.948520E+04  1.045212E+03 -3.618136E+04 -3.445930E+03
       185   9 -8.917713E+05 -3.272194E+04 -1.370280E+04 -2.275330E+02 -5.468486E+04 -1.326897E+03
       185  10 -1.395704E+05  9.127676E+04  1.159186E+05 -1.502637E+03 -1.027265E-09  1.269023E-09
       185  11 -1.503853E+05  7.934056E+04  1.281360E+05 -4.192770E+02 -2.102263E-09  4.510753E-10
       185  12 -1.335127E+05  1.568386E+05  1.757627E+05 -8.831336E+03  3.363706E-11 -6.980703E-10
       185  13 -5.127297E+05 -2.008536E+03  2.281593E+04 -4.341224E+03  1.204848E-09  1.700200E-09
       185  14 -5.265404E+05 -1.467437E+04  3.432949E+04  3.131720E+02 -8.440036E-10  3.032335E-09
       185  15 -5.127088E+05  6.206332E+04  8.103255E+04 -4.528101E+03  3.515060E-09 -1.720269E-10
       185  16 -8.857626E+05 -9.530430E+04 -7.029721E+04 -7.178138E+03  4.177813E-10  1.007481E-09
       185  17 -9.025672E+05 -1.087000E+05 -5.948768E+04  1.045111E+03  2.843441E-09  1.207401E-10
       185  18 -8.917745E+05 -3.272275E+04 -1.370843E+04 -2.275915E+02  1.122592E-10 -1.042519E-09
       185  19 -1.395701E+05  9.127685E+04  1.159192E+05 -1.502597E+03  1.722968E+04  2.831732E+03
       185  20 -1.503839E+05  7.934093E+04  1.281385E+05 -4.191760E+02  3.640126E+04  3.445970E+03
       185  21 -1.335094E+05  1.568394E+05  1.757685E+05 -8.831277E+03  5.558028E+04  1.328572E+03
       185  22 -5.127293E+05 -2.008445E+03  2.281652E+04 -4.341184E+03  1.745746E+04  2.832018E+03
       185  23 -5.265390E+05 -1.467400E+04  3.433199E+04  3.132727E+02  3.629128E+04  3.445950E+03
       185  24 -5.127056E+05  6.206414E+04  8.103827E+04 -4.528042E+03  5.513244E+04  1.327738E+03
       185  25 -8.857623E+05 -9.530421E+04 -7.029661E+04 -7.178097E+03  1.768510E+04  2.832302E+03
       185  26 -9.025658E+05 -1.086996E+05 -5.948520E+04  1.045212E+03  3.618136E+04  3.445930E+03
       185  27 -8.917713E+05 -3.272194E+04 -1.370280E+04 -2.275330E+02  5.468486E+04  1.326897E+03
       186   1  4.520054E+05  1.097390E+06  5.517457E+05 -7.122479E+04  5.878145E+02  2.829813E+05
       186   2  4.398864E+04  9.938556E+05  3.042320E+05  5.096650E+03  3.602382E+03  1.819335E+05
       186   3  1.054299E+05  1.023858E+06  2.404350E+05 -3.265538E+04  1.819857E+03  8.086234E+04
       186   4  3.217330E+05  5.767672E+05  4.218169E+05 -4.261663E+04  6.032940E+02  2.822248E+05
       186   5 -7.690779E+04  5.099912E+05  1.837146E+05  1.374518E+04  3.605134E+03  1.818275E+05
       186   6 -6.009458E+03  5.767418E+05  1.289867E+05 -4.396894E+04  1.814690E+03  8.140086E+04
       186   7  1.914430E+05  5.639119E+04  2.918681E+05 -1.403217E+04  6.187145E+02  2.814688E+05
       186   8 -1.978216E+05  2.633885E+04  6.317962E+04  2.238725E+04  3.607886E+03  1.817216E+05
       186   9 -1.174633E+05  1.298069E+05  1.752353E+04 -5.527405E+04  1.809500E+03  8.193898E+04
       186  10  4.519840E+05  1.097304E+06  5.515955E+05 -7.122493E+04  1.823956E-09 -1.056941E-09
       186  11  4.397976E+04  9.938201E+05  3.041699E+05  5.096123E+03 -1.331615E-10 -6.564065E-10
       186  12  1.054282E+05  1.023851E+06  2.404227E+05 -3.265550E+04 -7.998848E-10 -1.125592E-09
       186  13  3.217116E+05  5.766818E+05  4.216674E+05 -4.261677E+04  3.219264E-09  3.227845E-09
       186  14 -7.691666E+04  5.099557E+05  1.836525E+05  1.374465E+04 -1.190768E-09 -7.481538E-12
       186  15 -6.011238E+03  5.767347E+05  1.289743E+05 -4.396906E+04 -9.213271E-10  1.790290E-09
       186  16  1.914217E+05  5.630615E+04  2.917192E+05 -1.403231E+04  1.994500E-10 -5.973718E-10
       186  17 -1.978305E+05  2.630339E+04  6.311755E+04  2.238672E+04  4.183790E-09  1.596771E-10
       186  18 -1.174651E+05  1.297996E+05  1.751091E+04 -5.527417E+04 -1.713094E-09  2.062615E-10
       186  19  4.520054E+05  1.097390E+06  5.517457E+05 -7.122479E+04 -5.878145E+02 -2.829813E+05
       186  20  4.398864E+04  9.938556E+05  3.042320E+05  5.096650E+03 -3.602382E+03 -1.819335E+05
       186  21  1.054299E+05  1.023858E+06  2.404350E+05 -3.265538E+04 -1.819857E+03 -8.086234E+04
       186  22  3.217330E+05  5.767672E+05  4.218169E+05 -4.261663E+04 -6.032940E+02 -2.822248E+05
       186  23 -7.690779E+04  5.099912E+05  1.837146E+05  1.374518E+04 -3.605134E+03 -1.818275E+05
       186  24 -6.009458E+03  5.767418E+05  1.289867E+05 -4.396894E+04 -1.814690E+03 -8.140086E+04
       186  25  1.914430E+05  5.639119E+04  2.918681E+05 -1.403217E+04 -6.187145E+02 -2.814688E+05
       186  26 -1.978216E+05  2.633885E+04  6.317962E+04  2.238725E+04 -3.607886E+03 -1.817216E+05
       186  27 -1.174633E+05  1.298069E+05  1.752353E+04 -5.527405E+04 -1.809500E+03 -8.193898E+04
       187   1  3.629171E+04  5.033559E+05  9.882011E+04 -4.689251E+04  2.221905E+00  5.940148E+04
       187   2 -3.895665E+04  4.533329E+05  4.803277E+04  1.224089E+04 -8.420771E+02  2.297884E+04
       187   3 -6.362187E+03  4.333579E+05  4.757513E+04 -3.774425E+04 -1.541294E+03 -1.344006E+04
       187   4  4.881903E+04  5.537988E+05  1.114385E+05 -4.219167E+04  1.711069E+00  5.954566E+04
       187   5 -1.761997E+04  5.387850E+05  6.932873E+04  1.227723E+04 -8.428658E+02  2.310257E+04
       187   6  2.378005E+04  5.538183E+05  7.755962E+04 -4.237123E+04 -1.541833E+03 -1.333881E+04
       187   7  6.134624E+04  6.042441E+05  1.240567E+05 -3.749045E+04  1.202423E+00  5.968985E+04
       187   8  3.716151E+03  6.242436E+05  9.062415E+04  1.231358E+04 -8.436544E+02  2.322632E+04
       187   9  5.392127E+04  6.742919E+05  1.075430E+05 -4.699908E+04 -1.542374E+03 -1.323755E+04
       187  10  3.629077E+04  5.033521E+05  9.881349E+04 -4.689251E+04 -4.725918E-09 -9.690166E-11
       187  11 -3.895679E+04  4.533324E+05  4.803178E+04  1.224091E+04 -2.503814E-09 -1.147697E-09
       187  12 -6.362238E+03  4.333577E+05  4.757479E+04 -3.774426E+04 -1.081090E-09 -2.319211E-09
       187  13  4.881808E+04  5.537950E+05  1.114319E+05 -4.219167E+04 -9.189243E-10  5.533608E-09
       187  14 -1.762012E+04  5.387844E+05  6.932773E+04  1.227724E+04 -1.360487E-09 -7.909896E-12
       187  15  2.378000E+04  5.538181E+05  7.755928E+04 -4.237124E+04 -2.464330E-09  1.673396E-09
       187  16  6.134529E+04  6.042403E+05  1.240500E+05 -3.749045E+04 -4.032611E-10 -2.625407E-09
       187  17  3.716006E+03  6.242430E+05  9.062313E+04  1.231360E+04  3.007223E-10  4.668226E-10
       187  18  5.392122E+04  6.742917E+05  1.075427E+05 -4.699910E+04 -1.760112E-09  1.581464E-09
       187  19  3.629171E+04  5.033559E+05  9.882011E+04 -4.689251E+04 -2.221905E+00 -5.940148E+04
       187  20 -3.895665E+04  4.533329E+05  4.803277E+04  1.224089E+04  8.420771E+02 -2.297884E+04
       187  21 -6.362187E+03  4.333579E+05  4.757513E+04 -3.774425E+04  1.541294E+03  1.344006E+04
       187  22  4.881903E+04  5.537988E+05  1.114385E+05 -4.219167E+04 -1.711069E+00 -5.954566E+04
       187  23 -1.761997E+04  5.387850E+05  6.932873E+04  1.227723E+04  8.428658E+02 -2.310257E+04
       187  24  2.378005E+04  5.538183E+05  7.755962E+04 -4.237123E+04  1.541833E+03  1.333881E+04
       187  25  6.134624E+04  6.042441E+05  1.240567E+05 -3.749045E+04 -1.202423E+00 -5.968985E+04
       187  26  3.716151E+03  6.242436E+05  9.062415E+04  1.231358E+04  8.436544E+02 -2.322632E+04
       187  27  5.392127E+04  6.742919E+05  1.075430E+05 -4.699908E+04  1.542374E+03  1.323755E+04
       188   1 -1.539249E+05 -6.416079E+04 -7.425532E+04 -4.936249E+04 -3.594616E+03 -2.857974E+04
       188   2 -2.075391E+05 -1.409472E+05 -6.555479E+04  2.057475E+04 -5.853536E+03 -8.273672E+04
       188   3 -1.137557E+04 -1.407105E+05  4.237386E+04 -2.908239E+04 -1.976962E+03 -1.368652E+05
       188   4  2.967415E+03  5.641424E+05  8.246570E+04 -4.484338E+04 -3.598550E+03 -2.792327E+04
       188   5 -4.097101E+04  5.256395E+05  1.005804E+05  1.514612E+04 -5.852129E+03 -8.286799E+04
       188   6  1.648661E+05  5.642246E+05  2.183944E+05 -4.445080E+04 -1.971403E+03 -1.377876E+05
       188   7  1.598301E+05  1.192803E+06  2.391571E+05 -4.031917E+04 -3.602471E+03 -2.726612E+04
       188   8  1.255637E+05  1.192629E+06  2.666822E+05  9.712068E+03 -5.850721E+03 -8.299936E+04
       188   9  3.410711E+05  1.269610E+06  3.943776E+05 -5.983636E+04 -1.965803E+03 -1.387110E+05
       188  10 -1.539251E+05 -6.416167E+04 -7.425688E+04 -4.936257E+04 -1.300117E-09 -5.731495E-10
       188  11 -2.075409E+05 -1.409545E+05 -6.556772E+04  2.057436E+04  2.716232E-09 -3.903184E-10
       188  12 -1.138061E+04 -1.407306E+05  4.233864E+04 -2.908261E+04  1.154108E-10 -1.000255E-09
       188  13  2.967192E+03  5.641416E+05  8.246421E+04 -4.484346E+04  5.722993E-11  4.704040E-09
       188  14 -4.097289E+04  5.256321E+05  1.005675E+05  1.514573E+04  3.948539E-10  6.798759E-11
       188  15  1.648610E+05  5.642042E+05  2.183587E+05 -4.445101E+04  7.144411E-10  6.689895E-10
       188  16  1.598299E+05  1.192803E+06  2.391556E+05 -4.031925E+04 -3.212571E-09 -1.505600E-09
       188  17  1.255618E+05  1.192622E+06  2.666693E+05  9.711677E+03  2.578098E-09 -1.333467E-10
       188  18  3.410659E+05  1.269590E+06  3.943415E+05 -5.983658E+04  8.032044E-10  5.782043E-10
       188  19 -1.539249E+05 -6.416079E+04 -7.425532E+04 -4.936249E+04  3.594616E+03  2.857974E+04
       188  20 -2.075391E+05 -1.409472E+05 -6.555479E+04  2.057475E+04  5.853536E+03  8.273672E+04
       188  21 -1.137557E+04 -1.407105E+05  4.237386E+04 -2.908239E+04  1.976962E+03  1.368652E+05
       188  22  2.967415E+03  5.641424E+05  8.246570E+04 -4.484338E+04  3.598550E+03  2.792327E+04
       188  23 -4.097101E+04  5.256395E+05  1.005804E+05  1.514612E+04  5.852129E+03  8.286799E+04
       188  24  1.648661E+05  5.642246E+05  2.183944E+05 -4.445080E+04  1.971403E+03  1.377876E+05
       188  25  1.598301E+05  1.192803E+06  2.391571E+05 -4.031917E+04  3.602471E+03  2.726612E+04
       188  26  1.255637E+05  1.192629E+06  2.666822E+05  9.712068E+03  5.850721E+03  8.299936E+04
       188  27  3.410711E+05  1.269610E+06  3.943776E+05 -5.983636E+04  1.965803E+03  1.387110E+05
       189   1 -6.170614E+06 -1.947365E+06 -1.208281E+06 -2.177425E+06 -5.707371E+05 -2.006666E+05
       189   2 -6.016778E+06 -1.100320E+06 -6.773395E+05 -2.255662E+06 -3.708392E+05 -9.379852E+04
       189   3 -6.154673E+06 -1.076724E+06 -5.204742E+05 -2.165771E+06 -1.596775E+05 -1.662058E+04
       189   4 -5.052435E+06 -1.335891E+06 -8.647893E+05 -1.682580E+06 -5.517102E+05 -1.936747E+05
       189   5 -4.862117E+06 -6.101518E+05 -3.601032E+05 -1.885702E+06 -3.654071E+05 -9.179080E+04
       189   6 -4.960262E+06 -7.043092E+05 -2.181226E+05 -1.920866E+06 -1.678416E+05 -1.967956E+04
       189   7 -3.932942E+06 -7.238734E+05 -5.214170E+05 -1.186785E+06 -5.326447E+05 -1.866535E+05
       189   8 -3.706144E+06 -1.198007E+05 -4.298962E+04 -1.515078E+06 -3.599631E+05 -8.977738E+04
       189   9 -3.764457E+06 -3.319062E+05  8.411971E+04 -1.675581E+06 -1.760228E+05 -2.274239E+04
       189  10 -6.170978E+06 -1.947497E+06 -1.208977E+06 -2.177518E+06  4.874554E-10 -1.594037E-10
       189  11 -6.016929E+06 -1.100367E+06 -6.776176E+05 -2.255690E+06  1.183524E-09  9.172403E-10
       189  12 -6.154701E+06 -1.076731E+06 -5.205231E+05 -2.165773E+06  3.416692E-09 -4.765191E-11
       189  13 -5.052775E+06 -1.336015E+06 -8.654377E+05 -1.682666E+06  9.984983E-10 -6.393197E-10
       189  14 -4.862264E+06 -6.101972E+05 -3.603723E+05 -1.885729E+06  4.895395E-09  7.049083E-11
       189  15 -4.960292E+06 -7.043172E+05 -2.181767E+05 -1.920868E+06  1.449232E-09 -7.155574E-10
       189  16 -3.933258E+06 -7.239879E+05 -5.220198E+05 -1.186865E+06  1.873960E-09  5.415660E-10
       189  17 -3.706286E+06 -1.198445E+05 -4.325006E+04 -1.515104E+06  4.229828E-09 -5.044839E-11
       189  18 -3.764490E+06 -3.319152E+05  8.406012E+04 -1.675584E+06 -1.883658E-09 -7.021584E-10
       189  19 -6.170614E+06 -1.947365E+06 -1.208281E+06 -2.177425E+06  5.707371E+05  2.006666E+05
       189  20 -6.016778E+06 -1.100320E+06 -6.773395E+05 -2.255662E+06  3.708392E+05  9.379852E+04
       189  21 -6.154673E+06 -1.076724E+06 -5.204742E+05 -2.165771E+06  1.596775E+05  1.662058E+04
       189  22 -5.052435E+06 -1.335891E+06 -8.647893E+05 -1.682580E+06  5.517102E+05  1.936747E+05
       189  23 -4.862117E+06 -6.101518E+05 -3.601032E+05 -1.885702E+06  3.654071E+05  9.179080E+04
       189  24 -4.960262E+06 -7.043092E+05 -2.181226E+05 -1.920866E+06  1.678416E+05  1.967956E+04
       189  25 -3.932942E+06 -7.238734E+05 -5.214170E+05 -1.186785E+06  5.326447E+05  1.866535E+05
       189  26 -3.706144E+06 -1.198007E+05 -4.298962E+04 -1.515078E+06  3.599631E+05  8.977738E+04
       189  27 -3.764457E+06 -3.319062E+05  8.411971E+04 -1.675581E+06  1.760228E+05  2.274239E+04
       190   1 -5.944214E+06 -1.201226E+06 -4.519707E+05 -2.169467E+06 -1.347311E+05 -1.402645E+04
       190   2 -5.869023E+06 -1.053909E+06 -3.355340E+05 -2.129057E+06 -8.892128E+04  1.915737E+03
       190   3 -5.781038E+06 -1.044818E+06 -2.767812E+05 -2.124464E+06 -4.203386E+04  1.499608E+04
       190   4 -4.928680E+06 -7.986515E+05 -1.775447E+05 -1.873399E+06 -1.347385E+05 -1.403845E+04
       190   5 -4.930142E+06 -6.947819E+05 -8.489026E+04 -1.868557E+06 -9.019768E+04  1.431610E+03
       190   6 -4.918506E+06 -7.287951E+05 -4.883165E+04 -1.899541E+06 -4.458624E+04  1.403696E+04
       190   7 -3.912135E+06 -3.959844E+05  9.678946E+04 -1.576878E+06 -1.347459E+05 -1.405038E+04
       190   8 -3.990400E+06 -3.355946E+05  1.656763E+05 -1.607694E+06 -9.147613E+04  9.466915E+02
       190   9 -4.055250E+06 -4.127378E+05  1.790539E+05 -1.674337E+06 -4.714253E+04  1.307648E+04
       190  10 -5.944233E+06 -1.201231E+06 -4.520055E+05 -2.169468E+06 -1.875732E-09 -6.314307E-10
       190  11 -5.869031E+06 -1.053911E+06 -3.355490E+05 -2.129057E+06 -2.407158E-09  3.579745E-10
       190  12 -5.781040E+06 -1.044819E+06 -2.767850E+05 -2.124464E+06  2.738681E-10  8.969641E-10
       190  13 -4.928699E+06 -7.986566E+05 -1.775795E+05 -1.873401E+06 -1.436853E-09 -3.307768E-10
       190  14 -4.930151E+06 -6.947841E+05 -8.490567E+04 -1.868557E+06 -3.162128E-09  1.280091E-09
       190  15 -4.918509E+06 -7.287959E+05 -4.883578E+04 -1.899540E+06 -2.425340E-10  1.326820E-10
       190  16 -3.912154E+06 -3.959895E+05  9.675474E+04 -1.576880E+06  9.530597E-10  1.866234E-10
       190  17 -3.990409E+06 -3.355969E+05  1.656605E+05 -1.607694E+06 -9.010749E-10  9.956000E-10
       190  18 -4.055253E+06 -4.127386E+05  1.790494E+05 -1.674336E+06 -9.793565E-10 -1.463054E-09
       190  19 -5.944214E+06 -1.201226E+06 -4.519707E+05 -2.169467E+06  1.347311E+05  1.402645E+04
       190  20 -5.869023E+06 -1.053909E+06 -3.355340E+05 -2.129057E+06  8.892128E+04 -1.915737E+03
       190  21 -5.781038E+06 -1.044818E+06 -2.767812E+05 -2.124464E+06  4.203386E+04 -1.499608E+04
       190  22 -4.928680E+06 -7.986515E+05 -1.775447E+05 -1.873399E+06  1.347385E+05  1.403845E+04
       190  23 -4.930142E+06 -6.947819E+05 -8.489026E+04 -1.868557E+06  9.019768E+04 -1.431610E+03
       190  24 -4.918506E+06 -7.287951E+05 -4.883165E+04 -1.899541E+06  4.458624E+04 -1.403696E+04
       190  25 -3.912135E+06 -3.959844E+05  9.678946E+04 -1.576878E+06  1.347459E+05  1.405038E+04
       190  26 -3.990400E+06 -3.355946E+05  1.656763E+05 -1.607694E+06  9.147613E+04 -9.466915E+02
       190  27 -4.055250E+06 -4.127378E+05  1.790539E+05 -1.674337E+06  4.714253E+04 -1.307648E+04
       191   1 -5.622612E+06 -1.010481E+06 -2.270393E+05 -2.091390E+06 -3.458517E+04  1.453201E+04
       191   2 -5.544286E+06 -9.287617E+05 -1.801881E+05 -2.027453E+06 -2.270922E+04  1.401951E+04
       191   3 -5.407911E+06 -9.192732E+05 -1.435294E+05 -2.033083E+06 -1.065031E+04  1.300289E+04
       191   4 -4.912310E+06 -7.413379E+05 -3.818640E+04 -1.896832E+06 -3.652574E+04  1.380305E+04
       191   5 -4.940772E+06 -7.013480E+05 -1.974743E+04 -1.863494E+06 -2.487417E+04  1.320831E+04
       191   6 -4.911149E+06 -7.335333E+05 -1.131155E+04 -1.899723E+06 -1.304165E+04  1.210896E+04
       191   7 -4.201518E+06 -4.721641E+05  1.506219E+05 -1.702072E+06 -3.846874E+04  1.307316E+04
       191   8 -4.336903E+06 -4.739125E+05  1.406614E+05 -1.699390E+06 -2.704144E+04  1.239624E+04
       191   9 -4.414145E+06 -5.477792E+05  1.208851E+05 -1.766267E+06 -1.543511E+04  1.121425E+04
       191  10 -5.622613E+06 -1.010481E+06 -2.270420E+05 -2.091389E+06  2.082313E-10 -1.096967E-09
       191  11 -5.544286E+06 -9.287621E+05 -1.801894E+05 -2.027452E+06  2.423435E-09 -1.107042E-09
       191  12 -5.407911E+06 -9.192734E+05 -1.435299E+05 -2.033082E+06 -3.216044E-09 -7.896887E-11
       191  13 -4.912311E+06 -7.413384E+05 -3.818928E+04 -1.896832E+06  6.665093E-10 -1.193009E-09
       191  14 -4.940772E+06 -7.013484E+05 -1.974892E+04 -1.863494E+06  1.269878E-09  3.966311E-10
       191  15 -4.911149E+06 -7.335335E+05 -1.131215E+04 -1.899723E+06 -1.137181E-10  1.185083E-09
       191  16 -4.201519E+06 -4.721647E+05  1.506188E+05 -1.702071E+06  1.047493E-09 -7.241841E-10
       191  17 -4.336904E+06 -4.739128E+05  1.406598E+05 -1.699390E+06  1.922146E-09  8.855961E-10
       191  18 -4.414145E+06 -5.477794E+05  1.208845E+05 -1.766267E+06 -1.569803E-09  1.371636E-09
       191  19 -5.622612E+06 -1.010481E+06 -2.270393E+05 -2.091390E+06  3.458517E+04 -1.453201E+04
       191  20 -5.544286E+06 -9.287617E+05 -1.801881E+05 -2.027453E+06  2.270922E+04 -1.401951E+04
       191  21 -5.407911E+06 -9.192732E+05 -1.435294E+05 -2.033083E+06  1.065031E+04 -1.300289E+04
       191  22 -4.912310E+06 -7.413379E+05 -3.818640E+04 -1.896832E+06  3.652574E+04 -1.380305E+04
       191  23 -4.940772E+06 -7.013480E+05 -1.974743E+04 -1.863494E+06  2.487417E+04 -1.320831E+04
       191  24 -4.911149E+06 -7.335333E+05 -1.131155E+04 -1.899723E+06  1.304165E+04 -1.210896E+04
       191  25 -4.201518E+06 -4.721641E+05  1.506219E+05 -1.702072E+06  3.846874E+04 -1.307316E+04
       191  26 -4.336903E+06 -4.739125E+05  1.406614E+05 -1.699390E+06  2.704144E+04 -1.239624E+04
       191  27 -4.414145E+06 -5.477792E+05  1.208851E+05 -1.766267E+06  1.543511E+04 -1.121425E+04
       192   1 -5.236971E+06 -8.591797E+05 -9.551011E+04 -1.989547E+06 -7.920663E+03  1.064020E+04
       192   2 -5.152053E+06 -7.790533E+05 -6.082693E+04 -1.917833E+06 -3.259372E+03  6.559125E+03
       192   3 -4.999150E+06 -7.689007E+05 -2.852297E+04 -1.925157E+06  1.445035E+03  2.355792E+03
       192   4 -4.909325E+06 -7.360021E+05 -8.884782E+03 -1.900704E+06 -1.028769E+04  9.756276E+03
       192   5 -4.943251E+06 -7.006106E+05 -5.375207E+03 -1.861334E+06 -5.682334E+03  5.654962E+03
       192   6 -4.909195E+06 -7.351801E+05 -4.197967E+03 -1.901004E+06 -1.034474E+03  1.431255E+03
       192   7 -4.581574E+06 -6.128181E+05  7.773127E+04 -1.811819E+06 -1.265610E+04  8.871832E+03
       192   8 -4.734407E+06 -6.221655E+05  5.007266E+04 -1.804818E+06 -8.106194E+03  4.750464E+03
       192   9 -4.819232E+06 -7.014591E+05  2.012627E+04 -1.876849E+06 -3.514375E+03  5.065738E+02
       192  10 -5.236971E+06 -8.591798E+05 -9.551044E+04 -1.989547E+06 -3.464499E-09  6.349890E-10
       192  11 -5.152053E+06 -7.790533E+05 -6.082703E+04 -1.917833E+06 -1.604186E-09 -7.395022E-10
       192  12 -4.999150E+06 -7.689007E+05 -2.852299E+04 -1.925157E+06 -9.617826E-10 -3.212969E-09
       192  13 -4.909325E+06 -7.360022E+05 -8.885159E+03 -1.900704E+06 -1.593565E-09  2.824564E-10
       192  14 -4.943251E+06 -7.006107E+05 -5.375327E+03 -1.861334E+06 -2.101591E-10 -3.401807E-09
       192  15 -4.909195E+06 -7.351801E+05 -4.197973E+03 -1.901004E+06  1.281770E-09 -9.266881E-10
       192  16 -4.581575E+06 -6.128183E+05  7.773082E+04 -1.811819E+06  6.118204E-10 -1.785750E-10
       192  17 -4.734407E+06 -6.221655E+05  5.007250E+04 -1.804818E+06  1.444710E-09  1.483975E-09
       192  18 -4.819232E+06 -7.014591E+05  2.012625E+04 -1.876849E+06 -3.071144E-10  7.000024E-10
       192  19 -5.236971E+06 -8.591797E+05 -9.551011E+04 -1.989547E+06  7.920663E+03 -1.064020E+04
       192  20 -5.152053E+06 -7.790533E+05 -6.082693E+04 -1.917833E+06  3.259372E+03 -6.559125E+03
       192  21 -4.999150E+06 -7.689007E+05 -2.852297E+04 -1.925157E+06 -1.445035E+03 -2.355792E+03
       192  22 -4.909325E+06 -7.360021E+05 -8.884782E+03 -1.900704E+06  1.028769E+04 -9.756276E+03
       192  23 -4.943251E+06 -7.006106E+05 -5.375207E+03 -1.861334E+06  5.682334E+03 -5.654962E+03
       192  24 -4.909195E+06 -7.351801E+05 -4.197967E+03 -1.901004E+06  1.034474E+03 -1.431255E+03
       192  25 -4.581574E+06 -6.128181E+05  7.773127E+04 -1.811819E+06  1.265610E+04 -8.871832E+03
       192  26 -4.734407E+06 -6.221655E+05  5.007266E+04 -1.804818E+06  8.106194E+03 -4.750464E+03
       192  27 -4.819232E+06 -7.014591E+05  2.012627E+04 -1.876849E+06  3.514375E+03 -5.065738E+02
       193   1 -4.822333E+06 -7.026294E+05  1.933897E+04 -1.877682E+06  3.283098E+03 -4.777504E+02
       193   2 -4.737479E+06 -6.233146E+05  4.947214E+04 -1.805636E+06  7.769724E+03 -4.762151E+03
       193   3 -4.584571E+06 -6.139118E+05  7.740924E+04 -1.812663E+06  1.221481E+04 -8.925555E+03
       193   4 -4.909187E+06 -7.351925E+05 -4.161768E+03 -1.901006E+06  8.030752E+02 -1.402474E+03
       193   5 -4.943262E+06 -7.006117E+05 -5.163408E+03 -1.861326E+06  5.345097E+03 -5.666922E+03
       193   6 -4.909309E+06 -7.359579E+05 -8.405426E+03 -1.900727E+06  9.845013E+03 -9.810495E+03
       193   7 -4.996035E+06 -7.677552E+05 -2.766323E+04 -1.924327E+06 -1.676570E+03 -2.327057E+03
       193   8 -5.149004E+06 -7.779064E+05 -5.980270E+04 -1.916999E+06  2.921354E+03 -6.571363E+03
       193   9 -5.233944E+06 -8.579976E+05 -9.422919E+04 -1.988748E+06  7.476585E+03 -1.069492E+04
       193  10 -4.822333E+06 -7.026294E+05  1.933895E+04 -1.877682E+06 -3.997198E-10 -2.245071E-09
       193  11 -4.737479E+06 -6.233147E+05  4.947198E+04 -1.805636E+06  4.843412E-10  1.250283E-09
       193  12 -4.584572E+06 -6.139119E+05  7.740881E+04 -1.812663E+06  2.786384E-09  8.278066E-10
       193  13 -4.909187E+06 -7.351925E+05 -4.161773E+03 -1.901006E+06  2.934517E-10 -5.623942E-10
       193  14 -4.943262E+06 -7.006117E+05 -5.163522E+03 -1.861326E+06 -2.314383E-09 -2.153419E-09
       193  15 -4.909309E+06 -7.359580E+05 -8.405789E+03 -1.900727E+06  3.665330E-09 -5.644250E-10
       193  16 -4.996035E+06 -7.677552E+05 -2.766324E+04 -1.924327E+06 -1.934783E-09 -7.978872E-10
       193  17 -5.149004E+06 -7.779065E+05 -5.980280E+04 -1.916999E+06 -9.901518E-11 -1.678754E-09
       193  18 -5.233944E+06 -8.579978E+05 -9.422951E+04 -1.988748E+06 -1.443416E-09 -2.646657E-09
       193  19 -4.822333E+06 -7.026294E+05  1.933897E+04 -1.877682E+06 -3.283098E+03  4.777504E+02
       193  20 -4.737479E+06 -6.233146E+05  4.947214E+04 -1.805636E+06 -7.769724E+03  4.762151E+03
       193  21 -4.584571E+06 -6.139118E+05  7.740924E+04 -1.812663E+06 -1.221481E+04  8.925555E+03
       193  22 -4.909187E+06 -7.351925E+05 -4.161768E+03 -1.901006E+06 -8.030752E+02  1.402474E+03
       193  23 -4.943262E+06 -7.006117E+05 -5.163408E+03 -1.861326E+06 -5.345097E+03  5.666922E+03
       193  24 -4.909309E+06 -7.359579E+05 -8.405426E+03 -1.900727E+06 -9.845013E+03  9.810495E+03
       193  25 -4.996035E+06 -7.677552E+05 -2.766323E+04 -1.924327E+06  1.676570E+03  2.327057E+03
       193  26 -5.149004E+06 -7.779064E+05 -5.980270E+04 -1.916999E+06 -2.921354E+03  6.571363E+03
       193  27 -5.233944E+06 -8.579976E+05 -9.422919E+04 -1.988748E+06 -7.476585E+03  1.069492E+04
       194   1 -4.417040E+06 -5.488526E+05  1.207608E+05 -1.766991E+06  1.490339E+04 -1.130423E+04
       194   2 -4.339743E+06 -4.750325E+05  1.411100E+05 -1.700131E+06  2.590969E+04 -1.271617E+04
       194   3 -4.203973E+06 -4.728057E+05  1.522454E+05 -1.703049E+06  3.673745E+04 -1.362478E+04
       194   4 -4.911095E+06 -7.335641E+05 -1.066604E+04 -1.899716E+06  1.250833E+04 -1.219952E+04
       194   5 -4.940849E+06 -7.014080E+05 -1.856126E+04 -1.863464E+06  2.374063E+04 -1.352887E+04
       194   6 -4.912188E+06 -7.409019E+05 -3.585709E+04 -1.896999E+06  3.479258E+04 -1.435532E+04
       194   7 -5.404912E+06 -9.182615E+05 -1.421138E+05 -2.032345E+06  1.011538E+04 -1.309402E+04
       194   8 -5.541602E+06 -9.277619E+05 -1.782640E+05 -2.026653E+06  2.157388E+04 -1.434071E+04
       194   9 -5.619916E+06 -1.008967E+06 -2.240038E+05 -2.090747E+06  3.285014E+04 -1.508493E+04
       194  10 -4.417040E+06 -5.488528E+05  1.207602E+05 -1.766991E+06  3.141191E-09  3.547134E-10
       194  11 -4.339744E+06 -4.750329E+05  1.411084E+05 -1.700131E+06 -4.627897E-11  6.285428E-11
       194  12 -4.203975E+06 -4.728062E+05  1.522425E+05 -1.703049E+06 -3.810928E-09 -1.332885E-09
       194  13 -4.911095E+06 -7.335643E+05 -1.066661E+04 -1.899716E+06  1.064997E-09 -5.554632E-10
       194  14 -4.940849E+06 -7.014084E+05 -1.856266E+04 -1.863464E+06 -1.764442E-09 -8.411291E-10
       194  15 -4.912189E+06 -7.409024E+05 -3.585976E+04 -1.896998E+06 -6.942548E-09 -2.722707E-09
       194  16 -5.404912E+06 -9.182617E+05 -1.421143E+05 -2.032345E+06  1.240321E-09 -9.630463E-10
       194  17 -5.541603E+06 -9.277623E+05 -1.782652E+05 -2.026653E+06 -1.996587E-09  1.609310E-09
       194  18 -5.619917E+06 -1.008968E+06 -2.240063E+05 -2.090747E+06 -6.449716E-09 -2.106892E-09
       194  19 -4.417040E+06 -5.488526E+05  1.207608E+05 -1.766991E+06 -1.490339E+04  1.130423E+04
       194  20 -4.339743E+06 -4.750325E+05  1.411100E+05 -1.700131E+06 -2.590969E+04  1.271617E+04
       194  21 -4.203973E+06 -4.728057E+05  1.522454E+05 -1.703049E+06 -3.673745E+04  1.362478E+04
       194  22 -4.911095E+06 -7.335641E+05 -1.066604E+04 -1.899716E+06 -1.250833E+04  1.219952E+04
       194  23 -4.940849E+06 -7.014080E+05 -1.856126E+04 -1.863464E+06 -2.374063E+04  1.352887E+04
       194  24 -4.912188E+06 -7.409019E+05 -3.585709E+04 -1.896999E+06 -3.479258E+04  1.435532E+04
       194  25 -5.404912E+06 -9.182615E+05 -1.421138E+05 -2.032345E+06 -1.011538E+04  1.309402E+04
       194  26 -5.541602E+06 -9.277619E+05 -1.782640E+05 -2.026653E+06 -2.157388E+04  1.434071E+04
       194  27 -5.619916E+06 -1.008967E+06 -2.240038E+05 -2.090747E+06 -3.285014E+04  1.508493E+04
       195   1 -4.057738E+06 -4.134260E+05  1.813967E+05 -1.674355E+06  4.498540E+04 -1.379264E+04
       195   2 -3.992974E+06 -3.373312E+05  1.702849E+05 -1.608443E+06  8.661498E+04 -2.689666E+03
       195   3 -3.912374E+06 -3.935016E+05  1.071408E+05 -1.579817E+06  1.271831E+05  1.127480E+04
       195   4 -4.918156E+06 -7.289690E+05 -4.584254E+04 -1.899358E+06  4.242774E+04 -1.475366E+04
       195   5 -4.930694E+06 -6.954549E+05 -7.968606E+04 -1.868445E+06  8.533667E+04 -3.174398E+03
       195   6 -4.927708E+06 -7.945509E+05 -1.666456E+05 -1.874818E+06  1.271777E+05  1.126419E+04
       195   7 -5.777855E+06 -1.044478E+06 -2.731454E+05 -2.124082E+06  3.987398E+04 -1.571332E+04
       195   8 -5.867555E+06 -1.053519E+06 -3.297339E+05 -2.128087E+06  8.406043E+04 -3.658340E+03
       195   9 -5.942034E+06 -1.195510E+06 -4.405235E+05 -2.169370E+06  1.271723E+05  1.125352E+04
       195  10 -4.057740E+06 -4.134268E+05  1.813925E+05 -1.674355E+06 -6.755379E-09 -1.652595E-09
       195  11 -3.992982E+06 -3.373333E+05  1.702707E+05 -1.608443E+06 -3.667127E-09  3.640765E-10
       195  12 -3.912391E+06 -3.935061E+05  1.071100E+05 -1.579818E+06 -7.312970E-10 -9.569787E-11
       195  13 -4.918158E+06 -7.289697E+05 -4.584635E+04 -1.899358E+06 -5.271467E-09 -1.794277E-09
       195  14 -4.930701E+06 -6.954568E+05 -7.969986E+04 -1.868445E+06  1.768195E-09  4.714314E-10
       195  15 -4.927726E+06 -7.945555E+05 -1.666765E+05 -1.874820E+06  6.568238E-10 -7.957487E-10
       195  16 -5.777857E+06 -1.044478E+06 -2.731489E+05 -2.124081E+06 -2.496612E-09 -1.177256E-09
       195  17 -5.867563E+06 -1.053521E+06 -3.297473E+05 -2.128087E+06  3.751940E-09 -4.811819E-10
       195  18 -5.942052E+06 -1.195515E+06 -4.405544E+05 -2.169371E+06 -2.165472E-09 -8.751096E-10
       195  19 -4.057738E+06 -4.134260E+05  1.813967E+05 -1.674355E+06 -4.498540E+04  1.379264E+04
       195  20 -3.992974E+06 -3.373312E+05  1.702849E+05 -1.608443E+06 -8.661498E+04  2.689666E+03
       195  21 -3.912374E+06 -3.935016E+05  1.071408E+05 -1.579817E+06 -1.271831E+05 -1.127480E+04
       195  22 -4.918156E+06 -7.289690E+05 -4.584254E+04 -1.899358E+06 -4.242774E+04  1.475366E+04
       195  23 -4.930694E+06 -6.954549E+05 -7.968606E+04 -1.868445E+06 -8.533667E+04  3.174398E+03
       195  24 -4.927708E+06 -7.945509E+05 -1.666456E+05 -1.874818E+06 -1.271777E+05 -1.126419E+04
       195  25 -5.777855E+06 -1.044478E+06 -2.731454E+05 -2.124082E+06 -3.987398E+04  1.571332E+04
       195  26 -5.867555E+06 -1.053519E+06 -3.297339E+05 -2.128087E+06 -8.406043E+04  3.658340E+03
       195  27 -5.942034E+06 -1.195510E+06 -4.405235E+05 -2.169370E+06 -1.271723E+05 -1.125352E+04
       196   1 -3.767082E+06 -3.305025E+05  9.703967E+04 -1.670275E+06  1.665589E+05  1.924832E+04
       196   2 -3.709744E+06 -1.289075E+05 -2.129741E+04 -1.517339E+06  3.384267E+05  8.168945E+04
       196   3 -3.917587E+06 -6.953462E+05 -4.686961E+05 -1.209385E+06  4.990590E+05  1.739117E+05
       196   4 -4.957575E+06 -7.057734E+05 -2.047302E+05 -1.919101E+06  1.583902E+05  1.618733E+04
       196   5 -4.866587E+06 -6.163267E+05 -3.380128E+05 -1.884869E+06  3.438810E+05  8.371114E+04
       196   6 -5.044086E+06 -1.298567E+06 -8.117104E+05 -1.695468E+06  5.181300E+05  1.809586E+05
       196   7 -6.146688E+06 -1.081053E+06 -5.066099E+05 -2.167541E+06  1.502385E+05  1.313031E+04
       196   8 -6.022113E+06 -1.103569E+06 -6.548503E+05 -2.251742E+06  3.493235E+05  8.572721E+04
       196   9 -6.169260E+06 -1.901277E+06 -1.154845E+06 -2.180619E+06  5.371620E+05  1.879769E+05
       196  10 -3.767112E+06 -3.305104E+05  9.698650E+04 -1.670278E+06 -3.021983E-09 -2.113153E-09
       196  11 -3.709870E+06 -1.289458E+05 -2.152676E+04 -1.517361E+06 -1.644735E-09  1.374238E-10
       196  12 -3.917864E+06 -6.954462E+05 -4.692246E+05 -1.209455E+06  7.120680E-10 -7.560452E-10
       196  13 -4.957602E+06 -7.057805E+05 -2.047782E+05 -1.919104E+06 -7.005514E-10 -2.618220E-10
       196  14 -4.866717E+06 -6.163664E+05 -3.382503E+05 -1.884892E+06 -3.958455E-09  2.710761E-09
       196  15 -5.044385E+06 -1.298676E+06 -8.122816E+05 -1.695544E+06  6.510450E-10 -3.185227E-10
       196  16 -6.146713E+06 -1.081059E+06 -5.066531E+05 -2.167542E+06 -2.090255E-10 -5.565969E-10
       196  17 -6.022248E+06 -1.103610E+06 -6.550961E+05 -2.251766E+06 -2.295122E-09  1.522710E-09
       196  18 -6.169582E+06 -1.901394E+06 -1.155461E+06 -2.180701E+06 -9.539970E-10 -2.314684E-10
       196  19 -3.767082E+06 -3.305025E+05  9.703967E+04 -1.670275E+06 -1.665589E+05 -1.924832E+04
       196  20 -3.709744E+06 -1.289075E+05 -2.129741E+04 -1.517339E+06 -3.384267E+05 -8.168945E+04
       196  21 -3.917587E+06 -6.953462E+05 -4.686961E+05 -1.209385E+06 -4.990590E+05 -1.739117E+05
       196  22 -4.957575E+06 -7.057734E+05 -2.047302E+05 -1.919101E+06 -1.583902E+05 -1.618733E+04
       196  23 -4.866587E+06 -6.163267E+05 -3.380128E+05 -1.884869E+06 -3.438810E+05 -8.371114E+04
       196  24 -5.044086E+06 -1.298567E+06 -8.117104E+05 -1.695468E+06 -5.181300E+05 -1.809586E+05
       196  25 -6.146688E+06 -1.081053E+06 -5.066099E+05 -2.167541E+06 -1.502385E+05 -1.313031E+04
       196  26 -6.022113E+06 -1.103569E+06 -6.548503E+05 -2.251742E+06 -3.493235E+05 -8.572721E+04
       196  27 -6.169260E+06 -1.901277E+06 -1.154845E+06 -2.180619E+06 -5.371620E+05 -1.879769E+05
       197   1 -6.606097E+05 -4.200204E+04  1.191726E+04  2.797978E+04  1.538770E+05  1.000294E+04
       197   2 -6.340611E+05 -2.493474E+05 -1.055724E+05  7.382010E+03  1.060570E+05  2.899568E+04
       197   3 -5.401082E+05 -2.168776E+05 -1.317171E+05 -5.788645E+04  5.829168E+04  2.714447E+04
       197   4  2.926840E+05  1.952689E+05  2.470680E+05 -3.134864E+04  1.689458E+05  1.003280E+04
       197   5  2.581351E+05 -2.823275E+04  1.080771E+05 -8.721621E+03  1.105478E+05  2.900129E+04
       197   6  2.927221E+05 -1.027496E+04  6.767751E+04 -3.075973E+04  5.221042E+04  2.713244E+04
       197   7  1.246813E+06  4.324859E+05  4.821544E+05 -9.076895E+04  1.840376E+05  1.005976E+04
       197   8  1.151062E+06  1.928252E+05  3.216705E+05 -2.484897E+04  1.150450E+05  2.900668E+04
       197   9  1.126190E+06  1.962801E+05  2.670236E+05 -3.596727E+03  4.612100E+04  2.711988E+04
       197  10 -6.606351E+05 -4.200851E+04  1.187253E+04  2.797854E+04 -4.386153E-11  1.219625E-09
       197  11 -6.340734E+05 -2.493513E+05 -1.055951E+05  7.379532E+03 -3.726336E-12 -6.742796E-10
       197  12 -5.401120E+05 -2.168793E+05 -1.317249E+05 -5.788773E+04 -1.725410E-09  1.314892E-10
       197  13  2.926534E+05  1.952611E+05  2.470142E+05 -3.135001E+04  8.388215E-10  3.778122E-10
       197  14  2.581217E+05 -2.823693E+04  1.080525E+05 -8.724203E+03 -2.638746E-09 -3.134050E-09
       197  15  2.927189E+05 -1.027648E+04  6.767101E+04 -3.076087E+04  7.505154E-10  1.893239E-10
       197  16  1.246777E+06  4.324767E+05  4.820907E+05 -9.077044E+04  5.892198E-10 -2.579790E-10
       197  17  1.151047E+06  1.928208E+05  3.216441E+05 -2.485165E+04 -2.637241E-09 -5.494642E-10
       197  18  1.126187E+06  1.962787E+05  2.670182E+05 -3.597734E+03  4.573305E-10 -8.562453E-10
       197  19 -6.606097E+05 -4.200204E+04  1.191726E+04  2.797978E+04 -1.538770E+05 -1.000294E+04
       197  20 -6.340611E+05 -2.493474E+05 -1.055724E+05  7.382010E+03 -1.060570E+05 -2.899568E+04
       197  21 -5.401082E+05 -2.168776E+05 -1.317171E+05 -5.788645E+04 -5.829168E+04 -2.714447E+04
       197  22  2.926840E+05  1.952689E+05  2.470680E+05 -3.134864E+04 -1.689458E+05 -1.003280E+04
       197  23  2.581351E+05 -2.823275E+04  1.080771E+05 -8.721621E+03 -1.105478E+05 -2.900129E+04
       197  24  2.927221E+05 -1.027496E+04  6.767751E+04 -3.075973E+04 -5.221042E+04 -2.713244E+04
       197  25  1.246813E+06  4.324859E+05  4.821544E+05 -9.076895E+04 -1.840376E+05 -1.005976E+04
       197  26  1.151062E+06  1.928252E+05  3.216705E+05 -2.484897E+04 -1.150450E+05 -2.900668E+04
       197  27  1.126190E+06  1.962801E+05  2.670236E+05 -3.596727E+03 -4.612100E+04 -2.711988E+04
       198   1 -4.736926E+05 -1.664584E+05 -1.256465E+05 -2.596639E+04  4.168186E+04  2.274646E+04
       198   2 -4.192082E+05 -1.752802E+05 -1.383481E+05 -8.044371E+03  2.810467E+04  2.192138E+04
       198   3 -3.559111E+05 -1.587082E+05 -1.357109E+05 -3.407105E+04  1.452583E+04  1.955839E+04
       198   4  2.793738E+05  2.032303E+04  5.519809E+04 -3.079645E+04  4.169938E+04  2.274429E+04
       198   5  2.749146E+05 -3.169348E+03  2.801849E+04 -8.807074E+03  2.733182E+04  2.191869E+04
       198   6  2.793928E+05 -1.146390E+03  1.671349E+04 -3.076300E+04  1.296391E+04  1.955577E+04
       198   7  1.032960E+06  2.070633E+05  2.360024E+05 -3.563260E+04  4.171690E+04  2.274212E+04
       198   8  9.694789E+05  1.689066E+05  1.943510E+05 -9.570774E+03  2.655810E+04  2.191600E+04
       198   9  9.150664E+05  1.563862E+05  1.691093E+05 -2.745163E+04  1.140039E+04  1.955314E+04
       198  10 -4.736946E+05 -1.664594E+05 -1.256508E+05 -2.596716E+04 -1.082892E-09 -9.919079E-10
       198  11 -4.192091E+05 -1.752810E+05 -1.383505E+05 -8.044867E+03 -1.293104E-09  1.113794E-09
       198  12 -3.559115E+05 -1.587087E+05 -1.357120E+05 -3.407127E+04 -1.342779E-09 -2.462043E-10
       198  13  2.793718E+05  2.032201E+04  5.519385E+04 -3.079721E+04  4.673634E-10 -5.303125E-10
       198  14  2.749137E+05 -3.170064E+03  2.801618E+04 -8.807556E+03 -1.796367E-09 -2.838042E-10
       198  15  2.793925E+05 -1.146846E+03  1.671246E+04 -3.076320E+04  1.316383E-10 -2.579585E-10
       198  16  1.032958E+06  2.070623E+05  2.359982E+05 -3.563336E+04  2.365236E-09  4.775063E-10
       198  17  9.694780E+05  1.689059E+05  1.943488E+05 -9.571242E+03  6.009416E-10 -1.946474E-09
       198  18  9.150662E+05  1.563857E+05  1.691083E+05 -2.745181E+04  2.638917E-09  7.419483E-10
       198  19 -4.736926E+05 -1.664584E+05 -1.256465E+05 -2.596639E+04 -4.168186E+04 -2.274646E+04
       198  20 -4.192082E+05 -1.752802E+05 -1.383481E+05 -8.044371E+03 -2.810467E+04 -2.192138E+04
       198  21 -3.559111E+05 -1.587082E+05 -1.357109E+05 -3.407105E+04 -1.452583E+04 -1.955839E+04
       198  22  2.793738E+05  2.032303E+04  5.519809E+04 -3.079645E+04 -4.169938E+04 -2.274429E+04
       198  23  2.749146E+05 -3.169348E+03  2.801849E+04 -8.807074E+03 -2.733182E+04 -2.191869E+04
       198  24  2.793928E+05 -1.146390E+03  1.671349E+04 -3.076300E+04 -1.296391E+04 -1.955577E+04
       198  25  1.032960E+06  2.070633E+05  2.360024E+05 -3.563260E+04 -4.171690E+04 -2.274212E+04
       198  26  9.694789E+05  1.689066E+05  1.943510E+05 -9.570774E+03 -2.655810E+04 -2.191600E+04
       198  27  9.150664E+05  1.563862E+05  1.691093E+05 -2.745163E+04 -1.140039E+04 -1.955314E+04
       199   1 -2.788104E+05 -1.359659E+05 -1.201975E+05 -3.051816E+04  1.143335E+04  1.794538E+04
       199   2 -2.213758E+05 -1.239708E+05 -1.123668E+05 -9.047674E+03  7.932129E+03  1.568451E+04
       199   3 -1.624903E+05 -1.093125E+05 -1.015211E+05 -3.102028E+04  4.428119E+03  1.331858E+04
       199   4  2.777558E+05  2.001750E+03  1.306114E+04 -3.066149E+04  1.032802E+04  1.794357E+04
       199   5  2.770339E+05 -3.982982E+02  7.088875E+03 -8.940444E+03  6.770939E+03  1.568323E+04
       199   6  2.777675E+05 -1.266549E+02  4.168357E+03 -3.066030E+04  3.211388E+03  1.331788E+04
       199   7  8.346059E+05  1.399469E+05  1.462979E+05 -3.080499E+04  9.221706E+03  1.794176E+04
       199   8  7.756712E+05  1.231562E+05  1.265270E+05 -8.833146E+03  5.608819E+03  1.568195E+04
       199   9  7.182027E+05  1.090451E+05  1.098441E+05 -3.030007E+04  1.993796E+03  1.331718E+04
       199  10 -2.788106E+05 -1.359663E+05 -1.201983E+05 -3.051833E+04 -8.522698E-10  2.557480E-10
       199  11 -2.213759E+05 -1.239711E+05 -1.123674E+05 -9.047775E+03  7.594206E-11 -4.907822E-10
       199  12 -1.624904E+05 -1.093127E+05 -1.015215E+05 -3.102032E+04 -3.573454E-10 -2.091804E-10
       199  13  2.777556E+05  2.001376E+03  1.306033E+04 -3.066164E+04 -8.856730E-10  1.490780E-12
       199  14  2.770338E+05 -3.985746E+02  7.088327E+03 -8.940529E+03 -1.623081E-09 -5.792212E-10
       199  15  2.777674E+05 -1.268481E+02  4.168004E+03 -3.066034E+04  7.713689E-10 -1.286414E-10
       199  16  8.346057E+05  1.399466E+05  1.462971E+05 -3.080512E+04  2.937440E-10  2.292794E-10
       199  17  7.756711E+05  1.231559E+05  1.265265E+05 -8.833217E+03 -1.711108E-09 -1.001792E-09
       199  18  7.182027E+05  1.090449E+05  1.098438E+05 -3.030009E+04  2.631033E-10 -2.344719E-10
       199  19 -2.788104E+05 -1.359659E+05 -1.201975E+05 -3.051816E+04 -1.143335E+04 -1.794538E+04
       199  20 -2.213758E+05 -1.239708E+05 -1.123668E+05 -9.047674E+03 -7.932129E+03 -1.568451E+04
       199  21 -1.624903E+05 -1.093125E+05 -1.015211E+05 -3.102028E+04 -4.428119E+03 -1.331858E+04
       199  22  2.777558E+05  2.001750E+03  1.306114E+04 -3.066149E+04 -1.032802E+04 -1.794357E+04
       199  23  2.770339E+05 -3.982982E+02  7.088875E+03 -8.940444E+03 -6.770939E+03 -1.568323E+04
       199  24  2.777675E+05 -1.266549E+02  4.168357E+03 -3.066030E+04 -3.211388E+03 -1.331788E+04
       199  25  8.346059E+05  1.399469E+05  1.462979E+05 -3.080499E+04 -9.221706E+03 -1.794176E+04
       199  26  7.756712E+05  1.231562E+05  1.265270E+05 -8.833146E+03 -5.608819E+03 -1.568195E+04
       199  27  7.182027E+05  1.090451E+05  1.098441E+05 -3.030007E+04 -1.993796E+03 -1.331718E+04
       200   1 -8.477502E+04 -8.961140E+04 -8.345045E+04 -3.056785E+04  3.729735E+03  1.192769E+04
       200   2 -2.721979E+04 -7.556858E+04 -7.117740E+04 -9.012781E+03  2.825327E+03  9.580329E+03
       200   3  3.061268E+04 -6.122866E+04 -5.822413E+04 -3.054014E+04  1.919311E+03  7.230939E+03
       200   4  2.775225E+05  1.720696E+02  3.201802E+03 -3.058067E+04  2.548221E+03  1.192731E+04
       200   5  2.773887E+05 -5.468270E+01  1.821419E+03 -9.040117E+03  1.642258E+03  9.580301E+03
       200   6  2.775292E+05  1.605274E+01  1.122209E+03 -3.058069E+04  7.347721E+02  7.231270E+03
       200   7  6.399402E+05  8.994604E+04  8.984479E+04 -3.059348E+04  1.366019E+03  1.192694E+04
       200   8  5.820821E+05  7.545249E+04  7.481367E+04 -9.067461E+03  4.586113E+02  9.580273E+03
       200   9  5.245015E+05  6.125633E+04  6.046422E+04 -3.062125E+04 -4.502364E+02  7.231601E+03
       200  10 -8.477507E+04 -8.961156E+04 -8.345074E+04 -3.056789E+04  1.519565E-10  1.644334E-10
       200  11 -2.721983E+04 -7.556868E+04 -7.117758E+04 -9.012803E+03  2.923937E-11  3.031062E-10
       200  12  3.061266E+04 -6.122872E+04 -5.822424E+04 -3.054016E+04 -4.757351E-10  4.134481E-10
       200  13  2.775224E+05  1.719151E+02  3.201523E+03 -3.058069E+04  9.778070E-10  3.524938E-10
       200  14  2.773887E+05 -5.478200E+01  1.821242E+03 -9.040130E+03 -3.154895E-09 -1.017356E-10
       200  15  2.775292E+05  1.599643E+01  1.122109E+03 -3.058070E+04 -3.953511E-09 -2.050286E-10
       200  16  6.399402E+05  8.994588E+04  8.984452E+04 -3.059350E+04  5.753598E-10  3.066694E-10
       200  17  5.820821E+05  7.545239E+04  7.481350E+04 -9.067464E+03 -6.284487E-10 -1.447771E-11
       200  18  5.245015E+05  6.125628E+04  6.046412E+04 -3.062125E+04 -2.317592E-10 -5.016277E-10
       200  19 -8.477502E+04 -8.961140E+04 -8.345045E+04 -3.056785E+04 -3.729735E+03 -1.192769E+04
       200  20 -2.721979E+04 -7.556858E+04 -7.117740E+04 -9.012781E+03 -2.825327E+03 -9.580329E+03
       200  21  3.061268E+04 -6.122866E+04 -5.822413E+04 -3.054014E+04 -1.919311E+03 -7.230939E+03
       200  22  2.775225E+05  1.720696E+02  3.201802E+03 -3.058067E+04 -2.548221E+03 -1.192731E+04
       200  23  2.773887E+05 -5.468270E+01  1.821419E+03 -9.040117E+03 -1.642258E+03 -9.580301E+03
       200  24  2.775292E+05  1.605274E+01  1.122209E+03 -3.058069E+04 -7.347721E+02 -7.231270E+03
       200  25  6.399402E+05  8.994604E+04  8.984479E+04 -3.059348E+04 -1.366019E+03 -1.192694E+04
       200  26  5.820821E+05  7.545249E+04  7.481367E+04 -9.067461E+03 -4.586113E+02 -9.580273E+03
       200  27  5.245015E+05  6.125633E+04  6.046422E+04 -3.062125E+04  4.502364E+02 -7.231601E+03
       201   1  1.080503E+05 -4.193240E+04 -3.952620E+04 -3.048465E+04  1.733570E+03  5.863769E+03
       201   2  1.654929E+05 -2.775782E+04 -2.618431E+04 -9.053374E+03  1.408119E+03  3.520753E+03
       201   3  2.229611E+05 -1.348850E+04 -1.261668E+04 -3.051764E+04  1.082088E+03  1.184262E+03
       201   4  2.774823E+05  3.204549E+01  8.987224E+02 -3.053934E+04  5.508640E+02  5.864268E+03
       201   5  2.774721E+05 -8.372517E-01  6.482446E+02 -9.091803E+03  2.285905E+02  3.521374E+03
       201   6  2.774848E+05  6.090532E+01  6.216573E+02 -3.053932E+04 -9.423307E+01  1.185016E+03
       201   7  4.469407E+05  4.199442E+04  4.132164E+04 -3.059404E+04 -6.321634E+02  5.864768E+03
       201   8  3.894629E+05  2.775524E+04  2.747991E+04 -9.130238E+03 -9.511498E+02  3.521994E+03
       201   9  3.320111E+05  1.361009E+04  1.385978E+04 -3.056101E+04 -1.270657E+03  1.185770E+03
       201  10  1.080503E+05 -4.193244E+04 -3.952627E+04 -3.048465E+04 -5.493749E-10  2.014051E-10
       201  11  1.654929E+05 -2.775784E+04 -2.618433E+04 -9.053378E+03  1.508109E-10 -2.900194E-10
       201  12  2.229611E+05 -1.348850E+04 -1.261668E+04 -3.051764E+04 -1.128845E-09 -7.599389E-10
       201  13  2.774823E+05  3.200847E+01  8.986572E+02 -3.053934E+04 -2.173903E-10  6.587473E-10
       201  14  2.774721E+05 -8.505830E-01  6.482212E+02 -9.091804E+03 -5.646064E-10  5.245562E-10
       201  15  2.774848E+05  6.090380E+01  6.216546E+02 -3.053932E+04 -1.293727E-09 -1.684673E-09
       201  16  4.469407E+05  4.199438E+04  4.132157E+04 -3.059404E+04 -5.135542E-10  2.046372E-11
       201  17  3.894628E+05  2.775523E+04  2.747989E+04 -9.130235E+03  1.519545E-09  4.526192E-10
       201  18  3.320111E+05  1.361009E+04  1.385978E+04 -3.056101E+04  1.044237E-09 -9.769473E-10
       201  19  1.080503E+05 -4.193240E+04 -3.952620E+04 -3.048465E+04 -1.733570E+03 -5.863769E+03
       201  20  1.654929E+05 -2.775782E+04 -2.618431E+04 -9.053374E+03 -1.408119E+03 -3.520753E+03
       201  21  2.229611E+05 -1.348850E+04 -1.261668E+04 -3.051764E+04 -1.082088E+03 -1.184262E+03
       201  22  2.774823E+05  3.204549E+01  8.987224E+02 -3.053934E+04 -5.508640E+02 -5.864268E+03
       201  23  2.774721E+05 -8.372517E-01  6.482446E+02 -9.091803E+03 -2.285905E+02 -3.521374E+03
       201  24  2.774848E+05  6.090532E+01  6.216573E+02 -3.053932E+04  9.423307E+01 -1.185016E+03
       201  25  4.469407E+05  4.199442E+04  4.132164E+04 -3.059404E+04  6.321634E+02 -5.864768E+03
       201  26  3.894629E+05  2.775524E+04  2.747991E+04 -9.130238E+03  9.511498E+02 -3.521994E+03
       201  27  3.320111E+05  1.361009E+04  1.385978E+04 -3.056101E+04  1.270657E+03 -1.185770E+03
       202   1  3.002988E+05  5.710681E+03  6.306189E+03 -3.051396E+04  9.836306E+02 -1.870939E+02
       202   2  3.576914E+05  1.985766E+04  2.015069E+04 -9.137816E+03  4.855968E+02 -2.525563E+03
       202   3  4.151889E+05  3.435883E+04  3.439604E+04 -3.064103E+04 -1.205905E+01 -4.799572E+03
       202   4  2.775016E+05  2.549465E+01  6.699106E+02 -3.053596E+04 -2.118133E+02 -1.863150E+02
       202   5  2.774530E+05 -2.910153E+01  9.268558E+02 -9.096047E+03 -6.773507E+02 -2.524903E+03
       202   6  2.774998E+05  2.649005E+02  1.562111E+03 -3.053583E+04 -1.142464E+03 -4.799015E+03
       202   7  2.547049E+05 -5.659730E+03 -4.966401E+03 -3.055797E+04 -1.407213E+03 -1.855359E+02
       202   8  1.972205E+05 -1.991633E+04 -1.829743E+04 -9.054283E+03 -1.840149E+03 -2.524242E+03
       202   9  1.398280E+05 -3.383039E+04 -3.127314E+04 -3.043064E+04 -2.272620E+03 -4.798458E+03
       202  10  3.002988E+05  5.710681E+03  6.306187E+03 -3.051396E+04 -5.083186E-10  2.860870E-10
       202  11  3.576914E+05  1.985765E+04  2.015068E+04 -9.137815E+03 -3.706614E-10  5.406607E-10
       202  12  4.151889E+05  3.435880E+04  3.439600E+04 -3.064103E+04 -9.271357E-10  3.130493E-10
       202  13  2.775016E+05  2.549460E+01  6.699104E+02 -3.053596E+04 -3.286508E-09 -9.737556E-10
       202  14  2.774530E+05 -2.910850E+01  9.268429E+02 -9.096048E+03 -1.391999E-09 -1.271625E-10
       202  15  2.774998E+05  2.648754E+02  1.562066E+03 -3.053583E+04 -1.969737E-09  4.041320E-10
       202  16  2.547049E+05 -5.659731E+03 -4.966405E+03 -3.055797E+04  1.454500E-09 -5.414878E-11
       202  17  1.972205E+05 -1.991633E+04 -1.829745E+04 -9.054286E+03 -9.799772E-10 -6.938515E-11
       202  18  1.398280E+05 -3.383042E+04 -3.127320E+04 -3.043065E+04  1.054488E-09 -1.084931E-10
       202  19  3.002988E+05  5.710681E+03  6.306189E+03 -3.051396E+04 -9.836306E+02  1.870939E+02
       202  20  3.576914E+05  1.985766E+04  2.015069E+04 -9.137816E+03 -4.855968E+02  2.525563E+03
       202  21  4.151889E+05  3.435883E+04  3.439604E+04 -3.064103E+04  1.205905E+01  4.799572E+03
       202  22  2.775016E+05  2.549465E+01  6.699106E+02 -3.053596E+04  2.118133E+02  1.863150E+02
       202  23  2.774530E+05 -2.910153E+01  9.268558E+02 -9.096047E+03  6.773507E+02  2.524903E+03
       202  24  2.774998E+05  2.649005E+02  1.562111E+03 -3.053583E+04  1.142464E+03  4.799015E+03
       202  25  2.547049E+05 -5.659730E+03 -4.966401E+03 -3.055797E+04  1.407213E+03  1.855359E+02
       202  26  1.972205E+05 -1.991633E+04 -1.829743E+04 -9.054283E+03  1.840149E+03  2.524242E+03
       202  27  1.398280E+05 -3.383039E+04 -3.127314E+04 -3.043064E+04  2.272620E+03  4.798458E+03
       203   1  4.928516E+05  5.325969E+04  5.367146E+04 -3.031620E+04 -6.656427E+01 -6.288743E+03
       203   2  5.499768E+05  6.724158E+04  6.858496E+04 -9.285792E+03 -2.175496E+03 -8.604620E+03
       203   3  6.081922E+05  8.426336E+04  8.564049E+04 -3.126941E+04 -4.283187E+03 -1.004039E+04
       203   4  2.776956E+05 -9.268482E+01  1.969650E+03 -3.056621E+04 -1.456544E+03 -6.288199E+03
       203   5  2.771871E+05 -3.590590E+02  3.243454E+03 -9.058373E+03 -3.120967E+03 -8.604575E+03
       203   6  2.776892E+05  2.338321E+03  6.351628E+03 -3.056569E+04 -4.783955E+03 -1.004066E+04
       203   7  6.258195E+04 -5.344843E+04 -4.973544E+04 -3.081613E+04 -2.846045E+03 -6.287655E+03
       203   8  4.465474E+03 -6.796509E+04 -6.210331E+04 -8.831049E+03 -4.066024E+03 -8.604530E+03
       203   9 -5.271385E+04 -7.959464E+04 -7.294498E+04 -2.986235E+04 -5.284457E+03 -1.004094E+04
       203  10  4.928516E+05  5.325965E+04  5.367138E+04 -3.031620E+04 -7.576940E-09 -6.889929E-10
       203  11  5.499767E+05  6.724150E+04  6.858481E+04 -9.285807E+03  3.495982E-10 -4.927149E-10
       203  12  6.081922E+05  8.426324E+04  8.564027E+04 -3.126945E+04  6.318392E-09 -1.179085E-09
       203  13  2.776956E+05 -9.272786E+01  1.969571E+03 -3.056622E+04  9.701501E-10 -2.799526E-10
       203  14  2.771870E+05 -3.591411E+02  3.243296E+03 -9.058395E+03  1.704244E-09 -5.228703E-10
       203  15  2.776892E+05  2.338206E+03  6.351395E+03 -3.056573E+04  1.641249E-09 -9.611357E-10
       203  16  6.258193E+04 -5.344847E+04 -4.973553E+04 -3.081614E+04  6.616101E-09 -2.059300E-10
       203  17  4.465436E+03 -6.796517E+04 -6.210348E+04 -8.831077E+03 -3.878334E-09 -1.213460E-10
       203  18 -5.271391E+04 -7.959476E+04 -7.294522E+04 -2.986239E+04 -7.506181E-09 -6.714317E-10
       203  19  4.928516E+05  5.325969E+04  5.367146E+04 -3.031620E+04  6.656427E+01  6.288743E+03
       203  20  5.499768E+05  6.724158E+04  6.858496E+04 -9.285792E+03  2.175496E+03  8.604620E+03
       203  21  6.081922E+05  8.426336E+04  8.564049E+04 -3.126941E+04  4.283187E+03  1.004039E+04
       203  22  2.776956E+05 -9.268482E+01  1.969650E+03 -3.056621E+04  1.456544E+03  6.288199E+03
       203  23  2.771871E+05 -3.590590E+02  3.243454E+03 -9.058373E+03  3.120967E+03  8.604575E+03
       203  24  2.776892E+05  2.338321E+03  6.351628E+03 -3.056569E+04  4.783955E+03  1.004066E+04
       203  25  6.258195E+04 -5.344843E+04 -4.973544E+04 -3.081613E+04  2.846045E+03  6.287655E+03
       203  26  4.465474E+03 -6.796509E+04 -6.210331E+04 -8.831049E+03  4.066024E+03  8.604530E+03
       203  27 -5.271385E+04 -7.959464E+04 -7.294498E+04 -2.986235E+04  5.284457E+03  1.004094E+04
       204   1  6.877368E+05  1.000370E+05  1.055588E+05 -2.761008E+04 -2.024222E+03 -1.308829E+04
       204   2  7.414074E+05  1.122242E+05  1.239483E+05 -1.099987E+04 -1.470762E+04 -1.503804E+04
       204   3  8.042025E+05  1.532142E+05  1.578446E+05 -3.745317E+04 -2.739704E+04 -5.129227E+03
       204   4  2.792471E+05 -1.169501E+03  7.788238E+03 -3.057447E+04 -5.995881E+03 -1.308870E+04
       204   5  2.751953E+05 -3.272599E+03  1.239771E+04 -9.047085E+03 -1.269213E+04 -1.503831E+04
       204   6  2.792339E+05  2.240030E+04  2.836594E+04 -3.058476E+04 -1.939322E+04 -5.125632E+03
       204   7 -1.290897E+05 -1.023880E+05 -8.999404E+04 -3.353690E+04 -9.964938E+03 -1.308907E+04
       204   8 -1.908177E+05 -1.187851E+05 -9.916826E+04 -7.095786E+03 -1.067815E+04 -1.503857E+04
       204   9 -2.454843E+05 -1.084340E+05 -1.011329E+05 -2.372218E+04 -1.139614E+04 -5.121859E+03
       204  10  6.877367E+05  1.000368E+05  1.055585E+05 -2.761010E+04  8.648936E-10 -7.519617E-10
       204  11  7.414071E+05  1.122239E+05  1.239475E+05 -1.100004E+04  1.332007E-09  7.918589E-10
       204  12  8.042017E+05  1.532140E+05  1.578432E+05 -3.745329E+04  4.217284E-10  7.527973E-10
       204  13  2.792471E+05 -1.169695E+03  7.787849E+03 -3.057453E+04 -1.276712E-09 -3.532425E-10
       204  14  2.751951E+05 -3.272886E+03  1.239698E+04 -9.047239E+03 -1.118212E-09  9.182727E-10
       204  15  2.792334E+05  2.240017E+04  2.836518E+04 -3.058484E+04  1.812616E-09  2.516176E-10
       204  16 -1.290898E+05 -1.023882E+05 -8.999455E+04 -3.353700E+04 -9.796376E-10 -2.724799E-10
       204  17 -1.908179E+05 -1.187854E+05 -9.916890E+04 -7.095915E+03 -2.775342E-09  8.067603E-10
       204  18 -2.454844E+05 -1.084340E+05 -1.011332E+05 -2.372223E+04 -1.865558E-10  8.763299E-10
       204  19  6.877368E+05  1.000370E+05  1.055588E+05 -2.761008E+04  2.024222E+03  1.308829E+04
       204  20  7.414074E+05  1.122242E+05  1.239483E+05 -1.099987E+04  1.470762E+04  1.503804E+04
       204  21  8.042025E+05  1.532142E+05  1.578446E+05 -3.745317E+04  2.739704E+04  5.129227E+03
       204  22  2.792471E+05 -1.169501E+03  7.788238E+03 -3.057447E+04  5.995881E+03  1.308870E+04
       204  23  2.751953E+05 -3.272599E+03  1.239771E+04 -9.047085E+03  1.269213E+04  1.503831E+04
       204  24  2.792339E+05  2.240030E+04  2.836594E+04 -3.058476E+04  1.939322E+04  5.125632E+03
       204  25 -1.290897E+05 -1.023880E+05 -8.999404E+04 -3.353690E+04  9.964938E+03  1.308907E+04
       204  26 -1.908177E+05 -1.187851E+05 -9.916826E+04 -7.095786E+03  1.067815E+04  1.503857E+04
       204  27 -2.454843E+05 -1.084340E+05 -1.011329E+05 -2.372218E+04  1.139614E+04  5.121859E+03
       205   1  8.115017E+05  2.436513E+06  7.824481E+05 -8.723344E+05  2.999825E+04  2.415226E+05
       205   2  5.513927E+05  1.692476E+06  4.802720E+05 -7.716951E+05  9.312868E+04  8.495213E+04
       205   3  3.591564E+05  9.853767E+05  2.966576E+05 -8.125952E+05  8.714183E+04 -7.164593E+04
       205   4  8.834892E+04 -4.879031E+05  9.053744E+04 -8.083934E+05  3.089942E+04  5.710427E+04
       205   5  2.786857E+04 -4.942790E+05  4.943187E+04 -7.378056E+05  9.342387E+04  3.212782E+04
       205   6  1.262467E+04 -4.868845E+05  3.579930E+04 -8.087522E+05  8.673361E+04  6.933517E+03
       205   7 -6.353858E+05 -3.404397E+06 -6.018378E+05 -7.447405E+05  3.176531E+04 -1.264530E+05
       205   8 -4.959404E+05 -2.676454E+06 -3.816309E+05 -7.040297E+05  9.371396E+04 -2.051488E+04
       205   9 -3.340230E+05 -1.957016E+06 -2.251164E+05 -8.049147E+05  8.632575E+04  8.533224E+04
       205  10  8.114851E+05  2.436450E+06  7.823371E+05 -8.723403E+05 -1.543502E-10  1.385395E-09
       205  11  5.513814E+05  1.692466E+06  4.802421E+05 -7.717015E+05 -1.510413E-09 -5.619348E-09
       205  12  3.591469E+05  9.853692E+05  2.966338E+05 -8.125902E+05  7.302124E-10 -2.272708E-09
       205  13  8.834701E+04 -4.879068E+05  9.052951E+04 -8.083948E+05  2.724466E-09  3.542156E-09
       205  14  2.785892E+04 -4.942825E+05  4.941352E+04 -7.378080E+05  1.420626E-09  1.979039E-09
       205  15  1.261658E+04 -4.868866E+05  3.578507E+04 -8.087527E+05  2.343428E-09  2.797128E-09
       205  16 -6.353912E+05 -3.404414E+06 -6.018699E+05 -7.447372E+05 -1.198657E-09 -3.145898E-10
       205  17 -4.959499E+05 -2.676456E+06 -3.816482E+05 -7.040281E+05  5.304474E-09  5.419027E-09
       205  18 -3.340330E+05 -1.957026E+06 -2.251441E+05 -8.049206E+05 -1.939747E-09  5.076097E-10
       205  19  8.115017E+05  2.436513E+06  7.824481E+05 -8.723344E+05 -2.999825E+04 -2.415226E+05
       205  20  5.513927E+05  1.692476E+06  4.802720E+05 -7.716951E+05 -9.312868E+04 -8.495213E+04
       205  21  3.591564E+05  9.853767E+05  2.966576E+05 -8.125952E+05 -8.714183E+04  7.164593E+04
       205  22  8.834892E+04 -4.879031E+05  9.053744E+04 -8.083934E+05 -3.089942E+04 -5.710427E+04
       205  23  2.786857E+04 -4.942790E+05  4.943187E+04 -7.378056E+05 -9.342387E+04 -3.212782E+04
       205  24  1.262467E+04 -4.868845E+05  3.579930E+04 -8.087522E+05 -8.673361E+04 -6.933517E+03
       205  25 -6.353858E+05 -3.404397E+06 -6.018378E+05 -7.447405E+05 -3.176531E+04  1.264530E+05
       205  26 -4.959404E+05 -2.676454E+06 -3.816309E+05 -7.040297E+05 -9.371396E+04  2.051488E+04
       205  27 -3.340230E+05 -1.957016E+06 -2.251164E+05 -8.049147E+05 -8.632575E+04 -8.533224E+04
       206   1  2.492070E+05  5.168421E+05  2.111209E+05 -8.174245E+05  6.072998E+04 -7.376282E+04
       206   2  7.618925E+04 -2.104557E+05  8.421738E+04 -7.362367E+05  2.065352E+04 -9.581789E+04
       206   3 -8.414164E+04 -9.326246E+05 -2.557564E+04 -8.010622E+05 -2.071217E+04 -1.178624E+05
       206   4  1.262974E+04 -4.887976E+05  3.416607E+04 -8.097194E+05  6.032206E+04  1.251065E+03
       206   5  1.105321E+04 -4.908187E+05  3.892868E+04 -7.366917E+05  2.022609E+04 -1.839063E+04
       206   6  2.176665E+04 -4.886566E+05  5.911518E+04 -8.096726E+05 -2.115976E+04 -3.804571E+04
       206   7 -2.239997E+05 -1.493436E+06 -1.428044E+05 -8.020252E+05  5.991559E+04  7.614710E+04
       206   8 -5.408359E+04 -7.710908E+05 -6.339632E+03 -7.371463E+05  1.979841E+04  5.900290E+04
       206   9  1.276670E+05 -4.448461E+04  1.438211E+05 -8.182890E+05 -2.160937E+04  4.182676E+04
       206  10  2.492016E+05  5.168353E+05  2.111038E+05 -8.174209E+05  6.563101E-10  5.984698E-09
       206  11  7.618633E+04 -2.104657E+05  8.419933E+04 -7.362351E+05  1.208712E-09 -5.987469E-09
       206  12 -8.414584E+04 -9.326396E+05 -2.560261E+04 -8.010642E+05 -7.425166E-10 -6.518294E-09
       206  13  1.262583E+04 -4.887986E+05  3.415923E+04 -8.097194E+05  5.943840E-10  4.936976E-09
       206  14  1.105268E+04 -4.908192E+05  3.892727E+04 -7.366914E+05 -2.811541E-09  2.868518E-09
       206  15  2.176578E+04 -4.886583E+05  5.911161E+04 -8.096733E+05 -1.696476E-09  3.200044E-09
       206  16 -2.240051E+05 -1.493443E+06 -1.428221E+05 -8.020289E+05  2.170411E-10 -4.784749E-09
       206  17 -5.408495E+04 -7.710946E+05 -6.346926E+03 -7.371473E+05 -8.871865E-10  5.692737E-09
       206  18  1.276660E+05 -4.448661E+04  1.438169E+05 -8.182883E+05  1.788720E-10  5.224780E-09
       206  19  2.492070E+05  5.168421E+05  2.111209E+05 -8.174245E+05 -6.072998E+04  7.376282E+04
       206  20  7.618925E+04 -2.104557E+05  8.421738E+04 -7.362367E+05 -2.065352E+04  9.581789E+04
       206  21 -8.414164E+04 -9.326246E+05 -2.557564E+04 -8.010622E+05  2.071217E+04  1.178624E+05
       206  22  1.262974E+04 -4.887976E+05  3.416607E+04 -8.097194E+05 -6.032206E+04 -1.251065E+03
       206  23  1.105321E+04 -4.908187E+05  3.892868E+04 -7.366917E+05 -2.022609E+04  1.839063E+04
       206  24  2.176665E+04 -4.886566E+05  5.911518E+04 -8.096726E+05  2.115976E+04  3.804571E+04
       206  25 -2.239997E+05 -1.493436E+06 -1.428044E+05 -8.020252E+05 -5.991559E+04 -7.614710E+04
       206  26 -5.408359E+04 -7.710908E+05 -6.339632E+03 -7.371463E+05 -1.979841E+04 -5.900290E+04
       206  27  1.276670E+05 -4.448461E+04  1.438211E+05 -8.182890E+05  2.160937E+04 -4.182676E+04
       207   1 -1.931205E+05 -1.390003E+06 -9.210547E+04 -8.121947E+05 -4.805670E+04 -1.307797E+05
       207   2 -3.198426E+05 -2.124328E+06 -1.951405E+05 -6.560959E+05 -6.360830E+04 -9.132887E+04
       207   3 -3.361958E+05 -2.836674E+06 -2.965897E+05 -6.424032E+05 -2.244589E+04 -5.172033E+04
       207   4  2.230997E+04 -4.808213E+05  7.517323E+04 -8.089524E+05 -4.851217E+04 -4.824707E+04
       207   5  7.171638E+04 -5.011686E+05  1.323253E+05 -7.372543E+05 -6.345349E+04 -1.161680E+05
       207   6  2.499737E+05 -4.815351E+05  2.656285E+05 -8.078448E+05 -2.175980E+04 -1.838907E+05
       207   7  2.376971E+05  4.291793E+05  2.424436E+05 -8.057037E+05 -4.896635E+04  3.440349E+04
       207   8  4.631353E+05  1.124522E+06  4.596610E+05 -8.186251E+05 -6.329242E+04 -1.410708E+05
       207   9  8.358488E+05  1.878800E+06  8.275353E+05 -9.739102E+05 -2.100465E+04 -3.165608E+05
       207  10 -1.931276E+05 -1.390022E+06 -9.214206E+04 -8.121998E+05  9.916743E-10  4.040450E-09
       207  11 -3.198492E+05 -2.124338E+06 -1.951638E+05 -6.561006E+05  2.852244E-09 -4.002824E-09
       207  12 -3.361970E+05 -2.836677E+06 -2.965957E+05 -6.424041E+05  3.685174E-10 -2.281382E-09
       207  13  2.230682E+04 -4.808244E+05  7.516442E+04 -8.089543E+05  1.223994E-09  4.786468E-09
       207  14  7.170842E+04 -5.011842E+05  1.322923E+05 -7.372603E+05 -3.351406E-09  2.742557E-09
       207  15  2.499641E+05 -4.815715E+05  2.655640E+05 -8.078481E+05  1.613350E-09  2.631370E-09
       207  16  2.376942E+05  4.291774E+05  2.424369E+05 -8.057024E+05 -1.646012E-09 -2.147932E-09
       207  17  4.631256E+05  1.124500E+06  4.596160E+05 -8.186323E+05  2.848152E-09  2.954801E-09
       207  18  8.358215E+05  1.878693E+06  8.273466E+05 -9.739156E+05  2.065938E-09  7.071528E-10
       207  19 -1.931205E+05 -1.390003E+06 -9.210547E+04 -8.121947E+05  4.805670E+04  1.307797E+05
       207  20 -3.198426E+05 -2.124328E+06 -1.951405E+05 -6.560959E+05  6.360830E+04  9.132887E+04
       207  21 -3.361958E+05 -2.836674E+06 -2.965897E+05 -6.424032E+05  2.244589E+04  5.172033E+04
       207  22  2.230997E+04 -4.808213E+05  7.517323E+04 -8.089524E+05  4.851217E+04  4.824707E+04
       207  23  7.171638E+04 -5.011686E+05  1.323253E+05 -7.372543E+05  6.345349E+04  1.161680E+05
       207  24  2.499737E+05 -4.815351E+05  2.656285E+05 -8.078448E+05  2.175980E+04  1.838907E+05
       207  25  2.376971E+05  4.291793E+05  2.424436E+05 -8.057037E+05  4.896635E+04 -3.440349E+04
       207  26  4.631353E+05  1.124522E+06  4.596610E+05 -8.186251E+05  6.329242E+04  1.410708E+05
       207  27  8.358488E+05  1.878800E+06  8.275353E+05 -9.739102E+05  2.100465E+04  3.165608E+05
       208   1 -3.070819E+06 -1.161443E+06 -6.242542E+05 -1.100611E+06 -2.010096E+05 -3.042911E+04
       208   2 -2.871190E+06 -1.097175E+06 -4.754970E+05 -1.037526E+06 -1.322371E+05  1.027432E+05
       208   3 -2.653998E+06 -1.054634E+06 -4.022191E+05 -1.012725E+06 -3.791976E+04  1.686509E+05
       208   4 -3.803337E+05 -1.803272E+05  6.090445E+04 -3.938721E+05  2.430472E+04  5.477169E+04
       208   5 -4.041281E+05 -2.047273E+05  2.839712E+04 -3.658110E+05 -2.577789E+04  1.428906E+05
       208   6 -3.867459E+05 -2.272546E+05  1.496249E+04 -3.760390E+05 -5.041127E+04  1.638726E+05
       208   7  2.317249E+06  8.011615E+05  7.456745E+05  3.156094E+05  2.506872E+05  1.403469E+05
       208   8  2.069208E+06  6.881992E+05  5.320241E+05  3.083599E+05  8.113768E+04  1.832041E+05
       208   9  1.885954E+06  6.006361E+05  4.319639E+05  2.628341E+05 -6.295210E+04  1.590758E+05
       208  10 -3.070863E+06 -1.161455E+06 -6.243323E+05 -1.100616E+06  1.841764E-09  5.277145E-10
       208  11 -2.871212E+06 -1.097191E+06 -4.755497E+05 -1.037515E+06 -3.305321E-09 -2.348838E-09
       208  12 -2.654008E+06 -1.054665E+06 -4.022753E+05 -1.012720E+06 -4.764225E-09 -1.875168E-09
       208  13 -3.803351E+05 -1.803306E+05  6.089770E+04 -3.938732E+05  2.288800E-10 -7.663272E-10
       208  14 -4.041343E+05 -2.047494E+05  2.835750E+04 -3.658081E+05 -2.496432E-09 -1.907817E-10
       208  15 -3.867558E+05 -2.272841E+05  1.490726E+04 -3.760324E+05  5.720879E-10  3.928738E-10
       208  16  2.317176E+06  8.011236E+05  7.455199E+05  3.155811E+05 -2.910552E-09 -1.172876E-10
       208  17  2.069192E+06  6.881615E+05  5.319487E+05  3.083479E+05  2.222667E-09 -8.512344E-10
       208  18  1.885943E+06  6.006079E+05  4.319089E+05  2.628422E+05  4.016623E-09  3.171605E-09
       208  19 -3.070819E+06 -1.161443E+06 -6.242542E+05 -1.100611E+06  2.010096E+05  3.042911E+04
       208  20 -2.871190E+06 -1.097175E+06 -4.754970E+05 -1.037526E+06  1.322371E+05 -1.027432E+05
       208  21 -2.653998E+06 -1.054634E+06 -4.022191E+05 -1.012725E+06  3.791976E+04 -1.686509E+05
       208  22 -3.803337E+05 -1.803272E+05  6.090445E+04 -3.938721E+05 -2.430472E+04 -5.477169E+04
       208  23 -4.041281E+05 -2.047273E+05  2.839712E+04 -3.658110E+05  2.577789E+04 -1.428906E+05
       208  24 -3.867459E+05 -2.272546E+05  1.496249E+04 -3.760390E+05  5.041127E+04 -1.638726E+05
       208  25  2.317249E+06  8.011615E+05  7.456745E+05  3.156094E+05 -2.506872E+05 -1.403469E+05
       208  26  2.069208E+06  6.881992E+05  5.320241E+05  3.083599E+05 -8.113768E+04 -1.832041E+05
       208  27  1.885954E+06  6.006361E+05  4.319639E+05  2.628341E+05  6.295210E+04 -1.590758E+05
       209   1 -2.526917E+06 -1.003890E+06 -3.770030E+05 -9.750630E+05 -4.479120E+04  1.597568E+05
       209   2 -2.344457E+06 -9.164180E+05 -3.354173E+05 -9.024580E+05 -3.451696E+04  1.567052E+05
       209   3 -2.131742E+06 -8.601700E+05 -2.997127E+05 -8.652240E+05 -2.193801E+04  1.474933E+05
       209   4 -3.876651E+05 -2.277387E+05  1.121511E+04 -3.777526E+05 -5.002246E+04  1.577231E+05
       209   5 -4.038415E+05 -2.140957E+05  5.825901E+03 -3.596716E+05 -5.064520E+04  1.505793E+05
       209   6 -3.876457E+05 -2.295097E+05  3.209062E+03 -3.769682E+05 -4.896998E+04  1.372850E+05
       209   7  1.756414E+06  5.488487E+05  3.992716E+05  2.214821E+05 -5.527320E+04  1.556823E+05
       209   8  1.540758E+06  4.885911E+05  3.469495E+05  1.847021E+05 -6.682737E+04  1.444332E+05
       209   9  1.359666E+06  4.014449E+05  3.060385E+05  1.125696E+05 -7.608282E+04  1.270464E+05
       209  10 -2.526926E+06 -1.003918E+06 -3.770548E+05 -9.750573E+05  2.536612E-09  9.451442E-10
       209  11 -2.344465E+06 -9.164447E+05 -3.354657E+05 -9.024536E+05  1.161401E-09  1.085987E-09
       209  12 -2.131748E+06 -8.601935E+05 -2.997545E+05 -8.652214E+05 -6.727169E-10  2.317088E-10
       209  13 -3.876745E+05 -2.277661E+05  1.116367E+04 -3.777463E+05  1.916008E-10 -7.516550E-10
       209  14 -4.038503E+05 -2.141207E+05  5.778485E+03 -3.596654E+05  1.813010E-09 -1.267781E-09
       209  15 -3.876534E+05 -2.295306E+05  3.169149E+03 -3.769628E+05 -2.246642E-09  7.302734E-10
       209  16  1.756404E+06  5.488219E+05  3.992203E+05  2.214891E+05 -1.094426E-09  1.746702E-09
       209  17  1.540747E+06  4.885675E+05  3.469020E+05  1.847099E+05 -8.297746E-10 -7.349211E-10
       209  18  1.359655E+06  4.014260E+05  3.059973E+05  1.125774E+05  1.940010E-09  8.789155E-10
       209  19 -2.526917E+06 -1.003890E+06 -3.770030E+05 -9.750630E+05  4.479120E+04 -1.597568E+05
       209  20 -2.344457E+06 -9.164180E+05 -3.354173E+05 -9.024580E+05  3.451696E+04 -1.567052E+05
       209  21 -2.131742E+06 -8.601700E+05 -2.997127E+05 -8.652240E+05  2.193801E+04 -1.474933E+05
       209  22 -3.876651E+05 -2.277387E+05  1.121511E+04 -3.777526E+05  5.002246E+04 -1.577231E+05
       209  23 -4.038415E+05 -2.140957E+05  5.825901E+03 -3.596716E+05  5.064520E+04 -1.505793E+05
       209  24 -3.876457E+05 -2.295097E+05  3.209062E+03 -3.769682E+05  4.896998E+04 -1.372850E+05
       209  25  1.756414E+06  5.488487E+05  3.992716E+05  2.214821E+05  5.527320E+04 -1.556823E+05
       209  26  1.540758E+06  4.885911E+05  3.469495E+05  1.847021E+05  6.682737E+04 -1.444332E+05
       209  27  1.359666E+06  4.014449E+05  3.060385E+05  1.125696E+05  7.608282E+04 -1.270464E+05
       210   1 -2.004253E+06 -8.133434E+05 -2.770210E+05 -8.294113E+05 -1.961771E+04  1.380610E+05
       210   2 -1.822225E+06 -7.257850E+05 -2.433748E+05 -7.561107E+05 -1.349483E+04  1.230063E+05
       210   3 -1.608750E+06 -6.694886E+05 -2.099650E+05 -7.184113E+05 -7.174213E+03  1.073740E+05
       210   4 -3.876690E+05 -2.294504E+05  2.385179E+03 -3.771766E+05 -4.601053E+04  1.281048E+05
       210   5 -4.033350E+05 -2.137005E+05  1.254101E+03 -3.594079E+05 -4.091040E+04  1.126828E+05
       210   6 -3.874045E+05 -2.290124E+05  6.894102E+02 -3.772525E+05 -3.561297E+04  9.668403E+04
       210   7  1.231713E+06  3.547081E+05  2.817231E+05  7.616779E+04 -7.247702E+04  1.181210E+05
       210   8  1.017705E+06  2.985863E+05  2.458304E+05  3.814778E+04 -6.839297E+04  1.023342E+05
       210   9  8.355284E+05  2.116113E+05  2.113043E+05 -3.546405E+04 -6.411139E+04  8.597163E+04
       210  10 -2.004259E+06 -8.133640E+05 -2.770575E+05 -8.294092E+05  2.108748E-10  1.314513E-09
       210  11 -1.822229E+06 -7.258013E+05 -2.434036E+05 -7.561094E+05  1.204096E-10  7.260979E-10
       210  12 -1.608753E+06 -6.695010E+05 -2.099867E+05 -7.184107E+05  1.234255E-10  8.518456E-10
       210  13 -3.876756E+05 -2.294686E+05  2.350371E+03 -3.771719E+05 -7.149087E-10  1.455929E-10
       210  14 -4.033402E+05 -2.137146E+05  1.227102E+03 -3.594042E+05 -4.221637E-10  8.756395E-10
       210  15 -3.874084E+05 -2.290228E+05  6.694662E+02 -3.772498E+05 -8.417586E-10 -1.235066E-10
       210  16  1.231703E+06  3.546918E+05  2.816870E+05  7.617468E+04 -1.738459E-09  7.139726E-10
       210  17  1.017697E+06  2.985738E+05  2.458020E+05  3.815341E+04 -6.204952E-10  2.750605E-10
       210  18  8.355220E+05  2.116023E+05  2.112827E+05 -3.545961E+04  8.415526E-11 -1.312754E-09
       210  19 -2.004253E+06 -8.133434E+05 -2.770210E+05 -8.294113E+05  1.961771E+04 -1.380610E+05
       210  20 -1.822225E+06 -7.257850E+05 -2.433748E+05 -7.561107E+05  1.349483E+04 -1.230063E+05
       210  21 -1.608750E+06 -6.694886E+05 -2.099650E+05 -7.184113E+05  7.174213E+03 -1.073740E+05
       210  22 -3.876690E+05 -2.294504E+05  2.385179E+03 -3.771766E+05  4.601053E+04 -1.281048E+05
       210  23 -4.033350E+05 -2.137005E+05  1.254101E+03 -3.594079E+05  4.091040E+04 -1.126828E+05
       210  24 -3.874045E+05 -2.290124E+05  6.894102E+02 -3.772525E+05  3.561297E+04 -9.668403E+04
       210  25  1.231713E+06  3.547081E+05  2.817231E+05  7.616779E+04  7.247702E+04 -1.181210E+05
       210  26  1.017705E+06  2.985863E+05  2.458304E+05  3.814778E+04  6.839297E+04 -1.023342E+05
       210  27  8.355284E+05  2.116113E+05  2.113043E+05 -3.546405E+04  6.411139E+04 -8.597163E+04
       211   1 -1.480935E+06 -6.230408E+05 -1.871196E+05 -6.827427E+05 -3.797736E+03  9.795897E+04
       211   2 -1.298321E+06 -5.357457E+05 -1.537051E+05 -6.094091E+05  2.244299E+03  8.190136E+04
       211   3 -1.084290E+06 -4.797020E+05 -1.202661E+05 -5.718370E+05  8.296011E+03  6.578391E+04
       211   4 -3.873712E+05 -2.289352E+05  4.874349E+02 -3.773045E+05 -3.219554E+04  8.729290E+04
       211   5 -4.029834E+05 -2.131490E+05  1.906404E+02 -3.594542E+05 -2.626085E+04  7.120626E+04
       211   6 -3.872033E+05 -2.285959E+05 -1.990226E+00 -3.773793E+05 -2.031647E+04  5.505975E+04
       211   7  7.074553E+05  1.652847E+05  1.880611E+05 -7.136456E+04 -6.064635E+04  7.660693E+04
       211   8  4.932075E+05  1.095271E+05  1.540671E+05 -1.091611E+05 -5.480979E+04  6.049473E+04
       211   9  3.104084E+05  2.256104E+04  1.202536E+05 -1.827147E+05 -4.896345E+04  4.432265E+04
       211  10 -1.480938E+06 -6.230511E+05 -1.871377E+05 -6.827424E+05 -3.351468E-09 -2.303952E-10
       211  11 -1.298322E+06 -5.357529E+05 -1.537177E+05 -6.094093E+05  6.676256E-09  2.698232E-09
       211  12 -1.084291E+06 -4.797066E+05 -1.202744E+05 -5.718374E+05  7.163446E-09  1.648498E-09
       211  13 -3.873744E+05 -2.289436E+05  4.711720E+02 -3.773022E+05  1.977753E-09  8.597243E-10
       211  14 -4.029855E+05 -2.131547E+05  1.798194E+02 -3.594527E+05  5.121779E-09  2.587428E-09
       211  15 -3.872046E+05 -2.285993E+05 -8.460963E+00 -3.773784E+05  2.776954E-09  8.150650E-10
       211  16  7.074498E+05  1.652774E+05  1.880432E+05 -7.136082E+04  8.461883E-09  2.127689E-09
       211  17  4.932033E+05  1.095224E+05  1.540546E+05 -1.091585E+05  5.119905E-09  2.837690E-09
       211  18  3.104053E+05  2.255829E+04  1.202454E+05 -1.827129E+05 -1.112907E-09  3.246264E-10
       211  19 -1.480935E+06 -6.230408E+05 -1.871196E+05 -6.827427E+05  3.797736E+03 -9.795897E+04
       211  20 -1.298321E+06 -5.357457E+05 -1.537051E+05 -6.094091E+05 -2.244299E+03 -8.190136E+04
       211  21 -1.084290E+06 -4.797020E+05 -1.202661E+05 -5.718370E+05 -8.296011E+03 -6.578391E+04
       211  22 -3.873712E+05 -2.289352E+05  4.874349E+02 -3.773045E+05  3.219554E+04 -8.729290E+04
       211  23 -4.029834E+05 -2.131490E+05  1.906404E+02 -3.594542E+05  2.626085E+04 -7.120626E+04
       211  24 -3.872033E+05 -2.285959E+05 -1.990226E+00 -3.773793E+05  2.031647E+04 -5.505975E+04
       211  25  7.074553E+05  1.652847E+05  1.880611E+05 -7.136456E+04  6.064635E+04 -7.660693E+04
       211  26  4.932075E+05  1.095271E+05  1.540671E+05 -1.091611E+05  5.480979E+04 -6.049473E+04
       211  27  3.104084E+05  2.256104E+04  1.202536E+05 -1.827147E+05  4.896345E+04 -4.432265E+04
       212   1 -9.561838E+05 -4.333416E+05 -9.734089E+04 -5.361903E+05  1.183560E+04  5.638919E+04
       212   2 -7.731682E+05 -3.461944E+05 -6.394263E+04 -4.628501E+05  1.803245E+04  4.030922E+04
       212   3 -5.588219E+05 -2.903142E+05 -3.064489E+04 -4.253538E+05  2.421711E+04  2.424714E+04
       212   4 -3.871848E+05 -2.285506E+05 -1.070662E+02 -3.774028E+05 -1.678644E+04  4.566611E+04
       212   5 -4.027885E+05 -2.128351E+05 -3.596247E+02 -3.594913E+05 -1.056090E+04  2.960155E+04
       212   6 -3.871115E+05 -2.283956E+05 -7.393005E+02 -3.774385E+05 -4.347591E+03  1.355490E+04
       212   7  1.821600E+05 -2.372722E+04  9.712123E+04 -2.184786E+05 -4.543639E+04  3.493256E+04
       212   8 -3.226344E+04 -7.946239E+04  6.322243E+04 -2.560749E+05 -3.917223E+04  1.888713E+04
       212   9 -2.153699E+05 -1.664741E+05  2.916839E+04 -3.295108E+05 -3.292041E+04  2.859607E+03
       212  10 -9.561848E+05 -4.333450E+05 -9.734714E+04 -5.361909E+05 -2.656842E-08 -1.146729E-08
       212  11 -7.731689E+05 -3.461962E+05 -6.394630E+04 -4.628507E+05 -1.632750E-09 -1.215293E-09
       212  12 -5.588227E+05 -2.903150E+05 -3.064710E+04 -4.253543E+05  2.701611E-08  8.627046E-09
       212  13 -3.871857E+05 -2.285529E+05 -1.115133E+02 -3.774022E+05  4.667074E-10 -7.654270E-10
       212  14 -4.027889E+05 -2.128360E+05 -3.614804E+02 -3.594911E+05 -1.224543E-09 -1.445141E-09
       212  15 -3.871116E+05 -2.283958E+05 -7.396812E+02 -3.774384E+05  3.741766E-10 -1.389878E-09
       212  16  1.821575E+05 -2.372909E+04  9.711506E+04 -2.184773E+05  2.635005E-08  9.988168E-09
       212  17 -3.226518E+04 -7.946318E+04  6.321888E+04 -2.560743E+05 -4.309811E-09 -1.790075E-09
       212  18 -2.153711E+05 -1.664744E+05  2.916634E+04 -3.295107E+05 -3.420087E-08 -1.182900E-08
       212  19 -9.561838E+05 -4.333416E+05 -9.734089E+04 -5.361903E+05 -1.183560E+04 -5.638919E+04
       212  20 -7.731682E+05 -3.461944E+05 -6.394263E+04 -4.628501E+05 -1.803245E+04 -4.030922E+04
       212  21 -5.588219E+05 -2.903142E+05 -3.064489E+04 -4.253538E+05 -2.421711E+04 -2.424714E+04
       212  22 -3.871848E+05 -2.285506E+05 -1.070662E+02 -3.774028E+05  1.678644E+04 -4.566611E+04
       212  23 -4.027885E+05 -2.128351E+05 -3.596247E+02 -3.594913E+05  1.056090E+04 -2.960155E+04
       212  24 -3.871115E+05 -2.283956E+05 -7.393005E+02 -3.774385E+05  4.347591E+03 -1.355490E+04
       212  25  1.821600E+05 -2.372722E+04  9.712123E+04 -2.184786E+05  4.543639E+04 -3.493256E+04
       212  26 -3.226344E+04 -7.946239E+04  6.322243E+04 -2.560749E+05  3.917223E+04 -1.888713E+04
       212  27 -2.153699E+05 -1.664741E+05  2.916839E+04 -3.295108E+05  3.292041E+04 -2.859607E+03
       213   1 -4.305460E+05 -2.439972E+05 -7.857604E+03 -3.897108E+05  2.791361E+04  1.492413E+04
       213   2 -2.473714E+05 -1.569267E+05  2.511868E+04 -3.163341E+05  3.431024E+04 -8.899832E+02
       213   3 -3.294036E+04 -1.011474E+05  5.778340E+04 -2.787987E+05  4.059557E+04 -1.640155E+04
       213   4 -3.871396E+05 -2.283797E+05 -1.015256E+03 -3.774532E+05 -6.877578E+02  4.218966E+03
       213   5 -4.027130E+05 -2.127548E+05 -1.895852E+03 -3.594991E+05  6.239856E+03 -1.139838E+04
       213   6 -3.871824E+05 -2.285336E+05 -3.512928E+03 -3.774050E+05  1.305601E+04 -2.671313E+04
       213   7 -3.437288E+05 -2.127611E+05  5.830696E+03 -3.651942E+05 -2.929154E+04 -6.487117E+03
       213   8 -5.580282E+05 -2.685802E+05 -2.890796E+04 -4.026537E+05 -2.182321E+04 -2.190404E+04
       213   9 -7.412898E+05 -3.559072E+05 -6.480973E+04 -4.759583E+05 -1.446685E+04 -3.701847E+04
       213  10 -4.305469E+05 -2.439977E+05 -7.859489E+03 -3.897112E+05  1.618496E-09 -1.619444E-09
       213  11 -2.473726E+05 -1.569270E+05  2.511646E+04 -3.163341E+05 -2.185438E-09 -5.204004E-09
       213  12 -3.294221E+04 -1.011481E+05  5.777980E+04 -2.787982E+05 -5.515625E-09 -3.897688E-09
       213  13 -3.871396E+05 -2.283797E+05 -1.015291E+03 -3.774532E+05 -5.399987E-10 -1.617909E-09
       213  14 -4.027131E+05 -2.127549E+05 -1.896169E+03 -3.594990E+05 -9.553524E-09 -3.946134E-09
       213  15 -3.871827E+05 -2.285344E+05 -3.514588E+03 -3.774047E+05 -1.477930E-08 -3.937442E-09
       213  16 -3.437298E+05 -2.127614E+05  5.829003E+03 -3.651944E+05 -1.204752E-08 -1.859892E-09
       213  17 -5.580288E+05 -2.685808E+05 -2.890976E+04 -4.026541E+05 -1.200203E-08 -1.275583E-09
       213  18 -7.412904E+05 -3.559087E+05 -6.481271E+04 -4.759588E+05 -1.296506E-08 -3.406976E-09
       213  19 -4.305460E+05 -2.439972E+05 -7.857604E+03 -3.897108E+05 -2.791361E+04 -1.492413E+04
       213  20 -2.473714E+05 -1.569267E+05  2.511868E+04 -3.163341E+05 -3.431024E+04  8.899832E+02
       213  21 -3.294036E+04 -1.011474E+05  5.778340E+04 -2.787987E+05 -4.059557E+04  1.640155E+04
       213  22 -3.871396E+05 -2.283797E+05 -1.015256E+03 -3.774532E+05  6.877578E+02 -4.218966E+03
       213  23 -4.027130E+05 -2.127548E+05 -1.895852E+03 -3.594991E+05 -6.239856E+03  1.139838E+04
       213  24 -3.871824E+05 -2.285336E+05 -3.512928E+03 -3.774050E+05 -1.305601E+04  2.671313E+04
       213  25 -3.437288E+05 -2.127611E+05  5.830696E+03 -3.651942E+05  2.929154E+04  6.487117E+03
       213  26 -5.580282E+05 -2.685802E+05 -2.890796E+04 -4.026537E+05  2.182321E+04  2.190404E+04
       213  27 -7.412898E+05 -3.559072E+05 -6.480973E+04 -4.759583E+05  1.446685E+04  3.701847E+04
       214   1  9.551540E+04 -5.492257E+04  7.992776E+04 -2.433786E+05  4.505060E+04 -2.524004E+04
       214   2  2.778607E+05  3.249373E+04  1.121803E+05 -1.689804E+05  4.881636E+04 -3.985939E+04
       214   3  4.911041E+05  8.756212E+04  1.452061E+05 -1.297525E+05  5.134845E+04 -5.117106E+04
       214   4 -3.874483E+05 -2.284999E+05 -4.694051E+03 -3.774550E+05  1.715315E+04 -3.568857E+04
       214   5 -4.026056E+05 -2.136152E+05 -8.651274E+03 -3.591789E+05  2.678344E+04 -4.811917E+04
       214   6 -3.880670E+05 -2.322474E+05 -1.648343E+04 -3.760919E+05  3.517981E+04 -5.723985E+04
       214   7 -8.701587E+05 -4.020525E+05 -8.931838E+04 -5.114322E+05 -1.072092E+04 -4.612839E+04
       214   8 -1.082582E+06 -4.596789E+05 -1.294959E+05 -5.491824E+05  4.776245E+03 -5.636925E+04
       214   9 -1.266436E+06 -5.519862E+05 -1.782030E+05 -6.221082E+05  1.903544E+04 -6.329945E+04
       214  10  9.551305E+04 -5.492379E+04  7.992275E+04 -2.433777E+05 -9.950164E-09 -2.723094E-09
       214  11  2.778578E+05  3.249139E+04  1.121728E+05 -1.689789E+05 -4.867963E-09  1.295585E-09
       214  12  4.911006E+05  8.755860E+04  1.451962E+05 -1.297504E+05  2.000386E-09  1.575832E-09
       214  13 -3.874490E+05 -2.285013E+05 -4.696996E+03 -3.774545E+05 -1.109013E-08 -2.378565E-09
       214  14 -4.026070E+05 -2.136178E+05 -8.656971E+03 -3.591779E+05 -4.854084E-09 -2.623289E-10
       214  15 -3.880692E+05 -2.322513E+05 -1.649191E+04 -3.760902E+05 -4.846513E-10 -6.413616E-11
       214  16 -8.701594E+05 -4.020549E+05 -8.932260E+04 -5.114326E+05 -5.923337E-09 -1.733330E-09
       214  17 -1.082583E+06 -4.596823E+05 -1.295019E+05 -5.491822E+05  3.989881E-10 -2.001596E-09
       214  18 -1.266438E+06 -5.519906E+05 -1.782112E+05 -6.221073E+05 -6.499535E-10 -1.934790E-09
       214  19  9.551540E+04 -5.492257E+04  7.992776E+04 -2.433786E+05 -4.505060E+04  2.524004E+04
       214  20  2.778607E+05  3.249373E+04  1.121803E+05 -1.689804E+05 -4.881636E+04  3.985939E+04
       214  21  4.911041E+05  8.756212E+04  1.452061E+05 -1.297525E+05 -5.134845E+04  5.117106E+04
       214  22 -3.874483E+05 -2.284999E+05 -4.694051E+03 -3.774550E+05 -1.715315E+04  3.568857E+04
       214  23 -4.026056E+05 -2.136152E+05 -8.651274E+03 -3.591789E+05 -2.678344E+04  4.811917E+04
       214  24 -3.880670E+05 -2.322474E+05 -1.648343E+04 -3.760919E+05 -3.517981E+04  5.723985E+04
       214  25 -8.701587E+05 -4.020525E+05 -8.931838E+04 -5.114322E+05  1.072092E+04  4.612839E+04
       214  26 -1.082582E+06 -4.596789E+05 -1.294959E+05 -5.491824E+05 -4.776245E+03  5.636925E+04
       214  27 -1.266436E+06 -5.519862E+05 -1.782030E+05 -6.221082E+05 -1.903544E+04  6.329945E+04
       215   1  6.219760E+05  1.320357E+05  1.660135E+05 -9.840452E+04  6.051131E+04 -5.609830E+04
       215   2  7.870960E+05  2.261235E+05  2.083085E+05 -9.076280E+02  1.552779E+04 -6.522490E+04
       215   3  9.759433E+05  2.618505E+05  2.739065E+05  7.335763E+04 -4.306643E+04 -3.819275E+04
       215   4 -3.910347E+05 -2.317661E+05 -2.194639E+04 -3.767793E+05  4.040038E+04 -6.364925E+04
       215   5 -4.014458E+05 -2.305942E+05 -4.189152E+04 -3.522938E+05  5.968634E+04 -4.867278E+04
       215   6 -4.009157E+05 -3.005655E+05 -8.945441E+04 -3.510599E+05  6.536191E+04  2.506694E+03
       215   7 -1.402978E+06 -5.954802E+05 -2.099457E+05 -6.547355E+05  2.032436E+04 -7.118740E+04
       215   8 -1.588513E+06 -6.871447E+05 -2.921544E+05 -7.030382E+05  1.037532E+05 -3.215896E+04
       215   9 -1.775840E+06 -8.627286E+05 -4.529123E+05 -7.745666E+05  1.735230E+05  4.308521E+04
       215  10  6.219712E+05  1.320314E+05  1.660007E+05 -9.840178E+04  1.306371E-10 -8.137518E-11
       215  11  7.870946E+05  2.261188E+05  2.083000E+05 -9.068128E+02 -9.065856E-10 -2.912953E-10
       215  12  9.759409E+05  2.618484E+05  2.739002E+05  7.335631E+04 -8.288584E-10 -2.478148E-10
       215  13 -3.910375E+05 -2.317708E+05 -2.195706E+04 -3.767773E+05  5.457456E-10 -6.263408E-10
       215  14 -4.014503E+05 -2.305977E+05 -4.190266E+04 -3.522915E+05  4.442412E-09 -4.304113E-10
       215  15 -4.009203E+05 -3.005667E+05 -8.946246E+04 -3.510601E+05  2.637589E-09 -1.340691E-10
       215  16 -1.402980E+06 -5.954858E+05 -2.099560E+05 -6.547343E+05  1.578497E-09 -1.181087E-09
       215  17 -1.588524E+06 -6.871487E+05 -2.921766E+05 -7.030355E+05  1.245395E-09 -1.169089E-09
       215  18 -1.775873E+06 -8.627387E+05 -4.529726E+05 -7.745727E+05  2.140580E-09 -3.168106E-10
       215  19  6.219760E+05  1.320357E+05  1.660135E+05 -9.840452E+04 -6.051131E+04  5.609830E+04
       215  20  7.870960E+05  2.261235E+05  2.083085E+05 -9.076280E+02 -1.552779E+04  6.522490E+04
       215  21  9.759433E+05  2.618505E+05  2.739065E+05  7.335763E+04  4.306643E+04  3.819275E+04
       215  22 -3.910347E+05 -2.317661E+05 -2.194639E+04 -3.767793E+05 -4.040038E+04  6.364925E+04
       215  23 -4.014458E+05 -2.305942E+05 -4.189152E+04 -3.522938E+05 -5.968634E+04  4.867278E+04
       215  24 -4.009157E+05 -3.005655E+05 -8.945441E+04 -3.510599E+05 -6.536191E+04 -2.506694E+03
       215  25 -1.402978E+06 -5.954802E+05 -2.099457E+05 -6.547355E+05 -2.032436E+04  7.118740E+04
       215  26 -1.588513E+06 -6.871447E+05 -2.921544E+05 -7.030382E+05 -1.037532E+05  3.215896E+04
       215  27 -1.775840E+06 -8.627286E+05 -4.529123E+05 -7.745666E+05 -1.735230E+05 -4.308521E+04
       216   1 -3.793421E+05 -1.484007E+05 -1.294386E+05 -9.504693E+04 -2.085699E+04  1.137099E+04
       216   2 -2.671962E+05 -1.653584E+05 -1.042808E+05 -1.129478E+05  1.274208E+03  3.785797E+04
       216   3 -1.509506E+05 -1.547117E+05 -8.663139E+04 -1.485694E+05  2.342417E+04  4.476904E+04
       216   4  5.569624E+05  8.221151E+04  8.771133E+04 -1.503633E+05  6.184505E+04  1.140356E+04
       216   5  5.510941E+05  2.792241E+04  4.406165E+04 -1.414952E+05  3.935414E+04  3.786434E+04
       216   6  5.570439E+05  8.959383E+03  2.387880E+04 -1.503435E+05  1.687810E+04  4.476302E+04
       216   7  1.494098E+06  3.127772E+05  3.048298E+05 -2.057637E+05  1.446709E+05  1.142138E+04
       216   8  1.370041E+06  2.211695E+05  1.923834E+05 -1.700812E+05  7.748287E+04  3.786722E+04
       216   9  1.265538E+06  1.726059E+05  1.343773E+05 -1.521196E+05  1.032483E+04  4.475705E+04
       216  10 -3.793426E+05 -1.484010E+05 -1.294397E+05 -9.504674E+04  3.418756E-09  5.221441E-12
       216  11 -2.671966E+05 -1.653599E+05 -1.042835E+05 -1.129478E+05  2.430174E-09  8.131876E-13
       216  12 -1.509517E+05 -1.547140E+05 -8.663619E+04 -1.485702E+05 -8.297516E-10 -1.469198E-10
       216  13  5.569583E+05  8.221034E+04  8.770390E+04 -1.503639E+05 -7.193315E-10  3.873925E-10
       216  14  5.510921E+05  2.792045E+04  4.405604E+04 -1.414964E+05 -1.960616E-09  2.082998E-10
       216  15  5.570430E+05  8.957154E+03  2.387450E+04 -1.503441E+05  1.590826E-09 -3.456635E-11
       216  16  1.494075E+06  3.127715E+05  3.047904E+05 -2.057650E+05 -1.004104E-10  4.817940E-10
       216  17  1.370034E+06  2.211663E+05  1.923695E+05 -1.700836E+05 -3.264037E-10  6.246767E-10
       216  18  1.265538E+06  1.726037E+05  1.343733E+05 -1.521200E+05  1.240804E-09  1.123781E-09
       216  19 -3.793421E+05 -1.484007E+05 -1.294386E+05 -9.504693E+04  2.085699E+04 -1.137099E+04
       216  20 -2.671962E+05 -1.653584E+05 -1.042808E+05 -1.129478E+05 -1.274208E+03 -3.785797E+04
       216  21 -1.509506E+05 -1.547117E+05 -8.663139E+04 -1.485694E+05 -2.342417E+04 -4.476904E+04
       216  22  5.569624E+05  8.221151E+04  8.771133E+04 -1.503633E+05 -6.184505E+04 -1.140356E+04
       216  23  5.510941E+05  2.792241E+04  4.406165E+04 -1.414952E+05 -3.935414E+04 -3.786434E+04
       216  24  5.570439E+05  8.959383E+03  2.387880E+04 -1.503435E+05 -1.687810E+04 -4.476302E+04
       216  25  1.494098E+06  3.127772E+05  3.048298E+05 -2.057637E+05 -1.446709E+05 -1.142138E+04
       216  26  1.370041E+06  2.211695E+05  1.923834E+05 -1.700812E+05 -7.748287E+04 -3.786722E+04
       216  27  1.265538E+06  1.726059E+05  1.343773E+05 -1.521196E+05 -1.032483E+04 -4.475705E+04
       217   1 -8.120761E+04 -1.397451E+05 -7.838579E+04 -1.469179E+05  2.126275E+04  4.225219E+04
       217   2  3.251704E+04 -1.171882E+05 -6.471041E+04 -1.393664E+05  2.216693E+04  3.770625E+04
       217   3  1.467309E+05 -9.239208E+04 -5.105436E+04 -1.509386E+05  2.307030E+04  3.064496E+04
       217   4  5.547613E+05  6.662963E+03  1.784935E+04 -1.506591E+05  1.377654E+04  4.224703E+04
       217   5  5.540475E+05  1.958603E+03  9.659936E+03 -1.410979E+05  8.941327E+03  3.770239E+04
       217   6  5.548042E+05  4.885627E+02  5.433065E+03 -1.506589E+05  4.105173E+03  3.064351E+04
       217   7  1.191136E+06  1.530518E+05  1.140764E+05 -1.544043E+05  6.282959E+03  4.224197E+04
       217   8  1.075853E+06  1.210932E+05  8.402696E+04 -1.428309E+05 -4.294908E+03  3.769860E+04
       217   9  9.630473E+05  9.336206E+04  6.191988E+04 -1.503790E+05 -1.487186E+04  3.064204E+04
       217  10 -8.120857E+04 -1.397471E+05 -7.838999E+04 -1.469186E+05  9.050577E-10 -1.111869E-10
       217  11  3.251613E+04 -1.171899E+05 -6.471400E+04 -1.393671E+05  1.369694E-09 -5.431401E-10
       217  12  1.467300E+05 -9.239323E+04 -5.105712E+04 -1.509392E+05  1.714898E-09 -1.030049E-09
       217  13  5.547606E+05  6.660995E+03  1.784564E+04 -1.506596E+05 -2.952578E-09  5.594727E-10
       217  14  5.540470E+05  1.957054E+03  9.657113E+03 -1.410982E+05  8.377630E-10 -3.608782E-10
       217  15  5.548040E+05  4.875496E+02  5.431268E+03 -1.506590E+05 -1.233276E-09 -1.078797E-09
       217  16  1.191135E+06  1.530499E+05  1.140730E+05 -1.544045E+05 -3.023628E-09  5.902525E-10
       217  17  1.075853E+06  1.210917E+05  8.402425E+04 -1.428308E+05 -8.115253E-10 -4.123408E-10
       217  18  9.630468E+05  9.336099E+04  6.191770E+04 -1.503786E+05 -1.812724E-09 -9.726897E-10
       217  19 -8.120761E+04 -1.397451E+05 -7.838579E+04 -1.469179E+05 -2.126275E+04 -4.225219E+04
       217  20  3.251704E+04 -1.171882E+05 -6.471041E+04 -1.393664E+05 -2.216693E+04 -3.770625E+04
       217  21  1.467309E+05 -9.239208E+04 -5.105436E+04 -1.509386E+05 -2.307030E+04 -3.064496E+04
       217  22  5.547613E+05  6.662963E+03  1.784935E+04 -1.506591E+05 -1.377654E+04 -4.224703E+04
       217  23  5.540475E+05  1.958603E+03  9.659936E+03 -1.410979E+05 -8.941327E+03 -3.770239E+04
       217  24  5.548042E+05  4.885627E+02  5.433065E+03 -1.506589E+05 -4.105173E+03 -3.064351E+04
       217  25  1.191136E+06  1.530518E+05  1.140764E+05 -1.544043E+05 -6.282959E+03 -4.224197E+04
       217  26  1.075853E+06  1.210932E+05  8.402696E+04 -1.428309E+05  4.294908E+03 -3.769860E+04
       217  27  9.630473E+05  9.336206E+04  6.191988E+04 -1.503790E+05  1.487186E+04 -3.064204E+04
       218   1  2.173024E+05 -7.629475E+04 -4.202646E+04 -1.507041E+05  2.238430E+04  2.569614E+04
       218   2  3.311624E+05 -5.067309E+04 -2.799840E+04 -1.411179E+05  2.197679E+04  1.716643E+04
       218   3  4.451382E+05 -2.490381E+04 -1.366400E+04 -1.508286E+05  2.156824E+04  8.314825E+03
       218   4  5.545388E+05  3.489008E+02  4.100191E+03 -1.506978E+05  3.299324E+03  2.569586E+04
       218   5  5.544319E+05  1.940452E+01  2.305850E+03 -1.410496E+05  2.155494E+03  1.716744E+04
       218   6  5.545566E+05 -3.411232E+01  1.327974E+03 -1.506979E+05  1.010707E+03  8.317169E+03
       218   7  8.918916E+05  7.698778E+04  5.022701E+04 -1.506914E+05 -1.579555E+04  2.569559E+04
       218   8  7.777530E+05  5.070995E+04  3.261109E+04 -1.409812E+05 -1.767260E+04  1.716845E+04
       218   9  6.639882E+05  2.483529E+04  1.632140E+04 -1.505671E+05 -1.955028E+04  8.319504E+03
       218  10  2.173017E+05 -7.629559E+04 -4.202865E+04 -1.507046E+05  1.047623E-10 -8.195246E-10
       218  11  3.311618E+05 -5.067353E+04 -2.799986E+04 -1.411182E+05  1.054517E-09 -3.392042E-10
       218  12  4.451377E+05 -2.490401E+04 -1.366500E+04 -1.508287E+05  1.942073E-09 -5.107345E-10
       218  13  5.545386E+05  3.481886E+02  4.098929E+03 -1.506978E+05  1.979782E-09 -8.921624E-10
       218  14  5.544318E+05  1.908670E+01  2.305288E+03 -1.410496E+05  1.615911E-09 -3.819659E-10
       218  15  5.545566E+05 -3.418690E+01  1.327842E+03 -1.506979E+05 -1.590946E-09 -1.247152E-10
       218  16  8.918911E+05  7.698701E+04  5.022530E+04 -1.506911E+05 -2.038912E-09 -9.471348E-10
       218  17  7.777526E+05  5.070955E+04  3.260995E+04 -1.409810E+05 -3.798613E-09 -5.371127E-10
       218  18  6.639877E+05  2.483511E+04  1.632056E+04 -1.505670E+05 -1.963970E-09  2.812402E-10
       218  19  2.173024E+05 -7.629475E+04 -4.202646E+04 -1.507041E+05 -2.238430E+04 -2.569614E+04
       218  20  3.311624E+05 -5.067309E+04 -2.799840E+04 -1.411179E+05 -2.197679E+04 -1.716643E+04
       218  21  4.451382E+05 -2.490381E+04 -1.366400E+04 -1.508286E+05 -2.156824E+04 -8.314825E+03
       218  22  5.545388E+05  3.489008E+02  4.100191E+03 -1.506978E+05 -3.299324E+03 -2.569586E+04
       218  23  5.544319E+05  1.940452E+01  2.305850E+03 -1.410496E+05 -2.155494E+03 -1.716744E+04
       218  24  5.545566E+05 -3.411232E+01  1.327974E+03 -1.506979E+05 -1.010707E+03 -8.317169E+03
       218  25  8.918916E+05  7.698778E+04  5.022701E+04 -1.506914E+05  1.579555E+04 -2.569559E+04
       218  26  7.777530E+05  5.070995E+04  3.261109E+04 -1.409812E+05  1.767260E+04 -1.716845E+04
       218  27  6.639882E+05  2.483529E+04  1.632140E+04 -1.505671E+05  1.955028E+04 -8.319504E+03
       219   1  5.157912E+05 -8.797578E+03 -4.121112E+03 -1.507907E+05  2.137527E+04  3.056078E+03
       219   2  6.296918E+05  1.696977E+04  1.051561E+04 -1.411040E+05  2.115927E+04 -5.978201E+03
       219   3  7.436464E+05  4.273937E+04  2.529688E+04 -1.507355E+05  2.094361E+04 -1.504656E+04
       219   4  5.545188E+05 -2.973749E+01  1.013687E+03 -1.507028E+05  8.019043E+02  3.058674E+03
       219   5  5.544897E+05 -4.377991E+01  5.977289E+02 -1.410436E+05  5.061049E+02 -5.976025E+03
       219   6  5.545130E+05 -4.197041E+01  3.799342E+02 -1.507028E+05  2.106815E+02 -1.504483E+04
       219   7  5.932488E+05  8.738267E+03  6.150065E+03 -1.506148E+05 -1.977268E+04  3.061263E+03
       219   8  4.792943E+05 -1.705734E+04 -9.318593E+03 -1.409832E+05 -2.014468E+04 -5.973852E+03
       219   9  3.654171E+05 -4.282459E+04 -2.453565E+04 -1.506701E+05 -2.051624E+04 -1.504310E+04
       219  10  5.157907E+05 -8.797711E+03 -4.121987E+03 -1.507908E+05  1.764528E-09 -4.931275E-10
       219  11  6.296913E+05  1.696961E+04  1.051470E+04 -1.411038E+05  1.149623E-09  7.685840E-10
       219  12  7.436458E+05  4.273901E+04  2.529563E+04 -1.507352E+05 -9.890254E-10  2.616134E-09
       219  13  5.545188E+05 -2.974771E+01  1.013669E+03 -1.507028E+05  1.126565E-09  1.891301E-10
       219  14  5.544897E+05 -4.381833E+01  5.976613E+02 -1.410436E+05  1.515444E-09  1.104640E-09
       219  15  5.545129E+05 -4.221354E+01  3.795087E+02 -1.507028E+05 -1.629130E-09  2.164466E-09
       219  16  5.932484E+05  8.738152E+03  6.149313E+03 -1.506147E+05 -1.122728E-09  8.156731E-10
       219  17  4.792939E+05 -1.705749E+04 -9.319422E+03 -1.409833E+05 -2.676264E-09  1.458698E-09
       219  18  3.654166E+05 -4.282495E+04 -2.453686E+04 -1.506703E+05  1.248522E-09  1.627640E-09
       219  19  5.157912E+05 -8.797578E+03 -4.121112E+03 -1.507907E+05 -2.137527E+04 -3.056078E+03
       219  20  6.296918E+05  1.696977E+04  1.051561E+04 -1.411040E+05 -2.115927E+04  5.978201E+03
       219  21  7.436464E+05  4.273937E+04  2.529688E+04 -1.507355E+05 -2.094361E+04  1.504656E+04
       219  22  5.545188E+05 -2.973749E+01  1.013687E+03 -1.507028E+05 -8.019043E+02 -3.058674E+03
       219  23  5.544897E+05 -4.377991E+01  5.977289E+02 -1.410436E+05 -5.061049E+02  5.976025E+03
       219  24  5.545130E+05 -4.197041E+01  3.799342E+02 -1.507028E+05 -2.106815E+02  1.504483E+04
       219  25  5.932488E+05  8.738267E+03  6.150065E+03 -1.506148E+05  1.977268E+04 -3.061263E+03
       219  26  4.792943E+05 -1.705734E+04 -9.318593E+03 -1.409832E+05  2.014468E+04  5.973852E+03
       219  27  3.654171E+05 -4.282459E+04 -2.453565E+04 -1.506701E+05  2.051624E+04  1.504310E+04
       220   1  8.143386E+05  5.882133E+04  3.504007E+04 -1.507243E+05  2.088205E+04 -2.033753E+04
       220   2  9.282876E+05  8.457144E+04  5.000275E+04 -1.410254E+05  2.063230E+04 -2.939470E+04
       220   3  1.042309E+06  1.103415E+05  6.513905E+04 -1.506491E+05  2.038431E+04 -3.839793E+04
       220   4  5.545039E+05 -4.836628E+01  3.181948E+02 -1.507039E+05  1.472488E+02 -2.033657E+04
       220   5  5.544703E+05 -7.544681E+01  2.604227E+02 -1.410422E+05  1.882114E+01 -2.939591E+04
       220   6  5.544747E+05 -1.033922E+02  2.909748E+02 -1.507039E+05 -1.077871E+02 -3.840132E+04
       220   7  2.947389E+05 -5.892071E+04 -3.440264E+04 -1.506834E+05 -2.057929E+04 -2.033561E+04
       220   8  1.807962E+05 -8.472806E+04 -4.948143E+04 -1.410590E+05 -2.058284E+04 -2.939712E+04
       220   9  6.688362E+04 -1.105582E+05 -6.455741E+04 -1.507585E+05 -2.058456E+04 -3.840471E+04
       220  10  8.143380E+05  5.882077E+04  3.503848E+04 -1.507239E+05  6.559219E-08  3.548651E-09
       220  11  9.282869E+05  8.457040E+04  5.000033E+04 -1.410249E+05 -1.348863E-09  3.056831E-09
       220  12  1.042308E+06  1.103398E+05  6.513550E+04 -1.506485E+05 -6.582572E-08 -4.905909E-11
       220  13  5.545038E+05 -4.881051E+01  3.174174E+02 -1.507039E+05  1.496384E-09  2.602871E-09
       220  14  5.544700E+05 -7.637496E+01  2.587985E+02 -1.410422E+05  3.097992E-09  1.959224E-09
       220  15  5.544744E+05 -1.049762E+02  2.882029E+02 -1.507039E+05  4.660330E-10 -5.080652E-10
       220  16  2.947383E+05 -5.892127E+04 -3.440421E+04 -1.506838E+05 -6.678612E-08  1.535909E-09
       220  17  1.807955E+05 -8.472910E+04 -4.948385E+04 -1.410595E+05  7.067501E-10  5.824120E-10
       220  18  6.688277E+04 -1.105599E+05 -6.456098E+04 -1.507592E+05  6.682478E-08 -1.153985E-09
       220  19  8.143386E+05  5.882133E+04  3.504007E+04 -1.507243E+05 -2.088205E+04  2.033753E+04
       220  20  9.282876E+05  8.457144E+04  5.000275E+04 -1.410254E+05 -2.063230E+04  2.939470E+04
       220  21  1.042309E+06  1.103415E+05  6.513905E+04 -1.506491E+05 -2.038431E+04  3.839793E+04
       220  22  5.545039E+05 -4.836628E+01  3.181948E+02 -1.507039E+05 -1.472488E+02  2.033657E+04
       220  23  5.544703E+05 -7.544681E+01  2.604227E+02 -1.410422E+05 -1.882114E+01  2.939591E+04
       220  24  5.544747E+05 -1.033922E+02  2.909748E+02 -1.507039E+05  1.077871E+02  3.840132E+04
       220  25  2.947389E+05 -5.892071E+04 -3.440264E+04 -1.506834E+05  2.057929E+04  2.033561E+04
       220  26  1.807962E+05 -8.472806E+04 -4.948143E+04 -1.410590E+05  2.058284E+04  2.939712E+04
       220  27  6.688362E+04 -1.105582E+05 -6.455741E+04 -1.507585E+05  2.058456E+04  3.840471E+04
       221   1  1.113092E+06  1.264379E+05  7.508291E+04 -1.506119E+05  2.031171E+04 -4.363675E+04
       221   2  1.227036E+06  1.522724E+05  9.075868E+04 -1.409011E+05  1.898743E+04 -5.236824E+04
       221   3  1.341271E+06  1.783433E+05  1.073681E+05 -1.504936E+05  1.766589E+04 -6.062980E+04
       221   4  5.544735E+05 -1.248903E+02  3.388986E+02 -1.506997E+05 -1.629614E+02 -4.364191E+04
       221   5  5.543998E+05 -1.624446E+02  5.133345E+02 -1.410474E+05 -4.153139E+02 -5.237707E+04
       221   6  5.544210E+05 -1.486527E+02  8.777368E+02 -1.506997E+05 -6.647136E+02 -6.064204E+04
       221   7 -3.826477E+03 -1.267008E+05 -7.440619E+04 -1.507873E+05 -2.062009E+04 -4.364708E+04
       221   8 -1.177747E+05 -1.526165E+05 -8.973457E+04 -1.411935E+05 -1.979804E+04 -5.238590E+04
       221   9 -2.317994E+05 -1.786672E+05 -1.056174E+05 -1.509054E+05 -1.897319E+04 -6.065428E+04
       221  10  1.113091E+06  1.264358E+05  7.507855E+04 -1.506112E+05 -1.052144E-07 -2.639341E-09
       221  11  1.227034E+06  1.522694E+05  9.075285E+04 -1.409003E+05 -1.031796E-08 -7.226522E-09
       221  12  1.341270E+06  1.783393E+05  1.073606E+05 -1.504927E+05  9.223160E-08 -8.534557E-09
       221  13  5.544730E+05 -1.269361E+02  3.353185E+02 -1.506997E+05  2.248769E-09 -8.525302E-10
       221  14  5.543991E+05 -1.653914E+02  5.081775E+02 -1.410474E+05 -1.300889E-09  2.614408E-09
       221  15  5.544200E+05 -1.526028E+02  8.708234E+02 -1.506997E+05 -4.745677E-10  8.618792E-09
       221  16 -3.827445E+03 -1.267030E+05 -7.441058E+04 -1.507880E+05  1.096980E-07 -3.610051E-09
       221  17 -1.177759E+05 -1.526196E+05 -8.974047E+04 -1.411944E+05  8.256659E-09 -7.561807E-09
       221  18 -2.318007E+05 -1.786712E+05 -1.056250E+05 -1.509063E+05 -9.248572E-08 -8.625968E-09
       221  19  1.113092E+06  1.264379E+05  7.508291E+04 -1.506119E+05 -2.031171E+04  4.363675E+04
       221  20  1.227036E+06  1.522724E+05  9.075868E+04 -1.409011E+05 -1.898743E+04  5.236824E+04
       221  21  1.341271E+06  1.783433E+05  1.073681E+05 -1.504936E+05 -1.766589E+04  6.062980E+04
       221  22  5.544735E+05 -1.248903E+02  3.388986E+02 -1.506997E+05  1.629614E+02  4.364191E+04
       221  23  5.543998E+05 -1.624446E+02  5.133345E+02 -1.410474E+05  4.153139E+02  5.237707E+04
       221  24  5.544210E+05 -1.486527E+02  8.777368E+02 -1.506997E+05  6.647136E+02  6.064204E+04
       221  25 -3.826477E+03 -1.267008E+05 -7.440619E+04 -1.507873E+05  2.062009E+04  4.364708E+04
       221  26 -1.177747E+05 -1.526165E+05 -8.973457E+04 -1.411935E+05  1.979804E+04  5.238590E+04
       221  27 -2.317994E+05 -1.786672E+05 -1.056174E+05 -1.509054E+05  1.897319E+04  6.065428E+04
       222   1  1.412405E+06  1.946641E+05  1.182837E+05 -1.503222E+05  1.732678E+04 -6.541478E+04
       222   2  1.525732E+06  2.214350E+05  1.384219E+05 -1.410899E+05  7.916247E+03 -7.152893E+04
       222   3  1.640920E+06  2.503388E+05  1.652341E+05 -1.509039E+05 -1.495710E+03 -7.396549E+04
       222   4  5.544652E+05 -1.504010E+02  1.154053E+03 -1.506426E+05 -8.336903E+02 -6.542951E+04
       222   5  5.542317E+05  9.475752E+01  2.025090E+03 -1.411188E+05 -1.840741E+03 -7.154452E+04
       222   6  5.543900E+05  1.017455E+03  3.744200E+03 -1.506430E+05 -2.847427E+03 -7.397890E+04
       222   7 -3.027269E+05 -1.949968E+05 -1.159820E+05 -1.509625E+05 -1.897025E+04 -6.544424E+04
       222   8 -4.163141E+05 -2.212875E+05 -1.343838E+05 -1.411476E+05 -1.158316E+04 -7.156011E+04
       222   9 -5.309561E+05 -2.483593E+05 -1.577680E+05 -1.503827E+05 -4.196877E+03 -7.399234E+04
       222  10  1.412404E+06  1.946594E+05  1.182750E+05 -1.503213E+05  4.171067E-08 -7.028793E-09
       222  11  1.525731E+06  2.214295E+05  1.384122E+05 -1.410895E+05  8.494008E-09 -2.820283E-09
       222  12  1.640918E+06  2.503329E+05  1.652239E+05 -1.509040E+05 -2.494476E-08 -8.505339E-10
       222  13  5.544641E+05 -1.549995E+02  1.146005E+03 -1.506426E+05 -2.000278E-09  1.038385E-08
       222  14  5.542303E+05  8.925864E+01  2.015462E+03 -1.411189E+05 -1.064923E-09  7.048369E-09
       222  15  5.543885E+05  1.011574E+03  3.733897E+03 -1.506432E+05  2.189049E-10  1.749205E-09
       222  16 -3.027284E+05 -1.950015E+05 -1.159907E+05 -1.509635E+05 -4.177910E-08 -6.978370E-09
       222  17 -4.163156E+05 -2.212931E+05 -1.343937E+05 -1.411483E+05 -7.305763E-09 -1.421955E-09
       222  18 -5.309576E+05 -2.483651E+05 -1.577783E+05 -1.503829E+05  2.343584E-08  2.498747E-10
       222  19  1.412405E+06  1.946641E+05  1.182837E+05 -1.503222E+05 -1.732678E+04  6.541478E+04
       222  20  1.525732E+06  2.214350E+05  1.384219E+05 -1.410899E+05 -7.916247E+03  7.152893E+04
       222  21  1.640920E+06  2.503388E+05  1.652341E+05 -1.509039E+05  1.495710E+03  7.396549E+04
       222  22  5.544652E+05 -1.504010E+02  1.154053E+03 -1.506426E+05  8.336903E+02  6.542951E+04
       222  23  5.542317E+05  9.475752E+01  2.025090E+03 -1.411188E+05  1.840741E+03  7.154452E+04
       222  24  5.543900E+05  1.017455E+03  3.744200E+03 -1.506430E+05  2.847427E+03  7.397890E+04
       222  25 -3.027269E+05 -1.949968E+05 -1.159820E+05 -1.509625E+05  1.897025E+04  6.544424E+04
       222  26 -4.163141E+05 -2.212875E+05 -1.343838E+05 -1.411476E+05  1.158316E+04  7.156011E+04
       222  27 -5.309561E+05 -2.483593E+05 -1.577680E+05 -1.503827E+05  4.196877E+03  7.399234E+04
       223   1  1.714288E+06  2.686130E+05  1.828684E+05 -1.499218E+05 -3.517197E+03 -7.519394E+04
       223   2  1.821917E+06  3.039985E+05  2.355473E+05 -1.469348E+05 -7.363965E+04 -6.092306E+04
       223   3  1.943505E+06  3.582044E+05  3.385303E+05 -1.609237E+05 -1.438213E+05 -1.802810E+04
       223   4  5.548564E+05  1.466002E+03  5.010560E+03 -1.501806E+05 -3.498318E+03 -7.520741E+04
       223   5  5.534970E+05  5.417484E+03  9.221903E+03 -1.416998E+05 -8.183887E+03 -6.087996E+04
       223   6  5.547593E+05  1.686457E+04  1.837633E+04 -1.501922E+05 -1.291176E+04 -1.790278E+04
       223   7 -6.032334E+05 -2.657458E+05 -1.728769E+05 -1.504389E+05 -3.479468E+03 -7.522090E+04
       223   8 -7.133473E+05 -2.932501E+05 -2.171485E+05 -1.364759E+05  5.714229E+04 -6.083572E+04
       223   9 -8.321708E+05 -3.246004E+05 -3.018415E+05 -1.394851E+05  1.177080E+05 -1.777283E+04
       223  10  1.714286E+06  2.686069E+05  1.828578E+05 -1.499220E+05  8.322328E-10 -1.312847E-09
       223  11  1.821910E+06  3.039931E+05  2.355302E+05 -1.469384E+05 -3.067858E-09 -2.996478E-09
       223  12  1.943483E+06  3.581985E+05  3.384910E+05 -1.609257E+05 -2.109565E-09 -9.682920E-10
       223  13  5.548548E+05  1.459924E+03  4.999904E+03 -1.501808E+05 -2.496318E-09 -3.565113E-09
       223  14  5.534960E+05  5.413485E+03  9.214810E+03 -1.417002E+05 -1.028087E-09  1.403212E-09
       223  15  5.547590E+05  1.686419E+04  1.837541E+04 -1.501924E+05 -1.263513E-09 -2.031803E-10
       223  16 -6.032349E+05 -2.657519E+05 -1.728876E+05 -1.504391E+05 -7.015557E-10 -4.243475E-10
       223  17 -7.133518E+05 -2.932549E+05 -2.171616E+05 -1.364731E+05  4.684286E-10  7.901959E-10
       223  18 -8.321857E+05 -3.246045E+05 -3.018681E+05 -1.394834E+05  3.726303E-09 -1.316986E-09
       223  19  1.714288E+06  2.686130E+05  1.828684E+05 -1.499218E+05  3.517197E+03  7.519394E+04
       223  20  1.821917E+06  3.039985E+05  2.355473E+05 -1.469348E+05  7.363965E+04  6.092306E+04
       223  21  1.943505E+06  3.582044E+05  3.385303E+05 -1.609237E+05  1.438213E+05  1.802810E+04
       223  22  5.548564E+05  1.466002E+03  5.010560E+03 -1.501806E+05  3.498318E+03  7.520741E+04
       223  23  5.534970E+05  5.417484E+03  9.221903E+03 -1.416998E+05  8.183887E+03  6.087996E+04
       223  24  5.547593E+05  1.686457E+04  1.837633E+04 -1.501922E+05  1.291176E+04  1.790278E+04
       223  25 -6.032334E+05 -2.657458E+05 -1.728769E+05 -1.504389E+05  3.479468E+03  7.522090E+04
       223  26 -7.133473E+05 -2.932501E+05 -2.171485E+05 -1.364759E+05 -5.714229E+04  6.083572E+04
       223  27 -8.321708E+05 -3.246004E+05 -3.018415E+05 -1.394851E+05 -1.177080E+05  1.777283E+04
       224   1  3.179426E+05  1.437651E+06  3.040141E+05 -4.243873E+05  1.183237E+04  9.282239E+04
       224   2  2.228698E+05  1.117587E+06  1.833217E+05 -3.944653E+05  3.595281E+04  2.818502E+04
       224   3  1.441183E+05  8.100534E+05  1.087188E+05 -4.154173E+05  3.363694E+04 -3.643296E+04
       224   4  1.346328E+04  2.044411E+05  1.375168E+04 -4.144334E+05  1.195277E+04  7.751486E+03
       224   5  5.207629E+03  2.035443E+05  8.416961E+03 -3.890021E+05  3.599400E+04  3.515190E+03
       224   6  2.820031E+03  2.046315E+05  7.293951E+03 -4.144474E+05  3.358184E+04 -7.347875E+02
       224   7 -2.911203E+05 -1.027356E+06 -2.765882E+05 -4.044985E+05  1.207060E+04 -7.715173E+04
       224   8 -2.125034E+05 -7.096934E+05 -1.665236E+05 -3.835467E+05  3.603480E+04 -2.111922E+04
       224   9 -1.384967E+05 -4.004264E+05 -9.413751E+04 -4.134783E+05  3.352680E+04  3.492976E+04
       224  10  3.179401E+05  1.437641E+06  3.039977E+05 -4.243881E+05  1.536241E-11  6.798330E-10
       224  11  2.228682E+05  1.117586E+06  1.833178E+05 -3.944661E+05 -1.176641E-09 -1.112280E-10
       224  12  1.441167E+05  8.100517E+05  1.087142E+05 -4.154163E+05  3.834025E-10 -2.259018E-09
       224  13  1.346311E+04  2.044410E+05  1.375130E+04 -4.144335E+05  1.413110E-09 -5.215046E-11
       224  14  5.206235E+03  2.035439E+05  8.414503E+03 -3.890022E+05 -7.826085E-10 -4.129886E-11
       224  15  2.818820E+03  2.046312E+05  7.291830E+03 -4.144474E+05  6.843181E-10 -1.372532E-10
       224  16 -2.911220E+05 -1.027362E+06 -2.765997E+05 -4.044977E+05  1.922367E-11 -3.002770E-10
       224  17 -2.125049E+05 -7.096942E+05 -1.665268E+05 -3.835461E+05  2.470794E-09  4.448796E-10
       224  18 -1.384982E+05 -4.004280E+05 -9.414192E+04 -4.134792E+05 -1.276708E-09  3.027723E-09
       224  19  3.179426E+05  1.437651E+06  3.040141E+05 -4.243873E+05 -1.183237E+04 -9.282239E+04
       224  20  2.228698E+05  1.117587E+06  1.833217E+05 -3.944653E+05 -3.595281E+04 -2.818502E+04
       224  21  1.441183E+05  8.100534E+05  1.087188E+05 -4.154173E+05 -3.363694E+04  3.643296E+04
       224  22  1.346328E+04  2.044411E+05  1.375168E+04 -4.144334E+05 -1.195277E+04 -7.751486E+03
       224  23  5.207629E+03  2.035443E+05  8.416961E+03 -3.890021E+05 -3.599400E+04 -3.515190E+03
       224  24  2.820031E+03  2.046315E+05  7.293951E+03 -4.144474E+05 -3.358184E+04  7.347875E+02
       224  25 -2.911203E+05 -1.027356E+06 -2.765882E+05 -4.044985E+05 -1.207060E+04  7.715173E+04
       224  26 -2.125034E+05 -7.096934E+05 -1.665236E+05 -3.835467E+05 -3.603480E+04  2.111922E+04
       224  27 -1.384967E+05 -4.004264E+05 -9.413751E+04 -4.134783E+05 -3.352680E+04 -3.492976E+04
       225   1  9.793128E+04  6.134065E+05  7.539953E+04 -4.161423E+05  2.329349E+04 -3.879261E+04
       225   2  2.508997E+04  2.990240E+05  2.424952E+04 -3.871961E+05  6.912292E+03 -4.523905E+04
       225   3 -4.383459E+04 -1.354966E+04 -2.176185E+04 -4.108808E+05 -9.961140E+03 -5.168385E+04
       225   4  2.661943E+03  2.045638E+05  7.715620E+03 -4.148371E+05  2.323342E+04 -1.957566E+03
       225   5  3.330005E+03  2.038157E+05  1.060120E+04 -3.885184E+05  6.849525E+03 -7.289511E+03
       225   6  7.724780E+03  2.045832E+05  1.784776E+04 -4.148299E+05 -1.002669E+04 -1.262282E+04
       225   7 -9.261530E+04 -2.041109E+05 -5.996819E+04 -4.135326E+05  2.317348E+04  3.485406E+04
       225   8 -1.842960E+04  1.086196E+05 -3.041847E+03 -3.898405E+05  6.786590E+03  3.065446E+04
       225   9  5.928235E+04  4.227657E+05  5.746122E+04 -4.187803E+05 -1.009272E+04  2.645154E+04
       225  10  9.793029E+04  6.134047E+05  7.539568E+04 -4.161415E+05  2.139576E-09  1.504268E-09
       225  11  2.508937E+04  2.990218E+05  2.424558E+04 -3.871958E+05  1.893704E-09 -4.014559E-10
       225  12 -4.383541E+04 -1.355255E+04 -2.176706E+04 -4.108813E+05 -2.443151E-09 -3.595663E-09
       225  13  2.661362E+03  2.045636E+05  7.714598E+03 -4.148370E+05 -1.438135E-09  8.847139E-11
       225  14  3.329941E+03  2.038156E+05  1.060101E+04 -3.885183E+05  1.267092E-09  7.437173E-12
       225  15  7.724629E+03  2.045830E+05  1.784727E+04 -4.148300E+05 -2.457129E-09 -4.941801E-11
       225  16 -9.261621E+04 -2.041124E+05 -5.997148E+04 -4.135333E+05  7.064737E-13 -8.685293E-10
       225  17 -1.842990E+04  1.086186E+05 -3.043700E+03 -3.898406E+05 -1.885186E-09  4.813509E-10
       225  18  5.928205E+04  4.227649E+05  5.745972E+04 -4.187801E+05 -1.582968E-09  4.474949E-09
       225  19  9.793128E+04  6.134065E+05  7.539953E+04 -4.161423E+05 -2.329349E+04  3.879261E+04
       225  20  2.508997E+04  2.990240E+05  2.424952E+04 -3.871961E+05 -6.912292E+03  4.523905E+04
       225  21 -4.383459E+04 -1.354966E+04 -2.176185E+04 -4.108808E+05  9.961140E+03  5.168385E+04
       225  22  2.661943E+03  2.045638E+05  7.715620E+03 -4.148371E+05 -2.323342E+04  1.957566E+03
       225  23  3.330005E+03  2.038157E+05  1.060120E+04 -3.885184E+05 -6.849525E+03  7.289511E+03
       225  24  7.724780E+03  2.045832E+05  1.784776E+04 -4.148299E+05  1.002669E+04  1.262282E+04
       225  25 -9.261530E+04 -2.041109E+05 -5.996819E+04 -4.135326E+05 -2.317348E+04 -3.485406E+04
       225  26 -1.842960E+04  1.086196E+05 -3.041847E+03 -3.898405E+05 -6.786590E+03 -3.065446E+04
       225  27  5.928235E+04  4.227657E+05  5.746122E+04 -4.187803E+05  1.009272E+04 -2.645154E+04
       226   1 -8.750177E+04 -2.075942E+05 -4.916117E+04 -4.122304E+05 -2.078618E+04 -5.383896E+04
       226   2 -1.452654E+05 -5.222228E+05 -9.931127E+04 -3.605630E+05 -2.628650E+04 -2.407555E+04
       226   3 -1.778978E+05 -8.343975E+05 -1.625826E+05 -3.600945E+05 -9.223316E+03  5.687066E+03
       226   4  9.890370E+03  2.067279E+05  2.342884E+04 -4.145121E+05 -2.084838E+04 -1.572416E+04
       226   5  2.786439E+04  2.010156E+05  4.247447E+04 -3.888742E+05 -2.626231E+04 -3.738532E+04
       226   6  7.987984E+04  2.065703E+05  8.410290E+04 -4.144181E+05 -9.127378E+03 -5.903235E+04
       226   7  1.072740E+05  6.212211E+05  9.601814E+04 -4.167952E+05 -2.091083E+04  2.241531E+04
       226   8  2.009656E+05  9.247576E+05  1.842361E+05 -4.172188E+05 -2.623692E+04 -5.071025E+04
       226   9  3.375928E+05  1.248549E+06  3.307303E+05 -4.688327E+05 -9.020216E+03 -1.238598E+05
       226  10 -8.750302E+04 -2.075974E+05 -4.916743E+04 -4.122313E+05 -1.267001E-09  3.005235E-09
       226  11 -1.452663E+05 -5.222236E+05 -9.931366E+04 -3.605635E+05  4.438022E-09  8.945724E-10
       226  12 -1.778979E+05 -8.343975E+05 -1.625828E+05 -3.600944E+05  1.703484E-09 -2.554900E-09
       226  13  9.889837E+03  2.067275E+05  2.342756E+04 -4.145123E+05  1.279096E-09  1.633388E-11
       226  14  2.786328E+04  2.010139E+05  4.247055E+04 -3.888750E+05  8.007876E-10 -1.614139E-12
       226  15  7.987882E+04  2.065665E+05  8.409619E+04 -4.144185E+05  1.485234E-09 -1.184948E-10
       226  16  1.072734E+05  6.212204E+05  9.601638E+04 -4.167949E+05 -1.713112E-09 -2.232636E-09
       226  17  2.009642E+05  9.247546E+05  1.842299E+05 -4.172199E+05 -2.102422E-09 -6.031042E-10
       226  18  3.375886E+05  1.248533E+06  3.307014E+05 -4.688336E+05  3.622501E-10  3.315434E-09
       226  19 -8.750177E+04 -2.075942E+05 -4.916117E+04 -4.122304E+05  2.078618E+04  5.383896E+04
       226  20 -1.452654E+05 -5.222228E+05 -9.931127E+04 -3.605630E+05  2.628650E+04  2.407555E+04
       226  21 -1.778978E+05 -8.343975E+05 -1.625826E+05 -3.600945E+05  9.223316E+03 -5.687066E+03
       226  22  9.890370E+03  2.067279E+05  2.342884E+04 -4.145121E+05  2.084838E+04  1.572416E+04
       226  23  2.786439E+04  2.010156E+05  4.247447E+04 -3.888742E+05  2.626231E+04  3.738532E+04
       226  24  7.987984E+04  2.065703E+05  8.410290E+04 -4.144181E+05  9.127378E+03  5.903235E+04
       226  25  1.072740E+05  6.212211E+05  9.601814E+04 -4.167952E+05  2.091083E+04 -2.241531E+04
       226  26  2.009656E+05  9.247576E+05  1.842361E+05 -4.172188E+05  2.623692E+04  5.071025E+04
       226  27  3.375928E+05  1.248549E+06  3.307303E+05 -4.688327E+05  9.020216E+03  1.238598E+05
       227   1 -6.431409E+05 -3.481664E+05 -2.051868E+05 -2.755721E+05 -9.905700E+04 -3.036394E+04
       227   2 -6.020423E+05 -2.434320E+05 -1.221486E+05 -2.566587E+05 -6.158319E+04 -6.768983E+02
       227   3 -5.780917E+05 -1.948604E+05 -8.417953E+04 -2.343226E+05 -2.008394E+04  1.831415E+04
       227   4 -2.595061E+05 -1.536497E+05 -9.708318E+04 -1.184048E+05 -6.531760E+04 -1.770052E+04
       227   5 -2.475511E+05 -9.018733E+04 -4.545429E+04 -1.341047E+05 -4.680930E+04  4.867680E+03
       227   6 -2.489733E+05 -7.911491E+04 -2.384616E+04 -1.463875E+05 -2.427993E+04  1.673739E+04
       227   7  1.242756E+05  4.091442E+04  1.101028E+04  3.886076E+04 -3.155607E+04 -5.021818E+03
       227   8  1.070699E+05  6.308219E+04  3.123347E+04 -1.148144E+04 -3.202643E+04  1.041705E+04
       227   9  8.026064E+04  3.663980E+04  3.648389E+04 -5.840907E+04 -2.847831E+04  1.515979E+04
       227  10 -6.431517E+05 -3.481700E+05 -2.052070E+05 -2.755745E+05 -1.602154E-09 -5.889449E-11
       227  11 -6.020464E+05 -2.434330E+05 -1.221558E+05 -2.566587E+05 -3.720937E-09  1.174162E-10
       227  12 -5.780922E+05 -1.948609E+05 -8.418092E+04 -2.343223E+05 -1.569913E-09  9.048222E-10
       227  13 -2.595108E+05 -1.536512E+05 -9.709179E+04 -1.184057E+05 -9.959702E-10  3.266660E-10
       227  14 -2.475535E+05 -9.018795E+04 -4.545846E+04 -1.341045E+05 -8.563491E-10  7.473761E-10
       227  15 -2.489741E+05 -7.911537E+04 -2.384779E+04 -1.463872E+05  1.212600E-09  2.006964E-11
       227  16  1.242745E+05  4.091413E+04  1.100837E+04  3.886063E+04  1.898303E-09  1.302442E-09
       227  17  1.070688E+05  6.308179E+04  3.123134E+04 -1.148117E+04  5.271534E-10  1.995877E-09
       227  18  8.025971E+04  3.663934E+04  3.648194E+04 -5.840872E+04  2.314075E-10  9.176400E-10
       227  19 -6.431409E+05 -3.481664E+05 -2.051868E+05 -2.755721E+05  9.905700E+04  3.036394E+04
       227  20 -6.020423E+05 -2.434320E+05 -1.221486E+05 -2.566587E+05  6.158319E+04  6.768983E+02
       227  21 -5.780917E+05 -1.948604E+05 -8.417953E+04 -2.343226E+05  2.008394E+04 -1.831415E+04
       227  22 -2.595061E+05 -1.536497E+05 -9.708318E+04 -1.184048E+05  6.531760E+04  1.770052E+04
       227  23 -2.475511E+05 -9.018733E+04 -4.545429E+04 -1.341047E+05  4.680930E+04 -4.867680E+03
       227  24 -2.489733E+05 -7.911491E+04 -2.384616E+04 -1.463875E+05  2.427993E+04 -1.673739E+04
       227  25  1.242756E+05  4.091442E+04  1.101028E+04  3.886076E+04  3.155607E+04  5.021818E+03
       227  26  1.070699E+05  6.308219E+04  3.123347E+04 -1.148144E+04  3.202643E+04 -1.041705E+04
       227  27  8.026064E+04  3.663980E+04  3.648389E+04 -5.840907E+04  2.847831E+04 -1.515979E+04
       228   1 -5.406430E+05 -1.878046E+05 -7.187674E+04 -2.291655E+05 -1.795802E+04  1.729175E+04
       228   2 -4.972461E+05 -1.628668E+05 -5.334233E+04 -2.120522E+05 -1.066279E+04  1.752537E+04
       228   3 -4.484746E+05 -1.482205E+05 -4.040817E+04 -2.028132E+05 -3.000688E+03  1.678169E+04
       228   4 -2.460954E+05 -7.938687E+04 -1.790859E+04 -1.452498E+05 -2.099013E+04  1.615219E+04
       228   5 -2.486791E+05 -7.249132E+04 -9.407317E+03 -1.420319E+05 -1.542645E+04  1.573628E+04
       228   6 -2.455459E+05 -7.554326E+04 -5.131916E+03 -1.466891E+05 -9.496435E+03  1.434309E+04
       228   7  4.854049E+04  2.903862E+04  3.605559E+04 -6.129766E+04 -2.402376E+04  1.501206E+04
       228   8 -4.665830E+01  1.789038E+04  3.452582E+04 -7.198532E+04 -2.019215E+04  1.394642E+04
       228   9 -4.257141E+04 -2.861354E+03  3.014386E+04 -9.054731E+04 -1.599451E+04  1.190362E+04
       228  10 -5.406434E+05 -1.878050E+05 -7.187791E+04 -2.291652E+05  5.874540E-10  7.671194E-10
       228  11 -4.972463E+05 -1.628672E+05 -5.334312E+04 -2.120520E+05 -2.192811E-09  4.336713E-10
       228  12 -4.484747E+05 -1.482208E+05 -4.040871E+04 -2.028131E+05 -1.603634E-09 -6.832149E-10
       228  13 -2.460959E+05 -7.938726E+04 -1.790991E+04 -1.452496E+05  2.027682E-09  4.111802E-10
       228  14 -2.486794E+05 -7.249165E+04 -9.408230E+03 -1.420317E+05  1.030387E-09  2.993098E-10
       228  15 -2.455460E+05 -7.554351E+04 -5.132472E+03 -1.466890E+05 -6.541332E-10 -4.936908E-10
       228  16  4.853981E+04  2.903822E+04  3.605408E+04 -6.129737E+04  1.974754E-09  2.166671E-10
       228  17 -4.714827E+01  1.789006E+04  3.452468E+04 -7.198510E+04  1.749838E-09 -1.528246E-11
       228  18 -4.257172E+04 -2.861575E+03  3.014311E+04 -9.054716E+04  3.551761E-10 -2.479467E-10
       228  19 -5.406430E+05 -1.878046E+05 -7.187674E+04 -2.291655E+05  1.795802E+04 -1.729175E+04
       228  20 -4.972461E+05 -1.628668E+05 -5.334233E+04 -2.120522E+05  1.066279E+04 -1.752537E+04
       228  21 -4.484746E+05 -1.482205E+05 -4.040817E+04 -2.028132E+05  3.000688E+03 -1.678169E+04
       228  22 -2.460954E+05 -7.938687E+04 -1.790859E+04 -1.452498E+05  2.099013E+04 -1.615219E+04
       228  23 -2.486791E+05 -7.249132E+04 -9.407317E+03 -1.420319E+05  1.542645E+04 -1.573628E+04
       228  24 -2.455459E+05 -7.554326E+04 -5.131916E+03 -1.466891E+05  9.496435E+03 -1.434309E+04
       228  25  4.854049E+04  2.903862E+04  3.605559E+04 -6.129766E+04  2.402376E+04 -1.501206E+04
       228  26 -4.665830E+01  1.789038E+04  3.452582E+04 -7.198532E+04  2.019215E+04 -1.394642E+04
       228  27 -4.257141E+04 -2.861354E+03  3.014386E+04 -9.054731E+04  1.599451E+04 -1.190362E+04
       229   1 -4.178343E+05 -1.376094E+05 -3.363868E+04 -1.946183E+05 -1.590700E+03  1.485680E+04
       229   2 -3.747282E+05 -1.169994E+05 -2.381574E+04 -1.774266E+05  9.926723E+02  1.166616E+04
       229   3 -3.244920E+05 -1.039214E+05 -1.493990E+04 -1.686526E+05  3.609308E+03  8.385921E+03
       229   4 -2.453042E+05 -7.558013E+04 -3.853385E+03 -1.465905E+05 -7.981388E+03  1.245793E+04
       229   5 -2.488731E+05 -7.176903E+04 -2.115815E+03 -1.424031E+05 -5.556829E+03  9.208062E+03
       229   6 -2.452827E+05 -7.545843E+04 -1.199388E+03 -1.466342E+05 -3.099112E+03  5.868565E+03
       229   7 -7.274249E+04 -1.354800E+04  2.593120E+04 -9.855016E+04 -1.437396E+04  1.005836E+04
       229   8 -1.230018E+05 -2.653736E+04  1.958365E+04 -1.073732E+05 -1.210771E+04  6.749446E+03
       229   9 -1.660674E+05 -4.699512E+04  1.254089E+04 -1.246134E+05 -9.808374E+03  3.350895E+03
       229  10 -4.178343E+05 -1.376096E+05 -3.363910E+04 -1.946183E+05 -7.199309E-10 -6.093175E-10
       229  11 -3.747283E+05 -1.169995E+05 -2.381600E+04 -1.774266E+05 -9.001819E-09 -3.135329E-09
       229  12 -3.244921E+05 -1.039215E+05 -1.494005E+04 -1.686526E+05 -3.797915E-09 -2.437394E-09
       229  13 -2.453043E+05 -7.558031E+04 -3.853796E+03 -1.465904E+05 -2.606275E-09 -1.423011E-09
       229  14 -2.488732E+05 -7.176913E+04 -2.116032E+03 -1.424031E+05 -6.156644E-09 -2.301722E-09
       229  15 -2.452827E+05 -7.545847E+04 -1.199471E+03 -1.466342E+05 -1.786314E-09 -1.889749E-09
       229  16 -7.274274E+04 -1.354816E+04  2.593063E+04 -9.855004E+04 -7.346580E-09 -1.820815E-09
       229  17 -1.230019E+05 -2.653745E+04  1.958329E+04 -1.073732E+05 -2.888599E-09 -1.578212E-09
       229  18 -1.660675E+05 -4.699516E+04  1.254069E+04 -1.246134E+05  7.161134E-10 -1.065160E-09
       229  19 -4.178343E+05 -1.376094E+05 -3.363868E+04 -1.946183E+05  1.590700E+03 -1.485680E+04
       229  20 -3.747282E+05 -1.169994E+05 -2.381574E+04 -1.774266E+05 -9.926723E+02 -1.166616E+04
       229  21 -3.244920E+05 -1.039214E+05 -1.493990E+04 -1.686526E+05 -3.609308E+03 -8.385921E+03
       229  22 -2.453042E+05 -7.558013E+04 -3.853385E+03 -1.465905E+05  7.981388E+03 -1.245793E+04
       229  23 -2.488731E+05 -7.176903E+04 -2.115815E+03 -1.424031E+05  5.556829E+03 -9.208062E+03
       229  24 -2.452827E+05 -7.545843E+04 -1.199388E+03 -1.466342E+05  3.099112E+03 -5.868565E+03
       229  25 -7.274249E+04 -1.354800E+04  2.593120E+04 -9.855016E+04  1.437396E+04 -1.005836E+04
       229  26 -1.230018E+05 -2.653736E+04  1.958365E+04 -1.073732E+05  1.210771E+04 -6.749446E+03
       229  27 -1.660674E+05 -4.699512E+04  1.254089E+04 -1.246134E+05  9.808374E+03 -3.350895E+03
       230   1 -2.943341E+05 -9.306596E+04 -9.254928E+03 -1.602747E+05  4.602663E+03  6.246300E+03
       230   2 -2.513179E+05 -7.262488E+04 -1.012735E+03 -1.430437E+05  6.329938E+03  2.583473E+03
       230   3 -2.009902E+05 -5.954665E+04  6.998284E+03 -1.342368E+05  8.059892E+03 -1.086510E+03
       230   4 -2.452539E+05 -7.546461E+04 -9.282816E+02 -1.466216E+05 -2.096651E+03  3.732472E+03
       230   5 -2.489098E+05 -7.178965E+04 -5.949848E+02 -1.424067E+05 -3.823726E+02  6.475802E+01
       230   6 -2.452550E+05 -7.547570E+04 -4.830507E+02 -1.466173E+05  1.334555E+03 -3.610111E+03
       230   7 -1.961705E+05 -5.786278E+04  7.398638E+03 -1.329674E+05 -8.796598E+03  1.218408E+03
       230   8 -2.465016E+05 -7.095438E+04 -1.770380E+02 -1.417698E+05 -7.094748E+03 -2.453980E+03
       230   9 -2.895177E+05 -9.140452E+04 -7.964247E+03 -1.589968E+05 -5.390275E+03 -6.133523E+03
       230  10 -2.943341E+05 -9.306601E+04 -9.255041E+03 -1.602747E+05 -2.740728E-08 -1.107408E-08
       230  11 -2.513179E+05 -7.262490E+04 -1.012823E+03 -1.430437E+05  5.326355E-09  1.364955E-10
       230  12 -2.009903E+05 -5.954667E+04  6.998159E+03 -1.342368E+05  3.327484E-08  1.069858E-08
       230  13 -2.452539E+05 -7.546462E+04 -9.283161E+02 -1.466216E+05  6.914119E-10 -1.139508E-09
       230  14 -2.489098E+05 -7.178965E+04 -5.949851E+02 -1.424067E+05  3.471621E-09 -1.346588E-09
       230  15 -2.452551E+05 -7.547571E+04 -4.830785E+02 -1.466173E+05  5.554763E-12 -1.382343E-10
       230  16 -1.961706E+05 -5.786280E+04  7.398490E+03 -1.329674E+05  3.001588E-08  8.907234E-09
       230  17 -2.465016E+05 -7.095440E+04 -1.771439E+02 -1.417698E+05  3.118337E-09 -1.862718E-09
       230  18 -2.895178E+05 -9.140457E+04 -7.964373E+03 -1.589969E+05 -2.765878E-08 -1.214411E-08
       230  19 -2.943341E+05 -9.306596E+04 -9.254928E+03 -1.602747E+05 -4.602663E+03 -6.246300E+03
       230  20 -2.513179E+05 -7.262488E+04 -1.012735E+03 -1.430437E+05 -6.329938E+03 -2.583473E+03
       230  21 -2.009902E+05 -5.954665E+04  6.998284E+03 -1.342368E+05 -8.059892E+03  1.086510E+03
       230  22 -2.452539E+05 -7.546461E+04 -9.282816E+02 -1.466216E+05  2.096651E+03 -3.732472E+03
       230  23 -2.489098E+05 -7.178965E+04 -5.949848E+02 -1.424067E+05  3.823726E+02 -6.475802E+01
       230  24 -2.452550E+05 -7.547570E+04 -4.830507E+02 -1.466173E+05 -1.334555E+03  3.610111E+03
       230  25 -1.961705E+05 -5.786278E+04  7.398638E+03 -1.329674E+05  8.796598E+03 -1.218408E+03
       230  26 -2.465016E+05 -7.095438E+04 -1.770380E+02 -1.417698E+05  7.094748E+03  2.453980E+03
       230  27 -2.895177E+05 -9.140452E+04 -7.964247E+03 -1.589968E+05  5.390275E+03  6.133523E+03
       231   1 -1.708827E+05 -4.867113E+04  1.239590E+04 -1.258512E+05  8.969440E+03 -3.262003E+03
       231   2 -1.278704E+05 -2.822603E+04  2.014069E+04 -1.086239E+05  1.069350E+04 -6.932161E+03
       231   3 -7.754575E+04 -1.513845E+04  2.765933E+04 -9.981981E+04  1.241409E+04 -1.059209E+04
       231   4 -2.452571E+05 -7.547642E+04 -4.921766E+02 -1.466172E+05  2.244033E+03 -5.785727E+03
       231   5 -2.489118E+05 -7.179341E+04 -6.457780E+02 -1.424068E+05  3.985811E+03 -9.449580E+03
       231   6 -2.452598E+05 -7.547158E+04 -1.039592E+03 -1.466205E+05  5.724101E+03 -1.310323E+04
       231   7 -3.196248E+05 -1.022808E+05 -1.338001E+04 -1.673806E+05 -4.480449E+03 -8.309103E+03
       231   8 -3.699375E+05 -1.153593E+05 -2.143247E+04 -1.761835E+05 -2.720488E+03 -1.196648E+04
       231   9 -4.129456E+05 -1.358026E+05 -2.973959E+04 -1.934098E+05 -9.640318E+02 -1.561367E+04
       231  10 -1.708828E+05 -4.867116E+04  1.239573E+04 -1.258512E+05  2.261979E-09  2.667592E-10
       231  11 -1.278705E+05 -2.822611E+04  2.014038E+04 -1.086238E+05  2.691498E-09  4.808705E-10
       231  12 -7.754594E+04 -1.513861E+04  2.765883E+04 -9.981970E+04  4.804954E-10 -2.028470E-10
       231  13 -2.452571E+05 -7.547646E+04 -4.922490E+02 -1.466172E+05  9.242909E-10 -2.014712E-10
       231  14 -2.489118E+05 -7.179351E+04 -6.459756E+02 -1.424068E+05 -1.528387E-09  8.046941E-10
       231  15 -2.452599E+05 -7.547177E+04 -1.039976E+03 -1.466204E+05 -2.024937E-09  6.113149E-10
       231  16 -3.196248E+05 -1.022809E+05 -1.338018E+04 -1.673807E+05 -1.435743E-09 -9.129735E-10
       231  17 -3.699376E+05 -1.153595E+05 -2.143275E+04 -1.761836E+05 -2.891020E-09  5.311000E-10
       231  18 -4.129457E+05 -1.358028E+05 -2.974005E+04 -1.934098E+05 -1.398856E-09  2.259102E-09
       231  19 -1.708827E+05 -4.867113E+04  1.239590E+04 -1.258512E+05 -8.969440E+03  3.262003E+03
       231  20 -1.278704E+05 -2.822603E+04  2.014069E+04 -1.086239E+05 -1.069350E+04  6.932161E+03
       231  21 -7.754575E+04 -1.513845E+04  2.765933E+04 -9.981981E+04 -1.241409E+04  1.059209E+04
       231  22 -2.452571E+05 -7.547642E+04 -4.921766E+02 -1.466172E+05 -2.244033E+03  5.785727E+03
       231  23 -2.489118E+05 -7.179341E+04 -6.457780E+02 -1.424068E+05 -3.985811E+03  9.449580E+03
       231  24 -2.452598E+05 -7.547158E+04 -1.039592E+03 -1.466205E+05 -5.724101E+03  1.310323E+04
       231  25 -3.196248E+05 -1.022808E+05 -1.338001E+04 -1.673806E+05  4.480449E+03  8.309103E+03
       231  26 -3.699375E+05 -1.153593E+05 -2.143247E+04 -1.761835E+05  2.720488E+03  1.196648E+04
       231  27 -4.129456E+05 -1.358026E+05 -2.973959E+04 -1.934098E+05  9.640318E+02  1.561367E+04
       232   1 -4.745516E+04 -4.275166E+03  3.275951E+04 -9.146916E+04  1.344917E+04 -1.271310E+04
       232   2 -4.405354E+03  1.617717E+04  3.968399E+04 -7.423048E+04  1.584158E+04 -1.605672E+04
       232   3  4.581783E+04  2.915076E+04  4.583659E+04 -6.540376E+04  1.819180E+04 -1.928590E+04
       232   4 -2.452956E+05 -7.546629E+04 -1.352819E+03 -1.466343E+05  6.747864E+03 -1.522881E+04
       232   5 -2.488761E+05 -7.177991E+04 -2.402173E+03 -1.424023E+05  9.342517E+03 -1.849722E+04
       232   6 -2.453254E+05 -7.561286E+04 -4.383908E+03 -1.465834E+05  1.189489E+04 -2.165118E+04
       232   7 -4.430944E+05 -1.466535E+05 -3.546607E+04 -2.017831E+05  4.883023E+01 -1.774367E+04
       232   8 -4.932821E+05 -1.597306E+05 -4.448949E+04 -2.105486E+05  2.846213E+03 -2.093669E+04
       232   9 -5.363756E+05 -1.803670E+05 -5.460583E+04 -2.277266E+05  5.601187E+03 -2.401526E+04
       232  10 -4.745540E+04 -4.275388E+03  3.275887E+04 -9.146902E+04  2.398919E-09  4.786721E-10
       232  11 -4.405692E+03  1.617683E+04  3.968303E+04 -7.423028E+04 -6.531471E-09 -1.751314E-09
       232  12  4.581737E+04  2.915027E+04  4.583527E+04 -6.540348E+04 -3.363259E-09 -1.679302E-09
       232  13 -2.452957E+05 -7.546655E+04 -1.353340E+03 -1.466343E+05 -4.398997E-09  2.288642E-10
       232  14 -2.488763E+05 -7.178030E+04 -2.402980E+03 -1.424022E+05 -3.141399E-09 -8.108416E-10
       232  15 -2.453257E+05 -7.561340E+04 -4.385054E+03 -1.465832E+05 -1.618962E-09 -1.440335E-09
       232  16 -4.430945E+05 -1.466539E+05 -3.546666E+04 -2.017831E+05 -8.458629E-09 -4.083233E-11
       232  17 -4.932822E+05 -1.597311E+05 -4.449033E+04 -2.105486E+05 -6.940101E-09 -2.051700E-09
       232  18 -5.363758E+05 -1.803677E+05 -5.460697E+04 -2.277265E+05  9.044876E-10 -5.169921E-10
       232  19 -4.745516E+04 -4.275166E+03  3.275951E+04 -9.146916E+04 -1.344917E+04  1.271310E+04
       232  20 -4.405354E+03  1.617717E+04  3.968399E+04 -7.423048E+04 -1.584158E+04  1.605672E+04
       232  21  4.581783E+04  2.915076E+04  4.583659E+04 -6.540376E+04 -1.819180E+04  1.928590E+04
       232  22 -2.452956E+05 -7.546629E+04 -1.352819E+03 -1.466343E+05 -6.747864E+03  1.522881E+04
       232  23 -2.488761E+05 -7.177991E+04 -2.402173E+03 -1.424023E+05 -9.342517E+03  1.849722E+04
       232  24 -2.453254E+05 -7.561286E+04 -4.383908E+03 -1.465834E+05 -1.189489E+04  2.165118E+04
       232  25 -4.430944E+05 -1.466535E+05 -3.546607E+04 -2.017831E+05 -4.883023E+01  1.774367E+04
       232  26 -4.932821E+05 -1.597306E+05 -4.448949E+04 -2.105486E+05 -2.846213E+03  2.093669E+04
       232  27 -5.363756E+05 -1.803670E+05 -5.460583E+04 -2.277266E+05 -5.601187E+03  2.401526E+04
       233   1  7.598061E+04  3.981330E+04  4.989125E+04 -5.744823E+04  1.993252E+04 -2.106666E+04
       233   2  1.183851E+05  6.060379E+04  5.388263E+04 -3.872429E+04  2.424985E+04 -2.286792E+04
       233   3  1.667119E+05  7.154203E+04  5.481382E+04 -2.777930E+04  2.810121E+04 -2.342550E+04
       233   4 -2.456010E+05 -7.556960E+04 -5.839635E+03 -1.466914E+05  1.350185E+04 -2.348266E+04
       233   5 -2.486576E+05 -7.261451E+04 -1.070899E+04 -1.419814E+05  2.002374E+04 -2.445703E+04
       233   6 -2.462327E+05 -7.995087E+04 -2.038752E+04 -1.450523E+05  2.607926E+04 -2.418739E+04
       233   7 -5.670764E+05 -1.909440E+05 -6.157437E+04 -2.358924E+05  7.074659E+03 -2.589737E+04
       233   8 -6.155599E+05 -2.058201E+05 -7.530532E+04 -2.451820E+05  1.580027E+04 -2.604513E+04
       233   9 -6.589982E+05 -2.314265E+05 -9.559498E+04 -2.622523E+05  2.405875E+04 -2.494871E+04
       233  10  7.598006E+04  3.981272E+04  4.988967E+04 -5.744789E+04 -3.638069E-10 -7.577439E-10
       233  11  1.183844E+05  6.060307E+04  5.388054E+04 -3.872385E+04 -1.758604E-09 -8.896745E-10
       233  12  1.667109E+05  7.154122E+04  5.481131E+04 -2.777877E+04  1.107844E-09 -3.716392E-10
       233  13 -2.456013E+05 -7.557024E+04 -5.841014E+03 -1.466911E+05  7.080297E-11 -8.146448E-10
       233  14 -2.486582E+05 -7.261526E+04 -1.071086E+04 -1.419811E+05 -1.491833E-09  1.553455E-10
       233  15 -2.462336E+05 -7.995168E+04 -2.038990E+04 -1.450518E+05  4.907570E-10  1.027395E-11
       233  16 -5.670767E+05 -1.909447E+05 -6.157572E+04 -2.358922E+05  6.693163E-10 -1.315442E-11
       233  17 -6.155604E+05 -2.058209E+05 -7.530706E+04 -2.451817E+05  3.090145E-10  5.944351E-10
       233  18 -6.589990E+05 -2.314273E+05 -9.559724E+04 -2.622518E+05  2.491190E-10  1.791707E-10
       233  19  7.598061E+04  3.981330E+04  4.989125E+04 -5.744823E+04 -1.993252E+04  2.106666E+04
       233  20  1.183851E+05  6.060379E+04  5.388263E+04 -3.872429E+04 -2.424985E+04  2.286792E+04
       233  21  1.667119E+05  7.154203E+04  5.481382E+04 -2.777930E+04 -2.810121E+04  2.342550E+04
       233  22 -2.456010E+05 -7.556960E+04 -5.839635E+03 -1.466914E+05 -1.350185E+04  2.348266E+04
       233  23 -2.486576E+05 -7.261451E+04 -1.070899E+04 -1.419814E+05 -2.002374E+04  2.445703E+04
       233  24 -2.462327E+05 -7.995087E+04 -2.038752E+04 -1.450523E+05 -2.607926E+04  2.418739E+04
       233  25 -5.670764E+05 -1.909440E+05 -6.157437E+04 -2.358924E+05 -7.074659E+03  2.589737E+04
       233  26 -6.155599E+05 -2.058201E+05 -7.530532E+04 -2.451820E+05 -1.580027E+04  2.604513E+04
       233  27 -6.589982E+05 -2.314265E+05 -9.559498E+04 -2.622523E+05 -2.405875E+04  2.494871E+04
       234   1  1.986897E+05  7.874717E+04  5.467700E+04 -2.561739E+04  3.318330E+04 -2.314469E+04
       234   2  2.230488E+05  1.061119E+05  4.873656E+04  2.522204E+04  3.413618E+04 -1.726406E+04
       234   3  2.358802E+05  7.976445E+04  2.777280E+04  8.122325E+04  2.997234E+04  2.226593E+03
       234   4 -2.495242E+05 -7.962614E+04 -2.714666E+04 -1.463287E+05  2.967849E+04 -2.446379E+04
       234   5 -2.473633E+05 -9.278031E+04 -5.174734E+04 -1.329791E+05  5.478624E+04 -9.507523E+03
       234   6 -2.615341E+05 -1.644612E+05 -1.105230E+05 -1.144666E+05  7.477407E+04  1.906315E+04
       234   7 -6.975268E+05 -2.379830E+05 -1.089774E+05 -2.669598E+05  2.617639E+04 -2.578194E+04
       234   8 -7.175365E+05 -2.916282E+05 -1.522393E+05 -2.910594E+05  7.541920E+04 -1.759666E+03
       234   9 -7.586780E+05 -4.086047E+05 -2.488277E+05 -3.099898E+05  1.195354E+05  3.587399E+04
       234  10  1.986883E+05  7.874629E+04  5.467392E+04 -2.561677E+04 -2.603658E-10  4.055560E-11
       234  11  2.230475E+05  1.061113E+05  4.873381E+04  2.522252E+04 -2.677622E-09  1.683161E-10
       234  12  2.358792E+05  7.976420E+04  2.777110E+04  8.122319E+04 -2.137818E-10 -5.249072E-10
       234  13 -2.495253E+05 -7.962702E+04 -2.714944E+04 -1.463281E+05 -9.712413E-10 -5.728532E-10
       234  14 -2.473666E+05 -9.278121E+04 -5.175316E+04 -1.329787E+05  9.685497E-11  2.164302E-09
       234  15 -2.615402E+05 -1.644631E+05 -1.105342E+05 -1.144678E+05 -2.043576E-09 -6.779640E-10
       234  16 -6.975277E+05 -2.379839E+05 -1.089799E+05 -2.669593E+05  3.504989E-10 -2.033112E-10
       234  17 -7.175426E+05 -2.916297E+05 -1.522500E+05 -2.910593E+05  1.122547E-09  1.151077E-09
       234  18 -7.586937E+05 -4.086099E+05 -2.488570E+05 -3.099933E+05  1.237845E-09  6.228730E-10
       234  19  1.986897E+05  7.874717E+04  5.467700E+04 -2.561739E+04 -3.318330E+04  2.314469E+04
       234  20  2.230488E+05  1.061119E+05  4.873656E+04  2.522204E+04 -3.413618E+04  1.726406E+04
       234  21  2.358802E+05  7.976445E+04  2.777280E+04  8.122325E+04 -2.997234E+04 -2.226593E+03
       234  22 -2.495242E+05 -7.962614E+04 -2.714666E+04 -1.463287E+05 -2.967849E+04  2.446379E+04
       234  23 -2.473633E+05 -9.278031E+04 -5.174734E+04 -1.329791E+05 -5.478624E+04  9.507523E+03
       234  24 -2.615341E+05 -1.644612E+05 -1.105230E+05 -1.144666E+05 -7.477407E+04 -1.906315E+04
       234  25 -6.975268E+05 -2.379830E+05 -1.089774E+05 -2.669598E+05 -2.617639E+04  2.578194E+04
       234  26 -7.175365E+05 -2.916282E+05 -1.522393E+05 -2.910594E+05 -7.541920E+04  1.759666E+03
       234  27 -7.586780E+05 -4.086047E+05 -2.488277E+05 -3.099898E+05 -1.195354E+05 -3.587399E+04
       235   1  9.299583E+05  1.284850E+05  1.121098E+05  9.472453E+03  3.051286E+04 -1.040656E+04
       235   2  8.931491E+05  1.510860E+05  9.624378E+04  2.690980E+04  1.129906E+04 -3.613735E+04
       235   3  8.538595E+05  1.536798E+05  8.789962E+04  4.945002E+04 -7.932290E+03 -4.607601E+04
       235   4  1.570837E+05 -6.137258E+04 -6.545256E+04  5.011345E+04 -4.615107E+04 -1.051326E+04
       235   5  1.614610E+05 -2.091167E+04 -3.288426E+04  4.751895E+04 -2.932213E+04 -3.620178E+04
       235   6  1.570967E+05 -6.726848E+03 -1.781207E+04  5.002712E+04 -1.251204E+04 -4.608838E+04
       235   7 -6.152223E+05 -2.512623E+05 -2.430314E+05  9.070331E+04 -1.227204E+05 -1.063005E+04
       235   8 -5.696998E+05 -1.929362E+05 -1.620255E+05  6.810293E+04 -6.989689E+04 -3.626895E+04
       235   9 -5.391801E+05 -1.671567E+05 -1.235338E+05  5.060334E+04 -1.708686E+04 -4.610076E+04
       235  10  9.299573E+05  1.284846E+05  1.121079E+05  9.472709E+03  7.351675E-09 -1.071659E-09
       235  11  8.931486E+05  1.510846E+05  9.624108E+04  2.691013E+04  8.098717E-10 -4.142920E-09
       235  12  8.538588E+05  1.536775E+05  8.789551E+04  4.944973E+04 -5.308773E-09 -2.002589E-09
       235  13  1.570814E+05 -6.137327E+04 -6.545677E+04  5.011306E+04 -6.538790E-10  3.967318E-10
       235  14  1.614597E+05 -2.091331E+04 -3.288834E+04  4.751810E+04 -5.395800E-10 -3.263254E-09
       235  15  1.570960E+05 -6.729171E+03 -1.781635E+04  5.002665E+04  2.644298E-10  1.155868E-10
       235  16 -6.152385E+05 -2.512665E+05 -2.430600E+05  9.070226E+04 -3.830949E-09 -1.546316E-10
       235  17 -5.697054E+05 -1.929389E+05 -1.620372E+05  6.810089E+04 -3.297340E-10 -5.803103E-09
       235  18 -5.391809E+05 -1.671591E+05 -1.235383E+05  5.060270E+04  3.140397E-09 -4.771374E-09
       235  19  9.299583E+05  1.284850E+05  1.121098E+05  9.472453E+03 -3.051286E+04  1.040656E+04
       235  20  8.931491E+05  1.510860E+05  9.624378E+04  2.690980E+04 -1.129906E+04  3.613735E+04
       235  21  8.538595E+05  1.536798E+05  8.789962E+04  4.945002E+04  7.932290E+03  4.607601E+04
       235  22  1.570837E+05 -6.137258E+04 -6.545256E+04  5.011345E+04  4.615107E+04  1.051326E+04
       235  23  1.614610E+05 -2.091167E+04 -3.288426E+04  4.751895E+04  2.932213E+04  3.620178E+04
       235  24  1.570967E+05 -6.726848E+03 -1.781207E+04  5.002712E+04  1.251204E+04  4.608838E+04
       235  25 -6.152223E+05 -2.512623E+05 -2.430314E+05  9.070331E+04  1.227204E+05  1.063005E+04
       235  26 -5.696998E+05 -1.929362E+05 -1.620255E+05  6.810293E+04  6.989689E+04  3.626895E+04
       235  27 -5.391801E+05 -1.671567E+05 -1.235338E+05  5.060334E+04  1.708686E+04  4.610076E+04
       236   1  8.310036E+05  1.491301E+05  8.552947E+04  4.826705E+04 -6.371057E+03 -4.656483E+04
       236   2  7.932765E+05  1.429194E+05  8.109127E+04  4.665907E+04 -7.386768E+03 -4.723257E+04
       236   3  7.552860E+05  1.351287E+05  7.692130E+04  5.130018E+04 -8.406271E+03 -4.587083E+04
       236   4  1.588077E+05 -4.988764E+03 -1.331593E+04  5.028642E+04 -1.019898E+04 -4.657617E+04
       236   5  1.593495E+05 -1.449736E+03 -7.209088E+03  4.715738E+04 -6.585391E+03 -4.723607E+04
       236   6  1.588231E+05 -2.948273E+02 -4.047925E+03  5.027788E+04 -2.975570E+03 -4.586539E+04
       236   7 -5.129337E+05 -1.591286E+05 -1.121693E+05  5.230332E+04 -1.402293E+04 -4.658754E+04
       236   8 -4.741703E+05 -1.458367E+05 -9.551441E+04  4.765498E+04 -5.784793E+03 -4.723956E+04
       236   9 -4.372779E+05 -1.357338E+05 -8.502055E+04  4.925644E+04  2.450157E+03 -4.585997E+04
       236  10  8.310030E+05  1.491278E+05  8.552532E+04  4.826681E+04 -6.567232E-09 -2.034102E-09
       236  11  7.932759E+05  1.429170E+05  8.108698E+04  4.665879E+04 -4.711247E-09  1.764483E-09
       236  12  7.552853E+05  1.351264E+05  7.691722E+04  5.129987E+04  2.472591E-09  1.179842E-09
       236  13  1.588070E+05 -4.991122E+03 -1.332020E+04  5.028604E+04 -6.597343E-10 -9.688922E-10
       236  14  1.593489E+05 -1.452144E+03 -7.213363E+03  4.715713E+04 -2.695351E-09  1.254085E-10
       236  15  1.588226E+05 -2.970888E+02 -4.051895E+03  5.027777E+04  1.818180E-09 -3.097480E-09
       236  16 -5.129345E+05 -1.591310E+05 -1.121737E+05  5.230280E+04  5.623845E-09  4.614735E-10
       236  17 -4.741709E+05 -1.458391E+05 -9.551867E+04  4.765475E+04  6.892582E-09  1.596500E-09
       236  18 -4.372784E+05 -1.357360E+05 -8.502452E+04  4.925653E+04  3.381395E-10 -7.692444E-10
       236  19  8.310036E+05  1.491301E+05  8.552947E+04  4.826705E+04  6.371057E+03  4.656483E+04
       236  20  7.932765E+05  1.429194E+05  8.109127E+04  4.665907E+04  7.386768E+03  4.723257E+04
       236  21  7.552860E+05  1.351287E+05  7.692130E+04  5.130018E+04  8.406271E+03  4.587083E+04
       236  22  1.588077E+05 -4.988764E+03 -1.331593E+04  5.028642E+04  1.019898E+04  4.657617E+04
       236  23  1.593495E+05 -1.449736E+03 -7.209088E+03  4.715738E+04  6.585391E+03  4.723607E+04
       236  24  1.588231E+05 -2.948273E+02 -4.047925E+03  5.027788E+04  2.975570E+03  4.586539E+04
       236  25 -5.129337E+05 -1.591286E+05 -1.121693E+05  5.230332E+04  1.402293E+04  4.658754E+04
       236  26 -4.741703E+05 -1.458367E+05 -9.551441E+04  4.765498E+04  5.784793E+03  4.723956E+04
       236  27 -4.372779E+05 -1.357338E+05 -8.502055E+04  4.925644E+04 -2.450157E+03  4.585997E+04
       237   1  7.318821E+05  1.297917E+05  7.420299E+04  5.112191E+04 -7.903134E+03 -4.439851E+04
       237   2  6.941013E+05  1.213516E+05  6.986945E+04  4.795354E+04 -7.648927E+03 -4.184733E+04
       237   3  6.562564E+05  1.128338E+05  6.534771E+04  5.117570E+04 -7.396034E+03 -3.903585E+04
       237   4  1.590282E+05 -1.708726E+02 -3.053576E+03  5.030986E+04 -2.377256E+03 -4.439234E+04
       237   5  1.591193E+05  9.120087E+01 -1.714083E+03  4.711409E+04 -1.529852E+03 -4.183912E+04
       237   6  1.590419E+05  1.726371E+02 -9.749321E+02  5.030918E+04 -6.837462E+02 -3.902549E+04
       237   7 -4.134917E+05 -1.301476E+05 -8.031306E+04  4.949843E+04  3.143763E+03 -4.438618E+04
       237   8 -3.755710E+05 -1.211814E+05 -7.329991E+04  4.627526E+04  4.584200E+03 -4.183093E+04
       237   9 -3.379206E+05 -1.124991E+05 -6.729943E+04  4.944325E+04  6.023421E+03 -3.901515E+04
       237  10  7.318815E+05  1.297896E+05  7.419917E+04  5.112163E+04 -1.046237E-09  1.724382E-09
       237  11  6.941008E+05  1.213497E+05  6.986605E+04  4.795328E+04 -4.970569E-10  1.977728E-09
       237  12  6.562560E+05  1.128322E+05  6.534475E+04  5.117546E+04  4.191584E-09  1.425191E-09
       237  13  1.590276E+05 -1.729905E+02 -3.057290E+03  5.030978E+04 -1.778460E-09 -3.876666E-09
       237  14  1.591189E+05  8.932036E+01 -1.717377E+03  4.711404E+04  5.363154E-10  9.269807E-10
       237  15  1.590415E+05  1.710015E+02 -9.777952E+02  5.030916E+04 -1.482119E-09  3.624508E-09
       237  16 -4.134923E+05 -1.301497E+05 -8.031678E+04  4.949855E+04  2.196648E-09 -2.228422E-10
       237  17 -3.755715E+05 -1.211833E+05 -7.330323E+04  4.627541E+04 -1.364897E-09  1.217545E-09
       237  18 -3.379210E+05 -1.125007E+05 -6.730236E+04  4.944344E+04 -3.370451E-09  8.285138E-11
       237  19  7.318821E+05  1.297917E+05  7.420299E+04  5.112191E+04  7.903134E+03  4.439851E+04
       237  20  6.941013E+05  1.213516E+05  6.986945E+04  4.795354E+04  7.648927E+03  4.184733E+04
       237  21  6.562564E+05  1.128338E+05  6.534771E+04  5.117570E+04  7.396034E+03  3.903585E+04
       237  22  1.590282E+05 -1.708726E+02 -3.053576E+03  5.030986E+04  2.377256E+03  4.439234E+04
       237  23  1.591193E+05  9.120087E+01 -1.714083E+03  4.711409E+04  1.529852E+03  4.183912E+04
       237  24  1.590419E+05  1.726371E+02 -9.749321E+02  5.030918E+04  6.837462E+02  3.902549E+04
       237  25 -4.134917E+05 -1.301476E+05 -8.031306E+04  4.949843E+04 -3.143763E+03  4.438618E+04
       237  26 -3.755710E+05 -1.211814E+05 -7.329991E+04  4.627526E+04 -4.584200E+03  4.183093E+04
       237  27 -3.379206E+05 -1.124991E+05 -6.729943E+04  4.944325E+04 -6.023421E+03  3.901515E+04
       238   1  6.328171E+05  1.074877E+05  6.228050E+04  5.112226E+04 -7.257850E+03 -3.731276E+04
       238   2  5.950447E+05  9.892814E+04  5.755745E+04  4.786188E+04 -7.132691E+03 -3.434975E+04
       238   3  5.572431E+05  9.039579E+04  5.275332E+04  5.100595E+04 -7.008316E+03 -3.135378E+04
       238   4  1.590738E+05  1.783836E+02 -7.365144E+02  5.031233E+04 -5.343712E+02 -3.730183E+04
       238   5  1.591016E+05  1.823743E+02 -4.148113E+02  4.710996E+04 -3.343916E+02 -3.433783E+04
       238   6  1.590850E+05  2.004070E+02 -2.265058E+02  5.031230E+04 -1.351901E+02 -3.134087E+04
       238   7 -3.144406E+05 -1.071404E+05 -6.375514E+04  4.950293E+04  6.184222E+03 -3.729092E+04
       238   8 -2.766477E+05 -9.857145E+04 -5.838840E+04  4.635850E+04  6.459361E+03 -3.432593E+04
       238   9 -2.389113E+05 -9.000170E+04 -5.320741E+04  4.961903E+04  6.733737E+03 -3.132796E+04
       238  10  6.328167E+05  1.074862E+05  6.227778E+04  5.112204E+04  1.231258E-09  1.912221E-09
       238  11  5.950444E+05  9.892686E+04  5.755514E+04  4.786168E+04 -1.271489E-09  8.439733E-09
       238  12  5.572428E+05  9.039472E+04  5.275138E+04  5.100577E+04 -3.735246E-09  6.135604E-09
       238  13  1.590734E+05  1.768893E+02 -7.391299E+02  5.031231E+04 -5.360918E-10  1.688264E-09
       238  14  1.591012E+05  1.811081E+02 -4.170274E+02  4.710996E+04 -4.314067E-10  7.229872E-09
       238  15  1.590848E+05  1.993522E+02 -2.283518E+02  5.031230E+04 -2.627921E-09  3.364207E-09
       238  16 -3.144410E+05 -1.071419E+05 -6.375782E+04  4.950312E+04 -2.971439E-09  6.978668E-11
       238  17 -2.766481E+05 -9.857273E+04 -5.839069E+04  4.635868E+04  6.254247E-10  7.492711E-10
       238  18 -2.389116E+05 -9.000277E+04 -5.320934E+04  4.961920E+04  2.534631E-09  1.247265E-09
       238  19  6.328171E+05  1.074877E+05  6.228050E+04  5.112226E+04  7.257850E+03  3.731276E+04
       238  20  5.950447E+05  9.892814E+04  5.755745E+04  4.786188E+04  7.132691E+03  3.434975E+04
       238  21  5.572431E+05  9.039579E+04  5.275332E+04  5.100595E+04  7.008316E+03  3.135378E+04
       238  22  1.590738E+05  1.783836E+02 -7.365144E+02  5.031233E+04  5.343712E+02  3.730183E+04
       238  23  1.591016E+05  1.823743E+02 -4.148113E+02  4.710996E+04  3.343916E+02  3.433783E+04
       238  24  1.590850E+05  2.004070E+02 -2.265058E+02  5.031230E+04  1.351901E+02  3.134087E+04
       238  25 -3.144406E+05 -1.071404E+05 -6.375514E+04  4.950293E+04 -6.184222E+03  3.729092E+04
       238  26 -2.766477E+05 -9.857145E+04 -5.838840E+04  4.635850E+04 -6.459361E+03  3.432593E+04
       238  27 -2.389113E+05 -9.000170E+04 -5.320741E+04  4.961903E+04 -6.733737E+03  3.132796E+04
       239   1  5.338084E+05  8.506196E+04  4.956470E+04  5.096945E+04 -6.976961E+03 -2.959927E+04
       239   2  4.960525E+05  7.650967E+04  4.469640E+04  4.770735E+04 -6.956825E+03 -2.658481E+04
       239   3  4.582743E+05  6.798928E+04  3.981398E+04  5.085222E+04 -6.937249E+03 -2.356689E+04
       239   4  1.590928E+05  2.025346E+02 -1.628573E+02  5.031286E+04 -1.032583E+02 -2.958591E+04
       239   5  1.591094E+05  1.927036E+02 -6.873520E+01  4.710927E+04 -7.538223E+01 -2.657078E+04
       239   6  1.591015E+05  2.135920E+02  5.939582E+00  5.031285E+04 -4.806489E+01 -2.355218E+04
       239   7 -2.154795E+05 -8.466283E+04 -4.989131E+04  4.965660E+04  6.766493E+03 -2.957257E+04
       239   8 -1.777177E+05 -7.612907E+04 -4.483457E+04  4.651147E+04  6.802503E+03 -2.655676E+04
       239   9 -1.399798E+05 -6.756588E+04 -3.980264E+04  4.977370E+04  6.837956E+03 -2.353749E+04
       239  10  5.338082E+05  8.506100E+04  4.956296E+04  5.096929E+04 -1.643465E-08  1.655776E-09
       239  11  4.960523E+05  7.650890E+04  4.469498E+04  4.770720E+04  8.528965E-09  9.561094E-10
       239  12  4.582741E+05  6.798867E+04  3.981285E+04  5.085208E+04  3.883166E-08  4.051414E-09
       239  13  1.590926E+05  2.015946E+02 -1.645024E+02  5.031286E+04  6.581031E-10  4.965877E-09
       239  14  1.591093E+05  1.919454E+02 -7.006203E+01  4.710927E+04  2.737368E-09 -7.183790E-09
       239  15  1.591014E+05  2.129963E+02  4.897101E+00  5.031285E+04  1.162099E-09 -1.477282E-08
       239  16 -2.154798E+05 -8.466378E+04 -4.989304E+04  4.965676E+04  1.523232E-08  4.217357E-09
       239  17 -1.777179E+05 -7.612984E+04 -4.483599E+04  4.651161E+04 -1.122162E-08  6.116369E-10
       239  18 -1.399800E+05 -6.756649E+04 -3.980377E+04  4.977383E+04 -3.816646E-08  1.883144E-09
       239  19  5.338084E+05  8.506196E+04  4.956470E+04  5.096945E+04  6.976961E+03  2.959927E+04
       239  20  4.960525E+05  7.650967E+04  4.469640E+04  4.770735E+04  6.956825E+03  2.658481E+04
       239  21  4.582743E+05  6.798928E+04  3.981398E+04  5.085222E+04  6.937249E+03  2.356689E+04
       239  22  1.590928E+05  2.025346E+02 -1.628573E+02  5.031286E+04  1.032583E+02  2.958591E+04
       239  23  1.591094E+05  1.927036E+02 -6.873520E+01  4.710927E+04  7.538223E+01  2.657078E+04
       239  24  1.591015E+05  2.135920E+02  5.939582E+00  5.031285E+04  4.806489E+01  2.355218E+04
       239  25 -2.154795E+05 -8.466283E+04 -4.989131E+04  4.965660E+04 -6.766493E+03  2.957257E+04
       239  26 -1.777177E+05 -7.612907E+04 -4.483457E+04  4.651147E+04 -6.802503E+03  2.655676E+04
       239  27 -1.399798E+05 -6.756588E+04 -3.980264E+04  4.977370E+04 -6.837956E+03  2.353749E+04
       240   1  4.348510E+05  6.266001E+04  3.660512E+04  5.081625E+04 -6.944329E+03 -2.180926E+04
       240   2  3.971048E+05  5.411680E+04  3.173699E+04  4.754569E+04 -7.007710E+03 -1.879124E+04
       240   3  3.593466E+05  4.562160E+04  2.691165E+04  5.067892E+04 -7.071471E+03 -1.577606E+04
       240   4  1.591068E+05  2.165575E+02  4.188299E+01  5.031214E+04 -5.585020E+01 -2.179424E+04
       240   5  1.591160E+05  2.116291E+02  1.276084E+02  4.711014E+04 -1.258952E+02 -1.877577E+04
       240   6  1.591129E+05  2.559041E+02  2.606128E+02  5.031206E+04 -1.963236E+02 -1.576014E+04
       240   7 -1.165598E+05 -6.223010E+04 -3.652175E+04  4.980821E+04  6.829714E+03 -2.177922E+04
       240   8 -7.881494E+04 -5.369592E+04 -3.148204E+04  4.667473E+04  6.753406E+03 -1.876030E+04
       240   9 -4.107973E+04 -4.511147E+04 -2.639056E+04  4.994530E+04  6.676711E+03 -1.574423E+04
       240  10  4.348509E+05  6.265949E+04  3.660413E+04  5.081613E+04 -1.040281E-07  6.485437E-09
       240  11  3.971046E+05  5.411640E+04  3.173624E+04  4.754559E+04 -7.863483E-09  9.264510E-10
       240  12  3.593465E+05  4.562132E+04  2.691109E+04  5.067883E+04  9.520587E-08  9.777115E-10
       240  13  1.591067E+05  2.160474E+02  4.099032E+01  5.031214E+04  1.670386E-09 -1.416680E-08
       240  14  1.591159E+05  2.112506E+02  1.269459E+02  4.711014E+04 -6.052538E-10 -9.021259E-09
       240  15  1.591129E+05  2.556373E+02  2.601459E+02  5.031206E+04 -3.387821E-10 -1.597632E-09
       240  16 -1.165600E+05 -6.223062E+04 -3.652273E+04  4.980833E+04  1.051650E-07  5.270076E-09
       240  17 -7.881508E+04 -5.369631E+04 -3.148279E+04  4.667483E+04  4.520460E-09 -7.349430E-09
       240  18 -4.107985E+04 -4.511175E+04 -2.639111E+04  4.994538E+04 -9.321940E-08 -2.116649E-09
       240  19  4.348510E+05  6.266001E+04  3.660512E+04  5.081625E+04  6.944329E+03  2.180926E+04
       240  20  3.971048E+05  5.411680E+04  3.173699E+04  4.754569E+04  7.007710E+03  1.879124E+04
       240  21  3.593466E+05  4.562160E+04  2.691165E+04  5.067892E+04  7.071471E+03  1.577606E+04
       240  22  1.591068E+05  2.165575E+02  4.188299E+01  5.031214E+04  5.585020E+01  2.179424E+04
       240  23  1.591160E+05  2.116291E+02  1.276084E+02  4.711014E+04  1.258952E+02  1.877577E+04
       240  24  1.591129E+05  2.559041E+02  2.606128E+02  5.031206E+04  1.963236E+02  1.576014E+04
       240  25 -1.165598E+05 -6.223010E+04 -3.652175E+04  4.980821E+04 -6.829714E+03  2.177922E+04
       240  26 -7.881494E+04 -5.369592E+04 -3.148204E+04  4.667473E+04 -6.753406E+03  1.876030E+04
       240  27 -4.107973E+04 -4.511147E+04 -2.639056E+04  4.994530E+04 -6.676711E+03  1.574423E+04
       241   1  3.359454E+05  4.030268E+04  2.375724E+04  5.065456E+04 -7.125657E+03 -1.402138E+04
       241   2  2.981742E+05  3.185163E+04  1.907117E+04  4.724788E+04 -7.400006E+03 -1.102070E+04
       241   3  2.604637E+05  2.363960E+04  1.461203E+04  5.024106E+04 -7.674508E+03 -8.044145E+03
       241   4  1.591324E+05  2.687708E+02  3.540335E+02  5.031125E+04 -2.521512E+02 -1.400525E+04
       241   5  1.591002E+05  3.588565E+02  6.440632E+02  4.711078E+04 -5.817293E+02 -1.100443E+04
       241   6  1.591360E+05  6.974359E+02  1.199072E+03  5.031024E+04 -9.114742E+02 -8.027749E+03
       241   7 -1.764845E+04 -3.976643E+04 -2.304922E+04  4.996802E+04  6.619490E+03 -1.398912E+04
       241   8  2.004595E+04 -3.113471E+04 -1.778301E+04  4.697371E+04  6.235092E+03 -1.098816E+04
       241   9  5.781888E+04 -2.224514E+04 -1.221379E+04  5.037941E+04  5.850508E+03 -8.011350E+03
       241  10  3.359453E+05  4.030245E+04  2.375677E+04  5.065448E+04  1.534076E-08  5.327260E-09
       241  11  2.981741E+05  3.185149E+04  1.907084E+04  4.724781E+04  1.985337E-08 -1.709761E-10
       241  12  2.604636E+05  2.363952E+04  1.461179E+04  5.024101E+04  2.478157E-08  9.402125E-10
       241  13  1.591324E+05  2.685601E+02  3.536647E+02  5.031125E+04 -1.524959E-09  4.841645E-09
       241  14  1.591001E+05  3.587264E+02  6.438350E+02  4.711078E+04  5.487641E-10  1.098076E-08
       241  15  1.591360E+05  6.973664E+02  1.198950E+03  5.031023E+04 -4.330153E-10  1.337019E-08
       241  16 -1.764855E+04 -3.976666E+04 -2.304967E+04  4.996810E+04 -1.681664E-08 -1.681267E-11
       241  17  2.004587E+04 -3.113485E+04 -1.778331E+04  4.697376E+04 -2.011896E-08 -1.442391E-09
       241  18  5.781883E+04 -2.224522E+04 -1.221397E+04  5.037944E+04 -2.769283E-08 -1.055910E-08
       241  19  3.359454E+05  4.030268E+04  2.375724E+04  5.065456E+04  7.125657E+03  1.402138E+04
       241  20  2.981742E+05  3.185163E+04  1.907117E+04  4.724788E+04  7.400006E+03  1.102070E+04
       241  21  2.604637E+05  2.363960E+04  1.461203E+04  5.024106E+04  7.674508E+03  8.044145E+03
       241  22  1.591324E+05  2.687708E+02  3.540335E+02  5.031125E+04  2.521512E+02  1.400525E+04
       241  23  1.591002E+05  3.588565E+02  6.440632E+02  4.711078E+04  5.817293E+02  1.100443E+04
       241  24  1.591360E+05  6.974359E+02  1.199072E+03  5.031024E+04  9.114742E+02  8.027749E+03
       241  25 -1.764845E+04 -3.976643E+04 -2.304922E+04  4.996802E+04 -6.619490E+03  1.398912E+04
       241  26  2.004595E+04 -3.113471E+04 -1.778301E+04  4.697371E+04 -6.235092E+03  1.098816E+04
       241  27  5.781888E+04 -2.224514E+04 -1.221379E+04  5.037941E+04 -5.850508E+03  8.011350E+03
       242   1  2.371916E+05  1.845674E+04  1.173441E+04  5.032455E+04 -7.877689E+03 -6.313168E+03
       242   2  1.991195E+05  1.114250E+04  7.930874E+03  4.524799E+04 -8.972951E+03 -3.447972E+03
       242   3  1.617363E+05  6.162792E+03  5.411922E+03  4.655414E+04 -1.006780E+04 -7.697640E+02
       242   4  1.592910E+05  8.549321E+02  1.606158E+03  5.030718E+04 -1.123924E+03 -6.296692E+03
       242   5  1.589104E+05  2.120974E+03  2.968243E+03  4.710991E+04 -2.645736E+03 -3.432490E+03
       242   6  1.592916E+05  5.795808E+03  5.911102E+03  5.029528E+04 -4.167200E+03 -7.552922E+02
       242   7  8.139666E+04 -1.674711E+04 -8.521957E+03  5.028981E+04  5.629034E+03 -6.280215E+03
       242   8  1.187029E+05 -6.900578E+03 -1.994237E+03  4.897170E+04  3.681090E+03 -3.416971E+03
       242   9  1.568471E+05  5.428896E+03  6.410422E+03  5.403640E+04  1.733386E+03 -7.407493E+02
       242  10  2.371915E+05  1.845668E+04  1.173422E+04  5.032451E+04 -1.415930E-08 -7.063457E-10
       242  11  1.991194E+05  1.114246E+04  7.930700E+03  4.524796E+04 -1.324588E-08 -3.532463E-09
       242  12  1.617362E+05  6.162765E+03  5.411731E+03  4.655414E+04 -9.435053E-09 -1.174355E-09
       242  13  1.592910E+05  8.548892E+02  1.606081E+03  5.030718E+04 -1.380522E-09  1.728015E-08
       242  14  1.589103E+05  2.120960E+03  2.968208E+03  4.710990E+04 -6.317002E-10 -1.382034E-10
       242  15  1.592916E+05  5.795803E+03  5.911068E+03  5.029528E+04  1.785493E-10  3.400473E-09
       242  16  8.139662E+04 -1.674716E+04 -8.522091E+03  5.028984E+04  1.227811E-08 -4.402953E-09
       242  17  1.187029E+05 -6.900595E+03 -1.994284E+03  4.897171E+04  1.389957E-08 -2.480082E-09
       242  18  1.568471E+05  5.428894E+03  6.410416E+03  5.403640E+04  1.189579E-08 -1.512758E-09
       242  19  2.371916E+05  1.845674E+04  1.173441E+04  5.032455E+04  7.877689E+03  6.313168E+03
       242  20  1.991195E+05  1.114250E+04  7.930874E+03  4.524799E+04  8.972951E+03  3.447972E+03
       242  21  1.617363E+05  6.162792E+03  5.411922E+03  4.655414E+04  1.006780E+04  7.697640E+02
       242  22  1.592910E+05  8.549321E+02  1.606158E+03  5.030718E+04  1.123924E+03  6.296692E+03
       242  23  1.589104E+05  2.120974E+03  2.968243E+03  4.710991E+04  2.645736E+03  3.432490E+03
       242  24  1.592916E+05  5.795808E+03  5.911102E+03  5.029528E+04  4.167200E+03  7.552922E+02
       242  25  8.139666E+04 -1.674711E+04 -8.521957E+03  5.028981E+04 -5.629034E+03  6.280215E+03
       242  26  1.187029E+05 -6.900578E+03 -1.994237E+03  4.897170E+04 -3.681090E+03  3.416971E+03
       242  27  1.568471E+05  5.428896E+03  6.410422E+03  5.403640E+04 -1.733386E+03  7.407493E+02
       243   1 -1.015648E+04  4.445289E+05 -5.713519E+03 -7.383535E+04 -2.723026E+03 -4.980551E+03
       243   2 -3.505942E+04  3.886669E+05 -1.832174E+04 -6.206453E+04 -1.061600E+04 -6.367245E+03
       243   3 -5.110977E+04  3.351666E+05 -2.782766E+04 -6.153946E+04 -1.620535E+04 -7.750560E+03
       243   4  1.823653E+04  5.610254E+05  2.001684E+04 -6.207251E+04 -2.746939E+03  1.218216E+04
       243   5  4.975379E+03  5.594657E+05  1.123647E+04 -5.646088E+04 -1.063317E+04  6.424433E+03
       243   6  1.324182E+03  5.610234E+05  8.591694E+03 -6.209421E+04 -1.621603E+04  6.699760E+02
       243   7  4.662932E+04  6.775355E+05  4.574755E+04 -5.030743E+04 -2.770199E+03  2.934806E+04
       243   8  4.500882E+04  7.302935E+05  4.079431E+04 -5.085563E+04 -1.065010E+04  1.921952E+04
       243   9  5.375560E+04  7.869309E+05  4.500993E+04 -6.264916E+04 -1.622672E+04  9.093465E+03
       243  10 -1.015649E+04  4.445289E+05 -5.713580E+03 -7.383536E+04  1.574894E-09  4.040580E-09
       243  11 -3.505955E+04  3.886668E+05 -1.832203E+04 -6.206458E+04 -1.947865E-11  1.366951E-09
       243  12 -5.111007E+04  3.351664E+05 -2.782827E+04 -6.153956E+04  3.075189E-09 -1.957270E-09
       243  13  1.823649E+04  5.610252E+05  2.001655E+04 -6.207248E+04 -4.744552E-11 -9.964791E-11
       243  14  4.975247E+03  5.594656E+05  1.123618E+04 -5.646083E+04  7.633683E-10 -2.788840E-09
       243  15  1.323900E+03  5.610233E+05  8.591199E+03 -6.209421E+04 -7.208355E-10  3.334531E-09
       243  16  4.662908E+04  6.775346E+05  4.574592E+04 -5.030737E+04  1.231168E-09 -5.341186E-09
       243  17  4.500860E+04  7.302930E+05  4.079341E+04 -5.085547E+04 -8.258470E-10 -9.143108E-10
       243  18  5.375529E+04  7.869307E+05  4.500928E+04 -6.264904E+04  1.433539E-09  1.514205E-09
       243  19 -1.015648E+04  4.445289E+05 -5.713519E+03 -7.383535E+04  2.723026E+03  4.980551E+03
       243  20 -3.505942E+04  3.886669E+05 -1.832174E+04 -6.206453E+04  1.061600E+04  6.367245E+03
       243  21 -5.110977E+04  3.351666E+05 -2.782766E+04 -6.153946E+04  1.620535E+04  7.750560E+03
       243  22  1.823653E+04  5.610254E+05  2.001684E+04 -6.207251E+04  2.746939E+03 -1.218216E+04
       243  23  4.975379E+03  5.594657E+05  1.123647E+04 -5.646088E+04  1.063317E+04 -6.424433E+03
       243  24  1.324182E+03  5.610234E+05  8.591694E+03 -6.209421E+04  1.621603E+04 -6.699760E+02
       243  25  4.662932E+04  6.775355E+05  4.574755E+04 -5.030743E+04  2.770199E+03 -2.934806E+04
       243  26  4.500882E+04  7.302935E+05  4.079431E+04 -5.085563E+04  1.065010E+04 -1.921952E+04
       243  27  5.375560E+04  7.869309E+05  4.500993E+04 -6.264916E+04  1.622672E+04 -9.093465E+03
       244   1 -5.925261E+04  2.999589E+05 -3.343022E+04 -6.275180E+04 -1.878042E+04 -9.303032E+03
       244   2 -7.203719E+04  2.447327E+05 -4.047015E+04 -5.575194E+04 -2.258997E+04 -1.173812E+04
       244   3 -8.234033E+04  1.904235E+05 -4.531191E+04 -5.978237E+04 -2.494413E+04 -1.417067E+04
       244   4  1.243235E+03  5.606365E+05  8.509565E+03 -6.204451E+04 -1.879099E+04 -6.922320E+02
       244   5  1.149157E+03  5.599338E+05  1.039171E+04 -5.652777E+04 -2.259623E+04 -5.889947E+03
       244   6  4.015139E+03  5.606235E+05  1.638829E+04 -6.204083E+04 -2.494645E+04 -1.108535E+04
       244   7  6.173570E+04  8.213818E+05  5.044781E+04 -6.133688E+04 -1.880153E+04  7.922053E+03
       244   8  7.433050E+04  8.752334E+05  6.125100E+04 -5.730398E+04 -2.260251E+04 -3.891419E+01
       244   9  9.036350E+04  9.309587E+05  7.808433E+04 -6.430063E+04 -2.494880E+04 -7.998237E+03
       244  10 -5.925302E+04  2.999587E+05 -3.343105E+04 -6.275194E+04  3.020215E-09 -3.807833E-09
       244  11 -7.203777E+04  2.447324E+05 -4.047137E+04 -5.575216E+04  5.702840E-11 -1.506835E-09
       244  12 -8.234105E+04  1.904231E+05 -4.531345E+04 -5.978266E+04 -1.826136E-09  1.139499E-09
       244  13  1.242856E+03  5.606364E+05  8.508900E+03 -6.204452E+04  6.785404E-10 -7.495496E-11
       244  14  1.148599E+03  5.599336E+05  1.039068E+04 -5.652788E+04 -5.156129E-10 -2.587894E-09
       244  15  4.014437E+03  5.606232E+05  1.638689E+04 -6.204105E+04 -3.711530E-09  2.695132E-09
       244  16  6.173531E+04  8.213816E+05  5.044702E+04 -6.133676E+04 -1.285664E-09  2.358557E-09
       244  17  7.432995E+04  8.752333E+05  6.125004E+04 -5.730398E+04 -1.816267E-09  1.931322E-09
       244  18  9.036282E+04  9.309585E+05  7.808304E+04 -6.430079E+04 -1.951556E-09 -1.784505E-09
       244  19 -5.925261E+04  2.999589E+05 -3.343022E+04 -6.275180E+04  1.878042E+04  9.303032E+03
       244  20 -7.203719E+04  2.447327E+05 -4.047015E+04 -5.575194E+04  2.258997E+04  1.173812E+04
       244  21 -8.234033E+04  1.904235E+05 -4.531191E+04 -5.978237E+04  2.494413E+04  1.417067E+04
       244  22  1.243235E+03  5.606365E+05  8.509565E+03 -6.204451E+04  1.879099E+04  6.922320E+02
       244  23  1.149157E+03  5.599338E+05  1.039171E+04 -5.652777E+04  2.259623E+04  5.889947E+03
       244  24  4.015139E+03  5.606235E+05  1.638829E+04 -6.204083E+04  2.494645E+04  1.108535E+04
       244  25  6.173570E+04  8.213818E+05  5.044781E+04 -6.133688E+04  1.880153E+04 -7.922053E+03
       244  26  7.433050E+04  8.752334E+05  6.125100E+04 -5.730398E+04  2.260251E+04  3.891419E+01
       244  27  9.036350E+04  9.309587E+05  7.808433E+04 -6.430063E+04  2.494880E+04  7.998237E+03
       245   1 -9.065429E+04  1.570959E+05 -4.771847E+04 -6.344689E+04 -2.642914E+04 -1.762611E+04
       245   2 -9.054997E+04  9.838880E+04 -4.943516E+04 -3.502503E+04 -2.251178E+04 -1.443394E+04
       245   3 -5.824109E+04  4.731648E+04 -4.517594E+04 -1.681109E+04 -6.785346E+03 -1.123138E+04
       245   4  4.213624E+03  5.628677E+05  2.103287E+04 -6.186486E+04 -2.643202E+04 -1.387423E+04
       245   5  1.858151E+04  5.570959E+05  3.740453E+04 -5.672581E+04 -2.248951E+04 -3.308243E+04
       245   6  6.902559E+04  5.628336E+05  7.529501E+04 -6.179292E+04 -6.742150E+03 -5.228025E+04
       245   7  9.907286E+04  9.688014E+05  8.977894E+04 -6.028170E+04 -2.643489E+04 -1.011997E+04
       245   8  1.277026E+05  1.016008E+06  1.242364E+05 -7.844295E+04 -2.246594E+04 -5.174435E+04
       245   9  1.962819E+05  1.078603E+06  1.957553E+05 -1.068123E+05 -6.693029E+03 -9.336297E+04
       245  10 -9.065512E+04  1.570954E+05 -4.772037E+04 -6.344727E+04  4.308089E-10 -1.841496E-10
       245  11 -9.055057E+04  9.838844E+04 -4.943650E+04 -3.502529E+04  3.114724E-10 -4.641429E-10
       245  12 -5.824117E+04  4.731633E+04 -4.517627E+04 -1.681115E+04 -7.593943E-10 -1.068316E-09
       245  13  4.212822E+03  5.628673E+05  2.103119E+04 -6.186515E+04  8.316704E-10 -1.201694E-10
       245  14  1.858067E+04  5.570946E+05  3.740153E+04 -5.672641E+04  8.071113E-10 -2.077915E-09
       245  15  6.902481E+04  5.628306E+05  7.528979E+04 -6.179320E+04 -3.750137E-11  2.367798E-09
       245  16  9.907209E+04  9.688011E+05  8.977743E+04 -6.028192E+04 -2.020070E-09 -8.668776E-10
       245  17  1.277014E+05  1.016005E+06  1.242305E+05 -7.844389E+04 -1.495139E-09  1.216118E-09
       245  18  1.962795E+05  1.078594E+06  1.957389E+05 -1.068128E+05 -1.582014E-09  7.697122E-10
       245  19 -9.065429E+04  1.570959E+05 -4.771847E+04 -6.344689E+04  2.642914E+04  1.762611E+04
       245  20 -9.054997E+04  9.838880E+04 -4.943516E+04 -3.502503E+04  2.251178E+04  1.443394E+04
       245  21 -5.824109E+04  4.731648E+04 -4.517594E+04 -1.681109E+04  6.785346E+03  1.123138E+04
       245  22  4.213624E+03  5.628677E+05  2.103287E+04 -6.186486E+04  2.643202E+04  1.387423E+04
       245  23  1.858151E+04  5.570959E+05  3.740453E+04 -5.672581E+04  2.248951E+04  3.308243E+04
       245  24  6.902559E+04  5.628336E+05  7.529501E+04 -6.179292E+04  6.742150E+03  5.228025E+04
       245  25  9.907286E+04  9.688014E+05  8.977894E+04 -6.028170E+04  2.643489E+04  1.011997E+04
       245  26  1.277026E+05  1.016008E+06  1.242364E+05 -7.844295E+04  2.246594E+04  5.174435E+04
       245  27  1.962819E+05  1.078603E+06  1.957553E+05 -1.068123E+05  6.693029E+03  9.336297E+04
       246   1  9.341100E+05  3.059156E+05  1.441407E+05  3.410236E+05  4.967351E+04  7.263634E+03
       246   2  8.791230E+05  3.024725E+05  1.090477E+05  3.267960E+05  3.265023E+04 -2.653501E+04
       246   3  8.189341E+05  2.979485E+05  9.126110E+04  3.225034E+05  9.535512E+03 -4.413946E+04
       246   4  2.137038E+05  5.559064E+04 -3.462406E+04  1.632975E+05 -1.888775E+04 -1.855957E+04
       246   5  2.215827E+05  7.248195E+04 -1.656090E+04  1.534656E+05 -1.294364E+03 -3.932760E+04
       246   6  2.174011E+05  8.143509E+04 -8.600143E+03  1.535701E+05  1.020069E+04 -4.389374E+04
       246   7 -5.061532E+05 -1.947023E+05 -2.133995E+05 -1.423910E+04 -8.735883E+04 -4.435423E+04
       246   8 -4.354909E+05 -1.574715E+05 -1.421784E+05 -1.969368E+04 -3.519962E+04 -5.210672E+04
       246   9 -3.837443E+05 -1.350410E+05 -1.084697E+05 -1.520963E+04  1.086519E+04 -4.364829E+04
       246  10  9.341073E+05  3.059149E+05  1.441360E+05  3.410233E+05 -1.636938E-09 -2.549717E-09
       246  11  8.791217E+05  3.024714E+05  1.090443E+05  3.267967E+05  8.793147E-09  3.292713E-09
       246  12  8.189334E+05  2.979464E+05  9.125727E+04  3.225037E+05  7.103668E-09  1.704078E-09
       246  13  2.137033E+05  5.559018E+04 -3.462538E+04  1.632972E+05  3.270799E-09  2.727550E-09
       246  14  2.215823E+05  7.248029E+04 -1.656381E+04  1.534656E+05  3.706257E-09  3.194301E-09
       246  15  2.174005E+05  8.143299E+04 -8.603959E+03  1.535705E+05  2.977411E-09  5.894649E-09
       246  16 -5.061620E+05 -1.947064E+05 -2.134175E+05 -1.424222E+04  6.711971E-09  4.184718E-09
       246  17 -4.354930E+05 -1.574748E+05 -1.421858E+05 -1.969516E+04  6.570301E-09  1.307629E-09
       246  18 -3.837449E+05 -1.350430E+05 -1.084735E+05 -1.520924E+04 -3.179486E-09  2.944226E-09
       246  19  9.341100E+05  3.059156E+05  1.441407E+05  3.410236E+05 -4.967351E+04 -7.263634E+03
       246  20  8.791230E+05  3.024725E+05  1.090477E+05  3.267960E+05 -3.265023E+04  2.653501E+04
       246  21  8.189341E+05  2.979485E+05  9.126110E+04  3.225034E+05 -9.535512E+03  4.413946E+04
       246  22  2.137038E+05  5.559064E+04 -3.462406E+04  1.632975E+05  1.888775E+04  1.855957E+04
       246  23  2.215827E+05  7.248195E+04 -1.656090E+04  1.534656E+05  1.294364E+03  3.932760E+04
       246  24  2.174011E+05  8.143509E+04 -8.600143E+03  1.535701E+05 -1.020069E+04  4.389374E+04
       246  25 -5.061532E+05 -1.947023E+05 -2.133995E+05 -1.423910E+04  8.735883E+04  4.435423E+04
       246  26 -4.354909E+05 -1.574715E+05 -1.421784E+05 -1.969368E+04  3.519962E+04  5.210672E+04
       246  27 -3.837443E+05 -1.350410E+05 -1.084697E+05 -1.520963E+04 -1.086519E+04  4.364829E+04
       247   1  7.870918E+05  2.856743E+05  8.547011E+04  3.128285E+05  1.055590E+04 -4.290691E+04
       247   2  7.385455E+05  2.649972E+05  7.593570E+04  2.948117E+05  7.918081E+03 -4.268128E+04
       247   3  6.834807E+05  2.506723E+05  6.796230E+04  2.846245E+05  4.589784E+03 -4.062592E+04
       247   4  2.181670E+05  8.230354E+04 -6.380012E+03  1.539100E+05  1.088852E+04 -4.278623E+04
       247   5  2.219607E+05  8.048722E+04 -3.313752E+03  1.496322E+05  1.216061E+04 -4.108596E+04
       247   6  2.184598E+05  8.424896E+04 -1.783345E+03  1.531835E+05  1.274177E+04 -3.755510E+04
       247   7 -3.504187E+05 -1.210375E+05 -9.823892E+04 -4.874244E+03  1.122082E+04 -4.266566E+04
       247   8 -2.943395E+05 -1.039959E+05 -8.256800E+04  4.565240E+03  1.639943E+04 -3.949202E+04
       247   9 -2.463269E+05 -8.215086E+04 -7.153134E+04  2.183530E+04  2.088733E+04 -3.448671E+04
       247  10  7.870912E+05  2.856723E+05  8.546644E+04  3.128288E+05  1.300758E-09 -2.184334E-09
       247  11  7.385450E+05  2.649952E+05  7.593216E+04  2.948120E+05  1.905970E-09  2.094361E-09
       247  12  6.834802E+05  2.506705E+05  6.795916E+04  2.846247E+05  1.765821E-10 -2.149513E-10
       247  13  2.181663E+05  8.230154E+04 -6.383675E+03  1.539104E+05  2.233162E-10 -5.793255E-10
       247  14  2.219601E+05  8.048537E+04 -3.317203E+03  1.496326E+05 -5.923881E-09 -9.391728E-09
       247  15  2.184592E+05  8.424740E+04 -1.786301E+03  1.531839E+05 -1.296716E-08 -4.892028E-09
       247  16 -3.504193E+05 -1.210395E+05 -9.824258E+04 -4.873858E+03 -3.666971E-10  6.868189E-09
       247  17 -2.943402E+05 -1.039977E+05 -8.257144E+04  4.565762E+03 -6.887499E-09  3.840996E-09
       247  18 -2.463277E+05 -8.215225E+04 -7.153440E+04  2.183588E+04 -1.385701E-08 -5.193125E-09
       247  19  7.870918E+05  2.856743E+05  8.547011E+04  3.128285E+05 -1.055590E+04  4.290691E+04
       247  20  7.385455E+05  2.649972E+05  7.593570E+04  2.948117E+05 -7.918081E+03  4.268128E+04
       247  21  6.834807E+05  2.506723E+05  6.796230E+04  2.846245E+05 -4.589784E+03  4.062592E+04
       247  22  2.181670E+05  8.230354E+04 -6.380012E+03  1.539100E+05 -1.088852E+04  4.278623E+04
       247  23  2.219607E+05  8.048722E+04 -3.313752E+03  1.496322E+05 -1.216061E+04  4.108596E+04
       247  24  2.184598E+05  8.424896E+04 -1.783345E+03  1.531835E+05 -1.274177E+04  3.755510E+04
       247  25 -3.504187E+05 -1.210375E+05 -9.823892E+04 -4.874244E+03 -1.122082E+04  4.266566E+04
       247  26 -2.943395E+05 -1.039959E+05 -8.256800E+04  4.565240E+03 -1.639943E+04  3.949202E+04
       247  27 -2.463269E+05 -8.215086E+04 -7.153134E+04  2.183530E+04 -2.088733E+04  3.448671E+04
       248   1  6.513658E+05  2.390599E+05  6.312542E+04  2.755132E+05  4.007535E+03 -3.823795E+04
       248   2  6.034104E+05  2.173799E+05  5.573416E+04  2.571698E+05  2.453273E+03 -3.437133E+04
       248   3  5.486993E+05  2.024826E+05  4.840922E+04  2.465449E+05  8.204328E+02 -3.029917E+04
       248   4  2.185382E+05  8.431722E+04 -1.329412E+03  1.532286E+05  1.211961E+04 -3.518136E+04
       248   5  2.219796E+05  8.103824E+04 -7.090072E+02  1.493473E+05  1.100434E+04 -3.114793E+04
       248   6  2.185743E+05  8.445504E+04 -3.708472E+02  1.531839E+05  9.810457E+03 -2.690887E+04
       248   7 -2.140806E+05 -7.040293E+04 -6.578454E+04  3.102598E+04  2.022563E+04 -3.212705E+04
       248   8 -1.592931E+05 -5.528740E+04 -5.715336E+04  4.158735E+04  1.954988E+04 -2.792662E+04
       248   9 -1.114363E+05 -3.356206E+04 -4.915282E+04  5.986855E+04  1.879555E+04 -2.352043E+04
       248  10  6.513654E+05  2.390583E+05  6.312264E+04  2.755133E+05 -2.376704E-08 -7.222213E-09
       248  11  6.034101E+05  2.173786E+05  5.573193E+04  2.571699E+05  1.835642E-10  9.930922E-11
       248  12  5.486991E+05  2.024816E+05  4.840750E+04  2.465449E+05  1.872536E-08  6.993851E-09
       248  13  2.185377E+05  8.431585E+04 -1.332014E+03  1.532290E+05 -1.062913E-08 -9.631329E-10
       248  14  2.219792E+05  8.103716E+04 -7.110583E+02  1.493476E+05  1.871023E-09 -5.058101E-11
       248  15  2.185740E+05  8.445424E+04 -3.723890E+02  1.531841E+05  2.089436E-09  1.508900E-09
       248  16 -2.140813E+05 -7.040415E+04 -6.578725E+04  3.102651E+04  1.295757E-08  5.007924E-09
       248  17 -1.592937E+05 -5.528834E+04 -5.715555E+04  4.158779E+04  4.898486E-09  1.006948E-08
       248  18 -1.114368E+05 -3.356275E+04 -4.915452E+04  5.986891E+04 -1.090167E-08 -5.427864E-09
       248  19  6.513658E+05  2.390599E+05  6.312542E+04  2.755132E+05 -4.007535E+03  3.823795E+04
       248  20  6.034104E+05  2.173799E+05  5.573416E+04  2.571698E+05 -2.453273E+03  3.437133E+04
       248  21  5.486993E+05  2.024826E+05  4.840922E+04  2.465449E+05 -8.204328E+02  3.029917E+04
       248  22  2.185382E+05  8.431722E+04 -1.329412E+03  1.532286E+05 -1.211961E+04  3.518136E+04
       248  23  2.219796E+05  8.103824E+04 -7.090072E+02  1.493473E+05 -1.100434E+04  3.114793E+04
       248  24  2.185743E+05  8.445504E+04 -3.708472E+02  1.531839E+05 -9.810457E+03  2.690887E+04
       248  25 -2.140806E+05 -7.040293E+04 -6.578454E+04  3.102598E+04 -2.022563E+04  3.212705E+04
       248  26 -1.592931E+05 -5.528740E+04 -5.715336E+04  4.158735E+04 -1.954988E+04  2.792662E+04
       248  27 -1.114363E+05 -3.356206E+04 -4.915282E+04  5.986855E+04 -1.879555E+04  2.352043E+04
       249   1  5.166007E+05  1.909676E+05  4.353507E+04  2.374824E+05 -4.807281E+01 -2.782175E+04
       249   2  4.687206E+05  1.692730E+05  3.620523E+04  2.191229E+05 -1.631466E+03 -2.360366E+04
       249   3  4.140593E+05  1.543706E+05  2.887272E+04  2.084799E+05 -3.223543E+03 -1.936435E+04
       249   4  2.185871E+05  8.446197E+04 -2.641440E+02  1.531892E+05  8.935848E+03 -2.443311E+04
       249   5  2.219890E+05  8.107757E+04 -1.043965E+02  1.493307E+05  7.397521E+03 -2.019717E+04
       249   6  2.185977E+05  8.447605E+04  1.639877E+01  1.531877E+05  5.850516E+03 -1.594003E+04
       249   7 -7.932974E+04 -2.203377E+04 -4.406382E+04  6.893428E+04  1.791522E+04 -2.104619E+04
       249   8 -2.467464E+04 -7.110430E+03 -3.641381E+04  7.956522E+04  1.642267E+04 -1.679213E+04
       249   9  2.318024E+04  1.458675E+04 -2.883925E+04  9.791256E+04  1.492145E+04 -1.251689E+04
       249  10  5.166005E+05  1.909668E+05  4.353361E+04  2.374824E+05 -5.410516E-09 -1.820401E-09
       249  11  4.687205E+05  1.692724E+05  3.620418E+04  2.191228E+05  2.070042E-09  3.037648E-09
       249  12  4.140592E+05  1.543702E+05  2.887200E+04  2.084799E+05  3.846661E-09  2.080127E-09
       249  13  2.185868E+05  8.446130E+04 -2.654161E+02  1.531894E+05  2.628907E-09 -2.186373E-09
       249  14  2.219888E+05  8.107711E+04 -1.052661E+02  1.493308E+05  1.450825E-09 -1.730526E-09
       249  15  2.185976E+05  8.447577E+04  1.585690E+01  1.531877E+05  2.320520E-09 -7.502194E-10
       249  16 -7.933021E+04 -2.203433E+04 -4.406525E+04  6.893458E+04  1.075948E-08  1.214361E-09
       249  17 -2.467501E+04 -7.110805E+03 -3.641484E+04  7.956544E+04 -1.064307E-09 -5.794914E-09
       249  18  2.317995E+04  1.458652E+04 -2.883997E+04  9.791271E+04 -7.010528E-09 -5.953660E-09
       249  19  5.166007E+05  1.909676E+05  4.353507E+04  2.374824E+05  4.807281E+01  2.782175E+04
       249  20  4.687206E+05  1.692730E+05  3.620523E+04  2.191229E+05  1.631466E+03  2.360366E+04
       249  21  4.140593E+05  1.543706E+05  2.887272E+04  2.084799E+05  3.223543E+03  1.936435E+04
       249  22  2.185871E+05  8.446197E+04 -2.641440E+02  1.531892E+05 -8.935848E+03  2.443311E+04
       249  23  2.219890E+05  8.107757E+04 -1.043965E+02  1.493307E+05 -7.397521E+03  2.019717E+04
       249  24  2.185977E+05  8.447605E+04  1.639877E+01  1.531877E+05 -5.850516E+03  1.594003E+04
       249  25 -7.932974E+04 -2.203377E+04 -4.406382E+04  6.893428E+04 -1.791522E+04  2.104619E+04
       249  26 -2.467464E+04 -7.110430E+03 -3.641381E+04  7.956522E+04 -1.642267E+04  1.679213E+04
       249  27  2.318024E+04  1.458675E+04 -2.883925E+04  9.791256E+04 -1.492145E+04  1.251689E+04
       250   1  3.819764E+05  1.428689E+05  2.398305E+04  1.994263E+05 -4.163047E+03 -1.689344E+04
       250   2  3.341103E+05  1.211807E+05  1.668700E+04  1.810773E+05 -5.852540E+03 -1.268419E+04
       250   3  2.794719E+05  1.062865E+05  9.457924E+03  1.704462E+05 -7.538750E+03 -8.484460E+03
       250   4  2.186061E+05  8.447788E+04  7.434263E+01  1.531902E+05  4.909426E+03 -1.346935E+04
       250   5  2.219929E+05  8.107959E+04  2.186452E+02  1.493320E+05  3.199395E+03 -9.267445E+03
       250   6  2.186097E+05  8.447944E+04  4.462355E+02  1.531911E+05  1.492647E+03 -5.075071E+03
       250   7  5.526302E+04  2.608911E+04 -2.383484E+04  1.069651E+05  1.397950E+04 -1.004617E+04
       250   8  1.098886E+05  4.097963E+04 -1.624968E+04  1.175920E+05  1.224967E+04 -5.851325E+03
       250   9  1.577517E+05  6.267289E+04 -8.565149E+03  1.359376E+05  1.052312E+04 -1.666035E+03
       250  10  3.819763E+05  1.428685E+05  2.398248E+04  1.994262E+05 -1.002071E-08 -8.248915E-10
       250  11  3.341102E+05  1.211805E+05  1.668663E+04  1.810772E+05  7.197217E-09  3.622372E-09
       250  12  2.794719E+05  1.062864E+05  9.457682E+03  1.704462E+05  1.387092E-08 -3.263182E-09
       250  13  2.186061E+05  8.447768E+04  7.395635E+01  1.531903E+05  5.732575E-09 -8.999044E-10
       250  14  2.219929E+05  8.107949E+04  2.184646E+02  1.493320E+05  1.631155E-08  6.065740E-09
       250  15  2.186097E+05  8.447942E+04  4.461829E+02  1.531911E+05  1.189380E-08  3.136200E-09
       250  16  5.526279E+04  2.608895E+04 -2.383539E+04  1.069652E+05  1.323866E-08  3.627339E-09
       250  17  1.098885E+05  4.097956E+04 -1.625003E+04  1.175920E+05  1.211098E-08  5.361254E-09
       250  18  1.577516E+05  6.267286E+04 -8.565362E+03  1.359376E+05 -1.614748E-09  7.452001E-09
       250  19  3.819764E+05  1.428689E+05  2.398305E+04  1.994263E+05  4.163047E+03  1.689344E+04
       250  20  3.341103E+05  1.211807E+05  1.668700E+04  1.810773E+05  5.852540E+03  1.268419E+04
       250  21  2.794719E+05  1.062865E+05  9.457924E+03  1.704462E+05  7.538750E+03  8.484460E+03
       250  22  2.186061E+05  8.447788E+04  7.434263E+01  1.531902E+05 -4.909426E+03  1.346935E+04
       250  23  2.219929E+05  8.107959E+04  2.186452E+02  1.493320E+05 -3.199395E+03  9.267445E+03
       250  24  2.186097E+05  8.447944E+04  4.462355E+02  1.531911E+05 -1.492647E+03  5.075071E+03
       250  25  5.526302E+04  2.608911E+04 -2.383484E+04  1.069651E+05 -1.397950E+04  1.004617E+04
       250  26  1.098886E+05  4.097963E+04 -1.624968E+04  1.175920E+05 -1.224967E+04  5.851325E+03
       250  27  1.577517E+05  6.267289E+04 -8.565149E+03  1.359376E+05 -1.052312E+04  1.666035E+03
       251   1  2.473992E+05  9.479510E+04  4.660523E+03  1.614163E+05 -8.556814E+03 -6.052260E+03
       251   2  1.995362E+05  7.309195E+04 -2.358597E+03  1.430325E+05 -1.047615E+04 -2.003318E+03
       251   3  1.449730E+05  5.826618E+04 -9.098501E+03  1.323493E+05 -1.235640E+04  1.942457E+03
       251   4  2.186309E+05  8.447813E+04  6.077640E+02  1.531982E+05  4.761794E+02 -2.642187E+03
       251   5  2.219717E+05  8.109890E+04  1.126424E+03  1.493177E+05 -1.663951E+03  1.323317E+03
       251   6  2.186529E+05  8.464022E+04  2.098827E+03  1.531365E+05 -3.765034E+03  5.185664E+03
       251   7  1.898640E+05  7.416146E+04 -3.444549E+03  1.449806E+05  9.508623E+03  7.676757E+02
       251   8  2.444080E+05  8.910596E+04  4.611770E+03  1.556031E+05  7.148586E+03  4.650078E+03
       251   9  2.923397E+05  1.110153E+05  1.329665E+04  1.739262E+05  4.827512E+03  8.429316E+03
       251  10  2.473991E+05  9.479504E+04  4.660317E+03  1.614162E+05  3.521008E-09 -6.868119E-09
       251  11  1.995361E+05  7.309191E+04 -2.358810E+03  1.430325E+05  5.182584E-09 -5.987888E-09
       251  12  1.449729E+05  5.826614E+04 -9.098795E+03  1.323494E+05  5.669691E-09 -2.476258E-09
       251  13  2.186309E+05  8.447812E+04  6.077504E+02  1.531982E+05  3.884128E-09  6.180832E-09
       251  14  2.219717E+05  8.109889E+04  1.126416E+03  1.493177E+05 -8.422378E-09 -2.984394E-09
       251  15  2.186529E+05  8.464019E+04  2.098749E+03  1.531365E+05 -1.417567E-08 -7.323951E-09
       251  16  1.898639E+05  7.416144E+04 -3.444720E+03  1.449806E+05 -3.558267E-09  9.331452E-09
       251  17  2.444079E+05  8.910592E+04  4.611634E+03  1.556030E+05 -9.955775E-09  9.277298E-10
       251  18  2.923396E+05  1.110152E+05  1.329647E+04  1.739262E+05 -1.057956E-08 -3.031554E-09
       251  19  2.473992E+05  9.479510E+04  4.660523E+03  1.614163E+05  8.556814E+03  6.052260E+03
       251  20  1.995362E+05  7.309195E+04 -2.358597E+03  1.430325E+05  1.047615E+04  2.003318E+03
       251  21  1.449730E+05  5.826618E+04 -9.098501E+03  1.323493E+05  1.235640E+04 -1.942457E+03
       251  22  2.186309E+05  8.447813E+04  6.077640E+02  1.531982E+05 -4.761794E+02  2.642187E+03
       251  23  2.219717E+05  8.109890E+04  1.126424E+03  1.493177E+05  1.663951E+03 -1.323317E+03
       251  24  2.186529E+05  8.464022E+04  2.098827E+03  1.531365E+05  3.765034E+03 -5.185664E+03
       251  25  1.898640E+05  7.416146E+04 -3.444549E+03  1.449806E+05 -9.508623E+03 -7.676757E+02
       251  26  2.444080E+05  8.910596E+04  4.611770E+03  1.556031E+05 -7.148586E+03 -4.650078E+03
       251  27  2.923397E+05  1.110153E+05  1.329665E+04  1.739262E+05 -4.827512E+03 -8.429316E+03
       252   1  1.128765E+05  4.688869E+04 -1.349604E+04  1.234590E+05 -1.364924E+04  4.171918E+03
       252   2  6.558166E+04  2.499084E+04 -1.955023E+04  1.040367E+05 -1.567721E+04  7.491094E+03
       252   3  1.216433E+04  1.120471E+04 -2.472276E+04  9.193064E+04 -1.735961E+04  9.895686E+03
       252   4  2.188135E+05  8.468924E+04  2.813583E+03  1.531643E+05 -5.039207E+03  7.422014E+03
       252   5  2.218929E+05  8.193412E+04  5.215609E+03  1.489418E+05 -9.021037E+03  1.000316E+04
       252   6  2.192336E+05  8.767698E+04  1.004719E+04  1.520342E+05 -1.265738E+04  1.166984E+04
       252   7  3.247628E+05  1.224910E+05  1.912334E+04  1.828745E+05  3.572378E+03  1.067269E+04
       252   8  3.782295E+05  1.388798E+05  2.998090E+04  1.938574E+05 -2.363133E+03  1.251591E+04
       252   9  4.263462E+05  1.641532E+05  4.481542E+04  2.121559E+05 -7.953555E+03  1.344464E+04
       252  10  1.128763E+05  4.688862E+04 -1.349642E+04  1.234590E+05 -9.895660E-09 -3.411362E-09
       252  11  6.558138E+04  2.499071E+04 -1.955079E+04  1.040368E+05  2.657133E-09  2.966692E-09
       252  12  1.216398E+04  1.120453E+04 -2.472351E+04  9.193078E+04  3.709104E-08  2.186499E-08
       252  13  2.188135E+05  8.468918E+04  2.813431E+03  1.531644E+05 -2.095519E-08 -4.518706E-09
       252  14  2.218928E+05  8.193400E+04  5.215268E+03  1.489419E+05 -1.489829E-08  5.000244E-09
       252  15  2.192334E+05  8.767679E+04  1.004663E+04  1.520343E+05  4.111592E-09  5.225721E-09
       252  16  3.247628E+05  1.224909E+05  1.912310E+04  1.828745E+05 -1.445644E-09 -2.920548E-10
       252  17  3.782294E+05  1.388796E+05  2.998060E+04  1.938574E+05 -2.527701E-08 -7.761036E-09
       252  18  4.263460E+05  1.641530E+05  4.481496E+04  2.121560E+05 -3.641484E-08 -1.549185E-08
       252  19  1.128765E+05  4.688869E+04 -1.349604E+04  1.234590E+05  1.364924E+04 -4.171918E+03
       252  20  6.558166E+04  2.499084E+04 -1.955023E+04  1.040367E+05  1.567721E+04 -7.491094E+03
       252  21  1.216433E+04  1.120471E+04 -2.472276E+04  9.193064E+04  1.735961E+04 -9.895686E+03
       252  22  2.188135E+05  8.468924E+04  2.813583E+03  1.531643E+05  5.039207E+03 -7.422014E+03
       252  23  2.218929E+05  8.193412E+04  5.215609E+03  1.489418E+05  9.021037E+03 -1.000316E+04
       252  24  2.192336E+05  8.767698E+04  1.004719E+04  1.520342E+05  1.265738E+04 -1.166984E+04
       252  25  3.247628E+05  1.224910E+05  1.912334E+04  1.828745E+05 -3.572378E+03 -1.067269E+04
       252  26  3.782295E+05  1.388798E+05  2.998090E+04  1.938574E+05  2.363133E+03 -1.251591E+04
       252  27  4.263462E+05  1.641532E+05  4.481542E+04  2.121559E+05  7.953555E+03 -1.344464E+04
       253   1 -2.007078E+04  1.382061E+03 -2.769478E+04  8.424451E+04 -1.965487E+04  1.086695E+04
       253   2 -5.786331E+04 -2.282087E+04 -3.174182E+04  4.948997E+04 -1.516672E+04  1.054584E+04
       253   3 -9.548051E+04 -2.239636E+04 -3.355625E+04  1.669371E+04 -7.627411E+03  2.134193E+03
       253   4  2.208199E+05  8.862697E+04  1.354394E+04  1.521218E+05 -1.478935E+04  1.270250E+04
       253   5  2.219142E+05  9.495138E+04  2.606782E+04  1.434622E+05 -2.757451E+04  5.862627E+03
       253   6  2.266010E+05  1.293191E+05  5.451242E+04  1.367614E+05 -3.730971E+04 -9.065680E+03
       253   7  4.617767E+05  1.758795E+05  5.478238E+04  2.200250E+05 -9.921741E+03  1.453885E+04
       253   8  5.017733E+05  2.127379E+05  8.387398E+04  2.374761E+05 -3.998825E+04  1.176391E+03
       253   9  5.487809E+05  2.810571E+05  1.425734E+05  2.568891E+05 -6.700809E+04 -2.027532E+04
       253  10 -2.007122E+04  1.381831E+03 -2.769572E+04  8.424469E+04 -4.671412E-08 -1.068288E-08
       253  11 -5.786358E+04 -2.282105E+04 -3.174246E+04  4.949010E+04 -1.473481E-08 -3.666006E-09
       253  12 -9.548057E+04 -2.239638E+04 -3.355637E+04  1.669372E+04  1.593029E-08  6.319441E-09
       253  13  2.208196E+05  8.862674E+04  1.354323E+04  1.521220E+05  7.249603E-09  2.049750E-09
       253  14  2.219134E+05  9.495114E+04  2.606632E+04  1.434623E+05  5.202161E-09 -1.004279E-08
       253  15  2.265995E+05  1.293186E+05  5.450965E+04  1.367611E+05  1.738159E-09  1.278110E-09
       253  16  4.617765E+05  1.758792E+05  5.478180E+04  2.200251E+05  5.621896E-08  2.467098E-08
       253  17  5.017716E+05  2.127374E+05  8.387098E+04  2.374761E+05  1.942552E-08  3.891329E-09
       253  18  5.487760E+05  2.810554E+05  1.425642E+05  2.568880E+05 -1.454888E-08 -4.448919E-09
       253  19 -2.007078E+04  1.382061E+03 -2.769478E+04  8.424451E+04  1.965487E+04 -1.086695E+04
       253  20 -5.786331E+04 -2.282087E+04 -3.174182E+04  4.948997E+04  1.516672E+04 -1.054584E+04
       253  21 -9.548051E+04 -2.239636E+04 -3.355625E+04  1.669371E+04  7.627411E+03 -2.134193E+03
       253  22  2.208199E+05  8.862697E+04  1.354394E+04  1.521218E+05  1.478935E+04 -1.270250E+04
       253  23  2.219142E+05  9.495138E+04  2.606782E+04  1.434622E+05  2.757451E+04 -5.862627E+03
       253  24  2.266010E+05  1.293191E+05  5.451242E+04  1.367614E+05  3.730971E+04  9.065680E+03
       253  25  4.617767E+05  1.758795E+05  5.478238E+04  2.200250E+05  9.921741E+03 -1.453885E+04
       253  26  5.017733E+05  2.127379E+05  8.387398E+04  2.374761E+05  3.998825E+04 -1.176391E+03
       253  27  5.487809E+05  2.810571E+05  1.425734E+05  2.568891E+05  6.700809E+04  2.027532E+04
       254   1  8.957970E+04  1.380714E+03 -4.742966E+03  2.105308E+02 -1.765803E+04 -3.061763E+02
       254   2  9.198330E+04  2.556404E+04  9.737091E+03 -9.206046E+02 -1.166341E+04 -7.841948E+02
       254   3  8.657350E+04  2.118747E+04  1.319730E+04  2.662967E+03 -5.670463E+03 -6.189353E+02
       254   4  4.468662E+03 -1.988223E+04 -2.599726E+04  1.715641E+03 -1.775409E+04 -3.064609E+02
       254   5  8.382212E+03  4.679063E+03 -1.110273E+04 -6.670450E+02 -1.168301E+04 -7.842611E+02
       254   6  4.468035E+03  6.651203E+02 -7.282225E+03  1.665013E+03 -5.613573E+03 -6.187697E+02
       254   7 -8.063581E+04 -4.114570E+04 -4.725210E+04  3.220542E+03 -1.785014E+04 -3.067460E+02
       254   8 -7.521254E+04 -1.620644E+04 -3.194308E+04 -4.135238E+02 -1.170260E+04 -7.843274E+02
       254   9 -7.763132E+04 -1.985773E+04 -2.776226E+04  6.671879E+02 -5.556692E+03 -6.186041E+02
       254  10  8.957937E+04  1.380631E+03 -4.743552E+03  2.105264E+02 -2.104112E-09  1.827682E-09
       254  11  9.198315E+04  2.556400E+04  9.736835E+03 -9.206119E+02 -7.742847E-10  9.662210E-09
       254  12  8.657346E+04  2.118746E+04  1.319724E+04  2.662964E+03 -1.250206E-10  1.618365E-09
       254  13  4.468323E+03 -1.988231E+04 -2.599785E+04  1.715637E+03  6.517292E-10 -2.927721E-09
       254  14  8.382065E+03  4.679025E+03 -1.110299E+04 -6.670524E+02  3.463805E-10 -7.172648E-09
       254  15  4.468001E+03  6.651115E+02 -7.282285E+03  1.665011E+03  2.828333E-09  2.482624E-10
       254  16 -8.063615E+04 -4.114579E+04 -4.725270E+04  3.220537E+03  1.853854E-09  3.534852E-10
       254  17 -7.521269E+04 -1.620648E+04 -3.194334E+04 -4.135312E+02  2.017356E-10  7.767005E-09
       254  18 -7.763135E+04 -1.985774E+04 -2.776232E+04  6.671852E+02 -1.420813E-09 -3.740639E-09
       254  19  8.957970E+04  1.380714E+03 -4.742966E+03  2.105308E+02  1.765803E+04  3.061763E+02
       254  20  9.198330E+04  2.556404E+04  9.737091E+03 -9.206046E+02  1.166341E+04  7.841948E+02
       254  21  8.657350E+04  2.118747E+04  1.319730E+04  2.662967E+03  5.670463E+03  6.189353E+02
       254  22  4.468662E+03 -1.988223E+04 -2.599726E+04  1.715641E+03  1.775409E+04  3.064609E+02
       254  23  8.382212E+03  4.679063E+03 -1.110273E+04 -6.670450E+02  1.168301E+04  7.842611E+02
       254  24  4.468035E+03  6.651203E+02 -7.282225E+03  1.665013E+03  5.613573E+03  6.187697E+02
       254  25 -8.063581E+04 -4.114570E+04 -4.725210E+04  3.220542E+03  1.785014E+04  3.067460E+02
       254  26 -7.521254E+04 -1.620644E+04 -3.194308E+04 -4.135238E+02  1.170260E+04  7.843274E+02
       254  27 -7.763132E+04 -1.985773E+04 -2.776226E+04  6.671879E+02  5.556692E+03  6.186041E+02
       255   1  6.711862E+04  1.224396E+04  9.230870E+03  1.568562E+03 -4.400287E+03 -4.762441E+02
       255   2  6.625418E+04  1.563088E+04  1.201983E+04 -5.749538E+02 -2.907616E+03 -4.906429E+02
       255   3  6.413951E+04  1.465864E+04  1.275418E+04  1.938964E+03 -1.415306E+03 -4.017576E+02
       255   4  5.930206E+03 -3.043951E+03 -6.029159E+03  1.676261E+03 -4.408449E+03 -4.762730E+02
       255   5  6.556264E+03  7.144835E+02 -2.866415E+03 -6.571809E+02 -2.903514E+03 -4.906333E+02
       255   6  5.929807E+03  1.113861E+02 -1.766949E+03  1.666842E+03 -1.398936E+03 -4.017061E+02
       255   7 -5.525482E+04 -1.833215E+04 -2.128947E+04  1.783948E+03 -4.416610E+03 -4.763018E+02
       255   8 -5.313842E+04 -1.420219E+04 -1.775293E+04 -7.394027E+02 -2.899412E+03 -4.906236E+02
       255   9 -5.227683E+04 -1.443612E+04 -1.628834E+04  1.394743E+03 -1.382567E+03 -4.016545E+02
       255  10  6.711860E+04  1.224396E+04  9.230833E+03  1.568560E+03 -1.808666E-09 -4.199742E-09
       255  11  6.625417E+04  1.563088E+04  1.201982E+04 -5.749549E+02 -2.755705E-09  1.604228E-09
       255  12  6.413951E+04  1.465864E+04  1.275418E+04  1.938963E+03  2.002324E-09  9.251060E-09
       255  13  5.930185E+03 -3.043956E+03 -6.029196E+03  1.676260E+03  1.874760E-09  1.086657E-08
       255  14  6.556255E+03  7.144810E+02 -2.866431E+03 -6.571820E+02 -2.437631E-09 -1.508801E-08
       255  15  5.929805E+03  1.113854E+02 -1.766953E+03  1.666841E+03  2.843580E-09  6.316719E-09
       255  16 -5.525484E+04 -1.833215E+04 -2.128951E+04  1.783946E+03  2.777429E-09 -1.072572E-08
       255  17 -5.313843E+04 -1.420219E+04 -1.775295E+04 -7.394038E+02  3.920964E-09 -4.472564E-09
       255  18 -5.227683E+04 -1.443612E+04 -1.628834E+04  1.394742E+03 -3.409658E-10  9.170844E-10
       255  19  6.711862E+04  1.224396E+04  9.230870E+03  1.568562E+03  4.400287E+03  4.762441E+02
       255  20  6.625418E+04  1.563088E+04  1.201983E+04 -5.749538E+02  2.907616E+03  4.906429E+02
       255  21  6.413951E+04  1.465864E+04  1.275418E+04  1.938964E+03  1.415306E+03  4.017576E+02
       255  22  5.930206E+03 -3.043951E+03 -6.029159E+03  1.676261E+03  4.408449E+03  4.762730E+02
       255  23  6.556264E+03  7.144835E+02 -2.866415E+03 -6.571809E+02  2.903514E+03  4.906333E+02
       255  24  5.929807E+03  1.113861E+02 -1.766949E+03  1.666842E+03  1.398936E+03  4.017061E+02
       255  25 -5.525482E+04 -1.833215E+04 -2.128947E+04  1.783948E+03  4.416610E+03  4.763018E+02
       255  26 -5.313842E+04 -1.420219E+04 -1.775293E+04 -7.394027E+02  2.899412E+03  4.906236E+02
       255  27 -5.227683E+04 -1.443612E+04 -1.628834E+04  1.394743E+03  1.382567E+03  4.016545E+02
       256   1  4.353152E+04  8.879978E+03  7.908052E+03  1.725955E+03 -1.117853E+03 -3.433537E+02
       256   2  4.215912E+04  9.072232E+03  8.261579E+03 -5.672876E+02 -7.666430E+02 -2.849216E+02
       256   3  4.056838E+04  8.632017E+03  8.225340E+03  1.776445E+03 -4.154987E+02 -2.101208E+02
       256   4  6.160248E+03 -4.573647E+02 -1.407986E+03  1.666638E+03 -1.111919E+03 -3.433352E+02
       256   5  6.269459E+03  1.041492E+02 -6.885952E+02 -6.526798E+02 -7.587632E+02 -2.848956E+02
       256   6  6.160007E+03  3.284076E+01 -3.603320E+02  1.664994E+03 -4.056726E+02 -2.100869E+02
       256   7 -3.120976E+04 -9.794813E+03 -1.072413E+04  1.607323E+03 -1.105985E+03 -3.433167E+02
       256   8 -2.961903E+04 -8.864031E+03 -9.638866E+03 -7.380682E+02 -7.508839E+02 -2.848696E+02
       256   9 -2.824729E+04 -8.566425E+03 -8.946093E+03  1.553548E+03 -3.958469E+02 -2.100529E+02
       256  10  4.353152E+04  8.879978E+03  7.908049E+03  1.725955E+03  2.017186E-09 -3.496950E-09
       256  11  4.215912E+04  9.072232E+03  8.261577E+03 -5.672878E+02 -2.134397E-09 -4.771907E-09
       256  12  4.056838E+04  8.632017E+03  8.225340E+03  1.776445E+03  1.895958E-09 -6.385061E-09
       256  13  6.160246E+03 -4.573652E+02 -1.407988E+03  1.666638E+03  9.042957E-10 -1.416462E-09
       256  14  6.269458E+03  1.041490E+02 -6.885964E+02 -6.526800E+02  1.679774E-10 -4.125753E-09
       256  15  6.160007E+03  3.284067E+01 -3.603324E+02  1.664993E+03  3.037306E-09 -3.426141E-09
       256  16 -3.120976E+04 -9.794813E+03 -1.072413E+04  1.607323E+03 -4.716952E-10 -6.199638E-09
       256  17 -2.961903E+04 -8.864031E+03 -9.638867E+03 -7.380683E+02  1.575754E-09  4.926301E-09
       256  18 -2.824729E+04 -8.566425E+03 -8.946094E+03  1.553548E+03 -8.750955E-10  6.874023E-09
       256  19  4.353152E+04  8.879978E+03  7.908052E+03  1.725955E+03  1.117853E+03  3.433537E+02
       256  20  4.215912E+04  9.072232E+03  8.261579E+03 -5.672876E+02  7.666430E+02  2.849216E+02
       256  21  4.056838E+04  8.632017E+03  8.225340E+03  1.776445E+03  4.154987E+02  2.101208E+02
       256  22  6.160248E+03 -4.573647E+02 -1.407986E+03  1.666638E+03  1.111919E+03  3.433352E+02
       256  23  6.269459E+03  1.041492E+02 -6.885952E+02 -6.526798E+02  7.587632E+02  2.848956E+02
       256  24  6.160007E+03  3.284077E+01 -3.603320E+02  1.664994E+03  4.056726E+02  2.100869E+02
       256  25 -3.120976E+04 -9.794813E+03 -1.072413E+04  1.607323E+03  1.105985E+03  3.433167E+02
       256  26 -2.961903E+04 -8.864031E+03 -9.638866E+03 -7.380682E+02  7.508839E+02  2.848696E+02
       256  27 -2.824729E+04 -8.566425E+03 -8.946093E+03  1.553548E+03  3.958469E+02  2.100529E+02
       257   1  1.981752E+04  3.340779E+03  3.149077E+03  1.697493E+03 -3.595724E+02 -1.656493E+02
       257   2  1.835915E+04  3.035965E+03  3.020278E+03 -6.183033E+02 -3.557678E+02 -9.622035E+01
       257   3  1.685848E+04  2.718544E+03  2.877967E+03  1.693792E+03 -3.519761E+02 -2.463407E+01
       257   4  6.199541E+03 -6.123409E+01 -2.425528E+02  1.663771E+03 -3.513669E+02 -1.656203E+02
       257   5  6.220672E+03  2.731289E+00 -6.908586E+00 -6.503846E+02 -3.473038E+02 -9.619009E+01
       257   6  6.199459E+03  5.404426E+01  2.150435E+02  1.663358E+03 -3.432535E+02 -2.460251E+01
       257   7 -7.418268E+03 -3.463261E+03 -3.634196E+03  1.630049E+03 -3.431616E+02 -1.655914E+02
       257   8 -5.917671E+03 -3.030513E+03 -3.034106E+03 -6.824654E+02 -3.388400E+02 -9.615983E+01
       257   9 -4.459461E+03 -2.610464E+03 -2.447889E+03  1.632924E+03 -3.345311E+02 -2.457095E+01
       257  10  1.981752E+04  3.340779E+03  3.149076E+03  1.697493E+03 -7.790409E-10 -8.512957E-09
       257  11  1.835915E+04  3.035965E+03  3.020278E+03 -6.183034E+02 -3.031070E-09  6.169240E-09
       257  12  1.685848E+04  2.718544E+03  2.877967E+03  1.693792E+03 -3.641759E-09  1.157090E-09
       257  13  6.199541E+03 -6.123415E+01 -2.425531E+02  1.663771E+03  2.028063E-09  2.896001E-09
       257  14  6.220671E+03  2.731246E+00 -6.908830E+00 -6.503847E+02 -9.711160E-10 -4.132362E-09
       257  15  6.199459E+03  5.404422E+01  2.150433E+02  1.663358E+03  1.356713E-09 -2.972248E-09
       257  16 -7.418268E+03 -3.463261E+03 -3.634197E+03  1.630049E+03  1.254473E-09  5.494108E-09
       257  17 -5.917671E+03 -3.030513E+03 -3.034107E+03 -6.824655E+02  4.918501E-09  1.398046E-08
       257  18 -4.459461E+03 -2.610464E+03 -2.447889E+03  1.632924E+03  2.025853E-09 -3.356019E-10
       257  19  1.981752E+04  3.340779E+03  3.149077E+03  1.697493E+03  3.595724E+02  1.656493E+02
       257  20  1.835915E+04  3.035965E+03  3.020278E+03 -6.183033E+02  3.557678E+02  9.622035E+01
       257  21  1.685848E+04  2.718544E+03  2.877967E+03  1.693792E+03  3.519761E+02  2.463407E+01
       257  22  6.199541E+03 -6.123409E+01 -2.425528E+02  1.663771E+03  3.513669E+02  1.656203E+02
       257  23  6.220672E+03  2.731290E+00 -6.908586E+00 -6.503846E+02  3.473038E+02  9.619009E+01
       257  24  6.199459E+03  5.404426E+01  2.150435E+02  1.663358E+03  3.432535E+02  2.460251E+01
       257  25 -7.418268E+03 -3.463261E+03 -3.634196E+03  1.630049E+03  3.431616E+02  1.655914E+02
       257  26 -5.917671E+03 -3.030513E+03 -3.034106E+03 -6.824654E+02  3.388400E+02  9.615983E+01
       257  27 -4.459461E+03 -2.610464E+03 -2.447889E+03  1.632924E+03  3.345311E+02  2.457095E+01
       258   1 -3.881560E+03 -2.534660E+03 -2.192490E+03  1.648024E+03 -4.019602E+02  1.765603E+01
       258   2 -5.413757E+03 -2.963055E+03 -2.228868E+03 -6.838664E+02 -7.367997E+02  8.804895E+01
       258   3 -6.839664E+03 -2.985097E+03 -1.953600E+03  1.611242E+03 -1.071621E+03  1.563020E+02
       258   4  6.232495E+03 -6.429442E+00  3.345315E+02  1.663707E+03 -3.932441E+02  1.768759E+01
       258   5  6.179381E+03 -6.602597E+01  6.623629E+02 -6.503012E+02 -7.283461E+02  8.807919E+01
       258   6  6.232575E+03  2.807659E+02  1.302013E+03  1.662683E+03 -1.063431E+03  1.563310E+02
       258   7  1.634664E+04  2.521794E+03  2.861546E+03  1.679391E+03 -3.845279E+02  1.771914E+01
       258   8  1.777264E+04  2.830993E+03  3.553584E+03 -6.167355E+02 -7.198924E+02  8.810943E+01
       258   9  1.930497E+04  3.546616E+03  4.557612E+03  1.714125E+03 -1.055240E+03  1.563599E+02
       258  10 -3.881561E+03 -2.534660E+03 -2.192491E+03  1.648024E+03 -3.229673E-09 -1.293555E-09
       258  11 -5.413758E+03 -2.963055E+03 -2.228869E+03 -6.838663E+02 -1.213866E-09 -2.565382E-09
       258  12 -6.839665E+03 -2.985098E+03 -1.953602E+03  1.611243E+03 -3.070735E-10 -2.438276E-09
       258  13  6.232495E+03 -6.429484E+00  3.345312E+02  1.663707E+03  2.059701E-09  4.828500E-09
       258  14  6.179381E+03 -6.602613E+01  6.623619E+02 -6.503012E+02 -4.122480E-10 -1.072378E-09
       258  15  6.232574E+03  2.807656E+02  1.302010E+03  1.662684E+03  3.064588E-09 -4.237694E-09
       258  16  1.634664E+04  2.521794E+03  2.861545E+03  1.679391E+03  2.675424E-09 -3.884934E-09
       258  17  1.777264E+04  2.830993E+03  3.553583E+03 -6.167355E+02  3.999079E-09 -1.279073E-08
       258  18  1.930497E+04  3.546616E+03  4.557610E+03  1.714125E+03  3.155813E-09 -7.405800E-09
       258  19 -3.881560E+03 -2.534660E+03 -2.192490E+03  1.648024E+03  4.019602E+02 -1.765603E+01
       258  20 -5.413757E+03 -2.963055E+03 -2.228868E+03 -6.838664E+02  7.367997E+02 -8.804895E+01
       258  21 -6.839664E+03 -2.985097E+03 -1.953600E+03  1.611242E+03  1.071621E+03 -1.563020E+02
       258  22  6.232495E+03 -6.429442E+00  3.345315E+02  1.663707E+03  3.932441E+02 -1.768759E+01
       258  23  6.179381E+03 -6.602598E+01  6.623629E+02 -6.503012E+02  7.283461E+02 -8.807919E+01
       258  24  6.232575E+03  2.807659E+02  1.302013E+03  1.662683E+03  1.063431E+03 -1.563310E+02
       258  25  1.634664E+04  2.521794E+03  2.861546E+03  1.679391E+03  3.845279E+02 -1.771914E+01
       258  26  1.777264E+04  2.830993E+03  3.553584E+03 -6.167355E+02  7.198924E+02 -8.810943E+01
       258  27  1.930497E+04  3.546616E+03  4.557612E+03  1.714125E+03  1.055240E+03 -1.563599E+02
       259   1 -2.746915E+04 -8.505419E+03 -6.773722E+03  1.653712E+03 -1.343384E+03  1.996535E+02
       259   2 -2.936226E+04 -9.258926E+03 -6.015932E+03 -7.696237E+02 -2.776925E+03  2.684769E+02
       259   3 -3.043241E+04 -7.406198E+03 -3.676451E+03  1.435905E+03 -4.210417E+03  3.213068E+02
       259   4  6.391545E+03 -4.361315E+01  1.675534E+03  1.665883E+03 -1.333611E+03  1.996875E+02
       259   5  5.980041E+03 -4.269415E+02  2.798167E+03 -6.516291E+02 -2.769143E+03  2.685026E+02
       259   6  6.391803E+03  1.796235E+03  5.503815E+03  1.659708E+03 -4.204629E+03  3.213241E+02
       259   7  4.025328E+04  8.418106E+03  1.012470E+04  1.678054E+03 -1.323838E+03  1.997215E+02
       259   8  4.132347E+04  8.404949E+03  1.161217E+04 -5.336287E+02 -2.761360E+03  2.685282E+02
       259   9  4.321725E+04  1.099857E+04  1.468398E+04  1.883524E+03 -4.198841E+03  3.213413E+02
       259  10 -2.746915E+04 -8.505419E+03 -6.773725E+03  1.653713E+03 -4.506769E-10  2.241731E-09
       259  11 -2.936226E+04 -9.258928E+03 -6.015946E+03 -7.696231E+02  1.050151E-09 -5.905859E-09
       259  12 -3.043243E+04 -7.406202E+03 -3.676484E+03  1.435906E+03 -8.972949E-10  5.140129E-09
       259  13  6.391543E+03 -4.361367E+01  1.675530E+03  1.665884E+03 -1.264955E-10 -2.599720E-09
       259  14  5.980033E+03 -4.269436E+02  2.798152E+03 -6.516285E+02 -3.999392E-10  2.824401E-09
       259  15  6.391784E+03  1.796231E+03  5.503782E+03  1.659709E+03  8.531928E-10  8.339138E-09
       259  16  4.025328E+04  8.418105E+03  1.012470E+04  1.678054E+03  9.431311E-10  4.806205E-09
       259  17  4.132346E+04  8.404947E+03  1.161216E+04 -5.336281E+02  5.914321E-09 -8.041560E-10
       259  18  4.321723E+04  1.099856E+04  1.468395E+04  1.883525E+03  3.895912E-12  1.436659E-08
       259  19 -2.746915E+04 -8.505419E+03 -6.773722E+03  1.653712E+03  1.343384E+03 -1.996535E+02
       259  20 -2.936226E+04 -9.258926E+03 -6.015932E+03 -7.696237E+02  2.776925E+03 -2.684769E+02
       259  21 -3.043241E+04 -7.406198E+03 -3.676451E+03  1.435905E+03  4.210417E+03 -3.213068E+02
       259  22  6.391545E+03 -4.361315E+01  1.675534E+03  1.665883E+03  1.333611E+03 -1.996875E+02
       259  23  5.980041E+03 -4.269415E+02  2.798167E+03 -6.516291E+02  2.769143E+03 -2.685026E+02
       259  24  6.391803E+03  1.796235E+03  5.503815E+03  1.659708E+03  4.204629E+03 -3.213241E+02
       259  25  4.025328E+04  8.418106E+03  1.012470E+04  1.678054E+03  1.323838E+03 -1.997215E+02
       259  26  4.132347E+04  8.404949E+03  1.161217E+04 -5.336287E+02  2.761360E+03 -2.685282E+02
       259  27  4.321725E+04  1.099857E+04  1.468398E+04  1.883524E+03  4.198841E+03 -3.213413E+02
       260   1 -5.033880E+04 -1.476841E+04 -7.508276E+03  2.024219E+03 -5.343499E+03  3.752905E+02
       260   2 -5.432821E+04 -1.755187E+04 -3.715714E+03 -1.012162E+03 -1.112875E+04  4.423466E+02
       260   3 -5.330440E+04 -3.426907E+03  8.077268E+03  5.672922E+02 -1.691368E+04  4.087854E+02
       260   4  7.322542E+03 -3.622793E+02  6.876024E+03  1.673439E+03 -5.327485E+03  3.753451E+02
       260   5  4.815370E+03 -2.770695E+03  1.103374E+04 -6.525713E+02 -1.112530E+04  4.423506E+02
       260   6  7.323119E+03  1.173063E+04  2.320006E+04  1.637227E+03 -1.692280E+04  4.087299E+02
       260   7  6.498690E+04  1.404360E+04  2.126007E+04  1.322623E+03 -5.311471E+03  3.753995E+02
       260   8  6.396212E+04  1.201022E+04  2.578293E+04 -2.929484E+02 -1.112185E+04  4.423546E+02
       260   9  6.795398E+04  2.688790E+04  3.832257E+04  2.707265E+03 -1.693192E+04  4.086744E+02
       260  10 -5.033884E+04 -1.476841E+04 -7.508330E+03  2.024221E+03  1.235174E-09  1.662905E-09
       260  11 -5.432834E+04 -1.755190E+04 -3.715948E+03 -1.012158E+03 -4.847101E-10  7.523163E-09
       260  12 -5.330471E+04 -3.426984E+03  8.076730E+03  5.672978E+02 -4.772091E-10 -6.410384E-09
       260  13  7.322511E+03 -3.622871E+02  6.875970E+03  1.673441E+03  8.789071E-10 -4.004717E-09
       260  14  4.815237E+03 -2.770728E+03  1.103351E+04 -6.525673E+02 -1.374296E-09  3.796486E-09
       260  15  7.322812E+03  1.173055E+04  2.319952E+04  1.637233E+03  1.303012E-09 -8.669284E-10
       260  16  6.498687E+04  1.404359E+04  2.126002E+04  1.322625E+03 -1.379833E-09 -1.172195E-10
       260  17  6.396199E+04  1.201018E+04  2.578269E+04 -2.929444E+02  2.113235E-09 -1.856063E-08
       260  18  6.795367E+04  2.688782E+04  3.832203E+04  2.707270E+03 -1.390843E-09  4.508130E-09
       260  19 -5.033880E+04 -1.476841E+04 -7.508276E+03  2.024219E+03  5.343499E+03 -3.752905E+02
       260  20 -5.432821E+04 -1.755187E+04 -3.715714E+03 -1.012162E+03  1.112875E+04 -4.423466E+02
       260  21 -5.330440E+04 -3.426907E+03  8.077268E+03  5.672922E+02  1.691368E+04 -4.087854E+02
       260  22  7.322542E+03 -3.622793E+02  6.876024E+03  1.673439E+03  5.327485E+03 -3.753451E+02
       260  23  4.815370E+03 -2.770695E+03  1.103374E+04 -6.525713E+02  1.112530E+04 -4.423506E+02
       260  24  7.323119E+03  1.173063E+04  2.320006E+04  1.637227E+03  1.692280E+04 -4.087299E+02
       260  25  6.498690E+04  1.404360E+04  2.126007E+04  1.322623E+03  5.311471E+03 -3.753995E+02
       260  26  6.396212E+04  1.201022E+04  2.578293E+04 -2.929484E+02  1.112185E+04 -4.423546E+02
       260  27  6.795398E+04  2.688790E+04  3.832257E+04  2.707265E+03  1.693192E+04 -4.086744E+02
       261   1 -6.853011E+04 -2.285278E+04  7.694068E+03  4.677458E+03 -2.162406E+04  5.356754E+02
       261   2 -8.532426E+04 -3.877555E+04  2.193117E+04 -2.423065E+03 -4.486348E+04  6.284752E+02
       261   3 -7.148087E+04  5.531650E+04  7.882698E+04 -5.029445E+03 -6.810072E+04  9.436868E+01
       261   4  1.301796E+04 -2.496440E+03  2.803043E+04  1.702709E+03 -2.156927E+04  5.359381E+02
       261   5 -2.304314E+03 -1.801968E+04  4.263072E+04 -6.421843E+02 -4.488669E+04  6.282903E+02
       261   6  1.302047E+04  7.647755E+04  9.993979E+04  1.507054E+03 -6.820198E+04  9.341722E+01
       261   7  9.457208E+04  1.785944E+04  4.836630E+04 -1.272436E+03 -2.151447E+04  5.362001E+02
       261   8  8.072189E+04  2.735677E+03  6.332975E+04  1.138931E+03 -4.490990E+04  6.281053E+02
       261   9  9.752837E+04  9.763821E+04  1.210521E+05  8.044438E+03 -6.830325E+04  9.246374E+01
       261  10 -6.853061E+04 -2.285291E+04  7.693189E+03  4.677468E+03  2.828526E-09 -1.716673E-09
       261  11 -8.532643E+04 -3.877609E+04  2.192739E+04 -2.423043E+03  1.230023E-09  2.298094E-09
       261  12 -7.148585E+04  5.531525E+04  7.881826E+04 -5.029440E+03 -1.468900E-10  7.892012E-09
       261  13  1.301746E+04 -2.496565E+03  2.802956E+04  1.702718E+03  1.855098E-09  3.061318E-09
       261  14 -2.306477E+03 -1.802022E+04  4.262693E+04 -6.421616E+02 -2.875561E-09  4.942254E-09
       261  15  1.301547E+04  7.647630E+04  9.993105E+04  1.507059E+03  6.573376E-10  2.630468E-09
       261  16  9.457159E+04  1.785931E+04  4.836543E+04 -1.272427E+03 -1.432208E-09  9.810476E-09
       261  17  8.071973E+04  2.735136E+03  6.332596E+04  1.138954E+03  2.900027E-09  4.804616E-09
       261  18  9.752336E+04  9.763696E+04  1.210433E+05  8.044443E+03 -5.146036E-10 -1.320706E-09
       261  19 -6.853011E+04 -2.285278E+04  7.694068E+03  4.677458E+03  2.162406E+04 -5.356754E+02
       261  20 -8.532426E+04 -3.877555E+04  2.193117E+04 -2.423065E+03  4.486348E+04 -6.284752E+02
       261  21 -7.148087E+04  5.531650E+04  7.882698E+04 -5.029445E+03  6.810072E+04 -9.436868E+01
       261  22  1.301796E+04 -2.496440E+03  2.803043E+04  1.702709E+03  2.156927E+04 -5.359381E+02
       261  23 -2.304314E+03 -1.801968E+04  4.263072E+04 -6.421843E+02  4.488669E+04 -6.282903E+02
       261  24  1.302047E+04  7.647755E+04  9.993979E+04  1.507054E+03  6.820198E+04 -9.341722E+01
       261  25  9.457208E+04  1.785944E+04  4.836630E+04 -1.272436E+03  2.151447E+04 -5.362001E+02
       261  26  8.072189E+04  2.735677E+03  6.332975E+04  1.138931E+03  4.490990E+04 -6.281053E+02
       261  27  9.752837E+04  9.763821E+04  1.210521E+05  8.044438E+03  6.830325E+04 -9.246374E+01
       262   1 -2.386652E+05 -1.096274E+06 -2.715589E+05  8.303745E+04 -3.937235E+03 -1.135683E+05
       262   2 -7.229528E+04 -9.961839E+05 -1.612581E+05  2.562859E+04 -1.170039E+04 -6.867917E+04
       262   3 -6.632505E+04 -9.416190E+05 -1.202416E+05  2.544567E+04 -9.031805E+03 -2.376179E+04
       262   4 -1.278283E+05 -6.531975E+05 -1.620009E+05  4.191233E+04 -3.944050E+03 -1.071306E+05
       262   5  1.839886E+04 -6.308767E+05 -7.371667E+04  1.344325E+04 -1.170111E+04 -6.746776E+04
       262   6  5.184801E+03 -6.531478E+05 -5.105046E+04  4.220322E+04 -9.024955E+03 -2.778275E+04
       262   7 -1.699992E+04 -2.099391E+05 -5.245636E+04  7.578632E+02 -3.951718E+03 -1.006882E+05
       262   8  1.090838E+05 -2.654466E+05  1.381537E+04  1.250762E+03 -1.170188E+04 -6.625564E+04
       262   9  7.668969E+04 -3.645996E+05  1.813502E+04  5.896863E+04 -9.018323E+03 -3.180557E+04
       262  10 -2.386686E+05 -1.096288E+06 -2.715833E+05  8.303709E+04  4.340781E-09 -1.450605E-09
       262  11 -7.229669E+04 -9.961891E+05 -1.612672E+05  2.562794E+04  7.776498E-09  6.569682E-09
       262  12 -6.632529E+04 -9.416197E+05 -1.202428E+05  2.544550E+04  1.034791E-09  3.497769E-09
       262  13 -1.278314E+05 -6.532099E+05 -1.620225E+05  4.191199E+04  2.704625E-09  6.133605E-09
       262  14  1.839749E+04 -6.308816E+05 -7.372549E+04  1.344261E+04  6.229908E-09 -4.555147E-09
       262  15  5.184506E+03 -6.531487E+05 -5.105206E+04  4.220302E+04 -1.743176E-09  2.792110E-09
       262  16 -1.700266E+04 -2.099500E+05 -5.247544E+04  7.575427E+02  1.082280E-09 -2.650700E-09
       262  17  1.090825E+05 -2.654514E+05  1.380686E+04  1.250137E+03  3.365215E-09 -5.206822E-09
       262  18  7.668933E+04 -3.646007E+05  1.813297E+04  5.896840E+04 -3.296721E-09 -9.263651E-09
       262  19 -2.386652E+05 -1.096274E+06 -2.715589E+05  8.303745E+04  3.937235E+03  1.135683E+05
       262  20 -7.229528E+04 -9.961839E+05 -1.612581E+05  2.562859E+04  1.170039E+04  6.867917E+04
       262  21 -6.632505E+04 -9.416190E+05 -1.202416E+05  2.544567E+04  9.031805E+03  2.376179E+04
       262  22 -1.278283E+05 -6.531975E+05 -1.620009E+05  4.191233E+04  3.944050E+03  1.071306E+05
       262  23  1.839886E+04 -6.308767E+05 -7.371667E+04  1.344325E+04  1.170111E+04  6.746776E+04
       262  24  5.184801E+03 -6.531478E+05 -5.105046E+04  4.220322E+04  9.024955E+03  2.778275E+04
       262  25 -1.699992E+04 -2.099391E+05 -5.245636E+04  7.578632E+02  3.951718E+03  1.006882E+05
       262  26  1.090838E+05 -2.654466E+05  1.381537E+04  1.250762E+03  1.170188E+04  6.625564E+04
       262  27  7.668969E+04 -3.645996E+05  1.813502E+04  5.896863E+04  9.018323E+03  3.180557E+04
       263   1 -5.854109E+04 -8.289389E+05 -8.917661E+04  4.805092E+04 -5.658796E+03 -1.840913E+04
       263   2 -2.247325E+04 -7.459733E+05 -5.936039E+04  1.346867E+04 -3.331286E+03 -7.746829E+02
       263   3 -1.818930E+04 -6.729860E+05 -4.892663E+04  3.707610E+04 -6.685169E+02  1.686192E+04
       263   4 -1.297874E+04 -6.454457E+05 -4.512642E+04  4.231947E+04 -5.656625E+03 -1.951520E+04
       263   5  3.705759E+03 -6.404672E+05 -3.405633E+04  1.322644E+04 -3.329119E+03 -2.045988E+03
       263   6 -1.136139E+04 -6.454419E+05 -4.225037E+04  4.232316E+04 -6.660874E+02  1.542320E+04
       263   7  3.258128E+04 -4.619215E+05 -1.078600E+03  3.658633E+04 -5.654434E+03 -2.062160E+04
       263   8  2.988396E+04 -5.349508E+05 -8.753042E+03  1.298417E+04 -3.326952E+03 -3.317509E+03
       263   9 -4.533434E+03 -6.178969E+05 -3.557414E+04  4.757046E+04 -6.636823E+02  1.398441E+04
       263  10 -5.854121E+04 -8.289392E+05 -8.917731E+04  4.805084E+04 -3.263514E-09  6.852717E-09
       263  11 -2.247327E+04 -7.459733E+05 -5.936042E+04  1.346867E+04  1.912275E-10  7.763637E-09
       263  12 -1.818938E+04 -6.729863E+05 -4.892717E+04  3.707611E+04 -6.238715E-10 -3.520222E-09
       263  13 -1.297887E+04 -6.454461E+05 -4.512720E+04  4.231939E+04 -2.882911E-09  1.695339E-09
       263  14  3.705746E+03 -6.404672E+05 -3.405636E+04  1.322643E+04  8.809098E-10 -5.544993E-09
       263  15 -1.136146E+04 -6.454421E+05 -4.225082E+04  4.232317E+04 -2.735462E-09 -2.858221E-10
       263  16  3.258113E+04 -4.619220E+05 -1.079460E+03  3.658624E+04 -3.215502E-09 -1.214698E-08
       263  17  2.988395E+04 -5.349508E+05 -8.753084E+03  1.298416E+04  1.483393E-09 -6.486709E-09
       263  18 -4.533487E+03 -6.178971E+05 -3.557451E+04  4.757047E+04 -2.403505E-09 -2.301012E-09
       263  19 -5.854109E+04 -8.289389E+05 -8.917661E+04  4.805092E+04  5.658796E+03  1.840913E+04
       263  20 -2.247325E+04 -7.459733E+05 -5.936039E+04  1.346867E+04  3.331286E+03  7.746829E+02
       263  21 -1.818930E+04 -6.729860E+05 -4.892663E+04  3.707610E+04  6.685169E+02 -1.686192E+04
       263  22 -1.297874E+04 -6.454457E+05 -4.512642E+04  4.231947E+04  5.656625E+03  1.951520E+04
       263  23  3.705759E+03 -6.404672E+05 -3.405633E+04  1.322644E+04  3.329119E+03  2.045988E+03
       263  24 -1.136139E+04 -6.454419E+05 -4.225037E+04  4.232316E+04  6.660874E+02 -1.542320E+04
       263  25  3.258128E+04 -4.619215E+05 -1.078600E+03  3.658633E+04  5.654434E+03  2.062160E+04
       263  26  2.988396E+04 -5.349508E+05 -8.753042E+03  1.298417E+04  3.326952E+03  3.317509E+03
       263  27 -4.533434E+03 -6.178969E+05 -3.557414E+04  4.757046E+04  6.636823E+02 -1.398441E+04
       264   1  2.356362E+04 -5.742772E+05 -2.823944E+04  5.750383E+04  2.133538E+03  2.607565E+04
       264   2  5.498739E+04 -4.767489E+05 -2.892072E+04  2.771446E+03  4.984174E+03  5.865275E+04
       264   3 -5.489698E+04 -4.185041E+05 -8.608466E+04  5.892951E+03  1.848188E+03  9.122365E+04
       264   4  4.304891E+03 -6.520740E+05 -4.697628E+04  4.231934E+04  2.137662E+03  2.310200E+04
       264   5  1.639500E+04 -6.321802E+05 -6.614368E+04  1.328594E+04  4.985177E+03  5.868527E+04
       264   6 -1.133677E+05 -6.521131E+05 -1.438952E+05  4.210927E+04  1.848103E+03  9.425813E+04
       264   7 -1.495340E+04 -7.298648E+05 -6.571340E+04  2.713677E+04  2.141931E+03  2.012872E+04
       264   8 -2.219874E+04 -7.875892E+05 -1.033683E+05  2.379779E+04  4.986183E+03  5.871779E+04
       264   9 -1.718375E+05 -8.856698E+05 -2.017091E+05  7.831196E+04  1.848373E+03  9.729145E+04
       264  10  2.356343E+04 -5.742779E+05 -2.824072E+04  5.750378E+04 -4.443525E-10  3.993719E-09
       264  11  5.498644E+04 -4.767526E+05 -2.892723E+04  2.771211E+03  3.305806E-09  6.995421E-09
       264  12 -5.489921E+04 -4.185130E+05 -8.610032E+04  5.892815E+03  3.287523E-10 -2.152590E-09
       264  13  4.304743E+03 -6.520746E+05 -4.697729E+04  4.231930E+04 -2.650923E-09  2.595053E-09
       264  14  1.639405E+04 -6.321839E+05 -6.615021E+04  1.328570E+04 -7.930518E-10 -4.040273E-09
       264  15 -1.133700E+05 -6.521227E+05 -1.439119E+05  4.210913E+04  1.802638E-09  3.862475E-09
       264  16 -1.495352E+04 -7.298652E+05 -6.571417E+04  2.713673E+04 -4.454233E-09 -7.922057E-09
       264  17 -2.219970E+04 -7.875929E+05 -1.033748E+05  2.379756E+04  1.031591E-09 -5.633473E-09
       264  18 -1.718401E+05 -8.856800E+05 -2.017269E+05  7.831181E+04  9.255280E-10 -3.069147E-09
       264  19  2.356362E+04 -5.742772E+05 -2.823944E+04  5.750383E+04 -2.133538E+03 -2.607565E+04
       264  20  5.498739E+04 -4.767489E+05 -2.892072E+04  2.771446E+03 -4.984174E+03 -5.865275E+04
       264  21 -5.489698E+04 -4.185041E+05 -8.608466E+04  5.892951E+03 -1.848188E+03 -9.122365E+04
       264  22  4.304891E+03 -6.520740E+05 -4.697628E+04  4.231934E+04 -2.137662E+03 -2.310200E+04
       264  23  1.639500E+04 -6.321802E+05 -6.614368E+04  1.328594E+04 -4.985177E+03 -5.868527E+04
       264  24 -1.133677E+05 -6.521131E+05 -1.438952E+05  4.210927E+04 -1.848103E+03 -9.425813E+04
       264  25 -1.495340E+04 -7.298648E+05 -6.571340E+04  2.713677E+04 -2.141931E+03 -2.012872E+04
       264  26 -2.219874E+04 -7.875892E+05 -1.033683E+05  2.379779E+04 -4.986183E+03 -5.871779E+04
       264  27 -1.718375E+05 -8.856698E+05 -2.017091E+05  7.831196E+04 -1.848373E+03 -9.729145E+04
       265   1  8.963880E+05  3.056534E+05  1.956532E+05  3.159993E+05  8.481237E+04  2.899269E+04
       265   2  8.654234E+05  1.744004E+05  1.147126E+05  3.199931E+05  5.526014E+04  1.180247E+04
       265   3  8.701462E+05  1.699328E+05  8.875288E+04  3.076860E+05  2.342452E+04  6.587732E+02
       265   4  6.591240E+05  1.887914E+05  1.257871E+05  2.233175E+05  8.087201E+04  2.749933E+04
       265   5  6.350219E+05  7.978724E+04  5.243870E+04  2.488153E+05  5.418648E+04  1.139558E+04
       265   6  6.460558E+05  9.702586E+04  3.181660E+04  2.580079E+05  2.521645E+04  1.336733E+03
       265   7  4.219183E+05  7.194636E+04  5.591627E+04  1.306724E+05  7.693333E+04  2.600702E+04
       265   8  4.046724E+05 -1.481959E+04 -9.839764E+03  1.776625E+05  5.311326E+04  1.098889E+04
       265   9  4.220129E+05  2.411883E+04 -2.512381E+04  2.083444E+05  2.700768E+04  2.014510E+03
       265  10  8.963800E+05  3.056506E+05  1.956381E+05  3.159973E+05 -1.005168E-09 -1.312861E-09
       265  11  8.654200E+05  1.743994E+05  1.147066E+05  3.199926E+05 -3.561256E-09 -2.838515E-09
       265  12  8.701456E+05  1.699327E+05  8.875185E+04  3.076860E+05 -7.195070E-09 -8.967386E-09
       265  13  6.591168E+05  1.887888E+05  1.257734E+05  2.233158E+05 -4.741052E-10 -5.539769E-09
       265  14  6.350187E+05  7.978631E+04  5.243295E+04  2.488148E+05 -6.767906E-09 -5.060753E-09
       265  15  6.460551E+05  9.702569E+04  3.181540E+04  2.580079E+05 -2.568046E-09 -7.426385E-09
       265  16  4.219118E+05  7.194405E+04  5.590389E+04  1.306708E+05 -1.820381E-09  1.198334E-10
       265  17  4.046693E+05 -1.482048E+04 -9.845288E+03  1.776620E+05 -3.537498E-09 -4.293507E-09
       265  18  4.220122E+05  2.411863E+04 -2.512518E+04  2.083444E+05 -6.453791E-10 -1.768181E-10
       265  19  8.963880E+05  3.056534E+05  1.956532E+05  3.159993E+05 -8.481237E+04 -2.899269E+04
       265  20  8.654234E+05  1.744004E+05  1.147126E+05  3.199931E+05 -5.526014E+04 -1.180247E+04
       265  21  8.701462E+05  1.699328E+05  8.875288E+04  3.076860E+05 -2.342452E+04 -6.587732E+02
       265  22  6.591240E+05  1.887914E+05  1.257871E+05  2.233175E+05 -8.087201E+04 -2.749933E+04
       265  23  6.350219E+05  7.978724E+04  5.243870E+04  2.488153E+05 -5.418648E+04 -1.139558E+04
       265  24  6.460558E+05  9.702586E+04  3.181660E+04  2.580079E+05 -2.521645E+04 -1.336733E+03
       265  25  4.219183E+05  7.194636E+04  5.591627E+04  1.306724E+05 -7.693333E+04 -2.600702E+04
       265  26  4.046724E+05 -1.481959E+04 -9.839764E+03  1.776625E+05 -5.311326E+04 -1.098889E+04
       265  27  4.220129E+05  2.411883E+04 -2.512381E+04  2.083444E+05 -2.700768E+04 -2.014510E+03
       266   1  8.263974E+05  1.823856E+05  7.524055E+04  3.037988E+05  2.010474E+04  9.824487E+02
       266   2  8.102481E+05  1.562615E+05  5.639951E+04  2.936234E+05  1.328776E+04 -1.174779E+03
       266   3  7.882554E+05  1.544231E+05  4.600761E+04  2.933874E+05  6.290061E+03 -2.854291E+03
       266   4  6.420356E+05  1.100576E+05  2.589335E+04  2.503441E+05  2.016231E+04  1.003981E+03
       266   5  6.442624E+05  9.290630E+04  1.239332E+04  2.472790E+05  1.357289E+04 -1.067023E+03
       266   6  6.406019E+05  9.999785E+04  7.164118E+03  2.541527E+05  6.802512E+03 -2.660383E+03
       266   7  4.577066E+05  3.773253E+04 -2.345683E+04  1.969041E+05  2.021985E+04  1.025506E+03
       266   8  4.783036E+05  2.955310E+04 -3.161520E+04  2.009457E+05  1.385793E+04 -9.593005E+02
       266   9  4.929697E+05  4.557385E+04 -3.168111E+04  2.149263E+05  7.314827E+03 -2.466523E+03
       266  10  8.263970E+05  1.823855E+05  7.523979E+04  3.037988E+05  9.559492E-10  1.612833E-09
       266  11  8.102479E+05  1.562614E+05  5.639917E+04  2.936235E+05  6.841618E-09  5.492771E-09
       266  12  7.882553E+05  1.544231E+05  4.600752E+04  2.933874E+05  4.092097E-09  5.271634E-09
       266  13  6.420352E+05  1.100575E+05  2.589259E+04  2.503441E+05 -6.352412E-09  4.810812E-09
       266  14  6.442622E+05  9.290625E+04  1.239297E+04  2.472790E+05 -1.252514E-09  7.712392E-09
       266  15  6.406018E+05  9.999783E+04  7.164018E+03  2.541527E+05  4.700248E-10  1.367099E-08
       266  16  4.577062E+05  3.773242E+04 -2.345760E+04  1.969041E+05 -4.141954E-09 -2.944028E-09
       266  17  4.783034E+05  2.955305E+04 -3.161556E+04  2.009458E+05 -3.559022E-09 -5.840024E-09
       266  18  4.929697E+05  4.557383E+04 -3.168122E+04  2.149263E+05  7.756191E-11  1.270607E-08
       266  19  8.263974E+05  1.823856E+05  7.524055E+04  3.037988E+05 -2.010474E+04 -9.824487E+02
       266  20  8.102481E+05  1.562615E+05  5.639951E+04  2.936234E+05 -1.328776E+04  1.174779E+03
       266  21  7.882554E+05  1.544231E+05  4.600761E+04  2.933874E+05 -6.290061E+03  2.854291E+03
       266  22  6.420356E+05  1.100576E+05  2.589335E+04  2.503441E+05 -2.016231E+04 -1.003981E+03
       266  23  6.442624E+05  9.290630E+04  1.239332E+04  2.472790E+05 -1.357289E+04  1.067023E+03
       266  24  6.406019E+05  9.999785E+04  7.164118E+03  2.541527E+05 -6.802512E+03  2.660383E+03
       266  25  4.577066E+05  3.773253E+04 -2.345683E+04  1.969041E+05 -2.021985E+04 -1.025506E+03
       266  26  4.783036E+05  2.955310E+04 -3.161520E+04  2.009457E+05 -1.385793E+04  9.593005E+02
       266  27  4.929697E+05  4.557385E+04 -3.168111E+04  2.149263E+05 -7.314827E+03  2.466523E+03
       267   1  7.582035E+05  1.461662E+05  3.680292E+04  2.859589E+05  5.184866E+03 -2.627579E+03
       267   2  7.441946E+05  1.318421E+05  2.906014E+04  2.744495E+05  3.385954E+03 -2.389613E+03
       267   3  7.196382E+05  1.302132E+05  2.281260E+04  2.753962E+05  1.574475E+03 -2.118974E+03
       267   4  6.401278E+05  1.013453E+05  5.599553E+03  2.532316E+05  5.556342E+03 -2.487000E+03
       267   5  6.453263E+05  9.445871E+04  2.910879E+03  2.472085E+05  3.773159E+03 -2.243028E+03
       267   6  6.399743E+05  1.002645E+05  1.705344E+03  2.536415E+05  1.977357E+03 -1.966399E+03
       267   7  5.220652E+05  5.652518E+04 -2.560511E+04  2.205099E+05  5.927742E+03 -2.346452E+03
       267   8  5.464672E+05  5.707585E+04 -2.323926E+04  2.199713E+05  4.160295E+03 -2.096469E+03
       267   9  5.603165E+05  7.031626E+04 -1.940246E+04  2.318892E+05  2.380183E+03 -1.813845E+03
       267  10  7.582035E+05  1.461662E+05  3.680286E+04  2.859589E+05 -1.883277E-09 -6.005415E-09
       267  11  7.441946E+05  1.318421E+05  2.906011E+04  2.744496E+05 -4.361505E-09 -1.735050E-09
       267  12  7.196382E+05  1.302132E+05  2.281258E+04  2.753962E+05 -4.092966E-09  4.714357E-10
       267  13  6.401278E+05  1.013453E+05  5.599483E+03  2.532316E+05 -6.795202E-10  2.604465E-09
       267  14  6.453263E+05  9.445870E+04  2.910843E+03  2.472085E+05  1.496977E-09 -1.867492E-09
       267  15  6.399743E+05  1.002645E+05  1.705330E+03  2.536415E+05 -6.196917E-09 -1.231096E-09
       267  16  5.220651E+05  5.652517E+04 -2.560518E+04  2.205099E+05  2.833659E-09  9.160737E-09
       267  17  5.464672E+05  5.707584E+04 -2.323931E+04  2.199713E+05  2.364220E-09  6.598506E-09
       267  18  5.603164E+05  7.031625E+04 -1.940248E+04  2.318892E+05 -1.524170E-09 -1.541448E-10
       267  19  7.582035E+05  1.461662E+05  3.680292E+04  2.859589E+05 -5.184866E+03  2.627579E+03
       267  20  7.441946E+05  1.318421E+05  2.906014E+04  2.744495E+05 -3.385954E+03  2.389613E+03
       267  21  7.196382E+05  1.302132E+05  2.281260E+04  2.753962E+05 -1.574475E+03  2.118974E+03
       267  22  6.401278E+05  1.013453E+05  5.599553E+03  2.532316E+05 -5.556342E+03  2.487000E+03
       267  23  6.453263E+05  9.445871E+04  2.910879E+03  2.472085E+05 -3.773159E+03  2.243028E+03
       267  24  6.399743E+05  1.002645E+05  1.705344E+03  2.536415E+05 -1.977357E+03  1.966399E+03
       267  25  5.220652E+05  5.652518E+04 -2.560511E+04  2.205099E+05 -5.927742E+03  2.346452E+03
       267  26  5.464672E+05  5.707585E+04 -2.323926E+04  2.199713E+05 -4.160295E+03  2.096469E+03
       267  27  5.603165E+05  7.031626E+04 -1.940246E+04  2.318892E+05 -2.380183E+03  1.813845E+03
       268   1  6.915558E+05  1.198854E+05  1.493751E+04  2.677406E+05  1.148920E+03 -1.719200E+03
       268   2  6.779561E+05  1.069504E+05  9.481847E+03  2.561887E+05  3.921684E+02 -1.058446E+03
       268   3  6.533300E+05  1.053464E+05  4.402777E+03  2.572176E+05 -3.649127E+02 -3.969483E+02
       268   4  6.399290E+05  1.003776E+05  1.355015E+03  2.535122E+05  1.540061E+03 -1.571048E+03
       268   5  6.454358E+05  9.466478E+04  8.822799E+02  2.472399E+05  7.836932E+02 -9.101337E+02
       268   6  6.399158E+05  1.002828E+05  7.858928E+02  2.535483E+05  2.697830E+01 -2.484792E+02
       268   7  5.883050E+05  8.087008E+04 -1.222766E+04  2.392849E+05  1.931166E+03 -1.422910E+03
       268   8  6.129166E+05  8.237920E+04 -7.717378E+03  2.382915E+05  1.175195E+03 -7.618301E+02
       268   9  6.265018E+05  9.521927E+04 -2.831017E+03  2.498790E+05  4.188610E+02 -1.000133E+02
       268  10  6.915558E+05  1.198854E+05  1.493750E+04  2.677406E+05 -4.366170E-09  7.679704E-09
       268  11  6.779561E+05  1.069504E+05  9.481845E+03  2.561887E+05 -6.366044E-09  3.323581E-09
       268  12  6.533300E+05  1.053464E+05  4.402777E+03  2.572176E+05  2.650371E-09  1.792099E-09
       268  13  6.399290E+05  1.003776E+05  1.355006E+03  2.535122E+05 -1.044744E-09  7.661058E-09
       268  14  6.454358E+05  9.466478E+04  8.822772E+02  2.472399E+05 -3.578838E-09 -1.106514E-09
       268  15  6.399158E+05  1.002828E+05  7.858927E+02  2.535483E+05 -1.210672E-09 -4.607269E-09
       268  16  5.883050E+05  8.087008E+04 -1.222768E+04  2.392849E+05 -4.527538E-10  1.227434E-08
       268  17  6.129166E+05  8.237920E+04 -7.717381E+03  2.382915E+05 -1.482992E-09  1.332609E-08
       268  18  6.265018E+05  9.521927E+04 -2.831017E+03  2.498790E+05 -4.320860E-09  6.213284E-09
       268  19  6.915558E+05  1.198854E+05  1.493751E+04  2.677406E+05 -1.148920E+03  1.719200E+03
       268  20  6.779561E+05  1.069504E+05  9.481847E+03  2.561887E+05 -3.921684E+02  1.058446E+03
       268  21  6.533300E+05  1.053464E+05  4.402777E+03  2.572176E+05  3.649127E+02  3.969483E+02
       268  22  6.399290E+05  1.003776E+05  1.355015E+03  2.535122E+05 -1.540061E+03  1.571048E+03
       268  23  6.454358E+05  9.466478E+04  8.822799E+02  2.472399E+05 -7.836932E+02  9.101337E+02
       268  24  6.399158E+05  1.002828E+05  7.858928E+02  2.535483E+05 -2.697830E+01  2.484792E+02
       268  25  5.883050E+05  8.087008E+04 -1.222766E+04  2.392849E+05 -1.931166E+03  1.422910E+03
       268  26  6.129166E+05  8.237920E+04 -7.717378E+03  2.382915E+05 -1.175195E+03  7.618301E+02
       268  27  6.265018E+05  9.521927E+04 -2.831017E+03  2.498790E+05 -4.188610E+02  1.000133E+02
       269   1  6.255624E+05  9.486609E+04 -3.031051E+03  2.496365E+05 -6.817900E+02  3.521153E+01
       269   2  6.119655E+05  8.201690E+04 -7.693523E+03  2.380364E+05 -1.574863E+03  6.451898E+02
       269   3  5.873902E+05  8.057299E+04 -1.185791E+04  2.390040E+05 -2.467585E+03  1.254562E+03
       269   4  6.399230E+05  1.002756E+05  8.339483E+02  2.535543E+05 -2.899549E+02  1.836596E+02
       269   5  6.454239E+05  9.465397E+04  1.153856E+03  2.472398E+05 -1.183364E+03  7.934922E+02
       269   6  6.399459E+05  1.004375E+05  1.972086E+03  2.534928E+05 -2.076441E+03  1.402713E+03
       269   7  6.542838E+05  1.056851E+05  4.698929E+03  2.574722E+05  1.018900E+02  3.321115E+02
       269   8  6.788833E+05  1.072911E+05  1.000113E+04  2.564437E+05 -7.918428E+02  9.418031E+02
       269   9  6.925041E+05  1.203022E+05  1.580180E+04  2.679827E+05 -1.685262E+03  1.550877E+03
       269  10  6.255624E+05  9.486609E+04 -3.031052E+03  2.496365E+05 -2.791481E-09 -2.528290E-09
       269  11  6.119655E+05  8.201690E+04 -7.693529E+03  2.380364E+05 -3.438298E-09 -8.307903E-09
       269  12  5.873902E+05  8.057299E+04 -1.185792E+04  2.390040E+05  3.916697E-09 -1.556610E-08
       269  13  6.399230E+05  1.002756E+05  8.339480E+02  2.535543E+05  2.468985E-09  5.636225E-09
       269  14  6.454239E+05  9.465397E+04  1.153853E+03  2.472398E+05 -3.135677E-09 -2.714530E-09
       269  15  6.399459E+05  1.004375E+05  1.972074E+03  2.534928E+05  4.039490E-09  9.296560E-09
       269  16  6.542838E+05  1.056851E+05  4.698929E+03  2.574722E+05  2.517136E-09  1.644879E-09
       269  17  6.788833E+05  1.072911E+05  1.000112E+04  2.564437E+05  8.002710E-10  9.448107E-09
       269  18  6.925041E+05  1.203022E+05  1.580179E+04  2.679827E+05 -1.279555E-09 -5.655783E-09
       269  19  6.255624E+05  9.486609E+04 -3.031051E+03  2.496365E+05  6.817900E+02 -3.521153E+01
       269  20  6.119655E+05  8.201690E+04 -7.693523E+03  2.380364E+05  1.574863E+03 -6.451898E+02
       269  21  5.873902E+05  8.057299E+04 -1.185791E+04  2.390040E+05  2.467585E+03 -1.254562E+03
       269  22  6.399230E+05  1.002756E+05  8.339483E+02  2.535543E+05  2.899549E+02 -1.836596E+02
       269  23  6.454239E+05  9.465397E+04  1.153856E+03  2.472398E+05  1.183364E+03 -7.934922E+02
       269  24  6.399459E+05  1.004375E+05  1.972086E+03  2.534928E+05  2.076441E+03 -1.402713E+03
       269  25  6.542838E+05  1.056851E+05  4.698929E+03  2.574722E+05 -1.018900E+02 -3.321115E+02
       269  26  6.788833E+05  1.072911E+05  1.000113E+04  2.564437E+05  7.918428E+02 -9.418031E+02
       269  27  6.925041E+05  1.203022E+05  1.580180E+04  2.679827E+05  1.685262E+03 -1.550877E+03
       270   1  5.593653E+05  7.000282E+04 -1.881986E+04  2.317338E+05 -3.035820E+03  1.600578E+03
       270   2  5.454375E+05  5.659637E+04 -2.197062E+04  2.196965E+05 -5.588830E+03  1.590916E+03
       270   3  5.213415E+05  5.663754E+04 -2.287073E+04  2.199518E+05 -8.129108E+03  1.548348E+03
       270   4  6.400330E+05  1.002462E+05  2.538463E+03  2.536757E+05 -2.632831E+03  1.753192E+03
       270   5  6.452341E+05  9.435477E+04  4.431562E+03  2.472134E+05 -5.201766E+03  1.737445E+03
       270   6  6.402701E+05  1.019139E+05  8.587763E+03  2.530435E+05 -7.758043E+03  1.688766E+03
       270   7  7.207072E+05  1.304901E+05  2.389629E+04  2.756203E+05 -2.229784E+03  1.905827E+03
       270   8  7.450405E+05  1.321139E+05  3.083293E+04  2.747343E+05 -4.814634E+03  1.884000E+03
       270   9  7.592123E+05  1.471911E+05  4.004504E+04  2.861409E+05 -7.386900E+03  1.829214E+03
       270  10  5.593653E+05  7.000282E+04 -1.881988E+04  2.317338E+05 -4.242185E-09 -5.106158E-09
       270  11  5.454374E+05  5.659636E+04 -2.197069E+04  2.196965E+05 -3.856308E-09  1.778622E-09
       270  12  5.213414E+05  5.663752E+04 -2.287085E+04  2.199518E+05 -4.706746E-10  1.624284E-09
       270  13  6.400330E+05  1.002462E+05  2.538444E+03  2.536757E+05  2.789366E-09 -4.520380E-09
       270  14  6.452341E+05  9.435476E+04  4.431505E+03  2.472134E+05  3.602390E-09  3.445333E-09
       270  15  6.402700E+05  1.019138E+05  8.587645E+03  2.530435E+05 -3.541089E-10  2.722434E-09
       270  16  7.207072E+05  1.304901E+05  2.389627E+04  2.756204E+05  6.769669E-09  4.786272E-09
       270  17  7.450405E+05  1.321138E+05  3.083288E+04  2.747343E+05  1.770759E-09 -5.427138E-09
       270  18  7.592123E+05  1.471911E+05  4.004493E+04  2.861409E+05 -1.760678E-09  5.467762E-09
       270  19  5.593653E+05  7.000282E+04 -1.881986E+04  2.317338E+05  3.035820E+03 -1.600578E+03
       270  20  5.454375E+05  5.659637E+04 -2.197062E+04  2.196965E+05  5.588830E+03 -1.590916E+03
       270  21  5.213415E+05  5.663754E+04 -2.287073E+04  2.199518E+05  8.129108E+03 -1.548348E+03
       270  22  6.400330E+05  1.002462E+05  2.538463E+03  2.536757E+05  2.632831E+03 -1.753192E+03
       270  23  6.452341E+05  9.435477E+04  4.431562E+03  2.472134E+05  5.201766E+03 -1.737445E+03
       270  24  6.402701E+05  1.019139E+05  8.587763E+03  2.530435E+05  7.758043E+03 -1.688766E+03
       270  25  7.207072E+05  1.304901E+05  2.389629E+04  2.756203E+05  2.229784E+03 -1.905827E+03
       270  26  7.450405E+05  1.321139E+05  3.083293E+04  2.747343E+05  4.814634E+03 -1.884000E+03
       270  27  7.592123E+05  1.471911E+05  4.004504E+04  2.861409E+05  7.386900E+03 -1.829214E+03
       271   1  4.919139E+05  4.554816E+04 -2.809858E+04  2.155297E+05 -1.006881E+04  1.459755E+03
       271   2  4.769065E+05  2.801519E+04 -2.521152E+04  2.004565E+05 -2.007692E+04 -1.357828E+03
       271   3  4.589920E+05  4.152830E+04 -9.786369E+03  1.936500E+05 -2.990330E+04 -4.654062E+03
       271   4  6.410292E+05  9.981077E+04  1.100025E+04  2.544273E+05 -9.556283E+03  1.653713E+03
       271   5  6.435645E+05  9.200655E+04  1.905360E+04  2.473640E+05 -1.979313E+04 -1.250603E+03
       271   6  6.432356E+05  1.152898E+05  3.982353E+04  2.485673E+05 -2.984859E+04 -4.633749E+03
       271   7  7.901655E+05  1.540742E+05  5.009709E+04  2.933330E+05 -9.043621E+03  1.847717E+03
       271   8  8.102493E+05  1.559999E+05  6.331629E+04  2.942830E+05 -1.950925E+04 -1.143345E+03
       271   9  8.275125E+05  1.890548E+05  8.943054E+04  3.034999E+05 -2.979387E+04 -4.613429E+03
       271  10  4.919138E+05  4.554813E+04 -2.809877E+04  2.155298E+05  2.205546E-09 -1.527046E-09
       271  11  4.769060E+05  2.801508E+04 -2.521228E+04  2.004565E+05  7.169978E-09  2.761444E-09
       271  12  4.589910E+05  4.152804E+04 -9.788089E+03  1.936499E+05  9.289421E-09 -2.035465E-10
       271  13  6.410291E+05  9.981074E+04  1.100007E+04  2.544273E+05 -1.939833E-09 -7.167304E-09
       271  14  6.435641E+05  9.200644E+04  1.905286E+04  2.473640E+05  2.930327E-09  7.064699E-10
       271  15  6.432346E+05  1.152896E+05  3.982181E+04  2.485672E+05  4.120758E-09  4.792027E-10
       271  16  7.901654E+05  1.540742E+05  5.009693E+04  2.933330E+05  4.240460E-10 -2.079217E-10
       271  17  8.102489E+05  1.559998E+05  6.331558E+04  2.942830E+05 -3.839345E-09 -8.324026E-09
       271  18  8.275116E+05  1.890546E+05  8.942884E+04  3.034998E+05 -4.179135E-09 -8.096237E-09
       271  19  4.919139E+05  4.554816E+04 -2.809858E+04  2.155297E+05  1.006881E+04 -1.459755E+03
       271  20  4.769065E+05  2.801519E+04 -2.521152E+04  2.004565E+05  2.007692E+04  1.357828E+03
       271  21  4.589920E+05  4.152830E+04 -9.786369E+03  1.936500E+05  2.990330E+04  4.654062E+03
       271  22  6.410292E+05  9.981077E+04  1.100025E+04  2.544273E+05  9.556283E+03 -1.653713E+03
       271  23  6.435645E+05  9.200655E+04  1.905360E+04  2.473640E+05  1.979313E+04  1.250603E+03
       271  24  6.432356E+05  1.152898E+05  3.982353E+04  2.485673E+05  2.984859E+04  4.633749E+03
       271  25  7.901655E+05  1.540742E+05  5.009709E+04  2.933330E+05  9.043621E+03 -1.847717E+03
       271  26  8.102493E+05  1.559999E+05  6.331629E+04  2.942830E+05  1.950925E+04  1.143345E+03
       271  27  8.275125E+05  1.890548E+05  8.943054E+04  3.034999E+05  2.979387E+04  4.613429E+03
       272   1  4.198751E+05  2.647600E+04 -8.264950E+03  2.155281E+05 -3.913646E+04 -6.564150E+03
       272   2  4.009739E+05 -2.611940E+04  1.812199E+04  1.749365E+05 -8.066116E+04 -2.136230E+04
       272   3  4.419096E+05  1.085688E+05  1.233482E+05  1.020426E+05 -1.198947E+05 -4.221738E+04
       272   4  6.494529E+05  9.520868E+04  4.893564E+04  2.603115E+05 -3.734273E+04 -5.884688E+03
       272   5  6.293161E+05  7.188021E+04  8.066587E+04  2.497817E+05 -8.174490E+04 -2.177405E+04
       272   6  6.695565E+05  2.363597E+05  1.934917E+05  2.069570E+05 -1.238562E+05 -4.372407E+04
       272   7  8.790822E+05  1.639407E+05  1.061325E+05  3.051077E+05 -3.554826E+04 -5.205078E+03
       272   8  8.577081E+05  1.698871E+05  1.432047E+05  3.246529E+05 -8.282906E+04 -2.218601E+04
       272   9  8.972558E+05  3.641744E+05  2.636296E+05  3.119112E+05 -1.278193E+05 -4.523200E+04
       272  10  4.198735E+05  2.647554E+04 -8.267907E+03  2.155279E+05  1.656670E-09 -6.306946E-09
       272  11  4.009668E+05 -2.612163E+04  1.810892E+04  1.749351E+05 -8.636633E-10 -1.139341E-08
       272  12  4.418936E+05  1.085630E+05  1.233178E+05  1.020385E+05 -8.912950E-11 -4.157565E-09
       272  13  6.494514E+05  9.520827E+04  4.893296E+04  2.603113E+05  4.115890E-09 -1.324104E-09
       272  14  6.293088E+05  7.187791E+04  8.065244E+04  2.497802E+05  2.072229E-09 -6.599363E-09
       272  15  6.695396E+05  2.363535E+05  1.934593E+05  2.069526E+05 -5.545529E-10  4.083673E-10
       272  16  8.790809E+05  1.639404E+05  1.061301E+05  3.051076E+05  5.908293E-09  1.926305E-09
       272  17  8.577006E+05  1.698847E+05  1.431909E+05  3.246514E+05  6.469002E-09  2.160765E-09
       272  18  8.972377E+05  3.641678E+05  2.635951E+05  3.119065E+05  2.886373E-09  1.673842E-09
       272  19  4.198751E+05  2.647600E+04 -8.264950E+03  2.155281E+05  3.913646E+04  6.564150E+03
       272  20  4.009739E+05 -2.611940E+04  1.812199E+04  1.749365E+05  8.066116E+04  2.136230E+04
       272  21  4.419096E+05  1.085688E+05  1.233482E+05  1.020426E+05  1.198947E+05  4.221738E+04
       272  22  6.494529E+05  9.520868E+04  4.893564E+04  2.603115E+05  3.734273E+04  5.884688E+03
       272  23  6.293161E+05  7.188021E+04  8.066587E+04  2.497817E+05  8.174490E+04  2.177405E+04
       272  24  6.695565E+05  2.363597E+05  1.934917E+05  2.069570E+05  1.238562E+05  4.372407E+04
       272  25  8.790822E+05  1.639407E+05  1.061325E+05  3.051077E+05  3.554826E+04  5.205078E+03
       272  26  8.577081E+05  1.698871E+05  1.432047E+05  3.246529E+05  8.282906E+04  2.218601E+04
       272  27  8.972558E+05  3.641744E+05  2.636296E+05  3.119112E+05  1.278193E+05  4.523200E+04
       273   1 -2.102668E+04 -6.019045E+05 -2.661652E+04  7.805961E+03 -1.751819E+01 -1.523549E+04
       273   2  1.648597E+03 -5.981670E+05 -1.395067E+04  3.252159E+03 -1.452502E+02 -8.378001E+03
       273   3 -9.282400E+02 -6.016374E+05 -1.206558E+04 -1.234871E+03 -1.588707E+02 -1.520150E+03
       273   4 -1.967602E+04 -5.966429E+05 -2.531032E+04  1.459923E+03 -1.756566E+01 -1.515069E+04
       273   5  2.930785E+03 -5.930413E+05 -1.272045E+04  1.450393E+03 -1.452912E+02 -8.350676E+03
       273   6  2.954930E+02 -5.966374E+05 -1.087136E+04  1.507736E+03 -1.588054E+02 -1.550298E+03
       273   7 -1.832521E+04 -5.913813E+05 -2.400410E+04 -4.886169E+03 -1.761487E+01 -1.506590E+04
       273   8  4.212983E+03 -5.879155E+05 -1.149023E+04 -3.513871E+02 -1.453325E+02 -8.323351E+03
       273   9  1.519253E+03 -5.916374E+05 -9.677134E+03  4.250364E+03 -1.587402E+02 -1.580446E+03
       273  10 -2.102675E+04 -6.019047E+05 -2.661696E+04  7.805961E+03 -2.785910E-10  1.734544E-09
       273  11  1.648578E+03 -5.981671E+05 -1.395080E+04  3.252158E+03 -5.955855E-10  1.385299E-09
       273  12 -9.282406E+02 -6.016374E+05 -1.206558E+04 -1.234871E+03 -2.248973E-09 -2.473574E-09
       273  13 -1.967609E+04 -5.966432E+05 -2.531075E+04  1.459923E+03  2.486887E-09 -5.097523E-09
       273  14  2.930766E+03 -5.930413E+05 -1.272058E+04  1.450392E+03  5.631330E-10  2.970489E-09
       273  15  2.954924E+02 -5.966374E+05 -1.087136E+04  1.507735E+03 -3.288240E-10 -2.048402E-08
       273  16 -1.832527E+04 -5.913815E+05 -2.400453E+04 -4.886169E+03  2.595033E-10 -5.388083E-09
       273  17  4.212964E+03 -5.879156E+05 -1.149036E+04 -3.513881E+02 -8.352940E-11 -1.593188E-08
       273  18  1.519252E+03 -5.916374E+05 -9.677139E+03  4.250364E+03 -2.317668E-11  2.758029E-09
       273  19 -2.102668E+04 -6.019045E+05 -2.661652E+04  7.805961E+03  1.751819E+01  1.523549E+04
       273  20  1.648597E+03 -5.981670E+05 -1.395067E+04  3.252159E+03  1.452502E+02  8.378001E+03
       273  21 -9.282400E+02 -6.016374E+05 -1.206558E+04 -1.234871E+03  1.588707E+02  1.520150E+03
       273  22 -1.967602E+04 -5.966429E+05 -2.531032E+04  1.459923E+03  1.756566E+01  1.515069E+04
       273  23  2.930785E+03 -5.930413E+05 -1.272045E+04  1.450393E+03  1.452912E+02  8.350676E+03
       273  24  2.954930E+02 -5.966374E+05 -1.087136E+04  1.507736E+03  1.588054E+02  1.550298E+03
       273  25 -1.832521E+04 -5.913813E+05 -2.400410E+04 -4.886169E+03  1.761487E+01  1.506590E+04
       273  26  4.212983E+03 -5.879155E+05 -1.149023E+04 -3.513871E+02  1.453325E+02  8.323351E+03
       273  27  1.519253E+03 -5.916374E+05 -9.677134E+03  4.250364E+03  1.587402E+02  1.580446E+03
       274   1 -2.915638E+03 -6.006063E+05 -1.205789E+04  3.081647E+03 -1.443659E+02  3.328340E+02
       274   2  1.853583E+02 -5.986486E+05 -1.319545E+04  1.112246E+03 -1.611563E+02  6.540266E+03
       274   3 -7.910851E+03 -6.002991E+05 -2.117625E+04 -7.529500E+02 -1.633890E+02  1.274772E+04
       274   4 -1.723403E+03 -5.958404E+05 -1.091084E+04  1.503718E+03 -1.443778E+02  3.374995E+02
       274   5  1.327192E+03 -5.940381E+05 -1.209021E+04  1.445549E+03 -1.611463E+02  6.537622E+03
       274   6 -6.818117E+03 -5.958427E+05 -2.010769E+04  1.491587E+03 -1.633189E+02  1.273776E+04
       274   7 -5.311602E+02 -5.910745E+05 -9.763804E+03 -7.422310E+01 -1.443898E+02  3.421650E+02
       274   8  2.469024E+03 -5.894275E+05 -1.098497E+04  1.778854E+03 -1.611363E+02  6.534977E+03
       274   9 -5.725366E+03 -5.913862E+05 -1.903914E+04  3.736139E+03 -1.632489E+02  1.272781E+04
       274  10 -2.915638E+03 -6.006063E+05 -1.205789E+04  3.081647E+03 -2.091190E-09 -1.035822E-09
       274  11  1.853468E+02 -5.986487E+05 -1.319553E+04  1.112247E+03  1.871427E-09  2.457977E-09
       274  12 -7.910895E+03 -6.002993E+05 -2.117656E+04 -7.529483E+02 -2.238236E-09 -2.055601E-09
       274  13 -1.723403E+03 -5.958404E+05 -1.091085E+04  1.503718E+03  1.811539E-09 -9.447500E-09
       274  14  1.327180E+03 -5.940381E+05 -1.209029E+04  1.445550E+03 -1.071318E-09 -4.231670E-10
       274  15 -6.818161E+03 -5.958428E+05 -2.010800E+04  1.491588E+03 -4.868475E-09 -1.455723E-08
       274  16 -5.311603E+02 -5.910745E+05 -9.763805E+03 -7.422306E+01  2.085400E-09 -1.015958E-08
       274  17  2.469013E+03 -5.894276E+05 -1.098505E+04  1.778855E+03  1.874074E-09 -1.656969E-08
       274  18 -5.725410E+03 -5.913863E+05 -1.903944E+04  3.736141E+03 -2.740906E-09  2.671815E-09
       274  19 -2.915638E+03 -6.006063E+05 -1.205789E+04  3.081647E+03  1.443659E+02 -3.328340E+02
       274  20  1.853583E+02 -5.986486E+05 -1.319545E+04  1.112246E+03  1.611563E+02 -6.540266E+03
       274  21 -7.910851E+03 -6.002991E+05 -2.117625E+04 -7.529500E+02  1.633890E+02 -1.274772E+04
       274  22 -1.723403E+03 -5.958404E+05 -1.091084E+04  1.503718E+03  1.443778E+02 -3.374995E+02
       274  23  1.327192E+03 -5.940381E+05 -1.209021E+04  1.445549E+03  1.611463E+02 -6.537622E+03
       274  24 -6.818117E+03 -5.958427E+05 -2.010769E+04  1.491587E+03  1.633189E+02 -1.273776E+04
       274  25 -5.311602E+02 -5.910745E+05 -9.763804E+03 -7.422310E+01  1.443898E+02 -3.421650E+02
       274  26  2.469024E+03 -5.894275E+05 -1.098497E+04  1.778854E+03  1.611363E+02 -6.534977E+03
       274  27 -5.725366E+03 -5.913862E+05 -1.903914E+04  3.736139E+03  1.632489E+02 -1.272781E+04
       275   1  2.081730E+03 -6.043220E+05 -2.494103E+04  1.029485E+04 -1.779292E+02  1.649326E+04
       275   2  8.486676E+03 -5.927283E+05 -3.789258E+04 -4.537100E+03 -2.167770E+02  3.644558E+04
       275   3 -6.668765E+04 -6.041339E+05 -8.423672E+04 -1.937506E+04 -1.767276E+02  5.639790E+04
       275   4  3.169369E+03 -6.001460E+05 -2.393144E+04  1.527929E+03 -1.781990E+02  1.650878E+04
       275   5  9.460324E+03 -5.886596E+05 -3.692442E+04  1.449210E+03 -2.163663E+02  3.642101E+04
       275   6 -6.582156E+04 -6.001659E+05 -8.328210E+04  1.363983E+03 -1.746876E+02  5.633323E+04
       275   7  4.257296E+03 -5.959697E+05 -2.292181E+04 -7.239055E+03 -1.784693E+02  1.652431E+04
       275   8  1.043411E+04 -5.845908E+05 -3.595624E+04  7.435559E+03 -2.159561E+02  3.639644E+04
       275   9 -6.495385E+04 -5.961969E+05 -8.232725E+04  2.210316E+04 -1.726518E+02  5.626856E+04
       275  10  2.081657E+03 -6.043223E+05 -2.494154E+04  1.029486E+04 -2.091135E-09 -1.371835E-09
       275  11  8.486319E+03 -5.927298E+05 -3.789507E+04 -4.537094E+03  4.013028E-09  2.624003E-09
       275  12 -6.668850E+04 -6.041373E+05 -8.424271E+04 -1.937505E+04  3.105926E-09  5.597449E-09
       275  13  3.169296E+03 -6.001463E+05 -2.393195E+04  1.527932E+03 -2.474531E-09 -7.231220E-09
       275  14  9.459968E+03 -5.886610E+05 -3.692691E+04  1.449216E+03  4.075828E-09  8.043635E-10
       275  15 -6.582241E+04 -6.001693E+05 -8.328807E+04  1.363991E+03 -8.584445E-11 -1.342468E-08
       275  16  4.257222E+03 -5.959700E+05 -2.292232E+04 -7.239052E+03 -1.726999E-09 -4.352156E-09
       275  17  1.043375E+04 -5.845922E+05 -3.595873E+04  7.435565E+03  2.410187E-09 -1.761462E-08
       275  18 -6.495471E+04 -5.962003E+05 -8.233321E+04  2.210317E+04  2.046062E-09  2.768259E-09
       275  19  2.081730E+03 -6.043220E+05 -2.494103E+04  1.029485E+04  1.779292E+02 -1.649326E+04
       275  20  8.486676E+03 -5.927283E+05 -3.789258E+04 -4.537100E+03  2.167770E+02 -3.644558E+04
       275  21 -6.668765E+04 -6.041339E+05 -8.423672E+04 -1.937506E+04  1.767276E+02 -5.639790E+04
       275  22  3.169369E+03 -6.001460E+05 -2.393144E+04  1.527929E+03  1.781990E+02 -1.650878E+04
       275  23  9.460324E+03 -5.886596E+05 -3.692442E+04  1.449210E+03  2.163663E+02 -3.642101E+04
       275  24 -6.582156E+04 -6.001659E+05 -8.328210E+04  1.363983E+03  1.746876E+02 -5.633323E+04
       275  25  4.257296E+03 -5.959697E+05 -2.292181E+04 -7.239055E+03  1.784693E+02 -1.652431E+04
       275  26  1.043411E+04 -5.845908E+05 -3.595624E+04  7.435559E+03  2.159561E+02 -3.639644E+04
       275  27 -6.495385E+04 -5.961969E+05 -8.232725E+04  2.210316E+04  1.726518E+02 -5.626856E+04
       276   1  6.283924E+05  3.158717E+04  5.874112E+04  5.653306E+02  7.853575E+04  8.764234E+02
       276   2  6.171603E+05 -7.586685E+04 -5.713464E+03  6.090595E+03  5.181342E+04  2.080172E+03
       276   3  6.422134E+05 -5.622959E+04 -2.079846E+04 -1.005582E+04  2.509334E+04  1.540107E+03
       276   4  8.557913E+05  8.833941E+04  1.154792E+05 -6.445547E+03  7.881152E+04  8.760620E+02
       276   5  8.376511E+05 -2.082555E+04  4.920691E+04  4.485381E+03  5.187104E+04  2.080063E+03
       276   6  8.558214E+05 -2.885394E+03  3.244272E+04 -6.254868E+03  2.493310E+04  1.540058E+03
       276   7  1.083237E+06  1.450879E+05  1.722135E+05 -1.345902E+04  7.908739E+04  8.756946E+02
       276   8  1.058186E+06  3.421212E+04  1.041236E+05  2.879580E+03  5.192867E+04  2.079953E+03
       276   9  1.069471E+06  5.045542E+04  8.568049E+04 -2.452621E+03  2.477280E+04  1.540007E+03
       276  10  6.283857E+05  3.158551E+04  5.872954E+04  5.652752E+02 -4.193186E-10  8.600126E-12
       276  11  6.171574E+05 -7.586758E+04 -5.718512E+03  6.090508E+03 -1.935761E-10 -3.217162E-11
       276  12  6.422127E+05 -5.622976E+04 -2.079965E+04 -1.005585E+04  6.110704E-10  5.668579E-11
       276  13  8.557846E+05  8.833774E+04  1.154676E+05 -6.445603E+03  1.467565E-09  4.996610E-12
       276  14  8.376482E+05 -2.082627E+04  4.920185E+04  4.485294E+03 -5.833170E-10 -1.741923E-11
       276  15  8.558207E+05 -2.885564E+03  3.244155E+04 -6.254899E+03  9.285819E-10  1.001135E-12
       276  16  1.083230E+06  1.450863E+05  1.722017E+05 -1.345907E+04 -1.176295E-09 -2.367964E-11
       276  17  1.058183E+06  3.421139E+04  1.041186E+05  2.879493E+03 -7.460470E-10 -1.214398E-10
       276  18  1.069470E+06  5.045525E+04  8.567933E+04 -2.452652E+03 -1.547310E-10 -9.646911E-11
       276  19  6.283924E+05  3.158717E+04  5.874112E+04  5.653306E+02 -7.853575E+04 -8.764234E+02
       276  20  6.171603E+05 -7.586685E+04 -5.713464E+03  6.090595E+03 -5.181342E+04 -2.080172E+03
       276  21  6.422134E+05 -5.622959E+04 -2.079846E+04 -1.005582E+04 -2.509334E+04 -1.540107E+03
       276  22  8.557913E+05  8.833941E+04  1.154792E+05 -6.445547E+03 -7.881152E+04 -8.760620E+02
       276  23  8.376511E+05 -2.082555E+04  4.920691E+04  4.485381E+03 -5.187104E+04 -2.080063E+03
       276  24  8.558214E+05 -2.885394E+03  3.244272E+04 -6.254868E+03 -2.493310E+04 -1.540058E+03
       276  25  1.083237E+06  1.450879E+05  1.722135E+05 -1.345902E+04 -7.908739E+04 -8.756946E+02
       276  26  1.058186E+06  3.421212E+04  1.041236E+05  2.879580E+03 -5.192867E+04 -2.079953E+03
       276  27  1.069471E+06  5.045542E+04  8.568049E+04 -2.452621E+03 -2.477280E+04 -1.540007E+03
       277   1  7.136796E+05 -2.030215E+04 -6.911074E+03 -3.653077E+03  1.953707E+04  1.084327E+03
       277   2  7.151641E+05 -3.587431E+04 -1.984118E+04  2.643561E+03  1.284336E+04  1.054026E+03
       277   3  7.227389E+05 -3.197282E+04 -2.347769E+04 -5.217601E+03  6.149606E+03  8.447092E+02
       277   4  8.491065E+05  1.350665E+04  2.683231E+04 -4.651151E+03  1.954769E+04  1.084287E+03
       277   5  8.460623E+05 -3.194410E+03  1.277320E+04  2.432849E+03  1.283119E+04  1.054002E+03
       277   6  8.491111E+05 -4.200672E+02  8.022074E+03 -4.640760E+03  6.114684E+03  8.447002E+02
       277   7  9.845501E+05  4.731408E+04  6.057432E+04 -5.649445E+03  1.955831E+04  1.084247E+03
       277   8  9.769760E+05  2.948420E+04  4.538629E+04  2.222091E+03  1.281901E+04  1.053977E+03
       277   9  9.754978E+05  3.113148E+04  3.952064E+04 -4.063801E+03  6.079756E+03  8.446911E+02
       277  10  7.136792E+05 -2.030225E+04 -6.911793E+03 -3.653094E+03 -2.651252E-10  2.620453E-10
       277  11  7.151639E+05 -3.587436E+04 -1.984149E+04  2.643550E+03  8.024815E-11 -8.367651E-11
       277  12  7.227389E+05 -3.197283E+04 -2.347776E+04 -5.217605E+03  1.453745E-10  3.757612E-10
       277  13  8.491061E+05  1.350655E+04  2.683159E+04 -4.651168E+03  6.425381E-11 -1.703070E-11
       277  14  8.460621E+05 -3.194455E+03  1.277289E+04  2.432838E+03 -1.233060E-09  1.305328E-10
       277  15  8.491111E+05 -4.200780E+02  8.022003E+03 -4.640764E+03 -4.032343E-10  4.512532E-12
       277  16  9.845496E+05  4.731398E+04  6.057360E+04 -5.649462E+03 -1.889899E-10  2.983243E-10
       277  17  9.769758E+05  2.948416E+04  4.538598E+04  2.222080E+03  4.142571E-11  1.530484E-11
       277  18  9.754977E+05  3.113147E+04  3.952057E+04 -4.063805E+03 -7.199489E-11 -5.275852E-12
       277  19  7.136796E+05 -2.030215E+04 -6.911074E+03 -3.653077E+03 -1.953707E+04 -1.084327E+03
       277  20  7.151641E+05 -3.587431E+04 -1.984118E+04  2.643561E+03 -1.284336E+04 -1.054026E+03
       277  21  7.227389E+05 -3.197282E+04 -2.347769E+04 -5.217601E+03 -6.149606E+03 -8.447092E+02
       277  22  8.491065E+05  1.350665E+04  2.683231E+04 -4.651151E+03 -1.954769E+04 -1.084287E+03
       277  23  8.460623E+05 -3.194410E+03  1.277320E+04  2.432849E+03 -1.283119E+04 -1.054002E+03
       277  24  8.491111E+05 -4.200672E+02  8.022074E+03 -4.640760E+03 -6.114684E+03 -8.447002E+02
       277  25  9.845501E+05  4.731408E+04  6.057432E+04 -5.649445E+03 -1.955831E+04 -1.084247E+03
       277  26  9.769760E+05  2.948420E+04  4.538629E+04  2.222091E+03 -1.281901E+04 -1.053977E+03
       277  27  9.754978E+05  3.113148E+04  3.952064E+04 -4.063801E+03 -6.079756E+03 -8.446911E+02
       278   1  7.746958E+05 -1.625002E+04 -1.181228E+04 -3.562225E+03  4.820213E+03  6.997235E+02
       278   2  7.773574E+05 -1.799367E+04 -1.409892E+04  1.316093E+03  3.089808E+03  5.415400E+02
       278   3  7.810829E+05 -1.674671E+04 -1.449409E+04 -3.784463E+03  1.359368E+03  4.072711E+02
       278   4  8.479959E+05  2.047678E+03  6.441638E+03 -3.715077E+03  4.800152E+03  6.997179E+02
       278   5  8.474644E+05 -4.910608E+02  3.369757E+03  1.274281E+03  3.072439E+03  5.415396E+02
       278   6  8.479963E+05 -3.983949E+01  2.187336E+03 -3.715165E+03  1.344700E+03  4.072743E+02
       278   7  9.213008E+05  2.034498E+04  2.469515E+04 -3.867947E+03  4.780088E+03  6.997122E+02
       278   8  9.175758E+05  1.701118E+04  2.083806E+04  1.232464E+03  3.055068E+03  5.415392E+02
       278   9  9.149137E+05  1.666669E+04  1.886843E+04 -3.645860E+03  1.330031E+03  4.072774E+02
       278  10  7.746958E+05 -1.625003E+04 -1.181232E+04 -3.562228E+03 -4.691458E-10  5.348650E-10
       278  11  7.773574E+05 -1.799367E+04 -1.409894E+04  1.316091E+03 -3.498339E-10  2.135979E-10
       278  12  7.810829E+05 -1.674671E+04 -1.449410E+04 -3.784464E+03 -3.558981E-10  3.698980E-11
       278  13  8.479958E+05  2.047671E+03  6.441594E+03 -3.715080E+03  7.918296E-10  6.612050E-11
       278  14  8.474644E+05 -4.910637E+02  3.369739E+03  1.274279E+03  1.088958E-10  1.500913E-11
       278  15  8.479963E+05 -3.984015E+01  2.187332E+03 -3.715166E+03 -4.042078E-10  1.156625E-10
       278  16  9.213008E+05  2.034497E+04  2.469511E+04 -3.867950E+03  4.462694E-10 -1.577517E-11
       278  17  9.175758E+05  1.701117E+04  2.083805E+04  1.232463E+03 -2.984282E-11 -6.507506E-11
       278  18  9.149137E+05  1.666669E+04  1.886842E+04 -3.645860E+03 -2.235142E-10  1.360292E-10
       278  19  7.746958E+05 -1.625002E+04 -1.181228E+04 -3.562225E+03 -4.820213E+03 -6.997235E+02
       278  20  7.773574E+05 -1.799367E+04 -1.409892E+04  1.316093E+03 -3.089808E+03 -5.415400E+02
       278  21  7.810829E+05 -1.674671E+04 -1.449409E+04 -3.784463E+03 -1.359368E+03 -4.072711E+02
       278  22  8.479959E+05  2.047678E+03  6.441638E+03 -3.715077E+03 -4.800152E+03 -6.997179E+02
       278  23  8.474644E+05 -4.910608E+02  3.369757E+03  1.274281E+03 -3.072439E+03 -5.415396E+02
       278  24  8.479963E+05 -3.983949E+01  2.187336E+03 -3.715165E+03 -1.344700E+03 -4.072743E+02
       278  25  9.213008E+05  2.034498E+04  2.469515E+04 -3.867947E+03 -4.780088E+03 -6.997122E+02
       278  26  9.175758E+05  1.701118E+04  2.083806E+04  1.232464E+03 -3.055068E+03 -5.415392E+02
       278  27  9.149137E+05  1.666669E+04  1.886843E+04 -3.645860E+03 -1.330031E+03 -4.072774E+02
       279   1  8.204976E+05 -6.512764E+03 -4.971391E+03 -3.244507E+03  9.979013E+02  3.284558E+02
       279   2  8.229398E+05 -6.280169E+03 -4.852319E+03  7.410776E+02  3.329172E+02  1.894930E+02
       279   3  8.256234E+05 -5.434824E+03 -4.147232E+03 -3.288041E+03 -3.320880E+02  7.001081E+01
       279   4  8.478147E+05  3.051003E+02  1.825886E+03 -3.278549E+03  9.800316E+02  3.284630E+02
       279   5  8.476942E+05 -1.002517E+02  1.315733E+03  7.287534E+02  3.173625E+02  1.895005E+02
       279   6  8.478145E+05  1.067220E+02  1.389964E+03 -3.278626E+03 -3.453250E+02  7.001831E+01
       279   7  8.751324E+05  7.122909E+03  8.623106E+03 -3.312593E+03  9.621611E+02  3.284702E+02
       279   8  8.724490E+05  6.079620E+03  7.483739E+03  7.164288E+02  3.018072E+02  1.895080E+02
       279   9  8.700061E+05  5.648230E+03  6.927122E+03 -3.269212E+03 -3.585625E+02  7.002580E+01
       279  10  8.204976E+05 -6.512765E+03 -4.971393E+03 -3.244507E+03 -4.134220E-10  8.148300E-12
       279  11  8.229398E+05 -6.280169E+03 -4.852319E+03  7.410775E+02 -9.183427E-10  3.598960E-11
       279  12  8.256234E+05 -5.434824E+03 -4.147232E+03 -3.288041E+03  1.252277E-10 -1.338555E-10
       279  13  8.478147E+05  3.051000E+02  1.825884E+03 -3.278549E+03 -4.301915E-10  9.594867E-11
       279  14  8.476941E+05 -1.002517E+02  1.315733E+03  7.287533E+02  2.366218E-10  2.740906E-10
       279  15  8.478145E+05  1.067219E+02  1.389963E+03 -3.278626E+03 -5.822748E-12  7.411314E-11
       279  16  8.751324E+05  7.122909E+03  8.623104E+03 -3.312593E+03  4.784459E-10  2.283405E-10
       279  17  8.724490E+05  6.079620E+03  7.483739E+03  7.164287E+02 -1.612405E-10  2.090330E-10
       279  18  8.700061E+05  5.648230E+03  6.927122E+03 -3.269212E+03 -2.849143E-10 -1.575717E-10
       279  19  8.204976E+05 -6.512764E+03 -4.971391E+03 -3.244507E+03 -9.979013E+02 -3.284558E+02
       279  20  8.229398E+05 -6.280169E+03 -4.852319E+03  7.410776E+02 -3.329172E+02 -1.894930E+02
       279  21  8.256234E+05 -5.434824E+03 -4.147232E+03 -3.288041E+03  3.320880E+02 -7.001081E+01
       279  22  8.478147E+05  3.051003E+02  1.825886E+03 -3.278549E+03 -9.800316E+02 -3.284630E+02
       279  23  8.476942E+05 -1.002517E+02  1.315733E+03  7.287534E+02 -3.173625E+02 -1.895005E+02
       279  24  8.478145E+05  1.067220E+02  1.389964E+03 -3.278626E+03  3.453250E+02 -7.001831E+01
       279  25  8.751324E+05  7.122909E+03  8.623106E+03 -3.312593E+03 -9.621611E+02 -3.284702E+02
       279  26  8.724490E+05  6.079620E+03  7.483739E+03  7.164288E+02 -3.018072E+02 -1.895080E+02
       279  27  8.700061E+05  5.648230E+03  6.927122E+03 -3.269212E+03  3.585625E+02 -7.002580E+01
       280   1  8.605021E+05  3.185865E+03  4.703511E+03 -3.203620E+03 -5.975951E+02  5.493986E+00
       280   2  8.627886E+05  3.591667E+03  5.958651E+03  6.605376E+02 -1.699493E+03 -1.153960E+02
       280   3  8.655012E+05  5.153818E+03  8.218245E+03 -3.290530E+03 -2.801391E+03 -2.464835E+02
       280   4  8.478559E+05  2.727026E+01  1.544558E+03 -3.234418E+03 -6.115717E+02  5.502216E+00
       280   5  8.476424E+05 -1.894790E+02  2.184789E+03  6.733837E+02 -1.714671E+03 -1.153879E+02
       280   6  8.478553E+05  7.503465E+02  3.830328E+03 -3.234051E+03 -2.817766E+03 -2.464758E+02
       280   7  8.352098E+05 -3.131336E+03 -1.614408E+03 -3.265216E+03 -6.255480E+02  5.510448E+00
       280   8  8.324965E+05 -3.970642E+03 -1.589089E+03  6.862295E+02 -1.729849E+03 -1.153799E+02
       280   9  8.302098E+05 -3.653148E+03 -5.576126E+02 -3.177574E+03 -2.834141E+03 -2.464681E+02
       280  10  8.605021E+05  3.185865E+03  4.703510E+03 -3.203620E+03  2.573685E-10 -2.408325E-10
       280  11  8.627886E+05  3.591666E+03  5.958646E+03  6.605374E+02 -1.110424E-10 -1.045397E-10
       280  12  8.655012E+05  5.153816E+03  8.218231E+03 -3.290531E+03 -2.071009E-10  2.309465E-10
       280  13  8.478559E+05  2.727016E+01  1.544557E+03 -3.234418E+03  4.614423E-10  3.698272E-11
       280  14  8.476424E+05 -1.894798E+02  2.184784E+03  6.733835E+02  2.532569E-10 -1.301733E-10
       280  15  8.478553E+05  7.503443E+02  3.830313E+03 -3.234052E+03 -1.728315E-10  3.156441E-10
       280  16  8.352098E+05 -3.131336E+03 -1.614408E+03 -3.265216E+03  5.109650E-10 -2.508273E-10
       280  17  8.324965E+05 -3.970643E+03 -1.589095E+03  6.862294E+02  3.510497E-10 -2.085276E-10
       280  18  8.302098E+05 -3.653151E+03 -5.576278E+02 -3.177574E+03  1.715107E-10  2.228656E-10
       280  19  8.605021E+05  3.185865E+03  4.703511E+03 -3.203620E+03  5.975951E+02 -5.493986E+00
       280  20  8.627886E+05  3.591667E+03  5.958651E+03  6.605376E+02  1.699493E+03  1.153960E+02
       280  21  8.655012E+05  5.153818E+03  8.218245E+03 -3.290530E+03  2.801391E+03  2.464835E+02
       280  22  8.478559E+05  2.727026E+01  1.544558E+03 -3.234418E+03  6.115717E+02 -5.502216E+00
       280  23  8.476424E+05 -1.894790E+02  2.184789E+03  6.733837E+02  1.714671E+03  1.153879E+02
       280  24  8.478553E+05  7.503465E+02  3.830328E+03 -3.234051E+03  2.817766E+03  2.464758E+02
       280  25  8.352098E+05 -3.131336E+03 -1.614408E+03 -3.265216E+03  6.255480E+02 -5.510448E+00
       280  26  8.324965E+05 -3.970642E+03 -1.589089E+03  6.862295E+02  1.729849E+03  1.153799E+02
       280  27  8.302098E+05 -3.653148E+03 -5.576126E+02 -3.177574E+03  2.834141E+03  2.464681E+02
       281   1  9.036877E+05  1.369084E+04  1.863853E+04 -3.376175E+03 -3.589037E+03 -3.210213E+02
       281   2  9.054810E+05  1.339514E+04  2.244214E+04  1.008245E+03 -7.636852E+03 -4.496262E+02
       281   3  9.096576E+05  2.029141E+04  3.068818E+04 -3.946460E+03 -1.168460E+04 -5.957157E+02
       281   4  8.482898E+05 -1.399001E+02  4.827789E+03 -3.573347E+03 -3.603428E+03 -3.210153E+02
       281   5  8.470965E+05 -1.179799E+03  7.895545E+03  1.096685E+03 -7.653009E+03 -4.496249E+02
       281   6  8.482871E+05  4.972959E+03  1.540727E+04 -3.572465E+03 -1.170250E+04 -5.957233E+02
       281   7  7.928947E+05 -1.397088E+04 -8.983181E+03 -3.770502E+03 -3.617817E+03 -3.210093E+02
       281   8  7.887150E+05 -1.575500E+04 -6.651301E+03  1.185117E+03 -7.669164E+03 -4.496235E+02
       281   9  7.869200E+05 -1.034577E+04  1.260850E+02 -3.198507E+03 -1.172041E+04 -5.957310E+02
       281  10  9.036877E+05  1.369084E+04  1.863850E+04 -3.376176E+03 -2.014793E-10  6.918327E-11
       281  11  9.054809E+05  1.339513E+04  2.244203E+04  1.008242E+03 -3.062998E-10 -4.660207E-10
       281  12  9.096575E+05  2.029137E+04  3.068792E+04 -3.946466E+03 -5.750222E-10  7.898508E-11
       281  13  8.482898E+05 -1.399037E+02  4.827765E+03 -3.573348E+03 -7.800365E-10  1.388874E-10
       281  14  8.470964E+05 -1.179815E+03  7.895435E+03  1.096682E+03 -3.002712E-11 -3.323195E-10
       281  15  8.482870E+05  4.972922E+03  1.540702E+04 -3.572471E+03  4.087218E-10 -3.508449E-11
       281  16  7.928947E+05 -1.397088E+04 -8.983205E+03 -3.770503E+03  2.334196E-10 -2.803188E-10
       281  17  7.887150E+05 -1.575501E+04 -6.651411E+03  1.185114E+03 -5.237771E-11  1.074103E-11
       281  18  7.869198E+05 -1.034581E+04  1.258265E+02 -3.198512E+03 -2.434998E-10 -2.583726E-10
       281  19  9.036877E+05  1.369084E+04  1.863853E+04 -3.376175E+03  3.589037E+03  3.210213E+02
       281  20  9.054810E+05  1.339514E+04  2.244214E+04  1.008245E+03  7.636852E+03  4.496262E+02
       281  21  9.096576E+05  2.029141E+04  3.068818E+04 -3.946460E+03  1.168460E+04  5.957157E+02
       281  22  8.482898E+05 -1.399001E+02  4.827789E+03 -3.573347E+03  3.603428E+03  3.210153E+02
       281  23  8.470965E+05 -1.179799E+03  7.895545E+03  1.096685E+03  7.653009E+03  4.496249E+02
       281  24  8.482871E+05  4.972959E+03  1.540727E+04 -3.572465E+03  1.170250E+04  5.957233E+02
       281  25  7.928947E+05 -1.397088E+04 -8.983181E+03 -3.770502E+03  3.617817E+03  3.210093E+02
       281  26  7.887150E+05 -1.575500E+04 -6.651301E+03  1.185117E+03  7.669164E+03  4.496235E+02
       281  27  7.869200E+05 -1.034577E+04  1.260850E+02 -3.198507E+03  1.172041E+04  5.957310E+02
       282   1  9.612402E+05  2.651105E+04  4.673049E+04 -2.998728E+03 -1.481513E+04 -7.285341E+02
       282   2  9.583078E+05  2.086568E+04  5.932731E+04  1.500628E+03 -3.102738E+04 -9.253714E+02
       282   3  9.695070E+05  6.227120E+04  9.428367E+04 -6.945975E+03 -4.724005E+04 -9.652624E+02
       282   4  8.508978E+05 -1.035241E+03  1.922988E+04 -4.369793E+03 -1.484642E+04 -7.285082E+02
       282   5  8.438252E+05 -7.711652E+03  3.080747E+04  2.094540E+03 -3.103720E+04 -9.254152E+02
       282   6  8.508830E+05  3.266376E+04  6.473262E+04 -4.387190E+03 -4.722830E+04 -9.654653E+02
       282   7  7.405664E+05 -2.858244E+04 -8.271631E+03 -5.740614E+03 -1.487770E+04 -7.284821E+02
       282   8  7.293545E+05 -3.628996E+04  2.286650E+03  2.688342E+03 -3.104702E+04 -9.254590E+02
       282   9  7.322717E+05  3.055289E+03  3.518051E+04 -1.828895E+03 -4.721655E+04 -9.656683E+02
       282  10  9.612399E+05  2.651099E+04  4.673007E+04 -2.998737E+03  2.882351E-10  9.686797E-11
       282  11  9.583068E+05  2.086542E+04  5.932550E+04  1.500605E+03  7.597818E-10  1.506983E-11
       282  12  9.695046E+05  6.227060E+04  9.427948E+04 -6.946012E+03  3.815919E-10  2.580864E-10
       282  13  8.508975E+05 -1.035300E+03  1.922947E+04 -4.369801E+03 -6.470754E-10  5.729549E-11
       282  14  8.438242E+05 -7.711911E+03  3.080566E+04  2.094517E+03 -1.014236E-10  1.698996E-11
       282  15  8.508806E+05  3.266316E+04  6.472843E+04 -4.387227E+03 -2.462778E-10 -7.266069E-12
       282  16  7.405661E+05 -2.858250E+04 -8.272048E+03 -5.740623E+03 -4.942515E-11 -9.437572E-11
       282  17  7.293534E+05 -3.629022E+04  2.284839E+03  2.688319E+03 -7.668638E-10 -1.014674E-10
       282  18  7.322693E+05  3.054690E+03  3.517633E+04 -1.828932E+03 -1.567457E-10  1.942842E-10
       282  19  9.612402E+05  2.651105E+04  4.673049E+04 -2.998728E+03  1.481513E+04  7.285341E+02
       282  20  9.583078E+05  2.086568E+04  5.932731E+04  1.500628E+03  3.102738E+04  9.253714E+02
       282  21  9.695070E+05  6.227120E+04  9.428367E+04 -6.945975E+03  4.724005E+04  9.652624E+02
       282  22  8.508978E+05 -1.035241E+03  1.922988E+04 -4.369793E+03  1.484642E+04  7.285082E+02
       282  23  8.438252E+05 -7.711652E+03  3.080747E+04  2.094540E+03  3.103720E+04  9.254152E+02
       282  24  8.508830E+05  3.266376E+04  6.473262E+04 -4.387190E+03  4.722830E+04  9.654653E+02
       282  25  7.405664E+05 -2.858244E+04 -8.271631E+03 -5.740614E+03  1.487770E+04  7.284821E+02
       282  26  7.293545E+05 -3.628996E+04  2.286650E+03  2.688342E+03  3.104702E+04  9.254590E+02
       282  27  7.322717E+05  3.055289E+03  3.518051E+04 -1.828895E+03  4.721655E+04  9.656683E+02
       283   1  1.056338E+06  4.033257E+04  1.254411E+05  3.106891E+03 -6.006781E+04 -1.385194E+03
       283   2  1.019604E+06 -1.390263E+03  1.676477E+05 -3.792803E+02 -1.253129E+05 -1.930559E+03
       283   3  1.068810E+06  2.635844E+05  3.291289E+05 -2.371923E+04 -1.905595E+05 -9.561277E+02
       283   4  8.668549E+05 -6.983430E+03  7.822397E+04 -5.795074E+03 -6.020578E+04 -1.384474E+03
       283   5  8.238517E+05 -5.023746E+04  1.189036E+05  3.943532E+03 -1.252506E+05 -1.931424E+03
       283   6  8.667793E+05  2.132219E+05  2.787459E+05 -6.171162E+03 -1.902962E+05 -9.611405E+02
       283   7  6.774048E+05 -5.430184E+04  3.100418E+04 -1.469433E+04 -6.034371E+04 -1.383751E+03
       283   8  6.281339E+05 -9.908746E+04  7.015670E+04  8.264972E+03 -1.251883E+05 -1.932289E+03
       283   9  6.647858E+05  1.628575E+05  2.283600E+05  1.137119E+04 -1.900330E+05 -9.661399E+02
       283  10  1.056334E+06  4.033160E+04  1.254343E+05  3.106825E+03  2.743223E-10  4.473147E-10
       283  11  1.019587E+06 -1.394473E+03  1.676182E+05 -3.794751E+02 -1.055148E-09 -3.116806E-11
       283  12  1.068771E+06  2.635747E+05  3.290608E+05 -2.371938E+04 -6.458564E-11 -2.548647E-10
       283  13  8.668510E+05 -6.984404E+03  7.821716E+04 -5.795141E+03  4.082137E-10  1.598008E-10
       283  14  8.238349E+05 -5.024167E+04  1.188742E+05  3.943337E+03  9.829302E-11 -4.278527E-10
       283  15  8.667404E+05  2.132122E+05  2.786780E+05 -6.171309E+03  1.413790E-12 -1.118023E-10
       283  16  6.774009E+05 -5.430282E+04  3.099734E+04 -1.469440E+04 -6.121346E-10  3.237914E-10
       283  17  6.281171E+05 -9.909166E+04  7.012727E+04  8.264777E+03  4.172005E-10  2.831509E-10
       283  18  6.647471E+05  1.628479E+05  2.282922E+05  1.137104E+04  5.173165E-10 -1.487948E-10
       283  19  1.056338E+06  4.033257E+04  1.254411E+05  3.106891E+03  6.006781E+04  1.385194E+03
       283  20  1.019604E+06 -1.390263E+03  1.676477E+05 -3.792803E+02  1.253129E+05  1.930559E+03
       283  21  1.068810E+06  2.635844E+05  3.291289E+05 -2.371923E+04  1.905595E+05  9.561277E+02
       283  22  8.668549E+05 -6.983430E+03  7.822397E+04 -5.795074E+03  6.020578E+04  1.384474E+03
       283  23  8.238517E+05 -5.023746E+04  1.189036E+05  3.943532E+03  1.252506E+05  1.931424E+03
       283  24  8.667793E+05  2.132219E+05  2.787459E+05 -6.171162E+03  1.902962E+05  9.611405E+02
       283  25  6.774048E+05 -5.430184E+04  3.100418E+04 -1.469433E+04  6.034371E+04  1.383751E+03
       283  26  6.281339E+05 -9.908746E+04  7.015670E+04  8.264972E+03  1.251883E+05  1.932289E+03
       283  27  6.647858E+05  1.628575E+05  2.283600E+05  1.137119E+04  1.900330E+05  9.661399E+02
       284   1  8.924672E+04  8.340621E+05  1.128533E+05 -1.359138E+04 -9.748648E+00  7.087383E+04
       284   2 -8.522213E+03  8.139226E+05  5.231625E+04 -1.512311E+03  2.651970E+02  4.746969E+04
       284   3  5.191840E+03  8.246283E+05  3.486237E+04 -4.101289E+03  5.229333E+01  2.406401E+04
       284   4  7.830393E+04  7.903941E+05  1.019512E+05 -7.014642E+03 -8.868607E+00  7.081494E+04
       284   5 -1.825113E+04  7.749906E+05  4.261970E+04  2.232975E+02  2.653227E+02  4.747085E+04
       284   6 -3.329875E+03  7.904241E+05  2.633190E+04 -7.206797E+03  5.201571E+01  2.412503E+04
       284   7  6.736116E+04  7.467279E+05  9.104905E+04 -4.383684E+02 -7.989760E+00  7.075607E+04
       284   8 -2.798014E+04  7.360600E+05  3.292304E+04  1.958798E+03  2.654485E+02  4.747201E+04
       284   9 -1.185164E+04  7.562209E+05  1.780134E+04 -1.031213E+04  5.173748E+01  2.418605E+04
       284  10  8.924537E+04  8.340567E+05  1.128439E+05 -1.359138E+04 -1.652098E-10 -2.199320E-10
       284  11 -8.522817E+03  8.139202E+05  5.231202E+04 -1.512321E+03 -5.381910E-10 -5.513007E-11
       284  12  5.191685E+03  8.246277E+05  3.486128E+04 -4.101290E+03  3.829687E-10  8.189808E-11
       284  13  7.830259E+04  7.903887E+05  1.019418E+05 -7.014641E+03  9.476865E-10 -7.526458E-11
       284  14 -1.825173E+04  7.749882E+05  4.261547E+04  2.232874E+02 -3.381312E-09  2.735580E-10
       284  15 -3.330031E+03  7.904234E+05  2.633081E+04 -7.206798E+03  8.090232E-10 -4.561796E-11
       284  16  6.735982E+04  7.467225E+05  9.103966E+04 -4.383679E+02 -8.386270E-10  1.529583E-10
       284  17 -2.798075E+04  7.360576E+05  3.291881E+04  1.958788E+03 -9.787695E-10  2.233557E-10
       284  18 -1.185180E+04  7.562203E+05  1.780024E+04 -1.031214E+04  4.749070E-10 -1.646860E-10
       284  19  8.924672E+04  8.340621E+05  1.128533E+05 -1.359138E+04  9.748648E+00 -7.087383E+04
       284  20 -8.522213E+03  8.139226E+05  5.231625E+04 -1.512311E+03 -2.651970E+02 -4.746969E+04
       284  21  5.191840E+03  8.246283E+05  3.486237E+04 -4.101289E+03 -5.229333E+01 -2.406401E+04
       284  22  7.830393E+04  7.903941E+05  1.019512E+05 -7.014642E+03  8.868607E+00 -7.081494E+04
       284  23 -1.825113E+04  7.749906E+05  4.261970E+04  2.232975E+02 -2.653227E+02 -4.747085E+04
       284  24 -3.329875E+03  7.904241E+05  2.633190E+04 -7.206797E+03 -5.201571E+01 -2.412503E+04
       284  25  6.736116E+04  7.467279E+05  9.104905E+04 -4.383684E+02  7.989760E+00 -7.075607E+04
       284  26 -2.798014E+04  7.360600E+05  3.292304E+04  1.958798E+03 -2.654485E+02 -4.747201E+04
       284  27 -1.185164E+04  7.562209E+05  1.780134E+04 -1.031213E+04 -5.173748E+01 -2.418605E+04
       285   1  4.426314E+03  7.530653E+05  1.296513E+04 -7.814160E+03 -1.692916E+02  1.982948E+04
       285   2 -1.055736E+04  7.469272E+05 -2.605985E+03 -3.191993E+01 -3.299836E+02  1.650988E+04
       285   3 -1.569533E+04  7.436161E+05 -1.356968E+04 -7.017809E+03 -4.263412E+02  1.319052E+04
       285   4  1.219486E+04  7.841915E+05  2.072983E+04 -7.136545E+03 -1.693312E+02  1.985439E+04
       285   5 -1.607503E+03  7.827821E+05  6.327171E+03  2.254245E+02 -3.300158E+02  1.652696E+04
       285   6 -5.563073E+03  7.842009E+05 -3.462733E+03 -7.180679E+03 -4.263633E+02  1.319972E+04
       285   7  1.996334E+04  8.153186E+05  2.849446E+04 -6.458895E+03 -1.693707E+02  1.987931E+04
       285   8  7.342256E+03  8.186381E+05  1.526023E+04  4.827844E+02 -3.300480E+02  1.654403E+04
       285   9  4.569059E+03  8.247873E+05  6.644094E+03 -7.343559E+03 -4.263854E+02  1.320893E+04
       285  10  4.426208E+03  7.530649E+05  1.296439E+04 -7.814157E+03  5.164341E-10 -2.566320E-10
       285  11 -1.055743E+04  7.469269E+05 -2.606497E+03 -3.191554E+01  1.541231E-10 -2.140356E-10
       285  12 -1.569538E+04  7.436159E+05 -1.357001E+04 -7.017804E+03 -1.200844E-09  2.290995E-10
       285  13  1.219476E+04  7.841911E+05  2.072909E+04 -7.136542E+03  2.739159E-10 -1.613392E-11
       285  14 -1.607576E+03  7.827818E+05  6.326658E+03  2.254289E+02  9.273152E-10 -2.453702E-10
       285  15 -5.563120E+03  7.842007E+05 -3.463061E+03 -7.180674E+03  1.873859E-09 -2.912270E-10
       285  16  1.996323E+04  8.153182E+05  2.849372E+04 -6.458892E+03  6.435704E-10  2.425003E-10
       285  17  7.342183E+03  8.186378E+05  1.525972E+04  4.827888E+02 -2.167547E-09  2.142164E-10
       285  18  4.569012E+03  8.247871E+05  6.643766E+03 -7.343554E+03 -1.045467E-10 -1.177506E-10
       285  19  4.426314E+03  7.530653E+05  1.296513E+04 -7.814160E+03  1.692916E+02 -1.982948E+04
       285  20 -1.055736E+04  7.469272E+05 -2.605985E+03 -3.191993E+01  3.299836E+02 -1.650988E+04
       285  21 -1.569533E+04  7.436161E+05 -1.356968E+04 -7.017809E+03  4.263412E+02 -1.319052E+04
       285  22  1.219486E+04  7.841915E+05  2.072983E+04 -7.136545E+03  1.693312E+02 -1.985439E+04
       285  23 -1.607503E+03  7.827821E+05  6.327171E+03  2.254245E+02  3.300158E+02 -1.652696E+04
       285  24 -5.563073E+03  7.842009E+05 -3.462733E+03 -7.180679E+03  4.263633E+02 -1.319972E+04
       285  25  1.996334E+04  8.153186E+05  2.849446E+04 -6.458895E+03  1.693707E+02 -1.987931E+04
       285  26  7.342256E+03  8.186381E+05  1.526023E+04  4.827844E+02  3.300480E+02 -1.654403E+04
       285  27  4.569059E+03  8.247873E+05  6.644094E+03 -7.343559E+03  4.263854E+02 -1.320893E+04
       286   1 -2.505770E+04  6.685174E+05 -3.506632E+04 -6.348093E+03 -7.502843E+02  1.404459E+04
       286   2 -2.190255E+04  6.691097E+05 -4.598427E+04  4.815308E+02 -1.131407E+03  2.331954E+04
       286   3 -6.479198E+04  6.571738E+05 -7.441007E+04 -1.046199E+04 -4.525721E+02  3.259629E+04
       286   4  2.983297E+03  7.807852E+05 -7.076260E+03 -7.805255E+03 -7.505501E+02  1.415332E+04
       286   5  7.537831E+03  7.870465E+05 -1.660891E+04  1.049676E+03 -1.131333E+03  2.330251E+04
       286   6 -3.392574E+04  7.808039E+05 -4.355971E+04 -7.868387E+03 -4.521857E+02  3.245360E+04
       286   7  3.102335E+04  8.930643E+05  2.091285E+04 -9.262674E+03 -7.508163E+02  1.426206E+04
       286   8  3.697717E+04  9.049960E+05  1.276541E+04  1.617935E+03 -1.131259E+03  2.328548E+04
       286   9 -3.060616E+03  9.044479E+05 -1.271050E+04 -5.274264E+03 -4.518005E+02  3.231087E+04
       286  10 -2.505775E+04  6.685172E+05 -3.506669E+04 -6.348084E+03  2.888862E-10 -1.907233E-10
       286  11 -2.190270E+04  6.691091E+05 -4.598529E+04  4.815520E+02  3.273146E-10 -1.850926E-10
       286  12 -6.479226E+04  6.571726E+05 -7.441206E+04 -1.046198E+04 -1.870153E-10  1.523632E-11
       286  13  2.983242E+03  7.807849E+05 -7.076637E+03 -7.805247E+03 -1.222950E-09  1.581091E-10
       286  14  7.537684E+03  7.870460E+05 -1.660993E+04  1.049697E+03  3.089749E-10 -1.262364E-10
       286  15 -3.392602E+04  7.808028E+05 -4.356169E+04 -7.868375E+03 -5.672546E-10  8.408610E-12
       286  16  3.102330E+04  8.930641E+05  2.091247E+04 -9.262666E+03  1.162620E-09  2.865019E-11
       286  17  3.697702E+04  9.049954E+05  1.276439E+04  1.617956E+03 -9.299938E-10  3.927326E-11
       286  18 -3.060896E+03  9.044468E+05 -1.271246E+04 -5.274252E+03 -1.184700E-09 -9.311460E-12
       286  19 -2.505770E+04  6.685174E+05 -3.506632E+04 -6.348093E+03  7.502843E+02 -1.404459E+04
       286  20 -2.190255E+04  6.691097E+05 -4.598427E+04  4.815308E+02  1.131407E+03 -2.331954E+04
       286  21 -6.479198E+04  6.571738E+05 -7.441007E+04 -1.046199E+04  4.525721E+02 -3.259629E+04
       286  22  2.983297E+03  7.807852E+05 -7.076260E+03 -7.805255E+03  7.505501E+02 -1.415332E+04
       286  23  7.537831E+03  7.870465E+05 -1.660891E+04  1.049676E+03  1.131333E+03 -2.330251E+04
       286  24 -3.392574E+04  7.808039E+05 -4.355971E+04 -7.868387E+03  4.521857E+02 -3.245360E+04
       286  25  3.102335E+04  8.930643E+05  2.091285E+04 -9.262674E+03  7.508163E+02 -1.426206E+04
       286  26  3.697717E+04  9.049960E+05  1.276541E+04  1.617935E+03  1.131259E+03 -2.328548E+04
       286  27 -3.060616E+03  9.044479E+05 -1.271050E+04 -5.274264E+03  4.518005E+02 -3.231087E+04
       287   1 -8.677498E+05 -3.058826E+05 -2.589203E+05 -2.626770E+05 -1.561476E+05 -5.881603E+04
       287   2 -8.116070E+05 -9.210221E+04 -1.133265E+05 -3.234657E+05 -1.006897E+05 -3.753027E+04
       287   3 -8.627929E+05 -1.214308E+05 -7.749764E+04 -3.122337E+05 -4.514731E+04 -1.646838E+04
       287   4 -8.327923E+05 -2.791400E+05 -2.465787E+05 -2.393495E+05 -1.561080E+05 -5.880535E+04
       287   5 -7.668579E+05 -7.173821E+04 -1.003259E+05 -3.077603E+05 -1.006729E+05 -3.752460E+04
       287   6 -8.082411E+05 -1.074308E+05 -6.381497E+04 -3.041530E+05 -4.515213E+04 -1.646960E+04
       287   7 -7.978331E+05 -2.523957E+05 -2.342372E+05 -2.160204E+05 -1.560684E+05 -5.879466E+04
       287   8 -7.221068E+05 -5.137383E+04 -8.732550E+04 -2.920537E+05 -1.006560E+05 -3.751893E+04
       287   9 -7.536863E+05 -9.343094E+04 -5.013249E+04 -2.960718E+05 -4.515696E+04 -1.647082E+04
       287  10 -8.677770E+05 -3.058929E+05 -2.589727E+05 -2.626844E+05 -1.082114E-09  7.251598E-11
       287  11 -8.116183E+05 -9.210645E+04 -1.133482E+05 -3.234688E+05 -5.786694E-11 -1.926548E-11
       287  12 -8.627952E+05 -1.214317E+05 -7.750198E+04 -3.122343E+05  2.175227E-09 -4.650429E-10
       287  13 -8.328194E+05 -2.791502E+05 -2.466311E+05 -2.393569E+05  7.276302E-10  1.153031E-10
       287  14 -7.668692E+05 -7.174245E+04 -1.003476E+05 -3.077633E+05  1.126826E-09 -1.629961E-10
       287  15 -8.082434E+05 -1.074317E+05 -6.381932E+04 -3.041536E+05 -9.742463E-10 -2.301530E-10
       287  16 -7.978602E+05 -2.524059E+05 -2.342896E+05 -2.160278E+05 -9.860667E-10  6.157161E-12
       287  17 -7.221181E+05 -5.137807E+04 -8.734721E+04 -2.920568E+05 -1.546511E-09  7.295251E-11
       287  18 -7.536886E+05 -9.343178E+04 -5.013684E+04 -2.960724E+05 -1.102731E-09  1.399151E-11
       287  19 -8.677498E+05 -3.058826E+05 -2.589203E+05 -2.626770E+05  1.561476E+05  5.881603E+04
       287  20 -8.116070E+05 -9.210221E+04 -1.133265E+05 -3.234657E+05  1.006897E+05  3.753027E+04
       287  21 -8.627929E+05 -1.214308E+05 -7.749764E+04 -3.122337E+05  4.514731E+04  1.646838E+04
       287  22 -8.327923E+05 -2.791400E+05 -2.465787E+05 -2.393495E+05  1.561080E+05  5.880535E+04
       287  23 -7.668579E+05 -7.173821E+04 -1.003259E+05 -3.077603E+05  1.006729E+05  3.752460E+04
       287  24 -8.082411E+05 -1.074308E+05 -6.381497E+04 -3.041530E+05  4.515213E+04  1.646960E+04
       287  25 -7.978331E+05 -2.523957E+05 -2.342372E+05 -2.160204E+05  1.560684E+05  5.879466E+04
       287  26 -7.221068E+05 -5.137383E+04 -8.732550E+04 -2.920537E+05  1.006560E+05  3.751893E+04
       287  27 -7.536863E+05 -9.343094E+04 -5.013249E+04 -2.960718E+05  4.515696E+04  1.647082E+04
       288   1 -8.805347E+05 -1.697720E+05 -7.534886E+04 -3.124937E+05 -3.545466E+04 -1.274799E+04
       288   2 -8.714740E+05 -1.387230E+05 -4.665109E+04 -3.236578E+05 -2.292460E+04 -7.845193E+03
       288   3 -8.820453E+05 -1.423383E+05 -3.780218E+04 -3.207280E+05 -1.034563E+04 -3.071756E+03
       288   4 -7.996027E+05 -1.371079E+05 -5.265366E+04 -2.883505E+05 -3.543351E+04 -1.274016E+04
       288   5 -7.879072E+05 -1.065987E+05 -2.354883E+04 -3.003643E+05 -2.291641E+04 -7.842136E+03
       288   6 -7.958393E+05 -1.107480E+05 -1.428058E+04 -2.982849E+05 -1.035034E+04 -3.073516E+03
       288   7 -7.186644E+05 -1.044432E+05 -2.995911E+04 -2.642043E+05 -3.541235E+04 -1.273233E+04
       288   8 -7.043338E+05 -7.447383E+04 -4.472073E+02 -2.770680E+05 -2.290822E+04 -7.839078E+03
       288   9 -7.096262E+05 -7.915736E+04  9.240356E+03 -2.758391E+05 -1.035505E+04 -3.075276E+03
       288  10 -8.805361E+05 -1.697725E+05 -7.535153E+04 -3.124941E+05  3.032026E-10 -3.014796E-10
       288  11 -8.714745E+05 -1.387232E+05 -4.665220E+04 -3.236580E+05 -7.687414E-10  2.679723E-10
       288  12 -8.820454E+05 -1.423383E+05 -3.780240E+04 -3.207281E+05 -3.018054E-10 -6.230504E-11
       288  13 -7.996041E+05 -1.371084E+05 -5.265633E+04 -2.883508E+05 -1.029119E-09 -1.751231E-10
       288  14 -7.879078E+05 -1.065989E+05 -2.354993E+04 -3.003645E+05  1.414139E-10 -1.788634E-10
       288  15 -7.958395E+05 -1.107480E+05 -1.428080E+04 -2.982850E+05 -4.031881E-10  1.315162E-10
       288  16 -7.186658E+05 -1.044437E+05 -2.996177E+04 -2.642047E+05 -1.185479E-09 -1.617803E-10
       288  17 -7.043344E+05 -7.447404E+04 -4.483104E+02 -2.770681E+05 -6.398360E-10 -2.882962E-11
       288  18 -7.096263E+05 -7.915739E+04  9.240136E+03 -2.758391E+05 -3.090569E-10  2.804645E-10
       288  19 -8.805347E+05 -1.697720E+05 -7.534886E+04 -3.124937E+05  3.545466E+04  1.274799E+04
       288  20 -8.714740E+05 -1.387230E+05 -4.665109E+04 -3.236578E+05  2.292460E+04  7.845193E+03
       288  21 -8.820453E+05 -1.423383E+05 -3.780218E+04 -3.207280E+05  1.034563E+04  3.071756E+03
       288  22 -7.996027E+05 -1.371079E+05 -5.265366E+04 -2.883505E+05  3.543351E+04  1.274016E+04
       288  23 -7.879072E+05 -1.065987E+05 -2.354883E+04 -3.003643E+05  2.291641E+04  7.842136E+03
       288  24 -7.958393E+05 -1.107480E+05 -1.428058E+04 -2.982849E+05  1.035034E+04  3.073516E+03
       288  25 -7.186644E+05 -1.044432E+05 -2.995911E+04 -2.642043E+05  3.541235E+04  1.273233E+04
       288  26 -7.043338E+05 -7.447383E+04 -4.472073E+02 -2.770680E+05  2.290822E+04  7.839078E+03
       288  27 -7.096262E+05 -7.915736E+04  9.240356E+03 -2.758391E+05  1.035505E+04  3.075276E+03
       289   1 -8.930053E+05 -1.537403E+05 -3.882573E+04 -3.239182E+05 -8.231072E+03 -2.241933E+03
       289   2 -8.916885E+05 -1.489172E+05 -3.295414E+04 -3.255572E+05 -5.368569E+03 -1.081079E+03
       289   3 -8.931754E+05 -1.495034E+05 -3.078839E+04 -3.251181E+05 -2.460065E+03 -4.258022E+01
       289   4 -7.937580E+05 -1.158929E+05 -1.144331E+04 -2.965677E+05 -8.216968E+03 -2.236638E+03
       289   5 -7.920718E+05 -1.111814E+05 -5.525907E+03 -2.983621E+05 -5.367748E+03 -1.080782E+03
       289   6 -7.931862E+05 -1.118759E+05 -3.303349E+03 -2.980784E+05 -2.472530E+03 -4.727259E+01
       289   7 -6.945013E+05 -7.804497E+04  1.593821E+04 -2.692133E+05 -8.202861E+03 -2.231343E+03
       289   8 -6.924456E+05 -7.344507E+04  2.190141E+04 -2.711631E+05 -5.366927E+03 -1.080484E+03
       289   9 -6.931876E+05 -7.424783E+04  2.418076E+04 -2.710348E+05 -2.484997E+03 -5.196577E+01
       289  10 -8.930054E+05 -1.537403E+05 -3.882587E+04 -3.239182E+05 -4.882096E-10  1.460986E-10
       289  11 -8.916885E+05 -1.489172E+05 -3.295420E+04 -3.255572E+05 -3.268006E-10 -5.917173E-10
       289  12 -8.931754E+05 -1.495034E+05 -3.078840E+04 -3.251181E+05 -1.397209E-10  1.254345E-10
       289  13 -7.937581E+05 -1.158929E+05 -1.144344E+04 -2.965677E+05  5.871009E-11 -4.842573E-11
       289  14 -7.920718E+05 -1.111814E+05 -5.525964E+03 -2.983621E+05  9.146259E-10  3.173829E-10
       289  15 -7.931862E+05 -1.118759E+05 -3.303360E+03 -2.980784E+05 -4.424453E-10 -3.097967E-10
       289  16 -6.945013E+05 -7.804500E+04  1.593808E+04 -2.692133E+05  6.260978E-10  1.862722E-10
       289  17 -6.924456E+05 -7.344508E+04  2.190135E+04 -2.711631E+05 -6.571363E-10  3.307108E-10
       289  18 -6.931876E+05 -7.424783E+04  2.418075E+04 -2.710348E+05 -5.337313E-10 -2.446227E-10
       289  19 -8.930053E+05 -1.537403E+05 -3.882573E+04 -3.239182E+05  8.231072E+03  2.241933E+03
       289  20 -8.916885E+05 -1.489172E+05 -3.295414E+04 -3.255572E+05  5.368569E+03  1.081079E+03
       289  21 -8.931754E+05 -1.495034E+05 -3.078839E+04 -3.251181E+05  2.460065E+03  4.258022E+01
       289  22 -7.937580E+05 -1.158929E+05 -1.144331E+04 -2.965677E+05  8.216968E+03  2.236638E+03
       289  23 -7.920718E+05 -1.111814E+05 -5.525907E+03 -2.983621E+05  5.367748E+03  1.080782E+03
       289  24 -7.931862E+05 -1.118759E+05 -3.303349E+03 -2.980784E+05  2.472530E+03  4.727259E+01
       289  25 -6.945013E+05 -7.804497E+04  1.593821E+04 -2.692133E+05  8.202861E+03  2.231343E+03
       289  26 -6.924456E+05 -7.344507E+04  2.190141E+04 -2.711631E+05  5.366927E+03  1.080484E+03
       289  27 -6.931876E+05 -7.424783E+04  2.418076E+04 -2.710348E+05  2.484997E+03  5.196577E+01
       290   1 -8.838500E+05 -1.479443E+05 -2.786998E+04 -3.235174E+05 -1.976955E+03  1.171110E+02
       290   2 -8.839668E+05 -1.452424E+05 -2.642753E+04 -3.217474E+05 -1.177858E+03  4.081513E+02
       290   3 -8.814768E+05 -1.464302E+05 -2.580975E+04 -3.229757E+05 -3.388516E+02  5.927636E+02
       290   4 -7.922306E+05 -1.132820E+05 -2.652455E+03 -2.985506E+05 -1.972058E+03  1.189408E+02
       290   5 -7.934976E+05 -1.110716E+05 -1.537977E+03 -2.971518E+05 -1.184791E+03  4.055411E+02
       290   6 -7.921554E+05 -1.127482E+05 -1.238704E+03 -2.987512E+05 -3.576204E+02  5.857198E+02
       290   7 -7.006031E+05 -7.861920E+04  2.256432E+04 -2.735804E+05 -1.967161E+03  1.207709E+02
       290   8 -7.030205E+05 -7.690023E+04  2.335084E+04 -2.725529E+05 -1.191726E+03  4.029304E+02
       290   9 -7.028264E+05 -7.906584E+04  2.333162E+04 -2.745235E+05 -3.763922E+02  5.786749E+02
       290  10 -8.838500E+05 -1.479443E+05 -2.786999E+04 -3.235174E+05  8.676450E-11  2.400970E-13
       290  11 -8.839668E+05 -1.452424E+05 -2.642753E+04 -3.217474E+05 -3.249826E-10 -1.831686E-10
       290  12 -8.814768E+05 -1.464302E+05 -2.580976E+04 -3.229757E+05  1.860089E-10 -2.085454E-10
       290  13 -7.922306E+05 -1.132820E+05 -2.652463E+03 -2.985506E+05 -3.360785E-10 -3.853224E-10
       290  14 -7.934976E+05 -1.110716E+05 -1.537980E+03 -2.971518E+05 -5.914729E-10 -1.581207E-10
       290  15 -7.921554E+05 -1.127482E+05 -1.238704E+03 -2.987512E+05  1.300731E-10  1.598748E-10
       290  16 -7.006031E+05 -7.861920E+04  2.256431E+04 -2.735804E+05  3.341696E-10 -3.942354E-10
       290  17 -7.030205E+05 -7.690023E+04  2.335083E+04 -2.725529E+05 -9.187879E-10 -1.862150E-10
       290  18 -7.028264E+05 -7.906584E+04  2.333162E+04 -2.745235E+05 -1.224345E-10 -6.741566E-10
       290  19 -8.838500E+05 -1.479443E+05 -2.786998E+04 -3.235174E+05  1.976955E+03 -1.171110E+02
       290  20 -8.839668E+05 -1.452424E+05 -2.642753E+04 -3.217474E+05  1.177858E+03 -4.081513E+02
       290  21 -8.814768E+05 -1.464302E+05 -2.580975E+04 -3.229757E+05  3.388516E+02 -5.927636E+02
       290  22 -7.922306E+05 -1.132820E+05 -2.652455E+03 -2.985506E+05  1.972058E+03 -1.189408E+02
       290  23 -7.934976E+05 -1.110716E+05 -1.537977E+03 -2.971518E+05  1.184791E+03 -4.055411E+02
       290  24 -7.921554E+05 -1.127482E+05 -1.238704E+03 -2.987512E+05  3.576204E+02 -5.857198E+02
       290  25 -7.006031E+05 -7.861920E+04  2.256432E+04 -2.735804E+05  1.967161E+03 -1.207709E+02
       290  26 -7.030205E+05 -7.690023E+04  2.335084E+04 -2.725529E+05  1.191726E+03 -4.029304E+02
       290  27 -7.028264E+05 -7.906584E+04  2.333162E+04 -2.745235E+05  3.763922E+02 -5.786749E+02
       291   1 -8.525184E+05 -1.363701E+05 -1.799723E+04 -3.159958E+05 -1.231892E+02  5.995002E+02
       291   2 -8.528714E+05 -1.324643E+05 -1.762408E+04 -3.122150E+05  6.774554E+02  8.042545E+02
       291   3 -8.480912E+05 -1.350702E+05 -1.807554E+04 -3.145032E+05  1.502961E+03  9.425074E+02
       291   4 -7.915958E+05 -1.133528E+05 -1.240559E+03 -2.994246E+05 -1.288291E+02  5.973822E+02
       291   5 -7.941976E+05 -1.103388E+05 -1.489379E+03 -2.963001E+05  6.644231E+02  7.993695E+02
       291   6 -7.916645E+05 -1.138349E+05 -2.556886E+03 -2.992446E+05  1.482532E+03  9.348573E+02
       291   7 -7.306697E+05 -9.033527E+04  1.551576E+04 -2.828519E+05 -1.344697E+02  5.952639E+02
       291   8 -7.355204E+05 -8.821305E+04  1.464501E+04 -2.803838E+05  6.513895E+02  7.944840E+02
       291   9 -7.352348E+05 -9.259941E+04  1.296148E+04 -2.839848E+05  1.462102E+03  9.272065E+02
       291  10 -8.525184E+05 -1.363701E+05 -1.799723E+04 -3.159958E+05  6.580760E-10  3.709538E-10
       291  11 -8.528714E+05 -1.324643E+05 -1.762408E+04 -3.122150E+05  5.726791E-10  6.441822E-10
       291  12 -8.480912E+05 -1.350702E+05 -1.807554E+04 -3.145032E+05  2.703831E-10  3.831835E-11
       291  13 -7.915958E+05 -1.133528E+05 -1.240559E+03 -2.994246E+05  5.079082E-10  2.349337E-10
       291  14 -7.941976E+05 -1.103388E+05 -1.489381E+03 -2.963001E+05  1.132557E-09  1.758223E-10
       291  15 -7.916645E+05 -1.138349E+05 -2.556892E+03 -2.992446E+05 -4.097596E-11 -8.974906E-11
       291  16 -7.306697E+05 -9.033527E+04  1.551576E+04 -2.828519E+05  1.232379E-11 -1.875665E-10
       291  17 -7.355204E+05 -8.821305E+04  1.464501E+04 -2.803838E+05  2.706394E-10  8.851283E-10
       291  18 -7.352348E+05 -9.259941E+04  1.296148E+04 -2.839848E+05  4.933821E-11  9.498963E-11
       291  19 -8.525184E+05 -1.363701E+05 -1.799723E+04 -3.159958E+05  1.231892E+02 -5.995002E+02
       291  20 -8.528714E+05 -1.324643E+05 -1.762408E+04 -3.122150E+05 -6.774554E+02 -8.042545E+02
       291  21 -8.480912E+05 -1.350702E+05 -1.807554E+04 -3.145032E+05 -1.502961E+03 -9.425074E+02
       291  22 -7.915958E+05 -1.133528E+05 -1.240559E+03 -2.994246E+05  1.288291E+02 -5.973822E+02
       291  23 -7.941976E+05 -1.103388E+05 -1.489379E+03 -2.963001E+05 -6.644231E+02 -7.993695E+02
       291  24 -7.916645E+05 -1.138349E+05 -2.556886E+03 -2.992446E+05 -1.482532E+03 -9.348573E+02
       291  25 -7.306697E+05 -9.033527E+04  1.551576E+04 -2.828519E+05  1.344697E+02 -5.952639E+02
       291  26 -7.355204E+05 -8.821305E+04  1.464501E+04 -2.803838E+05 -6.513895E+02 -7.944840E+02
       291  27 -7.352348E+05 -9.259941E+04  1.296148E+04 -2.839848E+05 -1.462102E+03 -9.272065E+02
       292   1 -8.064696E+05 -1.192471E+05 -7.291348E+03 -3.041169E+05  2.012747E+03  1.023068E+03
       292   2 -8.062414E+05 -1.137440E+05 -8.626649E+03 -2.992775E+05  4.820889E+03  1.915669E+03
       292   3 -8.017378E+05 -1.206792E+05 -1.356091E+04 -3.008016E+05  7.628671E+03  2.809148E+03
       292   4 -7.916220E+05 -1.134954E+05 -3.187066E+03 -2.999295E+05  1.997128E+03  1.017222E+03
       292   5 -7.940305E+05 -1.092004E+05 -5.280871E+03 -2.960283E+05  4.805423E+03  1.909879E+03
       292   6 -7.921636E+05 -1.173438E+05 -1.097370E+04 -2.984906E+05  7.613343E+03  2.803408E+03
       292   7 -7.767742E+05 -1.077436E+05  9.171950E+02 -2.957421E+05  1.981509E+03  1.011377E+03
       292   8 -7.818195E+05 -1.046569E+05 -1.935107E+03 -2.927790E+05  4.789956E+03  1.904090E+03
       292   9 -7.825894E+05 -1.140084E+05 -8.386509E+03 -2.961795E+05  7.598014E+03  2.797668E+03
       292  10 -8.064696E+05 -1.192471E+05 -7.291358E+03 -3.041169E+05 -2.393302E-10  1.118488E-10
       292  11 -8.062414E+05 -1.137440E+05 -8.626699E+03 -2.992775E+05 -3.916061E-10 -7.188205E-10
       292  12 -8.017378E+05 -1.206792E+05 -1.356103E+04 -3.008016E+05  4.403610E-10  8.468731E-11
       292  13 -7.916220E+05 -1.134954E+05 -3.187076E+03 -2.999296E+05  2.503739E-10  4.874518E-11
       292  14 -7.940305E+05 -1.092004E+05 -5.280921E+03 -2.960283E+05  5.963363E-10 -3.029424E-10
       292  15 -7.921637E+05 -1.173438E+05 -1.097383E+04 -2.984906E+05  9.025004E-10  1.197790E-10
       292  16 -7.767742E+05 -1.077436E+05  9.171857E+02 -2.957421E+05  4.885721E-11  2.541484E-10
       292  17 -7.818195E+05 -1.046569E+05 -1.935157E+03 -2.927790E+05 -1.665367E-10  3.024113E-10
       292  18 -7.825895E+05 -1.140085E+05 -8.386632E+03 -2.961795E+05 -3.345194E-10  3.747754E-10
       292  19 -8.064696E+05 -1.192471E+05 -7.291348E+03 -3.041169E+05 -2.012747E+03 -1.023068E+03
       292  20 -8.062414E+05 -1.137440E+05 -8.626649E+03 -2.992775E+05 -4.820889E+03 -1.915669E+03
       292  21 -8.017378E+05 -1.206792E+05 -1.356091E+04 -3.008016E+05 -7.628671E+03 -2.809148E+03
       292  22 -7.916220E+05 -1.134954E+05 -3.187066E+03 -2.999295E+05 -1.997128E+03 -1.017222E+03
       292  23 -7.940305E+05 -1.092004E+05 -5.280871E+03 -2.960283E+05 -4.805423E+03 -1.909879E+03
       292  24 -7.921636E+05 -1.173438E+05 -1.097370E+04 -2.984906E+05 -7.613343E+03 -2.803408E+03
       292  25 -7.767742E+05 -1.077436E+05  9.171950E+02 -2.957421E+05 -1.981509E+03 -1.011377E+03
       292  26 -7.818195E+05 -1.046569E+05 -1.935107E+03 -2.927790E+05 -4.789956E+03 -1.904090E+03
       292  27 -7.825894E+05 -1.140084E+05 -8.386509E+03 -2.961795E+05 -7.598014E+03 -2.797668E+03
       293   1 -7.580261E+05 -1.005812E+05 -4.101083E+03 -2.921795E+05  9.743183E+03  3.469519E+03
       293   2 -7.537325E+05 -8.963970E+04 -1.225511E+04 -2.865839E+05  2.184217E+04  7.808292E+03
       293   3 -7.584685E+05 -1.218147E+05 -3.942438E+04 -2.788797E+05  3.388833E+04  1.228894E+04
       293   4 -7.935523E+05 -1.129861E+05 -1.368248E+04 -3.007909E+05  9.716166E+03  3.459427E+03
       293   5 -7.908159E+05 -1.040765E+05 -2.254140E+04 -2.971105E+05  2.183037E+04  7.803852E+03
       293   6 -7.971132E+05 -1.382878E+05 -5.042855E+04 -2.913214E+05  3.389170E+04  1.229008E+04
       293   7 -8.290773E+05 -1.253910E+05 -2.326399E+04 -3.094019E+05  9.689151E+03  3.449336E+03
       293   8 -8.278981E+05 -1.185131E+05 -3.282782E+04 -3.076366E+05  2.181857E+04  7.799413E+03
       293   9 -8.357565E+05 -1.547607E+05 -6.143287E+04 -3.037624E+05  3.389508E+04  1.229121E+04
       293  10 -7.580262E+05 -1.005812E+05 -4.101284E+03 -2.921795E+05  1.686150E-10  3.146622E-10
       293  11 -7.537330E+05 -8.963989E+04 -1.225613E+04 -2.865840E+05 -1.047243E-10 -1.072837E-10
       293  12 -7.584698E+05 -1.218151E+05 -3.942683E+04 -2.788800E+05 -4.253172E-10 -6.205109E-11
       293  13 -7.935524E+05 -1.129861E+05 -1.368268E+04 -3.007909E+05 -2.981449E-10  3.570438E-10
       293  14 -7.908165E+05 -1.040766E+05 -2.254241E+04 -2.971107E+05  7.960622E-11 -1.480672E-10
       293  15 -7.971145E+05 -1.382883E+05 -5.043100E+04 -2.913217E+05 -1.534213E-10  2.194765E-10
       293  16 -8.290774E+05 -1.253910E+05 -2.326419E+04 -3.094019E+05 -5.787053E-10  1.219723E-10
       293  17 -8.278987E+05 -1.185133E+05 -3.282883E+04 -3.076367E+05  5.286654E-10  8.019632E-10
       293  18 -8.357578E+05 -1.547612E+05 -6.143532E+04 -3.037627E+05  3.240825E-10  7.778489E-12
       293  19 -7.580261E+05 -1.005812E+05 -4.101083E+03 -2.921795E+05 -9.743183E+03 -3.469519E+03
       293  20 -7.537325E+05 -8.963970E+04 -1.225511E+04 -2.865839E+05 -2.184217E+04 -7.808292E+03
       293  21 -7.584685E+05 -1.218147E+05 -3.942438E+04 -2.788797E+05 -3.388833E+04 -1.228894E+04
       293  22 -7.935523E+05 -1.129861E+05 -1.368248E+04 -3.007909E+05 -9.716166E+03 -3.459427E+03
       293  23 -7.908159E+05 -1.040765E+05 -2.254140E+04 -2.971105E+05 -2.183037E+04 -7.803852E+03
       293  24 -7.971132E+05 -1.382878E+05 -5.042855E+04 -2.913214E+05 -3.389170E+04 -1.229008E+04
       293  25 -8.290773E+05 -1.253910E+05 -2.326399E+04 -3.094019E+05 -9.689151E+03 -3.449336E+03
       293  26 -8.278981E+05 -1.185131E+05 -3.282782E+04 -3.076366E+05 -2.181857E+04 -7.799413E+03
       293  27 -8.357565E+05 -1.547607E+05 -6.143287E+04 -3.037624E+05 -3.389508E+04 -1.229121E+04
       294   1 -7.248775E+05 -8.580414E+04 -4.022588E+04 -2.911021E+05  4.335440E+04  1.564319E+04
       294   2 -6.955475E+05 -3.899019E+04 -7.473628E+04 -2.803549E+05  9.659752E+04  3.537552E+04
       294   3 -7.585254E+05 -2.352191E+05 -2.142374E+05 -2.124138E+05  1.495778E+05  5.581242E+04
       294   4 -8.053601E+05 -1.098164E+05 -6.109967E+04 -3.064035E+05  4.328964E+04  1.561949E+04
       294   5 -7.708134E+05 -7.062833E+04 -9.607515E+04 -3.041272E+05  9.660561E+04  3.537791E+04
       294   6 -8.286004E+05 -2.745156E+05 -2.361092E+05 -2.446537E+05  1.496592E+05  5.583905E+04
       294   7 -8.858366E+05 -1.338288E+05 -8.197396E+04 -3.217035E+05  4.322489E+04  1.559578E+04
       294   8 -8.460738E+05 -1.022657E+05 -1.174145E+05 -3.278967E+05  9.661369E+04  3.538030E+04
       294   9 -8.986701E+05 -3.138097E+05 -2.579814E+05 -2.768897E+05  1.497405E+05  5.586566E+04
       294  10 -7.248796E+05 -8.580491E+04 -4.022987E+04 -2.911026E+05  2.589916E-10 -2.816148E-10
       294  11 -6.955579E+05 -3.899404E+04 -7.475619E+04 -2.803576E+05  1.351893E-10 -4.341006E-10
       294  12 -7.585503E+05 -2.352284E+05 -2.142854E+05 -2.124205E+05  7.544098E-11 -2.522862E-10
       294  13 -8.053622E+05 -1.098172E+05 -6.110365E+04 -3.064041E+05  4.568990E-11 -2.446340E-10
       294  14 -7.708238E+05 -7.063218E+04 -9.609506E+04 -3.041299E+05  6.306110E-10 -2.201377E-10
       294  15 -8.286253E+05 -2.745250E+05 -2.361572E+05 -2.446605E+05  1.631678E-10 -7.200304E-11
       294  16 -8.858386E+05 -1.338295E+05 -8.197793E+04 -3.217040E+05  1.286990E-10 -1.719071E-11
       294  17 -8.460842E+05 -1.022696E+05 -1.174345E+05 -3.278995E+05 -1.023568E-10 -5.136938E-10
       294  18 -8.986951E+05 -3.138190E+05 -2.580295E+05 -2.768965E+05  7.270638E-11 -1.169746E-10
       294  19 -7.248775E+05 -8.580414E+04 -4.022588E+04 -2.911021E+05 -4.335440E+04 -1.564319E+04
       294  20 -6.955475E+05 -3.899019E+04 -7.473628E+04 -2.803549E+05 -9.659752E+04 -3.537552E+04
       294  21 -7.585254E+05 -2.352191E+05 -2.142374E+05 -2.124138E+05 -1.495778E+05 -5.581242E+04
       294  22 -8.053601E+05 -1.098164E+05 -6.109967E+04 -3.064035E+05 -4.328964E+04 -1.561949E+04
       294  23 -7.708134E+05 -7.062833E+04 -9.607515E+04 -3.041272E+05 -9.660561E+04 -3.537791E+04
       294  24 -8.286004E+05 -2.745156E+05 -2.361092E+05 -2.446537E+05 -1.496592E+05 -5.583905E+04
       294  25 -8.858366E+05 -1.338288E+05 -8.197396E+04 -3.217035E+05 -4.322489E+04 -1.559578E+04
       294  26 -8.460738E+05 -1.022657E+05 -1.174145E+05 -3.278967E+05 -9.661369E+04 -3.538030E+04
       294  27 -8.986701E+05 -3.138097E+05 -2.579814E+05 -2.768897E+05 -1.497405E+05 -5.586566E+04
       295   1 -9.750581E+04  3.178616E+04  6.670266E+04  8.394616E+02  1.008909E+05  1.186809E+03
       295   2 -1.137591E+05 -1.068569E+05 -1.662829E+04  5.788681E+03  6.657754E+04  2.952309E+03
       295   3 -8.255952E+04 -8.186219E+04 -3.628626E+04 -1.271981E+04  3.226692E+04  2.255055E+03
       295   4  2.303325E+05  1.136830E+05  1.485655E+05 -8.228816E+03  1.012939E+05  1.185899E+03
       295   5  2.065891E+05 -2.682193E+04  6.322671E+04  3.592997E+03  6.666884E+04  2.952036E+03
       295   6  2.303302E+05 -3.679629E+03  4.175366E+04 -8.042370E+03  3.204699E+04  2.255219E+03
       295   7  5.582685E+05  1.955721E+05  2.304202E+05 -1.730192E+04  1.016971E+05  1.184978E+03
       295   8  5.270303E+05  5.320532E+04  1.430740E+05  1.396160E+03  6.676018E+04  2.951762E+03
       295   9  5.433087E+05  7.449564E+04  1.197862E+05 -3.362570E+03  3.182694E+04  2.255379E+03
       295  10 -9.751674E+04  3.178342E+04  6.668353E+04  8.393651E+02  1.121585E-10  3.380440E-11
       295  11 -1.137639E+05 -1.068581E+05 -1.663664E+04  5.788522E+03  3.011199E-10 -6.134363E-10
       295  12 -8.256064E+04 -8.186247E+04 -3.628823E+04 -1.271987E+04  1.474817E-10  1.190252E-10
       295  13  2.303215E+05  1.136803E+05  1.485462E+05 -8.228913E+03  8.800789E-10 -5.626421E-10
       295  14  2.065843E+05 -2.682314E+04  6.321835E+04  3.592838E+03 -1.001598E-09 -1.159815E-10
       295  15  2.303291E+05 -3.679910E+03  4.175172E+04 -8.042428E+03 -2.577590E-10  2.028539E-11
       295  16  5.582574E+05  1.955693E+05  2.304008E+05 -1.730202E+04 -1.292429E-10  6.887597E-10
       295  17  5.270255E+05  5.320411E+04  1.430656E+05  1.396001E+03 -1.631874E-09 -5.391748E-10
       295  18  5.433076E+05  7.449536E+04  1.197843E+05 -3.362628E+03  4.109194E-12 -2.569477E-11
       295  19 -9.750581E+04  3.178616E+04  6.670266E+04  8.394616E+02 -1.008909E+05 -1.186809E+03
       295  20 -1.137591E+05 -1.068569E+05 -1.662829E+04  5.788681E+03 -6.657754E+04 -2.952309E+03
       295  21 -8.255952E+04 -8.186219E+04 -3.628626E+04 -1.271981E+04 -3.226692E+04 -2.255055E+03
       295  22  2.303325E+05  1.136830E+05  1.485655E+05 -8.228816E+03 -1.012939E+05 -1.185899E+03
       295  23  2.065891E+05 -2.682193E+04  6.322671E+04  3.592997E+03 -6.666884E+04 -2.952036E+03
       295  24  2.303302E+05 -3.679629E+03  4.175366E+04 -8.042370E+03 -3.204699E+04 -2.255219E+03
       295  25  5.582685E+05  1.955721E+05  2.304202E+05 -1.730192E+04 -1.016971E+05 -1.184978E+03
       295  26  5.270303E+05  5.320532E+04  1.430740E+05  1.396160E+03 -6.676018E+04 -2.951762E+03
       295  27  5.433087E+05  7.449564E+04  1.197862E+05 -3.362570E+03 -3.182694E+04 -2.255379E+03
       296   1  5.662923E+03 -3.658544E+04 -1.933560E+04 -5.957363E+03  2.508362E+04  1.660454E+03
       296   2  8.045627E+03 -5.645693E+04 -3.582798E+04  3.224782E+03  1.649978E+04  1.675660E+03
       296   3  1.864328E+04 -5.121719E+04 -4.028904E+04 -7.908974E+03  7.915227E+03  1.335099E+03
       296   4  2.216197E+05  1.737231E+04  3.451647E+04 -7.392294E+03  2.511236E+04  1.660352E+03
       296   5  2.175075E+05 -4.122925E+03  1.639928E+04  2.761988E+03  1.648318E+04  1.675630E+03
       296   6  2.216155E+05 -5.035559E+02  1.034197E+04 -7.399184E+03  7.853375E+03  1.335168E+03
       296   7  4.376188E+05  7.132656E+04  8.836503E+04 -8.827721E+03  2.514112E+04  1.660250E+03
       296   8  4.270090E+05  4.820778E+04  6.862324E+04  2.299046E+03  1.646657E+04  1.675600E+03
       296   9  4.246251E+05  5.020698E+04  6.096988E+04 -6.889215E+03  7.791503E+03  1.335236E+03
       296  10  5.662246E+03 -3.658562E+04 -1.933679E+04 -5.957397E+03 -1.031248E-11  7.112350E-11
       296  11  8.045334E+03 -5.645701E+04 -3.582849E+04  3.224760E+03 -5.674652E-11 -2.994728E-10
       296  12  1.864321E+04 -5.121721E+04 -4.028916E+04 -7.908983E+03 -6.566822E-10  8.005699E-10
       296  13  2.216190E+05  1.737214E+04  3.451528E+04 -7.392328E+03 -2.059128E-10  2.778710E-10
       296  14  2.175072E+05 -4.123001E+03  1.639877E+04  2.761966E+03 -5.362209E-10 -7.808810E-10
       296  15  2.216154E+05 -5.035744E+02  1.034185E+04 -7.399193E+03  3.751540E-10  4.822829E-10
       296  16  4.376181E+05  7.132639E+04  8.836384E+04 -8.827755E+03  7.371523E-10 -3.225675E-11
       296  17  4.270088E+05  4.820770E+04  6.862273E+04  2.299023E+03  9.820521E-11 -2.401041E-10
       296  18  4.246250E+05  5.020696E+04  6.096976E+04 -6.889223E+03  6.298350E-10  2.635792E-10
       296  19  5.662923E+03 -3.658544E+04 -1.933560E+04 -5.957363E+03 -2.508362E+04 -1.660454E+03
       296  20  8.045627E+03 -5.645693E+04 -3.582798E+04  3.224782E+03 -1.649978E+04 -1.675660E+03
       296  21  1.864328E+04 -5.121719E+04 -4.028904E+04 -7.908974E+03 -7.915227E+03 -1.335099E+03
       296  22  2.216197E+05  1.737231E+04  3.451647E+04 -7.392294E+03 -2.511236E+04 -1.660352E+03
       296  23  2.175075E+05 -4.122925E+03  1.639928E+04  2.761988E+03 -1.648318E+04 -1.675630E+03
       296  24  2.216155E+05 -5.035559E+02  1.034197E+04 -7.399184E+03 -7.853375E+03 -1.335168E+03
       296  25  4.376188E+05  7.132656E+04  8.836503E+04 -8.827721E+03 -2.514112E+04 -1.660250E+03
       296  26  4.270090E+05  4.820778E+04  6.862324E+04  2.299046E+03 -1.646657E+04 -1.675600E+03
       296  27  4.246251E+05  5.020698E+04  6.096988E+04 -6.889215E+03 -7.791503E+03 -1.335236E+03
       297   1  1.039769E+05 -2.637666E+04 -2.065015E+04 -6.673513E+03  6.183920E+03  1.102605E+03
       297   2  1.092106E+05 -2.816989E+04 -2.313057E+04  2.478355E+03  3.959572E+03  8.571583E+02
       297   3  1.158582E+05 -2.606661E+04 -2.315895E+04 -6.952961E+03  1.734963E+03  5.745376E+02
       297   4  2.201125E+05  2.635866E+03  8.291901E+03 -7.007833E+03  6.157031E+03  1.102634E+03
       297   5  2.194040E+05 -6.393370E+02  4.345432E+03  2.281472E+03  3.927852E+03  8.572089E+02
       297   6  2.201100E+05 -1.756712E+01  2.854037E+03 -7.012201E+03  1.698433E+03  5.746119E+02
       297   7  3.362604E+05  3.164738E+04  3.723294E+04 -7.342209E+03  6.130136E+03  1.102663E+03
       297   8  3.296084E+05  2.689030E+04  3.182052E+04  2.084559E+03  3.896126E+03  8.572596E+02
       297   9  3.243716E+05  2.603066E+04  2.886620E+04 -7.071446E+03  1.661898E+03  5.746863E+02
       297  10  1.039768E+05 -2.637668E+04 -2.065023E+04 -6.673519E+03 -3.493478E-10 -2.894012E-14
       297  11  1.092106E+05 -2.816989E+04 -2.313060E+04  2.478353E+03  6.817501E-10  2.690132E-11
       297  12  1.158582E+05 -2.606661E+04 -2.315895E+04 -6.952962E+03 -1.061791E-09 -1.134467E-09
       297  13  2.201125E+05  2.635854E+03  8.291828E+03 -7.007838E+03 -8.544603E-10  9.117545E-11
       297  14  2.194040E+05 -6.393420E+02  4.345402E+03  2.281469E+03  9.616445E-10  7.182084E-10
       297  15  2.201100E+05 -1.756825E+01  2.854031E+03 -7.012202E+03 -2.209161E-10  1.837603E-09
       297  16  3.362604E+05  3.164737E+04  3.723287E+04 -7.342215E+03  1.377321E-09  1.527100E-10
       297  17  3.296084E+05  2.689029E+04  3.182049E+04  2.084556E+03  8.927597E-11 -1.561958E-09
       297  18  3.243716E+05  2.603066E+04  2.886620E+04 -7.071447E+03  4.314521E-10 -1.593485E-10
       297  19  1.039769E+05 -2.637666E+04 -2.065015E+04 -6.673513E+03 -6.183920E+03 -1.102605E+03
       297  20  1.092106E+05 -2.816989E+04 -2.313057E+04  2.478355E+03 -3.959572E+03 -8.571583E+02
       297  21  1.158582E+05 -2.606661E+04 -2.315895E+04 -6.952961E+03 -1.734963E+03 -5.745376E+02
       297  22  2.201125E+05  2.635866E+03  8.291901E+03 -7.007833E+03 -6.157031E+03 -1.102634E+03
       297  23  2.194040E+05 -6.393370E+02  4.345432E+03  2.281472E+03 -3.927852E+03 -8.572089E+02
       297  24  2.201100E+05 -1.756712E+01  2.854037E+03 -7.012201E+03 -1.698433E+03 -5.746119E+02
       297  25  3.362604E+05  3.164738E+04  3.723294E+04 -7.342209E+03 -6.130136E+03 -1.102663E+03
       297  26  3.296084E+05  2.689030E+04  3.182052E+04  2.084559E+03 -3.896126E+03 -8.572596E+02
       297  27  3.243716E+05  2.603066E+04  2.886620E+04 -7.071446E+03 -1.661898E+03 -5.746863E+02
       298   1  1.970721E+05 -5.278002E+03 -3.268995E+03 -6.787548E+03  1.253695E+03  4.057108E+02
       298   2  2.026789E+05 -4.399344E+03 -2.475967E+03  2.124401E+03  3.601098E+02  1.327315E+02
       298   3  2.085185E+05 -2.661377E+03 -9.065597E+02 -6.862754E+03 -5.335070E+02 -1.444341E+02
       298   4  2.198511E+05  4.093312E+02  2.392564E+03 -6.858200E+03  1.220963E+03  4.057846E+02
       298   5  2.197344E+05 -1.384408E+02  1.776499E+03  2.091074E+03  3.268496E+02  1.328085E+02
       298   6  2.198507E+05  1.731974E+02  1.937186E+03 -6.858726E+03 -5.672879E+02 -1.443538E+02
       298   7  2.426305E+05  6.096626E+03  8.054084E+03 -6.928854E+03  1.188231E+03  4.058584E+02
       298   8  2.367902E+05  4.122440E+03  6.028943E+03  2.057746E+03  2.935885E+02  1.328854E+02
       298   9  2.311830E+05  3.007762E+03  4.780921E+03 -6.854698E+03 -6.010694E+02 -1.442736E+02
       298  10  1.970721E+05 -5.278003E+03 -3.268998E+03 -6.787548E+03  6.455533E-10  1.009991E-10
       298  11  2.026789E+05 -4.399344E+03 -2.475967E+03  2.124401E+03 -4.781568E-10  4.253890E-10
       298  12  2.085185E+05 -2.661377E+03 -9.065603E+02 -6.862754E+03 -6.753773E-10 -8.595371E-10
       298  13  2.198511E+05  4.093306E+02  2.392561E+03 -6.858200E+03 -1.195088E-09 -1.267218E-09
       298  14  2.197344E+05 -1.384408E+02  1.776499E+03  2.091074E+03  3.980285E-10  5.502720E-10
       298  15  2.198507E+05  1.731973E+02  1.937185E+03 -6.858726E+03 -6.880268E-10 -1.696641E-09
       298  16  2.426305E+05  6.096625E+03  8.054081E+03 -6.928854E+03  1.303811E-10  9.380755E-10
       298  17  2.367902E+05  4.122440E+03  6.028943E+03  2.057746E+03  1.887144E-09 -6.554551E-10
       298  18  2.311830E+05  3.007762E+03  4.780920E+03 -6.854698E+03  5.827131E-11 -2.487638E-09
       298  19  1.970721E+05 -5.278002E+03 -3.268995E+03 -6.787548E+03 -1.253695E+03 -4.057108E+02
       298  20  2.026789E+05 -4.399344E+03 -2.475967E+03  2.124401E+03 -3.601098E+02 -1.327315E+02
       298  21  2.085185E+05 -2.661377E+03 -9.065597E+02 -6.862754E+03  5.335070E+02  1.444341E+02
       298  22  2.198511E+05  4.093312E+02  2.392564E+03 -6.858200E+03 -1.220963E+03 -4.057846E+02
       298  23  2.197344E+05 -1.384408E+02  1.776499E+03  2.091074E+03 -3.268496E+02 -1.328085E+02
       298  24  2.198507E+05  1.731974E+02  1.937186E+03 -6.858726E+03  5.672879E+02  1.443538E+02
       298  25  2.426305E+05  6.096626E+03  8.054084E+03 -6.928854E+03 -1.188231E+03 -4.058584E+02
       298  26  2.367902E+05  4.122440E+03  6.028943E+03  2.057746E+03 -2.935885E+02 -1.328854E+02
       298  27  2.311830E+05  3.007762E+03  4.780921E+03 -6.854698E+03  6.010694E+02  1.442736E+02
       299   1  2.892565E+05  1.738200E+04  1.948910E+04 -6.999164E+03 -9.096989E+02 -3.047980E+02
       299   2  2.947586E+05  1.849168E+04  2.187438E+04  2.048815E+03 -2.495807E+03 -5.788293E+02
       299   3  3.009083E+05  2.131041E+04  2.572160E+04 -7.114005E+03 -4.081851E+03 -8.615148E+02
       299   4  2.199412E+05  6.285609E+01  2.189200E+03 -6.928619E+03 -9.424396E+02 -3.047238E+02
       299   5  2.196183E+05 -2.792237E+02  3.140303E+03  2.177840E+03 -2.529419E+03 -5.787621E+02
       299   6  2.199430E+05  1.087992E+03  5.554062E+03 -6.926635E+03 -4.116319E+03 -8.614552E+02
       299   7  1.506303E+05 -1.725665E+04 -1.511106E+04 -6.858080E+03 -9.751766E+02 -3.046497E+02
       299   8  1.444830E+05 -1.905055E+04 -1.559420E+04  2.306853E+03 -2.563027E+03 -5.786949E+02
       299   9  1.389837E+05 -1.913492E+04 -1.461397E+04 -6.739287E+03 -4.150783E+03 -8.613955E+02
       299  10  2.892565E+05  1.738200E+04  1.948910E+04 -6.999164E+03 -2.577333E-10  6.729147E-10
       299  11  2.947586E+05  1.849168E+04  2.187437E+04  2.048814E+03 -1.228916E-09  3.404741E-09
       299  12  3.009082E+05  2.131041E+04  2.572157E+04 -7.114008E+03  6.199006E-11 -2.712053E-09
       299  13  2.199412E+05  6.285575E+01  2.189198E+03 -6.928620E+03 -2.323691E-09 -2.780137E-10
       299  14  2.196183E+05 -2.792258E+02  3.140291E+03  2.177839E+03  1.271244E-10 -2.047269E-10
       299  15  2.199430E+05  1.087987E+03  5.554029E+03 -6.926638E+03  1.757443E-10 -1.020771E-10
       299  16  1.506303E+05 -1.725665E+04 -1.511106E+04 -6.858080E+03  1.200743E-09 -1.413916E-10
       299  17  1.444830E+05 -1.905056E+04 -1.559421E+04  2.306852E+03  3.926976E-10  2.269761E-10
       299  18  1.389837E+05 -1.913493E+04 -1.461401E+04 -6.739290E+03 -2.297657E-10 -3.019975E-10
       299  19  2.892565E+05  1.738200E+04  1.948910E+04 -6.999164E+03  9.096989E+02  3.047980E+02
       299  20  2.947586E+05  1.849168E+04  2.187438E+04  2.048815E+03  2.495807E+03  5.788293E+02
       299  21  3.009083E+05  2.131041E+04  2.572160E+04 -7.114005E+03  4.081851E+03  8.615148E+02
       299  22  2.199412E+05  6.285609E+01  2.189200E+03 -6.928619E+03  9.424396E+02  3.047238E+02
       299  23  2.196183E+05 -2.792237E+02  3.140303E+03  2.177840E+03  2.529419E+03  5.787621E+02
       299  24  2.199430E+05  1.087992E+03  5.554062E+03 -6.926635E+03  4.116319E+03  8.614552E+02
       299  25  1.506303E+05 -1.725665E+04 -1.511106E+04 -6.858080E+03  9.751766E+02  3.046497E+02
       299  26  1.444830E+05 -1.905055E+04 -1.559420E+04  2.306853E+03  2.563027E+03  5.786949E+02
       299  27  1.389837E+05 -1.913492E+04 -1.461397E+04 -6.739287E+03  4.150783E+03  8.613955E+02
       300   1  3.859424E+05  4.112339E+04  4.826184E+04 -7.136712E+03 -5.225174E+03 -1.037771E+03
       300   2  3.902415E+05  4.112173E+04  5.422458E+04  2.268628E+03 -1.111598E+04 -1.327510E+03
       300   3  3.984453E+05  5.162036E+04  6.674854E+04 -7.866233E+03 -1.700656E+04 -1.584491E+03
       300   4  2.206595E+05 -1.658762E+02  7.037432E+03 -7.226169E+03 -5.262185E+03 -1.037720E+03
       300   5  2.187091E+05 -1.726261E+03  1.146123E+04  2.547538E+03 -1.114763E+04 -1.327493E+03
       300   6  2.206632E+05  7.214262E+03  2.244378E+04 -7.219288E+03 -1.703279E+04 -1.584510E+03
       300   7  5.540136E+04 -4.145720E+04 -3.418903E+04 -7.315592E+03 -5.299186E+03 -1.037669E+03
       300   8  4.720327E+04 -4.457647E+04 -3.130433E+04  2.826381E+03 -1.117927E+04 -1.327476E+03
       300   9  4.290971E+04 -3.719421E+04 -2.186336E+04 -6.572521E+03 -1.705902E+04 -1.584530E+03
       300  10  3.859424E+05  4.112338E+04  4.826179E+04 -7.136716E+03  2.484147E-10 -2.933125E-09
       300  11  3.902414E+05  4.112169E+04  5.422434E+04  2.268616E+03 -7.822491E-12  7.999901E-10
       300  12  3.984450E+05  5.162028E+04  6.674799E+04 -7.866255E+03 -4.908532E-11  4.816026E-10
       300  13  2.206595E+05 -1.658848E+02  7.037378E+03 -7.226174E+03 -9.848298E-10 -2.999593E-10
       300  14  2.187089E+05 -1.726297E+03  1.146099E+04  2.547527E+03  7.514887E-10 -8.166653E-10
       300  15  2.206629E+05  7.214181E+03  2.244323E+04 -7.219310E+03  6.031126E-10  3.687758E-10
       300  16  5.540133E+04 -4.145721E+04 -3.418909E+04 -7.315596E+03  8.761503E-10 -6.269975E-10
       300  17  4.720313E+04 -4.457650E+04 -3.130457E+04  2.826369E+03  1.767973E-10  7.790015E-10
       300  18  4.290940E+04 -3.719430E+04 -2.186391E+04 -6.572543E+03 -4.536993E-11  8.593122E-10
       300  19  3.859424E+05  4.112339E+04  4.826184E+04 -7.136712E+03  5.225174E+03  1.037771E+03
       300  20  3.902415E+05  4.112173E+04  5.422458E+04  2.268628E+03  1.111598E+04  1.327510E+03
       300  21  3.984453E+05  5.162036E+04  6.674854E+04 -7.866233E+03  1.700656E+04  1.584491E+03
       300  22  2.206595E+05 -1.658762E+02  7.037432E+03 -7.226169E+03  5.262185E+03  1.037720E+03
       300  23  2.187091E+05 -1.726261E+03  1.146123E+04  2.547538E+03  1.114763E+04  1.327493E+03
       300  24  2.206632E+05  7.214262E+03  2.244378E+04 -7.219288E+03  1.703279E+04  1.584510E+03
       300  25  5.540136E+04 -4.145720E+04 -3.418903E+04 -7.315592E+03  5.299186E+03  1.037669E+03
       300  26  4.720327E+04 -4.457647E+04 -3.130433E+04  2.826381E+03  1.117927E+04  1.327476E+03
       300  27  4.290971E+04 -3.719421E+04 -2.186336E+04 -6.572521E+03  1.705902E+04  1.584530E+03
       301   1  4.950604E+05  6.608283E+04  9.549517E+04 -5.899148E+03 -2.155756E+04 -1.846571E+03
       301   2  4.912271E+05  5.805227E+04  1.139702E+05  2.363368E+03 -4.517842E+04 -2.236984E+03
       301   3  5.091325E+05  1.186144E+05  1.652692E+05 -1.141761E+04 -6.879924E+04 -2.218311E+03
       301   4  2.246124E+05 -1.469526E+03  2.805758E+04 -7.771361E+03 -2.162404E+04 -1.846514E+03
       301   5  2.137458E+05 -1.125519E+04  4.480355E+04  3.231911E+03 -4.518655E+04 -2.237113E+03
       301   6  2.246164E+05  4.755793E+04  9.434325E+04 -7.808921E+03 -6.874876E+04 -2.218751E+03
       301   7 -4.576930E+04 -6.902737E+04 -3.938551E+04 -9.642749E+03 -2.169049E+04 -1.846457E+03
       301   8 -6.366569E+04 -8.056845E+04 -2.436889E+04  4.100064E+03 -4.519467E+04 -2.237241E+03
       301   9 -5.982630E+04 -2.350455E+04  2.341124E+04 -4.201900E+03 -6.869829E+04 -2.219191E+03
       301  10  4.950599E+05  6.608270E+04  9.549429E+04 -5.899180E+03  1.826773E-10  2.838327E-10
       301  11  4.912249E+05  5.805172E+04  1.139664E+05  2.363286E+03  2.026811E-10 -1.283903E-10
       301  12  5.091274E+05  1.186131E+05  1.652603E+05 -1.141773E+04  1.792966E-10 -8.810924E-10
       301  13  2.246119E+05 -1.469655E+03  2.805670E+04 -7.771393E+03 -8.500602E-10  1.278507E-09
       301  14  2.137436E+05 -1.125575E+04  4.479970E+04  3.231830E+03 -6.830601E-10  4.666316E-10
       301  15  2.246113E+05  4.755666E+04  9.433436E+04 -7.809044E+03 -7.521556E-11  6.604388E-11
       301  16 -4.576980E+04 -6.902750E+04 -3.938640E+04 -9.642781E+03 -4.637982E-10  6.167775E-10
       301  17 -6.366789E+04 -8.056901E+04 -2.437273E+04  4.099983E+03 -3.964102E-10 -1.354636E-09
       301  18 -5.983137E+04 -2.350582E+04  2.340236E+04 -4.202023E+03  1.120821E-10 -3.672407E-10
       301  19  4.950604E+05  6.608283E+04  9.549517E+04 -5.899148E+03  2.155756E+04  1.846571E+03
       301  20  4.912271E+05  5.805227E+04  1.139702E+05  2.363368E+03  4.517842E+04  2.236984E+03
       301  21  5.091325E+05  1.186144E+05  1.652692E+05 -1.141761E+04  6.879924E+04  2.218311E+03
       301  22  2.246124E+05 -1.469526E+03  2.805758E+04 -7.771361E+03  2.162404E+04  1.846514E+03
       301  23  2.137458E+05 -1.125519E+04  4.480355E+04  3.231911E+03  4.518655E+04  2.237113E+03
       301  24  2.246164E+05  4.755793E+04  9.434325E+04 -7.808921E+03  6.874876E+04  2.218751E+03
       301  25 -4.576930E+04 -6.902737E+04 -3.938551E+04 -9.642749E+03  2.169049E+04  1.846457E+03
       301  26 -6.366569E+04 -8.056845E+04 -2.436889E+04  4.100064E+03  4.519467E+04  2.237241E+03
       301  27 -5.982630E+04 -2.350455E+04  2.341124E+04 -4.201900E+03  6.869829E+04  2.219191E+03
       302   1  6.384235E+05  8.738127E+04  2.113772E+05  4.600313E+03 -8.743369E+04 -2.968573E+03
       302   2  5.831514E+05  2.628428E+04  2.724865E+05 -1.448518E+03 -1.825518E+05 -4.013936E+03
       302   3  6.552902E+05  4.123290E+05  5.079433E+05 -3.453849E+04 -2.776783E+05 -2.166035E+03
       302   4  2.480842E+05 -1.015241E+04  1.140610E+05 -8.576735E+03 -8.767956E+04 -2.967206E+03
       302   5  1.843807E+05 -7.327486E+04  1.731330E+05  4.423538E+03 -1.823975E+05 -4.015652E+03
       302   6  2.480944E+05  3.108251E+05  4.063541E+05 -9.616382E+03 -2.771225E+05 -2.175833E+03
       302   7 -1.421168E+05 -1.076969E+05  1.673344E+04 -2.174555E+04 -8.792525E+04 -2.965829E+03
       302   8 -2.142458E+05 -1.728458E+05  7.376752E+04  1.029174E+04 -1.822433E+05 -4.017366E+03
       302   9 -1.589497E+05  2.093112E+05  3.047528E+05  1.528927E+04 -2.765670E+05 -2.185593E+03
       302  10  6.384153E+05  8.737921E+04  2.113628E+05  4.600104E+03  1.286594E-09 -1.599994E-10
       302  11  5.831157E+05  2.627533E+04  2.724239E+05 -1.449108E+03 -4.494337E-10 -4.247988E-10
       302  12  6.552075E+05  4.123083E+05  5.077985E+05 -3.453897E+04  2.803987E-10 -4.545203E-11
       302  13  2.480759E+05 -1.015448E+04  1.140465E+05 -8.576945E+03  1.794378E-10  2.409777E-09
       302  14  1.843450E+05 -7.328381E+04  1.730705E+05  4.422948E+03 -8.991095E-10  3.330407E-09
       302  15  2.480120E+05  3.108045E+05  4.062098E+05 -9.616867E+03  8.785746E-10 -1.705311E-10
       302  16 -1.421251E+05 -1.076990E+05  1.671889E+04 -2.174576E+04 -2.158868E-09  3.357668E-10
       302  17 -2.142815E+05 -1.728548E+05  7.370506E+04  1.029115E+04 -9.449948E-10 -6.181443E-10
       302  18 -1.590319E+05  2.092907E+05  3.046090E+05  1.528878E+04  6.054542E-10 -1.599330E-09
       302  19  6.384235E+05  8.738127E+04  2.113772E+05  4.600313E+03  8.743369E+04  2.968573E+03
       302  20  5.831514E+05  2.628428E+04  2.724865E+05 -1.448518E+03  1.825518E+05  4.013936E+03
       302  21  6.552902E+05  4.123290E+05  5.079433E+05 -3.453849E+04  2.776783E+05  2.166035E+03
       302  22  2.480842E+05 -1.015241E+04  1.140610E+05 -8.576735E+03  8.767956E+04  2.967206E+03
       302  23  1.843807E+05 -7.327486E+04  1.731330E+05  4.423538E+03  1.823975E+05  4.015652E+03
       302  24  2.480944E+05  3.108251E+05  4.063541E+05 -9.616382E+03  2.771225E+05  2.175833E+03
       302  25 -1.421168E+05 -1.076969E+05  1.673344E+04 -2.174555E+04  8.792525E+04  2.965829E+03
       302  26 -2.142458E+05 -1.728458E+05  7.376752E+04  1.029174E+04  1.822433E+05  4.017366E+03
       302  27 -1.589497E+05  2.093112E+05  3.047528E+05  1.528927E+04  2.765670E+05  2.185593E+03
       303   1  1.606521E+05  4.545586E+05  2.001955E+05 -2.542884E+04  2.174632E+02  1.148512E+05
       303   2 -1.881950E+03  4.161568E+05  1.006217E+05  2.058661E+03  9.369757E+02  7.523055E+04
       303   3  2.149215E+04  4.294117E+05  7.331820E+04 -9.604219E+03  2.938923E+02  3.560644E+04
       303   4  1.288999E+05  3.276789E+05  1.685160E+05 -1.446766E+04  2.198103E+02  1.146775E+05
       303   5 -3.044263E+04  3.018646E+05  7.214442E+04  4.973027E+03  9.373245E+02  7.522755E+04
       303   6 -3.888277E+03  3.276876E+05  4.793535E+04 -1.473677E+04  2.931579E+02  3.577336E+04
       303   7  9.714695E+04  2.008141E+05  1.368353E+05 -3.508723E+03  2.221518E+02  1.145038E+05
       303   8 -5.900427E+04  1.875843E+05  4.366621E+04  7.886863E+03  9.376734E+02  7.522456E+04
       303   9 -2.926939E+04  2.259730E+05  2.255174E+04 -1.986848E+04  2.924206E+02  3.594024E+04
       303  10  1.606485E+05  4.545445E+05  2.001707E+05 -2.542886E+04  8.555188E-10 -1.366167E-10
       303  11 -1.883469E+03  4.161507E+05  1.006110E+05  2.058604E+03 -6.367799E-10 -1.610735E-10
       303  12  2.149181E+04  4.294103E+05  7.331582E+04 -9.604228E+03  6.383871E-10 -8.472732E-10
       303  13  1.288964E+05  3.276648E+05  1.684913E+05 -1.446768E+04  4.502656E-10  1.486432E-09
       303  14 -3.044415E+04  3.018585E+05  7.213379E+04  4.972970E+03 -1.164327E-09  7.442955E-11
       303  15 -3.888620E+03  3.276863E+05  4.793295E+04 -1.473678E+04 -2.933165E-11  7.449076E-10
       303  16  9.714343E+04  2.008000E+05  1.368107E+05 -3.508744E+03 -4.930766E-10 -5.715999E-10
       303  17 -5.900579E+04  1.875782E+05  4.365558E+04  7.886806E+03 -1.478016E-10 -2.700037E-11
       303  18 -2.926973E+04  2.259716E+05  2.254931E+04 -1.986849E+04 -2.463302E-10  4.808763E-10
       303  19  1.606521E+05  4.545586E+05  2.001955E+05 -2.542884E+04 -2.174632E+02 -1.148512E+05
       303  20 -1.881950E+03  4.161568E+05  1.006217E+05  2.058661E+03 -9.369757E+02 -7.523055E+04
       303  21  2.149215E+04  4.294117E+05  7.331820E+04 -9.604219E+03 -2.938923E+02 -3.560644E+04
       303  22  1.288999E+05  3.276789E+05  1.685160E+05 -1.446766E+04 -2.198103E+02 -1.146775E+05
       303  23 -3.044263E+04  3.018646E+05  7.214442E+04  4.973027E+03 -9.373245E+02 -7.522755E+04
       303  24 -3.888277E+03  3.276876E+05  4.793535E+04 -1.473677E+04 -2.931579E+02 -3.577336E+04
       303  25  9.714695E+04  2.008141E+05  1.368353E+05 -3.508723E+03 -2.221518E+02 -1.145038E+05
       303  26 -5.900427E+04  1.875843E+05  4.366621E+04  7.886863E+03 -9.376734E+02 -7.522456E+04
       303  27 -2.926939E+04  2.259730E+05  2.255174E+04 -1.986848E+04 -2.924206E+02 -3.594024E+04
       304   1  1.478369E+03  2.449802E+05  2.169852E+04 -1.609540E+04 -3.197641E+02  2.772984E+04
       304   2 -2.651009E+04  2.279430E+05 -1.350890E+03  4.742542E+03 -7.365621E+02  1.722022E+04
       304   3 -2.341075E+04  2.199569E+05 -9.806074E+03 -1.351289E+04 -9.855568E+02  6.711443E+03
       304   4  1.976872E+04  3.182213E+05  3.998150E+04 -1.459355E+04 -3.198609E+02  2.779567E+04
       304   5 -5.089914E+03  3.136987E+05  2.002686E+04  4.928539E+03 -7.366530E+02  1.726484E+04
       304   6  1.140772E+03  3.182296E+05  1.468005E+04 -1.464238E+04 -9.856082E+02  6.734654E+03
       304   7  3.805867E+04  3.914672E+05  5.826408E+04 -1.309152E+04 -3.199573E+02  2.786151E+04
       304   8  1.632971E+04  3.994609E+05  4.140405E+04  5.114567E+03 -7.367439E+02  1.730948E+04
       304   9  2.569157E+04  4.165111E+05  3.916545E+04 -1.577204E+04 -9.856598E+02  6.757869E+03
       304  10  1.478163E+03  2.449794E+05  2.169707E+04 -1.609539E+04 -5.131406E-10 -8.003401E-10
       304  11 -2.651017E+04  2.279427E+05 -1.351448E+03  4.742552E+03  1.040792E-09 -4.534628E-10
       304  12 -2.341076E+04  2.199568E+05 -9.806161E+03 -1.351289E+04 -1.270786E-09 -1.884620E-10
       304  13  1.976851E+04  3.182204E+05  3.998005E+04 -1.459354E+04  6.001400E-11  2.153067E-09
       304  14 -5.089994E+03  3.136983E+05  2.002629E+04  4.928550E+03  1.922906E-09 -1.223532E-10
       304  15  1.140759E+03  3.182296E+05  1.467996E+04 -1.464237E+04  2.455786E-09  2.763452E-10
       304  16  3.805846E+04  3.914664E+05  5.826262E+04 -1.309152E+04  3.815721E-10 -2.897899E-10
       304  17  1.632963E+04  3.994606E+05  4.140348E+04  5.114577E+03 -1.542353E-09  6.277671E-11
       304  18  2.569156E+04  4.165111E+05  3.916536E+04 -1.577204E+04 -5.016511E-10  2.091728E-11
       304  19  1.478369E+03  2.449802E+05  2.169852E+04 -1.609540E+04  3.197641E+02 -2.772984E+04
       304  20 -2.651009E+04  2.279430E+05 -1.350890E+03  4.742542E+03  7.365621E+02 -1.722022E+04
       304  21 -2.341075E+04  2.199569E+05 -9.806074E+03 -1.351289E+04  9.855568E+02 -6.711443E+03
       304  22  1.976872E+04  3.182213E+05  3.998150E+04 -1.459355E+04  3.198609E+02 -2.779567E+04
       304  23 -5.089914E+03  3.136987E+05  2.002686E+04  4.928539E+03  7.366530E+02 -1.726484E+04
       304  24  1.140772E+03  3.182296E+05  1.468005E+04 -1.464238E+04  9.856082E+02 -6.734654E+03
       304  25  3.805867E+04  3.914672E+05  5.826408E+04 -1.309152E+04  3.199573E+02 -2.786151E+04
       304  26  1.632971E+04  3.994609E+05  4.140405E+04  5.114567E+03  7.367439E+02 -1.730948E+04
       304  27  2.569157E+04  4.165111E+05  3.916545E+04 -1.577204E+04  9.856598E+02 -6.757869E+03
       305   1 -6.701683E+04  3.863143E+04 -5.658328E+04 -1.557825E+04 -1.786533E+03  3.936015E+03
       305   2 -7.663909E+04  2.138660E+04 -6.280585E+04  6.207525E+03 -2.695937E+03 -1.225061E+03
       305   3 -6.492465E+04  1.171195E+04 -6.002121E+04 -1.408788E+04 -9.872684E+02 -6.383363E+03
       305   4  2.754020E+03  3.178868E+05  1.307795E+04 -1.529017E+04 -1.786992E+03  4.204737E+03
       305   5 -3.518335E+03  3.140840E+05  1.014515E+04  5.749721E+03 -2.695802E+03 -1.272704E+03
       305   6  1.159589E+04  3.179037E+05  1.643632E+04 -1.529031E+04 -9.870682E+02 -6.747481E+03
       305   7  7.251900E+04  5.972129E+05  8.273332E+04 -1.500193E+04 -1.787449E+03  4.473580E+03
       305   8  6.959597E+04  6.068591E+05  8.308971E+04  5.291724E+03 -2.695667E+03 -1.320371E+03
       305   9  8.810938E+04  6.241803E+05  9.288678E+04 -1.649332E+04 -9.868667E+02 -7.111778E+03
       305  10 -6.701684E+04  3.863141E+04 -5.658332E+04 -1.557824E+04 -4.161799E-10 -6.068690E-10
       305  11 -7.663910E+04  2.138660E+04 -6.280587E+04  6.207522E+03  1.424578E-10 -2.465745E-10
       305  12 -6.492467E+04  1.171191E+04 -6.002129E+04 -1.408789E+04 -2.762042E-10 -6.181938E-11
       305  13  2.754012E+03  3.178868E+05  1.307791E+04 -1.529017E+04 -4.306011E-10  1.564947E-09
       305  14 -3.518343E+03  3.140840E+05  1.014513E+04  5.749719E+03  1.218839E-09 -9.098991E-11
       305  15  1.159588E+04  3.179036E+05  1.643623E+04 -1.529032E+04 -1.314899E-10  9.887686E-11
       305  16  7.251899E+04  5.972129E+05  8.273327E+04 -1.500193E+04  5.953922E-10 -2.278328E-10
       305  17  6.959596E+04  6.068591E+05  8.308970E+04  5.291721E+03 -1.771158E-10  2.824495E-11
       305  18  8.810936E+04  6.241803E+05  9.288668E+04 -1.649333E+04 -5.512400E-10  6.608981E-11
       305  19 -6.701683E+04  3.863143E+04 -5.658328E+04 -1.557825E+04  1.786533E+03 -3.936015E+03
       305  20 -7.663909E+04  2.138660E+04 -6.280585E+04  6.207525E+03  2.695937E+03  1.225061E+03
       305  21 -6.492465E+04  1.171195E+04 -6.002121E+04 -1.408788E+04  9.872684E+02  6.383363E+03
       305  22  2.754020E+03  3.178868E+05  1.307795E+04 -1.529017E+04  1.786992E+03 -4.204737E+03
       305  23 -3.518335E+03  3.140840E+05  1.014515E+04  5.749721E+03  2.695802E+03  1.272704E+03
       305  24  1.159589E+04  3.179037E+05  1.643632E+04 -1.529031E+04  9.870682E+02  6.747481E+03
       305  25  7.251900E+04  5.972129E+05  8.273332E+04 -1.500193E+04  1.787449E+03 -4.473580E+03
       305  26  6.959597E+04  6.068591E+05  8.308971E+04  5.291724E+03  2.695667E+03  1.320371E+03
       305  27  8.810938E+04  6.241803E+05  9.288678E+04 -1.649332E+04  9.868667E+02  7.111778E+03
       306   1 -2.960180E+06 -9.156422E+05 -6.319307E+05 -9.283846E+05 -2.085153E+05 -7.417153E+04
       306   2 -2.906468E+06 -6.167353E+05 -4.399437E+05 -9.896580E+05 -1.366085E+05 -3.895999E+04
       306   3 -2.932784E+06 -6.598520E+05 -3.856930E+05 -9.813169E+05 -6.102923E+04 -1.358104E+04
       306   4 -1.854843E+06 -4.792631E+05 -3.230956E+05 -6.094013E+05 -2.074422E+05 -7.377598E+04
       306   5 -1.799039E+06 -1.957838E+05 -1.343467E+05 -6.865047E+05 -1.365079E+05 -3.892521E+04
       306   6 -1.822824E+06 -2.537523E+05 -8.235724E+04 -6.940477E+05 -6.190404E+04 -1.390348E+04
       306   7 -7.483336E+05 -4.278673E+04 -1.437553E+04 -2.898951E+05 -2.063667E+05 -7.337943E+04
       306   8 -6.904356E+05  2.252401E+05  1.711371E+05 -3.828624E+05 -1.364069E+05 -3.889026E+04
       306   9 -7.116874E+05  1.523969E+05  2.208670E+05 -4.063230E+05 -6.278048E+04 -1.422650E+04
       306  10 -2.960228E+06 -9.156599E+05 -6.320232E+05 -9.283971E+05 -1.545268E-09  1.659286E-10
       306  11 -2.906488E+06 -6.167419E+05 -4.399818E+05 -9.896623E+05 -1.798750E-09 -1.156613E-09
       306  12 -2.932788E+06 -6.598532E+05 -3.857004E+05 -9.813176E+05 -1.842805E-09  9.190496E-10
       306  13 -1.854891E+06 -4.792806E+05 -3.231870E+05 -6.094136E+05  6.304081E-10 -2.365223E-11
       306  14 -1.799060E+06 -1.957905E+05 -1.343847E+05 -6.865090E+05  1.045750E-10  7.093558E-10
       306  15 -1.822828E+06 -2.537536E+05 -8.236483E+04 -6.940484E+05  1.815839E-09  1.688490E-09
       306  16 -7.483809E+05 -4.280397E+04 -1.446580E+04 -2.899073E+05 -1.391008E-10  3.619252E-10
       306  17 -6.904561E+05  2.252334E+05  1.710992E+05 -3.828667E+05  2.028414E-10 -3.852595E-10
       306  18 -7.116917E+05  1.523956E+05  2.208592E+05 -4.063237E+05 -1.536093E-09 -2.186625E-09
       306  19 -2.960180E+06 -9.156422E+05 -6.319307E+05 -9.283846E+05  2.085153E+05  7.417153E+04
       306  20 -2.906468E+06 -6.167353E+05 -4.399437E+05 -9.896580E+05  1.366085E+05  3.895999E+04
       306  21 -2.932784E+06 -6.598520E+05 -3.856930E+05 -9.813169E+05  6.102923E+04  1.358104E+04
       306  22 -1.854843E+06 -4.792631E+05 -3.230956E+05 -6.094013E+05  2.074422E+05  7.377598E+04
       306  23 -1.799039E+06 -1.957838E+05 -1.343467E+05 -6.865047E+05  1.365079E+05  3.892521E+04
       306  24 -1.822824E+06 -2.537523E+05 -8.235724E+04 -6.940477E+05  6.190404E+04  1.390348E+04
       306  25 -7.483336E+05 -4.278673E+04 -1.437553E+04 -2.898951E+05  2.063667E+05  7.337943E+04
       306  26 -6.904356E+05  2.252401E+05  1.711371E+05 -3.828624E+05  1.364069E+05  3.889026E+04
       306  27 -7.116874E+05  1.523969E+05  2.208670E+05 -4.063230E+05  6.278048E+04  1.422650E+04
       307   1 -2.492372E+06 -5.706349E+05 -2.593983E+05 -8.792885E+05 -4.888587E+04 -1.134991E+04
       307   2 -2.493781E+06 -4.646240E+05 -2.111816E+05 -8.263613E+05 -3.183857E+04 -5.151943E+03
       307   3 -2.413733E+06 -5.009140E+05 -1.872655E+05 -8.667948E+05 -1.380398E+04 -1.678456E+03
       307   4 -1.800825E+06 -3.103407E+05 -6.906741E+04 -6.925880E+05 -4.877702E+04 -1.131076E+04
       307   5 -1.839191E+06 -2.210590E+05 -3.161011E+04 -6.525911E+05 -3.201630E+04 -5.217250E+03
       307   6 -1.796023E+06 -2.739753E+05 -1.820271E+04 -7.059521E+05 -1.426991E+04 -1.847461E+03
       307   7 -1.108819E+06 -5.002008E+04  1.212197E+05 -5.057000E+05 -4.866801E+04 -1.127155E+04
       307   8 -1.184192E+06  2.252725E+04  1.479224E+05 -4.786566E+05 -3.219422E+04 -5.282627E+03
       307   9 -1.177950E+06 -4.702003E+04  1.508255E+05 -5.449668E+05 -1.473635E+04 -2.016645E+03
       307  10 -2.492375E+06 -5.706357E+05 -2.594030E+05 -8.792889E+05 -2.052418E-09 -7.537128E-11
       307  11 -2.493782E+06 -4.646243E+05 -2.111835E+05 -8.263614E+05 -1.071105E-09 -2.869701E-09
       307  12 -2.413733E+06 -5.009141E+05 -1.872659E+05 -8.667948E+05  2.659681E-09 -2.283431E-09
       307  13 -1.800827E+06 -3.103415E+05 -6.907214E+04 -6.925885E+05 -8.046790E-10  8.775849E-10
       307  14 -1.839192E+06 -2.210593E+05 -3.161209E+04 -6.525913E+05 -1.326148E-09 -6.297307E-09
       307  15 -1.796024E+06 -2.739753E+05 -1.820310E+04 -7.059521E+05  2.422323E-09 -3.527489E-11
       307  16 -1.108822E+06 -5.002086E+04  1.212150E+05 -5.057004E+05  1.671062E-09  1.076448E-09
       307  17 -1.184193E+06  2.252694E+04  1.479204E+05 -4.786567E+05 -1.440026E-10  6.417822E-09
       307  18 -1.177950E+06 -4.702009E+04  1.508251E+05 -5.449668E+05 -4.229767E-09  5.764249E-09
       307  19 -2.492372E+06 -5.706349E+05 -2.593983E+05 -8.792885E+05  4.888587E+04  1.134991E+04
       307  20 -2.493781E+06 -4.646240E+05 -2.111816E+05 -8.263613E+05  3.183857E+04  5.151943E+03
       307  21 -2.413733E+06 -5.009140E+05 -1.872655E+05 -8.667948E+05  1.380398E+04  1.678456E+03
       307  22 -1.800825E+06 -3.103407E+05 -6.906741E+04 -6.925880E+05  4.877702E+04  1.131076E+04
       307  23 -1.839191E+06 -2.210590E+05 -3.161011E+04 -6.525911E+05  3.201630E+04  5.217250E+03
       307  24 -1.796023E+06 -2.739753E+05 -1.820271E+04 -7.059521E+05  1.426991E+04  1.847461E+03
       307  25 -1.108819E+06 -5.002008E+04  1.212197E+05 -5.057000E+05  4.866801E+04  1.127155E+04
       307  26 -1.184192E+06  2.252725E+04  1.479224E+05 -4.786566E+05  3.219422E+04  5.282627E+03
       307  27 -1.177950E+06 -4.702003E+04  1.508255E+05 -5.449668E+05  1.473635E+04  2.016645E+03
       308   1 -1.677062E+06 -2.432607E+05  1.638046E+04 -6.786883E+05 -1.056325E+04 -2.768352E+03
       308   2 -1.683493E+06 -1.622426E+05  3.725167E+04 -6.012513E+05 -5.962105E+03 -3.676023E+03
       308   3 -1.582110E+06 -2.027709E+05  5.268660E+04 -6.546443E+05 -1.437918E+03 -4.362805E+03
       308   4 -1.792193E+06 -2.853336E+05 -1.519057E+04 -7.084146E+05 -1.082883E+04 -2.864438E+03
       308   5 -1.845765E+06 -2.221543E+05 -7.156411E+03 -6.438600E+05 -6.203598E+03 -3.763577E+03
       308   6 -1.791531E+06 -2.805298E+05 -4.578031E+03 -7.101381E+05 -1.655652E+03 -4.441909E+03
       308   7 -1.907310E+06 -3.274061E+05 -4.676278E+04 -7.381360E+05 -1.109435E+04 -2.960504E+03
       308   8 -2.008013E+06 -2.820649E+05 -5.156688E+04 -6.864587E+05 -6.445021E+03 -3.851105E+03
       308   9 -2.000911E+06 -3.582866E+05 -6.184667E+04 -7.656153E+05 -1.873305E+03 -4.520984E+03
       308  10 -1.677062E+06 -2.432607E+05  1.638023E+04 -6.786883E+05 -5.503581E-09 -2.233450E-09
       308  11 -1.683493E+06 -1.622426E+05  3.725158E+04 -6.012513E+05 -2.385161E-09 -3.572108E-09
       308  12 -1.582110E+06 -2.027709E+05  5.268656E+04 -6.546443E+05 -1.208166E-08  2.523614E-09
       308  13 -1.792193E+06 -2.853337E+05 -1.519081E+04 -7.084146E+05  6.414221E-09  7.203970E-10
       308  14 -1.845766E+06 -2.221544E+05 -7.156511E+03 -6.438600E+05 -8.611006E-09 -1.525767E-08
       308  15 -1.791531E+06 -2.805298E+05 -4.578073E+03 -7.101381E+05 -3.172999E-09  1.152325E-08
       308  16 -1.907311E+06 -3.274061E+05 -4.676303E+04 -7.381361E+05  5.583971E-09 -4.788641E-10
       308  17 -2.008013E+06 -2.820649E+05 -5.156699E+04 -6.864587E+05  7.354038E-09  3.851404E-09
       308  18 -2.000911E+06 -3.582866E+05 -6.184672E+04 -7.656153E+05  8.487966E-09  9.209545E-09
       308  19 -1.677062E+06 -2.432607E+05  1.638046E+04 -6.786883E+05  1.056325E+04  2.768352E+03
       308  20 -1.683493E+06 -1.622426E+05  3.725167E+04 -6.012513E+05  5.962105E+03  3.676023E+03
       308  21 -1.582110E+06 -2.027709E+05  5.268660E+04 -6.546443E+05  1.437918E+03  4.362805E+03
       308  22 -1.792193E+06 -2.853336E+05 -1.519057E+04 -7.084146E+05  1.082883E+04  2.864438E+03
       308  23 -1.845765E+06 -2.221543E+05 -7.156411E+03 -6.438600E+05  6.203598E+03  3.763577E+03
       308  24 -1.791531E+06 -2.805298E+05 -4.578031E+03 -7.101381E+05  1.655652E+03  4.441909E+03
       308  25 -1.907310E+06 -3.274061E+05 -4.676278E+04 -7.381360E+05  1.109435E+04  2.960504E+03
       308  26 -2.008013E+06 -2.820649E+05 -5.156688E+04 -6.864587E+05  6.445021E+03  3.851105E+03
       308  27 -2.000911E+06 -3.582866E+05 -6.184667E+04 -7.656153E+05  1.873305E+03  4.520984E+03
       309   1 -9.342648E+05  4.911929E+04  2.337592E+05 -4.703249E+05 -2.209785E+02 -5.809732E+03
       309   2 -9.504927E+05  9.544378E+04  2.408947E+05 -4.223503E+05  1.692558E+03 -7.887851E+03
       309   3 -8.775682E+05  7.308292E+04  2.514149E+05 -4.507021E+05  2.837522E+03 -7.845520E+03
       309   4 -1.796091E+06 -2.699947E+05 -2.350552E+03 -6.976990E+05 -6.120128E+02 -5.952609E+03
       309   5 -1.840642E+06 -2.361174E+05 -3.183534E+03 -6.593195E+05  1.537988E+03 -7.945426E+03
       309   6 -1.796099E+06 -2.709954E+05 -8.210657E+02 -6.972767E+05  2.918826E+03 -7.816353E+03
       309   7 -2.657209E+06 -5.890737E+05 -2.385278E+05 -9.247911E+05 -1.002448E+03 -6.095269E+03
       309   8 -2.730034E+06 -5.676391E+05 -2.473338E+05 -8.959846E+05  1.383664E+03 -8.002911E+03
       309   9 -2.713823E+06 -6.150294E+05 -2.531339E+05 -9.435241E+05  2.999998E+03 -7.787235E+03
       309  10 -9.342648E+05  4.911925E+04  2.337591E+05 -4.703249E+05 -8.366594E-09  6.528367E-10
       309  11 -9.504927E+05  9.544372E+04  2.408946E+05 -4.223502E+05 -2.303721E-09 -4.039996E-09
       309  12 -8.775682E+05  7.308285E+04  2.514148E+05 -4.507021E+05 -3.734829E-09  2.423317E-09
       309  13 -1.796091E+06 -2.699948E+05 -2.350619E+03 -6.976990E+05 -1.447031E-09  3.730999E-09
       309  14 -1.840642E+06 -2.361175E+05 -3.183657E+03 -6.593195E+05 -9.666652E-10  4.279584E-09
       309  15 -1.796099E+06 -2.709954E+05 -8.211964E+02 -6.972767E+05  2.618030E-09  1.296033E-09
       309  16 -2.657209E+06 -5.890738E+05 -2.385278E+05 -9.247911E+05 -9.709500E-10  3.392443E-10
       309  17 -2.730034E+06 -5.676391E+05 -2.473339E+05 -8.959846E+05  4.426627E-09 -1.387394E-09
       309  18 -2.713823E+06 -6.150294E+05 -2.531341E+05 -9.435241E+05  3.823742E-09  1.831975E-09
       309  19 -9.342648E+05  4.911929E+04  2.337592E+05 -4.703249E+05  2.209785E+02  5.809732E+03
       309  20 -9.504927E+05  9.544378E+04  2.408947E+05 -4.223503E+05 -1.692558E+03  7.887851E+03
       309  21 -8.775682E+05  7.308292E+04  2.514149E+05 -4.507021E+05 -2.837522E+03  7.845520E+03
       309  22 -1.796091E+06 -2.699947E+05 -2.350552E+03 -6.976990E+05  6.120128E+02  5.952609E+03
       309  23 -1.840642E+06 -2.361174E+05 -3.183534E+03 -6.593195E+05 -1.537988E+03  7.945426E+03
       309  24 -1.796099E+06 -2.709954E+05 -8.210657E+02 -6.972767E+05 -2.918826E+03  7.816353E+03
       309  25 -2.657209E+06 -5.890737E+05 -2.385278E+05 -9.247911E+05  1.002448E+03  6.095269E+03
       309  26 -2.730034E+06 -5.676391E+05 -2.473338E+05 -8.959846E+05 -1.383664E+03  8.002911E+03
       309  27 -2.713823E+06 -6.150294E+05 -2.531339E+05 -9.435241E+05 -2.999998E+03  7.787235E+03
       310   1 -6.769311E+05  1.743299E+05  3.118492E+05 -3.701501E+05  3.109772E+03 -8.364579E+03
       310   2 -6.937634E+05  1.670275E+05  3.066609E+05 -3.797264E+05  4.579574E+03 -9.138246E+03
       310   3 -6.895998E+05  1.755140E+05  3.081185E+05 -3.670772E+05  5.034582E+03 -7.216275E+03
       310   4 -1.811313E+06 -2.515549E+05  8.198726E+01 -6.756871E+05  2.828858E+03 -8.470296E+03
       310   5 -1.821788E+06 -2.595521E+05 -3.885264E+03 -6.867485E+05  4.599504E+03 -9.132126E+03
       310   6 -1.811365E+06 -2.518495E+05 -1.448942E+03 -6.755867E+05  5.354483E+03 -7.095954E+03
       310   7 -2.944467E+06 -6.773719E+05 -3.118031E+05 -9.807238E+05  2.548510E+03 -8.575805E+03
       310   8 -2.948596E+06 -6.860604E+05 -3.145483E+05 -9.932694E+05  4.619395E+03 -9.126024E+03
       310   9 -2.931925E+06 -6.791383E+05 -3.111325E+05 -9.835943E+05  5.673743E+03 -6.975879E+03
       310  10 -6.769311E+05  1.743298E+05  3.118490E+05 -3.701501E+05 -2.488951E-09  3.438859E-09
       310  11 -6.937635E+05  1.670274E+05  3.066607E+05 -3.797264E+05  7.755580E-10  9.715950E-10
       310  12 -6.895999E+05  1.755140E+05  3.081184E+05 -3.670771E+05 -3.267433E-09 -1.787040E-09
       310  13 -1.811313E+06 -2.515550E+05  8.183754E+01 -6.756871E+05 -8.611395E-10  5.610456E-09
       310  14 -1.821788E+06 -2.595522E+05 -3.885460E+03 -6.867485E+05 -9.028591E-10  3.508209E-10
       310  15 -1.811365E+06 -2.518495E+05 -1.449090E+03 -6.755867E+05 -4.032614E-09 -3.845263E-09
       310  16 -2.944467E+06 -6.773720E+05 -3.118032E+05 -9.807238E+05 -1.219832E-09  4.963604E-09
       310  17 -2.948596E+06 -6.860605E+05 -3.145485E+05 -9.932694E+05  4.031912E-10  4.342529E-11
       310  18 -2.931925E+06 -6.791383E+05 -3.111326E+05 -9.835943E+05  2.830313E-09  4.404377E-10
       310  19 -6.769311E+05  1.743299E+05  3.118492E+05 -3.701501E+05 -3.109772E+03  8.364579E+03
       310  20 -6.937634E+05  1.670275E+05  3.066609E+05 -3.797264E+05 -4.579574E+03  9.138246E+03
       310  21 -6.895998E+05  1.755140E+05  3.081185E+05 -3.670772E+05 -5.034582E+03  7.216275E+03
       310  22 -1.811313E+06 -2.515549E+05  8.198726E+01 -6.756871E+05 -2.828858E+03  8.470296E+03
       310  23 -1.821788E+06 -2.595521E+05 -3.885264E+03 -6.867485E+05 -4.599504E+03  9.132126E+03
       310  24 -1.811365E+06 -2.518495E+05 -1.448942E+03 -6.755867E+05 -5.354483E+03  7.095954E+03
       310  25 -2.944467E+06 -6.773719E+05 -3.118031E+05 -9.807238E+05 -2.548510E+03  8.575805E+03
       310  26 -2.948596E+06 -6.860604E+05 -3.145483E+05 -9.932694E+05 -4.619395E+03  9.126024E+03
       310  27 -2.931925E+06 -6.791383E+05 -3.111325E+05 -9.835943E+05 -5.673743E+03  6.975879E+03
       311   1 -1.045269E+06  6.455773E+04  2.138692E+05 -4.405964E+05  5.125152E+03 -6.187184E+03
       311   2 -1.043522E+06  9.410624E+03  2.002434E+05 -5.006548E+05  8.210504E+03 -4.099376E+03
       311   3 -1.119185E+06  3.694706E+04  1.852618E+05 -4.564185E+05  1.064702E+04 -3.481935E+02
       311   4 -1.832848E+06 -2.359547E+05 -3.486885E+03 -6.576391E+05  5.118737E+03 -6.190351E+03
       311   5 -1.794404E+06 -2.787632E+05 -7.359687E+03 -7.092428E+05  8.386912E+03 -4.032218E+03
       311   6 -1.833428E+06 -2.389313E+05 -1.273867E+04 -6.565434E+05  1.100609E+04 -2.096654E+02
       311   7 -2.619834E+06 -5.364297E+05 -2.209001E+05 -8.744337E+05  5.112330E+03 -6.193515E+03
       311   8 -2.544745E+06 -5.669017E+05 -2.150149E+05 -9.176031E+05  8.563080E+03 -3.965153E+03
       311   9 -2.547183E+06 -5.147765E+05 -2.107867E+05 -8.564601E+05  1.136470E+04 -7.131797E+01
       311  10 -1.045269E+06  6.455768E+04  2.138691E+05 -4.405963E+05 -4.474513E-09 -5.877748E-09
       311  11 -1.043522E+06  9.410588E+03  2.002432E+05 -5.006548E+05 -5.498638E-12 -7.807050E-09
       311  12 -1.119185E+06  3.694703E+04  1.852616E+05 -4.564185E+05  2.819603E-09  9.569707E-10
       311  13 -1.832848E+06 -2.359547E+05 -3.487006E+03 -6.576391E+05 -5.837628E-09 -2.537482E-11
       311  14 -1.794404E+06 -2.787632E+05 -7.359850E+03 -7.092428E+05 -6.700267E-10 -2.833659E-09
       311  15 -1.833428E+06 -2.389313E+05 -1.273889E+04 -6.565434E+05 -7.209839E-10  1.015131E-08
       311  16 -2.619834E+06 -5.364298E+05 -2.209002E+05 -8.744337E+05  2.213962E-09 -1.771664E-10
       311  17 -2.544745E+06 -5.669017E+05 -2.150151E+05 -9.176031E+05  1.191867E-08 -8.072019E-09
       311  18 -2.547183E+06 -5.147765E+05 -2.107869E+05 -8.564601E+05 -3.774418E-09  4.764298E-10
       311  19 -1.045269E+06  6.455773E+04  2.138692E+05 -4.405964E+05 -5.125152E+03  6.187184E+03
       311  20 -1.043522E+06  9.410624E+03  2.002434E+05 -5.006548E+05 -8.210504E+03  4.099376E+03
       311  21 -1.119185E+06  3.694706E+04  1.852618E+05 -4.564185E+05 -1.064702E+04  3.481935E+02
       311  22 -1.832848E+06 -2.359547E+05 -3.486885E+03 -6.576391E+05 -5.118737E+03  6.190351E+03
       311  23 -1.794404E+06 -2.787632E+05 -7.359687E+03 -7.092428E+05 -8.386912E+03  4.032218E+03
       311  24 -1.833428E+06 -2.389313E+05 -1.273867E+04 -6.565434E+05 -1.100609E+04  2.096654E+02
       311  25 -2.619834E+06 -5.364297E+05 -2.209001E+05 -8.744337E+05 -5.112330E+03  6.193515E+03
       311  26 -2.544745E+06 -5.669017E+05 -2.150149E+05 -9.176031E+05 -8.563080E+03  3.965153E+03
       311  27 -2.547183E+06 -5.147765E+05 -2.107867E+05 -8.564601E+05 -1.136470E+04  7.131797E+01
       312   1 -1.827909E+06 -2.235874E+05 -1.284199E+04 -6.495754E+05  1.231423E+04  2.507882E+03
       312   2 -1.809794E+06 -2.913388E+05 -3.644447E+04 -7.264591E+05  2.634528E+04  1.069476E+04
       312   3 -1.930104E+06 -2.882296E+05 -8.429417E+04 -6.610857E+05  4.079211E+04  1.780516E+04
       312   4 -1.844865E+06 -2.287483E+05 -1.711530E+04 -6.529825E+05  1.264275E+04  2.635231E+03
       312   5 -1.778000E+06 -2.796452E+05 -2.776505E+04 -7.181337E+05  2.655404E+04  1.077559E+04
       312   6 -1.849537E+06 -2.596559E+05 -6.256441E+04 -6.410292E+05  4.088240E+04  1.783991E+04
       312   7 -1.861821E+06 -2.339093E+05 -2.138863E+04 -6.563895E+05  1.297125E+04  2.762578E+03
       312   8 -1.746206E+06 -2.679515E+05 -1.908573E+04 -7.098080E+05  2.676281E+04  1.085643E+04
       312   9 -1.768964E+06 -2.310822E+05 -4.083523E+04 -6.209705E+05  4.097270E+04  1.787466E+04
       312  10 -1.827909E+06 -2.235874E+05 -1.284228E+04 -6.495755E+05 -2.238398E-09  2.391535E-09
       312  11 -1.809795E+06 -2.913391E+05 -3.644599E+04 -7.264593E+05 -6.860629E-09 -1.167365E-08
       312  12 -1.930106E+06 -2.882303E+05 -8.429791E+04 -6.610863E+05  9.690141E-09  1.677604E-09
       312  13 -1.844865E+06 -2.287484E+05 -1.711561E+04 -6.529826E+05  4.575996E-09 -1.165615E-09
       312  14 -1.778001E+06 -2.796455E+05 -2.776660E+04 -7.181340E+05 -5.388820E-09  1.501995E-08
       312  15 -1.849539E+06 -2.596567E+05 -6.256816E+04 -6.410298E+05  1.985638E-09 -1.076223E-09
       312  16 -1.861821E+06 -2.339093E+05 -2.138896E+04 -6.563896E+05  4.985014E-09  8.856682E-09
       312  17 -1.746207E+06 -2.679518E+05 -1.908730E+04 -7.098083E+05  3.290471E-09  1.184719E-08
       312  18 -1.768966E+06 -2.310830E+05 -4.083900E+04 -6.209711E+05 -4.005670E-09  3.243474E-09
       312  19 -1.827909E+06 -2.235874E+05 -1.284199E+04 -6.495754E+05 -1.231423E+04 -2.507882E+03
       312  20 -1.809794E+06 -2.913388E+05 -3.644447E+04 -7.264591E+05 -2.634528E+04 -1.069476E+04
       312  21 -1.930104E+06 -2.882296E+05 -8.429417E+04 -6.610857E+05 -4.079211E+04 -1.780516E+04
       312  22 -1.844865E+06 -2.287483E+05 -1.711530E+04 -6.529825E+05 -1.264275E+04 -2.635231E+03
       312  23 -1.778000E+06 -2.796452E+05 -2.776505E+04 -7.181337E+05 -2.655404E+04 -1.077559E+04
       312  24 -1.849537E+06 -2.596559E+05 -6.256441E+04 -6.410292E+05 -4.088240E+04 -1.783991E+04
       312  25 -1.861821E+06 -2.339093E+05 -2.138863E+04 -6.563895E+05 -1.297125E+04 -2.762578E+03
       312  26 -1.746206E+06 -2.679515E+05 -1.908573E+04 -7.098080E+05 -2.676281E+04 -1.085643E+04
       312  27 -1.768964E+06 -2.310822E+05 -4.083523E+04 -6.209705E+05 -4.097270E+04 -1.787466E+04
       313   1 -2.603507E+06 -5.313107E+05 -2.859971E+05 -8.876169E+05  5.031896E+04  2.451700E+04
       313   2 -2.567928E+06 -5.320088E+05 -3.402781E+05 -9.345960E+05  1.158398E+05  5.331467E+04
       313   3 -2.719704E+06 -7.405129E+05 -5.214362E+05 -8.068206E+05  1.845898E+05  7.368704E+04
       313   4 -1.847272E+06 -2.315703E+05 -7.467198E+04 -6.683617E+05  5.117987E+04  2.485014E+04
       313   5 -1.768559E+06 -2.294439E+05 -1.200047E+05 -7.170128E+05  1.158414E+05  5.331351E+04
       313   6 -1.876869E+06 -4.347164E+05 -2.913935E+05 -5.909536E+05  1.837352E+05  7.335509E+04
       313   7 -1.090485E+06  6.821603E+04  1.365994E+05 -4.488610E+05  5.204191E+04  2.518374E+04
       313   8 -9.685771E+05  7.315631E+04  1.002100E+05 -4.991781E+05  1.158429E+05  5.331230E+04
       313   9 -1.033354E+06 -1.288952E+05 -6.141487E+04 -3.748297E+05  1.828792E+05  7.302266E+04
       313  10 -2.603510E+06 -5.313121E+05 -2.860030E+05 -8.876179E+05  1.170110E-08 -2.296940E-09
       313  11 -2.567943E+06 -5.320155E+05 -3.403089E+05 -9.346009E+05 -1.354736E-09  6.150044E-10
       313  12 -2.719743E+06 -7.405279E+05 -5.215108E+05 -8.068316E+05  5.416895E-10 -6.288728E-10
       313  13 -1.847275E+06 -2.315717E+05 -7.467809E+04 -6.683627E+05  1.076388E-08 -9.208961E-10
       313  14 -1.768574E+06 -2.294506E+05 -1.200354E+05 -7.170177E+05 -3.057314E-09  1.104667E-08
       313  15 -1.876907E+06 -4.347313E+05 -2.914673E+05 -5.909644E+05  1.259475E-09 -1.564446E-09
       313  16 -1.090488E+06  6.821462E+04  1.365931E+05 -4.488620E+05 -2.442365E-09 -6.218891E-10
       313  17 -9.685923E+05  7.314964E+04  1.001794E+05 -4.991831E+05 -3.643846E-09  4.595324E-10
       313  18 -1.033392E+06 -1.289099E+05 -6.148788E+04 -3.748405E+05 -8.836489E-10 -2.352663E-09
       313  19 -2.603507E+06 -5.313107E+05 -2.859971E+05 -8.876169E+05 -5.031896E+04 -2.451700E+04
       313  20 -2.567928E+06 -5.320088E+05 -3.402781E+05 -9.345960E+05 -1.158398E+05 -5.331467E+04
       313  21 -2.719704E+06 -7.405129E+05 -5.214362E+05 -8.068206E+05 -1.845898E+05 -7.368704E+04
       313  22 -1.847272E+06 -2.315703E+05 -7.467198E+04 -6.683617E+05 -5.117987E+04 -2.485014E+04
       313  23 -1.768559E+06 -2.294439E+05 -1.200047E+05 -7.170128E+05 -1.158414E+05 -5.331351E+04
       313  24 -1.876869E+06 -4.347164E+05 -2.913935E+05 -5.909536E+05 -1.837352E+05 -7.335509E+04
       313  25 -1.090485E+06  6.821603E+04  1.365994E+05 -4.488610E+05 -5.204191E+04 -2.518374E+04
       313  26 -9.685771E+05  7.315631E+04  1.002100E+05 -4.991781E+05 -1.158429E+05 -5.331230E+04
       313  27 -1.033354E+06 -1.288952E+05 -6.141487E+04 -3.748297E+05 -1.828792E+05 -7.302266E+04
       314   1  3.825438E+06  8.318908E+05  1.119419E+06  5.605386E+04  8.337699E+05  4.111723E+03
       314   2  3.664468E+06 -3.141814E+05  4.266522E+05  4.080116E+04  5.493018E+05  4.794971E+03
       314   3  3.878617E+06 -1.189497E+05  2.546213E+05 -5.695477E+04  2.648022E+05  2.677514E+03
       314   4  4.231698E+06  9.323017E+05  1.220259E+06 -2.110729E+04  8.345099E+05  4.009732E+03
       314   5  4.045088E+06 -2.195898E+05  5.210906E+05  2.170695E+04  5.495328E+05  4.777989E+03
       314   6  4.233442E+06 -3.054109E+04  3.427661E+05 -1.799065E+04  2.645359E+05  2.693429E+03
       314   7  4.638119E+06  1.032723E+06  1.321090E+06 -9.831877E+04  8.352502E+05  3.907617E+03
       314   8  4.425840E+06 -1.250076E+05  6.155184E+05  2.601009E+03  5.497637E+05  4.761002E+03
       314   9  4.588383E+06  5.786372E+04  4.309022E+05  2.099560E+04  2.642694E+05  2.709303E+03
       314  10  3.824695E+06  8.317055E+05  1.118121E+06  5.605112E+04 -8.237604E-10  2.983258E-09
       314  11  3.664146E+06 -3.142618E+05  4.260886E+05  4.079905E+04 -1.811574E-09  4.744335E-09
       314  12  3.878542E+06 -1.189683E+05  2.544904E+05 -5.695534E+04  1.105015E-09  1.341913E-09
       314  13  4.230954E+06  9.321163E+05  1.218959E+06 -2.110999E+04  1.817462E-09  2.644502E-09
       314  14  4.044766E+06 -2.196702E+05  5.205269E+05  2.170484E+04 -3.156747E-09  2.455793E-09
       314  15  4.233367E+06 -3.055972E+04  3.426355E+05 -1.799122E+04  6.064465E-10  2.010868E-09
       314  16  4.637375E+06  1.032537E+06  1.319788E+06 -9.832142E+04 -1.713714E-10  1.460495E-09
       314  17  4.425517E+06 -1.250880E+05  6.149545E+05  2.598906E+03 -6.412768E-11  4.283577E-09
       314  18  4.588309E+06  5.784513E+04  4.307720E+05  2.099502E+04 -1.457697E-09 -4.223421E-11
       314  19  3.825438E+06  8.318908E+05  1.119419E+06  5.605386E+04 -8.337699E+05 -4.111723E+03
       314  20  3.664468E+06 -3.141814E+05  4.266522E+05  4.080116E+04 -5.493018E+05 -4.794971E+03
       314  21  3.878617E+06 -1.189497E+05  2.546213E+05 -5.695477E+04 -2.648022E+05 -2.677514E+03
       314  22  4.231698E+06  9.323017E+05  1.220259E+06 -2.110729E+04 -8.345099E+05 -4.009732E+03
       314  23  4.045088E+06 -2.195898E+05  5.210906E+05  2.170695E+04 -5.495328E+05 -4.777989E+03
       314  24  4.233442E+06 -3.054109E+04  3.427661E+05 -1.799065E+04 -2.645359E+05 -2.693429E+03
       314  25  4.638119E+06  1.032723E+06  1.321090E+06 -9.831877E+04 -8.352502E+05 -3.907617E+03
       314  26  4.425840E+06 -1.250076E+05  6.155184E+05  2.601009E+03 -5.497637E+05 -4.761002E+03
       314  27  4.588383E+06  5.786372E+04  4.309022E+05  2.099560E+04 -2.642694E+05 -2.709303E+03
       315   1  4.022515E+06  1.078720E+05  2.487413E+05  4.548725E+03  2.075032E+05  1.504889E+03
       315   2  4.000968E+06 -6.650975E+04  1.024880E+05  9.601778E+03  1.363991E+05  1.121995E+03
       315   3  4.040359E+06 -3.520867E+04  5.382823E+04 -1.270952E+04  6.529700E+04  7.891538E+02
       315   4  4.163180E+06  1.428279E+05  2.836389E+05 -6.785624E+03  2.074947E+05  1.501061E+03
       315   5  4.132900E+06 -3.369471E+04  1.352407E+05  6.972201E+03  1.363822E+05  1.121379E+03
       315   6  4.163545E+06 -4.557173E+03  8.442622E+04 -6.634035E+03  6.527259E+04  7.897664E+02
       315   7  4.303864E+06  1.777828E+05  3.185351E+05 -1.812253E+04  2.074862E+05  1.497234E+03
       315   8  4.264847E+06 -8.809411E+02  1.679922E+05  4.342065E+03  1.363652E+05  1.120764E+03
       315   9  4.286744E+06  2.609333E+04  1.150231E+05 -5.573502E+02  6.524818E+04  7.903783E+02
       315  10  4.022469E+06  1.078605E+05  2.486609E+05  4.548474E+03  1.219321E-10 -2.065385E-09
       315  11  4.000949E+06 -6.651471E+04  1.024532E+05  9.601655E+03 -1.154912E-09 -9.476905E-10
       315  12  4.040354E+06 -3.520980E+04  5.382027E+04 -1.270956E+04  4.717211E-10 -5.903701E-10
       315  13  4.163134E+06  1.428164E+05  2.835585E+05 -6.785875E+03 -9.757748E-11 -2.027750E-10
       315  14  4.132880E+06 -3.369966E+04  1.352060E+05  6.972078E+03 -1.276295E-10  2.998909E-10
       315  15  4.163540E+06 -4.558308E+03  8.441826E+04 -6.634076E+03 -2.935909E-10 -6.073606E-11
       315  16  4.303818E+06  1.777714E+05  3.184547E+05 -1.812278E+04 -2.421223E-10 -1.006905E-09
       315  17  4.264828E+06 -8.858924E+02  1.679575E+05  4.341942E+03 -1.830950E-09 -6.619909E-10
       315  18  4.286740E+06  2.609219E+04  1.150151E+05 -5.573917E+02 -2.176041E-10  8.734174E-10
       315  19  4.022515E+06  1.078720E+05  2.487413E+05  4.548725E+03 -2.075032E+05 -1.504889E+03
       315  20  4.000968E+06 -6.650975E+04  1.024880E+05  9.601778E+03 -1.363991E+05 -1.121995E+03
       315  21  4.040359E+06 -3.520867E+04  5.382823E+04 -1.270952E+04 -6.529700E+04 -7.891538E+02
       315  22  4.163180E+06  1.428279E+05  2.836389E+05 -6.785624E+03 -2.074947E+05 -1.501061E+03
       315  23  4.132900E+06 -3.369471E+04  1.352407E+05  6.972201E+03 -1.363822E+05 -1.121379E+03
       315  24  4.163545E+06 -4.557173E+03  8.442622E+04 -6.634035E+03 -6.527259E+04 -7.897664E+02
       315  25  4.303864E+06  1.777828E+05  3.185351E+05 -1.812253E+04 -2.074862E+05 -1.497234E+03
       315  26  4.264847E+06 -8.809411E+02  1.679922E+05  4.342065E+03 -1.363652E+05 -1.120764E+03
       315  27  4.286744E+06  2.609333E+04  1.150231E+05 -5.573502E+02 -6.524818E+04 -7.903783E+02
       316   1  4.103853E+06  9.744844E+03  5.572835E+04 -1.110237E+03  5.147150E+04  5.937147E+02
       316   2  4.101823E+06 -1.643286E+04  2.363191E+04  2.364069E+03  3.354789E+04  3.269491E+02
       316   3  4.110014E+06 -1.112890E+04  1.102824E+04 -3.662497E+03  1.562413E+04  2.527172E+02
       316   4  4.152208E+06  2.176827E+04  6.771619E+04 -2.714009E+03  5.143098E+04  5.935681E+02
       316   5  4.147137E+06 -5.160927E+03  3.488366E+04  2.039341E+03  3.352935E+04  3.269269E+02
       316   6  4.152283E+06 -6.135812E+02  2.152762E+04 -2.708105E+03  1.562765E+04  2.527401E+02
       316   7  4.200564E+06  3.379154E+04  7.970385E+04 -4.317905E+03  5.139046E+04  5.934217E+02
       316   8  4.192453E+06  6.110849E+03  4.613526E+04  1.714589E+03  3.351080E+04  3.269048E+02
       316   9  4.194553E+06  9.901604E+03  3.202688E+04 -1.753649E+03  1.563118E+04  2.527630E+02
       316  10  4.103851E+06  9.744138E+03  5.572341E+04 -1.110261E+03  1.155502E-09  8.209259E-10
       316  11  4.101822E+06 -1.643316E+04  2.362981E+04  2.364060E+03  5.720747E-10  2.344098E-10
       316  12  4.110014E+06 -1.112896E+04  1.102778E+04 -3.662500E+03  3.446726E-10  5.157246E-10
       316  13  4.152205E+06  2.176757E+04  6.771125E+04 -2.714033E+03 -4.912103E-10  2.969856E-10
       316  14  4.147136E+06 -5.161226E+03  3.488156E+04  2.039332E+03  3.893442E-10 -1.623686E-10
       316  15  4.152282E+06 -6.136463E+02  2.152717E+04 -2.708109E+03  1.410501E-10 -4.928103E-10
       316  16  4.200562E+06  3.379083E+04  7.969892E+04 -4.317930E+03 -1.270415E-10 -5.809980E-10
       316  17  4.192452E+06  6.110550E+03  4.613316E+04  1.714580E+03  3.063362E-10 -5.612954E-10
       316  18  4.194553E+06  9.901538E+03  3.202642E+04 -1.753652E+03 -8.887031E-10  1.526729E-09
       316  19  4.103853E+06  9.744844E+03  5.572835E+04 -1.110237E+03 -5.147150E+04 -5.937147E+02
       316  20  4.101823E+06 -1.643286E+04  2.363191E+04  2.364069E+03 -3.354789E+04 -3.269491E+02
       316  21  4.110014E+06 -1.112890E+04  1.102824E+04 -3.662497E+03 -1.562413E+04 -2.527172E+02
       316  22  4.152208E+06  2.176827E+04  6.771619E+04 -2.714009E+03 -5.143098E+04 -5.935681E+02
       316  23  4.147137E+06 -5.160927E+03  3.488366E+04  2.039341E+03 -3.352935E+04 -3.269269E+02
       316  24  4.152283E+06 -6.135812E+02  2.152762E+04 -2.708105E+03 -1.562765E+04 -2.527401E+02
       316  25  4.200564E+06  3.379154E+04  7.970385E+04 -4.317905E+03 -5.139046E+04 -5.934217E+02
       316  26  4.192453E+06  6.110849E+03  4.613526E+04  1.714589E+03 -3.351080E+04 -3.269048E+02
       316  27  4.194553E+06  9.901604E+03  3.202688E+04 -1.753649E+03 -1.563118E+04 -2.527630E+02
       317   1  4.134783E+06 -6.141081E+02  1.337598E+04 -1.154556E+03  1.211975E+04  2.165457E+02
       317   2  4.134920E+06 -4.483247E+03  6.713998E+03  4.111663E+02  6.894263E+03  9.857893E+01
       317   3  4.137057E+06 -3.065601E+03  4.759738E+03 -1.550205E+03  1.668789E+03  6.896356E+01
       317   4  4.150447E+06  3.280708E+03  1.725724E+04 -1.382324E+03  1.210040E+04  2.165408E+02
       317   5  4.149455E+06 -8.676476E+02  1.032340E+04  3.812340E+02  6.885454E+03  9.857873E+01
       317   6  4.150461E+06  2.688861E+02  8.089920E+03 -1.382295E+03  1.670529E+03  6.896380E+01
       317   7  4.166112E+06  7.175505E+03  2.113849E+04 -1.610098E+03  1.208105E+04  2.165360E+02
       317   8  4.163990E+06  2.747936E+03  1.393279E+04  3.513011E+02  6.876645E+03  9.857854E+01
       317   9  4.163864E+06  3.603360E+03  1.142009E+04 -1.214382E+03  1.672269E+03  6.896404E+01
       317  10  4.134783E+06 -6.141472E+02  1.337570E+04 -1.154558E+03  3.079500E-10  1.377675E-09
       317  11  4.134920E+06 -4.483259E+03  6.713909E+03  4.111657E+02 -2.064310E-09  8.472061E-10
       317  12  4.137057E+06 -3.065602E+03  4.759732E+03 -1.550205E+03 -1.232792E-09  3.617513E-10
       317  13  4.150447E+06  3.280669E+03  1.725697E+04 -1.382326E+03 -1.157086E-09 -8.125494E-10
       317  14  4.149455E+06 -8.676602E+02  1.032332E+04  3.812335E+02 -3.139458E-10 -1.706335E-10
       317  15  4.150461E+06  2.688854E+02  8.089915E+03 -1.382295E+03  3.109563E-12  1.876249E-10
       317  16  4.166112E+06  7.175466E+03  2.113821E+04 -1.610100E+03  2.216580E-09  1.226804E-09
       317  17  4.163990E+06  2.747923E+03  1.393271E+04  3.513006E+02  7.287209E-10  1.722673E-09
       317  18  4.163864E+06  3.603359E+03  1.142008E+04 -1.214382E+03  1.864836E-09 -4.007559E-10
       317  19  4.134783E+06 -6.141081E+02  1.337598E+04 -1.154556E+03 -1.211975E+04 -2.165457E+02
       317  20  4.134920E+06 -4.483247E+03  6.713998E+03  4.111663E+02 -6.894263E+03 -9.857893E+01
       317  21  4.137057E+06 -3.065601E+03  4.759738E+03 -1.550205E+03 -1.668789E+03 -6.896356E+01
       317  22  4.150447E+06  3.280708E+03  1.725724E+04 -1.382324E+03 -1.210040E+04 -2.165408E+02
       317  23  4.149455E+06 -8.676476E+02  1.032340E+04  3.812340E+02 -6.885454E+03 -9.857873E+01
       317  24  4.150461E+06  2.688861E+02  8.089920E+03 -1.382295E+03 -1.670529E+03 -6.896380E+01
       317  25  4.166112E+06  7.175505E+03  2.113849E+04 -1.610098E+03 -1.208105E+04 -2.165360E+02
       317  26  4.163990E+06  2.747936E+03  1.393279E+04  3.513011E+02 -6.876645E+03 -9.857854E+01
       317  27  4.163864E+06  3.603360E+03  1.142009E+04 -1.214382E+03 -1.672269E+03 -6.896404E+01
       318   1  4.148087E+06 -1.477808E+02  7.217963E+03 -8.883189E+02  2.340322E+02  5.976497E+01
       318   2  4.147887E+06 -1.110965E+03  8.191514E+03 -8.992233E+01 -4.112393E+03  1.093042E+01
       318   3  4.149304E+06  2.152782E+03  1.303742E+04 -1.202592E+03 -8.458768E+03 -2.263157E+01
       318   4  4.150376E+06  4.209051E+02  7.782889E+03 -1.023231E+03  2.271813E+02  5.976545E+01
       318   5  4.149563E+06 -6.939381E+02  8.607881E+03 -6.760702E+01 -4.117413E+03  1.093069E+01
       318   6  4.150367E+06  2.417829E+03  1.330396E+04 -1.023052E+03 -8.461953E+03 -2.263372E+01
       318   7  4.152665E+06  9.895906E+02  8.347815E+03 -1.158143E+03  2.203305E+02  5.976593E+01
       318   8  4.151240E+06 -2.769115E+02  9.024248E+03 -4.529164E+01 -4.122433E+03  1.093095E+01
       318   9  4.151431E+06  2.682877E+03  1.357050E+04 -8.435111E+02 -8.465139E+03 -2.263587E+01
       318  10  4.148087E+06 -1.477808E+02  7.217963E+03 -8.883189E+02  3.539535E-10  4.181002E-10
       318  11  4.147887E+06 -1.110969E+03  8.191483E+03 -8.992230E+01  2.919621E-10 -2.146218E-09
       318  12  4.149304E+06  2.152762E+03  1.303728E+04 -1.202592E+03  1.716112E-10 -9.842479E-10
       318  13  4.150376E+06  4.209051E+02  7.782889E+03 -1.023231E+03 -2.078832E-09  5.060798E-11
       318  14  4.149563E+06 -6.939426E+02  8.607850E+03 -6.760698E+01 -3.610934E-09 -1.676794E-09
       318  15  4.150367E+06  2.417810E+03  1.330382E+04 -1.023052E+03  1.836106E-09 -1.220848E-09
       318  16  4.152665E+06  9.895906E+02  8.347815E+03 -1.158143E+03 -7.324463E-10  1.978148E-10
       318  17  4.151240E+06 -2.769160E+02  9.024217E+03 -4.529161E+01 -2.766337E-09 -1.573117E-09
       318  18  4.151431E+06  2.682858E+03  1.357036E+04 -8.435112E+02 -9.168087E-10 -6.981809E-10
       318  19  4.148087E+06 -1.477808E+02  7.217963E+03 -8.883189E+02 -2.340322E+02 -5.976497E+01
       318  20  4.147887E+06 -1.110965E+03  8.191514E+03 -8.992233E+01  4.112393E+03 -1.093042E+01
       318  21  4.149304E+06  2.152782E+03  1.303742E+04 -1.202592E+03  8.458768E+03  2.263157E+01
       318  22  4.150376E+06  4.209051E+02  7.782889E+03 -1.023231E+03 -2.271813E+02 -5.976545E+01
       318  23  4.149563E+06 -6.939381E+02  8.607881E+03 -6.760702E+01  4.117413E+03 -1.093069E+01
       318  24  4.150367E+06  2.417829E+03  1.330396E+04 -1.023052E+03  8.461953E+03  2.263372E+01
       318  25  4.152665E+06  9.895906E+02  8.347815E+03 -1.158143E+03 -2.203305E+02 -5.976593E+01
       318  26  4.151240E+06 -2.769115E+02  9.024248E+03 -4.529164E+01  4.122433E+03 -1.093095E+01
       318  27  4.151431E+06  2.682877E+03  1.357050E+04 -8.435111E+02  8.465139E+03  2.263587E+01
       319   1  4.159953E+06  1.634225E+03  1.836689E+04 -4.845587E+02 -1.115358E+04 -3.274442E+01
       319   2  4.157009E+06 -1.549808E+03  2.822360E+04 -1.068097E+02 -2.446889E+04 -6.414158E+01
       319   3  4.161599E+06  1.854695E+04  5.252717E+04 -2.381372E+03 -3.778457E+04 -1.282049E+02
       319   4  4.151690E+06 -4.215684E+02  1.631310E+04 -1.188164E+03 -1.115542E+04 -3.273172E+01
       319   5  4.147895E+06 -3.817029E+03  2.596053E+04  1.383058E+02 -2.447451E+04 -6.415089E+01
       319   6  4.151634E+06  1.606913E+04  5.005759E+04 -1.187527E+03 -3.779394E+04 -1.282768E+02
       319   7  4.143426E+06 -2.477365E+03  1.425930E+04 -1.891761E+03 -1.115726E+04 -3.271902E+01
       319   8  4.138780E+06 -6.084256E+03  2.369746E+04  3.834177E+02 -2.448012E+04 -6.416020E+01
       319   9  4.141670E+06  1.359132E+04  4.758801E+04  6.299738E+00 -3.780330E+04 -1.283488E+02
       319  10  4.159953E+06  1.634192E+03  1.836666E+04 -4.845590E+02 -9.601914E-10  3.393362E-10
       319  11  4.157008E+06 -1.549967E+03  2.822248E+04 -1.068109E+02  8.471504E-10  1.512449E-09
       319  12  4.161597E+06  1.854657E+04  5.252451E+04 -2.381376E+03  1.445097E-09  5.555611E-10
       319  13  4.151690E+06 -4.216016E+02  1.631287E+04 -1.188165E+03 -9.832823E-11 -5.107363E-10
       319  14  4.147894E+06 -3.817188E+03  2.595941E+04  1.383045E+02  2.814758E-09 -4.912955E-10
       319  15  4.151633E+06  1.606875E+04  5.005493E+04 -1.187530E+03  2.458143E-10 -4.040580E-11
       319  16  4.143426E+06 -2.477398E+03  1.425907E+04 -1.891761E+03 -2.181603E-09 -3.505670E-12
       319  17  4.138780E+06 -6.084416E+03  2.369634E+04  3.834164E+02  2.327859E-09  1.584041E-09
       319  18  4.141668E+06  1.359094E+04  4.758534E+04  6.295836E+00 -1.104636E-09  2.542161E-10
       319  19  4.159953E+06  1.634225E+03  1.836689E+04 -4.845587E+02  1.115358E+04  3.274442E+01
       319  20  4.157009E+06 -1.549808E+03  2.822360E+04 -1.068097E+02  2.446889E+04  6.414158E+01
       319  21  4.161599E+06  1.854695E+04  5.252717E+04 -2.381372E+03  3.778457E+04  1.282049E+02
       319  22  4.151690E+06 -4.215684E+02  1.631310E+04 -1.188164E+03  1.115542E+04  3.273172E+01
       319  23  4.147895E+06 -3.817029E+03  2.596053E+04  1.383058E+02  2.447451E+04  6.415089E+01
       319  24  4.151634E+06  1.606913E+04  5.005759E+04 -1.187527E+03  3.779394E+04  1.282768E+02
       319  25  4.143426E+06 -2.477365E+03  1.425930E+04 -1.891761E+03  1.115726E+04  3.271902E+01
       319  26  4.138780E+06 -6.084256E+03  2.369746E+04  3.834177E+02  2.448012E+04  6.416020E+01
       319  27  4.141670E+06  1.359132E+04  4.758801E+04  6.299738E+00  3.780330E+04  1.283488E+02
       320   1  4.188937E+06  3.850351E+03  6.952416E+04  2.376007E+03 -4.800829E+04 -1.744209E+02
       320   2  4.168605E+06 -1.711016E+04  1.074705E+05 -7.363178E+02 -1.004559E+05 -2.486282E+02
       320   3  4.192944E+06  1.136375E+05  2.173361E+05 -1.053821E+04 -1.529049E+05 -3.261506E+02
       320   4  4.159941E+06 -3.362640E+03  6.232221E+04 -2.080947E+03 -4.801550E+04 -1.740789E+02
       320   5  4.137467E+06 -2.485513E+04  9.974073E+04  1.256181E+03 -1.004614E+05 -2.489499E+02
       320   6  4.159666E+06  1.053642E+05  2.090800E+05 -2.096217E+03 -1.529084E+05 -3.282189E+02
       320   7  4.130945E+06 -1.057562E+04  5.512021E+04 -6.537694E+03 -4.802271E+04 -1.737367E+02
       320   8  4.106329E+06 -3.260016E+04  9.201094E+04  3.248580E+03 -1.004668E+05 -2.492717E+02
       320   9  4.126388E+06  9.709109E+04  2.008239E+05  6.345320E+03 -1.529119E+05 -3.302873E+02
       320  10  4.188935E+06  3.849738E+03  6.951986E+04  2.376000E+03  2.460890E-09 -9.498026E-10
       320  11  4.168595E+06 -1.711285E+04  1.074516E+05 -7.363379E+02 -1.127025E-09 -1.366568E-09
       320  12  4.192919E+06  1.136312E+05  2.172925E+05 -1.053825E+04 -3.087550E-09 -2.413201E-09
       320  13  4.159939E+06 -3.363254E+03  6.231791E+04 -2.080954E+03  6.435523E-11 -7.542146E-10
       320  14  4.137456E+06 -2.485782E+04  9.972189E+04  1.256161E+03  2.323832E-09 -2.480250E-09
       320  15  4.159641E+06  1.053580E+05  2.090364E+05 -2.096258E+03 -3.453093E-10 -1.295034E-09
       320  16  4.130943E+06 -1.057623E+04  5.511590E+04 -6.537700E+03 -2.654887E-09 -4.493603E-10
       320  17  4.106319E+06 -3.260284E+04  9.199209E+04  3.248560E+03  1.244523E-09 -1.830047E-09
       320  18  4.126363E+06  9.708486E+04  2.007802E+05  6.345280E+03  2.516447E-09 -1.054109E-09
       320  19  4.188937E+06  3.850351E+03  6.952416E+04  2.376007E+03  4.800829E+04  1.744209E+02
       320  20  4.168605E+06 -1.711016E+04  1.074705E+05 -7.363178E+02  1.004559E+05  2.486282E+02
       320  21  4.192944E+06  1.136375E+05  2.173361E+05 -1.053821E+04  1.529049E+05  3.261506E+02
       320  22  4.159941E+06 -3.362640E+03  6.232221E+04 -2.080947E+03  4.801550E+04  1.740789E+02
       320  23  4.137467E+06 -2.485513E+04  9.974073E+04  1.256181E+03  1.004614E+05  2.489499E+02
       320  24  4.159666E+06  1.053642E+05  2.090800E+05 -2.096217E+03  1.529084E+05  3.282189E+02
       320  25  4.130945E+06 -1.057562E+04  5.512021E+04 -6.537694E+03  4.802271E+04  1.737367E+02
       320  26  4.106329E+06 -3.260016E+04  9.201094E+04  3.248580E+03  1.004668E+05  2.492717E+02
       320  27  4.126388E+06  9.709109E+04  2.008239E+05  6.345320E+03  1.529119E+05  3.302873E+02
       321   1  4.296316E+06 -1.320940E+03  2.737001E+05  2.368059E+04 -1.948515E+05 -6.103566E+02
       321   2  4.164757E+06 -1.391076E+05  4.067547E+05 -9.809888E+03 -4.050694E+05 -1.014008E+03
       321   3  4.307266E+06  7.113632E+05  9.232437E+05 -6.287011E+04 -6.152714E+05 -6.686892E+02
       321   4  4.211027E+06 -2.255223E+04  2.525202E+05 -4.804427E+03 -1.949207E+05 -6.014999E+02
       321   5  4.073298E+06 -1.618405E+05  3.840659E+05  4.738760E+03 -4.050246E+05 -1.023448E+03
       321   6  4.209655E+06  6.871795E+05  8.990079E+05 -5.280383E+03 -6.151105E+05 -7.253347E+02
       321   7  4.125746E+06 -4.378104E+04  2.313401E+05 -3.328555E+04 -1.949899E+05 -5.926359E+02
       321   8  3.981847E+06 -1.845733E+05  3.613767E+05  1.928527E+04 -4.049798E+05 -1.032886E+03
       321   9  4.112061E+06  6.630075E+05  8.747732E+05  5.230034E+04 -6.149496E+05 -7.819583E+02
       321  10  4.296276E+06 -1.331045E+03  2.736292E+05  2.368049E+04 -1.625291E-09 -6.842457E-10
       321  11  4.164581E+06 -1.391513E+05  4.064484E+05 -9.810218E+03 -7.438869E-10  6.696510E-10
       321  12  4.306862E+06  7.112624E+05  9.225371E+05 -6.287045E+04  7.864566E-10  4.651811E-10
       321  13  4.210986E+06 -2.256235E+04  2.524492E+05 -4.804521E+03 -3.825858E-09 -6.001414E-10
       321  14  4.073123E+06 -1.618842E+05  3.837597E+05  4.738427E+03 -7.926801E-10  1.760771E-10
       321  15  4.209251E+06  6.870788E+05  8.983016E+05 -5.280742E+03  2.769887E-10 -2.148120E-10
       321  16  4.125705E+06 -4.379116E+04  2.312691E+05 -3.328564E+04  7.363886E-10  1.515647E-09
       321  17  3.981672E+06 -1.846169E+05  3.610705E+05  1.928494E+04 -1.020816E-09 -1.177642E-09
       321  18  4.111657E+06  6.629068E+05  8.740672E+05  5.229997E+04  2.024700E-09  5.235421E-10
       321  19  4.296316E+06 -1.320940E+03  2.737001E+05  2.368059E+04  1.948515E+05  6.103566E+02
       321  20  4.164757E+06 -1.391076E+05  4.067547E+05 -9.809888E+03  4.050694E+05  1.014008E+03
       321  21  4.307266E+06  7.113632E+05  9.232437E+05 -6.287011E+04  6.152714E+05  6.686892E+02
       321  22  4.211027E+06 -2.255223E+04  2.525202E+05 -4.804427E+03  1.949207E+05  6.014999E+02
       321  23  4.073298E+06 -1.618405E+05  3.840659E+05  4.738760E+03  4.050246E+05  1.023448E+03
       321  24  4.209655E+06  6.871795E+05  8.990079E+05 -5.280383E+03  6.151105E+05  7.253347E+02
       321  25  4.125746E+06 -4.378104E+04  2.313401E+05 -3.328555E+04  1.949899E+05  5.926359E+02
       321  26  3.981847E+06 -1.845733E+05  3.613767E+05  1.928527E+04  4.049798E+05  1.032886E+03
       321  27  4.112061E+06  6.630075E+05  8.747732E+05  5.230034E+04  6.149496E+05  7.819583E+02
       322   1  2.674097E+05  2.711328E+05  3.898526E+05  4.659477E+03 -2.764642E+03  3.418754E+05
       322   2 -2.081355E+05  2.228967E+05  1.093740E+05 -2.418830E+04 -4.781707E+03  2.201204E+05
       322   3 -1.142814E+05  3.375986E+05  5.151348E+04  5.178234E+04 -2.417148E+03  9.836209E+04
       322   4  3.903543E+05  7.644053E+05  5.128967E+05  3.630861E+04 -2.748844E+03  3.426112E+05
       322   5 -9.327866E+04  6.829599E+05  2.239789E+05 -1.673037E+04 -4.778863E+03  2.202428E+05
       322   6 -7.633939E+03  7.644361E+05  1.579788E+05  3.504508E+04 -2.419222E+03  9.787768E+04
       322   7  5.132844E+05  1.257901E+06  6.359231E+05  6.798304E+04 -2.732983E+03  3.433474E+05
       322   8  2.156245E+04  1.143215E+06  3.385679E+05 -9.266817E+03 -4.776017E+03  2.203652E+05
       322   9  9.900084E+04  1.191439E+06  2.644305E+05  1.829634E+04 -2.421269E+03  9.739292E+04
       322  10  2.673784E+05  2.710074E+05  3.896330E+05  4.660238E+03 -1.720160E-10  3.960484E-10
       322  11 -2.081485E+05  2.228447E+05  1.092829E+05 -2.418745E+04  8.943614E-10 -2.493550E-09
       322  12 -1.142840E+05  3.375882E+05  5.149530E+04  5.178254E+04  9.191192E-10  2.180598E-10
       322  13  3.903228E+05  7.642795E+05  5.126764E+05  3.630937E+04  1.283970E-09  1.373380E-10
       322  14 -9.329169E+04  6.829079E+05  2.238878E+05 -1.672953E+04 -2.271952E-09  1.181758E-09
       322  15 -7.636513E+03  7.644258E+05  1.579608E+05  3.504527E+04  3.513431E-10 -9.791413E-10
       322  16  5.132528E+05  1.257774E+06  6.357020E+05  6.798380E+04  5.030294E-10 -5.756466E-10
       322  17  2.154942E+04  1.143163E+06  3.384768E+05 -9.265970E+03 -1.296135E-10 -1.524609E-09
       322  18  9.899829E+04  1.191429E+06  2.644127E+05  1.829653E+04  6.210457E-10 -4.246003E-10
       322  19  2.674097E+05  2.711328E+05  3.898526E+05  4.659477E+03  2.764642E+03 -3.418754E+05
       322  20 -2.081355E+05  2.228967E+05  1.093740E+05 -2.418830E+04  4.781707E+03 -2.201204E+05
       322  21 -1.142814E+05  3.375986E+05  5.151348E+04  5.178234E+04  2.417148E+03 -9.836209E+04
       322  22  3.903543E+05  7.644053E+05  5.128967E+05  3.630861E+04  2.748844E+03 -3.426112E+05
       322  23 -9.327866E+04  6.829599E+05  2.239789E+05 -1.673037E+04  4.778863E+03 -2.202428E+05
       322  24 -7.633939E+03  7.644361E+05  1.579788E+05  3.504508E+04  2.419222E+03 -9.787768E+04
       322  25  5.132844E+05  1.257901E+06  6.359231E+05  6.798304E+04  2.732983E+03 -3.433474E+05
       322  26  2.156245E+04  1.143215E+06  3.385679E+05 -9.266817E+03  4.776017E+03 -2.203652E+05
       322  27  9.900084E+04  1.191439E+06  2.644305E+05  1.829634E+04  2.421269E+03 -9.739292E+04
       323   1  6.121842E+04  7.474738E+05  1.397222E+05  2.720501E+04 -6.384790E+02  7.119623E+04
       323   2 -1.165596E+04  7.582743E+05  9.709434E+04 -1.493148E+04  3.122560E+02  2.551817E+04
       323   3  4.905887E+04  8.086151E+05  1.176255E+05  3.848789E+04  1.198940E+03 -2.016167E+04
       323   4  5.859589E+04  7.370493E+05  1.370698E+05  3.337320E+04 -6.377050E+02  7.107984E+04
       323   5 -2.189013E+04  7.172875E+05  8.688204E+04 -1.441018E+04  3.123565E+02  2.541050E+04
       323   6  3.121573E+04  7.370649E+05  9.984862E+04  3.336241E+04  1.199193E+03 -2.025838E+04
       323   7  5.597349E+04  7.266250E+05  1.344174E+05  3.954127E+04 -6.369333E+02  7.096346E+04
       323   8 -3.212443E+04  6.763022E+05  7.666961E+04 -1.388892E+04  3.124568E+02  2.530285E+04
       323   9  1.337230E+04  6.655195E+05  8.207142E+04  2.823753E+04  1.199448E+03 -2.035508E+04
       323  10  6.121706E+04  7.474683E+05  1.397126E+05  2.720505E+04  1.351708E-10  3.421550E-11
       323  11 -1.165614E+04  7.582736E+05  9.709311E+04 -1.493148E+04  5.254713E-11 -5.876311E-10
       323  12  4.905876E+04  8.086147E+05  1.176247E+05  3.848791E+04  5.496427E-10  3.791780E-10
       323  13  5.859454E+04  7.370439E+05  1.370603E+05  3.337323E+04  5.011967E-10  1.244857E-10
       323  14 -2.189031E+04  7.172868E+05  8.688082E+04 -1.441019E+04  6.531573E-10 -3.258350E-10
       323  15  3.121561E+04  7.370645E+05  9.984785E+04  3.336243E+04  1.064063E-09 -1.036413E-09
       323  16  5.597214E+04  7.266196E+05  1.344079E+05  3.954131E+04  6.441235E-10 -1.035590E-11
       323  17 -3.212460E+04  6.763015E+05  7.666841E+04 -1.388893E+04 -1.058538E-10 -7.014084E-10
       323  18  1.337219E+04  6.655190E+05  8.207064E+04  2.823755E+04  1.276466E-09 -8.425939E-10
       323  19  6.121842E+04  7.474738E+05  1.397222E+05  2.720501E+04  6.384790E+02 -7.119623E+04
       323  20 -1.165596E+04  7.582743E+05  9.709434E+04 -1.493148E+04 -3.122560E+02 -2.551817E+04
       323  21  4.905887E+04  8.086151E+05  1.176255E+05  3.848789E+04 -1.198940E+03  2.016167E+04
       323  22  5.859589E+04  7.370493E+05  1.370698E+05  3.337320E+04  6.377050E+02 -7.107984E+04
       323  23 -2.189013E+04  7.172875E+05  8.688204E+04 -1.441018E+04 -3.123565E+02 -2.541050E+04
       323  24  3.121573E+04  7.370649E+05  9.984862E+04  3.336241E+04 -1.199193E+03  2.025838E+04
       323  25  5.597349E+04  7.266250E+05  1.344174E+05  3.954127E+04  6.369333E+02 -7.096346E+04
       323  26 -3.212443E+04  6.763022E+05  7.666961E+04 -1.388892E+04 -3.124568E+02 -2.530285E+04
       323  27  1.337230E+04  6.655195E+05  8.207142E+04  2.823753E+04 -1.199448E+03  2.035508E+04
       324   1  1.309419E+05  1.265902E+06  2.352781E+05  2.560262E+04  3.069544E+03 -3.847646E+04
       324   2  8.359854E+04  1.251102E+06  2.696982E+05 -1.409897E+04  5.414445E+03 -1.115399E+05
       324   3  3.634903E+05  1.334210E+06  4.347618E+05  5.346548E+04  2.654829E+03 -1.846193E+05
       324   4  2.117051E+03  7.499466E+05  1.066719E+05  3.570736E+04  3.069781E+03 -3.903048E+04
       324   5 -5.366519E+04  7.010264E+05  1.327440E+05 -1.749395E+04  5.415229E+03 -1.114246E+05
       324   6  2.178239E+05  7.499753E+05  2.890785E+05  3.657540E+04  2.657330E+03 -1.838308E+05
       324   7 -1.267274E+05  2.342327E+05 -2.195423E+04  4.580379E+04  3.070000E+03 -3.958403E+04
       324   8 -1.909516E+05  1.512244E+05 -4.232873E+03 -2.088573E+04  5.416013E+03 -1.113095E+05
       324   9  7.213299E+04  1.660499E+05  1.433697E+05  1.970150E+04  2.659791E+03 -1.830430E+05
       324  10  1.309415E+05  1.265900E+06  2.352754E+05  2.560271E+04  9.414139E-10 -5.269160E-10
       324  11  8.359517E+04  1.251089E+06  2.696748E+05 -1.409849E+04  7.043258E-11 -3.294192E-09
       324  12  3.634812E+05  1.334174E+06  4.346979E+05  5.346587E+04 -1.299106E-09  1.432039E-09
       324  13  2.116633E+03  7.499450E+05  1.066691E+05  3.570746E+04 -7.826640E-10  2.483201E-10
       324  14 -5.366855E+04  7.010131E+05  1.327206E+05 -1.749346E+04 -3.260611E-10  1.298401E-10
       324  15  2.178149E+05  7.499391E+05  2.890150E+05  3.657580E+04 -1.496211E-09 -4.685426E-09
       324  16 -1.267279E+05  2.342311E+05 -2.195719E+04  4.580389E+04  3.364929E-10  1.956266E-10
       324  17 -1.909550E+05  1.512110E+05 -4.256204E+03 -2.088525E+04 -1.205026E-09 -1.866244E-09
       324  18  7.212399E+04  1.660140E+05  1.433067E+05  1.970189E+04 -1.897349E-09 -3.167363E-09
       324  19  1.309419E+05  1.265902E+06  2.352781E+05  2.560262E+04 -3.069544E+03  3.847646E+04
       324  20  8.359854E+04  1.251102E+06  2.696982E+05 -1.409897E+04 -5.414445E+03  1.115399E+05
       324  21  3.634903E+05  1.334210E+06  4.347618E+05  5.346548E+04 -2.654829E+03  1.846193E+05
       324  22  2.117051E+03  7.499466E+05  1.066719E+05  3.570736E+04 -3.069781E+03  3.903048E+04
       324  23 -5.366519E+04  7.010264E+05  1.327440E+05 -1.749395E+04 -5.415229E+03  1.114246E+05
       324  24  2.178239E+05  7.499753E+05  2.890785E+05  3.657540E+04 -2.657330E+03  1.838308E+05
       324  25 -1.267274E+05  2.342327E+05 -2.195423E+04  4.580379E+04 -3.070000E+03  3.958403E+04
       324  26 -1.909516E+05  1.512244E+05 -4.232873E+03 -2.088573E+04 -5.416013E+03  1.113095E+05
       324  27  7.213299E+04  1.660499E+05  1.433697E+05  1.970150E+04 -2.659791E+03  1.830430E+05
       325   1 -4.382911E+06 -1.489608E+06 -7.597094E+05 -1.620195E+06 -3.282879E+05 -8.565782E+04
       325   2 -4.263176E+06 -1.252851E+06 -5.139525E+05 -1.575050E+06 -2.139002E+05  4.947974E+04
       325   3 -4.185868E+06 -1.142689E+06 -4.058721E+05 -1.526598E+06 -7.838614E+04  1.290952E+05
       325   4 -2.250755E+06 -5.838554E+05 -1.928511E+05 -9.304049E+05 -1.378071E+05 -1.359011E+04
       325   5 -2.228655E+06 -4.566074E+05 -9.030800E+04 -9.598625E+05 -1.212374E+05  8.447555E+04
       325   6 -2.229323E+06 -4.362640E+05 -4.731625E+04 -9.860613E+05 -8.361738E+04  1.270678E+05
       325   7 -1.140761E+05  3.225586E+05  3.737507E+05 -2.383247E+05  5.338935E+04  5.882697E+04
       325   8 -1.898260E+05  3.401510E+05  3.331513E+05 -3.427404E+05 -2.824642E+04  1.196133E+05
       325   9 -2.687047E+05  2.705202E+05  3.111079E+05 -4.439251E+05 -8.886639E+04  1.250341E+05
       325  10 -4.383030E+06 -1.489645E+06 -7.599274E+05 -1.620218E+06  2.147442E-09 -1.841930E-10
       325  11 -4.263226E+06 -1.252865E+06 -5.140435E+05 -1.575041E+06  2.198280E-09 -1.912065E-09
       325  12 -4.185879E+06 -1.142709E+06 -4.059149E+05 -1.526590E+06 -2.450628E-09 -1.799206E-09
       325  13 -2.250775E+06 -5.838607E+05 -1.928873E+05 -9.304064E+05  5.176063E-10 -2.112036E-10
       325  14 -2.228673E+06 -4.566190E+05 -9.034905E+04 -9.598543E+05 -7.090250E-10  7.905102E-10
       325  15 -2.229335E+06 -4.362832E+05 -4.735968E+04 -9.860527E+05 -6.408874E-09 -1.741855E-09
       325  16 -1.140801E+05  3.225541E+05  3.737389E+05 -2.383272E+05 -5.135739E-11  2.167794E-09
       325  17 -1.898307E+05  3.401355E+05  3.331229E+05 -3.427377E+05 -1.419227E-09 -4.038284E-11
       325  18 -2.687173E+05  2.705013E+05  3.110637E+05 -4.439161E+05 -7.276970E-09 -6.108385E-10
       325  19 -4.382911E+06 -1.489608E+06 -7.597094E+05 -1.620195E+06  3.282879E+05  8.565782E+04
       325  20 -4.263176E+06 -1.252851E+06 -5.139525E+05 -1.575050E+06  2.139002E+05 -4.947974E+04
       325  21 -4.185868E+06 -1.142689E+06 -4.058721E+05 -1.526598E+06  7.838614E+04 -1.290952E+05
       325  22 -2.250755E+06 -5.838554E+05 -1.928511E+05 -9.304049E+05  1.378071E+05  1.359011E+04
       325  23 -2.228655E+06 -4.566074E+05 -9.030800E+04 -9.598625E+05  1.212374E+05 -8.447555E+04
       325  24 -2.229323E+06 -4.362640E+05 -4.731625E+04 -9.860613E+05  8.361738E+04 -1.270678E+05
       325  25 -1.140761E+05  3.225586E+05  3.737507E+05 -2.383247E+05 -5.338935E+04 -5.882697E+04
       325  26 -1.898260E+05  3.401510E+05  3.331513E+05 -3.427404E+05  2.824642E+04 -1.196133E+05
       325  27 -2.687047E+05  2.705202E+05  3.111079E+05 -4.439251E+05  8.886639E+04 -1.250341E+05
       326   1 -4.087675E+06 -1.119660E+06 -3.744236E+05 -1.510104E+06 -7.796449E+04  1.259891E+05
       326   2 -3.969388E+06 -1.052947E+06 -3.248244E+05 -1.463370E+06 -5.873724E+04  1.308346E+05
       326   3 -3.835765E+06 -1.013075E+06 -2.907184E+05 -1.438229E+06 -3.758353E+04  1.305617E+05
       326   4 -2.223140E+06 -4.371847E+05 -3.554373E+04 -9.843223E+05 -7.721874E+04  1.262222E+05
       326   5 -2.231048E+06 -4.207000E+05 -1.870737E+04 -9.749812E+05 -6.699082E+04  1.276762E+05
       326   6 -2.221833E+06 -4.292476E+05 -1.017221E+04 -9.872353E+05 -5.484366E+04  1.240182E+05
       326   7 -3.549230E+05  2.456378E+05  3.032133E+05 -4.570529E+05 -7.647057E+04  1.264562E+05
       326   8 -4.895006E+05  2.118455E+05  2.873128E+05 -4.853064E+05 -7.526916E+04  1.245084E+05
       326   9 -6.051404E+05  1.548297E+05  2.702931E+05 -5.351422E+05 -7.215170E+04  1.174567E+05
       326  10 -4.087686E+06 -1.119679E+06 -3.744648E+05 -1.510096E+06 -9.429995E-09 -2.259223E-09
       326  11 -3.969396E+06 -1.052966E+06 -3.248630E+05 -1.463364E+06 -3.960988E-09  1.039032E-09
       326  12 -3.835771E+06 -1.013093E+06 -2.907530E+05 -1.438226E+06  1.300947E-09  8.134673E-10
       326  13 -2.223151E+06 -4.372034E+05 -3.558483E+04 -9.843145E+05 -4.885176E-09 -3.390171E-09
       326  14 -2.231057E+06 -4.207187E+05 -1.874638E+04 -9.749743E+05 -1.159502E-09 -2.569586E-09
       326  15 -2.221841E+06 -4.292649E+05 -1.020672E+04 -9.872298E+05  1.940361E-10 -5.074445E-10
       326  16 -3.549335E+05  2.456191E+05  3.031724E+05 -4.570452E+05 -3.236670E-09  6.380150E-10
       326  17 -4.895108E+05  2.118274E+05  2.872731E+05 -4.852989E+05  2.152954E-09 -2.916729E-10
       326  18 -6.051497E+05  1.548135E+05  2.702575E+05 -5.351354E+05 -6.648007E-10 -7.039494E-10
       326  19 -4.087675E+06 -1.119660E+06 -3.744236E+05 -1.510104E+06  7.796449E+04 -1.259891E+05
       326  20 -3.969388E+06 -1.052947E+06 -3.248244E+05 -1.463370E+06  5.873724E+04 -1.308346E+05
       326  21 -3.835765E+06 -1.013075E+06 -2.907184E+05 -1.438229E+06  3.758353E+04 -1.305617E+05
       326  22 -2.223140E+06 -4.371847E+05 -3.554373E+04 -9.843223E+05  7.721874E+04 -1.262222E+05
       326  23 -2.231048E+06 -4.207000E+05 -1.870737E+04 -9.749812E+05  6.699082E+04 -1.276762E+05
       326  24 -2.221833E+06 -4.292476E+05 -1.017221E+04 -9.872353E+05  5.484366E+04 -1.240182E+05
       326  25 -3.549230E+05  2.456378E+05  3.032133E+05 -4.570529E+05  7.647057E+04 -1.264562E+05
       326  26 -4.895006E+05  2.118455E+05  2.873128E+05 -4.853064E+05  7.526916E+04 -1.245084E+05
       326  27 -6.051404E+05  1.548297E+05  2.702931E+05 -5.351422E+05  7.215170E+04 -1.174567E+05
       327   1 -3.751790E+06 -9.833115E+05 -2.727989E+05 -1.415439E+06 -3.446256E+04  1.251061E+05
       327   2 -3.632914E+06 -9.256911E+05 -2.464013E+05 -1.367631E+06 -2.777391E+04  1.164775E+05
       327   3 -3.493908E+06 -8.889155E+05 -2.222849E+05 -1.343063E+06 -2.090412E+04  1.073368E+05
       327   4 -2.221240E+06 -4.293519E+05 -7.647072E+03 -9.871768E+05 -5.124910E+04  1.187481E+05
       327   5 -2.231276E+06 -4.187460E+05 -4.221628E+03 -9.756274E+05 -4.545810E+04  1.097924E+05
       327   6 -2.221027E+06 -4.288054E+05 -2.363808E+03 -9.873225E+05 -3.948689E+04  1.003250E+05
       327   7 -6.881731E+05  1.248468E+05  2.574420E+05 -5.579158E+05 -6.808016E+04  1.123735E+05
       327   8 -8.275327E+05  8.839724E+04  2.379047E+05 -5.827885E+05 -6.318513E+04  1.030912E+05
       327   9 -9.464156E+05  3.146551E+04  2.175121E+05 -6.308948E+05 -5.811043E+04  9.329782E+04
       327  10 -3.751795E+06 -9.833286E+05 -2.728305E+05 -1.415435E+06  3.108539E-09  1.083737E-10
       327  11 -3.632918E+06 -9.257059E+05 -2.464282E+05 -1.367628E+06 -7.466164E-09 -1.811844E-09
       327  12 -3.493911E+06 -8.889280E+05 -2.223073E+05 -1.343061E+06 -8.855554E-09 -2.095940E-09
       327  13 -2.221246E+06 -4.293677E+05 -7.678467E+03 -9.871719E+05 -2.325994E-09 -2.783145E-09
       327  14 -2.231281E+06 -4.187595E+05 -4.248130E+03 -9.756233E+05 -6.884493E-09 -2.140910E-09
       327  15 -2.221031E+06 -4.288166E+05 -2.385625E+03 -9.873193E+05 -3.935727E-09 -5.178534E-10
       327  16 -6.881815E+05  1.248320E+05  2.574096E+05 -5.579097E+05 -8.811171E-09 -3.643398E-09
       327  17 -8.275398E+05  8.838477E+04  2.378773E+05 -5.827832E+05 -7.952312E-09 -3.292269E-09
       327  18 -9.464216E+05  3.145527E+04  2.174894E+05 -6.308904E+05  1.382030E-09  5.102357E-10
       327  19 -3.751790E+06 -9.833115E+05 -2.727989E+05 -1.415439E+06  3.446256E+04 -1.251061E+05
       327  20 -3.632914E+06 -9.256911E+05 -2.464013E+05 -1.367631E+06  2.777391E+04 -1.164775E+05
       327  21 -3.493908E+06 -8.889155E+05 -2.222849E+05 -1.343063E+06  2.090412E+04 -1.073368E+05
       327  22 -2.221240E+06 -4.293519E+05 -7.647072E+03 -9.871768E+05  5.124910E+04 -1.187481E+05
       327  23 -2.231276E+06 -4.187460E+05 -4.221628E+03 -9.756274E+05  4.545810E+04 -1.097924E+05
       327  24 -2.221027E+06 -4.288054E+05 -2.363808E+03 -9.873225E+05  3.948689E+04 -1.003250E+05
       327  25 -6.881731E+05  1.248468E+05  2.574420E+05 -5.579158E+05  6.808016E+04 -1.123735E+05
       327  26 -8.275327E+05  8.839724E+04  2.379047E+05 -5.827885E+05  6.318513E+04 -1.030912E+05
       327  27 -9.464156E+05  3.146551E+04  2.175121E+05 -6.308948E+05  5.811043E+04 -9.329782E+04
       328   1 -3.409969E+06 -8.584427E+05 -2.065817E+05 -1.319686E+06 -1.822971E+04  1.013282E+05
       328   2 -3.289793E+06 -8.007838E+05 -1.836224E+05 -1.271341E+06 -1.353217E+04  9.103159E+04
       328   3 -3.148915E+06 -7.637793E+05 -1.611616E+05 -1.246569E+06 -8.814134E+03  8.065451E+04
       328   4 -2.220889E+06 -4.288094E+05 -1.826269E+03 -9.873721E+05 -3.682631E+04  9.431712E+04
       328   5 -2.231182E+06 -4.183828E+05 -1.163765E+03 -9.756054E+05 -3.226925E+04  8.397653E+04
       328   6 -2.220764E+06 -4.285834E+05 -8.903876E+02 -9.874164E+05 -2.769186E+04  7.355540E+04
       328   7 -1.030311E+06  9.596596E+02  2.028869E+05 -6.544625E+05 -5.546083E+04  8.729186E+04
       328   8 -1.171374E+06 -3.587059E+04  1.812643E+05 -6.793948E+05 -5.104051E+04  7.690866E+04
       328   9 -1.291684E+06 -9.329858E+04  1.593601E+05 -7.278964E+05 -4.659994E+04  6.644490E+04
       328  10 -3.409972E+06 -8.584538E+05 -2.066016E+05 -1.319684E+06 -2.425034E-10  6.643774E-10
       328  11 -3.289796E+06 -8.007927E+05 -1.836383E+05 -1.271340E+06 -1.617136E-09 -8.553502E-10
       328  12 -3.148917E+06 -7.637863E+05 -1.611739E+05 -1.246568E+06  9.429405E-10 -8.756712E-10
       328  13 -2.220892E+06 -4.288193E+05 -1.845510E+03 -9.873693E+05 -1.546756E-09  2.657189E-10
       328  14 -2.231185E+06 -4.183906E+05 -1.178955E+03 -9.756032E+05 -3.838524E-09  2.164636E-10
       328  15 -2.220766E+06 -4.285894E+05 -9.019813E+02 -9.874147E+05 -1.147805E-09  3.036437E-10
       328  16 -1.030316E+06  9.506641E+02  2.028668E+05 -6.544586E+05 -1.601687E-09 -2.280421E-10
       328  17 -1.171378E+06 -3.587763E+04  1.812483E+05 -6.793917E+05 -1.198604E-09  3.884660E-10
       328  18 -1.291688E+06 -9.330389E+04  1.593478E+05 -7.278939E+05  5.936729E-09  1.489171E-09
       328  19 -3.409969E+06 -8.584427E+05 -2.065817E+05 -1.319686E+06  1.822971E+04 -1.013282E+05
       328  20 -3.289793E+06 -8.007838E+05 -1.836224E+05 -1.271341E+06  1.353217E+04 -9.103159E+04
       328  21 -3.148915E+06 -7.637793E+05 -1.611616E+05 -1.246569E+06  8.814134E+03 -8.065451E+04
       328  22 -2.220889E+06 -4.288094E+05 -1.826269E+03 -9.873721E+05  3.682631E+04 -9.431712E+04
       328  23 -2.231182E+06 -4.183828E+05 -1.163765E+03 -9.756054E+05  3.226925E+04 -8.397653E+04
       328  24 -2.220764E+06 -4.285834E+05 -8.903876E+02 -9.874164E+05  2.769186E+04 -7.355540E+04
       328  25 -1.030311E+06  9.596596E+02  2.028869E+05 -6.544625E+05  5.546083E+04 -8.729186E+04
       328  26 -1.171374E+06 -3.587059E+04  1.812643E+05 -6.793948E+05  5.104051E+04 -7.690866E+04
       328  27 -1.291684E+06 -9.329858E+04  1.593601E+05 -7.278964E+05  4.659994E+04 -6.644490E+04
       329   1 -3.064207E+06 -7.330436E+05 -1.458868E+05 -1.222998E+06 -6.283436E+03  7.449910E+04
       329   2 -2.942911E+06 -6.750569E+05 -1.237405E+05 -1.174342E+06 -1.660256E+03  6.400837E+04
       329   3 -2.800813E+06 -6.378695E+05 -1.020203E+05 -1.149484E+06  2.964132E+03  5.349652E+04
       329   4 -2.220707E+06 -4.285740E+05 -8.898525E+02 -9.874690E+05 -2.520418E+04  6.738820E+04
       329   5 -2.231054E+06 -4.180811E+05 -1.129393E+03 -9.755891E+05 -2.061781E+04  5.688963E+04
       329   6 -2.220613E+06 -4.283805E+05 -1.767999E+03 -9.875124E+05 -1.603037E+04  4.636993E+04
       329   7 -1.376447E+06 -1.240340E+05  1.440884E+05 -7.516385E+05 -4.415238E+04  6.026700E+04
       329   8 -1.518659E+06 -1.610564E+05  1.214677E+05 -7.766226E+05 -3.959847E+04  4.976222E+04
       329   9 -1.640058E+06 -2.188603E+05  9.847437E+04 -8.253997E+05 -3.504363E+04  3.923629E+04
       329  10 -3.064208E+06 -7.330495E+05 -1.458973E+05 -1.222998E+06  4.237652E-09  3.242846E-10
       329  11 -2.942912E+06 -6.750613E+05 -1.237482E+05 -1.174342E+06 -2.212825E-09 -7.084050E-10
       329  12 -2.800814E+06 -6.378726E+05 -1.020257E+05 -1.149484E+06 -5.196782E-09 -3.074225E-10
       329  13 -2.220709E+06 -4.285791E+05 -8.995678E+02 -9.874676E+05 -2.147980E-09 -1.120312E-10
       329  14 -2.231055E+06 -4.180847E+05 -1.136265E+03 -9.755882E+05 -4.156542E-09 -1.138899E-09
       329  15 -2.220613E+06 -4.283828E+05 -1.772517E+03 -9.875118E+05 -1.693338E-09  9.075456E-11
       329  16 -1.376450E+06 -1.240384E+05  1.440779E+05 -7.516364E+05  1.317804E-09 -8.558685E-10
       329  17 -1.518662E+06 -1.610595E+05  1.214601E+05 -7.766210E+05 -2.351115E-10 -1.624273E-09
       329  18 -1.640060E+06 -2.188623E+05  9.846917E+04 -8.253986E+05  1.927106E-09  1.564524E-10
       329  19 -3.064207E+06 -7.330436E+05 -1.458868E+05 -1.222998E+06  6.283436E+03 -7.449910E+04
       329  20 -2.942911E+06 -6.750569E+05 -1.237405E+05 -1.174342E+06  1.660256E+03 -6.400837E+04
       329  21 -2.800813E+06 -6.378695E+05 -1.020203E+05 -1.149484E+06 -2.964132E+03 -5.349652E+04
       329  22 -2.220707E+06 -4.285740E+05 -8.898525E+02 -9.874690E+05  2.520418E+04 -6.738820E+04
       329  23 -2.231054E+06 -4.180811E+05 -1.129393E+03 -9.755891E+05  2.061781E+04 -5.688963E+04
       329  24 -2.220613E+06 -4.283805E+05 -1.767999E+03 -9.875124E+05  1.603037E+04 -4.636993E+04
       329  25 -1.376447E+06 -1.240340E+05  1.440884E+05 -7.516385E+05  4.415238E+04 -6.026700E+04
       329  26 -1.518659E+06 -1.610564E+05  1.214677E+05 -7.766226E+05  3.959847E+04 -4.976222E+04
       329  27 -1.640058E+06 -2.188603E+05  9.847437E+04 -8.253997E+05  3.504363E+04 -3.923629E+04
       330   1 -2.715507E+06 -6.069966E+05 -8.716657E+04 -1.125844E+06  5.688239E+03  4.737314E+04
       330   2 -2.593390E+06 -5.488055E+05 -6.638415E+04 -1.076955E+06  1.157459E+04  3.735498E+04
       330   3 -2.450681E+06 -5.117580E+05 -4.704873E+04 -1.052000E+06  1.742373E+04  2.742806E+04
       330   4 -2.220638E+06 -4.283644E+05 -2.296941E+03 -9.875749E+05 -1.334593E+04  4.023435E+04
       330   5 -2.230900E+06 -4.178385E+05 -4.066209E+03 -9.755728E+05 -7.298675E+03  3.027949E+04
       330   6 -2.220623E+06 -4.284908E+05 -7.413127E+03 -9.875134E+05 -1.289048E+03  2.041571E+04
       330   7 -1.725503E+06 -2.497055E+05  8.256886E+04 -8.492001E+05 -3.239649E+04  3.308940E+04
       330   8 -1.868266E+06 -2.868573E+05  5.825010E+04 -8.741346E+05 -2.618380E+04  2.319954E+04
       330   9 -1.990509E+06 -3.452180E+05  3.222250E+04 -9.230040E+05 -2.000923E+04  1.340056E+04
       330  10 -2.715507E+06 -6.069990E+05 -8.717085E+04 -1.125844E+06  8.846295E-10  1.903822E-09
       330  11 -2.593391E+06 -5.488071E+05 -6.638702E+04 -1.076955E+06 -5.889492E-11 -4.242366E-10
       330  12 -2.450681E+06 -5.117589E+05 -4.705072E+04 -1.052001E+06  1.219127E-09 -3.151845E-10
       330  13 -2.220639E+06 -4.283662E+05 -2.300313E+03 -9.875744E+05 -5.527104E-10  4.518956E-10
       330  14 -2.230900E+06 -4.178395E+05 -4.068030E+03 -9.755726E+05 -2.182503E-09 -1.037869E-09
       330  15 -2.220624E+06 -4.284913E+05 -7.413913E+03 -9.875134E+05 -5.794063E-10 -1.246654E-09
       330  16 -1.725504E+06 -2.497070E+05  8.256483E+04 -8.491992E+05 -1.847004E-09 -1.072758E-09
       330  17 -1.868267E+06 -2.868580E+05  5.824780E+04 -8.741341E+05 -1.618349E-10 -6.238798E-10
       330  18 -1.990510E+06 -3.452183E+05  3.222141E+04 -9.230038E+05 -1.498281E-09 -1.394589E-09
       330  19 -2.715507E+06 -6.069966E+05 -8.716657E+04 -1.125844E+06 -5.688239E+03 -4.737314E+04
       330  20 -2.593390E+06 -5.488055E+05 -6.638415E+04 -1.076955E+06 -1.157459E+04 -3.735498E+04
       330  21 -2.450681E+06 -5.117580E+05 -4.704873E+04 -1.052000E+06 -1.742373E+04 -2.742806E+04
       330  22 -2.220638E+06 -4.283644E+05 -2.296941E+03 -9.875749E+05  1.334593E+04 -4.023435E+04
       330  23 -2.230900E+06 -4.178385E+05 -4.066209E+03 -9.755728E+05  7.298675E+03 -3.027949E+04
       330  24 -2.220623E+06 -4.284908E+05 -7.413127E+03 -9.875134E+05  1.289048E+03 -2.041571E+04
       330  25 -1.725503E+06 -2.497055E+05  8.256886E+04 -8.492001E+05  3.239649E+04 -3.308940E+04
       330  26 -1.868266E+06 -2.868573E+05  5.825010E+04 -8.741346E+05  2.618380E+04 -2.319954E+04
       330  27 -1.990509E+06 -3.452180E+05  3.222250E+04 -9.230040E+05  2.000923E+04 -1.340056E+04
       331   1 -2.364952E+06 -4.811851E+05 -3.399370E+04 -1.028975E+06  2.125257E+04  2.176451E+04
       331   2 -2.243476E+06 -4.224189E+05 -1.882509E+04 -9.773706E+05  3.211252E+04  1.434243E+04
       331   3 -2.103781E+06 -3.892250E+05 -1.019424E+04 -9.487569E+05  4.254029E+04  8.076054E+03
       331   4 -2.221066E+06 -4.284197E+05 -9.879183E+03 -9.877277E+05  2.401923E+03  1.470150E+04
       331   5 -2.230491E+06 -4.191161E+05 -1.812440E+04 -9.748505E+05  1.530404E+04  8.044584E+03
       331   6 -2.222121E+06 -4.357938E+05 -3.453235E+04 -9.849726E+05  2.777252E+04  2.542709E+03
       331   7 -2.077159E+06 -3.756522E+05  1.423593E+04 -9.464711E+05 -1.645318E+04  7.636728E+03
       331   8 -2.217504E+06 -4.158132E+05 -1.742249E+04 -9.723302E+05 -1.504812E+03  1.746678E+03
       331   9 -2.340447E+06 -4.823610E+05 -5.887057E+04 -1.021182E+06  1.300762E+04 -2.989354E+03
       331  10 -2.364953E+06 -4.811858E+05 -3.399544E+04 -1.028976E+06  3.277032E-12 -3.191510E-10
       331  11 -2.243477E+06 -4.224194E+05 -1.882743E+04 -9.773710E+05 -6.168517E-10  1.844661E-10
       331  12 -2.103782E+06 -3.892256E+05 -1.019778E+04 -9.487571E+05  3.578539E-10  3.561332E-10
       331  13 -2.221067E+06 -4.284199E+05 -9.879601E+03 -9.877277E+05  4.595001E-10 -3.828852E-10
       331  14 -2.230491E+06 -4.191163E+05 -1.812497E+04 -9.748506E+05 -1.061228E-09 -1.010167E-11
       331  15 -2.222122E+06 -4.357940E+05 -3.453381E+04 -9.849726E+05  4.529195E-10  4.196683E-11
       331  16 -2.077160E+06 -3.756523E+05  1.423531E+04 -9.464710E+05  9.551657E-10 -7.196041E-11
       331  17 -2.217504E+06 -4.158132E+05 -1.742250E+04 -9.723302E+05 -1.206624E-09 -7.048986E-10
       331  18 -2.340447E+06 -4.823610E+05 -5.887090E+04 -1.021182E+06 -1.555129E-09 -1.428032E-09
       331  19 -2.364952E+06 -4.811851E+05 -3.399370E+04 -1.028975E+06 -2.125257E+04 -2.176451E+04
       331  20 -2.243476E+06 -4.224189E+05 -1.882509E+04 -9.773706E+05 -3.211252E+04 -1.434243E+04
       331  21 -2.103781E+06 -3.892250E+05 -1.019424E+04 -9.487569E+05 -4.254029E+04 -8.076054E+03
       331  22 -2.221066E+06 -4.284197E+05 -9.879183E+03 -9.877277E+05 -2.401923E+03 -1.470150E+04
       331  23 -2.230491E+06 -4.191161E+05 -1.812440E+04 -9.748505E+05 -1.530404E+04 -8.044584E+03
       331  24 -2.222121E+06 -4.357938E+05 -3.453235E+04 -9.849726E+05 -2.777252E+04 -2.542709E+03
       331  25 -2.077159E+06 -3.756522E+05  1.423593E+04 -9.464711E+05  1.645318E+04 -7.636728E+03
       331  26 -2.217504E+06 -4.158132E+05 -1.742249E+04 -9.723302E+05  1.504812E+03 -1.746678E+03
       331  27 -2.340447E+06 -4.823610E+05 -5.887057E+04 -1.021182E+06 -1.300762E+04  2.989354E+03
       332   1 -2.015328E+06 -3.648996E+05 -5.090861E+03 -9.357602E+05  5.119001E+04  4.962332E+03
       332   2 -1.923430E+06 -2.958011E+05 -1.429741E+04 -8.285531E+05  7.534846E+04  1.087332E+04
       332   3 -1.845772E+06 -3.306234E+05 -6.366135E+04 -7.229613E+05  9.474245E+04  2.950535E+04
       332   4 -2.227592E+06 -4.353244E+05 -4.598746E+04 -9.872673E+05  3.503365E+04 -1.091016E+03
       332   5 -2.228448E+06 -4.531495E+05 -8.770628E+04 -9.594951E+05  8.168596E+04  1.324114E+04
       332   6 -2.248061E+06 -5.794177E+05 -1.874729E+05 -9.333539E+05  1.235666E+05  4.029046E+04
       332   7 -2.439810E+06 -5.057474E+05 -8.688525E+04 -1.038759E+06  1.888314E+04 -7.142632E+03
       332   8 -2.533358E+06 -6.104567E+05 -1.611188E+05 -1.090366E+06  8.802000E+04  1.560649E+04
       332   9 -2.650148E+06 -8.280856E+05 -3.112883E+05 -1.143586E+06  1.523692E+05  5.105598E+04
       332  10 -2.015331E+06 -3.649003E+05 -5.095849E+03 -9.357604E+05  1.373421E-10  3.492486E-11
       332  11 -1.923437E+06 -2.958028E+05 -1.430834E+04 -8.285538E+05  1.027607E-09  4.153091E-10
       332  12 -1.845782E+06 -3.306267E+05 -6.367992E+04 -7.229636E+05  3.963727E-10  1.357492E-10
       332  13 -2.227593E+06 -4.353247E+05 -4.598978E+04 -9.872673E+05  1.043449E-09  2.157781E-10
       332  14 -2.228455E+06 -4.531515E+05 -8.771920E+04 -9.594960E+05 -3.245112E-11 -2.797342E-10
       332  15 -2.248078E+06 -5.794236E+05 -1.875048E+05 -9.333580E+05 -1.049780E-10 -1.314109E-11
       332  16 -2.439810E+06 -5.057475E+05 -8.688602E+04 -1.038759E+06  8.845434E-10 -1.897310E-10
       332  17 -2.533367E+06 -6.104590E+05 -1.611339E+05 -1.090367E+06 -2.454667E-10 -1.085194E-10
       332  18 -2.650174E+06 -8.280947E+05 -3.113371E+05 -1.143592E+06 -9.416303E-10 -1.956022E-10
       332  19 -2.015328E+06 -3.648996E+05 -5.090861E+03 -9.357602E+05 -5.119001E+04 -4.962332E+03
       332  20 -1.923430E+06 -2.958011E+05 -1.429741E+04 -8.285531E+05 -7.534846E+04 -1.087332E+04
       332  21 -1.845772E+06 -3.306234E+05 -6.366135E+04 -7.229613E+05 -9.474245E+04 -2.950535E+04
       332  22 -2.227592E+06 -4.353244E+05 -4.598746E+04 -9.872673E+05 -3.503365E+04  1.091016E+03
       332  23 -2.228448E+06 -4.531495E+05 -8.770628E+04 -9.594951E+05 -8.168596E+04 -1.324114E+04
       332  24 -2.248061E+06 -5.794177E+05 -1.874729E+05 -9.333539E+05 -1.235666E+05 -4.029046E+04
       332  25 -2.439810E+06 -5.057474E+05 -8.688525E+04 -1.038759E+06 -1.888314E+04  7.142632E+03
       332  26 -2.533358E+06 -6.104567E+05 -1.611188E+05 -1.090366E+06 -8.802000E+04 -1.560649E+04
       332  27 -2.650148E+06 -8.280856E+05 -3.112883E+05 -1.143586E+06 -1.523692E+05 -5.105598E+04
       333   1  4.255911E+05  8.223299E+04  1.181874E+05  3.310865E+04  1.130281E+05  2.159211E+03
       333   2  4.203627E+05 -6.676233E+04  2.852423E+04  9.745912E+03  7.521737E+04  6.222565E+03
       333   3  4.615383E+05 -5.006854E+04  4.907197E+03 -2.692238E+04  3.740756E+04  5.633476E+03
       333   4  6.355259E+05  1.344691E+05  1.699435E+05 -9.130219E+03  1.162938E+05  2.153788E+03
       333   5  6.121488E+05 -1.926645E+04  7.441218E+04 -2.430002E+03  7.612311E+04  6.221499E+03
       333   6  6.355673E+05 -6.934738E+03  4.654876E+04 -9.034943E+03  3.595454E+04  5.633744E+03
       333   7  8.455045E+05  1.867087E+05  2.216973E+05 -5.138339E+04  1.195606E+05  2.147922E+03
       333   8  8.039689E+05  2.822732E+04  1.202976E+05 -1.460970E+04  7.702912E+04  6.220399E+03
       333   9  8.096248E+05  3.619807E+04  8.818837E+04  8.857519E+03  3.450112E+04  5.633929E+03
       333  10  4.255774E+05  8.222955E+04  1.181634E+05  3.310846E+04  1.406759E-09 -7.605099E-10
       333  11  4.203567E+05 -6.676389E+04  2.851353E+04  9.745535E+03 -1.846747E-10  1.098820E-10
       333  12  4.615368E+05 -5.006895E+04  4.904510E+03 -2.692255E+04 -1.713887E-09 -4.791079E-10
       333  13  6.355114E+05  1.344655E+05  1.699181E+05 -9.130421E+03 -4.493769E-10  4.827570E-10
       333  14  6.121426E+05 -1.926805E+04  7.440123E+04 -2.430383E+03  2.212479E-09 -8.279810E-11
       333  15  6.355659E+05 -6.935118E+03  4.654627E+04 -9.035106E+03  8.583916E-10 -4.941659E-10
       333  16  8.454892E+05  1.867049E+05  2.216705E+05 -5.138360E+04 -7.335655E-10  4.425467E-10
       333  17  8.039625E+05  2.822569E+04  1.202864E+05 -1.461008E+04  3.062580E-10  1.439164E-10
       333  18  8.096235E+05  3.619772E+04  8.818607E+04  8.857362E+03  8.267656E-10  1.253169E-09
       333  19  4.255911E+05  8.223299E+04  1.181874E+05  3.310865E+04 -1.130281E+05 -2.159211E+03
       333  20  4.203627E+05 -6.676233E+04  2.852423E+04  9.745912E+03 -7.521737E+04 -6.222565E+03
       333  21  4.615383E+05 -5.006854E+04  4.907197E+03 -2.692238E+04 -3.740756E+04 -5.633476E+03
       333  22  6.355259E+05  1.344691E+05  1.699435E+05 -9.130219E+03 -1.162938E+05 -2.153788E+03
       333  23  6.121488E+05 -1.926645E+04  7.441218E+04 -2.430002E+03 -7.612311E+04 -6.221499E+03
       333  24  6.355673E+05 -6.934738E+03  4.654876E+04 -9.034943E+03 -3.595454E+04 -5.633744E+03
       333  25  8.455045E+05  1.867087E+05  2.216973E+05 -5.138339E+04 -1.195606E+05 -2.147922E+03
       333  26  8.039689E+05  2.822732E+04  1.202976E+05 -1.460970E+04 -7.702912E+04 -6.220399E+03
       333  27  8.096248E+05  3.619807E+04  8.818837E+04  8.857519E+03 -3.450112E+04 -5.633929E+03
       334   1  4.761313E+05 -2.313048E+04  1.917502E+03 -5.044469E+03  2.880977E+04  4.552049E+03
       334   2  4.907325E+05 -3.501242E+04 -1.250025E+04 -1.525019E+03  1.908063E+04  4.193729E+03
       334   3  5.110206E+05 -2.933623E+04 -1.619067E+04 -1.101686E+04  9.351250E+03  3.493979E+03
       334   4  6.264306E+05  1.411921E+04  3.797856E+04 -9.001893E+03  2.872192E+04  4.551754E+03
       334   5  6.235767E+05 -2.097331E+03  1.931612E+04 -2.493419E+03  1.881837E+04  4.193547E+03
       334   6  6.264381E+05 -7.276932E+02  1.150011E+04 -8.995974E+03  8.914862E+03  3.493850E+03
       334   7  7.767506E+05  5.136732E+04  7.403803E+04 -1.296028E+04  2.863405E+04  4.551459E+03
       334   8  7.564370E+05  3.081649E+04  5.113124E+04 -3.462028E+03  1.855606E+04  4.193366E+03
       334   9  7.418678E+05  2.787989E+04  3.918995E+04 -6.974708E+03  8.478394E+03  3.493718E+03
       334  10  4.761304E+05 -2.313072E+04  1.915905E+03 -5.044574E+03 -1.411233E-10 -2.369652E-10
       334  11  4.907321E+05 -3.501254E+04 -1.250097E+04 -1.525083E+03 -1.087507E-10  3.030151E-10
       334  12  5.110205E+05 -2.933627E+04 -1.619086E+04 -1.101689E+04  1.677190E-10 -1.605156E-10
       334  13  6.264297E+05  1.411897E+04  3.797697E+04 -9.001999E+03  4.842089E-10  5.799529E-10
       334  14  6.235763E+05 -2.097445E+03  1.931542E+04 -2.493482E+03  7.767313E-10  2.384120E-11
       334  15  6.264380E+05 -7.277276E+02  1.149993E+04 -8.995999E+03 -1.038091E-09 -1.838511E-10
       334  16  7.767497E+05  5.136707E+04  7.403645E+04 -1.296039E+04  2.664441E-10  2.828164E-10
       334  17  7.564366E+05  3.081638E+04  5.113056E+04 -3.462090E+03  3.541394E-10 -7.671316E-10
       334  18  7.418677E+05  2.787986E+04  3.918979E+04 -6.974732E+03  8.761098E-10  3.574450E-10
       334  19  4.761313E+05 -2.313048E+04  1.917502E+03 -5.044469E+03 -2.880977E+04 -4.552049E+03
       334  20  4.907325E+05 -3.501242E+04 -1.250025E+04 -1.525019E+03 -1.908063E+04 -4.193729E+03
       334  21  5.110206E+05 -2.933623E+04 -1.619067E+04 -1.101686E+04 -9.351250E+03 -3.493979E+03
       334  22  6.264306E+05  1.411921E+04  3.797856E+04 -9.001893E+03 -2.872192E+04 -4.551754E+03
       334  23  6.235767E+05 -2.097331E+03  1.931612E+04 -2.493419E+03 -1.881837E+04 -4.193547E+03
       334  24  6.264381E+05 -7.276932E+02  1.150011E+04 -8.995974E+03 -8.914862E+03 -3.493850E+03
       334  25  7.767506E+05  5.136732E+04  7.403803E+04 -1.296028E+04 -2.863405E+04 -4.551459E+03
       334  26  7.564370E+05  3.081649E+04  5.113124E+04 -3.462028E+03 -1.855606E+04 -4.193366E+03
       334  27  7.418678E+05  2.787989E+04  3.918995E+04 -6.974708E+03 -8.478394E+03 -3.493718E+03
       335   1  5.331821E+05 -2.137414E+04 -1.302740E+04 -8.666498E+03  7.434477E+03  3.034508E+03
       335   2  5.499455E+05 -1.881933E+04 -1.304227E+04 -2.527300E+03  4.976652E+03  2.359512E+03
       335   3  5.675031E+05 -1.441795E+04 -1.099371E+04 -9.194613E+03  2.518699E+03  1.661994E+03
       335   4  6.253454E+05  1.452744E+03  9.003421E+03 -8.952490E+03  7.100690E+03  3.034397E+03
       335   5  6.249483E+05 -2.356071E+02  4.922299E+03 -2.549122E+03  4.631168E+03  2.359427E+03
       335   6  6.253471E+05 -7.542747E+01  2.912539E+03 -8.952166E+03  2.161584E+03  1.661935E+03
       335   7  7.175164E+05  2.427901E+04  3.103365E+04 -9.238525E+03  6.766853E+03  3.034287E+03
       335   8  6.999561E+05  1.834771E+04  2.288647E+04 -2.570947E+03  4.285641E+03  2.359342E+03
       335   9  6.831942E+05  1.426685E+04  1.681855E+04 -8.709696E+03  1.804436E+03  1.661875E+03
       335  10  5.331821E+05 -2.137416E+04 -1.302753E+04 -8.666517E+03  9.687502E-10 -3.385085E-10
       335  11  5.499455E+05 -1.881935E+04 -1.304232E+04 -2.527309E+03 -1.485771E-09 -4.671067E-10
       335  12  5.675031E+05 -1.441795E+04 -1.099373E+04 -9.194617E+03  4.943948E-10 -6.319668E-10
       335  13  6.253453E+05  1.452720E+03  9.003309E+03 -8.952508E+03  1.010629E-09  1.663799E-10
       335  14  6.249482E+05 -2.356188E+02  4.922248E+03 -2.549131E+03 -5.470940E-11  8.548798E-12
       335  15  6.253471E+05 -7.543169E+01  2.912525E+03 -8.952169E+03  1.554386E-09 -7.937257E-10
       335  16  7.175164E+05  2.427899E+04  3.103355E+04 -9.238542E+03 -1.361337E-09  7.577122E-10
       335  17  6.999561E+05  1.834770E+04  2.288642E+04 -2.570955E+03  1.753118E-10 -1.910156E-10
       335  18  6.831942E+05  1.426684E+04  1.681854E+04 -8.709698E+03  2.649612E-10 -4.056108E-10
       335  19  5.331821E+05 -2.137414E+04 -1.302740E+04 -8.666498E+03 -7.434477E+03 -3.034508E+03
       335  20  5.499455E+05 -1.881933E+04 -1.304227E+04 -2.527300E+03 -4.976652E+03 -2.359512E+03
       335  21  5.675031E+05 -1.441795E+04 -1.099371E+04 -9.194613E+03 -2.518699E+03 -1.661994E+03
       335  22  6.253454E+05  1.452744E+03  9.003421E+03 -8.952490E+03 -7.100690E+03 -3.034397E+03
       335  23  6.249483E+05 -2.356071E+02  4.922299E+03 -2.549122E+03 -4.631168E+03 -2.359427E+03
       335  24  6.253471E+05 -7.542747E+01  2.912539E+03 -8.952166E+03 -2.161584E+03 -1.661935E+03
       335  25  7.175164E+05  2.427901E+04  3.103365E+04 -9.238525E+03 -6.766853E+03 -3.034287E+03
       335  26  6.999561E+05  1.834771E+04  2.288647E+04 -2.570947E+03 -4.285641E+03 -2.359342E+03
       335  27  6.831942E+05  1.426685E+04  1.681855E+04 -8.709696E+03 -1.804436E+03 -1.661875E+03
       336   1  5.903448E+05 -8.485403E+03 -6.024426E+03 -8.931834E+03  2.045070E+03  1.253398E+03
       336   2  6.073091E+05 -4.445598E+03 -2.889351E+03 -2.587953E+03  1.360227E+03  5.604485E+02
       336   3  6.244169E+05 -2.076698E+02  7.417686E+02 -8.959634E+03  6.753292E+02 -1.334917E+02
       336   4  6.252026E+05  1.409424E+02  2.272958E+03 -8.932084E+03  1.695918E+03  1.253350E+03
       336   5  6.251312E+05 -2.987237E+01  1.379293E+03 -2.574307E+03  1.010533E+03  5.604061E+02
       336   6  6.252029E+05 -2.524028E+00  9.819678E+02 -8.932068E+03  3.251127E+02 -1.335276E+02
       336   7  6.600615E+05  8.767200E+03  1.057026E+04 -8.932333E+03  1.346746E+03  1.253302E+03
       336   8  6.429536E+05  4.385831E+03  5.647914E+03 -2.560660E+03  6.608296E+02  5.603636E+02
       336   9  6.259890E+05  2.026217E+02  1.222167E+03 -8.904502E+03 -2.510436E+01 -1.335635E+02
       336  10  5.903448E+05 -8.485405E+03 -6.024437E+03 -8.931836E+03  9.409785E-10 -2.358632E-10
       336  11  6.073091E+05 -4.445599E+03 -2.889355E+03 -2.587954E+03  5.606868E-10  7.739266E-10
       336  12  6.244169E+05 -2.076699E+02  7.417677E+02 -8.959634E+03 -1.472586E-09  1.379537E-11
       336  13  6.252026E+05  1.409399E+02  2.272950E+03 -8.932085E+03  1.128456E-09 -1.403357E-10
       336  14  6.251312E+05 -2.987298E+01  1.379290E+03 -2.574307E+03  1.467578E-09  4.549689E-10
       336  15  6.252029E+05 -2.524075E+00  9.819676E+02 -8.932068E+03 -1.479997E-09  1.554671E-10
       336  16  6.600615E+05  8.767198E+03  1.057025E+04 -8.932335E+03 -3.266570E-10 -1.990529E-10
       336  17  6.429536E+05  4.385830E+03  5.647913E+03 -2.560660E+03 -2.270994E-12  1.378389E-10
       336  18  6.259890E+05  2.026217E+02  1.222167E+03 -8.904502E+03 -4.316313E-10  2.548482E-10
       336  19  5.903448E+05 -8.485403E+03 -6.024426E+03 -8.931834E+03 -2.045070E+03 -1.253398E+03
       336  20  6.073091E+05 -4.445598E+03 -2.889351E+03 -2.587953E+03 -1.360227E+03 -5.604485E+02
       336  21  6.244169E+05 -2.076698E+02  7.417686E+02 -8.959634E+03 -6.753292E+02  1.334917E+02
       336  22  6.252026E+05  1.409424E+02  2.272958E+03 -8.932084E+03 -1.695918E+03 -1.253350E+03
       336  23  6.251312E+05 -2.987237E+01  1.379293E+03 -2.574307E+03 -1.010533E+03 -5.604061E+02
       336  24  6.252029E+05 -2.524028E+00  9.819678E+02 -8.932068E+03 -3.251127E+02  1.335276E+02
       336  25  6.600615E+05  8.767200E+03  1.057026E+04 -8.932333E+03 -1.346746E+03 -1.253302E+03
       336  26  6.429536E+05  4.385831E+03  5.647914E+03 -2.560660E+03 -6.608296E+02 -5.603636E+02
       336  27  6.259890E+05  2.026217E+02  1.222167E+03 -8.904502E+03  2.510436E+01  1.335635E+02
       337   1  6.473293E+05  5.502194E+03  6.254262E+03 -8.926475E+03  5.054620E+02 -5.377512E+02
       337   2  6.643469E+05  9.694100E+03  1.032290E+04 -2.562633E+03  4.175452E+01 -1.232337E+03
       337   3  6.814599E+05  1.399977E+04  1.472291E+04 -8.935427E+03 -4.219077E+02 -1.926704E+03
       337   4  6.251921E+05  7.095853E+00  9.003422E+02 -8.936771E+03  1.550803E+02 -5.377897E+02
       337   5  6.251444E+05 -1.862183E+01  9.336750E+02 -2.568432E+03 -3.084986E+02 -1.232390E+03
       337   6  6.251918E+05  6.943225E+01  1.298321E+03 -8.936780E+03 -7.720197E+02 -1.926769E+03
       337   7  6.030554E+05 -5.488038E+03 -4.453613E+03 -8.947065E+03 -1.952889E+02 -5.378282E+02
       337   8  5.859433E+05 -9.731455E+03 -8.455660E+03 -2.574231E+03 -6.587298E+02 -1.232442E+03
       337   9  5.689266E+05 -1.386114E+04 -1.212649E+04 -8.938133E+03 -1.122100E+03 -1.926834E+03
       337  10  6.473293E+05  5.502193E+03  6.254261E+03 -8.926475E+03 -8.816401E-10 -5.137111E-10
       337  11  6.643469E+05  9.694099E+03  1.032290E+04 -2.562633E+03  4.251676E-10  1.064134E-10
       337  12  6.814599E+05  1.399977E+04  1.472291E+04 -8.935427E+03 -1.127938E-09  3.879126E-10
       337  13  6.251921E+05  7.095536E+00  9.003416E+02 -8.936771E+03  4.764840E-10  1.508456E-10
       337  14  6.251444E+05 -1.862349E+01  9.336720E+02 -2.568432E+03 -1.204050E-09  4.447637E-10
       337  15  6.251918E+05  6.942810E+01  1.298313E+03 -8.936781E+03 -1.098929E-09  4.718938E-10
       337  16  6.030554E+05 -5.488038E+03 -4.453613E+03 -8.947065E+03  3.525578E-10  1.972765E-10
       337  17  5.859433E+05 -9.731457E+03 -8.455664E+03 -2.574231E+03 -6.156470E-10  2.971026E-10
       337  18  5.689266E+05 -1.386114E+04 -1.212650E+04 -8.938134E+03 -3.330604E-10  4.406376E-10
       337  19  6.473293E+05  5.502194E+03  6.254262E+03 -8.926475E+03 -5.054620E+02  5.377512E+02
       337  20  6.643469E+05  9.694100E+03  1.032290E+04 -2.562633E+03 -4.175452E+01  1.232337E+03
       337  21  6.814599E+05  1.399977E+04  1.472291E+04 -8.935427E+03  4.219077E+02  1.926704E+03
       337  22  6.251921E+05  7.095853E+00  9.003422E+02 -8.936771E+03 -1.550803E+02  5.377897E+02
       337  23  6.251444E+05 -1.862183E+01  9.336750E+02 -2.568432E+03  3.084986E+02  1.232390E+03
       337  24  6.251918E+05  6.943225E+01  1.298321E+03 -8.936780E+03  7.720197E+02  1.926769E+03
       337  25  6.030554E+05 -5.488038E+03 -4.453613E+03 -8.947065E+03  1.952889E+02  5.378282E+02
       337  26  5.859433E+05 -9.731455E+03 -8.455660E+03 -2.574231E+03  6.587298E+02  1.232442E+03
       337  27  5.689266E+05 -1.386114E+04 -1.212649E+04 -8.938133E+03  1.122100E+03  1.926834E+03
       338   1  7.045982E+05  1.962500E+04  2.064877E+04 -8.836889E+03 -6.730750E+02 -2.336972E+03
       338   2  7.216315E+05  2.380390E+04  2.571844E+04 -2.531021E+03 -1.983557E+03 -3.037145E+03
       338   3  7.390915E+05  2.893360E+04  3.188203E+04 -9.097538E+03 -3.293920E+03 -3.713050E+03
       338   4  6.252642E+05 -4.047544E+01  1.596770E+03 -8.966890E+03 -1.032167E+03 -2.337055E+03
       338   5  6.250513E+05 -1.237019E+02  2.587987E+03 -2.530743E+03 -2.330229E+03 -3.037259E+03
       338   6  6.252629E+05  7.418968E+02  4.664713E+03 -8.967102E+03 -3.628137E+03 -3.713194E+03
       338   7  5.459359E+05 -1.970641E+04 -1.745567E+04 -9.096876E+03 -1.391214E+03 -2.337138E+03
       338   8  5.284796E+05 -2.405198E+04 -2.054313E+04 -2.530465E+03 -2.676848E+03 -3.037373E+03
       338   9  5.114462E+05 -2.745075E+04 -2.255351E+04 -8.836690E+03 -3.962293E+03 -3.713338E+03
       338  10  7.045982E+05  1.962500E+04  2.064875E+04 -8.836890E+03 -1.582559E-09  4.573857E-10
       338  11  7.216315E+05  2.380389E+04  2.571842E+04 -2.531026E+03 -8.497204E-10 -3.876483E-10
       338  12  7.390915E+05  2.893358E+04  3.188198E+04 -9.097548E+03 -1.644593E-09 -1.048586E-10
       338  13  6.252642E+05 -4.048159E+01  1.596758E+03 -8.966892E+03  1.218272E-10  3.465908E-10
       338  14  6.250513E+05 -1.237133E+02  2.587960E+03 -2.530748E+03 -8.323852E-10 -4.457073E-10
       338  15  6.252629E+05  7.418785E+02  4.664663E+03 -8.967113E+03 -5.821311E-11 -1.407609E-10
       338  16  5.459359E+05 -1.970642E+04 -1.745569E+04 -9.096878E+03  4.385190E-10  3.762403E-11
       338  17  5.284796E+05 -2.405200E+04 -2.054316E+04 -2.530471E+03  8.666271E-10 -6.258373E-10
       338  18  5.114462E+05 -2.745076E+04 -2.255357E+04 -8.836702E+03  2.192335E-10  4.472493E-10
       338  19  7.045982E+05  1.962500E+04  2.064877E+04 -8.836889E+03  6.730750E+02  2.336972E+03
       338  20  7.216315E+05  2.380390E+04  2.571844E+04 -2.531021E+03  1.983557E+03  3.037145E+03
       338  21  7.390915E+05  2.893360E+04  3.188203E+04 -9.097538E+03  3.293920E+03  3.713050E+03
       338  22  6.252642E+05 -4.047544E+01  1.596770E+03 -8.966890E+03  1.032167E+03  2.337055E+03
       338  23  6.250513E+05 -1.237019E+02  2.587987E+03 -2.530743E+03  2.330229E+03  3.037259E+03
       338  24  6.252629E+05  7.418968E+02  4.664713E+03 -8.967102E+03  3.628137E+03  3.713194E+03
       338  25  5.459359E+05 -1.970641E+04 -1.745567E+04 -9.096876E+03  1.391214E+03  2.337138E+03
       338  26  5.284796E+05 -2.405198E+04 -2.054313E+04 -2.530465E+03  2.676848E+03  3.037373E+03
       338  27  5.114462E+05 -2.745075E+04 -2.255351E+04 -8.836690E+03  3.962293E+03  3.713338E+03
       339   1  7.630701E+05  3.363160E+04  3.885555E+04 -7.957345E+03 -4.119132E+03 -4.179993E+03
       339   2  7.791585E+05  3.726938E+04  4.702431E+04 -2.930299E+03 -9.412454E+03 -4.882308E+03
       339   3  7.982454E+05  4.998321E+04  6.091372E+04 -1.101643E+04 -1.470600E+04 -5.207653E+03
       339   4  6.258264E+05 -3.793197E+02  5.942322E+03 -9.019353E+03 -4.566853E+03 -4.180198E+03
       339   5  6.243413E+05 -1.083815E+03  9.951421E+03 -2.464567E+03 -9.668874E+03 -4.882508E+03
       339   6  6.258219E+05  7.255800E+03  1.954944E+04 -9.023094E+03 -1.477097E+04 -5.207830E+03
       339   7  4.885999E+05 -3.439160E+04 -2.697224E+04 -1.008113E+04 -5.014475E+03 -4.180401E+03
       339   8  4.695461E+05 -3.943874E+04 -2.712316E+04 -1.998954E+03 -9.925231E+03 -4.882708E+03
       339   9  4.534256E+05 -3.547375E+04 -2.181695E+04 -7.030319E+03 -1.483592E+04 -5.208009E+03
       339  10  7.630701E+05  3.363158E+04  3.885549E+04 -7.957358E+03 -2.869205E-10 -2.134139E-10
       339  11  7.791584E+05  3.726933E+04  4.702410E+04 -2.930336E+03 -7.728219E-10 -5.778647E-10
       339  12  7.982452E+05  4.998312E+04  6.091326E+04 -1.101649E+04 -1.102442E-09 -9.323856E-10
       339  13  6.258264E+05 -3.793441E+02  5.942250E+03 -9.019368E+03 -8.945531E-10  2.158527E-10
       339  14  6.243412E+05 -1.083865E+03  9.951201E+03 -2.464605E+03 -1.289478E-10 -2.996119E-10
       339  15  6.258217E+05  7.255713E+03  1.954897E+04 -9.023156E+03 -1.617779E-09 -1.135852E-09
       339  16  4.885999E+05 -3.439163E+04 -2.697232E+04 -1.008114E+04  4.102581E-10  8.693195E-10
       339  17  4.695460E+05 -3.943879E+04 -2.712339E+04 -1.998993E+03  1.211616E-10  1.362713E-09
       339  18  4.534254E+05 -3.547384E+04 -2.181742E+04 -7.030382E+03  1.304089E-09 -1.060696E-09
       339  19  7.630701E+05  3.363160E+04  3.885555E+04 -7.957345E+03  4.119132E+03  4.179993E+03
       339  20  7.791585E+05  3.726938E+04  4.702431E+04 -2.930299E+03  9.412454E+03  4.882308E+03
       339  21  7.982454E+05  4.998321E+04  6.091372E+04 -1.101643E+04  1.470600E+04  5.207653E+03
       339  22  6.258264E+05 -3.793197E+02  5.942322E+03 -9.019353E+03  4.566853E+03  4.180198E+03
       339  23  6.243413E+05 -1.083815E+03  9.951421E+03 -2.464567E+03  9.668874E+03  4.882508E+03
       339  24  6.258219E+05  7.255800E+03  1.954944E+04 -9.023094E+03  1.477097E+04  5.207830E+03
       339  25  4.885999E+05 -3.439160E+04 -2.697224E+04 -1.008113E+04  5.014475E+03  4.180401E+03
       339  26  4.695461E+05 -3.943874E+04 -2.712316E+04 -1.998954E+03  9.925231E+03  4.882708E+03
       339  27  4.534256E+05 -3.547375E+04 -2.181695E+04 -7.030319E+03  1.483592E+04  5.208009E+03
       340   1  8.269347E+05  4.508154E+04  7.093850E+04  1.926018E+02 -1.692089E+04 -6.359461E+03
       340   2  8.327959E+05  4.315561E+04  8.956072E+04 -8.590426E+03 -4.018989E+04 -6.928061E+03
       340   3  8.632224E+05  1.271154E+05  1.448047E+05 -3.077991E+04 -6.346374E+04 -2.355378E+03
       340   4  6.305260E+05 -3.577549E+03  2.395773E+04 -9.068270E+03 -1.849346E+04 -6.360267E+03
       340   5  6.184532E+05 -9.922536E+03  3.828575E+04 -2.394372E+03 -3.916278E+04 -6.927886E+03
       340   6  6.305028E+05  6.918237E+04  8.744022E+04 -9.126460E+03 -5.983616E+04 -2.354598E+03
       340   7  4.341528E+05 -5.223911E+04 -2.302571E+04 -1.832621E+04 -2.006553E+04 -6.361026E+03
       340   8  4.041527E+05 -6.300386E+04 -1.299244E+04  3.799528E+03 -3.813602E+04 -6.927691E+03
       340   9  3.978335E+05  1.124705E+04  3.007208E+04  1.251886E+04 -5.620994E+04 -2.353565E+03
       340  10  8.269343E+05  4.508142E+04  7.093788E+04  1.925152E+02 -1.879917E-09 -1.353445E-09
       340  11  8.327942E+05  4.315513E+04  8.955760E+04 -8.590650E+03 -3.742348E-09 -2.226789E-09
       340  12  8.632181E+05  1.271144E+05  1.447971E+05 -3.078003E+04 -7.523062E-10 -4.927930E-10
       340  13  6.305256E+05 -3.577684E+03  2.395701E+04 -9.068364E+03 -2.465659E-09 -3.607064E-09
       340  14  6.184516E+05 -9.922999E+03  3.828278E+04 -2.394591E+03  4.747826E-10  1.656275E-09
       340  15  6.304990E+05  6.918141E+04  8.743349E+04 -9.126573E+03 -8.014607E-10  4.704090E-11
       340  16  4.341523E+05 -5.223926E+04 -2.302654E+04 -1.832631E+04 -2.639706E-10 -1.793530E-09
       340  17  4.041511E+05 -6.300431E+04 -1.299526E+04  3.799315E+03  2.222469E-09  1.258997E-09
       340  18  3.978301E+05  1.124620E+04  3.006614E+04  1.251876E+04  1.226186E-09 -5.131945E-10
       340  19  8.269347E+05  4.508154E+04  7.093850E+04  1.926018E+02  1.692089E+04  6.359461E+03
       340  20  8.327959E+05  4.315561E+04  8.956072E+04 -8.590426E+03  4.018989E+04  6.928061E+03
       340  21  8.632224E+05  1.271154E+05  1.448047E+05 -3.077991E+04  6.346374E+04  2.355378E+03
       340  22  6.305260E+05 -3.577549E+03  2.395773E+04 -9.068270E+03  1.849346E+04  6.360267E+03
       340  23  6.184532E+05 -9.922536E+03  3.828575E+04 -2.394372E+03  3.916278E+04  6.927886E+03
       340  24  6.305028E+05  6.918237E+04  8.744022E+04 -9.126460E+03  5.983616E+04  2.354598E+03
       340  25  4.341528E+05 -5.223911E+04 -2.302571E+04 -1.832621E+04  2.006553E+04  6.361026E+03
       340  26  4.041527E+05 -6.300386E+04 -1.299244E+04  3.799528E+03  3.813602E+04  6.927691E+03
       340  27  3.978335E+05  1.124705E+04  3.007208E+04  1.251886E+04  5.620994E+04  2.353565E+03
       341   1  1.807683E+06  7.377218E+06  1.828789E+06 -8.973466E+05  6.044611E+04  2.007734E+05
       341   2  1.246147E+06  5.748446E+06  1.308591E+06 -2.841523E+05  1.658108E+05  7.356748E+04
       341   3  8.922794E+05  4.204891E+06  9.252316E+05 -8.443344E+05  1.093310E+05 -5.418871E+04
       341   4  1.353963E+05  6.412716E+05  1.728748E+05 -8.371073E+05  6.081729E+04  1.056273E+05
       341   5 -2.350274E+04  6.082275E+05  8.290444E+04 -2.503564E+05  1.659757E+05  6.124308E+04
       341   6  1.196381E+04  6.443351E+05  7.339263E+04 -8.375216E+05  1.087089E+05  1.597885E+04
       341   7 -1.540237E+06 -6.053702E+06 -1.486344E+06 -7.774569E+05  6.117286E+04  1.149765E+04
       341   8 -1.295054E+06 -4.507917E+06 -1.144637E+06 -2.167996E+05  1.661400E+05  4.901792E+04
       341   9 -8.692655E+05 -2.904650E+06 -7.793225E+05 -8.307135E+05  1.080863E+05  8.574754E+04
       341  10  1.807668E+06  7.377174E+06  1.828707E+06 -8.973563E+05 -6.982194E-10  4.798486E-09
       341  11  1.246116E+06  5.748433E+06  1.308530E+06 -2.841621E+05 -6.763922E-10  8.825010E-10
       341  12  8.922658E+05  4.204884E+06  9.252037E+05 -8.443296E+05  4.185721E-09 -4.223480E-09
       341  13  1.353893E+05  6.412586E+05  1.728469E+05 -8.371125E+05  7.801767E-10 -1.192091E-10
       341  14 -2.353334E+04  6.082160E+05  8.284560E+04 -2.503646E+05 -7.885896E-09  6.141061E-09
       341  15  1.195104E+04  6.443316E+05  7.336993E+04 -8.375230E+05  2.672248E-10 -1.164265E-09
       341  16 -1.540241E+06 -6.053703E+06 -1.486351E+06 -7.774575E+05 -9.384479E-10 -6.847612E-09
       341  17 -1.295084E+06 -4.507927E+06 -1.144693E+06 -2.168062E+05  1.166638E-09  6.038704E-09
       341  18 -8.692801E+05 -2.904661E+06 -7.793584E+05 -8.307210E+05 -1.939473E-09  4.571538E-09
       341  19  1.807683E+06  7.377218E+06  1.828789E+06 -8.973466E+05 -6.044611E+04 -2.007734E+05
       341  20  1.246147E+06  5.748446E+06  1.308591E+06 -2.841523E+05 -1.658108E+05 -7.356748E+04
       341  21  8.922794E+05  4.204891E+06  9.252316E+05 -8.443344E+05 -1.093310E+05  5.418871E+04
       341  22  1.353963E+05  6.412716E+05  1.728748E+05 -8.371073E+05 -6.081729E+04 -1.056273E+05
       341  23 -2.350274E+04  6.082275E+05  8.290444E+04 -2.503564E+05 -1.659757E+05 -6.124308E+04
       341  24  1.196381E+04  6.443351E+05  7.339263E+04 -8.375216E+05 -1.087089E+05 -1.597885E+04
       341  25 -1.540237E+06 -6.053702E+06 -1.486344E+06 -7.774569E+05 -6.117286E+04 -1.149765E+04
       341  26 -1.295054E+06 -4.507917E+06 -1.144637E+06 -2.167996E+05 -1.661400E+05 -4.901792E+04
       341  27 -8.692655E+05 -2.904650E+06 -7.793225E+05 -8.307135E+05 -1.080863E+05 -8.574754E+04
       342   1  3.815326E+05  2.068440E+06  4.139794E+05 -8.563679E+05  4.690080E+04 -2.337238E+04
       342   2 -3.650074E+04  4.954140E+05  4.336120E+04 -2.479640E+05 -3.691714E+03 -6.244109E+04
       342   3 -3.701582E+05 -1.075207E+06 -2.867179E+05 -8.116980E+05 -5.381049E+04 -1.013938E+05
       342   4  2.568856E+04  6.319381E+05  7.067631E+04 -8.369869E+05  4.664024E+04  2.472276E+03
       342   5 -2.643649E+03  6.318281E+05  7.603747E+04 -2.508161E+05 -3.942017E+03 -3.685422E+04
       342   6  5.359607E+04  6.318493E+05  1.222425E+05 -8.367178E+05 -5.405555E+04 -7.616106E+04
       342   7 -3.303035E+05 -8.026758E+05 -2.727697E+05 -8.176447E+05  4.638096E+04  2.825755E+04
       342   8  3.121247E+04  7.682606E+05  1.087149E+05 -2.536688E+05 -4.192527E+03 -1.126175E+04
       342   9  4.771407E+05  2.341579E+06  5.309994E+05 -8.617982E+05 -5.430229E+04 -5.085894E+04
       342  10  3.815301E+05  2.068439E+06  4.139743E+05 -8.563671E+05  3.157911E-10 -1.702694E-10
       342  11 -3.650180E+04  4.954098E+05  4.335385E+04 -2.479642E+05  2.152394E-09  2.691920E-09
       342  12 -3.701640E+05 -1.075219E+06 -2.867427E+05 -8.117024E+05 -7.219257E-10  1.804210E-09
       342  13  2.568622E+04  6.319375E+05  7.067221E+04 -8.369870E+05 -8.243383E-10 -1.149996E-10
       342  14 -2.644030E+03  6.318266E+05  7.603489E+04 -2.508162E+05  5.799155E-09  9.958432E-09
       342  15  5.359137E+04  6.318423E+05  1.222261E+05 -8.367211E+05  1.052004E-08 -1.373731E-09
       342  16 -3.303060E+05 -8.026773E+05 -2.727752E+05 -8.176458E+05 -2.913159E-09 -9.522139E-09
       342  17  3.121241E+04  7.682604E+05  1.087146E+05 -2.536689E+05 -7.198924E-09  7.310509E-09
       342  18  4.771368E+05  2.341575E+06  5.309890E+05 -8.618004E+05  9.384190E-10 -7.007355E-10
       342  19  3.815326E+05  2.068440E+06  4.139794E+05 -8.563679E+05 -4.690080E+04  2.337238E+04
       342  20 -3.650074E+04  4.954140E+05  4.336120E+04 -2.479640E+05  3.691714E+03  6.244109E+04
       342  21 -3.701582E+05 -1.075207E+06 -2.867179E+05 -8.116980E+05  5.381049E+04  1.013938E+05
       342  22  2.568856E+04  6.319381E+05  7.067631E+04 -8.369869E+05 -4.664024E+04 -2.472276E+03
       342  23 -2.643649E+03  6.318281E+05  7.603747E+04 -2.508161E+05  3.942017E+03  3.685422E+04
       342  24  5.359607E+04  6.318493E+05  1.222425E+05 -8.367178E+05  5.405555E+04  7.616106E+04
       342  25 -3.303035E+05 -8.026758E+05 -2.727697E+05 -8.176447E+05 -4.638096E+04 -2.825755E+04
       342  26  3.121247E+04  7.682606E+05  1.087149E+05 -2.536688E+05  4.192527E+03  1.126175E+04
       342  27  4.771407E+05  2.341579E+06  5.309994E+05 -8.617982E+05  5.430229E+04  5.085894E+04
       343   1 -9.528914E+05 -3.156802E+06 -7.710654E+05 -8.636285E+05 -1.162072E+05 -1.711215E+05
       343   2 -1.400893E+06 -4.806755E+06 -1.074650E+06 -1.936992E+05 -1.740374E+05 -2.045719E+05
       343   3 -1.350975E+06 -6.305673E+06 -1.228147E+06 -6.988360E+05 -6.343029E+04 -2.370996E+05
       343   4 -4.635369E+03  6.646307E+05  1.468925E+05 -8.379260E+05 -1.168267E+05 -1.002814E+05
       343   5 -6.105761E+04  5.818618E+05  2.185531E+05 -2.501734E+05 -1.738457E+05 -2.190174E+05
       343   6  3.931741E+05  6.613482E+05  4.985190E+05 -8.366700E+05 -6.306452E+04 -3.369306E+05
       343   7  9.425664E+05  4.499487E+06  1.063834E+06 -8.120248E+05 -1.174383E+05 -2.900372E+04
       343   8  1.276673E+06  5.997197E+06  1.509699E+06 -3.071012E+05 -1.736525E+05 -2.335820E+05
       343   9  2.133753E+06  7.672791E+06  2.221614E+06 -9.760066E+05 -6.265718E+04 -4.378721E+05
       343  10 -9.529139E+05 -3.156837E+06 -7.711463E+05 -8.636446E+05  2.740542E-09 -2.756111E-09
       343  11 -1.400937E+06 -4.806809E+06 -1.074786E+06 -1.937279E+05  1.135062E-09  1.642969E-09
       343  12 -1.350995E+06 -6.305735E+06 -1.228261E+06 -6.988481E+05 -3.323294E-10  1.590488E-09
       343  13 -4.652749E+03  6.646162E+05  1.468479E+05 -8.379355E+05 -2.899923E-09 -6.463933E-11
       343  14 -6.110295E+04  5.818022E+05  2.184062E+05 -2.502041E+05  1.490599E-09  5.371859E-09
       343  15  3.931393E+05  6.612253E+05  4.982983E+05 -8.366872E+05 -1.214532E-09 -1.692566E-10
       343  16  9.425513E+05  4.499482E+06  1.063807E+06 -8.120276E+05  5.467639E-09 -6.017848E-09
       343  17  1.276626E+06  5.997131E+06  1.509540E+06 -3.071338E+05 -7.626528E-10  3.198154E-09
       343  18  2.133698E+06  7.672586E+06  2.221251E+06 -9.760286E+05 -1.977730E-09 -1.437265E-09
       343  19 -9.528914E+05 -3.156802E+06 -7.710654E+05 -8.636285E+05  1.162072E+05  1.711215E+05
       343  20 -1.400893E+06 -4.806755E+06 -1.074650E+06 -1.936992E+05  1.740374E+05  2.045719E+05
       343  21 -1.350975E+06 -6.305673E+06 -1.228147E+06 -6.988360E+05  6.343029E+04  2.370996E+05
       343  22 -4.635369E+03  6.646307E+05  1.468925E+05 -8.379260E+05  1.168267E+05  1.002814E+05
       343  23 -6.105761E+04  5.818618E+05  2.185531E+05 -2.501734E+05  1.738457E+05  2.190174E+05
       343  24  3.931741E+05  6.613482E+05  4.985190E+05 -8.366700E+05  6.306452E+04  3.369306E+05
       343  25  9.425664E+05  4.499487E+06  1.063834E+06 -8.120248E+05  1.174383E+05  2.900372E+04
       343  26  1.276673E+06  5.997197E+06  1.509699E+06 -3.071012E+05  1.736525E+05  2.335820E+05
       343  27  2.133753E+06  7.672791E+06  2.221614E+06 -9.760066E+05  6.265718E+04  4.378721E+05
       344   1 -8.614039E+05 -3.711259E+05 -1.871135E+05 -3.725134E+05 -9.831614E+04 -3.183777E+04
       344   2 -8.271646E+05 -2.709902E+05 -1.061609E+05 -3.547756E+05 -6.042620E+04 -5.870623E+03
       344   3 -8.097321E+05 -2.195608E+05 -6.811388E+04 -3.329587E+05 -1.958642E+04  1.226309E+04
       344   4 -5.669714E+05 -2.038026E+05 -1.014875E+05 -2.331752E+05 -6.804894E+04 -2.047609E+04
       344   5 -5.548574E+05 -1.431695E+05 -4.852138E+04 -2.494602E+05 -4.686172E+04 -7.783883E+02
       344   6 -5.562297E+05 -1.279226E+05 -2.520530E+04 -2.616702E+05 -2.272769E+04  1.108222E+04
       344   7 -2.724492E+05 -3.643604E+04 -1.586675E+04 -9.376807E+04 -3.776679E+04 -9.101769E+03
       344   8 -2.824716E+05 -1.532735E+04  9.114881E+03 -1.440975E+05 -3.329098E+04  4.317783E+03
       344   9 -3.026568E+05 -3.627699E+04  1.770221E+04 -1.903539E+05 -2.587034E+04  9.900829E+03
       344  10 -8.614145E+05 -3.711296E+05 -1.871336E+05 -3.725159E+05  1.764333E-09  8.774375E-10
       344  11 -8.271685E+05 -2.709912E+05 -1.061678E+05 -3.547759E+05  2.353559E-10 -4.368714E-10
       344  12 -8.097325E+05 -2.195611E+05 -6.811489E+04 -3.329585E+05 -1.491312E-09  5.488900E-10
       344  13 -5.669765E+05 -2.038043E+05 -1.014970E+05 -2.331763E+05 -2.206981E-11  1.645447E-10
       344  14 -5.548598E+05 -1.431701E+05 -4.852551E+04 -2.494602E+05 -1.930961E-10 -1.219281E-09
       344  15 -5.562303E+05 -1.279229E+05 -2.520650E+04 -2.616700E+05 -1.578282E-09 -1.042483E-09
       344  16 -2.724508E+05 -3.643651E+04 -1.586959E+04 -9.376835E+04 -3.292261E-09 -2.342636E-09
       344  17 -2.824728E+05 -1.532767E+04  9.112762E+03 -1.440973E+05  9.149342E-10 -3.390947E-09
       344  18 -3.026576E+05 -3.627728E+04  1.770077E+04 -1.903537E+05  1.136765E-10 -1.364154E-09
       344  19 -8.614039E+05 -3.711259E+05 -1.871135E+05 -3.725134E+05  9.831614E+04  3.183777E+04
       344  20 -8.271646E+05 -2.709902E+05 -1.061609E+05 -3.547756E+05  6.042620E+04  5.870623E+03
       344  21 -8.097321E+05 -2.195608E+05 -6.811388E+04 -3.329587E+05  1.958642E+04 -1.226309E+04
       344  22 -5.669714E+05 -2.038026E+05 -1.014875E+05 -2.331752E+05  6.804894E+04  2.047609E+04
       344  23 -5.548574E+05 -1.431695E+05 -4.852138E+04 -2.494602E+05  4.686172E+04  7.783883E+02
       344  24 -5.562297E+05 -1.279226E+05 -2.520530E+04 -2.616702E+05  2.272769E+04 -1.108222E+04
       344  25 -2.724492E+05 -3.643604E+04 -1.586675E+04 -9.376807E+04  3.776679E+04  9.101769E+03
       344  26 -2.824716E+05 -1.532735E+04  9.114881E+03 -1.440975E+05  3.329098E+04 -4.317783E+03
       344  27 -3.026568E+05 -3.627699E+04  1.770221E+04 -1.903539E+05  2.587034E+04 -9.900829E+03
       345   1 -7.786548E+05 -2.103353E+05 -5.620671E+04 -3.279797E+05 -1.648880E+04  1.213893E+04
       345   2 -7.404003E+05 -1.868997E+05 -3.882347E+04 -3.134206E+05 -9.005039E+03  1.285094E+04
       345   3 -6.990384E+05 -1.724392E+05 -2.746244E+04 -3.043144E+05 -1.188041E+03  1.267636E+04
       345   4 -5.533486E+05 -1.260624E+05 -1.869875E+04 -2.614132E+05 -1.946911E+04  1.101867E+04
       345   5 -5.546907E+05 -1.189611E+05 -9.711359E+03 -2.597370E+05 -1.387452E+04  1.102147E+04
       345   6 -5.525511E+05 -1.204597E+05 -5.246504E+03 -2.635143E+05 -7.947127E+03  1.013763E+04
       345   7 -3.279906E+05 -4.178427E+04  1.880727E+04 -1.948244E+05 -2.245054E+04  9.897946E+03
       345   8 -3.689436E+05 -5.101851E+04  1.940029E+04 -2.060380E+05 -1.874554E+04  9.191386E+03
       345   9 -4.060386E+05 -6.847737E+04  1.696984E+04 -2.227047E+05 -1.470798E+04  7.598240E+03
       345  10 -7.786551E+05 -2.103356E+05 -5.620750E+04 -3.279795E+05  5.435656E-08  2.237002E-08
       345  11 -7.404005E+05 -1.868999E+05 -3.882394E+04 -3.134205E+05  1.776436E-08  7.430119E-09
       345  12 -6.990384E+05 -1.724393E+05 -2.746274E+04 -3.043144E+05 -4.142903E-08 -1.808015E-08
       345  13 -5.533490E+05 -1.260626E+05 -1.869969E+04 -2.614130E+05  5.198034E-09  3.502082E-09
       345  14 -5.546909E+05 -1.189613E+05 -9.711949E+03 -2.597368E+05  1.758238E-08  7.282943E-09
       345  15 -5.525511E+05 -1.204599E+05 -5.246816E+03 -2.635143E+05  7.598740E-09  3.972840E-09
       345  16 -3.279912E+05 -4.178451E+04  1.880614E+04 -1.948242E+05 -4.200558E-08 -1.565172E-08
       345  17 -3.689440E+05 -5.101870E+04  1.939947E+04 -2.060379E+05  1.648038E-08  8.970855E-09
       345  18 -4.060388E+05 -6.847749E+04  1.696933E+04 -2.227046E+05  5.311988E-08  2.592287E-08
       345  19 -7.786548E+05 -2.103353E+05 -5.620671E+04 -3.279797E+05  1.648880E+04 -1.213893E+04
       345  20 -7.404003E+05 -1.868997E+05 -3.882347E+04 -3.134206E+05  9.005039E+03 -1.285094E+04
       345  21 -6.990384E+05 -1.724392E+05 -2.746244E+04 -3.043144E+05  1.188041E+03 -1.267636E+04
       345  22 -5.533486E+05 -1.260624E+05 -1.869875E+04 -2.614132E+05  1.946911E+04 -1.101867E+04
       345  23 -5.546907E+05 -1.189611E+05 -9.711359E+03 -2.597370E+05  1.387452E+04 -1.102147E+04
       345  24 -5.525511E+05 -1.204597E+05 -5.246504E+03 -2.635143E+05  7.947127E+03 -1.013763E+04
       345  25 -3.279906E+05 -4.178427E+04  1.880727E+04 -1.948244E+05  2.245054E+04 -9.897946E+03
       345  26 -3.689436E+05 -5.101851E+04  1.940029E+04 -2.060380E+05  1.874554E+04 -9.191386E+03
       345  27 -4.060386E+05 -6.847737E+04  1.696984E+04 -2.227047E+05  1.470798E+04 -7.598240E+03
       346   1 -6.729609E+05 -1.633990E+05 -2.204369E+04 -2.973514E+05  2.017095E+02  1.105842E+04
       346   2 -6.347776E+05 -1.458416E+05 -1.406840E+04 -2.828596E+05  2.687377E+03  8.327724E+03
       346   3 -5.914901E+05 -1.339534E+05 -7.119527E+03 -2.744954E+05  5.210596E+03  5.496640E+03
       346   4 -5.522579E+05 -1.203546E+05 -3.922500E+03 -2.634547E+05 -6.540485E+03  8.526226E+03
       346   5 -5.548067E+05 -1.173837E+05 -2.131200E+03 -2.604491E+05 -4.268885E+03  5.715360E+03
       346   6 -5.522107E+05 -1.200396E+05 -1.196560E+03 -2.635717E+05 -1.959830E+03  2.804084E+03
       346   7 -4.315390E+05 -7.730859E+04  1.419869E+04 -2.295517E+05 -1.328406E+04  5.993518E+03
       346   8 -4.748293E+05 -8.892524E+04  9.805983E+03 -2.380360E+05 -1.122605E+04  3.102661E+03
       346   9 -5.129300E+05 -1.061257E+05  4.726467E+03 -2.526474E+05 -9.130646E+03  1.113861E+02
       346  10 -6.729610E+05 -1.633991E+05 -2.204392E+04 -2.973514E+05 -1.581228E-10 -2.457455E-09
       346  11 -6.347776E+05 -1.458417E+05 -1.406854E+04 -2.828596E+05 -9.582999E-09 -3.850119E-09
       346  12 -5.914902E+05 -1.339535E+05 -7.119635E+03 -2.744955E+05 -1.266362E-08 -1.612449E-09
       346  13 -5.522580E+05 -1.203547E+05 -3.922717E+03 -2.634546E+05 -4.166510E-09 -4.275144E-10
       346  14 -5.548067E+05 -1.173837E+05 -2.131296E+03 -2.604491E+05 -9.377289E-09 -1.019592E-09
       346  15 -5.522107E+05 -1.200396E+05 -1.196582E+03 -2.635717E+05 -3.176766E-09 -7.001081E-10
       346  16 -4.315392E+05 -7.730868E+04  1.419829E+04 -2.295516E+05 -7.734990E-09  1.772320E-09
       346  17 -4.748294E+05 -8.892528E+04  9.805728E+03 -2.380359E+05 -7.396688E-09 -1.401353E-09
       346  18 -5.129301E+05 -1.061257E+05  4.726311E+03 -2.526474E+05  6.140982E-09 -1.159166E-10
       346  19 -6.729609E+05 -1.633990E+05 -2.204369E+04 -2.973514E+05 -2.017095E+02 -1.105842E+04
       346  20 -6.347776E+05 -1.458416E+05 -1.406840E+04 -2.828596E+05 -2.687377E+03 -8.327724E+03
       346  21 -5.914901E+05 -1.339534E+05 -7.119527E+03 -2.744954E+05 -5.210596E+03 -5.496640E+03
       346  22 -5.522579E+05 -1.203546E+05 -3.922500E+03 -2.634547E+05  6.540485E+03 -8.526226E+03
       346  23 -5.548067E+05 -1.173837E+05 -2.131200E+03 -2.604491E+05  4.268885E+03 -5.715360E+03
       346  24 -5.522107E+05 -1.200396E+05 -1.196560E+03 -2.635717E+05  1.959830E+03 -2.804084E+03
       346  25 -4.315390E+05 -7.730859E+04  1.419869E+04 -2.295517E+05  1.328406E+04 -5.993518E+03
       346  26 -4.748293E+05 -8.892524E+04  9.805983E+03 -2.380360E+05  1.122605E+04 -3.102661E+03
       346  27 -5.129300E+05 -1.061257E+05  4.726467E+03 -2.526474E+05  9.130646E+03 -1.113861E+02
       347   1 -5.659073E+05 -1.248600E+05 -2.892726E+03 -2.673528E+05  6.117744E+03  3.600829E+03
       347   2 -5.278089E+05 -1.076741E+05  3.390835E+03 -2.528286E+05  7.686155E+03  3.499243E+02
       347   3 -4.843762E+05 -9.588697E+04  9.443971E+03 -2.444615E+05  9.258090E+03 -2.910181E+03
       347   4 -5.521757E+05 -1.200413E+05 -9.194375E+02 -2.635583E+05 -1.050980E+03  9.089554E+02
       347   5 -5.548440E+05 -1.173455E+05 -5.715123E+02 -2.604787E+05  4.974713E+02 -2.349534E+03
       347   6 -5.521768E+05 -1.200452E+05 -4.386735E+02 -2.635571E+05  2.049422E+03 -5.617226E+03
       347   7 -5.384436E+05 -1.152225E+05  1.054120E+03 -2.597637E+05 -8.219962E+03 -1.783013E+03
       347   8 -5.818783E+05 -1.270169E+05 -4.533694E+03 -2.681284E+05 -6.690929E+03 -5.048885E+03
       347   9 -6.199722E+05 -1.442028E+05 -1.032114E+04 -2.826508E+05 -5.158420E+03 -8.323962E+03
       347  10 -5.659074E+05 -1.248600E+05 -2.892821E+03 -2.673529E+05 -8.549522E-09 -1.319508E-10
       347  11 -5.278090E+05 -1.076741E+05  3.390723E+03 -2.528286E+05  5.054027E-09  2.476074E-09
       347  12 -4.843763E+05 -9.588700E+04  9.443794E+03 -2.444614E+05  9.568850E-09 -4.966531E-10
       347  13 -5.521757E+05 -1.200413E+05 -9.194411E+02 -2.635583E+05  4.173535E-09  7.757924E-10
       347  14 -5.548440E+05 -1.173455E+05 -5.715231E+02 -2.604787E+05  9.302450E-09  2.010971E-09
       347  15 -5.521768E+05 -1.200452E+05 -4.387407E+02 -2.635571E+05  2.545017E-09 -1.714846E-10
       347  16 -5.384437E+05 -1.152225E+05  1.053987E+03 -2.597637E+05  1.526982E-08  2.745644E-09
       347  17 -5.818783E+05 -1.270169E+05 -4.533827E+03 -2.681285E+05  9.275705E-09  4.257569E-09
       347  18 -6.199723E+05 -1.442029E+05 -1.032132E+04 -2.826508E+05 -2.858548E-09  3.651658E-10
       347  19 -5.659073E+05 -1.248600E+05 -2.892726E+03 -2.673528E+05 -6.117744E+03 -3.600829E+03
       347  20 -5.278089E+05 -1.076741E+05  3.390835E+03 -2.528286E+05 -7.686155E+03 -3.499243E+02
       347  21 -4.843762E+05 -9.588697E+04  9.443971E+03 -2.444615E+05 -9.258090E+03  2.910181E+03
       347  22 -5.521757E+05 -1.200413E+05 -9.194375E+02 -2.635583E+05  1.050980E+03 -9.089554E+02
       347  23 -5.548440E+05 -1.173455E+05 -5.715123E+02 -2.604787E+05 -4.974713E+02  2.349534E+03
       347  24 -5.521768E+05 -1.200452E+05 -4.386735E+02 -2.635571E+05 -2.049422E+03  5.617226E+03
       347  25 -5.384436E+05 -1.152225E+05  1.054120E+03 -2.597637E+05  8.219962E+03  1.783013E+03
       347  26 -5.818783E+05 -1.270169E+05 -4.533694E+03 -2.681284E+05  6.690929E+03  5.048885E+03
       347  27 -6.199722E+05 -1.442028E+05 -1.032114E+04 -2.826508E+05  5.158420E+03  8.323962E+03
       348   1 -4.588600E+05 -8.677703E+04  1.338461E+04 -2.373070E+05  1.006912E+04 -4.850627E+03
       348   2 -4.207839E+05 -6.960127E+04  1.920118E+04 -2.227835E+05  1.156844E+04 -8.133486E+03
       348   3 -3.773626E+05 -5.781039E+04  2.484306E+04 -2.144137E+05  1.306196E+04 -1.140013E+04
       348   4 -5.521781E+05 -1.200465E+05 -4.325673E+02 -2.635560E+05  2.860999E+03 -7.557590E+03
       348   5 -5.548487E+05 -1.173553E+05 -5.370657E+02 -2.604778E+05  4.394486E+03 -1.082797E+04
       348   6 -5.521825E+05 -1.200558E+05 -8.433866E+02 -2.635539E+05  5.922174E+03 -1.408216E+04
       348   7 -6.454855E+05 -1.533144E+05 -1.424928E+04 -2.898010E+05 -4.345893E+03 -1.026409E+04
       348   8 -6.888938E+05 -1.651073E+05 -2.027527E+04 -2.981644E+05 -2.777830E+03 -1.352184E+04
       348   9 -7.269713E+05 -1.822987E+05 -2.653051E+04 -3.126816E+05 -1.215575E+03 -1.676343E+04
       348  10 -4.588601E+05 -8.677708E+04  1.338437E+04 -2.373070E+05 -5.903793E-08 -2.757642E-08
       348  11 -4.207840E+05 -6.960138E+04  1.920081E+04 -2.227834E+05 -1.130610E-08 -5.929797E-09
       348  12 -3.773629E+05 -5.781057E+04  2.484249E+04 -2.144136E+05  4.906221E-08  1.870989E-08
       348  13 -5.521781E+05 -1.200465E+05 -4.326900E+02 -2.635560E+05 -4.009069E-09 -2.931637E-09
       348  14 -5.548487E+05 -1.173554E+05 -5.373222E+02 -2.604778E+05 -1.142267E-08 -6.261754E-09
       348  15 -5.521826E+05 -1.200560E+05 -8.438251E+02 -2.635538E+05 -5.785499E-09 -2.740777E-09
       348  16 -6.454855E+05 -1.533146E+05 -1.424952E+04 -2.898010E+05  5.080495E-08  2.054353E-08
       348  17 -6.888939E+05 -1.651075E+05 -2.027563E+04 -2.981645E+05 -1.032414E-08 -3.935843E-09
       348  18 -7.269714E+05 -1.822990E+05 -2.653104E+04 -3.126816E+05 -5.781743E-08 -2.366269E-08
       348  19 -4.588600E+05 -8.677703E+04  1.338461E+04 -2.373070E+05 -1.006912E+04  4.850627E+03
       348  20 -4.207839E+05 -6.960127E+04  1.920118E+04 -2.227835E+05 -1.156844E+04  8.133486E+03
       348  21 -3.773626E+05 -5.781039E+04  2.484306E+04 -2.144137E+05 -1.306196E+04  1.140013E+04
       348  22 -5.521781E+05 -1.200465E+05 -4.325673E+02 -2.635560E+05 -2.860999E+03  7.557590E+03
       348  23 -5.548487E+05 -1.173553E+05 -5.370657E+02 -2.604778E+05 -4.394486E+03  1.082797E+04
       348  24 -5.521825E+05 -1.200558E+05 -8.433866E+02 -2.635539E+05 -5.922174E+03  1.408216E+04
       348  25 -6.454855E+05 -1.533144E+05 -1.424928E+04 -2.898010E+05  4.345893E+03  1.026409E+04
       348  26 -6.888938E+05 -1.651073E+05 -2.027527E+04 -2.981644E+05  2.777830E+03  1.352184E+04
       348  27 -7.269713E+05 -1.822987E+05 -2.653051E+04 -3.126816E+05  1.215575E+03  1.676343E+04
       349   1 -3.518694E+05 -4.871502E+04  2.854927E+04 -2.072919E+05  1.395501E+04 -1.329339E+04
       349   2 -3.138318E+05 -3.152864E+04  3.376463E+04 -1.927024E+05  1.583731E+04 -1.632085E+04
       349   3 -2.705708E+05 -1.987423E+04  3.845259E+04 -1.842297E+05  1.766464E+04 -1.920056E+04
       349   4 -5.522179E+05 -1.200559E+05 -1.091669E+03 -2.635637E+05  6.814063E+03 -1.597617E+04
       349   5 -5.548229E+05 -1.174074E+05 -1.934486E+03 -2.604508E+05  9.010891E+03 -1.888612E+04
       349   6 -5.522685E+05 -1.203537E+05 -3.554295E+03 -2.634556E+05  1.115269E+04 -2.164830E+04
       349   7 -7.525226E+05 -1.913924E+05 -3.073277E+04 -3.198183E+05 -3.244457E+02 -1.865803E+04
       349   8 -7.957491E+05 -2.032793E+05 -3.763356E+04 -3.281739E+05  2.187317E+03 -2.145032E+04
       349   9 -8.338762E+05 -2.208232E+05 -4.556088E+04 -3.426465E+05  4.643939E+03 -2.409484E+04
       349  10 -3.518697E+05 -4.871526E+04  2.854857E+04 -2.072917E+05  1.665874E-09  1.311294E-09
       349  11 -3.138321E+05 -3.152900E+04  3.376366E+04 -1.927022E+05 -1.077072E-09 -1.615181E-09
       349  12 -2.705713E+05 -1.987471E+04  3.845131E+04 -1.842295E+05 -3.348913E-11  3.573477E-10
       349  13 -5.522180E+05 -1.200562E+05 -1.092236E+03 -2.635636E+05 -2.475958E-09 -2.819194E-10
       349  14 -5.548231E+05 -1.174078E+05 -1.935309E+03 -2.604507E+05 -2.165606E-09  6.320055E-11
       349  15 -5.522687E+05 -1.203542E+05 -3.555409E+03 -2.634554E+05 -2.163118E-09  9.640003E-10
       349  16 -7.525227E+05 -1.913928E+05 -3.073343E+04 -3.198183E+05 -3.472822E-09 -2.190561E-09
       349  17 -7.957493E+05 -2.032798E+05 -3.763444E+04 -3.281738E+05 -4.980264E-10 -1.387762E-09
       349  18 -8.338764E+05 -2.208238E+05 -4.556201E+04 -3.426464E+05  5.026296E-09  2.160021E-09
       349  19 -3.518694E+05 -4.871502E+04  2.854927E+04 -2.072919E+05 -1.395501E+04  1.329339E+04
       349  20 -3.138318E+05 -3.152864E+04  3.376463E+04 -1.927024E+05 -1.583731E+04  1.632085E+04
       349  21 -2.705708E+05 -1.987423E+04  3.845259E+04 -1.842297E+05 -1.766464E+04  1.920056E+04
       349  22 -5.522179E+05 -1.200559E+05 -1.091669E+03 -2.635637E+05 -6.814063E+03  1.597617E+04
       349  23 -5.548229E+05 -1.174074E+05 -1.934486E+03 -2.604508E+05 -9.010891E+03  1.888612E+04
       349  24 -5.522685E+05 -1.203537E+05 -3.554295E+03 -2.634556E+05 -1.115269E+04  2.164830E+04
       349  25 -7.525226E+05 -1.913924E+05 -3.073277E+04 -3.198183E+05  3.244457E+02  1.865803E+04
       349  26 -7.957491E+05 -2.032793E+05 -3.763356E+04 -3.281739E+05 -2.187317E+03  2.145032E+04
       349  27 -8.338762E+05 -2.208232E+05 -4.556088E+04 -3.426465E+05 -4.643939E+03  2.409484E+04
       350   1 -2.450868E+05 -1.099360E+04  4.142052E+04 -1.773434E+05  1.901207E+04 -2.077993E+04
       350   2 -2.080555E+05  6.461766E+03  4.472240E+04 -1.609745E+05  2.159519E+04 -2.256401E+04
       350   3 -1.668472E+05  1.621670E+04  4.612468E+04 -1.500721E+05  2.369165E+04 -2.305150E+04
       350   4 -5.525396E+05 -1.204439E+05 -4.751335E+03 -2.634996E+05  1.247618E+04 -2.323709E+04
       350   5 -5.547180E+05 -1.188598E+05 -8.793218E+03 -2.598138E+05  1.782375E+04 -2.398320E+04
       350   6 -5.532707E+05 -1.255261E+05 -1.692794E+04 -2.615959E+05  2.268442E+04 -2.343233E+04
       350   7 -8.598937E+05 -2.298856E+05 -5.092525E+04 -3.496166E+05  5.943628E+03 -2.569301E+04
       350   8 -9.012529E+05 -2.441687E+05 -6.231123E+04 -3.586014E+05  1.405451E+04 -2.540154E+04
       350   9 -9.395340E+05 -2.672519E+05 -7.998383E+04 -3.730539E+05  2.167784E+04 -2.381290E+04
       350  10 -2.450873E+05 -1.099416E+04  4.141903E+04 -1.773430E+05  6.606291E-09  3.633111E-09
       350  11 -2.080562E+05  6.461094E+03  4.472057E+04 -1.609741E+05  8.697212E-10  1.196314E-09
       350  12 -1.668480E+05  1.621598E+04  4.612263E+04 -1.500717E+05 -3.268215E-09 -2.751701E-10
       350  13 -5.525399E+05 -1.204445E+05 -4.752642E+03 -2.634993E+05 -1.072503E-09  2.428488E-10
       350  14 -5.547185E+05 -1.188605E+05 -8.794895E+03 -2.598134E+05 -7.982203E-09  8.608709E-10
       350  15 -5.532714E+05 -1.255268E+05 -1.692994E+04 -2.615955E+05 -7.172049E-09 -2.214215E-09
       350  16 -8.598939E+05 -2.298864E+05 -5.092655E+04 -3.496165E+05 -9.335481E-10  3.706157E-11
       350  17 -9.012532E+05 -2.441694E+05 -6.231281E+04 -3.586011E+05 -4.398551E-09 -2.308074E-09
       350  18 -9.395346E+05 -2.672526E+05 -7.998578E+04 -3.730535E+05 -9.035853E-09 -3.383361E-09
       350  19 -2.450868E+05 -1.099360E+04  4.142052E+04 -1.773434E+05 -1.901207E+04  2.077993E+04
       350  20 -2.080555E+05  6.461766E+03  4.472240E+04 -1.609745E+05 -2.159519E+04  2.256401E+04
       350  21 -1.668472E+05  1.621670E+04  4.612468E+04 -1.500721E+05 -2.369165E+04  2.305150E+04
       350  22 -5.525396E+05 -1.204439E+05 -4.751335E+03 -2.634996E+05 -1.247618E+04  2.323709E+04
       350  23 -5.547180E+05 -1.188598E+05 -8.793218E+03 -2.598138E+05 -1.782375E+04  2.398320E+04
       350  24 -5.532707E+05 -1.255261E+05 -1.692794E+04 -2.615959E+05 -2.268442E+04  2.343233E+04
       350  25 -8.598937E+05 -2.298856E+05 -5.092525E+04 -3.496166E+05 -5.943628E+03  2.569301E+04
       350  26 -9.012529E+05 -2.441687E+05 -6.231123E+04 -3.586014E+05 -1.405451E+04  2.540154E+04
       350  27 -9.395340E+05 -2.672519E+05 -7.998383E+04 -3.730539E+05 -2.167784E+04  2.381290E+04
       351   1 -1.413105E+05  2.234112E+04  4.630853E+04 -1.452616E+05  2.676939E+04 -2.273381E+04
       351   2 -1.201146E+05  4.337586E+04  4.399785E+04 -1.027534E+05  2.307520E+04 -1.824442E+04
       351   3 -1.060328E+05  2.797069E+04  3.423040E+04 -5.681342E+04  1.507235E+04 -2.301026E+03
       351   4 -5.559318E+05 -1.271593E+05 -2.281709E+04 -2.617678E+05  2.552686E+04 -2.320323E+04
       351   5 -5.548185E+05 -1.408445E+05 -4.392556E+04 -2.505848E+05  4.627201E+04 -9.525836E+03
       351   6 -5.656761E+05 -1.958327E+05 -9.187310E+04 -2.359698E+05  6.270627E+04  1.560949E+04
       351   7 -9.703687E+05 -2.766418E+05 -9.194666E+04 -3.782008E+05  2.428521E+04 -2.367232E+04
       351   8 -9.893134E+05 -3.250239E+05 -1.318530E+05 -3.983102E+05  6.945103E+04 -8.163841E+02
       351   9 -1.025083E+06 -4.195655E+05 -2.179804E+05 -4.149837E+05  1.103001E+05  3.349493E+04
       351  10 -1.413114E+05  2.234038E+04  4.630621E+04 -1.452611E+05 -1.071518E-08 -1.612578E-09
       351  11 -1.201153E+05  4.337536E+04  4.399623E+04 -1.027531E+05 -3.363882E-09  1.076885E-09
       351  12 -1.060330E+05  2.797062E+04  3.422996E+04 -5.681339E+04  5.202021E-09  2.909836E-09
       351  13 -5.559327E+05 -1.271601E+05 -2.281932E+04 -2.617674E+05 -5.560880E-09 -1.320481E-09
       351  14 -5.548208E+05 -1.408452E+05 -4.392975E+04 -2.505844E+05  1.123823E-09 -5.436953E-10
       351  15 -5.656804E+05 -1.958341E+05 -9.188096E+04 -2.359706E+05  1.690420E-09  2.327081E-09
       351  16 -9.703695E+05 -2.766426E+05 -9.194882E+04 -3.782004E+05  1.313668E-09  6.612830E-10
       351  17 -9.893186E+05 -3.250252E+05 -1.318621E+05 -3.983102E+05  1.699295E-09  1.352768E-09
       351  18 -1.025097E+06 -4.195700E+05 -2.180054E+05 -4.149867E+05 -3.644588E-09 -3.253663E-11
       351  19 -1.413105E+05  2.234112E+04  4.630853E+04 -1.452616E+05 -2.676939E+04  2.273381E+04
       351  20 -1.201146E+05  4.337586E+04  4.399785E+04 -1.027534E+05 -2.307520E+04  1.824442E+04
       351  21 -1.060328E+05  2.797069E+04  3.423040E+04 -5.681342E+04 -1.507235E+04  2.301026E+03
       351  22 -5.559318E+05 -1.271593E+05 -2.281709E+04 -2.617678E+05 -2.552686E+04  2.320323E+04
       351  23 -5.548185E+05 -1.408445E+05 -4.392556E+04 -2.505848E+05 -4.627201E+04  9.525836E+03
       351  24 -5.656761E+05 -1.958327E+05 -9.187310E+04 -2.359698E+05 -6.270627E+04 -1.560949E+04
       351  25 -9.703687E+05 -2.766418E+05 -9.194666E+04 -3.782008E+05 -2.428521E+04  2.367232E+04
       351  26 -9.893134E+05 -3.250239E+05 -1.318530E+05 -3.983102E+05 -6.945103E+04  8.163841E+02
       351  27 -1.025083E+06 -4.195655E+05 -2.179804E+05 -4.149837E+05 -1.103001E+05 -3.349493E+04
       352   1 -2.455310E+05 -4.644219E+04 -7.989907E+04 -3.027981E+04 -1.024117E+05 -3.222539E+03
       352   2 -2.416530E+05  9.073809E+04  1.806643E+03 -8.956772E+03 -6.875185E+04 -9.559538E+03
       352   3 -2.802694E+05  7.521505E+04  2.344212E+04  2.516089E+04 -3.510090E+04 -9.058568E+03
       352   4 -5.575639E+05 -1.241907E+05 -1.568985E+05  8.571287E+03 -1.073040E+05 -3.233832E+03
       352   5 -5.359904E+05  1.777747E+04 -6.869268E+04  2.106164E+03 -7.021675E+04 -9.562762E+03
       352   6 -5.575294E+05  6.404994E+03 -4.295988E+04  8.436214E+03 -3.313723E+04 -9.055305E+03
       352   7 -8.695048E+05 -2.019408E+05 -2.339043E+05  4.740280E+04 -1.121939E+05 -3.245742E+03
       352   8 -8.302481E+05 -5.518896E+04 -1.391981E+05  1.316381E+04 -7.168095E+04 -9.566040E+03
       352   9 -8.347184E+05 -6.240961E+04 -1.093672E+05 -8.280976E+03 -3.117443E+04 -9.052146E+03
       352  10 -2.455422E+05 -4.644501E+04 -7.991881E+04 -3.028007E+04  7.850987E-10  3.368702E-10
       352  11 -2.416581E+05  9.073672E+04  1.797585E+03 -8.957302E+03  4.343402E-10 -6.840834E-10
       352  12 -2.802707E+05  7.521463E+04  2.343965E+04  2.516063E+04  1.845928E-09 -1.007201E-09
       352  13 -5.575762E+05 -1.241938E+05 -1.569202E+05  8.571007E+03 -7.659278E-10  1.360606E-09
       352  14 -5.359957E+05  1.777605E+04 -6.870213E+04  2.105623E+03 -2.453529E-09  3.784092E-10
       352  15 -5.575307E+05  6.404611E+03 -4.296210E+04  8.435973E+03 -4.894925E-10  6.625349E-10
       352  16 -8.695184E+05 -2.019442E+05 -2.339280E+05  4.740251E+04 -1.048705E-09  1.017557E-09
       352  17 -8.302536E+05 -5.519044E+04 -1.392079E+05  1.316326E+04 -1.165821E-09 -1.330013E-09
       352  18 -8.347195E+05 -6.240996E+04 -1.093691E+05 -8.281204E+03  3.343204E-10 -2.681120E-09
       352  19 -2.455310E+05 -4.644219E+04 -7.989907E+04 -3.027981E+04  1.024117E+05  3.222539E+03
       352  20 -2.416530E+05  9.073809E+04  1.806643E+03 -8.956772E+03  6.875185E+04  9.559538E+03
       352  21 -2.802694E+05  7.521505E+04  2.344212E+04  2.516089E+04  3.510090E+04  9.058568E+03
       352  22 -5.575639E+05 -1.241907E+05 -1.568985E+05  8.571287E+03  1.073040E+05  3.233832E+03
       352  23 -5.359904E+05  1.777747E+04 -6.869268E+04  2.106164E+03  7.021675E+04  9.562762E+03
       352  24 -5.575294E+05  6.404994E+03 -4.295988E+04  8.436214E+03  3.313723E+04  9.055305E+03
       352  25 -8.695048E+05 -2.019408E+05 -2.339043E+05  4.740280E+04  1.121939E+05  3.245742E+03
       352  26 -8.302481E+05 -5.518896E+04 -1.391981E+05  1.316381E+04  7.168095E+04  9.566040E+03
       352  27 -8.347184E+05 -6.240961E+04 -1.093672E+05 -8.280976E+03  3.117443E+04  9.052146E+03
       353   1 -2.955585E+05  4.986194E+04  2.585908E+04  5.186446E+03 -2.644688E+04 -7.669002E+03
       353   2 -3.108459E+05  6.037785E+04  3.866900E+04  1.278599E+03 -1.756666E+04 -7.460684E+03
       353   3 -3.313190E+05  5.473342E+04  4.165852E+04  1.072085E+04 -8.687577E+03 -6.732466E+03
       353   4 -5.491164E+05 -1.304342E+04 -3.505366E+04  8.617244E+03 -2.647188E+04 -7.669401E+03
       353   5 -5.464964E+05  1.928735E+03 -1.783183E+04  1.931921E+03 -1.733311E+04 -7.460534E+03
       353   6 -5.491095E+05  6.921606E+02 -1.061288E+04  8.597057E+03 -8.195219E+03 -6.731758E+03
       353   7 -8.026153E+05 -7.595341E+04 -9.597096E+04  1.204661E+04 -2.649686E+04 -7.669801E+03
       353   8 -7.820960E+05 -5.652442E+04 -7.433660E+04  2.584975E+03 -1.709964E+04 -7.460384E+03
       353   9 -7.668564E+05 -5.335253E+04 -6.288765E+04  6.473996E+03 -7.703032E+03 -6.731054E+03
       353  10 -2.955593E+05  4.986169E+04  2.585765E+04  5.186283E+03  5.953148E-10 -2.484796E-09
       353  11 -3.108462E+05  6.037771E+04  3.866831E+04  1.278493E+03 -3.285785E-09  8.625584E-10
       353  12 -3.313191E+05  5.473335E+04  4.165829E+04  1.072080E+04 -6.215622E-09  1.327703E-09
       353  13 -5.491172E+05 -1.304367E+04 -3.505509E+04  8.617080E+03  1.828859E-09 -1.879935E-09
       353  14 -5.464967E+05  1.928595E+03 -1.783250E+04  1.931817E+03 -3.105706E-09 -2.027936E-10
       353  15 -5.491096E+05  6.920939E+02 -1.061309E+04  8.597013E+03  2.766777E-10 -1.727695E-09
       353  16 -8.026161E+05 -7.595366E+04 -9.597239E+04  1.204645E+04 -9.777014E-10 -6.978988E-10
       353  17 -7.820963E+05 -5.652455E+04 -7.433725E+04  2.584872E+03  2.210933E-09  2.195232E-10
       353  18 -7.668565E+05 -5.335260E+04 -6.288784E+04  6.473954E+03  4.212260E-09  9.315686E-10
       353  19 -2.955585E+05  4.986194E+04  2.585908E+04  5.186446E+03  2.644688E+04  7.669002E+03
       353  20 -3.108459E+05  6.037785E+04  3.866900E+04  1.278599E+03  1.756666E+04  7.460684E+03
       353  21 -3.313190E+05  5.473342E+04  4.165852E+04  1.072085E+04  8.687577E+03  6.732466E+03
       353  22 -5.491164E+05 -1.304342E+04 -3.505366E+04  8.617244E+03  2.647188E+04  7.669401E+03
       353  23 -5.464964E+05  1.928735E+03 -1.783183E+04  1.931921E+03  1.733311E+04  7.460534E+03
       353  24 -5.491095E+05  6.921606E+02 -1.061288E+04  8.597057E+03  8.195219E+03  6.731758E+03
       353  25 -8.026153E+05 -7.595341E+04 -9.597096E+04  1.204661E+04  2.649686E+04  7.669801E+03
       353  26 -7.820960E+05 -5.652442E+04 -7.433660E+04  2.584975E+03  1.709964E+04  7.460384E+03
       353  27 -7.668564E+05 -5.335253E+04 -6.288765E+04  6.473996E+03  7.703032E+03  6.731054E+03
       354   1 -3.547559E+05  4.662791E+04  3.800776E+04  8.660256E+03 -6.868735E+03 -6.227384E+03
       354   2 -3.727381E+05  4.362893E+04  3.740390E+04  2.043940E+03 -4.605326E+03 -5.518028E+03
       354   3 -3.914586E+05  3.897309E+04  3.490533E+04  9.133925E+03 -2.342336E+03 -4.763500E+03
       354   4 -5.481095E+05 -1.325797E+03 -8.315163E+03  8.684393E+03 -6.523424E+03 -6.226903E+03
       354   5 -5.477370E+05  2.183034E+02 -4.560265E+03  1.829825E+03 -4.237904E+03 -5.517443E+03
       354   6 -5.481073E+05  1.014000E+02 -2.715880E+03  8.681805E+03 -1.952736E+03 -4.762806E+03
       354   7 -7.414289E+05 -4.928222E+04 -5.464073E+04  8.708508E+03 -6.178219E+03 -6.226422E+03
       354   8 -7.227079E+05 -4.319455E+04 -4.652660E+04  1.615758E+03 -3.870584E+03 -5.516858E+03
       354   9 -7.047335E+05 -3.877207E+04 -4.033883E+04  8.229788E+03 -1.563233E+03 -4.762112E+03
       354  10 -3.547559E+05  4.662786E+04  3.800759E+04  8.660221E+03  2.821635E-09  2.193249E-09
       354  11 -3.727381E+05  4.362889E+04  3.740381E+04  2.043920E+03 -3.142738E-10  2.905986E-09
       354  12 -3.914587E+05  3.897306E+04  3.490528E+04  9.133916E+03 -1.370635E-10  2.385690E-10
       354  13 -5.481096E+05 -1.325850E+03 -8.315316E+03  8.684361E+03  1.330452E-09 -2.226744E-09
       354  14 -5.477371E+05  2.182659E+02 -4.560356E+03  1.829807E+03 -5.049665E-10  1.948887E-09
       354  15 -5.481073E+05  1.013747E+02 -2.715929E+03  8.681797E+03  1.273749E-09  5.038494E-09
       354  16 -7.414289E+05 -4.928227E+04 -5.464087E+04  8.708477E+03 -3.733611E-09  2.106285E-09
       354  17 -7.227079E+05 -4.319459E+04 -4.652669E+04  1.615741E+03 -1.451668E-09  3.376635E-09
       354  18 -7.047335E+05 -3.877210E+04 -4.033888E+04  8.229782E+03 -1.734992E-09  3.413292E-09
       354  19 -3.547559E+05  4.662791E+04  3.800776E+04  8.660256E+03  6.868735E+03  6.227384E+03
       354  20 -3.727381E+05  4.362893E+04  3.740390E+04  2.043940E+03  4.605326E+03  5.518028E+03
       354  21 -3.914586E+05  3.897309E+04  3.490533E+04  9.133925E+03  2.342336E+03  4.763500E+03
       354  22 -5.481095E+05 -1.325797E+03 -8.315163E+03  8.684393E+03  6.523424E+03  6.226903E+03
       354  23 -5.477370E+05  2.183034E+02 -4.560265E+03  1.829825E+03  4.237904E+03  5.517443E+03
       354  24 -5.481073E+05  1.014000E+02 -2.715880E+03  8.681805E+03  1.952736E+03  4.762806E+03
       354  25 -7.414289E+05 -4.928222E+04 -5.464073E+04  8.708508E+03  6.178219E+03  6.226422E+03
       354  26 -7.227079E+05 -4.319455E+04 -4.652660E+04  1.615758E+03  3.870584E+03  5.516858E+03
       354  27 -7.047335E+05 -3.877207E+04 -4.033883E+04  8.229788E+03  1.563233E+03  4.762112E+03
       355   1 -4.163197E+05  3.254941E+04  2.937876E+04  8.933646E+03 -1.898018E+03 -4.316954E+03
       355   2 -4.349185E+05  2.806049E+04  2.574369E+04  1.946679E+03 -1.233691E+03 -3.558619E+03
       355   3 -4.536952E+05  2.343845E+04  2.163011E+04  8.916065E+03 -5.695909E+02 -2.793043E+03
       355   4 -5.479801E+05 -1.005689E+02 -2.138680E+03  8.738371E+03 -1.518301E+03 -4.316243E+03
       355   5 -5.478900E+05  3.518226E+01 -1.347773E+03  1.759974E+03 -8.504595E+02 -3.557858E+03
       355   6 -5.479791E+05  3.711766E+01 -1.037944E+03  8.738088E+03 -1.828260E+02 -2.792232E+03
       355   7 -6.796246E+05 -3.275181E+04 -3.365735E+04  8.543129E+03 -1.138664E+03 -4.315531E+03
       355   8 -6.608498E+05 -2.799105E+04 -2.844014E+04  1.573297E+03 -4.672979E+02 -3.557098E+03
       355   9 -6.422548E+05 -2.336486E+04 -2.370663E+04  8.560134E+03  2.038803E+02 -2.791421E+03
       355  10 -4.163197E+05  3.254939E+04  2.937872E+04  8.933640E+03  9.193396E-09  6.769556E-10
       355  11 -4.349185E+05  2.806048E+04  2.574366E+04  1.946676E+03 -3.576927E-10  6.051764E-09
       355  12 -4.536952E+05  2.343844E+04  2.163009E+04  8.916064E+03 -7.871286E-09  4.707656E-09
       355  13 -5.479801E+05 -1.005895E+02 -2.138719E+03  8.738366E+03  2.146197E-09  2.043008E-09
       355  14 -5.478900E+05  3.516848E+01 -1.347798E+03  1.759972E+03 -9.454285E-10  4.568459E-09
       355  15 -5.479791E+05  3.710928E+01 -1.037958E+03  8.738088E+03  8.969252E-10  9.959786E-10
       355  16 -6.796246E+05 -3.275183E+04 -3.365738E+04  8.543125E+03 -8.307078E-09  3.148472E-09
       355  17 -6.608498E+05 -2.799107E+04 -2.844016E+04  1.573296E+03  2.761380E-09 -2.334756E-10
       355  18 -6.422548E+05 -2.336487E+04 -2.370664E+04  8.560134E+03  8.380437E-09 -1.429248E-09
       355  19 -4.163197E+05  3.254941E+04  2.937876E+04  8.933646E+03  1.898018E+03  4.316954E+03
       355  20 -4.349185E+05  2.806049E+04  2.574369E+04  1.946679E+03  1.233691E+03  3.558619E+03
       355  21 -4.536952E+05  2.343845E+04  2.163011E+04  8.916065E+03  5.695909E+02  2.793043E+03
       355  22 -5.479801E+05 -1.005689E+02 -2.138680E+03  8.738371E+03  1.518301E+03  4.316243E+03
       355  23 -5.478900E+05  3.518226E+01 -1.347773E+03  1.759974E+03  8.504595E+02  3.557858E+03
       355  24 -5.479791E+05  3.711766E+01 -1.037944E+03  8.738088E+03  1.828260E+02  2.792232E+03
       355  25 -6.796246E+05 -3.275181E+04 -3.365735E+04  8.543129E+03  1.138664E+03  4.315531E+03
       355  26 -6.608498E+05 -2.799105E+04 -2.844014E+04  1.573297E+03  4.672979E+02  3.557098E+03
       355  27 -6.422548E+05 -2.336486E+04 -2.370663E+04  8.560134E+03 -2.038803E+02  2.791421E+03
       356   1 -4.790378E+05  1.712319E+04  1.546965E+04  8.867652E+03 -3.864950E+02 -2.345364E+03
       356   2 -4.978278E+05  1.245271E+04  1.083951E+04  1.797835E+03  1.905751E+02 -1.575353E+03
       356   3 -5.167924E+05  7.685703E+03  5.793099E+03  8.829324E+03  7.675524E+02 -8.046034E+02
       356   4 -5.479770E+05  3.225199E+01 -1.005689E+03  8.770305E+03  5.385214E-01 -2.344530E+03
       356   5 -5.478895E+05  3.325297E+01 -1.166157E+03  1.719724E+03  5.779339E+02 -1.574500E+03
       356   6 -5.479767E+05 -6.224490E+01 -1.743045E+03  8.770520E+03  1.155254E+03 -8.037304E+02
       356   7 -6.169118E+05 -1.705903E+04 -1.748136E+04  8.672967E+03  3.875292E+02 -2.343697E+03
       356   8 -5.979489E+05 -1.238639E+04 -1.317200E+04  1.641619E+03  9.652616E+02 -1.573647E+03
       356   9 -5.791602E+05 -7.810264E+03 -9.279258E+03  8.711718E+03  1.542936E+03 -8.028574E+02
       356  10 -4.790378E+05  1.712319E+04  1.546964E+04  8.867652E+03  2.549114E-09  9.125286E-10
       356  11 -4.978278E+05  1.245271E+04  1.083950E+04  1.797835E+03  7.980846E-10 -5.462058E-10
       356  12 -5.167924E+05  7.685702E+03  5.793096E+03  8.829324E+03 -3.043650E-09 -1.264530E-09
       356  13 -5.479770E+05  3.224609E+01 -1.005699E+03  8.770305E+03 -3.153222E-10  6.743325E-09
       356  14 -5.478895E+05  3.325022E+01 -1.166163E+03  1.719725E+03 -1.859848E-09  2.102304E-09
       356  15 -5.479767E+05 -6.224596E+01 -1.743049E+03  8.770520E+03 -1.401934E-09 -2.972898E-09
       356  16 -6.169118E+05 -1.705904E+04 -1.748137E+04  8.672968E+03 -1.391636E-09  1.754382E-09
       356  17 -5.979489E+05 -1.238639E+04 -1.317201E+04  1.641620E+03 -1.881482E-09 -6.134819E-10
       356  18 -5.791602E+05 -7.810266E+03 -9.279263E+03  8.711719E+03  1.939746E-09 -3.277670E-09
       356  19 -4.790378E+05  1.712319E+04  1.546965E+04  8.867652E+03  3.864950E+02  2.345364E+03
       356  20 -4.978278E+05  1.245271E+04  1.083951E+04  1.797835E+03 -1.905751E+02  1.575353E+03
       356  21 -5.167924E+05  7.685703E+03  5.793099E+03  8.829324E+03 -7.675524E+02  8.046034E+02
       356  22 -5.479770E+05  3.225199E+01 -1.005689E+03  8.770305E+03 -5.385213E-01  2.344530E+03
       356  23 -5.478895E+05  3.325297E+01 -1.166157E+03  1.719724E+03 -5.779339E+02  1.574500E+03
       356  24 -5.479767E+05 -6.224490E+01 -1.743045E+03  8.770520E+03 -1.155254E+03  8.037304E+02
       356  25 -6.169118E+05 -1.705903E+04 -1.748136E+04  8.672967E+03 -3.875292E+02  2.343697E+03
       356  26 -5.979489E+05 -1.238639E+04 -1.317200E+04  1.641619E+03 -9.652616E+02  1.573647E+03
       356  27 -5.791602E+05 -7.810264E+03 -9.279258E+03  8.711718E+03 -1.542936E+03  8.028574E+02
       357   1 -5.423957E+05  1.492101E+03 -8.781254E+02  8.616085E+03  1.112916E+03 -3.514940E+02
       357   2 -5.609979E+05 -3.103078E+03 -6.784730E+03  1.713796E+03  2.931962E+03  4.239096E+02
       357   3 -5.802382E+05 -8.986532E+03 -1.421549E+04  8.945750E+03  4.751016E+03  1.178881E+03
       357   4 -5.480791E+05  9.454946E+01 -2.183499E+03  8.776875E+03  1.506544E+03 -3.506022E+02
       357   5 -5.477612E+05  1.806661E+02 -3.610456E+03  1.711014E+03  3.315332E+03  4.247721E+02
       357   6 -5.480800E+05 -1.019651E+03 -6.554365E+03  8.779382E+03  5.124183E+03  1.179714E+03
       357   7 -5.537625E+05 -1.303005E+03 -3.488874E+03  8.937664E+03  1.900168E+03 -3.497103E+02
       357   8 -5.345244E+05  3.464398E+03 -4.361947E+02  1.708231E+03  3.698710E+03  4.256345E+02
       357   9 -5.159208E+05  6.947155E+03  1.106690E+03  8.613004E+03  5.497369E+03  1.180548E+03
       357  10 -5.423957E+05  1.492101E+03 -8.781280E+02  8.616085E+03 -2.892760E-09  1.980590E-09
       357  11 -5.609979E+05 -3.103081E+03 -6.784747E+03  1.713795E+03 -1.575041E-09  1.048540E-09
       357  12 -5.802383E+05 -8.986539E+03 -1.421554E+04  8.945746E+03 -2.827187E-09  1.387061E-09
       357  13 -5.480791E+05  9.454872E+01 -2.183504E+03  8.776875E+03  1.334088E-10 -7.017141E-11
       357  14 -5.477612E+05  1.806629E+02 -3.610477E+03  1.711013E+03 -5.969976E-10  1.948271E-09
       357  15 -5.480800E+05 -1.019660E+03 -6.554417E+03  8.779377E+03 -4.022199E-10  2.458105E-09
       357  16 -5.537625E+05 -1.303006E+03 -3.488881E+03  8.937664E+03 -3.718815E-10 -7.840054E-11
       357  17 -5.345244E+05  3.464394E+03 -4.362207E+02  1.708230E+03  2.790733E-09 -5.204887E-09
       357  18 -5.159208E+05  6.947145E+03  1.106631E+03  8.612999E+03  3.782872E-09  1.630568E-10
       357  19 -5.423957E+05  1.492101E+03 -8.781254E+02  8.616085E+03 -1.112916E+03  3.514940E+02
       357  20 -5.609979E+05 -3.103078E+03 -6.784730E+03  1.713796E+03 -2.931962E+03 -4.239096E+02
       357  21 -5.802382E+05 -8.986532E+03 -1.421549E+04  8.945750E+03 -4.751016E+03 -1.178881E+03
       357  22 -5.480791E+05  9.454946E+01 -2.183499E+03  8.776875E+03 -1.506544E+03  3.506022E+02
       357  23 -5.477612E+05  1.806661E+02 -3.610456E+03  1.711014E+03 -3.315332E+03 -4.247721E+02
       357  24 -5.480800E+05 -1.019651E+03 -6.554365E+03  8.779382E+03 -5.124183E+03 -1.179714E+03
       357  25 -5.537625E+05 -1.303005E+03 -3.488874E+03  8.937664E+03 -1.900168E+03  3.497103E+02
       357  26 -5.345244E+05  3.464398E+03 -4.361947E+02  1.708231E+03 -3.698710E+03 -4.256345E+02
       357  27 -5.159208E+05  6.947155E+03  1.106690E+03  8.613004E+03 -5.497369E+03 -1.180548E+03
       358   1 -6.064806E+05 -1.374591E+04 -2.222961E+04  7.208954E+03  5.990273E+03  1.668071E+03
       358   2 -6.232028E+05 -1.742718E+04 -3.235151E+04  2.337948E+03  1.331287E+04  2.443438E+03
       358   3 -6.441366E+05 -3.385573E+04 -5.044604E+04  1.153346E+04  2.063580E+04  2.947931E+03
       358   4 -5.488692E+05  5.659822E+02 -8.358699E+03  8.755340E+03  6.441258E+03  1.669083E+03
       358   5 -5.467777E+05  1.529508E+03 -1.402553E+04  1.733712E+03  1.362822E+04  2.444090E+03
       358   6 -5.488741E+05 -1.022979E+04 -2.756997E+04  8.778585E+03  2.081572E+04  2.948190E+03
       358   7 -4.912548E+05  1.487764E+04  5.511973E+03  1.030187E+04  6.892285E+03  1.670096E+03
       358   8 -4.703472E+05  2.048578E+04  4.300031E+03  1.129398E+03  1.394360E+04  2.444742E+03
       358   9 -4.536032E+05  1.339552E+04 -4.694540E+03  6.023283E+03  2.099568E+04  2.948447E+03
       358  10 -6.064806E+05 -1.374592E+04 -2.222968E+04  7.208946E+03 -4.447152E-09  4.208409E-09
       358  11 -6.232030E+05 -1.742724E+04 -3.235185E+04  2.337922E+03 -1.126497E-09  1.547610E-09
       358  12 -6.441371E+05 -3.385586E+04 -5.044686E+04  1.153341E+04  2.437234E-09  2.795022E-09
       358  13 -5.488693E+05  5.659680E+02 -8.358782E+03  8.755332E+03  2.253325E-09  3.594726E-09
       358  14 -5.467779E+05  1.529451E+03 -1.402589E+04  1.733685E+03 -1.128561E-09  2.807823E-09
       358  15 -5.488745E+05 -1.022992E+04 -2.757080E+04  8.778535E+03 -1.794014E-09 -6.107758E-10
       358  16 -4.912549E+05  1.487762E+04  5.511879E+03  1.030186E+04  4.067989E-09  2.824539E-09
       358  17 -4.703474E+05  2.048572E+04  4.299654E+03  1.129371E+03  8.069525E-10  6.054316E-10
       358  18 -4.536036E+05  1.339539E+04 -4.695386E+03  6.023233E+03 -1.777821E-09 -4.996024E-09
       358  19 -6.064806E+05 -1.374591E+04 -2.222961E+04  7.208954E+03 -5.990273E+03 -1.668071E+03
       358  20 -6.232028E+05 -1.742718E+04 -3.235151E+04  2.337948E+03 -1.331287E+04 -2.443438E+03
       358  21 -6.441366E+05 -3.385573E+04 -5.044604E+04  1.153346E+04 -2.063580E+04 -2.947931E+03
       358  22 -5.488692E+05  5.659822E+02 -8.358699E+03  8.755340E+03 -6.441258E+03 -1.669083E+03
       358  23 -5.467777E+05  1.529508E+03 -1.402553E+04  1.733712E+03 -1.362822E+04 -2.444090E+03
       358  24 -5.488741E+05 -1.022979E+04 -2.756997E+04  8.778585E+03 -2.081572E+04 -2.948190E+03
       358  25 -4.912548E+05  1.487764E+04  5.511973E+03  1.030187E+04 -6.892285E+03 -1.670096E+03
       358  26 -4.703472E+05  2.048578E+04  4.300031E+03  1.129398E+03 -1.394360E+04 -2.444742E+03
       358  27 -4.536032E+05  1.339552E+04 -4.694540E+03  6.023283E+03 -2.099568E+04 -2.948447E+03
       359   1 -6.759334E+05 -2.488197E+04 -6.266765E+04 -4.451045E+03  2.483209E+04  3.905889E+03
       359   2 -6.774755E+05 -2.042938E+04 -8.730023E+04  1.048930E+04  5.579186E+04  4.601951E+03
       359   3 -7.133329E+05 -1.368702E+05 -1.623371E+05  3.936127E+04  8.675838E+04  1.706152E+03
       359   4 -5.554928E+05  5.064125E+03 -3.378719E+04  8.669681E+03  2.605804E+04  3.908936E+03
       359   5 -5.385093E+05  1.399675E+04 -5.401591E+04  1.804211E+03  5.521378E+04  4.599920E+03
       359   6 -5.555202E+05 -9.763756E+04 -1.233873E+05  8.871110E+03  8.437727E+04  1.697218E+03
       359   7 -4.350386E+05  3.500980E+04 -4.907669E+03  2.179296E+04  2.728423E+04  3.912035E+03
       359   8 -3.995252E+05  4.842177E+04 -2.073292E+04 -6.882837E+03  5.463557E+04  4.597905E+03
       359   9 -3.976828E+05 -5.840323E+04 -8.443874E+04 -2.162682E+04  8.199556E+04  1.688520E+03
       359  10 -6.759340E+05 -2.488215E+04 -6.266884E+04 -4.451124E+03 -9.667176E-10  2.538315E-09
       359  11 -6.774788E+05 -2.043024E+04 -8.730612E+04  1.048909E+04 -4.623202E-10 -4.130680E-10
       359  12 -7.133410E+05 -1.368722E+05 -1.623513E+05  3.936115E+04  7.323803E-12 -9.928530E-10
       359  13 -5.554935E+05  5.063926E+03 -3.378850E+04  8.669599E+03  7.308694E-10  4.978354E-09
       359  14 -5.385125E+05  1.399591E+04 -5.402168E+04  1.804007E+03 -1.228394E-09 -3.816590E-09
       359  15 -5.555279E+05 -9.763947E+04 -1.234007E+05  8.870994E+03  4.244103E-10  2.456425E-09
       359  16 -4.350394E+05  3.500958E+04 -4.909098E+03  2.179287E+04 -2.170220E-10  3.902970E-10
       359  17 -3.995284E+05  4.842095E+04 -2.073857E+04 -6.883039E+03 -7.058650E-10  1.604068E-09
       359  18 -3.976901E+05 -5.840504E+04 -8.445139E+04 -2.162694E+04 -6.179655E-10  7.588920E-11
       359  19 -6.759334E+05 -2.488197E+04 -6.266765E+04 -4.451045E+03 -2.483209E+04 -3.905889E+03
       359  20 -6.774755E+05 -2.042938E+04 -8.730023E+04  1.048930E+04 -5.579186E+04 -4.601951E+03
       359  21 -7.133329E+05 -1.368702E+05 -1.623371E+05  3.936127E+04 -8.675838E+04 -1.706152E+03
       359  22 -5.554928E+05  5.064125E+03 -3.378719E+04  8.669681E+03 -2.605804E+04 -3.908936E+03
       359  23 -5.385093E+05  1.399675E+04 -5.401591E+04  1.804211E+03 -5.521378E+04 -4.599920E+03
       359  24 -5.555202E+05 -9.763756E+04 -1.233873E+05  8.871110E+03 -8.437727E+04 -1.697218E+03
       359  25 -4.350386E+05  3.500980E+04 -4.907669E+03  2.179296E+04 -2.728423E+04 -3.912035E+03
       359  26 -3.995252E+05  4.842177E+04 -2.073292E+04 -6.882837E+03 -5.463557E+04 -4.597905E+03
       359  27 -3.976828E+05 -5.840323E+04 -8.443874E+04 -2.162682E+04 -8.199556E+04 -1.688520E+03
       360   1  4.342743E+05  2.406316E+06  4.900314E+05 -1.756171E+05  7.858379E+03  1.892195E+05
       360   2  1.389759E+05  2.168963E+06  2.900913E+05 -5.364287E+04  2.205531E+04  1.106661E+05
       360   3  1.134656E+05  2.009184E+06  2.085940E+05 -7.895121E+04  1.499940E+04  3.210425E+04
       360   4  2.134640E+05  1.519753E+06  2.715237E+05 -1.068594E+05  7.895274E+03  1.765774E+05
       360   5 -3.104116E+04  1.481968E+06  1.259852E+05 -3.336479E+04  2.206326E+04  1.088500E+05
       360   6 -7.468250E+03  1.519956E+06  9.150478E+04 -1.071449E+05  1.498026E+04  4.108840E+04
       360   7 -7.387171E+03  6.339130E+05  5.296106E+04 -3.819936E+04  7.929416E+03  1.639530E+05
       360   8 -2.010908E+05  7.954052E+05 -3.815380E+04 -1.310900E+04  2.207110E+04  1.070358E+05
       360   9 -1.284164E+05  1.030948E+06 -2.560055E+04 -1.353162E+05  1.496029E+04  5.006551E+04
       360  10  4.342647E+05  2.406277E+06  4.899642E+05 -1.756183E+05 -8.971389E-10 -1.132215E-09
       360  11  1.389721E+05  2.168949E+06  2.900674E+05 -5.364483E+04 -1.537515E-09 -3.218445E-09
       360  12  1.134651E+05  2.009182E+06  2.085916E+05 -7.895160E+04 -8.046119E-10  2.925240E-09
       360  13  2.134556E+05  1.519720E+06  2.714651E+05 -1.068605E+05 -1.613221E-09 -1.482370E-09
       360  14 -3.104486E+04  1.481955E+06  1.259621E+05 -3.336672E+04 -7.664821E-10 -2.783943E-09
       360  15 -7.468943E+03  1.519954E+06  9.150119E+04 -1.071454E+05 -1.276632E-09 -3.954821E-10
       360  16 -7.394446E+03  6.338841E+05  5.291048E+04 -3.820040E+04  7.295365E-10  3.332523E-09
       360  17 -2.010944E+05  7.953928E+05 -3.817622E+04 -1.311090E+04 -1.519868E-09 -1.478421E-09
       360  18 -1.284173E+05  1.030946E+06 -2.560567E+04 -1.353168E+05 -4.867356E-09 -4.791985E-09
       360  19  4.342743E+05  2.406316E+06  4.900314E+05 -1.756171E+05 -7.858379E+03 -1.892195E+05
       360  20  1.389759E+05  2.168963E+06  2.900913E+05 -5.364287E+04 -2.205531E+04 -1.106661E+05
       360  21  1.134656E+05  2.009184E+06  2.085940E+05 -7.895121E+04 -1.499940E+04 -3.210425E+04
       360  22  2.134640E+05  1.519753E+06  2.715237E+05 -1.068594E+05 -7.895274E+03 -1.765774E+05
       360  23 -3.104116E+04  1.481968E+06  1.259852E+05 -3.336479E+04 -2.206326E+04 -1.088500E+05
       360  24 -7.468250E+03  1.519956E+06  9.150478E+04 -1.071449E+05 -1.498026E+04 -4.108840E+04
       360  25 -7.387171E+03  6.339130E+05  5.296106E+04 -3.819936E+04 -7.929416E+03 -1.639530E+05
       360  26 -2.010908E+05  7.954052E+05 -3.815380E+04 -1.310900E+04 -2.207110E+04 -1.070358E+05
       360  27 -1.284164E+05  1.030948E+06 -2.560055E+04 -1.353162E+05 -1.496029E+04 -5.006551E+04
       361   1  7.685558E+04  1.732019E+06  1.371088E+05 -1.177736E+05  7.116720E+03  2.282427E+04
       361   2 -6.493924E+02  1.525611E+06  7.751714E+04 -3.320689E+04  9.155748E+02 -1.355472E+04
       361   3 -1.228703E+04  1.339684E+06  5.787331E+04 -9.479701E+04 -5.371263E+03 -4.992317E+04
       361   4  2.128456E+04  1.507678E+06  8.346800E+04 -1.067895E+05  7.110439E+03  2.596920E+04
       361   5 -7.615234E+03  1.497456E+06  7.078195E+04 -3.370390E+04  9.087773E+02 -1.036158E+04
       361   6  2.934801E+04  1.507672E+06  9.801585E+04 -1.067718E+05 -5.377362E+03 -4.669311E+04
       361   7 -3.428965E+04  1.283384E+06  2.982376E+04 -9.580940E+04  7.104267E+03  2.911300E+04
       361   8 -1.458113E+04  1.469303E+06  6.404674E+04 -3.420088E+04  9.019745E+02 -7.168591E+03
       361   9  7.098154E+04  1.675686E+06  1.381565E+05 -1.187499E+05 -5.383585E+03 -4.346218E+04
       361  10  7.685538E+04  1.732018E+06  1.371077E+05 -1.177737E+05 -1.728899E-09  1.496491E-09
       361  11 -6.494425E+02  1.525611E+06  7.751679E+04 -3.320688E+04  7.125781E-10 -4.851060E-09
       361  12 -1.228773E+04  1.339681E+06  5.786858E+04 -9.479723E+04 -2.947155E-10  2.543871E-09
       361  13  2.128432E+04  1.507678E+06  8.346664E+04 -1.067897E+05  1.331705E-09 -1.871381E-09
       361  14 -7.615264E+03  1.497456E+06  7.078175E+04 -3.370389E+04  2.011385E-09 -5.023183E-09
       361  15  2.934739E+04  1.507670E+06  9.801171E+04 -1.067721E+05  1.220507E-09 -8.589404E-10
       361  16 -3.428993E+04  1.283383E+06  2.982207E+04 -9.580957E+04 -3.671312E-09  2.858401E-09
       361  17 -1.458114E+04  1.469303E+06  6.404665E+04 -3.420087E+04 -2.973639E-09 -1.680905E-09
       361  18  7.098100E+04  1.675684E+06  1.381529E+05 -1.187501E+05 -2.332998E-09 -4.461987E-09
       361  19  7.685558E+04  1.732019E+06  1.371088E+05 -1.177736E+05 -7.116720E+03 -2.282427E+04
       361  20 -6.493924E+02  1.525611E+06  7.751714E+04 -3.320689E+04 -9.155748E+02  1.355472E+04
       361  21 -1.228703E+04  1.339684E+06  5.787331E+04 -9.479701E+04  5.371263E+03  4.992317E+04
       361  22  2.128456E+04  1.507678E+06  8.346800E+04 -1.067895E+05 -7.110439E+03 -2.596920E+04
       361  23 -7.615234E+03  1.497456E+06  7.078195E+04 -3.370390E+04 -9.087773E+02  1.036158E+04
       361  24  2.934801E+04  1.507672E+06  9.801585E+04 -1.067718E+05  5.377362E+03  4.669311E+04
       361  25 -3.428965E+04  1.283384E+06  2.982376E+04 -9.580940E+04 -7.104267E+03 -2.911300E+04
       361  26 -1.458113E+04  1.469303E+06  6.404674E+04 -3.420088E+04 -9.019745E+02  7.168591E+03
       361  27  7.098154E+04  1.675686E+06  1.381565E+05 -1.187499E+05  5.383585E+03  4.346218E+04
       362   1 -1.189001E+05  1.092993E+06  8.572343E+03 -1.448649E+05 -1.305591E+04 -7.347364E+04
       362   2 -1.973189E+05  8.453803E+05  1.375490E+04 -6.551753E+03 -2.016298E+04 -1.517900E+05
       362   3  7.977495E+04  6.967712E+05  1.587644E+05 -1.520362E+04 -7.247723E+03 -2.300447E+05
       362   4 -1.199775E+04  1.525487E+06  1.121606E+05 -1.071134E+05 -1.307810E+04 -6.479750E+04
       362   5 -4.132325E+04  1.475067E+06  1.642922E+05 -3.343392E+04 -2.015272E+04 -1.533033E+05
       362   6  2.864144E+05  1.525237E+06  3.631981E+05 -1.066944E+05 -7.197702E+03 -2.417734E+05
       362   7  9.489652E+04  1.958154E+06  2.157368E+05 -6.933544E+04 -1.309924E+04 -5.611534E+04
       362   8  1.146464E+05  2.105118E+06  3.148019E+05 -6.034328E+04 -2.014234E+04 -1.548181E+05
       362   9  4.930341E+05  2.354344E+06  5.675859E+05 -1.983071E+05 -7.144282E+03 -2.535175E+05
       362  10 -1.189017E+05  1.092987E+06  8.561895E+03 -1.448657E+05 -6.403747E-10  3.968748E-09
       362  11 -1.973255E+05  8.453555E+05  1.371090E+04 -6.554217E+03 -3.149947E-10 -3.053995E-09
       362  12  7.976071E+04  6.967144E+05  1.586650E+05 -1.520496E+04  2.498469E-10  1.609745E-10
       362  13 -1.199906E+04  1.525482E+06  1.121525E+05 -1.071141E+05 -1.569081E-09 -2.189437E-09
       362  14 -4.132997E+04  1.475042E+06  1.642474E+05 -3.343641E+04  5.239465E-10 -4.059356E-09
       362  15  2.863987E+05  1.525175E+06  3.630884E+05 -1.066958E+05  1.433473E-09 -2.073820E-10
       362  16  9.489550E+04  1.958151E+06  2.157306E+05 -6.933604E+04 -2.221444E-10 -3.077703E-10
       362  17  1.146396E+05  2.105092E+06  3.147563E+05 -6.034579E+04  1.623821E-09 -2.711521E-09
       362  18  4.930168E+05  2.354275E+06  5.674654E+05 -1.983085E+05  2.074723E-10 -1.134351E-09
       362  19 -1.189001E+05  1.092993E+06  8.572343E+03 -1.448649E+05  1.305591E+04  7.347364E+04
       362  20 -1.973189E+05  8.453803E+05  1.375490E+04 -6.551753E+03  2.016298E+04  1.517900E+05
       362  21  7.977495E+04  6.967712E+05  1.587644E+05 -1.520362E+04  7.247723E+03  2.300447E+05
       362  22 -1.199775E+04  1.525487E+06  1.121606E+05 -1.071134E+05  1.307810E+04  6.479750E+04
       362  23 -4.132325E+04  1.475067E+06  1.642922E+05 -3.343392E+04  2.015272E+04  1.533033E+05
       362  24  2.864144E+05  1.525237E+06  3.631981E+05 -1.066944E+05  7.197702E+03  2.417734E+05
       362  25  9.489652E+04  1.958154E+06  2.157368E+05 -6.933544E+04  1.309924E+04  5.611534E+04
       362  26  1.146464E+05  2.105118E+06  3.148019E+05 -6.034328E+04  2.014234E+04  1.548181E+05
       362  27  4.930341E+05  2.354344E+06  5.675859E+05 -1.983071E+05  7.144282E+03  2.535175E+05
       363   1 -9.366463E+04 -5.216102E+04 -5.954818E+04 -2.346985E+04 -4.870828E+04 -1.854853E+04
       363   2 -7.628708E+04  1.511004E+04 -1.400899E+04 -4.199784E+04 -3.122935E+04 -1.241917E+04
       363   3 -9.169457E+04  5.743187E+03 -2.714370E+03 -3.874577E+04 -1.393259E+04 -5.806295E+03
       363   4 -1.604652E+05 -7.321297E+04 -7.710513E+04 -3.735624E+04 -4.877522E+04 -1.857412E+04
       363   5 -1.402635E+05 -8.019466E+03 -3.138548E+04 -5.835108E+04 -3.124381E+04 -1.242468E+04
       363   6 -1.528602E+05 -1.947896E+04 -1.995482E+04 -5.756496E+04 -1.389447E+04 -5.791887E+03
       363   7 -2.272614E+05 -9.426490E+04 -9.466240E+04 -5.124140E+04 -4.884214E+04 -1.859971E+04
       363   8 -2.042359E+05 -3.114880E+04 -4.876231E+04 -7.470282E+04 -3.125826E+04 -1.243019E+04
       363   9 -2.140222E+05 -4.470069E+04 -3.719563E+04 -7.638242E+04 -1.385636E+04 -5.777482E+03
       363  10 -9.366727E+04 -5.216202E+04 -5.955329E+04 -2.347058E+04  7.522806E-10 -8.322000E-10
       363  11 -7.628817E+04  1.510961E+04 -1.401111E+04 -4.199815E+04  1.138546E-09 -1.175279E-09
       363  12 -9.169479E+04  5.743099E+03 -2.714798E+03 -3.874584E+04  8.954857E-11  7.421740E-10
       363  13 -1.604679E+05 -7.321398E+04 -7.711025E+04 -3.735697E+04  5.545404E-10  1.543304E-09
       363  14 -1.402646E+05 -8.019894E+03 -3.138761E+04 -5.835139E+04  3.952041E-11 -3.921824E-09
       363  15 -1.528604E+05 -1.947905E+04 -1.995525E+04 -5.756503E+04 -1.654765E-09  4.125816E-10
       363  16 -2.272641E+05 -9.426592E+04 -9.466754E+04 -5.124213E+04 -1.176558E-09 -2.573662E-10
       363  17 -2.042370E+05 -3.114923E+04 -4.876444E+04 -7.470313E+04 -7.545958E-10 -3.198900E-09
       363  18 -2.140224E+05 -4.470078E+04 -3.719605E+04 -7.638248E+04  2.951702E-10 -3.302180E-09
       363  19 -9.366463E+04 -5.216102E+04 -5.954818E+04 -2.346985E+04  4.870828E+04  1.854853E+04
       363  20 -7.628708E+04  1.511004E+04 -1.400899E+04 -4.199784E+04  3.122935E+04  1.241917E+04
       363  21 -9.169457E+04  5.743187E+03 -2.714370E+03 -3.874577E+04  1.393259E+04  5.806295E+03
       363  22 -1.604652E+05 -7.321297E+04 -7.710513E+04 -3.735624E+04  4.877522E+04  1.857412E+04
       363  23 -1.402635E+05 -8.019466E+03 -3.138548E+04 -5.835108E+04  3.124381E+04  1.242468E+04
       363  24 -1.528602E+05 -1.947896E+04 -1.995482E+04 -5.756496E+04  1.389447E+04  5.791887E+03
       363  25 -2.272614E+05 -9.426490E+04 -9.466240E+04 -5.124140E+04  4.884214E+04  1.859971E+04
       363  26 -2.042359E+05 -3.114880E+04 -4.876231E+04 -7.470282E+04  3.125826E+04  1.243019E+04
       363  27 -2.140222E+05 -4.470069E+04 -3.719563E+04 -7.638242E+04  1.385636E+04  5.777482E+03
       364   1 -9.700893E+04 -8.939374E+03 -1.900308E+03 -3.841941E+04 -1.087137E+04 -4.551448E+03
       364   2 -9.414220E+04  4.400758E+02  7.011977E+03 -4.225265E+04 -6.934250E+03 -3.108936E+03
       364   3 -9.790391E+04 -5.084311E+02  9.733978E+03 -4.110499E+04 -3.030434E+03 -1.577842E+03
       364   4 -1.504131E+05 -2.852131E+04 -1.646732E+04 -5.235020E+04 -1.087959E+04 -4.554563E+03
       364   5 -1.465122E+05 -1.923086E+04 -7.363193E+03 -5.639430E+04 -6.932856E+03 -3.108416E+03
       364   6 -1.492421E+05 -2.027091E+04 -4.457377E+03 -5.545741E+04 -3.019416E+03 -1.573688E+03
       364   7 -2.038146E+05 -4.810313E+04 -3.103461E+04 -6.627993E+04 -1.088782E+04 -4.557678E+03
       364   8 -1.988797E+05 -3.890165E+04 -2.173862E+04 -7.053488E+04 -6.931463E+03 -3.107897E+03
       364   9 -2.005778E+05 -4.003322E+04 -1.864898E+04 -6.980876E+04 -3.008399E+03 -1.569535E+03
       364  10 -9.700907E+04 -8.939428E+03 -1.900569E+03 -3.841945E+04 -8.204730E-10  5.423962E-10
       364  11 -9.414225E+04  4.400525E+02  7.011868E+03 -4.225267E+04 -1.044921E-09  2.575219E-09
       364  12 -9.790392E+04 -5.084362E+02  9.733956E+03 -4.110500E+04 -1.537884E-09  2.535357E-09
       364  13 -1.504132E+05 -2.852136E+04 -1.646759E+04 -5.235024E+04 -1.019953E-09 -1.154777E-09
       364  14 -1.465123E+05 -1.923088E+04 -7.363301E+03 -5.639431E+04 -1.105001E-09  5.586319E-10
       364  15 -1.492421E+05 -2.027092E+04 -4.457398E+03 -5.545742E+04 -1.680432E-09  6.473899E-10
       364  16 -2.038147E+05 -4.810319E+04 -3.103487E+04 -6.627997E+04  1.077149E-09 -2.462313E-10
       364  17 -1.988797E+05 -3.890167E+04 -2.173873E+04 -7.053490E+04 -4.726391E-10 -8.469436E-10
       364  18 -2.005778E+05 -4.003322E+04 -1.864900E+04 -6.980876E+04 -2.241884E-09  9.310787E-10
       364  19 -9.700893E+04 -8.939374E+03 -1.900308E+03 -3.841941E+04  1.087137E+04  4.551448E+03
       364  20 -9.414220E+04  4.400758E+02  7.011977E+03 -4.225265E+04  6.934250E+03  3.108936E+03
       364  21 -9.790391E+04 -5.084311E+02  9.733978E+03 -4.110499E+04  3.030434E+03  1.577842E+03
       364  22 -1.504131E+05 -2.852131E+04 -1.646732E+04 -5.235020E+04  1.087959E+04  4.554563E+03
       364  23 -1.465122E+05 -1.923086E+04 -7.363193E+03 -5.639430E+04  6.932856E+03  3.108416E+03
       364  24 -1.492421E+05 -2.027091E+04 -4.457377E+03 -5.545741E+04  3.019416E+03  1.573688E+03
       364  25 -2.038146E+05 -4.810313E+04 -3.103461E+04 -6.627993E+04  1.088782E+04  4.557678E+03
       364  26 -1.988797E+05 -3.890165E+04 -2.173862E+04 -7.053488E+04  6.931463E+03  3.107897E+03
       364  27 -2.005778E+05 -4.003322E+04 -1.864898E+04 -6.980876E+04  3.008399E+03  1.569535E+03
       365   1 -1.092129E+05 -6.659976E+03  7.326882E+03 -4.384316E+04 -2.365346E+03 -1.285786E+03
       365   2 -1.086139E+05 -6.343451E+03  8.974545E+03 -4.559211E+04 -1.490985E+03 -9.229019E+02
       365   3 -1.107555E+05 -5.898810E+03  9.468086E+03 -4.463889E+04 -6.247220E+02 -5.385709E+02
       365   4 -1.488954E+05 -2.159480E+04 -3.570379E+03 -5.458920E+04 -2.363166E+03 -1.284966E+03
       365   5 -1.474350E+05 -2.102659E+04 -1.702398E+03 -5.617864E+04 -1.486451E+03 -9.211935E+02
       365   6 -1.487157E+05 -2.033076E+04 -9.904612E+02 -5.506586E+04 -6.178325E+02 -5.359725E+02
       365   7 -1.885765E+05 -3.652954E+04 -1.446778E+04 -6.533462E+04 -2.360987E+03 -1.284146E+03
       365   8 -1.862547E+05 -3.570964E+04 -1.237948E+04 -6.676457E+04 -1.481918E+03 -9.194851E+02
       365   9 -1.866746E+05 -3.476264E+04 -1.144915E+04 -6.549225E+04 -6.109434E+02 -5.333741E+02
       365  10 -1.092129E+05 -6.659979E+03  7.326869E+03 -4.384316E+04  2.883546E-09  2.096507E-09
       365  11 -1.086139E+05 -6.343452E+03  8.974539E+03 -4.559211E+04  1.428522E-09 -2.802008E-09
       365  12 -1.107555E+05 -5.898810E+03  9.468085E+03 -4.463889E+04  1.713500E-09  1.202999E-09
       365  13 -1.488954E+05 -2.159481E+04 -3.570392E+03 -5.458920E+04 -5.893815E-10  2.331789E-09
       365  14 -1.474350E+05 -2.102659E+04 -1.702404E+03 -5.617864E+04  5.036571E-11 -2.437683E-09
       365  15 -1.487157E+05 -2.033076E+04 -9.904624E+02 -5.506586E+04 -7.072794E-10  1.825972E-09
       365  16 -1.885765E+05 -3.652954E+04 -1.446779E+04 -6.533462E+04 -2.641470E-09  2.504752E-09
       365  17 -1.862547E+05 -3.570965E+04 -1.237948E+04 -6.676457E+04 -2.336537E-09  5.815560E-09
       365  18 -1.866746E+05 -3.476264E+04 -1.144915E+04 -6.549225E+04 -2.461894E-09  3.218262E-09
       365  19 -1.092129E+05 -6.659976E+03  7.326882E+03 -4.384316E+04  2.365346E+03  1.285786E+03
       365  20 -1.086139E+05 -6.343451E+03  8.974545E+03 -4.559211E+04  1.490985E+03  9.229019E+02
       365  21 -1.107555E+05 -5.898810E+03  9.468086E+03 -4.463889E+04  6.247220E+02  5.385709E+02
       365  22 -1.488954E+05 -2.159480E+04 -3.570379E+03 -5.458920E+04  2.363166E+03  1.284966E+03
       365  23 -1.474350E+05 -2.102659E+04 -1.702398E+03 -5.617864E+04  1.486451E+03  9.211935E+02
       365  24 -1.487157E+05 -2.033076E+04 -9.904612E+02 -5.506586E+04  6.178325E+02  5.359725E+02
       365  25 -1.885765E+05 -3.652954E+04 -1.446778E+04 -6.533462E+04  2.360987E+03  1.284146E+03
       365  26 -1.862547E+05 -3.570964E+04 -1.237948E+04 -6.676457E+04  1.481918E+03  9.194851E+02
       365  27 -1.866746E+05 -3.476264E+04 -1.144915E+04 -6.549225E+04  6.109434E+02  5.333741E+02
       366   1 -1.243023E+05 -1.126862E+04  5.933367E+03 -4.823555E+04 -4.871138E+02 -4.520586E+02
       366   2 -1.240434E+05 -1.244909E+04  6.092009E+03 -4.977664E+04 -3.138634E+02 -3.357146E+02
       366   3 -1.260752E+05 -1.172766E+04  6.037277E+03 -4.878092E+04 -1.433683E+02 -2.120976E+02
       366   4 -1.486951E+05 -2.049735E+04 -7.730561E+02 -5.489095E+04 -4.824946E+02 -4.503160E+02
       366   5 -1.475356E+05 -2.134831E+04 -3.719067E+02 -5.619707E+04 -3.084342E+02 -3.336657E+02
       366   6 -1.486668E+05 -2.029756E+04 -1.847819E+02 -5.496639E+04 -1.371289E+02 -2.097423E+02
       366   7 -1.730874E+05 -2.972606E+04 -7.479533E+03 -6.154611E+04 -4.778756E+02 -4.485735E+02
       366   8 -1.710271E+05 -3.024751E+04 -6.835871E+03 -6.261728E+04 -3.030053E+02 -3.316169E+02
       366   9 -1.712578E+05 -2.886741E+04 -6.406884E+03 -6.115166E+04 -1.308898E+02 -2.073871E+02
       366  10 -1.243023E+05 -1.126862E+04  5.933366E+03 -4.823555E+04  1.726585E-09  4.629864E-09
       366  11 -1.240434E+05 -1.244909E+04  6.092008E+03 -4.977664E+04  1.289450E-09  7.655219E-09
       366  12 -1.260752E+05 -1.172766E+04  6.037277E+03 -4.878092E+04  9.045064E-10  5.584827E-10
       366  13 -1.486951E+05 -2.049735E+04 -7.730569E+02 -5.489095E+04 -6.270424E-10 -1.434632E-09
       366  14 -1.475356E+05 -2.134831E+04 -3.719071E+02 -5.619707E+04  3.057524E-11  1.972944E-09
       366  15 -1.486668E+05 -2.029756E+04 -1.847820E+02 -5.496639E+04 -1.693073E-09 -2.063273E-09
       366  16 -1.730874E+05 -2.972606E+04 -7.479534E+03 -6.154611E+04 -1.560973E-09  1.625330E-11
       366  17 -1.710271E+05 -3.024751E+04 -6.835871E+03 -6.261728E+04 -2.371670E-09 -3.953413E-10
       366  18 -1.712578E+05 -2.886741E+04 -6.406884E+03 -6.115166E+04 -2.756481E-09 -8.550979E-10
       366  19 -1.243023E+05 -1.126862E+04  5.933367E+03 -4.823555E+04  4.871138E+02  4.520586E+02
       366  20 -1.240434E+05 -1.244909E+04  6.092009E+03 -4.977664E+04  3.138634E+02  3.357146E+02
       366  21 -1.260752E+05 -1.172766E+04  6.037277E+03 -4.878092E+04  1.433683E+02  2.120976E+02
       366  22 -1.486951E+05 -2.049735E+04 -7.730561E+02 -5.489095E+04  4.824946E+02  4.503160E+02
       366  23 -1.475356E+05 -2.134831E+04 -3.719067E+02 -5.619707E+04  3.084342E+02  3.336657E+02
       366  24 -1.486668E+05 -2.029756E+04 -1.847819E+02 -5.496639E+04  1.371289E+02  2.097423E+02
       366  25 -1.730874E+05 -2.972606E+04 -7.479533E+03 -6.154611E+04  4.778756E+02  4.485735E+02
       366  26 -1.710271E+05 -3.024751E+04 -6.835871E+03 -6.261728E+04  3.030053E+02  3.316169E+02
       366  27 -1.712578E+05 -2.886741E+04 -6.406884E+03 -6.115166E+04  1.308898E+02  2.073871E+02
       367   1 -1.406904E+05 -1.728843E+04  2.071601E+03 -5.273351E+04 -1.289510E+02 -1.712228E+02
       367   2 -1.404847E+05 -1.875326E+04  1.940858E+03 -5.429221E+04 -1.485530E+02 -1.210343E+02
       367   3 -1.425456E+05 -1.792280E+04  1.816263E+03 -5.327332E+04 -1.683813E+02 -7.025298E+01
       367   4 -1.486761E+05 -2.031452E+04 -1.224876E+02 -5.491783E+04 -1.233206E+02 -1.690970E+02
       367   5 -1.475376E+05 -2.142568E+04  5.993989E-02 -5.622041E+04 -1.428561E+02 -1.188831E+02
       367   6 -1.486657E+05 -2.024155E+04  1.287087E+02 -5.494540E+04 -1.626177E+02 -6.807643E+01
       367   7 -1.566618E+05 -2.334061E+04 -2.316584E+03 -5.710213E+04 -1.176903E+02 -1.669711E+02
       367   8 -1.545905E+05 -2.409810E+04 -1.940743E+03 -5.814860E+04 -1.371592E+02 -1.167319E+02
       367   9 -1.547858E+05 -2.256030E+04 -1.558849E+03 -5.661747E+04 -1.568542E+02 -6.589989E+01
       367  10 -1.406904E+05 -1.728843E+04  2.071601E+03 -5.273351E+04  1.480564E-09 -4.053196E-09
       367  11 -1.404847E+05 -1.875326E+04  1.940858E+03 -5.429221E+04  1.590138E-09  8.013635E-10
       367  12 -1.425456E+05 -1.792280E+04  1.816263E+03 -5.327332E+04 -1.272047E-09 -1.782527E-09
       367  13 -1.486761E+05 -2.031452E+04 -1.224877E+02 -5.491783E+04 -2.418326E-09  7.380161E-10
       367  14 -1.475376E+05 -2.142568E+04  5.987491E-02 -5.622041E+04 -1.138773E-09  2.733433E-09
       367  15 -1.486657E+05 -2.024155E+04  1.287087E+02 -5.494540E+04 -1.112910E-09  3.117484E-11
       367  16 -1.566618E+05 -2.334061E+04 -2.316584E+03 -5.710213E+04 -7.634675E-10  4.576230E-09
       367  17 -1.545905E+05 -2.409810E+04 -1.940743E+03 -5.814860E+04  1.679215E-10  3.412849E-09
       367  18 -1.547858E+05 -2.256030E+04 -1.558849E+03 -5.661747E+04  2.845352E-09 -5.778058E-09
       367  19 -1.406904E+05 -1.728843E+04  2.071601E+03 -5.273351E+04  1.289510E+02  1.712228E+02
       367  20 -1.404847E+05 -1.875326E+04  1.940858E+03 -5.429221E+04  1.485530E+02  1.210343E+02
       367  21 -1.425456E+05 -1.792280E+04  1.816263E+03 -5.327332E+04  1.683813E+02  7.025298E+01
       367  22 -1.486761E+05 -2.031452E+04 -1.224876E+02 -5.491783E+04  1.233206E+02  1.690970E+02
       367  23 -1.475376E+05 -2.142568E+04  5.993991E-02 -5.622041E+04  1.428561E+02  1.188831E+02
       367  24 -1.486657E+05 -2.024155E+04  1.287087E+02 -5.494540E+04  1.626177E+02  6.807643E+01
       367  25 -1.566618E+05 -2.334061E+04 -2.316584E+03 -5.710213E+04  1.176903E+02  1.669711E+02
       367  26 -1.545905E+05 -2.409810E+04 -1.940743E+03 -5.814860E+04  1.371592E+02  1.167319E+02
       367  27 -1.547858E+05 -2.256030E+04 -1.558849E+03 -5.661747E+04  1.568542E+02  6.589989E+01
       368   1 -1.574514E+05 -2.362301E+04 -2.234783E+03 -5.731365E+04 -2.081458E+02 -4.811792E+01
       368   2 -1.573081E+05 -2.517974E+04 -2.307712E+03 -5.887080E+04 -4.201183E+02 -6.722227E+01
       368   3 -1.592460E+05 -2.405802E+04 -2.124268E+03 -5.795813E+04 -6.279812E+02 -9.719995E+01
       368   4 -1.486443E+05 -2.029567E+04  1.903371E+02 -5.491675E+04 -2.015456E+02 -4.562546E+01
       368   5 -1.475831E+05 -2.148948E+04  3.693481E+02 -5.620659E+04 -4.147425E+02 -6.519246E+01
       368   6 -1.486028E+05 -2.000459E+04  8.057000E+02 -5.502662E+04 -6.238303E+02 -9.563286E+01
       368   7 -1.398372E+05 -1.696833E+04  2.615448E+03 -5.251983E+04 -1.949453E+02 -4.313298E+01
       368   8 -1.378580E+05 -1.779920E+04  3.046399E+03 -5.354235E+04 -4.093666E+02 -6.316262E+01
       368   9 -1.379594E+05 -1.595116E+04  3.735660E+03 -5.209506E+04 -6.196792E+02 -9.406574E+01
       368  10 -1.574514E+05 -2.362301E+04 -2.234783E+03 -5.731365E+04 -1.636403E-09  2.305378E-09
       368  11 -1.573081E+05 -2.517974E+04 -2.307712E+03 -5.887080E+04 -2.038066E-10  2.989416E-09
       368  12 -1.592460E+05 -2.405802E+04 -2.124269E+03 -5.795813E+04  2.458372E-09  5.675327E-10
       368  13 -1.486443E+05 -2.029567E+04  1.903370E+02 -5.491675E+04 -6.021100E-10 -1.668559E-09
       368  14 -1.475831E+05 -2.148948E+04  3.693477E+02 -5.620659E+04  4.695897E-10  4.235217E-10
       368  15 -1.486028E+05 -2.000459E+04  8.056993E+02 -5.502662E+04  9.295924E-11 -3.903662E-09
       368  16 -1.398372E+05 -1.696833E+04  2.615448E+03 -5.251983E+04  1.070853E-09 -3.269531E-09
       368  17 -1.378580E+05 -1.779920E+04  3.046399E+03 -5.354235E+04  2.842692E-09 -3.769024E-09
       368  18 -1.379594E+05 -1.595116E+04  3.735659E+03 -5.209506E+04  6.426650E-10 -2.298930E-09
       368  19 -1.574514E+05 -2.362301E+04 -2.234783E+03 -5.731365E+04  2.081458E+02  4.811792E+01
       368  20 -1.573081E+05 -2.517974E+04 -2.307712E+03 -5.887080E+04  4.201183E+02  6.722227E+01
       368  21 -1.592460E+05 -2.405802E+04 -2.124268E+03 -5.795813E+04  6.279812E+02  9.719995E+01
       368  22 -1.486443E+05 -2.029567E+04  1.903371E+02 -5.491675E+04  2.015456E+02  4.562546E+01
       368  23 -1.475831E+05 -2.148948E+04  3.693481E+02 -5.620659E+04  4.147425E+02  6.519246E+01
       368  24 -1.486028E+05 -2.000459E+04  8.057000E+02 -5.502662E+04  6.238303E+02  9.563286E+01
       368  25 -1.398372E+05 -1.696833E+04  2.615448E+03 -5.251983E+04  1.949453E+02  4.313298E+01
       368  26 -1.378580E+05 -1.779920E+04  3.046399E+03 -5.354235E+04  4.093666E+02  6.316262E+01
       368  27 -1.379594E+05 -1.595116E+04  3.735660E+03 -5.209506E+04  6.196792E+02  9.406574E+01
       369   1 -1.736900E+05 -2.982694E+04 -5.914235E+03 -6.169131E+04 -8.002536E+02 -1.183610E+02
       369   2 -1.738705E+05 -3.174287E+04 -5.488301E+03 -6.324874E+04 -1.712072E+03 -3.960121E+02
       369   3 -1.750299E+05 -2.876610E+04 -3.644576E+03 -6.306026E+04 -2.601509E+03 -7.329176E+02
       369   4 -1.484765E+05 -2.034561E+04  1.012971E+03 -5.487307E+04 -7.904006E+02 -1.146416E+02
       369   5 -1.478535E+05 -2.185090E+04  1.677123E+03 -5.610132E+04 -1.708912E+03 -3.948203E+02
       369   6 -1.482080E+05 -1.846224E+04  3.764326E+03 -5.558364E+04 -2.605044E+03 -7.342529E+02
       369   7 -1.232624E+05 -1.086423E+04  7.940119E+03 -4.805458E+04 -7.805472E+02 -1.109219E+02
       369   8 -1.218357E+05 -1.195889E+04  8.842483E+03 -4.895362E+04 -1.705752E+03 -3.936284E+02
       369   9 -1.213854E+05 -8.158339E+03  1.117316E+04 -4.810672E+04 -2.608579E+03 -7.355883E+02
       369  10 -1.736900E+05 -2.982694E+04 -5.914236E+03 -6.169131E+04 -4.228641E-10  1.912473E-10
       369  11 -1.738705E+05 -3.174287E+04 -5.488307E+03 -6.324874E+04 -2.392416E-09  5.409043E-10
       369  12 -1.750299E+05 -2.876611E+04 -3.644589E+03 -6.306026E+04  1.001848E-09  1.527701E-09
       369  13 -1.484765E+05 -2.034561E+04  1.012970E+03 -5.487307E+04  1.993907E-09 -4.776922E-10
       369  14 -1.478535E+05 -2.185090E+04  1.677117E+03 -5.610132E+04 -2.373779E-09  5.866329E-09
       369  15 -1.482080E+05 -1.846224E+04  3.764312E+03 -5.558364E+04  3.648876E-10 -4.205101E-09
       369  16 -1.232624E+05 -1.086423E+04  7.940118E+03 -4.805458E+04  2.638599E-09 -3.769772E-09
       369  17 -1.218357E+05 -1.195889E+04  8.842477E+03 -4.895362E+04  9.740233E-10  2.968301E-09
       369  18 -1.213854E+05 -8.158341E+03  1.117314E+04 -4.810672E+04  6.233436E-10  6.382060E-10
       369  19 -1.736900E+05 -2.982694E+04 -5.914235E+03 -6.169131E+04  8.002536E+02  1.183610E+02
       369  20 -1.738705E+05 -3.174287E+04 -5.488301E+03 -6.324874E+04  1.712072E+03  3.960121E+02
       369  21 -1.750299E+05 -2.876610E+04 -3.644576E+03 -6.306026E+04  2.601509E+03  7.329176E+02
       369  22 -1.484765E+05 -2.034561E+04  1.012971E+03 -5.487307E+04  7.904006E+02  1.146416E+02
       369  23 -1.478535E+05 -2.185090E+04  1.677123E+03 -5.610132E+04  1.708912E+03  3.948203E+02
       369  24 -1.482080E+05 -1.846224E+04  3.764326E+03 -5.558364E+04  2.605044E+03  7.342529E+02
       369  25 -1.232624E+05 -1.086423E+04  7.940119E+03 -4.805458E+04  7.805472E+02  1.109219E+02
       369  26 -1.218357E+05 -1.195889E+04  8.842483E+03 -4.895362E+04  1.705752E+03  3.936284E+02
       369  27 -1.213854E+05 -8.158339E+03  1.117316E+04 -4.810672E+04  2.608579E+03  7.355883E+02
       370   1 -1.882250E+05 -3.551585E+04 -6.528162E+03 -6.508705E+04 -3.361038E+03 -9.304377E+02
       370   2 -1.903014E+05 -4.007072E+04 -4.131943E+03 -6.698618E+04 -7.328989E+03 -2.324870E+03
       370   3 -1.870282E+05 -2.487790E+04  6.091155E+03 -7.133162E+04 -1.117003E+04 -4.056062E+03
       370   4 -1.475739E+05 -2.059370E+04  4.564663E+03 -5.446618E+04 -3.332193E+03 -9.195533E+02
       370   5 -1.493787E+05 -2.433039E+04  7.171759E+03 -5.555797E+04 -7.338222E+03 -2.328358E+03
       370   6 -1.458268E+05 -8.312492E+03  1.763553E+04 -5.909588E+04 -1.121734E+04 -4.073922E+03
       370   7 -1.069211E+05 -5.671465E+03  1.565735E+04 -4.384469E+04 -3.303346E+03 -9.086682E+02
       370   8 -1.084544E+05 -8.589953E+03  1.847530E+04 -4.412908E+04 -7.347457E+03 -2.331847E+03
       370   9 -1.046239E+05  8.253047E+03  2.917972E+04 -4.685940E+04 -1.126466E+04 -4.091784E+03
       370  10 -1.882250E+05 -3.551585E+04 -6.528185E+03 -6.508705E+04  9.005731E-10  2.572874E-09
       370  11 -1.903014E+05 -4.007074E+04 -4.132055E+03 -6.698619E+04 -3.466511E-10 -1.019353E-09
       370  12 -1.870283E+05 -2.487795E+04  6.090890E+03 -7.133165E+04  8.479899E-10 -7.759422E-10
       370  13 -1.475739E+05 -2.059370E+04  4.564641E+03 -5.446618E+04  2.182490E-09 -4.499713E-09
       370  14 -1.493787E+05 -2.433041E+04  7.171647E+03 -5.555798E+04 -1.225167E-09  3.671240E-09
       370  15 -1.458270E+05 -8.312543E+03  1.763526E+04 -5.909591E+04 -4.070069E-10  5.610845E-10
       370  16 -1.069212E+05 -5.671469E+03  1.565733E+04 -4.384469E+04 -1.007158E-09  1.047237E-09
       370  17 -1.084545E+05 -8.589973E+03  1.847519E+04 -4.412910E+04 -1.411117E-09  4.905767E-09
       370  18 -1.046241E+05  8.252995E+03  2.917945E+04 -4.685944E+04 -4.782622E-10 -3.989838E-10
       370  19 -1.882250E+05 -3.551585E+04 -6.528162E+03 -6.508705E+04  3.361038E+03  9.304377E+02
       370  20 -1.903014E+05 -4.007072E+04 -4.131943E+03 -6.698618E+04  7.328989E+03  2.324870E+03
       370  21 -1.870282E+05 -2.487790E+04  6.091155E+03 -7.133162E+04  1.117003E+04  4.056062E+03
       370  22 -1.475739E+05 -2.059370E+04  4.564663E+03 -5.446618E+04  3.332193E+03  9.195533E+02
       370  23 -1.493787E+05 -2.433039E+04  7.171759E+03 -5.555797E+04  7.338222E+03  2.328358E+03
       370  24 -1.458268E+05 -8.312492E+03  1.763553E+04 -5.909588E+04  1.121734E+04  4.073922E+03
       370  25 -1.069211E+05 -5.671465E+03  1.565735E+04 -4.384469E+04  3.303346E+03  9.086682E+02
       370  26 -1.084544E+05 -8.589953E+03  1.847530E+04 -4.412908E+04  7.347457E+03  2.331847E+03
       370  27 -1.046239E+05  8.253047E+03  2.917972E+04 -4.685940E+04  1.126466E+04  4.091784E+03
       371   1 -1.172434E+05  1.898406E+04 -1.170413E+04 -1.630605E+04 -8.830552E+04 -5.392706E+03
       371   2 -1.352184E+05  1.366281E+05  5.482374E+04 -5.019200E+03 -6.075702E+04 -1.583035E+04
       371   3 -1.908157E+05  1.176415E+05  6.930351E+04  3.345202E+04 -3.323501E+04 -1.468057E+04
       371   4 -6.413883E+05 -1.115946E+05 -1.410499E+05  1.803106E+04 -9.645571E+04 -5.414415E+03
       371   5 -6.220344E+05  1.596208E+04 -6.177159E+04  4.313509E+03 -6.309362E+04 -1.583753E+04
       371   6 -6.413467E+05  5.817837E+03 -3.861235E+04  1.778230E+04 -2.975600E+04 -1.467143E+04
       371   7 -1.165280E+06 -2.421893E+05 -2.704150E+05  5.233900E+04 -1.045990E+05 -5.437037E+03
       371   8 -1.108633E+06 -1.047208E+05 -1.783836E+05  1.363874E+04 -6.542838E+04 -1.584478E+04
       371   9 -1.091691E+06 -1.060197E+05 -1.465424E+05  2.123888E+03 -2.627950E+04 -1.466246E+04
       371  10 -1.172517E+05  1.898194E+04 -1.171884E+04 -1.630643E+04 -1.777127E-09  1.138629E-09
       371  11 -1.352224E+05  1.366269E+05  5.481633E+04 -5.019975E+03  4.759372E-09  8.080991E-09
       371  12 -1.908170E+05  1.176409E+05  6.930103E+04  3.345163E+04  8.215474E-09  4.389818E-09
       371  13 -6.413983E+05 -1.115972E+05 -1.410674E+05  1.803063E+04  2.578634E-09 -1.602222E-09
       371  14 -6.220388E+05  1.596074E+04 -6.177955E+04  4.312704E+03 -1.115682E-09 -3.969908E-09
       371  15 -6.413477E+05  5.817368E+03 -3.861442E+04  1.778195E+04  5.407909E-10  7.222326E-09
       371  16 -1.165292E+06 -2.421922E+05 -2.704357E+05  5.233854E+04  1.294964E-09  9.238837E-10
       371  17 -1.108638E+06 -1.047222E+05 -1.783921E+05  1.363791E+04 -5.662402E-09  6.335673E-09
       371  18 -1.091692E+06 -1.060201E+05 -1.465441E+05  2.123577E+03 -6.751116E-09 -2.577687E-09
       371  19 -1.172434E+05  1.898406E+04 -1.170413E+04 -1.630605E+04  8.830552E+04  5.392706E+03
       371  20 -1.352184E+05  1.366281E+05  5.482374E+04 -5.019200E+03  6.075702E+04  1.583035E+04
       371  21 -1.908157E+05  1.176415E+05  6.930351E+04  3.345202E+04  3.323501E+04  1.468057E+04
       371  22 -6.413883E+05 -1.115946E+05 -1.410499E+05  1.803106E+04  9.645571E+04  5.414415E+03
       371  23 -6.220344E+05  1.596208E+04 -6.177159E+04  4.313509E+03  6.309362E+04  1.583753E+04
       371  24 -6.413467E+05  5.817837E+03 -3.861235E+04  1.778230E+04  2.975600E+04  1.467143E+04
       371  25 -1.165280E+06 -2.421893E+05 -2.704150E+05  5.233900E+04  1.045990E+05  5.437037E+03
       371  26 -1.108633E+06 -1.047208E+05 -1.783836E+05  1.363874E+04  6.542838E+04  1.584478E+04
       371  27 -1.091691E+06 -1.060197E+05 -1.465424E+05  2.123888E+03  2.627950E+04  1.466246E+04
       372   1 -2.334098E+05  8.766453E+04  6.466862E+04  1.559994E+04 -2.388023E+04 -1.214492E+04
       372   2 -2.688188E+05  9.168120E+04  7.090748E+04  3.972322E+03 -1.610410E+04 -1.148877E+04
       372   3 -3.088857E+05  8.134414E+04  6.848347E+04  2.050827E+04 -8.332075E+03 -9.951417E+03
       372   4 -6.338041E+05 -1.166809E+04 -3.151010E+04  1.810364E+04 -2.377212E+04 -1.214527E+04
       372   5 -6.314290E+05  1.738971E+03 -1.603476E+04  4.003749E+03 -1.555679E+04 -1.148762E+04
       372   6 -6.337932E+05  7.109956E+02 -9.531730E+03  1.806864E+04 -7.345100E+03 -9.948592E+03
       372   7 -1.034051E+06 -1.110124E+05 -1.277002E+05  2.060563E+04 -2.366407E+04 -1.214561E+04
       372   8 -9.939185E+05 -8.821281E+04 -1.029863E+05  4.035070E+03 -1.500980E+04 -1.148646E+04
       372   9 -9.586040E+05 -7.992982E+04 -8.755443E+04  1.563021E+04 -6.358640E+03 -9.945774E+03
       372  10 -2.334105E+05  8.766422E+04  6.466727E+04  1.559970E+04 -4.083068E-10 -2.440771E-09
       372  11 -2.688192E+05  9.168099E+04  7.090675E+04  3.972173E+03 -5.571375E-09  4.636069E-10
       372  12 -3.088858E+05  8.134402E+04  6.848316E+04  2.050820E+04 -4.950537E-09  7.689847E-09
       372  13 -6.338047E+05 -1.166840E+04 -3.151144E+04  1.810341E+04  2.096878E-09  1.215895E-08
       372  14 -6.314292E+05  1.738764E+03 -1.603546E+04  4.003605E+03  1.707166E-09 -1.668986E-08
       372  15 -6.337933E+05  7.108748E+02 -9.532017E+03  1.806858E+04 -1.587696E-10  8.939661E-09
       372  16 -1.034052E+06 -1.110127E+05 -1.277015E+05  2.060540E+04  2.017729E-09 -7.547933E-09
       372  17 -9.939188E+05 -8.821301E+04 -1.029870E+05  4.034931E+03  5.112403E-09 -3.210438E-09
       372  18 -9.586040E+05 -7.992993E+04 -8.755469E+04  1.563016E+04  5.047493E-09  5.945382E-10
       372  19 -2.334098E+05  8.766453E+04  6.466862E+04  1.559994E+04  2.388023E+04  1.214492E+04
       372  20 -2.688188E+05  9.168120E+04  7.090748E+04  3.972322E+03  1.610410E+04  1.148877E+04
       372  21 -3.088857E+05  8.134414E+04  6.848347E+04  2.050827E+04  8.332075E+03  9.951417E+03
       372  22 -6.338041E+05 -1.166809E+04 -3.151010E+04  1.810364E+04  2.377212E+04  1.214527E+04
       372  23 -6.314290E+05  1.738971E+03 -1.603476E+04  4.003749E+03  1.555679E+04  1.148762E+04
       372  24 -6.337932E+05  7.109956E+02 -9.531730E+03  1.806864E+04  7.345100E+03  9.948592E+03
       372  25 -1.034051E+06 -1.110124E+05 -1.277002E+05  2.060563E+04  2.366407E+04  1.214561E+04
       372  26 -9.939185E+05 -8.821281E+04 -1.029863E+05  4.035070E+03  1.500980E+04  1.148646E+04
       372  27 -9.586040E+05 -7.992982E+04 -8.755443E+04  1.563021E+04  6.358640E+03  9.945774E+03
       373   1 -3.594457E+05  6.671108E+04  5.801390E+04  1.863882E+04 -6.584267E+03 -8.918174E+03
       373   2 -3.975769E+05  5.849996E+04  5.224812E+04  4.402297E+03 -4.574554E+03 -7.412966E+03
       373   3 -4.364867E+05  4.895107E+04  4.479964E+04  1.893961E+04 -2.565961E+03 -5.832376E+03
       373   4 -6.329069E+05 -1.107922E+03 -7.469441E+03  1.821819E+04 -5.846626E+03 -8.916008E+03
       373   5 -6.325116E+05  2.164404E+02 -4.091882E+03  3.828748E+03 -3.799772E+03 -7.410500E+03
       373   6 -6.329024E+05  1.964144E+02 -2.423187E+03  1.821383E+04 -1.753915E+03 -5.829593E+03
       373   7 -9.062995E+05 -6.893235E+04 -7.295807E+04  1.779769E+04 -5.109308E+03 -8.913843E+03
       373   8 -8.673956E+05 -5.807109E+04 -6.043579E+04  3.255374E+03 -3.025283E+03 -7.408035E+03
       373   9 -8.292829E+05 -4.856105E+04 -4.964876E+04  1.748825E+04 -9.421248E+02 -5.826812E+03
       373  10 -3.594458E+05  6.671098E+04  5.801367E+04  1.863877E+04  1.171327E-09 -4.688404E-09
       373  11 -3.975770E+05  5.849989E+04  5.224797E+04  4.402269E+03 -2.374782E-09 -7.088837E-09
       373  12 -4.364867E+05  4.895103E+04  4.479956E+04  1.893960E+04  1.276488E-10 -2.791752E-09
       373  13 -6.329070E+05 -1.108016E+03 -7.469655E+03  1.821815E+04  1.750835E-09 -3.674286E-09
       373  14 -6.325116E+05  2.163776E+02 -4.092012E+03  3.828725E+03  4.091311E-10 -5.910082E-09
       373  15 -6.329025E+05  1.963771E+02 -2.423256E+03  1.821382E+04  1.207476E-09 -3.335400E-09
       373  16 -9.062995E+05 -6.893244E+04 -7.295827E+04  1.779765E+04 -3.445349E-10 -5.146059E-09
       373  17 -8.673957E+05 -5.807115E+04 -6.043591E+04  3.255356E+03  1.207756E-09  4.466920E-09
       373  18 -8.292829E+05 -4.856108E+04 -4.964882E+04  1.748824E+04  6.274387E-10  6.471595E-09
       373  19 -3.594457E+05  6.671108E+04  5.801390E+04  1.863882E+04  6.584267E+03  8.918174E+03
       373  20 -3.975769E+05  5.849996E+04  5.224812E+04  4.402297E+03  4.574554E+03  7.412966E+03
       373  21 -4.364867E+05  4.895107E+04  4.479964E+04  1.893961E+04  2.565961E+03  5.832376E+03
       373  22 -6.329069E+05 -1.107922E+03 -7.469441E+03  1.821819E+04  5.846626E+03  8.916008E+03
       373  23 -6.325116E+05  2.164404E+02 -4.091882E+03  3.828748E+03  3.799772E+03  7.410500E+03
       373  24 -6.329024E+05  1.964144E+02 -2.423187E+03  1.821383E+04  1.753915E+03  5.829593E+03
       373  25 -9.062995E+05 -6.893235E+04 -7.295807E+04  1.779769E+04  5.109308E+03  8.913843E+03
       373  26 -8.673956E+05 -5.807109E+04 -6.043579E+04  3.255374E+03  3.025283E+03  7.408035E+03
       373  27 -8.292829E+05 -4.856105E+04 -4.964876E+04  1.748825E+04  9.421248E+02  5.826812E+03
       374   1 -4.886797E+05  3.574347E+04  3.254411E+04  1.867858E+04 -2.164623E+03 -4.900196E+03
       374   2 -5.274970E+05  2.614417E+04  2.404029E+04  4.032760E+03 -1.591241E+03 -3.315696E+03
       374   3 -5.666329E+05  1.658416E+04  1.511810E+04  1.850099E+04 -1.018284E+03 -1.721908E+03
       374   4 -6.327941E+05  1.197199E+01 -1.901810E+03  1.829105E+04 -1.369721E+03 -4.897382E+03
       374   5 -6.326329E+05  5.918125E+01 -1.174762E+03  3.733631E+03 -7.918024E+02 -3.312786E+03
       374   6 -6.327924E+05  1.449716E+02 -8.692260E+02  1.829057E+04 -2.142735E+02 -1.718895E+03
       374   7 -7.768894E+05 -3.572103E+04 -3.634919E+04  1.790359E+04 -5.750015E+02 -4.894569E+03
       374   8 -7.377585E+05 -2.602661E+04 -2.639059E+04  3.434543E+03  7.501347E+00 -3.309876E+03
       374   9 -6.989478E+05 -1.629454E+04 -1.685687E+04  1.808016E+04  5.896514E+02 -1.715883E+03
       374  10 -4.886797E+05  3.574344E+04  3.254406E+04  1.867857E+04  1.120456E-09 -4.129599E-09
       374  11 -5.274970E+05  2.614416E+04  2.404026E+04  4.032755E+03 -5.469398E-09  5.919593E-09
       374  12 -5.666329E+05  1.658416E+04  1.511809E+04  1.850099E+04 -8.608089E-09  1.353962E-09
       374  13 -6.327941E+05  1.194574E+01 -1.901859E+03  1.829104E+04  8.221109E-10  5.208556E-09
       374  14 -6.326329E+05  5.916930E+01 -1.174784E+03  3.733629E+03 -1.051272E-09 -5.063590E-09
       374  15 -6.327924E+05  1.449684E+02 -8.692316E+02  1.829057E+04  1.050283E-09 -4.597974E-09
       374  16 -7.768894E+05 -3.572106E+04 -3.634924E+04  1.790359E+04 -2.571615E-09  3.427843E-09
       374  17 -7.377585E+05 -2.602662E+04 -2.639061E+04  3.434543E+03  5.620791E-09  1.009863E-08
       374  18 -6.989478E+05 -1.629454E+04 -1.685687E+04  1.808016E+04  1.020003E-08 -2.697190E-10
       374  19 -4.886797E+05  3.574347E+04  3.254411E+04  1.867858E+04  2.164623E+03  4.900196E+03
       374  20 -5.274970E+05  2.614417E+04  2.404029E+04  4.032760E+03  1.591241E+03  3.315696E+03
       374  21 -5.666329E+05  1.658416E+04  1.511810E+04  1.850099E+04  1.018284E+03  1.721908E+03
       374  22 -6.327941E+05  1.197199E+01 -1.901810E+03  1.829105E+04  1.369721E+03  4.897382E+03
       374  23 -6.326329E+05  5.918125E+01 -1.174762E+03  3.733631E+03  7.918024E+02  3.312786E+03
       374  24 -6.327924E+05  1.449716E+02 -8.692260E+02  1.829057E+04  2.142735E+02  1.718895E+03
       374  25 -7.768894E+05 -3.572103E+04 -3.634919E+04  1.790359E+04  5.750015E+02  4.894569E+03
       374  26 -7.377585E+05 -2.602661E+04 -2.639059E+04  3.434543E+03 -7.501347E+00  3.309876E+03
       374  27 -6.989478E+05 -1.629454E+04 -1.685687E+04  1.808016E+04 -5.896514E+02  1.715883E+03
       375   1 -6.193066E+05  3.459224E+03  2.293397E+03  1.833481E+04 -8.696695E+02 -7.915655E+02
       375   2 -6.582345E+05 -6.296964E+03 -7.044241E+03  3.636539E+03 -4.241324E+02  8.044600E+02
       375   3 -6.974674E+05 -1.596081E+04 -1.670741E+04  1.813314E+04  2.147504E+01  2.395521E+03
       375   4 -6.327880E+05  1.381850E+02 -8.206678E+02  1.830851E+04 -6.548809E+01 -7.885303E+02
       375   5 -6.326350E+05  5.497812E+01 -9.041725E+02  3.711254E+03  3.775300E+02  8.074629E+02
       375   6 -6.327885E+05  6.451655E+01 -1.311503E+03  1.830879E+04  8.206465E+02  2.398497E+03
       375   7 -6.462693E+05 -3.182866E+03 -3.934743E+03  1.828221E+04  7.386759E+02 -7.854952E+02
       375   8 -6.070349E+05  6.406873E+03  5.235852E+03  3.785971E+03  1.179225E+03  8.104660E+02
       375   9 -5.681058E+05  1.608954E+04  1.408411E+04  1.848445E+04  1.619901E+03  2.401473E+03
       375  10 -6.193066E+05  3.459223E+03  2.293395E+03  1.833481E+04  3.992341E-10  8.286070E-10
       375  11 -6.582345E+05 -6.296965E+03 -7.044243E+03  3.636540E+03 -1.842224E-10 -1.609158E-09
       375  12 -6.974674E+05 -1.596081E+04 -1.670742E+04  1.813314E+04 -7.750671E-09 -1.241001E-09
       375  13 -6.327880E+05  1.381843E+02 -8.206689E+02  1.830851E+04  2.589092E-09  5.111523E-09
       375  14 -6.326350E+05  5.497738E+01 -9.041740E+02  3.711254E+03 -2.064422E-09 -5.742253E-09
       375  15 -6.327885E+05  6.451019E+01 -1.311515E+03  1.830879E+04  1.075504E-09 -5.008822E-09
       375  16 -6.462693E+05 -3.182867E+03 -3.934745E+03  1.828221E+04 -1.955533E-09 -4.274389E-09
       375  17 -6.070349E+05  6.406872E+03  5.235848E+03  3.785970E+03 -6.390776E-10 -1.548613E-08
       375  18 -5.681058E+05  1.608953E+04  1.408409E+04  1.848445E+04  9.479209E-09 -6.169778E-09
       375  19 -6.193066E+05  3.459224E+03  2.293397E+03  1.833481E+04  8.696695E+02  7.915655E+02
       375  20 -6.582345E+05 -6.296964E+03 -7.044241E+03  3.636539E+03  4.241324E+02 -8.044600E+02
       375  21 -6.974674E+05 -1.596081E+04 -1.670741E+04  1.813314E+04 -2.147504E+01 -2.395521E+03
       375  22 -6.327880E+05  1.381850E+02 -8.206678E+02  1.830851E+04  6.548809E+01  7.885303E+02
       375  23 -6.326350E+05  5.497812E+01 -9.041725E+02  3.711254E+03 -3.775300E+02 -8.074629E+02
       375  24 -6.327885E+05  6.451655E+01 -1.311503E+03  1.830879E+04 -8.206465E+02 -2.398497E+03
       375  25 -6.462693E+05 -3.182866E+03 -3.934743E+03  1.828221E+04 -7.386759E+02  7.854952E+02
       375  26 -6.070349E+05  6.406873E+03  5.235852E+03  3.785971E+03 -1.179225E+03 -8.104660E+02
       375  27 -5.681058E+05  1.608954E+04  1.408411E+04  1.848445E+04 -1.619901E+03 -2.401473E+03
       376   1 -7.501147E+05 -2.893869E+04 -2.987281E+04  1.781277E+04  2.662796E+02  3.331263E+03
       376   2 -7.886434E+05 -3.857567E+04 -4.011593E+04  3.360895E+03  1.633172E+03  4.922041E+03
       376   3 -8.277818E+05 -4.900832E+04 -5.149925E+04  1.791878E+04  3.000743E+03  6.449942E+03
       376   4 -6.328575E+05  1.824703E+02 -1.627976E+03  1.826643E+04  1.080722E+03  3.334246E+03
       376   5 -6.325565E+05  1.563026E+02 -2.675765E+03  3.763271E+03  2.416242E+03  4.924784E+03
       376   6 -6.328604E+05 -6.596551E+02 -4.841466E+03  1.826942E+04  3.752525E+03  6.452457E+03
       376   7 -5.155876E+05  2.930263E+04  2.661588E+04  1.872016E+04  1.895317E+03  3.337229E+03
       376   8 -4.764472E+05  3.888650E+04  3.476268E+04  4.165729E+03  3.199508E+03  4.927528E+03
       376   9 -4.379041E+05  4.768625E+04  4.181363E+04  1.862014E+04  4.504542E+03  6.454972E+03
       376  10 -7.501147E+05 -2.893870E+04 -2.987283E+04  1.781277E+04 -1.689096E-08 -8.378453E-10
       376  11 -7.886434E+05 -3.857570E+04 -4.011598E+04  3.360889E+03 -7.095198E-09 -1.383394E-08
       376  12 -8.277818E+05 -4.900836E+04 -5.149934E+04  1.791876E+04  6.541683E-09 -1.124894E-09
       376  13 -6.328575E+05  1.824580E+02 -1.627999E+03  1.826643E+04  1.937246E-09 -1.491331E-09
       376  14 -6.325565E+05  1.562750E+02 -2.675822E+03  3.763261E+03 -1.551523E-09 -6.559942E-09
       376  15 -6.328604E+05 -6.597036E+02 -4.841571E+03  1.826940E+04 -6.248272E-10 -6.454373E-09
       376  16 -5.155876E+05  2.930261E+04  2.661585E+04  1.872016E+04  1.763293E-08  1.067466E-08
       376  17 -4.764472E+05  3.888647E+04  3.476261E+04  4.165716E+03  8.166493E-09 -3.797180E-09
       376  18 -4.379042E+05  4.768620E+04  4.181352E+04  1.862012E+04 -6.002268E-09  5.998961E-09
       376  19 -7.501147E+05 -2.893869E+04 -2.987281E+04  1.781277E+04 -2.662796E+02 -3.331263E+03
       376  20 -7.886434E+05 -3.857567E+04 -4.011593E+04  3.360895E+03 -1.633172E+03 -4.922041E+03
       376  21 -8.277818E+05 -4.900832E+04 -5.149925E+04  1.791878E+04 -3.000743E+03 -6.449942E+03
       376  22 -6.328575E+05  1.824703E+02 -1.627976E+03  1.826643E+04 -1.080722E+03 -3.334246E+03
       376  23 -6.325565E+05  1.563026E+02 -2.675765E+03  3.763271E+03 -2.416242E+03 -4.924784E+03
       376  24 -6.328604E+05 -6.596551E+02 -4.841466E+03  1.826942E+04 -3.752525E+03 -6.452457E+03
       376  25 -5.155876E+05  2.930263E+04  2.661588E+04  1.872016E+04 -1.895317E+03 -3.337229E+03
       376  26 -4.764472E+05  3.888650E+04  3.476268E+04  4.165729E+03 -3.199508E+03 -4.927528E+03
       376  27 -4.379041E+05  4.768625E+04  4.181363E+04  1.862014E+04 -4.504542E+03 -6.454972E+03
       377   1 -8.803513E+05 -6.079048E+04 -6.550387E+04  1.644961E+04  3.753979E+03  7.474480E+03
       377   2 -9.169978E+05 -6.961726E+04 -7.874871E+04  3.732644E+03  9.435793E+03  9.032762E+03
       377   3 -9.568527E+05 -8.775136E+04 -9.805457E+04  1.958062E+04  1.512050E+04  9.831026E+03
       377   4 -6.334301E+05  5.148349E+02 -6.166600E+03  1.816052E+04  4.721389E+03  7.477626E+03
       377   5 -6.318631E+05  1.136487E+03 -1.035634E+04  3.891041E+03  1.002277E+04  9.034396E+03
       377   6 -6.334379E+05 -7.480462E+03 -2.034049E+04  1.818579E+04  1.532738E+04  9.831279E+03
       377   7 -3.864530E+05  6.181572E+04  5.316634E+04  1.987206E+04  5.689182E+03  7.480776E+03
       377   8 -3.466538E+05  7.188432E+04  5.803026E+04  4.049451E+03  1.061001E+04  9.036030E+03
       377   9 -3.099273E+05  7.278283E+04  5.736614E+04  1.679015E+04  1.553437E+04  9.831530E+03
       377  10 -8.803513E+05 -6.079054E+04 -6.550401E+04  1.644959E+04  1.013981E-08  3.270346E-09
       377  11 -9.169979E+05 -6.961737E+04 -7.874904E+04  3.732575E+03  8.803083E-09  1.083328E-08
       377  12 -9.568529E+05 -8.775153E+04 -9.805518E+04  1.958050E+04  1.308058E-08 -1.491002E-09
       377  13 -6.334301E+05  5.147689E+02 -6.166747E+03  1.816049E+04  2.262920E-09 -1.561826E-08
       377  14 -6.318632E+05  1.136372E+03 -1.035669E+04  3.890968E+03 -2.655323E-09  4.198527E-09
       377  15 -6.334382E+05 -7.480629E+03 -2.034112E+04  1.818567E+04  1.332569E-09  6.539134E-10
       377  16 -3.864530E+05  6.181565E+04  5.316617E+04  1.987203E+04 -7.520872E-09 -3.462898E-09
       377  17 -3.466539E+05  7.188420E+04  5.802990E+04  4.049374E+03 -9.666567E-09 -1.078420E-08
       377  18 -3.099276E+05  7.278266E+04  5.736551E+04  1.679002E+04 -1.175468E-08  5.969077E-09
       377  19 -8.803513E+05 -6.079048E+04 -6.550387E+04  1.644961E+04 -3.753979E+03 -7.474480E+03
       377  20 -9.169978E+05 -6.961726E+04 -7.874871E+04  3.732644E+03 -9.435793E+03 -9.032762E+03
       377  21 -9.568527E+05 -8.775136E+04 -9.805457E+04  1.958062E+04 -1.512050E+04 -9.831026E+03
       377  22 -6.334301E+05  5.148349E+02 -6.166600E+03  1.816052E+04 -4.721389E+03 -7.477626E+03
       377  23 -6.318631E+05  1.136487E+03 -1.035634E+04  3.891041E+03 -1.002277E+04 -9.034396E+03
       377  24 -6.334379E+05 -7.480462E+03 -2.034049E+04  1.818579E+04 -1.532738E+04 -9.831279E+03
       377  25 -3.864530E+05  6.181572E+04  5.316634E+04  1.987206E+04 -5.689182E+03 -7.480776E+03
       377  26 -3.466538E+05  7.188432E+04  5.803026E+04  4.049451E+03 -1.061001E+04 -9.036030E+03
       377  27 -3.099273E+05  7.278283E+04  5.736614E+04  1.679015E+04 -1.553437E+04 -9.831530E+03
       378   1 -1.012683E+06 -8.915878E+04 -1.146525E+05  7.549606E+03  1.606741E+04  1.214054E+04
       378   2 -1.037223E+06 -9.172701E+04 -1.384567E+05  9.867405E+03  4.261182E+04  1.339066E+04
       378   3 -1.087656E+06 -1.839878E+05 -2.019876E+05  3.993475E+04  6.917975E+04  4.622271E+03
       378   4 -6.383004E+05  3.804713E+03 -2.492126E+04  1.792564E+04  1.918708E+04  1.214960E+04
       378   5 -6.258133E+05  1.030919E+04 -3.986943E+04  4.148029E+03  4.070094E+04  1.338443E+04
       378   6 -6.383295E+05 -7.197350E+04 -9.103004E+04  1.812036E+04  6.224022E+04  4.602283E+03
       378   7 -2.637891E+05  9.675840E+04  6.480015E+04  2.830787E+04  2.230862E+04  1.215877E+04
       378   8 -2.142485E+05  1.123332E+05  5.870587E+04 -1.575264E+03  3.878879E+04  1.337823E+04
       378   9 -1.888183E+05  4.002758E+04  1.991300E+04 -3.709971E+03  5.529566E+04  4.582792E+03
       378  10 -1.012683E+06 -8.915901E+04 -1.146533E+05  7.549449E+03 -2.947448E-09 -2.078496E-09
       378  11 -1.037225E+06 -9.172769E+04 -1.384604E+05  9.866945E+03 -3.809459E-09  1.191929E-09
       378  12 -1.087661E+06 -1.839891E+05 -2.019966E+05  3.993449E+04  2.927289E-09  6.825475E-09
       378  13 -6.383008E+05  3.804455E+03 -2.492223E+04  1.792545E+04  1.612763E-09  3.859860E-09
       378  14 -6.258152E+05  1.030855E+04 -3.987288E+04  4.147590E+03 -7.330286E-10  4.989595E-09
       378  15 -6.383337E+05 -7.197457E+04 -9.103736E+04  1.812013E+04 -9.498636E-10  3.113939E-09
       378  16 -2.637896E+05  9.675811E+04  6.479894E+04  2.830765E+04  1.862083E-09  6.410614E-09
       378  17 -2.142502E+05  1.123326E+05  5.870271E+04 -1.575682E+03  1.322816E-09  1.022372E-08
       378  18 -1.888216E+05  4.002674E+04  1.990721E+04 -3.710175E+03 -3.389233E-09 -1.494903E-09
       378  19 -1.012683E+06 -8.915878E+04 -1.146525E+05  7.549606E+03 -1.606741E+04 -1.214054E+04
       378  20 -1.037223E+06 -9.172701E+04 -1.384567E+05  9.867405E+03 -4.261182E+04 -1.339066E+04
       378  21 -1.087656E+06 -1.839878E+05 -2.019876E+05  3.993475E+04 -6.917975E+04 -4.622271E+03
       378  22 -6.383004E+05  3.804713E+03 -2.492126E+04  1.792564E+04 -1.918708E+04 -1.214960E+04
       378  23 -6.258133E+05  1.030919E+04 -3.986943E+04  4.148029E+03 -4.070094E+04 -1.338443E+04
       378  24 -6.383295E+05 -7.197350E+04 -9.103004E+04  1.812036E+04 -6.224022E+04 -4.602283E+03
       378  25 -2.637891E+05  9.675840E+04  6.480015E+04  2.830787E+04 -2.230862E+04 -1.215877E+04
       378  26 -2.142485E+05  1.123332E+05  5.870587E+04 -1.575264E+03 -3.878879E+04 -1.337823E+04
       378  27 -1.888183E+05  4.002758E+04  1.991300E+04 -3.709971E+03 -5.529566E+04 -4.582792E+03
       379   1 -1.661202E+05 -6.450470E+05 -1.603802E+05  1.549500E+05 -6.648249E+03 -5.462858E+04
       379   2 -1.169919E+05 -5.137533E+05 -9.984758E+04  1.363810E+05 -2.078902E+04 -2.356111E+04
       379   3 -8.181195E+04 -3.898520E+05 -6.303468E+04  1.425889E+05 -2.088873E+04  7.540718E+03
       379   4 -1.840547E+04 -4.798494E+04 -1.936054E+04  1.427761E+05 -6.712152E+03 -1.463905E+04
       379   5 -5.275847E+03 -4.657309E+04 -8.715364E+03  1.304011E+05 -2.080855E+04 -1.016543E+04
       379   6 -1.468578E+03 -4.794553E+04 -3.306640E+03  1.428033E+05 -2.086812E+04 -5.664782E+03
       379   7  1.292851E+05  5.494088E+05  1.216406E+05  1.305905E+05 -6.777596E+03  2.538875E+04
       379   8  1.064273E+05  4.208172E+05  8.240714E+04  1.244165E+05 -2.082832E+04  3.240110E+03
       379   9  7.886854E+04  2.940759E+05  5.641790E+04  1.430179E+05 -2.084752E+04 -1.887734E+04
       379  10 -1.661210E+05 -6.450502E+05 -1.603859E+05  1.549497E+05  3.214642E-10  2.133574E-09
       379  11 -1.169925E+05 -5.137541E+05 -9.984944E+04  1.363806E+05 -1.987838E-10  8.218753E-09
       379  12 -8.181243E+04 -3.898522E+05 -6.303561E+04  1.425890E+05  1.940372E-09 -6.240537E-10
       379  13 -1.840557E+04 -4.798519E+04 -1.936103E+04  1.427760E+05  1.358554E-10  4.040763E-09
       379  14 -5.276340E+03 -4.657332E+04 -8.716371E+03  1.304009E+05 -1.652367E-09 -3.882143E-09
       379  15 -1.469055E+03 -4.794568E+04 -3.307519E+03  1.428032E+05  3.278957E-09  1.886099E-09
       379  16  1.292849E+05  5.494081E+05  1.216393E+05  1.305906E+05 -7.502584E-10 -4.283882E-09
       379  17  1.064268E+05  4.208170E+05  8.240630E+04  1.244166E+05  2.343044E-09 -2.481048E-09
       379  18  7.886798E+04  2.940754E+05  5.641641E+04  1.430176E+05  1.457130E-09 -8.404352E-10
       379  19 -1.661202E+05 -6.450470E+05 -1.603802E+05  1.549500E+05  6.648249E+03  5.462858E+04
       379  20 -1.169919E+05 -5.137533E+05 -9.984758E+04  1.363810E+05  2.078902E+04  2.356111E+04
       379  21 -8.181195E+04 -3.898520E+05 -6.303468E+04  1.425889E+05  2.088873E+04 -7.540718E+03
       379  22 -1.840547E+04 -4.798494E+04 -1.936054E+04  1.427761E+05  6.712152E+03  1.463905E+04
       379  23 -5.275847E+03 -4.657309E+04 -8.715364E+03  1.304011E+05  2.080855E+04  1.016543E+04
       379  24 -1.468578E+03 -4.794553E+04 -3.306640E+03  1.428033E+05  2.086812E+04  5.664782E+03
       379  25  1.292851E+05  5.494088E+05  1.216406E+05  1.305905E+05  6.777596E+03 -2.538875E+04
       379  26  1.064273E+05  4.208172E+05  8.240714E+04  1.244165E+05  2.082832E+04 -3.240110E+03
       379  27  7.886854E+04  2.940759E+05  5.641790E+04  1.430179E+05  2.084752E+04  1.887734E+04
       380   1 -6.234385E+04 -3.070218E+05 -4.607120E+04  1.434935E+05 -1.637789E+04  7.092855E+03
       380   2 -3.085162E+04 -1.796037E+05 -1.868003E+04  1.308636E+05 -9.494520E+03  6.933859E+03
       380   3  1.105398E+03 -5.191933E+04  8.959298E+03  1.439330E+05 -2.000539E+03  6.775216E+03
       380   4 -1.418359E+03 -4.721710E+04 -1.309755E+03  1.430043E+05 -1.635915E+04 -5.375522E+03
       380   5 -1.447362E+02 -4.743745E+04  2.658996E+03  1.301573E+05 -9.474673E+03 -6.693034E+03
       380   6  1.795724E+03 -4.720567E+04  7.680941E+03  1.430091E+05 -1.979681E+03 -8.010170E+03
       380   7  5.950359E+04  2.126542E+05  4.344998E+04  1.425150E+05 -1.634039E+04 -1.784895E+04
       380   8  3.056137E+04  8.474657E+04  2.399824E+04  1.294508E+05 -9.454798E+03 -2.032273E+04
       380   9  2.486171E+03 -4.249150E+04  6.403415E+03  1.420853E+05 -1.958779E+03 -2.279564E+04
       380  10 -6.234415E+04 -3.070219E+05 -4.607180E+04  1.434936E+05  4.649986E-09  3.421894E-09
       380  11 -3.085173E+04 -1.796038E+05 -1.868029E+04  1.308636E+05  3.828887E-09  5.208656E-09
       380  12  1.105382E+03 -5.191939E+04  8.959205E+03  1.439330E+05  1.093348E-09 -5.590112E-09
       380  13 -1.418654E+03 -4.721721E+04 -1.310312E+03  1.430043E+05  2.444274E-09  5.800352E-09
       380  14 -1.448446E+02 -4.743753E+04  2.658743E+03  1.301572E+05  3.719534E-09 -4.654019E-09
       380  15  1.795702E+03 -4.720574E+04  7.680813E+03  1.430091E+05  1.872876E-09  1.468754E-10
       380  16  5.950322E+04  2.126538E+05  4.344888E+04  1.425147E+05  1.902216E-09 -5.719189E-09
       380  17  3.056116E+04  8.474610E+04  2.399730E+04  1.294506E+05  3.115683E-10 -1.873316E-09
       380  18  2.486028E+03 -4.249206E+04  6.402432E+03  1.420852E+05 -1.047269E-09  5.035138E-09
       380  19 -6.234385E+04 -3.070218E+05 -4.607120E+04  1.434935E+05  1.637789E+04 -7.092855E+03
       380  20 -3.085162E+04 -1.796037E+05 -1.868003E+04  1.308636E+05  9.494520E+03 -6.933859E+03
       380  21  1.105398E+03 -5.191933E+04  8.959298E+03  1.439330E+05  2.000539E+03 -6.775216E+03
       380  22 -1.418359E+03 -4.721710E+04 -1.309755E+03  1.430043E+05  1.635915E+04  5.375522E+03
       380  23 -1.447362E+02 -4.743745E+04  2.658996E+03  1.301573E+05  9.474673E+03  6.693034E+03
       380  24  1.795724E+03 -4.720567E+04  7.680941E+03  1.430091E+05  1.979681E+03  8.010170E+03
       380  25  5.950359E+04  2.126542E+05  4.344998E+04  1.425150E+05  1.634039E+04  1.784895E+04
       380  26  3.056137E+04  8.474657E+04  2.399824E+04  1.294508E+05  9.454798E+03  2.032273E+04
       380  27  2.486171E+03 -4.249150E+04  6.403415E+03  1.420853E+05  1.958779E+03  2.279564E+04
       381   1  2.045093E+04  3.130053E+04  2.649273E+04  1.416109E+05  2.966866E+03  5.815047E+03
       381   2  5.946377E+04  1.542545E+05  6.345917E+04  1.424034E+05  6.944348E+03 -2.044127E+04
       381   3  1.219987E+05  2.866322E+05  1.234227E+05  1.684561E+05  2.806689E+03 -4.671704E+04
       381   4  1.903436E+03 -4.580872E+04  1.088687E+04  1.429040E+05  2.988358E+03 -9.348095E+03
       381   5  1.035931E+04 -4.918843E+04  2.114814E+04  1.303040E+05  6.944598E+03 -2.021463E+04
       381   6  3.967135E+04 -4.582475E+04  4.372384E+04  1.429622E+05  2.785606E+03 -3.109530E+04
       381   7 -1.664430E+04 -1.229118E+05 -4.718433E+03  1.441970E+05  3.009788E+03 -2.450939E+04
       381   8 -3.874722E+04 -2.525918E+05 -2.116508E+04  1.182087E+05  6.944839E+03 -1.998807E+04
       381   9 -4.266139E+04 -3.781786E+05 -3.598157E+04  1.174820E+05  2.763236E+03 -1.548188E+04
       381  10  2.045091E+04  3.130049E+04  2.649265E+04  1.416109E+05 -9.190909E-10 -1.079929E-09
       381  11  5.946360E+04  1.542540E+05  6.345829E+04  1.424035E+05 -2.764111E-09  5.436911E-09
       381  12  1.219981E+05  2.866299E+05  1.234186E+05  1.684562E+05 -3.636284E-10  7.848667E-10
       381  13  1.903403E+03 -4.580881E+04  1.088669E+04  1.429041E+05 -1.358160E-09  4.625976E-09
       381  14  1.035915E+04 -4.918888E+04  2.114728E+04  1.303041E+05  1.869126E-09 -4.693501E-09
       381  15  3.967108E+04 -4.582579E+04  4.372201E+04  1.429623E+05 -4.578985E-11  2.020671E-09
       381  16 -1.664447E+04 -1.229125E+05 -4.719579E+03  1.441970E+05 -3.338738E-09 -2.478174E-09
       381  17 -3.874737E+04 -2.525923E+05 -2.116592E+04  1.182088E+05 -1.546373E-09 -3.400324E-09
       381  18 -4.266146E+04 -3.781788E+05 -3.598204E+04  1.174820E+05 -1.105740E-09 -4.352462E-09
       381  19  2.045093E+04  3.130053E+04  2.649273E+04  1.416109E+05 -2.966866E+03 -5.815047E+03
       381  20  5.946377E+04  1.542545E+05  6.345917E+04  1.424034E+05 -6.944348E+03  2.044127E+04
       381  21  1.219987E+05  2.866322E+05  1.234227E+05  1.684561E+05 -2.806689E+03  4.671704E+04
       381  22  1.903436E+03 -4.580872E+04  1.088687E+04  1.429040E+05 -2.988358E+03  9.348095E+03
       381  23  1.035931E+04 -4.918843E+04  2.114814E+04  1.303040E+05 -6.944598E+03  2.021463E+04
       381  24  3.967135E+04 -4.582475E+04  4.372384E+04  1.429622E+05 -2.785606E+03  3.109530E+04
       381  25 -1.664430E+04 -1.229118E+05 -4.718433E+03  1.441970E+05 -3.009788E+03  2.450939E+04
       381  26 -3.874722E+04 -2.525918E+05 -2.116508E+04  1.182087E+05 -6.944839E+03  1.998807E+04
       381  27 -4.266139E+04 -3.781786E+05 -3.598157E+04  1.174820E+05 -2.763236E+03  1.548188E+04
       382   1  1.103046E+06  4.005663E+05  2.678606E+05  3.822563E+05  1.104626E+05  3.704578E+04
       382   2  1.061627E+06  2.300473E+05  1.625573E+05  3.862046E+05  7.221935E+04  1.341867E+04
       382   3  1.065263E+06  2.241686E+05  1.286093E+05  3.704803E+05  3.054255E+04 -1.103057E+03
       382   4  7.392326E+05  2.281841E+05  1.620947E+05  2.470207E+05  1.044638E+05  3.477465E+04
       382   5  7.087190E+05  8.712506E+04  6.756667E+04  2.791913E+05  7.054379E+04  1.278410E+04
       382   6  7.224374E+05  1.099003E+05  4.100233E+04  2.916809E+05  3.318794E+04 -1.031543E+02
       382   7  3.755527E+05  5.583480E+04  5.631709E+04  1.118652E+05  9.846896E+04  3.250582E+04
       382   8  3.559326E+05 -5.578377E+04 -2.743480E+04  1.722351E+05  6.886927E+04  1.214999E+04
       382   9  3.797236E+05 -4.367047E+03 -4.661430E+04  2.129175E+05  3.583172E+04  8.963043E+02
       382  10  1.103033E+06  4.005616E+05  2.678351E+05  3.822530E+05  4.667587E-10 -1.257327E-09
       382  11  1.061621E+06  2.300457E+05  1.625472E+05  3.862038E+05  5.380059E-09  2.414329E-09
       382  12  1.065262E+06  2.241684E+05  1.286075E+05  3.704803E+05  6.977165E-09 -1.632655E-09
       382  13  7.392205E+05  2.281798E+05  1.620720E+05  2.470178E+05  8.603065E-10 -4.237069E-09
       382  14  7.087136E+05  8.712355E+04  6.755702E+04  2.791906E+05 -7.248877E-10 -2.451547E-09
       382  15  7.224362E+05  1.099000E+05  4.100026E+04  2.916809E+05  1.799285E-09 -9.219061E-10
       382  16  3.755420E+05  5.583106E+04  5.629690E+04  1.118626E+05 -2.420105E-09 -8.062874E-10
       382  17  3.559275E+05 -5.578520E+04 -2.744398E+04  1.722344E+05 -3.817032E-09 -9.551341E-09
       382  18  3.797222E+05 -4.367392E+03 -4.661671E+04  2.129175E+05  1.200655E-09 -1.597965E-11
       382  19  1.103046E+06  4.005663E+05  2.678606E+05  3.822563E+05 -1.104626E+05 -3.704578E+04
       382  20  1.061627E+06  2.300473E+05  1.625573E+05  3.862046E+05 -7.221935E+04 -1.341867E+04
       382  21  1.065263E+06  2.241686E+05  1.286093E+05  3.704803E+05 -3.054255E+04  1.103057E+03
       382  22  7.392326E+05  2.281841E+05  1.620947E+05  2.470207E+05 -1.044638E+05 -3.477465E+04
       382  23  7.087190E+05  8.712506E+04  6.756667E+04  2.791913E+05 -7.054379E+04 -1.278410E+04
       382  24  7.224374E+05  1.099003E+05  4.100233E+04  2.916809E+05 -3.318794E+04  1.031543E+02
       382  25  3.755527E+05  5.583480E+04  5.631709E+04  1.118652E+05 -9.846896E+04 -3.250582E+04
       382  26  3.559326E+05 -5.578377E+04 -2.743480E+04  1.722351E+05 -6.886927E+04 -1.214999E+04
       382  27  3.797236E+05 -4.367047E+03 -4.661430E+04  2.129175E+05 -3.583172E+04 -8.963043E+02
       383   1  1.006322E+06  2.392275E+05  1.105678E+05  3.647460E+05  2.655299E+04 -3.062363E+02
       383   2  9.843089E+05  2.044899E+05  8.582151E+04  3.506541E+05  1.773458E+04 -3.136322E+03
       383   3  9.538797E+05  2.020054E+05  7.200944E+04  3.504635E+05  8.645251E+03 -5.250276E+03
       383   4  7.172791E+05  1.266597E+05  3.336636E+04  2.817680E+05  2.658419E+04 -2.949580E+02
       383   5  7.205990E+05  1.040878E+05  1.596379E+04  2.772686E+05  1.810801E+04 -2.995419E+03
       383   6  7.154370E+05  1.137058E+05  9.228388E+03  2.866699E+05  9.360464E+03 -4.979830E+03
       383   7  4.283171E+05  1.409866E+04 -4.384240E+04  1.988252E+05  2.661538E+04 -2.836873E+02
       383   8  4.569565E+05  3.690405E+03 -5.389983E+04  2.039113E+05  1.848126E+04 -2.854584E+03
       383   9  4.770497E+05  2.540931E+04 -5.355734E+04  2.228982E+05  1.007537E+04 -4.709494E+03
       383  10  1.006321E+06  2.392273E+05  1.105665E+05  3.647460E+05 -3.980390E-09  1.035947E-10
       383  11  9.843085E+05  2.044898E+05  8.582090E+04  3.506541E+05 -7.452594E-09  1.083360E-09
       383  12  9.538796E+05  2.020054E+05  7.200925E+04  3.504635E+05 -5.506895E-09 -1.098113E-09
       383  13  7.172784E+05  1.266596E+05  3.336503E+04  2.817680E+05  1.158571E-09  8.155817E-09
       383  14  7.205986E+05  1.040877E+05  1.596316E+04  2.772686E+05 -7.023710E-10  3.787453E-09
       383  15  7.154369E+05  1.137057E+05  9.228176E+03  2.866699E+05 -3.469630E-09  6.824889E-09
       383  16  4.283163E+05  1.409847E+04 -4.384373E+04  1.988253E+05  1.154205E-08  4.696387E-09
       383  17  4.569561E+05  3.690305E+03 -5.390049E+04  2.039114E+05  5.305723E-09  5.259767E-10
       383  18  4.770496E+05  2.540926E+04 -5.355757E+04  2.228982E+05  2.092630E-10  1.417946E-08
       383  19  1.006322E+06  2.392275E+05  1.105678E+05  3.647460E+05 -2.655299E+04  3.062363E+02
       383  20  9.843089E+05  2.044899E+05  8.582151E+04  3.506541E+05 -1.773458E+04  3.136322E+03
       383  21  9.538797E+05  2.020054E+05  7.200944E+04  3.504635E+05 -8.645251E+03  5.250276E+03
       383  22  7.172791E+05  1.266597E+05  3.336636E+04  2.817680E+05 -2.658419E+04  2.949580E+02
       383  23  7.205990E+05  1.040878E+05  1.596379E+04  2.772686E+05 -1.810801E+04  2.995419E+03
       383  24  7.154370E+05  1.137058E+05  9.228388E+03  2.866699E+05 -9.360464E+03  4.979830E+03
       383  25  4.283171E+05  1.409866E+04 -4.384240E+04  1.988252E+05 -2.661538E+04  2.836873E+02
       383  26  4.569565E+05  3.690405E+03 -5.389983E+04  2.039113E+05 -1.848126E+04  2.854584E+03
       383  27  4.770497E+05  2.540931E+04 -5.355734E+04  2.228982E+05 -1.007537E+04  4.709494E+03
       384   1  9.130101E+05  1.905183E+05  5.956739E+04  3.402639E+05  7.232632E+03 -4.893035E+03
       384   2  8.939668E+05  1.711539E+05  4.922215E+04  3.246051E+05  4.900323E+03 -4.531060E+03
       384   3  8.605555E+05  1.689504E+05  4.080452E+04  3.259097E+05  2.550040E+03 -4.122866E+03
       384   4  7.148534E+05  1.154067E+05  7.208060E+03  2.854455E+05  7.735019E+03 -4.703043E+03
       384   5  7.219418E+05  1.061358E+05  3.734338E+03  2.772265E+05  5.425182E+03 -4.332442E+03
       384   6  7.146576E+05  1.140221E+05  2.171108E+03  2.859709E+05  3.097283E+03 -3.915646E+03
       384   7  5.167340E+05  4.029755E+04 -4.515481E+04  2.306427E+05  8.237231E+03 -4.513118E+03
       384   8  5.499450E+05  4.111957E+04 -4.175609E+04  2.298596E+05  5.949882E+03 -4.133883E+03
       384   9  5.687802E+05  5.909522E+04 -3.646414E+04  2.460405E+05  3.644384E+03 -3.708479E+03
       384  10  9.130101E+05  1.905182E+05  5.956725E+04  3.402639E+05  2.067784E-10 -6.332431E-09
       384  11  8.939668E+05  1.711538E+05  4.922206E+04  3.246051E+05 -1.091382E-09  3.252855E-09
       384  12  8.605555E+05  1.689503E+05  4.080448E+04  3.259097E+05 -3.081791E-09  3.237077E-09
       384  13  7.148534E+05  1.154067E+05  7.207906E+03  2.854455E+05 -2.149397E-09 -1.707072E-09
       384  14  7.219418E+05  1.061358E+05  3.734247E+03  2.772265E+05 -8.776875E-10 -2.452035E-09
       384  15  7.146576E+05  1.140221E+05  2.171061E+03  2.859709E+05 -2.902906E-09 -4.301225E-09
       384  16  5.167340E+05  4.029751E+04 -4.515497E+04  2.306428E+05 -3.941344E-09  9.263464E-09
       384  17  5.499450E+05  4.111955E+04 -4.175619E+04  2.298596E+05 -3.287040E-09  3.583818E-09
       384  18  5.687802E+05  5.909521E+04 -3.646420E+04  2.460405E+05 -5.501327E-10  5.497057E-09
       384  19  9.130101E+05  1.905183E+05  5.956739E+04  3.402639E+05 -7.232632E+03  4.893035E+03
       384  20  8.939668E+05  1.711539E+05  4.922215E+04  3.246051E+05 -4.900323E+03  4.531060E+03
       384  21  8.605555E+05  1.689504E+05  4.080452E+04  3.259097E+05 -2.550040E+03  4.122866E+03
       384  22  7.148534E+05  1.154067E+05  7.208060E+03  2.854455E+05 -7.735019E+03  4.703043E+03
       384  23  7.219418E+05  1.061358E+05  3.734338E+03  2.772265E+05 -5.425182E+03  4.332442E+03
       384  24  7.146576E+05  1.140221E+05  2.171108E+03  2.859709E+05 -3.097283E+03  3.915646E+03
       384  25  5.167340E+05  4.029755E+04 -4.515481E+04  2.306427E+05 -8.237231E+03  4.513118E+03
       384  26  5.499450E+05  4.111957E+04 -4.175609E+04  2.298596E+05 -5.949882E+03  4.133883E+03
       384  27  5.687802E+05  5.909522E+04 -3.646414E+04  2.460405E+05 -3.644384E+03  3.708479E+03
       385   1  8.225544E+05  1.549200E+05  3.015292E+04  3.155082E+05  1.997210E+03 -3.571655E+03
       385   2  8.042007E+05  1.374740E+05  2.278841E+04  2.999154E+05  1.037430E+03 -2.655250E+03
       385   3  7.709525E+05  1.353061E+05  1.588240E+04  3.013046E+05  7.808317E+01 -1.740560E+03
       385   4  7.146210E+05  1.141399E+05  1.708875E+03  2.857735E+05  2.526321E+03 -3.371241E+03
       385   5  7.220603E+05  1.064398E+05  1.069117E+03  2.773058E+05  1.565828E+03 -2.455052E+03
       385   6  7.146045E+05  1.140182E+05  8.885358E+02  2.858201E+05  6.057396E+02 -1.540583E+03
       385   7  6.066991E+05  7.336069E+04 -2.673609E+04  2.560436E+05  3.055331E+03 -3.170866E+03
       385   8  6.399264E+05  7.540609E+04 -2.065076E+04  2.546989E+05  2.094149E+03 -2.254883E+03
       385   9  6.582594E+05  9.273041E+04 -1.410564E+04  2.703368E+05  1.133345E+03 -1.340627E+03
       385  10  8.225544E+05  1.549200E+05  3.015289E+04  3.155082E+05 -2.436346E-09  1.159716E-08
       385  11  8.042007E+05  1.374740E+05  2.278840E+04  2.999154E+05  4.390804E-09  1.112900E-08
       385  12  7.709525E+05  1.353061E+05  1.588239E+04  3.013046E+05  3.039438E-09  3.248795E-09
       385  13  7.146209E+05  1.141399E+05  1.708841E+03  2.857735E+05 -1.970135E-09  6.869459E-09
       385  14  7.220603E+05  1.064398E+05  1.069101E+03  2.773058E+05  1.310531E-09  1.915744E-09
       385  15  7.146045E+05  1.140182E+05  8.885307E+02  2.858201E+05  4.033793E-10 -8.294833E-09
       385  16  6.066991E+05  7.336068E+04 -2.673612E+04  2.560436E+05  4.047470E-10  1.402584E-08
       385  17  6.399264E+05  7.540608E+04 -2.065078E+04  2.546989E+05 -3.649783E-09  5.734312E-09
       385  18  6.582594E+05  9.273041E+04 -1.410565E+04  2.703368E+05 -5.542100E-09  5.728633E-09
       385  19  8.225544E+05  1.549200E+05  3.015292E+04  3.155082E+05 -1.997210E+03  3.571655E+03
       385  20  8.042007E+05  1.374740E+05  2.278841E+04  2.999154E+05 -1.037430E+03  2.655250E+03
       385  21  7.709525E+05  1.353061E+05  1.588240E+04  3.013046E+05 -7.808317E+01  1.740560E+03
       385  22  7.146210E+05  1.141399E+05  1.708875E+03  2.857735E+05 -2.526321E+03  3.371241E+03
       385  23  7.220603E+05  1.064398E+05  1.069117E+03  2.773058E+05 -1.565828E+03  2.455052E+03
       385  24  7.146045E+05  1.140182E+05  8.885358E+02  2.858201E+05 -6.057396E+02  1.540583E+03
       385  25  6.066991E+05  7.336069E+04 -2.673609E+04  2.560436E+05 -3.055331E+03  3.170866E+03
       385  26  6.399264E+05  7.540609E+04 -2.065076E+04  2.546989E+05 -2.094149E+03  2.254883E+03
       385  27  6.582594E+05  9.273041E+04 -1.410564E+04  2.703368E+05 -1.133345E+03  1.340627E+03
       386   1  7.336113E+05  1.211806E+05  5.836978E+03  2.910631E+05 -3.161472E+02 -1.147013E+03
       386   2  7.153873E+05  1.039527E+05 -5.673883E+02  2.755068E+05 -1.334155E+03 -2.588326E+02
       386   3  6.823675E+05  1.019488E+05 -6.461528E+03  2.768228E+05 -2.351003E+03  6.264976E+02
       386   4  7.146256E+05  1.139945E+05  9.090908E+02  2.858004E+05  2.107691E+02 -9.472982E+02
       386   5  7.220350E+05  1.064621E+05  1.189977E+03  2.773342E+05 -8.086116E+02 -5.964500E+01
       386   6  7.146482E+05  1.141537E+05  1.982162E+03  2.857399E+05 -1.826860E+03  8.251501E+02
       386   7  6.956402E+05  1.068084E+05 -4.018825E+03  2.805378E+05  7.376677E+02 -7.475902E+02
       386   8  7.286828E+05  1.089714E+05  2.947336E+03  2.791615E+05 -2.830631E+02  1.395447E+02
       386   9  7.469298E+05  1.263587E+05  1.042574E+04  2.946574E+05 -1.302689E+03  1.023813E+03
       386  10  7.336113E+05  1.211806E+05  5.836975E+03  2.910631E+05 -9.790881E-09 -3.819250E-09
       386  11  7.153873E+05  1.039527E+05 -5.673918E+02  2.755068E+05 -2.234005E-09 -3.466845E-09
       386  12  6.823675E+05  1.019488E+05 -6.461539E+03  2.768228E+05  8.626013E-09 -8.415205E-09
       386  13  7.146256E+05  1.139945E+05  9.090890E+02  2.858004E+05 -3.916554E-09  9.588011E-09
       386  14  7.220350E+05  1.064621E+05  1.189975E+03  2.773342E+05  5.650478E-09  1.475080E-09
       386  15  7.146482E+05  1.141537E+05  1.982155E+03  2.857399E+05  2.318289E-09  5.046545E-09
       386  16  6.956402E+05  1.068084E+05 -4.018827E+03  2.805378E+05  6.284219E-09  4.166045E-09
       386  17  7.286828E+05  1.089714E+05  2.947336E+03  2.791615E+05 -2.463488E-10  4.669147E-09
       386  18  7.469298E+05  1.263587E+05  1.042574E+04  2.946574E+05 -9.866847E-09 -1.149039E-08
       386  19  7.336113E+05  1.211806E+05  5.836978E+03  2.910631E+05  3.161472E+02  1.147013E+03
       386  20  7.153873E+05  1.039527E+05 -5.673883E+02  2.755068E+05  1.334155E+03  2.588326E+02
       386  21  6.823675E+05  1.019488E+05 -6.461528E+03  2.768228E+05  2.351003E+03 -6.264976E+02
       386  22  7.146256E+05  1.139945E+05  9.090908E+02  2.858004E+05 -2.107691E+02  9.472982E+02
       386  23  7.220350E+05  1.064621E+05  1.189977E+03  2.773342E+05  8.086116E+02  5.964500E+01
       386  24  7.146482E+05  1.141537E+05  1.982162E+03  2.857399E+05  1.826860E+03 -8.251501E+02
       386  25  6.956402E+05  1.068084E+05 -4.018825E+03  2.805378E+05 -7.376677E+02  7.475902E+02
       386  26  7.286828E+05  1.089714E+05  2.947336E+03  2.791615E+05  2.830631E+02 -1.395447E+02
       386  27  7.469298E+05  1.263587E+05  1.042574E+04  2.946574E+05  1.302689E+03 -1.023813E+03
       387   1  6.448964E+05  8.779162E+04 -1.598221E+04  2.669414E+05 -2.984941E+03  1.136573E+03
       387   2  6.263682E+05  7.003344E+04 -2.084965E+04  2.509708E+05 -5.630174E+03  1.414252E+03
       387   3  5.938637E+05  6.950315E+04 -2.348282E+04  2.515793E+05 -8.259816E+03  1.651751E+03
       387   4  7.147383E+05  1.139603E+05  2.538430E+03  2.859166E+05 -2.446881E+03  1.340476E+03
       387   5  7.218421E+05  1.061707E+05  4.409483E+03  2.773136E+05 -5.111476E+03  1.610750E+03
       387   6  7.149731E+05  1.156126E+05  8.530021E+03  2.852896E+05 -7.760577E+03  1.840810E+03
       387   7  7.845851E+05  1.401293E+05  2.105871E+04  3.048938E+05 -1.908754E+03  1.544404E+03
       387   8  8.173249E+05  1.423086E+05  2.966787E+04  3.036602E+05 -4.592689E+03  1.807282E+03
       387   9  8.360968E+05  1.617231E+05  4.054160E+04  3.190058E+05 -7.261231E+03  2.029911E+03
       387  10  6.448964E+05  8.779162E+04 -1.598223E+04  2.669414E+05  1.433383E-10 -2.160481E-09
       387  11  6.263682E+05  7.003343E+04 -2.084971E+04  2.509708E+05  3.406723E-10  4.525286E-10
       387  12  5.938636E+05  6.950313E+04 -2.348295E+04  2.515793E+05  2.148997E-09  1.435967E-09
       387  13  7.147383E+05  1.139603E+05  2.538415E+03  2.859166E+05  2.977163E-09 -5.993308E-09
       387  14  7.218421E+05  1.061707E+05  4.409429E+03  2.773137E+05  1.326048E-09 -1.365629E-09
       387  15  7.149731E+05  1.156126E+05  8.529902E+03  2.852896E+05 -6.393108E-10  6.843650E-09
       387  16  7.845851E+05  1.401293E+05  2.105870E+04  3.048938E+05  6.485991E-09  2.712981E-09
       387  17  8.173249E+05  1.423086E+05  2.966782E+04  3.036602E+05  4.606989E-09 -5.225172E-09
       387  18  8.360967E+05  1.617231E+05  4.054150E+04  3.190058E+05 -1.985539E-09  8.150261E-09
       387  19  6.448964E+05  8.779162E+04 -1.598221E+04  2.669414E+05  2.984941E+03 -1.136573E+03
       387  20  6.263682E+05  7.003344E+04 -2.084965E+04  2.509708E+05  5.630174E+03 -1.414252E+03
       387  21  5.938637E+05  6.950315E+04 -2.348282E+04  2.515793E+05  8.259816E+03 -1.651751E+03
       387  22  7.147383E+05  1.139603E+05  2.538430E+03  2.859166E+05  2.446881E+03 -1.340476E+03
       387  23  7.218421E+05  1.061707E+05  4.409483E+03  2.773136E+05  5.111476E+03 -1.610750E+03
       387  24  7.149731E+05  1.156126E+05  8.530021E+03  2.852896E+05  7.760577E+03 -1.840810E+03
       387  25  7.845851E+05  1.401293E+05  2.105871E+04  3.048938E+05  1.908754E+03 -1.544404E+03
       387  26  8.173249E+05  1.423086E+05  2.966787E+04  3.036602E+05  4.592689E+03 -1.807282E+03
       387  27  8.360968E+05  1.617231E+05  4.054160E+04  3.190058E+05  7.261231E+03 -2.029911E+03
       388   1  5.549485E+05  5.483497E+04 -3.128270E+04  2.445332E+05 -1.028411E+04  1.734938E+03
       388   2  5.352798E+05  3.292584E+04 -3.017518E+04  2.255015E+05 -2.028289E+04 -7.571875E+02
       388   3  5.087992E+05  4.575109E+04 -1.665627E+04  2.191126E+05 -3.006439E+04 -3.820839E+03
       388   4  7.157175E+05  1.135380E+05  1.092426E+04  2.866763E+05 -9.615883E+03  1.987974E+03
       388   5  7.201927E+05  1.038236E+05  1.891471E+04  2.774467E+05 -1.988759E+04 -6.077096E+02
       388   6  7.179071E+05  1.288932E+05  3.952976E+04  2.808595E+05 -2.994247E+04 -3.775115E+03
       388   7  8.765110E+05  1.722420E+05  5.312891E+04  3.288289E+05 -8.947468E+03  2.241076E+03
       388   8  9.051386E+05  1.747238E+05  6.800164E+04  3.294060E+05 -1.949215E+04 -4.581806E+02
       388   9  9.270578E+05  2.120396E+05  9.571207E+04  3.426257E+05 -2.982051E+04 -3.729371E+03
       388  10  5.549484E+05  5.483494E+04 -3.128290E+04  2.445332E+05  1.540242E-09  1.702618E-09
       388  11  5.352794E+05  3.292573E+04 -3.017595E+04  2.255015E+05  2.381415E-09  7.584983E-09
       388  12  5.087983E+05  4.575083E+04 -1.665799E+04  2.191125E+05 -1.735951E-09 -2.020855E-09
       388  13  7.157174E+05  1.135380E+05  1.092408E+04  2.866763E+05  6.838800E-12 -4.264370E-09
       388  14  7.201923E+05  1.038235E+05  1.891397E+04  2.774467E+05 -1.136594E-09 -4.264171E-10
       388  15  7.179061E+05  1.288929E+05  3.952805E+04  2.808594E+05  2.090907E-10 -1.124502E-09
       388  16  8.765110E+05  1.722420E+05  5.312875E+04  3.288290E+05 -1.620950E-09 -1.409877E-09
       388  17  9.051382E+05  1.747236E+05  6.800092E+04  3.294059E+05 -4.130133E-09 -2.472155E-09
       388  18  9.270569E+05  2.120393E+05  9.571037E+04  3.426256E+05 -6.039419E-11  1.346735E-09
       388  19  5.549485E+05  5.483497E+04 -3.128270E+04  2.445332E+05  1.028411E+04 -1.734938E+03
       388  20  5.352798E+05  3.292584E+04 -3.017518E+04  2.255015E+05  2.028289E+04  7.571875E+02
       388  21  5.087992E+05  4.575109E+04 -1.665627E+04  2.191126E+05  3.006439E+04  3.820839E+03
       388  22  7.157175E+05  1.135380E+05  1.092426E+04  2.866763E+05  9.615883E+03 -1.987974E+03
       388  23  7.201927E+05  1.038236E+05  1.891471E+04  2.774467E+05  1.988759E+04  6.077096E+02
       388  24  7.179071E+05  1.288932E+05  3.952976E+04  2.808595E+05  2.994247E+04  3.775115E+03
       388  25  8.765110E+05  1.722420E+05  5.312891E+04  3.288289E+05  8.947468E+03 -2.241076E+03
       388  26  9.051386E+05  1.747238E+05  6.800164E+04  3.294060E+05  1.949215E+04  4.581806E+02
       388  27  9.270578E+05  2.120396E+05  9.571207E+04  3.426257E+05  2.982051E+04  3.729371E+03
       389   1  4.600337E+05  2.710406E+04 -1.775616E+04  2.381275E+05 -3.971421E+04 -5.502595E+03
       389   2  4.363621E+05 -2.972616E+04  6.621268E+03  1.936699E+05 -8.045287E+04 -1.969819E+04
       389   3  4.679894E+05  1.032502E+05  1.088013E+05  1.217011E+05 -1.184531E+05 -4.113043E+04
       389   4  7.240581E+05  1.089897E+05  4.857557E+04  2.925468E+05 -3.751425E+04 -4.669175E+03
       389   5  7.060643E+05  8.381351E+04  8.006399E+04  2.798128E+05 -8.169021E+04 -2.016824E+04
       389   6  7.440161E+05  2.490718E+05  1.920508E+05  2.395754E+05 -1.231287E+05 -4.290729E+04
       389   7  9.881505E+05  1.908750E+05  1.149022E+05  3.469846E+05 -3.531326E+04 -3.835521E+03
       389   8  9.758362E+05  1.973623E+05  1.534998E+05  3.659908E+05 -8.292812E+04 -2.063857E+04
       389   9  1.020118E+06  3.949211E+05  2.752921E+05  3.575029E+05 -1.278066E+05 -4.468577E+04
       389  10  4.600320E+05  2.710361E+04 -1.775918E+04  2.381273E+05  5.268206E-09 -1.240618E-09
       389  11  4.363550E+05 -2.972832E+04  6.608386E+03  1.936686E+05  2.999479E-09 -2.457762E-09
       389  12  4.679739E+05  1.032446E+05  1.087718E+05  1.216972E+05 -3.036617E-10 -1.704060E-09
       389  13  7.240566E+05  1.089893E+05  4.857289E+04  2.925467E+05 -9.342847E-10 -8.690224E-11
       389  14  7.060570E+05  8.381129E+04  8.005070E+04  2.798115E+05 -1.679309E-10 -2.557963E-09
       389  15  7.439993E+05  2.490658E+05  1.920189E+05  2.395711E+05 -4.802100E-10 -2.082258E-10
       389  16  9.881492E+05  1.908747E+05  1.148998E+05  3.469845E+05 -4.231187E-09  1.713138E-09
       389  17  9.758287E+05  1.973600E+05  1.534861E+05  3.659895E+05 -4.256552E-09 -6.041980E-11
       389  18  1.020100E+06  3.949145E+05  2.752577E+05  3.574983E+05  2.113013E-09 -1.844869E-10
       389  19  4.600337E+05  2.710406E+04 -1.775616E+04  2.381275E+05  3.971421E+04  5.502595E+03
       389  20  4.363621E+05 -2.972616E+04  6.621268E+03  1.936699E+05  8.045287E+04  1.969819E+04
       389  21  4.679894E+05  1.032502E+05  1.088013E+05  1.217011E+05  1.184531E+05  4.113043E+04
       389  22  7.240581E+05  1.089897E+05  4.857557E+04  2.925468E+05  3.751425E+04  4.669175E+03
       389  23  7.060643E+05  8.381351E+04  8.006399E+04  2.798128E+05  8.169021E+04  2.016824E+04
       389  24  7.440161E+05  2.490718E+05  1.920508E+05  2.395754E+05  1.231287E+05  4.290729E+04
       389  25  9.881505E+05  1.908750E+05  1.149022E+05  3.469846E+05  3.531326E+04  3.835521E+03
       389  26  9.758362E+05  1.973623E+05  1.534998E+05  3.659908E+05  8.292812E+04  2.063857E+04
       389  27  1.020118E+06  3.949211E+05  2.752921E+05  3.575029E+05  1.278066E+05  4.468577E+04
       390   1 -1.877075E+05 -9.877059E+05 -1.910418E+05  9.171260E+04 -6.078086E+03 -2.527366E+04
       390   2 -1.244698E+05 -8.250523E+05 -1.345732E+05  2.791648E+04 -1.663885E+04 -1.075246E+04
       390   3 -8.760379E+04 -6.699966E+05 -9.400647E+04  8.221516E+04 -1.085820E+04  3.803925E+03
       390   4 -1.989486E+04 -3.155044E+05 -2.486746E+04  8.443416E+04 -6.097337E+03 -1.586965E+04
       390   5  2.695605E+03 -3.123944E+05 -1.178794E+04  2.541012E+04 -1.664011E+04 -9.567613E+03
       390   6  3.561291E+02 -3.154708E+05 -8.887555E+03  8.447616E+04 -1.084720E+04 -3.234326E+03
       390   7  1.478842E+05  3.571085E+05  1.412737E+05  7.714801E+04 -6.116799E+03 -6.455444E+03
       390   8  1.298419E+05  2.005046E+05  1.109787E+05  2.290179E+04 -1.664138E+04 -8.381793E+03
       390   9  8.830695E+04  3.917032E+04  7.622263E+04  8.673848E+04 -1.083626E+04 -1.027658E+04
       390  10 -1.877077E+05 -9.877066E+05 -1.910431E+05  9.171248E+04  3.937888E-10  9.174130E-10
       390  11 -1.244701E+05 -8.250525E+05 -1.345739E+05  2.791634E+04  8.200631E-10  3.997110E-10
       390  12 -8.760392E+04 -6.699967E+05 -9.400672E+04  8.221519E+04 -1.515444E-09 -3.222119E-09
       390  13 -1.989497E+04 -3.155047E+05 -2.486801E+04  8.443408E+04  1.635644E-09 -1.133547E-08
       390  14  2.695283E+03 -3.123946E+05 -1.178863E+04  2.540999E+04 -5.238797E-10  3.069559E-09
       390  15  3.560000E+02 -3.154709E+05 -8.887796E+03  8.447613E+04 -6.406096E-11 -4.595337E-09
       390  16  1.478841E+05  3.571085E+05  1.412735E+05  7.714798E+04 -4.394837E-10 -5.515155E-09
       390  17  1.298416E+05  2.005044E+05  1.109781E+05  2.290168E+04  2.178028E-09 -8.988628E-09
       390  18  8.830680E+04  3.917017E+04  7.622221E+04  8.673839E+04 -2.192102E-09  1.583842E-09
       390  19 -1.877075E+05 -9.877059E+05 -1.910418E+05  9.171260E+04  6.078086E+03  2.527366E+04
       390  20 -1.244698E+05 -8.250523E+05 -1.345732E+05  2.791648E+04  1.663885E+04  1.075246E+04
       390  21 -8.760379E+04 -6.699966E+05 -9.400647E+04  8.221516E+04  1.085820E+04 -3.803925E+03
       390  22 -1.989486E+04 -3.155044E+05 -2.486746E+04  8.443416E+04  6.097337E+03  1.586965E+04
       390  23  2.695605E+03 -3.123944E+05 -1.178794E+04  2.541012E+04  1.664011E+04  9.567613E+03
       390  24  3.561291E+02 -3.154708E+05 -8.887555E+03  8.447616E+04  1.084720E+04  3.234326E+03
       390  25  1.478842E+05  3.571085E+05  1.412737E+05  7.714801E+04  6.116799E+03  6.455444E+03
       390  26  1.298419E+05  2.005046E+05  1.109787E+05  2.290179E+04  1.664138E+04  8.381793E+03
       390  27  8.830695E+04  3.917032E+04  7.622263E+04  8.673848E+04  1.083626E+04  1.027658E+04
       391   1 -3.689505E+04 -4.546544E+05 -4.190679E+04  8.588183E+04 -4.578780E+03  8.809479E+02
       391   2  5.484365E+03 -2.945807E+05 -3.185866E+03  2.509733E+04  5.910005E+02  4.823767E+03
       391   3  4.027519E+04 -1.364281E+05  3.116330E+04  8.305493E+04  5.701332E+03  8.767709E+03
       391   4 -2.137384E+03 -3.145004E+05 -8.354012E+03  8.460851E+04 -4.575001E+03 -1.741457E+03
       391   5  7.851581E+02 -3.135263E+05 -7.727737E+03  2.523586E+04  5.948256E+02  2.231216E+03
       391   6 -3.884469E+03 -3.145019E+05 -1.149248E+04  8.460588E+04  5.705147E+03  6.204020E+03
       391   7  3.261886E+04 -1.743284E+05  2.519740E+04  8.333491E+04 -4.571212E+03 -4.364452E+03
       391   8 -3.914071E+03 -3.324715E+05 -1.226961E+04  2.537438E+04  5.986496E+02 -3.612551E+02
       391   9 -4.804642E+04 -4.925467E+05 -5.415047E+04  8.615639E+04  5.708950E+03  3.641065E+03
       391  10 -3.689507E+04 -4.546544E+05 -4.190683E+04  8.588183E+04 -3.053595E-09  2.379603E-10
       391  11  5.484358E+03 -2.945807E+05 -3.185910E+03  2.509733E+04 -1.038191E-09 -5.587992E-09
       391  12  4.027513E+04 -1.364282E+05  3.116309E+04  8.305489E+04 -5.670075E-10 -1.627287E-08
       391  13 -2.137407E+03 -3.145004E+05 -8.354057E+03  8.460851E+04 -2.363130E-09 -3.406811E-09
       391  14  7.851564E+02 -3.135263E+05 -7.727747E+03  2.523586E+04  1.694973E-09 -2.946996E-09
       391  15 -3.884514E+03 -3.145020E+05 -1.149261E+04  8.460585E+04  6.815778E-09 -1.141725E-08
       391  16  3.261884E+04 -1.743284E+05  2.519733E+04  8.333489E+04 -2.630464E-09 -4.101724E-09
       391  17 -3.914071E+03 -3.324715E+05 -1.226961E+04  2.537438E+04 -9.732625E-10  3.250802E-10
       391  18 -4.804646E+04 -4.925467E+05 -5.415056E+04  8.615638E+04  1.484096E-09  1.621125E-08
       391  19 -3.689505E+04 -4.546544E+05 -4.190679E+04  8.588183E+04  4.578780E+03 -8.809479E+02
       391  20  5.484365E+03 -2.945807E+05 -3.185866E+03  2.509733E+04 -5.910005E+02 -4.823767E+03
       391  21  4.027519E+04 -1.364281E+05  3.116330E+04  8.305493E+04 -5.701332E+03 -8.767709E+03
       391  22 -2.137384E+03 -3.145004E+05 -8.354012E+03  8.460851E+04  4.575001E+03  1.741457E+03
       391  23  7.851581E+02 -3.135263E+05 -7.727737E+03  2.523586E+04 -5.948256E+02 -2.231216E+03
       391  24 -3.884469E+03 -3.145019E+05 -1.149248E+04  8.460588E+04 -5.705147E+03 -6.204020E+03
       391  25  3.261886E+04 -1.743284E+05  2.519740E+04  8.333491E+04  4.571212E+03  4.364452E+03
       391  26 -3.914071E+03 -3.324715E+05 -1.226961E+04  2.537438E+04 -5.986496E+02  3.612551E+02
       391  27 -4.804642E+04 -4.925467E+05 -5.415047E+04  8.615639E+04 -5.708950E+03 -3.641065E+03
       392   1  9.866316E+04  7.587352E+04  8.083326E+04  8.872520E+04  1.206772E+04  1.557289E+04
       392   2  1.414309E+05  2.397781E+05  1.117680E+05  2.140809E+04  1.783798E+04  1.775246E+04
       392   3  1.415753E+05  3.937046E+05  1.308216E+05  7.207901E+04  6.476570E+03  1.989876E+04
       392   4  1.329752E+03 -3.166593E+05 -1.334081E+04  8.446658E+04  1.207923E+04  8.339516E+03
       392   5  4.909384E+03 -3.109233E+05 -2.004961E+04  2.542878E+04  1.783645E+04  1.914794E+04
       392   6 -3.565151E+04 -3.166977E+05 -4.464166E+04  8.438738E+04  6.455345E+03  2.992227E+04
       392   7 -9.601475E+04 -7.090509E+05 -1.075256E+05  8.021071E+04  1.209085E+04  1.110700E+03
       392   8 -1.316340E+05 -8.613468E+05 -1.518886E+05  2.944601E+04  1.783493E+04  2.054217E+04
       392   9 -2.129154E+05 -1.026641E+06 -2.201419E+05  9.668187E+04  6.434505E+03  3.993432E+04
       392  10  9.866294E+04  7.587322E+04  8.083253E+04  8.872505E+04  1.861022E-09  1.364061E-08
       392  11  1.414304E+05  2.397777E+05  1.117668E+05  2.140783E+04  1.293185E-10  9.967086E-09
       392  12  1.415751E+05  3.937041E+05  1.308207E+05  7.207890E+04 -2.185963E-10  1.280659E-09
       392  13  1.329577E+03 -3.166595E+05 -1.334122E+04  8.446650E+04  4.054748E-09 -3.765064E-09
       392  14  4.908943E+03 -3.109238E+05 -2.005089E+04  2.542850E+04  4.428970E-09  7.667470E-09
       392  15 -3.565180E+04 -3.166987E+05 -4.464342E+04  8.438722E+04 -1.442169E-09 -1.099044E-08
       392  16 -9.601491E+04 -7.090510E+05 -1.075259E+05  8.021070E+04  8.261900E-12 -1.548079E-08
       392  17 -1.316345E+05 -8.613473E+05 -1.518900E+05  2.944572E+04 -3.040321E-09 -1.917379E-08
       392  18 -2.129159E+05 -1.026643E+06 -2.201450E+05  9.668167E+04 -1.570120E-09 -3.140285E-11
       392  19  9.866316E+04  7.587352E+04  8.083326E+04  8.872520E+04 -1.206772E+04 -1.557289E+04
       392  20  1.414309E+05  2.397781E+05  1.117680E+05  2.140809E+04 -1.783798E+04 -1.775246E+04
       392  21  1.415753E+05  3.937046E+05  1.308216E+05  7.207901E+04 -6.476570E+03 -1.989876E+04
       392  22  1.329752E+03 -3.166593E+05 -1.334081E+04  8.446658E+04 -1.207923E+04 -8.339516E+03
       392  23  4.909384E+03 -3.109233E+05 -2.004961E+04  2.542878E+04 -1.783645E+04 -1.914794E+04
       392  24 -3.565151E+04 -3.166977E+05 -4.464166E+04  8.438738E+04 -6.455345E+03 -2.992227E+04
       392  25 -9.601475E+04 -7.090509E+05 -1.075256E+05  8.021071E+04 -1.209085E+04 -1.110700E+03
       392  26 -1.316340E+05 -8.613468E+05 -1.518886E+05  2.944601E+04 -1.783493E+04 -2.054217E+04
       392  27 -2.129154E+05 -1.026641E+06 -2.201419E+05  9.668187E+04 -6.434505E+03 -3.993432E+04
       393   1  1.092700E+06  2.990588E+03  1.396031E+04 -7.629547E+02  3.166304E+04  4.542081E+02
       393   2  1.089901E+06 -3.993598E+04 -1.159815E+04  4.074620E+03  2.091025E+04  1.170597E+03
       393   3  1.101666E+06 -3.159682E+04 -1.727752E+04 -5.089337E+03  1.015847E+04  8.664411E+02
       393   4  1.223562E+06  3.564712E+04  4.659970E+04 -3.597712E+03  3.181687E+04  4.542753E+02
       393   5  1.216281E+06 -8.400884E+03  1.986653E+04  3.429395E+03  2.093942E+04  1.170590E+03
       393   6  1.223582E+06 -1.167115E+03  1.309590E+04 -3.544823E+03  1.006307E+04  8.663761E+02
       393   7  1.354440E+06  6.830240E+04  7.923780E+04 -6.433071E+03  3.197073E+04  4.543410E+02
       393   8  1.342676E+06  2.313302E+04  5.133001E+04  2.784035E+03  2.096860E+04  1.170584E+03
       393   9  1.345512E+06  2.926148E+04  4.346820E+04 -2.000009E+03  9.967653E+03  8.663107E+02
       393  10  1.092699E+06  2.990319E+03  1.395842E+04 -7.629663E+02 -7.829261E-10  1.589293E-10
       393  11  1.089901E+06 -3.993610E+04 -1.159897E+04  4.074600E+03  1.246834E-10  2.623396E-10
       393  12  1.101666E+06 -3.159685E+04 -1.727772E+04 -5.089344E+03  3.614987E-10 -6.462838E-11
       393  13  1.223561E+06  3.564685E+04  4.659780E+04 -3.597723E+03 -2.721034E-11 -9.829340E-11
       393  14  1.216281E+06 -8.401002E+03  1.986570E+04  3.429375E+03  6.381187E-10 -3.121247E-10
       393  15  1.223582E+06 -1.167142E+03  1.309571E+04 -3.544830E+03 -3.207810E-11 -2.769033E-10
       393  16  1.354439E+06  6.830212E+04  7.923589E+04 -6.433083E+03 -5.208645E-10 -3.290148E-10
       393  17  1.342675E+06  2.313290E+04  5.132918E+04  2.784015E+03  1.536453E-10  8.342290E-11
       393  18  1.345512E+06  2.926146E+04  4.346802E+04 -2.000016E+03 -1.520184E-10 -1.976171E-10
       393  19  1.092700E+06  2.990588E+03  1.396031E+04 -7.629547E+02 -3.166304E+04 -4.542081E+02
       393  20  1.089901E+06 -3.993598E+04 -1.159815E+04  4.074620E+03 -2.091025E+04 -1.170597E+03
       393  21  1.101666E+06 -3.159682E+04 -1.727752E+04 -5.089337E+03 -1.015847E+04 -8.664411E+02
       393  22  1.223562E+06  3.564712E+04  4.659970E+04 -3.597712E+03 -3.181687E+04 -4.542753E+02
       393  23  1.216281E+06 -8.400884E+03  1.986653E+04  3.429395E+03 -2.093942E+04 -1.170590E+03
       393  24  1.223582E+06 -1.167115E+03  1.309590E+04 -3.544823E+03 -1.006307E+04 -8.663761E+02
       393  25  1.354440E+06  6.830240E+04  7.923780E+04 -6.433071E+03 -3.197073E+04 -4.543410E+02
       393  26  1.342676E+06  2.313302E+04  5.133001E+04  2.784035E+03 -2.096860E+04 -1.170584E+03
       393  27  1.345512E+06  2.926148E+04  4.346820E+04 -2.000009E+03 -9.967653E+03 -8.663107E+02
       394   1  1.146916E+06 -1.300469E+04 -7.584860E+03 -1.845670E+03  7.886064E+03  5.959606E+02
       394   2  1.148283E+06 -1.910205E+04 -1.260969E+04  1.862817E+03  5.179047E+03  5.714759E+02
       394   3  1.152075E+06 -1.734365E+04 -1.388846E+04 -2.484765E+03  2.472034E+03  4.643819E+02
       394   4  1.220879E+06  5.451954E+03  1.083540E+04 -2.242789E+03  7.888943E+03  5.959527E+02
       394   5  1.219667E+06 -1.288203E+03  5.168647E+03  1.787101E+03  5.171714E+03  5.714672E+02
       394   6  1.220882E+06 -1.713079E+02  3.254727E+03 -2.239018E+03  2.454500E+03  4.643739E+02
       394   7  1.294847E+06  2.390818E+04  2.925524E+04 -2.639957E+03  7.891822E+03  5.959447E+02
       394   8  1.291056E+06  1.652526E+04  2.294660E+04  1.711376E+03  5.164379E+03  5.714586E+02
       394   9  1.289694E+06  1.700067E+04  2.039756E+04 -1.993245E+03  2.436963E+03  4.643659E+02
       394  10  1.146916E+06 -1.300470E+04 -7.584977E+03 -1.845673E+03  2.649663E-12  5.243962E-10
       394  11  1.148283E+06 -1.910206E+04 -1.260974E+04  1.862815E+03 -2.947179E-10 -2.697023E-10
       394  12  1.152075E+06 -1.734365E+04 -1.388847E+04 -2.484766E+03 -1.099658E-10  8.395536E-10
       394  13  1.220879E+06  5.451937E+03  1.083528E+04 -2.242793E+03 -1.044257E-11 -1.405415E-10
       394  14  1.219667E+06 -1.288210E+03  5.168596E+03  1.787099E+03  1.887564E-10  2.558351E-10
       394  15  1.220882E+06 -1.713097E+02  3.254715E+03 -2.239019E+03 -2.216190E-11  1.304516E-10
       394  16  1.294847E+06  2.390817E+04  2.925512E+04 -2.639961E+03 -5.806155E-10  1.502561E-11
       394  17  1.291056E+06  1.652525E+04  2.294655E+04  1.711374E+03  3.354061E-10  3.911884E-10
       394  18  1.289694E+06  1.700067E+04  2.039755E+04 -1.993246E+03  1.675140E-10  1.153501E-10
       394  19  1.146916E+06 -1.300469E+04 -7.584860E+03 -1.845670E+03 -7.886064E+03 -5.959606E+02
       394  20  1.148283E+06 -1.910205E+04 -1.260969E+04  1.862817E+03 -5.179047E+03 -5.714759E+02
       394  21  1.152075E+06 -1.734365E+04 -1.388846E+04 -2.484765E+03 -2.472034E+03 -4.643819E+02
       394  22  1.220879E+06  5.451954E+03  1.083540E+04 -2.242789E+03 -7.888943E+03 -5.959527E+02
       394  23  1.219667E+06 -1.288203E+03  5.168647E+03  1.787101E+03 -5.171714E+03 -5.714672E+02
       394  24  1.220882E+06 -1.713079E+02  3.254727E+03 -2.239018E+03 -2.454500E+03 -4.643739E+02
       394  25  1.294847E+06  2.390818E+04  2.925524E+04 -2.639957E+03 -7.891822E+03 -5.959447E+02
       394  26  1.291056E+06  1.652526E+04  2.294660E+04  1.711376E+03 -5.164379E+03 -5.714586E+02
       394  27  1.289694E+06  1.700067E+04  2.039756E+04 -1.993245E+03 -2.436963E+03 -4.643659E+02
       395   1  1.179573E+06 -9.369585E+03 -7.548422E+03 -1.453161E+03  1.932408E+03  3.870265E+02
       395   2  1.180882E+06 -1.001715E+04 -8.397641E+03  8.795773E+02  1.210758E+03  3.014227E+02
       395   3  1.182619E+06 -9.451114E+03 -8.467859E+03 -1.544292E+03  4.890961E+02  2.472434E+02
       395   4  1.220439E+06  8.271024E+02  2.624126E+03 -1.507114E+03  1.920339E+03  3.870218E+02
       395   5  1.220225E+06 -1.991974E+02  1.401480E+03  8.712823E+02  1.202424E+03  3.014203E+02
       395   6  1.220439E+06 -1.258151E+01  9.552152E+02 -1.506911E+03  4.844987E+02  2.472423E+02
       395   7  1.261305E+06  1.102366E+04  1.279655E+04 -1.561070E+03  1.908270E+03  3.870171E+02
       395   8  1.259569E+06  9.618638E+03  1.120049E+04  8.629867E+02  1.194089E+03  3.014178E+02
       395   9  1.258260E+06  9.425844E+03  1.037818E+04 -1.469528E+03  4.799009E+02  2.472412E+02
       395  10  1.179573E+06 -9.369586E+03 -7.548429E+03 -1.453161E+03  3.653600E-10  8.172199E-11
       395  11  1.180882E+06 -1.001715E+04 -8.397643E+03  8.795770E+02  3.195745E-10  9.313642E-13
       395  12  1.182619E+06 -9.451114E+03 -8.467860E+03 -1.544292E+03  8.043364E-11 -3.740940E-10
       395  13  1.220439E+06  8.271012E+02  2.624119E+03 -1.507114E+03 -1.100034E-11 -2.268003E-10
       395  14  1.220225E+06 -1.991979E+02  1.401477E+03  8.712820E+02  3.036666E-11 -7.994656E-11
       395  15  1.220439E+06 -1.258164E+01  9.552146E+02 -1.506911E+03 -1.186821E-11  5.933774E-11
       395  16  1.261305E+06  1.102366E+04  1.279654E+04 -1.561071E+03 -7.057460E-10 -5.023095E-10
       395  17  1.259569E+06  9.618638E+03  1.120048E+04  8.629864E+02 -5.136903E-11  3.593559E-10
       395  18  1.258260E+06  9.425844E+03  1.037818E+04 -1.469528E+03 -7.206930E-11 -1.728908E-10
       395  19  1.179573E+06 -9.369585E+03 -7.548422E+03 -1.453161E+03 -1.932408E+03 -3.870265E+02
       395  20  1.180882E+06 -1.001715E+04 -8.397641E+03  8.795773E+02 -1.210758E+03 -3.014227E+02
       395  21  1.182619E+06 -9.451114E+03 -8.467859E+03 -1.544292E+03 -4.890961E+02 -2.472434E+02
       395  22  1.220439E+06  8.271024E+02  2.624126E+03 -1.507114E+03 -1.920339E+03 -3.870218E+02
       395  23  1.220225E+06 -1.991974E+02  1.401480E+03  8.712823E+02 -1.202424E+03 -3.014203E+02
       395  24  1.220439E+06 -1.258151E+01  9.552152E+02 -1.506911E+03 -4.844987E+02 -2.472423E+02
       395  25  1.261305E+06  1.102366E+04  1.279655E+04 -1.561070E+03 -1.908270E+03 -3.870171E+02
       395  26  1.259569E+06  9.618638E+03  1.120049E+04  8.629867E+02 -1.194089E+03 -3.014178E+02
       395  27  1.258260E+06  9.425844E+03  1.037818E+04 -1.469528E+03 -4.799009E+02 -2.472412E+02
       396   1  1.199460E+06 -5.096017E+03 -4.372460E+03 -1.103170E+03  3.313126E+02  2.139656E+02
       396   2  1.200352E+06 -5.029285E+03 -4.277785E+03  3.831627E+02 -2.053362E+01  1.510168E+02
       396   3  1.201373E+06 -4.662725E+03 -3.877912E+03 -1.123040E+03 -3.723902E+02  1.152267E+02
       396   4  1.220373E+06  1.218972E+02  8.320793E+02 -1.114959E+03  3.221236E+02  2.139651E+02
       396   5  1.220309E+06 -4.923287E+01  6.928272E+02  3.813098E+02 -2.646903E+01  1.510168E+02
       396   6  1.220372E+06  7.889332E+01  8.565067E+02 -1.114951E+03 -3.750714E+02  1.152268E+02
       396   7  1.241286E+06  5.339778E+03  6.036586E+03 -1.126748E+03  3.129342E+02  2.139646E+02
       396   8  1.240265E+06  4.930790E+03  5.663410E+03  3.794568E+02 -3.240463E+01  1.510167E+02
       396   9  1.239372E+06  4.820484E+03  5.590898E+03 -1.106862E+03 -3.777526E+02  1.152268E+02
       396  10  1.199460E+06 -5.096017E+03 -4.372461E+03 -1.103170E+03  1.513408E-10 -5.862671E-11
       396  11  1.200352E+06 -5.029285E+03 -4.277785E+03  3.831627E+02  4.722442E-11 -1.614441E-10
       396  12  1.201373E+06 -4.662725E+03 -3.877912E+03 -1.123040E+03 -3.508942E-11  3.645452E-11
       396  13  1.220373E+06  1.218971E+02  8.320790E+02 -1.114959E+03  8.879511E-11 -2.077546E-10
       396  14  1.220309E+06 -4.923290E+01  6.928272E+02  3.813098E+02 -1.115937E-10 -2.191298E-10
       396  15  1.220372E+06  7.889327E+01  8.565065E+02 -1.114951E+03 -2.241178E-10  8.611851E-11
       396  16  1.241286E+06  5.339778E+03  6.036586E+03 -1.126749E+03 -1.362609E-10 -1.815715E-10
       396  17  1.240265E+06  4.930790E+03  5.663410E+03  3.794568E+02 -5.459517E-12  1.350321E-10
       396  18  1.239372E+06  4.820484E+03  5.590898E+03 -1.106862E+03 -2.078182E-10 -5.991310E-10
       396  19  1.199460E+06 -5.096017E+03 -4.372460E+03 -1.103170E+03 -3.313126E+02 -2.139656E+02
       396  20  1.200352E+06 -5.029285E+03 -4.277785E+03  3.831627E+02  2.053362E+01 -1.510168E+02
       396  21  1.201373E+06 -4.662725E+03 -3.877912E+03 -1.123040E+03  3.723902E+02 -1.152267E+02
       396  22  1.220373E+06  1.218972E+02  8.320793E+02 -1.114959E+03 -3.221236E+02 -2.139651E+02
       396  23  1.220309E+06 -4.923287E+01  6.928272E+02  3.813098E+02  2.646903E+01 -1.510168E+02
       396  24  1.220372E+06  7.889332E+01  8.565067E+02 -1.114951E+03  3.750714E+02 -1.152268E+02
       396  25  1.241286E+06  5.339778E+03  6.036586E+03 -1.126748E+03 -3.129342E+02 -2.139646E+02
       396  26  1.240265E+06  4.930790E+03  5.663410E+03  3.794568E+02  3.240463E+01 -1.510167E+02
       396  27  1.239372E+06  4.820484E+03  5.590898E+03 -1.106862E+03  3.777526E+02 -1.152268E+02
       397   1  1.212722E+06 -1.915958E+03 -9.077148E+02 -9.100135E+02 -5.381344E+02  9.528898E+01
       397   2  1.213269E+06 -1.879241E+03 -2.140048E+02  1.542769E+02 -1.310972E+03  5.270712E+01
       397   3  1.214122E+06 -1.020381E+03  1.187704E+03 -9.718370E+02 -2.083811E+03  2.192319E+01
       397   4  1.220412E+06  2.658403E+00  1.004943E+03 -9.367313E+02 -5.439754E+02  9.528960E+01
       397   5  1.220259E+06 -1.348940E+02  1.527058E+03  1.585107E+02 -1.315403E+03  5.270766E+01
       397   6  1.220412E+06  5.494470E+02  2.756190E+03 -9.366499E+02 -2.086830E+03  2.192351E+01
       397   7  1.228103E+06  1.921270E+03  2.917596E+03 -9.634495E+02 -5.498165E+02  9.529022E+01
       397   8  1.227249E+06  1.609449E+03  3.268118E+03  1.627446E+02 -1.319833E+03  5.270819E+01
       397   9  1.226701E+06  2.119272E+03  4.324673E+03 -9.014625E+02 -2.089850E+03  2.192383E+01
       397  10  1.212722E+06 -1.915958E+03 -9.077154E+02 -9.100134E+02  1.357493E-10 -7.661058E-10
       397  11  1.213269E+06 -1.879241E+03 -2.140080E+02  1.542770E+02 -1.614522E-11 -2.902916E-10
       397  12  1.214122E+06 -1.020382E+03  1.187696E+03 -9.718370E+02 -1.498024E-10  3.059762E-10
       397  13  1.220412E+06  2.658314E+00  1.004942E+03 -9.367313E+02 -2.785800E-10 -6.966519E-11
       397  14  1.220259E+06 -1.348945E+02  1.527055E+03  1.585108E+02 -2.933913E-10 -7.602911E-11
       397  15  1.220411E+06  5.494458E+02  2.756182E+03 -9.366499E+02 -2.028002E-10  7.546528E-11
       397  16  1.228103E+06  1.921270E+03  2.917596E+03 -9.634495E+02 -7.646702E-11 -5.614840E-10
       397  17  1.227249E+06  1.609449E+03  3.268115E+03  1.627447E+02 -1.168041E-10  7.981799E-10
       397  18  1.226701E+06  2.119270E+03  4.324665E+03 -9.014625E+02  1.025818E-10  2.286570E-10
       397  19  1.212722E+06 -1.915958E+03 -9.077148E+02 -9.100135E+02  5.381344E+02 -9.528898E+01
       397  20  1.213269E+06 -1.879241E+03 -2.140048E+02  1.542769E+02  1.310972E+03 -5.270712E+01
       397  21  1.214122E+06 -1.020381E+03  1.187704E+03 -9.718370E+02  2.083811E+03 -2.192319E+01
       397  22  1.220412E+06  2.658403E+00  1.004943E+03 -9.367313E+02  5.439754E+02 -9.528960E+01
       397  23  1.220259E+06 -1.348940E+02  1.527058E+03  1.585107E+02  1.315403E+03 -5.270766E+01
       397  24  1.220412E+06  5.494470E+02  2.756190E+03 -9.366499E+02  2.086830E+03 -2.192351E+01
       397  25  1.228103E+06  1.921270E+03  2.917596E+03 -9.634495E+02  5.498165E+02 -9.529022E+01
       397  26  1.227249E+06  1.609449E+03  3.268118E+03  1.627446E+02  1.319833E+03 -5.270819E+01
       397  27  1.226701E+06  2.119272E+03  4.324673E+03 -9.014625E+02  2.089850E+03 -2.192383E+01
       398   1  1.223778E+06  6.547968E+02  4.253375E+03 -7.571413E+02 -2.649222E+03  4.912651E+00
       398   2  1.223599E+06  6.987425E+01  6.673744E+03  7.614099E+01 -5.596273E+03 -2.859620E+01
       398   3  1.225114E+06  4.732091E+03  1.232168E+04 -1.183567E+03 -8.543290E+03 -5.976588E+01
       398   4  1.220720E+06 -1.086066E+02  3.489643E+03 -9.152330E+02 -2.653433E+03  4.913965E+00
       398   5  1.219872E+06 -8.602640E+02  5.745460E+03  1.315131E+02 -5.600187E+03 -2.859615E+01
       398   6  1.220717E+06  3.635187E+03  1.122866E+04 -9.147346E+02 -8.546904E+03 -5.976911E+01
       398   7  1.217663E+06 -8.720107E+02  2.725910E+03 -1.073324E+03 -2.657644E+03  4.915281E+00
       398   8  1.216144E+06 -1.790403E+03  4.817176E+03  1.868849E+02 -5.604101E+03 -2.859611E+01
       398   9  1.216320E+06  2.538283E+03  1.013564E+04 -6.459046E+02 -8.550518E+03 -5.977235E+01
       398  10  1.223778E+06  6.547949E+02  4.253362E+03 -7.571413E+02  1.928124E-10 -9.962080E-11
       398  11  1.223599E+06  6.986586E+01  6.673685E+03  7.614086E+01 -3.679333E-11 -1.572623E-10
       398  12  1.225114E+06  4.732072E+03  1.232154E+04 -1.183567E+03 -4.767318E-10  4.210904E-10
       398  13  1.220720E+06 -1.086085E+02  3.489629E+03 -9.152330E+02 -7.782683E-12 -3.890879E-11
       398  14  1.219872E+06 -8.602724E+02  5.745401E+03  1.315130E+02 -1.844095E-10 -2.245515E-10
       398  15  1.220717E+06  3.635168E+03  1.122852E+04 -9.147350E+02  7.373599E-12 -1.572574E-10
       398  16  1.217663E+06 -8.720126E+02  2.725896E+03 -1.073324E+03  5.896206E-11 -8.792844E-11
       398  17  1.216144E+06 -1.790412E+03  4.817117E+03  1.868848E+02  1.762602E-10  8.428206E-11
       398  18  1.216320E+06  2.538263E+03  1.013550E+04 -6.459050E+02  2.361003E-10  1.192169E-10
       398  19  1.223778E+06  6.547968E+02  4.253375E+03 -7.571413E+02  2.649222E+03 -4.912651E+00
       398  20  1.223599E+06  6.987425E+01  6.673744E+03  7.614099E+01  5.596273E+03  2.859620E+01
       398  21  1.225114E+06  4.732091E+03  1.232168E+04 -1.183567E+03  8.543290E+03  5.976588E+01
       398  22  1.220720E+06 -1.086066E+02  3.489643E+03 -9.152330E+02  2.653433E+03 -4.913965E+00
       398  23  1.219872E+06 -8.602640E+02  5.745460E+03  1.315131E+02  5.600187E+03  2.859615E+01
       398  24  1.220717E+06  3.635187E+03  1.122866E+04 -9.147346E+02  8.546904E+03  5.976911E+01
       398  25  1.217663E+06 -8.720107E+02  2.725910E+03 -1.073324E+03  2.657644E+03 -4.915281E+00
       398  26  1.216144E+06 -1.790403E+03  4.817176E+03  1.868849E+02  5.604101E+03  2.859611E+01
       398  27  1.216320E+06  2.538283E+03  1.013564E+04 -6.459046E+02  8.550518E+03  5.977235E+01
       399   1  1.237380E+06  2.928548E+03  1.769489E+04 -4.038082E+01 -1.083066E+04 -8.510342E+01
       399   2  1.233168E+06 -1.719053E+03  2.637097E+04 -1.588669E+02 -2.264462E+04 -1.243217E+02
       399   3  1.239071E+06  2.795144E+04  5.130796E+04 -2.947027E+03 -3.445883E+04 -1.367787E+02
       399   4  1.222591E+06 -7.619270E+02  1.400959E+04 -1.043688E+03 -1.083697E+04 -8.508531E+01
       399   5  1.217525E+06 -5.622703E+03  2.247531E+04  2.916654E+02 -2.264745E+04 -1.243380E+02
       399   6  1.222573E+06  2.383447E+04  4.719983E+04 -1.042634E+03 -3.445817E+04 -1.368844E+02
       399   7  1.207803E+06 -4.452415E+03  1.032429E+04 -2.046972E+03 -1.084327E+04 -8.506717E+01
       399   8  1.201882E+06 -9.526371E+03  1.857964E+04  7.421864E+02 -2.265029E+04 -1.243543E+02
       399   9  1.206075E+06  1.971749E+04  4.309169E+04  8.617095E+02 -3.445752E+04 -1.369902E+02
       399  10  1.237380E+06  2.928517E+03  1.769467E+04 -4.038156E+01  4.200506E-10  5.656508E-10
       399  11  1.233168E+06 -1.719191E+03  2.637000E+04 -1.588692E+02  4.313770E-10 -2.864305E-10
       399  12  1.239070E+06  2.795112E+04  5.130573E+04 -2.947031E+03  5.693699E-11 -7.323623E-11
       399  13  1.222591E+06 -7.619584E+02  1.400937E+04 -1.043689E+03 -2.273450E-10 -3.067942E-11
       399  14  1.217524E+06 -5.622841E+03  2.247435E+04  2.916632E+02  2.656104E-10 -4.697168E-11
       399  15  1.222572E+06  2.383415E+04  4.719760E+04 -1.042637E+03  2.034029E-10 -7.799468E-11
       399  16  1.207803E+06 -4.452446E+03  1.032407E+04 -2.046973E+03 -2.916312E-10 -4.986163E-10
       399  17  1.201881E+06 -9.526509E+03  1.857868E+04  7.421841E+02 -3.139621E-10 -1.040502E-10
       399  18  1.206074E+06  1.971717E+04  4.308946E+04  8.617057E+02  7.228315E-12 -2.520679E-10
       399  19  1.237380E+06  2.928548E+03  1.769489E+04 -4.038082E+01  1.083066E+04  8.510342E+01
       399  20  1.233168E+06 -1.719053E+03  2.637097E+04 -1.588669E+02  2.264462E+04  1.243217E+02
       399  21  1.239071E+06  2.795144E+04  5.130796E+04 -2.947027E+03  3.445883E+04  1.367787E+02
       399  22  1.222591E+06 -7.619270E+02  1.400959E+04 -1.043688E+03  1.083697E+04  8.508531E+01
       399  23  1.217525E+06 -5.622703E+03  2.247531E+04  2.916654E+02  2.264745E+04  1.243380E+02
       399  24  1.222573E+06  2.383447E+04  4.719983E+04 -1.042634E+03  3.445817E+04  1.368844E+02
       399  25  1.207803E+06 -4.452415E+03  1.032429E+04 -2.046972E+03  1.084327E+04  8.506717E+01
       399  26  1.201882E+06 -9.526371E+03  1.857964E+04  7.421864E+02  2.265029E+04  1.243543E+02
       399  27  1.206075E+06  1.971749E+04  4.309169E+04  8.617095E+02  3.445752E+04  1.369902E+02
       400   1  1.265405E+06  2.701380E+03  6.480304E+04  5.052952E+03 -4.389139E+04 -2.129194E+02
       400   2  1.235650E+06 -2.848658E+04  9.484295E+04 -2.589712E+03 -9.137018E+04 -3.036522E+02
       400   3  1.267956E+06  1.639076E+05  2.116553E+05 -1.437784E+04 -1.388483E+05 -1.258678E+02
       400   4  1.234141E+06 -5.100386E+03  5.701476E+04 -1.364434E+03 -4.391692E+04 -2.124671E+02
       400   5  1.203065E+06 -3.661648E+04  8.673153E+04  6.958821E+02 -9.136143E+04 -3.041354E+02
       400   6  1.234048E+06  1.554495E+05  2.032002E+05 -1.388857E+03 -1.388052E+05 -1.287616E+02
       400   7  1.202879E+06 -1.290207E+04  4.922643E+04 -7.781497E+03 -4.394245E+04 -2.120142E+02
       400   8  1.170482E+06 -4.474642E+04  7.862004E+04  3.981304E+03 -9.135268E+04 -3.046186E+02
       400   9  1.200142E+06  1.469920E+05  1.947451E+05  1.159942E+04 -1.387621E+05 -1.316538E+02
       400  10  1.265403E+06  2.700864E+03  6.479943E+04  5.052944E+03  5.485831E-12 -7.959530E-12
       400  11  1.235641E+06 -2.848882E+04  9.482729E+04 -2.589734E+03 -2.313270E-11 -3.489814E-10
       400  12  1.267935E+06  1.639024E+05  2.116191E+05 -1.437785E+04  3.602104E-11 -4.227031E-11
       400  13  1.234139E+06 -5.100902E+03  5.701114E+04 -1.364441E+03 -1.346953E-10 -6.351859E-11
       400  14  1.203057E+06 -3.661871E+04  8.671587E+04  6.958597E+02  1.907571E-10 -1.900359E-10
       400  15  1.234027E+06  1.554443E+05  2.031641E+05 -1.388871E+03  3.633898E-11 -1.947452E-10
       400  16  1.202877E+06 -1.290259E+04  4.922281E+04 -7.781504E+03  1.509142E-10 -5.634138E-10
       400  17  1.170473E+06 -4.474865E+04  7.860438E+04  3.981282E+03  4.254749E-10 -1.272905E-10
       400  18  1.200121E+06  1.469868E+05  1.947090E+05  1.159940E+04  2.259639E-10  1.646551E-11
       400  19  1.265405E+06  2.701380E+03  6.480304E+04  5.052952E+03  4.389139E+04  2.129194E+02
       400  20  1.235650E+06 -2.848658E+04  9.484295E+04 -2.589712E+03  9.137018E+04  3.036522E+02
       400  21  1.267956E+06  1.639076E+05  2.116553E+05 -1.437784E+04  1.388483E+05  1.258678E+02
       400  22  1.234141E+06 -5.100386E+03  5.701476E+04 -1.364434E+03  4.391692E+04  2.124671E+02
       400  23  1.203065E+06 -3.661648E+04  8.673153E+04  6.958821E+02  9.136143E+04  3.041354E+02
       400  24  1.234048E+06  1.554495E+05  2.032002E+05 -1.388857E+03  1.388052E+05  1.287616E+02
       400  25  1.202879E+06 -1.290207E+04  4.922643E+04 -7.781497E+03  4.394245E+04  2.120142E+02
       400  26  1.170482E+06 -4.474642E+04  7.862004E+04  3.981304E+03  9.135268E+04  3.046186E+02
       400  27  1.200142E+06  1.469920E+05  1.947451E+05  1.159942E+04  1.387621E+05  1.316538E+02
       401   1  1.553202E+05 -3.325668E+04 -2.704418E+04 -5.145348E+03  1.769162E+04  6.709413E+02
       401   2  1.568851E+05 -5.668833E+04 -4.062115E+04  3.038467E+03  1.176431E+04  1.880880E+03
       401   3  1.673164E+05 -5.104496E+04 -4.290496E+04 -7.489610E+03  5.836543E+03  1.410888E+03
       401   4  3.691618E+05  2.017780E+04  2.634832E+04 -6.820398E+03  1.794187E+04  6.708833E+02
       401   5  3.647114E+05 -4.775044E+03  1.117342E+04  2.535170E+03  1.181108E+04  1.880809E+03
       401   6  3.691601E+05 -6.225708E+02  7.430248E+03 -6.820777E+03  5.679886E+03  1.411028E+03
       401   7  5.830449E+05  7.360883E+04  7.973738E+04 -8.496025E+03  1.819220E+04  6.708238E+02
       401   8  5.725767E+05  4.713500E+04  6.296475E+04  2.031708E+03  1.185786E+04  1.880738E+03
       401   9  5.710406E+05  4.979675E+04  5.776239E+04 -6.151716E+03  5.523178E+03  1.411168E+03
       401  10  1.553198E+05 -3.325676E+04 -2.704476E+04 -5.145357E+03  2.834529E-10  1.521708E-10
       401  11  1.568850E+05 -5.668838E+04 -4.062142E+04  3.038449E+03  2.144456E-10  4.852143E-10
       401  12  1.673164E+05 -5.104497E+04 -4.290502E+04 -7.489617E+03 -9.907145E-10 -1.285165E-10
       401  13  3.691615E+05  2.017771E+04  2.634772E+04 -6.820408E+03  1.102558E-10  1.234067E-10
       401  14  3.647112E+05 -4.775085E+03  1.117315E+04  2.535152E+03  5.352405E-12  3.798200E-10
       401  15  3.691600E+05 -6.225816E+02  7.430184E+03 -6.820783E+03 -2.785986E-11  3.844095E-10
       401  16  5.830445E+05  7.360874E+04  7.973676E+04 -8.496035E+03 -3.556779E-10  2.480972E-10
       401  17  5.725766E+05  4.713496E+04  6.296448E+04  2.031690E+03 -6.177748E-10  5.759689E-10
       401  18  5.710406E+05  4.979674E+04  5.776233E+04 -6.151722E+03  5.855544E-10  7.036966E-10
       401  19  1.553202E+05 -3.325668E+04 -2.704418E+04 -5.145348E+03 -1.769162E+04 -6.709413E+02
       401  20  1.568851E+05 -5.668833E+04 -4.062115E+04  3.038467E+03 -1.176431E+04 -1.880880E+03
       401  21  1.673164E+05 -5.104496E+04 -4.290496E+04 -7.489610E+03 -5.836543E+03 -1.410888E+03
       401  22  3.691618E+05  2.017780E+04  2.634832E+04 -6.820398E+03 -1.794187E+04 -6.708833E+02
       401  23  3.647114E+05 -4.775044E+03  1.117342E+04  2.535170E+03 -1.181108E+04 -1.880809E+03
       401  24  3.691601E+05 -6.225708E+02  7.430248E+03 -6.820777E+03 -5.679886E+03 -1.411028E+03
       401  25  5.830449E+05  7.360883E+04  7.973738E+04 -8.496025E+03 -1.819220E+04 -6.708238E+02
       401  26  5.725767E+05  4.713500E+04  6.296475E+04  2.031708E+03 -1.185786E+04 -1.880738E+03
       401  27  5.710406E+05  4.979675E+04  5.776239E+04 -6.151716E+03 -5.523178E+03 -1.411168E+03
       402   1  2.423568E+05 -2.819217E+04 -2.507901E+04 -5.798697E+03  4.431685E+03  9.939140E+02
       402   2  2.466238E+05 -3.074528E+04 -2.703381E+04  1.913819E+03  2.924485E+03  9.683782E+02
       402   3  2.524295E+05 -2.881766E+04 -2.684280E+04 -6.128673E+03  1.416781E+03  7.106816E+02
       402   4  3.675335E+05  3.076949E+03  6.126833E+03 -6.159665E+03  4.442929E+03  9.938854E+02
       402   5  3.667610E+05 -7.356860E+02  2.914531E+03  1.715729E+03  2.907589E+03  9.683925E+02
       402   6  3.675317E+05 -6.316797E+01  1.867258E+03 -6.163691E+03  1.371756E+03  7.107579E+02
       402   7  4.927245E+05  3.434488E+04  3.733150E+04 -6.520702E+03  4.454175E+03  9.938568E+02
       402   8  4.869113E+05  2.927282E+04  3.286179E+04  1.517607E+03  2.890690E+03  9.684068E+02
       402   9  4.826460E+05  2.869033E+04  3.057632E+04 -6.198710E+03  1.326723E+03  7.108341E+02
       402  10  2.423568E+05 -2.819217E+04 -2.507905E+04 -5.798701E+03  1.041974E-10 -1.597018E-10
       402  11  2.466238E+05 -3.074528E+04 -2.703383E+04  1.913817E+03 -6.793773E-11 -4.121501E-10
       402  12  2.524295E+05 -2.881767E+04 -2.684281E+04 -6.128674E+03 -9.747285E-10  1.027198E-09
       402  13  3.675335E+05  3.076943E+03  6.126794E+03 -6.159669E+03 -6.872593E-11  5.713213E-10
       402  14  3.667610E+05 -7.356893E+02  2.914513E+03  1.715727E+03 -7.713250E-10 -1.855425E-09
       402  15  3.675317E+05 -6.316902E+01  1.867253E+03 -6.163692E+03  2.289797E-11  7.647693E-10
       402  16  4.927244E+05  3.434488E+04  3.733146E+04 -6.520705E+03  8.638697E-10 -3.182425E-10
       402  17  4.869113E+05  2.927282E+04  3.286177E+04  1.517604E+03 -3.723155E-10 -7.280396E-10
       402  18  4.826460E+05  2.869033E+04  3.057632E+04 -6.198711E+03  4.172534E-10  2.983104E-10
       402  19  2.423568E+05 -2.819217E+04 -2.507901E+04 -5.798697E+03 -4.431685E+03 -9.939140E+02
       402  20  2.466238E+05 -3.074528E+04 -2.703381E+04  1.913819E+03 -2.924485E+03 -9.683782E+02
       402  21  2.524295E+05 -2.881766E+04 -2.684280E+04 -6.128673E+03 -1.416781E+03 -7.106816E+02
       402  22  3.675335E+05  3.076949E+03  6.126833E+03 -6.159665E+03 -4.442929E+03 -9.938854E+02
       402  23  3.667610E+05 -7.356860E+02  2.914531E+03  1.715729E+03 -2.907589E+03 -9.683925E+02
       402  24  3.675317E+05 -6.316797E+01  1.867258E+03 -6.163691E+03 -1.371756E+03 -7.107579E+02
       402  25  4.927245E+05  3.434488E+04  3.733150E+04 -6.520702E+03 -4.454175E+03 -9.938568E+02
       402  26  4.869113E+05  2.927282E+04  3.286179E+04  1.517607E+03 -2.890690E+03 -9.684068E+02
       402  27  4.826460E+05  2.869033E+04  3.057632E+04 -6.198710E+03 -1.326723E+03 -7.108341E+02
       403   1  3.189830E+05 -1.157509E+04 -1.051355E+04 -5.728831E+03  1.085925E+03  5.394468E+02
       403   2  3.234496E+05 -1.102945E+04 -1.005711E+04  1.381944E+03  6.626783E+02  3.431364E+02
       403   3  3.281167E+05 -9.752899E+03 -9.150179E+03 -5.789832E+03  2.393199E+02  1.205671E+02
       403   4  3.672373E+05  4.758034E+02  1.503208E+03 -5.834422E+03  1.063888E+03  5.394879E+02
       403   5  3.671364E+05 -1.170623E+02  8.335703E+02  1.306371E+03  6.374599E+02  3.431877E+02
       403   6  3.672366E+05  2.150746E+01  6.165993E+02 -5.835325E+03  2.109231E+02  1.206293E+02
       403   7  4.154937E+05  1.252652E+04  1.351979E+04 -5.940021E+03  1.041850E+03  5.395291E+02
       403   8  4.108250E+05  1.079518E+04  1.172410E+04  1.230793E+03  6.122399E+02  3.432389E+02
       403   9  4.063579E+05  9.795799E+03  1.038326E+04 -5.880819E+03  1.825245E+02  1.206916E+02
       403  10  3.189830E+05 -1.157509E+04 -1.051355E+04 -5.728832E+03  1.035000E-09  1.140102E-10
       403  11  3.234496E+05 -1.102945E+04 -1.005711E+04  1.381944E+03  3.278154E-10 -8.990872E-11
       403  12  3.281167E+05 -9.752899E+03 -9.150179E+03 -5.789832E+03 -1.354807E-09 -7.454735E-10
       403  13  3.672373E+05  4.758028E+02  1.503205E+03 -5.834423E+03 -1.466006E-10  3.365947E-10
       403  14  3.671364E+05 -1.170626E+02  8.335693E+02  1.306371E+03 -1.224320E-09  7.151746E-10
       403  15  3.672366E+05  2.150743E+01  6.165992E+02 -5.835325E+03 -3.799202E-11  1.826034E-09
       403  16  4.154937E+05  1.252652E+04  1.351979E+04 -5.940021E+03  7.659477E-10  1.294054E-10
       403  17  4.108250E+05  1.079518E+04  1.172410E+04  1.230793E+03 -8.962584E-10 -2.186893E-09
       403  18  4.063579E+05  9.795799E+03  1.038326E+04 -5.880819E+03  7.764063E-10 -1.618683E-10
       403  19  3.189830E+05 -1.157509E+04 -1.051355E+04 -5.728831E+03 -1.085925E+03 -5.394468E+02
       403  20  3.234496E+05 -1.102945E+04 -1.005711E+04  1.381944E+03 -6.626783E+02 -3.431364E+02
       403  21  3.281167E+05 -9.752899E+03 -9.150179E+03 -5.789832E+03 -2.393199E+02 -1.205671E+02
       403  22  3.672373E+05  4.758034E+02  1.503208E+03 -5.834422E+03 -1.063888E+03 -5.394879E+02
       403  23  3.671364E+05 -1.170623E+02  8.335703E+02  1.306371E+03 -6.374599E+02 -3.431877E+02
       403  24  3.672366E+05  2.150746E+01  6.165993E+02 -5.835325E+03 -2.109231E+02 -1.206293E+02
       403  25  4.154937E+05  1.252652E+04  1.351979E+04 -5.940021E+03 -1.041850E+03 -5.395291E+02
       403  26  4.108250E+05  1.079518E+04  1.172410E+04  1.230793E+03 -6.122399E+02 -3.432389E+02
       403  27  4.063579E+05  9.795799E+03  1.038326E+04 -5.880819E+03 -1.825245E+02 -1.206916E+02
       404   1  3.913545E+05  6.125936E+03  6.605275E+03 -5.837853E+03  1.272458E+02 -7.794326E+00
       404   2  3.958575E+05  7.123322E+03  7.713183E+03  1.224063E+03 -1.540476E+02 -2.202327E+02
       404   3  4.004021E+05  8.379836E+03  9.056668E+03 -5.862443E+03 -4.353401E+02 -4.505673E+02
       404   4  3.672016E+05  9.030412E+01  5.701697E+02 -5.805183E+03  1.027376E+02 -7.739917E+00
       404   5  3.671808E+05 -3.948843E+01  5.642531E+02  1.269044E+03 -1.806935E+02 -2.201763E+02
       404   6  3.672020E+05  9.024143E+01  7.954230E+02 -5.805193E+03 -4.641215E+02 -4.505090E+02
       404   7  3.430492E+05 -5.945372E+03 -5.464980E+03 -5.772513E+03  7.823031E+01 -7.685509E+00
       404   8  3.385048E+05 -7.202361E+03 -6.584738E+03  1.314023E+03 -2.073381E+02 -2.201198E+02
       404   9  3.340029E+05 -8.199436E+03 -7.465904E+03 -5.747946E+03 -4.929014E+02 -4.504508E+02
       404  10  3.913545E+05  6.125936E+03  6.605275E+03 -5.837853E+03  3.930532E-10  1.487896E-10
       404  11  3.958575E+05  7.123322E+03  7.713183E+03  1.224063E+03  2.885713E-11 -5.942661E-10
       404  12  4.004021E+05  8.379835E+03  9.056667E+03 -5.862443E+03 -8.185258E-10 -5.719778E-10
       404  13  3.672016E+05  9.030411E+01  5.701697E+02 -5.805183E+03 -5.677938E-11 -9.533472E-10
       404  14  3.671808E+05 -3.948849E+01  5.642530E+02  1.269044E+03 -1.827791E-09  1.301545E-10
       404  15  3.672020E+05  9.024116E+01  7.954222E+02 -5.805193E+03  6.470313E-11 -1.806513E-09
       404  16  3.430492E+05 -5.945372E+03 -5.464980E+03 -5.772513E+03  1.410433E-09  8.825118E-10
       404  17  3.385048E+05 -7.202361E+03 -6.584738E+03  1.314023E+03 -6.732846E-10 -8.604665E-10
       404  18  3.340029E+05 -8.199436E+03 -7.465905E+03 -5.747946E+03  2.194883E-10 -2.067171E-09
       404  19  3.913545E+05  6.125936E+03  6.605275E+03 -5.837853E+03 -1.272458E+02  7.794326E+00
       404  20  3.958575E+05  7.123322E+03  7.713183E+03  1.224063E+03  1.540476E+02  2.202327E+02
       404  21  4.004021E+05  8.379836E+03  9.056668E+03 -5.862443E+03  4.353401E+02  4.505673E+02
       404  22  3.672016E+05  9.030412E+01  5.701697E+02 -5.805183E+03 -1.027376E+02  7.739917E+00
       404  23  3.671808E+05 -3.948843E+01  5.642531E+02  1.269044E+03  1.806935E+02  2.201763E+02
       404  24  3.672020E+05  9.024143E+01  7.954230E+02 -5.805193E+03  4.641215E+02  4.505090E+02
       404  25  3.430492E+05 -5.945372E+03 -5.464980E+03 -5.772513E+03 -7.823031E+01  7.685509E+00
       404  26  3.385048E+05 -7.202361E+03 -6.584738E+03  1.314023E+03  2.073381E+02  2.201198E+02
       404  27  3.340029E+05 -8.199436E+03 -7.465904E+03 -5.747946E+03  4.929014E+02  4.504508E+02
       405   1  4.661180E+05  2.471289E+04  2.563523E+04 -6.193076E+03 -6.025605E+02 -5.793324E+02
       405   2  4.707950E+05  2.576749E+04  2.739961E+04  1.462308E+03 -1.380332E+03 -8.004778E+02
       405   3  4.759344E+05  2.768338E+04  2.991439E+04 -6.219974E+03 -2.158034E+03 -1.054928E+03
       405   4  3.672924E+05  2.681854E+01  9.856426E+02 -6.069803E+03 -6.272268E+02 -5.792893E+02
       405   5  3.670618E+05 -1.414212E+02  1.541142E+03  1.599490E+03 -1.408883E+03 -8.004372E+02
       405   6  3.672942E+05  5.523618E+02  2.849788E+03 -6.069043E+03 -2.190464E+03 -1.054892E+03
       405   7  2.684755E+05 -2.465999E+04 -2.366468E+04 -5.946545E+03 -6.518893E+02 -5.792462E+02
       405   8  2.633383E+05 -2.605114E+04 -2.431814E+04  1.736653E+03 -1.437429E+03 -8.003967E+02
       405   9  2.586647E+05 -2.657955E+04 -2.421570E+04 -5.918135E+03 -2.222888E+03 -1.054857E+03
       405  10  4.661180E+05  2.471289E+04  2.563523E+04 -6.193076E+03 -2.385653E-10  6.165991E-10
       405  11  4.707950E+05  2.576749E+04  2.739961E+04  1.462307E+03 -1.716302E-10  2.499286E-09
       405  12  4.759344E+05  2.768338E+04  2.991438E+04 -6.219976E+03  1.962079E-10 -1.550370E-09
       405  13  3.672924E+05  2.681807E+01  9.856412E+02 -6.069803E+03 -4.000945E-10 -1.917620E-10
       405  14  3.670618E+05 -1.414224E+02  1.541137E+03  1.599489E+03 -8.199360E-10 -3.707956E-10
       405  15  3.672942E+05  5.523593E+02  2.849777E+03 -6.069045E+03 -1.001479E-10  2.119356E-10
       405  16  2.684755E+05 -2.465999E+04 -2.366468E+04 -5.946545E+03  1.685899E-09 -2.662405E-10
       405  17  2.633383E+05 -2.605114E+04 -2.431815E+04  1.736652E+03 -9.892835E-11 -1.720737E-10
       405  18  2.586647E+05 -2.657955E+04 -2.421571E+04 -5.918137E+03 -4.574643E-10  4.273969E-10
       405  19  4.661180E+05  2.471289E+04  2.563523E+04 -6.193076E+03  6.025605E+02  5.793324E+02
       405  20  4.707950E+05  2.576749E+04  2.739961E+04  1.462308E+03  1.380332E+03  8.004778E+02
       405  21  4.759344E+05  2.768338E+04  2.991439E+04 -6.219974E+03  2.158034E+03  1.054928E+03
       405  22  3.672924E+05  2.681854E+01  9.856426E+02 -6.069803E+03  6.272268E+02  5.792893E+02
       405  23  3.670618E+05 -1.414212E+02  1.541142E+03  1.599490E+03  1.408883E+03  8.004372E+02
       405  24  3.672942E+05  5.523618E+02  2.849788E+03 -6.069043E+03  2.190464E+03  1.054892E+03
       405  25  2.684755E+05 -2.465999E+04 -2.366468E+04 -5.946545E+03  6.518893E+02  5.792462E+02
       405  26  2.633383E+05 -2.605114E+04 -2.431814E+04  1.736653E+03  1.437429E+03  8.003967E+02
       405  27  2.586647E+05 -2.657955E+04 -2.421570E+04 -5.918135E+03  2.222888E+03  1.054857E+03
       406   1  5.504900E+05  4.557476E+04  4.922724E+04 -6.669282E+03 -2.755235E+03 -1.210411E+03
       406   2  5.550258E+05  4.617998E+04  5.293048E+04  2.167140E+03 -5.814168E+03 -1.464800E+03
       406   3  5.619878E+05  5.224238E+04  6.012117E+04 -6.965072E+03 -8.872855E+03 -1.716674E+03
       406   4  3.677228E+05 -7.420293E+01  3.654038E+03 -6.654881E+03 -2.785813E+03 -1.210395E+03
       406   5  3.665115E+05 -9.013644E+02  5.941260E+03  2.330216E+03 -5.843628E+03 -1.464806E+03
       406   6  3.677267E+05  3.729278E+03  1.171586E+04 -6.653659E+03 -8.901170E+03 -1.716703E+03
       406   7  1.849860E+05 -4.572568E+04 -4.192167E+04 -6.640476E+03 -2.816382E+03 -1.210378E+03
       406   8  1.780295E+05 -4.798539E+04 -4.105063E+04  2.493249E+03 -5.873080E+03 -1.464812E+03
       406   9  1.734997E+05 -4.478666E+04 -3.669229E+04 -6.342341E+03 -8.929477E+03 -1.716732E+03
       406  10  5.504900E+05  4.557475E+04  4.922722E+04 -6.669285E+03  5.968273E-10 -2.339734E-09
       406  11  5.550258E+05  4.617997E+04  5.293041E+04  2.167133E+03  6.497613E-10 -4.149854E-10
       406  12  5.619877E+05  5.224236E+04  6.012102E+04 -6.965084E+03 -1.043352E-10  7.550702E-10
       406  13  3.677228E+05 -7.420658E+01  3.654021E+03 -6.654884E+03  6.251156E-11 -1.602785E-10
       406  14  3.665115E+05 -9.013759E+02  5.941192E+03  2.330209E+03 -3.437949E-10 -9.898959E-11
       406  15  3.677266E+05  3.729254E+03  1.171571E+04 -6.653671E+03 -1.605967E-10 -7.105963E-11
       406  16  1.849859E+05 -4.572568E+04 -4.192169E+04 -6.640478E+03  4.365690E-10 -3.084181E-10
       406  17  1.780295E+05 -4.798540E+04 -4.105070E+04  2.493242E+03 -1.013198E-09  1.123394E-09
       406  18  1.734996E+05 -4.478669E+04 -3.669244E+04 -6.342353E+03 -4.159600E-12  3.506572E-10
       406  19  5.504900E+05  4.557476E+04  4.922724E+04 -6.669282E+03  2.755235E+03  1.210411E+03
       406  20  5.550258E+05  4.617998E+04  5.293048E+04  2.167140E+03  5.814168E+03  1.464800E+03
       406  21  5.619878E+05  5.224238E+04  6.012117E+04 -6.965072E+03  8.872855E+03  1.716674E+03
       406  22  3.677228E+05 -7.420292E+01  3.654038E+03 -6.654881E+03  2.785813E+03  1.210395E+03
       406  23  3.665115E+05 -9.013644E+02  5.941260E+03  2.330216E+03  5.843628E+03  1.464806E+03
       406  24  3.677267E+05  3.729278E+03  1.171586E+04 -6.653659E+03  8.901170E+03  1.716703E+03
       406  25  1.849860E+05 -4.572568E+04 -4.192167E+04 -6.640476E+03  2.816382E+03  1.210378E+03
       406  26  1.780295E+05 -4.798539E+04 -4.105063E+04  2.493249E+03  5.873080E+03  1.464812E+03
       406  27  1.734997E+05 -4.478666E+04 -3.669229E+04 -6.342341E+03  8.929477E+03  1.716732E+03
       407   1  6.537223E+05  7.013389E+04  8.544398E+04 -6.575023E+03 -1.124314E+04 -1.975725E+03
       407   2  6.547288E+05  6.678006E+04  9.585305E+04  3.243180E+03 -2.358804E+04 -2.352130E+03
       407   3  6.679925E+05  9.920998E+04  1.235815E+05 -9.278339E+03 -3.593301E+04 -2.321358E+03
       407   4  3.698960E+05 -7.507772E+02  1.468331E+04 -7.615337E+03 -1.130909E+04 -1.975766E+03
       407   5  3.637724E+05 -5.879951E+03  2.333915E+04  3.536174E+03 -2.360004E+04 -2.352226E+03
       407   6  3.699012E+05  2.477402E+04  4.928252E+04 -7.652691E+03 -3.589092E+04 -2.321476E+03
       407   7  8.614268E+04 -7.164151E+04 -5.608342E+04 -8.655175E+03 -1.137502E+04 -1.975807E+03
       407   8  7.289265E+04 -7.854633E+04 -4.918112E+04  3.829016E+03 -2.361203E+04 -2.352322E+03
       407   9  7.189037E+04 -4.966861E+04 -2.502311E+04 -6.027853E+03 -3.584884E+04 -2.321594E+03
       407  10  6.537222E+05  7.013385E+04  8.544374E+04 -6.575041E+03 -8.818419E-10 -2.897207E-10
       407  11  6.547282E+05  6.677990E+04  9.585199E+04  3.243135E+03  5.147962E-10  2.275476E-10
       407  12  6.679912E+05  9.920963E+04  1.235790E+05 -9.278406E+03  1.392300E-09 -5.530542E-10
       407  13  3.698959E+05 -7.508157E+02  1.468306E+04 -7.615355E+03  4.301118E-12  3.490308E-10
       407  14  3.637718E+05 -5.880106E+03  2.333809E+04  3.536129E+03  3.015271E-10 -7.907895E-10
       407  15  3.698998E+05  2.477367E+04  4.928009E+04 -7.652758E+03  2.844285E-10  1.604864E-09
       407  16  8.614254E+04 -7.164154E+04 -5.608367E+04 -8.655193E+03  5.798052E-10  1.955007E-10
       407  17  7.289205E+04 -7.854648E+04 -4.918217E+04  3.828971E+03  1.733480E-10 -6.034486E-11
       407  18  7.188899E+04 -4.966896E+04 -2.502553E+04 -6.027920E+03 -6.579347E-10  3.256157E-10
       407  19  6.537223E+05  7.013389E+04  8.544398E+04 -6.575023E+03  1.124314E+04  1.975725E+03
       407  20  6.547288E+05  6.678006E+04  9.585305E+04  3.243180E+03  2.358804E+04  2.352130E+03
       407  21  6.679925E+05  9.920998E+04  1.235815E+05 -9.278339E+03  3.593301E+04  2.321358E+03
       407  22  3.698960E+05 -7.507772E+02  1.468331E+04 -7.615337E+03  1.130909E+04  1.975766E+03
       407  23  3.637724E+05 -5.879951E+03  2.333915E+04  3.536174E+03  2.360004E+04  2.352226E+03
       407  24  3.699012E+05  2.477402E+04  4.928252E+04 -7.652691E+03  3.589092E+04  2.321476E+03
       407  25  8.614268E+04 -7.164151E+04 -5.608342E+04 -8.655175E+03  1.137502E+04  1.975807E+03
       407  26  7.289265E+04 -7.854633E+04 -4.918112E+04  3.829016E+03  2.361203E+04  2.352322E+03
       407  27  7.189037E+04 -4.966861E+04 -2.502311E+04 -6.027853E+03  3.584884E+04  2.321594E+03
       408   1  7.936616E+05  9.744952E+04  1.621569E+05 -1.725699E+03 -4.552647E+04 -3.098814E+03
       408   2  7.687043E+05  6.669886E+04  1.950334E+05  2.966455E+03 -9.536669E+04 -4.084835E+03
       408   3  8.123244E+05  2.696033E+05  3.194877E+05 -2.190342E+04 -1.452192E+05 -1.925616E+03
       408   4  3.823903E+05 -5.288078E+03  5.963829E+04 -9.020844E+03 -4.580044E+04 -3.099006E+03
       408   5  3.481164E+05 -3.830057E+04  9.025802E+04  5.419527E+03 -9.523363E+04 -4.085111E+03
       408   6  3.823905E+05  1.623541E+05  2.122169E+05 -9.702744E+03 -1.446783E+05 -1.926595E+03
       408   7 -2.872779E+04 -1.080382E+05 -4.289298E+04 -1.631124E+04 -4.607421E+04 -3.099192E+03
       408   8 -7.231131E+04 -1.433133E+05 -1.453059E+04  7.870814E+03 -9.510064E+04 -4.085385E+03
       408   9 -4.737577E+04  5.509150E+04  1.049324E+05  2.489319E+03 -1.441378E+05 -1.927553E+03
       408  10  7.936594E+05  9.744895E+04  1.621530E+05 -1.725813E+03 -5.706909E-10  4.348039E-10
       408  11  7.686946E+05  6.669640E+04  1.950163E+05  2.966142E+03  6.770972E-10  8.510749E-12
       408  12  8.123018E+05  2.695977E+05  3.194481E+05 -2.190364E+04  2.577023E-10 -6.434332E-10
       408  13  3.823880E+05 -5.288651E+03  5.963433E+04 -9.020959E+03  1.178917E-10  3.645052E-09
       408  14  3.481066E+05 -3.830302E+04  9.024096E+04  5.419214E+03  1.718433E-09  5.599647E-09
       408  15  3.823680E+05  1.623484E+05  2.121776E+05 -9.702969E+03 -2.760417E-10 -5.955945E-10
       408  16 -2.873007E+04 -1.080388E+05 -4.289699E+04 -1.631135E+04 -1.304510E-09  8.969001E-10
       408  17 -7.232102E+04 -1.433157E+05 -1.454762E+04  7.870501E+03  4.975414E-10  5.219070E-10
       408  18 -4.739808E+04  5.508592E+04  1.048933E+05  2.489095E+03  7.111666E-10 -1.849226E-09
       408  19  7.936616E+05  9.744952E+04  1.621569E+05 -1.725699E+03  4.552647E+04  3.098814E+03
       408  20  7.687043E+05  6.669886E+04  1.950334E+05  2.966455E+03  9.536669E+04  4.084835E+03
       408  21  8.123244E+05  2.696033E+05  3.194877E+05 -2.190342E+04  1.452192E+05  1.925616E+03
       408  22  3.823903E+05 -5.288078E+03  5.963829E+04 -9.020844E+03  4.580044E+04  3.099006E+03
       408  23  3.481164E+05 -3.830057E+04  9.025802E+04  5.419527E+03  9.523363E+04  4.085111E+03
       408  24  3.823905E+05  1.623541E+05  2.122169E+05 -9.702744E+03  1.446783E+05  1.926595E+03
       408  25 -2.872779E+04 -1.080382E+05 -4.289298E+04 -1.631124E+04  4.607421E+04  3.099192E+03
       408  26 -7.231131E+04 -1.433133E+05 -1.453059E+04  7.870814E+03  9.510064E+04  4.085385E+03
       408  27 -4.737577E+04  5.509150E+04  1.049324E+05  2.489319E+03  1.441378E+05  1.927553E+03
       409   1 -1.514635E+06 -1.294874E+05 -1.736719E+05 -2.697429E+03 -1.282394E+05 -8.401314E+02
       409   2 -1.499896E+06  4.481559E+04 -6.931213E+04 -1.666548E+04 -8.446298E+04 -8.939661E+02
       409   3 -1.543081E+06  1.230720E+04 -4.529358E+04  1.446931E+04 -4.069296E+04  6.630506E+01
       409   4 -1.572857E+06 -1.439295E+05 -1.882060E+05  9.106188E+03 -1.283227E+05 -8.429968E+02
       409   5 -1.543825E+06  3.385715E+04 -8.026713E+04 -1.378255E+04 -8.442882E+04 -8.942239E+02
       409   6 -1.572744E+06  4.803335E+03 -5.275681E+04  8.431627E+03 -4.054032E+04  6.742336E+01
       409   7 -1.631075E+06 -1.583714E+05 -2.027404E+05  2.090869E+04 -1.284060E+05 -8.458655E+02
       409   8 -1.587752E+06  2.289859E+04 -9.122227E+04 -1.089983E+04 -8.439467E+04 -8.944813E+02
       409   9 -1.602406E+06 -2.700466E+03 -6.022009E+04  2.394233E+03 -4.038768E+04  6.853872E+01
       409  10 -1.514653E+06 -1.294918E+05 -1.737029E+05 -2.697516E+03 -2.882267E-09  1.418771E-09
       409  11 -1.499904E+06  4.481367E+04 -6.932557E+04 -1.666555E+04  1.375018E-09 -3.042353E-09
       409  12 -1.543083E+06  1.230676E+04 -4.529670E+04  1.446931E+04  2.982158E-09 -8.082974E-10
       409  13 -1.572875E+06 -1.439340E+05 -1.882370E+05  9.106101E+03  1.665537E-10  3.510325E-10
       409  14 -1.543833E+06  3.385523E+04 -8.028056E+04 -1.378261E+04  3.064350E-09 -6.960467E-09
       409  15 -1.572746E+06  4.802893E+03 -5.275991E+04  8.431629E+03 -2.559402E-10 -7.911517E-10
       409  16 -1.631093E+06 -1.583759E+05 -2.027714E+05  2.090861E+04 -6.625297E-10 -1.128537E-09
       409  17 -1.587760E+06  2.289667E+04 -9.123569E+04 -1.089989E+04  1.288811E-09 -1.913569E-09
       409  18 -1.602407E+06 -2.700906E+03 -6.022316E+04  2.394235E+03 -1.422505E-09 -2.929325E-09
       409  19 -1.514635E+06 -1.294874E+05 -1.736719E+05 -2.697429E+03  1.282394E+05  8.401314E+02
       409  20 -1.499896E+06  4.481559E+04 -6.931213E+04 -1.666548E+04  8.446298E+04  8.939661E+02
       409  21 -1.543081E+06  1.230720E+04 -4.529358E+04  1.446931E+04  4.069296E+04 -6.630506E+01
       409  22 -1.572857E+06 -1.439295E+05 -1.882060E+05  9.106188E+03  1.283227E+05  8.429968E+02
       409  23 -1.543825E+06  3.385715E+04 -8.026713E+04 -1.378255E+04  8.442882E+04  8.942239E+02
       409  24 -1.572744E+06  4.803335E+03 -5.275681E+04  8.431627E+03  4.054032E+04 -6.742336E+01
       409  25 -1.631075E+06 -1.583714E+05 -2.027404E+05  2.090869E+04  1.284060E+05  8.458655E+02
       409  26 -1.587752E+06  2.289859E+04 -9.122227E+04 -1.089983E+04  8.439467E+04  8.944813E+02
       409  27 -1.602406E+06 -2.700466E+03 -6.022009E+04  2.394233E+03  4.038768E+04 -6.853872E+01
       410   1 -1.727299E+06 -6.337712E+04 -8.498629E+04  5.120727E+03 -3.189087E+04  7.092942E+02
       410   2 -1.735285E+06 -3.940295E+04 -6.524916E+04 -1.325658E+04 -2.096735E+04  1.322700E+03
       410   3 -1.752379E+06 -4.697643E+04 -6.048377E+04  7.763991E+03 -1.004304E+04  1.790597E+03
       410   4 -1.561930E+06 -2.194790E+04 -4.362952E+04  7.466368E+03 -3.182083E+04  7.095156E+02
       410   5 -1.557363E+06  5.144435E+03 -2.079529E+04 -1.228446E+04 -2.091225E+04  1.322892E+03
       410   6 -1.561899E+06  6.965486E+02 -1.291975E+04  7.361912E+03 -1.000265E+04  1.790729E+03
       410   7 -1.396535E+06  1.947926E+04 -2.274827E+03  9.812605E+03 -3.175078E+04  7.097376E+02
       410   8 -1.379412E+06  4.968943E+04  2.365619E+04 -1.131210E+04 -2.085713E+04  1.323084E+03
       410   9 -1.371387E+06  4.836678E+04  3.464153E+04  6.959679E+03 -9.962243E+03  1.790861E+03
       410  10 -1.727301E+06 -6.337740E+04 -8.498820E+04  5.120746E+03 -7.357078E-10 -3.068950E-09
       410  11 -1.735286E+06 -3.940307E+04 -6.524999E+04 -1.325656E+04 -4.212875E-10  3.232379E-09
       410  12 -1.752379E+06 -4.697646E+04 -6.048397E+04  7.764005E+03  2.511458E-09 -2.671374E-09
       410  13 -1.561931E+06 -2.194818E+04 -4.363143E+04  7.466386E+03 -2.284011E-10 -1.370626E-09
       410  14 -1.557363E+06  5.144316E+03 -2.079612E+04 -1.228444E+04  2.506416E-09 -5.409463E-10
       410  15 -1.561900E+06  6.965182E+02 -1.291995E+04  7.361927E+03  5.819723E-10 -4.015532E-09
       410  16 -1.396536E+06  1.947899E+04 -2.276727E+03  9.812623E+03 -3.189632E-09  1.228370E-09
       410  17 -1.379413E+06  4.968931E+04  2.365537E+04 -1.131208E+04  2.040800E-09 -5.615142E-09
       410  18 -1.371387E+06  4.836675E+04  3.464133E+04  6.959694E+03 -8.711242E-10 -1.194258E-09
       410  19 -1.727299E+06 -6.337712E+04 -8.498629E+04  5.120727E+03  3.189087E+04 -7.092942E+02
       410  20 -1.735285E+06 -3.940295E+04 -6.524916E+04 -1.325658E+04  2.096735E+04 -1.322700E+03
       410  21 -1.752379E+06 -4.697643E+04 -6.048377E+04  7.763991E+03  1.004304E+04 -1.790597E+03
       410  22 -1.561930E+06 -2.194790E+04 -4.362952E+04  7.466368E+03  3.182083E+04 -7.095156E+02
       410  23 -1.557363E+06  5.144435E+03 -2.079529E+04 -1.228446E+04  2.091225E+04 -1.322892E+03
       410  24 -1.561899E+06  6.965486E+02 -1.291975E+04  7.361912E+03  1.000265E+04 -1.790729E+03
       410  25 -1.396535E+06  1.947926E+04 -2.274827E+03  9.812605E+03  3.175078E+04 -7.097376E+02
       410  26 -1.379412E+06  4.968943E+04  2.365619E+04 -1.131210E+04  2.085713E+04 -1.323084E+03
       410  27 -1.371387E+06  4.836678E+04  3.464153E+04  6.959679E+03  9.962243E+03 -1.790861E+03
       411   1 -1.887229E+06 -8.524913E+04 -9.209094E+04  1.896406E+03 -8.014652E+03  2.143697E+03
       411   2 -1.893741E+06 -8.281437E+04 -8.876595E+04 -7.465402E+03 -5.232010E+03  2.673526E+03
       411   3 -1.899706E+06 -8.501853E+04 -8.800089E+04  2.718103E+03 -2.447532E+03  2.687555E+03
       411   4 -1.559781E+06 -3.257157E+03 -1.023901E+04  2.992157E+03 -7.924370E+03  2.143926E+03
       411   5 -1.560055E+06  7.288665E+02 -5.392263E+03 -6.785686E+03 -5.202222E+03  2.673510E+03
       411   6 -1.559770E+06  8.842954E+01 -3.062212E+03  2.981120E+03 -2.478212E+03  2.687411E+03
       411   7 -1.232236E+06  7.872670E+04  7.160481E+04  4.088405E+03 -7.834039E+03  2.144156E+03
       411   8 -1.226268E+06  8.426368E+04  7.797301E+04 -6.105668E+03 -5.172417E+03  2.673494E+03
       411   9 -1.219728E+06  8.518664E+04  8.186773E+04  3.244236E+03 -2.508909E+03  2.687267E+03
       411  10 -1.887229E+06 -8.524915E+04 -9.209107E+04  1.896420E+03 -1.101717E-10  1.761010E-09
       411  11 -1.893741E+06 -8.281438E+04 -8.876601E+04 -7.465391E+03 -2.088337E-10  1.640551E-09
       411  12 -1.899706E+06 -8.501854E+04 -8.800091E+04  2.718109E+03  4.057071E-10 -2.003053E-09
       411  13 -1.559781E+06 -3.257178E+03 -1.023914E+04  2.992171E+03  4.254115E-10 -1.243033E-09
       411  14 -1.560055E+06  7.288515E+02 -5.392327E+03 -6.785675E+03  1.293338E-09  7.510070E-10
       411  15 -1.559770E+06  8.842013E+01 -3.062237E+03  2.981125E+03 -1.854453E-10  4.834139E-10
       411  16 -1.232236E+06  7.872668E+04  7.160468E+04  4.088418E+03 -2.814162E-09 -2.403040E-09
       411  17 -1.226268E+06  8.426366E+04  7.797295E+04 -6.105657E+03  9.538457E-10 -1.516865E-09
       411  18 -1.219728E+06  8.518663E+04  8.186771E+04  3.244241E+03  7.335768E-10 -2.355724E-09
       411  19 -1.887229E+06 -8.524913E+04 -9.209094E+04  1.896406E+03  8.014652E+03 -2.143697E+03
       411  20 -1.893741E+06 -8.281437E+04 -8.876595E+04 -7.465402E+03  5.232010E+03 -2.673526E+03
       411  21 -1.899706E+06 -8.501853E+04 -8.800089E+04  2.718103E+03  2.447532E+03 -2.687555E+03
       411  22 -1.559781E+06 -3.257157E+03 -1.023901E+04  2.992157E+03  7.924370E+03 -2.143926E+03
       411  23 -1.560055E+06  7.288665E+02 -5.392263E+03 -6.785686E+03  5.202222E+03 -2.673510E+03
       411  24 -1.559770E+06  8.842954E+01 -3.062212E+03  2.981120E+03  2.478212E+03 -2.687411E+03
       411  25 -1.232236E+06  7.872670E+04  7.160481E+04  4.088405E+03  7.834039E+03 -2.144156E+03
       411  26 -1.226268E+06  8.426368E+04  7.797301E+04 -6.105668E+03  5.172417E+03 -2.673494E+03
       411  27 -1.219728E+06  8.518664E+04  8.186773E+04  3.244236E+03  2.508909E+03 -2.687267E+03
       412   1 -1.927385E+06 -9.264428E+04 -9.430518E+04 -3.392081E+03 -2.075383E+03  2.758255E+03
       412   2 -1.926207E+06 -9.148122E+04 -9.276800E+04  6.440218E+02 -1.340709E+03  2.947019E+03
       412   3 -1.922621E+06 -9.085941E+04 -9.131474E+04 -2.785064E+03 -6.061190E+02  2.553135E+03
       412   4 -1.559363E+06 -5.014702E+02 -2.335344E+03 -3.017216E+03 -2.018830E+03  2.758218E+03
       412   5 -1.560575E+06  5.935372E+01 -1.411593E+03  7.150179E+02 -1.353557E+03  2.946906E+03
       412   6 -1.559366E+06  9.188327E+01 -5.231582E+02 -3.017662E+03 -6.883713E+02  2.553098E+03
       412   7 -1.191218E+06  9.163109E+04  8.962426E+04 -2.642164E+03 -1.962243E+03  2.758180E+03
       412   8 -1.194822E+06  9.158982E+04  8.993471E+04  7.860487E+02 -1.366413E+03  2.946794E+03
       412   9 -1.195991E+06  9.103319E+04  9.025845E+04 -3.250376E+03 -7.706717E+02  2.553060E+03
       412  10 -1.927385E+06 -9.264429E+04 -9.430520E+04 -3.392076E+03  7.249815E-10 -9.449673E-10
       412  11 -1.926207E+06 -9.148123E+04 -9.276802E+04  6.440250E+02  1.344225E-09 -2.864156E-10
       412  12 -1.922621E+06 -9.085942E+04 -9.131475E+04 -2.785063E+03 -2.511536E-10 -7.179512E-10
       412  13 -1.559363E+06 -5.014794E+02 -2.335366E+03 -3.017212E+03  4.138456E-10 -1.433750E-09
       412  14 -1.560575E+06  5.934391E+01 -1.411613E+03  7.150211E+02 -4.210360E-10  2.152342E-09
       412  15 -1.559366E+06  9.187615E+01 -5.231713E+02 -3.017661E+03 -2.044629E-10  9.804740E-13
       412  16 -1.191218E+06  9.163108E+04  8.962423E+04 -2.642160E+03 -1.920241E-09  3.456305E-10
       412  17 -1.194822E+06  9.158981E+04  8.993469E+04  7.860519E+02 -5.973822E-10 -1.022080E-09
       412  18 -1.195991E+06  9.103318E+04  9.025843E+04 -3.250374E+03  1.973541E-10 -1.028558E-09
       412  19 -1.927385E+06 -9.264428E+04 -9.430518E+04 -3.392081E+03  2.075383E+03 -2.758255E+03
       412  20 -1.926207E+06 -9.148122E+04 -9.276800E+04  6.440218E+02  1.340709E+03 -2.947019E+03
       412  21 -1.922621E+06 -9.085941E+04 -9.131474E+04 -2.785064E+03  6.061190E+02 -2.553135E+03
       412  22 -1.559363E+06 -5.014702E+02 -2.335344E+03 -3.017216E+03  2.018830E+03 -2.758218E+03
       412  23 -1.560575E+06  5.935372E+01 -1.411593E+03  7.150179E+02  1.353557E+03 -2.946906E+03
       412  24 -1.559366E+06  9.188327E+01 -5.231582E+02 -3.017662E+03  6.883713E+02 -2.553098E+03
       412  25 -1.191218E+06  9.163109E+04  8.962426E+04 -2.642164E+03  1.962243E+03 -2.758180E+03
       412  26 -1.194822E+06  9.158982E+04  8.993471E+04  7.860487E+02  1.366413E+03 -2.946794E+03
       412  27 -1.195991E+06  9.103319E+04  9.025845E+04 -3.250376E+03  7.706717E+02 -2.553060E+03
       413   1 -1.831651E+06 -6.823550E+04 -6.834920E+04 -8.179066E+03 -6.267878E+02  2.339881E+03
       413   2 -1.822152E+06 -6.561528E+04 -6.555294E+04  7.795977E+03 -5.437228E+02  2.111207E+03
       413   3 -1.811412E+06 -6.282381E+04 -6.252512E+04 -7.920028E+03 -4.620778E+02  1.472021E+03
       413   4 -1.559606E+06 -1.317101E+02 -3.918433E+02 -8.401258E+03 -6.297672E+02  2.339820E+03
       413   5 -1.560236E+06 -4.470227E+01 -1.148843E+02  7.444192E+03 -5.958359E+02  2.111246E+03
       413   6 -1.559616E+06  2.223810E+02  4.279113E+02 -8.400567E+03 -5.633251E+02  1.472235E+03
       413   7 -1.287495E+06  6.796648E+04  6.755993E+04 -8.623527E+03 -6.327479E+02  2.339759E+03
       413   8 -1.298258E+06  6.552068E+04  6.531799E+04  7.092286E+03 -6.479709E+02  2.111284E+03
       413   9 -1.307762E+06  6.326377E+04  6.337615E+04 -8.881266E+03 -6.646135E+02  1.472450E+03
       413  10 -1.831651E+06 -6.823551E+04 -6.834921E+04 -8.179065E+03  1.344064E-10 -1.060833E-09
       413  11 -1.822152E+06 -6.561528E+04 -6.555295E+04  7.795978E+03 -2.116388E-10 -1.094572E-10
       413  12 -1.811412E+06 -6.282381E+04 -6.252512E+04 -7.920028E+03 -2.640364E-09  1.982507E-10
       413  13 -1.559606E+06 -1.317161E+02 -3.918543E+02 -8.401257E+03  7.641382E-10  1.862278E-09
       413  14 -1.560236E+06 -4.470715E+01 -1.148933E+02  7.444193E+03 -4.056867E-10  2.464995E-09
       413  15 -1.559616E+06  2.223786E+02  4.279066E+02 -8.400567E+03 -6.634402E-10 -3.026569E-09
       413  16 -1.287495E+06  6.796648E+04  6.755992E+04 -8.623526E+03  9.655618E-10 -3.967501E-10
       413  17 -1.298258E+06  6.552068E+04  6.531798E+04  7.092287E+03  1.537722E-11  1.105677E-09
       413  18 -1.307762E+06  6.326377E+04  6.337614E+04 -8.881265E+03  1.672010E-09  1.341297E-09
       413  19 -1.831651E+06 -6.823550E+04 -6.834920E+04 -8.179066E+03  6.267878E+02 -2.339881E+03
       413  20 -1.822152E+06 -6.561528E+04 -6.555294E+04  7.795977E+03  5.437228E+02 -2.111207E+03
       413  21 -1.811412E+06 -6.282381E+04 -6.252512E+04 -7.920028E+03  4.620778E+02 -1.472021E+03
       413  22 -1.559606E+06 -1.317101E+02 -3.918433E+02 -8.401258E+03  6.297672E+02 -2.339820E+03
       413  23 -1.560236E+06 -4.470227E+01 -1.148843E+02  7.444192E+03  5.958359E+02 -2.111246E+03
       413  24 -1.559616E+06  2.223810E+02  4.279113E+02 -8.400567E+03  5.633251E+02 -1.472235E+03
       413  25 -1.287495E+06  6.796648E+04  6.755993E+04 -8.623527E+03  6.327479E+02 -2.339759E+03
       413  26 -1.298258E+06  6.552068E+04  6.531799E+04  7.092286E+03  6.479709E+02 -2.111284E+03
       413  27 -1.307762E+06  6.326377E+04  6.337615E+04 -8.881266E+03  6.646135E+02 -1.472450E+03
       414   1 -1.634940E+06 -1.882506E+04 -1.818577E+04 -1.099411E+04 -5.950074E+02  1.051757E+03
       414   2 -1.620900E+06 -1.546184E+04 -1.415368E+04  1.102558E+04 -1.145452E+03  4.858684E+02
       414   3 -1.606743E+06 -1.094921E+04 -9.524923E+03 -1.110865E+04 -1.696247E+03 -1.201244E+02
       414   4 -1.559848E+06 -3.444319E+01  5.386601E+02 -1.117153E+04 -6.606055E+02  1.051928E+03
       414   5 -1.559908E+06 -1.940560E+02  1.083631E+03  1.090654E+04 -1.215900E+03  4.860677E+02
       414   6 -1.559851E+06  7.965146E+02  2.228581E+03 -1.116904E+04 -1.771532E+03 -1.198947E+02
       414   7 -1.484751E+06  1.875575E+04  1.926267E+04 -1.134897E+04 -7.262115E+02  1.052100E+03
       414   8 -1.498912E+06  1.507345E+04  1.632066E+04  1.078748E+04 -1.286354E+03  4.862670E+02
       414   9 -1.512957E+06  1.254207E+04  1.398192E+04 -1.122943E+04 -1.846822E+03 -1.196651E+02
       414  10 -1.634940E+06 -1.882506E+04 -1.818577E+04 -1.099411E+04  7.296456E-10  1.842670E-09
       414  11 -1.620900E+06 -1.546185E+04 -1.415369E+04  1.102558E+04 -1.559478E-10 -2.409785E-09
       414  12 -1.606743E+06 -1.094921E+04 -9.524929E+03 -1.110865E+04 -2.560107E-09  1.165982E-09
       414  13 -1.559848E+06 -3.444450E+01  5.386572E+02 -1.117153E+04 -6.338301E-10 -2.663701E-09
       414  14 -1.559908E+06 -1.940566E+02  1.083628E+03  1.090654E+04 -2.340902E-09 -5.534361E-09
       414  15 -1.559851E+06  7.965137E+02  2.228575E+03 -1.116904E+04  4.332646E-10  1.866608E-09
       414  16 -1.484751E+06  1.875575E+04  1.926266E+04 -1.134897E+04  2.115288E-09  2.040448E-09
       414  17 -1.498913E+06  1.507345E+04  1.632066E+04  1.078748E+04 -1.766426E-09 -5.204445E-09
       414  18 -1.512957E+06  1.254207E+04  1.398191E+04 -1.122943E+04  1.569918E-09 -1.230116E-09
       414  19 -1.634940E+06 -1.882506E+04 -1.818577E+04 -1.099411E+04  5.950074E+02 -1.051757E+03
       414  20 -1.620900E+06 -1.546184E+04 -1.415368E+04  1.102558E+04  1.145452E+03 -4.858684E+02
       414  21 -1.606743E+06 -1.094921E+04 -9.524923E+03 -1.110865E+04  1.696247E+03  1.201244E+02
       414  22 -1.559848E+06 -3.444319E+01  5.386601E+02 -1.117153E+04  6.606055E+02 -1.051928E+03
       414  23 -1.559908E+06 -1.940560E+02  1.083631E+03  1.090654E+04  1.215900E+03 -4.860677E+02
       414  24 -1.559851E+06  7.965146E+02  2.228581E+03 -1.116904E+04  1.771532E+03  1.198947E+02
       414  25 -1.484751E+06  1.875575E+04  1.926267E+04 -1.134897E+04  7.262115E+02 -1.052100E+03
       414  26 -1.498912E+06  1.507345E+04  1.632066E+04  1.078748E+04  1.286354E+03 -4.862670E+02
       414  27 -1.512957E+06  1.254207E+04  1.398192E+04 -1.122943E+04  1.846822E+03  1.196651E+02
       415   1 -1.409606E+06  3.742091E+04  4.028513E+04 -1.043896E+04 -2.111115E+03 -6.317034E+02
       415   2 -1.397933E+06  3.951868E+04  4.513255E+04  9.418046E+03 -4.570168E+03 -1.355703E+03
       415   3 -1.383887E+06  4.876284E+04  5.342233E+04 -1.095022E+04 -7.027291E+03 -1.464079E+03
       415   4 -1.559360E+06 -6.885771E+01  2.835109E+03 -1.030165E+04 -2.235198E+03 -6.313443E+02
       415   5 -1.560534E+06 -1.178147E+03  4.522511E+03  9.816617E+03 -4.619945E+03 -1.355600E+03
       415   6 -1.559347E+06  4.846982E+03  9.601226E+03 -1.029105E+04 -7.002712E+03 -1.464163E+03
       415   7 -1.709094E+06 -3.756032E+04 -3.461661E+04 -1.016436E+04 -2.359251E+03 -6.309852E+02
       415   8 -1.723111E+06 -4.187697E+04 -3.608952E+04  1.021510E+04 -4.669710E+03 -1.355497E+03
       415   9 -1.734779E+06 -3.907120E+04 -3.422220E+04 -9.632043E+03 -6.978139E+03 -1.464246E+03
       415  10 -1.409606E+06  3.742091E+04  4.028512E+04 -1.043897E+04 -1.499622E-09 -1.536121E-09
       415  11 -1.397933E+06  3.951867E+04  4.513251E+04  9.418041E+03  4.747736E-11  7.484378E-10
       415  12 -1.383887E+06  4.876282E+04  5.342223E+04 -1.095023E+04  5.451039E-11  4.309635E-10
       415  13 -1.559360E+06 -6.885949E+01  2.835099E+03 -1.030165E+04  7.277651E-11  2.163776E-09
       415  14 -1.560534E+06 -1.178154E+03  4.522468E+03  9.816612E+03 -1.601891E-09  9.319038E-10
       415  15 -1.559347E+06  4.846966E+03  9.601129E+03 -1.029106E+04  3.967147E-10  7.537480E-10
       415  16 -1.709094E+06 -3.756033E+04 -3.461662E+04 -1.016436E+04  3.236600E-09  3.137765E-09
       415  17 -1.723111E+06 -4.187698E+04 -3.608957E+04  1.021509E+04 -7.259943E-10  3.635876E-09
       415  18 -1.734779E+06 -3.907122E+04 -3.422230E+04 -9.632051E+03 -8.935170E-10 -1.480544E-09
       415  19 -1.409606E+06  3.742091E+04  4.028513E+04 -1.043896E+04  2.111115E+03  6.317034E+02
       415  20 -1.397933E+06  3.951868E+04  4.513255E+04  9.418046E+03  4.570168E+03  1.355703E+03
       415  21 -1.383887E+06  4.876284E+04  5.342233E+04 -1.095022E+04  7.027291E+03  1.464079E+03
       415  22 -1.559360E+06 -6.885771E+01  2.835109E+03 -1.030165E+04  2.235198E+03  6.313443E+02
       415  23 -1.560534E+06 -1.178147E+03  4.522511E+03  9.816617E+03  4.619945E+03  1.355600E+03
       415  24 -1.559347E+06  4.846982E+03  9.601226E+03 -1.029105E+04  7.002712E+03  1.464163E+03
       415  25 -1.709094E+06 -3.756032E+04 -3.461661E+04 -1.016436E+04  2.359251E+03  6.309852E+02
       415  26 -1.723111E+06 -4.187697E+04 -3.608952E+04  1.021510E+04  4.669710E+03  1.355497E+03
       415  27 -1.734779E+06 -3.907120E+04 -3.422220E+04 -9.632043E+03  6.978139E+03  1.464246E+03
       416   1 -1.237574E+06  7.889539E+04  9.141658E+04 -5.253474E+03 -8.688330E+03 -2.134893E+03
       416   2 -1.238136E+06  7.399419E+04  9.887738E+04  3.686462E+03 -1.864511E+04 -2.960007E+03
       416   3 -1.223846E+06  1.151131E+05  1.247443E+05 -8.781524E+03 -2.860010E+04 -1.065487E+03
       416   4 -1.556614E+06 -9.485003E+02  1.170367E+04 -6.121665E+03 -8.949026E+03 -2.134482E+03
       416   5 -1.563996E+06 -7.551767E+03  1.751983E+04  4.585657E+03 -1.857547E+04 -2.960191E+03
       416   6 -1.556578E+06  3.182005E+04  4.151899E+04 -6.115624E+03 -2.820001E+04 -1.065695E+03
       416   7 -1.875561E+06 -8.080009E+04 -6.801693E+04 -6.989367E+03 -9.209586E+03 -2.134070E+03
       416   8 -1.889760E+06 -8.910574E+04 -6.384573E+04  5.484402E+03 -1.850586E+04 -2.960375E+03
       416   9 -1.889210E+06 -5.148140E+04 -4.171467E+04 -3.451152E+03 -2.780013E+04 -1.065900E+03
       416  10 -1.237575E+06  7.889537E+04  9.141643E+04 -5.253489E+03  1.262315E-10  9.430039E-11
       416  11 -1.238136E+06  7.399408E+04  9.887671E+04  3.686418E+03  7.494169E-11  1.045058E-10
       416  12 -1.223847E+06  1.151129E+05  1.247427E+05 -8.781548E+03  2.797907E-10  3.569667E-10
       416  13 -1.556614E+06 -9.485267E+02  1.170351E+04 -6.121680E+03  1.182242E-09  2.988200E-09
       416  14 -1.563996E+06 -7.551869E+03  1.751916E+04  4.585613E+03 -5.018671E-10 -1.749362E-10
       416  15 -1.556579E+06  3.181983E+04  4.151749E+04 -6.115648E+03  3.039849E-10 -2.304009E-11
       416  16 -1.875561E+06 -8.080011E+04 -6.801710E+04 -6.989383E+03  1.514647E-09 -1.901625E-09
       416  17 -1.889760E+06 -8.910585E+04 -6.384640E+04  5.484358E+03  1.088885E-10  6.764863E-10
       416  18 -1.889211E+06 -5.148161E+04 -4.171613E+04 -3.451176E+03 -9.361803E-10  1.224499E-10
       416  19 -1.237574E+06  7.889539E+04  9.141658E+04 -5.253474E+03  8.688330E+03  2.134893E+03
       416  20 -1.238136E+06  7.399419E+04  9.887738E+04  3.686462E+03  1.864511E+04  2.960007E+03
       416  21 -1.223846E+06  1.151131E+05  1.247443E+05 -8.781524E+03  2.860010E+04  1.065487E+03
       416  22 -1.556614E+06 -9.485003E+02  1.170367E+04 -6.121665E+03  8.949026E+03  2.134482E+03
       416  23 -1.563996E+06 -7.551767E+03  1.751983E+04  4.585657E+03  1.857547E+04  2.960191E+03
       416  24 -1.556578E+06  3.182005E+04  4.151899E+04 -6.115624E+03  2.820001E+04  1.065695E+03
       416  25 -1.875561E+06 -8.080009E+04 -6.801693E+04 -6.989367E+03  9.209586E+03  2.134070E+03
       416  26 -1.889760E+06 -8.910574E+04 -6.384573E+04  5.484402E+03  1.850586E+04  2.960375E+03
       416  27 -1.889210E+06 -5.148140E+04 -4.171467E+04 -3.451152E+03  2.780013E+04  1.065900E+03
       417   1  6.567727E+06  1.302800E+06  1.702823E+06  1.134921E+05  1.159806E+06  2.687254E+02
       417   2  6.309218E+06 -2.956048E+05  7.327193E+05  2.775657E+04  7.639481E+05 -1.049829E+02
       417   3  6.565663E+06 -3.436188E+04  4.839144E+05 -4.875118E+04  3.680312E+05 -1.146925E+02
       417   4  6.528991E+06  1.293130E+06  1.693216E+06  4.738469E+03  1.159725E+06  6.755215E+01
       417   5  6.273467E+06 -3.044950E+05  7.238680E+05  2.494863E+02  7.639211E+05 -1.385053E+02
       417   6  6.532905E+06 -4.244839E+04  4.758107E+05  4.961423E+03  3.680557E+05 -8.315747E+01
       417   7  6.490281E+06  1.283503E+06  1.683615E+06 -1.040084E+05  1.159645E+06 -1.336040E+02
       417   8  6.237719E+06 -3.133825E+05  7.150171E+05 -2.725602E+04  7.638940E+05 -1.720269E+02
       417   9  6.500155E+06 -5.052424E+04  4.677085E+05  5.867122E+04  3.680803E+05 -5.161675E+01
       417  10  6.566295E+06  1.302444E+06  1.700321E+06  1.134919E+05 -4.735386E-10 -2.610982E-09
       417  11  6.308597E+06 -2.957594E+05  7.316339E+05  2.775664E+04  2.959686E-09 -6.274982E-09
       417  12  6.565518E+06 -3.439776E+04  4.836626E+05 -4.875115E+04 -2.139766E-09 -2.146361E-09
       417  13  6.527559E+06  1.292773E+06  1.690714E+06  4.738409E+03  1.940277E-09 -2.094165E-09
       417  14  6.272846E+06 -3.046496E+05  7.227827E+05  2.495714E+02  2.604852E-09 -5.566120E-09
       417  15  6.532761E+06 -4.248428E+04  4.755588E+05  4.961448E+03 -2.399927E-09 -4.304396E-09
       417  16  6.488849E+06  1.283147E+06  1.681114E+06 -1.040083E+05  1.344008E-09 -2.073274E-09
       417  17  6.237097E+06 -3.135371E+05  7.139317E+05 -2.725592E+04  2.732594E-09 -5.151371E-09
       417  18  6.500010E+06 -5.056013E+04  4.674565E+05  5.867124E+04  4.589082E-09 -3.644624E-09
       417  19  6.567727E+06  1.302800E+06  1.702823E+06  1.134921E+05 -1.159806E+06 -2.687254E+02
       417  20  6.309218E+06 -2.956048E+05  7.327193E+05  2.775657E+04 -7.639481E+05  1.049829E+02
       417  21  6.565663E+06 -3.436188E+04  4.839144E+05 -4.875118E+04 -3.680312E+05  1.146925E+02
       417  22  6.528991E+06  1.293130E+06  1.693216E+06  4.738469E+03 -1.159725E+06 -6.755215E+01
       417  23  6.273467E+06 -3.044950E+05  7.238680E+05  2.494863E+02 -7.639211E+05  1.385053E+02
       417  24  6.532905E+06 -4.244839E+04  4.758107E+05  4.961423E+03 -3.680557E+05  8.315747E+01
       417  25  6.490281E+06  1.283503E+06  1.683615E+06 -1.040084E+05 -1.159645E+06  1.336040E+02
       417  26  6.237719E+06 -3.133825E+05  7.150171E+05 -2.725602E+04 -7.638940E+05  1.720269E+02
       417  27  6.500155E+06 -5.052424E+04  4.677085E+05  5.867122E+04 -3.680803E+05  5.161675E+01
       418   1  6.446094E+06  2.008158E+05  3.964480E+05  1.923372E+04  2.887128E+05  1.251216E+01
       418   2  6.403753E+06 -4.445201E+04  1.903119E+05  5.928663E+03  1.898061E+05  4.985108E+00
       418   3  6.445362E+06 -4.223250E+03  1.194952E+05 -5.038519E+03  9.090351E+04 -1.483136E+01
       418   4  6.436007E+06  1.982984E+05  3.939493E+05  3.295549E+03  2.887150E+05  5.174950E+00
       418   5  6.394430E+06 -4.676905E+04  1.880024E+05  2.164602E+03  1.898077E+05  3.846968E+00
       418   6  6.436805E+06 -6.338116E+03  1.173768E+05  3.371394E+03  9.090447E+04 -1.361134E+01
       418   7  6.425920E+06  1.957820E+05  3.914508E+05 -1.264237E+04  2.887171E+05 -2.162472E+00
       418   8  6.385107E+06 -4.908605E+04  1.856930E+05 -1.599403E+03  1.898093E+05  2.708794E+00
       418   9  6.428247E+06 -8.452725E+03  1.152584E+05  1.178119E+04  9.090542E+04 -1.239129E+01
       418  10  6.446005E+06  2.007937E+05  3.962930E+05  1.923372E+04 -2.978965E-09 -2.736333E-09
       418  11  6.403715E+06 -4.446156E+04  1.902449E+05  5.928663E+03  1.780076E-09 -3.163879E-10
       418  12  6.445353E+06 -4.225440E+03  1.194798E+05 -5.038518E+03  5.743206E-11  4.364198E-09
       418  13  6.435918E+06  1.982763E+05  3.937943E+05  3.295548E+03  2.772414E-09 -1.523060E-09
       418  14  6.394392E+06 -4.677860E+04  1.879354E+05  2.164602E+03  3.859710E-09 -7.004566E-10
       418  15  6.436796E+06 -6.340307E+03  1.173614E+05  3.371395E+03 -2.181687E-09  3.223435E-10
       418  16  6.425831E+06  1.957599E+05  3.912957E+05 -1.264237E+04  1.449767E-09 -2.193704E-09
       418  17  6.385069E+06 -4.909560E+04  1.856260E+05 -1.599403E+03  1.825146E-09 -2.576608E-09
       418  18  6.428239E+06 -8.454916E+03  1.152430E+05  1.178119E+04 -7.697358E-10 -4.647634E-10
       418  19  6.446094E+06  2.008158E+05  3.964480E+05  1.923372E+04 -2.887128E+05 -1.251216E+01
       418  20  6.403753E+06 -4.445201E+04  1.903119E+05  5.928663E+03 -1.898061E+05 -4.985108E+00
       418  21  6.445362E+06 -4.223250E+03  1.194952E+05 -5.038519E+03 -9.090351E+04  1.483136E+01
       418  22  6.436007E+06  1.982984E+05  3.939493E+05  3.295549E+03 -2.887150E+05 -5.174950E+00
       418  23  6.394430E+06 -4.676905E+04  1.880024E+05  2.164602E+03 -1.898077E+05 -3.846968E+00
       418  24  6.436805E+06 -6.338116E+03  1.173768E+05  3.371394E+03 -9.090447E+04  1.361134E+01
       418  25  6.425920E+06  1.957820E+05  3.914508E+05 -1.264237E+04 -2.887171E+05  2.162472E+00
       418  26  6.385107E+06 -4.908605E+04  1.856930E+05 -1.599403E+03 -1.898093E+05 -2.708794E+00
       418  27  6.428247E+06 -8.452725E+03  1.152584E+05  1.178119E+04 -9.090542E+04  1.239129E+01
       419   1  6.423818E+06  3.091616E+04  9.485693E+04  5.198107E+03  7.162068E+04 -7.451328E+00
       419   2  6.416645E+06 -6.549856E+03  4.921850E+04  3.119600E+03  4.666576E+04  3.847738E+00
       419   3  6.423594E+06 -2.764246E+02  3.063940E+04  1.634094E+03  2.171177E+04 -4.962940E+00
       419   4  6.421129E+06  3.024706E+04  9.419213E+04  2.948599E+03  7.162437E+04 -7.706649E+00
       419   5  6.414149E+06 -7.169603E+03  4.860017E+04  2.658700E+03  4.666709E+04  3.814059E+00
       419   6  6.421292E+06 -8.463263E+02  3.006925E+04  2.961790E+03  2.171074E+04 -4.917387E+00
       419   7  6.418441E+06  2.957798E+04  9.352732E+04  6.991005E+02  7.162805E+04 -7.961997E+00
       419   8  6.411654E+06 -7.789349E+03  4.798184E+04  2.197801E+03  4.666843E+04  3.780377E+00
       419   9  6.418989E+06 -1.416222E+03  2.949910E+04  4.289481E+03  2.170971E+04 -4.871839E+00
       419  10  6.423812E+06  3.091480E+04  9.484739E+04  5.198107E+03 -2.131062E-09 -4.037450E-09
       419  11  6.416642E+06 -6.550434E+03  4.921444E+04  3.119600E+03 -4.562948E-09 -2.752196E-10
       419  12  6.423594E+06 -2.765496E+02  3.063852E+04  1.634094E+03 -2.511717E-10  2.587523E-09
       419  13  6.421124E+06  3.024570E+04  9.418258E+04  2.948599E+03 -2.581938E-09  2.353391E-10
       419  14  6.414147E+06 -7.170180E+03  4.859612E+04  2.658700E+03 -3.947625E-11  5.709248E-10
       419  15  6.421291E+06 -8.464513E+02  3.006837E+04  2.961790E+03 -4.517822E-09 -9.308874E-10
       419  16  6.418436E+06  2.957662E+04  9.351778E+04  6.991010E+02 -1.675853E-09  5.630803E-10
       419  17  6.411651E+06 -7.789926E+03  4.797779E+04  2.197801E+03 -2.564307E-09 -2.089233E-09
       419  18  6.418989E+06 -1.416347E+03  2.949823E+04  4.289481E+03 -4.134396E-10  8.569418E-10
       419  19  6.423818E+06  3.091616E+04  9.485693E+04  5.198107E+03 -7.162068E+04  7.451328E+00
       419  20  6.416645E+06 -6.549856E+03  4.921850E+04  3.119600E+03 -4.666576E+04 -3.847738E+00
       419  21  6.423594E+06 -2.764246E+02  3.063940E+04  1.634094E+03 -2.171177E+04  4.962940E+00
       419  22  6.421129E+06  3.024706E+04  9.419213E+04  2.948599E+03 -7.162437E+04  7.706649E+00
       419  23  6.414149E+06 -7.169603E+03  4.860017E+04  2.658700E+03 -4.666709E+04 -3.814059E+00
       419  24  6.421292E+06 -8.463263E+02  3.006925E+04  2.961790E+03 -2.171074E+04  4.917387E+00
       419  25  6.418441E+06  2.957798E+04  9.352732E+04  6.991005E+02 -7.162805E+04  7.961997E+00
       419  26  6.411654E+06 -7.789349E+03  4.798184E+04  2.197801E+03 -4.666843E+04 -3.780377E+00
       419  27  6.418989E+06 -1.416222E+03  2.949910E+04  4.289481E+03 -2.170971E+04  4.871839E+00
       420   1  6.419717E+06  4.799837E+03  2.440120E+04  3.162584E+03  1.676771E+04 -5.777122E+00
       420   2  6.418304E+06 -9.847401E+02  1.484830E+04  2.844444E+03  9.381003E+03 -1.251867E+00
       420   3  6.419693E+06  6.505476E+02  1.192278E+04  2.606851E+03  1.994230E+03 -8.554246E+00
       420   4  6.418755E+06  4.561006E+03  2.416347E+04  2.842154E+03  1.676935E+04 -5.784971E+00
       420   5  6.417368E+06 -1.216908E+03  1.461651E+04  2.802785E+03  9.381217E+03 -1.252392E+00
       420   6  6.418784E+06  4.252943E+02  1.169790E+04  2.843969E+03  1.993023E+03 -8.554024E+00
       420   7  6.417794E+06  4.322175E+03  2.392574E+04  2.521724E+03  1.677099E+04 -5.792821E+00
       420   8  6.416433E+06 -1.449075E+03  1.438471E+04  2.761127E+03  9.381432E+03 -1.252917E+00
       420   9  6.417875E+06  2.000411E+02  1.147303E+04  3.081086E+03  1.991816E+03 -8.553803E+00
       420  10  6.419716E+06  4.799762E+03  2.440067E+04  3.162584E+03  1.200517E-09 -2.280258E-09
       420  11  6.418304E+06 -9.847635E+02  1.484814E+04  2.844444E+03  5.747999E-10  2.182273E-09
       420  12  6.419693E+06  6.505465E+02  1.192277E+04  2.606851E+03 -1.169942E-09  2.164793E-09
       420  13  6.418755E+06  4.560931E+03  2.416294E+04  2.842154E+03  3.372592E-10 -8.057534E-10
       420  14  6.417368E+06 -1.216931E+03  1.461634E+04  2.802785E+03 -1.055213E-09 -1.154232E-09
       420  15  6.418784E+06  4.252932E+02  1.169790E+04  2.843969E+03  1.731121E-09  3.790000E-11
       420  16  6.417793E+06  4.322101E+03  2.392521E+04  2.521724E+03  1.132979E-10 -2.109293E-09
       420  17  6.416433E+06 -1.449099E+03  1.438455E+04  2.761127E+03 -1.895940E-09  1.841713E-09
       420  18  6.417875E+06  2.000401E+02  1.147302E+04  3.081086E+03  3.113012E-10 -2.008253E-09
       420  19  6.419717E+06  4.799837E+03  2.440120E+04  3.162584E+03 -1.676771E+04  5.777122E+00
       420  20  6.418304E+06 -9.847401E+02  1.484830E+04  2.844444E+03 -9.381003E+03  1.251867E+00
       420  21  6.419693E+06  6.505476E+02  1.192278E+04  2.606851E+03 -1.994230E+03  8.554246E+00
       420  22  6.418755E+06  4.561006E+03  2.416347E+04  2.842154E+03 -1.676935E+04  5.784971E+00
       420  23  6.417368E+06 -1.216908E+03  1.461651E+04  2.802785E+03 -9.381217E+03  1.252392E+00
       420  24  6.418784E+06  4.252943E+02  1.169790E+04  2.843969E+03 -1.993023E+03  8.554024E+00
       420  25  6.417794E+06  4.322175E+03  2.392574E+04  2.521724E+03 -1.677099E+04  5.792821E+00
       420  26  6.416433E+06 -1.449075E+03  1.438471E+04  2.761127E+03 -9.381432E+03  1.252917E+00
       420  27  6.417875E+06  2.000411E+02  1.147303E+04  3.081086E+03 -1.991816E+03  8.553803E+00
       421   1  6.419966E+06  8.910387E+02  1.170802E+04  2.970614E+03 -1.119171E+02 -9.384123E+00
       421   2  6.418827E+06 -7.091574E+02  1.325474E+04  2.865881E+03 -6.636684E+03 -1.082134E+01
       421   3  6.420117E+06  4.059517E+03  2.060921E+04  2.493553E+03 -1.316147E+04 -2.863921E+01
       421   4  6.418700E+06  5.767842E+02  1.139453E+04  2.766447E+03 -1.107509E+02 -9.383572E+00
       421   5  6.417475E+06 -1.044445E+03  1.291992E+04  2.899536E+03 -6.637487E+03 -1.082206E+01
       421   6  6.418680E+06  3.703544E+03  2.025442E+04  2.765030E+03 -1.316424E+04 -2.864616E+01
       421   7  6.417435E+06  2.625296E+02  1.108104E+04  2.562280E+03 -1.095846E+02 -9.383021E+00
       421   8  6.416124E+06 -1.379732E+03  1.258510E+04  2.933191E+03 -6.638290E+03 -1.082278E+01
       421   9  6.417243E+06  3.347572E+03  1.989963E+04  3.036506E+03 -1.316701E+04 -2.865312E+01
       421  10  6.419966E+06  8.910387E+02  1.170802E+04  2.970614E+03 -1.659404E-09 -3.939318E-10
       421  11  6.418827E+06 -7.091691E+02  1.325466E+04  2.865881E+03  2.760888E-09  2.731909E-09
       421  12  6.420116E+06  4.059471E+03  2.060889E+04  2.493553E+03  1.058870E-09  5.035705E-10
       421  13  6.418700E+06  5.767842E+02  1.139453E+04  2.766447E+03  5.709607E-09  7.582643E-10
       421  14  6.417475E+06 -1.044456E+03  1.291984E+04  2.899536E+03  4.870371E-09  1.215204E-09
       421  15  6.418680E+06  3.703498E+03  2.025410E+04  2.765030E+03  9.051331E-10  2.247797E-10
       421  16  6.417435E+06  2.625296E+02  1.108104E+04  2.562280E+03  2.931675E-09 -3.975605E-09
       421  17  6.416124E+06 -1.379744E+03  1.258501E+04  2.933191E+03 -1.344015E-10  5.712186E-11
       421  18  6.417243E+06  3.347526E+03  1.989931E+04  3.036506E+03 -2.453101E-09  7.930151E-10
       421  19  6.419966E+06  8.910387E+02  1.170802E+04  2.970614E+03  1.119171E+02  9.384123E+00
       421  20  6.418827E+06 -7.091574E+02  1.325474E+04  2.865881E+03  6.636684E+03  1.082134E+01
       421  21  6.420117E+06  4.059517E+03  2.060921E+04  2.493553E+03  1.316147E+04  2.863921E+01
       421  22  6.418700E+06  5.767842E+02  1.139453E+04  2.766447E+03  1.107509E+02  9.383572E+00
       421  23  6.417475E+06 -1.044445E+03  1.291992E+04  2.899536E+03  6.637487E+03  1.082206E+01
       421  24  6.418680E+06  3.703544E+03  2.025442E+04  2.765030E+03  1.316424E+04  2.864616E+01
       421  25  6.417435E+06  2.625296E+02  1.108104E+04  2.562280E+03  1.095846E+02  9.383021E+00
       421  26  6.416124E+06 -1.379732E+03  1.258510E+04  2.933191E+03  6.638290E+03  1.082278E+01
       421  27  6.417243E+06  3.347572E+03  1.989963E+04  3.036506E+03  1.316701E+04  2.865312E+01
       422   1  6.424959E+06  3.993206E+02  2.596805E+04  3.647923E+03 -1.728127E+04 -3.270005E+01
       422   2  6.419514E+06 -4.691448E+03  4.092634E+04  2.780182E+03 -3.770190E+04 -4.751968E+01
       422   3  6.425585E+06  2.583449E+04  7.798405E+04  7.248505E+02 -5.812258E+04 -9.884442E+01
       422   4  6.420716E+06 -6.548156E+02  2.491646E+04  2.565653E+03 -1.727965E+04 -3.266954E+01
       422   5  6.414892E+06 -5.837990E+03  3.978135E+04  3.153434E+03 -3.770457E+04 -4.754347E+01
       422   6  6.420584E+06  2.459643E+04  7.674874E+04  2.553593E+03 -5.812954E+04 -9.901746E+01
       422   7  6.416473E+06 -1.708949E+03  2.386487E+04  1.483390E+03 -1.727803E+04 -3.263903E+01
       422   8  6.410270E+06 -6.984533E+03  3.863636E+04  3.526683E+03 -3.770725E+04 -4.756727E+01
       422   9  6.415584E+06  2.335837E+04  7.551342E+04  4.382321E+03 -5.813649E+04 -9.919054E+01
       422  10  6.424959E+06  3.992414E+02  2.596749E+04  3.647922E+03  2.719928E-09  4.733823E-09
       422  11  6.419513E+06 -4.691825E+03  4.092370E+04  2.780181E+03 -5.273244E-09 -1.493620E-09
       422  12  6.425581E+06  2.583359E+04  7.797777E+04  7.248459E+02  1.196446E-09  3.602469E-09
       422  13  6.420716E+06 -6.548948E+02  2.491590E+04  2.565652E+03 -6.753251E-10  2.684917E-10
       422  14  6.414891E+06 -5.838367E+03  3.977870E+04  3.153433E+03 -1.521990E-09  8.108950E-11
       422  15  6.420581E+06  2.459553E+04  7.674245E+04  2.553588E+03 -5.814263E-10 -1.428437E-09
       422  16  6.416473E+06 -1.709028E+03  2.386431E+04  1.483389E+03 -3.972068E-09 -3.281828E-09
       422  17  6.410268E+06 -6.984910E+03  3.863371E+04  3.526682E+03 -1.138025E-09  2.894729E-09
       422  18  6.415580E+06  2.335747E+04  7.550714E+04  4.382316E+03  6.939196E-10 -2.547206E-10
       422  19  6.424959E+06  3.993206E+02  2.596805E+04  3.647923E+03  1.728127E+04  3.270005E+01
       422  20  6.419514E+06 -4.691448E+03  4.092634E+04  2.780182E+03  3.770190E+04  4.751968E+01
       422  21  6.425585E+06  2.583449E+04  7.798405E+04  7.248505E+02  5.812258E+04  9.884442E+01
       422  22  6.420716E+06 -6.548156E+02  2.491646E+04  2.565653E+03  1.727965E+04  3.266954E+01
       422  23  6.414892E+06 -5.837990E+03  3.978135E+04  3.153434E+03  3.770457E+04  4.754347E+01
       422  24  6.420584E+06  2.459643E+04  7.674874E+04  2.553593E+03  5.812954E+04  9.901746E+01
       422  25  6.416473E+06 -1.708949E+03  2.386487E+04  1.483390E+03  1.727803E+04  3.263903E+01
       422  26  6.410270E+06 -6.984533E+03  3.863636E+04  3.526683E+03  3.770725E+04  4.756727E+01
       422  27  6.415584E+06  2.335837E+04  7.551342E+04  4.382321E+03  5.813649E+04  9.919054E+01
       423   1  6.449501E+06 -1.129445E+03  9.957565E+04  8.666076E+03 -7.383095E+04 -1.335357E+02
       423   2  6.416514E+06 -3.365687E+04  1.573144E+05  1.054874E+03 -1.542934E+05 -2.147881E+02
       423   3  6.451809E+06  1.659887E+05  3.251126E+05 -1.122852E+04 -2.347600E+05 -3.223551E+02
       423   4  6.433328E+06 -5.151119E+03  9.556696E+04  1.819020E+03 -7.383305E+04 -1.327313E+02
       423   5  6.398858E+06 -3.803357E+04  1.529431E+05  4.106963E+03 -1.542970E+05 -2.155430E+02
       423   6  6.432674E+06  1.612605E+05  3.203820E+05  1.722955E+03 -2.347648E+05 -3.272107E+02
       423   7  6.417155E+06 -9.172637E+03  9.155826E+04 -5.027859E+03 -7.383514E+04 -1.319269E+02
       423   8  6.381203E+06 -4.241025E+04  1.485718E+05  7.158965E+03 -1.543006E+05 -2.162981E+02
       423   9  6.413540E+06  1.565329E+05  3.156514E+05  1.467404E+04 -2.347697E+05 -3.320666E+02
       423  10  6.449495E+06 -1.130890E+03  9.956552E+04  8.666068E+03  2.578686E-10  1.499602E-09
       423  11  6.416488E+06 -3.366318E+04  1.572701E+05  1.054847E+03 -4.527772E-10  1.097291E-09
       423  12  6.451751E+06  1.659741E+05  3.250101E+05 -1.122858E+04  3.105162E-10  8.186941E-10
       423  13  6.433322E+06 -5.152564E+03  9.555682E+04  1.819012E+03 -2.431247E-09 -1.653209E-11
       423  14  6.398833E+06 -3.803988E+04  1.528988E+05  4.106936E+03 -7.920360E-10  2.843923E-09
       423  15  6.432615E+06  1.612459E+05  3.202795E+05  1.722894E+03 -3.620513E-11  7.935917E-10
       423  16  6.417149E+06 -9.174082E+03  9.154812E+04 -5.027867E+03 -2.798949E-10 -1.114011E-09
       423  17  6.381178E+06 -4.241656E+04  1.485275E+05  7.158938E+03  7.354732E-09  4.269187E-09
       423  18  6.413481E+06  1.565182E+05  3.155489E+05  1.467397E+04  2.095975E-09  6.809292E-10
       423  19  6.449501E+06 -1.129445E+03  9.957565E+04  8.666076E+03  7.383095E+04  1.335357E+02
       423  20  6.416514E+06 -3.365687E+04  1.573144E+05  1.054874E+03  1.542934E+05  2.147881E+02
       423  21  6.451809E+06  1.659887E+05  3.251126E+05 -1.122852E+04  2.347600E+05  3.223551E+02
       423  22  6.433328E+06 -5.151119E+03  9.556696E+04  1.819020E+03  7.383305E+04  1.327313E+02
       423  23  6.398858E+06 -3.803357E+04  1.529431E+05  4.106963E+03  1.542970E+05  2.155430E+02
       423  24  6.432674E+06  1.612605E+05  3.203820E+05  1.722955E+03  2.347648E+05  3.272107E+02
       423  25  6.417155E+06 -9.172637E+03  9.155826E+04 -5.027859E+03  7.383514E+04  1.319269E+02
       423  26  6.381203E+06 -4.241025E+04  1.485718E+05  7.158965E+03  1.543006E+05  2.162981E+02
       423  27  6.413540E+06  1.565329E+05  3.156514E+05  1.467404E+04  2.347697E+05  3.320666E+02
       424   1  6.573509E+06 -1.906724E+04  4.022995E+05  4.268261E+04 -2.992247E+05 -6.046467E+02
       424   2  6.368292E+06 -2.308358E+05  6.052723E+05 -1.445085E+04 -6.212798E+05 -1.100098E+03
       424   3  6.581918E+06  1.069704E+06  1.394793E+06 -9.047241E+04 -9.433017E+05 -1.008700E+03
       424   4  6.511487E+06 -3.452741E+04  3.869248E+05 -1.035460E+03 -2.992747E+05 -5.838347E+02
       424   5  6.300426E+06 -2.476320E+05  5.884853E+05  7.876552E+03 -6.212362E+05 -1.122234E+03
       424   6  6.508231E+06  1.051627E+06  1.376574E+06 -2.080779E+03 -9.431614E+05 -1.141621E+03
       424   7  6.449472E+06 -4.998076E+04  3.715508E+05 -4.474920E+04 -2.993248E+05 -5.630140E+02
       424   8  6.232565E+06 -2.644268E+05  5.716983E+05  3.020153E+04 -6.211926E+05 -1.144370E+03
       424   9  6.434566E+06  1.033579E+06  1.358359E+06  8.630046E+04 -9.430212E+05 -1.274516E+03
       424  10  6.573413E+06 -1.909096E+04  4.021330E+05  4.268247E+04 -1.202912E-09  3.910825E-10
       424  11  6.367880E+06 -2.309380E+05  6.045545E+05 -1.445140E+04 -1.692660E-09  1.683403E-09
       424  12  6.580971E+06  1.069468E+06  1.393138E+06 -9.047320E+04 -2.854743E-10  5.538067E-10
       424  13  6.511391E+06 -3.455114E+04  3.867582E+05 -1.035601E+03 -6.681576E-09 -1.510770E-09
       424  14  6.300015E+06 -2.477343E+05  5.877675E+05  7.875993E+03  5.837136E-09  5.097318E-09
       424  15  6.507284E+06  1.051391E+06  1.374920E+06 -2.081643E+03  3.374666E-11  9.383307E-10
       424  16  6.449377E+06 -5.000450E+04  3.713842E+05 -4.474934E+04  1.052343E-09  7.430905E-11
       424  17  6.232154E+06 -2.645290E+05  5.709806E+05  3.020096E+04  6.781527E-09  5.062847E-09
       424  18  6.433619E+06  1.033343E+06  1.356705E+06  8.629953E+04 -1.614430E-09  4.856859E-10
       424  19  6.573509E+06 -1.906724E+04  4.022995E+05  4.268261E+04  2.992247E+05  6.046467E+02
       424  20  6.368292E+06 -2.308358E+05  6.052723E+05 -1.445085E+04  6.212798E+05  1.100098E+03
       424  21  6.581918E+06  1.069704E+06  1.394793E+06 -9.047241E+04  9.433017E+05  1.008700E+03
       424  22  6.511487E+06 -3.452741E+04  3.869248E+05 -1.035460E+03  2.992747E+05  5.838347E+02
       424  23  6.300426E+06 -2.476320E+05  5.884853E+05  7.876552E+03  6.212362E+05  1.122234E+03
       424  24  6.508231E+06  1.051627E+06  1.376574E+06 -2.080779E+03  9.431614E+05  1.141621E+03
       424  25  6.449472E+06 -4.998076E+04  3.715508E+05 -4.474920E+04  2.993248E+05  5.630140E+02
       424  26  6.232565E+06 -2.644268E+05  5.716983E+05  3.020153E+04  6.211926E+05  1.144370E+03
       424  27  6.434566E+06  1.033579E+06  1.358359E+06  8.630046E+04  9.430212E+05  1.274516E+03
       425   1  3.806740E+05  1.583100E+05  1.462851E+05  4.302079E+04  4.477780E+04 -1.005177E+04
       425   2  3.287367E+05  1.547251E+05  1.151229E+05  4.575738E+04  1.948657E+04 -3.414438E+04
       425   3  2.786640E+05  1.453558E+05  9.899615E+04  5.755133E+04 -5.817607E+03 -4.174190E+04
       425   4 -3.487344E+05 -2.150152E+04 -2.358434E+04  5.631198E+04 -1.650192E+04 -1.012251E+04
       425   5 -3.469355E+05 -5.735368E+03 -1.161314E+04  5.176994E+04 -1.050048E+04 -3.418519E+04
       425   6 -3.487091E+05 -1.190201E+03 -6.336049E+03  5.628534E+04 -4.514825E+03 -4.174395E+04
       425   7 -1.077643E+06 -2.013480E+05 -1.934755E+05  6.958730E+04 -7.771014E+04 -1.019592E+04
       425   8 -1.022164E+06 -1.662216E+05 -1.383655E+05  5.777565E+04 -4.045573E+04 -3.422662E+04
       425   9 -9.756941E+05 -1.477569E+05 -1.116806E+05  5.502053E+04 -3.213314E+03 -4.174600E+04
       425  10  3.806719E+05  1.583094E+05  1.462811E+05  4.302115E+04  2.735679E-09 -5.990945E-10
       425  11  3.287360E+05  1.547237E+05  1.151199E+05  4.575792E+04 -6.598204E-11 -3.342891E-09
       425  12  2.786635E+05  1.453540E+05  9.899281E+04  5.755114E+04 -9.450445E-10 -2.615301E-09
       425  13 -3.487347E+05 -2.150171E+04 -2.358504E+04  5.631185E+04 -6.178131E-10  3.588185E-10
       425  14 -3.469359E+05 -5.736652E+03 -1.161554E+04  5.176965E+04  8.520755E-10 -2.484715E-09
       425  15 -3.487096E+05 -1.192077E+03 -6.339362E+03  5.628519E+04  1.009389E-09 -6.132961E-10
       425  16 -1.077650E+06 -2.013497E+05 -1.934871E+05  6.958666E+04 -2.904173E-09 -2.870638E-10
       425  17 -1.022166E+06 -1.662233E+05 -1.383708E+05  5.777454E+04 -1.762141E-09 -4.905504E-09
       425  18 -9.756946E+05 -1.477587E+05 -1.116839E+05  5.502042E+04  1.899372E-09 -3.920028E-09
       425  19  3.806740E+05  1.583100E+05  1.462851E+05  4.302079E+04 -4.477780E+04  1.005177E+04
       425  20  3.287367E+05  1.547251E+05  1.151229E+05  4.575738E+04 -1.948657E+04  3.414438E+04
       425  21  2.786640E+05  1.453558E+05  9.899615E+04  5.755133E+04  5.817607E+03  4.174190E+04
       425  22 -3.487344E+05 -2.150152E+04 -2.358434E+04  5.631198E+04  1.650192E+04  1.012251E+04
       425  23 -3.469355E+05 -5.735368E+03 -1.161314E+04  5.176994E+04  1.050048E+04  3.418519E+04
       425  24 -3.487091E+05 -1.190201E+03 -6.336049E+03  5.628534E+04  4.514825E+03  4.174395E+04
       425  25 -1.077643E+06 -2.013480E+05 -1.934755E+05  6.958730E+04  7.771014E+04  1.019592E+04
       425  26 -1.022164E+06 -1.662216E+05 -1.383655E+05  5.777565E+04  4.045573E+04  3.422662E+04
       425  27 -9.756941E+05 -1.477569E+05 -1.116806E+05  5.502053E+04  3.213314E+03  4.174600E+04
       426   1  2.460107E+05  1.373021E+05  9.329376E+04  5.661566E+04 -4.081369E+03 -4.085563E+04
       426   2  1.949551E+05  1.257186E+05  8.396367E+04  5.184732E+04 -6.035353E+03 -3.979533E+04
       426   3  1.441138E+05  1.140118E+05  7.587330E+04  5.728225E+04 -7.992595E+03 -3.701299E+04
       426   4 -3.479868E+05 -1.117051E+03 -4.787661E+03  5.654271E+04 -3.695248E+03 -4.085868E+04
       426   5 -3.478000E+05 -1.575330E+02 -2.623984E+03  5.143983E+04 -2.383963E+03 -3.979306E+04
       426   6 -3.479680E+05  1.118268E+02 -1.488183E+03  5.654079E+04 -1.076039E+03 -3.700463E+04
       426   7 -9.416353E+05 -1.395544E+05 -1.028795E+05  5.646970E+04 -3.309483E+03 -4.086174E+04
       426   8 -8.902623E+05 -1.260484E+05 -8.921924E+04  5.103259E+04  1.264351E+03 -3.979079E+04
       426   9 -8.398083E+05 -1.138001E+05 -7.885541E+04  5.579984E+04  5.835239E+03 -3.699627E+04
       426  10  2.460102E+05  1.373003E+05  9.329059E+04  5.661552E+04 -2.162384E-09 -3.224502E-09
       426  11  1.949547E+05  1.257169E+05  8.396062E+04  5.184713E+04 -1.094768E-09  6.121576E-10
       426  12  1.441133E+05  1.140103E+05  7.587061E+04  5.728201E+04  1.454217E-09  1.244826E-09
       426  13 -3.479872E+05 -1.118847E+03 -4.790823E+03  5.654259E+04  1.249523E-09 -1.910331E-09
       426  14 -3.478005E+05 -1.592347E+02 -2.626970E+03  5.143975E+04  3.895319E-10 -4.879033E-10
       426  15 -3.479683E+05  1.103563E+02 -1.490758E+03  5.654076E+04 -8.290227E-10 -2.423382E-09
       426  16 -9.416358E+05 -1.395562E+05 -1.028827E+05  5.646959E+04  2.872898E-09  2.384157E-10
       426  17 -8.902627E+05 -1.260501E+05 -8.922221E+04  5.103263E+04 -8.235399E-10  8.745299E-10
       426  18 -8.398087E+05 -1.138015E+05 -7.885804E+04  5.580001E+04 -7.778139E-10 -1.488110E-10
       426  19  2.460107E+05  1.373021E+05  9.329376E+04  5.661566E+04  4.081369E+03  4.085563E+04
       426  20  1.949551E+05  1.257186E+05  8.396367E+04  5.184732E+04  6.035353E+03  3.979533E+04
       426  21  1.441138E+05  1.140118E+05  7.587330E+04  5.728225E+04  7.992595E+03  3.701299E+04
       426  22 -3.479868E+05 -1.117051E+03 -4.787661E+03  5.654271E+04  3.695248E+03  4.085868E+04
       426  23 -3.478000E+05 -1.575330E+02 -2.623984E+03  5.143983E+04  2.383963E+03  3.979306E+04
       426  24 -3.479680E+05  1.118268E+02 -1.488183E+03  5.654079E+04  1.076039E+03  3.700463E+04
       426  25 -9.416353E+05 -1.395544E+05 -1.028795E+05  5.646970E+04  3.309483E+03  4.086174E+04
       426  26 -8.902623E+05 -1.260484E+05 -8.921924E+04  5.103259E+04 -1.264351E+03  3.979079E+04
       426  27 -8.398083E+05 -1.138001E+05 -7.885541E+04  5.579984E+04 -5.835239E+03  3.699627E+04
       427   1  1.115993E+05  1.064059E+05  7.077011E+04  5.719024E+04 -7.675618E+03 -3.483917E+04
       427   2  6.060796E+04  9.460119E+04  6.304950E+04  5.197213E+04 -7.702650E+03 -3.115104E+04
       427   3  9.607591E+03  8.284837E+04  5.535162E+04  5.708575E+04 -7.730989E+03 -2.728207E+04
       427   4 -3.478991E+05  1.140613E+02 -1.129967E+03  5.656952E+04 -8.525520E+02 -3.483032E+04
       427   5 -3.478565E+05  1.556542E+02 -6.468265E+02  5.140340E+04 -5.371254E+02 -3.114067E+04
       427   6 -3.478850E+05  1.896973E+02 -3.790230E+02  5.656940E+04 -2.230079E+02 -2.727012E+04
       427   7 -8.071868E+05 -1.061881E+05 -7.303493E+04  5.594918E+04  5.965653E+03 -3.482147E+04
       427   8 -7.561542E+05 -9.429804E+04 -6.434690E+04  5.083498E+04  6.623862E+03 -3.113031E+04
       427   9 -7.052499E+05 -8.247521E+04 -5.611247E+04  5.605330E+04  7.280812E+03 -2.725818E+04
       427  10  1.115990E+05  1.064046E+05  7.076772E+04  5.719002E+04 -3.132732E-09  2.017913E-09
       427  11  6.060763E+04  9.460013E+04  6.304756E+04  5.197194E+04 -5.243242E-10  2.237065E-09
       427  12  9.607327E+03  8.284755E+04  5.535011E+04  5.708558E+04  5.180809E-09  8.529771E-10
       427  13 -3.478994E+05  1.127586E+02 -1.132248E+03  5.656949E+04  8.663573E-12 -2.628953E-09
       427  14 -3.478567E+05  1.546130E+02 -6.486491E+02  5.140339E+04 -6.376441E-10  3.107491E-09
       427  15 -3.478852E+05  1.888988E+02 -3.804203E+02  5.656939E+04  1.045828E-09  4.675428E-09
       427  16 -8.071871E+05 -1.061894E+05 -7.303728E+04  5.594935E+04  3.930662E-09  8.850808E-10
       427  17 -7.561546E+05 -9.429909E+04 -6.434880E+04  5.083515E+04 -2.229632E-09  3.675012E-09
       427  18 -7.052501E+05 -8.247602E+04 -5.611396E+04  5.605346E+04 -4.770555E-09  6.451384E-10
       427  19  1.115993E+05  1.064059E+05  7.077011E+04  5.719024E+04  7.675618E+03  3.483917E+04
       427  20  6.060796E+04  9.460119E+04  6.304950E+04  5.197213E+04  7.702650E+03  3.115104E+04
       427  21  9.607591E+03  8.284837E+04  5.535162E+04  5.708575E+04  7.730989E+03  2.728207E+04
       427  22 -3.478991E+05  1.140613E+02 -1.129967E+03  5.656952E+04  8.525520E+02  3.483032E+04
       427  23 -3.478565E+05  1.556542E+02 -6.468265E+02  5.140340E+04  5.371254E+02  3.114067E+04
       427  24 -3.478850E+05  1.896973E+02 -3.790230E+02  5.656940E+04  2.230079E+02  2.727012E+04
       427  25 -8.071868E+05 -1.061881E+05 -7.303493E+04  5.594918E+04 -5.965653E+03  3.482147E+04
       427  26 -7.561542E+05 -9.429804E+04 -6.434690E+04  5.083498E+04 -6.623862E+03  3.113031E+04
       427  27 -7.052499E+05 -8.247521E+04 -5.611247E+04  5.605330E+04 -7.280812E+03  2.725818E+04
       428   1 -2.290884E+04  7.529035E+04  5.015500E+04  5.704235E+04 -7.665760E+03 -2.497189E+04
       428   2 -7.392887E+04  6.349822E+04  4.239168E+04  5.179424E+04 -7.613018E+03 -2.100682E+04
       428   3 -1.249816E+05  5.174847E+04  3.459320E+04  5.689832E+04 -7.561021E+03 -1.702284E+04
       428   4 -3.478743E+05  1.930550E+02 -2.957476E+02  5.657394E+04 -1.659681E+02 -2.495947E+04
       428   5 -3.478485E+05  1.840754E+02 -1.917235E+02  5.139770E+04 -7.777713E+01 -2.099366E+04
       428   6 -3.478649E+05  2.111730E+02 -1.478844E+02  5.657392E+04  9.674033E+00 -1.700895E+04
       428   7 -6.727343E+05 -7.490937E+04 -5.074873E+04  5.610573E+04  7.330046E+03 -2.494705E+04
       428   8 -6.216930E+05 -6.313371E+04 -4.277666E+04  5.100131E+04  7.454265E+03 -2.098051E+04
       428   9 -5.706985E+05 -5.132853E+04 -3.488993E+04  5.624961E+04  7.577753E+03 -1.699505E+04
       428  10 -2.290907E+04  7.528966E+04  5.015372E+04  5.704220E+04  1.768174E-09  7.670156E-10
       428  11 -7.392905E+04  6.349773E+04  4.239074E+04  5.179411E+04 -9.246501E-10  5.022115E-09
       428  12 -1.249817E+05  5.174814E+04  3.459255E+04  5.689822E+04 -1.432421E-09  4.564143E-09
       428  13 -3.478745E+05  1.923861E+02 -2.969181E+02  5.657393E+04  2.569960E-09  1.205829E-09
       428  14 -3.478486E+05  1.836022E+02 -1.925516E+02  5.139770E+04 -3.167223E-10  3.922721E-09
       428  15 -3.478650E+05  2.108624E+02 -1.484279E+02  5.657392E+04 -1.100590E-09  1.237207E-10
       428  16 -6.727345E+05 -7.491005E+04 -5.075000E+04  5.610587E+04 -1.749632E-09  1.459283E-10
       428  17 -6.216932E+05 -6.313420E+04 -4.277759E+04  5.100143E+04 -2.918763E-09  6.396547E-10
       428  18 -5.706987E+05 -5.132885E+04 -3.489058E+04  5.624972E+04  4.036239E-11 -7.613953E-10
       428  19 -2.290884E+04  7.529035E+04  5.015500E+04  5.704235E+04  7.665760E+03  2.497189E+04
       428  20 -7.392887E+04  6.349822E+04  4.239168E+04  5.179424E+04  7.613018E+03  2.100682E+04
       428  21 -1.249816E+05  5.174847E+04  3.459320E+04  5.689832E+04  7.561021E+03  1.702284E+04
       428  22 -3.478743E+05  1.930550E+02 -2.957476E+02  5.657394E+04  1.659681E+02  2.495947E+04
       428  23 -3.478485E+05  1.840754E+02 -1.917235E+02  5.139770E+04  7.777713E+01  2.099366E+04
       428  24 -3.478649E+05  2.111730E+02 -1.478844E+02  5.657392E+04 -9.674033E+00  1.700895E+04
       428  25 -6.727343E+05 -7.490937E+04 -5.074873E+04  5.610573E+04 -7.330046E+03  2.494705E+04
       428  26 -6.216930E+05 -6.313371E+04 -4.277666E+04  5.100131E+04 -7.454265E+03  2.098051E+04
       428  27 -5.706985E+05 -5.132853E+04 -3.488993E+04  5.624961E+04 -7.577753E+03  1.699505E+04
       429   1 -1.575192E+05  4.419016E+04  2.933105E+04  5.685199E+04 -7.539116E+03 -1.469750E+04
       429   2 -2.085550E+05  3.239547E+04  2.146261E+04  5.159006E+04 -7.450337E+03 -1.070629E+04
       429   3 -2.596386E+05  2.063572E+04  1.353112E+04  5.668870E+04 -7.361913E+03 -6.720962E+03
       429   4 -3.478635E+05  2.148242E+02 -1.445453E+02  5.657575E+04  3.198126E+01 -1.468330E+04
       429   5 -3.478373E+05  2.030602E+02 -1.714767E+02  5.139539E+04  1.093467E+02 -1.069177E+04
       429   6 -3.478588E+05  2.284974E+02 -2.534621E+02  5.657573E+04  1.863642E+02 -6.706122E+03
       429   7 -5.381715E+05 -4.376225E+04 -2.962075E+04  5.629958E+04  7.600845E+03 -1.466910E+04
       429   8 -4.871001E+05 -3.199027E+04 -2.180580E+04  5.120076E+04  7.667398E+03 -1.067725E+04
       429   9 -4.360710E+05 -2.017908E+04 -1.403802E+04  5.646278E+04  7.733609E+03 -6.691284E+03
       429  10 -1.575194E+05  4.418991E+04  2.933053E+04  5.685190E+04  9.175870E-09  7.806083E-10
       429  11 -2.085551E+05  3.239533E+04  2.146229E+04  5.159000E+04 -1.910688E-10 -1.421512E-09
       429  12 -2.596387E+05  2.063566E+04  1.353094E+04  5.668866E+04 -4.959674E-09 -1.895760E-09
       429  13 -3.478636E+05  2.145928E+02 -1.449504E+02  5.657575E+04 -8.977701E-10  4.140216E-09
       429  14 -3.478373E+05  2.029375E+02 -1.716915E+02  5.139539E+04  1.454449E-09 -8.730279E-10
       429  15 -3.478588E+05  2.284492E+02 -2.535467E+02  5.657573E+04  5.529914E-10 -2.904285E-09
       429  16 -5.381716E+05 -4.376249E+04 -2.962126E+04  5.629967E+04 -8.760051E-09  1.267078E-09
       429  17 -4.871002E+05 -3.199040E+04 -2.180613E+04  5.120082E+04 -4.585075E-09 -1.203032E-09
       429  18 -4.360711E+05 -2.017914E+04 -1.403822E+04  5.646282E+04  5.828368E-09 -2.910489E-09
       429  19 -1.575192E+05  4.419016E+04  2.933105E+04  5.685199E+04  7.539116E+03  1.469750E+04
       429  20 -2.085550E+05  3.239547E+04  2.146261E+04  5.159006E+04  7.450337E+03  1.070629E+04
       429  21 -2.596386E+05  2.063572E+04  1.353112E+04  5.668870E+04  7.361913E+03  6.720962E+03
       429  22 -3.478635E+05  2.148242E+02 -1.445453E+02  5.657575E+04 -3.198126E+01  1.468330E+04
       429  23 -3.478373E+05  2.030602E+02 -1.714767E+02  5.139539E+04 -1.093467E+02  1.069177E+04
       429  24 -3.478588E+05  2.284974E+02 -2.534621E+02  5.657573E+04 -1.863642E+02  6.706122E+03
       429  25 -5.381715E+05 -4.376225E+04 -2.962075E+04  5.629958E+04 -7.600845E+03  1.466910E+04
       429  26 -4.871001E+05 -3.199027E+04 -2.180580E+04  5.120076E+04 -7.667398E+03  1.067725E+04
       429  27 -4.360710E+05 -2.017908E+04 -1.403802E+04  5.646278E+04 -7.733609E+03  6.691284E+03
       430   1 -2.921944E+05  1.307265E+04  8.188575E+03  5.662949E+04 -7.319194E+03 -4.399309E+03
       430   2 -3.432070E+05  1.259348E+03  6.998048E+01  5.136843E+04 -6.906751E+03 -4.533175E+02
       430   3 -3.943261E+05 -1.057849E+04 -8.337961E+03  5.646418E+04 -6.494207E+03  3.412851E+03
       430   4 -3.478657E+05  2.321783E+02 -3.219835E+02  5.657485E+04  2.336462E+02 -4.384356E+03
       430   5 -3.478242E+05  2.132636E+02 -5.421702E+02  5.139648E+04  4.945084E+02 -4.386527E+02
       430   6 -3.478656E+05  1.962262E+02 -9.465279E+02  5.657493E+04  7.555047E+02  3.427227E+03
       430   7 -4.035338E+05 -1.260842E+04 -8.832394E+03  5.652021E+04  7.785835E+03 -4.369403E+03
       430   8 -3.524413E+05 -8.327923E+02 -1.154115E+03  5.142454E+04  7.895716E+03 -4.239872E+02
       430   9 -3.014028E+05  1.097086E+04  6.445047E+03  5.668568E+04  8.005740E+03  3.441605E+03
       430  10 -2.921944E+05  1.307262E+04  8.188437E+03  5.662947E+04  9.451250E-10  6.567520E-10
       430  11 -3.432070E+05  1.259335E+03  6.989040E+01  5.136842E+04 -7.604000E-10 -9.523022E-11
       430  12 -3.943261E+05 -1.057851E+04 -8.338062E+03  5.646420E+04 -3.720282E-09  2.308131E-10
       430  13 -3.478657E+05  2.321577E+02 -3.220198E+02  5.657485E+04  1.039301E-09 -4.006603E-10
       430  14 -3.478242E+05  2.132633E+02 -5.421710E+02  5.139648E+04  5.139925E-10 -7.152430E-10
       430  15 -3.478656E+05  1.962135E+02 -9.465510E+02  5.657493E+04  7.674722E-10  1.099200E-09
       430  16 -4.035338E+05 -1.260845E+04 -8.832544E+03  5.652024E+04 -1.146182E-09  8.715044E-10
       430  17 -3.524414E+05 -8.328092E+02 -1.154233E+03  5.142454E+04 -2.670352E-09 -6.192059E-09
       430  18 -3.014029E+05  1.097083E+04  6.444905E+03  5.668566E+04  3.079401E-09 -1.944686E-09
       430  19 -2.921944E+05  1.307265E+04  8.188575E+03  5.662949E+04  7.319194E+03  4.399309E+03
       430  20 -3.432070E+05  1.259348E+03  6.998048E+01  5.136843E+04  6.906751E+03  4.533175E+02
       430  21 -3.943261E+05 -1.057849E+04 -8.337961E+03  5.646418E+04  6.494207E+03 -3.412851E+03
       430  22 -3.478657E+05  2.321783E+02 -3.219835E+02  5.657485E+04 -2.336462E+02  4.384356E+03
       430  23 -3.478242E+05  2.132636E+02 -5.421702E+02  5.139648E+04 -4.945084E+02  4.386527E+02
       430  24 -3.478656E+05  1.962262E+02 -9.465279E+02  5.657493E+04 -7.555047E+02 -3.427227E+03
       430  25 -4.035338E+05 -1.260842E+04 -8.832394E+03  5.652021E+04 -7.785835E+03  4.369403E+03
       430  26 -3.524413E+05 -8.327923E+02 -1.154115E+03  5.142454E+04 -7.895716E+03  4.239872E+02
       430  27 -3.014028E+05  1.097086E+04  6.445047E+03  5.668568E+04 -8.005740E+03 -3.441605E+03
       431   1 -4.269655E+05 -1.816602E+04 -1.399563E+04  5.632265E+04 -6.351368E+03  5.675225E+03
       431   2 -4.777346E+05 -3.026762E+04 -2.340756E+04  5.139667E+04 -3.805881E+03  9.144166E+03
       431   3 -5.290848E+05 -4.319220E+04 -3.469675E+04  5.677435E+04 -1.258951E+03  1.184483E+04
       431   4 -3.479216E+05  2.004881E+02 -1.246590E+03  5.656284E+04  9.406064E+02  5.689597E+03
       431   5 -3.477583E+05 -1.775476E+01 -2.194552E+03  5.141205E+04  2.030233E+03  9.155399E+03
       431   6 -3.479264E+05 -8.060733E+02 -4.008369E+03  5.656480E+04  3.121522E+03  1.185301E+04
       431   7 -2.688714E+05  1.856671E+04  1.150249E+04  5.680306E+04  8.233477E+03  5.703974E+03
       431   8 -2.177652E+05  3.023127E+04  1.901810E+04  5.142743E+04  7.867526E+03  9.166631E+03
       431   9 -1.667356E+05  4.157833E+04  2.667903E+04  5.635518E+04  7.503234E+03  1.186118E+04
       431  10 -4.269656E+05 -1.816606E+04 -1.399577E+04  5.632268E+04 -5.816333E-09  4.516004E-09
       431  11 -4.777347E+05 -3.026772E+04 -2.340774E+04  5.139670E+04 -1.522116E-10  1.430802E-09
       431  12 -5.290848E+05 -4.319235E+04 -3.469702E+04  5.677436E+04  4.899863E-09  5.490860E-09
       431  13 -3.479216E+05  2.004531E+02 -1.246652E+03  5.656284E+04  1.007034E-09  2.672890E-09
       431  14 -3.477583E+05 -1.784586E+01 -2.194717E+03  5.141203E+04  1.034701E-09  3.599936E-09
       431  15 -3.479264E+05 -8.062268E+02 -4.008652E+03  5.656477E+04  1.586235E-09  1.506402E-09
       431  16 -2.688714E+05  1.856665E+04  1.150230E+04  5.680302E+04  4.646962E-09  1.878998E-09
       431  17 -2.177652E+05  3.023116E+04  1.901783E+04  5.142737E+04 -1.620825E-09  1.703775E-09
       431  18 -1.667357E+05  4.157816E+04  2.667866E+04  5.635510E+04 -6.869732E-09 -2.851145E-09
       431  19 -4.269655E+05 -1.816602E+04 -1.399563E+04  5.632265E+04  6.351368E+03 -5.675225E+03
       431  20 -4.777346E+05 -3.026762E+04 -2.340756E+04  5.139667E+04  3.805881E+03 -9.144166E+03
       431  21 -5.290848E+05 -4.319220E+04 -3.469675E+04  5.677435E+04  1.258951E+03 -1.184483E+04
       431  22 -3.479216E+05  2.004881E+02 -1.246590E+03  5.656284E+04 -9.406064E+02 -5.689597E+03
       431  23 -3.477583E+05 -1.775476E+01 -2.194552E+03  5.141205E+04 -2.030233E+03 -9.155399E+03
       431  24 -3.479264E+05 -8.060733E+02 -4.008369E+03  5.656480E+04 -3.121522E+03 -1.185301E+04
       431  25 -2.688714E+05  1.856671E+04  1.150249E+04  5.680306E+04 -8.233477E+03 -5.703974E+03
       431  26 -2.177652E+05  3.023127E+04  1.901810E+04  5.142743E+04 -7.867526E+03 -9.166631E+03
       431  27 -1.667356E+05  4.157833E+04  2.667903E+04  5.635518E+04 -7.503234E+03 -1.186118E+04
       432   1 -5.626282E+05 -5.107621E+04 -4.215221E+04  5.562113E+04 -9.841333E+02  1.353276E+04
       432   2 -6.110028E+05 -6.762515E+04 -6.046731E+04  5.677284E+04  1.796578E+04  1.241391E+04
       432   3 -6.648429E+05 -9.601139E+04 -9.409312E+04  6.772631E+04  3.692677E+04  3.930260E+03
       432   4 -3.485309E+05 -8.618220E+02 -5.305699E+03  5.644994E+04  3.805311E+03  1.354153E+04
       432   5 -3.470161E+05 -4.673340E+03 -9.720805E+03  5.156479E+04  8.803862E+03  1.239616E+04
       432   6 -3.485426E+05 -1.789561E+04 -1.975048E+04  5.648168E+04  1.381507E+04  3.887053E+03
       432   7 -1.343884E+05  4.935012E+04  3.153935E+04  5.727902E+04  8.596357E+03  1.355031E+04
       432   8 -8.296205E+04  5.827450E+04  4.102282E+04  4.635445E+04 -3.618689E+02  1.237856E+04
       432   9 -3.214875E+04  6.021382E+04  5.458737E+04  4.523124E+04 -9.308350E+03  3.844695E+03
       432  10 -5.626282E+05 -5.107641E+04 -4.215256E+04  5.562114E+04 -5.234053E-10  4.581328E-09
       432  11 -6.110032E+05 -6.762540E+04 -6.046821E+04  5.677266E+04 -1.884598E-09 -1.274103E-09
       432  12 -6.648443E+05 -9.601178E+04 -9.409571E+04  6.772619E+04 -5.492635E-10 -6.490568E-10
       432  13 -3.485309E+05 -8.620227E+02 -5.306070E+03  5.644990E+04  7.258259E-10  5.189117E-09
       432  14 -3.470162E+05 -4.673526E+03 -9.721240E+03  5.156471E+04  7.312849E-10 -3.706288E-09
       432  15 -3.485428E+05 -1.789568E+04 -1.975087E+04  5.648164E+04  7.950051E-10  3.487431E-09
       432  16 -1.343885E+05  4.934991E+04  3.153886E+04  5.727892E+04  1.617079E-09  1.615119E-09
       432  17 -8.296209E+04  5.827433E+04  4.102253E+04  4.635445E+04 -2.434233E-09  8.424053E-10
       432  18 -3.214885E+04  6.021378E+04  5.458718E+04  4.523127E+04 -1.406283E-09 -2.095942E-10
       432  19 -5.626282E+05 -5.107621E+04 -4.215221E+04  5.562113E+04  9.841333E+02 -1.353276E+04
       432  20 -6.110028E+05 -6.762515E+04 -6.046731E+04  5.677284E+04 -1.796578E+04 -1.241391E+04
       432  21 -6.648429E+05 -9.601139E+04 -9.409312E+04  6.772631E+04 -3.692677E+04 -3.930260E+03
       432  22 -3.485309E+05 -8.618220E+02 -5.305699E+03  5.644994E+04 -3.805311E+03 -1.354153E+04
       432  23 -3.470161E+05 -4.673340E+03 -9.720805E+03  5.156479E+04 -8.803862E+03 -1.239616E+04
       432  24 -3.485426E+05 -1.789561E+04 -1.975048E+04  5.648168E+04 -1.381507E+04 -3.887053E+03
       432  25 -1.343884E+05  4.935012E+04  3.153935E+04  5.727902E+04 -8.596357E+03 -1.355031E+04
       432  26 -8.296205E+04  5.827450E+04  4.102282E+04  4.635445E+04  3.618689E+02 -1.237856E+04
       432  27 -3.214875E+04  6.021382E+04  5.458737E+04  4.523124E+04  9.308350E+03 -3.844695E+03
       433   1 -2.921640E+05  4.095114E+04  1.460925E+04 -1.176926E+04 -7.342050E+04 -5.568043E+03
       433   2 -3.124084E+05  1.394830E+05  6.920129E+04 -3.930770E+03 -5.111003E+04 -1.648193E+04
       433   3 -3.643628E+05  1.221757E+05  8.035592E+04  3.054484E+04 -2.882449E+04 -1.538356E+04
       433   4 -8.367402E+05 -9.478836E+04 -1.198104E+05  1.730607E+04 -8.191583E+04 -5.587617E+03
       433   5 -8.203232E+05  1.354665E+04 -5.247575E+04  3.888740E+03 -5.357556E+04 -1.648882E+04
       433   6 -8.366935E+05  4.941732E+03 -3.279661E+04  1.711050E+04 -2.525858E+04 -1.537496E+04
       433   7 -1.381044E+06 -2.305467E+05 -2.542513E+05  4.635573E+04 -9.040369E+04 -5.607996E+03
       433   8 -1.328001E+06 -1.124082E+05 -1.741710E+05  1.170170E+04 -5.603906E+04 -1.649578E+04
       433   9 -1.308819E+06 -1.123078E+05 -1.459648E+05  3.686293E+03 -2.169536E+04 -1.536652E+04
       433  10 -2.921698E+05  4.094966E+04  1.459906E+04 -1.176959E+04 -2.599825E-09  6.092951E-10
       433  11 -3.124113E+05  1.394820E+05  6.919587E+04 -3.931449E+03 -1.471768E-09  9.283712E-09
       433  12 -3.643637E+05  1.221752E+05  8.035391E+04  3.054449E+04  4.114690E-09  1.470559E-09
       433  13 -8.367474E+05 -9.479020E+04 -1.198231E+05  1.730570E+04 -4.965916E-10 -4.645401E-09
       433  14 -8.203263E+05  1.354558E+04 -5.248166E+04  3.888028E+03  2.520834E-09 -6.293065E-09
       433  15 -8.366943E+05  4.941307E+03 -3.279825E+04  1.711018E+04  1.191866E-09 -4.075885E-10
       433  16 -1.381053E+06 -2.305490E+05 -2.542667E+05  4.635532E+04  2.320011E-09  1.098266E-09
       433  17 -1.328005E+06 -1.124094E+05 -1.741774E+05  1.170095E+04  1.627356E-09  5.829907E-09
       433  18 -1.308820E+06 -1.123081E+05 -1.459661E+05  3.686024E+03 -2.659856E-09  2.799894E-10
       433  19 -2.921640E+05  4.095114E+04  1.460925E+04 -1.176926E+04  7.342050E+04  5.568043E+03
       433  20 -3.124084E+05  1.394830E+05  6.920129E+04 -3.930770E+03  5.111003E+04  1.648193E+04
       433  21 -3.643628E+05  1.221757E+05  8.035592E+04  3.054484E+04  2.882449E+04  1.538356E+04
       433  22 -8.367402E+05 -9.478836E+04 -1.198104E+05  1.730607E+04  8.191583E+04  5.587617E+03
       433  23 -8.203232E+05  1.354665E+04 -5.247575E+04  3.888740E+03  5.357556E+04  1.648882E+04
       433  24 -8.366935E+05  4.941732E+03 -3.279661E+04  1.711050E+04  2.525858E+04  1.537496E+04
       433  25 -1.381044E+06 -2.305467E+05 -2.542513E+05  4.635573E+04  9.040369E+04  5.607996E+03
       433  26 -1.328001E+06 -1.124082E+05 -1.741710E+05  1.170170E+04  5.603906E+04  1.649578E+04
       433  27 -1.308819E+06 -1.123078E+05 -1.459648E+05  3.686293E+03  2.169536E+04  1.536652E+04
       434   1 -4.075450E+05  9.499468E+04  7.480608E+04  1.549525E+04 -2.025285E+04 -1.280182E+04
       434   2 -4.430923E+05  9.703604E+04  7.874715E+04  3.594256E+03 -1.372955E+04 -1.219468E+04
       434   3 -4.825570E+05  8.692144E+04  7.539561E+04  1.968281E+04 -7.210317E+03 -1.066870E+04
       434   4 -8.302938E+05 -9.911106E+03 -2.676658E+04  1.749349E+04 -2.017781E+04 -1.280229E+04
       434   5 -8.282869E+05  1.470969E+03 -1.362944E+04  3.483864E+03 -1.319594E+04 -1.219367E+04
       434   6 -8.302820E+05  6.128916E+02 -8.107417E+03  1.746504E+04 -6.217745E+03 -1.066602E+04
       434   7 -1.252879E+06 -1.148299E+05 -1.283520E+05  1.949026E+04 -2.010282E+04 -1.280276E+04
       434   8 -1.213346E+06 -9.410489E+04 -1.060166E+05  3.373444E+03 -1.266265E+04 -1.219267E+04
       434   9 -1.177896E+06 -8.570445E+04 -9.161903E+04  1.524842E+04 -5.225726E+03 -1.066334E+04
       434  10 -4.075455E+05  9.499439E+04  7.480500E+04  1.549504E+04  6.134129E-09 -3.897475E-09
       434  11 -4.430925E+05  9.703583E+04  7.874652E+04  3.594121E+03 -2.115203E-09  5.355396E-09
       434  12 -4.825570E+05  8.692131E+04  7.539530E+04  1.968275E+04 -2.847356E-09  8.370787E-09
       434  13 -8.302943E+05 -9.911392E+03 -2.676766E+04  1.749328E+04  1.591595E-09  8.601083E-09
       434  14 -8.282871E+05  1.470763E+03 -1.363005E+04  3.483734E+03  2.689753E-09 -1.403600E-08
       434  15 -8.302820E+05  6.127590E+02 -8.107703E+03  1.746498E+04 -6.870361E-10  8.232618E-09
       434  16 -1.252879E+06 -1.148302E+05 -1.283530E+05  1.949005E+04 -5.763217E-09 -6.265192E-09
       434  17 -1.213346E+06 -9.410509E+04 -1.060171E+05  3.373320E+03  3.057735E-09 -2.611356E-09
       434  18 -1.177896E+06 -8.570458E+04 -9.161930E+04  1.524837E+04  2.879457E-09  2.924868E-09
       434  19 -4.075450E+05  9.499468E+04  7.480608E+04  1.549525E+04  2.025285E+04  1.280182E+04
       434  20 -4.430923E+05  9.703604E+04  7.874715E+04  3.594256E+03  1.372955E+04  1.219468E+04
       434  21 -4.825570E+05  8.692144E+04  7.539561E+04  1.968281E+04  7.210317E+03  1.066870E+04
       434  22 -8.302938E+05 -9.911106E+03 -2.676658E+04  1.749349E+04  2.017781E+04  1.280229E+04
       434  23 -8.282869E+05  1.470969E+03 -1.362944E+04  3.483864E+03  1.319594E+04  1.219367E+04
       434  24 -8.302820E+05  6.128916E+02 -8.107417E+03  1.746504E+04  6.217745E+03  1.066602E+04
       434  25 -1.252879E+06 -1.148299E+05 -1.283520E+05  1.949026E+04  2.010282E+04  1.280276E+04
       434  26 -1.213346E+06 -9.410489E+04 -1.060166E+05  3.373444E+03  1.266265E+04  1.219267E+04
       434  27 -1.177896E+06 -8.570445E+04 -9.161903E+04  1.524842E+04  5.225726E+03  1.066334E+04
       435   1 -5.332043E+05  7.257419E+04  6.462119E+04  1.816174E+04 -5.678585E+03 -9.632652E+03
       435   2 -5.714950E+05  6.412653E+04  5.830256E+04  3.858874E+03 -3.964912E+03 -8.129006E+03
       435   3 -6.104509E+05  5.456994E+04  5.055481E+04  1.841020E+04 -2.252442E+03 -6.542951E+03
       435   4 -8.295339E+05 -9.334911E+02 -6.362017E+03  1.766856E+04 -4.943212E+03 -9.630607E+03
       435   5 -8.291948E+05  1.823216E+02 -3.509410E+03  3.239274E+03 -3.188805E+03 -8.126635E+03
       435   6 -8.295290E+05  1.819979E+02 -2.114549E+03  1.766493E+04 -1.435495E+03 -6.540236E+03
       435   7 -1.125783E+06 -7.444755E+04 -7.735143E+04  1.717554E+04 -4.208187E+03 -9.628562E+03
       435   8 -1.086834E+06 -6.376671E+04 -6.532609E+04  2.619882E+03 -2.413018E+03 -8.124266E+03
       435   9 -1.048563E+06 -5.420944E+04 -5.478732E+04  1.691989E+04 -6.188346E+02 -6.537522E+03
       435  10 -5.332043E+05  7.257408E+04  6.462095E+04  1.816170E+04  1.189192E-09 -2.611867E-09
       435  11 -5.714951E+05  6.412645E+04  5.830241E+04  3.858848E+03 -1.436354E-09 -3.316475E-09
       435  12 -6.104509E+05  5.456989E+04  5.055472E+04  1.841018E+04  2.633599E-09 -3.799893E-09
       435  13 -8.295339E+05 -9.335972E+02 -6.362237E+03  1.766852E+04 -5.377026E-10 -1.911199E-10
       435  14 -8.291948E+05  1.822479E+02 -3.509553E+03  3.239253E+03 -5.824236E-10 -6.915749E-09
       435  15 -8.295290E+05  1.819515E+02 -2.114633E+03  1.766492E+04  3.303870E-10 -4.552447E-09
       435  16 -1.125783E+06 -7.444765E+04 -7.735164E+04  1.717551E+04 -3.420868E-09 -3.131069E-09
       435  17 -1.086834E+06 -6.376679E+04 -6.532622E+04  2.619866E+03  1.491945E-09  5.040815E-09
       435  18 -1.048563E+06 -5.420949E+04 -5.478740E+04  1.691989E+04 -7.730231E-10  1.035934E-08
       435  19 -5.332043E+05  7.257419E+04  6.462119E+04  1.816174E+04  5.678585E+03  9.632652E+03
       435  20 -5.714950E+05  6.412653E+04  5.830256E+04  3.858874E+03  3.964912E+03  8.129006E+03
       435  21 -6.104509E+05  5.456994E+04  5.055481E+04  1.841020E+04  2.252442E+03  6.542951E+03
       435  22 -8.295339E+05 -9.334911E+02 -6.362017E+03  1.766856E+04  4.943212E+03  9.630607E+03
       435  23 -8.291948E+05  1.823216E+02 -3.509410E+03  3.239274E+03  3.188805E+03  8.126635E+03
       435  24 -8.295290E+05  1.819979E+02 -2.114549E+03  1.766493E+04  1.435495E+03  6.540236E+03
       435  25 -1.125783E+06 -7.444755E+04 -7.735143E+04  1.717554E+04  4.208187E+03  9.628562E+03
       435  26 -1.086834E+06 -6.376671E+04 -6.532609E+04  2.619882E+03  2.413018E+03  8.124266E+03
       435  27 -1.048563E+06 -5.420944E+04 -5.478732E+04  1.691989E+04  6.188346E+02  6.537522E+03
       436   1 -6.629881E+05  4.130702E+04  3.811987E+04  1.821823E+04 -1.897783E+03 -5.604830E+03
       436   2 -7.021386E+05  3.160633E+04  2.936969E+04  3.449318E+03 -1.347870E+03 -4.008596E+03
       436   3 -7.415935E+05  2.196193E+04  2.022206E+04  1.804161E+04 -7.984709E+02 -2.400068E+03
       436   4 -8.294419E+05  2.478160E+01 -1.691381E+03  1.777893E+04 -1.097844E+03 -5.602068E+03
       436   5 -8.292874E+05  5.336012E+01 -1.131044E+03  3.097948E+03 -5.418921E+02 -4.005715E+03
       436   6 -8.294399E+05  1.372579E+02 -9.723435E+02  1.777853E+04  1.358159E+01 -2.397061E+03
       436   7 -9.958703E+05 -4.125946E+04 -4.150459E+04  1.733973E+04 -2.981188E+02 -5.599308E+03
       436   8 -9.564214E+05 -3.150078E+04 -3.163292E+04  2.746636E+03  2.639216E+02 -4.002835E+03
       436   9 -9.172791E+05 -2.168798E+04 -2.216730E+04  1.751549E+04  8.255195E+02 -2.394055E+03
       436  10 -6.629881E+05  4.130698E+04  3.811981E+04  1.821822E+04  1.200802E-09 -8.702413E-09
       436  11 -7.021386E+05  3.160631E+04  2.936965E+04  3.449314E+03 -3.715163E-09  5.732896E-09
       436  12 -7.415935E+05  2.196192E+04  2.022205E+04  1.804160E+04 -2.904473E-09  2.159296E-09
       436  13 -8.294419E+05  2.474758E+01 -1.691442E+03  1.777892E+04  5.536963E-10  1.706988E-09
       436  14 -8.292874E+05  5.334282E+01 -1.131075E+03  3.097946E+03 -2.523554E-09 -7.301283E-09
       436  15 -8.294399E+05  1.372518E+02 -9.723543E+02  1.777853E+04  3.179623E-10 -8.464767E-09
       436  16 -9.958703E+05 -4.125950E+04 -4.150465E+04  1.733973E+04 -2.169521E-09  7.020074E-09
       436  17 -9.564214E+05 -3.150080E+04 -3.163295E+04  2.746637E+03  6.034796E-09  1.388427E-08
       436  18 -9.172791E+05 -2.168798E+04 -2.216731E+04  1.751549E+04  3.658187E-09 -3.163612E-10
       436  19 -6.629881E+05  4.130702E+04  3.811987E+04  1.821823E+04  1.897783E+03  5.604830E+03
       436  20 -7.021386E+05  3.160633E+04  2.936969E+04  3.449318E+03  1.347870E+03  4.008596E+03
       436  21 -7.415935E+05  2.196193E+04  2.022206E+04  1.804161E+04  7.984709E+02  2.400068E+03
       436  22 -8.294419E+05  2.478160E+01 -1.691381E+03  1.777893E+04  1.097844E+03  5.602068E+03
       436  23 -8.292874E+05  5.336012E+01 -1.131044E+03  3.097948E+03  5.418921E+02  4.005715E+03
       436  24 -8.294399E+05  1.372579E+02 -9.723435E+02  1.777853E+04 -1.358159E+01  2.397061E+03
       436  25 -9.958703E+05 -4.125946E+04 -4.150459E+04  1.733973E+04  2.981188E+02  5.599308E+03
       436  26 -9.564214E+05 -3.150078E+04 -3.163292E+04  2.746636E+03 -2.639216E+02  4.002835E+03
       436  27 -9.172791E+05 -2.168798E+04 -2.216730E+04  1.751549E+04 -8.255195E+02  2.394055E+03
       437   1 -7.948266E+05  8.707152E+03  7.179522E+03  1.788779E+04 -6.242482E+02 -1.459872E+03
       437   2 -8.341677E+05 -1.152783E+03 -2.476769E+03  3.030186E+03  1.870689E+01  1.543340E+02
       437   3 -8.738587E+05 -1.098538E+04 -1.260416E+04  1.769618E+04  6.616422E+02  1.764639E+03
       437   4 -8.294480E+05  1.394232E+02 -1.005430E+03  1.781451E+04  1.882827E+02 -1.456829E+03
       437   5 -8.292724E+05  6.221384E+01 -1.302383E+03  3.052953E+03  8.292453E+02  1.573626E+02
       437   6 -8.294483E+05  1.265705E+01 -2.069098E+03  1.781498E+04  1.470229E+03  1.767659E+03
       437   7 -8.640682E+05 -8.428392E+03 -9.190462E+03  1.774122E+04  1.000768E+03 -1.453786E+03
       437   8 -8.243770E+05  1.277210E+03 -1.279959E+02  3.075721E+03  1.639790E+03  1.603912E+02
       437   9 -7.850361E+05  1.101055E+04  8.465831E+03  1.793379E+04  2.278874E+03  1.770679E+03
       437  10 -7.948266E+05  8.707150E+03  7.179517E+03  1.788779E+04 -7.385960E-09  1.078011E-10
       437  11 -8.341677E+05 -1.152783E+03 -2.476769E+03  3.030186E+03 -5.401359E-09 -5.496904E-09
       437  12 -8.738587E+05 -1.098538E+04 -1.260417E+04  1.769618E+04 -2.298665E-09 -3.128065E-09
       437  13 -8.294480E+05  1.394209E+02 -1.005434E+03  1.781451E+04 -6.734601E-10  5.988351E-09
       437  14 -8.292724E+05  6.221363E+01 -1.302384E+03  3.052953E+03 -1.547105E-09 -7.805087E-09
       437  15 -8.294483E+05  1.265311E+01 -2.069108E+03  1.781498E+04  4.723361E-10 -5.451010E-09
       437  16 -8.640682E+05 -8.428394E+03 -9.190468E+03  1.774122E+04  4.846632E-09 -2.838160E-09
       437  17 -8.243770E+05  1.277209E+03 -1.280010E+02  3.075720E+03  6.487247E-09 -1.934843E-08
       437  18 -7.850361E+05  1.101055E+04  8.465815E+03  1.793379E+04  3.945893E-09 -5.908923E-09
       437  19 -7.948266E+05  8.707152E+03  7.179522E+03  1.788779E+04  6.242482E+02  1.459872E+03
       437  20 -8.341677E+05 -1.152783E+03 -2.476769E+03  3.030186E+03 -1.870689E+01 -1.543340E+02
       437  21 -8.738587E+05 -1.098538E+04 -1.260416E+04  1.769618E+04 -6.616422E+02 -1.764639E+03
       437  22 -8.294480E+05  1.394232E+02 -1.005430E+03  1.781451E+04 -1.882827E+02  1.456829E+03
       437  23 -8.292724E+05  6.221384E+01 -1.302383E+03  3.052953E+03 -8.292453E+02 -1.573626E+02
       437  24 -8.294483E+05  1.265705E+01 -2.069098E+03  1.781498E+04 -1.470229E+03 -1.767659E+03
       437  25 -8.640682E+05 -8.428392E+03 -9.190462E+03  1.774122E+04 -1.000768E+03  1.453786E+03
       437  26 -8.243770E+05  1.277210E+03 -1.279959E+02  3.075721E+03 -1.639790E+03 -1.603912E+02
       437  27 -7.850361E+05  1.101055E+04  8.465831E+03  1.793379E+04 -2.278874E+03 -1.770679E+03
       438   1 -9.271760E+05 -2.404255E+04 -2.616485E+04  1.728658E+04  1.064481E+03  2.711670E+03
       438   2 -9.659906E+05 -3.372993E+04 -3.724699E+04  2.764935E+03  3.300954E+03  4.323839E+03
       438   3 -1.005704E+06 -4.487451E+04 -5.020394E+04  1.757929E+04  5.538000E+03  5.874040E+03
       438   4 -8.295710E+05  2.082048E+02 -2.627422E+03  1.777130E+04  1.887747E+03  2.714706E+03
       438   5 -8.291255E+05  2.391775E+02 -4.410782E+03  3.105990E+03  4.093452E+03  4.326650E+03
       438   6 -8.295745E+05 -1.181183E+03 -8.046959E+03  1.777628E+04  6.299868E+03  5.876636E+03
       438   7 -7.319573E+05  2.445826E+04  2.090932E+04  1.825610E+04  2.711144E+03  2.717742E+03
       438   8 -6.922432E+05  3.420692E+04  2.842410E+04  3.447105E+03  4.886123E+03  4.329461E+03
       438   9 -6.534161E+05  4.250989E+04  3.410784E+04  1.797330E+04  7.061951E+03  5.879232E+03
       438  10 -9.271760E+05 -2.404256E+04 -2.616486E+04  1.728658E+04 -2.131286E-09  1.213324E-09
       438  11 -9.659906E+05 -3.372995E+04 -3.724705E+04  2.764923E+03 -1.679551E-10 -7.342994E-09
       438  12 -1.005705E+06 -4.487455E+04 -5.020407E+04  1.757926E+04  5.223521E-09  2.395052E-09
       438  13 -8.295710E+05  2.081960E+02 -2.627442E+03  1.777130E+04  5.416626E-10 -2.694042E-09
       438  14 -8.291255E+05  2.391529E+02 -4.410849E+03  3.105975E+03 -3.140578E-09 -3.291583E-09
       438  15 -8.295746E+05 -1.181230E+03 -8.047098E+03  1.777625E+04 -9.722901E-10  5.410157E-09
       438  16 -7.319573E+05  2.445825E+04  2.090930E+04  1.825609E+04 -4.376339E-10  6.679582E-09
       438  17 -6.922433E+05  3.420690E+04  2.842402E+04  3.447088E+03  1.018976E-09 -7.472275E-09
       438  18 -6.534162E+05  4.250984E+04  3.410768E+04  1.797327E+04 -5.968266E-09  1.204577E-08
       438  19 -9.271760E+05 -2.404255E+04 -2.616485E+04  1.728658E+04 -1.064481E+03 -2.711670E+03
       438  20 -9.659906E+05 -3.372993E+04 -3.724699E+04  2.764935E+03 -3.300954E+03 -4.323839E+03
       438  21 -1.005704E+06 -4.487451E+04 -5.020394E+04  1.757929E+04 -5.538000E+03 -5.874040E+03
       438  22 -8.295710E+05  2.082048E+02 -2.627422E+03  1.777130E+04 -1.887747E+03 -2.714706E+03
       438  23 -8.291255E+05  2.391775E+02 -4.410782E+03  3.105990E+03 -4.093452E+03 -4.326650E+03
       438  24 -8.295745E+05 -1.181183E+03 -8.046959E+03  1.777628E+04 -6.299868E+03 -5.876636E+03
       438  25 -7.319573E+05  2.445826E+04  2.090932E+04  1.825610E+04 -2.711144E+03 -2.717742E+03
       438  26 -6.922432E+05  3.420692E+04  2.842410E+04  3.447105E+03 -4.886123E+03 -4.329461E+03
       438  27 -6.534161E+05  4.250989E+04  3.410784E+04  1.797330E+04 -7.061951E+03 -5.879232E+03
       439   1 -1.059191E+06 -5.601658E+04 -6.523855E+04  1.525885E+04  6.944869E+03  6.906427E+03
       439   2 -1.095130E+06 -6.442320E+04 -8.135802E+04  3.493145E+03  1.615082E+04  8.491470E+03
       439   3 -1.136330E+06 -8.843946E+04 -1.074157E+05  2.054141E+04  2.535933E+04  9.339748E+03
       439   4 -8.305353E+05  7.745869E+02 -1.026820E+04  1.764335E+04  7.914222E+03  6.909657E+03
       439   5 -8.279432E+05  1.887341E+03 -1.725808E+04  3.258073E+03  1.675274E+04  8.493199E+03
       439   6 -8.305473E+05 -1.254166E+04 -3.392733E+04  1.768615E+04  2.559437E+04  9.340043E+03
       439   7 -6.018316E+05  5.756195E+04  4.469844E+04  2.002869E+04  8.883931E+03  6.912894E+03
       439   8 -5.606910E+05  6.819269E+04  4.683680E+04  3.022846E+03  1.735491E+04  8.494928E+03
       439   9 -5.246787E+05  6.334937E+04  3.955436E+04  1.482941E+04  2.582953E+04  9.340335E+03
       439  10 -1.059191E+06 -5.601664E+04 -6.523873E+04  1.525881E+04  1.078319E-08  3.991330E-09
       439  11 -1.095130E+06 -6.442335E+04 -8.135865E+04  3.493034E+03 -5.411177E-09  7.388377E-09
       439  12 -1.136331E+06 -8.843973E+04 -1.074170E+05  2.054122E+04 -6.130003E-09 -5.675474E-09
       439  13 -8.305354E+05  7.745188E+02 -1.026841E+04  1.764331E+04 -4.543538E-10 -4.222305E-09
       439  14 -8.279435E+05  1.887188E+03 -1.725874E+04  3.257959E+03 -1.512922E-09  5.076859E-09
       439  15 -8.305480E+05 -1.254193E+04 -3.392872E+04  1.768596E+04 -1.138834E-10 -4.979846E-09
       439  16 -6.018317E+05  5.756188E+04  4.469820E+04  2.002864E+04 -1.213877E-08  4.707170E-09
       439  17 -5.606913E+05  6.819253E+04  4.683610E+04  3.022727E+03  7.115835E-09 -1.158405E-08
       439  18 -5.246794E+05  6.334909E+04  3.955294E+04  1.482922E+04  8.470183E-09  6.198245E-10
       439  19 -1.059191E+06 -5.601658E+04 -6.523855E+04  1.525885E+04 -6.944869E+03 -6.906427E+03
       439  20 -1.095130E+06 -6.442320E+04 -8.135802E+04  3.493145E+03 -1.615082E+04 -8.491470E+03
       439  21 -1.136330E+06 -8.843946E+04 -1.074157E+05  2.054141E+04 -2.535933E+04 -9.339748E+03
       439  22 -8.305353E+05  7.745869E+02 -1.026820E+04  1.764335E+04 -7.914222E+03 -6.909657E+03
       439  23 -8.279432E+05  1.887341E+03 -1.725808E+04  3.258073E+03 -1.675274E+04 -8.493199E+03
       439  24 -8.305473E+05 -1.254166E+04 -3.392733E+04  1.768615E+04 -2.559437E+04 -9.340043E+03
       439  25 -6.018316E+05  5.756195E+04  4.469844E+04  2.002869E+04 -8.883931E+03 -6.912894E+03
       439  26 -5.606910E+05  6.819269E+04  4.683680E+04  3.022846E+03 -1.735491E+04 -8.494928E+03
       439  27 -5.246787E+05  6.334937E+04  3.955436E+04  1.482941E+04 -2.582953E+04 -9.340335E+03
       440   1 -1.195674E+06 -8.243368E+04 -1.271740E+05  6.281740E+02  2.899498E+04  1.161054E+04
       440   2 -1.211987E+06 -8.053285E+04 -1.609660E+05  1.367168E+04  6.972748E+04  1.291954E+04
       440   3 -1.270946E+06 -2.278068E+05 -2.586127E+05  5.464640E+04  1.104825E+05  4.562373E+03
       440   4 -8.386744E+05  6.286159E+03 -4.157580E+04  1.735486E+04  3.203739E+04  1.162011E+04
       440   5 -8.178124E+05  1.721449E+04 -6.649620E+04  3.555871E+03  6.792420E+04  1.291272E+04
       440   6 -8.387301E+05 -1.201411E+05 -1.518747E+05  1.768991E+04  1.038364E+05  4.538354E+03
       440   7 -4.815567E+05  9.499774E+04  4.401358E+04  3.409114E+04  3.508155E+04  1.162985E+04
       440   8 -4.234952E+05  1.149509E+05  2.796272E+04 -6.566498E+03  6.611976E+04  1.290597E+04
       440   9 -4.063408E+05 -1.248413E+04 -4.514961E+04 -1.929249E+04  9.718563E+04  4.515139E+03
       440  10 -1.195675E+06 -8.243405E+04 -1.271759E+05  6.279027E+02  9.819898E-09 -6.396231E-09
       440  11 -1.211992E+06 -8.053434E+04 -1.609755E+05  1.367095E+04  7.799017E-09  4.130905E-11
       440  12 -1.270959E+06 -2.278101E+05 -2.586357E+05  5.464600E+04  4.773055E-09  9.192115E-09
       440  13 -8.386755E+05  6.285738E+03 -4.157799E+04  1.735456E+04 -1.119718E-09 -4.205370E-09
       440  14 -8.178174E+05  1.721307E+04 -6.650520E+04  3.555164E+03  5.828885E-10  3.234889E-09
       440  15 -8.387417E+05 -1.201440E+05 -1.518950E+05  1.768953E+04 -9.577374E-11  3.308565E-09
       440  16 -4.815581E+05  9.499726E+04  4.401101E+04  3.409081E+04 -1.107952E-08  4.140582E-09
       440  17 -4.234999E+05  1.149496E+05  2.795418E+04 -6.567185E+03 -6.082189E-09  8.482788E-09
       440  18 -4.063510E+05 -1.248669E+04 -4.516741E+04 -1.929284E+04 -3.873250E-09  8.665125E-11
       440  19 -1.195674E+06 -8.243368E+04 -1.271740E+05  6.281740E+02 -2.899498E+04 -1.161054E+04
       440  20 -1.211987E+06 -8.053285E+04 -1.609660E+05  1.367168E+04 -6.972748E+04 -1.291954E+04
       440  21 -1.270946E+06 -2.278068E+05 -2.586127E+05  5.464640E+04 -1.104825E+05 -4.562373E+03
       440  22 -8.386744E+05  6.286159E+03 -4.157580E+04  1.735486E+04 -3.203739E+04 -1.162011E+04
       440  23 -8.178124E+05  1.721449E+04 -6.649620E+04  3.555871E+03 -6.792420E+04 -1.291272E+04
       440  24 -8.387301E+05 -1.201411E+05 -1.518747E+05  1.768991E+04 -1.038364E+05 -4.538354E+03
       440  25 -4.815567E+05  9.499774E+04  4.401358E+04  3.409114E+04 -3.508155E+04 -1.162985E+04
       440  26 -4.234952E+05  1.149509E+05  2.796272E+04 -6.566498E+03 -6.611976E+04 -1.290597E+04
       440  27 -4.063408E+05 -1.248413E+04 -4.514961E+04 -1.929249E+04 -9.718563E+04 -4.515139E+03
