    1C
    1UUSER                                                              
    1UDATE              11.october.2022                                 
    1UTIME              17:44:32                                        
    1UHOST                                                              
    1UPGM               CalculiX                                        
    1UVERSION           Version 2.20                             
    1UCOMPILETIME       Sun Jul 31 18:08:37 CEST 2022                    
    1UDIR                                                               
    1UDBN                                                               
    1UMAT    1MESH_MATERIAL                                             
    2C                           841                                     1
 -1         1 0.00000E+00 0.00000E+00 0.00000E+00
 -1         2 1.66667E-02 0.00000E+00 0.00000E+00
 -1         3 3.33333E-02 0.00000E+00 0.00000E+00
 -1         4 5.00000E-02 0.00000E+00 0.00000E+00
 -1         5 6.66667E-02 0.00000E+00 0.00000E+00
 -1         8 0.00000E+00 6.25000E-03 0.00000E+00
 -1         9 1.66667E-02 6.25000E-03 0.00000E+00
 -1        10 3.33333E-02 6.25000E-03 0.00000E+00
 -1        11 5.00000E-02 6.25000E-03 0.00000E+00
 -1        12 6.66667E-02 6.25000E-03 0.00000E+00
 -1        15 0.00000E+00 1.25000E-02 0.00000E+00
 -1        16 1.66667E-02 1.25000E-02 0.00000E+00
 -1        17 3.33333E-02 1.25000E-02 0.00000E+00
 -1        18 5.00000E-02 1.25000E-02 0.00000E+00
 -1        19 6.66667E-02 1.25000E-02 0.00000E+00
 -1        20 8.33333E-02 1.25000E-02 0.00000E+00
 -1        21 1.00000E-01 1.25000E-02 0.00000E+00
 -1        22 0.00000E+00 1.87500E-02 0.00000E+00
 -1        23 1.66667E-02 1.87500E-02 0.00000E+00
 -1        24 3.33333E-02 1.87500E-02 0.00000E+00
 -1        25 5.00000E-02 1.87500E-02 0.00000E+00
 -1        26 6.66667E-02 1.87500E-02 0.00000E+00
 -1        27 8.33333E-02 1.87500E-02 0.00000E+00
 -1        28 1.00000E-01 1.87500E-02 0.00000E+00
 -1        29 0.00000E+00 2.50000E-02 0.00000E+00
 -1        30 1.66667E-02 2.50000E-02 0.00000E+00
 -1        31 3.33333E-02 2.50000E-02 0.00000E+00
 -1        32 5.00000E-02 2.50000E-02 0.00000E+00
 -1        33 6.66667E-02 2.50000E-02 0.00000E+00
 -1        34 8.33333E-02 2.50000E-02 0.00000E+00
 -1        35 1.00000E-01 2.50000E-02 0.00000E+00
 -1        36 1.04167E-03 0.00000E+00 0.00000E+00
 -1        37 2.08333E-03 0.00000E+00 0.00000E+00
 -1        38 3.12500E-03 0.00000E+00 0.00000E+00
 -1        39 4.16667E-03 0.00000E+00 0.00000E+00
 -1        40 5.20833E-03 0.00000E+00 0.00000E+00
 -1        41 6.25000E-03 0.00000E+00 0.00000E+00
 -1        42 7.29167E-03 0.00000E+00 0.00000E+00
 -1        43 8.33333E-03 0.00000E+00 0.00000E+00
 -1        44 9.37500E-03 0.00000E+00 0.00000E+00
 -1        45 1.04167E-02 0.00000E+00 0.00000E+00
 -1        46 1.14583E-02 0.00000E+00 0.00000E+00
 -1        47 1.25000E-02 0.00000E+00 0.00000E+00
 -1        48 1.35417E-02 0.00000E+00 0.00000E+00
 -1        49 1.45833E-02 0.00000E+00 0.00000E+00
 -1        50 1.56250E-02 0.00000E+00 0.00000E+00
 -1        51 0.00000E+00 1.04167E-03 0.00000E+00
 -1        52 0.00000E+00 2.08333E-03 0.00000E+00
 -1        53 0.00000E+00 3.12500E-03 0.00000E+00
 -1        54 0.00000E+00 4.16667E-03 0.00000E+00
 -1        55 0.00000E+00 5.20833E-03 0.00000E+00
 -1        56 1.04167E-03 3.90630E-04 0.00000E+00
 -1        57 2.08333E-03 7.81250E-04 0.00000E+00
 -1        58 3.12500E-03 1.17188E-03 0.00000E+00
 -1        59 4.16667E-03 1.56250E-03 0.00000E+00
 -1        60 5.20833E-03 1.95312E-03 0.00000E+00
 -1        61 6.25000E-03 2.34375E-03 0.00000E+00
 -1        62 7.29167E-03 2.73438E-03 0.00000E+00
 -1        63 8.33333E-03 3.12500E-03 0.00000E+00
 -1        64 9.37500E-03 3.51563E-03 0.00000E+00
 -1        65 1.04167E-02 3.90625E-03 0.00000E+00
 -1        66 1.14583E-02 4.29688E-03 0.00000E+00
 -1        67 1.25000E-02 4.68750E-03 0.00000E+00
 -1        68 1.35417E-02 5.07813E-03 0.00000E+00
 -1        69 1.45833E-02 5.46875E-03 0.00000E+00
 -1        70 1.56250E-02 5.85938E-03 0.00000E+00
 -1        71 1.77083E-02 0.00000E+00 0.00000E+00
 -1        72 1.87500E-02 0.00000E+00 0.00000E+00
 -1        73 1.97917E-02 0.00000E+00 0.00000E+00
 -1        74 2.08333E-02 0.00000E+00 0.00000E+00
 -1        75 2.18750E-02 0.00000E+00 0.00000E+00
 -1        76 2.29167E-02 0.00000E+00 0.00000E+00
 -1        77 2.39583E-02 0.00000E+00 0.00000E+00
 -1        78 2.50000E-02 0.00000E+00 0.00000E+00
 -1        79 2.60417E-02 0.00000E+00 0.00000E+00
 -1        80 2.70833E-02 0.00000E+00 0.00000E+00
 -1        81 2.81250E-02 0.00000E+00 0.00000E+00
 -1        82 2.91667E-02 0.00000E+00 0.00000E+00
 -1        83 3.02083E-02 0.00000E+00 0.00000E+00
 -1        84 3.12500E-02 0.00000E+00 0.00000E+00
 -1        85 3.22917E-02 0.00000E+00 0.00000E+00
 -1        86 1.66667E-02 1.04167E-03 0.00000E+00
 -1        87 1.66667E-02 2.08333E-03 0.00000E+00
 -1        88 1.66667E-02 3.12500E-03 0.00000E+00
 -1        89 1.66667E-02 4.16667E-03 0.00000E+00
 -1        90 1.66667E-02 5.20833E-03 0.00000E+00
 -1        91 1.77083E-02 3.90630E-04 0.00000E+00
 -1        92 1.87500E-02 7.81250E-04 0.00000E+00
 -1        93 1.97917E-02 1.17188E-03 0.00000E+00
 -1        94 2.08333E-02 1.56250E-03 0.00000E+00
 -1        95 2.18750E-02 1.95312E-03 0.00000E+00
 -1        96 2.29167E-02 2.34375E-03 0.00000E+00
 -1        97 2.39583E-02 2.73438E-03 0.00000E+00
 -1        98 2.50000E-02 3.12500E-03 0.00000E+00
 -1        99 2.60417E-02 3.51563E-03 0.00000E+00
 -1       100 2.70833E-02 3.90625E-03 0.00000E+00
 -1       101 2.81250E-02 4.29688E-03 0.00000E+00
 -1       102 2.91667E-02 4.68750E-03 0.00000E+00
 -1       103 3.02083E-02 5.07813E-03 0.00000E+00
 -1       104 3.12500E-02 5.46875E-03 0.00000E+00
 -1       105 3.22917E-02 5.85938E-03 0.00000E+00
 -1       106 3.43750E-02 0.00000E+00 0.00000E+00
 -1       107 3.54167E-02 0.00000E+00 0.00000E+00
 -1       108 3.64583E-02 0.00000E+00 0.00000E+00
 -1       109 3.75000E-02 0.00000E+00 0.00000E+00
 -1       110 3.85417E-02 0.00000E+00 0.00000E+00
 -1       111 3.95833E-02 0.00000E+00 0.00000E+00
 -1       112 4.06250E-02 0.00000E+00 0.00000E+00
 -1       113 4.16667E-02 0.00000E+00 0.00000E+00
 -1       114 4.27083E-02 0.00000E+00 0.00000E+00
 -1       115 4.37500E-02 0.00000E+00 0.00000E+00
 -1       116 4.47917E-02 0.00000E+00 0.00000E+00
 -1       117 4.58333E-02 0.00000E+00 0.00000E+00
 -1       118 4.68750E-02 0.00000E+00 0.00000E+00
 -1       119 4.79167E-02 0.00000E+00 0.00000E+00
 -1       120 4.89583E-02 0.00000E+00 0.00000E+00
 -1       121 3.33333E-02 1.04167E-03 0.00000E+00
 -1       122 3.33333E-02 2.08333E-03 0.00000E+00
 -1       123 3.33333E-02 3.12500E-03 0.00000E+00
 -1       124 3.33333E-02 4.16667E-03 0.00000E+00
 -1       125 3.33333E-02 5.20833E-03 0.00000E+00
 -1       126 3.43750E-02 3.90630E-04 0.00000E+00
 -1       127 3.54167E-02 7.81250E-04 0.00000E+00
 -1       128 3.64583E-02 1.17188E-03 0.00000E+00
 -1       129 3.75000E-02 1.56250E-03 0.00000E+00
 -1       130 3.85417E-02 1.95312E-03 0.00000E+00
 -1       131 3.95833E-02 2.34375E-03 0.00000E+00
 -1       132 4.06250E-02 2.73438E-03 0.00000E+00
 -1       133 4.16667E-02 3.12500E-03 0.00000E+00
 -1       134 4.27083E-02 3.51563E-03 0.00000E+00
 -1       135 4.37500E-02 3.90625E-03 0.00000E+00
 -1       136 4.47917E-02 4.29688E-03 0.00000E+00
 -1       137 4.58333E-02 4.68750E-03 0.00000E+00
 -1       138 4.68750E-02 5.07813E-03 0.00000E+00
 -1       139 4.79167E-02 5.46875E-03 0.00000E+00
 -1       140 4.89583E-02 5.85938E-03 0.00000E+00
 -1       141 5.10417E-02 0.00000E+00 0.00000E+00
 -1       142 5.20833E-02 0.00000E+00 0.00000E+00
 -1       143 5.31250E-02 0.00000E+00 0.00000E+00
 -1       144 5.41667E-02 0.00000E+00 0.00000E+00
 -1       145 5.52083E-02 0.00000E+00 0.00000E+00
 -1       146 5.62500E-02 0.00000E+00 0.00000E+00
 -1       147 5.72917E-02 0.00000E+00 0.00000E+00
 -1       148 5.83333E-02 0.00000E+00 0.00000E+00
 -1       149 5.93750E-02 0.00000E+00 0.00000E+00
 -1       150 6.04167E-02 0.00000E+00 0.00000E+00
 -1       151 6.14583E-02 0.00000E+00 0.00000E+00
 -1       152 6.25000E-02 0.00000E+00 0.00000E+00
 -1       153 6.35417E-02 0.00000E+00 0.00000E+00
 -1       154 6.45833E-02 0.00000E+00 0.00000E+00
 -1       155 6.56250E-02 0.00000E+00 0.00000E+00
 -1       156 5.00000E-02 1.04167E-03 0.00000E+00
 -1       157 5.00000E-02 2.08333E-03 0.00000E+00
 -1       158 5.00000E-02 3.12500E-03 0.00000E+00
 -1       159 5.00000E-02 4.16667E-03 0.00000E+00
 -1       160 5.00000E-02 5.20833E-03 0.00000E+00
 -1       161 5.10417E-02 3.90630E-04 0.00000E+00
 -1       162 5.20833E-02 7.81250E-04 0.00000E+00
 -1       163 5.31250E-02 1.17188E-03 0.00000E+00
 -1       164 5.41667E-02 1.56250E-03 0.00000E+00
 -1       165 5.52083E-02 1.95312E-03 0.00000E+00
 -1       166 5.62500E-02 2.34375E-03 0.00000E+00
 -1       167 5.72917E-02 2.73438E-03 0.00000E+00
 -1       168 5.83333E-02 3.12500E-03 0.00000E+00
 -1       169 5.93750E-02 3.51563E-03 0.00000E+00
 -1       170 6.04167E-02 3.90625E-03 0.00000E+00
 -1       171 6.14583E-02 4.29688E-03 0.00000E+00
 -1       172 6.25000E-02 4.68750E-03 0.00000E+00
 -1       173 6.35417E-02 5.07813E-03 0.00000E+00
 -1       174 6.45833E-02 5.46875E-03 0.00000E+00
 -1       175 6.56250E-02 5.85938E-03 0.00000E+00
 -1       191 6.66667E-02 1.04167E-03 0.00000E+00
 -1       192 6.66667E-02 2.08333E-03 0.00000E+00
 -1       193 6.66667E-02 3.12500E-03 0.00000E+00
 -1       194 6.66667E-02 4.16667E-03 0.00000E+00
 -1       195 6.66667E-02 5.20833E-03 0.00000E+00
 -1       251 1.04167E-03 6.25000E-03 0.00000E+00
 -1       252 2.08333E-03 6.25000E-03 0.00000E+00
 -1       253 3.12500E-03 6.25000E-03 0.00000E+00
 -1       254 4.16667E-03 6.25000E-03 0.00000E+00
 -1       255 5.20833E-03 6.25000E-03 0.00000E+00
 -1       256 6.25000E-03 6.25000E-03 0.00000E+00
 -1       257 7.29167E-03 6.25000E-03 0.00000E+00
 -1       258 8.33333E-03 6.25000E-03 0.00000E+00
 -1       259 9.37500E-03 6.25000E-03 0.00000E+00
 -1       260 1.04167E-02 6.25000E-03 0.00000E+00
 -1       261 1.14583E-02 6.25000E-03 0.00000E+00
 -1       262 1.25000E-02 6.25000E-03 0.00000E+00
 -1       263 1.35417E-02 6.25000E-03 0.00000E+00
 -1       264 1.45833E-02 6.25000E-03 0.00000E+00
 -1       265 1.56250E-02 6.25000E-03 0.00000E+00
 -1       266 0.00000E+00 7.29167E-03 0.00000E+00
 -1       267 0.00000E+00 8.33333E-03 0.00000E+00
 -1       268 0.00000E+00 9.37500E-03 0.00000E+00
 -1       269 0.00000E+00 1.04167E-02 0.00000E+00
 -1       270 0.00000E+00 1.14583E-02 0.00000E+00
 -1       271 1.04167E-03 6.64063E-03 0.00000E+00
 -1       272 2.08333E-03 7.03125E-03 0.00000E+00
 -1       273 3.12500E-03 7.42188E-03 0.00000E+00
 -1       274 4.16667E-03 7.81250E-03 0.00000E+00
 -1       275 5.20833E-03 8.20313E-03 0.00000E+00
 -1       276 6.25000E-03 8.59375E-03 0.00000E+00
 -1       277 7.29167E-03 8.98438E-03 0.00000E+00
 -1       278 8.33333E-03 9.37500E-03 0.00000E+00
 -1       279 9.37500E-03 9.76562E-03 0.00000E+00
 -1       280 1.04167E-02 1.01562E-02 0.00000E+00
 -1       281 1.14583E-02 1.05469E-02 0.00000E+00
 -1       282 1.25000E-02 1.09375E-02 0.00000E+00
 -1       283 1.35417E-02 1.13281E-02 0.00000E+00
 -1       284 1.45833E-02 1.17188E-02 0.00000E+00
 -1       285 1.56250E-02 1.21094E-02 0.00000E+00
 -1       286 1.77083E-02 6.25000E-03 0.00000E+00
 -1       287 1.87500E-02 6.25000E-03 0.00000E+00
 -1       288 1.97917E-02 6.25000E-03 0.00000E+00
 -1       289 2.08333E-02 6.25000E-03 0.00000E+00
 -1       290 2.18750E-02 6.25000E-03 0.00000E+00
 -1       291 2.29167E-02 6.25000E-03 0.00000E+00
 -1       292 2.39583E-02 6.25000E-03 0.00000E+00
 -1       293 2.50000E-02 6.25000E-03 0.00000E+00
 -1       294 2.60417E-02 6.25000E-03 0.00000E+00
 -1       295 2.70833E-02 6.25000E-03 0.00000E+00
 -1       296 2.81250E-02 6.25000E-03 0.00000E+00
 -1       297 2.91667E-02 6.25000E-03 0.00000E+00
 -1       298 3.02083E-02 6.25000E-03 0.00000E+00
 -1       299 3.12500E-02 6.25000E-03 0.00000E+00
 -1       300 3.22917E-02 6.25000E-03 0.00000E+00
 -1       301 1.66667E-02 7.29167E-03 0.00000E+00
 -1       302 1.66667E-02 8.33333E-03 0.00000E+00
 -1       303 1.66667E-02 9.37500E-03 0.00000E+00
 -1       304 1.66667E-02 1.04167E-02 0.00000E+00
 -1       305 1.66667E-02 1.14583E-02 0.00000E+00
 -1       306 1.77083E-02 6.64063E-03 0.00000E+00
 -1       307 1.87500E-02 7.03125E-03 0.00000E+00
 -1       308 1.97917E-02 7.42188E-03 0.00000E+00
 -1       309 2.08333E-02 7.81250E-03 0.00000E+00
 -1       310 2.18750E-02 8.20313E-03 0.00000E+00
 -1       311 2.29167E-02 8.59375E-03 0.00000E+00
 -1       312 2.39583E-02 8.98438E-03 0.00000E+00
 -1       313 2.50000E-02 9.37500E-03 0.00000E+00
 -1       314 2.60417E-02 9.76562E-03 0.00000E+00
 -1       315 2.70833E-02 1.01562E-02 0.00000E+00
 -1       316 2.81250E-02 1.05469E-02 0.00000E+00
 -1       317 2.91667E-02 1.09375E-02 0.00000E+00
 -1       318 3.02083E-02 1.13281E-02 0.00000E+00
 -1       319 3.12500E-02 1.17188E-02 0.00000E+00
 -1       320 3.22917E-02 1.21094E-02 0.00000E+00
 -1       321 3.43750E-02 6.25000E-03 0.00000E+00
 -1       322 3.54167E-02 6.25000E-03 0.00000E+00
 -1       323 3.64583E-02 6.25000E-03 0.00000E+00
 -1       324 3.75000E-02 6.25000E-03 0.00000E+00
 -1       325 3.85417E-02 6.25000E-03 0.00000E+00
 -1       326 3.95833E-02 6.25000E-03 0.00000E+00
 -1       327 4.06250E-02 6.25000E-03 0.00000E+00
 -1       328 4.16667E-02 6.25000E-03 0.00000E+00
 -1       329 4.27083E-02 6.25000E-03 0.00000E+00
 -1       330 4.37500E-02 6.25000E-03 0.00000E+00
 -1       331 4.47917E-02 6.25000E-03 0.00000E+00
 -1       332 4.58333E-02 6.25000E-03 0.00000E+00
 -1       333 4.68750E-02 6.25000E-03 0.00000E+00
 -1       334 4.79167E-02 6.25000E-03 0.00000E+00
 -1       335 4.89583E-02 6.25000E-03 0.00000E+00
 -1       336 3.33333E-02 7.29167E-03 0.00000E+00
 -1       337 3.33333E-02 8.33333E-03 0.00000E+00
 -1       338 3.33333E-02 9.37500E-03 0.00000E+00
 -1       339 3.33333E-02 1.04167E-02 0.00000E+00
 -1       340 3.33333E-02 1.14583E-02 0.00000E+00
 -1       341 3.43750E-02 6.64063E-03 0.00000E+00
 -1       342 3.54167E-02 7.03125E-03 0.00000E+00
 -1       343 3.64583E-02 7.42188E-03 0.00000E+00
 -1       344 3.75000E-02 7.81250E-03 0.00000E+00
 -1       345 3.85417E-02 8.20313E-03 0.00000E+00
 -1       346 3.95833E-02 8.59375E-03 0.00000E+00
 -1       347 4.06250E-02 8.98438E-03 0.00000E+00
 -1       348 4.16667E-02 9.37500E-03 0.00000E+00
 -1       349 4.27083E-02 9.76562E-03 0.00000E+00
 -1       350 4.37500E-02 1.01562E-02 0.00000E+00
 -1       351 4.47917E-02 1.05469E-02 0.00000E+00
 -1       352 4.58333E-02 1.09375E-02 0.00000E+00
 -1       353 4.68750E-02 1.13281E-02 0.00000E+00
 -1       354 4.79167E-02 1.17188E-02 0.00000E+00
 -1       355 4.89583E-02 1.21094E-02 0.00000E+00
 -1       356 5.10417E-02 6.25000E-03 0.00000E+00
 -1       357 5.20833E-02 6.25000E-03 0.00000E+00
 -1       358 5.31250E-02 6.25000E-03 0.00000E+00
 -1       359 5.41667E-02 6.25000E-03 0.00000E+00
 -1       360 5.52083E-02 6.25000E-03 0.00000E+00
 -1       361 5.62500E-02 6.25000E-03 0.00000E+00
 -1       362 5.72917E-02 6.25000E-03 0.00000E+00
 -1       363 5.83333E-02 6.25000E-03 0.00000E+00
 -1       364 5.93750E-02 6.25000E-03 0.00000E+00
 -1       365 6.04167E-02 6.25000E-03 0.00000E+00
 -1       366 6.14583E-02 6.25000E-03 0.00000E+00
 -1       367 6.25000E-02 6.25000E-03 0.00000E+00
 -1       368 6.35417E-02 6.25000E-03 0.00000E+00
 -1       369 6.45833E-02 6.25000E-03 0.00000E+00
 -1       370 6.56250E-02 6.25000E-03 0.00000E+00
 -1       371 5.00000E-02 7.29167E-03 0.00000E+00
 -1       372 5.00000E-02 8.33333E-03 0.00000E+00
 -1       373 5.00000E-02 9.37500E-03 0.00000E+00
 -1       374 5.00000E-02 1.04167E-02 0.00000E+00
 -1       375 5.00000E-02 1.14583E-02 0.00000E+00
 -1       376 5.10417E-02 6.64063E-03 0.00000E+00
 -1       377 5.20833E-02 7.03125E-03 0.00000E+00
 -1       378 5.31250E-02 7.42188E-03 0.00000E+00
 -1       379 5.41667E-02 7.81250E-03 0.00000E+00
 -1       380 5.52083E-02 8.20313E-03 0.00000E+00
 -1       381 5.62500E-02 8.59375E-03 0.00000E+00
 -1       382 5.72917E-02 8.98438E-03 0.00000E+00
 -1       383 5.83333E-02 9.37500E-03 0.00000E+00
 -1       384 5.93750E-02 9.76562E-03 0.00000E+00
 -1       385 6.04167E-02 1.01562E-02 0.00000E+00
 -1       386 6.14583E-02 1.05469E-02 0.00000E+00
 -1       387 6.25000E-02 1.09375E-02 0.00000E+00
 -1       388 6.35417E-02 1.13281E-02 0.00000E+00
 -1       389 6.45833E-02 1.17188E-02 0.00000E+00
 -1       390 6.56250E-02 1.21094E-02 0.00000E+00
 -1       406 6.66667E-02 7.29167E-03 0.00000E+00
 -1       407 6.66667E-02 8.33333E-03 0.00000E+00
 -1       408 6.66667E-02 9.37500E-03 0.00000E+00
 -1       409 6.66667E-02 1.04167E-02 0.00000E+00
 -1       410 6.66667E-02 1.14583E-02 0.00000E+00
 -1       466 1.04167E-03 1.25000E-02 0.00000E+00
 -1       467 2.08333E-03 1.25000E-02 0.00000E+00
 -1       468 3.12500E-03 1.25000E-02 0.00000E+00
 -1       469 4.16667E-03 1.25000E-02 0.00000E+00
 -1       470 5.20833E-03 1.25000E-02 0.00000E+00
 -1       471 6.25000E-03 1.25000E-02 0.00000E+00
 -1       472 7.29167E-03 1.25000E-02 0.00000E+00
 -1       473 8.33333E-03 1.25000E-02 0.00000E+00
 -1       474 9.37500E-03 1.25000E-02 0.00000E+00
 -1       475 1.04167E-02 1.25000E-02 0.00000E+00
 -1       476 1.14583E-02 1.25000E-02 0.00000E+00
 -1       477 1.25000E-02 1.25000E-02 0.00000E+00
 -1       478 1.35417E-02 1.25000E-02 0.00000E+00
 -1       479 1.45833E-02 1.25000E-02 0.00000E+00
 -1       480 1.56250E-02 1.25000E-02 0.00000E+00
 -1       481 0.00000E+00 1.35417E-02 0.00000E+00
 -1       482 0.00000E+00 1.45833E-02 0.00000E+00
 -1       483 0.00000E+00 1.56250E-02 0.00000E+00
 -1       484 0.00000E+00 1.66667E-02 0.00000E+00
 -1       485 0.00000E+00 1.77083E-02 0.00000E+00
 -1       486 1.04167E-03 1.28906E-02 0.00000E+00
 -1       487 2.08333E-03 1.32813E-02 0.00000E+00
 -1       488 3.12500E-03 1.36719E-02 0.00000E+00
 -1       489 4.16667E-03 1.40625E-02 0.00000E+00
 -1       490 5.20833E-03 1.44531E-02 0.00000E+00
 -1       491 6.25000E-03 1.48437E-02 0.00000E+00
 -1       492 7.29167E-03 1.52344E-02 0.00000E+00
 -1       493 8.33333E-03 1.56250E-02 0.00000E+00
 -1       494 9.37500E-03 1.60156E-02 0.00000E+00
 -1       495 1.04167E-02 1.64062E-02 0.00000E+00
 -1       496 1.14583E-02 1.67969E-02 0.00000E+00
 -1       497 1.25000E-02 1.71875E-02 0.00000E+00
 -1       498 1.35417E-02 1.75781E-02 0.00000E+00
 -1       499 1.45833E-02 1.79687E-02 0.00000E+00
 -1       500 1.56250E-02 1.83594E-02 0.00000E+00
 -1       501 1.77083E-02 1.25000E-02 0.00000E+00
 -1       502 1.87500E-02 1.25000E-02 0.00000E+00
 -1       503 1.97917E-02 1.25000E-02 0.00000E+00
 -1       504 2.08333E-02 1.25000E-02 0.00000E+00
 -1       505 2.18750E-02 1.25000E-02 0.00000E+00
 -1       506 2.29167E-02 1.25000E-02 0.00000E+00
 -1       507 2.39583E-02 1.25000E-02 0.00000E+00
 -1       508 2.50000E-02 1.25000E-02 0.00000E+00
 -1       509 2.60417E-02 1.25000E-02 0.00000E+00
 -1       510 2.70833E-02 1.25000E-02 0.00000E+00
 -1       511 2.81250E-02 1.25000E-02 0.00000E+00
 -1       512 2.91667E-02 1.25000E-02 0.00000E+00
 -1       513 3.02083E-02 1.25000E-02 0.00000E+00
 -1       514 3.12500E-02 1.25000E-02 0.00000E+00
 -1       515 3.22917E-02 1.25000E-02 0.00000E+00
 -1       516 1.66667E-02 1.35417E-02 0.00000E+00
 -1       517 1.66667E-02 1.45833E-02 0.00000E+00
 -1       518 1.66667E-02 1.56250E-02 0.00000E+00
 -1       519 1.66667E-02 1.66667E-02 0.00000E+00
 -1       520 1.66667E-02 1.77083E-02 0.00000E+00
 -1       521 1.77083E-02 1.28906E-02 0.00000E+00
 -1       522 1.87500E-02 1.32813E-02 0.00000E+00
 -1       523 1.97917E-02 1.36719E-02 0.00000E+00
 -1       524 2.08333E-02 1.40625E-02 0.00000E+00
 -1       525 2.18750E-02 1.44531E-02 0.00000E+00
 -1       526 2.29167E-02 1.48437E-02 0.00000E+00
 -1       527 2.39583E-02 1.52344E-02 0.00000E+00
 -1       528 2.50000E-02 1.56250E-02 0.00000E+00
 -1       529 2.60417E-02 1.60156E-02 0.00000E+00
 -1       530 2.70833E-02 1.64062E-02 0.00000E+00
 -1       531 2.81250E-02 1.67969E-02 0.00000E+00
 -1       532 2.91667E-02 1.71875E-02 0.00000E+00
 -1       533 3.02083E-02 1.75781E-02 0.00000E+00
 -1       534 3.12500E-02 1.79687E-02 0.00000E+00
 -1       535 3.22917E-02 1.83594E-02 0.00000E+00
 -1       536 3.43750E-02 1.25000E-02 0.00000E+00
 -1       537 3.54167E-02 1.25000E-02 0.00000E+00
 -1       538 3.64583E-02 1.25000E-02 0.00000E+00
 -1       539 3.75000E-02 1.25000E-02 0.00000E+00
 -1       540 3.85417E-02 1.25000E-02 0.00000E+00
 -1       541 3.95833E-02 1.25000E-02 0.00000E+00
 -1       542 4.06250E-02 1.25000E-02 0.00000E+00
 -1       543 4.16667E-02 1.25000E-02 0.00000E+00
 -1       544 4.27083E-02 1.25000E-02 0.00000E+00
 -1       545 4.37500E-02 1.25000E-02 0.00000E+00
 -1       546 4.47917E-02 1.25000E-02 0.00000E+00
 -1       547 4.58333E-02 1.25000E-02 0.00000E+00
 -1       548 4.68750E-02 1.25000E-02 0.00000E+00
 -1       549 4.79167E-02 1.25000E-02 0.00000E+00
 -1       550 4.89583E-02 1.25000E-02 0.00000E+00
 -1       551 3.33333E-02 1.35417E-02 0.00000E+00
 -1       552 3.33333E-02 1.45833E-02 0.00000E+00
 -1       553 3.33333E-02 1.56250E-02 0.00000E+00
 -1       554 3.33333E-02 1.66667E-02 0.00000E+00
 -1       555 3.33333E-02 1.77083E-02 0.00000E+00
 -1       556 3.43750E-02 1.28906E-02 0.00000E+00
 -1       557 3.54167E-02 1.32813E-02 0.00000E+00
 -1       558 3.64583E-02 1.36719E-02 0.00000E+00
 -1       559 3.75000E-02 1.40625E-02 0.00000E+00
 -1       560 3.85417E-02 1.44531E-02 0.00000E+00
 -1       561 3.95833E-02 1.48437E-02 0.00000E+00
 -1       562 4.06250E-02 1.52344E-02 0.00000E+00
 -1       563 4.16667E-02 1.56250E-02 0.00000E+00
 -1       564 4.27083E-02 1.60156E-02 0.00000E+00
 -1       565 4.37500E-02 1.64062E-02 0.00000E+00
 -1       566 4.47917E-02 1.67969E-02 0.00000E+00
 -1       567 4.58333E-02 1.71875E-02 0.00000E+00
 -1       568 4.68750E-02 1.75781E-02 0.00000E+00
 -1       569 4.79167E-02 1.79687E-02 0.00000E+00
 -1       570 4.89583E-02 1.83594E-02 0.00000E+00
 -1       571 5.10417E-02 1.25000E-02 0.00000E+00
 -1       572 5.20833E-02 1.25000E-02 0.00000E+00
 -1       573 5.31250E-02 1.25000E-02 0.00000E+00
 -1       574 5.41667E-02 1.25000E-02 0.00000E+00
 -1       575 5.52083E-02 1.25000E-02 0.00000E+00
 -1       576 5.62500E-02 1.25000E-02 0.00000E+00
 -1       577 5.72917E-02 1.25000E-02 0.00000E+00
 -1       578 5.83333E-02 1.25000E-02 0.00000E+00
 -1       579 5.93750E-02 1.25000E-02 0.00000E+00
 -1       580 6.04167E-02 1.25000E-02 0.00000E+00
 -1       581 6.14583E-02 1.25000E-02 0.00000E+00
 -1       582 6.25000E-02 1.25000E-02 0.00000E+00
 -1       583 6.35417E-02 1.25000E-02 0.00000E+00
 -1       584 6.45833E-02 1.25000E-02 0.00000E+00
 -1       585 6.56250E-02 1.25000E-02 0.00000E+00
 -1       586 5.00000E-02 1.35417E-02 0.00000E+00
 -1       587 5.00000E-02 1.45833E-02 0.00000E+00
 -1       588 5.00000E-02 1.56250E-02 0.00000E+00
 -1       589 5.00000E-02 1.66667E-02 0.00000E+00
 -1       590 5.00000E-02 1.77083E-02 0.00000E+00
 -1       591 5.10417E-02 1.28906E-02 0.00000E+00
 -1       592 5.20833E-02 1.32813E-02 0.00000E+00
 -1       593 5.31250E-02 1.36719E-02 0.00000E+00
 -1       594 5.41667E-02 1.40625E-02 0.00000E+00
 -1       595 5.52083E-02 1.44531E-02 0.00000E+00
 -1       596 5.62500E-02 1.48437E-02 0.00000E+00
 -1       597 5.72917E-02 1.52344E-02 0.00000E+00
 -1       598 5.83333E-02 1.56250E-02 0.00000E+00
 -1       599 5.93750E-02 1.60156E-02 0.00000E+00
 -1       600 6.04167E-02 1.64062E-02 0.00000E+00
 -1       601 6.14583E-02 1.67969E-02 0.00000E+00
 -1       602 6.25000E-02 1.71875E-02 0.00000E+00
 -1       603 6.35417E-02 1.75781E-02 0.00000E+00
 -1       604 6.45833E-02 1.79687E-02 0.00000E+00
 -1       605 6.56250E-02 1.83594E-02 0.00000E+00
 -1       606 6.77083E-02 1.25000E-02 0.00000E+00
 -1       607 6.87500E-02 1.25000E-02 0.00000E+00
 -1       608 6.97917E-02 1.25000E-02 0.00000E+00
 -1       609 7.08333E-02 1.25000E-02 0.00000E+00
 -1       610 7.18750E-02 1.25000E-02 0.00000E+00
 -1       611 7.29167E-02 1.25000E-02 0.00000E+00
 -1       612 7.39583E-02 1.25000E-02 0.00000E+00
 -1       613 7.50000E-02 1.25000E-02 0.00000E+00
 -1       614 7.60417E-02 1.25000E-02 0.00000E+00
 -1       615 7.70833E-02 1.25000E-02 0.00000E+00
 -1       616 7.81250E-02 1.25000E-02 0.00000E+00
 -1       617 7.91667E-02 1.25000E-02 0.00000E+00
 -1       618 8.02083E-02 1.25000E-02 0.00000E+00
 -1       619 8.12500E-02 1.25000E-02 0.00000E+00
 -1       620 8.22917E-02 1.25000E-02 0.00000E+00
 -1       621 6.66667E-02 1.35417E-02 0.00000E+00
 -1       622 6.66667E-02 1.45833E-02 0.00000E+00
 -1       623 6.66667E-02 1.56250E-02 0.00000E+00
 -1       624 6.66667E-02 1.66667E-02 0.00000E+00
 -1       625 6.66667E-02 1.77083E-02 0.00000E+00
 -1       626 6.77083E-02 1.28906E-02 0.00000E+00
 -1       627 6.87500E-02 1.32813E-02 0.00000E+00
 -1       628 6.97917E-02 1.36719E-02 0.00000E+00
 -1       629 7.08333E-02 1.40625E-02 0.00000E+00
 -1       630 7.18750E-02 1.44531E-02 0.00000E+00
 -1       631 7.29167E-02 1.48437E-02 0.00000E+00
 -1       632 7.39583E-02 1.52344E-02 0.00000E+00
 -1       633 7.50000E-02 1.56250E-02 0.00000E+00
 -1       634 7.60417E-02 1.60156E-02 0.00000E+00
 -1       635 7.70833E-02 1.64062E-02 0.00000E+00
 -1       636 7.81250E-02 1.67969E-02 0.00000E+00
 -1       637 7.91667E-02 1.71875E-02 0.00000E+00
 -1       638 8.02083E-02 1.75781E-02 0.00000E+00
 -1       639 8.12500E-02 1.79687E-02 0.00000E+00
 -1       640 8.22917E-02 1.83594E-02 0.00000E+00
 -1       641 8.43750E-02 1.25000E-02 0.00000E+00
 -1       642 8.54167E-02 1.25000E-02 0.00000E+00
 -1       643 8.64583E-02 1.25000E-02 0.00000E+00
 -1       644 8.75000E-02 1.25000E-02 0.00000E+00
 -1       645 8.85417E-02 1.25000E-02 0.00000E+00
 -1       646 8.95833E-02 1.25000E-02 0.00000E+00
 -1       647 9.06250E-02 1.25000E-02 0.00000E+00
 -1       648 9.16667E-02 1.25000E-02 0.00000E+00
 -1       649 9.27083E-02 1.25000E-02 0.00000E+00
 -1       650 9.37500E-02 1.25000E-02 0.00000E+00
 -1       651 9.47917E-02 1.25000E-02 0.00000E+00
 -1       652 9.58333E-02 1.25000E-02 0.00000E+00
 -1       653 9.68750E-02 1.25000E-02 0.00000E+00
 -1       654 9.79167E-02 1.25000E-02 0.00000E+00
 -1       655 9.89583E-02 1.25000E-02 0.00000E+00
 -1       656 8.33333E-02 1.35417E-02 0.00000E+00
 -1       657 8.33333E-02 1.45833E-02 0.00000E+00
 -1       658 8.33333E-02 1.56250E-02 0.00000E+00
 -1       659 8.33333E-02 1.66667E-02 0.00000E+00
 -1       660 8.33333E-02 1.77083E-02 0.00000E+00
 -1       661 8.43750E-02 1.28906E-02 0.00000E+00
 -1       662 8.54167E-02 1.32813E-02 0.00000E+00
 -1       663 8.64583E-02 1.36719E-02 0.00000E+00
 -1       664 8.75000E-02 1.40625E-02 0.00000E+00
 -1       665 8.85417E-02 1.44531E-02 0.00000E+00
 -1       666 8.95833E-02 1.48437E-02 0.00000E+00
 -1       667 9.06250E-02 1.52344E-02 0.00000E+00
 -1       668 9.16667E-02 1.56250E-02 0.00000E+00
 -1       669 9.27083E-02 1.60156E-02 0.00000E+00
 -1       670 9.37500E-02 1.64062E-02 0.00000E+00
 -1       671 9.47917E-02 1.67969E-02 0.00000E+00
 -1       672 9.58333E-02 1.71875E-02 0.00000E+00
 -1       673 9.68750E-02 1.75781E-02 0.00000E+00
 -1       674 9.79167E-02 1.79687E-02 0.00000E+00
 -1       675 9.89583E-02 1.83594E-02 0.00000E+00
 -1       676 1.00000E-01 1.35417E-02 0.00000E+00
 -1       677 1.00000E-01 1.45833E-02 0.00000E+00
 -1       678 1.00000E-01 1.56250E-02 0.00000E+00
 -1       679 1.00000E-01 1.66667E-02 0.00000E+00
 -1       680 1.00000E-01 1.77083E-02 0.00000E+00
 -1       681 1.04167E-03 1.87500E-02 0.00000E+00
 -1       682 2.08333E-03 1.87500E-02 0.00000E+00
 -1       683 3.12500E-03 1.87500E-02 0.00000E+00
 -1       684 4.16667E-03 1.87500E-02 0.00000E+00
 -1       685 5.20833E-03 1.87500E-02 0.00000E+00
 -1       686 6.25000E-03 1.87500E-02 0.00000E+00
 -1       687 7.29167E-03 1.87500E-02 0.00000E+00
 -1       688 8.33333E-03 1.87500E-02 0.00000E+00
 -1       689 9.37500E-03 1.87500E-02 0.00000E+00
 -1       690 1.04167E-02 1.87500E-02 0.00000E+00
 -1       691 1.14583E-02 1.87500E-02 0.00000E+00
 -1       692 1.25000E-02 1.87500E-02 0.00000E+00
 -1       693 1.35417E-02 1.87500E-02 0.00000E+00
 -1       694 1.45833E-02 1.87500E-02 0.00000E+00
 -1       695 1.56250E-02 1.87500E-02 0.00000E+00
 -1       696 0.00000E+00 1.97917E-02 0.00000E+00
 -1       697 0.00000E+00 2.08333E-02 0.00000E+00
 -1       698 0.00000E+00 2.18750E-02 0.00000E+00
 -1       699 0.00000E+00 2.29167E-02 0.00000E+00
 -1       700 0.00000E+00 2.39583E-02 0.00000E+00
 -1       701 1.04167E-03 1.91406E-02 0.00000E+00
 -1       702 2.08333E-03 1.95312E-02 0.00000E+00
 -1       703 3.12500E-03 1.99219E-02 0.00000E+00
 -1       704 4.16667E-03 2.03125E-02 0.00000E+00
 -1       705 5.20833E-03 2.07031E-02 0.00000E+00
 -1       706 6.25000E-03 2.10938E-02 0.00000E+00
 -1       707 7.29167E-03 2.14844E-02 0.00000E+00
 -1       708 8.33333E-03 2.18750E-02 0.00000E+00
 -1       709 9.37500E-03 2.22656E-02 0.00000E+00
 -1       710 1.04167E-02 2.26563E-02 0.00000E+00
 -1       711 1.14583E-02 2.30469E-02 0.00000E+00
 -1       712 1.25000E-02 2.34375E-02 0.00000E+00
 -1       713 1.35417E-02 2.38281E-02 0.00000E+00
 -1       714 1.45833E-02 2.42187E-02 0.00000E+00
 -1       715 1.56250E-02 2.46094E-02 0.00000E+00
 -1       716 1.77083E-02 1.87500E-02 0.00000E+00
 -1       717 1.87500E-02 1.87500E-02 0.00000E+00
 -1       718 1.97917E-02 1.87500E-02 0.00000E+00
 -1       719 2.08333E-02 1.87500E-02 0.00000E+00
 -1       720 2.18750E-02 1.87500E-02 0.00000E+00
 -1       721 2.29167E-02 1.87500E-02 0.00000E+00
 -1       722 2.39583E-02 1.87500E-02 0.00000E+00
 -1       723 2.50000E-02 1.87500E-02 0.00000E+00
 -1       724 2.60417E-02 1.87500E-02 0.00000E+00
 -1       725 2.70833E-02 1.87500E-02 0.00000E+00
 -1       726 2.81250E-02 1.87500E-02 0.00000E+00
 -1       727 2.91667E-02 1.87500E-02 0.00000E+00
 -1       728 3.02083E-02 1.87500E-02 0.00000E+00
 -1       729 3.12500E-02 1.87500E-02 0.00000E+00
 -1       730 3.22917E-02 1.87500E-02 0.00000E+00
 -1       731 1.66667E-02 1.97917E-02 0.00000E+00
 -1       732 1.66667E-02 2.08333E-02 0.00000E+00
 -1       733 1.66667E-02 2.18750E-02 0.00000E+00
 -1       734 1.66667E-02 2.29167E-02 0.00000E+00
 -1       735 1.66667E-02 2.39583E-02 0.00000E+00
 -1       736 1.77083E-02 1.91406E-02 0.00000E+00
 -1       737 1.87500E-02 1.95312E-02 0.00000E+00
 -1       738 1.97917E-02 1.99219E-02 0.00000E+00
 -1       739 2.08333E-02 2.03125E-02 0.00000E+00
 -1       740 2.18750E-02 2.07031E-02 0.00000E+00
 -1       741 2.29167E-02 2.10938E-02 0.00000E+00
 -1       742 2.39583E-02 2.14844E-02 0.00000E+00
 -1       743 2.50000E-02 2.18750E-02 0.00000E+00
 -1       744 2.60417E-02 2.22656E-02 0.00000E+00
 -1       745 2.70833E-02 2.26563E-02 0.00000E+00
 -1       746 2.81250E-02 2.30469E-02 0.00000E+00
 -1       747 2.91667E-02 2.34375E-02 0.00000E+00
 -1       748 3.02083E-02 2.38281E-02 0.00000E+00
 -1       749 3.12500E-02 2.42187E-02 0.00000E+00
 -1       750 3.22917E-02 2.46094E-02 0.00000E+00
 -1       751 3.43750E-02 1.87500E-02 0.00000E+00
 -1       752 3.54167E-02 1.87500E-02 0.00000E+00
 -1       753 3.64583E-02 1.87500E-02 0.00000E+00
 -1       754 3.75000E-02 1.87500E-02 0.00000E+00
 -1       755 3.85417E-02 1.87500E-02 0.00000E+00
 -1       756 3.95833E-02 1.87500E-02 0.00000E+00
 -1       757 4.06250E-02 1.87500E-02 0.00000E+00
 -1       758 4.16667E-02 1.87500E-02 0.00000E+00
 -1       759 4.27083E-02 1.87500E-02 0.00000E+00
 -1       760 4.37500E-02 1.87500E-02 0.00000E+00
 -1       761 4.47917E-02 1.87500E-02 0.00000E+00
 -1       762 4.58333E-02 1.87500E-02 0.00000E+00
 -1       763 4.68750E-02 1.87500E-02 0.00000E+00
 -1       764 4.79167E-02 1.87500E-02 0.00000E+00
 -1       765 4.89583E-02 1.87500E-02 0.00000E+00
 -1       766 3.33333E-02 1.97917E-02 0.00000E+00
 -1       767 3.33333E-02 2.08333E-02 0.00000E+00
 -1       768 3.33333E-02 2.18750E-02 0.00000E+00
 -1       769 3.33333E-02 2.29167E-02 0.00000E+00
 -1       770 3.33333E-02 2.39583E-02 0.00000E+00
 -1       771 3.43750E-02 1.91406E-02 0.00000E+00
 -1       772 3.54167E-02 1.95312E-02 0.00000E+00
 -1       773 3.64583E-02 1.99219E-02 0.00000E+00
 -1       774 3.75000E-02 2.03125E-02 0.00000E+00
 -1       775 3.85417E-02 2.07031E-02 0.00000E+00
 -1       776 3.95833E-02 2.10938E-02 0.00000E+00
 -1       777 4.06250E-02 2.14844E-02 0.00000E+00
 -1       778 4.16667E-02 2.18750E-02 0.00000E+00
 -1       779 4.27083E-02 2.22656E-02 0.00000E+00
 -1       780 4.37500E-02 2.26563E-02 0.00000E+00
 -1       781 4.47917E-02 2.30469E-02 0.00000E+00
 -1       782 4.58333E-02 2.34375E-02 0.00000E+00
 -1       783 4.68750E-02 2.38281E-02 0.00000E+00
 -1       784 4.79167E-02 2.42187E-02 0.00000E+00
 -1       785 4.89583E-02 2.46094E-02 0.00000E+00
 -1       786 5.10417E-02 1.87500E-02 0.00000E+00
 -1       787 5.20833E-02 1.87500E-02 0.00000E+00
 -1       788 5.31250E-02 1.87500E-02 0.00000E+00
 -1       789 5.41667E-02 1.87500E-02 0.00000E+00
 -1       790 5.52083E-02 1.87500E-02 0.00000E+00
 -1       791 5.62500E-02 1.87500E-02 0.00000E+00
 -1       792 5.72917E-02 1.87500E-02 0.00000E+00
 -1       793 5.83333E-02 1.87500E-02 0.00000E+00
 -1       794 5.93750E-02 1.87500E-02 0.00000E+00
 -1       795 6.04167E-02 1.87500E-02 0.00000E+00
 -1       796 6.14583E-02 1.87500E-02 0.00000E+00
 -1       797 6.25000E-02 1.87500E-02 0.00000E+00
 -1       798 6.35417E-02 1.87500E-02 0.00000E+00
 -1       799 6.45833E-02 1.87500E-02 0.00000E+00
 -1       800 6.56250E-02 1.87500E-02 0.00000E+00
 -1       801 5.00000E-02 1.97917E-02 0.00000E+00
 -1       802 5.00000E-02 2.08333E-02 0.00000E+00
 -1       803 5.00000E-02 2.18750E-02 0.00000E+00
 -1       804 5.00000E-02 2.29167E-02 0.00000E+00
 -1       805 5.00000E-02 2.39583E-02 0.00000E+00
 -1       806 5.10417E-02 1.91406E-02 0.00000E+00
 -1       807 5.20833E-02 1.95312E-02 0.00000E+00
 -1       808 5.31250E-02 1.99219E-02 0.00000E+00
 -1       809 5.41667E-02 2.03125E-02 0.00000E+00
 -1       810 5.52083E-02 2.07031E-02 0.00000E+00
 -1       811 5.62500E-02 2.10938E-02 0.00000E+00
 -1       812 5.72917E-02 2.14844E-02 0.00000E+00
 -1       813 5.83333E-02 2.18750E-02 0.00000E+00
 -1       814 5.93750E-02 2.22656E-02 0.00000E+00
 -1       815 6.04167E-02 2.26563E-02 0.00000E+00
 -1       816 6.14583E-02 2.30469E-02 0.00000E+00
 -1       817 6.25000E-02 2.34375E-02 0.00000E+00
 -1       818 6.35417E-02 2.38281E-02 0.00000E+00
 -1       819 6.45833E-02 2.42187E-02 0.00000E+00
 -1       820 6.56250E-02 2.46094E-02 0.00000E+00
 -1       821 6.77083E-02 1.87500E-02 0.00000E+00
 -1       822 6.87500E-02 1.87500E-02 0.00000E+00
 -1       823 6.97917E-02 1.87500E-02 0.00000E+00
 -1       824 7.08333E-02 1.87500E-02 0.00000E+00
 -1       825 7.18750E-02 1.87500E-02 0.00000E+00
 -1       826 7.29167E-02 1.87500E-02 0.00000E+00
 -1       827 7.39583E-02 1.87500E-02 0.00000E+00
 -1       828 7.50000E-02 1.87500E-02 0.00000E+00
 -1       829 7.60417E-02 1.87500E-02 0.00000E+00
 -1       830 7.70833E-02 1.87500E-02 0.00000E+00
 -1       831 7.81250E-02 1.87500E-02 0.00000E+00
 -1       832 7.91667E-02 1.87500E-02 0.00000E+00
 -1       833 8.02083E-02 1.87500E-02 0.00000E+00
 -1       834 8.12500E-02 1.87500E-02 0.00000E+00
 -1       835 8.22917E-02 1.87500E-02 0.00000E+00
 -1       836 6.66667E-02 1.97917E-02 0.00000E+00
 -1       837 6.66667E-02 2.08333E-02 0.00000E+00
 -1       838 6.66667E-02 2.18750E-02 0.00000E+00
 -1       839 6.66667E-02 2.29167E-02 0.00000E+00
 -1       840 6.66667E-02 2.39583E-02 0.00000E+00
 -1       841 6.77083E-02 1.91406E-02 0.00000E+00
 -1       842 6.87500E-02 1.95312E-02 0.00000E+00
 -1       843 6.97917E-02 1.99219E-02 0.00000E+00
 -1       844 7.08333E-02 2.03125E-02 0.00000E+00
 -1       845 7.18750E-02 2.07031E-02 0.00000E+00
 -1       846 7.29167E-02 2.10938E-02 0.00000E+00
 -1       847 7.39583E-02 2.14844E-02 0.00000E+00
 -1       848 7.50000E-02 2.18750E-02 0.00000E+00
 -1       849 7.60417E-02 2.22656E-02 0.00000E+00
 -1       850 7.70833E-02 2.26563E-02 0.00000E+00
 -1       851 7.81250E-02 2.30469E-02 0.00000E+00
 -1       852 7.91667E-02 2.34375E-02 0.00000E+00
 -1       853 8.02083E-02 2.38281E-02 0.00000E+00
 -1       854 8.12500E-02 2.42187E-02 0.00000E+00
 -1       855 8.22917E-02 2.46094E-02 0.00000E+00
 -1       856 8.43750E-02 1.87500E-02 0.00000E+00
 -1       857 8.54167E-02 1.87500E-02 0.00000E+00
 -1       858 8.64583E-02 1.87500E-02 0.00000E+00
 -1       859 8.75000E-02 1.87500E-02 0.00000E+00
 -1       860 8.85417E-02 1.87500E-02 0.00000E+00
 -1       861 8.95833E-02 1.87500E-02 0.00000E+00
 -1       862 9.06250E-02 1.87500E-02 0.00000E+00
 -1       863 9.16667E-02 1.87500E-02 0.00000E+00
 -1       864 9.27083E-02 1.87500E-02 0.00000E+00
 -1       865 9.37500E-02 1.87500E-02 0.00000E+00
 -1       866 9.47917E-02 1.87500E-02 0.00000E+00
 -1       867 9.58333E-02 1.87500E-02 0.00000E+00
 -1       868 9.68750E-02 1.87500E-02 0.00000E+00
 -1       869 9.79167E-02 1.87500E-02 0.00000E+00
 -1       870 9.89583E-02 1.87500E-02 0.00000E+00
 -1       871 8.33333E-02 1.97917E-02 0.00000E+00
 -1       872 8.33333E-02 2.08333E-02 0.00000E+00
 -1       873 8.33333E-02 2.18750E-02 0.00000E+00
 -1       874 8.33333E-02 2.29167E-02 0.00000E+00
 -1       875 8.33333E-02 2.39583E-02 0.00000E+00
 -1       876 8.43750E-02 1.91406E-02 0.00000E+00
 -1       877 8.54167E-02 1.95312E-02 0.00000E+00
 -1       878 8.64583E-02 1.99219E-02 0.00000E+00
 -1       879 8.75000E-02 2.03125E-02 0.00000E+00
 -1       880 8.85417E-02 2.07031E-02 0.00000E+00
 -1       881 8.95833E-02 2.10938E-02 0.00000E+00
 -1       882 9.06250E-02 2.14844E-02 0.00000E+00
 -1       883 9.16667E-02 2.18750E-02 0.00000E+00
 -1       884 9.27083E-02 2.22656E-02 0.00000E+00
 -1       885 9.37500E-02 2.26563E-02 0.00000E+00
 -1       886 9.47917E-02 2.30469E-02 0.00000E+00
 -1       887 9.58333E-02 2.34375E-02 0.00000E+00
 -1       888 9.68750E-02 2.38281E-02 0.00000E+00
 -1       889 9.79167E-02 2.42187E-02 0.00000E+00
 -1       890 9.89583E-02 2.46094E-02 0.00000E+00
 -1       891 1.00000E-01 1.97917E-02 0.00000E+00
 -1       892 1.00000E-01 2.08333E-02 0.00000E+00
 -1       893 1.00000E-01 2.18750E-02 0.00000E+00
 -1       894 1.00000E-01 2.29167E-02 0.00000E+00
 -1       895 1.00000E-01 2.39583E-02 0.00000E+00
 -1       896 1.04167E-03 2.50000E-02 0.00000E+00
 -1       897 2.08333E-03 2.50000E-02 0.00000E+00
 -1       898 3.12500E-03 2.50000E-02 0.00000E+00
 -1       899 4.16667E-03 2.50000E-02 0.00000E+00
 -1       900 5.20833E-03 2.50000E-02 0.00000E+00
 -1       901 6.25000E-03 2.50000E-02 0.00000E+00
 -1       902 7.29167E-03 2.50000E-02 0.00000E+00
 -1       903 8.33333E-03 2.50000E-02 0.00000E+00
 -1       904 9.37500E-03 2.50000E-02 0.00000E+00
 -1       905 1.04167E-02 2.50000E-02 0.00000E+00
 -1       906 1.14583E-02 2.50000E-02 0.00000E+00
 -1       907 1.25000E-02 2.50000E-02 0.00000E+00
 -1       908 1.35417E-02 2.50000E-02 0.00000E+00
 -1       909 1.45833E-02 2.50000E-02 0.00000E+00
 -1       910 1.56250E-02 2.50000E-02 0.00000E+00
 -1       911 1.77083E-02 2.50000E-02 0.00000E+00
 -1       912 1.87500E-02 2.50000E-02 0.00000E+00
 -1       913 1.97917E-02 2.50000E-02 0.00000E+00
 -1       914 2.08333E-02 2.50000E-02 0.00000E+00
 -1       915 2.18750E-02 2.50000E-02 0.00000E+00
 -1       916 2.29167E-02 2.50000E-02 0.00000E+00
 -1       917 2.39583E-02 2.50000E-02 0.00000E+00
 -1       918 2.50000E-02 2.50000E-02 0.00000E+00
 -1       919 2.60417E-02 2.50000E-02 0.00000E+00
 -1       920 2.70833E-02 2.50000E-02 0.00000E+00
 -1       921 2.81250E-02 2.50000E-02 0.00000E+00
 -1       922 2.91667E-02 2.50000E-02 0.00000E+00
 -1       923 3.02083E-02 2.50000E-02 0.00000E+00
 -1       924 3.12500E-02 2.50000E-02 0.00000E+00
 -1       925 3.22917E-02 2.50000E-02 0.00000E+00
 -1       926 3.43750E-02 2.50000E-02 0.00000E+00
 -1       927 3.54167E-02 2.50000E-02 0.00000E+00
 -1       928 3.64583E-02 2.50000E-02 0.00000E+00
 -1       929 3.75000E-02 2.50000E-02 0.00000E+00
 -1       930 3.85417E-02 2.50000E-02 0.00000E+00
 -1       931 3.95833E-02 2.50000E-02 0.00000E+00
 -1       932 4.06250E-02 2.50000E-02 0.00000E+00
 -1       933 4.16667E-02 2.50000E-02 0.00000E+00
 -1       934 4.27083E-02 2.50000E-02 0.00000E+00
 -1       935 4.37500E-02 2.50000E-02 0.00000E+00
 -1       936 4.47917E-02 2.50000E-02 0.00000E+00
 -1       937 4.58333E-02 2.50000E-02 0.00000E+00
 -1       938 4.68750E-02 2.50000E-02 0.00000E+00
 -1       939 4.79167E-02 2.50000E-02 0.00000E+00
 -1       940 4.89583E-02 2.50000E-02 0.00000E+00
 -1       941 5.10417E-02 2.50000E-02 0.00000E+00
 -1       942 5.20833E-02 2.50000E-02 0.00000E+00
 -1       943 5.31250E-02 2.50000E-02 0.00000E+00
 -1       944 5.41667E-02 2.50000E-02 0.00000E+00
 -1       945 5.52083E-02 2.50000E-02 0.00000E+00
 -1       946 5.62500E-02 2.50000E-02 0.00000E+00
 -1       947 5.72917E-02 2.50000E-02 0.00000E+00
 -1       948 5.83333E-02 2.50000E-02 0.00000E+00
 -1       949 5.93750E-02 2.50000E-02 0.00000E+00
 -1       950 6.04167E-02 2.50000E-02 0.00000E+00
 -1       951 6.14583E-02 2.50000E-02 0.00000E+00
 -1       952 6.25000E-02 2.50000E-02 0.00000E+00
 -1       953 6.35417E-02 2.50000E-02 0.00000E+00
 -1       954 6.45833E-02 2.50000E-02 0.00000E+00
 -1       955 6.56250E-02 2.50000E-02 0.00000E+00
 -1       956 6.77083E-02 2.50000E-02 0.00000E+00
 -1       957 6.87500E-02 2.50000E-02 0.00000E+00
 -1       958 6.97917E-02 2.50000E-02 0.00000E+00
 -1       959 7.08333E-02 2.50000E-02 0.00000E+00
 -1       960 7.18750E-02 2.50000E-02 0.00000E+00
 -1       961 7.29167E-02 2.50000E-02 0.00000E+00
 -1       962 7.39583E-02 2.50000E-02 0.00000E+00
 -1       963 7.50000E-02 2.50000E-02 0.00000E+00
 -1       964 7.60417E-02 2.50000E-02 0.00000E+00
 -1       965 7.70833E-02 2.50000E-02 0.00000E+00
 -1       966 7.81250E-02 2.50000E-02 0.00000E+00
 -1       967 7.91667E-02 2.50000E-02 0.00000E+00
 -1       968 8.02083E-02 2.50000E-02 0.00000E+00
 -1       969 8.12500E-02 2.50000E-02 0.00000E+00
 -1       970 8.22917E-02 2.50000E-02 0.00000E+00
 -1       971 8.43750E-02 2.50000E-02 0.00000E+00
 -1       972 8.54167E-02 2.50000E-02 0.00000E+00
 -1       973 8.64583E-02 2.50000E-02 0.00000E+00
 -1       974 8.75000E-02 2.50000E-02 0.00000E+00
 -1       975 8.85417E-02 2.50000E-02 0.00000E+00
 -1       976 8.95833E-02 2.50000E-02 0.00000E+00
 -1       977 9.06250E-02 2.50000E-02 0.00000E+00
 -1       978 9.16667E-02 2.50000E-02 0.00000E+00
 -1       979 9.27083E-02 2.50000E-02 0.00000E+00
 -1       980 9.37500E-02 2.50000E-02 0.00000E+00
 -1       981 9.47917E-02 2.50000E-02 0.00000E+00
 -1       982 9.58333E-02 2.50000E-02 0.00000E+00
 -1       983 9.68750E-02 2.50000E-02 0.00000E+00
 -1       984 9.79167E-02 2.50000E-02 0.00000E+00
 -1       985 9.89583E-02 2.50000E-02 0.00000E+00
 -3
    3C                           440                                     1
 -1         1   12    0    1
 -2         1        37        36
 -1         2   12    0    1
 -2        37        39        38
 -1         3   12    0    1
 -2        39        41        40
 -1         4   12    0    1
 -2        41        43        42
 -1         5   12    0    1
 -2        43        45        44
 -1         6   12    0    1
 -2        45        47        46
 -1         7   12    0    1
 -2        47        49        48
 -1         8   12    0    1
 -2        49         2        50
 -1         9   12    0    1
 -2         1        52        51
 -1        10   12    0    1
 -2        52        54        53
 -1        11   12    0    1
 -2        54         8        55
 -1        12   12    0    1
 -2         1        57        56
 -1        13   12    0    1
 -2        57        59        58
 -1        14   12    0    1
 -2        59        61        60
 -1        15   12    0    1
 -2        61        63        62
 -1        16   12    0    1
 -2        63        65        64
 -1        17   12    0    1
 -2        65        67        66
 -1        18   12    0    1
 -2        67        69        68
 -1        19   12    0    1
 -2        69         9        70
 -1        20   12    0    1
 -2         2        72        71
 -1        21   12    0    1
 -2        72        74        73
 -1        22   12    0    1
 -2        74        76        75
 -1        23   12    0    1
 -2        76        78        77
 -1        24   12    0    1
 -2        78        80        79
 -1        25   12    0    1
 -2        80        82        81
 -1        26   12    0    1
 -2        82        84        83
 -1        27   12    0    1
 -2        84         3        85
 -1        28   12    0    1
 -2         2        87        86
 -1        29   12    0    1
 -2        87        89        88
 -1        30   12    0    1
 -2        89         9        90
 -1        31   12    0    1
 -2         2        92        91
 -1        32   12    0    1
 -2        92        94        93
 -1        33   12    0    1
 -2        94        96        95
 -1        34   12    0    1
 -2        96        98        97
 -1        35   12    0    1
 -2        98       100        99
 -1        36   12    0    1
 -2       100       102       101
 -1        37   12    0    1
 -2       102       104       103
 -1        38   12    0    1
 -2       104        10       105
 -1        39   12    0    1
 -2         3       107       106
 -1        40   12    0    1
 -2       107       109       108
 -1        41   12    0    1
 -2       109       111       110
 -1        42   12    0    1
 -2       111       113       112
 -1        43   12    0    1
 -2       113       115       114
 -1        44   12    0    1
 -2       115       117       116
 -1        45   12    0    1
 -2       117       119       118
 -1        46   12    0    1
 -2       119         4       120
 -1        47   12    0    1
 -2         3       122       121
 -1        48   12    0    1
 -2       122       124       123
 -1        49   12    0    1
 -2       124        10       125
 -1        50   12    0    1
 -2         3       127       126
 -1        51   12    0    1
 -2       127       129       128
 -1        52   12    0    1
 -2       129       131       130
 -1        53   12    0    1
 -2       131       133       132
 -1        54   12    0    1
 -2       133       135       134
 -1        55   12    0    1
 -2       135       137       136
 -1        56   12    0    1
 -2       137       139       138
 -1        57   12    0    1
 -2       139        11       140
 -1        58   12    0    1
 -2         4       142       141
 -1        59   12    0    1
 -2       142       144       143
 -1        60   12    0    1
 -2       144       146       145
 -1        61   12    0    1
 -2       146       148       147
 -1        62   12    0    1
 -2       148       150       149
 -1        63   12    0    1
 -2       150       152       151
 -1        64   12    0    1
 -2       152       154       153
 -1        65   12    0    1
 -2       154         5       155
 -1        66   12    0    1
 -2         4       157       156
 -1        67   12    0    1
 -2       157       159       158
 -1        68   12    0    1
 -2       159        11       160
 -1        69   12    0    1
 -2         4       162       161
 -1        70   12    0    1
 -2       162       164       163
 -1        71   12    0    1
 -2       164       166       165
 -1        72   12    0    1
 -2       166       168       167
 -1        73   12    0    1
 -2       168       170       169
 -1        74   12    0    1
 -2       170       172       171
 -1        75   12    0    1
 -2       172       174       173
 -1        76   12    0    1
 -2       174        12       175
 -1        77   12    0    1
 -2         5       192       191
 -1        78   12    0    1
 -2       192       194       193
 -1        79   12    0    1
 -2       194        12       195
 -1        80   12    0    1
 -2         8       252       251
 -1        81   12    0    1
 -2       252       254       253
 -1        82   12    0    1
 -2       254       256       255
 -1        83   12    0    1
 -2       256       258       257
 -1        84   12    0    1
 -2       258       260       259
 -1        85   12    0    1
 -2       260       262       261
 -1        86   12    0    1
 -2       262       264       263
 -1        87   12    0    1
 -2       264         9       265
 -1        88   12    0    1
 -2         8       267       266
 -1        89   12    0    1
 -2       267       269       268
 -1        90   12    0    1
 -2       269        15       270
 -1        91   12    0    1
 -2         8       272       271
 -1        92   12    0    1
 -2       272       274       273
 -1        93   12    0    1
 -2       274       276       275
 -1        94   12    0    1
 -2       276       278       277
 -1        95   12    0    1
 -2       278       280       279
 -1        96   12    0    1
 -2       280       282       281
 -1        97   12    0    1
 -2       282       284       283
 -1        98   12    0    1
 -2       284        16       285
 -1        99   12    0    1
 -2         9       287       286
 -1       100   12    0    1
 -2       287       289       288
 -1       101   12    0    1
 -2       289       291       290
 -1       102   12    0    1
 -2       291       293       292
 -1       103   12    0    1
 -2       293       295       294
 -1       104   12    0    1
 -2       295       297       296
 -1       105   12    0    1
 -2       297       299       298
 -1       106   12    0    1
 -2       299        10       300
 -1       107   12    0    1
 -2         9       302       301
 -1       108   12    0    1
 -2       302       304       303
 -1       109   12    0    1
 -2       304        16       305
 -1       110   12    0    1
 -2         9       307       306
 -1       111   12    0    1
 -2       307       309       308
 -1       112   12    0    1
 -2       309       311       310
 -1       113   12    0    1
 -2       311       313       312
 -1       114   12    0    1
 -2       313       315       314
 -1       115   12    0    1
 -2       315       317       316
 -1       116   12    0    1
 -2       317       319       318
 -1       117   12    0    1
 -2       319        17       320
 -1       118   12    0    1
 -2        10       322       321
 -1       119   12    0    1
 -2       322       324       323
 -1       120   12    0    1
 -2       324       326       325
 -1       121   12    0    1
 -2       326       328       327
 -1       122   12    0    1
 -2       328       330       329
 -1       123   12    0    1
 -2       330       332       331
 -1       124   12    0    1
 -2       332       334       333
 -1       125   12    0    1
 -2       334        11       335
 -1       126   12    0    1
 -2        10       337       336
 -1       127   12    0    1
 -2       337       339       338
 -1       128   12    0    1
 -2       339        17       340
 -1       129   12    0    1
 -2        10       342       341
 -1       130   12    0    1
 -2       342       344       343
 -1       131   12    0    1
 -2       344       346       345
 -1       132   12    0    1
 -2       346       348       347
 -1       133   12    0    1
 -2       348       350       349
 -1       134   12    0    1
 -2       350       352       351
 -1       135   12    0    1
 -2       352       354       353
 -1       136   12    0    1
 -2       354        18       355
 -1       137   12    0    1
 -2        11       357       356
 -1       138   12    0    1
 -2       357       359       358
 -1       139   12    0    1
 -2       359       361       360
 -1       140   12    0    1
 -2       361       363       362
 -1       141   12    0    1
 -2       363       365       364
 -1       142   12    0    1
 -2       365       367       366
 -1       143   12    0    1
 -2       367       369       368
 -1       144   12    0    1
 -2       369        12       370
 -1       145   12    0    1
 -2        11       372       371
 -1       146   12    0    1
 -2       372       374       373
 -1       147   12    0    1
 -2       374        18       375
 -1       148   12    0    1
 -2        11       377       376
 -1       149   12    0    1
 -2       377       379       378
 -1       150   12    0    1
 -2       379       381       380
 -1       151   12    0    1
 -2       381       383       382
 -1       152   12    0    1
 -2       383       385       384
 -1       153   12    0    1
 -2       385       387       386
 -1       154   12    0    1
 -2       387       389       388
 -1       155   12    0    1
 -2       389        19       390
 -1       156   12    0    1
 -2        12       407       406
 -1       157   12    0    1
 -2       407       409       408
 -1       158   12    0    1
 -2       409        19       410
 -1       159   12    0    1
 -2        15       467       466
 -1       160   12    0    1
 -2       467       469       468
 -1       161   12    0    1
 -2       469       471       470
 -1       162   12    0    1
 -2       471       473       472
 -1       163   12    0    1
 -2       473       475       474
 -1       164   12    0    1
 -2       475       477       476
 -1       165   12    0    1
 -2       477       479       478
 -1       166   12    0    1
 -2       479        16       480
 -1       167   12    0    1
 -2        15       482       481
 -1       168   12    0    1
 -2       482       484       483
 -1       169   12    0    1
 -2       484        22       485
 -1       170   12    0    1
 -2        15       487       486
 -1       171   12    0    1
 -2       487       489       488
 -1       172   12    0    1
 -2       489       491       490
 -1       173   12    0    1
 -2       491       493       492
 -1       174   12    0    1
 -2       493       495       494
 -1       175   12    0    1
 -2       495       497       496
 -1       176   12    0    1
 -2       497       499       498
 -1       177   12    0    1
 -2       499        23       500
 -1       178   12    0    1
 -2        16       502       501
 -1       179   12    0    1
 -2       502       504       503
 -1       180   12    0    1
 -2       504       506       505
 -1       181   12    0    1
 -2       506       508       507
 -1       182   12    0    1
 -2       508       510       509
 -1       183   12    0    1
 -2       510       512       511
 -1       184   12    0    1
 -2       512       514       513
 -1       185   12    0    1
 -2       514        17       515
 -1       186   12    0    1
 -2        16       517       516
 -1       187   12    0    1
 -2       517       519       518
 -1       188   12    0    1
 -2       519        23       520
 -1       189   12    0    1
 -2        16       522       521
 -1       190   12    0    1
 -2       522       524       523
 -1       191   12    0    1
 -2       524       526       525
 -1       192   12    0    1
 -2       526       528       527
 -1       193   12    0    1
 -2       528       530       529
 -1       194   12    0    1
 -2       530       532       531
 -1       195   12    0    1
 -2       532       534       533
 -1       196   12    0    1
 -2       534        24       535
 -1       197   12    0    1
 -2        17       537       536
 -1       198   12    0    1
 -2       537       539       538
 -1       199   12    0    1
 -2       539       541       540
 -1       200   12    0    1
 -2       541       543       542
 -1       201   12    0    1
 -2       543       545       544
 -1       202   12    0    1
 -2       545       547       546
 -1       203   12    0    1
 -2       547       549       548
 -1       204   12    0    1
 -2       549        18       550
 -1       205   12    0    1
 -2        17       552       551
 -1       206   12    0    1
 -2       552       554       553
 -1       207   12    0    1
 -2       554        24       555
 -1       208   12    0    1
 -2        17       557       556
 -1       209   12    0    1
 -2       557       559       558
 -1       210   12    0    1
 -2       559       561       560
 -1       211   12    0    1
 -2       561       563       562
 -1       212   12    0    1
 -2       563       565       564
 -1       213   12    0    1
 -2       565       567       566
 -1       214   12    0    1
 -2       567       569       568
 -1       215   12    0    1
 -2       569        25       570
 -1       216   12    0    1
 -2        18       572       571
 -1       217   12    0    1
 -2       572       574       573
 -1       218   12    0    1
 -2       574       576       575
 -1       219   12    0    1
 -2       576       578       577
 -1       220   12    0    1
 -2       578       580       579
 -1       221   12    0    1
 -2       580       582       581
 -1       222   12    0    1
 -2       582       584       583
 -1       223   12    0    1
 -2       584        19       585
 -1       224   12    0    1
 -2        18       587       586
 -1       225   12    0    1
 -2       587       589       588
 -1       226   12    0    1
 -2       589        25       590
 -1       227   12    0    1
 -2        18       592       591
 -1       228   12    0    1
 -2       592       594       593
 -1       229   12    0    1
 -2       594       596       595
 -1       230   12    0    1
 -2       596       598       597
 -1       231   12    0    1
 -2       598       600       599
 -1       232   12    0    1
 -2       600       602       601
 -1       233   12    0    1
 -2       602       604       603
 -1       234   12    0    1
 -2       604        26       605
 -1       235   12    0    1
 -2        19       607       606
 -1       236   12    0    1
 -2       607       609       608
 -1       237   12    0    1
 -2       609       611       610
 -1       238   12    0    1
 -2       611       613       612
 -1       239   12    0    1
 -2       613       615       614
 -1       240   12    0    1
 -2       615       617       616
 -1       241   12    0    1
 -2       617       619       618
 -1       242   12    0    1
 -2       619        20       620
 -1       243   12    0    1
 -2        19       622       621
 -1       244   12    0    1
 -2       622       624       623
 -1       245   12    0    1
 -2       624        26       625
 -1       246   12    0    1
 -2        19       627       626
 -1       247   12    0    1
 -2       627       629       628
 -1       248   12    0    1
 -2       629       631       630
 -1       249   12    0    1
 -2       631       633       632
 -1       250   12    0    1
 -2       633       635       634
 -1       251   12    0    1
 -2       635       637       636
 -1       252   12    0    1
 -2       637       639       638
 -1       253   12    0    1
 -2       639        27       640
 -1       254   12    0    1
 -2        20       642       641
 -1       255   12    0    1
 -2       642       644       643
 -1       256   12    0    1
 -2       644       646       645
 -1       257   12    0    1
 -2       646       648       647
 -1       258   12    0    1
 -2       648       650       649
 -1       259   12    0    1
 -2       650       652       651
 -1       260   12    0    1
 -2       652       654       653
 -1       261   12    0    1
 -2       654        21       655
 -1       262   12    0    1
 -2        20       657       656
 -1       263   12    0    1
 -2       657       659       658
 -1       264   12    0    1
 -2       659        27       660
 -1       265   12    0    1
 -2        20       662       661
 -1       266   12    0    1
 -2       662       664       663
 -1       267   12    0    1
 -2       664       666       665
 -1       268   12    0    1
 -2       666       668       667
 -1       269   12    0    1
 -2       668       670       669
 -1       270   12    0    1
 -2       670       672       671
 -1       271   12    0    1
 -2       672       674       673
 -1       272   12    0    1
 -2       674        28       675
 -1       273   12    0    1
 -2        21       677       676
 -1       274   12    0    1
 -2       677       679       678
 -1       275   12    0    1
 -2       679        28       680
 -1       276   12    0    1
 -2        22       682       681
 -1       277   12    0    1
 -2       682       684       683
 -1       278   12    0    1
 -2       684       686       685
 -1       279   12    0    1
 -2       686       688       687
 -1       280   12    0    1
 -2       688       690       689
 -1       281   12    0    1
 -2       690       692       691
 -1       282   12    0    1
 -2       692       694       693
 -1       283   12    0    1
 -2       694        23       695
 -1       284   12    0    1
 -2        22       697       696
 -1       285   12    0    1
 -2       697       699       698
 -1       286   12    0    1
 -2       699        29       700
 -1       287   12    0    1
 -2        22       702       701
 -1       288   12    0    1
 -2       702       704       703
 -1       289   12    0    1
 -2       704       706       705
 -1       290   12    0    1
 -2       706       708       707
 -1       291   12    0    1
 -2       708       710       709
 -1       292   12    0    1
 -2       710       712       711
 -1       293   12    0    1
 -2       712       714       713
 -1       294   12    0    1
 -2       714        30       715
 -1       295   12    0    1
 -2        23       717       716
 -1       296   12    0    1
 -2       717       719       718
 -1       297   12    0    1
 -2       719       721       720
 -1       298   12    0    1
 -2       721       723       722
 -1       299   12    0    1
 -2       723       725       724
 -1       300   12    0    1
 -2       725       727       726
 -1       301   12    0    1
 -2       727       729       728
 -1       302   12    0    1
 -2       729        24       730
 -1       303   12    0    1
 -2        23       732       731
 -1       304   12    0    1
 -2       732       734       733
 -1       305   12    0    1
 -2       734        30       735
 -1       306   12    0    1
 -2        23       737       736
 -1       307   12    0    1
 -2       737       739       738
 -1       308   12    0    1
 -2       739       741       740
 -1       309   12    0    1
 -2       741       743       742
 -1       310   12    0    1
 -2       743       745       744
 -1       311   12    0    1
 -2       745       747       746
 -1       312   12    0    1
 -2       747       749       748
 -1       313   12    0    1
 -2       749        31       750
 -1       314   12    0    1
 -2        24       752       751
 -1       315   12    0    1
 -2       752       754       753
 -1       316   12    0    1
 -2       754       756       755
 -1       317   12    0    1
 -2       756       758       757
 -1       318   12    0    1
 -2       758       760       759
 -1       319   12    0    1
 -2       760       762       761
 -1       320   12    0    1
 -2       762       764       763
 -1       321   12    0    1
 -2       764        25       765
 -1       322   12    0    1
 -2        24       767       766
 -1       323   12    0    1
 -2       767       769       768
 -1       324   12    0    1
 -2       769        31       770
 -1       325   12    0    1
 -2        24       772       771
 -1       326   12    0    1
 -2       772       774       773
 -1       327   12    0    1
 -2       774       776       775
 -1       328   12    0    1
 -2       776       778       777
 -1       329   12    0    1
 -2       778       780       779
 -1       330   12    0    1
 -2       780       782       781
 -1       331   12    0    1
 -2       782       784       783
 -1       332   12    0    1
 -2       784        32       785
 -1       333   12    0    1
 -2        25       787       786
 -1       334   12    0    1
 -2       787       789       788
 -1       335   12    0    1
 -2       789       791       790
 -1       336   12    0    1
 -2       791       793       792
 -1       337   12    0    1
 -2       793       795       794
 -1       338   12    0    1
 -2       795       797       796
 -1       339   12    0    1
 -2       797       799       798
 -1       340   12    0    1
 -2       799        26       800
 -1       341   12    0    1
 -2        25       802       801
 -1       342   12    0    1
 -2       802       804       803
 -1       343   12    0    1
 -2       804        32       805
 -1       344   12    0    1
 -2        25       807       806
 -1       345   12    0    1
 -2       807       809       808
 -1       346   12    0    1
 -2       809       811       810
 -1       347   12    0    1
 -2       811       813       812
 -1       348   12    0    1
 -2       813       815       814
 -1       349   12    0    1
 -2       815       817       816
 -1       350   12    0    1
 -2       817       819       818
 -1       351   12    0    1
 -2       819        33       820
 -1       352   12    0    1
 -2        26       822       821
 -1       353   12    0    1
 -2       822       824       823
 -1       354   12    0    1
 -2       824       826       825
 -1       355   12    0    1
 -2       826       828       827
 -1       356   12    0    1
 -2       828       830       829
 -1       357   12    0    1
 -2       830       832       831
 -1       358   12    0    1
 -2       832       834       833
 -1       359   12    0    1
 -2       834        27       835
 -1       360   12    0    1
 -2        26       837       836
 -1       361   12    0    1
 -2       837       839       838
 -1       362   12    0    1
 -2       839        33       840
 -1       363   12    0    1
 -2        26       842       841
 -1       364   12    0    1
 -2       842       844       843
 -1       365   12    0    1
 -2       844       846       845
 -1       366   12    0    1
 -2       846       848       847
 -1       367   12    0    1
 -2       848       850       849
 -1       368   12    0    1
 -2       850       852       851
 -1       369   12    0    1
 -2       852       854       853
 -1       370   12    0    1
 -2       854        34       855
 -1       371   12    0    1
 -2        27       857       856
 -1       372   12    0    1
 -2       857       859       858
 -1       373   12    0    1
 -2       859       861       860
 -1       374   12    0    1
 -2       861       863       862
 -1       375   12    0    1
 -2       863       865       864
 -1       376   12    0    1
 -2       865       867       866
 -1       377   12    0    1
 -2       867       869       868
 -1       378   12    0    1
 -2       869        28       870
 -1       379   12    0    1
 -2        27       872       871
 -1       380   12    0    1
 -2       872       874       873
 -1       381   12    0    1
 -2       874        34       875
 -1       382   12    0    1
 -2        27       877       876
 -1       383   12    0    1
 -2       877       879       878
 -1       384   12    0    1
 -2       879       881       880
 -1       385   12    0    1
 -2       881       883       882
 -1       386   12    0    1
 -2       883       885       884
 -1       387   12    0    1
 -2       885       887       886
 -1       388   12    0    1
 -2       887       889       888
 -1       389   12    0    1
 -2       889        35       890
 -1       390   12    0    1
 -2        28       892       891
 -1       391   12    0    1
 -2       892       894       893
 -1       392   12    0    1
 -2       894        35       895
 -1       393   12    0    1
 -2        29       897       896
 -1       394   12    0    1
 -2       897       899       898
 -1       395   12    0    1
 -2       899       901       900
 -1       396   12    0    1
 -2       901       903       902
 -1       397   12    0    1
 -2       903       905       904
 -1       398   12    0    1
 -2       905       907       906
 -1       399   12    0    1
 -2       907       909       908
 -1       400   12    0    1
 -2       909        30       910
 -1       401   12    0    1
 -2        30       912       911
 -1       402   12    0    1
 -2       912       914       913
 -1       403   12    0    1
 -2       914       916       915
 -1       404   12    0    1
 -2       916       918       917
 -1       405   12    0    1
 -2       918       920       919
 -1       406   12    0    1
 -2       920       922       921
 -1       407   12    0    1
 -2       922       924       923
 -1       408   12    0    1
 -2       924        31       925
 -1       409   12    0    1
 -2        31       927       926
 -1       410   12    0    1
 -2       927       929       928
 -1       411   12    0    1
 -2       929       931       930
 -1       412   12    0    1
 -2       931       933       932
 -1       413   12    0    1
 -2       933       935       934
 -1       414   12    0    1
 -2       935       937       936
 -1       415   12    0    1
 -2       937       939       938
 -1       416   12    0    1
 -2       939        32       940
 -1       417   12    0    1
 -2        32       942       941
 -1       418   12    0    1
 -2       942       944       943
 -1       419   12    0    1
 -2       944       946       945
 -1       420   12    0    1
 -2       946       948       947
 -1       421   12    0    1
 -2       948       950       949
 -1       422   12    0    1
 -2       950       952       951
 -1       423   12    0    1
 -2       952       954       953
 -1       424   12    0    1
 -2       954        33       955
 -1       425   12    0    1
 -2        33       957       956
 -1       426   12    0    1
 -2       957       959       958
 -1       427   12    0    1
 -2       959       961       960
 -1       428   12    0    1
 -2       961       963       962
 -1       429   12    0    1
 -2       963       965       964
 -1       430   12    0    1
 -2       965       967       966
 -1       431   12    0    1
 -2       967       969       968
 -1       432   12    0    1
 -2       969        34       970
 -1       433   12    0    1
 -2        34       972       971
 -1       434   12    0    1
 -2       972       974       973
 -1       435   12    0    1
 -2       974       976       975
 -1       436   12    0    1
 -2       976       978       977
 -1       437   12    0    1
 -2       978       980       979
 -1       438   12    0    1
 -2       980       982       981
 -1       439   12    0    1
 -2       982       984       983
 -1       440   12    0    1
 -2       984        35       985
 -3
    1PSTEP                         1           1           1          
  100CL  101 1.000000000         841                     0    1           1
 -4  DISP        4    1
 -5  D1          1    2    1    0
 -5  D2          1    2    2    0
 -5  D3          1    2    3    0
 -5  ALL         1    2    0    0    1ALL
 -1         1 1.19831E-04 0.00000E+00 0.00000E+00
 -1         2 8.90444E-05 0.00000E+00 0.00000E+00
 -1         3 7.47575E-05 0.00000E+00 0.00000E+00
 -1         4 6.74314E-05 0.00000E+00 0.00000E+00
 -1         5 6.44469E-05 0.00000E+00 0.00000E+00
 -1         8 9.31747E-05-1.21335E-06 0.00000E+00
 -1         9 7.56069E-05 1.41944E-06 0.00000E+00
 -1        10 7.02279E-05-3.68600E-06 0.00000E+00
 -1        11 6.55624E-05-7.82053E-07 0.00000E+00
 -1        12 6.15169E-05 1.83286E-06 0.00000E+00
 -1        15 3.82663E-05-2.52604E-06 0.00000E+00
 -1        16 5.22654E-05 1.47363E-06 0.00000E+00
 -1        17 4.92956E-05-7.42290E-06 0.00000E+00
 -1        18 5.08024E-05-1.49025E-06 0.00000E+00
 -1        19 5.38820E-05 3.61869E-06 0.00000E+00
 -1        20 5.47465E-05 3.79997E-05 0.00000E+00
 -1        21 5.46855E-05 9.13973E-05 0.00000E+00
 -1        22 1.42719E-05-1.61919E-06 0.00000E+00
 -1        23 1.89571E-05 2.45122E-06 0.00000E+00
 -1        24 2.00940E-05-8.56149E-06 0.00000E+00
 -1        25 4.29786E-05-1.08164E-06 0.00000E+00
 -1        26 4.64399E-05 4.77448E-06 0.00000E+00
 -1        27 4.33779E-05 3.66769E-05 0.00000E+00
 -1        28 3.97795E-05 9.01443E-05 0.00000E+00
 -1        29 0.00000E+00 0.00000E+00 0.00000E+00
 -1        30 6.78773E-06 3.07929E-06 0.00000E+00
 -1        31 8.78407E-06-7.14363E-06 0.00000E+00
 -1        32 0.00000E+00 0.00000E+00 0.00000E+00
 -1        33 3.53750E-05 7.83679E-06 0.00000E+00
 -1        34 3.34117E-05 3.65649E-05 0.00000E+00
 -1        35 2.87188E-05 8.94835E-05 0.00000E+00
 -1        36 1.17968E-04 8.85697E-19 2.64698E-23
 -1        37 1.16044E-04 3.48859E-18-2.64698E-23
 -1        38 1.14124E-04 6.70083E-18 0.00000E+00
 -1        39 1.12192E-04 9.18360E-18 2.64698E-23
 -1        40 1.10260E-04 9.92812E-18 0.00000E+00
 -1        41 1.08325E-04 8.31967E-18 0.00000E+00
 -1        42 1.06391E-04 4.78805E-18 5.29396E-23
 -1        43 1.04456E-04-5.05622E-20-2.64698E-23
 -1        44 1.02520E-04-4.91944E-18 5.29396E-23
 -1        45 1.00585E-04-8.41127E-18-2.64698E-23
 -1        46 9.86506E-05-9.93401E-18 0.00000E+00
 -1        47 9.67173E-05-9.13080E-18-2.64698E-23
 -1        48 9.47843E-05-6.68720E-18-5.29396E-23
 -1        49 9.28590E-05-3.47248E-18 2.64698E-23
 -1        50 9.09312E-05-8.86304E-19 5.29396E-23
 -1        51 1.17852E-04-2.04917E-07 0.00000E+00
 -1        52 1.14534E-04-4.00607E-07 0.00000E+00
 -1        53 1.10136E-04-5.96013E-07 0.00000E+00
 -1        54 1.04928E-04-7.94050E-07 0.00000E+00
 -1        55 9.91828E-05-9.96968E-07 2.48154E-24
 -1        56 1.17614E-04-1.12328E-06 0.00000E+00
 -1        57 1.15482E-04-2.72576E-06-2.64698E-23
 -1        58 1.13465E-04-4.62122E-06 0.00000E+00
 -1        59 1.11481E-04-6.64715E-06 0.00000E+00
 -1        60 1.09476E-04-8.61745E-06 0.00000E+00
 -1        61 1.07380E-04-1.03547E-05 2.64698E-23
 -1        62 1.05139E-04-1.17021E-05 5.29396E-23
 -1        63 1.02700E-04-1.25237E-05-2.64698E-23
 -1        64 1.00030E-04-1.27324E-05 0.00000E+00
 -1        65 9.71098E-05-1.22726E-05 2.64698E-23
 -1        66 9.39405E-05-1.11510E-05-5.29396E-23
 -1        67 9.05392E-05-9.40773E-06 0.00000E+00
 -1        68 8.69408E-05-7.14192E-06 5.29396E-23
 -1        69 8.32059E-05-4.47395E-06 0.00000E+00
 -1        70 7.93775E-05-1.57285E-06 0.00000E+00
 -1        71 8.81489E-05 2.80629E-18 0.00000E+00
 -1        72 8.72547E-05 1.12847E-17 0.00000E+00
 -1        73 8.63603E-05 2.38489E-17-2.64698E-23
 -1        74 8.54662E-05 3.88888E-17 0.00000E+00
 -1        75 8.45721E-05 5.40940E-17 0.00000E+00
 -1        76 8.36780E-05 6.70156E-17 0.00000E+00
 -1        77 8.27840E-05 7.58753E-17-2.64698E-23
 -1        78 8.18900E-05 7.90026E-17-1.32349E-23
 -1        79 8.09960E-05 7.62659E-17 2.64698E-23
 -1        80 8.01021E-05 6.77631E-17 0.00000E+00
 -1        81 7.92082E-05 5.50864E-17 0.00000E+00
 -1        82 7.83148E-05 3.99331E-17-1.32349E-23
 -1        83 7.74214E-05 2.46404E-17 2.64698E-23
 -1        84 7.65302E-05 1.17233E-17 0.00000E+00
 -1        85 7.56382E-05 2.97869E-18 0.00000E+00
 -1        86 8.85871E-05 2.04687E-07-1.32349E-23
 -1        87 8.72406E-05 4.55234E-07 8.27181E-25
 -1        88 8.51517E-05 7.01406E-07-8.27181E-25
 -1        89 8.24592E-05 9.49751E-07 2.06795E-25
 -1        90 7.92503E-05 1.19883E-06 3.30872E-24
 -1        91 8.77498E-05 1.07513E-07 0.00000E+00
 -1        92 8.60651E-05 1.22909E-06-1.32349E-23
 -1        93 8.41457E-05 2.97490E-06 0.00000E+00
 -1        94 8.21478E-05 4.92446E-06 0.00000E+00
 -1        95 8.02591E-05 6.58479E-06 2.64698E-23
 -1        96 7.86604E-05 7.47469E-06 0.00000E+00
 -1        97 7.74272E-05 7.39221E-06 0.00000E+00
 -1        98 7.66183E-05 6.17725E-06 0.00000E+00
 -1        99 7.61381E-05 4.08294E-06 2.64698E-23
 -1       100 7.58771E-05 1.40076E-06 0.00000E+00
 -1       101 7.56470E-05-1.36378E-06 0.00000E+00
 -1       102 7.52583E-05-3.70120E-06 1.32349E-23
 -1       103 7.45783E-05-5.25809E-06 0.00000E+00
 -1       104 7.34900E-05-5.71368E-06 1.32349E-23
 -1       105 7.20177E-05-5.15055E-06-2.64698E-23
 -1       106 7.42917E-05 5.67198E-21 0.00000E+00
 -1       107 7.38325E-05 1.19292E-20 0.00000E+00
 -1       108 7.33729E-05-7.32179E-20 1.32349E-23
 -1       109 7.29144E-05-1.55686E-19 6.61744E-24
 -1       110 7.24561E-05-1.91379E-19 0.00000E+00
 -1       111 7.19979E-05-2.38695E-19 0.00000E+00
 -1       112 7.15398E-05-3.26692E-19 1.32349E-23
 -1       113 7.10818E-05-3.58296E-19 0.00000E+00
 -1       114 7.06238E-05-3.50088E-19 1.32349E-23
 -1       115 7.01659E-05-3.15344E-19 6.61744E-24
 -1       116 6.97080E-05-1.54651E-19 0.00000E+00
 -1       117 6.92504E-05-6.53787E-20-6.61744E-24
 -1       118 6.87929E-05-2.30370E-22 0.00000E+00
 -1       119 6.83368E-05 5.18564E-20 0.00000E+00
 -1       120 6.78802E-05 6.60433E-20 0.00000E+00
 -1       121 7.47546E-05-6.13685E-07 0.00000E+00
 -1       122 7.46208E-05-1.22723E-06 0.00000E+00
 -1       123 7.42273E-05-1.84089E-06 0.00000E+00
 -1       124 7.34466E-05-2.45491E-06 0.00000E+00
 -1       125 7.21539E-05-3.06944E-06 0.00000E+00
 -1       126 7.43140E-05-4.12684E-07 0.00000E+00
 -1       127 7.40334E-05-1.24820E-06 0.00000E+00
 -1       128 7.38709E-05-2.39997E-06-1.32349E-23
 -1       129 7.37845E-05-3.75302E-06 6.61744E-24
 -1       130 7.37166E-05-5.15590E-06-1.32349E-23
 -1       131 7.36105E-05-6.45580E-06 0.00000E+00
 -1       132 7.34160E-05-7.51946E-06-1.32349E-23
 -1       133 7.30851E-05-8.21837E-06 6.61744E-24
 -1       134 7.25941E-05-8.49011E-06 0.00000E+00
 -1       135 7.19228E-05-8.28103E-06 6.61744E-24
 -1       136 7.10836E-05-7.62486E-06-1.32349E-23
 -1       137 7.00926E-05-6.56432E-06 6.61744E-24
 -1       138 6.89932E-05-5.21591E-06 0.00000E+00
 -1       139 6.78330E-05-3.70129E-06 6.61744E-24
 -1       140 6.66672E-05-2.17361E-06-1.32349E-23
 -1       141 6.72393E-05-1.30486E-20 0.00000E+00
 -1       142 6.70504E-05-9.43213E-21 3.30872E-24
 -1       143 6.68613E-05-4.35804E-20 0.00000E+00
 -1       144 6.66727E-05-4.09545E-20-3.30872E-24
 -1       145 6.64842E-05-8.00198E-20 6.61744E-24
 -1       146 6.62959E-05-6.91409E-20 0.00000E+00
 -1       147 6.61075E-05-4.48392E-20 0.00000E+00
 -1       148 6.59192E-05 1.01536E-21-3.30872E-24
 -1       149 6.57310E-05 1.45836E-20 0.00000E+00
 -1       150 6.55429E-05 9.77990E-20 0.00000E+00
 -1       151 6.53549E-05 1.34450E-19 0.00000E+00
 -1       152 6.51676E-05 1.44935E-19 0.00000E+00
 -1       153 6.49805E-05 1.44957E-19 3.30872E-24
 -1       154 6.47970E-05 9.98336E-20 8.27181E-25
 -1       155 6.46123E-05 4.81159E-20-1.65436E-24
 -1       156 6.74805E-05-1.33156E-07 0.00000E+00
 -1       157 6.76057E-05-2.60978E-07 3.30872E-24
 -1       158 6.76392E-05-3.89208E-07 6.61744E-24
 -1       159 6.74139E-05-5.17799E-07 0.00000E+00
 -1       160 6.67733E-05-6.46071E-07 6.61744E-24
 -1       161 6.71589E-05-1.48887E-07-6.61744E-24
 -1       162 6.69152E-05-3.77104E-07 3.30872E-24
 -1       163 6.66903E-05-6.55364E-07 6.61744E-24
 -1       164 6.64729E-05-9.54239E-07-3.30872E-24
 -1       165 6.62513E-05-1.24186E-06 6.61744E-24
 -1       166 6.60136E-05-1.48656E-06 0.00000E+00
 -1       167 6.57497E-05-1.66140E-06 6.61744E-24
 -1       168 6.54498E-05-1.74024E-06-3.30872E-24
 -1       169 6.51079E-05-1.70677E-06 6.61744E-24
 -1       170 6.47183E-05-1.54593E-06-3.30872E-24
 -1       171 6.42803E-05-1.25593E-06 0.00000E+00
 -1       172 6.37945E-05-8.36156E-07 3.30872E-24
 -1       173 6.32649E-05-2.99922E-07 0.00000E+00
 -1       174 6.27013E-05 3.39979E-07 3.30872E-24
 -1       175 6.21070E-05 1.05641E-06 4.13590E-25
 -1       191 6.43423E-05 3.05151E-07-1.32349E-23
 -1       192 6.40783E-05 6.11020E-07 0.00000E+00
 -1       193 6.36584E-05 9.17010E-07 0.00000E+00
 -1       194 6.30879E-05 1.22290E-06 0.00000E+00
 -1       195 6.23719E-05 1.52844E-06 1.32349E-23
 -1       251 9.20973E-05 3.24028E-06-2.64698E-23
 -1       252 9.09981E-05 6.84911E-06 0.00000E+00
 -1       253 8.99042E-05 8.98141E-06 0.00000E+00
 -1       254 8.88079E-05 9.06753E-06 1.32349E-23
 -1       255 8.77097E-05 7.18775E-06 0.00000E+00
 -1       256 8.66058E-05 3.50508E-06 0.00000E+00
 -1       257 8.54976E-05-1.24471E-06 0.00000E+00
 -1       258 8.43879E-05-6.28094E-06 1.32349E-23
 -1       259 8.32808E-05-1.07320E-05 2.64698E-23
 -1       260 8.21789E-05-1.37509E-05 1.32349E-23
 -1       261 8.10808E-05-1.49456E-05 0.00000E+00
 -1       262 7.99838E-05-1.40008E-05 0.00000E+00
 -1       263 7.88841E-05-1.12810E-05 0.00000E+00
 -1       264 7.77849E-05-7.22527E-06-1.32349E-23
 -1       265 7.66821E-05-2.69733E-06 0.00000E+00
 -1       266 8.66971E-05-1.42320E-06 1.32349E-23
 -1       267 7.71007E-05-1.64456E-06 3.30872E-24
 -1       268 6.59171E-05-1.88197E-06 0.00000E+00
 -1       269 5.46883E-05-2.11639E-06 0.00000E+00
 -1       270 4.49598E-05-2.33644E-06-3.30872E-24
 -1       271 8.94557E-05 2.24607E-06 0.00000E+00
 -1       272 8.60675E-05 4.61357E-06 0.00000E+00
 -1       273 8.30540E-05 5.99682E-06-5.29396E-23
 -1       274 8.03611E-05 6.49613E-06 2.64698E-23
 -1       275 7.79500E-05 6.24325E-06-5.29396E-23
 -1       276 7.57638E-05 5.38516E-06 0.00000E+00
 -1       277 7.37427E-05 4.08549E-06-5.29396E-23
 -1       278 7.18213E-05 2.51870E-06-2.64698E-23
 -1       279 6.99320E-05 8.66274E-07-5.29396E-23
 -1       280 6.80062E-05-6.88041E-07 2.64698E-23
 -1       281 6.59764E-05-1.96327E-06 0.00000E+00
 -1       282 6.37787E-05-2.78516E-06 2.64698E-23
 -1       283 6.13513E-05-2.99194E-06-5.29396E-23
 -1       284 5.86485E-05-2.43373E-06 2.64698E-23
 -1       285 5.56086E-05-9.88775E-07 5.29396E-23
 -1       286 7.52627E-05 4.80775E-06-1.32349E-23
 -1       287 7.49262E-05 7.25154E-06 6.61744E-24
 -1       288 7.45912E-05 8.72337E-06-1.32349E-23
 -1       289 7.42582E-05 9.20824E-06 0.00000E+00
 -1       290 7.39252E-05 8.79329E-06 0.00000E+00
 -1       291 7.35917E-05 7.57724E-06-6.61744E-24
 -1       292 7.32574E-05 5.74164E-06 0.00000E+00
 -1       293 7.29223E-05 3.47597E-06-6.61744E-24
 -1       294 7.25868E-05 1.01424E-06 0.00000E+00
 -1       295 7.22512E-05-1.40703E-06 6.61744E-24
 -1       296 7.19162E-05-3.55558E-06 0.00000E+00
 -1       297 7.15816E-05-5.20255E-06 6.61744E-24
 -1       298 7.12477E-05-6.17103E-06 0.00000E+00
 -1       299 7.09120E-05-6.29280E-06 0.00000E+00
 -1       300 7.05768E-05-5.48736E-06-1.32349E-23
 -1       301 7.17094E-05 1.41404E-06 0.00000E+00
 -1       302 6.78009E-05 1.42948E-06-1.65436E-24
 -1       303 6.38918E-05 1.44877E-06-3.30872E-24
 -1       304 5.99925E-05 1.46779E-06 0.00000E+00
 -1       305 5.61137E-05 1.48237E-06 0.00000E+00
 -1       306 7.28131E-05 4.06355E-06-2.64698E-23
 -1       307 7.04017E-05 5.54581E-06 0.00000E+00
 -1       308 6.83803E-05 5.99817E-06 0.00000E+00
 -1       309 6.66884E-05 5.55048E-06 0.00000E+00
 -1       310 6.52758E-05 4.35566E-06 5.29396E-23
 -1       311 6.40797E-05 2.57820E-06 0.00000E+00
 -1       312 6.30351E-05 3.94495E-07 5.29396E-23
 -1       313 6.20733E-05-2.01173E-06 0.00000E+00
 -1       314 6.11242E-05-4.45226E-06 0.00000E+00
 -1       315 6.01178E-05-6.73820E-06 0.00000E+00
 -1       316 5.89847E-05-8.68390E-06 5.29396E-23
 -1       317 5.76588E-05-1.01098E-05 0.00000E+00
 -1       318 5.60759E-05-1.08468E-05 0.00000E+00
 -1       319 5.41844E-05-1.07364E-05-2.64698E-23
 -1       320 5.19207E-05-9.64229E-06 2.64698E-23
 -1       321 6.99196E-05-1.63534E-06 0.00000E+00
 -1       322 6.96263E-05-8.68067E-08-6.61744E-24
 -1       323 6.93327E-05 9.60133E-07 0.00000E+00
 -1       324 6.90421E-05 1.51161E-06 0.00000E+00
 -1       325 6.87518E-05 1.61861E-06 0.00000E+00
 -1       326 6.84620E-05 1.33707E-06 0.00000E+00
 -1       327 6.81722E-05 7.58067E-07-6.61744E-24
 -1       328 6.78823E-05-2.39796E-08 3.30872E-24
 -1       329 6.75924E-05-8.96299E-07-6.61744E-24
 -1       330 6.73025E-05-1.74513E-06 0.00000E+00
 -1       331 6.70127E-05-2.45882E-06 0.00000E+00
 -1       332 6.67230E-05-2.92722E-06 3.30872E-24
 -1       333 6.64335E-05-3.06236E-06 0.00000E+00
 -1       334 6.61437E-05-2.78001E-06 0.00000E+00
 -1       335 6.58537E-05-2.03368E-06-6.61744E-24
 -1       336 6.75403E-05-4.31068E-06-1.32349E-23
 -1       337 6.42645E-05-4.93582E-06 0.00000E+00
 -1       338 6.05995E-05-5.56195E-06 0.00000E+00
 -1       339 5.67476E-05-6.18663E-06 0.00000E+00
 -1       340 5.29120E-05-6.81151E-06-1.32349E-23
 -1       341 6.85101E-05-2.17041E-06 0.00000E+00
 -1       342 6.70930E-05-1.50128E-06-1.32349E-23
 -1       343 6.60162E-05-1.73463E-06-2.64698E-23
 -1       344 6.52845E-05-2.89806E-06 0.00000E+00
 -1       345 6.47920E-05-4.70107E-06 2.64698E-23
 -1       346 6.44200E-05-6.82859E-06-1.32349E-23
 -1       347 6.40103E-05-8.85519E-06 0.00000E+00
 -1       348 6.34055E-05-1.03596E-05 1.32349E-23
 -1       349 6.25139E-05-1.10975E-05 2.64698E-23
 -1       350 6.12549E-05-1.08554E-05 0.00000E+00
 -1       351 5.96727E-05-9.75362E-06-2.64698E-23
 -1       352 5.78262E-05-7.94628E-06-1.32349E-23
 -1       353 5.58622E-05-5.82730E-06 0.00000E+00
 -1       354 5.39416E-05-3.79945E-06 1.32349E-23
 -1       355 5.21949E-05-2.24122E-06 0.00000E+00
 -1       356 6.53040E-05 5.66575E-07 0.00000E+00
 -1       357 6.50482E-05 1.60047E-06-3.30872E-24
 -1       358 6.47925E-05 2.32401E-06 0.00000E+00
 -1       359 6.45375E-05 2.74457E-06 0.00000E+00
 -1       360 6.42825E-05 2.89375E-06 0.00000E+00
 -1       361 6.40276E-05 2.80583E-06 0.00000E+00
 -1       362 6.37727E-05 2.53400E-06-6.61744E-24
 -1       363 6.35178E-05 2.13330E-06-3.30872E-24
 -1       364 6.32630E-05 1.66900E-06 0.00000E+00
 -1       365 6.30083E-05 1.20706E-06-3.30872E-24
 -1       366 6.27537E-05 8.13217E-07 0.00000E+00
 -1       367 6.25001E-05 5.52540E-07 0.00000E+00
 -1       368 6.22465E-05 4.79481E-07-6.61744E-24
 -1       369 6.19971E-05 6.46637E-07 0.00000E+00
 -1       370 6.17462E-05 1.08751E-06 4.13590E-25
 -1       371 6.35932E-05-9.07855E-07 0.00000E+00
 -1       372 6.07611E-05-1.02740E-06-1.65436E-24
 -1       373 5.75663E-05-1.14838E-06 0.00000E+00
 -1       374 5.45108E-05-1.26618E-06 0.00000E+00
 -1       375 5.20915E-05-1.38271E-06 0.00000E+00
 -1       376 6.44865E-05 4.35941E-07-1.32349E-23
 -1       377 6.34669E-05 1.47386E-06 6.61744E-24
 -1       378 6.25362E-05 2.27793E-06 0.00000E+00
 -1       379 6.17114E-05 2.79452E-06-6.61744E-24
 -1       380 6.09934E-05 3.02694E-06-1.32349E-23
 -1       381 6.03784E-05 2.98386E-06 0.00000E+00
 -1       382 5.98434E-05 2.72741E-06 0.00000E+00
 -1       383 5.93634E-05 2.32427E-06 0.00000E+00
 -1       384 5.89027E-05 1.86964E-06 0.00000E+00
 -1       385 5.84254E-05 1.45995E-06-6.61744E-24
 -1       386 5.78987E-05 1.18220E-06 1.32349E-23
 -1       387 5.72919E-05 1.12091E-06 0.00000E+00
 -1       388 5.65880E-05 1.31860E-06 0.00000E+00
 -1       389 5.57782E-05 1.81448E-06-6.61744E-24
 -1       390 5.48625E-05 2.58591E-06 0.00000E+00
 -1       406 6.04654E-05 2.13208E-06 0.00000E+00
 -1       407 5.93000E-05 2.43184E-06 6.61744E-24
 -1       408 5.80392E-05 2.73146E-06-1.32349E-23
 -1       409 5.67027E-05 3.03029E-06 0.00000E+00
 -1       410 5.53103E-05 3.32745E-06 0.00000E+00
 -1       466 3.91010E-05 1.55989E-06 0.00000E+00
 -1       467 3.99782E-05 3.76107E-06 0.00000E+00
 -1       468 4.08553E-05 4.63125E-06-2.64698E-23
 -1       469 4.17397E-05 4.67751E-06 0.00000E+00
 -1       470 4.26241E-05 4.15014E-06 0.00000E+00
 -1       471 4.35098E-05 3.27955E-06-1.32349E-23
 -1       472 4.43953E-05 2.18887E-06-2.64698E-23
 -1       473 4.52810E-05 9.93575E-07 0.00000E+00
 -1       474 4.61666E-05-2.23587E-07 0.00000E+00
 -1       475 4.70518E-05-1.38061E-06-1.32349E-23
 -1       476 4.79370E-05-2.37666E-06 2.64698E-23
 -1       477 4.88203E-05-3.10538E-06 0.00000E+00
 -1       478 4.97034E-05-3.37682E-06 0.00000E+00
 -1       479 5.05758E-05-2.98515E-06 0.00000E+00
 -1       480 5.14506E-05-1.51834E-06 0.00000E+00
 -1       481 3.33144E-05-2.38481E-06 1.65436E-24
 -1       482 2.86291E-05-2.23488E-06-1.65436E-24
 -1       483 2.42906E-05-2.08395E-06-3.30872E-24
 -1       484 2.03810E-05-1.93033E-06 0.00000E+00
 -1       485 1.70054E-05-1.77465E-06-3.30872E-24
 -1       486 3.58540E-05 1.11159E-06 1.32349E-23
 -1       487 3.42552E-05 2.48272E-06 0.00000E+00
 -1       488 3.35342E-05 1.52484E-06 0.00000E+00
 -1       489 3.36716E-05-1.75540E-06 0.00000E+00
 -1       490 3.43918E-05-6.60561E-06 0.00000E+00
 -1       491 3.53916E-05-1.22165E-05 1.32349E-23
 -1       492 3.62831E-05-1.75347E-05 0.00000E+00
 -1       493 3.66803E-05-2.15184E-05 0.00000E+00
 -1       494 3.63518E-05-2.35529E-05 0.00000E+00
 -1       495 3.50909E-05-2.30971E-05 1.32349E-23
 -1       496 3.29868E-05-2.04050E-05 0.00000E+00
 -1       497 3.01631E-05-1.58127E-05-1.32349E-23
 -1       498 2.69744E-05-1.02619E-05 2.64698E-23
 -1       499 2.37984E-05-4.72678E-06 1.32349E-23
 -1       500 2.09968E-05-1.81781E-07 1.32349E-23
 -1       501 5.20630E-05 4.61813E-06 0.00000E+00
 -1       502 5.18773E-05 6.46743E-06-3.30872E-24
 -1       503 5.16922E-05 7.12570E-06 0.00000E+00
 -1       504 5.15098E-05 6.70529E-06 3.30872E-24
 -1       505 5.13268E-05 5.38054E-06 0.00000E+00
 -1       506 5.11431E-05 3.33214E-06 0.00000E+00
 -1       507 5.09583E-05 7.82258E-07 0.00000E+00
 -1       508 5.07730E-05-2.04350E-06 0.00000E+00
 -1       509 5.05876E-05-4.90364E-06 0.00000E+00
 -1       510 5.04027E-05-7.55645E-06 0.00000E+00
 -1       511 5.02188E-05-9.77216E-06-6.61744E-24
 -1       512 5.00359E-05-1.13240E-05 0.00000E+00
 -1       513 4.98539E-05-1.20231E-05-6.61744E-24
 -1       514 4.96710E-05-1.16869E-05 0.00000E+00
 -1       515 4.94873E-05-1.01920E-05 0.00000E+00
 -1       516 4.75823E-05 1.62009E-06-6.61744E-24
 -1       517 4.12627E-05 1.78594E-06 5.16988E-26
 -1       518 3.42719E-05 1.94575E-06-1.65436E-24
 -1       519 2.75702E-05 2.11011E-06 0.00000E+00
 -1       520 2.21359E-05 2.28274E-06 2.06795E-25
 -1       521 4.91605E-05 3.93585E-06 5.29396E-23
 -1       522 4.64266E-05 5.22935E-06 0.00000E+00
 -1       523 4.40856E-05 5.48622E-06-5.29396E-23
 -1       524 4.20749E-05 4.83519E-06 2.64698E-23
 -1       525 4.03446E-05 3.43330E-06 0.00000E+00
 -1       526 3.88293E-05 1.45164E-06 0.00000E+00
 -1       527 3.74610E-05-9.24393E-07 0.00000E+00
 -1       528 3.61671E-05-3.50079E-06 2.64698E-23
 -1       529 3.48737E-05-6.07867E-06-5.29396E-23
 -1       530 3.35070E-05-8.45913E-06-2.64698E-23
 -1       531 3.19944E-05-1.04481E-05 0.00000E+00
 -1       532 3.02676E-05-1.18599E-05 0.00000E+00
 -1       533 2.82613E-05-1.25234E-05-5.29396E-23
 -1       534 2.59250E-05-1.22813E-05 0.00000E+00
 -1       535 2.31966E-05-1.10043E-05-5.29396E-23
 -1       536 4.93672E-05-4.41043E-06 0.00000E+00
 -1       537 4.94581E-05-2.11886E-06 0.00000E+00
 -1       538 4.95498E-05-4.68085E-07 0.00000E+00
 -1       539 4.96450E-05 6.21869E-07 8.27181E-25
 -1       540 4.97409E-05 1.23030E-06 1.65436E-24
 -1       541 4.98375E-05 1.43606E-06 1.65436E-24
 -1       542 4.99343E-05 1.31761E-06 0.00000E+00
 -1       543 5.00311E-05 9.53092E-07 0.00000E+00
 -1       544 5.01279E-05 4.20400E-07-3.30872E-24
 -1       545 5.02246E-05-2.02750E-07-1.65436E-24
 -1       546 5.03214E-05-8.38715E-07 0.00000E+00
 -1       547 5.04181E-05-1.40987E-06 1.65436E-24
 -1       548 5.05148E-05-1.83852E-06 3.30872E-24
 -1       549 5.06114E-05-2.04687E-06-1.65436E-24
 -1       550 5.07079E-05-1.95682E-06 3.30872E-24
 -1       551 4.49275E-05-7.61105E-06 5.90659E-24
 -1       552 4.00844E-05-7.79487E-06 2.06795E-24
 -1       553 3.49710E-05-7.97906E-06-6.61744E-24
 -1       554 2.97961E-05-8.16501E-06 0.00000E+00
 -1       555 2.47685E-05-8.35443E-06 0.00000E+00
 -1       556 4.79853E-05-4.61724E-06 0.00000E+00
 -1       557 4.69187E-05-2.44244E-06 0.00000E+00
 -1       558 4.60682E-05-8.37682E-07 0.00000E+00
 -1       559 4.54080E-05 2.63933E-07 6.61744E-24
 -1       560 4.49120E-05 9.29529E-07 0.00000E+00
 -1       561 4.45546E-05 1.22690E-06 0.00000E+00
 -1       562 4.43099E-05 1.22394E-06 0.00000E+00
 -1       563 4.41525E-05 9.88689E-07 0.00000E+00
 -1       564 4.40567E-05 5.89229E-07 0.00000E+00
 -1       565 4.39969E-05 9.37004E-08 0.00000E+00
 -1       566 4.39476E-05-4.29728E-07 6.61744E-24
 -1       567 4.38834E-05-9.12878E-07-3.30872E-24
 -1       568 4.37788E-05-1.28759E-06 3.30872E-24
 -1       569 4.36087E-05-1.48580E-06 2.05018E-24
 -1       570 4.33484E-05-1.43953E-06 2.48154E-24
 -1       571 5.09866E-05-1.00302E-06 3.30872E-24
 -1       572 5.11772E-05-6.64163E-07 4.13590E-25
 -1       573 5.13695E-05-4.47908E-07-3.30872E-24
 -1       574 5.15626E-05-3.27157E-07 3.30872E-24
 -1       575 5.17561E-05-2.74718E-07 0.00000E+00
 -1       576 5.19498E-05-2.63230E-07 0.00000E+00
 -1       577 5.21435E-05-2.65326E-07-6.61744E-24
 -1       578 5.23372E-05-2.53617E-07 3.30872E-24
 -1       579 5.25309E-05-2.00712E-07 6.61744E-24
 -1       580 5.27246E-05-7.92148E-08 0.00000E+00
 -1       581 5.29183E-05 1.38269E-07 0.00000E+00
 -1       582 5.31118E-05 4.79122E-07 0.00000E+00
 -1       583 5.33053E-05 9.70709E-07 0.00000E+00
 -1       584 5.34984E-05 1.64016E-06 0.00000E+00
 -1       585 5.36910E-05 2.51447E-06 0.00000E+00
 -1       586 4.96654E-05-1.42082E-06 0.00000E+00
 -1       587 4.83631E-05-1.35071E-06-1.65436E-24
 -1       588 4.69687E-05-1.28069E-06-1.65436E-24
 -1       589 4.55569E-05-1.21137E-06 4.13590E-25
 -1       590 4.42024E-05-1.14360E-06 0.00000E+00
 -1       591 5.04762E-05-9.32328E-07 0.00000E+00
 -1       592 5.01787E-05-4.72578E-07 3.30872E-24
 -1       593 4.99100E-05-9.37188E-08-3.30872E-24
 -1       594 4.96648E-05 2.20365E-07 1.65436E-24
 -1       595 4.94375E-05 4.85778E-07 0.00000E+00
 -1       596 4.92224E-05 7.18550E-07-1.65436E-24
 -1       597 4.90135E-05 9.34693E-07-3.30872E-24
 -1       598 4.88047E-05 1.15021E-06 0.00000E+00
 -1       599 4.85902E-05 1.38111E-06 0.00000E+00
 -1       600 4.83640E-05 1.64338E-06-8.27181E-25
 -1       601 4.81200E-05 1.95303E-06-1.65436E-24
 -1       602 4.78524E-05 2.32607E-06 8.27181E-25
 -1       603 4.75553E-05 2.77851E-06 3.30872E-24
 -1       604 4.72233E-05 3.32645E-06 6.20385E-25
 -1       605 4.68512E-05 3.98600E-06 0.00000E+00
 -1       606 5.39435E-05 5.07857E-06 0.00000E+00
 -1       607 5.40002E-05 6.67124E-06 0.00000E+00
 -1       608 5.40555E-05 8.38895E-06 0.00000E+00
 -1       609 5.41099E-05 1.02228E-05 3.30872E-24
 -1       610 5.41640E-05 1.21640E-05 0.00000E+00
 -1       611 5.42177E-05 1.42033E-05-3.30872E-24
 -1       612 5.42713E-05 1.63318E-05 0.00000E+00
 -1       613 5.43246E-05 1.85403E-05-1.65436E-24
 -1       614 5.43778E-05 2.08198E-05 0.00000E+00
 -1       615 5.44309E-05 2.31611E-05-3.30872E-24
 -1       616 5.44838E-05 2.55552E-05 0.00000E+00
 -1       617 5.45366E-05 2.79930E-05 0.00000E+00
 -1       618 5.45894E-05 3.04655E-05 3.30872E-24
 -1       619 5.46420E-05 3.29635E-05 0.00000E+00
 -1       620 5.46944E-05 3.54779E-05 0.00000E+00
 -1       621 5.24956E-05 3.81155E-06 0.00000E+00
 -1       622 5.11465E-05 4.00573E-06 0.00000E+00
 -1       623 4.98507E-05 4.20008E-06-3.30872E-24
 -1       624 4.86239E-05 4.39402E-06 0.00000E+00
 -1       625 4.74820E-05 4.58688E-06 0.00000E+00
 -1       626 5.34347E-05 5.14104E-06 0.00000E+00
 -1       627 5.29326E-05 6.80176E-06 0.00000E+00
 -1       628 5.23822E-05 8.58835E-06 0.00000E+00
 -1       629 5.17895E-05 1.04865E-05 0.00000E+00
 -1       630 5.11600E-05 1.24819E-05 6.61744E-24
 -1       631 5.04993E-05 1.45600E-05-6.61744E-24
 -1       632 4.98129E-05 1.67062E-05 0.00000E+00
 -1       633 4.91063E-05 1.89058E-05 0.00000E+00
 -1       634 4.83850E-05 2.11444E-05 3.30872E-24
 -1       635 4.76545E-05 2.34073E-05 0.00000E+00
 -1       636 4.69203E-05 2.56799E-05 3.30872E-24
 -1       637 4.61879E-05 2.79476E-05 0.00000E+00
 -1       638 4.54626E-05 3.01958E-05 0.00000E+00
 -1       639 4.47497E-05 3.24099E-05 1.24077E-24
 -1       640 4.40540E-05 3.45753E-05-8.27181E-25
 -1       641 5.47474E-05 4.06257E-05 0.00000E+00
 -1       642 5.47459E-05 4.35346E-05 0.00000E+00
 -1       643 5.47437E-05 4.66861E-05-2.06795E-25
 -1       644 5.47406E-05 5.00396E-05 0.00000E+00
 -1       645 5.47369E-05 5.35549E-05 0.00000E+00
 -1       646 5.47328E-05 5.71917E-05 0.00000E+00
 -1       647 5.47283E-05 6.09097E-05 5.16988E-26
 -1       648 5.47237E-05 6.46689E-05 0.00000E+00
 -1       649 5.47191E-05 6.84290E-05 0.00000E+00
 -1       650 5.47145E-05 7.21498E-05 0.00000E+00
 -1       651 5.47102E-05 7.57912E-05 1.03398E-25
 -1       652 5.47060E-05 7.93129E-05-1.03398E-25
 -1       653 5.47024E-05 8.26748E-05 0.00000E+00
 -1       654 5.46980E-05 8.58364E-05 0.00000E+00
 -1       655 5.46948E-05 8.87574E-05 0.00000E+00
 -1       656 5.24632E-05 3.77860E-05 3.30872E-24
 -1       657 5.04756E-05 3.75618E-05-1.65436E-24
 -1       658 4.86787E-05 3.73385E-05 0.00000E+00
 -1       659 4.69672E-05 3.71152E-05 0.00000E+00
 -1       660 4.52355E-05 3.68913E-05 3.30872E-24
 -1       661 5.40126E-05 4.07013E-05 0.00000E+00
 -1       662 5.32029E-05 4.36306E-05 0.00000E+00
 -1       663 5.23206E-05 4.67508E-05 0.00000E+00
 -1       664 5.13798E-05 5.00299E-05 3.30872E-24
 -1       665 5.03915E-05 5.34349E-05 0.00000E+00
 -1       666 4.93678E-05 5.69340E-05-3.30872E-24
 -1       667 4.83205E-05 6.04956E-05 0.00000E+00
 -1       668 4.72615E-05 6.40881E-05 0.00000E+00
 -1       669 4.62027E-05 6.76801E-05 6.61744E-24
 -1       670 4.51559E-05 7.12403E-05 0.00000E+00
 -1       671 4.41330E-05 7.47372E-05 6.61744E-24
 -1       672 4.31457E-05 7.81390E-05-3.30872E-24
 -1       673 4.22061E-05 8.14138E-05-6.61744E-24
 -1       674 4.13248E-05 8.45288E-05 0.00000E+00
 -1       675 4.05164E-05 8.74518E-05 0.00000E+00
 -1       676 5.21915E-05 9.11884E-05 0.00000E+00
 -1       677 4.97017E-05 9.09779E-05-3.30872E-24
 -1       678 4.72158E-05 9.07677E-05 0.00000E+00
 -1       679 4.47336E-05 9.05581E-05 3.30872E-24
 -1       680 4.22549E-05 9.03483E-05-3.30872E-24
 -1       681 1.45567E-05 3.99483E-07 6.61744E-24
 -1       682 1.48506E-05 1.67265E-06 3.30872E-24
 -1       683 1.51446E-05 2.35521E-06-6.61744E-24
 -1       684 1.54402E-05 2.59521E-06 3.30872E-24
 -1       685 1.57360E-05 2.49735E-06 0.00000E+00
 -1       686 1.60319E-05 2.16248E-06 3.30872E-24
 -1       687 1.63279E-05 1.66816E-06 0.00000E+00
 -1       688 1.66238E-05 1.09016E-06 0.00000E+00
 -1       689 1.69197E-05 4.96003E-07 0.00000E+00
 -1       690 1.72155E-05-4.69473E-08 0.00000E+00
 -1       691 1.75112E-05-4.66310E-07 6.61744E-24
 -1       692 1.78063E-05-6.88298E-07 3.30872E-24
 -1       693 1.81013E-05-6.19763E-07-6.61744E-24
 -1       694 1.83926E-05-1.64212E-07-3.30872E-24
 -1       695 1.86848E-05 8.12654E-07 1.65436E-24
 -1       696 1.17931E-05-1.35662E-06 0.00000E+00
 -1       697 9.18272E-06-1.08728E-06 0.00000E+00
 -1       698 6.56710E-06-8.18350E-07 0.00000E+00
 -1       699 4.07271E-06-5.47232E-07 3.30872E-24
 -1       700 1.83698E-06-2.75662E-07 0.00000E+00
 -1       701 1.31049E-05 5.82721E-07 0.00000E+00
 -1       702 1.19920E-05 2.58974E-06 3.30872E-24
 -1       703 1.09795E-05 4.33393E-06 0.00000E+00
 -1       704 1.00902E-05 5.74213E-06 0.00000E+00
 -1       705 9.33951E-06 6.78178E-06-6.61744E-24
 -1       706 8.73781E-06 7.42358E-06 0.00000E+00
 -1       707 8.27942E-06 7.68371E-06 1.32349E-23
 -1       708 7.95637E-06 7.58288E-06 6.61744E-24
 -1       709 7.74553E-06 7.18269E-06 0.00000E+00
 -1       710 7.62244E-06 6.54850E-06-6.61744E-24
 -1       711 7.55262E-06 5.77218E-06-6.61744E-24
 -1       712 7.50150E-06 4.94752E-06-3.30872E-24
 -1       713 7.43145E-06 4.17353E-06 6.61744E-24
 -1       714 7.30849E-06 3.54989E-06-3.30872E-24
 -1       715 7.09795E-06 3.15672E-06 3.30872E-24
 -1       716 1.90208E-05 3.87618E-06 0.00000E+00
 -1       717 1.90957E-05 4.21693E-06 0.00000E+00
 -1       718 1.91698E-05 3.66254E-06 0.00000E+00
 -1       719 1.92452E-05 2.39926E-06 0.00000E+00
 -1       720 1.93199E-05 5.95885E-07 0.00000E+00
 -1       721 1.93942E-05-1.58041E-06-8.27181E-25
 -1       722 1.94681E-05-3.97167E-06 0.00000E+00
 -1       723 1.95420E-05-6.42068E-06 8.27181E-25
 -1       724 1.96160E-05-8.77155E-06 0.00000E+00
 -1       725 1.96903E-05-1.08681E-05 0.00000E+00
 -1       726 1.97653E-05-1.25480E-05 0.00000E+00
 -1       727 1.98400E-05-1.36475E-05 0.00000E+00
 -1       728 1.99150E-05-1.39885E-05 2.06795E-25
 -1       729 1.99847E-05-1.33905E-05 0.00000E+00
 -1       730 2.00547E-05-1.16505E-05 0.00000E+00
 -1       731 1.67601E-05 2.54577E-06 0.00000E+00
 -1       732 1.41764E-05 2.65088E-06 0.00000E+00
 -1       733 1.15445E-05 2.75515E-06-1.65436E-24
 -1       734 9.20277E-06 2.86210E-06 1.65436E-24
 -1       735 7.50001E-06 2.97040E-06 0.00000E+00
 -1       736 1.83514E-05 1.93850E-06 0.00000E+00
 -1       737 1.93757E-05-3.02123E-06 0.00000E+00
 -1       738 2.17193E-05-1.15599E-05 0.00000E+00
 -1       739 2.50118E-05-2.27143E-05 0.00000E+00
 -1       740 2.86668E-05-3.48676E-05-2.64698E-23
 -1       741 3.20866E-05-4.63742E-05-1.32349E-23
 -1       742 3.47302E-05-5.57498E-05 2.64698E-23
 -1       743 3.60702E-05-6.15741E-05 0.00000E+00
 -1       744 3.58927E-05-6.33109E-05-2.64698E-23
 -1       745 3.40218E-05-6.05420E-05 0.00000E+00
 -1       746 3.07031E-05-5.39657E-05 0.00000E+00
 -1       747 2.62312E-05-4.43855E-05-1.32349E-23
 -1       748 2.11957E-05-3.33468E-05 0.00000E+00
 -1       749 1.62127E-05-2.24322E-05 6.61744E-24
 -1       750 1.18767E-05-1.31978E-05 1.32349E-23
 -1       751 2.14375E-05-5.46801E-06 1.32349E-23
 -1       752 2.28670E-05-3.65473E-06 0.00000E+00
 -1       753 2.42926E-05-2.67925E-06-2.64698E-23
 -1       754 2.57341E-05-2.14759E-06 0.00000E+00
 -1       755 2.71763E-05-1.90584E-06 0.00000E+00
 -1       756 2.86216E-05-1.81652E-06-2.64698E-23
 -1       757 3.00673E-05-1.82510E-06-5.29396E-23
 -1       758 3.15136E-05-1.88257E-06-2.64698E-23
 -1       759 3.29598E-05-1.96656E-06 0.00000E+00
 -1       760 3.44058E-05-2.05618E-06 0.00000E+00
 -1       761 3.58515E-05-2.13365E-06-5.29396E-23
 -1       762 3.72949E-05-2.18045E-06 0.00000E+00
 -1       763 3.87379E-05-2.16141E-06 5.29396E-23
 -1       764 4.01694E-05-2.03762E-06 0.00000E+00
 -1       765 4.16046E-05-1.71343E-06 2.64698E-23
 -1       766 1.71531E-05-8.35283E-06-6.61744E-24
 -1       767 1.57680E-05-8.10694E-06 0.00000E+00
 -1       768 1.50879E-05-7.86253E-06 0.00000E+00
 -1       769 1.42691E-05-7.61531E-06 0.00000E+00
 -1       770 1.24563E-05-7.36802E-06 0.00000E+00
 -1       771 1.79124E-05-5.52461E-06 0.00000E+00
 -1       772 1.59190E-05-3.02744E-06 0.00000E+00
 -1       773 1.41102E-05-1.02703E-06 0.00000E+00
 -1       774 1.24707E-05 5.20207E-07 0.00000E+00
 -1       775 1.09850E-05 1.65812E-06 5.29396E-23
 -1       776 9.63656E-06 2.43104E-06 0.00000E+00
 -1       777 8.40852E-06 2.88352E-06 2.64698E-23
 -1       778 7.28403E-06 3.06043E-06 1.32349E-23
 -1       779 6.24615E-06 3.00679E-06 2.64698E-23
 -1       780 5.27786E-06 2.76790E-06 1.32349E-23
 -1       781 4.36215E-06 2.38915E-06-2.64698E-23
 -1       782 3.48210E-06 1.91612E-06-1.32349E-23
 -1       783 2.62079E-06 1.39446E-06 0.00000E+00
 -1       784 1.76220E-06 8.70100E-07-1.32349E-23
 -1       785 8.90488E-07 3.89040E-07 0.00000E+00
 -1       786 4.31824E-05-3.74030E-07-1.65436E-24
 -1       787 4.33983E-05 1.78742E-07 0.00000E+00
 -1       788 4.36139E-05 6.00572E-07 0.00000E+00
 -1       789 4.38315E-05 9.15150E-07 0.00000E+00
 -1       790 4.40494E-05 1.14592E-06 0.00000E+00
 -1       791 4.42676E-05 1.31613E-06 3.30872E-24
 -1       792 4.44858E-05 1.44892E-06 6.61744E-24
 -1       793 4.47042E-05 1.56733E-06 0.00000E+00
 -1       794 4.49226E-05 1.69435E-06 0.00000E+00
 -1       795 4.51409E-05 1.85302E-06-3.30872E-24
 -1       796 4.53592E-05 2.06643E-06 0.00000E+00
 -1       797 4.55773E-05 2.35781E-06 0.00000E+00
 -1       798 4.57953E-05 2.75055E-06-6.61744E-24
 -1       799 4.60122E-05 3.26825E-06-3.30872E-24
 -1       800 4.62292E-05 3.93485E-06 3.30872E-24
 -1       801 3.90818E-05-8.84096E-07 0.00000E+00
 -1       802 3.10445E-05-6.96743E-07 0.00000E+00
 -1       803 2.09927E-05-5.25790E-07 0.00000E+00
 -1       804 1.10512E-05-3.57457E-07 0.00000E+00
 -1       805 3.34453E-06-1.71563E-07-1.32349E-23
 -1       806 4.24853E-05-4.49927E-07 6.61744E-24
 -1       807 4.20083E-05 1.16187E-07 0.00000E+00
 -1       808 4.15490E-05 6.29669E-07 0.00000E+00
 -1       809 4.11040E-05 1.10235E-06 3.30872E-24
 -1       810 4.06696E-05 1.54599E-06 6.61744E-24
 -1       811 4.02416E-05 1.97224E-06-3.30872E-24
 -1       812 3.98157E-05 2.39273E-06 0.00000E+00
 -1       813 3.93876E-05 2.81909E-06-3.30872E-24
 -1       814 3.89529E-05 3.26294E-06 6.61744E-24
 -1       815 3.85072E-05 3.73590E-06 0.00000E+00
 -1       816 3.80464E-05 4.24956E-06 6.61744E-24
 -1       817 3.75660E-05 4.81557E-06-1.65436E-24
 -1       818 3.70618E-05 5.44554E-06 3.30872E-24
 -1       819 3.65302E-05 6.15113E-06 1.65436E-24
 -1       820 3.59676E-05 6.94408E-06 3.30872E-24
 -1       821 4.62610E-05 5.84213E-06-1.65436E-24
 -1       822 4.60708E-05 7.14778E-06 0.00000E+00
 -1       823 4.58806E-05 8.66801E-06-3.30872E-24
 -1       824 4.56883E-05 1.03788E-05-3.30872E-24
 -1       825 4.54956E-05 1.22558E-05-6.61744E-24
 -1       826 4.53023E-05 1.42743E-05 0.00000E+00
 -1       827 4.51086E-05 1.64093E-05 0.00000E+00
 -1       828 4.49147E-05 1.86357E-05-3.30872E-24
 -1       829 4.47207E-05 2.09281E-05 6.61744E-24
 -1       830 4.45266E-05 2.32610E-05 0.00000E+00
 -1       831 4.43325E-05 2.56088E-05 6.61744E-24
 -1       832 4.41387E-05 2.79459E-05 0.00000E+00
 -1       833 4.39452E-05 3.02467E-05-6.61744E-24
 -1       834 4.37531E-05 3.24857E-05 1.65436E-24
 -1       835 4.35611E-05 3.46375E-05 0.00000E+00
 -1       836 4.50950E-05 5.27553E-06 6.61744E-24
 -1       837 4.31963E-05 5.79386E-06 0.00000E+00
 -1       838 4.10099E-05 6.31067E-06 0.00000E+00
 -1       839 3.88009E-05 6.82642E-06 0.00000E+00
 -1       840 3.68339E-05 7.34360E-06 6.61744E-24
 -1       841 4.59872E-05 5.81924E-06 0.00000E+00
 -1       842 4.54343E-05 7.11390E-06 0.00000E+00
 -1       843 4.47951E-05 8.63907E-06-1.65436E-24
 -1       844 4.40764E-05 1.03722E-05-8.27181E-25
 -1       845 4.32892E-05 1.22870E-05-1.65436E-24
 -1       846 4.24435E-05 1.43564E-05 0.00000E+00
 -1       847 4.15509E-05 1.65501E-05-1.65436E-24
 -1       848 4.06229E-05 1.88374E-05 0.00000E+00
 -1       849 3.96718E-05 2.11857E-05-1.65436E-24
 -1       850 3.87101E-05 2.35620E-05-8.27181E-25
 -1       851 3.77505E-05 2.59331E-05 0.00000E+00
 -1       852 3.68054E-05 2.82653E-05 0.00000E+00
 -1       853 3.58873E-05 3.05261E-05 1.65436E-24
 -1       854 3.50081E-05 3.26831E-05 0.00000E+00
 -1       855 3.41796E-05 3.47062E-05-1.65436E-24
 -1       856 4.31663E-05 3.88684E-05 3.30872E-24
 -1       857 4.29438E-05 4.14535E-05 1.65436E-24
 -1       858 4.27207E-05 4.43826E-05 0.00000E+00
 -1       859 4.24952E-05 4.76049E-05 3.30872E-24
 -1       860 4.22687E-05 5.10692E-05 0.00000E+00
 -1       861 4.20412E-05 5.47235E-05 0.00000E+00
 -1       862 4.18132E-05 5.85154E-05 0.00000E+00
 -1       863 4.15848E-05 6.23924E-05 0.00000E+00
 -1       864 4.13563E-05 6.63015E-05 0.00000E+00
 -1       865 4.11279E-05 7.01900E-05 0.00000E+00
 -1       866 4.08998E-05 7.40049E-05 0.00000E+00
 -1       867 4.06724E-05 7.76936E-05 0.00000E+00
 -1       868 4.04457E-05 8.12035E-05-6.61744E-24
 -1       869 4.02207E-05 8.44829E-05-3.30872E-24
 -1       870 3.99965E-05 8.74800E-05 3.30872E-24
 -1       871 4.15839E-05 3.66605E-05 0.00000E+00
 -1       872 3.98914E-05 3.66429E-05 0.00000E+00
 -1       873 3.82646E-05 3.66250E-05 0.00000E+00
 -1       874 3.66668E-05 3.66066E-05-4.13590E-25
 -1       875 3.50613E-05 3.65874E-05 8.27181E-25
 -1       876 4.28399E-05 3.89438E-05 0.00000E+00
 -1       877 4.21843E-05 4.15573E-05 3.30872E-24
 -1       878 4.14163E-05 4.44670E-05 6.61744E-24
 -1       879 4.05550E-05 4.76286E-05 0.00000E+00
 -1       880 3.96156E-05 5.09974E-05 0.00000E+00
 -1       881 3.86145E-05 5.45298E-05 0.00000E+00
 -1       882 3.75678E-05 5.81828E-05-6.61744E-24
 -1       883 3.64915E-05 6.19139E-05 0.00000E+00
 -1       884 3.54017E-05 6.56809E-05 0.00000E+00
 -1       885 3.43142E-05 6.94415E-05 0.00000E+00
 -1       886 3.32450E-05 7.31536E-05 6.61744E-24
 -1       887 3.22099E-05 7.67747E-05 0.00000E+00
 -1       888 3.12251E-05 8.02624E-05-6.61744E-24
 -1       889 3.03050E-05 8.35727E-05 0.00000E+00
 -1       890 2.94687E-05 8.66629E-05-3.30872E-24
 -1       891 3.76160E-05 9.00343E-05-3.30872E-24
 -1       892 3.58670E-05 8.99234E-05 0.00000E+00
 -1       893 3.43180E-05 8.98130E-05 0.00000E+00
 -1       894 3.27537E-05 8.97028E-05 0.00000E+00
 -1       895 3.09589E-05 8.95920E-05 0.00000E+00
 -1       896 4.21517E-07 1.40535E-06 0.00000E+00
 -1       897 8.46691E-07 2.38364E-06-6.61744E-24
 -1       898 1.27194E-06 3.03056E-06-1.32349E-23
 -1       899 1.69790E-06 3.43627E-06 6.61744E-24
 -1       900 2.12394E-06 3.65644E-06-1.32349E-23
 -1       901 2.55011E-06 3.74368E-06 6.61744E-24
 -1       902 2.97630E-06 3.73155E-06 1.32349E-23
 -1       903 3.40248E-06 3.65200E-06 6.61744E-24
 -1       904 3.82864E-06 3.52729E-06 1.32349E-23
 -1       905 4.25470E-06 3.37897E-06-6.61744E-24
 -1       906 4.68068E-06 3.22518E-06 0.00000E+00
 -1       907 5.10615E-06 3.08398E-06-6.61744E-24
 -1       908 5.53153E-06 2.97524E-06 0.00000E+00
 -1       909 5.95431E-06 2.91936E-06-6.61744E-24
 -1       910 6.37794E-06 2.94428E-06-6.61744E-24
 -1       911 6.91389E-06 2.90917E-06-3.30872E-24
 -1       912 7.04149E-06 2.03585E-06 1.65436E-24
 -1       913 7.16838E-06 6.09065E-07 0.00000E+00
 -1       914 7.29497E-06-1.22417E-06 0.00000E+00
 -1       915 7.42106E-06-3.33389E-06-3.30872E-24
 -1       916 7.54690E-06-5.59141E-06 0.00000E+00
 -1       917 7.67268E-06-7.87424E-06 0.00000E+00
 -1       918 7.79866E-06-1.00601E-05 0.00000E+00
 -1       919 7.92506E-06-1.20225E-05 0.00000E+00
 -1       920 8.05195E-06-1.36339E-05 0.00000E+00
 -1       921 8.17940E-06-1.47523E-05 0.00000E+00
 -1       922 8.30680E-06-1.52329E-05-1.65436E-24
 -1       923 8.43413E-06-1.49046E-05 0.00000E+00
 -1       924 8.55797E-06-1.35920E-05-8.27181E-25
 -1       925 8.68045E-06-1.10791E-05-1.65436E-24
 -1       926 8.24263E-06-2.38266E-06 1.32349E-23
 -1       927 7.68768E-06 2.52722E-06 0.00000E+00
 -1       928 7.13455E-06 7.20726E-06 1.32349E-23
 -1       929 6.58155E-06 1.12836E-05 6.61744E-24
 -1       930 6.03148E-06 1.44826E-05-1.32349E-23
 -1       931 5.48380E-06 1.65492E-05 6.61744E-24
 -1       932 4.93772E-06 1.74165E-05 0.00000E+00
 -1       933 4.39184E-06 1.70431E-05-6.61744E-24
 -1       934 3.84502E-06 1.55935E-05 0.00000E+00
 -1       935 3.29654E-06 1.32551E-05 0.00000E+00
 -1       936 2.74669E-06 1.03630E-05 0.00000E+00
 -1       937 2.19613E-06 7.26400E-06-6.61744E-24
 -1       938 1.64604E-06 4.33914E-06 1.32349E-23
 -1       939 1.09682E-06 1.96597E-06-6.61744E-24
 -1       940 5.49306E-07 4.30220E-07 0.00000E+00
 -1       941 2.09757E-06 1.99828E-07 2.64698E-23
 -1       942 4.31009E-06 5.19591E-07 0.00000E+00
 -1       943 6.51555E-06 9.11677E-07 5.29396E-23
 -1       944 8.74266E-06 1.33504E-06 0.00000E+00
 -1       945 1.09705E-05 1.77738E-06 0.00000E+00
 -1       946 1.32027E-05 2.22809E-06 2.64698E-23
 -1       947 1.54354E-05 2.68431E-06 0.00000E+00
 -1       948 1.76688E-05 3.14367E-06 0.00000E+00
 -1       949 1.99023E-05 3.60670E-06 0.00000E+00
 -1       950 2.21352E-05 4.07426E-06 2.64698E-23
 -1       951 2.43677E-05 4.55140E-06-5.29396E-23
 -1       952 2.65967E-05 5.04405E-06 0.00000E+00
 -1       953 2.88252E-05 5.57245E-06 5.29396E-23
 -1       954 3.10359E-05 6.16002E-06 2.64698E-23
 -1       955 3.32523E-05 6.88473E-06 0.00000E+00
 -1       956 3.52551E-05 9.03529E-06 0.00000E+00
 -1       957 3.51334E-05 1.03810E-05-3.10193E-25
 -1       958 3.50111E-05 1.18603E-05 2.06795E-24
 -1       959 3.48884E-05 1.34588E-05-4.13590E-25
 -1       960 3.47655E-05 1.51617E-05 8.27181E-25
 -1       961 3.46425E-05 1.69543E-05 8.27181E-25
 -1       962 3.45193E-05 1.88219E-05 1.65436E-24
 -1       963 3.43959E-05 2.07497E-05 0.00000E+00
 -1       964 3.42725E-05 2.27229E-05 3.30872E-24
 -1       965 3.41491E-05 2.47267E-05 0.00000E+00
 -1       966 3.40256E-05 2.67463E-05 0.00000E+00
 -1       967 3.39021E-05 2.87669E-05 0.00000E+00
 -1       968 3.37788E-05 3.07737E-05 0.00000E+00
 -1       969 3.36556E-05 3.27521E-05-1.65436E-24
 -1       970 3.35329E-05 3.46872E-05 3.30872E-24
 -1       971 3.31297E-05 3.85914E-05 0.00000E+00
 -1       972 3.28385E-05 4.10287E-05 0.00000E+00
 -1       973 3.25466E-05 4.38279E-05 0.00000E+00
 -1       974 3.22525E-05 4.69387E-05 0.00000E+00
 -1       975 3.19574E-05 5.03100E-05 0.00000E+00
 -1       976 3.16614E-05 5.38897E-05-3.30872E-24
 -1       977 3.13648E-05 5.76253E-05 0.00000E+00
 -1       978 3.10677E-05 6.14639E-05-3.30872E-24
 -1       979 3.07705E-05 6.53519E-05 0.00000E+00
 -1       980 3.04734E-05 6.92360E-05 3.30872E-24
 -1       981 3.01765E-05 7.30626E-05 0.00000E+00
 -1       982 2.98804E-05 7.67785E-05 0.00000E+00
 -1       983 2.95850E-05 8.03307E-05 0.00000E+00
 -1       984 2.92921E-05 8.36666E-05 3.30872E-24
 -1       985 2.89997E-05 8.67345E-05-1.32349E-23
 -3
    1PSTEP                         2           1           1          
  100CL  101 1.000000000         841                     0    1           1
 -4  STRESS      6    1
 -5  SXX         1    4    1    1
 -5  SYY         1    4    2    2
 -5  SZZ         1    4    3    3
 -5  SXY         1    4    1    2
 -5  SYZ         1    4    2    3
 -5  SZX         1    4    3    1
 -1         1-3.94796E+06-1.25499E+06-8.03157E+05-1.14263E+06-2.42532E-10 5.43271E-10
 -1         2-2.52730E+06-9.00120E+04 3.55828E+03-2.51548E+05-1.25965E-09 2.30011E-09
 -1         3-1.28815E+06-4.89960E+05-2.53803E+03-1.09486E+05-1.75419E-09-4.85261E-09
 -1         4-6.20552E+05-1.37080E+05 9.35077E+02-6.37217E+04-1.49385E-10-2.76759E-09
 -1         5-2.86836E+05 2.62606E+05-1.69948E+05-1.47877E+04 5.23141E-09-2.63174E-09
 -1         8-2.12389E+06-8.44798E+05-3.22672E+05-8.39092E+05-5.16593E-10-4.83851E-09
 -1         9-2.31200E+06-4.89012E+05-2.98085E+05-5.22407E+05-2.04939E-10 7.90169E-09
 -1        10-1.19891E+06-7.22159E+05-1.97975E+04-3.06337E+05 2.79260E-09-4.03725E-09
 -1        11-6.74205E+05-2.10322E+05 7.00286E+02-1.55477E+05 2.36105E-09-7.99901E-10
 -1        12-3.94845E+05 2.16253E+05-1.97106E+05-7.43821E+04 2.99769E-09 1.46598E-09
 -1        15 2.29323E+04-6.98161E+04 4.67292E+03-2.13914E+05-1.52068E-09-1.74259E-09
 -1        16-1.29652E+06-2.65139E+05-1.74413E+04-5.86368E+05 8.00355E-10 2.02757E-09
 -1        17-8.20369E+05-5.87916E+05-1.01022E+05-4.54740E+05-8.36735E-11 8.39160E-10
 -1        18-3.82087E+05-2.06854E+05-1.46248E+05-2.51578E+05 5.37875E-09-1.23570E-09
 -1        19-7.87188E+04 1.25760E+05-8.41579E+04-8.07221E+04-4.94462E-10 1.89842E-09
 -1        20 1.58459E+05-1.12178E+05-1.70798E+04 8.23724E+04 9.32687E-10 2.89219E-10
 -1        21-3.87517E+03-2.37189E+05 4.68258E+04 2.22631E+03 3.86294E-08 5.79642E-10
 -1        22 4.19987E+04 2.57481E+05 1.61315E+03-6.06291E+04-2.79215E-10-3.55976E-09
 -1        23-4.69637E+05 2.55229E+03 5.43360E+03-2.36041E+05 1.57949E-09-1.57646E-11
 -1        24-2.98456E+05 1.66472E+04 2.89932E+05-5.63594E+05-1.18501E-08-3.73499E-10
 -1        25 7.16434E+05 2.79888E+05 2.35387E+05-3.77954E+05 2.24948E-10-6.19912E-09
 -1        26 8.52794E+03 2.87268E+05 1.80305E+04-5.95168E+04 1.20508E-10 1.66680E-09
 -1        27-7.28959E+04-9.94402E+04-4.33807E+04 1.03709E+05 6.63507E-09-6.61870E-09
 -1        28-2.20179E+04-1.79517E+05-1.20096E+03 8.52401E+04 2.49725E-08-2.34863E-09
 -1        29 5.86875E+05 4.17358E+05 1.72752E+03-1.10371E+04-3.84031E-11-1.19326E-09
 -1        30 1.96034E+05 5.68149E+04 2.43860E+03-6.54334E+04 3.71955E-10-1.12050E-09
 -1        31-6.92821E+05 6.99028E+04 6.07167E+03-1.11039E+05 1.43567E-09-8.54925E-11
 -1        32 8.77587E+05 5.69764E+05 6.38243E+05-5.40164E+05 5.49390E-09 5.07134E-09
 -1        33 1.54407E+06 7.56381E+05 5.06664E+05-8.39696E+04-1.01981E-08-1.63527E-09
 -1        34-3.22132E+05-5.38068E+04-2.43335E+04 4.41875E+04 7.63663E-10-2.18915E-09
 -1        35-4.75456E+04-5.83719E+04-1.16289E+03 1.24485E+05 1.54931E-08-2.08092E-09
 -1        36-5.44237E+06 1.61579E+05-3.81025E+05-1.99860E-07-6.13620E-10-1.83354E-09
 -1        37-5.60611E+06-1.87280E+05-2.68474E+05 2.60289E-07 1.42958E-09-2.61934E-09
 -1        38-5.50570E+06 2.48037E+04-9.85385E+04-3.22250E-07-2.34991E-09-2.61934E-09
 -1        39-5.53197E+06-2.87336E+04-6.15059E+04-2.04287E-07-1.12094E-09 7.15499E-09
 -1        40-5.51590E+06 3.79978E+03-2.52661E+04-6.55909E-07-2.39049E-09 2.08820E-09
 -1        41-5.51994E+06-4.44996E+03-1.49624E+04-4.06665E-07-1.78942E-09 2.30671E-09
 -1        42-5.51755E+06 6.33381E+02-7.33840E+03 8.28560E-08-5.33308E-10-2.01590E-09
 -1        43-5.51816E+06-1.10870E+03-5.75333E+03-1.01846E-07-9.68190E-10 1.80130E-09
 -1        44-5.51764E+06 4.72471E+02-5.78751E+03-5.61821E-08-3.86612E-09-3.73575E-10
 -1        45-5.51916E+06-3.04058E+03-1.04984E+04-9.49073E-08-3.80213E-09 1.04742E-08
 -1        46-5.51656E+06 2.55678E+03-1.71697E+04 6.83335E-08-1.32071E-09-3.78350E-10
 -1        47-5.52720E+06-1.92893E+04-4.13850E+04 3.48438E-07-2.76431E-09 1.94814E-09
 -1        48-5.50973E+06 1.66445E+04-6.61846E+04-9.87345E-08-2.73497E-09-1.01500E-09
 -1        49-5.57694E+06-1.25674E+05-1.80191E+05-2.08778E-07-1.28282E-09-4.92764E-09
 -1        50-5.46728E+06 1.08413E+05-2.55834E+05 1.37573E-07-3.20163E-09 6.53381E-09
 -1        51 4.47562E+04-4.99265E+05 7.48404E+04-1.41226E+06-3.20142E-10 2.61934E-10
 -1        52 2.26918E+04-4.96633E+05 4.53991E+04-1.56383E+06 8.00355E-10-4.37285E-09
 -1        53 1.61809E+04-5.16030E+05 3.52793E+04-1.40824E+06-4.29281E-10 3.97267E-09
 -1        54 3.55778E+04-5.14300E+05 5.24837E+04-1.56791E+06-3.63798E-10-3.31784E-09
 -1        55 7.30513E+04-5.32472E+05 9.35398E+04-1.40735E+06 7.85803E-10-7.40692E-09
 -1        56-5.91119E+06-6.66455E+05-4.78761E+05-2.28165E+06 6.54836E-11 2.61934E-10
 -1        57-6.11313E+06-1.08069E+06-3.21419E+05-2.25192E+06 1.81899E-12-1.02591E-09
 -1        58-6.00672E+06-8.15380E+05-1.12582E+05-2.25233E+06 2.20098E-10-7.07223E-09
 -1        59-6.00336E+06-9.04306E+05-6.67534E+04-2.28585E+06 8.87667E-10-8.32006E-09
 -1        60-6.01936E+06-8.36797E+05-2.62732E+04-2.24965E+06 6.64386E-10-6.54745E-09
 -1        61-5.99225E+06-8.75421E+05-1.48526E+04-2.28454E+06-8.71296E-10-1.59116E-09
 -1        62-6.01738E+06-8.43558E+05-7.29779E+03-2.25375E+06-1.03864E-09 6.52955E-09
 -1        63-6.00012E+06-8.62483E+05-6.07739E+03-2.27330E+06 1.62959E-09 8.05528E-09
 -1        64-6.01128E+06-8.49750E+05-7.24840E+03-2.26080E+06 1.55705E-09 1.97269E-09
 -1        65-6.01479E+06-8.52487E+05-1.45933E+04-2.25821E+06 4.90218E-10 1.77351E-11
 -1        66-6.00273E+06-8.53663E+05-2.58977E+04-2.26880E+06-2.16878E-09-9.87711E-10
 -1        67-6.04214E+06-8.64484E+05-6.56170E+04-2.24082E+06-1.38618E-09-6.47560E-10
 -1        68-5.98438E+06-8.38440E+05-1.10738E+05-2.27809E+06 3.03589E-09-1.62981E-09
 -1        69-6.15594E+06-1.03239E+06-3.16087E+05-2.20140E+06 1.11686E-09-5.55883E-09
 -1        70-5.89071E+06-6.91556E+05-4.70795E+05-2.30644E+06-4.51109E-09 2.50293E-09
 -1        71-2.55512E+06-3.12828E+03 7.39636E+03-2.56913E-07-6.47347E-10 4.83624E-09
 -1        72-2.55171E+06 3.62699E+03 5.19824E+03 9.96637E-08-3.26398E-10 3.04345E-09
 -1        73-2.55389E+06-4.80017E+02 1.89556E+03-1.96715E-07-1.31615E-09 3.00338E-09
 -1        74-2.55314E+06 5.53733E+02 1.15468E+03 1.02468E-07-1.25915E-09 6.15641E-09
 -1        75-2.55369E+06-7.11127E+01 4.14323E+02 2.53779E-08 4.05239E-10-1.04848E-09
 -1        76-2.55339E+06 6.67827E+01 1.26562E+02 1.64653E-07 3.28265E-10 1.33451E-09
 -1        77-2.55364E+06 4.65337E+00-1.67080E+02-4.88527E-09-1.86982E-09-1.83431E-09
 -1        78-2.55349E+06-1.08593E+02-5.66950E+02-2.69241E-07-1.99873E-09-6.49294E-09
 -1        79-2.55359E+06 1.03661E+02-1.12649E+03-1.31734E-07-3.16701E-10-4.59050E-09
 -1        80-2.55386E+06-8.00443E+02-2.63177E+03-4.22592E-07 2.76124E-10 9.58494E-10
 -1        81-2.55327E+06 6.93674E+02-4.58887E+03 6.79821E-08-1.01461E-09-2.60616E-09
 -1        82-2.55607E+06-5.25709E+03-1.12605E+04 1.51106E-08 7.33760E-10-3.47995E-09
 -1        83-2.55140E+06 4.53904E+03-1.80756E+04 3.46754E-08-1.01979E-09 3.34694E-09
 -1        84-2.56963E+06-3.42761E+04-4.91994E+04-1.31672E-07 2.64320E-10 2.11003E-10
 -1        85-2.53978E+06 2.95628E+04-6.98985E+04 1.48726E-07-1.71328E-09-3.72893E-09
 -1        86-1.28320E+05 6.88916E+05 3.09243E+05 2.43322E+03 2.31375E-09-3.49394E-09
 -1        87 1.60398E+05 8.26254E+05 2.38668E+05-1.27399E+04 2.58478E-09-7.04779E-09
 -1        88-3.12319E+04 7.33972E+05 1.23149E+05 9.64733E+01 4.91673E-09-1.86026E-09
 -1        89 1.11606E+05 8.03161E+05 1.74180E+05-8.69736E+03 4.70391E-09-4.19050E-10
 -1        90-7.97759E+04 7.11912E+05 1.97727E+05-1.60740E+03 7.01402E-09-4.11774E-10
 -1        91-2.75954E+06-3.76064E+05-4.44557E+04-1.04893E+06 1.89630E-09-1.30058E-09
 -1        92-2.80008E+06-3.97396E+05-3.05403E+04-1.02001E+06 2.11639E-09 1.11731E-09
 -1        93-2.76276E+06-3.96961E+05-1.03948E+04-1.05191E+06-4.26371E-09 1.51385E-09
 -1        94-2.79270E+06-3.76385E+05-6.42203E+03-1.02023E+06-3.43641E-09-2.24907E-09
 -1        95-2.76689E+06-3.96971E+05-2.53049E+03-1.04875E+06 1.95882E-10-1.89982E-09
 -1        96-2.77972E+06-3.84232E+05-1.36731E+03-1.03271E+06 1.11007E-09 2.73897E-09
 -1        97-2.77565E+06-3.89163E+05-1.00935E+03-1.03937E+06-7.36577E-10 2.97587E-09
 -1        98-2.76401E+06-3.99650E+05-9.06808E+02-1.05077E+06-2.22758E-09-2.70084E-10
 -1        99-2.78261E+06-3.81539E+05-1.55654E+03-1.03071E+06 1.34537E-09-2.62764E-09
 -1       100-2.75708E+06-4.08882E+05-3.53104E+03-1.06016E+06-1.94814E-09-6.43422E-09
 -1       101-2.78266E+06-3.79880E+05-6.14414E+03-1.03003E+06 2.12083E-09-5.38239E-09
 -1       102-2.76681E+06-4.10067E+05-1.62502E+04-1.05195E+06 9.97602E-11 3.98450E-09
 -1       103-2.77286E+06-3.80429E+05-2.65293E+04-1.03887E+06 8.39464E-10-5.82077E-11
 -1       104-2.80837E+06-4.41053E+05-7.77023E+04-1.02568E+06-6.73936E-10-4.63842E-09
 -1       105-2.74119E+06-3.49131E+05-1.12797E+05-1.05624E+06 2.50111E-09-9.90258E-09
 -1       106-1.31731E+06-1.71039E+04 4.04786E+04 3.00834E-08-1.68260E-09 1.64255E-09
 -1       107-1.29979E+06 1.98329E+04 2.84790E+04-7.97147E-08-3.94339E-10 4.59477E-09
 -1       108-1.31059E+06-2.62611E+03 1.04607E+04-2.03130E-07-2.58892E-10 3.51156E-09
 -1       109-1.30763E+06 3.04028E+03 6.49961E+03-2.08259E-07-1.37101E-09-2.84024E-09
 -1       110-1.30949E+06-3.99922E+02 2.61434E+03-5.20516E-08 6.26755E-12 9.46329E-10
 -1       111-1.30891E+06 4.51721E+02 1.42825E+03-6.07378E-08-2.58897E-10 3.60774E-09
 -1       112-1.30931E+06-5.00014E+01 4.69928E+02-7.21894E-09-7.77735E-10-4.03594E-09
 -1       113-1.30917E+06-1.38893E+01-7.27014E+01 6.05000E-08-5.36299E-11-1.28938E-09
 -1       114-1.30924E+06 6.38562E+01-6.35801E+02 2.53329E-08-4.69029E-10 7.07968E-09
 -1       115-1.30946E+06-5.45556E+02-1.74928E+03 1.84867E-07-2.61079E-10 4.13422E-09
 -1       116-1.30902E+06 4.79549E+02-3.14921E+03 1.77410E-08 2.86415E-10 2.42642E-09
 -1       117-1.31099E+06-3.64187E+03-7.79360E+03 6.25666E-08-5.12389E-10 3.93243E-10
 -1       118-1.30771E+06 3.14534E+03-1.25316E+04 1.44311E-07-1.17789E-09-3.32329E-09
 -1       119-1.32038E+06-2.37529E+04-3.41090E+04 1.21418E-07-7.21867E-10 8.59836E-09
 -1       120-1.29965E+06 2.04863E+04-4.84611E+04 1.04892E-08-2.85944E-10-7.27596E-11
 -1       121-3.22828E+02-1.75329E+06 1.46168E+03 1.49746E+04 1.73713E-10-3.24962E-09
 -1       122 5.53569E+02-1.75238E+06 1.63439E+03 7.39478E+04 5.77643E-10-1.61140E-09
 -1       123-2.90238E+02-1.75320E+06 1.88698E+03 1.54834E+04 1.25550E-09 7.65795E-10
 -1       124 1.98830E+03-1.75105E+06 4.30799E+03 7.23225E+04 2.30466E-09 5.63659E-09
 -1       125-1.88959E+03-1.75409E+06 6.31326E+03 1.65995E+04 2.55068E-09 3.89264E-09
 -1       126-1.30940E+06-1.91892E+05 2.35019E+04-4.85327E+05-4.24279E-10-9.01582E-09
 -1       127-1.29141E+06-1.75990E+05 1.62694E+04-4.95386E+05 1.15051E-09 6.12522E-09
 -1       128-1.30583E+06-1.82288E+05 5.50117E+03-4.85422E+05 1.60162E-09 4.07840E-09
 -1       129-1.29559E+06-1.87121E+05 3.40320E+03-4.95291E+05-5.15604E-09-5.08180E-09
 -1       130-1.30525E+06-1.80798E+05 1.24323E+03-4.85419E+05-4.45642E-09-1.31979E-09
 -1       131-1.29718E+06-1.87879E+05 6.69082E+02-4.94160E+05-3.33788E-09-1.25334E-09
 -1       132-1.30423E+06-1.81540E+05 1.37531E+02-4.86548E+05-1.35327E-09 1.08437E-09
 -1       133-1.29992E+06-1.85524E+05-1.48224E+02-4.91034E+05-1.12148E-09-5.19735E-09
 -1       134-1.30250E+06-1.83163E+05-5.80982E+02-4.88535E+05 1.45860E-09-7.13271E-09
 -1       135-1.30373E+06-1.82548E+05-1.49100E+03-4.86937E+05 2.07113E-09-8.96753E-09
 -1       136-1.30042E+06-1.84519E+05-2.72254E+03-4.90644E+05 3.55200E-10 1.09230E-09
 -1       137-1.30866E+06-1.82800E+05-7.26193E+03-4.83049E+05-2.18358E-09 4.56282E-09
 -1       138-1.29759E+06-1.82916E+05-1.17548E+04-4.92429E+05 1.41426E-10-8.74479E-10
 -1       139-1.32175E+06-2.02189E+05-3.46541E+04-4.77854E+05 2.23133E-09-2.13913E-09
 -1       140-1.28737E+06-1.65214E+05-5.01590E+04-4.95821E+05 5.39330E-10-2.95950E-09
 -1       141-5.42552E+05-8.37823E+03 1.98264E+04-2.39058E-09 4.78016E-10 1.08867E-09
 -1       142-5.33975E+05 9.71435E+03 1.39425E+04 1.85821E-07 3.18697E-10 6.83940E-09
 -1       143-5.39252E+05-1.28593E+03 5.10277E+03 1.01936E-07-3.09146E-10 1.63914E-09
 -1       144-5.37817E+05 1.48560E+03 3.13381E+03-7.82333E-08 1.22415E-10-2.82114E-10
 -1       145-5.38715E+05-1.92677E+02 1.18136E+03 6.44425E-08-1.26175E-10-2.53692E-10
 -1       146-5.38461E+05 1.96129E+02 4.86110E+02 1.25705E-07 7.61712E-11-2.14412E-09
 -1       147-5.38609E+05-2.57887E+00-1.73096E+02-8.40642E-08-2.50301E-10 3.08717E-10
 -1       148-5.38675E+05-1.75245E+02-9.18682E+02-1.02867E-07-2.23442E-10 3.88860E-09
 -1       149-5.38501E+05 1.77374E+02-1.92309E+03-4.35583E-08-3.82287E-11 3.84671E-09
 -1       150-5.39328E+05-1.38006E+03-4.54139E+03 2.07851E-07 3.49812E-10-4.06260E-10
 -1       151-5.37958E+05 1.19734E+03-7.93748E+03 1.65428E-07-4.55934E-10-1.05410E-09
 -1       152-5.43134E+05-9.07537E+03-1.94722E+04-1.32914E-07-6.19548E-10-7.56222E-09
 -1       153-5.34700E+05 7.83599E+03-3.12574E+04 5.74705E-08 1.52122E-09-3.85626E-09
 -1       154-5.66512E+05-5.91716E+04-8.50047E+04-5.41277E-08 2.44770E-10 4.32919E-10
 -1       155-5.14583E+05 5.10367E+04-1.20719E+05-1.88727E-08 3.31590E-09-6.25732E-10
 -1       156-1.53980E+04-3.68739E+05 3.78017E+04-2.84537E+03-3.21961E-10 6.00575E-09
 -1       157 2.08160E+04-3.51477E+05 3.20408E+04 1.31607E+04-6.49379E-10 2.51838E-10
 -1       158-5.31201E+03-3.64146E+05 2.09371E+04-2.71225E+03 5.87875E-10-1.39323E-10
 -1       159 2.54585E+04-3.49132E+05 3.82003E+04 1.24435E+04-4.50655E-10-8.18304E-10
 -1       160-2.00338E+04-3.71056E+05 4.83583E+04-2.12807E+03 3.03953E-09-2.56153E-09
 -1       161-7.23176E+05-9.93029E+04-5.34112E+03-2.71633E+05 3.51065E-10 3.62866E-09
 -1       162-7.24328E+05-1.05678E+05-3.69617E+03-2.72504E+05-2.42665E-10-8.95341E-10
 -1       163-7.24367E+05-1.01078E+05-1.27119E+03-2.71149E+05-7.54000E-10-2.49707E-09
 -1       164-7.22991E+05-1.03579E+05-8.20372E+02-2.73011E+05-2.54555E-10-2.24296E-09
 -1       165-7.24510E+05-1.01392E+05-3.78731E+02-2.71128E+05 1.52582E-10-2.28653E-09
 -1       166-7.22993E+05-1.03090E+05-3.69550E+02-2.72857E+05-1.26652E-09-3.27829E-09
 -1       167-7.24365E+05-1.01566E+05-4.57651E+02-2.71303E+05 4.30148E-10-1.01812E-09
 -1       168-7.23495E+05-1.02838E+05-9.62500E+02-2.72371E+05 1.25269E-11 6.50019E-10
 -1       169-7.24007E+05-1.01645E+05-1.72487E+03-2.71614E+05-3.37295E-10 4.66287E-09
 -1       170-7.24857E+05-1.03627E+05-4.27201E+03-2.71536E+05-1.49328E-10 5.42667E-09
 -1       171-7.23006E+05-1.00782E+05-7.44109E+03-2.72138E+05-9.40190E-10 8.82665E-10
 -1       172-7.30559E+05-1.11749E+05-1.99003E+04-2.69366E+05 2.99110E-10-2.51930E-09
 -1       173-7.18318E+05-9.35571E+04-3.21111E+04-2.73774E+05 2.53203E-09-1.90266E-09
 -1       174-7.63255E+05-1.67532E+05-9.46342E+04-2.58388E+05 3.95994E-09-2.05546E-09
 -1       175-6.90356E+05-4.52327E+04-1.36892E+05-2.83035E+05 2.00089E-09 2.98314E-10
 -1       191 3.37657E+03 8.77037E+05 5.74137E+03-2.77464E+04-1.63709E-10 2.24281E-09
 -1       192 1.16863E+03 8.77929E+05 3.45186E+03-2.99735E+04-2.82171E-10-1.13323E-09
 -1       193 4.84140E+02 8.77292E+05 2.78034E+03-2.73396E+04-5.09772E-10 3.25963E-09
 -1       194 1.60100E+03 8.78006E+05 4.21993E+03-3.07211E+04-5.65706E-10 4.60750E-09
 -1       195 4.69842E+03 8.76778E+05 7.65097E+03-2.69894E+04-6.73026E-10-3.43789E-10
 -1       251-3.10313E+06 6.63875E+04-1.57301E+05-2.65368E+04 3.31056E-10-1.35042E-08
 -1       252-3.16819E+06-7.68331E+04-1.10260E+05 3.68199E+04-7.04858E-11-4.74029E-09
 -1       253-3.13099E+06 9.98615E+03-4.11543E+04-7.90764E+03 3.81760E-10 6.91216E-11
 -1       254-3.13622E+06-1.16646E+04-2.47202E+04-6.42265E+03-1.36015E-09-8.28277E-09
 -1       255-3.13472E+06 1.36350E+03-1.08442E+04 1.67049E+04-8.69932E-10-4.45652E-11
 -1       256-3.13374E+06-1.50118E+03-6.02419E+03-4.43778E+04 8.81641E-11 1.36515E-08
 -1       257-3.13379E+06 1.71556E+02-3.24451E+03 3.00485E+04-7.07786E-10 7.53266E-09
 -1       258-3.13377E+06-1.57834E+02-2.72471E+03-5.04058E+04 6.03933E-10 1.80498E-09
 -1       259-3.13478E+06 1.13720E+02-3.52171E+03 2.27337E+04-2.86514E-09 2.01089E-09
 -1       260-3.13180E+06-1.68857E+03-5.83291E+03-2.02779E+04 2.70120E-10 2.71598E-10
 -1       261-3.13537E+06 1.36664E+03-1.12581E+04-8.11673E+01-1.11208E-09 2.13504E-09
 -1       262-3.13700E+06-1.19381E+04-2.54758E+04 2.47672E+04 6.72117E-10 7.56427E-09
 -1       263-3.12965E+06 1.03341E+04-4.19187E+04-2.23106E+04-1.49271E-10 6.50653E-09
 -1       264-3.17085E+06-7.86853E+04-1.13390E+05 5.29827E+04-9.65497E-09-6.83940E-10
 -1       265-3.10206E+06 6.80978E+04-1.61269E+05-2.82975E+04-6.61430E-09 5.32600E-09
 -1       266-3.30310E+04-5.18700E+05 7.33512E+04 2.84800E+04-2.03727E-10 6.19184E-09
 -1       267 3.70237E+04-4.80787E+05 4.87379E+04-1.15859E+05-3.63798E-11 5.41627E-09
 -1       268-2.77822E+03-5.00124E+05 9.89373E+03 3.16504E+04 5.09317E-11-5.14807E-09
 -1       269-1.05328E+04-5.03294E+05-1.41012E+04-1.16064E+05 2.25555E-10 5.59930E-09
 -1       270 1.43047E+04-4.96263E+05-3.51394E+04 2.86841E+04-1.09139E-10 8.18864E-09
 -1       271-5.39112E+06-6.72496E+05-4.23918E+05-2.09689E+06-2.83762E-10-5.12227E-09
 -1       272-5.54956E+06-9.65269E+05-2.71163E+05-2.08654E+06 1.83536E-09-2.68119E-09
 -1       273-5.47129E+06-7.73145E+05-1.00006E+05-2.07763E+06 2.08865E-09-2.32103E-09
 -1       274-5.45451E+06-8.41129E+05-5.56559E+04-2.11726E+06-1.96542E-09-2.32467E-09
 -1       275-5.48408E+06-7.81208E+05-2.32894E+04-2.07211E+06-3.21052E-10 3.34694E-09
 -1       276-5.43866E+06-8.32130E+05-1.24474E+04-2.12630E+06 3.35967E-09 1.33696E-09
 -1       277-5.48742E+06-7.80250E+05-6.38447E+03-2.06954E+06-4.33829E-10 7.73070E-12
 -1       278-5.43517E+06-8.33208E+05-5.15312E+03-2.12962E+06-1.05979E-09 4.60545E-10
 -1       279-5.48786E+06-7.79801E+05-6.27383E+03-2.06906E+06-1.43359E-10 2.33013E-09
 -1       280-5.43716E+06-8.33709E+05-1.21881E+04-2.12832E+06 2.47837E-10-1.66619E-09
 -1       281-5.48535E+06-7.79941E+05-2.27068E+04-2.07071E+06 8.80391E-10-1.71531E-09
 -1       282-5.45140E+06-8.43819E+05-5.43477E+04-2.12109E+06-1.24464E-09-5.20959E-09
 -1       283-5.47347E+06-7.71471E+05-9.75728E+04-2.07544E+06-4.59295E-10-7.29051E-09
 -1       284-5.54312E+06-9.66012E+05-2.64686E+05-2.09223E+06 5.74801E-10-8.04721E-09
 -1       285-5.39563E+06-6.72838E+05-4.13752E+05-2.09378E+06-2.37924E-09-7.27596E-10
 -1       286-9.57746E+05-1.37349E+04 3.22485E+04-3.95016E+03 4.47676E-09-2.29193E-10
 -1       287-9.42424E+05 1.58867E+04 2.29502E+04-1.71220E+02 3.24616E-09 2.41926E-10
 -1       288-9.52414E+05-2.13875E+03 8.28699E+03-2.65434E+02-3.79714E-11-3.20188E-09
 -1       289-9.48815E+05 2.44412E+03 5.40652E+03-7.28898E+03-1.17694E-09 3.83602E-09
 -1       290-9.51389E+05-3.48333E+02 2.14428E+03 3.16761E+03 1.08696E-09-2.45518E-09
 -1       291-9.50259E+05 4.23422E+02 1.47070E+03-1.30874E+04 2.57489E-09-1.71600E-09
 -1       292-9.51036E+05-8.11667E+01 8.41626E+02 5.53295E+03 6.17888E-10 1.04745E-08
 -1       293-9.50718E+05 2.47661E+02 1.00876E+03-1.62014E+04 4.60744E-10-1.24703E-09
 -1       294-9.50981E+05-1.35558E+02 1.42087E+03 6.28182E+03 2.12703E-09-1.41358E-09
 -1       295-9.50303E+05 9.50423E+02 3.02335E+03-1.59088E+04 3.13925E-09-2.06643E-09
 -1       296-9.51444E+05-7.84909E+02 5.10231E+03 5.24032E+03 2.19865E-09-7.75958E-09
 -1       297-9.47470E+05 5.84411E+03 1.25750E+04-1.22804E+04 2.93352E-09-5.44219E-09
 -1       298-9.53750E+05-5.04786E+03 1.99461E+04 2.65325E+03 2.46587E-10 1.70985E-09
 -1       299-9.32080E+05 3.79241E+04 5.45925E+04-6.20179E+03-1.40454E-09-3.04772E-09
 -1       300-9.66736E+05-3.27382E+04 7.72389E+04-8.38465E+02-4.47017E-10 2.91766E-09
 -1       301 7.36731E+04 8.04767E+04 1.53778E+05-3.71021E+04-2.18279E-10 4.65326E-09
 -1       302 2.48691E+04 1.08642E+05 9.13385E+04-4.34122E+04 2.68165E-09-4.18378E-09
 -1       303 7.14544E+03 9.06670E+04 6.91607E+04-3.73513E+04-8.03539E-10 4.05998E-09
 -1       304 2.74790E+04 1.10099E+05 9.80477E+04-4.33649E+04 2.48474E-09 2.63753E-10
 -1       305 8.21983E+04 7.90442E+04 1.70124E+05-3.71185E+04-7.05768E-10 9.26661E-09
 -1       306-4.01176E+06-5.07436E+05-2.88869E+05-1.55717E+06 1.49157E-09-2.06637E-09
 -1       307-4.10167E+06-7.23587E+05-1.84562E+05-1.56982E+06 1.44246E-09 2.66664E-09
 -1       308-4.06685E+06-5.75221E+05-6.82108E+04-1.54357E+06 4.72937E-11 1.45519E-09
 -1       309-4.03674E+06-6.39826E+05-3.79181E+04-1.59178E+06 1.09139E-09 1.87356E-09
 -1       310-4.07580E+06-5.80409E+05-1.59246E+04-1.53960E+06 3.33785E-10-4.29281E-10
 -1       311-4.02599E+06-6.33872E+05-8.54004E+03-1.59833E+06-8.45830E-10-5.96242E-09
 -1       312-4.07809E+06-5.79722E+05-4.47230E+03-1.53787E+06-9.34051E-10 6.53858E-09
 -1       313-4.02386E+06-6.34444E+05-3.77299E+03-1.60044E+06-4.23802E-09 3.48075E-09
 -1       314-4.07820E+06-5.79572E+05-4.80222E+03-1.53773E+06-2.15971E-09 5.08817E-09
 -1       315-4.02571E+06-6.34504E+05-9.48650E+03-1.59894E+06 1.30876E-09 6.38988E-09
 -1       316-4.07606E+06-5.79880E+05-1.77900E+04-1.53920E+06 1.36015E-09 1.11504E-09
 -1       317-4.03695E+06-6.42137E+05-4.25290E+04-1.59279E+06-3.38241E-09 6.82667E-09
 -1       318-4.06657E+06-5.73472E+05-7.64545E+04-1.54303E+06 2.06785E-09 5.09317E-09
 -1       319-4.10869E+06-7.37309E+05-2.07045E+05-1.56963E+06-3.75167E-11 4.36557E-10
 -1       320-4.00542E+06-4.96723E+05-3.23906E+05-1.55754E+06-6.33008E-10-1.68802E-09
 -1       321-8.45468E+05-3.72981E+04 8.82378E+04-1.75808E+03-3.25207E-09-7.67614E-10
 -1       322-8.07088E+05 4.32375E+04 6.21495E+04-1.35542E+03-4.46479E-09 3.55158E-09
 -1       323-8.30802E+05-5.73405E+03 2.28139E+04-1.38374E+02-3.13719E-10-2.31921E-10
 -1       324-8.24223E+05 6.63029E+03 1.42695E+04-4.44911E+03-1.90994E-10-1.12914E-09
 -1       325-8.28382E+05-8.80066E+02 5.80196E+03 1.33595E+03 5.76108E-10 2.35400E-09
 -1       326-8.27113E+05 1.01678E+03 3.37701E+03-6.91199E+03-5.89694E-10 3.20767E-09
 -1       327-8.27937E+05-1.35785E+02 1.48306E+03 2.32453E+03-6.52278E-10-4.57879E-09
 -1       328-8.27655E+05 1.70856E+02 8.53658E+02-8.20080E+03-3.86557E-10-7.76421E-09
 -1       329-8.27854E+05-2.88340E+01 4.56347E+02 2.62478E+03-4.40671E-10-3.78630E-09
 -1       330-8.27696E+05 9.21048E+01 4.02058E+02-8.05135E+03-1.18703E-09-2.82301E-09
 -1       331-8.27894E+05-5.83178E+01 4.38221E+02 2.17508E+03-2.18620E-10 9.69962E-10
 -1       332-8.27446E+05 4.08768E+02 9.31562E+02-6.49362E+03-2.25469E-10-9.67042E-09
 -1       333-8.28090E+05-3.54068E+02 1.38906E+03 1.06701E+03-6.87976E-10-1.00385E-10
 -1       334-8.26304E+05 2.62895E+03 3.81864E+03-3.84419E+03-2.54659E-11 5.11574E-09
 -1       335-8.29019E+05-2.27828E+03 5.32591E+03-4.74380E+02-1.67199E-09-4.97153E-09
 -1       336-1.01284E+03-1.77341E+06 5.99489E+02-1.77869E+04 4.60113E-09 2.03545E-09
 -1       337-5.14695E+02-1.77400E+06-7.89355E+03-1.09154E+05 6.04120E-09-8.73115E-11
 -1       338 2.22922E+03-1.77131E+06-1.89726E+04-1.68938E+04 6.18274E-09 5.81167E-09
 -1       339-2.55688E+04-1.78874E+06-5.04188E+04-1.09984E+05 7.31598E-09 1.16504E-08
 -1       340 2.05809E+04-1.75914E+06-7.86429E+04-1.69652E+04 7.79255E-09 4.70573E-09
 -1       341-2.53743E+06-3.26967E+05-9.26958E+04-9.74775E+05 1.00226E-09-3.18323E-09
 -1       342-2.59046E+06-4.04589E+05-6.38587E+04-9.52068E+05-3.07227E-09 2.36014E-09
 -1       343-2.56336E+06-3.52682E+05-2.18220E+04-9.60520E+05-1.69348E-09 3.65890E-09
 -1       344-2.55681E+06-3.78706E+05-1.34374E+04-9.73147E+05-2.63114E-09-5.98448E-10
 -1       345-2.57101E+06-3.52651E+05-5.18863E+03-9.53753E+05-1.70473E-10-5.23050E-09
 -1       346-2.54945E+06-3.77156E+05-3.23485E+03-9.79145E+05-2.61423E-10-1.10558E-09
 -1       347-2.57073E+06-3.54179E+05-1.90440E+03-9.54550E+05 1.26386E-09 3.67648E-09
 -1       348-2.55550E+06-3.69799E+05-2.25044E+03-9.71287E+05 3.42155E-09 1.89402E-09
 -1       349-2.56490E+06-3.60046E+05-3.56516E+03-9.61571E+05-1.02216E-09-8.44921E-10
 -1       350-2.56962E+06-3.59404E+05-8.00159E+03-9.56252E+05 1.55526E-09-4.32544E-09
 -1       351-2.55662E+06-3.64595E+05-1.40536E+04-9.69576E+05-2.11094E-09 4.97494E-09
 -1       352-2.58898E+06-3.66556E+05-3.73563E+04-9.43039E+05-5.11318E-09 3.99996E-09
 -1       353-2.54566E+06-3.52919E+05-6.02919E+04-9.74827E+05 1.98088E-09 4.51109E-10
 -1       354-2.64832E+06-4.73571E+05-1.77822E+05-9.24745E+05 3.47245E-09 2.74849E-09
 -1       355-2.49750E+06-2.58036E+05-2.57307E+05-9.87767E+05 1.05247E-08-1.30967E-09
 -1       356-7.31632E+05-5.97720E+03 1.41118E+04-9.69326E+02-2.19018E-10 8.90577E-09
 -1       357-7.25349E+05 6.92403E+03 9.94556E+03-1.08122E+03-1.68126E-09 1.37243E-09
 -1       358-7.29279E+05-9.19489E+02 3.61283E+03-6.51740E+01-7.94699E-10-2.09411E-10
 -1       359-7.28111E+05 1.05578E+03 2.21923E+03-2.77945E+03 8.34234E-10 9.22796E-10
 -1       360-7.28878E+05-1.37207E+02 7.84045E+02 7.28959E+02 2.58296E-10-3.17749E-09
 -1       361-7.28619E+05 1.27336E+02 2.42456E+02-4.11246E+03-2.64536E-09-7.15583E-09
 -1       362-7.28778E+05 8.95699E+00-3.32367E+02 1.26785E+03-8.40600E-10-3.02290E-09
 -1       363-7.28848E+05-2.09212E+02-1.10760E+03-4.83746E+03 2.53806E-10 1.34023E-09
 -1       364-7.28655E+05 2.01452E+02-2.19844E+03 1.45397E+03 9.45740E-10 3.70812E-09
 -1       365-7.29575E+05-1.55373E+03-5.12922E+03-4.82422E+03-1.42157E-09 5.90717E-10
 -1       366-7.28053E+05 1.34794E+03-8.94546E+03 1.25461E+03 3.05221E-10-3.50428E-09
 -1       367-7.33828E+05-1.02185E+04-2.19200E+04-4.07251E+03 6.41279E-10-2.32103E-09
 -1       368-7.24405E+05 8.82159E+03-3.51983E+04 7.02232E+02 1.05908E-09-1.02918E-08
 -1       369-7.60113E+05-6.66268E+04-9.56958E+04-2.68445E+03 8.44125E-11 5.18230E-09
 -1       370-7.01773E+05 5.74635E+04-1.35926E+05-1.33246E+02 4.23549E-09-7.85803E-10
 -1       371-2.07253E+04-3.37505E+05 4.75207E+04 8.95369E+03 7.24685E-09-6.64897E-09
 -1       372 2.14942E+04-3.17372E+05 2.86130E+04-3.85508E+04 5.46197E-09 3.53403E-10
 -1       373-5.47087E+02-3.27721E+05 2.08937E+03 9.43560E+03 8.26185E-09-1.72008E-10
 -1       374-1.64595E+04-3.34806E+05-2.14447E+04-3.81901E+04 6.67524E-09 6.53239E-09
 -1       375 1.69999E+04-3.20043E+05-3.91707E+04 8.59259E+03 3.79441E-09 1.90585E-09
 -1       376-1.37060E+06-1.72775E+05-5.82341E+04-5.27016E+05 3.93629E-09-7.10133E-09
 -1       377-1.40431E+06-2.21882E+05-4.02370E+04-5.13185E+05 1.09503E-09-1.08025E-08
 -1       378-1.38343E+06-1.92393E+05-1.36814E+04-5.22012E+05 1.89175E-10-3.95994E-09
 -1       379-1.38835E+06-2.00193E+05-8.49834E+03-5.20165E+05 1.47338E-10-3.75621E-10
 -1       380-1.38651E+06-1.94362E+05-3.27871E+03-5.20061E+05-1.12348E-09-1.86617E-09
 -1       381-1.38410E+06-1.98663E+05-2.05883E+03-5.23248E+05 1.03082E-10 4.31669E-09
 -1       382-1.38767E+06-1.93905E+05-1.21649E+03-5.18935E+05-4.06047E-10 1.65022E-09
 -1       383-1.38283E+06-1.99487E+05-1.55637E+03-5.24614E+05 1.47566E-09 1.44691E-09
 -1       384-1.38779E+06-1.93534E+05-2.30709E+03-5.18699E+05 3.08972E-10-2.42790E-09
 -1       385-1.38415E+06-2.00733E+05-5.43453E+03-5.23955E+05 9.32346E-10-2.02652E-09
 -1       386-1.38636E+06-1.92666E+05-9.36864E+03-5.19592E+05 6.67342E-11 5.63205E-09
 -1       387-1.39224E+06-2.09937E+05-2.49788E+04-5.20096E+05-1.28136E-09-3.91174E-09
 -1       388-1.37972E+06-1.84378E+05-4.03072E+04-5.22546E+05 1.68620E-09-2.71029E-09
 -1       389-1.43504E+06-2.78228E+05-1.18785E+05-5.04301E+05 2.77396E-09 1.28239E-09
 -1       390-1.34365E+06-1.24672E+05-1.71834E+05-5.35297E+05 2.08092E-09-2.11003E-10
 -1       406 3.94598E+03 8.61351E+05 7.46662E+03-1.03871E+05-1.22782E-09 4.92582E-09
 -1       407 2.09627E+03 8.62587E+05 7.22152E+03-1.14831E+05-1.95496E-09-3.03407E-09
 -1       408 2.46965E+03 8.61265E+05 1.03517E+04-1.03565E+05-1.61981E-09-2.07365E-10
 -1       409 9.45185E+03 8.65098E+05 2.12564E+04-1.15200E+05-1.85173E-09-1.39198E-09
 -1       410 2.71445E+04 8.58478E+05 4.22995E+04-1.03453E+05-1.88447E-09 2.55841E-09
 -1       466 2.49306E+06-9.76584E+04 2.30934E+05 2.09845E+04-2.56023E-10-5.38421E-09
 -1       467 2.59628E+06 1.13044E+05 1.63176E+05-4.04162E+04 7.92454E-10-1.90812E-09
 -1       468 2.53302E+06-1.49514E+04 5.99731E+04 6.92996E+03 1.10981E-09-5.18776E-09
 -1       469 2.54972E+06 1.73055E+04 3.75978E+04-2.04281E+04-8.89088E-10-6.01949E-09
 -1       470 2.53953E+06-2.28895E+03 1.56450E+04 9.99137E+02 1.47159E-09 1.50612E-09
 -1       471 2.54219E+06 2.73502E+03 9.60049E+03-1.22280E+04 2.01352E-09 1.28205E-09
 -1       472 2.54056E+06-4.22489E+02 5.34724E+03-1.27024E+03 7.60508E-10 1.48248E-09
 -1       473 2.54125E+06 1.02626E+03 5.36770E+03-9.73309E+03 1.19714E-09 2.27585E-09
 -1       474 2.54047E+06-5.82683E+02 6.90658E+03-1.49582E+03-1.40275E-10 2.58024E-09
 -1       475 2.54293E+06 4.13916E+03 1.40712E+04-1.11673E+04-1.49964E-09 1.41517E-09
 -1       476 2.53887E+06-3.52476E+03 2.37627E+04 1.63990E+02 1.12300E-09-8.18545E-11
 -1       477 2.55428E+06 2.66910E+04 5.76632E+04-1.75583E+04-5.15911E-10 1.45519E-10
 -1       478 2.52907E+06-2.30423E+04 9.23163E+04 4.89531E+03-5.14433E-10 2.69574E-09
 -1       479 2.62424E+06 1.74106E+05 2.50826E+05-3.37750E+04-2.34081E-10-5.42786E-09
 -1       480 2.46890E+06-1.50215E+05 3.56079E+05 1.63769E+04 1.45315E-09-1.77533E-09
 -1       481-2.01528E+04 4.54101E+05 4.81273E+04-9.96393E+02 1.72804E-10 1.64812E-09
 -1       482 2.43884E+04 4.75165E+05 3.56208E+04-8.42053E+03-6.59384E-11 1.18611E-08
 -1       483-4.05965E+03 4.61533E+05 1.59566E+04-3.02307E+02-2.36469E-10 6.02580E-09
 -1       484 1.10267E+04 4.69094E+05 1.79895E+04-1.01152E+04-2.30102E-10 1.48407E-09
 -1       485-6.87988E+03 4.60201E+05 1.75409E+04 6.97723E+02 2.21007E-10-5.82361E-09
 -1       486-2.33030E+06-2.53540E+05-2.23450E+05-9.26464E+05-4.14730E-10 8.14907E-10
 -1       487-2.45056E+06-4.43024E+05-1.53096E+05-8.74501E+05 9.89075E-10-3.45608E-09
 -1       488-2.39289E+06-3.15248E+05-5.28322E+04-8.91957E+05 7.27596E-10-3.27418E-10
 -1       489-2.37154E+06-3.80461E+05-3.18975E+04-9.25369E+05 1.95416E-09-1.24192E-09
 -1       490-2.40940E+06-3.15505E+05-1.22296E+04-8.75891E+05-4.39059E-10 1.21054E-09
 -1       491-2.35568E+06-3.75889E+05-7.05017E+03-9.39287E+05-7.66306E-10 1.30213E-08
 -1       492-2.40891E+06-3.19592E+05-3.46101E+03-8.78208E+05 5.85715E-10 9.24899E-10
 -1       493-2.36807E+06-3.57361E+05-2.04405E+03-9.19740E+05-8.59814E-10 2.71325E-09
 -1       494-2.39666E+06-3.34287E+05-3.61525E+03-8.95177E+05-1.31490E-09 1.55592E-09
 -1       495-2.39870E+06-3.28138E+05-5.24397E+03-8.84076E+05 7.01675E-10-6.26039E-09
 -1       496-2.37818E+06-3.48903E+05-1.06648E+04-9.13786E+05-2.47397E-09 1.59525E-09
 -1       497-2.43226E+06-3.16808E+05-2.69994E+04-8.56416E+05 4.24916E-09-5.69571E-09
 -1       498-2.36351E+06-3.45382E+05-4.39140E+04-9.23123E+05 2.27374E-11-3.37786E-09
 -1       499-2.47607E+06-3.93969E+05-1.29237E+05-8.42356E+05 1.61344E-09 9.34779E-09
 -1       500-2.33454E+06-2.72081E+05-1.87845E+05-9.27772E+05-1.48793E-09 2.88856E-09
 -1       501-5.36529E+05-3.60616E+04 8.49458E+04-8.98705E+00 2.84012E-09-3.86717E-09
 -1       502-4.97655E+05 4.17343E+04 6.01802E+04-9.24530E+03 7.91317E-10-6.73026E-10
 -1       503-5.22127E+05-5.56285E+03 2.19198E+04 2.39327E+03-6.50516E-10 3.26963E-09
 -1       504-5.14770E+05 6.41685E+03 1.38996E+04-1.35272E+04-2.13873E-09 3.12707E-09
 -1       505-5.19532E+05-8.66367E+02 5.59201E+03 4.27312E+03 8.34348E-10-3.84648E-09
 -1       506-5.18044E+05 1.03906E+03 3.35606E+03-1.64527E+04 2.28403E-09 2.27692E-09
 -1       507-5.18944E+05-1.49107E+02 1.55269E+03 5.31882E+03 2.95978E-09 2.92823E-09
 -1       508-5.18725E+05 2.80806E+02 1.09237E+03-1.75701E+04 1.96367E-10 4.14952E-09
 -1       509-5.18890E+05-8.38953E+01 9.26395E+02 5.39063E+03 2.67440E-09 3.16598E-09
 -1       510-5.18419E+05 4.76655E+02 1.53600E+03-1.67305E+04 3.50832E-09 4.57359E-09
 -1       511-5.19221E+05-3.64798E+02 2.31900E+03 4.47908E+03 2.34149E-09 1.41949E-09
 -1       512-5.16779E+05 2.62271E+03 5.74802E+03-1.40428E+04 1.83286E-09 3.37059E-09
 -1       513-5.20447E+05-2.27820E+03 8.84199E+03 2.70285E+03 3.41629E-10-2.52749E-09
 -1       514-5.09442E+05 1.69485E+04 2.45569E+04-9.87643E+03-1.33377E-09-4.92719E-09
 -1       515-5.26457E+05-1.46824E+04 3.43273E+04 3.12796E+02-1.10481E-09-2.51021E-09
 -1       516-7.69132E+04 5.10226E+05 1.83765E+05 1.37390E+04 1.21654E-08 5.77461E-09
 -1       517 9.56042E+04 5.92576E+05 1.40308E+05-8.03577E+04 1.11613E-08 1.24440E-08
 -1       518-1.76199E+04 5.38819E+05 6.93346E+04 1.22767E+04 1.33223E-08 7.41704E-09
 -1       519 5.93623E+04 5.76957E+05 9.26454E+04-8.17621E+04 1.22077E-08-4.11382E-09
 -1       520-4.09965E+04 5.26010E+05 1.00571E+05 1.51411E+04 7.65795E-09-5.28075E-09
 -1       521-4.86113E+06-6.09967E+05-3.59990E+05-1.88521E+06 1.22236E-09 5.09317E-10
 -1       522-4.98318E+06-8.70213E+05-2.30131E+05-1.89015E+06 3.19005E-10-5.43150E-09
 -1       523-4.92966E+06-6.94765E+05-8.49467E+04-1.86835E+06 1.47497E-09-1.75351E-09
 -1       524-4.90219E+06-7.65508E+05-4.72428E+04-1.91717E+06 3.05590E-10 2.93494E-09
 -1       525-4.94072E+06-7.01365E+05-1.97742E+04-1.86347E+06 8.03993E-10 1.77988E-09
 -1       526-4.88882E+06-7.57912E+05-1.05510E+04-1.92504E+06 2.24554E-09-4.28167E-09
 -1       527-4.94346E+06-7.00644E+05-5.37897E+03-1.86141E+06 5.97993E-10-1.34003E-09
 -1       528-4.88631E+06-7.58357E+05-4.29178E+03-1.92733E+06-1.68160E-09 1.30967E-09
 -1       529-4.94347E+06-7.00645E+05-5.16707E+03-1.86140E+06 2.99701E-09 1.46065E-09
 -1       530-4.88873E+06-7.57842E+05-9.96294E+03-1.92508E+06 5.80053E-09 4.18231E-09
 -1       531-4.94080E+06-7.01425E+05-1.85878E+04-1.86344E+06 2.12094E-09 2.55204E-09
 -1       532-4.90154E+06-7.64687E+05-4.43559E+04-1.91734E+06-3.40651E-09-6.35464E-09
 -1       533-4.93022E+06-6.95439E+05-7.97433E+04-1.86824E+06 1.59594E-09 1.27329E-09
 -1       534-4.97800E+06-8.62489E+05-2.16000E+05-1.89140E+06-1.76533E-09-3.64162E-09
 -1       535-4.86562E+06-6.16155E+05-3.37926E+05-1.88439E+06-1.68802E-09-2.25555E-09
 -1       536 2.58771E+05-2.82739E+04 1.08057E+05-8.74279E+03 7.96717E-10 5.60249E-10
 -1       537 2.99529E+05 3.60905E+04 7.02241E+04-4.54845E+04-4.25825E-09-1.52704E-09
 -1       538 2.75298E+05-3.19798E+03 2.79933E+04-8.80859E+03-1.29148E-10 1.67529E-09
 -1       539 2.80566E+05 3.69723E+03 1.58676E+04-4.52714E+04 2.95040E-09 5.96219E-09
 -1       540 2.77239E+05-4.13207E+02 7.07492E+03-8.94122E+03-5.62977E-10 2.02090E-09
 -1       541 2.78044E+05 3.64533E+02 3.80215E+03-4.50397E+04-2.34195E-10-3.55874E-09
 -1       542 2.77474E+05-6.03019E+01 1.81610E+03-9.04100E+03-1.13687E-10 1.02443E-09
 -1       543 2.77576E+05 7.34445E+01 1.02770E+03-4.48885E+04-8.09450E-11-9.12451E-10
 -1       544 2.77497E+05-1.65985E+00 6.47491E+02-9.09269E+03 8.16271E-11-7.11339E-10
 -1       545 2.77501E+05 1.01819E+02 6.61115E+02-4.48325E+04-1.69030E-09 2.94256E-09
 -1       546 2.77473E+05-2.95586E+01 9.26470E+02-9.09693E+03 1.02091E-09 2.79505E-09
 -1       547 2.77794E+05 4.76943E+02 1.87897E+03-4.48659E+04-7.61815E-10 2.16335E-09
 -1       548 2.77259E+05-3.63575E+02 3.23927E+03-9.05933E+03-9.26775E-10-2.89356E-09
 -1       549 2.80077E+05 4.16175E+03 8.08249E+03-4.49139E+04-1.19257E-09-7.24299E-10
 -1       550 2.75376E+05-3.28563E+03 1.23859E+04-9.04931E+03 2.32831E-10 5.39058E-09
 -1       551 2.76161E+04-4.90332E+05 4.92514E+04-7.37949E+05-5.98084E-09 1.85537E-10
 -1       552 1.59978E+04-4.83738E+05 3.63287E+04-8.57149E+05 5.67525E-10-1.66983E-09
 -1       553 1.10453E+04-4.90595E+05 3.89456E+04-7.36732E+05-7.12316E-09 2.22553E-09
 -1       554 2.96569E+04-4.77159E+05 7.03814E+04-8.57370E+05 1.00408E-09 7.34872E-10
 -1       555 7.15999E+04-4.98909E+05 1.32244E+05-7.37500E+05-7.77072E-09-5.68252E-09
 -1       556-3.98912E+05-2.04338E+05 2.82005E+04-3.63781E+05 6.18456E-10-1.77533E-09
 -1       557-3.71115E+05-2.34872E+05 1.38708E+04-3.86205E+05-2.67391E-09 9.82709E-10
 -1       558-4.00523E+05-2.13787E+05 5.75466E+03-3.58366E+05-1.84082E-09 5.04224E-09
 -1       559-3.74510E+05-2.39406E+05 2.85524E+03-3.87843E+05 6.51198E-10 4.00178E-09
 -1       560-4.01545E+05-2.13532E+05 1.22837E+03-3.58712E+05 9.53150E-10-8.95170E-10
 -1       561-3.75704E+05-2.39228E+05 5.93952E+02-3.88702E+05-3.96540E-10 2.87417E-09
 -1       562-4.02277E+05-2.13089E+05 1.81767E+02-3.59186E+05 2.52476E-09 8.11951E-09
 -1       563-3.76386E+05-2.38935E+05-4.96054E+01-3.89185E+05-2.80124E-10-3.52929E-09
 -1       564-4.02672E+05-2.12833E+05-3.58885E+02-3.59456E+05-2.67391E-09-3.97449E-09
 -1       565-3.76714E+05-2.38804E+05-8.82651E+02-3.89394E+05-3.07091E-09-4.28736E-09
 -1       566-4.02696E+05-2.12762E+05-1.89347E+03-3.59503E+05-2.93130E-09-6.23368E-09
 -1       567-3.76986E+05-2.39052E+05-4.19441E+03-3.89299E+05-2.79761E-09-6.22094E-09
 -1       568-4.02204E+05-2.13586E+05-8.65975E+03-3.59030E+05 2.00089E-10 2.57205E-09
 -1       569-3.81326E+05-2.44646E+05-2.04303E+04-3.87641E+05-1.14596E-10 3.73984E-09
 -1       570-4.00224E+05-2.30464E+05-4.19394E+04-3.51769E+05-3.96540E-10-2.11639E-09
 -1       571 5.51674E+05 2.78967E+04 4.40516E+04-1.41536E+05 4.56566E-10-1.28739E-09
 -1       572 5.58470E+05 9.34093E+03 2.16882E+04-1.56631E+05-2.95586E-10 1.46429E-09
 -1       573 5.54309E+05 1.94924E+03 9.65923E+03-1.41106E+05-7.51243E-10 5.86078E-09
 -1       574 5.55047E+05 5.78414E+02 4.86245E+03-1.57075E+05-1.08776E-09-1.04774E-09
 -1       575 5.54507E+05 1.78642E+01 2.30728E+03-1.41057E+05-3.30147E-10-5.00222E-10
 -1       576 5.54563E+05-1.00371E+01 1.18563E+03-1.57130E+05 4.32010E-11-5.42605E-09
 -1       577 5.54528E+05-4.38757E+01 5.99268E+02-1.41051E+05 1.18348E-09 7.25777E-10
 -1       578 5.54540E+05-4.07230E+01 3.54065E+02-1.57138E+05 2.32831E-09 6.01176E-09
 -1       579 5.54622E+05-7.97130E+01 2.62071E+02-1.41049E+05 1.56433E-09 6.54836E-11
 -1       580 5.54703E+05-1.16097E+02 3.21740E+02-1.57134E+05-8.06722E-10 2.18643E-09
 -1       581 5.54817E+05-1.76651E+02 5.14694E+02-1.41054E+05-1.47193E-08-3.11320E-09
 -1       582 5.55072E+05-1.35583E+02 1.04082E+03-1.57057E+05-2.25446E-08-4.98403E-10
 -1       583 5.55060E+05 6.27066E+01 2.02055E+03-1.41126E+05-9.38962E-09-4.25734E-09
 -1       584 5.56156E+05 1.52475E+03 4.54454E+03-1.56407E+05-3.04863E-09-1.86083E-09
 -1       585 5.54841E+05 5.34543E+03 9.19089E+03-1.41716E+05 9.74978E-10 4.68572E-09
 -1       586 5.16377E+03 2.04254E+05 8.38800E+03-3.89029E+05 1.10231E-09 6.39920E-09
 -1       587 3.19129E+03 2.05355E+05 7.72792E+03-4.31878E+05-2.01908E-09-8.26731E-10
 -1       588 3.32906E+03 2.03869E+05 1.06059E+04-3.88539E+05 1.32422E-09 5.28416E-09
 -1       589 1.03772E+04 2.07829E+05 2.14553E+04-4.31959E+05-2.61934E-09-2.01544E-09
 -1       590 2.78403E+04 2.01477E+05 4.24588E+04-3.88926E+05 1.54887E-09 6.00267E-11
 -1       591-2.47453E+05-9.01698E+04-4.54588E+04-1.34053E+05 2.86138E-09-2.90675E-09
 -1       592-2.47989E+05-8.44888E+04-2.21879E+04-1.48456E+05 1.12686E-09-1.24965E-09
 -1       593-2.48636E+05-7.24896E+04-9.40888E+03-1.42017E+05 1.32786E-10 1.89493E-09
 -1       594-2.43199E+05-7.81927E+04-4.59716E+03-1.49439E+05-8.91305E-10 8.89486E-10
 -1       595-2.48871E+05-7.17714E+04-2.11614E+03-1.42405E+05-3.17914E-09-1.40506E-09
 -1       596-2.42843E+05-7.79256E+04-1.07676E+03-1.49432E+05-9.61791E-10-4.54929E-09
 -1       597-2.48921E+05-7.17932E+04-5.94818E+02-1.42414E+05-7.93307E-10 5.20004E-09
 -1       598-2.42807E+05-7.79276E+04-4.92063E+02-1.49418E+05-1.62157E-09 7.09088E-09
 -1       599-2.48910E+05-7.17958E+04-6.45900E+02-1.42409E+05-1.13687E-12-2.28238E-09
 -1       600-2.42832E+05-7.79326E+04-1.21149E+03-1.49421E+05 6.44150E-10-7.57609E-10
 -1       601-2.48833E+05-7.17779E+04-2.40271E+03-1.42388E+05-2.58206E-09-4.53110E-09
 -1       602-2.43225E+05-7.82409E+04-5.23182E+03-1.49414E+05 2.54749E-09-2.27374E-10
 -1       603-2.48552E+05-7.26071E+04-1.07123E+04-1.41941E+05 4.19277E-10 1.05683E-09
 -1       604-2.48685E+05-8.53903E+04-2.52603E+04-1.48260E+05-1.80853E-09 5.80258E-10
 -1       605-2.47173E+05-9.27459E+04-5.17519E+04-1.32884E+05 1.60708E-09 8.73115E-10
 -1       606 1.61910E+05-2.09345E+04-3.28934E+04 4.75004E+04-1.08776E-08 1.54887E-09
 -1       607 1.56703E+05-7.01647E+03-1.61834E+04 5.20430E+04-1.39698E-09 9.26320E-10
 -1       608 1.59698E+05-1.46326E+03-7.21109E+03 4.71593E+04 7.53425E-09-6.75300E-10
 -1       609 1.59003E+05-3.54460E+02-3.61834E+03 5.23989E+04-4.57840E-09-3.19051E-09
 -1       610 1.59371E+05 8.22336E+01-1.71391E+03 4.71171E+04-1.07248E-08 1.05001E-09
 -1       611 1.59216E+05 1.63856E+02-8.63432E+02 5.24418E+04-1.80326E-08-1.03046E-09
 -1       612 1.59272E+05 1.76493E+02-4.14449E+02 4.71128E+04-8.14907E-09 1.09503E-09
 -1       613 1.59198E+05 2.05136E+02-1.94984E+02 5.24462E+04-1.20381E-08 7.22503E-09
 -1       614 1.59215E+05 1.89204E+02-6.84265E+01 4.71119E+04 7.72161E-09-2.39652E-09
 -1       615 1.59162E+05 2.23811E+02 2.51700E+01 5.24459E+04 3.05904E-08-4.44288E-09
 -1       616 1.59173E+05 2.09895E+02 1.27857E+02 4.71127E+04-2.57023E-09-4.34238E-09
 -1       617 1.59155E+05 2.82560E+02 3.13979E+02 5.24438E+04-9.05857E-10-5.32509E-09
 -1       618 1.59125E+05 3.58289E+02 6.44293E+02 4.71132E+04-7.59064E-09-1.74850E-09
 -1       619 1.59352E+05 8.90529E+02 1.45861E+03 5.24380E+04-1.35522E-08-5.41650E-09
 -1       620 1.58920E+05 2.12108E+03 2.96857E+03 4.71123E+04-3.72211E-09-3.22916E-09
 -1       621 4.97470E+03 5.59519E+05 1.12371E+04-5.64627E+04-4.04725E-11 2.76441E-09
 -1       622 1.94430E+03 5.61608E+05 8.85340E+03-6.57813E+04 2.75304E-09 5.22459E-09
 -1       623 1.14536E+03 5.60045E+05 1.03907E+04-5.65310E+04-4.36557E-10 2.14641E-10
 -1       624 6.10019E+03 5.63998E+05 1.96041E+04-6.54924E+04 2.73030E-09-1.88493E-09
 -1       625 1.85750E+04 5.57297E+05 3.74026E+04-5.67428E+04 6.68933E-10-1.35697E-09
 -1       626 2.21984E+05 7.25166E+04-1.65669E+04 1.53616E+05 3.69255E-10 7.79073E-09
 -1       627 2.15097E+05 8.32417E+04-7.87551E+03 1.56160E+05 5.76983E-09 5.64501E-09
 -1       628 2.22210E+05 8.05148E+04-3.31597E+03 1.49734E+05 3.55612E-09 1.88948E-09
 -1       629 2.16336E+05 8.64775E+04-1.59335E+03 1.55814E+05 5.27780E-09-5.60141E-09
 -1       630 2.22124E+05 8.10566E+04-7.08607E+02 1.49407E+05 8.02538E-09 2.18154E-09
 -1       631 2.16386E+05 8.67192E+04-3.21909E+02 1.55784E+05-8.41283E-09-2.20780E-09
 -1       632 2.22058E+05 8.10882E+04-1.03633E+02 1.49361E+05 5.06770E-09 2.49565E-09
 -1       633 2.16361E+05 8.67411E+04 4.64980E+01 1.55766E+05 1.13459E-09-1.95814E-09
 -1       634 2.22016E+05 8.10848E+04 2.18807E+02 1.49344E+05 7.66340E-09 2.10048E-09
 -1       635 2.16373E+05 8.67504E+04 5.35414E+02 1.55763E+05 3.50065E-09-4.13411E-09
 -1       636 2.21985E+05 8.11033E+04 1.12685E+03 1.49326E+05-7.51641E-09 3.53975E-09
 -1       637 2.16636E+05 8.70264E+04 2.51928E+03 1.55727E+05-3.67868E-09 1.34869E-08
 -1       638 2.21926E+05 8.19405E+04 5.21561E+03 1.48958E+05-5.20140E-09-1.00545E-08
 -1       639 2.19316E+05 9.14996E+04 1.23986E+04 1.54670E+05 1.01863E-10 3.24417E-09
 -1       640 2.21994E+05 9.49688E+04 2.60676E+04 1.43505E+05-3.85853E-09-3.56977E-09
 -1       641 8.38796E+03 4.67861E+03-1.11036E+04-6.67062E+02-1.00082E-08-4.51018E-09
 -1       642 3.68944E+03-5.41382E+03-7.79377E+03 3.22971E+03-1.40425E-08-7.81597E-10
 -1       643 6.55928E+03 7.14254E+02-2.86679E+03-6.57162E+02-1.11128E-08-5.43196E-09
 -1       644 5.80137E+03-8.11626E+02-1.76274E+03 3.21523E+03 4.19328E-09-1.06538E-08
 -1       645 6.27074E+03 1.04067E+02-6.88713E+02-6.52663E+02 3.25848E-09-5.10636E-09
 -1       646 6.13652E+03-9.45400E+01-3.26011E+02 3.20841E+03-2.18170E-08-8.03931E-09
 -1       647 6.22109E+03 2.72203E+00-6.91819E+00-6.50370E+02 1.21998E-08-6.00501E-09
 -1       648 6.22645E+03 7.69156E+01 2.87360E+02 3.20602E+03 2.93639E-08-1.52885E-09
 -1       649 6.17979E+03-6.60336E+01 6.62391E+02-6.50287E+02 1.77593E-08-7.09599E-09
 -1       650 6.46722E+03 5.07719E+02 1.59633E+03 3.20726E+03 2.77020E-08-4.81373E-09
 -1       651 5.98130E+03-4.27013E+02 2.79826E+03-6.51611E+02 1.46539E-09-2.39424E-09
 -1       652 7.83168E+03 3.22356E+03 6.87896E+03 3.20948E+03-7.85292E-10-6.64704E-09
 -1       653 4.81842E+03-2.77085E+03 1.10343E+04-6.52533E+02 8.50008E-09-6.00403E-09
 -1       654 1.61176E+04 2.09058E+04 3.00224E+04 3.19966E+03-1.01465E-09-2.71029E-09
 -1       655-2.29706E+03-1.80194E+04 4.26361E+04-6.41977E+02 8.08367E-09-2.15732E-09
 -1       656 1.83925E+04-6.30800E+05-7.37211E+04 1.34375E+04-1.39553E-08 3.37104E-09
 -1       657-2.62056E+04-6.58318E+05-5.43745E+04 6.15222E+04-1.54655E-08-7.36463E-09
 -1       658 3.70491E+03-6.40489E+05-3.40586E+04 1.32274E+04-1.29446E-08 3.90787E-09
 -1       659-2.37830E+04-6.57028E+05-5.03263E+04 6.16785E+04-1.41940E-08-5.08226E-09
 -1       660 1.63948E+04-6.32188E+05-6.61431E+04 1.32840E+04-1.46829E-08-2.29420E-09
 -1       661 6.35100E+05 7.97994E+04 5.24430E+04 2.48849E+05 4.97357E-09-7.21047E-09
 -1       662 6.48082E+05 1.22674E+05 3.35423E+04 2.55363E+05-3.92339E-09-9.27776E-09
 -1       663 6.44317E+05 9.29129E+04 1.23924E+04 2.47301E+05-9.06772E-09 4.22460E-09
 -1       664 6.37520E+05 1.06171E+05 6.92665E+03 2.57667E+05-2.05266E-08 1.60389E-09
 -1       665 6.45366E+05 9.44640E+04 2.91032E+03 2.47224E+05 7.08724E-09-3.97949E-09
 -1       666 6.36323E+05 1.04250E+05 1.59784E+03 2.57768E+05-1.91739E-09-6.07827E-10
 -1       667 6.45469E+05 9.46697E+04 8.82250E+02 2.47253E+05-2.12215E-08-7.35078E-09
 -1       668 6.36223E+05 1.04046E+05 8.31453E+02 2.57740E+05-3.90112E-08 5.33362E-10
 -1       669 6.45457E+05 9.46589E+04 1.15382E+03 2.47253E+05-1.09133E-08 2.21439E-09
 -1       670 6.36428E+05 1.04371E+05 2.35780E+03 2.57760E+05 9.21474E-09-1.02199E-09
 -1       671 6.45275E+05 9.43602E+04 4.43116E+03 2.47229E+05-4.09648E-09 2.29011E-09
 -1       672 6.38323E+05 1.07277E+05 1.06319E+04 2.57538E+05-1.04013E-08-5.90330E-09
 -1       673 6.43619E+05 9.20133E+04 1.90533E+04 2.47386E+05 1.78651E-08-1.96633E-09
 -1       674 6.54638E+05 1.32584E+05 5.15890E+04 2.53890E+05 2.33381E-08 9.09949E-09
 -1       675 6.29397E+05 7.18954E+04 8.06784E+04 2.49817E+05 1.66056E-08 2.51748E-09
 -1       676 2.93073E+03-5.93071E+05-1.27210E+04 1.45045E+03 1.61908E-08-2.44334E-10
 -1       677-4.96323E+03-5.98015E+05-1.21009E+04 1.53855E+03 9.33255E-09-4.02692E-09
 -1       678 1.32716E+03-5.94068E+05-1.20908E+04 1.44562E+03 7.71979E-09 2.12896E-09
 -1       679-1.26369E+04-6.02403E+05-2.50703E+04 1.53700E+03 1.61760E-08-4.15650E-09
 -1       680 9.46067E+03-5.88688E+05-3.69244E+04 1.44931E+03 1.58016E-08 1.70868E-09
 -1       681 8.37732E+05-2.08277E+04 4.92111E+04 4.48491E+03-1.03455E-11-2.19734E-09
 -1       682 8.59523E+05 2.41148E+04 3.47639E+04-1.14106E+04 1.50294E-10-2.42289E-09
 -1       683 8.46118E+05-3.19541E+03 1.27731E+04 2.43280E+03 1.03853E-10-1.07138E-09
 -1       684 8.49721E+05 3.69599E+03 8.03808E+03-8.19974E+03 4.30305E-11 1.90084E-10
 -1       685 8.47510E+05-4.91361E+02 3.36965E+03 1.27424E+03 5.44560E-10 1.36447E-09
 -1       686 8.48091E+05 5.95403E+02 2.14086E+03-6.49569E+03 2.66922E-10 5.07043E-10
 -1       687 8.47737E+05-1.00289E+02 1.31577E+03 7.28709E+02-1.03178E-10 5.94284E-10
 -1       688 8.47913E+05 2.94752E+02 1.53411E+03-5.89480E+03-2.11990E-11 1.60189E-09
 -1       689 8.47685E+05-1.89491E+02 2.18490E+03 6.73339E+02-1.70850E-10 1.23225E-09
 -1       690 8.48508E+05 1.37727E+03 4.63356E+03-6.26272E+03 5.96430E-10 2.43790E-09
 -1       691 8.47142E+05-1.17999E+03 7.89587E+03 1.09664E+03 1.14028E-10 7.26686E-10
 -1       692 8.52318E+05 8.92928E+03 1.92416E+04-7.68379E+03 1.19641E-10-1.31399E-09
 -1       693 8.43878E+05-7.71216E+03 3.08100E+04 2.09443E+03-4.02849E-10-2.09184E-10
 -1       694 8.75534E+05 5.82298E+04 8.37787E+04-1.05301E+04-8.99945E-10-2.94676E-09
 -1       695 8.23937E+05-5.02355E+04 1.18933E+05 3.94241E+03-6.12772E-11-2.21189E-09
 -1       696-1.82505E+04 7.75033E+05 4.26257E+04 2.23060E+02 2.56478E-10-1.43405E-09
 -1       697 2.00056E+04 7.92890E+05 2.77309E+04-1.20881E+04 2.33285E-10-9.01906E-10
 -1       698-1.60751E+03 7.82822E+05 6.32781E+03 2.25298E+02-2.78305E-10 2.32068E-09
 -1       699-5.92550E+03 7.80854E+05-6.50963E+03-1.29151E+04-4.03816E-10 3.88741E-09
 -1       700 7.53699E+03 7.87097E+05-1.66100E+04 1.04964E+03-3.21052E-10 1.16285E-09
 -1       701-7.66886E+05-7.17401E+04-1.00313E+05-3.07771E+05-9.78616E-10-4.30009E-09
 -1       702-8.23532E+05-1.57982E+05-6.93251E+04-2.85879E+05-7.06450E-10-4.25644E-10
 -1       703-7.87941E+05-1.06604E+05-2.35498E+04-3.00377E+05 5.23869E-10 2.50384E-09
 -1       704-7.98266E+05-1.18367E+05-1.45844E+04-2.95329E+05 3.28328E-10 2.37560E-09
 -1       705-7.92104E+05-1.11187E+05-5.52694E+03-2.98374E+05 7.98480E-10 3.16049E-10
 -1       706-7.92665E+05-1.13869E+05-3.24078E+03-2.98548E+05 3.76946E-10-5.79803E-11
 -1       707-7.93531E+05-1.11077E+05-1.53868E+03-2.97164E+05 4.96243E-11-1.50635E-11
 -1       708-7.90538E+05-1.14705E+05-1.31372E+03-3.00613E+05-8.95724E-10-1.62508E-10
 -1       709-7.94234E+05-1.10344E+05-1.48972E+03-2.96314E+05 3.45494E-10 3.67550E-10
 -1       710-7.90007E+05-1.16574E+05-3.13751E+03-3.01738E+05 9.37462E-10-3.98472E-11
 -1       711-7.94070E+05-1.09206E+05-5.28114E+03-2.96043E+05 5.29099E-10 1.22668E-09
 -1       712-7.93399E+05-1.22860E+05-1.39919E+04-3.00922E+05-5.17275E-12 6.41421E-10
 -1       713-7.90854E+05-1.04082E+05-2.25419E+04-2.97125E+05-2.29193E-10 1.67347E-10
 -1       714-8.16665E+05-1.61605E+05-6.63853E+04-2.92769E+05-3.18323E-10-2.93767E-10
 -1       715-7.70839E+05-7.06302E+04-9.60641E+04-3.04137E+05 2.45564E-10 1.20053E-10
 -1       716 2.06682E+05-2.68270E+04 6.32312E+04 3.59200E+03 1.08821E-09-8.03993E-10
 -1       717 2.35305E+05 3.10638E+04 4.47705E+04-1.49973E+04 3.35547E-10 8.15362E-10
 -1       718 2.17552E+05-4.12557E+03 1.63979E+04 2.76181E+03-5.49562E-10 1.81171E-09
 -1       719 2.22481E+05 4.79218E+03 1.03708E+04-1.36865E+04-2.70916E-10 3.50929E-09
 -1       720 2.19424E+05-6.40089E+02 4.34494E+03 2.28138E+03 1.91199E-09 3.12411E-09
 -1       721 2.20250E+05 8.12390E+02 2.79897E+03-1.30157E+04 3.59206E-09 6.57619E-09
 -1       722 2.19746E+05-1.38458E+02 1.77658E+03 2.09100E+03 2.74149E-09 4.23142E-09
 -1       723 2.20036E+05 4.54232E+02 2.15824E+03-1.29120E+04 6.46764E-10 7.62714E-09
 -1       724 2.19634E+05-2.79574E+02 3.14013E+03 2.17776E+03 1.63766E-09 2.58217E-09
 -1       725 2.21064E+05 2.03267E+03 6.75522E+03-1.33685E+04 2.78999E-09 3.68391E-09
 -1       726 2.18742E+05-1.72806E+03 1.14602E+04 2.54742E+03 1.49134E-09 3.06227E-09
 -1       727 2.26942E+05 1.30223E+04 2.81031E+04-1.44223E+04 1.23259E-09 2.16960E-09
 -1       728 2.13817E+05-1.12594E+04 4.48046E+04 3.23157E+03-1.59730E-10-2.18279E-11
 -1       729 2.61286E+05 8.48793E+04 1.22234E+05-1.62962E+04-1.90568E-09-3.25963E-09
 -1       730 1.84542E+05-7.32759E+04 1.73186E+05 4.42042E+03 7.90124E-10-3.84171E-09
 -1       731-3.04417E+04 3.01895E+05 7.21570E+04 4.97240E+03 5.14410E-09-1.53670E-09
 -1       732 3.57982E+04 3.33062E+05 5.14851E+04-2.77208E+04 4.53292E-09-1.40420E-09
 -1       733-5.09025E+03 3.13720E+05 2.00281E+04 4.92841E+03 4.58749E-09 2.16443E-09
 -1       734 8.69206E+03 3.20857E+05 1.57624E+04-2.84983E+04 4.14718E-09 1.40608E-09
 -1       735-3.52367E+03 3.14165E+05 1.01404E+04 5.74942E+03 1.97286E-09 5.97765E-10
 -1       736-1.79813E+06-1.95730E+05-1.34416E+05-6.86126E+05-2.14459E-09 2.54659E-10
 -1       737-1.80876E+06-3.48854E+05-8.87643E+04-7.02177E+05-7.44149E-09 3.32420E-09
 -1       738-1.83894E+06-2.21053E+05-3.16428E+04-6.52487E+05 4.50473E-09-3.09592E-09
 -1       739-1.76203E+06-3.21300E+05-1.86993E+04-7.45310E+05 8.59563E-09 3.14867E-09
 -1       740-1.84584E+06-2.22166E+05-7.15879E+03-6.43885E+05-7.05541E-10 7.50697E-09
 -1       741-1.76057E+06-3.06533E+05-3.20937E+03-7.38453E+05-2.94665E-09 6.94951E-09
 -1       742-1.84010E+06-2.36097E+05-3.24368E+03-6.59100E+05-4.87489E-10 7.46957E-09
 -1       743-1.78444E+06-2.70112E+05 1.37130E+03-6.95103E+05-8.27822E-09-5.22050E-09
 -1       744-1.82086E+06-2.59505E+05-3.98273E+03-6.86365E+05 2.54249E-09 1.25783E-09
 -1       745-1.83067E+06-2.27259E+05-1.16230E+03-6.45255E+05 2.19507E-09 1.52420E-09
 -1       746-1.79404E+06-2.78747E+05-7.40349E+03-7.09087E+05-1.37177E-08 2.88173E-09
 -1       747-1.87456E+06-2.06196E+05-1.65881E+04-6.14349E+05-1.79558E-09 7.46331E-09
 -1       748-1.77809E+06-2.79658E+05-2.77655E+04-7.18167E+05-1.18935E-08-3.59432E-09
 -1       749-1.90053E+06-2.55804E+05-8.12131E+04-6.06501E+05-8.14862E-09-4.08181E-09
 -1       750-1.76812E+06-2.29423E+05-1.20034E+05-7.16833E+05 3.38696E-09-4.40195E-09
 -1       751 4.04568E+06-2.19523E+05 5.21590E+05 2.16977E+04-1.61676E-08-2.82307E-09
 -1       752 4.27093E+06 2.54574E+05 3.66880E+05-3.04724E+04-6.94854E-09-6.99220E-09
 -1       753 4.13314E+06-3.36911E+04 1.35277E+05 6.97187E+03-1.93211E-10-1.68802E-09
 -1       754 4.16959E+06 3.90328E+04 8.44422E+04-1.08068E+04 1.74602E-09 4.94765E-09
 -1       755 4.14735E+06-5.16074E+03 3.48873E+04 2.03934E+03 7.58703E-10 5.54792E-10
 -1       756 4.15324E+06 6.05109E+03 2.07273E+04-4.21603E+03 3.33661E-09 1.29035E-09
 -1       757 4.14966E+06-8.67638E+02 1.03240E+04 3.81218E+02 3.42143E-09 2.73440E-09
 -1       758 4.15086E+06 1.56572E+03 8.29591E+03-2.10910E+03 9.19616E-10-2.46774E-09
 -1       759 4.14977E+06-6.93924E+02 8.60839E+03-6.76295E+01-1.74761E-09 1.60117E-09
 -1       760 4.15239E+06 4.52831E+03 1.58078E+04-1.86617E+03-2.32694E-10 6.23049E-09
 -1       761 4.14810E+06-3.81685E+03 2.59629E+04 1.38284E+02 1.57165E-10 8.41283E-10
 -1       762 4.16434E+06 2.88079E+04 6.23592E+04-3.18990E+03 1.13616E-10 6.04905E-09
 -1       763 4.13768E+06-2.48526E+04 9.97624E+04 1.25610E+03 4.46312E-09 6.05360E-09
 -1       764 4.23838E+06 1.87681E+05 2.70303E+05-7.78984E+03 3.79373E-10 2.40107E-09
 -1       765 4.07366E+06-1.61799E+05 3.84348E+05 4.73703E+03-2.69301E-09-1.94996E-09
 -1       766-9.32786E+04 6.83202E+05 2.24059E+05-1.67254E+04-4.45289E-09 1.18848E-09
 -1       767 1.15655E+05 7.84518E+05 1.72068E+05 6.75052E+04 2.67391E-10-6.52051E-10
 -1       768-2.18895E+04 7.17327E+05 8.68903E+04-1.44099E+04-1.35879E-09-9.68114E-10
 -1       769 7.57819E+04 7.66472E+05 1.19499E+05 6.82700E+04-1.94132E-09 3.84898E-09
 -1       770-5.36801E+04 7.01304E+05 1.32755E+05-1.74910E+04-6.46833E-09 3.88400E-09
 -1       771-2.22517E+06-4.56194E+05-9.04372E+04-9.58296E+05-1.67893E-09 3.60887E-09
 -1       772-2.22235E+06-4.48241E+05-4.40695E+04-9.90786E+05-4.52565E-09-5.55519E-09
 -1       773-2.22848E+06-4.20460E+05-1.87655E+04-9.73960E+05 4.43833E-09-2.83399E-09
 -1       774-2.21294E+06-4.36147E+05-9.12850E+03-9.93975E+05-8.87667E-10-6.97582E-10
 -1       775-2.22962E+06-4.18592E+05-4.24868E+03-9.74980E+05-1.76078E-09-5.59612E-09
 -1       776-2.21269E+06-4.35520E+05-2.12791E+03-9.94591E+05 1.01136E-09-2.93767E-09
 -1       777-2.23029E+06-4.18306E+05-1.17923E+03-9.75258E+05 1.96451E-10-1.17143E-09
 -1       778-2.21303E+06-4.35393E+05-8.98190E+02-9.95026E+05 5.96629E-10 7.33712E-09
 -1       779-2.23071E+06-4.18058E+05-1.13641E+03-9.75458E+05-1.72804E-09-3.36058E-10
 -1       780-2.21339E+06-4.35303E+05-2.05649E+03-9.95372E+05-5.16593E-10-3.97631E-09
 -1       781-2.23088E+06-4.17846E+05-4.06641E+03-9.75572E+05-6.96673E-10-4.17458E-10
 -1       782-2.21427E+06-4.35769E+05-8.84709E+03-9.95592E+05-2.58296E-10 1.33423E-09
 -1       783-2.23060E+06-4.19136E+05-1.81240E+04-9.74897E+05 6.89397E-10 4.87489E-10
 -1       784-2.22350E+06-4.48004E+05-4.27948E+04-9.93908E+05-3.26963E-10 2.42835E-10
 -1       785-2.22846E+06-4.53129E+05-8.77023E+04-9.59477E+05-1.43700E-10-8.44011E-10
 -1       786 6.12214E+05-1.92651E+04 7.44239E+04-2.43357E+03 7.71934E-10-3.37604E-09
 -1       787 6.39748E+05 2.49920E+04 4.82943E+04-1.33948E+04-6.42103E-10-3.87081E-09
 -1       788 6.23622E+05-2.09823E+03 1.93167E+04-2.49383E+03-5.81622E-10 1.27966E-09
 -1       789 6.26960E+05 2.63199E+03 1.09203E+04-1.32762E+04 2.75122E-10-2.48656E-09
 -1       790 6.24984E+05-2.35938E+02 4.92227E+03-2.54938E+03 3.79714E-10 2.03249E-09
 -1       791 6.25408E+05 2.73006E+02 2.67124E+03-1.31955E+04-4.00178E-11 2.23935E-09
 -1       792 6.25163E+05-2.98971E+01 1.37934E+03-2.57456E+03 1.01824E-09 4.51081E-09
 -1       793 6.25212E+05 3.93022E+01 9.56173E+02-1.31762E+04-2.06299E-10-4.22057E-09
 -1       794 6.25177E+05-1.87199E+01 9.33631E+02-2.56869E+03-4.36160E-10-4.93916E-09
 -1       795 6.25293E+05 1.38924E+02 1.48910E+03-1.32197E+04 1.30939E-09 3.90860E-09
 -1       796 6.25090E+05-1.24261E+02 2.58759E+03-2.53100E+03-1.13016E-09 2.13493E-09
 -1       797 6.26097E+05 1.34727E+03 5.64799E+03-1.33235E+04-7.36691E-11-3.17215E-09
 -1       798 6.24391E+05-1.08519E+03 9.95073E+03-2.46491E+03-1.81217E-10-5.53882E-10
 -1       799 6.32691E+05 1.28479E+04 2.48577E+04-1.34596E+04-3.87899E-09 1.59343E-09
 -1       800 6.18521E+05-9.92419E+03 3.82878E+04-2.39650E+03 7.65795E-10-2.12276E-09
 -1       801-2.51559E+04 6.29060E+05 8.13050E+04-2.50597E+05-8.25821E-10 1.12050E-09
 -1       802 5.40119E+04 6.53790E+05 8.09879E+04-1.22826E+06 1.21327E-08-8.38554E-10
 -1       803-2.70067E+03 6.32632E+05 7.59915E+04-2.50856E+05 3.59796E-09 8.25730E-09
 -1       804 9.63940E+04 6.80509E+05 1.53900E+05-1.22826E+06 7.21047E-09-2.11003E-09
 -1       805-6.28610E+04 6.04940E+05 2.16865E+05-2.50633E+05 4.72937E-09 3.09956E-09
 -1       806-5.54817E+05-1.43157E+05-4.85230E+04-2.49432E+05 1.96678E-09-1.20053E-10
 -1       807-5.55659E+05-1.30869E+05-2.30764E+04-2.63663E+05-5.38421E-10 1.35287E-09
 -1       808-5.54687E+05-1.18964E+05-9.71195E+03-2.59737E+05 7.77527E-09 1.66769E-08
 -1       809-5.50874E+05-1.22387E+05-4.69997E+03-2.65542E+05 1.18780E-09 1.69786E-09
 -1       810-5.54828E+05-1.17389E+05-2.13122E+03-2.60460E+05-3.87399E-09-3.51884E-09
 -1       811-5.50421E+05-1.21850E+05-1.07308E+03-2.65611E+05-1.84400E-10 4.49882E-09
 -1       812-5.54870E+05-1.17351E+05-5.71351E+02-2.60491E+05 3.90986E-09 4.79258E-09
 -1       813-5.50371E+05-1.21838E+05-4.39845E+02-2.65596E+05-1.45167E-09 2.26692E-09
 -1       814-5.54860E+05-1.17359E+05-5.36909E+02-2.60484E+05-6.03768E-09-1.03328E-08
 -1       815-5.50396E+05-1.21858E+05-9.81467E+02-2.65590E+05 3.61979E-10 2.91038E-11
 -1       816-5.54796E+05-1.17407E+05-1.93398E+03-2.60443E+05-3.63980E-09 4.90218E-10
 -1       817-5.50790E+05-1.22346E+05-4.25734E+03-2.65498E+05 3.18596E-09 7.03085E-09
 -1       818-5.54638E+05-1.18855E+05-8.79467E+03-2.59784E+05-1.98906E-09 5.05679E-10
 -1       819-5.55170E+05-1.29958E+05-2.08910E+04-2.63694E+05-2.62116E-09-2.55386E-09
 -1       820-5.54670E+05-1.40816E+05-4.39276E+04-2.50508E+05 8.19455E-10 1.89902E-09
 -1       821-5.35946E+05 1.77741E+04-6.86937E+04 2.10191E+03-4.84033E-09 2.52112E-09
 -1       822-5.61303E+05-2.30791E+04-4.45774E+04 1.28799E+04-2.82284E-09-6.18093E-09
 -1       823-5.46481E+05 1.92541E+03-1.78356E+04 1.93197E+03 5.90762E-09-4.68663E-09
 -1       824-5.49551E+05-2.40212E+03-1.00808E+04 1.31491E+04-2.87946E-09 3.56886E-09
 -1       825-5.47741E+05 2.16461E+02-4.56226E+03 1.83010E+03-1.02636E-08 3.17641E-10
 -1       826-5.48160E+05-2.06138E+02-2.49967E+03 1.33202E+04-1.74591E-08-1.24032E-10
 -1       827-5.47908E+05 3.44110E+01-1.34859E+03 1.76023E+03-1.03680E-08-3.89718E-10
 -1       828-5.48010E+05 1.28003E+01-1.03800E+03 1.34302E+04-1.37723E-08-3.97216E-09
 -1       829-5.47915E+05 3.30957E+01-1.16637E+03 1.71996E+03-1.95018E-09-2.29496E-09
 -1       830-5.48141E+05-1.40160E+02-2.02107E+03 1.34792E+04 9.93445E-09-7.13248E-09
 -1       831-5.47788E+05 1.80646E+02-3.61065E+03 1.71124E+03-6.37201E-09-5.95060E-09
 -1       832-5.49255E+05-1.85743E+03-7.94236E+03 1.34658E+04-9.53349E-10-3.48291E-09
 -1       833-5.46800E+05 1.52915E+03-1.40264E+04 1.73387E+03 1.41199E-10-4.21187E-09
 -1       834-5.58515E+05-1.81116E+04-3.50604E+04 1.33789E+04-1.55364E-09-3.95858E-09
 -1       835-5.38518E+05 1.39966E+04-5.40152E+04 1.80265E+03 1.99225E-09-1.03500E-08
 -1       836-3.10625E+04 1.48243E+06 1.25985E+05-3.33911E+04-4.60568E-09-2.62571E-09
 -1       837 4.58980E+04 1.52989E+06 9.84796E+04-1.55876E+05 2.68301E-10-9.62973E-09
 -1       838-7.61548E+03 1.49754E+06 7.07868E+04-3.37081E+04-6.29552E-09-4.05964E-09
 -1       839 5.80346E+04 1.53676E+06 1.18984E+05-1.55799E+05 1.42609E-09 1.83013E-09
 -1       840-4.13337E+04 1.47548E+06 1.64318E+05-3.34659E+04-4.62751E-09 2.75577E-10
 -1       841-1.40267E+05-8.02011E+03-3.13858E+04-5.83523E+04-6.87032E-09-8.33097E-10
 -1       842-1.57732E+05-3.51871E+04-2.16744E+04-5.17381E+04-6.81814E-09 3.56158E-09
 -1       843-1.46517E+05-1.92318E+04-7.36374E+03-5.63962E+04 8.28777E-11-2.97950E-09
 -1       844-1.50551E+05-2.21241E+04-4.55351E+03-5.39312E+04-1.95882E-10-2.79590E-09
 -1       845-1.47441E+05-2.10276E+04-1.70260E+03-5.61809E+04 1.47088E-09-5.19748E-09
 -1       846-1.49526E+05-1.99975E+04-9.65242E+02-5.41319E+04-2.25043E-09-2.32974E-09
 -1       847-1.47543E+05-2.13493E+04-3.71967E+02-5.61997E+04-4.56897E-09-2.62455E-09
 -1       848-1.49424E+05-1.95965E+04-1.63778E+02-5.40909E+04 7.32001E-09-2.73234E-09
 -1       849-1.47545E+05-2.14267E+04 5.56438E-02-5.62232E+04 5.45472E-09 1.33156E-10
 -1       850-1.49376E+05-1.94547E+04 1.76923E+02-5.40816E+04 4.16494E-09-2.12952E-09
 -1       851-1.47590E+05-2.14905E+04 3.69362E+02-5.62093E+04 8.86336E-09-2.79283E-09
 -1       852-1.49060E+05-1.90280E+04 1.03393E+03-5.42012E+04 1.20869E-08 6.32161E-09
 -1       853-1.47860E+05-2.18519E+04 1.67717E+03-5.61039E+04-4.37751E-10 1.30183E-09
 -1       854-1.47262E+05-1.61755E+04 4.96004E+03-5.48539E+04-2.81659E-10-2.52072E-09
 -1       855-1.49385E+05-2.43313E+04 7.17216E+03-5.55602E+04-6.40773E-09-5.01450E-09
 -1       856-6.21880E+05 1.59491E+04-6.17826E+04 4.30754E+03-8.98035E-09-3.55067E-09
 -1       857-6.44644E+05-2.06499E+04-4.00651E+04 2.71586E+04-1.09903E-08-7.52880E-09
 -1       858-6.31359E+05 1.73106E+03-1.60429E+04 4.00419E+03-1.53700E-08-5.76892E-09
 -1       859-6.34177E+05-2.02793E+03-9.05366E+03 2.76313E+04 3.56295E-10-3.64889E-09
 -1       860-6.32501E+05 2.13103E+02-4.09530E+03 3.82939E+03 2.82535E-09-7.51743E-09
 -1       861-6.32986E+05-2.99222E+01-2.22709E+03 2.78999E+04-1.30232E-08-5.43071E-09
 -1       862-6.32656E+05 5.84887E+01-1.17549E+03 3.73415E+03 1.47863E-08-5.42605E-09
 -1       863-6.32869E+05 1.78441E+02-8.58351E+02 2.80171E+04 3.01573E-08-6.25744E-09
 -1       864-6.32666E+05 5.49082E+01-9.04289E+02 3.71174E+03 2.01879E-08-7.25854E-09
 -1       865-6.32944E+05 6.27673E+01-1.51232E+03 2.79876E+04 2.68697E-08-6.78429E-09
 -1       866-6.32569E+05 1.54811E+02-2.67734E+03 3.76382E+03 3.83329E-09-8.71120E-09
 -1       867-6.33707E+05-1.22626E+03-5.86120E+03 2.78088E+04-1.95723E-09-1.46383E-09
 -1       868-6.31832E+05 1.13157E+03-1.03615E+04 3.89155E+03 2.53135E-08-4.66480E-09
 -1       869-6.40440E+05-1.32510E+04-2.58595E+04 2.74322E+04-5.74028E-09-6.88715E-09
 -1       870-6.25713E+05 1.02993E+04-3.98790E+04 4.14507E+03 1.34633E-08-4.58749E-09
 -1       871-5.28747E+03-4.63957E+04-8.72360E+03 1.30404E+05 7.45786E-10 1.40972E-09
 -1       872-1.89055E+03-4.78988E+04-2.49246E+03 1.51313E+05 4.40559E-09 5.30781E-09
 -1       873-1.45586E+02-4.74197E+04 2.65937E+03 1.30164E+05 2.68119E-09 2.99815E-09
 -1       874 2.92303E+03-4.53103E+04 9.77751E+03 1.51439E+05 4.54111E-09-2.96495E-09
 -1       875 1.03582E+04-4.91524E+04 2.11480E+04 1.30315E+05 8.83119E-10 6.21640E-10
 -1       876 7.08861E+05 8.71449E+04 6.75700E+04 2.79254E+05 6.14818E-10-2.83762E-10
 -1       877 7.24780E+05 1.43284E+05 4.32261E+04 2.88670E+05-8.53629E-09 1.13978E-08
 -1       878 7.20692E+05 1.04097E+05 1.59603E+04 2.77306E+05-6.67637E-09 4.52656E-09
 -1       879 7.11226E+05 1.21937E+05 8.92109E+03 2.91524E+05-2.01316E-08-6.93763E-09
 -1       880 7.22002E+05 1.06143E+05 3.73241E+03 2.77250E+05 7.07428E-09 3.11843E-09
 -1       881 7.09732E+05 1.19392E+05 2.02700E+03 2.91559E+05 1.05865E-09-3.47814E-09
 -1       882 7.22102E+05 1.06446E+05 1.06869E+03 2.77322E+05-2.38593E-08-3.82857E-09
 -1       883 7.09636E+05 1.19065E+05 9.22656E+02 2.91449E+05-3.38964E-08-5.15365E-09
 -1       884 7.22071E+05 1.06468E+05 1.19002E+03 2.77348E+05-1.19070E-08-8.70330E-10
 -1       885 7.09856E+05 1.19353E+05 2.36232E+03 2.91434E+05 1.91413E-08 1.48907E-09
 -1       886 7.21886E+05 1.06177E+05 4.40913E+03 2.77331E+05 3.95568E-09-1.65414E-09
 -1       887 7.11734E+05 1.22244E+05 1.05589E+04 2.91226E+05-1.08670E-08-2.43472E-09
 -1       888 7.20257E+05 1.03831E+05 1.89139E+04 2.77473E+05 1.92893E-08 1.31240E-09
 -1       889 7.27905E+05 1.47399E+05 5.12092E+04 2.87660E+05 3.76863E-08 9.20954E-09
 -1       890 7.06165E+05 8.38309E+04 8.00747E+04 2.79858E+05 1.05038E-08 7.31234E-09
 -1       891 2.67893E+03-3.12202E+05-1.18046E+04 2.54106E+04 1.69234E-08 3.21052E-10
 -1       892-4.71333E+03-3.16288E+05-9.66046E+03 1.24016E+05 1.19073E-08-4.91559E-09
 -1       893 7.84516E+02-3.13534E+05-7.72870E+03 2.52382E+04 1.97283E-08-8.79368E-10
 -1       894-7.34000E+03-3.17755E+05-1.40833E+04 1.23998E+05 8.88303E-09-2.83080E-09
 -1       895 4.89034E+03-3.10700E+05-2.00687E+04 2.54277E+04 4.16821E-09-2.27737E-09
 -1       896 1.21635E+06-8.40168E+03 1.98674E+04 3.42931E+03-4.39115E-10-8.91305E-10
 -1       897 1.22503E+06 9.72892E+03 1.40310E+04-6.56625E+03 2.55483E-10-9.72932E-10
 -1       898 1.21973E+06-1.28850E+03 5.16867E+03 1.78710E+03-1.40091E-10-3.84716E-10
 -1       899 1.22109E+06 1.49132E+03 3.26385E+03-4.00819E+03-6.03848E-10-3.00645E-10
 -1       900 1.22029E+06-1.99292E+02 1.40146E+03 8.71278E+02 7.34303E-10-2.13049E-10
 -1       901 1.22045E+06 2.48665E+02 9.50235E+02-2.60241E+03 2.51333E-10-4.96527E-10
 -1       902 1.22037E+06-4.92572E+01 6.92840E+02 3.81299E+02 6.81389E-10 3.08167E-10
 -1       903 1.22042E+06 1.84710E+02 9.73359E+02-1.88965E+03 3.06557E-10 1.24473E-10
 -1       904 1.22032E+06-1.34895E+02 1.52714E+03 1.58497E+02 5.95097E-10-1.53477E-12
 -1       905 1.22085E+06 9.99316E+02 3.34286E+03-1.63985E+03 7.26128E-10-4.00178E-11
 -1       906 1.21993E+06-8.60248E+02 5.74583E+03 1.31499E+02 5.69059E-10-2.83080E-10
 -1       907 1.22357E+06 6.51363E+03 1.40145E+04-1.77299E+03 1.36408E-10 1.66210E-10
 -1       908 1.21759E+06-5.62254E+03 2.24774E+04 2.91645E+02-1.73031E-10 6.45741E-11
 -1       909 1.24034E+06 4.24588E+04 6.10517E+04-2.33726E+03 4.21569E-10-5.73891E-10
 -1       910 1.20313E+06-3.66141E+04 8.67499E+04 6.95732E+02 8.62244E-10-6.51198E-10
 -1       911 3.64762E+05-4.77767E+03 1.11716E+04 2.53497E+03-2.49997E-10 4.32465E-10
 -1       912 3.70094E+05 5.53895E+03 7.97612E+03-1.22341E+04-5.36915E-10 1.41142E-09
 -1       913 3.66790E+05-7.36581E+02 2.91381E+03 1.71563E+03-9.11029E-10 1.31968E-09
 -1       914 3.67666E+05 8.79857E+02 1.87556E+03-1.10054E+04 7.95808E-12 2.53954E-09
 -1       915 3.67156E+05-1.17181E+02 8.33497E+02 1.30629E+03 1.35262E-09 1.60551E-09
 -1       916 3.67246E+05 1.87956E+02 6.27362E+02-1.05587E+04 2.68778E-09 4.18572E-09
 -1       917 3.67200E+05-3.95398E+01 5.64232E+02 1.26896E+03 1.85116E-09 1.89695E-09
 -1       918 3.67321E+05 2.06878E+02 9.35960E+02-1.08518E+04 1.21059E-09 2.48833E-09
 -1       919 3.67088E+05-1.42094E+02 1.54056E+03 1.59940E+03 1.11947E-09 6.95422E-10
 -1       920 3.67992E+05 1.05249E+03 3.50620E+03-1.19130E+04 1.06297E-11-1.08969E-10
 -1       921 3.66557E+05-9.03575E+02 5.93942E+03 2.33012E+03 9.90781E-11 3.67436E-10
 -1       922 3.71287E+05 6.77868E+03 1.47270E+04-1.38495E+04 9.83277E-10-7.98082E-11
 -1       923 3.63855E+05-5.88506E+03 2.33361E+04 3.53602E+03-4.16208E-10-1.72804E-11
 -1       924 3.89695E+05 4.43033E+04 6.39700E+04-1.69377E+04-2.80721E-09-2.43745E-09
 -1       925 3.48276E+05-3.83090E+04 9.02668E+04 5.41808E+03-7.46923E-10-2.23008E-09
 -1       926-1.54389E+06 3.38584E+04-8.02607E+04-1.37830E+04 4.62967E-09-3.37604E-09
 -1       927-1.57843E+06-3.91295E+04-5.64701E+04 2.19913E+04-8.84602E-09-4.89126E-09
 -1       928-1.55742E+06 5.14248E+03-2.07978E+04-1.22845E+04 7.61247E-10-3.11684E-09
 -1       929-1.56215E+06-5.90850E+03-1.27838E+04 1.49940E+04 7.73639E-09-6.30280E-09
 -1       930-1.56005E+06 7.21846E+02-5.39952E+03-6.78559E+03 1.70189E-10-1.46497E-09
 -1       931-1.55891E+06-8.73363E+02-2.74163E+03 1.99462E+03-5.14393E-09-1.07593E-09
 -1       932-1.56055E+06 5.09276E+01-1.42007E+03 7.15006E+02 6.69615E-11-3.19687E-10
 -1       933-1.55873E+06-6.70621E+01-3.53361E+02-1.22354E+04-9.55879E-10 1.30046E-09
 -1       934-1.56026E+06-4.90272E+01-1.19204E+02 7.44415E+03 8.04903E-11 1.87441E-09
 -1       935-1.55942E+06 2.78839E+02 5.62118E+02-2.24268E+04-4.98773E-10 2.98365E-09
 -1       936-1.55998E+06-1.94293E+02 1.08345E+03 1.09066E+04 1.26298E-09 2.13754E-09
 -1       937-1.55912E+06 1.44667E+03 2.82690E+03-2.47991E+04-4.86892E-09 2.69011E-09
 -1       938-1.56059E+06-1.17980E+03 4.52114E+03 9.81663E+03-4.07857E-09 4.75666E-10
 -1       939-1.55501E+06 8.77019E+03 1.25666E+04-1.84781E+04-1.12604E-09 2.50293E-09
 -1       940-1.56399E+06-7.55829E+03 1.75148E+04 4.58530E+03 2.77396E-11 1.96815E-09
 -1       941 6.27432E+06-3.04350E+05 7.24831E+05 2.51041E+02 1.67683E-08 6.66478E-09
 -1       942 6.58422E+06 3.53166E+05 5.09127E+05 6.06052E+03 1.79585E-08-6.81030E-09
 -1       943 6.39478E+06-4.67602E+04 1.88070E+05 2.16479E+03 5.19124E-09-2.25555E-10
 -1       944 6.44510E+06 5.42008E+04 1.17383E+05 3.65283E+03-1.15655E-09-4.25098E-09
 -1       945 6.41447E+06-7.16902E+03 4.86063E+04 2.65884E+03 2.92503E-09 4.00360E-09
 -1       946 6.42260E+06 8.42263E+03 2.89714E+04 3.01494E+03-2.93012E-09 7.73070E-09
 -1       947 6.41769E+06-1.21687E+03 1.46175E+04 2.80293E+03 5.41411E-10 7.52016E-09
 -1       948 6.41936E+06 2.27086E+03 1.20670E+04 2.77416E+03 4.40383E-09 5.07211E-09
 -1       949 6.41780E+06-1.04442E+03 1.29207E+04 2.89968E+03-1.32631E-09-9.00172E-09
 -1       950 6.42177E+06 6.91244E+03 2.41097E+04 2.42347E+03 5.24579E-10 6.77755E-09
 -1       951 6.41521E+06-5.83760E+03 3.97858E+04 3.15358E+03-2.29899E-09-8.51833E-09
 -1       952 6.44004E+06 4.40844E+04 9.55939E+04 1.21582E+03-3.31013E-09-3.74530E-09
 -1       953 6.39920E+06-3.80277E+04 1.52989E+05 4.10706E+03-7.24498E-09 1.78261E-09
 -1       954 6.55319E+06 2.87203E+05 4.14056E+05-3.50830E+03-6.93544E-09-1.05647E-08
 -1       955 6.30110E+06-2.47536E+05 5.89128E+05 7.87487E+03-1.60146E-08-1.28057E-09
 -1       956-3.46583E+05-5.75716E+03-1.16257E+04 5.17668E+04-9.42600E-09-3.05590E-10
 -1       957-3.48681E+05-1.76477E+03-5.84082E+03 5.96218E+04-2.36469E-09-4.13456E-09
 -1       958-3.47572E+05-1.68855E+02-2.62871E+03 5.14428E+04 5.90990E-09-4.44743E-09
 -1       959-3.47803E+05 7.23375E+01-1.33342E+03 5.99759E+04-4.20914E-09-1.08275E-09
 -1       960-3.47734E+05 1.49518E+02-6.48780E+02 5.14063E+04-9.64974E-09 1.48611E-09
 -1       961-3.47788E+05 1.96126E+02-3.40624E+02 6.00171E+04-1.77743E-08 2.09047E-09
 -1       962-3.47802E+05 1.81337E+02-1.92449E+02 5.14005E+04-8.23638E-09-7.00311E-11
 -1       963-3.47831E+05 2.24040E+02-1.47054E+02 6.00249E+04-1.25879E-08-2.86946E-09
 -1       964-3.47838E+05 2.02359E+02-1.71526E+02 5.13981E+04-2.58478E-09-2.01408E-09
 -1       965-3.47867E+05 2.40338E+02-2.89935E+02 6.00260E+04 8.62644E-09-1.36879E-10
 -1       966-3.47841E+05 2.13268E+02-5.42017E+02 5.13992E+04-5.77472E-09-1.27193E-09
 -1       967-3.47946E+05 1.74204E+02-1.11587E+03 6.00100E+04-1.60003E-09-2.70711E-09
 -1       968-3.47761E+05-1.84552E+01-2.19488E+03 5.14147E+04-2.76214E-09-2.30307E-09
 -1       969-3.48745E+05-1.33274E+03-4.88759E+03 5.98544E+04 3.90492E-09-5.94218E-09
 -1       970-3.46977E+05-4.67702E+03-9.72348E+03 5.15654E+04 3.61933E-09-1.78443E-09
 -1       971-8.20164E+05 1.35319E+04-5.24893E+04 3.88356E+03-1.12859E-08-6.53017E-10
 -1       972-8.39437E+05-1.75362E+04-3.40306E+04 2.64002E+04-1.13441E-08-2.33649E-09
 -1       973-8.28214E+05 1.46203E+03-1.36386E+04 3.48434E+03-1.23464E-08-4.91218E-09
 -1       974-8.30575E+05-1.70799E+03-7.70399E+03 2.70395E+04 1.40381E-09-1.85491E-09
 -1       975-8.29185E+05 1.78310E+02-3.51346E+03 3.23991E+03 4.74256E-09-7.51220E-09
 -1       976-8.29588E+05-2.63099E+00-1.95818E+03 2.74241E+04-1.38369E-08-4.13456E-09
 -1       977-8.29316E+05 5.23602E+01-1.13207E+03 3.09845E+03 1.61338E-08-8.00298E-09
 -1       978-8.29518E+05 1.69385E+02-1.00455E+03 2.76101E+04 4.11653E-08-9.20750E-09
 -1       979-8.29313E+05 6.21807E+01-1.30248E+03 3.05340E+03 1.88190E-08-9.10634E-09
 -1       980-8.29681E+05-3.52533E+01-2.41859E+03 2.76022E+04 1.65219E-08-7.41032E-09
 -1       981-8.29152E+05 2.38021E+02-4.41211E+03 3.10650E+03 2.41107E-09-7.93807E-09
 -1       982-8.31005E+05-2.17014E+03-9.75453E+03 2.73986E+04 2.75577E-09-5.89273E-09
 -1       983-8.27929E+05 1.88303E+03-1.72628E+04 3.25842E+03 6.39602E-09-6.05360E-09
 -1       984-8.42320E+05-2.22088E+04-4.31427E+04 2.69621E+04-3.90901E-09-7.46331E-09
 -1       985-8.17730E+05 1.72067E+04-6.65017E+04 3.55055E+03 9.02128E-09-7.56700E-09
 -3
 9999
