
 stresses (elem, integ.pnt.,sxx,syy,szz,sxy,sxz,syz) for set ELALL and time  0.1000000E+01

         1   1  2.273903E+06  1.666591E+05  1.818019E+05  1.083826E+05  1.262152E+05  2.195758E+01
         1   2  2.260236E+06  4.555392E+04  9.064913E+04  5.221419E+04  7.965108E+04  6.675697E+00
         1   3  2.274066E+06  1.032824E+04  5.120713E+04 -3.952602E+03  3.308649E+04 -2.099127E-01
         1   4  2.273891E+06  1.666371E+05  1.817987E+05 -3.577754E-10  1.262152E+05  8.955627E-11
         1   5  2.260233E+06  4.554882E+04  9.064840E+04  1.746385E-09  7.965108E+04  8.357609E-11
         1   6  2.274066E+06  1.032821E+04  5.120713E+04 -9.582536E-10  3.308649E+04 -5.632298E-10
         1   7  2.273903E+06  1.666591E+05  1.818019E+05 -1.083826E+05  1.262152E+05 -2.195758E+01
         1   8  2.260236E+06  4.555392E+04  9.064913E+04 -5.221419E+04  7.965108E+04 -6.675697E+00
         1   9  2.274066E+06  1.032824E+04  5.120713E+04  3.952602E+03  3.308649E+04  2.099127E-01
         1  10  2.273886E+06  1.666548E+05  1.817721E+05  1.083826E+05  1.884130E-10 -2.260056E-10
         1  11  2.260229E+06  4.555223E+04  9.063725E+04  5.221419E+04 -7.220664E-10 -5.627680E-10
         1  12  2.274065E+06  1.032795E+04  5.120508E+04 -3.952602E+03 -9.982547E-10 -4.091829E-10
         1  13  2.273874E+06  1.666328E+05  1.817689E+05 -1.685841E-11 -1.685862E-11 -8.010574E-11
         1  14  2.260226E+06  4.554712E+04  9.063652E+04  2.963172E-09  1.629622E-09 -2.860961E-10
         1  15  2.274065E+06  1.032792E+04  5.120508E+04  2.170296E-09 -3.421327E-10 -3.974994E-10
         1  16  2.273886E+06  1.666548E+05  1.817721E+05 -1.083826E+05 -2.806941E-10  1.943535E-11
         1  17  2.260229E+06  4.555223E+04  9.063725E+04 -5.221419E+04  3.725956E-11 -6.400740E-11
         1  18  2.274065E+06  1.032795E+04  5.120508E+04  3.952602E+03 -5.458245E-10 -3.414555E-10
         1  19  2.273903E+06  1.666591E+05  1.818019E+05  1.083826E+05 -1.262152E+05 -2.195758E+01
         1  20  2.260236E+06  4.555392E+04  9.064913E+04  5.221419E+04 -7.965108E+04 -6.675697E+00
         1  21  2.274066E+06  1.032824E+04  5.120713E+04 -3.952602E+03 -3.308649E+04  2.099127E-01
         1  22  2.273891E+06  1.666371E+05  1.817987E+05 -7.750042E-10 -1.262152E+05 -2.557127E-10
         1  23  2.260233E+06  4.554882E+04  9.064840E+04  1.501980E-09 -7.965108E+04 -6.457537E-10
         1  24  2.274066E+06  1.032821E+04  5.120713E+04  6.417664E-10 -3.308649E+04 -2.150706E-10
         1  25  2.273903E+06  1.666591E+05  1.818019E+05 -1.083826E+05 -1.262152E+05  2.195758E+01
         1  26  2.260236E+06  4.555392E+04  9.064913E+04 -5.221419E+04 -7.965108E+04  6.675697E+00
         1  27  2.274066E+06  1.032824E+04  5.120713E+04  3.952602E+03 -3.308649E+04 -2.099127E-01
         2   1  2.268659E+06  9.492789E+03  4.008545E+04  4.913604E+03  2.624236E+04  2.069719E-01
         2   2  2.267065E+06  1.952887E+03  2.593219E+04  2.127045E+03  1.329938E+04  4.540638E-02
         2   3  2.268675E+06  5.136562E+02  2.170832E+04 -6.595224E+02  3.565002E+02 -3.773953E-04
         2   4  2.268659E+06  9.492744E+03  4.008544E+04  4.236907E-10  2.624236E+04 -9.883556E-10
         2   5  2.267065E+06  1.952878E+03  2.593219E+04  3.657538E-09  1.329938E+04 -7.949002E-10
         2   6  2.268675E+06  5.136554E+02  2.170832E+04 -9.027180E-10  3.565002E+02  2.553427E-10
         2   7  2.268659E+06  9.492789E+03  4.008545E+04 -4.913604E+03  2.624236E+04 -2.069719E-01
         2   8  2.267065E+06  1.952887E+03  2.593219E+04 -2.127045E+03  1.329938E+04 -4.540638E-02
         2   9  2.268675E+06  5.136562E+02  2.170832E+04  6.595224E+02  3.565002E+02  3.773958E-04
         2  10  2.268658E+06  9.492605E+03  4.008416E+04  4.913604E+03 -1.341701E-09 -1.773941E-10
         2  11  2.267065E+06  1.952839E+03  2.593186E+04  2.127045E+03  6.762697E-10  2.756522E-10
         2  12  2.268675E+06  5.136562E+02  2.170832E+04 -6.595224E+02  2.109110E-10  3.645003E-10
         2  13  2.268658E+06  9.492560E+03  4.008415E+04  2.727116E-09  1.094366E-09 -3.560416E-10
         2  14  2.267065E+06  1.952831E+03  2.593185E+04  6.217915E-10 -1.276391E-10 -9.283156E-11
         2  15  2.268675E+06  5.136554E+02  2.170832E+04  7.060819E-10  8.563461E-10  2.224784E-10
         2  16  2.268658E+06  9.492605E+03  4.008416E+04 -4.913604E+03 -4.436243E-10 -5.283590E-10
         2  17  2.267065E+06  1.952839E+03  2.593186E+04 -2.127045E+03 -1.387570E-09 -4.637191E-10
         2  18  2.268675E+06  5.136562E+02  2.170832E+04  6.595224E+02 -3.366881E-10  1.048400E-10
         2  19  2.268659E+06  9.492789E+03  4.008545E+04  4.913604E+03 -2.624236E+04 -2.069719E-01
         2  20  2.267065E+06  1.952887E+03  2.593219E+04  2.127045E+03 -1.329938E+04 -4.540637E-02
         2  21  2.268675E+06  5.136562E+02  2.170832E+04 -6.595224E+02 -3.565002E+02  3.773958E-04
         2  22  2.268659E+06  9.492744E+03  4.008544E+04  2.908336E-09 -2.624236E+04  3.039261E-10
         2  23  2.267065E+06  1.952878E+03  2.593219E+04  3.061837E-10 -1.329938E+04  6.047385E-10
         2  24  2.268675E+06  5.136554E+02  2.170832E+04 -2.847516E-09 -3.565002E+02  1.810133E-10
         2  25  2.268659E+06  9.492789E+03  4.008545E+04 -4.913604E+03 -2.624236E+04  2.069719E-01
         2  26  2.267065E+06  1.952887E+03  2.593219E+04 -2.127045E+03 -1.329938E+04  4.540638E-02
         2  27  2.268675E+06  5.136562E+02  2.170832E+04  6.595224E+02 -3.565002E+02 -3.773952E-04
         3   1  2.268775E+06  5.074932E+02  2.224813E+04  9.482924E+02 -3.445579E+03 -5.244595E-03
         3   2  2.266938E+06  2.375241E+03  2.890249E+04 -2.395661E+03 -1.787768E+04  6.874567E-02
         3   3  2.268754E+06  1.137354E+04  4.671085E+04 -5.739549E+03 -3.230972E+04  2.976593E-01
         3   4  2.268775E+06  5.074916E+02  2.224813E+04  2.097873E-09 -3.445579E+03  4.992722E-10
         3   5  2.266938E+06  2.375230E+03  2.890249E+04  1.491706E-09 -1.787768E+04  1.722964E-10
         3   6  2.268754E+06  1.137348E+04  4.671084E+04 -1.725109E-09 -3.230972E+04  7.005767E-10
         3   7  2.268775E+06  5.074932E+02  2.224813E+04 -9.482924E+02 -3.445579E+03  5.244596E-03
         3   8  2.266938E+06  2.375241E+03  2.890249E+04  2.395661E+03 -1.787768E+04 -6.874567E-02
         3   9  2.268754E+06  1.137354E+04  4.671085E+04  5.739549E+03 -3.230972E+04 -2.976593E-01
         3  10  2.268775E+06  5.074901E+02  2.224811E+04  9.482924E+02  1.209901E-09  3.387488E-10
         3  11  2.266937E+06  2.375156E+03  2.890189E+04 -2.395661E+03 -8.313399E-10  4.885892E-10
         3  12  2.268753E+06  1.137326E+04  4.670889E+04 -5.739549E+03  5.202700E-10  8.360459E-10
         3  13  2.268775E+06  5.074884E+02  2.224811E+04  3.302260E-09  2.071197E-09  3.481267E-10
         3  14  2.266937E+06  2.375145E+03  2.890189E+04 -8.240902E-10 -9.718097E-28  4.717469E-10
         3  15  2.268753E+06  1.137320E+04  4.670888E+04 -1.396540E-09 -9.769608E-10  6.098129E-10
         3  16  2.268775E+06  5.074901E+02  2.224811E+04 -9.482924E+02  6.587740E-10  3.560893E-10
         3  17  2.266937E+06  2.375156E+03  2.890189E+04  2.395661E+03 -3.175911E-10  3.185193E-10
         3  18  2.268753E+06  1.137326E+04  4.670889E+04  5.739549E+03  6.360958E-10  3.984979E-10
         3  19  2.268775E+06  5.074932E+02  2.224813E+04  9.482924E+02  3.445579E+03  5.244595E-03
         3  20  2.266938E+06  2.375241E+03  2.890249E+04 -2.395661E+03  1.787768E+04 -6.874567E-02
         3  21  2.268754E+06  1.137354E+04  4.671085E+04 -5.739549E+03  3.230972E+04 -2.976593E-01
         3  22  2.268775E+06  5.074916E+02  2.224813E+04  1.653524E-10  3.445579E+03  2.141681E-10
         3  23  2.266938E+06  2.375230E+03  2.890249E+04  1.702447E-09  1.787768E+04  6.954406E-10
         3  24  2.268754E+06  1.137348E+04  4.671084E+04 -1.518565E-09  3.230972E+04  4.978116E-10
         3  25  2.268775E+06  5.074932E+02  2.224813E+04 -9.482924E+02  3.445579E+03 -5.244595E-03
         3  26  2.266938E+06  2.375241E+03  2.890249E+04  2.395661E+03  1.787768E+04  6.874567E-02
         3  27  2.268754E+06  1.137354E+04  4.671085E+04  5.739549E+03  3.230972E+04  2.976593E-01
         4   1  2.275241E+06  1.236046E+04  6.029469E+04  4.808084E+03 -4.030289E+04 -3.110375E-01
         4   2  2.258746E+06  5.440070E+04  1.078232E+05 -6.225507E+04 -9.569335E+04  9.562572E+00
         4   3  2.275049E+06  1.989496E+05  2.169530E+05 -1.293227E+05 -1.510849E+05  3.136249E+01
         4   4  2.275241E+06  1.236042E+04  6.029468E+04 -1.277814E-09 -4.030289E+04  7.448604E-10
         4   5  2.258741E+06  5.439344E+04  1.078222E+05 -1.458524E-10 -9.569335E+04  2.312043E-10
         4   6  2.275031E+06  1.989183E+05  2.169485E+05 -1.068772E-09 -1.510849E+05  5.939428E-11
         4   7  2.275241E+06  1.236046E+04  6.029469E+04 -4.808084E+03 -4.030289E+04  3.110375E-01
         4   8  2.258746E+06  5.440070E+04  1.078232E+05  6.225507E+04 -9.569335E+04 -9.562572E+00
         4   9  2.275049E+06  1.989496E+05  2.169530E+05  1.293227E+05 -1.510849E+05 -3.136249E+01
         4  10  2.275239E+06  1.236003E+04  6.029165E+04  4.808084E+03  1.933318E-09  8.157202E-10
         4  11  2.258736E+06  5.439825E+04  1.078061E+05 -6.225507E+04 -8.049810E-10  1.622046E-10
         4  12  2.275024E+06  1.989435E+05  2.169102E+05 -1.293227E+05 -4.050833E-10  4.971710E-12
         4  13  2.275239E+06  1.235999E+04  6.029164E+04 -2.677692E-10  6.680973E-11  4.344435E-10
         4  14  2.258732E+06  5.439100E+04  1.078051E+05  1.550931E-09  1.516504E-09 -3.589404E-11
         4  15  2.275006E+06  1.989122E+05  2.169058E+05  1.837004E-09 -3.825604E-10 -7.504038E-11
         4  16  2.275239E+06  1.236003E+04  6.029165E+04 -4.808084E+03 -7.210629E-10  1.804139E-11
         4  17  2.258736E+06  5.439825E+04  1.078061E+05  6.225507E+04  1.130118E-10 -3.107163E-10
         4  18  2.275024E+06  1.989435E+05  2.169102E+05  1.293227E+05  6.779136E-11 -1.673735E-10
         4  19  2.275241E+06  1.236046E+04  6.029469E+04  4.808084E+03  4.030289E+04  3.110375E-01
         4  20  2.258746E+06  5.440070E+04  1.078232E+05 -6.225507E+04  9.569335E+04 -9.562572E+00
         4  21  2.275049E+06  1.989496E+05  2.169530E+05 -1.293227E+05  1.510849E+05 -3.136249E+01
         4  22  2.275241E+06  1.236042E+04  6.029468E+04 -1.363059E-09  4.030289E+04  1.091121E-10
         4  23  2.258741E+06  5.439344E+04  1.078222E+05  3.235029E-09  9.569335E+04 -3.219812E-10
         4  24  2.275031E+06  1.989183E+05  2.169485E+05  3.211836E-10  1.510849E+05 -2.158074E-10
         4  25  2.275241E+06  1.236046E+04  6.029469E+04 -4.808084E+03  4.030289E+04 -3.110375E-01
         4  26  2.258746E+06  5.440070E+04  1.078232E+05  6.225507E+04  9.569335E+04  9.562572E+00
         4  27  2.275049E+06  1.989496E+05  2.169530E+05  1.293227E+05  1.510849E+05  3.136249E+01
         5   1 -1.169789E+06 -3.513566E+06 -1.138917E+06  9.949090E+05 -4.775030E+04 -4.112514E+05
         5   2 -8.218301E+05 -2.698089E+06 -7.190035E+05  8.637397E+05 -1.480441E+05 -1.845345E+05
         5   3 -5.903797E+05 -1.940191E+06 -4.762457E+05  8.828779E+05 -1.537557E+05  4.252431E+04
         5   4 -1.666802E+05  5.396070E+05 -1.826918E+05  8.914885E+05 -4.719713E+04 -1.286731E+05
         5   5 -4.493167E+04  5.536591E+05 -8.956133E+04  8.161704E+05 -1.477514E+05 -8.238831E+04
         5   6 -7.902068E+03  5.412372E+05 -4.765671E+04  8.911975E+05 -1.539098E+05 -3.608224E+04
         5   7  8.353385E+05  4.608135E+06  7.727078E+05  7.873698E+05 -4.674141E+04  1.557496E+05
         5   8  7.313514E+05  3.815621E+06  5.394272E+05  7.683344E+05 -1.474756E+05  2.028332E+04
         5   9  5.742480E+05  3.028731E+06  3.807442E+05  8.995436E+05 -1.540655E+05 -1.149938E+05
         5  10 -1.169837E+06 -3.513749E+06 -1.139240E+06  9.948932E+05  1.366643E-09 -5.920029E-08
         5  11 -8.218628E+05 -2.698132E+06 -7.191088E+05  8.637176E+05  3.330506E-09  2.027600E-09
         5  12 -5.904056E+05 -1.940199E+06 -4.762936E+05  8.828832E+05  1.072486E-09  6.410208E-08
         5  13 -1.666871E+05  5.395887E+05 -1.827270E+05  8.914836E+05  1.497565E-09  2.831330E-11
         5  14 -4.495691E+04  5.536460E+05 -8.961504E+04  8.161606E+05  1.242173E-09 -9.728980E-12
         5  15 -7.927850E+03  5.412295E+05 -4.770365E+04  8.911930E+05  8.509263E-10 -4.361373E-11
         5  16  8.353297E+05  4.608108E+06  7.726584E+05  7.873757E+05 -2.503669E-10  5.958438E-08
         5  17  7.313279E+05  3.815615E+06  5.393855E+05  7.683368E+05  4.302301E-10 -1.997685E-09
         5  18  5.742190E+05  3.028711E+06  3.806750E+05  8.995293E+05 -6.214423E-10 -6.438362E-08
         5  19 -1.169789E+06 -3.513566E+06 -1.138917E+06  9.949090E+05  4.775030E+04  4.112514E+05
         5  20 -8.218301E+05 -2.698089E+06 -7.190035E+05  8.637397E+05  1.480441E+05  1.845345E+05
         5  21 -5.903797E+05 -1.940191E+06 -4.762457E+05  8.828779E+05  1.537557E+05 -4.252431E+04
         5  22 -1.666802E+05  5.396070E+05 -1.826918E+05  8.914885E+05  4.719713E+04  1.286731E+05
         5  23 -4.493167E+04  5.536591E+05 -8.956133E+04  8.161704E+05  1.477514E+05  8.238831E+04
         5  24 -7.902068E+03  5.412372E+05 -4.765671E+04  8.911975E+05  1.539098E+05  3.608224E+04
         5  25  8.353385E+05  4.608135E+06  7.727078E+05  7.873698E+05  4.674141E+04 -1.557496E+05
         5  26  7.313514E+05  3.815621E+06  5.394272E+05  7.683344E+05  1.474756E+05 -2.028332E+04
         5  27  5.742480E+05  3.028731E+06  3.807442E+05  8.995436E+05  1.540655E+05  1.149938E+05
         6   1 -4.691632E+05 -1.429532E+06 -3.709306E+05  8.934907E+05 -1.268037E+05  4.402477E+04
         6   2 -2.744585E+05 -6.413891E+05 -2.075754E+05  8.140734E+05 -8.531609E+04  6.308944E+04
         6   3 -8.586592E+04  1.429680E+05 -5.832828E+04  8.911711E+05 -3.827459E+04  8.213359E+04
         6   4 -6.501865E+03  5.469822E+05 -3.517751E+04  8.925784E+05 -1.269807E+05 -3.012978E+04
         6   5  1.670930E+03  5.485532E+05 -1.694822E+04  8.143131E+05 -8.555573E+04 -2.173042E+04
         6   6  5.624009E+03  5.476012E+05 -5.396122E+03  8.925459E+05 -3.858309E+04 -1.337450E+04
         6   7  4.559556E+05  2.527357E+06  3.004691E+05  8.916580E+05 -1.271571E+05 -1.045131E+05
         6   8  2.777332E+05  1.739918E+06  1.736686E+05  8.145515E+05 -8.579511E+04 -1.067071E+05
         6   9  9.711197E+04  9.524213E+05  4.756926E+04  8.939215E+05 -3.889187E+04 -1.089419E+05
         6  10 -4.691810E+05 -1.429538E+06 -3.709645E+05  8.934952E+05  6.153295E-10 -3.627336E-10
         6  11 -2.744674E+05 -6.413953E+05 -2.075966E+05  8.140778E+05 -4.330328E-10  1.599008E-09
         6  12 -8.586931E+04  1.429603E+05 -5.834373E+04  8.911736E+05 -1.149774E-09  3.991412E-09
         6  13 -6.519419E+03  5.469769E+05 -3.520950E+04  8.925753E+05 -1.158085E-09 -5.536175E-11
         6  14  1.662945E+03  5.485507E+05 -1.696285E+04  8.143116E+05 -3.251061E-09 -1.655569E-10
         6  15  5.622363E+03  5.476006E+05 -5.399253E+03  8.925455E+05  8.180731E-10  1.470369E-11
         6  16  4.559353E+05  2.527341E+06  3.004183E+05  8.916473E+05 -7.121461E-10  3.390359E-10
         6  17  2.777222E+05  1.739904E+06  1.736335E+05  8.145441E+05 -2.549650E-09 -1.583884E-09
         6  18  9.710717E+04  9.524082E+05  4.754418E+04  8.939181E+05 -6.740942E-10 -3.976197E-09
         6  19 -4.691632E+05 -1.429532E+06 -3.709306E+05  8.934907E+05  1.268037E+05 -4.402477E+04
         6  20 -2.744585E+05 -6.413891E+05 -2.075754E+05  8.140734E+05  8.531609E+04 -6.308944E+04
         6  21 -8.586592E+04  1.429680E+05 -5.832828E+04  8.911711E+05  3.827459E+04 -8.213359E+04
         6  22 -6.501865E+03  5.469822E+05 -3.517751E+04  8.925784E+05  1.269807E+05  3.012978E+04
         6  23  1.670930E+03  5.485532E+05 -1.694822E+04  8.143131E+05  8.555573E+04  2.173042E+04
         6  24  5.624009E+03  5.476012E+05 -5.396122E+03  8.925459E+05  3.858309E+04  1.337450E+04
         6  25  4.559556E+05  2.527357E+06  3.004691E+05  8.916580E+05  1.271571E+05  1.045131E+05
         6  26  2.777332E+05  1.739918E+06  1.736686E+05  8.145515E+05  8.579511E+04  1.067071E+05
         6  27  9.711197E+04  9.524213E+05  4.756926E+04  8.939215E+05  3.889187E+04  1.089419E+05
         7   1  3.217827E+04  6.474112E+05  3.314480E+04  8.912482E+05 -7.102071E+03  8.429537E+04
         7   2  2.244609E+05  1.425905E+06  2.008295E+05  8.238765E+05  2.250800E+04 -4.927505E+01
         7   3  4.435539E+05  2.222179E+06  4.298661E+05  9.107458E+05  1.082850E+04 -8.445041E+04
         7   4  5.744657E+03  5.489629E+05 -6.837583E+02  8.920535E+05 -7.419700E+03 -1.282218E+04
         7   5  1.055735E+04  5.469986E+05  9.483378E+03  8.148991E+05  2.245589E+04 -1.778521E+04
         7   6  2.847257E+04  5.485027E+05  2.595823E+04  8.919941E+05  1.101726E+04 -2.269950E+04
         7   7 -2.068488E+04  4.505428E+05 -3.447794E+04  8.928588E+05 -7.737611E+03 -1.099238E+05
         7   8 -2.033971E+05 -3.311848E+05 -1.819079E+05  8.059335E+05  2.240424E+04 -3.549639E+04
         7   9 -3.868101E+05 -1.122611E+06 -3.781356E+05  8.732895E+05  1.120265E+04  3.888603E+04
         7  10  3.217631E+04  6.474036E+05  3.313136E+04  8.912487E+05 -8.278589E-10  9.321213E-11
         7  11  2.244604E+05  1.425905E+06  2.008285E+05  8.238765E+05 -1.890742E-09  9.021332E-10
         7  12  4.435519E+05  2.222172E+06  4.298525E+05  9.107465E+05  1.473959E-09  1.871341E-09
         7  13  5.744554E+03  5.489627E+05 -6.841698E+02  8.920535E+05 -2.027912E-10  3.926283E-11
         7  14  1.055672E+04  5.469981E+05  9.481834E+03  8.148994E+05  2.623778E-10 -2.364079E-11
         7  15  2.847230E+04  5.485022E+05  2.595703E+04  8.919943E+05 -6.269510E-10  2.735769E-11
         7  16 -2.068819E+04  4.505298E+05 -3.450074E+04  8.928581E+05 -6.585681E-10 -4.194113E-11
         7  17 -2.033979E+05 -3.311863E+05 -1.819112E+05  8.059342E+05 -1.938961E-09 -7.655511E-10
         7  18 -3.868106E+05 -1.122613E+06 -3.781387E+05  8.732891E+05 -6.159899E-10 -1.802621E-09
         7  19  3.217827E+04  6.474112E+05  3.314480E+04  8.912482E+05  7.102071E+03 -8.429537E+04
         7  20  2.244609E+05  1.425905E+06  2.008295E+05  8.238765E+05 -2.250800E+04  4.927505E+01
         7  21  4.435539E+05  2.222179E+06  4.298661E+05  9.107458E+05 -1.082850E+04  8.445041E+04
         7  22  5.744657E+03  5.489629E+05 -6.837583E+02  8.920535E+05  7.419700E+03  1.282218E+04
         7  23  1.055735E+04  5.469986E+05  9.483378E+03  8.148991E+05 -2.245589E+04  1.778521E+04
         7  24  2.847257E+04  5.485027E+05  2.595823E+04  8.919941E+05 -1.101726E+04  2.269950E+04
         7  25 -2.068488E+04  4.505428E+05 -3.447794E+04  8.928588E+05  7.737611E+03  1.099238E+05
         7  26 -2.033971E+05 -3.311848E+05 -1.819079E+05  8.059335E+05 -2.240424E+04  3.549639E+04
         7  27 -3.868101E+05 -1.122611E+06 -3.781356E+05  8.732895E+05 -1.120265E+04 -3.888603E+04
         8   1  1.658004E+06  8.002710E+04  8.734830E+04  5.205722E+04  6.029795E+04  5.043167E+00
         8   2  1.651419E+06  2.185285E+04  4.378549E+04  2.510790E+04  3.781344E+04  1.525379E+00
         8   3  1.658062E+06  4.933519E+03  2.514745E+04 -1.840859E+03  1.532896E+04 -4.533660E-02
         8   4  1.658001E+06  8.002202E+04  8.734758E+04 -2.818186E-09  6.029795E+04 -3.919605E-11
         8   5  1.651418E+06  2.185167E+04  4.378532E+04 -1.529135E-09  3.781344E+04 -1.010959E-10
         8   6  1.658062E+06  4.933513E+03  2.514744E+04 -1.132586E-09  1.532896E+04 -2.310732E-10
         8   7  1.658004E+06  8.002710E+04  8.734830E+04 -5.205722E+04  6.029795E+04 -5.043167E+00
         8   8  1.651419E+06  2.185285E+04  4.378549E+04 -2.510790E+04  3.781344E+04 -1.525379E+00
         8   9  1.658062E+06  4.933519E+03  2.514745E+04  1.840859E+03  1.532896E+04  4.533660E-02
         8  10  1.658000E+06  8.002613E+04  8.734149E+04  5.205722E+04  4.084808E-10  9.844067E-11
         8  11  1.651417E+06  2.185247E+04  4.378281E+04  2.510790E+04  2.486572E-10  2.037854E-10
         8  12  1.658062E+06  4.933456E+03  2.514700E+04 -1.840859E+03  2.917226E-11 -1.426219E-10
         8  13  1.657997E+06  8.002105E+04  8.734076E+04 -3.807445E-09 -1.648207E-10  2.038193E-11
         8  14  1.651417E+06  2.185129E+04  4.378264E+04 -2.661584E-09  4.648749E-10 -1.313282E-13
         8  15  1.658062E+06  4.933450E+03  2.514700E+04  1.414149E-09  2.387191E-09 -1.453851E-10
         8  16  1.658000E+06  8.002613E+04  8.734149E+04 -5.205722E+04  3.258340E-11 -5.981324E-11
         8  17  1.651417E+06  2.185247E+04  4.378281E+04 -2.510790E+04  5.327186E-10 -2.075741E-10
         8  18  1.658062E+06  4.933456E+03  2.514700E+04  1.840859E+03  1.031712E-09 -1.515544E-10
         8  19  1.658004E+06  8.002710E+04  8.734830E+04  5.205722E+04 -6.029795E+04 -5.043167E+00
         8  20  1.651419E+06  2.185285E+04  4.378549E+04  2.510790E+04 -3.781344E+04 -1.525379E+00
         8  21  1.658062E+06  4.933519E+03  2.514745E+04 -1.840859E+03 -1.532896E+04  4.533660E-02
         8  22  1.658001E+06  8.002202E+04  8.734758E+04 -2.152951E-09 -6.029795E+04  9.584880E-11
         8  23  1.651418E+06  2.185167E+04  4.378532E+04 -1.937570E-09 -3.781344E+04  1.071508E-10
         8  24  1.658062E+06  4.933513E+03  2.514744E+04 -6.359008E-11 -1.532896E+04 -6.221377E-11
         8  25  1.658004E+06  8.002710E+04  8.734830E+04 -5.205722E+04 -6.029795E+04  5.043167E+00
         8  26  1.651419E+06  2.185285E+04  4.378549E+04 -2.510790E+04 -3.781344E+04  1.525379E+00
         8  27  1.658062E+06  4.933519E+03  2.514745E+04  1.840859E+03 -1.532896E+04 -4.533660E-02
         9   1  1.655487E+06  4.527903E+03  2.001622E+04  2.442219E+03  1.192512E+04  4.679125E-02
         9   2  1.654663E+06  9.068024E+02  1.384033E+04  1.117453E+03  5.023326E+03  9.018579E-03
         9   3  1.655492E+06  3.177978E+02  1.290701E+04 -2.072952E+02 -1.878344E+03  6.255784E-04
         9   4  1.655487E+06  4.527891E+03  2.001622E+04 -1.700065E-09  1.192512E+04 -9.792902E-11
         9   5  1.654663E+06  9.068001E+02  1.384033E+04 -5.163455E-10  5.023326E+03  1.905071E-10
         9   6  1.655492E+06  3.177977E+02  1.290701E+04 -5.450258E-10 -1.878344E+03  2.450836E-10
         9   7  1.655487E+06  4.527903E+03  2.001622E+04 -2.442219E+03  1.192512E+04 -4.679125E-02
         9   8  1.654663E+06  9.068024E+02  1.384033E+04 -1.117453E+03  5.023326E+03 -9.018578E-03
         9   9  1.655492E+06  3.177978E+02  1.290701E+04  2.072952E+02 -1.878344E+03 -6.255780E-04
         9  10  1.655487E+06  4.527864E+03  2.001596E+04  2.442219E+03  4.242140E-12 -1.486142E-10
         9  11  1.654662E+06  9.067957E+02  1.384029E+04  1.117453E+03  9.474990E-10  2.068211E-10
         9  12  1.655492E+06  3.177969E+02  1.290700E+04 -2.072952E+02  5.252541E-10  5.326572E-10
         9  13  1.655487E+06  4.527853E+03  2.001595E+04 -8.831954E-10  3.348599E-09 -1.105916E-10
         9  14  1.654662E+06  9.067933E+02  1.384028E+04 -9.667265E-10  2.304582E-09  1.012447E-10
         9  15  1.655492E+06  3.177968E+02  1.290700E+04 -6.040006E-10  9.507596E-11  1.018212E-10
         9  16  1.655487E+06  4.527864E+03  2.001596E+04 -2.442219E+03  1.686907E-09 -8.593793E-11
         9  17  1.654662E+06  9.067957E+02  1.384029E+04 -1.117453E+03  6.666690E-10 -4.041782E-11
         9  18  1.655492E+06  3.177969E+02  1.290700E+04  2.072952E+02  1.609859E-10 -3.623571E-10
         9  19  1.655487E+06  4.527903E+03  2.001622E+04  2.442219E+03 -1.192512E+04 -4.679125E-02
         9  20  1.654663E+06  9.068024E+02  1.384033E+04  1.117453E+03 -5.023326E+03 -9.018578E-03
         9  21  1.655492E+06  3.177978E+02  1.290701E+04 -2.072952E+02  1.878344E+03 -6.255774E-04
         9  22  1.655487E+06  4.527891E+03  2.001622E+04 -1.737618E-09 -1.192512E+04 -1.272111E-10
         9  23  1.654663E+06  9.068001E+02  1.384033E+04 -3.020998E-09 -5.023326E+03 -4.742493E-12
         9  24  1.655492E+06  3.177977E+02  1.290701E+04 -5.240526E-10  1.878344E+03 -3.851835E-11
         9  25  1.655487E+06  4.527903E+03  2.001622E+04 -2.442219E+03 -1.192512E+04  4.679125E-02
         9  26  1.654663E+06  9.068024E+02  1.384033E+04 -1.117453E+03 -5.023326E+03  9.018578E-03
         9  27  1.655492E+06  3.177978E+02  1.290701E+04  2.072952E+02  1.878344E+03  6.255776E-04
        10   1  1.655689E+06  3.055200E+02  1.397027E+04  7.760132E+02 -4.202046E+03 -5.238980E-03
        10   2  1.654412E+06  1.738319E+03  1.969139E+04 -1.646030E+03 -1.403661E+04  3.712085E-02
        10   3  1.655677E+06  8.232384E+03  3.306827E+04 -4.068099E+03 -2.387141E+04  1.560225E-01
        10   4  1.655689E+06  3.055188E+02  1.397027E+04 -1.123664E-09 -4.202046E+03 -1.038795E-10
        10   5  1.654412E+06  1.738314E+03  1.969139E+04 -1.486111E-09 -1.403661E+04 -5.782381E-10
        10   6  1.655677E+06  8.232353E+03  3.306826E+04 -4.534312E-09 -2.387141E+04 -7.414403E-12
        10   7  1.655689E+06  3.055200E+02  1.397027E+04 -7.760132E+02 -4.202046E+03  5.238980E-03
        10   8  1.654412E+06  1.738319E+03  1.969139E+04  1.646030E+03 -1.403661E+04 -3.712085E-02
        10   9  1.655677E+06  8.232384E+03  3.306827E+04  4.068099E+03 -2.387141E+04 -1.560225E-01
        10  10  1.655689E+06  3.055152E+02  1.397024E+04  7.760132E+02 -3.430050E-11  3.288912E-10
        10  11  1.654412E+06  1.738266E+03  1.969102E+04 -1.646030E+03  2.853957E-10 -2.169430E-11
        10  12  1.655677E+06  8.232232E+03  3.306720E+04 -4.068099E+03  1.498965E-10  3.126996E-10
        10  13  1.655689E+06  3.055141E+02  1.397024E+04 -2.786531E-09  3.898191E-10  4.830696E-11
        10  14  1.654412E+06  1.738261E+03  1.969102E+04 -2.256468E-09  3.439440E-10  6.928338E-11
        10  15  1.655677E+06  8.232201E+03  3.306720E+04 -7.750097E-10 -6.489005E-10  1.921202E-10
        10  16  1.655689E+06  3.055152E+02  1.397024E+04 -7.760132E+02  4.467758E-10 -2.391985E-10
        10  17  1.654412E+06  1.738266E+03  1.969102E+04  1.646030E+03  7.559036E-11  9.978324E-11
        10  18  1.655677E+06  8.232232E+03  3.306720E+04  4.068099E+03 -5.855881E-10  2.034674E-11
        10  19  1.655689E+06  3.055200E+02  1.397027E+04  7.760132E+02  4.202046E+03  5.238981E-03
        10  20  1.654412E+06  1.738319E+03  1.969139E+04 -1.646030E+03  1.403661E+04 -3.712085E-02
        10  21  1.655677E+06  8.232384E+03  3.306827E+04 -4.068099E+03  2.387141E+04 -1.560225E-01
        10  22  1.655689E+06  3.055188E+02  1.397027E+04 -2.272962E-09  4.202046E+03  2.077321E-10
        10  23  1.654412E+06  1.738314E+03  1.969139E+04 -3.014173E-09  1.403661E+04  7.042768E-10
        10  24  1.655677E+06  8.232353E+03  3.306826E+04 -2.610355E-09  2.387141E+04  3.837811E-10
        10  25  1.655689E+06  3.055200E+02  1.397027E+04 -7.760132E+02  4.202046E+03 -5.238980E-03
        10  26  1.654412E+06  1.738319E+03  1.969139E+04  1.646030E+03  1.403661E+04  3.712085E-02
        10  27  1.655677E+06  8.232384E+03  3.306827E+04  4.068099E+03  2.387141E+04  1.560225E-01
        11   1  1.660380E+06  8.933597E+03  4.304943E+04  3.531467E+03 -2.953572E+04 -1.675782E-01
        11   2  1.648490E+06  3.927677E+04  7.761802E+04 -4.488272E+04 -6.940882E+04  5.005167E+00
        11   3  1.660278E+06  1.436522E+05  1.566079E+05 -9.329870E+04 -1.092821E+05  1.638124E+01
        11   4  1.660380E+06  8.933573E+03  4.304943E+04 -1.233904E-09 -2.953572E+04  4.025617E-11
        11   5  1.648488E+06  3.927300E+04  7.761748E+04  8.332167E-10 -6.940882E+04 -4.349208E-10
        11   6  1.660269E+06  1.436359E+05  1.566056E+05 -9.221573E-10 -1.092821E+05 -1.929421E-10
        11   7  1.660380E+06  8.933597E+03  4.304943E+04 -3.531467E+03 -2.953572E+04  1.675782E-01
        11   8  1.648490E+06  3.927677E+04  7.761802E+04  4.488272E+04 -6.940882E+04 -5.005167E+00
        11   9  1.660278E+06  1.436522E+05  1.566079E+05  9.329870E+04 -1.092821E+05 -1.638124E+01
        11  10  1.660379E+06  8.933363E+03  4.304779E+04  3.531467E+03  1.530030E-10  4.319048E-10
        11  11  1.648485E+06  3.927548E+04  7.760899E+04 -4.488272E+04  3.061830E-10  4.558544E-11
        11  12  1.660266E+06  1.436490E+05  1.565856E+05 -9.329870E+04 -2.166925E-10 -3.901115E-11
        11  13  1.660379E+06  8.933340E+03  4.304779E+04 -8.424990E-10 -4.883122E-10  1.863617E-10
        11  14  1.648482E+06  3.927171E+04  7.760845E+04 -5.728929E-10 -2.212018E-09  4.250723E-11
        11  15  1.660256E+06  1.436327E+05  1.565832E+05 -1.280034E-09  1.483428E-09 -8.993036E-12
        11  16  1.660379E+06  8.933363E+03  4.304779E+04 -3.531467E+03 -5.450844E-10 -4.423753E-11
        11  17  1.648485E+06  3.927548E+04  7.760899E+04  4.488272E+04 -6.248785E-10  5.436347E-11
        11  18  1.660266E+06  1.436490E+05  1.565856E+05  9.329870E+04 -3.542019E-10  3.458955E-11
        11  19  1.660380E+06  8.933597E+03  4.304943E+04  3.531467E+03  2.953572E+04  1.675782E-01
        11  20  1.648490E+06  3.927677E+04  7.761802E+04 -4.488272E+04  6.940882E+04 -5.005167E+00
        11  21  1.660278E+06  1.436522E+05  1.566079E+05 -9.329870E+04  1.092821E+05 -1.638124E+01
        11  22  1.660380E+06  8.933573E+03  4.304943E+04 -9.225285E-10  2.953572E+04  3.302022E-10
        11  23  1.648488E+06  3.927300E+04  7.761748E+04 -1.461166E-09  6.940882E+04  5.454847E-10
        11  24  1.660269E+06  1.436359E+05  1.566056E+05 -2.105182E-09  1.092821E+05  1.724285E-10
        11  25  1.660380E+06  8.933597E+03  4.304943E+04 -3.531467E+03  2.953572E+04 -1.675782E-01
        11  26  1.648490E+06  3.927677E+04  7.761802E+04  4.488272E+04  6.940882E+04  5.005167E+00
        11  27  1.660278E+06  1.436522E+05  1.566079E+05  9.329870E+04  1.092821E+05  1.638124E+01
        12   1 -9.366943E+05 -2.864209E+06 -9.330827E+05  8.162433E+05 -3.050329E+04 -3.912471E+05
        12   2 -5.736885E+05 -2.268215E+06 -5.576488E+05  6.681679E+05 -9.306623E+04 -1.941462E+05
        12   3 -3.757403E+05 -1.738755E+06 -3.521443E+05  6.279293E+05 -9.347221E+04  3.166962E+03
        12   4 -2.798938E+05 -2.103162E+05 -3.059172E+05  6.368258E+05 -3.017277E+04 -2.119305E+05
        12   5 -7.606688E+04 -1.869500E+05 -1.525340E+05  5.827080E+05 -9.292565E+04 -1.334929E+05
        12   6 -1.632363E+04 -2.095222E+05 -8.621158E+04  6.365004E+05 -9.355736E+04 -5.504526E+04
        12   7  3.765420E+05  2.450212E+06  3.209001E+05  4.566292E+05 -2.994738E+04 -3.184736E+04
        12   8  4.213252E+05  1.898508E+06  2.523936E+05  4.969511E+05 -9.280218E+04 -7.263969E+04
        12   9  3.429685E+05  1.322015E+06  1.796519E+05  6.450913E+05 -9.364396E+04 -1.133967E+05
        12  10 -9.367366E+05 -2.864374E+06 -9.333733E+05  8.162337E+05  3.260169E-10  3.256717E-10
        12  11 -5.737079E+05 -2.268258E+06 -5.577361E+05  6.681533E+05 -3.082989E-11  6.192480E-10
        12  12 -3.757497E+05 -1.738758E+06 -3.521607E+05  6.279295E+05  1.629537E-09  6.382004E-10
        12  13 -2.799068E+05 -2.103647E+05 -3.060033E+05  6.368206E+05  5.940912E-10  7.082602E-13
        12  14 -7.608092E+04 -1.869714E+05 -1.525836E+05  5.826980E+05 -2.480506E-10  4.833646E-11
        12  15 -1.633383E+04 -2.095278E+05 -8.623370E+04  6.364963E+05  8.929076E-10  8.734993E-11
        12  16  3.765408E+05  2.450211E+06  3.208966E+05  4.566284E+05 -7.322826E-10 -3.213334E-10
        12  17  4.213146E+05  1.898500E+06  2.523675E+05  4.969457E+05 -1.060930E-09 -5.865757E-10
        12  18  3.429557E+05  1.321999E+06  1.796113E+05  6.450828E+05  7.546326E-10 -7.456082E-10
        12  19 -9.366943E+05 -2.864209E+06 -9.330827E+05  8.162433E+05  3.050329E+04  3.912471E+05
        12  20 -5.736885E+05 -2.268215E+06 -5.576488E+05  6.681679E+05  9.306623E+04  1.941462E+05
        12  21 -3.757403E+05 -1.738755E+06 -3.521443E+05  6.279293E+05  9.347221E+04 -3.166962E+03
        12  22 -2.798938E+05 -2.103162E+05 -3.059172E+05  6.368258E+05  3.017277E+04  2.119305E+05
        12  23 -7.606688E+04 -1.869500E+05 -1.525340E+05  5.827080E+05  9.292565E+04  1.334929E+05
        12  24 -1.632363E+04 -2.095222E+05 -8.621158E+04  6.365004E+05  9.355736E+04  5.504526E+04
        12  25  3.765420E+05  2.450212E+06  3.209001E+05  4.566292E+05  2.994738E+04  3.184736E+04
        12  26  4.213252E+05  1.898508E+06  2.523936E+05  4.969511E+05  9.280218E+04  7.263969E+04
        12  27  3.429685E+05  1.322015E+06  1.796519E+05  6.450913E+05  9.364396E+04  1.133967E+05
        13   1 -2.885510E+05 -1.368592E+06 -2.677422E+05  6.443055E+05 -7.372882E+04  1.165849E+04
        13   2 -1.435154E+05 -8.025933E+05 -1.412385E+05  5.825948E+05 -4.344165E+04  3.913286E+04
        13   3 -1.181075E+04 -2.433821E+05 -3.605570E+04  6.328902E+05 -1.032711E+04  6.661556E+04
        13   4 -1.472475E+04 -2.004999E+05 -6.762507E+04  6.374251E+05 -7.382399E+04 -4.363841E+04
        13   5 -2.993159E+03 -1.973137E+05 -4.422730E+04  5.814121E+05 -4.355903E+04 -2.157483E+04
        13   6 -3.625681E+03 -2.002708E+05 -3.836556E+04  6.374037E+05 -1.046804E+04  4.736183E+02
        13   7  2.590305E+05  9.689425E+05  1.324579E+05  6.305301E+05 -7.391781E+04 -9.903619E+04
        13   8  1.375126E+05  4.083381E+05  5.278812E+04  5.802278E+05 -4.367611E+04 -8.233964E+04
        13   9  4.561830E+03 -1.571477E+05 -4.065865E+04  6.419176E+05 -1.060992E+04 -6.567236E+04
        13  10 -2.885569E+05 -1.368594E+06 -2.677527E+05  6.443062E+05  1.262549E-09 -1.586001E-09
        13  11 -1.435178E+05 -8.025954E+05 -1.412450E+05  5.825962E+05  3.371457E-10  1.844055E-10
        13  12 -1.181206E+04 -2.433869E+05 -3.606425E+04  6.328908E+05  1.314050E-10  1.765806E-09
        13  13 -1.473111E+04 -2.005034E+05 -6.763888E+04  6.374225E+05 -1.809415E-10  6.851398E-11
        13  14 -2.995320E+03 -1.973148E+05 -4.423174E+04  5.814113E+05 -9.491319E-10  1.931829E-10
        13  15 -3.625799E+03 -2.002708E+05 -3.836577E+04  6.374037E+05  1.327400E-09  1.707204E-10
        13  16  2.590220E+05  9.689306E+05  1.324293E+05  6.305242E+05  1.275943E-09  1.460026E-09
        13  17  1.375088E+05  4.083303E+05  5.277182E+04  5.802249E+05 -3.059486E-10 -1.297967E-10
        13  18  4.560552E+03 -1.571524E+05 -4.066697E+04  6.419171E+05  1.460329E-09 -1.900522E-09
        13  19 -2.885510E+05 -1.368592E+06 -2.677422E+05  6.443055E+05  7.372882E+04 -1.165849E+04
        13  20 -1.435154E+05 -8.025933E+05 -1.412385E+05  5.825948E+05  4.344165E+04 -3.913286E+04
        13  21 -1.181075E+04 -2.433821E+05 -3.605570E+04  6.328902E+05  1.032711E+04 -6.661556E+04
        13  22 -1.472475E+04 -2.004999E+05 -6.762507E+04  6.374251E+05  7.382399E+04  4.363841E+04
        13  23 -2.993159E+03 -1.973137E+05 -4.422730E+04  5.814121E+05  4.355903E+04  2.157483E+04
        13  24 -3.625681E+03 -2.002708E+05 -3.836556E+04  6.374037E+05  1.046804E+04 -4.736183E+02
        13  25  2.590305E+05  9.689425E+05  1.324579E+05  6.305301E+05  7.391781E+04  9.903619E+04
        13  26  1.375126E+05  4.083381E+05  5.278812E+04  5.802278E+05  4.367611E+04  8.233964E+04
        13  27  4.561830E+03 -1.571477E+05 -4.065865E+04  6.419176E+05  1.060992E+04  6.567236E+04
        14   1  7.231314E+04  1.148019E+05  2.504175E+04  6.389854E+05  1.156508E+04  7.417779E+04
        14   2  1.879210E+05  6.800041E+05  1.270270E+05  5.538740E+05  2.913574E+04  3.511699E+04
        14   3  2.679256E+05  1.241580E+06  2.454654E+05  5.787308E+05  1.164756E+04 -3.956724E+03
        14   4 -4.146649E+03 -2.023988E+05 -4.001371E+04  6.369514E+05  1.142162E+04  6.579244E+03
        14   5 -2.330761E+04 -1.947441E+05 -5.524684E+04  5.820143E+05  2.914005E+04  3.485366E+04
        14   6 -8.977938E+04 -2.027304E+05 -1.007940E+05  6.370840E+05  1.177299E+04  6.314862E+04
        14   7 -8.061030E+04 -5.194941E+05 -1.050574E+05  6.349184E+05  1.127855E+04 -6.098539E+04
        14   8 -2.345819E+05 -1.068767E+06 -2.375624E+05  6.101138E+05  2.914435E+04  3.459067E+04
        14   9 -4.476202E+05 -1.645115E+06 -4.471824E+05  6.952994E+05  1.191122E+04  1.300986E+05
        14  10  7.231152E+04  1.147960E+05  2.503117E+04  6.389847E+05 -2.394052E-10 -1.959307E-09
        14  11  1.879197E+05  6.800026E+05  1.270231E+05  5.538732E+05 -9.123358E-10 -1.842729E-10
        14  12  2.679255E+05  1.241580E+06  2.454652E+05  5.787308E+05 -3.158815E-10  1.129657E-09
        14  13 -4.146800E+03 -2.023988E+05 -4.001403E+04  6.369513E+05  3.489500E-10  1.641287E-10
        14  14 -2.330884E+04 -1.947456E+05 -5.525072E+04  5.820135E+05 -8.489554E-10  1.712593E-10
        14  15 -8.978060E+04 -2.027347E+05 -1.008017E+05  6.370834E+05 -2.618519E-10  1.419178E-10
        14  16 -8.061144E+04 -5.194981E+05 -1.050646E+05  6.349189E+05  9.406366E-10  2.014460E-09
        14  17 -2.345831E+05 -1.068768E+06 -2.375662E+05  6.101130E+05 -7.925281E-10  2.796634E-10
        14  18 -4.476249E+05 -1.645133E+06 -4.472145E+05  6.952981E+05  2.826858E-10 -1.169350E-09
        14  19  7.231314E+04  1.148019E+05  2.504175E+04  6.389854E+05 -1.156508E+04 -7.417779E+04
        14  20  1.879210E+05  6.800041E+05  1.270270E+05  5.538740E+05 -2.913574E+04 -3.511699E+04
        14  21  2.679256E+05  1.241580E+06  2.454654E+05  5.787308E+05 -1.164756E+04  3.956724E+03
        14  22 -4.146649E+03 -2.023988E+05 -4.001371E+04  6.369514E+05 -1.142162E+04 -6.579244E+03
        14  23 -2.330761E+04 -1.947441E+05 -5.524684E+04  5.820143E+05 -2.914005E+04 -3.485366E+04
        14  24 -8.977938E+04 -2.027304E+05 -1.007940E+05  6.370840E+05 -1.177299E+04 -6.314862E+04
        14  25 -8.061030E+04 -5.194941E+05 -1.050574E+05  6.349184E+05 -1.127855E+04  6.098539E+04
        14  26 -2.345819E+05 -1.068767E+06 -2.375624E+05  6.101138E+05 -2.914435E+04 -3.459067E+04
        14  27 -4.476202E+05 -1.645115E+06 -4.471824E+05  6.952994E+05 -1.191122E+04 -1.300986E+05
        15   1  1.246233E+06  6.381037E+04  6.963872E+04  4.148667E+04  4.811631E+04  3.209188E+00
        15   2  1.240976E+06  1.742300E+04  3.486050E+04  2.000242E+04  3.021610E+04  9.716649E-01
        15   3  1.246268E+06  3.935106E+03  1.994433E+04 -1.481141E+03  1.231619E+04 -2.932675E-02
        15   4  1.246231E+06  6.380714E+04  6.963826E+04 -2.900192E-09  4.811631E+04  5.324303E-11
        15   5  1.240976E+06  1.742225E+04  3.486040E+04 -9.342011E-10  3.021610E+04  2.863320E-11
        15   6  1.246268E+06  3.935101E+03  1.994433E+04 -8.581290E-10  1.231619E+04 -2.455669E-10
        15   7  1.246233E+06  6.381037E+04  6.963872E+04 -4.148667E+04  4.811631E+04 -3.209188E+00
        15   8  1.240976E+06  1.742300E+04  3.486050E+04 -2.000242E+04  3.021610E+04 -9.716649E-01
        15   9  1.246268E+06  3.935106E+03  1.994433E+04  1.481141E+03  1.231619E+04  2.932675E-02
        15  10  1.246230E+06  6.380975E+04  6.963438E+04  4.148667E+04 -5.045305E-10 -9.744345E-11
        15  11  1.240975E+06  1.742275E+04  3.485879E+04  2.000242E+04  1.301710E-10 -2.843802E-10
        15  12  1.246267E+06  3.935065E+03  1.994405E+04 -1.481141E+03  2.466125E-10 -2.320576E-10
        15  13  1.246228E+06  6.380652E+04  6.963392E+04 -3.116244E-10 -1.146586E-09 -4.493337E-11
        15  14  1.240975E+06  1.742200E+04  3.485868E+04 -8.037902E-10  2.693837E-10 -2.103108E-10
        15  15  1.246267E+06  3.935061E+03  1.994404E+04  7.328029E-10 -3.838795E-10 -3.943134E-10
        15  16  1.246230E+06  6.380975E+04  6.963438E+04 -4.148667E+04  4.995535E-10  8.483535E-12
        15  17  1.240975E+06  1.742275E+04  3.485879E+04 -2.000242E+04 -2.455660E-10 -1.553171E-10
        15  18  1.246267E+06  3.935065E+03  1.994405E+04  1.481141E+03 -7.816135E-10 -5.940945E-10
        15  19  1.246233E+06  6.381037E+04  6.963872E+04  4.148667E+04 -4.811631E+04 -3.209188E+00
        15  20  1.240976E+06  1.742300E+04  3.486050E+04  2.000242E+04 -3.021610E+04 -9.716649E-01
        15  21  1.246268E+06  3.935106E+03  1.994433E+04 -1.481141E+03 -1.231619E+04  2.932675E-02
        15  22  1.246231E+06  6.380714E+04  6.963826E+04 -2.041629E-09 -4.811631E+04 -1.405174E-10
        15  23  1.240976E+06  1.742225E+04  3.486040E+04  4.041447E-10 -3.021610E+04 -4.696536E-10
        15  24  1.246268E+06  3.935101E+03  1.994433E+04 -2.798641E-09 -1.231619E+04 -5.439847E-10
        15  25  1.246233E+06  6.381037E+04  6.963872E+04 -4.148667E+04 -4.811631E+04  3.209188E+00
        15  26  1.240976E+06  1.742300E+04  3.486050E+04 -2.000242E+04 -3.021610E+04  9.716649E-01
        15  27  1.246268E+06  3.935106E+03  1.994433E+04  1.481141E+03 -1.231619E+04 -2.932675E-02
        16   1  1.244210E+06  3.614405E+03  1.581517E+04  1.930241E+03  9.625658E+03  2.986993E-02
        16   2  1.243563E+06  7.279164E+02  1.077776E+04  8.725269E+02  4.251172E+03  5.963208E-03
        16   3  1.244213E+06  2.399896E+02  9.833933E+03 -1.852036E+02 -1.123381E+03  3.344790E-04
        16   4  1.244210E+06  3.614398E+03  1.581517E+04 -8.035190E-10  9.625658E+03 -1.653840E-10
        16   5  1.243563E+06  7.279150E+02  1.077776E+04  2.553678E-11  4.251172E+03  1.698330E-10
        16   6  1.244213E+06  2.399896E+02  9.833933E+03  9.009117E-10 -1.123381E+03 -1.306835E-11
        16   7  1.244210E+06  3.614405E+03  1.581517E+04 -1.930241E+03  9.625658E+03 -2.986993E-02
        16   8  1.243563E+06  7.279164E+02  1.077776E+04 -8.725269E+02  4.251172E+03 -5.963208E-03
        16   9  1.244213E+06  2.399896E+02  9.833933E+03  1.852036E+02 -1.123381E+03 -3.344789E-04
        16  10  1.244210E+06  3.614381E+03  1.581500E+04  1.930241E+03  4.925782E-10 -1.900757E-10
        16  11  1.243563E+06  7.279116E+02  1.077773E+04  8.725269E+02  3.537373E-10 -6.312816E-11
        16  12  1.244213E+06  2.399893E+02  9.833931E+03 -1.852036E+02 -4.525858E-10  2.298935E-10
        16  13  1.244210E+06  3.614374E+03  1.581499E+04 -7.884314E-12 -7.798399E-10 -3.439716E-10
        16  14  1.243563E+06  7.279102E+02  1.077773E+04 -8.919501E-10  1.256608E-09 -7.164672E-11
        16  15  1.244213E+06  2.399892E+02  9.833931E+03 -6.059304E-10 -2.468759E-10  1.320862E-11
        16  16  1.244210E+06  3.614381E+03  1.581500E+04 -1.930241E+03 -4.673108E-10 -4.706207E-10
        16  17  1.243563E+06  7.279116E+02  1.077773E+04 -8.725269E+02 -6.176622E-10 -6.651770E-11
        16  18  1.244213E+06  2.399893E+02  9.833931E+03  1.852036E+02  1.734185E-10 -2.206596E-10
        16  19  1.244210E+06  3.614405E+03  1.581517E+04  1.930241E+03 -9.625658E+03 -2.986993E-02
        16  20  1.243563E+06  7.279164E+02  1.077776E+04  8.725269E+02 -4.251172E+03 -5.963208E-03
        16  21  1.244213E+06  2.399896E+02  9.833933E+03 -1.852036E+02  1.123381E+03 -3.344786E-04
        16  22  1.244210E+06  3.614398E+03  1.581517E+04 -2.398454E-09 -9.625658E+03 -5.167907E-10
        16  23  1.243563E+06  7.279150E+02  1.077776E+04 -1.838913E-09 -4.251172E+03 -3.267531E-10
        16  24  1.244213E+06  2.399896E+02  9.833933E+03 -1.338296E-09  1.123381E+03  2.294465E-11
        16  25  1.244210E+06  3.614405E+03  1.581517E+04 -1.930241E+03 -9.625658E+03  2.986993E-02
        16  26  1.243563E+06  7.279164E+02  1.077776E+04 -8.725269E+02 -4.251172E+03  5.963208E-03
        16  27  1.244213E+06  2.399896E+02  9.833933E+03  1.852036E+02  1.123381E+03  3.344787E-04
        17   1  1.244343E+06  2.318322E+02  1.053494E+04  5.601496E+02 -2.883625E+03 -2.596777E-03
        17   2  1.243398E+06  1.275949E+03  1.463563E+04 -1.220796E+03 -1.019174E+04  2.000249E-02
        17   3  1.244337E+06  6.056803E+03  2.442156E+04 -3.001736E+03 -1.749990E+04  8.445020E-02
        17   4  1.244343E+06  2.318316E+02  1.053494E+04 -9.640782E-10 -2.883625E+03 -6.982883E-11
        17   5  1.243398E+06  1.275946E+03  1.463563E+04  4.126906E-10 -1.019174E+04 -1.158403E-10
        17   6  1.244337E+06  6.056786E+03  2.442156E+04  1.238078E-09 -1.749990E+04 -7.836993E-10
        17   7  1.244343E+06  2.318322E+02  1.053494E+04 -5.601496E+02 -2.883625E+03  2.596777E-03
        17   8  1.243398E+06  1.275949E+03  1.463563E+04  1.220796E+03 -1.019174E+04 -2.000249E-02
        17   9  1.244337E+06  6.056803E+03  2.442156E+04  3.001736E+03 -1.749990E+04 -8.445020E-02
        17  10  1.244343E+06  2.318299E+02  1.053492E+04  5.601496E+02  9.711850E-11  3.928990E-10
        17  11  1.243398E+06  1.275921E+03  1.463543E+04 -1.220796E+03  4.284007E-10  3.356180E-10
        17  12  1.244337E+06  6.056721E+03  2.442099E+04 -3.001736E+03  1.479141E-09 -5.275441E-11
        17  13  1.244343E+06  2.318293E+02  1.053492E+04 -4.126905E-10  5.387612E-10  7.705998E-13
        17  14  1.243398E+06  1.275918E+03  1.463543E+04  8.672212E-10 -6.668676E-11 -6.395797E-11
        17  15  1.244337E+06  6.056704E+03  2.442099E+04  2.029287E-09  7.191395E-10 -2.078451E-10
        17  16  1.244343E+06  2.318299E+02  1.053492E+04 -5.601496E+02 -2.852206E-10 -3.923578E-10
        17  17  1.243398E+06  1.275921E+03  1.463543E+04  1.220796E+03 -1.236545E-09 -4.506951E-10
        17  18  1.244337E+06  6.056721E+03  2.442099E+04  3.001736E+03 -6.123117E-10 -3.565231E-10
        17  19  1.244343E+06  2.318322E+02  1.053494E+04  5.601496E+02  2.883625E+03  2.596777E-03
        17  20  1.243398E+06  1.275949E+03  1.463563E+04 -1.220796E+03  1.019174E+04 -2.000249E-02
        17  21  1.244337E+06  6.056803E+03  2.442156E+04 -3.001736E+03  1.749990E+04 -8.445020E-02
        17  22  1.244343E+06  2.318316E+02  1.053494E+04 -2.041587E-09  2.883625E+03  6.424020E-11
        17  23  1.243398E+06  1.275946E+03  1.463563E+04 -8.332628E-10  1.019174E+04  1.081207E-11
        17  24  1.244337E+06  6.056786E+03  2.442156E+04  8.548949E-10  1.749990E+04  3.755081E-10
        17  25  1.244343E+06  2.318322E+02  1.053494E+04 -5.601496E+02  2.883625E+03 -2.596777E-03
        17  26  1.243398E+06  1.275949E+03  1.463563E+04  1.220796E+03  1.019174E+04  2.000249E-02
        17  27  1.244337E+06  6.056803E+03  2.442156E+04  3.001736E+03  1.749990E+04  8.445020E-02
        18   1  1.247797E+06  6.571368E+03  3.174867E+04  2.597807E+03 -2.167999E+04 -9.054332E-02
        18   2  1.239048E+06  2.891083E+04  5.717000E+04 -3.303885E+04 -5.104581E+04  2.711332E+00
        18   3  1.247741E+06  1.057705E+05  1.153144E+05 -6.867596E+04 -8.041128E+04  8.878048E+00
        18   4  1.247797E+06  6.571355E+03  3.174867E+04 -2.349521E-09 -2.167999E+04 -6.301033E-10
        18   5  1.239047E+06  2.890879E+04  5.716971E+04  7.653551E-10 -5.104581E+04  2.875488E-10
        18   6  1.247736E+06  1.057616E+05  1.153131E+05 -9.770013E-10 -8.041128E+04  2.595460E-10
        18   7  1.247797E+06  6.571368E+03  3.174867E+04 -2.597807E+03 -2.167999E+04  9.054332E-02
        18   8  1.239048E+06  2.891083E+04  5.717000E+04  3.303885E+04 -5.104581E+04 -2.711332E+00
        18   9  1.247741E+06  1.057705E+05  1.153144E+05  6.867596E+04 -8.041128E+04 -8.878048E+00
        18  10  1.247797E+06  6.571242E+03  3.174779E+04  2.597807E+03  1.135661E-10 -8.684952E-11
        18  11  1.239045E+06  2.891014E+04  5.716511E+04 -3.303885E+04 -7.951349E-11  1.131289E-10
        18  12  1.247734E+06  1.057687E+05  1.153023E+05 -6.867596E+04  6.026691E-10  4.662143E-11
        18  13  1.247797E+06  6.571229E+03  3.174779E+04 -6.237830E-10  1.298272E-09 -2.113834E-10
        18  14  1.239044E+06  2.890809E+04  5.716482E+04 -1.313857E-09  5.874287E-10 -5.692413E-11
        18  15  1.247729E+06  1.057599E+05  1.153010E+05 -2.614002E-10  1.164344E-10 -3.883516E-12
        18  16  1.247797E+06  6.571242E+03  3.174779E+04 -2.597807E+03  2.171054E-10 -2.974753E-10
        18  17  1.239045E+06  2.891014E+04  5.716511E+04  3.303885E+04 -2.322885E-12 -2.102537E-10
        18  18  1.247734E+06  1.057687E+05  1.153023E+05  6.867596E+04  7.757228E-11 -4.763844E-11
        18  19  1.247797E+06  6.571368E+03  3.174867E+04  2.597807E+03  2.167999E+04  9.054332E-02
        18  20  1.239048E+06  2.891083E+04  5.717000E+04 -3.303885E+04  5.104581E+04 -2.711332E+00
        18  21  1.247741E+06  1.057705E+05  1.153144E+05 -6.867596E+04  8.041128E+04 -8.878048E+00
        18  22  1.247797E+06  6.571355E+03  3.174867E+04 -2.122129E-09  2.167999E+04  2.028232E-10
        18  23  1.239047E+06  2.890879E+04  5.716971E+04 -3.388886E-09  5.104581E+04 -4.124029E-10
        18  24  1.247736E+06  1.057616E+05  1.153131E+05 -3.132084E-09  8.041128E+04 -2.643208E-10
        18  25  1.247797E+06  6.571368E+03  3.174867E+04 -2.597807E+03  2.167999E+04 -9.054332E-02
        18  26  1.239048E+06  2.891083E+04  5.717000E+04  3.303885E+04  5.104581E+04  2.711332E+00
        18  27  1.247741E+06  1.057705E+05  1.153144E+05  6.867596E+04  8.041128E+04  8.878048E+00
        19   1 -6.596703E+05 -1.990030E+06 -6.583994E+05  5.616120E+05 -2.100308E+04 -2.816473E+05
        19   2 -4.007188E+05 -1.588054E+06 -3.936349E+05  4.552729E+05 -6.460605E+04 -1.415310E+05
        19   3 -2.636066E+05 -1.234604E+06 -2.507185E+05  4.212395E+05 -6.558142E+04 -1.312139E+03
        19   4 -2.085193E+05 -1.662202E+05 -2.278172E+05  4.272823E+05 -2.084088E+04 -1.572427E+05
        19   5 -5.679544E+04 -1.488520E+05 -1.140363E+05  3.910278E+05 -6.453697E+04 -9.864346E+04
        19   6 -1.257347E+04 -1.658486E+05 -6.526718E+04  4.271170E+05 -6.561914E+04 -4.003905E+04
        19   7  2.424703E+05  1.660728E+06  2.026033E+05  2.925532E+05 -2.073301E+04 -3.247332E+04
        19   8  2.870208E+05  1.292356E+06  1.654736E+05  3.266290E+05 -6.447691E+04 -5.565834E+04
        19   9  2.383989E+05  9.040316E+05  1.201500E+05  4.330043E+05 -6.565755E+04 -7.883065E+04
        19  10 -6.596921E+05 -1.990115E+06 -6.585498E+05  5.616072E+05  7.040120E-10 -3.219971E-10
        19  11 -4.007287E+05 -1.588077E+06 -3.936804E+05  4.552656E+05  1.424118E-09  7.822343E-10
        19  12 -2.636112E+05 -1.234605E+06 -2.507266E+05  4.212394E+05  2.344690E-09  1.387757E-09
        19  13 -2.085264E+05 -1.662468E+05 -2.278645E+05  4.272796E+05 -6.001696E-10  8.211398E-12
        19  14 -5.680252E+04 -1.488636E+05 -1.140624E+05  3.910226E+05 -8.366316E-10 -8.989408E-13
        19  15 -1.257852E+04 -1.658515E+05 -6.527827E+04  4.271149E+05 -8.141365E-10  9.862417E-11
        19  16  2.424696E+05  1.660726E+06  2.026005E+05  2.925526E+05  2.240099E-10  2.551025E-10
        19  17  2.870155E+05  1.292351E+06  1.654600E+05  3.266261E+05 -5.953413E-10 -7.528881E-10
        19  18  2.383926E+05  9.040238E+05  1.201302E+05  4.330001E+05 -9.418374E-11 -1.566859E-09
        19  19 -6.596703E+05 -1.990030E+06 -6.583994E+05  5.616120E+05  2.100308E+04  2.816473E+05
        19  20 -4.007188E+05 -1.588054E+06 -3.936349E+05  4.552729E+05  6.460605E+04  1.415310E+05
        19  21 -2.636066E+05 -1.234604E+06 -2.507185E+05  4.212395E+05  6.558142E+04  1.312139E+03
        19  22 -2.085193E+05 -1.662202E+05 -2.278172E+05  4.272823E+05  2.084088E+04  1.572427E+05
        19  23 -5.679544E+04 -1.488520E+05 -1.140363E+05  3.910278E+05  6.453697E+04  9.864346E+04
        19  24 -1.257347E+04 -1.658486E+05 -6.526718E+04  4.271170E+05  6.561914E+04  4.003905E+04
        19  25  2.424703E+05  1.660728E+06  2.026033E+05  2.925532E+05  2.073301E+04  3.247332E+04
        19  26  2.870208E+05  1.292356E+06  1.654736E+05  3.266290E+05  6.447691E+04  5.565834E+04
        19  27  2.383989E+05  9.040316E+05  1.201500E+05  4.330043E+05  6.565755E+04  7.883065E+04
        20   1 -2.050379E+05 -9.854992E+05 -1.930044E+05  4.333815E+05 -5.241627E+04  5.415988E+03
        20   2 -1.070950E+05 -6.052108E+05 -1.074656E+05  3.909934E+05 -3.220351E+04  2.719469E+04
        20   3 -1.990223E+04 -2.303932E+05 -3.884111E+04  4.237599E+05 -9.895464E+03  4.897830E+04
        20   4 -1.144994E+04 -1.592183E+05 -5.181718E+04  4.277489E+05 -5.245866E+04 -3.130887E+04
        20   5 -2.982180E+03 -1.567082E+05 -3.558905E+04  3.901671E+05 -3.225703E+04 -1.354098E+04
        20   6 -4.554628E+03 -1.591044E+05 -3.347548E+04  4.277394E+05 -9.960758E+03  4.219334E+03
        20   7  1.821025E+05  6.677376E+05  8.935250E+04  4.221082E+05 -5.250034E+04 -6.808109E+04
        20   8  1.011214E+05  2.919980E+05  3.628841E+04  3.893401E+05 -3.231042E+04 -5.430505E+04
        20   9  1.079398E+04 -8.780583E+04 -2.810212E+04  4.317195E+05 -1.002662E+04 -4.054441E+04
        20  10 -2.050409E+05 -9.855000E+05 -1.930096E+05  4.333817E+05  1.291441E-09 -1.547750E-09
        20  11 -1.070963E+05 -6.052119E+05 -1.074689E+05  3.909941E+05 -8.196841E-10  1.007707E-09
        20  12 -1.990298E+04 -2.303958E+05 -3.884580E+04  4.237603E+05  1.463386E-09  2.432703E-09
        20  13 -1.145316E+04 -1.592201E+05 -5.182419E+04  4.277476E+05  1.480223E-10  5.401306E-12
        20  14 -2.983346E+03 -1.567087E+05 -3.559135E+04  3.901668E+05  1.554225E-09 -1.827593E-11
        20  15 -4.554740E+03 -1.591045E+05 -3.347570E+04  4.277395E+05  5.093319E-10  1.146346E-10
        20  16  1.820983E+05  6.677319E+05  8.933863E+04  4.221053E+05 -4.572756E-11  1.474606E-09
        20  17  1.011195E+05  2.919945E+05  3.628092E+04  3.893387E+05  4.237253E-10 -9.190939E-10
        20  18  1.079343E+04 -8.780762E+04 -2.810540E+04  4.317192E+05 -9.764957E-11 -2.814573E-09
        20  19 -2.050379E+05 -9.854992E+05 -1.930044E+05  4.333815E+05  5.241627E+04 -5.415988E+03
        20  20 -1.070950E+05 -6.052108E+05 -1.074656E+05  3.909934E+05  3.220351E+04 -2.719469E+04
        20  21 -1.990223E+04 -2.303932E+05 -3.884111E+04  4.237599E+05  9.895464E+03 -4.897830E+04
        20  22 -1.144994E+04 -1.592183E+05 -5.181718E+04  4.277489E+05  5.245866E+04  3.130887E+04
        20  23 -2.982180E+03 -1.567082E+05 -3.558905E+04  3.901671E+05  3.225703E+04  1.354098E+04
        20  24 -4.554628E+03 -1.591044E+05 -3.347548E+04  4.277394E+05  9.960758E+03 -4.219334E+03
        20  25  1.821025E+05  6.677376E+05  8.935250E+04  4.221082E+05  5.250034E+04  6.808109E+04
        20  26  1.011214E+05  2.919980E+05  3.628841E+04  3.893401E+05  3.231042E+04  5.430505E+04
        20  27  1.079398E+04 -8.780583E+04 -2.810212E+04  4.317195E+05  1.002662E+04  4.054441E+04
        21   1  3.638371E+04  8.996946E+03  3.264188E+02  4.293698E+05  4.868259E+03  5.530773E+04
        21   2  1.078699E+05  3.907767E+05  6.147389E+04  3.623480E+05  1.733201E+04  3.911029E+04
        21   3  1.401080E+05  7.649324E+05  1.233228E+05  3.691915E+05  7.209113E+03  2.291398E+04
        21   4 -5.033062E+03 -1.614196E+05 -3.630335E+04  4.274516E+05  4.801333E+03  9.625867E+03
        21   5 -2.385717E+04 -1.538364E+05 -5.304997E+04  3.905535E+05  1.733186E+04  3.679419E+04
        21   6 -8.947613E+04 -1.615613E+05 -9.922105E+04  4.275430E+05  7.265003E+03  6.397220E+04
        21   7 -4.645061E+04 -3.318043E+05 -7.292697E+04  4.255340E+05  4.734677E+03 -3.604363E+04
        21   8 -1.556003E+05 -6.981677E+05 -1.675900E+05  4.187337E+05  1.733150E+04  3.448009E+04
        21   9 -3.191088E+05 -1.087258E+06 -3.218176E+05  4.858067E+05  7.328666E+03  1.049694E+05
        21  10  3.638286E+04  8.993655E+03  3.206267E+02  4.293696E+05  9.041134E-10 -1.686651E-09
        21  11  1.078692E+05  3.907750E+05  6.147045E+04  3.623475E+05  7.258339E-10 -2.774011E-10
        21  12  1.401078E+05  7.649318E+05  1.233217E+05  3.691914E+05  6.468063E-10 -1.209781E-10
        21  13 -5.033112E+03 -1.614197E+05 -3.630356E+04  4.274516E+05  1.312787E-10 -6.008370E-11
        21  14 -2.385785E+04 -1.538380E+05 -5.305308E+04  3.905530E+05 -1.753487E-09 -3.456132E-11
        21  15 -8.947729E+04 -1.615657E+05 -9.922884E+04  4.275426E+05  3.061665E-10  1.276297E-10
        21  16 -4.645098E+04 -3.318057E+05 -7.292945E+04  4.255342E+05 -1.025167E-10  1.471481E-09
        21  17 -1.556009E+05 -6.981691E+05 -1.675928E+05  4.187333E+05  5.740674E-10  3.272142E-10
        21  18 -3.191119E+05 -1.087270E+06 -3.218385E+05  4.858061E+05  2.655397E-10 -1.807200E-10
        21  19  3.638371E+04  8.996946E+03  3.264188E+02  4.293698E+05 -4.868259E+03 -5.530773E+04
        21  20  1.078699E+05  3.907767E+05  6.147389E+04  3.623480E+05 -1.733201E+04 -3.911029E+04
        21  21  1.401080E+05  7.649324E+05  1.233228E+05  3.691915E+05 -7.209113E+03 -2.291398E+04
        21  22 -5.033062E+03 -1.614196E+05 -3.630335E+04  4.274516E+05 -4.801333E+03 -9.625867E+03
        21  23 -2.385717E+04 -1.538364E+05 -5.304997E+04  3.905535E+05 -1.733186E+04 -3.679419E+04
        21  24 -8.947613E+04 -1.615613E+05 -9.922105E+04  4.275430E+05 -7.265003E+03 -6.397220E+04
        21  25 -4.645061E+04 -3.318043E+05 -7.292697E+04  4.255340E+05 -4.734677E+03  3.604363E+04
        21  26 -1.556003E+05 -6.981677E+05 -1.675900E+05  4.187337E+05 -1.733150E+04 -3.448009E+04
        21  27 -3.191088E+05 -1.087258E+06 -3.218176E+05  4.858067E+05 -7.328666E+03 -1.049694E+05
        22   1  9.505240E+05  4.843687E+04  5.285997E+04  3.148243E+04  3.652158E+04  1.849307E+00
        22   2  9.465299E+05  1.322307E+04  2.645381E+04  1.517773E+04  2.293915E+04  5.599846E-01
        22   3  9.505441E+05  2.985985E+03  1.512530E+04 -1.127007E+03  9.356522E+03 -1.696016E-02
        22   4  9.505229E+05  4.843501E+04  5.285970E+04  5.817851E-10  3.652158E+04  1.049521E-10
        22   5  9.465296E+05  1.322264E+04  2.645375E+04  1.917508E-09  2.293915E+04  1.874259E-10
        22   6  9.505441E+05  2.985982E+03  1.512530E+04 -2.194736E-09  9.356522E+03 -2.005116E-10
        22   7  9.505240E+05  4.843687E+04  5.285997E+04 -3.148243E+04  3.652158E+04 -1.849307E+00
        22   8  9.465299E+05  1.322307E+04  2.645381E+04 -1.517773E+04  2.293915E+04 -5.599846E-01
        22   9  9.505441E+05  2.985985E+03  1.512530E+04  1.127007E+03  9.356522E+03  1.696016E-02
        22  10  9.505225E+05  4.843651E+04  5.285747E+04  3.148243E+04 -6.457410E-10  1.117413E-11
        22  11  9.465293E+05  1.322293E+04  2.645283E+04  1.517773E+04  4.383364E-10  1.369686E-11
        22  12  9.505440E+05  2.985961E+03  1.512514E+04 -1.127007E+03  6.439711E-10 -1.235265E-10
        22  13  9.505215E+05  4.843465E+04  5.285720E+04  2.892368E-09  1.094252E-09  6.560953E-11
        22  14  9.465291E+05  1.322250E+04  2.645276E+04  3.161632E-10 -6.574014E-12  1.656916E-10
        22  15  9.505440E+05  2.985959E+03  1.512514E+04  4.208075E-10  6.599900E-10  1.040058E-10
        22  16  9.505225E+05  4.843651E+04  5.285747E+04 -3.148243E+04 -2.561078E-10  1.088473E-10
        22  17  9.465293E+05  1.322293E+04  2.645283E+04 -1.517773E+04  6.041663E-10  2.915101E-10
        22  18  9.505440E+05  2.985961E+03  1.512514E+04  1.127007E+03 -5.886562E-10  3.164591E-10
        22  19  9.505240E+05  4.843687E+04  5.285997E+04  3.148243E+04 -3.652158E+04 -1.849307E+00
        22  20  9.465299E+05  1.322307E+04  2.645381E+04  1.517773E+04 -2.293915E+04 -5.599846E-01
        22  21  9.505441E+05  2.985985E+03  1.512530E+04 -1.127007E+03 -9.356522E+03  1.696016E-02
        22  22  9.505229E+05  4.843501E+04  5.285970E+04  1.436244E-09 -3.652158E+04  3.157776E-11
        22  23  9.465296E+05  1.322264E+04  2.645375E+04  1.940657E-09 -2.293915E+04  1.527480E-10
        22  24  9.505441E+05  2.985982E+03  1.512530E+04 -1.376279E-09 -9.356522E+03  4.067043E-10
        22  25  9.505240E+05  4.843687E+04  5.285997E+04 -3.148243E+04 -3.652158E+04  1.849307E+00
        22  26  9.465299E+05  1.322307E+04  2.645381E+04 -1.517773E+04 -2.293915E+04  5.599846E-01
        22  27  9.505441E+05  2.985985E+03  1.512530E+04  1.127007E+03 -9.356522E+03 -1.696015E-02
        23   1  9.489818E+05  2.743572E+03  1.198692E+04  1.462635E+03  7.317856E+03  1.721510E-02
        23   2  9.484913E+05  5.528483E+02  8.150443E+03  6.599114E+02  3.253803E+03  3.453558E-03
        23   3  9.489836E+05  1.805150E+02  7.411486E+03 -1.428129E+02 -8.102430E+02  1.861114E-04
        23   4  9.489818E+05  2.743568E+03  1.198692E+04 -2.135615E-09  7.317856E+03 -1.468025E-10
        23   5  9.484913E+05  5.528474E+02  8.150443E+03  8.500360E-10  3.253803E+03  2.847165E-10
        23   6  9.489836E+05  1.805150E+02  7.411486E+03 -1.067243E-09 -8.102430E+02  6.085331E-11
        23   7  9.489818E+05  2.743572E+03  1.198692E+04 -1.462635E+03  7.317856E+03 -1.721510E-02
        23   8  9.484913E+05  5.528483E+02  8.150443E+03 -6.599114E+02  3.253803E+03 -3.453558E-03
        23   9  9.489836E+05  1.805150E+02  7.411486E+03  1.428129E+02 -8.102430E+02 -1.861113E-04
        23  10  9.489818E+05  2.743557E+03  1.198682E+04  1.462635E+03 -5.623246E-10  4.796299E-11
        23  11  9.484913E+05  5.528454E+02  8.150423E+03  6.599114E+02 -5.263577E-10  5.018872E-10
        23  12  9.489836E+05  1.805148E+02  7.411485E+03 -1.428129E+02 -3.824773E-10  5.944364E-10
        23  13  9.489818E+05  2.743553E+03  1.198682E+04  7.704536E-10  3.508148E-10  1.448854E-10
        23  14  9.484913E+05  5.528446E+02  8.150423E+03  1.477139E-09  7.013172E-10  3.401355E-10
        23  15  9.489836E+05  1.805148E+02  7.411485E+03  1.918689E-09  6.146273E-10  3.628330E-10
        23  16  9.489818E+05  2.743557E+03  1.198682E+04 -1.462635E+03  1.033659E-09  2.412782E-10
        23  17  9.484913E+05  5.528454E+02  8.150423E+03 -6.599114E+02  7.229710E-10  1.983591E-10
        23  18  9.489836E+05  1.805148E+02  7.411485E+03  1.428129E+02  1.405566E-09  1.290831E-10
        23  19  9.489818E+05  2.743572E+03  1.198692E+04  1.462635E+03 -7.317856E+03 -1.721510E-02
        23  20  9.484913E+05  5.528483E+02  8.150443E+03  6.599114E+02 -3.253803E+03 -3.453557E-03
        23  21  9.489836E+05  1.805150E+02  7.411486E+03 -1.428129E+02  8.102430E+02 -1.861102E-04
        23  22  9.489818E+05  2.743568E+03  1.198692E+04  4.443712E-10 -7.317856E+03  4.363584E-10
        23  23  9.484913E+05  5.528474E+02  8.150443E+03  2.647143E-09 -3.253803E+03  4.014063E-10
        23  24  9.489836E+05  1.805150E+02  7.411486E+03  2.078597E-09  8.102430E+02  6.654680E-10
        23  25  9.489818E+05  2.743572E+03  1.198692E+04 -1.462635E+03 -7.317856E+03  1.721510E-02
        23  26  9.484913E+05  5.528483E+02  8.150443E+03 -6.599114E+02 -3.253803E+03  3.453558E-03
        23  27  9.489836E+05  1.805150E+02  7.411486E+03  1.428129E+02  8.102430E+02  1.861115E-04
        24   1  9.490794E+05  1.744874E+02  7.926982E+03  4.185312E+02 -2.135417E+03 -1.437474E-03
        24   2  9.483707E+05  9.557488E+02  1.098750E+04 -9.159005E+02 -7.621299E+03  1.122709E-02
        24   3  9.490757E+05  4.539605E+03  1.831629E+04 -2.250310E+03 -1.310713E+04  4.743945E-02
        24   4  9.490794E+05  1.744871E+02  7.926982E+03 -2.384628E-09 -2.135417E+03 -2.265405E-11
        24   5  9.483707E+05  9.557472E+02  1.098750E+04 -9.072316E-11 -7.621299E+03  8.217947E-12
        24   6  9.490757E+05  4.539595E+03  1.831629E+04 -9.721495E-10 -1.310713E+04 -4.364272E-10
        24   7  9.490794E+05  1.744874E+02  7.926982E+03 -4.185312E+02 -2.135417E+03  1.437474E-03
        24   8  9.483707E+05  9.557488E+02  1.098750E+04  9.159005E+02 -7.621299E+03 -1.122709E-02
        24   9  9.490757E+05  4.539605E+03  1.831629E+04  2.250310E+03 -1.310713E+04 -4.743945E-02
        24  10  9.490794E+05  1.744862E+02  7.926973E+03  4.185312E+02 -2.234810E-10  4.051589E-10
        24  11  9.483706E+05  9.557332E+02  1.098739E+04 -9.159005E+02  1.082142E-09 -1.017326E-11
        24  12  9.490755E+05  4.539559E+03  1.831597E+04 -2.250310E+03  8.931619E-10 -3.999391E-10
        24  13  9.490794E+05  1.744859E+02  7.926973E+03  6.306968E-10  5.639571E-10  2.603652E-10
        24  14  9.483706E+05  9.557316E+02  1.098739E+04  1.245375E-09  1.004937E-09 -7.209055E-11
        24  15  9.490755E+05  4.539549E+03  1.831596E+04 -4.220361E-11  9.809280E-10 -4.691809E-10
        24  16  9.490794E+05  1.744862E+02  7.926973E+03 -4.185312E+02  9.641628E-10  8.765469E-11
        24  17  9.483706E+05  9.557332E+02  1.098739E+04  9.159005E+02  9.677040E-10 -1.083034E-10
        24  18  9.490755E+05  4.539559E+03  1.831597E+04  2.250310E+03 -2.573292E-10 -5.796688E-10
        24  19  9.490794E+05  1.744874E+02  7.926982E+03  4.185312E+02  2.135417E+03  1.437475E-03
        24  20  9.483707E+05  9.557488E+02  1.098750E+04 -9.159005E+02  7.621299E+03 -1.122709E-02
        24  21  9.490757E+05  4.539605E+03  1.831629E+04 -2.250310E+03  1.310713E+04 -4.743945E-02
        24  22  9.490794E+05  1.744871E+02  7.926982E+03  9.357266E-10  2.135417E+03  5.386901E-10
        24  23  9.483707E+05  9.557472E+02  1.098750E+04  1.495672E-09  7.621299E+03 -1.326638E-10
        24  24  9.490757E+05  4.539595E+03  1.831629E+04 -5.263218E-10  1.310713E+04 -5.112610E-10
        24  25  9.490794E+05  1.744874E+02  7.926982E+03 -4.185312E+02  2.135417E+03 -1.437474E-03
        24  26  9.483707E+05  9.557488E+02  1.098750E+04  9.159005E+02  7.621299E+03  1.122709E-02
        24  27  9.490757E+05  4.539605E+03  1.831629E+04  2.250310E+03  1.310713E+04  4.743945E-02
        25   1  9.516697E+05  4.924235E+03  2.380670E+04  1.948622E+03 -1.624139E+04 -5.090249E-02
        25   2  9.451139E+05  2.167165E+04  4.286196E+04 -2.476357E+04 -3.825584E+04  1.523719E+00
        25   3  9.516376E+05  7.929908E+04  8.645481E+04 -5.147672E+04 -6.027066E+04  4.990098E+00
        25   4  9.516697E+05  4.924228E+03  2.380670E+04 -4.736309E-10 -1.624139E+04 -5.934997E-10
        25   5  9.451133E+05  2.167050E+04  4.286180E+04  2.817882E-10 -3.825584E+04 -3.944536E-10
        25   6  9.516347E+05  7.929411E+04  8.645410E+04 -2.693754E-09 -6.027066E+04 -6.774868E-11
        25   7  9.516697E+05  4.924235E+03  2.380670E+04 -1.948622E+03 -1.624139E+04  5.090249E-02
        25   8  9.451139E+05  2.167165E+04  4.286196E+04  2.476357E+04 -3.825584E+04 -1.523719E+00
        25   9  9.516376E+05  7.929908E+04  8.645481E+04  5.147672E+04 -6.027066E+04 -4.990098E+00
        25  10  9.516694E+05  4.924165E+03  2.380620E+04  1.948622E+03  6.241180E-10 -5.226013E-10
        25  11  9.451124E+05  2.167126E+04  4.285921E+04 -2.476357E+04 -1.253028E-09 -4.392197E-10
        25  12  9.516337E+05  7.929811E+04  8.644799E+04 -5.147672E+04 -9.647925E-10 -1.456321E-10
        25  13  9.516694E+05  4.924158E+03  2.380620E+04  7.616215E-10  1.372137E-09 -5.534915E-10
        25  14  9.451117E+05  2.167010E+04  4.285905E+04  7.363663E-10  5.052577E-10 -3.530094E-10
        25  15  9.516308E+05  7.929314E+04  8.644728E+04  4.417812E-10 -5.052606E-11 -8.210320E-11
        25  16  9.516694E+05  4.924165E+03  2.380620E+04 -1.948622E+03  1.227775E-09 -6.021861E-10
        25  17  9.451124E+05  2.167126E+04  4.285921E+04  2.476357E+04  7.522214E-10 -2.289004E-10
        25  18  9.516337E+05  7.929811E+04  8.644799E+04  5.147672E+04  6.869426E-10 -4.573460E-11
        25  19  9.516697E+05  4.924235E+03  2.380670E+04  1.948622E+03  1.624139E+04  5.090249E-02
        25  20  9.451139E+05  2.167165E+04  4.286196E+04 -2.476357E+04  3.825584E+04 -1.523719E+00
        25  21  9.516376E+05  7.929908E+04  8.645481E+04 -5.147672E+04  6.027066E+04 -4.990098E+00
        25  22  9.516697E+05  4.924228E+03  2.380670E+04 -6.986817E-10  1.624139E+04 -5.169340E-10
        25  23  9.451133E+05  2.167050E+04  4.286180E+04  2.264121E-09  3.825584E+04 -2.987218E-10
        25  24  9.516347E+05  7.929411E+04  8.645410E+04 -9.827892E-10  6.027066E+04 -1.004539E-10
        25  25  9.516697E+05  4.924235E+03  2.380670E+04 -1.948622E+03  1.624139E+04 -5.090249E-02
        25  26  9.451139E+05  2.167165E+04  4.286196E+04  2.476357E+04  3.825584E+04  1.523719E+00
        25  27  9.516376E+05  7.929908E+04  8.645481E+04  5.147672E+04  6.027066E+04  4.990098E+00
        26   1 -4.879154E+05 -1.450562E+06 -4.869141E+05  4.068504E+05 -1.557381E+04 -2.094042E+05
        26   2 -2.977791E+05 -1.161363E+06 -2.924260E+05  3.287081E+05 -4.825551E+04 -1.056134E+05
        26   3 -1.981958E+05 -9.082207E+05 -1.882363E+05  3.024146E+05 -4.953758E+04 -1.767395E+03
        26   4 -1.550871E+05 -1.046308E+05 -1.694269E+05  3.066910E+05 -1.548573E+04 -1.166426E+05
        26   5 -4.228674E+04 -9.172537E+04 -8.503698E+04  2.807112E+05 -4.821728E+04 -7.296123E+04
        26   6 -9.502874E+03 -1.044338E+05 -4.908021E+04  3.066010E+05 -4.955659E+04 -2.927692E+04
        26   7  1.776542E+05  1.243009E+06  1.479730E+05  2.063122E+05 -1.542778E+04 -2.368041E+04
        26   8  2.131466E+05  9.790198E+05  1.223036E+05  2.326292E+05 -4.818416E+04 -4.025389E+04
        26   9  1.791557E+05  6.999892E+05  9.005642E+04  3.107927E+05 -4.957596E+04 -5.682099E+04
        26  10 -4.879274E+05 -1.450609E+06 -4.869971E+05  4.068478E+05  1.246268E-10 -8.362637E-10
        26  11 -2.977846E+05 -1.161375E+06 -2.924514E+05  3.287040E+05 -1.633821E-09 -7.421581E-10
        26  12 -1.981984E+05 -9.082213E+05 -1.882410E+05  3.024145E+05 -4.115253E-10 -5.414019E-10
        26  13 -1.550910E+05 -1.046455E+05 -1.694530E+05  3.066895E+05 -6.656630E-10  1.946860E-12
        26  14 -4.229066E+04 -9.173171E+04 -8.505135E+04  2.807084E+05 -1.198733E-09 -1.460607E-10
        26  15 -9.505740E+03 -1.044354E+05 -4.908643E+04  3.065998E+05 -1.306365E-09 -2.581939E-11
        26  16  1.776538E+05  1.243008E+06  1.479715E+05  2.063119E+05  1.420973E-10  8.304910E-10
        26  17  2.131437E+05  9.790175E+05  1.222962E+05  2.326277E+05 -8.152512E-10  7.324134E-10
        26  18  1.791522E+05  6.999851E+05  9.004574E+04  3.107905E+05 -6.590979E-10  5.043716E-10
        26  19 -4.879154E+05 -1.450562E+06 -4.869141E+05  4.068504E+05  1.557381E+04  2.094042E+05
        26  20 -2.977791E+05 -1.161363E+06 -2.924260E+05  3.287081E+05  4.825551E+04  1.056134E+05
        26  21 -1.981958E+05 -9.082207E+05 -1.882363E+05  3.024146E+05  4.953758E+04  1.767395E+03
        26  22 -1.550871E+05 -1.046308E+05 -1.694269E+05  3.066910E+05  1.548573E+04  1.166426E+05
        26  23 -4.228674E+04 -9.172537E+04 -8.503698E+04  2.807112E+05  4.821728E+04  7.296123E+04
        26  24 -9.502874E+03 -1.044338E+05 -4.908021E+04  3.066010E+05  4.955659E+04  2.927692E+04
        26  25  1.776542E+05  1.243009E+06  1.479730E+05  2.063122E+05  1.542778E+04  2.368041E+04
        26  26  2.131466E+05  9.790198E+05  1.223036E+05  2.326292E+05  4.818416E+04  4.025389E+04
        26  27  1.791557E+05  6.999892E+05  9.005642E+04  3.107927E+05  4.957596E+04  5.682099E+04
        27   1 -1.561326E+05 -7.292063E+05 -1.465745E+05  3.114546E+05 -4.015722E+04  3.364947E+03
        27   2 -8.572164E+04 -4.560333E+05 -8.526032E+04  2.806482E+05 -2.574092E+04  2.046776E+04
        27   3 -2.375495E+04 -1.871723E+05 -3.721714E+04  3.037839E+05 -9.650268E+03  3.757320E+04
        27   4 -8.689353E+03 -9.954573E+04 -3.927899E+04  3.070655E+05 -4.017874E+04 -2.266697E+04
        27   5 -2.526160E+03 -9.760166E+04 -2.782398E+04  2.800922E+05 -2.576889E+04 -8.770976E+03
        27   6 -4.243036E+03 -9.948057E+04 -2.740478E+04  3.070608E+05 -9.685060E+03  5.120624E+03
        27   7  1.387333E+05  5.305067E+05  6.800607E+04  3.026715E+05 -4.019987E+04 -4.872446E+04
        27   8  8.066333E+04  2.609596E+05  2.961218E+04  2.795358E+05 -2.579679E+04 -3.802599E+04
        27   9  1.526920E+04 -1.177850E+04 -1.758840E+04  3.103381E+05 -9.720192E+03 -2.733629E+04
        27  10 -1.561344E+05 -7.292068E+05 -1.465776E+05  3.114547E+05 -4.178951E-10 -3.794614E-10
        27  11 -8.572247E+04 -4.560339E+05 -8.526235E+04  2.806486E+05 -7.292173E-10  1.345336E-10
        27  12 -2.375543E+04 -1.871739E+05 -3.721997E+04  3.037842E+05  3.996124E-10  5.038490E-10
        27  13 -8.691224E+03 -9.954672E+04 -3.928299E+04  3.070647E+05 -1.018429E-09 -5.332712E-12
        27  14 -2.526893E+03 -9.760192E+04 -2.782537E+04  2.800920E+05  1.830260E-10 -3.322959E-10
        27  15 -4.243143E+03 -9.948062E+04 -2.740501E+04  3.070608E+05 -2.909045E-10 -6.484758E-11
        27  16  1.387309E+05  5.305037E+05  6.799858E+04  3.026700E+05 -1.557815E-10  2.385811E-10
        27  17  8.066223E+04  2.609578E+05  2.960821E+04  2.795350E+05 -8.466423E-10 -2.296529E-10
        27  18  1.526890E+04 -1.177933E+04 -1.758998E+04  3.103379E+05  2.464070E-10 -4.764286E-10
        27  19 -1.561326E+05 -7.292063E+05 -1.465745E+05  3.114546E+05  4.015722E+04 -3.364947E+03
        27  20 -8.572164E+04 -4.560333E+05 -8.526032E+04  2.806482E+05  2.574092E+04 -2.046776E+04
        27  21 -2.375495E+04 -1.871723E+05 -3.721714E+04  3.037839E+05  9.650268E+03 -3.757320E+04
        27  22 -8.689353E+03 -9.954573E+04 -3.927899E+04  3.070655E+05  4.017874E+04  2.266697E+04
        27  23 -2.526160E+03 -9.760166E+04 -2.782398E+04  2.800922E+05  2.576889E+04  8.770976E+03
        27  24 -4.243036E+03 -9.948057E+04 -2.740478E+04  3.070608E+05  9.685060E+03 -5.120624E+03
        27  25  1.387333E+05  5.305067E+05  6.800607E+04  3.026715E+05  4.019987E+04  4.872446E+04
        27  26  8.066333E+04  2.609596E+05  2.961218E+04  2.795358E+05  2.579679E+04  3.802599E+04
        27  27  1.526920E+04 -1.177850E+04 -1.758840E+04  3.103381E+05  9.720192E+03  2.733629E+04
        28   1  1.655434E+04 -1.582770E+04 -1.009075E+04  3.085247E+05  1.010126E+03  4.264763E+04
        28   2  6.492221E+04  2.594558E+05  2.993394E+04  2.557136E+05  1.052043E+04  3.642104E+04
        28   3  7.773015E+04  5.266952E+05  6.510607E+04  2.559843E+05  4.630831E+03  3.019772E+04
        28   4 -4.647342E+03 -1.015769E+05 -3.032810E+04  3.068682E+05  9.742253E+02  9.578572E+03
        28   5 -2.100103E+04 -9.498076E+04 -4.555437E+04  2.803505E+05  1.051882E+04  3.291616E+04
        28   6 -7.805925E+04 -1.016436E+05 -8.617124E+04  3.069277E+05  4.658919E+03  5.625891E+04
        28   7 -2.584895E+04 -1.873170E+05 -5.056184E+04  3.052119E+05  9.384973E+02 -2.348595E+04
        28   8 -1.069301E+05 -4.492977E+05 -1.210495E+05  3.049730E+05  1.051693E+04  2.941325E+04
        28   9 -2.338672E+05 -7.296144E+05 -2.374727E+05  3.578192E+05  4.691303E+03  8.229382E+04
        28  10  1.655385E+04 -1.582965E+04 -1.009417E+04  3.085247E+05  1.266308E-10 -2.358724E-09
        28  11  6.492174E+04  2.594543E+05  2.993124E+04  2.557133E+05  6.084460E-10  7.227028E-11
        28  12  7.772989E+04  5.266943E+05  6.510432E+04  2.559842E+05  1.303595E-11  2.226685E-09
        28  13 -4.647368E+03 -1.015770E+05 -3.032827E+04  3.068682E+05  8.267483E-10 -1.517559E-11
        28  14 -2.100144E+04 -9.498195E+04 -4.555661E+04  2.803502E+05 -7.853184E-10 -2.821448E-10
        28  15 -7.806012E+04 -1.016470E+05 -8.617723E+04  3.069275E+05 -6.639534E-10 -2.606376E-11
        28  16 -2.584910E+04 -1.873176E+05 -5.056288E+04  3.052119E+05 -1.029182E-09  2.236894E-09
        28  17 -1.069305E+05 -4.492986E+05 -1.210514E+05  3.049728E+05 -3.515600E-10 -1.121007E-10
        28  18 -2.338691E+05 -7.296216E+05 -2.374855E+05  3.578189E+05 -6.243260E-10 -2.175458E-09
        28  19  1.655434E+04 -1.582770E+04 -1.009075E+04  3.085247E+05 -1.010126E+03 -4.264763E+04
        28  20  6.492221E+04  2.594558E+05  2.993394E+04  2.557136E+05 -1.052043E+04 -3.642104E+04
        28  21  7.773015E+04  5.266952E+05  6.510607E+04  2.559843E+05 -4.630831E+03 -3.019772E+04
        28  22 -4.647342E+03 -1.015769E+05 -3.032810E+04  3.068682E+05 -9.742253E+02 -9.578572E+03
        28  23 -2.100103E+04 -9.498076E+04 -4.555437E+04  2.803505E+05 -1.051882E+04 -3.291616E+04
        28  24 -7.805925E+04 -1.016436E+05 -8.617124E+04  3.069277E+05 -4.658919E+03 -5.625891E+04
        28  25 -2.584895E+04 -1.873170E+05 -5.056184E+04  3.052119E+05 -9.384973E+02  2.348595E+04
        28  26 -1.069301E+05 -4.492977E+05 -1.210495E+05  3.049730E+05 -1.051693E+04 -2.941325E+04
        28  27 -2.338672E+05 -7.296144E+05 -2.374727E+05  3.578192E+05 -4.691303E+03 -8.229382E+04
        29   1  7.201979E+05  3.464223E+04  3.780919E+04  2.251462E+04  2.609617E+04  9.453352E-01
        29   2  7.173385E+05  9.454930E+03  1.893711E+04  1.085604E+04  1.637393E+04  2.860024E-01
        29   3  7.202089E+05  2.133290E+03  1.085590E+04 -8.024238E+02  6.651701E+03 -8.587749E-03
        29   4  7.201974E+05  3.464128E+04  3.780905E+04 -2.171362E-09  2.609617E+04  7.650399E-11
        29   5  7.173384E+05  9.454708E+03  1.893708E+04 -1.651395E-10  1.637393E+04  4.167267E-11
        29   6  7.202089E+05  2.133289E+03  1.085590E+04 -8.626870E-10  6.651701E+03 -5.044577E-10
        29   7  7.201979E+05  3.464223E+04  3.780919E+04 -2.251462E+04  2.609617E+04 -9.453352E-01
        29   8  7.173385E+05  9.454930E+03  1.893711E+04 -1.085604E+04  1.637393E+04 -2.860024E-01
        29   9  7.202089E+05  2.133290E+03  1.085590E+04  8.024238E+02  6.651701E+03  8.587748E-03
        29  10  7.201972E+05  3.464204E+04  3.780791E+04  2.251462E+04 -3.715302E-11 -1.231620E-10
        29  11  7.173382E+05  9.454858E+03  1.893661E+04  1.085604E+04 -1.105459E-09 -4.012616E-10
        29  12  7.202089E+05  2.133278E+03  1.085582E+04 -8.024238E+02  1.403248E-10 -3.887140E-10
        29  13  7.201967E+05  3.464109E+04  3.780778E+04 -9.005067E-10 -4.965583E-10 -1.713534E-11
        29  14  7.173381E+05  9.454636E+03  1.893658E+04 -1.182519E-09  1.529154E-10 -2.068980E-10
        29  15  7.202089E+05  2.133277E+03  1.085582E+04 -8.535480E-12 -3.963322E-10 -5.757813E-10
        29  16  7.201972E+05  3.464204E+04  3.780791E+04 -2.251462E+04  3.927307E-10  7.082949E-11
        29  17  7.173382E+05  9.454858E+03  1.893661E+04 -1.085604E+04 -3.958035E-10 -3.632601E-11
        29  18  7.202089E+05  2.133278E+03  1.085582E+04  8.024238E+02 -2.960626E-10 -8.107867E-10
        29  19  7.201979E+05  3.464223E+04  3.780919E+04  2.251462E+04 -2.609617E+04 -9.453352E-01
        29  20  7.173385E+05  9.454930E+03  1.893711E+04  1.085604E+04 -1.637393E+04 -2.860024E-01
        29  21  7.202089E+05  2.133290E+03  1.085590E+04 -8.024238E+02 -6.651701E+03  8.587748E-03
        29  22  7.201974E+05  3.464128E+04  3.780905E+04 -1.214028E-09 -2.609617E+04 -1.127656E-10
        29  23  7.173384E+05  9.454708E+03  1.893708E+04 -5.163539E-11 -1.637393E+04 -4.411324E-10
        29  24  7.202089E+05  2.133289E+03  1.085590E+04 -4.904642E-10 -6.651701E+03 -6.490698E-10
        29  25  7.201979E+05  3.464223E+04  3.780919E+04 -2.251462E+04 -2.609617E+04  9.453352E-01
        29  26  7.173385E+05  9.454930E+03  1.893711E+04 -1.085604E+04 -1.637393E+04  2.860024E-01
        29  27  7.202089E+05  2.133290E+03  1.085590E+04  8.024238E+02 -6.651701E+03 -8.587750E-03
        30   1  7.190930E+05  1.959862E+03  8.626007E+03  1.051591E+03  5.185750E+03  8.774083E-03
        30   2  7.187380E+05  3.931330E+02  5.925564E+03  4.785497E+02  2.231620E+03  1.718268E-03
        30   3  7.190940E+05  1.340117E+02  5.473627E+03 -9.448293E+01 -7.224622E+02  1.098281E-04
        30   4  7.190930E+05  1.959860E+03  8.626007E+03  7.973589E-10  5.185750E+03 -6.868897E-10
        30   5  7.187380E+05  3.931325E+02  5.925564E+03  2.320602E-09  2.231620E+03 -3.605065E-10
        30   6  7.190940E+05  1.340117E+02  5.473627E+03 -4.021691E-10 -7.224622E+02  1.613628E-10
        30   7  7.190930E+05  1.959862E+03  8.626007E+03 -1.051591E+03  5.185750E+03 -8.774085E-03
        30   8  7.187380E+05  3.931330E+02  5.925564E+03 -4.785497E+02  2.231620E+03 -1.718269E-03
        30   9  7.190940E+05  1.340117E+02  5.473627E+03  9.448293E+01 -7.224622E+02 -1.098278E-04
        30  10  7.190930E+05  1.959854E+03  8.625956E+03  1.051591E+03 -5.689762E-10 -2.953124E-10
        30  11  7.187380E+05  3.931316E+02  5.925555E+03  4.785497E+02  5.992378E-10  7.005885E-12
        30  12  7.190940E+05  1.340116E+02  5.473626E+03 -9.448293E+01  3.545107E-10  5.633879E-10
        30  13  7.190930E+05  1.959852E+03  8.625956E+03  1.136215E-09 -5.302275E-10 -5.904567E-10
        30  14  7.187380E+05  3.931312E+02  5.925555E+03  2.271494E-10  1.068872E-09 -1.565847E-10
        30  15  7.190940E+05  1.340115E+02  5.473626E+03 -1.611911E-09  1.746211E-10  2.804068E-10
        30  16  7.190930E+05  1.959854E+03  8.625956E+03 -1.051591E+03  5.201760E-10 -8.714718E-10
        30  17  7.187380E+05  3.931316E+02  5.925555E+03 -4.785497E+02 -6.640510E-10 -2.941260E-10
        30  18  7.190940E+05  1.340116E+02  5.473626E+03  9.448293E+01  2.789221E-10 -4.952243E-12
        30  19  7.190930E+05  1.959862E+03  8.626007E+03  1.051591E+03 -5.185750E+03 -8.774084E-03
        30  20  7.187380E+05  3.931330E+02  5.925564E+03  4.785497E+02 -2.231620E+03 -1.718268E-03
        30  21  7.190940E+05  1.340117E+02  5.473627E+03 -9.448293E+01  7.224622E+02 -1.098270E-04
        30  22  7.190930E+05  1.959860E+03  8.626007E+03  3.851581E-10 -5.185750E+03 -5.075590E-10
        30  23  7.187380E+05  3.931325E+02  5.925564E+03 -7.848113E-10 -2.231620E+03  5.796143E-11
        30  24  7.190940E+05  1.340117E+02  5.473627E+03 -3.248786E-09  7.224622E+02  3.982314E-10
        30  25  7.190930E+05  1.959862E+03  8.626007E+03 -1.051591E+03 -5.185750E+03  8.774083E-03
        30  26  7.187380E+05  3.931330E+02  5.925564E+03 -4.785497E+02 -2.231620E+03  1.718268E-03
        30  27  7.190940E+05  1.340117E+02  5.473627E+03  9.448293E+01  7.224622E+02  1.098278E-04
        31   1  7.191729E+05  1.290238E+02  5.898520E+03  3.217262E+02 -1.704839E+03 -8.824958E-04
        31   2  7.186387E+05  7.251618E+02  8.264057E+03 -6.894654E+02 -5.830775E+03  6.468187E-03
        31   3  7.191708E+05  3.440205E+03  1.384322E+04 -1.700670E+03 -9.956788E+03  2.724476E-02
        31   4  7.191729E+05  1.290236E+02  5.898520E+03 -1.787423E-10 -1.704839E+03  4.125139E-10
        31   5  7.186387E+05  7.251609E+02  8.264057E+03  6.606327E-10 -5.830775E+03  4.423222E-10
        31   6  7.191708E+05  3.440199E+03  1.384322E+04 -5.430368E-10 -9.956788E+03  2.165522E-10
        31   7  7.191729E+05  1.290238E+02  5.898520E+03 -3.217262E+02 -1.704839E+03  8.824966E-04
        31   8  7.186387E+05  7.251618E+02  8.264057E+03  6.894654E+02 -5.830775E+03 -6.468186E-03
        31   9  7.191708E+05  3.440205E+03  1.384322E+04  1.700670E+03 -9.956788E+03 -2.724476E-02
        31  10  7.191729E+05  1.290230E+02  5.898515E+03  3.217262E+02  1.353706E-09  6.314353E-10
        31  11  7.186387E+05  7.251526E+02  8.263993E+03 -6.894654E+02  3.487995E-10  2.133175E-10
        31  12  7.191707E+05  3.440178E+03  1.384304E+04 -1.700670E+03  1.709577E-10 -3.105228E-11
        31  13  7.191729E+05  1.290228E+02  5.898515E+03 -9.215373E-10  1.085710E-09  3.306731E-10
        31  14  7.186387E+05  7.251517E+02  8.263993E+03 -1.796926E-09  1.206805E-09  1.751326E-10
        31  15  7.191707E+05  3.440173E+03  1.384304E+04 -4.083456E-10  1.142053E-09  2.288783E-10
        31  16  7.191729E+05  1.290230E+02  5.898515E+03 -3.217262E+02 -7.570695E-10  3.241691E-11
        31  17  7.186387E+05  7.251526E+02  8.263993E+03  6.894654E+02  2.503936E-10  1.669412E-10
        31  18  7.191707E+05  3.440178E+03  1.384304E+04  1.700670E+03  5.052078E-10  5.080788E-10
        31  19  7.191729E+05  1.290238E+02  5.898520E+03  3.217262E+02  1.704839E+03  8.824970E-04
        31  20  7.186387E+05  7.251618E+02  8.264057E+03 -6.894654E+02  5.830775E+03 -6.468186E-03
        31  21  7.191708E+05  3.440205E+03  1.384322E+04 -1.700670E+03  9.956788E+03 -2.724476E-02
        31  22  7.191729E+05  1.290236E+02  5.898520E+03 -1.102539E-09  1.704839E+03  2.574776E-10
        31  23  7.186387E+05  7.251609E+02  8.264057E+03  5.848661E-10  5.830775E+03 -7.077274E-11
        31  24  7.191708E+05  3.440199E+03  1.384322E+04 -1.405639E-09  9.956788E+03  2.392429E-10
        31  25  7.191729E+05  1.290238E+02  5.898520E+03 -3.217262E+02  1.704839E+03 -8.824965E-04
        31  26  7.186387E+05  7.251618E+02  8.264057E+03  6.894654E+02  5.830775E+03  6.468186E-03
        31  27  7.191708E+05  3.440205E+03  1.384322E+04  1.700670E+03  9.956788E+03  2.724476E-02
        32   1  7.211373E+05  3.730442E+03  1.801180E+04  1.480464E+03 -1.232535E+04 -2.935887E-02
        32   2  7.161724E+05  1.641838E+04  3.246225E+04 -1.875658E+04 -2.899800E+04  8.751211E-01
        32   3  7.211188E+05  6.008382E+04  6.550333E+04 -3.899393E+04 -4.567068E+04  2.865365E+00
        32   4  7.211373E+05  3.730437E+03  1.801180E+04  6.628936E-10 -1.232535E+04  1.117405E-10
        32   5  7.161720E+05  1.641772E+04  3.246216E+04  1.489873E-09 -2.899800E+04  6.511113E-11
        32   6  7.211172E+05  6.008097E+04  6.550292E+04  2.590608E-10 -4.567068E+04  8.722759E-11
        32   7  7.211373E+05  3.730442E+03  1.801180E+04 -1.480464E+03 -1.232535E+04  2.935887E-02
        32   8  7.161724E+05  1.641838E+04  3.246225E+04  1.875658E+04 -2.899800E+04 -8.751211E-01
        32   9  7.211188E+05  6.008382E+04  6.550333E+04  3.899393E+04 -4.567068E+04 -2.865365E+00
        32  10  7.211371E+05  3.730401E+03  1.801151E+04  1.480464E+03  3.874154E-10 -9.806567E-11
        32  11  7.161715E+05  1.641816E+04  3.246068E+04 -1.875658E+04  3.067654E-10 -7.693370E-11
        32  12  7.211166E+05  6.008326E+04  6.549941E+04 -3.899393E+04  3.100877E-10 -2.683841E-11
        32  13  7.211371E+05  3.730397E+03  1.801151E+04  2.904451E-10  8.388830E-10  2.339297E-10
        32  14  7.161711E+05  1.641750E+04  3.246058E+04  6.329166E-11  3.969547E-10  1.050883E-10
        32  15  7.211150E+05  6.008041E+04  6.549900E+04  1.048096E-09 -4.110291E-10  1.906917E-11
        32  16  7.211371E+05  3.730401E+03  1.801151E+04 -1.480464E+03  5.741164E-10  5.393394E-10
        32  17  7.161715E+05  1.641816E+04  3.246068E+04  1.875658E+04 -4.273530E-10  3.018968E-10
        32  18  7.211166E+05  6.008326E+04  6.549941E+04  3.899393E+04  3.293900E-10  8.393891E-11
        32  19  7.211373E+05  3.730442E+03  1.801180E+04  1.480464E+03  1.232535E+04  2.935887E-02
        32  20  7.161724E+05  1.641838E+04  3.246225E+04 -1.875658E+04  2.899800E+04 -8.751211E-01
        32  21  7.211188E+05  6.008382E+04  6.550333E+04 -3.899393E+04  4.567068E+04 -2.865365E+00
        32  22  7.211373E+05  3.730437E+03  1.801180E+04 -1.708448E-09  1.232535E+04  3.607018E-10
        32  23  7.161720E+05  1.641772E+04  3.246216E+04  7.912816E-10  2.899800E+04  1.555009E-10
        32  24  7.211172E+05  6.008097E+04  6.550292E+04 -5.868187E-11  4.567068E+04 -4.345723E-11
        32  25  7.211373E+05  3.730442E+03  1.801180E+04 -1.480464E+03  1.232535E+04 -2.935887E-02
        32  26  7.161724E+05  1.641838E+04  3.246225E+04  1.875658E+04  2.899800E+04  8.751211E-01
        32  27  7.211188E+05  6.008382E+04  6.550333E+04  3.899393E+04  4.567068E+04  2.865365E+00
        33   1 -3.791191E+05 -1.123365E+06 -3.774469E+05  3.129414E+05 -1.242099E+04 -1.603338E+05
        33   2 -2.353000E+05 -8.985726E+05 -2.284421E+05  2.541576E+05 -3.868311E+04 -8.022956E+04
        33   3 -1.590131E+05 -7.010309E+05 -1.485232E+05  2.357157E+05 -4.002251E+04 -9.176405E+01
        33   4 -1.146605E+05 -5.369940E+04 -1.252748E+05  2.387997E+05 -1.236794E+04 -8.606634E+04
        33   5 -3.127733E+04 -4.415922E+04 -6.301346E+04  2.185965E+05 -3.865934E+04 -5.370448E+04
        33   6 -7.077453E+03 -5.357872E+04 -3.661039E+04  2.387471E+05 -4.003382E+04 -2.134068E+04
        33   7  1.497400E+05  1.017044E+06  1.268421E+05  1.645291E+05 -1.233272E+04 -1.167137E+04
        33   8  1.727070E+05  8.109606E+05  1.023843E+05  1.829851E+05 -3.863864E+04 -2.714365E+04
        33   9  1.448359E+05  5.942861E+05  7.528969E+04  2.417817E+05 -4.004532E+04 -4.261108E+04
        33  10 -3.791262E+05 -1.123393E+06 -3.774956E+05  3.129398E+05 -6.519648E-11  3.411593E-10
        33  11 -2.353033E+05 -8.985799E+05 -2.284570E+05  2.541551E+05  4.345490E-10  8.324757E-13
        33  12 -1.590148E+05 -7.010313E+05 -1.485262E+05  2.357157E+05  1.552959E-09 -7.854432E-10
        33  13 -1.146626E+05 -5.370740E+04 -1.252890E+05  2.387988E+05  6.066680E-10  6.423403E-12
        33  14 -3.127971E+04 -4.416271E+04 -6.302169E+04  2.185949E+05  7.561319E-10  2.227886E-10
        33  15 -7.079296E+03 -5.357964E+04 -3.661426E+04  2.387464E+05 -6.206616E-10  3.831356E-10
        33  16  1.497398E+05  1.017044E+06  1.268416E+05  1.645289E+05  1.951930E-10 -3.624330E-10
        33  17  1.727052E+05  8.109594E+05  1.023801E+05  1.829843E+05 -1.425649E-09  3.254059E-10
        33  18  1.448337E+05  5.942837E+05  7.528327E+04  2.417803E+05 -2.751390E-10  8.772197E-10
        33  19 -3.791191E+05 -1.123365E+06 -3.774469E+05  3.129414E+05  1.242099E+04  1.603338E+05
        33  20 -2.353000E+05 -8.985726E+05 -2.284421E+05  2.541576E+05  3.868311E+04  8.022956E+04
        33  21 -1.590131E+05 -7.010309E+05 -1.485232E+05  2.357157E+05  4.002251E+04  9.176405E+01
        33  22 -1.146605E+05 -5.369940E+04 -1.252748E+05  2.387997E+05  1.236794E+04  8.606634E+04
        33  23 -3.127733E+04 -4.415922E+04 -6.301346E+04  2.185965E+05  3.865934E+04  5.370448E+04
        33  24 -7.077453E+03 -5.357872E+04 -3.661039E+04  2.387471E+05  4.003382E+04  2.134068E+04
        33  25  1.497400E+05  1.017044E+06  1.268421E+05  1.645291E+05  1.233272E+04  1.167137E+04
        33  26  1.727070E+05  8.109606E+05  1.023843E+05  1.829851E+05  3.863864E+04  2.714365E+04
        33  27  1.448359E+05  5.942861E+05  7.528969E+04  2.417817E+05  4.004532E+04  4.261108E+04
        34   1 -1.262891E+05 -5.618163E+05 -1.165373E+05  2.424428E+05 -3.275952E+04  3.689461E+03
        34   2 -7.177056E+04 -3.491061E+05 -6.954860E+04  2.184723E+05 -2.158905E+04  1.706051E+04
        34   3 -2.378885E+04 -1.397556E+05 -3.291438E+04  2.365012E+05 -9.014521E+03  3.043293E+04
        34   4 -6.481517E+03 -4.998850E+04 -2.948446E+04  2.391150E+05 -3.277241E+04 -1.638541E+04
        34   5 -2.002694E+03 -4.850044E+04 -2.138210E+04  2.181142E+05 -2.160617E+04 -5.705049E+03
        34   6 -3.589023E+03 -4.994606E+04 -2.176067E+04  2.391125E+05 -9.036149E+03  4.972408E+03
        34   7  1.133125E+05  4.620982E+05  5.756130E+04  2.357844E+05 -3.278508E+04 -3.647630E+04
        34   8  6.776090E+04  2.521962E+05  2.678396E+04  2.177559E+05 -2.162325E+04 -2.848124E+04
        34   9  1.661085E+04  3.987321E+04 -1.060454E+04  2.417243E+05 -9.057988E+03 -2.049161E+04
        34  10 -1.262903E+05 -5.618166E+05 -1.165393E+05  2.424429E+05  2.917347E-10 -1.670353E-09
        34  11 -7.177113E+04 -3.491066E+05 -6.955002E+04  2.184726E+05  3.120111E-10  3.352117E-10
        34  12 -2.378918E+04 -1.397566E+05 -3.291627E+04  2.365014E+05  2.884791E-10  1.466771E-09
        34  13 -6.482742E+03 -4.998908E+04 -2.948698E+04  2.391146E+05 -2.867078E-10 -8.430641E-12
        34  14 -2.003204E+03 -4.850060E+04 -2.138304E+04  2.181141E+05 -6.600544E-10  4.392102E-10
        34  15 -3.589118E+03 -4.994611E+04 -2.176087E+04  2.391126E+05  5.712649E-10  5.422082E-10
        34  16  1.133110E+05  4.620964E+05  5.755678E+04  2.357834E+05  1.599101E-10  1.574993E-09
        34  17  6.776019E+04  2.521952E+05  2.678156E+04  2.177554E+05 -7.768640E-11  3.208969E-10
        34  18  1.661065E+04  3.987274E+04 -1.060548E+04  2.417241E+05 -6.231688E-10 -1.340840E-09
        34  19 -1.262891E+05 -5.618163E+05 -1.165373E+05  2.424428E+05  3.275952E+04 -3.689461E+03
        34  20 -7.177056E+04 -3.491061E+05 -6.954860E+04  2.184723E+05  2.158905E+04 -1.706051E+04
        34  21 -2.378885E+04 -1.397556E+05 -3.291438E+04  2.365012E+05  9.014521E+03 -3.043293E+04
        34  22 -6.481517E+03 -4.998850E+04 -2.948446E+04  2.391150E+05  3.277241E+04  1.638541E+04
        34  23 -2.002694E+03 -4.850044E+04 -2.138210E+04  2.181142E+05  2.160617E+04  5.705049E+03
        34  24 -3.589023E+03 -4.994606E+04 -2.176067E+04  2.391125E+05  9.036149E+03 -4.972408E+03
        34  25  1.133125E+05  4.620982E+05  5.756130E+04  2.357844E+05  3.278508E+04  3.647630E+04
        34  26  6.776090E+04  2.521962E+05  2.678396E+04  2.177559E+05  2.162325E+04  2.848124E+04
        34  27  1.661085E+04  3.987321E+04 -1.060454E+04  2.417243E+05  9.057988E+03  2.049161E+04
        35   1  7.563622E+03 -6.511147E+03 -1.222435E+04  2.403498E+05 -6.770516E+02  3.444127E+04
        35   2  4.438709E+04  2.082009E+05  1.748775E+04  1.979328E+05  7.057262E+03  3.147148E+04
        35   3  5.144089E+04  4.158754E+05  4.168059E+04  1.968833E+05  3.280378E+03  2.850441E+04
        35   4 -3.918397E+03 -5.172028E+04 -2.441270E+04  2.389709E+05 -6.994609E+02  8.527730E+03
        35   5 -1.743109E+04 -4.627667E+04 -3.733072E+04  2.183029E+05  7.055448E+03  2.765687E+04
        35   6 -6.455738E+04 -5.175710E+04 -7.111885E+04  2.390104E+05  3.296766E+03  4.678917E+04
        35   7 -1.540022E+04 -9.692616E+04 -3.659868E+04  2.375922E+05 -7.217560E+02 -1.738391E+04
        35   8 -7.925195E+04 -3.006925E+05 -9.215272E+04  2.386644E+05  7.053384E+03  2.384380E+04
        35   9 -1.805647E+05 -5.191851E+05 -1.839317E+05  2.811056E+05  3.315644E+03  6.506021E+04
        35  10  7.563303E+03 -6.512421E+03 -1.222658E+04  2.403498E+05  4.389289E-10 -7.011944E-10
        35  11  4.438677E+04  2.081999E+05  1.748580E+04  1.979327E+05  3.124886E-10  3.392463E-10
        35  12  5.144066E+04  4.158746E+05  4.167904E+04  1.968833E+05 -3.806084E-10  2.938391E-10
        35  13 -3.918418E+03 -5.172036E+04 -2.441283E+04  2.389709E+05  5.949415E-10  2.295827E-11
        35  14 -1.743135E+04 -4.627751E+04 -3.733225E+04  2.183027E+05 -6.569422E-10  5.010660E-10
        35  15 -6.455798E+04 -5.175945E+04 -7.112298E+04  2.390103E+05  3.536850E-10  4.474650E-10
        35  16 -1.540030E+04 -9.692649E+04 -3.659925E+04  2.375922E+05 -4.598841E-10  6.259597E-10
        35  17 -7.925216E+04 -3.006932E+05 -9.215388E+04  2.386643E+05 -2.393367E-10  4.010611E-10
        35  18 -1.805659E+05 -5.191897E+05 -1.839397E+05  2.811054E+05 -4.166666E-10 -2.008005E-10
        35  19  7.563622E+03 -6.511147E+03 -1.222435E+04  2.403498E+05  6.770516E+02 -3.444127E+04
        35  20  4.438709E+04  2.082009E+05  1.748775E+04  1.979328E+05 -7.057262E+03 -3.147148E+04
        35  21  5.144089E+04  4.158754E+05  4.168059E+04  1.968833E+05 -3.280378E+03 -2.850441E+04
        35  22 -3.918397E+03 -5.172028E+04 -2.441270E+04  2.389709E+05  6.994609E+02 -8.527730E+03
        35  23 -1.743109E+04 -4.627667E+04 -3.733072E+04  2.183029E+05 -7.055448E+03 -2.765687E+04
        35  24 -6.455738E+04 -5.175710E+04 -7.111885E+04  2.390104E+05 -3.296766E+03 -4.678917E+04
        35  25 -1.540022E+04 -9.692616E+04 -3.659868E+04  2.375922E+05  7.217560E+02  1.738391E+04
        35  26 -7.925195E+04 -3.006925E+05 -9.215272E+04  2.386644E+05 -7.053384E+03 -2.384380E+04
        35  27 -1.805647E+05 -5.191851E+05 -1.839317E+05  2.811056E+05 -3.315644E+03 -6.506021E+04
        36   1  5.251092E+05  2.225517E+04  2.429914E+04  1.446871E+04  1.671007E+04  3.891190E-01
        36   2  5.232693E+05  6.070974E+03  1.221412E+04  6.982057E+03  1.044063E+04  1.173235E-01
        36   3  5.251143E+05  1.366188E+03  7.078075E+03 -5.044424E+02  4.171288E+03 -3.386531E-03
        36   4  5.251090E+05  2.225478E+04  2.429909E+04 -1.253032E-09  1.671007E+04  5.451869E-11
        36   5  5.232693E+05  6.070882E+03  1.221411E+04 -2.979308E-10  1.044063E+04  2.808759E-10
        36   6  5.251143E+05  1.366188E+03  7.078075E+03 -1.244778E-09  4.171288E+03  4.514036E-10
        36   7  5.251092E+05  2.225517E+04  2.429914E+04 -1.446871E+04  1.671007E+04 -3.891190E-01
        36   8  5.232693E+05  6.070974E+03  1.221412E+04 -6.982057E+03  1.044063E+04 -1.173235E-01
        36   9  5.251143E+05  1.366188E+03  7.078075E+03  5.044424E+02  4.171288E+03  3.386532E-03
        36  10  5.251089E+05  2.225510E+04  2.429862E+04  1.446871E+04 -1.327209E-11  6.215028E-11
        36  11  5.232692E+05  6.070945E+03  1.221391E+04  6.982057E+03  3.695854E-10  2.446098E-10
        36  12  5.251143E+05  1.366184E+03  7.078042E+03 -5.044424E+02  4.362328E-11  3.773098E-10
        36  13  5.251087E+05  2.225471E+04  2.429856E+04 -7.407322E-10 -6.969150E-10 -1.815984E-11
        36  14  5.232691E+05  6.070853E+03  1.221390E+04  9.867999E-11  6.285569E-10  4.738421E-11
        36  15  5.251143E+05  1.366183E+03  7.078042E+03 -2.653468E-10  1.224205E-09  3.177097E-10
        36  16  5.251089E+05  2.225510E+04  2.429862E+04 -1.446871E+04 -2.644467E-10 -1.072101E-10
        36  17  5.232692E+05  6.070945E+03  1.221391E+04 -6.982057E+03 -3.288157E-10 -1.582525E-10
        36  18  5.251143E+05  1.366184E+03  7.078042E+03  5.044424E+02  6.144277E-10  2.557576E-10
        36  19  5.251092E+05  2.225517E+04  2.429914E+04  1.446871E+04 -1.671007E+04 -3.891190E-01
        36  20  5.232693E+05  6.070974E+03  1.221412E+04  6.982057E+03 -1.044063E+04 -1.173235E-01
        36  21  5.251143E+05  1.366188E+03  7.078075E+03 -5.044424E+02 -4.171288E+03  3.386532E-03
        36  22  5.251090E+05  2.225478E+04  2.429909E+04 -1.847403E-09 -1.671007E+04 -8.449089E-11
        36  23  5.232693E+05  6.070882E+03  1.221411E+04 -5.798020E-10 -1.044063E+04 -1.780894E-10
        36  24  5.251143E+05  1.366188E+03  7.078075E+03 -1.468723E-09 -4.171288E+03  1.814328E-10
        36  25  5.251092E+05  2.225517E+04  2.429914E+04 -1.446871E+04 -1.671007E+04  3.891190E-01
        36  26  5.232693E+05  6.070974E+03  1.221412E+04 -6.982057E+03 -1.044063E+04  1.173235E-01
        36  27  5.251143E+05  1.366188E+03  7.078075E+03  5.044424E+02 -4.171288E+03 -3.386531E-03
        37   1  5.244015E+05  1.253630E+03  5.684108E+03  6.910934E+02  3.207454E+03  3.567558E-03
        37   2  5.241626E+05  2.469108E+02  4.063952E+03  3.253081E+02  1.182354E+03  6.190366E-04
        37   3  5.244019E+05  9.927536E+01  3.976190E+03 -4.048273E+01 -8.427749E+02  5.491008E-05
        37   4  5.244015E+05  1.253630E+03  5.684108E+03 -1.509700E-09  3.207454E+03  3.970939E-10
        37   5  5.241626E+05  2.469106E+02  4.063951E+03  5.468475E-11  1.182354E+03  6.330352E-11
        37   6  5.244019E+05  9.927536E+01  3.976190E+03 -4.006796E-10 -8.427749E+02 -2.521545E-10
        37   7  5.244015E+05  1.253630E+03  5.684108E+03 -6.910934E+02  3.207454E+03 -3.567557E-03
        37   8  5.241626E+05  2.469108E+02  4.063952E+03 -3.253081E+02  1.182354E+03 -6.190364E-04
        37   9  5.244019E+05  9.927536E+01  3.976190E+03  4.048273E+01 -8.427749E+02 -5.491057E-05
        37  10  5.244014E+05  1.253628E+03  5.684089E+03  6.910934E+02  2.603325E-10  3.184087E-10
        37  11  5.241626E+05  2.469105E+02  4.063949E+03  3.253081E+02  2.715554E-10 -5.165722E-12
        37  12  5.244019E+05  9.927517E+01  3.976188E+03 -4.048273E+01 -1.476987E-10 -2.993226E-10
        37  13  5.244014E+05  1.253627E+03  5.684088E+03 -9.722095E-10  7.445352E-10  3.260070E-10
        37  14  5.241626E+05  2.469103E+02  4.063949E+03  2.692432E-10  1.091552E-09  2.832656E-11
        37  15  5.244019E+05  9.927517E+01  3.976188E+03  1.094120E-09 -4.664469E-10 -1.682204E-10
        37  16  5.244014E+05  1.253628E+03  5.684089E+03 -6.910934E+02 -8.643896E-11  3.357168E-10
        37  17  5.241626E+05  2.469105E+02  4.063949E+03 -3.253081E+02  5.306443E-10  5.611704E-11
        37  18  5.244019E+05  9.927517E+01  3.976188E+03  4.048273E+01  4.900448E-11 -4.777032E-11
        37  19  5.244015E+05  1.253630E+03  5.684108E+03  6.910934E+02 -3.207454E+03 -3.567557E-03
        37  20  5.241626E+05  2.469108E+02  4.063952E+03  3.253081E+02 -1.182354E+03 -6.190366E-04
        37  21  5.244019E+05  9.927536E+01  3.976190E+03 -4.048273E+01  8.427749E+02 -5.491066E-05
        37  22  5.244015E+05  1.253630E+03  5.684108E+03 -6.998103E-10 -3.207454E+03  2.516006E-10
        37  23  5.241626E+05  2.469106E+02  4.063951E+03  1.557845E-09 -1.182354E+03 -8.980596E-12
        37  24  5.244019E+05  9.927536E+01  3.976190E+03 -7.672357E-11  8.427749E+02 -7.995595E-11
        37  25  5.244015E+05  1.253630E+03  5.684108E+03 -6.910934E+02 -3.207454E+03  3.567558E-03
        37  26  5.241626E+05  2.469108E+02  4.063952E+03 -3.253081E+02 -1.182354E+03  6.190366E-04
        37  27  5.244019E+05  9.927536E+01  3.976190E+03  4.048273E+01  8.427749E+02  5.491051E-05
        38   1  5.244802E+05  9.430576E+01  4.397925E+03  2.660382E+02 -1.565991E+03 -6.705131E-04
        38   2  5.240642E+05  5.764193E+02  6.385155E+03 -5.345955E+02 -4.754254E+03  4.090549E-03
        38   3  5.244790E+05  2.723000E+03  1.086295E+04 -1.335228E+03 -7.942527E+03  1.706821E-02
        38   4  5.244802E+05  9.430563E+01  4.397925E+03 -6.091520E-10 -1.565991E+03 -3.365071E-10
        38   5  5.240642E+05  5.764187E+02  6.385155E+03  2.591080E-09 -4.754254E+03 -3.934099E-10
        38   6  5.244790E+05  2.722996E+03  1.086294E+04  2.405081E-09 -7.942527E+03 -6.127568E-10
        38   7  5.244802E+05  9.430576E+01  4.397925E+03 -2.660382E+02 -1.565991E+03  6.705124E-04
        38   8  5.240642E+05  5.764193E+02  6.385155E+03  5.345955E+02 -4.754254E+03 -4.090550E-03
        38   9  5.244790E+05  2.723000E+03  1.086295E+04  1.335228E+03 -7.942527E+03 -1.706821E-02
        38  10  5.244802E+05  9.430511E+01  4.397920E+03  2.660382E+02  2.549669E-10 -3.303050E-10
        38  11  5.240641E+05  5.764132E+02  6.385113E+03 -5.345955E+02  6.215195E-10 -3.040588E-10
        38  12  5.244789E+05  2.722983E+03  1.086283E+04 -1.335228E+03  8.293328E-10 -3.371039E-10
        38  13  5.244802E+05  9.430497E+01  4.397920E+03  6.521211E-10  5.638549E-10 -2.351287E-10
        38  14  5.240641E+05  5.764127E+02  6.385113E+03  1.594869E-09 -9.827707E-10 -3.187280E-10
        38  15  5.244789E+05  2.722979E+03  1.086283E+04  1.069093E-09 -4.495285E-10 -3.798913E-10
        38  16  5.244802E+05  9.430510E+01  4.397920E+03 -2.660382E+02 -3.143530E-10 -1.305796E-10
        38  17  5.240641E+05  5.764132E+02  6.385113E+03  5.345955E+02 -4.195432E-10 -3.471709E-10
        38  18  5.244789E+05  2.722983E+03  1.086283E+04  1.335228E+03 -7.354757E-10 -4.206708E-10
        38  19  5.244802E+05  9.430576E+01  4.397925E+03  2.660382E+02  1.565991E+03  6.705124E-04
        38  20  5.240642E+05  5.764193E+02  6.385155E+03 -5.345955E+02  4.754254E+03 -4.090550E-03
        38  21  5.244790E+05  2.723000E+03  1.086295E+04 -1.335228E+03  7.942527E+03 -1.706821E-02
        38  22  5.244802E+05  9.430563E+01  4.397925E+03 -1.045748E-09  1.565991E+03 -1.427670E-10
        38  23  5.240642E+05  5.764187E+02  6.385155E+03  3.335665E-10  4.754254E+03 -2.551207E-10
        38  24  5.244790E+05  2.722996E+03  1.086294E+04 -9.369853E-10  7.942527E+03 -1.447169E-10
        38  25  5.244802E+05  9.430576E+01  4.397925E+03 -2.660382E+02  1.565991E+03 -6.705126E-04
        38  26  5.240642E+05  5.764193E+02  6.385155E+03  5.345955E+02  4.754254E+03  4.090549E-03
        38  27  5.244790E+05  2.723000E+03  1.086295E+04  1.335228E+03  7.942527E+03  1.706821E-02
        39   1  5.260364E+05  2.951205E+03  1.418131E+04  1.178055E+03 -9.802026E+03 -1.858465E-02
        39   2  5.221127E+05  1.298278E+04  2.563989E+04 -1.482364E+04 -2.297067E+04  5.480304E-01
        39   3  5.260258E+05  4.751134E+04  5.179134E+04 -3.082529E+04 -3.613914E+04  1.792917E+00
        39   4  5.260364E+05  2.951202E+03  1.418131E+04  8.827203E-10 -9.802026E+03 -4.553227E-10
        39   5  5.221125E+05  1.298237E+04  2.563984E+04  1.017363E-09 -2.297067E+04  8.790434E-11
        39   6  5.260248E+05  4.750956E+04  5.179109E+04  3.640951E-10 -3.613914E+04  1.128011E-10
        39   7  5.260364E+05  2.951205E+03  1.418131E+04 -1.178055E+03 -9.802026E+03  1.858465E-02
        39   8  5.221127E+05  1.298278E+04  2.563989E+04  1.482364E+04 -2.297067E+04 -5.480304E-01
        39   9  5.260258E+05  4.751134E+04  5.179134E+04  3.082529E+04 -3.613914E+04 -1.792917E+00
        39  10  5.260363E+05  2.951179E+03  1.418113E+04  1.178055E+03  3.984564E-10 -2.462550E-10
        39  11  5.221121E+05  1.298264E+04  2.563890E+04 -1.482364E+04  3.945104E-10  1.354524E-11
        39  12  5.260244E+05  4.751099E+04  5.178889E+04 -3.082529E+04  4.265997E-10  2.693169E-11
        39  13  5.260363E+05  2.951176E+03  1.418113E+04 -1.597035E-10 -3.549299E-10 -2.697465E-10
        39  14  5.221119E+05  1.298223E+04  2.563884E+04  1.937096E-10  2.650956E-10 -5.807163E-12
        39  15  5.260234E+05  4.750921E+04  5.178863E+04  9.595069E-10 -8.818343E-10  3.299111E-11
        39  16  5.260363E+05  2.951179E+03  1.418113E+04 -1.178055E+03 -2.557641E-10 -2.869201E-10
        39  17  5.221121E+05  1.298264E+04  2.563890E+04  1.482364E+04 -5.339222E-10 -3.355489E-11
        39  18  5.260244E+05  4.751099E+04  5.178889E+04  3.082529E+04 -5.562197E-10  4.355362E-11
        39  19  5.260364E+05  2.951205E+03  1.418131E+04  1.178055E+03  9.802026E+03  1.858465E-02
        39  20  5.221127E+05  1.298278E+04  2.563989E+04 -1.482364E+04  2.297067E+04 -5.480304E-01
        39  21  5.260258E+05  4.751134E+04  5.179134E+04 -3.082529E+04  3.613914E+04 -1.792917E+00
        39  22  5.260364E+05  2.951202E+03  1.418131E+04 -2.010023E-09  9.802026E+03 -8.252999E-11
        39  23  5.221125E+05  1.298237E+04  2.563984E+04 -2.793819E-09  2.297067E+04 -9.822304E-11
        39  24  5.260248E+05  4.750956E+04  5.179109E+04 -5.038058E-10  3.613914E+04 -5.047503E-11
        39  25  5.260364E+05  2.951205E+03  1.418131E+04 -1.178055E+03  9.802026E+03 -1.858465E-02
        39  26  5.221127E+05  1.298278E+04  2.563989E+04  1.482364E+04  2.297067E+04  5.480304E-01
        39  27  5.260258E+05  4.751134E+04  5.179134E+04  3.082529E+04  3.613914E+04  1.792917E+00
        40   1 -3.102873E+05 -9.397716E+05 -3.073639E+05  2.558724E+05 -1.070803E+04 -1.263141E+05
        40   2 -1.986605E+05 -7.505068E+05 -1.883214E+05  2.108711E+05 -3.347001E+04 -6.181689E+04
        40   3 -1.370084E+05 -5.820854E+05 -1.237973E+05  2.000163E+05 -3.482152E+04  2.703281E+03
        40   4 -8.292505E+04 -2.005094E+04 -9.062640E+04  2.022317E+05 -1.067227E+04 -6.211507E+04
        40   5 -2.262155E+04 -1.314692E+04 -4.569651E+04  1.851388E+05 -3.345318E+04 -3.864913E+04
        40   6 -5.129741E+03 -1.996407E+04 -2.674216E+04  2.021991E+05 -3.482950E+04 -1.518176E+04
        40   7  1.443898E+05  9.004637E+05  1.260699E+05  1.485108E+05 -1.064766E+04  2.178639E+03
        40   8  1.533878E+05  7.247385E+05  9.690539E+04  1.593750E+05 -3.343828E+04 -1.545442E+04
        40   9  1.267321E+05  5.424683E+05  7.030336E+04  2.043840E+05 -3.483760E+04 -3.308251E+04
        40  10 -3.102917E+05 -9.397888E+05 -3.073941E+05  2.558713E+05 -6.252511E-10 -5.747648E-10
        40  11 -1.986627E+05 -7.505112E+05 -1.883307E+05  2.108695E+05 -5.307877E-10 -2.254755E-10
        40  12 -1.370097E+05 -5.820858E+05 -1.237996E+05  2.000163E+05 -1.782462E-10  2.405821E-10
        40  13 -8.292620E+04 -2.005511E+04 -9.063386E+04  2.022312E+05 -8.787767E-11  2.090218E-12
        40  14 -2.262315E+04 -1.314883E+04 -4.570142E+04  1.851377E+05 -7.996876E-10 -4.276782E-12
        40  15 -5.131105E+03 -1.996464E+04 -2.674487E+04  2.021987E+05  1.815217E-10 -9.147704E-11
        40  16  1.443897E+05  9.004637E+05  1.260697E+05  1.485108E+05 -3.657240E-10  5.782918E-10
        40  17  1.533865E+05  7.247379E+05  9.690284E+04  1.593746E+05  4.198924E-10  3.690413E-10
        40  18  1.267305E+05  5.424668E+05  7.029903E+04  2.043830E+05 -1.132279E-10 -2.709724E-10
        40  19 -3.102873E+05 -9.397716E+05 -3.073639E+05  2.558724E+05  1.070803E+04  1.263141E+05
        40  20 -1.986605E+05 -7.505068E+05 -1.883214E+05  2.108711E+05  3.347001E+04  6.181689E+04
        40  21 -1.370084E+05 -5.820854E+05 -1.237973E+05  2.000163E+05  3.482152E+04 -2.703281E+03
        40  22 -8.292505E+04 -2.005094E+04 -9.062640E+04  2.022317E+05  1.067227E+04  6.211507E+04
        40  23 -2.262155E+04 -1.314692E+04 -4.569651E+04  1.851388E+05  3.345318E+04  3.864913E+04
        40  24 -5.129741E+03 -1.996407E+04 -2.674216E+04  2.021991E+05  3.482950E+04  1.518176E+04
        40  25  1.443898E+05  9.004637E+05  1.260699E+05  1.485108E+05  1.064766E+04 -2.178639E+03
        40  26  1.533878E+05  7.247385E+05  9.690539E+04  1.593750E+05  3.343828E+04  1.545442E+04
        40  27  1.267321E+05  5.424683E+05  7.030336E+04  2.043840E+05  3.483760E+04  3.308251E+04
        41   1 -1.093603E+05 -4.646243E+05 -9.765419E+04  2.049540E+05 -2.869676E+04  5.332126E+03
        41   2 -6.379405E+04 -2.846047E+05 -5.911845E+04  1.849271E+05 -1.927162E+04  1.578910E+04
        41   3 -2.322228E+04 -1.071840E+05 -2.864963E+04  2.004677E+05 -8.593253E+03  2.624670E+04
        41   4 -4.696619E+03 -1.738494E+04 -2.168609E+04  2.025147E+05 -2.870592E+04 -1.154388E+04
        41   5 -1.517475E+03 -1.626313E+04 -1.612366E+04  1.847305E+05 -1.928398E+04 -3.489828E+03
        41   6 -2.912564E+03 -1.735290E+04 -1.695629E+04  2.025133E+05 -8.609062E+03  4.562009E+03
        41   7  9.995668E+04  4.300520E+05  5.427657E+04  2.000735E+05 -2.871494E+04 -2.843166E+04
        41   8  6.075568E+04  2.521508E+05  2.687064E+04  1.845337E+05 -1.929633E+04 -2.277680E+04
        41   9  1.739708E+04  7.248748E+04 -5.261223E+03  2.045592E+05 -8.625012E+03 -1.712567E+04
        41  10 -1.093612E+05 -4.646246E+05 -9.765579E+04  2.049541E+05  1.225709E-10 -9.002383E-11
        41  11 -6.379451E+04 -2.846051E+05 -5.911962E+04  1.849274E+05  7.205373E-10 -7.395706E-11
        41  12 -2.322254E+04 -1.071848E+05 -2.865107E+04  2.004679E+05  8.153964E-11 -4.402586E-11
        41  13 -4.697539E+03 -1.738530E+04 -2.168789E+04  2.025144E+05 -3.180768E-10 -5.582569E-12
        41  14 -1.517878E+03 -1.626325E+04 -1.612438E+04  1.847304E+05  3.651753E-10 -5.798580E-12
        41  15 -2.912649E+03 -1.735294E+04 -1.695647E+04  2.025133E+05 -6.934755E-10 -1.079134E-10
        41  16  9.995558E+04  4.300510E+05  5.427350E+04  2.000729E+05  3.920986E-10 -1.071741E-11
        41  17  6.075514E+04  2.521501E+05  2.686896E+04  1.845333E+05  2.054811E-10  3.816798E-10
        41  18  1.739692E+04  7.248715E+04 -5.261914E+03  2.045591E+05 -8.624376E-10  3.254942E-11
        41  19 -1.093603E+05 -4.646243E+05 -9.765419E+04  2.049540E+05  2.869676E+04 -5.332126E+03
        41  20 -6.379405E+04 -2.846047E+05 -5.911845E+04  1.849271E+05  1.927162E+04 -1.578910E+04
        41  21 -2.322228E+04 -1.071840E+05 -2.864963E+04  2.004677E+05  8.593253E+03 -2.624670E+04
        41  22 -4.696619E+03 -1.738494E+04 -2.168609E+04  2.025147E+05  2.870592E+04  1.154388E+04
        41  23 -1.517475E+03 -1.626313E+04 -1.612366E+04  1.847305E+05  1.928398E+04  3.489828E+03
        41  24 -2.912564E+03 -1.735290E+04 -1.695629E+04  2.025133E+05  8.609062E+03 -4.562009E+03
        41  25  9.995668E+04  4.300520E+05  5.427657E+04  2.000735E+05  2.871494E+04  2.843166E+04
        41  26  6.075568E+04  2.521508E+05  2.687064E+04  1.845337E+05  1.929633E+04  2.277680E+04
        41  27  1.739708E+04  7.248748E+04 -5.261223E+03  2.045592E+05  8.625012E+03  1.712567E+04
        42   1  3.332671E+03  5.677396E+03 -1.123442E+04  2.035309E+05 -1.508878E+03  2.939376E+04
        42   2  3.498594E+04  1.873365E+05  1.392316E+04  1.684222E+05  5.250299E+03  2.662741E+04
        42   3  4.262692E+04  3.633633E+05  3.487071E+04  1.683695E+05  2.567975E+03  2.386296E+04
        42   4 -3.175946E+03 -1.881853E+04 -1.927342E+04  2.023988E+05 -1.525292E+03  7.342561E+03
        42   5 -1.411505E+04 -1.442363E+04 -2.996861E+04  1.848819E+05  5.248404E+03  2.270253E+04
        42   6 -5.221778E+04 -1.884267E+04 -5.746408E+04  2.024265E+05  2.579022E+03  3.806478E+04
        42   7 -9.684356E+03 -4.331291E+04 -2.731066E+04  2.012667E+05 -1.541625E+03 -1.470774E+04
        42   8 -6.321771E+04 -2.161450E+05 -7.386261E+04  2.013360E+05  5.246301E+03  1.877890E+04
        42   9 -1.470687E+05 -4.009123E+05 -1.498080E+05  2.364623E+05  2.591630E+03  5.225788E+04
        42  10  3.332437E+03  5.676467E+03 -1.123605E+04  2.035309E+05  2.127547E-10 -4.491667E-11
        42  11  3.498572E+04  1.873357E+05  1.392178E+04  1.684221E+05 -9.890453E-11  2.993573E-10
        42  12  4.262676E+04  3.633627E+05  3.486962E+04  1.683695E+05 -6.175369E-11  5.415847E-10
        42  13 -3.175963E+03 -1.881859E+04 -1.927353E+04  2.023988E+05 -4.422226E-10  1.153485E-11
        42  14 -1.411522E+04 -1.442419E+04 -2.996963E+04  1.848818E+05 -6.005772E-10  7.930252E-12
        42  15 -5.221817E+04 -1.884423E+04 -5.746682E+04  2.024264E+05 -5.056253E-10 -9.407104E-11
        42  16 -9.684417E+03 -4.331315E+04 -2.731107E+04  2.012667E+05 -5.602495E-10 -6.467479E-11
        42  17 -6.321783E+04 -2.161454E+05 -7.386333E+04  2.013360E+05 -3.906139E-11  1.138929E-11
        42  18 -1.470694E+05 -4.009152E+05 -1.498131E+05  2.364622E+05 -3.906262E-11 -5.346725E-10
        42  19  3.332671E+03  5.677396E+03 -1.123442E+04  2.035309E+05  1.508878E+03 -2.939376E+04
        42  20  3.498594E+04  1.873365E+05  1.392316E+04  1.684222E+05 -5.250299E+03 -2.662741E+04
        42  21  4.262692E+04  3.633633E+05  3.487071E+04  1.683695E+05 -2.567975E+03 -2.386296E+04
        42  22 -3.175946E+03 -1.881853E+04 -1.927342E+04  2.023988E+05  1.525292E+03 -7.342561E+03
        42  23 -1.411505E+04 -1.442363E+04 -2.996861E+04  1.848819E+05 -5.248404E+03 -2.270253E+04
        42  24 -5.221778E+04 -1.884267E+04 -5.746408E+04  2.024265E+05 -2.579022E+03 -3.806478E+04
        42  25 -9.684356E+03 -4.331291E+04 -2.731066E+04  2.012667E+05  1.541625E+03  1.470774E+04
        42  26 -6.321771E+04 -2.161450E+05 -7.386261E+04  2.013360E+05 -5.246301E+03 -1.877890E+04
        42  27 -1.470687E+05 -4.009123E+05 -1.498080E+05  2.364623E+05 -2.591630E+03 -5.225788E+04
        43   1  3.427107E+05  1.212576E+04  1.325009E+04  7.889883E+03  9.043874E+03  1.148738E-01
        43   2  3.417056E+05  3.304498E+03  6.709818E+03  3.813844E+03  5.601003E+03  3.438943E-02
        43   3  3.427125E+05  7.397210E+02  3.974288E+03 -2.622426E+02  2.158082E+03 -9.111010E-04
        43   4  3.427106E+05  1.212564E+04  1.325007E+04 -1.414825E-09  9.043874E+03  1.704297E-10
        43   5  3.417056E+05  3.304471E+03  6.709814E+03  6.763595E-10  5.601003E+03  4.477190E-10
        43   6  3.427125E+05  7.397209E+02  3.974288E+03  1.285441E-09  2.158082E+03  1.838073E-10
        43   7  3.427107E+05  1.212576E+04  1.325009E+04 -7.889883E+03  9.043874E+03 -1.148738E-01
        43   8  3.417056E+05  3.304498E+03  6.709818E+03 -3.813844E+03  5.601003E+03 -3.438943E-02
        43   9  3.427125E+05  7.397210E+02  3.974288E+03  2.622426E+02  2.158082E+03  9.111013E-04
        43  10  3.427106E+05  1.212574E+04  1.324993E+04  7.889883E+03 -1.637272E-10  4.020851E-11
        43  11  3.417056E+05  3.304490E+03  6.709759E+03  3.813844E+03  5.267621E-10  1.074923E-10
        43  12  3.427125E+05  7.397198E+02  3.974279E+03 -2.622426E+02  1.084349E-09 -3.538641E-13
        43  13  3.427105E+05  1.212562E+04  1.324992E+04 -2.903582E-10  1.522157E-10  2.148870E-11
        43  14  3.417056E+05  3.304463E+03  6.709755E+03 -1.108683E-09 -6.850853E-10  3.010187E-11
        43  15  3.427125E+05  7.397197E+02  3.974279E+03 -7.194529E-10 -6.093482E-10 -7.263152E-11
        43  16  3.427106E+05  1.212574E+04  1.324993E+04 -7.889883E+03  7.784163E-11 -1.494454E-11
        43  17  3.417056E+05  3.304490E+03  6.709759E+03 -3.813844E+03  1.167397E-10 -4.734236E-11
        43  18  3.427125E+05  7.397198E+02  3.974279E+03  2.622426E+02 -7.746591E-10 -1.374659E-10
        43  19  3.427107E+05  1.212576E+04  1.325009E+04  7.889883E+03 -9.043874E+03 -1.148738E-01
        43  20  3.417056E+05  3.304498E+03  6.709818E+03  3.813844E+03 -5.601003E+03 -3.438943E-02
        43  21  3.427125E+05  7.397210E+02  3.974288E+03 -2.622426E+02 -2.158082E+03  9.111009E-04
        43  22  3.427106E+05  1.212564E+04  1.325007E+04 -2.406740E-09 -9.043874E+03 -1.245517E-10
        43  23  3.417056E+05  3.304471E+03  6.709814E+03 -1.014544E-09 -5.601003E+03 -3.903992E-10
        43  24  3.427125E+05  7.397209E+02  3.974288E+03 -2.137397E-09 -2.158082E+03 -3.302275E-10
        43  25  3.427107E+05  1.212576E+04  1.325009E+04 -7.889883E+03 -9.043874E+03  1.148738E-01
        43  26  3.417056E+05  3.304498E+03  6.709818E+03 -3.813844E+03 -5.601003E+03  3.438943E-02
        43  27  3.427125E+05  7.397210E+02  3.974288E+03  2.622426E+02 -2.158082E+03 -9.111016E-04
        44   1  3.423286E+05  6.770013E+02  3.258385E+03  3.942340E+02  1.607971E+03  1.020535E-03
        44   2  3.421863E+05  1.282066E+02  2.505255E+03  1.975120E+02  3.604704E+02  1.146198E-04
        44   3  3.423287E+05  6.901664E+01  2.686375E+03  7.901160E-01 -8.870300E+02 -1.128147E-06
        44   4  3.423286E+05  6.770010E+02  3.258385E+03  1.939779E-09  1.607971E+03  6.264028E-11
        44   5  3.421863E+05  1.282065E+02  2.505255E+03  6.469932E-10  3.604704E+02  1.934270E-10
        44   6  3.423287E+05  6.901664E+01  2.686375E+03 -6.131848E-10 -8.870300E+02  1.937201E-10
        44   7  3.423286E+05  6.770013E+02  3.258385E+03 -3.942340E+02  1.607971E+03 -1.020535E-03
        44   8  3.421863E+05  1.282066E+02  2.505255E+03 -1.975120E+02  3.604704E+02 -1.146194E-04
        44   9  3.423287E+05  6.901664E+01  2.686375E+03 -7.901160E-01 -8.870300E+02  1.128535E-06
        44  10  3.423286E+05  6.770006E+02  3.258380E+03  3.942340E+02 -2.359668E-10 -4.677899E-11
        44  11  3.421863E+05  1.282065E+02  2.505255E+03  1.975120E+02  3.868194E-10 -7.570896E-13
        44  12  3.423287E+05  6.901643E+01  2.686374E+03  7.901160E-01 -2.499485E-10  6.182547E-11
        44  13  3.423286E+05  6.770003E+02  3.258380E+03  9.552354E-10 -4.108880E-10 -8.354404E-11
        44  14  3.421863E+05  1.282065E+02  2.505255E+03 -3.596430E-10  9.930431E-10  2.717290E-11
        44  15  3.423287E+05  6.901643E+01  2.686374E+03  4.713056E-10 -4.772994E-11  9.845519E-11
        44  16  3.423286E+05  6.770006E+02  3.258380E+03 -3.942340E+02  1.931700E-10 -1.164927E-10
        44  17  3.421863E+05  1.282065E+02  2.505255E+03 -1.975120E+02  4.042628E-10  4.827919E-11
        44  18  3.423287E+05  6.901643E+01  2.686374E+03 -7.901160E-01  5.498919E-11  1.291700E-10
        44  19  3.423286E+05  6.770013E+02  3.258385E+03  3.942340E+02 -1.607971E+03 -1.020535E-03
        44  20  3.421863E+05  1.282066E+02  2.505255E+03  1.975120E+02 -3.604704E+02 -1.146198E-04
        44  21  3.423287E+05  6.901664E+01  2.686375E+03  7.901160E-01  8.870300E+02  1.128286E-06
        44  22  3.423286E+05  6.770010E+02  3.258385E+03 -5.531407E-10 -1.607971E+03 -2.364929E-10
        44  23  3.421863E+05  1.282065E+02  2.505255E+03  7.848080E-10 -3.604704E+02 -1.362469E-10
        44  24  3.423287E+05  6.901664E+01  2.686375E+03 -2.997148E-10  8.870300E+02  3.475760E-12
        44  25  3.423286E+05  6.770013E+02  3.258385E+03 -3.942340E+02 -1.607971E+03  1.020535E-03
        44  26  3.421863E+05  1.282066E+02  2.505255E+03 -1.975120E+02 -3.604704E+02  1.146195E-04
        44  27  3.423287E+05  6.901664E+01  2.686375E+03 -7.901160E-01  8.870300E+02 -1.128269E-06
        45   1  3.424027E+05  6.431379E+01  3.084306E+03  2.120321E+02 -1.385322E+03 -4.728767E-04
        45   2  3.420936E+05  4.390669E+02  4.695497E+03 -3.949309E+02 -3.730286E+03  2.371696E-03
        45   3  3.424020E+05  2.063423E+03  8.145165E+03 -1.001884E+03 -6.075220E+03  9.798856E-03
        45   4  3.424027E+05  6.431370E+01  3.084306E+03 -1.827138E-09 -1.385322E+03  8.469919E-11
        45   5  3.420936E+05  4.390666E+02  4.695497E+03 -2.770670E-09 -3.730286E+03 -1.813564E-10
        45   6  3.424020E+05  2.063422E+03  8.145165E+03 -2.136388E-09 -6.075220E+03 -3.572318E-10
        45   7  3.424027E+05  6.431379E+01  3.084306E+03 -2.120321E+02 -1.385322E+03  4.728769E-04
        45   8  3.420936E+05  4.390669E+02  4.695497E+03  3.949309E+02 -3.730286E+03 -2.371697E-03
        45   9  3.424020E+05  2.063423E+03  8.145165E+03  1.001884E+03 -6.075220E+03 -9.798856E-03
        45  10  3.424027E+05  6.431327E+01  3.084302E+03  2.120321E+02 -7.161805E-10  1.457237E-10
        45  11  3.420935E+05  4.390632E+02  4.695471E+03 -3.949309E+02 -5.391425E-11  1.326805E-10
        45  12  3.424020E+05  2.063414E+03  8.145096E+03 -1.001884E+03  6.989909E-10 -1.924425E-10
        45  13  3.424027E+05  6.431319E+01  3.084302E+03 -7.784958E-11 -1.148370E-10  1.775125E-10
        45  14  3.420935E+05  4.390629E+02  4.695471E+03 -1.975472E-09  1.452324E-26  1.626848E-10
        45  15  3.424020E+05  2.063412E+03  8.145095E+03  2.936432E-11 -8.650128E-10 -2.084178E-10
        45  16  3.424027E+05  6.431327E+01  3.084302E+03 -2.120321E+02  2.536032E-10  2.038363E-10
        45  17  3.420935E+05  4.390632E+02  4.695471E+03  3.949309E+02  5.726634E-11  1.942688E-10
        45  18  3.424020E+05  2.063414E+03  8.145096E+03  1.001884E+03 -6.077848E-10 -2.332773E-10
        45  19  3.424027E+05  6.431379E+01  3.084306E+03  2.120321E+02  1.385322E+03  4.728770E-04
        45  20  3.420936E+05  4.390669E+02  4.695497E+03 -3.949309E+02  3.730286E+03 -2.371696E-03
        45  21  3.424020E+05  2.063423E+03  8.145165E+03 -1.001884E+03  6.075220E+03 -9.798856E-03
        45  22  3.424027E+05  6.431370E+01  3.084306E+03 -1.299060E-09  1.385322E+03  2.718582E-10
        45  23  3.420936E+05  4.390666E+02  4.695497E+03 -9.099407E-10  3.730286E+03  5.066431E-10
        45  24  3.424020E+05  2.063422E+03  8.145165E+03 -1.062540E-09  6.075220E+03 -5.672072E-11
        45  25  3.424027E+05  6.431379E+01  3.084306E+03 -2.120321E+02  1.385322E+03 -4.728765E-04
        45  26  3.420936E+05  4.390669E+02  4.695497E+03  3.949309E+02  3.730286E+03  2.371697E-03
        45  27  3.424020E+05  2.063423E+03  8.145165E+03  1.001884E+03  6.075220E+03  9.798856E-03
        46   1  3.435829E+05  2.235097E+03  1.067702E+04  8.980612E+02 -7.470539E+03 -1.080073E-02
        46   2  3.406152E+05  9.826569E+03  1.937903E+04 -1.121248E+04 -1.742344E+04  3.145089E-01
        46   3  3.435777E+05  3.595942E+04  3.919376E+04 -2.332331E+04 -2.737649E+04  1.027933E+00
        46   4  3.435829E+05  2.235096E+03  1.067702E+04 -1.151811E-09 -7.470539E+03 -4.585952E-10
        46   5  3.406151E+05  9.826333E+03  1.937899E+04 -1.662477E-10 -1.742344E+04 -4.906641E-10
        46   6  3.435771E+05  3.595840E+04  3.919361E+04 -1.029897E-09 -2.737649E+04 -1.414363E-10
        46   7  3.435829E+05  2.235097E+03  1.067702E+04 -8.980612E+02 -7.470539E+03  1.080073E-02
        46   8  3.406152E+05  9.826569E+03  1.937903E+04  1.121248E+04 -1.742344E+04 -3.145089E-01
        46   9  3.435777E+05  3.595942E+04  3.919376E+04  2.332331E+04 -2.737649E+04 -1.027933E+00
        46  10  3.435828E+05  2.235082E+03  1.067692E+04  8.980612E+02 -2.880661E-10 -3.605281E-10
        46  11  3.406149E+05  9.826488E+03  1.937846E+04 -1.121248E+04 -5.892056E-10 -2.948204E-10
        46  12  3.435769E+05  3.595922E+04  3.919235E+04 -2.332331E+04 -2.025351E-10 -6.966023E-11
        46  13  3.435828E+05  2.235081E+03  1.067692E+04 -6.522524E-11  5.469819E-10 -3.852950E-10
        46  14  3.406148E+05  9.826251E+03  1.937842E+04 -3.219172E-10 -8.683408E-10 -3.040243E-10
        46  15  3.435763E+05  3.595820E+04  3.919220E+04 -3.093279E-10  5.669804E-12 -8.818878E-11
        46  16  3.435828E+05  2.235082E+03  1.067692E+04 -8.980612E+02  3.611798E-10 -4.115994E-10
        46  17  3.406149E+05  9.826488E+03  1.937846E+04  1.121248E+04 -2.049835E-10 -3.061265E-10
        46  18  3.435769E+05  3.595922E+04  3.919235E+04  2.332331E+04 -4.986023E-11 -7.950603E-11
        46  19  3.435829E+05  2.235097E+03  1.067702E+04  8.980612E+02  7.470539E+03  1.080073E-02
        46  20  3.406152E+05  9.826569E+03  1.937903E+04 -1.121248E+04  1.742344E+04 -3.145089E-01
        46  21  3.435777E+05  3.595942E+04  3.919376E+04 -2.332331E+04  2.737649E+04 -1.027933E+00
        46  22  3.435829E+05  2.235096E+03  1.067702E+04 -8.604432E-10  7.470539E+03 -3.115772E-10
        46  23  3.406151E+05  9.826333E+03  1.937899E+04 -7.468620E-10  1.742344E+04 -1.163146E-10
        46  24  3.435771E+05  3.595840E+04  3.919361E+04 -1.673605E-09  2.737649E+04 -3.332797E-11
        46  25  3.435829E+05  2.235097E+03  1.067702E+04 -8.980612E+02  7.470539E+03 -1.080073E-02
        46  26  3.406152E+05  9.826569E+03  1.937903E+04  1.121248E+04  1.742344E+04  3.145089E-01
        46  27  3.435777E+05  3.595942E+04  3.919376E+04  2.332331E+04  2.737649E+04  1.027933E+00
        47   1 -2.739831E+05 -8.969382E+05 -2.695923E+05  2.280371E+05 -1.007474E+04 -1.054216E+05
        47   2 -1.821687E+05 -7.213455E+05 -1.675599E+05  1.918058E+05 -3.154293E+04 -4.973896E+04
        47   3 -1.281514E+05 -5.624075E+05 -1.112570E+05  1.875062E+05 -3.288244E+04  5.962230E+03
        47   4 -6.017291E+04 -3.204771E+04 -6.579842E+04  1.891287E+05 -1.004623E+04 -4.492947E+04
        47   5 -1.640894E+04 -2.702873E+04 -3.330348E+04  1.731497E+05 -3.152879E+04 -2.782845E+04
        47   6 -3.714210E+03 -3.197100E+04 -1.970600E+04  1.891065E+05 -3.288938E+04 -1.072624E+04
        47   7  1.535915E+05  8.335428E+05  1.379585E+05  1.501656E+05 -1.002534E+04  1.564656E+04
        47   8  1.493237E+05  6.677535E+05  1.009325E+05  1.544720E+05 -3.151598E+04 -5.893960E+03
        47   9  1.207080E+05  4.987424E+05  7.183645E+04  1.907082E+05 -3.289639E+04 -2.742852E+04
        47  10 -2.739862E+05 -8.969502E+05 -2.696134E+05  2.280362E+05  1.174022E-10 -9.213164E-10
        47  11 -1.821704E+05 -7.213484E+05 -1.675665E+05  1.918046E+05 -1.264032E-09 -3.944186E-10
        47  12 -1.281526E+05 -5.624078E+05 -1.112591E+05  1.875064E+05 -1.263955E-10  2.123805E-10
        47  13 -6.017356E+04 -3.204991E+04 -6.580241E+04  1.891284E+05 -1.290385E-10  3.674902E-11
        47  14 -1.641022E+04 -2.702983E+04 -3.330680E+04  1.731490E+05  3.473769E-10 -1.709969E-10
        47  15 -3.715402E+03 -3.197141E+04 -1.970825E+04  1.891062E+05 -4.723066E-10  6.539162E-10
        47  16  1.535913E+05  8.335425E+05  1.379578E+05  1.501657E+05 -4.273745E-10  9.478255E-10
        47  17  1.493226E+05  6.677532E+05  1.009305E+05  1.544719E+05 -1.131688E-09  1.732600E-10
        47  18  1.207067E+05  4.987414E+05  7.183300E+04  1.907075E+05 -1.146829E-09 -5.527965E-10
        47  19 -2.739831E+05 -8.969382E+05 -2.695923E+05  2.280371E+05  1.007474E+04  1.054216E+05
        47  20 -1.821687E+05 -7.213455E+05 -1.675599E+05  1.918058E+05  3.154293E+04  4.973896E+04
        47  21 -1.281514E+05 -5.624075E+05 -1.112570E+05  1.875062E+05  3.288244E+04 -5.962230E+03
        47  22 -6.017291E+04 -3.204771E+04 -6.579842E+04  1.891287E+05  1.004623E+04  4.492947E+04
        47  23 -1.640894E+04 -2.702873E+04 -3.330348E+04  1.731497E+05  3.152879E+04  2.782845E+04
        47  24 -3.714210E+03 -3.197100E+04 -1.970600E+04  1.891065E+05  3.288938E+04  1.072624E+04
        47  25  1.535915E+05  8.335428E+05  1.379585E+05  1.501656E+05  1.002534E+04 -1.564656E+04
        47  26  1.493237E+05  6.677535E+05  1.009325E+05  1.544720E+05  3.151598E+04  5.893960E+03
        47  27  1.207080E+05  4.987424E+05  7.183645E+04  1.907082E+05  3.289639E+04  2.742852E+04
        48   1 -1.023750E+05 -4.530993E+05 -8.796467E+04  1.911880E+05 -2.716311E+04  7.714320E+03
        48   2 -6.048573E+04 -2.849042E+05 -5.341150E+04  1.728302E+05 -1.836016E+04  1.622257E+04
        48   3 -2.252471E+04 -1.187891E+05 -2.538833E+04  1.877383E+05 -8.363236E+03  2.473098E+04
        48   4 -3.393400E+03 -3.011809E+04 -1.614784E+04  1.894029E+05 -2.717110E+04 -8.026158E+03
        48   5 -1.152779E+03 -2.924947E+04 -1.244891E+04  1.727698E+05 -1.837100E+04 -1.808124E+03
        48   6 -2.440330E+03 -3.008952E+04 -1.368734E+04  1.894022E+05 -8.377167E+03  4.407926E+03
        48   7  9.557886E+04  3.930398E+05  5.566410E+04  1.876165E+05 -2.717899E+04 -2.377702E+04
        48   8  5.817706E+04  2.264710E+05  2.851317E+04  1.727093E+05 -1.838183E+04 -1.984597E+04
        48   9  1.764395E+04  5.861902E+04 -1.984856E+03  1.910663E+05 -8.391205E+03 -1.591790E+04
        48  10 -1.023758E+05 -4.530995E+05 -8.796617E+04  1.911882E+05  1.444667E-10 -4.057595E-10
        48  11 -6.048616E+04 -2.849046E+05 -5.341263E+04  1.728304E+05 -2.630491E-10  1.109257E-10
        48  12 -2.252495E+04 -1.187898E+05 -2.538961E+04  1.877384E+05 -6.018324E-10  5.887662E-10
        48  13 -3.394210E+03 -3.011836E+04 -1.614935E+04  1.894028E+05  1.745959E-10  3.263673E-10
        48  14 -1.153142E+03 -2.924956E+04 -1.244955E+04  1.727698E+05 -2.114377E-10 -3.678429E-10
        48  15 -2.440411E+03 -3.008956E+04 -1.368751E+04  1.894022E+05 -9.796932E-10  9.896030E-10
        48  16  9.557792E+04  3.930390E+05  5.566165E+04  1.876160E+05 -1.203409E-09  4.129096E-10
        48  17  5.817659E+04  2.264705E+05  2.851180E+04  1.727091E+05 -1.321446E-09 -6.019054E-10
        48  18  1.764381E+04  5.861873E+04 -1.985465E+03  1.910662E+05 -8.049410E-11 -1.078408E-09
        48  19 -1.023750E+05 -4.530993E+05 -8.796467E+04  1.911880E+05  2.716311E+04 -7.714320E+03
        48  20 -6.048573E+04 -2.849042E+05 -5.341150E+04  1.728302E+05  1.836016E+04 -1.622257E+04
        48  21 -2.252471E+04 -1.187891E+05 -2.538833E+04  1.877383E+05  8.363236E+03 -2.473098E+04
        48  22 -3.393400E+03 -3.011809E+04 -1.614784E+04  1.894029E+05  2.717110E+04  8.026158E+03
        48  23 -1.152779E+03 -2.924947E+04 -1.244891E+04  1.727698E+05  1.837100E+04  1.808124E+03
        48  24 -2.440330E+03 -3.008952E+04 -1.368734E+04  1.894022E+05  8.377167E+03 -4.407926E+03
        48  25  9.557886E+04  3.930398E+05  5.566410E+04  1.876165E+05  2.717899E+04  2.377702E+04
        48  26  5.817706E+04  2.264710E+05  2.851317E+04  1.727093E+05  1.838183E+04  1.984597E+04
        48  27  1.764395E+04  5.861902E+04 -1.984856E+03  1.910663E+05  8.391205E+03  1.591790E+04
        49   1  2.334507E+03 -1.313620E+04 -9.079188E+03  1.902792E+05 -1.729310E+03  2.732213E+04
        49   2  3.289125E+04  1.563758E+05  1.507063E+04  1.590195E+05  4.663020E+03  2.344741E+04
        49   3  4.341220E+04  3.213914E+05  3.672673E+04  1.605553E+05  2.328993E+03  1.957403E+04
        49   4 -2.660314E+03 -3.136039E+04 -1.582220E+04  1.892970E+05 -1.743773E+03  6.662039E+03
        49   5 -1.192994E+04 -2.765351E+04 -2.512092E+04  1.729080E+05  4.661089E+03  1.954078E+04
        49   6 -4.414704E+04 -3.138122E+04 -4.854976E+04  1.893190E+05  2.338209E+03  3.242154E+04
        49   7 -7.654939E+03 -4.958340E+04 -2.256363E+04  1.883147E+05 -1.758172E+03 -1.399741E+04
        49   8 -5.675265E+04 -2.116506E+05 -6.531436E+04  1.867923E+05  4.658982E+03  1.563530E+04
        49   9 -1.317122E+05 -3.840380E+05 -1.338341E+05  2.180663E+05  2.348618E+03  4.526177E+04
        49  10  2.334303E+03 -1.313700E+04 -9.080596E+03  1.902792E+05 -7.385840E-10 -5.869367E-10
        49  11  3.289107E+04  1.563752E+05  1.506955E+04  1.590194E+05 -2.410571E-10  1.559051E-11
        49  12  4.341209E+04  3.213910E+05  3.672600E+04  1.605553E+05 -7.588103E-11  5.280156E-10
        49  13 -2.660329E+03 -3.136044E+04 -1.582228E+04  1.892970E+05 -1.159352E-10  4.310695E-10
        49  14 -1.193007E+04 -2.765392E+04 -2.512168E+04  1.729079E+05  6.461799E-11 -4.022266E-10
        49  15 -4.414733E+04 -3.138235E+04 -4.855175E+04  1.893190E+05  5.213644E-11  8.652747E-10
        49  16 -7.654995E+03 -4.958361E+04 -2.256401E+04  1.883147E+05  3.053565E-10  5.891120E-10
        49  17 -5.675274E+04 -2.116509E+05 -6.531486E+04  1.867922E+05  6.887740E-10 -4.986522E-10
        49  18 -1.317127E+05 -3.840402E+05 -1.338380E+05  2.180662E+05  3.000920E-10 -9.196203E-10
        49  19  2.334507E+03 -1.313620E+04 -9.079188E+03  1.902792E+05  1.729310E+03 -2.732213E+04
        49  20  3.289125E+04  1.563758E+05  1.507063E+04  1.590195E+05 -4.663020E+03 -2.344741E+04
        49  21  4.341220E+04  3.213914E+05  3.672673E+04  1.605553E+05 -2.328993E+03 -1.957403E+04
        49  22 -2.660314E+03 -3.136039E+04 -1.582220E+04  1.892970E+05  1.743773E+03 -6.662039E+03
        49  23 -1.192994E+04 -2.765351E+04 -2.512092E+04  1.729080E+05 -4.661089E+03 -1.954078E+04
        49  24 -4.414704E+04 -3.138122E+04 -4.854976E+04  1.893190E+05 -2.338209E+03 -3.242154E+04
        49  25 -7.654939E+03 -4.958340E+04 -2.256363E+04  1.883147E+05  1.758172E+03  1.399741E+04
        49  26 -5.675265E+04 -2.116506E+05 -6.531436E+04  1.867923E+05 -4.658982E+03 -1.563530E+04
        49  27 -1.317122E+05 -3.840380E+05 -1.338341E+05  2.180663E+05 -2.348618E+03 -4.526177E+04
        50   1  1.477261E+05 -1.852079E+03 -2.012780E+03 -1.196750E+03 -1.442485E+03  2.779972E-03
        50   2  1.478777E+05 -5.076240E+02 -9.676120E+02 -5.716965E+02 -9.449430E+02  8.699552E-04
        50   3  1.477260E+05 -1.175072E+02 -4.848912E+02  5.335680E+01 -4.474012E+02 -3.844258E-05
        50   4  1.477261E+05 -1.852082E+03 -2.012781E+03 -4.796146E-10 -1.442485E+03 -9.373596E-11
        50   5  1.478777E+05 -5.076246E+02 -9.676121E+02  1.435868E-10 -9.449430E+02 -2.086064E-10
        50   6  1.477260E+05 -1.175072E+02 -4.848912E+02  1.625321E-10 -4.474012E+02  1.713729E-11
        50   7  1.477261E+05 -1.852079E+03 -2.012780E+03  1.196750E+03 -1.442485E+03 -2.779972E-03
        50   8  1.478777E+05 -5.076240E+02 -9.676120E+02  5.716965E+02 -9.449430E+02 -8.699556E-04
        50   9  1.477260E+05 -1.175072E+02 -4.848912E+02 -5.335680E+01 -4.474012E+02  3.844260E-05
        50  10  1.477261E+05 -1.852080E+03 -2.012784E+03 -1.196750E+03  6.718504E-10 -5.651621E-11
        50  11  1.478777E+05 -5.076242E+02 -9.676137E+02 -5.716965E+02  1.907918E-10 -1.500855E-10
        50  12  1.477260E+05 -1.175072E+02 -4.848916E+02  5.335680E+01  2.692845E-10 -7.543385E-11
        50  13  1.477261E+05 -1.852083E+03 -2.012785E+03 -5.711263E-10  3.742512E-10 -3.868914E-11
        50  14  1.478777E+05 -5.076248E+02 -9.676138E+02 -2.797621E-10  1.184133E-09 -1.119734E-10
        50  15  1.477260E+05 -1.175072E+02 -4.848916E+02  1.220115E-09  4.849734E-10 -9.398283E-11
        50  16  1.477261E+05 -1.852080E+03 -2.012784E+03  1.196750E+03  3.017555E-11 -1.572914E-11
        50  17  1.478777E+05 -5.076242E+02 -9.676137E+02  5.716965E+02 -7.025367E-10 -7.543225E-11
        50  18  1.477260E+05 -1.175072E+02 -4.848916E+02 -5.335680E+01 -3.637556E-10 -1.124535E-10
        50  19  1.477261E+05 -1.852079E+03 -2.012780E+03 -1.196750E+03  1.442485E+03 -2.779972E-03
        50  20  1.478777E+05 -5.076240E+02 -9.676120E+02 -5.716965E+02  9.449430E+02 -8.699555E-04
        50  21  1.477260E+05 -1.175072E+02 -4.848912E+02  5.335680E+01  4.474012E+02  3.844242E-05
        50  22  1.477261E+05 -1.852082E+03 -2.012781E+03 -3.902230E-10  1.442485E+03  1.682563E-11
        50  23  1.478777E+05 -5.076246E+02 -9.676121E+02 -2.187194E-09  9.449430E+02 -1.750779E-11
        50  24  1.477260E+05 -1.175072E+02 -4.848912E+02 -1.391490E-09  4.474012E+02 -2.040098E-10
        50  25  1.477261E+05 -1.852079E+03 -2.012780E+03  1.196750E+03  1.442485E+03  2.779972E-03
        50  26  1.478777E+05 -5.076240E+02 -9.676120E+02  5.716965E+02  9.449430E+02  8.699555E-04
        50  27  1.477260E+05 -1.175072E+02 -4.848912E+02 -5.335680E+01  4.474012E+02 -3.844282E-05
        51   1  1.477893E+05 -1.095327E+02 -3.305425E+02 -4.178813E+01 -3.894031E+02  2.620486E-05
        51   2  1.477985E+05 -2.605916E+01 -8.159248E+01 -9.152454E+00 -3.480246E+02  5.129738E-06
        51   3  1.477893E+05  4.913972E+00  1.273002E+02  2.348273E+01 -3.066467E+02 -1.159586E-05
        51   4  1.477893E+05 -1.095327E+02 -3.305425E+02 -3.644367E-10 -3.894031E+02  1.851682E-10
        51   5  1.477985E+05 -2.605916E+01 -8.159248E+01  3.044887E-10 -3.480246E+02  2.893937E-10
        51   6  1.477893E+05  4.913971E+00  1.273002E+02 -2.040705E-10 -3.066467E+02  3.528978E-10
        51   7  1.477893E+05 -1.095327E+02 -3.305425E+02  4.178813E+01 -3.894031E+02 -2.620448E-05
        51   8  1.477985E+05 -2.605916E+01 -8.159248E+01  9.152454E+00 -3.480246E+02 -5.129150E-06
        51   9  1.477893E+05  4.913972E+00  1.273002E+02 -2.348273E+01 -3.066467E+02  1.159657E-05
        51  10  1.477893E+05 -1.095328E+02 -3.305428E+02 -4.178813E+01  5.004343E-11 -2.566777E-11
        51  11  1.477985E+05 -2.605919E+01 -8.159271E+01 -9.152454E+00 -5.982580E-10  2.726673E-11
        51  12  1.477893E+05  4.913947E+00  1.273001E+02  2.348273E+01 -2.860924E-10  1.806254E-10
        51  13  1.477893E+05 -1.095328E+02 -3.305428E+02  1.306343E-09 -2.650521E-10 -5.650414E-11
        51  14  1.477985E+05 -2.605919E+01 -8.159271E+01  1.108594E-09 -5.919395E-10  6.425512E-11
        51  15  1.477893E+05  4.913946E+00  1.273001E+02  9.108447E-10  7.005490E-11  2.869610E-10
        51  16  1.477893E+05 -1.095328E+02 -3.305428E+02  4.178813E+01  1.882982E-10 -8.560047E-11
        51  17  1.477985E+05 -2.605919E+01 -8.159271E+01  9.152454E+00 -3.320746E-11  9.691604E-11
        51  18  1.477893E+05  4.913947E+00  1.273001E+02 -2.348273E+01  2.671411E-11  3.839468E-10
        51  19  1.477893E+05 -1.095327E+02 -3.305425E+02 -4.178813E+01  3.894031E+02 -2.620492E-05
        51  20  1.477985E+05 -2.605916E+01 -8.159248E+01 -9.152454E+00  3.480246E+02 -5.129704E-06
        51  21  1.477893E+05  4.913972E+00  1.273002E+02  2.348273E+01  3.066467E+02  1.159624E-05
        51  22  1.477893E+05 -1.095327E+02 -3.305425E+02 -1.600290E-09  3.894031E+02 -2.970661E-10
        51  23  1.477985E+05 -2.605916E+01 -8.159248E+01  1.104395E-09  3.480246E+02 -1.576713E-10
        51  24  1.477893E+05  4.913971E+00  1.273002E+02 -7.672821E-10  3.066467E+02  2.154954E-10
        51  25  1.477893E+05 -1.095327E+02 -3.305425E+02  4.178813E+01  3.894031E+02  2.620433E-05
        51  26  1.477985E+05 -2.605916E+01 -8.159248E+01  9.152454E+00  3.480246E+02  5.129372E-06
        51  27  1.477893E+05  4.913972E+00  1.273002E+02 -2.348273E+01  3.066467E+02 -1.159580E-05
        52   1  1.478103E+05  3.574369E+00  2.402820E+02  3.693897E+01 -3.383840E+02 -2.012878E-05
        52   2  1.477723E+05  6.218823E+01  5.402814E+02 -4.688152E+01 -6.085835E+02  4.594594E-05
        52   3  1.478102E+05  2.840992E+02  1.056983E+03 -1.307032E+02 -8.787870E+02  1.849677E-04
        52   4  1.478103E+05  3.574367E+00  2.402820E+02  1.945931E-11 -3.383840E+02  2.151235E-10
        52   5  1.477723E+05  6.218823E+01  5.402814E+02 -4.580759E-10 -6.085835E+02 -9.534010E-11
        52   6  1.478102E+05  2.840992E+02  1.056983E+03 -4.620403E-10 -8.787870E+02 -9.104601E-11
        52   7  1.478103E+05  3.574369E+00  2.402820E+02 -3.693897E+01 -3.383840E+02  2.012921E-05
        52   8  1.477723E+05  6.218823E+01  5.402814E+02  4.688152E+01 -6.085835E+02 -4.594612E-05
        52   9  1.478102E+05  2.840992E+02  1.056983E+03  1.307032E+02 -8.787870E+02 -1.849679E-04
        52  10  1.478103E+05  3.574338E+00  2.402818E+02  3.693897E+01  6.617330E-10  1.260200E-10
        52  11  1.477723E+05  6.218813E+01  5.402807E+02 -4.688152E+01  3.305704E-10 -4.337288E-11
        52  12  1.478102E+05  2.840990E+02  1.056982E+03 -1.307032E+02 -6.942897E-10  1.613727E-10
        52  13  1.478103E+05  3.574336E+00  2.402818E+02  7.141473E-10 -2.650522E-10  2.047816E-10
        52  14  1.477723E+05  6.218813E+01  5.402807E+02  1.248459E-09 -2.692597E-10 -7.444778E-11
        52  15  1.478102E+05  2.840990E+02  1.056982E+03  4.333173E-10  4.663309E-10  9.027051E-11
        52  16  1.478103E+05  3.574338E+00  2.402818E+02 -3.693897E+01 -6.224311E-10  2.829528E-10
        52  17  1.477723E+05  6.218813E+01  5.402807E+02  4.688152E+01  4.759779E-10 -1.026249E-10
        52  18  1.478102E+05  2.840990E+02  1.056982E+03  1.307032E+02  9.869592E-10  1.794123E-11
        52  19  1.478103E+05  3.574369E+00  2.402820E+02  3.693897E+01  3.383840E+02  2.012904E-05
        52  20  1.477723E+05  6.218823E+01  5.402814E+02 -4.688152E+01  6.085835E+02 -4.594605E-05
        52  21  1.478102E+05  2.840992E+02  1.056983E+03 -1.307032E+02  8.787870E+02 -1.849674E-04
        52  22  1.478103E+05  3.574367E+00  2.402820E+02 -1.275082E-09  3.383840E+02  1.945343E-10
        52  23  1.477723E+05  6.218823E+01  5.402814E+02  1.071229E-09  6.085835E+02 -5.432502E-11
        52  24  1.478102E+05  2.840992E+02  1.056983E+03  1.235066E-09  8.787870E+02  2.719723E-10
        52  25  1.478103E+05  3.574369E+00  2.402820E+02 -3.693897E+01  3.383840E+02 -2.012864E-05
        52  26  1.477723E+05  6.218823E+01  5.402814E+02  4.688152E+01  6.085835E+02  4.594592E-05
        52  27  1.478102E+05  2.840992E+02  1.056983E+03  1.307032E+02  8.787870E+02  1.849679E-04
        53   1  1.479732E+05  3.069688E+02  1.418233E+03  1.273396E+02 -1.060682E+03 -2.175077E-04
        53   2  1.475684E+05  1.344096E+03  2.629626E+03 -1.528838E+03 -2.411593E+03  5.937337E-03
        53   3  1.479729E+05  4.915578E+03  5.353959E+03 -3.185018E+03 -3.762505E+03  1.929812E-02
        53   4  1.479732E+05  3.069688E+02  1.418233E+03 -2.942411E-10 -1.060682E+03 -1.782958E-11
        53   5  1.475684E+05  1.344092E+03  2.629625E+03 -2.595220E-10 -2.411593E+03  9.563870E-12
        53   6  1.479729E+05  4.915559E+03  5.353957E+03 -8.974279E-10 -3.762505E+03  1.450189E-11
        53   7  1.479732E+05  3.069688E+02  1.418233E+03 -1.273396E+02 -1.060682E+03  2.175077E-04
        53   8  1.475684E+05  1.344096E+03  2.629626E+03  1.528838E+03 -2.411593E+03 -5.937337E-03
        53   9  1.479729E+05  4.915578E+03  5.353959E+03  3.185018E+03 -3.762505E+03 -1.929812E-02
        53  10  1.479732E+05  3.069685E+02  1.418231E+03  1.273396E+02  4.579747E-10  6.047566E-11
        53  11  1.475684E+05  1.344095E+03  2.629615E+03 -1.528838E+03  1.323930E-10 -3.515593E-10
        53  12  1.479729E+05  4.915574E+03  5.353933E+03 -3.185018E+03  1.112727E-10 -1.669268E-10
        53  13  1.479732E+05  3.069685E+02  1.418231E+03 -1.882825E-10  3.793926E-10  1.543903E-10
        53  14  1.475684E+05  1.344090E+03  2.629614E+03 -9.992008E-10  4.283871E-10  5.596278E-12
        53  15  1.479729E+05  4.915555E+03  5.353930E+03  1.151738E-09  4.216775E-10 -1.718817E-11
        53  16  1.479732E+05  3.069685E+02  1.418231E+03 -1.273396E+02  1.060143E-10  2.462491E-10
        53  17  1.475684E+05  1.344095E+03  2.629615E+03  1.528838E+03  5.528023E-11  3.656273E-10
        53  18  1.479729E+05  4.915574E+03  5.353933E+03  3.185018E+03  6.687511E-11  1.322166E-10
        53  19  1.479732E+05  3.069688E+02  1.418233E+03  1.273396E+02  1.060682E+03  2.175078E-04
        53  20  1.475684E+05  1.344096E+03  2.629626E+03 -1.528838E+03  2.411593E+03 -5.937338E-03
        53  21  1.479729E+05  4.915578E+03  5.353959E+03 -3.185018E+03  3.762505E+03 -1.929812E-02
        53  22  1.479732E+05  3.069688E+02  1.418233E+03 -6.179500E-10  1.060682E+03  3.278729E-10
        53  23  1.475684E+05  1.344092E+03  2.629625E+03 -5.264227E-10  2.411593E+03  3.252613E-12
        53  24  1.479729E+05  4.915559E+03  5.353957E+03 -7.378143E-10  3.762505E+03 -4.448184E-11
        53  25  1.479732E+05  3.069688E+02  1.418233E+03 -1.273396E+02  1.060682E+03 -2.175072E-04
        53  26  1.475684E+05  1.344096E+03  2.629626E+03  1.528838E+03  2.411593E+03  5.937338E-03
        53  27  1.479729E+05  4.915578E+03  5.353959E+03  3.185018E+03  3.762505E+03  1.929812E-02
        54   1 -2.568403E+05 -9.210134E+05 -2.497914E+05  2.243352E+05 -1.037575E+04 -8.803431E+04
        54   2 -1.805961E+05 -7.359893E+05 -1.580927E+05  1.956137E+05 -3.237785E+04 -3.798829E+04
        54   3 -1.291827E+05 -5.636354E+05 -1.052101E+05  2.010533E+05 -3.343246E+04  1.207522E+04
        54   4 -3.457422E+04 -2.206041E+04 -3.785929E+04  2.020646E+05 -1.034861E+04 -2.572719E+04
        54   5 -9.408220E+03 -1.916233E+04 -1.925490E+04  1.849766E+05 -3.236372E+04 -1.583629E+04
        54   6 -2.078714E+03 -2.197638E+04 -1.154637E+04  2.020513E+05 -3.344059E+04 -5.944254E+03
        54   7  1.876380E+05  8.776461E+05  1.740320E+05  1.797614E+05 -1.032597E+04  3.666975E+04
        54   8  1.617497E+05  6.981601E+05  1.195607E+05  1.743267E+05 -3.235037E+04  6.340743E+03
        54   9  1.250097E+05  5.199714E+05  8.210849E+04  2.030501E+05 -3.344878E+04 -2.397897E+04
        54  10 -2.568425E+05 -9.210217E+05 -2.498062E+05  2.243345E+05 -2.450977E-10 -6.075143E-10
        54  11 -1.805977E+05 -7.359911E+05 -1.580973E+05  1.956127E+05 -9.206869E-10  1.703424E-10
        54  12 -1.291839E+05 -5.636359E+05 -1.052125E+05  2.010537E+05 -7.802561E-10  4.314647E-10
        54  13 -3.457451E+04 -2.206115E+04 -3.786073E+04  2.020644E+05  1.551514E-10 -4.100778E-12
        54  14 -9.409412E+03 -1.916288E+04 -1.925734E+04  1.849762E+05 -1.108185E-09  1.779274E-10
        54  15 -2.079924E+03 -2.197672E+04 -1.154854E+04  2.020511E+05 -7.591960E-10  2.640911E-10
        54  16  1.876375E+05  8.776446E+05  1.740292E+05  1.797617E+05  2.019197E-11  5.863253E-10
        54  17  1.617486E+05  6.981597E+05  1.195586E+05  1.743269E+05 -1.712052E-10  2.123943E-10
        54  18  1.250083E+05  5.199705E+05  8.210531E+04  2.030495E+05  2.398181E-10 -5.757644E-10
        54  19 -2.568403E+05 -9.210134E+05 -2.497914E+05  2.243352E+05  1.037575E+04  8.803431E+04
        54  20 -1.805961E+05 -7.359893E+05 -1.580927E+05  1.956137E+05  3.237785E+04  3.798829E+04
        54  21 -1.291827E+05 -5.636354E+05 -1.052101E+05  2.010533E+05  3.343246E+04 -1.207522E+04
        54  22 -3.457422E+04 -2.206041E+04 -3.785929E+04  2.020646E+05  1.034861E+04  2.572719E+04
        54  23 -9.408220E+03 -1.916233E+04 -1.925490E+04  1.849766E+05  3.236372E+04  1.583629E+04
        54  24 -2.078714E+03 -2.197638E+04 -1.154637E+04  2.020513E+05  3.344059E+04  5.944254E+03
        54  25  1.876380E+05  8.776461E+05  1.740320E+05  1.797614E+05  1.032597E+04 -3.666975E+04
        54  26  1.617497E+05  6.981601E+05  1.195607E+05  1.743267E+05  3.235037E+04 -6.340743E+03
        54  27  1.250097E+05  5.199714E+05  8.210849E+04  2.030501E+05  3.344878E+04  2.397897E+04
        55   1 -1.018071E+05 -4.478071E+05 -8.222575E+04  2.033407E+05 -2.727828E+04  1.268788E+04
        55   2 -5.822248E+04 -2.685132E+05 -4.746052E+04  1.845331E+05 -1.781717E+04  1.875793E+04
        55   3 -1.719606E+04 -9.063690E+04 -1.729552E+04  2.012657E+05 -7.197276E+03  2.482758E+04
        55   4 -1.878833E+03 -2.092236E+04 -9.582374E+03  2.023578E+05 -2.728756E+04 -4.350624E+03
        55   5 -6.349218E+02 -2.037639E+04 -7.702980E+03  1.845878E+05 -1.782938E+04 -5.048566E+02
        55   6 -1.560888E+03 -2.089274E+04 -8.877950E+03  2.023575E+05 -7.212677E+03  3.338865E+03
        55   7  9.803992E+04  4.061424E+05  6.305612E+04  2.013742E+05 -2.729678E+04 -2.140048E+04
        55   8  5.694974E+04  2.278224E+05  3.205433E+04  1.846426E+05 -1.784159E+04 -1.977507E+04
        55   9  1.407435E+04  4.885744E+04 -4.586362E+02  2.034495E+05 -7.228152E+03 -1.815214E+04
        55  10 -1.018079E+05 -4.478075E+05 -8.222745E+04  2.033410E+05 -8.477914E-10 -3.046187E-10
        55  11 -5.822291E+04 -2.685136E+05 -4.746178E+04  1.845334E+05 -8.249950E-10  9.908687E-10
        55  12 -1.719628E+04 -9.063758E+04 -1.729678E+04  2.012658E+05 -9.191777E-11  1.275018E-09
        55  13 -1.879637E+03 -2.092258E+04 -9.583809E+03  2.023577E+05 -6.122772E-10 -6.261731E-13
        55  14 -6.352632E+02 -2.037648E+04 -7.703578E+03  1.845878E+05  9.612800E-11  3.943552E-10
        55  15 -1.560947E+03 -2.089276E+04 -8.878068E+03  2.023575E+05  8.617765E-10  3.624780E-10
        55  16  9.803899E+04  4.061417E+05  6.305386E+04  2.013737E+05  2.298273E-10  1.428338E-10
        55  17  5.694929E+04  2.278219E+05  3.205300E+04  1.846423E+05 -4.700932E-10 -1.687965E-10
        55  18  1.407420E+04  4.885707E+04 -4.593533E+02  2.034494E+05  5.758632E-10 -1.475648E-09
        55  19 -1.018071E+05 -4.478071E+05 -8.222575E+04  2.033407E+05  2.727828E+04 -1.268788E+04
        55  20 -5.822248E+04 -2.685132E+05 -4.746052E+04  1.845331E+05  1.781717E+04 -1.875793E+04
        55  21 -1.719606E+04 -9.063690E+04 -1.729552E+04  2.012657E+05  7.197276E+03 -2.482758E+04
        55  22 -1.878833E+03 -2.092236E+04 -9.582374E+03  2.023578E+05  2.728756E+04  4.350624E+03
        55  23 -6.349218E+02 -2.037639E+04 -7.702980E+03  1.845878E+05  1.782938E+04  5.048566E+02
        55  24 -1.560888E+03 -2.089274E+04 -8.877950E+03  2.023575E+05  7.212677E+03 -3.338865E+03
        55  25  9.803992E+04  4.061424E+05  6.305612E+04  2.013742E+05  2.729678E+04  2.140048E+04
        55  26  5.694974E+04  2.278224E+05  3.205433E+04  1.846426E+05  1.784159E+04  1.977507E+04
        55  27  1.407435E+04  4.885744E+04 -4.586362E+02  2.034495E+05  7.228152E+03  1.815214E+04
        56   1  9.466036E+03  2.274705E+04  9.130503E+02  2.029354E+05 -1.554441E+02  2.668348E+04
        56   2  4.577511E+04  2.023061E+05  3.062624E+04  1.753797E+05  6.290144E+03  1.638662E+04
        56   3  6.983363E+04  3.801537E+05  6.397132E+04  1.828193E+05  2.856645E+03  6.089505E+03
        56   4 -1.709317E+03 -2.177514E+04 -1.043724E+04  2.022361E+05 -1.713086E+02  4.804892E+03
        56   5 -8.028737E+03 -1.927028E+04 -1.691124E+04  1.847444E+05  6.288600E+03  1.347710E+04
        56   6 -2.989304E+04 -2.180142E+04 -3.292680E+04  2.022515E+05  2.867454E+03  2.215162E+04
        56   7 -1.288456E+04 -6.629452E+04 -2.178588E+04  2.015369E+05 -1.871245E+02 -1.707213E+04
        56   8 -6.183547E+04 -2.408003E+05 -6.445151E+04  1.941056E+05  6.286968E+03  1.056861E+04
        56   9 -1.296299E+05 -4.236074E+05 -1.298353E+05  2.216711E+05  2.879273E+03  3.820337E+04
        56  10  9.465845E+03  2.274629E+04  9.117123E+02  2.029354E+05  5.519617E-10 -3.330847E-10
        56  11  4.577500E+04  2.023058E+05  3.062566E+04  1.753796E+05 -1.491830E-11  4.186708E-10
        56  12  6.983361E+04  3.801536E+05  6.397123E+04  1.828192E+05  1.546772E-10  2.712547E-10
        56  13 -1.709323E+03 -2.177517E+04 -1.043728E+04  2.022361E+05  5.688091E-10  3.023662E-12
        56  14 -8.028828E+03 -1.927049E+04 -1.691166E+04  1.847443E+05  1.587186E-10  4.106477E-10
        56  15 -2.989318E+04 -2.180195E+04 -3.292773E+04  2.022515E+05  3.180191E-10  3.132269E-10
        56  16 -1.288464E+04 -6.629484E+04 -2.178643E+04  2.015369E+05  8.541908E-10  1.353472E-10
        56  17 -6.183554E+04 -2.408005E+05 -6.445179E+04  1.941056E+05 -7.650259E-10  4.248555E-10
        56  18 -1.296303E+05 -4.236090E+05 -1.298380E+05  2.216710E+05  8.200453E-11 -4.832270E-10
        56  19  9.466036E+03  2.274705E+04  9.130503E+02  2.029354E+05  1.554441E+02 -2.668348E+04
        56  20  4.577511E+04  2.023061E+05  3.062624E+04  1.753797E+05 -6.290144E+03 -1.638662E+04
        56  21  6.983363E+04  3.801537E+05  6.397132E+04  1.828193E+05 -2.856645E+03 -6.089505E+03
        56  22 -1.709317E+03 -2.177514E+04 -1.043724E+04  2.022361E+05  1.713086E+02 -4.804892E+03
        56  23 -8.028737E+03 -1.927028E+04 -1.691124E+04  1.847444E+05 -6.288600E+03 -1.347710E+04
        56  24 -2.989304E+04 -2.180142E+04 -3.292680E+04  2.022515E+05 -2.867454E+03 -2.215162E+04
        56  25 -1.288456E+04 -6.629452E+04 -2.178588E+04  2.015369E+05  1.871245E+02  1.707213E+04
        56  26 -6.183547E+04 -2.408003E+05 -6.445151E+04  1.941056E+05 -6.286968E+03 -1.056861E+04
        56  27 -1.296299E+05 -4.236074E+05 -1.298353E+05  2.216711E+05 -2.879273E+03 -3.820337E+04
        57   1 -2.373991E+05 -8.448730E+05 -2.262935E+05  1.568262E+05 -1.173496E+04 -7.474908E+04
        57   2 -1.920245E+05 -7.050258E+05 -1.559925E+05  1.422301E+05 -3.803260E+04 -3.152172E+04
        57   3 -1.566176E+05 -5.732434E+05 -1.163402E+05  1.531647E+05 -4.271712E+04  1.171815E+04
        57   4 -5.403563E+03  9.439399E+04 -6.017639E+03  1.534678E+05 -1.171258E+04 -3.557645E+03
        57   5 -1.481764E+03  9.486844E+04 -3.469645E+03  1.407018E+05 -3.801627E+04 -1.770591E+03
        57   6 -3.216115E+02  9.446428E+04 -2.768189E+03  1.534658E+05 -4.271936E+04  1.784536E+01
        57   7  2.265320E+05  1.034485E+06  2.142170E+05  1.501043E+05 -1.169101E+04  6.774094E+04
        57   8  1.890238E+05  8.953817E+05  1.490276E+05  1.391712E+05 -3.800009E+04  2.801799E+04
        57   9  1.559508E+05  7.626112E+05  1.107897E+05  1.537672E+05 -4.272161E+04 -1.169465E+04
        57  10 -2.374008E+05 -8.448791E+05 -2.263043E+05  1.568255E+05 -6.511267E-11 -1.181754E-09
        57  11 -1.920263E+05 -7.050273E+05 -1.559970E+05  1.422292E+05 -4.158830E-11 -1.314440E-10
        57  12 -1.566196E+05 -5.732441E+05 -1.163439E+05  1.531651E+05 -3.724197E-10  9.993417E-10
        57  13 -5.403714E+03  9.439394E+04 -6.017921E+03  1.534678E+05 -4.548176E-10  3.845852E-11
        57  14 -1.483317E+03  9.486805E+04 -3.472367E+03  1.407017E+05 -1.303272E-09  3.959856E-10
        57  15 -3.235713E+02  9.446379E+04 -2.771619E+03  1.534658E+05 -1.152210E-09  2.088343E-10
        57  16  2.265306E+05  1.034480E+06  2.142082E+05  1.501049E+05 -3.277699E-10  1.182467E-09
        57  17  1.890221E+05  8.953804E+05  1.490234E+05  1.391721E+05 -6.301350E-10  4.665769E-10
        57  18  1.559488E+05  7.626106E+05  1.107860E+05  1.537668E+05 -1.959029E-10 -8.442819E-10
        57  19 -2.373991E+05 -8.448730E+05 -2.262935E+05  1.568262E+05  1.173496E+04  7.474908E+04
        57  20 -1.920245E+05 -7.050258E+05 -1.559925E+05  1.422301E+05  3.803260E+04  3.152172E+04
        57  21 -1.566176E+05 -5.732434E+05 -1.163402E+05  1.531647E+05  4.271712E+04 -1.171815E+04
        57  22 -5.403563E+03  9.439399E+04 -6.017639E+03  1.534678E+05  1.171258E+04  3.557645E+03
        57  23 -1.481764E+03  9.486844E+04 -3.469645E+03  1.407018E+05  3.801627E+04  1.770591E+03
        57  24 -3.216115E+02  9.446428E+04 -2.768189E+03  1.534658E+05  4.271936E+04 -1.784536E+01
        57  25  2.265320E+05  1.034485E+06  2.142170E+05  1.501043E+05  1.169101E+04 -6.774094E+04
        57  26  1.890238E+05  8.953817E+05  1.490276E+05  1.391712E+05  3.800009E+04 -2.801799E+04
        57  27  1.559508E+05  7.626112E+05  1.107897E+05  1.537672E+05  4.272161E+04  1.169465E+04
        58   1 -1.357258E+05 -4.856571E+05 -9.977689E+04  1.538870E+05 -3.850050E+04  1.111046E+04
        58   2 -1.033654E+05 -3.494126E+05 -7.479041E+04  1.399058E+05 -3.190919E+04  1.689447E+04
        58   3 -7.269763E+04 -2.143347E+05 -5.399692E+04  1.529245E+05 -2.324329E+04  2.267655E+04
        58   4 -2.606084E+02  9.457027E+04 -2.818863E+03  1.537922E+05 -3.850366E+04  4.604578E+02
        58   5 -2.647400E+02  9.483708E+04 -3.610914E+03  1.402931E+05 -3.191679E+04  2.263700E+03
        58   6 -1.268813E+03  9.461066E+04 -5.830170E+03  1.537927E+05 -2.325610E+04  4.063825E+03
        58   7  1.351871E+05  6.751303E+05  9.412920E+04  1.536971E+05 -3.850682E+04 -1.019917E+04
        58   8  1.028262E+05  5.392834E+05  6.756417E+04  1.406806E+05 -3.192441E+04 -1.237716E+04
        58   9  7.015551E+04  4.036521E+05  4.233563E+04  1.546614E+05 -2.326896E+04 -1.455781E+04
        58  10 -1.357275E+05 -4.856577E+05 -9.977990E+04  1.538874E+05 -5.331922E-10  2.853656E-10
        58  11 -1.033666E+05 -3.494132E+05 -7.479286E+04  1.399063E+05 -1.856667E-10  3.422540E-10
        58  12 -7.269835E+04 -2.143354E+05 -5.399890E+04  1.529249E+05  2.643573E-10  7.777901E-11
        58  13 -2.622006E+02  9.456987E+04 -2.821650E+03  1.537922E+05 -4.853125E-10  3.926699E-10
        58  14 -2.658353E+02  9.483680E+04 -3.612838E+03  1.402932E+05  4.045235E-10  9.445986E-10
        58  15 -1.269399E+03  9.461050E+04 -5.831218E+03  1.537928E+05 -6.496100E-10  3.106929E-10
        58  16  1.351855E+05  6.751298E+05  9.412622E+04  1.536968E+05 -1.285258E-10 -4.695775E-10
        58  17  1.028250E+05  5.392829E+05  6.756196E+04  1.406803E+05  5.153578E-10  4.596968E-10
        58  18  7.015487E+04  4.036517E+05  4.233421E+04  1.546611E+05  1.493916E-10  1.834784E-10
        58  19 -1.357258E+05 -4.856571E+05 -9.977689E+04  1.538870E+05  3.850050E+04 -1.111046E+04
        58  20 -1.033654E+05 -3.494126E+05 -7.479041E+04  1.399058E+05  3.190919E+04 -1.689447E+04
        58  21 -7.269763E+04 -2.143347E+05 -5.399692E+04  1.529245E+05  2.324329E+04 -2.267655E+04
        58  22 -2.606084E+02  9.457027E+04 -2.818863E+03  1.537922E+05  3.850366E+04 -4.604578E+02
        58  23 -2.647400E+02  9.483708E+04 -3.610914E+03  1.402931E+05  3.191679E+04 -2.263700E+03
        58  24 -1.268813E+03  9.461066E+04 -5.830170E+03  1.537927E+05  2.325610E+04 -4.063825E+03
        58  25  1.351871E+05  6.751303E+05  9.412920E+04  1.536971E+05  3.850682E+04  1.019917E+04
        58  26  1.028262E+05  5.392834E+05  6.756417E+04  1.406806E+05  3.192441E+04  1.237716E+04
        58  27  7.015551E+04  4.036521E+05  4.233563E+04  1.546614E+05  2.326896E+04  1.455781E+04
        59   1 -5.262355E+04 -1.286407E+05 -4.132656E+04  1.543040E+05 -1.743607E+04  2.365425E+04
        59   2 -2.623684E+04  8.808462E+03 -2.441375E+04  1.324854E+05 -8.647679E+03  2.710206E+04
        59   3 -1.206682E+04  1.427411E+05 -1.280888E+04  1.376823E+05 -1.667059E+03  3.055061E+04
        59   4 -1.374035E+03  9.380969E+04 -7.531226E+03  1.537953E+05 -1.744988E+04  5.052332E+03
        59   5 -6.622497E+03  9.588259E+04 -1.348065E+04  1.402942E+05 -8.658971E+03  1.196958E+04
        59   6 -2.468867E+04  9.381876E+04 -2.714793E+04  1.538103E+05 -1.675627E+03  1.888687E+04
        59   7  4.987329E+04  3.163104E+05  2.626438E+04  1.532864E+05 -1.746366E+04 -1.355599E+04
        59   8  1.299189E+04  1.829651E+05 -2.546679E+03  1.481042E+05 -8.670644E+03 -3.164922E+03
        59   9 -3.730969E+04  4.489933E+04 -4.148654E+04  1.699371E+05 -1.684801E+03  7.224057E+03
        59  10 -5.262402E+04 -1.286414E+05 -4.132819E+04  1.543043E+05  3.158075E-10 -1.133772E-09
        59  11 -2.623712E+04  8.807653E+03 -2.441527E+04  1.324856E+05  4.367206E-10 -1.168971E-10
        59  12 -1.206707E+04  1.427401E+05 -1.281064E+04  1.376824E+05  2.788620E-10  5.559087E-10
        59  13 -1.374369E+03  9.380958E+04 -7.531846E+03  1.537953E+05 -4.109398E-10  5.544770E-10
        59  14 -6.622616E+03  9.588242E+04 -1.348106E+04  1.402943E+05 -9.883463E-10  1.167262E-09
        59  15 -2.468877E+04  9.381838E+04 -2.714860E+04  1.538104E+05 -6.483715E-10  3.638773E-10
        59  16  4.987292E+04  3.163101E+05  2.626346E+04  1.532862E+05  2.897901E-12  8.168634E-10
        59  17  1.299181E+04  1.829651E+05 -2.546839E+03  1.481042E+05 -2.270934E-10  1.125830E-09
        59  18 -3.730971E+04  4.489927E+04 -4.148664E+04  1.699371E+05 -6.786942E-11 -3.252374E-10
        59  19 -5.262355E+04 -1.286407E+05 -4.132656E+04  1.543040E+05  1.743607E+04 -2.365425E+04
        59  20 -2.623684E+04  8.808462E+03 -2.441375E+04  1.324854E+05  8.647679E+03 -2.710206E+04
        59  21 -1.206682E+04  1.427411E+05 -1.280888E+04  1.376823E+05  1.667059E+03 -3.055061E+04
        59  22 -1.374035E+03  9.380969E+04 -7.531226E+03  1.537953E+05  1.744988E+04 -5.052332E+03
        59  23 -6.622497E+03  9.588259E+04 -1.348065E+04  1.402942E+05  8.658971E+03 -1.196958E+04
        59  24 -2.468867E+04  9.381876E+04 -2.714793E+04  1.538103E+05  1.675627E+03 -1.888687E+04
        59  25  4.987329E+04  3.163104E+05  2.626438E+04  1.532864E+05  1.746366E+04  1.355599E+04
        59  26  1.299189E+04  1.829651E+05 -2.546679E+03  1.481042E+05  8.670644E+03  3.164922E+03
        59  27 -3.730969E+04  4.489933E+04 -4.148654E+04  1.699371E+05  1.684801E+03 -7.224057E+03
        60   1  3.031691E+06  6.320007E+05  6.067867E+05  4.745619E+05  2.032615E+05 -2.950828E+04
        60   2  2.616186E+06  4.892700E+05  4.052687E+05  4.257871E+05  8.574256E+04 -9.409182E+04
        60   3  2.225570E+06  3.824459E+05  2.890377E+05  4.532603E+05 -3.160342E+04 -1.024982E+05
        60   4  5.951286E+05  3.155013E+04  3.563278E+04  4.543696E+05  2.451568E+04 -2.941025E+04
        60   5  5.923753E+05  7.802593E+03  1.784851E+04  4.162381E+05  1.535370E+04 -9.409468E+04
        60   6  5.956664E+05  1.272265E+03  1.036048E+04  4.543570E+05  6.282758E+03 -1.025218E+05
        60   7 -1.835917E+06 -5.693032E+05 -5.358068E+05  4.342557E+05 -1.535358E+05 -2.930064E+04
        60   8 -1.427493E+06 -4.739030E+05 -3.697400E+05  4.067201E+05 -5.481188E+04 -9.409545E+04
        60   9 -1.031631E+06 -3.800418E+05 -2.684000E+05  4.554499E+05  4.407287E+04 -1.025454E+05
        60  10  3.031647E+06  6.319888E+05  6.067078E+05  4.745667E+05 -6.769839E-10  1.878050E-10
        60  11  2.616176E+06  4.892585E+05  4.052382E+05  4.257936E+05 -8.892931E-10  4.494232E-10
        60  12  2.225567E+06  3.824344E+05  2.890161E+05  4.532577E+05  1.668618E-09 -1.624755E-11
        60  13  5.951277E+05  3.154904E+04  3.563003E+04  4.543702E+05 -7.205082E-10  1.220773E-10
        60  14  5.923726E+05  7.793018E+03  1.783142E+04  4.162393E+05  5.421808E-10  2.300945E-10
        60  15  5.956635E+05  1.260964E+03  1.034065E+04  4.543575E+05  1.425486E-09 -5.516948E-11
        60  16 -1.835943E+06 -5.693105E+05 -5.358529E+05  4.342521E+05 -3.272410E-11  3.133629E-11
        60  17 -1.427499E+06 -4.739133E+05 -3.697623E+05  4.067159E+05 -2.797281E-10  1.182654E-11
        60  18 -1.031635E+06 -3.800537E+05 -2.684235E+05  4.554536E+05 -6.378043E-10 -1.520780E-10
        60  19  3.031691E+06  6.320007E+05  6.067867E+05  4.745619E+05 -2.032615E+05  2.950828E+04
        60  20  2.616186E+06  4.892700E+05  4.052687E+05  4.257871E+05 -8.574256E+04  9.409182E+04
        60  21  2.225570E+06  3.824459E+05  2.890377E+05  4.532603E+05  3.160342E+04  1.024982E+05
        60  22  5.951286E+05  3.155013E+04  3.563278E+04  4.543696E+05 -2.451568E+04  2.941025E+04
        60  23  5.923753E+05  7.802593E+03  1.784851E+04  4.162381E+05 -1.535370E+04  9.409468E+04
        60  24  5.956664E+05  1.272265E+03  1.036048E+04  4.543570E+05 -6.282758E+03  1.025218E+05
        60  25 -1.835917E+06 -5.693032E+05 -5.358068E+05  4.342557E+05  1.535358E+05  2.930064E+04
        60  26 -1.427493E+06 -4.739030E+05 -3.697400E+05  4.067201E+05  5.481188E+04  9.409545E+04
        60  27 -1.031631E+06 -3.800418E+05 -2.684000E+05  4.554499E+05 -4.407287E+04  1.025454E+05
        61   1  1.965372E+06  3.211495E+05  2.387922E+05  4.560541E+05 -3.026922E+04 -8.931372E+04
        61   2  1.561801E+06  2.246074E+05  1.620045E+05  4.156289E+05 -4.380158E+04 -6.828617E+04
        61   3  1.161117E+06  1.311346E+05  9.482225E+04  4.552048E+05 -5.733749E+04 -4.171555E+04
        61   4  5.946636E+05  1.316268E+03  8.266592E+03  4.551957E+05  4.863736E+03 -8.932612E+04
        61   5  5.943517E+05  1.195998E+02  5.787683E+03  4.151914E+05  1.992854E+03 -6.828329E+04
        61   6  5.949237E+05  1.534780E+02  5.524730E+03  4.551960E+05 -8.898674E+02 -4.169281E+04
        61   7 -7.741952E+05 -3.186148E+05 -2.223138E+05  4.543386E+05  3.992185E+04 -8.933861E+04
        61   8 -3.721659E+05 -2.244144E+05 -1.504468E+05  4.147542E+05  4.771859E+04 -6.828045E+04
        61   9  2.905594E+04 -1.308418E+05 -8.376880E+04  4.551872E+05  5.550825E+04 -4.167005E+04
        61  10  1.965369E+06  3.211407E+05  2.387755E+05  4.560519E+05  7.598731E-12 -3.185282E-10
        61  11  1.561797E+06  2.246019E+05  1.619921E+05  4.156265E+05 -4.510234E-10 -9.697892E-11
        61  12  1.161113E+06  1.311319E+05  9.481282E+04  4.552029E+05 -7.689210E-10  7.749780E-10
        61  13  5.946615E+05  1.307691E+03  8.251547E+03  4.551961E+05  9.830698E-10 -2.249303E-10
        61  14  5.943505E+05  1.145904E+02  5.778911E+03  4.151915E+05  1.851676E-09 -2.443674E-11
        61  15  5.949232E+05  1.516107E+02  5.521462E+03  4.551960E+05  4.881542E-11  4.859130E-10
        61  16 -7.741991E+05 -3.186238E+05 -2.223318E+05  4.543415E+05  5.534892E-11 -2.044869E-10
        61  17 -3.721696E+05 -2.244200E+05 -1.504599E+05  4.147569E+05  1.933893E-11  3.064641E-11
        61  18  2.905216E+04 -1.308445E+05 -8.377786E+04  4.551890E+05  2.306263E-10  1.833381E-10
        61  19  1.965372E+06  3.211495E+05  2.387922E+05  4.560541E+05  3.026922E+04  8.931372E+04
        61  20  1.561801E+06  2.246074E+05  1.620045E+05  4.156289E+05  4.380158E+04  6.828617E+04
        61  21  1.161117E+06  1.311346E+05  9.482225E+04  4.552048E+05  5.733749E+04  4.171555E+04
        61  22  5.946636E+05  1.316268E+03  8.266592E+03  4.551957E+05 -4.863736E+03  8.932612E+04
        61  23  5.943517E+05  1.195998E+02  5.787683E+03  4.151914E+05 -1.992854E+03  6.828329E+04
        61  24  5.949237E+05  1.534780E+02  5.524730E+03  4.551960E+05  8.898674E+02  4.169281E+04
        61  25 -7.741952E+05 -3.186148E+05 -2.223138E+05  4.543386E+05 -3.992185E+04  8.933861E+04
        61  26 -3.721659E+05 -2.244144E+05 -1.504468E+05  4.147542E+05 -4.771859E+04  6.828045E+04
        61  27  2.905594E+04 -1.308418E+05 -8.376880E+04  4.551872E+05 -5.550825E+04  4.167005E+04
        62   1  9.051217E+05  7.160482E+04  5.317561E+04  4.555941E+05 -5.822891E+04 -2.427197E+04
        62   2  5.032525E+05 -2.109245E+04 -9.950040E+03  4.144292E+05 -5.615818E+04  3.396704E+03
        62   3  1.016430E+05 -1.127143E+05 -7.413521E+04  4.533958E+05 -5.408955E+04  2.777464E+04
        62   4  5.950342E+05  2.107135E+02  6.018947E+03  4.552229E+05 -1.896579E+03 -2.424450E+04
        62   5  5.944265E+05  8.319956E+02  8.546093E+03  4.151576E+05 -6.166036E+03  3.419663E+03
        62   6  5.950082E+05  3.631791E+03  1.440330E+04  4.552218E+05 -1.043624E+04  2.779349E+04
        62   7  2.850496E+05 -7.118629E+04 -4.112784E+04  4.548518E+05  5.440875E+04 -2.421709E+04
        62   8  6.856137E+05  2.275727E+04  2.705118E+04  4.158861E+05  4.383331E+04  3.442736E+03
        62   9  1.088615E+06  1.199654E+05  1.029396E+05  4.570492E+05  3.325077E+04  2.781258E+04
        62  10  9.051179E+05  7.160328E+04  5.316815E+04  4.555929E+05 -3.558119E-10  8.821030E-10
        62  11  5.032491E+05 -2.109331E+04 -9.955984E+03  4.144293E+05 -1.116122E-09  3.739667E-10
        62  12  1.016397E+05 -1.127159E+05 -7.414216E+04  4.533970E+05 -8.557154E-10  3.527716E-10
        62  13  5.950340E+05  2.100812E+02  6.017836E+03  4.552228E+05 -5.932534E-10  5.851972E-10
        62  14  5.944264E+05  8.319729E+02  8.545999E+03  4.151576E+05  2.115782E-13  4.245928E-10
        62  15  5.950079E+05  3.630931E+03  1.440164E+04  4.552221E+05 -5.438145E-10  5.089897E-10
        62  16  2.850463E+05 -7.118772E+04 -4.113451E+04  4.548529E+05  5.942744E-10  2.710883E-10
        62  17  6.856117E+05  2.275674E+04  2.704755E+04  4.158860E+05  1.017903E-09  4.972152E-10
        62  18  1.088613E+06  1.199643E+05  1.029361E+05  4.570485E+05  1.152347E-09  6.598909E-10
        62  19  9.051217E+05  7.160482E+04  5.317561E+04  4.555941E+05  5.822891E+04  2.427197E+04
        62  20  5.032525E+05 -2.109245E+04 -9.950040E+03  4.144292E+05  5.615818E+04 -3.396704E+03
        62  21  1.016430E+05 -1.127143E+05 -7.413521E+04  4.533958E+05  5.408955E+04 -2.777464E+04
        62  22  5.950342E+05  2.107135E+02  6.018947E+03  4.552229E+05  1.896579E+03  2.424450E+04
        62  23  5.944265E+05  8.319956E+02  8.546093E+03  4.151576E+05  6.166036E+03 -3.419663E+03
        62  24  5.950082E+05  3.631791E+03  1.440330E+04  4.552218E+05  1.043624E+04 -2.779349E+04
        62  25  2.850496E+05 -7.118629E+04 -4.112784E+04  4.548518E+05 -5.440875E+04  2.421709E+04
        62  26  6.856137E+05  2.275727E+04  2.705118E+04  4.158861E+05 -4.383331E+04 -3.442736E+03
        62  27  1.088615E+06  1.199654E+05  1.029396E+05  4.570492E+05 -3.325077E+04 -2.781258E+04
        63   1 -1.537735E+05 -1.731317E+05 -1.154837E+05  4.561329E+05 -5.833856E+04  4.270145E+04
        63   2 -5.548764E+05 -2.578264E+05 -1.929389E+05  3.963044E+05 -4.716839E+03  4.792048E+04
        63   3 -9.575410E+05 -3.224231E+05 -3.002527E+05  4.141616E+05  4.884065E+04  1.617657E+04
        63   4  5.970377E+05  3.846556E+03  1.876236E+04  4.546715E+05 -1.291827E+04  4.271618E+04
        63   5  5.915846E+05  1.681761E+04  3.377462E+04  4.158388E+05 -3.022502E+04  4.790793E+04
        63   6  5.967186E+05  6.218339E+04  6.817383E+04  4.546707E+05 -4.756271E+04  1.617175E+04
        63   7  1.348403E+06  1.807947E+05  1.529947E+05  4.532081E+05  3.255540E+04  4.273069E+04
        63   8  1.739306E+06  2.913835E+05  2.604261E+05  4.354096E+05 -5.577931E+04  4.789380E+04
        63   9  2.153222E+06  4.466275E+05  4.364682E+05  4.952810E+05 -1.442063E+05  1.615441E+04
        63  10 -1.537777E+05 -1.731346E+05 -1.154936E+05  4.561349E+05 -1.190023E-10  3.318684E-10
        63  11 -5.548770E+05 -2.578289E+05 -1.929432E+05  3.963045E+05 -1.269804E-09 -3.651514E-11
        63  12 -9.575436E+05 -3.224240E+05 -3.002577E+05  4.141610E+05 -1.944356E-10 -7.349637E-11
        63  13  5.970371E+05  3.844550E+03  1.875862E+04  4.546720E+05 -3.511903E-11  4.452571E-10
        63  14  5.915830E+05  1.681490E+04  3.376858E+04  4.158399E+05  2.431440E-10  1.130803E-10
        63  15  5.967161E+05  6.218250E+04  6.816908E+04  4.546713E+05 -9.845384E-11  3.765904E-11
        63  16  1.348401E+06  1.807924E+05  1.529893E+05  4.532070E+05  1.553125E-10  5.435414E-10
        63  17  1.739302E+06  2.913802E+05  2.604160E+05  4.354118E+05  8.088495E-10  1.893411E-10
        63  18  2.153199E+06  4.466216E+05  4.364287E+05  4.952828E+05  3.928720E-10  1.314120E-11
        63  19 -1.537735E+05 -1.731317E+05 -1.154837E+05  4.561329E+05  5.833856E+04 -4.270145E+04
        63  20 -5.548764E+05 -2.578264E+05 -1.929389E+05  3.963044E+05  4.716839E+03 -4.792048E+04
        63  21 -9.575410E+05 -3.224231E+05 -3.002527E+05  4.141616E+05 -4.884065E+04 -1.617657E+04
        63  22  5.970377E+05  3.846556E+03  1.876236E+04  4.546715E+05  1.291827E+04 -4.271618E+04
        63  23  5.915846E+05  1.681761E+04  3.377462E+04  4.158388E+05  3.022502E+04 -4.790793E+04
        63  24  5.967186E+05  6.218339E+04  6.817383E+04  4.546707E+05  4.756271E+04 -1.617175E+04
        63  25  1.348403E+06  1.807947E+05  1.529947E+05  4.532081E+05 -3.255540E+04 -4.273069E+04
        63  26  1.739306E+06  2.913835E+05  2.604261E+05  4.354096E+05  5.577931E+04 -4.789380E+04
        63  27  2.153222E+06  4.466275E+05  4.364682E+05  4.952810E+05  1.442063E+05 -1.615441E+04
        64   1 -1.990844E+05 -4.525966E+05 -2.013646E+05  3.121426E+05 -4.282474E+03 -7.025367E+04
        64   2 -9.285260E+04 -2.037246E+05 -9.981093E+04  2.683550E+05 -9.535880E+03 -2.733058E+04
        64   3 -2.227501E+04  3.053193E+04 -3.516516E+04  2.718646E+05 -1.012228E+03  1.559089E+04
        64   4 -5.971893E+04  1.096028E+05 -6.599099E+04  2.736897E+05 -4.232170E+03 -4.680532E+04
        64   5 -1.570959E+04  1.146616E+05 -3.207388E+04  2.499865E+05 -9.540572E+03 -3.031120E+04
        64   6 -2.749788E+03  1.096502E+05 -1.669078E+04  2.735867E+05 -1.072387E+03 -1.383606E+04
        64   7  7.962943E+04  6.720958E+05  6.936300E+04  2.352018E+05 -4.184800E+03 -2.333577E+04
        64   8  6.142814E+04  4.331441E+05  3.565757E+04  2.316083E+05 -9.545087E+03 -3.329332E+04
        64   9  1.677546E+04  1.887761E+05  1.786428E+03  2.753090E+05 -1.132704E+03 -4.326675E+04
        64  10 -1.990857E+05 -4.526019E+05 -2.013739E+05  3.121423E+05 -4.401967E-11 -9.419439E-10
        64  11 -9.285289E+04 -2.037254E+05 -9.981250E+04  2.683548E+05  6.107872E-10  2.830207E-10
        64  12 -2.227507E+04  3.053167E+04 -3.516562E+04  2.718646E+05  3.826166E-10  1.669835E-09
        64  13 -5.971954E+04  1.096004E+05 -6.599514E+04  2.736896E+05 -4.632018E-10  7.289875E-11
        64  14 -1.570993E+04  1.146606E+05 -3.207578E+04  2.499863E+05 -9.746380E-13 -3.862620E-11
        64  15 -2.749841E+03  1.096500E+05 -1.669114E+04  2.735867E+05  5.572327E-10  5.675146E-11
        64  16  7.962926E+04  6.720953E+05  6.936195E+04  2.352017E+05  5.042472E-10  9.487814E-10
        64  17  6.142774E+04  4.331429E+05  3.565531E+04  2.316081E+05 -6.206698E-11 -3.045181E-10
        64  18  1.677496E+04  1.887741E+05  1.782909E+03  2.753090E+05  1.118765E-10 -1.604745E-09
        64  19 -1.990844E+05 -4.525966E+05 -2.013646E+05  3.121426E+05  4.282474E+03  7.025367E+04
        64  20 -9.285260E+04 -2.037246E+05 -9.981093E+04  2.683550E+05  9.535880E+03  2.733058E+04
        64  21 -2.227501E+04  3.053193E+04 -3.516516E+04  2.718646E+05  1.012228E+03 -1.559089E+04
        64  22 -5.971893E+04  1.096028E+05 -6.599099E+04  2.736897E+05  4.232170E+03  4.680532E+04
        64  23 -1.570959E+04  1.146616E+05 -3.207388E+04  2.499865E+05  9.540572E+03  3.031120E+04
        64  24 -2.749788E+03  1.096502E+05 -1.669078E+04  2.735867E+05  1.072387E+03  1.383606E+04
        64  25  7.962943E+04  6.720958E+05  6.936300E+04  2.352018E+05  4.184800E+03  2.333577E+04
        64  26  6.142814E+04  4.331441E+05  3.565757E+04  2.316083E+05  9.545087E+03  3.329332E+04
        64  27  1.677546E+04  1.887761E+05  1.786428E+03  2.753090E+05  1.132704E+03  4.326675E+04
        65   1  1.426553E+04  1.870803E+05 -3.648499E+03  2.753715E+05  8.472766E+03  1.710596E+04
        65   2  7.381701E+04  4.286969E+05  4.603599E+04  2.509978E+05  2.277100E+04  1.658106E+04
        65   3  1.326813E+05  6.700994E+05  9.583692E+04  2.746628E+05  3.559146E+04  1.606106E+04
        65   4 -2.469697E+03  1.117188E+05 -1.194008E+04  2.737609E+05  8.413736E+03 -1.177611E+04
        65   5  3.663783E+02  1.120739E+05 -4.673075E+03  2.497365E+05  2.272060E+04 -9.466537E+03
        65   6  2.026198E+03  1.116672E+05  7.432286E+02  2.737524E+05  3.554921E+04 -7.151832E+03
        65   7 -1.920467E+04  3.636498E+04 -2.022847E+04  2.721505E+05  8.354851E+03 -4.065488E+04
        65   8 -7.308891E+04 -2.044480E+05 -5.538224E+04  2.484757E+05  2.267029E+04 -3.550133E+04
        65   9 -1.286452E+05 -4.464574E+05 -9.435869E+04  2.728426E+05  3.550701E+04 -3.034453E+04
        65  10  1.426537E+04  1.870800E+05 -3.649184E+03  2.753714E+05  1.758288E-10 -1.737765E-09
        65  11  7.381637E+04  4.286965E+05  4.603450E+04  2.509975E+05 -1.091450E-10 -1.444290E-10
        65  12  1.326799E+05  6.700988E+05  9.583405E+04  2.746624E+05 -6.551254E-10  1.451612E-09
        65  13 -2.469810E+03  1.117186E+05 -1.194047E+04  2.737610E+05  2.406990E-10  2.986520E-11
        65  14  3.657998E+02  1.120737E+05 -4.674214E+03  2.497366E+05 -6.139479E-10  2.919058E-11
        65  15  2.024827E+03  1.116668E+05  7.407571E+02  2.737526E+05 -1.484819E-09 -1.153837E-11
        65  16 -1.920519E+04  3.636319E+04 -2.023171E+04  2.721508E+05  3.070404E-10  1.823408E-09
        65  17 -7.308980E+04 -2.044495E+05 -5.538557E+04  2.484763E+05 -9.756151E-10  1.389529E-10
        65  18 -1.286468E+05 -4.464587E+05 -9.436279E+04  2.728435E+05  2.323022E-10 -1.505362E-09
        65  19  1.426553E+04  1.870803E+05 -3.648499E+03  2.753715E+05 -8.472766E+03 -1.710596E+04
        65  20  7.381701E+04  4.286969E+05  4.603599E+04  2.509978E+05 -2.277100E+04 -1.658106E+04
        65  21  1.326813E+05  6.700994E+05  9.583692E+04  2.746628E+05 -3.559146E+04 -1.606106E+04
        65  22 -2.469697E+03  1.117188E+05 -1.194008E+04  2.737609E+05 -8.413736E+03  1.177611E+04
        65  23  3.663783E+02  1.120739E+05 -4.673075E+03  2.497365E+05 -2.272060E+04  9.466537E+03
        65  24  2.026198E+03  1.116672E+05  7.432286E+02  2.737524E+05 -3.554921E+04  7.151832E+03
        65  25 -1.920467E+04  3.636498E+04 -2.022847E+04  2.721505E+05 -8.354851E+03  4.065488E+04
        65  26 -7.308891E+04 -2.044480E+05 -5.538224E+04  2.484757E+05 -2.267029E+04  3.550133E+04
        65  27 -1.286452E+05 -4.464574E+05 -9.435869E+04  2.728426E+05 -3.550701E+04  3.034453E+04
        66   1  1.694149E+05  8.262966E+05  1.268078E+05  2.735787E+05  4.393901E+04  1.712704E+04
        66   2  2.333930E+05  1.061717E+06  1.942555E+05  2.578794E+05  4.266019E+04 -4.162421E+04
        66   3  3.177622E+05  1.309857E+06  3.049966E+05  2.883910E+05  1.352636E+04 -1.003708E+05
        66   4  2.057263E+03  1.125533E+05  3.355237E+03  2.733497E+05  4.389734E+04 -7.390590E+03
        66   5  6.480444E+03  1.107821E+05  1.009672E+04  2.502274E+05  4.271577E+04 -1.257579E+04
        66   6  2.202267E+04  1.124022E+05  2.297445E+04  2.733167E+05  1.366097E+04 -1.773243E+04
        66   7 -1.653275E+05 -6.006894E+05 -1.201127E+05  2.731206E+05  4.385567E+04 -3.188092E+04
        66   8 -2.204854E+05 -8.392834E+05 -1.741013E+05  2.425869E+05  4.277070E+04  1.642920E+04
        66   9 -2.738148E+05 -1.083720E+06 -2.591207E+05  2.582708E+05  1.379173E+04  6.474775E+04
        66  10  1.694127E+05  8.262958E+05  1.268036E+05  2.735781E+05  6.680760E-10 -5.700848E-10
        66  11  2.333906E+05  1.061715E+06  1.942489E+05  2.578808E+05 -6.692551E-11 -6.956137E-11
        66  12  3.177593E+05  1.309846E+06  3.049774E+05  2.883921E+05 -8.991224E-11  3.372938E-10
        66  13  2.055179E+03  1.125527E+05  3.351512E+03  2.733500E+05  4.391254E-10  5.317780E-12
        66  14  6.478442E+03  1.107815E+05  1.009299E+04  2.502278E+05 -3.011985E-10  4.539743E-11
        66  15  2.202238E+04  1.124018E+05  2.297351E+04  2.733169E+05  3.589861E-10 -8.517716E-14
        66  16 -1.653298E+05 -6.006910E+05 -1.201182E+05  2.731217E+05  4.048787E-10  6.468410E-10
        66  17 -2.204874E+05 -8.392842E+05 -1.741053E+05  2.425863E+05  1.344815E-10 -4.710269E-11
        66  18 -2.738161E+05 -1.083725E+06 -2.591290E+05  2.582701E+05 -8.919059E-11 -4.414237E-10
        66  19  1.694149E+05  8.262966E+05  1.268078E+05  2.735787E+05 -4.393901E+04 -1.712704E+04
        66  20  2.333930E+05  1.061717E+06  1.942555E+05  2.578794E+05 -4.266019E+04  4.162421E+04
        66  21  3.177622E+05  1.309857E+06  3.049966E+05  2.883910E+05 -1.352636E+04  1.003708E+05
        66  22  2.057263E+03  1.125533E+05  3.355237E+03  2.733497E+05 -4.389734E+04  7.390590E+03
        66  23  6.480444E+03  1.107821E+05  1.009672E+04  2.502274E+05 -4.271577E+04  1.257579E+04
        66  24  2.202267E+04  1.124022E+05  2.297445E+04  2.733167E+05 -1.366097E+04  1.773243E+04
        66  25 -1.653275E+05 -6.006894E+05 -1.201127E+05  2.731206E+05 -4.385567E+04  3.188092E+04
        66  26 -2.204854E+05 -8.392834E+05 -1.741013E+05  2.425869E+05 -4.277070E+04 -1.642920E+04
        66  27 -2.738148E+05 -1.083720E+06 -2.591207E+05  2.582708E+05 -1.379173E+04 -6.474775E+04
        67   1  2.277595E+06  4.691335E+05  4.596980E+05  3.819057E+05  1.772013E+05 -1.799830E+04
        67   2  1.977347E+06  3.210904E+05  2.889056E+05  3.243633E+05  8.331965E+04 -5.671213E+04
        67   3  1.704142E+06  2.314512E+05  1.937034E+05  3.214394E+05 -1.048378E+04 -5.970223E+04
        67   4  7.386514E+05  8.961263E+04  9.810949E+04  3.235979E+05  6.818985E+04 -1.800071E+04
        67   5  7.312357E+05  2.423975E+04  4.877049E+04  2.962909E+05  4.315317E+04 -5.672599E+04
        67   6  7.389145E+05  5.414117E+03  2.736814E+04  3.235930E+05  1.814635E+04 -5.970372E+04
        67   7 -7.980858E+05 -2.900576E+05 -2.635950E+05  2.654347E+05 -4.055396E+04 -1.798276E+04
        67   8 -5.133815E+05 -2.726991E+05 -1.914302E+05  2.682756E+05  3.065208E+03 -5.673625E+04
        67   9 -2.253987E+05 -2.206724E+05 -1.389959E+05  3.257429E+05  4.673343E+04 -5.970500E+04
        67  10  2.277561E+06  4.691247E+05  4.596386E+05  3.819082E+05 -4.374690E-10  6.654151E-11
        67  11  1.977339E+06  3.210851E+05  2.888866E+05  3.243671E+05 -9.445278E-10  1.252091E-10
        67  12  1.704141E+06  2.314474E+05  1.936965E+05  3.214389E+05  6.575874E-10  1.096192E-11
        67  13  7.386463E+05  8.961103E+04  9.810015E+04  3.235989E+05 -1.239659E-09  9.843628E-11
        67  14  7.312328E+05  2.423580E+04  4.876094E+04  2.962928E+05 -5.710057E-10  4.046841E-11
        67  15  7.389131E+05  5.410199E+03  2.736082E+04  3.235939E+05 -5.132729E-10 -2.182522E-11
        67  16 -7.980877E+05 -2.900584E+05 -2.635987E+05  2.654341E+05 -2.839734E-10 -1.206530E-10
        67  17 -5.133824E+05 -2.727026E+05 -1.914363E+05  2.682757E+05 -5.000467E-10 -1.775989E-10
        67  18 -2.254020E+05 -2.206769E+05 -1.390067E+05  3.257452E+05 -2.125126E-10  5.574802E-11
        67  19  2.277595E+06  4.691335E+05  4.596980E+05  3.819057E+05 -1.772013E+05  1.799830E+04
        67  20  1.977347E+06  3.210904E+05  2.889056E+05  3.243633E+05 -8.331965E+04  5.671213E+04
        67  21  1.704142E+06  2.314512E+05  1.937034E+05  3.214394E+05  1.048378E+04  5.970223E+04
        67  22  7.386514E+05  8.961263E+04  9.810949E+04  3.235979E+05 -6.818985E+04  1.800071E+04
        67  23  7.312357E+05  2.423975E+04  4.877049E+04  2.962909E+05 -4.315317E+04  5.672599E+04
        67  24  7.389145E+05  5.414117E+03  2.736814E+04  3.235930E+05 -1.814635E+04  5.970372E+04
        67  25 -7.980858E+05 -2.900576E+05 -2.635950E+05  2.654347E+05  4.055396E+04  1.798276E+04
        67  26 -5.133815E+05 -2.726991E+05 -1.914302E+05  2.682756E+05 -3.065208E+03  5.673625E+04
        67  27 -2.253987E+05 -2.206724E+05 -1.389959E+05  3.257429E+05 -4.673343E+04  5.970500E+04
        68   1  1.517103E+06  1.875989E+05  1.538604E+05  3.267924E+05 -1.238467E+04 -4.993338E+04
        68   2  1.229478E+06  1.159689E+05  9.396266E+04  2.967925E+05 -2.565071E+04 -3.422761E+04
        68   3  9.448170E+05  4.872884E+04  4.379576E+04  3.237637E+05 -3.891535E+04 -1.507537E+04
        68   4  7.360031E+05  5.061129E+03  2.125533E+04  3.241226E+05  1.450768E+04 -4.993036E+04
        68   5  7.351856E+05  1.090145E+03  1.330246E+04  2.956366E+05  7.871313E+03 -3.421741E+04
        68   6  7.361004E+05  3.647218E+02  1.048586E+04  3.241241E+05  1.230479E+03 -1.505659E+04
        68   7 -4.449569E+04 -1.775085E+05 -1.113669E+05  3.214560E+05  4.136734E+04 -4.992755E+04
        68   8  2.411370E+05 -1.138005E+05 -6.736046E+04  2.944815E+05  4.136761E+04 -3.420734E+04
        68   9  5.274305E+05 -4.800071E+04 -2.281912E+04  3.244843E+05  4.136332E+04 -1.503775E+04
        68  10  1.517102E+06  1.875962E+05  1.538554E+05  3.267919E+05  1.595198E-09 -3.435741E-10
        68  11  1.229477E+06  1.159675E+05  9.395923E+04  2.967917E+05 -2.839870E-10 -6.957502E-10
        68  12  9.448153E+05  4.872819E+04  4.379249E+04  3.237632E+05  1.015871E-09 -2.736659E-10
        68  13  7.360022E+05  5.058394E+03  2.125025E+04  3.241232E+05  5.252371E-10 -1.039443E-10
        68  14  7.351852E+05  1.088871E+03  1.330014E+04  2.956368E+05 -2.033388E-10 -5.023061E-10
        68  15  7.361003E+05  3.644779E+02  1.048544E+04  3.241241E+05  1.139732E-10 -3.960637E-10
        68  16 -4.449820E+04 -1.775116E+05 -1.113748E+05  3.214577E+05 -4.018843E-10  3.744445E-11
        68  17  2.411349E+05 -1.138022E+05 -6.736588E+04  2.944827E+05 -1.285686E-09 -3.881654E-10
        68  18  5.274286E+05 -4.800141E+04 -2.282276E+04  3.244848E+05  6.641849E-11 -6.623928E-10
        68  19  1.517103E+06  1.875989E+05  1.538604E+05  3.267924E+05  1.238467E+04  4.993338E+04
        68  20  1.229478E+06  1.159689E+05  9.396266E+04  2.967925E+05  2.565071E+04  3.422761E+04
        68  21  9.448170E+05  4.872884E+04  4.379576E+04  3.237637E+05  3.891535E+04  1.507537E+04
        68  22  7.360031E+05  5.061129E+03  2.125533E+04  3.241226E+05 -1.450768E+04  4.993036E+04
        68  23  7.351856E+05  1.090145E+03  1.330246E+04  2.956366E+05 -7.871313E+03  3.421741E+04
        68  24  7.361004E+05  3.647218E+02  1.048586E+04  3.241241E+05 -1.230479E+03  1.505659E+04
        68  25 -4.449569E+04 -1.775085E+05 -1.113669E+05  3.214560E+05 -4.136734E+04  4.992755E+04
        68  26  2.411370E+05 -1.138005E+05 -6.736046E+04  2.944815E+05 -4.136761E+04  3.420734E+04
        68  27  5.274305E+05 -4.800071E+04 -2.281912E+04  3.244843E+05 -4.136332E+04  1.503775E+04
        69   1  7.625515E+05  6.330101E+03  1.368894E+04  3.244786E+05 -4.069063E+04 -2.658735E+03
        69   2  4.762072E+05 -5.944910E+04 -3.100530E+04  2.945447E+05 -4.155419E+04  1.679589E+04
        69   3  1.906110E+05 -1.231489E+05 -7.461352E+04  3.216188E+05 -4.241532E+04  3.340762E+04
        69   4  7.360831E+05  3.780874E+02  1.037337E+04  3.241313E+05 -5.783757E+02 -2.639014E+03
        69   5  7.352482E+05  1.064554E+03  1.269062E+04  2.956277E+05 -6.913511E+03  1.680998E+04
        69   6  7.360310E+05  4.782601E+03  1.988697E+04  3.241298E+05 -1.324667E+04  3.341676E+04
        69   7  7.096188E+05 -5.573092E+03  7.063837E+03  3.237839E+05  3.953226E+04 -2.619336E+03
        69   8  9.943578E+05  6.157533E+04  5.638892E+04  2.967112E+05  2.774114E+04  1.682418E+04
        69   9  1.281744E+06  1.326985E+05  1.143803E+05  3.266431E+05  1.594682E+04  3.342612E+04
        69  10  7.625497E+05  6.329650E+03  1.368582E+04  3.244785E+05 -1.016140E-08 -1.371687E-10
        69  11  4.762053E+05 -5.944987E+04 -3.100908E+04  2.945453E+05  2.032054E-08  1.308400E-10
        69  12  1.906088E+05 -1.231505E+05 -7.461900E+04  3.216199E+05  4.905720E-08  1.190873E-09
        69  13  7.360831E+05  3.780799E+02  1.037335E+04  3.241313E+05 -6.277914E-10 -3.222601E-10
        69  14  7.352481E+05  1.064237E+03  1.269000E+04  2.956278E+05  2.187778E-09  3.204492E-10
        69  15  7.360305E+05  4.781354E+03  1.988454E+04  3.241302E+05 -2.682499E-10  1.306836E-09
        69  16  7.096172E+05 -5.573518E+03  7.060890E+03  3.237840E+05  1.019349E-08 -3.546385E-10
        69  17  9.943569E+05  6.157482E+04  5.638694E+04  2.967108E+05 -2.064618E-08  4.031159E-10
        69  18  1.281744E+06  1.326972E+05  1.143777E+05  3.266427E+05 -4.912061E-08  1.426134E-09
        69  19  7.625515E+05  6.330101E+03  1.368894E+04  3.244786E+05  4.069063E+04  2.658735E+03
        69  20  4.762072E+05 -5.944910E+04 -3.100530E+04  2.945447E+05  4.155419E+04 -1.679589E+04
        69  21  1.906110E+05 -1.231489E+05 -7.461352E+04  3.216188E+05  4.241532E+04 -3.340762E+04
        69  22  7.360831E+05  3.780874E+02  1.037337E+04  3.241313E+05  5.783757E+02  2.639014E+03
        69  23  7.352482E+05  1.064554E+03  1.269062E+04  2.956277E+05  6.913511E+03 -1.680998E+04
        69  24  7.360310E+05  4.782601E+03  1.988697E+04  3.241298E+05  1.324667E+04 -3.341676E+04
        69  25  7.096188E+05 -5.573092E+03  7.063837E+03  3.237839E+05 -3.953226E+04  2.619336E+03
        69  26  9.943578E+05  6.157533E+04  5.638892E+04  2.967112E+05 -2.774114E+04 -1.682418E+04
        69  27  1.281744E+06  1.326985E+05  1.143803E+05  3.266431E+05 -1.594682E+04 -3.342612E+04
        70   1  9.780658E+03 -1.661179E+05 -1.020892E+05  3.255929E+05 -4.728841E+04  4.364726E+04
        70   2 -2.783745E+05 -2.187981E+05 -1.517934E+05  2.701209E+05 -1.176175E+04  4.433919E+04
        70   3 -5.626937E+05 -2.385762E+05 -2.163757E+05  2.696454E+05  2.373045E+04  1.444233E+04
        70   4  7.387242E+05  5.128168E+03  2.548837E+04  3.236773E+05 -1.664889E+04  4.365354E+04
        70   5  7.316525E+05  2.257109E+04  4.522620E+04  2.961851E+05 -3.984498E+04  4.432817E+04
        70   6  7.385068E+05  8.307590E+04  9.083886E+04  3.236730E+05 -6.306008E+04  1.444008E+04
        70   7  1.468190E+06  1.763458E+05  1.530504E+05  3.217592E+05  1.402553E+04  4.365963E+04
        70   8  1.742661E+06  2.638820E+05  2.422005E+05  3.222924E+05 -6.797286E+04  4.431482E+04
        70   9  2.041287E+06  4.046218E+05  3.979663E+05  3.778141E+05 -1.500315E+05  1.442277E+04
        70  10  9.777744E+03 -1.661205E+05 -1.020970E+05  3.255946E+05 -4.907241E-08  1.402078E-09
        70  11 -2.783751E+05 -2.188002E+05 -1.517973E+05  2.701214E+05 -2.091928E-08  5.706522E-10
        70  12 -5.626944E+05 -2.385766E+05 -2.163772E+05  2.696451E+05  1.128915E-08  1.377363E-10
        70  13  7.387234E+05  5.126047E+03  2.548426E+04  3.236779E+05  5.108457E-10  1.454230E-09
        70  14  7.316503E+05  2.256856E+04  4.521952E+04  2.961866E+05 -3.207814E-11  7.207433E-10
        70  15  7.385025E+05  8.307461E+04  9.083100E+04  3.236737E+05  2.444927E-10  1.269959E-10
        70  16  1.468189E+06  1.763437E+05  1.530465E+05  3.217587E+05  4.895631E-08  1.523781E-09
        70  17  1.742656E+06  2.638787E+05  2.421881E+05  3.222949E+05  1.970589E-08  8.001799E-10
        70  18  2.041262E+06  4.046156E+05  3.979238E+05  3.778159E+05 -1.074453E-08  1.719517E-10
        70  19  9.780658E+03 -1.661179E+05 -1.020892E+05  3.255929E+05  4.728841E+04 -4.364726E+04
        70  20 -2.783745E+05 -2.187981E+05 -1.517934E+05  2.701209E+05  1.176175E+04 -4.433919E+04
        70  21 -5.626937E+05 -2.385762E+05 -2.163757E+05  2.696454E+05 -2.373045E+04 -1.444233E+04
        70  22  7.387242E+05  5.128168E+03  2.548837E+04  3.236773E+05  1.664889E+04 -4.365354E+04
        70  23  7.316525E+05  2.257109E+04  4.522620E+04  2.961851E+05  3.984498E+04 -4.432817E+04
        70  24  7.385068E+05  8.307590E+04  9.083886E+04  3.236730E+05  6.306008E+04 -1.444008E+04
        70  25  1.468190E+06  1.763458E+05  1.530504E+05  3.217592E+05 -1.402553E+04 -4.365963E+04
        70  26  1.742661E+06  2.638820E+05  2.422005E+05  3.222924E+05  6.797286E+04 -4.431482E+04
        70  27  2.041287E+06  4.046218E+05  3.979663E+05  3.778141E+05  1.500315E+05 -1.442277E+04
        71   1 -4.499377E+05 -1.626604E+06 -4.416627E+05  5.319254E+05 -1.585188E+04 -1.431001E+05
        71   2 -2.839047E+05 -1.181829E+06 -2.577237E+05  4.678250E+05 -4.559876E+04 -5.381462E+04
        71   3 -1.643921E+05 -7.602390E+05 -1.436673E+05  4.876389E+05 -3.851996E+04  3.551308E+04
        71   4 -6.587684E+04 -7.574107E+04 -7.309942E+04  4.902620E+05 -1.568967E+04 -5.057584E+04
        71   5 -1.720801E+04 -7.005164E+04 -3.645744E+04  4.482533E+05 -4.555164E+04 -3.180500E+04
        71   6 -2.740453E+03 -7.542259E+04 -2.061359E+04  4.901656E+05 -3.861187E+04 -1.305830E+04
        71   7  3.180221E+05  1.477356E+06  2.953291E+05  4.484920E+05 -1.554020E+04  4.217893E+04
        71   8  2.494149E+05  1.042910E+06  1.847492E+05  4.286449E+05 -4.550597E+04 -9.756678E+03
        71   9  1.588863E+05  6.098563E+05  1.024309E+05  4.926948E+05 -3.870410E+04 -6.168180E+04
        71  10 -4.499435E+05 -1.626626E+06 -4.417017E+05  5.319236E+05 -1.121745E-10  9.429587E-09
        71  11 -2.839077E+05 -1.181833E+06 -2.577330E+05  4.678230E+05 -1.068949E-09 -2.018652E-08
        71  12 -1.643940E+05 -7.602408E+05 -1.436725E+05  4.876400E+05  1.321057E-09 -4.742333E-08
        71  13 -6.587779E+04 -7.574389E+04 -7.310468E+04  4.902613E+05 -2.948174E-10  8.238804E-11
        71  14 -1.721051E+04 -7.005328E+04 -3.646323E+04  4.482521E+05 -5.597086E-10  1.470007E-10
        71  15 -2.742099E+03 -7.542317E+04 -2.061671E+04  4.901652E+05  1.714721E-09  2.199862E-10
        71  16  3.180214E+05  1.477354E+06  2.953253E+05  4.484925E+05  1.294497E-10 -9.518698E-09
        71  17  2.494126E+05  1.042910E+06  1.847451E+05  4.286446E+05  3.821445E-10  2.025511E-08
        71  18  1.588837E+05  6.098519E+05  1.024210E+05  4.926929E+05  1.470461E-09  4.749693E-08
        71  19 -4.499377E+05 -1.626604E+06 -4.416627E+05  5.319254E+05  1.585188E+04  1.431001E+05
        71  20 -2.839047E+05 -1.181829E+06 -2.577237E+05  4.678250E+05  4.559876E+04  5.381462E+04
        71  21 -1.643921E+05 -7.602390E+05 -1.436673E+05  4.876389E+05  3.851996E+04 -3.551308E+04
        71  22 -6.587684E+04 -7.574107E+04 -7.309942E+04  4.902620E+05  1.568967E+04  5.057584E+04
        71  23 -1.720801E+04 -7.005164E+04 -3.645744E+04  4.482533E+05  4.555164E+04  3.180500E+04
        71  24 -2.740453E+03 -7.542259E+04 -2.061359E+04  4.901656E+05  3.861187E+04  1.305830E+04
        71  25  3.180221E+05  1.477356E+06  2.953291E+05  4.484920E+05  1.554020E+04 -4.217893E+04
        71  26  2.494149E+05  1.042910E+06  1.847492E+05  4.286449E+05  4.550597E+04  9.756678E+03
        71  27  1.588863E+05  6.098563E+05  1.024309E+05  4.926948E+05  3.870410E+04  6.168180E+04
        72   1 -9.852632E+04 -4.804624E+05 -8.984447E+04  4.921345E+05 -2.246765E+04  3.658996E+04
        72   2  6.307923E+03 -4.658517E+04 -6.515664E+03  4.480559E+05  1.941253E+03  4.165989E+04
        72   3  1.083559E+05  3.858990E+05  7.273707E+04  4.901707E+05  2.622878E+04  4.673371E+04
        72   4 -2.337569E+03 -7.326711E+04 -1.619151E+04  4.906782E+05 -2.256142E+04 -1.035692E+04
        72   5  3.004895E+02 -7.246337E+04 -1.066548E+04  4.475787E+05  1.848564E+03 -5.066623E+03
        72   6  1.226728E+02 -7.327446E+04 -9.369178E+03  4.906737E+05  2.613691E+04  2.242496E+02
        72   7  9.384308E+04  3.340944E+05  5.746321E+04  4.892207E+05 -2.265493E+04 -5.733374E+04
        72   8 -5.705804E+03 -9.833622E+04 -1.480711E+04  4.471015E+05  1.755945E+03 -5.179125E+04
        72   9 -1.081211E+05 -5.322377E+05 -9.147534E+04  4.911761E+05  2.604492E+04 -4.625180E+04
        72  10 -9.852722E+04 -4.804640E+05 -8.984794E+04  4.921352E+05  1.661299E-09  4.895640E-08
        72  11  6.307453E+03 -4.658703E+04 -6.518933E+03  4.480558E+05  5.339306E-10  2.066611E-08
        72  12  1.083546E+05  3.858965E+05  7.273168E+04  4.901697E+05 -7.470273E-10 -1.039441E-08
        72  13 -2.338144E+03 -7.326736E+04 -1.619267E+04  4.906780E+05  1.259953E-09  1.675882E-10
        72  14  3.004789E+02 -7.246340E+04 -1.066554E+04  4.475787E+05  8.187432E-10  1.127365E-10
        72  15  1.219393E+02 -7.327465E+04 -9.370462E+03  4.906737E+05 -1.555753E-09  1.359189E-10
        72  16  9.384165E+04  3.340908E+05  5.745608E+04  4.892197E+05  1.442448E-09 -4.898323E-08
        72  17 -5.706528E+03 -9.833911E+04 -1.481216E+04  4.471016E+05  9.449170E-10 -2.062808E-08
        72  18 -1.081224E+05 -5.322402E+05 -9.148065E+04  4.911771E+05  8.698577E-11  1.030069E-08
        72  19 -9.852632E+04 -4.804624E+05 -8.984447E+04  4.921345E+05  2.246765E+04 -3.658996E+04
        72  20  6.307923E+03 -4.658517E+04 -6.515664E+03  4.480559E+05 -1.941253E+03 -4.165989E+04
        72  21  1.083559E+05  3.858990E+05  7.273707E+04  4.901707E+05 -2.622878E+04 -4.673371E+04
        72  22 -2.337569E+03 -7.326711E+04 -1.619151E+04  4.906782E+05  2.256142E+04  1.035692E+04
        72  23  3.004895E+02 -7.246337E+04 -1.066548E+04  4.475787E+05 -1.848564E+03  5.066623E+03
        72  24  1.226728E+02 -7.327446E+04 -9.369178E+03  4.906737E+05 -2.613691E+04 -2.242496E+02
        72  25  9.384308E+04  3.340944E+05  5.746321E+04  4.892207E+05  2.265493E+04  5.733374E+04
        72  26 -5.705804E+03 -9.833622E+04 -1.480711E+04  4.471015E+05 -1.755945E+03  5.179125E+04
        72  27 -1.081211E+05 -5.322377E+05 -9.147534E+04  4.911761E+05 -2.604492E+04  4.625180E+04
        73   1  1.736150E+05  6.633299E+05  1.217920E+05  4.914884E+05  4.218161E+04  4.990138E+04
        73   2  2.737201E+05  1.092574E+06  2.169499E+05  4.422997E+05  4.817713E+04 -1.591532E+04
        73   3  3.749178E+05  1.530769E+06  3.551570E+05  4.769215E+05  1.625762E+04 -8.175383E+04
        73   4 -9.206481E+01 -7.383614E+04 -9.833566E+03  4.901453E+05  4.209162E+04  1.688917E+03
        73   5 -5.182108E+03 -7.207031E+04 -1.377311E+04  4.482490E+05  4.822711E+04  8.769284E+03
        73   6 -2.181752E+04 -7.416756E+04 -2.524870E+04  4.901776E+05  1.641324E+04  1.587356E+04
        73   7 -1.738280E+05 -8.104673E+05 -1.414710E+05  4.888035E+05  4.200176E+04 -4.646798E+04
        73   8 -2.841663E+05 -1.235417E+06 -2.445608E+05  4.541859E+05  4.827763E+04  3.340859E+04
        73   9 -4.187319E+05 -1.676721E+06 -4.057978E+05  5.033976E+05  1.657330E+04  1.132503E+05
        73  10  1.736124E+05  6.633267E+05  1.217839E+05  4.914867E+05 -8.842354E-10  8.992299E-10
        73  11  2.737175E+05  1.092573E+06  2.169450E+05  4.423004E+05 -1.344102E-09  8.704437E-10
        73  12  3.749157E+05  1.530762E+06  3.551440E+05  4.769226E+05 -4.387939E-10  4.609598E-10
        73  13 -9.396795E+01 -7.383662E+04 -9.836901E+03  4.901453E+05 -6.845033E-11  1.879702E-10
        73  14 -5.184625E+03 -7.207101E+04 -1.377762E+04  4.482486E+05  7.753126E-11  1.691313E-10
        73  15 -2.181788E+04 -7.416790E+04 -2.524968E+04  4.901774E+05 -6.783074E-11  1.492427E-10
        73  16 -1.738304E+05 -8.104701E+05 -1.414784E+05  4.888051E+05 -3.466724E-10 -9.606940E-10
        73  17 -2.841691E+05 -1.235419E+06 -2.445673E+05  4.541846E+05  1.235528E-10 -7.303294E-10
        73  18 -4.187357E+05 -1.676735E+06 -4.058225E+05  5.033961E+05 -3.757546E-10 -4.397197E-10
        73  19  1.736150E+05  6.633299E+05  1.217920E+05  4.914884E+05 -4.218161E+04 -4.990138E+04
        73  20  2.737201E+05  1.092574E+06  2.169499E+05  4.422997E+05 -4.817713E+04  1.591532E+04
        73  21  3.749178E+05  1.530769E+06  3.551570E+05  4.769215E+05 -1.625762E+04  8.175383E+04
        73  22 -9.206481E+01 -7.383614E+04 -9.833566E+03  4.901453E+05 -4.209162E+04 -1.688917E+03
        73  23 -5.182108E+03 -7.207031E+04 -1.377311E+04  4.482490E+05 -4.822711E+04 -8.769284E+03
        73  24 -2.181752E+04 -7.416756E+04 -2.524870E+04  4.901776E+05 -1.641324E+04 -1.587356E+04
        73  25 -1.738280E+05 -8.104673E+05 -1.414710E+05  4.888035E+05 -4.200176E+04  4.646798E+04
        73  26 -2.841663E+05 -1.235417E+06 -2.445608E+05  4.541859E+05 -4.827763E+04 -3.340859E+04
        73  27 -4.187319E+05 -1.676721E+06 -4.057978E+05  5.033976E+05 -1.657330E+04 -1.132503E+05
        74   1  1.888984E+06  3.679691E+05  3.618077E+05  3.026800E+05  1.425767E+05 -1.360095E+04
        74   2  1.655403E+06  2.462691E+05  2.251224E+05  2.547274E+05  6.803499E+04 -4.275480E+04
        74   3  1.444184E+06  1.747028E+05  1.494107E+05  2.491808E+05 -6.458852E+03 -4.470688E+04
        74   4  7.189599E+05  7.933037E+04  8.673616E+04  2.510757E+05  6.024632E+04 -1.360649E+04
        74   5  7.124061E+05  2.153664E+04  4.315020E+04  2.298752E+05  3.809341E+04 -4.276392E+04
        74   6  7.191229E+05  4.842334E+03  2.425743E+04  2.510736E+05  1.595770E+04 -4.470701E+04
        74   7 -4.497868E+05 -2.093922E+05 -1.884025E+05  1.995687E+05 -2.193027E+04 -1.359841E+04
        74   8 -2.297345E+05 -2.032458E+05 -1.388596E+05  2.050615E+05  8.196141E+03 -4.277067E+04
        74   9 -5.422763E+03 -1.650460E+05 -1.009121E+05  2.529641E+05  3.834893E+04 -4.470700E+04
        74  10  1.888962E+06  3.679635E+05  3.617692E+05  3.026815E+05 -1.057881E-09  1.329064E-10
        74  11  1.655397E+06  2.462659E+05  2.251102E+05  2.547297E+05 -7.457127E-10  4.764741E-10
        74  12  1.444184E+06  1.747006E+05  1.494069E+05  2.491806E+05 -5.042211E-11  1.117774E-10
        74  13  7.189560E+05  7.932920E+04  8.672900E+04  2.510763E+05 -1.405830E-10  2.131876E-10
        74  14  7.124040E+05  2.153428E+04  4.314404E+04  2.298766E+05  5.388019E-10  3.251147E-10
        74  15  7.191220E+05  4.840118E+03  2.425319E+04  2.510742E+05  4.206115E-10  3.746304E-11
        74  16 -4.497874E+05 -2.093925E+05 -1.884037E+05  1.995684E+05  6.178971E-10 -3.835811E-11
        74  17 -2.297351E+05 -2.032478E+05 -1.388632E+05  2.050618E+05  1.012134E-09  2.110188E-10
        74  18 -5.424880E+03 -1.650485E+05 -1.009186E+05  2.529655E+05 -3.831663E-10 -5.824287E-11
        74  19  1.888984E+06  3.679691E+05  3.618077E+05  3.026800E+05 -1.425767E+05  1.360095E+04
        74  20  1.655403E+06  2.462691E+05  2.251224E+05  2.547274E+05 -6.803499E+04  4.275480E+04
        74  21  1.444184E+06  1.747028E+05  1.494107E+05  2.491808E+05  6.458852E+03  4.470688E+04
        74  22  7.189599E+05  7.933037E+04  8.673616E+04  2.510757E+05 -6.024632E+04  1.360649E+04
        74  23  7.124061E+05  2.153664E+04  4.315020E+04  2.298752E+05 -3.809341E+04  4.276392E+04
        74  24  7.191229E+05  4.842334E+03  2.425743E+04  2.510736E+05 -1.595770E+04  4.470701E+04
        74  25 -4.497868E+05 -2.093922E+05 -1.884025E+05  1.995687E+05  2.193027E+04  1.359841E+04
        74  26 -2.297345E+05 -2.032458E+05 -1.388596E+05  2.050615E+05 -8.196141E+03  4.277067E+04
        74  27 -5.422763E+03 -1.650460E+05 -1.009121E+05  2.529641E+05 -3.834893E+04  4.470700E+04
        75   1  1.298810E+06  1.406306E+05  1.179299E+05  2.538360E+05 -8.365503E+03 -3.707981E+04
        75   2  1.075607E+06  8.461917E+04  7.079310E+04  2.303927E+05 -1.934481E+04 -2.480240E+04
        75   3  8.548455E+05  3.235572E+04  3.173550E+04  2.511584E+05 -3.032315E+04 -9.911769E+03
        75   4  7.165463E+05  4.503135E+03  1.888253E+04  2.514788E+05  1.272919E+04 -3.707733E+04
        75   5  7.158109E+05  9.616596E+02  1.193270E+04  2.293742E+05  6.776011E+03 -2.479574E+04
        75   6  7.166021E+05  3.013733E+02  9.579867E+03  2.514799E+05  8.201700E+02 -9.900143E+03
        75   7  1.346161E+05 -1.316421E+05 -8.017434E+04  2.491239E+05  3.380477E+04 -3.707500E+04
        75   8  3.561437E+05 -8.270210E+04 -4.692885E+04  2.283563E+05  3.288224E+04 -2.478915E+04
        75   9  5.783797E+05 -3.175342E+04 -1.257263E+04  2.518013E+05  3.195681E+04 -9.888482E+03
        75  10  1.298810E+06  1.406291E+05  1.179272E+05  2.538357E+05 -8.038943E-10 -7.482267E-11
        75  11  1.075607E+06  8.461841E+04  7.079124E+04  2.303923E+05 -2.782149E-10 -4.897078E-11
        75  12  8.548445E+05  3.235537E+04  3.173359E+04  2.511582E+05  9.153074E-11 -3.039494E-10
        75  13  7.165457E+05  4.501614E+03  1.887964E+04  2.514792E+05  3.893134E-10 -1.834544E-10
        75  14  7.158107E+05  9.609868E+02  1.193146E+04  2.293744E+05 -2.809923E-10 -2.012893E-10
        75  15  7.166021E+05  3.012679E+02  9.579682E+03  2.514799E+05  1.755508E-10 -4.444252E-10
        75  16  1.346145E+05 -1.316438E+05 -8.017907E+04  2.491249E+05  3.957039E-11 -2.902070E-10
        75  17  3.561424E+05 -8.270305E+04 -4.693204E+04  2.283570E+05  3.723502E-10 -5.230001E-10
        75  18  5.783786E+05 -3.175379E+04 -1.257473E+04  2.518016E+05  4.949978E-10 -5.564612E-10
        75  19  1.298810E+06  1.406306E+05  1.179299E+05  2.538360E+05  8.365503E+03  3.707981E+04
        75  20  1.075607E+06  8.461917E+04  7.079310E+04  2.303927E+05  1.934481E+04  2.480240E+04
        75  21  8.548455E+05  3.235572E+04  3.173550E+04  2.511584E+05  3.032315E+04  9.911769E+03
        75  22  7.165463E+05  4.503135E+03  1.888253E+04  2.514788E+05 -1.272919E+04  3.707733E+04
        75  23  7.158109E+05  9.616596E+02  1.193270E+04  2.293742E+05 -6.776011E+03  2.479574E+04
        75  24  7.166021E+05  3.013733E+02  9.579867E+03  2.514799E+05 -8.201700E+02  9.900143E+03
        75  25  1.346161E+05 -1.316421E+05 -8.017434E+04  2.491239E+05 -3.380477E+04  3.707500E+04
        75  26  3.561437E+05 -8.270210E+04 -4.692885E+04  2.283563E+05 -3.288224E+04  2.478915E+04
        75  27  5.783797E+05 -3.175342E+04 -1.257263E+04  2.518013E+05 -3.195681E+04  9.888482E+03
        76   1  7.134596E+05 -5.449712E+02  8.468411E+03  2.518290E+05 -3.196317E+04 -2.776652E+02
        76   2  4.911700E+05 -5.143427E+04 -2.566709E+04  2.283575E+05 -3.357115E+04  1.478723E+04
        76   3  2.696956E+05 -1.001916E+05 -5.821992E+04  2.491147E+05 -3.517714E+04  2.758548E+04
        76   4  7.166044E+05  3.066920E+02  9.583982E+03  2.514837E+05 -8.394016E+02 -2.656073E+02
        76   5  7.158261E+05  9.926539E+02  1.195862E+04  2.293696E+05 -6.808610E+03  1.479560E+04
        76   6  7.165686E+05  4.568026E+03  1.893886E+04  2.514825E+05 -1.277636E+04  2.759063E+04
        76   7  7.197513E+05  1.158874E+03  1.070319E+04  2.511383E+05  3.028454E+04 -2.535840E+02
        76   8  9.405335E+05  5.341733E+04  4.958544E+04  2.303820E+05  1.996329E+04  1.480406E+04
        76   9  1.163639E+06  1.093172E+05  9.609267E+04  2.538521E+05  9.640031E+03  2.759594E+04
        76  10  7.134585E+05 -5.452451E+02  8.466493E+03  2.518290E+05 -5.296703E-10 -2.646709E-10
        76  11  4.911687E+05 -5.143481E+04 -2.566962E+04  2.283579E+05 -2.217977E-10 -3.202299E-10
        76  12  2.696940E+05 -1.001927E+05 -5.822368E+04  2.491155E+05  2.078967E-11 -1.556821E-10
        76  13  7.166044E+05  3.066917E+02  9.583981E+03  2.514837E+05  5.008951E-10 -3.733281E-10
        76  14  7.158260E+05  9.924062E+02  1.195812E+04  2.293696E+05 -1.849166E-10 -2.603114E-10
        76  15  7.165683E+05  4.567164E+03  1.893712E+04  2.514828E+05  5.099634E-10 -1.673519E-10
        76  16  7.197504E+05  1.158628E+03  1.070147E+04  2.511383E+05  8.658261E-10 -4.049205E-10
        76  17  9.405330E+05  5.341699E+04  4.958428E+04  2.303817E+05  6.302630E-10  4.980248E-12
        76  18  1.163638E+06  1.093164E+05  9.609106E+04  2.538519E+05 -1.321393E-09  5.264691E-11
        76  19  7.134596E+05 -5.449712E+02  8.468411E+03  2.518290E+05  3.196317E+04  2.776652E+02
        76  20  4.911700E+05 -5.143427E+04 -2.566709E+04  2.283575E+05  3.357115E+04 -1.478723E+04
        76  21  2.696956E+05 -1.001916E+05 -5.821992E+04  2.491147E+05  3.517714E+04 -2.758548E+04
        76  22  7.166044E+05  3.066920E+02  9.583982E+03  2.514837E+05  8.394016E+02  2.656073E+02
        76  23  7.158261E+05  9.926539E+02  1.195862E+04  2.293696E+05  6.808610E+03 -1.479560E+04
        76  24  7.165686E+05  4.568026E+03  1.893886E+04  2.514825E+05  1.277636E+04 -2.759063E+04
        76  25  7.197513E+05  1.158874E+03  1.070319E+04  2.511383E+05 -3.028454E+04  2.535840E+02
        76  26  9.405335E+05  5.341733E+04  4.958544E+04  2.303820E+05 -1.996329E+04 -1.480406E+04
        76  27  1.163639E+06  1.093172E+05  9.609267E+04  2.538521E+05 -9.640031E+03 -2.759594E+04
        77   1  1.298447E+05 -1.334670E+05 -7.855542E+04  2.529974E+05 -3.958366E+04  3.548312E+04
        77   2 -9.490862E+04 -1.711805E+05 -1.139087E+05  2.048600E+05 -1.522991E+04  3.564908E+04
        77   3 -3.143896E+05 -1.757276E+05 -1.568054E+05  1.993556E+05  9.103570E+03  1.156298E+04
        77   4  7.191568E+05  4.918743E+03  2.433330E+04  2.511238E+05 -1.601444E+04  3.548652E+04
        77   5  7.124427E+05  2.168164E+04  4.329728E+04  2.298118E+05 -3.823087E+04  3.564192E+04
        77   6  7.190131E+05  7.966526E+04  8.703205E+04  2.511210E+05 -6.045903E+04  1.156186E+04
        77   7  1.308810E+06  1.432859E+05  1.272118E+05  2.492483E+05  7.576479E+03  3.548978E+04
        77   8  1.520422E+06  2.145073E+05  2.004746E+05  2.547967E+05 -6.126105E+04  3.563292E+04
        77   9  1.753414E+06  3.349944E+05  3.308155E+05  3.029727E+05 -1.301367E+05  1.154916E+04
        77  10  1.298427E+05 -1.334688E+05 -7.856074E+04  2.529985E+05  4.396109E-10  4.115339E-11
        77  11 -9.490921E+04 -1.711819E+05 -1.139115E+05  2.048604E+05 -2.895155E-10  3.530476E-10
        77  12 -3.143897E+05 -1.757277E+05 -1.568059E+05  1.993556E+05  1.723858E-10  8.535705E-11
        77  13  7.191562E+05  4.917321E+03  2.433045E+04  2.511243E+05  6.410512E-11  9.549805E-11
        77  14  7.124408E+05  2.167988E+04  4.329214E+04  2.298129E+05 -1.472891E-09  2.792611E-10
        77  15  7.190091E+05  7.966414E+04  8.702494E+04  2.511215E+05 -6.717370E-10  5.829224E-11
        77  16  1.308810E+06  1.432846E+05  1.272093E+05  2.492481E+05  1.428533E-10  2.731596E-11
        77  17  1.520417E+06  2.145050E+05  2.004652E+05  2.547984E+05 -1.904459E-11  1.454328E-10
        77  18  1.753396E+06  3.349897E+05  3.307835E+05  3.029740E+05 -2.678756E-10  2.157167E-11
        77  19  1.298447E+05 -1.334670E+05 -7.855542E+04  2.529974E+05  3.958366E+04 -3.548312E+04
        77  20 -9.490862E+04 -1.711805E+05 -1.139087E+05  2.048600E+05  1.522991E+04 -3.564908E+04
        77  21 -3.143896E+05 -1.757276E+05 -1.568054E+05  1.993556E+05 -9.103570E+03 -1.156298E+04
        77  22  7.191568E+05  4.918743E+03  2.433330E+04  2.511238E+05  1.601444E+04 -3.548652E+04
        77  23  7.124427E+05  2.168164E+04  4.329728E+04  2.298118E+05  3.823087E+04 -3.564192E+04
        77  24  7.190131E+05  7.966526E+04  8.703205E+04  2.511210E+05  6.045903E+04 -1.156186E+04
        77  25  1.308810E+06  1.432859E+05  1.272118E+05  2.492483E+05 -7.576479E+03 -3.548978E+04
        77  26  1.520422E+06  2.145073E+05  2.004746E+05  2.547967E+05  6.126105E+04 -3.563292E+04
        77  27  1.753414E+06  3.349944E+05  3.308155E+05  3.029727E+05  1.301367E+05 -1.154916E+04
        78   1 -4.374551E+05 -1.551580E+06 -4.304895E+05  4.959925E+05 -1.512553E+04 -1.463158E+05
        78   2 -2.740655E+05 -1.144022E+06 -2.520904E+05  4.321801E+05 -4.394613E+04 -5.846217E+04
        78   3 -1.615933E+05 -7.605504E+05 -1.437261E+05  4.449029E+05 -3.816443E+04  2.943540E+04
        78   4 -7.595033E+04 -9.151738E+04 -8.379269E+04  4.475845E+05 -1.499199E+04 -5.774288E+04
        78   5 -2.016847E+04 -8.504265E+04 -4.197994E+04  4.092662E+05 -4.390465E+04 -3.614929E+04
        78   6 -3.725264E+03 -9.123929E+04 -2.407843E+04  4.474920E+05 -3.823492E+04 -1.457186E+04
        78   7  2.854142E+05  1.370528E+06  2.627863E+05  3.990606E+05 -1.487250E+04  3.103776E+04
        78   8  2.336625E+05  9.750131E+05  1.680771E+05  3.863117E+05 -4.386488E+04 -1.379905E+04
        78   9  1.541189E+05  5.785134E+05  9.555943E+04  4.500836E+05 -3.830573E+04 -5.862525E+04
        78  10 -4.374611E+05 -1.551603E+06 -4.305302E+05  4.959907E+05 -5.694268E-10 -8.360717E-10
        78  11 -2.740685E+05 -1.144027E+06 -2.521004E+05  4.321781E+05  2.911323E-12  5.118380E-10
        78  12 -1.615951E+05 -7.605517E+05 -1.437304E+05  4.449038E+05  1.015934E-09  3.862858E-10
        78  13 -7.595147E+04 -9.152102E+04 -8.379937E+04  4.475838E+05  5.961382E-10  1.151883E-12
        78  14 -2.017089E+04 -8.504457E+04 -4.198602E+04  4.092650E+05  9.422767E-10 -8.773183E-12
        78  15 -3.726891E+03 -9.123991E+04 -2.408157E+04  4.474915E+05 -8.734940E-10  1.993820E-10
        78  16  2.854137E+05  1.370527E+06  2.627841E+05  3.990610E+05 -2.895014E-10  7.168593E-10
        78  17  2.336604E+05  9.750124E+05  1.680731E+05  3.863112E+05 -9.072417E-10 -3.991013E-10
        78  18  1.541164E+05  5.785093E+05  9.555023E+04  4.500818E+05 -3.461125E-10 -8.408910E-10
        78  19 -4.374551E+05 -1.551580E+06 -4.304895E+05  4.959925E+05  1.512553E+04  1.463158E+05
        78  20 -2.740655E+05 -1.144022E+06 -2.520904E+05  4.321801E+05  4.394613E+04  5.846217E+04
        78  21 -1.615933E+05 -7.605504E+05 -1.437261E+05  4.449029E+05  3.816443E+04 -2.943540E+04
        78  22 -7.595033E+04 -9.151738E+04 -8.379269E+04  4.475845E+05  1.499199E+04  5.774288E+04
        78  23 -2.016847E+04 -8.504265E+04 -4.197994E+04  4.092662E+05  4.390465E+04  3.614929E+04
        78  24 -3.725264E+03 -9.123929E+04 -2.407843E+04  4.474920E+05  3.823492E+04  1.457186E+04
        78  25  2.854142E+05  1.370528E+06  2.627863E+05  3.990606E+05  1.487250E+04 -3.103776E+04
        78  26  2.336625E+05  9.750131E+05  1.680771E+05  3.863117E+05  4.386488E+04  1.379905E+04
        78  27  1.541189E+05  5.785134E+05  9.555943E+04  4.500836E+05  3.830573E+04  5.862525E+04
        79   1 -1.013479E+05 -5.045958E+05 -9.360711E+04  4.498548E+05 -2.358609E+04  3.110074E+04
        79   2 -5.026645E+03 -1.082055E+05 -1.659673E+04  4.090212E+05 -1.399625E+03  3.792596E+04
        79   3  8.762070E+04  2.863675E+05  5.499099E+04  4.468832E+05  2.088149E+04  4.475487E+04
        79   4 -3.281552E+03 -8.880269E+04 -1.917386E+04  4.479770E+05 -2.365860E+04 -1.136863E+04
        79   5 -3.002989E+02 -8.783152E+04 -1.333568E+04  4.086269E+05 -1.472536E+03 -4.734665E+03
        79   6 -9.523109E+02 -8.879715E+04 -1.278714E+04  4.479733E+05  2.080797E+04  1.898924E+03
        79   7  9.477622E+04  3.271630E+05  5.525957E+04  4.460978E+05 -2.373082E+04 -5.386565E+04
        79   8  4.427004E+03 -6.745322E+04 -1.006780E+04  4.082326E+05 -1.545391E+03 -4.739664E+04
        79   9 -8.953221E+04 -4.638209E+05 -8.056389E+04  4.490627E+05  2.073428E+04 -4.093186E+04
        79  10 -1.013488E+05 -5.045970E+05 -9.360998E+04  4.498554E+05 -6.710726E-11 -6.237503E-10
        79  11 -5.027033E+03 -1.082070E+05 -1.659944E+04  4.090212E+05 -1.030822E-09  6.832457E-10
        79  12  8.761970E+04  2.863653E+05  5.498641E+04  4.468825E+05 -1.835389E-10 -2.229978E-10
        79  13 -3.282187E+03 -8.880298E+04 -1.917515E+04  4.479768E+05 -4.403017E-10 -2.037387E-11
        79  14 -3.003072E+02 -8.783155E+04 -1.333573E+04  4.086269E+05 -1.215231E-09  4.385208E-11
        79  15 -9.527767E+02 -8.879727E+04 -1.278796E+04  4.479733E+05 -1.154223E-09  2.442955E-10
        79  16  9.477484E+04  3.271598E+05  5.525307E+04  4.460968E+05 -2.440965E-10  4.690345E-10
        79  17  4.426399E+03 -6.745563E+04 -1.007202E+04  4.082325E+05 -2.674342E-10 -4.628705E-10
        79  18 -8.953313E+04 -4.638228E+05 -8.056785E+04  4.490634E+05 -4.162947E-10 -2.385584E-10
        79  19 -1.013479E+05 -5.045958E+05 -9.360711E+04  4.498548E+05  2.358609E+04 -3.110074E+04
        79  20 -5.026645E+03 -1.082055E+05 -1.659673E+04  4.090212E+05  1.399625E+03 -3.792596E+04
        79  21  8.762070E+04  2.863675E+05  5.499099E+04  4.468832E+05 -2.088149E+04 -4.475487E+04
        79  22 -3.281552E+03 -8.880269E+04 -1.917386E+04  4.479770E+05  2.365860E+04  1.136863E+04
        79  23 -3.002989E+02 -8.783152E+04 -1.333568E+04  4.086269E+05  1.472536E+03  4.734665E+03
        79  24 -9.523109E+02 -8.879715E+04 -1.278714E+04  4.479733E+05 -2.080797E+04 -1.898924E+03
        79  25  9.477622E+04  3.271630E+05  5.525957E+04  4.460978E+05  2.373082E+04  5.386565E+04
        79  26  4.427004E+03 -6.745322E+04 -1.006780E+04  4.082326E+05  1.545391E+03  4.739664E+04
        79  27 -8.953221E+04 -4.638209E+05 -8.056389E+04  4.490627E+05 -2.073428E+04  4.093186E+04
        80   1  1.471161E+05  5.391587E+05  9.889165E+04  4.488954E+05  3.552690E+04  4.830298E+04
        80   2  2.353769E+05  9.324083E+05  1.818199E+05  3.989844E+05  4.169318E+04 -5.711756E+03
        80   3  3.167099E+05  1.331063E+06  2.981284E+05  4.256659E+05  1.421719E+04 -5.974344E+04
        80   4 -1.206875E+03 -8.973888E+04 -1.398836E+04  4.475065E+05  3.545476E+04  3.944432E+03
        80   5 -8.854186E+03 -8.689128E+04 -2.074367E+04  4.092242E+05  4.172909E+04  1.459368E+04
        80   6 -3.464984E+04 -9.000463E+04 -3.900104E+04  4.475493E+05  1.433366E+04  2.525969E+04
        80   7 -1.495508E+05 -7.182469E+05 -1.268762E+05  4.461187E+05  3.538277E+04 -4.037048E+04
        80   8 -2.531480E+05 -1.105198E+06 -2.233573E+05  4.194461E+05  4.176570E+04  3.486648E+04
        80   9 -3.861489E+05 -1.509203E+06 -3.762438E+05  4.693812E+05  1.445630E+04  1.100695E+05
        80  10  1.471141E+05  5.391559E+05  9.888490E+04  4.488940E+05 -2.604778E-10 -6.891877E-10
        80  11  2.353750E+05  9.324078E+05  1.818165E+05  3.989846E+05 -8.260167E-10  5.347593E-10
        80  12  3.167087E+05  1.331059E+06  2.981213E+05  4.256666E+05 -4.510669E-10  1.945147E-10
        80  13 -1.208229E+03 -8.973923E+04 -1.399075E+04  4.475064E+05 -1.545101E-10  1.112341E-11
        80  14 -8.856112E+03 -8.689198E+04 -2.074734E+04  4.092237E+05 -1.850331E-10 -5.040591E-11
        80  15 -3.465023E+04 -9.000537E+04 -3.900263E+04  4.475490E+05  5.985045E-10  1.191590E-10
        80  16 -1.495526E+05 -7.182490E+05 -1.268816E+05  4.461199E+05 -6.627691E-10  5.433568E-10
        80  17 -2.531502E+05 -1.105199E+06 -2.233629E+05  4.194450E+05  8.166721E-10 -4.492847E-10
        80  18 -3.861524E+05 -1.509216E+06 -3.762670E+05  4.693799E+05 -3.513891E-10 -4.309092E-10
        80  19  1.471161E+05  5.391587E+05  9.889165E+04  4.488954E+05 -3.552690E+04 -4.830298E+04
        80  20  2.353769E+05  9.324083E+05  1.818199E+05  3.989844E+05 -4.169318E+04  5.711756E+03
        80  21  3.167099E+05  1.331063E+06  2.981284E+05  4.256659E+05 -1.421719E+04  5.974344E+04
        80  22 -1.206875E+03 -8.973888E+04 -1.398836E+04  4.475065E+05 -3.545476E+04 -3.944432E+03
        80  23 -8.854186E+03 -8.689128E+04 -2.074367E+04  4.092242E+05 -4.172909E+04 -1.459368E+04
        80  24 -3.464984E+04 -9.000463E+04 -3.900104E+04  4.475493E+05 -1.433366E+04 -2.525969E+04
        80  25 -1.495508E+05 -7.182469E+05 -1.268762E+05  4.461187E+05 -3.538277E+04  4.037048E+04
        80  26 -2.531480E+05 -1.105198E+06 -2.233573E+05  4.194461E+05 -4.176570E+04 -3.486648E+04
        80  27 -3.861489E+05 -1.509203E+06 -3.762438E+05  4.693812E+05 -1.445630E+04 -1.100695E+05
        81   1  1.588773E+06  2.982886E+05  2.934465E+05  2.476333E+05  1.157400E+05 -1.093225E+04
        81   2  1.398012E+06  1.985823E+05  1.820643E+05  2.082608E+05  5.519562E+04 -3.430872E+04
        81   3  1.225495E+06  1.400206E+05  1.203235E+05  2.035497E+05 -5.318963E+03 -3.571902E+04
        81   4  6.449702E+05  6.539169E+04  7.146161E+04  2.051072E+05  4.960932E+04 -1.093665E+04
        81   5  6.395691E+05  1.777511E+04  3.557037E+04  1.877782E+05  3.134776E+04 -3.431485E+04
        81   6  6.450795E+05  4.004228E+03  2.002627E+04  2.051062E+05  1.309682E+04 -3.571885E+04
        81   7 -2.980015E+05 -1.675595E+05 -1.505670E+05  1.626459E+05 -1.642166E+04 -1.093203E+04
        81   8 -1.183194E+05 -1.630643E+05 -1.109480E+05  1.673210E+05  7.528304E+03 -3.431943E+04
        81   9  6.499460E+04 -1.320300E+05 -8.028133E+04  2.066612E+05  3.149594E+04 -3.571859E+04
        81  10  1.588759E+06  2.982848E+05  2.934211E+05  2.476343E+05  5.066687E-11 -1.038500E-10
        81  11  1.398008E+06  1.985802E+05  1.820564E+05  2.082623E+05 -7.767007E-10 -2.919017E-10
        81  12  1.225495E+06  1.400192E+05  1.203211E+05  2.035496E+05  2.279547E-10 -2.270798E-10
        81  13  6.449675E+05  6.539090E+04  7.145677E+04  2.051077E+05 -6.022533E-10 -3.308708E-11
        81  14  6.395677E+05  1.777358E+04  3.556631E+04  1.877790E+05  4.312587E-10 -1.938331E-10
        81  15  6.450789E+05  4.002811E+03  2.002355E+04  2.051066E+05  1.351015E-10 -1.135604E-10
        81  16 -2.980018E+05 -1.675597E+05 -1.505678E+05  1.626458E+05 -2.585196E-10  1.600061E-10
        81  17 -1.183198E+05 -1.630656E+05 -1.109504E+05  1.673212E+05 -9.493711E-11  1.034460E-10
        81  18  6.499319E+04 -1.320317E+05 -8.028559E+04  2.066621E+05 -3.345172E-10 -7.596736E-11
        81  19  1.588773E+06  2.982886E+05  2.934465E+05  2.476333E+05 -1.157400E+05  1.093225E+04
        81  20  1.398012E+06  1.985823E+05  1.820643E+05  2.082608E+05 -5.519562E+04  3.430872E+04
        81  21  1.225495E+06  1.400206E+05  1.203235E+05  2.035497E+05  5.318963E+03  3.571902E+04
        81  22  6.449702E+05  6.539169E+04  7.146161E+04  2.051072E+05 -4.960932E+04  1.093665E+04
        81  23  6.395691E+05  1.777511E+04  3.557037E+04  1.877782E+05 -3.134776E+04  3.431485E+04
        81  24  6.450795E+05  4.004228E+03  2.002627E+04  2.051062E+05 -1.309682E+04  3.571885E+04
        81  25 -2.980015E+05 -1.675595E+05 -1.505670E+05  1.626459E+05  1.642166E+04  1.093203E+04
        81  26 -1.183194E+05 -1.630643E+05 -1.109480E+05  1.673210E+05 -7.528304E+03  3.431943E+04
        81  27  6.499460E+04 -1.320300E+05 -8.028133E+04  2.066612E+05 -3.149594E+04  3.571859E+04
        82   1  1.106757E+06  1.121836E+05  9.461935E+04  2.073747E+05 -6.918701E+03 -2.946391E+04
        82   2  9.244321E+05  6.640120E+04  5.616920E+04  1.882145E+05 -1.592462E+04 -1.938754E+04
        82   3  7.441013E+05  2.369938E+04  2.434849E+04  2.051714E+05 -2.492971E+04 -7.206407E+03
        82   4  6.429564E+05  3.715958E+03  1.561577E+04  2.054326E+05  1.042919E+04 -2.946204E+04
        82   5  6.423440E+05  7.884043E+02  9.940343E+03  1.873740E+05  5.470201E+03 -1.938295E+04
        82   6  6.429924E+05  2.421102E+02  8.088828E+03  2.054333E+05  5.095770E+02 -7.198602E+03
        82   7  1.793682E+05 -1.047629E+05 -6.339376E+04  2.034919E+05  2.776455E+04 -2.946028E+04
        82   8  3.603355E+05 -6.482822E+04 -3.628909E+04  1.865338E+05  2.685565E+04 -1.937841E+04
        82   9  5.418951E+05 -2.321533E+04 -8.168677E+03  2.056951E+05  2.594487E+04 -7.190774E+03
        82  10  1.106756E+06  1.121827E+05  9.461763E+04  2.073745E+05 -3.589087E-10 -4.354165E-11
        82  11  9.244318E+05  6.640073E+04  5.616802E+04  1.882143E+05 -5.235500E-11  1.202453E-11
        82  12  7.441006E+05  2.369916E+04  2.434723E+04  2.051713E+05  7.303803E-11  7.596043E-11
        82  13  6.429561E+05  3.714996E+03  1.561393E+04  2.054328E+05  4.152849E-10 -1.007718E-10
        82  14  6.423438E+05  7.879926E+02  9.939580E+03  1.873741E+05  3.849847E-10  4.561433E-11
        82  15  6.429924E+05  2.420545E+02  8.088731E+03  2.054333E+05 -8.655058E-10 -1.005499E-11
        82  16  1.793671E+05 -1.047641E+05 -6.339685E+04  2.034926E+05 -3.368190E-10 -1.662406E-10
        82  17  3.603346E+05 -6.482882E+04 -3.629115E+04  1.865342E+05 -3.260360E-10 -1.645639E-10
        82  18  5.418943E+05 -2.321557E+04 -8.170039E+03  2.056952E+05 -1.125166E-09 -2.958149E-10
        82  19  1.106757E+06  1.121836E+05  9.461935E+04  2.073747E+05  6.918701E+03  2.946391E+04
        82  20  9.244321E+05  6.640120E+04  5.616920E+04  1.882145E+05  1.592462E+04  1.938754E+04
        82  21  7.441013E+05  2.369938E+04  2.434849E+04  2.051714E+05  2.492971E+04  7.206407E+03
        82  22  6.429564E+05  3.715958E+03  1.561577E+04  2.054326E+05 -1.042919E+04  2.946204E+04
        82  23  6.423440E+05  7.884043E+02  9.940343E+03  1.873740E+05 -5.470201E+03  1.938295E+04
        82  24  6.429924E+05  2.421102E+02  8.088828E+03  2.054333E+05 -5.095770E+02  7.198602E+03
        82  25  1.793682E+05 -1.047629E+05 -6.339376E+04  2.034919E+05 -2.776455E+04  2.946028E+04
        82  26  3.603355E+05 -6.482822E+04 -3.628909E+04  1.865338E+05 -2.685565E+04  1.937841E+04
        82  27  5.418951E+05 -2.321533E+04 -8.168677E+03  2.056951E+05 -2.594487E+04  7.190774E+03
        83   1  6.286141E+05 -3.182785E+03  5.404027E+03  2.057457E+05 -2.632320E+04  6.647362E+02
        83   2  4.469924E+05 -4.470901E+04 -2.228097E+04  1.865007E+05 -2.785226E+04  1.295780E+04
        83   3  2.660925E+05 -8.435162E+04 -4.849701E+04  2.033871E+05 -2.937984E+04  2.336871E+04
        83   4  6.430059E+05  2.441264E+02  8.156946E+03  2.054360E+05 -8.964409E+02  6.727742E+02
        83   5  6.423366E+05  8.561929E+02  1.031695E+04  1.873705E+05 -6.046014E+03  1.296327E+04
        83   6  6.429803E+05  3.979781E+03  1.645523E+04  2.054352E+05 -1.119446E+04  2.337195E+04
        83   7  6.573993E+05  3.671373E+03  1.091228E+04  2.051264E+05  2.453089E+04  6.807866E+02
        83   8  8.377194E+05  4.641967E+04  4.291549E+04  1.882406E+05  1.576686E+04  1.296880E+04
        83   9  1.020008E+06  9.230376E+04  8.140387E+04  2.074846E+05  7.001608E+03  2.337530E+04
        83  10  6.286134E+05 -3.182971E+03  5.402725E+03  2.057457E+05 -3.266054E-10  9.437223E-11
        83  11  4.469915E+05 -4.470940E+04 -2.228275E+04  1.865010E+05 -1.832049E-10  4.364766E-10
        83  12  2.660914E+05 -8.435244E+04 -4.849966E+04  2.033877E+05  1.614275E-10  2.305729E-10
        83  13  6.430059E+05  2.441257E+02  8.156943E+03  2.054360E+05 -1.080593E-09 -8.794112E-11
        83  14  6.423365E+05  8.560025E+02  1.031657E+04  1.873706E+05 -1.577858E-09  3.771075E-11
        83  15  6.429800E+05  3.979161E+03  1.645397E+04  2.054354E+05 -8.062733E-10  2.313001E-10
        83  16  6.573987E+05  3.671211E+03  1.091115E+04  2.051264E+05  3.649044E-10 -3.156945E-10
        83  17  8.377191E+05  4.641942E+04  4.291471E+04  1.882405E+05 -4.590828E-10 -8.109556E-12
        83  18  1.020008E+06  9.230316E+04  8.140275E+04  2.074845E+05  2.022386E-10  2.192283E-10
        83  19  6.286141E+05 -3.182785E+03  5.404027E+03  2.057457E+05  2.632320E+04 -6.647362E+02
        83  20  4.469924E+05 -4.470901E+04 -2.228097E+04  1.865007E+05  2.785226E+04 -1.295780E+04
        83  21  2.660925E+05 -8.435162E+04 -4.849701E+04  2.033871E+05  2.937984E+04 -2.336871E+04
        83  22  6.430059E+05  2.441264E+02  8.156946E+03  2.054360E+05  8.964409E+02 -6.727742E+02
        83  23  6.423366E+05  8.561929E+02  1.031695E+04  1.873705E+05  6.046014E+03 -1.296327E+04
        83  24  6.429803E+05  3.979781E+03  1.645523E+04  2.054352E+05  1.119446E+04 -2.337195E+04
        83  25  6.573993E+05  3.671373E+03  1.091228E+04  2.051264E+05 -2.453089E+04 -6.807866E+02
        83  26  8.377194E+05  4.641967E+04  4.291549E+04  1.882406E+05 -1.576686E+04 -1.296880E+04
        83  27  1.020008E+06  9.230376E+04  8.140387E+04  2.074846E+05 -7.001608E+03 -2.337530E+04
        84   1  1.519651E+05 -1.115212E+05 -6.482949E+04  2.067871E+05 -3.316109E+04  2.979756E+04
        84   2 -3.195473E+04 -1.414178E+05 -9.285037E+04  1.659847E+05 -1.398620E+04  2.974777E+04
        84   3 -2.109540E+05 -1.420409E+05 -1.260231E+05  1.599806E+05  5.175671E+03  9.625180E+03
        84   4  6.452412E+05  4.292352E+03  2.117708E+04  2.051362E+05 -1.400766E+04  2.979961E+04
        84   5  6.394076E+05  1.893260E+04  3.774774E+04  1.877400E+05 -3.337951E+04  2.974289E+04
        84   6  6.451409E+05  6.951682E+04  7.591641E+04  2.051345E+05 -5.276001E+04  9.624792E+03
        84   7  1.138756E+06  1.200929E+05  1.071764E+05  2.034838E+05  5.160521E+03  2.980155E+04
        84   8  1.311204E+06  1.792580E+05  1.683262E+05  2.095193E+05 -5.279331E+04  2.973665E+04
        84   9  1.501921E+06  2.810316E+05  2.778190E+05  2.503508E+05 -1.107751E+05  9.615987E+03
        84  10  1.519637E+05 -1.115224E+05 -6.483323E+04  2.067879E+05 -3.684723E-10  1.531022E-10
        84  11 -3.195518E+04 -1.414188E+05 -9.285240E+04  1.659851E+05 -1.007519E-09  1.508269E-10
        84  12 -2.109541E+05 -1.420410E+05 -1.260233E+05  1.599806E+05  5.374441E-10  8.250610E-11
        84  13  6.452408E+05  4.291346E+03  2.117504E+04  2.051365E+05  2.350500E-10  2.870802E-10
        84  14  6.394062E+05  1.893135E+04  3.774398E+04  1.877408E+05 -4.759280E-10  1.245158E-10
        84  15  6.451379E+05  6.951598E+04  7.591100E+04  2.051349E+05  8.906060E-11  9.413148E-11
        84  16  1.138756E+06  1.200920E+05  1.071747E+05  2.034837E+05  4.893992E-10  3.477872E-10
        84  17  1.311201E+06  1.792563E+05  1.683193E+05  2.095205E+05 -3.581015E-10  3.247462E-10
        84  18  1.501908E+06  2.810282E+05  2.777958E+05  2.503517E+05 -4.052611E-11  1.603995E-10
        84  19  1.519651E+05 -1.115212E+05 -6.482949E+04  2.067871E+05  3.316109E+04 -2.979756E+04
        84  20 -3.195473E+04 -1.414178E+05 -9.285037E+04  1.659847E+05  1.398620E+04 -2.974777E+04
        84  21 -2.109540E+05 -1.420409E+05 -1.260231E+05  1.599806E+05 -5.175671E+03 -9.625180E+03
        84  22  6.452412E+05  4.292352E+03  2.117708E+04  2.051362E+05  1.400766E+04 -2.979961E+04
        84  23  6.394076E+05  1.893260E+04  3.774774E+04  1.877400E+05  3.337951E+04 -2.974289E+04
        84  24  6.451409E+05  6.951682E+04  7.591641E+04  2.051345E+05  5.276001E+04 -9.624792E+03
        84  25  1.138756E+06  1.200929E+05  1.071764E+05  2.034838E+05 -5.160521E+03 -2.980155E+04
        84  26  1.311204E+06  1.792580E+05  1.683262E+05  2.095193E+05  5.279331E+04 -2.973665E+04
        84  27  1.501921E+06  2.810316E+05  2.778190E+05  2.503508E+05  1.107751E+05 -9.615987E+03
        85   1 -3.869278E+05 -1.340173E+06 -3.807418E+05  4.276095E+05 -1.341880E+04 -1.313982E+05
        85   2 -2.436250E+05 -9.907191E+05 -2.242340E+05  3.715292E+05 -3.932636E+04 -5.354354E+04
        85   3 -1.463843E+05 -6.628495E+05 -1.300091E+05  3.809205E+05 -3.488645E+04  2.434591E+04
        85   4 -6.938316E+04 -5.738129E+04 -7.637680E+04  3.832295E+05 -1.331867E+04 -5.251596E+04
        85   5 -1.854750E+04 -5.149845E+04 -3.836022E+04  3.504546E+05 -3.929378E+04 -3.279270E+04
        85   6 -3.623078E+03 -5.717082E+04 -2.217343E+04  3.831587E+05 -3.493666E+04 -1.308054E+04
        85   7  2.480540E+05  1.226942E+06  2.278981E+05  3.387563E+05 -1.322997E+04  2.652879E+04
        85   8  2.064783E+05  8.885690E+05  1.474720E+05  3.293469E+05 -3.926264E+04 -1.201105E+04
        85   9  1.391186E+05  5.488693E+05  8.565368E+04  3.853989E+05 -3.498711E+04 -5.054248E+04
        85  10 -3.869326E+05 -1.340192E+06 -3.807746E+05  4.276081E+05  1.004357E-10 -1.233721E-09
        85  11 -2.436274E+05 -9.907226E+05 -2.242423E+05  3.715275E+05 -3.697702E-10  1.896919E-10
        85  12 -1.463857E+05 -6.628505E+05 -1.300125E+05  3.809212E+05 -7.484951E-10  1.737372E-09
        85  13 -6.938409E+04 -5.738430E+04 -7.638231E+04  3.832289E+05  4.337371E-10  1.523229E-11
        85  14 -1.854945E+04 -5.150001E+04 -3.836514E+04  3.504535E+05  6.402700E-10 -3.960415E-10
        85  15 -3.624434E+03 -5.717133E+04 -2.217604E+04  3.831583E+05 -3.946119E-11 -5.349156E-11
        85  16  2.480536E+05  1.226941E+06  2.278964E+05  3.387566E+05 -5.768165E-10  1.126147E-09
        85  17  2.064766E+05  8.885684E+05  1.474688E+05  3.293465E+05 -7.087335E-10 -2.857238E-10
        85  18  1.391166E+05  5.488662E+05  8.564659E+04  3.853974E+05 -1.289678E-10 -1.671709E-09
        85  19 -3.869278E+05 -1.340173E+06 -3.807418E+05  4.276095E+05  1.341880E+04  1.313982E+05
        85  20 -2.436250E+05 -9.907191E+05 -2.242340E+05  3.715292E+05  3.932636E+04  5.354354E+04
        85  21 -1.463843E+05 -6.628495E+05 -1.300091E+05  3.809205E+05  3.488645E+04 -2.434591E+04
        85  22 -6.938316E+04 -5.738129E+04 -7.637680E+04  3.832295E+05  1.331867E+04  5.251596E+04
        85  23 -1.854750E+04 -5.149845E+04 -3.836022E+04  3.504546E+05  3.929378E+04  3.279270E+04
        85  24 -3.623078E+03 -5.717082E+04 -2.217343E+04  3.831587E+05  3.493666E+04  1.308054E+04
        85  25  2.480540E+05  1.226942E+06  2.278981E+05  3.387563E+05  1.322997E+04 -2.652879E+04
        85  26  2.064783E+05  8.885690E+05  1.474720E+05  3.293469E+05  3.926264E+04  1.201105E+04
        85  27  1.391186E+05  5.488693E+05  8.565368E+04  3.853989E+05  3.498711E+04  5.054248E+04
        86   1 -9.476734E+04 -4.435415E+05 -8.682936E+04  3.853838E+05 -2.246408E+04  2.596200E+04
        86   2 -1.213901E+04 -1.040497E+05 -2.072204E+04  3.501825E+05 -3.545155E+03  3.274805E+04
        86   3  6.690062E+04  2.336560E+05  4.002626E+04  3.823576E+05  1.560691E+04  3.953677E+04
        86   4 -3.227101E+03 -5.496706E+04 -1.778564E+04  3.835854E+05 -2.251598E+04 -1.010825E+04
        86   5 -5.376232E+02 -5.405186E+04 -1.271403E+04  3.498957E+05 -3.598152E+03 -3.776270E+03
        86   6 -1.352383E+03 -5.495569E+04 -1.268570E+04  3.835829E+05  1.555267E+04  2.554906E+03
        86   7  8.830552E+04  3.337577E+05  5.125733E+04  3.817858E+05 -2.256764E+04 -4.620044E+04
        86   8  1.106436E+04 -4.048629E+03 -4.701074E+03  3.496088E+05 -3.651112E+03 -4.030343E+04
        86   9 -6.960936E+04 -3.434835E+05 -6.539589E+04  3.848076E+05  1.549825E+04 -3.441023E+04
        86  10 -9.476806E+04 -4.435423E+05 -8.683158E+04  3.853843E+05  1.157293E-10 -3.978130E-10
        86  11 -1.213932E+04 -1.040509E+05 -2.072408E+04  3.501826E+05 -5.514536E-11  5.459308E-10
        86  12  6.689994E+04  2.336543E+05  4.002286E+04  3.823571E+05 -3.253236E-10  1.035407E-09
        86  13 -3.227673E+03 -5.496731E+04 -1.778678E+04  3.835852E+05 -3.093117E-10  2.043241E-11
        86  14 -5.376409E+02 -5.405188E+04 -1.271408E+04  3.498957E+05  7.990594E-10 -4.445376E-10
        86  15 -1.352645E+03 -5.495576E+04 -1.268617E+04  3.835829E+05  1.149219E-10 -7.224672E-11
        86  16  8.830440E+04  3.337553E+05  5.125237E+04  3.817849E+05 -4.557928E-10  2.212891E-10
        86  17  1.106391E+04 -4.050377E+03 -4.704151E+03  3.496087E+05  4.199907E-11 -5.507339E-10
        86  18 -6.960993E+04 -3.434849E+05 -6.539857E+04  3.848080E+05  4.135604E-10 -1.033350E-09
        86  19 -9.476734E+04 -4.435415E+05 -8.682936E+04  3.853838E+05  2.246408E+04 -2.596200E+04
        86  20 -1.213901E+04 -1.040497E+05 -2.072204E+04  3.501825E+05  3.545155E+03 -3.274805E+04
        86  21  6.690062E+04  2.336560E+05  4.002626E+04  3.823576E+05 -1.560691E+04 -3.953677E+04
        86  22 -3.227101E+03 -5.496706E+04 -1.778564E+04  3.835854E+05  2.251598E+04  1.010825E+04
        86  23 -5.376232E+02 -5.405186E+04 -1.271403E+04  3.498957E+05  3.598152E+03  3.776270E+03
        86  24 -1.352383E+03 -5.495569E+04 -1.268570E+04  3.835829E+05 -1.555267E+04 -2.554906E+03
        86  25  8.830552E+04  3.337577E+05  5.125733E+04  3.817858E+05  2.256764E+04  4.620044E+04
        86  26  1.106436E+04 -4.048629E+03 -4.701074E+03  3.496088E+05  3.651112E+03  4.030343E+04
        86  27 -6.960936E+04 -3.434835E+05 -6.539589E+04  3.848076E+05 -1.549825E+04  3.441023E+04
        87   1  1.177956E+05  4.498300E+05  7.712758E+04  3.844264E+05  2.820412E+04  4.283099E+04
        87   2  1.919252E+05  7.871737E+05  1.460410E+05  3.393998E+05  3.399306E+04 -1.515621E+02
        87   3  2.564205E+05  1.127778E+06  2.404905E+05  3.600058E+05  1.170024E+04 -4.314461E+04
        87   4 -1.589859E+03 -5.596415E+04 -1.411719E+04  3.831955E+05  2.815068E+04  4.602693E+03
        87   5 -9.480945E+03 -5.295166E+04 -2.140228E+04  3.503923E+05  3.401702E+04  1.558474E+04
        87   6 -3.637378E+04 -5.615167E+04 -4.061192E+04  3.832336E+05  1.178238E+04  2.657896E+04
        87   7 -1.209888E+05 -5.615062E+05 -1.053665E+05  3.819654E+05  2.809737E+04 -3.359534E+04
        87   8 -2.109296E+05 -8.924025E+05 -1.888799E+05  3.613692E+05  3.404156E+04  3.130019E+04
        87   9 -3.292642E+05 -1.238784E+06 -3.217935E+05  4.064163E+05  1.186985E+04  9.617037E+04
        87  10  1.177942E+05  4.498279E+05  7.712264E+04  3.844255E+05  5.939646E-10  6.402308E-11
        87  11  1.919239E+05  7.871734E+05  1.460388E+05  3.393998E+05  2.272776E-10  3.018101E-10
        87  12  2.564199E+05  1.127776E+06  2.404867E+05  3.600062E+05 -3.906292E-10  2.040387E-10
        87  13 -1.590716E+03 -5.596438E+04 -1.411871E+04  3.831954E+05  3.923730E-10 -5.598505E-12
        87  14 -9.482253E+03 -5.295223E+04 -2.140491E+04  3.503918E+05  3.601999E-10 -4.467309E-10
        87  15 -3.637412E+04 -5.615246E+04 -4.061351E+04  3.832334E+05  2.632406E-10 -3.267977E-11
        87  16 -1.209900E+05 -5.615076E+05 -1.053701E+05  3.819661E+05 -4.826842E-10 -3.024451E-10
        87  17 -2.109311E+05 -8.924038E+05 -1.888839E+05  3.613683E+05  3.007079E-10 -4.475612E-10
        87  18 -3.292668E+05 -1.238794E+06 -3.218112E+05  4.064154E+05 -1.455416E-10 -1.954075E-10
        87  19  1.177956E+05  4.498300E+05  7.712758E+04  3.844264E+05 -2.820412E+04 -4.283099E+04
        87  20  1.919252E+05  7.871737E+05  1.460410E+05  3.393998E+05 -3.399306E+04  1.515621E+02
        87  21  2.564205E+05  1.127778E+06  2.404905E+05  3.600058E+05 -1.170024E+04  4.314461E+04
        87  22 -1.589859E+03 -5.596415E+04 -1.411719E+04  3.831955E+05 -2.815068E+04 -4.602693E+03
        87  23 -9.480945E+03 -5.295166E+04 -2.140228E+04  3.503923E+05 -3.401702E+04 -1.558474E+04
        87  24 -3.637378E+04 -5.615167E+04 -4.061192E+04  3.832336E+05 -1.178238E+04 -2.657896E+04
        87  25 -1.209888E+05 -5.615062E+05 -1.053665E+05  3.819654E+05 -2.809737E+04  3.359534E+04
        87  26 -2.109296E+05 -8.924025E+05 -1.888799E+05  3.613692E+05 -3.404156E+04 -3.130019E+04
        87  27 -3.292642E+05 -1.238784E+06 -3.217935E+05  4.064163E+05 -1.186985E+04 -9.617037E+04
        88   1  1.351076E+06  2.486153E+05  2.442841E+05  2.097322E+05  9.500398E+04 -9.176139E+03
        88   2  1.187961E+06  1.661192E+05  1.515820E+05  1.772919E+05  4.474607E+04 -2.872998E+04
        88   3  1.039735E+06  1.167769E+05  9.984475E+04  1.745777E+05 -5.490119E+03 -2.973670E+04
        88   4  5.551551E+05  5.215891E+04  5.699072E+04  1.758162E+05  3.954273E+04 -9.179205E+03
        88   5  5.508464E+05  1.418498E+04  2.838126E+04  1.609545E+05  2.497212E+04 -2.873431E+04
        88   6  5.552331E+05  3.197820E+03  1.600212E+04  1.758157E+05  1.040921E+04 -2.973638E+04
        88   7 -2.401745E+05 -1.443367E+05 -1.303340E+05  1.419438E+05 -1.584798E+04 -9.176234E+03
        88   8 -8.587721E+04 -1.377721E+05 -9.483686E+04  1.446341E+05  5.217957E+03 -2.873761E+04
        88   9  7.096155E+04 -1.103938E+05 -6.784769E+04  1.770527E+05  2.629652E+04 -2.973600E+04
        88  10  1.351066E+06  2.486128E+05  2.442670E+05  2.097329E+05 -4.532196E-10  6.384630E-11
        88  11  1.187959E+06  1.661177E+05  1.515767E+05  1.772930E+05  3.360912E-10  2.236441E-10
        88  12  1.039735E+06  1.167760E+05  9.984303E+04  1.745775E+05  3.659523E-10 -9.363177E-11
        88  13  5.551534E+05  5.215840E+04  5.698762E+04  1.758165E+05 -6.308150E-11  4.317481E-11
        88  14  5.508456E+05  1.418393E+04  2.837853E+04  1.609551E+05  5.056268E-10  2.207857E-10
        88  15  5.552328E+05  3.196841E+03  1.600025E+04  1.758159E+05 -2.515350E-10 -6.954741E-11
        88  16 -2.401748E+05 -1.443368E+05 -1.303346E+05  1.419437E+05 -8.456738E-11  2.530850E-11
        88  17 -8.587746E+04 -1.377730E+05 -9.483846E+04  1.446343E+05 -6.858067E-10  6.250513E-12
        88  18  7.096057E+04 -1.103949E+05 -6.785066E+04  1.770533E+05 -2.995052E-11 -4.725639E-11
        88  19  1.351076E+06  2.486153E+05  2.442841E+05  2.097322E+05 -9.500398E+04  9.176139E+03
        88  20  1.187961E+06  1.661192E+05  1.515820E+05  1.772919E+05 -4.474607E+04  2.872998E+04
        88  21  1.039735E+06  1.167769E+05  9.984475E+04  1.745777E+05  5.490119E+03  2.973670E+04
        88  22  5.551551E+05  5.215891E+04  5.699072E+04  1.758162E+05 -3.954273E+04  9.179205E+03
        88  23  5.508464E+05  1.418498E+04  2.838126E+04  1.609545E+05 -2.497212E+04  2.873431E+04
        88  24  5.552331E+05  3.197820E+03  1.600212E+04  1.758157E+05 -1.040921E+04  2.973638E+04
        88  25 -2.401745E+05 -1.443367E+05 -1.303340E+05  1.419438E+05  1.584798E+04  9.176234E+03
        88  26 -8.587721E+04 -1.377721E+05 -9.483686E+04  1.446341E+05 -5.217957E+03  2.873761E+04
        88  27  7.096155E+04 -1.103938E+05 -6.784769E+04  1.770527E+05 -2.629652E+04  2.973600E+04
        89   1  9.381094E+05  9.293791E+04  7.812237E+04  1.776437E+05 -6.722439E+03 -2.434828E+04
        89   2  7.818718E+05  5.387493E+04  4.559951E+04  1.612849E+05 -1.412178E+04 -1.565991E+04
        89   3  6.272604E+05  1.730593E+04  1.851514E+04  1.758878E+05 -2.152039E+04 -5.200423E+03
        89   4  5.535408E+05  2.965037E+03  1.249760E+04  1.760923E+05  8.275374E+03 -2.434674E+04
        89   5  5.530480E+05  6.269652E+02  8.008625E+03  1.606113E+05  4.280362E+03 -1.565645E+04
        89   6  5.535658E+05  1.935248E+02  6.596674E+03  1.760928E+05  2.842821E+02 -5.194704E+03
        89   7  1.691179E+05 -8.701556E+04 -5.313123E+04  1.745418E+05  2.326420E+04 -2.434528E+04
        89   8  3.242767E+05 -5.262351E+04 -2.958251E+04  1.599381E+05  2.267596E+04 -1.565303E+04
        89   9  4.798775E+05 -1.691890E+04 -5.320152E+03  1.762976E+05  2.208646E+04 -5.188969E+03
        89  10  9.381091E+05  9.293726E+04  7.812118E+04  1.776436E+05 -3.348399E-12 -2.498003E-10
        89  11  7.818716E+05  5.387462E+04  4.559868E+04  1.612847E+05 -7.346874E-11 -1.074326E-10
        89  12  6.272599E+05  1.730578E+04  1.851422E+04  1.758878E+05 -2.899828E-10  2.220718E-10
        89  13  5.535405E+05  2.964382E+03  1.249636E+04  1.760924E+05  5.167044E-10 -1.041539E-10
        89  14  5.530480E+05  6.266970E+02  8.008130E+03  1.606114E+05  1.338122E-09  8.543992E-11
        89  15  5.535658E+05  1.934958E+02  6.596624E+03  1.760928E+05 -6.475748E-10  2.757168E-10
        89  16  1.691172E+05 -8.701634E+04 -5.313336E+04  1.745423E+05  2.782954E-10  6.036944E-11
        89  17  3.242761E+05 -5.262391E+04 -2.958394E+04  1.599383E+05 -3.796399E-10  2.478715E-10
        89  18  4.798770E+05 -1.691906E+04 -5.321119E+03  1.762977E+05  1.102863E-10  4.455510E-10
        89  19  9.381094E+05  9.293791E+04  7.812237E+04  1.776437E+05  6.722439E+03  2.434828E+04
        89  20  7.818718E+05  5.387493E+04  4.559951E+04  1.612849E+05  1.412178E+04  1.565991E+04
        89  21  6.272604E+05  1.730593E+04  1.851514E+04  1.758878E+05  2.152039E+04  5.200423E+03
        89  22  5.535408E+05  2.965037E+03  1.249760E+04  1.760923E+05 -8.275374E+03  2.434674E+04
        89  23  5.530480E+05  6.269652E+02  8.008625E+03  1.606113E+05 -4.280362E+03  1.565645E+04
        89  24  5.535658E+05  1.935248E+02  6.596674E+03  1.760928E+05 -2.842821E+02  5.194704E+03
        89  25  1.691179E+05 -8.701556E+04 -5.313123E+04  1.745418E+05 -2.326420E+04  2.434528E+04
        89  26  3.242767E+05 -5.262351E+04 -2.958251E+04  1.599381E+05 -2.267596E+04  1.565303E+04
        89  27  4.798775E+05 -1.691890E+04 -5.320152E+03  1.762976E+05 -2.208646E+04  5.188969E+03
        90   1  5.282692E+05 -5.742840E+03  2.316700E+03  1.763592E+05 -2.266339E+04  1.547694E+03
        90   2  3.726070E+05 -4.134943E+04 -2.141445E+04  1.598873E+05 -2.377431E+04  1.207069E+04
        90   3  2.175115E+05 -7.540692E+04 -4.403396E+04  1.743857E+05 -2.488415E+04  2.094659E+04
        90   4  5.535851E+05  1.936703E+02  6.698732E+03  1.760943E+05 -8.661349E+02  1.553530E+03
        90   5  5.530283E+05  7.136724E+02  8.571155E+03  1.606094E+05 -5.144189E+03  1.207455E+04
        90   6  5.535649E+05  3.333282E+03  1.375227E+04  1.760937E+05 -9.421462E+03  2.094875E+04
        90   7  5.789027E+05  6.130401E+03  1.108253E+04  1.758295E+05  2.093198E+04  1.559348E+03
        90   8  7.334824E+05  4.277528E+04  3.855708E+04  1.613316E+05  1.349117E+04  1.207846E+04
        90   9  8.897297E+05  8.206758E+04  7.153557E+04  1.778027E+05  6.049334E+03  2.095099E+04
        90  10  5.282686E+05 -5.742980E+03  2.315731E+03  1.763592E+05  3.919786E-10  6.438550E-10
        90  11  3.726064E+05 -4.134974E+04 -2.141579E+04  1.598876E+05 -5.025121E-10  5.961132E-10
        90  12  2.175107E+05 -7.540756E+04 -4.403595E+04  1.743861E+05 -3.734903E-10  1.888966E-10
        90  13  5.535851E+05  1.936675E+02  6.698726E+03  1.760943E+05  5.185794E-10  3.881596E-10
        90  14  5.530282E+05  7.135086E+02  8.570831E+03  1.606094E+05  6.382312E-10  2.621778E-10
        90  15  5.535647E+05  3.332786E+03  1.375128E+04  1.760939E+05  4.496212E-10  1.048526E-10
        90  16  5.789022E+05  6.130281E+03  1.108170E+04  1.758294E+05 -1.965080E-10  2.115881E-10
        90  17  7.334822E+05  4.277507E+04  3.855646E+04  1.613315E+05  1.246423E-09 -1.546741E-10
        90  18  8.897296E+05  8.206710E+04  7.153468E+04  1.778026E+05  2.584212E-10 -9.890837E-11
        90  19  5.282692E+05 -5.742840E+03  2.316700E+03  1.763592E+05  2.266339E+04 -1.547694E+03
        90  20  3.726070E+05 -4.134943E+04 -2.141445E+04  1.598873E+05  2.377431E+04 -1.207069E+04
        90  21  2.175115E+05 -7.540692E+04 -4.403396E+04  1.743857E+05  2.488415E+04 -2.094659E+04
        90  22  5.535851E+05  1.936703E+02  6.698732E+03  1.760943E+05  8.661349E+02 -1.553530E+03
        90  23  5.530283E+05  7.136724E+02  8.571155E+03  1.606094E+05  5.144189E+03 -1.207455E+04
        90  24  5.535649E+05  3.333282E+03  1.375227E+04  1.760937E+05  9.421462E+03 -2.094875E+04
        90  25  5.789027E+05  6.130401E+03  1.108253E+04  1.758295E+05 -2.093198E+04 -1.559348E+03
        90  26  7.334824E+05  4.277528E+04  3.855708E+04  1.613316E+05 -1.349117E+04 -1.207846E+04
        90  27  8.897297E+05  8.206758E+04  7.153557E+04  1.778027E+05 -6.049334E+03 -2.095099E+04
        91   1  1.196225E+05 -9.871340E+04 -5.814826E+04  1.772271E+05 -2.808022E+04  2.643250E+04
        91   2 -3.787376E+04 -1.246496E+05 -8.270243E+04  1.426994E+05 -1.072245E+04  2.618708E+04
        91   3 -1.914739E+05 -1.262667E+05 -1.124668E+05  1.379795E+05  6.624947E+03  8.447300E+03
        91   4  5.554624E+05  3.596701E+03  1.772270E+04  1.758333E+05 -1.177236E+04  2.643373E+04
        91   5  5.505786E+05  1.587705E+04  3.163435E+04  1.609319E+05 -2.800805E+04  2.618357E+04
        91   6  5.553877E+05  5.829238E+04  6.365056E+04  1.758325E+05 -4.425025E+04  8.447759E+03
        91   7  9.914890E+05  1.058967E+05  9.358797E+04  1.744384E+05  4.546602E+03  2.643490E+04
        91   8  1.139365E+06  1.563844E+05  1.459561E+05  1.791820E+05 -4.530967E+04  2.617904E+04
        91   9  1.302771E+06  2.428184E+05  2.397399E+05  2.137314E+05 -9.518629E+04  8.442020E+03
        91  10  1.196215E+05 -9.871437E+04 -5.815106E+04  1.772277E+05  2.609816E-10  6.006703E-11
        91  11 -3.787406E+04 -1.246503E+05 -8.270394E+04  1.426996E+05 -6.922352E-10  8.940876E-11
        91  12 -1.914740E+05 -1.262668E+05 -1.124670E+05  1.379794E+05 -4.789274E-10  1.092064E-10
        91  13  5.554621E+05  3.595913E+03  1.772112E+04  1.758335E+05  4.950111E-11 -4.861685E-11
        91  14  5.505775E+05  1.587610E+04  3.163159E+04  1.609325E+05  3.670080E-10 -1.938929E-10
        91  15  5.553855E+05  5.829178E+04  6.364675E+04  1.758328E+05 -3.301050E-10 -1.555497E-10
        91  16  9.914888E+05  1.058959E+05  9.358662E+04  1.744383E+05  3.887379E-10 -7.371389E-11
        91  17  1.139362E+06  1.563831E+05  1.459509E+05  1.791830E+05  2.397349E-10 -3.508220E-10
        91  18  1.302761E+06  2.428159E+05  2.397228E+05  2.137320E+05  8.953927E-10 -2.484225E-10
        91  19  1.196225E+05 -9.871340E+04 -5.814826E+04  1.772271E+05  2.808022E+04 -2.643250E+04
        91  20 -3.787376E+04 -1.246496E+05 -8.270243E+04  1.426994E+05  1.072245E+04 -2.618708E+04
        91  21 -1.914739E+05 -1.262667E+05 -1.124668E+05  1.379795E+05 -6.624947E+03 -8.447300E+03
        91  22  5.554624E+05  3.596701E+03  1.772270E+04  1.758333E+05  1.177236E+04 -2.643373E+04
        91  23  5.505786E+05  1.587705E+04  3.163435E+04  1.609319E+05  2.800805E+04 -2.618357E+04
        91  24  5.553877E+05  5.829238E+04  6.365056E+04  1.758325E+05  4.425025E+04 -8.447759E+03
        91  25  9.914890E+05  1.058967E+05  9.358797E+04  1.744384E+05 -4.546602E+03 -2.643490E+04
        91  26  1.139365E+06  1.563844E+05  1.459561E+05  1.791820E+05  4.530967E+04 -2.617904E+04
        91  27  1.302771E+06  2.428184E+05  2.397399E+05  2.137314E+05  9.518629E+04 -8.442020E+03
        92   1 -3.388415E+05 -1.154352E+06 -3.330096E+05  3.695756E+05 -1.190028E+04 -1.146629E+05
        92   2 -2.154159E+05 -8.518221E+05 -1.972800E+05  3.214037E+05 -3.509037E+04 -4.667332E+04
        92   3 -1.314469E+05 -5.679529E+05 -1.157379E+05  3.298768E+05 -3.156406E+04  2.134297E+04
        92   4 -5.898384E+04 -2.363109E+04 -6.487627E+04  3.317752E+05 -1.182420E+04 -4.448800E+04
        92   5 -1.581479E+04 -1.863997E+04 -3.267845E+04  3.034242E+05 -3.506481E+04 -2.769049E+04
        92   6 -3.170695E+03 -2.347027E+04 -1.905516E+04  3.317235E+05 -3.160116E+04 -1.090109E+04
        92   7  2.207900E+05  1.108280E+06  2.031874E+05  2.939050E+05 -1.175678E+04  2.581426E+04
        92   8  1.837456E+05  8.152087E+05  1.318906E+05  2.854198E+05 -3.504037E+04 -8.682666E+03
        92   9  1.250898E+05  5.213043E+05  7.762046E+04  3.335717E+05 -3.163842E+04 -4.317262E+04
        92  10 -3.388452E+05 -1.154367E+06 -3.330346E+05  3.695745E+05  1.991548E-10  9.096612E-12
        92  11 -2.154178E+05 -8.518248E+05 -1.972864E+05  3.214024E+05  7.022819E-10  6.292110E-10
        92  12 -1.314481E+05 -5.679536E+05 -1.157407E+05  3.298774E+05 -3.106890E-11  1.985072E-10
        92  13 -5.898452E+04 -2.363325E+04 -6.488025E+04  3.317748E+05  6.592256E-10  6.052846E-12
        92  14 -1.581632E+04 -1.864112E+04 -3.268220E+04  3.034235E+05  4.943432E-10  6.124503E-10
        92  15 -3.171799E+03 -2.347067E+04 -1.905726E+04  3.317232E+05 -5.399070E-10  8.320143E-10
        92  16  2.207897E+05  1.108279E+06  2.031859E+05  2.939053E+05 -3.501798E-10 -1.368728E-10
        92  17  1.837443E+05  8.152083E+05  1.318881E+05  2.854195E+05  5.760953E-10  2.200057E-10
        92  18  1.250882E+05  5.213020E+05  7.761508E+04  3.335706E+05  7.432311E-10 -4.094976E-11
        92  19 -3.388415E+05 -1.154352E+06 -3.330096E+05  3.695756E+05  1.190028E+04  1.146629E+05
        92  20 -2.154159E+05 -8.518221E+05 -1.972800E+05  3.214037E+05  3.509037E+04  4.667332E+04
        92  21 -1.314469E+05 -5.679529E+05 -1.157379E+05  3.298768E+05  3.156406E+04 -2.134297E+04
        92  22 -5.898384E+04 -2.363109E+04 -6.487627E+04  3.317752E+05  1.182420E+04  4.448800E+04
        92  23 -1.581479E+04 -1.863997E+04 -3.267845E+04  3.034242E+05  3.506481E+04  2.769049E+04
        92  24 -3.170695E+03 -2.347027E+04 -1.905516E+04  3.317235E+05  3.160116E+04  1.090109E+04
        92  25  2.207900E+05  1.108280E+06  2.031874E+05  2.939050E+05  1.175678E+04 -2.581426E+04
        92  26  1.837456E+05  8.152087E+05  1.318906E+05  2.854198E+05  3.504037E+04  8.682666E+03
        92  27  1.250898E+05  5.213043E+05  7.762046E+04  3.335717E+05  3.163842E+04  4.317262E+04
        93   1 -8.676027E+04 -3.781178E+05 -7.846257E+04  3.336795E+05 -2.084718E+04  2.271749E+04
        93   2 -1.530156E+04 -8.418055E+04 -2.150599E+04  3.031207E+05 -4.517388E+03  2.894792E+04
        93   3  5.290597E+04  2.081290E+05  3.054891E+04  3.308886E+05  1.210815E+04  3.518022E+04
        93   4 -2.837061E+03 -2.161445E+04 -1.541108E+04  3.320997E+05 -2.088563E+04 -8.328537E+03
        93   5 -5.950390E+02 -2.080213E+04 -1.135393E+04  3.029354E+05 -4.557092E+03 -2.670587E+03
        93   6 -1.500587E+03 -2.160203E+04 -1.180059E+04  3.320981E+05  1.206707E+04  2.986468E+03
        93   7  8.107970E+04  3.350152E+05  4.763935E+04  3.305188E+05 -2.092390E+04 -3.939188E+04
        93   8  1.411181E+04  4.258243E+04 -1.198217E+03  3.027501E+05 -4.596774E+03 -3.429221E+04
        93   9 -5.590959E+04 -2.512797E+05 -5.414839E+04  3.333071E+05  1.202586E+04 -2.919568E+04
        93  10 -8.676088E+04 -3.781185E+05 -7.846436E+04  3.336799E+05 -2.835949E-11  9.775530E-11
        93  11 -1.530180E+04 -8.418146E+04 -2.150760E+04  3.031208E+05  5.368921E-10  1.135623E-09
        93  12  5.290548E+04  2.081276E+05  3.054631E+04  3.308882E+05  5.364167E-10  5.805861E-10
        93  13 -2.837548E+03 -2.161464E+04 -1.541203E+04  3.320995E+05 -4.322014E-10  1.837959E-11
        93  14 -5.950632E+02 -2.080214E+04 -1.135398E+04  3.029354E+05 -5.421295E-10  8.242410E-10
        93  15 -1.500745E+03 -2.160208E+04 -1.180088E+04  3.320981E+05  6.225153E-10  8.215918E-10
        93  16  8.107882E+04  3.350134E+05  4.763561E+04  3.305182E+05  4.458280E-10 -2.071747E-10
        93  17  1.411148E+04  4.258117E+04 -1.200466E+03  3.027499E+05  9.054209E-10  2.277905E-12
        93  18 -5.590997E+04 -2.512806E+05 -5.415027E+04  3.333074E+05  3.858339E-13 -5.113550E-10
        93  19 -8.676027E+04 -3.781178E+05 -7.846257E+04  3.336795E+05  2.084718E+04 -2.271749E+04
        93  20 -1.530156E+04 -8.418055E+04 -2.150599E+04  3.031207E+05  4.517388E+03 -2.894792E+04
        93  21  5.290597E+04  2.081290E+05  3.054891E+04  3.308886E+05 -1.210815E+04 -3.518022E+04
        93  22 -2.837061E+03 -2.161445E+04 -1.541108E+04  3.320997E+05  2.088563E+04  8.328537E+03
        93  23 -5.950390E+02 -2.080213E+04 -1.135393E+04  3.029354E+05  4.557092E+03  2.670587E+03
        93  24 -1.500587E+03 -2.160203E+04 -1.180059E+04  3.320981E+05 -1.206707E+04 -2.986468E+03
        93  25  8.107970E+04  3.350152E+05  4.763935E+04  3.305188E+05  2.092390E+04  3.939188E+04
        93  26  1.411181E+04  4.258243E+04 -1.198217E+03  3.027501E+05  4.596774E+03  3.429221E+04
        93  27 -5.590959E+04 -2.512797E+05 -5.414839E+04  3.333071E+05 -1.202586E+04  2.919568E+04
        94   1  9.693874E+04  3.950992E+05  6.230369E+04  3.328732E+05  2.304906E+04  3.815232E+04
        94   2  1.602280E+05  6.875325E+05  1.205857E+05  2.924882E+05  2.837465E+04  2.905424E+03
        94   3  2.129172E+05  9.819566E+05  1.991354E+05  3.089558E+05  9.835991E+03 -3.234814E+04
        94   4 -1.717316E+03 -2.261064E+04 -1.335233E+04  3.317704E+05  2.300848E+04  4.904494E+03
        94   5 -9.376159E+03 -1.965435E+04 -2.067289E+04  3.033556E+05  2.839146E+04  1.551113E+04
        94   6 -3.559614E+04 -2.274700E+04 -3.955794E+04  3.318028E+05  9.896304E+03  2.612698E+04
        94   7 -1.003826E+05 -4.401484E+05 -8.901109E+04  3.306682E+05  2.296799E+04 -2.832159E+04
        94   8 -1.790105E+05 -7.263634E+05 -1.619560E+05  3.142101E+05  2.840872E+04  2.810277E+04
        94   9 -2.841782E+05 -1.026516E+06 -2.783086E+05  3.546123E+05  9.960985E+03  8.450802E+04
        94  10  9.693778E+04  3.950975E+05  6.229996E+04  3.328725E+05  4.360040E-10 -1.330724E-09
        94  11  1.602272E+05  6.875323E+05  1.205842E+05  2.924882E+05 -4.198951E-10  3.479853E-10
        94  12  2.129168E+05  9.819555E+05  1.991332E+05  3.089560E+05 -3.847794E-10  5.094919E-10
        94  13 -1.717890E+03 -2.261081E+04 -1.335337E+04  3.317703E+05 -5.641400E-11 -3.987290E-11
        94  14 -9.377089E+03 -1.965482E+04 -2.067486E+04  3.033552E+05 -2.428711E-10  6.252081E-10
        94  15 -3.559643E+04 -2.274776E+04 -3.955940E+04  3.318026E+05  1.619511E-10  5.770383E-10
        94  16 -1.003834E+05 -4.401494E+05 -8.901359E+04  3.306688E+05  1.697862E-10  1.115269E-09
        94  17 -1.790115E+05 -7.263645E+05 -1.619590E+05  3.142095E+05  1.693913E-10  5.423370E-10
        94  18 -2.841803E+05 -1.026524E+06 -2.783222E+05  3.546117E+05  8.994149E-11 -4.560898E-10
        94  19  9.693874E+04  3.950992E+05  6.230369E+04  3.328732E+05 -2.304906E+04 -3.815232E+04
        94  20  1.602280E+05  6.875325E+05  1.205857E+05  2.924882E+05 -2.837465E+04 -2.905424E+03
        94  21  2.129172E+05  9.819566E+05  1.991354E+05  3.089558E+05 -9.835991E+03  3.234814E+04
        94  22 -1.717316E+03 -2.261064E+04 -1.335233E+04  3.317704E+05 -2.300848E+04 -4.904494E+03
        94  23 -9.376159E+03 -1.965435E+04 -2.067289E+04  3.033556E+05 -2.839146E+04 -1.551113E+04
        94  24 -3.559614E+04 -2.274700E+04 -3.955794E+04  3.318028E+05 -9.896304E+03 -2.612698E+04
        94  25 -1.003826E+05 -4.401484E+05 -8.901109E+04  3.306682E+05 -2.296799E+04  2.832159E+04
        94  26 -1.790105E+05 -7.263634E+05 -1.619560E+05  3.142101E+05 -2.840872E+04 -2.810277E+04
        94  27 -2.841782E+05 -1.026516E+06 -2.783086E+05  3.546123E+05 -9.960985E+03 -8.450802E+04
        95   1  1.163514E+06  2.132512E+05  2.090688E+05  1.834477E+05  7.939807E+04 -8.001155E+03
        95   2  1.018598E+06  1.437902E+05  1.300087E+05  1.563588E+05  3.661230E+04 -2.498448E+04
        95   3  8.859639E+05  1.009814E+05  8.543483E+04  1.557881E+05 -6.156248E+03 -2.569405E+04
        95   4  4.660099E+05  4.104738E+04  4.485601E+04  1.567573E+05  3.108318E+04 -8.002866E+03
        95   5  4.626171E+05  1.116155E+04  2.236671E+04  1.434991E+05  1.960102E+04 -2.498759E+04
        95   6  4.660691E+05  2.513631E+03  1.266067E+04  1.567568E+05  8.125053E+03 -2.569376E+04
        95   7 -2.310403E+05 -1.311873E+05 -1.193811E+05  1.300970E+05 -1.717784E+04 -8.000436E+03
        95   8 -9.306637E+04 -1.214847E+05 -8.528858E+04  1.306512E+05  2.604614E+03 -2.499000E+04
        95   9  4.634733E+04 -9.596355E+04 -6.011886E+04  1.577248E+05  2.239700E+04 -2.569342E+04
        95  10  1.163507E+06  2.132495E+05  2.090569E+05  1.834482E+05  3.241761E-10  2.292327E-11
        95  11  1.018596E+06  1.437891E+05  1.300050E+05  1.563596E+05 -6.414803E-10  7.693048E-11
        95  12  8.859637E+05  1.009807E+05  8.543352E+04  1.557880E+05 -5.660503E-10  3.325854E-10
        95  13  4.660089E+05  4.104705E+04  4.485408E+04  1.567575E+05 -1.258022E-09  1.913943E-10
        95  14  4.626165E+05  1.116077E+04  2.236481E+04  1.434995E+05 -1.241887E-09  1.533580E-10
        95  15  4.660688E+05  2.512904E+03  1.265930E+04  1.567570E+05 -9.604319E-11  2.199272E-10
        95  16 -2.310406E+05 -1.311874E+05 -1.193818E+05  1.300969E+05  1.697284E-10 -4.106910E-11
        95  17 -9.306654E+04 -1.214854E+05 -8.528977E+04  1.306512E+05  3.042762E-10  1.059582E-10
        95  18  4.634661E+04 -9.596439E+04 -6.012104E+04  1.577253E+05  1.606947E-10  9.989438E-11
        95  19  1.163514E+06  2.132512E+05  2.090688E+05  1.834477E+05 -7.939807E+04  8.001155E+03
        95  20  1.018598E+06  1.437902E+05  1.300087E+05  1.563588E+05 -3.661230E+04  2.498448E+04
        95  21  8.859639E+05  1.009814E+05  8.543483E+04  1.557881E+05  6.156248E+03  2.569405E+04
        95  22  4.660099E+05  4.104738E+04  4.485601E+04  1.567573E+05 -3.108318E+04  8.002866E+03
        95  23  4.626171E+05  1.116155E+04  2.236671E+04  1.434991E+05 -1.960102E+04  2.498759E+04
        95  24  4.660691E+05  2.513631E+03  1.266067E+04  1.567568E+05 -8.125053E+03  2.569376E+04
        95  25 -2.310403E+05 -1.311873E+05 -1.193811E+05  1.300970E+05  1.717784E+04  8.000436E+03
        95  26 -9.306637E+04 -1.214847E+05 -8.528858E+04  1.306512E+05 -2.604614E+03  2.499000E+04
        95  27  4.634733E+04 -9.596355E+04 -6.011886E+04  1.577248E+05 -2.239700E+04  2.569342E+04
        96   1  7.955524E+05  7.975647E+04  6.649033E+04  1.582300E+05 -7.059172E+03 -2.086508E+04
        96   2  6.563080E+05  4.518137E+04  3.809374E+04  1.437353E+05 -1.326109E+04 -1.307111E+04
        96   3  5.184052E+05  1.263126E+04  1.423901E+04  1.568518E+05 -1.946262E+04 -3.728909E+03
        96   4  4.647398E+05  2.329319E+03  9.927804E+03  1.570011E+05  6.431423E+03 -2.086384E+04
        96   5  4.643444E+05  4.884684E+02  6.469579E+03  1.431955E+05  3.204838E+03 -1.306843E+04
        96   6  4.647583E+05  1.582935E+02  5.489907E+03  1.570014E+05 -2.261545E+01 -3.724535E+03
        96   7  1.340350E+05 -7.510355E+04 -4.663768E+04  1.557729E+05  1.991506E+04 -2.086265E+04
        96   8  2.724179E+05 -4.420618E+04 -2.515465E+04  1.426558E+05  1.966585E+04 -1.306577E+04
        96   9  4.111152E+05 -1.231462E+04 -3.257854E+03  1.571511E+05  1.941577E+04 -3.720152E+03
        96  10  7.955522E+05  7.975599E+04  6.648942E+04  1.582299E+05 -2.797429E-10  2.690446E-10
        96  11  6.563078E+05  4.518114E+04  3.809309E+04  1.437352E+05 -1.653905E-10 -1.011298E-10
        96  12  5.184048E+05  1.263114E+04  1.423827E+04  1.568517E+05  3.370856E-10 -4.831903E-10
        96  13  4.647396E+05  2.328841E+03  9.926908E+03  1.570012E+05  4.322563E-10  3.133035E-10
        96  14  4.643444E+05  4.882822E+02  6.469239E+03  1.431955E+05  5.160386E-10  1.525112E-10
        96  15  4.647583E+05  1.582786E+02  5.489881E+03  1.570014E+05 -4.053122E-10 -4.619390E-10
        96  16  1.340345E+05 -7.510412E+04 -4.663924E+04  1.557732E+05  4.566276E-10  1.979969E-10
        96  17  2.724174E+05 -4.420647E+04 -2.515569E+04  1.426560E+05  2.126883E-10  3.096862E-10
        96  18  4.111148E+05 -1.231473E+04 -3.258588E+03  1.571511E+05 -8.214104E-10 -3.328485E-10
        96  19  7.955524E+05  7.975647E+04  6.649033E+04  1.582300E+05  7.059172E+03  2.086508E+04
        96  20  6.563080E+05  4.518137E+04  3.809374E+04  1.437353E+05  1.326109E+04  1.307111E+04
        96  21  5.184052E+05  1.263126E+04  1.423901E+04  1.568518E+05  1.946262E+04  3.728909E+03
        96  22  4.647398E+05  2.329319E+03  9.927804E+03  1.570011E+05 -6.431423E+03  2.086384E+04
        96  23  4.643444E+05  4.884684E+02  6.469579E+03  1.431955E+05 -3.204838E+03  1.306843E+04
        96  24  4.647583E+05  1.582935E+02  5.489907E+03  1.570014E+05  2.261545E+01  3.724535E+03
        96  25  1.340350E+05 -7.510355E+04 -4.663768E+04  1.557729E+05 -1.991506E+04  2.086265E+04
        96  26  2.724179E+05 -4.420618E+04 -2.515465E+04  1.426558E+05 -1.966585E+04  1.306577E+04
        96  27  4.111152E+05 -1.231462E+04 -3.257854E+03  1.571511E+05 -1.941577E+04  3.720152E+03
        97   1  4.301602E+05 -7.923270E+03 -1.192180E+02  1.572479E+05 -2.042403E+04  2.288611E+03
        97   2  2.913817E+05 -3.966807E+04 -2.119078E+04  1.425678E+05 -2.125627E+04  1.165744E+04
        97   3  1.530791E+05 -7.006483E+04 -4.138178E+04  1.555023E+05 -2.208762E+04  1.952645E+04
        97   4  4.647914E+05  1.566776E+02  5.666869E+03  1.570019E+05 -9.876836E+02  2.293033E+03
        97   5  4.643046E+05  6.291670E+02  7.443870E+03  1.431948E+05 -4.703357E+03  1.166024E+04
        97   6  4.647743E+05  2.950314E+03  1.210143E+04  1.570015E+05 -8.418313E+03  1.952787E+04
        97   7  4.994245E+05  8.236766E+03  1.145434E+04  1.567559E+05  1.844971E+04  2.297439E+03
        97   8  6.372576E+05  4.092500E+04  3.607865E+04  1.438220E+05  1.185401E+04  1.166308E+04
        97   9  7.765652E+05  7.596038E+04  6.558207E+04  1.585015E+05  5.257639E+03  1.952936E+04
        97  10  4.301598E+05 -7.923388E+03 -1.200112E+02  1.572479E+05 -4.346226E-10 -3.207825E-10
        97  11  2.913812E+05 -3.966834E+04 -2.119188E+04  1.425680E+05 -9.715217E-10 -1.820304E-10
        97  12  1.530785E+05 -7.006537E+04 -4.138341E+04  1.555026E+05 -2.488897E-10 -1.163103E-10
        97  13  4.647914E+05  1.566717E+02  5.666858E+03  1.570019E+05 -5.472471E-10 -5.272604E-10
        97  14  4.643045E+05  6.290150E+02  7.443573E+03  1.431949E+05 -4.592492E-10 -3.051760E-10
        97  15  4.647741E+05  2.949885E+03  1.210058E+04  1.570016E+05 -4.122243E-10 -2.276221E-10
        97  16  4.994241E+05  8.236669E+03  1.145369E+04  1.567559E+05  6.080934E-10 -6.291875E-10
        97  17  6.372575E+05  4.092482E+04  3.607813E+04  1.438218E+05  9.055357E-11 -4.696463E-10
        97  18  7.765651E+05  7.595996E+04  6.558131E+04  1.585014E+05  1.475669E-10 -2.936123E-10
        97  19  4.301602E+05 -7.923270E+03 -1.192180E+02  1.572479E+05  2.042403E+04 -2.288611E+03
        97  20  2.913817E+05 -3.966807E+04 -2.119078E+04  1.425678E+05  2.125627E+04 -1.165744E+04
        97  21  1.530791E+05 -7.006483E+04 -4.138178E+04  1.555023E+05  2.208762E+04 -1.952645E+04
        97  22  4.647914E+05  1.566776E+02  5.666869E+03  1.570019E+05  9.876836E+02 -2.293033E+03
        97  23  4.643046E+05  6.291670E+02  7.443870E+03  1.431948E+05  4.703357E+03 -1.166024E+04
        97  24  4.647743E+05  2.950314E+03  1.210143E+04  1.570015E+05  8.418313E+03 -1.952787E+04
        97  25  4.994245E+05  8.236766E+03  1.145434E+04  1.567559E+05 -1.844971E+04 -2.297439E+03
        97  26  6.372576E+05  4.092500E+04  3.607865E+04  1.438220E+05 -1.185401E+04 -1.166308E+04
        97  27  7.765652E+05  7.596038E+04  6.558207E+04  1.585015E+05 -5.257639E+03 -1.952936E+04
        98   1  6.577329E+04 -9.085858E+04 -5.400123E+04  1.580133E+05 -2.492439E+04  2.439458E+04
        98   2 -7.457621E+04 -1.140852E+05 -7.616297E+04  1.273460E+05 -8.832231E+03  2.398739E+04
        98   3 -2.116000E+05 -1.158876E+05 -1.034362E+05  1.232367E+05  7.250873E+03  7.714388E+03
        98   4  4.664583E+05  3.184006E+03  1.564185E+04  1.567648E+05 -1.048773E+04  2.439522E+04
        98   5  4.621360E+05  1.406835E+04  2.800178E+04  1.434884E+05 -2.485995E+04  2.398478E+04
        98   6  4.663985E+05  5.165264E+04  5.639499E+04  1.567650E+05 -3.923754E+04  7.715734E+03
        98   7  8.673010E+05  9.721803E+04  8.528009E+04  1.555155E+05  3.957958E+03  2.439581E+04
        98   8  9.991259E+05  1.422059E+05  1.321541E+05  1.596450E+05 -4.090120E+04  2.398135E+04
        98   9  1.144827E+06  2.191654E+05  2.162032E+05  1.903302E+05 -8.577642E+04  7.712063E+03
        98  10  6.577246E+04 -9.085938E+04 -5.400351E+04  1.580138E+05 -1.099832E-10 -1.550292E-10
        98  11 -7.457645E+04 -1.140859E+05 -7.616420E+04  1.273462E+05 -2.253017E-10 -1.405330E-10
        98  12 -2.116001E+05 -1.158876E+05 -1.034364E+05  1.232367E+05 -4.338415E-10 -1.503664E-10
        98  13  4.664580E+05  3.183338E+03  1.564053E+04  1.567650E+05  2.027874E-10 -2.132402E-10
        98  14  4.621352E+05  1.406757E+04  2.799954E+04  1.434889E+05 -4.264124E-14 -1.615540E-10
        98  15  4.663968E+05  5.165217E+04  5.639199E+04  1.567653E+05 -3.539616E-10  1.893541E-11
        98  16  8.673008E+05  9.721739E+04  8.527894E+04  1.555154E+05 -7.864687E-12 -2.363494E-10
        98  17  9.991239E+05  1.422048E+05  1.321499E+05  1.596458E+05  2.761481E-10 -8.450200E-11
        98  18  1.144819E+06  2.191633E+05  2.161893E+05  1.903307E+05  3.589045E-10 -1.238046E-10
        98  19  6.577329E+04 -9.085858E+04 -5.400123E+04  1.580133E+05  2.492439E+04 -2.439458E+04
        98  20 -7.457621E+04 -1.140852E+05 -7.616297E+04  1.273460E+05  8.832231E+03 -2.398739E+04
        98  21 -2.116000E+05 -1.158876E+05 -1.034362E+05  1.232367E+05 -7.250873E+03 -7.714388E+03
        98  22  4.664583E+05  3.184006E+03  1.564185E+04  1.567648E+05  1.048773E+04 -2.439522E+04
        98  23  4.621360E+05  1.406835E+04  2.800178E+04  1.434884E+05  2.485995E+04 -2.398478E+04
        98  24  4.663985E+05  5.165264E+04  5.639499E+04  1.567650E+05  3.923754E+04 -7.715734E+03
        98  25  8.673010E+05  9.721803E+04  8.528009E+04  1.555155E+05 -3.957958E+03 -2.439581E+04
        98  26  9.991259E+05  1.422059E+05  1.321541E+05  1.596450E+05  4.090120E+04 -2.398135E+04
        98  27  1.144827E+06  2.191654E+05  2.162032E+05  1.903302E+05  8.577642E+04 -7.712063E+03
        99   1 -2.999284E+05 -1.016293E+06 -2.941952E+05  3.257236E+05 -1.072822E+04 -9.988337E+04
        99   2 -1.930174E+05 -7.479472E+05 -1.753266E+05  2.842423E+05 -3.176237E+04 -4.003170E+04
        99   3 -1.192612E+05 -4.956371E+05 -1.037581E+05  2.930337E+05 -2.881763E+04  1.984078E+04
        99   4 -4.856524E+04 -5.999492E+02 -5.342758E+04  2.945709E+05 -1.066764E+04 -3.647618E+04
        99   5 -1.303100E+04  3.512205E+03 -2.703451E+04  2.694138E+05 -3.174159E+04 -2.258261E+04
        99   6 -2.639189E+03 -4.716966E+02 -1.597779E+04  2.945329E+05 -2.884684E+04 -8.695535E+03
        99   7  2.027296E+05  1.016053E+06  1.872840E+05  2.633666E+05 -1.061351E+04  2.703437E+04
        99   8  1.669221E+05  7.555137E+05  1.212312E+05  2.545667E+05 -3.172166E+04 -5.112805E+03
        99   9  1.139698E+05  4.949351E+05  7.179645E+04  2.960331E+05 -2.887617E+04 -3.725396E+04
        99  10 -2.999312E+05 -1.016304E+06 -2.942142E+05  3.257227E+05  8.310318E-11 -5.909884E-08
        99  11 -1.930189E+05 -7.479492E+05 -1.753315E+05  2.842413E+05  1.066264E-09  8.115493E-10
        99  12 -1.192622E+05 -4.956377E+05 -1.037604E+05  2.930341E+05 -1.025830E-10  6.124619E-08
        99  13 -4.856572E+04 -6.014083E+02 -5.343029E+04  2.945706E+05  8.667807E-10  2.520807E-12
        99  14 -1.303221E+04  3.511388E+03 -2.703736E+04  2.694132E+05  1.012111E-09 -1.310935E-11
        99  15 -2.640103E+03 -4.720010E+02 -1.597950E+04  2.945327E+05 -7.293522E-10 -1.731459E-10
        99  16  2.027293E+05  1.016052E+06  1.872824E+05  2.633668E+05  4.519743E-10  5.909388E-08
        99  17  1.669211E+05  7.555134E+05  1.212293E+05  2.545665E+05  8.749851E-10 -3.980706E-10
        99  18  1.139685E+05  4.949334E+05  7.179228E+04  2.960323E+05 -3.020332E-10 -6.130805E-08
        99  19 -2.999284E+05 -1.016293E+06 -2.941952E+05  3.257236E+05  1.072822E+04  9.988337E+04
        99  20 -1.930174E+05 -7.479472E+05 -1.753266E+05  2.842423E+05  3.176237E+04  4.003170E+04
        99  21 -1.192612E+05 -4.956371E+05 -1.037581E+05  2.930337E+05  2.881763E+04 -1.984078E+04
        99  22 -4.856524E+04 -5.999492E+02 -5.342758E+04  2.945709E+05  1.066764E+04  3.647618E+04
        99  23 -1.303100E+04  3.512205E+03 -2.703451E+04  2.694138E+05  3.174159E+04  2.258261E+04
        99  24 -2.639189E+03 -4.716966E+02 -1.597779E+04  2.945329E+05  2.884684E+04  8.695535E+03
        99  25  2.027296E+05  1.016053E+06  1.872840E+05  2.633666E+05  1.061351E+04 -2.703437E+04
        99  26  1.669221E+05  7.555137E+05  1.212312E+05  2.545667E+05  3.172166E+04  5.112805E+03
        99  27  1.139698E+05  4.949351E+05  7.179645E+04  2.960331E+05  2.887617E+04  3.725396E+04
       100   1 -7.960112E+04 -3.272125E+05 -7.097836E+04  2.962134E+05 -1.932458E+04  2.094124E+04
       100   2 -1.635870E+04 -6.623221E+04 -2.096517E+04  2.690620E+05 -4.854752E+03  2.657629E+04
       100   3  4.397259E+04  1.932829E+05  2.462586E+04  2.936948E+05  9.932447E+03  3.221269E+04
       100   4 -2.363584E+03  1.036370E+03 -1.308599E+04  2.948706E+05 -1.935490E+04 -6.517683E+03
       100   5 -5.827260E+02  1.754850E+03 -1.007462E+04  2.689780E+05 -4.886284E+03 -1.495653E+03
       100   6 -1.603276E+03  1.048180E+03 -1.105961E+04  2.948698E+05  9.899598E+03  3.525516E+03
       100   7  7.486846E+04  3.293923E+05  4.480527E+04  2.935271E+05 -1.938508E+04 -3.399070E+04
       100   8  1.519344E+04  6.974819E+04  8.187696E+02  2.688940E+05 -4.917805E+03 -2.957056E+04
       100   9 -4.718081E+04 -1.911489E+05 -4.674355E+04  2.960444E+05  9.866633E+03 -2.515301E+04
       100  10 -7.960164E+04 -3.272131E+05 -7.097989E+04  2.962137E+05 -1.380475E-09 -9.351075E-10
       100  11 -1.635891E+04 -6.623297E+04 -2.096655E+04  2.690621E+05 -2.828027E-09  4.164346E-11
       100  12  4.397220E+04  1.932817E+05  2.462372E+04  2.936946E+05 -2.408507E-09  1.023591E-09
       100  13 -2.363998E+03  1.036224E+03 -1.308678E+04  2.948705E+05 -1.756725E-09 -2.301756E-11
       100  14 -5.827522E+02  1.754841E+03 -1.007467E+04  2.689780E+05 -2.206896E-09 -5.298547E-11
       100  15 -1.603385E+03  1.048140E+03 -1.105982E+04  2.948698E+05 -1.722494E-09 -2.238654E-10
       100  16  7.486775E+04  3.293909E+05  4.480240E+04  2.935266E+05 -1.717379E-09  7.204008E-10
       100  17  1.519318E+04  6.974725E+04  8.170814E+02  2.688939E+05 -2.178455E-09  3.819099E-10
       100  18 -4.718109E+04 -1.911496E+05 -4.674492E+04  2.960446E+05 -1.363217E-09 -1.091259E-09
       100  19 -7.960112E+04 -3.272125E+05 -7.097836E+04  2.962134E+05  1.932458E+04 -2.094124E+04
       100  20 -1.635870E+04 -6.623221E+04 -2.096517E+04  2.690620E+05  4.854752E+03 -2.657629E+04
       100  21  4.397259E+04  1.932829E+05  2.462586E+04  2.936948E+05 -9.932447E+03 -3.221269E+04
       100  22 -2.363584E+03  1.036370E+03 -1.308599E+04  2.948706E+05  1.935490E+04  6.517683E+03
       100  23 -5.827260E+02  1.754850E+03 -1.007462E+04  2.689780E+05  4.886284E+03  1.495653E+03
       100  24 -1.603276E+03  1.048180E+03 -1.105961E+04  2.948698E+05 -9.899598E+03 -3.525516E+03
       100  25  7.486846E+04  3.293923E+05  4.480527E+04  2.935271E+05  1.938508E+04  3.399070E+04
       100  26  1.519344E+04  6.974819E+04  8.187696E+02  2.688940E+05  4.917805E+03  2.957056E+04
       100  27 -4.718081E+04 -1.911489E+05 -4.674355E+04  2.960444E+05 -9.866633E+03  2.515301E+04
       101   1  8.304517E+04  3.591262E+05  5.244879E+04  2.956302E+05  1.966695E+04  3.494448E+04
       101   2  1.384151E+05  6.191058E+05  1.029638E+05  2.584773E+05  2.457853E+04  5.151707E+03
       101   3  1.823313E+05  8.801392E+05  1.699882E+05  2.718208E+05  8.562490E+03 -2.464535E+04
       101   4 -1.808128E+03  1.673106E+01 -1.277770E+04  2.945833E+05  1.963442E+04  5.336005E+03
       101   5 -9.395312E+03  2.958893E+03 -2.029616E+04  2.693457E+05  2.459129E+04  1.575045E+04
       101   6 -3.541796E+04 -8.848010E+01 -3.921902E+04  2.946123E+05  8.609840E+03  2.617236E+04
       101   7 -8.666820E+04 -3.589655E+05 -7.800605E+04  2.935369E+05  1.960198E+04 -2.425582E+04
       101   8 -1.572285E+05 -6.128253E+05 -1.435748E+05  2.802029E+05  2.460444E+04  2.633889E+04
       101   9 -2.532196E+05 -8.795988E+05 -2.484704E+05  3.173711E+05  8.660965E+03  7.691844E+04
       101  10  8.304442E+04  3.591248E+05  5.244578E+04  2.956296E+05 -5.818231E-10 -6.106316E-08
       101  11  1.384144E+05  6.191056E+05  1.029626E+05  2.584772E+05  9.117245E-10 -6.448767E-10
       101  12  1.823311E+05  8.801385E+05  1.699869E+05  2.718209E+05 -2.507321E-10  5.917056E-08
       101  13 -1.808549E+03  1.659707E+01 -1.277848E+04  2.945832E+05 -1.655641E-10 -3.671016E-11
       101  14 -9.396028E+03  2.958464E+03 -2.029776E+04  2.693454E+05  3.310669E-10 -2.279412E-11
       101  15 -3.541822E+04 -8.923541E+01 -3.922045E+04  2.946121E+05  5.271877E-10 -1.252219E-10
       101  16 -8.666877E+04 -3.589662E+05 -7.800788E+04  2.935373E+05 -7.169410E-10  6.085568E-08
       101  17 -1.572293E+05 -6.128262E+05 -1.435773E+05  2.802024E+05  7.714743E-11  1.120179E-09
       101  18 -2.532213E+05 -8.796052E+05 -2.484816E+05  3.173706E+05  2.537602E-10 -5.919872E-08
       101  19  8.304517E+04  3.591262E+05  5.244879E+04  2.956302E+05 -1.966695E+04 -3.494448E+04
       101  20  1.384151E+05  6.191058E+05  1.029638E+05  2.584773E+05 -2.457853E+04 -5.151707E+03
       101  21  1.823313E+05  8.801392E+05  1.699882E+05  2.718208E+05 -8.562490E+03  2.464535E+04
       101  22 -1.808128E+03  1.673106E+01 -1.277770E+04  2.945833E+05 -1.963442E+04 -5.336005E+03
       101  23 -9.395312E+03  2.958893E+03 -2.029616E+04  2.693457E+05 -2.459129E+04 -1.575045E+04
       101  24 -3.541796E+04 -8.848010E+01 -3.921902E+04  2.946123E+05 -8.609840E+03 -2.617236E+04
       101  25 -8.666820E+04 -3.589655E+05 -7.800605E+04  2.935369E+05 -1.960198E+04  2.425582E+04
       101  26 -1.572285E+05 -6.128253E+05 -1.435748E+05  2.802029E+05 -2.460444E+04 -2.633889E+04
       101  27 -2.532196E+05 -8.795988E+05 -2.484704E+05  3.173711E+05 -8.660965E+03 -7.691844E+04
       102   1  1.056353E+06  2.020746E+05  1.975399E+05  1.757578E+05  7.309454E+04 -7.766407E+03
       102   2  9.151844E+05  1.382006E+05  1.234495E+05  1.511233E+05  3.295297E+04 -2.423177E+04
       102   3  7.850852E+05  9.752469E+04  8.126550E+04  1.524173E+05 -7.173978E+03 -2.486864E+04
       102   4  3.782665E+05  3.464164E+04  3.786500E+04  1.532279E+05  2.621354E+04 -7.767822E+03
       102   5  3.754013E+05  9.414877E+03  1.889764E+04  1.402641E+05  1.651322E+04 -2.423468E+04
       102   6  3.783203E+05  2.119459E+03  1.072819E+04  1.532277E+05  6.818328E+03 -2.486824E+04
       102   7 -2.993913E+05 -1.328210E+05 -1.218330E+05  1.307226E+05 -2.061663E+04 -7.765844E+03
       102   8 -1.641015E+05 -1.193876E+05 -8.566678E+04  1.294146E+05  8.741856E+01 -2.423702E+04
       102   9 -2.828199E+04 -9.329458E+04 -5.981414E+04  1.540375E+05  2.080176E+04 -2.486779E+04
       102  10  1.056347E+06  2.020731E+05  1.975297E+05  1.757583E+05 -6.345461E-10  1.779550E-10
       102  11  9.151831E+05  1.381997E+05  1.234463E+05  1.511239E+05 -2.207594E-10  1.088328E-10
       102  12  7.850849E+05  9.752401E+04  8.126424E+04  1.524172E+05 -9.632647E-11  6.132793E-11
       102  13  3.782658E+05  3.464139E+04  3.786359E+04  1.532280E+05  3.530116E-10 -9.840096E-11
       102  14  3.754008E+05  9.414173E+03  1.889603E+04  1.402645E+05  2.682828E-10  1.350666E-10
       102  15  3.783201E+05  2.118783E+03  1.072694E+04  1.532278E+05 -4.634658E-10  1.841330E-10
       102  16 -2.993918E+05 -1.328212E+05 -1.218339E+05  1.307225E+05  2.540114E-11 -1.490563E-10
       102  17 -1.641016E+05 -1.193883E+05 -8.566789E+04  1.294146E+05  1.863686E-10  1.033175E-10
       102  18 -2.828262E+04 -9.329536E+04 -5.981612E+04  1.540379E+05 -4.469896E-11  3.317027E-10
       102  19  1.056353E+06  2.020746E+05  1.975399E+05  1.757578E+05 -7.309454E+04  7.766407E+03
       102  20  9.151844E+05  1.382006E+05  1.234495E+05  1.511233E+05 -3.295297E+04  2.423177E+04
       102  21  7.850852E+05  9.752469E+04  8.126550E+04  1.524173E+05  7.173978E+03  2.486864E+04
       102  22  3.782665E+05  3.464164E+04  3.786500E+04  1.532279E+05 -2.621354E+04  7.767822E+03
       102  23  3.754013E+05  9.414877E+03  1.889764E+04  1.402641E+05 -1.651322E+04  2.423468E+04
       102  24  3.783203E+05  2.119459E+03  1.072819E+04  1.532277E+05 -6.818328E+03  2.486824E+04
       102  25 -2.993913E+05 -1.328210E+05 -1.218330E+05  1.307226E+05  2.061663E+04  7.765844E+03
       102  26 -1.641015E+05 -1.193876E+05 -8.566678E+04  1.294146E+05 -8.741856E+01  2.423702E+04
       102  27 -2.828199E+04 -9.329458E+04 -5.981414E+04  1.540375E+05 -2.080176E+04  2.486779E+04
       103   1  6.968997E+05  7.680591E+04  6.313736E+04  1.545112E+05 -7.842854E+03 -2.014064E+04
       103   2  5.608437E+05  4.325736E+04  3.590266E+04  1.404340E+05 -1.350709E+04 -1.250739E+04
       103   3  4.259991E+05  1.149205E+04  1.280032E+04  1.533473E+05 -1.917094E+04 -3.369973E+03
       103   4  3.772003E+05  1.965412E+03  8.436731E+03  1.534647E+05  5.379911E+03 -2.013934E+04
       103   5  3.768626E+05  4.130619E+02  5.563238E+03  1.399693E+05  2.605683E+03 -1.250471E+04
       103   6  3.772174E+05  1.437110E+02  4.816989E+03  1.534650E+05 -1.693203E+02 -3.365686E+03
       103   7  5.760153E+04 -7.288043E+04 -4.626665E+04  1.524187E+05  1.859609E+04 -2.013808E+04
       103   8  1.929155E+05 -4.243284E+04 -2.477620E+04  1.395048E+05  1.871385E+04 -1.250206E+04
       103   9  3.284389E+05 -1.120456E+04 -3.165050E+03  1.535826E+05  1.883086E+04 -3.361392E+03
       103  10  6.968996E+05  7.680546E+04  6.313648E+04  1.545111E+05  6.704513E-10 -1.743531E-10
       103  11  5.608434E+05  4.325714E+04  3.590202E+04  1.404339E+05  1.998881E-10 -2.505235E-10
       103  12  4.259987E+05  1.149194E+04  1.279961E+04  1.533473E+05 -4.047683E-10 -2.151614E-10
       103  13  3.772001E+05  1.964968E+03  8.435915E+03  1.534648E+05  1.188645E-09  3.463884E-11
       103  14  3.768626E+05  4.128921E+02  5.562931E+03  1.399693E+05  3.382275E-10 -2.514136E-10
       103  15  3.772174E+05  1.436988E+02  4.816968E+03  1.534650E+05 -2.044978E-10 -3.954484E-10
       103  16  5.760105E+04 -7.288096E+04 -4.626806E+04  1.524190E+05 -4.808502E-10  9.010257E-11
       103  17  1.929151E+05 -4.243310E+04 -2.477716E+04  1.395050E+05  3.725663E-10 -3.818260E-10
       103  18  3.284385E+05 -1.120467E+04 -3.165738E+03  1.535826E+05  3.458400E-10 -3.869862E-10
       103  19  6.968997E+05  7.680591E+04  6.313736E+04  1.545112E+05  7.842854E+03  2.014064E+04
       103  20  5.608437E+05  4.325736E+04  3.590266E+04  1.404340E+05  1.350709E+04  1.250739E+04
       103  21  4.259991E+05  1.149205E+04  1.280032E+04  1.533473E+05  1.917094E+04  3.369973E+03
       103  22  3.772003E+05  1.965412E+03  8.436731E+03  1.534647E+05 -5.379911E+03  2.013934E+04
       103  23  3.768626E+05  4.130619E+02  5.563238E+03  1.399693E+05 -2.605683E+03  1.250471E+04
       103  24  3.772174E+05  1.437110E+02  4.816989E+03  1.534650E+05  1.693203E+02  3.365686E+03
       103  25  5.760153E+04 -7.288043E+04 -4.626665E+04  1.524187E+05 -1.859609E+04  2.013808E+04
       103  26  1.929155E+05 -4.243284E+04 -2.477620E+04  1.395048E+05 -1.871385E+04  1.250206E+04
       103  27  3.284389E+05 -1.120456E+04 -3.165050E+03  1.535826E+05 -1.883086E+04  3.361392E+03
       104   1  3.397470E+05 -8.602567E+03 -1.200855E+03  1.536956E+05 -2.001978E+04  2.512672E+03
       104   2  2.041314E+05 -3.966203E+04 -2.185680E+04  1.394010E+05 -2.053318E+04  1.166694E+04
       104   3  6.891095E+04 -6.953241E+04 -4.187908E+04  1.521004E+05 -2.104575E+04  1.934564E+04
       104   4  3.772563E+05  1.415234E+02  5.025427E+03  1.534654E+05 -1.020775E+03  2.516991E+03
       104   5  3.768149E+05  5.773088E+02  6.710655E+03  1.399686E+05 -4.370743E+03  1.166968E+04
       104   6  3.772398E+05  2.694190E+03  1.099672E+04  1.534650E+05 -7.719946E+03  1.934702E+04
       104   7  4.147677E+05  8.885734E+03  1.125302E+04  1.532353E+05  1.797934E+04  2.521295E+03
       104   8  5.495284E+05  4.081524E+04  3.527821E+04  1.405364E+05  1.179603E+04  1.167245E+04
       104   9  6.856624E+05  7.491581E+04  6.386999E+04  1.548303E+05  5.612263E+03  1.934846E+04
       104  10  3.397465E+05 -8.602681E+03 -1.201620E+03  1.536956E+05  4.925670E-10 -2.543702E-10
       104  11  2.041309E+05 -3.966229E+04 -2.185785E+04  1.394012E+05 -3.565004E-10 -4.264968E-10
       104  12  6.891037E+04 -6.953293E+04 -4.188061E+04  1.521008E+05  3.893855E-10 -1.927207E-10
       104  13  3.772563E+05  1.415163E+02  5.025413E+03  1.534654E+05 -4.211817E-10 -3.143681E-10
       104  14  3.768148E+05  5.771574E+02  6.710363E+03  1.399687E+05  8.078262E-10 -2.184737E-10
       104  15  3.772396E+05  2.693772E+03  1.099590E+04  1.534652E+05 -2.754550E-10 -1.951621E-10
       104  16  4.147674E+05  8.885641E+03  1.125240E+04  1.532353E+05 -6.244301E-11 -3.266573E-10
       104  17  5.495282E+05  4.081506E+04  3.527769E+04  1.405363E+05 -2.662399E-10 -2.900663E-10
       104  18  6.856623E+05  7.491540E+04  6.386922E+04  1.548303E+05 -3.384765E-10  6.716090E-12
       104  19  3.397470E+05 -8.602567E+03 -1.200855E+03  1.536956E+05  2.001978E+04 -2.512672E+03
       104  20  2.041314E+05 -3.966203E+04 -2.185680E+04  1.394010E+05  2.053318E+04 -1.166694E+04
       104  21  6.891095E+04 -6.953241E+04 -4.187908E+04  1.521004E+05  2.104575E+04 -1.934564E+04
       104  22  3.772563E+05  1.415234E+02  5.025427E+03  1.534654E+05  1.020775E+03 -2.516991E+03
       104  23  3.768149E+05  5.773088E+02  6.710655E+03  1.399686E+05  4.370743E+03 -1.166968E+04
       104  24  3.772398E+05  2.694190E+03  1.099672E+04  1.534650E+05  7.719946E+03 -1.934702E+04
       104  25  4.147677E+05  8.885734E+03  1.125302E+04  1.532353E+05 -1.797934E+04 -2.521295E+03
       104  26  5.495284E+05  4.081524E+04  3.527821E+04  1.405364E+05 -1.179603E+04 -1.167245E+04
       104  27  6.856624E+05  7.491581E+04  6.386999E+04  1.548303E+05 -5.612263E+03 -1.934846E+04
       105   1 -1.654293E+04 -8.987980E+04 -5.444424E+04  1.543721E+05 -2.368098E+04  2.409738E+04
       105   2 -1.534254E+05 -1.133042E+05 -7.696078E+04  1.255330E+05 -6.853872E+03  2.364227E+04
       105   3 -2.876464E+05 -1.175497E+05 -1.056312E+05  1.226407E+05  9.964776E+03  7.596390E+03
       105   4  3.787774E+05  2.905911E+03  1.423947E+04  1.532308E+05 -9.601277E+03  2.409801E+04
       105   5  3.748325E+05  1.283511E+04  2.553481E+04  1.402594E+05 -2.270660E+04  2.363975E+04
       105   6  3.787224E+05  4.712947E+04  5.145576E+04  1.532308E+05 -3.581746E+04  7.597690E+03
       105   7  7.742514E+05  9.568329E+04  8.291844E+04  1.520887E+05  4.487114E+03  2.409859E+04
       105   8  9.033594E+05  1.389587E+05  1.280183E+05  1.549986E+05 -3.857251E+04  2.363649E+04
       105   9  1.045506E+06  2.117816E+05  2.085205E+05  1.838540E+05 -8.164854E+04  7.594481E+03
       105  10 -1.654369E+04 -8.988057E+04 -5.444638E+04  1.543726E+05  9.245842E-11 -6.233868E-11
       105  11 -1.534256E+05 -1.133048E+05 -7.696192E+04  1.255331E+05  1.610215E-10  1.715521E-10
       105  12 -2.876465E+05 -1.175498E+05 -1.056315E+05  1.226406E+05  8.802031E-10  2.207430E-10
       105  13  3.787772E+05  2.905262E+03  1.423820E+04  1.532310E+05  7.755855E-10  7.598949E-11
       105  14  3.748318E+05  1.283437E+04  2.553279E+04  1.402598E+05  7.415983E-10  2.697490E-10
       105  15  3.787210E+05  4.712907E+04  5.145324E+04  1.532311E+05  3.242860E-10 -9.098308E-11
       105  16  7.742512E+05  9.568266E+04  8.291731E+04  1.520887E+05 -2.003971E-10  2.103427E-10
       105  17  9.033576E+05  1.389577E+05  1.280145E+05  1.549993E+05 -4.644974E-10  3.499460E-10
       105  18  1.045499E+06  2.117797E+05  2.085079E+05  1.838545E+05 -6.358137E-10  4.980893E-11
       105  19 -1.654293E+04 -8.987980E+04 -5.444424E+04  1.543721E+05  2.368098E+04 -2.409738E+04
       105  20 -1.534254E+05 -1.133042E+05 -7.696078E+04  1.255330E+05  6.853872E+03 -2.364227E+04
       105  21 -2.876464E+05 -1.175497E+05 -1.056312E+05  1.226407E+05 -9.964776E+03 -7.596390E+03
       105  22  3.787774E+05  2.905911E+03  1.423947E+04  1.532308E+05  9.601277E+03 -2.409801E+04
       105  23  3.748325E+05  1.283511E+04  2.553481E+04  1.402594E+05  2.270660E+04 -2.363975E+04
       105  24  3.787224E+05  4.712947E+04  5.145576E+04  1.532308E+05  3.581746E+04 -7.597690E+03
       105  25  7.742514E+05  9.568329E+04  8.291844E+04  1.520887E+05 -4.487114E+03 -2.409859E+04
       105  26  9.033594E+05  1.389587E+05  1.280183E+05  1.549986E+05  3.857251E+04 -2.363649E+04
       105  27  1.045506E+06  2.117816E+05  2.085205E+05  1.838540E+05  8.164854E+04 -7.594481E+03
       106   1 -2.805537E+05 -9.863987E+05 -2.749870E+05  3.080494E+05 -1.007855E+04 -9.192008E+04
       106   2 -1.809787E+05 -7.313987E+05 -1.640110E+05  2.695254E+05 -2.979372E+04 -3.600017E+04
       106   3 -1.114590E+05 -4.911523E+05 -9.699652E+04  2.788345E+05 -2.687633E+04  1.993814E+04
       106   4 -4.340103E+04 -2.818052E+04 -4.779814E+04  2.801751E+05 -1.002477E+04 -3.233856E+04
       106   5 -1.163955E+04 -2.449362E+04 -2.440750E+04  2.562410E+05 -2.977547E+04 -1.979984E+04
       106   6 -2.372582E+03 -2.806520E+04 -1.480919E+04  2.801429E+05 -2.690283E+04 -7.266968E+03
       106   7  1.936905E+05  9.308913E+05  1.793406E+05  2.522571E+05 -9.976400E+03  2.733459E+04
       106   8  1.576701E+05  6.828911E+05  1.151726E+05  2.429409E+05 -2.975792E+04 -3.581423E+03
       106   9  1.067025E+05  4.352331E+05  6.737292E+04  2.814521E+05 -2.692943E+04 -3.449179E+04
       106  10 -2.805560E+05 -9.864078E+05 -2.750031E+05  3.080487E+05  2.280396E-13 -3.075507E-10
       106  11 -1.809800E+05 -7.314004E+05 -1.640151E+05  2.695246E+05 -1.090433E-09 -4.284642E-10
       106  12 -1.114599E+05 -4.911529E+05 -9.699863E+04  2.788350E+05  5.097815E-10 -3.818043E-10
       106  13 -4.340142E+04 -2.818167E+04 -4.780030E+04  2.801748E+05 -4.785162E-10  3.930271E-10
       106  14 -1.164061E+04 -2.449428E+04 -2.440990E+04  2.562405E+05  1.411559E-10 -4.866175E-10
       106  15 -2.373374E+03 -2.806545E+04 -1.481065E+04  2.801427E+05 -4.187441E-10  1.537008E-09
       106  16  1.936902E+05  9.308905E+05  1.793390E+05  2.522573E+05  3.444228E-12  3.140865E-10
       106  17  1.576692E+05  6.828909E+05  1.151709E+05  2.429408E+05  1.267533E-10 -2.038737E-10
       106  18  1.067014E+05  4.352316E+05  6.736933E+04  2.814514E+05 -6.428054E-10 -2.607931E-10
       106  19 -2.805537E+05 -9.863987E+05 -2.749870E+05  3.080494E+05  1.007855E+04  9.192008E+04
       106  20 -1.809787E+05 -7.313987E+05 -1.640110E+05  2.695254E+05  2.979372E+04  3.600017E+04
       106  21 -1.114590E+05 -4.911523E+05 -9.699652E+04  2.788345E+05  2.687633E+04 -1.993814E+04
       106  22 -4.340103E+04 -2.818052E+04 -4.779814E+04  2.801751E+05  1.002477E+04  3.233856E+04
       106  23 -1.163955E+04 -2.449362E+04 -2.440750E+04  2.562410E+05  2.977547E+04  1.979984E+04
       106  24 -2.372582E+03 -2.806520E+04 -1.480919E+04  2.801429E+05  2.690283E+04  7.266968E+03
       106  25  1.936905E+05  9.308913E+05  1.793406E+05  2.522571E+05  9.976400E+03 -2.733459E+04
       106  26  1.576701E+05  6.828911E+05  1.151726E+05  2.429409E+05  2.975792E+04  3.581423E+03
       106  27  1.067025E+05  4.352331E+05  6.737292E+04  2.814521E+05  2.692943E+04  3.449179E+04
       107   1 -7.375309E+04 -3.310724E+05 -6.619717E+04  2.817421E+05 -1.783227E+04  2.097711E+04
       107   2 -1.382780E+04 -8.278070E+04 -1.941668E+04  2.558001E+05 -4.049667E+03  2.663761E+04
       107   3  4.312507E+04  1.640282E+05  2.291247E+04  2.791163E+05  9.998021E+03  3.229953E+04
       107   4 -2.123951E+03 -2.675264E+04 -1.242012E+04  2.804611E+05 -1.785973E+04 -5.212852E+03
       107   5 -6.564251E+02 -2.602086E+04 -1.032442E+04  2.558318E+05 -4.078085E+03 -6.481097E+01
       107   6 -2.069466E+03 -2.674325E+04 -1.232440E+04  2.804610E+05  9.968571E+03  5.082545E+03
       107   7  6.950048E+04  2.776592E+05  4.135611E+04  2.791795E+05 -1.788708E+04 -3.141528E+04
       107   8  1.251517E+04  3.074371E+04 -1.229568E+03  2.558635E+05 -4.106505E+03 -2.676958E+04
       107   9 -4.726568E+04 -2.174778E+05 -4.756001E+04  2.818053E+05  9.938998E+03 -2.212630E+04
       107  10 -7.375355E+04 -3.310730E+05 -6.619860E+04  2.817424E+05  2.240331E-11 -6.106254E-10
       107  11 -1.382801E+04 -8.278147E+04 -1.941805E+04  2.558002E+05  2.642754E-10 -1.910959E-10
       107  12  4.312469E+04  1.640270E+05  2.291033E+04  2.791161E+05 -1.719113E-10  2.070525E-10
       107  13 -2.124300E+03 -2.675276E+04 -1.242077E+04  2.804611E+05 -4.783702E-10  6.857622E-10
       107  14 -6.564430E+02 -2.602087E+04 -1.032445E+04  2.558318E+05 -3.911689E-10 -6.958241E-10
       107  15 -2.069580E+03 -2.674330E+04 -1.232463E+04  2.804610E+05  1.810659E-10  1.631800E-09
       107  16  6.949987E+04  2.776580E+05  4.135366E+04  2.791790E+05 -9.964758E-10  6.325998E-10
       107  17  1.251496E+04  3.074294E+04 -1.230947E+03  2.558635E+05 -1.693677E-10 -7.257644E-10
       107  18 -4.726592E+04 -2.174783E+05 -4.756111E+04  2.818055E+05 -3.574780E-10 -1.020469E-09
       107  19 -7.375309E+04 -3.310724E+05 -6.619717E+04  2.817421E+05  1.783227E+04 -2.097711E+04
       107  20 -1.382780E+04 -8.278070E+04 -1.941668E+04  2.558001E+05  4.049667E+03 -2.663761E+04
       107  21  4.312507E+04  1.640282E+05  2.291247E+04  2.791163E+05 -9.998021E+03 -3.229953E+04
       107  22 -2.123951E+03 -2.675264E+04 -1.242012E+04  2.804611E+05  1.785973E+04  5.212852E+03
       107  23 -6.564251E+02 -2.602086E+04 -1.032442E+04  2.558318E+05  4.078085E+03  6.481097E+01
       107  24 -2.069466E+03 -2.674325E+04 -1.232440E+04  2.804610E+05 -9.968571E+03 -5.082545E+03
       107  25  6.950048E+04  2.776592E+05  4.135611E+04  2.791795E+05  1.788708E+04  3.141528E+04
       107  26  1.251517E+04  3.074371E+04 -1.229568E+03  2.558635E+05  4.106505E+03  2.676958E+04
       107  27 -4.726568E+04 -2.174778E+05 -4.756001E+04  2.818053E+05 -9.938998E+03  2.212630E+04
       108   1  8.025788E+04  3.214806E+05  4.869819E+04  2.814105E+05  1.924402E+04  3.522250E+04
       108   2  1.310407E+05  5.694852E+05  9.461455E+04  2.430286E+05  2.379954E+04  9.003838E+03
       108   3  1.663350E+05  8.170693E+05  1.537088E+05  2.526661E+05  8.271023E+03 -1.721787E+04
       108   4 -2.305445E+03 -2.803125E+04 -1.465918E+04  2.801851E+05  1.921487E+04  7.119313E+03
       108   5 -1.142780E+04 -2.449053E+04 -2.408880E+04  2.561879E+05  2.381156E+04  1.948351E+04
       108   6 -4.274164E+04 -2.812828E+04 -4.712939E+04  2.802182E+05  8.314158E+03  3.185429E+04
       108   7 -8.487520E+04 -3.774226E+05 -7.801843E+04  2.789604E+05  1.918581E+04 -2.096850E+04
       108   8 -1.539172E+05 -6.181290E+05 -1.428094E+05  2.693341E+05  2.382404E+04  2.995335E+04
       108   9 -2.518655E+05 -8.726637E+05 -2.480080E+05  3.077323E+05  8.361686E+03  8.086001E+04
       108  10  8.025715E+04  3.214792E+05  4.869517E+04  2.814100E+05  3.844291E-11 -1.023430E-09
       108  11  1.310401E+05  5.694850E+05  9.461333E+04  2.430285E+05 -8.383238E-10  1.422883E-10
       108  12  1.663348E+05  8.170689E+05  1.537081E+05  2.526662E+05 -7.465933E-10  8.859972E-10
       108  13 -2.305855E+03 -2.803141E+04 -1.465997E+04  2.801850E+05  3.257688E-10  6.307726E-10
       108  14 -1.142851E+04 -2.449109E+04 -2.409058E+04  2.561875E+05  7.893621E-10 -5.956996E-10
       108  15 -4.274198E+04 -2.812939E+04 -4.713142E+04  2.802180E+05 -1.255229E-10  1.081860E-09
       108  16 -8.487572E+04 -3.774232E+05 -7.801995E+04  2.789607E+05  4.222039E-11  1.003385E-09
       108  17 -1.539181E+05 -6.181301E+05 -1.428122E+05  2.693335E+05  4.634733E-10 -8.863552E-10
       108  18 -2.518673E+05 -8.726708E+05 -2.480205E+05  3.077318E+05  1.115574E-10 -1.433188E-09
       108  19  8.025788E+04  3.214806E+05  4.869819E+04  2.814105E+05 -1.924402E+04 -3.522250E+04
       108  20  1.310407E+05  5.694852E+05  9.461455E+04  2.430286E+05 -2.379954E+04 -9.003838E+03
       108  21  1.663350E+05  8.170693E+05  1.537088E+05  2.526661E+05 -8.271023E+03  1.721787E+04
       108  22 -2.305445E+03 -2.803125E+04 -1.465918E+04  2.801851E+05 -1.921487E+04 -7.119313E+03
       108  23 -1.142780E+04 -2.449053E+04 -2.408880E+04  2.561879E+05 -2.381156E+04 -1.948351E+04
       108  24 -4.274164E+04 -2.812828E+04 -4.712939E+04  2.802182E+05 -8.314158E+03 -3.185429E+04
       108  25 -8.487520E+04 -3.774226E+05 -7.801843E+04  2.789604E+05 -1.918581E+04  2.096850E+04
       108  26 -1.539172E+05 -6.181290E+05 -1.428094E+05  2.693341E+05 -2.382404E+04 -2.995335E+04
       108  27 -2.518655E+05 -8.726637E+05 -2.480080E+05  3.077323E+05 -8.361686E+03 -8.086001E+04
       109   1  1.094004E+06  2.302429E+05  2.235209E+05  2.393589E+05  7.245886E+04 -8.974623E+03
       109   2  8.909732E+05  1.577589E+05  1.371293E+05  2.121037E+05  2.789516E+04 -2.715360E+04
       109   3  6.986234E+05  1.044717E+05  8.451879E+04  2.229003E+05 -1.664665E+04 -2.567440E+04
       109   4  2.608973E+05  2.437789E+04  2.663450E+04  2.234585E+05  1.861338E+04 -8.982195E+03
       109   5  2.588904E+05  6.632582E+03  1.316407E+04  2.044338E+05  1.185652E+04 -2.715902E+04
       109   6  2.609819E+05  1.540578E+03  7.256705E+03  2.234606E+05  5.106518E+03 -2.566964E+04
       109   7 -5.715656E+05 -1.815343E+05 -1.702889E+05  2.075794E+05 -3.516034E+04 -8.987029E+03
       109   8 -3.728093E+05 -1.445175E+05 -1.108194E+05  1.967719E+05 -4.166163E+03 -2.716405E+04
       109   9 -1.764715E+05 -1.014008E+05 -7.001064E+04  2.240205E+05  2.684481E+04 -2.566483E+04
       109  10  1.093998E+06  2.302414E+05  2.235109E+05  2.393594E+05  3.222918E-10 -4.401209E-12
       109  11  8.909721E+05  1.577579E+05  1.371264E+05  2.121043E+05  6.037537E-10 -3.924997E-10
       109  12  6.986229E+05  1.044709E+05  8.451703E+04  2.229000E+05  7.204545E-10 -7.964558E-10
       109  13  2.608969E+05  2.437771E+04  2.663369E+04  2.234586E+05  1.487170E-10 -3.072441E-10
       109  14  2.588900E+05  6.631752E+03  1.316242E+04  2.044341E+05 -3.544638E-10 -4.352198E-10
       109  15  2.609817E+05  1.539863E+03  7.255417E+03  2.234607E+05  1.609214E-10 -6.543314E-10
       109  16 -5.715669E+05 -1.815348E+05 -1.702914E+05  2.075792E+05 -4.872050E-10 -3.134304E-10
       109  17 -3.728095E+05 -1.445183E+05 -1.108209E+05  1.967718E+05 -4.781713E-10 -5.300478E-10
       109  18 -1.764724E+05 -1.014017E+05 -7.001324E+04  2.240210E+05 -5.151531E-10 -6.859691E-10
       109  19  1.094004E+06  2.302429E+05  2.235209E+05  2.393589E+05 -7.245886E+04  8.974623E+03
       109  20  8.909732E+05  1.577589E+05  1.371293E+05  2.121037E+05 -2.789516E+04  2.715360E+04
       109  21  6.986234E+05  1.044717E+05  8.451879E+04  2.229003E+05  1.664665E+04  2.567440E+04
       109  22  2.608973E+05  2.437789E+04  2.663450E+04  2.234585E+05 -1.861338E+04  8.982195E+03
       109  23  2.588904E+05  6.632582E+03  1.316407E+04  2.044338E+05 -1.185652E+04  2.715902E+04
       109  24  2.609819E+05  1.540578E+03  7.256705E+03  2.234606E+05 -5.106518E+03  2.566964E+04
       109  25 -5.715656E+05 -1.815343E+05 -1.702889E+05  2.075794E+05  3.516034E+04  8.987029E+03
       109  26 -3.728093E+05 -1.445175E+05 -1.108194E+05  1.967719E+05  4.166163E+03  2.716405E+04
       109  27 -1.764715E+05 -1.014008E+05 -7.001064E+04  2.240205E+05 -2.684481E+04  2.566483E+04
       110   1  5.710924E+05  7.452269E+04  6.013441E+04  2.244769E+05 -1.664554E+04 -1.847325E+04
       110   2  3.730968E+05  2.694178E+04  2.301009E+04  2.043499E+05 -2.167278E+04 -6.751170E+03
       110   3  1.761711E+05 -1.919176E+04 -1.048016E+04  2.236001E+05 -2.669898E+04  6.764364E+03
       110   4  2.601845E+05  1.449903E+03  5.529558E+03  2.237556E+05  4.154253E+03 -1.846722E+04
       110   5  2.599765E+05  3.578310E+02  3.169611E+03  2.040670E+05  2.569632E+03 -6.743254E+03
       110   6  2.601997E+05  1.167709E+02  2.052979E+03  2.237560E+05  9.844991E+02  6.774364E+03
       110   7 -5.062791E+04 -7.162792E+04 -4.907717E+04  2.230347E+05  2.494395E+04 -1.846124E+04
       110   8  1.468701E+05 -2.622650E+04 -1.666912E+04  2.037842E+05  2.680777E+04 -6.735359E+03
       110   9  3.442370E+05  1.942538E+04  1.458887E+04  2.239120E+05  2.867157E+04  6.784376E+03
       110  10  5.710920E+05  7.452225E+04  6.013325E+04  2.244767E+05  1.256722E-09 -8.631626E-10
       110  11  3.730963E+05  2.694160E+04  2.300912E+04  2.043498E+05 -6.938917E-11 -1.237878E-09
       110  12  1.761703E+05 -1.919200E+04 -1.048159E+04  2.236002E+05  5.694693E-10  2.707245E-10
       110  13  2.601844E+05  1.449532E+03  5.528884E+03  2.237557E+05  2.717935E-10 -8.589530E-10
       110  14  2.599765E+05  3.577803E+02  3.169513E+03  2.040670E+05  8.486270E-10 -8.629900E-10
       110  15  2.601997E+05  1.167214E+02  2.052891E+03  2.237560E+05  5.187740E-10  2.125873E-10
       110  16 -5.062867E+04 -7.162846E+04 -4.907898E+04  2.230351E+05 -6.995926E-10 -9.410216E-10
       110  17  1.468693E+05 -2.622674E+04 -1.667055E+04  2.037843E+05 -1.296205E-09 -6.990123E-10
       110  18  3.442361E+05  1.942511E+04  1.458724E+04  2.239118E+05 -6.363283E-10  4.218223E-10
       110  19  5.710924E+05  7.452269E+04  6.013441E+04  2.244769E+05  1.664554E+04  1.847325E+04
       110  20  3.730968E+05  2.694178E+04  2.301009E+04  2.043499E+05  2.167278E+04  6.751170E+03
       110  21  1.761711E+05 -1.919176E+04 -1.048016E+04  2.236001E+05  2.669898E+04 -6.764364E+03
       110  22  2.601845E+05  1.449903E+03  5.529558E+03  2.237556E+05 -4.154253E+03  1.846722E+04
       110  23  2.599765E+05  3.578310E+02  3.169611E+03  2.040670E+05 -2.569632E+03  6.743254E+03
       110  24  2.601997E+05  1.167709E+02  2.052979E+03  2.237560E+05 -9.844991E+02 -6.774364E+03
       110  25 -5.062791E+04 -7.162792E+04 -4.907717E+04  2.230347E+05 -2.494395E+04  1.846124E+04
       110  26  1.468701E+05 -2.622650E+04 -1.666912E+04  2.037842E+05 -2.680777E+04  6.735359E+03
       110  27  3.442370E+05  1.942538E+04  1.458887E+04  2.239120E+05 -2.867157E+04 -6.784376E+03
       111   1  5.031562E+04 -4.849994E+04 -3.149045E+04  2.237020E+05 -2.706369E+04  1.534350E+04
       111   2 -1.467950E+05 -9.449000E+04 -6.447870E+04  2.039208E+05 -2.294692E+04  2.850494E+04
       111   3 -3.445132E+05 -1.410334E+05 -1.002815E+05  2.234732E+05 -1.882862E+04  3.911379E+04
       111   4  2.601431E+05  1.097732E+02  1.764964E+03  2.237459E+05  6.513848E+02  1.535274E+04
       111   5  2.600122E+05  7.903426E+01  1.578029E+03  2.040798E+05 -1.355132E+02  2.850935E+04
       111   6  2.600894E+05  3.485313E+02  1.981368E+03  2.237458E+05 -9.197114E+02  3.911426E+04
       111   7  4.700160E+05  4.871771E+04  3.502215E+04  2.237897E+05  2.837548E+04  1.536197E+04
       111   8  6.669847E+05  9.463993E+04  6.763211E+04  2.042390E+05  2.269032E+04  2.851376E+04
       111   9  8.650527E+05  1.417114E+05  1.042337E+05  2.240186E+05  1.700609E+04  3.911475E+04
       111  10  5.031477E+04 -4.850039E+04 -3.149227E+04  2.237023E+05  6.046964E-08  1.363852E-09
       111  11 -1.467958E+05 -9.449101E+04 -6.448122E+04  2.039213E+05 -9.299529E-10  2.125428E-09
       111  12 -3.445140E+05 -1.410351E+05 -1.002850E+05  2.234738E+05 -6.020084E-08  1.371307E-09
       111  13  2.601430E+05  1.095199E+02  1.764521E+03  2.237458E+05 -2.718221E-10  1.262493E-09
       111  14  2.600120E+05  7.816136E+01  1.576502E+03  2.040798E+05  1.335180E-10  2.056110E-09
       111  15  2.600890E+05  3.468880E+02  1.978491E+03  2.237458E+05 -9.641087E-11  1.394290E-09
       111  16  4.700151E+05  4.871724E+04  3.502019E+04  2.237894E+05 -6.063440E-08  1.234935E-09
       111  17  6.669839E+05  9.463892E+04  6.762962E+04  2.042385E+05  7.642431E-10  2.290087E-09
       111  18  8.650520E+05  1.417096E+05  1.042303E+05  2.240180E+05  6.095966E-08  1.450750E-09
       111  19  5.031562E+04 -4.849994E+04 -3.149045E+04  2.237020E+05  2.706369E+04 -1.534350E+04
       111  20 -1.467950E+05 -9.449000E+04 -6.447870E+04  2.039208E+05  2.294692E+04 -2.850494E+04
       111  21 -3.445132E+05 -1.410334E+05 -1.002815E+05  2.234732E+05  1.882862E+04 -3.911379E+04
       111  22  2.601431E+05  1.097732E+02  1.764964E+03  2.237459E+05 -6.513848E+02 -1.535274E+04
       111  23  2.600122E+05  7.903426E+01  1.578029E+03  2.040798E+05  1.355132E+02 -2.850935E+04
       111  24  2.600894E+05  3.485313E+02  1.981368E+03  2.237458E+05  9.197114E+02 -3.911426E+04
       111  25  4.700160E+05  4.871771E+04  3.502215E+04  2.237897E+05 -2.837548E+04 -1.536197E+04
       111  26  6.669847E+05  9.463993E+04  6.763211E+04  2.042390E+05 -2.269032E+04 -2.851376E+04
       111  27  8.650527E+05  1.417114E+05  1.042337E+05  2.240186E+05 -1.700609E+04 -3.911475E+04
       112   1 -4.712892E+05 -1.711498E+05 -1.233551E+05  2.234940E+05 -2.043866E+04  4.573787E+04
       112   2 -6.652165E+05 -2.188358E+05 -1.739741E+05  2.023730E+05  2.774299E+04  4.265847E+04
       112   3 -8.665131E+05 -2.714702E+05 -2.571944E+05  2.188144E+05  7.589221E+04  1.340984E+04
       112   4  2.603038E+05  3.401590E+02  2.392539E+03  2.233517E+05 -1.258163E+03  4.573604E+04
       112   5  2.595862E+05  1.761359E+03  3.962501E+03  2.045721E+05 -3.270762E+03  4.265349E+04
       112   6  2.601839E+05  6.955869E+03  7.802734E+03  2.233520E+05 -5.299430E+03  1.342000E+04
       112   7  9.924235E+05  1.718017E+05  1.281234E+05  2.232091E+05  1.794424E+04  4.573421E+04
       112   8  1.185214E+06  2.223084E+05  1.818633E+05  2.067744E+05 -3.432968E+04  4.264831E+04
       112   9  1.388064E+06  2.852950E+05  2.727375E+05  2.278978E+05 -8.663769E+04  1.342898E+04
       112  10 -4.712902E+05 -1.711522E+05 -1.233598E+05  2.234948E+05 -1.375286E-09  7.043708E-10
       112  11 -6.652179E+05 -2.188380E+05 -1.739790E+05  2.023720E+05 -1.062320E-09  3.968551E-10
       112  12 -8.665194E+05 -2.714719E+05 -2.572055E+05  2.188136E+05 -5.941122E-10  6.525993E-11
       112  13  2.603033E+05  3.379121E+02  2.388604E+03  2.233517E+05 -3.126413E-10  6.601329E-10
       112  14  2.595857E+05  1.759402E+03  3.959062E+03  2.045722E+05  6.837747E-10 -6.011353E-10
       112  15  2.601838E+05  6.955668E+03  7.802343E+03  2.233521E+05  1.102263E-10 -2.274867E-10
       112  16  9.924226E+05  1.717994E+05  1.281189E+05  2.232084E+05  1.179359E-09  4.929437E-10
       112  17  1.185212E+06  2.223061E+05  1.818576E+05  2.067755E+05  1.576754E-09 -6.594646E-10
       112  18  1.388056E+06  2.852928E+05  2.727231E+05  2.278987E+05  3.165571E-10  5.144120E-11
       112  19 -4.712892E+05 -1.711498E+05 -1.233551E+05  2.234940E+05  2.043866E+04 -4.573787E+04
       112  20 -6.652165E+05 -2.188358E+05 -1.739741E+05  2.023730E+05 -2.774299E+04 -4.265847E+04
       112  21 -8.665131E+05 -2.714702E+05 -2.571944E+05  2.188144E+05 -7.589221E+04 -1.340984E+04
       112  22  2.603038E+05  3.401590E+02  2.392539E+03  2.233517E+05  1.258163E+03 -4.573604E+04
       112  23  2.595862E+05  1.761359E+03  3.962501E+03  2.045721E+05  3.270762E+03 -4.265349E+04
       112  24  2.601839E+05  6.955869E+03  7.802734E+03  2.233520E+05  5.299430E+03 -1.342000E+04
       112  25  9.924235E+05  1.718017E+05  1.281234E+05  2.232091E+05 -1.794424E+04 -4.573421E+04
       112  26  1.185214E+06  2.223084E+05  1.818633E+05  2.067744E+05  3.432968E+04 -4.264831E+04
       112  27  1.388064E+06  2.852950E+05  2.727375E+05  2.278978E+05  8.663769E+04 -1.342898E+04
       113   1 -3.041093E+05 -1.145176E+06 -2.978685E+05  3.512734E+05 -1.085924E+04 -9.560749E+04
       113   2 -1.948303E+05 -8.513162E+05 -1.762811E+05  3.091632E+05 -3.169227E+04 -3.510900E+04
       113   3 -1.161757E+05 -5.729305E+05 -1.017906E+05  3.224165E+05 -2.752864E+04  2.541339E+04
       113   4 -4.289142E+04 -9.010798E+04 -4.738360E+04  3.237395E+05 -1.079733E+04 -3.161313E+04
       113   5 -1.144527E+04 -8.643087E+04 -2.452669E+04  2.960396E+05 -3.167258E+04 -1.901762E+04
       113   6 -2.272516E+03 -8.996265E+04 -1.544706E+04  3.237058E+05 -2.756252E+04 -6.428174E+03
       113   7  2.182515E+05  9.659937E+05  2.030395E+05  2.961581E+05 -1.074119E+04  3.248961E+04
       113   8  1.719049E+05  6.790154E+05  1.271998E+05  2.828991E+05 -3.165359E+04 -2.906788E+03
       113   9  1.116183E+05  3.932351E+05  7.089138E+04  3.249960E+05 -2.759651E+04 -3.829381E+04
       113  10 -3.041119E+05 -1.145186E+06 -2.978860E+05  3.512725E+05  3.540404E-10 -7.691712E-10
       113  11 -1.948317E+05 -8.513178E+05 -1.762853E+05  3.091623E+05  4.162917E-10 -1.133198E-10
       113  12 -1.161767E+05 -5.729314E+05 -1.017932E+05  3.224171E+05 -8.386141E-10 -6.029368E-10
       113  13 -4.289181E+04 -9.010909E+04 -4.738570E+04  3.237392E+05  2.666687E-10  3.868839E-12
       113  14 -1.144644E+04 -8.643152E+04 -2.452926E+04  2.960391E+05 -8.441127E-10  5.375152E-10
       113  15 -2.273343E+03 -8.996290E+04 -1.544856E+04  3.237057E+05 -9.855364E-10  5.868177E-10
       113  16  2.182511E+05  9.659925E+05  2.030373E+05  2.961584E+05 -4.600762E-10  5.944139E-10
       113  17  1.719038E+05  6.790151E+05  1.271979E+05  2.828991E+05 -5.756127E-10  1.219818E-09
       113  18  1.116171E+05  3.932333E+05  7.088720E+04  3.249952E+05 -6.858313E-10  3.539709E-10
       113  19 -3.041093E+05 -1.145176E+06 -2.978685E+05  3.512734E+05  1.085924E+04  9.560749E+04
       113  20 -1.948303E+05 -8.513162E+05 -1.762811E+05  3.091632E+05  3.169227E+04  3.510900E+04
       113  21 -1.161757E+05 -5.729305E+05 -1.017906E+05  3.224165E+05  2.752864E+04 -2.541339E+04
       113  22 -4.289142E+04 -9.010798E+04 -4.738360E+04  3.237395E+05  1.079733E+04  3.161313E+04
       113  23 -1.144527E+04 -8.643087E+04 -2.452669E+04  2.960396E+05  3.167258E+04  1.901762E+04
       113  24 -2.272516E+03 -8.996265E+04 -1.544706E+04  3.237058E+05  2.756252E+04  6.428174E+03
       113  25  2.182515E+05  9.659937E+05  2.030395E+05  2.961581E+05  1.074119E+04 -3.248961E+04
       113  26  1.719049E+05  6.790154E+05  1.271998E+05  2.828991E+05  3.165359E+04  2.906788E+03
       113  27  1.116183E+05  3.932351E+05  7.089138E+04  3.249960E+05  2.759651E+04  3.829381E+04
       114   1 -7.266894E+04 -3.882708E+05 -6.701781E+04  3.254278E+05 -1.698317E+04  2.649371E+04
       114   2 -3.898253E+03 -1.013668E+05 -1.436117E+04  2.954208E+05 -9.334018E+02  3.270247E+04
       114   3  6.144355E+04  1.838811E+05  3.336907E+04  3.223387E+05  1.517975E+04  3.891371E+04
       114   4 -2.016318E+03 -8.871510E+04 -1.337629E+04  3.240545E+05 -1.701821E+04 -4.237861E+03
       114   5 -7.624878E+02 -8.785629E+04 -1.219815E+04  2.955921E+05 -9.685819E+02  1.843641E+03
       114   6 -2.911992E+03 -8.871258E+04 -1.585919E+04  3.240554E+05  1.514434E+04  7.924953E+03
       114   7  6.863184E+04  2.109302E+05  4.026534E+04  3.226803E+05 -1.705310E+04 -3.498385E+04
       114   8  2.373780E+03 -7.434351E+04 -1.003157E+04  2.957634E+05 -1.003778E+03 -2.901583E+04
       114   9 -6.727117E+04 -3.612318E+05 -6.508674E+04  3.257712E+05  1.510874E+04 -2.305057E+04
       114  10 -7.266944E+04 -3.882717E+05 -6.701967E+04  3.254282E+05 -2.789741E-10  9.928581E-09
       114  11 -3.898541E+03 -1.013680E+05 -1.436318E+04  2.954208E+05  9.454605E-10 -1.954848E-08
       114  12  6.144290E+04  1.838794E+05  3.336579E+04  3.223382E+05  8.589636E-10 -4.824351E-08
       114  13 -2.016634E+03 -8.871520E+04 -1.337687E+04  3.240544E+05 -9.408605E-10  3.122570E-11
       114  14 -7.624897E+02 -8.785629E+04 -1.219816E+04  2.955921E+05 -6.354790E-10  7.122720E-10
       114  15 -2.912256E+03 -8.871271E+04 -1.585973E+04  3.240553E+05  1.511659E-09  6.016738E-10
       114  16  6.863120E+04  2.109288E+05  4.026250E+04  3.226799E+05 -1.101016E-10 -1.027018E-08
       114  17  2.373553E+03 -7.434441E+04 -1.003315E+04  2.957634E+05 -5.884416E-10  2.099632E-08
       114  18 -6.727156E+04 -3.612325E+05 -6.508817E+04  3.257715E+05  1.701780E-09  4.786431E-08
       114  19 -7.266894E+04 -3.882708E+05 -6.701781E+04  3.254278E+05  1.698317E+04 -2.649371E+04
       114  20 -3.898253E+03 -1.013668E+05 -1.436117E+04  2.954208E+05  9.334018E+02 -3.270247E+04
       114  21  6.144355E+04  1.838811E+05  3.336907E+04  3.223387E+05 -1.517975E+04 -3.891371E+04
       114  22 -2.016318E+03 -8.871510E+04 -1.337629E+04  3.240545E+05  1.701821E+04  4.237861E+03
       114  23 -7.624878E+02 -8.785629E+04 -1.219815E+04  2.955921E+05  9.685819E+02 -1.843641E+03
       114  24 -2.911992E+03 -8.871258E+04 -1.585919E+04  3.240554E+05 -1.514434E+04 -7.924953E+03
       114  25  6.863184E+04  2.109302E+05  4.026534E+04  3.226803E+05  1.705310E+04  3.498385E+04
       114  26  2.373780E+03 -7.434351E+04 -1.003157E+04  2.957634E+05  1.003778E+03  2.901583E+04
       114  27 -6.727117E+04 -3.612318E+05 -6.508674E+04  3.257712E+05 -1.510874E+04  2.305057E+04
       115   1  1.043440E+05  3.655703E+05  6.248699E+04  3.254425E+05  2.577241E+04  4.264272E+04
       115   2  1.611292E+05  6.527599E+05  1.139746E+05  2.779275E+05  3.024404E+04  1.266062E+04
       115   3  1.955350E+05  9.383332E+05  1.793672E+05  2.858131E+05  1.034643E+04 -1.732787E+04
       115   4 -3.236797E+03 -9.054020E+04 -1.937027E+04  3.237161E+05  2.573770E+04  1.056535E+04
       115   5 -1.582260E+04 -8.569672E+04 -3.278230E+04  2.960329E+05  3.026191E+04  2.740077E+04
       115   6 -5.892700E+04 -9.068120E+04 -6.479812E+04  3.237628E+05  1.040164E+04  4.424244E+04
       115   7 -1.108286E+05 -5.464457E+05 -1.012317E+05  3.219908E+05  2.570314E+04 -2.148913E+04
       115   8 -1.928063E+05 -8.236313E+05 -1.795653E+05  3.141161E+05  3.028067E+04  4.212374E+04
       115   9 -3.134576E+05 -1.118713E+06 -3.090222E+05  3.616490E+05  1.046443E+04  1.057113E+05
       115  10  1.043428E+05  3.655681E+05  6.248233E+04  3.254417E+05  1.568281E-09  4.789444E-08
       115  11  1.611282E+05  6.527595E+05  1.139726E+05  2.779272E+05  5.640811E-10  2.080375E-08
       115  12  1.955348E+05  9.383329E+05  1.793664E+05  2.858132E+05 -2.653444E-10 -1.008477E-08
       115  13 -3.237538E+03 -9.054049E+04 -1.937172E+04  3.237159E+05  1.865891E-09  1.697869E-11
       115  14 -1.582378E+04 -8.569777E+04 -3.278543E+04  2.960322E+05  7.643964E-10  5.596994E-10
       115  15 -5.892764E+04 -9.068333E+04 -6.480200E+04  3.237625E+05 -6.946563E-12  3.452206E-10
       115  16 -1.108294E+05 -5.464464E+05 -1.012338E+05  3.219913E+05  2.005814E-09 -4.816510E-08
       115  17 -1.928078E+05 -8.236334E+05 -1.795704E+05  3.141151E+05 -1.145133E-10 -1.966919E-08
       115  18 -3.134607E+05 -1.118725E+06 -3.090434E+05  3.616481E+05 -6.755386E-12  9.766186E-09
       115  19  1.043440E+05  3.655703E+05  6.248699E+04  3.254425E+05 -2.577241E+04 -4.264272E+04
       115  20  1.611292E+05  6.527599E+05  1.139746E+05  2.779275E+05 -3.024404E+04 -1.266062E+04
       115  21  1.955350E+05  9.383332E+05  1.793672E+05  2.858131E+05 -1.034643E+04  1.732787E+04
       115  22 -3.236797E+03 -9.054020E+04 -1.937027E+04  3.237161E+05 -2.573770E+04 -1.056535E+04
       115  23 -1.582260E+04 -8.569672E+04 -3.278230E+04  2.960329E+05 -3.026191E+04 -2.740077E+04
       115  24 -5.892700E+04 -9.068120E+04 -6.479812E+04  3.237628E+05 -1.040164E+04 -4.424244E+04
       115  25 -1.108286E+05 -5.464457E+05 -1.012317E+05  3.219908E+05 -2.570314E+04  2.148913E+04
       115  26 -1.928063E+05 -8.236313E+05 -1.795653E+05  3.141161E+05 -3.028067E+04 -4.212374E+04
       115  27 -3.134576E+05 -1.118713E+06 -3.090222E+05  3.616490E+05 -1.046443E+04 -1.057113E+05
       116   1 -2.250457E+05 -6.685801E+05 -2.163815E+05  4.124355E+05 -8.074153E+03 -3.266988E+04
       116   2 -1.396376E+05 -2.916542E+05 -1.163304E+05  3.818802E+05 -2.030327E+04  8.592101E+03
       116   3 -5.330238E+04  8.020443E+04 -4.295236E+04  4.244430E+05 -8.787373E+03  4.986869E+04
       116   4  1.766973E+04  3.099520E+05  1.827099E+04  4.241312E+05 -8.014476E+03  1.368596E+04
       116   5  5.384483E+03  3.086745E+05  8.362077E+03  3.875856E+05 -2.030061E+04  9.391962E+03
       116   6  1.943271E+03  3.101021E+05  3.429662E+03  4.241488E+05 -8.853091E+03  5.087216E+03
       116   7  2.603172E+05  1.289366E+06  2.528638E+05  4.358449E+05 -7.953118E+03  6.011461E+04
       116   8  1.503838E+05  9.093446E+05  1.330349E+05  3.932963E+05 -2.029793E+04  1.019258E+04
       116   9  5.718673E+04  5.400543E+05  4.981650E+04  4.238545E+05 -8.918749E+03 -3.971052E+04
       116  10 -2.250460E+05 -6.685812E+05 -2.163836E+05  4.124353E+05 -2.672835E-10 -1.396148E-09
       116  11 -1.396381E+05 -2.916544E+05 -1.163313E+05  3.818804E+05 -5.465440E-10  7.381609E-11
       116  12 -5.330313E+04  8.020174E+04 -4.295718E+04  4.244434E+05 -7.982215E-10  1.141968E-09
       116  13  1.766961E+04  3.099518E+05  1.827051E+04  4.241313E+05 -3.033738E-10  6.502783E-10
       116  14  5.384017E+03  3.086743E+05  8.361136E+03  3.875857E+05 -5.835830E-10  1.559733E-09
       116  15  1.943180E+03  3.101020E+05  3.429465E+03  4.241489E+05 -4.792691E-10  5.205476E-10
       116  16  2.603162E+05  1.289362E+06  2.528569E+05  4.358453E+05  1.814240E-11  1.023190E-09
       116  17  1.503833E+05  9.093444E+05  1.330339E+05  3.932965E+05  5.679103E-10  1.280009E-09
       116  18  5.718622E+04  5.400526E+05  4.981340E+04  4.238543E+05 -7.200932E-10 -8.426144E-10
       116  19 -2.250457E+05 -6.685801E+05 -2.163815E+05  4.124355E+05  8.074153E+03  3.266988E+04
       116  20 -1.396376E+05 -2.916542E+05 -1.163304E+05  3.818802E+05  2.030327E+04 -8.592101E+03
       116  21 -5.330238E+04  8.020443E+04 -4.295236E+04  4.244430E+05  8.787373E+03 -4.986869E+04
       116  22  1.766973E+04  3.099520E+05  1.827099E+04  4.241312E+05  8.014476E+03 -1.368596E+04
       116  23  5.384483E+03  3.086745E+05  8.362077E+03  3.875856E+05  2.030061E+04 -9.391962E+03
       116  24  1.943271E+03  3.101021E+05  3.429662E+03  4.241488E+05  8.853091E+03 -5.087216E+03
       116  25  2.603172E+05  1.289366E+06  2.528638E+05  4.358449E+05  7.953118E+03 -6.011461E+04
       116  26  1.503838E+05  9.093446E+05  1.330349E+05  3.932963E+05  2.029793E+04 -1.019258E+04
       116  27  5.718673E+04  5.400543E+05  4.981650E+04  4.238545E+05  8.918749E+03  3.971052E+04
       117   1  2.903785E+03  3.191670E+05 -2.982867E+03  4.242359E+05  5.716529E+03  4.854830E+04
       117   2  8.961694E+04  6.934349E+05  5.964258E+04  3.870400E+05  2.762577E+04  4.601088E+04
       117   3  1.765276E+05  1.068131E+06  1.239316E+05  4.243162E+05  4.774620E+04  4.347863E+04
       117   4  1.885583E+03  3.094424E+05  1.639060E+03  4.244508E+05  5.651593E+03  4.729485E+03
       117   5  5.932660E+02  3.095481E+05 -1.824008E+03  3.872151E+05  2.757122E+04  5.616172E+03
       117   6 -1.090740E+03  3.093473E+05 -6.005113E+03  4.244545E+05  4.770126E+04  6.509472E+03
       117   7  8.684227E+02  2.997221E+05  6.268281E+03  4.246657E+05  5.586627E+03 -3.908884E+04
       117   8 -8.843693E+04 -7.418891E+04 -6.328836E+04  3.873899E+05  2.751662E+04 -3.475448E+04
       117   9 -1.787391E+05 -4.488682E+05 -1.359560E+05  4.245922E+05  4.765625E+04 -3.041599E+04
       117  10  2.903118E+03  3.191645E+05 -2.987354E+03  4.242357E+05 -1.721279E-10 -6.131803E-10
       117  11  8.961555E+04  6.934325E+05  5.963717E+04  3.870390E+05 -7.563759E-11  2.192890E-10
       117  12  1.765247E+05  1.068128E+06  1.239238E+05  4.243145E+05  5.106701E-11  3.829089E-10
       117  13  1.885543E+03  3.094424E+05  1.638959E+03  4.244508E+05 -5.638900E-10  8.246779E-10
       117  14  5.924413E+02  3.095479E+05 -1.825496E+03  3.872149E+05 -1.057141E-10  1.642540E-09
       117  15 -1.093195E+03  3.093467E+05 -6.009468E+03  4.244542E+05  2.195248E-10  4.678510E-10
       117  16  8.679790E+02  2.997204E+05  6.265352E+03  4.246659E+05 -3.529007E-10  1.540977E-10
       117  17 -8.843806E+04 -7.419041E+04 -6.329205E+04  3.873907E+05 -2.697467E-10  1.189407E-09
       117  18 -1.787417E+05 -4.488698E+05 -1.359620E+05  4.245934E+05 -4.455403E-10 -1.307916E-10
       117  19  2.903785E+03  3.191670E+05 -2.982867E+03  4.242359E+05 -5.716529E+03 -4.854830E+04
       117  20  8.961694E+04  6.934349E+05  5.964258E+04  3.870400E+05 -2.762577E+04 -4.601088E+04
       117  21  1.765276E+05  1.068131E+06  1.239316E+05  4.243162E+05 -4.774620E+04 -4.347863E+04
       117  22  1.885583E+03  3.094424E+05  1.639060E+03  4.244508E+05 -5.651593E+03 -4.729485E+03
       117  23  5.932660E+02  3.095481E+05 -1.824008E+03  3.872151E+05 -2.757122E+04 -5.616172E+03
       117  24 -1.090740E+03  3.093473E+05 -6.005113E+03  4.244545E+05 -4.770126E+04 -6.509472E+03
       117  25  8.684227E+02  2.997221E+05  6.268281E+03  4.246657E+05 -5.586627E+03  3.908884E+04
       117  26 -8.843693E+04 -7.418891E+04 -6.328836E+04  3.873899E+05 -2.751662E+04  3.475448E+04
       117  27 -1.787391E+05 -4.488682E+05 -1.359560E+05  4.245922E+05 -4.765625E+04  3.041599E+04
       118   1  2.330883E+05  1.307730E+06  1.649923E+05  4.255141E+05  6.087697E+04  4.641227E+04
       118   2  3.178364E+05  1.678512E+06  2.487431E+05  3.788103E+05  6.059680E+04 -2.325321E+04
       118   3  3.998228E+05  2.057899E+06  3.770994E+05  4.039351E+05  1.952794E+04 -9.296139E+04
       118   4 -1.354917E+03  3.081973E+05 -8.635647E+03  4.238679E+05  6.083602E+04  7.537761E+03
       118   5 -8.564107E+03  3.105952E+05 -1.705969E+04  3.879603E+05  6.064811E+04  1.635755E+04
       118   6 -3.214296E+04  3.078674E+05 -3.531088E+04  4.238952E+05  1.962775E+04  2.517664E+04
       118   7 -2.358512E+05 -6.903548E+05 -1.822929E+05  4.222239E+05  6.079523E+04 -3.127617E+04
       118   8 -3.350752E+05 -1.055525E+06 -2.829451E+05  3.970887E+05  6.070066E+04  5.588313E+04
       118   9 -4.643183E+05 -1.439323E+06 -4.478797E+05  4.437973E+05  1.973537E+04  1.429843E+05
       118  10  2.330837E+05  1.307727E+06  1.649813E+05  4.255119E+05  3.881385E-10 -1.238385E-10
       118  11  3.178323E+05  1.678510E+06  2.487352E+05  3.788115E+05 -1.754847E-10  2.572774E-10
       118  12  3.998201E+05  2.057890E+06  3.770825E+05  4.039366E+05 -1.395717E-10 -1.207670E-10
       118  13 -1.358907E+03  3.081962E+05 -8.642708E+03  4.238676E+05  5.811183E-10  6.647220E-10
       118  14 -8.568128E+03  3.105939E+05 -1.706710E+04  3.879595E+05  8.918881E-10  9.151470E-10
       118  15 -3.214354E+04  3.078666E+05 -3.531280E+04  4.238948E+05  2.370312E-10  1.337200E-10
       118  16 -2.358555E+05 -6.903569E+05 -1.823017E+05  4.222254E+05  5.805170E-12 -1.735319E-10
       118  17 -3.350800E+05 -1.055529E+06 -2.829578E+05  3.970860E+05  4.741773E-10  4.671272E-10
       118  18 -4.643242E+05 -1.439345E+06 -4.479189E+05  4.437951E+05  2.565506E-10  1.165936E-10
       118  19  2.330883E+05  1.307730E+06  1.649923E+05  4.255141E+05 -6.087697E+04 -4.641227E+04
       118  20  3.178364E+05  1.678512E+06  2.487431E+05  3.788103E+05 -6.059680E+04  2.325321E+04
       118  21  3.998228E+05  2.057899E+06  3.770994E+05  4.039351E+05 -1.952794E+04  9.296139E+04
       118  22 -1.354917E+03  3.081973E+05 -8.635647E+03  4.238679E+05 -6.083602E+04 -7.537761E+03
       118  23 -8.564107E+03  3.105952E+05 -1.705969E+04  3.879603E+05 -6.064811E+04 -1.635755E+04
       118  24 -3.214296E+04  3.078674E+05 -3.531088E+04  4.238952E+05 -1.962775E+04 -2.517664E+04
       118  25 -2.358512E+05 -6.903548E+05 -1.822929E+05  4.222239E+05 -6.079523E+04  3.127617E+04
       118  26 -3.350752E+05 -1.055525E+06 -2.829451E+05  3.970887E+05 -6.070066E+04 -5.588313E+04
       118  27 -4.643183E+05 -1.439323E+06 -4.478797E+05  4.437973E+05 -1.973537E+04 -1.429843E+05
       119   1  1.758064E+06  4.275181E+05  4.098950E+05  3.394722E+05  1.334021E+05 -1.987084E+04
       119   2  1.458853E+06  3.297582E+05  2.719927E+05  3.061224E+05  5.435651E+04 -6.299872E+04
       119   3  1.175750E+06  2.540074E+05  1.909817E+05  3.280473E+05 -2.460460E+04 -6.758345E+04
       119   4  9.385669E+04  1.689817E+04  1.904630E+04  3.286937E+05  1.326370E+04 -1.981958E+04
       119   5  9.238872E+04  4.211505E+03  9.422567E+03  3.010524E+05  8.422323E+03 -6.299773E+04
       119   6  9.411614E+04  7.011762E+02  5.258913E+03  3.286880E+05  3.626306E+03 -6.759519E+04
       119   7 -1.567775E+06 -3.939107E+05 -3.719381E+05  3.179439E+05 -1.065553E+05 -1.976416E+04
       119   8 -1.272277E+06 -3.214445E+05 -2.532256E+05  2.959935E+05 -3.741329E+04 -6.299601E+04
       119   9 -9.863683E+05 -2.526671E+05 -1.805004E+05  3.293274E+05  3.180964E+04 -6.760687E+04
       119  10  1.758045E+06  4.275129E+05  4.098609E+05  3.394744E+05  3.871731E-10 -2.062955E-11
       119  11  1.458848E+06  3.297532E+05  2.719797E+05  3.061252E+05  4.727240E-12  9.439429E-12
       119  12  1.175748E+06  2.540023E+05  1.909720E+05  3.280459E+05  2.675951E-10  3.511452E-11
       119  13  9.385639E+04  1.689770E+04  1.904523E+04  3.286939E+05 -5.524434E-10 -4.857322E-11
       119  14  9.238757E+04  4.207224E+03  9.414975E+03  3.010528E+05 -3.817733E-10 -4.362904E-11
       119  15  9.411490E+04  6.962658E+02  5.250301E+03  3.286882E+05  4.358640E-10 -5.373063E-11
       119  16 -1.567787E+06 -3.939141E+05 -3.719602E+05  3.179422E+05 -2.501467E-10 -6.236102E-12
       119  17 -1.272279E+06 -3.214491E+05 -2.532357E+05  2.959916E+05 -1.114456E-11 -9.030079E-11
       119  18 -9.863706E+05 -2.526723E+05 -1.805109E+05  3.293291E+05  7.565140E-11 -1.396931E-10
       119  19  1.758064E+06  4.275181E+05  4.098950E+05  3.394722E+05 -1.334021E+05  1.987084E+04
       119  20  1.458853E+06  3.297582E+05  2.719927E+05  3.061224E+05 -5.435651E+04  6.299872E+04
       119  21  1.175750E+06  2.540074E+05  1.909817E+05  3.280473E+05  2.460460E+04  6.758345E+04
       119  22  9.385669E+04  1.689817E+04  1.904630E+04  3.286937E+05 -1.326370E+04  1.981958E+04
       119  23  9.238872E+04  4.211505E+03  9.422567E+03  3.010524E+05 -8.422323E+03  6.299773E+04
       119  24  9.411614E+04  7.011762E+02  5.258913E+03  3.286880E+05 -3.626306E+03  6.759519E+04
       119  25 -1.567775E+06 -3.939107E+05 -3.719381E+05  3.179439E+05  1.065553E+05  1.976416E+04
       119  26 -1.272277E+06 -3.214445E+05 -2.532256E+05  2.959935E+05  3.741329E+04  6.299601E+04
       119  27 -9.863683E+05 -2.526671E+05 -1.805004E+05  3.293274E+05 -3.180964E+04  6.760687E+04
       120   1  9.880032E+05  2.097187E+05  1.551899E+05  3.296547E+05 -2.341864E+04 -5.784936E+04
       120   2  6.963942E+05  1.401686E+05  1.002523E+05  3.004760E+05 -3.184049E+04 -4.225967E+04
       120   3  4.065327E+05  7.246289E+04  5.127755E+04  3.291903E+05 -4.026352E+04 -2.290513E+04
       120   4  9.356611E+04  7.167461E+02  4.034939E+03  3.292716E+05  2.928802E+03 -5.785551E+04
       120   5  9.341951E+04  6.011306E+01  2.397758E+03  3.003233E+05  1.739010E+03 -4.225924E+04
       120   6  9.368326E+04 -2.369096E+00  1.704796E+03  3.292717E+05  5.443178E+02 -2.289615E+04
       120   7 -8.000824E+05 -2.083270E+05 -1.471430E+05  3.288889E+05  2.923955E+04 -5.786170E+04
       120   8 -5.091925E+05 -1.400662E+05 -9.546267E+04  3.001707E+05  3.528707E+04 -4.225882E+04
       120   9 -2.190652E+05 -7.247160E+04 -4.786417E+04  3.293530E+05  4.133235E+04 -2.288716E+04
       120  10  9.880018E+05  2.097150E+05  1.551825E+05  3.296536E+05  3.869072E-10 -4.303660E-11
       120  11  6.963926E+05  1.401664E+05  1.002471E+05  3.004750E+05 -1.301736E-10 -1.099367E-10
       120  12  4.065308E+05  7.246190E+04  5.127352E+04  3.291896E+05 -2.526385E-10  2.199190E-10
       120  13  9.356520E+04  7.131491E+02  4.028632E+03  3.292717E+05  5.489260E-10 -1.488403E-10
       120  14  9.341903E+04  5.819443E+01  2.394396E+03  3.003234E+05  3.473476E-10 -1.765275E-10
       120  15  9.368312E+04 -2.932146E+00  1.703810E+03  3.292717E+05  4.391522E-10  4.146097E-11
       120  16 -8.000842E+05 -2.083308E+05 -1.471509E+05  3.288902E+05 -4.568207E-13 -2.106540E-10
       120  17 -5.091943E+05 -1.400685E+05 -9.546837E+04  3.001719E+05 -1.337516E-10 -2.629108E-10
       120  18 -2.190672E+05 -7.247263E+04 -4.786837E+04  3.293538E+05  4.812536E-10 -1.400162E-10
       120  19  9.880032E+05  2.097187E+05  1.551899E+05  3.296547E+05  2.341864E+04  5.784936E+04
       120  20  6.963942E+05  1.401686E+05  1.002523E+05  3.004760E+05  3.184049E+04  4.225967E+04
       120  21  4.065327E+05  7.246289E+04  5.127755E+04  3.291903E+05  4.026352E+04  2.290513E+04
       120  22  9.356611E+04  7.167461E+02  4.034939E+03  3.292716E+05 -2.928802E+03  5.785551E+04
       120  23  9.341951E+04  6.011306E+01  2.397758E+03  3.003233E+05 -1.739010E+03  4.225924E+04
       120  24  9.368326E+04 -2.369096E+00  1.704796E+03  3.292717E+05 -5.443178E+02  2.289615E+04
       120  25 -8.000824E+05 -2.083270E+05 -1.471430E+05  3.288889E+05 -2.923955E+04  5.786170E+04
       120  26 -5.091925E+05 -1.400662E+05 -9.546267E+04  3.001707E+05 -3.528707E+04  4.225882E+04
       120  27 -2.190652E+05 -7.247160E+04 -4.786417E+04  3.293530E+05 -4.133235E+04  2.288716E+04
       121   1  2.212919E+05  2.935632E+04  2.063509E+04  3.293040E+05 -4.049353E+04 -1.027851E+04
       121   2 -6.901657E+04 -3.815425E+04 -2.693709E+04  3.001713E+05 -3.625532E+04  9.629540E+03
       121   3 -3.598589E+05 -1.062142E+05 -7.739171E+04  3.290059E+05 -3.201863E+04  2.690733E+04
       121   4  9.366427E+04  2.223123E+01  1.566047E+03  3.292871E+05  2.579030E+02 -1.026781E+04
       121   5  9.352096E+04  7.049497E+01  1.647977E+03  3.003041E+05 -5.627112E+02  9.637101E+03
       121   6  9.363280E+04  4.493788E+02  2.355612E+03  3.292871E+05 -1.382901E+03  2.691218E+04
       121   7 -3.394346E+04 -2.931173E+04 -1.749706E+04  3.292703E+05  4.100130E+04 -1.025711E+04
       121   8  2.560871E+05  3.829448E+04  3.023688E+04  3.004370E+05  3.513897E+04  9.644675E+03
       121   9  5.473278E+05  1.071022E+05  8.209900E+04  3.295685E+05  2.927455E+04  2.691706E+04
       121  10  2.212901E+05  2.935576E+04  2.063181E+04  3.293037E+05  3.354557E-10  3.695443E-10
       121  11 -6.901801E+04 -3.815470E+04 -2.693974E+04  3.001716E+05  2.340911E-10  1.224431E-10
       121  12 -3.598602E+05 -1.062152E+05 -7.739500E+04  3.290066E+05  9.439759E-10 -3.328934E-10
       121  13  9.366424E+04  2.211800E+01  1.565849E+03  3.292871E+05  5.322788E-10  1.666661E-10
       121  14  9.352094E+04  7.039515E+01  1.647802E+03  3.003041E+05  1.171747E-09  5.592095E-11
       121  15  9.363260E+04  4.486005E+02  2.354247E+03  3.292871E+05  4.672807E-11 -2.425047E-10
       121  16 -3.394529E+04 -2.931229E+04 -1.750042E+04  3.292706E+05 -3.303068E-10 -3.645795E-11
       121  17  2.560857E+05  3.829405E+04  3.023438E+04  3.004367E+05 -1.514302E-10 -2.170927E-11
       121  18  5.473267E+05  1.071012E+05  8.209603E+04  3.295679E+05 -8.271329E-10 -1.694597E-10
       121  19  2.212919E+05  2.935632E+04  2.063509E+04  3.293040E+05  4.049353E+04  1.027851E+04
       121  20 -6.901657E+04 -3.815425E+04 -2.693709E+04  3.001713E+05  3.625532E+04 -9.629540E+03
       121  21 -3.598589E+05 -1.062142E+05 -7.739171E+04  3.290059E+05  3.201863E+04 -2.690733E+04
       121  22  9.366427E+04  2.223123E+01  1.566047E+03  3.292871E+05 -2.579030E+02  1.026781E+04
       121  23  9.352096E+04  7.049497E+01  1.647977E+03  3.003041E+05  5.627112E+02 -9.637101E+03
       121  24  9.363280E+04  4.493788E+02  2.355612E+03  3.292871E+05  1.382901E+03 -2.691218E+04
       121  25 -3.394346E+04 -2.931173E+04 -1.749706E+04  3.292703E+05 -4.100130E+04  1.025711E+04
       121  26  2.560871E+05  3.829448E+04  3.023688E+04  3.004370E+05 -3.513897E+04 -9.644675E+03
       121  27  5.473278E+05  1.071022E+05  8.209900E+04  3.295685E+05 -2.927455E+04 -2.691706E+04
       122   1 -5.459364E+05 -1.501863E+05 -1.101475E+05  3.290831E+05 -3.381756E+04  3.752159E+04
       122   2 -8.326878E+05 -2.193038E+05 -1.767151E+05  2.980324E+05  1.900123E+04  3.978297E+04
       122   3 -1.127279E+06 -2.931876E+05 -2.788605E+05  3.229923E+05  7.177278E+04  1.315790E+04
       122   4  9.391845E+04  4.406684E+02  2.949995E+03  3.288508E+05 -1.790497E+03  3.752344E+04
       122   5  9.297411E+04  2.270517E+03  5.074826E+03  3.008491E+05 -4.370760E+03  3.977838E+04
       122   6  9.374181E+04  8.964623E+03  1.011696E+04  3.288520E+05 -6.973548E+03  1.316721E+04
       122   7  7.341759E+05  1.510457E+05  1.160363E+05  3.286182E+05  3.026862E+04  3.752527E+04
       122   8  1.019459E+06  2.237933E+05  1.868253E+05  3.036699E+05 -2.777688E+04  3.977359E+04
       122   9  1.316148E+06  3.110133E+05  2.990143E+05  3.347230E+05 -8.587412E+04  1.317505E+04
       122  10 -5.459380E+05 -1.501881E+05 -1.101523E+05  3.290841E+05 -1.809873E-10 -3.677290E-10
       122  11 -8.326886E+05 -2.193056E+05 -1.767188E+05  2.980318E+05 -7.496444E-10 -1.046311E-10
       122  12 -1.127285E+06 -2.931892E+05 -2.788705E+05  3.229915E+05  8.944680E-11 -2.317269E-11
       122  13  9.391807E+04  4.391554E+02  2.947343E+03  3.288509E+05  5.403817E-10 -2.547885E-10
       122  14  9.297366E+04  2.268812E+03  5.071816E+03  3.008492E+05  1.960887E-10  6.219321E-11
       122  15  9.374171E+04  8.964424E+03  1.011654E+04  3.288520E+05 -4.290920E-10 -8.342735E-12
       122  16  7.341745E+05  1.510439E+05  1.160319E+05  3.286173E+05  1.804625E-10 -1.268119E-10
       122  17  1.019458E+06  2.237914E+05  1.868209E+05  3.036708E+05  4.126520E-10  6.765223E-11
       122  18  1.316140E+06  3.110111E+05  2.990002E+05  3.347239E+05 -6.310523E-10  6.012841E-11
       122  19 -5.459364E+05 -1.501863E+05 -1.101475E+05  3.290831E+05  3.381756E+04 -3.752159E+04
       122  20 -8.326878E+05 -2.193038E+05 -1.767151E+05  2.980324E+05 -1.900123E+04 -3.978297E+04
       122  21 -1.127279E+06 -2.931876E+05 -2.788605E+05  3.229923E+05 -7.177278E+04 -1.315790E+04
       122  22  9.391845E+04  4.406684E+02  2.949995E+03  3.288508E+05  1.790497E+03 -3.752344E+04
       122  23  9.297411E+04  2.270517E+03  5.074826E+03  3.008491E+05  4.370760E+03 -3.977838E+04
       122  24  9.374181E+04  8.964623E+03  1.011696E+04  3.288520E+05  6.973548E+03 -1.316721E+04
       122  25  7.341759E+05  1.510457E+05  1.160363E+05  3.286182E+05 -3.026862E+04 -3.752527E+04
       122  26  1.019459E+06  2.237933E+05  1.868253E+05  3.036699E+05  2.777688E+04 -3.977359E+04
       122  27  1.316148E+06  3.110133E+05  2.990143E+05  3.347230E+05  8.587412E+04 -1.317505E+04
       123   1 -1.468079E+05 -6.378878E+05 -1.471590E+05  2.019321E+05 -3.789642E+03 -5.243717E+04
       123   2 -7.670932E+04 -4.767969E+05 -7.779982E+04  1.733158E+05 -9.774504E+03 -2.142886E+04
       123   3 -3.071238E+04 -3.258265E+05 -3.468260E+04  1.751363E+05 -5.322495E+03  9.577070E+03
       123   4 -3.974890E+04 -2.058074E+05 -4.374454E+04  1.763617E+05 -3.757294E+03 -3.086704E+04
       123   5 -1.057649E+04 -2.024609E+05 -2.137498E+04  1.611170E+05 -9.771530E+03 -1.987670E+04
       123   6 -2.020653E+03 -2.057754E+05 -1.133063E+04  1.763118E+05 -5.349680E+03 -8.897085E+03
       123   7  6.729931E+04  2.264467E+05  5.965888E+04  1.507734E+05 -3.726738E+03 -9.281944E+03
       123   8  5.555217E+04  7.194689E+04  3.504592E+04  1.489128E+05 -9.768617E+03 -1.832386E+04
       123   9  2.667040E+04 -8.570971E+04  1.202195E+04  1.774876E+05 -5.376933E+03 -2.737474E+04
       123  10 -1.468087E+05 -6.378908E+05 -1.471642E+05  2.019319E+05 -6.307213E-11 -4.630839E-10
       123  11 -7.670955E+04 -4.767975E+05 -7.780086E+04  1.733156E+05  5.669065E-11 -2.839234E-10
       123  12 -3.071244E+04 -3.258266E+05 -3.468283E+04  1.751363E+05 -2.234503E-11  2.843097E-10
       123  13 -3.974917E+04 -2.058085E+05 -4.374636E+04  1.763616E+05 -6.793677E-10 -4.641234E-12
       123  14 -1.057670E+04 -2.024614E+05 -2.137590E+04  1.611169E+05 -3.835554E-10  5.779358E-11
       123  15 -2.020705E+03 -2.057755E+05 -1.133083E+04  1.763118E+05  2.063165E-10  1.406632E-11
       123  16  6.729927E+04  2.264466E+05  5.965869E+04  1.507734E+05 -6.185299E-11  3.877484E-10
       123  17  5.555198E+04  7.194650E+04  3.504511E+04  1.489126E+05 -1.049883E-09  1.658493E-10
       123  18  2.667017E+04 -8.571052E+04  1.202049E+04  1.774875E+05 -3.448323E-10 -2.292376E-10
       123  19 -1.468079E+05 -6.378878E+05 -1.471590E+05  2.019321E+05  3.789642E+03  5.243717E+04
       123  20 -7.670932E+04 -4.767969E+05 -7.779982E+04  1.733158E+05  9.774504E+03  2.142886E+04
       123  21 -3.071238E+04 -3.258265E+05 -3.468260E+04  1.751363E+05  5.322495E+03 -9.577070E+03
       123  22 -3.974890E+04 -2.058074E+05 -4.374454E+04  1.763617E+05  3.757294E+03  3.086704E+04
       123  23 -1.057649E+04 -2.024609E+05 -2.137498E+04  1.611170E+05  9.771530E+03  1.987670E+04
       123  24 -2.020653E+03 -2.057754E+05 -1.133063E+04  1.763118E+05  5.349680E+03  8.897085E+03
       123  25  6.729931E+04  2.264467E+05  5.965888E+04  1.507734E+05  3.726738E+03  9.281944E+03
       123  26  5.555217E+04  7.194689E+04  3.504592E+04  1.489128E+05  9.768617E+03  1.832386E+04
       123  27  2.667040E+04 -8.570971E+04  1.202195E+04  1.774876E+05  5.376933E+03  2.737474E+04
       124   1 -7.042340E+03 -2.246108E+05 -1.416623E+04  1.774616E+05  6.832200E+02  1.056603E+04
       124   2  3.150977E+04 -6.846348E+04  1.796659E+04  1.615579E+05  9.764467E+03  1.122424E+04
       124   3  6.926997E+04  8.733855E+04  4.944658E+04  1.766904E+05  1.821201E+04  1.188414E+04
       124   4 -1.830623E+03 -2.044216E+05 -8.284030E+03  1.764496E+05  6.564367E+02 -7.472785E+03
       124   5  2.098284E+01 -2.041386E+05 -3.772669E+03  1.609293E+05  9.740275E+03 -5.599702E+03
       124   6  8.709213E+02 -2.044352E+05 -7.576809E+02  1.764458E+05  1.819030E+04 -3.725086E+03
       124   7  3.381237E+03 -1.842314E+05 -2.400646E+03  1.754375E+05  6.297128E+02 -2.551220E+04
       124   8 -3.146857E+04 -3.397948E+05 -2.551135E+04  1.603009E+05  9.716113E+03 -2.242010E+04
       124   9 -6.753256E+04 -4.961249E+05 -5.096392E+04  1.762013E+05  1.816860E+04 -1.932720E+04
       124  10 -7.042370E+03 -2.246109E+05 -1.416644E+04  1.774616E+05 -2.668205E-10 -3.019347E-10
       124  11  3.150963E+04 -6.846364E+04  1.796617E+04  1.615578E+05 -1.961172E-10  6.375544E-11
       124  12  6.926958E+04  8.733831E+04  4.944570E+04  1.766902E+05 -4.157482E-10  3.869940E-10
       124  13 -1.830638E+03 -2.044217E+05 -8.284136E+03  1.764496E+05 -3.674093E-11  1.094087E-10
       124  14  2.087253E+01 -2.041387E+05 -3.772906E+03  1.609294E+05 -1.709269E-10  4.306710E-11
       124  15  8.705623E+02 -2.044354E+05 -7.583288E+02  1.764459E+05  2.504200E-10 -6.320841E-11
       124  16  3.381062E+03 -1.842321E+05 -2.401871E+03  1.754375E+05  1.421277E-10  4.138540E-10
       124  17 -3.146881E+04 -3.397954E+05 -2.551247E+04  1.603010E+05  3.373603E-10 -2.421746E-11
       124  18 -6.753302E+04 -4.961254E+05 -5.096524E+04  1.762016E+05  4.644073E-11 -3.967271E-10
       124  19 -7.042340E+03 -2.246108E+05 -1.416623E+04  1.774616E+05 -6.832200E+02 -1.056603E+04
       124  20  3.150977E+04 -6.846348E+04  1.796659E+04  1.615579E+05 -9.764467E+03 -1.122424E+04
       124  21  6.926997E+04  8.733855E+04  4.944658E+04  1.766904E+05 -1.821201E+04 -1.188414E+04
       124  22 -1.830623E+03 -2.044216E+05 -8.284030E+03  1.764496E+05 -6.564367E+02  7.472785E+03
       124  23  2.098284E+01 -2.041386E+05 -3.772669E+03  1.609293E+05 -9.740275E+03  5.599702E+03
       124  24  8.709213E+02 -2.044352E+05 -7.576809E+02  1.764458E+05 -1.819030E+04  3.725086E+03
       124  25  3.381237E+03 -1.842314E+05 -2.400646E+03  1.754375E+05 -6.297128E+02  2.551220E+04
       124  26 -3.146857E+04 -3.397948E+05 -2.551135E+04  1.603009E+05 -9.716113E+03  2.242010E+04
       124  27 -6.753256E+04 -4.961249E+05 -5.096392E+04  1.762013E+05 -1.816860E+04  1.932720E+04
       125   1  9.294787E+04  1.879490E+05  6.891738E+04  1.762745E+05  2.372996E+04  1.270490E+04
       125   2  1.329938E+05  3.406340E+05  1.099770E+05  1.642625E+05  2.397080E+04 -2.082310E+04
       125   3  1.829146E+05  5.001227E+05  1.753158E+05  1.822136E+05  7.739242E+03 -5.434505E+04
       125   4  8.817984E+02 -2.040317E+05  5.626118E+02  1.762087E+05  2.370826E+04 -3.664621E+03
       125   5  2.663174E+03 -2.047061E+05  3.651082E+03  1.612218E+05  2.399259E+04 -5.548078E+03
       125   6  8.832739E+03 -2.040864E+05  9.050149E+03  1.761986E+05  7.798189E+03 -7.416999E+03
       125   7 -9.119246E+04 -5.958613E+05 -6.779659E+04  1.761428E+05  2.368655E+04 -2.002412E+04
       125   8 -1.276851E+05 -7.497605E+05 -1.026881E+05  1.581836E+05  2.401425E+04  9.713830E+03
       125   9 -1.652833E+05 -9.078349E+05 -1.572416E+05  1.701903E+05  7.856268E+03  3.945815E+04
       125  10  9.294722E+04  1.879487E+05  6.891602E+04  1.762743E+05  3.890735E-11 -1.555210E-10
       125  11  1.329930E+05  3.406334E+05  1.099751E+05  1.642629E+05 -4.223695E-10 -1.183597E-10
       125  12  1.829138E+05  5.001195E+05  1.753102E+05  1.822140E+05 -1.310742E-10  1.643499E-10
       125  13  8.811912E+02 -2.040318E+05  5.615303E+02  1.762088E+05 -3.686656E-10 -1.655895E-13
       125  14  2.662548E+03 -2.047063E+05  3.649942E+03  1.612219E+05  3.522575E-11 -1.671759E-11
       125  15  8.832659E+03 -2.040865E+05  9.049931E+03  1.761987E+05 -2.937545E-11 -1.582763E-11
       125  16 -9.119317E+04 -5.958619E+05 -6.779840E+04  1.761432E+05  1.620001E-10  8.462451E-11
       125  17 -1.276858E+05 -7.497607E+05 -1.026894E+05  1.581834E+05 -5.500351E-10  1.651032E-10
       125  18 -1.652838E+05 -9.078366E+05 -1.572446E+05  1.701901E+05 -2.732710E-10 -9.642139E-11
       125  19  9.294787E+04  1.879490E+05  6.891738E+04  1.762745E+05 -2.372996E+04 -1.270490E+04
       125  20  1.329938E+05  3.406340E+05  1.099770E+05  1.642625E+05 -2.397080E+04  2.082310E+04
       125  21  1.829146E+05  5.001227E+05  1.753158E+05  1.822136E+05 -7.739242E+03  5.434505E+04
       125  22  8.817984E+02 -2.040317E+05  5.626118E+02  1.762087E+05 -2.370826E+04  3.664621E+03
       125  23  2.663174E+03 -2.047061E+05  3.651082E+03  1.612218E+05 -2.399259E+04  5.548078E+03
       125  24  8.832739E+03 -2.040864E+05  9.050149E+03  1.761986E+05 -7.798189E+03  7.416999E+03
       125  25 -9.119246E+04 -5.958613E+05 -6.779659E+04  1.761428E+05 -2.368655E+04  2.002412E+04
       125  26 -1.276851E+05 -7.497605E+05 -1.026881E+05  1.581836E+05 -2.401425E+04 -9.713830E+03
       125  27 -1.652833E+05 -9.078349E+05 -1.572416E+05  1.701903E+05 -7.856268E+03 -3.945815E+04
       126   1  1.705023E+06  4.000436E+05  3.860556E+05  3.414366E+05  1.296538E+05 -1.732009E+04
       126   2  1.412817E+06  2.946630E+05  2.493634E+05  3.034115E+05  5.384365E+04 -5.440197E+04
       126   3  1.137874E+06  2.179162E+05  1.691127E+05  3.194504E+05 -2.190125E+04 -5.684319E+04
       126   4  2.160073E+05  3.255675E+04  3.584528E+04  3.202261E+05  2.495031E+04 -1.731334E+04
       126   5  2.132920E+05  8.674760E+03  1.777757E+04  2.931936E+05  1.582920E+04 -5.441286E+04
       126   6  2.162321E+05  1.900896E+03  9.934660E+03  3.202248E+05  6.735741E+03 -5.684363E+04
       126   7 -1.270947E+06 -3.350806E+05 -3.144759E+05  2.990663E+05 -7.950407E+04 -1.729949E+04
       126   8 -9.848487E+05 -2.773978E+05 -2.138697E+05  2.829955E+05 -2.211362E+04 -5.442253E+04
       126   9 -7.045760E+05 -2.141596E+05 -1.492696E+05  3.209977E+05  3.533159E+04 -5.684400E+04
       126  10  1.705005E+06  4.000388E+05  3.860235E+05  3.414384E+05  5.834312E-08  3.681877E-10
       126  11  1.412813E+06  2.946590E+05  2.493523E+05  3.034138E+05 -2.400442E-09  6.574606E-10
       126  12  1.137873E+06  2.179126E+05  1.691058E+05  3.194494E+05 -6.257908E-08 -2.731676E-10
       126  13  2.160066E+05  3.255626E+04  3.584355E+04  3.202265E+05  5.132915E-10  4.979898E-10
       126  14  2.132909E+05  8.671512E+03  1.777154E+04  2.931943E+05 -8.393138E-11  9.080065E-10
       126  15  2.162312E+05  1.897413E+03  9.928502E+03  3.202251E+05 -2.929530E-10 -1.560607E-10
       126  16 -1.270954E+06 -3.350826E+05 -3.144884E+05  2.990652E+05 -5.825368E-08  4.278065E-10
       126  17 -9.848500E+05 -2.774011E+05 -2.138762E+05  2.829945E+05  1.975894E-09  1.042295E-09
       126  18 -7.045782E+05 -2.141634E+05 -1.492780E+05  3.209993E+05  6.214365E-08 -3.252962E-11
       126  19  1.705023E+06  4.000436E+05  3.860556E+05  3.414366E+05 -1.296538E+05  1.732009E+04
       126  20  1.412817E+06  2.946630E+05  2.493634E+05  3.034115E+05 -5.384365E+04  5.440197E+04
       126  21  1.137874E+06  2.179162E+05  1.691127E+05  3.194504E+05  2.190125E+04  5.684319E+04
       126  22  2.160073E+05  3.255675E+04  3.584528E+04  3.202261E+05 -2.495031E+04  1.731334E+04
       126  23  2.132920E+05  8.674760E+03  1.777757E+04  2.931936E+05 -1.582920E+04  5.441286E+04
       126  24  2.162321E+05  1.900896E+03  9.934660E+03  3.202248E+05 -6.735741E+03  5.684363E+04
       126  25 -1.270947E+06 -3.350806E+05 -3.144759E+05  2.990663E+05  7.950407E+04  1.729949E+04
       126  26 -9.848487E+05 -2.773978E+05 -2.138697E+05  2.829955E+05  2.211362E+04  5.442253E+04
       126  27 -7.045760E+05 -2.141596E+05 -1.492696E+05  3.209977E+05 -3.533159E+04  5.684400E+04
       127   1  9.546752E+05  1.747971E+05  1.335442E+05  3.217517E+05 -2.153193E+04 -4.710228E+04
       127   2  6.706016E+05  1.064409E+05  7.927535E+04  2.929858E+05 -3.025132E+04 -3.141959E+04
       127   3  3.883692E+05  4.036386E+04  3.125798E+04  3.206236E+05 -3.897098E+04 -1.240945E+04
       127   4  2.151760E+05  1.823908E+03  7.666364E+03  3.207468E+05  5.416429E+03 -4.709848E+04
       127   5  2.148942E+05  4.252760E+02  4.666865E+03  2.925439E+05  3.088571E+03 -3.140910E+04
       127   6  2.152625E+05  2.002726E+02  3.482854E+03  3.207473E+05  7.565996E+02 -1.239094E+04
       127   7 -5.237842E+05 -1.711779E+05 -1.182267E+05  3.197429E+05  3.233375E+04 -4.709477E+04
       127   8 -2.406052E+05 -1.056003E+05 -6.994341E+04  2.921022E+05  3.640486E+04 -3.139864E+04
       127   9  4.218894E+04 -3.996397E+04 -2.428714E+04  3.208710E+05  4.047350E+04 -1.237242E+04
       127  10  9.546741E+05  1.747946E+05  1.335392E+05  3.217509E+05 -3.409742E-09 -9.261099E-10
       127  11  6.706003E+05  1.064396E+05  7.927178E+04  2.929850E+05 -2.132929E-09 -1.088152E-09
       127  12  3.883675E+05  4.036328E+04  3.125484E+04  3.206233E+05 -2.559033E-09 -9.254678E-10
       127  13  2.151754E+05  1.821517E+03  7.662139E+03  3.207470E+05  2.317943E-11 -8.195500E-10
       127  14  2.148940E+05  4.242139E+02  4.664993E+03  2.925439E+05  2.664516E-10 -1.051073E-09
       127  15  2.152625E+05  2.001076E+02  3.482564E+03  3.207473E+05 -9.680260E-10 -8.063470E-10
       127  16 -5.237859E+05 -1.711805E+05 -1.182328E+05  3.197441E+05  3.004601E-09 -8.620501E-10
       127  17 -2.406069E+05 -1.056018E+05 -6.994776E+04  2.921031E+05  2.033385E-09 -1.086150E-09
       127  18  4.218714E+04 -3.996457E+04 -2.429051E+04  3.208714E+05  2.632471E-09 -7.661795E-10
       127  19  9.546752E+05  1.747971E+05  1.335442E+05  3.217517E+05  2.153193E+04  4.710228E+04
       127  20  6.706016E+05  1.064409E+05  7.927535E+04  2.929858E+05  3.025132E+04  3.141959E+04
       127  21  3.883692E+05  4.036386E+04  3.125798E+04  3.206236E+05  3.897098E+04  1.240945E+04
       127  22  2.151760E+05  1.823908E+03  7.666364E+03  3.207468E+05 -5.416429E+03  4.709848E+04
       127  23  2.148942E+05  4.252760E+02  4.666865E+03  2.925439E+05 -3.088571E+03  3.140910E+04
       127  24  2.152625E+05  2.002726E+02  3.482854E+03  3.207473E+05 -7.565996E+02  1.239094E+04
       127  25 -5.237842E+05 -1.711779E+05 -1.182267E+05  3.197429E+05 -3.233375E+04  4.709477E+04
       127  26 -2.406052E+05 -1.056003E+05 -6.994341E+04  2.921022E+05 -3.640486E+04  3.139864E+04
       127  27  4.218894E+04 -3.996397E+04 -2.428714E+04  3.208710E+05 -4.047350E+04  1.237242E+04
       128   1  2.079578E+05 -1.631520E+03  1.390538E+03  3.208239E+05 -3.954073E+04 -1.119563E+02
       128   2 -7.485478E+04 -6.732140E+04 -4.473939E+04  2.921853E+05 -3.585629E+04  1.911610E+04
       128   3 -3.580575E+05 -1.331145E+05 -9.328981E+04  3.199811E+05 -3.217096E+04  3.544251E+04
       128   4  2.152353E+05  2.105818E+02  3.323082E+03  3.207531E+05  1.621754E+02 -9.281404E+01
       128   5  2.149568E+05  3.440089E+02  3.792566E+03  2.925368E+05 -1.732369E+03  1.912935E+04
       128   6  2.151803E+05  1.346475E+03  5.713301E+03  3.207528E+05 -3.624533E+03  3.545065E+04
       128   7  2.225162E+05  2.053526E+03  5.261545E+03  3.206823E+05  3.986555E+04 -7.368103E+01
       128   8  5.048537E+05  6.800565E+04  5.232629E+04  2.928883E+05  3.240695E+04  1.914264E+04
       128   9  7.887425E+05  1.357902E+05  1.047082E+05  3.215250E+05  2.494745E+04  3.545885E+04
       128  10  2.079561E+05 -1.631940E+03  1.387601E+03  3.208239E+05 -1.402141E-09 -8.107147E-10
       128  11 -7.485626E+04 -6.732213E+04 -4.474250E+04  2.921859E+05 -8.948380E-10 -5.380672E-10
       128  12 -3.580590E+05 -1.331161E+05 -9.329412E+04  3.199821E+05 -7.969329E-10 -3.491546E-10
       128  13  2.152353E+05  2.105818E+02  3.323082E+03  3.207531E+05 -2.888121E-10 -7.195315E-10
       128  14  2.149567E+05  3.436151E+02  3.791872E+03  2.925368E+05 -1.380714E-10 -5.411902E-10
       128  15  2.151800E+05  1.345122E+03  5.710915E+03  3.207529E+05  1.882293E-10 -4.469338E-10
       128  16  2.225145E+05  2.053099E+03  5.258560E+03  3.206823E+05  1.817236E-09 -5.535285E-10
       128  17  5.048525E+05  6.800497E+04  5.232363E+04  2.928878E+05  9.829960E-10 -7.001939E-10
       128  18  7.887415E+05  1.357887E+05  1.047047E+05  3.215243E+05  1.066564E-09 -5.049651E-10
       128  19  2.079578E+05 -1.631520E+03  1.390538E+03  3.208239E+05  3.954073E+04  1.119563E+02
       128  20 -7.485478E+04 -6.732140E+04 -4.473939E+04  2.921853E+05  3.585629E+04 -1.911610E+04
       128  21 -3.580575E+05 -1.331145E+05 -9.328981E+04  3.199811E+05  3.217096E+04 -3.544251E+04
       128  22  2.152353E+05  2.105818E+02  3.323082E+03  3.207531E+05 -1.621754E+02  9.281404E+01
       128  23  2.149568E+05  3.440089E+02  3.792566E+03  2.925368E+05  1.732369E+03 -1.912935E+04
       128  24  2.151803E+05  1.346475E+03  5.713301E+03  3.207528E+05  3.624533E+03 -3.545065E+04
       128  25  2.225162E+05  2.053526E+03  5.261545E+03  3.206823E+05 -3.986555E+04  7.368103E+01
       128  26  5.048537E+05  6.800565E+04  5.232629E+04  2.928883E+05 -3.240695E+04 -1.914264E+04
       128  27  7.887425E+05  1.357902E+05  1.047082E+05  3.215250E+05 -2.494745E+04 -3.545885E+04
       129   1 -5.389795E+05 -1.759862E+05 -1.245957E+05  3.207651E+05 -3.465107E+04  4.551893E+04
       129   2 -8.190286E+05 -2.407096E+05 -1.884881E+05  2.857924E+05  1.837510E+04  4.568221E+04
       129   3 -1.105303E+06 -3.036067E+05 -2.864437E+05  3.051644E+05  7.135626E+04  1.480787E+04
       129   4  2.159214E+05  1.396220E+03  7.253796E+03  3.202863E+05 -4.606355E+03  4.552385E+04
       129   5  2.138050E+05  6.178318E+03  1.271628E+04  2.931176E+05 -1.110647E+04  4.567210E+04
       129   6  2.157278E+05  2.312557E+04  2.547113E+04  3.202856E+05 -1.762666E+04  1.480780E+04
       129   7  9.713825E+05  1.787482E+05  1.390864E+05  3.198068E+05  2.547381E+04  4.552871E+04
       129   8  1.247665E+06  2.530029E+05  2.138733E+05  3.004549E+05 -4.063604E+04  4.566130E+04
       129   9  1.538382E+06  3.497380E+05  3.372953E+05  3.354387E+05 -1.067981E+05  1.480342E+04
       129  10 -5.389813E+05 -1.759887E+05 -1.246018E+05  3.207664E+05 -7.113835E-10 -2.467326E-10
       129  11 -8.190296E+05 -2.407119E+05 -1.884927E+05  2.857917E+05 -1.076994E-09 -1.835284E-10
       129  12 -1.105308E+06 -3.036083E+05 -2.864537E+05  3.051636E+05 -5.261847E-10 -8.609001E-11
       129  13  2.159208E+05  1.393988E+03  7.249861E+03  3.202865E+05  2.712467E-10 -3.033851E-10
       129  14  2.138043E+05  6.176044E+03  1.271213E+04  2.931180E+05  7.485508E-10 -1.228558E-10
       129  15  2.157274E+05  2.312525E+04  2.547013E+04  3.202858E+05 -6.415832E-10 -2.779901E-11
       129  16  9.713813E+05  1.787458E+05  1.390813E+05  3.198059E+05  1.537758E-09 -3.481325E-10
       129  17  1.247663E+06  2.530002E+05  2.138663E+05  3.004564E+05  1.057722E-09 -1.462592E-10
       129  18  1.538370E+06  3.497347E+05  3.372735E+05  3.354400E+05  7.340562E-10 -6.618101E-12
       129  19 -5.389795E+05 -1.759862E+05 -1.245957E+05  3.207651E+05  3.465107E+04 -4.551893E+04
       129  20 -8.190286E+05 -2.407096E+05 -1.884881E+05  2.857924E+05 -1.837510E+04 -4.568221E+04
       129  21 -1.105303E+06 -3.036067E+05 -2.864437E+05  3.051644E+05 -7.135626E+04 -1.480787E+04
       129  22  2.159214E+05  1.396220E+03  7.253796E+03  3.202863E+05  4.606355E+03 -4.552385E+04
       129  23  2.138050E+05  6.178318E+03  1.271628E+04  2.931176E+05  1.110647E+04 -4.567210E+04
       129  24  2.157278E+05  2.312557E+04  2.547113E+04  3.202856E+05  1.762666E+04 -1.480780E+04
       129  25  9.713825E+05  1.787482E+05  1.390864E+05  3.198068E+05 -2.547381E+04 -4.552871E+04
       129  26  1.247665E+06  2.530029E+05  2.138733E+05  3.004549E+05  4.063604E+04 -4.566130E+04
       129  27  1.538382E+06  3.497380E+05  3.372953E+05  3.354387E+05  1.067981E+05 -1.480342E+04
       130   1 -2.801441E+05 -1.113334E+06 -2.727960E+05  3.766168E+05 -1.013296E+04 -7.530475E+04
       130   2 -1.786661E+05 -7.859381E+05 -1.566758E+05  3.385086E+05 -2.837972E+04 -2.144165E+04
       130   3 -9.629512E+04 -4.703170E+05 -8.046040E+04  3.628510E+05 -2.160308E+04  3.243462E+04
       130   4 -2.052811E+04 -6.542339E+04 -2.318125E+04  3.638419E+05 -1.004998E+04 -1.619263E+04
       130   5 -5.093381E+03 -6.358310E+04 -1.143341E+04  3.326046E+05 -2.836074E+04 -1.029457E+04
       130   6 -4.120449E+02 -6.527025E+04 -6.235512E+03  3.638167E+05 -2.166029E+04 -4.412725E+03
       130   7  2.390111E+05  9.835039E+05  2.263698E+05  3.510447E+05 -9.969532E+03  4.301895E+04
       130   8  1.684473E+05  6.592702E+05  1.337828E+05  3.266932E+05 -2.834198E+04  8.652535E+02
       130   9  9.546245E+04  3.399388E+05  6.798780E+04  3.647829E+05 -2.171759E+04 -4.128348E+04
       130  10 -2.801457E+05 -1.113340E+06 -2.728069E+05  3.766162E+05 -3.888813E-11 -3.638863E-10
       130  11 -1.786670E+05 -7.859388E+05 -1.566782E+05  3.385081E+05  5.812140E-10  1.283934E-10
       130  12 -9.629590E+04 -4.703183E+05 -8.046326E+04  3.628516E+05  2.953701E-10  7.814151E-10
       130  13 -2.052828E+04 -6.542369E+04 -2.318194E+04  3.638418E+05 -6.263635E-10  1.025677E-10
       130  14 -5.094273E+03 -6.358343E+04 -1.143512E+04  3.326043E+05  5.885335E-10  1.068559E-10
       130  15 -4.125538E+02 -6.527040E+04 -6.236430E+03  3.638166E+05 -3.636508E-11  1.877417E-10
       130  16  2.390105E+05  9.835019E+05  2.263661E+05  3.510451E+05 -3.989050E-11  3.037146E-10
       130  17  1.684464E+05  6.592700E+05  1.337813E+05  3.266933E+05 -8.578905E-10 -4.040987E-10
       130  18  9.546149E+04  3.399369E+05  6.798371E+04  3.647822E+05  5.646884E-10 -8.698824E-10
       130  19 -2.801441E+05 -1.113334E+06 -2.727960E+05  3.766168E+05  1.013296E+04  7.530475E+04
       130  20 -1.786661E+05 -7.859381E+05 -1.566758E+05  3.385086E+05  2.837972E+04  2.144165E+04
       130  21 -9.629512E+04 -4.703170E+05 -8.046040E+04  3.628510E+05  2.160308E+04 -3.243462E+04
       130  22 -2.052811E+04 -6.542339E+04 -2.318125E+04  3.638419E+05  1.004998E+04  1.619263E+04
       130  23 -5.093381E+03 -6.358310E+04 -1.143341E+04  3.326046E+05  2.836074E+04  1.029457E+04
       130  24 -4.120449E+02 -6.527025E+04 -6.235512E+03  3.638167E+05  2.166029E+04  4.412725E+03
       130  25  2.390111E+05  9.835039E+05  2.263698E+05  3.510447E+05  9.969532E+03 -4.301895E+04
       130  26  1.684473E+05  6.592702E+05  1.337828E+05  3.266932E+05  2.834198E+04 -8.652535E+02
       130  27  9.546245E+04  3.399388E+05  6.798780E+04  3.647829E+05  2.171759E+04  4.128348E+04
       131   1 -4.766360E+04 -2.636395E+05 -4.254674E+04  3.645368E+05 -9.509995E+03  3.213794E+04
       131   2  2.894627E+04  5.794695E+04  1.695457E+04  3.324986E+05  8.836163E+03  3.234454E+04
       131   3  1.051268E+05  3.793649E+05  7.616718E+04  3.644271E+05  2.661141E+04  3.255326E+04
       131   4 -2.777593E+02 -6.456520E+04 -4.722732E+03  3.641561E+05 -9.567534E+03 -3.628921E+03
       131   5  5.678021E+02 -6.434876E+04 -2.639474E+03  3.321715E+05  8.781888E+03 -2.334249E+03
       131   6  7.995715E+02 -6.459140E+04 -1.601935E+03  3.641545E+05  2.656019E+04 -1.037551E+03
       131   7  4.710644E+04  1.345501E+05  3.310431E+04  3.637753E+05 -9.625017E+03 -3.940698E+04
       131   8 -2.781077E+04 -1.866270E+05 -2.222940E+04  3.318445E+05  8.727642E+03 -3.700645E+04
       131   9 -1.035378E+05 -5.083524E+05 -7.937389E+04  3.638820E+05  2.650897E+04 -3.460507E+04
       131  10 -4.766397E+04 -2.636406E+05 -4.254885E+04  3.645370E+05  4.482850E-10 -1.116328E-09
       131  11  2.894591E+04  5.794581E+04  1.695246E+04  3.324983E+05 -4.025144E-10 -6.882805E-11
       131  12  1.051258E+05  3.793636E+05  7.616386E+04  3.644264E+05 -4.743636E-10  4.240771E-10
       131  13 -2.778611E+02 -6.456523E+04 -4.722928E+03  3.641561E+05  1.379915E-10  1.883147E-10
       131  14  5.677178E+02 -6.434879E+04 -2.639630E+03  3.321715E+05  1.542852E-10  1.937167E-10
       131  15  7.988137E+02 -6.459159E+04 -1.603262E+03  3.641546E+05  2.934681E-10  1.217717E-10
       131  16  4.710593E+04  1.345484E+05  3.310122E+04  3.637750E+05  9.907265E-10  1.082743E-09
       131  17 -2.781122E+04 -1.866285E+05 -2.223212E+04  3.318448E+05  1.385242E-09  1.835032E-10
       131  18 -1.035389E+05 -5.083539E+05 -7.937746E+04  3.638828E+05  2.343761E-10 -5.470243E-10
       131  19 -4.766360E+04 -2.636395E+05 -4.254674E+04  3.645368E+05  9.509995E+03 -3.213794E+04
       131  20  2.894627E+04  5.794695E+04  1.695457E+04  3.324986E+05 -8.836163E+03 -3.234454E+04
       131  21  1.051268E+05  3.793649E+05  7.616718E+04  3.644271E+05 -2.661141E+04 -3.255326E+04
       131  22 -2.777593E+02 -6.456520E+04 -4.722732E+03  3.641561E+05  9.567534E+03  3.628921E+03
       131  23  5.678021E+02 -6.434876E+04 -2.639474E+03  3.321715E+05 -8.781888E+03  2.334249E+03
       131  24  7.995715E+02 -6.459140E+04 -1.601935E+03  3.641545E+05 -2.656019E+04  1.037551E+03
       131  25  4.710644E+04  1.345501E+05  3.310431E+04  3.637753E+05  9.625017E+03  3.940698E+04
       131  26 -2.781077E+04 -1.866270E+05 -2.222940E+04  3.318445E+05 -8.727642E+03  3.700645E+04
       131  27 -1.035378E+05 -5.083524E+05 -7.937389E+04  3.638820E+05 -2.650897E+04  3.460507E+04
       132   1  1.537168E+05  5.858030E+05  1.134781E+05  3.643430E+05  3.826379E+04  3.415467E+04
       132   2  2.316842E+05  9.026234E+05  1.891347E+05  3.332005E+05  4.115744E+04 -2.379610E+04
       132   3  3.194356E+05  1.229495E+06  3.049201E+05  3.640869E+05  1.361567E+04 -8.176182E+04
       132   4  7.272719E+02 -6.457258E+04 -1.301317E+03  3.637251E+05  3.821404E+04 -8.194362E+02
       132   5  3.041068E+02 -6.458217E+04 -1.057438E+03  3.327084E+05  4.119427E+04 -2.612823E+02
       132   6 -4.734428E+02 -6.477624E+04 -1.285444E+03  3.637262E+05  1.371720E+04  3.121403E+02
       132   7 -1.522848E+05 -7.145322E+05 -1.160917E+05  3.631075E+05  3.816432E+04 -3.575801E+04
       132   8 -2.311322E+05 -1.030891E+06 -1.912929E+05  3.322166E+05  4.123109E+04  2.323769E+04
       132   9 -3.204990E+05 -1.357495E+06 -3.075819E+05  3.633654E+05  1.381878E+04  8.221617E+04
       132  10  1.537149E+05  5.858013E+05  1.134731E+05  3.643420E+05 -4.216170E-11 -5.181664E-10
       132  11  2.316822E+05  9.026223E+05  1.891304E+05  3.332013E+05 -7.206264E-10  3.378994E-11
       132  12  3.194336E+05  1.229488E+06  3.049073E+05  3.640877E+05  1.115220E-10  4.882943E-10
       132  13  7.257036E+02 -6.457297E+04 -1.304063E+03  3.637251E+05 -6.105691E-10  6.246745E-11
       132  14  3.022846E+02 -6.458263E+04 -1.060627E+03  3.327084E+05 -9.150666E-11  5.921449E-11
       132  15 -4.736449E+02 -6.477629E+04 -1.285798E+03  3.637262E+05 -3.766247E-10  7.727645E-11
       132  16 -1.522867E+05 -7.145340E+05 -1.160968E+05  3.631086E+05  4.538432E-10  2.912214E-10
       132  17 -2.311342E+05 -1.030892E+06 -1.912971E+05  3.322158E+05 -1.107787E-10  1.447878E-11
       132  18 -3.205010E+05 -1.357503E+06 -3.075950E+05  3.633645E+05 -4.104956E-10 -4.595873E-10
       132  19  1.537168E+05  5.858030E+05  1.134781E+05  3.643430E+05 -3.826379E+04 -3.415467E+04
       132  20  2.316842E+05  9.026234E+05  1.891347E+05  3.332005E+05 -4.115744E+04  2.379610E+04
       132  21  3.194356E+05  1.229495E+06  3.049201E+05  3.640869E+05 -1.361567E+04  8.176182E+04
       132  22  7.272719E+02 -6.457258E+04 -1.301317E+03  3.637251E+05 -3.821404E+04  8.194362E+02
       132  23  3.041068E+02 -6.458217E+04 -1.057438E+03  3.327084E+05 -4.119427E+04  2.612823E+02
       132  24 -4.734428E+02 -6.477624E+04 -1.285444E+03  3.637262E+05 -1.371720E+04 -3.121403E+02
       132  25 -1.522848E+05 -7.145322E+05 -1.160917E+05  3.631075E+05 -3.816432E+04  3.575801E+04
       132  26 -2.311322E+05 -1.030891E+06 -1.912929E+05  3.322166E+05 -4.123109E+04 -2.323769E+04
       132  27 -3.204990E+05 -1.357495E+06 -3.075819E+05  3.633654E+05 -1.381878E+04 -8.221617E+04
       133   1  1.547281E+06  3.479106E+05  3.369816E+05  3.006512E+05  1.162590E+05 -1.454857E+04
       133   2  1.294420E+06  2.506835E+05  2.153222E+05  2.647620E+05  4.943485E+04 -4.557654E+04
       133   3  1.057710E+06  1.825892E+05  1.443909E+05  2.755877E+05 -1.734063E+04 -4.727691E+04
       133   4  2.882421E+05  3.714045E+04  4.073272E+04  2.764597E+05  2.833807E+04 -1.454827E+04
       133   5  2.851608E+05  1.000010E+04  2.021886E+04  2.531029E+05  1.796206E+04 -4.558558E+04
       133   6  2.884080E+05  2.235274E+03  1.130947E+04  2.764594E+05  7.605218E+03 -4.727607E+04
       133   7 -9.693227E+05 -2.737364E+05 -2.555959E+05  2.523171E+05 -5.940599E+04 -1.454116E+04
       133   8 -7.231185E+05 -2.307428E+05 -1.749282E+05  2.414630E+05 -1.346082E+04 -4.559346E+04
       133   9 -4.803123E+05 -1.781502E+05 -1.217901E+05  2.773298E+05  3.252114E+04 -4.727515E+04
       133  10  1.547266E+06  3.479068E+05  3.369559E+05  3.006525E+05  3.017952E-10 -3.284559E-11
       133  11  1.294417E+06  2.506806E+05  2.153137E+05  2.647638E+05 -5.230627E-10  6.138667E-11
       133  12  1.057709E+06  1.825867E+05  1.443861E+05  2.755870E+05 -1.027591E-10  1.535619E-10
       133  13  2.882412E+05  3.714001E+04  4.073081E+04  2.764600E+05 -1.466622E-11  8.352551E-11
       133  14  2.851599E+05  9.997781E+03  2.021435E+04  2.531035E+05 -3.186110E-10  2.749581E-11
       133  15  2.884074E+05  2.232858E+03  1.130516E+04  2.764597E+05  3.811435E-10  8.907577E-11
       133  16 -9.693266E+05 -2.737376E+05 -2.556029E+05  2.523164E+05 -2.212668E-10 -1.616258E-10
       133  17 -7.231192E+05 -2.307451E+05 -1.749325E+05  2.414625E+05  1.441508E-10 -3.455107E-11
       133  18 -4.803140E+05 -1.781529E+05 -1.217962E+05  2.773311E+05  8.219882E-11  2.457124E-11
       133  19  1.547281E+06  3.479106E+05  3.369816E+05  3.006512E+05 -1.162590E+05  1.454857E+04
       133  20  1.294420E+06  2.506835E+05  2.153222E+05  2.647620E+05 -4.943485E+04  4.557654E+04
       133  21  1.057710E+06  1.825892E+05  1.443909E+05  2.755877E+05  1.734063E+04  4.727691E+04
       133  22  2.882421E+05  3.714045E+04  4.073272E+04  2.764597E+05 -2.833807E+04  1.454827E+04
       133  23  2.851608E+05  1.000010E+04  2.021886E+04  2.531029E+05 -1.796206E+04  4.558558E+04
       133  24  2.884080E+05  2.235274E+03  1.130947E+04  2.764594E+05 -7.605218E+03  4.727607E+04
       133  25 -9.693227E+05 -2.737364E+05 -2.555959E+05  2.523171E+05  5.940599E+04  1.454116E+04
       133  26 -7.231185E+05 -2.307428E+05 -1.749282E+05  2.414630E+05  1.346082E+04  4.559346E+04
       133  27 -4.803123E+05 -1.781502E+05 -1.217901E+05  2.773298E+05 -3.252114E+04  4.727515E+04
       134   1  8.993111E+05  1.453314E+05  1.131538E+05  2.780330E+05 -1.741429E+04 -3.881618E+04
       134   2  6.540319E+05  8.593173E+04  6.565427E+04  2.530422E+05 -2.548460E+04 -2.517820E+04
       134   3  4.104611E+05  2.880158E+04  2.397636E+04  2.767491E+05 -3.355495E+04 -8.735604E+03
       134   4  2.872018E+05  2.113075E+03  8.746826E+03  2.769020E+05  6.103942E+03 -3.881232E+04
       134   5  2.868723E+05  4.843610E+02  5.375653E+03  2.525526E+05  3.421696E+03 -2.516947E+04
       134   6  2.872622E+05  1.947272E+02  4.088883E+03  2.769026E+05  7.365047E+02 -8.721107E+03
       134   7 -3.245383E+05 -1.411248E+05 -9.567042E+04  2.757720E+05  2.959974E+04 -3.880854E+04
       134   8 -8.015229E+04 -8.496947E+04 -5.490373E+04  2.520632E+05  3.231150E+04 -2.516077E+04
       134   9  1.640808E+05 -2.841226E+04 -1.579459E+04  2.770560E+05  3.502139E+04 -8.706590E+03
       134  10  8.993104E+05  1.453297E+05  1.131504E+05  2.780324E+05  3.948356E-10  7.210031E-11
       134  11  6.540311E+05  8.593087E+04  6.565186E+04  2.530417E+05 -3.923172E-10 -1.321880E-10
       134  12  4.104598E+05  2.880119E+04  2.397410E+04  2.767488E+05 -2.716267E-10 -2.374935E-10
       134  13  2.872013E+05  2.111447E+03  8.743924E+03  2.769022E+05  5.079867E-10  2.055812E-11
       134  14  2.868721E+05  4.836775E+02  5.374440E+03  2.525527E+05  8.687811E-11  6.538405E-12
       134  15  2.872621E+05  1.946454E+02  4.088739E+03  2.769026E+05  6.825746E-11 -1.496022E-10
       134  16 -3.245397E+05 -1.411267E+05 -9.567490E+04  2.757730E+05 -2.355938E-10  3.916430E-11
       134  17 -8.015358E+04 -8.497043E+04 -5.490689E+04  2.520639E+05  2.554371E-10 -1.281534E-10
       134  18  1.640795E+05 -2.841267E+04 -1.579704E+04  2.770563E+05 -4.272872E-11 -3.228000E-11
       134  19  8.993111E+05  1.453314E+05  1.131538E+05  2.780330E+05  1.741429E+04  3.881618E+04
       134  20  6.540319E+05  8.593173E+04  6.565427E+04  2.530422E+05  2.548460E+04  2.517820E+04
       134  21  4.104611E+05  2.880158E+04  2.397636E+04  2.767491E+05  3.355495E+04  8.735604E+03
       134  22  2.872018E+05  2.113075E+03  8.746826E+03  2.769020E+05 -6.103942E+03  3.881232E+04
       134  23  2.868723E+05  4.843610E+02  5.375653E+03  2.525526E+05 -3.421696E+03  2.516947E+04
       134  24  2.872622E+05  1.947272E+02  4.088883E+03  2.769026E+05 -7.365047E+02  8.721107E+03
       134  25 -3.245383E+05 -1.411248E+05 -9.567042E+04  2.757720E+05 -2.959974E+04  3.880854E+04
       134  26 -8.015229E+04 -8.496947E+04 -5.490373E+04  2.520632E+05 -3.231150E+04  2.516077E+04
       134  27  1.640808E+05 -2.841226E+04 -1.579459E+04  2.770560E+05 -3.502139E+04  8.706590E+03
       135   1  2.547298E+05 -7.450625E+03 -1.800638E+03  2.770033E+05 -3.423994E+04  1.879649E+03
       135   2  1.051004E+04 -6.407708E+04 -4.138266E+04  2.521331E+05 -3.160918E+04  1.844448E+04
       135   3 -2.339081E+05 -1.204820E+05 -8.261826E+04  2.759765E+05 -2.897732E+04  3.243703E+04
       135   4  2.872383E+05  2.002949E+02  3.954015E+03  2.769053E+05  3.681150E+01  1.894456E+03
       135   5  2.869157E+05  3.995586E+02  4.635734E+03  2.525492E+05 -2.277928E+03  1.845450E+04
       135   6  2.871928E+05  1.680581E+03  7.094828E+03  2.769049E+05 -4.590589E+03  3.244292E+04
       135   7  3.197503E+05  7.851787E+03  9.713042E+03  2.768074E+05  3.431530E+04  1.909251E+03
       135   8  5.633985E+05  6.487268E+04  5.065503E+04  2.529655E+05  2.706595E+04  1.846456E+04
       135   9  8.085617E+05  1.238290E+05  9.680091E+04  2.778340E+05  1.981598E+04  3.244888E+04
       135  10  2.547286E+05 -7.450943E+03 -1.802846E+03  2.770033E+05  2.020592E-10 -7.457477E-11
       135  11  1.050887E+04 -6.407771E+04 -4.138518E+04  2.521336E+05  3.292502E-10 -1.307946E-10
       135  12 -2.339093E+05 -1.204834E+05 -8.262182E+04  2.759773E+05  7.991057E-10 -1.929406E-10
       135  13  2.872383E+05  2.002911E+02  3.954008E+03  2.769053E+05 -4.222876E-12 -6.468063E-11
       135  14  2.869156E+05  3.991914E+02  4.635084E+03  2.525493E+05 -9.133539E-11 -2.295638E-10
       135  15  2.871925E+05  1.679445E+03  7.092810E+03  2.769050E+05  8.980823E-10 -4.256639E-10
       135  16  3.197490E+05  7.851467E+03  9.710823E+03  2.768074E+05  6.862133E-11 -1.155323E-11
       135  17  5.633977E+05  6.487212E+04  5.065302E+04  2.529651E+05  2.283951E-10 -8.756909E-11
       135  18  8.085610E+05  1.238277E+05  9.679820E+04  2.778335E+05 -2.120661E-10 -4.277297E-10
       135  19  2.547298E+05 -7.450625E+03 -1.800638E+03  2.770033E+05  3.423994E+04 -1.879649E+03
       135  20  1.051004E+04 -6.407708E+04 -4.138266E+04  2.521331E+05  3.160918E+04 -1.844448E+04
       135  21 -2.339081E+05 -1.204820E+05 -8.261826E+04  2.759765E+05  2.897732E+04 -3.243703E+04
       135  22  2.872383E+05  2.002949E+02  3.954015E+03  2.769053E+05 -3.681150E+01 -1.894456E+03
       135  23  2.869157E+05  3.995586E+02  4.635734E+03  2.525492E+05  2.277928E+03 -1.845450E+04
       135  24  2.871928E+05  1.680581E+03  7.094828E+03  2.769049E+05  4.590589E+03 -3.244292E+04
       135  25  3.197503E+05  7.851787E+03  9.713042E+03  2.768074E+05 -3.431530E+04 -1.909251E+03
       135  26  5.633985E+05  6.487268E+04  5.065503E+04  2.529655E+05 -2.706595E+04 -1.846456E+04
       135  27  8.085617E+05  1.238290E+05  9.680091E+04  2.778340E+05 -1.981598E+04 -3.244888E+04
       136   1 -3.898404E+05 -1.574602E+05 -1.090972E+05  2.771327E+05 -3.151530E+04  4.108267E+04
       136   2 -6.322889E+05 -2.114672E+05 -1.625616E+05  2.438813E+05  1.282728E+04  4.081388E+04
       136   3 -8.788117E+05 -2.593791E+05 -2.433640E+05  2.575066E+05  5.713591E+04  1.317731E+04
       136   4  2.881314E+05  1.773596E+03  9.042580E+03  2.764947E+05 -5.806155E+03  4.108608E+04
       136   5  2.855659E+05  7.847187E+03  1.593682E+04  2.530595E+05 -1.396641E+04  4.080588E+04
       136   6  2.879808E+05  2.912807E+04  3.195975E+04  2.764938E+05 -2.214201E+04  1.317789E+04
       136   7  9.665551E+05  1.609828E+05  1.271686E+05  2.758559E+05  1.993023E+04  4.108944E+04
       136   8  1.204231E+06  2.271118E+05  1.943981E+05  2.622513E+05 -4.079886E+04  4.079709E+04
       136   9  1.456040E+06  3.175425E+05  3.072133E+05  2.955166E+05 -1.015682E+05  1.317365E+04
       136  10 -3.898420E+05 -1.574623E+05 -1.091022E+05  2.771338E+05  2.805560E-10 -2.412601E-10
       136  11 -6.322895E+05 -2.114690E+05 -1.625650E+05  2.438809E+05  8.685559E-11 -6.035517E-11
       136  12 -8.788152E+05 -2.593801E+05 -2.433704E+05  2.575060E+05 -1.684302E-10 -6.102612E-11
       136  13  2.881309E+05  1.771774E+03  9.039344E+03  2.764949E+05  4.639090E-11 -3.085705E-10
       136  14  2.855652E+05  7.845346E+03  1.593332E+04  2.530599E+05 -9.353863E-11 -5.571149E-11
       136  15  2.879802E+05  2.912775E+04  3.195851E+04  2.764940E+05  3.627806E-10 -4.638606E-11
       136  16  9.665542E+05  1.609809E+05  1.271647E+05  2.758553E+05  4.460632E-10 -4.757563E-10
       136  17  1.204229E+06  2.271096E+05  1.943918E+05  2.622527E+05 -1.277592E-10 -1.061579E-10
       136  18  1.456029E+06  3.175396E+05  3.071936E+05  2.955177E+05 -3.890018E-10 -4.922057E-11
       136  19 -3.898404E+05 -1.574602E+05 -1.090972E+05  2.771327E+05  3.151530E+04 -4.108267E+04
       136  20 -6.322889E+05 -2.114672E+05 -1.625616E+05  2.438813E+05 -1.282728E+04 -4.081388E+04
       136  21 -8.788117E+05 -2.593791E+05 -2.433640E+05  2.575066E+05 -5.713591E+04 -1.317731E+04
       136  22  2.881314E+05  1.773596E+03  9.042580E+03  2.764947E+05  5.806155E+03 -4.108608E+04
       136  23  2.855659E+05  7.847187E+03  1.593682E+04  2.530595E+05  1.396641E+04 -4.080588E+04
       136  24  2.879808E+05  2.912807E+04  3.195975E+04  2.764938E+05  2.214201E+04 -1.317789E+04
       136  25  9.665551E+05  1.609828E+05  1.271686E+05  2.758559E+05 -1.993023E+04 -4.108944E+04
       136  26  1.204231E+06  2.271118E+05  1.943981E+05  2.622513E+05  4.079886E+04 -4.079709E+04
       136  27  1.456040E+06  3.175425E+05  3.072133E+05  2.955166E+05  1.015682E+05 -1.317365E+04
       137   1 -2.982913E+05 -1.144014E+06 -2.908351E+05  3.894706E+05 -1.072936E+04 -8.336218E+04
       137   2 -1.900998E+05 -8.081015E+05 -1.678375E+05  3.485722E+05 -3.029458E+04 -2.562362E+04
       137   3 -1.045086E+05 -4.853164E+05 -8.814235E+04  3.716067E+05 -2.370820E+04  3.213399E+04
       137   4 -2.661675E+04 -4.729388E+04 -2.975163E+04  3.727368E+05 -1.064825E+04 -2.064921E+04
       137   5 -6.805839E+03 -4.495778E+04 -1.478176E+04  3.407557E+05 -3.027450E+04 -1.303360E+04
       137   6 -8.626764E+02 -4.712828E+04 -8.255806E+03  3.727074E+05 -2.376226E+04 -5.431321E+03
       137   7  2.449742E+05  1.050541E+06  2.312626E+05  3.559725E+05 -1.057061E+04  4.217419E+04
       137   8  1.764526E+05  7.187426E+05  1.382450E+05  3.329291E+05 -3.025474E+04 -4.283999E+02
       137   9  1.027732E+05  3.912496E+05  7.162832E+04  3.738087E+05 -2.381643E+04 -4.302244E+04
       137  10 -2.982933E+05 -1.144022E+06 -2.908484E+05  3.894699E+05 -2.642195E-10 -9.322764E-10
       137  11 -1.901010E+05 -8.081025E+05 -1.678404E+05  3.485716E+05  9.640973E-11  4.975835E-10
       137  12 -1.045095E+05 -4.853176E+05 -8.814535E+04  3.716073E+05  4.986523E-10  7.472943E-10
       137  13 -2.661698E+04 -4.729437E+04 -2.975264E+04  3.727366E+05  1.268917E-10 -9.792446E-12
       137  14 -6.806869E+03 -4.495821E+04 -1.478380E+04  3.407554E+05  4.086456E-10 -1.733110E-11
       137  15 -8.632906E+02 -4.712846E+04 -8.256922E+03  3.727073E+05 -3.205589E-10  2.002572E-10
       137  16  2.449736E+05  1.050539E+06  2.312590E+05  3.559728E+05  1.437517E-10  8.465084E-10
       137  17  1.764516E+05  7.187424E+05  1.382433E+05  3.329291E+05 -1.118871E-09 -6.867051E-10
       137  18  1.027721E+05  3.912474E+05  7.162379E+04  3.738079E+05 -7.376585E-10 -1.141683E-09
       137  19 -2.982913E+05 -1.144014E+06 -2.908351E+05  3.894706E+05  1.072936E+04  8.336218E+04
       137  20 -1.900998E+05 -8.081015E+05 -1.678375E+05  3.485722E+05  3.029458E+04  2.562362E+04
       137  21 -1.045086E+05 -4.853164E+05 -8.814235E+04  3.716067E+05  2.370820E+04 -3.213399E+04
       137  22 -2.661675E+04 -4.729388E+04 -2.975163E+04  3.727368E+05  1.064825E+04  2.064921E+04
       137  23 -6.805839E+03 -4.495778E+04 -1.478176E+04  3.407557E+05  3.027450E+04  1.303360E+04
       137  24 -8.626764E+02 -4.712828E+04 -8.255806E+03  3.727074E+05  2.376226E+04  5.431321E+03
       137  25  2.449742E+05  1.050541E+06  2.312626E+05  3.559725E+05  1.057061E+04 -4.217419E+04
       137  26  1.764526E+05  7.187426E+05  1.382450E+05  3.329291E+05  3.025474E+04  4.283999E+02
       137  27  1.027732E+05  3.912496E+05  7.162832E+04  3.738087E+05  2.381643E+04  4.302244E+04
       138   1 -5.464399E+04 -2.734157E+05 -4.894852E+04  3.736361E+05 -1.136143E+04  3.206445E+04
       138   2  2.404873E+04  5.610720E+04  1.233181E+04  3.406023E+05  7.379037E+03  3.314309E+04
       138   3  1.018750E+05  3.852600E+05  7.265032E+04  3.730943E+05  2.564310E+04  3.422393E+04
       138   4 -6.945746E+02 -4.624154E+04 -6.408328E+03  3.730639E+05 -1.141614E+04 -4.365978E+03
       138   5  3.700321E+02 -4.593569E+04 -4.017625E+03  3.402998E+05  7.327016E+03 -2.380985E+03
       138   6  4.154838E+02 -4.626395E+04 -3.219512E+03  3.730624E+05  2.559356E+04 -3.943253E+02
       138   7  5.325257E+04  1.809854E+05  3.613462E+04  3.724914E+05 -1.147076E+04 -4.080940E+04
       138   8 -2.330851E+04 -1.479655E+05 -2.036259E+04  3.399973E+05  7.275024E+03 -3.789943E+04
       138   9 -1.010536E+05 -4.776032E+05 -7.909161E+04  3.730304E+05  2.554400E+04 -3.498924E+04
       138  10 -5.464441E+04 -2.734169E+05 -4.895069E+04  3.736364E+05  4.254123E-10 -1.483488E-09
       138  11  2.404838E+04  5.610600E+04  1.232964E+04  3.406021E+05 -1.384675E-10  4.390079E-10
       138  12  1.018740E+05  3.852586E+05  7.264689E+04  3.730936E+05 -3.657623E-10  6.739555E-10
       138  13 -6.947196E+02 -4.624160E+04 -6.408609E+03  3.730639E+05  2.655549E-10  2.532414E-11
       138  14  3.699730E+02 -4.593572E+04 -4.017736E+03  3.402998E+05 -3.935261E-10  8.511101E-12
       138  15  4.147803E+02 -4.626413E+04 -3.220743E+03  3.730624E+05  8.502916E-11  1.998982E-10
       138  16  5.325198E+04  1.809836E+05  3.613125E+04  3.724911E+05 -1.117363E-10  1.352875E-09
       138  17 -2.330896E+04 -1.479671E+05 -2.036539E+04  3.399975E+05  4.943033E-10 -3.236851E-10
       138  18 -1.010546E+05 -4.776047E+05 -7.909514E+04  3.730311E+05 -3.944810E-10 -1.056420E-09
       138  19 -5.464399E+04 -2.734157E+05 -4.894852E+04  3.736361E+05  1.136143E+04 -3.206445E+04
       138  20  2.404873E+04  5.610720E+04  1.233181E+04  3.406023E+05 -7.379037E+03 -3.314309E+04
       138  21  1.018750E+05  3.852600E+05  7.265032E+04  3.730943E+05 -2.564310E+04 -3.422393E+04
       138  22 -6.945746E+02 -4.624154E+04 -6.408328E+03  3.730639E+05  1.141614E+04  4.365978E+03
       138  23  3.700321E+02 -4.593569E+04 -4.017625E+03  3.402998E+05 -7.327016E+03  2.380985E+03
       138  24  4.154838E+02 -4.626395E+04 -3.219512E+03  3.730624E+05 -2.559356E+04  3.943253E+02
       138  25  5.325257E+04  1.809854E+05  3.613462E+04  3.724914E+05  1.147076E+04  4.080940E+04
       138  26 -2.330851E+04 -1.479655E+05 -2.036259E+04  3.399973E+05 -7.275024E+03  3.789943E+04
       138  27 -1.010536E+05 -4.776032E+05 -7.909161E+04  3.730304E+05 -2.554400E+04  3.498924E+04
       139   1  1.516068E+05  5.965378E+05  1.105088E+05  3.733176E+05  3.762125E+04  3.610108E+04
       139   2  2.302501E+05  9.216283E+05  1.863745E+05  3.395059E+05  4.094696E+04 -2.067961E+04
       139   3  3.158598E+05  1.255935E+06  3.009055E+05  3.692739E+05  1.361264E+04 -7.747859E+04
       139   4  3.153902E+02 -4.641007E+04 -3.214641E+03  3.726310E+05  3.757332E+04  9.292771E+01
       139   5 -1.270796E+03 -4.596415E+04 -4.179527E+03  3.408411E+05  4.098064E+04  2.252561E+03
       139   6 -6.105942E+03 -4.661893E+04 -7.380096E+03  3.726377E+05  1.370554E+04  4.424078E+03
       139   7 -1.509980E+05 -6.889514E+05 -1.169484E+05  3.719448E+05  3.752544E+04 -3.587905E+04
       139   8 -2.328480E+05 -1.012660E+06 -1.947773E+05  3.421736E+05  4.101445E+04  2.514979E+04
       139   9 -3.281897E+05 -1.347601E+06 -3.157583E+05  3.759935E+05  1.379947E+04  8.615608E+04
       139  10  1.516049E+05  5.965361E+05  1.105036E+05  3.733165E+05  1.999797E-10 -3.389091E-10
       139  11  2.302481E+05  9.216274E+05  1.863706E+05  3.395066E+05 -4.192854E-10  3.778789E-10
       139  12  3.158580E+05  1.255929E+06  3.008939E+05  3.692748E+05  7.449891E-11  2.406961E-10
       139  13  3.138742E+02 -4.641045E+04 -3.217294E+03  3.726310E+05 -3.992126E-10  4.934391E-11
       139  14 -1.272601E+03 -4.596461E+04 -4.182692E+03  3.408410E+05  7.782423E-11  8.568529E-12
       139  15 -6.106149E+03 -4.661900E+04 -7.380486E+03  3.726377E+05  6.703042E-11  1.420754E-10
       139  16 -1.509998E+05 -6.889532E+05 -1.169535E+05  3.719459E+05  3.892374E-10  2.162628E-10
       139  17 -2.328500E+05 -1.012661E+06 -1.947816E+05  3.421728E+05 -5.224798E-10 -2.417023E-10
       139  18 -3.281919E+05 -1.347609E+06 -3.157726E+05  3.759926E+05 -1.797388E-10 -3.237381E-10
       139  19  1.516068E+05  5.965378E+05  1.105088E+05  3.733176E+05 -3.762125E+04 -3.610108E+04
       139  20  2.302501E+05  9.216283E+05  1.863745E+05  3.395059E+05 -4.094696E+04  2.067961E+04
       139  21  3.158598E+05  1.255935E+06  3.009055E+05  3.692739E+05 -1.361264E+04  7.747859E+04
       139  22  3.153902E+02 -4.641007E+04 -3.214641E+03  3.726310E+05 -3.757332E+04 -9.292771E+01
       139  23 -1.270796E+03 -4.596415E+04 -4.179527E+03  3.408411E+05 -4.098064E+04 -2.252561E+03
       139  24 -6.105942E+03 -4.661893E+04 -7.380096E+03  3.726377E+05 -1.370554E+04 -4.424078E+03
       139  25 -1.509980E+05 -6.889514E+05 -1.169484E+05  3.719448E+05 -3.752544E+04  3.587905E+04
       139  26 -2.328480E+05 -1.012660E+06 -1.947773E+05  3.421736E+05 -4.101445E+04 -2.514979E+04
       139  27 -3.281897E+05 -1.347601E+06 -3.157583E+05  3.759935E+05 -1.379947E+04 -8.615608E+04
       140   1  1.428087E+06  3.085111E+05  2.993098E+05  2.671839E+05  1.046097E+05 -1.270710E+04
       140   2  1.205209E+06  2.202032E+05  1.904343E+05  2.342854E+05  4.499733E+04 -3.977619E+04
       140   3  9.971030E+05  1.594520E+05  1.272073E+05  2.425325E+05 -1.457891E+04 -4.116980E+04
       140   4  3.263353E+05  3.654366E+04  4.002873E+04  2.433933E+05  2.783373E+04 -1.270778E+04
       140   5  3.233077E+05  9.871545E+03  1.988228E+04  2.228211E+05  1.762932E+04 -3.978332E+04
       140   6  3.264647E+05  2.214879E+03  1.113680E+04  2.433931E+05  7.439260E+03 -4.116898E+04
       140   7 -7.742874E+05 -2.355051E+05 -2.193133E+05  2.196449E+05 -4.880711E+04 -1.270261E+04
       140   8 -5.578456E+05 -2.005055E+05 -1.507032E+05  2.113733E+05 -9.700760E+03 -3.978946E+04
       140   9 -3.437320E+05 -1.550462E+05 -1.049474E+05  2.442527E+05  2.943440E+04 -4.116810E+04
       140  10  1.428075E+06  3.085080E+05  2.992889E+05  2.671849E+05  3.300157E-10  3.108551E-11
       140  11  1.205206E+06  2.202009E+05  1.904275E+05  2.342868E+05 -4.283950E-10 -1.886611E-11
       140  12  9.971023E+05  1.594501E+05  1.272037E+05  2.425320E+05  4.178230E-10 -1.642073E-10
       140  13  3.263344E+05  3.654328E+04  4.002697E+04  2.433936E+05  2.587520E-10 -3.234881E-11
       140  14  3.233069E+05  9.869761E+03  1.987872E+04  2.228217E+05  4.631921E-11 -1.708551E-10
       140  15  3.264641E+05  2.213043E+03  1.113351E+04  2.433934E+05  5.775507E-10 -1.657042E-10
       140  16 -7.742900E+05 -2.355059E+05 -2.193181E+05  2.196444E+05  2.996440E-10  8.520734E-11
       140  17 -5.578461E+05 -2.005072E+05 -1.507064E+05  2.113730E+05 -2.471172E-10 -1.396312E-10
       140  18 -3.437334E+05 -1.550482E+05 -1.049522E+05  2.442537E+05 -3.163473E-10 -2.217875E-10
       140  19  1.428087E+06  3.085111E+05  2.993098E+05  2.671839E+05 -1.046097E+05  1.270710E+04
       140  20  1.205209E+06  2.202032E+05  1.904343E+05  2.342854E+05 -4.499733E+04  3.977619E+04
       140  21  9.971030E+05  1.594520E+05  1.272073E+05  2.425325E+05  1.457891E+04  4.116980E+04
       140  22  3.263353E+05  3.654366E+04  4.002873E+04  2.433933E+05 -2.783373E+04  1.270778E+04
       140  23  3.233077E+05  9.871545E+03  1.988228E+04  2.228211E+05 -1.762932E+04  3.978332E+04
       140  24  3.264647E+05  2.214879E+03  1.113680E+04  2.433931E+05 -7.439260E+03  4.116898E+04
       140  25 -7.742874E+05 -2.355051E+05 -2.193133E+05  2.196449E+05  4.880711E+04  1.270261E+04
       140  26 -5.578456E+05 -2.005055E+05 -1.507032E+05  2.113733E+05  9.700760E+03  3.978946E+04
       140  27 -3.437320E+05 -1.550462E+05 -1.049474E+05  2.442527E+05 -2.943440E+04  4.116810E+04
       141   1  8.575517E+05  1.266325E+05  9.947606E+04  2.448817E+05 -1.480799E+04 -3.370813E+04
       141   2  6.415894E+05  7.416639E+04  5.737769E+04  2.228184E+05 -2.218766E+04 -2.167650E+04
       141   3  4.271934E+05  2.383474E+04  2.061739E+04  2.436263E+05 -2.956713E+04 -7.192715E+03
       141   4  3.252775E+05  2.081751E+03  8.629969E+03  2.437783E+05  5.960222E+03 -3.370499E+04
       141   5  3.249484E+05  4.678644E+02  5.348469E+03  2.223423E+05  3.291561E+03 -2.166964E+04
       141   6  3.253235E+05  1.738300E+02  4.136589E+03  2.437788E+05  6.207027E+02 -7.181456E+03
       141   7 -2.067175E+05 -1.224838E+05 -8.222389E+04  2.426757E+05  2.671121E+04 -3.370193E+04
       141   8  8.407900E+03 -7.323546E+04 -4.668123E+04  2.218664E+05  2.875825E+04 -2.166282E+04
       141   9  2.234659E+05 -2.348712E+04 -1.234108E+04  2.439312E+05  3.080376E+04 -7.170181E+03
       141  10  8.575512E+05  1.266312E+05  9.947352E+04  2.448813E+05 -1.257340E-11 -9.799666E-11
       141  11  6.415887E+05  7.416575E+04  5.737588E+04  2.228181E+05  2.476738E-10 -5.960978E-11
       141  12  4.271925E+05  2.383445E+04  2.061565E+04  2.436261E+05  7.526862E-10 -1.470669E-10
       141  13  3.252772E+05  2.080521E+03  8.627767E+03  2.437784E+05 -3.488729E-10 -2.001320E-10
       141  14  3.249483E+05  4.673572E+02  5.347566E+03  2.223423E+05  5.907666E-10  2.583063E-11
       141  15  3.253235E+05  1.737745E+02  4.136491E+03  2.437788E+05  7.900948E-11  4.412584E-11
       141  16 -2.067186E+05 -1.224852E+05 -8.222737E+04  2.426764E+05  6.655487E-10 -2.275915E-10
       141  17  8.406886E+03 -7.323619E+04 -4.668367E+04  2.218669E+05  1.918229E-10 -2.326757E-10
       141  18  2.234649E+05 -2.348743E+04 -1.234296E+04  2.439314E+05 -7.705203E-11 -1.785283E-11
       141  19  8.575517E+05  1.266325E+05  9.947606E+04  2.448817E+05  1.480799E+04  3.370813E+04
       141  20  6.415894E+05  7.416639E+04  5.737769E+04  2.228184E+05  2.218766E+04  2.167650E+04
       141  21  4.271934E+05  2.383474E+04  2.061739E+04  2.436263E+05  2.956713E+04  7.192715E+03
       141  22  3.252775E+05  2.081751E+03  8.629969E+03  2.437783E+05 -5.960222E+03  3.370499E+04
       141  23  3.249484E+05  4.678644E+02  5.348469E+03  2.223423E+05 -3.291561E+03  2.166964E+04
       141  24  3.253235E+05  1.738300E+02  4.136589E+03  2.437788E+05 -6.207027E+02  7.181456E+03
       141  25 -2.067175E+05 -1.224838E+05 -8.222389E+04  2.426757E+05 -2.671121E+04  3.370193E+04
       141  26  8.407900E+03 -7.323546E+04 -4.668123E+04  2.218664E+05 -2.875825E+04  2.166282E+04
       141  27  2.234659E+05 -2.348712E+04 -1.234108E+04  2.439312E+05 -3.080376E+04  7.170181E+03
       142   1  2.901000E+05 -8.080186E+03 -2.048539E+03  2.438948E+05 -3.026668E+04  2.152260E+03
       142   2  7.504953E+04 -5.787601E+04 -3.670762E+04  2.219135E+05 -2.829703E+04  1.672608E+04
       142   3 -1.400896E+05 -1.072905E+05 -7.254975E+04  2.428167E+05 -2.632639E+04  2.901859E+04
       142   4  3.253071E+05  1.774966E+02  4.043967E+03  2.437811E+05 -8.972612E+01  2.163723E+03
       142   5  3.249777E+05  4.088051E+02  4.840222E+03  2.223394E+05 -2.506124E+03  1.673377E+04
       142   6  3.252708E+05  1.783241E+03  7.495273E+03  2.437807E+05 -4.920822E+03  2.902302E+04
       142   7  3.605174E+05  8.435601E+03  1.013985E+04  2.436675E+05  3.008888E+04  2.175175E+03
       142   8  5.749690E+05  5.869073E+04  4.638867E+04  2.227654E+05  2.329481E+04  1.674148E+04
       142   9  7.908447E+05  1.108456E+05  8.753467E+04  2.447454E+05  1.650029E+04  2.902751E+04
       142  10  2.900990E+05 -8.080437E+03 -2.050269E+03  2.438948E+05 -1.847473E-10 -2.308959E-10
       142  11  7.504860E+04 -5.787653E+04 -3.670965E+04  2.219139E+05 -8.915403E-11  1.716154E-10
       142  12 -1.400905E+05 -1.072916E+05 -7.255264E+04  2.428174E+05  2.529543E-10  3.540383E-10
       142  13  3.253071E+05  1.774916E+02  4.043958E+03  2.437811E+05  2.692491E-10 -1.482051E-10
       142  14  3.249776E+05  4.085026E+02  4.839684E+03  2.223394E+05  5.432893E-10 -1.163747E-10
       142  15  3.252705E+05  1.782330E+03  7.493644E+03  2.437808E+05  4.540429E-10  3.480290E-10
       142  16  3.605164E+05  8.435353E+03  1.013814E+04  2.436674E+05  4.976373E-10 -4.856788E-11
       142  17  5.749683E+05  5.869029E+04  4.638712E+04  2.227651E+05 -4.468161E-10  6.081531E-12
       142  18  7.908442E+05  1.108446E+05  8.753258E+04  2.447450E+05  4.622623E-10  3.067763E-10
       142  19  2.901000E+05 -8.080186E+03 -2.048539E+03  2.438948E+05  3.026668E+04 -2.152260E+03
       142  20  7.504953E+04 -5.787601E+04 -3.670762E+04  2.219135E+05  2.829703E+04 -1.672608E+04
       142  21 -1.400896E+05 -1.072905E+05 -7.254975E+04  2.428167E+05  2.632639E+04 -2.901859E+04
       142  22  3.253071E+05  1.774966E+02  4.043967E+03  2.437811E+05  8.972612E+01 -2.163723E+03
       142  23  3.249777E+05  4.088051E+02  4.840222E+03  2.223394E+05  2.506124E+03 -1.673377E+04
       142  24  3.252708E+05  1.783241E+03  7.495273E+03  2.437807E+05  4.920822E+03 -2.902302E+04
       142  25  3.605174E+05  8.435601E+03  1.013985E+04  2.436675E+05 -3.008888E+04 -2.175175E+03
       142  26  5.749690E+05  5.869073E+04  4.638867E+04  2.227654E+05 -2.329481E+04 -1.674148E+04
       142  27  7.908447E+05  1.108456E+05  8.753467E+04  2.447454E+05 -1.650029E+04 -2.902751E+04
       143   1 -2.772131E+05 -1.398187E+05 -9.550947E+04  2.441165E+05 -2.878047E+04  3.661627E+04
       143   2 -4.910896E+05 -1.862349E+05 -1.414067E+05  2.130376E+05  9.042285E+03  3.627579E+04
       143   3 -7.077372E+05 -2.245684E+05 -2.099005E+05  2.232101E+05  4.684010E+04  1.169939E+04
       143   4  3.262739E+05  1.896076E+03  9.579861E+03  2.434161E+05 -6.203830E+03  3.661877E+04
       143   5  3.235846E+05  8.390996E+03  1.694136E+04  2.227929E+05 -1.488478E+04  3.626958E+04
       143   6  3.261546E+05  3.103867E+04  3.400319E+04  2.434152E+05 -2.357806E+04  1.170036E+04
       143   7  9.301188E+05  1.435914E+05  1.146583E+05  2.427149E+05  1.639409E+04  3.662121E+04
       143   8  1.138898E+06  2.029779E+05  1.752602E+05  2.325612E+05 -3.884256E+04  3.626262E+04
       143   9  1.361041E+06  2.865734E+05  2.778520E+05  2.636541E+05 -9.411290E+04  1.169676E+04
       143  10 -2.772144E+05 -1.398203E+05 -9.551355E+04  2.441173E+05  8.297472E-10  4.416720E-10
       143  11 -4.910901E+05 -1.862364E+05 -1.414093E+05  2.130373E+05 -4.481703E-10  2.994593E-10
       143  12 -7.077396E+05 -2.245691E+05 -2.099049E+05  2.232096E+05  4.153539E-10  1.333180E-10
       143  13  3.262735E+05  1.894626E+03  9.577268E+03  2.434162E+05  9.230379E-10  4.643812E-10
       143  14  3.235840E+05  8.389524E+03  1.693847E+04  2.227933E+05  4.037240E-10  1.434729E-10
       143  15  3.261539E+05  3.103837E+04  3.400189E+04  2.434155E+05  3.220431E-10  1.018850E-10
       143  16  9.301182E+05  1.435899E+05  1.146553E+05  2.427144E+05 -4.302291E-10  4.256214E-10
       143  17  1.138896E+06  2.029761E+05  1.752549E+05  2.325623E+05  4.371709E-10  2.325651E-10
       143  18  1.361032E+06  2.865709E+05  2.778352E+05  2.636550E+05 -1.940165E-10  1.237225E-10
       143  19 -2.772131E+05 -1.398187E+05 -9.550947E+04  2.441165E+05  2.878047E+04 -3.661627E+04
       143  20 -4.910896E+05 -1.862349E+05 -1.414067E+05  2.130376E+05 -9.042285E+03 -3.627579E+04
       143  21 -7.077372E+05 -2.245684E+05 -2.099005E+05  2.232101E+05 -4.684010E+04 -1.169939E+04
       143  22  3.262739E+05  1.896076E+03  9.579861E+03  2.434161E+05  6.203830E+03 -3.661877E+04
       143  23  3.235846E+05  8.390996E+03  1.694136E+04  2.227929E+05  1.488478E+04 -3.626958E+04
       143  24  3.261546E+05  3.103867E+04  3.400319E+04  2.434152E+05  2.357806E+04 -1.170036E+04
       143  25  9.301188E+05  1.435914E+05  1.146583E+05  2.427149E+05 -1.639409E+04 -3.662121E+04
       143  26  1.138898E+06  2.029779E+05  1.752602E+05  2.325612E+05  3.884256E+04 -3.626262E+04
       143  27  1.361041E+06  2.865734E+05  2.778520E+05  2.636541E+05  9.411290E+04 -1.169676E+04
       144   1 -2.845702E+05 -1.050740E+06 -2.779291E+05  3.628561E+05 -1.012365E+04 -8.248219E+04
       144   2 -1.805509E+05 -7.404944E+05 -1.607745E+05  3.232306E+05 -2.874868E+04 -2.695608E+04
       144   3 -1.004295E+05 -4.434143E+05 -8.579745E+04  3.425216E+05 -2.291742E+04  2.858813E+04
       144   4 -3.026416E+04 -2.396450E+04 -3.361806E+04  3.436694E+05 -1.005408E+04 -2.321068E+04
       144   5 -7.885575E+03 -2.134574E+04 -1.680245E+04  3.141959E+05 -2.873072E+04 -1.456282E+04
       144   6 -1.237765E+03 -2.382083E+04 -9.564586E+03  3.436396E+05 -2.296227E+04 -5.925704E+03
       144   7  2.239691E+05  1.003788E+06  2.106326E+05  3.244503E+05 -9.988260E+03  3.615853E+04
       144   8  1.647484E+05  6.982975E+05  1.271441E+05  3.051502E+05 -2.871313E+04 -2.155475E+03
       144   9  9.794474E+04  3.959465E+05  6.666574E+04  3.447581E+05 -2.300722E+04 -4.046224E+04
       144  10 -2.845721E+05 -1.050747E+06 -2.779421E+05  3.628554E+05 -2.373067E-11  9.220324E-09
       144  11 -1.805520E+05 -7.404954E+05 -1.607774E+05  3.232300E+05  5.754285E-10 -2.064422E-08
       144  12 -1.004303E+05 -4.434153E+05 -8.579997E+04  3.425222E+05  6.630481E-10 -4.821681E-08
       144  13 -3.026441E+04 -2.396511E+04 -3.361926E+04  3.436692E+05 -8.220161E-10  4.350224E-12
       144  14 -7.886518E+03 -2.134619E+04 -1.680440E+04  3.141956E+05 -3.374757E-10 -4.333860E-10
       144  15 -1.238340E+03 -2.382101E+04 -9.565642E+03  3.436394E+05  1.633877E-10 -6.551112E-11
       144  16  2.239687E+05  1.003786E+06  2.106300E+05  3.244506E+05 -3.905004E-11 -9.408063E-09
       144  17  1.647475E+05  6.982973E+05  1.271425E+05  3.051502E+05 -1.889235E-10  2.028819E-08
       144  18  9.794373E+04  3.959446E+05  6.666168E+04  3.447574E+05  3.734124E-10  4.828887E-08
       144  19 -2.845702E+05 -1.050740E+06 -2.779291E+05  3.628561E+05  1.012365E+04  8.248219E+04
       144  20 -1.805509E+05 -7.404944E+05 -1.607745E+05  3.232306E+05  2.874868E+04  2.695608E+04
       144  21 -1.004295E+05 -4.434143E+05 -8.579745E+04  3.425216E+05  2.291742E+04 -2.858813E+04
       144  22 -3.026416E+04 -2.396450E+04 -3.361806E+04  3.436694E+05  1.005408E+04  2.321068E+04
       144  23 -7.885575E+03 -2.134574E+04 -1.680245E+04  3.141959E+05  2.873072E+04  1.456282E+04
       144  24 -1.237765E+03 -2.382083E+04 -9.564586E+03  3.436396E+05  2.296227E+04  5.925704E+03
       144  25  2.239691E+05  1.003788E+06  2.106326E+05  3.244503E+05  9.988260E+03 -3.615853E+04
       144  26  1.647484E+05  6.982975E+05  1.271441E+05  3.051502E+05  2.871313E+04  2.155475E+03
       144  27  9.794474E+04  3.959465E+05  6.666574E+04  3.447581E+05  2.300722E+04  4.046224E+04
       145   1 -5.441892E+04 -2.478644E+05 -4.932620E+04  3.447040E+05 -1.156204E+04  2.878159E+04
       145   2  1.834013E+04  5.604794E+04  7.456072E+03  3.140191E+05  5.680460E+03  3.062584E+04
       145   3  8.985961E+04  3.594020E+05  6.269204E+04  3.437457E+05  2.255642E+04  3.247210E+04
       145   4 -1.055870E+03 -2.283655E+04 -7.563428E+03  3.439741E+05 -1.160754E+04 -4.666639E+03
       145   5  1.229492E+02 -2.245957E+04 -5.122493E+03  3.137673E+05  5.636869E+03 -2.125612E+03
       145   6 -5.480678E+01 -2.285246E+04 -4.712808E+03  3.439729E+05  2.251458E+04  4.165919E+02
       145   7  5.230488E+04  2.022428E+05  3.420141E+04  3.432439E+05 -1.165295E+04 -3.812669E+04
       145   8 -1.809397E+04 -1.009587E+05 -1.769719E+04  3.135156E+05  5.593301E+03 -3.487307E+04
       145   9 -8.997667E+04 -4.049619E+05 -7.211914E+04  3.441998E+05  2.247270E+04 -3.161977E+04
       145  10 -5.441929E+04 -2.478653E+05 -4.932801E+04  3.447043E+05  1.133217E-09  5.890073E-08
       145  11  1.833985E+04  5.604693E+04  7.454250E+03  3.140189E+05  9.997172E-10  4.088726E-10
       145  12  8.985878E+04  3.594008E+05  6.268910E+04  3.437451E+05  1.150900E-09 -5.841605E-08
       145  13 -1.056020E+03 -2.283661E+04 -7.563722E+03  3.439741E+05  9.296433E-10 -1.383733E-11
       145  14  1.229138E+02 -2.245959E+04 -5.122561E+03  3.137673E+05  2.773440E-09 -5.261275E-10
       145  15 -5.535115E+01 -2.285260E+04 -4.713761E+03  3.439729E+05  1.941836E-09 -7.986132E-11
       145  16  5.230434E+04  2.022412E+05  3.419843E+04  3.432436E+05  8.588079E-10 -5.908311E-08
       145  17 -1.809433E+04 -1.009600E+05 -1.769954E+04  3.135157E+05  1.197769E-09 -5.727786E-10
       145  18 -8.997748E+04 -4.049631E+05 -7.212197E+04  3.442004E+05  9.640053E-10  5.842115E-08
       145  19 -5.441892E+04 -2.478644E+05 -4.932620E+04  3.447040E+05  1.156204E+04 -2.878159E+04
       145  20  1.834013E+04  5.604794E+04  7.456072E+03  3.140191E+05 -5.680460E+03 -3.062584E+04
       145  21  8.985961E+04  3.594020E+05  6.269204E+04  3.437457E+05 -2.255642E+04 -3.247210E+04
       145  22 -1.055870E+03 -2.283655E+04 -7.563428E+03  3.439741E+05  1.160754E+04  4.666639E+03
       145  23  1.229492E+02 -2.245957E+04 -5.122493E+03  3.137673E+05 -5.636869E+03  2.125612E+03
       145  24 -5.480678E+01 -2.285246E+04 -4.712808E+03  3.439729E+05 -2.251458E+04 -4.165919E+02
       145  25  5.230488E+04  2.022428E+05  3.420141E+04  3.432439E+05  1.165295E+04  3.812669E+04
       145  26 -1.809397E+04 -1.009587E+05 -1.769719E+04  3.135156E+05 -5.593301E+03  3.487307E+04
       145  27 -8.997667E+04 -4.049619E+05 -7.211914E+04  3.441998E+05 -2.247270E+04  3.161977E+04
       146   1  1.356749E+05  5.539768E+05  9.720611E+04  3.442956E+05  3.362795E+04  3.447717E+04
       146   2  2.068475E+05  8.542701E+05  1.654942E+05  3.109916E+05  3.693952E+04 -1.542390E+04
       146   3  2.810813E+05  1.161896E+06  2.669994E+05  3.363318E+05  1.232894E+04 -6.533953E+04
       146   4 -1.715100E+02 -2.317373E+04 -5.058610E+03  3.435808E+05  3.358741E+04  1.158860E+03
       146   5 -2.918723E+03 -2.223176E+04 -7.324533E+03  3.142610E+05  3.696675E+04  4.928240E+03
       146   6 -1.191074E+04 -2.334821E+04 -1.362059E+04  3.435922E+05  1.240514E+04  8.707288E+03
       146   7 -1.360356E+05 -5.999967E+05 -1.073315E+05  3.428666E+05  3.354692E+04 -3.212940E+04
       146   8 -2.127313E+05 -8.979978E+05 -1.801793E+05  3.175254E+05  3.699422E+04  2.525228E+04
       146   9 -3.050004E+05 -1.207291E+06 -2.943175E+05  3.508381E+05  1.248318E+04  8.261367E+04
       146  10  1.356733E+05  5.539753E+05  9.720175E+04  3.442947E+05  6.741165E-10  4.934581E-08
       146  11  2.068460E+05  8.542694E+05  1.654912E+05  3.109921E+05 -1.946996E-10  2.127013E-08
       146  12  2.810800E+05  1.161892E+06  2.669911E+05  3.363325E+05 -1.115597E-10 -9.057270E-09
       146  13 -1.727218E+02 -2.317404E+04 -5.060733E+03  3.435808E+05  5.932519E-10 -1.220251E-11
       146  14 -2.920197E+03 -2.223215E+04 -7.327146E+03  3.142609E+05  3.525684E-10 -3.743321E-10
       146  15 -1.191093E+04 -2.334833E+04 -1.362102E+04  3.435921E+05 -2.447985E-10 -4.449051E-11
       146  16 -1.360371E+05 -5.999981E+05 -1.073356E+05  3.428674E+05  3.821880E-10 -4.955174E-08
       146  17 -2.127329E+05 -8.979988E+05 -1.801831E+05  3.175247E+05 -2.818196E-10 -2.144578E-08
       146  18 -3.050024E+05 -1.207299E+06 -2.943307E+05  3.508373E+05  1.543713E-10  8.960953E-09
       146  19  1.356749E+05  5.539768E+05  9.720611E+04  3.442956E+05 -3.362795E+04 -3.447717E+04
       146  20  2.068475E+05  8.542701E+05  1.654942E+05  3.109916E+05 -3.693952E+04  1.542390E+04
       146  21  2.810813E+05  1.161896E+06  2.669994E+05  3.363318E+05 -1.232894E+04  6.533953E+04
       146  22 -1.715100E+02 -2.317373E+04 -5.058610E+03  3.435808E+05 -3.358741E+04 -1.158860E+03
       146  23 -2.918723E+03 -2.223176E+04 -7.324533E+03  3.142610E+05 -3.696675E+04 -4.928240E+03
       146  24 -1.191074E+04 -2.334821E+04 -1.362059E+04  3.435922E+05 -1.240514E+04 -8.707288E+03
       146  25 -1.360356E+05 -5.999967E+05 -1.073315E+05  3.428666E+05 -3.354692E+04  3.212940E+04
       146  26 -2.127313E+05 -8.979978E+05 -1.801793E+05  3.175254E+05 -3.699422E+04 -2.525228E+04
       146  27 -3.050004E+05 -1.207291E+06 -2.943175E+05  3.508381E+05 -1.248318E+04 -8.261367E+04
       147   1  1.323295E+06  2.762198E+05  2.682552E+05  2.407677E+05  9.431509E+04 -1.125528E+04
       147   2  1.123347E+06  1.958019E+05  1.700719E+05  2.106440E+05  4.074374E+04 -3.518386E+04
       147   3  9.368651E+05  1.409599E+05  1.131169E+05  2.174263E+05 -1.279795E+04 -3.629041E+04
       147   4  3.446094E+05  3.460936E+04  3.788390E+04  2.182446E+05  2.633572E+04 -1.125622E+04
       147   5  3.417443E+05  9.366343E+03  1.882321E+04  1.997923E+05  1.667400E+04 -3.518955E+04
       147   6  3.447134E+05  2.105503E+03  1.055046E+04  2.182445E+05  7.023749E+03 -3.628965E+04
       147   7 -6.331855E+05 -2.070650E+05 -1.925357E+05  1.957571E+05 -4.153731E+04 -1.125224E+04
       147   8 -4.392706E+05 -1.771049E+05 -1.324519E+05  1.889544E+05 -7.366171E+03 -3.519440E+04
       147   9 -2.470941E+05 -1.367676E+05 -9.202669E+04  2.190618E+05  2.682715E+04 -3.628883E+04
       147  10  1.323286E+06  2.762173E+05  2.682383E+05  2.407686E+05 -3.565970E-12 -4.857779E-11
       147  11  1.123345E+06  1.958002E+05  1.700665E+05  2.106452E+05 -5.553033E-10  4.883493E-11
       147  12  9.368646E+05  1.409585E+05  1.131141E+05  2.174259E+05  5.298903E-10  4.233530E-11
       147  13  3.446086E+05  3.460904E+04  3.788236E+04  2.182449E+05  5.217406E-10  9.828233E-12
       147  14  3.417437E+05  9.364938E+03  1.882035E+04  1.997928E+05 -3.600973E-10  1.756978E-10
       147  15  3.447129E+05  2.104076E+03  1.054789E+04  2.182447E+05  3.809007E-10  1.084075E-11
       147  16 -6.331874E+05 -2.070656E+05 -1.925392E+05  1.957567E+05 -1.815142E-10  3.886242E-11
       147  17 -4.392710E+05 -1.771062E+05 -1.324543E+05  1.889542E+05 -2.615713E-10  9.087182E-11
       147  18 -2.470952E+05 -1.367692E+05 -9.203052E+04  2.190626E+05 -2.572948E-10 -4.667383E-11
       147  19  1.323295E+06  2.762198E+05  2.682552E+05  2.407677E+05 -9.431509E+04  1.125528E+04
       147  20  1.123347E+06  1.958019E+05  1.700719E+05  2.106440E+05 -4.074374E+04  3.518386E+04
       147  21  9.368651E+05  1.409599E+05  1.131169E+05  2.174263E+05  1.279795E+04  3.629041E+04
       147  22  3.446094E+05  3.460936E+04  3.788390E+04  2.182446E+05 -2.633572E+04  1.125622E+04
       147  23  3.417443E+05  9.366343E+03  1.882321E+04  1.997923E+05 -1.667400E+04  3.518955E+04
       147  24  3.447134E+05  2.105503E+03  1.055046E+04  2.182445E+05 -7.023749E+03  3.628965E+04
       147  25 -6.331855E+05 -2.070650E+05 -1.925357E+05  1.957571E+05  4.153731E+04  1.125224E+04
       147  26 -4.392706E+05 -1.771049E+05 -1.324519E+05  1.889544E+05  7.366171E+03  3.519440E+04
       147  27 -2.470941E+05 -1.367676E+05 -9.202669E+04  2.190618E+05 -2.682715E+04  3.628883E+04
       148   1  8.116947E+05  1.115256E+05  8.815782E+04  2.196253E+05 -1.308892E+04 -2.958156E+04
       148   2  6.180427E+05  6.440319E+04  5.030590E+04  1.998128E+05 -1.980877E+04 -1.875817E+04
       148   3  4.258194E+05  1.925488E+04  1.732265E+04  2.184410E+05 -2.652825E+04 -5.759532E+03
       148   4  3.435888E+05  1.972307E+03  8.183456E+03  2.185870E+05  5.622293E+03 -2.957896E+04
       148   5  3.432744E+05  4.374405E+02  5.092649E+03  1.993664E+05  3.081298E+03 -1.875265E+04
       148   6  3.436248E+05  1.530726E+02  3.970343E+03  2.185874E+05  5.386501E+02 -5.750581E+03
       148   7 -1.243011E+05 -1.075924E+05 -7.179687E+04  2.175494E+05  2.431985E+04 -2.957642E+04
       148   8  6.858181E+04 -6.353191E+04 -4.012084E+04  1.989201E+05  2.596159E+04 -1.874716E+04
       148   9  2.614384E+05 -1.894868E+04 -9.379396E+03  2.187337E+05  2.760210E+04 -5.741615E+03
       148  10  8.116943E+05  1.115246E+05  8.815585E+04  2.196250E+05  2.392392E-10  6.964670E-11
       148  11  6.180422E+05  6.440271E+04  5.030450E+04  1.998125E+05 -2.564489E-10  1.892965E-10
       148  12  4.258187E+05  1.925465E+04  1.732126E+04  2.184409E+05 -8.547080E-11  3.024847E-11
       148  13  3.435886E+05  1.971359E+03  8.181752E+03  2.185871E+05 -2.861080E-10  2.390146E-11
       148  14  3.432743E+05  4.370602E+02  5.091970E+03  1.993664E+05 -1.444227E-10  9.876708E-11
       148  15  3.436248E+05  1.530371E+02  3.970280E+03  2.185874E+05 -5.021298E-10  1.818192E-11
       148  16 -1.243019E+05 -1.075935E+05 -7.179963E+04  2.175500E+05 -5.445800E-12 -1.349076E-11
       148  17  6.858099E+04 -6.353247E+04 -4.012277E+04  1.989205E+05  1.378328E-10 -4.728744E-11
       148  18  2.614375E+05 -1.894892E+04 -9.380890E+03  2.187339E+05 -1.306698E-10  1.393797E-10
       148  19  8.116947E+05  1.115256E+05  8.815782E+04  2.196253E+05  1.308892E+04  2.958156E+04
       148  20  6.180427E+05  6.440319E+04  5.030590E+04  1.998128E+05  1.980877E+04  1.875817E+04
       148  21  4.258194E+05  1.925488E+04  1.732265E+04  2.184410E+05  2.652825E+04  5.759532E+03
       148  22  3.435888E+05  1.972307E+03  8.183456E+03  2.185870E+05 -5.622293E+03  2.957896E+04
       148  23  3.432744E+05  4.374405E+02  5.092649E+03  1.993664E+05 -3.081298E+03  1.875265E+04
       148  24  3.436248E+05  1.530726E+02  3.970343E+03  2.185874E+05 -5.386501E+02  5.750581E+03
       148  25 -1.243011E+05 -1.075924E+05 -7.179687E+04  2.175494E+05 -2.431985E+04  2.957642E+04
       148  26  6.858181E+04 -6.353191E+04 -4.012084E+04  1.989201E+05 -2.596159E+04  1.874716E+04
       148  27  2.614384E+05 -1.894868E+04 -9.379396E+03  2.187337E+05 -2.760210E+04  5.741615E+03
       149   1  3.028930E+05 -9.363490E+03 -2.987304E+03  2.187042E+05 -2.720385E+04  2.619741E+03
       149   2  1.100469E+05 -5.398575E+04 -3.397765E+04  1.989547E+05 -2.557959E+04  1.567591E+04
       149   3 -8.285006E+04 -9.818107E+04 -6.591654E+04  2.176543E+05 -2.395438E+04  2.666285E+04
       149   4  3.436124E+05  1.553203E+02  3.901493E+03  2.185888E+05 -1.443493E+02  2.628811E+03
       149   5  3.432947E+05  3.910729E+02  4.714567E+03  1.993646E+05 -2.497664E+03  1.568188E+04
       149   6  3.435819E+05  1.745932E+03  7.339503E+03  2.185884E+05 -4.849621E+03  2.666616E+04
       149   7  3.843350E+05  9.674436E+03  1.079299E+04  2.184734E+05  2.691687E+04  2.637871E+03
       149   8  5.765975E+05  5.476536E+04  4.340715E+04  1.997748E+05  2.059264E+04  1.568787E+04
       149   9  7.701932E+05  1.016634E+05  8.059077E+04  2.195232E+05  1.426785E+04  2.666951E+04
       149  10  3.028922E+05 -9.363696E+03 -2.988707E+03  2.187042E+05  6.728803E-10  2.218681E-10
       149  11  1.100461E+05 -5.398619E+04 -3.397934E+04  1.989550E+05  3.343966E-10  1.433382E-10
       149  12 -8.285086E+04 -9.818199E+04 -6.591895E+04  2.176548E+05  1.723948E-10 -4.911945E-11
       149  13  3.436124E+05  1.553129E+02  3.901480E+03  2.185888E+05  4.230474E-12  1.182626E-10
       149  14  3.432947E+05  3.908071E+02  4.714093E+03  1.993647E+05 -4.853394E-10  1.420914E-10
       149  15  3.435817E+05  1.745162E+03  7.338122E+03  2.185885E+05 -1.650533E-10 -4.101147E-11
       149  16  3.843342E+05  9.674234E+03  1.079161E+04  2.184734E+05  3.184718E-11  8.774663E-11
       149  17  5.765970E+05  5.476498E+04  4.340589E+04  1.997745E+05  4.064142E-10  3.355713E-11
       149  18  7.701928E+05  1.016626E+05  8.058905E+04  2.195229E+05  6.530050E-11 -1.959837E-10
       149  19  3.028930E+05 -9.363490E+03 -2.987304E+03  2.187042E+05  2.720385E+04 -2.619741E+03
       149  20  1.100469E+05 -5.398575E+04 -3.397765E+04  1.989547E+05  2.557959E+04 -1.567591E+04
       149  21 -8.285006E+04 -9.818107E+04 -6.591654E+04  2.176543E+05  2.395438E+04 -2.666285E+04
       149  22  3.436124E+05  1.553203E+02  3.901493E+03  2.185888E+05  1.443493E+02 -2.628811E+03
       149  23  3.432947E+05  3.910729E+02  4.714567E+03  1.993646E+05  2.497664E+03 -1.568188E+04
       149  24  3.435819E+05  1.745932E+03  7.339503E+03  2.185884E+05  4.849621E+03 -2.666616E+04
       149  25  3.843350E+05  9.674436E+03  1.079299E+04  2.184734E+05 -2.691687E+04 -2.637871E+03
       149  26  5.765975E+05  5.476536E+04  4.340715E+04  1.997748E+05 -2.059264E+04 -1.568787E+04
       149  27  7.701932E+05  1.016634E+05  8.059077E+04  2.195232E+05 -1.426785E+04 -2.666951E+04
       150   1 -2.057302E+05 -1.273378E+05 -8.634392E+04  2.189608E+05 -2.627068E+04  3.345712E+04
       150   2 -3.977050E+05 -1.684131E+05 -1.270260E+05  1.901989E+05  7.290131E+03  3.300851E+04
       150   3 -5.917993E+05 -2.009354E+05 -1.874116E+05  1.984142E+05  4.083021E+04  1.062790E+04
       150   4  3.445694E+05  1.863082E+03  9.392544E+03  2.182598E+05 -6.105166E+03  3.345884E+04
       150   5  3.419458E+05  8.258783E+03  1.663560E+04  1.997735E+05 -1.463257E+04  3.300361E+04
       150   6  3.444712E+05  3.050952E+04  3.340254E+04  2.182593E+05 -2.317017E+04  1.062950E+04
       150   7  8.951666E+05  1.310478E+05  1.051199E+05  2.175581E+05  1.407768E+04  3.346050E+04
       150   8  1.082123E+06  1.848986E+05  1.602732E+05  2.093597E+05 -3.658082E+04  3.299803E+04
       150   9  1.281558E+06  2.618954E+05  2.541719E+05  2.381344E+05 -8.726656E+04  1.062702E+04
       150  10 -2.057313E+05 -1.273392E+05 -8.634732E+04  2.189615E+05  9.732101E-11 -4.788026E-11
       150  11 -3.977054E+05 -1.684143E+05 -1.270282E+05  1.901987E+05 -2.838036E-11  9.296896E-11
       150  12 -5.918012E+05 -2.009359E+05 -1.874150E+05  1.984139E+05 -3.330194E-10  1.276077E-10
       150  13  3.445690E+05  1.861870E+03  9.390370E+03  2.182599E+05 -1.259992E-10 -2.227605E-10
       150  14  3.419453E+05  8.257556E+03  1.663315E+04  1.997739E+05  2.510188E-11 -2.492684E-10
       150  15  3.444706E+05  3.050926E+04  3.340132E+04  2.182595E+05 -3.761078E-10 -1.696116E-10
       150  16  8.951661E+05  1.310466E+05  1.051174E+05  2.175577E+05  2.552869E-11 -3.161416E-10
       150  17  1.082122E+06  1.848971E+05  1.602687E+05  2.093607E+05 -4.913939E-10 -4.596545E-10
       150  18  1.281550E+06  2.618933E+05  2.541574E+05  2.381352E+05  2.563396E-10 -3.240715E-10
       150  19 -2.057302E+05 -1.273378E+05 -8.634392E+04  2.189608E+05  2.627068E+04 -3.345712E+04
       150  20 -3.977050E+05 -1.684131E+05 -1.270260E+05  1.901989E+05 -7.290131E+03 -3.300851E+04
       150  21 -5.917993E+05 -2.009354E+05 -1.874116E+05  1.984142E+05 -4.083021E+04 -1.062790E+04
       150  22  3.445694E+05  1.863082E+03  9.392544E+03  2.182598E+05  6.105166E+03 -3.345884E+04
       150  23  3.419458E+05  8.258783E+03  1.663560E+04  1.997735E+05  1.463257E+04 -3.300361E+04
       150  24  3.444712E+05  3.050952E+04  3.340254E+04  2.182593E+05  2.317017E+04 -1.062950E+04
       150  25  8.951666E+05  1.310478E+05  1.051199E+05  2.175581E+05 -1.407768E+04 -3.346050E+04
       150  26  1.082123E+06  1.848986E+05  1.602732E+05  2.093597E+05  3.658082E+04 -3.299803E+04
       150  27  1.281558E+06  2.618954E+05  2.541719E+05  2.381344E+05  8.726656E+04 -1.062702E+04
       151   1 -2.678275E+05 -9.549927E+05 -2.617172E+05  3.324518E+05 -9.543930E+03 -7.957072E+04
       151   2 -1.705139E+05 -6.722843E+05 -1.522868E+05  2.952658E+05 -2.732790E+04 -2.711803E+04
       151   3 -9.685451E+04 -4.022843E+05 -8.296308E+04  3.116571E+05 -2.236262E+04  2.535071E+04
       151   4 -3.092922E+04  1.682561E+03 -3.424873E+04  3.127614E+05 -9.484238E+03 -2.355968E+04
       151   5 -8.137506E+03  4.339677E+03 -1.718745E+04  2.859584E+05 -2.731159E+04 -1.471825E+04
       151   6 -1.403431E+03  1.805234E+03 -9.908137E+03  3.127338E+05 -2.239935E+04 -5.885685E+03
       151   7  2.059063E+05  9.592064E+05  1.931678E+05  2.930401E+05 -9.428167E+03  3.253736E+04
       151   8  1.542112E+05  6.814017E+05  1.178895E+05  2.766404E+05 -2.729567E+04 -2.305213E+03
       151   9  9.403903E+04  4.060559E+05  6.314405E+04  3.138111E+05 -2.243617E+04 -3.714186E+04
       151  10 -2.678293E+05 -9.549995E+05 -2.617293E+05  3.324512E+05 -5.630247E-11 -3.772520E-10
       151  11 -1.705149E+05 -6.722853E+05 -1.522896E+05  2.952652E+05 -1.303357E-10  6.112372E-10
       151  12 -9.685522E+04 -4.022852E+05 -8.296523E+04  3.116576E+05 -5.995329E-10  4.784756E-10
       151  13 -3.092946E+04  1.681941E+03 -3.424994E+04  3.127612E+05 -2.456131E-11  3.440007E-12
       151  14 -8.138365E+03  4.339244E+03 -1.718926E+04  2.859581E+05 -2.892993E-10  6.243885E-10
       151  15 -1.403979E+03  1.805062E+03 -9.909144E+03  3.127337E+05 -5.596302E-10  7.781832E-10
       151  16  2.059059E+05  9.592052E+05  1.931657E+05  2.930403E+05 -6.668664E-11  2.466400E-10
       151  17  1.542104E+05  6.814015E+05  1.178881E+05  2.766404E+05 -7.613309E-10  5.945396E-11
       151  18  9.403812E+04  4.060543E+05  6.314052E+04  3.138104E+05  3.617805E-11 -3.127571E-10
       151  19 -2.678275E+05 -9.549927E+05 -2.617172E+05  3.324518E+05  9.543930E+03  7.957072E+04
       151  20 -1.705139E+05 -6.722843E+05 -1.522868E+05  2.952658E+05  2.732790E+04  2.711803E+04
       151  21 -9.685451E+04 -4.022843E+05 -8.296308E+04  3.116571E+05  2.236262E+04 -2.535071E+04
       151  22 -3.092922E+04  1.682561E+03 -3.424873E+04  3.127614E+05  9.484238E+03  2.355968E+04
       151  23 -8.137506E+03  4.339677E+03 -1.718745E+04  2.859584E+05  2.731159E+04  1.471825E+04
       151  24 -1.403431E+03  1.805234E+03 -9.908137E+03  3.127338E+05  2.239935E+04  5.885685E+03
       151  25  2.059063E+05  9.592064E+05  1.931678E+05  2.930401E+05  9.428167E+03 -3.253736E+04
       151  26  1.542112E+05  6.814017E+05  1.178895E+05  2.766404E+05  2.729567E+04  2.305213E+03
       151  27  9.403903E+04  4.060559E+05  6.314405E+04  3.138111E+05  2.243617E+04  3.714186E+04
       152   1 -5.495275E+04 -2.242088E+05 -4.956157E+04  3.138321E+05 -1.206893E+04  2.567415E+04
       152   2  1.138334E+04  5.243794E+04  2.262278E+03  2.857507E+05  3.570736E+03  2.803452E+04
       152   3  7.627333E+04  3.284082E+05  5.215818E+04  3.126445E+05  1.898053E+04  3.039654E+04
       152   4 -1.221738E+03  2.795969E+03 -7.930140E+03  3.130464E+05 -1.210630E+04 -4.565519E+03
       152   5 -4.080875E+01  3.204986E+03 -5.626157E+03  2.855580E+05  3.534484E+03 -1.769441E+03
       152   6 -3.783047E+02  2.786869E+03 -5.553505E+03  3.130454E+05  1.894528E+04  1.027310E+03
       152   7  5.250684E+04  2.298527E+05  3.370262E+04  3.122603E+05 -1.214359E+04 -3.481595E+04
       152   8 -1.146460E+04 -4.602366E+04 -1.351132E+04  2.853654E+05  3.498249E+03 -3.157112E+04
       152   9 -7.703531E+04 -3.227291E+05 -6.326589E+04  3.134461E+05  1.890998E+04 -2.832697E+04
       152  10 -5.495308E+04 -2.242095E+05 -4.956308E+04  3.138324E+05 -2.227209E-10 -6.970804E-10
       152  11  1.138311E+04  5.243710E+04  2.260777E+03  2.857507E+05 -5.401914E-10  1.065995E-09
       152  12  7.627270E+04  3.284071E+05  5.215577E+04  3.126441E+05  1.239135E-11  1.259291E-09
       152  13 -1.221901E+03  2.795908E+03 -7.930455E+03  3.130463E+05 -8.775339E-11 -1.415526E-11
       152  14 -4.082301E+01  3.204979E+03 -5.626186E+03  2.855580E+05  6.576656E-10  8.096335E-10
       152  15 -3.786904E+02  2.786771E+03 -5.554181E+03  3.130454E+05  5.283425E-10  8.216912E-10
       152  16  5.250635E+04  2.298514E+05  3.370007E+04  3.122600E+05  1.142656E-10  5.036150E-10
       152  17 -1.146488E+04 -4.602473E+04 -1.351321E+04  2.853654E+05  4.574909E-10  6.895887E-11
       152  18 -7.703591E+04 -3.227300E+05 -6.326807E+04  3.134465E+05  1.887009E-10 -1.171009E-09
       152  19 -5.495275E+04 -2.242088E+05 -4.956157E+04  3.138321E+05  1.206893E+04 -2.567415E+04
       152  20  1.138334E+04  5.243794E+04  2.262278E+03  2.857507E+05 -3.570736E+03 -2.803452E+04
       152  21  7.627333E+04  3.284082E+05  5.215818E+04  3.126445E+05 -1.898053E+04 -3.039654E+04
       152  22 -1.221738E+03  2.795969E+03 -7.930140E+03  3.130464E+05  1.210630E+04  4.565519E+03
       152  23 -4.080875E+01  3.204986E+03 -5.626157E+03  2.855580E+05 -3.534484E+03  1.769441E+03
       152  24 -3.783047E+02  2.786869E+03 -5.553505E+03  3.130454E+05 -1.894528E+04 -1.027310E+03
       152  25  5.250684E+04  2.298527E+05  3.370262E+04  3.122603E+05  1.214359E+04  3.481595E+04
       152  26 -1.146460E+04 -4.602366E+04 -1.351132E+04  2.853654E+05 -3.498249E+03  3.157112E+04
       152  27 -7.703531E+04 -3.227291E+05 -6.326589E+04  3.134461E+05 -1.890998E+04  2.832697E+04
       153   1  1.179333E+05  5.052944E+05  8.322661E+04  3.134075E+05  2.909573E+04  3.240824E+04
       153   2  1.816593E+05  7.790385E+05  1.438980E+05  2.814725E+05  3.245337E+04 -1.070708E+04
       153   3  2.455356E+05  1.058488E+06  2.326467E+05  3.029425E+05  1.089439E+04 -5.383297E+04
       153   4 -5.012059E+02  2.349858E+03 -6.151931E+03  3.126970E+05  2.906144E+04  1.916599E+03
       153   5 -3.977492E+03  3.614762E+03 -9.285307E+03  2.859981E+05  3.247477E+04  6.688557E+03
       153   6 -1.560941E+04  2.209476E+03 -1.757767E+04  3.127106E+05  1.095641E+04  1.146880E+04
       153   7 -1.189491E+05 -5.003458E+05 -9.553646E+04  3.119869E+05  2.902720E+04 -2.855107E+04
       153   8 -1.896505E+05 -7.712333E+05 -1.624970E+05  2.905177E+05  3.249643E+04  2.406294E+04
       153   9 -2.768318E+05 -1.053036E+06 -2.678635E+05  3.224614E+05  1.102055E+04  7.666017E+04
       153  10  1.179321E+05  5.052930E+05  8.322305E+04  3.134068E+05 -1.413219E-10 -9.422581E-10
       153  11  1.816581E+05  7.790381E+05  1.438958E+05  2.814728E+05 -6.677260E-10  3.391603E-10
       153  12  2.455347E+05  1.058485E+06  2.326410E+05  3.029430E+05  9.948158E-11  6.307294E-10
       153  13 -5.021137E+02  2.349628E+03 -6.153525E+03  3.126969E+05 -4.361599E-10 -1.380817E-11
       153  14 -3.978636E+03  3.614431E+03 -9.287372E+03  2.859980E+05  1.130456E-10  6.307317E-10
       153  15 -1.560957E+04  2.209303E+03 -1.757814E+04  3.127105E+05 -1.773900E-10  5.137717E-10
       153  16 -1.189502E+05 -5.003469E+05 -9.553958E+04  3.119875E+05 -5.383319E-11  6.684276E-10
       153  17 -1.896518E+05 -7.712342E+05 -1.625001E+05  2.905171E+05 -3.141338E-10  5.416687E-10
       153  18 -2.768335E+05 -1.053043E+06 -2.678748E+05  3.224607E+05  2.848674E-11 -6.330276E-10
       153  19  1.179333E+05  5.052944E+05  8.322661E+04  3.134075E+05 -2.909573E+04 -3.240824E+04
       153  20  1.816593E+05  7.790385E+05  1.438980E+05  2.814725E+05 -3.245337E+04  1.070708E+04
       153  21  2.455356E+05  1.058488E+06  2.326467E+05  3.029425E+05 -1.089439E+04  5.383297E+04
       153  22 -5.012059E+02  2.349858E+03 -6.151931E+03  3.126970E+05 -2.906144E+04 -1.916599E+03
       153  23 -3.977492E+03  3.614762E+03 -9.285307E+03  2.859981E+05 -3.247477E+04 -6.688557E+03
       153  24 -1.560941E+04  2.209476E+03 -1.757767E+04  3.127106E+05 -1.095641E+04 -1.146880E+04
       153  25 -1.189491E+05 -5.003458E+05 -9.553646E+04  3.119869E+05 -2.902720E+04  2.855107E+04
       153  26 -1.896505E+05 -7.712333E+05 -1.624970E+05  2.905177E+05 -3.249643E+04 -2.406294E+04
       153  27 -2.768318E+05 -1.053036E+06 -2.678635E+05  3.224614E+05 -1.102055E+04 -7.666017E+04
       154   1  1.222373E+06  2.461231E+05  2.395357E+05  2.136143E+05  8.579755E+04 -9.854426E+03
       154   2  1.046926E+06  1.725897E+05  1.512268E+05  1.857939E+05  3.769922E+04 -3.080021E+04
       154   3  8.839666E+05  1.236497E+05  1.003441E+05  1.902923E+05 -1.037482E+04 -3.176397E+04
       154   4  3.655621E+05  3.459053E+04  3.784198E+04  1.911219E+05  2.629215E+04 -9.854331E+03
       154   5  3.626995E+05  9.375518E+03  1.881426E+04  1.749630E+05  1.663382E+04 -3.080422E+04
       154   6  3.656434E+05  2.104405E+03  1.056140E+04  1.911211E+05  6.984869E+03 -3.176376E+04
       154   7 -4.905653E+05 -1.769906E+05 -1.638887E+05  1.686606E+05 -3.313175E+04 -9.849940E+03
       154   8 -3.210763E+05 -1.538658E+05 -1.136185E+05  1.641442E+05 -4.408920E+03 -3.080750E+04
       154   9 -1.524159E+05 -1.194552E+05 -7.922952E+04  1.919491E+05  2.433052E+04 -3.176350E+04
       154  10  1.222365E+06  2.461210E+05  2.395217E+05  2.136150E+05  6.206610E-10 -4.543208E-11
       154  11  1.046924E+06  1.725883E+05  1.512224E+05  1.857949E+05  1.331303E-10 -1.169753E-10
       154  12  8.839662E+05  1.236486E+05  1.003420E+05  1.902920E+05 -2.018726E-10  2.632672E-10
       154  13  3.655613E+05  3.459024E+04  3.784050E+04  1.911221E+05 -1.121374E-10  2.104335E-10
       154  14  3.626989E+05  9.374424E+03  1.881196E+04  1.749634E+05  5.070047E-10  1.107798E-10
       154  15  3.656431E+05  2.103308E+03  1.055942E+04  1.911213E+05 -3.193852E-10  2.040150E-10
       154  16 -4.905665E+05 -1.769910E+05 -1.638909E+05  1.686603E+05 -6.210575E-11 -1.990419E-11
       154  17 -3.210766E+05 -1.538669E+05 -1.136203E+05  1.641440E+05 -5.375902E-11  1.476336E-10
       154  18 -1.524169E+05 -1.194565E+05 -7.923253E+04  1.919498E+05  1.627394E-11  1.164930E-10
       154  19  1.222373E+06  2.461231E+05  2.395357E+05  2.136143E+05 -8.579755E+04  9.854426E+03
       154  20  1.046926E+06  1.725897E+05  1.512268E+05  1.857939E+05 -3.769922E+04  3.080021E+04
       154  21  8.839666E+05  1.236497E+05  1.003441E+05  1.902923E+05  1.037482E+04  3.176397E+04
       154  22  3.655621E+05  3.459053E+04  3.784198E+04  1.911219E+05 -2.629215E+04  9.854331E+03
       154  23  3.626995E+05  9.375518E+03  1.881426E+04  1.749630E+05 -1.663382E+04  3.080422E+04
       154  24  3.656434E+05  2.104405E+03  1.056140E+04  1.911211E+05 -6.984869E+03  3.176376E+04
       154  25 -4.905653E+05 -1.769906E+05 -1.638887E+05  1.686606E+05  3.313175E+04  9.849940E+03
       154  26 -3.210763E+05 -1.538658E+05 -1.136185E+05  1.641442E+05  4.408920E+03  3.080750E+04
       154  27 -1.524159E+05 -1.194552E+05 -7.922952E+04  1.919491E+05 -2.433052E+04  3.176350E+04
       155   1  7.742121E+05  9.784666E+04  7.820488E+04  1.924477E+05 -1.080714E+04 -2.588815E+04
       155   2  6.045869E+05  5.638397E+04  4.470685E+04  1.750288E+05 -1.703476E+04 -1.640834E+04
       155   3  4.362870E+05  1.680537E+04  1.573347E+04  1.912763E+05 -2.326213E+04 -5.024291E+03
       155   4  3.645195E+05  1.962677E+03  8.207483E+03  1.914220E+05  5.580873E+03 -2.588651E+04
       155   5  3.642005E+05  4.220932E+02  5.149470E+03  1.745886E+05  3.011937E+03 -1.640455E+04
       155   6  3.645471E+05  1.332435E+02  4.078440E+03  1.914223E+05  4.417114E+02 -5.017947E+03
       155   7 -4.500777E+04 -9.393009E+04 -6.179448E+04  1.903970E+05  2.195842E+04 -2.588492E+04
       155   8  1.238720E+05 -5.554254E+04 -3.440809E+04  1.741485E+05  2.305115E+04 -1.640078E+04
       155   9  2.928136E+05 -1.653885E+04 -7.574620E+03  1.915683E+05  2.414292E+04 -5.011591E+03
       155  10  7.742118E+05  9.784591E+04  7.820340E+04  1.924474E+05  6.282572E-12  3.301384E-10
       155  11  6.045865E+05  5.638360E+04  4.470580E+04  1.750286E+05 -1.609545E-10  1.743333E-10
       155  12  4.362864E+05  1.680520E+04  1.573240E+04  1.912762E+05  2.508563E-10 -5.865186E-11
       155  13  3.645192E+05  1.961949E+03  8.206165E+03  1.914221E+05 -1.380110E-10  3.229758E-10
       155  14  3.642004E+05  4.218017E+02  5.148948E+03  1.745886E+05  5.892290E-10  2.502846E-10
       155  15  3.645471E+05  1.332164E+02  4.078392E+03  1.914223E+05 -2.044549E-10 -1.590504E-10
       155  16 -4.500847E+04 -9.393093E+04 -6.179665E+04  1.903974E+05 -2.026877E-10  1.455414E-10
       155  17  1.238714E+05 -5.554297E+04 -3.440960E+04  1.741488E+05  4.189437E-10  1.923934E-10
       155  18  2.928130E+05 -1.653903E+04 -7.575762E+03  1.915684E+05 -6.652844E-10 -1.496148E-10
       155  19  7.742121E+05  9.784666E+04  7.820488E+04  1.924477E+05  1.080714E+04  2.588815E+04
       155  20  6.045869E+05  5.638397E+04  4.470685E+04  1.750288E+05  1.703476E+04  1.640834E+04
       155  21  4.362870E+05  1.680537E+04  1.573347E+04  1.912763E+05  2.326213E+04  5.024291E+03
       155  22  3.645195E+05  1.962677E+03  8.207483E+03  1.914220E+05 -5.580873E+03  2.588651E+04
       155  23  3.642005E+05  4.220932E+02  5.149470E+03  1.745886E+05 -3.011937E+03  1.640455E+04
       155  24  3.645471E+05  1.332435E+02  4.078440E+03  1.914223E+05 -4.417114E+02  5.017947E+03
       155  25 -4.500777E+04 -9.393009E+04 -6.179448E+04  1.903970E+05 -2.195842E+04  2.588492E+04
       155  26  1.238720E+05 -5.554254E+04 -3.440809E+04  1.741485E+05 -2.305115E+04  1.640078E+04
       155  27  2.928136E+05 -1.653885E+04 -7.574620E+03  1.915683E+05 -2.414292E+04  5.011591E+03
       156   1  3.286431E+05 -8.256277E+03 -2.022743E+03  1.915563E+05 -2.395988E+04  2.313683E+03
       156   2  1.596997E+05 -4.727188E+04 -2.894411E+04  1.741638E+05 -2.295988E+04  1.374672E+04
       156   3 -9.181772E+03 -8.570088E+04 -5.636708E+04  1.904439E+05 -2.195911E+04  2.336713E+04
       156   4  3.645416E+05  1.346975E+02  4.047155E+03  1.914233E+05 -2.622503E+02  2.320118E+03
       156   5  3.642110E+05  4.032682E+02  4.977939E+03  1.745873E+05 -2.746598E+03  1.375084E+04
       156   6  3.645181E+05  1.863896E+03  7.824467E+03  1.914230E+05 -5.229917E+03  2.336928E+04
       156   7  4.004426E+05  8.525906E+03  1.011912E+04  1.912903E+05  2.343671E+04  2.326544E+03
       156   8  5.687646E+05  4.807647E+04  3.890026E+04  1.750110E+05  1.747312E+04  1.375500E+04
       156   9  7.383556E+05  8.942136E+04  7.201234E+04  1.924027E+05  1.150903E+04  2.337149E+04
       156  10  3.286425E+05 -8.256437E+03 -2.023831E+03  1.915564E+05  4.283179E-10 -2.402185E-11
       156  11  1.596991E+05 -4.727222E+04 -2.894545E+04  1.741640E+05  1.064464E-10 -2.644306E-10
       156  12 -9.182436E+03 -8.570160E+04 -5.636901E+04  1.904443E+05 -1.720764E-10 -2.326039E-10
       156  13  3.645416E+05  1.346917E+02  4.047145E+03  1.914233E+05  2.520643E-11 -2.324835E-10
       156  14  3.642110E+05  4.030631E+02  4.977570E+03  1.745873E+05  5.503427E-11 -2.032547E-10
       156  15  3.645179E+05  1.863302E+03  7.823389E+03  1.914231E+05  1.629927E-10 -1.845437E-10
       156  16  4.004420E+05  8.525753E+03  1.011808E+04  1.912902E+05 -2.157978E-11 -3.152656E-10
       156  17  5.687642E+05  4.807618E+04  3.889933E+04  1.750108E+05 -2.194612E-10 -2.618981E-10
       156  18  7.383553E+05  8.942074E+04  7.201107E+04  1.924025E+05  7.182134E-10 -1.283342E-10
       156  19  3.286431E+05 -8.256277E+03 -2.022743E+03  1.915563E+05  2.395988E+04 -2.313683E+03
       156  20  1.596997E+05 -4.727188E+04 -2.894411E+04  1.741638E+05  2.295988E+04 -1.374672E+04
       156  21 -9.181772E+03 -8.570088E+04 -5.636708E+04  1.904439E+05  2.195911E+04 -2.336713E+04
       156  22  3.645416E+05  1.346975E+02  4.047155E+03  1.914233E+05  2.622503E+02 -2.320118E+03
       156  23  3.642110E+05  4.032682E+02  4.977939E+03  1.745873E+05  2.746598E+03 -1.375084E+04
       156  24  3.645181E+05  1.863896E+03  7.824467E+03  1.914230E+05  5.229917E+03 -2.336928E+04
       156  25  4.004426E+05  8.525906E+03  1.011912E+04  1.912903E+05 -2.343671E+04 -2.326544E+03
       156  26  5.687646E+05  4.807647E+04  3.890026E+04  1.750110E+05 -1.747312E+04 -1.375500E+04
       156  27  7.383556E+05  8.942136E+04  7.201234E+04  1.924027E+05 -1.150903E+04 -2.337149E+04
       157   1 -1.166049E+05 -1.112019E+05 -7.384331E+04  1.919084E+05 -2.422625E+04  2.931645E+04
       157   2 -2.852314E+05 -1.458950E+05 -1.080321E+05  1.646947E+05  3.505692E+03  2.891852E+04
       157   3 -4.547318E+05 -1.700053E+05 -1.576211E+05  1.698671E+05  3.122145E+04  9.310238E+03
       157   4  3.655801E+05  1.999134E+03  1.003576E+04  1.911355E+05 -6.567566E+03  2.931738E+04
       157   5  3.627949E+05  8.878377E+03  1.782141E+04  1.749450E+05 -1.570747E+04  2.891516E+04
       157   6  3.655030E+05  3.273473E+04  3.580791E+04  1.911358E+05 -2.485548E+04  9.312782E+03
       157   7  8.479935E+05  1.151877E+05  9.390782E+04  1.903621E+05  1.110442E+04  2.931827E+04
       157   8  1.011225E+06  1.636272E+05  1.436565E+05  1.852061E+05 -3.494024E+04  2.891116E+04
       157   9  1.186364E+06  2.354300E+05  2.292026E+05  2.124327E+05 -8.100611E+04  9.311490E+03
       157  10 -1.166057E+05 -1.112029E+05 -7.384603E+04  1.919089E+05  3.765059E-10 -3.017001E-10
       157  11 -2.852316E+05 -1.458959E+05 -1.080337E+05  1.646946E+05  7.512750E-11 -4.489807E-10
       157  12 -4.547328E+05 -1.700056E+05 -1.576231E+05  1.698668E+05 -4.468010E-10 -2.648324E-10
       157  13  3.655798E+05  1.998199E+03  1.003406E+04  1.911357E+05  1.936299E-11 -2.307987E-10
       157  14  3.627944E+05  8.877413E+03  1.781937E+04  1.749453E+05 -3.852753E-11 -2.698798E-10
       157  15  3.655023E+05  3.273447E+04  3.580659E+04  1.911360E+05 -4.279740E-10 -1.618687E-11
       157  16  8.479931E+05  1.151868E+05  9.390598E+04  1.903618E+05  2.189451E-10 -1.084572E-10
       157  17  1.011224E+06  1.636260E+05  1.436526E+05  1.852069E+05  1.794974E-10 -4.694851E-11
       157  18  1.186357E+06  2.354282E+05  2.291901E+05  2.124334E+05  6.876600E-10 -1.712806E-10
       157  19 -1.166049E+05 -1.112019E+05 -7.384331E+04  1.919084E+05  2.422625E+04 -2.931645E+04
       157  20 -2.852314E+05 -1.458950E+05 -1.080321E+05  1.646947E+05 -3.505692E+03 -2.891852E+04
       157  21 -4.547318E+05 -1.700053E+05 -1.576211E+05  1.698671E+05 -3.122145E+04 -9.310238E+03
       157  22  3.655801E+05  1.999134E+03  1.003576E+04  1.911355E+05  6.567566E+03 -2.931738E+04
       157  23  3.627949E+05  8.878377E+03  1.782141E+04  1.749450E+05  1.570747E+04 -2.891516E+04
       157  24  3.655030E+05  3.273473E+04  3.580791E+04  1.911358E+05  2.485548E+04 -9.312782E+03
       157  25  8.479935E+05  1.151877E+05  9.390782E+04  1.903621E+05 -1.110442E+04 -2.931827E+04
       157  26  1.011225E+06  1.636272E+05  1.436565E+05  1.852061E+05  3.494024E+04 -2.891116E+04
       157  27  1.186364E+06  2.354300E+05  2.292026E+05  2.124327E+05  8.100611E+04 -9.311490E+03
       158   1 -2.454187E+05 -8.423835E+05 -2.398435E+05  2.922389E+05 -8.835617E+03 -7.513932E+04
       158   2 -1.577324E+05 -5.953411E+05 -1.409137E+05  2.586774E+05 -2.562343E+04 -2.699237E+04
       158   3 -9.267966E+04 -3.602003E+05 -7.902243E+04  2.717962E+05 -2.181079E+04  2.116724E+04
       158   4 -3.038707E+04  2.623027E+04 -3.354942E+04  2.728420E+05 -8.785623E+03 -2.310929E+04
       158   5 -8.057906E+03  2.882180E+04 -1.681728E+04  2.494889E+05 -2.560867E+04 -1.446006E+04
       158   6 -1.483988E+03  2.632859E+04 -9.662902E+03  2.728174E+05 -2.183920E+04 -5.818295E+03
       158   7  1.845932E+05  8.955440E+05  1.727024E+05  2.534175E+05 -8.738932E+03  2.899327E+04
       158   8  1.415932E+05  6.533578E+05  1.072603E+05  2.402909E+05 -2.559429E+04 -1.915390E+03
       158   9  8.970376E+04  4.130047E+05  5.969362E+04  2.738392E+05 -2.186768E+04 -3.282017E+04
       158  10 -2.454203E+05 -8.423896E+05 -2.398542E+05  2.922384E+05 -5.360398E-11  3.163445E-10
       158  11 -1.577333E+05 -5.953420E+05 -1.409163E+05  2.586768E+05  1.093213E-09  9.947583E-11
       158  12 -9.268029E+04 -3.602009E+05 -7.902417E+04  2.717966E+05  8.163397E-10  9.689503E-11
       158  13 -3.038729E+04  2.622967E+04 -3.355057E+04  2.728419E+05 -1.304902E-10 -9.380383E-12
       158  14 -8.058667E+03  2.882140E+04 -1.681890E+04  2.494886E+05  1.022311E-09  2.010360E-11
       158  15 -1.484509E+03  2.632843E+04 -9.663862E+03  2.728173E+05 -7.710367E-11 -1.867453E-10
       158  16  1.845929E+05  8.955431E+05  1.727007E+05  2.534177E+05  3.463342E-10 -4.633717E-10
       158  17  1.415925E+05  6.533576E+05  1.072591E+05  2.402909E+05  1.675789E-10  1.162395E-10
       158  18  8.970296E+04  4.130034E+05  5.969070E+04  2.738387E+05  4.131591E-10 -1.586538E-10
       158  19 -2.454187E+05 -8.423835E+05 -2.398435E+05  2.922389E+05  8.835617E+03  7.513932E+04
       158  20 -1.577324E+05 -5.953411E+05 -1.409137E+05  2.586774E+05  2.562343E+04  2.699237E+04
       158  21 -9.267966E+04 -3.602003E+05 -7.902243E+04  2.717962E+05  2.181079E+04 -2.116724E+04
       158  22 -3.038707E+04  2.623027E+04 -3.354942E+04  2.728420E+05  8.785623E+03  2.310929E+04
       158  23 -8.057906E+03  2.882180E+04 -1.681728E+04  2.494889E+05  2.560867E+04  1.446006E+04
       158  24 -1.483988E+03  2.632859E+04 -9.662902E+03  2.728174E+05  2.183920E+04  5.818295E+03
       158  25  1.845932E+05  8.955440E+05  1.727024E+05  2.534175E+05  8.738932E+03 -2.899327E+04
       158  26  1.415932E+05  6.533578E+05  1.072603E+05  2.402909E+05  2.559429E+04  1.915390E+03
       158  27  8.970376E+04  4.130047E+05  5.969362E+04  2.738392E+05  2.186768E+04  3.282017E+04
       159   1 -5.608788E+04 -2.047098E+05 -4.956939E+04  2.738733E+05 -1.289224E+04  2.154423E+04
       159   2  1.959350E+03  3.667678E+04 -3.952263E+03  2.492924E+05  6.718785E+02  2.415026E+04
       159   3  5.854860E+04  2.773482E+05  3.957963E+04  2.726679E+05  1.419399E+04  2.675734E+04
       159   4 -1.309997E+03  2.730185E+04 -7.706599E+03  2.731026E+05 -1.292124E+04 -4.530705E+03
       159   5 -1.254331E+02  2.769385E+04 -5.392462E+03  2.491238E+05  6.431182E+02 -1.848075E+03
       159   6 -4.095485E+02  2.730037E+04 -5.217171E+03  2.731017E+05  1.416538E+04  8.346670E+02
       159   7  5.346525E+04  2.593674E+05  3.415664E+04  2.723317E+05 -1.295016E+04 -3.061511E+04
       159   8 -2.209857E+03  1.871244E+04 -6.830124E+03  2.489552E+05  6.143717E+02 -2.784604E+04
       159   9 -5.937081E+04 -2.226851E+05 -5.001385E+04  2.735354E+05  1.413673E+04 -2.507787E+04
       159  10 -5.608819E+04 -2.047104E+05 -4.957057E+04  2.738735E+05  3.948728E-10  1.058457E-10
       159  11  1.959193E+03  3.667616E+04 -3.953359E+03  2.492924E+05  6.010320E-10  1.717906E-10
       159  12  5.854819E+04  2.773474E+05  3.957791E+04  2.726676E+05 -2.404711E-11  1.788616E-12
       159  13 -1.310181E+03  2.730178E+04 -7.706951E+03  2.731026E+05  2.103360E-10 -1.534839E-11
       159  14 -1.254344E+02  2.769384E+04 -5.392469E+03  2.491238E+05  2.583296E-10  7.384810E-12
       159  15 -4.097641E+02  2.730031E+04 -5.217550E+03  2.731017E+05  4.986512E-10 -1.924202E-10
       159  16  5.346482E+04  2.593663E+05  3.415457E+04  2.723313E+05  3.975306E-10 -2.733622E-10
       159  17 -2.210066E+03  1.871161E+04 -6.831582E+03  2.489553E+05  2.119386E-11  3.712856E-10
       159  18 -5.937119E+04 -2.226858E+05 -5.001541E+04  2.735356E+05 -1.001819E-10 -1.081915E-10
       159  19 -5.608788E+04 -2.047098E+05 -4.956939E+04  2.738733E+05  1.289224E+04 -2.154423E+04
       159  20  1.959350E+03  3.667678E+04 -3.952263E+03  2.492924E+05 -6.718785E+02 -2.415026E+04
       159  21  5.854860E+04  2.773482E+05  3.957963E+04  2.726679E+05 -1.419399E+04 -2.675734E+04
       159  22 -1.309997E+03  2.730185E+04 -7.706599E+03  2.731026E+05  1.292124E+04  4.530705E+03
       159  23 -1.254331E+02  2.769385E+04 -5.392462E+03  2.491238E+05 -6.431182E+02  1.848075E+03
       159  24 -4.095485E+02  2.730037E+04 -5.217171E+03  2.731017E+05 -1.416538E+04 -8.346670E+02
       159  25  5.346525E+04  2.593674E+05  3.415664E+04  2.723317E+05  1.295016E+04  3.061511E+04
       159  26 -2.209857E+03  1.871244E+04 -6.830124E+03  2.489552E+05 -6.143717E+02  2.784604E+04
       159  27 -5.937081E+04 -2.226851E+05 -5.001385E+04  2.735354E+05 -1.413673E+04  2.507787E+04
       160   1  9.486835E+04  4.315911E+05  6.660572E+04  2.733899E+05  2.307862E+04  2.853142E+04
       160   2  1.502436E+05  6.705633E+05  1.188415E+05  2.452681E+05  2.652833E+04 -7.401639E+03
       160   3  2.051216E+05  9.141208E+05  1.943220E+05  2.637911E+05  8.997023E+03 -4.334082E+04
       160   4 -5.134211E+02  2.690897E+04 -5.729475E+03  2.728105E+05  2.305057E+04  1.670918E+03
       160   5 -3.663852E+03  2.808911E+04 -8.539750E+03  2.494915E+05  2.654356E+04  6.055070E+03
       160   6 -1.430526E+04  2.680763E+04 -1.608948E+04  2.728221E+05  9.044976E+03  1.044667E+04
       160   7 -9.590388E+04 -3.776119E+05 -7.806820E+04  2.722315E+05  2.302255E+04 -2.517258E+04
       160   8 -1.575962E+05 -6.139902E+05 -1.359407E+05  2.537103E+05  2.655898E+04  1.949815E+04
       160   9 -2.337868E+05 -8.597767E+05 -2.265448E+05  2.818399E+05  9.094540E+03  6.415776E+04
       160  10  9.486756E+04  4.315900E+05  6.660319E+04  2.733894E+05 -2.826492E-10  4.760837E-10
       160  11  1.502428E+05  6.705631E+05  1.188400E+05  2.452682E+05 -4.086266E-10  1.301318E-10
       160  12  2.051210E+05  9.141187E+05  1.943183E+05  2.637915E+05 -3.848439E-12 -2.058419E-10
       160  13 -5.139924E+02  2.690883E+04 -5.730479E+03  2.728105E+05 -2.489239E-10 -1.746300E-11
       160  14 -3.664619E+03  2.808889E+04 -8.541142E+03  2.494914E+05  3.173950E-10  5.820881E-12
       160  15 -1.430538E+04  2.680749E+04 -1.608984E+04  2.728221E+05  6.884859E-12 -1.181306E-10
       160  16 -9.590462E+04 -3.776127E+05 -7.807039E+04  2.722319E+05 -4.193650E-10 -7.588815E-10
       160  17 -1.575971E+05 -6.139908E+05 -1.359427E+05  2.537099E+05  3.475742E-10  3.487860E-10
       160  18 -2.337880E+05 -8.597811E+05 -2.265527E+05  2.818394E+05  3.978981E-10  1.532604E-10
       160  19  9.486835E+04  4.315911E+05  6.660572E+04  2.733899E+05 -2.307862E+04 -2.853142E+04
       160  20  1.502436E+05  6.705633E+05  1.188415E+05  2.452681E+05 -2.652833E+04  7.401639E+03
       160  21  2.051216E+05  9.141208E+05  1.943220E+05  2.637911E+05 -8.997023E+03  4.334082E+04
       160  22 -5.134211E+02  2.690897E+04 -5.729475E+03  2.728105E+05 -2.305057E+04 -1.670918E+03
       160  23 -3.663852E+03  2.808911E+04 -8.539750E+03  2.494915E+05 -2.654356E+04 -6.055070E+03
       160  24 -1.430526E+04  2.680763E+04 -1.608948E+04  2.728221E+05 -9.044976E+03 -1.044667E+04
       160  25 -9.590388E+04 -3.776119E+05 -7.806820E+04  2.722315E+05 -2.302255E+04  2.517258E+04
       160  26 -1.575962E+05 -6.139902E+05 -1.359407E+05  2.537103E+05 -2.655898E+04 -1.949815E+04
       160  27 -2.337868E+05 -8.597767E+05 -2.265448E+05  2.818399E+05 -9.094540E+03 -6.415776E+04
       161   1  1.214975E+06  2.382234E+05  2.337212E+05  1.981185E+05  9.042377E+04 -8.950604E+03
       161   2  1.060086E+06  1.609366E+05  1.458117E+05  1.678901E+05  4.254135E+04 -2.809783E+04
       161   3  9.191655E+05  1.143716E+05  9.671926E+04  1.658826E+05 -5.321367E+03 -2.928719E+04
       161   4  4.436471E+05  4.782576E+04  5.225704E+04  1.670426E+05  3.631938E+04 -8.951420E+03
       161   5  4.396947E+05  1.300067E+04  2.597429E+04  1.529325E+05  2.298357E+04 -2.810126E+04
       161   6  4.437167E+05  2.925525E+03  1.456038E+04  1.670409E+05  9.655262E+03 -2.928747E+04
       161   7 -3.271257E+05 -1.426091E+05 -1.292365E+05  1.360055E+05 -1.771831E+04 -8.946837E+03
       161   8 -1.803258E+05 -1.349571E+05 -9.387948E+04  1.379902E+05  3.444854E+03 -2.810376E+04
       161   9 -3.151006E+04 -1.085325E+05 -6.760544E+04  1.681983E+05  2.462079E+04 -2.928770E+04
       161  10  1.214966E+06  2.382211E+05  2.337058E+05  1.981191E+05 -1.004143E-10  1.084642E-10
       161  11  1.060084E+06  1.609353E+05  1.458068E+05  1.678911E+05  6.534056E-10 -1.465677E-10
       161  12  9.191652E+05  1.143706E+05  9.671760E+04  1.658825E+05  3.547007E-10 -1.843122E-11
       161  13  4.436457E+05  4.782532E+04  5.225441E+04  1.670429E+05 -9.013319E-11 -2.157093E-10
       161  14  4.396939E+05  1.299968E+04  2.597181E+04  1.529330E+05  3.861294E-10 -4.233316E-11
       161  15  4.437164E+05  2.924579E+03  1.455860E+04  1.670412E+05 -8.476869E-10  8.375703E-11
       161  16 -3.271261E+05 -1.426093E+05 -1.292373E+05  1.360054E+05 -5.401288E-11 -2.200951E-10
       161  17 -1.803260E+05 -1.349580E+05 -9.388098E+04  1.379902E+05 -2.926421E-10 -3.812518E-11
       161  18 -3.151094E+04 -1.085336E+05 -6.760819E+04  1.681989E+05 -6.177716E-10  1.057062E-10
       161  19  1.214975E+06  2.382234E+05  2.337212E+05  1.981185E+05 -9.042377E+04  8.950604E+03
       161  20  1.060086E+06  1.609366E+05  1.458117E+05  1.678901E+05 -4.254135E+04  2.809783E+04
       161  21  9.191655E+05  1.143716E+05  9.671926E+04  1.658826E+05  5.321367E+03  2.928719E+04
       161  22  4.436471E+05  4.782576E+04  5.225704E+04  1.670426E+05 -3.631938E+04  8.951420E+03
       161  23  4.396947E+05  1.300067E+04  2.597429E+04  1.529325E+05 -2.298357E+04  2.810126E+04
       161  24  4.437167E+05  2.925525E+03  1.456038E+04  1.670409E+05 -9.655262E+03  2.928747E+04
       161  25 -3.271257E+05 -1.426091E+05 -1.292365E+05  1.360055E+05  1.771831E+04  8.946837E+03
       161  26 -1.803258E+05 -1.349571E+05 -9.387948E+04  1.379902E+05 -3.444854E+03  2.810376E+04
       161  27 -3.151006E+04 -1.085325E+05 -6.760544E+04  1.681983E+05 -2.462079E+04  2.928770E+04
       162   1  8.226356E+05  9.171476E+04  7.610858E+04  1.687076E+05 -6.380042E+03 -2.419613E+04
       162   2  6.742017E+05  5.465692E+04  4.515193E+04  1.531932E+05 -1.321257E+04 -1.599639E+04
       162   3  5.272676E+05  1.989625E+04  1.921649E+04  1.670997E+05 -2.004464E+04 -6.074664E+03
       162   4  4.421603E+05  2.714243E+03  1.130409E+04  1.673094E+05  7.723250E+03 -2.419525E+04
       162   5  4.417197E+05  5.722261E+02  7.061388E+03  1.525989E+05  4.200234E+03 -1.599377E+04
       162   6  4.421842E+05  1.548538E+02  5.544470E+03  1.673098E+05  6.761549E+02 -6.069970E+03
       162   7  6.182768E+04 -8.629383E+04 -5.350442E+04  1.659120E+05  2.181818E+04 -2.419444E+04
       162   8  2.092918E+05 -5.351507E+04 -3.102957E+04  1.520048E+05  2.160675E+04 -1.599119E+04
       162   9  3.571089E+05 -1.958667E+04 -8.126127E+03  1.675198E+05  2.139421E+04 -6.065260E+03
       162  10  8.226354E+05  9.171412E+04  7.610740E+04  1.687074E+05  3.986367E-10  2.567289E-11
       162  11  6.742014E+05  5.465660E+04  4.515112E+04  1.531931E+05  6.406419E-10  1.766507E-10
       162  12  5.272671E+05  1.989610E+04  1.921566E+04  1.670996E+05  3.403978E-10 -1.035968E-10
       162  13  4.421601E+05  2.713598E+03  1.130287E+04  1.673095E+05 -1.438901E-10  4.781129E-11
       162  14  4.417196E+05  5.719466E+02  7.060874E+03  1.525989E+05  3.619441E-10  5.650568E-11
       162  15  4.421842E+05  1.548141E+02  5.544400E+03  1.673098E+05 -2.089153E-10 -1.940434E-10
       162  16  6.182701E+04 -8.629459E+04 -5.350642E+04  1.659125E+05 -3.820137E-10  1.694972E-11
       162  17  2.092913E+05 -5.351547E+04 -3.103093E+04  1.520050E+05 -2.733638E-10 -2.162486E-10
       162  18  3.571084E+05 -1.958683E+04 -8.127056E+03  1.675199E+05  1.238400E-10 -1.327179E-10
       162  19  8.226356E+05  9.171476E+04  7.610858E+04  1.687076E+05  6.380042E+03  2.419613E+04
       162  20  6.742017E+05  5.465692E+04  4.515193E+04  1.531932E+05  1.321257E+04  1.599639E+04
       162  21  5.272676E+05  1.989625E+04  1.921649E+04  1.670997E+05  2.004464E+04  6.074664E+03
       162  22  4.421603E+05  2.714243E+03  1.130409E+04  1.673094E+05 -7.723250E+03  2.419525E+04
       162  23  4.417197E+05  5.722261E+02  7.061388E+03  1.525989E+05 -4.200234E+03  1.599377E+04
       162  24  4.421842E+05  1.548538E+02  5.544470E+03  1.673098E+05 -6.761549E+02  6.069970E+03
       162  25  6.182768E+04 -8.629383E+04 -5.350442E+04  1.659120E+05 -2.181818E+04  2.419444E+04
       162  26  2.092918E+05 -5.351507E+04 -3.102957E+04  1.520048E+05 -2.160675E+04  1.599119E+04
       162  27  3.571089E+05 -1.958667E+04 -8.126127E+03  1.675198E+05 -2.139421E+04  6.065260E+03
       163   1  4.331747E+05 -2.004615E+03  3.656368E+03  1.674919E+05 -2.098759E+04  3.382526E+02
       163   2  2.853557E+05 -3.596224E+04 -1.944866E+04  1.520378E+05 -2.138596E+04  1.035701E+04
       163   3  1.378956E+05 -6.883710E+04 -4.202123E+04  1.660171E+05 -2.178359E+04  1.884947E+04
       163   4  4.421719E+05  1.576891E+02  5.474865E+03  1.673123E+05 -2.771729E+02  3.431098E+02
       163   5  4.417420E+05  5.282599E+02  6.679501E+03  1.525958E+05 -3.610058E+03  1.036026E+04
       163   6  4.421556E+05  2.490683E+03  1.045149E+04  1.673119E+05 -6.942242E+03  1.885133E+04
       163   7  4.511700E+05  2.320218E+03  7.294970E+03  1.671327E+05  2.043354E+04  3.479550E+02
       163   8  5.981531E+05  3.701765E+04  3.280810E+04  1.531539E+05  1.417017E+04  1.036354E+04
       163   9  7.465069E+05  7.381362E+04  6.292186E+04  1.686074E+05  7.906149E+03  1.885325E+04
       163  10  4.331742E+05 -2.004733E+03  3.655540E+03  1.674919E+05 -4.576544E-10 -2.335390E-10
       163  11  2.853552E+05 -3.596248E+04 -1.944972E+04  1.520380E+05 -2.390498E-10 -1.100521E-10
       163  12  1.378950E+05 -6.883761E+04 -4.202279E+04  1.660174E+05 -6.658053E-11  1.024344E-10
       163  13  4.421719E+05  1.576890E+02  5.474865E+03  1.673123E+05 -1.717546E-10 -1.751532E-10
       163  14  4.417420E+05  5.281411E+02  6.679275E+03  1.525958E+05 -1.395911E-10  1.135057E-10
       163  15  4.421555E+05  2.490288E+03  1.045073E+04  1.673120E+05 -4.725657E-10  2.347429E-10
       163  16  4.511696E+05  2.320106E+03  7.294185E+03  1.671326E+05  1.088121E-10 -6.637851E-11
       163  17  5.981529E+05  3.701748E+04  3.280752E+04  1.531538E+05 -4.467366E-11  9.805280E-11
       163  18  7.465068E+05  7.381323E+04  6.292108E+04  1.686073E+05  2.518898E-10  5.445279E-10
       163  19  4.331747E+05 -2.004615E+03  3.656368E+03  1.674919E+05  2.098759E+04 -3.382526E+02
       163  20  2.853557E+05 -3.596224E+04 -1.944866E+04  1.520378E+05  2.138596E+04 -1.035701E+04
       163  21  1.378956E+05 -6.883710E+04 -4.202123E+04  1.660171E+05  2.178359E+04 -1.884947E+04
       163  22  4.421719E+05  1.576891E+02  5.474865E+03  1.673123E+05  2.771729E+02 -3.431098E+02
       163  23  4.417420E+05  5.282599E+02  6.679501E+03  1.525958E+05  3.610058E+03 -1.036026E+04
       163  24  4.421556E+05  2.490683E+03  1.045149E+04  1.673119E+05  6.942242E+03 -1.885133E+04
       163  25  4.511700E+05  2.320218E+03  7.294970E+03  1.671327E+05 -2.043354E+04 -3.479550E+02
       163  26  5.981531E+05  3.701765E+04  3.280810E+04  1.531539E+05 -1.417017E+04 -1.036354E+04
       163  27  7.465069E+05  7.381362E+04  6.292186E+04  1.686074E+05 -7.906149E+03 -1.885325E+04
       164   1  4.451251E+04 -9.102783E+04 -5.622637E+04  1.681034E+05 -2.435550E+04  2.409275E+04
       164   2 -1.042058E+05 -1.180913E+05 -8.212135E+04  1.392261E+05 -5.267719E+03  2.409294E+04
       164   3 -2.510500E+05 -1.279773E+05 -1.161410E+05  1.386899E+05  1.381020E+04  7.799939E+03
       164   4  4.435737E+05  2.686872E+03  1.339053E+04  1.670676E+05 -8.727017E+03  2.409377E+04
       164   5  4.399037E+05  1.188936E+04  2.376466E+04  1.528992E+05 -2.092138E+04  2.409027E+04
       164   6  4.435122E+05  4.369057E+04  4.772967E+04  1.670677E+05 -3.312179E+04  7.801051E+03
       164   7  8.427914E+05  9.639307E+04  8.300270E+04  1.660311E+05  6.911211E+03  2.409474E+04
       164   8  9.842981E+05  1.418531E+05  1.296376E+05  1.665845E+05 -3.658845E+04  2.408692E+04
       164   9  1.138524E+06  2.153282E+05  2.115758E+05  1.954773E+05 -8.010598E+04  7.797877E+03
       164  10  4.451172E+04 -9.102861E+04 -5.622858E+04  1.681039E+05  4.763532E-10  1.156060E-10
       164  11 -1.042060E+05 -1.180919E+05 -8.212250E+04  1.392262E+05 -7.684661E-11  2.296656E-10
       164  12 -2.510502E+05 -1.279774E+05 -1.161415E+05  1.386898E+05  2.226383E-10  2.136225E-10
       164  13  4.435735E+05  2.686228E+03  1.338929E+04  1.670678E+05 -4.127636E-12  3.516565E-10
       164  14  4.399030E+05  1.188862E+04  2.376274E+04  1.528996E+05  2.368777E-11  2.600454E-10
       164  15  4.435110E+05  4.369021E+04  4.772750E+04  1.670679E+05  4.485547E-11 -1.244442E-10
       164  16  8.427912E+05  9.639244E+04  8.300152E+04  1.660310E+05 -1.758450E-10  5.877418E-10
       164  17  9.842965E+05  1.418521E+05  1.296340E+05  1.665852E+05 -1.365004E-10  2.793444E-10
       164  18  1.138518E+06  2.153264E+05  2.115637E+05  1.954778E+05  4.963209E-12 -3.406722E-11
       164  19  4.451251E+04 -9.102783E+04 -5.622637E+04  1.681034E+05  2.435550E+04 -2.409275E+04
       164  20 -1.042058E+05 -1.180913E+05 -8.212135E+04  1.392261E+05  5.267719E+03 -2.409294E+04
       164  21 -2.510500E+05 -1.279773E+05 -1.161410E+05  1.386899E+05 -1.381020E+04 -7.799939E+03
       164  22  4.435737E+05  2.686872E+03  1.339053E+04  1.670676E+05  8.727017E+03 -2.409377E+04
       164  23  4.399037E+05  1.188936E+04  2.376466E+04  1.528992E+05  2.092138E+04 -2.409027E+04
       164  24  4.435122E+05  4.369057E+04  4.772967E+04  1.670677E+05  3.312179E+04 -7.801051E+03
       164  25  8.427914E+05  9.639307E+04  8.300270E+04  1.660311E+05 -6.911211E+03 -2.409474E+04
       164  26  9.842981E+05  1.418531E+05  1.296376E+05  1.665845E+05  3.658845E+04 -2.408692E+04
       164  27  1.138524E+06  2.153282E+05  2.115758E+05  1.954773E+05  8.010598E+04 -7.797877E+03
       165   1 -2.146165E+05 -7.171234E+05 -2.107891E+05  2.241594E+05 -7.629972E+03 -7.443662E+04
       165   2 -1.379933E+05 -5.347882E+05 -1.258449E+05  1.942326E+05 -2.278978E+04 -3.149773E+04
       165   3 -8.680861E+04 -3.643948E+05 -7.523873E+04  1.983200E+05 -2.116868E+04  1.144896E+04
       165   4 -3.836532E+04 -4.695292E+03 -4.207895E+04  1.995215E+05 -7.592773E+03 -2.920897E+04
       165   5 -1.033573E+04 -1.478311E+03 -2.093153E+04  1.825000E+05 -2.277695E+04 -1.844837E+04
       165   6 -2.140718E+03 -4.633591E+03 -1.175151E+04  1.994949E+05 -2.118506E+04 -7.693489E+03
       165   7  1.378528E+05  7.082052E+05  1.266040E+05  1.748549E+05 -7.559195E+03  1.607037E+04
       165   8  1.173053E+05  5.321048E+05  8.396871E+04  1.707570E+05 -2.276462E+04 -5.388020E+03
       165   9  8.252028E+04  3.552550E+05  5.173234E+04  2.006705E+05 -2.120151E+04 -2.684671E+04
       165  10 -2.146181E+05 -7.171294E+05 -2.107997E+05  2.241590E+05 -3.767538E-10 -1.462769E-10
       165  11 -1.379941E+05 -5.347894E+05 -1.258477E+05  1.942320E+05  8.562302E-11  2.712008E-10
       165  12 -8.680912E+04 -3.643950E+05 -7.523982E+04  1.983202E+05  4.851757E-10  8.946412E-10
       165  13 -3.836561E+04 -4.696224E+03 -4.208066E+04  1.995213E+05  4.815816E-11  4.544375E-10
       165  14 -1.033638E+04 -1.478816E+03 -2.093315E+04  1.824997E+05  5.387800E-11 -5.662204E-10
       165  15 -2.141216E+03 -4.633775E+03 -1.175247E+04  1.994948E+05 -5.876828E-11  1.502717E-09
       165  16  1.378527E+05  7.082050E+05  1.266034E+05  1.748550E+05  1.626197E-11  2.258645E-10
       165  17  1.173047E+05  5.321046E+05  8.396769E+04  1.707569E+05 -9.353601E-11 -1.154190E-09
       165  18  8.251960E+04  3.552541E+05  5.173014E+04  2.006700E+05  3.745203E-10 -1.585685E-09
       165  19 -2.146165E+05 -7.171234E+05 -2.107891E+05  2.241594E+05  7.629972E+03  7.443662E+04
       165  20 -1.379933E+05 -5.347882E+05 -1.258449E+05  1.942326E+05  2.278978E+04  3.149773E+04
       165  21 -8.680861E+04 -3.643948E+05 -7.523873E+04  1.983200E+05  2.116868E+04 -1.144896E+04
       165  22 -3.836532E+04 -4.695292E+03 -4.207895E+04  1.995215E+05  7.592773E+03  2.920897E+04
       165  23 -1.033573E+04 -1.478311E+03 -2.093153E+04  1.825000E+05  2.277695E+04  1.844837E+04
       165  24 -2.140718E+03 -4.633591E+03 -1.175151E+04  1.994949E+05  2.118506E+04  7.693489E+03
       165  25  1.378528E+05  7.082052E+05  1.266040E+05  1.748549E+05  7.559195E+03 -1.607037E+04
       165  26  1.173053E+05  5.321048E+05  8.396871E+04  1.707570E+05  2.276462E+04  5.388020E+03
       165  27  8.252028E+04  3.552550E+05  5.173234E+04  2.006705E+05  2.120151E+04  2.684671E+04
       166   1 -5.991168E+04 -2.500469E+05 -5.233181E+04  2.006988E+05 -1.478248E+04  1.223719E+04
       166   2 -1.664928E+04 -7.331106E+04 -1.707111E+04  1.824366E+05 -5.038861E+03  1.576118E+04
       166   3  2.489181E+04  1.025180E+05  1.544870E+04  1.992513E+05  5.032957E+03  1.928546E+04
       166   4 -1.938435E+03 -3.388568E+03 -9.150531E+03  1.997327E+05 -1.479929E+04 -6.145952E+03
       166   5 -3.274225E+02 -2.970841E+03 -5.802739E+03  1.821935E+05 -5.056672E+03 -3.253493E+03
       166   6 -3.264120E+02 -3.380293E+03 -4.756822E+03  1.997313E+05  5.014094E+03 -3.616929E+02
       166   7  5.603168E+04  2.433300E+05  3.402984E+04  1.987662E+05 -1.481605E+04 -2.453618E+04
       166   8  1.599438E+04  6.737507E+04  5.466859E+03  1.819504E+05 -5.074467E+03 -2.227025E+04
       166   9 -2.554508E+04 -1.092670E+05 -2.496140E+04  2.002111E+05  4.995199E+03 -2.000557E+04
       166  10 -5.991195E+04 -2.500471E+05 -5.233250E+04  2.006990E+05  4.475091E-10 -7.902071E-10
       166  11 -1.664937E+04 -7.331133E+04 -1.707162E+04  1.824366E+05 -6.401646E-11 -2.260737E-10
       166  12  2.489168E+04  1.025176E+05  1.544795E+04  1.992512E+05 -1.037003E-10  1.290837E-10
       166  13 -1.938681E+03 -3.388668E+03 -9.151013E+03  1.997326E+05  6.198245E-10  6.608565E-10
       166  14 -3.274528E+02 -2.970859E+03 -5.802807E+03  1.821935E+05 -1.806386E-10 -6.857561E-10
       166  15 -3.264391E+02 -3.380300E+03 -4.756869E+03  1.997313E+05  2.028956E-10  1.653677E-09
       166  16  5.603128E+04  2.433293E+05  3.402830E+04  1.987659E+05  4.458492E-10  7.733410E-10
       166  17  1.599422E+04  6.737453E+04  5.465879E+03  1.819503E+05  1.046430E-09 -5.988718E-10
       166  18 -2.554521E+04 -1.092674E+05 -2.496220E+04  2.002112E+05 -7.433719E-11 -9.444087E-10
       166  19 -5.991168E+04 -2.500469E+05 -5.233181E+04  2.006988E+05  1.478248E+04 -1.223719E+04
       166  20 -1.664928E+04 -7.331106E+04 -1.707111E+04  1.824366E+05  5.038861E+03 -1.576118E+04
       166  21  2.489181E+04  1.025180E+05  1.544870E+04  1.992513E+05 -5.032957E+03 -1.928546E+04
       166  22 -1.938435E+03 -3.388568E+03 -9.150531E+03  1.997327E+05  1.479929E+04  6.145952E+03
       166  23 -3.274225E+02 -2.970841E+03 -5.802739E+03  1.821935E+05  5.056672E+03  3.253493E+03
       166  24 -3.264120E+02 -3.380293E+03 -4.756822E+03  1.997313E+05 -5.014094E+03  3.616929E+02
       166  25  5.603168E+04  2.433300E+05  3.402984E+04  1.987662E+05  1.481605E+04  2.453618E+04
       166  26  1.599438E+04  6.737507E+04  5.466859E+03  1.819504E+05  5.074467E+03  2.227025E+04
       166  27 -2.554508E+04 -1.092670E+05 -2.496140E+04  2.002111E+05 -4.995199E+03  2.000557E+04
       167   1  5.141102E+04  2.152987E+05  3.534434E+04  1.998439E+05  1.166962E+04  2.062939E+04
       167   2  9.185972E+04  3.903161E+05  7.270614E+04  1.793822E+05  1.536715E+04 -2.330428E+03
       167   3  1.315883E+05  5.681402E+05  1.248199E+05  1.931676E+05  5.428148E+03 -2.529050E+04
       167   4 -3.935416E+02 -3.595868E+03 -4.810635E+03  1.995469E+05  1.165076E+04  3.892393E+02
       167   5 -2.531414E+03 -2.735381E+03 -6.321593E+03  1.824258E+05  1.537311E+04  3.623561E+03
       167   6 -9.934307E+03 -3.641358E+03 -1.126573E+04  1.995542E+05  5.454699E+03  6.863812E+03
       167   7 -5.220060E+04 -2.224430E+05 -4.496604E+04  1.992501E+05  1.163191E+04 -1.984396E+04
       167   8 -9.693203E+04 -3.956395E+05 -8.535707E+04  1.854675E+05  1.537913E+04  9.573856E+03
       167   9 -1.514797E+05 -5.751208E+05 -1.473704E+05  2.059348E+05  5.481928E+03  3.898867E+04
       167  10  5.141076E+04  2.152982E+05  3.534329E+04  1.998437E+05  1.010736E-11 -3.078975E-10
       167  11  9.185947E+04  3.903160E+05  7.270568E+04  1.793822E+05 -6.586674E-10 -1.661266E-12
       167  12  1.315881E+05  5.681395E+05  1.248187E+05  1.931677E+05 -1.438614E-10  3.459008E-10
       167  13 -3.936874E+02 -3.595904E+03 -4.810890E+03  1.995469E+05 -2.146240E-10  6.880858E-10
       167  14 -2.531671E+03 -2.735458E+03 -6.322062E+03  1.824258E+05  2.147836E-11 -6.417627E-10
       167  15 -9.934352E+03 -3.641416E+03 -1.126587E+04  1.995542E+05  6.385167E-11  1.276587E-09
       167  16 -5.220086E+04 -2.224435E+05 -4.496703E+04  1.992503E+05  2.737996E-10  2.946776E-10
       167  17 -9.693231E+04 -3.956396E+05 -8.535769E+04  1.854674E+05  1.604342E-10 -8.090057E-10
       167  18 -1.514802E+05 -5.751224E+05 -1.473733E+05  2.059346E+05  2.255232E-10 -1.035763E-09
       167  19  5.141102E+04  2.152987E+05  3.534434E+04  1.998439E+05 -1.166962E+04 -2.062939E+04
       167  20  9.185972E+04  3.903161E+05  7.270614E+04  1.793822E+05 -1.536715E+04  2.330428E+03
       167  21  1.315883E+05  5.681402E+05  1.248199E+05  1.931676E+05 -5.428148E+03  2.529050E+04
       167  22 -3.935416E+02 -3.595868E+03 -4.810635E+03  1.995469E+05 -1.165076E+04 -3.892393E+02
       167  23 -2.531414E+03 -2.735381E+03 -6.321593E+03  1.824258E+05 -1.537311E+04 -3.623561E+03
       167  24 -9.934307E+03 -3.641358E+03 -1.126573E+04  1.995542E+05 -5.454699E+03 -6.863812E+03
       167  25 -5.220060E+04 -2.224430E+05 -4.496604E+04  1.992501E+05 -1.163191E+04  1.984396E+04
       167  26 -9.693203E+04 -3.956395E+05 -8.535707E+04  1.854675E+05 -1.537913E+04 -9.573856E+03
       167  27 -1.514797E+05 -5.751208E+05 -1.473704E+05  2.059348E+05 -5.481928E+03 -3.898867E+04
       168   1  1.442617E+06  2.821555E+05  2.785087E+05  2.063583E+05  1.175091E+05 -1.025057E+04
       168   2  1.292226E+06  1.878027E+05  1.743026E+05  1.685878E+05  5.965569E+04 -3.280905E+04
       168   3  1.160403E+06  1.374003E+05  1.186970E+05  1.575449E+05  1.824939E+03 -3.572645E+04
       168   4  5.923260E+05  7.240747E+04  7.900100E+04  1.593132E+05  5.520361E+04 -1.025865E+04
       168   5  5.863594E+05  1.973096E+04  3.904872E+04  1.459534E+05  3.515150E+04 -3.281610E+04
       168   6  5.924106E+05  4.479362E+03  2.150391E+04  1.593165E+05  1.510680E+04 -3.572677E+04
       168   7 -2.572873E+05 -1.373816E+05 -1.205404E+05  1.123326E+05 -7.017285E+03 -1.025731E+04
       168   8 -1.190257E+05 -1.483680E+05 -9.622546E+04  1.233451E+05  1.067447E+04 -3.282138E+04
       168   9  2.473542E+04 -1.284587E+05 -7.569932E+04  1.610864E+05  2.837690E+04 -3.572701E+04
       168  10  1.442602E+06  2.821517E+05  2.784826E+05  2.063593E+05 -8.287494E-10  1.955271E-10
       168  11  1.292222E+06  1.878006E+05  1.742939E+05  1.685894E+05 -1.831419E-10  7.904561E-11
       168  12  1.160402E+06  1.373989E+05  1.186946E+05  1.575450E+05 -3.362276E-10 -3.147002E-10
       168  13  5.923227E+05  7.240654E+04  7.899508E+04  1.593136E+05  4.173334E-10 -2.795860E-10
       168  14  5.863577E+05  1.972947E+04  3.904437E+04  1.459543E+05  3.911152E-10  3.283728E-11
       168  15  5.924100E+05  4.477930E+03  2.150108E+04  1.593169E+05  6.759880E-11 -5.691850E-11
       168  16 -2.572874E+05 -1.373817E+05 -1.205407E+05  1.123326E+05  2.832451E-10 -2.410287E-10
       168  17 -1.190261E+05 -1.483692E+05 -9.622770E+04  1.233454E+05  2.321315E-10  1.202349E-10
       168  18  2.473422E+04 -1.284602E+05 -7.570323E+04  1.610872E+05 -8.406898E-11  6.074560E-11
       168  19  1.442617E+06  2.821555E+05  2.785087E+05  2.063583E+05 -1.175091E+05  1.025057E+04
       168  20  1.292226E+06  1.878027E+05  1.743026E+05  1.685878E+05 -5.965569E+04  3.280905E+04
       168  21  1.160403E+06  1.374003E+05  1.186970E+05  1.575449E+05 -1.824939E+03  3.572645E+04
       168  22  5.923260E+05  7.240747E+04  7.900100E+04  1.593132E+05 -5.520361E+04  1.025865E+04
       168  23  5.863594E+05  1.973096E+04  3.904872E+04  1.459534E+05 -3.515150E+04  3.281610E+04
       168  24  5.924106E+05  4.479362E+03  2.150391E+04  1.593165E+05 -1.510680E+04  3.572677E+04
       168  25 -2.572873E+05 -1.373816E+05 -1.205404E+05  1.123326E+05  7.017285E+03  1.025731E+04
       168  26 -1.190257E+05 -1.483680E+05 -9.622546E+04  1.233451E+05 -1.067447E+04  3.282138E+04
       168  27  2.473542E+04 -1.284587E+05 -7.569932E+04  1.610864E+05 -2.837690E+04  3.572701E+04
       169   1  1.067299E+06  1.155856E+05  9.671373E+04  1.616784E+05 -2.974529E+01 -3.109922E+04
       169   2  9.254971E+05  7.892808E+04  6.370032E+04  1.464310E+05 -8.449899E+03 -2.371908E+04
       169   3  7.856138E+05  4.543758E+04  3.695583E+04  1.592160E+05 -1.686990E+04 -1.440266E+04
       169   4  5.900348E+05  4.158252E+03  1.638766E+04  1.596089E+05  1.229556E+04 -3.109836E+04
       169   5  5.894254E+05  9.125234E+02  9.402229E+03  1.455928E+05  7.599653E+03 -2.371563E+04
       169   6  5.900686E+05  1.895536E+02  6.103921E+03  1.596100E+05  2.902032E+03 -1.439610E+04
       169   7  1.129954E+05 -1.072809E+05 -6.394505E+04  1.575409E+05  2.461171E+04 -3.109758E+04
       169   8  2.534662E+05 -7.710861E+04 -4.489798E+04  1.447552E+05  2.364083E+04 -2.371222E+04
       169   9  3.945622E+05 -4.506016E+04 -2.474747E+04  1.600039E+05  2.266797E+04 -1.438951E+04
       169  10  1.067298E+06  1.155846E+05  9.671191E+04  1.616784E+05 -5.548301E-10 -2.505693E-10
       169  11  9.254968E+05  7.892746E+04  6.369913E+04  1.464308E+05 -8.780724E-10 -4.736656E-10
       169  12  7.856134E+05  4.543728E+04  3.695490E+04  1.592158E+05  2.519796E-10 -5.573475E-11
       169  13  5.900344E+05  4.157172E+03  1.638556E+04  1.596092E+05 -2.582883E-14 -1.887986E-10
       169  14  5.894252E+05  9.119037E+02  9.401063E+03  1.455930E+05  6.187124E-11 -2.994735E-10
       169  15  5.900685E+05  1.893287E+02  6.103516E+03  1.596101E+05  7.630379E-11 -2.198652E-10
       169  16  1.129945E+05 -1.072821E+05 -6.394800E+04  1.575416E+05  6.413379E-10 -1.974891E-10
       169  17  2.534654E+05 -7.710936E+04 -4.490009E+04  1.447556E+05 -2.372479E-11 -3.320148E-10
       169  18  3.945616E+05 -4.506052E+04 -2.474882E+04  1.600041E+05 -1.631827E-10 -5.276532E-11
       169  19  1.067299E+06  1.155856E+05  9.671373E+04  1.616784E+05  2.974529E+01  3.109922E+04
       169  20  9.254971E+05  7.892808E+04  6.370032E+04  1.464310E+05  8.449899E+03  2.371908E+04
       169  21  7.856138E+05  4.543758E+04  3.695583E+04  1.592160E+05  1.686990E+04  1.440266E+04
       169  22  5.900348E+05  4.158252E+03  1.638766E+04  1.596089E+05 -1.229556E+04  3.109836E+04
       169  23  5.894254E+05  9.125234E+02  9.402229E+03  1.455928E+05 -7.599653E+03  2.371563E+04
       169  24  5.900686E+05  1.895536E+02  6.103921E+03  1.596100E+05 -2.902032E+03  1.439610E+04
       169  25  1.129954E+05 -1.072809E+05 -6.394505E+04  1.575409E+05 -2.461171E+04  3.109758E+04
       169  26  2.534662E+05 -7.710861E+04 -4.489798E+04  1.447552E+05 -2.364083E+04  2.371222E+04
       169  27  3.945622E+05 -4.506016E+04 -2.474747E+04  1.600039E+05 -2.266797E+04  1.438951E+04
       170   1  6.957443E+05  2.457420E+04  2.134614E+04  1.596211E+05 -1.781716E+04 -8.289575E+03
       170   2  5.548890E+05 -8.038082E+03 -2.152570E+03  1.452001E+05 -1.796409E+04  1.401274E+03
       170   3  4.142000E+05 -4.012373E+04 -2.542650E+04  1.588555E+05 -1.811086E+04  9.932134E+03
       170   4  5.899143E+05  2.070675E+02  5.261594E+03  1.596196E+05  1.917982E+03 -8.282442E+03
       170   5  5.896449E+05  2.936862E+02  4.770813E+03  1.455813E+05 -4.594834E+02  1.407411E+03
       170   6  5.899108E+05  1.295134E+03  6.052580E+03  1.596193E+05 -2.836845E+03  9.937325E+03
       170   7  4.840964E+05 -2.416039E+04 -1.082173E+04  1.596181E+05  2.164989E+04 -8.275309E+03
       170   8  6.244026E+05  8.625545E+03  1.169529E+04  1.459626E+05  1.704608E+04  1.413568E+03
       170   9  7.656522E+05  4.271241E+04  3.753136E+04  1.603833E+05  1.244136E+04  9.942554E+03
       170  10  6.957439E+05  2.457404E+04  2.134542E+04  1.596209E+05 -5.250019E-11 -5.850300E-11
       170  11  5.548887E+05 -8.038171E+03 -2.153179E+03  1.452001E+05  5.752091E-13 -2.060150E-10
       170  12  4.141997E+05 -4.012393E+04 -2.542730E+04  1.588557E+05  4.670992E-10 -4.495076E-10
       170  13  5.899143E+05  2.069928E+02  5.261459E+03  1.596196E+05  1.683221E-10 -9.599731E-11
       170  14  5.896449E+05  2.936840E+02  4.770809E+03  1.455813E+05  1.479180E-10 -1.297893E-10
       170  15  5.899108E+05  1.295026E+03  6.052380E+03  1.596193E+05 -2.128032E-11 -2.992971E-10
       170  16  4.840959E+05 -2.416059E+04 -1.082274E+04  1.596182E+05  3.782289E-10  1.446992E-11
       170  17  6.244022E+05  8.625465E+03  1.169474E+04  1.459626E+05  2.447245E-10  5.611564E-10
       170  18  7.656520E+05  4.271227E+04  3.753088E+04  1.603832E+05  1.187792E-10 -9.551923E-11
       170  19  6.957443E+05  2.457420E+04  2.134614E+04  1.596211E+05  1.781716E+04  8.289575E+03
       170  20  5.548890E+05 -8.038082E+03 -2.152570E+03  1.452001E+05  1.796409E+04 -1.401274E+03
       170  21  4.142000E+05 -4.012373E+04 -2.542650E+04  1.588555E+05  1.811086E+04 -9.932134E+03
       170  22  5.899143E+05  2.070675E+02  5.261594E+03  1.596196E+05 -1.917982E+03  8.282442E+03
       170  23  5.896449E+05  2.936862E+02  4.770813E+03  1.455813E+05  4.594834E+02 -1.407411E+03
       170  24  5.899108E+05  1.295134E+03  6.052580E+03  1.596193E+05  2.836845E+03 -9.937325E+03
       170  25  4.840964E+05 -2.416039E+04 -1.082173E+04  1.596181E+05 -2.164989E+04  8.275309E+03
       170  26  6.244026E+05  8.625545E+03  1.169529E+04  1.459626E+05 -1.704608E+04 -1.413568E+03
       170  27  7.656522E+05  4.271241E+04  3.753136E+04  1.603833E+05 -1.244136E+04 -9.942554E+03
       171   1  3.246481E+05 -6.126431E+04 -4.017431E+04  1.598448E+05 -1.976096E+04  1.515611E+04
       171   2  1.840809E+05 -9.085354E+04 -6.769044E+04  1.388079E+05 -1.064358E+03  1.693874E+04
       171   3  4.288896E+04 -1.133550E+05 -1.056007E+05  1.449781E+05  1.762670E+04  5.713632E+03
       171   4  5.906044E+05  1.399879E+03  7.326499E+03  1.594257E+05 -3.860563E+03  1.516091E+04
       171   5  5.887385E+05  6.037170E+03  1.225744E+04  1.458215E+05 -1.014523E+04  1.693546E+04
       171   6  5.905612E+05  2.209498E+04  2.413302E+04  1.594217E+05 -1.643123E+04  5.706635E+03
       171   7  8.566303E+05  6.406029E+04  5.482557E+04  1.590064E+05  1.204645E+04  1.516568E+04
       171   8  9.935529E+05  1.029182E+05  9.219762E+04  1.528396E+05 -1.923189E+04  1.693199E+04
       171   9  1.138512E+06  1.575248E+05  1.538504E+05  1.738780E+05 -5.051904E+04  5.698060E+03
       171  10  3.246476E+05 -6.126466E+04 -4.017547E+04  1.598451E+05 -4.214718E-10 -5.102488E-10
       171  11  1.840808E+05 -9.085385E+04 -6.769098E+04  1.388079E+05 -2.692522E-10 -3.895720E-10
       171  12  4.288861E+04 -1.133551E+05 -1.056014E+05  1.449780E+05 -1.205305E-10 -4.535717E-11
       171  13  5.906044E+05  1.399628E+03  7.326039E+03  1.594257E+05 -3.566393E-10 -1.190033E-09
       171  14  5.887383E+05  6.036834E+03  1.225671E+04  1.458216E+05  6.353661E-10  1.777333E-10
       171  15  5.905609E+05  2.209487E+04  2.413245E+04  1.594218E+05  2.565669E-10 -3.537417E-11
       171  16  8.566301E+05  6.406000E+04  5.482486E+04  1.590062E+05  5.708560E-10 -4.402094E-10
       171  17  9.935524E+05  1.029178E+05  9.219639E+04  1.528399E+05  9.794325E-10 -6.184209E-11
       171  18  1.138509E+06  1.575241E+05  1.538455E+05  1.738783E+05  2.247933E-10 -1.830128E-10
       171  19  3.246481E+05 -6.126431E+04 -4.017431E+04  1.598448E+05  1.976096E+04 -1.515611E+04
       171  20  1.840809E+05 -9.085354E+04 -6.769044E+04  1.388079E+05  1.064358E+03 -1.693874E+04
       171  21  4.288896E+04 -1.133550E+05 -1.056007E+05  1.449781E+05 -1.762670E+04 -5.713632E+03
       171  22  5.906044E+05  1.399879E+03  7.326499E+03  1.594257E+05  3.860563E+03 -1.516091E+04
       171  23  5.887385E+05  6.037170E+03  1.225744E+04  1.458215E+05  1.014523E+04 -1.693546E+04
       171  24  5.905612E+05  2.209498E+04  2.413302E+04  1.594217E+05  1.643123E+04 -5.706635E+03
       171  25  8.566303E+05  6.406029E+04  5.482557E+04  1.590064E+05 -1.204645E+04 -1.516568E+04
       171  26  9.935529E+05  1.029182E+05  9.219762E+04  1.528396E+05  1.923189E+04 -1.693199E+04
       171  27  1.138512E+06  1.575248E+05  1.538504E+05  1.738780E+05  5.051904E+04 -5.698060E+03
       172   1 -1.738669E+05 -5.520958E+05 -1.749010E+05  2.074032E+05 -4.421190E+03 -6.968331E+04
       172   2 -9.184416E+04 -3.951053E+05 -9.525306E+04  1.733593E+05 -1.217851E+04 -3.211950E+04
       172   3 -4.337158E+04 -2.513945E+05 -4.846759E+04  1.685447E+05 -8.706334E+03  5.451187E+03
       172   4 -5.768484E+04 -8.295938E+04 -6.304826E+04  1.701145E+05 -4.400789E+03 -4.399051E+04
       172   5 -1.565392E+04 -7.816657E+04 -3.119469E+04  1.554822E+05 -1.217434E+04 -2.796488E+04
       172   6 -3.421197E+03 -8.292588E+04 -1.722909E+04  1.700834E+05 -8.718684E+03 -1.194226E+04
       172   7  5.848698E+04  3.863835E+05  4.879227E+04  1.327974E+05 -4.383487E+03 -1.827837E+04
       172   8  6.053131E+04  2.388686E+05  3.285872E+04  1.375958E+05 -1.217042E+04 -2.380816E+04
       172   9  3.652773E+04  8.557096E+04  1.400936E+04  1.716225E+05 -8.731119E+03 -2.934030E+04
       172  10 -1.738683E+05 -5.521010E+05 -1.749102E+05  2.074029E+05 -1.372008E-10 -6.801264E-11
       172  11 -9.184459E+04 -3.951064E+05 -9.525527E+04  1.733590E+05  8.642234E-11  5.916298E-10
       172  12 -4.337167E+04 -2.513946E+05 -4.846779E+04  1.685447E+05  6.216464E-11  2.808274E-10
       172  13 -5.768538E+04 -8.296146E+04 -6.305193E+04  1.701143E+05 -4.214603E-10  1.459811E-11
       172  14 -1.565429E+04 -7.816745E+04 -3.119644E+04  1.554819E+05 -3.020967E-10  4.125803E-10
       172  15 -3.421317E+03 -8.292605E+04 -1.722950E+04  1.700833E+05 -2.805039E-10  4.067531E-10
       172  16  5.848687E+04  3.863831E+05  4.879160E+04  1.327973E+05 -2.195602E-10 -1.190217E-10
       172  17  6.053100E+04  2.388679E+05  3.285738E+04  1.375956E+05 -7.953236E-10  1.981437E-10
       172  18  3.652742E+04  8.557001E+04  1.400760E+04  1.716223E+05  4.494217E-10 -6.087173E-10
       172  19 -1.738669E+05 -5.520958E+05 -1.749010E+05  2.074032E+05  4.421190E+03  6.968331E+04
       172  20 -9.184416E+04 -3.951053E+05 -9.525306E+04  1.733593E+05  1.217851E+04  3.211950E+04
       172  21 -4.337158E+04 -2.513945E+05 -4.846759E+04  1.685447E+05  8.706334E+03 -5.451187E+03
       172  22 -5.768484E+04 -8.295938E+04 -6.304826E+04  1.701145E+05  4.400789E+03  4.399051E+04
       172  23 -1.565392E+04 -7.816657E+04 -3.119469E+04  1.554822E+05  1.217434E+04  2.796488E+04
       172  24 -3.421197E+03 -8.292588E+04 -1.722909E+04  1.700834E+05  8.718684E+03  1.194226E+04
       172  25  5.848698E+04  3.863835E+05  4.879227E+04  1.327974E+05  4.383487E+03  1.827837E+04
       172  26  6.053131E+04  2.388686E+05  3.285872E+04  1.375958E+05  1.217042E+04  2.380816E+04
       172  27  3.652773E+04  8.557096E+04  1.400936E+04  1.716225E+05  8.731119E+03  2.934030E+04
       173   1 -2.043324E+04 -1.532225E+05 -2.745567E+04  1.718207E+05 -3.014214E+03  7.214995E+03
       173   2  1.747650E+04 -2.460358E+03  4.788270E+03  1.558301E+05  5.614173E+03  1.036690E+04
       173   3  5.333148E+04  1.473717E+05  3.445595E+04  1.697443E+05  1.387791E+04  1.352011E+04
       173   4 -3.142155E+03 -8.103752E+04 -1.318158E+04  1.702353E+05 -3.026614E+03 -9.695458E+03
       173   5 -6.346477E+02 -8.050483E+04 -7.715545E+03  1.552817E+05  5.602733E+03 -5.844871E+03
       173   6 -3.020929E+02 -8.104517E+04 -5.310581E+03  1.702335E+05  1.386738E+04 -1.993673E+03
       173   7  1.414877E+04 -8.846951E+03  1.093326E+03  1.686498E+05 -3.038926E+03 -2.660784E+04
       173   8 -1.874596E+04 -1.585427E+05 -2.021853E+04  1.547335E+05  5.591321E+03 -2.205467E+04
       173   9 -5.393836E+04 -3.094104E+05 -4.507805E+04  1.707225E+05  1.385683E+04 -1.750193E+04
       173  10 -2.043326E+04 -1.532225E+05 -2.745579E+04  1.718207E+05  5.063594E-11 -1.505283E-10
       173  11  1.747644E+04 -2.460482E+03  4.788009E+03  1.558300E+05  9.488636E-11  4.263214E-10
       173  12  5.333123E+04  1.473714E+05  3.445525E+04  1.697441E+05 -3.143775E-10 -1.192547E-10
       173  13 -3.142190E+03 -8.103762E+04 -1.318178E+04  1.702353E+05  3.953004E-11 -2.557793E-11
       173  14 -6.346906E+02 -8.050487E+04 -7.715668E+03  1.552818E+05  1.354267E-10  4.904510E-10
       173  15 -3.023005E+02 -8.104522E+04 -5.310950E+03  1.702335E+05  8.666932E-11  4.096902E-10
       173  16  1.414857E+04 -8.847714E+03  1.091978E+03  1.686497E+05  3.894243E-10 -1.596155E-10
       173  17 -1.874613E+04 -1.585432E+05 -2.021951E+04  1.547336E+05 -2.616464E-10  5.542557E-10
       173  18 -5.393865E+04 -3.094108E+05 -4.507899E+04  1.707227E+05 -6.240186E-11 -1.380706E-10
       173  19 -2.043324E+04 -1.532225E+05 -2.745567E+04  1.718207E+05  3.014214E+03 -7.214995E+03
       173  20  1.747650E+04 -2.460358E+03  4.788270E+03  1.558301E+05 -5.614173E+03 -1.036690E+04
       173  21  5.333148E+04  1.473717E+05  3.445595E+04  1.697443E+05 -1.387791E+04 -1.352011E+04
       173  22 -3.142155E+03 -8.103752E+04 -1.318158E+04  1.702353E+05  3.026614E+03  9.695458E+03
       173  23 -6.346477E+02 -8.050483E+04 -7.715545E+03  1.552817E+05 -5.602733E+03  5.844871E+03
       173  24 -3.020929E+02 -8.104517E+04 -5.310581E+03  1.702335E+05 -1.386738E+04  1.993673E+03
       173  25  1.414877E+04 -8.846951E+03  1.093326E+03  1.686498E+05  3.038926E+03  2.660784E+04
       173  26 -1.874596E+04 -1.585427E+05 -2.021853E+04  1.547335E+05 -5.591321E+03  2.205467E+04
       173  27 -5.393836E+04 -3.094104E+05 -4.507805E+04  1.707225E+05 -1.385683E+04  1.750193E+04
       174   1  7.603730E+04  2.438199E+05  5.233030E+04  1.701923E+05  1.928890E+04  1.501041E+04
       174   2  1.113342E+05  3.924065E+05  8.773591E+04  1.534027E+05  2.034795E+04 -1.066350E+04
       174   3  1.478693E+05  5.446621E+05  1.401574E+05  1.655774E+05  6.708055E+03 -3.634057E+04
       174   4 -3.632228E+02 -8.109448E+04 -4.792133E+03  1.700247E+05  1.927875E+04 -1.173706E+03
       174   5 -1.775979E+03 -8.049280E+04 -5.023131E+03  1.555434E+05  2.035635E+04  1.389237E+03
       174   6 -6.849763E+03 -8.114124E+04 -7.841540E+03  1.700280E+05  6.729654E+03  3.955032E+03
       174   7 -7.676937E+04 -4.059050E+05 -6.191741E+04  1.698572E+05  1.926860E+04 -1.734961E+04
       174   8 -1.148995E+05 -5.531775E+05 -9.779243E+04  1.576823E+05  2.036483E+04  1.343300E+04
       174   9 -1.615959E+05 -7.065813E+05 -1.558615E+05  1.744741E+05  6.751845E+03  4.421026E+04
       174  10  7.603684E+04  2.438195E+05  5.232918E+04  1.701920E+05 -4.908511E-10 -8.713534E-11
       174  11  1.113337E+05  3.924062E+05  8.773492E+04  1.534029E+05  8.255859E-11  2.363730E-10
       174  12  1.478689E+05  5.446607E+05  1.401549E+05  1.655776E+05 -4.699329E-11 -2.581888E-12
       174  13 -3.636223E+02 -8.109459E+04 -4.792834E+03  1.700247E+05 -1.598183E-10  7.158927E-12
       174  14 -1.776425E+03 -8.049291E+04 -5.023914E+03  1.555434E+05 -5.988270E-11  3.513955E-10
       174  15 -6.849816E+03 -8.114127E+04 -7.841655E+03  1.700280E+05 -1.528983E-10  2.442749E-10
       174  16 -7.676985E+04 -4.059054E+05 -6.191867E+04  1.698575E+05 -1.604936E-10 -1.239495E-10
       174  17 -1.149000E+05 -5.531778E+05 -9.779355E+04  1.576821E+05 -5.877529E-10  4.942518E-10
       174  18 -1.615965E+05 -7.065834E+05 -1.558653E+05  1.744738E+05  4.953799E-11 -2.214829E-10
       174  19  7.603730E+04  2.438199E+05  5.233030E+04  1.701923E+05 -1.928890E+04 -1.501041E+04
       174  20  1.113342E+05  3.924065E+05  8.773591E+04  1.534027E+05 -2.034795E+04  1.066350E+04
       174  21  1.478693E+05  5.446621E+05  1.401574E+05  1.655774E+05 -6.708055E+03  3.634057E+04
       174  22 -3.632228E+02 -8.109448E+04 -4.792133E+03  1.700247E+05 -1.927875E+04  1.173706E+03
       174  23 -1.775979E+03 -8.049280E+04 -5.023131E+03  1.555434E+05 -2.035635E+04 -1.389237E+03
       174  24 -6.849763E+03 -8.114124E+04 -7.841540E+03  1.700280E+05 -6.729654E+03 -3.955032E+03
       174  25 -7.676937E+04 -4.059050E+05 -6.191741E+04  1.698572E+05 -1.926860E+04  1.734961E+04
       174  26 -1.148995E+05 -5.531775E+05 -9.779243E+04  1.576823E+05 -2.036483E+04 -1.343300E+04
       174  27 -1.615959E+05 -7.065813E+05 -1.558615E+05  1.744741E+05 -6.751845E+03 -4.421026E+04
       175   1  2.503603E+06  4.819045E+05  4.664725E+05  3.115679E+05  1.778557E+05 -2.112983E+04
       175   2  2.253246E+06  3.623148E+05  3.105848E+05  2.677240E+05  8.520114E+04 -6.898214E+04
       175   3  2.026635E+06  2.888550E+05  2.264223E+05  2.685634E+05 -7.403249E+03 -7.799295E+04
       175   4  8.072768E+05  6.391233E+04  6.969319E+04  2.693714E+05  4.832785E+04 -2.120227E+04
       175   5  8.020157E+05  1.738611E+04  3.471623E+04  2.470520E+05  3.054550E+04 -6.903383E+04
       175   6  8.075243E+05  4.081817E+03  1.963536E+04  2.694102E+05  1.277088E+04 -7.798863E+04
       175   7 -8.863669E+05 -3.542681E+05 -3.272181E+05  2.272898E+05 -8.084961E+04 -2.125733E+04
       175   8 -6.471829E+05 -3.276627E+05 -2.412354E+05  2.264287E+05 -2.398587E+04 -6.908198E+04
       175   9 -4.101264E+05 -2.807696E+05 -1.871984E+05  2.702546E+05  3.290676E+04 -7.798426E+04
       175  10  2.503569E+06  4.818956E+05  4.664124E+05  3.115709E+05  9.489198E-10 -3.928801E-10
       175  11  2.253237E+06  3.623077E+05  3.105623E+05  2.677287E+05 -5.897320E-10 -1.718998E-09
       175  12  2.026633E+06  2.888485E+05  2.264108E+05  2.685630E+05  2.059167E-10 -1.569835E-09
       175  13  8.072741E+05  6.391122E+04  6.968796E+04  2.693723E+05  2.354672E-10 -5.942001E-11
       175  14  8.020135E+05  1.738074E+04  3.470552E+04  2.470537E+05  4.341436E-10 -1.002382E-09
       175  15  8.075224E+05  4.075239E+03  1.962362E+04  2.694110E+05  5.634988E-10 -4.090695E-10
       175  16 -8.863740E+05 -3.542704E+05 -3.272313E+05  2.272885E+05 -1.303127E-09 -1.535033E-11
       175  17 -6.471848E+05 -3.276680E+05 -2.412455E+05  2.264274E+05 -1.437643E-10 -1.571875E-09
       175  18 -4.101292E+05 -2.807764E+05 -1.872119E+05  2.702567E+05 -1.924455E-10 -2.296404E-09
       175  19  2.503603E+06  4.819045E+05  4.664725E+05  3.115679E+05 -1.778557E+05  2.112983E+04
       175  20  2.253246E+06  3.623148E+05  3.105848E+05  2.677240E+05 -8.520114E+04  6.898214E+04
       175  21  2.026635E+06  2.888550E+05  2.264223E+05  2.685634E+05  7.403249E+03  7.799295E+04
       175  22  8.072768E+05  6.391233E+04  6.969319E+04  2.693714E+05 -4.832785E+04  2.120227E+04
       175  23  8.020157E+05  1.738611E+04  3.471623E+04  2.470520E+05 -3.054550E+04  6.903383E+04
       175  24  8.075243E+05  4.081817E+03  1.963536E+04  2.694102E+05 -1.277088E+04  7.798863E+04
       175  25 -8.863669E+05 -3.542681E+05 -3.272181E+05  2.272898E+05  8.084961E+04  2.125733E+04
       175  26 -6.471829E+05 -3.276627E+05 -2.412354E+05  2.264287E+05  2.398587E+04  6.908198E+04
       175  27 -4.101264E+05 -2.807696E+05 -1.871984E+05  2.702546E+05 -3.290676E+04  7.798426E+04
       176   1  1.870952E+06  2.521478E+05  1.929540E+05  2.725512E+05 -8.133238E+03 -7.069840E+04
       176   2  1.631806E+06  1.926894E+05  1.423307E+05  2.477553E+05 -2.066163E+04 -5.924427E+04
       176   3  1.395258E+06  1.369700E+05  1.007754E+05  2.702373E+05 -3.319567E+04 -4.385729E+04
       176   4  8.054699E+05  3.861374E+03  1.536322E+04  2.699873E+05  1.013906E+04 -7.069105E+04
       176   5  8.049174E+05  1.063455E+03  9.928160E+03  2.463484E+05  5.183424E+03 -5.922265E+04
       176   6  8.056032E+05  6.986856E+02  8.317657E+03  2.699911E+05  2.177152E+02 -4.381871E+04
       176   7 -2.588941E+05 -2.444839E+05 -1.622611E+05  2.674276E+05  2.838110E+04 -7.068383E+04
       176   8 -2.129192E+04 -1.905963E+05 -1.224899E+05  2.449432E+05  3.099536E+04 -5.920112E+04
       176   9  2.162963E+05 -1.355892E+05 -8.414435E+04  2.697449E+05  3.360060E+04 -4.378013E+04
       176  10  1.870951E+06  2.521425E+05  1.929444E+05  2.725507E+05 -3.608491E-09 -1.668183E-09
       176  11  1.631805E+06  1.926855E+05  1.423233E+05  2.477543E+05 -7.731627E-10  9.017596E-10
       176  12  1.395257E+06  1.369677E+05  1.007697E+05  2.702362E+05  7.351176E-11  1.080387E-09
       176  13  8.054684E+05  3.855978E+03  1.535363E+04  2.699879E+05  2.359328E-10 -1.261453E-09
       176  14  8.049164E+05  1.059680E+03  9.921516E+03  2.463487E+05  9.338487E-11  9.460994E-11
       176  15  8.056027E+05  6.966230E+02  8.314047E+03  2.699911E+05 -2.331876E-10 -1.119347E-09
       176  16 -2.588963E+05 -2.444895E+05 -1.622720E+05  2.674292E+05  3.306584E-09 -3.241970E-10
       176  17 -2.129389E+04 -1.906004E+05 -1.224983E+05  2.449447E+05  3.762847E-10  6.953482E-10
       176  18  2.162946E+05 -1.355915E+05 -8.415007E+04  2.697461E+05 -1.063560E-10  2.854881E-10
       176  19  1.870952E+06  2.521478E+05  1.929540E+05  2.725512E+05  8.133238E+03  7.069840E+04
       176  20  1.631806E+06  1.926894E+05  1.423307E+05  2.477553E+05  2.066163E+04  5.924427E+04
       176  21  1.395258E+06  1.369700E+05  1.007754E+05  2.702373E+05  3.319567E+04  4.385729E+04
       176  22  8.054699E+05  3.861374E+03  1.536322E+04  2.699873E+05 -1.013906E+04  7.069105E+04
       176  23  8.049174E+05  1.063455E+03  9.928160E+03  2.463484E+05 -5.183424E+03  5.922265E+04
       176  24  8.056032E+05  6.986856E+02  8.317657E+03  2.699911E+05 -2.177152E+02  4.381871E+04
       176  25 -2.588941E+05 -2.444839E+05 -1.622611E+05  2.674276E+05 -2.838110E+04  7.068383E+04
       176  26 -2.129192E+04 -1.905963E+05 -1.224899E+05  2.449432E+05 -3.099536E+04  5.920112E+04
       176  27  2.162963E+05 -1.355892E+05 -8.414435E+04  2.697449E+05 -3.360060E+04  4.378013E+04
       177   1  1.243845E+06  1.017844E+05  7.606042E+04  2.707581E+05 -3.453589E+04 -3.354606E+04
       177   2  1.005785E+06  4.737703E+04  4.015167E+04  2.455724E+05 -3.758404E+04 -1.688310E+04
       177   3  7.686819E+05 -4.647231E+03  6.792798E+03  2.677978E+05 -4.063255E+04 -1.509577E+03
       177   4  8.056530E+05  7.401250E+02  8.516368E+03  2.700201E+05 -1.249655E+03 -3.350433E+04
       177   5  8.050028E+05  1.444882E+03  1.104838E+04  2.463120E+05 -6.781095E+03 -1.684258E+04
       177   6  8.056822E+05  4.965399E+03  1.785029E+04  2.700152E+05 -1.231398E+04 -1.470458E+03
       177   7  3.676549E+05 -1.003129E+05 -5.902785E+04  2.692826E+05  3.201403E+04 -3.346265E+04
       177   8  6.042631E+05 -4.448861E+04 -1.805200E+04  2.470513E+05  2.401232E+04 -1.680198E+04
       177   9  8.426853E+05  1.457835E+04  2.891067E+04  2.722327E+05  1.600632E+04 -1.431138E+03
       177  10  1.243843E+06  1.017829E+05  7.605607E+04  2.707572E+05 -1.087269E-09  1.577852E-09
       177  11  1.005784E+06  4.737635E+04  4.014848E+04  2.455718E+05  9.540696E-10  1.081378E-09
       177  12  7.686802E+05 -4.647676E+03  6.789695E+03  2.677978E+05  2.166311E-09  1.393532E-10
       177  13  8.056527E+05  7.389188E+02  8.514255E+03  2.700201E+05 -2.937942E-10 -1.489635E-09
       177  14  8.050027E+05  1.444565E+03  1.104776E+04  2.463119E+05  5.928603E-10  1.002388E-09
       177  15  8.056820E+05  4.965356E+03  1.785000E+04  2.700152E+05  9.871470E-10  1.930280E-09
       177  16  3.676535E+05 -1.003144E+05 -5.903188E+04  2.692835E+05  1.461689E-09  7.819421E-10
       177  17  6.042624E+05 -4.448906E+04 -1.805362E+04  2.470516E+05 -9.422667E-10  1.437062E-09
       177  18  8.426851E+05  1.457828E+04  2.891018E+04  2.722327E+05 -2.432680E-09 -2.336386E-10
       177  19  1.243845E+06  1.017844E+05  7.606042E+04  2.707581E+05  3.453589E+04  3.354606E+04
       177  20  1.005785E+06  4.737703E+04  4.015167E+04  2.455724E+05  3.758404E+04  1.688310E+04
       177  21  7.686819E+05 -4.647231E+03  6.792798E+03  2.677978E+05  4.063255E+04  1.509577E+03
       177  22  8.056530E+05  7.401250E+02  8.516368E+03  2.700201E+05  1.249655E+03  3.350433E+04
       177  23  8.050028E+05  1.444882E+03  1.104838E+04  2.463120E+05  6.781095E+03  1.684258E+04
       177  24  8.056822E+05  4.965399E+03  1.785029E+04  2.700152E+05  1.231398E+04  1.470458E+03
       177  25  3.676549E+05 -1.003129E+05 -5.902785E+04  2.692826E+05 -3.201403E+04  3.346265E+04
       177  26  6.042631E+05 -4.448861E+04 -1.805200E+04  2.470513E+05 -2.401232E+04  1.680198E+04
       177  27  8.426853E+05  1.457835E+04  2.891067E+04  2.722327E+05 -1.600632E+04  1.431138E+03
       178   1  6.192014E+05 -3.990175E+04 -1.432216E+04  2.714455E+05 -4.446465E+04  7.810380E+03
       178   2  3.780338E+05 -8.095774E+04 -4.609403E+04  2.224628E+05 -3.444458E+04  1.485992E+04
       178   3  1.440332E+05 -8.809914E+04 -7.592571E+04  2.198032E+05 -2.441630E+04  5.690576E+03
       178   4  8.081596E+05  5.326468E+03  2.303595E+04  2.697780E+05 -1.537876E+04  7.850327E+03
       178   5  8.018628E+05  2.127613E+04  4.117505E+04  2.465819E+05 -3.652511E+04  1.485514E+04
       178   6  8.080652E+05  7.653092E+04  8.287018E+04  2.696967E+05 -5.765954E+04  5.646990E+03
       178   7  9.971537E+05  5.055299E+04  6.039548E+04  2.681100E+05  1.371578E+04  7.890110E+03
       178   8  1.225863E+06  1.235008E+05  1.284348E+05  2.707176E+05 -3.860703E+04  1.485019E+04
       178   9  1.472509E+06  2.411389E+05  2.416404E+05  3.196436E+05 -9.093814E+04  5.598094E+03
       178  10  6.191993E+05 -3.990235E+04 -1.432599E+04  2.714458E+05  8.296700E-10 -1.683044E-11
       178  11  3.780324E+05 -8.095829E+04 -4.609667E+04  2.224632E+05  1.218985E-09  2.264424E-09
       178  12  1.440325E+05 -8.809934E+04 -7.592689E+04  2.198033E+05  1.012390E-10  8.206747E-10
       178  13  8.081593E+05  5.326338E+03  2.303539E+04  2.697781E+05  8.277821E-12  2.016012E-11
       178  14  8.018613E+05  2.127553E+04  4.117213E+04  2.465823E+05  1.090274E-09  2.489155E-09
       178  15  8.080617E+05  7.652999E+04  8.286388E+04  2.696970E+05  2.516329E-10 -1.817405E-10
       178  16  9.971535E+05  5.055287E+04  6.039501E+04  2.681099E+05 -6.840626E-10 -2.343366E-10
       178  17  1.225862E+06  1.235002E+05  1.284316E+05  2.707180E+05 -1.013666E-09  8.305699E-10
       178  18  1.472500E+06  2.411366E+05  2.416249E+05  3.196440E+05 -1.555716E-10 -6.692067E-10
       178  19  6.192014E+05 -3.990175E+04 -1.432216E+04  2.714455E+05  4.446465E+04 -7.810380E+03
       178  20  3.780338E+05 -8.095774E+04 -4.609403E+04  2.224628E+05  3.444458E+04 -1.485992E+04
       178  21  1.440332E+05 -8.809914E+04 -7.592571E+04  2.198032E+05  2.441630E+04 -5.690576E+03
       178  22  8.081596E+05  5.326468E+03  2.303595E+04  2.697780E+05  1.537876E+04 -7.850327E+03
       178  23  8.018628E+05  2.127613E+04  4.117505E+04  2.465819E+05  3.652511E+04 -1.485514E+04
       178  24  8.080652E+05  7.653092E+04  8.287018E+04  2.696967E+05  5.765954E+04 -5.646990E+03
       178  25  9.971537E+05  5.055299E+04  6.039548E+04  2.681100E+05 -1.371578E+04 -7.890110E+03
       178  26  1.225863E+06  1.235008E+05  1.284348E+05  2.707176E+05  3.860703E+04 -1.485019E+04
       178  27  1.472509E+06  2.411389E+05  2.416404E+05  3.196436E+05  9.093814E+04 -5.598094E+03
       179   1 -1.618290E+05 -2.376515E+05 -1.631004E+05  2.339034E+05 -3.486206E+03 -6.100376E+04
       179   2 -7.755379E+04 -5.510012E+04 -8.246748E+04  1.988656E+05 -8.443394E+03 -2.621712E+04
       179   3 -2.406646E+04  1.152518E+05 -3.218890E+04  1.983113E+05 -2.698807E+03  8.579956E+03
       179   4 -5.286851E+04  2.017495E+05 -5.756973E+04  1.997916E+05 -3.474393E+03 -4.119790E+04
       179   5 -1.438469E+04  2.060904E+05 -2.771384E+04  1.825395E+05 -8.442754E+03 -2.694675E+04
       179   6 -3.113691E+03  2.017746E+05 -1.394040E+04  1.997752E+05 -2.709422E+03 -1.269561E+04
       179   7  5.608259E+04  6.413305E+05  4.794932E+04  1.656555E+05 -3.464763E+03 -2.137806E+04
       179   8  4.878105E+04  4.673460E+05  2.703615E+04  1.662064E+05 -8.442076E+03 -2.767668E+04
       179   9  1.783884E+04  2.883055E+05  4.309375E+03  2.012394E+05 -2.720137E+03 -3.397410E+04
       179  10 -1.618301E+05 -2.376555E+05 -1.631074E+05  2.339032E+05 -2.658572E-10 -1.458900E-10
       179  11 -7.755405E+04 -5.510088E+04 -8.246891E+04  1.988654E+05 -4.846255E-11  1.667069E-10
       179  12 -2.406648E+04  1.152517E+05 -3.218905E+04  1.983113E+05 -1.188481E-10  4.117778E-10
       179  13 -5.286898E+04  2.017476E+05 -5.757294E+04  1.997915E+05 -2.070172E-10  7.458900E-11
       179  14 -1.438496E+04  2.060896E+05 -2.771534E+04  1.825393E+05  1.971352E-10  3.460561E-10
       179  15 -3.113743E+03  2.017744E+05 -1.394072E+04  1.997752E+05  2.213743E-10  9.414189E-11
       179  16  5.608246E+04  6.413300E+05  4.794844E+04  1.656555E+05  1.120196E-10  8.000571E-11
       179  17  4.878077E+04  4.673451E+05  2.703458E+04  1.662062E+05 -4.287985E-12 -6.004540E-12
       179  18  1.783852E+04  2.883042E+05  4.307193E+03  2.012393E+05 -7.766836E-11 -3.406995E-10
       179  19 -1.618290E+05 -2.376515E+05 -1.631004E+05  2.339034E+05  3.486206E+03  6.100376E+04
       179  20 -7.755379E+04 -5.510012E+04 -8.246748E+04  1.988656E+05  8.443394E+03  2.621712E+04
       179  21 -2.406646E+04  1.152518E+05 -3.218890E+04  1.983113E+05  2.698807E+03 -8.579956E+03
       179  22 -5.286851E+04  2.017495E+05 -5.756973E+04  1.997916E+05  3.474393E+03  4.119790E+04
       179  23 -1.438469E+04  2.060904E+05 -2.771384E+04  1.825395E+05  8.442754E+03  2.694675E+04
       179  24 -3.113691E+03  2.017746E+05 -1.394040E+04  1.997752E+05  2.709422E+03  1.269561E+04
       179  25  5.608259E+04  6.413305E+05  4.794932E+04  1.656555E+05  3.464763E+03  2.137806E+04
       179  26  4.878105E+04  4.673460E+05  2.703615E+04  1.662064E+05  8.442076E+03  2.767668E+04
       179  27  1.783884E+04  2.883055E+05  4.309375E+03  2.012394E+05  2.720137E+03  3.397410E+04
       180   1  2.678533E+03  2.299946E+05 -8.179515E+03  2.011353E+05  4.176920E+03  9.830875E+03
       180   2  4.684335E+04  4.064189E+05  2.996590E+04  1.832704E+05  1.455584E+04  9.255063E+03
       180   3  9.062623E+04  5.828501E+05  6.838545E+04  2.004990E+05  2.398896E+04  8.680543E+03
       180   4 -2.870580E+03  2.036247E+05 -9.555465E+03  1.999112E+05  4.166416E+03 -1.101196E+04
       180   5 -1.610469E+02  2.037810E+05 -2.486213E+03  1.823630E+05  1.454757E+04 -9.772830E+03
       180   6  1.853322E+03  2.035999E+05  3.598138E+03  1.999093E+05  2.398272E+04 -8.532235E+03
       180   7 -8.419469E+03  1.772566E+05 -1.092974E+04  1.986871E+05  4.155993E+03 -3.185398E+04
       180   8 -4.716731E+04  1.184714E+03 -3.493805E+04  1.814560E+05  1.453936E+04 -2.879474E+04
       180   9 -8.692708E+04 -1.755084E+05 -6.119284E+04  1.993200E+05  2.397651E+04 -2.573484E+04
       180  10  2.678489E+03  2.299945E+05 -8.179729E+03  2.011353E+05  3.084659E-10 -7.162813E-10
       180  11  4.684310E+04  4.064187E+05  2.996534E+04  1.832703E+05 -4.379512E-10 -7.773334E-11
       180  12  9.062559E+04  5.828498E+05  6.838423E+04  2.004988E+05  2.867860E-11  4.313914E-10
       180  13 -2.870632E+03  2.036246E+05 -9.555725E+03  1.999112E+05  3.625577E-10  1.946888E-10
       180  14 -1.612999E+02  2.037809E+05 -2.486790E+03  1.823632E+05 -1.550787E-10  3.139778E-10
       180  15  1.852684E+03  2.035996E+05  3.596920E+03  1.999095E+05  3.495967E-10  2.644459E-11
       180  16 -8.419760E+03  1.772555E+05 -1.093168E+04  1.986872E+05 -3.230675E-11  5.815644E-10
       180  17 -4.716776E+04  1.183767E+03 -3.494000E+04  1.814564E+05  8.209120E-10  2.940097E-10
       180  18 -8.692787E+04 -1.755093E+05 -6.119517E+04  1.993205E+05 -7.674595E-11 -3.797221E-10
       180  19  2.678533E+03  2.299946E+05 -8.179515E+03  2.011353E+05 -4.176920E+03 -9.830875E+03
       180  20  4.684335E+04  4.064189E+05  2.996590E+04  1.832704E+05 -1.455584E+04 -9.255063E+03
       180  21  9.062623E+04  5.828501E+05  6.838545E+04  2.004990E+05 -2.398896E+04 -8.680543E+03
       180  22 -2.870580E+03  2.036247E+05 -9.555465E+03  1.999112E+05 -4.166416E+03  1.101196E+04
       180  23 -1.610469E+02  2.037810E+05 -2.486213E+03  1.823630E+05 -1.454757E+04  9.772830E+03
       180  24  1.853322E+03  2.035999E+05  3.598138E+03  1.999093E+05 -2.398272E+04  8.532235E+03
       180  25 -8.419469E+03  1.772566E+05 -1.092974E+04  1.986871E+05 -4.155993E+03  3.185398E+04
       180  26 -4.716731E+04  1.184714E+03 -3.493805E+04  1.814560E+05 -1.453936E+04  2.879474E+04
       180  27 -8.692708E+04 -1.755084E+05 -6.119284E+04  1.993200E+05 -2.397651E+04  2.573484E+04
       181   1  1.175303E+05  6.974818E+05  9.227770E+04  1.987696E+05  3.013725E+04  8.896257E+03
       181   2  1.677413E+05  8.681993E+05  1.452882E+05  1.926544E+05  2.969979E+04 -3.724330E+04
       181   3  2.409852E+05  1.050742E+06  2.340768E+05  2.203584E+05  9.548329E+03 -8.340082E+04
       181   4  1.964590E+03  2.048201E+05  6.845244E+03  1.996258E+05  3.013219E+04 -9.234110E+03
       181   5  8.759754E+03  2.021623E+05  1.602178E+04  1.827134E+05  2.970848E+04 -1.747313E+04
       181   6  3.202807E+04  2.047401E+05  3.468468E+04  1.996192E+05  9.562652E+03 -2.571638E+04
       181   7 -1.136140E+05 -2.876032E+05 -7.859443E+04  2.004812E+05  3.012707E+04 -2.735054E+04
       181   8 -1.502478E+05 -4.634482E+05 -1.132640E+05  1.727833E+05  2.971655E+04  2.276324E+03
       181   9 -1.769768E+05 -6.405964E+05 -1.647441E+05  1.789082E+05  9.573147E+03  3.189003E+04
       181  10  1.175293E+05  6.974815E+05  9.227584E+04  1.987694E+05  2.134557E-10 -3.421377E-10
       181  11  1.677400E+05  8.681975E+05  1.452839E+05  1.926553E+05 -5.586017E-11 -2.691792E-10
       181  12  2.409832E+05  1.050735E+06  2.340636E+05  2.203591E+05 -2.115791E-10 -2.507976E-11
       181  13  1.963592E+03  2.048197E+05  6.843377E+03  1.996260E+05 -2.229514E-10  4.824852E-11
       181  14  8.758724E+03  2.021617E+05  1.601955E+04  1.827139E+05  1.446249E-10 -1.464042E-11
       181  15  3.202780E+04  2.047394E+05  3.468327E+04  1.996194E+05 -1.263761E-10 -1.838750E-11
       181  16 -1.136152E+05 -2.876042E+05 -7.859754E+04  2.004819E+05 -1.389274E-11  3.011522E-10
       181  17 -1.502487E+05 -4.634484E+05 -1.132657E+05  1.727832E+05 -5.665177E-11  1.836718E-10
       181  18 -1.769771E+05 -6.405975E+05 -1.647462E+05  1.789080E+05  4.813177E-11 -1.255781E-10
       181  19  1.175303E+05  6.974818E+05  9.227770E+04  1.987696E+05 -3.013725E+04 -8.896257E+03
       181  20  1.677413E+05  8.681993E+05  1.452882E+05  1.926544E+05 -2.969979E+04  3.724330E+04
       181  21  2.409852E+05  1.050742E+06  2.340768E+05  2.203584E+05 -9.548329E+03  8.340082E+04
       181  22  1.964590E+03  2.048201E+05  6.845244E+03  1.996258E+05 -3.013219E+04  9.234110E+03
       181  23  8.759754E+03  2.021623E+05  1.602178E+04  1.827134E+05 -2.970848E+04  1.747313E+04
       181  24  3.202807E+04  2.047401E+05  3.468468E+04  1.996192E+05 -9.562652E+03  2.571638E+04
       181  25 -1.136140E+05 -2.876032E+05 -7.859443E+04  2.004812E+05 -3.012707E+04  2.735054E+04
       181  26 -1.502478E+05 -4.634482E+05 -1.132640E+05  1.727833E+05 -2.971655E+04 -2.276324E+03
       181  27 -1.769768E+05 -6.405964E+05 -1.647441E+05  1.789082E+05 -9.573147E+03 -3.189003E+04
       182   1  1.094425E+06  1.651595E+05  1.587007E+05  1.454132E+05  5.138670E+04 -7.162263E+03
       182   2  9.693799E+05  1.225419E+05  1.028183E+05  1.301545E+05  2.032207E+04 -2.258506E+04
       182   3  8.509598E+05  9.033344E+04  6.973899E+04  1.381304E+05 -1.074728E+04 -2.344330E+04
       182   4  4.695090E+05  1.085793E+04  1.162546E+04  1.379999E+05  7.795239E+03 -7.208082E+03
       182   5  4.686497E+05  3.106045E+03  5.997255E+03  1.263877E+05  4.738130E+03 -2.260376E+04
       182   6  4.695510E+05  9.120353E+02  3.747895E+03  1.380105E+05  1.670143E+03 -2.342985E+04
       182   7 -1.550437E+05 -1.434703E+05 -1.354695E+05  1.305939E+05 -3.575266E+04 -7.252889E+03
       182   8 -3.183922E+04 -1.163445E+05 -9.083458E+04  1.226240E+05 -1.083355E+04 -2.262229E+04
       182   9  8.828508E+04 -8.851712E+04 -6.224765E+04  1.378906E+05  1.408018E+04 -2.341641E+04
       182  10  1.094422E+06  1.651588E+05  1.586957E+05  1.454135E+05  2.647269E-09 -1.127078E-09
       182  11  9.693793E+05  1.225412E+05  1.028166E+05  1.301548E+05  5.611259E-10 -1.044535E-09
       182  12  8.509595E+05  9.033282E+04  6.973774E+04  1.381302E+05 -2.882231E-09 -7.263558E-10
       182  13  4.695089E+05  1.085786E+04  1.162525E+04  1.380000E+05  6.189422E-10  1.140411E-09
       182  14  4.686496E+05  3.105490E+03  5.996252E+03  1.263878E+05  9.608052E-10 -9.154583E-10
       182  15  4.695508E+05  9.114450E+02  3.746858E+03  1.380105E+05  6.724092E-10 -1.196336E-09
       182  16 -1.550451E+05 -1.434707E+05 -1.354720E+05  1.305937E+05 -2.645636E-09  5.327694E-10
       182  17 -3.183949E+04 -1.163451E+05 -9.083576E+04  1.226238E+05 -5.900226E-10 -9.928943E-10
       182  18  8.828472E+04 -8.851776E+04 -6.224906E+04  1.378909E+05  2.744027E-09 -1.144450E-09
       182  19  1.094425E+06  1.651595E+05  1.587007E+05  1.454132E+05 -5.138670E+04  7.162263E+03
       182  20  9.693799E+05  1.225419E+05  1.028183E+05  1.301545E+05 -2.032207E+04  2.258506E+04
       182  21  8.509598E+05  9.033344E+04  6.973899E+04  1.381304E+05  1.074728E+04  2.344330E+04
       182  22  4.695090E+05  1.085793E+04  1.162546E+04  1.379999E+05 -7.795239E+03  7.208082E+03
       182  23  4.686497E+05  3.106045E+03  5.997255E+03  1.263877E+05 -4.738130E+03  2.260376E+04
       182  24  4.695510E+05  9.120353E+02  3.747895E+03  1.380105E+05 -1.670143E+03  2.342985E+04
       182  25 -1.550437E+05 -1.434703E+05 -1.354695E+05  1.305939E+05  3.575266E+04  7.252889E+03
       182  26 -3.183922E+04 -1.163445E+05 -9.083458E+04  1.226240E+05  1.083355E+04  2.262229E+04
       182  27  8.828508E+04 -8.851712E+04 -6.224765E+04  1.378906E+05 -1.408018E+04  2.341641E+04
       183   1  7.724772E+05  7.182308E+04  5.495039E+04  1.388752E+05 -1.058235E+04 -1.923248E+04
       183   2  6.505483E+05  4.260081E+04  3.263750E+04  1.264967E+05 -1.467800E+04 -1.244912E+04
       183   3  5.293584E+05  1.437107E+04  1.322095E+04  1.383362E+05 -1.877509E+04 -4.274002E+03
       183   4  4.692275E+05  8.685375E+02  3.216525E+03  1.382281E+05  1.125498E+03 -1.921905E+04
       183   5  4.691046E+05  3.760142E+02  2.844066E+03  1.261191E+05 -2.963017E+02 -1.243164E+04
       183   6  4.692423E+05  4.128999E+02  3.512464E+03  1.382286E+05 -1.720298E+03 -4.252258E+03
       183   7  1.660685E+05 -7.009082E+04 -4.851987E+04  1.375813E+05  1.282781E+04 -1.920564E+04
       183   8  2.876938E+05 -4.185036E+04 -2.694955E+04  1.257417E+05  1.408134E+04 -1.241418E+04
       183   9  4.091303E+05 -1.354530E+04 -6.195025E+03  1.381211E+05  1.533290E+04 -4.230519E+03
       183  10  7.724770E+05  7.182266E+04  5.494949E+04  1.388750E+05 -2.273832E-10  1.256165E-09
       183  11  6.505480E+05  4.260058E+04  3.263680E+04  1.264965E+05 -8.153422E-10  5.061409E-11
       183  12  5.293581E+05  1.437096E+04  1.322025E+04  1.383361E+05 -2.142220E-09  9.468630E-10
       183  13  4.692274E+05  8.681404E+02  3.215828E+03  1.382281E+05  2.735777E-10 -8.364508E-11
       183  14  4.691045E+05  3.758482E+02  2.843776E+03  1.261191E+05  4.737499E-10 -1.149621E-10
       183  15  4.692423E+05  4.128797E+02  3.512424E+03  1.382286E+05  6.854634E-10  9.865696E-10
       183  16  1.660682E+05 -7.009126E+04 -4.852087E+04  1.375815E+05  7.198239E-10  8.170555E-10
       183  17  2.876936E+05 -4.185058E+04 -2.695021E+04  1.257418E+05  3.305085E-10 -3.092381E-09
       183  18  4.091301E+05 -1.354538E+04 -6.195500E+03  1.381211E+05  2.167927E-09 -2.438297E-10
       183  19  7.724772E+05  7.182308E+04  5.495039E+04  1.388752E+05  1.058235E+04  1.923248E+04
       183  20  6.505483E+05  4.260081E+04  3.263750E+04  1.264967E+05  1.467800E+04  1.244912E+04
       183  21  5.293584E+05  1.437107E+04  1.322095E+04  1.383362E+05  1.877509E+04  4.274002E+03
       183  22  4.692275E+05  8.685375E+02  3.216525E+03  1.382281E+05 -1.125498E+03  1.921905E+04
       183  23  4.691046E+05  3.760142E+02  2.844066E+03  1.261191E+05  2.963017E+02  1.243164E+04
       183  24  4.692423E+05  4.128999E+02  3.512464E+03  1.382286E+05  1.720298E+03  4.252258E+03
       183  25  1.660685E+05 -7.009082E+04 -4.851987E+04  1.375813E+05 -1.282781E+04  1.920564E+04
       183  26  2.876938E+05 -4.185036E+04 -2.694955E+04  1.257417E+05 -1.408134E+04  1.241418E+04
       183  27  4.091303E+05 -1.354530E+04 -6.195025E+03  1.381211E+05 -1.533290E+04  4.230519E+03
       184   1  4.520533E+05 -3.665040E+03  1.192195E+03  1.385475E+05 -1.944476E+04  1.003936E+03
       184   2  3.302994E+05 -3.138605E+04 -1.624989E+04  1.254174E+05 -2.039433E+04  9.237152E+03
       184   3  2.089977E+05 -5.762702E+04 -3.272086E+04  1.365121E+05 -2.134184E+04  1.618840E+04
       184   4  4.693766E+05  4.053268E+02  4.233967E+03  1.382302E+05 -2.396180E+03  1.025750E+03
       184   5  4.689391E+05  9.445218E+02  6.815765E+03  1.261163E+05 -5.810473E+03  9.255131E+03
       184   6  4.693641E+05  3.391085E+03  1.207760E+04  1.382266E+05 -9.222843E+03  1.620270E+04
       184   7  4.867009E+05  4.475834E+03  7.276820E+03  1.379130E+05  1.465286E+04  1.047547E+03
       184   8  6.075983E+05  3.327421E+04  2.988163E+04  1.268154E+05  8.776529E+03  9.273141E+03
       184   9  7.297972E+05  6.440565E+04  5.687430E+04  1.399418E+05  2.901077E+03  1.621706E+04
       184  10  4.520528E+05 -3.665143E+03  1.191483E+03  1.385475E+05 -1.833075E-09  2.721501E-09
       184  11  3.302990E+05 -3.138625E+04 -1.625083E+04  1.254175E+05  6.027119E-10 -2.958409E-11
       184  12  2.089972E+05 -5.762742E+04 -3.272220E+04  1.365123E+05  2.956970E-09  1.897080E-09
       184  13  4.693766E+05  4.053241E+02  4.233954E+03  1.382302E+05  1.418654E-10  1.567985E-09
       184  14  4.689391E+05  9.444207E+02  6.815540E+03  1.261164E+05  6.567290E-11  9.257084E-10
       184  15  4.693639E+05  3.390780E+03  1.207694E+04  1.382267E+05  5.495694E-10 -1.156579E-12
       184  16  4.867007E+05  4.475775E+03  7.276415E+03  1.379130E+05  1.906650E-09  1.451839E-09
       184  17  6.075981E+05  3.327410E+04  2.988133E+04  1.268154E+05 -1.221270E-09  1.202761E-09
       184  18  7.297972E+05  6.440536E+04  5.687379E+04  1.399417E+05 -3.463352E-09 -2.147739E-09
       184  19  4.520533E+05 -3.665040E+03  1.192195E+03  1.385475E+05  1.944476E+04 -1.003936E+03
       184  20  3.302994E+05 -3.138605E+04 -1.624989E+04  1.254174E+05  2.039433E+04 -9.237152E+03
       184  21  2.089977E+05 -5.762702E+04 -3.272086E+04  1.365121E+05  2.134184E+04 -1.618840E+04
       184  22  4.693766E+05  4.053268E+02  4.233967E+03  1.382302E+05  2.396180E+03 -1.025750E+03
       184  23  4.689391E+05  9.445218E+02  6.815765E+03  1.261163E+05  5.810473E+03 -9.255131E+03
       184  24  4.693641E+05  3.391085E+03  1.207760E+04  1.382266E+05  9.222843E+03 -1.620270E+04
       184  25  4.867009E+05  4.475834E+03  7.276820E+03  1.379130E+05 -1.465286E+04 -1.047547E+03
       184  26  6.075983E+05  3.327421E+04  2.988163E+04  1.268154E+05 -8.776529E+03 -9.273141E+03
       184  27  7.297972E+05  6.440565E+04  5.687430E+04  1.399418E+05 -2.901077E+03 -1.621706E+04
       185   1  1.327089E+05 -7.581250E+04 -4.303618E+04  1.390871E+05 -2.407789E+04  2.048140E+04
       185   2  8.921745E+03 -9.442332E+04 -6.000650E+04  1.092026E+05 -1.278040E+04  2.033937E+04
       185   3 -1.105296E+05 -8.973908E+04 -7.851407E+04  1.026115E+05 -1.473920E+03  6.569008E+03
       185   4  4.711328E+05  3.634270E+03  1.590154E+04  1.380240E+05 -1.130037E+04  2.049587E+04
       185   5  4.666798E+05  1.494420E+04  2.896977E+04  1.263519E+05 -2.617447E+04  2.032274E+04
       185   6  4.710847E+05  5.408099E+04  5.866537E+04  1.379694E+05 -4.103816E+04  6.526563E+03
       185   7  8.096692E+05  8.307493E+04  7.483582E+04  1.369604E+05  1.483915E+03  2.051029E+04
       185   8  9.246399E+05  1.243004E+05  1.179369E+05  1.435140E+05 -3.957819E+04  2.030539E+04
       185   9  1.053016E+06  1.978824E+05  1.958280E+05  1.733605E+05 -8.063924E+04  6.479636E+03
       185  10  1.327082E+05 -7.581310E+04 -4.303805E+04  1.390875E+05 -9.693898E-10  2.096185E-09
       185  11  8.921459E+03 -9.442381E+04 -6.000758E+04  1.092028E+05  2.492840E-10 -9.119649E-10
       185  12 -1.105296E+05 -8.973912E+04 -7.851416E+04  1.026116E+05  4.873106E-10 -4.823315E-10
       185  13  4.711325E+05  3.633784E+03  1.590051E+04  1.380242E+05  3.010313E-10  2.545575E-09
       185  14  4.666789E+05  1.494357E+04  2.896770E+04  1.263523E+05 -2.084819E-10 -2.906210E-09
       185  15  4.710828E+05  5.408050E+04  5.866213E+04  1.379696E+05  6.169615E-10  1.521501E-09
       185  16  8.096690E+05  8.307448E+04  7.483503E+04  1.369603E+05  1.452142E-09  5.035538E-10
       185  17  9.246381E+05  1.242995E+05  1.179332E+05  1.435147E+05 -3.590659E-10  1.185328E-09
       185  18  1.053009E+06  1.978806E+05  1.958157E+05  1.733609E+05 -8.440372E-10 -5.014153E-10
       185  19  1.327089E+05 -7.581250E+04 -4.303618E+04  1.390871E+05  2.407789E+04 -2.048140E+04
       185  20  8.921745E+03 -9.442332E+04 -6.000650E+04  1.092026E+05  1.278040E+04 -2.033937E+04
       185  21 -1.105296E+05 -8.973908E+04 -7.851407E+04  1.026115E+05  1.473920E+03 -6.569008E+03
       185  22  4.711328E+05  3.634270E+03  1.590154E+04  1.380240E+05  1.130037E+04 -2.049587E+04
       185  23  4.666798E+05  1.494420E+04  2.896977E+04  1.263519E+05  2.617447E+04 -2.032274E+04
       185  24  4.710847E+05  5.408099E+04  5.866537E+04  1.379694E+05  4.103816E+04 -6.526563E+03
       185  25  8.096692E+05  8.307493E+04  7.483582E+04  1.369604E+05 -1.483915E+03 -2.051029E+04
       185  26  9.246399E+05  1.243004E+05  1.179369E+05  1.435140E+05  3.957819E+04 -2.030539E+04
       185  27  1.053016E+06  1.978824E+05  1.958280E+05  1.733605E+05  8.063924E+04 -6.479636E+03
       186   1 -4.097148E+05 -1.337120E+06 -4.029416E+05  4.056677E+05 -1.410868E+04 -1.505059E+05
       186   2 -2.609919E+05 -1.016165E+06 -2.406081E+05  3.467516E+05 -4.285277E+04 -6.791976E+04
       186   3 -1.670603E+05 -7.194259E+05 -1.458036E+05  3.472870E+05 -4.092886E+04  1.473804E+04
       186   4 -8.688731E+04 -3.293972E+04 -9.427210E+04  3.494581E+05 -1.410576E+04 -6.608231E+04
       186   5 -2.395148E+04 -2.581044E+04 -4.641991E+04  3.197334E+05 -4.284467E+04 -4.223478E+04
       186   6 -5.542714E+03 -3.273805E+04 -2.521578E+04  3.494702E+05 -4.093027E+04 -1.836103E+04
       186   7  2.358338E+05  1.272828E+06  2.143079E+05  2.931293E+05 -1.411821E+04  1.851807E+04
       186   8  2.130328E+05  9.654881E+05  1.477238E+05  2.926709E+05 -4.283881E+04 -1.650961E+04
       186   9  1.559497E+05  6.544139E+05  9.535908E+04  3.516558E+05 -4.093191E+04 -5.149564E+04
       186  10 -4.097211E+05 -1.337144E+06 -4.029847E+05  4.056660E+05 -1.984010E-11  4.996098E-11
       186  11 -2.609951E+05 -1.016170E+06 -2.406202E+05  3.467493E+05 -3.418018E-11  1.902813E-09
       186  12 -1.670622E+05 -7.194265E+05 -1.458071E+05  3.472875E+05  2.166956E-10  5.760643E-10
       186  13 -8.688870E+04 -3.294446E+04 -9.428068E+04  3.494574E+05  2.996683E-10 -1.292884E-09
       186  14 -2.395393E+04 -2.581284E+04 -4.642670E+04  3.197320E+05  1.053924E-10  1.365416E-09
       186  15 -5.544603E+03 -3.273886E+04 -2.521956E+04  3.494696E+05  3.413346E-10 -1.020076E-10
       186  16  2.358335E+05  1.272827E+06  2.143069E+05  2.931295E+05  1.820960E-10 -6.513043E-10
       186  17  2.130308E+05  9.654873E+05  1.477199E+05  2.926704E+05  5.679861E-10 -4.171004E-10
       186  18  1.559472E+05  6.544106E+05  9.535096E+04  3.516541E+05  5.997684E-10 -1.439200E-09
       186  19 -4.097148E+05 -1.337120E+06 -4.029416E+05  4.056677E+05  1.410868E+04  1.505059E+05
       186  20 -2.609919E+05 -1.016165E+06 -2.406081E+05  3.467516E+05  4.285277E+04  6.791976E+04
       186  21 -1.670603E+05 -7.194259E+05 -1.458036E+05  3.472870E+05  4.092886E+04 -1.473804E+04
       186  22 -8.688731E+04 -3.293972E+04 -9.427210E+04  3.494581E+05  1.410576E+04  6.608231E+04
       186  23 -2.395148E+04 -2.581044E+04 -4.641991E+04  3.197334E+05  4.284467E+04  4.223478E+04
       186  24 -5.542714E+03 -3.273805E+04 -2.521578E+04  3.494702E+05  4.093027E+04  1.836103E+04
       186  25  2.358338E+05  1.272828E+06  2.143079E+05  2.931293E+05  1.411821E+04 -1.851807E+04
       186  26  2.130328E+05  9.654881E+05  1.477238E+05  2.926709E+05  4.283881E+04  1.650961E+04
       186  27  1.559497E+05  6.544139E+05  9.535908E+04  3.516558E+05  4.093191E+04  5.149564E+04
       187   1 -1.197858E+05 -5.183951E+05 -1.038358E+05  3.522553E+05 -2.984030E+04  1.658577E+04
       187   2 -4.280643E+04 -2.088436E+05 -3.897005E+04  3.200659E+05 -1.290453E+04  2.328984E+04
       187   3  3.094959E+04  9.919667E+04  2.073360E+04  3.493261E+05  4.869196E+03  2.999530E+04
       187   4 -5.074384E+03 -2.986484E+04 -1.896650E+04  3.499076E+05 -2.984528E+04 -1.511310E+04
       187   5 -1.113124E+03 -2.918513E+04 -1.018660E+04  3.191826E+05 -1.291172E+04 -1.002060E+04
       187   6 -8.960659E+01 -2.982770E+04 -5.446579E+03  3.499069E+05  4.859565E+03 -4.929858E+03
       187   7  1.096247E+05  4.589017E+05  6.589828E+04  3.475578E+05 -2.985001E+04 -4.683615E+04
       187   8  4.057916E+04  1.505079E+05  1.860017E+04  3.182990E+05 -1.291881E+04 -4.334034E+04
       187   9 -3.112918E+04 -1.588336E+05 -3.162304E+04  3.504875E+05  4.849867E+03 -3.984789E+04
       187  10 -1.197868E+05 -5.183956E+05 -1.038380E+05  3.522557E+05 -1.491094E-11 -1.819700E-10
       187  11 -4.280675E+04 -2.088443E+05 -3.897139E+04  3.200662E+05 -4.693472E-10  9.563310E-10
       187  12  3.094932E+04  9.919569E+04  2.073187E+04  3.493260E+05 -3.798735E-10  1.030662E-09
       187  13 -5.075401E+03 -2.986532E+04 -1.896860E+04  3.499072E+05  2.542549E-10 -9.079346E-10
       187  14 -1.113330E+03 -2.918528E+04 -1.018710E+04  3.191825E+05 -3.500436E-11 -4.992039E-10
       187  15 -8.963850E+01 -2.982773E+04 -5.446669E+03  3.499069E+05 -4.170337E-11 -4.221531E-10
       187  16  1.096231E+05  4.588991E+05  6.589249E+04  3.475567E+05  4.549454E-10 -7.873128E-12
       187  17  4.057847E+04  1.505058E+05  1.859633E+04  3.182986E+05  7.113451E-10 -5.127152E-10
       187  18 -3.112963E+04 -1.588353E+05 -3.162607E+04  3.504877E+05  4.096575E-10 -1.307834E-09
       187  19 -1.197858E+05 -5.183951E+05 -1.038358E+05  3.522553E+05  2.984030E+04 -1.658577E+04
       187  20 -4.280643E+04 -2.088436E+05 -3.897005E+04  3.200659E+05  1.290453E+04 -2.328984E+04
       187  21  3.094959E+04  9.919667E+04  2.073360E+04  3.493261E+05 -4.869196E+03 -2.999530E+04
       187  22 -5.074384E+03 -2.986484E+04 -1.896650E+04  3.499076E+05  2.984528E+04  1.511310E+04
       187  23 -1.113124E+03 -2.918513E+04 -1.018660E+04  3.191826E+05  1.291172E+04  1.002060E+04
       187  24 -8.960659E+01 -2.982770E+04 -5.446579E+03  3.499069E+05 -4.859565E+03  4.929858E+03
       187  25  1.096247E+05  4.589017E+05  6.589828E+04  3.475578E+05  2.985001E+04  4.683615E+04
       187  26  4.057916E+04  1.505079E+05  1.860017E+04  3.182990E+05  1.291881E+04  4.334034E+04
       187  27 -3.112918E+04 -1.588336E+05 -3.162304E+04  3.504875E+05 -4.849867E+03  3.984789E+04
       188   1  7.744126E+04  2.973975E+05  5.712739E+04  3.493694E+05  1.659489E+04  3.176556E+04
       188   2  1.521371E+05  6.026221E+05  1.265985E+05  3.195731E+05  2.395746E+04 -1.098162E+04
       188   3  2.346549E+05  9.155646E+05  2.258550E+05  3.498652E+05  8.690938E+03 -5.376384E+04
       188   4 -1.304165E+02 -2.953023E+04 -3.859552E+03  3.496053E+05  1.658642E+04 -4.132172E+03
       188   5  1.164144E+02 -2.964029E+04 -1.463732E+03  3.195588E+05  2.396039E+04 -3.399409E+03
       188   6  6.498209E+02 -2.965834E+04  5.390886E+02  3.496051E+05  8.694678E+03 -2.680711E+03
       188   7 -7.770756E+04 -3.563518E+05 -6.484622E+04  3.498409E+05  1.657791E+04 -4.001149E+04
       188   8 -1.519291E+05 -6.615221E+05 -1.295465E+05  3.195445E+05  2.396332E+04  4.175230E+03
       188   9 -2.334184E+05 -9.740569E+05 -2.248297E+05  3.493451E+05  8.698395E+03  4.832510E+04
       188  10  7.744070E+04  2.973963E+05  5.712497E+04  3.493690E+05 -4.152315E-10 -2.005267E-10
       188  11  1.521364E+05  6.026218E+05  1.265972E+05  3.195733E+05 -4.216751E-10  7.407796E-10
       188  12  2.346541E+05  9.155615E+05  2.258494E+05  3.498655E+05  2.563195E-11 -2.075585E-10
       188  13 -1.307166E+02 -2.953032E+04 -3.860101E+03  3.496053E+05 -3.127315E-11 -6.938476E-10
       188  14  1.157948E+02 -2.964045E+04 -1.464832E+03  3.195589E+05  2.110153E-10  2.376417E-10
       188  15  6.497378E+02 -2.965837E+04  5.389330E+02  3.496051E+05  1.465543E-10 -3.106790E-10
       188  16 -7.770829E+04 -3.563536E+05 -6.484975E+04  3.498415E+05  6.280912E-10 -4.673311E-10
       188  17 -1.519297E+05 -6.615223E+05 -1.295476E+05  3.195444E+05  2.393116E-10  2.070792E-11
       188  18 -2.334191E+05 -9.740594E+05 -2.248342E+05  3.493448E+05 -1.591324E-10 -5.748338E-10
       188  19  7.744126E+04  2.973975E+05  5.712739E+04  3.493694E+05 -1.659489E+04 -3.176556E+04
       188  20  1.521371E+05  6.026221E+05  1.265985E+05  3.195731E+05 -2.395746E+04  1.098162E+04
       188  21  2.346549E+05  9.155646E+05  2.258550E+05  3.498652E+05 -8.690938E+03  5.376384E+04
       188  22 -1.304165E+02 -2.953023E+04 -3.859552E+03  3.496053E+05 -1.658642E+04  4.132172E+03
       188  23  1.164144E+02 -2.964029E+04 -1.463732E+03  3.195588E+05 -2.396039E+04  3.399409E+03
       188  24  6.498209E+02 -2.965834E+04  5.390886E+02  3.496051E+05 -8.694678E+03  2.680711E+03
       188  25 -7.770756E+04 -3.563518E+05 -6.484622E+04  3.498409E+05 -1.657791E+04  4.001149E+04
       188  26 -1.519291E+05 -6.615221E+05 -1.295465E+05  3.195445E+05 -2.396332E+04 -4.175230E+03
       188  27 -2.334184E+05 -9.740569E+05 -2.248297E+05  3.493451E+05 -8.698395E+03 -4.832510E+04
       189   1  5.819041E+05  9.495708E+04  9.132429E+04  9.651917E+04  2.776895E+04 -3.948317E+03
       189   2  4.981695E+05  6.819095E+04  5.748871E+04  8.680602E+04  9.850535E+03 -1.212896E+04
       189   3  4.181560E+05  4.706439E+04  3.671952E+04  9.282393E+04 -8.072146E+03 -1.179241E+04
       189   4  2.200146E+05  5.512096E+03  5.860826E+03  9.276221E+04  3.902255E+03 -3.971957E+03
       189   5  2.195840E+05  1.603918E+03  3.044217E+03  8.489907E+04  2.350385E+03 -1.213705E+04
       189   6  2.200301E+05  4.972793E+02  1.936076E+03  9.276715E+04  7.917531E+02 -1.178329E+04
       189   7 -1.417533E+05 -8.394190E+04 -7.960955E+04  8.900741E+04 -1.995061E+04 -3.995316E+03
       189   8 -5.892691E+04 -6.498773E+04 -5.140378E+04  8.299298E+04 -5.146475E+03 -1.214509E+04
       189   9  2.194271E+04 -4.607193E+04 -3.284849E+04  9.271037E+04  9.652910E+03 -1.177417E+04
       189  10  5.819033E+05  9.495685E+04  9.132281E+04  9.651926E+04  5.661208E-08  1.001272E-09
       189  11  4.981694E+05  6.819076E+04  5.748825E+04  8.680611E+04 -1.370830E-09  2.643940E-09
       189  12  4.181558E+05  4.706423E+04  3.671914E+04  9.282386E+04 -6.103706E-08  1.095640E-09
       189  13  2.200146E+05  5.512075E+03  5.860767E+03  9.276222E+04 -1.512674E-10 -1.956005E-09
       189  14  2.195840E+05  1.603758E+03  3.043930E+03  8.489910E+04 -2.567399E-10 -2.173444E-09
       189  15  2.200300E+05  4.971301E+02  1.935814E+03  9.276715E+04  2.832224E-10  6.323637E-10
       189  16 -1.417538E+05 -8.394203E+04 -7.961033E+04  8.900735E+04 -5.663544E-08  2.961873E-10
       189  17 -5.892698E+04 -6.498790E+04 -5.140411E+04  8.299293E+04  7.642506E-10  3.484882E-09
       189  18  2.194257E+04 -4.607211E+04 -3.284893E+04  9.271046E+04  6.074156E-08  2.025726E-10
       189  19  5.819041E+05  9.495708E+04  9.132429E+04  9.651917E+04 -2.776895E+04  3.948317E+03
       189  20  4.981695E+05  6.819095E+04  5.748871E+04  8.680602E+04 -9.850535E+03  1.212896E+04
       189  21  4.181560E+05  4.706439E+04  3.671952E+04  9.282393E+04  8.072146E+03  1.179241E+04
       189  22  2.200146E+05  5.512096E+03  5.860826E+03  9.276221E+04 -3.902255E+03  3.971957E+03
       189  23  2.195840E+05  1.603918E+03  3.044217E+03  8.489907E+04 -2.350385E+03  1.213705E+04
       189  24  2.200301E+05  4.972793E+02  1.936076E+03  9.276715E+04 -7.917531E+02  1.178329E+04
       189  25 -1.417533E+05 -8.394190E+04 -7.960955E+04  8.900741E+04  1.995061E+04  3.995316E+03
       189  26 -5.892691E+04 -6.498773E+04 -5.140378E+04  8.299298E+04  5.146475E+03  1.214509E+04
       189  27  2.194271E+04 -4.607193E+04 -3.284849E+04  9.271037E+04 -9.652910E+03  1.177417E+04
       190   1  3.654844E+05  3.465641E+04  2.703668E+04  9.321002E+04 -7.943947E+03 -8.842015E+03
       190   2  2.834887E+05  1.512440E+04  1.241861E+04  8.490888E+04 -1.023044E+04 -4.051796E+03
       190   3  2.018972E+05 -3.864836E+03 -5.859534E+02  9.291700E+04 -1.251751E+04  1.524750E+03
       190   4  2.198684E+05  4.724355E+02  1.686580E+03  9.289515E+04  5.066519E+02 -8.833049E+03
       190   5  2.198031E+05  2.173791E+02  1.552416E+03  8.474059E+04 -2.700167E+02 -4.041012E+03
       190   6  2.198719E+05  2.430248E+02  1.983158E+03  9.289538E+04 -1.047570E+03  1.537398E+03
       190   7  7.427341E+04 -3.371265E+04 -2.366400E+04  9.258035E+04  8.955330E+03 -8.824090E+03
       190   8  1.561216E+05 -1.468981E+04 -9.313537E+03  8.457231E+04  9.689415E+03 -4.030233E+03
       190   9  2.378472E+05  4.350942E+03  4.552758E+03  9.287376E+04  1.042269E+04  1.550045E+03
       190  10  3.654843E+05  3.465631E+04  2.703642E+04  9.320996E+04 -5.929343E-10 -7.381173E-10
       190  11  2.834886E+05  1.512436E+04  1.241838E+04  8.490885E+04  5.251652E-10  6.800611E-10
       190  12  2.018971E+05 -3.864881E+03 -5.862521E+02  9.291701E+04  5.212408E-10  2.504323E-09
       190  13  2.198684E+05  4.723517E+02  1.686433E+03  9.289515E+04  1.576320E-10  2.974019E-09
       190  14  2.198031E+05  2.173615E+02  1.552385E+03  8.474059E+04 -2.117403E-10 -7.185790E-09
       190  15  2.198719E+05  2.430219E+02  1.983151E+03  9.289538E+04  6.310153E-10  1.936920E-09
       190  16  7.427330E+04 -3.371275E+04 -2.366430E+04  9.258042E+04  7.163934E-11 -2.633456E-09
       190  17  1.561215E+05 -1.468985E+04 -9.313744E+03  8.457234E+04 -8.178232E-10 -2.861183E-09
       190  18  2.378470E+05  4.350910E+03  4.552550E+03  9.287375E+04 -4.680670E-10  3.771106E-10
       190  19  3.654844E+05  3.465641E+04  2.703668E+04  9.321002E+04  7.943947E+03  8.842015E+03
       190  20  2.834887E+05  1.512440E+04  1.241861E+04  8.490888E+04  1.023044E+04  4.051796E+03
       190  21  2.018972E+05 -3.864836E+03 -5.859534E+02  9.291700E+04  1.251751E+04 -1.524750E+03
       190  22  2.198684E+05  4.724355E+02  1.686580E+03  9.289515E+04 -5.066519E+02  8.833049E+03
       190  23  2.198031E+05  2.173791E+02  1.552416E+03  8.474059E+04  2.700167E+02  4.041012E+03
       190  24  2.198719E+05  2.430248E+02  1.983158E+03  9.289538E+04  1.047570E+03 -1.537398E+03
       190  25  7.427341E+04 -3.371265E+04 -2.366400E+04  9.258035E+04 -8.955330E+03  8.824090E+03
       190  26  1.561216E+05 -1.468981E+04 -9.313537E+03  8.457231E+04 -9.689415E+03  4.030233E+03
       190  27  2.378472E+05  4.350942E+03  4.552758E+03  9.287376E+04 -1.042269E+04 -1.550045E+03
       191   1  1.498609E+05 -1.600898E+04 -8.737336E+03  9.303208E+04 -1.291101E+04  5.078090E+03
       191   2  6.799130E+04 -3.473208E+04 -2.078206E+04  8.429413E+04 -1.293410E+04  1.054957E+04
       191   3 -1.371215E+04 -5.268625E+04 -3.263010E+04  9.185164E+04 -1.295580E+04  1.500724E+04
       191   4  2.199520E+05  2.366011E+02  2.416041E+03  9.289240E+04 -1.431405E+03  5.090655E+03
       191   5  2.196984E+05  5.488376E+02  3.934286E+03  8.474391E+04 -3.402162E+03  1.055950E+04
       191   6  2.199433E+05  1.968440E+03  7.001321E+03  9.289055E+04 -5.371570E+03  1.501467E+04
       191   7  2.900482E+05  1.648201E+04  1.356979E+04  9.275269E+04  1.004945E+04  5.103214E+03
       191   8  3.714285E+05  3.582863E+04  2.865033E+04  8.519380E+04  6.132020E+03  1.056945E+04
       191   9  4.536526E+05  5.662028E+04  4.663118E+04  9.392985E+04  2.215418E+03  1.502213E+04
       191  10  1.498607E+05 -1.600906E+04 -8.737697E+03  9.303213E+04  6.096845E-08 -1.667506E-10
       191  11  6.799109E+04 -3.473224E+04 -2.078259E+04  8.429424E+04  2.122315E-10 -5.466941E-10
       191  12 -1.371239E+04 -5.268654E+04 -3.263083E+04  9.185180E+04 -6.125664E-08 -2.533427E-10
       191  13  2.199520E+05  2.365728E+02  2.415988E+03  9.289240E+04  1.296699E-10  1.116467E-09
       191  14  2.196984E+05  5.487147E+02  3.934055E+03  8.474394E+04  1.364811E-10 -8.161924E-10
       191  15  2.199432E+05  1.968190E+03  7.000843E+03  9.289062E+04  3.284676E-10 -4.561170E-10
       191  16  2.900481E+05  1.648196E+04  1.356955E+04  9.275265E+04 -6.115287E-08 -7.014139E-10
       191  17  3.714284E+05  3.582850E+04  2.865005E+04  8.519375E+04 -5.525643E-10  2.940763E-09
       191  18  4.536526E+05  5.662004E+04  4.663075E+04  9.392982E+04  6.129127E-08  1.729419E-09
       191  19  1.498609E+05 -1.600898E+04 -8.737336E+03  9.303208E+04  1.291101E+04 -5.078090E+03
       191  20  6.799130E+04 -3.473208E+04 -2.078206E+04  8.429413E+04  1.293410E+04 -1.054957E+04
       191  21 -1.371215E+04 -5.268625E+04 -3.263010E+04  9.185164E+04  1.295580E+04 -1.500724E+04
       191  22  2.199520E+05  2.366011E+02  2.416041E+03  9.289240E+04  1.431405E+03 -5.090655E+03
       191  23  2.196984E+05  5.488376E+02  3.934286E+03  8.474391E+04  3.402162E+03 -1.055950E+04
       191  24  2.199433E+05  1.968440E+03  7.001321E+03  9.289055E+04  5.371570E+03 -1.501467E+04
       191  25  2.900482E+05  1.648201E+04  1.356979E+04  9.275269E+04 -1.004945E+04 -5.103214E+03
       191  26  3.714285E+05  3.582863E+04  2.865033E+04  8.519380E+04 -6.132020E+03 -1.056945E+04
       191  27  4.536526E+05  5.662028E+04  4.663118E+04  9.392985E+04 -2.215418E+03 -1.502213E+04
       192   1 -6.528854E+04 -6.499934E+04 -4.008579E+04  9.330985E+04 -1.466773E+04  1.778214E+04
       192   2 -1.479771E+05 -7.873590E+04 -5.379195E+04  7.492923E+04 -3.215551E+03  1.677911E+04
       192   3 -2.289972E+05 -7.978692E+04 -7.178649E+04  7.212811E+04  8.242711E+03  5.312276E+03
       192   4  2.209713E+05  2.109005E+03  9.226083E+03  9.273381E+04 -6.575437E+03  1.778972E+04
       192   5  2.183867E+05  8.679865E+03  1.682270E+04  8.493108E+04 -1.521162E+04  1.676672E+04
       192   6  2.209485E+05  3.141904E+04  3.407862E+04  9.270623E+04 -2.384034E+04  5.283137E+03
       192   7  5.073117E+05  6.921299E+04  5.853541E+04  9.215747E+04  1.520469E+03  1.779729E+04
       192   8  5.848801E+05  9.608810E+04  8.743172E+04  9.493892E+04 -2.721461E+04  1.675394E+04
       192   9  6.710837E+05  1.426127E+05  1.399339E+05  1.132993E+05 -5.594652E+04  5.251883E+03
       192  10 -6.528886E+04 -6.499974E+04 -4.008679E+04  9.331006E+04  3.319046E-09 -2.086799E-09
       192  11 -1.479772E+05 -7.873620E+04 -5.379250E+04  7.492928E+04 -1.195789E-09 -1.552339E-09
       192  12 -2.289973E+05 -7.978697E+04 -7.178667E+04  7.212808E+04 -6.388272E-09 -1.872253E-09
       192  13  2.209711E+05  2.108653E+03  9.225407E+03  9.273390E+04 -5.439717E-12 -1.675686E-09
       192  14  2.183864E+05  8.679501E+03  1.682174E+04  8.493128E+04  9.482014E-11 -4.366353E-09
       192  15  2.209479E+05  3.141886E+04  3.407750E+04  9.270633E+04  2.647712E-10 -1.336830E-09
       192  16  5.073116E+05  6.921265E+04  5.853481E+04  9.215745E+04 -3.444324E-09 -7.619217E-10
       192  17  5.848792E+05  9.608760E+04  8.742981E+04  9.493929E+04  1.094809E-09 -1.900819E-10
       192  18  6.710804E+05  1.426118E+05  1.399280E+05  1.132995E+05  6.382884E-09 -2.044378E-10
       192  19 -6.528854E+04 -6.499934E+04 -4.008579E+04  9.330985E+04  1.466773E+04 -1.778214E+04
       192  20 -1.479771E+05 -7.873590E+04 -5.379195E+04  7.492923E+04  3.215551E+03 -1.677911E+04
       192  21 -2.289972E+05 -7.978692E+04 -7.178649E+04  7.212811E+04 -8.242711E+03 -5.312276E+03
       192  22  2.209713E+05  2.109005E+03  9.226083E+03  9.273381E+04  6.575437E+03 -1.778972E+04
       192  23  2.183867E+05  8.679865E+03  1.682270E+04  8.493108E+04  1.521162E+04 -1.676672E+04
       192  24  2.209485E+05  3.141904E+04  3.407862E+04  9.270623E+04  2.384034E+04 -5.283137E+03
       192  25  5.073117E+05  6.921299E+04  5.853541E+04  9.215747E+04 -1.520469E+03 -1.779729E+04
       192  26  5.848801E+05  9.608810E+04  8.743172E+04  9.493892E+04  2.721461E+04 -1.675394E+04
       192  27  6.710837E+05  1.426127E+05  1.399339E+05  1.132993E+05  5.594652E+04 -5.251883E+03
       193   1 -2.912119E+05 -1.049913E+06 -2.862450E+05  2.979529E+05 -9.955058E+03 -1.047047E+05
       193   2 -1.847093E+05 -8.123922E+05 -1.702719E+05  2.558088E+05 -3.007977E+04 -4.598179E+04
       193   3 -1.162142E+05 -5.918660E+05 -1.020664E+05  2.578062E+05 -2.818162E+04  1.278424E+04
       193   4 -5.973818E+04 -1.148610E+05 -6.479485E+04  2.591649E+05 -9.968357E+03 -4.506057E+04
       193   5 -1.651177E+04 -1.099611E+05 -3.217399E+04  2.371016E+05 -3.008007E+04 -2.854345E+04
       193   6 -3.931274E+03 -1.147524E+05 -1.796219E+04  2.591848E+05 -2.817658E+04 -1.200714E+04
       193   7  1.716803E+05  8.210066E+05  1.566087E+05  2.203181E+05 -9.989124E+03  1.467304E+04
       193   8  1.516574E+05  5.929445E+05  1.059013E+05  2.183728E+05 -3.008142E+04 -1.108576E+04
       193   9  1.083395E+05  3.625853E+05  6.613600E+04  2.605646E+05 -2.817165E+04 -3.681703E+04
       193  10 -2.912149E+05 -1.049925E+06 -2.862658E+05  2.979520E+05 -1.389598E-11  2.218646E-09
       193  11 -1.847109E+05 -8.123947E+05 -1.702776E+05  2.558077E+05 -4.044107E-10 -3.004272E-11
       193  12 -1.162151E+05 -5.918664E+05 -1.020682E+05  2.578065E+05 -2.437864E-10  4.639792E-10
       193  13 -5.973883E+04 -1.148632E+05 -6.479886E+04  2.591646E+05  2.339022E-10  5.539026E-10
       193  14 -1.651296E+04 -1.099622E+05 -3.217722E+04  2.371009E+05 -4.109727E-10 -2.514968E-09
       193  15 -3.932165E+03 -1.147528E+05 -1.796395E+04  2.591846E+05 -3.932435E-10  7.662631E-10
       193  16  1.716801E+05  8.210063E+05  1.566081E+05  2.203182E+05  6.554665E-11  7.410851E-10
       193  17  1.516564E+05  5.929441E+05  1.058994E+05  2.183725E+05  2.783758E-10 -4.406652E-09
       193  18  1.083383E+05  3.625836E+05  6.613196E+04  2.605637E+05 -7.343102E-10 -2.871623E-10
       193  19 -2.912119E+05 -1.049913E+06 -2.862450E+05  2.979529E+05  9.955058E+03  1.047047E+05
       193  20 -1.847093E+05 -8.123922E+05 -1.702719E+05  2.558088E+05  3.007977E+04  4.598179E+04
       193  21 -1.162142E+05 -5.918660E+05 -1.020664E+05  2.578062E+05  2.818162E+04 -1.278424E+04
       193  22 -5.973818E+04 -1.148610E+05 -6.479485E+04  2.591649E+05  9.968357E+03  4.506057E+04
       193  23 -1.651177E+04 -1.099611E+05 -3.217399E+04  2.371016E+05  3.008007E+04  2.854345E+04
       193  24 -3.931274E+03 -1.147524E+05 -1.796219E+04  2.591848E+05  2.817658E+04  1.200714E+04
       193  25  1.716803E+05  8.210066E+05  1.566087E+05  2.203181E+05  9.989124E+03 -1.467304E+04
       193  26  1.516574E+05  5.929445E+05  1.059013E+05  2.183728E+05  3.008142E+04  1.108576E+04
       193  27  1.083395E+05  3.625853E+05  6.613600E+04  2.605646E+05  2.817165E+04  3.681703E+04
       194   1 -8.121775E+04 -4.430129E+05 -7.160553E+04  2.612655E+05 -1.990263E+04  1.415039E+04
       194   2 -2.452445E+04 -2.134184E+05 -2.480820E+04  2.372035E+05 -7.270889E+03  1.936044E+04
       194   3  2.951239E+04  1.495508E+04  1.794544E+04  2.587089E+05  5.832862E+03  2.457168E+04
       194   4 -3.618022E+03 -1.128244E+05 -1.390720E+04  2.594970E+05 -1.989966E+04 -9.642082E+03
       194   5 -1.047045E+03 -1.122596E+05 -8.600487E+03  2.367135E+05 -7.268599E+03 -5.340129E+03
       194   6 -9.718735E+02 -1.128087E+05 -6.705601E+03  2.594973E+05  5.834380E+03 -1.038784E+03
       194   7  7.397610E+04  2.174722E+05  4.378937E+04  2.577274E+05 -1.989656E+04 -3.344683E+04
       194   8  2.243018E+04 -1.108933E+04  7.609245E+03  2.362233E+05 -7.266269E+03 -3.004458E+04
       194   9 -3.145675E+04 -2.405553E+05 -3.135494E+04  2.602856E+05  5.835832E+03 -2.664410E+04
       194  10 -8.121823E+04 -4.430133E+05 -7.160665E+04  2.612657E+05  7.091738E-11  2.032031E-09
       194  11 -2.452461E+04 -2.134188E+05 -2.480900E+04  2.372036E+05  6.782286E-10  5.505719E-10
       194  12  2.951219E+04  1.495442E+04  1.794425E+04  2.587088E+05  4.408635E-10 -2.306296E-12
       194  13 -3.618472E+03 -1.128246E+05 -1.390812E+04  2.594968E+05 -3.458073E-10  5.361752E-10
       194  14 -1.047109E+03 -1.122596E+05 -8.600639E+03  2.367134E+05  2.479686E-10 -1.614809E-09
       194  15 -9.719104E+02 -1.128087E+05 -6.705667E+03  2.594973E+05  1.965001E-10  4.132962E-10
       194  16  7.397537E+04  2.174709E+05  4.378653E+04  2.577269E+05 -4.665938E-10 -1.036940E-09
       194  17  2.242988E+04 -1.109031E+04  7.607450E+03  2.362232E+05 -2.632027E-10 -2.895982E-09
       194  18 -3.145698E+04 -2.405561E+05 -3.135634E+04  2.602857E+05 -1.719375E-10  2.629445E-10
       194  19 -8.121775E+04 -4.430129E+05 -7.160553E+04  2.612655E+05  1.990263E+04 -1.415039E+04
       194  20 -2.452445E+04 -2.134184E+05 -2.480820E+04  2.372035E+05  7.270889E+03 -1.936044E+04
       194  21  2.951239E+04  1.495508E+04  1.794544E+04  2.587089E+05 -5.832862E+03 -2.457168E+04
       194  22 -3.618022E+03 -1.128244E+05 -1.390720E+04  2.594970E+05  1.989966E+04  9.642082E+03
       194  23 -1.047045E+03 -1.122596E+05 -8.600487E+03  2.367135E+05  7.268599E+03  5.340129E+03
       194  24 -9.718735E+02 -1.128087E+05 -6.705601E+03  2.594973E+05 -5.834380E+03  1.038784E+03
       194  25  7.397610E+04  2.174722E+05  4.378937E+04  2.577274E+05  1.989656E+04  3.344683E+04
       194  26  2.243018E+04 -1.108933E+04  7.609245E+03  2.362233E+05  7.266269E+03  3.004458E+04
       194  27 -3.145675E+04 -2.405553E+05 -3.135494E+04  2.602856E+05 -5.835832E+03  2.664410E+04
       195   1  6.395344E+04  1.614970E+05  4.395827E+04  2.593859E+05  1.447088E+04  2.639129E+04
       195   2  1.166084E+05  3.887949E+05  9.263817E+04  2.327262E+05  1.945381E+04 -3.006288E+03
       195   3  1.683278E+05  6.198288E+05  1.602326E+05  2.505655E+05  6.939269E+03 -3.242721E+04
       195   4 -1.062109E+03 -1.130486E+05 -6.585904E+03  2.592613E+05  1.447336E+04  2.123176E+01
       195   5 -3.711307E+03 -1.120144E+05 -8.227168E+03  2.370080E+05  1.945380E+04  4.233810E+03
       195   6 -1.312753E+04 -1.131245E+05 -1.428903E+04  2.592575E+05  6.929847E+03  8.433479E+03
       195   7 -6.608157E+04 -3.875197E+05 -5.713058E+04  2.591367E+05  1.447584E+04 -2.633748E+04
       195   8 -1.240464E+05 -6.125846E+05 -1.091052E+05  2.412861E+05  1.945389E+04  1.146818E+04
       195   9 -1.946204E+05 -8.455815E+05 -1.888420E+05  2.679392E+05  6.921570E+03  4.924619E+04
       195  10  6.395303E+04  1.614962E+05  4.395657E+04  2.593856E+05  6.296802E-10  1.207664E-09
       195  11  1.166080E+05  3.887948E+05  9.263744E+04  2.327263E+05  8.274621E-10  8.869218E-10
       195  12  1.683275E+05  6.198277E+05  1.602306E+05  2.505657E+05  3.237503E-10  1.854396E-10
       195  13 -1.062334E+03 -1.130487E+05 -6.586298E+03  2.592613E+05  3.026457E-11  1.222431E-11
       195  14 -3.711718E+03 -1.120145E+05 -8.227913E+03  2.370079E+05  7.314970E-10 -9.863089E-10
       195  15 -1.312760E+04 -1.131246E+05 -1.428926E+04  2.592575E+05  4.078010E-10  5.978094E-10
       195  16 -6.608199E+04 -3.875205E+05 -5.713228E+04  2.591370E+05 -1.330106E-10 -5.798528E-10
       195  17 -1.240468E+05 -6.125849E+05 -1.091061E+05  2.412860E+05  7.620286E-10 -3.159271E-09
       195  18 -1.946211E+05 -8.455841E+05 -1.888467E+05  2.679390E+05  2.806158E-11 -6.574499E-10
       195  19  6.395344E+04  1.614970E+05  4.395827E+04  2.593859E+05 -1.447088E+04 -2.639129E+04
       195  20  1.166084E+05  3.887949E+05  9.263817E+04  2.327262E+05 -1.945381E+04  3.006288E+03
       195  21  1.683278E+05  6.198288E+05  1.602326E+05  2.505655E+05 -6.939269E+03  3.242721E+04
       195  22 -1.062109E+03 -1.130486E+05 -6.585904E+03  2.592613E+05 -1.447336E+04 -2.123176E+01
       195  23 -3.711307E+03 -1.120144E+05 -8.227168E+03  2.370080E+05 -1.945380E+04 -4.233810E+03
       195  24 -1.312753E+04 -1.131245E+05 -1.428903E+04  2.592575E+05 -6.929847E+03 -8.433479E+03
       195  25 -6.608157E+04 -3.875197E+05 -5.713058E+04  2.591367E+05 -1.447584E+04  2.633748E+04
       195  26 -1.240464E+05 -6.125846E+05 -1.091052E+05  2.412861E+05 -1.945389E+04 -1.146818E+04
       195  27 -1.946204E+05 -8.455815E+05 -1.888420E+05  2.679392E+05 -6.921570E+03 -4.924619E+04
       196   1  1.946391E+05  3.320689E+04  3.208748E+04  4.625005E+04  8.158135E+03 -1.197309E+03
       196   2  1.541284E+05  2.144536E+04  1.853233E+04  4.183977E+04  1.774710E+03 -3.352356E+03
       196   3  1.148960E+05  1.151912E+04  9.589126E+03  4.517577E+04 -4.610451E+03 -2.428292E+03
       196   4  6.703091E+04  1.608581E+03  1.694774E+03  4.516164E+04  1.072803E+03 -1.203128E+03
       196   5  6.690713E+04  4.802246E+02  9.218798E+02  4.128907E+04  6.028991E+02 -3.353364E+03
       196   6  6.703324E+04  1.607952E+02  6.551666E+02  4.516281E+04  1.307538E+02 -2.424303E+03
       196   7 -6.056227E+04 -2.999087E+04 -2.869889E+04  4.407345E+04 -6.011079E+03 -1.208923E+03
       196   8 -2.030692E+04 -2.048538E+04 -1.668895E+04  4.073845E+04 -5.687501E+02 -3.354371E+03
       196   9  1.917278E+04 -1.119765E+04 -8.278807E+03  4.514984E+04  4.871602E+03 -2.420313E+03
       196  10  1.946391E+05  3.320687E+04  3.208736E+04  4.625006E+04  1.742534E-09 -2.339351E-11
       196  11  1.541284E+05  2.144535E+04  1.853230E+04  4.183978E+04  7.817218E-11 -2.450036E-09
       196  12  1.148959E+05  1.151910E+04  9.589075E+03  4.517576E+04 -2.465811E-09 -1.005412E-09
       196  13  6.703091E+04  1.608579E+03  1.694770E+03  4.516164E+04 -8.629738E-11  1.418377E-09
       196  14  6.690713E+04  4.802124E+02  9.218579E+02  4.128907E+04  1.359984E-10 -1.301030E-09
       196  15  6.703324E+04  1.607889E+02  6.551555E+02  4.516281E+04  5.251793E-10 -6.929543E-10
       196  16 -6.056231E+04 -2.999088E+04 -2.869896E+04  4.407345E+04 -1.636515E-09  8.303258E-10
       196  17 -2.030693E+04 -2.048539E+04 -1.668897E+04  4.073844E+04 -3.854704E-10 -3.125144E-09
       196  18  1.917275E+04 -1.119766E+04 -8.278863E+03  4.514985E+04  2.487957E-09 -4.240364E-10
       196  19  1.946391E+05  3.320689E+04  3.208748E+04  4.625005E+04 -8.158135E+03  1.197309E+03
       196  20  1.541284E+05  2.144536E+04  1.853233E+04  4.183977E+04 -1.774710E+03  3.352356E+03
       196  21  1.148960E+05  1.151912E+04  9.589126E+03  4.517577E+04  4.610451E+03  2.428292E+03
       196  22  6.703091E+04  1.608581E+03  1.694774E+03  4.516164E+04 -1.072803E+03  1.203128E+03
       196  23  6.690713E+04  4.802246E+02  9.218798E+02  4.128907E+04 -6.028991E+02  3.353364E+03
       196  24  6.703324E+04  1.607952E+02  6.551666E+02  4.516281E+04 -1.307538E+02  2.424303E+03
       196  25 -6.056227E+04 -2.999087E+04 -2.869889E+04  4.407345E+04  6.011079E+03  1.208923E+03
       196  26 -2.030692E+04 -2.048538E+04 -1.668895E+04  4.073845E+04  5.687501E+02  3.354371E+03
       196  27  1.917278E+04 -1.119765E+04 -8.278807E+03  4.514984E+04 -4.871602E+03  2.420313E+03
       197   1  8.933378E+04  5.514404E+03  5.092239E+03  4.529554E+04 -4.565631E+03 -8.942614E+02
       197   2  4.941540E+04 -3.904195E+03 -1.659086E+03  4.127168E+04 -5.404691E+03  1.625949E+03
       197   3  9.639015E+03 -1.313510E+04 -7.821728E+03  4.520264E+04 -6.243867E+03  4.403896E+03
       197   4  6.699029E+04  1.514598E+02  6.197852E+02  4.520903E+04  2.746976E+01 -8.903676E+02
       197   5  6.696249E+04  7.456498E+01  6.892018E+02  4.123164E+04 -3.168199E+02  1.630229E+03
       197   6  6.698981E+04  9.968457E+01  1.003846E+03  4.520906E+04 -6.612685E+02  4.408560E+03
       197   7  4.464731E+04 -5.211504E+03 -3.852615E+03  4.512252E+04  4.620408E+03 -8.864751E+02
       197   8  8.450994E+04  4.053326E+03  3.037584E+03  4.119160E+04  4.771188E+03  1.634509E+03
       197   9  1.243440E+05  1.333433E+04  9.829463E+03  4.521549E+04  4.921826E+03  4.413225E+03
       197  10  8.933376E+04  5.514398E+03  5.092199E+03  4.529553E+04 -5.032408E-09  1.074793E-09
       197  11  4.941536E+04 -3.904206E+03 -1.659146E+03  4.127169E+04  2.686427E-11  1.218668E-10
       197  12  9.638968E+03 -1.313513E+04 -7.821837E+03  4.520266E+04  4.627689E-09  5.603905E-10
       197  13  6.699029E+04  1.514589E+02  6.197838E+02  4.520903E+04  1.342267E-10  5.395246E-10
       197  14  6.696248E+04  7.456210E+01  6.891966E+02  4.123164E+04  4.065950E-10  2.028944E-09
       197  15  6.698980E+04  9.966358E+01  1.003808E+03  4.520907E+04  3.777212E-10  4.986183E-10
       197  16  4.464729E+04 -5.211511E+03 -3.852656E+03  4.512252E+04  5.197205E-09  3.362589E-09
       197  17  8.450992E+04  4.053317E+03  3.037536E+03  4.119160E+04 -3.745506E-10 -5.241003E-10
       197  18  1.243439E+05  1.333430E+04  9.829381E+03  4.521547E+04 -4.853360E-09  6.842484E-10
       197  19  8.933378E+04  5.514404E+03  5.092239E+03  4.529554E+04  4.565631E+03  8.942614E+02
       197  20  4.941540E+04 -3.904195E+03 -1.659086E+03  4.127168E+04  5.404691E+03 -1.625949E+03
       197  21  9.639015E+03 -1.313510E+04 -7.821728E+03  4.520264E+04  6.243867E+03 -4.403896E+03
       197  22  6.699029E+04  1.514598E+02  6.197852E+02  4.520903E+04 -2.746976E+01  8.903676E+02
       197  23  6.696249E+04  7.456498E+01  6.892018E+02  4.123164E+04  3.168199E+02 -1.630229E+03
       197  24  6.698981E+04  9.968457E+01  1.003846E+03  4.520906E+04  6.612685E+02 -4.408560E+03
       197  25  4.464731E+04 -5.211504E+03 -3.852615E+03  4.512252E+04 -4.620408E+03  8.864751E+02
       197  26  8.450994E+04  4.053326E+03  3.037584E+03  4.119160E+04 -4.771188E+03 -1.634509E+03
       197  27  1.243440E+05  1.333433E+04  9.829463E+03  4.521549E+04 -4.921826E+03 -4.413225E+03
       198   1 -1.570339E+04 -1.905405E+04 -1.174015E+04  4.526519E+04 -6.457456E+03  6.135512E+03
       198   2 -5.558867E+04 -2.815907E+04 -1.754184E+04  4.098185E+04 -6.341813E+03  8.742022E+03
       198   3 -9.540047E+04 -3.686303E+04 -2.332244E+04  4.463120E+04 -6.225537E+03  1.072905E+04
       198   4  6.703874E+04  9.553144E+01  1.268573E+03  4.520421E+04 -8.588983E+02  6.140115E+03
       198   5  6.689791E+04  2.761512E+02  2.145740E+03  4.123753E+04 -1.932896E+03  8.745443E+03
       198   6  6.703541E+04  1.064356E+03  3.869965E+03  4.520341E+04 -3.006254E+03  1.073135E+04
       198   7  1.497877E+05  1.924479E+04  1.427725E+04  4.514322E+04  4.740378E+03  6.144717E+03
       198   8  1.893994E+05  2.871063E+04  2.183299E+04  4.149325E+04  2.476861E+03  8.748867E+03
       198   9  2.294974E+05  3.899037E+04  3.106159E+04  4.577578E+04  2.138441E+02  1.073366E+04
       198  10 -1.570344E+04 -1.905410E+04 -1.174030E+04  4.526522E+04  3.892644E-10 -1.986462E-10
       198  11 -5.558873E+04 -2.815916E+04 -1.754206E+04  4.098189E+04 -1.142975E-10  2.479649E-09
       198  12 -9.540055E+04 -3.686316E+04 -2.332273E+04  4.463125E+04 -8.204845E-10 -6.140454E-10
       198  13  6.703872E+04  9.549076E+01  1.268501E+03  4.520421E+04 -1.102288E-10 -2.147400E-09
       198  14  6.689788E+04  2.760681E+02  2.145590E+03  4.123754E+04  2.047372E-10  1.827071E-09
       198  15  6.703537E+04  1.064230E+03  3.869732E+03  4.520344E+04  2.394788E-10 -5.178457E-10
       198  16  1.497877E+05  1.924474E+04  1.427713E+04  4.514320E+04 -4.578755E-10 -1.843915E-09
       198  17  1.893994E+05  2.871055E+04  2.183284E+04  4.149324E+04 -4.569149E-10 -1.045477E-09
       198  18  2.294973E+05  3.899025E+04  3.106137E+04  4.577577E+04  7.622829E-10  2.686242E-10
       198  19 -1.570339E+04 -1.905405E+04 -1.174015E+04  4.526519E+04  6.457456E+03 -6.135512E+03
       198  20 -5.558867E+04 -2.815907E+04 -1.754184E+04  4.098185E+04  6.341813E+03 -8.742022E+03
       198  21 -9.540047E+04 -3.686303E+04 -2.332244E+04  4.463120E+04  6.225537E+03 -1.072905E+04
       198  22  6.703874E+04  9.553144E+01  1.268573E+03  4.520421E+04  8.588983E+02 -6.140115E+03
       198  23  6.689791E+04  2.761512E+02  2.145740E+03  4.123753E+04  1.932896E+03 -8.745443E+03
       198  24  6.703541E+04  1.064356E+03  3.869965E+03  4.520341E+04  3.006254E+03 -1.073135E+04
       198  25  1.497877E+05  1.924479E+04  1.427725E+04  4.514322E+04 -4.740378E+03 -6.144717E+03
       198  26  1.893994E+05  2.871063E+04  2.183299E+04  4.149325E+04 -2.476861E+03 -8.748867E+03
       198  27  2.294974E+05  3.899037E+04  3.106159E+04  4.577578E+04 -2.138441E+02 -1.073366E+04
       199   1 -1.205193E+05 -4.289130E+04 -2.693151E+04  4.544231E+04 -7.191423E+03  1.198510E+04
       199   2 -1.608103E+05 -4.926976E+04 -3.397853E+04  3.580779E+04 -1.446273E+02  1.073958E+04
       199   3 -2.002920E+05 -4.871819E+04 -4.388223E+04  3.368153E+04  6.905380E+03  3.323291E+03
       199   4  6.760816E+04  1.143878E+03  5.113354E+03  4.511021E+04 -3.671169E+03  1.198752E+04
       199   5  6.617340E+04  4.804633E+03  9.348044E+03  4.135031E+04 -8.470405E+03  1.073309E+04
       199   6  6.760175E+04  1.745041E+04  1.895216E+04  4.509818E+04 -1.326584E+04  3.309051E+03
       199   7  2.557705E+05  4.517719E+04  3.715710E+04  4.477800E+04 -1.498829E+02  1.198994E+04
       199   8  2.932070E+05  5.887615E+04  5.267256E+04  4.689489E+04 -1.679915E+04  1.072645E+04
       199   9  3.355627E+05  8.361462E+04  8.178323E+04  5.651978E+04 -3.344571E+04  3.294072E+03
       199  10 -1.205194E+05 -4.289147E+04 -2.693187E+04  4.544238E+04  1.716035E-09  4.477578E-10
       199  11 -1.608103E+05 -4.926989E+04 -3.397875E+04  3.580779E+04  2.164282E-09  9.535558E-10
       199  12 -2.002920E+05 -4.871822E+04 -4.388234E+04  3.368151E+04  1.420870E-09  1.623626E-09
       199  13  6.760811E+04  1.143720E+03  5.113059E+03  4.511025E+04 -6.816460E-13  4.481841E-10
       199  14  6.617330E+04  4.804490E+03  9.347693E+03  4.135038E+04  1.212220E-10  1.759308E-09
       199  15  6.760156E+04  1.745035E+04  1.895181E+04  4.509822E+04  2.014637E-10  2.587500E-10
       199  16  2.557704E+05  4.517703E+04  3.715683E+04  4.477800E+04 -1.812194E-09  1.567211E-09
       199  17  2.932066E+05  5.887595E+04  5.267182E+04  4.689504E+04 -2.414799E-09  2.275950E-09
       199  18  3.355615E+05  8.361430E+04  8.178111E+04  5.651987E+04 -1.647430E-09 -2.864757E-11
       199  19 -1.205193E+05 -4.289130E+04 -2.693151E+04  4.544231E+04  7.191423E+03 -1.198510E+04
       199  20 -1.608103E+05 -4.926976E+04 -3.397853E+04  3.580779E+04  1.446273E+02 -1.073958E+04
       199  21 -2.002920E+05 -4.871819E+04 -4.388223E+04  3.368153E+04 -6.905380E+03 -3.323291E+03
       199  22  6.760816E+04  1.143878E+03  5.113354E+03  4.511021E+04  3.671169E+03 -1.198752E+04
       199  23  6.617340E+04  4.804633E+03  9.348044E+03  4.135031E+04  8.470405E+03 -1.073309E+04
       199  24  6.760175E+04  1.745041E+04  1.895216E+04  4.509818E+04  1.326584E+04 -3.309051E+03
       199  25  2.557705E+05  4.517719E+04  3.715710E+04  4.477800E+04  1.498829E+02 -1.198994E+04
       199  26  2.932070E+05  5.887615E+04  5.267256E+04  4.689489E+04  1.679915E+04 -1.072645E+04
       199  27  3.355627E+05  8.361462E+04  8.178323E+04  5.651978E+04  3.344571E+04 -3.294072E+03
       200   1 -1.746626E+05 -6.831307E+05 -1.713612E+05  1.805377E+05 -6.068170E+03 -6.130275E+04
       200   2 -1.118807E+05 -5.377657E+05 -1.023417E+05  1.558394E+05 -1.834110E+04 -2.625079E+04
       200   3 -7.064781E+04 -4.022778E+05 -6.154194E+04  1.582096E+05 -1.715580E+04  8.820527E+03
       200   4 -3.320699E+04 -1.115963E+05 -3.602336E+04  1.589099E+05 -6.082247E+03 -2.488705E+04
       200   5 -9.192517E+03 -1.088726E+05 -1.801287E+04  1.453819E+05 -1.834385E+04 -1.564474E+04
       200   6 -2.234010E+03 -1.115552E+05 -1.028036E+04  1.589241E+05 -1.715024E+04 -6.391961E+03
       200   7  1.082276E+05  4.602423E+05  9.929707E+04  1.372620E+05 -6.098860E+03  1.156203E+04
       200   8  9.348504E+04  3.201973E+05  6.630749E+04  1.349171E+05 -1.834695E+04 -5.031510E+03
       200   9  6.617529E+04  1.792506E+05  4.097900E+04  1.596391E+05 -1.714471E+04 -2.161137E+04
       200  10 -1.746636E+05 -6.831348E+05 -1.713684E+05  1.805374E+05  1.855109E-10  1.438429E-09
       200  11 -1.118813E+05 -5.377665E+05 -1.023436E+05  1.558390E+05 -8.674748E-12  2.986005E-10
       200  12 -7.064815E+04 -4.022780E+05 -6.154264E+04  1.582097E+05 -1.147432E-10 -3.284678E-13
       200  13 -3.320720E+04 -1.115970E+05 -3.602460E+04  1.589098E+05  3.242781E-10  1.005148E-11
       200  14 -9.192944E+03 -1.088730E+05 -1.801396E+04  1.453817E+05  4.595008E-10 -2.737111E-10
       200  15 -2.234337E+03 -1.115553E+05 -1.028099E+04  1.589241E+05  1.736748E-10  4.990249E-10
       200  16  1.082275E+05  4.602421E+05  9.929675E+04  1.372621E+05  2.176499E-10  3.695236E-10
       200  17  9.348467E+04  3.201971E+05  6.630681E+04  1.349170E+05  9.373200E-10  8.110787E-10
       200  18  6.617485E+04  1.792501E+05  4.097757E+04  1.596388E+05  1.679150E-10 -9.523079E-10
       200  19 -1.746626E+05 -6.831307E+05 -1.713612E+05  1.805377E+05  6.068170E+03  6.130275E+04
       200  20 -1.118807E+05 -5.377657E+05 -1.023417E+05  1.558394E+05  1.834110E+04  2.625079E+04
       200  21 -7.064781E+04 -4.022778E+05 -6.154194E+04  1.582096E+05  1.715580E+04 -8.820527E+03
       200  22 -3.320699E+04 -1.115963E+05 -3.602336E+04  1.589099E+05  6.082247E+03  2.488705E+04
       200  23 -9.192517E+03 -1.088726E+05 -1.801287E+04  1.453819E+05  1.834385E+04  1.564474E+04
       200  24 -2.234010E+03 -1.115552E+05 -1.028036E+04  1.589241E+05  1.715024E+04  6.391961E+03
       200  25  1.082276E+05  4.602423E+05  9.929707E+04  1.372620E+05  6.098860E+03 -1.156203E+04
       200  26  9.348504E+04  3.201973E+05  6.630749E+04  1.349171E+05  1.834695E+04  5.031510E+03
       200  27  6.617529E+04  1.792506E+05  4.097900E+04  1.596391E+05  1.714471E+04  2.161137E+04
       201   1 -4.921812E+04 -3.111418E+05 -4.321556E+04  1.601656E+05 -1.207780E+04  9.587627E+03
       201   2 -1.467981E+04 -1.703599E+05 -1.517239E+04  1.453633E+05 -4.330641E+03  1.289213E+04
       201   3  1.815723E+04 -3.037083E+04  1.030335E+04  1.584966E+05  3.697594E+03  1.619719E+04
       201   4 -2.064379E+03 -1.105052E+05 -8.137345E+03  1.591144E+05 -1.207317E+04 -5.015035E+03
       201   5 -7.047252E+02 -1.101433E+05 -5.524454E+03  1.451468E+05 -4.326116E+03 -2.250915E+03
       201   6 -9.514289E+02 -1.104994E+05 -5.103374E+03  1.591148E+05  3.701971E+03  5.130491E+02
       201   7  4.508729E+04  9.017137E+04  2.694024E+04  1.580629E+05 -1.206848E+04 -1.962228E+04
       201   8  1.327030E+04 -4.992252E+04  4.124244E+03  1.449303E+05 -4.321580E+03 -1.739538E+04
       201   9 -2.006034E+04 -1.906213E+05 -2.050947E+04  1.597329E+05  3.706317E+03 -1.516911E+04
       201  10 -4.921830E+04 -3.111419E+05 -4.321601E+04  1.601657E+05 -4.261386E-10  1.516479E-09
       201  11 -1.467988E+04 -1.703601E+05 -1.517273E+04  1.453633E+05  1.018056E-10 -4.327637E-10
       201  12  1.815715E+04 -3.037111E+04  1.030284E+04  1.584965E+05 -2.543456E-11  3.083920E-10
       201  13 -2.064543E+03 -1.105052E+05 -8.137666E+03  1.591144E+05 -2.120278E-10 -5.417589E-10
       201  14 -7.047467E+02 -1.101433E+05 -5.524499E+03  1.451468E+05 -3.595264E-10  2.729628E-10
       201  15 -9.514437E+02 -1.104994E+05 -5.103400E+03  1.591148E+05  2.255706E-11 -1.104208E-09
       201  16  4.508703E+04  9.017091E+04  2.693924E+04  1.580628E+05 -2.367608E-11 -5.442538E-11
       201  17  1.327020E+04 -4.992285E+04  4.123640E+03  1.449303E+05 -3.411936E-10  3.694730E-13
       201  18 -2.006041E+04 -1.906215E+05 -2.050993E+04  1.597330E+05 -1.734833E-10 -1.531984E-09
       201  19 -4.921812E+04 -3.111418E+05 -4.321556E+04  1.601656E+05  1.207780E+04 -9.587627E+03
       201  20 -1.467981E+04 -1.703599E+05 -1.517239E+04  1.453633E+05  4.330641E+03 -1.289213E+04
       201  21  1.815723E+04 -3.037083E+04  1.030335E+04  1.584966E+05 -3.697594E+03 -1.619719E+04
       201  22 -2.064379E+03 -1.105052E+05 -8.137345E+03  1.591144E+05  1.207317E+04  5.015035E+03
       201  23 -7.047252E+02 -1.101433E+05 -5.524454E+03  1.451468E+05  4.326116E+03  2.250915E+03
       201  24 -9.514289E+02 -1.104994E+05 -5.103374E+03  1.591148E+05 -3.701971E+03 -5.130491E+02
       201  25  4.508729E+04  9.017137E+04  2.694024E+04  1.580629E+05  1.206848E+04  1.962228E+04
       201  26  1.327030E+04 -4.992252E+04  4.124244E+03  1.449303E+05  4.321580E+03  1.739538E+04
       201  27 -2.006034E+04 -1.906213E+05 -2.050947E+04  1.597329E+05 -3.706317E+03  1.516911E+04
       202   1  3.925181E+04  5.927272E+04  2.579816E+04  1.591749E+05  8.989907E+03  1.749154E+04
       202   2  7.038987E+04  1.990571E+05  5.424557E+04  1.409652E+05  1.202074E+04  8.731287E+02
       202   3  9.812306E+04  3.402242E+05  9.266900E+04  1.500326E+05  4.282908E+03 -1.575625E+04
       202   4 -1.028022E+03 -1.108384E+05 -5.487504E+03  1.589695E+05  8.994754E+03  1.340188E+03
       202   5 -3.803791E+03 -1.097405E+05 -7.924186E+03  1.453274E+05  1.201964E+04  5.401908E+03
       202   6 -1.357431E+04 -1.108675E+05 -1.474513E+04  1.589641E+05  4.273162E+03  9.456101E+03
       202   7 -4.130936E+04 -2.809209E+05 -3.677338E+04  1.587642E+05  8.999613E+03 -1.480685E+04
       202   8 -7.800327E+04 -4.184473E+05 -7.009874E+04  1.496873E+05  1.201862E+04  9.928478E+03
       202   9 -1.252857E+05 -5.617711E+05 -1.221711E+05  1.678891E+05  4.264139E+03  3.465023E+04
       202  10  3.925164E+04  5.927237E+04  2.579743E+04  1.591748E+05 -1.952667E-10  1.118518E-09
       202  11  7.038972E+04  1.990571E+05  5.424530E+04  1.409652E+05  6.943133E-10  2.614758E-10
       202  12  9.812297E+04  3.402240E+05  9.266850E+04  1.500327E+05  7.710717E-12 -5.421456E-10
       202  13 -1.028109E+03 -1.108384E+05 -5.487660E+03  1.589695E+05  5.433138E-11 -1.067130E-09
       202  14 -3.803954E+03 -1.097406E+05 -7.924512E+03  1.453273E+05  3.942111E-10 -1.346033E-09
       202  15 -1.357435E+04 -1.108676E+05 -1.474533E+04  1.589641E+05  1.134974E-10 -3.002863E-10
       202  16 -4.130951E+04 -2.809212E+05 -3.677395E+04  1.587643E+05  1.812444E-11  2.147786E-11
       202  17 -7.800345E+04 -4.184474E+05 -7.009920E+04  1.496872E+05  6.893429E-10  3.736386E-10
       202  18 -1.252861E+05 -5.617724E+05 -1.221734E+05  1.678889E+05  3.701433E-10 -6.074914E-10
       202  19  3.925181E+04  5.927272E+04  2.579816E+04  1.591749E+05 -8.989907E+03 -1.749154E+04
       202  20  7.038987E+04  1.990571E+05  5.424557E+04  1.409652E+05 -1.202074E+04 -8.731287E+02
       202  21  9.812306E+04  3.402242E+05  9.266900E+04  1.500326E+05 -4.282908E+03  1.575625E+04
       202  22 -1.028022E+03 -1.108384E+05 -5.487504E+03  1.589695E+05 -8.994754E+03 -1.340188E+03
       202  23 -3.803791E+03 -1.097405E+05 -7.924186E+03  1.453274E+05 -1.201964E+04 -5.401908E+03
       202  24 -1.357431E+04 -1.108675E+05 -1.474513E+04  1.589641E+05 -4.273162E+03 -9.456101E+03
       202  25 -4.130936E+04 -2.809209E+05 -3.677338E+04  1.587642E+05 -8.999613E+03  1.480685E+04
       202  26 -7.800327E+04 -4.184473E+05 -7.009874E+04  1.496873E+05 -1.201862E+04 -9.928478E+03
       202  27 -1.252857E+05 -5.617711E+05 -1.221711E+05  1.678891E+05 -4.264139E+03 -3.465023E+04
       203   1 -8.225214E+04 -3.744455E+05 -8.095598E+04  8.116602E+04 -2.814896E+03 -3.009989E+04
       203   2 -5.236804E+04 -3.104555E+05 -4.859282E+04  6.930070E+04 -8.589475E+03 -1.336040E+04
       203   3 -3.363335E+04 -2.514096E+05 -2.991807E+04  6.927441E+04 -8.233612E+03  3.385027E+03
       203   4 -1.767181E+04 -1.134297E+05 -1.921732E+04  6.963356E+04 -2.822696E+03 -1.315302E+04
       203   5 -4.877324E+03 -1.119734E+05 -9.702982E+03  6.371789E+04 -8.591573E+03 -8.176572E+03
       203   6 -1.187275E+03 -1.134207E+05 -5.703704E+03  6.964175E+04 -8.230589E+03 -3.196152E+03
       203   7  4.690429E+04  1.476498E+05  4.251776E+04  5.809622E+04 -2.831125E+03  3.800939E+03
       203   8  4.261114E+04  8.654671E+04  2.918508E+04  5.813327E+04 -8.593764E+03 -2.991118E+03
       203   9  3.125778E+04  2.458680E+04  1.851014E+04  7.000917E+04 -8.227574E+03 -9.778750E+03
       203  10 -8.225239E+04 -3.744465E+05 -8.095769E+04  8.116595E+04  9.887498E-11  1.047279E-09
       203  11 -5.236816E+04 -3.104558E+05 -4.859330E+04  6.930060E+04 -1.250103E-10  2.495812E-09
       203  12 -3.363342E+04 -2.514096E+05 -2.991822E+04  6.927443E+04 -6.963744E-10 -4.084318E-10
       203  13 -1.767186E+04 -1.134298E+05 -1.921766E+04  6.963353E+04  3.047017E-10  1.083168E-09
       203  14 -4.877422E+03 -1.119735E+05 -9.703246E+03  6.371784E+04 -7.812388E-12 -9.080570E-10
       203  15 -1.187350E+03 -1.134208E+05 -5.703851E+03  6.964173E+04 -5.957318E-10 -1.445613E-09
       203  16  4.690428E+04  1.476497E+05  4.251772E+04  5.809623E+04 -6.663402E-11  9.329116E-10
       203  17  4.261106E+04  8.654668E+04  2.918492E+04  5.813325E+04  2.005457E-10 -7.703326E-10
       203  18  3.125768E+04  2.458668E+04  1.850983E+04  7.000911E+04 -1.412299E-10 -4.176306E-10
       203  19 -8.225214E+04 -3.744455E+05 -8.095598E+04  8.116602E+04  2.814896E+03  3.009989E+04
       203  20 -5.236804E+04 -3.104555E+05 -4.859282E+04  6.930070E+04  8.589475E+03  1.336040E+04
       203  21 -3.363335E+04 -2.514096E+05 -2.991807E+04  6.927441E+04  8.233612E+03 -3.385027E+03
       203  22 -1.767181E+04 -1.134297E+05 -1.921732E+04  6.963356E+04  2.822696E+03  1.315302E+04
       203  23 -4.877324E+03 -1.119734E+05 -9.702982E+03  6.371789E+04  8.591573E+03  8.176572E+03
       203  24 -1.187275E+03 -1.134207E+05 -5.703704E+03  6.964175E+04  8.230589E+03  3.196152E+03
       203  25  4.690429E+04  1.476498E+05  4.251776E+04  5.809622E+04  2.831125E+03 -3.800939E+03
       203  26  4.261114E+04  8.654671E+04  2.918508E+04  5.813327E+04  8.593764E+03  2.991118E+03
       203  27  3.125778E+04  2.458680E+04  1.851014E+04  7.000917E+04  8.227574E+03  9.778750E+03
       204   1 -2.422623E+04 -2.113892E+05 -2.174282E+04  7.032421E+04 -6.028659E+03  3.885341E+03
       204   2 -9.014571E+03 -1.496377E+05 -9.428865E+03  6.368250E+04 -2.660557E+03  5.968493E+03
       204   3  5.126387E+03 -8.840395E+04  1.265269E+03  6.927715E+04  8.802508E+02  8.051846E+03
       204   4 -1.099610E+03 -1.128769E+05 -4.643672E+03  6.972896E+04 -6.025911E+03 -2.416026E+03
       204   5 -4.292263E+02 -1.126442E+05 -3.501651E+03  6.361085E+04 -2.657742E+03 -6.645023E+02
       204   6 -7.717391E+02 -1.128753E+05 -3.749033E+03  6.972910E+04  8.831235E+02  1.087030E+03
       204   7  2.202651E+04 -1.435492E+04  1.245529E+04  6.913362E+04 -6.023151E+03 -8.718363E+03
       204   8  8.156073E+03 -7.564919E+04  2.425693E+03  6.353920E+04 -2.654927E+03 -7.297878E+03
       204   9 -6.669876E+03 -1.373460E+05 -8.763186E+03  7.018103E+04  8.859861E+02 -5.877516E+03
       204  10 -2.422627E+04 -2.113892E+05 -2.174292E+04  7.032423E+04 -5.366569E-10  3.293203E-09
       204  11 -9.014588E+03 -1.496377E+05 -9.428945E+03  6.368252E+04  6.841055E-10  6.825261E-10
       204  12  5.126369E+03 -8.840402E+04  1.265146E+03  6.927714E+04 -3.629037E-10 -2.235892E-09
       204  13 -1.099650E+03 -1.128769E+05 -4.643752E+03  6.972895E+04 -2.761196E-10  1.620477E-09
       204  14 -4.292340E+02 -1.126442E+05 -3.501665E+03  6.361085E+04  1.274112E-10 -4.628229E-10
       204  15 -7.717403E+02 -1.128753E+05 -3.749037E+03  6.972910E+04 -6.613855E-10 -3.598380E-09
       204  16  2.202645E+04 -1.435502E+04  1.245508E+04  6.913357E+04 -2.612035E-10 -2.093469E-09
       204  17  8.156051E+03 -7.564925E+04  2.425580E+03  6.353918E+04 -8.278968E-10  7.282712E-10
       204  18 -6.669886E+03 -1.373461E+05 -8.763252E+03  7.018103E+04 -1.001392E-09  3.444463E-10
       204  19 -2.422623E+04 -2.113892E+05 -2.174282E+04  7.032421E+04  6.028659E+03 -3.885341E+03
       204  20 -9.014571E+03 -1.496377E+05 -9.428865E+03  6.368250E+04  2.660557E+03 -5.968493E+03
       204  21  5.126387E+03 -8.840395E+04  1.265269E+03  6.927715E+04 -8.802508E+02 -8.051846E+03
       204  22 -1.099610E+03 -1.128769E+05 -4.643672E+03  6.972896E+04  6.025911E+03  2.416026E+03
       204  23 -4.292263E+02 -1.126442E+05 -3.501651E+03  6.361085E+04  2.657742E+03  6.645023E+02
       204  24 -7.717391E+02 -1.128753E+05 -3.749033E+03  6.972910E+04 -8.831235E+02 -1.087030E+03
       204  25  2.202651E+04 -1.435492E+04  1.245529E+04  6.913362E+04  6.023151E+03  8.718363E+03
       204  26  8.156073E+03 -7.564919E+04  2.425693E+03  6.353920E+04  2.654927E+03  7.297878E+03
       204  27 -6.669876E+03 -1.373460E+05 -8.763186E+03  7.018103E+04 -8.859861E+02  5.877516E+03
       205   1  1.433156E+04 -4.933845E+04  7.652651E+03  6.990219E+04  3.217329E+03  8.861554E+03
       205   2  2.670165E+04  1.241670E+04  1.855151E+04  5.991385E+04  4.706123E+03  3.708201E+03
       205   3  3.442828E+04  7.370370E+04  3.164839E+04  6.189065E+04  1.713835E+03 -1.448211E+03
       205   4 -8.321360E+02 -1.132096E+05 -4.290395E+03  6.966951E+04  3.220326E+03  1.705070E+03
       205   5 -3.288985E+03 -1.122298E+05 -6.728071E+03  6.368406E+04  4.705583E+03  5.155166E+03
       205   6 -1.188331E+04 -1.132152E+05 -1.294281E+04  6.966424E+04  1.709276E+03  8.602566E+03
       205   7 -1.599604E+04 -1.770766E+05 -1.623342E+04  6.943685E+04  3.223329E+03 -5.450697E+03
       205   8 -3.328054E+04 -2.368615E+05 -3.200845E+04  6.745349E+04  4.705061E+03  6.601845E+03
       205   9 -5.819715E+04 -3.001017E+05 -5.753605E+04  7.743548E+04  1.704969E+03  1.865033E+04
       205  10  1.433152E+04 -4.933854E+04  7.652484E+03  6.990217E+04 -2.313283E-10  1.208283E-09
       205  11  2.670163E+04  1.241668E+04  1.855145E+04  5.991383E+04  6.625039E-10 -1.330098E-09
       205  12  3.442828E+04  7.370369E+04  3.164838E+04  6.189065E+04  2.045837E-10 -6.492440E-10
       205  13 -8.321479E+02 -1.132096E+05 -4.290420E+03  6.966951E+04 -5.049099E-10 -1.067145E-09
       205  14 -3.289016E+03 -1.122298E+05 -6.728163E+03  6.368404E+04  3.071974E-10  3.340113E-09
       205  15 -1.188333E+04 -1.132153E+05 -1.294295E+04  6.966422E+04  3.812955E-10 -2.326125E-09
       205  16 -1.599605E+04 -1.770766E+05 -1.623350E+04  6.943686E+04 -4.189199E-10 -1.371103E-09
       205  17 -3.328057E+04 -2.368615E+05 -3.200857E+04  6.745347E+04  5.073501E-10  1.727664E-09
       205  18 -5.819725E+04 -3.001021E+05 -5.753671E+04  7.743545E+04  3.438107E-10  5.560511E-10
       205  19  1.433156E+04 -4.933845E+04  7.652651E+03  6.990219E+04 -3.217329E+03 -8.861554E+03
       205  20  2.670165E+04  1.241670E+04  1.855151E+04  5.991385E+04 -4.706123E+03 -3.708201E+03
       205  21  3.442828E+04  7.370370E+04  3.164839E+04  6.189065E+04 -1.713835E+03  1.448211E+03
       205  22 -8.321360E+02 -1.132096E+05 -4.290395E+03  6.966951E+04 -3.220326E+03 -1.705070E+03
       205  23 -3.288985E+03 -1.122298E+05 -6.728071E+03  6.368406E+04 -4.705583E+03 -5.155166E+03
       205  24 -1.188331E+04 -1.132152E+05 -1.294281E+04  6.966424E+04 -1.709276E+03 -8.602566E+03
       205  25 -1.599604E+04 -1.770766E+05 -1.623342E+04  6.943685E+04 -3.223329E+03  5.450697E+03
       205  26 -3.328054E+04 -2.368615E+05 -3.200845E+04  6.745349E+04 -4.705061E+03 -6.601845E+03
       205  27 -5.819715E+04 -3.001017E+05 -5.753605E+04  7.743548E+04 -1.704969E+03 -1.865033E+04
       206   1  1.307381E+06  3.741921E+05  3.609371E+05  2.884268E+05  1.255381E+05 -1.665233E+04
       206   2  1.062149E+06  2.809711E+05  2.369771E+05  2.551045E+05  5.485094E+04 -5.294972E+04
       206   3  8.332227E+05  2.153014E+05  1.658789E+05  2.667559E+05 -1.577546E+04 -5.716321E+04
       206   4 -7.873980E+04  3.210232E+04  3.541044E+04  2.677559E+05  2.481382E+04 -1.661682E+04
       206   5 -8.143871E+04  8.488739E+03  1.742294E+04  2.452648E+05  1.586266E+04 -5.294873E+04
       206   6 -7.856470E+04  1.750992E+03  9.492871E+03  2.677467E+05  6.943332E+03 -5.717201E+04
       206   7 -1.463071E+06 -3.101172E+05 -2.902096E+05  2.471312E+05 -7.568731E+04 -1.657462E+04
       206   8 -1.223766E+06 -2.640698E+05 -2.021856E+05  2.354435E+05 -2.305557E+04 -5.294651E+04
       206   9 -9.895348E+05 -2.118435E+05 -1.469192E+05  2.687358E+05  2.962983E+04 -5.718075E+04
       206  10  1.307364E+06  3.741876E+05  3.609070E+05  2.884285E+05 -1.851691E-09  3.500161E-10
       206  11  1.062145E+06  2.809673E+05  2.369662E+05  2.551068E+05 -5.933183E-10  6.911708E-10
       206  12  8.332215E+05  2.152978E+05  1.658723E+05  2.667552E+05 -2.798209E-10 -5.612665E-10
       206  13 -7.874054E+04  3.210186E+04  3.540877E+04  2.677563E+05 -4.642902E-10  3.132479E-10
       206  14 -8.143974E+04  8.485661E+03  1.741720E+04  2.452655E+05 -5.279497E-11  5.858326E-10
       206  15 -7.856563E+04  1.747469E+03  9.486637E+03  2.677470E+05 -1.802122E-10 -5.573698E-10
       206  16 -1.463077E+06 -3.101190E+05 -2.902209E+05  2.471302E+05  2.272901E-09  2.916307E-10
       206  17 -1.223767E+06 -2.640729E+05 -2.021918E+05  2.354425E+05  6.034651E-10  4.960658E-10
       206  18 -9.895366E+05 -2.118472E+05 -1.469270E+05  2.687372E+05  3.163167E-10 -5.806433E-10
       206  19  1.307381E+06  3.741921E+05  3.609371E+05  2.884268E+05 -1.255381E+05  1.665233E+04
       206  20  1.062149E+06  2.809711E+05  2.369771E+05  2.551045E+05 -5.485094E+04  5.294972E+04
       206  21  8.332227E+05  2.153014E+05  1.658789E+05  2.667559E+05  1.577546E+04  5.716321E+04
       206  22 -7.873980E+04  3.210232E+04  3.541044E+04  2.677559E+05 -2.481382E+04  1.661682E+04
       206  23 -8.143871E+04  8.488739E+03  1.742294E+04  2.452648E+05 -1.586266E+04  5.294873E+04
       206  24 -7.856470E+04  1.750992E+03  9.492871E+03  2.677467E+05 -6.943332E+03  5.717201E+04
       206  25 -1.463071E+06 -3.101172E+05 -2.902096E+05  2.471312E+05  7.568731E+04  1.657462E+04
       206  26 -1.223766E+06 -2.640698E+05 -2.021856E+05  2.354435E+05  2.305557E+04  5.294651E+04
       206  27 -9.895348E+05 -2.118435E+05 -1.469192E+05  2.687358E+05 -2.962983E+04  5.718075E+04
       207   1  6.796816E+05  1.790999E+05  1.352730E+05  2.690269E+05 -1.544038E+04 -4.929345E+04
       207   2  4.420358E+05  1.215658E+05  8.838382E+04  2.449435E+05 -2.338888E+04 -3.670923E+04
       207   3  2.060871E+05  6.616082E+04  4.721505E+04  2.680167E+05 -3.133797E+04 -2.097770E+04
       207   4 -7.962365E+04  1.667276E+03  7.133353E+03  2.682347E+05  5.713390E+03 -4.929838E+04
       207   5 -7.987932E+04  2.933016E+02  3.817639E+03  2.446552E+05  3.810645E+03 -3.670966E+04
       207   6 -7.954124E+04  2.636163E+00  2.026883E+03  2.682348E+05  1.904434E+03 -2.097222E+04
       207   7 -8.383603E+05 -1.757954E+05 -1.210230E+05  2.674433E+05  2.684215E+04 -4.930338E+04
       207   8 -6.015228E+05 -1.209927E+05 -8.075329E+04  2.443671E+05  3.098812E+04 -3.671011E+04
       207   9 -3.650860E+05 -6.615901E+04 -4.315919E+04  2.684528E+05  3.513211E+04 -2.096672E+04
       207  10  6.796807E+05  1.790972E+05  1.352680E+05  2.690263E+05 -6.117932E-08 -1.722477E-09
       207  11  4.420349E+05  1.215642E+05  8.838026E+04  2.449428E+05  1.538724E-10 -2.417490E-09
       207  12  2.060859E+05  6.616009E+04  4.721238E+04  2.680162E+05  6.116628E-08 -1.437495E-09
       207  13 -7.962434E+04  1.664658E+03  7.128725E+03  2.682349E+05 -9.056618E-11 -1.665170E-09
       207  14 -7.987970E+04  2.918506E+02  3.815079E+03  2.446553E+05  1.944903E-10 -2.372404E-09
       207  15 -7.954136E+04  2.162875E+00  2.026049E+03  2.682349E+05  3.161428E-11 -1.486340E-09
       207  16 -8.383617E+05 -1.757982E+05 -1.210289E+05  2.674444E+05  6.110104E-08 -1.631819E-09
       207  17 -6.015242E+05 -1.209944E+05 -8.075763E+04  2.443680E+05 -3.959475E-10 -2.314130E-09
       207  18 -3.650874E+05 -6.615982E+04 -4.316233E+04  2.684534E+05 -6.076354E-08 -1.519349E-09
       207  19  6.796816E+05  1.790999E+05  1.352730E+05  2.690269E+05  1.544038E+04  4.929345E+04
       207  20  4.420358E+05  1.215658E+05  8.838382E+04  2.449435E+05  2.338888E+04  3.670923E+04
       207  21  2.060871E+05  6.616082E+04  4.721505E+04  2.680167E+05  3.133797E+04  2.097770E+04
       207  22 -7.962365E+04  1.667276E+03  7.133353E+03  2.682347E+05 -5.713390E+03  4.929838E+04
       207  23 -7.987932E+04  2.933016E+02  3.817639E+03  2.446552E+05 -3.810645E+03  3.670966E+04
       207  24 -7.954124E+04  2.636163E+00  2.026883E+03  2.682348E+05 -1.904434E+03  2.097222E+04
       207  25 -8.383603E+05 -1.757954E+05 -1.210230E+05  2.674433E+05 -2.684215E+04  4.930338E+04
       207  26 -6.015228E+05 -1.209927E+05 -8.075329E+04  2.443671E+05 -3.098812E+04  3.671011E+04
       207  27 -3.650860E+05 -6.615901E+04 -4.315919E+04  2.684528E+05 -3.513211E+04  2.096672E+04
       208   1  5.509946E+04  3.104452E+04  2.174808E+04  2.681454E+05 -3.158615E+04 -1.069038E+04
       208   2 -1.813117E+05 -2.411160E+04 -1.799388E+04  2.446119E+05 -2.784099E+04  5.566593E+03
       208   3 -4.183021E+05 -8.004503E+04 -6.035957E+04  2.683069E+05 -2.409725E+04  1.976048E+04
       208   4 -7.965002E+04  2.779156E+01  1.413384E+03  2.682502E+05  1.604908E+03 -1.068356E+04
       208   5 -7.968303E+04 -9.344114E+01  4.514868E+02  2.446363E+05  1.383894E+03  5.571692E+03
       208   6 -7.966605E+04 -3.021743E+02 -3.825112E+02  2.682503E+05  1.162872E+03  1.976408E+04
       208   7 -2.143789E+05 -3.098921E+04 -1.891754E+04  2.683549E+05  3.478905E+04 -1.067673E+04
       208   8  2.195755E+04  2.392460E+04  1.889966E+04  2.446608E+05  3.061344E+04  5.576791E+03
       208   9  2.590834E+05  7.943471E+04  5.959270E+04  2.681936E+05  2.643637E+04  1.976767E+04
       208  10  5.509836E+04  3.104413E+04  2.174599E+04  2.681451E+05  1.161984E-09 -3.425036E-10
       208  11 -1.813126E+05 -2.411184E+04 -1.799540E+04  2.446121E+05  1.041331E-09  7.504157E-10
       208  12 -4.183028E+05 -8.004560E+04 -6.036140E+04  2.683072E+05  1.648513E-09  8.958366E-10
       208  13 -7.965005E+04  2.766830E+01  1.413164E+03  2.682502E+05  9.063318E-12 -4.031523E-10
       208  14 -7.968304E+04 -9.347498E+01  4.514249E+02  2.446363E+05  1.321117E-10  7.375344E-10
       208  15 -7.966616E+04 -3.025941E+02 -3.832477E+02  2.682502E+05  9.610937E-11  8.467778E-10
       208  16 -2.143803E+05 -3.098966E+04 -1.892003E+04  2.683552E+05 -8.243895E-10 -4.508754E-10
       208  17  2.195653E+04  2.392431E+04  1.889784E+04  2.446606E+05 -1.127686E-09  7.127216E-10
       208  18  2.590826E+05  7.943411E+04  5.959065E+04  2.681932E+05 -1.561904E-09  7.979079E-10
       208  19  5.509946E+04  3.104452E+04  2.174808E+04  2.681454E+05  3.158615E+04  1.069038E+04
       208  20 -1.813117E+05 -2.411160E+04 -1.799388E+04  2.446119E+05  2.784099E+04 -5.566593E+03
       208  21 -4.183021E+05 -8.004503E+04 -6.035957E+04  2.683069E+05  2.409725E+04 -1.976048E+04
       208  22 -7.965002E+04  2.779156E+01  1.413384E+03  2.682502E+05 -1.604908E+03  1.068356E+04
       208  23 -7.968303E+04 -9.344114E+01  4.514868E+02  2.446363E+05 -1.383894E+03 -5.571692E+03
       208  24 -7.966605E+04 -3.021743E+02 -3.825112E+02  2.682503E+05 -1.162872E+03 -1.976408E+04
       208  25 -2.143789E+05 -3.098921E+04 -1.891754E+04  2.683549E+05 -3.478905E+04  1.067673E+04
       208  26  2.195755E+04  2.392460E+04  1.889966E+04  2.446608E+05 -3.061344E+04 -5.576791E+03
       208  27  2.590834E+05  7.943471E+04  5.959270E+04  2.681936E+05 -2.643637E+04 -1.976767E+04
       209   1 -5.702490E+05 -1.158861E+05 -8.788189E+04  2.677653E+05 -2.513002E+04  2.846904E+04
       209   2 -8.029484E+05 -1.745430E+05 -1.445036E+05  2.463816E+05  1.977463E+04  3.078993E+04
       209   3 -1.043781E+06 -2.429178E+05 -2.327957E+05  2.706690E+05  6.464809E+04  1.025817E+04
       209   4 -7.982571E+04 -3.507883E+02 -8.202673E+02  2.679039E+05  1.231769E+03  2.847077E+04
       209   5 -7.960065E+04 -1.307719E+03 -2.058748E+03  2.450695E+05  2.307941E+03  3.078686E+04
       209   6 -7.993812E+04 -4.359523E+03 -4.508243E+03  2.679036E+05  3.370081E+03  1.026234E+04
       209   7  4.108342E+05  1.151717E+05  8.623499E+04  2.680426E+05  2.761380E+04  2.847250E+04
       209   8  6.442493E+05  1.718961E+05  1.403618E+05  2.437557E+05 -1.517869E+04  3.078386E+04
       209   9  8.847675E+05  2.341341E+05  2.237288E+05  2.651336E+05 -5.800268E+04  1.026707E+04
       209  10 -5.702499E+05 -1.158872E+05 -8.788460E+04  2.677659E+05  1.132647E-09  7.220691E-10
       209  11 -8.029490E+05 -1.745442E+05 -1.445061E+05  2.463811E+05  9.762421E-10  4.418373E-10
       209  12 -1.043786E+06 -2.429191E+05 -2.328037E+05  2.706685E+05  6.178861E-10  1.695606E-10
       209  13 -7.982593E+04 -3.516591E+02 -8.217933E+02  2.679039E+05 -1.633931E-10  6.641128E-10
       209  14 -7.960091E+04 -1.308738E+03 -2.060539E+03  2.450694E+05 -1.751430E-10  5.115508E-10
       209  15 -7.993816E+04 -4.359640E+03 -4.508462E+03  2.679035E+05  1.112062E-10  1.972234E-10
       209  16  4.108331E+05  1.151706E+05  8.623203E+04  2.680420E+05 -6.839491E-10  6.250481E-10
       209  17  6.442488E+05  1.718950E+05  1.403596E+05  2.437560E+05 -9.594802E-10  4.667116E-10
       209  18  8.847639E+05  2.341331E+05  2.237223E+05  2.651341E+05 -6.426674E-10  1.512274E-10
       209  19 -5.702490E+05 -1.158861E+05 -8.788189E+04  2.677653E+05  2.513002E+04 -2.846904E+04
       209  20 -8.029484E+05 -1.745430E+05 -1.445036E+05  2.463816E+05 -1.977463E+04 -3.078993E+04
       209  21 -1.043781E+06 -2.429178E+05 -2.327957E+05  2.706690E+05 -6.464809E+04 -1.025817E+04
       209  22 -7.982571E+04 -3.507883E+02 -8.202673E+02  2.679039E+05 -1.231769E+03 -2.847077E+04
       209  23 -7.960065E+04 -1.307719E+03 -2.058748E+03  2.450695E+05 -2.307941E+03 -3.078686E+04
       209  24 -7.993812E+04 -4.359523E+03 -4.508243E+03  2.679036E+05 -3.370081E+03 -1.026234E+04
       209  25  4.108342E+05  1.151717E+05  8.623499E+04  2.680426E+05 -2.761380E+04 -2.847250E+04
       209  26  6.442493E+05  1.718961E+05  1.403618E+05  2.437557E+05  1.517869E+04 -3.078386E+04
       209  27  8.847675E+05  2.341341E+05  2.237288E+05  2.651336E+05  5.800268E+04 -1.026707E+04
       210   1 -1.982270E+05 -1.097479E+06 -1.970839E+05  2.855611E+05 -5.530631E+03 -6.386630E+04
       210   2 -1.077535E+05 -8.620178E+05 -1.045906E+05  2.493441E+05 -1.428225E+04 -2.323676E+04
       210   3 -4.371497E+04 -6.385052E+05 -4.521039E+04  2.579019E+05 -7.711363E+03  1.739569E+04
       210   4 -4.108355E+04 -4.636982E+05 -4.531185E+04  2.592549E+05 -5.484388E+03 -3.229889E+04
       210   5 -1.083243E+04 -4.602212E+05 -2.188192E+04  2.368411E+05 -1.427794E+04 -2.104052E+04
       210   6 -1.898317E+03 -4.636285E+05 -1.113474E+04  2.592053E+05 -7.751753E+03 -9.795111E+03
       210   7  1.160340E+05  1.704547E+05  1.064360E+05  2.329215E+05 -5.440854E+03 -6.993292E+02
       210   8  8.607902E+04 -5.827094E+04  6.081816E+04  2.243298E+05 -1.427372E+04 -1.884287E+04
       210   9  3.991690E+04 -2.887208E+05  2.294223E+04  2.605091E+05 -7.792250E+03 -3.699341E+04
       210  10 -1.982282E+05 -1.097483E+06 -1.970916E+05  2.855608E+05  7.847740E-11  3.794936E-11
       210  11 -1.077538E+05 -8.620184E+05 -1.045920E+05  2.493438E+05  4.689279E-10 -2.477179E-10
       210  12 -4.371511E+04 -6.385055E+05 -4.521107E+04  2.579020E+05 -6.893124E-10 -3.118597E-10
       210  13 -4.108386E+04 -4.636993E+05 -4.531386E+04  2.592547E+05 -5.115679E-10  5.692538E-11
       210  14 -1.083277E+04 -4.602218E+05 -2.188314E+04  2.368408E+05  1.065373E-09 -1.811305E-10
       210  15 -1.898408E+03 -4.636286E+05 -1.113504E+04  2.592053E+05 -5.102088E-10  1.676509E-11
       210  16  1.160339E+05  1.704547E+05  1.064359E+05  2.329215E+05 -1.951160E-10 -1.337329E-10
       210  17  8.607871E+04 -5.827137E+04  6.081711E+04  2.243295E+05 -6.405187E-11  1.904709E-10
       210  18  3.991647E+04 -2.887223E+05  2.293954E+04  2.605089E+05 -1.934088E-10  4.001222E-10
       210  19 -1.982270E+05 -1.097479E+06 -1.970839E+05  2.855611E+05  5.530631E+03  6.386630E+04
       210  20 -1.077535E+05 -8.620178E+05 -1.045906E+05  2.493441E+05  1.428225E+04  2.323676E+04
       210  21 -4.371497E+04 -6.385052E+05 -4.521039E+04  2.579019E+05  7.711363E+03 -1.739569E+04
       210  22 -4.108355E+04 -4.636982E+05 -4.531185E+04  2.592549E+05  5.484388E+03  3.229889E+04
       210  23 -1.083243E+04 -4.602212E+05 -2.188192E+04  2.368411E+05  1.427794E+04  2.104052E+04
       210  24 -1.898317E+03 -4.636285E+05 -1.113474E+04  2.592053E+05  7.751753E+03  9.795111E+03
       210  25  1.160340E+05  1.704547E+05  1.064360E+05  2.329215E+05  5.440854E+03  6.993292E+02
       210  26  8.607902E+04 -5.827094E+04  6.081816E+04  2.243298E+05  1.427372E+04  1.884287E+04
       210  27  3.991690E+04 -2.887208E+05  2.294223E+04  2.605091E+05  7.792250E+03  3.699341E+04
       211   1 -8.968341E+03 -4.901516E+05 -1.612344E+04  2.603626E+05  1.128785E+03  1.810357E+04
       211   2  4.706507E+04 -2.606769E+05  2.987205E+04  2.374052E+05  1.449357E+04  1.748047E+04
       211   3  1.028277E+05 -3.124304E+04  7.617058E+04  2.601112E+05  2.691762E+04  1.685983E+04
       211   4 -1.700742E+03 -4.621835E+05 -7.751777E+03  2.594071E+05  1.088848E+03 -8.448873E+03
       211   5  3.294771E+02 -4.619959E+05 -2.393832E+03  2.365725E+05  1.445806E+04 -7.270027E+03
       211   6  1.778498E+03 -4.622128E+05  2.015628E+03  2.594023E+05  2.688629E+04 -6.088484E+03
       211   7  5.567169E+03 -4.342133E+05  6.224631E+02  2.584516E+05  1.048995E+03 -3.500254E+04
       211   8 -4.640783E+04 -6.632732E+05 -3.465848E+04  2.357401E+05  1.442260E+04 -3.201278E+04
       211   9 -9.928033E+04 -8.929989E+05 -7.214366E+04  2.586939E+05  2.685500E+04 -2.902137E+04
       211  10 -8.968430E+03 -4.901519E+05 -1.612406E+04  2.603625E+05 -2.884201E-10  1.103458E-09
       211  11  4.706477E+04 -2.606773E+05  2.987108E+04  2.374050E+05 -3.030695E-10  4.806826E-10
       211  12  1.028268E+05 -3.124353E+04  7.616869E+04  2.601108E+05  3.837237E-10 -6.593133E-11
       211  13 -1.700763E+03 -4.621836E+05 -7.751914E+03  2.594071E+05 -3.219844E-10  4.344132E-12
       211  14  3.292384E+02 -4.619960E+05 -2.394324E+03  2.365726E+05 -8.275614E-10  9.158511E-11
       211  15  1.777712E+03 -4.622130E+05  2.014200E+03  2.594025E+05 -8.867863E-10  5.564460E-11
       211  16  5.566839E+03 -4.342146E+05  6.201570E+02  2.584516E+05 -1.836215E-10 -1.168326E-09
       211  17 -4.640833E+04 -6.632744E+05 -3.466080E+04  2.357405E+05  4.193777E-10 -4.556770E-10
       211  18 -9.928133E+04 -8.930000E+05 -7.214660E+04  2.586945E+05  3.383174E-10  1.011083E-12
       211  19 -8.968341E+03 -4.901516E+05 -1.612344E+04  2.603626E+05 -1.128785E+03 -1.810357E+04
       211  20  4.706507E+04 -2.606769E+05  2.987205E+04  2.374052E+05 -1.449357E+04 -1.748047E+04
       211  21  1.028277E+05 -3.124304E+04  7.617058E+04  2.601112E+05 -2.691762E+04 -1.685983E+04
       211  22 -1.700742E+03 -4.621835E+05 -7.751777E+03  2.594071E+05 -1.088848E+03  8.448873E+03
       211  23  3.294771E+02 -4.619959E+05 -2.393832E+03  2.365725E+05 -1.445806E+04  7.270027E+03
       211  24  1.778498E+03 -4.622128E+05  2.015628E+03  2.594023E+05 -2.688629E+04  6.088484E+03
       211  25  5.567169E+03 -4.342133E+05  6.224631E+02  2.584516E+05 -1.048995E+03  3.500254E+04
       211  26 -4.640783E+04 -6.632732E+05 -3.465848E+04  2.357401E+05 -1.442260E+04  3.201278E+04
       211  27 -9.928033E+04 -8.929989E+05 -7.214366E+04  2.586939E+05 -2.685500E+04  2.902137E+04
       212   1  1.376998E+05  1.170230E+05  1.051668E+05  2.589343E+05  3.503280E+04  1.755692E+04
       212   2  1.984647E+05  3.408150E+05  1.673512E+05  2.442774E+05  3.535958E+04 -3.451935E+04
       212   3  2.784688E+05  5.762090E+05  2.682329E+05  2.736935E+05  1.141334E+04 -8.660052E+04
       212   4  1.827585E+03 -4.613797E+05  4.301383E+03  2.590511E+05  3.500227E+04 -6.511838E+03
       212   5  6.291368E+03 -4.631728E+05  1.059652E+04  2.370027E+05  3.539176E+04 -1.195328E+04
       212   6  2.191498E+04 -4.614955E+05  2.321350E+04  2.590276E+05  1.149499E+04 -1.737975E+04
       212   7 -1.340625E+05 -1.039453E+06 -9.657373E+04  2.591675E+05  3.497171E+04 -3.055885E+04
       212   8 -1.859203E+05 -1.266539E+06 -1.461870E+05  2.297373E+05  3.542344E+04  1.058422E+04
       212   9 -2.347127E+05 -1.498199E+06 -2.218623E+05  2.443860E+05  1.157346E+04  5.172607E+04
       212  10  1.376984E+05  1.170223E+05  1.051639E+05  2.589338E+05 -1.077680E-10 -4.917488E-10
       212  11  1.984630E+05  3.408134E+05  1.673466E+05  2.442784E+05 -1.539562E-10 -3.323684E-10
       212  12  2.784667E+05  5.762009E+05  2.682185E+05  2.736943E+05  1.868655E-10  1.037834E-10
       212  13  1.826258E+03 -4.613801E+05  4.299001E+03  2.590512E+05  7.572392E-10 -1.097568E-10
       212  14  6.289985E+03 -4.631733E+05  1.059389E+04  2.370030E+05 -6.159460E-10  6.338690E-11
       212  15  2.191475E+04 -4.614959E+05  2.321268E+04  2.590278E+05  1.449660E-10 -4.005956E-11
       212  16 -1.340641E+05 -1.039455E+06 -9.657779E+04  2.591684E+05 -2.633224E-10  5.081336E-10
       212  17 -1.859217E+05 -1.266540E+06 -1.461896E+05  2.297370E+05 -4.970715E-10  4.028331E-10
       212  18 -2.347135E+05 -1.498202E+06 -2.218675E+05  2.443855E+05  1.466541E-10 -1.559430E-10
       212  19  1.376998E+05  1.170230E+05  1.051668E+05  2.589343E+05 -3.503280E+04 -1.755692E+04
       212  20  1.984647E+05  3.408150E+05  1.673512E+05  2.442774E+05 -3.535958E+04  3.451935E+04
       212  21  2.784688E+05  5.762090E+05  2.682329E+05  2.736935E+05 -1.141334E+04  8.660052E+04
       212  22  1.827585E+03 -4.613797E+05  4.301383E+03  2.590511E+05 -3.500227E+04  6.511838E+03
       212  23  6.291368E+03 -4.631728E+05  1.059652E+04  2.370027E+05 -3.539176E+04  1.195328E+04
       212  24  2.191498E+04 -4.614955E+05  2.321350E+04  2.590276E+05 -1.149499E+04  1.737975E+04
       212  25 -1.340625E+05 -1.039453E+06 -9.657373E+04  2.591675E+05 -3.497171E+04  3.055885E+04
       212  26 -1.859203E+05 -1.266539E+06 -1.461870E+05  2.297373E+05 -3.542344E+04 -1.058422E+04
       212  27 -2.347127E+05 -1.498199E+06 -2.218623E+05  2.443860E+05 -1.157346E+04 -5.172607E+04
       213   1  1.147873E+06  2.965499E+05  2.833112E+05  2.571594E+05  8.644647E+04 -1.380619E+04
       213   2  9.173951E+05  2.288335E+05  1.866489E+05  2.343930E+05  3.228275E+04 -4.338196E+04
       213   3  6.969570E+05  1.724460E+05  1.280503E+05  2.546099E+05 -2.184259E+04 -4.535097E+04
       213   4 -3.795623E+04  3.743149E+03  4.289689E+03  2.546936E+05  3.036364E+03 -1.379984E+04
       213   5 -3.828225E+04  8.879368E+02  2.084634E+03  2.332006E+05  1.970226E+03 -4.338854E+04
       213   6 -3.781588E+04  1.634855E+02  1.113199E+03  2.546935E+05  9.214864E+02 -4.535115E+04
       213   7 -1.222478E+06 -2.891601E+05 -2.748024E+05  2.522324E+05 -8.021558E+04 -1.379285E+04
       213   8 -9.930804E+05 -2.271114E+05 -1.825187E+05  2.320100E+05 -2.829676E+04 -4.339501E+04
       213   9 -7.720582E+05 -1.721478E+05 -1.258406E+05  2.547769E+05  2.365948E+04 -4.535132E+04
       213  10  1.147865E+06  2.965477E+05  2.832968E+05  2.571603E+05 -2.382383E-10  2.319020E-11
       213  11  9.173935E+05  2.288312E+05  1.866434E+05  2.343941E+05  5.703123E-11  8.836304E-11
       213  12  6.969559E+05  1.724437E+05  1.280456E+05  2.546091E+05  1.247482E-10  6.318817E-11
       213  13 -3.795629E+04  3.742942E+03  4.289314E+03  2.546937E+05 -4.070554E-10  1.210443E-10
       213  14 -3.828276E+04  8.859142E+02  2.081089E+03  2.332007E+05 -3.175529E-11  1.448339E-10
       213  15 -3.781643E+04  1.612767E+02  1.109332E+03  2.546935E+05  1.770207E-10 -1.297851E-11
       213  16 -1.222485E+06 -2.891621E+05 -2.748148E+05  2.522315E+05  2.897802E-10 -3.157024E-12
       213  17 -9.930818E+05 -2.271136E+05 -1.825238E+05  2.320091E+05 -9.005517E-11  7.261647E-11
       213  18 -7.720593E+05 -1.721502E+05 -1.258455E+05  2.547777E+05 -2.408062E-10 -9.149888E-11
       213  19  1.147873E+06  2.965499E+05  2.833112E+05  2.571594E+05 -8.644647E+04  1.380619E+04
       213  20  9.173951E+05  2.288335E+05  1.866489E+05  2.343930E+05 -3.228275E+04  4.338196E+04
       213  21  6.969570E+05  1.724460E+05  1.280503E+05  2.546099E+05  2.184259E+04  4.535097E+04
       213  22 -3.795623E+04  3.743149E+03  4.289689E+03  2.546936E+05 -3.036364E+03  1.379984E+04
       213  23 -3.828225E+04  8.879368E+02  2.084634E+03  2.332006E+05 -1.970226E+03  4.338854E+04
       213  24 -3.781588E+04  1.634855E+02  1.113199E+03  2.546935E+05 -9.214864E+02  4.535115E+04
       213  25 -1.222478E+06 -2.891601E+05 -2.748024E+05  2.522324E+05  8.021558E+04  1.379285E+04
       213  26 -9.930804E+05 -2.271114E+05 -1.825187E+05  2.320100E+05  2.829676E+04  4.339501E+04
       213  27 -7.720582E+05 -1.721478E+05 -1.258406E+05  2.547769E+05 -2.365948E+04  4.535132E+04
       214   1  5.519908E+05  1.382336E+05  1.012426E+05  2.552561E+05 -2.064125E+04 -3.760316E+04
       214   2  3.262796E+05  8.483593E+04  5.997951E+04  2.327442E+05 -2.590257E+04 -2.513034E+04
       214   3  1.015928E+05  3.244743E+04  2.239921E+04  2.551026E+05 -3.116467E+04 -1.000502E+04
       214   4 -3.793678E+04  1.975097E+02  8.033325E+02  2.551128E+05  7.763262E+02 -3.760069E+04
       214   5 -3.795298E+04  7.457770E+01  3.393816E+02  2.326768E+05  6.068844E+02 -2.512357E+04
       214   6 -3.788200E+04  7.846285E+01  2.170387E+01  2.551129E+05  4.347852E+02 -9.993117E+03
       214   7 -6.275212E+05 -1.378568E+05 -9.964565E+04  2.549695E+05  2.217421E+04 -3.759822E+04
       214   8 -4.020527E+05 -8.469319E+04 -5.930192E+04  2.326094E+05  2.710133E+04 -2.511681E+04
       214   9 -1.773354E+05 -3.229094E+04 -2.235256E+04  2.551231E+05  3.202740E+04 -9.981212E+03
       214  10  5.519900E+05  1.382319E+05  1.012392E+05  2.552555E+05 -1.033921E-12  2.408197E-11
       214  11  3.262787E+05  8.483507E+04  5.997707E+04  2.327437E+05 -2.485277E-10  6.784592E-11
       214  12  1.015918E+05  3.244706E+04  2.239719E+04  2.551024E+05  5.650735E-11  1.945521E-10
       214  13 -3.793716E+04  1.959914E+02  8.006746E+02  2.551128E+05 -2.138043E-10 -3.697420E-11
       214  14 -3.795315E+04  7.389981E+01  3.381948E+02  2.326768E+05 -1.623887E-10  1.421048E-11
       214  15 -3.788202E+04  7.835556E+01  2.151585E+01  2.551129E+05  2.535141E-10  1.624007E-10
       214  16 -6.275221E+05 -1.378584E+05 -9.964924E+04  2.549702E+05 -1.628078E-10 -1.197145E-10
       214  17 -4.020537E+05 -8.469406E+04 -5.930449E+04  2.326099E+05  6.098103E-11 -7.252152E-12
       214  18 -1.773365E+05 -3.229133E+04 -2.235468E+04  2.551234E+05  1.150481E-10  3.413673E-12
       214  19  5.519908E+05  1.382336E+05  1.012426E+05  2.552561E+05  2.064125E+04  3.760316E+04
       214  20  3.262796E+05  8.483593E+04  5.997951E+04  2.327442E+05  2.590257E+04  2.513034E+04
       214  21  1.015928E+05  3.244743E+04  2.239921E+04  2.551026E+05  3.116467E+04  1.000502E+04
       214  22 -3.793678E+04  1.975097E+02  8.033325E+02  2.551128E+05 -7.763262E+02  3.760069E+04
       214  23 -3.795298E+04  7.457770E+01  3.393816E+02  2.326768E+05 -6.068844E+02  2.512357E+04
       214  24 -3.788200E+04  7.846285E+01  2.170387E+01  2.551129E+05 -4.347852E+02  9.993117E+03
       214  25 -6.275212E+05 -1.378568E+05 -9.964565E+04  2.549695E+05 -2.217421E+04  3.759822E+04
       214  26 -4.020527E+05 -8.469319E+04 -5.930192E+04  2.326094E+05 -2.710133E+04  2.511681E+04
       214  27 -1.773354E+05 -3.229094E+04 -2.235256E+04  2.551231E+05 -3.202740E+04  9.981212E+03
       215   1 -4.191965E+04 -9.690355E+02 -1.391842E+03  2.550684E+05 -3.114066E+04 -2.200204E+02
       215   2 -2.666455E+05 -5.344021E+04 -3.882950E+04  2.326866E+05 -2.646748E+04  1.508110E+04
       215   3 -4.921428E+05 -1.068470E+05 -7.954230E+04  2.552006E+05 -2.179430E+04  2.807826E+04
       215   4 -3.790872E+04  8.574947E+01 -1.307712E+02  2.551179E+05  4.398627E+02 -2.077136E+02
       215   5 -3.790106E+04 -1.619800E+01 -4.965773E+02  2.326706E+05  6.861694E+02  1.508969E+04
       215   6 -3.794312E+04 -2.822237E+02 -1.063434E+03  2.551180E+05  9.340045E+02  2.808361E+04
       215   7 -3.389564E+04  1.141068E+03  1.134046E+03  2.551674E+05  3.202060E+04 -1.954019E+02
       215   8  1.908966E+05  5.340548E+04  3.783749E+04  2.326546E+05  2.784950E+04  1.509828E+04
       215   9  4.164603E+05  1.062718E+05  7.741028E+04  2.550353E+05  2.367844E+04  2.808896E+04
       215  10 -4.192069E+04 -9.692959E+02 -1.393664E+03  2.550684E+05  4.635416E-10  1.697831E-10
       215  11 -2.666464E+05 -5.344065E+04 -3.883124E+04  2.326869E+05  9.578903E-13 -2.150379E-11
       215  12 -4.921436E+05 -1.068480E+05 -7.954467E+04  2.552011E+05  2.362634E-11 -2.297533E-10
       215  13 -3.790872E+04  8.574937E+01 -1.307717E+02  2.551179E+05  5.255957E-10  7.037630E-11
       215  14 -3.790112E+04 -1.644262E+01 -4.970060E+02  2.326706E+05  1.803071E-10 -4.912302E-11
       215  15 -3.794334E+04 -2.830708E+02 -1.064918E+03  2.551180E+05  2.362556E-10 -2.199108E-10
       215  16 -3.389674E+04  1.140793E+03  1.132119E+03  2.551674E+05 -1.782060E-10  6.203929E-11
       215  17  1.908957E+05  5.340502E+04  3.783560E+04  2.326543E+05  2.396786E-10 -1.325852E-10
       215  18  4.164594E+05  1.062708E+05  7.740774E+04  2.550348E+05  2.615518E-10 -1.864379E-10
       215  19 -4.191965E+04 -9.690355E+02 -1.391842E+03  2.550684E+05  3.114066E+04  2.200204E+02
       215  20 -2.666455E+05 -5.344021E+04 -3.882950E+04  2.326866E+05  2.646748E+04 -1.508110E+04
       215  21 -4.921428E+05 -1.068470E+05 -7.954230E+04  2.552006E+05  2.179430E+04 -2.807826E+04
       215  22 -3.790872E+04  8.574947E+01 -1.307712E+02  2.551179E+05 -4.398627E+02  2.077136E+02
       215  23 -3.790106E+04 -1.619800E+01 -4.965773E+02  2.326706E+05 -6.861694E+02 -1.508969E+04
       215  24 -3.794312E+04 -2.822237E+02 -1.063434E+03  2.551180E+05 -9.340045E+02 -2.808361E+04
       215  25 -3.389564E+04  1.141068E+03  1.134046E+03  2.551674E+05 -3.202060E+04  1.954019E+02
       215  26  1.908966E+05  5.340548E+04  3.783749E+04  2.326546E+05 -2.784950E+04 -1.509828E+04
       215  27  4.164603E+05  1.062718E+05  7.741028E+04  2.550353E+05 -2.367844E+04 -2.808896E+04
       216   1 -6.368339E+05 -1.410591E+05 -1.060542E+05  2.545594E+05 -2.280976E+04  3.609925E+04
       216   2 -8.575852E+05 -1.975216E+05 -1.624909E+05  2.347195E+05  2.589926E+04  3.625503E+04
       216   3 -1.087247E+06 -2.647914E+05 -2.533500E+05  2.580960E+05  7.457713E+04  1.175730E+04
       216   4 -3.812446E+04 -3.471132E+02 -1.448586E+03  2.547447E+05  1.111389E+03  3.610252E+04
       216   5 -3.781607E+04 -1.531799E+03 -2.753794E+03  2.331377E+05  2.543997E+03  3.624828E+04
       216   6 -3.824533E+04 -5.301415E+03 -5.625425E+03  2.547449E+05  3.964114E+03  1.175523E+04
       216   7  5.609376E+05  1.403457E+05  1.031465E+05  2.549301E+05  2.505493E+04  3.610581E+04
       216   8  7.825998E+05  1.944180E+05  1.569534E+05  2.315536E+05 -2.084145E+04  3.624166E+04
       216   9  1.011780E+06  2.541125E+05  2.420419E+05  2.513879E+05 -6.676771E+04  1.175394E+04
       216  10 -6.368348E+05 -1.410607E+05 -1.060577E+05  2.545601E+05 -2.109391E-10 -1.913736E-10
       216  11 -8.575863E+05 -1.975232E+05 -1.624947E+05  2.347187E+05  3.175349E-10 -2.854972E-11
       216  12 -1.087253E+06 -2.647931E+05 -2.533608E+05  2.580953E+05 -2.532234E-11  4.950420E-11
       216  13 -3.812481E+04 -3.485131E+02 -1.451037E+03  2.547447E+05  4.572732E-10 -1.693016E-10
       216  14 -3.781643E+04 -1.533212E+03 -2.756276E+03  2.331376E+05  4.574114E-11 -6.791322E-11
       216  15 -3.824538E+04 -5.301568E+03 -5.625714E+03  2.547448E+05 -1.746068E-11  2.488928E-11
       216  16  5.609365E+05  1.403442E+05  1.031428E+05  2.549293E+05  7.150128E-10 -1.287180E-10
       216  17  7.825990E+05  1.944165E+05  1.569502E+05  2.315542E+05 -1.236834E-10 -5.602308E-11
       216  18  1.011775E+06  2.541111E+05  2.420332E+05  2.513885E+05 -2.485954E-10  8.887065E-12
       216  19 -6.368339E+05 -1.410591E+05 -1.060542E+05  2.545594E+05  2.280976E+04 -3.609925E+04
       216  20 -8.575852E+05 -1.975216E+05 -1.624909E+05  2.347195E+05 -2.589926E+04 -3.625503E+04
       216  21 -1.087247E+06 -2.647914E+05 -2.533500E+05  2.580960E+05 -7.457713E+04 -1.175730E+04
       216  22 -3.812446E+04 -3.471132E+02 -1.448586E+03  2.547447E+05 -1.111389E+03 -3.610252E+04
       216  23 -3.781607E+04 -1.531799E+03 -2.753794E+03  2.331377E+05 -2.543997E+03 -3.624828E+04
       216  24 -3.824533E+04 -5.301415E+03 -5.625425E+03  2.547449E+05 -3.964114E+03 -1.175523E+04
       216  25  5.609376E+05  1.403457E+05  1.031465E+05  2.549301E+05 -2.505493E+04 -3.610581E+04
       216  26  7.825998E+05  1.944180E+05  1.569534E+05  2.315536E+05  2.084145E+04 -3.624166E+04
       216  27  1.011780E+06  2.541125E+05  2.420419E+05  2.513879E+05  6.676771E+04 -1.175394E+04
       217   1 -1.989665E+05 -8.620212E+05 -1.919734E+05  3.186728E+05 -7.183669E+03 -4.199508E+04
       217   2 -1.254014E+05 -5.758969E+05 -1.050933E+05  2.917751E+05 -1.906688E+04 -5.605309E+03
       217   3 -5.735730E+04 -2.958710E+05 -4.332326E+04  3.200496E+05 -1.142345E+04  3.079200E+04
       217   4  1.929526E+03 -5.175748E+04  1.780099E+03  3.203876E+05 -7.136400E+03 -3.946256E+02
       217   5  8.903785E+02 -5.187480E+04  2.136158E+03  2.928039E+05 -1.906071E+04 -1.454147E+03
       217   6  8.428795E+02 -5.166005E+04  3.411550E+03  3.203886E+05 -1.146604E+04 -2.523453E+03
       217   7  2.027789E+05  7.591123E+05  1.954938E+05  3.221043E+05 -7.088943E+03  4.125994E+04
       217   8  1.271649E+05  4.724084E+05  1.093511E+05  2.938334E+05 -1.905452E+04  2.700459E+03
       217   9  5.904013E+04  1.926107E+05  5.014781E+04  3.207278E+05 -1.150866E+04 -3.585171E+04
       217  10 -1.989670E+05 -8.620231E+05 -1.919768E+05  3.186726E+05 -1.884651E-11  1.054677E-08
       217  11 -1.254018E+05 -5.758970E+05 -1.050940E+05  2.917750E+05  4.688499E-10 -2.061213E-08
       217  12 -5.735769E+04 -2.958721E+05 -4.332528E+04  3.200499E+05  6.712059E-10 -4.949455E-08
       217  13  1.929471E+03 -5.175750E+04  1.780003E+03  3.203876E+05 -2.742853E-10  8.517131E-11
       217  14  8.899878E+02 -5.187490E+04  2.135471E+03  2.928038E+05  1.556670E-09  5.487255E-11
       217  15  8.427366E+02 -5.166009E+04  3.411291E+03  3.203886E+05  8.119792E-10  7.651158E-11
       217  16  2.027784E+05  7.591105E+05  1.954905E+05  3.221046E+05  2.928444E-10 -1.065279E-08
       217  17  1.271646E+05  4.724083E+05  1.093504E+05  2.938334E+05  6.828880E-10  2.050934E-08
       217  18  5.903965E+04  1.926093E+05  5.014515E+04  3.207275E+05  1.420083E-09  4.945583E-08
       217  19 -1.989665E+05 -8.620212E+05 -1.919734E+05  3.186728E+05  7.183669E+03  4.199508E+04
       217  20 -1.254014E+05 -5.758969E+05 -1.050933E+05  2.917751E+05  1.906688E+04  5.605309E+03
       217  21 -5.735730E+04 -2.958710E+05 -4.332326E+04  3.200496E+05  1.142345E+04 -3.079200E+04
       217  22  1.929526E+03 -5.175748E+04  1.780099E+03  3.203876E+05  7.136400E+03  3.946256E+02
       217  23  8.903785E+02 -5.187480E+04  2.136158E+03  2.928039E+05  1.906071E+04  1.454147E+03
       217  24  8.428795E+02 -5.166005E+04  3.411550E+03  3.203886E+05  1.146604E+04  2.523453E+03
       217  25  2.027789E+05  7.591123E+05  1.954938E+05  3.221043E+05  7.088943E+03 -4.125994E+04
       217  26  1.271649E+05  4.724084E+05  1.093511E+05  2.938334E+05  1.905452E+04 -2.700459E+03
       217  27  5.904013E+04  1.926107E+05  5.014781E+04  3.207278E+05  1.150866E+04  3.585171E+04
       218   1 -1.475154E+04 -1.144630E+05 -1.055780E+04  3.201235E+05 -5.781957E+02  2.929302E+04
       218   2  5.240324E+04  1.679220E+05  4.285223E+04  2.932711E+05  1.582723E+04  2.350242E+04
       218   3  1.221661E+05  4.517075E+05  1.006525E+05  3.227373E+05  3.120598E+04  1.771238E+04
       218   4  8.367516E+02 -5.150531E+04  4.411434E+03  3.206446E+05 -6.205668E+02 -3.205736E+03
       218   5  1.370139E+03 -5.201690E+04  7.618137E+03  2.924830E+05  1.578968E+04 -7.030018E+03
       218   6  4.174495E+03 -5.154668E+04  1.384992E+04  3.206406E+05  3.117296E+04 -1.085125E+04
       218   7  1.642533E+04  1.145831E+04  1.938436E+04  3.211658E+05 -6.629897E+02 -3.570777E+04
       218   8 -4.966489E+04 -2.719057E+05 -2.761373E+04  2.916951E+05  1.575220E+04 -3.755203E+04
       218   9 -1.138303E+05 -5.545506E+05 -7.295830E+04  3.185456E+05  3.114011E+04 -3.939246E+04
       218  10 -1.475177E+04 -1.144639E+05 -1.055941E+04  3.201235E+05  1.343586E-09  4.992976E-08
       218  11  5.240283E+04  1.679213E+05  4.285072E+04  2.932708E+05  9.141273E-11  2.095766E-08
       218  12  1.221650E+05  4.517069E+05  1.006501E+05  3.227368E+05 -4.372833E-11 -1.024993E-08
       218  13  8.367485E+02 -5.150532E+04  4.411414E+03  3.206446E+05  1.278801E-09  1.021217E-10
       218  14  1.369857E+03 -5.201702E+04  7.617575E+03  2.924830E+05 -3.476784E-10  3.800144E-11
       218  15  4.173419E+03 -5.154706E+04  1.384787E+04  3.206409E+05 -1.141606E-09  1.312661E-10
       218  16  1.642499E+04  1.145694E+04  1.938197E+04  3.211658E+05  1.281622E-09 -5.002521E-08
       218  17 -4.966554E+04 -2.719073E+05 -2.761685E+04  2.916956E+05  9.170153E-10 -2.111194E-08
       218  18 -1.138317E+05 -5.545525E+05 -7.296305E+04  3.185466E+05 -7.103089E-11  1.021982E-08
       218  19 -1.475154E+04 -1.144630E+05 -1.055780E+04  3.201235E+05  5.781957E+02 -2.929302E+04
       218  20  5.240324E+04  1.679220E+05  4.285223E+04  2.932711E+05 -1.582723E+04 -2.350242E+04
       218  21  1.221661E+05  4.517075E+05  1.006525E+05  3.227373E+05 -3.120598E+04 -1.771238E+04
       218  22  8.367516E+02 -5.150531E+04  4.411434E+03  3.206446E+05  6.205668E+02  3.205736E+03
       218  23  1.370139E+03 -5.201690E+04  7.618137E+03  2.924830E+05 -1.578968E+04  7.030018E+03
       218  24  4.174495E+03 -5.154668E+04  1.384992E+04  3.206406E+05 -3.117296E+04  1.085125E+04
       218  25  1.642533E+04  1.145831E+04  1.938436E+04  3.211658E+05  6.629897E+02  3.570777E+04
       218  26 -4.966489E+04 -2.719057E+05 -2.761373E+04  2.916951E+05 -1.575220E+04  3.755203E+04
       218  27 -1.138303E+05 -5.545506E+05 -7.295830E+04  3.185456E+05 -3.114011E+04  3.939246E+04
       219   1  1.653166E+05  6.356320E+05  1.380000E+05  3.191461E+05  4.125974E+04  1.666448E+04
       219   2  2.476809E+05  9.088952E+05  2.216198E+05  3.130810E+05  4.209894E+04 -5.685326E+04
       219   3  3.721605E+05  1.202331E+06  3.635917E+05  3.614482E+05  1.364546E+04 -1.303994E+05
       219   4  4.408280E+03 -4.950331E+04  1.832968E+04  3.202238E+05  4.122861E+04 -1.324473E+04
       219   5  1.738531E+04 -5.477104E+04  3.352023E+04  2.929841E+05  4.213251E+04 -3.043571E+04
       219   6  6.274528E+04 -4.968025E+04  6.799455E+04  3.201718E+05  1.372780E+04 -4.761967E+04
       219   7 -1.565251E+05 -7.341772E+05 -1.013540E+05  3.213001E+05  4.119735E+04 -4.312194E+04
       219   8 -2.129643E+05 -1.017545E+06 -1.546209E+05  2.729187E+05  4.216441E+04 -4.058197E+03
       219   9 -2.467722E+05 -1.300234E+06 -2.276844E+05  2.789783E+05  1.379927E+04  3.499437E+04
       219  10  1.653147E+05  6.356312E+05  1.379963E+05  3.191455E+05 -7.389958E-10  4.855336E-10
       219  11  2.476782E+05  9.088912E+05  2.216104E+05  3.130829E+05 -4.770922E-10  4.352580E-10
       219  12  3.721558E+05  1.202313E+06  3.635595E+05  3.614497E+05  2.359054E-11  6.309195E-10
       219  13  4.406407E+03 -4.950395E+04  1.832615E+04  3.202243E+05  7.878303E-11  8.392743E-11
       219  14  1.738316E+04 -5.477251E+04  3.351515E+04  2.929852E+05 -8.102157E-10  7.608563E-11
       219  15  6.274447E+04 -4.968274E+04  6.798993E+04  3.201723E+05  4.333014E-11  7.227016E-11
       219  16 -1.565274E+05 -7.341796E+05 -1.013607E+05  3.213015E+05 -6.730277E-10 -5.048281E-10
       219  17 -2.129662E+05 -1.017545E+06 -1.546243E+05  2.729188E+05 -5.660426E-10 -3.223102E-10
       219  18 -2.467727E+05 -1.300235E+06 -2.276871E+05  2.789779E+05 -1.134526E-11 -6.600393E-10
       219  19  1.653166E+05  6.356320E+05  1.380000E+05  3.191461E+05 -4.125974E+04 -1.666448E+04
       219  20  2.476809E+05  9.088952E+05  2.216198E+05  3.130810E+05 -4.209894E+04  5.685326E+04
       219  21  3.721605E+05  1.202331E+06  3.635917E+05  3.614482E+05 -1.364546E+04  1.303994E+05
       219  22  4.408280E+03 -4.950331E+04  1.832968E+04  3.202238E+05 -4.122861E+04  1.324473E+04
       219  23  1.738531E+04 -5.477104E+04  3.352023E+04  2.929841E+05 -4.213251E+04  3.043571E+04
       219  24  6.274528E+04 -4.968025E+04  6.799455E+04  3.201718E+05 -1.372780E+04  4.761967E+04
       219  25 -1.565251E+05 -7.341772E+05 -1.013540E+05  3.213001E+05 -4.119735E+04  4.312194E+04
       219  26 -2.129643E+05 -1.017545E+06 -1.546209E+05  2.729187E+05 -4.216441E+04  4.058197E+03
       219  27 -2.467722E+05 -1.300234E+06 -2.276844E+05  2.789783E+05 -1.379927E+04 -3.499437E+04
       220   1  1.066310E+06  2.626137E+05  2.521674E+05  2.327010E+05  7.995463E+04 -1.169377E+04
       220   2  8.623287E+05  1.967995E+05  1.635796E+05  2.096073E+05  3.107784E+04 -3.658829E+04
       220   3  6.683949E+05  1.452650E+05  1.103544E+05  2.245003E+05 -1.776943E+04 -3.782792E+04
       220   4  5.201475E+04  1.213592E+04  1.337007E+04  2.247763E+05  9.350547E+03 -1.169286E+04
       220   5  5.100399E+04  3.227364E+03  6.597265E+03  2.057825E+05  5.966725E+03 -3.659412E+04
       220   6  5.212030E+04  7.192174E+02  3.632158E+03  2.247764E+05  2.594966E+03 -3.782694E+04
       220   7 -9.613245E+05 -2.384124E+05 -2.254793E+05  2.168645E+05 -6.113902E+04 -1.169016E+04
       220   8 -7.596873E+05 -1.903836E+05 -1.504135E+05  2.019628E+05 -1.911235E+04 -3.659966E+04
       220   9 -5.637812E+05 -1.438468E+05 -1.031017E+05  2.250522E+05  2.293978E+04 -3.782594E+04
       220  10  1.066303E+06  2.626119E+05  2.521552E+05  2.327018E+05 -1.496908E-10  1.403257E-11
       220  11  8.623273E+05  1.967978E+05  1.635753E+05  2.096082E+05  1.153913E-10  1.835184E-10
       220  12  6.683942E+05  1.452633E+05  1.103511E+05  2.244997E+05 -1.370637E-11  1.339365E-10
       220  13  5.201462E+04  1.213575E+04  1.336965E+04  2.247764E+05 -2.317518E-10  9.030985E-11
       220  14  5.100359E+04  3.225917E+03  6.594681E+03  2.057827E+05  1.934861E-10  6.532031E-11
       220  15  5.211990E+04  7.176790E+02  3.629457E+03  2.247765E+05 -3.089150E-11  6.607860E-11
       220  16 -9.613285E+05 -2.384135E+05 -2.254866E+05  2.168639E+05  2.056730E-10 -9.119386E-11
       220  17 -7.596881E+05 -1.903851E+05 -1.504167E+05  2.019623E+05  2.296580E-11  5.955874E-11
       220  18 -5.637821E+05 -1.438484E+05 -1.031054E+05  2.250529E+05  2.049540E-10  7.950607E-11
       220  19  1.066310E+06  2.626137E+05  2.521674E+05  2.327010E+05 -7.995463E+04  1.169377E+04
       220  20  8.623287E+05  1.967995E+05  1.635796E+05  2.096073E+05 -3.107784E+04  3.658829E+04
       220  21  6.683949E+05  1.452650E+05  1.103544E+05  2.245003E+05  1.776943E+04  3.782792E+04
       220  22  5.201475E+04  1.213592E+04  1.337007E+04  2.247763E+05 -9.350547E+03  1.169286E+04
       220  23  5.100399E+04  3.227364E+03  6.597265E+03  2.057825E+05 -5.966725E+03  3.659412E+04
       220  24  5.212030E+04  7.192174E+02  3.632158E+03  2.247764E+05 -2.594966E+03  3.782694E+04
       220  25 -9.613245E+05 -2.384124E+05 -2.254793E+05  2.168645E+05  6.113902E+04  1.169016E+04
       220  26 -7.596873E+05 -1.903836E+05 -1.504135E+05  2.019628E+05  1.911235E+04  3.659966E+04
       220  27 -5.637812E+05 -1.438468E+05 -1.031017E+05  2.250522E+05 -2.293978E+04  3.782594E+04
       221   1  5.402243E+05  1.150501E+05  8.618407E+04  2.255181E+05 -1.709487E+04 -3.092769E+04
       221   2  3.409922E+05  6.755824E+04  4.913365E+04  2.054964E+05 -2.220402E+04 -1.979932E+04
       221   3  1.427773E+05  2.124202E+04  1.570454E+04  2.250774E+05 -2.731358E+04 -6.413231E+03
       221   4  5.172486E+04  6.992920E+02  2.756088E+03  2.251359E+05  2.117622E+03 -3.092478E+04
       221   5  5.162951E+04  1.826657E+02  1.550090E+03  2.053340E+05  1.343391E+03 -1.979319E+04
       221   6  5.176330E+04  9.204341E+01  9.567565E+02  2.251361E+05  5.672694E+02 -6.403321E+03
       221   7 -4.365393E+05 -1.136640E+05 -8.067843E+04  2.247540E+05  2.131549E+04 -3.092188E+04
       221   8 -2.376492E+05 -6.719692E+04 -4.603383E+04  2.051717E+05  2.488021E+04 -1.978708E+04
       221   9 -3.924080E+04 -2.105794E+04 -1.378834E+04  2.251948E+05  2.844418E+04 -6.393405E+03
       221  10  5.402238E+05  1.150490E+05  8.618173E+04  2.255177E+05 -1.158774E-10  5.826737E-11
       221  11  3.409916E+05  6.755769E+04  4.913199E+04  2.054960E+05  2.684422E-10  3.707127E-11
       221  12  1.427765E+05  2.124178E+04  1.570307E+04  2.250773E+05  8.972079E-11 -1.938134E-10
       221  13  5.172460E+04  6.982638E+02  2.754282E+03  2.251360E+05  2.041389E-10 -8.401544E-12
       221  14  5.162940E+04  1.822445E+02  1.549350E+03  2.053340E+05  1.388269E-10  1.313523E-10
       221  15  5.176329E+04  9.199929E+01  9.566788E+02  2.251361E+05  4.674786E-11 -1.230569E-10
       221  16 -4.365401E+05 -1.136652E+05 -8.068108E+04  2.247545E+05  1.445952E-10  4.700399E-11
       221  17 -2.376499E+05 -6.719750E+04 -4.603573E+04  2.051721E+05  6.739875E-11 -4.833594E-11
       221  18 -3.924168E+04 -2.105820E+04 -1.378994E+04  2.251949E+05  6.372822E-11 -4.698433E-11
       221  19  5.402243E+05  1.150501E+05  8.618407E+04  2.255181E+05  1.709487E+04  3.092769E+04
       221  20  3.409922E+05  6.755824E+04  4.913365E+04  2.054964E+05  2.220402E+04  1.979932E+04
       221  21  1.427773E+05  2.124202E+04  1.570454E+04  2.250774E+05  2.731358E+04  6.413231E+03
       221  22  5.172486E+04  6.992920E+02  2.756088E+03  2.251359E+05 -2.117622E+03  3.092478E+04
       221  23  5.162951E+04  1.826657E+02  1.550090E+03  2.053340E+05 -1.343391E+03  1.979319E+04
       221  24  5.176330E+04  9.204341E+01  9.567565E+02  2.251361E+05 -5.672694E+02  6.403321E+03
       221  25 -4.365393E+05 -1.136640E+05 -8.067843E+04  2.247540E+05 -2.131549E+04  3.092188E+04
       221  26 -2.376492E+05 -6.719692E+04 -4.603383E+04  2.051717E+05 -2.488021E+04  1.978708E+04
       221  27 -3.924080E+04 -2.105794E+04 -1.378834E+04  2.251948E+05 -2.844418E+04  6.393405E+03
       222   1  1.613597E+04 -8.244939E+03 -5.323721E+03  2.251135E+05 -2.745842E+04  2.220853E+03
       222   2 -1.822281E+05 -5.449937E+04 -3.826022E+04  2.052582E+05 -2.369723E+04  1.568245E+04
       222   3 -3.811763E+05 -1.013625E+05 -7.379596E+04  2.250160E+05 -1.993570E+04  2.702835E+04
       222   4  5.173200E+04  9.605554E+01  7.852664E+02  2.251379E+05  4.133367E+02  2.230912E+03
       222   5  5.167533E+04  5.894570E+01  6.073502E+02  2.053319E+05  1.094006E+02  1.568923E+04
       222   6  5.170096E+04  1.203945E+02  6.520463E+02  2.251379E+05 -1.930673E+02  2.703230E+04
       222   7  8.733094E+04  8.437399E+03  6.897131E+03  2.251622E+05  2.828664E+04  2.240971E+03
       222   8  2.856341E+05  5.461473E+04  3.947540E+04  2.054056E+05  2.392470E+04  1.569602E+04
       222   9  4.847632E+05  1.015935E+05  7.509517E+04  2.252598E+05  1.956291E+04  2.703626E+04
       222  10  1.613516E+04 -8.245147E+03 -5.325147E+03  2.251135E+05 -5.119797E-11 -1.720500E-10
       222  11 -1.822288E+05 -5.449979E+04 -3.826174E+04  2.052585E+05 -1.148744E-10 -1.827124E-10
       222  12 -3.811770E+05 -1.013634E+05 -7.379809E+04  2.250164E+05  1.255439E-11 -6.135092E-11
       222  13  5.173200E+04  9.605015E+01  7.852568E+02  2.251379E+05  3.989971E-10 -1.465838E-10
       222  14  5.167527E+04  5.868136E+01  6.068876E+02  2.053319E+05 -9.413376E-11 -2.406056E-10
       222  15  5.170077E+04  1.196098E+02  6.506730E+02  2.251379E+05  2.565013E-11 -2.183166E-10
       222  16  8.733008E+04  8.437179E+03  6.895618E+03  2.251622E+05  1.713417E-10 -9.208928E-11
       222  17  2.856334E+05  5.461431E+04  3.947386E+04  2.054053E+05  2.998287E-10 -9.185551E-11
       222  18  4.847626E+05  1.015926E+05  7.509308E+04  2.252594E+05 -1.155023E-10 -1.522490E-10
       222  19  1.613597E+04 -8.244939E+03 -5.323721E+03  2.251135E+05  2.745842E+04 -2.220853E+03
       222  20 -1.822281E+05 -5.449937E+04 -3.826022E+04  2.052582E+05  2.369723E+04 -1.568245E+04
       222  21 -3.811763E+05 -1.013625E+05 -7.379596E+04  2.250160E+05  1.993570E+04 -2.702835E+04
       222  22  5.173200E+04  9.605554E+01  7.852664E+02  2.251379E+05 -4.133367E+02 -2.230912E+03
       222  23  5.167533E+04  5.894570E+01  6.073502E+02  2.053319E+05 -1.094006E+02 -1.568923E+04
       222  24  5.170096E+04  1.203945E+02  6.520463E+02  2.251379E+05  1.930673E+02 -2.703230E+04
       222  25  8.733094E+04  8.437399E+03  6.897131E+03  2.251622E+05 -2.828664E+04 -2.240971E+03
       222  26  2.856341E+05  5.461473E+04  3.947540E+04  2.054056E+05 -2.392470E+04 -1.569602E+04
       222  27  4.847632E+05  1.015935E+05  7.509517E+04  2.252598E+05 -1.956291E+04 -2.703626E+04
       223   1 -5.086945E+05 -1.315424E+05 -9.684582E+04  2.247922E+05 -2.113704E+04  3.404212E+04
       223   2 -7.039513E+05 -1.800715E+05 -1.456954E+05  2.051011E+05  2.137180E+04  3.367955E+04
       223   3 -9.062272E+05 -2.349857E+05 -2.238194E+05  2.234985E+05  6.385542E+04  1.085714E+04
       223   4  5.175404E+04  9.738808E+01  7.457617E+02  2.247987E+05 -3.066856E+02  3.404437E+04
       223   5  5.149104E+04  4.452391E+02  1.142771E+03  2.057557E+05 -8.775524E+02  3.367392E+04
       223   6  5.165584E+04  1.895241E+03  2.197485E+03  2.247987E+05 -1.458675E+03  1.085627E+04
       223   7  6.125115E+05  1.317204E+05  9.832791E+04  2.248052E+05  2.054191E+04  3.404661E+04
       223   8  8.074827E+05  1.809281E+05  1.479559E+05  2.064109E+05 -2.315340E+04  3.366824E+04
       223   9  1.010393E+06  2.387128E+05  2.281671E+05  2.261007E+05 -6.687309E+04  1.085515E+04
       223  10 -5.086953E+05 -1.315437E+05 -9.684884E+04  2.247928E+05 -2.442839E-10 -6.941881E-13
       223  11 -7.039521E+05 -1.800728E+05 -1.456984E+05  2.051005E+05  1.771570E-10  1.398969E-10
       223  12 -9.062316E+05 -2.349869E+05 -2.238273E+05  2.234980E+05  2.886628E-10  2.522945E-11
       223  13  5.175373E+04  9.614343E+01  7.435835E+02  2.247988E+05 -1.997794E-10 -4.156099E-11
       223  14  5.149074E+04  4.440212E+02  1.140638E+03  2.057557E+05  1.243803E-10  7.151504E-11
       223  15  5.165580E+04  1.895113E+03  2.197259E+03  2.247987E+05 -1.153452E-10 -8.004803E-12
       223  16  6.125107E+05  1.317190E+05  9.832494E+04  2.248046E+05  3.305571E-10 -1.582911E-10
       223  17  8.074819E+05  1.809267E+05  1.479527E+05  2.064116E+05 -3.316902E-10 -4.066428E-12
       223  18  1.010388E+06  2.387115E+05  2.281585E+05  2.261013E+05  7.032560E-11 -3.077201E-11
       223  19 -5.086945E+05 -1.315424E+05 -9.684582E+04  2.247922E+05  2.113704E+04 -3.404212E+04
       223  20 -7.039513E+05 -1.800715E+05 -1.456954E+05  2.051011E+05 -2.137180E+04 -3.367955E+04
       223  21 -9.062272E+05 -2.349857E+05 -2.238194E+05  2.234985E+05 -6.385542E+04 -1.085714E+04
       223  22  5.175404E+04  9.738808E+01  7.457617E+02  2.247987E+05  3.066856E+02 -3.404437E+04
       223  23  5.149104E+04  4.452391E+02  1.142771E+03  2.057557E+05  8.775524E+02 -3.367392E+04
       223  24  5.165584E+04  1.895241E+03  2.197485E+03  2.247987E+05  1.458675E+03 -1.085627E+04
       223  25  6.125115E+05  1.317204E+05  9.832791E+04  2.248052E+05 -2.054191E+04 -3.404661E+04
       223  26  8.074827E+05  1.809281E+05  1.479559E+05  2.064109E+05  2.315340E+04 -3.366824E+04
       223  27  1.010393E+06  2.387128E+05  2.281671E+05  2.261007E+05  6.687309E+04 -1.085515E+04
       224   1 -1.773435E+05 -7.300773E+05 -1.713814E+05  2.796924E+05 -6.350051E+03 -3.830586E+04
       224   2 -1.114662E+05 -4.801758E+05 -9.451283E+04  2.554407E+05 -1.693970E+04 -5.415977E+03
       224   3 -5.167267E+04 -2.360572E+05 -4.060621E+04  2.793186E+05 -1.036382E+04  2.748080E+04
       224   4 -6.337713E+02 -1.724241E+04 -9.873790E+02  2.795809E+05 -6.314889E+03 -1.465410E+03
       224   5  9.248540E+01 -1.714439E+04  1.116711E+02  2.555169E+05 -1.693481E+04 -1.501349E+03
       224   6  4.601202E+02 -1.716729E+04  1.131236E+03  2.795799E+05 -1.039509E+04 -1.544108E+03
       224   7  1.760398E+05  6.960616E+05  1.693759E+05  2.794689E+05 -6.279769E+03  3.541719E+04
       224   8  1.116378E+05  4.460909E+05  9.472489E+04  2.555929E+05 -1.692993E+04  2.416148E+03
       224   9  5.259054E+04  2.017706E+05  4.286968E+04  2.798413E+05 -1.042637E+04 -3.057901E+04
       224  10 -1.773439E+05 -7.300789E+05 -1.713843E+05  2.796922E+05 -2.161494E-10 -1.097328E-08
       224  11 -1.114665E+05 -4.801759E+05 -9.451342E+04  2.554407E+05 -4.124042E-10  2.071707E-08
       224  12 -5.167299E+04 -2.360581E+05 -4.060783E+04  2.793189E+05 -1.757179E-09  4.894991E-08
       224  13 -6.338147E+02 -1.724242E+04 -9.874580E+02  2.795808E+05 -2.939810E-10  1.090047E-11
       224  14  9.217686E+01 -1.714447E+04  1.111279E+02  2.555168E+05  2.587293E-10  1.085553E-11
       224  15  4.600035E+02 -1.716732E+04  1.131029E+03  2.795799E+05 -1.772790E-09  1.432725E-10
       224  16  1.760395E+05  6.960602E+05  1.693735E+05  2.794691E+05 -1.283191E-10  1.093327E-08
       224  17  1.116375E+05  4.460908E+05  9.472434E+04  2.555930E+05 -8.724824E-10 -2.064504E-08
       224  18  5.259018E+04  2.017696E+05  4.286772E+04  2.798410E+05 -1.733574E-09 -4.921605E-08
       224  19 -1.773435E+05 -7.300773E+05 -1.713814E+05  2.796924E+05  6.350051E+03  3.830586E+04
       224  20 -1.114662E+05 -4.801758E+05 -9.451283E+04  2.554407E+05  1.693970E+04  5.415977E+03
       224  21 -5.167267E+04 -2.360572E+05 -4.060621E+04  2.793186E+05  1.036382E+04 -2.748080E+04
       224  22 -6.337713E+02 -1.724241E+04 -9.873790E+02  2.795809E+05  6.314889E+03  1.465410E+03
       224  23  9.248540E+01 -1.714439E+04  1.116711E+02  2.555169E+05  1.693481E+04  1.501349E+03
       224  24  4.601202E+02 -1.716729E+04  1.131236E+03  2.795799E+05  1.039509E+04  1.544108E+03
       224  25  1.760398E+05  6.960616E+05  1.693759E+05  2.794689E+05  6.279769E+03 -3.541719E+04
       224  26  1.116378E+05  4.460909E+05  9.472489E+04  2.555929E+05  1.692993E+04 -2.416148E+03
       224  27  5.259054E+04  2.017706E+05  4.286968E+04  2.798413E+05  1.042637E+04  3.057901E+04
       225   1 -1.447895E+04 -7.776836E+04 -1.228174E+04  2.795879E+05 -9.109596E+02  2.649539E+04
       225   2  4.395651E+04  1.688471E+05  3.322563E+04  2.556648E+05  1.339268E+04  2.311453E+04
       225   3  1.037208E+05  4.162357E+05  8.124378E+04  2.808817E+05  2.682774E+04  1.973463E+04
       225   4  4.699847E+02 -1.703779E+04  1.725514E+03  2.798054E+05 -9.421123E+02 -1.809689E+03
       225   5  7.739357E+02 -1.726553E+04  3.411388E+03  2.552342E+05  1.336503E+04 -3.527100E+03
       225   6  2.120866E+03 -1.706846E+04  6.452477E+03  2.798037E+05  2.680339E+04 -5.242282E+03
       225   7  1.541910E+04  4.369791E+04  1.573553E+04  2.800229E+05 -9.732829E+02 -3.011752E+04
       225   8 -4.240999E+04 -2.033422E+05 -2.640110E+04  2.548037E+05  1.333742E+04 -3.016103E+04
       225   9 -9.948883E+04 -4.501871E+05 -6.834292E+04  2.787264E+05  2.677911E+04 -3.020231E+04
       225  10 -1.447914E+04 -7.776912E+04 -1.228306E+04  2.795879E+05 -1.725089E-09 -4.964294E-08
       225  11  4.395617E+04  1.688465E+05  3.322429E+04  2.556646E+05 -8.786679E-10 -2.004433E-08
       225  12  1.037199E+05  4.162351E+05  8.124169E+04  2.808813E+05  6.663301E-10  1.084412E-08
       225  13  4.699829E+02 -1.703780E+04  1.725506E+03  2.798054E+05 -1.785433E-09  2.457674E-13
       225  14  7.737405E+02 -1.726560E+04  3.411029E+03  2.552342E+05 -1.136741E-09  1.250245E-11
       225  15  2.120087E+03 -1.706869E+04  6.451075E+03  2.798038E+05  1.613853E-11  1.162199E-10
       225  16  1.541885E+04  4.369694E+04  1.573383E+04  2.800229E+05 -1.597663E-09  4.952284E-08
       225  17 -4.241043E+04 -2.033433E+05 -2.640315E+04  2.548040E+05 -3.357064E-10  2.012061E-08
       225  18 -9.948985E+04 -4.501883E+05 -6.834599E+04  2.787270E+05  6.116209E-10 -1.109980E-08
       225  19 -1.447895E+04 -7.776836E+04 -1.228174E+04  2.795879E+05  9.109596E+02 -2.649539E+04
       225  20  4.395651E+04  1.688471E+05  3.322563E+04  2.556648E+05 -1.339268E+04 -2.311453E+04
       225  21  1.037208E+05  4.162357E+05  8.124378E+04  2.808817E+05 -2.682774E+04 -1.973463E+04
       225  22  4.699847E+02 -1.703779E+04  1.725514E+03  2.798054E+05  9.421123E+02  1.809689E+03
       225  23  7.739357E+02 -1.726553E+04  3.411388E+03  2.552342E+05 -1.336503E+04  3.527100E+03
       225  24  2.120866E+03 -1.706846E+04  6.452477E+03  2.798037E+05 -2.680339E+04  5.242282E+03
       225  25  1.541910E+04  4.369791E+04  1.573553E+04  2.800229E+05  9.732829E+02  3.011752E+04
       225  26 -4.240999E+04 -2.033422E+05 -2.640110E+04  2.548037E+05 -1.333742E+04  3.016103E+04
       225  27 -9.948883E+04 -4.501871E+05 -6.834292E+04  2.787264E+05 -2.677911E+04  3.020231E+04
       226   1  1.412608E+05  5.758851E+05  1.120588E+05  2.790546E+05  3.561206E+04  1.978135E+04
       226   2  2.078635E+05  8.164064E+05  1.788873E+05  2.653503E+05  3.644933E+04 -3.722293E+04
       226   3  2.983061E+05  1.070371E+06  2.887597E+05  2.991486E+05  1.185404E+04 -9.424624E+04
       226   4  2.214641E+03 -1.609946E+04  8.603766E+03  2.794410E+05  3.558915E+04 -6.364898E+03
       226   5  8.308884E+03 -1.862782E+04  1.582856E+04  2.556796E+05  3.647299E+04 -1.447692E+04
       226   6  2.978090E+04 -1.623415E+04  3.217551E+04  2.794205E+05  1.191037E+04 -2.258451E+04
       226   7 -1.368502E+05 -6.077396E+05 -9.486123E+04  2.798269E+05  3.556619E+04 -3.248698E+04
       226   8 -1.912870E+05 -8.529925E+05 -1.472615E+05  2.460220E+05  3.649596E+04  8.239199E+03
       226   9 -2.388246E+05 -1.101743E+06 -2.244709E+05  2.597266E+05  1.196222E+04  4.895268E+04
       226  10  1.412593E+05  5.758844E+05  1.120557E+05  2.790540E+05  6.433067E-10 -1.810526E-09
       226  11  2.078617E+05  8.164046E+05  1.788822E+05  2.653514E+05  2.114473E-10 -7.280911E-10
       226  12  2.983036E+05  1.070362E+06  2.887428E+05  2.991495E+05  1.783157E-10 -3.096544E-10
       226  13  2.213269E+03 -1.609984E+04  8.601309E+03  2.794412E+05  1.191898E-09 -1.643739E-11
       226  14  8.307399E+03 -1.862840E+04  1.582567E+04  2.556801E+05  5.988082E-11  1.842074E-11
       226  15  2.978061E+04 -1.623473E+04  3.217428E+04  2.794207E+05  2.360911E-10  4.634854E-11
       226  16 -1.368518E+05 -6.077411E+05 -9.486560E+04  2.798279E+05  4.478564E-10  1.779405E-09
       226  17 -1.912884E+05 -8.529929E+05 -1.472641E+05  2.460218E+05  2.174348E-10  8.962215E-10
       226  18 -2.388254E+05 -1.101746E+06 -2.244757E+05  2.597262E+05  1.438285E-10  2.018705E-10
       226  19  1.412608E+05  5.758851E+05  1.120588E+05  2.790546E+05 -3.561206E+04 -1.978135E+04
       226  20  2.078635E+05  8.164064E+05  1.788873E+05  2.653503E+05 -3.644933E+04  3.722293E+04
       226  21  2.983061E+05  1.070371E+06  2.887597E+05  2.991486E+05 -1.185404E+04  9.424624E+04
       226  22  2.214641E+03 -1.609946E+04  8.603766E+03  2.794410E+05 -3.558915E+04  6.364898E+03
       226  23  8.308884E+03 -1.862782E+04  1.582856E+04  2.556796E+05 -3.647299E+04  1.447692E+04
       226  24  2.978090E+04 -1.623415E+04  3.217551E+04  2.794205E+05 -1.191037E+04  2.258451E+04
       226  25 -1.368502E+05 -6.077396E+05 -9.486123E+04  2.798269E+05 -3.556619E+04  3.248698E+04
       226  26 -1.912870E+05 -8.529925E+05 -1.472615E+05  2.460220E+05 -3.649596E+04 -8.239199E+03
       226  27 -2.388246E+05 -1.101743E+06 -2.244709E+05  2.597266E+05 -1.196222E+04 -4.895268E+04
       227   1  1.061399E+06  2.466326E+05  2.378281E+05  2.199573E+05  7.809535E+04 -1.059893E+04
       227   2  8.721863E+05  1.806483E+05  1.526143E+05  1.961388E+05  3.147466E+04 -3.308866E+04
       227   3  6.933384E+05  1.314881E+05  1.019303E+05  2.074898E+05 -1.512199E+04 -3.401356E+04
       227   4  1.374934E+05  1.847411E+04  2.025776E+04  2.079188E+05  1.412312E+04 -1.059952E+04
       227   5  1.359618E+05  4.975233E+03  1.003230E+04  1.903341E+05  8.975094E+03 -3.309379E+04
       227   6  1.375830E+05  1.120652E+03  5.572962E+03  2.079190E+05  3.836842E+03 -3.401243E+04
       227   7 -7.856188E+05 -2.097425E+05 -1.973559E+05  1.958981E+05 -4.975458E+04 -1.059764E+04
       227   8 -5.997414E+05 -1.707297E+05 -1.325733E+05  1.845363E+05 -1.349842E+04 -3.309852E+04
       227   9 -4.178690E+05 -1.292633E+05 -9.079376E+04  2.083478E+05  2.277923E+04 -3.401126E+04
       227  10  1.061393E+06  2.466308E+05  2.378164E+05  2.199580E+05 -2.922590E-10  4.889014E-11
       227  11  8.721850E+05  1.806468E+05  1.526104E+05  1.961397E+05 -1.363362E-10  9.624449E-11
       227  12  6.933378E+05  1.314868E+05  1.019277E+05  2.074894E+05  2.383324E-10 -1.704230E-11
       227  13  1.374932E+05  1.847394E+04  2.025717E+04  2.079189E+05 -7.594546E-11  8.243349E-12
       227  14  1.359614E+05  4.974035E+03  1.003009E+04  1.903343E+05  3.175152E-11 -1.097343E-10
       227  15  1.375826E+05  1.119406E+03  5.570760E+03  2.079191E+05  2.126989E-10 -8.695296E-11
       227  16 -7.856215E+05 -2.097433E+05 -1.973607E+05  1.958977E+05  3.866745E-10  6.012745E-11
       227  17 -5.997419E+05 -1.707309E+05 -1.325757E+05  1.845359E+05 -3.171398E-11 -7.632390E-11
       227  18 -4.178699E+05 -1.292646E+05 -9.079691E+04  2.083484E+05  1.392767E-11 -1.333692E-10
       227  19  1.061399E+06  2.466326E+05  2.378281E+05  2.199573E+05 -7.809535E+04  1.059893E+04
       227  20  8.721863E+05  1.806483E+05  1.526143E+05  1.961388E+05 -3.147466E+04  3.308866E+04
       227  21  6.933384E+05  1.314881E+05  1.019303E+05  2.074898E+05  1.512199E+04  3.401356E+04
       227  22  1.374934E+05  1.847411E+04  2.025776E+04  2.079188E+05 -1.412312E+04  1.059952E+04
       227  23  1.359618E+05  4.975233E+03  1.003230E+04  1.903341E+05 -8.975094E+03  3.309379E+04
       227  24  1.375830E+05  1.120652E+03  5.572962E+03  2.079190E+05 -3.836842E+03  3.401243E+04
       227  25 -7.856188E+05 -2.097425E+05 -1.973559E+05  1.958981E+05  4.975458E+04  1.059764E+04
       227  26 -5.997414E+05 -1.707297E+05 -1.325733E+05  1.845363E+05  1.349842E+04  3.309852E+04
       227  27 -4.178690E+05 -1.292633E+05 -9.079376E+04  2.083478E+05 -2.277923E+04  3.401126E+04
       228   1  5.745768E+05  1.035163E+05  7.913129E+04  2.088068E+05 -1.480796E+04 -2.760356E+04
       228   2  3.902376E+05  5.927519E+04  4.431193E+04  1.901668E+05 -2.001621E+04 -1.725702E+04
       228   3  2.069624E+05  1.637317E+04  1.321889E+04  2.081571E+05 -2.522452E+04 -4.859055E+03
       228   4  1.369814E+05  1.063316E+03  4.278136E+03  2.082442E+05  3.100997E+03 -2.760080E+04
       228   5  1.368233E+05  2.540131E+02  2.541754E+03  1.899288E+05  1.832051E+03 -1.725162E+04
       228   6  1.370126E+05  1.019181E+02  1.797241E+03  2.082445E+05  5.615962E+02 -4.850541E+03
       228   7 -3.004253E+05 -1.013997E+05 -7.058020E+04  2.076821E+05  2.099774E+04 -2.759808E+04
       228   8 -1.165265E+05 -5.877021E+04 -3.922852E+04  1.896908E+05  2.367171E+04 -1.724623E+04
       228   9  6.706898E+04 -1.616923E+04 -9.622050E+03  2.083318E+05  2.634491E+04 -4.842019E+03
       228  10  5.745763E+05  1.035154E+05  7.912945E+04  2.088064E+05  5.977160E-11  3.734302E-11
       228  11  3.902371E+05  5.927476E+04  4.431062E+04  1.901665E+05 -9.087792E-11  7.539013E-11
       228  12  2.069618E+05  1.637298E+04  1.321765E+04  2.081570E+05  3.059197E-10  4.169752E-11
       228  13  1.369811E+05  1.062496E+03  4.276686E+03  2.082443E+05  3.326335E-10 -7.162575E-11
       228  14  1.368232E+05  2.536926E+02  2.541188E+03  1.899288E+05 -1.223290E-10  1.222490E-10
       228  15  1.370126E+05  1.018928E+02  1.797196E+03  2.082445E+05  3.305104E-10  1.577527E-10
       228  16 -3.004259E+05 -1.014006E+05 -7.058247E+04  2.076825E+05  2.527762E-10 -1.471881E-10
       228  17 -1.165272E+05 -5.877068E+04 -3.923014E+04  1.896911E+05  3.695524E-10 -1.037769E-10
       228  18  6.706823E+04 -1.616944E+04 -9.623398E+03  2.083319E+05 -9.969665E-11  4.405006E-11
       228  19  5.745768E+05  1.035163E+05  7.913129E+04  2.088068E+05  1.480796E+04  2.760356E+04
       228  20  3.902376E+05  5.927519E+04  4.431193E+04  1.901668E+05  2.001621E+04  1.725702E+04
       228  21  2.069624E+05  1.637317E+04  1.321889E+04  2.081571E+05  2.522452E+04  4.859055E+03
       228  22  1.369814E+05  1.063316E+03  4.278136E+03  2.082442E+05 -3.100997E+03  2.760080E+04
       228  23  1.368233E+05  2.540131E+02  2.541754E+03  1.899288E+05 -1.832051E+03  1.725162E+04
       228  24  1.370126E+05  1.019181E+02  1.797241E+03  2.082445E+05 -5.615962E+02  4.850541E+03
       228  25 -3.004253E+05 -1.013997E+05 -7.058020E+04  2.076821E+05 -2.099774E+04  2.759808E+04
       228  26 -1.165265E+05 -5.877021E+04 -3.922852E+04  1.896908E+05 -2.367171E+04  1.724623E+04
       228  27  6.706898E+04 -1.616923E+04 -9.622050E+03  2.083318E+05 -2.634491E+04  4.842019E+03
       229   1  8.983269E+04 -1.089877E+04 -6.214067E+03  2.082591E+05 -2.552060E+04  3.126193E+03
       229   2 -9.371398E+04 -5.360577E+04 -3.643559E+04  1.897624E+05 -2.256396E+04  1.555825E+04
       229   3 -2.776634E+05 -9.659584E+04 -6.865026E+04  2.079021E+05 -1.960683E+04  2.599697E+04
       229   4  1.369860E+05  1.043769E+02  1.653325E+03  2.082454E+05  2.606588E+02  3.134768E+03
       229   5  1.368591E+05  1.454911E+02  1.750058E+03  1.899277E+05 -6.131907E+02  1.556390E+04
       229   6  1.369577E+05  5.689730E+02  2.511475E+03  2.082453E+05 -1.485673E+03  2.600009E+04
       229   7  1.841430E+05  1.110776E+04  9.523148E+03  2.082317E+05  2.604381E+04  3.143341E+03
       229   8  3.674857E+05  5.389426E+04  3.993593E+04  1.900929E+05  2.134545E+04  1.556955E+04
       229   9  5.517484E+05  9.772478E+04  7.366865E+04  2.085887E+05  1.664721E+04  2.600324E+04
       229  10  8.983199E+04 -1.089895E+04 -6.215310E+03  2.082592E+05 -8.934445E-11 -2.662868E-11
       229  11 -9.371460E+04 -5.360617E+04 -3.643700E+04  1.897627E+05 -1.677315E-10  2.318922E-10
       229  12 -2.776640E+05 -9.659667E+04 -6.865225E+04  2.079026E+05  1.365395E-10  1.503722E-10
       229  13  1.369860E+05  1.043663E+02  1.653307E+03  2.082454E+05  2.565931E-10  2.601384E-11
       229  14  1.368590E+05  1.452308E+02  1.749602E+03  1.899277E+05  2.046748E-10 -2.738810E-11
       229  15  1.369575E+05  5.682464E+02  2.510200E+03  2.082453E+05  4.570671E-11  1.316148E-10
       229  16  1.841423E+05  1.110757E+04  9.521855E+03  2.082316E+05  4.012014E-10  6.514913E-11
       229  17  3.674851E+05  5.389388E+04  3.993462E+04  1.900927E+05  7.905820E-11  1.170862E-10
       229  18  5.517479E+05  9.772398E+04  7.366686E+04  2.085883E+05  3.359455E-11  1.016128E-10
       229  19  8.983269E+04 -1.089877E+04 -6.214067E+03  2.082591E+05  2.552060E+04 -3.126193E+03
       229  20 -9.371398E+04 -5.360577E+04 -3.643559E+04  1.897624E+05  2.256396E+04 -1.555825E+04
       229  21 -2.776634E+05 -9.659584E+04 -6.865026E+04  2.079021E+05  1.960683E+04 -2.599697E+04
       229  22  1.369860E+05  1.043769E+02  1.653325E+03  2.082454E+05 -2.606588E+02 -3.134768E+03
       229  23  1.368591E+05  1.454911E+02  1.750058E+03  1.899277E+05  6.131907E+02 -1.556390E+04
       229  24  1.369577E+05  5.689730E+02  2.511475E+03  2.082453E+05  1.485673E+03 -2.600009E+04
       229  25  1.841430E+05  1.110776E+04  9.523148E+03  2.082317E+05 -2.604381E+04 -3.143341E+03
       229  26  3.674857E+05  5.389426E+04  3.993593E+04  1.900929E+05 -2.134545E+04 -1.556955E+04
       229  27  5.517484E+05  9.772478E+04  7.366865E+04  2.085887E+05 -1.664721E+04 -2.600324E+04
       230   1 -3.953722E+05 -1.244796E+05 -8.945763E+04  2.081217E+05 -2.105809E+04  3.245528E+04
       230   2 -5.766116E+05 -1.676916E+05 -1.329691E+05  1.871942E+05  1.660673E+04  3.189757E+04
       230   3 -7.631172E+05 -2.127317E+05 -2.014593E+05  2.014695E+05  5.425128E+04  1.025484E+04
       230   4  1.372715E+05  5.884943E+02  3.149640E+03  2.079261E+05 -1.916141E+03  3.245691E+04
       230   5  1.363626E+05  2.627450E+03  5.452325E+03  1.903260E+05 -4.701633E+03  3.189280E+04
       230   6  1.371852E+05  9.865741E+03  1.087751E+04  2.079259E+05 -7.496352E+03  1.025522E+04
       230   7  6.701941E+05  1.256415E+05  9.574834E+04  2.077303E+05  1.724174E+04  3.245853E+04
       230   8  8.498263E+05  1.729164E+05  1.438515E+05  1.934614E+05 -2.603393E+04  3.188783E+04
       230   9  1.038242E+06  2.324074E+05  2.231728E+05  2.143916E+05 -6.933309E+04  1.025432E+04
       230  10 -3.953730E+05 -1.244809E+05 -8.946045E+04  2.081223E+05 -7.781474E-11  8.850908E-11
       230  11 -5.766122E+05 -1.676928E+05 -1.329715E+05  1.871938E+05  8.829595E-11 -2.234478E-11
       230  12 -7.631204E+05 -2.127326E+05 -2.014650E+05  2.014691E+05 -1.384058E-11  3.360977E-11
       230  13  1.372712E+05  5.873620E+02  3.147653E+03  2.079262E+05 -2.125391E-11  1.523176E-10
       230  14  1.363623E+05  2.626351E+03  5.450372E+03  1.903261E+05 -1.272636E-10 -5.059221E-11
       230  15  1.371851E+05  9.865613E+03  1.087721E+04  2.079260E+05 -1.962422E-11  4.082227E-11
       230  16  6.701935E+05  1.256403E+05  9.574580E+04  2.077298E+05  3.965572E-10  1.341092E-10
       230  17  8.498253E+05  1.729151E+05  1.438483E+05  1.934621E+05 -1.234162E-10  1.237283E-10
       230  18  1.038237E+06  2.324060E+05  2.231636E+05  2.143921E+05 -9.397760E-11  1.010444E-10
       230  19 -3.953722E+05 -1.244796E+05 -8.945763E+04  2.081217E+05  2.105809E+04 -3.245528E+04
       230  20 -5.766116E+05 -1.676916E+05 -1.329691E+05  1.871942E+05 -1.660673E+04 -3.189757E+04
       230  21 -7.631172E+05 -2.127317E+05 -2.014593E+05  2.014695E+05 -5.425128E+04 -1.025484E+04
       230  22  1.372715E+05  5.884943E+02  3.149640E+03  2.079261E+05  1.916141E+03 -3.245691E+04
       230  23  1.363626E+05  2.627450E+03  5.452325E+03  1.903260E+05  4.701633E+03 -3.189280E+04
       230  24  1.371852E+05  9.865741E+03  1.087751E+04  2.079259E+05  7.496352E+03 -1.025522E+04
       230  25  6.701941E+05  1.256415E+05  9.574834E+04  2.077303E+05 -1.724174E+04 -3.245853E+04
       230  26  8.498263E+05  1.729164E+05  1.438515E+05  1.934614E+05  2.603393E+04 -3.188783E+04
       230  27  1.038242E+06  2.324074E+05  2.231728E+05  2.143916E+05  6.933309E+04 -1.025432E+04
       231   1 -1.700942E+05 -6.571584E+05 -1.654917E+05  2.606669E+05 -5.796422E+03 -4.056547E+04
       231   2 -1.039889E+05 -4.284363E+05 -9.132029E+04  2.357418E+05 -1.546047E+04 -7.958110E+03
       231   3 -4.776301E+04 -2.064130E+05 -4.087209E+04  2.547276E+05 -9.462508E+03  2.465616E+04
       231   4 -8.867047E+03 -6.706451E+03 -1.001858E+04  2.550918E+05 -5.766990E+03 -6.948696E+03
       231   5 -2.198954E+03 -5.911764E+03 -4.978637E+03  2.331336E+05 -1.545639E+04 -4.384335E+03
       231   6 -1.853914E+02 -6.643895E+03 -2.782760E+03  2.550852E+05 -9.488368E+03 -1.825520E+03
       231   7  1.523302E+05  6.441361E+05  1.454289E+05  2.495106E+05 -5.738183E+03  2.670318E+04
       231   8  9.957979E+04  4.167825E+05  8.135363E+04  2.305234E+05 -1.545233E+04 -8.081707E+02
       231   9  4.739026E+04  1.931652E+05  3.530740E+04  2.554430E+05 -9.514252E+03 -2.831552E+04
       231  10 -1.700947E+05 -6.571602E+05 -1.654948E+05  2.606668E+05 -1.001537E-10 -4.142755E-11
       231  11 -1.039891E+05 -4.284364E+05 -9.132086E+04  2.357417E+05  1.392943E-10  9.041831E-11
       231  12 -4.776327E+04 -2.064136E+05 -4.087340E+04  2.547278E+05 -7.524389E-11  1.731568E-10
       231  13 -8.867095E+03 -6.706512E+03 -1.001874E+04  2.550918E+05 -4.159073E-10  1.028365E-11
       231  14 -2.199215E+03 -5.911849E+03 -4.979122E+03  2.331335E+05  1.911789E-10 -2.732280E-10
       231  15 -1.854890E+02 -6.643922E+03 -2.782935E+03  2.550852E+05  4.047565E-11 -1.987193E-11
       231  16  1.523299E+05  6.441354E+05  1.454275E+05  2.495107E+05 -1.662932E-10 -6.697988E-11
       231  17  9.957954E+04  4.167825E+05  8.135318E+04  2.305234E+05 -6.619937E-10 -1.949687E-10
       231  18  4.738995E+04  1.931643E+05  3.530572E+04  2.554427E+05  2.435597E-10 -3.605797E-11
       231  19 -1.700942E+05 -6.571584E+05 -1.654917E+05  2.606669E+05  5.796422E+03  4.056547E+04
       231  20 -1.039889E+05 -4.284363E+05 -9.132029E+04  2.357418E+05  1.546047E+04  7.958110E+03
       231  21 -4.776301E+04 -2.064130E+05 -4.087209E+04  2.547276E+05  9.462508E+03 -2.465616E+04
       231  22 -8.867047E+03 -6.706451E+03 -1.001858E+04  2.550918E+05  5.766990E+03  6.948696E+03
       231  23 -2.198954E+03 -5.911764E+03 -4.978637E+03  2.331336E+05  1.545639E+04  4.384335E+03
       231  24 -1.853914E+02 -6.643895E+03 -2.782760E+03  2.550852E+05  9.488368E+03  1.825520E+03
       231  25  1.523302E+05  6.441361E+05  1.454289E+05  2.495106E+05  5.738183E+03 -2.670318E+04
       231  26  9.957979E+04  4.167825E+05  8.135363E+04  2.305234E+05  1.545233E+04  8.081707E+02
       231  27  4.739026E+04  1.931652E+05  3.530740E+04  2.554430E+05  9.514252E+03  2.831552E+04
       232   1 -1.378361E+04 -6.181639E+04 -1.495238E+04  2.555248E+05 -8.375111E+02  2.435547E+04
       232   2  3.958224E+04  1.634910E+05  2.582433E+04  2.330436E+05  1.221510E+04  2.351134E+04
       232   3  9.287529E+04  3.888917E+05  6.711426E+04  2.553957E+05  2.447565E+04  2.266878E+04
       232   4 -1.316523E+02 -6.346645E+03 -2.162695E+03  2.552911E+05 -8.633055E+02 -1.468944E+03
       232   5  1.991653E+02 -6.249421E+03 -1.366820E+03  2.328739E+05  1.219224E+04 -7.962855E+02
       232   6  1.959570E+02 -6.372200E+03 -1.111912E+03  2.552909E+05  2.445554E+04 -1.217730E+02
       232   7  1.352045E+04  4.912738E+04  1.062929E+04  2.550575E+05 -8.890789E+02 -2.729565E+04
       232   8 -3.918504E+04 -1.759599E+05 -2.855651E+04  2.327043E+05  1.216939E+04 -2.509751E+04
       232   9 -9.249149E+04 -4.014817E+05 -6.934149E+04  2.551860E+05  2.443543E+04 -2.289827E+04
       232  10 -1.378377E+04 -6.181703E+04 -1.495349E+04  2.555248E+05 -2.565616E-10 -3.537614E-10
       232  11  3.958193E+04  1.634903E+05  2.582301E+04  2.330434E+05 -3.151934E-10  2.241077E-10
       232  12  9.287451E+04  3.888910E+05  6.711217E+04  2.553953E+05  3.430456E-11  7.705427E-10
       232  13 -1.316537E+02 -6.346648E+03 -2.162700E+03  2.552911E+05 -1.579108E-10  5.056004E-12
       232  14  1.990055E+02 -6.249462E+03 -1.367100E+03  2.328739E+05 -6.988161E-10 -2.925876E-10
       232  15  1.953147E+02 -6.372361E+03 -1.113036E+03  2.552909E+05 -8.989581E-10 -2.700519E-11
       232  16  1.352025E+04  4.912658E+04  1.062789E+04  2.550575E+05  4.435798E-11  1.906942E-10
       232  17 -3.918537E+04 -1.759606E+05 -2.855798E+04  2.327045E+05 -1.482026E-10 -2.981341E-10
       232  18 -9.249227E+04 -4.014825E+05 -6.934360E+04  2.551864E+05  1.759288E-10 -7.012203E-10
       232  19 -1.378361E+04 -6.181639E+04 -1.495238E+04  2.555248E+05  8.375111E+02 -2.435547E+04
       232  20  3.958224E+04  1.634910E+05  2.582433E+04  2.330436E+05 -1.221510E+04 -2.351134E+04
       232  21  9.287529E+04  3.888917E+05  6.711426E+04  2.553957E+05 -2.447565E+04 -2.266878E+04
       232  22 -1.316523E+02 -6.346645E+03 -2.162695E+03  2.552911E+05  8.633055E+02  1.468944E+03
       232  23  1.991653E+02 -6.249421E+03 -1.366820E+03  2.328739E+05 -1.219224E+04  7.962855E+02
       232  24  1.959570E+02 -6.372200E+03 -1.111912E+03  2.552909E+05 -2.445554E+04  1.217730E+02
       232  25  1.352045E+04  4.912738E+04  1.062929E+04  2.550575E+05  8.890789E+02  2.729565E+04
       232  26 -3.918504E+04 -1.759599E+05 -2.855651E+04  2.327043E+05 -1.216939E+04  2.509751E+04
       232  27 -9.249149E+04 -4.014817E+05 -6.934149E+04  2.551860E+05 -2.443543E+04  2.289827E+04
       233   1  1.269927E+05  5.336012E+05  9.325861E+04  2.553013E+05  3.249182E+04  2.390369E+04
       233   2  1.815801E+05  7.554781E+05  1.472713E+05  2.329101E+05  3.326708E+04 -1.992115E+04
       233   3  2.427723E+05  9.847690E+05  2.314466E+05  2.538561E+05  1.083787E+04 -6.375847E+04
       233   4  1.455100E+02 -6.429597E+03 -1.119229E+03  2.549588E+05  3.247286E+04  4.427407E+01
       233   5 -4.573138E+02 -6.303516E+03 -1.485802E+03  2.332894E+05  3.328616E+04  8.190566E+02
       233   6 -2.187325E+03 -6.541909E+03 -2.641786E+03  2.549603E+05  1.088179E+04  1.597292E+03
       233   7 -1.267172E+05 -5.461738E+05 -9.550533E+04  2.546166E+05  3.245392E+04 -2.379503E+04
       233   8 -1.825293E+05 -7.675280E+05 -1.502690E+05  2.336681E+05  3.330529E+04  2.153439E+04
       233   9 -2.472150E+05 -9.969411E+05 -2.367821E+05  2.560624E+05  1.092598E+04  6.684939E+04
       233  10  1.269914E+05  5.336003E+05  9.325555E+04  2.553007E+05 -2.373461E-10 -1.874554E-10
       233  11  1.815788E+05  7.554774E+05  1.472684E+05  2.329107E+05  6.432817E-11  1.191422E-11
       233  12  2.427711E+05  9.847646E+05  2.314388E+05  2.538567E+05  1.494374E-10  1.241030E-10
       233  13  1.443776E+02 -6.429880E+03 -1.121211E+03  2.549588E+05  5.616331E-10 -1.939717E-11
       233  14 -4.585038E+02 -6.303814E+03 -1.487885E+03  2.332894E+05 -1.029226E-10 -2.241872E-10
       233  15 -2.187453E+03 -6.541944E+03 -2.642013E+03  2.549603E+05  6.658415E-11 -1.909769E-11
       233  16 -1.267185E+05 -5.461747E+05 -9.550837E+04  2.546172E+05  9.923675E-11  1.157585E-11
       233  17 -1.825307E+05 -7.675288E+05 -1.502720E+05  2.336675E+05 -1.087733E-10 -1.767182E-12
       233  18 -2.472163E+05 -9.969459E+05 -2.367908E+05  2.560618E+05  1.635778E-10 -1.173471E-10
       233  19  1.269927E+05  5.336012E+05  9.325861E+04  2.553013E+05 -3.249182E+04 -2.390369E+04
       233  20  1.815801E+05  7.554781E+05  1.472713E+05  2.329101E+05 -3.326708E+04  1.992115E+04
       233  21  2.427723E+05  9.847690E+05  2.314466E+05  2.538561E+05 -1.083787E+04  6.375847E+04
       233  22  1.455100E+02 -6.429597E+03 -1.119229E+03  2.549588E+05 -3.247286E+04 -4.427407E+01
       233  23 -4.573138E+02 -6.303516E+03 -1.485802E+03  2.332894E+05 -3.328616E+04 -8.190566E+02
       233  24 -2.187325E+03 -6.541909E+03 -2.641786E+03  2.549603E+05 -1.088179E+04 -1.597292E+03
       233  25 -1.267172E+05 -5.461738E+05 -9.550533E+04  2.546166E+05 -3.245392E+04  2.379503E+04
       233  26 -1.825293E+05 -7.675280E+05 -1.502690E+05  2.336681E+05 -3.330529E+04 -2.153439E+04
       233  27 -2.472150E+05 -9.969411E+05 -2.367821E+05  2.560624E+05 -1.092598E+04 -6.684939E+04
       234   1  1.072533E+06  2.381031E+05  2.299401E+05  2.164910E+05  7.577813E+04 -1.006712E+04
       234   2  8.871827E+05  1.724941E+05  1.465961E+05  1.925896E+05  3.052126E+04 -3.131576E+04
       234   3  7.121035E+05  1.240614E+05  9.698184E+04  2.031609E+05 -1.471248E+04 -3.190126E+04
       234   4  1.884093E+05  1.975744E+04  2.165257E+04  2.036150E+05  1.505817E+04 -1.006838E+04
       234   5  1.867723E+05  5.332176E+03  1.075258E+04  1.863788E+05  9.540423E+03 -3.132057E+04
       234   6  1.884933E+05  1.203211E+03  6.021681E+03  2.036153E+05  4.031675E+03 -3.189987E+04
       234   7 -6.949876E+05 -1.986414E+05 -1.866749E+05  1.907573E+05 -4.557595E+04 -1.006714E+04
       234   8 -5.131665E+05 -1.618587E+05 -1.251123E+05  1.801751E+05 -1.141731E+04 -3.132497E+04
       234   9 -3.348476E+05 -1.216695E+05 -8.494676E+04  2.040692E+05  2.276052E+04 -3.189846E+04
       234  10  1.072526E+06  2.381014E+05  2.299291E+05  2.164917E+05 -1.143180E-10 -3.102172E-11
       234  11  8.871815E+05  1.724928E+05  1.465925E+05  1.925904E+05 -6.852045E-10  2.045386E-11
       234  12  7.121030E+05  1.240602E+05  9.697952E+04  2.031606E+05 -8.921387E-11  5.008155E-11
       234  13  1.884090E+05  1.975727E+04  2.165196E+04  2.036151E+05 -4.569012E-10  7.447445E-12
       234  14  1.867719E+05  5.331097E+03  1.075057E+04  1.863790E+05 -9.846968E-11  1.246626E-10
       234  15  1.884930E+05  1.202113E+03  6.019737E+03  2.036154E+05  1.475900E-10 -1.495594E-12
       234  16 -6.949899E+05 -1.986421E+05 -1.866790E+05  1.907569E+05  1.033873E-11  2.856852E-11
       234  17 -5.131669E+05 -1.618597E+05 -1.251144E+05  1.801748E+05 -4.310200E-10  6.793189E-11
       234  18 -3.348484E+05 -1.216708E+05 -8.494965E+04  2.040698E+05  2.389183E-11 -6.456885E-11
       234  19  1.072533E+06  2.381031E+05  2.299401E+05  2.164910E+05 -7.577813E+04  1.006712E+04
       234  20  8.871827E+05  1.724941E+05  1.465961E+05  1.925896E+05 -3.052126E+04  3.131576E+04
       234  21  7.121035E+05  1.240614E+05  9.698184E+04  2.031609E+05  1.471248E+04  3.190126E+04
       234  22  1.884093E+05  1.975744E+04  2.165257E+04  2.036150E+05 -1.505817E+04  1.006838E+04
       234  23  1.867723E+05  5.332176E+03  1.075258E+04  1.863788E+05 -9.540423E+03  3.132057E+04
       234  24  1.884933E+05  1.203211E+03  6.021681E+03  2.036153E+05 -4.031675E+03  3.189987E+04
       234  25 -6.949876E+05 -1.986414E+05 -1.866749E+05  1.907573E+05  4.557595E+04  1.006714E+04
       234  26 -5.131665E+05 -1.618587E+05 -1.251123E+05  1.801751E+05  1.141731E+04  3.132497E+04
       234  27 -3.348476E+05 -1.216695E+05 -8.494676E+04  2.040692E+05 -2.276052E+04  3.189846E+04
       235   1  5.957823E+05  9.667693E+04  7.462398E+04  2.045323E+05 -1.450736E+04 -2.558380E+04
       235   2  4.152573E+05  5.329908E+04  4.054829E+04  1.862516E+05 -1.970163E+04 -1.537398E+04
       235   3  2.358007E+05  1.128572E+04  1.019634E+04  2.038421E+05 -2.489571E+04 -3.208433E+03
       235   4  1.878520E+05  1.136245E+03  4.663566E+03  2.039267E+05  3.231486E+03 -2.558093E+04
       235   5  1.876747E+05  2.655215E+02  2.882967E+03  1.859908E+05  1.792696E+03 -1.536871E+04
       235   6  1.878796E+05  1.085376E+02  2.218594E+03  2.039269E+05  3.526328E+02 -3.200388E+03
       235   7 -2.199142E+05 -9.441316E+04 -6.530126E+04  2.033215E+05  2.095905E+04 -2.557808E+04
       235   8 -3.985574E+04 -5.277047E+04 -3.478216E+04  1.857301E+05  2.327942E+04 -1.536347E+04
       235   9  1.399621E+05 -1.106842E+04 -5.756824E+03  2.040118E+05  2.559909E+04 -3.192336E+03
       235  10  5.957819E+05  9.667617E+04  7.462235E+04  2.045320E+05 -2.852382E-10  1.480145E-11
       235  11  4.152568E+05  5.329872E+04  4.054711E+04  1.862513E+05 -1.026447E-10  5.476873E-11
       235  12  2.358000E+05  1.128554E+04  1.019515E+04  2.038420E+05 -3.577130E-10  6.165236E-11
       235  13  1.878519E+05  1.135540E+03  4.662317E+03  2.039268E+05 -1.923295E-10 -8.273652E-12
       235  14  1.876746E+05  2.652670E+02  2.882517E+03  1.859908E+05 -8.210084E-11  1.103817E-11
       235  15  1.878796E+05  1.085266E+02  2.218574E+03  2.039269E+05  1.879291E-10  2.595169E-11
       235  16 -2.199148E+05 -9.441398E+04 -6.530331E+04  2.033219E+05 -3.477423E-13 -4.521930E-11
       235  17 -3.985639E+04 -5.277087E+04 -3.478362E+04  1.857304E+05  2.029476E-10 -7.174297E-11
       235  18  1.399614E+05 -1.106861E+04 -5.758075E+03  2.040119E+05  1.338470E-10  1.584974E-10
       235  19  5.957823E+05  9.667693E+04  7.462398E+04  2.045323E+05  1.450736E+04  2.558380E+04
       235  20  4.152573E+05  5.329908E+04  4.054829E+04  1.862516E+05  1.970163E+04  1.537398E+04
       235  21  2.358007E+05  1.128572E+04  1.019634E+04  2.038421E+05  2.489571E+04  3.208433E+03
       235  22  1.878520E+05  1.136245E+03  4.663566E+03  2.039267E+05 -3.231486E+03  2.558093E+04
       235  23  1.876747E+05  2.655215E+02  2.882967E+03  1.859908E+05 -1.792696E+03  1.536871E+04
       235  24  1.878796E+05  1.085376E+02  2.218594E+03  2.039269E+05 -3.526328E+02  3.200388E+03
       235  25 -2.199142E+05 -9.441316E+04 -6.530126E+04  2.033215E+05 -2.095905E+04  2.557808E+04
       235  26 -3.985574E+04 -5.277047E+04 -3.478216E+04  1.857301E+05 -2.327942E+04  1.536347E+04
       235  27  1.399621E+05 -1.106842E+04 -5.756824E+03  2.040118E+05 -2.559909E+04  3.192336E+03
       236   1  1.211160E+05 -1.542194E+04 -8.748934E+03  2.039781E+05 -2.527673E+04  4.610804E+03
       236   2 -5.866925E+04 -5.717577E+04 -3.805808E+04  1.857581E+05 -2.270682E+04  1.675897E+04
       236   3 -2.387579E+05 -9.899514E+04 -6.905497E+04  2.034083E+05 -2.013615E+04  2.690200E+04
       236   4  1.878688E+05  1.086034E+02  2.161725E+03  2.039263E+05 -2.844086E+01  4.618810E+03
       236   5  1.876861E+05  2.179572E+02  2.569581E+03  1.859916E+05 -1.311443E+03  1.676401E+04
       236   6  1.878391E+05  9.323923E+02  3.964511E+03  2.039261E+05 -2.593041E+03  2.690452E+04
       236   7  2.546274E+05  1.563926E+04  1.307465E+04  2.038744E+05  2.522247E+04  4.626811E+03
       236   8  4.341025E+05  5.760880E+04  4.319717E+04  1.862252E+05  2.009213E+04  1.676907E+04
       236   9  6.146156E+05  1.008504E+05  7.697907E+04  2.044442E+05  1.496174E+04  2.690708E+04
       236  10  1.211153E+05 -1.542213E+04 -8.750175E+03  2.039782E+05  1.938507E-10  2.695304E-10
       236  11 -5.866988E+04 -5.717621E+04 -3.805957E+04  1.857584E+05 -2.440335E-10  1.428731E-10
       236  12 -2.387585E+05 -9.899602E+04 -6.905710E+04  2.034087E+05 -2.815049E-10  2.021312E-10
       236  13  1.878688E+05  1.085805E+02  2.161685E+03  2.039263E+05  1.306259E-10  1.431345E-10
       236  14  1.876860E+05  2.176549E+02  2.569050E+03  1.859917E+05  1.484134E-10  1.324578E-10
       236  15  1.878389E+05  9.316131E+02  3.963138E+03  2.039262E+05 -3.851772E-10  1.295272E-10
       236  16  2.546267E+05  1.563907E+04  1.307342E+04  2.038743E+05 -1.905464E-10  7.619855E-11
       236  17  4.341020E+05  5.760839E+04  4.319589E+04  1.862250E+05  1.656105E-10  1.341598E-11
       236  18  6.146151E+05  1.008495E+05  7.697729E+04  2.044439E+05  2.988679E-10 -6.255313E-11
       236  19  1.211160E+05 -1.542194E+04 -8.748934E+03  2.039781E+05  2.527673E+04 -4.610804E+03
       236  20 -5.866925E+04 -5.717577E+04 -3.805808E+04  1.857581E+05  2.270682E+04 -1.675897E+04
       236  21 -2.387579E+05 -9.899514E+04 -6.905497E+04  2.034083E+05  2.013615E+04 -2.690200E+04
       236  22  1.878688E+05  1.086034E+02  2.161725E+03  2.039263E+05  2.844086E+01 -4.618810E+03
       236  23  1.876861E+05  2.179572E+02  2.569581E+03  1.859916E+05  1.311443E+03 -1.676401E+04
       236  24  1.878391E+05  9.323923E+02  3.964511E+03  2.039261E+05  2.593041E+03 -2.690452E+04
       236  25  2.546274E+05  1.563926E+04  1.307465E+04  2.038744E+05 -2.522247E+04 -4.626811E+03
       236  26  4.341025E+05  5.760880E+04  4.319717E+04  1.862252E+05 -2.009213E+04 -1.676907E+04
       236  27  6.146156E+05  1.008504E+05  7.697907E+04  2.044442E+05 -1.496174E+04 -2.690708E+04
       237   1 -3.538279E+05 -1.262839E+05 -8.901286E+04  2.039739E+05 -2.183757E+04  3.318525E+04
       237   2 -5.318023E+05 -1.672506E+05 -1.303828E+05  1.812475E+05  1.406889E+04  3.231829E+04
       237   3 -7.139754E+05 -2.067059E+05 -1.947492E+05  1.929650E+05  4.995502E+04  1.035075E+04
       237   4  1.883661E+05  9.826364E+02  5.063003E+03  2.036083E+05 -3.272345E+03  3.318627E+04
       237   5  1.869226E+05  4.391316E+03  8.940061E+03  1.863879E+05 -7.849218E+03  3.231390E+04
       237   6  1.882801E+05  1.634108E+04  1.794143E+04  2.036082E+05 -1.243563E+04  1.035282E+04
       237   7  7.308492E+05  1.282335E+05  9.912992E+04  2.032423E+05  1.530860E+04  3.318727E+04
       237   8  9.061450E+05  1.760028E+05  1.482405E+05  1.915343E+05 -2.979214E+04  3.230915E+04
       237   9  1.091294E+06  2.393324E+05  2.305906E+05  2.142668E+05 -7.491649E+04  1.035275E+04
       237  10 -3.538288E+05 -1.262852E+05 -8.901583E+04  2.039745E+05 -2.267136E-10  2.737372E-10
       237  11 -5.318028E+05 -1.672518E+05 -1.303852E+05  1.812471E+05  9.785678E-11  1.770389E-10
       237  12 -7.139781E+05 -2.067067E+05 -1.947541E+05  1.929646E+05 -2.957712E-10  1.262440E-10
       237  13  1.883658E+05  9.814507E+02  5.060913E+03  2.036084E+05 -1.437467E-10  6.627081E-11
       237  14  1.869222E+05  4.390178E+03  8.937982E+03  1.863881E+05 -6.420996E-10 -7.833576E-11
       237  15  1.882799E+05  1.634092E+04  1.794094E+04  2.036083E+05  2.918007E-11 -1.312494E-10
       237  16  7.308487E+05  1.282322E+05  9.912741E+04  2.032419E+05  2.269953E-10 -6.448558E-11
       237  17  9.061438E+05  1.760014E+05  1.482369E+05  1.915351E+05 -1.029080E-11 -1.569683E-10
       237  18  1.091287E+06  2.393308E+05  2.305799E+05  2.142674E+05  4.862942E-10 -2.374137E-10
       237  19 -3.538279E+05 -1.262839E+05 -8.901286E+04  2.039739E+05  2.183757E+04 -3.318525E+04
       237  20 -5.318023E+05 -1.672506E+05 -1.303828E+05  1.812475E+05 -1.406889E+04 -3.231829E+04
       237  21 -7.139754E+05 -2.067059E+05 -1.947492E+05  1.929650E+05 -4.995502E+04 -1.035075E+04
       237  22  1.883661E+05  9.826364E+02  5.063003E+03  2.036083E+05  3.272345E+03 -3.318627E+04
       237  23  1.869226E+05  4.391316E+03  8.940061E+03  1.863879E+05  7.849218E+03 -3.231390E+04
       237  24  1.882801E+05  1.634108E+04  1.794143E+04  2.036082E+05  1.243563E+04 -1.035282E+04
       237  25  7.308492E+05  1.282335E+05  9.912992E+04  2.032423E+05 -1.530860E+04 -3.318727E+04
       237  26  9.061450E+05  1.760028E+05  1.482405E+05  1.915343E+05  2.979214E+04 -3.230915E+04
       237  27  1.091294E+06  2.393324E+05  2.305906E+05  2.142668E+05  7.491649E+04 -1.035275E+04
       238   1 -1.841816E+05 -6.766946E+05 -1.798296E+05  2.694467E+05 -6.219575E+03 -4.696492E+04
       238   2 -1.123840E+05 -4.430635E+05 -1.006057E+05  2.421017E+05 -1.683128E+04 -1.093113E+04
       238   3 -5.386679E+04 -2.174241E+05 -4.818748E+04  2.594628E+05 -1.102839E+04  2.511121E+04
       238   4 -1.485848E+04  6.570653E+03 -1.667237E+04  2.599179E+05 -6.187909E+03 -1.080565E+04
       238   5 -3.830909E+03  7.889417E+03 -8.865434E+03  2.375597E+05 -1.682604E+04 -6.255968E+03
       238   6 -6.063955E+02  6.638605E+03 -5.981783E+03  2.599072E+05 -1.105449E+04 -1.711771E+03
       238   7  1.544319E+05  6.902672E+05  1.464569E+05  2.503783E+05 -6.157378E+03  2.539326E+04
       238   8  1.047096E+05  4.590360E+05  8.286432E+04  2.330142E+05 -1.682087E+04 -1.577470E+03
       238   9  5.265147E+04  2.307514E+05  3.622442E+04  2.603517E+05 -1.108062E+04 -2.854419E+04
       238  10 -1.841822E+05 -6.766969E+05 -1.798338E+05  2.694465E+05 -8.483207E-11 -1.353164E-10
       238  11 -1.123844E+05 -4.430637E+05 -1.006065E+05  2.421015E+05 -1.498463E-10  4.395370E-10
       238  12 -5.386709E+04 -2.174248E+05 -4.818889E+04  2.594630E+05 -5.221311E-10 -7.614427E-11
       238  13 -1.485855E+04  6.570518E+03 -1.667266E+04  2.599178E+05 -3.954843E-10 -1.029675E-11
       238  14 -3.831223E+03  7.889299E+03 -8.866039E+03  2.375596E+05  7.006878E-10  5.349500E-10
       238  15 -6.065275E+02  6.638569E+03 -5.982018E+03  2.599072E+05  3.026093E-11  6.454763E-10
       238  16  1.544317E+05  6.902665E+05  1.464556E+05  2.503784E+05  1.158441E-10 -5.899902E-12
       238  17  1.047093E+05  4.590359E+05  8.286378E+04  2.330142E+05 -4.434861E-10  2.451770E-10
       238  18  5.265112E+04  2.307505E+05  3.622266E+04  2.603515E+05  3.372616E-10  1.914524E-10
       238  19 -1.841816E+05 -6.766946E+05 -1.798296E+05  2.694467E+05  6.219575E+03  4.696492E+04
       238  20 -1.123840E+05 -4.430635E+05 -1.006057E+05  2.421017E+05  1.683128E+04  1.093113E+04
       238  21 -5.386679E+04 -2.174241E+05 -4.818748E+04  2.594628E+05  1.102839E+04 -2.511121E+04
       238  22 -1.485848E+04  6.570653E+03 -1.667237E+04  2.599179E+05  6.187909E+03  1.080565E+04
       238  23 -3.830909E+03  7.889417E+03 -8.865434E+03  2.375597E+05  1.682604E+04  6.255968E+03
       238  24 -6.063955E+02  6.638605E+03 -5.981783E+03  2.599072E+05  1.105449E+04  1.711771E+03
       238  25  1.544319E+05  6.902672E+05  1.464569E+05  2.503783E+05  6.157378E+03 -2.539326E+04
       238  26  1.047096E+05  4.590360E+05  8.286432E+04  2.330142E+05  1.682087E+04  1.577470E+03
       238  27  5.265147E+04  2.307514E+05  3.622442E+04  2.603517E+05  1.108062E+04  2.854419E+04
       239   1 -1.919353E+04 -6.997999E+04 -2.184199E+04  2.607191E+05 -2.276478E+03  2.529494E+04
       239   2  3.512493E+04  1.598927E+05  1.872774E+04  2.371983E+05  1.097737E+04  2.676957E+04
       239   3  8.810794E+04  3.892429E+05  5.798566E+04  2.593579E+05  2.351994E+04  2.824638E+04
       239   4 -5.152825E+02  7.037558E+03 -5.465275E+03  2.601247E+05 -2.302619E+03 -8.338224E+02
       239   5 -2.482358E+02  7.431560E+03 -5.695269E+03  2.372845E+05  1.095392E+04  2.001856E+03
       239   6 -1.551073E+03  7.014187E+03 -8.183741E+03  2.601257E+05  2.349901E+04  4.839217E+03
       239   7  1.816295E+04  8.406216E+04  1.091366E+04  2.595303E+05 -2.328708E+03 -2.696578E+04
       239   8 -3.562224E+04 -1.450051E+05 -3.011659E+04  2.373707E+05  1.093046E+04 -2.275999E+04
       239   9 -9.121766E+04 -3.750701E+05 -7.435614E+04  2.608929E+05  2.347802E+04 -1.855399E+04
       239  10 -1.919371E+04 -6.998067E+04 -2.184320E+04  2.607191E+05 -3.575063E-10 -4.992458E-10
       239  11  3.512461E+04  1.598919E+05  1.872617E+04  2.371980E+05 -7.902169E-10  7.443405E-10
       239  12  8.810713E+04  3.892419E+05  5.798312E+04  2.593574E+05 -1.451275E-10  8.014826E-10
       239  13 -5.152883E+02  7.037556E+03 -5.465286E+03  2.601247E+05 -1.898140E-10 -6.239826E-12
       239  14 -2.483658E+02  7.431524E+03 -5.695502E+03  2.372845E+05 -8.365064E-10  6.057577E-10
       239  15 -1.551672E+03  7.014014E+03 -8.184823E+03  2.601256E+05 -8.484657E-10  6.006376E-10
       239  16  1.816275E+04  8.406138E+04  1.091229E+04  2.595302E+05  7.915484E-11  3.036680E-10
       239  17 -3.562251E+04 -1.450057E+05 -3.011778E+04  2.373709E+05  2.543319E-10  1.445184E-10
       239  18 -9.121834E+04 -3.750706E+05 -7.435783E+04  2.608932E+05  3.737800E-10 -6.780089E-10
       239  19 -1.919353E+04 -6.997999E+04 -2.184199E+04  2.607191E+05  2.276478E+03 -2.529494E+04
       239  20  3.512493E+04  1.598927E+05  1.872774E+04  2.371983E+05 -1.097737E+04 -2.676957E+04
       239  21  8.810794E+04  3.892429E+05  5.798566E+04  2.593579E+05 -2.351994E+04 -2.824638E+04
       239  22 -5.152825E+02  7.037558E+03 -5.465275E+03  2.601247E+05  2.302619E+03  8.338224E+02
       239  23 -2.482358E+02  7.431560E+03 -5.695269E+03  2.372845E+05 -1.095392E+04 -2.001856E+03
       239  24 -1.551073E+03  7.014187E+03 -8.183741E+03  2.601257E+05 -2.349901E+04 -4.839217E+03
       239  25  1.816295E+04  8.406216E+04  1.091366E+04  2.595303E+05  2.328708E+03  2.696578E+04
       239  26 -3.562224E+04 -1.450051E+05 -3.011659E+04  2.373707E+05 -1.093046E+04  2.275999E+04
       239  27 -9.121766E+04 -3.750701E+05 -7.435614E+04  2.608929E+05 -2.347802E+04  1.855399E+04
       240   1  1.227155E+05  5.356800E+05  8.248964E+04  2.608919E+05  3.172565E+04  3.068404E+04
       240   2  1.718767E+05  7.643394E+05  1.298936E+05  2.278578E+05  3.283250E+04 -4.672170E+03
       240   3  2.119866E+05  9.954025E+05  1.980361E+05  2.390116E+05  1.075101E+04 -4.003747E+04
       240   4 -1.745053E+03  5.974065E+03 -1.027386E+04  2.597939E+05  3.170579E+04  6.209992E+03
       240   5 -8.742356E+03  8.606824E+03 -1.790572E+04  2.377070E+05  3.285114E+04  1.541653E+04
       240   6 -3.252852E+04  5.860601E+03 -3.573207E+04  2.598146E+05  1.079391E+04  2.462645E+04
       240   7 -1.262205E+05 -5.234561E+05 -1.030452E+05  2.586968E+05  3.168600E+04 -1.824381E+04
       240   8 -1.893952E+05 -7.465774E+05 -1.657309E+05  2.475438E+05  3.287044E+04  3.548132E+04
       240   9 -2.771098E+05 -9.827721E+05 -2.695520E+05  2.805840E+05  1.084119E+04  8.918797E+04
       240  10  1.227141E+05  5.356788E+05  8.248598E+04  2.608912E+05 -2.153534E-10 -5.568229E-11
       240  11  1.718756E+05  7.643391E+05  1.298915E+05  2.278579E+05  5.572223E-11  2.765219E-10
       240  12  2.119860E+05  9.954007E+05  1.980328E+05  2.390119E+05  1.879803E-10 -3.392832E-11
       240  13 -1.746143E+03  5.973754E+03 -1.027582E+04  2.597938E+05  3.159785E-10 -4.333889E-12
       240  14 -8.743579E+03  8.606279E+03 -1.790819E+04  2.377066E+05 -2.806541E-10  3.947176E-10
       240  15 -3.252881E+04  5.859919E+03 -3.573342E+04  2.598144E+05  1.221045E-10  2.861362E-10
       240  16 -1.262217E+05 -5.234567E+05 -1.030477E+05  2.586972E+05  8.274277E-11 -8.737030E-11
       240  17 -1.893967E+05 -7.465791E+05 -1.657353E+05  2.475428E+05 -8.852223E-11  3.773049E-10
       240  18 -2.771121E+05 -9.827807E+05 -2.695672E+05  2.805832E+05  1.505200E-10  1.020030E-10
       240  19  1.227155E+05  5.356800E+05  8.248964E+04  2.608919E+05 -3.172565E+04 -3.068404E+04
       240  20  1.718767E+05  7.643394E+05  1.298936E+05  2.278578E+05 -3.283250E+04  4.672170E+03
       240  21  2.119866E+05  9.954025E+05  1.980361E+05  2.390116E+05 -1.075101E+04  4.003747E+04
       240  22 -1.745053E+03  5.974065E+03 -1.027386E+04  2.597939E+05 -3.170579E+04 -6.209992E+03
       240  23 -8.742356E+03  8.606824E+03 -1.790572E+04  2.377070E+05 -3.285114E+04 -1.541653E+04
       240  24 -3.252852E+04  5.860601E+03 -3.573207E+04  2.598146E+05 -1.079391E+04 -2.462645E+04
       240  25 -1.262205E+05 -5.234561E+05 -1.030452E+05  2.586968E+05 -3.168600E+04  1.824381E+04
       240  26 -1.893952E+05 -7.465774E+05 -1.657309E+05  2.475438E+05 -3.287044E+04 -3.548132E+04
       240  27 -2.771098E+05 -9.827721E+05 -2.695520E+05  2.805840E+05 -1.084119E+04 -8.918797E+04
       241   1  1.024632E+06  2.243265E+05  2.157854E+05  2.133834E+05  6.703237E+04 -9.702598E+03
       241   2  8.379826E+05  1.645698E+05  1.378107E+05  1.920966E+05  2.497964E+04 -2.999415E+04
       241   3  6.600680E+05  1.174954E+05  9.035980E+04  2.057286E+05 -1.705028E+04 -3.008790E+04
       241   4  1.623656E+05  1.133897E+04  1.249151E+04  2.059718E+05  8.605580E+03 -9.702329E+03
       241   5  1.614202E+05  3.028372E+03  6.264646E+03  1.885119E+05  5.392952E+03 -2.999814E+04
       241   6  1.624469E+05  6.719877E+02  3.620654E+03  2.059718E+05  2.189443E+03 -3.008655E+04
       241   7 -6.992104E+05 -2.016996E+05 -1.908408E+05  1.985705E+05 -4.974063E+04 -9.700677E+03
       241   8 -5.147023E+05 -1.585402E+05 -1.253016E+05  1.849313E+05 -1.417289E+04 -3.000192E+04
       241   9 -3.349309E+05 -1.161647E+05 -8.312586E+04  2.062146E+05  2.141422E+04 -3.008519E+04
       241  10  1.024627E+06  2.243252E+05  2.157767E+05  2.133839E+05 -1.911039E-10 -1.961050E-11
       241  11  8.379817E+05  1.645687E+05  1.378078E+05  1.920972E+05  7.119791E-12 -9.663924E-11
       241  12  6.600675E+05  1.174944E+05  9.035755E+04  2.057282E+05 -2.353097E-10  1.583625E-10
       241  13  1.623655E+05  1.133885E+04  1.249120E+04  2.059719E+05 -3.951652E-10  2.185715E-10
       241  14  1.614199E+05  3.027398E+03  6.262900E+03  1.885121E+05 -6.215345E-11  1.648854E-10
       241  15  1.624467E+05  6.710143E+02  3.618944E+03  2.059718E+05  4.071226E-10  2.713508E-10
       241  16 -6.992131E+05 -2.017004E+05 -1.908456E+05  1.985701E+05  1.203500E-10  9.617733E-12
       241  17 -5.147028E+05 -1.585412E+05 -1.253037E+05  1.849309E+05  2.557566E-10  2.716228E-10
       241  18 -3.349317E+05 -1.161658E+05 -8.312842E+04  2.062151E+05  2.439282E-10  3.370421E-10
       241  19  1.024632E+06  2.243265E+05  2.157854E+05  2.133834E+05 -6.703237E+04  9.702598E+03
       241  20  8.379826E+05  1.645698E+05  1.378107E+05  1.920966E+05 -2.497964E+04  2.999415E+04
       241  21  6.600680E+05  1.174954E+05  9.035980E+04  2.057286E+05  1.705028E+04  3.008790E+04
       241  22  1.623656E+05  1.133897E+04  1.249151E+04  2.059718E+05 -8.605580E+03  9.702329E+03
       241  23  1.614202E+05  3.028372E+03  6.264646E+03  1.885119E+05 -5.392952E+03  2.999814E+04
       241  24  1.624469E+05  6.719877E+02  3.620654E+03  2.059718E+05 -2.189443E+03  3.008655E+04
       241  25 -6.992104E+05 -2.016996E+05 -1.908408E+05  1.985705E+05  4.974063E+04  9.700677E+03
       241  26 -5.147023E+05 -1.585402E+05 -1.253016E+05  1.849313E+05  1.417289E+04  3.000192E+04
       241  27 -3.349309E+05 -1.161647E+05 -8.312586E+04  2.062146E+05 -2.141422E+04  3.008519E+04
       242   1  5.427305E+05  8.985685E+04  6.847515E+04  2.066535E+05 -1.656251E+04 -2.363381E+04
       242   2  3.602051E+05  4.639895E+04  3.509528E+04  1.883083E+05 -2.121063E+04 -1.318325E+04
       242   3  1.786002E+05  4.006812E+03  5.008779E+03  2.062563E+05 -2.585857E+04 -8.369572E+02
       242   4  1.620854E+05  6.424867E+02  2.890629E+03  2.062774E+05  1.695060E+03 -2.363102E+04
       242   5  1.619680E+05  1.492445E+02  2.023099E+03  1.881305E+05  6.867331E+02 -1.317836E+04
       242   6  1.621095E+05  9.233171E+01  1.922741E+03  2.062775E+05 -3.226450E+02 -8.296230E+02
       242   7 -2.184170E+05 -8.857946E+04 -6.269758E+04  2.059016E+05  1.994179E+04 -2.362825E+04
       242   8 -3.622939E+04 -4.610225E+04 -3.104849E+04  1.879527E+05  2.257734E+04 -1.317348E+04
       242   9  1.456205E+05 -3.821815E+03 -1.160858E+03  2.062988E+05  2.521262E+04 -8.222870E+02
       242  10  5.427301E+05  8.985617E+04  6.847358E+04  2.066532E+05  1.283947E-11  2.065789E-10
       242  11  3.602046E+05  4.639864E+04  3.509411E+04  1.883080E+05  2.444349E-10  1.754083E-10
       242  12  1.785995E+05  4.006632E+03  5.007521E+03  2.062563E+05  1.524827E-10  9.272167E-12
       242  13  1.620852E+05  6.418862E+02  2.889574E+03  2.062775E+05 -1.420118E-10  3.541107E-10
       242  14  1.619679E+05  1.490578E+02  2.022772E+03  1.881305E+05  6.431628E-11  2.882641E-10
       242  15  1.621095E+05  9.233094E+01  1.922740E+03  2.062775E+05 -3.579498E-10 -9.340995E-11
       242  16 -2.184175E+05 -8.858017E+04 -6.269938E+04  2.059020E+05 -2.794876E-10  2.785605E-10
       242  17 -3.622998E+04 -4.610257E+04 -3.104977E+04  1.879530E+05 -3.307340E-10  2.686725E-10
       242  18  1.456198E+05 -3.821986E+03 -1.162054E+03  2.062988E+05 -4.310059E-10 -5.955887E-11
       242  19  5.427305E+05  8.985685E+04  6.847515E+04  2.066535E+05  1.656251E+04  2.363381E+04
       242  20  3.602051E+05  4.639895E+04  3.509528E+04  1.883083E+05  2.121063E+04  1.318325E+04
       242  21  1.786002E+05  4.006812E+03  5.008779E+03  2.062563E+05  2.585857E+04  8.369572E+02
       242  22  1.620854E+05  6.424867E+02  2.890629E+03  2.062774E+05 -1.695060E+03  2.363102E+04
       242  23  1.619680E+05  1.492445E+02  2.023099E+03  1.881305E+05 -6.867331E+02  1.317836E+04
       242  24  1.621095E+05  9.233171E+01  1.922741E+03  2.062775E+05  3.226450E+02  8.296230E+02
       242  25 -2.184170E+05 -8.857946E+04 -6.269758E+04  2.059016E+05 -1.994179E+04  2.362825E+04
       242  26 -3.622939E+04 -4.610225E+04 -3.104849E+04  1.879527E+05 -2.257734E+04  1.317348E+04
       242  27  1.456205E+05 -3.821815E+03 -1.160858E+03  2.062988E+05 -2.521262E+04  8.222870E+02
       243   1  6.263931E+04 -2.301459E+04 -1.392395E+04  2.063797E+05 -2.621538E+04  7.073015E+03
       243   2 -1.192435E+05 -6.518673E+04 -4.314977E+04  1.878680E+05 -2.364715E+04  1.932279E+04
       243   3 -3.013880E+05 -1.072957E+05 -7.402796E+04  2.056382E+05 -2.107803E+04  2.946157E+04
       243   4  1.621410E+05  8.755881E+01  2.096661E+03  2.062745E+05 -6.722869E+02  7.080154E+03
       243   5  1.619193E+05  2.710716E+02  2.978757E+03  1.881341E+05 -2.160281E+03  1.932677E+04
       243   6  1.621067E+05  1.222932E+03  5.023664E+03  2.062743E+05 -3.646684E+03  2.946292E+04
       243   7  2.616540E+05  2.318956E+04  1.811946E+04  2.061694E+05  2.487476E+04  7.087284E+03
       243   8  4.431614E+05  6.572506E+04  4.910673E+04  1.884003E+05  1.933598E+04  1.933078E+04
       243   9  6.258133E+05  1.097303E+05  8.406934E+04  2.069109E+05  1.379726E+04  2.946432E+04
       243  10  6.263856E+04 -2.301483E+04 -1.392534E+04  2.063799E+05 -1.201655E-10  8.851246E-11
       243  11 -1.192442E+05 -6.518728E+04 -4.315152E+04  1.878684E+05  1.606838E-10 -7.912446E-11
       243  12 -3.013887E+05 -1.072968E+05 -7.403043E+04  2.056387E+05 -2.674729E-11 -3.933945E-11
       243  13  1.621410E+05  8.750485E+01  2.096566E+03  2.062745E+05 -3.572458E-11 -7.090963E-11
       243  14  1.619192E+05  2.706692E+02  2.978046E+03  1.881341E+05  6.851909E-11  1.649264E-11
       243  15  1.621064E+05  1.221996E+03  5.022007E+03  2.062744E+05 -1.055278E-10 -8.421372E-11
       243  16  2.616533E+05  2.318934E+04  1.811820E+04  2.061692E+05 -2.118125E-10 -1.101470E-10
       243  17  4.431609E+05  6.572456E+04  4.910533E+04  1.884000E+05 -9.957736E-11  2.670422E-11
       243  18  6.258129E+05  1.097293E+05  8.406735E+04  2.069106E+05  3.763815E-11 -1.253465E-10
       243  19  6.263931E+04 -2.301459E+04 -1.392395E+04  2.063797E+05  2.621538E+04 -7.073015E+03
       243  20 -1.192435E+05 -6.518673E+04 -4.314977E+04  1.878680E+05  2.364715E+04 -1.932279E+04
       243  21 -3.013880E+05 -1.072957E+05 -7.402796E+04  2.056382E+05  2.107803E+04 -2.946157E+04
       243  22  1.621410E+05  8.755881E+01  2.096661E+03  2.062745E+05  6.722869E+02 -7.080154E+03
       243  23  1.619193E+05  2.710716E+02  2.978757E+03  1.881341E+05  2.160281E+03 -1.932677E+04
       243  24  1.621067E+05  1.222932E+03  5.023664E+03  2.062743E+05  3.646684E+03 -2.946292E+04
       243  25  2.616540E+05  2.318956E+04  1.811946E+04  2.061694E+05 -2.487476E+04 -7.087284E+03
       243  26  4.431614E+05  6.572506E+04  4.910673E+04  1.884003E+05 -1.933598E+04 -1.933078E+04
       243  27  6.258133E+05  1.097303E+05  8.406934E+04  2.069109E+05 -1.379726E+04 -2.946432E+04
       244   1 -4.176486E+05 -1.349059E+05 -9.389442E+04  2.064771E+05 -2.300974E+04  3.575445E+04
       244   2 -5.979952E+05 -1.753462E+05 -1.350128E+05  1.817678E+05  1.325250E+04  3.437785E+04
       244   3 -7.819547E+05 -2.118022E+05 -1.987398E+05  1.918515E+05  4.949168E+04  1.095004E+04
       244   4  1.628150E+05  1.294632E+03  6.546966E+03  2.059422E+05 -4.509747E+03  3.575414E+04
       244   5  1.609196E+05  5.839486E+03  1.179393E+04  1.885482E+05 -1.055216E+04  3.437433E+04
       244   6  1.627232E+05  2.171220E+04  2.381798E+04  2.059431E+05 -1.660605E+04  1.095656E+04
       244   7  7.436101E+05  1.374773E+05  1.069780E+05  2.054068E+05  1.400702E+04  3.575379E+04
       244   8  9.203895E+05  1.869913E+05  1.585759E+05  1.953370E+05 -3.438529E+04  3.437030E+04
       244   9  1.108232E+06  2.551660E+05  2.463308E+05  2.200563E+05 -8.280385E+04  1.096009E+04
       244  10 -4.176495E+05 -1.349075E+05 -9.389782E+04  2.064777E+05 -1.242474E-10 -4.556551E-11
       244  11 -5.979957E+05 -1.753475E+05 -1.350154E+05  1.817674E+05 -1.500012E-10 -1.376863E-10
       244  12 -7.819574E+05 -2.118030E+05 -1.987446E+05  1.918510E+05 -4.064613E-10 -1.790443E-10
       244  13  1.628147E+05  1.293253E+03  6.544525E+03  2.059423E+05 -3.588272E-10 -7.051521E-11
       244  14  1.609192E+05  5.838187E+03  1.179150E+04  1.885484E+05 -8.372290E-11 -9.895887E-11
       244  15  1.627228E+05  2.171200E+04  2.381723E+04  2.059433E+05 -2.802070E-10  7.910553E-11
       244  16  7.436096E+05  1.374758E+05  1.069752E+05  2.054064E+05  4.163727E-10 -1.709099E-10
       244  17  9.203879E+05  1.869897E+05  1.585715E+05  1.953379E+05 -4.892375E-11  5.923570E-11
       244  18  1.108225E+06  2.551640E+05  2.463177E+05  2.200570E+05  6.810367E-10 -1.918592E-10
       244  19 -4.176486E+05 -1.349059E+05 -9.389442E+04  2.064771E+05  2.300974E+04 -3.575445E+04
       244  20 -5.979952E+05 -1.753462E+05 -1.350128E+05  1.817678E+05 -1.325250E+04 -3.437785E+04
       244  21 -7.819547E+05 -2.118022E+05 -1.987398E+05  1.918515E+05 -4.949168E+04 -1.095004E+04
       244  22  1.628150E+05  1.294632E+03  6.546966E+03  2.059422E+05  4.509747E+03 -3.575414E+04
       244  23  1.609196E+05  5.839486E+03  1.179393E+04  1.885482E+05  1.055216E+04 -3.437433E+04
       244  24  1.627232E+05  2.171220E+04  2.381798E+04  2.059431E+05  1.660605E+04 -1.095656E+04
       244  25  7.436101E+05  1.374773E+05  1.069780E+05  2.054068E+05 -1.400702E+04 -3.575379E+04
       244  26  9.203895E+05  1.869913E+05  1.585759E+05  1.953370E+05  3.438529E+04 -3.437030E+04
       244  27  1.108232E+06  2.551660E+05  2.463308E+05  2.200563E+05  8.280385E+04 -1.096009E+04
       245   1 -2.207139E+05 -8.070658E+05 -2.149606E+05  3.090618E+05 -7.838019E+03 -5.573460E+04
       245   2 -1.392383E+05 -5.377519E+05 -1.233579E+05  2.783989E+05 -2.170977E+04 -1.268759E+04
       245   3 -7.219075E+04 -2.776153E+05 -6.342150E+04  2.992018E+05 -1.567927E+04  3.037182E+04
       245   4 -1.468121E+04  2.453165E+04 -1.669978E+04  2.996417E+05 -7.793903E+03 -9.963603E+03
       245   5 -3.719942E+03  2.588499E+04 -9.527007E+03  2.739034E+05 -2.170051E+04 -5.082496E+03
       245   6 -5.453072E+02  2.462945E+04 -7.490857E+03  2.996299E+05 -1.571250E+04 -2.082717E+02
       245   7  1.913030E+05  8.567687E+05  1.815204E+05  2.902085E+05 -7.751219E+03  3.586848E+04
       245   8  1.317788E+05  5.898248E+05  1.042878E+05  2.694037E+05 -2.169137E+04  2.529374E+03
       245   9  7.109541E+04  3.269648E+05  4.843948E+04  3.000583E+05 -1.574577E+04 -3.080287E+04
       245  10 -2.207148E+05 -8.070692E+05 -2.149666E+05  3.090615E+05  4.444839E-11  8.846799E-11
       245  11 -1.392388E+05 -5.377522E+05 -1.233591E+05  2.783987E+05  1.525512E-10 -8.774283E-11
       245  12 -7.219126E+04 -2.776164E+05 -6.342370E+04  2.992022E+05  6.116786E-11 -2.539199E-10
       245  13 -1.468130E+04  2.453152E+04 -1.670009E+04  2.996416E+05 -5.097090E-10 -2.051031E-12
       245  14 -3.720454E+03  2.588484E+04 -9.527940E+03  2.739034E+05  1.132580E-09  1.768781E-11
       245  15 -5.455723E+02  2.462939E+04 -7.491321E+03  2.996299E+05 -1.668237E-10 -1.378574E-10
       245  16  1.913025E+05  8.567673E+05  1.815179E+05  2.902087E+05 -2.500333E-11 -2.214925E-10
       245  17  1.317783E+05  5.898247E+05  1.042869E+05  2.694037E+05  4.018835E-10  5.855050E-10
       245  18  7.109489E+04  3.269637E+05  4.843723E+04  3.000579E+05  2.989787E-10  3.105908E-10
       245  19 -2.207139E+05 -8.070658E+05 -2.149606E+05  3.090618E+05  7.838019E+03  5.573460E+04
       245  20 -1.392383E+05 -5.377519E+05 -1.233579E+05  2.783989E+05  2.170977E+04  1.268759E+04
       245  21 -7.219075E+04 -2.776153E+05 -6.342150E+04  2.992018E+05  1.567927E+04 -3.037182E+04
       245  22 -1.468121E+04  2.453165E+04 -1.669978E+04  2.996417E+05  7.793903E+03  9.963603E+03
       245  23 -3.719942E+03  2.588499E+04 -9.527007E+03  2.739034E+05  2.170051E+04  5.082496E+03
       245  24 -5.453072E+02  2.462945E+04 -7.490857E+03  2.996299E+05  1.571250E+04  2.082717E+02
       245  25  1.913030E+05  8.567687E+05  1.815204E+05  2.902085E+05  7.751219E+03 -3.586848E+04
       245  26  1.317788E+05  5.898248E+05  1.042878E+05  2.694037E+05  2.169137E+04 -2.529374E+03
       245  27  7.109541E+04  3.269648E+05  4.843948E+04  3.000583E+05  1.574577E+04  3.080287E+04
       246   1 -3.218446E+04 -1.077625E+05 -3.359595E+04  3.006691E+05 -5.667773E+03  3.070423E+04
       246   2  3.005677E+04  1.574774E+05  1.159750E+04  2.731514E+05  9.511744E+03  3.427955E+04
       246   3  8.985066E+04  4.216463E+05  5.382893E+04  2.982958E+05  2.407632E+04  3.785795E+04
       246   4 -4.388605E+02  2.492398E+04 -7.552357E+03  2.998969E+05 -5.701286E+03  9.761483E+02
       246   5 -5.428769E+02  2.558510E+04 -9.530712E+03  2.735667E+05  9.480932E+03  5.725646E+03
       246   6 -3.295896E+03  2.490077E+04 -1.528920E+04  2.998998E+05  2.404805E+04  1.047680E+04
       246   7  3.130615E+04  1.576293E+05  1.849371E+04  2.991246E+05 -5.734721E+03 -2.875815E+04
       246   8 -3.114295E+04 -1.062881E+05 -3.065632E+04  2.739819E+05  9.450077E+03 -2.282241E+04
       246   9 -9.645056E+04 -3.716890E+05 -8.441008E+04  3.015026E+05  2.401963E+04 -1.688740E+04
       246  10 -3.218474E+04 -1.077636E+05 -3.359779E+04  3.006692E+05 -5.421557E-11  5.053009E-10
       246  11  3.005635E+04  1.574761E+05  1.159512E+04  2.731511E+05 -1.647462E-10  1.272670E-10
       246  12  8.984965E+04  4.216446E+05  5.382515E+04  2.982951E+05 -1.893023E-10 -2.942836E-10
       246  13 -4.388956E+02  2.492397E+04 -7.552420E+03  2.998969E+05 -3.731253E-12  1.262227E-11
       246  14 -5.429822E+02  2.558505E+04 -9.530943E+03  2.735666E+05  1.335723E-09 -3.382383E-12
       246  15 -3.296547E+03  2.490050E+04 -1.529050E+04  2.998996E+05 -8.581732E-10 -1.842804E-10
       246  16  3.130589E+04  1.576284E+05  1.849209E+04  2.991245E+05  1.936693E-10 -6.738305E-10
       246  17 -3.114319E+04 -1.062887E+05 -3.065747E+04  2.739820E+05  3.385132E-10  3.402203E-10
       246  18 -9.645126E+04 -3.716895E+05 -8.441170E+04  3.015030E+05  4.030062E-11  3.239715E-10
       246  19 -3.218446E+04 -1.077625E+05 -3.359595E+04  3.006691E+05  5.667773E+03 -3.070423E+04
       246  20  3.005677E+04  1.574774E+05  1.159750E+04  2.731514E+05 -9.511744E+03 -3.427955E+04
       246  21  8.985066E+04  4.216463E+05  5.382893E+04  2.982958E+05 -2.407632E+04 -3.785795E+04
       246  22 -4.388605E+02  2.492398E+04 -7.552357E+03  2.998969E+05  5.701286E+03 -9.761483E+02
       246  23 -5.428769E+02  2.558510E+04 -9.530712E+03  2.735667E+05 -9.480932E+03 -5.725646E+03
       246  24 -3.295896E+03  2.490077E+04 -1.528920E+04  2.998998E+05 -2.404805E+04 -1.047680E+04
       246  25  3.130615E+04  1.576293E+05  1.849371E+04  2.991246E+05  5.734721E+03  2.875815E+04
       246  26 -3.114295E+04 -1.062881E+05 -3.065632E+04  2.739819E+05 -9.450077E+03  2.282241E+04
       246  27 -9.645056E+04 -3.716890E+05 -8.441008E+04  3.015026E+05 -2.401963E+04  1.688740E+04
       247   1  1.295886E+05  5.895096E+05  7.995409E+04  3.015250E+05  3.361626E+04  4.162561E+04
       247   2  1.803309E+05  8.555486E+05  1.270650E+05  2.542238E+05  3.555972E+04  1.025133E+04
       247   3  2.062523E+05  1.119553E+06  1.883789E+05  2.579349E+05  1.174680E+04 -2.113050E+04
       247   4 -3.649539E+03  2.279154E+04 -1.971183E+04  2.995325E+05  3.358914E+04  1.306386E+04
       247   5 -1.750241E+04  2.807005E+04 -3.525343E+04  2.740438E+05  3.558251E+04  3.118508E+04
       247   6 -6.478304E+04  2.264883E+04 -7.095452E+04  2.995796E+05  1.180150E+04  4.931083E+04
       247   7 -1.369048E+05 -5.436107E+05 -1.193864E+05  2.975417E+05  3.356217E+04 -1.547262E+04
       247   8 -2.153753E+05 -7.987511E+05 -1.976031E+05  2.938366E+05  3.560666E+04  5.209154E+04
       247   9 -3.358953E+05 -1.073136E+06 -3.303518E+05  3.411499E+05  1.186572E+04  1.196285E+05
       247  10  1.295870E+05  5.895074E+05  7.994872E+04  3.015239E+05 -4.915165E-10  1.606476E-10
       247  11  1.803295E+05  8.555481E+05  1.270624E+05  2.542235E+05 -5.382898E-11 -2.073525E-11
       247  12  2.062520E+05  1.119552E+06  1.883779E+05  2.579351E+05  2.303643E-10 -1.245186E-10
       247  13 -3.650796E+03  2.279105E+04 -1.971427E+04  2.995321E+05  2.484748E-10 -2.665503E-11
       247  14 -1.750403E+04  2.806867E+04 -3.525764E+04  2.740429E+05  3.185465E-10  3.819547E-12
       247  15 -6.478384E+04  2.264618E+04 -7.095935E+04  2.995791E+05  4.657090E-11 -5.203074E-11
       247  16 -1.369061E+05 -5.436113E+05 -1.193889E+05  2.975421E+05 -6.244032E-11 -3.982978E-10
       247  17 -2.153774E+05 -7.987543E+05 -1.976106E+05  2.938351E+05 -3.374803E-10  4.337756E-10
       247  18 -3.358993E+05 -1.073151E+06 -3.303790E+05  3.411488E+05  7.981905E-11  1.424651E-10
       247  19  1.295886E+05  5.895096E+05  7.995409E+04  3.015250E+05 -3.361626E+04 -4.162561E+04
       247  20  1.803309E+05  8.555486E+05  1.270650E+05  2.542238E+05 -3.555972E+04 -1.025133E+04
       247  21  2.062523E+05  1.119553E+06  1.883789E+05  2.579349E+05 -1.174680E+04  2.113050E+04
       247  22 -3.649539E+03  2.279154E+04 -1.971183E+04  2.995325E+05 -3.358914E+04 -1.306386E+04
       247  23 -1.750241E+04  2.807005E+04 -3.525343E+04  2.740438E+05 -3.558251E+04 -3.118508E+04
       247  24 -6.478304E+04  2.264883E+04 -7.095452E+04  2.995796E+05 -1.180150E+04 -4.931083E+04
       247  25 -1.369048E+05 -5.436107E+05 -1.193864E+05  2.975417E+05 -3.356217E+04  1.547262E+04
       247  26 -2.153753E+05 -7.987511E+05 -1.976031E+05  2.938366E+05 -3.560666E+04 -5.209154E+04
       247  27 -3.358953E+05 -1.073136E+06 -3.303518E+05  3.411499E+05 -1.186572E+04 -1.196285E+05
       248   1  8.220431E+05  1.937424E+05  1.828119E+05  1.478405E+05  5.224340E+04 -1.005338E+04
       248   2  6.822273E+05  1.612871E+05  1.263125E+05  1.386843E+05  1.840880E+04 -3.214723E+04
       248   3  5.470439E+05  1.294456E+05  9.198097E+04  1.555589E+05 -1.540829E+04 -3.502245E+04
       248   4 -9.144257E+03 -1.144686E+04 -1.233592E+04  1.552882E+05 -8.690415E+03 -1.004235E+04
       248   5 -8.217782E+03 -3.218606E+03 -6.048044E+03  1.422725E+05 -5.582518E+03 -3.214802E+04
       248   6 -9.082492E+03 -7.850822E+02 -3.228608E+03  1.552894E+05 -2.464500E+03 -3.502482E+04
       248   7 -8.396880E+05 -2.166831E+05 -2.075171E+05  1.627259E+05 -6.954322E+04 -1.003277E+04
       248   8 -6.982029E+05 -1.677521E+05 -1.384282E+05  1.458566E+05 -2.954780E+04 -3.214909E+04
       248   9 -5.649047E+05 -1.310321E+05 -9.844790E+04  1.550201E+05  1.046807E+04 -3.502720E+04
       248  10  8.220402E+05  1.937416E+05  1.828066E+05  1.478409E+05 -5.662655E-10  2.642663E-10
       248  11  6.822266E+05  1.612859E+05  1.263099E+05  1.386848E+05  9.212451E-10 -1.178800E-10
       248  12  5.470433E+05  1.294442E+05  9.197822E+04  1.555585E+05  1.108901E-09  2.526846E-11
       248  13 -9.144365E+03 -1.144699E+04 -1.233625E+04  1.552882E+05 -3.728952E-10 -2.528180E-10
       248  14 -8.218093E+03 -3.219724E+03 -6.050044E+03  1.422724E+05 -4.258322E-10 -5.900723E-11
       248  15 -9.082828E+03 -7.864011E+02 -3.230925E+03  1.552893E+05  2.742559E-10 -1.705775E-11
       248  16 -8.396932E+05 -2.166845E+05 -2.075263E+05  1.627254E+05  2.596117E-10 -2.504803E-10
       248  17 -6.982041E+05 -1.677534E+05 -1.384318E+05  1.458559E+05 -8.356282E-10 -7.729161E-11
       248  18 -5.649052E+05 -1.310335E+05 -9.845041E+04  1.550204E+05 -1.207261E-09 -3.057701E-10
       248  19  8.220431E+05  1.937424E+05  1.828119E+05  1.478405E+05 -5.224340E+04  1.005338E+04
       248  20  6.822273E+05  1.612871E+05  1.263125E+05  1.386843E+05 -1.840880E+04  3.214723E+04
       248  21  5.470439E+05  1.294456E+05  9.198097E+04  1.555589E+05  1.540829E+04  3.502245E+04
       248  22 -9.144257E+03 -1.144686E+04 -1.233592E+04  1.552882E+05  8.690415E+03  1.004235E+04
       248  23 -8.217782E+03 -3.218606E+03 -6.048044E+03  1.422725E+05  5.582518E+03  3.214802E+04
       248  24 -9.082492E+03 -7.850822E+02 -3.228608E+03  1.552894E+05  2.464500E+03  3.502482E+04
       248  25 -8.396880E+05 -2.166831E+05 -2.075171E+05  1.627259E+05  6.954322E+04  1.003277E+04
       248  26 -6.982029E+05 -1.677521E+05 -1.384282E+05  1.458566E+05  2.954780E+04  3.214909E+04
       248  27 -5.649047E+05 -1.310321E+05 -9.844790E+04  1.550201E+05 -1.046807E+04  3.502720E+04
       249   1  4.589667E+05  1.085487E+05  7.636221E+04  1.552791E+05 -1.405941E+04 -3.051064E+04
       249   2  3.213742E+05  7.648715E+04  5.217951E+04  1.418091E+05 -1.711750E+04 -2.331466E+04
       249   3  1.842856E+05  4.468627E+04  3.005711E+04  1.556871E+05 -2.017639E+04 -1.422263E+04
       249   4 -8.700211E+03 -7.085760E+02 -2.386302E+03  1.555816E+05 -2.055145E+03 -3.051174E+04
       249   5 -8.611648E+03 -1.654260E+02 -1.161208E+03  1.419070E+05 -1.472648E+03 -2.331386E+04
       249   6 -8.669923E+03  7.252912E+00 -4.037718E+02  1.555815E+05 -8.915895E+02 -1.421940E+04
       249   7 -4.761513E+05 -1.099773E+05 -8.114120E+04  1.558838E+05  9.940378E+03 -3.051283E+04
       249   8 -3.384890E+05 -7.682338E+04 -5.450398E+04  1.420048E+05  1.416419E+04 -2.331306E+04
       249   9 -2.015875E+05 -4.467341E+04 -3.086419E+04  1.554759E+05  1.838744E+04 -1.421617E+04
       249  10  4.589662E+05  1.085477E+05  7.636009E+04  1.552788E+05  1.292225E-10 -8.515765E-12
       249  11  3.213737E+05  7.648648E+04  5.217794E+04  1.418087E+05  5.621396E-10  8.686117E-11
       249  12  1.842851E+05  4.468594E+04  3.005597E+04  1.556869E+05  7.707748E-10 -3.877920E-12
       249  13 -8.700465E+03 -7.095768E+02 -2.388059E+03  1.555815E+05  3.059314E-10 -2.063473E-10
       249  14 -8.611796E+03 -1.660103E+02 -1.162233E+03  1.419070E+05 -1.024752E-10  3.205383E-11
       249  15 -8.669978E+03  7.035586E+00 -4.041532E+02  1.555815E+05 -1.049373E-10 -5.791340E-11
       249  16 -4.761517E+05 -1.099783E+05 -8.114314E+04  1.558841E+05  5.514680E-11 -2.591719E-10
       249  17 -3.384893E+05 -7.682402E+04 -5.450538E+04  1.420051E+05 -7.056341E-10 -2.090426E-11
       249  18 -2.015880E+05 -4.467372E+04 -3.086520E+04  1.554761E+05 -3.011500E-10 -5.500545E-12
       249  19  4.589667E+05  1.085487E+05  7.636221E+04  1.552791E+05  1.405941E+04  3.051064E+04
       249  20  3.213742E+05  7.648715E+04  5.217951E+04  1.418091E+05  1.711750E+04  2.331466E+04
       249  21  1.842856E+05  4.468627E+04  3.005711E+04  1.556871E+05  2.017639E+04  1.422263E+04
       249  22 -8.700211E+03 -7.085760E+02 -2.386302E+03  1.555816E+05  2.055145E+03  3.051174E+04
       249  23 -8.611648E+03 -1.654260E+02 -1.161208E+03  1.419070E+05  1.472648E+03  2.331386E+04
       249  24 -8.669923E+03  7.252912E+00 -4.037718E+02  1.555815E+05  8.915895E+02  1.421940E+04
       249  25 -4.761513E+05 -1.099773E+05 -8.114120E+04  1.558838E+05 -9.940378E+03  3.051283E+04
       249  26 -3.384890E+05 -7.682338E+04 -5.450398E+04  1.420048E+05 -1.416419E+04  2.331306E+04
       249  27 -2.015875E+05 -4.467341E+04 -3.086419E+04  1.554759E+05 -1.838744E+04  1.421617E+04
       250   1  9.683433E+04  2.430797E+04  1.594819E+04  1.556704E+05 -2.009886E+04 -8.255657E+03
       250   2 -4.033981E+04 -7.506063E+03 -5.879964E+03  1.418412E+05 -1.819966E+04  1.206619E+03
       250   3 -1.777720E+05 -3.948158E+04 -2.898308E+04  1.554094E+05 -1.630094E+04  9.542650E+03
       250   4 -8.610872E+03  1.096616E+01 -9.787867E+01  1.555922E+05 -8.495957E+02 -8.251878E+03
       250   5 -8.660582E+03  1.114852E+02  5.270069E+02  1.418936E+05 -1.114887E+03  1.209811E+03
       250   6 -8.613735E+03  4.263499E+02  1.378520E+03  1.555921E+05 -1.380231E+03  9.545302E+03
       250   7 -1.140441E+05 -2.428637E+04 -1.614279E+04  1.555140E+05  1.839653E+04 -8.248103E+03
       250   8  2.302023E+04  7.729127E+03  6.935023E+03  1.419459E+05  1.597074E+04  1.213006E+03
       250   9  1.605729E+05  4.033281E+04  3.173986E+04  1.557749E+05  1.354443E+04  9.547961E+03
       250  10  9.683388E+04  2.430779E+04  1.594730E+04  1.556703E+05 -8.164899E-11 -5.032680E-11
       250  11 -4.034017E+04 -7.506153E+03 -5.880589E+03  1.418412E+05 -2.260006E-10  2.453060E-12
       250  12 -1.777723E+05 -3.948175E+04 -2.898376E+04  1.554095E+05  1.643783E-10  1.889212E-10
       250  13 -8.610892E+03  1.089285E+01 -9.800798E+01  1.555922E+05 -2.484342E-11 -9.013088E-11
       250  14 -8.660584E+03  1.114833E+02  5.270018E+02  1.418936E+05  1.185480E-10  1.067475E-10
       250  15 -8.613761E+03  4.262516E+02  1.378346E+03  1.555921E+05 -8.003312E-11 -4.032199E-11
       250  16 -1.140445E+05 -2.428653E+04 -1.614355E+04  1.555141E+05 -4.013341E-11 -6.878565E-11
       250  17  2.301996E+04  7.729057E+03  6.934541E+03  1.419459E+05  1.920197E-10 -7.236933E-11
       250  18  1.605727E+05  4.033266E+04  3.173934E+04  1.557748E+05 -1.780370E-10  4.761100E-11
       250  19  9.683433E+04  2.430797E+04  1.594819E+04  1.556704E+05  2.009886E+04  8.255657E+03
       250  20 -4.033981E+04 -7.506063E+03 -5.879964E+03  1.418412E+05  1.819966E+04 -1.206619E+03
       250  21 -1.777720E+05 -3.948158E+04 -2.898308E+04  1.554094E+05  1.630094E+04 -9.542650E+03
       250  22 -8.610872E+03  1.096616E+01 -9.787867E+01  1.555922E+05  8.495957E+02  8.251878E+03
       250  23 -8.660582E+03  1.114852E+02  5.270069E+02  1.418936E+05  1.114887E+03 -1.209811E+03
       250  24 -8.613735E+03  4.263499E+02  1.378520E+03  1.555921E+05  1.380231E+03 -9.545302E+03
       250  25 -1.140441E+05 -2.428637E+04 -1.614279E+04  1.555140E+05 -1.839653E+04  8.248103E+03
       250  26  2.302023E+04  7.729127E+03  6.935023E+03  1.419459E+05 -1.597074E+04 -1.213006E+03
       250  27  1.605729E+05  4.033281E+04  3.173986E+04  1.557749E+05 -1.354443E+04 -9.547961E+03
       251   1 -2.655636E+05 -6.019675E+04 -4.406049E+04  1.555787E+05 -1.715206E+04  1.464688E+04
       251   2 -4.014189E+05 -9.212579E+04 -7.389395E+04  1.399421E+05  5.216482E+03  1.641875E+04
       251   3 -5.402891E+05 -1.246274E+05 -1.184352E+05  1.508446E+05  2.757709E+04  5.541829E+03
       251   4 -8.378887E+03  4.475410E+02  1.933446E+03  1.554010E+05 -1.621855E+03  1.464904E+04
       251   5 -8.989021E+03  1.901644E+03  3.714643E+03  1.421321E+05 -3.526405E+03  1.641705E+04
       251   6 -8.414188E+03  6.999699E+03  7.649616E+03  1.554008E+05 -5.434205E+03  5.540135E+03
       251   7  2.488709E+05  6.108830E+04  4.792577E+04  1.552232E+05  1.391460E+04  1.465119E+04
       251   8  3.835884E+05  9.591978E+04  8.131594E+04  1.443235E+05 -1.227471E+04  1.641530E+04
       251   9  5.237231E+05  1.386071E+05  1.337188E+05  1.599609E+05 -3.847365E+04  5.537959E+03
       251  10 -2.655640E+05 -6.019706E+04 -4.406145E+04  1.555789E+05  1.956962E-10  1.671702E-10
       251  11 -4.014190E+05 -9.212609E+04 -7.389450E+04  1.399421E+05  6.094346E-10  1.982058E-10
       251  12 -5.402899E+05 -1.246277E+05 -1.184367E+05  1.508444E+05  1.772540E-10  1.307228E-10
       251  13 -8.378948E+03  4.473099E+02  1.933037E+03  1.554010E+05 -1.756238E-10  1.241586E-10
       251  14 -8.989106E+03  1.901352E+03  3.714113E+03  1.421322E+05 -3.879284E-11  1.257316E-10
       251  15 -8.414228E+03  6.999658E+03  7.649503E+03  1.554008E+05 -4.032718E-11 -4.936042E-11
       251  16  2.488706E+05  6.108801E+04  4.792500E+04  1.552230E+05 -3.754308E-10  9.928378E-11
       251  17  3.835882E+05  9.591945E+04  8.131516E+04  1.443236E+05 -4.574494E-10  5.086378E-11
       251  18  5.237215E+05  1.386067E+05  1.337160E+05  1.599610E+05 -4.167207E-10 -2.449968E-11
       251  19 -2.655636E+05 -6.019675E+04 -4.406049E+04  1.555787E+05  1.715206E+04 -1.464688E+04
       251  20 -4.014189E+05 -9.212579E+04 -7.389395E+04  1.399421E+05 -5.216482E+03 -1.641875E+04
       251  21 -5.402891E+05 -1.246274E+05 -1.184352E+05  1.508446E+05 -2.757709E+04 -5.541829E+03
       251  22 -8.378887E+03  4.475410E+02  1.933446E+03  1.554010E+05  1.621855E+03 -1.464904E+04
       251  23 -8.989021E+03  1.901644E+03  3.714643E+03  1.421321E+05  3.526405E+03 -1.641705E+04
       251  24 -8.414188E+03  6.999699E+03  7.649616E+03  1.554008E+05  5.434205E+03 -5.540135E+03
       251  25  2.488709E+05  6.108830E+04  4.792577E+04  1.552232E+05 -1.391460E+04 -1.465119E+04
       251  26  3.835884E+05  9.591978E+04  8.131594E+04  1.443235E+05  1.227471E+04 -1.641530E+04
       251  27  5.237231E+05  1.386071E+05  1.337188E+05  1.599609E+05  3.847365E+04 -5.537959E+03
       252   1 -2.833676E+05 -1.098211E+06 -2.726069E+05  3.764410E+05 -1.133618E+04 -6.805132E+04
       252   2 -1.930963E+05 -7.606861E+05 -1.606524E+05  3.441351E+05 -3.241587E+04 -1.607031E+04
       252   3 -1.120021E+05 -4.321534E+05 -8.488594E+04  3.764206E+05 -2.629011E+04  3.592895E+04
       252   4 -1.682210E+02  4.511147E+04 -6.737739E+02  3.769665E+05 -1.125898E+04 -1.429156E+03
       252   5  3.683903E+02  4.521490E+04  4.153098E+02  3.446730E+05 -3.239456E+04 -1.601936E+03
       252   6  8.023835E+02  4.528756E+04  1.575264E+03  3.769656E+05 -2.634093E+04 -1.785796E+03
       252   7  2.829393E+05  1.189645E+06  2.711846E+05  3.774924E+05 -1.118178E+04  6.531527E+04
       252   8  1.937934E+05  8.517369E+05  1.614511E+05  3.452114E+05 -3.237324E+04  1.288486E+04
       252   9  1.135949E+05  5.229535E+05  8.803282E+04  3.775109E+05 -2.639178E+04 -3.952876E+04
       252  10 -2.833690E+05 -1.098216E+06 -2.726158E+05  3.764403E+05  1.405016E-10  4.674564E-10
       252  11 -1.930975E+05 -7.606867E+05 -1.606549E+05  3.441346E+05  2.130414E-10 -4.788507E-10
       252  12 -1.120032E+05 -4.321549E+05 -8.488967E+04  3.764214E+05 -7.113828E-10 -1.206141E-09
       252  13 -1.683576E+02  4.511144E+04 -6.740159E+02  3.769665E+05 -3.051943E-10  5.553647E-10
       252  14  3.672628E+02  4.521461E+04  4.133330E+02  3.446730E+05  1.050074E-09 -6.614738E-10
       252  15  8.016376E+02  4.528737E+04  1.573955E+03  3.769656E+05 -2.994088E-10  2.011283E-09
       252  16  2.829380E+05  1.189640E+06  2.711764E+05  3.774930E+05  2.762482E-10 -4.466363E-10
       252  17  1.937922E+05  8.517365E+05  1.614489E+05  3.452117E+05  5.841269E-10 -4.282420E-10
       252  18  1.135937E+05  5.229516E+05  8.802858E+04  3.775100E+05 -1.774741E-11  3.410473E-10
       252  19 -2.833676E+05 -1.098211E+06 -2.726069E+05  3.764410E+05  1.133618E+04  6.805132E+04
       252  20 -1.930963E+05 -7.606861E+05 -1.606524E+05  3.441351E+05  3.241587E+04  1.607031E+04
       252  21 -1.120021E+05 -4.321534E+05 -8.488594E+04  3.764206E+05  2.629011E+04 -3.592895E+04
       252  22 -1.682210E+02  4.511147E+04 -6.737739E+02  3.769665E+05  1.125898E+04  1.429156E+03
       252  23  3.683903E+02  4.521490E+04  4.153098E+02  3.446730E+05  3.239456E+04  1.601936E+03
       252  24  8.023835E+02  4.528756E+04  1.575264E+03  3.769656E+05  2.634093E+04  1.785796E+03
       252  25  2.829393E+05  1.189645E+06  2.711846E+05  3.774924E+05  1.118178E+04 -6.531527E+04
       252  26  1.937934E+05  8.517369E+05  1.614511E+05  3.452114E+05  3.237324E+04 -1.288486E+04
       252  27  1.135949E+05  5.229535E+05  8.803282E+04  3.775109E+05  2.639178E+04  3.952876E+04
       253   1 -6.169545E+04 -2.185925E+05 -4.633558E+04  3.768667E+05 -1.387029E+04  3.438237E+04
       253   2  1.718872E+04  1.140639E+05  1.536837E+04  3.446470E+05  4.992021E+03  3.158759E+04
       253   3  9.752982E+04  4.474498E+05  7.921624E+04  3.786833E+05  2.353254E+04  2.879251E+04
       253   4  8.406300E+02  4.543844E+04  2.278156E+03  3.773369E+05 -1.392198E+04 -2.146031E+03
       253   5  1.203369E+03  4.517318E+04  4.330657E+03  3.442076E+05  4.942078E+03 -4.331596E+03
       253   6  2.922281E+03  4.542304E+04  8.102846E+03  3.773343E+05  2.348416E+04 -6.516060E+03
       253   7  6.337346E+04  3.095399E+05  5.089402E+04  3.778074E+05 -1.397371E+04 -3.868956E+04
       253   8 -1.478153E+04 -2.371011E+04 -6.702338E+03  3.437683E+05  4.892181E+03 -4.024694E+04
       253   9 -9.169346E+04 -3.564431E+05 -6.301183E+04  3.759860E+05  2.343591E+04 -4.180244E+04
       253  10 -6.169598E+04 -2.185938E+05 -4.633816E+04  3.768671E+05 -4.368551E-10 -4.040443E-11
       253  11  1.718842E+04  1.140629E+05  1.536645E+04  3.446469E+05 -7.822656E-10  4.525972E-10
       253  12  9.752900E+04  4.474487E+05  7.921364E+04  3.786827E+05  8.188267E-11  8.739619E-10
       253  13  8.404206E+02  4.543838E+04  2.277783E+03  3.773369E+05 -4.498567E-10  8.620875E-10
       253  14  1.203337E+03  4.517315E+04  4.330575E+03  3.442077E+05 -1.267756E-09 -9.010880E-10
       253  15  2.921677E+03  4.542284E+04  8.101729E+03  3.773344E+05 -9.403703E-10  2.025179E-09
       253  16  6.337285E+04  3.095382E+05  5.089085E+04  3.778069E+05 -4.871134E-10  1.648190E-11
       253  17 -1.478199E+04 -2.371185E+04 -6.705427E+03  3.437684E+05  7.070688E-11 -1.650927E-09
       253  18 -9.169452E+04 -3.564452E+05 -6.301615E+04  3.759868E+05 -2.086857E-10 -1.768026E-09
       253  19 -6.169545E+04 -2.185925E+05 -4.633558E+04  3.768667E+05  1.387029E+04 -3.438237E+04
       253  20  1.718872E+04  1.140639E+05  1.536837E+04  3.446470E+05 -4.992021E+03 -3.158759E+04
       253  21  9.752982E+04  4.474498E+05  7.921624E+04  3.786833E+05 -2.353254E+04 -2.879251E+04
       253  22  8.406300E+02  4.543844E+04  2.278156E+03  3.773369E+05  1.392198E+04  2.146031E+03
       253  23  1.203369E+03  4.517318E+04  4.330657E+03  3.442076E+05 -4.942078E+03  4.331596E+03
       253  24  2.922281E+03  4.542304E+04  8.102846E+03  3.773343E+05 -2.348416E+04  6.516060E+03
       253  25  6.337346E+04  3.095399E+05  5.089402E+04  3.778074E+05  1.397371E+04  3.868956E+04
       253  26 -1.478153E+04 -2.371011E+04 -6.702338E+03  3.437683E+05 -4.892181E+03  4.024694E+04
       253  27 -9.169346E+04 -3.564431E+05 -6.301183E+04  3.759860E+05 -2.343591E+04  4.180244E+04
       254   1  1.479964E+05  6.624086E+05  1.200813E+05  3.765018E+05  3.570139E+04  2.873641E+04
       254   2  2.366160E+05  9.876295E+05  2.061537E+05  3.569591E+05  3.957579E+04 -3.953947E+04
       254   3  3.545423E+05  1.329146E+06  3.439510E+05  4.017697E+05  1.321482E+04 -1.078431E+05
       254   4  3.035628E+03  4.663091E+04  1.078022E+04  3.769139E+05  3.565472E+04 -7.932426E+03
       254   5  1.059501E+04  4.346100E+04  1.978307E+04  3.447199E+05  3.960676E+04 -1.807138E+04
       254   6  3.740646E+04  4.642417E+04  4.018359E+04  3.768786E+05  1.330501E+04 -2.820045E+04
       254   7 -1.419453E+05 -5.687739E+05 -9.852997E+04  3.773255E+05  3.560797E+04 -4.456597E+04
       254   8 -2.154793E+05 -8.998539E+05 -1.666294E+05  3.324992E+05  3.963692E+04  3.364794E+03
       254   9 -2.798418E+05 -1.234773E+06 -2.636740E+05  3.520382E+05  1.338897E+04  5.127879E+04
       254  10  1.479948E+05  6.624074E+05  1.200774E+05  3.765009E+05 -1.331109E-11 -1.863778E-10
       254  11  2.366139E+05  9.876274E+05  2.061478E+05  3.569603E+05  3.691545E-11 -2.364796E-10
       254  12  3.545390E+05  1.329134E+06  3.439289E+05  4.017709E+05  2.273224E-10 -2.233992E-10
       254  13  3.034246E+03  4.663050E+04  1.077771E+04  3.769142E+05  8.179010E-10  8.229528E-10
       254  14  1.059324E+04  4.346022E+04  1.977951E+04  3.447205E+05 -2.438960E-10 -6.892178E-10
       254  15  3.740605E+04  4.642327E+04  4.018176E+04  3.768789E+05  2.143671E-10  1.159759E-09
       254  16 -1.419472E+05 -5.687763E+05 -9.853609E+04  3.773267E+05  6.792049E-11  1.838219E-10
       254  17 -2.154810E+05 -8.998543E+05 -1.666324E+05  3.324991E+05  1.741948E-11 -5.297900E-10
       254  18 -2.798427E+05 -1.234776E+06 -2.636793E+05  3.520376E+05  2.756388E-10 -3.057772E-10
       254  19  1.479964E+05  6.624086E+05  1.200813E+05  3.765018E+05 -3.570139E+04 -2.873641E+04
       254  20  2.366160E+05  9.876295E+05  2.061537E+05  3.569591E+05 -3.957579E+04  3.953947E+04
       254  21  3.545423E+05  1.329146E+06  3.439510E+05  4.017697E+05 -1.321482E+04  1.078431E+05
       254  22  3.035628E+03  4.663091E+04  1.078022E+04  3.769139E+05 -3.565472E+04  7.932426E+03
       254  23  1.059501E+04  4.346100E+04  1.978307E+04  3.447199E+05 -3.960676E+04  1.807138E+04
       254  24  3.740646E+04  4.642417E+04  4.018359E+04  3.768786E+05 -1.330501E+04  2.820045E+04
       254  25 -1.419453E+05 -5.687739E+05 -9.852997E+04  3.773255E+05 -3.560797E+04  4.456597E+04
       254  26 -2.154793E+05 -8.998539E+05 -1.666294E+05  3.324992E+05 -3.963692E+04 -3.364794E+03
       254  27 -2.798418E+05 -1.234773E+06 -2.636740E+05  3.520382E+05 -1.338897E+04 -5.127879E+04
       255   1  6.722415E+05  1.771514E+05  1.679553E+05  1.081105E+05  5.510395E+04 -9.140848E+03
       255   2  5.732050E+05  1.478755E+05  1.177143E+05  9.943952E+04  2.362660E+04 -2.986716E+04
       255   3  4.795772E+05  1.236749E+05  8.922653E+04  1.087660E+05 -7.840666E+03 -3.405530E+04
       255   4 -4.965553E+04 -9.693764E+02 -1.030606E+03  1.087199E+05 -6.116675E+02 -9.140457E+03
       255   5 -4.957969E+04 -3.033970E+02 -5.969007E+02  9.972090E+04 -3.028588E+02 -2.987141E+04
       255   6 -4.961671E+04 -7.511900E+01 -4.699259E+02  1.087198E+05  1.057725E+01 -3.405652E+04
       255   7 -7.710660E+05 -1.791255E+05 -1.700404E+05  1.093285E+05 -5.626297E+04 -9.140179E+03
       255   8 -6.719893E+05 -1.485048E+05 -1.189233E+05  1.000020E+05 -2.420891E+04 -2.987567E+04
       255   9 -5.785349E+05 -1.238399E+05 -9.017522E+04  1.086736E+05  7.855347E+03 -3.405774E+04
       255  10  6.722382E+05  1.771505E+05  1.679495E+05  1.081109E+05 -4.003422E-10  1.327824E-10
       255  11  5.732041E+05  1.478744E+05  1.177116E+05  9.944009E+04 -1.212150E-10 -2.021302E-11
       255  12  4.795768E+05  1.236736E+05  8.922424E+04  1.087658E+05 -2.357739E-10 -2.187239E-10
       255  13 -4.965555E+04 -9.694662E+02 -1.030764E+03  1.087199E+05 -1.512831E-10 -2.432814E-10
       255  14 -4.957992E+04 -3.043552E+02 -5.985776E+02  9.972089E+04 -6.302037E-11 -5.635510E-12
       255  15 -4.961702E+04 -7.636445E+01 -4.721054E+02  1.087198E+05  2.430847E-10 -4.253342E-11
       255  16 -7.710694E+05 -1.791264E+05 -1.700465E+05  1.093280E+05 -2.782312E-10 -1.652649E-10
       255  17 -6.719901E+05 -1.485059E+05 -1.189261E+05  1.000014E+05  4.450463E-11  1.892074E-11
       255  18 -5.785353E+05 -1.238411E+05 -9.017752E+04  1.086738E+05  2.604650E-10  3.287447E-11
       255  19  6.722415E+05  1.771514E+05  1.679553E+05  1.081105E+05 -5.510395E+04  9.140848E+03
       255  20  5.732050E+05  1.478755E+05  1.177143E+05  9.943952E+04 -2.362660E+04  2.986716E+04
       255  21  4.795772E+05  1.236749E+05  8.922653E+04  1.087660E+05  7.840666E+03  3.405530E+04
       255  22 -4.965553E+04 -9.693764E+02 -1.030606E+03  1.087199E+05  6.116675E+02  9.140457E+03
       255  23 -4.957969E+04 -3.033970E+02 -5.969007E+02  9.972090E+04  3.028588E+02  2.987141E+04
       255  24 -4.961671E+04 -7.511900E+01 -4.699259E+02  1.087198E+05 -1.057725E+01  3.405652E+04
       255  25 -7.710660E+05 -1.791255E+05 -1.700404E+05  1.093285E+05  5.626297E+04  9.140179E+03
       255  26 -6.719893E+05 -1.485048E+05 -1.189233E+05  1.000020E+05  2.420891E+04  2.987567E+04
       255  27 -5.785349E+05 -1.238399E+05 -9.017522E+04  1.086736E+05 -7.855347E+03  3.405774E+04
       256   1  4.174664E+05  1.088939E+05  7.729780E+04  1.089734E+05 -6.954588E+03 -3.117053E+04
       256   2  3.209905E+05  8.596741E+04  5.868952E+04  9.941879E+04 -9.894788E+03 -2.666170E+04
       256   3  2.250421E+05  6.354503E+04  4.212291E+04  1.089980E+05 -1.283601E+04 -2.046462E+04
       256   4 -4.959030E+04 -5.153175E+01 -4.789824E+02  1.089724E+05  8.686350E+01 -3.117108E+04
       256   5 -4.955551E+04  1.128035E+01 -6.080211E+02  9.940510E+04  3.891154E+02 -2.666033E+04
       256   6 -4.956649E+04  1.551260E+01 -9.468282E+02  1.089724E+05  6.898624E+02 -2.046080E+04
       256   7 -5.164316E+05 -1.090083E+05 -7.826223E+04  1.089713E+05  7.123198E+03 -3.117163E+04
       256   8 -4.199649E+05 -8.595169E+04 -5.990878E+04  9.939141E+04  1.066710E+04 -2.665896E+04
       256   9 -3.240995E+05 -6.351762E+04 -4.401771E+04  1.089468E+05  1.420998E+04 -2.045697E+04
       256  10  4.174661E+05  1.088928E+05  7.729588E+04  1.089733E+05 -4.294262E-10 -9.649690E-11
       256  11  3.209902E+05  8.596662E+04  5.868800E+04  9.941858E+04 -5.746956E-10 -6.635432E-10
       256  12  2.250418E+05  6.354453E+04  4.212182E+04  1.089978E+05  3.074416E-10 -3.817472E-10
       256  13 -4.959056E+04 -5.257510E+01 -4.808082E+02  1.089724E+05 -1.080729E-10 -1.218655E-10
       256  14 -4.955570E+04  1.051707E+01 -6.093571E+02  9.940511E+04 -1.576162E-10 -3.938590E-10
       256  15 -4.956660E+04  1.506292E+01 -9.476158E+02  1.089724E+05 -2.565386E-11 -4.319886E-10
       256  16 -5.164319E+05 -1.090093E+05 -7.826415E+04  1.089715E+05  6.115457E-10 -1.952222E-10
       256  17 -4.199652E+05 -8.595248E+04 -5.991033E+04  9.939164E+04  2.773264E-10 -3.257109E-10
       256  18 -3.240998E+05 -6.351812E+04 -4.401887E+04  1.089470E+05 -5.186791E-10 -5.736625E-11
       256  19  4.174664E+05  1.088939E+05  7.729780E+04  1.089734E+05  6.954588E+03  3.117053E+04
       256  20  3.209905E+05  8.596741E+04  5.868952E+04  9.941879E+04  9.894788E+03  2.666170E+04
       256  21  2.250421E+05  6.354503E+04  4.212291E+04  1.089980E+05  1.283601E+04  2.046462E+04
       256  22 -4.959030E+04 -5.153175E+01 -4.789824E+02  1.089724E+05 -8.686350E+01  3.117108E+04
       256  23 -4.955551E+04  1.128035E+01 -6.080211E+02  9.940510E+04 -3.891154E+02  2.666033E+04
       256  24 -4.956649E+04  1.551260E+01 -9.468282E+02  1.089724E+05 -6.898624E+02  2.046080E+04
       256  25 -5.164316E+05 -1.090083E+05 -7.826223E+04  1.089713E+05 -7.123198E+03  3.117163E+04
       256  26 -4.199649E+05 -8.595169E+04 -5.990878E+04  9.939141E+04 -1.066710E+04  2.665896E+04
       256  27 -3.240995E+05 -6.351762E+04 -4.401771E+04  1.089468E+05 -1.420998E+04  2.045697E+04
       257   1  1.636827E+05  4.927754E+04  3.175225E+04  1.089254E+05 -1.259412E+04 -1.628454E+04
       257   2  6.770121E+04  2.676433E+04  1.534282E+04  9.958788E+04 -1.072256E+04 -9.484053E+03
       257   3 -2.870321E+04  3.530107E+03 -2.467947E+03  1.094664E+05 -8.851737E+03 -3.112402E+03
       257   4 -4.961454E+04  2.717499E+01 -1.218647E+03  1.089905E+05  8.753914E+02 -1.628010E+04
       257   5 -4.946698E+04 -1.574589E+02 -2.099104E+03  9.938255E+04  1.922426E+03 -9.479413E+03
       257   6 -4.960699E+04 -9.193181E+02 -3.808327E+03  1.089908E+05  2.968986E+03 -3.107595E+03
       257   7 -2.628659E+05 -4.922530E+04 -3.418990E+04  1.090556E+05  1.434045E+04 -1.627566E+04
       257   8 -1.666210E+05 -2.707981E+04 -1.954068E+04  9.917725E+04  1.456512E+04 -9.474781E+03
       257   9 -7.050999E+04 -5.368677E+03 -5.148160E+03  1.085153E+05  1.478934E+04 -3.102806E+03
       257  10  1.636825E+05  4.927721E+04  3.175146E+04  1.089252E+05 -1.703963E-10 -2.308499E-10
       257  11  6.770107E+04  2.676421E+04  1.534243E+04  9.958780E+04  7.216808E-11 -6.278848E-11
       257  12 -2.870330E+04  3.530075E+03 -2.468113E+03  1.094663E+05  8.433025E-10 -5.948075E-10
       257  13 -4.961461E+04  2.689018E+01 -1.219147E+03  1.089905E+05 -3.304123E-11 -2.594419E-10
       257  14 -4.946701E+04 -1.575564E+02 -2.099280E+03  9.938256E+04 -7.872598E-11 -2.200945E-10
       257  15 -4.960700E+04 -9.193309E+02 -3.808361E+03  1.089908E+05 -1.355543E-11 -3.034562E-10
       257  16 -2.628662E+05 -4.922564E+04 -3.419078E+04  1.090558E+05  1.255520E-10 -1.296356E-10
       257  17 -1.666213E+05 -2.707996E+04 -1.954125E+04  9.917737E+04 -3.936433E-10  4.990085E-10
       257  18 -7.051023E+04 -5.368746E+03 -5.148589E+03  1.085153E+05 -9.021083E-10  1.631693E-10
       257  19  1.636827E+05  4.927754E+04  3.175225E+04  1.089254E+05  1.259412E+04  1.628454E+04
       257  20  6.770121E+04  2.676433E+04  1.534282E+04  9.958788E+04  1.072256E+04  9.484053E+03
       257  21 -2.870321E+04  3.530107E+03 -2.467947E+03  1.094664E+05  8.851737E+03  3.112402E+03
       257  22 -4.961454E+04  2.717499E+01 -1.218647E+03  1.089905E+05 -8.753914E+02  1.628010E+04
       257  23 -4.946698E+04 -1.574589E+02 -2.099104E+03  9.938255E+04 -1.922426E+03  9.479413E+03
       257  24 -4.960699E+04 -9.193181E+02 -3.808327E+03  1.089908E+05 -2.968986E+03  3.107595E+03
       257  25 -2.628659E+05 -4.922530E+04 -3.418990E+04  1.090556E+05 -1.434045E+04  1.627566E+04
       257  26 -1.666210E+05 -2.707981E+04 -1.954068E+04  9.917725E+04 -1.456512E+04  9.474781E+03
       257  27 -7.050999E+04 -5.368677E+03 -5.148160E+03  1.085153E+05 -1.478934E+04  3.102806E+03
       258   1 -9.077200E+04 -1.096568E+04 -1.426031E+04  1.084573E+05 -8.475856E+03  7.395342E+02
       258   2 -1.846170E+05 -3.756275E+04 -3.800487E+04  1.048051E+05  7.365461E+03  4.154770E+03
       258   3 -2.832166E+05 -7.493213E+04 -7.476037E+04  1.199817E+05  2.320514E+04  1.786178E+03
       258   4 -5.017305E+04 -1.000452E+03 -5.038489E+03  1.089044E+05  3.620360E+03  7.444382E+02
       258   5 -4.876053E+04 -4.636558E+03 -9.226438E+03  9.949222E+04  8.359160E+03  4.155013E+03
       258   6 -5.018204E+04 -1.711529E+04 -1.871315E+04  1.089095E+05  1.309881E+04  1.782049E+03
       258   7 -9.572261E+03  8.964737E+03  4.183774E+03  1.093516E+05  1.571736E+04  7.493595E+02
       258   8  8.711340E+04  2.828854E+04  1.955096E+04  9.417816E+04  9.353074E+03  4.155238E+03
       258   9  1.829027E+05  4.069811E+04  3.733065E+04  9.783299E+04  2.988697E+03  1.778282E+03
       258  10 -9.077208E+04 -1.096570E+04 -1.426045E+04  1.084573E+05 -2.820067E-10 -8.093942E-10
       258  11 -1.846171E+05 -3.756278E+04 -3.800500E+04  1.048051E+05 -5.516118E-10 -8.255693E-10
       258  12 -2.832172E+05 -7.493228E+04 -7.476138E+04  1.199817E+05 -3.057132E-10 -1.729732E-10
       258  13 -5.017307E+04 -1.000457E+03 -5.038515E+03  1.089044E+05  3.602291E-11 -1.542866E-09
       258  14 -4.876061E+04 -4.636595E+03 -9.226602E+03  9.949220E+04  7.320509E-11  5.893872E-10
       258  15 -5.018222E+04 -1.711534E+04 -1.871348E+04  1.089094E+05  2.576744E-10  2.702229E-11
       258  16 -9.572526E+03  8.964670E+03  4.183309E+03  1.093516E+05  3.318078E-11 -4.498258E-11
       258  17  8.711330E+04  2.828850E+04  1.955077E+04  9.417813E+04  6.228377E-10  4.870811E-10
       258  18  1.829027E+05  4.069811E+04  3.733062E+04  9.783298E+04  2.268279E-10 -2.487927E-10
       258  19 -9.077200E+04 -1.096568E+04 -1.426031E+04  1.084573E+05  8.475856E+03 -7.395342E+02
       258  20 -1.846170E+05 -3.756275E+04 -3.800487E+04  1.048051E+05 -7.365461E+03 -4.154770E+03
       258  21 -2.832166E+05 -7.493213E+04 -7.476037E+04  1.199817E+05 -2.320514E+04 -1.786178E+03
       258  22 -5.017305E+04 -1.000452E+03 -5.038489E+03  1.089044E+05 -3.620360E+03 -7.444382E+02
       258  23 -4.876053E+04 -4.636558E+03 -9.226438E+03  9.949222E+04 -8.359160E+03 -4.155013E+03
       258  24 -5.018204E+04 -1.711529E+04 -1.871315E+04  1.089095E+05 -1.309881E+04 -1.782049E+03
       258  25 -9.572261E+03  8.964737E+03  4.183774E+03  1.093516E+05 -1.571736E+04 -7.493595E+02
       258  26  8.711340E+04  2.828854E+04  1.955096E+04  9.417816E+04 -9.353074E+03 -4.155238E+03
       258  27  1.829027E+05  4.069811E+04  3.733065E+04  9.783299E+04 -2.988697E+03 -1.778282E+03
       259   1 -1.454260E+05 -6.305592E+05 -1.392951E+05  2.108415E+05 -5.612464E+03 -3.467792E+04
       259   2 -9.661293E+04 -4.406237E+05 -7.776677E+04  1.932526E+05 -1.563652E+04 -9.305799E+03
       259   3 -5.132286E+04 -2.548480E+05 -3.365376E+04  2.121768E+05 -1.144031E+04  1.607191E+04
       259   4  1.887488E+03 -3.595903E+04  2.422718E+03  2.125828E+05 -5.592481E+03 -1.775022E+03
       259   5  6.139874E+02 -3.620673E+04  3.828031E+03  1.943275E+05 -1.563207E+04 -3.683208E+03
       259   6  5.589260E+02 -3.590912E+04  6.774910E+03  2.125834E+05 -1.145573E+04 -5.594099E+03
       259   7  1.491760E+05  5.589680E+05  1.441198E+05  2.143258E+05 -5.572328E+03  3.115927E+04
       259   8  9.783079E+04  3.683663E+05  8.541454E+04  1.954031E+05 -1.562761E+04  1.942976E+03
       259   9  5.243823E+04  1.830773E+05  4.720335E+04  2.129900E+05 -1.147117E+04 -2.726755E+04
       259  10 -1.454264E+05 -6.305605E+05 -1.392974E+05  2.108413E+05  1.442749E-12 -3.908845E-10
       259  11 -9.661321E+04 -4.406239E+05 -7.776739E+04  1.932525E+05  1.826000E-11  4.319055E-10
       259  12 -5.132307E+04 -2.548483E+05 -3.365450E+04  2.121770E+05 -1.073831E-11  3.861834E-10
       259  13  1.887453E+03 -3.595904E+04  2.422653E+03  2.125828E+05 -3.302184E-10 -6.640237E-13
       259  14  6.137214E+02 -3.620681E+04  3.827547E+03  1.943275E+05  6.495115E-10  3.522289E-10
       259  15  5.587767E+02 -3.590919E+04  6.774605E+03  2.125833E+05 -8.884358E-11  3.563114E-10
       259  16  1.491757E+05  5.589670E+05  1.441179E+05  2.143259E+05  2.361640E-12  2.552662E-10
       259  17  9.783053E+04  3.683662E+05  8.541407E+04  1.954031E+05 -4.806505E-11  2.930232E-10
       259  18  5.243789E+04  1.830765E+05  4.720171E+04  2.129898E+05  3.057850E-10 -6.734581E-10
       259  19 -1.454260E+05 -6.305592E+05 -1.392951E+05  2.108415E+05  5.612464E+03  3.467792E+04
       259  20 -9.661293E+04 -4.406237E+05 -7.776677E+04  1.932526E+05  1.563652E+04  9.305799E+03
       259  21 -5.132286E+04 -2.548480E+05 -3.365376E+04  2.121768E+05  1.144031E+04 -1.607191E+04
       259  22  1.887488E+03 -3.595903E+04  2.422718E+03  2.125828E+05  5.592481E+03  1.775022E+03
       259  23  6.139874E+02 -3.620673E+04  3.828031E+03  1.943275E+05  1.563207E+04  3.683208E+03
       259  24  5.589260E+02 -3.590912E+04  6.774910E+03  2.125834E+05  1.145573E+04  5.594099E+03
       259  25  1.491760E+05  5.589680E+05  1.441198E+05  2.143258E+05  5.572328E+03 -3.115927E+04
       259  26  9.783079E+04  3.683663E+05  8.541454E+04  1.954031E+05  1.562761E+04 -1.942976E+03
       259  27  5.243823E+04  1.830773E+05  4.720335E+04  2.129900E+05  1.147117E+04  2.726755E+04
       260   1 -2.303655E+04 -1.341537E+05 -1.024468E+04  2.117693E+05 -4.346093E+03  1.411049E+04
       260   2  2.255902E+04  5.251116E+04  3.011542E+04  1.954311E+05  6.406067E+03  5.392407E+03
       260   3  7.284696E+04  2.414903E+05  7.731245E+04  2.164626E+05  1.674139E+04 -3.327454E+03
       260   4  5.301090E+02 -3.554691E+04  8.963597E+03  2.127744E+05 -4.361658E+03 -6.944408E+03
       260   5  1.873953E+03 -3.662385E+04  1.583497E+04  1.940873E+05  6.391689E+03 -1.486374E+04
       260   6  7.774040E+03 -3.555761E+04  2.899025E+04  2.127697E+05  1.672818E+04 -2.278237E+04
       260   7  2.409642E+04  6.307014E+04  2.817308E+04  2.137797E+05 -4.377288E+03 -2.800258E+04
       260   8 -1.881129E+04 -1.257501E+05  1.555853E+03  1.927438E+05  6.377397E+03 -3.511708E+04
       260   9 -5.730279E+04 -3.125295E+05 -1.933324E+04  2.090784E+05  1.671519E+04 -4.222887E+04
       260  10 -2.303662E+04 -1.341539E+05 -1.024509E+04  2.117694E+05 -1.199050E-10 -9.454120E-11
       260  11  2.255897E+04  5.251111E+04  3.011529E+04  1.954310E+05 -2.766332E-11  3.285034E-10
       260  12  7.284665E+04  2.414902E+05  7.731190E+04  2.164626E+05 -1.736058E-10 -1.057426E-10
       260  13  5.300756E+02 -3.554696E+04  8.963471E+03  2.127744E+05  2.070777E-10 -1.576940E-11
       260  14  1.873850E+03 -3.662409E+04  1.583448E+04  1.940874E+05  1.126592E-09  3.571491E-10
       260  15  7.773600E+03 -3.555825E+04  2.898875E+04  2.127700E+05 -5.506567E-10  3.722073E-10
       260  16  2.409619E+04  6.306929E+04  2.817157E+04  2.137796E+05  2.415402E-10 -1.904703E-10
       260  17 -1.881166E+04 -1.257514E+05  1.553458E+03  1.927440E+05  9.621116E-12  4.997851E-10
       260  18 -5.730357E+04 -3.125315E+05 -1.933712E+04  2.090790E+05  1.711120E-10 -4.626022E-11
       260  19 -2.303655E+04 -1.341537E+05 -1.024468E+04  2.117693E+05  4.346093E+03 -1.411049E+04
       260  20  2.255902E+04  5.251116E+04  3.011542E+04  1.954311E+05 -6.406067E+03 -5.392407E+03
       260  21  7.284696E+04  2.414903E+05  7.731245E+04  2.164626E+05 -1.674139E+04  3.327454E+03
       260  22  5.301090E+02 -3.554691E+04  8.963597E+03  2.127744E+05  4.361658E+03  6.944408E+03
       260  23  1.873953E+03 -3.662385E+04  1.583497E+04  1.940873E+05 -6.391689E+03  1.486374E+04
       260  24  7.774040E+03 -3.555761E+04  2.899025E+04  2.127697E+05 -1.672818E+04  2.278237E+04
       260  25  2.409642E+04  6.307014E+04  2.817308E+04  2.137797E+05  4.377288E+03  2.800258E+04
       260  26 -1.881129E+04 -1.257501E+05  1.555853E+03  1.927438E+05 -6.377397E+03  3.511708E+04
       260  27 -5.730279E+04 -3.125295E+05 -1.933324E+04  2.090784E+05 -1.671519E+04  4.222887E+04
       261   1  1.018725E+05  3.664019E+05  1.084074E+05  2.093401E+05  2.351245E+04 -7.488791E+03
       261   2  1.753707E+05  5.404921E+05  1.847965E+05  2.354446E+05  2.493820E+04 -7.858688E+04
       261   3  3.225994E+05  7.422970E+05  3.258868E+05  2.977720E+05  8.183824E+03 -1.497065E+05
       261   4  8.367542E+03 -3.123778E+04  3.841859E+04  2.125161E+05  2.349991E+04 -2.776380E+04
       261   5  3.596140E+04 -4.209717E+04  7.042497E+04  1.943803E+05  2.495369E+04 -6.392132E+04
       261   6  1.312585E+05 -3.130739E+04  1.429017E+05  2.124557E+05  8.229619E+03 -1.000770E+05
       261   7 -8.514576E+04 -4.287220E+05 -3.157445E+04  2.156900E+05  2.348715E+04 -4.802621E+04
       261   8 -1.034619E+05 -6.243574E+05 -4.396128E+04  1.533553E+05  2.496726E+04 -4.926920E+04
       261   9 -6.009681E+04 -8.043414E+05 -4.011172E+04  1.272459E+05  8.261828E+03 -5.050894E+04
       261  10  1.018719E+05  3.664017E+05  1.084063E+05  2.093403E+05 -2.980832E-10  6.030288E-12
       261  11  1.753683E+05  5.404853E+05  1.847837E+05  2.354461E+05  2.267689E-10  8.798465E-11
       261  12  3.225933E+05  7.422730E+05  3.258446E+05  2.977730E+05  3.128420E-10 -1.733273E-10
       261  13  8.366742E+03 -3.123876E+04  3.841610E+04  2.125166E+05  2.423634E-10  2.431857E-11
       261  14  3.595964E+04 -4.210173E+04  7.041612E+04  1.943816E+05  1.724855E-10  2.356707E-10
       261  15  1.312557E+05 -3.131817E+04  1.428828E+05  2.124563E+05  1.776222E-11  1.464523E-10
       261  16 -8.514697E+04 -4.287246E+05 -3.157982E+04  2.156909E+05  5.218415E-11 -1.513382E-10
       261  17 -1.034633E+05 -6.243601E+05 -4.396702E+04  1.533563E+05 -4.875110E-10  5.455636E-10
       261  18 -6.009757E+04 -8.043441E+05 -4.011665E+04  1.272463E+05 -2.093508E-11  5.357593E-11
       261  19  1.018725E+05  3.664019E+05  1.084074E+05  2.093401E+05 -2.351245E+04  7.488791E+03
       261  20  1.753707E+05  5.404921E+05  1.847965E+05  2.354446E+05 -2.493820E+04  7.858688E+04
       261  21  3.225994E+05  7.422970E+05  3.258868E+05  2.977720E+05 -8.183824E+03  1.497065E+05
       261  22  8.367542E+03 -3.123778E+04  3.841859E+04  2.125161E+05 -2.349991E+04  2.776380E+04
       261  23  3.596140E+04 -4.209717E+04  7.042497E+04  1.943803E+05 -2.495369E+04  6.392132E+04
       261  24  1.312585E+05 -3.130739E+04  1.429017E+05  2.124557E+05 -8.229619E+03  1.000770E+05
       261  25 -8.514576E+04 -4.287220E+05 -3.157445E+04  2.156900E+05 -2.348715E+04  4.802621E+04
       261  26 -1.034619E+05 -6.243574E+05 -4.396128E+04  1.533553E+05 -2.496726E+04  4.926920E+04
       261  27 -6.009681E+04 -8.043414E+05 -4.011172E+04  1.272459E+05 -8.261828E+03  5.050894E+04
       262   1  1.174637E+06  2.868450E+05  2.695047E+05  2.195086E+05  7.462194E+04 -1.511730E+04
       262   2  9.645678E+05  2.421561E+05  1.874351E+05  2.075720E+05  2.523537E+04 -4.852059E+04
       262   3  7.605356E+05  1.955241E+05  1.370086E+05  2.348124E+05 -2.413611E+04 -5.293487E+04
       262   4 -7.966655E+04 -2.271461E+04 -2.492002E+04  2.337459E+05 -1.739139E+04 -1.517388E+04
       262   5 -7.775858E+04 -6.137731E+03 -1.233182E+04  2.141472E+05 -1.102694E+04 -4.855469E+04
       262   6 -7.952545E+04 -1.176836E+03 -6.781047E+03  2.337303E+05 -4.665538E+03 -5.292291E+04
       262   7 -1.332505E+06 -3.323809E+05 -3.194206E+05  2.479538E+05 -1.092202E+05 -1.523475E+04
       262   8 -1.119037E+06 -2.544948E+05 -2.121435E+05  2.207108E+05 -4.722984E+04 -4.858960E+04
       262   9 -9.188925E+05 -1.979152E+05 -1.505929E+05  2.326494E+05  1.477954E+04 -5.291100E+04
       262  10  1.174631E+06  2.868433E+05  2.694938E+05  2.195095E+05  1.377177E-09 -3.526552E-10
       262  11  9.645664E+05  2.421534E+05  1.874295E+05  2.075730E+05 -4.895996E-11 -1.785247E-09
       262  12  7.605342E+05  1.955209E+05  1.370022E+05  2.348114E+05  1.017683E-10 -1.866840E-09
       262  13 -7.966694E+04 -2.271494E+04 -2.492102E+04  2.337456E+05 -3.832766E-11  1.303849E-10
       262  14 -7.775934E+04 -6.140295E+03 -1.233647E+04  2.141468E+05  1.044481E-10 -1.242878E-09
       262  15 -7.952622E+04 -1.179849E+03 -6.786351E+03  2.337301E+05  2.086025E-10 -5.871653E-10
       262  16 -1.332518E+06 -3.323843E+05 -3.194435E+05  2.479525E+05 -1.782348E-09 -1.102638E-10
       262  17 -1.119040E+06 -2.544980E+05 -2.121522E+05  2.207089E+05  4.960068E-10 -2.288302E-09
       262  18 -9.188935E+05 -1.979182E+05 -1.505985E+05  2.326500E+05  1.132588E-10 -2.439007E-09
       262  19  1.174637E+06  2.868450E+05  2.695047E+05  2.195086E+05 -7.462194E+04  1.511730E+04
       262  20  9.645678E+05  2.421561E+05  1.874351E+05  2.075720E+05 -2.523537E+04  4.852059E+04
       262  21  7.605356E+05  1.955241E+05  1.370086E+05  2.348124E+05  2.413611E+04  5.293487E+04
       262  22 -7.966655E+04 -2.271461E+04 -2.492002E+04  2.337459E+05  1.739139E+04  1.517388E+04
       262  23 -7.775858E+04 -6.137731E+03 -1.233182E+04  2.141472E+05  1.102694E+04  4.855469E+04
       262  24 -7.952545E+04 -1.176836E+03 -6.781047E+03  2.337303E+05  4.665538E+03  5.292291E+04
       262  25 -1.332505E+06 -3.323809E+05 -3.194206E+05  2.479538E+05  1.092202E+05  1.523475E+04
       262  26 -1.119037E+06 -2.544948E+05 -2.121435E+05  2.207108E+05  4.722984E+04  4.858960E+04
       262  27 -9.188925E+05 -1.979152E+05 -1.505929E+05  2.326494E+05 -1.477954E+04  5.291100E+04
       263   1  6.280794E+05  1.641069E+05  1.138179E+05  2.340065E+05 -2.184128E+04 -4.614559E+04
       263   2  4.209954E+05  1.160837E+05  7.773032E+04  2.136848E+05 -2.584274E+04 -3.532553E+04
       263   3  2.144854E+05  6.828889E+04  4.428958E+04  2.345404E+05 -2.984884E+04 -2.164404E+04
       263   4 -7.876359E+04 -1.011994E+03 -5.180199E+03  2.341752E+05 -3.789274E+03 -4.613202E+04
       263   5 -7.851954E+04  5.639074E+01 -3.001231E+03  2.135847E+05 -2.297220E+03 -3.530273E+04
       263   6 -7.869448E+04  4.019913E+02 -1.989568E+03  2.341738E+05 -8.109784E+02 -2.161078E+04
       263   7 -7.851137E+05 -1.661570E+05 -1.241929E+05  2.343436E+05  1.424287E+04 -4.611844E+04
       263   8 -5.777858E+05 -1.159833E+05 -8.373752E+04  2.134846E+05  2.123004E+04 -3.527993E+04
       263   9 -3.717869E+05 -6.748872E+04 -4.826768E+04  2.338073E+05  2.821368E+04 -2.157755E+04
       263  10  6.280783E+05  1.641045E+05  1.138130E+05  2.340056E+05 -3.292491E-09 -2.135042E-09
       263  11  4.209943E+05  1.160822E+05  7.772672E+04  2.136840E+05 -2.060661E-09  4.404071E-10
       263  12  2.144843E+05  6.828815E+04  4.428702E+04  2.345399E+05  5.143991E-10  6.346811E-10
       263  13 -7.876417E+04 -1.014283E+03 -5.184225E+03  2.341751E+05  4.713195E-10 -1.276733E-09
       263  14 -7.851988E+04  5.505112E+01 -3.003583E+03  2.135846E+05  3.951180E-10  9.273994E-11
       263  15 -7.869460E+04  4.014896E+02 -1.990447E+03  2.341738E+05  7.964006E-11 -1.295113E-09
       263  16 -7.851145E+05 -1.661593E+05 -1.241973E+05  2.343441E+05  2.670454E-09 -2.110185E-11
       263  17 -5.777866E+05 -1.159847E+05 -8.374071E+04  2.134852E+05  1.355609E-09  7.962717E-10
       263  18 -3.717879E+05 -6.748943E+04 -4.827006E+04  2.338078E+05 -6.072578E-11 -2.549593E-11
       263  19  6.280794E+05  1.641069E+05  1.138179E+05  2.340065E+05  2.184128E+04  4.614559E+04
       263  20  4.209954E+05  1.160837E+05  7.773032E+04  2.136848E+05  2.584274E+04  3.532553E+04
       263  21  2.144854E+05  6.828889E+04  4.428958E+04  2.345404E+05  2.984884E+04  2.164404E+04
       263  22 -7.876359E+04 -1.011994E+03 -5.180199E+03  2.341752E+05  3.789274E+03  4.613202E+04
       263  23 -7.851954E+04  5.639074E+01 -3.001231E+03  2.135847E+05  2.297220E+03  3.530273E+04
       263  24 -7.869448E+04  4.019913E+02 -1.989568E+03  2.341738E+05  8.109784E+02  2.161078E+04
       263  25 -7.851137E+05 -1.661570E+05 -1.241929E+05  2.343436E+05 -1.424287E+04  4.611844E+04
       263  26 -5.777858E+05 -1.159833E+05 -8.373752E+04  2.134846E+05 -2.123004E+04  3.527993E+04
       263  27 -3.717869E+05 -6.748872E+04 -4.826768E+04  2.338073E+05 -2.821368E+04  2.157755E+04
       264   1  8.276677E+04  3.761291E+04  2.282151E+04  2.343088E+05 -2.948175E+04 -1.265937E+04
       264   2 -1.235719E+05 -1.052800E+04 -1.091707E+04  2.136619E+05 -2.540861E+04  1.596154E+03
       264   3 -3.306812E+05 -5.950326E+04 -4.754011E+04  2.342675E+05 -2.133539E+04  1.416271E+04
       264   4 -7.864547E+04  4.160632E+02 -1.752731E+03  2.341900E+05 -4.989542E+02 -1.262491E+04
       264   5 -7.852370E+04  3.285146E+02 -1.687349E+03  2.135641E+05  3.272991E+02  1.626419E+03
       264   6 -7.865162E+04 -2.814256E+01 -2.253234E+03  2.341904E+05  1.154911E+03  1.418888E+04
       264   7 -2.400298E+05 -3.678158E+04 -2.632437E+04  2.340711E+05  2.847660E+04 -1.259046E+04
       264   8 -3.347216E+04  1.118525E+04  7.544749E+03  2.134663E+05  2.606504E+04  1.656675E+03
       264   9  1.734410E+05  5.944370E+04  4.303309E+04  2.341132E+05  2.365409E+04  1.421504E+04
       264  10  8.276580E+04  3.761251E+04  2.281958E+04  2.343085E+05 -2.053788E-09  1.386601E-09
       264  11 -1.235726E+05 -1.052817E+04 -1.091828E+04  2.136620E+05 -1.263126E-09  1.242109E-09
       264  12 -3.306817E+05 -5.950359E+04 -4.754134E+04  2.342678E+05  1.805442E-09  7.896551E-11
       264  13 -7.864551E+04  4.158920E+02 -1.753031E+03  2.341900E+05  3.610878E-10 -1.551281E-09
       264  14 -7.852370E+04  3.285118E+02 -1.687354E+03  2.135641E+05  3.485374E-10  1.304229E-09
       264  15 -7.865168E+04 -2.835909E+01 -2.253615E+03  2.341904E+05  7.039441E-12  1.746074E-09
       264  16 -2.400307E+05 -3.678197E+04 -2.632619E+04  2.340714E+05  1.746679E-09  4.139879E-10
       264  17 -3.347289E+04  1.118507E+04  7.543467E+03  2.134662E+05  5.767008E-10  1.353990E-09
       264  18  1.734403E+05  5.944334E+04  4.303166E+04  2.341130E+05 -2.026493E-09  5.419955E-11
       264  19  8.276677E+04  3.761291E+04  2.282151E+04  2.343088E+05  2.948175E+04  1.265937E+04
       264  20 -1.235719E+05 -1.052800E+04 -1.091707E+04  2.136619E+05  2.540861E+04 -1.596154E+03
       264  21 -3.306812E+05 -5.950326E+04 -4.754011E+04  2.342675E+05  2.133539E+04 -1.416271E+04
       264  22 -7.864547E+04  4.160632E+02 -1.752731E+03  2.341900E+05  4.989542E+02  1.262491E+04
       264  23 -7.852370E+04  3.285146E+02 -1.687349E+03  2.135641E+05 -3.272991E+02 -1.626419E+03
       264  24 -7.865162E+04 -2.814256E+01 -2.253234E+03  2.341904E+05 -1.154911E+03 -1.418888E+04
       264  25 -2.400298E+05 -3.678158E+04 -2.632437E+04  2.340711E+05 -2.847660E+04  1.259046E+04
       264  26 -3.347216E+04  1.118525E+04  7.544749E+03  2.134663E+05 -2.606504E+04 -1.656675E+03
       264  27  1.734410E+05  5.944370E+04  4.303309E+04  2.341132E+05 -2.365409E+04 -1.421504E+04
       265   1 -4.634717E+05 -9.079302E+04 -7.158759E+04  2.334164E+05 -2.188174E+04  2.185387E+04
       265   2 -6.664006E+05 -1.429615E+05 -1.211101E+05  2.161932E+05  1.698657E+04  2.460128E+04
       265   3 -8.770481E+05 -2.057838E+05 -1.986268E+05  2.389367E+05  5.585060E+04  8.357892E+03
       265   4 -7.892938E+04 -9.532828E+01 -2.770487E+03  2.339038E+05  1.523989E+03  2.187973E+04
       265   5 -7.825509E+04 -2.011686E+03 -4.738804E+03  2.139250E+05  3.963368E+03  2.458571E+04
       265   6 -7.900944E+04 -8.247474E+03 -9.388346E+03  2.339114E+05  6.412439E+03  8.308825E+03
       265   7  3.057584E+05  9.059445E+04  6.604303E+04  2.343915E+05  2.494381E+04  2.190561E+04
       265   8  5.102220E+05  1.389172E+05  1.116161E+05  2.116544E+05 -9.071927E+03  2.457024E+04
       265   9  7.196201E+05  1.892445E+05  1.798150E+05  2.288795E+05 -4.308902E+04  8.260601E+03
       265  10 -4.634723E+05 -9.079366E+04 -7.158939E+04  2.334168E+05  5.528304E-10 -4.274543E-11
       265  11 -6.664011E+05 -1.429623E+05 -1.211118E+05  2.161929E+05 -4.078386E-10  2.168504E-09
       265  12 -8.770515E+05 -2.057847E+05 -1.986328E+05  2.389363E+05  2.884602E-10  5.659384E-10
       265  13 -7.892951E+04 -9.584293E+01 -2.771391E+03  2.339038E+05  6.772507E-10  2.242054E-10
       265  14 -7.825526E+04 -2.012339E+03 -4.739969E+03  2.139249E+05  1.254843E-10  1.790707E-09
       265  15 -7.900950E+04 -8.247559E+03 -9.388553E+03  2.339114E+05  3.555112E-11  2.049312E-10
       265  16  3.057576E+05  9.059377E+04  6.604096E+04  2.343911E+05 -5.890406E-10  2.918907E-10
       265  17  5.102218E+05  1.389166E+05  1.116148E+05  2.116546E+05  1.369619E-10  3.732400E-10
       265  18  7.196181E+05  1.892439E+05  1.798114E+05  2.288798E+05 -4.765169E-10 -2.915342E-10
       265  19 -4.634717E+05 -9.079302E+04 -7.158759E+04  2.334164E+05  2.188174E+04 -2.185387E+04
       265  20 -6.664006E+05 -1.429615E+05 -1.211101E+05  2.161932E+05 -1.698657E+04 -2.460128E+04
       265  21 -8.770481E+05 -2.057838E+05 -1.986268E+05  2.389367E+05 -5.585060E+04 -8.357892E+03
       265  22 -7.892938E+04 -9.532828E+01 -2.770487E+03  2.339038E+05 -1.523989E+03 -2.187973E+04
       265  23 -7.825509E+04 -2.011686E+03 -4.738804E+03  2.139250E+05 -3.963368E+03 -2.458571E+04
       265  24 -7.900944E+04 -8.247474E+03 -9.388346E+03  2.339114E+05 -6.412439E+03 -8.308825E+03
       265  25  3.057584E+05  9.059445E+04  6.604303E+04  2.343915E+05 -2.494381E+04 -2.190561E+04
       265  26  5.102220E+05  1.389172E+05  1.116161E+05  2.116544E+05  9.071927E+03 -2.457024E+04
       265  27  7.196201E+05  1.892445E+05  1.798150E+05  2.288795E+05  4.308902E+04 -8.260601E+03
       266   1 -1.440978E+05 -5.327024E+05 -1.371759E+05  2.237446E+05 -5.654742E+03 -2.933762E+04
       266   2 -9.653099E+04 -3.280949E+05 -7.609053E+04  2.069385E+05 -1.551947E+04 -4.661731E+03
       266   3 -4.915632E+04 -1.266778E+05 -3.112747E+04  2.296346E+05 -1.060043E+04  2.002598E+04
       266   4  8.645237E+03  8.373926E+04  9.914636E+03  2.297670E+05 -5.647243E+03  3.788363E+03
       266   5  2.360404E+03  8.291914E+04  7.280631E+03  2.100178E+05 -1.551738E+04  9.800118E+01
       266   6  8.116027E+02  8.379426E+04  8.231962E+03  2.297680E+05 -1.060849E+04 -3.589154E+03
       266   7  1.613615E+05  7.005320E+05  1.569826E+05  2.357954E+05 -5.639109E+03  3.694711E+04
       266   8  1.012413E+05  4.940941E+05  9.064309E+04  2.130992E+05 -1.551525E+04  4.860826E+03
       266   9  5.077727E+04  2.943104E+05  4.759159E+04  2.299014E+05 -1.061657E+04 -2.721209E+04
       266  10 -1.440980E+05 -5.327033E+05 -1.371775E+05  2.237444E+05 -7.322283E-11  4.619829E-10
       266  11 -9.653125E+04 -3.280950E+05 -7.609102E+04  2.069384E+05  1.402679E-11 -7.802059E-11
       266  12 -4.915655E+04 -1.266783E+05 -3.112844E+04  2.296348E+05  1.580570E-10 -4.171235E-10
       266  13  8.645199E+03  8.373924E+04  9.914550E+03  2.297670E+05  2.802919E-10 -1.880505E-10
       266  14  2.360145E+03  8.291907E+04  7.280179E+03  2.100178E+05  1.493237E-10 -1.514015E-10
       266  15  8.114784E+02  8.379422E+04  8.231727E+03  2.297680E+05  1.210045E-10 -2.734789E-11
       266  16  1.613611E+05  7.005305E+05  1.569799E+05  2.357955E+05 -3.418500E-12 -3.117174E-10
       266  17  1.012411E+05  4.940940E+05  9.064259E+04  2.130993E+05  2.845649E-10 -4.356938E-11
       266  18  5.077695E+04  2.943096E+05  4.758998E+04  2.299012E+05 -5.009874E-11  4.442089E-10
       266  19 -1.440978E+05 -5.327024E+05 -1.371759E+05  2.237446E+05  5.654742E+03  2.933762E+04
       266  20 -9.653099E+04 -3.280949E+05 -7.609053E+04  2.069385E+05  1.551947E+04  4.661731E+03
       266  21 -4.915632E+04 -1.266778E+05 -3.112747E+04  2.296346E+05  1.060043E+04 -2.002598E+04
       266  22  8.645237E+03  8.373926E+04  9.914636E+03  2.297670E+05  5.647243E+03 -3.788363E+03
       266  23  2.360404E+03  8.291914E+04  7.280631E+03  2.100178E+05  1.551738E+04 -9.800118E+01
       266  24  8.116027E+02  8.379426E+04  8.231962E+03  2.297680E+05  1.060849E+04  3.589154E+03
       266  25  1.613615E+05  7.005320E+05  1.569826E+05  2.357954E+05  5.639109E+03 -3.694711E+04
       266  26  1.012413E+05  4.940941E+05  9.064309E+04  2.130992E+05  1.551525E+04 -4.860826E+03
       266  27  5.077727E+04  2.943104E+05  4.759159E+04  2.299014E+05  1.061657E+04  2.721209E+04
       267   1 -1.863928E+04  3.426666E+03 -6.784560E+03  2.288864E+05 -2.887826E+03  1.790312E+04
       267   2  3.006280E+04  2.052463E+05  3.485261E+04  2.109041E+05  8.794278E+03  9.186429E+03
       267   3  8.330986E+04  4.093897E+05  8.329862E+04  2.333039E+05  1.990455E+04  4.679015E+02
       267   4  7.528524E+02  8.389016E+04  9.711825E+03  2.299642E+05 -2.896232E+03 -5.083609E+03
       267   5  1.661997E+03  8.283410E+04  1.524417E+04  2.097723E+05  8.787150E+03 -1.270408E+04
       267   6  6.928680E+03  8.387321E+04  2.682570E+04  2.299624E+05  1.989864E+04 -2.032371E+04
       267   7  2.014487E+04  1.643609E+05  2.620985E+04  2.310421E+05 -2.904717E+03 -2.807326E+04
       267   8 -2.673929E+04 -3.956214E+04 -4.362864E+03  2.086408E+05  8.780100E+03 -3.459042E+04
       267   9 -6.945794E+04 -2.415385E+05 -2.964929E+04  2.266228E+05  1.989296E+04 -4.110475E+04
       267  10 -1.863938E+04  3.426319E+03 -6.785178E+03  2.288864E+05  4.583580E-11 -3.276848E-10
       267  11  3.006269E+04  2.052462E+05  3.485231E+04  2.109040E+05 -2.560321E-10 -1.469828E-10
       267  12  8.330943E+04  4.093896E+05  8.329788E+04  2.333038E+05 -1.716658E-10  1.544780E-10
       267  13  7.528365E+02  8.389013E+04  9.711761E+03  2.299641E+05 -1.683680E-10 -7.914731E-11
       267  14  1.661871E+03  8.283391E+04  1.524372E+04  2.097724E+05 -4.093943E-10  2.329631E-11
       267  15  6.928143E+03  8.387266E+04  2.682418E+04  2.299627E+05  1.556024E-12 -9.085587E-11
       267  16  2.014465E+04  1.643601E+05  2.620836E+04  2.310420E+05  2.810461E-11  3.365395E-10
       267  17 -2.673970E+04 -3.956345E+04 -4.365258E+03  2.086411E+05  1.589207E-10  8.571357E-11
       267  18 -6.945882E+04 -2.415404E+05 -2.965321E+04  2.266234E+05 -4.783346E-11 -1.517843E-10
       267  19 -1.863928E+04  3.426666E+03 -6.784560E+03  2.288864E+05  2.887826E+03 -1.790312E+04
       267  20  3.006280E+04  2.052463E+05  3.485261E+04  2.109041E+05 -8.794278E+03 -9.186429E+03
       267  21  8.330986E+04  4.093897E+05  8.329862E+04  2.333039E+05 -1.990455E+04 -4.679015E+02
       267  22  7.528524E+02  8.389016E+04  9.711825E+03  2.299642E+05  2.896232E+03  5.083609E+03
       267  23  1.661997E+03  8.283410E+04  1.524417E+04  2.097723E+05 -8.787150E+03  1.270408E+04
       267  24  6.928680E+03  8.387321E+04  2.682570E+04  2.299624E+05 -1.989864E+04  2.032371E+04
       267  25  2.014487E+04  1.643609E+05  2.620985E+04  2.310421E+05  2.904717E+03  2.807326E+04
       267  26 -2.673929E+04 -3.956214E+04 -4.362864E+03  2.086408E+05 -8.780100E+03  3.459042E+04
       267  27 -6.945794E+04 -2.415385E+05 -2.964929E+04  2.266228E+05 -1.989296E+04  4.110475E+04
       268   1  1.145915E+05  5.436442E+05  1.152243E+05  2.267095E+05  2.717587E+04 -3.212036E+03
       268   2  1.893028E+05  7.335746E+05  1.925727E+05  2.473268E+05  2.835295E+04 -7.503989E+04
       268   3  3.322769E+05  9.499977E+05  3.337296E+05  3.070635E+05  9.307948E+03 -1.469003E+05
       268   4  7.463388E+03  8.777637E+04  3.527421E+04  2.296777E+05  2.717128E+04 -2.492177E+04
       268   5  3.253575E+04  7.785937E+04  6.419011E+04  2.101187E+05  2.836281E+04 -5.787351E+04
       268   6  1.191649E+05  8.768448E+04  1.299579E+05  2.296681E+05  9.331717E+03 -9.083239E+04
       268   7 -9.967573E+04 -3.678872E+05 -4.468160E+04  2.326436E+05  2.716649E+04 -4.661605E+04
       268   8 -1.242519E+05 -5.774404E+05 -6.421128E+04  1.729507E+05  2.837062E+04 -4.072483E+04
       268   9 -9.397621E+04 -7.739263E+05 -7.385024E+04  1.523805E+05  9.341556E+03 -3.484173E+04
       268  10  1.145907E+05  5.436440E+05  1.152229E+05  2.267095E+05 -3.728993E-10 -1.207048E-11
       268  11  1.893004E+05  7.335683E+05  1.925606E+05  2.473285E+05 -2.023173E-10  5.809847E-11
       268  12  3.322711E+05  9.499745E+05  3.336889E+05  3.070646E+05  7.828425E-12  1.789874E-10
       268  13  7.462428E+03  8.777550E+04  3.527165E+04  2.296782E+05 -4.339443E-10 -1.458650E-10
       268  14  3.253399E+04  7.785556E+04  6.418230E+04  2.101201E+05  1.568009E-11 -3.739511E-10
       268  15  1.191626E+05  8.767560E+04  1.299422E+05  2.296688E+05 -2.353429E-10 -2.175300E-10
       268  16 -9.967711E+04 -3.678897E+05 -4.468708E+04  2.326446E+05 -3.609495E-10  6.422764E-11
       268  17 -1.242532E+05 -5.774424E+05 -6.421591E+04  1.729517E+05 -1.723501E-10 -3.690244E-10
       268  18 -9.397663E+04 -7.739276E+05 -7.385268E+04  1.523808E+05 -1.232638E-10 -3.372475E-10
       268  19  1.145915E+05  5.436442E+05  1.152243E+05  2.267095E+05 -2.717587E+04  3.212036E+03
       268  20  1.893028E+05  7.335746E+05  1.925727E+05  2.473268E+05 -2.835295E+04  7.503989E+04
       268  21  3.322769E+05  9.499977E+05  3.337296E+05  3.070635E+05 -9.307948E+03  1.469003E+05
       268  22  7.463388E+03  8.777637E+04  3.527421E+04  2.296777E+05 -2.717128E+04  2.492177E+04
       268  23  3.253575E+04  7.785937E+04  6.419011E+04  2.101187E+05 -2.836281E+04  5.787351E+04
       268  24  1.191649E+05  8.768448E+04  1.299579E+05  2.296681E+05 -9.331717E+03  9.083239E+04
       268  25 -9.967573E+04 -3.678872E+05 -4.468160E+04  2.326436E+05 -2.716649E+04  4.661605E+04
       268  26 -1.242519E+05 -5.774404E+05 -6.421128E+04  1.729507E+05 -2.837062E+04  4.072483E+04
       268  27 -9.397621E+04 -7.739263E+05 -7.385024E+04  1.523805E+05 -9.341556E+03  3.484173E+04
       269   1  9.881490E+05  2.522191E+05  2.402693E+05  2.142471E+05  7.329977E+04 -1.178445E+04
       269   2  7.962072E+05  1.963602E+05  1.592828E+05  1.955489E+05  2.749965E+04 -3.736655E+04
       269   3  6.125174E+05  1.495788E+05  1.103592E+05  2.126217E+05 -1.829806E+04 -3.942351E+04
       269   4 -2.350400E+04  2.413497E+03  2.311959E+03  2.121474E+05  1.599141E+03 -1.185347E+04
       269   5 -2.364454E+04  8.400613E+02  1.158956E+03  1.942621E+05  1.034554E+03 -3.739866E+04
       269   6 -2.340371E+04  5.055624E+02  6.870278E+02  2.121495E+05  4.582167E+02 -3.940454E+04
       269   7 -1.034205E+06 -2.474623E+05 -2.356964E+05  2.100509E+05 -6.998548E+04 -1.192207E+04
       269   8 -8.428489E+05 -1.947196E+05 -1.569935E+05  1.929767E+05 -2.539643E+04 -3.743069E+04
       269   9 -6.589274E+05 -1.485892E+05 -1.089977E+05  2.116776E+05  1.919589E+04 -3.938560E+04
       269  10  9.881432E+05  2.522175E+05  2.402589E+05  2.142478E+05  6.153346E-08 -6.328331E-10
       269  11  7.962060E+05  1.963585E+05  1.592787E+05  1.955497E+05 -3.040393E-09 -7.919955E-10
       269  12  6.125167E+05  1.495771E+05  1.103557E+05  2.126211E+05 -6.630475E-08 -9.603942E-10
       269  13 -2.350404E+04  2.413345E+03  2.311690E+03  2.121475E+05  3.100309E-10  1.399722E-09
       269  14 -2.364492E+04  8.385591E+02  1.156325E+03  1.942621E+05  7.340077E-11 -1.225795E-10
       269  15 -2.340412E+04  5.038950E+02  6.841096E+02  2.121495E+05  2.065998E-10 -7.672645E-10
       269  16 -1.034210E+06 -2.474638E+05 -2.357058E+05  2.100502E+05 -6.204465E-08  5.734241E-10
       269  17 -8.428500E+05 -1.947213E+05 -1.569973E+05  1.929760E+05  2.728209E-09 -6.779838E-10
       269  18 -6.589282E+05 -1.485910E+05 -1.090013E+05  2.116782E+05  6.635011E-08 -5.849291E-10
       269  19  9.881490E+05  2.522191E+05  2.402693E+05  2.142471E+05 -7.329977E+04  1.178445E+04
       269  20  7.962072E+05  1.963602E+05  1.592828E+05  1.955489E+05 -2.749965E+04  3.736655E+04
       269  21  6.125174E+05  1.495788E+05  1.103592E+05  2.126217E+05  1.829806E+04  3.942351E+04
       269  22 -2.350400E+04  2.413497E+03  2.311959E+03  2.121474E+05 -1.599141E+03  1.185347E+04
       269  23 -2.364454E+04  8.400613E+02  1.158956E+03  1.942621E+05 -1.034554E+03  3.739866E+04
       269  24 -2.340371E+04  5.055624E+02  6.870278E+02  2.121495E+05 -4.582167E+02  3.940454E+04
       269  25 -1.034205E+06 -2.474623E+05 -2.356964E+05  2.100509E+05  6.998548E+04  1.192207E+04
       269  26 -8.428489E+05 -1.947196E+05 -1.569935E+05  1.929767E+05  2.539643E+04  3.743069E+04
       269  27 -6.589274E+05 -1.485892E+05 -1.089977E+05  2.116776E+05 -1.919589E+04  3.938560E+04
       270   1  4.917678E+05  1.210567E+05  8.808210E+04  2.130142E+05 -1.725470E+04 -3.301472E+04
       270   2  3.037685E+05  7.655545E+04  5.382188E+04  1.941366E+05 -2.182233E+04 -2.271892E+04
       270   3  1.165541E+05  3.297207E+04  2.274179E+04  2.126374E+05 -2.639304E+04 -1.015205E+04
       270   4 -2.346398E+04  5.331245E+02  5.514578E+02  2.125064E+05  3.539316E+02 -3.299504E+04
       270   5 -2.344021E+04  4.395494E+02  3.961627E+02  1.938166E+05  1.465510E+02 -2.269156E+04
       270   6 -2.342297E+04  5.086780E+02  3.934641E+02  2.125064E+05 -6.521231E+01 -1.011636E+04
       270   7 -5.384340E+05 -1.200044E+05 -8.698668E+04  2.119988E+05  1.794843E+04 -3.297537E+04
       270   8 -3.505418E+05 -7.568156E+04 -5.303079E+04  1.934967E+05  2.210426E+04 -2.266422E+04
       270   9 -1.633791E+05 -3.195532E+04 -2.195276E+04  2.123755E+05  2.625689E+04 -1.008068E+04
       270  10  4.917672E+05  1.210555E+05  8.807949E+04  2.130138E+05 -2.965874E-09  6.711012E-10
       270  11  3.037678E+05  7.655477E+04  5.382002E+04  1.941362E+05 -4.220621E-09 -4.006871E-10
       270  12  1.165533E+05  3.297177E+04  2.274028E+04  2.126372E+05 -3.563783E-09 -2.648225E-10
       270  13 -2.346427E+04  5.319555E+02  5.494117E+02  2.125064E+05  7.520107E-10 -5.465917E-10
       270  14 -2.344035E+04  4.389965E+02  3.951951E+02  1.938166E+05 -1.075607E-11 -1.093169E-09
       270  15 -2.342300E+04  5.085681E+02  3.932718E+02  2.125064E+05  1.619511E-10 -9.654278E-11
       270  16 -5.384347E+05 -1.200056E+05 -8.698933E+04  2.119993E+05  2.521270E-09  3.416896E-10
       270  17 -3.505425E+05 -7.568224E+04 -5.303267E+04  1.934971E+05  4.051714E-09 -5.065084E-09
       270  18 -1.633798E+05 -3.195561E+04 -2.195425E+04  2.123758E+05  3.948052E-09 -1.782987E-09
       270  19  4.917678E+05  1.210567E+05  8.808210E+04  2.130142E+05  1.725470E+04  3.301472E+04
       270  20  3.037685E+05  7.655545E+04  5.382188E+04  1.941366E+05  2.182233E+04  2.271892E+04
       270  21  1.165541E+05  3.297207E+04  2.274179E+04  2.126374E+05  2.639304E+04  1.015205E+04
       270  22 -2.346398E+04  5.331245E+02  5.514578E+02  2.125064E+05 -3.539316E+02  3.299504E+04
       270  23 -2.344021E+04  4.395494E+02  3.961627E+02  1.938166E+05 -1.465510E+02  2.269156E+04
       270  24 -2.342297E+04  5.086780E+02  3.934641E+02  2.125064E+05  6.521231E+01  1.011636E+04
       270  25 -5.384340E+05 -1.200044E+05 -8.698668E+04  2.119988E+05 -1.794843E+04  3.297537E+04
       270  26 -3.505418E+05 -7.568156E+04 -5.303079E+04  1.934967E+05 -2.210426E+04  2.266422E+04
       270  27 -1.633791E+05 -3.195532E+04 -2.195276E+04  2.123755E+05 -2.625689E+04  1.008068E+04
       271   1 -2.969918E+03  5.133673E+03  3.090515E+03  2.125534E+05 -2.645522E+04 -2.000673E+03
       271   2 -1.902320E+05 -3.850423E+04 -2.757172E+04  1.936058E+05 -2.321056E+04  1.077793E+04
       271   3 -3.780579E+05 -8.252231E+04 -6.046757E+04  2.120649E+05 -1.996405E+04  2.169876E+04
       271   4 -2.341388E+04  5.136098E+02  4.338017E+02  2.125123E+05 -1.481447E+02 -1.964606E+03
       271   5 -2.343330E+04  4.989558E+02  6.214729E+02  1.938092E+05 -4.733994E+02  1.080789E+04
       271   6 -2.343475E+04  7.244745E+02  1.052686E+03  2.125120E+05 -7.958200E+02  2.172290E+04
       271   7 -4.385593E+04 -4.106100E+03 -2.220312E+03  2.124712E+05  2.615811E+04 -1.928542E+03
       271   8  1.433939E+05  3.950095E+04  2.881572E+04  1.940126E+05  2.226968E+04  1.083786E+04
       271   9  3.313125E+05  8.396467E+04  6.256994E+04  2.129594E+05  1.838303E+04  2.174707E+04
       271  10 -2.970671E+03  5.133481E+03  3.089192E+03  2.125534E+05 -3.992315E-09  1.399200E-09
       271  11 -1.902326E+05 -3.850450E+04 -2.757296E+04  1.936060E+05 -2.031059E-09 -8.521266E-10
       271  12 -3.780584E+05 -8.252292E+04 -6.046921E+04  2.120652E+05  1.991161E-09  2.290375E-09
       271  13 -2.341388E+04  5.136057E+02  4.337944E+02  2.125123E+05  5.535521E-10  3.669214E-10
       271  14 -2.343333E+04  4.988303E+02  6.212529E+02  1.938092E+05  2.651065E-10  6.093611E-10
       271  15 -2.343488E+04  7.239676E+02  1.051798E+03  2.125120E+05 -3.014031E-10 -8.472614E-10
       271  16 -4.385667E+04 -4.106287E+03 -2.221605E+03  2.124712E+05  3.754522E-09  1.015782E-10
       271  17  1.433934E+05  3.950070E+04  2.881457E+04  1.940125E+05  2.083188E-09 -5.859463E-10
       271  18  3.313120E+05  8.396407E+04  6.256842E+04  2.129590E+05 -2.116581E-09 -3.524156E-09
       271  19 -2.969918E+03  5.133673E+03  3.090515E+03  2.125534E+05  2.645522E+04  2.000673E+03
       271  20 -1.902320E+05 -3.850423E+04 -2.757172E+04  1.936058E+05  2.321056E+04 -1.077793E+04
       271  21 -3.780579E+05 -8.252231E+04 -6.046757E+04  2.120649E+05  1.996405E+04 -2.169876E+04
       271  22 -2.341388E+04  5.136098E+02  4.338017E+02  2.125123E+05  1.481447E+02  1.964606E+03
       271  23 -2.343330E+04  4.989558E+02  6.214729E+02  1.938092E+05  4.733994E+02 -1.080789E+04
       271  24 -2.343475E+04  7.244745E+02  1.052686E+03  2.125120E+05  7.958200E+02 -2.172290E+04
       271  25 -4.385593E+04 -4.106100E+03 -2.220312E+03  2.124712E+05 -2.615811E+04  1.928542E+03
       271  26  1.433939E+05  3.950095E+04  2.881572E+04  1.940126E+05 -2.226968E+04 -1.083786E+04
       271  27  3.313125E+05  8.396467E+04  6.256994E+04  2.129594E+05 -1.838303E+04 -2.174707E+04
       272   1 -4.982904E+05 -1.109557E+05 -8.184680E+04  2.119054E+05 -2.112267E+04  2.842611E+04
       272   2 -6.829734E+05 -1.560759E+05 -1.262456E+05  1.922203E+05  1.600853E+04  2.896372E+04
       272   3 -8.735454E+05 -2.053883E+05 -1.958909E+05  2.085759E+05  5.314149E+04  9.491181E+03
       272   4 -2.329061E+04  7.185484E+02  1.373211E+03  2.122085E+05 -9.872356E+02  2.844992E+04
       272   5 -2.370641E+04  1.579335E+03  2.459899E+03  1.941870E+05 -2.239306E+03  2.894010E+04
       272   6 -2.337150E+04  4.919070E+03  4.970255E+03  2.122039E+05 -3.478510E+03  9.430099E+03
       272   7  4.519310E+05  1.123807E+05  8.458665E+04  2.125117E+05  1.916315E+04  2.847374E+04
       272   8  6.359786E+05  1.592086E+05  1.311458E+05  1.961557E+05 -2.050611E+04  2.891638E+04
       272   9  8.274745E+05  2.151764E+05  2.057934E+05  2.158366E+05 -6.017570E+04  9.368407E+03
       272  10 -4.982911E+05 -1.109567E+05 -8.184916E+04  2.119059E+05 -1.409025E-09  2.182743E-09
       272  11 -6.829739E+05 -1.560768E+05 -1.262476E+05  1.922199E+05 -1.387211E-09 -7.853096E-10
       272  12 -8.735485E+05 -2.053892E+05 -1.958964E+05  2.085755E+05  1.022774E-10 -3.417848E-10
       272  13 -2.329083E+04  7.176790E+02  1.371688E+03  2.122086E+05  3.513199E-10  1.784362E-09
       272  14 -2.370664E+04  1.578434E+03  2.458315E+03  1.941871E+05  3.744461E-11 -2.677140E-09
       272  15 -2.337154E+04  4.918971E+03  4.970065E+03  2.122039E+05  8.355984E-11  6.384659E-10
       272  16  4.519304E+05  1.123798E+05  8.458443E+04  2.125113E+05  1.143031E-09 -2.357514E-10
       272  17  6.359779E+05  1.592076E+05  1.311435E+05  1.961562E+05  1.497713E-09 -1.750997E-10
       272  18  8.274706E+05  2.151754E+05  2.057865E+05  2.158370E+05  1.488849E-10 -8.976772E-11
       272  19 -4.982904E+05 -1.109557E+05 -8.184680E+04  2.119054E+05  2.112267E+04 -2.842611E+04
       272  20 -6.829734E+05 -1.560759E+05 -1.262456E+05  1.922203E+05 -1.600853E+04 -2.896372E+04
       272  21 -8.735454E+05 -2.053883E+05 -1.958909E+05  2.085759E+05 -5.314149E+04 -9.491181E+03
       272  22 -2.329061E+04  7.185484E+02  1.373211E+03  2.122085E+05  9.872356E+02 -2.844992E+04
       272  23 -2.370641E+04  1.579335E+03  2.459899E+03  1.941870E+05  2.239306E+03 -2.894010E+04
       272  24 -2.337150E+04  4.919070E+03  4.970255E+03  2.122039E+05  3.478510E+03 -9.430099E+03
       272  25  4.519310E+05  1.123807E+05  8.458665E+04  2.125117E+05 -1.916315E+04 -2.847374E+04
       272  26  6.359786E+05  1.592086E+05  1.311458E+05  1.961557E+05  2.050611E+04 -2.891638E+04
       272  27  8.274745E+05  2.151764E+05  2.057934E+05  2.158366E+05  6.017570E+04 -9.368407E+03
       273   1 -1.958797E+05 -8.180629E+05 -1.873755E+05  2.889079E+05 -7.567481E+03 -4.253433E+04
       273   2 -1.306336E+05 -5.572116E+05 -1.064573E+05  2.654277E+05 -2.107905E+04 -7.540704E+03
       273   3 -6.915473E+04 -3.017053E+05 -4.927772E+04  2.921477E+05 -1.521529E+04  2.748002E+04
       273   4  4.695527E+03 -8.590345E+03  5.627467E+03  2.922152E+05 -7.568969E+03  1.966553E+03
       273   5  1.179244E+03 -9.067625E+03  4.276165E+03  2.671166E+05 -2.107742E+04 -2.006127E+02
       273   6  3.562372E+02 -8.497446E+03  5.012876E+03  2.922145E+05 -1.521860E+04 -2.356032E+03
       273   7  2.052245E+05  8.014880E+05  1.985919E+05  2.955267E+05 -7.569992E+03  4.652525E+04
       273   8  1.329735E+05  5.393629E+05  1.149944E+05  2.688070E+05 -2.107574E+04  7.145840E+03
       273   9  6.986276E+04  2.847956E+05  5.930322E+04  2.922814E+05 -1.522191E+04 -3.220582E+04
       273  10 -1.958802E+05 -8.180648E+05 -1.873790E+05  2.889077E+05 -6.156945E-11  5.031123E-10
       273  11 -1.306341E+05 -5.572118E+05 -1.064583E+05  2.654275E+05 -1.313986E-10  1.635074E-09
       273  12 -6.915519E+04 -3.017061E+05 -4.927958E+04  2.921480E+05  1.743113E-10 -2.097535E-11
       273  13  4.695464E+03 -8.590365E+03  5.627352E+03  2.922152E+05  1.733585E-10 -1.266957E-09
       273  14  1.178767E+03 -9.067744E+03  4.275330E+03  2.671166E+05  1.065737E-10  5.402112E-10
       273  15  3.559871E+02 -8.497514E+03  5.012430E+03  2.922145E+05  2.946450E-10 -5.504788E-10
       273  16  2.052238E+05  8.014857E+05  1.985877E+05  2.955270E+05  7.344216E-11 -1.143376E-09
       273  17  1.329730E+05  5.393627E+05  1.149934E+05  2.688071E+05  2.824748E-10 -1.001879E-09
       273  18  6.986224E+04  2.847945E+05  5.930083E+04  2.922810E+05  4.618528E-10 -1.365584E-09
       273  19 -1.958797E+05 -8.180629E+05 -1.873755E+05  2.889079E+05  7.567481E+03  4.253433E+04
       273  20 -1.306336E+05 -5.572116E+05 -1.064573E+05  2.654277E+05  2.107905E+04  7.540704E+03
       273  21 -6.915473E+04 -3.017053E+05 -4.927772E+04  2.921477E+05  1.521529E+04 -2.748002E+04
       273  22  4.695527E+03 -8.590345E+03  5.627467E+03  2.922152E+05  7.568969E+03 -1.966553E+03
       273  23  1.179244E+03 -9.067625E+03  4.276165E+03  2.671166E+05  2.107742E+04  2.006127E+02
       273  24  3.562372E+02 -8.497446E+03  5.012876E+03  2.922145E+05  1.521860E+04  2.356032E+03
       273  25  2.052245E+05  8.014880E+05  1.985919E+05  2.955267E+05  7.569992E+03 -4.652525E+04
       273  26  1.329735E+05  5.393629E+05  1.149944E+05  2.688070E+05  2.107574E+04 -7.145840E+03
       273  27  6.986276E+04  2.847956E+05  5.930322E+04  2.922814E+05  1.522191E+04  3.220582E+04
       274   1 -3.026438E+04 -1.362528E+05 -1.916649E+04  2.918274E+05 -5.449097E+03  2.573119E+04
       274   2  3.113952E+04  1.211025E+05  3.035377E+04  2.674868E+05  9.354418E+03  1.982434E+04
       274   3  9.542653E+04  3.800748E+05  8.444992E+04  2.945094E+05  2.354982E+04  1.391619E+04
       274   4  3.341859E+02 -8.416984E+03  5.977757E+03  2.924738E+05 -5.453376E+03 -3.275851E+03
       274   5  9.282296E+02 -9.103696E+03  9.494504E+03  2.667921E+05  9.351521E+03 -8.019475E+03
       274   6  4.207041E+03 -8.439339E+03  1.677977E+04  2.924737E+05  2.354816E+04 -1.276209E+04
       274   7  3.093222E+04  1.194363E+05  3.112437E+04  2.931205E+05 -5.457715E+03 -3.228873E+04
       274   8 -2.928349E+04 -1.392913E+05 -1.136230E+04  2.660975E+05  9.348685E+03 -3.585766E+04
       274   9 -8.702023E+04 -3.968040E+05 -5.089303E+04  2.904392E+05  2.354668E+04 -3.942419E+04
       274  10 -3.026459E+04 -1.362535E+05 -1.916779E+04  2.918275E+05 -3.186399E-11  6.653325E-11
       274  11  3.113932E+04  1.211020E+05  3.035287E+04  2.674866E+05 -2.756127E-10  1.011388E-09
       274  12  9.542588E+04  3.800744E+05  8.444852E+04  2.945091E+05 -1.014221E-09  4.378487E-11
       274  13  3.341511E+02 -8.417004E+03  5.977681E+03  2.924738E+05  3.177612E-10 -1.259487E-09
       274  14  9.281184E+02 -9.103788E+03  9.494219E+03  2.667921E+05 -5.508252E-10  6.221890E-10
       274  15  4.206401E+03 -8.439663E+03  1.677842E+04  2.924739E+05 -7.035867E-10 -4.369358E-10
       274  16  3.093191E+04  1.194351E+05  3.112236E+04  2.931203E+05  3.179363E-10 -8.244455E-10
       274  17 -2.928393E+04 -1.392927E+05 -1.136488E+04  2.660978E+05 -2.424543E-10 -1.585601E-10
       274  18 -8.702124E+04 -3.968059E+05 -5.089699E+04  2.904400E+05 -5.283479E-10 -3.156852E-10
       274  19 -3.026438E+04 -1.362528E+05 -1.916649E+04  2.918274E+05  5.449097E+03 -2.573119E+04
       274  20  3.113952E+04  1.211025E+05  3.035377E+04  2.674868E+05 -9.354418E+03 -1.982434E+04
       274  21  9.542653E+04  3.800748E+05  8.444992E+04  2.945094E+05 -2.354982E+04 -1.391619E+04
       274  22  3.341859E+02 -8.416984E+03  5.977757E+03  2.924738E+05  5.453376E+03  3.275851E+03
       274  23  9.282296E+02 -9.103696E+03  9.494504E+03  2.667921E+05 -9.351521E+03  8.019475E+03
       274  24  4.207041E+03 -8.439339E+03  1.677977E+04  2.924737E+05 -2.354816E+04  1.276209E+04
       274  25  3.093222E+04  1.194363E+05  3.112437E+04  2.931205E+05  5.457715E+03  3.228873E+04
       274  26 -2.928349E+04 -1.392913E+05 -1.136230E+04  2.660975E+05 -9.348685E+03  3.585766E+04
       274  27 -8.702023E+04 -3.968040E+05 -5.089303E+04  2.904392E+05 -2.354668E+04  3.942419E+04
       275   1  1.348309E+05  5.482862E+05  1.195509E+05  2.901752E+05  3.284584E+04  1.217932E+04
       275   2  2.135213E+05  7.962772E+05  1.987997E+05  2.903978E+05  3.475271E+04 -5.679850E+04
       275   3  3.391441E+05  1.065154E+06  3.346795E+05  3.404082E+05  1.150875E+04 -1.258257E+05
       275   4  4.516553E+03 -5.998551E+03  2.208295E+04  2.921184E+05  3.284666E+04 -1.564092E+04
       275   5  2.017094E+04 -1.229944E+04  4.019545E+04  2.672347E+05  3.475678E+04 -3.626439E+04
       275   6  7.440521E+04 -6.134945E+03  8.140040E+04  2.921322E+05  1.150657E+04 -5.690694E+04
       275   7 -1.258141E+05 -5.599813E+05 -7.539324E+04  2.940598E+05  3.284731E+04 -4.343707E+04
       275   8 -1.732166E+05 -8.202480E+05 -1.184386E+05  2.441023E+05  3.475932E+04 -1.575640E+04
       275   9 -1.904047E+05 -1.076355E+06 -1.719391E+05  2.439397E+05  1.149370E+04  1.189374E+04
       275  10  1.348297E+05  5.482858E+05  1.195486E+05  2.901749E+05 -9.259050E-10  2.110584E-10
       275  11  2.135191E+05  7.962735E+05  1.987914E+05  2.903994E+05 -8.909757E-10  1.422873E-09
       275  12  3.391398E+05  1.065137E+06  3.346495E+05  3.404094E+05 -4.381944E-10  3.221307E-10
       275  13  4.515329E+03 -5.999103E+03  2.208046E+04  2.921189E+05 -7.014759E-10 -6.579058E-10
       275  14  2.016929E+04 -1.230118E+04  4.019071E+04  2.672357E+05 -3.211561E-10  1.041737E-09
       275  15  7.440420E+04 -6.138459E+03  8.139407E+04  2.921328E+05 -3.904277E-10 -4.638733E-10
       275  16 -1.258158E+05 -5.599836E+05 -7.539882E+04  2.940610E+05 -4.450416E-10 -6.719658E-10
       275  17 -1.732180E+05 -8.202486E+05 -1.184413E+05  2.441027E+05  2.797334E-10  1.990534E-11
       275  18 -1.904048E+05 -1.076356E+06 -1.719396E+05  2.439396E+05 -8.885918E-11 -1.337187E-09
       275  19  1.348309E+05  5.482862E+05  1.195509E+05  2.901752E+05 -3.284584E+04 -1.217932E+04
       275  20  2.135213E+05  7.962772E+05  1.987997E+05  2.903978E+05 -3.475271E+04  5.679850E+04
       275  21  3.391441E+05  1.065154E+06  3.346795E+05  3.404082E+05 -1.150875E+04  1.258257E+05
       275  22  4.516553E+03 -5.998551E+03  2.208295E+04  2.921184E+05 -3.284666E+04  1.564092E+04
       275  23  2.017094E+04 -1.229944E+04  4.019545E+04  2.672347E+05 -3.475678E+04  3.626439E+04
       275  24  7.440521E+04 -6.134945E+03  8.140040E+04  2.921322E+05 -1.150657E+04  5.690694E+04
       275  25 -1.258141E+05 -5.599813E+05 -7.539324E+04  2.940598E+05 -3.284731E+04  4.343707E+04
       275  26 -1.732166E+05 -8.202480E+05 -1.184386E+05  2.441023E+05 -3.475932E+04  1.575640E+04
       275  27 -1.904047E+05 -1.076355E+06 -1.719391E+05  2.439397E+05 -1.149370E+04 -1.189374E+04
       276   1  5.980990E+05  1.575499E+05  1.510909E+05  1.465807E+05  4.707391E+04 -6.846815E+03
       276   2  4.699973E+05  1.167246E+05  9.707925E+04  1.320705E+05  1.775125E+04 -2.138222E+04
       276   3  3.478442E+05  8.447591E+04  6.429027E+04  1.415097E+05 -1.157443E+04 -2.170964E+04
       276   4 -9.027794E+03  7.534497E+03  7.972913E+03  1.414063E+05  5.548839E+03 -6.886749E+03
       276   5 -9.607912E+03  2.200992E+03  3.960349E+03  1.294347E+05  3.530910E+03 -2.139799E+04
       276   6 -8.988647E+03  7.105097E+02  2.221502E+03  1.414130E+05  1.503667E+03 -2.169643E+04
       276   7 -6.158120E+05 -1.425063E+05 -1.351640E+05  1.362369E+05 -3.593589E+04 -6.926015E+03
       276   8 -4.889919E+05 -1.123362E+05 -8.916864E+04  1.268010E+05 -1.067869E+04 -2.141364E+04
       276   9 -3.656963E+05 -8.306169E+04 -5.985110E+04  1.413162E+05  1.457448E+04 -2.168322E+04
       276  10  5.980967E+05  1.575493E+05  1.510867E+05  1.465810E+05  5.497888E-08  8.720697E-10
       276  11  4.699968E+05  1.167240E+05  9.707779E+04  1.320708E+05 -4.081625E-09  4.030240E-09
       276  12  3.478439E+05  8.447537E+04  6.428913E+04  1.415095E+05 -6.225629E-08  2.063087E-09
       276  13 -9.027839E+03  7.534438E+03  7.972766E+03  1.414064E+05  5.279753E-10 -1.097190E-09
       276  14 -9.608049E+03  2.200497E+03  3.959465E+03  1.294348E+05  1.840334E-10 -1.952243E-09
       276  15 -8.988776E+03  7.100036E+02  2.220613E+03  1.414130E+05  3.798349E-10  1.480664E-09
       276  16 -6.158134E+05 -1.425066E+05 -1.351665E+05  1.362367E+05 -5.518284E-08  1.293021E-10
       276  17 -4.889921E+05 -1.123367E+05 -8.916971E+04  1.268008E+05  3.239783E-09  2.984444E-09
       276  18 -3.656967E+05 -8.306225E+04 -5.985238E+04  1.413165E+05  6.245490E-08  9.160183E-10
       276  19  5.980990E+05  1.575499E+05  1.510909E+05  1.465807E+05 -4.707391E+04  6.846815E+03
       276  20  4.699973E+05  1.167246E+05  9.707925E+04  1.320705E+05 -1.775125E+04  2.138222E+04
       276  21  3.478442E+05  8.447591E+04  6.429027E+04  1.415097E+05  1.157443E+04  2.170964E+04
       276  22 -9.027794E+03  7.534497E+03  7.972913E+03  1.414063E+05 -5.548839E+03  6.886749E+03
       276  23 -9.607912E+03  2.200992E+03  3.960349E+03  1.294347E+05 -3.530910E+03  2.139799E+04
       276  24 -8.988647E+03  7.105097E+02  2.221502E+03  1.414130E+05 -1.503667E+03  2.169643E+04
       276  25 -6.158120E+05 -1.425063E+05 -1.351640E+05  1.362369E+05  3.593589E+04  6.926015E+03
       276  26 -4.889919E+05 -1.123362E+05 -8.916864E+04  1.268010E+05  1.067869E+04  2.141364E+04
       276  27 -3.656963E+05 -8.306169E+04 -5.985110E+04  1.413162E+05 -1.457448E+04  2.168322E+04
       277   1  2.672819E+05  6.548243E+04  4.922126E+04  1.420569E+05 -1.118356E+04 -1.730631E+04
       277   2  1.419928E+05  3.561619E+04  2.616577E+04  1.293774E+05 -1.429914E+04 -1.018933E+04
       277   3  1.726363E+04  6.507772E+03  5.312897E+03  1.416176E+05 -1.741595E+04 -1.731071E+03
       277   4 -9.224401E+03  6.893402E+02  1.722381E+03  1.416280E+05  1.203621E+03 -1.729306E+04
       277   5 -9.265950E+03  3.474600E+02  1.070064E+03  1.291681E+05  6.628123E+02 -1.017250E+04
       277   6 -9.211778E+03  3.166799E+02  8.318920E+02  1.416284E+05  1.201412E+02 -1.710493E+03
       277   7 -2.856553E+05 -6.410776E+04 -4.577850E+04  1.411993E+05  1.358546E+04 -1.727983E+04
       277   8 -1.605016E+05 -3.492234E+04 -2.402549E+04  1.289589E+05  1.562124E+04 -1.015569E+04
       277   9 -3.568583E+04 -5.874284E+03 -3.647980E+03  1.416392E+05  1.765551E+04 -1.689915E+03
       277  10  2.672817E+05  6.548207E+04  4.922046E+04  1.420567E+05 -3.706400E-09  2.861938E-10
       277  11  1.419925E+05  3.561603E+04  2.616519E+04  1.293772E+05 -3.713706E-09  2.659235E-09
       277  12  1.726330E+04  6.507688E+03  5.312321E+03  1.416176E+05 -2.650965E-09  3.382005E-09
       277  13 -9.224483E+03  6.890187E+02  1.721816E+03  1.416280E+05  3.357469E-10  3.803150E-09
       277  14 -9.265979E+03  3.473488E+02  1.069868E+03  1.291681E+05  2.681373E-10 -6.118062E-09
       277  15 -9.211778E+03  3.166767E+02  8.318865E+02  1.416284E+05  8.734686E-11  4.131854E-09
       277  16 -2.856556E+05 -6.410813E+04 -4.577941E+04  1.411994E+05  3.569837E-09 -1.079289E-09
       277  17 -1.605019E+05 -3.492252E+04 -2.402615E+04  1.289591E+05  3.727538E-09 -8.140463E-10
       277  18 -3.568617E+04 -5.874371E+03 -3.648571E+03  1.416393E+05  2.766883E-09  2.709290E-09
       277  19  2.672819E+05  6.548243E+04  4.922126E+04  1.420569E+05  1.118356E+04  1.730631E+04
       277  20  1.419928E+05  3.561619E+04  2.616577E+04  1.293774E+05  1.429914E+04  1.018933E+04
       277  21  1.726363E+04  6.507772E+03  5.312897E+03  1.416176E+05  1.741595E+04  1.731071E+03
       277  22 -9.224401E+03  6.893402E+02  1.722381E+03  1.416280E+05 -1.203621E+03  1.729306E+04
       277  23 -9.265950E+03  3.474600E+02  1.070064E+03  1.291681E+05 -6.628123E+02  1.017250E+04
       277  24 -9.211778E+03  3.166799E+02  8.318920E+02  1.416284E+05 -1.201412E+02  1.710493E+03
       277  25 -2.856553E+05 -6.410776E+04 -4.577850E+04  1.411993E+05 -1.358546E+04  1.727983E+04
       277  26 -1.605016E+05 -3.492234E+04 -2.402549E+04  1.289589E+05 -1.562124E+04  1.015569E+04
       277  27 -3.568583E+04 -5.874284E+03 -3.647980E+03  1.416392E+05 -1.765551E+04  1.689915E+03
       278   1 -6.239364E+04 -1.204847E+04 -7.826927E+03  1.416074E+05 -1.756668E+04  3.701284E+03
       278   2 -1.871898E+05 -4.111764E+04 -2.831735E+04  1.289478E+05 -1.535447E+04  1.213451E+04
       278   3 -3.123597E+05 -7.037865E+04 -5.031256E+04  1.412046E+05 -1.314059E+04  1.915711E+04
       278   4 -9.215012E+03  3.162745E+02  8.154378E+02  1.416274E+05 -2.861929E+01  3.721821E+03
       278   5 -9.263934E+03  3.315146E+02  9.791304E+02  1.291694E+05 -5.256567E+02  1.215100E+04
       278   6 -9.229870E+03  6.263759E+02  1.519652E+03  1.416271E+05 -1.020641E+03  1.916978E+04
       278   7  4.396708E+04  1.268104E+04  9.458879E+03  1.416475E+05  1.751089E+04  3.742357E+03
       278   8  1.686937E+05  4.177916E+04  3.027552E+04  1.293910E+05  1.430727E+04  1.216750E+04
       278   9  2.939906E+05  7.162659E+04  5.334936E+04  1.420497E+05  1.110504E+04  1.918247E+04
       278  10 -6.239397E+04 -1.204857E+04 -7.827532E+03  1.416074E+05  2.294675E-08 -8.673996E-10
       278  11 -1.871901E+05 -4.111786E+04 -2.831808E+04  1.289480E+05 -4.225571E-08 -2.516628E-09
       278  12 -3.123600E+05 -7.037909E+04 -5.031357E+04  1.412048E+05 -1.010910E-07 -4.140699E-09
       278  13 -9.215016E+03  3.162597E+02  8.154118E+02  1.416274E+05  5.099145E-10  1.422211E-09
       278  14 -9.263974E+03  3.313560E+02  9.788524E+02  1.291694E+05  4.515536E-10 -4.541850E-09
       278  15 -9.229970E+03  6.259810E+02  1.518959E+03  1.416271E+05  1.192991E-10 -5.599774E-09
       278  16  4.396675E+04  1.268094E+04  9.458277E+03  1.416474E+05 -2.332382E-08 -5.258536E-10
       278  17  1.686935E+05  4.177895E+04  3.027485E+04  1.293908E+05  4.199503E-08 -5.474068E-10
       278  18  2.939904E+05  7.162616E+04  5.334843E+04  1.420496E+05  1.010035E-07 -2.166985E-09
       278  19 -6.239364E+04 -1.204847E+04 -7.826927E+03  1.416074E+05  1.756668E+04 -3.701284E+03
       278  20 -1.871898E+05 -4.111764E+04 -2.831735E+04  1.289478E+05  1.535447E+04 -1.213451E+04
       278  21 -3.123597E+05 -7.037865E+04 -5.031256E+04  1.412046E+05  1.314059E+04 -1.915711E+04
       278  22 -9.215012E+03  3.162745E+02  8.154378E+02  1.416274E+05  2.861929E+01 -3.721821E+03
       278  23 -9.263934E+03  3.315146E+02  9.791304E+02  1.291694E+05  5.256567E+02 -1.215100E+04
       278  24 -9.229870E+03  6.263759E+02  1.519652E+03  1.416271E+05  1.020641E+03 -1.916978E+04
       278  25  4.396708E+04  1.268104E+04  9.458879E+03  1.416475E+05 -1.751089E+04 -3.742357E+03
       278  26  1.686937E+05  4.177916E+04  3.027552E+04  1.293910E+05 -1.430727E+04 -1.216750E+04
       278  27  2.939906E+05  7.162659E+04  5.334936E+04  1.420497E+05 -1.110504E+04 -1.918247E+04
       279   1 -3.924651E+05 -8.936004E+04 -6.453486E+04  1.412629E+05 -1.412373E+04  2.350770E+04
       279   2 -5.155864E+05 -1.189243E+05 -9.459662E+04  1.271069E+05  1.253060E+04  2.282342E+04
       279   3 -6.425878E+05 -1.500883E+05 -1.424244E+05  1.368569E+05  3.918865E+04  7.331400E+03
       279   4 -9.027415E+03  6.418756E+02  1.943583E+03  1.414029E+05 -1.285576E+03  2.352031E+04
       279   5 -9.568275E+03  1.922650E+03  3.434585E+03  1.294477E+05 -3.041752E+03  2.280647E+04
       279   6 -9.068716E+03  6.538885E+03  6.896824E+03  1.413973E+05 -4.788587E+03  7.290641E+03
       279   7  3.745549E+05  9.063595E+04  6.841753E+04  1.415430E+05  1.156027E+04  2.353292E+04
       279   8  4.966965E+05  1.227545E+05  1.014547E+05  1.317904E+05 -1.862652E+04  2.278942E+04
       279   9  6.248240E+05  1.631385E+05  1.561976E+05  1.459421E+05 -4.881047E+04  7.249264E+03
       279  10 -3.924655E+05 -8.936069E+04 -6.453627E+04  1.412632E+05  1.016192E-07 -5.524659E-09
       279  11 -5.155867E+05 -1.189249E+05 -9.459790E+04  1.271067E+05  3.968281E-08 -2.901801E-09
       279  12 -6.425895E+05 -1.500888E+05 -1.424274E+05  1.368567E+05 -2.446453E-08 -1.137881E-09
       279  13 -9.027565E+03  6.412811E+02  1.942541E+03  1.414029E+05  5.625914E-10 -4.679747E-09
       279  14 -9.568425E+03  1.922089E+03  3.433590E+03  1.294478E+05  2.165976E-10 -5.342306E-09
       279  15 -9.068755E+03  6.538822E+03  6.896681E+03  1.413973E+05 -1.258513E-10 -1.319119E-09
       279  16  3.745546E+05  9.063532E+04  6.841624E+04  1.415427E+05 -1.018917E-07 -3.861966E-09
       279  17  4.966960E+05  1.227538E+05  1.014531E+05  1.317907E+05 -4.004802E-08  2.565697E-10
       279  18  6.248215E+05  1.631378E+05  1.561931E+05  1.459424E+05  2.476368E-08  2.262907E-10
       279  19 -3.924651E+05 -8.936004E+04 -6.453486E+04  1.412629E+05  1.412373E+04 -2.350770E+04
       279  20 -5.155864E+05 -1.189243E+05 -9.459662E+04  1.271069E+05 -1.253060E+04 -2.282342E+04
       279  21 -6.425878E+05 -1.500883E+05 -1.424244E+05  1.368569E+05 -3.918865E+04 -7.331400E+03
       279  22 -9.027415E+03  6.418756E+02  1.943583E+03  1.414029E+05  1.285576E+03 -2.352031E+04
       279  23 -9.568275E+03  1.922650E+03  3.434585E+03  1.294477E+05  3.041752E+03 -2.280647E+04
       279  24 -9.068716E+03  6.538885E+03  6.896824E+03  1.413973E+05  4.788587E+03 -7.290641E+03
       279  25  3.745549E+05  9.063595E+04  6.841753E+04  1.415430E+05 -1.156027E+04 -2.353292E+04
       279  26  4.966965E+05  1.227545E+05  1.014547E+05  1.317904E+05  1.862652E+04 -2.278942E+04
       279  27  6.248240E+05  1.631385E+05  1.561976E+05  1.459421E+05  4.881047E+04 -7.249264E+03
       280   1 -1.689559E+05 -7.268785E+05 -1.621232E+05  2.444291E+05 -6.398748E+03 -3.829061E+04
       280   2 -1.115769E+05 -5.081805E+05 -9.256669E+04  2.234912E+05 -1.789548E+04 -7.482744E+03
       280   3 -5.938387E+04 -2.946601E+05 -4.437265E+04  2.445625E+05 -1.306746E+04  2.334844E+04
       280   4  1.197875E+02 -4.448147E+04  5.416062E+02  2.446034E+05 -6.408055E+03 -5.909393E+02
       280   5 -1.070752E+02 -4.455751E+04  1.005946E+03  2.235998E+05 -1.789571E+04 -1.095863E+03
       280   6 -7.634680E+01 -4.441569E+04  1.869045E+03  2.446033E+05 -1.306424E+04 -1.588850E+03
       280   7  1.691626E+05  6.383461E+05  1.631790E+05  2.447779E+05 -6.417341E+03  3.715002E+04
       280   8  1.113494E+05  4.192705E+05  9.456767E+04  2.237085E+05 -1.789594E+04  5.295699E+03
       280   9  5.922793E+04  2.058908E+05  4.811047E+04  2.446441E+05 -1.306102E+04 -2.653594E+04
       280  10 -1.689563E+05 -7.268801E+05 -1.621260E+05  2.444289E+05 -4.801317E-11  1.432951E-09
       280  11 -1.115772E+05 -5.081807E+05 -9.256740E+04  2.234911E+05  1.642486E-10  1.730452E-09
       280  12 -5.938420E+04 -2.946608E+05 -4.437400E+04  2.445627E+05  5.462776E-10 -4.696978E-10
       280  13  1.197434E+02 -4.448148E+04  5.415284E+02  2.446034E+05  4.249292E-10 -2.635541E-10
       280  14 -1.074194E+02 -4.455760E+04  1.005342E+03  2.235998E+05 -7.239124E-11 -2.364618E-09
       280  15 -7.653074E+01 -4.441574E+04  1.868720E+03  2.446033E+05  6.019463E-10  6.012793E-11
       280  16  1.691622E+05  6.383446E+05  1.631764E+05  2.447781E+05  2.228674E-10 -1.875507E-10
       280  17  1.113491E+05  4.192704E+05  9.456702E+04  2.237086E+05  1.194391E-10 -4.124865E-09
       280  18  5.922756E+04  2.058900E+05  4.810882E+04  2.446438E+05 -8.483604E-10 -7.055466E-10
       280  19 -1.689559E+05 -7.268785E+05 -1.621232E+05  2.444291E+05  6.398748E+03  3.829061E+04
       280  20 -1.115769E+05 -5.081805E+05 -9.256669E+04  2.234912E+05  1.789548E+04  7.482744E+03
       280  21 -5.938387E+04 -2.946601E+05 -4.437265E+04  2.445625E+05  1.306746E+04 -2.334844E+04
       280  22  1.197875E+02 -4.448147E+04  5.416062E+02  2.446034E+05  6.408055E+03  5.909393E+02
       280  23 -1.070752E+02 -4.455751E+04  1.005946E+03  2.235998E+05  1.789571E+04  1.095863E+03
       280  24 -7.634680E+01 -4.441569E+04  1.869045E+03  2.446033E+05  1.306424E+04  1.588850E+03
       280  25  1.691626E+05  6.383461E+05  1.631790E+05  2.447779E+05  6.417341E+03 -3.715002E+04
       280  26  1.113494E+05  4.192705E+05  9.456767E+04  2.237085E+05  1.789594E+04 -5.295699E+03
       280  27  5.922793E+04  2.058908E+05  4.811047E+04  2.446441E+05  1.306102E+04  2.653594E+04
       281   1 -2.680560E+04 -1.561225E+05 -1.934336E+04  2.445807E+05 -4.900845E+03  2.227377E+04
       281   2  2.448967E+04  5.952777E+04  2.110952E+04  2.236681E+05  7.480732E+03  1.913804E+04
       281   3  7.716868E+04  2.760458E+05  6.396343E+04  2.457484E+05  1.937594E+04  1.600185E+04
       281   4 -7.344133E+01 -4.430791E+04  2.489265E+03  2.448223E+05 -4.898489E+03 -1.963234E+03
       281   5  3.175781E+02 -4.464576E+04  4.420009E+03  2.233259E+05  7.483822E+03 -4.168537E+03
       281   6  1.933066E+03 -4.432284E+04  8.105421E+03  2.448227E+05  1.937966E+04 -6.373263E+03
       281   7  2.665828E+04  6.751998E+04  2.432350E+04  2.450640E+05 -4.896151E+03 -2.620451E+04
       281   8 -2.385477E+04 -1.488073E+05 -1.226775E+04  2.229838E+05  7.486937E+03 -2.747134E+04
       281   9 -7.330784E+04 -3.645899E+05 -4.775434E+04  2.438975E+05  1.938344E+04 -2.873718E+04
       281  10 -2.680576E+04 -1.561231E+05 -1.934434E+04  2.445808E+05  4.122939E-10  2.228517E-09
       281  11  2.448952E+04  5.952736E+04  2.110873E+04  2.236680E+05  3.288870E-10  1.216222E-09
       281  12  7.716821E+04  2.760454E+05  6.396224E+04  2.457481E+05  2.215096E-11 -1.325620E-10
       281  13 -7.346813E+01 -4.430792E+04  2.489213E+03  2.448223E+05 -2.188015E-11  4.451280E-13
       281  14  3.175132E+02 -4.464580E+04  4.419871E+03  2.233259E+05  1.718008E-10 -1.638508E-09
       281  15  1.932651E+03 -4.432299E+04  8.104639E+03  2.448228E+05  1.823780E-11  9.776217E-10
       281  16  2.665807E+04  6.751924E+04  2.432217E+04  2.450639E+05 -3.558207E-10 -1.010173E-09
       281  17 -2.385503E+04 -1.488082E+05 -1.226928E+04  2.229840E+05  5.947678E-10 -3.624455E-09
       281  18 -7.330847E+04 -3.645908E+05 -4.775660E+04  2.438979E+05  1.001996E-11  2.583188E-10
       281  19 -2.680560E+04 -1.561225E+05 -1.934336E+04  2.445807E+05  4.900845E+03 -2.227377E+04
       281  20  2.448967E+04  5.952777E+04  2.110952E+04  2.236681E+05 -7.480732E+03 -1.913804E+04
       281  21  7.716868E+04  2.760458E+05  6.396343E+04  2.457484E+05 -1.937594E+04 -1.600185E+04
       281  22 -7.344133E+01 -4.430791E+04  2.489265E+03  2.448223E+05  4.898489E+03  1.963234E+03
       281  23  3.175781E+02 -4.464576E+04  4.420009E+03  2.233259E+05 -7.483822E+03  4.168537E+03
       281  24  1.933066E+03 -4.432284E+04  8.105421E+03  2.448227E+05 -1.937966E+04  6.373263E+03
       281  25  2.665828E+04  6.751998E+04  2.432350E+04  2.450640E+05  4.896151E+03  2.620451E+04
       281  26 -2.385477E+04 -1.488073E+05 -1.226775E+04  2.229838E+05 -7.486937E+03  2.747134E+04
       281  27 -7.330784E+04 -3.645899E+05 -4.775434E+04  2.438975E+05 -1.938344E+04  2.873718E+04
       282   1  1.100346E+05  4.159861E+05  9.153314E+04  2.434803E+05  2.716679E+04  1.556102E+04
       282   2  1.704577E+05  6.256921E+05  1.515561E+05  2.349232E+05  2.884664E+04 -3.479454E+04
       282   3  2.567708E+05  8.485738E+05  2.508368E+05  2.680368E+05  9.578307E+03 -8.518608E+04
       282   4  2.076019E+03 -4.312065E+04  1.074446E+04  2.445261E+05  2.717243E+04 -7.766250E+03
       282   5  9.751809E+03 -4.624860E+04  1.968050E+04  2.236981E+05  2.884493E+04 -1.786086E+04
       282   6  3.634943E+04 -4.321496E+04  3.993761E+04  2.445393E+05  9.560806E+03 -2.797335E+04
       282   7 -1.058938E+05 -5.020202E+05 -7.004985E+04  2.455712E+05  2.717798E+04 -3.107678E+04
       282   8 -1.509807E+05 -7.177560E+05 -1.122158E+05  2.124855E+05  2.884261E+04 -9.450831E+02
       282   9 -1.841251E+05 -9.342652E+05 -1.710041E+05  2.210757E+05  9.538978E+03  2.915774E+04
       282  10  1.100338E+05  4.159857E+05  9.153130E+04  2.434800E+05  5.749930E-10  2.545411E-09
       282  11  1.704565E+05  6.256906E+05  1.515522E+05  2.349240E+05  1.289038E-09  1.740775E-09
       282  12  2.567687E+05  8.485660E+05  2.508230E+05  2.680374E+05  7.103212E-11  4.720166E-11
       282  13  2.075210E+03 -4.312092E+04  1.074296E+04  2.445263E+05 -1.394253E-10 -4.171044E-12
       282  14  9.750830E+03 -4.624916E+04  1.967834E+04  2.236985E+05  1.527946E-09 -1.447070E-09
       282  15  3.634912E+04 -4.321583E+04  3.993597E+04  2.445395E+05  9.222290E-12  9.577338E-10
       282  16 -1.058949E+05 -5.020214E+05 -7.005306E+04  2.455718E+05 -2.249741E-10 -4.492858E-10
       282  17 -1.509816E+05 -7.177563E+05 -1.122173E+05  2.124855E+05  4.942659E-10 -3.723241E-09
       282  18 -1.841254E+05 -9.342661E+05 -1.710059E+05  2.210755E+05  1.140052E-10 -1.707638E-10
       282  19  1.100346E+05  4.159861E+05  9.153314E+04  2.434803E+05 -2.716679E+04 -1.556102E+04
       282  20  1.704577E+05  6.256921E+05  1.515561E+05  2.349232E+05 -2.884664E+04  3.479454E+04
       282  21  2.567708E+05  8.485738E+05  2.508368E+05  2.680368E+05 -9.578307E+03  8.518608E+04
       282  22  2.076019E+03 -4.312065E+04  1.074446E+04  2.445261E+05 -2.717243E+04  7.766250E+03
       282  23  9.751809E+03 -4.624860E+04  1.968050E+04  2.236981E+05 -2.884493E+04  1.786086E+04
       282  24  3.634943E+04 -4.321496E+04  3.993761E+04  2.445393E+05 -9.560806E+03  2.797335E+04
       282  25 -1.058938E+05 -5.020202E+05 -7.004985E+04  2.455712E+05 -2.717798E+04  3.107678E+04
       282  26 -1.509807E+05 -7.177560E+05 -1.122158E+05  2.124855E+05 -2.884261E+04  9.450831E+02
       282  27 -1.841251E+05 -9.342652E+05 -1.710041E+05  2.210757E+05 -9.538978E+03 -2.915774E+04
       283   1  2.691502E+05  7.489012E+04  7.253658E+04  7.908305E+04  2.312792E+04 -2.901195E+03
       283   2  2.019597E+05  5.132774E+04  4.445308E+04  7.022303E+04  8.684019E+03 -8.792463E+03
       283   3  1.381432E+05  3.379307E+04  2.727595E+04  7.398010E+04 -5.762239E+03 -8.249342E+03
       283   4 -2.985460E+03  7.587738E+03  8.161081E+03  7.406465E+04  5.655256E+03 -2.915366E+03
       283   5 -3.593447E+03  2.140752E+03  4.069648E+03  6.775892E+04  3.570933E+03 -8.796943E+03
       283   6 -2.976662E+03  5.773911E+02  2.304390E+03  7.407023E+04  1.482457E+03 -8.243269E+03
       283   7 -2.750524E+05 -5.971970E+04 -5.621840E+04  6.904844E+04 -1.180979E+04 -2.929258E+03
       283   8 -2.091061E+05 -4.704875E+04 -3.631573E+04  6.529565E+04 -1.540496E+03 -8.801383E+03
       283   9 -1.440770E+05 -3.263936E+04 -2.266771E+04  7.416033E+04  8.725555E+03 -8.237192E+03
       283  10  2.691496E+05  7.488997E+04  7.253556E+04  7.908311E+04  2.329799E-09  6.667582E-10
       283  11  2.019596E+05  5.132763E+04  4.445279E+04  7.022309E+04 -1.231728E-09  4.376822E-10
       283  12  1.381432E+05  3.379299E+04  2.727576E+04  7.398006E+04 -3.111976E-09  4.210374E-10
       283  13 -2.985497E+03  7.587720E+03  8.161005E+03  7.406466E+04 -4.400355E-11  2.319370E-09
       283  14 -3.593482E+03  2.140666E+03  4.069478E+03  6.775895E+04  3.926195E-10 -1.550177E-09
       283  15 -2.976683E+03  5.773175E+02  2.304258E+03  7.407024E+04 -2.319397E-10 -7.797088E-11
       283  16 -2.750525E+05 -5.971975E+04 -5.621867E+04  6.904841E+04 -2.641229E-09  1.429685E-10
       283  17 -2.091061E+05 -4.704883E+04 -3.631588E+04  6.529564E+04  8.666842E-10 -3.596080E-09
       283  18 -1.440771E+05 -3.263945E+04 -2.266798E+04  7.416039E+04  3.131488E-09 -1.555261E-09
       283  19  2.691502E+05  7.489012E+04  7.253658E+04  7.908305E+04 -2.312792E+04  2.901195E+03
       283  20  2.019597E+05  5.132774E+04  4.445308E+04  7.022303E+04 -8.684019E+03  8.792463E+03
       283  21  1.381432E+05  3.379307E+04  2.727595E+04  7.398010E+04  5.762239E+03  8.249342E+03
       283  22 -2.985460E+03  7.587738E+03  8.161081E+03  7.406465E+04 -5.655256E+03  2.915366E+03
       283  23 -3.593447E+03  2.140752E+03  4.069648E+03  6.775892E+04 -3.570933E+03  8.796943E+03
       283  24 -2.976662E+03  5.773911E+02  2.304390E+03  7.407023E+04 -1.482457E+03  8.243269E+03
       283  25 -2.750524E+05 -5.971970E+04 -5.621840E+04  6.904844E+04  1.180979E+04  2.929258E+03
       283  26 -2.091061E+05 -4.704875E+04 -3.631573E+04  6.529565E+04  1.540496E+03  8.801383E+03
       283  27 -1.440770E+05 -3.263936E+04 -2.266771E+04  7.416033E+04 -8.725555E+03  8.237192E+03
       284   1  9.590148E+04  2.386080E+04  1.927644E+04  7.445053E+04 -5.760884E+03 -5.853125E+03
       284   2  3.028366E+04  8.101786E+03  7.139896E+03  6.775653E+04 -7.474545E+03 -1.951602E+03
       284   3 -3.500926E+04 -7.167605E+03 -3.765735E+03  7.411968E+04 -9.188556E+03  2.534423E+03
       284   4 -3.218756E+03  5.436423E+02  1.807772E+03  7.416749E+04  1.172278E+03 -5.847155E+03
       284   5 -3.281457E+03  1.966885E+02  1.179976E+03  6.763906E+04  5.807022E+02 -1.944579E+03
       284   6 -3.217296E+03  1.450141E+02  1.004136E+03  7.416783E+04 -1.137712E+01  2.542518E+03
       284   7 -1.023293E+05 -2.277403E+04 -1.566108E+04  7.388450E+04  8.104366E+03 -5.841190E+03
       284   8 -3.684534E+04 -7.708436E+03 -4.779742E+03  6.752160E+04  8.635526E+03 -1.937559E+03
       284   9  2.857586E+04  7.457631E+03  5.774303E+03  7.421598E+04  9.166253E+03  2.550614E+03
       284  10  9.590144E+04  2.386076E+04  1.927631E+04  7.445050E+04 -3.391847E-09  1.101461E-09
       284  11  3.028360E+04  8.101767E+03  7.139784E+03  6.775652E+04 -6.512840E-10 -5.538710E-10
       284  12 -3.500935E+04 -7.167635E+03 -3.765905E+03  7.411970E+04  3.488580E-09  3.169121E-10
       284  13 -3.218767E+03  5.436052E+02  1.807705E+03  7.416750E+04  3.675042E-13  2.657329E-11
       284  14 -3.281458E+03  1.966844E+02  1.179968E+03  6.763906E+04  2.030175E-10  2.323375E-09
       284  15 -3.217298E+03  1.450072E+02  1.004124E+03  7.416783E+04  8.596071E-11  7.640153E-10
       284  16 -1.023294E+05 -2.277409E+04 -1.566126E+04  7.388454E+04  3.095375E-09  2.330057E-09
       284  17 -3.684542E+04 -7.708460E+03 -4.779889E+03  6.752161E+04  2.955506E-10 -9.202174E-10
       284  18  2.857577E+04  7.457601E+03  5.774133E+03  7.421596E+04 -3.287710E-09  1.327205E-09
       284  19  9.590148E+04  2.386080E+04  1.927644E+04  7.445053E+04  5.760884E+03  5.853125E+03
       284  20  3.028366E+04  8.101786E+03  7.139896E+03  6.775653E+04  7.474545E+03  1.951602E+03
       284  21 -3.500926E+04 -7.167605E+03 -3.765735E+03  7.411968E+04  9.188556E+03 -2.534423E+03
       284  22 -3.218756E+03  5.436423E+02  1.807772E+03  7.416749E+04 -1.172278E+03  5.847155E+03
       284  23 -3.281457E+03  1.966885E+02  1.179976E+03  6.763906E+04 -5.807022E+02  1.944579E+03
       284  24 -3.217296E+03  1.450141E+02  1.004136E+03  7.416783E+04  1.137712E+01 -2.542518E+03
       284  25 -1.023293E+05 -2.277403E+04 -1.566108E+04  7.388450E+04 -8.104366E+03  5.841190E+03
       284  26 -3.684534E+04 -7.708436E+03 -4.779742E+03  6.752160E+04 -8.635526E+03  1.937559E+03
       284  27  2.857586E+04  7.457631E+03  5.774303E+03  7.421598E+04 -9.166253E+03 -2.550614E+03
       285   1 -7.671126E+04 -1.688564E+04 -1.060340E+04  7.416328E+04 -9.379129E+03  5.379033E+03
       285   2 -1.420994E+05 -3.205169E+04 -2.115597E+04  6.744546E+04 -8.419893E+03  9.738238E+03
       285   3 -2.076113E+05 -4.714316E+04 -3.232103E+04  7.376807E+04 -7.459793E+03  1.324093E+04
       285   4 -3.211321E+03  1.433663E+02  1.038214E+03  7.416406E+04 -1.902240E+02  5.387046E+03
       285   5 -3.293110E+03  2.169152E+02  1.366809E+03  6.764374E+04 -8.757146E+02  9.744453E+03
       285   6 -3.217392E+03  6.507335E+02  2.224991E+03  7.416363E+04 -1.560245E+03  1.324545E+04
       285   7  7.029417E+04  1.717215E+04  1.268001E+04  7.416484E+04  8.999730E+03  5.395059E+03
       285   8  1.355324E+05  3.248457E+04  2.388927E+04  6.784206E+04  6.670092E+03  9.750673E+03
       285   9  2.012178E+05  4.844244E+04  3.676980E+04  7.455932E+04  4.341182E+03  1.324997E+04
       285  10 -7.671136E+04 -1.688569E+04 -1.060362E+04  7.416332E+04  1.087221E-09  1.227691E-09
       285  11 -1.420995E+05 -3.205181E+04 -2.115628E+04  6.744553E+04 -9.075519E-10  1.209131E-09
       285  12 -2.076114E+05 -4.714336E+04 -3.232146E+04  7.376815E+04 -5.667555E-10  5.994243E-10
       285  13 -3.211329E+03  1.433351E+02  1.038160E+03  7.416406E+04  4.118353E-10 -2.911740E-09
       285  14 -3.293136E+03  2.168130E+02  1.366629E+03  6.764375E+04  4.633409E-10  1.369348E-09
       285  15 -3.217442E+03  6.505445E+02  2.224657E+03  7.416365E+04  1.481761E-10 -8.325390E-11
       285  16  7.029408E+04  1.717209E+04  1.267980E+04  7.416480E+04 -1.200764E-09 -1.786614E-09
       285  17  1.355324E+05  3.248445E+04  2.388901E+04  6.784201E+04  5.647820E-10 -2.003040E-09
       285  18  2.012177E+05  4.844225E+04  3.676944E+04  7.455927E+04  6.726030E-10  4.238868E-10
       285  19 -7.671126E+04 -1.688564E+04 -1.060340E+04  7.416328E+04  9.379129E+03 -5.379033E+03
       285  20 -1.420994E+05 -3.205169E+04 -2.115597E+04  6.744546E+04  8.419893E+03 -9.738238E+03
       285  21 -2.076113E+05 -4.714316E+04 -3.232103E+04  7.376807E+04  7.459793E+03 -1.324093E+04
       285  22 -3.211321E+03  1.433663E+02  1.038214E+03  7.416406E+04  1.902240E+02 -5.387046E+03
       285  23 -3.293110E+03  2.169152E+02  1.366809E+03  6.764374E+04  8.757146E+02 -9.744453E+03
       285  24 -3.217392E+03  6.507335E+02  2.224991E+03  7.416363E+04  1.560245E+03 -1.324545E+04
       285  25  7.029417E+04  1.717215E+04  1.268001E+04  7.416484E+04 -8.999730E+03 -5.395059E+03
       285  26  1.355324E+05  3.248457E+04  2.388927E+04  6.784206E+04 -6.670092E+03 -9.750673E+03
       285  27  2.012178E+05  4.844244E+04  3.676980E+04  7.455932E+04 -4.341182E+03 -1.324997E+04
       286   1 -2.494174E+05 -5.708644E+04 -3.946568E+04  7.411907E+04 -8.268077E+03  1.542842E+04
       286   2 -3.142450E+05 -7.138795E+04 -5.456201E+04  6.466296E+04  5.902876E+03  1.435602E+04
       286   3 -3.804198E+05 -8.367076E+04 -7.838381E+04  6.764789E+04  2.007693E+04  4.523405E+03
       286   4 -2.907684E+03  6.912955E+02  2.876939E+03  7.403098E+04 -1.942324E+03  1.543301E+04
       286   5 -3.697869E+03  2.681415E+03  5.150986E+03  6.780744E+04 -4.584124E+03  1.434751E+04
       286   6 -2.920919E+03  9.608905E+03  1.037707E+04  7.402433E+04 -7.221024E+03  4.503946E+03
       286   7  2.436618E+05  5.846580E+04  4.521766E+04  7.394284E+04  4.385862E+03  1.543760E+04
       286   8  3.069423E+05  7.674516E+04  6.485995E+04  7.095351E+04 -1.507625E+04  1.433889E+04
       286   9  3.747109E+05  1.028789E+05  9.913099E+04  8.040465E+04 -3.453549E+04  4.483933E+03
       286  10 -2.494175E+05 -5.708672E+04 -3.946626E+04  7.411917E+04 -5.092498E-10  6.251046E-10
       286  11 -3.142451E+05 -7.138818E+04 -5.456246E+04  6.466290E+04  8.189121E-10  1.342056E-09
       286  12 -3.804203E+05 -8.367089E+04 -7.838461E+04  6.764782E+04  3.132297E-09  1.550595E-09
       286  13 -2.907752E+03  6.910387E+02  2.876484E+03  7.403100E+04  7.744617E-10  2.241045E-09
       286  14 -3.697947E+03  2.681188E+03  5.150559E+03  6.780749E+04  3.734513E-10  1.205889E-09
       286  15 -2.920980E+03  9.608869E+03  1.037693E+04  7.402436E+04 -1.196054E-10  7.909226E-10
       286  16  2.436617E+05  5.846554E+04  4.521717E+04  7.394278E+04  1.579098E-10  6.735828E-10
       286  17  3.069420E+05  7.674488E+04  6.485914E+04  7.095368E+04 -1.256099E-09  2.392806E-09
       286  18  3.747096E+05  1.028786E+05  9.912871E+04  8.040478E+04 -3.426523E-09  7.313121E-12
       286  19 -2.494174E+05 -5.708644E+04 -3.946568E+04  7.411907E+04  8.268077E+03 -1.542842E+04
       286  20 -3.142450E+05 -7.138795E+04 -5.456201E+04  6.466296E+04 -5.902876E+03 -1.435602E+04
       286  21 -3.804198E+05 -8.367076E+04 -7.838381E+04  6.764789E+04 -2.007693E+04 -4.523405E+03
       286  22 -2.907684E+03  6.912955E+02  2.876939E+03  7.403098E+04  1.942324E+03 -1.543301E+04
       286  23 -3.697869E+03  2.681415E+03  5.150986E+03  6.780744E+04  4.584124E+03 -1.434751E+04
       286  24 -2.920919E+03  9.608905E+03  1.037707E+04  7.402433E+04  7.221024E+03 -4.503946E+03
       286  25  2.436618E+05  5.846580E+04  4.521766E+04  7.394284E+04 -4.385862E+03 -1.543760E+04
       286  26  3.069423E+05  7.674516E+04  6.485995E+04  7.095351E+04  1.507625E+04 -1.433889E+04
       286  27  3.747109E+05  1.028789E+05  9.913099E+04  8.040465E+04  3.453549E+04 -4.483933E+03
       287   1 -1.069210E+05 -4.732736E+05 -1.027538E+05  1.534493E+05 -4.014103E+03 -2.457316E+04
       287   2 -7.031868E+04 -3.365199E+05 -5.887003E+04  1.400140E+05 -1.124924E+04 -4.861875E+03
       287   3 -3.752787E+04 -2.032191E+05 -2.877370E+04  1.528207E+05 -8.257014E+03  1.486115E+04
       287   4 -9.652543E+02 -4.556152E+04 -8.233106E+02  1.528253E+05 -4.023296E+03 -8.911666E+02
       287   5 -3.639742E+02 -4.551745E+04 -1.665752E+02  1.397048E+05 -1.125028E+04 -8.036925E+02
       287   6 -1.643571E+02 -4.553571E+04  3.369539E+02  1.528256E+05 -8.252099E+03 -7.091376E+02
       287   7  1.049776E+05  3.823197E+05  1.010965E+05  1.522008E+05 -4.032535E+03  2.280707E+04
       287   8  6.958550E+04  2.455658E+05  5.853259E+04  1.393955E+05 -1.125133E+04  3.256356E+03
       287   9  3.719786E+04  1.121723E+05  2.944748E+04  1.528306E+05 -8.247185E+03 -1.628327E+04
       287  10 -1.069212E+05 -4.732742E+05 -1.027550E+05  1.534493E+05  4.976657E-11  6.067426E-10
       287  11 -7.031882E+04 -3.365200E+05 -5.887032E+04  1.400139E+05  2.069945E-10  1.110261E-09
       287  12 -3.752800E+04 -2.032193E+05 -2.877424E+04  1.528208E+05  5.130585E-10  1.597784E-10
       287  13 -9.652719E+02 -4.556152E+04 -8.233426E+02  1.528253E+05  2.352456E-10  5.420612E-10
       287  14 -3.641103E+02 -4.551748E+04 -1.668143E+02  1.397048E+05 -3.797351E-10 -8.243624E-10
       287  15 -1.644304E+02 -4.553572E+04  3.368250E+02  1.528256E+05  2.792294E-10  6.442501E-11
       287  16  1.049775E+05  3.823191E+05  1.010955E+05  1.522009E+05 -1.762169E-11  7.931489E-10
       287  17  6.958536E+04  2.455658E+05  5.853233E+04  1.393955E+05 -2.006495E-10 -4.948228E-10
       287  18  3.719772E+04  1.121720E+05  2.944686E+04  1.528304E+05 -2.060881E-10 -2.223787E-09
       287  19 -1.069210E+05 -4.732736E+05 -1.027538E+05  1.534493E+05  4.014103E+03  2.457316E+04
       287  20 -7.031868E+04 -3.365199E+05 -5.887003E+04  1.400140E+05  1.124924E+04  4.861875E+03
       287  21 -3.752787E+04 -2.032191E+05 -2.877370E+04  1.528207E+05  8.257014E+03 -1.486115E+04
       287  22 -9.652543E+02 -4.556152E+04 -8.233106E+02  1.528253E+05  4.023296E+03  8.911666E+02
       287  23 -3.639742E+02 -4.551745E+04 -1.665752E+02  1.397048E+05  1.125028E+04  8.036925E+02
       287  24 -1.643571E+02 -4.553571E+04  3.369539E+02  1.528256E+05  8.252099E+03  7.091376E+02
       287  25  1.049776E+05  3.823197E+05  1.010965E+05  1.522008E+05  4.032535E+03 -2.280707E+04
       287  26  6.958550E+04  2.455658E+05  5.853259E+04  1.393955E+05  1.125133E+04 -3.256356E+03
       287  27  3.719786E+04  1.121723E+05  2.944748E+04  1.528306E+05  8.247185E+03  1.628327E+04
       288   1 -1.716971E+04 -1.166629E+05 -1.325470E+04  1.529243E+05 -3.157371E+03  1.433606E+04
       288   2  1.480777E+04  1.816562E+04  1.153203E+04  1.396401E+05  4.575305E+03  1.311009E+04
       288   3  4.723273E+04  1.533260E+05  3.723852E+04  1.532155E+05  1.201044E+04  1.188403E+04
       288   4 -1.582291E+02 -4.547037E+04  6.033001E+02  1.529630E+05 -3.152904E+03 -7.945301E+02
       288   5  1.591440E+01 -4.558076E+04  1.319263E+03  1.395332E+05  4.579923E+03 -1.450624E+03
       288   6  5.394308E+02 -4.547608E+04  2.559021E+03  1.529632E+05  1.201516E+04 -2.106565E+03
       288   7  1.685307E+04  2.572751E+04  1.446192E+04  1.530017E+05 -3.148439E+03 -1.592682E+04
       288   8 -1.477603E+04 -1.093227E+05 -8.892811E+03  1.394263E+05  4.584547E+03 -1.600990E+04
       288   9 -4.615591E+04 -2.442390E+05 -3.212115E+04  1.527110E+05  1.201990E+04 -1.609282E+04
       288  10 -1.716978E+04 -1.166631E+05 -1.325511E+04  1.529243E+05  3.514639E-12  5.710452E-10
       288  11  1.480770E+04  1.816543E+04  1.153166E+04  1.396400E+05  9.218293E-11  2.850422E-10
       288  12  4.723254E+04  1.533258E+05  3.723799E+04  1.532154E+05 -6.189836E-10 -4.862478E-11
       288  13 -1.582399E+02 -4.547037E+04  6.032803E+02  1.529630E+05 -1.030981E-11 -3.089279E-12
       288  14  1.589131E+01 -4.558077E+04  1.319220E+03  1.395332E+05  1.319943E-10  1.143277E-11
       288  15  5.392746E+02 -4.547613E+04  2.558741E+03  1.529632E+05  2.949926E-11  6.911401E-10
       288  16  1.685299E+04  2.572723E+04  1.446143E+04  1.530016E+05 -6.831304E-12  6.087116E-10
       288  17 -1.477612E+04 -1.093229E+05 -8.893333E+03  1.394264E+05 -5.139917E-10  7.801956E-10
       288  18 -4.615613E+04 -2.442393E+05 -3.212191E+04  1.527111E+05 -5.850604E-10 -1.060011E-09
       288  19 -1.716971E+04 -1.166629E+05 -1.325470E+04  1.529243E+05  3.157371E+03 -1.433606E+04
       288  20  1.480777E+04  1.816562E+04  1.153203E+04  1.396401E+05 -4.575305E+03 -1.311009E+04
       288  21  4.723273E+04  1.533260E+05  3.723852E+04  1.532155E+05 -1.201044E+04 -1.188403E+04
       288  22 -1.582291E+02 -4.547037E+04  6.033001E+02  1.529630E+05  3.152904E+03  7.945301E+02
       288  23  1.591440E+01 -4.558076E+04  1.319263E+03  1.395332E+05 -4.579923E+03  1.450624E+03
       288  24  5.394308E+02 -4.547608E+04  2.559021E+03  1.529632E+05 -1.201516E+04  2.106565E+03
       288  25  1.685307E+04  2.572751E+04  1.446192E+04  1.530017E+05  3.148439E+03  1.592682E+04
       288  26 -1.477603E+04 -1.093227E+05 -8.892811E+03  1.394263E+05 -4.584547E+03  1.600990E+04
       288  27 -4.615591E+04 -2.442390E+05 -3.212115E+04  1.527110E+05 -1.201990E+04  1.609282E+04
       289   1  6.772041E+04  2.403800E+05  5.367976E+04  1.523797E+05  1.688063E+04  1.203753E+04
       289   2  1.031568E+05  3.722998E+05  8.848231E+04  1.433007E+05  1.795383E+04 -1.630229E+04
       289   3  1.490416E+05  5.105945E+05  1.443521E+05  1.602524E+05  5.966563E+03 -4.465825E+04
       289   4  5.835740E+02 -4.508541E+04  3.427707E+03  1.527783E+05  1.688623E+04 -2.546728E+03
       289   5  3.066879E+03 -4.610800E+04  6.336375E+03  1.397654E+05  1.795056E+04 -5.796120E+03
       289   6  1.164894E+04 -4.512214E+04  1.289552E+04  1.527835E+05  5.950730E+03 -9.055535E+03
       289   7 -6.655760E+04 -3.304707E+05 -4.682652E+04  1.531766E+05  1.689182E+04 -1.712448E+04
       289   8 -9.703348E+04 -4.643478E+05 -7.581761E+04  1.362326E+05  1.794717E+04  4.703125E+03
       289   9 -1.257650E+05 -6.005523E+05 -1.185777E+05  1.453214E+05  5.934036E+03  2.651551E+04
       289  10  6.772006E+04  2.403798E+05  5.367895E+04  1.523796E+05 -4.837823E-10  2.024812E-09
       289  11  1.031564E+05  3.722994E+05  8.848120E+04  1.433009E+05  2.055767E-10  5.622568E-10
       289  12  1.490410E+05  5.105924E+05  1.443483E+05  1.602526E+05 -1.727043E-10 -4.144098E-10
       289  13  5.832661E+02 -4.508549E+04  3.427159E+03  1.527783E+05 -3.038298E-10  5.273851E-10
       289  14  3.066524E+03 -4.610812E+04  6.335707E+03  1.397655E+05  3.948489E-11  2.769923E-10
       289  15  1.164888E+04 -4.512224E+04  1.289530E+04  1.527836E+05  2.172264E-10  1.389850E-09
       289  16 -6.655798E+04 -3.304711E+05 -4.682760E+04  1.531768E+05 -8.419178E-12 -2.088503E-10
       289  17 -9.703383E+04 -4.643479E+05 -7.581826E+04  1.362325E+05  8.471479E-10 -1.810300E-10
       289  18 -1.257652E+05 -6.005531E+05 -1.185791E+05  1.453212E+05  1.067756E-10 -1.359242E-09
       289  19  6.772041E+04  2.403800E+05  5.367976E+04  1.523797E+05 -1.688063E+04 -1.203753E+04
       289  20  1.031568E+05  3.722998E+05  8.848231E+04  1.433007E+05 -1.795383E+04  1.630229E+04
       289  21  1.490416E+05  5.105945E+05  1.443521E+05  1.602524E+05 -5.966563E+03  4.465825E+04
       289  22  5.835740E+02 -4.508541E+04  3.427707E+03  1.527783E+05 -1.688623E+04  2.546728E+03
       289  23  3.066879E+03 -4.610800E+04  6.336375E+03  1.397654E+05 -1.795056E+04  5.796120E+03
       289  24  1.164894E+04 -4.512214E+04  1.289552E+04  1.527835E+05 -5.950730E+03  9.055535E+03
       289  25 -6.655760E+04 -3.304707E+05 -4.682652E+04  1.531766E+05 -1.689182E+04  1.712448E+04
       289  26 -9.703348E+04 -4.643478E+05 -7.581761E+04  1.362326E+05 -1.794717E+04 -4.703125E+03
       289  27 -1.257650E+05 -6.005523E+05 -1.185777E+05  1.453214E+05 -5.934036E+03 -2.651551E+04
       290   1 -4.095428E+04 -2.147075E+05 -3.913398E+04  6.508546E+04 -1.556261E+03 -7.615327E+03
       290   2 -2.693808E+04 -1.555757E+05 -2.205545E+04  6.004738E+04 -4.232829E+03 -2.144532E+02
       290   3 -1.325823E+04 -9.747054E+04 -9.878184E+03  6.642183E+04 -2.746378E+03  7.189688E+03
       290   4  1.979043E+03 -4.143415E+04  2.240660E+03  6.635660E+04 -1.560457E+03  1.511613E+03
       290   5  4.975822E+02 -4.161045E+04  1.147837E+03  6.065000E+04 -4.233276E+03  9.216748E+02
       290   6  6.731859E+01 -4.142980E+04  7.039051E+02  6.635568E+04 -2.743445E+03  3.341822E+02
       290   7  4.491025E+04  1.318670E+05  4.361351E+04  6.762811E+04 -1.564615E+03  1.064109E+04
       290   8  2.793243E+04  7.236720E+04  2.435044E+04  6.125272E+04 -4.233721E+03  2.058007E+03
       290   9  1.339271E+04  1.461408E+04  1.128603E+04  6.628952E+04 -2.740512E+03 -6.521927E+03
       290  10 -4.095430E+04 -2.147076E+05 -3.913410E+04  6.508545E+04  4.367191E-10  2.391236E-09
       290  11 -2.693810E+04 -1.555757E+05 -2.205548E+04  6.004738E+04  8.490389E-10  1.576615E-09
       290  12 -1.325825E+04 -9.747060E+04 -9.878295E+03  6.642184E+04  8.431008E-10  1.006731E-10
       290  13  1.979040E+03 -4.143415E+04  2.240651E+03  6.635661E+04  8.366186E-10  8.849352E-12
       290  14  4.975627E+02 -4.161045E+04  1.147802E+03  6.065000E+04 -1.650733E-11  1.714238E-09
       290  15  6.731048E+01 -4.142980E+04  7.038908E+02  6.635568E+04  4.338449E-10 -2.543552E-09
       290  16  4.491021E+04  1.318668E+05  4.361329E+04  6.762812E+04  3.826581E-11 -5.853818E-12
       290  17  2.793241E+04  7.236719E+04  2.435040E+04  6.125273E+04  1.154178E-10 -2.142904E-09
       290  18  1.339269E+04  1.461403E+04  1.128594E+04  6.628951E+04  7.613469E-11 -1.390460E-09
       290  19 -4.095428E+04 -2.147075E+05 -3.913398E+04  6.508546E+04  1.556261E+03  7.615327E+03
       290  20 -2.693808E+04 -1.555757E+05 -2.205545E+04  6.004738E+04  4.232829E+03  2.144532E+02
       290  21 -1.325823E+04 -9.747054E+04 -9.878184E+03  6.642183E+04  2.746378E+03 -7.189688E+03
       290  22  1.979043E+03 -4.143415E+04  2.240660E+03  6.635660E+04  1.560457E+03 -1.511613E+03
       290  23  4.975822E+02 -4.161045E+04  1.147837E+03  6.065000E+04  4.233276E+03 -9.216748E+02
       290  24  6.731859E+01 -4.142980E+04  7.039051E+02  6.635568E+04  2.743445E+03 -3.341822E+02
       290  25  4.491025E+04  1.318670E+05  4.361351E+04  6.762811E+04  1.564615E+03 -1.064109E+04
       290  26  2.793243E+04  7.236720E+04  2.435044E+04  6.125272E+04  4.233721E+03 -2.058007E+03
       290  27  1.339271E+04  1.461408E+04  1.128603E+04  6.628952E+04  2.740512E+03  6.521927E+03
       291   1 -4.442256E+03 -5.999773E+04 -3.397735E+03  6.634654E+04 -5.105783E+02  6.915358E+03
       291   2  9.289451E+03 -1.473391E+03  6.922713E+03  6.056764E+04  2.875116E+03  6.305924E+03
       291   3  2.321549E+04  5.719912E+04  1.769278E+04  6.644812E+04  6.073853E+03  5.696422E+03
       291   4  5.788726E+01 -4.149027E+04  5.947225E+02  6.641070E+04 -5.077628E+02  2.361184E+02
       291   5 -6.055330E+00 -4.153230E+04  5.049925E+02  6.058098E+04  2.877867E+03 -1.464494E+01
       291   6  6.220934E+01 -4.149183E+04  6.157214E+02  6.641070E+04  6.076527E+03 -2.654217E+02
       291   7  4.558032E+03 -2.298238E+04  4.587328E+03  6.647486E+04 -5.049488E+02 -6.443317E+03
       291   8 -9.301621E+03 -8.158953E+04 -5.912620E+03  6.059433E+04  2.880617E+03 -6.334820E+03
       291   9 -2.309158E+04 -1.401732E+05 -1.646154E+04  6.637329E+04  6.079202E+03 -6.226347E+03
       291  10 -4.442269E+03 -5.999778E+04 -3.397825E+03  6.634655E+04  5.718722E-10  1.873577E-09
       291  11  9.289431E+03 -1.473436E+03  6.922622E+03  6.056762E+04  7.788631E-10  9.669051E-10
       291  12  2.321544E+04  5.719907E+04  1.769265E+04  6.644809E+04  3.282381E-11 -1.061794E-10
       291  13  5.788697E+01 -4.149027E+04  5.947219E+02  6.641070E+04  4.990798E-10 -4.513453E-12
       291  14 -6.064223E+00 -4.153230E+04  5.049769E+02  6.058098E+04  1.071837E-09  6.322005E-10
       291  15  6.216967E+01 -4.149184E+04  6.156519E+02  6.641070E+04  8.391238E-10 -2.833541E-09
       291  16  4.558021E+03 -2.298243E+04  4.587249E+03  6.647486E+04  5.049179E-10 -9.645095E-10
       291  17 -9.301640E+03 -8.158957E+04 -5.912711E+03  6.059435E+04  7.841954E-10  4.617834E-10
       291  18 -2.309163E+04 -1.401732E+05 -1.646168E+04  6.637332E+04  1.273347E-09 -5.707282E-10
       291  19 -4.442256E+03 -5.999773E+04 -3.397735E+03  6.634654E+04  5.105783E+02 -6.915358E+03
       291  20  9.289451E+03 -1.473391E+03  6.922713E+03  6.056764E+04 -2.875116E+03 -6.305924E+03
       291  21  2.321549E+04  5.719912E+04  1.769278E+04  6.644812E+04 -6.073853E+03 -5.696422E+03
       291  22  5.788726E+01 -4.149027E+04  5.947225E+02  6.641070E+04  5.077628E+02 -2.361184E+02
       291  23 -6.055330E+00 -4.153230E+04  5.049925E+02  6.058098E+04 -2.877867E+03  1.464494E+01
       291  24  6.220934E+01 -4.149183E+04  6.157214E+02  6.641070E+04 -6.076527E+03  2.654217E+02
       291  25  4.558032E+03 -2.298238E+04  4.587328E+03  6.647486E+04  5.049488E+02  6.443317E+03
       291  26 -9.301621E+03 -8.158953E+04 -5.912620E+03  6.059433E+04 -2.880617E+03  6.334820E+03
       291  27 -2.309158E+04 -1.401732E+05 -1.646154E+04  6.637329E+04 -6.079202E+03  6.226347E+03
       292   1  3.210738E+04  9.489312E+04  2.460553E+04  6.622475E+04  8.165881E+03  5.866872E+03
       292   2  4.690625E+04  1.523518E+05  3.915525E+04  6.129877E+04  8.444684E+03 -6.176003E+03
       292   3  6.481012E+04  2.121770E+05  6.232437E+04  6.765058E+04  2.777256E+03 -1.822369E+04
       292   4  7.063156E+01 -4.142686E+04  7.372863E+02  6.632580E+04  8.168817E+03 -3.673913E+02
       292   5  5.275420E+02 -4.162172E+04  1.217589E+03  6.068736E+04  8.442413E+03 -9.908095E+02
       292   6  2.107976E+03 -4.143426E+04  2.388368E+03  6.632684E+04  2.768951E+03 -1.618017E+03
       292   7 -3.196711E+04 -1.777286E+05 -2.313148E+04  6.642684E+04  8.171750E+03 -6.600326E+03
       292   8 -4.585341E+04 -2.355591E+05 -3.672178E+04  6.007614E+04  8.440132E+03  4.192799E+03
       292   9 -6.059862E+04 -2.949858E+05 -5.755105E+04  6.500364E+04  2.760574E+03  1.498091E+04
       292  10  3.210730E+04  9.489307E+04  2.460534E+04  6.622471E+04 -6.651064E-11  3.169698E-09
       292  11  4.690616E+04  1.523517E+05  3.915505E+04  6.129881E+04  6.488205E-10  2.287811E-09
       292  12  6.481002E+04  2.121766E+05  6.232373E+04  6.765062E+04  3.958162E-11  2.564307E-10
       292  13  7.055987E+01 -4.142688E+04  7.371607E+02  6.632581E+04  3.787892E-10  5.279610E-10
       292  14  5.274652E+02 -4.162175E+04  1.217453E+03  6.068736E+04  1.004256E-09  1.808409E-09
       292  15  2.107967E+03 -4.143426E+04  2.388348E+03  6.632684E+04  2.026765E-10 -1.961970E-09
       292  16 -3.196719E+04 -1.777286E+05 -2.313168E+04  6.642688E+04  1.080733E-09 -8.254189E-10
       292  17 -4.585349E+04 -2.355591E+05 -3.672195E+04  6.007611E+04  7.315229E-10 -4.622311E-10
       292  18 -6.059869E+04 -2.949860E+05 -5.755149E+04  6.500361E+04  4.759656E-11 -4.685848E-11
       292  19  3.210738E+04  9.489312E+04  2.460553E+04  6.622475E+04 -8.165881E+03 -5.866872E+03
       292  20  4.690625E+04  1.523518E+05  3.915525E+04  6.129877E+04 -8.444684E+03  6.176003E+03
       292  21  6.481012E+04  2.121770E+05  6.232437E+04  6.765058E+04 -2.777256E+03  1.822369E+04
       292  22  7.063156E+01 -4.142686E+04  7.372863E+02  6.632580E+04 -8.168817E+03  3.673913E+02
       292  23  5.275420E+02 -4.162172E+04  1.217589E+03  6.068736E+04 -8.442413E+03  9.908095E+02
       292  24  2.107976E+03 -4.143426E+04  2.388368E+03  6.632684E+04 -2.768951E+03  1.618017E+03
       292  25 -3.196711E+04 -1.777286E+05 -2.313148E+04  6.642684E+04 -8.171750E+03  6.600326E+03
       292  26 -4.585341E+04 -2.355591E+05 -3.672178E+04  6.007614E+04 -8.440132E+03 -4.192799E+03
       292  27 -6.059862E+04 -2.949858E+05 -5.755105E+04  6.500364E+04 -2.760574E+03 -1.498091E+04
       293   1  3.680164E+05  2.382687E+05  2.234664E+05  1.748657E+05  6.142893E+04 -1.293386E+04
       293   2  1.978544E+05  2.046130E+05  1.569704E+05  1.667060E+05  2.092952E+04 -4.152105E+04
       293   3  3.222229E+04  1.674708E+05  1.159712E+05  1.902657E+05 -1.954113E+04 -4.568456E+04
       293   4 -6.893369E+05 -2.289187E+04 -2.477714E+04  1.898438E+05 -1.694514E+04 -1.290953E+04
       293   5 -6.874637E+05 -6.395512E+03 -1.252016E+04  1.739847E+05 -1.052303E+04 -4.152000E+04
       293   6 -6.892331E+05 -1.534382E+03 -7.350640E+03  1.898482E+05 -4.082983E+03 -4.568977E+04
       293   7 -1.745647E+06 -2.841279E+05 -2.730741E+05  2.047962E+05 -9.518657E+04 -1.288897E+04
       293   8 -1.572025E+06 -2.174496E+05 -1.820427E+05  1.812527E+05 -4.193179E+04 -4.151969E+04
       293   9 -1.410176E+06 -1.705672E+05 -1.306889E+05  1.894311E+05  1.135777E+04 -4.569500E+04
       293  10  3.680123E+05  2.382675E+05  2.234590E+05  1.748664E+05  2.494383E-10 -2.002121E-11
       293  11  1.978535E+05  2.046110E+05  1.569663E+05  1.667067E+05  2.258485E-10 -6.455750E-12
       293  12  3.222132E+04  1.674684E+05  1.159666E+05  1.902650E+05  5.930947E-11  3.575645E-12
       293  13 -6.893372E+05 -2.289212E+04 -2.477799E+04  1.898436E+05 -4.222902E-12 -2.066486E-11
       293  14 -6.874643E+05 -6.397392E+03 -1.252361E+04  1.739843E+05  2.044692E-10 -5.271037E-11
       293  15 -6.892336E+05 -1.536627E+03 -7.354593E+03  1.898480E+05  4.656930E-11 -3.075965E-11
       293  16 -1.745657E+06 -2.841305E+05 -2.730915E+05  2.047952E+05 -8.825841E-11 -2.365156E-11
       293  17 -1.572027E+06 -2.174519E+05 -1.820492E+05  1.812513E+05  1.620175E-11 -1.088891E-10
       293  18 -1.410177E+06 -1.705694E+05 -1.306931E+05  1.894316E+05  4.553172E-11 -7.474130E-11
       293  19  3.680164E+05  2.382687E+05  2.234664E+05  1.748657E+05 -6.142893E+04  1.293386E+04
       293  20  1.978544E+05  2.046130E+05  1.569704E+05  1.667060E+05 -2.092952E+04  4.152105E+04
       293  21  3.222229E+04  1.674708E+05  1.159712E+05  1.902657E+05  1.954113E+04  4.568456E+04
       293  22 -6.893369E+05 -2.289187E+04 -2.477714E+04  1.898438E+05  1.694514E+04  1.290953E+04
       293  23 -6.874637E+05 -6.395512E+03 -1.252016E+04  1.739847E+05  1.052303E+04  4.152000E+04
       293  24 -6.892331E+05 -1.534382E+03 -7.350640E+03  1.898482E+05  4.082983E+03  4.568977E+04
       293  25 -1.745647E+06 -2.841279E+05 -2.730741E+05  2.047962E+05  9.518657E+04  1.288897E+04
       293  26 -1.572025E+06 -2.174496E+05 -1.820427E+05  1.812527E+05  4.193179E+04  4.151969E+04
       293  27 -1.410176E+06 -1.705672E+05 -1.306889E+05  1.894311E+05 -1.135777E+04  4.569500E+04
       294   1 -7.519842E+04  1.419470E+05  9.708981E+04  1.894608E+05 -1.733879E+04 -4.024936E+04
       294   2 -2.432374E+05  1.031060E+05  6.729415E+04  1.731404E+05 -1.974859E+04 -3.160641E+04
       294   3 -4.109183E+05  6.416714E+04  3.905284E+04  1.902524E+05 -2.216004E+04 -2.053538E+04
       294   4 -6.885036E+05 -1.380533E+03 -5.990267E+03  1.902274E+05 -3.074106E+03 -4.025250E+04
       294   5 -6.882387E+05 -3.006419E+02 -4.509131E+03  1.735104E+05 -8.262118E+02 -3.160677E+04
       294   6 -6.884532E+05 -1.267066E+02 -4.710707E+03  1.902274E+05  1.419424E+03 -2.053203E+04
       294   7 -1.301437E+06 -1.447277E+05 -1.090814E+05  1.909932E+05  1.117694E+04 -4.025561E+04
       294   8 -1.133043E+06 -1.037171E+05 -7.631644E+04  1.738801E+05  1.808308E+04 -3.160710E+04
       294   9 -9.659100E+05 -6.442408E+04 -4.847407E+04  1.902024E+05  2.498873E+04 -2.052868E+04
       294  10 -7.519918E+04  1.419451E+05  9.708621E+04  1.894602E+05  2.639257E-10  1.728304E-11
       294  11 -2.432381E+05  1.031048E+05  6.729154E+04  1.731399E+05  1.894328E-10  4.324384E-11
       294  12 -4.109189E+05  6.416656E+04  3.905112E+04  1.902520E+05  1.089256E-10  5.252508E-11
       294  13 -6.885040E+05 -1.382275E+03 -5.993328E+03  1.902273E+05  2.393358E-11 -1.175312E-11
       294  14 -6.882390E+05 -3.017144E+02 -4.511009E+03  1.735104E+05  1.803120E-10  1.670674E-11
       294  15 -6.884533E+05 -1.271597E+02 -4.711503E+03  1.902274E+05  2.301758E-11  2.751156E-11
       294  16 -1.301438E+06 -1.447294E+05 -1.090847E+05  1.909936E+05 -1.926630E-10 -6.293440E-11
       294  17 -1.133043E+06 -1.037182E+05 -7.631893E+04  1.738805E+05 -6.538512E-11 -6.970527E-11
       294  18 -9.659108E+05 -6.442470E+04 -4.847603E+04  1.902028E+05 -6.301290E-11  1.340840E-12
       294  19 -7.519842E+04  1.419470E+05  9.708981E+04  1.894608E+05  1.733879E+04  4.024936E+04
       294  20 -2.432374E+05  1.031060E+05  6.729415E+04  1.731404E+05  1.974859E+04  3.160641E+04
       294  21 -4.109183E+05  6.416714E+04  3.905284E+04  1.902524E+05  2.216004E+04  2.053538E+04
       294  22 -6.885036E+05 -1.380533E+03 -5.990267E+03  1.902274E+05  3.074106E+03  4.025250E+04
       294  23 -6.882387E+05 -3.006419E+02 -4.509131E+03  1.735104E+05  8.262118E+02  3.160677E+04
       294  24 -6.884532E+05 -1.267066E+02 -4.710707E+03  1.902274E+05 -1.419424E+03  2.053203E+04
       294  25 -1.301437E+06 -1.447277E+05 -1.090814E+05  1.909932E+05 -1.117694E+04  4.025561E+04
       294  26 -1.133043E+06 -1.037171E+05 -7.631644E+04  1.738801E+05 -1.808308E+04  3.160710E+04
       294  27 -9.659100E+05 -6.442408E+04 -4.847407E+04  1.902024E+05 -2.498873E+04  2.052868E+04
       295   1 -5.180368E+05  3.924925E+04  2.076565E+04  1.898940E+05 -2.124191E+04 -1.323515E+04
       295   2 -6.851813E+05 -4.200351E+02 -9.356655E+03  1.741636E+05 -1.477480E+04 -1.605738E+03
       295   3 -8.537647E+05 -4.265779E+04 -4.433166E+04  1.919507E+05 -8.309877E+03  8.754255E+03
       295   4 -6.885698E+05 -1.053919E+02 -5.359153E+03  1.902460E+05  2.286614E+03 -1.323080E+04
       295   5 -6.880481E+05 -7.368938E+02 -8.070607E+03  1.734873E+05  6.315276E+03 -1.601776E+03
       295   6 -6.885716E+05 -3.512640E+03 -1.394145E+04  1.902464E+05  1.034343E+04  8.757833E+03
       295   7 -8.590725E+05 -3.946114E+04 -3.148251E+04  1.905979E+05  2.580892E+04 -1.322643E+04
       295   8 -6.909139E+05 -1.053511E+03 -6.782879E+03  1.728111E+05  2.740528E+04 -1.597859E+03
       295   9 -5.233512E+05  3.563115E+04  1.644895E+04  1.885415E+05  2.900158E+04  8.761307E+03
       295  10 -5.180373E+05  3.924894E+04  2.076447E+04  1.898937E+05  2.782312E-10  3.065909E-11
       295  11 -6.851815E+05 -4.200965E+02 -9.357070E+03  1.741636E+05  1.383493E-10  8.110952E-11
       295  12 -8.537648E+05 -4.265789E+04 -4.433194E+04  1.919507E+05  9.556392E-11  9.076043E-11
       295  13 -6.885699E+05 -1.055812E+02 -5.359491E+03  1.902460E+05  1.551398E-11  5.884697E-11
       295  14 -6.880481E+05 -7.369072E+02 -8.070687E+03  1.734873E+05  5.346249E-11  1.061738E-10
       295  15 -6.885717E+05 -3.512751E+03 -1.394179E+04  1.902463E+05  2.874988E-11  7.796327E-11
       295  16 -8.590733E+05 -3.946151E+04 -3.148409E+04  1.905981E+05 -1.615036E-10  4.635385E-11
       295  17 -6.909147E+05 -1.053715E+03 -6.784296E+03  1.728111E+05 -1.336800E-10  5.877839E-11
       295  18 -5.233521E+05  3.563084E+04  1.644723E+04  1.885413E+05 -5.838462E-11  4.590930E-11
       295  19 -5.180368E+05  3.924925E+04  2.076565E+04  1.898940E+05  2.124191E+04  1.323515E+04
       295  20 -6.851813E+05 -4.200351E+02 -9.356655E+03  1.741636E+05  1.477480E+04  1.605738E+03
       295  21 -8.537647E+05 -4.265779E+04 -4.433166E+04  1.919507E+05  8.309877E+03 -8.754255E+03
       295  22 -6.885698E+05 -1.053919E+02 -5.359153E+03  1.902460E+05 -2.286614E+03  1.323080E+04
       295  23 -6.880481E+05 -7.368938E+02 -8.070607E+03  1.734873E+05 -6.315276E+03  1.601776E+03
       295  24 -6.885716E+05 -3.512640E+03 -1.394145E+04  1.902464E+05 -1.034343E+04 -8.757833E+03
       295  25 -8.590725E+05 -3.946114E+04 -3.148251E+04  1.905979E+05 -2.580892E+04  1.322643E+04
       295  26 -6.909139E+05 -1.053511E+03 -6.782879E+03  1.728111E+05 -2.740528E+04  1.597859E+03
       295  27 -5.233512E+05  3.563115E+04  1.644895E+04  1.885415E+05 -2.900158E+04 -8.761307E+03
       296   1 -9.633614E+05 -6.830179E+04 -6.766147E+04  1.884713E+05 -6.631273E+03  1.508372E+04
       296   2 -1.123769E+06 -1.220158E+05 -1.204265E+05  1.929061E+05  3.829966E+04  1.790229E+04
       296   3 -1.299123E+06 -2.122918E+05 -2.116141E+05  2.298474E+05  8.321346E+04  6.160707E+03
       296   4 -6.905928E+05 -3.815537E+03 -1.825989E+04  1.900235E+05  1.272567E+04  1.508662E+04
       296   5 -6.855738E+05 -1.682949E+04 -3.313315E+04  1.737686E+05  2.974467E+04  1.789926E+04
       296   6 -6.906608E+05 -6.153808E+04 -6.701385E+04  1.900241E+05  4.675913E+04  6.153473E+03
       296   7 -4.177508E+05  6.066675E+04  3.114018E+04  1.915764E+05  3.209090E+04  1.508962E+04
       296   8 -2.471941E+05  8.834649E+04  5.415103E+04  1.546172E+05  2.118375E+04  1.789675E+04
       296   9 -8.185157E+04  8.919565E+04  7.756640E+04  1.501615E+05  1.026916E+04  6.150932E+03
       296  10 -9.633615E+05 -6.830205E+04 -6.766198E+04  1.884713E+05  2.096065E-10  1.154570E-10
       296  11 -1.123771E+06 -1.220166E+05 -1.204298E+05  1.929056E+05  1.609864E-10  7.368998E-11
       296  12 -1.299131E+06 -2.122937E+05 -2.116272E+05  2.298470E+05  1.857197E-10  2.881243E-11
       296  13 -6.905930E+05 -3.815825E+03 -1.826062E+04  1.900233E+05 -5.572716E-11  1.236257E-10
       296  14 -6.855749E+05 -1.683007E+04 -3.313541E+04  1.737682E+05  1.322146E-10  5.768438E-11
       296  15 -6.906631E+05 -6.153871E+04 -6.701804E+04  1.900239E+05  1.917240E-11  2.618608E-11
       296  16 -4.177520E+05  6.066622E+04  3.113781E+04  1.915760E+05 -9.068360E-11  4.388358E-11
       296  17 -2.471946E+05  8.834602E+04  5.414959E+04  1.546169E+05 -1.783601E-10  5.669050E-11
       296  18 -8.185169E+04  8.919558E+04  7.756613E+04  1.501615E+05 -2.538141E-11  1.404909E-11
       296  19 -9.633614E+05 -6.830179E+04 -6.766147E+04  1.884713E+05  6.631273E+03 -1.508372E+04
       296  20 -1.123769E+06 -1.220158E+05 -1.204265E+05  1.929061E+05 -3.829966E+04 -1.790229E+04
       296  21 -1.299123E+06 -2.122918E+05 -2.116141E+05  2.298474E+05 -8.321346E+04 -6.160707E+03
       296  22 -6.905928E+05 -3.815537E+03 -1.825989E+04  1.900235E+05 -1.272567E+04 -1.508662E+04
       296  23 -6.855738E+05 -1.682949E+04 -3.313315E+04  1.737686E+05 -2.974467E+04 -1.789926E+04
       296  24 -6.906608E+05 -6.153808E+04 -6.701385E+04  1.900241E+05 -4.675913E+04 -6.153473E+03
       296  25 -4.177508E+05  6.066675E+04  3.114018E+04  1.915764E+05 -3.209090E+04 -1.508962E+04
       296  26 -2.471941E+05  8.834649E+04  5.415103E+04  1.546172E+05 -2.118375E+04 -1.789675E+04
       296  27 -8.185157E+04  8.919565E+04  7.756640E+04  1.501615E+05 -1.026916E+04 -6.150932E+03
       297   1  2.607686E+05  1.568426E+05  1.492326E+05  1.353956E+05  4.431373E+04 -7.489734E+03
       297   2  1.376744E+05  1.231441E+05  9.898206E+04  1.244078E+05  1.615755E+04 -2.357465E+04
       297   3  1.934738E+04  9.366180E+04  6.811568E+04  1.364332E+05 -1.198790E+04 -2.472383E+04
       297   4 -3.803818E+05 -1.579241E+03 -1.704615E+03  1.364364E+05 -9.218332E+02 -7.488157E+03
       297   5 -3.802485E+05 -4.579079E+02 -1.045459E+03  1.249293E+05 -3.875772E+02 -2.357673E+04
       297   6 -3.803407E+05 -9.865282E+01 -9.228131E+02  1.364364E+05  1.515876E+02 -2.472379E+04
       297   7 -1.021149E+06 -1.600293E+05 -1.526624E+05  1.374760E+05 -4.611096E+04 -7.486734E+03
       297   8 -8.979128E+05 -1.240757E+05 -1.010844E+05  1.254503E+05 -1.691922E+04 -2.357884E+04
       297   9 -7.798717E+05 -9.386762E+04 -6.996624E+04  1.364395E+05  1.228350E+04 -2.472376E+04
       297  10  2.607665E+05  1.568420E+05  1.492288E+05  1.353959E+05  1.793254E-10  1.915730E-11
       297  11  1.376739E+05  1.231434E+05  9.898052E+04  1.244081E+05  7.410778E-11 -7.914556E-11
       297  12  1.934706E+04  9.366111E+04  6.811426E+04  1.364330E+05  1.182539E-10 -5.306348E-11
       297  13 -3.803818E+05 -1.579301E+03 -1.704722E+03  1.364364E+05  1.260656E-11 -2.767975E-11
       297  14 -3.802486E+05 -4.585047E+02 -1.046504E+03  1.249293E+05  6.368060E-11 -3.903201E-11
       297  15 -3.803409E+05 -9.930910E+01 -9.239617E+02  1.364364E+05  1.269042E-10 -8.570502E-11
       297  16 -1.021152E+06 -1.600299E+05 -1.526665E+05  1.374757E+05 -1.045680E-10 -6.438153E-11
       297  17 -8.979132E+05 -1.240764E+05 -1.010860E+05  1.254500E+05 -4.738672E-11 -1.094383E-10
       297  18 -7.798721E+05 -9.386832E+04 -6.996767E+04  1.364398E+05 -4.334067E-11 -1.050757E-10
       297  19  2.607686E+05  1.568426E+05  1.492326E+05  1.353956E+05 -4.431373E+04  7.489734E+03
       297  20  1.376744E+05  1.231441E+05  9.898206E+04  1.244078E+05 -1.615755E+04  2.357465E+04
       297  21  1.934738E+04  9.366180E+04  6.811568E+04  1.364332E+05  1.198790E+04  2.472383E+04
       297  22 -3.803818E+05 -1.579241E+03 -1.704615E+03  1.364364E+05  9.218332E+02  7.488157E+03
       297  23 -3.802485E+05 -4.579079E+02 -1.045459E+03  1.249293E+05  3.875772E+02  2.357673E+04
       297  24 -3.803407E+05 -9.865282E+01 -9.228131E+02  1.364364E+05 -1.515876E+02  2.472379E+04
       297  25 -1.021149E+06 -1.600293E+05 -1.526624E+05  1.374760E+05  4.611096E+04  7.486734E+03
       297  26 -8.979128E+05 -1.240757E+05 -1.010844E+05  1.254503E+05  1.691922E+04  2.357884E+04
       297  27 -7.798717E+05 -9.386762E+04 -6.996624E+04  1.364395E+05 -1.228350E+04  2.472376E+04
       298   1 -5.819521E+04  7.533131E+04  5.382863E+04  1.365674E+05 -1.110275E+04 -2.058272E+04
       298   2 -1.790192E+05  4.685761E+04  3.155587E+04  1.245576E+05 -1.318285E+04 -1.391977E+04
       298   3 -2.994618E+05  1.872487E+04  1.072473E+04  1.365917E+05 -1.526335E+04 -5.818950E+03
       298   4 -3.803055E+05 -7.013116E+01 -9.921826E+02  1.366653E+05  3.094628E+02 -2.058192E+04
       298   5 -3.802405E+05  1.599915E+01 -1.368712E+03  1.246431E+05  9.883619E+02 -1.391767E+04
       298   6 -3.802894E+05 -3.587961E+01 -2.220870E+03  1.366653E+05  1.666439E+03 -5.815304E+03
       298   7 -7.023134E+05 -7.547701E+04 -5.581591E+04  1.367632E+05  1.171594E+04 -2.058112E+04
       298   8 -5.814211E+05 -4.682758E+04 -3.429370E+04  1.247286E+05  1.515514E+04 -1.391557E+04
       298   9 -4.611098E+05 -1.879680E+04 -1.516556E+04  1.367390E+05  1.859410E+04 -5.811653E+03
       298  10 -5.819546E+04  7.533082E+04  5.382760E+04  1.365672E+05  1.814919E-10 -5.682396E-11
       298  11 -1.790195E+05  4.685736E+04  3.155518E+04  1.245574E+05  6.369935E-11 -1.030159E-10
       298  12 -2.994621E+05  1.872477E+04  1.072423E+04  1.365916E+05  7.675432E-11 -1.380832E-11
       298  13 -3.803056E+05 -7.058600E+01 -9.929787E+02  1.366653E+05  8.342222E-11 -1.052212E-10
       298  14 -3.802405E+05  1.579092E+01 -1.369078E+03  1.246431E+05  1.214565E-10 -7.783544E-11
       298  15 -3.802894E+05 -3.591667E+01 -2.220939E+03  1.366653E+05 -5.893863E-11 -7.051872E-11
       298  16 -7.023137E+05 -7.547750E+04 -5.581696E+04  1.367633E+05 -9.729575E-11 -1.257093E-10
       298  17 -5.814214E+05 -4.682785E+04 -3.429450E+04  1.247288E+05 -6.839576E-11 -9.565680E-11
       298  18 -4.611102E+05 -1.879693E+04 -1.516628E+04  1.367391E+05 -1.819939E-11 -1.001488E-10
       298  19 -5.819521E+04  7.533131E+04  5.382863E+04  1.365674E+05  1.110275E+04  2.058272E+04
       298  20 -1.790192E+05  4.685761E+04  3.155587E+04  1.245576E+05  1.318285E+04  1.391977E+04
       298  21 -2.994618E+05  1.872487E+04  1.072473E+04  1.365917E+05  1.526335E+04  5.818950E+03
       298  22 -3.803055E+05 -7.013116E+01 -9.921826E+02  1.366653E+05 -3.094628E+02  2.058192E+04
       298  23 -3.802405E+05  1.599915E+01 -1.368712E+03  1.246431E+05 -9.883619E+02  1.391767E+04
       298  24 -3.802894E+05 -3.587961E+01 -2.220870E+03  1.366653E+05 -1.666439E+03  5.815304E+03
       298  25 -7.023134E+05 -7.547701E+04 -5.581591E+04  1.367632E+05 -1.171594E+04  2.058112E+04
       298  26 -5.814211E+05 -4.682758E+04 -3.429370E+04  1.247286E+05 -1.515514E+04  1.391557E+04
       298  27 -4.611098E+05 -1.879680E+04 -1.516556E+04  1.367390E+05 -1.859410E+04  5.811653E+03
       299   1 -3.764635E+05  8.185625E+02 -2.607260E+03  1.363973E+05 -1.481399E+04 -5.740755E+02
       299   2 -4.965452E+05 -2.771171E+04 -2.459019E+04  1.250556E+05 -9.974695E+03  7.634320E+03
       299   3 -6.176914E+05 -5.805011E+04 -5.017768E+04  1.377737E+05 -5.135796E+03  1.462380E+04
       299   4 -3.804118E+05 -2.613685E+01 -2.881663E+03  1.366687E+05  2.105469E+03 -5.702972E+02
       299   5 -3.800818E+05 -4.904074E+02 -5.005040E+03  1.246391E+05  4.605004E+03  7.637043E+03
       299   6 -3.804220E+05 -2.355054E+03 -9.106707E+03  1.366691E+05  7.104997E+03  1.462559E+04
       299   7 -3.843594E+05 -8.706825E+02 -3.154988E+03  1.369401E+05  1.902483E+04 -5.665041E+02
       299   8 -2.636045E+05  2.673030E+04  1.458048E+04  1.242225E+05  1.918735E+04  7.639747E+03
       299   9 -1.430969E+05  5.333705E+04  3.196289E+04  1.355640E+05  1.935033E+04  1.462733E+04
       299  10 -3.764637E+05  8.185032E+02 -2.607673E+03  1.363972E+05  2.099897E-10  1.501655E-11
       299  11 -4.965453E+05 -2.771180E+04 -2.459049E+04  1.250556E+05  2.025206E-10  1.242930E-11
       299  12 -6.176915E+05 -5.805034E+04 -5.017814E+04  1.377738E+05  1.656164E-10  4.080741E-11
       299  13 -3.804118E+05 -2.613839E+01 -2.881672E+03  1.366687E+05  1.772483E-10 -7.834794E-11
       299  14 -3.800818E+05 -4.904757E+02 -5.005190E+03  1.246391E+05  9.552616E-11 -4.165835E-11
       299  15 -3.804221E+05 -2.355297E+03 -9.107204E+03  1.366690E+05  2.470540E-10 -3.332187E-11
       299  16 -3.843598E+05 -8.707801E+02 -3.155669E+03  1.369401E+05 -2.070804E-10 -9.594996E-11
       299  17 -2.636050E+05  2.673014E+04  1.457968E+04  1.242224E+05 -8.044865E-11 -1.413498E-10
       299  18 -1.430974E+05  5.333672E+04  3.196178E+04  1.355638E+05  1.961358E-11 -2.389728E-11
       299  19 -3.764635E+05  8.185625E+02 -2.607260E+03  1.363973E+05  1.481399E+04  5.740755E+02
       299  20 -4.965452E+05 -2.771171E+04 -2.459019E+04  1.250556E+05  9.974695E+03 -7.634320E+03
       299  21 -6.176914E+05 -5.805011E+04 -5.017768E+04  1.377737E+05  5.135796E+03 -1.462380E+04
       299  22 -3.804118E+05 -2.613685E+01 -2.881663E+03  1.366687E+05 -2.105469E+03  5.702972E+02
       299  23 -3.800818E+05 -4.904074E+02 -5.005040E+03  1.246391E+05 -4.605004E+03 -7.637043E+03
       299  24 -3.804220E+05 -2.355054E+03 -9.106707E+03  1.366691E+05 -7.104997E+03 -1.462559E+04
       299  25 -3.843594E+05 -8.706825E+02 -3.154988E+03  1.369401E+05 -1.902483E+04  5.665041E+02
       299  26 -2.636045E+05  2.673030E+04  1.458048E+04  1.242225E+05 -1.918735E+04 -7.639747E+03
       299  27 -1.430969E+05  5.333705E+04  3.196289E+04  1.355640E+05 -1.935033E+04 -1.462733E+04
       300   1 -6.964824E+05 -7.655044E+04 -6.710892E+04  1.354062E+05 -4.210566E+03  1.893496E+04
       300   2 -8.115858E+05 -1.148484E+05 -1.065630E+05  1.376720E+05  3.221225E+04  1.911230E+04
       300   3 -9.377894E+05 -1.786952E+05 -1.761326E+05  1.630936E+05  6.862396E+04  6.213589E+03
       300   4 -3.817803E+05 -2.559261E+03 -1.205318E+04  1.364691E+05  8.664942E+03  1.893616E+04
       300   5 -3.784268E+05 -1.126240E+04 -2.208402E+04  1.248910E+05  2.001197E+04  1.910955E+04
       300   6 -3.818218E+05 -4.114721E+04 -4.479723E+04  1.364705E+05  3.135568E+04  6.209456E+03
       300   7 -6.698086E+04  7.142662E+04  4.299965E+04  1.375325E+05  2.154679E+04  1.893741E+04
       300   8  5.491316E+04  9.231307E+04  6.238667E+04  1.121008E+05  7.803346E+03  1.910730E+04
       300   9  1.744348E+05  9.638201E+04  8.652232E+04  1.098234E+05 -5.945830E+03  6.208529E+03
       300  10 -6.964825E+05 -7.655083E+04 -6.710963E+04  1.354063E+05  3.797944E-11  5.309712E-11
       300  11 -8.115870E+05 -1.148491E+05 -1.065657E+05  1.376715E+05  3.348997E-10  7.206475E-11
       300  12 -9.377944E+05 -1.786965E+05 -1.761415E+05  1.630933E+05  2.194952E-10  3.205445E-11
       300  13 -3.817805E+05 -2.559666E+03 -1.205400E+04  1.364690E+05  1.303999E-10  3.331176E-11
       300  14 -3.784273E+05 -1.126290E+04 -2.208546E+04  1.248907E+05  5.618638E-11  2.576788E-11
       300  15 -3.818229E+05 -4.114752E+04 -4.479915E+04  1.364704E+05  1.273391E-10  3.912268E-11
       300  16 -6.698145E+04  7.142612E+04  4.299810E+04  1.375322E+05 -1.170788E-11  4.405833E-11
       300  17  5.491300E+04  9.231266E+04  6.238587E+04  1.121006E+05 -2.557839E-10  7.697191E-11
       300  18  1.744347E+05  9.638196E+04  8.652218E+04  1.098234E+05 -1.673950E-10  9.697908E-12
       300  19 -6.964824E+05 -7.655044E+04 -6.710892E+04  1.354062E+05  4.210566E+03 -1.893496E+04
       300  20 -8.115858E+05 -1.148484E+05 -1.065630E+05  1.376720E+05 -3.221225E+04 -1.911230E+04
       300  21 -9.377894E+05 -1.786952E+05 -1.761326E+05  1.630936E+05 -6.862396E+04 -6.213589E+03
       300  22 -3.817803E+05 -2.559261E+03 -1.205318E+04  1.364691E+05 -8.664942E+03 -1.893616E+04
       300  23 -3.784268E+05 -1.126240E+04 -2.208402E+04  1.248910E+05 -2.001197E+04 -1.910955E+04
       300  24 -3.818218E+05 -4.114721E+04 -4.479723E+04  1.364705E+05 -3.135568E+04 -6.209456E+03
       300  25 -6.698086E+04  7.142662E+04  4.299965E+04  1.375325E+05 -2.154679E+04 -1.893741E+04
       300  26  5.491316E+04  9.231307E+04  6.238667E+04  1.121008E+05 -7.803346E+03 -1.910730E+04
       300  27  1.744348E+05  9.638201E+04  8.652232E+04  1.098234E+05  5.945830E+03 -6.208529E+03
       301   1  4.258504E+05  1.438059E+05  1.386269E+05  1.260663E+05  4.606468E+04 -6.194285E+03
       301   2  3.176798E+05  1.055793E+05  8.903925E+04  1.122569E+05  1.896590E+04 -1.939051E+04
       301   3  2.155614E+05  7.731902E+04  5.958014E+04  1.185280E+05 -8.124350E+03 -2.005722E+04
       301   4 -1.110290E+05  1.116289E+04  1.217512E+04  1.188283E+05  8.677581E+03 -6.194891E+03
       301   5 -1.119472E+05  3.034728E+03  5.886253E+03  1.087882E+05  5.653450E+03 -1.939242E+04
       301   6 -1.110001E+05  6.986309E+02  3.015796E+03  1.188286E+05  2.632524E+03 -2.005677E+04
       301   7 -6.476401E+05 -1.214997E+05 -1.142912E+05  1.115966E+05 -2.867739E+04 -6.194628E+03
       301   8 -5.413965E+05 -9.952070E+04 -7.727471E+04  1.053219E+05 -7.650000E+03 -1.939418E+04
       301   9 -4.374568E+05 -7.592744E+04 -5.355182E+04  1.191289E+05  1.338392E+04 -2.005632E+04
       301  10  4.258481E+05  1.438053E+05  1.386228E+05  1.260666E+05  3.338230E-11 -4.824698E-12
       301  11  3.176793E+05  1.055788E+05  8.903787E+04  1.122572E+05  2.301950E-10  4.409006E-11
       301  12  2.155613E+05  7.731857E+04  5.957926E+04  1.185279E+05  1.513444E-10  3.128956E-11
       301  13 -1.110291E+05  1.116283E+04  1.217491E+04  1.188284E+05  6.071957E-12  5.454950E-12
       301  14 -1.119473E+05  3.034315E+03  5.885486E+03  1.087883E+05 -5.928856E-11  9.343044E-12
       301  15 -1.110002E+05  6.981971E+02  3.015028E+03  1.188286E+05 -1.345608E-11  4.090156E-11
       301  16 -6.476410E+05 -1.215000E+05 -1.142929E+05  1.115964E+05  8.764352E-11 -9.002236E-13
       301  17 -5.413966E+05 -9.952112E+04 -7.727553E+04  1.053218E+05  4.242055E-11 -3.143876E-11
       301  18 -4.374571E+05 -7.592792E+04 -5.355291E+04  1.191291E+05 -8.665641E-11  2.949206E-11
       301  19  4.258504E+05  1.438059E+05  1.386269E+05  1.260663E+05 -4.606468E+04  6.194285E+03
       301  20  3.176798E+05  1.055793E+05  8.903925E+04  1.122569E+05 -1.896590E+04  1.939051E+04
       301  21  2.155614E+05  7.731902E+04  5.958014E+04  1.185280E+05  8.124350E+03  2.005722E+04
       301  22 -1.110290E+05  1.116289E+04  1.217512E+04  1.188283E+05 -8.677581E+03  6.194891E+03
       301  23 -1.119472E+05  3.034728E+03  5.886253E+03  1.087882E+05 -5.653450E+03  1.939242E+04
       301  24 -1.110001E+05  6.986309E+02  3.015796E+03  1.188286E+05 -2.632524E+03  2.005677E+04
       301  25 -6.476401E+05 -1.214997E+05 -1.142912E+05  1.115966E+05  2.867739E+04  6.194628E+03
       301  26 -5.413965E+05 -9.952070E+04 -7.727471E+04  1.053219E+05  7.650000E+03  1.939418E+04
       301  27 -4.374568E+05 -7.592744E+04 -5.355182E+04  1.191289E+05 -1.338392E+04  2.005632E+04
       302   1  1.476501E+05  6.131310E+04  4.635625E+04  1.193001E+05 -7.884795E+03 -1.640956E+04
       302   2  4.232755E+04  3.597728E+04  2.598134E+04  1.086298E+05 -1.053125E+04 -1.052720E+04
       302   3 -6.245285E+04  1.137311E+04  7.512408E+03  1.188994E+05 -1.317787E+04 -3.448678E+03
       302   4 -1.113773E+05  6.602117E+02  2.111679E+03  1.190197E+05  2.262867E+03 -1.640858E+04
       302   5 -1.114392E+05  1.656203E+02  6.948916E+02  1.085497E+05  1.912769E+03 -1.052528E+04
       302   6 -1.113666E+05  5.014562E+00 -4.100668E+02  1.190198E+05  1.562118E+03 -3.445660E+03
       302   7 -3.703386E+05 -5.999619E+04 -4.213473E+04  1.187394E+05  1.240643E+04 -1.640761E+04
       302   8 -2.651821E+05 -3.564717E+04 -2.459166E+04  1.084696E+05  1.435381E+04 -1.052336E+04
       302   9 -1.602776E+05 -1.136309E+04 -8.331791E+03  1.191403E+05  1.630098E+04 -3.442637E+03
       302  10  1.476500E+05  6.131279E+04  4.635562E+04  1.193000E+05  1.179310E-10  3.684155E-12
       302  11  4.232741E+04  3.597713E+04  2.598092E+04  1.086298E+05 -1.940352E-11  4.833529E-11
       302  12 -6.245304E+04  1.137305E+04  7.512059E+03  1.188993E+05  7.929760E-11 -2.306861E-11
       302  13 -1.113774E+05  6.599212E+02  2.111163E+03  1.190197E+05  9.168496E-11 -4.236646E-12
       302  14 -1.114392E+05  1.655003E+02  6.946765E+02  1.085497E+05  1.341827E-10  1.402715E-10
       302  15 -1.113666E+05  5.001157E+00 -4.100937E+02  1.190198E+05  1.154826E-10  1.958781E-11
       302  16 -3.703388E+05 -5.999652E+04 -4.213552E+04  1.187396E+05 -4.974812E-11  6.039861E-11
       302  17 -2.651824E+05 -3.564734E+04 -2.459226E+04  1.084697E+05  8.617349E-11  3.293062E-11
       302  18 -1.602779E+05 -1.136317E+04 -8.332313E+03  1.191403E+05  4.757746E-11  5.842363E-11
       302  19  1.476501E+05  6.131310E+04  4.635625E+04  1.193001E+05  7.884795E+03  1.640956E+04
       302  20  4.232755E+04  3.597728E+04  2.598134E+04  1.086298E+05  1.053125E+04  1.052720E+04
       302  21 -6.245285E+04  1.137311E+04  7.512408E+03  1.188994E+05  1.317787E+04  3.448678E+03
       302  22 -1.113773E+05  6.602117E+02  2.111679E+03  1.190197E+05 -2.262867E+03  1.640858E+04
       302  23 -1.114392E+05  1.656203E+02  6.948916E+02  1.085497E+05 -1.912769E+03  1.052528E+04
       302  24 -1.113666E+05  5.014562E+00 -4.100668E+02  1.190198E+05 -1.562118E+03  3.445660E+03
       302  25 -3.703386E+05 -5.999619E+04 -4.213473E+04  1.187394E+05 -1.240643E+04  1.640761E+04
       302  26 -2.651821E+05 -3.564717E+04 -2.459166E+04  1.084696E+05 -1.435381E+04  1.052336E+04
       302  27 -1.602776E+05 -1.136309E+04 -8.331791E+03  1.191403E+05 -1.630098E+04  3.442637E+03
       303   1 -1.294977E+05 -4.214778E+03 -4.085151E+03  1.188405E+05 -1.305492E+04  1.117105E+03
       303   2 -2.341796E+05 -2.894021E+04 -2.285924E+04  1.087516E+05 -9.695155E+03  8.236048E+03
       303   3 -3.395652E+05 -5.478978E+04 -4.410212E+04  1.196076E+05 -6.335499E+03  1.423843E+04
       303   4 -1.114721E+05  1.236444E+01 -9.781667E+02  1.190209E+05  1.680875E+03  1.120164E+03
       303   5 -1.113055E+05 -2.749999E+02 -2.431848E+03  1.085486E+05  2.896663E+03  8.238167E+03
       303   6 -1.114809E+05 -1.313612E+03 -4.865199E+03  1.190211E+05  4.112874E+03  1.423973E+04
       303   7 -9.344572E+04  4.239606E+03  2.129622E+03  1.192013E+05  1.641709E+04  1.123232E+03
       303   8  1.158394E+04  2.838951E+04  1.799568E+04  1.083456E+05  1.549089E+04  8.240277E+03
       303   9  1.166548E+05  5.215983E+04  3.437037E+04  1.184343E+05  1.456497E+04  1.424100E+04
       303  10 -1.294979E+05 -4.214825E+03 -4.085473E+03  1.188405E+05  9.025309E-11 -8.339663E-12
       303  11 -2.341798E+05 -2.894031E+04 -2.285954E+04  1.087516E+05  6.670760E-11 -3.880765E-11
       303  12 -3.395653E+05 -5.479001E+04 -4.410258E+04  1.196077E+05 -1.430077E-10  1.042980E-11
       303  13 -1.114721E+05  1.236234E+01 -9.781744E+02  1.190209E+05  2.120744E-15  2.493510E-11
       303  14 -1.113055E+05 -2.750750E+02 -2.431991E+03  1.085486E+05 -1.043839E-11  1.618341E-10
       303  15 -1.114809E+05 -1.313834E+03 -4.865612E+03  1.190210E+05  2.199617E-10 -2.386368E-11
       303  16 -9.344601E+04  4.239533E+03  2.129114E+03  1.192012E+05 -3.698613E-11  4.430577E-11
       303  17  1.158367E+04  2.838938E+04  1.799510E+04  1.083455E+05  7.385215E-11  1.134789E-10
       303  18  1.166545E+05  5.215955E+04  3.436959E+04  1.184341E+05  2.983449E-11  1.040808E-10
       303  19 -1.294977E+05 -4.214778E+03 -4.085151E+03  1.188405E+05  1.305492E+04 -1.117105E+03
       303  20 -2.341796E+05 -2.894021E+04 -2.285924E+04  1.087516E+05  9.695155E+03 -8.236048E+03
       303  21 -3.395652E+05 -5.478978E+04 -4.410212E+04  1.196076E+05  6.335499E+03 -1.423843E+04
       303  22 -1.114721E+05  1.236444E+01 -9.781667E+02  1.190209E+05 -1.680875E+03 -1.120164E+03
       303  23 -1.113055E+05 -2.749999E+02 -2.431848E+03  1.085486E+05 -2.896663E+03 -8.238167E+03
       303  24 -1.114809E+05 -1.313612E+03 -4.865199E+03  1.190211E+05 -4.112874E+03 -1.423973E+04
       303  25 -9.344572E+04  4.239606E+03  2.129622E+03  1.192013E+05 -1.641709E+04 -1.123232E+03
       303  26  1.158394E+04  2.838951E+04  1.799568E+04  1.083456E+05 -1.549089E+04 -8.240277E+03
       303  27  1.166548E+05  5.215983E+04  3.437037E+04  1.184343E+05 -1.456497E+04 -1.424100E+04
       304   1 -4.077845E+05 -7.084994E+04 -5.802556E+04  1.182302E+05 -6.074968E+03  1.794867E+04
       304   2 -5.090376E+05 -1.015251E+05 -8.969359E+04  1.158604E+05  2.294427E+04  1.776813E+04
       304   3 -6.179695E+05 -1.479128E+05 -1.441878E+05  1.336235E+05  5.195504E+04  5.731235E+03
       304   4 -1.122415E+05 -1.428699E+03 -6.553849E+03  1.188411E+05  4.949129E+03  1.794948E+04
       304   5 -1.103881E+05 -6.268289E+03 -1.220228E+04  1.087746E+05  1.122190E+04  1.776609E+04
       304   6 -1.122700E+05 -2.286423E+04 -2.487127E+04  1.188418E+05  1.749191E+04  5.729114E+03
       304   7  1.833874E+05  6.798788E+04  4.491524E+04  1.194522E+05  1.597832E+04  1.795032E+04
       304   8  2.884145E+05  8.897924E+04  6.528206E+04  1.016841E+05 -5.078398E+02  1.776431E+04
       304   9  3.936678E+05  1.021675E+05  9.443218E+04  1.040480E+05 -1.699916E+04  5.728639E+03
       304  10 -4.077846E+05 -7.085030E+04 -5.802624E+04  1.182303E+05  9.425408E-11  2.395984E-11
       304  11 -5.090382E+05 -1.015255E+05 -8.969517E+04  1.158601E+05  1.355481E-10  3.636063E-11
       304  12 -6.179724E+05 -1.479136E+05 -1.441929E+05  1.336233E+05 -6.583781E-11  1.860084E-13
       304  13 -1.122416E+05 -1.429052E+03 -6.554501E+03  1.188410E+05  4.697799E-11  5.334548E-11
       304  14 -1.103883E+05 -6.268661E+03 -1.220311E+04  1.087744E+05  1.147613E-10  6.905071E-12
       304  15 -1.122704E+05 -2.286434E+04 -2.487191E+04  1.188417E+05 -3.084722E-11 -2.078140E-11
       304  16  1.833871E+05  6.798746E+04  4.491415E+04  1.194520E+05  1.240068E-11  2.454489E-11
       304  17  2.884144E+05  8.897890E+04  6.528147E+04  1.016841E+05  1.463516E-11 -4.285382E-11
       304  18  3.936674E+05  1.021674E+05  9.443158E+04  1.040481E+05  1.426854E-10 -4.874871E-11
       304  19 -4.077845E+05 -7.084994E+04 -5.802556E+04  1.182302E+05  6.074968E+03 -1.794867E+04
       304  20 -5.090376E+05 -1.015251E+05 -8.969359E+04  1.158604E+05 -2.294427E+04 -1.776813E+04
       304  21 -6.179695E+05 -1.479128E+05 -1.441878E+05  1.336235E+05 -5.195504E+04 -5.731235E+03
       304  22 -1.122415E+05 -1.428699E+03 -6.553849E+03  1.188411E+05 -4.949129E+03 -1.794948E+04
       304  23 -1.103881E+05 -6.268289E+03 -1.220228E+04  1.087746E+05 -1.122190E+04 -1.776609E+04
       304  24 -1.122700E+05 -2.286423E+04 -2.487127E+04  1.188418E+05 -1.749191E+04 -5.729114E+03
       304  25  1.833874E+05  6.798788E+04  4.491524E+04  1.194522E+05 -1.597832E+04 -1.795032E+04
       304  26  2.884145E+05  8.897924E+04  6.528206E+04  1.016841E+05  5.078398E+02 -1.776431E+04
       304  27  3.936678E+05  1.021675E+05  9.443218E+04  1.040480E+05  1.699916E+04 -5.728639E+03
       305   1  6.266064E+05  1.463395E+05  1.429745E+05  1.285688E+05  5.289725E+04 -5.613436E+03
       305   2  5.231318E+05  9.996077E+04  8.900808E+04  1.106744E+05  2.396617E+04 -1.748763E+04
       305   3  4.276139E+05  7.025276E+04  5.803364E+04  1.118129E+05 -4.957667E+03 -1.786706E+04
       305   4  1.348065E+05  2.485023E+04  2.709711E+04  1.124420E+05  1.903356E+04 -5.615290E+03
       305   5  1.327596E+05  6.777343E+03  1.331468E+04  1.029262E+05  1.219517E+04 -1.748954E+04
       305   6  1.348334E+05  1.548639E+03  7.195981E+03  1.124427E+05  5.359259E+03 -1.786647E+04
       305   7 -3.567680E+05 -9.665472E+04 -8.879250E+04  9.632812E+04 -1.480349E+04 -5.615389E+03
       305   8 -2.574659E+05 -8.641488E+04 -6.238534E+04  9.518306E+04  4.314020E+02 -1.749115E+04
       305   9 -1.578629E+05 -6.716005E+04 -4.364427E+04  1.130722E+05  1.567147E+04 -1.786587E+04
       305  10  6.266034E+05  1.463387E+05  1.429692E+05  1.285690E+05  2.127921E-10 -3.636366E-11
       305  11  5.231311E+05  9.996029E+04  8.900643E+04  1.106747E+05 -2.195199E-10 -1.574155E-10
       305  12  4.276138E+05  7.025241E+04  5.803299E+04  1.118128E+05 -5.733368E-11 -1.924150E-10
       305  13  1.348061E+05  2.485010E+04  2.709637E+04  1.124421E+05  4.522603E-12 -6.176757E-11
       305  14  1.327594E+05  6.776975E+03  1.331382E+04  1.029264E+05  1.091240E-10 -1.300661E-10
       305  15  1.348333E+05  1.548289E+03  7.195327E+03  1.124428E+05  2.354335E-11 -1.505542E-10
       305  16 -3.567683E+05 -9.665482E+04 -8.879297E+04  9.632805E+04 -1.616101E-10 -2.088291E-11
       305  17 -2.574659E+05 -8.641521E+04 -6.238592E+04  9.518307E+04  2.157074E-10 -1.201568E-10
       305  18 -1.578632E+05 -6.716046E+04 -4.364533E+04  1.130724E+05  1.080760E-10 -3.699545E-11
       305  19  6.266064E+05  1.463395E+05  1.429745E+05  1.285688E+05 -5.289725E+04  5.613436E+03
       305  20  5.231318E+05  9.996077E+04  8.900808E+04  1.106744E+05 -2.396617E+04  1.748763E+04
       305  21  4.276139E+05  7.025276E+04  5.803364E+04  1.118129E+05  4.957667E+03  1.786706E+04
       305  22  1.348065E+05  2.485023E+04  2.709711E+04  1.124420E+05 -1.903356E+04  5.615290E+03
       305  23  1.327596E+05  6.777343E+03  1.331468E+04  1.029262E+05 -1.219517E+04  1.748954E+04
       305  24  1.348334E+05  1.548639E+03  7.195981E+03  1.124427E+05 -5.359259E+03  1.786647E+04
       305  25 -3.567680E+05 -9.665472E+04 -8.879250E+04  9.632812E+04  1.480349E+04  5.615389E+03
       305  26 -2.574659E+05 -8.641488E+04 -6.238534E+04  9.518306E+04 -4.314020E+02  1.749115E+04
       305  27 -1.578629E+05 -6.716005E+04 -4.364427E+04  1.130722E+05 -1.567147E+04  1.786587E+04
       306   1  3.629181E+05  5.505594E+04  4.460221E+04  1.132938E+05 -5.324575E+03 -1.438506E+04
       306   2  2.631455E+05  3.046113E+04  2.414963E+04  1.029597E+05 -8.804314E+03 -8.759902E+03
       306   3  1.641378E+05  7.059716E+03  6.260343E+03  1.124358E+05 -1.228395E+04 -2.045091E+03
       306   4  1.340110E+05  1.441720E+03  5.372522E+03  1.126159E+05  4.433795E+03 -1.438402E+04
       306   5  1.338192E+05  3.265747E+02  2.773507E+03  1.027107E+05  3.046749E+03 -8.758082E+03
       306   6  1.340198E+05  4.224351E+01  1.285251E+03  1.126161E+05  1.659275E+03 -2.042368E+03
       306   7 -9.484442E+04 -5.217524E+04 -3.385857E+04  1.119382E+05  1.418868E+04 -1.438300E+04
       306   8  4.509801E+03 -2.980877E+04 -1.860258E+04  1.024618E+05  1.489543E+04 -8.756271E+03
       306   9  1.039031E+05 -6.975171E+03 -3.689138E+03  1.127963E+05  1.560185E+04 -2.039636E+03
       306  10  3.629181E+05  5.505571E+04  4.460177E+04  1.132938E+05  4.317035E-11 -1.938012E-10
       306  11  2.631454E+05  3.046103E+04  2.414934E+04  1.029596E+05  1.643078E-10 -8.506612E-11
       306  12  1.641377E+05  7.059671E+03  6.260052E+03  1.124358E+05  1.602089E-10 -6.063135E-11
       306  13  1.340110E+05  1.441493E+03  5.372096E+03  1.126159E+05  4.638951E-11 -1.275894E-10
       306  14  1.338192E+05  3.264899E+02  2.773346E+03  1.027108E+05  9.743181E-11 -2.852146E-11
       306  15  1.340198E+05  4.223829E+01  1.285238E+03  1.126161E+05  1.394437E-10  6.821197E-11
       306  16 -9.484469E+04 -5.217552E+04 -3.385934E+04  1.119384E+05  2.668147E-11 -4.874141E-11
       306  17  4.509542E+03 -2.980891E+04 -1.860315E+04  1.024619E+05 -6.441548E-11 -6.432541E-11
       306  18  1.039028E+05 -6.975241E+03 -3.689603E+03  1.127964E+05 -1.670374E-10 -7.103484E-12
       306  19  3.629181E+05  5.505594E+04  4.460221E+04  1.132938E+05  5.324575E+03  1.438506E+04
       306  20  2.631455E+05  3.046113E+04  2.414963E+04  1.029597E+05  8.804314E+03  8.759902E+03
       306  21  1.641378E+05  7.059716E+03  6.260343E+03  1.124358E+05  1.228395E+04  2.045091E+03
       306  22  1.340110E+05  1.441720E+03  5.372522E+03  1.126159E+05 -4.433795E+03  1.438402E+04
       306  23  1.338192E+05  3.265747E+02  2.773507E+03  1.027107E+05 -3.046749E+03  8.758082E+03
       306  24  1.340198E+05  4.224351E+01  1.285251E+03  1.126161E+05 -1.659275E+03  2.042368E+03
       306  25 -9.484442E+04 -5.217524E+04 -3.385857E+04  1.119382E+05 -1.418868E+04  1.438300E+04
       306  26  4.509801E+03 -2.980877E+04 -1.860258E+04  1.024618E+05 -1.489543E+04  8.756271E+03
       306  27  1.039031E+05 -6.975171E+03 -3.689138E+03  1.127963E+05 -1.560185E+04  2.039636E+03
       307   1  1.007095E+05 -7.683286E+03 -4.721354E+03  1.125016E+05 -1.245912E+04  2.273231E+03
       307   2  1.547621E+03 -3.095421E+04 -2.211934E+04  1.027349E+05 -1.021965E+04  8.986262E+03
       307   3 -9.803714E+04 -5.481207E+04 -4.112138E+04  1.127789E+05 -7.980100E+03  1.460158E+04
       307   4  1.339174E+05  4.871960E+01  7.346836E+02  1.126161E+05  1.483927E+03  2.275952E+03
       307   5  1.339471E+05 -1.037375E+02 -2.569939E+02  1.027109E+05  1.614842E+03  8.988061E+03
       307   6  1.339087E+05 -4.770206E+02 -1.389199E+03  1.126162E+05  1.746197E+03  1.460259E+04
       307   7  1.671269E+05  7.780773E+03  6.191420E+03  1.127306E+05  1.542770E+04  2.278678E+03
       307   8  2.663643E+05  3.074591E+04  2.160536E+04  1.026869E+05  1.345177E+04  8.989858E+03
       307   9  3.659077E+05  5.385521E+04  3.834154E+04  1.124534E+05  1.147601E+04  1.460359E+04
       307  10  1.007093E+05 -7.683333E+03 -4.721656E+03  1.125016E+05  3.274356E-11 -2.436792E-11
       307  11  1.547487E+03 -3.095433E+04 -2.211968E+04  1.027350E+05  3.600953E-11  1.360107E-10
       307  12 -9.803726E+04 -5.481231E+04 -4.112190E+04  1.127790E+05  2.075505E-10  1.061738E-10
       307  13  1.339174E+05  4.871344E+01  7.346697E+02  1.126161E+05 -6.941654E-11  2.080683E-11
       307  14  1.339471E+05 -1.038249E+02 -2.571506E+02  1.027109E+05  6.104052E-11 -3.032039E-11
       307  15  1.339087E+05 -4.772504E+02 -1.389605E+03  1.126161E+05 -1.209476E-10  6.468393E-11
       307  16  1.671266E+05  7.780703E+03  6.190963E+03  1.127305E+05  3.049306E-11  1.015140E-10
       307  17  2.663640E+05  3.074577E+04  2.160486E+04  1.026868E+05  2.615714E-12  8.079004E-11
       307  18  3.659075E+05  5.385494E+04  3.834089E+04  1.124533E+05 -2.992543E-10  1.739491E-11
       307  19  1.007095E+05 -7.683286E+03 -4.721354E+03  1.125016E+05  1.245912E+04 -2.273231E+03
       307  20  1.547621E+03 -3.095421E+04 -2.211934E+04  1.027349E+05  1.021965E+04 -8.986262E+03
       307  21 -9.803714E+04 -5.481207E+04 -4.112138E+04  1.127789E+05  7.980100E+03 -1.460158E+04
       307  22  1.339174E+05  4.871960E+01  7.346836E+02  1.126161E+05 -1.483927E+03 -2.275952E+03
       307  23  1.339471E+05 -1.037375E+02 -2.569939E+02  1.027109E+05 -1.614842E+03 -8.988061E+03
       307  24  1.339087E+05 -4.770206E+02 -1.389199E+03  1.126162E+05 -1.746197E+03 -1.460259E+04
       307  25  1.671269E+05  7.780773E+03  6.191420E+03  1.127306E+05 -1.542770E+04 -2.278678E+03
       307  26  2.663643E+05  3.074591E+04  2.160536E+04  1.026869E+05 -1.345177E+04 -8.989858E+03
       307  27  3.659077E+05  5.385521E+04  3.834154E+04  1.124534E+05 -1.147601E+04 -1.460359E+04
       308   1 -1.621649E+05 -6.995097E+04 -5.342894E+04  1.121901E+05 -8.298153E+03  1.807866E+04
       308   2 -2.590436E+05 -9.616936E+04 -8.048293E+04  1.054207E+05  1.607880E+04  1.765588E+04
       308   3 -3.610740E+05 -1.304036E+05 -1.254111E+05  1.176721E+05  4.044930E+04  5.662930E+03
       308   4  1.336283E+05 -5.205202E+02 -2.078375E+03  1.124407E+05  1.989785E+03  1.807921E+04
       308   5  1.342666E+05 -2.247116E+03 -4.215593E+03  1.029305E+05  4.161715E+03  1.765420E+04
       308   6  1.336032E+05 -8.130536E+03 -8.803004E+03  1.124409E+05  6.331056E+03  5.662182E+03
       308   7  4.295074E+05  6.890526E+04  4.926953E+04  1.126915E+05  1.228248E+04  1.807977E+04
       308   8  5.277258E+05  9.166599E+04  7.204501E+04  1.004387E+05 -7.762754E+03  1.765262E+04
       308   9  6.285082E+05  1.141257E+05  1.077926E+05  1.072055E+05 -2.781423E+04  5.662011E+03
       308  10 -1.621650E+05 -6.995133E+04 -5.342969E+04  1.121902E+05  9.668196E-11  1.100349E-10
       308  11 -2.590440E+05 -9.616977E+04 -8.048400E+04  1.054205E+05  1.812701E-10  8.793177E-11
       308  12 -3.610758E+05 -1.304041E+05 -1.254143E+05  1.176720E+05  2.163219E-10  4.959036E-11
       308  13  1.336282E+05 -5.208723E+02 -2.078997E+03  1.124407E+05  1.036841E-10  9.920020E-11
       308  14  1.342665E+05 -2.247455E+03 -4.216211E+03  1.029305E+05  2.393103E-10  2.294791E-11
       308  15  1.336032E+05 -8.130581E+03 -8.803140E+03  1.124409E+05 -8.213176E-11  3.255305E-11
       308  16  4.295072E+05  6.890487E+04  4.926864E+04  1.126914E+05 -1.239800E-10  3.266254E-11
       308  17  5.277257E+05  9.166564E+04  7.204431E+04  1.004388E+05 -2.915156E-11  4.009449E-11
       308  18  6.285074E+05  1.141255E+05  1.077911E+05  1.072057E+05 -2.102461E-10  4.288231E-11
       308  19 -1.621649E+05 -6.995097E+04 -5.342894E+04  1.121901E+05  8.298153E+03 -1.807866E+04
       308  20 -2.590436E+05 -9.616936E+04 -8.048293E+04  1.054207E+05 -1.607880E+04 -1.765588E+04
       308  21 -3.610740E+05 -1.304036E+05 -1.254111E+05  1.176721E+05 -4.044930E+04 -5.662930E+03
       308  22  1.336283E+05 -5.205202E+02 -2.078375E+03  1.124407E+05 -1.989785E+03 -1.807921E+04
       308  23  1.342666E+05 -2.247116E+03 -4.215593E+03  1.029305E+05 -4.161715E+03 -1.765420E+04
       308  24  1.336032E+05 -8.130536E+03 -8.803004E+03  1.124409E+05 -6.331056E+03 -5.662182E+03
       308  25  4.295074E+05  6.890526E+04  4.926953E+04  1.126915E+05 -1.228248E+04 -1.807977E+04
       308  26  5.277258E+05  9.166599E+04  7.204501E+04  1.004387E+05  7.762754E+03 -1.765262E+04
       308  27  6.285082E+05  1.141257E+05  1.077926E+05  1.072055E+05  2.781423E+04 -5.662011E+03
       309   1  8.874205E+05  1.644830E+05  1.625023E+05  1.463802E+05  6.489209E+04 -5.641444E+03
       309   2  7.758326E+05  1.050696E+05  9.834830E+04  1.225538E+05  3.109352E+04 -1.744793E+04
       309   3  6.748705E+05  7.046983E+04  6.238210E+04  1.190951E+05 -2.695962E+03 -1.749312E+04
       309   4  3.853626E+05  4.047394E+04  4.413539E+04  1.201025E+05  3.088919E+04 -5.645025E+03
       309   5  3.820297E+05  1.104643E+04  2.177753E+04  1.099202E+05  1.970459E+04 -1.745027E+04
       309   6  3.853971E+05  2.519383E+03  1.192460E+04  1.201038E+05  8.522666E+03 -1.749226E+04
       309   7 -1.164598E+05 -8.354989E+04 -7.424422E+04  9.384623E+04 -3.086403E+03 -5.645734E+03
       309   8 -1.162399E+04 -8.298536E+04 -5.480001E+04  9.729477E+04  8.322712E+03 -1.745214E+04
       309   9  9.600605E+04 -6.543553E+04 -3.853538E+04  1.211119E+05  1.973623E+04 -1.749137E+04
       309  10  8.874160E+05  1.644818E+05  1.624944E+05  1.463805E+05  1.007293E-10 -2.800648E-11
       309  11  7.758315E+05  1.050690E+05  9.834591E+04  1.225543E+05 -2.923467E-10 -6.133044E-11
       309  12  6.748704E+05  7.046950E+04  6.238151E+04  1.190951E+05  4.196590E-11 -7.635732E-11
       309  13  3.853615E+05  4.047365E+04  4.413354E+04  1.201027E+05  8.836547E-11  8.710671E-12
       309  14  3.820292E+05  1.104600E+04  2.177623E+04  1.099205E+05 -1.386641E-10  5.148290E-12
       309  15  3.853970E+05  2.519035E+03  1.192389E+04  1.201039E+05  8.177142E-11 -7.087954E-11
       309  16 -1.164599E+05 -8.354993E+04 -7.424430E+04  9.384622E+04  2.541937E-11  2.517935E-11
       309  17 -1.162414E+04 -8.298571E+04 -5.480071E+04  9.729488E+04 -1.424054E-10  4.857501E-11
       309  18  9.600555E+04 -6.543596E+04 -3.853669E+04  1.211122E+05 -3.997853E-11 -8.533903E-11
       309  19  8.874205E+05  1.644830E+05  1.625023E+05  1.463802E+05 -6.489209E+04  5.641444E+03
       309  20  7.758326E+05  1.050696E+05  9.834830E+04  1.225538E+05 -3.109352E+04  1.744793E+04
       309  21  6.748705E+05  7.046983E+04  6.238210E+04  1.190951E+05  2.695962E+03  1.749312E+04
       309  22  3.853626E+05  4.047394E+04  4.413539E+04  1.201025E+05 -3.088919E+04  5.645025E+03
       309  23  3.820297E+05  1.104643E+04  2.177753E+04  1.099202E+05 -1.970459E+04  1.745027E+04
       309  24  3.853971E+05  2.519383E+03  1.192460E+04  1.201038E+05 -8.522666E+03  1.749226E+04
       309  25 -1.164598E+05 -8.354989E+04 -7.424422E+04  9.384623E+04  3.086403E+03  5.645734E+03
       309  26 -1.162399E+04 -8.298536E+04 -5.480001E+04  9.729477E+04 -8.322712E+03  1.745214E+04
       309  27  9.600605E+04 -6.543553E+04 -3.853538E+04  1.211119E+05 -1.973623E+04  1.749137E+04
       310   1  6.053520E+05  5.419489E+04  4.716149E+04  1.214072E+05 -3.676493E+03 -1.372990E+04
       310   2  4.986781E+05  2.732881E+04  2.421065E+04  1.101370E+05 -8.310901E+03 -7.636217E+03
       310   3  3.930633E+05  2.219960E+03  4.714831E+03  1.200230E+05 -1.294487E+04 -4.389185E+02
       310   4  3.840651E+05  2.336768E+03  9.033287E+03  1.202798E+05  6.971579E+03 -1.372857E+04
       310   5  3.837301E+05  5.149336E+02  5.031678E+03  1.097018E+05  4.457416E+03 -7.634102E+03
       310   6  3.840741E+05  8.282962E+01  3.013642E+03  1.202802E+05  1.942910E+03 -4.359124E+02
       310   7  1.628265E+05 -4.952392E+04 -2.909616E+04  1.191529E+05  1.761598E+04 -1.372728E+04
       310   8  2.687955E+05 -2.629955E+04 -1.414709E+04  1.092667E+05  1.722345E+04 -7.632005E+03
       310   9  3.750855E+05 -2.054186E+03  1.313281E+03  1.205373E+05  1.683048E+04 -4.328939E+02
       310  10  6.053519E+05  5.419469E+04  4.716111E+04  1.214072E+05 -4.034349E-11 -1.044550E-10
       310  11  4.986780E+05  2.732873E+04  2.421041E+04  1.101370E+05  4.985498E-11 -7.325712E-11
       310  12  3.930631E+05  2.219915E+03  4.714516E+03  1.200230E+05 -2.400709E-10 -3.182109E-11
       310  13  3.840650E+05  2.336552E+03  9.032841E+03  1.202799E+05  6.730903E-11 -1.061583E-10
       310  14  3.837301E+05  5.148657E+02  5.031531E+03  1.097019E+05  4.107260E-12 -1.009568E-10
       310  15  3.840741E+05  8.282841E+01  3.013634E+03  1.202802E+05 -6.558549E-11 -4.974209E-11
       310  16  1.628261E+05 -4.952420E+04 -2.909709E+04  1.191531E+05 -1.825900E-11 -8.317108E-11
       310  17  2.687952E+05 -2.629969E+04 -1.414776E+04  1.092668E+05  6.015693E-11 -1.490405E-10
       310  18  3.750852E+05 -2.054262E+03  1.312749E+03  1.205374E+05  3.348018E-10  4.491270E-11
       310  19  6.053520E+05  5.419489E+04  4.716149E+04  1.214072E+05  3.676493E+03  1.372990E+04
       310  20  4.986781E+05  2.732881E+04  2.421065E+04  1.101370E+05  8.310901E+03  7.636217E+03
       310  21  3.930633E+05  2.219960E+03  4.714831E+03  1.200230E+05  1.294487E+04  4.389185E+02
       310  22  3.840651E+05  2.336768E+03  9.033287E+03  1.202798E+05 -6.971579E+03  1.372857E+04
       310  23  3.837301E+05  5.149336E+02  5.031678E+03  1.097018E+05 -4.457416E+03  7.634102E+03
       310  24  3.840741E+05  8.282962E+01  3.013642E+03  1.202802E+05 -1.942910E+03  4.359124E+02
       310  25  1.628265E+05 -4.952392E+04 -2.909616E+04  1.191529E+05 -1.761598E+04  1.372728E+04
       310  26  2.687955E+05 -2.629955E+04 -1.414709E+04  1.092667E+05 -1.722345E+04  7.632005E+03
       310  27  3.750855E+05 -2.054186E+03  1.313281E+03  1.205373E+05 -1.683048E+04  4.328939E+02
       311   1  3.253257E+05 -1.352086E+04 -7.019962E+03  1.202112E+05 -1.341994E+04  4.171498E+03
       311   2  2.193057E+05 -3.825572E+04 -2.524792E+04  1.095637E+05 -1.191731E+04  1.131014E+04
       311   3  1.130649E+05 -6.315514E+04 -4.449469E+04  1.200655E+05 -1.041432E+04  1.721699E+04
       311   4  3.839626E+05  8.894996E+01  2.415329E+03  1.202785E+05  1.473019E+03  4.174439E+03
       311   5  3.838667E+05  4.263040E+01  1.737988E+03  1.097041E+05  6.089343E+02  1.131192E+04
       311   6  3.839510E+05  2.433392E+02  1.684915E+03  1.202785E+05 -2.545758E+02  1.721780E+04
       311   7  4.426035E+05  1.369871E+04  1.185136E+04  1.203458E+05  1.636733E+04  4.177382E+03
       311   8  5.484548E+05  3.833968E+04  2.872370E+04  1.098445E+05  1.313839E+04  1.131372E+04
       311   9  6.549095E+05  6.363798E+04  4.786249E+04  1.204916E+05  9.909461E+03  1.721862E+04
       311  10  3.253255E+05 -1.352093E+04 -7.020333E+03  1.202113E+05  1.915118E-10  1.454672E-10
       311  11  2.193055E+05 -3.825590E+04 -2.524843E+04  1.095638E+05 -6.290437E-11  5.188401E-11
       311  12  1.130647E+05 -6.315549E+04 -4.449545E+04  1.200656E+05 -1.855443E-10  3.071189E-11
       311  13  3.839626E+05  8.893067E+01  2.415292E+03  1.202785E+05  4.207709E-11  5.528045E-11
       311  14  3.838667E+05  4.249287E+01  1.737747E+03  1.097041E+05  8.739055E-11  5.268288E-11
       311  15  3.839510E+05  2.430208E+02  1.684357E+03  1.202785E+05  8.025113E-11  7.697692E-11
       311  16  4.426032E+05  1.369862E+04  1.185082E+04  1.203458E+05 -1.687072E-10  1.620944E-11
       311  17  5.484546E+05  3.833949E+04  2.872314E+04  1.098443E+05  6.833564E-11  2.107189E-11
       311  18  6.549094E+05  6.363763E+04  4.786175E+04  1.204915E+05  2.184397E-10  3.017621E-11
       311  19  3.253257E+05 -1.352086E+04 -7.019962E+03  1.202112E+05  1.341994E+04 -4.171498E+03
       311  20  2.193057E+05 -3.825572E+04 -2.524792E+04  1.095637E+05  1.191731E+04 -1.131014E+04
       311  21  1.130649E+05 -6.315514E+04 -4.449469E+04  1.200655E+05  1.041432E+04 -1.721699E+04
       311  22  3.839626E+05  8.894996E+01  2.415329E+03  1.202785E+05 -1.473019E+03 -4.174439E+03
       311  23  3.838667E+05  4.263040E+01  1.737988E+03  1.097041E+05 -6.089343E+02 -1.131192E+04
       311  24  3.839510E+05  2.433392E+02  1.684915E+03  1.202785E+05  2.545758E+02 -1.721780E+04
       311  25  4.426035E+05  1.369871E+04  1.185136E+04  1.203458E+05 -1.636733E+04 -4.177382E+03
       311  26  5.484548E+05  3.833968E+04  2.872370E+04  1.098445E+05 -1.313839E+04 -1.131372E+04
       311  27  6.549095E+05  6.363798E+04  4.786249E+04  1.204916E+05 -9.909461E+03 -1.721862E+04
       312   1  4.498149E+04 -7.927457E+04 -5.680381E+04  1.201414E+05 -1.131954E+04  2.088351E+04
       312   2 -5.953649E+04 -1.045363E+05 -8.296540E+04  1.084502E+05  1.198525E+04  2.007126E+04
       312   3 -1.675165E+05 -1.316538E+05 -1.247579E+05  1.170404E+05  3.528235E+04  6.394346E+03
       312   4  3.840843E+05  2.602933E+02  1.845838E+03  1.200855E+05 -5.348120E+02  2.088377E+04
       312   5  3.836612E+05  1.227126E+03  2.726662E+03  1.099452E+05 -1.926295E+03  2.006956E+04
       312   6  3.840528E+05  4.625972E+03  5.124691E+03  1.200855E+05 -3.321269E+03  6.395029E+03
       312   7  7.233001E+05  7.978904E+04  6.049195E+04  1.200296E+05  1.025562E+04  2.088402E+04
       312   8  8.270481E+05  1.069789E+05  8.841028E+04  1.114413E+05 -1.584755E+04  2.006780E+04
       312   9  9.359052E+05  1.408848E+05  1.349919E+05  1.231332E+05 -4.195899E+04  6.395336E+03
       312  10  4.498123E+04 -7.927508E+04 -5.680487E+04  1.201416E+05  4.878900E-11  7.187911E-11
       312  11 -5.953676E+04 -1.045367E+05 -8.296643E+04  1.084500E+05 -7.333191E-11  9.255765E-11
       312  12 -1.675178E+05 -1.316542E+05 -1.247603E+05  1.170402E+05 -1.385831E-10  6.359960E-11
       312  13  3.840842E+05  2.598248E+02  1.845017E+03  1.200855E+05 -1.172989E-10  2.183870E-11
       312  14  3.836611E+05  1.226693E+03  2.725898E+03  1.099452E+05  2.516249E-10 -7.432202E-11
       312  15  3.840528E+05  4.625925E+03  5.124593E+03  1.200855E+05  1.261814E-10 -8.862768E-11
       312  16  7.232999E+05  7.978854E+04  6.049094E+04  1.200294E+05  2.595626E-10  2.715124E-11
       312  17  8.270477E+05  1.069784E+05  8.840905E+04  1.114416E+05 -8.789987E-12 -1.209067E-10
       312  18  9.359033E+05  1.408843E+05  1.349885E+05  1.231334E+05  5.172131E-10 -1.690746E-10
       312  19  4.498149E+04 -7.927457E+04 -5.680381E+04  1.201414E+05  1.131954E+04 -2.088351E+04
       312  20 -5.953649E+04 -1.045363E+05 -8.296540E+04  1.084502E+05 -1.198525E+04 -2.007126E+04
       312  21 -1.675165E+05 -1.316538E+05 -1.247579E+05  1.170404E+05 -3.528235E+04 -6.394346E+03
       312  22  3.840843E+05  2.602933E+02  1.845838E+03  1.200855E+05  5.348120E+02 -2.088377E+04
       312  23  3.836612E+05  1.227126E+03  2.726662E+03  1.099452E+05  1.926295E+03 -2.006956E+04
       312  24  3.840528E+05  4.625972E+03  5.124691E+03  1.200855E+05  3.321269E+03 -6.395029E+03
       312  25  7.233001E+05  7.978904E+04  6.049195E+04  1.200296E+05 -1.025562E+04 -2.088402E+04
       312  26  8.270481E+05  1.069789E+05  8.841028E+04  1.114413E+05  1.584755E+04 -2.006780E+04
       312  27  9.359052E+05  1.408848E+05  1.349919E+05  1.231332E+05  4.195899E+04 -6.395336E+03
       313   1  1.228324E+06  1.974846E+05  1.971293E+05  1.860313E+05  8.141908E+04 -5.996080E+03
       313   2  1.091442E+06  1.173911E+05  1.161359E+05  1.531482E+05  3.913187E+04 -1.819799E+04
       313   3  9.690091E+05  7.295989E+04  7.155275E+04  1.452125E+05 -3.141502E+03 -1.734519E+04
       313   4  6.743326E+05  6.064101E+04  6.628564E+04  1.465346E+05  4.539460E+04 -6.002313E+03
       313   5  6.693153E+05  1.651487E+04  3.346520E+04  1.340634E+05  2.822144E+04 -1.820103E+04
       313   6  6.743872E+05  3.710545E+03  1.964861E+04  1.465358E+05  1.105207E+04 -1.734373E+04
       313   7  1.206294E+05 -7.621795E+04 -6.457354E+04  1.070732E+05  9.402026E+03 -6.003976E+03
       313   8  2.473603E+05 -8.437062E+04 -4.921342E+04  1.149919E+05  1.731824E+04 -1.820340E+04
       313   9  3.798504E+05 -6.554342E+04 -3.225795E+04  1.478585E+05  2.523910E+04 -1.734222E+04
       313  10  1.228317E+06  1.974828E+05  1.971168E+05  1.860316E+05 -6.285413E-11 -3.310457E-11
       313  11  1.091440E+06  1.173903E+05  1.161324E+05  1.531488E+05  1.412852E-10 -2.252269E-11
       313  12  9.690090E+05  7.295956E+04  7.155216E+04  1.452124E+05 -1.551975E-10  2.449608E-10
       313  13  6.743304E+05  6.064042E+04  6.628171E+04  1.465348E+05 -2.087585E-10  1.138658E-10
       313  14  6.693144E+05  1.651430E+04  3.346308E+04  1.340638E+05 -1.374879E-10  7.169137E-11
       313  15  6.743869E+05  3.710189E+03  1.964781E+04  1.465359E+05  2.960033E-10  2.280660E-10
       313  16  1.206293E+05 -7.621801E+04 -6.457377E+04  1.070733E+05 -3.087700E-11  1.242722E-11
       313  17  2.473599E+05 -8.437105E+04 -4.921461E+04  1.149921E+05 -1.070302E-10  1.437889E-10
       313  18  3.798496E+05 -6.554392E+04 -3.225971E+04  1.478588E+05  2.169681E-10  1.111100E-10
       313  19  1.228324E+06  1.974846E+05  1.971293E+05  1.860313E+05 -8.141908E+04  5.996080E+03
       313  20  1.091442E+06  1.173911E+05  1.161359E+05  1.531482E+05 -3.913187E+04  1.819799E+04
       313  21  9.690091E+05  7.295989E+04  7.155275E+04  1.452125E+05  3.141502E+03  1.734519E+04
       313  22  6.743326E+05  6.064101E+04  6.628564E+04  1.465346E+05 -4.539460E+04  6.002313E+03
       313  23  6.693153E+05  1.651487E+04  3.346520E+04  1.340634E+05 -2.822144E+04  1.820103E+04
       313  24  6.743872E+05  3.710545E+03  1.964861E+04  1.465358E+05 -1.105207E+04  1.734373E+04
       313  25  1.206294E+05 -7.621795E+04 -6.457354E+04  1.070732E+05 -9.402026E+03  6.003976E+03
       313  26  2.473603E+05 -8.437062E+04 -4.921342E+04  1.149919E+05 -1.731824E+04  1.820340E+04
       313  27  3.798504E+05 -6.554342E+04 -3.225795E+04  1.478585E+05 -2.523910E+04  1.734222E+04
       314   1  8.839689E+05  5.308100E+04  5.300306E+04  1.486799E+05 -5.214756E+03 -1.264068E+04
       314   2  7.535823E+05  1.986072E+04  2.613517E+04  1.347746E+05 -1.345470E+04 -4.987224E+03
       314   3  6.249899E+05 -1.055788E+04  5.327559E+03  1.466843E+05 -2.169339E+04  3.861241E+03
       314   4  6.724589E+05  3.410011E+03  1.597299E+04  1.467302E+05  8.347684E+03 -1.263863E+04
       314   5  6.717721E+05  6.706821E+02  1.193011E+04  1.338229E+05  2.404514E+03 -4.984396E+03
       314   6  6.724672E+05  3.362266E+02  1.235513E+04  1.467305E+05 -3.538967E+03  3.864918E+03
       314   7  4.609931E+05 -4.626329E+04 -2.105800E+04  1.447813E+05  2.190565E+04 -1.263666E+04
       314   8  5.899691E+05 -1.851958E+04 -2.274232E+03  1.328712E+05  1.826171E+04 -4.981616E+03
       314   9  7.199474E+05  1.123040E+04  1.938389E+04  1.467767E+05  1.461678E+04  3.868598E+03
       314  10  8.839688E+05  5.308082E+04  5.300271E+04  1.486798E+05 -1.220786E-10  2.419174E-10
       314  11  7.535821E+05  1.986065E+04  2.613478E+04  1.347746E+05  1.320396E-10  1.414806E-10
       314  12  6.249894E+05 -1.055802E+04  5.326648E+03  1.466844E+05 -1.633109E-10  3.757774E-11
       314  13  6.724588E+05  3.409821E+03  1.597256E+04  1.467303E+05  2.502735E-10  2.436151E-10
       314  14  6.717721E+05  6.706539E+02  1.193006E+04  1.338229E+05  3.402453E-10  1.588644E-10
       314  15  6.724671E+05  3.362072E+02  1.235507E+04  1.467305E+05 -1.049065E-10 -3.608531E-11
       314  16  4.609925E+05 -4.626359E+04 -2.105920E+04  1.447815E+05 -1.483363E-10  3.653783E-11
       314  17  5.899687E+05 -1.851970E+04 -2.274904E+03  1.328713E+05  3.030321E-10  1.244806E-10
       314  18  7.199472E+05  1.123033E+04  1.938346E+04  1.467766E+05  2.986070E-10 -5.570349E-11
       314  19  8.839689E+05  5.308100E+04  5.300306E+04  1.486799E+05  5.214756E+03  1.264068E+04
       314  20  7.535823E+05  1.986072E+04  2.613517E+04  1.347746E+05  1.345470E+04  4.987224E+03
       314  21  6.249899E+05 -1.055788E+04  5.327559E+03  1.466843E+05  2.169339E+04 -3.861241E+03
       314  22  6.724589E+05  3.410011E+03  1.597299E+04  1.467302E+05 -8.347684E+03  1.263863E+04
       314  23  6.717721E+05  6.706821E+02  1.193011E+04  1.338229E+05 -2.404514E+03  4.984396E+03
       314  24  6.724672E+05  3.362266E+02  1.235513E+04  1.467305E+05  3.538967E+03 -3.864918E+03
       314  25  4.609931E+05 -4.626329E+04 -2.105800E+04  1.447813E+05 -2.190565E+04  1.263666E+04
       314  26  5.899691E+05 -1.851958E+04 -2.274232E+03  1.328712E+05 -1.826171E+04  4.981616E+03
       314  27  7.199474E+05  1.123040E+04  1.938389E+04  1.467767E+05 -1.461678E+04 -3.868598E+03
       315   1  5.428017E+05 -2.978439E+04 -6.615815E+03  1.476334E+05 -2.398973E+04  9.483586E+03
       315   2  4.121999E+05 -5.829641E+04 -2.116284E+04  1.320622E+05 -3.126589E+04  1.811689E+04
       315   3  2.838232E+05 -8.182839E+04 -2.972598E+04  1.422835E+05 -3.853965E+04  2.509724E+04
       315   4  6.727701E+05  3.128743E+02  1.399228E+04  1.467252E+05 -5.816013E+03  9.486995E+03
       315   5  6.713775E+05  1.928629E+03  2.093831E+04  1.338290E+05 -1.627313E+04  1.811826E+04
       315   6  6.727424E+05  9.075046E+03  3.607201E+04  1.467240E+05 -2.672928E+04  2.509687E+04
       315   7  8.027560E+05  3.040948E+04  3.460119E+04  1.458167E+05  1.236136E+04  9.490350E+03
       315   8  9.306221E+05  6.215039E+04  6.303844E+04  1.355965E+05 -1.274323E+03  1.811971E+04
       315   9  1.061811E+06  9.997066E+04  1.018657E+05  1.511673E+05 -1.491174E+04  2.509667E+04
       315  10  5.428010E+05 -2.978464E+04 -6.617065E+03  1.476336E+05  1.473307E-10  1.074656E-10
       315  11  4.121987E+05 -5.829703E+04 -2.116529E+04  1.320627E+05  5.991980E-11 -2.142358E-10
       315  12  2.838214E+05 -8.182947E+04 -2.972996E+04  1.422843E+05  2.053565E-10 -4.720180E-10
       315  13  6.727700E+05  3.127686E+02  1.399205E+04  1.467252E+05  8.336924E-16 -5.430409E-11
       315  14  6.713771E+05  1.928205E+03  2.093720E+04  1.338292E+05  2.019504E-10 -2.327444E-10
       315  15  6.727415E+05  9.074178E+03  3.606949E+04  1.467246E+05 -6.693246E-11 -4.458125E-10
       315  16  8.027558E+05  3.040934E+04  3.460073E+04  1.458166E+05  1.020693E-10 -1.430678E-10
       315  17  9.306220E+05  6.215004E+04  6.303782E+04  1.355965E+05  4.878947E-11 -2.572406E-10
       315  18  1.061810E+06  9.996993E+04  1.018641E+05  1.511677E+05  1.450934E-10 -4.495866E-10
       315  19  5.428017E+05 -2.978439E+04 -6.615815E+03  1.476334E+05  2.398973E+04 -9.483586E+03
       315  20  4.121999E+05 -5.829641E+04 -2.116284E+04  1.320622E+05  3.126589E+04 -1.811689E+04
       315  21  2.838232E+05 -8.182839E+04 -2.972598E+04  1.422835E+05  3.853965E+04 -2.509724E+04
       315  22  6.727701E+05  3.128743E+02  1.399228E+04  1.467252E+05  5.816013E+03 -9.486995E+03
       315  23  6.713775E+05  1.928629E+03  2.093831E+04  1.338290E+05  1.627313E+04 -1.811826E+04
       315  24  6.727424E+05  9.075046E+03  3.607201E+04  1.467240E+05  2.672928E+04 -2.509687E+04
       315  25  8.027560E+05  3.040948E+04  3.460119E+04  1.458167E+05 -1.236136E+04 -9.490350E+03
       315  26  9.306221E+05  6.215039E+04  6.303844E+04  1.355965E+05  1.274323E+03 -1.811971E+04
       315  27  1.061811E+06  9.997066E+04  1.018657E+05  1.511673E+05  1.491174E+04 -2.509667E+04
       316   1  2.057285E+05 -1.008153E+05 -3.395541E+04  1.504291E+05 -4.553940E+04  2.945214E+04
       316   2  6.571351E+04 -9.952222E+04 -2.968726E+04  8.469254E+04 -5.686412E+04  2.756039E+04
       316   3 -5.368511E+04 -2.198642E+04  1.028050E+03  4.364644E+04 -6.819164E+04  8.700412E+03
       316   4  6.779468E+05  9.817644E+03  4.721764E+04  1.464731E+05 -3.291057E+04  2.945133E+04
       316   5  6.647851E+05  4.328371E+04  8.557228E+04  1.341377E+05 -7.684967E+04  2.755433E+04
       316   6  6.778464E+05  1.585983E+05  1.729881E+05  1.464825E+05 -1.207956E+05  8.694687E+03
       316   7  1.150384E+06  1.204388E+05  1.283838E+05  1.425140E+05 -2.027242E+04  2.945036E+04
       316   8  1.264208E+06  1.860778E+05  2.008181E+05  1.836316E+05 -9.685403E+04  2.754510E+04
       316   9  1.409899E+06  3.391861E+05  3.449275E+05  2.494405E+05 -1.734611E+05  8.671555E+03
       316  10  2.057260E+05 -1.008168E+05 -3.396094E+04  1.504302E+05 -4.146288E-12 -6.010777E-10
       316  11  6.570983E+04 -9.952391E+04 -2.969476E+04  8.469380E+04  1.253112E-11 -5.717024E-10
       316  12 -5.369012E+04 -2.198775E+04  1.019168E+03  4.364691E+04 -4.612159E-10 -3.255479E-10
       316  13  6.779454E+05  9.816422E+03  4.721398E+04  1.464739E+05 -4.618918E-10 -4.643572E-10
       316  14  6.647786E+05  4.328131E+04  8.555977E+04  1.341394E+05  1.516257E-10 -4.913483E-10
       316  15  6.778307E+05  1.585943E+05  1.729606E+05  1.464834E+05 -3.490945E-11 -4.488668E-11
       316  16  1.150384E+06  1.204377E+05  1.283813E+05  1.425145E+05  2.273663E-11 -4.817137E-10
       316  17  1.264198E+06  1.860745E+05  2.007990E+05  1.836337E+05 -1.130134E-10 -2.700831E-10
       316  18  1.409867E+06  3.391779E+05  3.448709E+05  2.494417E+05  9.805564E-10 -2.070895E-10
       316  19  2.057285E+05 -1.008153E+05 -3.395541E+04  1.504291E+05  4.553940E+04 -2.945214E+04
       316  20  6.571351E+04 -9.952222E+04 -2.968726E+04  8.469254E+04  5.686412E+04 -2.756039E+04
       316  21 -5.368511E+04 -2.198642E+04  1.028050E+03  4.364644E+04  6.819164E+04 -8.700412E+03
       316  22  6.779468E+05  9.817644E+03  4.721764E+04  1.464731E+05  3.291057E+04 -2.945133E+04
       316  23  6.647851E+05  4.328371E+04  8.557228E+04  1.341377E+05  7.684967E+04 -2.755433E+04
       316  24  6.778464E+05  1.585983E+05  1.729881E+05  1.464825E+05  1.207956E+05 -8.694687E+03
       316  25  1.150384E+06  1.204388E+05  1.283838E+05  1.425140E+05  2.027242E+04 -2.945036E+04
       316  26  1.264208E+06  1.860778E+05  2.008181E+05  1.836316E+05  9.685403E+04 -2.754510E+04
       316  27  1.409899E+06  3.391861E+05  3.449275E+05  2.494405E+05  1.734611E+05 -8.671555E+03
       317   1 -5.718416E+05 -5.092512E+04 -7.592491E+04 -3.072952E+04 -1.046323E+05 -7.290377E+03
       317   2 -6.431875E+05  6.564752E+04 -1.033823E+04  2.736098E+04 -7.626708E+04 -2.377387E+04
       317   3 -7.423498E+05  8.555189E+04  1.261156E+04  1.014566E+05 -4.790173E+04 -2.669580E+04
       317   4 -1.159790E+06 -1.963292E+05 -2.138998E+05  9.656182E+04 -1.491357E+05 -7.303107E+03
       317   5 -1.143535E+06 -5.364832E+04 -1.058192E+05  8.856972E+04 -9.480191E+04 -2.378053E+04
       317   6 -1.159657E+06 -1.221127E+04 -5.845889E+04  9.658719E+04 -4.046119E+04 -2.669740E+04
       317   7 -1.747380E+06 -3.416960E+05 -3.518823E+05  2.237317E+05 -1.935971E+05 -7.334126E+03
       317   8 -1.643633E+06 -1.729447E+05 -2.013082E+05  1.497279E+05 -1.133221E+05 -2.379085E+04
       317   9 -1.576791E+06 -1.099836E+05 -1.295348E+05  9.172114E+04 -3.302550E+04 -2.669911E+04
       317  10 -5.718534E+05 -5.092812E+04 -7.594560E+04 -3.073013E+04 -3.191002E-10  3.267593E-10
       317  11 -6.431939E+05  6.564535E+04 -1.035023E+04  2.735952E+04  2.005009E-10 -2.006465E-10
       317  12 -7.423525E+05  8.555051E+04  1.260590E+04  1.014556E+05  1.726487E-09 -2.147369E-10
       317  13 -1.159814E+06 -1.963353E+05 -2.139418E+05  9.656094E+04 -4.123329E-10 -2.022480E-10
       317  14 -1.143545E+06 -5.365135E+04 -1.058372E+05  8.856790E+04 -2.267385E-10 -6.255043E-11
       317  15 -1.159658E+06 -1.221247E+04 -5.846331E+04  9.658631E+04  4.932311E-10 -2.335434E-10
       317  16 -1.747420E+06 -3.417062E+05 -3.519530E+05  2.237306E+05 -4.022988E-11 -9.674356E-11
       317  17 -1.643647E+06 -1.729487E+05 -2.013335E+05  1.497257E+05 -9.390341E-10 -5.997425E-11
       317  18 -1.576793E+06 -1.099846E+05 -1.295382E+05  9.172043E+04 -2.195765E-09 -6.435841E-10
       317  19 -5.718416E+05 -5.092512E+04 -7.592491E+04 -3.072952E+04  1.046323E+05  7.290377E+03
       317  20 -6.431875E+05  6.564752E+04 -1.033823E+04  2.736098E+04  7.626708E+04  2.377387E+04
       317  21 -7.423498E+05  8.555189E+04  1.261156E+04  1.014566E+05  4.790173E+04  2.669580E+04
       317  22 -1.159790E+06 -1.963292E+05 -2.138998E+05  9.656182E+04  1.491357E+05  7.303107E+03
       317  23 -1.143535E+06 -5.364832E+04 -1.058192E+05  8.856972E+04  9.480191E+04  2.378053E+04
       317  24 -1.159657E+06 -1.221127E+04 -5.845889E+04  9.658719E+04  4.046119E+04  2.669740E+04
       317  25 -1.747380E+06 -3.416960E+05 -3.518823E+05  2.237317E+05  1.935971E+05  7.334126E+03
       317  26 -1.643633E+06 -1.729447E+05 -2.013082E+05  1.497279E+05  1.133221E+05  2.379085E+04
       317  27 -1.576791E+06 -1.099836E+05 -1.295348E+05  9.172114E+04  3.302550E+04  2.669911E+04
       318   1 -7.909557E+05  7.338084E+04  1.589646E+04  9.129246E+04 -3.958914E+04 -2.402831E+04
       318   2 -8.748464E+05  6.188714E+04  1.829825E+04  8.610349E+04 -2.914111E+04 -1.982104E+04
       318   3 -9.616785E+05  4.398958E+04  1.229535E+04  9.791538E+04 -1.869500E+04 -1.424666E+04
       318   4 -1.153217E+06 -1.127748E+04 -4.473570E+04  9.680200E+04 -3.281680E+04 -2.403001E+04
       318   5 -1.151501E+06 -2.400936E+03 -2.617162E+04  8.830089E+04 -1.975417E+04 -1.982171E+04
       318   6 -1.153190E+06 -3.849487E+02 -1.783501E+04  9.680162E+04 -6.692084E+03 -1.424609E+04
       318   7 -1.515349E+06 -9.594254E+04 -1.053717E+05  1.023082E+05 -2.604828E+04 -2.403159E+04
       318   8 -1.428079E+06 -6.669281E+04 -7.064321E+04  9.049727E+04 -1.037127E+04 -1.982231E+04
       318   9 -1.344665E+06 -4.476121E+04 -4.796572E+04  9.568820E+04  5.307260E+03 -1.424556E+04
       318  10 -7.909576E+05  7.337980E+04  1.589242E+04  9.129169E+04 -4.524610E-11 -3.253894E-10
       318  11 -8.748474E+05  6.188649E+04  1.829592E+04  8.610302E+04 -9.517407E-11 -8.809377E-11
       318  12 -9.616789E+05  4.398927E+04  1.229431E+04  9.791516E+04  2.445482E-10  3.535221E-10
       318  13 -1.153219E+06 -1.127839E+04 -4.473881E+04  9.680136E+04 -4.142807E-10 -5.387867E-10
       318  14 -1.151501E+06 -2.401463E+03 -2.617309E+04  8.830058E+04 -5.033576E-10 -6.145353E-11
       318  15 -1.153191E+06 -3.851786E+02 -1.783547E+04  9.680154E+04  4.343872E-10  2.082711E-10
       318  16 -1.515350E+06 -9.594334E+04 -1.053741E+05  1.023077E+05  3.062004E-10 -4.974147E-10
       318  17 -1.428079E+06 -6.669326E+04 -7.064415E+04  9.049711E+04 -3.789645E-10  7.402861E-11
       318  18 -1.344665E+06 -4.476144E+04 -4.796615E+04  9.568827E+04  2.409676E-11  3.779254E-11
       318  19 -7.909557E+05  7.338084E+04  1.589646E+04  9.129246E+04  3.958914E+04  2.402831E+04
       318  20 -8.748464E+05  6.188714E+04  1.829825E+04  8.610349E+04  2.914111E+04  1.982104E+04
       318  21 -9.616785E+05  4.398958E+04  1.229535E+04  9.791538E+04  1.869500E+04  1.424666E+04
       318  22 -1.153217E+06 -1.127748E+04 -4.473570E+04  9.680200E+04  3.281680E+04  2.403001E+04
       318  23 -1.151501E+06 -2.400936E+03 -2.617162E+04  8.830089E+04  1.975417E+04  1.982171E+04
       318  24 -1.153190E+06 -3.849487E+02 -1.783501E+04  9.680162E+04  6.692084E+03  1.424609E+04
       318  25 -1.515349E+06 -9.594254E+04 -1.053717E+05  1.023082E+05  2.604828E+04  2.403159E+04
       318  26 -1.428079E+06 -6.669281E+04 -7.064321E+04  9.049727E+04  1.037127E+04  1.982231E+04
       318  27 -1.344665E+06 -4.476121E+04 -4.796572E+04  9.568820E+04 -5.307260E+03  1.424556E+04
       319   1 -1.015776E+06  3.127579E+04  5.151695E+03  9.669001E+04 -1.574143E+04 -1.052995E+04
       319   2 -1.100178E+06  1.087128E+04 -8.791865E+03  8.956207E+04 -6.753879E+03 -4.546916E+03
       319   3 -1.186619E+06 -1.305522E+04 -2.947338E+04  9.950326E+04  2.232076E+03  9.203375E+02
       319   4 -1.152847E+06 -4.021764E+02 -1.599864E+04  9.681650E+04 -3.774773E+03 -1.052904E+04
       319   5 -1.151909E+06 -9.419850E+02 -1.605883E+04  8.828185E+04  4.221924E+03 -4.545877E+03
       319   6 -1.152847E+06 -4.831766E+03 -2.216908E+04  9.681661E+04  1.221820E+04  9.214441E+02
       319   7 -1.289898E+06 -3.208098E+04 -3.714887E+04  9.694295E+04  8.189338E+03 -1.052812E+04
       319   8 -1.203637E+06 -1.275530E+04 -2.332538E+04  8.700173E+04  1.519685E+04 -4.544883E+03
       319   9 -1.119074E+06  3.391689E+03 -1.486447E+04  9.412981E+04  2.220485E+04  9.224640E+02
       319  10 -1.015777E+06  3.127561E+04  5.151020E+03  9.668988E+04  6.452436E-10  4.490671E-10
       319  11 -1.100178E+06  1.087124E+04 -8.791990E+03  8.956205E+04  1.188817E-09  3.348311E-10
       319  12 -1.186619E+06 -1.305522E+04 -2.947339E+04  9.950326E+04  1.571453E-10  2.959510E-10
       319  13 -1.152847E+06 -4.022992E+02 -1.599888E+04  9.681647E+04  4.320149E-10  1.432829E-10
       319  14 -1.151909E+06 -9.420120E+02 -1.605891E+04  8.828186E+04 -5.342743E-11  1.475468E-10
       319  15 -1.152847E+06 -4.831807E+03 -2.216936E+04  9.681660E+04  8.504214E-10 -4.711055E-11
       319  16 -1.289899E+06 -3.208112E+04 -3.714920E+04  9.694302E+04  9.636176E-11 -8.501428E-11
       319  17 -1.203637E+06 -1.275538E+04 -2.332586E+04  8.700179E+04  2.289415E-10 -1.684824E-10
       319  18 -1.119075E+06  3.391555E+03 -1.486540E+04  9.412979E+04 -8.067129E-11 -1.623753E-10
       319  19 -1.015776E+06  3.127579E+04  5.151695E+03  9.669001E+04  1.574143E+04  1.052995E+04
       319  20 -1.100178E+06  1.087128E+04 -8.791865E+03  8.956207E+04  6.753879E+03  4.546916E+03
       319  21 -1.186619E+06 -1.305522E+04 -2.947338E+04  9.950326E+04 -2.232076E+03 -9.203375E+02
       319  22 -1.152847E+06 -4.021764E+02 -1.599864E+04  9.681650E+04  3.774773E+03  1.052904E+04
       319  23 -1.151909E+06 -9.419850E+02 -1.605883E+04  8.828185E+04 -4.221924E+03  4.545877E+03
       319  24 -1.152847E+06 -4.831766E+03 -2.216908E+04  9.681661E+04 -1.221820E+04 -9.214441E+02
       319  25 -1.289898E+06 -3.208098E+04 -3.714887E+04  9.694295E+04 -8.189338E+03  1.052812E+04
       319  26 -1.203637E+06 -1.275530E+04 -2.332538E+04  8.700173E+04 -1.519685E+04  4.544883E+03
       319  27 -1.119074E+06  3.391689E+03 -1.486447E+04  9.412981E+04 -2.220485E+04 -9.224640E+02
       320   1 -1.244069E+06 -2.634965E+04 -4.435280E+04  9.476760E+04  5.676609E+03  4.243043E+03
       320   2 -1.321333E+06 -6.512261E+04 -8.250724E+04  1.153801E+05  4.202596E+04  6.463317E+03
       320   3 -1.414974E+06 -1.504559E+05 -1.560010E+05  1.526231E+05  7.836962E+04  2.383597E+03
       320   4 -1.155601E+06 -5.262742E+03 -2.750810E+04  9.672037E+04  1.596731E+04  4.244104E+03
       320   5 -1.148491E+06 -2.347000E+04 -4.730769E+04  8.840402E+04  4.023911E+04  6.461216E+03
       320   6 -1.155657E+06 -8.613186E+04 -9.404164E+04  9.672204E+04  6.451037E+04  2.375749E+03
       320   7 -1.067126E+06  1.582377E+04 -1.066336E+04  9.867343E+04  2.625945E+04  4.245229E+03
       320   8 -9.756187E+05  1.818348E+04 -1.210931E+04  6.142029E+04  3.845176E+04  6.459270E+03
       320   9 -8.962709E+05 -2.180077E+04 -3.208461E+04  4.079749E+04  5.064534E+04  2.370404E+03
       320  10 -1.244069E+06 -2.634968E+04 -4.435290E+04  9.476758E+04 -2.651615E-10  1.787063E-10
       320  11 -1.321335E+06 -6.512313E+04 -8.251064E+04  1.153799E+05  3.120050E-10  1.037542E-10
       320  12 -1.414980E+06 -1.504576E+05 -1.560126E+05  1.526229E+05  6.602957E-10  7.112220E-12
       320  13 -1.155602E+06 -5.262830E+03 -2.750862E+04  9.672032E+04 -8.407917E-11  9.875701E-11
       320  14 -1.148493E+06 -2.347048E+04 -4.731082E+04  8.840381E+04  3.835860E-10  2.052563E-10
       320  15 -1.155661E+06 -8.613298E+04 -9.404948E+04  9.672192E+04 -4.875627E-10  4.419348E-11
       320  16 -1.067126E+06  1.582357E+04 -1.066469E+04  9.867334E+04  3.175387E-11  6.244010E-12
       320  17 -9.756203E+05  1.818304E+04 -1.211217E+04  6.142009E+04  1.032554E-10  2.684094E-10
       320  18 -8.962736E+05 -2.180146E+04 -3.208945E+04  4.079739E+04 -3.190588E-10  6.779802E-11
       320  19 -1.244069E+06 -2.634965E+04 -4.435280E+04  9.476760E+04 -5.676609E+03 -4.243043E+03
       320  20 -1.321333E+06 -6.512261E+04 -8.250724E+04  1.153801E+05 -4.202596E+04 -6.463317E+03
       320  21 -1.414974E+06 -1.504559E+05 -1.560010E+05  1.526231E+05 -7.836962E+04 -2.383597E+03
       320  22 -1.155601E+06 -5.262742E+03 -2.750810E+04  9.672037E+04 -1.596731E+04 -4.244104E+03
       320  23 -1.148491E+06 -2.347000E+04 -4.730769E+04  8.840402E+04 -4.023911E+04 -6.461216E+03
       320  24 -1.155657E+06 -8.613186E+04 -9.404164E+04  9.672204E+04 -6.451037E+04 -2.375749E+03
       320  25 -1.067126E+06  1.582377E+04 -1.066336E+04  9.867343E+04 -2.625945E+04 -4.245229E+03
       320  26 -9.756187E+05  1.818348E+04 -1.210931E+04  6.142029E+04 -3.845176E+04 -6.459270E+03
       320  27 -8.962709E+05 -2.180077E+04 -3.208461E+04  4.079749E+04 -5.064534E+04 -2.370404E+03
       321   1 -4.198003E+05  8.449517E+04  7.322458E+04  2.915859E+04  8.241074E+03 -7.048032E+03
       321   2 -4.705296E+05  1.004154E+05  6.426311E+04  3.995541E+04 -1.867047E+03 -2.349310E+04
       321   3 -5.248852E+05  9.647299E+04  5.692447E+04  6.033638E+04 -1.197261E+04 -2.789581E+04
       321   4 -9.498017E+05 -4.634615E+04 -5.056622E+04  5.922354E+04 -3.485414E+04 -7.048166E+03
       321   5 -9.459587E+05 -1.266048E+04 -2.532187E+04  5.442894E+04 -2.185709E+04 -2.349616E+04
       321   6 -9.497654E+05 -2.861748E+03 -1.451711E+04  5.921940E+04 -8.858028E+03 -2.789705E+04
       321   7 -1.479538E+06 -1.772030E+05 -1.743686E+05  8.926263E+04 -7.791278E+04 -7.052479E+03
       321   8 -1.421168E+06 -1.257485E+05 -1.149151E+05  6.889108E+04 -4.183218E+04 -2.350016E+04
       321   9 -1.374467E+06 -1.022060E+05 -8.596433E+04  5.810319E+04 -5.745504E+03 -2.789831E+04
       321  10 -4.198003E+05  8.449510E+04  7.322436E+04  2.915864E+04  5.620606E-11  1.154644E-10
       321  11 -4.705297E+05  1.004148E+05  6.426206E+04  3.995538E+04 -4.993553E-10  9.341919E-11
       321  12 -5.248855E+05  9.647211E+04  5.692274E+04  6.033611E+04 -1.427956E-11 -7.785369E-11
       321  13 -9.498031E+05 -4.634653E+04 -5.056860E+04  5.922335E+04 -8.465832E-10 -1.181987E-10
       321  14 -9.459594E+05 -1.266120E+04 -2.532380E+04  5.442852E+04 -6.344637E-10  1.504524E-10
       321  15 -9.497657E+05 -2.862604E+03 -1.451872E+04  5.921920E+04 -2.067147E-10  8.904457E-11
       321  16 -1.479545E+06 -1.772047E+05 -1.743802E+05  8.926219E+04 -5.805459E-10 -2.919099E-11
       321  17 -1.421170E+06 -1.257496E+05 -1.149195E+05  6.889029E+04  1.338347E-10 -3.448630E-11
       321  18 -1.374468E+06 -1.022068E+05 -8.596586E+04  5.810306E+04  2.847334E-10  4.981611E-11
       321  19 -4.198003E+05  8.449517E+04  7.322458E+04  2.915859E+04 -8.241074E+03  7.048032E+03
       321  20 -4.705296E+05  1.004154E+05  6.426311E+04  3.995541E+04  1.867047E+03  2.349310E+04
       321  21 -5.248852E+05  9.647299E+04  5.692447E+04  6.033638E+04  1.197261E+04  2.789581E+04
       321  22 -9.498017E+05 -4.634615E+04 -5.056622E+04  5.922354E+04  3.485414E+04  7.048166E+03
       321  23 -9.459587E+05 -1.266048E+04 -2.532187E+04  5.442894E+04  2.185709E+04  2.349616E+04
       321  24 -9.497654E+05 -2.861748E+03 -1.451711E+04  5.921940E+04  8.858028E+03  2.789705E+04
       321  25 -1.479538E+06 -1.772030E+05 -1.743686E+05  8.926263E+04  7.791278E+04  7.052479E+03
       321  26 -1.421168E+06 -1.257485E+05 -1.149151E+05  6.889108E+04  4.183218E+04  2.350016E+04
       321  27 -1.374467E+06 -1.022060E+05 -8.596433E+04  5.810319E+04  5.745504E+03  2.789831E+04
       322   1 -5.574949E+05  8.850376E+04  5.300695E+04  5.805343E+04 -9.425211E+03 -2.658538E+04
       322   2 -6.098371E+05  7.788094E+04  4.583018E+04  5.359995E+04 -7.912095E+03 -2.463320E+04
       322   3 -6.626962E+05  6.594063E+04  3.734029E+04  5.959161E+04 -6.399950E+03 -2.140526E+04
       322   4 -9.482717E+05 -2.626627E+03 -1.154122E+04  5.941046E+04 -6.900762E+03 -2.658646E+04
       322   5 -9.477919E+05 -5.239109E+02 -7.944364E+03  5.418735E+04 -2.941996E+03 -2.463326E+04
       322   6 -9.482582E+05 -1.643250E+02 -7.361792E+03  5.940980E+04  1.015889E+03 -2.140395E+04
       322   7 -1.338897E+06 -9.376490E+04 -7.609388E+04  6.076660E+04 -4.377849E+03 -2.658753E+04
       322   8 -1.285633E+06 -7.893446E+04 -6.172174E+04  5.477440E+04  2.025495E+03 -2.463332E+04
       322   9 -1.233739E+06 -6.627327E+04 -5.206562E+04  5.922807E+04  8.428442E+03 -2.140265E+04
       322  10 -5.574952E+05  8.850298E+04  5.300546E+04  5.805323E+04 -1.966090E-10  8.950310E-11
       322  11 -6.098373E+05  7.788027E+04  4.582892E+04  5.359980E+04  3.821666E-10 -4.573660E-10
       322  12 -6.626963E+05  6.594013E+04  3.733935E+04  5.959150E+04  1.194109E-10 -1.948831E-10
       322  13 -9.482720E+05 -2.627398E+03 -1.154263E+04  5.941031E+04  1.429763E-10  3.874754E-11
       322  14 -9.477921E+05 -5.245645E+02 -7.945520E+03  5.418729E+04  4.549784E-10 -1.360818E-10
       322  15 -9.482583E+05 -1.648170E+02 -7.362655E+03  5.940982E+04  3.423230E-10 -1.844958E-10
       322  16 -1.338897E+06 -9.376567E+04 -7.609525E+04  6.076650E+04  5.277244E-10 -9.098676E-11
       322  17 -1.285633E+06 -7.893511E+04 -6.172289E+04  5.477444E+04  2.876231E-10 -9.637998E-11
       322  18 -1.233739E+06 -6.627378E+04 -5.206661E+04  5.922821E+04 -3.516452E-10  2.518242E-10
       322  19 -5.574949E+05  8.850376E+04  5.300695E+04  5.805343E+04  9.425211E+03  2.658538E+04
       322  20 -6.098371E+05  7.788094E+04  4.583018E+04  5.359995E+04  7.912095E+03  2.463320E+04
       322  21 -6.626962E+05  6.594063E+04  3.734029E+04  5.959161E+04  6.399950E+03  2.140526E+04
       322  22 -9.482717E+05 -2.626627E+03 -1.154122E+04  5.941046E+04  6.900762E+03  2.658646E+04
       322  23 -9.477919E+05 -5.239109E+02 -7.944364E+03  5.418735E+04  2.941996E+03  2.463326E+04
       322  24 -9.482582E+05 -1.643250E+02 -7.361792E+03  5.940980E+04 -1.015889E+03  2.140395E+04
       322  25 -1.338897E+06 -9.376490E+04 -7.609388E+04  6.076660E+04  4.377849E+03  2.658753E+04
       322  26 -1.285633E+06 -7.893446E+04 -6.172174E+04  5.477440E+04 -2.025495E+03  2.463332E+04
       322  27 -1.233739E+06 -6.627327E+04 -5.206562E+04  5.922807E+04 -8.428442E+03  2.140265E+04
       323   1 -6.963647E+05  5.812832E+04  3.122079E+04  5.905216E+04 -5.021629E+03 -1.911478E+04
       323   2 -7.483489E+05  4.511262E+04  1.968258E+04  5.513477E+04  3.281095E+02 -1.521958E+04
       323   3 -8.017376E+05  2.927368E+04  3.951340E+03  6.177138E+04  5.676947E+03 -1.120849E+04
       323   4 -9.483656E+05 -1.521511E+02 -7.947285E+03  5.943384E+04  2.335883E+03 -1.911311E+04
       323   5 -9.476415E+05 -9.545218E+02 -1.116450E+04  5.415736E+04  7.906072E+03 -1.521735E+04
       323   6 -9.483624E+05 -4.618622E+03 -1.872857E+04  5.943518E+04  1.347578E+04 -1.120570E+04
       323   7 -1.200303E+06 -5.843570E+04 -4.711663E+04  5.981535E+04  9.690519E+03 -1.911143E+04
       323   8 -1.146894E+06 -4.702356E+04 -4.201228E+04  5.318028E+04  1.548169E+04 -1.521515E+04
       323   9 -1.094965E+06 -3.851192E+04 -4.140873E+04  5.709956E+04  2.127283E+04 -1.120297E+04
       323  10 -6.963648E+05  5.812792E+04  3.122006E+04  5.905209E+04  2.067779E-10 -6.512341E-11
       323  11 -7.483489E+05  4.511237E+04  1.968215E+04  5.513477E+04  1.185203E-11 -3.253006E-11
       323  12 -8.017377E+05  2.927354E+04  3.951044E+03  6.177143E+04  1.088716E-10 -5.880425E-10
       323  13 -9.483658E+05 -1.525447E+02 -7.947981E+03  5.943388E+04  4.205584E-11 -1.440147E-10
       323  14 -9.476416E+05 -9.547872E+02 -1.116506E+04  5.415746E+04 -6.075330E-12 -2.960149E-10
       323  15 -9.483626E+05 -4.618806E+03 -1.872915E+04  5.943531E+04 -2.229641E-11 -2.972364E-10
       323  16 -1.200303E+06 -5.843612E+04 -4.711750E+04  5.981550E+04 -3.134156E-10 -4.905778E-13
       323  17 -1.146895E+06 -4.702388E+04 -4.201317E+04  5.318047E+04 -1.140353E-09  2.753187E-10
       323  18 -1.094966E+06 -3.851217E+04 -4.140982E+04  5.709975E+04 -7.583554E-10  1.434199E-10
       323  19 -6.963647E+05  5.812832E+04  3.122079E+04  5.905216E+04  5.021629E+03  1.911478E+04
       323  20 -7.483489E+05  4.511262E+04  1.968258E+04  5.513477E+04 -3.281095E+02  1.521958E+04
       323  21 -8.017376E+05  2.927368E+04  3.951340E+03  6.177138E+04 -5.676947E+03  1.120849E+04
       323  22 -9.483656E+05 -1.521511E+02 -7.947285E+03  5.943384E+04 -2.335883E+03  1.911311E+04
       323  23 -9.476415E+05 -9.545218E+02 -1.116450E+04  5.415736E+04 -7.906072E+03  1.521735E+04
       323  24 -9.483624E+05 -4.618622E+03 -1.872857E+04  5.943518E+04 -1.347578E+04  1.120570E+04
       323  25 -1.200303E+06 -5.843570E+04 -4.711663E+04  5.981535E+04 -9.690519E+03  1.911143E+04
       323  26 -1.146894E+06 -4.702356E+04 -4.201228E+04  5.318028E+04 -1.548169E+04  1.521515E+04
       323  27 -1.094965E+06 -3.851192E+04 -4.140873E+04  5.709956E+04 -2.127283E+04  1.120297E+04
       324   1 -8.379460E+05  2.108820E+04 -7.115484E+03  5.744785E+04  8.869794E+03 -8.826747E+03
       324   2 -8.839522E+05 -8.265314E+03 -3.491439E+04  7.955279E+04  3.179721E+04 -4.840243E+03
       324   3 -9.434708E+05 -7.967328E+04 -8.817162E+04  1.122219E+05  5.472279E+04 -1.038961E+03
       324   4 -9.510270E+05 -5.001477E+03 -2.437658E+04  5.943515E+04  1.667377E+04 -8.823714E+03
       324   5 -9.443175E+05 -2.218486E+04 -4.395687E+04  5.416512E+04  3.924030E+04 -4.838535E+03
       324   6 -9.510608E+05 -8.136413E+04 -8.874503E+04  5.946229E+04  6.180666E+04 -1.040613E+03
       324   7 -1.064095E+06 -3.109172E+04 -4.163771E+04  6.142207E+04  2.447638E+04 -8.820630E+03
       324   8 -1.004678E+06 -3.610213E+04 -5.299887E+04  2.878003E+04  4.668269E+04 -4.837437E+03
       324   9 -9.586445E+05 -8.304448E+04 -8.931675E+04  6.703405E+03  6.889046E+04 -1.043470E+03
       324  10 -8.379461E+05  2.108810E+04 -7.115778E+03  5.744791E+04  1.156403E-10 -9.936572E-10
       324  11 -8.839533E+05 -8.265611E+03 -3.491634E+04  7.955291E+04  1.117543E-10 -1.319727E-09
       324  12 -9.434741E+05 -7.967409E+04 -8.817726E+04  1.122219E+05 -7.109422E-10 -3.531678E-10
       324  13 -9.510273E+05 -5.001635E+03 -2.437725E+04  5.943527E+04  1.152881E-09 -1.658111E-09
       324  14 -9.443192E+05 -2.218530E+04 -4.395982E+04  5.416527E+04 -9.776812E-10  7.826384E-10
       324  15 -9.510649E+05 -8.136516E+04 -8.875222E+04  5.946235E+04 -1.351468E-11 -1.751873E-11
       324  16 -1.064096E+06 -3.109197E+04 -4.163898E+04  6.142224E+04 -5.568575E-10  7.989530E-11
       324  17 -1.004680E+06 -3.610274E+04 -5.300302E+04  2.878021E+04 -5.204184E-10  7.987977E-10
       324  18 -9.586496E+05 -8.304576E+04 -8.932568E+04  6.703463E+03  7.631535E-10 -2.610360E-10
       324  19 -8.379460E+05  2.108820E+04 -7.115484E+03  5.744785E+04 -8.869794E+03  8.826747E+03
       324  20 -8.839522E+05 -8.265314E+03 -3.491439E+04  7.955279E+04 -3.179721E+04  4.840243E+03
       324  21 -9.434708E+05 -7.967328E+04 -8.817162E+04  1.122219E+05 -5.472279E+04  1.038961E+03
       324  22 -9.510270E+05 -5.001477E+03 -2.437658E+04  5.943515E+04 -1.667377E+04  8.823714E+03
       324  23 -9.443175E+05 -2.218486E+04 -4.395687E+04  5.416512E+04 -3.924030E+04  4.838535E+03
       324  24 -9.510608E+05 -8.136413E+04 -8.874503E+04  5.946229E+04 -6.180666E+04  1.040613E+03
       324  25 -1.064095E+06 -3.109172E+04 -4.163771E+04  6.142207E+04 -2.447638E+04  8.820630E+03
       324  26 -1.004678E+06 -3.610213E+04 -5.299887E+04  2.878003E+04 -4.668269E+04  4.837437E+03
       324  27 -9.586445E+05 -8.304448E+04 -8.931675E+04  6.703405E+03 -6.889046E+04  1.043470E+03
       325   1  1.478032E+05  1.781389E+05  1.636626E+05  1.214095E+05  3.719378E+04 -1.085787E+04
       325   2  1.795568E+04  1.667252E+05  1.209139E+05  1.220995E+05  9.219776E+03 -3.522253E+04
       325   3 -1.114585E+05  1.423179E+05  9.313830E+04  1.471751E+05 -1.875343E+04 -3.939950E+04
       325   4 -7.287396E+05 -3.830859E+04 -4.193620E+04  1.459493E+05 -2.892219E+04 -1.089742E+04
       325   5 -7.255405E+05 -1.039142E+04 -2.099146E+04  1.337422E+05 -1.812859E+04 -3.524539E+04
       325   6 -7.286641E+05 -2.210069E+03 -1.200604E+04  1.459239E+05 -7.340620E+03 -3.939340E+04
       325   7 -1.604564E+06 -2.548061E+05 -2.475708E+05  1.704541E+05 -9.494537E+04 -1.094224E+04
       325   8 -1.468502E+06 -1.875396E+05 -1.629190E+05  1.453704E+05 -4.544497E+04 -3.526930E+04
       325   9 -1.345494E+06 -1.467582E+05 -1.171624E+05  1.446740E+05  4.061207E+03 -3.938734E+04
       325  10  1.478016E+05  1.781384E+05  1.636598E+05  1.214098E+05  1.378398E-09 -3.631547E-10
       325  11  1.795526E+04  1.667238E+05  1.209115E+05  1.220998E+05  3.522907E-10 -1.651276E-09
       325  12 -1.114593E+05  1.423161E+05  9.313472E+04  1.471745E+05 -2.201458E-10 -1.430560E-09
       325  13 -7.287406E+05 -3.830894E+04 -4.193800E+04  1.459491E+05 -3.945733E-10  1.601094E-10
       325  14 -7.255411E+05 -1.039284E+04 -2.099441E+04  1.337416E+05 -3.934512E-10 -1.297231E-09
       325  15 -7.286646E+05 -2.211749E+03 -1.200906E+04  1.459237E+05 -3.698170E-10 -4.748692E-10
       325  16 -1.604573E+06 -2.548087E+05 -2.475880E+05  1.704533E+05 -1.930340E-09 -1.080680E-10
       325  17 -1.468504E+06 -1.875415E+05 -1.629252E+05  1.453691E+05  1.846232E-10 -2.464472E-09
       325  18 -1.345495E+06 -1.467599E+05 -1.171654E+05  1.446741E+05  5.100235E-10 -2.706472E-09
       325  19  1.478032E+05  1.781389E+05  1.636626E+05  1.214095E+05 -3.719378E+04  1.085787E+04
       325  20  1.795568E+04  1.667252E+05  1.209139E+05  1.220995E+05 -9.219776E+03  3.522253E+04
       325  21 -1.114585E+05  1.423179E+05  9.313830E+04  1.471751E+05  1.875343E+04  3.939950E+04
       325  22 -7.287396E+05 -3.830859E+04 -4.193620E+04  1.459493E+05  2.892219E+04  1.089742E+04
       325  23 -7.255405E+05 -1.039142E+04 -2.099146E+04  1.337422E+05  1.812859E+04  3.524539E+04
       325  24 -7.286641E+05 -2.210069E+03 -1.200604E+04  1.459239E+05  7.340620E+03  3.939340E+04
       325  25 -1.604564E+06 -2.548061E+05 -2.475708E+05  1.704541E+05  9.494537E+04  1.094224E+04
       325  26 -1.468502E+06 -1.875396E+05 -1.629190E+05  1.453704E+05  4.544497E+04  3.526930E+04
       325  27 -1.345494E+06 -1.467582E+05 -1.171624E+05  1.446740E+05 -4.061207E+03  3.938734E+04
       326   1 -1.937796E+05  1.226546E+05  7.981918E+04  1.454092E+05 -1.615407E+04 -3.531936E+04
       326   2 -3.233285E+05  9.351776E+04  5.839113E+04  1.330738E+05 -1.680641E+04 -2.887524E+04
       326   3 -4.529883E+05  6.365571E+04  3.719808E+04  1.465450E+05 -1.746203E+04 -2.040064E+04
       326   4 -7.274203E+05 -1.994743E+03 -9.528380E+03  1.462411E+05 -5.728364E+03 -3.531282E+04
       326   5 -7.270008E+05 -2.437186E+02 -6.512945E+03  1.333362E+05 -2.486444E+03 -2.886338E+04
       326   6 -7.273842E+05  1.062444E+02 -5.969171E+03  1.462392E+05  7.521252E+02 -2.038277E+04
       326   7 -1.260780E+06 -1.266589E+05 -9.888437E+04  1.470722E+05  4.688680E+03 -3.530624E+04
       326   8 -1.130511E+06 -9.401331E+04 -7.142061E+04  1.335984E+05  1.182454E+04 -2.885151E+04
       326   9 -1.001704E+06 -6.344677E+04 -4.913702E+04  1.459335E+05  1.895852E+04 -2.036492E+04
       326  10 -1.937802E+05  1.226532E+05  7.981635E+04  1.454088E+05 -3.080876E-09 -1.618207E-09
       326  11 -3.233290E+05  9.351679E+04  5.838903E+04  1.330734E+05 -7.429340E-10  4.553989E-10
       326  12 -4.529887E+05  6.365518E+04  3.719673E+04  1.465448E+05  8.805166E-10  8.823418E-10
       326  13 -7.274206E+05 -1.996090E+03 -9.530784E+03  1.462410E+05  1.770671E-10 -1.058817E-09
       326  14 -7.270011E+05 -2.446145E+02 -6.514521E+03  1.333362E+05 -4.544547E-10  5.331718E-10
       326  15 -7.273843E+05  1.057982E+02 -5.969952E+03  1.462392E+05  5.930894E-10 -1.077817E-09
       326  16 -1.260780E+06 -1.266602E+05 -9.888676E+04  1.470724E+05  2.494699E-09 -1.854606E-10
       326  17 -1.130511E+06 -9.401424E+04 -7.142244E+04  1.335987E+05  5.315921E-10  9.385698E-10
       326  18 -1.001705E+06 -6.344731E+04 -4.913848E+04  1.459338E+05 -1.127890E-09 -1.070129E-10
       326  19 -1.937796E+05  1.226546E+05  7.981918E+04  1.454092E+05  1.615407E+04  3.531936E+04
       326  20 -3.233285E+05  9.351776E+04  5.839113E+04  1.330738E+05  1.680641E+04  2.887524E+04
       326  21 -4.529883E+05  6.365571E+04  3.719808E+04  1.465450E+05  1.746203E+04  2.040064E+04
       326  22 -7.274203E+05 -1.994743E+03 -9.528380E+03  1.462411E+05  5.728364E+03  3.531282E+04
       326  23 -7.270008E+05 -2.437186E+02 -6.512945E+03  1.333362E+05  2.486444E+03  2.886338E+04
       326  24 -7.273842E+05  1.062444E+02 -5.969171E+03  1.462392E+05 -7.521252E+02  2.038277E+04
       326  25 -1.260780E+06 -1.266589E+05 -9.888437E+04  1.470722E+05 -4.688680E+03  3.530624E+04
       326  26 -1.130511E+06 -9.401331E+04 -7.142061E+04  1.335984E+05 -1.182454E+04  2.885151E+04
       326  27 -1.001704E+06 -6.344677E+04 -4.913702E+04  1.459335E+05 -1.895852E+04  2.036492E+04
       327   1 -5.356925E+05  4.441263E+04  2.313368E+04  1.460509E+05 -1.634748E+04 -1.476231E+04
       327   2 -6.646023E+05  1.362357E+04 -4.832404E+02  1.341021E+05 -1.030618E+04 -5.702445E+03
       327   3 -7.949638E+05 -1.968905E+04 -2.868260E+04  1.480479E+05 -4.265917E+03  2.532656E+03
       327   4 -7.274635E+05  1.224763E+02 -6.412617E+03  1.462583E+05  1.814402E+03 -1.474369E+04
       327   5 -7.268656E+05 -5.337345E+02 -8.947539E+03  1.333126E+05  6.271173E+03 -5.685097E+03
       327   6 -7.274604E+05 -3.437589E+03 -1.496422E+04  1.462618E+05  1.072810E+04  2.548688E+03
       327   7 -9.191970E+05 -4.416928E+04 -3.595849E+04  1.464656E+05  1.997088E+04 -1.472506E+04
       327   8 -7.891243E+05 -1.469105E+04 -1.741084E+04  1.325232E+05  2.284694E+04 -5.667790E+03
       327   9 -6.599521E+05  1.281372E+04 -1.245224E+03  1.444756E+05  2.572371E+04  2.564632E+03
       327  10 -5.356928E+05  4.441232E+04  2.313277E+04  1.460507E+05 -2.245562E-09  1.686255E-09
       327  11 -6.646024E+05  1.362350E+04 -4.835013E+02  1.341021E+05 -1.588592E-10  1.519412E-09
       327  12 -7.949638E+05 -1.968907E+04 -2.868264E+04  1.480479E+05  2.204530E-09  1.114921E-10
       327  13 -7.274636E+05  1.222421E+02 -6.413032E+03  1.462583E+05  1.129841E-09 -1.654003E-09
       327  14 -7.268656E+05 -5.337798E+02 -8.947674E+03  1.333127E+05 -5.746110E-10  1.304476E-09
       327  15 -7.274605E+05 -3.437627E+03 -1.496444E+04  1.462618E+05 -2.510127E-10  1.794150E-09
       327  16 -9.191975E+05 -4.416962E+04 -3.595965E+04  1.464659E+05  2.062267E-09  2.876832E-10
       327  17 -7.891249E+05 -1.469123E+04 -1.741188E+04  1.325233E+05  9.085490E-11  1.359442E-09
       327  18 -6.599528E+05  1.281354E+04 -1.246481E+03  1.444755E+05 -2.179976E-09  1.629444E-10
       327  19 -5.356925E+05  4.441263E+04  2.313368E+04  1.460509E+05  1.634748E+04  1.476231E+04
       327  20 -6.646023E+05  1.362357E+04 -4.832404E+02  1.341021E+05  1.030618E+04  5.702445E+03
       327  21 -7.949638E+05 -1.968905E+04 -2.868260E+04  1.480479E+05  4.265917E+03 -2.532656E+03
       327  22 -7.274635E+05  1.224763E+02 -6.412617E+03  1.462583E+05 -1.814402E+03  1.474369E+04
       327  23 -7.268656E+05 -5.337345E+02 -8.947539E+03  1.333126E+05 -6.271173E+03  5.685097E+03
       327  24 -7.274604E+05 -3.437589E+03 -1.496422E+04  1.462618E+05 -1.072810E+04 -2.548688E+03
       327  25 -9.191970E+05 -4.416928E+04 -3.595849E+04  1.464656E+05 -1.997088E+04  1.472506E+04
       327  26 -7.891243E+05 -1.469105E+04 -1.741084E+04  1.325232E+05 -2.284694E+04  5.667790E+03
       327  27 -6.599521E+05  1.281372E+04 -1.245224E+03  1.444756E+05 -2.572371E+04 -2.564632E+03
       328   1 -8.800938E+05 -3.953074E+04 -4.769721E+04  1.443904E+05 -2.194517E+03  7.541542E+03
       328   2 -1.002769E+06 -8.449450E+04 -9.146342E+04  1.535642E+05  3.483209E+04  1.068787E+04
       328   3 -1.139494E+06 -1.662271E+05 -1.685649E+05  1.879685E+05  7.185674E+04  3.918141E+03
       328   4 -7.295871E+05 -3.751236E+03 -1.946444E+04  1.461097E+05  1.327802E+04  7.557774E+03
       328   5 -7.242332E+05 -1.750351E+04 -3.508270E+04  1.335206E+05  3.129061E+04  1.068279E+04
       328   6 -7.296328E+05 -6.471113E+04 -7.081233E+04  1.461664E+05  4.930971E+04  3.891205E+03
       328   7 -5.790579E+05  3.202709E+04  8.768245E+03  1.478295E+05  2.875423E+04  7.574089E+03
       328   8 -4.456222E+05  4.948419E+04  2.129426E+04  1.134679E+05  2.774756E+04  1.067795E+04
       328   9 -3.196122E+05  3.679957E+04  2.693132E+04  1.043365E+05  2.674783E+04  3.867322E+03
       328  10 -8.800938E+05 -3.953080E+04 -4.769733E+04  1.443904E+05  3.763630E-10 -9.936432E-11
       328  11 -1.002771E+06 -8.449495E+04 -9.146592E+04  1.535639E+05 -2.360421E-10  1.962392E-09
       328  12 -1.139500E+06 -1.662285E+05 -1.685747E+05  1.879682E+05 -1.345080E-10  6.136098E-10
       328  13 -7.295873E+05 -3.751344E+03 -1.946488E+04  1.461096E+05 -1.431736E-10  2.616746E-10
       328  14 -7.242343E+05 -1.750389E+04 -3.508476E+04  1.335204E+05 -7.889448E-10  2.486673E-09
       328  15 -7.296354E+05 -6.471180E+04 -7.081693E+04  1.461662E+05  4.024399E-10 -5.412640E-10
       328  16 -5.790588E+05  3.202681E+04  8.766582E+03  1.478293E+05 -6.906078E-10  2.696020E-10
       328  17 -4.456231E+05  4.948387E+04  2.129260E+04  1.134676E+05 -6.490289E-10  8.594455E-10
       328  18 -3.196130E+05  3.679936E+04  2.692995E+04  1.043364E+05 -5.623607E-10 -2.872607E-10
       328  19 -8.800938E+05 -3.953074E+04 -4.769721E+04  1.443904E+05  2.194517E+03 -7.541542E+03
       328  20 -1.002769E+06 -8.449450E+04 -9.146342E+04  1.535642E+05 -3.483209E+04 -1.068787E+04
       328  21 -1.139494E+06 -1.662271E+05 -1.685649E+05  1.879685E+05 -7.185674E+04 -3.918141E+03
       328  22 -7.295871E+05 -3.751236E+03 -1.946444E+04  1.461097E+05 -1.327802E+04 -7.557774E+03
       328  23 -7.242332E+05 -1.750351E+04 -3.508270E+04  1.335206E+05 -3.129061E+04 -1.068279E+04
       328  24 -7.296328E+05 -6.471113E+04 -7.081233E+04  1.461664E+05 -4.930971E+04 -3.891205E+03
       328  25 -5.790579E+05  3.202709E+04  8.768245E+03  1.478295E+05 -2.875423E+04 -7.574089E+03
       328  26 -4.456222E+05  4.948419E+04  2.129426E+04  1.134679E+05 -2.774756E+04 -1.067795E+04
       328  27 -3.196122E+05  3.679957E+04  2.693132E+04  1.043365E+05 -2.674783E+04 -3.867322E+03
       329   1  2.166684E+05  1.538235E+05  1.448443E+05  1.306438E+05  3.961947E+04 -7.770703E+03
       329   2  9.346687E+04  1.260581E+05  9.823686E+04  1.224510E+05  1.294788E+04 -2.466603E+04
       329   3 -2.629028E+04  9.821073E+04  6.897324E+04  1.373904E+05 -1.372910E+04 -2.613093E+04
       329   4 -4.466502E+05 -1.005587E+04 -1.124142E+04  1.368526E+05 -7.589395E+03 -7.816477E+03
       329   5 -4.457711E+05 -2.597889E+03 -5.746620E+03  1.252809E+05 -4.623565E+03 -2.468607E+04
       329   6 -4.466054E+05 -3.668386E+02 -3.488872E+03  1.368429E+05 -1.668167E+03 -2.611877E+04
       329   7 -1.109559E+06 -1.739653E+05 -1.673490E+05  1.430547E+05 -5.474812E+04 -7.863224E+03
       329   8 -9.847286E+05 -1.312710E+05 -1.097424E+05  1.281083E+05 -2.218010E+04 -2.470628E+04
       329   9 -8.667466E+05 -9.895382E+04 -7.595648E+04  1.362957E+05  1.038486E+04 -2.610663E+04
       329  10  2.166667E+05  1.538230E+05  1.448412E+05  1.306440E+05  3.221984E-09 -1.063900E-09
       329  11  9.346653E+04  1.260574E+05  9.823540E+04  1.224512E+05 -1.327000E-10 -1.577148E-09
       329  12 -2.629067E+04  9.820995E+04  6.897161E+04  1.373901E+05 -3.266110E-09 -7.441044E-10
       329  13 -4.466502E+05 -1.005595E+04 -1.124164E+04  1.368526E+05  9.517371E-11  1.338331E-09
       329  14 -4.457712E+05 -2.598549E+03 -5.747805E+03  1.252808E+05 -3.350612E-10 -6.441452E-10
       329  15 -4.466055E+05 -3.675717E+02 -3.490159E+03  1.368428E+05  5.891655E-10 -1.283118E-09
       329  16 -1.109562E+06 -1.739661E+05 -1.673547E+05  1.430543E+05 -3.688581E-09  5.655695E-11
       329  17 -9.847293E+05 -1.312718E+05 -1.097445E+05  1.281078E+05 -4.811660E-10 -1.045290E-09
       329  18 -8.667469E+05 -9.895458E+04 -7.595796E+04  1.362959E+05  3.275347E-09 -1.597654E-09
       329  19  2.166684E+05  1.538235E+05  1.448443E+05  1.306438E+05 -3.961947E+04  7.770703E+03
       329  20  9.346687E+04  1.260581E+05  9.823686E+04  1.224510E+05 -1.294788E+04  2.466603E+04
       329  21 -2.629028E+04  9.821073E+04  6.897324E+04  1.373904E+05  1.372910E+04  2.613093E+04
       329  22 -4.466502E+05 -1.005587E+04 -1.124142E+04  1.368526E+05  7.589395E+03  7.816477E+03
       329  23 -4.457711E+05 -2.597889E+03 -5.746620E+03  1.252809E+05  4.623565E+03  2.468607E+04
       329  24 -4.466054E+05 -3.668386E+02 -3.488872E+03  1.368429E+05  1.668167E+03  2.611877E+04
       329  25 -1.109559E+06 -1.739653E+05 -1.673490E+05  1.430547E+05  5.474812E+04  7.863224E+03
       329  26 -9.847286E+05 -1.312710E+05 -1.097424E+05  1.281083E+05  2.218010E+04  2.470628E+04
       329  27 -8.667466E+05 -9.895382E+04 -7.595648E+04  1.362957E+05 -1.038486E+04  2.610663E+04
       330   1 -1.040610E+05  7.978867E+04  5.517219E+04  1.370117E+05 -1.249097E+04 -2.199751E+04
       330   2 -2.255694E+05  5.148397E+04  3.354449E+04  1.249794E+05 -1.415312E+04 -1.536196E+04
       330   3 -3.468717E+05  2.328990E+04  1.301187E+04  1.371437E+05 -1.581739E+04 -7.232602E+03
       330   4 -4.462817E+05 -2.959126E+02 -2.930585E+03  1.370801E+05 -1.182126E+03 -2.198533E+04
       330   5 -4.461195E+05  1.622704E+02 -2.432965E+03  1.249812E+05  2.172226E+01 -1.534544E+04
       330   6 -4.462637E+05  2.338842E+02 -2.831677E+03  1.370795E+05  1.223136E+03 -7.211474E+03
       330   7 -7.883868E+05 -8.038663E+04 -6.103669E+04  1.371483E+05  1.012068E+04 -2.197314E+04
       330   8 -6.666209E+05 -5.116180E+04 -3.841104E+04  1.249829E+05  1.419170E+04 -1.532893E+04
       330   9 -5.456453E+05 -2.282247E+04 -1.867439E+04  1.370154E+05  1.826104E+04 -7.190348E+03
       330  10 -1.040613E+05  7.978811E+04  5.517098E+04  1.370115E+05 -1.101114E-09  1.230942E-09
       330  11 -2.255696E+05  5.148366E+04  3.354367E+04  1.249792E+05 -1.445568E-09  5.454631E-10
       330  12 -3.468720E+05  2.328978E+04  1.301131E+04  1.371436E+05 -1.513345E-09  1.052093E-09
       330  13 -4.462818E+05 -2.964319E+02 -2.931496E+03  1.370801E+05  6.939316E-10  9.718353E-11
       330  14 -4.461195E+05  1.620176E+02 -2.433408E+03  1.249812E+05  8.856821E-12 -1.651981E-10
       330  15 -4.462637E+05  2.338279E+02 -2.831778E+03  1.370795E+05 -6.075464E-11  8.306743E-10
       330  16 -7.883871E+05 -8.038718E+04 -6.103779E+04  1.371485E+05  7.579298E-10  6.890915E-10
       330  17 -6.666212E+05 -5.116211E+04 -3.841186E+04  1.249831E+05  1.985196E-09 -2.762640E-09
       330  18 -5.456457E+05 -2.282262E+04 -1.867512E+04  1.370155E+05  1.249487E-09 -5.106231E-10
       330  19 -1.040610E+05  7.978867E+04  5.517219E+04  1.370117E+05  1.249097E+04  2.199751E+04
       330  20 -2.255694E+05  5.148397E+04  3.354449E+04  1.249794E+05  1.415312E+04  1.536196E+04
       330  21 -3.468717E+05  2.328990E+04  1.301187E+04  1.371437E+05  1.581739E+04  7.232602E+03
       330  22 -4.462817E+05 -2.959126E+02 -2.930585E+03  1.370801E+05  1.182126E+03  2.198533E+04
       330  23 -4.461195E+05  1.622704E+02 -2.432965E+03  1.249812E+05 -2.172226E+01  1.534544E+04
       330  24 -4.462637E+05  2.338842E+02 -2.831677E+03  1.370795E+05 -1.223136E+03  7.211474E+03
       330  25 -7.883868E+05 -8.038663E+04 -6.103669E+04  1.371483E+05 -1.012068E+04  2.197314E+04
       330  26 -6.666209E+05 -5.116180E+04 -3.841104E+04  1.249829E+05 -1.419170E+04  1.532893E+04
       330  27 -5.456453E+05 -2.282247E+04 -1.867439E+04  1.370154E+05 -1.826104E+04  7.190348E+03
       331   1 -4.243388E+05  5.266429E+03 -2.601495E+02  1.368502E+05 -1.527627E+04 -1.953217E+03
       331   2 -5.451671E+05 -2.344904E+04 -2.216091E+04  1.253355E+05 -1.037925E+04  6.335630E+03
       331   3 -6.671185E+05 -5.393646E+04 -4.771220E+04  1.380407E+05 -5.481652E+03  1.344440E+04
       331   4 -4.463595E+05  2.427600E+02 -3.350721E+03  1.370842E+05  1.749859E+03 -1.931914E+03
       331   5 -4.459912E+05 -2.292627E+02 -5.288571E+03  1.249758E+05  4.381424E+03  6.353647E+03
       331   6 -4.463685E+05 -2.079374E+03 -9.303369E+03  1.370870E+05  7.014501E+03  1.345923E+04
       331   7 -4.683791E+05 -4.780775E+03 -6.440209E+03  1.373183E+05  1.877541E+04 -1.910598E+03
       331   8 -3.468052E+05  2.299011E+04  1.158427E+04  1.246160E+05  1.914438E+04  6.371644E+03
       331   9 -2.255704E+05  4.977516E+04  2.910434E+04  1.361329E+05  1.951497E+04  1.347402E+04
       331  10 -4.243391E+05  5.266362E+03 -2.605954E+02  1.368501E+05 -2.315454E-09  2.535715E-09
       331  11 -5.451672E+05 -2.344911E+04 -2.216119E+04  1.253356E+05  2.255266E-10 -1.447650E-10
       331  12 -6.671186E+05 -5.393666E+04 -4.771260E+04  1.380407E+05  1.866988E-09  2.302582E-09
       331  13 -4.463595E+05  2.427552E+02 -3.350734E+03  1.370842E+05  5.207096E-10  1.535866E-09
       331  14 -4.459913E+05 -2.293112E+02 -5.288683E+03  1.249758E+05 -2.744340E-10  1.552360E-09
       331  15 -4.463686E+05 -2.079582E+03 -9.303802E+03  1.370869E+05 -2.134438E-10 -7.354666E-11
       331  16 -4.683795E+05 -4.780874E+03 -6.440879E+03  1.373183E+05  2.035640E-09  1.133066E-09
       331  17 -3.468056E+05  2.298997E+04  1.158350E+04  1.246159E+05 -1.427804E-10  8.756804E-10
       331  18 -2.255709E+05  4.977486E+04  2.910328E+04  1.361327E+05 -2.148363E-09 -2.396551E-09
       331  19 -4.243388E+05  5.266429E+03 -2.601495E+02  1.368502E+05  1.527627E+04  1.953217E+03
       331  20 -5.451671E+05 -2.344904E+04 -2.216091E+04  1.253355E+05  1.037925E+04 -6.335630E+03
       331  21 -6.671185E+05 -5.393646E+04 -4.771220E+04  1.380407E+05  5.481652E+03 -1.344440E+04
       331  22 -4.463595E+05  2.427600E+02 -3.350721E+03  1.370842E+05 -1.749859E+03  1.931914E+03
       331  23 -4.459912E+05 -2.292627E+02 -5.288571E+03  1.249758E+05 -4.381424E+03 -6.353647E+03
       331  24 -4.463685E+05 -2.079374E+03 -9.303369E+03  1.370870E+05 -7.014501E+03 -1.345923E+04
       331  25 -4.683791E+05 -4.780775E+03 -6.440209E+03  1.373183E+05 -1.877541E+04  1.910598E+03
       331  26 -3.468052E+05  2.299011E+04  1.158427E+04  1.246160E+05 -1.914438E+04 -6.371644E+03
       331  27 -2.255704E+05  4.977516E+04  2.910434E+04  1.361329E+05 -1.951497E+04 -1.347402E+04
       332   1 -7.463873E+05 -7.254846E+04 -6.466520E+04  1.355960E+05 -4.513577E+03  1.782031E+04
       332   2 -8.622914E+05 -1.110326E+05 -1.039814E+05  1.377755E+05  3.139941E+04  1.831700E+04
       332   3 -9.892882E+05 -1.750479E+05 -1.730908E+05  1.633035E+05  6.731528E+04  6.051351E+03
       332   4 -4.477308E+05 -2.285815E+03 -1.223050E+04  1.368899E+05  8.601442E+03  1.783522E+04
       332   5 -4.443297E+05 -1.106772E+04 -2.226929E+04  1.252355E+05  2.004152E+04  1.830263E+04
       332   6 -4.477727E+05 -4.111806E+04 -4.508583E+04  1.369314E+05  3.149181E+04  6.010046E+03
       332   7 -1.489866E+05  6.797206E+04  4.020162E+04  1.381844E+05  2.172259E+04  1.785018E+04
       332   8 -2.619966E+04  8.888729E+04  5.943499E+04  1.126869E+05  8.676133E+03  1.828872E+04
       332   9  9.401703E+04  9.279405E+04  8.290406E+04  1.105361E+05 -4.362782E+03  5.971810E+03
       332  10 -7.463874E+05 -7.254881E+04 -6.466584E+04  1.355960E+05 -1.800257E-09  1.760230E-09
       332  11 -8.622926E+05 -1.110332E+05 -1.039838E+05  1.377750E+05 -2.922136E-10 -9.719737E-10
       332  12 -9.892931E+05 -1.750491E+05 -1.730994E+05  1.633032E+05  8.146535E-10 -9.025853E-10
       332  13 -4.477310E+05 -2.286176E+03 -1.223124E+04  1.368897E+05 -4.641950E-10  2.431013E-09
       332  14 -4.443302E+05 -1.106819E+04 -2.227067E+04  1.252352E+05 -1.683679E-10 -2.133825E-09
       332  15 -4.477738E+05 -4.111837E+04 -4.508776E+04  1.369313E+05 -4.310325E-10  1.787839E-09
       332  16 -1.489872E+05  6.797159E+04  4.020013E+04  1.381841E+05  1.349525E-09  1.241831E-10
       332  17 -2.619983E+04  8.888691E+04  5.943422E+04  1.126868E+05 -3.583304E-10  1.142318E-09
       332  18  9.401700E+04  9.279401E+04  8.290396E+04  1.105361E+05 -1.023540E-09 -4.375292E-10
       332  19 -7.463873E+05 -7.254846E+04 -6.466520E+04  1.355960E+05  4.513577E+03 -1.782031E+04
       332  20 -8.622914E+05 -1.110326E+05 -1.039814E+05  1.377755E+05 -3.139941E+04 -1.831700E+04
       332  21 -9.892882E+05 -1.750479E+05 -1.730908E+05  1.633035E+05 -6.731528E+04 -6.051351E+03
       332  22 -4.477308E+05 -2.285815E+03 -1.223050E+04  1.368899E+05 -8.601442E+03 -1.783522E+04
       332  23 -4.443297E+05 -1.106772E+04 -2.226929E+04  1.252355E+05 -2.004152E+04 -1.830263E+04
       332  24 -4.477727E+05 -4.111806E+04 -4.508583E+04  1.369314E+05 -3.149181E+04 -6.010046E+03
       332  25 -1.489866E+05  6.797206E+04  4.020162E+04  1.381844E+05 -2.172259E+04 -1.785018E+04
       332  26 -2.619966E+04  8.888729E+04  5.943499E+04  1.126869E+05 -8.676133E+03 -1.828872E+04
       332  27  9.401703E+04  9.279405E+04  8.290406E+04  1.105361E+05  4.362782E+03 -5.971810E+03
       333   1  1.436882E+05  9.220972E+04  8.852283E+04  9.365970E+04  2.685073E+04 -3.868429E+03
       333   2  6.166778E+04  6.658511E+04  5.558920E+04  8.440447E+04  9.665758E+03 -1.187953E+04
       333   3 -1.686288E+04  4.604933E+04  3.511295E+04  9.057838E+04 -7.523525E+03 -1.154200E+04
       333   4 -2.107568E+05  4.563472E+03  4.776075E+03  9.056267E+04  3.482795E+03 -3.891554E+03
       333   5 -2.111004E+05  1.356857E+03  2.253124E+03  8.285004E+04  2.331808E+03 -1.188742E+04
       333   6 -2.107429E+05  4.570923E+02  1.054451E+03  9.056672E+04  1.174160E+03 -1.153305E+04
       333   7 -5.650850E+05 -8.309145E+04 -7.897732E+04  8.746738E+04 -1.987187E+04 -3.914453E+03
       333   8 -4.837971E+05 -6.387584E+04 -5.108632E+04  8.129629E+04 -4.998991E+03 -1.189528E+04
       333   9 -4.045859E+05 -4.513716E+04 -3.300512E+04  9.055506E+04  9.869209E+03 -1.152411E+04
       333  10  1.436874E+05  9.220951E+04  8.852144E+04  9.365978E+04  1.779610E-08 -2.068435E-10
       333  11  6.166764E+04  6.658493E+04  5.558876E+04  8.440456E+04 -4.174703E-08  1.351775E-09
       333  12 -1.686297E+04  4.604917E+04  3.511259E+04  9.057831E+04 -9.584521E-08 -2.003018E-09
       333  13 -2.107568E+05  4.563452E+03  4.776024E+03  9.056268E+04  4.391790E-10 -1.388955E-09
       333  14 -2.111004E+05  1.356704E+03  2.252848E+03  8.285007E+04 -2.194882E-10 -4.363881E-09
       333  15 -2.107429E+05  4.569491E+02  1.054199E+03  9.056674E+04  2.925302E-10 -3.189408E-09
       333  16 -5.650855E+05 -8.309157E+04 -7.897809E+04  8.746732E+04 -1.813124E-08 -2.991437E-10
       333  17 -4.837972E+05 -6.387600E+04 -5.108663E+04  8.129625E+04  4.077861E-08  1.905656E-10
       333  18 -4.045861E+05 -4.513733E+04 -3.300555E+04  9.055515E+04  9.569646E-08 -3.751077E-09
       333  19  1.436882E+05  9.220972E+04  8.852283E+04  9.365970E+04 -2.685073E+04  3.868429E+03
       333  20  6.166778E+04  6.658511E+04  5.558920E+04  8.440447E+04 -9.665758E+03  1.187953E+04
       333  21 -1.686288E+04  4.604933E+04  3.511295E+04  9.057838E+04  7.523525E+03  1.154200E+04
       333  22 -2.107568E+05  4.563472E+03  4.776075E+03  9.056267E+04 -3.482795E+03  3.891554E+03
       333  23 -2.111004E+05  1.356857E+03  2.253124E+03  8.285004E+04 -2.331808E+03  1.188742E+04
       333  24 -2.107429E+05  4.570923E+02  1.054451E+03  9.056672E+04 -1.174160E+03  1.153305E+04
       333  25 -5.650850E+05 -8.309145E+04 -7.897732E+04  8.746738E+04  1.987187E+04  3.914453E+03
       333  26 -4.837971E+05 -6.387584E+04 -5.108632E+04  8.129629E+04  4.998991E+03  1.189528E+04
       333  27 -4.045859E+05 -4.513716E+04 -3.300512E+04  9.055506E+04 -9.869209E+03  1.152411E+04
       334   1 -6.851605E+04  3.388593E+04  2.545364E+04  9.088867E+04 -7.238877E+03 -8.645622E+03
       334   2 -1.488678E+05  1.476019E+04  1.054133E+04  8.274617E+04 -8.698770E+03 -3.942304E+03
       334   3 -2.289596E+05 -3.971112E+03 -3.331924E+03  9.060470E+04 -1.015934E+04  1.531572E+03
       334   4 -2.108964E+05  4.444593E+02  6.501727E+02  9.069338E+04  1.053836E+03 -8.636834E+03
       334   5 -2.108926E+05  2.339854E+02 -5.206966E+01  8.269297E+04  1.072658E+03 -3.931742E+03
       334   6 -2.108932E+05  1.611588E+02 -7.427492E+02  9.069370E+04  1.090605E+03  1.543952E+03
       334   7 -3.532568E+05 -3.299807E+04 -2.415376E+04  9.049813E+04  9.344705E+03 -8.628049E+03
       334   8 -2.729134E+05 -1.429237E+04 -1.064524E+04  8.263978E+04  1.084314E+04 -3.921182E+03
       334   9 -1.928262E+05  4.293483E+03  1.846897E+03  9.078270E+04  1.234086E+04  1.556334E+03
       334  10 -6.851612E+04  3.388583E+04  2.545340E+04  9.088862E+04  9.638381E-08 -3.169875E-09
       334  11 -1.488678E+05  1.476015E+04  1.054116E+04  8.274614E+04  3.988428E-08  1.156498E-09
       334  12 -2.289597E+05 -3.971142E+03 -3.332123E+03  9.060471E+04 -2.160179E-08  4.700921E-09
       334  13 -2.108965E+05  4.443789E+02  6.500304E+02  9.069339E+04 -1.897654E-10  1.104647E-09
       334  14 -2.108926E+05  2.339685E+02 -5.210087E+01  8.269298E+04 -4.672055E-11 -6.730666E-09
       334  15 -2.108932E+05  1.611559E+02 -7.427559E+02  9.069370E+04  1.053908E-11  4.655583E-09
       334  16 -3.532569E+05 -3.299817E+04 -2.415406E+04  9.049820E+04 -9.624775E-08 -5.413599E-09
       334  17 -2.729135E+05 -1.429242E+04 -1.064549E+04  8.263982E+04 -3.978546E-08 -1.491452E-09
       334  18 -1.928264E+05  4.293439E+03  1.846606E+03  9.078269E+04  2.128125E-08  2.068165E-09
       334  19 -6.851605E+04  3.388593E+04  2.545364E+04  9.088867E+04  7.238877E+03  8.645622E+03
       334  20 -1.488678E+05  1.476019E+04  1.054133E+04  8.274617E+04  8.698770E+03  3.942304E+03
       334  21 -2.289596E+05 -3.971112E+03 -3.331924E+03  9.060470E+04  1.015934E+04 -1.531572E+03
       334  22 -2.108964E+05  4.444593E+02  6.501727E+02  9.069338E+04 -1.053836E+03  8.636834E+03
       334  23 -2.108926E+05  2.339854E+02 -5.206966E+01  8.269297E+04 -1.072658E+03  3.931742E+03
       334  24 -2.108932E+05  1.611588E+02 -7.427492E+02  9.069370E+04 -1.090605E+03 -1.543952E+03
       334  25 -3.532568E+05 -3.299807E+04 -2.415376E+04  9.049813E+04 -9.344705E+03  8.628049E+03
       334  26 -2.729134E+05 -1.429237E+04 -1.064524E+04  8.263978E+04 -1.084314E+04  3.921182E+03
       334  27 -1.928262E+05  4.293483E+03  1.846897E+03  9.078270E+04 -1.234086E+04 -1.556334E+03
       335   1 -2.801570E+05 -1.587974E+04 -1.216817E+04  9.048974E+04 -1.000899E+04  5.019127E+03
       335   2 -3.600300E+05 -3.481348E+04 -2.663944E+04  8.278222E+04 -6.943870E+03  1.039101E+04
       335   3 -4.405768E+05 -5.472855E+04 -4.336302E+04  9.106133E+04 -3.877730E+03  1.476682E+04
       335   4 -2.109701E+05  1.648043E+02 -1.154245E+03  9.069026E+04  1.250443E+03  5.031422E+03
       335   5 -2.108009E+05 -9.381658E+01 -2.317921E+03  8.269766E+04  2.403709E+03  1.040075E+04
       335   6 -2.109783E+05 -1.001018E+03 -4.405319E+03  9.069149E+04  3.558341E+03  1.477413E+04
       335   7 -1.417782E+05  1.620918E+04  9.860032E+03  9.089080E+04  1.251109E+04  5.043722E+03
       335   8 -6.154955E+04  3.462475E+04  2.200330E+04  8.261308E+04  1.175346E+04  1.041048E+04
       335   9  1.867212E+04  5.272376E+04  3.455088E+04  9.032148E+04  1.099708E+04  1.478142E+04
       335  10 -2.801571E+05 -1.587980E+04 -1.216841E+04  9.048978E+04  1.443128E-09  2.077464E-10
       335  11 -3.600301E+05 -3.481360E+04 -2.663973E+04  8.278227E+04 -8.255397E-10  2.528460E-10
       335  12 -4.405768E+05 -5.472879E+04 -4.336346E+04  9.106138E+04 -2.870214E-09 -1.465630E-10
       335  13 -2.109701E+05  1.647767E+02 -1.154296E+03  9.069025E+04  4.908624E-12  2.763623E-09
       335  14 -2.108009E+05 -9.393428E+01 -2.318135E+03  8.269764E+04 -6.923943E-10 -1.351690E-09
       335  15 -2.109784E+05 -1.001255E+03 -4.405753E+03  9.069144E+04  5.457185E-10 -5.915106E-10
       335  16 -1.417784E+05  1.620911E+04  9.859690E+03  9.089075E+04 -1.474533E-09  8.861583E-10
       335  17 -6.154973E+04  3.462460E+04  2.200284E+04  8.261299E+04  2.508880E-10  4.568206E-09
       335  18  1.867193E+04  5.272349E+04  3.455024E+04  9.032135E+04  2.388136E-09  3.180989E-09
       335  19 -2.801570E+05 -1.587974E+04 -1.216817E+04  9.048974E+04  1.000899E+04 -5.019127E+03
       335  20 -3.600300E+05 -3.481348E+04 -2.663944E+04  8.278222E+04  6.943870E+03 -1.039101E+04
       335  21 -4.405768E+05 -5.472855E+04 -4.336302E+04  9.106133E+04  3.877730E+03 -1.476682E+04
       335  22 -2.109701E+05  1.648043E+02 -1.154245E+03  9.069026E+04 -1.250443E+03 -5.031422E+03
       335  23 -2.108009E+05 -9.381658E+01 -2.317921E+03  8.269766E+04 -2.403709E+03 -1.040075E+04
       335  24 -2.109783E+05 -1.001018E+03 -4.405319E+03  9.069149E+04 -3.558341E+03 -1.477413E+04
       335  25 -1.417782E+05  1.620918E+04  9.860032E+03  9.089080E+04 -1.251109E+04 -5.043722E+03
       335  26 -6.154955E+04  3.462475E+04  2.200330E+04  8.261308E+04 -1.175346E+04 -1.041048E+04
       335  27  1.867212E+04  5.272376E+04  3.455088E+04  9.032148E+04 -1.099708E+04 -1.478142E+04
       336   1 -4.928293E+05 -6.705444E+04 -5.433533E+04  8.980474E+04 -3.624338E+03  1.749093E+04
       336   2 -5.697130E+05 -9.124117E+04 -8.020983E+04  8.894405E+04  2.167286E+04  1.651271E+04
       336   3 -6.533666E+05 -1.292613E+05 -1.260252E+05  1.033681E+05  4.697379E+04  5.256081E+03
       336   4 -2.116500E+05 -1.102761E+03 -5.879377E+03  9.053396E+04  4.311932E+03  1.749834E+04
       336   5 -2.099867E+05 -5.405904E+03 -1.085465E+04  8.290026E+04  9.891516E+03  1.650038E+04
       336   6 -2.116708E+05 -2.011293E+04 -2.206835E+04  9.055183E+04  1.547848E+04  5.226187E+03
       336   7  6.960716E+04  6.484471E+04  4.257412E+04  9.126349E+04  1.225169E+04  1.750578E+04
       336   8  1.498644E+05  8.042189E+04  5.849507E+04  7.685286E+04 -1.896506E+03  1.648828E+04
       336   9  2.302071E+05  8.902270E+04  8.187888E+04  7.772633E+04 -1.603912E+04  5.197606E+03
       336  10 -4.928294E+05 -6.705478E+04 -5.433593E+04  8.980479E+04 -5.867169E-08 -3.724841E-09
       336  11 -5.697136E+05 -9.124159E+04 -8.021123E+04  8.894376E+04 -2.486301E-09 -2.263716E-09
       336  12 -6.533690E+05 -1.292619E+05 -1.260294E+05  1.033679E+05  5.451069E-08 -2.316877E-11
       336  13 -2.116501E+05 -1.103095E+03 -5.879987E+03  9.053390E+04  2.499437E-10 -2.807476E-10
       336  14 -2.099869E+05 -5.406223E+03 -1.085535E+04  8.290013E+04 -1.774391E-10 -4.967159E-09
       336  15 -2.116711E+05 -2.011302E+04 -2.206885E+04  9.055176E+04  2.330194E-10 -1.275027E-09
       336  16  6.960692E+04  6.484434E+04  4.257326E+04  9.126332E+04  5.852214E-08 -1.173997E-09
       336  17  1.498644E+05  8.042160E+04  5.849455E+04  7.685289E+04  1.545094E-09  1.248893E-11
       336  18  2.302069E+05  8.902260E+04  8.187834E+04  7.772639E+04 -5.515722E-08 -9.273093E-11
       336  19 -4.928293E+05 -6.705444E+04 -5.433533E+04  8.980474E+04  3.624338E+03 -1.749093E+04
       336  20 -5.697130E+05 -9.124117E+04 -8.020983E+04  8.894405E+04 -2.167286E+04 -1.651271E+04
       336  21 -6.533666E+05 -1.292613E+05 -1.260252E+05  1.033681E+05 -4.697379E+04 -5.256081E+03
       336  22 -2.116500E+05 -1.102761E+03 -5.879377E+03  9.053396E+04 -4.311932E+03 -1.749834E+04
       336  23 -2.099867E+05 -5.405904E+03 -1.085465E+04  8.290026E+04 -9.891516E+03 -1.650038E+04
       336  24 -2.116708E+05 -2.011293E+04 -2.206835E+04  9.055183E+04 -1.547848E+04 -5.226187E+03
       336  25  6.960716E+04  6.484471E+04  4.257412E+04  9.126349E+04 -1.225169E+04 -1.750578E+04
       336  26  1.498644E+05  8.042189E+04  5.849507E+04  7.685286E+04  1.896506E+03 -1.648828E+04
       336  27  2.302071E+05  8.902270E+04  8.187888E+04  7.772633E+04  1.603912E+04 -5.197606E+03
       337   1  5.552198E+04  3.790666E+04  3.746972E+04  4.866170E+04  1.286522E+04 -1.094861E+03
       337   2  1.614370E+04  2.167951E+04  2.075438E+04  4.211860E+04  5.041244E+03 -3.040686E+03
       337   3 -2.090942E+04  1.072375E+04  1.044848E+04  4.300553E+04 -2.784232E+03 -2.105695E+03
       337   4 -6.355086E+04  8.403984E+03  9.081291E+03  4.318739E+04  6.375087E+03 -1.100296E+03
       337   5 -6.423159E+04  2.341098E+03  4.465205E+03  3.947560E+04  4.083061E+03 -3.041532E+03
       337   6 -6.354910E+04  5.895990E+02  2.417332E+03  4.319368E+04  1.788955E+03 -2.101850E+03
       337   7 -1.826105E+05 -2.109959E+04 -1.930796E+04  3.771413E+04 -1.138102E+02 -1.105618E+03
       337   8 -1.446007E+05 -1.699769E+04 -1.182430E+04  3.683295E+04  3.125000E+03 -3.042369E+03
       337   9 -1.061870E+05 -9.544648E+03 -5.613812E+03  4.338183E+04  6.361835E+03 -2.098002E+03
       337  10  5.552180E+04  3.790662E+04  3.746941E+04  4.866171E+04  1.205587E-09  2.668769E-11
       337  11  1.614367E+04  2.167949E+04  2.075432E+04  4.211862E+04 -3.443081E-10  3.584096E-10
       337  12 -2.090943E+04  1.072375E+04  1.044845E+04  4.300552E+04 -1.241699E-09 -9.027496E-10
       337  13 -6.355090E+04  8.403972E+03  9.081212E+03  4.318739E+04 -4.679358E-11  3.935101E-10
       337  14 -6.423161E+04  2.341084E+03  4.465157E+03  3.947561E+04 -4.344202E-12  3.418864E-11
       337  15 -6.354910E+04  5.895934E+02  2.417318E+03  4.319369E+04  9.421140E-11 -1.465434E-09
       337  16 -1.826105E+05 -2.109959E+04 -1.930796E+04  3.771413E+04 -1.331277E-09 -7.344686E-10
       337  17 -1.446007E+05 -1.699770E+04 -1.182433E+04  3.683296E+04  4.237770E-11 -2.190638E-09
       337  18 -1.061870E+05 -9.544664E+03 -5.613896E+03  4.338184E+04  9.885298E-10 -2.304767E-09
       337  19  5.552198E+04  3.790666E+04  3.746972E+04  4.866170E+04 -1.286522E+04  1.094861E+03
       337  20  1.614370E+04  2.167951E+04  2.075438E+04  4.211860E+04 -5.041244E+03  3.040686E+03
       337  21 -2.090942E+04  1.072375E+04  1.044848E+04  4.300553E+04  2.784232E+03  2.105695E+03
       337  22 -6.355086E+04  8.403984E+03  9.081291E+03  4.318739E+04 -6.375087E+03  1.100296E+03
       337  23 -6.423159E+04  2.341098E+03  4.465205E+03  3.947560E+04 -4.083061E+03  3.041532E+03
       337  24 -6.354910E+04  5.895990E+02  2.417332E+03  4.319368E+04 -1.788955E+03  2.101850E+03
       337  25 -1.826105E+05 -2.109959E+04 -1.930796E+04  3.771413E+04  1.138102E+02  1.105618E+03
       337  26 -1.446007E+05 -1.699769E+04 -1.182430E+04  3.683295E+04 -3.125000E+03  3.042369E+03
       337  27 -1.061870E+05 -9.544648E+03 -5.613812E+03  4.338183E+04 -6.361835E+03  2.098002E+03
       338   1 -4.564557E+04  4.940303E+03  5.571581E+03  4.347135E+04 -2.958125E+03 -6.286596E+02
       338   2 -8.394374E+04 -4.395859E+03 -1.815431E+03  3.949265E+04 -3.891093E+03  1.799881E+03
       338   3 -1.220415E+05 -1.336164E+04 -8.506720E+03  4.314070E+04 -4.824160E+03  4.467157E+03
       338   4 -6.382508E+04  5.512113E+02  1.809024E+03  4.323677E+04  1.476629E+03 -6.249058E+02
       338   5 -6.388535E+04  1.682247E+02  9.456022E+02  3.942360E+04  1.001906E+03  1.803987E+03
       338   6 -6.382563E+04  7.626367E+01  4.598031E+02  4.323716E+04  5.270384E+02  4.471612E+03
       338   7 -8.200424E+04 -3.837891E+03 -1.953478E+03  4.300220E+04  5.911255E+03 -6.211553E+02
       338   8 -4.382650E+04  4.732303E+03  3.706721E+03  3.935455E+04  5.895056E+03  1.808091E+03
       338   9 -5.606311E+03  1.351402E+04  9.426358E+03  4.333364E+04  5.878719E+03  4.476068E+03
       338  10 -4.564558E+04  4.940300E+03  5.571564E+03  4.347135E+04 -3.524344E-09  2.579195E-10
       338  11 -8.394375E+04 -4.395866E+03 -1.815465E+03  3.949265E+04  1.127146E-10 -9.565835E-10
       338  12 -1.220415E+05 -1.336167E+04 -8.506801E+03  4.314071E+04  4.006086E-09 -2.224312E-10
       338  13 -6.382509E+04  5.512103E+02  1.809019E+03  4.323677E+04  2.704945E-10 -2.775302E-10
       338  14 -6.388535E+04  1.682210E+02  9.455942E+02  3.942360E+04 -2.811221E-10  4.128981E-10
       338  15 -6.382564E+04  7.624213E+01  4.597650E+02  4.323716E+04 -2.565114E-10 -1.228753E-09
       338  16 -8.200428E+04 -3.837901E+03 -1.953544E+03  4.300221E+04  3.278659E-09  1.468511E-09
       338  17 -4.382654E+04  4.732290E+03  3.706649E+03  3.935455E+04 -2.515313E-10 -1.999910E-09
       338  18 -5.606354E+03  1.351399E+04  9.426255E+03  4.333362E+04 -4.618336E-09  4.761864E-10
       338  19 -4.564557E+04  4.940303E+03  5.571581E+03  4.347135E+04  2.958125E+03  6.286596E+02
       338  20 -8.394374E+04 -4.395859E+03 -1.815431E+03  3.949265E+04  3.891093E+03 -1.799881E+03
       338  21 -1.220415E+05 -1.336164E+04 -8.506720E+03  4.314070E+04  4.824160E+03 -4.467157E+03
       338  22 -6.382508E+04  5.512113E+02  1.809024E+03  4.323677E+04 -1.476629E+03  6.249058E+02
       338  23 -6.388535E+04  1.682247E+02  9.456022E+02  3.942360E+04 -1.001906E+03 -1.803987E+03
       338  24 -6.382563E+04  7.626367E+01  4.598031E+02  4.323716E+04 -5.270384E+02 -4.471612E+03
       338  25 -8.200424E+04 -3.837891E+03 -1.953478E+03  4.300220E+04 -5.911255E+03  6.211553E+02
       338  26 -4.382650E+04  4.732303E+03  3.706721E+03  3.935455E+04 -5.895056E+03 -1.808091E+03
       338  27 -5.606311E+03  1.351402E+04  9.426358E+03  4.333364E+04 -5.878719E+03 -4.476068E+03
       339   1 -1.464148E+05 -1.903151E+04 -1.269213E+04  4.314779E+04 -4.905801E+03  6.127436E+03
       339   2 -1.844994E+05 -2.798406E+04 -1.940129E+04  3.936292E+04 -3.742001E+03  8.623214E+03
       339   3 -2.228080E+05 -3.718033E+04 -2.693300E+04  4.318218E+04 -2.577651E+03  1.051666E+04
       339   4 -6.385840E+04  7.737032E+01  2.850737E+02  4.323206E+04  4.613532E+02  6.131832E+03
       339   5 -6.384768E+04  2.679251E+01 -1.677040E+01  3.943010E+04  4.688423E+02  8.626471E+03
       339   6 -6.386150E+04 -6.664381E+01 -3.380429E+02  4.323218E+04  4.769495E+02  1.051884E+04
       339   7  1.870483E+04  1.918593E+04  1.326222E+04  4.331635E+04  5.829195E+03  6.136228E+03
       339   8  5.681858E+04  2.803692E+04  1.936743E+04  3.949729E+04  4.680475E+03  8.629729E+03
       339   9  9.510997E+04  3.704573E+04  2.625617E+04  4.328218E+04  3.532307E+03  1.052102E+04
       339  10 -1.464148E+05 -1.903155E+04 -1.269225E+04  4.314781E+04 -1.901180E-08 -6.566974E-10
       339  11 -1.844995E+05 -2.798414E+04 -1.940146E+04  3.936294E+04  4.047004E-08  1.375455E-09
       339  12 -2.228080E+05 -3.718045E+04 -2.693322E+04  4.318221E+04  9.618915E-08  5.969226E-10
       339  13 -6.385841E+04  7.732989E+01  2.850027E+02  4.323206E+04 -2.201271E-10 -2.854254E-09
       339  14 -6.384770E+04  2.671255E+01 -1.691065E+01  3.943010E+04 -1.008272E-09  1.229485E-09
       339  15 -6.386153E+04 -6.676268E+01 -3.382513E+02  4.323218E+04  1.060883E-11  2.598130E-09
       339  16  1.870478E+04  1.918588E+04  1.326209E+04  4.331632E+04  1.878971E-08 -2.264865E-09
       339  17  5.681854E+04  2.803684E+04  1.936725E+04  3.949726E+04 -4.164984E-08 -1.261998E-09
       339  18  9.510993E+04  3.704561E+04  2.625594E+04  4.328215E+04 -9.648830E-08  3.211652E-09
       339  19 -1.464148E+05 -1.903151E+04 -1.269213E+04  4.314779E+04  4.905801E+03 -6.127436E+03
       339  20 -1.844994E+05 -2.798406E+04 -1.940129E+04  3.936292E+04  3.742001E+03 -8.623214E+03
       339  21 -2.228080E+05 -3.718033E+04 -2.693300E+04  4.318218E+04  2.577651E+03 -1.051666E+04
       339  22 -6.385840E+04  7.737032E+01  2.850737E+02  4.323206E+04 -4.613532E+02 -6.131832E+03
       339  23 -6.384768E+04  2.679251E+01 -1.677040E+01  3.943010E+04 -4.688423E+02 -8.626471E+03
       339  24 -6.386150E+04 -6.664381E+01 -3.380429E+02  4.323218E+04 -4.769495E+02 -1.051884E+04
       339  25  1.870483E+04  1.918593E+04  1.326222E+04  4.331635E+04 -5.829195E+03 -6.136228E+03
       339  26  5.681858E+04  2.803692E+04  1.936743E+04  3.949729E+04 -4.680475E+03 -8.629729E+03
       339  27  9.510997E+04  3.704573E+04  2.625617E+04  4.328218E+04 -3.532307E+03 -1.052102E+04
       340   1 -2.475101E+05 -4.305073E+04 -3.178295E+04  4.297040E+04 -2.810901E+03  1.171495E+04
       340   2 -2.845710E+05 -5.313233E+04 -4.323082E+04  4.007809E+04  9.249563E+03  1.047412E+04
       340   3 -3.239790E+05 -6.629455E+04 -6.330370E+04  4.437965E+04  2.131267E+04  3.245561E+03
       340   4 -6.393605E+04 -7.781224E+01 -5.273656E+02  4.314087E+04  5.360183E+02  1.171724E+04
       340   5 -6.376233E+04 -5.366820E+02 -1.101693E+03  3.954469E+04  1.104764E+03  1.046777E+04
       340   6 -6.394160E+04 -2.080171E+03 -2.318622E+03  4.314235E+04  1.677146E+03  3.231524E+03
       340   7  1.196712E+05  4.289333E+04  3.072715E+04  4.331140E+04  3.883896E+03  1.171953E+04
       340   8  1.570935E+05  5.205613E+04  4.102548E+04  3.901108E+04 -7.042865E+03  1.046144E+04
       340   9  1.961590E+05  6.212961E+04  5.866329E+04  4.190451E+04 -1.796655E+04  3.217568E+03
       340  10 -2.475102E+05 -4.305088E+04 -3.178322E+04  4.297042E+04 -9.870261E-08  1.908072E-09
       340  11 -2.845711E+05 -5.313247E+04 -4.323118E+04  4.007802E+04 -4.039066E-08  1.932892E-09
       340  12 -3.239795E+05 -6.629468E+04 -6.330458E+04  4.437960E+04  2.310671E-08  1.158502E-09
       340  13 -6.393609E+04 -7.795974E+01 -5.276241E+02  4.314087E+04  2.927069E-10  1.984889E-09
       340  14 -6.376236E+04 -5.368000E+02 -1.101901E+03  3.954468E+04 -1.169650E-09  1.558330E-09
       340  15 -6.394160E+04 -2.080183E+03 -2.318647E+03  4.314234E+04 -3.505640E-10  1.582402E-09
       340  16  1.196712E+05  4.289318E+04  3.072686E+04  4.331136E+04  9.853352E-08  5.068705E-09
       340  17  1.570934E+05  5.205600E+04  4.102518E+04  3.901114E+04  3.979522E-08  4.121972E-09
       340  18  1.961586E+05  6.212951E+04  5.866266E+04  4.190455E+04 -2.366526E-08 -1.010198E-10
       340  19 -2.475101E+05 -4.305073E+04 -3.178295E+04  4.297040E+04  2.810901E+03 -1.171495E+04
       340  20 -2.845710E+05 -5.313233E+04 -4.323082E+04  4.007809E+04 -9.249563E+03 -1.047412E+04
       340  21 -3.239790E+05 -6.629455E+04 -6.330370E+04  4.437965E+04 -2.131267E+04 -3.245561E+03
       340  22 -6.393605E+04 -7.781224E+01 -5.273656E+02  4.314087E+04 -5.360183E+02 -1.171724E+04
       340  23 -6.376233E+04 -5.366820E+02 -1.101693E+03  3.954469E+04 -1.104764E+03 -1.046777E+04
       340  24 -6.394160E+04 -2.080171E+03 -2.318622E+03  4.314235E+04 -1.677146E+03 -3.231524E+03
       340  25  1.196712E+05  4.289333E+04  3.072715E+04  4.331140E+04 -3.883896E+03 -1.171953E+04
       340  26  1.570935E+05  5.205613E+04  4.102548E+04  3.901108E+04  7.042865E+03 -1.046144E+04
       340  27  1.961590E+05  6.212961E+04  5.866329E+04  4.190451E+04  1.796655E+04 -3.217568E+03
